# vtk DataFile Version 2.0
phase field modeling fracture
ASCII
DATASET UNSTRUCTURED_GRID
POINTS 2538 float
0.0 0.0 0.0
10.0 0.0 0.0
0.0 10.0 0.0
10.0 10.0 0.0
0.0 4.9995 0.0
0.0 5.0005 0.0
5.0 5.0 0.0
0.9416964895726688 0.0 0.0
1.803581725054446 0.0 0.0
2.592419885431098 0.0 0.0
3.314401822861676 0.0 0.0
3.975193910351406 0.0 0.0
4.579982132660152 0.0 0.0
5.133512780936812 0.0 0.0
5.640130319506143 0.0 0.0
6.103810708661955 0.0 0.0
6.528192895506818 0.0 0.0
6.916607540127679 0.0 0.0
7.272102969376355 0.0 0.0
7.597469242948583 0.0 0.0
7.895259826292669 0.0 0.0
8.167811885738017 0.0 0.0
8.417264413845215 0.0 0.0
8.645575169389538 0.0 0.0
8.854535961159101 0.0 0.0
9.045786767735546 0.0 0.0
9.220828555767493 0.0 0.0
9.38103509633881 0.0 0.0
9.527663687265145 0.0 0.0
9.661865124984566 0.0 0.0
9.784692609918062 0.0 0.0
9.897110148790482 0.0 0.0
10.0 0.09999999999992584 0.0
10.0 0.199999999999856 0.0
10.0 0.2999999999997771 0.0
10.0 0.3999999999996677 0.0
10.0 0.4999999999995511 0.0
10.0 0.5999999999994683 0.0
10.0 0.6999999999993983 0.0
10.0 0.7999999999993286 0.0
10.0 0.8999999999992587 0.0
10.0 0.9999999999991888 0.0
10.0 1.099999999999119 0.0
10.0 1.199999999999033 0.0
10.0 1.299999999998852 0.0
10.0 1.399999999998576 0.0
10.0 1.499999999998284 0.0
10.0 1.599999999997992 0.0
10.0 1.6999999999977 0.0
10.0 1.799999999997408 0.0
10.0 1.899999999997116 0.0
10.0 1.999999999996825 0.0
10.0 2.099999999996533 0.0
10.0 2.199999999996241 0.0
10.0 2.299999999995949 0.0
10.0 2.399999999995657 0.0
10.0 2.499999999995365 0.0
10.0 2.599999999995073 0.0
10.0 2.699999999994782 0.0
10.0 2.79999999999449 0.0
10.0 2.899999999994198 0.0
10.0 2.999999999993906 0.0
10.0 3.099999999993614 0.0
10.0 3.199999999993322 0.0
10.0 3.299999999993029 0.0
10.0 3.399999999992738 0.0
10.0 3.499999999992446 0.0
10.0 3.599999999992154 0.0
10.0 3.699999999991863 0.0
10.0 3.799999999991571 0.0
10.0 3.899999999991278 0.0
10.0 3.999999999991022 0.0
10.0 4.099999999991035 0.0
10.0 4.199999999991187 0.0
10.0 4.299999999991338 0.0
10.0 4.399999999991491 0.0
10.0 4.499999999991642 0.0
10.0 4.599999999991795 0.0
10.0 4.699999999991947 0.0
10.0 4.799999999992099 0.0
10.0 4.89999999999225 0.0
10.0 4.999999999992403 0.0
10.0 5.099999999992555 0.0
10.0 5.199999999992706 0.0
10.0 5.299999999992858 0.0
10.0 5.39999999999301 0.0
10.0 5.499999999993161 0.0
10.0 5.599999999993313 0.0
10.0 5.699999999993466 0.0
10.0 5.799999999993618 0.0
10.0 5.899999999993771 0.0
10.0 5.999999999993922 0.0
10.0 6.099999999994074 0.0
10.0 6.199999999994227 0.0
10.0 6.299999999994378 0.0
10.0 6.39999999999453 0.0
10.0 6.499999999994682 0.0
10.0 6.599999999994833 0.0
10.0 6.699999999994986 0.0
10.0 6.799999999995138 0.0
10.0 6.899999999995289 0.0
10.0 6.999999999995442 0.0
10.0 7.099999999995594 0.0
10.0 7.199999999995747 0.0
10.0 7.299999999995897 0.0
10.0 7.39999999999605 0.0
10.0 7.499999999996202 0.0
10.0 7.599999999996353 0.0
10.0 7.699999999996505 0.0
10.0 7.799999999996658 0.0
10.0 7.899999999996808 0.0
10.0 7.999999999996962 0.0
10.0 8.099999999997113 0.0
10.0 8.199999999997265 0.0
10.0 8.299999999997418 0.0
10.0 8.399999999997569 0.0
10.0 8.499999999997721 0.0
10.0 8.599999999997873 0.0
10.0 8.699999999998024 0.0
10.0 8.799999999998176 0.0
10.0 8.899999999998329 0.0
10.0 8.99999999999848 0.0
10.0 9.099999999998634 0.0
10.0 9.199999999998786 0.0
10.0 9.299999999998937 0.0
10.0 9.399999999999089 0.0
10.0 9.499999999999241 0.0
10.0 9.599999999999392 0.0
10.0 9.699999999999545 0.0
10.0 9.799999999999697 0.0
10.0 9.899999999999848 0.0
9.897110148790565 10.0 0.0
9.784692609918244 10.0 0.0
9.66186512498486 10.0 0.0
9.527663687265571 10.0 0.0
9.381035096339392 10.0 0.0
9.220828555768257 10.0 0.0
9.045786767736512 10.0 0.0
8.854535961160305 10.0 0.0
8.645575169391027 10.0 0.0
8.417264413847017 10.0 0.0
8.167811885740178 10.0 0.0
7.895259826295246 10.0 0.0
7.597469242951631 10.0 0.0
7.272102969379938 10.0 0.0
6.916607540131873 10.0 0.0
6.528192895511704 10.0 0.0
6.103810708667616 10.0 0.0
5.640130319512691 10.0 0.0
5.13351278094435 10.0 0.0
4.579982132668816 10.0 0.0
3.975193910361222 10.0 0.0
3.314401822869852 10.0 0.0
2.592419885437257 10.0 0.0
1.803581725058137 10.0 0.0
0.9416964895740705 10.0 0.0
0.0 9.00010000000243 0.0
0.0 8.000200000005481 0.0
0.0 7.000300000005135 0.0
0.0 6.000400000002569 0.0
0.901790731451151 5.000409820926855 0.0
1.657200899774397 5.000334279910023 0.0
2.289991063707192 5.000271000893629 0.0
2.820065163538221 5.000217993483646 0.0
3.264096435579811 5.000173590356442 0.0
3.636051481595835 5.00013639485184 0.0
3.947629914072366 5.000105237008593 0.0
4.208632181002628 5.0000791367819 0.0
4.427267949625672 5.000057273205037 0.0
4.610414277633563 5.000038958572237 0.0
4.763831845154243 5.000023616815485 0.0
4.892346298799659 5.00001076537012 0.0
4.892346298799748 4.99998923462988 0.0
4.763831845154455 4.999976383184515 0.0
4.610414277633943 4.999961041427763 0.0
4.427267949626277 4.999942726794963 0.0
4.208632181003523 4.9999208632181 0.0
3.94762991407365 4.999894762991407 0.0
3.636051481597624 4.99986360514816 0.0
3.264096435582253 4.999826409643559 0.0
2.820065163541503 4.999782006516354 0.0
2.289991063711534 4.999728999106371 0.0
1.657200899778495 4.999665720089978 0.0
0.9017907314530094 4.999590179073145 0.0
0.0 3.999600000002013 0.0
0.0 2.999700000005187 0.0
0.0 1.99980000000512 0.0
0.0 0.9999000000025537 0.0
9.897889398521345 2.93573355845387 0.0
9.906568249974548 7.060009441434234 0.0
9.913122631074113 3.64016132281653 0.0
9.922462129543863 6.354535290629151 0.0
9.917693659967533 4.354211663134567 0.0
9.909873057440208 5.637584487339942 0.0
9.914183254994697 4.950672966925282 0.0
9.913885043715895 7.666887930262611 0.0
9.91009668007573 2.351889069770817 0.0
9.905135696074536 8.138152454502785 0.0
9.913397459621809 1.849999999997262 0.0
7.099302372137626 0.297750452375005 0.0
7.095143729410097 9.700359990366296 0.0
4.942912558701401 5.095838627899509 0.0
4.315009232304429 5.165022115481685 0.0
4.946182472483878 4.906763777264103 0.0
4.317967462990024 4.825955043772673 0.0
9.916390871492647 8.64999999999792 0.0
9.921504649680616 1.368376469890358 0.0
8.292538149791614 0.206877570318844 0.0
8.292538149793597 9.793122429681448 0.0
5.884594439766573 9.587645267048616 0.0
5.794826292691579 0.3794853783929359 0.0
9.913397459621425 9.049999999998557 0.0
9.908526577714177 0.9568239351922434 0.0
3.456851160380649 5.315740054130451 0.0
3.457889657868442 4.707121019609468 0.0
8.945214200703926 0.1503383337970344 0.0
8.950161364448409 9.8413906539257 0.0
9.913862335499305 4.055887885208452 0.0
9.916697353372683 4.650158482607802 0.0
9.919076340414442 6.049999999994006 0.0
9.906994308667635 5.25749687748192 0.0
9.917490342358025 6.655979201891897 0.0
9.915757520293784 7.343848891656911 0.0
9.910049507471042 3.363474386285078 0.0
9.914471988502868 2.647400064832979 0.0
9.91474124160965 9.337490423485129 0.0
9.916971008170838 0.6499999999994355 0.0
4.307157269264427 9.509674045029644 0.0
4.331527375865619 0.4401616696422582 0.0
9.45434939180249 9.878397030523757 0.0
9.457696120412969 0.1270877537061785 0.0
2.555070293622606 5.422044496190925 0.0
2.566232917480916 4.608001224030952 0.0
3.026511860837692 9.332320638257093 0.0
2.945561971800619 0.5895662714727601 0.0
7.7395404387124 0.2511088946967771 0.0
7.736379255744154 9.745848826372828 0.0
4.687135269408529 5.122111433928926 0.0
4.688420821504113 4.871895064967488 0.0
9.910554884115975 0.3448356354522978 0.0
9.911230082250466 9.65764729394159 0.0
9.921953841410854 6.851023993342036 0.0
9.912065178606017 5.448170483544033 0.0
9.911660025326261 3.861846960030188 0.0
9.914847467973438 3.14501593945607 0.0
9.913397459621425 5.849999999993703 0.0
9.913397459621425 7.849999999996735 0.0
9.906916878988277 2.15455769998631 0.0
9.913397459621425 8.349999999997479 0.0
9.909472363117661 1.640528221515488 0.0
9.913987325695956 1.152857110636247 0.0
9.913397459621425 8.849999999998241 0.0
0.9100099990995943 2.614215977520411 0.0
0.8395284981715456 7.451196254860987 0.0
9.723278867451556 9.898135916635193 0.0
9.723316350887044 0.09841820909386662 0.0
1.385819164827588 4.454539963646463 0.0
1.338343629665047 5.523111536005823 0.0
1.377179700550677 0.6809168304959698 0.0
1.418060461092743 9.285896715136046 0.0
9.91268220142518 0.1457914080939694 0.0
9.906737126737994 9.845745933882352 0.0
0.7108351382691361 6.537941170074089 0.0
1.527735020267026 6.915620208855231 0.0
1.630993885659103 7.838271825205868 0.0
2.232760943566823 7.370850737296832 0.0
2.243414218068206 6.688299277952821 0.0
2.779655053105118 7.021588754814074 0.0
2.80227799359795 7.632420170547022 0.0
3.282022065908813 7.305859666021318 0.0
3.327597298795347 7.857554136825748 0.0
3.743210251018715 7.549183328204379 0.0
3.716353232200752 7.062036086888612 0.0
4.111978858674101 7.27497101169417 0.0
4.104192177581432 6.879858986267289 0.0
4.436230765617037 7.045693351607117 0.0
4.430360014817357 6.703971783962796 0.0
4.732390145036301 6.849841042423394 0.0
5.056161327708878 5.095276573498806 0.0
5.111586796021131 4.999081142133581 0.0
5.169267363407189 5.09444870412406 0.0
5.223795108752053 4.996986220359468 0.0
5.281480803887719 5.092780870372803 0.0
5.335670761900611 4.994887492556936 0.0
5.393485214772442 5.090486192743301 0.0
5.447323082877892 4.992601527033996 0.0
5.505243219343024 5.087953380710069 0.0
5.558739102026105 4.990287787962959 0.0
5.616491581184779 5.085335255235766 0.0
5.669852346908056 4.9879269227514 0.0
5.727502713908907 5.082679981817038 0.0
5.780766004135139 4.988313988715834 0.0
5.838244881129535 5.080480568766611 0.0
5.891357695677371 4.986433849408193 0.0
5.948696036767613 5.077969900389505 0.0
6.001601341641615 4.981313698556656 0.0
6.058851024265095 5.074871552128682 0.0
6.111614020704875 4.978360695880202 0.0
6.168801161530775 5.072044953270978 0.0
6.221368818778567 4.975825765213497 0.0
6.278268309066882 5.066182320461055 0.0
6.330814273567539 4.972837984645718 0.0
6.387565032421376 5.062889771971895 0.0
6.437476667631405 4.971693683589553 0.0
6.496181111585419 5.060210690175857 0.0
6.539454812256072 4.964658165361536 0.0
6.604198202576491 5.056387520850258 0.0
6.648506025747331 4.939374587506267 0.0
6.714026758992516 5.05873885840664 0.0
6.764418045981209 4.959246676066148 0.0
6.8219334571197 5.055299567406268 0.0
6.873708540948134 4.960426349093742 0.0
6.930181428849307 5.053461390218819 0.0
6.981893615341967 4.96435459462232 0.0
7.037791764774784 5.051219747103022 0.0
7.090993561518408 4.96392420322464 0.0
5.504417457283294 4.900897920552702 0.0
7.145434864123609 5.048960634292441 0.0
6.054532384032612 4.883956083938546 0.0
6.738027949040956 4.850032323068674 0.0
7.198432914526514 4.956325226333323 0.0
7.252637187936749 5.046012229327236 0.0
7.30926729605109 4.948903216650376 0.0
7.248106275544042 4.860306312845646 0.0
7.363100274863074 4.849952416808486 0.0
7.365733472701664 5.039519554615095 0.0
7.308483293090149 5.137557220352172 0.0
6.768399513646964 5.145609705119954 0.0
7.422800035311104 5.132251445551834 0.0
7.358273518796229 5.235980394389298 0.0
7.480824155801127 5.227946127939927 0.0
7.302193400058628 4.761917474298247 0.0
7.413570879789824 4.754555110721153 0.0
7.414392998903179 5.334729114426734 0.0
7.352769630272076 4.660405502266205 0.0
7.467556835255426 4.658352623795039 0.0
7.536246869015014 5.328986926716081 0.0
7.478865844607288 5.432598185493195 0.0
7.406396991826072 4.556956233957538 0.0
7.523581002009154 4.552005631348623 0.0
7.597792398573263 5.429506106314967 0.0
7.540511043402902 5.53619421580439 0.0
7.46214474876342 4.452580994318881 0.0
7.5852185078634 4.446021810672608 0.0
7.663329342323453 5.533453399066901 0.0
7.603478967594521 5.643227430483237 0.0
7.513450346818673 4.347641323140766 0.0
7.640744971722214 4.333388343316237 0.0
7.727671715775243 5.642390483050116 0.0
7.667774597993788 5.753188858425915 0.0
7.570065256728661 4.230515669344811 0.0
7.702881065467917 4.218307808529532 0.0
7.638288257073729 4.107994211855027 0.0
7.493362356301017 4.120843902105771 0.0
7.779018500630071 5.521233457321821 0.0
7.794641287388929 5.752364621610818 0.0
7.73369774483611 5.865894287356292 0.0
7.600834531784728 5.867752110500446 0.0
6.233038857278689 5.15645045634683 0.0
7.669727996028819 5.985665563643058 0.0
7.528582452554481 5.987393423295551 0.0
7.598722674572824 6.11001923494443 0.0
7.778305000222867 4.104318908265786 0.0
7.704329019832056 3.987744174608892 0.0
7.838453459801382 4.213322728668484 0.0
7.864495721576461 5.862306066517277 0.0
7.846552353360407 3.98481756181946 0.0
7.769730409703277 3.86544808681145 0.0
5.785249360396857 5.177248808588045 0.0
7.908837087876153 3.861484036275285 0.0
7.834824606222196 3.740586825753288 0.0
7.97685993406276 3.736209527152902 0.0
7.89665098770825 3.615501862931453 0.0
7.753228010315262 3.617800245018972 0.0
7.826063013090472 3.483173292579822 0.0
7.66789744383048 3.48859328808356 0.0
8.042515855796823 3.595394268381807 0.0
7.75200750488492 3.341279823834038 0.0
7.582870318332553 3.346584916806707 0.0
8.120807847415062 3.732493963388337 0.0
8.189783970303546 3.61159165475499 0.0
7.657801000286734 3.200439907646711 0.0
7.486781956172036 3.201402473247712 0.0
7.452595103886905 6.11418616185016 0.0
7.527098033550077 6.243191052852112 0.0
8.260502906807751 3.728437634721859 0.0
8.327629317451398 3.608173631356984 0.0
7.372763970891452 6.247552889754036 0.0
7.456170570815929 6.384992468962936 0.0
7.621837793616884 6.376077080857113 0.0
7.548039512904141 6.520750676893614 0.0
7.717475944451644 6.514856553988943 0.0
7.636658166268699 6.661648164052906 0.0
7.807468267259438 6.664076174524672 0.0
7.718022764310774 6.817938967122142 0.0
7.887785766941087 6.807440365887151 0.0
7.545993589083432 6.815070675854734 0.0
7.809874785067209 6.967537287475282 0.0
7.975643812145337 6.948729406725126 0.0
8.396477808021062 3.725446935061211 0.0
7.565651643157136 3.044354774611752 0.0
7.384328725505071 3.043048915147076 0.0
8.056405351948353 6.802790889114673 0.0
8.14128318237188 6.940027831915737 0.0
8.064621760266059 7.086348792208953 0.0
8.225003598857908 6.805225152373254 0.0
8.463085452993242 3.606998510553562 0.0
8.230426869720718 7.079551841000411 0.0
8.155262284174286 7.224761758176069 0.0
8.530696760758996 3.721683301125054 0.0
8.596669886994064 3.604516769862316 0.0
8.528531058025589 3.490411531312337 0.0
8.320451770844851 7.218191678954744 0.0
8.245273958732774 7.363444652121271 0.0
8.66324687389452 3.717094013035765 0.0
8.600103125209296 3.831913857228569 0.0
8.662131102573216 3.488322280861316 0.0
8.594166125380536 3.374071873435548 0.0
8.411074336066186 7.353871649576861 0.0
8.339644223432472 7.505172120620427 0.0
8.165883718619623 7.513159193685373 0.0
8.483453820080417 7.2082285366806 0.0
8.261200365730348 7.657400951288149 0.0
8.081570576666843 7.670933304838066 0.0
7.471613195794025 2.872548423100142 0.0
7.268733678357991 2.881209199257603 0.0
7.184255506995786 3.084448584600423 0.0
7.065899603697895 2.883902449336828 0.0
6.960163891183182 3.081014635802978 0.0
6.847612128388715 2.885646860602812 0.0
6.739800729737967 3.078895733381448 0.0
8.729373804596847 3.827689165637365 0.0
8.668550856907444 3.938702277545298 0.0
8.72770789162863 3.371798381178293 0.0
8.659764090070603 3.257493349874974 0.0
8.436453928793245 7.648724489148887 0.0
6.619080287792762 2.90880017416788 0.0
6.511740956842646 3.09340654756684 0.0
8.793527829963288 3.935174834810256 0.0
8.736430500996828 4.042719556852617 0.0
7.631260330584174 4.565300771328012 0.0
8.359058396840432 7.801678182761817 0.0
5.339436215072359 5.184870243702279 0.0
4.994031736761993 5.193306795607908 0.0
6.383387675268097 4.87760645722207 0.0
7.29117392392962 6.382172868329505 0.0
6.378196825372041 2.907113079755629 0.0
6.269817199014261 3.12412150658573 0.0
8.793149127377946 3.255386294257182 0.0
8.725774239201558 3.141596687892195 0.0
8.857434600673502 4.041295940541356 0.0
8.802868937128341 4.1471119953668 0.0
8.532045262478793 7.7905977476835 0.0
7.364542641624493 2.699128473342751 0.0
7.571677611088925 2.695732556686516 0.0
6.723058333614999 2.672341359410618 0.0
8.456744924757372 7.94483904450548 0.0
6.140831279784704 2.921247401137864 0.0
6.02419219050745 3.14358702955763 0.0
8.916255604212301 3.934279868822481 0.0
8.859287250884009 3.140226640574265 0.0
8.791092798057303 3.025929352146465 0.0
7.210445465986021 6.245773134960393 0.0
7.120884161792869 6.385155584680196 0.0
7.036931702064287 6.240721609143972 0.0
6.943722280007011 6.3869279517155 0.0
8.920094519678617 4.144837222494242 0.0
8.864374107136287 4.250930406527029 0.0
7.347569838739255 4.463467417508182 0.0
5.90383431757064 2.935113219563906 0.0
5.783476009580765 3.156456199832474 0.0
8.626013191558314 7.935092223505354 0.0
8.687240186957197 7.796697889991163 0.0
5.642059327424706 2.903018174330269 0.0
5.52647853955939 3.162549070310043 0.0
8.555300051897738 8.086169516016518 0.0
8.405624441178524 8.083972416481254 0.0
5.374124307190728 2.945480555950917 0.0
8.935805220807357 3.249260758206028 0.0
8.981625171409894 4.247375537584228 0.0
8.924725364486765 4.352101286657735 0.0
8.807208588134106 4.356163101450244 0.0
8.868277832430604 4.45657124153171 0.0
8.75099635287701 4.460644845248524 0.0
8.812385950597063 4.560891222623518 0.0
8.693833206943118 4.564602972998703 0.0
8.756474732548273 4.665720853686476 0.0
8.63721608225855 4.669394550615355 0.0
8.700108119351134 4.770682016274914 0.0
8.81920502916846 4.767536120893284 0.0
8.76355311338807 4.871451945248518 0.0
8.881442328033694 4.868382238751069 0.0
8.826433523510634 4.97132552240372 0.0
8.943387824985514 4.967694248194483 0.0
8.888718468126953 5.071044784833541 0.0
8.580377663835254 4.774669738817985 0.0
8.770572242937233 5.073880380431421 0.0
8.832915096600454 5.174518948293615 0.0
8.952224483821848 5.170970838320107 0.0
8.897282771771884 5.275476392171722 0.0
7.463928467290875 2.513944501591933 0.0
7.675935950092034 2.509420347143072 0.0
8.924252417741767 3.024418701372628 0.0
8.857265893102921 2.911213535286156 0.0
8.776981063213334 5.27944309004916 0.0
8.840710910770163 5.380165700477552 0.0
8.960876896785969 5.375521424256389 0.0
8.904555918255223 5.482125846038813 0.0
7.567193097677677 2.32750151280277 0.0
7.780880844888839 2.323064027160363 0.0
6.851602118390116 6.234522818184622 0.0
6.758680682687229 6.389359516748128 0.0
6.66345977321418 6.231254850996584 0.0
8.715764716958308 8.079994249772627 0.0
8.65189989696114 8.227534663647639 0.0
9.042229096541828 4.348551764001607 0.0
6.436774206993324 3.316782326998922 0.0
7.590527613340588 5.22651784724799 0.0
9.024366884701616 5.476726561488805 0.0
8.968734351641839 5.583879050892151 0.0
8.845941080047659 5.586406316932274 0.0
8.909881305857882 5.690482454668167 0.0
7.348726871578975 5.44047403999932 0.0
6.567070253986433 6.398115757512583 0.0
6.697077150072261 6.553426749743366 0.0
5.252377383990728 3.187782967482479 0.0
8.988440431820699 2.908621158637298 0.0
8.922541972760119 2.796420836075996 0.0
6.466806010659505 6.229115583261771 0.0
9.033851153821296 5.686506775615425 0.0
8.978340519963718 5.795772485582058 0.0
8.85111463793018 5.798672910287243 0.0
8.922171984280597 5.907237880910408 0.0
8.795190680908043 5.911854068712683 0.0
8.864373398892472 6.019728357749566 0.0
8.991346995940626 6.014539153309398 0.0
8.93374019140187 6.12698887312768 0.0
5.095192648098848 2.952353430985476 0.0
7.672651464908932 2.141715359830917 0.0
7.886266921042761 2.136211284120189 0.0
9.098474286589756 4.245971410451114 0.0
8.813172564986438 8.216887361735234 0.0
8.74802978243154 8.366104673219047 0.0
9.059985162956899 6.120982589539211 0.0
9.00342813739303 6.233245043891739 0.0
4.961413514304496 3.214209167276753 0.0
9.05248113004685 2.794651022570942 0.0
8.986028039118027 2.681341972594222 0.0
5.671890458441996 3.377122473800023 0.0
4.755829262593116 7.184480462344647 0.0
9.158258644940048 4.34465968221255 0.0
4.799687186662534 2.961354824469195 0.0
6.030554747591715 2.726787502996874 0.0
8.938327180212585 8.34758372042188 0.0
8.847392320655468 8.503370672816716 0.0
8.67342124373679 8.518117686968314 0.0
5.234423106934083 2.694925204361751 0.0
8.964923046453565 8.185313058214797 0.0
7.456650986668838 2.134076476407834 0.0
9.111732084821366 2.897226832609386 0.0
6.368055837513985 6.402805870976705 0.0
6.265629899005033 6.226581076317183 0.0
8.736327196352686 6.026404178766982 0.0
9.117473097358854 2.67987006607594 0.0
9.052137415465204 2.565428515518978 0.0
7.781001557847192 1.955874236406257 0.0
7.992134447300669 1.949184538864554 0.0
8.593074792993455 3.143159483125708 0.0
9.1291360203536 6.226877897052981 0.0
9.072154326613617 6.338696745620542 0.0
8.916532550320525 2.566986282201109 0.0
8.984021113721658 2.449252898983242 0.0
9.178032243215632 6.120533546076094 0.0
9.213703592343162 4.244823670856978 0.0
9.11972142641474 2.449071238668887 0.0
9.052853896812186 2.33190758581705 0.0
8.635035926402708 4.462329956179506 0.0
8.773614475966344 8.657865377672689 0.0
8.596400917257634 8.67759750279447 0.0
8.942023339420883 8.644678093589654 0.0
9.19471670675691 6.33096438039349 0.0
9.138460613363325 6.443043552768813 0.0
8.66620319432524 5.916297234509582 0.0
8.606669825267202 6.032658196729024 0.0
9.27222540210304 4.341341907533128 0.0
9.013782808177437 6.451040569407859 0.0
9.08360982569773 6.55729980456602 0.0
7.885622149776354 1.768093045890686 0.0
8.095672144455353 1.768790621151345 0.0
9.208772072925791 6.549717411809656 0.0
9.154272208194383 6.662613503537815 0.0
9.187669783927937 2.334640996932141 0.0
9.122379015831417 2.215832190697178 0.0
6.164077036161143 6.404611236428829 0.0
6.062367614988677 6.224307160647549 0.0
8.987075041759633 2.211477580983978 0.0
9.056972755801603 2.093573581203428 0.0
9.194557288902232 2.096029761809264 0.0
9.131223008370409 1.972713028695079 0.0
8.87381302587057 8.795793668920256 0.0
9.039169086943392 8.781606667490083 0.0
4.662813350519927 3.228118291851354 0.0
4.474181267994617 2.945703616023359 0.0
6.562627723301209 6.075544382232434 0.0
9.326886053211574 4.243083624343211 0.0
9.280374192897945 6.656072830232892 0.0
9.224718905178564 6.766740750539347 0.0
4.703284910421452 6.528907865005451 0.0
8.955136474970331 6.565989985649191 0.0
8.998148826814893 4.865480736169776 0.0
8.99429836796776 1.965972383552685 0.0
9.065669391141741 1.847195105148808 0.0
9.207236162050343 1.853010386995843 0.0
9.143218073349985 1.725630086781897 0.0
8.998867447699345 1.719378449325465 0.0
9.082595782768397 1.592017827427701 0.0
8.92804562738841 1.585238202229766 0.0
9.01637794607019 1.453847302675876 0.0
8.854253119154375 1.446306868730686 0.0
8.941620273019874 1.320083886766936 0.0
8.775393064215876 1.308487027359826 0.0
9.102170347200483 1.324733726345249 0.0
9.013857060361985 1.178821526410403 0.0
7.991031819452564 1.587689878441685 0.0
7.767218744640202 1.595993197647291 0.0
9.191539171305216 1.194087248761656 0.0
9.123965901037613 1.057102462689568 0.0
4.853921953226772 3.470213116851758 0.0
7.496563223334782 3.470157221608763 0.0
8.536691379028115 5.921845852206257 0.0
8.475496498707471 6.037633662010236 0.0
7.978668526342969 2.307231488316941 0.0
9.384721922092124 4.337357165846226 0.0
9.331039180200886 4.435926256444196 0.0
8.546261775564837 6.150267290476958 0.0
8.411727261785726 6.155319300628062 0.0
8.972203609044218 8.930944433074036 0.0
9.133480321468399 8.90955269607895 0.0
9.197778815538276 8.768743880012563 0.0
6.162231825784922 6.05277753404107 0.0
5.962111081146334 6.046949845237622 0.0
9.268727788642101 4.146883230687689 0.0
9.380694211527906 4.144811697563401 0.0
9.323823335199954 4.049557759546529 0.0
9.283324894520613 1.736313094621396 0.0
5.858151623803662 6.22041808248046 0.0
5.759668475561988 6.038806123495502 0.0
7.836860473863919 3.191674397465999 0.0
9.348591928839294 6.75855034547469 0.0
9.293979592221298 6.870213350675044 0.0
9.170543172728557 6.879819332293818 0.0
9.240028263813034 6.983394994050525 0.0
4.347372565145963 3.312731475520695 0.0
4.114183445909965 2.96879678229065 0.0
8.616264880152233 4.042035981070631 0.0
9.403174760076901 6.650407069150438 0.0
4.173860112179449 7.723461240865885 0.0
9.365302975518428 6.973476802087294 0.0
9.312420275675276 7.088420778208979 0.0
9.184876614539778 7.0978133687822 0.0
9.25921281729617 7.204979813006656 0.0
9.12816413817609 7.21569648263899 0.0
9.203944409919862 7.322703303071253 0.0
9.334311975087337 7.311477957762272 0.0
9.280415785210538 7.428795599957155 0.0
9.274060219641907 1.066603180421249 0.0
9.211820491509728 0.9316562593680151 0.0
9.050684011148748 0.9017681241401576 0.0
9.441953732403995 4.432092590771756 0.0
9.394725873909666 4.526051349391942 0.0
9.43453556160865 4.048003950509361 0.0
9.378043599351757 3.952631412328806 0.0
9.289691247910705 8.890746792319852 0.0
9.228148443138926 9.030109127390128 0.0
4.440757888677695 6.389562448928118 0.0
4.689874463978985 6.239329075084555 0.0
4.291519540095677 2.622920583112654 0.0
3.886073352912894 2.632778677714434 0.0
9.344015622314338 1.202401041544343 0.0
8.193292196814806 3.849649660906171 0.0
6.960946604527747 6.07044529864598 0.0
9.347708267319902 8.756364147482309 0.0
6.826423138602714 3.261415861395883 0.0
6.06309517882478 5.884563187328262 0.0
9.4085057714426 7.414123963607981 0.0
9.356416821537886 7.532359471354527 0.0
5.042074134251055 6.938947182785697 0.0
5.063988238156824 7.311205832605263 0.0
3.946666851334923 3.30681624613374 0.0
8.189857914071878 1.939951128540477 0.0
7.880690277686857 1.38928908049477 0.0
7.63766396748483 1.399736360041063 0.0
9.345004233592562 1.857695941115052 0.0
9.440465164139875 7.085860901905448 0.0
7.918332480761888 5.744468010879592 0.0
9.08007135068879 5.372457017512481 0.0
8.78639561093144 3.718391405525285 0.0
9.356843485085705 0.9414458825132457 0.0
9.29705128845331 0.8103081541678832 0.0
9.251825423225316 2.451701826351773 0.0
8.483895366325516 6.270717564685176 0.0
8.346386886249478 6.275973306650227 0.0
9.493299170161215 4.138582531223591 0.0
5.321115649032961 7.117073603021904 0.0
5.354076009109965 7.436189411362466 0.0
5.597984079819928 7.254284331170681 0.0
5.644042313435943 7.564172740776336 0.0
5.383963016128051 7.753854027984002 0.0
5.681168258142109 7.880444993178456 0.0
5.935548099874979 7.687258900444162 0.0
5.979508404301389 7.994332725561488 0.0
6.21936843555201 7.802335560754011 0.0
6.267092590637372 8.104873033518185 0.0
6.498845418385807 7.917606504106031 0.0
6.544600005636809 8.209910620392591 0.0
6.77336078689533 8.027284686082275 0.0
6.814840179123049 8.311778392637773 0.0
6.721304148677048 7.737863326704131 0.0
7.031320924898797 8.1335673274533 0.0
7.077388928622946 8.403901803728003 0.0
5.417471987089176 8.090112295667405 0.0
8.845427688507666 2.446352368201366 0.0
9.318512319918124 2.339233739859646 0.0
9.380241452597096 2.451895615249572 0.0
7.283805558009199 8.237518806365102 0.0
7.329200330160381 8.497045124353782 0.0
7.233272584416691 7.991590926766813 0.0
9.142592248414191 5.471315142785471 0.0
9.196303265878848 5.36738298742727 0.0
9.25795832955665 5.465260877691205 0.0
9.310581303233182 5.36341558704714 0.0
9.371094700882272 5.459458038195667 0.0
9.422767107822985 5.360687090455724 0.0
9.36402660964156 5.264821436196721 0.0
9.474220736978928 5.262802348886269 0.0
9.41680330511366 5.169477108906666 0.0
5.168675939028436 4.895496152382537 0.0
9.482591449057548 5.454699312257291 0.0
9.431567605310825 5.552723344040521 0.0
7.531449703396948 4.741663470323411 0.0
8.517293123442691 4.672601123164268 0.0
8.459978676626639 4.778466809901586 0.0
8.396595115309985 4.67568709170855 0.0
8.338966609235166 4.782101664607259 0.0
8.275355646032752 4.678829956447008 0.0
8.217675280223542 4.785699596769931 0.0
8.28149024865807 4.888803783902183 0.0
8.16019781596952 4.892696417098926 0.0
8.22433278506531 4.995725219088695 0.0
8.102825704443651 4.999629142625341 0.0
8.166887930010795 5.098242831115916 0.0
8.034904900788316 4.896825406879729 0.0
8.15353539905931 4.682103688185489 0.0
8.211891449058882 4.574219757233394 0.0
8.290305306104333 5.094007100958221 0.0
8.225684228618732 5.201525567655179 0.0
9.444618942559746 2.343141375196729 0.0
6.929446520625337 4.868116916840016 0.0
5.737810725167649 4.893891407574175 0.0
8.720389971487277 5.38508368411851 0.0
8.805734920311323 8.951818172412821 0.0
8.905272694453211 9.083303226359831 0.0
6.006155038818204 5.171375272745409 0.0
6.431496448228514 5.152985998213245 0.0
9.052675024457304 7.106590131831544 0.0
7.740007013494393 6.09727525827826 0.0
9.375852260355511 9.013078430361404 0.0
9.32035844773103 9.14584923943073 0.0
6.989707597683965 5.146377438798643 0.0
9.488190206836386 3.951168069367155 0.0
9.432429152094464 3.855725756072153 0.0
5.568386402814275 5.185723849666124 0.0
9.525561551078322 5.166162126187324 0.0
9.465026391994275 5.072601962964018 0.0
9.320357339516937 3.857795423728873 0.0
9.375955927831914 3.759314274140895 0.0
9.261783786753899 3.761412578759438 0.0
9.31820665563318 3.661845422072752 0.0
9.431798673168924 3.660830894813109 0.0
9.374584413615914 3.563138564686839 0.0
9.48759661134647 3.562294297118573 0.0
9.431339678707085 3.464016717943268 0.0
9.417896212887529 1.746970678437863 0.0
8.731705369070733 9.110902182838881 0.0
5.652297951447118 6.21188565774667 0.0
5.569122518069258 6.024400786163834 0.0
8.257007204149394 3.505875091031567 0.0
8.717428603143034 2.925525757227976 0.0
6.882852832747376 8.57686572931064 0.0
6.337330066435714 8.416819098143066 0.0
9.50188906539997 4.521022403818629 0.0
9.453500859905136 4.617181635748691 0.0
9.46806769570129 6.749352117850711 0.0
8.836822104875719 1.72282859852854 0.0
7.481071063421426 5.64593758994851 0.0
5.668814988976305 5.86611128457842 0.0
5.487644760735084 5.847591822776978 0.0
8.993992818065195 7.228173913870249 0.0
7.98322414937693 7.229980191466666 0.0
9.22810751684646 7.54864871395298 0.0
9.304103360459063 7.654622011545798 0.0
9.432787371848761 7.633691049023619 0.0
9.382619818023882 7.759136995934441 0.0
7.239096822516492 4.679179578301165 0.0
9.47692479956498 1.861231395362419 0.0
8.041243110813022 5.095895152648969 0.0
6.190208781188077 7.509864122823853 0.0
9.283062812782122 4.549418667685757 0.0
9.503847665760087 2.450295046295932 0.0
9.443345385250678 2.557904120404248 0.0
9.52009568463353 6.644015937008899 0.0
9.203119005973903 3.662458522935253 0.0
8.406198651282708 5.92630414760378 0.0
8.467263597743843 5.811987729136874 0.0
9.461423029059445 9.128120577356565 0.0
9.408445330070542 9.26024300250086 0.0
9.266505293379728 9.277952925446408 0.0
4.14874709022218 3.631681332690154 0.0
9.437448107949258 0.8198473430736303 0.0
9.376993771693973 0.6910550697058979 0.0
9.22882356848217 0.6931820370818127 0.0
4.451823867195988 6.103664366188579 0.0
4.200031743909027 6.232039028149317 0.0
4.687154754667774 5.975132870483986 0.0
6.268889397098538 6.592235545990395 0.0
7.509366161722768 8.340075462391164 0.0
7.564775703413765 8.59800936579159 0.0
9.542148732924264 3.854614593058991 0.0
7.036231103929761 6.550562550831048 0.0
4.089373665437328 2.268193930262139 0.0
3.642558884866483 2.250386188148396 0.0
3.442182385618804 2.651948803899947 0.0
3.146832503011753 2.222630466765926 0.0
2.948870467975985 2.805088883766417 0.0
9.352005315330274 5.067356449300542 0.0
9.31729677031493 3.462944187594675 0.0
9.37428383619102 3.365546369736205 0.0
9.4883538239391 3.365384871181599 0.0
9.432147665178338 3.267287636377487 0.0
9.25034519267688 7.775848812012313 0.0
9.332091350002502 7.881724023243533 0.0
9.462101000264603 7.86490055671988 0.0
9.413353271651825 7.98561007219363 0.0
8.273592814723814 6.158623919352561 0.0
8.207135014732339 6.280394934566054 0.0
9.541483811580331 5.548224291759592 0.0
9.491365919893726 5.644847811894615 0.0
8.088095771120983 4.577581369371366 0.0
8.14760102783746 4.468303741922308 0.0
9.556217963323956 4.414867468889523 0.0
9.543667331547693 3.266908751519594 0.0
9.489307652535885 3.169908976697059 0.0
9.26285575842982 8.635341362685686 0.0
9.403220742003983 8.621447866627538 0.0
9.326013417886902 8.506778946171965 0.0
9.455477927154853 8.503896705359047 0.0
9.566646674069602 4.611465258087684 0.0
9.499341049870914 0.9352184973273918 0.0
8.683891958597638 1.444705608998412 0.0
8.599973456173778 1.287265568270043 0.0
7.760988189317371 1.175381292562583 0.0
7.50927661322749 1.171223823957793 0.0
7.380927152434357 1.411062577009695 0.0
7.242417847270241 1.170759311509981 0.0
7.107236746116019 1.421234419770886 0.0
6.960799033544566 1.169618322344823 0.0
6.817786081200392 1.434174581170586 0.0
9.48095050141868 8.738557748483624 0.0
9.319762046171894 3.263060331456388 0.0
8.920653400180534 7.117307656029475 0.0
9.452431221190624 6.544166520883111 0.0
9.571407933653493 6.540336592280795 0.0
9.507586285214174 6.443281357841339 0.0
9.575252974749443 5.070210512157044 0.0
5.755172844377253 6.370710487467459 0.0
9.541351959064952 7.969072511059531 0.0
9.354607289792183 9.3921968735401 0.0
9.495213435762107 9.37218405175897 0.0
3.77688136092967 3.643094492921176 0.0
5.460967180339239 6.159077196937325 0.0
8.656589552918996 5.283032675040985 0.0
8.599307076390474 5.387421722684671 0.0
9.584017606465821 5.263931993965828 0.0
9.51536593891754 4.977534386249715 0.0
7.788544970111893 2.70578432810479 0.0
7.381746833264364 8.755477463411431 0.0
7.615969996822885 8.852710176548548 0.0
7.783643411970649 8.691528137204457 0.0
7.845017394185501 8.938777577473743 0.0
8.570520580943368 7.342304222498308 0.0
9.103648004226827 5.781084627507008 0.0
8.338082930126799 5.815990105349368 0.0
8.930848895071895 4.561111316304916 0.0
7.381089602119859 5.983657236035151 0.0
8.42066837692862 6.393608568217351 0.0
8.888256157021065 6.459558428285236 0.0
8.826495664731354 6.575679897210801 0.0
4.22522220414496 5.921354747981145 0.0
3.943296448343383 6.075578573904587 0.0
9.563175937841836 2.554860696349795 0.0
9.505342423182917 2.656889632284623 0.0
6.660863480070611 1.168750929063519 0.0
6.518316961679488 1.436478598119306 0.0
6.683474168246802 1.694104067636375 0.0
6.376799057174731 1.707382100972048 0.0
6.205091481342603 1.443621641108414 0.0
6.058670988071357 1.728841803855816 0.0
5.877457486049096 1.454297236926778 0.0
5.724979192982589 1.756666409586195 0.0
5.529885788012015 1.462283739157555 0.0
9.514953777019835 0.7018468683209754 0.0
8.398665270372675 5.702731562702358 0.0
9.456442249775696 0.5772068858285652 0.0
9.565795671866349 2.345573662774494 0.0
8.830758563027459 9.247271599108435 0.0
8.523580738257648 4.88015211128435 0.0
5.580123316488715 5.701889892660689 0.0
5.398591029446707 5.685938459654249 0.0
5.367686360823392 1.778740548277203 0.0
9.546603444041448 1.754984055696778 0.0
9.489649223089446 1.641312329051244 0.0
9.617973952467912 3.363804764345866 0.0
9.584322830999731 6.729956156156573 0.0
9.597221861144487 3.948534024289882 0.0
9.49401963819799 8.089507968561776 0.0
9.207321074262563 9.416906871900888 0.0
8.27185428346661 4.464932191097996 0.0
8.207416067213774 4.35878753684812 0.0
8.332747746635944 4.354903699457511 0.0
3.990181919126853 3.930792395858886 0.0
8.267392138262498 4.254008221702929 0.0
7.997788712685495 1.196805377512679 0.0
9.600316638269724 5.639973985281733 0.0
9.550939606739425 5.737313319038155 0.0
9.44084303195315 5.74233753256161 0.0
9.50112296154558 5.834555019909565 0.0
8.897429225733994 6.685415510921676 0.0
8.762930941408914 6.695907295903629 0.0
8.654628175336732 9.278157371342388 0.0
8.544676900803436 9.133790942553834 0.0
5.294904777716057 5.855935872688884 0.0
5.216749389964556 5.66865685845661 0.0
9.508453581298625 2.239460033375932 0.0
9.599691370793206 3.169496930704394 0.0
9.546615051106684 3.073514534194011 0.0
7.484714626923596 5.028675123117963 0.0
9.588496050271255 7.850836295555126 0.0
5.153197381012662 1.471340286561097 0.0
9.433168304679345 3.071871997104804 0.0
9.610464706874994 5.829217654498672 0.0
9.561407772947403 5.926179534044419 0.0
8.273381980676042 5.705233340662362 0.0
8.330794188929296 5.594351887246082 0.0
8.207319603076424 5.596747949305344 0.0
7.251338559467102 5.233758892662348 0.0
8.708518799790543 1.130513882092466 0.0
9.590155250193266 0.5878623138195824 0.0
9.389919385420015 5.841079912164009 0.0
7.991397852194216 5.859910582924319 0.0
9.624951589233206 4.975554514425905 0.0
7.240016788025947 2.531866266726309 0.0
7.635666783493215 3.873554782053258 0.0
9.608476620993713 1.863530872936442 0.0
9.365330459496413 8.10677840682376 0.0
8.775076110585598 2.572737931759856 0.0
8.699389445914996 2.444602334375113 0.0
8.625078713232146 2.580891022578613 0.0
8.54447196848446 2.447624719286678 0.0
8.468898498943965 2.586757328881282 0.0
8.62282309213608 2.307826916202421 0.0
9.622102662978762 6.439307895185218 0.0
9.561995355724862 6.35103962032292 0.0
3.898245450818314 1.856155797593496 0.0
9.681759177700954 5.07069253017652 0.0
9.059254996454502 4.963357716933865 0.0
9.113144532326562 4.861710138088372 0.0
9.62140874877204 2.656009146517733 0.0
7.884510615470827 0.9666888912541309 0.0
8.14902661050739 1.005010215149227 0.0
8.491263206618079 8.527197931363634 0.0
8.408859203395778 8.697060715788105 0.0
6.54422152733529 1.954566069381189 0.0
9.563546573097593 2.755667904356369 0.0
9.453065492925557 2.761122255953964 0.0
9.676889098520615 2.755084315170127 0.0
9.678287124781653 2.556838324720633 0.0
2.60254317790297 2.278874965850319 0.0
9.211706272534968 4.050470567310489 0.0
8.526711683538949 5.698821878547752 0.0
8.296604023060945 8.533761944401608 0.0
9.649704314258118 5.543946557831669 0.0
9.651176136337964 3.85122804518279 0.0
9.44590154800397 9.498503704959054 0.0
9.580491248736612 9.476376347552954 0.0
4.3239388803087 3.921156392977062 0.0
9.65737873521736 3.075324100817917 0.0
8.128000846282253 6.160273991836929 0.0
8.06242981852327 6.292371360998262 0.0
8.500465019503922 1.442700595221201 0.0
9.615253212967009 1.649819368149096 0.0
9.561768620580791 1.538553925606111 0.0
9.435477757657937 1.527391516499924 0.0
9.627993450010088 2.242685831452484 0.0
9.5338252733548 0.4673994795805215 0.0
9.398055066504014 0.4589059948533885 0.0
9.669486082509058 5.920177035588319 0.0
9.621072177439727 6.016493814615133 0.0
9.506185962103057 6.018397021409126 0.0
9.196884440497488 7.898824858961557 0.0
9.112591143666748 7.789491461180181 0.0
9.664357762385308 7.950712034233033 0.0
8.46233617997115 2.308903464128035 0.0
8.547917980328803 2.169381684694277 0.0
8.139931430059324 6.410762600521521 0.0
7.672499127532963 9.099143622036436 0.0
7.91372855627271 9.178704612763656 0.0
8.463425076318451 9.290653726808348 0.0
9.643938029094286 9.335632419679458 0.0
9.647017668702574 0.7068996148634754 0.0
6.241662276606473 5.884018212993202 0.0
6.157742245066693 5.73500474100449 0.0
6.318815619949124 5.730068085823802 0.0
6.247706374231452 5.593094310939028 0.0
6.406948541886973 5.593272398468375 0.0
6.092564106310554 5.587409338401505 0.0
8.535507922245372 5.286142900439676 0.0
8.022959839404006 4.471630490587016 0.0
7.963561162854596 4.581393556789843 0.0
9.683487139413305 1.546750704925431 0.0
9.630761777960082 1.435922217091829 0.0
5.121714348989337 7.950140247572198 0.0
5.136464096196084 8.310254432483559 0.0
5.47349124035624 8.455234262268478 0.0
5.176273618280354 8.687190323573228 0.0
4.796664658962938 8.592678692862421 0.0
9.568705729418735 4.887269869750176 0.0
9.462711651199594 4.88832222094458 0.0
9.674903475028225 4.882285174433025 0.0
5.4996067353406 5.546583260717527 0.0
5.663632234555963 5.557613452957074 0.0
6.829408195405585 1.947174574944512 0.0
5.336529198289861 1.127585641139875 0.0
9.672387559812332 6.34138351957329 0.0
4.463988917379896 2.271060678869338 0.0
8.618048281355405 6.263841736419089 0.0
6.480949808711781 5.74815588680617 0.0
6.562207427719153 5.592185077216444 0.0
6.643040463857446 5.721233693378952 0.0
6.712825900331884 5.588664360236 0.0
6.79240375630333 5.711383948285569 0.0
6.86115931532141 5.584697050428064 0.0
6.939210100691576 5.704407337029545 0.0
7.007668476576536 5.580801046893123 0.0
7.084627386867475 5.702817970154801 0.0
6.633257976075473 5.460881327825488 0.0
6.931430743764456 5.461960451448691 0.0
9.682652370938209 6.533133024505995 0.0
8.761108695241376 9.450742747770144 0.0
9.146031326900015 3.764292700000154 0.0
9.089378801805193 3.661317181076136 0.0
9.514354521818781 8.994988681611192 0.0
8.157650730500988 4.262987189670279 0.0
6.329633198899328 5.4647789391701 0.0
2.340685767996258 2.811285337457589 0.0
7.379572471323651 0.9290892725587991 0.0
4.171878172186605 4.222320767259098 0.0
4.4876601621649 4.16473354200826 0.0
5.336389369563535 6.806464508860387 0.0
9.595468321212476 9.108133206829102 0.0
9.645038675267227 8.982113951305912 0.0
8.393140678816192 4.246338342095281 0.0
8.309440721624494 4.155300532283633 0.0
9.418269339704423 1.9925512363779 0.0
9.662781807969623 0.477809346089035 0.0
8.011297869803792 0.7518828483803571 0.0
8.250149975885678 0.7646904662196189 0.0
9.608674873602773 0.3618049194050078 0.0
8.692696069692623 6.582927327365709 0.0
8.628225948401226 6.705702462696891 0.0
8.701883181418305 6.822086652299242 0.0
8.559276855155542 6.829564723911442 0.0
7.069268463354993 5.459534423493629 0.0
2.654575201159115 3.323490466195074 0.0
3.610801136544596 4.044075244426243 0.0
8.263757217166944 5.48730323490738 0.0
8.138838162809126 5.491254533497952 0.0
7.90196833683664 4.477386962763833 0.0
7.987943097943191 3.978756490171551 0.0
9.704623491880403 3.945605151832784 0.0
9.461009573830147 7.301728818091931 0.0
9.532468631193666 7.399916015174975 0.0
9.582688928417856 7.292330983701011 0.0
9.652579613269625 7.387768793572397 0.0
9.699264016151023 7.282867433965265 0.0
9.633305589700536 7.188543855060478 0.0
9.505576100168666 6.961225778216469 0.0
9.43876966151099 6.342441564206569 0.0
4.908483672172518 6.098703904450545 0.0
9.135448256237908 5.269827196966999 0.0
5.905650502271389 2.025036080946255 0.0
9.709890722072377 9.452748507541063 0.0
9.663337613522643 9.572126259365891 0.0
9.603900123387826 7.495180532331903 0.0
9.720147629525837 7.483400774981126 0.0
9.674588415444239 7.588303295299578 0.0
9.653186673863587 4.039274180923234 0.0
9.053164539680804 4.764545162185531 0.0
9.164908495749003 4.763017269285045 0.0
9.226019227262443 4.858029410614327 0.0
8.809947621994619 3.4964384919072 0.0
9.10538997155458 4.665865142902959 0.0
9.331074106432244 5.748993480915537 0.0
9.055854333858068 7.918554535314415 0.0
9.446431573964945 8.209836764658437 0.0
9.573844810886287 8.191100251691205 0.0
9.309704769895653 8.244395007943949 0.0
7.240329561730736 1.676197957122907 0.0
9.543389817573933 3.660019800390455 0.0
9.598599341122098 3.563130123982772 0.0
9.652615161407017 3.658119804270645 0.0
9.706336063693934 3.564815526226687 0.0
8.632284427755456 6.946688912416058 0.0
9.682863230715835 2.349655023034811 0.0
9.571538455120994 2.142369886250143 0.0
8.090821900439733 9.017409120951333 0.0
6.812258669899192 0.9007667548831626 0.0
6.50135254578461 0.8974046495177885 0.0
9.598335906230732 6.246437748035812 0.0
9.719677442549804 6.253968775436637 0.0
8.593026822691716 5.180101360605356 0.0
5.537586126848265 8.836083861509138 0.0
9.688689404995035 2.143487155934306 0.0
2.821389253975936 6.507820864074362 0.0
9.176571289960709 8.507736431357309 0.0
2.918303740542162 8.256728920338826 0.0
3.428955230180972 8.401446814887457 0.0
8.490587404589881 6.715350139132777 0.0
8.86049054904785 7.243279881821806 0.0
8.93696309213556 7.356650230611625 0.0
3.951931175165697 5.78308550088855 0.0
3.65055612573298 5.91672400098539 0.0
3.668142216548471 6.247526235973777 0.0
9.717269848920886 5.821831227352286 0.0
9.708364917734201 3.164198601626433 0.0
8.45581975650687 4.569560863828342 0.0
8.204448312099833 6.040774355519757 0.0
8.65969449127868 5.485991799508151 0.0
9.707534571012967 5.634423933296901 0.0
9.62102991883279 2.849662850313935 0.0
9.144093558002634 3.560383427867003 0.0
8.29763273805118 1.77155302934031 0.0
5.280452715709455 9.01633391004168 0.0
8.984558945859158 6.99932633710603 0.0
8.4157550875812 1.275784953143711 0.0
2.068078118650995 3.355462780535101 0.0
9.205703884756806 5.568274778556933 0.0
9.745857863753141 7.178456670302003 0.0
9.681628895748586 7.081494416756802 0.0
8.875818787971069 6.240744812097083 0.0
7.993733797566922 6.414830952863579 0.0
8.462810157069566 3.377071044664789 0.0
9.29428363519789 4.759591981903337 0.0
7.933956818298286 5.97437536746848 0.0
9.028281726378319 3.558713145763133 0.0
9.083461773461467 3.455531762175701 0.0
9.73231939683535 2.849247643393067 0.0
6.70072305037728 2.192432536215492 0.0
6.423245125077639 2.212870246546939 0.0
4.931537051605536 1.135086496804522 0.0
4.746426561586179 1.500381091957315 0.0
9.707706579932626 7.836419656220658 0.0
8.590593344701457 1.595639668013959 0.0
8.708946574109854 2.1688179918246 0.0
8.634728854549891 2.028564483452208 0.0
9.230357659411311 8.129337203173913 0.0
9.102841374461482 4.452881308250647 0.0
8.472081531214734 5.388993924853032 0.0
4.925996806199801 5.844046944846857 0.0
4.702806345752284 5.745688656289065 0.0
4.884357002239844 5.633237011762874 0.0
4.709628434300812 5.536404116679045 0.0
4.530800966746534 5.627044171217377 0.0
6.040296145349247 6.603808099703576 0.0
6.162203578696918 6.795213950202512 0.0
5.923135943221574 6.824060069869489 0.0
6.046693245732212 7.010423490915212 0.0
6.297337598588478 6.979895528204233 0.0
7.760448385794147 0.7294020304851334 0.0
8.492228348169641 6.958778476405878 0.0
2.89219822877093 1.704113597264478 0.0
2.26178643438086 1.7814602252425 0.0
9.726968895980871 6.009547057102511 0.0
6.63195110828313 0.6072886418835157 0.0
7.984023036954866 7.515675826210831 0.0
7.893857204140559 7.681876703427663 0.0
7.778465117872411 7.537836322197895 0.0
7.998204230811618 7.844922503023499 0.0
7.798554315988981 7.858161805718108 0.0
7.917846202023782 8.03040048103727 0.0
8.547520504556728 2.721261126162116 0.0
8.39253850806587 2.732073315877738 0.0
8.306047241032278 2.59069854402512 0.0
8.233011054235162 2.739783364361515 0.0
8.318836035587811 2.879838477099622 0.0
8.159530874574331 2.888511553151382 0.0
8.245490421394788 3.024568439743106 0.0
9.759103003747676 3.077839427881478 0.0
8.083610090773394 3.033523757291178 0.0
8.174562583800352 3.166768504406541 0.0
6.046769434852523 1.155662270344939 0.0
6.968371001421964 2.176347877216873 0.0
8.324858098380334 3.152966249334499 0.0
8.145556596142626 2.609897633546475 0.0
8.970652052821418 7.804556541250797 0.0
9.033737629244714 7.681328986528639 0.0
9.62347010002576 4.796939565664328 0.0
9.72520380348743 4.790261082613535 0.0
4.882631186210167 5.455006233451049 0.0
4.618356368594037 3.933076284395493 0.0
4.748083507220199 4.151025177732873 0.0
4.641724290430313 4.358202249373887 0.0
4.87055838101999 4.337900676660481 0.0
4.974114446887331 4.149149057174687 0.0
5.081577844806959 4.3240148266423 0.0
5.179521650033781 4.148725180298481 0.0
5.276261408871418 4.316673822529601 0.0
5.369189110897883 4.148362797753505 0.0
5.463892033849439 4.338819369807593 0.0
5.550828466075906 4.146274465971151 0.0
5.646554822352869 4.303571429647391 0.0
5.728109623160046 4.138582010823754 0.0
5.821689108984419 4.291959598724587 0.0
5.906082534948073 4.141649907302701 0.0
5.99655838673762 4.288752711512514 0.0
6.077312859438928 4.141011188943332 0.0
6.164215275138099 4.281164574562373 0.0
6.241782344986693 4.140701084167517 0.0
6.324316420613108 4.277393447415522 0.0
6.40284165425941 4.140026953305852 0.0
6.483655157361099 4.273418937894759 0.0
6.561170698911611 4.136221843106807 0.0
6.63512300179586 4.269917278694155 0.0
6.720306110251473 4.133393659385058 0.0
6.63777078218551 3.99617001426095 0.0
6.802492763973074 3.994355399489989 0.0
6.798834760478153 4.276914787769972 0.0
6.15377608509923 4.000134206628027 0.0
6.548727135071258 4.400510710520637 0.0
6.251479300130713 4.421887359316258 0.0
5.275876048175579 3.979624500657822 0.0
5.910905077162284 4.431174408784691 0.0
6.717070288412452 3.851239795555301 0.0
6.883499045994213 3.852555480300214 0.0
6.96664848901999 3.994033961856844 0.0
7.048208567116626 3.854750001965969 0.0
5.810004974283072 3.982497501655442 0.0
5.586615391658107 4.471070246359201 0.0
6.547331954052155 3.853872077215347 0.0
5.179081233207816 4.485638492900557 0.0
7.126615227065496 3.995337770596979 0.0
7.209459742762513 3.856893463870469 0.0
7.130226097876905 3.713620439679428 0.0
6.63075064074106 3.699684148676045 0.0
6.446985573861992 3.697358756862005 0.0
7.043151422977365 4.131713936060725 0.0
7.198322215260019 4.129850614748363 0.0
7.119378405252723 4.26005098890218 0.0
4.797146270976422 4.525762781577414 0.0
4.608329098388589 4.573584257851931 0.0
7.294442092743627 3.720853338661503 0.0
7.215753312764997 3.571378507508807 0.0
7.049631633956289 3.568047985538775 0.0
7.133765707749521 3.414282375958479 0.0
9.755079417839903 5.539705890434435 0.0
9.698955703441971 5.450920012703194 0.0
9.717604099406742 9.09084770432896 0.0
9.276716006673976 5.847248422342224 0.0
9.339081208926798 5.941174203394446 0.0
9.031261921742963 3.750271483819014 0.0
9.08721978689863 3.853416037308712 0.0
4.801461566647803 7.510704110489921 0.0
8.206553504932042 5.818005960412773 0.0
7.362361315389098 3.863102442315545 0.0
9.492826845316191 2.963845037486267 0.0
9.376710375304633 2.97229517374228 0.0
9.3192743723601 3.070687802230453 0.0
7.915389082113898 6.293241865913004 0.0
6.735006382384437 5.832450056405368 0.0
8.456481836836168 4.35369289249905 0.0
8.517718268476031 4.246675068616396 0.0
5.583512022030555 5.411069060406398 0.0
5.73625200174779 5.422617752052123 0.0
5.81006929286229 5.548584937688919 0.0
5.903438861894402 5.420604003204523 0.0
5.43801870974416 5.402925156167655 0.0
7.022641548594327 5.825217331839047 0.0
7.165095795605366 5.826005223633447 0.0
7.223078558430726 5.690146755650336 0.0
7.841396000338385 4.586693006493787 0.0
7.904793170875705 4.690826189066096 0.0
7.785999820520073 4.696719777099973 0.0
7.846448506395101 4.798518978096564 0.0
7.728149182067156 4.803800941124008 0.0
7.788983823826226 4.904802634695232 0.0
7.672018889153144 4.910077510508749 0.0
7.731996012352178 5.014717724244488 0.0
7.852072803124419 5.00743796185411 0.0
7.779278698005006 5.118909346425974 0.0
8.088113864063853 5.605434545811022 0.0
8.016457362785575 5.494849890158723 0.0
8.072290383394757 5.385594956317259 0.0
7.95068657972964 5.38825563681957 0.0
8.309366678475389 1.438342408757099 0.0
9.748160780780179 1.447794693754379 0.0
9.696454228162398 1.337889922375316 0.0
9.568813761940916 1.329560834053294 0.0
9.638326779791626 1.226729570935787 0.0
8.472132467407484 5.182856496818138 0.0
8.066211547412054 6.53691730655352 0.0
8.217035586462373 6.522976700918602 0.0
3.544839338670893 3.324491119989469 0.0
6.999740002965287 5.347729916247808 0.0
6.874544698914502 5.347027470386579 0.0
4.880451234715014 5.193043717957879 0.0
9.104510033763066 9.313204713465637 0.0
9.0466357104558 9.45359399494339 0.0
9.146803165140184 9.569652364413551 0.0
8.134107047896672 0.5527712356100052 0.0
8.369770412730738 0.5571215815175228 0.0
8.47386979744655 0.7564607169846485 0.0
8.585193608569258 0.5749174254532757 0.0
8.683868132726584 0.75505070091701 0.0
8.787381435061018 0.5813987798627239 0.0
8.697570280442534 0.3771156480326233 0.0
8.530048434259976 5.077280516000916 0.0
7.995091351438729 2.90367515012593 0.0
9.731083608815164 1.662638626153251 0.0
7.260488865351954 4.255073962371814 0.0
9.760728358076392 8.990038509880067 0.0
9.716710396257366 8.884160310398862 0.0
8.794627466210242 7.369659405098349 0.0
8.868068657550866 7.515048014893154 0.0
8.702594597629135 7.510501129643432 0.0
5.132320689147051 0.7610757801158905 0.0
9.755852887652699 3.853180024615871 0.0
9.787424819067885 2.757921105725315 0.0
9.731193479931608 0.3736343090103709 0.0
9.796526908308536 0.489684029254899 0.0
8.226019692057042 2.453349105940535 0.0
4.560989821496479 5.428206018250252 0.0
4.348810639659689 5.517048281386008 0.0
8.785190163106925 7.119142251269924 0.0
9.015515413043023 7.464769766852701 0.0
9.754861440190705 3.659036930324926 0.0
9.7543610723378 4.033687839160082 0.0
9.707881226943384 4.127219992296752 0.0
9.52841017383273 8.309020665649431 0.0
9.65186044414544 8.289498614805698 0.0
9.714051275521857 8.173576484362068 0.0
8.209758892476394 8.715513071423135 0.0
8.097084883671858 8.548851201381087 0.0
8.177989947800599 8.367872862579052 0.0
7.974142434808908 8.36779470623567 0.0
8.409012054919861 2.142624252464372 0.0
7.707002321497132 8.039129945341395 0.0
7.574653123518228 7.83895791570255 0.0
9.229858094382692 5.951357214361815 0.0
9.75307989876696 1.229893222503321 0.0
9.715811155868643 1.128779429890018 0.0
9.597960915003707 1.117058287635912 0.0
9.672063923518955 1.020806103150243 0.0
8.99090422125785 9.593878510105375 0.0
8.133165456134304 9.257620998029804 0.0
7.976779931497633 9.420725324095141 0.0
9.77231778617502 7.927819487779705 0.0
7.957213679655531 4.364530256281665 0.0
9.609903116082736 8.403725680286847 0.0
9.724891358972584 8.388392708395173 0.0
9.687487059868507 8.495935345161797 0.0
9.810055520269009 8.494090598382963 0.0
9.755967487162335 8.599790818513082 0.0
9.645698986824481 8.606121319182705 0.0
9.721376049217765 8.699989876681524 0.0
9.773009257015609 4.884557953188837 0.0
9.830105798750992 4.796546393900876 0.0
9.775335108731761 4.686093304257503 0.0
7.455611517737074 3.730099283949135 0.0
8.906943567829634 0.4197477661467797 0.0
8.980613334153533 0.5814185917581446 0.0
9.081059111759728 0.4263421860552371 0.0
9.821654809259165 3.576985724143072 0.0
9.761309244784803 3.4792267780002 0.0
9.763329553045937 9.353068233045157 0.0
4.463051839136694 1.164440352584939 0.0
8.0213168204867 5.283436382300235 0.0
7.89385412333227 5.290429544753158 0.0
5.806940001023414 8.583716119232427 0.0
5.88977793877374 8.96065112858812 0.0
9.177759062826041 8.25539130897928 0.0
9.626582559276994 2.05283181283147 0.0
9.747673294325121 2.064954301745188 0.0
8.775905508647185 6.951821187702613 0.0
2.3581644273991 6.029034686663493 0.0
9.777798009058461 9.548066962498762 0.0
9.737129197219856 9.662299853506903 0.0
9.615080366030512 9.683349544763068 0.0
3.315839678697904 6.042943273456425 0.0
8.915083018115329 7.937748428923896 0.0
9.489832173860055 4.712364754630572 0.0
8.118313727862493 8.013944064029838 0.0
8.902248750797776 7.67372145952523 0.0
8.954075939212636 3.463080912810881 0.0
9.45247551997678 2.133243108303608 0.0
8.311151553157742 8.899233004613622 0.0
3.28672004268868 6.826745674539142 0.0
9.86008383798735 3.468233656255824 0.0
8.389990589860254 1.947086063498656 0.0
7.144231739553659 5.329544660076687 0.0
9.654500729007207 7.743301971143119 0.0
9.761920842881946 7.740144345898896 0.0
9.692820773976567 0.2651585113981998 0.0
9.690951720399688 6.100517071814821 0.0
9.775704281989471 6.077882312279847 0.0
9.823117117198079 4.115168542267924 0.0
9.764391943581737 4.214465954230587 0.0
9.659455011849253 4.218716850797838 0.0
9.713462125022623 4.30742830316693 0.0
9.849638067150842 4.208845651573708 0.0
6.376241713254513 3.858766051594979 0.0
6.274931849158213 3.701528298009006 0.0
7.097780104117746 1.926449727602711 0.0
2.457742027508782 3.810157622192786 0.0
2.963634206580268 3.740748099915693 0.0
5.065585416063965 5.544355730437482 0.0
9.783560252464587 7.566507987677117 0.0
9.825819294611026 7.470942204664841 0.0
9.799976114123012 1.01659516618323 0.0
9.745559590633832 0.9150866860898854 0.0
8.20473400632469 9.495828670767946 0.0
8.784586030320169 2.054461500762216 0.0
8.758471587067168 1.888286802854785 0.0
0.9188935087347281 8.510730800272478 0.0
9.674192026048217 9.20389587377276 0.0
9.796314981283475 9.185916994648775 0.0
7.206882433199502 5.452024361489832 0.0
9.773927048949279 6.334665846819535 0.0
9.830288393591173 6.225300227041885 0.0
8.25177349297509 3.282767705830209 0.0
8.099233469407428 3.304040153764131 0.0
9.607860512870598 4.315652630490023 0.0
9.403674738018715 8.367349042046314 0.0
7.611756786273919 5.018691202305147 0.0
7.549513964643336 4.923310232561835 0.0
9.80986724662116 0.2915868356190958 0.0
0.7757562810577034 3.504187313079081 0.0
7.659562100664981 4.698467529240196 0.0
6.539424975891206 3.541729955691742 0.0
6.717348880400739 3.55221857686142 0.0
6.836337579501807 2.417476958454302 0.0
7.096480496160066 5.959124656438389 0.0
7.189742782777612 4.377051328076039 0.0
7.051723187622053 4.38470822973091 0.0
7.125489805519186 4.497018383456762 0.0
6.994915621927777 4.501504591168814 0.0
7.056755276274058 4.607929817497045 0.0
6.932937068803914 4.613249390039674 0.0
6.86629288290367 4.50541343988659 0.0
6.80427099775847 4.617607827251794 0.0
6.739195362053689 4.511124964201849 0.0
6.677260697693361 4.624288827143181 0.0
6.996760608675822 4.711715831373894 0.0
6.316045249462968 0.6456945497683586 0.0
7.321834163850416 5.816449323512759 0.0
7.833101485370825 4.390058096386987 0.0
4.996572652976738 4.498711166259074 0.0
5.112334577457371 4.663858846723513 0.0
5.271923064784868 4.629759173373871 0.0
4.93773508827367 4.668006487116195 0.0
5.348137647919096 4.485934621930562 0.0
5.413454827497575 4.62999925573761 0.0
5.356581113747675 4.770594395332836 0.0
5.013422223730484 4.793321773780133 0.0
8.58674425943957 0.9312335381466886 0.0
8.776450596582496 0.9362399987293505 0.0
4.783496233934828 9.486061758876032 0.0
4.544176394620909 9.034071856445296 0.0
4.082330493623582 9.015765881393772 0.0
9.820867469965414 7.285959215547852 0.0
9.852697883440127 7.166089674802766 0.0
9.260999083164238 2.971390964911171 0.0
9.197701900169713 3.073162109379564 0.0
9.31960210441945 2.867465579641856 0.0
6.660951583415121 3.383363199709994 0.0
5.210469976037585 4.761678854423166 0.0
6.740780285297665 4.733615686805694 0.0
6.611362405615225 4.731958642073806 0.0
6.549091884465382 4.629620704100811 0.0
6.491761716522486 4.733409494449344 0.0
6.425259228542098 4.640546096196947 0.0
9.715556659367534 2.986725573570596 0.0
3.710524324925069 9.463213827486557 0.0
4.768537031214573 4.727001037865238 0.0
5.039413681704655 5.378508462165627 0.0
5.188746429211535 5.440476671296013 0.0
5.172214816037712 5.298914527247826 0.0
4.469063601436893 3.667917323494335 0.0
3.799121596584382 4.741629285988305 0.0
3.661085664896249 4.442847704416992 0.0
3.316563386321876 4.380147387454913 0.0
3.802087298647255 5.26743535640985 0.0
9.738116341343215 8.047178982429934 0.0
9.85106076399546 8.021725551312715 0.0
9.837581050304836 2.844176011307251 0.0
9.664579962075123 4.402853107737106 0.0
9.76433159763034 4.39807801415352 0.0
9.718924973226878 4.487825491046641 0.0
9.826405563645343 4.494594135148365 0.0
4.931068003413168 6.359330991212394 0.0
5.130175746947236 6.201075257041828 0.0
5.143884286052002 6.445382329515047 0.0
4.953395875296406 6.628748468717369 0.0
7.833019185167153 5.400347121613631 0.0
7.766636138801143 5.313240048256084 0.0
9.767038723422333 4.578090619166644 0.0
7.315369355237483 3.441501197259575 0.0
9.556068971301514 0.2347811136726856 0.0
5.733871280791703 4.444861510772459 0.0
5.828809543126846 4.569791247698539 0.0
5.986701526182213 4.562881783985375 0.0
5.912543327921148 4.692966271273211 0.0
6.052130330528581 4.682477327897978 0.0
5.773525984744635 4.697697018456535 0.0
6.121646311546238 4.572302645403103 0.0
6.182349700936326 4.67713231096357 0.0
5.846371383601797 4.808939734754761 0.0
5.117807918383606 5.974361363083184 0.0
6.256132501905665 4.575863546153224 0.0
6.324770064521816 9.645040261272253 0.0
7.345522892050965 4.12581088034536 0.0
9.338523512844539 4.854480276600515 0.0
9.286984287289403 4.959628690044808 0.0
5.676298026114105 4.589279806918992 0.0
5.631257891894775 4.722749088404111 0.0
7.970415275563177 5.621040275419208 0.0
9.565118337557308 7.081391220827488 0.0
9.626201005045262 6.980441083020495 0.0
9.733729506193331 6.979928568877979 0.0
9.684556253529976 6.887102896543928 0.0
9.780785815410074 6.890287441101827 0.0
9.740054813822885 6.794211367612523 0.0
6.462628988057306 7.629921412015864 0.0
6.692564520952154 7.473594130811262 0.0
6.927983108788191 7.570982428592125 0.0
6.899878641134941 7.329306734748538 0.0
7.117542472438434 7.416951094809493 0.0
7.089537168123128 7.186691566729968 0.0
7.296585396514727 7.275888419524222 0.0
6.879678873774065 7.097443005287856 0.0
7.063454637059129 6.967740076426161 0.0
7.329105042924355 7.496317641003757 0.0
6.867084781778411 6.878842928865059 0.0
7.494278796275744 7.351949197351029 0.0
7.462564159480594 7.150140034494138 0.0
7.644835001206406 7.21506678718646 0.0
6.682478929414216 7.008358327294905 0.0
6.449199855715812 7.365660640952548 0.0
7.548139855358765 7.57299228324251 0.0
7.008502809092701 7.844601794812628 0.0
7.371739019901781 7.707688433423657 0.0
5.665345294602155 5.290628720253272 0.0
3.987583013016546 4.486920698115711 0.0
8.893480480320447 0.7785000884179994 0.0
9.715485963651112 0.5955299613117169 0.0
9.761785841543585 0.7048670948649375 0.0
9.670304314877074 4.578896619304786 0.0
8.058509626083154 5.744161686650483 0.0
6.181795443628869 5.462040811515966 0.0
6.256771804808641 5.338464817889848 0.0
6.124070400983443 5.352376180901929 0.0
6.399679261813415 5.349186390888865 0.0
6.477776305607503 5.46505688468465 0.0
6.541624525938461 5.346017118512589 0.0
6.673064575428321 5.339051516933525 0.0
6.599301548842115 5.241958624987057 0.0
9.573774011620444 0.815274945835158 0.0
5.86493292693426 5.877588788523632 0.0
5.552663040119136 6.957487930464628 0.0
5.535080960199246 6.663033131707637 0.0
3.708603689392072 0.5979254716153909 0.0
3.31896983256719 1.188583855309964 0.0
3.895664898001925 1.128137111173669 0.0
6.363360407965353 6.032416442205533 0.0
9.445959758065749 1.070139246426051 0.0
9.50632172780449 1.214052376665338 0.0
9.441030033980638 1.325047485624912 0.0
9.295799464644857 1.341410624832976 0.0
9.184164107767781 1.461677744200096 0.0
6.407191016756832 4.407273313799791 0.0
5.544591888593027 0.7652641669375747 0.0
7.883090151006535 2.497506182548758 0.0
8.073420508370992 2.120510489750234 0.0
5.494822040671399 4.732314720081375 0.0
0.8986976806403217 1.464611451578306 0.0
9.536325549598013 6.83286654168725 0.0
5.972289519322897 5.727532110854501 0.0
9.82203607053145 9.443411729566549 0.0
7.263199949874008 7.064207941227515 0.0
7.233659553805083 6.853135694774254 0.0
9.793310082768443 7.072747972018893 0.0
6.734168931095253 9.67499220075154 0.0
6.941134861034159 9.382328333169653 0.0
7.285822522704258 9.443989747444657 0.0
6.576263515512108 9.333035011158342 0.0
7.160560566479093 9.127732577621245 0.0
6.218711947378506 9.298064908857533 0.0
6.432383355119106 8.980985203293491 0.0
6.795390278360442 9.046043538032663 0.0
8.54677014121837 0.1957422484480979 0.0
8.528696320820908 9.804850950580938 0.0
8.42644965647489 9.604735484095604 0.0
8.010239224104339 9.715048083583248 0.0
8.644359648763341 9.628432815860457 0.0
5.344212921686536 5.526744195650314 0.0
9.760936589662048 7.38409687515441 0.0
9.128187788393989 0.1445485608215519 0.0
9.133307661752394 9.854833215426817 0.0
4.867351616228264 3.944459575003425 0.0
5.905323253270366 7.385600364255367 0.0
5.909045412185362 3.361969954191194 0.0
5.80580919758911 3.569999290452344 0.0
5.578230704221431 3.587842862412673 0.0
6.013352753603037 3.550699073477782 0.0
5.936624955014758 3.721630401607248 0.0
5.735413275357409 3.78528948606432 0.0
5.512538847486775 3.794760621907932 0.0
5.360571639388366 3.618649018042938 0.0
5.134141179590394 3.459385929220745 0.0
6.167399567008798 3.367365990358096 0.0
9.766756262206602 8.291756450136036 0.0
5.486063578307141 9.64505925252771 0.0
9.497624614180321 4.328873442170357 0.0
9.811387324954623 1.570516917365688 0.0
9.389210081887331 4.69150887571586 0.0
9.704395728912932 3.754226393630331 0.0
9.808172776193384 3.748784464356272 0.0
6.549660911932182 4.839747932361234 0.0
6.757415124099031 6.077939876843736 0.0
3.805578542126494 8.040840085419626 0.0
4.232580149691158 8.198659880701744 0.0
4.559765382564095 7.87091698350757 0.0
8.3829075948167 0.9495097054886067 0.0
9.8571301061408 1.456307792614791 0.0
2.005900212453279 4.535525273813588 0.0
1.85904408608185 3.956445706785572 0.0
1.979307922430775 5.474327285927505 0.0
4.387923194305381 4.427191306527721 0.0
9.429258370703248 8.873693567695483 0.0
8.99196583083892 4.664567567015693 0.0
3.050357122593155 5.368999067452741 0.0
2.861107385476722 5.785089447130829 0.0
5.005058958272409 3.711196438448062 0.0
9.8972295764837 2.755337284632969 0.0
9.581048890980513 8.853909321617065 0.0
9.668838904423916 1.762418716497425 0.0
9.716576458425756 1.852218615166234 0.0
9.799043132681442 1.780583141193779 0.0
7.661868217848455 2.880323287492419 0.0
6.780136552904057 5.443858690999834 0.0
6.489544866845868 5.913957888434588 0.0
6.880149522020364 4.134257616716107 0.0
6.970134365280068 4.264072319341612 0.0
2.225481516813409 9.348422240784 0.0
1.843418032490818 8.641605249943353 0.0
2.198000805242772 0.6459947140825729 0.0
8.740020306282506 0.1903932731609072 0.0
6.86957996016679 4.720776242956433 0.0
7.430920333506809 0.2702852342693345 0.0
7.302066064947383 0.6134316505458445 0.0
9.305398039877746 4.64854361125207 0.0
4.078151380865065 5.203425462519088 0.0
4.080704120371218 4.778853303303787 0.0
8.052525541571825 5.965483159581719 0.0
6.367194027835946 4.754896037842673 0.0
8.604191121620719 7.648182513679963 0.0
9.546446695207845 9.234701521982952 0.0
9.018652854946867 3.351011585453845 0.0
9.143853648154607 3.350173119015413 0.0
9.067079866763024 3.245174561579149 0.0
8.991492136849105 3.135578770028028 0.0
9.29603967712795 0.1426516429033488 0.0
9.392428271030795 0.2506306237151588 0.0
9.223973843394301 0.2912279164401488 0.0
8.39375191941536 3.018777714002827 0.0
8.4836475746111 2.88135207267795 0.0
8.741089053946197 9.821127577434911 0.0
9.803966507713174 5.448064463539533 0.0
9.748132240148552 5.359371181503531 0.0
9.850258990973547 5.355211921626304 0.0
9.7965346514158 5.266762244994661 0.0
9.84142096963129 5.171050273734619 0.0
9.738843612428232 5.167483913244169 0.0
9.64168976006725 5.359875132194057 0.0
3.335917453809221 5.671837672982919 0.0
6.962669142802881 1.683222554707996 0.0
7.365210844496719 1.887492842536114 0.0
7.517378971174123 1.677983072937792 0.0
8.00383870208024 6.089394601875145 0.0
1.725435941000569 2.759295503019395 0.0
7.907977929549089 5.102827208603365 0.0
8.052861051278896 0.2683271125209605 0.0
9.80169732768395 3.385443381464333 0.0
9.831597648680848 3.28491948963525 0.0
9.736335895866404 3.316207814499244 0.0
9.597256128490281 3.756160701977744 0.0
8.865819925321706 3.366235906378775 0.0
8.489614436807788 1.757152185195495 0.0
8.88089641144391 1.078983279100314 0.0
7.430923851187758 9.724389499796425 0.0
7.584252919312249 9.509430586267927 0.0
9.744026095940516 2.247117754488748 0.0
9.729961521243718 2.659836747108116 0.0
9.790866569780063 2.558993767350471 0.0
9.736606445116795 2.455104424879619 0.0
9.846806182714698 2.452157456754448 0.0
4.518102112052724 5.141350889745285 0.0
4.519880229178207 4.85678334497067 0.0
9.7302407894617 6.434012603549242 0.0
9.787537474544765 6.523591663056312 0.0
9.744262337067932 6.617499601377625 0.0
9.8406238811518 6.41591236129004 0.0
8.914967252734657 3.579360039684312 0.0
9.154797282599406 5.670753066089419 0.0
4.228839454580575 4.612979739018002 0.0
6.095037541675208 4.42126627187728 0.0
9.304166983880842 9.864854494751789 0.0
9.406445527105628 9.759007358529582 0.0
9.256225114941945 9.700832989525724 0.0
9.796206564635622 2.351215649506205 0.0
9.849373673349081 2.25090453834006 0.0
6.332048155295931 3.511675163099286 0.0
9.069679774213784 3.022879178706259 0.0
9.070599961450037 9.055284879641471 0.0
1.808685691036764 6.331557276533421 0.0
7.120156826652838 4.698481230214924 0.0
7.052894345811342 4.799848851879358 0.0
4.739957520484086 5.369107149361242 0.0
9.389197839958292 7.197139943834638 0.0
9.046688232613976 4.560364044038737 0.0
9.162685461967492 4.562194096410666 0.0
4.227377821420887 1.564128177298305 0.0
9.201090975245227 2.794301402811909 0.0
9.251941624303948 2.677556975242327 0.0
9.186758273070138 2.563916005021366 0.0
9.317609833868786 2.560335260954038 0.0
6.57599191748324 2.437689779955877 0.0
6.305556560534859 2.459112595979303 0.0
6.981058048792093 2.642476994448363 0.0
9.886113463139504 6.510498309609482 0.0
9.250462794607717 6.221362629571698 0.0
9.305373999084068 6.108271307139882 0.0
9.390477915810829 6.228015172491477 0.0
9.44452571968143 6.114582165110393 0.0
9.502105740270528 6.197677857389309 0.0
9.31559697209813 6.331647407124485 0.0
9.370938253597153 6.437386206819511 0.0
9.594764406124872 0.1099001288712305 0.0
9.602872681151728 9.894988341116305 0.0
9.622661196143387 8.076680696281343 0.0
9.769069277144705 5.9102532189237 0.0
2.615076109785583 8.807551523115547 0.0
9.658920005405456 5.730890135691177 0.0
9.76063135061807 5.720703211793342 0.0
8.63963723169499 7.177334225227945 0.0
7.841904391869763 6.41346852896409 0.0
7.764520718520185 6.297267738834625 0.0
9.546492996136271 3.465225175657335 0.0
9.25600964352143 2.219157062786616 0.0
7.625057159226293 7.012987957636062 0.0
9.529121062829038 7.730283486008674 0.0
8.329887090625894 3.845190321147069 0.0
8.265841850823831 3.95687001944245 0.0
8.402006523775544 3.947660780406651 0.0
8.128436391670505 3.968543393650448 0.0
8.46705122470662 3.835767362024195 0.0
8.218867047074696 4.063481375518748 0.0
8.089763413611255 4.08062363292928 0.0
7.939578083855268 4.111915744184436 0.0
3.74991304509639 6.615676756107112 0.0
2.627714335615619 1.170993030860914 0.0
7.046129971268607 6.759930788612616 0.0
8.534603732661887 7.486325780553722 0.0
1.569381386467569 2.042794535871475 0.0
6.228703743210918 1.986421863690014 0.0
6.467030855792859 2.67190498312861 0.0
9.272246093269825 1.975478263632296 0.0
8.05269609263041 3.854522845257449 0.0
8.008595521536957 3.177870309354594 0.0
7.929796740504207 3.350600835935766 0.0
8.048703574664067 3.449582532910417 0.0
9.72947480375618 4.973926800124758 0.0
9.784850360535604 5.072865219810449 0.0
9.896036387646596 5.069261557893528 0.0
9.633140953203334 5.168645132864771 0.0
9.558102991128836 7.602453108835212 0.0
7.278758746505716 3.994295887299482 0.0
8.306681733482405 6.936428510427854 0.0
9.487163072013963 3.757777670075558 0.0
9.532950522284125 5.359403698944497 0.0
9.816036650072329 3.927268437107025 0.0
6.173882586235392 8.734645960664665 0.0
7.972518459433741 5.003005338485466 0.0
8.398453459336153 1.601072016988848 0.0
8.97460527296194 4.040886705742754 0.0
9.037941657530773 4.143578781749325 0.0
8.849604200183613 3.828506169652706 0.0
9.545296177100065 4.042698359132156 0.0
8.595941796785514 5.806754902023664 0.0
8.65588412428292 5.694192853853139 0.0
8.723710665131787 5.801528918332044 0.0
6.861288985046249 6.673713222735126 0.0
8.87477249219366 4.664500928777609 0.0
8.72385765226959 3.608276264790996 0.0
7.145228858696953 5.573648565429618 0.0
7.282945121585866 5.558559688509987 0.0
9.224761401603633 1.602363370249125 0.0
9.609115686587552 2.986868833620756 0.0
9.633989947851914 6.628120633848649 0.0
6.046214325132457 5.45615093027661 0.0
9.017014346798927 5.271996636983457 0.0
9.070824864071271 5.168510834798647 0.0
9.189021391555556 5.166867900487267 0.0
9.123328759137758 5.064718588163964 0.0
9.240587446378079 5.06459430516883 0.0
9.250848280531756 5.267364371053135 0.0
5.773050603406019 5.7192906317521 0.0
8.576466432793914 4.3559007860436 0.0
8.634627802680399 4.253467736542067 0.0
8.461790117175607 5.591735227444779 0.0
8.907610717370224 3.713397213891439 0.0
9.80665594564509 5.628066492225966 0.0
8.985935132601089 4.455263493464225 0.0
9.00640209566022 5.067597672073404 0.0
9.833659276096986 6.976519563917422 0.0
8.0283368553477 4.687271895436317 0.0
8.326580191759327 9.127498457128247 0.0
8.650637373791266 5.07513089931925 0.0
8.701067313435203 2.700069743477523 0.0
4.825307249916392 4.884175191874744 0.0
9.418335984190309 6.858444798015129 0.0
3.91434687300816 8.542956908935874 0.0
5.569239724399552 2.064135034637056 0.0
5.234271567762738 2.128974435011933 0.0
5.757920427527626 2.312422707096966 0.0
5.43365689737979 2.427455772745759 0.0
5.673210219624612 2.602111218343444 0.0
7.214258468265766 6.652783071431555 0.0
9.823626269633962 4.30685540664529 0.0
7.96996639420014 4.794005510174826 0.0
7.616003332725032 0.502676560965646 0.0
3.050634530589821 4.659174799474146 0.0
2.870894249800723 4.246924313393336 0.0
5.285393339952368 6.079037173753393 0.0
9.439954241218905 4.23581687956071 0.0
9.67709722097145 4.710772408106511 0.0
7.40767785509217 4.259947873553335 0.0
8.396202587439676 5.486075637998701 0.0
8.323689688705493 5.372061002264632 0.0
8.191312386254125 5.384662546230823 0.0
5.304380054816289 5.369675374029755 0.0
9.093848379546637 4.047647920840374 0.0
7.916313220758624 3.045043876114836 0.0
8.435854831444637 4.144861908356168 0.0
9.060262453079693 0.7340576053322918 0.0
7.053195520344596 5.238809779682351 0.0
9.621762679347093 2.45205452967588 0.0
8.410730269104743 5.287995309529392 0.0
9.655094569234972 3.472720279371932 0.0
7.982140513923982 6.667914768024983 0.0
8.402690325256646 4.883576657130221 0.0
9.17488654147479 4.962006474835693 0.0
9.013188196102961 8.49700148123058 0.0
9.795977244531603 2.156818021002043 0.0
9.893813711206834 9.545820400859157 0.0
7.965349232662289 4.250048884270795 0.0
8.644264557989125 4.874751532150782 0.0
8.215430976121077 1.26077208565765 0.0
8.379717637669398 8.37324652769609 0.0
9.320026533461409 5.559861899725609 0.0
7.885778178744864 0.4977439426642278 0.0
7.547066983926719 5.125166613071239 0.0
7.657542898944819 5.122996245335209 0.0
7.423918840193691 9.000935553397358 0.0
9.854133000712425 5.541931969512857 0.0
9.328508174398952 2.101486405523264 0.0
9.300749600926641 9.530012105354274 0.0
8.130307182491519 5.277079344947874 0.0
8.346752967392757 4.987627363826086 0.0
9.118404185029991 6.007087846617186 0.0
9.048232213728614 5.89431792713258 0.0
9.088340967655858 5.576242562571367 0.0
8.094762487139027 4.789727191449318 0.0
9.915265904493378 5.749591413470928 0.0
9.92169805280126 6.154216704502091 0.0
9.918022441582268 4.549125436287157 0.0
9.919332362905616 4.849536560132457 0.0
9.914800786693318 6.750595509794719 0.0
9.811792900437824 6.703950687575952 0.0
9.900643083988882 3.749855087409844 0.0
9.912423171222734 3.043228996968949 0.0
9.91892875832665 5.949999999993851 0.0
9.913300070218703 3.960831593817277 0.0
7.709347001661226 4.444236534782706 0.0
7.479443107717332 8.071637285053104 0.0
8.839057072155848 6.807845119358974 0.0
8.972330068019902 6.78765448182788 0.0
8.542093772125282 3.941452413628317 0.0
8.279144752968262 5.930387616620717 0.0
9.393455876855919 4.973162505621418 0.0
9.507123333872533 2.855087674515822 0.0
8.77504684283825 2.317347145885344 0.0
8.394133129040345 4.464046960801843 0.0
5.725509852450801 8.210843960481027 0.0
5.62632390239664 3.967637659758752 0.0
7.910815814627989 4.900765971697654 0.0
8.595808444085467 5.590040244353608 0.0
9.705160502006024 0.8106158419444889 0.0
9.82021247904746 0.808810893177099 0.0
9.218352146075844 4.447736986422823 0.0
9.20781892622228 3.858281726888132 0.0
8.713609974387523 5.178241668554946 0.0
3.55755059259364 8.921522400238844 0.0
9.59122926011489 5.452844834281716 0.0
9.70565100407009 9.77887811062354 0.0
9.826938454219809 9.74303055702321 0.0
7.238962096855633 3.278078153406256 0.0
8.575609105166194 4.567807831727537 0.0
8.936449841121737 4.765835458965493 0.0
5.59323463391086 9.248527978398117 0.0
5.280809113285124 4.886132326418428 0.0
9.328132730893216 6.544753806716806 0.0
9.026944889277736 6.67247283515637 0.0
9.81946239021469 3.007926663525007 0.0
8.677633568960493 6.144049349297466 0.0
8.33427489656924 4.571212803519522 0.0
8.55734024448315 6.382535186588269 0.0
8.692399379422756 6.372347713955898 0.0
8.495817478252626 6.503308565233578 0.0
9.905494734661673 2.544078755559835 0.0
6.177101405266569 7.228490244483556 0.0
9.825373011845263 5.807482724503027 0.0
9.808678508609606 8.118683092442964 0.0
8.397717712407108 7.08010313863416 0.0
7.428555529689225 4.935946611338556 0.0
9.575504958128711 6.125633853639113 0.0
9.154066996197898 4.146562596982661 0.0
8.074381802159323 4.337569667261167 0.0
7.018337246891919 8.843475095716133 0.0
7.970627172560641 2.658650028065857 0.0
7.382546388883145 6.723381543491632 0.0
6.822972334933889 4.884555620881615 0.0
8.343732976791593 6.041576709398377 0.0
7.743680217306919 8.423336160305476 0.0
8.505717922983454 1.115022897794028 0.0
9.113973198216474 6.992972408167606 0.0
5.818882632841168 5.300437503812764 0.0
5.951991891717714 5.279516346785062 0.0
9.450183479138845 5.92934813870612 0.0
8.783346541536119 5.48419035750989 0.0
9.38074895894124 5.65076274999803 0.0
9.513658728876734 7.193620441323493 0.0
6.396040948797887 6.776064256962667 0.0
5.389661780244388 4.89715084345563 0.0
4.473247649068957 5.85935163892416 0.0
9.249586607512612 8.37680799459232 0.0
9.103796366487646 8.379197231055114 0.0
6.274057301184156 4.87985402946409 0.0
9.259628836118232 3.561431822636308 0.0
4.037922477011971 5.489409780163391 0.0
5.62712958624254 4.893925433488392 0.0
8.806426003347967 6.133410188141932 0.0
9.53304466499349 9.59279975429444 0.0
9.542890959420024 1.966631379116419 0.0
7.459736176874619 5.863847835420528 0.0
5.937613117200432 4.89232797168023 0.0
6.171611131472617 4.879541833448487 0.0
6.100695199816815 2.291172318314745 0.0
2.315194906726768 8.081958163666464 0.0
6.878489987598286 5.148099521847569 0.0
9.105264414399338 8.639184652727645 0.0
9.20047261316883 3.457820810661327 0.0
9.895329010385955 7.55944047105717 0.0
9.912742873006831 7.76210330502246 0.0
9.37761459375249 3.168397068877758 0.0
8.946121261512507 6.345629828835438 0.0
9.918632496443566 4.449809517365367 0.0
6.848211525651934 5.945010613369067 0.0
9.915721525903255 2.047407395915179 0.0
6.117255841708726 5.163321965161054 0.0
7.276595248786602 5.347247322210079 0.0
6.32682869954104 5.23674259421017 0.0
8.785886448438022 5.692775375342819 0.0
9.099994401883361 6.776698531382792 0.0
9.913397459621638 0.2499999999998165 0.0
9.910352525643928 0.4481571029410266 0.0
9.907850422008579 0.5479735220323012 0.0
9.911983631350465 9.24778487019403 0.0
9.917634740384067 0.7514684821956668 0.0
9.195214232985496 3.254172408378337 0.0
5.000896927376288 1.846006038077654 0.0
9.917172478547403 8.250155740683276 0.0
9.908120476950126 1.742986232208194 0.0
9.914524635720774 1.949567899316728 0.0
9.907358878377153 9.145625165175748 0.0
9.917695944922635 8.949999999998397 0.0
7.648387553139914 5.325741673607362 0.0
9.605343588986079 4.130627398479715 0.0
6.648113233057817 6.774798386229164 0.0
9.910347203087213 8.446729917003672 0.0
9.913623694530468 8.548470085896316 0.0
9.9201245863254 1.536225488581779 0.0
9.906538426683255 1.059019360781604 0.0
9.912867352010919 8.74999999999809 0.0
9.799662981388353 8.79550485462418 0.0
9.831828680383174 5.99966894118311 0.0
9.91414179906643 1.263025320602998 0.0
9.920690092699912 7.240982963665807 0.0
9.385889285950551 2.235126904097426 0.0
9.28133998925606 8.00415195851526 0.0
9.817074723108401 3.172398890123306 0.0
9.482030285089927 7.512954023388035 0.0
6.682432918504054 7.233889573028878 0.0
8.528699633246763 3.260502457553277 0.0
8.91699963742029 2.327016692708648 0.0
9.267676068834481 3.954520684561369 0.0
8.70811637467455 4.974101624783084 0.0
8.18184214270768 7.816666208279135 0.0
9.690393137288163 5.264344933127836 0.0
6.937111790104696 5.245184991960528 0.0
5.895846026722989 5.174232967273284 0.0
8.281683356622615 6.400073017261236 0.0
9.150883172924027 7.444273543454419 0.0
5.430406600793122 3.390815886517273 0.0
5.049583827974758 5.697634876048387 0.0
8.3966710383105 3.495813899905868 0.0
9.007538428392454 8.046563579784266 0.0
4.645155158868719 2.637132843684674 0.0
4.887444326771336 2.30020425915506 0.0
6.483736782775559 4.522536327482678 0.0
7.843169154548308 8.2116075844056 0.0
5.06295551628385 4.901632590583318 0.0
7.201400991012747 5.138239336380897 0.0
8.519791031104612 8.848807089071627 0.0
8.658623737989732 3.031313729049854 0.0
7.585566208322493 3.629882964874684 0.0
8.411818469596405 6.834326722716643 0.0
9.172363528634236 7.669230647622864 0.0
8.85455683341768 2.682483055215344 0.0
9.359398739738925 1.631421337140716 0.0
9.071793864444992 7.337030604117359 0.0
6.968394563521436 3.712808894519514 0.0
7.899236117684646 7.094583340182754 0.0
9.54362864504834 9.781852543872333 0.0
7.151298729743687 7.644795130415299 0.0
5.452218361466201 5.186873761308322 0.0
5.517642289161902 5.293540933999446 0.0
7.802500357665464 5.978295671754199 0.0
6.594850839687122 8.491429270558893 0.0
6.029132431949566 8.294997405201931 0.0
9.31286590869111 0.5672913838331921 0.0
9.25238720319541 0.4415953739444106 0.0
9.550589523211062 4.228044955453704 0.0
8.748611832783206 6.250900951984038 0.0
7.566980108995873 3.995148257893202 0.0
7.426142759241261 3.996743578498081 0.0
6.478912513785404 4.000296412419969 0.0
9.30435638148753 5.168210982711592 0.0
7.542154188520517 5.752525075248498 0.0
7.219033852073297 2.139582470800704 0.0
7.370913620388047 6.545121498197235 0.0
5.226731036024996 5.187572666585561 0.0
8.515591031124366 4.462223215179979 0.0
6.762864307079274 0.3078036604979366 0.0
8.587432696997471 4.977010533175154 0.0
8.703948448756302 8.815629076400704 0.0
8.081003990931544 7.370949680119862 0.0
7.424404567669909 6.949730915714445 0.0
8.578903262311433 8.377992954045473 0.0
7.301258690263783 6.106184350645308 0.0
5.991600556904204 3.99820087171043 0.0
8.203048538477193 1.601044215405025 0.0
7.289972483120081 4.572350254111052 0.0
7.714697186439165 5.420586967696794 0.0
8.918853780709807 1.841796898567452 0.0
9.919941345877513 4.749808449067644 0.0
7.245589454939737 5.94251251443003 0.0
9.258480524497795 3.358952871140391 0.0
3.705877615124628 5.574038727593425 0.0
8.287096858129765 7.962370605242409 0.0
6.799629860952143 3.705385600481528 0.0
4.146753450763018 6.544154457143895 0.0
7.413973555029582 5.545687501585183 0.0
8.466524978378082 4.980481756569235 0.0
7.336312153537934 2.337983522449311 0.0
7.695505222753409 3.747498713679684 0.0
4.898236813123799 4.795853653580084 0.0
4.59779105899602 1.896916774247134 0.0
8.560170375862322 7.072369101894893 0.0
8.386150468360862 2.449771437140704 0.0
8.41200018115259 5.084601315536367 0.0
5.102189912301071 7.621598618277815 0.0
8.336320418935243 6.71651223072348 0.0
5.081745734883095 3.977838926197614 0.0
7.63590698378166 0.9500570055008507 0.0
7.743369677149255 3.051233984704873 0.0
5.357527459690566 0.3809996753407537 0.0
5.967373112873382 0.7731113464301924 0.0
8.169449265206127 6.666271947462212 0.0
5.95122726745053 5.55758205410881 0.0
9.922289489207834 3.53923011719877 0.0
9.39154684476555 2.659037023454942 0.0
7.701415639167884 7.690060291860976 0.0
9.819179654793023 1.329863870021845 0.0
8.358229579054417 6.506108206863729 0.0
9.269720555169467 5.657096143475924 0.0
4.473187658045934 7.435037860084884 0.0
9.65807158077373 3.255496360750368 0.0
9.605155446454205 8.713645566904637 0.0
7.097383547728313 5.141197376985936 0.0
9.812212483832656 1.89920712759492 0.0
9.83875570675407 6.81603549325055 0.0
8.926246869879279 2.079976511571457 0.0
9.166785856141402 9.169070814302419 0.0
8.763479010228052 1.587152667342957 0.0
5.957377924852992 6.404530806530254 0.0
7.14506854375872 6.10342416684208 0.0
5.672595070581394 5.164323323112049 0.0
4.899782787268781 0.3801727265981219 0.0
4.447133848117348 4.673614099606824 0.0
7.044865074789195 3.253639989243549 0.0
9.818461337102992 7.819456450952447 0.0
9.925334577033155 7.954012377173311 0.0
6.352907898232792 1.173665225954276 0.0
7.351721385581032 5.660361289755705 0.0
9.337367583861807 2.76534436379692 0.0
8.693118347802024 4.360254099729149 0.0
9.476812970101324 0.3524826622168163 0.0
7.109868985890334 0.9024224571333925 0.0
7.899106846231403 5.511805431542581 0.0
8.352799544476607 5.187887629361129 0.0
6.957483547582747 0.6176251309213842 0.0
8.099559500483094 1.412323841044818 0.0
9.913030944540278 0.8542404645334569 0.0
9.143075088381442 8.022165366829135 0.0
8.819861450593166 6.356592599428041 0.0
9.319444417409162 1.49938505915629 0.0
6.490262520326714 7.118204362551877 0.0
6.490874470087819 6.582907761235813 0.0
9.82506653058937 0.6146757679104559 0.0
6.803129818897624 4.419048038171804 0.0
9.840901379354312 0.08198751964190581 0.0
9.839740374244226 9.918356239418472 0.0
8.551927134544655 9.449788917425456 0.0
9.92097857388158 3.249999999993177 0.0
5.797087413057367 7.077351493358238 0.0
9.255412859987286 6.433984412022419 0.0
8.668174522249984 1.740767926084485 0.0
9.920991430240607 6.25262219124529 0.0
7.57275248448898 1.94367954756322 0.0
8.052865444445507 8.19900054463639 0.0
8.748697149245206 4.25201068974208 0.0
9.158270227735827 0.5542256343091421 0.0
5.997487767477439 4.787924707603557 0.0
6.119759900601896 4.78043793682227 0.0
4.353034750397793 8.619182743639561 0.0
8.721093521611476 5.588932824583312 0.0
5.717101151444983 1.123034066822819 0.0
9.825602081347064 8.68753399402474 0.0
8.005502510832988 8.7824052910506 0.0
5.548184234622668 6.408009287230429 0.0
5.77830300433981 6.598697187164234 0.0
9.613093825495433 4.50282172481406 0.0
9.928981132641653 9.74928475696928 0.0
6.613628176297015 4.515513362596662 0.0
1.822126723816303 1.297795131355289 0.0
9.514164594137375 1.43081427463862 0.0
4.735494753432723 3.698541604583975 0.0
9.52844959749262 8.615213629960298 0.0
4.660704511759056 0.7947595073298008 0.0
6.82340845160293 5.239926830264399 0.0
7.885938077030673 7.380147032865134 0.0
7.884599891021201 6.09005968568029 0.0
8.846834820720167 9.653276456345532 0.0
8.457777199486827 0.3851010632068662 0.0
6.66485224572131 8.771510767670392 0.0
9.091499342133352 9.708315832477556 0.0
9.824286725109655 4.976315293637262 0.0
7.848197684391786 5.632217046637356 0.0
3.88430598115417 4.225391362015386 0.0
8.776890759183289 2.809688928468134 0.0
7.393884285023409 3.59397875231041 0.0
6.927568893329758 4.396788356869783 0.0
4.96854327720728 2.662368428358774 0.0
9.1480130720193 3.951479613991279 0.0
7.071049729490975 2.38092990636632 0.0
3.40193058782919 1.686321186206593 0.0
7.612042194200681 4.815904436723407 0.0
9.043395868401339 6.888481825015849 0.0
9.098933057562759 8.152197681006806 0.0
6.058682303253315 3.857501492181965 0.0
3.707092669281355 2.986685502034343 0.0
5.113272509841263 5.189455016444592 0.0
6.960565857079232 3.416349532571279 0.0
8.755151527375476 7.649255597361291 0.0
3.393680865444538 3.679982303262531 0.0
3.117424600120088 3.35605258976247 0.0
8.530814041264104 5.488376426140491 0.0
4.820719767306654 5.106646490188182 0.0
9.918899263509473 4.144927088739744 0.0
9.918194630017027 7.447268230913605 0.0
8.461970084137805 3.144844565847669 0.0
9.924415919486059 6.949999999995354 0.0
7.184050152099684 2.72771667662237 0.0
8.834356715215904 7.801565642745232 0.0
8.689015446783005 4.145232831954543 0.0
8.490778532265319 8.234414357968106 0.0
8.63666290918932 2.83060276219705 0.0
4.61028976098935 4.741894230894578 0.0
6.314735925012879 4.003132559161639 0.0
9.20786580425652 4.67001723737971 0.0
7.141401229301469 4.873205425098625 0.0
6.235177809922153 4.774126344778935 0.0
9.12491895896937 3.145675090615719 0.0
9.255747684068178 3.162525801823036 0.0
8.312852272796098 2.290855459722148 0.0
1.449266720542303 3.363629101350872 0.0
9.525687840398492 4.800807314407045 0.0
4.829905263804087 8.14474456977717 0.0
9.09338914689732 7.563794106183232 0.0
5.389401689694107 5.283808684471545 0.0
8.530979415204587 3.029374286908943 0.0
7.901489077080633 6.535344047486632 0.0
9.218572924671975 5.760893551533255 0.0
8.562382833959296 4.143913974026883 0.0
8.62959127904665 8.974877485888243 0.0
9.408442441596518 9.62276529745719 0.0
7.5034765601713 3.869833107932387 0.0
9.842813436634783 6.600620949014236 0.0
9.826116984327193 8.911617279149695 0.0
7.529907780698261 0.7369111006685982 0.0
7.832164962480427 2.905293639437395 0.0
8.39517908433056 3.267417602291069 0.0
9.823014010107707 9.085319632577246 0.0
9.022314123618541 3.944559746338292 0.0
4.243701230676532 5.332574856090426 0.0
9.816740542566388 1.127839952679595 0.0
8.166775715766304 5.693916696568397 0.0
8.865374421689054 8.068986769641638 0.0
8.761145809863661 6.470583506581853 0.0
8.998345275919851 9.209303502026401 0.0
9.698477487436316 6.706902829754045 0.0
6.439032098063426 0.3109134377713525 0.0
7.562681994382136 4.643158005207056 0.0
9.03999088074715 0.2799354672273258 0.0
5.180741540467516 3.805018725608906 0.0
6.243990330956698 2.718077286244967 0.0
9.79416634023361 0.1815240178579244 0.0
9.926540005061975 2.847049370876555 0.0
9.826476210374608 2.670192168078066 0.0
6.365816673179121 4.536333049275508 0.0
5.546353765219417 4.618331215552614 0.0
9.820703096450293 2.000649418331399 0.0
6.884388790679166 3.561583980715254 0.0
7.431303395649604 5.747824222777201 0.0
8.849816832721245 2.19318290395604 0.0
4.185147517585975 5.697469360586313 0.0
9.165905238119013 5.873664931582344 0.0
7.70479478158537 1.788324620089049 0.0
9.627376046933474 0.9196091445437269 0.0
6.657687963328663 5.144792385996769 0.0
9.83245016645186 0.3925568446109945 0.0
7.483092985762584 9.253837199159435 0.0
5.445348362202234 3.977855663863651 0.0
7.476680532833337 4.837183287808616 0.0
9.572749890969304 8.505160319814301 0.0
9.915853314998252 9.437014513917465 0.0
7.679469018350979 7.390484878021194 0.0
9.418139053434402 4.790576000488359 0.0
8.096967733471567 5.865447162201908 0.0
9.829153508938724 8.378494945652118 0.0
9.926595955569645 5.157718300415699 0.0
8.774484245600224 7.939747459426853 0.0
8.629764448155779 6.481031318922794 0.0
8.961169458302376 3.839036702328818 0.0
4.617199205561317 5.256318959792646 0.0
8.480815774219478 4.031210317621497 0.0
9.708341592512763 3.401018043990571 0.0
7.183974816647467 4.77882314543966 0.0
9.821437962294304 7.659391965474772 0.0
8.150320284869602 2.286501016204562 0.0
9.828114434347311 1.684891358832554 0.0
5.349187766238684 6.538177907133678 0.0
8.076053471314525 2.76180604769483 0.0
4.907713691134565 5.29818629967416 0.0
0.6874399366049438 4.328593906714074 0.0
0.6980011780697519 5.702671170050627 0.0
8.263861466707834 8.182284285231713 0.0
5.838783785156478 4.913981390426639 0.0
7.807619472656604 7.235706382002089 0.0
9.388504256318683 6.022122644748753 0.0
9.929839894767033 6.436189192303577 0.0
8.3205848711706 3.39107920408397 0.0
3.240770542267401 4.019899919523968 0.0
8.059047070496568 2.468855909103855 0.0
9.932479519490421 2.449625056415224 0.0
7.737639000139152 4.580708137963557 0.0
8.26141077223695 0.3940397126348397 0.0
9.69568953371801 1.959951226402445 0.0
6.469120930453264 4.892267070266994 0.0
9.167223997255698 0.8102256463122337 0.0
6.236889648241256 0.9291076084031108 0.0
8.306379082772498 5.268830342852036 0.0
6.716089118890225 5.239344620507032 0.0
9.82511981852641 9.282822358664017 0.0
6.68375719572285 4.404998642130821 0.0
8.913754712375674 6.908138360584365 0.0
6.173250048857013 5.251634416326969 0.0
4.235907497612446 1.924052997345291 0.0
5.151007663981651 2.438629730660893 0.0
8.924254300637541 9.3764975797567 0.0
4.438612423541503 5.287968640901957 0.0
8.571203234299599 1.897009944569934 0.0
6.878800676380218 5.821332862798138 0.0
5.710626178601224 4.792560699857408 0.0
7.149510071621283 5.216310009157644 0.0
2.099966541549645 2.334742113488256 0.0
9.93396330620579 5.350566393301629 0.0
7.143046479323961 8.646955109387985 0.0
7.965747313080266 5.193641450105844 0.0
6.3314394693073 5.135050228240639 0.0
7.665821333021348 6.222698255001823 0.0
6.305321657053551 4.659816230868476 0.0
7.833020917089713 5.208837056143474 0.0
9.41455902676429 2.869725681199307 0.0
8.567151507735133 6.598605357295113 0.0
7.405527786978573 4.377085529441429 0.0
6.552969697053132 5.137148974085434 0.0
9.93630620742063 8.042778076596578 0.0
7.166743296019233 4.593171678848165 0.0
6.595561806063966 5.839366735225723 0.0
6.066152182102007 5.262519562574559 0.0
9.834694151277489 0.9093455747994099 0.0
8.98259191950674 7.579732466796592 0.0
6.465071238839505 5.25485771955322 0.0
9.759759896588413 3.236659507608532 0.0
4.775529448101694 5.224235675150505 0.0
9.935991245222917 7.153416415978829 0.0
0.6530736820718381 9.352299998916202 0.0
0.6449439415299687 0.6468300344151556 0.0
7.804690364869245 4.495816547678174 0.0
9.84503784553893 5.70620404704573 0.0
9.83525329400959 3.826992990746767 0.0
9.922964894244684 4.265000406933376 0.0
8.333767638401964 1.121219971446645 0.0
8.876012546033895 7.019147158538482 0.0
8.172413577824324 3.413096916572049 0.0
7.232233017296214 4.478957103028363 0.0
6.214597295185415 3.852860083673202 0.0
9.85013791746415 4.400709747289421 0.0
3.941627380932058 6.342995010255737 0.0
3.097271569675528 8.77391871286929 0.0
9.292917152323044 6.010976049411984 0.0
8.104342196673183 5.184165973282902 0.0
8.994300084006271 3.652611812846807 0.0
9.937157897030163 5.549999999993244 0.0
8.721368888525245 7.274540720770752 0.0
8.920003648712827 0.9516585309368178 0.0
7.910527456030004 8.536826514867816 0.0
9.846441288756814 4.60515911863952 0.0
9.584942233925151 4.712073182517884 0.0
9.642357858573972 6.805672051759494 0.0
9.797024725252207 9.838837222258014 0.0
9.842451438022124 4.018973836958878 0.0
6.112723137676118 3.704473949316424 0.0
7.574641969193845 3.765362276156904 0.0
7.826594968121701 6.200366572362263 0.0
7.762805366733504 9.34009502796868 0.0
9.56854033867856 1.012566255816665 0.0
7.71256563655353 5.219373702836014 0.0
9.68039392238282 8.786964504862018 0.0
5.910362452777086 9.277662068919813 0.0
7.418090653922814 3.326443419100716 0.0
9.857704179097952 4.697553149694669 0.0
8.452469674653342 8.996585816905599 0.0
9.522351366699843 2.057525484575908 0.0
7.802315574700843 9.548878971475935 0.0
9.938875656926385 3.449999999992592 0.0
8.425189037911712 6.608575180629274 0.0
5.925965231566842 2.523669697740033 0.0
6.654918072256329 5.95749128982984 0.0
9.826748589235729 9.631118448471485 0.0
8.6684585637523 7.39633999085442 0.0
9.844673843931567 3.090088625379724 0.0
9.93613850661301 2.250382721159617 0.0
9.218291993658738 2.892108990205171 0.0
9.83502846611296 8.212781989607324 0.0
7.754136409732265 7.104288507262783 0.0
8.510570542791681 2.036933285735889 0.0
7.757745059307245 4.315798612475442 0.0
7.989231770559189 6.201656630465583 0.0
8.068934521422738 4.198631572122605 0.0
4.957478134450373 9.038766150325067 0.0
7.208661142641733 6.501402463831379 0.0
7.299506095906239 4.363561999234681 0.0
8.250303873550486 2.105322217421675 0.0
8.678637541413377 7.053471135702286 0.0
9.761528395137384 6.163503990672834 0.0
9.84494857233395 8.59999999999775 0.0
9.83825138794677 3.672838954969637 0.0
5.121008544047756 5.808127183024784 0.0
8.343911550360986 4.043535893276861 0.0
9.85324441775315 5.899999999993774 0.0
9.51114465213134 8.41035540646284 0.0
6.505812179224195 6.93390566262983 0.0
6.15572847138365 9.023097246950844 0.0
3.352081892333425 3.024853379890529 0.0
6.433163283162099 8.675072413910678 0.0
8.825744236698243 3.624446391299867 0.0
4.883007294861279 7.819620905924936 0.0
5.876659170760434 5.638247433601083 0.0
6.859400040348503 6.510797998354633 0.0
7.946400945409184 3.500317276373196 0.0
7.496830255505493 6.653194511698024 0.0
9.852183479755313 4.891525833556942 0.0
9.77998778436291 2.922486526124376 0.0
6.774672660492365 5.324728659740495 0.0
5.717254072187427 6.824125962512845 0.0
9.713440940838062 4.63793103997539 0.0
8.859858662536796 0.2721395536350836 0.0
8.37556017530946 9.436653414116012 0.0
7.395237381047616 7.885576562773319 0.0
5.4709157802033 4.511152089197594 0.0
9.489749416979361 9.691840729914848 0.0
4.599216022837964 3.46438688931078 0.0
5.572287492757569 4.807021644849729 0.0
9.926499336309957 9.92730688390086 0.0
9.926499336310107 0.07269311609890093 0.0
9.338127766332573 0.3585313952168247 0.0
6.810761948165162 3.414693294319008 0.0
8.166274345037138 5.943611545564389 0.0
5.2892644736731 6.301081312912763 0.0
9.731911074791544 7.649313380659622 0.0
8.90251102352767 9.50983415326544 0.0
8.997881406541017 1.033666784655452 0.0
5.835124768755703 2.738139962594905 0.0
9.665357480775825 6.185331297099201 0.0
7.656532192558493 8.217157287499347 0.0
9.170463887605525 2.975444721032631 0.0
4.208158615905443 0.8648302238584886 0.0
6.97015686031129 5.933674629077266 0.0
6.181941366523793 3.565885175921835 0.0
3.30313590337911 6.393402837735046 0.0
6.447482061767014 4.816169316820496 0.0
8.185341428749446 4.169172087371246 0.0
4.552595724340015 8.298301336212145 0.0
9.84850676569699 8.999999999998423 0.0
9.846941514449377 7.393642828194986 0.0
7.924592433490734 2.788309934035703 0.0
8.154308714226714 8.853640122009672 0.0
8.876629743004642 1.96110242719995 0.0
7.228849192966834 8.90811350348676 0.0
9.852301635085423 8.296637825215246 0.0
5.219795195341889 5.547413133147649 0.0
9.861497117995457 6.901363010201344 0.0
2.953911258021604 6.136007283255669 0.0
6.93158841067062 4.77708273647784 0.0
9.67540418457871 2.912802891506324 0.0
4.194055958522277 4.437353127730132 0.0
6.133959559341536 0.406856611599261 0.0
8.29952795189331 9.309744645643846 0.0
9.843692337952948 1.209647690818311 0.0
5.164986286280336 6.671544079402435 0.0
9.838533350075606 2.081705440779448 0.0
8.301244777513975 6.604088853319459 0.0
5.471494771710784 2.714598185146428 0.0
8.86534684892311 1.208599471795828 0.0
9.940610684232212 1.451558535868664 0.0
9.40896208432968 1.428353940655538 0.0
2.329177605337097 4.238803555614174 0.0
5.980761651517799 7.182207186682233 0.0
9.66541573964336 0.1719254072074424 0.0
7.220979380229172 7.806128737674462 0.0
1.251721227904697 6.151932667911503 0.0
8.104967286191181 6.057912607875576 0.0
6.650768762224724 4.817922869198292 0.0
6.634976350437587 3.213339182992986 0.0
7.034320437500567 4.898219100342838 0.0
9.502772020064167 6.283064492634301 0.0
8.13187938667684 3.518506862055515 0.0
9.855471943454193 2.599999999994991 0.0
9.056747742708522 8.263936599935574 0.0
4.352645795441222 5.724453640019 0.0
3.744263984699181 1.488951698361357 0.0
5.175860134287045 3.6375726667098 0.0
7.736434712114619 6.400417475661193 0.0
9.857658576695343 6.316607183405179 0.0
7.876525261950537 4.304285002335559 0.0
9.856114384785611 7.914602773442983 0.0
9.848334119947063 0.7059644476295188 0.0
9.59694321995579 6.895814046141667 0.0
5.906465212962551 3.869023950643881 0.0
9.840676994268005 9.364956386459765 0.0
5.355015287544095 3.83518170601625 0.0
6.374090407153147 5.855743754257685 0.0
8.227401290513832 5.297819733684674 0.0
5.451235131977493 4.825706629991923 0.0
6.022070213762754 5.355923882747634 0.0
9.845674433677614 6.108401449483281 0.0
9.835067400944396 7.739582406783081 0.0
8.602026805792988 2.941372356914139 0.0
5.059869081004962 5.269480960018243 0.0
5.284714507903736 5.26496663762182 0.0
9.627110479149561 7.660076105040499 0.0
6.820001127809743 4.792514421153957 0.0
5.120512795059439 4.806607659110254 0.0
9.56933817216883 2.911464407429096 0.0
9.74091654291531 9.267545397628387 0.0
9.93006767325302 6.576784040838644 0.0
9.642486276936268 4.650227701598451 0.0
5.185183328569137 9.410919109238325 0.0
9.37052946854105 4.605636695802024 0.0
1.677077220416309 5.871167715901136 0.0
7.345783833404538 3.184020711886284 0.0
5.419239942654976 5.982692039856376 0.0
6.133318300188262 2.551919945731369 0.0
6.187291396343277 4.499077117404439 0.0
1.231465237822878 3.921479198315213 0.0
8.969849937139944 9.699215363213542 0.0
9.218303154263054 6.037447959776716 0.0
CELLS 4886 19544
3 1113 1356 1450
3 1402 231 1659
3 272 269 1414
3 396 394 1777
3 1451 945 1452
3 194 81 1801
3 1847 1501 2104
3 2024 2121 2479
3 1115 1113 1450
3 1124 1413 1844
3 1061 1955 2409
3 307 305 1645
3 1592 1369 1593
3 238 1501 1847
3 1955 1883 2409
3 1808 243 1910
3 1885 978 2362
3 1440 793 2092
3 189 1488 1608
3 353 350 1864
3 2007 2231 2232
3 307 1645 2493
3 1096 1760 2496
3 2178 874 2179
3 621 625 1595
3 1493 1480 1938
3 1655 1268 2137
3 1341 1410 2212
3 243 1808 2360
3 1902 1446 2516
3 1760 1096 1763
3 856 790 2180
3 2008 2046 2105
3 789 1809 2067
3 694 1543 1575
3 1127 1762 1953
3 1748 807 2228
3 1543 1308 1575
3 820 1872 2170
3 1417 954 1998
3 1369 1592 2386
3 272 1414 1787
3 329 333 1998
3 1544 1095 1545
3 2231 1490 2232
3 1342 1683 1790
3 374 377 1797
3 807 1678 2228
3 1665 198 2128
3 141 142 1620
3 325 322 1952
3 231 1402 1654
3 198 1665 2010
3 1890 1307 2387
3 208 1438 1619
3 2016 1970 2156
3 1436 212 2020
3 954 1417 2333
3 1736 1894 2244
3 1491 1750 2143
3 1677 1064 2146
3 1474 1258 1475
3 1500 233 1930
3 1446 2415 2516
3 1700 973 1800
3 2128 2270 2316
3 1316 1315 1593
3 1307 2341 2387
3 2258 1324 2328
3 1083 1507 1508
3 693 1095 1544
3 621 1595 1596
3 667 1571 1872
3 1932 1766 2061
3 393 391 2240
3 1342 1790 2400
3 252 1707 2234
3 931 978 1885
3 1430 1116 1704
3 1411 1109 1714
3 1478 1227 2440
3 1990 195 2297
3 1792 1167 1985
3 1682 444 1975
3 394 397 1777
3 1711 2028 2162
3 1574 856 2180
3 2008 1851 2046
3 736 1493 1938
3 1069 1060 1662
3 1458 455 1754
3 862 691 1705
3 1161 1642 2286
3 1699 1700 1800
3 447 516 1637
3 955 1482 1483
3 2024 206 2121
3 391 1773 2240
3 1072 1412 1893
3 212 1436 2350
3 1566 1365 1568
3 259 1441 1672
3 872 870 1764
3 330 328 1889
3 1539 1161 2286
3 1897 1898 2275
3 1434 1990 2297
3 1109 1411 1730
3 319 307 2493
3 1762 1761 1953
3 1369 1316 1593
3 1540 834 1832
3 1505 652 2442
3 1732 1655 2137
3 921 1712 2295
3 1872 1388 2170
3 1712 921 2125
3 2028 244 2162
3 1506 1570 1680
3 1569 368 1964
3 1571 667 2375
3 1587 2178 2179
3 196 1723 1737
3 524 2016 2156
3 1528 1250 1733
3 1115 1450 1973
3 1938 1480 1971
3 1809 1396 2067
3 1641 249 2299
3 1223 1258 1474
3 1365 1566 2120
3 1981 962 2316
3 1538 353 1864
3 455 1458 1756
3 152 233 1500
3 1116 1430 1703
3 817 652 1505
3 1347 2003 2004
3 1607 1958 2085
3 194 1801 2195
3 1410 1341 2351
3 223 1415 1710
3 197 1511 2346
3 2198 787 2225
3 81 82 1801
3 1438 208 1620
3 1444 522 1823
3 1511 197 1950
3 726 718 1567
3 1637 516 1739
3 1708 2337 2341
3 1280 1649 2124
3 2337 1395 2341
3 1327 1709 2315
3 1225 1227 1478
3 691 624 1705
3 476 2224 2305
3 830 832 2204
3 1750 1491 2403
3 1366 1897 2275
3 2345 1583 2352
3 2054 405 2110
3 1984 2172 2230
3 1846 2198 2225
3 1177 2042 2418
3 2121 1367 2479
3 1527 1531 1541
3 916 1039 1834
3 1413 1124 2467
3 1622 1503 1868
3 249 1641 2019
3 1805 405 2054
3 1761 1007 1953
3 1415 223 2395
3 960 1756 2203
3 368 1569 2135
3 1402 1659 2473
3 941 1433 2471
3 1267 1477 1501
3 260 2002 2265
3 1704 558 2077
3 2224 1886 2305
3 2053 1386 2199
3 1452 945 1952
3 1717 1611 1718
3 1682 1975 2230
3 1760 1762 2496
3 1481 203 2104
3 1264 1266 1670
3 142 236 1620
3 2133 1182 2179
3 1791 1602 2183
3 350 346 1864
3 1412 1072 2393
3 1281 1575 2255
3 1565 1948 2155
3 849 1449 1513
3 1958 396 2085
3 1339 1069 1662
3 834 1540 1917
3 269 267 1414
3 1268 1267 1501
3 1440 2092 2468
3 1399 1981 2316
3 1635 1636 2041
3 1454 252 2234
3 1451 1305 1890
3 1375 1883 1955
3 362 366 1786
3 1484 2410 2528
3 1449 849 1640
3 1267 1474 1477
3 200 1611 1717
3 1054 1581 1582
3 1350 1977 2253
3 190 1390 2118
3 788 1956 2193
3 1709 1327 1888
3 2233 2298 2413
3 1488 189 2355
3 478 1685 1714
3 230 1525 1690
3 1687 478 1688
3 427 429 1756
3 1570 1065 2476
3 1880 1133 1988
3 1649 656 2124
3 1537 209 1614
3 1134 1769 1986
3 1220 1268 1655
3 396 1777 2085
3 1167 1755 1985
3 2229 1744 2296
3 1575 1281 2287
3 127 240 1882
3 377 647 1797
3 954 329 1998
3 220 1697 1698
3 1342 1341 2212
3 1441 264 1672
3 1512 188 2433
3 763 2345 2352
3 1685 1411 1714
3 1805 1188 1951
3 1347 2004 2157
3 1054 1582 1667
3 1333 1617 1674
3 2217 73 2361
3 1539 1036 1917
3 1039 1292 1834
3 208 141 1620
3 1965 1964 2038
3 693 1544 1969
3 1453 239 2279
3 203 1481 2049
3 945 1451 1889
3 680 1459 2134
3 354 2147 2196
3 1405 1932 2061
3 1723 1722 1737
3 1748 1175 1927
3 1532 1528 1733
3 2057 1824 2154
3 1406 1659 1702
3 1948 1186 2155
3 210 1598 2114
3 1685 478 1687
3 1324 1325 2328
3 1526 1250 1527
3 165 166 1509
3 1493 736 2523
3 1526 1527 1541
3 1390 190 2417
3 522 1444 1998
3 1680 1570 1732
3 1017 1442 2525
3 374 1797 2430
3 1507 1083 2197
3 1756 960 2221
3 2270 1400 2316
3 2205 1452 2282
3 1074 1187 1888
3 2158 1245 2200
3 1442 1017 1684
3 864 1116 1703
3 1750 1751 2143
3 1456 516 1492
3 1677 2146 2149
3 2022 1339 2388
3 1602 258 2183
3 678 1594 1595
3 1245 1670 2200
3 972 830 2204
3 2143 983 2342
3 1268 1501 2226
3 1266 1461 1670
3 1487 222 2465
3 1382 2022 2388
3 58 59 1661
3 2147 1543 2196
3 1484 1485 2410
3 628 2053 2199
3 1906 1549 2259
3 364 362 1786
3 1339 2022 2247
3 1636 525 2041
3 625 678 1595
3 678 1593 1594
3 2212 1410 2222
3 1837 1865 2215
3 1699 1800 1801
3 866 864 1703
3 893 1472 1982
3 1735 1736 2244
3 1633 1255 1922
3 126 127 1882
3 681 867 1656
3 1351 1401 2363
3 11 228 1588
3 1127 1953 2454
3 265 266 267
3 1722 1122 1737
3 1389 1691 2069
3 1613 1610 1616
3 1227 1256 2440
3 429 455 1756
3 1535 1177 2418
3 322 324 1952
3 973 1700 1802
3 1964 368 2038
3 1176 1865 1866
3 1096 872 1764
3 1176 1866 1875
3 193 1839 1892
3 156 157 1441
3 615 617 1596
3 686 1520 2480
3 1409 2097 2305
3 2410 1151 2528
3 1427 2217 2361
3 440 1911 2314
3 1744 1743 2296
3 516 1456 1739
3 1939 589 2164
3 690 931 2150
3 1062 1579 1580
3 1054 1580 1581
3 955 1483 1716
3 1064 1677 2248
3 1956 1616 2193
3 1776 1893 2026
3 1398 1115 1973
3 2002 1453 2265
3 1541 1531 1542
3 216 2191 2536
3 1736 1326 1894
3 1065 994 1066
3 1598 2115 2175
3 2314 1911 2358
3 1433 941 2042
3 2115 1209 2175
3 717 1550 1551
3 188 1941 2433
3 267 1132 1414
3 771 1569 2064
3 1157 1545 1546
3 1231 1250 1526
3 1933 240 2181
3 222 1487 2025
3 1525 230 1765
3 1430 1704 2077
3 757 1744 2495
3 264 263 265
3 883 773 1917
3 739 2205 2282
3 1667 1582 2434
3 1744 757 2474
3 239 1453 2002
3 1441 259 2356
3 2005 1443 2012
3 254 1766 1932
3 1509 166 1679
3 1477 1475 1481
3 793 1440 2165
3 1385 1523 2377
3 1481 1475 2523
3 156 1441 2356
3 1066 1220 1655
3 945 325 1952
3 2094 2087 2134
3 1747 1175 1748
3 253 262 263
3 1327 1074 1888
3 718 715 1567
3 2046 1043 2105
3 240 1933 2399
3 1305 1307 1890
3 224 58 1661
3 1195 1566 2285
3 1590 1393 1749
3 1255 1230 1922
3 353 1538 2073
3 358 1999 2325
3 882 1802 2036
3 1024 1020 1604
3 333 522 1998
3 1401 1351 2414
3 1475 1258 1476
3 2310 786 2364
3 328 945 1889
3 807 1748 1927
3 825 724 1912
3 1742 263 2491
3 267 266 1132
3 2077 2102 2203
3 1431 1432 1860
3 1212 1957 2312
3 2097 476 2305
3 1132 1402 2473
3 717 713 1550
3 1746 693 1969
3 1372 1124 1844
3 1256 1541 2269
3 1977 1350 2274
3 2332 1978 2443
3 874 2133 2179
3 1983 1534 2171
3 1157 1544 1545
3 1230 1228 1922
3 1580 1579 1581
3 1565 806 1948
3 1416 1363 2413
3 1287 1995 2398
3 265 263 266
3 1534 1529 2171
3 1604 1834 2428
3 1255 1633 2509
3 1344 1643 1644
3 1332 1388 1571
3 1423 217 2217
3 2191 1057 2451
3 458 447 1637
3 1250 1233 1733
3 472 2212 2222
3 1175 1747 1840
3 1652 256 1653
3 1073 1347 1572
3 200 145 1609
3 683 640 1585
3 1116 862 1705
3 1221 1223 1474
3 1778 801 1803
3 1503 1622 2471
3 1475 1493 2523
3 464 680 2134
3 14 210 2114
3 579 1880 1988
3 1434 1435 1990
3 1447 2310 2364
3 275 274 276
3 2294 1871 2419
3 814 1068 1684
3 1172 1439 2273
3 273 272 274
3 1363 1416 2406
3 1220 1219 1221
3 1060 1656 1662
3 1099 1792 1985
3 2048 1198 2168
3 1241 1245 2323
3 699 723 1753
3 1640 1862 2070
3 910 1018 1584
3 1586 1067 1587
3 1656 867 1662
3 1067 686 2480
3 654 2242 2294
3 1593 1315 1594
3 1880 553 1974
3 236 1717 1718
3 617 621 1596
3 1723 196 2313
3 402 1877 2116
3 273 274 275
3 2202 1869 2252
3 1510 1358 1767
3 193 1892 2373
3 1188 1805 2054
3 1220 1221 1267
3 1066 1218 1219
3 1517 1097 1518
3 1677 1676 1858
3 686 277 1520
3 268 267 269
3 697 857 1592
3 220 1698 1699
3 1802 1700 2036
3 1612 1537 1614
3 929 817 994
3 228 12 2136
3 2110 2116 2482
3 1659 1658 1702
3 1611 1613 2280
3 1344 991 1643
3 683 1585 1604
3 1638 1358 2404
3 1485 1034 2410
3 2214 833 2424
3 271 272 273
3 1482 955 1962
3 1066 1219 1220
3 931 1885 2150
3 1613 1891 2280
3 1189 1589 2204
3 1566 1195 2120
3 726 1567 2490
3 1122 1722 1874
3 1494 319 2493
3 1671 259 1672
3 1267 1221 1474
3 603 528 1591
3 1664 2128 2316
3 1817 1924 2174
3 1626 1660 2111
3 1474 1475 1477
3 1023 1062 1580
3 1957 1599 2312
3 1764 1939 2164
3 1358 1950 2404
3 200 1609 1610
3 1431 1082 1432
3 1778 1803 2521
3 1830 1832 2075
3 1930 233 2369
3 1329 1482 1650
3 757 1959 2522
3 1239 1247 1597
3 758 1978 2332
3 1569 1290 2064
3 216 1694 2191
3 1453 1420 2265
3 1549 1906 2129
3 24 215 1674
3 19 235 1676
3 1621 1057 2191
3 1691 1389 2262
3 1617 1333 2192
3 929 994 1065
3 1769 1672 1986
3 1893 1412 2026
3 1609 1537 1612
3 271 269 272
3 1373 1438 1620
3 217 1423 2381
3 517 330 1889
3 1322 1055 1667
3 1974 553 2499
3 228 2136 2187
3 1589 1189 1788
3 1999 1577 2325
3 2110 405 2116
3 189 1608 1842
3 1055 1050 1667
3 739 1455 2205
3 1865 1176 2215
3 319 1494 2522
3 2474 757 2522
3 1484 227 1485
3 10 11 1588
3 723 809 1753
3 27 230 1689
3 1550 806 1565
3 1179 1180 1217
3 207 1617 2192
3 1433 1217 1502
3 1562 1556 1606
3 1379 2017 2018
3 1245 2158 2323
3 675 1097 1517
3 884 501 1599
3 1020 683 1604
3 1603 1095 1848
3 1001 2057 2154
3 1604 1585 1834
3 1610 1612 1616
3 1764 870 1939
3 2242 1871 2294
3 1669 1264 1670
3 1658 213 1702
3 1995 1646 2398
3 631 539 1600
3 1491 2143 2342
3 1801 1800 2195
3 1200 1199 1693
3 1535 940 1861
3 1534 758 2332
3 914 2258 2328
3 1588 228 2457
3 216 138 1694
3 151 152 1500
3 1133 1880 1974
3 1677 1858 2248
3 1294 1622 1868
3 875 1010 1767
3 1379 2018 2416
3 1279 2202 2252
3 182 256 1652
3 1592 857 2386
3 672 681 1656
3 615 1596 1824
3 1093 1487 1623
3 1823 522 2100
3 1245 1242 1669
3 1582 1581 1583
3 758 1534 2306
3 1975 1984 2230
3 1358 1510 1950
3 1663 1336 1665
3 2102 960 2203
3 366 1087 1786
3 1740 1490 2231
3 21 207 1709
3 145 146 1609
3 2339 765 2384
3 603 1591 1668
3 2081 199 2149
3 1540 1832 1879
3 1721 1723 1947
3 1754 455 1793
3 1751 1753 2119
3 882 1701 1807
3 1540 1539 1917
3 242 1695 1697
3 1521 354 2091
3 1363 2233 2413
3 1584 1018 1925
3 703 1067 1586
3 1177 1178 1179
3 795 916 1834
3 277 276 607
3 1571 1388 1872
3 22 23 1617
3 1097 823 1177
3 25 26 1624
3 419 418 1790
3 1728 1906 2259
3 440 1455 2261
3 1877 1318 2116
3 1488 1156 1608
3 1439 2130 2273
3 1889 1451 1890
3 1614 209 2389
3 1472 893 2094
3 675 821 823
3 23 24 1674
3 1788 1190 2183
3 917 941 1622
3 1763 1096 1764
3 1068 1442 1684
3 1034 1485 2173
3 2172 1533 2230
3 138 139 1694
3 1065 1570 2197
3 607 674 675
3 1536 1248 2268
3 229 135 1734
3 1437 1925 1926
3 680 510 1646
3 147 209 1537
3 26 27 1689
3 1627 705 2163
3 206 1651 2121
3 2409 1785 2462
3 1492 682 2447
3 1223 1225 1258
3 889 1772 2374
3 253 263 264
3 275 276 277
3 1455 739 2261
3 2022 1382 2176
3 150 227 1484
3 639 1019 1591
3 1449 1640 2070
3 1082 833 2214
3 1503 1502 1504
3 144 200 1717
3 1643 991 1713
3 1190 1791 2183
3 1538 1804 2073
3 1256 2269 2440
3 18 19 1676
3 521 531 2000
3 790 849 2180
3 1075 1329 1650
3 1087 1782 1785
3 1066 994 1218
3 270 269 271
3 682 1492 2494
3 185 252 1454
3 253 158 262
3 1629 1632 1633
3 200 1610 1611
3 1477 1481 2104
3 1623 1487 2465
3 1518 1097 1535
3 1414 1132 2460
3 1179 1217 1433
3 177 1506 1680
3 1392 1017 2525
3 1832 834 2075
3 675 823 1097
3 1459 2094 2134
3 1782 1087 1795
3 1838 1730 2372
3 1639 149 2528
3 1617 23 1674
3 2265 1420 2489
3 180 232 1859
3 1527 1250 1528
3 20 21 1709
3 1083 1508 2311
3 903 866 1703
3 1455 440 2314
3 1187 1858 1888
3 1659 1406 2473
3 1446 1902 2166
3 421 1951 2106
3 1598 210 2115
3 154 259 1671
3 1288 1835 2080
3 1832 1831 1879
3 1258 1225 1478
3 1024 1604 2117
3 1263 1429 1739
3 706 705 1627
3 1583 1581 2352
3 407 1805 1951
3 856 1574 2527
3 1701 882 2036
3 1624 26 1689
3 717 1551 1552
3 1385 2377 2391
3 2302 1745 2354
3 1572 1347 2157
3 1036 883 1917
3 1689 1690 1691
3 1664 1665 2128
3 1476 1479 1480
3 1751 2119 2143
3 815 814 1684
3 1790 889 2400
3 1606 1607 2085
3 265 267 268
3 418 889 1790
3 1522 1521 2091
3 135 136 1734
3 1726 1445 1729
3 647 1796 1797
3 1346 1453 2279
3 1293 1827 2117
3 1242 1244 1669
3 1853 1852 1854
3 889 2374 2400
3 1039 1038 1290
3 1524 628 2199
3 1331 1332 1571
3 1291 1290 1569
3 1475 1476 1493
3 1850 1852 1853
3 1490 1740 2456
3 1689 230 1690
3 1256 1526 1541
3 1704 1705 2167
3 1465 1470 1675
3 956 1073 1572
3 1613 1616 1956
3 916 917 1038
3 2014 1522 2091
3 1221 1222 1223
3 1999 763 2352
3 234 10 1588
3 1697 220 2335
3 1527 1528 1529
3 2298 1600 2413
3 1436 2020 2254
3 1642 1161 1678
3 1523 1385 2436
3 1730 1838 2426
3 795 796 916
3 713 711 1550
3 1456 1263 1739
3 999 1336 1663
3 1785 1784 2462
3 409 415 1783
3 607 675 1517
3 1229 1231 1526
3 1958 1855 2078
3 1589 1588 1590
3 1933 261 2380
3 762 1965 2038
3 1756 1458 2203
3 1776 597 1893
3 1794 1072 1893
3 188 1512 2266
3 1774 2339 2384
3 188 1908 1941
3 1010 1510 1767
3 2189 2285 2307
3 773 834 1917
3 1245 1669 1670
3 1248 1597 2268
3 146 1537 1609
3 818 910 1584
3 1641 1313 1651
3 1217 1745 2302
3 1065 1066 1655
3 1597 1247 2047
3 1360 2177 2376
3 1612 1615 1616
3 2126 867 2186
3 1019 683 1020
3 1747 892 1840
3 1092 1093 1623
3 261 1933 2181
3 400 424 1666
3 1516 1903 2377
3 1100 1392 1605
3 247 1738 1881
3 268 1134 1986
3 1177 823 1178
3 884 1599 1957
3 263 262 2491
3 806 1627 1948
3 1227 1229 1256
3 191 1729 2504
3 1636 1635 2502
3 1480 1479 1601
3 1721 1947 2498
3 1924 1146 2174
3 229 1734 1735
3 175 204 1725
3 1179 1178 1180
3 354 1521 2147
3 665 697 1592
3 640 646 1585
3 627 545 1636
3 1882 240 2399
3 1556 1555 1606
3 1373 1620 2394
3 1871 1071 2419
3 548 1628 1629
3 455 436 1793
3 974 1831 1841
3 1844 1413 2392
3 1612 1614 1615
3 209 1639 1937
3 1329 1330 1331
3 1823 2100 2142
3 1097 1177 1535
3 1021 1020 1022
3 825 1912 2455
3 913 1122 1874
3 400 1666 2113
3 1256 1229 1526
3 1419 1418 2450
3 1552 1551 1553
3 1850 1099 1852
3 1629 1631 1632
3 801 685 2029
3 1618 1619 1621
3 265 268 1986
3 1715 2165 2330
3 1531 1529 1534
3 1022 1024 1576
3 658 693 1746
3 703 686 1067
3 1062 1576 1577
3 1023 1022 1062
3 236 1718 2394
3 1688 502 1740
3 1501 1477 2104
3 213 165 1509
3 646 795 1585
3 196 1737 1738
3 379 679 1795
3 639 640 683
3 924 875 1767
3 1752 699 1753
3 207 2192 2315
3 627 1636 1660
3 1217 1180 1745
3 730 728 1833
3 528 561 1591
3 1444 1417 1998
3 252 186 1602
3 1729 1445 2504
3 460 502 1688
3 1418 946 1778
3 1203 1200 1693
3 548 470 1628
3 849 668 1640
3 646 785 795
3 607 276 674
3 14 15 210
3 147 148 209
3 478 460 1688
3 1709 207 2315
3 1157 1546 1608
3 1155 1731 1899
3 1524 1934 2390
3 1775 921 1876
3 1433 1502 1503
3 470 458 1628
3 1223 1224 1225
3 1291 1569 1964
3 871 1056 1826
3 1781 1783 1915
3 1587 1067 2300
3 916 1038 1039
3 1388 1387 1389
3 1611 1610 1613
3 1075 1328 1329
3 1039 1290 1291
3 1538 1265 1804
3 1184 1185 2163
3 597 598 1794
3 1450 1356 2421
3 1835 576 2080
3 1629 1628 1631
3 1331 1330 1332
3 561 639 1591
3 1476 1480 1493
3 705 703 1586
3 639 683 1019
3 1951 1188 2106
3 436 446 1793
3 1472 1297 2142
3 1332 1387 1388
3 1345 984 1720
3 1329 1328 1330
3 1050 1048 1667
3 150 151 227
3 11 12 228
3 557 541 2256
3 1831 974 1879
3 134 229 1766
3 1357 1358 1638
3 1336 1641 2299
3 1650 1482 1962
3 1591 1019 2512
3 1506 1507 1570
3 1803 801 2029
3 1178 823 1972
3 1552 1553 1554
3 1290 1038 1294
3 1028 1313 1641
3 1237 1239 1597
3 993 1017 1100
3 893 2087 2094
3 149 1484 2528
3 1768 1142 1949
3 9 234 1673
3 1554 1553 1555
3 668 632 1640
3 711 806 1550
3 1628 458 1637
3 1098 1829 1830
3 1482 1331 1483
3 531 1818 2000
3 435 419 1790
3 1156 1157 1608
3 1182 1184 2179
3 510 512 1646
3 1231 1233 1250
3 946 841 1778
3 1483 1331 1571
3 1459 680 2458
3 1166 1040 1210
3 892 1657 1820
3 1042 1445 1726
3 1019 1020 1021
3 749 805 1810
3 234 1588 1589
3 1695 242 1892
3 556 1853 2483
3 1018 1572 1573
3 1529 1528 1530
3 1606 1558 1607
3 1761 1759 2308
3 1396 1032 1921
3 1018 956 1572
3 689 1150 1416
3 1827 1293 2515
3 149 150 1484
3 1647 656 1648
3 1543 694 2196
3 399 409 1783
3 545 525 1636
3 268 269 270
3 715 713 717
3 1100 1017 1392
3 1657 892 1747
3 207 22 1617
3 1666 884 2249
3 1671 1672 1769
3 1554 1555 1556
3 146 147 1537
3 1081 1444 1822
3 711 709 806
3 1443 2005 2322
3 660 658 1746
3 1166 1458 1754
3 916 796 917
3 1056 1728 1826
3 1068 1069 1275
3 184 185 1454
3 158 159 262
3 2007 1687 2231
3 805 1708 1810
3 1672 264 1986
3 1561 1562 1563
3 978 1075 1650
3 1590 1588 2457
3 215 25 1624
3 1551 1550 1565
3 1073 1346 1347
3 857 818 1584
3 1648 656 1649
3 675 674 821
3 561 594 639
3 1731 529 1899
3 2303 1454 2535
3 981 903 1040
3 1630 1629 1633
3 993 877 1017
3 724 718 726
3 512 603 1646
3 1676 235 1858
3 814 1060 1068
3 715 717 1567
3 1796 647 1870
3 1715 1171 2165
3 678 1592 1593
3 644 613 1824
3 1690 1525 2145
3 1297 1822 1823
3 271 656 1647
3 1704 1116 1705
3 1225 1226 1227
3 1275 1069 1338
3 910 956 1018
3 1824 1596 2154
3 1403 1100 1605
3 1221 1219 1222
3 1068 1060 1069
3 1901 245 1949
3 1081 1055 1321
3 1751 563 1752
3 1021 1022 1023
3 672 638 681
3 1095 657 1848
3 1235 1237 1248
3 1561 1556 1562
3 1265 1259 1804
3 524 1819 2016
3 978 1650 2362
3 1492 516 2494
3 229 1735 2061
3 185 186 252
3 157 158 253
3 152 153 233
3 9 10 234
3 1527 1529 1531
3 1808 1344 2360
3 1062 1577 1579
3 1509 1679 1977
3 424 454 1666
3 637 638 672
3 981 1040 1166
3 1555 1558 1606
3 751 749 1810
3 1166 1210 1458
3 1651 1313 2121
3 15 16 2260
3 1633 1632 2509
3 2167 1705 2276
3 551 602 2045
3 697 818 857
3 364 1786 1883
3 832 1189 2204
3 1476 1478 1479
3 678 665 1592
3 213 1509 2096
3 1015 888 1124
3 1062 1022 1576
3 679 1782 1795
3 680 1646 1995
3 1101 1100 1403
3 1109 433 1714
3 1248 1237 1597
3 733 730 1833
3 1702 213 2096
3 499 498 1828
3 1418 1778 2521
3 637 600 638
3 1048 1046 1054
3 1577 1576 1578
3 814 766 1060
3 1279 2252 2292
3 474 470 548
3 199 18 1676
3 157 253 1441
3 1048 1054 1667
3 471 472 2290
3 625 665 678
3 795 785 796
3 1264 1265 1266
3 1437 1926 2350
3 1362 2048 2168
3 1394 2337 2371
3 454 884 1666
3 1022 1020 1024
3 751 1810 1923
3 1046 1023 1580
3 1807 1701 1931
3 1618 208 1619
3 566 588 689
3 1828 498 1829
3 501 509 1599
3 1118 780 1775
3 878 817 929
3 1510 1511 1950
3 1618 1621 1694
3 1052 1081 1822
3 1416 1150 1715
3 1239 1241 1247
3 1396 1921 2067
3 1751 1752 1753
3 1264 1259 1265
3 539 566 1600
3 1762 1127 2496
3 1673 1788 2183
3 1555 1557 1558
3 1052 1050 1055
3 725 724 825
3 1142 1770 1771
3 681 853 867
3 454 501 884
3 1346 1420 1453
3 932 1147 1770
3 1546 1545 1547
3 533 582 1818
3 1266 1337 1460
3 1872 820 2318
3 1117 1119 1713
3 1081 1321 1417
3 1253 1259 1264
3 1569 771 2135
3 1052 1055 1081
3 1181 1178 1972
3 709 706 1627
3 1073 1076 1346
3 1098 1828 1829
3 1382 1380 2176
3 1442 1275 1443
3 919 999 1663
3 1789 828 1855
3 877 815 1684
3 509 539 631
3 992 877 993
3 1266 1265 1337
3 2268 1498 2340
3 1130 1032 1396
3 1095 1603 2508
3 886 826 887
3 531 533 1818
3 1131 1400 1881
3 447 437 516
3 2460 1132 2473
3 940 1535 2418
3 768 1873 2037
3 1813 1869 1954
3 1627 2163 2488
3 1497 1495 1645
3 1198 1409 2168
3 724 726 1912
3 1869 987 1954
3 763 1999 2338
3 1010 1170 1374
3 984 976 1720
3 1470 1743 1744
3 689 588 1150
3 1901 1949 2359
3 1640 632 1862
3 274 272 1787
3 563 564 1752
3 994 817 1505
3 737 1807 1931
3 1770 1147 1771
3 1233 1235 1733
3 2450 1418 2521
3 414 410 1821
3 908 1099 1850
3 1227 1228 1229
3 1692 1203 1693
3 1625 216 2194
3 512 528 603
3 1377 1357 1638
3 1465 1464 1470
3 1360 1359 2177
3 1686 2007 2095
3 1336 1028 1641
3 1857 751 1923
3 1758 572 1759
3 553 541 557
3 1171 1715 1811
3 956 1003 1073
3 1467 1465 1675
3 719 718 724
3 1509 1977 2096
3 1734 1625 1736
3 1503 1504 1868
3 592 597 1776
3 180 181 232
3 162 163 231
3 2308 1759 2370
3 1357 1114 1358
3 875 946 1010
3 509 631 1599
3 17 18 199
3 144 145 200
3 1099 906 1792
3 1469 1467 1494
3 605 589 1939
3 1208 1205 1211
3 354 344 2091
3 692 782 804
3 1010 946 1170
3 1463 1462 1464
3 716 715 718
3 714 713 715
3 271 273 656
3 139 1618 1694
3 549 277 686
3 673 672 766
3 1378 1377 1379
3 2007 868 2095
3 999 1028 1336
3 1208 1211 1447
3 601 545 627
3 1119 1643 1713
3 1332 1333 1387
3 910 912 956
3 520 521 2000
3 828 1789 1819
3 277 607 1520
3 1338 1339 2247
3 818 819 910
3 767 766 814
3 712 711 713
3 1494 1467 1675
3 639 594 640
3 2044 557 2256
3 235 20 1709
3 1620 236 2394
3 804 919 962
3 1862 702 2070
3 681 852 853
3 1559 1556 1561
3 1622 941 2471
3 2165 1440 2330
3 612 644 692
3 697 698 818
3 1903 1516 1994
3 371 379 1795
3 428 426 2138
3 1290 1294 2064
3 1384 1904 2432
3 566 689 1600
3 471 452 472
3 1092 1091 1093
3 1002 1131 1719
3 1090 1089 1091
3 875 841 946
3 1758 1760 1763
3 1562 1606 2085
3 1833 1830 2075
3 178 179 214
3 164 165 213
3 769 923 1815
3 692 644 782
3 804 782 919
3 182 183 256
3 160 161 257
3 1329 1331 1482
3 962 1663 1664
3 1177 1179 2042
3 403 405 1805
3 1461 1460 1462
3 140 208 1618
3 1859 232 1860
3 274 1787 2099
3 1381 2126 2186
3 1558 1560 1789
3 430 428 682
3 452 435 1683
3 1487 1156 1488
3 1470 1464 1743
3 597 1794 1893
3 1244 1253 1669
3 962 919 1663
3 258 8 1673
3 1087 1785 1786
3 970 1042 1726
3 199 1677 2149
3 1664 1663 1665
3 1229 1230 1231
3 991 827 1713
3 792 1603 1848
3 1822 1444 1823
3 665 666 697
3 19 20 235
3 142 143 236
3 728 1098 1833
3 532 530 1898
3 1015 1124 1372
3 1546 1547 1548
3 1851 1850 1853
3 1877 393 2240
3 923 1105 1815
3 1090 1091 1092
3 687 686 703
3 1683 435 1790
3 887 826 1961
3 684 663 1089
3 426 1934 2138
3 464 510 680
3 853 854 855
3 568 572 1758
3 1376 1357 1377
3 1205 1203 1692
3 1607 1789 1855
3 710 709 711
3 780 781 1775
3 1434 1103 1435
3 876 815 877
3 766 672 1656
3 1393 1590 2457
3 684 1089 1090
3 530 890 1898
3 926 1920 1943
3 696 414 1821
3 1563 1562 1777
3 1054 1046 1580
3 1398 1973 1974
3 137 216 1625
3 1210 1040 1430
3 1750 563 1751
3 2010 1665 2299
3 1510 1374 1511
3 1777 1562 2085
3 1707 252 1791
3 1932 1404 1933
3 459 438 1814
3 139 140 1618
3 1093 1156 1487
3 231 163 1658
3 699 722 723
3 1545 1095 2508
3 598 612 1794
3 579 554 1880
3 1941 1908 2401
3 1231 1232 1233
3 1831 1829 1841
3 1037 1383 1799
3 177 178 1506
3 636 600 637
3 1036 1539 2286
3 1356 1114 1357
3 1523 1516 2377
3 704 703 705
3 403 402 405
3 648 792 1848
3 723 756 808
3 1388 1389 2170
3 933 932 1770
3 223 1710 1711
3 1779 399 1783
3 1223 1222 1224
3 1028 1029 1313
3 257 161 1654
3 418 412 421
3 734 882 1807
3 693 657 1095
3 1368 1370 1436
3 136 137 1625
3 688 652 817
3 1075 1327 1328
3 540 479 1813
3 398 395 402
3 548 1629 1630
3 574 591 699
3 1469 1494 1495
3 1041 1598 2175
3 167 168 202
3 175 176 204
3 2045 2046 2201
3 186 187 1602
3 886 887 888
3 1253 1254 1259
3 8 9 1673
3 792 655 810
3 843 1145 1960
3 1180 1349 1745
3 1165 1345 1512
3 708 706 709
3 136 1625 1734
3 21 22 207
3 140 141 208
3 625 626 665
3 1093 1094 1156
3 1585 795 1834
3 1117 1713 1806
3 599 579 600
3 810 871 1826
3 1047 1046 1048
3 1292 1291 1293
3 161 162 1654
3 199 1676 1677
3 1260 1282 1804
3 1005 1142 1768
3 1233 1234 1235
3 792 810 922
3 1122 1719 1737
3 976 985 1720
3 1278 1279 2292
3 2390 1934 2531
3 1436 1437 2350
3 270 271 1647
3 1199 966 1846
3 1683 1342 2212
3 656 273 2124
3 699 591 722
3 1977 1139 2096
3 1738 1719 1881
3 1722 985 1874
3 1797 1448 1798
3 162 231 1654
3 632 604 1862
3 252 1602 1791
3 1051 1050 1052
3 1045 1023 1046
3 648 655 792
3 993 1100 1101
3 1321 1055 1322
3 806 709 1627
3 904 903 981
3 1220 1267 1268
3 648 605 655
3 1737 1719 1738
3 385 399 1779
3 506 499 1828
3 1132 266 1402
3 1170 1418 1419
3 1323 2302 2354
3 24 25 215
3 137 138 216
3 721 965 1919
3 1787 1414 2460
3 778 1117 1806
3 723 722 756
3 407 403 1805
3 564 574 1752
3 1049 1048 1050
3 842 841 875
3 1608 1546 1842
3 809 808 899
3 1517 1519 1520
3 1530 1532 1533
3 889 421 1772
3 913 1002 1122
3 1314 1316 1367
3 1017 877 1684
3 841 802 1778
3 1235 1236 1237
3 751 1857 1900
3 1114 924 1767
3 1344 1644 2360
3 1895 1394 2371
3 1518 1535 1861
3 1758 1759 1760
3 1122 1002 1719
3 546 563 1750
3 1056 1726 1727
3 663 660 1746
3 621 622 625
3 1720 985 1721
3 1857 1843 1900
3 808 756 913
3 1056 970 1726
3 27 28 230
3 134 135 229
3 908 906 1099
3 163 164 1658
3 1727 1726 1729
3 7 8 258
3 154 155 259
3 1101 1403 1404
3 808 913 1874
3 1260 1269 1282
3 1389 1387 2262
3 1297 1053 1822
3 1555 1553 1557
3 1463 1464 1465
3 230 28 1765
3 1237 1238 1239
3 554 553 1880
3 775 778 1806
3 985 899 1874
3 1270 1524 2199
3 489 1820 1936
3 692 1072 1794
3 1472 2142 2272
3 1845 496 1929
3 438 431 1814
3 613 615 1824
3 1241 1242 1245
3 1783 415 1915
3 1192 2081 2149
3 178 214 1506
3 1816 988 1817
3 1760 1759 1761
3 1103 1092 1623
3 1512 1345 1661
3 1876 921 2295
3 1165 984 1345
3 978 1074 1075
3 1239 1240 1241
3 542 541 553
3 813 988 1816
3 1148 984 1165
3 871 970 1056
3 472 452 1683
3 1207 1796 1870
3 1167 1166 1754
3 1296 1053 1297
3 966 964 1846
3 976 899 985
3 982 976 984
3 702 1815 2015
3 900 899 976
3 1143 995 1206
3 1576 1024 1827
3 1235 1248 1733
3 1558 1557 1560
3 943 995 1143
3 1920 1144 1943
3 1471 2115 2477
3 29 30 255
3 132 133 254
3 1630 1633 1634
3 1225 1224 1226
3 1925 1573 1926
3 1211 1205 1692
3 725 825 826
3 1113 924 1114
3 600 579 1988
3 717 1552 1567
3 1820 1657 1936
3 674 276 2099
3 395 393 1877
3 572 543 1897
3 1575 1308 2255
3 999 1000 1028
3 1118 1775 1876
3 1797 1798 2430
3 526 546 559
3 867 853 2186
3 1142 1771 1949
3 1068 1275 1442
3 679 385 1779
3 1607 1558 1789
3 580 568 1758
3 1244 1252 1253
3 1760 1761 1762
3 398 402 403
3 1476 1258 1478
3 418 421 889
3 1771 1147 1839
3 164 213 1658
3 1720 1721 2267
3 1668 1591 2512
3 1042 1128 1445
3 1098 1830 1833
3 1102 1092 1103
3 2249 884 2466
3 1104 1103 1434
3 410 416 1821
3 514 513 541
3 580 1758 1763
3 637 673 1741
3 1913 936 1914
3 1394 1395 2337
3 919 920 999
3 577 554 579
3 2111 1660 2263
3 231 1658 1659
3 612 613 644
3 568 543 572
3 770 775 1806
3 1445 1128 1446
3 1546 1548 1842
3 448 460 478
3 810 870 871
3 1789 1560 1819
3 1154 1082 1431
3 873 973 1802
3 379 385 679
3 837 850 921
3 1461 1462 1463
3 1346 1076 1420
3 1088 1344 1808
3 2125 1143 2353
3 931 977 978
3 882 772 1802
3 29 255 1765
3 849 1513 2180
3 1713 827 1806
3 1130 1396 1397
3 681 638 852
3 1417 1321 1873
3 1654 1402 2530
3 502 526 1740
3 1124 888 2177
3 1266 1460 1461
3 515 1175 1840
3 1253 1264 1669
3 479 466 1813
3 1727 1729 1757
3 379 380 385
3 1971 1480 2514
3 1637 1739 2459
3 1207 1205 1208
3 529 519 1899
3 1129 1845 1929
3 224 1661 2267
3 192 1856 2361
3 732 734 1807
3 1184 2163 2435
3 1119 1120 1353
3 415 414 431
3 719 724 725
3 559 546 1750
3 871 872 970
3 1038 917 1622
3 574 699 1752
3 166 167 1679
3 1117 1118 1119
3 1409 1196 2035
3 617 619 621
3 1172 1173 1439
3 1191 1005 1768
3 664 663 684
3 494 493 1841
3 890 529 1731
3 840 802 841
3 493 974 1841
3 385 386 399
3 679 1779 1780
3 371 376 379
3 416 433 1109
3 670 769 1815
3 902 866 903
3 1780 1779 1781
3 480 515 1840
3 970 971 1042
3 433 448 1714
3 28 29 1765
3 1005 949 1142
3 778 780 1117
3 959 1037 1799
3 1073 1003 1076
3 535 532 1898
3 1119 1118 1120
3 658 657 693
3 1378 1379 1380
3 1397 1396 1809
3 1610 1609 1612
3 1819 1560 2016
3 1837 952 1865
3 1719 1131 1881
3 1131 1399 1400
3 1352 1138 2058
3 399 406 409
3 548 1630 2041
3 1275 1338 2251
3 582 1816 1818
3 1835 1836 2144
3 993 1101 1980
3 1699 1698 1700
3 2407 364 2505
3 1189 1190 1788
3 1117 780 1118
3 1830 1829 1831
3 637 672 673
3 692 804 1072
3 1204 1203 1205
3 1374 1170 2139
3 612 692 1794
3 1642 1408 2286
3 723 808 809
3 450 459 1812
3 409 410 414
3 802 801 1778
3 1853 1854 2483
3 1042 1127 1128
3 1199 1846 2225
3 1147 990 1273
3 1383 1384 2432
3 432 431 438
3 1353 1120 1390
3 1093 1091 1094
3 2020 250 2254
3 148 149 1639
3 606 605 648
3 1970 2016 2422
3 2201 2046 2327
3 475 471 513
3 412 407 1951
3 1991 246 2139
3 727 695 728
3 1673 234 1788
3 1554 1556 1559
3 1089 663 1746
3 1846 964 2056
3 923 991 1088
3 409 406 410
3 729 728 730
3 1424 1427 1856
3 1473 1911 2407
3 1376 1377 1378
3 1010 1374 1510
3 853 852 854
3 366 369 1087
3 772 873 1802
3 1219 1218 1626
3 1766 229 2061
3 1088 991 1344
3 922 810 1826
3 518 506 695
3 405 402 2116
3 962 1664 2316
3 913 942 1002
3 932 990 1147
3 629 813 1816
3 876 877 992
3 399 386 406
3 932 845 990
3 1002 1123 1131
3 843 996 1145
3 781 837 1775
3 262 2304 2491
3 431 696 1814
3 1273 1695 1892
3 731 730 732
3 737 732 1807
3 439 438 450
3 1829 498 1841
3 800 685 801
3 767 814 815
3 1060 766 1656
3 673 766 767
3 1403 1605 1882
3 716 718 719
3 1338 1069 1339
3 847 752 1843
3 864 862 1116
3 2302 443 2519
3 923 827 991
3 526 559 1740
3 1911 1473 2358
3 1085 1310 1867
3 809 899 900
3 1227 1226 1228
3 729 730 731
3 1436 1370 1437
3 731 732 737
3 769 827 923
3 456 452 471
3 1433 1503 2471
3 1435 1103 1623
3 385 380 386
3 1141 1787 2460
3 1354 1088 1808
3 657 649 1848
3 415 431 432
3 484 892 1820
3 727 728 729
3 855 854 1450
3 1721 1722 1723
3 1643 1353 1644
3 1145 1916 1960
3 1421 1191 1422
3 466 1812 1813
3 943 944 995
3 1356 1357 1376
3 714 715 716
3 1156 1094 1157
3 598 611 612
3 631 1600 2298
3 590 589 605
3 965 969 1919
3 416 1109 1821
3 242 1697 2335
3 1548 1547 1549
3 550 573 584
3 584 604 632
3 409 414 415
3 712 713 714
3 642 670 702
3 818 698 819
3 1006 1005 1191
3 1624 1689 1691
3 169 170 237
3 173 174 238
3 956 912 1003
3 937 936 1913
3 1317 1025 1875
3 515 540 550
3 973 1799 1800
3 973 959 1799
3 518 695 727
3 910 819 912
3 584 573 604
3 1170 946 1418
3 173 238 1847
3 550 540 573
3 982 984 1148
3 900 976 982
3 441 435 452
3 448 478 1714
3 1849 1648 2173
3 1631 1628 1637
3 1830 1831 1832
3 1383 1216 1384
3 734 772 882
3 949 933 1770
3 1332 1330 1333
3 574 575 591
3 1105 1088 1354
3 702 670 1815
3 498 494 1841
3 827 770 1806
3 873 959 973
3 1390 1391 1415
3 450 438 459
3 950 949 1005
3 351 362 364
3 1313 1029 1314
3 432 438 439
3 837 838 850
3 1273 1274 1695
3 850 851 943
3 911 952 1837
3 1259 1260 1804
3 566 587 588
3 1037 1216 1383
3 1337 1265 1538
3 1087 369 1795
3 810 655 870
3 1559 1561 1566
3 1147 1273 1839
3 732 733 734
3 1662 867 2126
3 890 1731 2241
3 1854 1852 2397
3 515 479 540
3 451 450 466
3 697 666 698
3 1367 1316 1368
3 662 660 663
3 365 355 694
3 1358 1114 1767
3 379 376 380
3 1796 1448 1797
3 179 180 1859
3 790 668 849
3 569 568 580
3 690 860 931
3 466 450 1812
3 431 414 696
3 1973 1133 1974
3 651 649 657
3 467 466 479
3 1288 1289 1835
3 264 265 1986
3 1302 1303 1304
3 592 596 597
3 1873 1321 2037
3 544 543 568
3 275 277 549
3 209 1937 2389
3 539 565 566
3 1485 227 1486
3 2384 2190 2408
3 1781 1779 1783
3 480 479 515
3 689 1416 2413
3 1108 1161 1539
3 1867 1310 1895
3 1300 1301 1302
3 1695 1696 1697
3 633 632 668
3 1304 1451 1452
3 988 911 1837
3 168 169 1724
3 969 1012 1172
3 582 629 1816
3 1843 752 1900
3 629 812 813
3 710 711 712
3 1782 1780 1784
3 536 535 543
3 1089 1746 1969
3 1108 1107 1161
3 1514 1426 1856
3 486 484 1820
3 369 371 1795
3 1817 988 1924
3 493 609 974
3 1422 1191 2023
3 1426 1424 1856
3 842 875 924
3 922 1826 2259
3 989 1361 1886
3 928 1070 1288
3 669 668 790
3 1113 1114 1356
3 1027 847 1843
3 728 695 1098
3 734 735 772
3 975 1107 1108
3 955 859 1962
3 813 911 988
3 1208 1448 1796
3 1101 1405 1980
3 602 676 2045
3 586 581 589
3 546 547 563
3 493 491 609
3 628 1524 2390
3 348 344 354
3 1298 1299 1300
3 509 538 539
3 974 609 975
3 813 891 911
3 871 870 872
3 1355 1354 1423
3 489 486 1820
3 778 779 780
3 1025 1176 1875
3 772 773 873
3 803 1743 2347
3 167 202 1679
3 873 883 959
3 1483 1571 2375
3 427 1756 2221
3 540 1813 1954
3 1202 1200 1203
3 959 1035 1037
3 837 921 1775
3 1304 1305 1451
3 1799 1383 2195
3 604 642 1862
3 1470 1744 2474
3 1854 2397 2453
3 1282 1269 1386
3 1573 1572 2157
3 472 2222 2290
3 1307 1708 2341
3 769 770 827
3 1037 1215 1216
3 791 790 856
3 1053 1052 1822
3 1056 1727 1728
3 1341 1138 1352
3 1300 1299 1301
3 1814 696 1838
3 1198 1196 1409
3 492 491 493
3 439 450 451
3 1171 858 2132
3 1259 1254 1260
3 665 626 666
3 970 872 971
3 258 1602 2357
3 1296 1297 1472
3 490 489 491
3 516 437 2494
3 1298 1027 1299
3 846 845 932
3 501 508 509
3 460 461 502
3 448 449 460
3 482 480 1840
3 1229 1228 1230
3 604 641 642
3 1424 1423 1427
3 502 503 526
3 1028 1000 1029
3 935 933 949
3 1084 1085 1867
3 2028 1711 2353
3 1513 1426 1514
3 892 482 1840
3 852 638 1988
3 402 395 1877
3 738 737 845
3 413 412 418
3 1119 1353 1643
3 526 527 546
3 280 279 281
3 1731 1155 2123
3 1042 971 1127
3 1208 1447 1448
3 433 434 448
3 262 159 2304
3 184 1454 2303
3 1051 1052 1053
3 1816 1817 1818
3 1081 1417 1444
3 781 836 837
3 911 951 952
3 1090 1092 1102
3 202 168 1724
3 1085 1309 1310
3 408 407 412
3 1337 1538 1864
3 1515 1514 1516
3 530 529 890
3 1517 1518 1519
3 549 686 687
3 923 1088 1105
3 404 403 407
3 1835 1289 1836
3 1314 1367 2121
3 1380 1379 2416
3 670 671 769
3 899 808 1874
3 1040 903 1703
3 1596 1595 2154
3 1496 1495 1497
3 636 637 1741
3 1377 1638 2288
3 1288 1070 1289
3 1072 804 1981
3 1129 1334 1845
3 1865 1084 1866
3 792 922 1603
3 1253 1252 1254
3 981 1167 1792
3 1302 1301 1303
3 1641 1651 2019
3 952 953 1084
3 1813 1812 1869
3 732 730 733
3 975 1106 1107
3 1142 949 1770
3 981 1166 1167
3 840 841 842
3 451 466 467
3 1273 990 1274
3 1049 1050 1051
3 1473 2407 2505
3 968 966 1199
3 642 643 670
3 1310 1309 1311
3 422 419 435
3 1063 833 1082
3 919 782 920
3 911 891 951
3 1084 953 1085
3 1763 1764 2164
3 1498 1497 1682
3 515 550 1175
3 1079 937 1913
3 642 702 1862
3 845 737 1931
3 1394 1311 1395
3 1395 1521 1522
3 467 479 480
3 1755 1754 1793
3 1231 1230 1232
3 1557 1553 2030
3 1624 1691 2262
3 584 632 633
3 1094 1091 1969
3 708 709 710
3 1948 1627 2488
3 952 951 953
3 1102 1103 1104
3 1047 1048 1049
3 1310 1311 1394
3 1852 1099 1985
3 143 144 1717
3 813 812 891
3 1944 1044 1945
3 1105 1354 1355
3 1300 1302 1455
3 1914 936 1940
3 1415 1391 1710
3 1299 1027 1843
3 952 1084 1865
3 1695 1274 1696
3 776 774 1928
3 282 281 283
3 2003 1347 2279
3 1206 995 1499
3 1164 1685 1686
3 1551 1565 2030
3 969 1172 1919
3 633 668 669
3 734 733 735
3 1373 1372 1438
3 599 600 636
3 1431 1860 2487
3 1579 1577 1999
3 484 482 892
3 917 940 941
3 2144 1836 2169
3 1866 1084 1867
3 1110 1747 1748
3 998 1171 1811
3 1390 1120 1391
3 644 1824 2057
3 1362 1961 2048
3 944 1283 1825
3 1086 1027 1298
3 679 1780 1782
3 974 975 1879
3 507 506 518
3 1121 1079 1401
3 775 777 778
3 1965 762 2349
3 1045 1046 1047
3 1772 421 2106
3 16 17 2081
3 416 417 433
3 921 850 2125
3 1607 1855 1958
3 649 648 1848
3 1241 1240 1242
3 2012 1443 2251
3 926 928 1920
3 1487 1488 2025
3 1006 1191 1421
3 1355 1423 1424
3 1133 852 1988
3 591 592 1776
3 1299 1843 1857
3 1085 1308 1309
3 490 491 492
3 958 694 1575
3 1384 1216 1385
3 741 915 1878
3 1233 1232 1234
3 669 790 791
3 481 480 482
3 687 703 704
3 492 493 494
3 1634 1633 1922
3 1697 1696 1698
3 1721 985 1722
3 1839 1273 1892
3 772 735 773
3 488 486 489
3 950 1005 1006
3 1513 1514 1515
3 454 500 501
3 873 773 883
3 284 283 285
3 2185 1505 2442
3 959 883 1035
3 543 535 1897
3 1904 1384 2093
3 800 801 802
3 1037 1035 1215
3 1293 1964 1965
3 1239 1238 1240
3 943 1143 2125
3 1782 1784 1785
3 913 756 942
3 488 490 1884
3 1590 1749 2501
3 1235 1234 1236
3 791 856 1408
3 702 2015 2070
3 1108 1539 1540
3 1021 1023 1045
3 695 506 1828
3 1530 1528 1532
3 488 489 490
3 1621 1619 2161
3 704 705 706
3 1304 1303 1305
3 558 1704 2167
3 625 622 626
3 542 553 554
3 604 573 641
3 664 684 685
3 564 571 574
3 1108 1540 1879
3 1856 1427 2361
3 880 1025 1129
3 1395 1311 1521
3 1466 1465 1467
3 915 495 1884
3 1515 1516 1523
3 1237 1236 1238
3 606 648 649
3 999 920 1000
3 676 829 1043
3 2100 794 2142
3 227 151 1500
3 577 579 599
3 153 154 1671
3 1175 550 1927
3 1014 888 1015
3 286 285 287
3 1649 1280 2427
3 1725 204 2137
3 975 609 1106
3 1129 1317 1334
3 1109 1730 2426
3 1468 1467 1469
3 1131 1123 1399
3 1215 2235 2378
3 1976 1149 1989
3 397 395 398
3 746 743 1878
3 1041 1343 1598
3 975 1108 1879
3 741 495 915
3 1167 1754 1755
3 288 287 289
3 743 741 1878
3 1274 990 1931
3 1506 214 1507
3 857 1584 2277
3 2341 1522 2387
3 846 932 933
3 1107 1106 1110
3 584 633 1927
3 290 289 291
3 722 591 1776
3 1544 1094 1969
3 1135 270 1647
3 935 949 950
3 1920 1288 2080
3 754 1896 2108
3 1693 1199 2225
3 292 291 293
3 394 393 395
3 745 743 746
3 1002 942 1123
3 731 737 738
3 294 293 295
3 1018 1573 1925
3 296 295 297
3 298 297 299
3 321 322 325
3 317 320 321
3 314 315 317
3 312 313 314
3 310 311 312
3 308 309 310
3 1898 890 2275
3 306 307 308
3 304 305 306
3 1401 1079 1913
3 300 299 301
3 302 303 304
3 300 301 302
3 302 301 303
3 491 489 1936
3 298 299 300
3 304 303 305
3 306 305 307
3 308 307 309
3 310 309 311
3 312 311 313
3 314 313 315
3 317 315 320
3 321 320 322
3 1301 1299 1857
3 514 541 542
3 296 297 298
3 850 838 851
3 1310 1394 1895
3 294 295 296
3 590 605 606
3 292 293 294
3 651 657 658
3 290 291 292
3 1207 1208 1796
3 835 1976 1989
3 621 619 622
3 746 1878 1896
3 481 482 483
3 1026 847 1027
3 1335 1207 1870
3 1661 59 2266
3 727 729 1155
3 288 289 290
3 1058 776 1928
3 662 663 664
3 495 488 1884
3 1959 319 2522
3 943 851 944
3 1293 1291 1964
3 534 532 535
3 640 645 646
3 2280 1014 2385
3 286 287 288
3 591 575 592
3 521 519 529
3 13 14 2114
3 780 779 781
3 918 908 1850
3 837 836 838
3 209 148 1639
3 754 748 1896
3 745 746 747
3 769 671 770
3 929 1065 2197
3 1278 1058 1279
3 483 482 484
3 1564 1557 2030
3 633 807 1927
3 392 391 393
3 1057 1621 2161
3 569 580 581
3 284 285 286
3 876 992 1894
3 497 494 498
3 1630 1635 2041
3 982 1148 1918
3 612 611 613
3 700 634 1044
3 822 674 2099
3 880 1129 1929
3 432 439 654
3 1039 1291 1292
3 1164 1686 1989
3 1129 1025 1317
3 738 845 846
3 582 583 629
3 278 6 279
3 544 568 569
3 1701 1274 1931
3 747 749 751
3 1085 953 1308
3 928 930 1070
3 747 748 749
3 1421 1422 2415
3 902 903 904
3 1309 1308 1543
3 642 641 643
3 904 981 1792
3 646 784 785
3 536 543 544
3 1204 1205 1207
3 365 694 958
3 71 72 217
3 88 89 1901
3 87 88 193
3 101 102 189
3 85 86 242
3 99 100 241
3 74 75 192
3 91 92 219
3 94 95 191
3 83 84 220
3 97 98 221
3 77 78 218
3 80 81 194
3 89 90 245
3 62 63 244
3 60 61 188
3 64 65 223
3 67 68 190
3 90 91 1909
3 98 99 1905
3 61 62 1908
3 69 70 243
3 68 69 1907
3 70 71 1910
3 410 411 416
3 586 589 590
3 685 684 2029
3 390 389 391
3 1715 1150 1811
3 1924 1837 2215
3 282 283 284
3 496 497 1929
3 233 1671 1769
3 627 2185 2442
3 1567 1552 2062
3 629 630 812
3 424 453 454
3 583 562 1942
3 749 750 805
3 744 743 745
3 1897 535 1898
3 467 480 481
3 504 759 880
3 670 643 671
3 89 245 1901
3 193 88 1901
3 221 98 1905
3 245 90 1909
3 91 219 1909
3 62 244 1908
3 188 61 1908
3 99 241 1905
3 190 68 1907
3 71 217 1910
3 69 243 1907
3 243 70 1910
3 505 499 506
3 475 513 514
3 1945 1044 2071
3 1712 2125 2353
3 339 343 440
3 989 1360 1361
3 764 869 1152
3 778 777 779
3 1686 1685 1687
3 742 741 743
3 979 989 1886
3 729 731 1887
3 926 927 928
3 1305 1306 1307
3 1838 1278 2292
3 747 746 748
3 181 182 1652
3 1886 1361 2305
3 1595 1594 2486
3 597 596 598
3 928 1288 1920
3 1970 824 2156
3 1425 1424 1426
3 497 504 1929
3 748 746 1896
3 745 747 1900
3 998 858 1171
3 563 547 564
3 1155 729 1887
3 634 583 1942
3 1439 1173 1440
3 1026 1027 1086
3 79 80 1904
3 1533 1532 1536
3 1449 1426 1513
3 1106 609 1936
3 1318 1013 1319
3 1098 695 1828
3 492 494 496
3 750 748 754
3 731 738 1887
3 2415 1422 2516
3 533 562 582
3 988 1837 1924
3 1216 1215 1863
3 534 535 536
3 747 751 1900
3 1753 809 2119
3 1183 824 1970
3 740 495 741
3 80 194 1904
3 893 383 2087
3 655 605 1939
3 1884 2034 2082
3 1301 1857 1923
3 1307 1306 1708
3 752 745 1900
3 750 754 755
3 76 77 1903
3 2090 2347 2365
3 255 30 2159
3 132 254 2160
3 448 434 449
3 753 848 926
3 1075 1074 1327
3 487 488 495
3 377 381 647
3 483 484 485
3 755 754 2148
3 1584 1925 2277
3 1186 1183 1970
3 951 891 1281
3 485 484 486
3 546 527 547
3 133 134 1766
3 1786 1785 2409
3 280 281 282
3 460 449 461
3 744 745 752
3 77 218 1903
3 983 1918 2342
3 1708 1306 1810
3 1389 2069 2170
3 487 486 488
3 641 573 1954
3 507 518 519
3 502 461 503
3 519 518 1899
3 1202 1203 1204
3 821 897 1972
3 92 93 1902
3 521 529 530
3 749 748 750
3 2176 1380 2416
3 885 826 886
3 485 486 487
3 371 372 376
3 1289 1070 1871
3 1110 1657 1747
3 753 926 1943
3 700 1044 1944
3 880 881 1025
3 496 1845 2034
3 1072 1981 2393
3 462 464 2134
3 1949 1771 2359
3 1044 634 1942
3 550 584 1927
3 1390 1415 2118
3 526 503 527
3 990 845 1931
3 1009 1213 1214
3 740 742 1144
3 219 92 1902
3 727 1155 1899
3 369 370 371
3 623 690 2150
3 1279 1058 1928
3 1408 2235 2286
3 487 495 740
3 979 1886 2086
3 1305 1303 1306
3 421 412 1951
3 843 844 996
3 633 669 807
3 518 727 1899
3 826 825 1961
3 1657 1106 1936
3 1172 1012 1173
3 740 741 742
3 433 417 434
3 505 506 507
3 1333 1674 2437
3 742 743 744
3 469 458 470
3 1381 1380 1382
3 1293 1965 2515
3 1554 1559 2062
3 553 557 2499
3 1774 389 2339
3 497 498 499
3 483 485 576
3 740 1144 1935
3 773 735 834
3 366 367 369
3 1120 1118 1876
3 1515 1523 1574
3 1319 1013 2039
3 1303 1301 1923
3 457 447 458
3 561 593 594
3 1355 1424 1425
3 609 491 1936
3 204 1732 2137
3 791 1408 1642
3 995 944 1825
3 456 471 475
3 1692 1693 2239
3 580 1763 2164
3 1292 1293 2117
3 441 452 456
3 388 384 389
3 823 821 1972
3 504 880 1929
3 176 177 1680
3 1070 1071 1871
3 15 2260 2477
3 362 363 366
3 2178 2300 2449
3 1035 883 1036
3 2285 1563 2307
3 978 977 1074
3 1090 1102 2029
3 1810 1306 1923
3 496 494 497
3 1306 1303 1923
3 432 654 1915
3 934 933 935
3 356 355 365
3 398 403 404
3 635 701 843
3 1110 1106 1657
3 574 571 575
3 1025 881 1176
3 386 380 786
3 415 432 1915
3 343 347 1911
3 1070 930 1071
3 1688 1740 2231
3 1385 1216 1863
3 1696 1274 1701
3 1645 305 2317
3 880 759 881
3 926 848 927
3 1427 1423 2217
3 1339 1662 2388
3 770 774 775
3 1263 1257 1428
3 1337 1864 2412
3 349 348 355
3 2267 1721 2498
3 753 752 847
3 1375 1086 1473
3 900 982 983
3 332 335 739
3 429 428 430
3 744 752 753
3 1171 2132 2165
3 1425 1426 1449
3 987 641 1954
3 1883 1786 2409
3 427 426 428
3 928 927 930
3 1815 1105 2015
3 1206 1499 1941
3 410 406 411
3 573 540 1954
3 497 499 504
3 528 560 561
3 1933 1404 2399
3 1091 1089 1969
3 1804 1282 2073
3 504 505 759
3 963 924 1113
3 1711 1710 1712
3 881 759 1146
3 968 1199 1200
3 351 352 362
3 848 847 1026
3 521 530 531
3 1884 490 2034
3 1277 957 1966
3 1349 1350 2329
3 676 1043 2045
3 997 1159 1286
3 517 1889 1890
3 781 835 836
3 944 948 1283
3 722 1776 2026
3 507 519 520
3 2040 1352 2058
3 1276 957 1277
3 446 437 447
3 931 860 977
3 361 359 765
3 1248 1536 2534
3 512 523 528
3 408 412 413
3 1368 1369 1370
3 451 2169 2223
3 192 75 1994
3 942 756 2026
3 345 344 348
3 764 1152 1963
3 413 418 419
3 1286 1773 1774
3 770 671 774
3 275 549 2124
3 1497 1645 2461
3 1982 1472 2272
3 422 435 441
3 281 279 736
3 1134 270 1135
3 582 562 583
3 1421 2415 2454
3 485 487 1935
3 2300 1067 2480
3 1578 1576 1827
3 930 927 1061
3 1026 1086 1375
3 922 2259 2379
3 1391 1120 1876
3 1495 1494 2493
3 404 407 408
3 879 2178 2449
3 1700 1698 2036
3 607 1517 1520
3 753 847 848
3 416 411 417
3 1144 742 1943
3 775 776 777
3 754 2108 2148
3 1006 1421 1953
3 585 581 586
3 531 530 532
3 235 1709 1888
3 520 519 521
3 1180 1181 1349
3 1146 759 1967
3 708 710 1921
3 1350 2253 2329
3 436 430 437
3 504 499 505
3 643 641 987
3 336 330 517
3 811 1059 1149
3 1164 1411 1685
3 846 933 934
3 635 843 1960
3 983 982 1918
3 971 872 1096
3 1149 1163 1164
3 169 237 1724
3 1314 1315 1316
3 629 583 630
3 891 812 1916
3 462 463 464
3 487 740 1935
3 798 2084 2189
3 1814 1838 2292
3 1284 1489 1491
3 340 336 2014
3 1670 1461 2200
3 920 782 2057
3 890 2241 2275
3 510 511 512
3 278 279 280
3 839 802 840
3 1858 235 1888
3 1698 1696 2036
3 104 105 222
3 57 58 224
3 1185 1183 1186
3 588 587 623
3 638 600 1988
3 1282 1386 2245
3 811 776 1058
3 816 815 876
3 2034 1845 2082
3 761 636 1741
3 566 565 587
3 174 175 1725
3 347 350 351
3 1469 1495 1496
3 1059 1058 1278
3 811 1149 1976
3 576 485 1935
3 659 658 660
3 859 1153 1962
3 76 1903 1994
3 1821 1109 2426
3 1294 1038 1622
3 733 1833 2075
3 992 993 1980
3 1566 1561 2285
3 525 474 2041
3 464 465 510
3 343 346 347
3 360 893 1982
3 650 649 651
3 896 608 936
3 950 1006 1007
3 1508 1859 1860
3 539 538 565
3 440 343 1911
3 341 340 344
3 221 1905 1906
3 1297 1823 2142
3 759 505 1967
3 1295 1053 1296
3 473 470 474
3 1463 1465 1466
3 1143 1206 2028
3 799 685 800
3 1210 2077 2203
3 509 508 538
3 492 496 2034
3 1553 1551 2030
3 1260 1261 1269
3 1430 1040 1703
3 586 590 1940
3 838 836 868
3 1705 624 2276
3 1749 972 2501
3 742 744 1943
3 804 962 1981
3 1367 1368 2254
3 531 532 533
3 337 336 340
3 1157 1094 1544
3 536 544 1158
3 812 630 1960
3 781 779 835
3 56 57 1947
3 630 583 634
3 1405 1404 1932
3 1281 891 1916
3 339 342 343
3 1411 1163 1730
3 322 323 324
3 344 340 2091
3 1735 1734 1736
3 75 76 1994
3 430 682 2494
3 1907 243 2360
3 589 581 2164
3 694 355 2196
3 744 753 1943
3 775 774 776
3 1210 1430 2077
3 335 338 339
3 1102 1803 2029
3 1078 937 1079
3 870 655 1939
3 505 507 1967
3 357 360 1982
3 1896 1878 2101
3 326 325 328
3 934 935 957
3 585 608 895
3 333 330 336
3 1270 1272 1524
3 688 817 878
3 507 520 1967
3 1428 1257 2074
3 1818 1817 2000
3 896 937 1077
3 934 957 1111
3 329 328 330
3 1499 995 1825
3 944 851 948
3 387 445 462
3 1678 1161 2228
3 777 776 811
3 313 311 757
3 324 331 332
3 848 1026 1955
3 1312 998 1811
3 1321 1322 2037
3 1080 1079 1121
3 1105 1355 2015
3 1645 2317 2461
3 1559 1568 2062
3 332 334 335
3 501 500 508
3 321 325 326
3 394 395 397
3 322 320 323
3 1529 1530 2171
3 1137 797 1138
3 811 1058 1059
3 661 660 662
3 569 581 585
3 183 4 2303
3 5 160 2304
3 1340 1138 1341
3 1660 1626 2185
3 1743 1464 2347
3 1026 1375 1955
3 1149 1059 1163
3 1736 1625 2194
3 1322 1667 2434
3 311 309 1959
3 309 307 319
3 894 700 1944
3 533 534 562
3 1276 1277 1366
3 2190 1706 2408
3 533 532 534
3 1214 1213 1410
3 1164 1163 1411
3 843 701 844
3 1009 1214 2055
3 234 1589 1788
3 2000 1817 2174
3 317 321 2050
3 328 325 945
3 392 393 394
3 588 623 2089
3 1162 958 1681
3 1078 1080 1136
3 927 848 1955
3 1496 1497 1498
3 390 391 392
3 1061 927 1955
3 1283 948 1284
3 635 634 700
3 1244 1251 1252
3 218 78 2093
3 756 722 2026
3 1071 1784 2419
3 1218 1505 2185
3 1284 948 1285
3 1489 1285 1490
3 918 1850 1851
3 684 1090 2029
3 1759 572 2537
3 1691 1690 2446
3 1979 1158 2071
3 606 649 650
3 2045 1043 2046
3 103 104 2025
3 630 634 635
3 360 383 893
3 406 386 2043
3 1909 219 2023
3 1111 957 1276
3 1925 1437 2277
3 1536 2268 2340
3 854 852 1133
3 233 153 1671
3 651 658 659
3 2099 1787 2368
3 1033 1032 1130
3 1015 1372 1373
3 1412 942 2026
3 253 264 1441
3 1531 1534 2332
3 701 700 894
3 106 107 1990
3 2048 1961 2455
3 276 274 2099
3 738 846 1968
3 1325 925 1326
3 896 936 937
3 585 586 608
3 1450 854 1973
3 1361 1360 1362
3 1045 1668 2512
3 303 301 444
3 996 844 997
3 79 1904 2093
3 1989 1686 2095
3 1928 774 2033
3 1942 562 1979
3 287 285 316
3 935 950 1966
3 1466 1467 1468
3 1242 1243 1244
3 1887 738 1968
3 2115 210 2477
3 878 929 1083
3 1326 1736 2194
3 886 888 1014
3 895 608 896
3 289 287 1978
3 821 822 897
3 936 608 1940
3 613 614 615
3 51 52 1996
3 417 411 1160
3 1149 1164 1989
3 386 786 2043
3 285 283 1971
3 1309 1543 2147
3 375 373 2053
3 371 370 372
3 779 777 1976
3 1286 1159 1773
3 2177 887 2376
3 1560 1557 1564
3 1403 1882 2399
3 1727 1757 2246
3 279 6 2049
3 1619 1438 2438
3 291 289 758
3 1781 1915 2294
3 425 401 426
3 349 355 356
3 66 67 2118
3 474 548 2041
3 1686 1687 2007
3 1262 1456 1457
3 1123 942 1412
3 1916 812 1960
3 1355 1425 2015
3 735 733 2075
3 1861 879 2449
3 1284 1285 1489
3 490 492 2034
3 366 363 367
3 980 578 2051
3 906 904 1792
3 534 536 1979
3 842 924 963
3 2051 578 2083
3 1077 937 1078
3 1102 1104 1803
3 894 1944 1946
3 398 404 2060
3 1007 1006 1953
3 369 367 370
3 348 354 2196
3 1078 1079 1080
3 1378 1380 1381
3 1568 1365 2439
3 608 586 1940
3 598 610 611
3 760 636 761
3 869 1137 1351
3 671 643 2033
3 1661 1345 2267
3 938 914 1057
3 783 761 914
3 576 1835 2144
3 388 389 390
3 297 295 318
3 454 453 500
3 1906 1728 2246
3 1439 1440 2468
3 1159 1013 1318
3 764 797 869
3 236 143 1717
3 782 644 2057
3 592 595 596
3 1542 2332 2443
3 1521 1311 2147
3 345 348 349
3 1304 1452 2205
3 1644 1907 2360
3 2146 1125 2149
3 997 844 1013
3 628 375 2053
3 299 297 1984
3 957 935 1966
3 664 685 799
3 301 299 1975
3 362 352 363
3 777 811 1976
3 1942 1979 2071
3 1001 920 2057
3 312 314 768
3 1552 1554 2062
3 615 616 617
3 357 1982 2076
3 800 802 839
3 774 671 2033
3 1749 1169 2105
3 365 958 1162
3 617 618 619
3 283 281 1938
3 1351 1772 2414
3 1525 1765 2489
3 846 934 1968
3 635 700 701
3 555 554 577
3 536 1158 1979
3 1101 1404 1405
3 630 635 1960
3 1811 1150 2089
3 2113 1666 2249
3 172 173 1847
3 107 108 195
3 54 55 196
3 1191 1768 2023
3 1455 1302 2205
3 115 116 2017
3 1387 1333 2437
3 659 661 764
3 1080 1121 1188
3 50 51 2011
3 411 406 2043
3 295 293 1983
3 643 987 2033
3 707 706 708
3 129 130 261
3 32 33 260
3 2159 260 2265
3 449 434 567
3 1314 1029 1315
3 917 796 940
3 378 375 628
3 108 109 1991
3 2370 1759 2537
3 341 344 345
3 997 1013 1159
3 544 569 1993
3 950 1007 1966
3 477 474 525
3 351 350 352
3 1696 1701 2036
3 334 331 803
3 1137 1138 1340
3 562 534 1979
3 109 110 246
3 52 53 247
3 1368 1316 1369
3 659 660 661
3 33 34 2002
3 123 124 2005
3 835 779 1976
3 851 838 1992
3 1530 1533 2172
3 1668 1045 2348
3 1162 1681 1706
3 342 338 468
3 298 300 358
3 765 359 2065
3 725 826 885
3 35 36 2003
3 46 47 2019
3 38 39 2006
3 336 517 2014
3 934 1111 1968
3 116 117 2018
3 650 651 1963
3 223 1711 2162
3 640 594 645
3 1333 1330 2192
3 104 222 2025
3 1603 922 2379
3 963 1113 1115
3 2084 1193 2189
3 564 570 571
3 36 37 2004
3 57 224 1947
3 1542 1601 2269
3 122 123 2012
3 1000 920 1001
3 127 128 240
3 34 35 239
3 383 387 2087
3 1161 1107 2228
3 1781 2294 2419
3 1201 1200 1202
3 124 125 225
3 37 38 226
3 1340 1341 1342
3 869 797 1137
3 839 840 1008
3 1158 544 1993
3 1326 925 1894
3 352 350 353
3 326 329 954
3 1864 2344 2412
3 836 835 2095
3 1051 1053 1295
3 1031 720 1032
3 503 461 787
3 1407 1112 2044
3 661 662 2058
3 838 868 1992
3 112 113 197
3 49 50 198
3 1359 980 1413
3 121 122 211
3 40 41 212
3 48 49 2010
3 113 114 2009
3 1741 673 2131
3 41 42 2020
3 120 121 2013
3 1409 2035 2097
3 1511 1374 2506
3 114 115 248
3 47 48 249
3 42 43 250
3 119 120 251
3 171 6 201
3 6 172 203
3 585 895 1993
3 43 44 2024
3 118 119 2021
3 905 904 906
3 764 661 797
3 337 340 341
3 1413 980 2051
3 117 118 205
3 44 45 206
3 347 346 350
3 1420 1076 1525
3 324 323 331
3 434 417 2031
3 965 967 969
3 716 719 788
3 1260 1254 1261
3 2053 373 2103
3 2069 2068 2170
3 326 328 329
3 1706 996 2408
3 273 275 2124
3 969 1011 1012
3 590 606 2001
3 1718 1611 2280
3 1914 1940 2001
3 915 1884 2082
3 329 330 333
3 620 859 955
3 2168 1409 2305
3 296 298 1997
3 915 2082 2101
3 339 338 342
3 1218 994 1505
3 333 336 337
3 266 263 1742
3 1873 768 2127
3 244 63 2162
3 64 223 2162
3 343 342 346
3 914 761 2258
3 310 312 1987
3 799 800 2055
3 302 304 763
3 1559 1566 1568
3 1598 1343 2114
3 592 575 595
3 341 345 794
3 189 1842 2220
3 767 815 816
3 1003 912 1004
3 839 1008 1009
3 1263 1428 1429
3 564 547 570
3 1845 1334 2082
3 332 331 334
3 901 866 902
3 651 659 1963
3 1009 1112 1213
3 335 334 338
3 569 585 1993
3 1665 1336 2299
3 1945 2071 2153
3 863 862 864
3 907 906 908
3 1849 1486 1930
3 1935 1144 2080
3 967 966 968
3 809 900 2119
3 865 864 866
3 835 1989 2095
3 190 1907 2417
3 333 337 522
3 1110 1748 2228
3 1193 1194 1195
3 94 191 2166
3 473 1854 2453
3 1769 1134 2369
3 948 851 1992
3 237 170 2216
3 420 419 422
3 1448 1447 2364
3 483 576 2144
3 721 1919 2032
3 885 886 1891
3 613 611 614
3 886 1014 1891
3 1160 411 2043
3 1918 1283 2342
3 1651 206 2485
3 1242 1240 1243
3 598 596 610
3 1295 1296 1459
3 1185 1186 1948
3 1425 1449 2070
3 294 296 762
3 1285 948 1992
3 925 876 1894
3 712 714 789
3 603 1668 2398
3 1940 590 2001
3 721 570 964
3 834 735 2075
3 1144 1920 2080
3 2263 1635 2511
3 1204 1207 1335
3 2235 1408 2378
3 965 964 966
3 1990 1435 2218
3 397 398 2060
3 1138 797 2058
3 1787 1141 2368
3 2068 820 2170
3 360 359 361
3 387 462 2087
3 1524 1272 1934
3 819 698 820
3 1197 1196 1198
3 1662 2126 2388
3 78 79 2093
3 1150 588 2089
3 1269 1261 1270
3 1878 915 2101
3 451 467 2169
3 2262 1387 2437
3 1009 1008 1112
3 757 311 1959
3 897 898 1139
3 1854 473 2483
3 2015 1425 2070
3 2082 1334 2101
3 963 1115 1174
3 1047 1049 1287
3 1194 423 1196
3 321 326 2050
3 417 1160 2031
3 854 1133 1973
3 1201 1212 1348
3 705 1586 2163
3 309 319 1959
3 1353 1390 2417
3 427 428 429
3 357 356 359
3 606 650 2001
3 549 1280 2124
3 1213 1112 1407
3 256 2303 2535
3 356 365 2065
3 662 664 2040
3 701 894 2039
3 1325 1371 2451
3 666 626 667
3 1902 93 2166
3 1236 1234 1246
3 800 839 2055
3 1869 1812 2252
3 1197 1364 1365
3 576 1935 2080
3 404 408 798
3 1678 807 2529
3 1560 1564 2016
3 1319 2039 2122
3 425 426 427
3 349 356 357
3 308 310 327
3 1716 622 2484
3 1801 82 2289
3 1768 1949 2420
3 2006 1926 2507
3 351 364 2407
3 420 423 1193
3 659 764 1963
3 292 294 2038
3 840 842 2027
3 736 279 2049
3 372 373 374
3 461 449 2052
3 2189 1195 2285
3 1174 1115 1398
3 367 363 961
3 909 908 918
3 1738 247 2402
3 1007 1761 2308
3 288 290 2135
3 422 441 2035
3 623 624 690
3 537 525 545
3 1953 1421 2454
3 1887 1968 2123
3 861 691 862
3 654 439 2223
3 1136 1080 2054
3 1312 1811 2089
3 575 571 2032
3 383 361 384
3 968 1200 1201
3 797 661 2058
3 1423 1354 2381
3 1180 1178 1181
3 1513 1515 2180
3 72 73 2217
3 462 445 463
3 12 13 2136
3 457 458 469
3 542 554 555
3 599 636 760
3 254 133 1766
3 1130 1397 1937
3 404 798 2060
3 1044 1942 2071
3 690 691 860
3 357 359 360
3 1008 2027 2152
3 1232 1230 1255
3 372 370 373
3 850 943 2125
3 1457 1456 1492
3 1952 324 2282
3 155 2 2356
3 0 7 2357
3 2017 1379 2288
3 918 1851 2008
3 195 1991 2517
3 2090 803 2347
3 1244 1243 1251
3 290 292 368
3 1432 1082 2214
3 1008 840 2027
3 1743 803 2296
3 1013 844 2039
3 365 1162 2065
3 1594 1315 2184
3 387 384 388
3 1508 1860 2311
3 547 527 2056
3 2005 225 2322
3 314 317 2127
3 1853 556 2327
3 201 6 278
3 1907 1644 2417
3 1896 2101 2108
3 646 645 784
3 538 508 558
3 374 375 377
3 1630 1634 1635
3 1579 1999 2352
3 1647 1648 1849
3 1313 1314 2121
3 1179 1433 2042
3 844 701 2039
3 1252 1251 2098
3 816 876 925
3 1922 1228 2281
3 392 394 396
3 1915 654 2294
3 1652 1653 2487
3 429 430 436
3 456 475 476
3 1605 1392 2510
3 126 1882 2284
3 1784 1780 2419
3 500 453 960
3 377 378 381
3 2178 1587 2300
3 1222 1219 1626
3 413 419 420
3 381 382 400
3 2169 1836 2223
3 1906 1905 2129
3 616 614 793
3 1170 1419 2139
3 101 189 2220
3 241 100 2220
3 1968 1111 2123
3 567 434 2031
3 615 614 616
3 1032 720 1921
3 682 428 2138
3 469 470 473
3 339 440 2261
3 1501 238 2226
3 1154 1431 1653
3 446 447 457
3 1251 1243 1257
3 2229 315 2495
3 1201 1202 1212
3 785 784 879
3 464 463 465
3 66 2118 2395
3 324 332 2282
3 286 288 771
3 17 199 2081
3 571 570 721
3 611 610 2092
3 617 616 618
3 1542 1531 2332
3 400 401 424
3 1325 1326 1371
3 1140 1406 1702
3 1323 443 2302
3 1926 1573 2507
3 436 437 446
3 1262 1457 2098
3 67 190 2118
3 1518 1861 2449
3 989 1359 1360
3 1063 1082 1154
3 1757 96 2526
3 969 967 1011
3 868 836 2095
3 1215 1035 2235
3 96 1757 2309
3 261 2160 2380
3 1381 1382 2126
3 1468 1469 2182
3 1334 1317 2108
3 861 863 1064
3 1270 1261 1271
3 360 361 383
3 287 316 1978
3 1856 192 2367
3 1905 241 2129
3 1615 1809 2425
3 528 523 560
3 979 980 989
3 662 2040 2058
3 721 964 965
3 170 171 2216
3 664 799 2040
3 512 511 523
3 1201 1348 2107
3 620 618 858
3 758 289 1978
3 859 858 998
3 424 425 453
3 1616 1615 2193
3 444 301 1975
3 561 560 593
3 965 966 967
3 1798 376 2430
3 340 2014 2091
3 510 465 511
3 107 195 1990
3 1080 1188 2054
3 1153 998 1312
3 1226 1224 1249
3 1012 1011 1363
3 902 904 905
3 842 963 2027
3 268 270 1134
3 865 901 1125
3 2077 558 2102
3 282 284 442
3 1977 1679 2253
3 1496 1498 2047
3 284 286 2063
3 281 736 1938
3 2132 793 2165
3 1674 215 2437
3 2078 1855 2411
3 839 1009 2055
3 1182 824 1183
3 1168 947 1169
3 1289 1871 2242
3 316 285 1971
3 1270 1271 1272
3 1755 1793 2264
3 51 1996 2011
3 383 384 387
3 1146 1924 2215
3 1279 1928 2202
3 619 618 620
3 1194 1196 1197
3 555 578 979
3 1937 1639 2528
3 1262 1257 1263
3 389 384 2339
3 2251 1338 2464
3 1155 1887 2123
3 1151 1937 2528
3 465 463 828
3 1318 1319 2116
3 1687 1688 2231
3 326 954 2050
3 297 318 1984
3 1308 953 2255
3 1846 2056 2198
3 320 315 2229
3 1254 1252 2059
3 760 761 783
3 951 1281 2255
3 1459 1296 2094
3 2288 1638 2470
3 1975 299 1984
3 52 247 1996
3 468 338 2090
3 2140 1511 2506
3 1125 1126 1192
3 593 824 1182
3 720 708 1921
3 704 706 707
3 623 587 624
3 2044 1112 2152
3 1393 1169 1749
3 900 983 2119
3 783 914 938
3 255 2265 2489
3 2039 894 2122
3 317 2050 2127
3 1866 1867 2513
3 374 373 375
3 429 436 455
3 387 388 445
3 1193 423 1194
3 555 577 578
3 1074 977 1187
3 449 567 2052
3 1197 1198 1364
3 2154 1595 2486
3 1486 1849 2173
3 318 295 1983
3 939 1016 1844
3 131 132 2160
3 30 31 2159
3 881 1146 2215
3 1294 1868 2238
3 1300 1455 2314
3 1365 1364 1912
3 783 938 939
3 2061 1735 2441
3 551 545 601
3 2194 216 2536
3 1251 1257 1262
3 888 887 2177
3 1364 1198 2048
3 1498 1682 2340
3 1589 1590 2501
3 60 188 2266
3 1401 1913 2324
3 195 108 1991
3 420 422 423
3 1675 1470 2474
3 258 1673 2183
3 2161 1619 2438
3 1296 1472 2094
3 1808 1910 2381
3 334 803 2090
3 1490 1285 2232
3 523 511 524
3 1240 1238 2074
3 1184 1183 1185
3 39 40 2151
3 473 474 477
3 1461 1463 2200
3 2072 353 2073
3 861 862 863
3 1206 1941 2401
3 958 1575 2287
3 614 611 2092
3 110 111 2140
3 1136 2054 2110
3 645 594 2133
3 260 33 2002
3 673 767 2131
3 989 980 1359
3 1741 2131 2258
3 1317 1875 2148
3 894 1946 2122
3 863 864 865
3 787 461 2052
3 857 2277 2386
3 109 246 1991
3 2017 116 2018
3 1182 1183 1184
3 377 375 378
3 816 925 1324
3 865 866 901
3 1262 1263 1456
3 359 356 2065
3 2129 241 2472
3 283 1938 1971
3 1458 1210 2203
3 1076 1003 2145
3 196 1738 2402
3 1033 1130 1151
3 1188 1121 2106
3 1140 1702 2096
3 549 687 1280
3 1694 1621 2191
3 861 1064 2112
3 1548 1549 2129
3 1784 1071 2462
3 714 716 2066
3 1961 825 2455
3 1447 1211 2250
3 979 578 980
3 905 907 1209
3 381 378 382
3 457 469 552
3 595 575 2032
3 408 413 2084
3 481 483 2144
3 1745 1349 2293
3 1980 1405 2441
3 198 50 2011
3 248 115 2017
3 912 819 2068
3 620 858 859
3 707 708 720
3 821 674 822
3 514 542 2086
3 400 382 401
3 123 2005 2012
3 1772 1351 2374
3 34 239 2002
3 768 314 2127
3 2003 36 2004
3 280 282 2079
3 124 225 2005
3 596 595 2130
3 593 560 824
3 1504 1502 2519
3 239 35 2003
3 1311 1309 2147
3 1318 1877 2240
3 1860 1432 2311
3 1416 1715 2330
3 859 998 1153
3 352 353 2072
3 312 768 1987
3 2027 1174 2152
3 226 38 2006
3 1827 1024 2117
3 1710 1391 2295
3 690 624 691
3 37 226 2004
3 1153 1312 1885
3 853 855 2186
3 1892 242 2373
3 1967 520 2174
3 939 938 1016
3 47 249 2019
3 388 390 2078
3 1991 2139 2517
3 905 906 907
3 571 721 2032
3 1196 423 2035
3 1324 925 1325
3 1151 1130 1937
3 363 352 2072
3 345 349 2076
3 1031 1032 1033
3 214 179 1859
3 211 122 2012
3 602 601 652
3 117 205 2018
3 710 712 2067
3 1602 187 2357
3 520 2000 2174
3 85 242 2335
3 220 84 2335
3 381 400 2113
3 1586 1587 2435
3 424 401 425
3 963 1174 2027
3 860 691 861
3 610 596 2130
3 1958 2078 2431
3 570 547 2056
3 237 2216 2354
3 1211 1692 2219
3 298 358 1997
3 909 947 1041
3 441 456 2097
3 1135 1647 1849
3 1601 1542 2443
3 197 113 2009
3 49 198 2010
3 1911 347 2407
3 1729 191 2309
3 212 41 2020
3 121 211 2013
3 222 105 2218
3 1125 901 1126
3 114 248 2009
3 249 48 2010
3 42 250 2020
3 251 120 2013
3 233 1769 2369
3 1870 647 2113
3 794 345 2076
3 250 43 2024
3 119 251 2021
3 901 902 2141
3 964 570 2056
3 739 335 2261
3 2108 1317 2148
3 577 599 2083
3 205 118 2021
3 44 206 2024
3 1247 1241 2323
3 1894 992 2244
3 6 203 2049
3 1642 1678 2529
3 1417 1873 2333
3 1422 2023 2516
3 341 794 2100
3 73 74 2361
3 1234 1232 2088
3 1261 1254 2059
3 896 1077 2257
3 1921 710 2067
3 125 126 2284
3 220 1699 2289
3 159 5 2304
3 4 184 2303
3 2059 1252 2098
3 1003 1004 2145
3 2328 1325 2451
3 1486 227 1500
3 63 64 2162
3 2081 1192 2260
3 508 500 2102
3 667 1872 2318
3 338 334 2090
3 423 422 2035
3 1192 1126 1471
3 907 908 909
3 1330 1328 2192
3 1972 897 2500
3 2443 316 2514
3 242 86 2373
3 87 193 2373
3 420 1193 2084
3 1473 1086 2358
3 1987 768 2037
3 522 337 2100
3 627 1660 2185
3 1793 446 2264
3 1405 2061 2441
3 1502 1217 2302
3 171 201 2216
3 1158 1993 2153
3 1197 1365 2120
3 1712 1710 2295
3 1121 1401 2414
3 93 94 2166
3 653 652 688
3 622 1716 2452
3 1345 1720 2267
3 477 537 556
3 128 129 2181
3 2331 1295 2458
3 784 645 874
3 1269 1270 2199
3 189 102 2355
3 1041 1168 1343
3 246 110 2140
3 477 525 537
3 755 1895 2371
3 1947 1723 2313
3 1134 1135 2369
3 223 65 2395
3 968 1201 2107
3 1577 1578 2325
3 210 15 2477
3 961 363 2072
3 1581 1579 2352
3 349 357 2076
3 337 341 2100
3 305 303 2317
3 370 367 2103
3 762 296 1997
3 581 580 2164
3 1278 1838 2372
3 1548 2129 2472
3 594 593 2133
3 2021 251 2022
3 2047 1247 2182
3 967 968 2107
3 1169 947 2008
3 481 2144 2169
3 793 614 2092
3 1910 217 2381
3 1251 1262 2098
3 716 788 2066
3 2101 1334 2108
3 2006 39 2151
3 1603 2379 2508
3 1926 2006 2151
3 96 97 2526
3 750 755 2371
3 789 714 2066
3 909 918 947
3 1993 895 2153
3 106 1990 2218
3 1243 1240 2074
3 832 986 1189
3 1283 1284 2342
3 2297 195 2517
3 1043 829 2326
3 767 816 2131
3 602 653 676
3 1004 912 2068
3 2086 1886 2224
3 1124 2177 2467
3 426 401 2531
3 707 720 1030
3 1000 1001 2184
3 1315 1029 2184
3 467 481 2169
3 541 513 2256
3 647 381 2113
3 225 2284 2510
3 2 156 2356
3 187 0 2357
3 40 212 2151
3 2245 1386 2383
3 676 677 829
3 1004 2068 2069
3 1860 232 2487
3 1031 1033 1034
3 829 830 972
3 996 997 2408
3 1195 1194 2120
3 987 1869 2202
3 1410 1213 2222
3 819 820 2068
3 1485 1486 2173
3 1564 2030 2155
3 807 669 2529
3 129 261 2181
3 1525 1076 2145
3 578 577 2083
3 327 310 1987
3 1083 929 2197
3 2131 1324 2258
3 798 408 2084
3 1838 696 2426
3 1486 1500 1930
3 1946 1944 2291
3 2257 1077 2291
3 1512 1661 2266
3 445 388 2078
3 1192 1471 2260
3 2118 1415 2395
3 1466 1468 2158
3 830 677 831
3 211 2012 2251
3 652 601 2442
3 537 545 551
3 558 508 2102
3 198 2011 2128
3 1718 2280 2385
3 500 960 2102
3 1168 1169 1393
3 1127 971 2496
3 95 96 2309
3 2030 1565 2155
3 1919 1172 2273
3 977 860 2112
3 240 128 2181
3 294 762 2038
3 1800 1799 2195
3 712 789 2067
3 972 1749 2326
3 472 1683 2212
3 874 645 2133
3 551 2045 2201
3 2105 1043 2326
3 1957 1212 2301
3 1514 1856 2367
3 565 538 2167
3 373 370 2103
3 355 348 2196
3 1934 1272 2138
3 1934 426 2531
3 1881 1400 2481
3 2046 1851 2327
3 367 961 2103
3 1963 1152 2206
3 201 278 443
3 3 131 2444
3 31 1 2445
3 2035 441 2097
3 503 787 2198
3 1135 1849 1930
3 1534 1983 2306
3 2089 623 2150
3 687 704 2109
3 869 1351 2363
3 1302 1304 2205
3 955 1716 2484
3 1030 720 1031
3 1159 1318 2240
3 1228 1226 2281
3 947 918 2008
3 413 420 2084
3 785 879 2532
3 1041 947 1168
3 1468 2182 2323
3 1246 1234 2088
3 1730 1163 2372
3 542 555 2086
3 1599 631 2312
3 1146 1967 2174
3 1078 1136 2343
3 1515 1574 2180
3 2336 885 2469
3 1257 1243 2074
3 1347 1346 2279
3 2001 650 2206
3 1480 1601 2514
3 1029 1000 2184
3 1956 788 2336
3 1271 1261 2059
3 130 3 2444
3 1 32 2445
3 1570 1507 2197
3 1232 1255 2088
3 791 1642 2529
3 1601 1479 2269
3 1361 1362 2168
3 1634 1922 2281
3 765 2065 2190
3 2071 1158 2153
3 1699 1801 2289
3 832 831 833
3 1864 346 2344
3 456 476 2097
3 1855 828 2411
3 2065 1162 2190
3 1125 1192 2149
3 599 760 2083
3 361 765 2339
3 1731 2123 2241
3 1349 1181 1350
3 1443 1275 2251
3 1819 524 2429
3 1021 1045 2512
3 858 618 2132
3 1999 358 2338
3 368 292 2038
3 290 368 2135
3 803 331 2296
3 1112 1008 2152
3 56 1947 2313
3 555 979 2086
3 1469 1496 2182
3 1011 967 2107
3 248 2017 2288
3 1809 789 2425
3 960 453 2221
3 538 558 2167
3 1858 1187 2248
3 2246 1757 2526
3 902 905 2141
3 1851 1853 2327
3 1224 1222 2111
3 771 288 2135
3 1945 2153 2257
3 1420 1525 2489
3 1399 1123 2393
3 103 2025 2355
3 897 822 898
3 1861 940 2532
3 865 1125 2146
3 1675 2474 2522
3 1573 2157 2507
3 1632 1631 2382
3 551 601 602
3 527 503 2198
3 1708 805 2337
3 1059 1278 2372
3 2056 527 2198
3 860 861 2112
3 1668 2348 2398
3 255 2159 2265
3 1541 1542 2269
3 1428 2074 2227
3 1582 1583 2321
3 389 1774 2503
3 2004 226 2157
3 1777 397 2405
3 1368 1436 2254
3 1061 2409 2462
3 1071 930 2462
3 1126 901 2141
3 1194 1197 2120
3 1452 1952 2282
3 2116 1319 2482
3 105 106 2218
3 1981 1399 2393
3 2119 983 2143
3 444 1682 2461
3 2173 1648 2463
3 616 793 2132
3 1791 1190 2334
3 1826 1728 2259
3 602 652 653
3 1834 1292 2428
3 556 2201 2327
3 1014 1015 2385
3 1995 1287 2331
3 1193 1195 2189
3 816 1324 2131
3 879 1861 2532
3 593 1182 2133
3 1402 266 1742
3 2216 1323 2354
3 1660 1636 2502
3 620 955 2484
3 1162 1706 2190
3 1870 2113 2249
3 204 1680 1732
3 1909 2023 2420
3 217 72 2217
3 376 372 2430
3 905 1209 2141
3 1378 1381 2283
3 1236 1246 2227
3 286 771 2063
3 1635 2263 2502
3 100 101 2220
3 1139 898 1140
3 2114 1343 2136
3 442 284 2063
3 1772 2106 2414
3 1985 1755 2533
3 2192 1328 2315
3 1064 863 2146
3 1631 1637 2459
3 736 2049 2523
3 221 1906 2246
3 318 1983 2171
3 1496 2047 2182
3 1374 2139 2506
3 196 55 2313
3 2087 462 2134
3 676 653 677
3 2304 257 2491
3 1401 2324 2363
3 829 677 830
3 654 2223 2242
3 1187 977 2112
3 1463 1466 2200
3 2023 219 2516
3 1176 881 2215
3 513 471 2290
3 1812 459 2252
3 1386 1269 2199
3 291 758 2306
3 618 616 2132
3 278 280 2210
3 83 220 2289
3 82 83 2289
3 938 1057 2161
3 1189 986 1190
3 788 719 2336
3 1914 2001 2206
3 232 181 1652
3 1567 2062 2490
3 313 757 2495
3 622 619 2484
3 688 878 1320
3 1222 1626 2111
3 282 442 2079
3 1169 2008 2105
3 1966 1007 2308
3 2040 799 2237
3 1744 2229 2495
3 986 833 1063
3 2284 1605 2510
3 887 1961 2376
3 215 1624 2262
3 830 831 832
3 476 475 2224
3 439 451 2223
3 1932 1933 2380
3 2227 1246 2366
3 1212 1202 2301
3 1107 1110 2228
3 249 2010 2299
3 1983 293 2306
3 2055 1214 2237
3 1438 1372 2478
3 824 560 2156
3 2320 1866 2513
3 1351 1137 2374
3 868 2007 2232
3 2063 771 2064
3 1507 214 1508
3 1728 1727 2246
3 1045 1047 2348
3 1139 1140 2096
3 1648 1649 2463
3 1502 2302 2519
3 704 707 2109
3 2343 1136 2396
3 650 1963 2206
3 2153 895 2257
3 396 1958 2431
3 1379 1377 2288
3 2115 1471 2319
3 2033 987 2202
3 2239 1693 2518
3 2025 1488 2355
3 1209 2115 2319
3 523 524 2156
3 783 939 2243
3 376 1798 2497
3 2066 788 2193
3 1984 318 2172
3 425 427 2221
3 203 172 1847
3 446 457 2264
3 1312 2089 2150
3 2138 1272 2211
3 897 1139 2274
3 828 1819 2429
3 1249 1224 2111
3 666 667 2318
3 1371 1326 2194
3 2433 1499 2475
3 1272 1271 2211
3 1367 2254 2479
3 1386 2053 2383
3 2074 1238 2227
3 755 2148 2320
3 2117 1604 2428
3 475 514 2224
3 228 2187 2457
3 1868 1504 2520
3 1626 1218 2185
3 2123 1111 2241
3 1287 1049 2331
3 1280 687 2109
3 459 1814 2292
3 54 196 2402
3 863 865 2146
3 204 176 1680
3 514 2086 2224
3 1646 603 2398
3 112 197 2346
3 358 300 2338
3 1140 898 1141
3 1204 1335 2301
3 1016 2161 2438
3 909 1041 2175
3 1681 2448 2492
3 2252 459 2292
3 1992 868 2232
3 1035 1036 2235
3 1051 1295 2331
3 1836 1289 2242
3 1508 214 1859
3 247 53 2402
3 1016 938 2161
3 1408 856 2378
3 1466 2158 2200
3 725 885 2336
3 855 1450 2421
3 2023 1768 2420
3 1238 1236 2227
3 1679 202 2253
3 2107 1348 2233
3 1653 1431 2487
3 1946 2291 2343
3 2253 202 2329
3 1885 1312 2150
3 378 628 2390
3 2195 1383 2432
3 1520 1519 2480
3 1532 1733 2534
3 308 327 2278
3 953 951 2255
3 1213 1407 2222
3 1561 1563 2285
3 302 763 2338
3 1928 2033 2202
3 763 304 2345
3 832 833 986
3 1352 2040 2237
3 247 1881 2481
3 560 523 2156
3 335 339 2261
3 346 342 2344
3 201 443 1323
3 2301 1335 2466
3 323 320 2229
3 1136 2110 2396
3 1139 1977 2274
3 1809 1615 2423
3 1707 1791 2334
3 46 2019 2485
3 2064 1294 2238
3 1950 197 2404
3 2021 2022 2176
3 1949 245 2420
3 2044 2152 2207
3 1063 1154 1707
3 1012 1363 2406
3 280 2079 2210
3 2237 1214 2351
3 820 698 2318
3 1140 1141 1406
3 205 2021 2176
3 2043 786 2310
3 2145 1004 2446
3 707 1030 2109
3 1406 2460 2473
3 2137 1268 2226
3 16 2081 2260
3 567 2031 2219
3 2112 1064 2248
3 206 45 2485
3 2347 1462 2365
3 1650 1962 2362
3 453 425 2221
3 1209 907 2175
3 1111 1276 2241
3 2448 1145 2492
3 2051 2083 2243
3 59 60 2266
3 1402 1742 2530
3 831 677 2209
3 624 587 2276
3 238 174 1725
3 1011 2107 2233
3 468 2365 2412
3 2337 805 2371
3 254 1932 2380
3 1174 1398 2207
3 2140 111 2346
3 1381 2186 2283
3 1987 2037 2188
3 1740 559 2456
3 1773 391 2503
3 1335 1870 2249
3 1945 2257 2291
3 828 463 2411
3 1246 2088 2208
3 2060 798 2307
3 1773 1159 2240
3 1187 2112 2248
3 1352 2237 2351
3 2037 1322 2188
3 1941 1499 2433
3 2322 225 2510
3 1031 1034 2236
3 327 2188 2321
3 595 2032 2273
3 1464 1462 2347
3 1285 1992 2232
3 799 2055 2237
3 443 278 2210
3 784 874 2178
3 392 396 2431
3 191 95 2309
3 879 784 2178
3 524 511 2429
3 2128 2011 2270
3 895 896 2257
3 2206 1152 2324
3 318 2171 2172
3 2259 1549 2379
3 1214 1410 2351
3 306 308 2278
3 2022 251 2247
3 1757 1729 2309
3 1283 1918 2524
3 996 1706 2492
3 557 2044 2207
3 1798 1448 2364
3 1447 2250 2310
3 559 1750 2403
3 1363 1011 2233
3 1343 1168 2187
3 1407 2044 2256
3 1462 1460 2365
3 1995 2331 2458
3 327 1987 2188
3 2160 254 2380
3 1681 958 2287
3 2031 1160 2250
3 1600 689 2413
3 2219 1692 2239
3 1494 1675 2522
3 1281 1916 2448
3 907 909 2175
3 565 2167 2276
3 2241 1276 2275
3 1978 316 2443
3 2151 212 2350
3 203 1847 2104
3 2049 1481 2523
3 1961 1362 2376
3 2187 1393 2457
3 940 796 2532
3 2293 1349 2329
3 572 1897 2537
3 332 739 2282
3 2052 567 2239
3 1437 1370 2277
3 567 2219 2239
3 667 626 2452
3 1914 2206 2324
3 2243 939 2392
3 2136 1343 2187
3 257 1654 2530
3 1376 1378 2283
3 2076 1982 2272
3 2083 760 2243
3 1944 1945 2291
3 1771 1839 2359
3 1404 1403 2399
3 1875 1866 2320
3 1460 1337 2412
3 760 783 2243
3 1276 1366 2275
3 1428 2227 2366
3 1882 1605 2284
3 1739 1429 2459
3 2321 2188 2434
3 1328 1327 2315
3 798 2189 2307
3 2152 1174 2207
3 2182 1247 2323
3 1516 1514 2367
3 293 291 2306
3 556 537 2201
3 1298 1300 2314
3 1400 1399 2316
3 1649 2236 2463
3 833 831 2424
3 2127 2050 2333
3 1057 914 2328
3 1839 193 2359
3 761 1741 2258
3 1186 1970 2422
3 1429 2366 2382
3 2211 1271 2271
3 1733 1248 2534
3 13 2114 2136
3 2078 390 2431
3 1533 1536 2340
3 1690 2145 2446
3 1277 2308 2370
3 1168 1393 2187
3 1597 2047 2268
3 587 565 2276
3 1908 244 2401
3 225 125 2284
3 610 2130 2468
3 1749 2105 2326
3 1913 1914 2324
3 2366 2208 2382
3 1391 1876 2295
3 457 552 2264
3 653 688 2209
3 1601 2443 2514
3 682 2138 2211
3 992 1980 2244
3 55 56 2313
3 1645 1495 2493
3 473 477 2483
3 202 1724 2329
3 465 828 2429
3 1277 1966 2308
3 1416 2330 2406
3 1912 1364 2455
3 1716 1483 2375
3 2019 1651 2485
3 1725 2137 2226
3 201 1323 2216
3 878 1083 2213
3 2072 2073 2245
3 1563 1777 2405
3 244 2028 2401
3 2016 1564 2422
3 1682 1497 2461
3 1962 1153 2362
3 1298 2314 2358
3 1384 1385 2391
3 688 1320 2209
3 1587 2179 2435
3 786 380 2497
3 1395 1522 2341
3 2032 1919 2273
3 251 2013 2247
3 2219 2031 2250
3 2397 552 2453
3 1765 255 2489
3 2475 1825 2524
3 1202 1204 2301
3 445 2078 2411
3 323 2229 2296
3 1286 2384 2408
3 537 551 2201
3 1724 237 2293
3 84 85 2335
3 1471 1126 2319
3 1635 1634 2511
3 300 302 2338
3 698 666 2318
3 1030 1031 2236
3 2098 1457 2271
3 696 1821 2426
3 1457 1492 2447
3 1956 2336 2469
3 331 323 2296
3 1284 1491 2342
3 2011 1996 2270
3 256 183 2303
3 160 257 2304
3 2204 1589 2501
3 1891 1014 2280
3 719 725 2336
3 1354 1808 2381
3 437 430 2494
3 2377 218 2391
3 2211 2271 2447
3 1407 2256 2290
3 2365 1460 2412
3 2047 1498 2268
3 1825 1283 2524
3 1499 1825 2475
3 1226 1249 2281
3 2051 2243 2392
3 2250 1160 2310
3 111 112 2346
3 304 306 2345
3 1341 1352 2351
3 2166 191 2504
3 2223 1836 2242
3 1996 247 2481
3 1049 1051 2331
3 1086 1298 2358
3 2130 595 2273
3 1249 2111 2263
3 680 1995 2458
3 1511 2140 2346
3 102 103 2355
3 469 473 2453
3 961 2072 2245
3 2073 1282 2245
3 1442 1443 2525
3 74 192 2361
3 2163 1586 2435
3 1519 1518 2449
3 897 2274 2500
3 303 444 2317
3 1615 1614 2423
3 197 2009 2404
3 1634 2281 2511
3 1780 1781 2419
3 1435 1623 2465
3 1286 1774 2384
3 384 361 2339
3 193 1901 2359
3 1165 2433 2475
3 2277 1370 2386
3 677 653 2209
3 1994 1516 2367
3 1479 1478 2440
3 1165 1512 2433
3 1644 1353 2417
3 1711 1712 2353
3 2193 1615 2425
3 1613 1956 2469
3 1440 1173 2330
3 2269 1479 2440
3 222 2218 2465
3 391 389 2503
3 306 2278 2345
3 468 2090 2365
3 221 2246 2526
3 1445 1446 2504
3 939 1844 2392
3 86 87 2373
3 1429 1428 2366
3 2053 2103 2383
3 1348 1212 2312
3 805 750 2371
3 997 1286 2408
3 1152 869 2363
3 2063 2064 2238
3 192 1994 2367
3 1160 2043 2310
3 1926 2151 2350
3 2059 2098 2271
3 1897 1366 2537
3 215 2262 2437
3 1655 1732 2476
3 2415 1128 2454
3 1320 2213 2214
3 7 258 2357
3 259 155 2356
3 2171 1530 2172
3 347 351 2407
3 1077 1078 2343
3 239 2003 2279
3 1446 1128 2415
3 1034 1033 2410
3 601 627 2442
3 1154 1653 2234
3 397 2060 2405
3 2142 794 2272
3 442 2063 2238
3 1863 1215 2378
3 794 2076 2272
3 1883 1375 2505
3 1320 878 2213
3 342 468 2344
3 1903 218 2377
3 380 376 2497
3 1549 1547 2379
3 1148 1165 2475
3 2157 226 2507
3 829 972 2326
3 884 1957 2466
3 2291 1077 2343
3 65 66 2395
3 787 2052 2518
3 2298 1348 2312
3 1946 2343 2396
3 1653 256 2535
3 1842 1548 2472
3 1957 2301 2466
3 1366 1277 2370
3 2213 1432 2214
3 961 2245 2383
3 218 2093 2391
3 1376 2283 2421
3 1873 2127 2333
3 1019 1021 2512
3 1128 1127 2454
3 1104 1434 2450
3 2130 1439 2468
3 2396 2110 2482
3 2186 855 2283
3 1724 2293 2329
3 1163 1059 2372
3 1614 2389 2423
3 53 54 2402
3 1063 1707 2334
3 2283 855 2421
3 1385 1863 2436
3 364 1883 2505
3 517 1890 2387
3 1145 996 2492
3 1047 1287 2348
3 2148 1875 2320
3 205 2176 2416
3 1372 1844 2478
3 1211 2219 2250
3 1141 898 2368
3 245 1909 2420
3 2278 327 2321
3 2389 1397 2423
3 2256 513 2290
3 559 2403 2456
3 1137 1340 2374
3 2093 1384 2391
3 1918 1148 2524
3 1030 2236 2427
3 1867 1895 2513
3 2014 517 2387
3 2271 1457 2447
3 1143 2028 2353
3 1904 194 2432
3 1148 2475 2524
3 1574 1523 2436
3 2213 1083 2311
3 1997 358 2325
3 2139 246 2506
3 1370 1369 2386
3 1271 2059 2271
3 1034 2173 2463
3 1123 1412 2393
3 1578 1827 2515
3 2209 1320 2424
3 2079 1504 2210
3 1361 2168 2305
3 1491 1489 2403
3 238 1725 2226
3 1190 986 2334
3 1547 1545 2508
3 1891 1613 2469
3 1153 1885 2362
3 2208 1632 2382
3 2287 1281 2448
3 1356 1376 2421
3 1965 2349 2515
3 2155 1186 2422
3 1522 2014 2387
3 2158 1468 2323
3 2050 954 2333
3 1397 1809 2423
3 1362 1360 2376
3 1852 1985 2397
3 2069 1691 2446
3 789 2066 2425
3 1895 755 2513
3 1707 1154 2234
3 372 374 2430
3 2225 787 2518
3 2028 1206 2401
3 986 1063 2334
3 1912 726 2439
3 1340 1342 2400
3 1916 1145 2448
3 2236 1649 2427
3 2374 1340 2400
3 2222 1407 2290
3 2324 1152 2363
3 241 2220 2472
3 765 2190 2384
3 2375 667 2452
3 2330 1173 2406
3 1181 1972 2500
3 2126 1382 2388
3 1173 1012 2406
3 315 313 2495
3 1015 1373 2385
3 97 221 2526
3 1937 1397 2389
3 930 1061 2462
3 971 1096 2496
3 45 46 2485
3 669 791 2529
3 1104 2450 2521
3 382 378 2390
3 2191 1371 2536
3 2235 1036 2286
3 831 2209 2424
3 762 1997 2349
3 2379 1547 2508
3 2177 1359 2467
3 2403 1489 2456
3 796 785 2532
3 219 1902 2516
3 1519 2300 2480
3 1065 1655 2476
3 1375 1473 2505
3 1489 1490 2456
3 390 392 2431
3 2247 2013 2464
3 1135 1930 2369
3 2278 1583 2345
3 626 622 2452
3 631 2298 2312
3 2233 1348 2298
3 1398 1974 2499
3 1706 1681 2492
3 261 130 2444
3 32 260 2445
3 822 2099 2368
3 1365 1912 2439
3 941 940 2418
3 1446 2166 2504
3 2106 1121 2414
3 2300 1519 2449
3 1803 1104 2521
3 1732 1570 2476
3 1413 2051 2392
3 2122 1946 2396
3 2238 1868 2520
3 477 556 2483
3 2397 1985 2533
3 463 445 2411
3 2163 1185 2488
3 1126 2141 2319
3 1755 2264 2533
3 972 2204 2501
3 2230 1533 2340
3 1774 1773 2503
3 1997 2325 2349
3 1004 2069 2446
3 2159 31 2445
3 131 2160 2444
3 1371 2191 2451
3 1001 2154 2486
3 1682 2230 2340
3 2103 961 2383
3 1033 1151 2410
3 382 2390 2531
3 1504 2079 2520
3 1583 2278 2321
3 511 465 2429
3 250 2024 2479
3 2208 2088 2509
3 619 620 2484
3 1246 2208 2366
3 2141 1209 2319
3 1359 1413 2467
3 1295 1459 2458
3 2218 1435 2465
3 2281 1249 2511
3 2293 237 2354
3 2207 1398 2499
3 1564 2155 2422
3 552 469 2453
3 1947 224 2498
3 2062 1568 2490
3 2018 205 2416
3 260 2159 2445
3 2160 261 2444
3 2092 610 2468
3 194 2195 2432
3 1432 2213 2311
3 211 2251 2464
3 2378 856 2527
3 1536 1532 2534
3 2364 786 2497
3 2438 1438 2478
3 1185 1948 2488
3 2042 941 2418
3 1582 2321 2434
3 885 1891 2469
3 1364 2048 2455
3 1693 2225 2518
3 401 382 2531
3 1338 2247 2464
3 442 2238 2520
3 1292 2117 2428
3 2274 1350 2500
3 2066 2193 2425
3 2179 1184 2435
3 898 822 2368
3 2436 1863 2527
3 1844 1016 2478
3 2184 1001 2486
3 557 2207 2499
3 2013 211 2464
3 2254 250 2479
3 1350 1181 2500
3 2009 248 2470
3 246 2140 2506
3 1574 2436 2527
3 2139 1419 2517
3 316 1971 2514
3 1319 2122 2482
3 226 2006 2507
3 1400 2270 2481
3 1681 2287 2448
3 2325 1578 2349
3 232 1652 2487
3 1320 2214 2424
3 1632 2208 2509
3 248 2288 2470
3 1406 1141 2460
3 2188 1322 2434
3 2244 1980 2441
3 2088 1255 2509
3 1280 2109 2427
3 2060 2307 2405
3 2236 1034 2463
3 1745 2293 2354
3 2122 2396 2482
3 2109 1030 2427
3 2307 1563 2405
3 1429 2382 2459
3 224 2267 2498
3 682 2211 2447
3 2079 442 2520
3 2348 1287 2398
3 2220 1842 2472
3 1335 2249 2466
3 1249 2263 2511
3 443 2210 2519
3 2385 1373 2394
3 1594 2184 2486
3 2052 2239 2518
3 1568 2439 2490
3 2349 1578 2515
3 2344 468 2412
3 2270 1996 2481
3 1735 2244 2441
3 2260 1471 2477
3 2210 1504 2519
3 1434 2297 2450
3 2297 1419 2450
3 2263 1660 2502
3 2404 2009 2470
3 1718 2385 2394
3 1371 2194 2536
3 2317 444 2461
3 1443 2322 2525
3 1716 2375 2452
3 1863 2378 2527
3 2439 726 2490
3 1057 2328 2451
3 1638 2404 2470
3 1454 2234 2535
3 755 2320 2513
3 2234 1653 2535
3 2264 552 2533
3 1419 2297 2517
3 1392 2322 2510
3 552 2397 2533
3 1798 2364 2497
3 2322 1392 2525
3 2382 1631 2459
3 1016 2438 2478
3 1366 2370 2537
3 1742 2491 2530
3 2491 257 2530
CELL_TYPES 4886
5
5
5
5
5
5
5
5
5
5
5
5
5
5
5
5
5
5
5
5
5
5
5
5
5
5
5
5
5
5
5
5
5
5
5
5
5
5
5
5
5
5
5
5
5
5
5
5
5
5
5
5
5
5
5
5
5
5
5
5
5
5
5
5
5
5
5
5
5
5
5
5
5
5
5
5
5
5
5
5
5
5
5
5
5
5
5
5
5
5
5
5
5
5
5
5
5
5
5
5
5
5
5
5
5
5
5
5
5
5
5
5
5
5
5
5
5
5
5
5
5
5
5
5
5
5
5
5
5
5
5
5
5
5
5
5
5
5
5
5
5
5
5
5
5
5
5
5
5
5
5
5
5
5
5
5
5
5
5
5
5
5
5
5
5
5
5
5
5
5
5
5
5
5
5
5
5
5
5
5
5
5
5
5
5
5
5
5
5
5
5
5
5
5
5
5
5
5
5
5
5
5
5
5
5
5
5
5
5
5
5
5
5
5
5
5
5
5
5
5
5
5
5
5
5
5
5
5
5
5
5
5
5
5
5
5
5
5
5
5
5
5
5
5
5
5
5
5
5
5
5
5
5
5
5
5
5
5
5
5
5
5
5
5
5
5
5
5
5
5
5
5
5
5
5
5
5
5
5
5
5
5
5
5
5
5
5
5
5
5
5
5
5
5
5
5
5
5
5
5
5
5
5
5
5
5
5
5
5
5
5
5
5
5
5
5
5
5
5
5
5
5
5
5
5
5
5
5
5
5
5
5
5
5
5
5
5
5
5
5
5
5
5
5
5
5
5
5
5
5
5
5
5
5
5
5
5
5
5
5
5
5
5
5
5
5
5
5
5
5
5
5
5
5
5
5
5
5
5
5
5
5
5
5
5
5
5
5
5
5
5
5
5
5
5
5
5
5
5
5
5
5
5
5
5
5
5
5
5
5
5
5
5
5
5
5
5
5
5
5
5
5
5
5
5
5
5
5
5
5
5
5
5
5
5
5
5
5
5
5
5
5
5
5
5
5
5
5
5
5
5
5
5
5
5
5
5
5
5
5
5
5
5
5
5
5
5
5
5
5
5
5
5
5
5
5
5
5
5
5
5
5
5
5
5
5
5
5
5
5
5
5
5
5
5
5
5
5
5
5
5
5
5
5
5
5
5
5
5
5
5
5
5
5
5
5
5
5
5
5
5
5
5
5
5
5
5
5
5
5
5
5
5
5
5
5
5
5
5
5
5
5
5
5
5
5
5
5
5
5
5
5
5
5
5
5
5
5
5
5
5
5
5
5
5
5
5
5
5
5
5
5
5
5
5
5
5
5
5
5
5
5
5
5
5
5
5
5
5
5
5
5
5
5
5
5
5
5
5
5
5
5
5
5
5
5
5
5
5
5
5
5
5
5
5
5
5
5
5
5
5
5
5
5
5
5
5
5
5
5
5
5
5
5
5
5
5
5
5
5
5
5
5
5
5
5
5
5
5
5
5
5
5
5
5
5
5
5
5
5
5
5
5
5
5
5
5
5
5
5
5
5
5
5
5
5
5
5
5
5
5
5
5
5
5
5
5
5
5
5
5
5
5
5
5
5
5
5
5
5
5
5
5
5
5
5
5
5
5
5
5
5
5
5
5
5
5
5
5
5
5
5
5
5
5
5
5
5
5
5
5
5
5
5
5
5
5
5
5
5
5
5
5
5
5
5
5
5
5
5
5
5
5
5
5
5
5
5
5
5
5
5
5
5
5
5
5
5
5
5
5
5
5
5
5
5
5
5
5
5
5
5
5
5
5
5
5
5
5
5
5
5
5
5
5
5
5
5
5
5
5
5
5
5
5
5
5
5
5
5
5
5
5
5
5
5
5
5
5
5
5
5
5
5
5
5
5
5
5
5
5
5
5
5
5
5
5
5
5
5
5
5
5
5
5
5
5
5
5
5
5
5
5
5
5
5
5
5
5
5
5
5
5
5
5
5
5
5
5
5
5
5
5
5
5
5
5
5
5
5
5
5
5
5
5
5
5
5
5
5
5
5
5
5
5
5
5
5
5
5
5
5
5
5
5
5
5
5
5
5
5
5
5
5
5
5
5
5
5
5
5
5
5
5
5
5
5
5
5
5
5
5
5
5
5
5
5
5
5
5
5
5
5
5
5
5
5
5
5
5
5
5
5
5
5
5
5
5
5
5
5
5
5
5
5
5
5
5
5
5
5
5
5
5
5
5
5
5
5
5
5
5
5
5
5
5
5
5
5
5
5
5
5
5
5
5
5
5
5
5
5
5
5
5
5
5
5
5
5
5
5
5
5
5
5
5
5
5
5
5
5
5
5
5
5
5
5
5
5
5
5
5
5
5
5
5
5
5
5
5
5
5
5
5
5
5
5
5
5
5
5
5
5
5
5
5
5
5
5
5
5
5
5
5
5
5
5
5
5
5
5
5
5
5
5
5
5
5
5
5
5
5
5
5
5
5
5
5
5
5
5
5
5
5
5
5
5
5
5
5
5
5
5
5
5
5
5
5
5
5
5
5
5
5
5
5
5
5
5
5
5
5
5
5
5
5
5
5
5
5
5
5
5
5
5
5
5
5
5
5
5
5
5
5
5
5
5
5
5
5
5
5
5
5
5
5
5
5
5
5
5
5
5
5
5
5
5
5
5
5
5
5
5
5
5
5
5
5
5
5
5
5
5
5
5
5
5
5
5
5
5
5
5
5
5
5
5
5
5
5
5
5
5
5
5
5
5
5
5
5
5
5
5
5
5
5
5
5
5
5
5
5
5
5
5
5
5
5
5
5
5
5
5
5
5
5
5
5
5
5
5
5
5
5
5
5
5
5
5
5
5
5
5
5
5
5
5
5
5
5
5
5
5
5
5
5
5
5
5
5
5
5
5
5
5
5
5
5
5
5
5
5
5
5
5
5
5
5
5
5
5
5
5
5
5
5
5
5
5
5
5
5
5
5
5
5
5
5
5
5
5
5
5
5
5
5
5
5
5
5
5
5
5
5
5
5
5
5
5
5
5
5
5
5
5
5
5
5
5
5
5
5
5
5
5
5
5
5
5
5
5
5
5
5
5
5
5
5
5
5
5
5
5
5
5
5
5
5
5
5
5
5
5
5
5
5
5
5
5
5
5
5
5
5
5
5
5
5
5
5
5
5
5
5
5
5
5
5
5
5
5
5
5
5
5
5
5
5
5
5
5
5
5
5
5
5
5
5
5
5
5
5
5
5
5
5
5
5
5
5
5
5
5
5
5
5
5
5
5
5
5
5
5
5
5
5
5
5
5
5
5
5
5
5
5
5
5
5
5
5
5
5
5
5
5
5
5
5
5
5
5
5
5
5
5
5
5
5
5
5
5
5
5
5
5
5
5
5
5
5
5
5
5
5
5
5
5
5
5
5
5
5
5
5
5
5
5
5
5
5
5
5
5
5
5
5
5
5
5
5
5
5
5
5
5
5
5
5
5
5
5
5
5
5
5
5
5
5
5
5
5
5
5
5
5
5
5
5
5
5
5
5
5
5
5
5
5
5
5
5
5
5
5
5
5
5
5
5
5
5
5
5
5
5
5
5
5
5
5
5
5
5
5
5
5
5
5
5
5
5
5
5
5
5
5
5
5
5
5
5
5
5
5
5
5
5
5
5
5
5
5
5
5
5
5
5
5
5
5
5
5
5
5
5
5
5
5
5
5
5
5
5
5
5
5
5
5
5
5
5
5
5
5
5
5
5
5
5
5
5
5
5
5
5
5
5
5
5
5
5
5
5
5
5
5
5
5
5
5
5
5
5
5
5
5
5
5
5
5
5
5
5
5
5
5
5
5
5
5
5
5
5
5
5
5
5
5
5
5
5
5
5
5
5
5
5
5
5
5
5
5
5
5
5
5
5
5
5
5
5
5
5
5
5
5
5
5
5
5
5
5
5
5
5
5
5
5
5
5
5
5
5
5
5
5
5
5
5
5
5
5
5
5
5
5
5
5
5
5
5
5
5
5
5
5
5
5
5
5
5
5
5
5
5
5
5
5
5
5
5
5
5
5
5
5
5
5
5
5
5
5
5
5
5
5
5
5
5
5
5
5
5
5
5
5
5
5
5
5
5
5
5
5
5
5
5
5
5
5
5
5
5
5
5
5
5
5
5
5
5
5
5
5
5
5
5
5
5
5
5
5
5
5
5
5
5
5
5
5
5
5
5
5
5
5
5
5
5
5
5
5
5
5
5
5
5
5
5
5
5
5
5
5
5
5
5
5
5
5
5
5
5
5
5
5
5
5
5
5
5
5
5
5
5
5
5
5
5
5
5
5
5
5
5
5
5
5
5
5
5
5
5
5
5
5
5
5
5
5
5
5
5
5
5
5
5
5
5
5
5
5
5
5
5
5
5
5
5
5
5
5
5
5
5
5
5
5
5
5
5
5
5
5
5
5
5
5
5
5
5
5
5
5
5
5
5
5
5
5
5
5
5
5
5
5
5
5
5
5
5
5
5
5
5
5
5
5
5
5
5
5
5
5
5
5
5
5
5
5
5
5
5
5
5
5
5
5
5
5
5
5
5
5
5
5
5
5
5
5
5
5
5
5
5
5
5
5
5
5
5
5
5
5
5
5
5
5
5
5
5
5
5
5
5
5
5
5
5
5
5
5
5
5
5
5
5
5
5
5
5
5
5
5
5
5
5
5
5
5
5
5
5
5
5
5
5
5
5
5
5
5
5
5
5
5
5
5
5
5
5
5
5
5
5
5
5
5
5
5
5
5
5
5
5
5
5
5
5
5
5
5
5
5
5
5
5
5
5
5
5
5
5
5
5
5
5
5
5
5
5
5
5
5
5
5
5
5
5
5
5
5
5
5
5
5
5
5
5
5
5
5
5
5
5
5
5
5
5
5
5
5
5
5
5
5
5
5
5
5
5
5
5
5
5
5
5
5
5
5
5
5
5
5
5
5
5
5
5
5
5
5
5
5
5
5
5
5
5
5
5
5
5
5
5
5
5
5
5
5
5
5
5
5
5
5
5
5
5
5
5
5
5
5
5
5
5
5
5
5
5
5
5
5
5
5
5
5
5
5
5
5
5
5
5
5
5
5
5
5
5
5
5
5
5
5
5
5
5
5
5
5
5
5
5
5
5
5
5
5
5
5
5
5
5
5
5
5
5
5
5
5
5
5
5
5
5
5
5
5
5
5
5
5
5
5
5
5
5
5
5
5
5
5
5
5
5
5
5
5
5
5
5
5
5
5
5
5
5
5
5
5
5
5
5
5
5
5
5
5
5
5
5
5
5
5
5
5
5
5
5
5
5
5
5
5
5
5
5
5
5
5
5
5
5
5
5
5
5
5
5
5
5
5
5
5
5
5
5
5
5
5
5
5
5
5
5
5
5
5
5
5
5
5
5
5
5
5
5
5
5
5
5
5
5
5
5
5
5
5
5
5
5
5
5
5
5
5
5
5
5
5
5
5
5
5
5
5
5
5
5
5
5
5
5
5
5
5
5
5
5
5
5
5
5
5
5
5
5
5
5
5
5
5
5
5
5
5
5
5
5
5
5
5
5
5
5
5
5
5
5
5
5
5
5
5
5
5
5
5
5
5
5
5
5
5
5
5
5
5
5
5
5
5
5
5
5
5
5
5
5
5
5
5
5
5
5
5
5
5
5
5
5
5
5
5
5
5
5
5
5
5
5
5
5
5
5
5
5
5
5
5
5
5
5
5
5
5
5
5
5
5
5
5
5
5
5
5
5
5
5
5
5
5
5
5
5
5
5
5
5
5
5
5
5
5
5
5
5
5
5
5
5
5
5
5
5
5
5
5
5
5
5
5
5
5
5
5
5
5
5
5
5
5
5
5
5
5
5
5
5
5
5
5
5
5
5
5
5
5
5
5
5
5
5
5
5
5
5
5
5
5
5
5
5
5
5
5
5
5
5
5
5
5
5
5
5
5
5
5
5
5
5
5
5
5
5
5
5
5
5
5
5
5
5
5
5
5
5
5
5
5
5
5
5
5
5
5
5
5
5
5
5
5
5
5
5
5
5
5
5
5
5
5
5
5
5
5
5
5
5
5
5
5
5
5
5
5
5
5
5
5
5
5
5
5
5
5
5
5
5
5
5
5
5
5
5
5
5
5
5
5
5
5
5
5
5
5
5
5
5
5
5
5
5
5
5
5
5
5
5
5
5
5
5
5
5
5
5
5
5
5
5
5
5
5
5
5
5
5
5
5
5
5
5
5
5
5
5
5
5
5
5
5
5
5
5
5
5
5
5
5
5
5
5
5
5
5
5
5
5
5
5
5
5
5
5
5
5
5
5
5
5
5
5
5
5
5
5
5
5
5
5
5
5
5
5
5
5
5
5
5
5
5
5
5
5
5
5
5
5
5
5
5
5
5
5
5
5
5
5
5
5
5
5
5
5
5
5
5
5
5
5
5
5
5
5
5
5
5
5
5
5
5
5
5
5
5
5
5
5
5
5
5
5
5
5
5
5
5
5
5
5
5
5
5
5
5
5
5
5
5
5
5
5
5
5
5
5
5
5
5
5
5
5
5
5
5
5
5
5
5
5
5
5
5
5
5
5
5
5
5
5
5
5
5
5
5
5
5
5
5
5
5
5
5
5
5
5
5
5
5
5
5
5
5
5
5
5
5
5
5
5
5
5
5
5
5
5
5
5
5
5
5
5
5
5
5
5
5
5
5
5
5
5
5
5
5
5
5
5
5
5
5
5
5
5
5
5
5
5
5
5
5
5
5
5
5
5
5
5
5
5
5
5
5
5
5
5
5
5
5
5
5
5
5
5
5
5
5
5
5
5
5
5
5
5
5
5
5
5
5
5
5
5
5
5
5
5
5
5
5
5
5
5
5
5
5
5
5
5
5
5
5
5
5
5
5
5
5
5
5
5
5
5
5
5
5
5
5
5
5
5
5
5
5
5
5
5
5
5
5
5
5
5
5
5
5
5
5
5
5
5
5
5
5
5
5
5
5
5
5
5
5
5
5
5
5
5
5
5
5
5
5
5
5
5
5
5
5
5
5
5
5
5
5
5
5
5
5
5
5
5
5
5
5
5
5
5
5
5
5
5
5
5
5
5
5
5
5
5
5
5
5
5
5
5
5
5
5
5
5
5
5
5
5
5
5
5
5
5
5
5
5
5
5
5
5
5
5
5
5
5
5
5
5
5
5
5
5
5
5
5
5
5
5
5
5
5
5
5
5
5
5
5
5
5
5
5
5
5
5
5
5
5
5
5
5
5
5
5
5
5
5
5
5
5
5
5
5
5
5
5
5
5
5
5
5
5
5
5
5
5
5
5
5
5
5
5
5
5
5
5
5
5
5
5
5
5
5
5
5
5
5
5
5
5
5
5
5
5
5
5
5
5
5
5
5
5
5
5
5
5
5
5
5
5
5
5
5
5
5
5
5
5
5
5
5
5
5
5
5
5
5
5
5
5
5
5
5
5
5
5
5
5
5
5
5
5
5
5
5
5
5
5
5
5
5
5
5
5
5
5
5
5
5
5
5
5
5
5
5
5
5
5
5
5
5
5
5
5
5
5
5
5
5
5
5
5
5
5
5
5
5
5
5
5
5
5
5
5
5
5
5
5
5
5
5
5
5
5
5
5
5
5
5
5
5
5
5
5
5
5
5
5
5
5
5
5
5
5
5
5
5
5
5
5
5
5
5
5
5
5
5
5
5
5
5
5
5
5
5
5
5
5
5
5
5
5
5
5
5
5
5
5
5
5
5
5
5
5
5
5
5
5
5
5
5
5
5
5
5
5
5
5
5
5
5
5
5
5
5
5
5
5
5
5
5
5
5
5
5
5
5
5
5
5
5
5
5
5
5
5
5
5
5
5
5
5
5
5
5
5
5
5
5
5
5
5
5
5
5
5
5
5
5
5
5
5
5
5
5
5
5
5
5
5
5
5
5
5
5
5
5
5
5
5
5
5
5
5
5
5
5
5
5
5
5
5
5
5
5
5
5
5
5
5
5
5
5
5
5
5
5
5
5
5
5
5
5
5
5
5
5
5
5
5
5
5
5
5
5
5
5
5
5
5
5
5
5
5
5
5
5
5
5
5
5
5
5
5
5
5
5
5
5
5
5
5
5
5
5
5
5
5
5
5
5
5
5
5
5
5
5
5
5
5
5
5
5
5
5
5
5
5
5
5
5
5
5
5
5
5
5
5
5
5
5
5
5
5
5
5
5
5
5
5
5
5
5
5
5
5
5
5
5
5
5
5
5
5
5
5
5
5
5
5
5
5
5
5
5
5
5
5
5
5
5
5
5
5
5
5
5
5
5
5
5
5
5
5
5
5
5
5
5
5
5
5
5
5
5
5
5
5
5
5
5
5
5
5
5
5
5
5
5
5
5
5
5
5
5
5
5
5
5
5
5
5
5
5
5
5
5
5
5
5
5
5
5
5
5
5
5
5
5
5
5
5
5
5
5
5
5
5
5
5
5
5
5
5
5
5
5
5
5
5
5
5
5
5
5
5
5
5
5
5
5
5
5
5
5
5
5
5
5
5
5
5
5
5
5
5
5
5
5
5
5
5
5
5
5
5
5
5
5
5
5
5
5
5
5
5
5
5
5
5
5
5
5
5
5
5
5
5
5
5
5
5
5
5
5
5
5
5
5
5
5
5
5
5
5
5
5
5
5
5
5
5
5
5
5
5
5
5
5
5
5
5
5
5
5
5
5
5
5
5
5
5
5
5
5
5
5
5
5
5
5
5
5
5
5
5
5
5
5
5
5
5
5
5
5
5
5
5
5
5
5
5
5
5
5
5
5
5
5
5
5
5
5
5
5
5
5
5
5
5
5
5
5
5
5
5
5
5
5
5
5
5
5
5
5
5
5
5
5
5
5
5
5
5
5
5
5
5
5
5
5
5
5
5
5
5
5
5
5
5
5
5
5
5
5
5
5
5
5
5
5
5
5
5
5
5
5
5
5
5
5
5
5
5
5
5
5
5
5
5
5
5
5
5
5
5
5
5
5
5
5
5
5
5
5
5
5
5
5
5
5
5
5
5
5
5
5
5
5
5
5
5
5
5
5
5
5
5
5
5
5
5
5
5
5
5
5
5
5
5
5
5
5
5
5
5
5
5
5
5
5
5
5
5
5
5
5
5
5
5
5
5
5
5
5
5
5
5
5
5
5
5
5
5
5
5
5
5
5
5
5
5
5
5
5
5
5
5
5
5
5
5
5
5
5
5
5
5
5
5
5
5
5
5
5
5
5
5
5
5
5
5
5
5
5
5
5
5
5
5
5
5
5
5
5
5
5
5
5
5
5
5
5
5
5
5
5
5
5
5
5
5
5
5
5
5
5
5
5
5
5
5
5
5
5
5
5
5
5
5
5
5
5
5
5
5
5
5
5
5
5
5
5
5
5
5
5
5
5
5
5
5
5
5
5
5
5
5
5
5
5
5
5
5
5
5
5
5
5
5
5
5
5
5
5
5
5
5
5
5
5
5
5
5
5
5
5
5
5
5
5
5
5
5
5
5
5
5
5
5
5
5
5
5
5
5
5
5
5
5
5
5
5
5
5
5
5
5
5
5
5
5
5
5
5
5
5
5
5
5
5
5
5
5
5
5
5
5
5
5
5
5
5
5
5
5
5
5
5
5
5
5
5
5
5
5
5
5
5
5
5
5
5
5
5
5
5
5
5
5
5
5
5
5
5
5
5
5
5
5
5
5
5
5
5
5
5
5
5
5
5
5
5
5
5
5
5
5
5
5
5
5
5
5
5
5
5
5
5
5
5
5
5
5
5
5
5
5
5
5
5
5
5
5
5
5
5
5
5
5
5
5
5
5
5
5
5
5
5
5
5
5
5
5
5
5
5
5
5
5
5
5
5
5
5
5
5
5
5
5
5
5
5
5
5
5
5
5
5
5
5
5
5
5
5
5
5
5
5
5
5
5
5
5
5
5
5
5
5
5
5
5
5
5
5
5
5
5
5
5
5
5
5
5
5
5
5
5
5
5
5
5
5
5
5
5
5
5
5
5
5
5
5
5
5
5
5
5
5
5
5
5
5
5
5
5
5
5
5
5
5
5
5
5
5
5
5
5
5
5
5
5
5
5
5
5
5
5
5
5
5
5
5
5
5
5
5
5
5
5
5
5
5
5
5
5
5
5
5
5
5
5
5
5
5
5
5
5
5
5
5
5
5
5
5
5
5
5
5
5
5
5
5
5
5
5
5
5
5
5
5
5
5
5
5
5
5
5
5
5
5
5
5
5
5
5
5
5
5
5
5
5
5
5
5
5
5
5
5
5
5
5
5
5
5
5
5
5
5
5
5
5
5
5
5
5
5
5
5
5
5
5
5
5
5
5
5
5
5
5
5
5
5
5
5
5
5
5
5
5
5
5
5
5
5
5
5
5
5
5
5
5
5
5
5
5
5
5
5
5
5
5
5
5
5
5
5
5
5
5
5
5
5
5
5
5
5
5
5
5
5
5
5
5
5
5
5
5
5
5
5
5
5
5
5
5
5
5
5
5
5
5
5
5
5
5
5
5
5
5
5
5
5
5
5
5
5
5
5
5
5
5
5
5
5
5
5
5
5
5
5
5
5
5
5
5
5
5
5
5
5
5
5
5
5
5
5
5
5
5
5
5
5
5
5
5
5
5
5
5
5
5
5
5
5
5
5
5
5
5
5
5
5
5
5
5
5
5
5
5
5
5
5
5
5
5
5
5
5
5
5
5
5
5
5
5
5
5
5
5
5
5
5
5
5
5
5
5
5
5
5
5
5
5
5
5
5
5
5
5
5
5
5
5
5
5
5
5
5
5
5
5
5
5
5
5
5
5
5
5
5
5
5
5
5
5
5
5
5
5
5
5
5
5
5
5
5
5
5
5
5
5
5
5
5
5
5
5
5
5
5
5
5
5
5
5
5
5
5
5
5
5
5
5
5
5
5
5
5
5
5
5
5
5
5
5
5
5
5
5
5
5
5
5
5
5
5
5
5
5
5
5
5
5
5
5
5
5
5
5
5
5
5
5
5
5
5
5
5
5
POINT_DATA 2538
VECTORS disp float
1.831144258682477e-11 4.6582108318257234e-11 0.0
3.8172095696872644e-11 -1.0432834288464139e-10 0.0
0.004299999985170539 3.904011803534934e-11 0.0
0.0042999999606276925 -1.0875758873275084e-10 0.0
0.0013743590639567805 0.0005723981950065357 0.0
0.003098776691208215 0.00035979632561043934 0.0
0.0021163674890623163 0.00013138357077275848 0.0
5.01265335422158e-12 4.454186005362159e-12 0.0
9.111549984682447e-12 1.1130764168387897e-11 0.0
8.348698795181725e-12 6.901587043237582e-12 0.0
8.200826152997853e-12 6.397413844874019e-12 0.0
7.694538028812882e-12 4.77269039572111e-12 0.0
7.205354754524039e-12 3.430623805041886e-12 0.0
6.757356045540165e-12 2.00967286172425e-12 0.0
6.4003010091576425e-12 5.085677342724644e-13 0.0
5.632908517650327e-12 -1.1420184589071276e-12 0.0
5.91898178319937e-12 -2.6032573923221266e-12 0.0
5.662959771291302e-12 -4.284964225990705e-12 0.0
5.650733376481759e-12 -6.0792929083287e-12 0.0
5.804291684970123e-12 -7.873175526458106e-12 0.0
5.741140141514256e-12 -9.576379196162933e-12 0.0
6.058545793592508e-12 -1.1613215162503879e-11 0.0
6.057853198577796e-12 -1.3342407148326319e-11 0.0
6.395699723648877e-12 -1.536509109902151e-11 0.0
6.5107472409059856e-12 -1.7666896617075926e-11 0.0
6.792496096582465e-12 -1.983235829629472e-11 0.0
7.1003411828134195e-12 -2.242052081791514e-11 0.0
7.500931692751277e-12 -2.5314018019558554e-11 0.0
8.233074820398634e-12 -2.8796763373174606e-11 0.0
8.268219829258626e-12 -3.250322548583778e-11 0.0
1.1188880123872139e-11 -4.087039242661826e-11 0.0
4.835136340953364e-12 -3.750914775944233e-11 0.0
5.324808245750866e-5 -7.157226214223617e-5 0.0
9.199334126789838e-5 -0.00012358793519674262 0.0
0.00012957043267263727 -0.0001689589153511228 0.0
0.00016556727988388507 -0.00021021985248737652 0.0
0.000200467848266446 -0.00024859341280421537 0.0
0.00023499048909847003 -0.0002850246388153277 0.0
0.0002696983486418774 -0.000319670236464028 0.0
0.0003042607420885168 -0.00035280164504842616 0.0
0.0003389748106932593 -0.0003847100694339216 0.0
0.00037392061554607236 -0.0004154039560582358 0.0
0.0004091181088854117 -0.0004451378440902966 0.0
0.0004448227077535596 -0.0004739275279455935 0.0
0.0004807628949622204 -0.0005017708581539824 0.0
0.0005171203905453071 -0.0005288732522216059 0.0
0.0005541055950051078 -0.0005551941386218685 0.0
0.0005913148950846618 -0.0005806969679844977 0.0
0.0006290049047513478 -0.0006055288603161527 0.0
0.0006671616551992288 -0.0006295760072644397 0.0
0.000705757120321207 -0.0006529693408487727 0.0
0.000744809284803979 -0.0006757056197762178 0.0
0.000784365626644406 -0.0006977880109994602 0.0
0.0008243264752030069 -0.0007191984744288234 0.0
0.0008649274418175075 -0.0007400416669010329 0.0
0.0009057896084350093 -0.0007601885113297742 0.0
0.0009473381868632348 -0.0007797506416717437 0.0
0.0009891145888809034 -0.0007986223599000763 0.0
0.0010314198223478897 -0.0008169185918283368 0.0
0.0010740922311924016 -0.0008345137878029656 0.0
0.0011173661009153976 -0.0008515591391892694 0.0
0.0011608393028719136 -0.0008679405560856036 0.0
0.0012049036652803692 -0.0008837453675078238 0.0
0.0012493032838536442 -0.0008988558192231407 0.0
0.0012941413366804484 -0.0009133601315894039 0.0
0.001339269655399243 -0.0009271969750927037 0.0
0.0013849446853395873 -0.000940438695697222 0.0
0.001430780650694615 -0.0009529670437525915 0.0
0.0014770270508916476 -0.0009648602456201734 0.0
0.0015235458002408606 -0.0009760281268340442 0.0
0.001570399108539994 -0.0009865007463268636 0.0
0.001617509666605195 -0.000996354151194219 0.0
0.0016648462165267351 -0.001005433999606882 0.0
0.0017124851115420633 -0.0010138963921924062 0.0
0.001760357259408927 -0.0010216035728301772 0.0
0.0018083613545700331 -0.0010286737731479265 0.0
0.001856592968162542 -0.0010349296420641362 0.0
0.001904814352167669 -0.0010405282405779705 0.0
0.001953237817964194 -0.0010454244084594977 0.0
0.0020016780983424065 -0.0010495276214854536 0.0
0.002050148990841409 -0.0010529822517584399 0.0
0.002098764754829268 -0.0010556390782761737 0.0
0.002146936043588542 -0.0010573910313801777 0.0
0.0021955581216294776 -0.0010585306885292712 0.0
0.002242941055135481 -0.0010587154731109937 0.0
0.0022909331351216294 -0.0010581053953027883 0.0
0.0023367625625228586 -0.0010563484103295491 0.0
0.002384239516593958 -0.0010539314253270892 0.0
0.0024300582953675847 -0.0010504741880410146 0.0
0.002475788354721036 -0.0010453921218250655 0.0
0.002521640170253705 -0.0010393066617186537 0.0
0.002567746859292744 -0.001031539111434804 0.0
0.002613914171372157 -0.0010228011186759701 0.0
0.0026603953198845683 -0.0010127222772873105 0.0
0.002707132987545234 -0.0010017722945573463 0.0
0.00275397337083089 -0.0009896347267263723 0.0
0.002801035038633331 -0.0009766359020987386 0.0
0.002848049962991831 -0.0009630090841500851 0.0
0.0028947444120232062 -0.0009485555028757588 0.0
0.00294128889989907 -0.0009335221948622951 0.0
0.002987706106616615 -0.000917752892730488 0.0
0.0030339037422001066 -0.0009012507302768812 0.0
0.0030796392943872523 -0.0008841863088963006 0.0
0.0031253299769868313 -0.0008663803049432829 0.0
0.003170449288957009 -0.0008479282825163388 0.0
0.003215219967763827 -0.0008289532395543851 0.0
0.0032598060011306985 -0.000809199684808942 0.0
0.0033037823051567483 -0.0007889194439400409 0.0
0.0033474970123126323 -0.0007680011683657523 0.0
0.0033907657375563164 -0.0007464431429004008 0.0
0.0034337410870152454 -0.0007242493703875787 0.0
0.003476315910843965 -0.000701326063146194 0.0
0.003518534806662927 -0.0006777113873097349 0.0
0.0035601701823841517 -0.0006534958848265896 0.0
0.0036015321271228896 -0.0006286073942860763 0.0
0.0036425832015693975 -0.0006029619597117024 0.0
0.003683157196096818 -0.0005765848072711512 0.0
0.0037234440882610792 -0.0005495070870988609 0.0
0.0037635529264554066 -0.0005215304567126529 0.0
0.003803204645375912 -0.0004926884807181995 0.0
0.003842499685402173 -0.00046303281502129177 0.0
0.0038817684360515957 -0.0004323870605178579 0.0
0.003920976814225988 -0.00040059561616852686 0.0
0.0039599009271570635 -0.0003675883092650389 0.0
0.003998643175801599 -0.000333312219023691 0.0
0.0040375385221272765 -0.00029749443447722046 0.0
0.0040770563132608816 -0.00025973323088272727 0.0
0.004116668441312534 -0.00021977530361539648 0.0
0.004156843124032512 -0.0001767107499302168 0.0
0.004199468549752131 -0.0001291375709373327 0.0
0.004243218287570055 -7.462363292060306e-5 0.0
0.004299999994581888 -3.554607446560071e-11 0.0
0.004299999987991692 -3.933765877799275e-11 0.0
0.004299999991356455 -2.8153750440698635e-11 0.0
0.004299999991327294 -2.5083445475409178e-11 0.0
0.0042999999918724285 -2.1490189120982778e-11 0.0
0.00429999999227647 -1.8717811634132294e-11 0.0
0.004299999992434338 -1.6540150970715045e-11 0.0
0.0042999999927195035 -1.4574678554802674e-11 0.0
0.004299999992809856 -1.273978797744357e-11 0.0
0.004299999992969761 -1.095069463646629e-11 0.0
0.004299999993293241 -9.501375590367897e-12 0.0
0.004299999993253905 -7.605933767758791e-12 0.0
0.004299999993415887 -6.188318773248279e-12 0.0
0.0042999999935114915 -4.54049978346877e-12 0.0
0.004299999993535593 -2.966839887136091e-12 0.0
0.004299999993490939 -1.3128440414822518e-12 0.0
0.004299999993497852 3.028314130124581e-13 0.0
0.004299999992888196 2.110431113053388e-12 0.0
0.004299999993282689 3.5607048806612996e-12 0.0
0.004299999992302849 5.394327695056658e-12 0.0
0.004299999992285298 6.5997179017495844e-12 0.0
0.004299999991918681 7.92109898310924e-12 0.0
0.0042999999922206265 8.304244089509953e-12 0.0
0.004299999992007469 1.158923503694083e-11 0.0
0.004299999995748786 5.35309258769665e-12 0.0
0.003983402953841792 0.00023477847235818143 0.0
0.0037060836436528695 0.00034158684667191244 0.0
0.0034530679311917897 0.00038170809642443996 0.0
0.003237292915924722 0.0003781339547069312 0.0
0.0030912390412797357 0.00022896998862320672 0.0
0.003068776931149962 0.0001598666351460858 0.0
0.0030207517546707832 0.00012984298674943818 0.0
0.0029638152329306915 0.00011911437994636838 0.0
0.0028974052566393856 0.00012007952385815541 0.0
0.002825466923797403 0.0001246443812126196 0.0
0.002749125527155156 0.00013024427846568382 0.0
0.00266967353500804 0.0001376943697200398 0.0
0.0025855901986425517 0.00014380927589105464 0.0
0.0024961961757122833 0.00014782619687120732 0.0
0.0023972951799870073 0.00014980241063286561 0.0
0.002278602994706314 0.00015085215594701513 0.0
0.001960946309646387 0.00017207267596984762 0.0
0.001851686416528921 0.00018425591071887887 0.0
0.0017617211716184273 0.0001886446165476384 0.0
0.0016834881478112363 0.00019139170759550426 0.0
0.0016127825437139583 0.00019407655823928938 0.0
0.00154899112143844 0.00019767218748542383 0.0
0.0014919115881553784 0.00020364386791270786 0.0
0.0014434613424207966 0.00021393327773712285 0.0
0.001405718237291242 0.0002341063403002367 0.0
0.0013800768384033164 0.00026928068084229644 0.0
0.0013705030546323242 0.0003288333881795199 0.0
0.00137013376015785 0.0004243922610894347 0.0
0.0012135715863920474 0.0005833492374710933 0.0
0.000979298713422843 0.0005465877655043583 0.0
0.0006810173501741677 0.0004500514689202986 0.0
0.00036012645048242464 0.00029444198349480713 0.0
0.001126371706109403 -0.0008154672285993898 0.0
0.00306967678926237 -0.000844437416602879 0.0
0.001444802522655703 -0.0009200711473364194 0.0
0.002738444777598926 -0.000953894392068145 0.0
0.0017833637138035211 -0.0009887431403652989 0.0
0.0024039074295646445 -0.0010078144642220216 0.0
0.002073493845545698 -0.00101550859906269 0.0
0.0033415084776193403 -0.0007347427527181026 0.0
0.0008795483493240393 -0.0007155234162347527 0.0
0.0035444584814030167 -0.0006266628146902598 0.0
0.0006794508435612148 -0.0006094632018112443 0.0
7.035142209967663e-5 -1.3471378293023968e-5 0.0
0.004228203177502597 -1.2957226913608859e-5 0.0
0.0023053499753785942 0.00016878489784829138 0.0
0.0026391458600426585 0.00016215269616926288 0.0
0.001929550123947851 0.00017931936954400485 0.0
0.001627906055499764 0.00020971090538967038 0.0
0.0037530506078405665 -0.0005006495968728429 0.0
0.0004985330815170807 -0.0004930453891296982 0.0
4.833943616401244e-5 -2.4483525577403873e-5 0.0
0.00425003756053094 -2.214917376560321e-5 0.0
0.004197121254333116 2.9631019041743263e-6 0.0
9.472922114028316e-5 3.535588890960492e-6 0.0
0.003911957106030085 -0.0003819412820053949 0.0
0.00034978910612397125 -0.000372048147279774 0.0
0.002871733350773204 0.0001496809782819199 0.0
0.0014369510997983826 0.0002225998810127713 0.0
3.598312092645426e-5 -2.6729669956042233e-5 0.0
0.00426038648845555 -2.5179712053803043e-5 0.0
0.001640309422544795 -0.0009633894835350951 0.0
0.0019268390880585308 -0.0010056559423939448 0.0
0.0025954518928383154 -0.0009840164751186244 0.0
0.002223034648858977 -0.0010160406186479354 0.0
0.0028809429578932817 -0.0009121534988630495 0.0
0.0031979088322846654 -0.0007988927337027548 0.0
0.0013176758944019335 -0.0008838350408123408 0.0
0.0010032821753601766 -0.0007730344477572969 0.0
0.004024337835122463 -0.0002869501441311028 0.0
0.00024329752325835978 -0.0002756685733883309 0.0
0.004168821060261893 2.6721965202807352e-5 0.0
0.0001182958306796279 2.219636011200731e-5 0.0
0.004266897640656041 -2.816400413165277e-5 0.0
3.327597355222441e-5 -3.2624742935276136e-5 0.0
0.0030105645089588766 0.00014997175284270508 0.0
0.0013371194723720305 0.0002594076972151273 0.0
0.004116270947626209 4.992062664262792e-5 0.0
0.00016439728645209847 4.400892672919382e-5 0.0
5.8749578763693285e-5 -2.041498504739625e-5 0.0
0.004239086649283995 -1.9055541646768903e-5 0.0
0.002470490859913993 0.0001709495683092226 0.0
0.0017754838538023823 0.0002054212963854043 0.0
0.00013452931714794762 -0.0001593689693206481 0.0
0.0041530012542882674 -0.00016235630565726163 0.0
0.0029716317397962522 -0.0008856814129534657 0.0
0.002314565891757383 -0.0010159970310536586 0.0
0.001548406818967452 -0.0009438085123217741 0.0
0.0012197682131688628 -0.0008548728505495477 0.0
0.002502452674714086 -0.000997138992441207 0.0
0.0034209948685261474 -0.0006957390327932911 0.0
0.0007990928547977604 -0.000674078108951592 0.0
0.0036314972014115385 -0.0005784395242885915 0.0
0.0005988503463318474 -0.0005583442730897099 0.0
0.00041985578780948443 -0.0004313132630119978 0.0
0.0038330293643946407 -0.0004426486713645381 0.0
0.0008165003905187847 0.00031238409257847074 0.0
0.0035699552924936466 0.0002513573390117166 0.0
0.004267850701985343 -3.269437360237978e-5 0.0
2.8988548357162454e-5 -3.316199834407089e-5 0.0
0.0012853030220403266 0.0003583886490131591 0.0
0.00312200647364035 0.00020293440435459318 0.0
0.0001866778759148682 7.068876350378289e-5 0.0
0.004111392170406628 6.755748040832773e-5 0.0
5.865865912017226e-5 -7.152845121405012e-5 0.0
0.004234354508152356 -7.458624139684978e-5 0.0
0.003338551291864603 0.0002806468831612779 0.0
0.0034165849858372728 0.00022351327685728585 0.0
0.0036825598201587874 0.00017786563754448485 0.0
0.003531902004927355 0.0001856807913731241 0.0
0.0033274459919596443 0.0002035824006193856 0.0
0.0034027686386541565 0.00019251906458549504 0.0
0.0035980038406353493 0.00016634732489441143 0.0
0.0034763748820672165 0.00017800905921479127 0.0
0.003660404521401942 0.00014747994900844857 0.0
0.0035480608901392262 0.00015779515195782186 0.0
0.0033754595024451284 0.00018325298352930882 0.0
0.003441221273060982 0.00016197472312062892 0.0
0.003292456440522702 0.00018197020883062244 0.0
0.003345592029810269 0.00015917213870888803 0.0
0.0032098848941556654 0.00017598775062641013 0.0
0.003257790767305504 0.00014920073444187976 0.0
0.0022496710416287104 0.00011276315754060661 0.0
0.0021124221224957038 9.032619581115588e-5 0.0
0.0022197996170698277 7.972582346302327e-5 0.0
0.0021087460179942154 6.351285674816244e-5 0.0
0.002202367295344965 5.439223838155274e-5 0.0
0.002106912603898253 4.192500217432028e-5 0.0
0.00219114254961034 3.2859434639693565e-5 0.0
0.002104928963268244 2.201885132627549e-5 0.0
0.0021829823675212573 1.3342281854115375e-5 0.0
0.002103199164011305 3.5354356457067127e-6 0.0
0.0021767952823945483 -4.687294305559885e-6 0.0
0.002101860627763368 -1.379940131737221e-5 0.0
0.0021720214613327685 -2.216696596199152e-5 0.0
0.0021026965948220213 -3.064842290020782e-5 0.0
0.002168291480615808 -3.8960175963159326e-5 0.0
0.002101732120265502 -4.716424433645249e-5 0.0
0.00216490484842418 -5.533770893438971e-5 0.0
0.0020986943162054485 -6.336102841799584e-5 0.0
0.0021615748015237253 -7.149656358058854e-5 0.0
0.0020972563771065734 -7.931104608416657e-5 0.0
0.0021587955712549776 -8.7555014821602e-5 0.0
0.002096098510300731 -9.523221721851683e-5 0.0
0.0021542944681183754 -0.00010349222055461399 0.0
0.0020945918032757127 -0.00011122972757887596 0.0
0.002151622279586505 -0.00011955962123246566 0.0
0.0020942230982756963 -0.00012695321760257207 0.0
0.0021493331673307983 -0.000135731264723591 0.0
0.0020900392088837078 -0.00014217049710922914 0.0
0.0021464558937947876 -0.0001520117741931353 0.0
0.0020748568086796366 -0.00015866324347167928 0.0
0.0021474403373358854 -0.00016884006448117777 0.0
0.0020871116405997508 -0.00017658954270392946 0.0
0.0021448627985845813 -0.00018574747069827788 0.0
0.002087858903782016 -0.00019396334995214434 0.0
0.002143246740876221 -0.00020316240537747083 0.0
0.002090195781323801 -0.0002115359328552906 0.0
0.002141406509350665 -0.00022088283259721452 0.0
0.0020898081373030026 -0.00022975513589331228 0.0
0.0020297722843850177 1.3973555759766466e-5 0.0
0.002139541235647695 -0.0002391204447854644 0.0
0.002034103115145628 -7.017982837322846e-5 0.0
0.002021277796647139 -0.00017180442662991698 0.0
0.0020852144284602323 -0.00024819035859480795 0.0
0.002137282056184012 -0.0002578548999880458 0.0
0.0020807170743825784 -0.00026781132692737554 0.0
0.0020294633303084442 -0.0002563305452708644 0.0
0.002023632846653748 -0.0002769287985760931 0.0
0.0021329282302523507 -0.0002782571866025524 0.0
0.002190165827030987 -0.00026757471703088575 0.0
0.002199655846764037 -0.00017687583926935795 0.0
0.002186121927523339 -0.0002885805968165281 0.0
0.002246786347332714 -0.0002758722518213816 0.0
0.0022407472204008638 -0.00029882703079857494 0.0
0.0019729016457924243 -0.0002648925284083972 0.0
0.001969133224119867 -0.0002851284781082225 0.0
0.0023032141712647104 -0.0002849772058494603 0.0
0.0019151636830422518 -0.0002724178240310556 0.0
0.0019147159028702636 -0.0002936883020399232 0.0
0.002298180239761312 -0.000308223529282606 0.0
0.0023586146824798103 -0.0002954324753336547 0.0
0.0018570350679007212 -0.00028009827045391876 0.0
0.0018552330791976163 -0.00030204534439699684 0.0
0.002354864855161034 -0.0003185608664830603 0.0
0.0024169043296412797 -0.00030498769994823067 0.0
0.001799146048133777 -0.0002877919362461315 0.0
0.001796818975021954 -0.00031109756416718837 0.0
0.0024129920794641506 -0.0003293450188088105 0.0
0.0024765866287488982 -0.0003144101217949758 0.0
0.0017416732285894393 -0.00029429675814553896 0.0
0.0017354996388758725 -0.00031836680367195445 0.0
0.0024734484205264405 -0.0003394246575029056 0.0
0.0025372835851146906 -0.00032362711435305155 0.0
0.0016784857546878291 -0.00030083436234118834 0.0
0.0016738055129402085 -0.0003263414348882059 0.0
0.0016135390416481545 -0.00030894721340732383 0.0
0.0016178597221209988 -0.00028193331796899624 0.0
0.002403897642809075 -0.00035339942927672144 0.0
0.0025338461213782054 -0.00034965725140398315 0.0
0.0025988496488751098 -0.00033269551585435813 0.0
0.0026033437272893665 -0.00030600794567957595 0.0
0.002212978369745533 -9.625640935052061e-5 0.0
0.002667275911889655 -0.0003145950818936183 0.0
0.002672313096575039 -0.00028693419335314255 0.0
0.002738165024137074 -0.00029464609892639206 0.0
0.0016138791737768862 -0.0003365651644041733 0.0
0.0015509340763287588 -0.0003162245001419231 0.0
0.0016729831342026048 -0.0003537914798910653 0.0
0.0025935459549372925 -0.0003601231478858293 0.0
0.0015519951674060376 -0.00034462672919070175 0.0
0.0014883504043136343 -0.0003227249409573093 0.0
0.0022386058834518 -2.924423200993645e-5 0.0
0.0014891339117717073 -0.00035059924849548894 0.0
0.001425634410100593 -0.00032833893087674256 0.0
0.001426566115982911 -0.0003569553680039129 0.0
0.0013639390174114917 -0.0003326086748994173 0.0
0.0013616187837330786 -0.0003047085032188453 0.0
0.0012963189967225835 -0.0003097751234374213 0.0
0.0012949209493183312 -0.000280304605578922 0.0
0.001357386236052597 -0.00036099476071195985 0.0
0.0012248860892404576 -0.0002857345197753847 0.0
0.0012229427404447763 -0.00025555857354858576 0.0
0.0014279411185240877 -0.0003872811909250792 0.0
0.0013690716478555094 -0.0003936701096705201 0.0
0.0011546037390300226 -0.0002586344523509668 0.0
0.0011503513904725722 -0.0002292796963069046 0.0
0.0027450814234515563 -0.00026667553505270637 0.0
0.002813447133327938 -0.00027402207648536347 0.0
0.0014290961877338419 -0.00041803714346328016 0.0
0.001370895356046727 -0.0004242702691696218 0.0
0.0028211563999875353 -0.0002452222422235031 0.0
0.0028926893450178337 -0.00025282120648808344 0.0
0.002882061360450146 -0.000284400315075994 0.0
0.0029616726384653395 -0.00026147739961227 0.0
0.002952390836693279 -0.00029384285181831293 0.0
0.0030319492717196094 -0.00026842217655279787 0.0
0.0030267139423954224 -0.00030057509654436487 0.0
0.003108762838619883 -0.000271852348213215 0.0
0.0030966845101317382 -0.00030469335453454254 0.0
0.0031140130006081426 -0.00024105188743613786 0.0
0.0031799146088484155 -0.0002764932254136503 0.0
0.0031635832894947686 -0.0003091988362450484 0.0
0.0014308432941387691 -0.00044940131620127387 0.0
0.0010784488919570615 -0.000231642075676253 0.0
0.001072850568206336 -0.00020190306336060284 0.0
0.003087290713512813 -0.00033840627623142556 0.0
0.003151719315961514 -0.0003424210645033168 0.0
0.003226745280527431 -0.0003127716889925927 0.0
0.003080873229434759 -0.0003729114119973634 0.0
0.0013739479486145887 -0.0004558531020060657 0.0
0.0032151664831354693 -0.00034552573177484727 0.0
0.003288433863689686 -0.0003150807277504231 0.0
0.0014323700832568232 -0.00048168073504036653 0.0
0.0013764927101045095 -0.0004883681945306274 0.0
0.0013189981251791104 -0.00046149099624809915 0.0
0.0032763463363984276 -0.00034740774164973874 0.0
0.003348587348595025 -0.00031580567310248743 0.0
0.0014336513742714432 -0.0005149697544426528 0.0
0.0014889689870970966 -0.0005078137861480699 0.0
0.001322126193179313 -0.0004942864883578935 0.0
0.0012651576259736055 -0.00046651068917636393 0.0
0.003334344298480254 -0.0003482596306398024 0.0
0.003408154403812436 -0.0003153830275038603 0.0
0.0034215913831398322 -0.00028391919037024495 0.0
0.0032618093464366203 -0.00038128207294163904 0.0
0.0034811967949051927 -0.0002823564568976215 0.0
0.0034966782092175856 -0.00025166182304059247 0.0
0.0009967140247127725 -0.00020414487834459418 0.0
0.000995190853326188 -0.00017353213594150838 0.0
0.0010864719985353676 -0.00017296892784700554 0.0
0.0009908508452815647 -0.00014359051967832563 0.0
0.0010783970030703032 -0.00013861352734648814 0.0
0.0009856092816637773 -0.00011240186651533275 0.0
0.0010706938083331619 -0.00010583859202461427 0.0
0.0014900874979525964 -0.0005414301416747882 0.0
0.0015440881934152672 -0.0005336324357378339 0.0
0.0012685846788784325 -0.0004995778979452692 0.0
0.0012121480631394523 -0.00047082290026338194 0.0
0.0034668522586440726 -0.0003138322232188644 0.0
0.000989510006878394 -8.137611257091368e-5 0.0
0.001069957107544098 -7.340476774654108e-5 0.0
0.001545228053940778 -0.0005672842041893262 0.0
0.0015979874493990342 -0.0005593018649465467 0.0
0.0018634699365799236 -0.000323318470721846 0.0
0.0035391006732316023 -0.00027975592453023147 0.0
0.0022772211195860965 4.829632975878042e-5 0.0
0.002369106912045135 0.0001497438712175104 0.0
0.002034900160189511 -0.0001182795634706876 0.0
0.002897290723848148 -0.00022333324531285367 0.0
0.0009816802937437942 -4.8385654346627926e-5 0.0
0.0010755448307756899 -3.9697718000698396e-5 0.0
0.0012160262338068422 -0.000504135447070326 0.0
0.0011604041942840338 -0.00047462299409605104 0.0
0.0015998749479332267 -0.000593111398236244 0.0
0.0016522298919340649 -0.0005847682105866176 0.0
0.003523324178162619 -0.00031085356867454185 0.0
0.0009161431985994222 -0.00017586603170761437 0.0
0.0009200473749502967 -0.00020668489983887163 0.0
0.0008883220870392008 -8.580885363007768e-5 0.0
0.0035950805659725952 -0.0002758645242078022 0.0
0.0009806173429426242 -1.6698811730149302e-5 0.0
0.0010751117751421355 -5.070412480456005e-6 0.0
0.0015478417126806078 -0.0006019854495089826 0.0
0.0011649774016944466 -0.0005083807703992738 0.0
0.0011096603007605605 -0.0004776098852637218 0.0
0.002826083017701894 -0.00021635796803950316 0.0
0.002905556816332449 -0.00019360512859832707 0.0
0.0028301537632889665 -0.00018676323614994986 0.0
0.002914108225170911 -0.00016376181123509563 0.0
0.0016533657962373863 -0.0006184540153453638 0.0
0.0017062295581384203 -0.0006088326472572101 0.0
0.0018038860096537376 -0.0002669528525153842 0.0
0.000979309613335077 1.436885835897836e-5 0.0
0.0010715052606172933 2.864366897496778e-5 0.0
0.003579700239903297 -0.00030592798325532444 0.0
0.003514999207988094 -0.0003384460624949783 0.0
0.0009576771968176917 4.743316801798222e-5 0.0
0.001064579811522829 6.34554717095821e-5 0.0
0.003648944333538269 -0.000271061873112355 0.0
0.003657047327614255 -0.000248340261065737 0.0
0.0009682574176096772 7.918953892422652e-5 0.0
0.0012186670790609645 -0.0005412613126146378 0.0
0.0017064622802510677 -0.0006434448482158629 0.0
0.0017589775392024103 -0.0006323908476141307 0.0
0.0017594919225011633 -0.0005981003228475513 0.0
0.0018121979678750442 -0.0006208405292847904 0.0
0.0018132160918666403 -0.0005869811465889978 0.0
0.0018662019987856057 -0.0006088024795181928 0.0
0.0018675232898413701 -0.0005749342914355074 0.0
0.0019213294462375142 -0.0005961339793494454 0.0
0.0019230939096714422 -0.0005624664031908462 0.0
0.0019773469941830307 -0.0005827070006965774 0.0
0.0019755201668281933 -0.0006172442799527966 0.0
0.0020312922843321946 -0.0006029310496621245 0.0
0.002029151559129809 -0.0006380060691505423 0.0
0.0020846824631410407 -0.0006227759620792272 0.0
0.002081883432340241 -0.0006584427714245276 0.0
0.0021378715663622812 -0.0006421960772560643 0.0
0.0019797152221733426 -0.0005493515815261516 0.0
0.0021406674337627494 -0.000606710878619399 0.0
0.0021945630332934093 -0.0006250268221195998 0.0
0.002190985861004637 -0.0006616918687751223 0.0
0.002248363186833995 -0.0006436097066807297 0.0
0.00083795024843069 -0.0001771308052180474 0.0
0.0008414017455429739 -0.00020766790483209784 0.0
0.0011145648277324112 -0.0005114719152840559 0.0
0.0010603586396126614 -0.00048015605814642146 0.0
0.002252532091190351 -0.0006072951232302961 0.0
0.002306281189272608 -0.0006245253805828242 0.0
0.002301349982485118 -0.0006615709698260759 0.0
0.0023602619223502147 -0.0006413018229009929 0.0
0.0007614702189113052 -0.00017732172647252496 0.0
0.0007649320895532591 -0.00020707388913843812 0.0
0.0028347491523418775 -0.00015603435196904174 0.0
0.002924163703259933 -0.00013312211146097451 0.0
0.002842170212603108 -0.0001252789261354944 0.0
0.003635242191847234 -0.0002989224582851394 0.0
0.003701679750419295 -0.00026452087178008174 0.0
0.0017589442709987724 -0.0006680522174406415 0.0
0.001171704892345986 -7.070211374863783e-5 0.0
0.0022387061290737196 -0.00032005241016538655 0.0
0.0023544923274201384 -0.0006789742739517244 0.0
0.0024135404845613546 -0.0006576168523155655 0.0
0.0024181529545630417 -0.0006199820376985111 0.0
0.0024724725593262315 -0.0006348665558696864 0.0
0.002365424239567726 -0.0002709815396521696 0.0
0.0029391112463500956 -0.00010158720062838073 0.0
0.003015217764270429 -0.0001149756726129361 0.0
0.0010656866457699375 9.837392858454704e-5 0.0
0.0010650347469556651 -0.0005137275075476922 0.0
0.0010118843196991678 -0.0004817467295270937 0.0
0.0028519963514562546 -9.338511641235593e-5 0.0
0.002466456188722798 -0.000673482162553641 0.0
0.0025263562803538096 -0.0006502667402423353 0.0
0.0025322510036935083 -0.0006117204394790412 0.0
0.002587385270699454 -0.0006263205909746393 0.0
0.002594488163623983 -0.000588824041084815 0.0
0.0026487592574872595 -0.0006014885187659967 0.0
0.002640464262068638 -0.0006393348767671301 0.0
0.002701260956010095 -0.0006131102099585868 0.0
0.0009644386594270167 0.00010880775651953094 0.0
0.0006873705310511875 -0.00017622613553501586 0.0
0.0006904025869401128 -0.00020465426987726542 0.0
0.0017080009032898805 -0.0006794479198787159 0.0
0.0036856036231641734 -0.0002933483089947119 0.0
0.0037520884968357277 -0.00025698099762167854 0.0
0.002691560027799638 -0.0006510612174132234 0.0
0.0027515824900126175 -0.0006236641799508698 0.0
0.0010673500833579949 0.00013150554830104104 0.0
0.001017193878765359 -0.0005154082652780604 0.0
0.0009640250200365401 -0.00048216901820055013 0.0
0.0011657615710091202 4.293802012857929e-5 0.0
0.0033920679132178723 0.00013259725443300245 0.0
0.0017589448142780054 -0.0007046427436179761 0.0
0.0009619045388909787 0.00013577378847919738 0.0
0.000894118265725897 5.973394941448023e-7 0.0
0.003730055451147283 -0.00029261085203633965 0.0
0.0038007185349716007 -0.00024901985425240634 0.0
0.0038181246056332935 -0.0002209264057004892 0.0
0.0008646971965844505 8.728139812605001e-5 0.0
0.003659953933536596 -0.0003272999709994393 0.0
0.0006795074147634888 -0.00014812034721513082 0.0
0.001065748207484762 -0.0005458280063493965 0.0
0.0029536360683533086 -6.907952502513743e-5 0.0
0.002863563925726402 -6.0402877509676815e-5 0.0
0.0026573276928322544 -0.0005646608445632131 0.0
0.0009698989525086716 -0.0005166360798509332 0.0
0.0009168475030290935 -0.00048238887275831916 0.0
0.0006155237024393592 -0.0001736402449689267 0.0
0.0006180245067438941 -0.000200286397636957 0.0
0.0011562328340343332 -0.00044275146942554994 0.0
0.002740494849593897 -0.0006615921879915641 0.0
0.002799916427653915 -0.0006327544329707313 0.0
0.0009108346540822339 -0.0004486287792949475 0.0
0.0008634731007674684 -0.0004478495079566432 0.0
0.0026843366552156646 -0.0006872319023589258 0.0
0.0017098701153506408 -0.0007163889179215226 0.0
0.0008704434685875896 -0.00048215421581730163 0.0
0.0008172669386779678 -0.00044663048062898843 0.0
0.0018131693419678764 -0.0005546523708390235 0.0
0.0038669485629364733 -0.00021125724526637973 0.0
0.0038843714767221116 -0.00018603550112210283 0.0
0.0038502265165527615 -0.0002381121264242847 0.0
0.002787270397154877 -0.0006701851229301963 0.0
0.0028464590124891625 -0.0006402843246663394 0.0
0.002601197881363581 -0.00055227973229626 0.0
0.002665330840735909 -0.0005288838986018438 0.0
0.0017594680806344147 -0.0007420084953259631 0.0
0.0028595268013046522 -0.0006034076695683029 0.0
0.0029063956776759687 -0.0006104906789226349 0.0
0.0005448826485490764 -0.0001684346555246052 0.0
0.0005502466538852026 -0.0001942540460256328 0.0
0.0028926346159495837 -0.0006481047572247765 0.0
0.0029516636518282864 -0.0006173817754748265 0.0
0.0008257855325930443 -0.0004815351642480786 0.0
0.0007725398206937735 -0.00044494054942826645 0.0
0.0029685171335917127 -3.5536848961041644e-5 0.0
0.002877509922407245 -2.6338172940590333e-5 0.0
0.0007634576420726407 -0.00041162570769820466 0.0
0.0007185721710514241 -0.0004085315525807416 0.0
0.0007273681265376059 -0.00044235320292307584 0.0
0.0006737011056319967 -0.00040490732932001525 0.0
0.003914084627305317 -0.00020035505679929244 0.0
0.003896909477921048 -0.0002270122995453878 0.0
0.0010641240605595006 0.00015943959464935454 0.0
0.0009497531556723136 0.0001583313628543052 0.0
0.002759791989721884 -0.00011613369637205942 0.0
0.0017116601562675935 -0.0007540806508436892 0.0
0.0029376452048762635 -0.0006561804187812182 0.0
0.00299550972747753 -0.0006241820011223647 0.0
0.003124270510960891 0.00016544146343821508 0.0
0.002920167722039533 -0.0005737207016249066 0.0
0.0020272138371596475 -0.0006741055431202774 0.0
0.0006634031516308085 -0.00037272168502053705 0.0
0.000619881500160428 -0.00036746348286458523 0.0
0.0006303920562714 -0.00040087329195875957 0.0
0.0005764411085447214 -0.00036200523336770194 0.0
0.0005659359376520793 -0.00033047221712460676 0.0
0.0005211987505773616 -0.0003237574233155095 0.0
0.0005103593052823199 -0.0002928859642696742 0.0
0.0004650227067938753 -0.0002846076669461929 0.0
0.00045424218679996167 -0.00025565971388938217 0.0
0.000411492401392126 -0.0002467069653247043 0.0
0.00040000606057201843 -0.0002199946838592604 0.0
0.0004214252513854766 -0.0002747551055395602 0.0
0.0003633642134284692 -0.00023083169126124646 0.0
0.0004792608409560411 -0.00016196014892452354 0.0
0.0004779573463096477 -0.00013898173492597917 0.0
0.0003784462958135081 -0.0002635132986089635 0.0
0.0003254105635038599 -0.00022300682931978904 0.0
0.0011696352732199276 0.00015248153556389674 0.0
0.0012813340065316995 -0.00024821356697999193 0.0
0.0026082309910262723 -0.0005170267281080404 0.0
0.0026723878238685086 -0.0004942542242005077 0.0
0.000763753816861578 -0.0002351096891177041 0.0
0.0017599187735165844 -0.0007803203490562756 0.0
0.0018081188074816079 -0.0007675976931506421 0.0
0.0027298802131548038 -0.0005049117812023702 0.0
0.002737379327293511 -0.0004704856495878647 0.0
0.003959401859220132 -0.0001881531603956469 0.0
0.003939445612056513 -0.0002158422458640921 0.0
0.0038784464908307296 -0.0002574946174254511 0.0
0.0027722526707835244 -5.1499085480605954e-5 0.0
0.0027852221122993577 -1.742826883544529e-5 0.0
0.0016624634145793171 -0.0007276321790399669 0.0
0.0016645043261787572 -0.0007654268118299172 0.0
0.0016160562790809951 -0.000738521507883534 0.0
0.0005891877339726418 -0.00039637878996483727 0.0
0.0028928296984907153 8.797408389779375e-6 0.0
0.002799925649594493 1.8662008710859e-5 0.0
0.0011553982565034645 -0.0002901882492262888 0.0
0.002980415571980526 -0.0006640018398882596 0.0
0.0030384202757962105 -0.0006308201787268241 0.0
0.0030540909932791653 -0.000592520807668547 0.0
0.0030967098986414013 -0.000597933762467388 0.0
0.0010875817782012643 0.00018580937713551075 0.0
0.0009509597232334461 0.0001789275451243743 0.0
0.001595239292708137 -0.0005269335437507132 0.0
0.0029239066399818375 -0.0006968801132067779 0.0
0.003602902277278929 0.00013483979249099195 0.0
0.0030803604878879834 -0.0006384245969467577 0.0
0.0031390338112603586 -0.000604197783995241 0.0
0.003155325735823496 -0.0005647555123151907 0.0
0.0031981666333903264 -0.0005698742169653774 0.0
0.0032153042288229888 -0.0005309348791749675 0.0
0.0032575724471586576 -0.0005350869823658707 0.0
0.0032399130887271173 -0.0005756611063651084 0.0
0.0032986155030588415 -0.0005397750287511495 0.0
0.0003373974274932699 -0.0002496224025336458 0.0
0.0002858080810919895 -0.00020860982868114284 0.0
0.0002674534946914249 -0.00018004636387208318 0.0
0.001808405496608704 -0.0008064111853166013 0.0
0.0018546513721630826 -0.0007947003455834052 0.0
0.0016187348991527906 -0.0007764868991012529 0.0
0.0015704784248435552 -0.0007487549039528944 0.0
0.003918385607056209 -0.00024810373111573865 0.0
0.003978417020506905 -0.0002049240127448332 0.0
0.00307986797977454 0.0001892569611371391 0.0
0.0029981180874691336 0.0001785208865830785 0.0
0.0008264050922004298 0.00015046535289308882 0.0
0.0008248911417630777 0.00016821828136357253 0.0
0.00039114476600563187 -0.0002945530194228298 0.0
0.001488855889423558 -0.00041114915401443177 0.0
0.0027382688108570914 -0.00018194944309633297 0.0
0.0038591208116721854 -0.0002918803558628705 0.0
0.0011594550185213502 -0.00012737544383003129 0.0
0.002680861259119414 -4.309894555216485e-5 0.0
0.0032793381971436587 -0.0005822170937779233 0.0
0.003337823644875946 -0.0005451013433871583 0.0
0.003284600704897293 0.00011899334526718243 0.0
0.0034358277371480655 0.00010329986645423747 0.0
0.0010706067153296779 0.00020404924926335354 0.0
0.0006199146037215077 -0.00022671733637386163 0.0
0.0004051611504668682 -0.00013045875325717752 0.0
0.00040524217493439737 -0.00010967305366495523 0.0
0.0006408954843300252 -0.0004360632864414815 0.0
0.003125573059141907 -0.0006465841349609161 0.0
0.002526587506793583 -0.0003763145045067853 0.0
0.002297196536347104 -0.0006997952744786937 0.0
0.0014377707194250305 -0.0005476977443515277 0.0
0.0002978666517251123 -0.00023461504870400405 0.0
0.00024813803067181043 -0.0001929250736910677 0.0
0.0008788433641060528 -0.0005182308440155105 0.0
0.0027956625914606187 -0.0004800293840754648 0.0
0.0028036522091454403 -0.0004460022081232131 0.0
0.0016648068136738063 -0.0008047240866874833 0.0
0.0033505378316674088 8.577538986465788e-5 0.0
0.0034800068145709896 7.427461452918158e-5 0.0
0.0034002047188752115 5.408116798738885e-5 0.0
0.0035257780207457712 4.503038927306162e-5 0.0
0.003602941749045673 6.321921479238306e-5 0.0
0.0036478344443573747 3.682367828457882e-5 0.0
0.003569658856849572 1.6120764668191564e-5 0.0
0.003687807886746489 1.1105221068938527e-5 0.0
0.003610428147950123 -1.1284667483404327e-5 0.0
0.003726326882883908 -1.2763398840629819e-5 0.0
0.0036510752204797817 -3.7075892309622885e-5 0.0
0.0037621732605909383 -3.4524769549353234e-5 0.0
0.0036891519334485744 -6.0873101188977355e-5 0.0
0.003796500266442069 -5.424294780282176e-5 0.0
0.0035734877504878127 -6.608591237635817e-5 0.0
0.0037255131469694715 -8.177068939588552e-5 0.0
0.0038264705633445245 -7.226331627223313e-5 0.0
0.0037266481411700517 5.1571491991616336e-5 0.0
0.0008554826296301097 -0.0004146086555301366 0.0
0.0008353056814350482 -0.0005180637424284843 0.0
0.0008864055101626418 -0.0005551745682526751 0.0
0.0037602949233614172 -0.00010028441794319614 0.0
0.003856155790043124 -8.763353051734675e-5 0.0
0.0036644797373094487 -0.00011082813180431256 0.0
0.0023485864491401575 -0.0007176514012027299 0.0
0.002291921892808159 -0.0007386105753344775 0.0
0.0023422498671536113 -0.0007569340235678304 0.0
0.0022871851287337053 -0.000778257682392863 0.0
0.0023359579005759953 -0.0007970056383601716 0.0
0.0022830764734358485 -0.0008186967552876194 0.0
0.002234327548313782 -0.0007991796267494046 0.0
0.0022312549773752404 -0.0008396052503576118 0.0
0.0021838318307023856 -0.0008191614962001673 0.0
0.001992287542882927 8.200885154494268e-5 0.0
0.0023301345861266773 -0.0008381193508011982 0.0
0.0023823736269030517 -0.0008152132157299042 0.0
0.0019621588175165084 -0.00030723517696715945 0.0
0.0019247046126011102 -0.0005299179920705224 0.0
0.0019820482047341356 -0.000517123453573399 0.0
0.0019263124980614782 -0.0004984399105847532 0.0
0.0019843223974243306 -0.0004860245634051697 0.0
0.001927977947689844 -0.0004680806499811788 0.0
0.0019865841702175558 -0.0004561049049898561 0.0
0.0020431581789836528 -0.00047313993184656305 0.0
0.0020459111150660566 -0.00044368833906938484 0.0
0.002102716281450063 -0.0004598481195127426 0.0
0.0021057744324909085 -0.00043084195646478504 0.0
0.0021603011395189297 -0.00044604264543586964 0.0
0.00204878398092242 -0.0004145415326890014 0.0
0.0019297170984470897 -0.0004388063275965534 0.0
0.0018709313903458574 -0.0004499749444034705 0.0
0.002156728754322005 -0.0004762473233043123 0.0
0.0022172974189046683 -0.00045975373373396375 0.0
0.0008446299431601784 -0.0005555515124065392 0.0
0.0020331422718537096 -0.0002024532102541567 0.0
0.002033431661228826 -2.3146743692348984e-5 0.0
0.0023112649458365856 -0.0005889036102512711 0.0
0.003976708844231219 -0.00016475644014529196 0.0
0.004019757374833278 -0.00015206054352236343 0.0
0.0022273796042973507 -6.256028691042841e-5 0.0
0.002207967418008685 -0.00012552144031496908 0.0
0.003171211085531311 -0.0005271795754491894 0.0
0.002726851453498128 -0.00032331045246703345 0.0
0.003958361451636412 -0.00023623610965390108 0.0
0.004015206355750437 -0.00019327422058422526 0.0
0.0021980770629667456 -0.00021254941675439605 0.0
0.0015735808862192941 -0.000787110398027284 0.0
0.0015255705541998483 -0.0007586577540100693 0.0
0.002256286403969672 6.060358292875618e-6 0.0
0.0021808176146595176 -0.0008597161572920596 0.0
0.002133322262836051 -0.0008367710817771529 0.0
0.0015225520091090069 -0.000720747562148872 0.0
0.001477204908954735 -0.0007299680840663007 0.0
0.0014739935502885479 -0.0006924384041836596 0.0
0.0014284438133655075 -0.000700870939132976 0.0
0.0014325102234249828 -0.0007388958583038116 0.0
0.0013839553366751852 -0.0007089804039170764 0.0
0.0013884218612590722 -0.0007474539962729181 0.0
0.0013399306569093195 -0.0007167863167859098 0.0
0.0006022431650330339 -0.0004325471813994413 0.0
0.004036974585893724 -0.00013137209475947868 0.0
0.002907785944065401 4.502114039748255e-5 0.0
0.002812441990719037 5.4187948137194816e-5 0.0
0.0013187555253572551 -0.00040021947017008445 0.0
0.0010609632719220418 -0.0004476954111744896 0.0
0.003890593390414888 -4.956958720340008e-5 0.0
0.0038385820836432673 -1.4862842647812239e-5 0.0
0.0018540126919915157 -0.0008332264263085408 0.0
0.0019014183342285897 -0.0008202822167772297 0.0
0.002964981509297387 -0.0007058478899073809 0.0
0.0005590815925177412 -0.0003000789929959638 0.0
0.0024808382288670555 -0.0002906009032509544 0.0
0.0027076787020054 2.7251716756335975e-5 0.0
0.0027189941761721335 6.263287804420869e-5 0.0
0.0032329458494145115 -0.0004938795002967826 0.0
0.0032993656405864184 -0.0002832350563187761 0.0
0.003357764917275287 -0.0005042863758942262 0.0
0.003397655414032073 -0.0005075347984982044 0.0
0.0033753715161002457 -0.000551412213516485 0.0
0.0034359825014839873 -0.0005120508352045313 0.0
0.0019250497883605432 -0.0002523987694768756 0.0
0.0006511368657256074 -0.0004723732896614276 0.0
0.002160136005951544 -0.0004166651222784399 0.0
0.003491711623980511 -1.1304972466830133e-5 0.0
0.0018646915059568584 -0.0007570585674232176 0.0
0.0008932665980750117 -0.0005927413317166296 0.0
0.0009352418384070087 -0.0005921292203011703 0.0
0.002910125291333737 -0.0007391885584958598 0.0
0.0014243654984131952 -0.0006640126842675412 0.0
0.0026144913711481596 -0.000483051146469906 0.0
0.0025506450336314976 -0.0005044903244141248 0.0
0.003995062166702278 -0.00022481096029377016 0.0
0.004051525567469562 -0.00017979940087773117 0.0
0.0040695490733094735 -0.00015390143160509036 0.0
0.0012009156061589844 0.0002114922742660338 0.0
0.0002603334173545741 -0.00021771065063493834 0.0
0.00021166150243608937 -0.00017450874821705703 0.0
0.00020466166070002773 -0.0001560830660536549 0.0
0.002956611977679952 0.00019946738215448044 0.0
0.003032227226444094 0.00020409225988610193 0.0
0.002877350525150871 0.0001888330220360598 0.0
0.00306027117435237 -4.491846844276478e-5 0.0
0.0037941918700997554 -0.0001147200514898571 0.0
0.0038880384598528202 -9.929506036669759e-5 0.0
0.0015292022281308804 -0.0007975196671598213 0.0
0.0029976553813494114 -0.00017039391837809682 0.0
0.0006979765595888422 0.0001378441745977908 0.0
0.000689169137358699 0.00015157547091785258 0.0
0.0008243103929907388 0.00018330950325249514 0.0
0.0006761052212624441 0.0001623808592137445 0.0
0.0008662679507650737 0.00020585383695139847 0.0
0.0021314338871766905 -0.0007956010412223254 0.0
0.0013344339022687167 -0.0006789462252038199 0.0
0.0012915621061378346 -0.0006860422067808331 0.0
0.0012968283992265117 -0.0007243588453595309 0.0
0.001248980332486935 -0.0006929693515248959 0.0
0.0034565874163345065 -0.0004702756580196731 0.0
0.003494764366808231 -0.0004737173461817769 0.0
0.0034741086128572294 -0.0005172169518587842 0.0
0.003531469422411555 -0.00047776691169029744 0.0
0.00274380338908904 -0.00043675231962208194 0.0
0.0028109715318226937 -0.00041308036666938916 0.0
0.0023759099232089635 -0.0008566019294668848 0.0
0.0024269868096724063 -0.0008325173091832558 0.0
0.0018723551702936997 -0.00042102420923398695 0.0
0.0018132633159895339 -0.0004314913685831674 0.0
0.0018024353375606166 -0.0008472312764517297 0.0
0.0012543218234170826 -0.0007310839325193899 0.0
0.0012073989135306497 -0.0006994371865050986 0.0
0.003818651326149473 -0.0003001603369201096 0.0
0.0037987164179302886 -0.0003370776933893857 0.0
0.0037597773282032126 -0.00034345101581048567 0.0
0.0037450385735718936 -0.0003786011936103273 0.0
0.0019002942314869087 -0.0008619188937726116 0.0
0.0003057307193882508 -0.00026002932584022665 0.0
0.0004464815109200284 -0.00022957166043576492 0.0
0.0003858572483857206 -0.00019364102492576727 0.0
0.0003297690784630932 -0.00010031561711352297 0.0
0.00032593047669389236 -8.17379905810136e-5 0.0
0.0004061841471124332 -8.894384658384597e-5 0.0
0.00032388581602481136 -6.374872545141273e-5 0.0
0.0004072838945436554 -6.794181179373012e-5 0.0
0.0003222620106397457 -4.6022212242694354e-5 0.0
0.00040986278033154687 -4.6897770091581495e-5 0.0
0.003837987322036439 -0.00032967515629116364 0.0
0.0012416959799495721 -0.0006558224222082015 0.0
0.003187314653348556 -0.0004918762151104968 0.0
0.0028686029313653464 -0.000727919210416275 0.0
0.0028560451056263633 -0.0007722737546863138 0.0
0.0028153059229370767 -0.0007604462314612416 0.0
0.0021315522119735534 -0.0008783934001819919 0.0
0.0029823340498326533 3.138240628857031e-5 0.0
0.003510952620751253 -0.0005228189588277686 0.0
0.004105706971693374 -0.00013824247018256336 0.0
0.004086652314908927 -0.00016472089741775587 0.0
0.001182230549795316 0.0002234741099691834 0.0
0.002898115794653289 7.778585232567671e-5 0.0
0.002256441999821063 -0.000572418150223075 0.0
0.0023147621120429038 -0.000554551788107881 0.0
0.002229935926729463 -0.0008814733752837334 0.0
0.002084519786056841 -0.0008543912821335517 0.0
0.0009303953516226997 -0.00024189598156120523 0.0
0.003946050365839207 -7.460390765180788e-5 0.0
0.003975642400836264 -8.298550651498686e-5 0.0
0.003916775157531625 -0.00010873001668263474 0.0
0.00400082533074049 -9.041769987553125e-5 0.0
0.003318505858185218 -0.0003813968782483767 0.0
0.0025139195257308823 -0.0006905006100974331 0.0
0.0025561907392284045 -0.000471376500124226 0.0
0.0018671068983618108 -0.0006441357833788899 0.0
0.0026746702953427126 -0.0002594363658641791 0.0
0.002862341262218274 -0.0004546199951283143 0.0
0.002872087498017052 -0.0005677804979060206 0.0
0.0029336265451316667 -0.0005383932107207265 0.0
0.002903379153464559 0.00020953931687822913 0.0
0.002995470934093613 0.00020841636597065437 0.0
0.0009412415099979994 -0.0006299953100101615 0.0
0.000981408654319952 -0.0006281804477847294 0.0
0.00032131192237846946 -2.8402809184142428e-5 0.0
0.00040936318852813727 -2.5972468784373263e-5 0.0
0.0005003283876594169 -4.5262858375630315e-5 0.0
0.0005029941988649291 -2.0668433413760704e-5 0.0
0.0004111986408294799 -5.656888988182114e-6 0.0
0.0005091541664730791 3.3307535658427537e-6 0.0
0.0004148717675419466 1.3839927025129025e-5 0.0
0.0005182736935633626 2.6910815479074206e-5 0.0
0.00041857052154976 3.250641595743567e-5 0.0
0.00022443518178525814 -0.00019896713189880008 0.0
0.002492546196622596 -0.0004914865202271472 0.0
0.00017733822921639432 -0.00015508862791255485 0.0
0.0008533817114725193 -0.0005937107191085536 0.0
0.004080597439521924 -0.00011696769659644179 0.0
0.00203717723438752 -0.0005356768532489101 0.0
0.0026165268713626505 3.526336178126921e-5 0.0
0.002632213912618304 7.31903586227361e-5 0.0
0.0005261905716832863 4.9946821734571195e-5 0.0
0.0006144024620266151 -0.0004697556781324802 0.0
0.0005663233821363077 -0.0004290383264620424 0.0
0.0013024466793861687 -0.0007700898776903164 0.0
0.0029449539183716996 -0.0007518698218350365 0.0
0.0015763375708245108 -0.0008266559691918636 0.0
0.003567534061104759 -0.0004818771137367373 0.0
0.004123529712501697 -0.00011626822534238984 0.0
0.0018121674519028805 -0.0004609636449372299 0.0
0.0017548011875621146 -0.00044148622139973605 0.0
0.0017538555829202309 -0.000471577864362181 0.0
0.0012978027009460046 0.00022682963696788914 0.0
0.0016998111738491094 -0.00045121521997312254 0.0
0.0003401299433070596 -0.00012116819850044055 0.0
0.0024194160178297283 -0.0008745600645990685 0.0
0.0024703063676415954 -0.0008490391889995429 0.0
0.002478719974091015 -0.0008077220496334846 0.0
0.0025213343623096316 -0.0008229197820277469 0.0
0.0029826494492478563 -0.000543847104126029 0.0
0.0029969701894340867 -0.0005082091640668674 0.0
0.004096006888952372 -0.0001000760125814727 0.0
0.004050783007883695 -0.00011370373375391961 0.0
0.0027510415343086425 0.00010348382578374237 0.0
0.0026512180756157943 0.00011453401405912394 0.0
0.0008057516545116191 -0.0005560504296788901 0.0
0.001212973971987945 -0.0007377787440201118 0.0
0.0011669504598545838 -0.0007057076949500722 0.0
0.002126052803744481 -0.0003004655779401701 0.0
0.0034549039221379685 -0.0005635118562474271 0.0
0.00042352717874525757 5.040964524947714e-5 0.0
0.0011601932158003794 -0.000667263417531093 0.0
0.002511710563004055 -0.0008650404810260763 0.0
0.0025620091758016303 -0.000837555315000583 0.0
0.002496815810168248 -0.00045996800312006605 0.0
0.0024342598494525272 -0.00047809045524695106 0.0
0.002438116150160173 -0.0004475553203144519 0.0
0.0022467715090809096 -0.0002566003014356179 0.0
0.00033369027492702964 -0.00018149955614084687 0.0
0.00019014574893783996 -0.0001786130306340087 0.0
0.0025311925247123233 -0.0007822333204011192 0.0
0.0025890689111156065 -0.0003878387572282254 0.0
0.0020836640358084624 -0.0008964153704268746 0.0
0.0008402669310130869 -0.00014729433029208946 0.0
0.0014897810782506546 -0.0002970824565660238 0.0
0.0006613657368913129 -0.0005114901025109088 0.0
0.0035883612753636624 -0.0004390156674868254 0.0
0.0009067655374063618 -0.0004161697966280104 0.0
0.000848100002896234 -0.00038204053760943033 0.0
0.0009038741612910355 -0.0003840714281664048 0.0
0.0008429198460706553 -0.0003503530045804689 0.0
0.0009002402834121095 -0.00035238555609905443 0.0
0.0007866708248989758 -0.00034761433128633836 0.0
0.0028032905211304976 -0.0008051738233447461 0.0
0.0027661825430418795 -0.0007921253333829335 0.0
0.0005568814579369908 0.00011775415073979303 0.0
0.0021315018163888468 -0.0009202715035153435 0.0
0.0020788031765367233 -0.0006951445805949652 0.0
0.0020249699913683764 -0.0007110080909213273 0.0
0.0009880739238891556 -0.000666761645061356 0.0
0.00026281943802204763 -8.949736189207055e-5 0.0
0.00027818445801770883 -0.00011187148764966574 0.0
0.0038316496657237633 -0.00019626294166727925 0.0
0.0039000615281778285 -0.00016300358907657812 0.0
0.0005950198545165939 -4.0504638977664234e-5 0.0
0.0010276113098594518 -0.0006634550431647313 0.0
0.0010235822375601223 -0.0006279513444665247 0.0
0.0010342079177206895 -0.0007026063202790783 0.0
0.0009493569648776621 -0.000669355135854798 0.0
0.0006890058902706877 0.0001811434694548279 0.0
0.0016132708460528523 -0.0007015823853821818 0.0
0.0024873331627892556 -0.0005251672356547837 0.0
0.003842953641799112 -0.0001731977051180275 0.0
0.002369482296128903 -0.0008994312795755937 0.0
0.0015319583842740134 -0.0008376859674422162 0.0
0.004138461132902856 -0.00012274600679244686 0.0
0.004118915944220081 -0.00014984207642514848 0.0
0.0013238557717979733 0.00021526008187087572 0.0
0.0011738112429363482 -0.0007451818151775754 0.0
0.002749371337122567 -0.0004028927993836556 0.0
0.002822275462679734 -0.0003798213612183296 0.0
0.00043921987144410473 -0.00020433905975325757 0.0
0.0005788730646535487 -0.0004662263857958021 0.0
0.0005323472277593902 -0.00042548061226265214 0.0
0.000518859348519689 -0.0003896810109252215 0.0
0.0008150302094754976 -0.0005945630028180305 0.0
0.0001445011592524558 -0.0001339800475988724 0.0
0.00013448186217080335 -0.00011633277045095231 0.0
0.0025513138224878026 -0.0008808749409585409 0.0
0.0026008462436380156 -0.0008521312093816814 0.0
0.002610705368736101 -0.0008078860243893992 0.0
0.0035156736382253753 -0.0004333260154951944 0.0
0.003475867248154982 -0.00043170874306143784 0.0
0.0034901518614826603 -0.0005710529423048838 0.0
0.0007806777711021431 -0.0003167983989982775 0.0
0.0007257672087936591 -0.0003144284972617704 0.0
0.0028822167269679415 -0.0003885439696125852 0.0
0.004055397233501857 -6.682478154401058e-5 0.0
0.004077504482138988 -7.201904093512255e-5 0.0
0.004104102849612419 -8.747050759715536e-5 0.0
0.004057225561294293 -0.00020629834000140983 0.0
0.00023671336057962786 -0.0002258098607757443 0.0
0.0026676083622697855 -7.275864824127287e-5 0.0
0.002583272203277376 -6.600524110484735e-5 0.0
0.002570368822179146 -9.20961076880706e-5 0.0
0.0024902482561059373 -8.647436730885717e-5 0.0
0.00248257128392625 -0.00011139420517975063 0.0
0.0024957392006062003 -6.212486716468609e-5 0.0
0.0022600308679900745 -0.0005387602266995615 0.0
0.001814280906333408 -0.00040312030726411127 0.0
0.0018739897764124401 -0.00039308161943761035 0.0
0.0005449003651781172 -0.00046233173263801836 0.0
0.0004990258319115101 -0.0004203232447680665 0.0
0.003677440562792278 7.523725998289366e-5 0.0
0.0038038687070203006 6.090276931151719e-5 0.0
0.0038533555690813495 3.827002178686374e-5 0.0
0.003928569274586458 4.5023411386769945e-5 0.0
0.003897119131135165 6.388269535079067e-5 0.0
0.002038865702991665 -0.0008727470167462161 0.0
0.0020389426038659657 -0.000833062846228932 0.0
0.0020371271694907844 -0.000913955077651054 0.0
0.0025251078030041137 4.1661742191562535e-5 0.0
0.0025123294967987794 9.73356582587069e-6 0.0
0.0005956552123301658 -6.792576079575778e-5 0.0
0.00031264788481398173 3.137293156121802e-5 0.0
0.00275215532276566 -0.0008378207488839484 0.0
0.0007003194987039293 0.00012180250654709437 0.0
0.002786577867969535 -0.000514777686570052 0.0
0.0025728656263482785 -0.00011725960759935127 0.0
0.002475420477977056 -0.00013571611084155298 0.0
0.002549543189325418 -0.0001440888702234107 0.0
0.002467949841104847 -0.00015960407268174223 0.0
0.002537989777299478 -0.00016843063981447368 0.0
0.002460998493629715 -0.00018361638627357234 0.0
0.0025289393536282196 -0.00019275959235908792 0.0
0.0024546107422229466 -0.00020796433707116285 0.0
0.002523591521808806 -0.00021736045952791224 0.0
0.0023935553770305334 -0.00015061473478819262 0.0
0.0023863964196057237 -0.00019826138742918843 0.0
0.0028426960321063714 -0.0008185002941753146 0.0
0.004149114821494965 -8.000861715840493e-5 0.0
0.001471335878308735 -0.0006561183089523676 0.0
0.0014197198389370841 -0.0006289939028679569 0.0
0.003936972788966926 -0.0002725588466696733 0.0
0.0017033603370851006 -0.00042586063710761256 0.0
0.0024063981294429335 -0.0001037454207987405 0.0
0.0008572776095863114 0.00022605650584144022 0.0
0.0002476092113296767 -5.705575686206375e-5 0.0
0.001420832515140195 0.00022826130880406611 0.0
0.0014364000158444811 0.00021525494105124128 0.0
0.00321648594941345 9.134354443074197e-5 0.0
0.003972877143068244 -0.0002620626419601066 0.0
0.003917251591395964 -0.00031163315011825107 0.0
0.0016972508141917724 -0.0004815316168420996 0.0
0.0016485488942561185 -0.00045637191663335436 0.0
0.0006994026358183372 -0.00048236592868831403 0.0
0.00015737781642325075 -0.00015629407182456102 0.0
0.00019707579761131988 -7.536449856918446e-5 0.0
0.0002033723439400961 -9.016613750255649e-5 0.0
0.0001128427559913021 -0.0001109499323786041 0.0
0.002945417831732255 -0.000503431811655602 0.0
0.003010147092041859 -0.0004740692019519464 0.0
0.0030626303597828144 -0.00047810987308733865 0.0
0.0030751520892539877 -0.00044380167988514137 0.0
0.0023819301970816197 -0.00022136871175030173 0.0
0.0010214987291511303 0.00024140400342193217 0.0
0.0012991854182936775 0.00023464155787234045 0.0
0.002376110984795162 -0.0004643646650430906 0.0
0.002380563843434815 -0.00043407721836202106 0.0
0.0018166487898889506 -0.00037680080949371506 0.0
0.0015513342439873313 -0.00037387191930332754 0.0
0.0015791518871623655 -0.0008673615422154919 0.0
0.0032230052436276087 -0.0006188777301572942 0.0
0.0032605523796849453 -0.0006275183078466379 0.0
0.0032066948789783744 -0.0006647072308334011 0.0
0.003243124413321065 -0.0006755294332961069 0.0
0.0031910018234330532 -0.0007128937149405635 0.0
0.00315433133432095 -0.0007018040765292863 0.0
0.003061230500790005 -0.0006886051098172131 0.0
0.0027730407034328606 -0.0007482953579351037 0.0
0.002916631948079961 0.00016170889179104896 0.0
0.0022411462078502304 -0.0007199582287644288 0.0
0.0006154459250219691 1.5865699169514126e-5 0.0
0.004096004703755101 -0.00018425883494514516 0.0
0.0041481699879468105 -0.0001345945413513879 0.0
0.0032963180683471373 -0.0006372319431008676 0.0
0.0032795107952277463 -0.0006858428429876586 0.0
0.0033307478711667527 -0.0006476678574591346 0.0
0.0016220650542460788 -0.000855946883129979 0.0
0.0019740046141929163 -0.0006892347237761667 0.0
0.0019734746946405077 -0.0007255622920361775 0.0
0.0020229717492886356 -0.0007486350906789572 0.0
0.00133086801551651 -0.0005334686542850596 0.0
0.0019227274796315343 -0.0007029146765000894 0.0
0.0024875521447804694 -0.000768341631910636 0.0
0.003537604182112179 -0.0003950882744991906 0.0
0.0036235765008522805 -0.0004413600956821342 0.0
0.003602092728450271 -0.0004865009861285233 0.0
0.003652399319459031 -0.0003953658990973706 0.0
0.0004994714933859541 -9.377068838448827e-5 0.0
0.0014368213274968135 -0.0007780119023691186 0.0
0.0013938004845097244 -0.0007872088286104559 0.0
0.001440749894350342 -0.0008179917608310737 0.0
0.0013996559862645083 -0.0008277353742282828 0.0
0.003127459500718135 -0.00044650967493518477 0.0
0.0008628320516365526 -0.0006332047682976059 0.0
0.0007702249780742053 -0.0005570644579278139 0.0
0.004022552970141908 -9.810675270877336e-5 0.0
0.00023791437925282555 -2.8105548553229275e-5 0.0
0.00023732991127516125 -1.4839397609960622e-5 0.0
0.002713162530511177 -0.0008183873777191577 0.0
0.002706480322050954 -0.0008682077813702794 0.0
0.0022008360255949097 -0.0005556472004260792 0.0
0.0039772875308718945 2.552943858963068e-5 0.0
0.0007787880865033461 -0.0005951546145113686 0.0
0.0032377713255117386 0.00019999951880238676 0.0
0.003774836108749694 -0.0003085458964527458 0.0
0.0037938792879501746 0.00012729524727610032 0.0
0.0038352490767937656 0.00011106123144898944 0.0
0.0030226648157691185 -0.00044066618247809734 0.0
0.00325108334381214 -0.0004591117790683573 0.0
0.003297097303599787 -0.00046028169892668074 0.0
0.0028896949164690477 0.00020263429670473154 0.0
0.0029756068548925534 0.00019944636645898795 0.0
0.003084943914419518 0.00020556526206140578 0.0
0.0025011623246435225 -0.0009092532913816398 0.0
0.0012164757301194348 -0.0007766766626037874 0.0
0.0018691946864160566 -0.0005107352478721636 0.0
0.0026824786663355595 -0.00042759044262522715 0.0
0.0023677273757256668 -0.0005690562647816297 0.0
0.0024114412307880318 -0.0009183888311071396 0.0
0.001071997496041203 -0.0006981411294284727 0.0
0.0013734565291399334 -0.0006352995641229779 0.0
0.0005570990337663106 -0.00022155865444261567 0.0
0.004031200445462491 2.9765997986587613e-5 0.0
0.0031265590705471637 -0.0005249007407087114 0.0
0.00037635022712671133 -0.00017061946842831111 0.0
0.0010146901147307427 0.0002679990101969589 0.0
0.002398217371433726 -0.0007351292964628533 0.0
0.003138949346875415 -0.0007505923883556572 0.0
0.003100371368743044 -0.0007389972476190003 0.0
0.0027624935734215953 -0.000586454259235342 0.0
0.002889653923545564 -0.00035667188665850793 0.0
0.0012623988401748731 -0.00043556399345934536 0.0
0.0019722153656697747 -0.000769275238169145 0.0
0.0026537660989573004 -0.0003700334931564281 0.0
0.0013683652402948217 -0.0006006572703002911 0.0
0.0013214028324045723 -0.0006059638003266944 0.0
0.0010784862736531674 -0.0007379542785965306 0.0
0.0006890837550222434 -6.407752412553533e-5 0.0
0.0006928137194923051 -3.4947267331695066e-5 0.0
0.0003178936915501586 4.487527879121351e-5 0.0
0.0004355078200231829 6.836118933853646e-5 0.0
0.003436237630956674 -0.0006116940450357221 0.0
0.0004996242392632755 -0.00023937557707131852 0.0
0.0007323303635710277 -0.0003452615807194571 0.0
0.0006715926125116503 -0.0003108496413006912 0.0
0.003611662221803667 -0.00039794492363408817 0.0
0.001813083996921699 -0.000692782457372566 0.0
0.0023178412574747084 -0.000519962200821094 0.0
0.002789234984108562 0.0001672928855438319 0.0
0.002765553859725758 0.0001948568335441502 0.0
0.0026825774069270097 0.00017807899621447758 0.0
0.0026583799456823287 0.0001984149064332236 0.0
0.0027336803940243696 0.00020548966806290136 0.0
0.0030811499530791968 -8.298211290170775e-6 0.0
0.003168994081493858 -2.1425569425249956e-5 0.0
0.0031962260281175794 1.4232881017606945e-5 0.0
0.0032768385697486595 -2.7794877463404034e-7 0.0
0.003251037014481284 -3.585032644379557e-5 0.0
0.00018895973555732362 -6.10530571013242e-5 0.0
0.0031420592867790562 -0.0004137266264258048 0.0
0.000504766151558563 0.00013075397134669947 0.0
0.0005272633777269996 0.00015133784689253505 0.0
0.002589624689347725 -0.0008968549737680978 0.0
0.00015350779178557907 -1.3520919360777395e-5 0.0
0.0034318311423522387 -0.0002534147523499689 0.0
0.0035102422151732354 -0.00022185667694945863 0.0
0.003450990624947945 -0.00021882405299701173 0.0
0.0035764875466788404 -0.00021944444415482998 0.0
0.003590625769395648 -0.00019046020240461343 0.0
0.0036581262998964894 -0.0001883329464922055 0.0
0.0009625237148593728 -0.0003848042729217972 0.0
0.000961493980419945 -0.00035385712632031755 0.0
0.0008960002091625962 -0.0003211318765334917 0.0
0.0009593589470606742 -0.00032340815990404 0.0
0.0010253330845285478 -0.0003549224636384293 0.0
0.0010239710071086204 -0.0003243990045784669 0.0
0.001089213007718663 -0.0003546441003101339 0.0
0.0011807238035644566 -0.000783356936781458 0.0
0.0010882699299358265 -0.0003234224274962617 0.0
0.0011534058308820194 -0.00035352082061424243 0.0
0.0003177182510876422 3.3280320195186797e-6 0.0
0.000687222865430949 -9.32012964837874e-5 0.0
0.001151651573385198 -0.0003836421028971607 0.0
0.0008990088589767445 -0.00029374762568521985 0.0
0.003495425798471196 -0.0003955639504266311 0.0
0.0034352381793203114 -0.0004311674633505541 0.0
0.0019939231574036646 -0.0008911762921934943 0.0
0.0019918370520592274 -0.0009312099366162563 0.0
0.0025807274024936236 0.00018124577875076016 0.0
0.0013514903121822361 0.00019574351588833448 0.0
0.0014569333112260294 0.00019191529844546902 0.0
0.0015373119946700206 0.00021112244305345122 0.0
0.0015575444787257913 0.0001821250573068259 0.0
0.0014778197314379616 0.0001596217639327217 0.0
0.0015771503675605957 0.00014151991648150258 0.0
0.0014985726564386318 0.0001216473053241094 0.0
0.0015988079394375378 9.783463842836921e-5 0.0
0.0015185739627327512 8.32375532872994e-5 0.0
0.0016349694454720674 5.5923779947397994e-5 0.0
0.0015363220436263403 4.703415932176883e-5 0.0
0.0016346476659778143 2.1319712006437204e-5 0.0
0.001548710873432644 1.4074439212749332e-5 0.0
0.0016442497964773083 -1.01399198139216e-5 0.0
0.0015651741039191468 -1.7783905597074973e-5 0.0
0.001656071659395374 -4.004594336173262e-5 0.0
0.0015771207490773943 -4.677341994610116e-5 0.0
0.0016626140999454644 -6.715333651086916e-5 0.0
0.001587061613538695 -7.363108209081581e-5 0.0
0.0016692079586715315 -9.258079548971402e-5 0.0
0.001595176198891204 -9.943349544117658e-5 0.0
0.0016742839049019242 -0.00011757359367654496 0.0
0.0016002045744030354 -0.00012449160275332548 0.0
0.0016782274265098754 -0.0001414111488991539 0.0
0.00160480559060226 -0.0001498521808570158 0.0
0.0015264706869331673 -0.00013097718894803525 0.0
0.001531708655796356 -0.00015746505169717237 0.0
0.0016875937013377652 -0.00016788783393397393 0.0
0.0015043775632852772 -5.323985987045781e-5 0.0
0.0017501665729619798 -0.00013237134251321497 0.0
0.0017502691422520797 -8.682015245309985e-5 0.0
0.0014238383670475614 0.0001040459402437348 0.0
0.001735004966130948 -3.241253247195706e-5 0.0
0.0014520717274574973 -0.00013747980907039765 0.0
0.0014588069671961604 -0.00016448361596550838 0.0
0.0015369190371207473 -0.00018436859874882756 0.0
0.0014652403955074322 -0.00019176513594253917 0.0
0.0014709286843190019 5.83367301080052e-6 0.0
0.0017299433672710153 2.346490235713837e-5 0.0
0.0014464540079811333 -0.00011039950654404268 0.0
0.0016815858242534838 0.00011477655089027445 0.0
0.0015421980058680854 -0.00021128895448405103 0.0
0.0014709541601798358 -0.00021919376912587273 0.0
0.0013941736022746408 -0.00019874006853291804 0.0
0.0013696067283005381 -0.00011698162003738951 0.0
0.001360400462864538 -8.768105855409562e-5 0.0
0.0016138553040863557 -0.00020275846749407572 0.0
0.001616685892827773 -0.00022920430420617273 0.0
0.0016864425867973436 -0.00022047287358092446 0.0
0.0016401865619780239 0.00019991409227059905 0.0
0.0016263956010953984 0.00021859712458619431 0.0
0.0014025279148543288 -0.00022709327118023643 0.0
0.0013241821963355914 -0.00020573371129335965 0.0
0.0013175078531507689 -0.0001780524512472716 0.0
0.0012434710206235902 -0.00018366511585614516 0.0
0.0023632917269959634 -0.0009432275522414054 0.0
0.0023215762260959468 -0.0009232248421170412 0.0
0.003951910062872174 -0.0003017287878131211 0.0
0.0025404745256792606 -0.0007428803522691791 0.0
0.002584436247349345 -0.0007563566663533561 0.0
0.0014607514818556831 -0.0006200099545591301 0.0
0.0015128383946816939 -0.0006460612361903133 0.0
0.003517514336034283 0.0001144802119945246 0.0
0.0025605751949550957 -0.0004391430806359359 0.0
0.0014781360014414012 -0.000246261025429101 0.0
0.0011150111166712733 -0.0006716080632933373 0.0
0.0011126332855770026 -0.0006350796301287948 0.0
0.0011538888443657224 -0.0006306641355001076 0.0
0.002827697388503608 -0.000348352840600191 0.0
0.0026110995688477935 -0.00015467162622746455 0.0
0.00175437216453899 -0.0005026230585706188 0.0
0.0016989803082572766 -0.0005132399547511078 0.0
0.002420480035544762 1.567521922869511e-5 0.0
0.002413800605595312 -1.1139619802712683e-5 0.0
0.0024919381410927178 -1.717249466387547e-5 0.0
0.0024000224653779752 -3.898597758196599e-5 0.0
0.002432695631159433 4.430513580296114e-5 0.0
0.0025962280781427457 -0.00020251046444406351 0.0
0.0025920996160220867 -0.00022703211200670806 0.0
0.002512441556312037 -0.0002419325868730212 0.0
0.0018764125772718198 -0.00036681510599230634 0.0
0.0019343126540118083 -0.00038267086599223603 0.0
0.0019374256803717498 -0.0003574488472799762 0.0
0.0019943656300342133 -0.00037183554497670823 0.0
0.0019974172328453945 -0.0003471545735837325 0.0
0.002054207173794045 -0.00036078218412455927 0.0
0.0020575745853637717 -0.00033673434220115483 0.0
0.002116677593933114 -0.0003494077660442505 0.0
0.002111808315153595 -0.00037467980302031186 0.0
0.002175469211091774 -0.0003591176392769738 0.0
0.0024453112522718643 -0.00041908186980185676 0.0
0.002384767313194877 -0.00040572253053505725 0.0
0.002322501423525685 -0.0004208147000637697 0.0
0.002325869549424123 -0.00039323758553607026 0.0
0.0004319809810863519 -0.00018042367228838203 0.0
0.0005130154116155537 -0.00045773560454878887 0.0
0.00046801850448137416 -0.0004144900975515851 0.0
0.00045461191885201173 -0.0003774260397306186 0.0
0.0004223223942577513 -0.00036975903056246764 0.0
0.002203919708341762 -0.0005228007942097783 0.0
0.002950883846442195 -0.0003629237588979161 0.0
0.002937657713222325 -0.0003967145775205956 0.0
0.001059582331384071 0.00021670091799459262 0.0
0.002317383137426719 -0.0002118226759685599 0.0
0.002319272388882048 -0.00019136278486111232 0.0
0.0024074556835741393 0.000176196406401167 0.0
0.004092014417684278 -0.00012793355632331966 0.0
0.004142474501135665 -9.616823960957997e-5 0.0
0.0041774736984612195 -8.022504974431435e-5 0.0
0.00013976960984419281 -5.9722700296963175e-5 0.0
0.0001427558925748043 -7.026961366746545e-5 0.0
0.00020385022021130679 -0.00010289049925324148 0.0
0.00015008192814316282 -8.316573603532619e-5 0.0
0.00020727518646966987 -0.0001174829456436536 0.0
0.00015508357553066106 -9.57722910230881e-5 0.0
9.438636408530131e-5 -5.787004998493781e-5 0.0
0.002145071484053717 -0.0005387238391821896 0.0
0.0010257659164210735 -0.0002950435057555052 0.0
0.0005927803511121986 -0.0005044826112401156 0.0
0.0016865851432442775 -0.00024480133001184614 0.0
0.003906759698089026 -0.0003456844820660448 0.0
0.00386976061755721 -0.00036162860866871007 0.0
0.0033147425380311013 -0.0004254316032148046 0.0
0.0033751296160073494 -0.00041972244998916597 0.0
0.003386032766614301 -0.00038473634121320455 0.0
0.00020440681660796148 2.4759804102741075e-5 0.0
0.0015372955922175783 -0.0008786449377749506 0.0
0.0010422996804601494 -0.0007434064744185663 0.0
0.00012622499361249407 -0.00013254040295932582 0.0
0.00017393403818123624 -0.00018674603084118543 0.0
0.0008336321067655946 -0.00029126133097025973 0.0
0.002637707666367458 0.00019953102010773088 0.0
0.002723325322822844 0.0001998036505096755 0.0
0.0031988864976865046 -0.0004590869893767412 0.0
0.003339706607957962 -0.0004623895057647555 0.0
0.0014459237811605768 -0.0008575548074924846 0.0
0.0016232182476512622 -0.0008951595443128296 0.0
0.001666463841318766 -0.0008846405609435868 0.0
0.00365655357860263 -0.00044517254601344125 0.0
0.0036349695013715598 -0.0004915241790785833 0.0
0.003579624369605106 -0.0005409014151610276 0.0
0.003913881881630767 -0.0001417773212537598 0.0
0.0038560553053196005 -0.00015084607848822937 0.0
0.003783509119954635 -0.00018099695478766985 0.0
0.003791123142724861 -0.0001585509671364245 0.0
0.0007093759625639139 -0.0002860825438951397 0.0
0.003669580830438558 -0.00016148090191566287 0.0
0.003590983210795355 -0.00016291188304211793 0.0
0.0025959534595455984 -0.0007191939431125402 0.0
0.00043315713380642296 -0.0004028288185326505 0.0
0.00039312435464384756 -0.00036487327464090067 0.0
0.0003788583574152381 -0.00033059515586296635 0.0
0.0003505030427690068 -0.0003232967855222022 0.0
0.00418864589053655 -6.776674223188232e-5 0.0
0.00409919958352332 -7.464986680158129e-5 0.0
0.00414993776405345 -5.209217788481048e-5 0.0
0.003468998080184909 -0.0006184778534410042 0.0
0.0017557763567884997 -0.00038494284404848994 0.0
0.0036869220336826934 -0.00045022311408727996 0.0
0.00366801361419518 -0.0004945073978039494 0.0
0.0037162733899554694 -0.000454468552014682 0.0
0.0037018729626850278 -0.0005000636897581363 0.0
0.003750984509331797 -0.0004525935971421463 0.0
0.0037659742988437493 -0.000412469518510748 0.0
0.0037955710148676954 -0.000413792570881175 0.0
0.002039259468080398 -0.0009537993921596071 0.0
0.001996624013799645 -0.0009746641599719431 0.0
0.001941225058604431 -0.0009475386738119415 0.0
0.0014114601739003945 -0.00025607627511238106 0.0
0.00010906385260259591 -7.407204396207308e-5 0.0
0.000159486134230371 -0.0001090096720397091 0.0
0.00011420329800874915 -8.479591443089329e-5 0.0
0.0014109553698281791 -0.000874628225654128 0.0
0.0013627460374954128 -0.0008387652539995019 0.0
0.004049874860476942 -0.00023221586844018462 0.0
0.0003304888307870428 5.943040479217309e-5 0.0
0.002265818210293947 -0.0004107299257110227 0.0
0.0022714268948579672 -0.00038222813456014745 0.0
0.003896667364166729 1.767505097471594e-5 0.0
0.004017339660660705 9.074796618209347e-6 0.0
0.0036701422400641243 -0.00036018311088103057 0.0
0.000737818565182932 -0.0005566696552851473 0.0
0.0007514675290384697 -0.000598815312777067 0.0
0.003120161997788399 -0.0004794453240242326 0.0
0.0031395298371403326 0.0001890955810290496 0.0
0.004125803354303802 -0.00016740869892532676 0.0
0.004176509845000526 -0.00011709659685890458 0.0
0.0041954865175776535 -9.151773064375058e-5 0.0
0.0030549100693036094 0.0001962754110897359 0.0
0.0035583835578171727 -0.0003607996504945336 0.0
0.0019499066805357317 -0.0008376336933310598 0.0
0.0036425823480947415 -0.00021662513912550993 0.0
0.0034434186078279075 -0.00040212086369301105 0.0
0.001320061994124131 -0.0005695742511318606 0.0
0.0007585910779010029 -0.0005192441629259905 0.0
0.003976784327531012 -0.00012732293778053847 0.0
0.0033124377741393482 0.0001957270783363193 0.0
0.001362767862378948 -0.0008769887586253338 0.0
0.0006292326705422091 -0.0002578179030769298 0.0
0.0023042441826882916 -0.00023660866700818314 0.0
0.00340101712789397 -0.0006097290356264975 0.0
0.003388695058374109 -0.0006534705917569545 0.0
8.454000140436003e-5 -8.857067610805004e-5 0.0
0.002635781630941799 -0.0008725080783133998 0.0
0.002618487416493981 -0.0009120564716659276 0.0
0.0016649155472593321 -0.0009301190300986872 0.0
0.0017105921920676924 -0.0009142236189738412 0.0
0.0017091478141713216 -0.0008729620899781343 0.0
0.001754046831282901 -0.0009006190701070318 0.0
0.0017109335944367195 -0.0009488674851196762 0.0
0.0014409825602656405 -8.327520327614748e-5 0.0
0.001354185018570266 -6.063801625968465e-5 0.0
0.0005914462108585077 -9.419109893207246e-5 0.0
0.0011503434351991357 0.0002634339937632021 0.0
0.0011591832994645333 0.00024333286993102237 0.0
0.002601012691553043 0.00014608474420301407 0.0
0.003310200814480919 -0.0006968729631548497 0.0
0.003263571954096869 -0.0007336843050959824 0.0
0.0003604857573417662 -0.00035684965877622645 0.0
0.00031940045674274693 -0.0003121670030126071 0.0
0.004169942468796642 -5.216269860793397e-5 0.0
0.0006888577196429677 -0.00034319951007911196 0.0
0.0006206335307926866 -0.00031244425816206344 0.0
0.0038787862035586486 0.00016064780526246983 0.0
0.0040016335564906445 -0.00025465724205225675 0.0
0.003979975952215833 -0.00029696741571091017 0.0
0.0023747926345267308 -0.000245282293233623 0.0
0.0027404470245373153 -0.0008835015553939051 0.0
0.002684118640465885 -0.0009220807679741039 0.0
0.0012108199115406883 -0.00038004997764965387 0.0
0.0012165440557937296 -0.0003500603926786166 0.0
0.0017549241763686896 -0.0008602152878040445 0.0
0.003694073579030353 -0.00039468321075106146 0.0
0.0021196270781460693 -0.00032510488169287084 0.0
0.002065447807572442 -0.00031260408809464954 0.0
0.00010393297228345616 -0.00011534511560901666 0.0
0.0010787993996560726 0.00040484238202197025 0.0
0.0019381057154714198 -0.00033167726561950843 0.0
0.001285758390941946 -9.568577562485e-5 0.0
0.0012981153389517914 -0.0001240715506727408 0.0
0.0007828971944771909 -8.907303669884681e-5 0.0
0.002670234135389813 -0.00020991046990764781 0.0
0.0017530706529360384 -0.00023645508909087018 0.0
0.0017547702416140802 -0.00021307204536237783 0.0
0.0018196992834326677 -0.0002287634081116843 0.0
0.0018200582845645742 -0.00020684391037153267 0.0
0.0018822194270892503 -0.00021968798493931662 0.0
0.0018835577709597792 -0.00019921967881672437 0.0
0.0018198190258998405 -0.0001858273606971788 0.0
0.0018839655661451844 -0.00017852129608687364 0.0
0.0018202964392063624 -0.0001655923547597977 0.0
0.0018854542333721239 -0.00015865432768968747 0.0
0.001941775814705636 -0.0002115375844579807 0.0
0.00016528727075284586 -5.487741378613026e-6 0.0
0.002582073359663194 -0.00025533137498356164 0.0
0.001768535497588276 -0.00035937829033637694 0.0
0.0016585013992515619 0.0001613050595139251 0.0
0.001781383442652941 0.00012480052718571977 0.0
0.0017899659528515062 8.189462944484072e-5 0.0
0.00174635691441479 0.00017786124552563408 0.0
0.0017081529292945349 7.333968579066229e-5 0.0
0.0018128683349029583 4.81819614350797e-5 0.0
0.0019100335261994685 4.94809180195697e-5 0.0
0.001851906629597107 0.00015198795670366797 0.0
0.00026223420546380165 -0.00013727431424718532 0.0
0.0002691729967072136 -0.00015614880765380735 0.0
0.004164477265910519 2.18266915114094e-5 0.0
0.004032651074757273 4.888795383082593e-5 0.0
0.004025005387714006 5.935938870542037e-5 0.0
0.0031807923393394714 -0.0007653303398361975 0.0
0.003123265208905438 -0.0008009304022932066 0.0
0.0011063198530789364 -0.0005992810506089145 0.0
0.0011490852789165043 -0.0005940246502619905 0.0
0.001062944829054927 -0.0006023378512472519 0.0
0.0012126291358382489 -0.00010769040224806172 0.0
0.0018781726322862028 8.572062307740831e-5 0.0
0.0019515468057778862 -0.0001706873018686106 0.0
0.0019485776238845195 -0.00015060477613034053 0.0
0.0018857269693395762 -0.00013899732967902358 0.0
0.0019473232867001046 -0.0001324524292238852 0.0
0.0018890140408193196 -0.00012040376011196257 0.0
0.0011377285514635553 -0.0007533120522557772 0.0
0.004153747623043604 3.545937098859537e-5 0.0
0.0017390722379553925 0.00020930041082644393 0.0
0.00249636241150603 0.00014733341662723744 0.0
0.0025051913948449657 0.0001085340586922667 0.0
0.0024027388744889537 0.0001006908453475074 0.0
0.001232731601508429 0.0001952977817879012 0.0
0.001495250044085237 0.00021641592704353536 0.0
0.0014140257399324948 0.00022907919707696012 0.0
0.0013564893283820587 0.0002361886739778453 0.0
0.0027958878241356342 0.00015443966550090073 0.0
0.0035236430591437254 -0.0005785849280789664 0.0
0.003501013598776247 -0.0006305142039654266 0.0
0.0010827710989241002 -0.0007769166853472709 0.0
0.0017992857363346474 -0.0008878051351942305 0.0
0.001799785924459273 -0.000927249191830737 0.0
0.001842468462476733 -0.0009144081196954854 0.0
0.0018486732298445426 -0.0009587169558333844 0.0
0.0030365564092483645 0.00015050799829860155 0.0
0.0029483528826464516 0.00013009154884554804 0.0
0.003063101109542635 0.00012265814903372586 0.0
0.0031553843214873717 0.00013863410782034632 0.0
0.0023345169253763637 -0.0003674176890883044 0.0
0.0022860415653964627 -0.0003547771481465063 0.0
0.001888001990360104 -0.000938878469710276 0.0
0.0012621972148105735 -0.00021524468003382338 0.0
6.775623108425463e-5 -6.689182286328568e-5 0.0
0.0017286068259458856 -2.4576738711423413e-6 0.0
0.0018160221496475763 -2.5394852446473515e-5 0.0
0.0018222266824825966 -5.072040184302578e-5 0.0
0.0019021614025690407 -4.4180020631463396e-5 0.0
0.0019021333011608505 -6.515403989963074e-5 0.0
0.001897085181788774 -2.226052080969139e-5 0.0
0.001835506010809125 -7.212971710954225e-5 0.0
0.0019039111296434749 -8.464673084298517e-5 0.0
0.0019772834286778647 -3.776907308045553e-5 0.0
0.0028358797562995034 0.0001359073198805042 0.0
0.001843603517283379 -9.284919391445463e-5 0.0
0.004213044271112566 -3.4949104539268547e-6 0.0
0.0016177001116956973 -0.00025502909991558594 0.0
0.0020213130616095194 -0.000787471287255919 0.0
0.0020757179857848066 -0.0007715563031398502 0.0
0.0018158866618333451 -2.5813155988561237e-7 0.0
0.0019037208513637321 2.0349218674232207e-7 0.0
0.002456422291044642 -0.0003919609169120565 0.0
0.00311149535431449 -0.0006923777403867967 0.0
0.0030586221846520475 -0.0007320399508138338 0.0
0.003048394351091391 -0.0007774128639901492 0.0
0.0030097120091156413 -0.000770378415002477 0.0
0.0030024041227219665 -0.0008122620613697983 0.0
0.0029610822821643694 -0.0008080884602200228 0.0
0.0035350138549893224 -4.00275159670649e-5 0.0
0.003461336441238082 -7.256780956157687e-5 0.0
0.003496553561634987 -9.814581352119589e-5 0.0
0.0033892518465633596 -0.00010659806737754746 0.0
0.0034213839574975488 -0.00013200739187451915 0.0
0.0033152916906648735 -0.0001418745685643311 0.0
0.0033494574399297095 -0.0001671785281881575 0.0
0.003281076056597773 -0.00011564090244693925 0.0
0.003210055009685918 -0.00015090687808697381 0.0
0.003449712852584828 -0.00015645170297513017 0.0
0.0031743119840651085 -0.00012522001190564593 0.0
0.0033774072744407768 -0.000191591568568725 0.0
0.003283124918472146 -0.00020216261468768796 0.0
0.00330691850960689 -0.00022672275850601391 0.0
0.0032466047992651815 -9.080530336167628e-5 0.0
0.0034217755350520007 -4.5320070996267235e-5 0.0
0.003476125938657 -0.00018159871756209028 0.0
0.0036105048160347958 -9.40313162947781e-5 0.0
0.0035414515846979595 -0.00014696207611747793 0.0
0.002326832548006435 -5.78947722155428e-6 0.0
0.00147616636988862 0.00022738936204807152 0.0
0.00022011907822503562 -0.000139060617413928 0.0
0.00020346681669539726 -0.0002052536597787265 0.0
0.0002465685796774701 -0.00025154813784087666 0.0
0.0018861666824774369 -0.0009002126957248289 0.0
0.0025232276065672555 -0.0004075596836948712 0.0
0.0024111753107948337 -8.11200717718406e-5 0.0
0.0023293592598656065 -9.630557856696289e-5 0.0
0.0023433474453789047 -7.590875739191141e-5 0.0
0.0023316388802802923 -0.00011751502155380391 0.0
0.0024010313428523594 -0.0001264478274997947 0.0
0.0023258188625233326 -0.0001391390287035826 0.0
0.0023185055123998667 -0.00015950803230710205 0.0
0.002260635176996765 -0.00014970936291459403 0.0
0.00026894388918480023 -0.0002423341972749503 0.0
0.002693968620175486 -8.849892301403414e-6 0.0
0.003274308502793495 6.303259410858663e-5 0.0
0.0031416978684461632 6.776233765900134e-5 0.0
0.00016501441784742566 3.759396293605751e-5 0.0
0.00034284782378181817 8.401258337206908e-5 0.0
0.00032277575467944483 7.011220738627861e-5 0.0
0.0027467322101801055 -8.576826853162988e-5 0.0
0.0003501341633376513 -0.00028369634771795106 0.0
0.00040721049183465696 -0.0003332056279084958 0.0
0.00044325033537057404 -0.0003447368515223147 0.0
0.0004393012774240177 -0.00031593039842063233 0.0
0.00047742483549078094 -0.0003186230245770051 0.0
0.001748687837522973 -0.00011050001193738232 0.0
0.00020277318220788125 1.520105242732835e-5 0.0
0.000841967159432029 -0.00023854060865817318 0.0
0.0006892043470353981 -0.00023001047355909502 0.0
0.0018979588962425437 2.4363740913356818e-5 0.0
0.0004493030783442661 0.00018511929638598702 0.0
0.002998025828911458 -0.0007188710851319245 0.0
0.0025922782470795395 -3.56889381976234e-5 0.0
0.004078463623714848 -0.00021786849989804112 0.0
0.0032493478389662447 -0.00017636591142878018 0.0
0.003145687469042921 -0.0001852631624468564 0.0
0.003085874913347375 -0.0007891337466241558 0.0
0.004221495333957122 -8.78786105544699e-6 0.0
0.004143238152123748 -2.2417654943458407e-5 0.0
0.004159873954101534 -2.932136314984676e-5 0.0
0.004129241788513319 -1.3299833060030282e-5 0.0
0.004068288352119044 -4.124868061702545e-5 0.0
0.004118363394786137 -3.4121652908629858e-6 0.0
0.004025064747520378 -1.3860022689853168e-5 0.0
0.00404459862609052 -2.845398398176597e-5 0.0
4.596818662557974e-5 -2.708855433787061e-5 0.0
0.004252379684255208 -2.4043732571440135e-5 0.0
0.004198722587228078 -4.6400679306001495e-5 0.0
0.004231022179965844 -2.5595292067355e-5 0.0
0.0042037087911514165 -4.965775813616586e-5 0.0
0.002535683379383998 7.554202589813934e-5 0.0
0.0032308765806743685 -0.0007214018841803849 0.0
3.52359683843069e-5 -2.9055374720499203e-5 0.0
0.004263035335318781 -2.596093207572401e-5 0.0
0.0013746472036595546 0.00016898920242689198 0.0
0.003447073578878747 1.9813041945588307e-5 0.0
0.001170227481493242 7.339339321504505e-6 0.0
0.0012629798606071147 1.9057417979640185e-5 0.0
0.0012579663305803002 5.552631629054782e-5 0.0
0.0012651160090695716 -1.3489139839881939e-5 0.0
0.0013451685149347035 -6.358173829704281e-6 0.0
0.0013637235364449317 2.555752063838766e-5 0.0
0.001352650519454641 6.382931708647405e-5 0.0
0.0012593123588206532 8.990770102714197e-5 0.0
0.001176942960341898 0.00011949810506014391 0.0
0.0011845428551740902 -3.1865512973368136e-5 0.0
0.00362344623821327 -0.0005336350807318849 0.0
0.00420997773709287 7.699007340398953e-6 0.0
0.0017584458794556808 -0.0008200990810250476 0.0
0.0005642729504570402 -0.000508037931853863 0.0
0.0019382635151054548 -0.0008002697342844073 0.0
0.001488307108712617 -0.0008481926660493894 0.0
0.0014904452955549546 -0.0008886750169239403 0.0
0.0020132493288551726 -0.00014284611918277055 0.0
0.002751347309868567 -0.0001478432327139797 0.0
0.0037156287967481517 0.00012702265904842452 0.0
0.0037663889268895433 0.00010515181806011674 0.0
0.0036521313398364882 0.00011039538859318663 0.0
0.0002640126418213122 -0.00012292767949619024 0.0
0.0005254099522492716 -0.000494484991699969 0.0
0.0013033505154445126 0.00029641743133586366 0.0
0.0011695154462703723 0.00030037605404981225 0.0
0.003070093774010926 0.000169838117120798 0.0
0.0015265613303711205 0.00022553000048113343 0.0
0.0038977170640746134 -0.00028274641765516095 0.0
0.0019214609356349472 -0.0006668111737010325 0.0
0.002942767183883438 0.00014779829337112886 0.0
0.0030375013311577264 0.0001774974082706497 0.0
0.0012801703004221212 0.00014319237495313963 0.0
0.0010482115527632562 -0.0007851629632178956 0.0
0.0038733042572386216 -0.00032792930438436637 0.0
0.0006263880201384216 -0.000507758812068483 0.0
0.000665008619074063 -0.000542881357660016 0.0
0.0006435073436126837 -0.000553720353080577 0.0
0.001005456812226885 -0.0002353762834750793 0.0
0.0023792999143798605 -0.00017420265372989577 0.0
0.0026704811490440945 -0.00011165888153412545 0.0
0.0016105909328515183 -0.00017584052970242762 0.0
0.001685148554088582 -0.00019543892437108167 0.0
0.0041233714336739195 5.336498903957427e-5 0.0
0.003919121276102075 0.00011239360694389005 0.0
0.00017967969386998604 5.5010519678712156e-5 0.0
4.531534785977521e-5 -2.987711457072885e-5 0.0
0.0019456590448655644 -0.0001909403072766587 0.0
6.340659911911361e-5 -1.714866469748015e-5 0.0
0.00015416117640340525 -3.4664754636503716e-5 0.0
0.0019155196604509074 -0.0007690286260727689 0.0
0.002718227849574176 0.0001566242359963116 0.0
0.0015584007832894593 0.0002126670268911715 0.0
0.0026456649380993263 -0.00039656982969441234 0.0
0.0019578330798555206 -0.00011419057550689284 0.0
0.003455307290386398 -0.0003448863965432224 0.0
0.004028079278167378 -0.00021408248179868175 0.0
0.0012695943568283086 -0.0005756937065948524 0.0
0.0012743029122021944 -0.0006121108942498918 0.0
0.0012221806345457374 -0.0005773884530377942 0.0
0.001168340362428875 -0.0005431484279298381 0.0
3.59845825749596e-5 -3.238133235638635e-5 0.0
6.824101747539834e-5 -6.195935124849231e-5 0.0
7.679286608419142e-5 -6.351687884508237e-5 0.0
0.0010915149704142282 -0.0003850222228488267 0.0
0.0010318673711392857 -0.00038955763627299557 0.0
0.0042558768787604164 -2.4979709041721277e-5 0.0
0.0023171582767086696 -0.0009677724492766941 0.0
0.002274883195087356 -0.0009461800611441184 0.0
0.0022709761518703866 -0.0009903056961254807 0.0
0.002228373295217827 -0.000967926631594484 0.0
0.0021810324774781497 -0.0009873016748337955 0.0
0.0021796331221194142 -0.0009440052467595801 0.0
0.0022774348715646994 -0.0009025271857996017 0.0
0.0029510249668494555 0.00017640249848474855 0.0
0.0004989206133754682 -6.891930858326722e-5 0.0
0.0005806520106232795 -0.0001200417268281139 0.0
0.0005038679515852764 -0.00012053546924535846 0.0
0.0027147311051716814 -0.00037934418528551864 0.0
0.0008393230762708325 0.00025237104234564456 0.0
0.0021652413339110265 -0.0003867518597388028 0.0
6.297043023233495e-5 -2.7150536863977156e-5 0.0
0.0013218185301413336 -0.0008427423839514401 0.0
0.001277795144404802 -0.0008411936816701286 0.0
0.0012868547107229168 -0.0008081508587605848 0.0
0.0014845726377664874 -0.0008078435991522702 0.0
0.0012708825907016277 -0.0005351456277600325 0.0
0.0005579686493603092 -0.0002476261911259104 0.0
0.0003220310046863775 -0.00019345808247975255 0.0
0.004234094852296322 -1.6351496277735442e-5 0.0
0.004177028581533077 -3.319233399040991e-5 0.0
0.0008248291816207108 -0.000634477561318824 0.0
0.0009965290441831171 -0.0007056518087649996 0.0
0.0009576150232871195 -0.0007100691348761758 0.0
0.0009103481569005835 -0.0006715258803095251 0.0
0.0009166115625209153 -0.0007111156210133885 0.0
0.0025562101045589454 0.0001670175826340847 0.0
0.0017009055538116289 0.00020665607443279537 0.0
0.0027914418693001154 -0.0008516764227217411 0.0
0.002829161255078095 -0.0008665708354976414 0.0
0.0028774073287062187 -0.0008344506437283236 0.0
0.0027736950382089404 -0.0009052224892240093 0.0
0.0013742386283397544 -0.0005703545901997891 0.0
0.00245401821905824 -0.0007132933563256333 0.0
0.0015554641836185701 0.00022241953524461758 0.0
0.0017412942070759749 -6.206593862241842e-5 0.0
0.0042644746170705464 -2.746825243356068e-5 0.0
0.004230981075253617 -5.4479926052645975e-5 0.0
0.004216668711112655 -5.946821981778055e-5 0.0
0.0008712413617168969 -0.0006732144622946827 0.0
0.0008338575769559536 -0.0006727807526405118 0.0
0.001261844130890888 -6.213767717926323e-5 0.0
0.0011203210365812101 -0.0005506769454747879 0.0
0.003999869709735349 -0.00017646464584819948 0.0
0.0032565846987364275 0.00021386067647427229 0.0
0.0019352021406129785 -0.00023208800598012352 0.0
0.0019936227862528758 -0.0002221251656389197 0.0
0.002563086773788631 0.00019502812371437604 0.0
0.0031820583875798226 -0.0006117606048635977 0.0
0.0018676698376811597 -0.000679989028566141 0.0
0.0018697791330959416 -0.0007173668224253807 0.0
0.00045922092466524437 8.958182156568084e-5 0.0
0.0010244121442927279 -0.0005565617595591886 0.0
0.00097595812553696 -0.0005538743846574154 0.0
0.0009232539550060419 -0.0005180633582422837 0.0
0.0009289381250259849 -0.0005546420408572424 0.0
0.0007859450349869346 -5.848494774578283e-5 0.0
0.0007893681139145615 -2.748022872452012e-5 0.0
0.0008816312626964886 -0.0001186635170017414 0.0
0.0028149571505817327 -0.0009158049081351516 0.0
0.002729225163805151 -0.0006996533968503995 0.0
0.0026694935233100296 -0.0007293594171547925 0.0
0.0027216304946844393 -0.000744886614254742 0.0
0.002661911644076674 -0.0007758460559675394 0.0
0.0026978597318542295 -0.0007877839311684828 0.0
0.0027781447341013103 -0.0007081730116532911 0.0
0.00282455454177653 -0.0007135503903073213 0.0
3.037212906569229e-5 -3.209064789374539e-5 0.0
0.004270019372947613 -2.8152722619609618e-5 0.0
0.0035484209729048284 -0.0005287619309864687 0.0
0.0025396288694621454 -0.000924512965809289 0.0
0.003963539252290371 9.17067891054109e-5 0.0
0.0024609976181415496 -0.0008920238777008015 0.0
0.0024502141773418322 -0.000935529643856824 0.0
0.0032368373877343865 -0.0004182952046025526 0.0
0.0028943207009714473 -0.0003253980192699769 0.0
0.0028348352141413903 -0.0003170796478411624 0.0
0.0013457943698283125 -0.0007569485038645114 0.0
0.0007816083114118641 -0.0004800353284030022 0.0
0.0032099486030063955 -0.00023986544584450102 0.0
0.00340826309849165 -0.0005659137703717363 0.0
0.0014894789249314273 -0.00044230432424951024 0.0
0.0015451159918911982 -0.0004345944965682323 0.0
0.0015430205728265982 -0.0004664613078647894 0.0
0.0015485858149670957 -0.0004039518819067124 0.0
0.001487766733763119 -0.0004746542968988491 0.0
0.0015993655686224431 -0.0004299858625945953 0.0
0.0016062664477502365 -0.00040154384681096643 0.0
0.001620405933873081 -0.000370410164753963 0.0
0.003210903536456442 0.00020012214071331741 0.0
0.00033780983075091164 9.32275847448501e-5 0.0
0.00310614696188472 -0.00016024792168323093 0.0
0.0033871964800833614 -0.00035446758273620274 0.0
0.0006135404624816169 0.0002026421340447284 0.0
0.0006037575952680524 -1.2102619377231504e-5 0.0
0.0008817720979120477 -5.266405287673215e-5 0.0
0.0006832221361125565 -0.0004400274301347836 0.0
0.0014884665800997568 -0.0003804945462362114 0.0
0.001153707042593247 -0.00032151699887506495 0.0
0.0012341879221534847 -0.0003200917534556104 0.0
0.001285571928487092 -0.0003514838417292462 0.0
0.0020833176861578054 -0.0009380660962159143 0.0
0.002132626601014439 -0.0009624044170712654 0.0
0.0021312950838809188 -0.00100985759772898 0.0
0.002181006809111498 -0.0009013664923551271 0.0
0.003348747458682269 -0.0006003798536032607 0.0
0.0015454934269895672 -0.00023757861325577286 0.0
0.0031416694409289866 -0.0003765990286539661 0.0
0.001480812718470489 -0.0007682282946976878 0.0
0.0022797571505325438 -0.0008600320789661535 0.0
0.0015750056461985977 -0.0009101688561454085 0.0
0.00394680806526661 -3.081886385728354e-6 0.0
0.0021085372181428572 -0.0004010714388702577 0.0
0.0004950333723889964 -0.00021309075752036236 0.0
0.0016023889480946657 -0.0006272439014805721 0.0
0.0016552479940711406 -0.0006537758169196506 0.0
0.001493680917920556 -0.00057447691712934 0.0
0.0016198537752720934 -0.0008158012123146008 0.0
0.0025442869845652928 -0.0005389726992457802 0.0
0.0024815499444882936 -0.0005606515865889625 0.0
0.0025377680848442546 -0.0005747060396317211 0.0
0.003069961176946879 -0.00013517192472011665 0.0
0.001920989424148639 -0.0006309357186892153 0.0
0.0013821225320374733 -0.0005213543284020741 0.0
0.0024469500362899756 -0.00023164528135134933 0.0
0.002435041619879234 -0.00025634537604056495 0.0
0.0005335886077708832 -0.0003558619946117766 0.0
0.001131682640293912 -0.0007149385416208733 0.0
0.002892189664680027 -0.0007856692436340696 0.0
0.0024145474571345177 -6.023978347255521e-5 0.0
0.002244415493263813 -0.0006812358725050729 0.0
0.0021880061565064117 -0.000699613970602501 0.0
0.002185485968687243 -0.0007389268856912319 0.0
0.002132072868697758 -0.0007169310402583215 0.0
0.0021309099002030825 -0.0007565268123932517 0.0
0.002237745361642572 -0.0007591938727986741 0.0
0.00260543712300057 -9.022254829923377e-7 0.0
0.0017567257775897723 -0.0005341115090135572 0.0
0.0017040728082985631 -0.0005445529243733699 0.0
0.0024300335584702256 -0.0005118708497253565 0.0
0.0014389261249284993 -0.0005807982206670876 0.0
0.002403769063592857 -0.0009611610707949712 0.0
0.0018128111795834626 -0.000656262889654784 0.0
0.002134782750953345 -0.0006789542386917323 0.0
0.003037717718898173 -0.0008232883862924072 0.0
0.0019324745012728787 -0.00040998440570336984 0.0
0.0040540930570055365 -0.00010025573619945251 0.0
0.0021426268063995594 -0.0005721109608412826 0.0
0.0009594084001051504 -0.0004160031873797263 0.0
0.0018463811636846323 0.00019918118624848307 0.0
0.0030212348314805895 -0.0006731052323067213 0.0
0.0038789371184649226 9.262395268340074e-5 0.0
0.0006279846925245873 4.334196171416329e-5 0.0
0.0006505543821813116 6.965893385438702e-5 0.0
0.0007227462132387753 3.0712838677173235e-5 0.0
0.0007631840739731557 6.230041162605331e-5 0.0
0.0008352308521347952 4.1673052195793456e-5 0.0
0.0030437453568189295 -0.0001943697270747101 0.0
0.0017573103587955276 -0.0009452992174505162 0.0
0.00199167463623849 -0.00039871671434667374 0.0
0.0001242927829217027 -3.731818595258022e-5 0.0
0.0013828992678958357 0.0002354107517189317 0.0
0.0012850170695782705 0.0002499912254191525 0.0
0.0028733742680709146 0.000107151667082296 0.0
0.0017109798503301286 -0.0007929258293226556 0.0
0.0019517000149876806 -0.0009090081677655867 0.0
0.0016919240887668207 -0.0002714702197224519 0.0
0.0023729945431456585 -0.0004978848113656952 0.0
0.0023109373945984935 -0.00048183086915432434 0.0
0.0023201240881911413 -0.0004488921792488222 0.0
0.002429667086340838 7.210152919985418e-5 0.0
0.001608710742125459 -0.000664027038167032 0.0
0.0010886611989671202 -0.0002929334768254812 0.0
0.0016449589922488982 -0.00048684629455934684 0.0
0.00021132726763959834 -0.0001468182615530049 0.0
0.002252123493395028 -0.0002223342619175399 0.0
0.0009015074982451392 -0.000631401223087397 0.0
0.002262927753042993 -0.0005055924792521842 0.0
0.0013544979549171535 -0.0007973175777764247 0.0
0.003021827976462528 -0.0003348782196167051 0.0
0.0020396669671195918 -0.000503789673490835 0.0
0.0020774436089891135 -0.000733235416626218 0.0
0.003785093121841329 -0.00027834872973640855 0.0
0.0007918704393746206 -0.0006344288135665445 0.0
0.004109891375711239 -0.0002018944328881968 0.0
0.0016942540406164885 -0.0003822198224717141 0.0
0.002033638404493412 -0.0005688122297323482 0.0
0.00036621897222288984 -0.00014803356310474355 0.0
0.0037765946197050775 -0.00020447135629484913 0.0
0.0023900322645817526 -0.000774871899798405 0.0
0.0001233551520524266 -4.525282904117914e-5 0.0
0.0021810118551007576 -0.00031225681857156845 0.0
0.0021788381670672357 -0.0003341170665089698 0.0
0.00402675765163451 -6.0889045804411275e-5 0.0
0.002360709582262255 -0.0009867090870139975 0.0
0.0007377203591228962 -0.00047842928254753815 0.0
0.004158424551867752 -9.973950136987335e-5 0.0
0.0022607916713643823 -0.00043608627676540565 0.0
0.002097303768510109 -0.0004903085976470996 0.0
0.0026303641182336486 -0.0006789431624896055 0.0
0.0025754508666832143 -0.0006656497312392458 0.0
0.0024060442003247516 -0.000695959552048834 0.0
0.0019890726582664615 -0.00042703467626916346 0.0
0.00245610414555705 -0.0010046242020098663 0.0
0.0026442123591392543 -0.0009754125679450349 0.0
0.001877797104685711 -0.0010010453481103453 0.0
0.0020240912806523273 -0.0010149222792414057 0.0
0.0029253383942437526 -0.000897200944506807 0.0
0.002912343013375579 -0.0008536406493749624 0.0
0.001495316788719125 -0.0009271787571845018 0.0
0.0011744392023555045 -0.0008383868281542629 0.0
0.002549085255046146 -0.0009924545170440751 0.0
0.0015951022061194353 -0.0009543248412051774 0.0
0.0017970056470859223 -0.0003356730128365065 0.0
0.0036901976265571864 -0.000132359726713086 0.0
0.0030462696312289947 -0.0005135472005580973 0.0
0.003026555714065479 -0.000550518701347341 0.0
0.0015427371511705645 -0.0005009334850365885 0.0
0.00262030018908954 -0.00045140024757294665 0.0
0.002082467394777189 -0.0008094835813362574 0.0
0.0010677499353981073 -0.0006601053614056553 0.0
0.0007974001556586492 -0.0003804161579966019 0.0
0.0018124351165297176 -0.0004912648243145449 0.0
0.0037687216820506964 2.8174776892691443e-5 0.0
0.0014484053312607695 3.9367341094935186e-5 0.0
0.002051495815225397 -0.0003868487106395418 0.0
0.0024261361686208315 -0.0005479951266047892 0.0
0.0002785991399569173 -0.00027050315324663436 0.0
0.00028888448860654 -0.00029988645653728055 0.0
0.001812149972780414 -0.0007301569676048098 0.0
0.0015189966449972371 -0.0006841402883792979 0.0
0.002198216520499731 -0.00058980878873465 0.0
0.003995480647649214 7.380716289278535e-5 0.0
0.002325806516935335 -0.0008798671608854985 0.0
0.004225547277254518 -7.064029801156493e-5 0.0
0.004199977332597491 -0.00010320121128812362 0.0
0.0011801842581718575 -0.0001930360602411932 0.0
0.0018687053696655267 -0.0005424411915069824 0.0
0.001974578369728324 -0.0006526246244807596 0.0
0.004101886816407999 1.4366588841257585e-5 0.0
0.002000001853182923 5.686017520385063e-5 0.0
0.0028799933369448583 -0.0006859087161972663 0.0
0.0029667051765916268 -0.0005801606491866479 0.0
0.0011532433202339752 -0.0007959767025786439 0.0
0.0027215346254058064 -0.0005400441125810321 0.0
0.0018696872609521846 -0.00047981995878684775 0.0
0.0028507011552472436 -0.0004891375666598805 0.0
0.0028390916885734116 -0.000524599470102861 0.0
0.0029155260860512654 -0.00046307765570287405 0.0
0.0009591404107571193 -0.0007505571388265002 0.0
0.003370623459892529 -1.3567600366724792e-5 0.0
0.002487634343665146 -0.0009581061594352415 0.0
0.003546449144107888 -0.0005908774834101558 0.0
0.0032061978508765594 -0.00037932139609609295 0.0
0.00207299328179416 -0.00028961959347607966 0.0
0.0026570691660927925 -0.0008228179891172095 0.0
0.0016594177149799713 -0.0006903045595976822 0.0
0.0017422652329830979 -0.00040992345160006255 0.0
0.0039793129540507035 -4.733858695266987e-5 0.0
0.0009149720364470404 -0.0002680463449204287 0.0
0.003073628815924406 -0.00021875046917986085 0.0
0.002042442442554955 -0.00018544444186913527 0.0
0.0026786691965820946 -0.0004609566866307868 0.0
0.003819693597924826 -0.00012973394146149943 0.0
0.0003224344700950715 -0.0001571973740353235 0.0
0.0031125421119086046 -0.0005603706738944419 0.0
0.0023235798290731245 -3.0293524241813632e-5 0.0
0.002302480933123624 -5.176824292620164e-5 0.0
0.002571426199727906 -0.0007962246946487263 0.0
0.0023641075409750736 -0.0006047959404933185 0.0
0.0024348561990798602 -0.0007918228630426344 0.0
0.003168267175767637 -0.0006553368979835247 0.0
0.0031463504359796743 -5.7529038388271394e-5 0.0
0.0020200109970598557 3.4700449985111737e-5 0.0
0.002847205818133313 0.00020444542053447328 0.0
0.0037137422879036765 -0.00035245020430405596 0.0
0.003728668422051858 -0.0003191441985761278 0.0
0.0020348942398750298 -0.00010226525977778075 0.0
0.001378450131055469 -0.0006713631469696513 0.0
0.002782619238537644 0.00018485713864980097 0.0
0.002029691217946792 -5.861005498006919e-6 0.0
0.0027105459069165136 -0.0005762463440408915 0.0
0.004167281694724732 -0.00010814838151620874 0.0
0.0006975967207285242 -0.0005131519963909449 0.0
0.0026049427483233554 -0.00027901478671963763 0.0
0.002037380425582348 -5.326315487620639e-5 0.0
0.0020332028992731434 -8.722677996793881e-5 0.0
0.0007187658962837018 -2.8487863331543315e-6 0.0
0.0037477059465595964 0.00014523073948458123 0.0
0.0022001272590405413 -0.00019438075439402223 0.0
0.003834759483520098 -0.000267202529357985 0.0
0.0013271474665717436 -0.00064149233798962 0.0
0.00329611189529611 -0.0007478967288198641 0.0
0.003383068800982304 -0.0007143327515216347 0.0
0.0012011040224753679 -0.0006622050833816313 0.0
0.0028115662606878694 -0.0005959055781052983 0.0
0.0018297316660157818 -0.0009954416963833719 0.0
0.0026715175078404377 -0.00016863809463595384 0.0
0.0007569849446465493 -0.000654456391775177 0.0
0.0022195541909412852 -7.911740419003156e-5 0.0
0.002312510179963117 -0.00025958265381246696 0.0
0.00226262701055177 -0.00010891320372409003 0.0
0.0024772916667913517 -0.0005978366172501647 0.0
0.0030110020582444753 -0.0005867388937227437 0.0
9.94316075119257e-5 -0.00011963611205647985 0.0
0.00017186603988158242 -0.00020052915951699167 0.0
0.00020647314333301282 -0.00023689340044963058 0.0
0.003989648671277243 -0.00031696195559233626 0.0
0.0002788089485778946 -0.0003100863822331215 0.0
0.001231931612555699 -0.0006161136597878405 0.0
0.0005503876579970959 7.280017282394983e-5 0.0
0.0035897888084809792 -0.000604899022170496 0.0
0.0006378320040225108 -0.0005825840153553454 0.0
0.0007183222557445113 -0.0006324456371357084 0.0
0.003950342249847779 -0.0003490709056611271 0.0
0.003871970152050495 -0.0004145266259596619 0.0
0.002294769878661876 -0.00033040438349306507 0.0
0.0016645538491807555 -0.0008454306637489911 0.0
0.0031323890067969976 -9.64273070185993e-5 0.0
0.0036714749893670623 -0.000552456534254003 0.0
0.0037123257432022986 -0.0005270870947726218 0.0
0.0005606491620708821 -0.0005360893795143271 0.0
0.0003856240157081647 -0.00040184472912234437 0.0
0.0037935170977201893 -0.0004712451388298954 0.0
0.003824816653477284 -0.00041520405067058043 0.0
0.002577591864319772 -0.000945248648771663 0.0
0.00045962603707225605 -0.0004621619776710049 0.0
0.003151135065649792 -0.0008199775418033958 0.0
0.0007961294560155213 -0.00051886658257659 0.0
0.0035529257834388092 -0.0004358426704999362 0.0
0.001226283144384684 -0.0008194864247045077 0.0
0.0033165361788543364 -0.0005897487924395087 0.0
0.0033534942653413234 -8.085962736173811e-5 0.0
0.0012090373767320948 -0.00043973128647500253 0.0
0.0008082524987646631 -0.00041343555446682833 0.0
0.001567822543117002 -0.0007119297795702971 0.0
0.0020870904423995473 -0.0005880742516571711 0.0
0.003555427202786602 -0.00024975958827083 0.0
0.0022284733138829733 -0.0009237596722030074 0.0
0.0022574657082144144 -0.00020299979388423348 0.0
0.002232429789925774 -4.60528682952573e-5 0.0
0.002871254315976423 -0.00042132329448475817 0.0
0.003318033799512909 -0.0005006535057991379 0.0
0.0011605067313455737 7.811932975262319e-5 0.0
0.002694274155689432 0.000149538504732545 0.0
0.0013177467806267803 -0.00043085939504716134 0.0
0.003597231734679931 -0.0003612768057642081 0.0
0.000835166871449469 0.00013128518682780916 0.0
0.0007117308198995666 9.954026349085384e-5 0.0
0.0018198074320682834 -0.00012613551861417427 0.0
0.0037344744260576043 -0.0001605845030719533 0.0
0.001974403907326297 0.00011502003423540617 0.0
0.002191475705792208 -0.0002485284201880447 0.0
0.003951504306949405 -0.00015241717495514528 0.0
0.0011069182103657436 -0.00044598853632413097 0.0
0.0013635830613354149 -0.0002739176589535963 0.0
0.003085864680113727 -0.00041021074955040985 0.0
0.0034169771318187494 -0.0004682078235283985 0.0
0.0009583676471783803 -0.00044965909772492205 0.0
0.0005534674275531104 -0.00039328379989376453 0.0
0.00327631421797446 -0.0004970097310318303 0.0
0.001388737861879072 -0.00017188780063319938 0.0
0.0032382766764049676 -0.00028140465829148845 0.0
0.004234247910538892 -5.638597846210131e-5 0.0
0.0035215042684737627 -0.00012260631614126715 0.0
0.0022664667706647932 2.6579299005765288e-5 0.0
0.0023422038844402946 2.073411687023709e-5 0.0
0.0026594949315067178 -0.00034198482701476037 0.0
0.0038631108334928367 -3.202791058705136e-5 0.0
0.00379746679069708 6.179535505865424e-6 0.0
0.000166436292109979 -0.00013523926740734198 0.0
0.000123426000459703 -9.943862397101997e-5 0.0
0.0017103123506310015 -0.0008324922712754238 0.0
0.002774012147162131 -0.0005504923964902958 0.0
0.0015522024000678256 -0.00029012089960726395 0.0
0.001550127421469911 -0.0002640765616430638 0.0
0.0015218105406490136 -0.00010573132648471312 0.0
0.0021846264718274134 -0.0007787867064075814 0.0
0.0025399507111014403 -0.0002989107136678754 0.0
0.0006770123950474873 -0.00012009100100742135 0.0
0.0029811942198803595 -0.00022794530361605134 0.0
0.002297011940930137 7.42491148633892e-5 0.0
0.0018122579172908787 -0.0005225526254149268 0.0
7.332399952568569e-5 -8.787496738075055e-6 0.0
0.0020896126766234632 -0.0005540768992040196 0.0
0.003931173974419175 -0.00017638596799082686 0.0
0.003360726360655188 -0.0002855137235687279 0.0
0.0031865245909510416 -0.00021049131371867958 0.0
0.003767767361156999 -0.00023003394650629225 0.0
0.002745693522624641 -0.00023935679356481174 0.0
0.0014928083401553045 -2.6169383926709475e-5 0.0
0.0004893272426659217 -0.00018812019215297597 0.0
0.0018645973561184515 -0.00025929196184348125 0.0
0.002347874917964564 -0.00034226759763713904 0.0
0.00060995611006522 -0.00033580888470043704 0.0
0.0019755508574803866 -0.001011529400546488 0.0
0.0026557750896375972 -0.00023667871738937456 0.0
0.0012833123843211558 -0.0006481758003498696 0.0
0.002869264177679839 0.00018014016951597864 0.0
0.003612356916867867 -0.00024709886303791756 0.0
0.001379078968686596 -0.0001442004689517197 0.0
0.0031605597615803104 0.00019466885410049546 0.0
0.00242485381314792 -0.00028067875674487084 0.0
0.002092448471318182 -0.0005213728457584283 0.0
0.0007605439602275451 -0.00014737505477974142 0.0
0.001426024420416703 -0.0003015695448624397 0.0
0.0018201517334623834 0.00019018825564554265 0.0
0.0005690148203740281 9.506997269652728e-5 0.0
0.003192468244418259 -0.0004147152481845795 0.0
0.0008377585221622874 -0.00031991646730664407 0.0
0.0021503019645976516 -0.0005073129230242859 0.0
0.0035558073587270565 8.87800098345623e-5 0.0
0.0030310941926497284 -0.0004057407752460952 0.0
0.001406396259171405 0.00013810200615365343 0.0
0.0002556042620470626 -7.290607301727384e-5 0.0
0.0010865993435557578 -0.0002624708945687568 0.0
9.690143240908337e-5 9.039024292633715e-6 0.0
0.00020249903763677694 4.101818148880529e-6 0.0
0.003013294016639721 -0.0003740853416436265 0.0
0.002486612789239741 -4.043580888025678e-5 0.0
0.0013987373672152245 -0.0009117879708639588 0.0
0.0009757194178496544 -0.0005925699161689584 0.0
0.0035217434609866242 -0.00019324769484209514 0.0
0.00047545714438769395 -0.0004494115282823569 0.0
0.002923122940327101 -0.0004302458572412527 0.0
0.0024426077005976093 -0.0007526314738801754 0.0
0.0034937576327271668 0.00013732422275623344 0.0
0.0012550126629568685 -0.0007706250249882436 0.0
0.003814177816070085 -0.00037182918625937767 0.0
0.0021940772760600676 -0.0002305741056495084 0.0
0.0006907349202183363 -0.0005850886053454407 0.0
0.002962537854143036 -0.0008503276569144596 0.0
0.0007061487631140469 -0.0003767819274008731 0.0
0.00403591310382033 -0.00016508466566041318 0.0
0.0005033971406143141 -0.000264918540664554 0.0
0.0029840138804655193 -1.0475934159395733e-6 0.0
0.002749632050158913 -0.0002118656963078011 0.0
0.0022343612463539267 -1.1544023693886925e-5 0.0
9.891319315499357e-5 1.3911228930814677e-5 0.0
0.0016256888210689337 0.00021972236037757657 0.0
0.0011626681759720038 -0.00016076794057100634 0.0
0.0034174926351868916 -0.0006606906842545502 0.0
0.0034644709839699367 -0.0006780694763535491 0.0
0.0003229002311262282 -1.1891098068974653e-5 0.0
0.0024920823641414354 -0.0002659893027531229 0.0
0.0010189613868643666 -0.0005925669263133593 0.0
0.001760247039951025 -0.0005660601845159381 0.0
0.00010289890082173806 -9.475812358528964e-5 0.0
0.00023857972591733896 -4.2069781176749684e-5 0.0
0.0023963944264541515 -0.0003792686534492161 0.0
0.0022081925109793785 -0.0004915962341718128 0.0
0.00015566985783782374 -2.3611130748259426e-5 0.0
0.0004174846777720523 -0.00015431412315275377 0.0
0.00031412518377028285 -0.0003417444872890649 0.0
0.003574245706618388 -0.000396824751167631 0.0
0.002824428587714315 -0.000559981039751234 0.0
0.0005003308685266604 -0.00035567577701794447 0.0
0.0033074234508389646 -5.849548750420436e-5 0.0
0.0030419672418411326 -8.065669068202112e-5 0.0
0.00022114883859186598 -0.00023757787974100055 0.0
0.0017685814514798925 -0.0001731577407000671 0.0
2.6921514040450947e-5 -3.288287326081246e-5 0.0
0.004271796691954299 -3.2079167229453994e-5 0.0
0.0041521761092483496 -7.055788692843042e-5 0.0
0.001267054431816564 -0.0008726726430075219 0.0
0.0033178615674794433 3.265740965165615e-5 0.0
0.0028327510588622316 -0.0006768190290851912 0.0
0.0005585440138026832 -0.0002736481219762242 0.0
0.002690310771216615 -0.00096469316032698 0.0
0.0006062530130136648 -0.00014742689977618258 0.0
0.0037214813475144833 -0.00018635259778664314 0.0
0.0017049683608978343 -0.0005758288831108186 0.0
0.00015607147715362982 -0.00011754892460084038 0.0
0.001968882407224861 -5.993087154499779e-5 0.0
0.001967853177041218 -7.791632662561827e-5 0.0
0.0039037098058344135 7.6782887267089e-5 0.0
0.0024226168684685213 -0.0005832777308186932 0.0
0.0003088107115465153 1.6919068412360573e-5 0.0
0.003778508241510277 -0.0004548210139476399 0.0
0.0039438908824816835 -0.0001170427049639501 0.0
0.003018186809130915 6.571679900902675e-5 0.0
0.0030961354994124253 3.240317027729049e-5 0.0
0.001847270232235885 -0.0008739081737220209 0.0
0.00418830004223448 -0.00012755884066753998 0.0
0.0018196043043979247 -0.0001460309650763208 0.0
0.0003778934790537719 0.00011902190170966494 0.0
0.0004880975013836696 -0.00038771983240502866 0.0
0.0012599008272397825 0.00017426264053176032 0.0
0.003782733859397013 -0.00037339585184496116 0.0
0.00021746477283326272 3.574553517761671e-5 0.0
0.002255911494357938 -0.00018466565947283366 0.0
0.0033741980297051794 -0.0002513561292530577 0.0
0.0027186136199606466 -0.00035364841362855873 0.0
0.004208693120264725 -5.242541356891471e-5 0.0
9.504020713667624e-5 -5.0862421025956823e-5 0.0
0.003957661066096837 -2.957496461883567e-5 0.0
0.004221549851946887 -5.14540888067692e-5 0.0
0.0020851577221877044 -0.0009774227956902309 0.0
0.0024652045772281424 -0.00036497201630000966 0.0
0.001384331159822168 0.0002315713348419342 0.0
0.0010113477239648957 -0.00044763061898081004 0.0
0.0013405278169399673 -0.00023750352258871936 0.0
0.0017589089968797805 -0.00019280655842670512 0.0
0.0008483128332347879 0.00010921183864002304 0.0
0.0015627164230206426 -0.0006732392314038337 0.0
0.0007726457723996244 -0.00011630534223159759 0.0
0.0005004869710564204 0.00011852085116845057 0.0
0.002004272639824608 -0.0003239057455959445 0.0
0.0030691284434409614 -0.0005559221210802767 0.0
0.003634005860917881 -0.0003620000740697198 0.0
0.0014225514794736463 -3.159535569545023e-5 0.0
0.0009473731331051834 0.00019524103202147295 0.0
0.0023245728454301187 0.00010605438014115004 0.0
0.0012390837229827947 -0.00015597188549846462 0.0
0.0034445145672861864 -0.0003746675928623777 0.0
0.0011679882351603417 0.0002320774885191183 0.0
0.0010499367918354238 0.00022789672397470248 0.0
0.002371647727515937 -0.0005333758649887533 0.0
0.0023873515229333358 0.00017276516091242866 0.0
0.0016828900087060567 -0.0009732670683254128 0.0
0.0032440803410235803 -0.0007804768968516038 0.0
0.0011524156180344545 -0.00041284781879417974 0.0
0.0030173744293654913 -0.0008712926035921994 0.0
0.0009242573002823378 -0.0001515964578493212 0.0
0.00350567511247468 -0.00036682984977555997 0.0
0.0016492326857963557 -0.0005530041007628909 0.0
0.003714531767212974 -0.0002391717929741559 0.0
0.001014931261431035 -0.000417524840213556 0.0
0.0016965860511494425 0.00021466790786297247 0.0
0.0015151722434114743 -7.950622567077981e-5 0.0
0.001925574483684257 -0.0007368737692112396 0.0
0.002036765063382676 -0.000237864686150883 0.0
0.001966914518409491 -9.483529373110222e-5 0.0
0.0011788602182888862 -0.0005819278435769029 0.0
0.0011925549878844227 -0.000623084080197228 0.0
0.0007675559497465833 -0.00028779176244386447 0.0
0.0010137511076356877 0.0003103884289353396 0.0
0.0019948820535500068 -0.000854034643684408 0.0
0.003747073038571056 8.328408822659877e-5 0.0
0.003377314119313608 -0.00046577369594406215 0.0
0.002350235737701929 4.536289947935313e-5 0.0
0.0011012991543648254 -0.00041622783093293284 0.0
0.00295629564167946 -0.0003288241544119613 0.0
0.002498694344438903 -0.0007292722996113748 0.0
0.0016464560777397009 -0.0005191436332675435 0.0
0.00399280096661576 -0.0001438352257753575 0.0
0.004185447661737348 -8.695495984384368e-5 0.0
0.0014849667482102998 -0.0002720904935121148 0.0
0.0028609734557091737 -0.0008827419771743512 0.0
0.0038677954356111737 -0.0003915137184075771 0.0
0.00019049389859113474 -5.135632646005034e-5 0.0
0.0010217080699913 -0.0002661338086868152 0.0
0.0012079437198640585 -0.00040991739181742436 0.0
0.0039369331546815845 -0.00033786902788809415 0.0
0.001555753010501112 -0.000634085169023685 0.0
0.0026938903590918 0.0001790725690589597 0.0
0.0004018765210780422 -0.00039365054012494455 0.0
0.0024929561707381963 -0.0004346375623488279 0.0
0.0036189654260343446 -0.00032832129852297426 0.0
0.0028852203343347864 -0.000532842497532331 0.0
0.004060468832730625 -0.000138056618990344 0.0
0.0029236841400644966 -0.0008020773917872146 0.0
7.50149855597542e-5 -4.286331438887306e-6 0.0
0.001906659888699824 -0.0003115982219131306 0.0
7.108772834766894e-5 -5.347913534897453e-5 0.0
0.001333952962011729 0.0001193603132512165 0.0
0.0008958797034024779 -2.5812281341664575e-5 0.0
6.110674689137258e-5 -6.877685069692193e-5 0.0
0.0010896610942602452 -0.0008124876430503196 0.0
0.0010072062424812942 -0.0007430942215555551 0.0
0.0018239261165723059 -0.00010849370946716239 0.0
0.0018218927199407048 2.18538327588564e-5 0.0
0.0007312432401730482 -0.0006102009915497562 0.0
0.0013088461942072534 -0.000151009740410924 0.0
0.002540075769572113 -0.0002779840535282757 0.0
0.0007489736421470414 -0.0003780577144323269 0.0
0.0028213298687114535 0.0002047024681034914 0.0
0.002559389312106663 -0.0007043942536547205 0.0
0.0005489775022547802 -0.00014952559068445506 0.0
0.0003105588679647881 -0.00028386844290420544 0.0
0.0022002419633164764 -0.00015973103347817998 0.0
0.00014301203846317758 -0.00015928579833141546 0.0
0.0041042954789615865 -4.722753907122546e-5 0.0
0.001438102092030314 7.249462304411822e-5 0.0
0.0020163873516403624 -0.00029793591869809225 0.0
0.003732773832783151 -0.0004137421131214512 0.0
0.00406334200019253 -0.00025131640832048747 0.0
0.003387844269685378 -0.0002170915151538668 0.0
0.0019889112263476137 -0.000814131764582148 0.0
0.002589500330971869 -0.00041140503298628286 0.0
0.0036524206367396254 -0.0005368063206360295 0.0
0.002174671466936862 -0.0010244275674022103 0.0
0.0035707033333985966 -0.0003324525538826443 0.0
0.002897602777137286 -0.0004981431481110331 0.0
0.0015020493303548035 -0.0006071988792794527 0.0
0.002548664925276968 0.00018597410707219138 0.0
0.0015871897460970434 -0.0004913501676324741 0.0
0.0013240674602227212 -0.0008085555664037329 0.0
0.001982111674123529 -0.0002442115585086185 0.0
0.003347356726959426 -0.0006950490016303668 0.0
0.0007602788739836608 -0.00026007220030349506 0.0
0.000609057212571985 -0.0005411844415515942 0.0
0.003094102829738419 9.424873786326831e-5 0.0
0.0009640783380157798 -0.0002965065899205748 0.0
0.00247516408102918 0.00017686114439476679 0.0
0.0012709641126341503 0.0004547323607492641 0.0
0.003175463336237967 0.00026842538994685874 0.0
0.0037053124251556326 -0.0002151099936579828 0.0
0.0020503009079339616 -3.865299420341193e-5 0.0
0.0033099415084565684 -0.0002521258527622087 0.0
0.002621229363317366 -0.0007659643620836297 0.0
0.00277627136070065 -0.0009478580935025309 0.0
0.0012648436688901352 -0.00040456673421081723 0.0
0.0012568784312350038 0.00023974230365778705 0.0
0.0008348717098731657 -0.00026435028995130277 0.0
0.0009215622911725243 -0.0007432409061791884 0.0
0.001872656737124571 -0.00034508364157000924 0.0
9.682748970882156e-5 -4.6085994083066064e-5 0.0
0.0007058522251469619 -0.0005593596875128645 0.0
0.002044874605009455 -0.00013123954976389986 0.0
0.00024141858401669663 -0.00017530711128658537 0.0
0.0002477237579127061 -4.722684595564818e-6 0.0
0.002253725085571992 -0.00047908573266831835 0.0
0.002257127192246911 -0.0001677459266311627 0.0
0.004014572408393265 -0.0002747832433819907 0.0
0.001757186866699791 -0.0001537643789260689 0.0
0.003088941385192784 -0.000519283286815809 0.0
0.002276105066046212 -8.584330256317049e-5 0.0
0.0005795547607732281 0.0001109381167285673 0.0
0.0007651310732813694 8.617179538403271e-5 0.0
0.004120809100221943 -0.0001015713858304292 0.0
0.002622371346252705 0.0001821789255905905 0.0
0.0006161817601684931 -0.00028051296837165935 0.0
0.0025990297120078924 -0.00017858366574883853 0.0
0.0019591120901486037 -1.6056891166120827e-5 0.0
0.0022377350757307596 -0.00023889424024773495 0.0
0.0007042273661508004 0.0002026325766485075 0.0
0.002267729139671044 -0.0010275073863291813 0.0
0.003911932303169803 -6.475963637241742e-5 0.0
0.0022159004133815636 -0.00039906225992534844 0.0
0.0021978856337991396 -0.00011080631400339198 0.0
0.002797709279508272 -0.0003017741809716874 0.0
0.0018971738647234856 -0.00010280275466278198 0.0
0.002225937904489951 -0.00036995736511703906 0.0
0.00106900276730098 -0.0006322836088951295 0.0
0.0029602138611882914 -0.00047090970540001107 0.0
0.0017564914502804087 -0.00027500966987002126 0.0
0.002196622965004179 -0.00014384748826834989 0.0
0.0035009723194542987 -0.0006626581961710962 0.0
0.0018750962856430326 -0.00023810836300205493 0.0
0.00262131900448648 -0.0001319020531646498 0.0
0.0022866564936780322 -6.963693816319245e-5 0.0
0.0003258249687010959 -0.00033515786114013353 0.0
0.003394407189375219 -0.00043595942632527747 0.0
0.0022710396851617744 -0.0001291946758097588 0.0
0.0012519922093055023 -0.0008063735694970246 0.0
0.0024717512873283355 0.0001856463429207792 0.0
0.003109882248313922 -0.0008429175337361747 0.0
0.004129897402997486 8.366410214849629e-5 0.0
0.0001816871227914233 9.760340204684762e-5 0.0
0.001826124772633737 -0.0003567505397293422 0.0
0.002438927186889492 -0.0009739522081430546 0.0
0.0015284795737047603 -0.0009080703589542716 0.0
0.001740677087717483 -0.0009845897887657286 0.0
0.0003206696263201991 -0.00014155673432810956 0.0
0.003144626881712304 -0.0004947833034109226 0.0
0.0012712523650960483 -0.00037434615430562883 0.0
0.0018110536606165417 -0.0002468137708047603 0.0
0.0014293231699039235 -5.700230797167057e-5 0.0
0.001803695740504308 -0.0009628779175438272 0.0
0.0030965598304812463 0.00020493853998461328 0.0
0.003951267644108971 8.946292525277577e-5 0.0
0.0026220149092818766 -0.0007346413989329537 0.0
0.002208991222410886 -0.0004308448752374937 0.0
0.0014122767656005834 -0.000600087929722855 0.0
0.0023617992100452923 -0.0010242913205366255 0.0
0.003276351844016642 -0.00042284791453784775 0.0
0.0002796340627894851 -0.00017458752124784144 0.0
0.00385721691859484 -0.00013457726489215667 0.0
0.00190320760172054 -0.000973264452236112 0.0
0.0019509916133165254 -0.0008732123895808661 0.0
0.0029753721304183627 -0.0007646119829943516 0.0
0.004242030551893907 -5.975580447089359e-5 0.0
0.0016197691228500826 -0.0009297326684569497 0.0
0.0013469329662136465 -3.4618085380376786e-5 0.0
0.001432449773597676 -0.00027972055437774056 0.0
0.0027804533014710053 -0.0003353904601225202 0.0
0.004127914276594223 -5.149877729983234e-5 0.0
0.0003389710118862338 -0.0002960180906689261 0.0
0.002233266096233473 -0.00034465611982944464 0.0
0.003835257505121709 -0.000376619934999837 0.0
0.004110979078027332 5.1833775374844e-6 0.0
0.0012086837555764906 -0.0002257088289030109 0.0
0.0019485410516100405 -0.0009823784319614073 0.0
0.004006432679935966 -0.0001259570897220553 0.0
0.00073251523485899 -0.000525345532986978 0.0
0.004186772007457206 -3.578326183419249e-5 0.0
0.0013587271708155005 -0.0009074975274689816 0.0
0.0029724185621978834 -0.0004364030137865869 0.0
0.0008083224566469776 1.418681991147167e-5 0.0
0.002687236696025712 -0.0001364293817983548 0.0
0.004153280762426852 -0.00014866777127723406 0.0
0.0033365165568956336 -0.0003942694274302332 0.0
0.0011911449751120947 -0.000818365239801984 0.0
0.0008399988234964981 -0.0007050336686704896 0.0
0.0010688207300338195 -0.0005755476332976971 0.0
0.0035830086436754783 -0.0005795696875706466 0.0
0.003249087403434364 -0.000254759499213168 0.0
0.000669986498236291 -0.00028976827799993566 0.0
0.001727291667341977 -0.00034120743121025614 0.0
0.0027760838644288947 -0.0003696788666884285 0.0
0.0016681072243529063 -0.00040274972931041993 0.0
0.004036416374844657 3.8354093141943444e-5 0.0
0.0029642935471252217 -0.00020225742443365888 0.0
0.0017473980027065425 -0.0002554207859427203 0.0
0.0006885239589909818 -0.0002554330495238532 0.0
0.0031754639889585187 -0.0004435151925547729 0.0
0.0026601809508854926 -0.0008968203235763833 0.0
0.0037409767866754227 -0.00048591718731326 0.0
0.0014563671842831392 -0.0008925709175617054 0.0
0.002746631637522442 0.00013606985115567142 0.0
0.001591120423899885 -0.0004583842479412651 0.0
0.0025293970649849108 -0.000963943924777092 0.0
0.0037003024203047046 -0.00041685502160733115 0.0
0.0032184931753746187 -6.777243692115636e-5 0.0
0.004036959045055359 -1.9096256591399704e-6 0.0
0.0009503840995032605 0.00020737694141218128 0.0
0.00392634775104596 -1.815918901890787e-5 0.0
0.0013931661919741592 -0.0005499790546887391 0.0
0.0036312098880366597 9.506349903843228e-5 0.0
0.002543789802059708 -2.386261532935532e-5 0.0
0.0029844872107855514 -0.00014343166222278428 0.0
0.0013078851193373902 -0.0003345495256192999 0.0
0.003032852921418979 -0.00024356158537879583 0.0
0.0020436916058348786 -0.0009871411595505758 0.0
0.0011133336825759946 -0.0007674337718452373 0.0
0.0023077785100393223 -0.00017565236634148565 0.0
0.0032065969160151443 4.2569056970846055e-5 0.0
0.0019162037938207292 -0.0009203486651469972 0.0
6.73553422536651e-5 -4.618981135780112e-5 0.0
0.0041503803168259626 -6.508740188526718e-5 0.0
0.0036161903621835982 -0.00013676220453411983 0.0
0.0017413868309180591 4.423292632552043e-5 0.0
0.004205544578130649 -7.650904448685857e-5 0.0
0.0011572068874311416 0.00017566864645988259 0.0
0.001961079343318015 6.281340762752946e-6 0.0
0.004269992432580715 -3.679914971007651e-5 0.0
2.8344415192791228e-5 -3.6601911390821194e-5 0.0
0.00010001383870663728 -8.574964101163056e-5 0.0
0.00123333446437964 -0.0001323443991878017 0.0
0.002630571286750942 -0.0004237351980105976 0.0
0.002984827740684084 0.00010547339411096557 0.0
0.0033519016205784706 -0.0006591681941251302 0.0
0.004164332276239075 -7.774927052234067e-5 0.0
0.00031122099229406367 -0.00020002770174433465 0.0
0.0008941886299586243 2.396934639629828e-5 0.0
0.0026782843322110178 -0.0008528503440110223 0.0
0.0037425479434885734 -0.00013969126783362396 0.0
0.0011037513157234628 -0.0005731682404771765 0.0
0.00024127059513218756 4.7651013783930664e-5 0.0
0.002660274021986091 -0.00018936503368225532 0.0
0.0012813890979584577 -4.0712984794385104e-5 0.0
0.003165855230533517 0.00020178947006422454 0.0
0.00199737214037048 -0.0001271908968718691 0.0
0.0016541207401098022 -0.0004278081782802922 0.0
0.0037993151511890202 8.779087090498237e-5 0.0
0.0039000815263195094 -0.000373251482897101 0.0
0.0032268482944368786 -0.0007577091353133867 0.0
0.000971397654102266 -0.0002721010452089302 0.0
0.003964768426765824 -0.00012106873132263751 0.0
0.0006554359180495708 -0.0003471408397788383 0.0
0.0039984758157332575 -5.608320784998211e-5 0.0
0.0036160834000016186 -0.0005663961306767892 0.0
0.0025720215237772593 0.00010706927355029192 0.0
0.0030003133817071205 -0.0008483372840255033 0.0
0.0031186838894556044 0.00019319311893790922 0.0
0.0019794219050618435 -0.00020179445850138935 0.0
0.0011028322991714638 -0.0007273028126984976 0.0
0.0014953771320191823 0.0002253498885959667 0.0
0.00010109881420269095 -6.762014520362498e-7 0.0
0.004112786146113475 -7.694027303175788e-5 0.0
0.00043390264443762165 -0.0004247439038375496 0.0
0.0031642909477399253 0.00011417178509835826 0.0
0.0007648551231608919 -0.0006338923696367361 0.0
0.0029758188415974066 -0.0004085464151853168 0.0
0.0008767616232579642 6.430646586654322e-5 0.0
0.00036755119813440567 -0.0002150067846316014 0.0
0.0005309273613744929 -0.0005214900575698982 0.0
0.00047956327565275975 -0.00036097072711474315 0.0
0.0012498668582633817 0.00027490938472078447 0.0
0.0033568403762322023 9.958366994424984e-6 0.0
5.155672892661593e-5 -5.476530585898776e-5 0.0
0.003588129030192094 -0.0001212134175777036 0.0
0.003238116172357374 0.00023562039360764693 0.0
0.0026946934910003504 -0.0004036167594236718 0.0
0.0020010968166782796 -0.00015789826931908132 0.0
0.001130163892104458 -9.629656046958749e-5 0.0
0.0020511913005685015 -0.00021990144916400443 0.0
0.0027388837698220704 -0.000778367941129685 0.0
0.0013216530929220465 -0.0003741796037289189 0.0
0.0009792320629581712 -0.000741774141591889 0.0
0.0036850183439469425 -0.00033167564103360524 0.0
0.0028047707090380937 0.00020704045929986542 0.0
0.00043694260041405604 9.712975825867622e-5 0.0
0.0012576948420817565 0.00011713925946039153 0.0
0.002890921340255714 -0.00030507237043082705 0.0
0.0027253382647292163 -0.0009253514052175246 0.0
0.0017224445258294252 -0.0003654401449084883 0.0
0.003454671732746364 -0.0006564819804522873 0.0
0.00025565104948758994 -0.00027464699248099005 0.0
0.0030220233922312913 -0.0007332887083733682 0.0
0.0014186945402773134 -6.485652700349777e-6 0.0
0.004044764518657437 -0.00025175999345812577 0.0
0.0013607304617077555 9.055302474288007e-5 0.0
0.0026426479199734144 -9.559474033782188e-5 0.0
0.002270981077650377 -0.0004591305345472571 0.0
0.001965759310904108 2.663568597082165e-5 0.0
0.0023503071869347314 -6.0216549623086166e-5 0.0
0.002627840479301393 -0.0009416827165035193 0.0
0.003381003928450173 -0.0006846322691734113 0.0
0.0010636144507778984 -0.0004226320313324115 0.0
0.0024090729447122827 0.00013426398827580505 0.0
0.002351682305764736 6.716223792012325e-5 0.0
0.003367342889361518 -0.0006155172663860781 0.0
0.001987589499479678 -0.00018410080821315507 0.0
0.0018958605121917299 0.00010800004592343016 0.0
0.001096146081710043 -0.0006898352675640896 0.0
0.004019036683500918 -0.0002539142702124044 0.0
0.0028427273512149054 -0.0009295741730211423 0.0
0.0019209309503096601 -0.0008928694813707695 0.0
0.004145565412510343 1.9207888462413656e-5 0.0
0.001894392196608029 -0.000790025710042497 0.0
0.00315916696595295 0.00020185195113665592 0.0
0.0011381923083233396 -0.00020477735615008697 0.0
0.0028064061521025294 8.196550778830601e-5 0.0
0.0008239942411895398 -9.38971791118256e-6 0.0
0.001793845843855152 -7.972162261493653e-5 0.0
0.0011641827002757763 0.00036309790844466167 0.0
0.004220121104439519 -4.921980668989398e-5 0.0
0.002639846005525667 -0.0007080403596963312 0.0
SCALARS damage float 1
LOOKUP_TABLE damage
0.29892963297887515
0.07847253767949297
0.3362607622833459
0.10899224745590079
0.9645441657631182
0.9706751342635426
0.016854668569035593
0.45975764007725445
0.4515371285318944
0.45308871120369726
0.4735656217970789
0.49164168255311624
0.5177569152709289
0.5433825736569985
0.5605930629255885
0.5762166300174828
0.5740776741678771
0.5704756578092174
0.55877299464594
0.5395811294954449
0.5206218479873985
0.5074803904685211
0.48546427557621763
0.4603573393498562
0.4435391423851666
0.41994913980567616
0.3894812551166798
0.3621086820137377
0.3250557016154426
0.2882393462142134
0.24456066055224474
0.19563922680017554
0.06546556554798562
0.12519792513680367
0.13968535016730566
0.16157887486949388
0.17705673131856783
0.1890119386570062
0.20267830078961288
0.2129224044292746
0.22357272358170843
0.23430281957757806
0.24291651545684062
0.25297130009804214
0.26323863204845466
0.2704150822740367
0.27816689773758446
0.2871273172310649
0.29733698352316323
0.30921192533493125
0.3163966810046885
0.32592992302460094
0.33528662424603567
0.3480927454090741
0.3531467801231419
0.3685476533548192
0.3754907157212369
0.3897612488466077
0.39933627770991065
0.4161637634403924
0.42111423079890764
0.4396247684152412
0.4514509204316493
0.4678314118717076
0.4793747463611122
0.4969852388166589
0.5070039142012241
0.5217339485446417
0.5397663174033992
0.5611526185268038
0.5833412723825857
0.6016497967527519
0.6216626780496547
0.64986488568507
0.6686624885658362
0.6933049830483136
0.7217303895737964
0.7402639306497127
0.7706805441223347
0.7931207964339667
0.8171899001151275
0.8453410350199465
0.8675590694962931
0.8770859527069713
0.9056324692337417
0.9149436191633683
0.9375840496983658
0.9356064716258187
0.9355004524100734
0.9215877213701625
0.9031754642403221
0.8769613013776951
0.853369196625371
0.8273490307662493
0.806841745059429
0.7798958273020451
0.7669140226623726
0.7450768644379001
0.7201693568852384
0.7034395976851927
0.6847215516560695
0.6744897821616305
0.6516040293229112
0.6453938633759045
0.6304104174270698
0.6171782131937035
0.6069619774736732
0.587499565705892
0.5809166479121457
0.5691405357058966
0.5569812473659995
0.5415087742969903
0.5409430887307585
0.5208581894925743
0.5141814119957256
0.4995521033227561
0.4894887437204727
0.4797310025758751
0.46438675177051314
0.45352229743908273
0.44440815605907624
0.430686461310347
0.4142194369295003
0.39740698218542425
0.3849566392327361
0.3682579162621139
0.3532663112342768
0.31645481695143657
0.28670194202332394
0.27102946185865073
0.16869344744161252
0.22112788271168157
0.2846250059281515
0.35565457661455474
0.3984136576099349
0.42331293961662236
0.44329232903961174
0.45795166070678056
0.4682941374394096
0.47614743600975207
0.4869611332693267
0.4942614484145397
0.5011320220174376
0.507737375411179
0.5138618620455857
0.515709900032971
0.5128916929569013
0.5060299485882853
0.4999411991953151
0.4808078240919003
0.4726237650185411
0.4609459356002073
0.45121870851200874
0.45852479001322716
0.46967182055900536
0.5460285411257952
0.4035847713297619
0.7744859142836625
0.9875728138098985
0.993157435401527
0.9806291834383415
0.9165984050911277
0.7758410989366094
0.6751527568356007
0.5621318439742715
0.46964525777415933
0.37859127317039737
0.31917478586229986
0.24867614065051502
0.18317286430493754
0.11897820517096142
0.09066942141438229
0.011144118307011822
0.04437854199842175
0.08479687837031681
0.1390476906014857
0.20626241535346154
0.29553509384397353
0.401933031673137
0.5400948007048919
0.6947886026302846
0.8743005437064396
1.0095873621335263
1.0017910781461772
1.0037358997874226
0.9407880811554645
0.8114510205265001
0.5377227499631235
0.4326733105828764
0.6824703124024456
0.5367698493538439
0.8023547590702264
0.6777267679360504
0.9318981116605678
0.8223116399427572
0.6007521290184222
0.36458417501905804
0.5449775762829396
0.3149553933648333
0.5387919532690699
0.5093153117857061
0.3370152916389145
0.3650439469119802
0.029487594529697927
0.17121955894118648
0.4848271692940408
0.27061184006735367
0.4769564160816996
0.48654073854238594
0.489455946879901
0.5560235603644442
0.4348391499400196
0.22886838009057262
0.6125208928918049
0.39862981432685457
0.41474303257173983
0.45346689469354695
0.6085088471051459
0.751797953577069
0.872316701525297
0.8800592214502321
0.7499030021104929
0.6363793136145471
0.49253583635799597
0.39615185904607714
0.3848223277118295
0.19512977550946603
0.4521001756973439
0.5206667758105513
0.4030183346775766
0.3145193775696922
0.7732333922845185
0.6695631165487946
0.4488367013667016
0.45979315114882874
0.5136663755927827
0.5051400890887489
0.28797588690416054
0.08216899622577134
0.15181753170115783
0.3196543674536619
0.7070114387838072
0.9172370742314235
0.5696666362925222
0.459035911856636
0.9128145086709339
0.5751216522897191
0.3443314631968682
0.5196578949045256
0.2946936921102849
0.24958091983968297
0.45805028674030307
0.7169562928035426
0.7073472792328757
0.32733193871023814
0.23532047973840634
0.9626546932610067
0.9407011554328049
0.40970637867318827
0.49168201774642845
0.11640142626746033
0.2582463583166755
0.9227642395502729
0.6714710104507366
0.51770098121476
0.5348302276138737
0.633771582495137
0.512918288317195
0.46865905524288
0.4512950213574975
0.43024358530430173
0.41607815370464885
0.4265261948423396
0.40606725752782385
0.4152116160151514
0.4024693646392831
0.41198847909310166
0.4126125336073397
0.22612275109319022
0.08405476158829006
0.198266793845794
0.10864121958517926
0.1909707894171967
0.14017502186409825
0.19690379821164972
0.16445818450363173
0.20575141390701285
0.1815943495566352
0.21101939144289258
0.19798353438937447
0.22427419909339918
0.21080013609845266
0.23252625360054174
0.22353445539522915
0.2410285293423672
0.2322887598505449
0.24782444414888008
0.2418720244915586
0.2550633449050705
0.25151960309267185
0.2619580814114376
0.2597223699610197
0.27085844646672647
0.26988961917637727
0.2791370528292558
0.2773704999430905
0.28642637461788195
0.2839300925394225
0.2938585096142135
0.29443512696855434
0.30275848641674385
0.3036001721425427
0.31094029473317203
0.31212577701822247
0.31948752498836436
0.3216367106899348
0.15670665831012545
0.32863936570002134
0.23043377549625377
0.29013107752602235
0.331035130880725
0.33838807132837384
0.34117143343853784
0.33394762358325475
0.34428853914136676
0.34862823160425604
0.3460880509939311
0.30210605531729634
0.35677778882072353
0.35408504690426523
0.36444605120962326
0.33709262685900615
0.34784471349514007
0.36183992490163147
0.34091645210613475
0.35177720807614604
0.373714936204002
0.3715172106126567
0.34587512941491744
0.3566848207016893
0.38374200564847394
0.38199265085171447
0.3504598260724599
0.361061880747191
0.39478659468557026
0.39325582556976046
0.35401251438392123
0.36568363128910025
0.4064960704749732
0.40504333998336456
0.3580962484908117
0.3715809593931201
0.3634398390293025
0.3514943974964611
0.4081954637436557
0.4187922374154736
0.41687854712316696
0.40275030998048034
0.2670838840920549
0.41558469253749364
0.4011417461571842
0.41423940572027357
0.37696572588889976
0.3694332578671242
0.38241820534071747
0.4316907323732637
0.38047398882721295
0.37258279694474344
0.24955657877288628
0.3831513350866658
0.3755420817739159
0.3854797601170348
0.3777806796872268
0.36839844924824594
0.37014145563638184
0.3634248600137248
0.38733617198227555
0.36773599439160853
0.3596120239405225
0.39637784814416754
0.3969744551460503
0.36340438638368916
0.35755931740598235
0.40227957082620264
0.4150323986490445
0.40633267445949445
0.40550538052872964
0.4042511907756536
0.41826130558670005
0.4301721379848872
0.43209509374831206
0.4484756675795181
0.4476447974750378
0.46467746051305747
0.461847810765272
0.48033690957822867
0.4480423527513995
0.4754591088771896
0.4962824797639779
0.41598758122045437
0.36195195089282783
0.3570601618090025
0.5018525616866154
0.5186316936890353
0.510612386932692
0.5293640893280309
0.4146511277580135
0.53415152608674
0.523387563898826
0.4257928213390586
0.42463469326729486
0.4138417006109424
0.5475835222190345
0.5354454671691515
0.4372063057985547
0.43926904451405113
0.4225402143484471
0.4113004760788215
0.5568150083018845
0.545187805767229
0.5205958324113521
0.5705804262307856
0.5280414999836602
0.5080892543169244
0.36187902955551926
0.3590266796867379
0.35163690024015515
0.35886940416645186
0.3479211431902504
0.35662516423274915
0.34421117765855047
0.4513411725512949
0.4533740051743088
0.41876023884708624
0.40797750758503826
0.5509239634008297
0.35822285726530223
0.34480294841549164
0.46607657917389206
0.4683597787189569
0.36621059860047067
0.5343564302224575
0.26253300134849233
0.6690461124010081
0.2617996180075996
0.4083060009238009
0.36068877645780006
0.3462930941630508
0.41601436750694704
0.4056069165033892
0.4814202124748206
0.48501045189435626
0.5568854498723734
0.36633695945866057
0.3671985980782148
0.3711221895264063
0.5369159810560656
0.3683549109355463
0.3506786961639475
0.4780319231796382
0.41132120374739395
0.40084522269821216
0.39477170246972837
0.40183977321885694
0.38811480784626035
0.3999041318153291
0.4984985349256394
0.5018438565076172
0.339042836585236
0.37453764082681507
0.3644399013557814
0.5603214748210494
0.577431762073148
0.39377266310588444
0.3773540509916307
0.542283438998194
0.5203612839501907
0.4054161769254659
0.42327205880171237
0.517223498765737
0.5200982295732636
0.5039600746452092
0.5225581171401519
0.5052371219023698
0.5240294506973896
0.505499781432609
0.5238326599554989
0.5040490360030234
0.5220960526243101
0.5435427420793716
0.5417616663051457
0.5649572578679573
0.5625764323918506
0.587531783190229
0.5843905686455203
0.5016209364187896
0.558149687352192
0.5794076041916202
0.6080129722573953
0.6024163612597472
0.37046309914093956
0.3700851999833244
0.406568670011252
0.39644724343005283
0.5730097806365239
0.5952679776552673
0.6272252382956863
0.6193640368300138
0.37511384803526726
0.3726903097633223
0.3865127127972813
0.4020678315266892
0.3898509287735073
0.5640308791055567
0.5448998457781332
0.5372506061952846
0.32752487123498786
0.3766869685483696
0.6540137173842135
0.6452526379926282
0.6103527373533174
0.6362391347386669
0.3598656843775347
0.41072087260932155
0.4217077821044566
0.3913059609045738
0.4011618311879237
0.39143470678546954
0.39719104056647925
0.6725948449850114
0.6635374521953763
0.6256484966834303
0.6540754972329903
0.6163102756794159
0.6428480239522099
0.6823594869637676
0.6693002003592731
0.413836836055608
0.37798887606507015
0.3739249773620572
0.5340289883090252
0.5677104970801446
0.5496223821233536
0.7055722046635852
0.6940391555148528
0.3943004315874014
0.39696116052743324
0.38645711567063834
0.34668070832280057
0.4065843811414074
0.5550033272678065
0.4126442730070282
0.3894516792136934
0.5724400453637387
0.5481346281272973
0.522200519708518
0.4240568091033181
0.5852264380673403
0.38461096053738514
0.4032710626109524
0.4279460880816404
0.41514819255852126
0.6068057571076709
0.3893992385302099
0.3797538329239175
0.38032610240943554
0.3745124588449003
0.3990338601227024
0.7296749260744442
0.7118548130745888
0.37712852462143254
0.3713236491199084
0.7431430682136397
0.549828375408297
0.3724949201791628
0.36440800194329537
0.48854403589667067
0.5219656704089766
0.49891045504125014
0.5478396640282852
0.7456504390945882
0.7270710939818267
0.5824146776873858
0.5738062187491226
0.5719377502747555
0.6955017262397022
0.7080519148124474
0.3833108769343524
0.37428498129191234
0.7367203572824956
0.7164770679037759
0.36451885053242244
0.35649529549477593
0.45163182863553625
0.4420817847458762
0.35730756566459687
0.34992055993703247
0.34713195518004153
0.34073495178227514
0.5205910083966617
0.5451804521845299
0.3931021021869545
0.40899692454467973
0.3758164883727167
0.566538503025629
0.7428951281408236
0.7225506020132212
0.42313712699935485
0.6779898240476072
0.5887299540522385
0.34441704315754257
0.33606208876166993
0.33203347616081547
0.3265459867395406
0.3318891390298456
0.3226635559258531
0.3303149636670107
0.3212734867809189
0.33306873455927727
0.3235361174001337
0.33877326002764274
0.3111059137919864
0.3173181978062307
0.38432745043316563
0.3956194551159442
0.29579062352784274
0.30345406571560957
0.38030148735358
0.354980493371826
0.5515334969844381
0.5441191154331296
0.37038154886948116
0.5896870241766807
0.594223396030791
0.5653388504925869
0.5366418533085558
0.5187358547557895
0.5383158008535537
0.5558598392702121
0.40190959327109593
0.4323805313760303
0.544445873455731
0.5597774846338122
0.5390476081703918
0.3211302990565339
0.47471373195937
0.47273257394863744
0.3692511752721685
0.7459455458864046
0.7259065450258536
0.7042622581617275
0.7088999712622756
0.37759983227711025
0.3967475560953569
0.45516147235029275
0.7638075494817553
0.4045256324229692
0.7269865369279634
0.7107232883790161
0.6901454176430158
0.6934285908328016
0.6728922759170112
0.6766550490222303
0.6928939856661923
0.6768962458929891
0.2858753697785677
0.28919175554664883
0.3141061773574063
0.6123114997760087
0.620241374595846
0.5526560090858406
0.5323493852146155
0.5422148545654761
0.5269575171594083
0.4240266725476093
0.43301333152211957
0.42386250174089185
0.41548704845031476
0.28277165490494627
0.40572431079996446
0.3741531736824582
0.5541096280956626
0.33704060965013216
0.38481715078411666
0.6884340263973282
0.6744202735021334
0.42273636068820375
0.41324511341566583
0.37052394212585954
0.3696903963251217
0.39822866079197944
0.4115206342345526
0.32738311403814296
0.7243933302334679
0.43490361847693426
0.6614028420485152
0.4477732478367057
0.2713765184806362
0.2773168645597626
0.374022527322034
0.5572610877030184
0.5292500672207163
0.5737636219947174
0.42854828295507774
0.42178577523228566
0.43326795782021016
0.4298194590607991
0.4209816795151039
0.4287170181672228
0.4376885681960325
0.43504022447294516
0.44556691241886115
0.4476663911286778
0.45346002706528726
0.45545905736090125
0.462443716045462
0.46222683358036015
0.4593765488345884
0.4669990189133405
0.4695640352444112
0.4237309532725325
0.36965099634723386
0.36556088439091494
0.37512366964969596
0.4741438922060597
0.4742770374038906
0.4715892066559523
0.6907576717791508
0.6974040050965353
0.7284866668691973
0.734533268188704
0.7667546492498657
0.7716332032810682
0.7380319104622014
0.7729940536522104
0.7377783382586679
0.07531815517637558
0.8054898900267917
0.7999410336800812
0.3599383062863009
0.4851087150844122
0.4819136256815518
0.4667467865335592
0.4629041193483654
0.44899825742462596
0.44482279436602273
0.45828627314992376
0.4399759691780003
0.45374741863848184
0.4341814621267482
0.4476205677572341
0.4225191714498487
0.4318835588949367
0.43626299624534026
0.4672506961201045
0.46121805710587427
0.36628205547017023
0.305022624454831
0.1936948290794638
0.5658182596282496
0.4916460114767973
0.4862910976484965
0.256195464678363
0.2804505696842245
0.6674842793878965
0.42950446398448056
0.5276316902310185
0.5134913493783283
0.3190364666088258
0.5450571165879156
0.5251343475912905
0.24677644821370845
0.7687500758384275
0.7320357275431497
0.5130635440248895
0.5070611196033853
0.4950568475882417
0.49016910016473353
0.5009286653821486
0.4842819218683317
0.4953185749415807
0.47829628795416584
0.31778292701361494
0.47024928662984017
0.5143084822888386
0.5177296670330885
0.39770963861784825
0.3931649759875936
0.4663309259633118
0.4516903076397061
0.639206150660126
0.6457187471176731
0.7610805387858723
0.3394076022622613
0.3808941871315858
0.4625763501037147
0.5258213306056804
0.6504450962543121
0.502084186531205
0.6610921461343207
0.6585069845749395
0.6663936388901298
0.6516679125661192
0.3300048063454759
0.32606160355161956
0.4290706976136303
0.448774556428851
0.6021922030884305
0.3766252231490638
0.3854378672040928
0.7783295622555361
0.47897114904710836
0.5233504086540253
0.5304264620770067
0.5079195848156207
0.4948174334705104
0.4955013799332354
0.34388190829237014
0.25498567525817895
0.26330352075471825
0.2917219197311874
0.4485354704499496
0.44845742468397576
0.4535858595760685
0.4531047638771409
0.4756018967221384
0.477228669282815
0.5372732027282953
0.41367179914154595
0.43863167604728237
0.4339369711242011
0.40908228917328476
0.4243429088808037
0.4212620888855876
0.701509639442057
0.4690115222682517
0.46239910157524405
0.4717339997512994
0.4568037065946175
0.6451710322776697
0.6404142506323225
0.642006810710697
0.6294937673495624
0.5093659979126733
0.5030680891858753
0.8384756850924805
0.8303589818366446
0.4198626257378265
0.42440987974839206
0.6273871300865936
0.46367105504244777
0.4492533893644208
0.5678705228929796
0.5668622070414345
0.5807995999711384
0.5745549312663613
0.667304925772969
0.2522665635643923
0.34558624771577556
0.35339866931695213
0.4185555212863117
0.4331087953536744
0.4220432322770433
0.4482390904204374
0.43598392883179243
0.4628976848038298
0.45030545273420236
0.5487665389355468
0.44796456118786593
0.6432773875001678
0.7817312764356091
0.7962240152829682
0.7991295407299217
0.7623922591981098
0.4993920485274457
0.6250065961669492
0.47829976653516
0.47106530933871205
0.3432024912215924
0.5131469329189683
0.5459768525509707
0.5381367269976102
0.8055980007583496
0.7261267900163693
0.36811884347446333
0.4747590968515921
0.47745451713901416
0.4745074157337569
0.4746201725791433
0.5800551285844374
0.7020669632924883
0.5039756178705826
0.5433464028629879
0.3892434677244975
0.549320679082173
0.6632020724272232
0.6470383870110114
0.49705369961561624
0.5039187742399159
0.3870581782596465
0.39692786666457136
0.47723416000566776
0.4649061436833414
0.4370763675335947
0.4511017381021581
0.4777433385670642
0.4636135677816518
0.4876973007759013
0.47333971304652217
0.4944362809327214
0.24016318784022403
0.5110566352711499
0.24980203044617363
0.3670137814078243
0.4658599469625055
0.4979456618262278
0.4487732777252577
0.5342951717274524
0.4785663046304604
0.3144462391122575
0.30712048457803454
0.4799537819071565
0.772212117156098
0.5568107996382591
0.6133376406811285
0.4670813318766951
0.4394633817602333
0.4270786249226461
0.4417621022635997
0.3023154149353179
0.43028053678248673
0.40144695969980426
0.8661848094269563
0.8559874469238935
0.8215037091785174
0.8450164571388818
0.6608179349008264
0.6314304966397694
0.45992688925224495
0.4662729260437335
0.5663125673098663
0.5984173996388749
0.35706097333669934
0.4557007695474944
0.4418689989039322
0.3605814142975305
0.6356050393939588
0.4938038436081377
0.4357018836974277
0.8736411413172231
0.8602664666098004
0.48931581733625434
0.493825763350435
0.4716391246528733
0.3444300845376193
0.34853446932179527
0.22319926384029182
0.8084267213944961
0.4471913445829641
0.7546190499007462
0.37215810782708747
0.36295652935959083
0.32121524709655275
0.6187069061605462
0.3757400603056871
0.36940857021688933
0.37485427034225416
0.36942735027916396
0.3732589766467408
0.36446842964711706
0.8134978130345399
0.8157895554719917
0.4474872625422078
0.7916320783355342
0.6130955211357794
0.6124488876368552
0.39746667878034925
0.42595540467017495
0.40367395096867853
0.499753650854681
0.4861034768048946
0.4252221206315996
0.40761178639353135
0.4054874593969577
0.4093031628233199
0.38814164610367163
0.4286578190120808
0.524448971454167
0.5376115568650471
0.48961664996653154
0.8717727038594539
0.5500780609178549
0.4553856915722576
0.4441082398069678
0.30944439950682534
0.44575492432381036
0.4849133157692303
0.48159565250795966
0.3586780180417689
0.30291613799736916
0.29553414708057607
0.3011799862401967
0.35808612103097975
0.23402629307353426
0.26907487309035166
0.8819979161653267
0.8652082056116551
0.8405813453379538
0.630510564866051
0.6297747737420656
0.6124847603715733
0.36561648636579935
0.36184729371523394
0.4985527003273444
0.478841301332755
0.4763401762279693
0.4645508980465591
0.4507670655567666
0.22082290128218524
0.3672950488956924
0.3494197974863711
0.3408126256164386
0.32316121179230956
0.322888309122814
0.32809349389286924
0.5201142328847855
0.40931522063636894
0.4042824214580675
0.2916194641849617
0.28379303824577023
0.41396338728156046
0.4181205805878466
0.4306676021198436
0.4316689739970646
0.4229073183482182
0.7216533524812035
0.6960719801043783
0.7475889569673344
0.4174921156961316
0.37211174959006077
0.41371653974112277
0.5151449887658964
0.82767041539942
0.4491443202621209
0.5879403466223024
0.340355293623653
0.3233168373225822
0.3382758188088454
0.3272732859331198
0.3403939287570466
0.3333531909026273
0.3462145649390843
0.34135106697154727
0.35389612716168867
0.31413883024398975
0.3299112565198001
0.8007557265147832
0.45226324162273895
0.48371856246764255
0.4689521946688035
0.5174649638891289
0.4193662588983432
0.30573030269854873
0.4716571476471452
0.46174625604637015
0.2610245205412651
0.2771994754520469
0.4392884654147468
0.4900199188645664
0.4960173256876311
0.4437559965993528
0.4301654107351664
0.3361027172103274
0.2045568250611105
0.4346853337872799
0.4132306752018701
0.21875665805466935
0.6175133626697482
0.6024646984012582
0.6154240655032841
0.5884049038143607
0.338677969837579
0.4559416664590649
0.3207284045764254
0.47799613434765204
0.45668937828349193
0.39682417685993376
0.3919647322574472
0.5711126931833161
0.7009360759431146
0.6894726839983265
0.7008540028546111
0.6838229471734625
0.6908008552828566
0.7113378211272815
0.7403060560639646
0.7976143746379193
0.4578271227475978
0.6672971801290872
0.44725249746563184
0.4162217984934495
0.4084438991480935
0.6757862249496807
0.6648420656961129
0.6598996471285823
0.5806183229991226
0.5868071441393132
0.6113646622527709
0.6350091574934806
0.4330160532012524
0.5859645791748975
0.7824901790172037
0.6150105412882382
0.6055192468124924
0.5952663100658361
0.6050886785778636
0.4155036254197025
0.5122160101488686
0.5040030869212473
0.5210394661278813
0.513706524625742
0.6012207641943228
0.36722214811522935
0.3488290836415209
0.4734003410391737
0.4955867110272624
0.5089131928959525
0.8322895583108385
0.8386388380719937
0.5271176049382663
0.4447967882809616
0.34758032697865193
0.5858379890786761
0.5788115467457676
0.44392489301428667
0.42593181772750727
0.573285553979274
0.6283001400951778
0.6341023094485314
0.5827210503474144
0.5998340870634604
0.5136192603324193
0.8960019803328934
0.4590940394328607
0.46967930088703147
0.4940017361948349
0.5570261186964358
0.8939031600567607
0.41672285193338937
0.46383123067565507
0.3649795959131875
0.4409451088533479
0.6640757262480125
0.3688775899269119
0.5484761861160853
0.720876205414788
0.6987043458340193
0.7220138470780665
0.6563510114955009
0.4763189508957894
0.403890133234351
0.632826015994148
0.44612096611177104
0.4530151816599102
0.4490487072124339
0.4208058936997457
0.40267775394018146
0.4132342523760986
0.5071085461593695
0.48826704759112655
0.6191642897887961
0.35168939846359104
0.35827742003300456
0.3550172012246895
0.6136416500671852
0.5589442081195055
0.5107129280724023
0.4922491711945576
0.47730148185568183
0.5221516203328486
0.5211938071428626
0.5234196191646673
0.470673233588424
0.46480534682991786
0.469050377233831
0.45668181829114285
0.46194084314430356
0.4559028654823106
0.5747866171089212
0.4363603293203275
0.45234197631296774
0.8811347936594571
0.5257140292041841
0.5010247280023756
0.4945049819255431
0.48604732420926994
0.4995523644850182
0.4898606219403599
0.490916379317514
0.37818547182143625
0.3763769834237859
0.3719199778303916
0.37406074106344717
0.3792865622101025
0.37467748848876364
0.3805905853245643
0.4496685133154973
0.3763918712739674
0.38166014998610304
0.5061285667056658
0.39485166407020744
0.3874589708269604
0.37131211940327835
0.6128445675302319
0.6282578298309458
0.7214320392495716
0.7450555114806718
0.5677095637254098
0.3266363893217409
0.3042547627035048
0.24555265500015652
0.2783361698477882
0.309488689945166
0.26526931154497896
0.2832959738391224
0.23012349848692282
0.2539599910920451
0.2105173369547224
0.2429578019378269
0.21472554394089705
0.24081051777120155
0.22317196707637652
0.24323785463027758
0.23455468010365194
0.25034638171014695
0.24515074038224585
0.25946974163456643
0.2571339571741913
0.2696124603956775
0.2692440758765143
0.28061450819492295
0.28112936742170613
0.2917123569003251
0.2914912159448848
0.3019919484967401
0.2944692707277422
0.2659796996327914
0.2714117273035468
0.24622654560944696
0.3028790018862992
0.21705135993482874
0.3028464794270707
0.3121068846789626
0.3130185216841606
0.3222078192983697
0.26258689544905633
0.18783273721494162
0.2935141273396756
0.20063601509165238
0.324225730244007
0.3326099353560594
0.3306933372378412
0.30558888428594355
0.3000669167587708
0.31564453338896176
0.3275501106509474
0.3200818095456628
0.22252366963980866
0.1750361299586105
0.3402756376915215
0.33904030584731143
0.3308577527284941
0.3392581353092355
0.8980590038954672
0.8720159423590058
0.4672431716912954
0.7678306642571411
0.7971437832353655
0.47333601475580217
0.4883232797894656
0.405366997127627
0.4808532937978759
0.3429204418633569
0.42776629062018995
0.42438707937533765
0.4294821356113019
0.4609303488954704
0.34993065400813367
0.45687264082414897
0.4580728038464007
0.3348220424315231
0.31100013305032354
0.344880316467367
0.30212641491990583
0.37023192876058614
0.3585021222288092
0.36595529318427233
0.3614155785967251
0.3914328904289281
0.4010025299343839
0.386784645255567
0.39621484667672574
0.3819453384296311
0.39162237067494704
0.377686082841465
0.3869737775630074
0.4014702315566552
0.39524335824836265
0.4521982139789197
0.4382660628021257
0.4419532823715447
0.42548293925619063
0.36990592590431337
0.2797999579251884
0.2730215138221758
0.27650453458703317
0.26568251677137544
0.5038352339667036
0.49292428425365015
0.5154462153820151
0.3700861802147373
0.3286758369979243
0.32051480147566946
0.6722890918298641
0.4726626170234012
0.4514473717513789
0.4392327905992679
0.4456972202264798
0.4230108634222615
0.39420886945662875
0.39894556532030623
0.36986529983103533
0.3713421627276815
0.40891397618043746
0.5093155491873824
0.37198958277519106
0.3011449699417259
0.33163589742637983
0.4705547540355964
0.49234185337500136
0.6131614511643111
0.6155595724885632
0.5943755265966432
0.5276970506804295
0.558247190525036
0.41120787541785975
0.18287031871172385
0.18294774273466743
0.3686374704577026
0.5713723675464825
0.5997769420456219
0.6214346417168227
0.6418704448331581
0.5291493702229466
0.5871918180337278
0.6015036374134859
0.5915328348186982
0.5758539950736064
0.5794758008019707
0.47496316688703977
0.485577614438162
0.49017961271869614
0.4819778375747302
0.36370804985378696
0.48272020398748744
0.4804669411692304
0.7629306177693506
0.26051399786380813
0.25146926511616796
0.2605738214843174
0.2464170670140738
0.44097907709421486
0.47268462559416646
0.4809848592176122
0.5981608169639974
0.39933924745564925
0.5679533053706429
0.5524537696150575
0.5447564154860094
0.5264986965045935
0.5241839004566535
0.5391417133101893
0.5165196714689052
0.7708633408116152
0.7645247009281657
0.7271476864199595
0.3494659200173708
0.3712945985152056
0.3420228834771673
0.3410310385718196
0.5221543024968467
0.5048068533970855
0.4160151047425495
0.4959975961678024
0.43129111836933864
0.4144258805331357
0.43994165082319403
0.4547120249809548
0.6003433838249932
0.33937385473609644
0.33696376269708034
0.6263516170316713
0.7838954865432586
0.3845097572336789
0.36820154630368
0.39402846743129116
0.6343481854514846
0.5972299249688353
0.6676566558084327
0.5006014585346946
0.6106671262527751
0.4400333428134122
0.3485739700030621
0.47127350395095025
0.48367368726775495
0.5042806331214529
0.361369535854006
0.3382074068249878
0.6347640936475759
0.6252984166887204
0.1968317129351681
0.8665234845980517
0.8743546162733226
0.6088445636326447
0.6206602395907123
0.6093619934627963
0.6332560783945219
0.628859438446379
0.2854171869006037
0.29410579479654364
0.4050394486516877
0.5084945012902875
0.41836545387908136
0.609998606806039
0.6403667815032786
0.6457682641283424
0.23813217114639526
0.2307011884713536
0.47311808741536815
0.3522654930080709
0.3481044806486856
0.5346445110110849
0.463395340936077
0.4411049390949062
0.34840517079896144
0.8308227860465562
0.8468101660571078
0.3888465908466484
0.3825587308950472
0.6182309426969003
0.5922333704549078
0.3731626060342833
0.3646281215747588
0.15979963599220293
0.9139357498991266
0.37233681101196753
0.3150133878014244
0.3183875133906668
0.38354530007320203
0.3713126558438954
0.32437454749412875
0.3134649322693605
0.3182331309105987
0.3081273348415297
0.3131362967672621
0.30232976748452894
0.2972447021189905
0.2915829056803234
0.2858550220444799
0.28097250559750836
0.3095007268008187
0.5320073575244357
0.37607649424067646
0.3867546979014547
0.23289440279049772
0.15203688529839457
0.1440412542805528
0.18797827966630826
0.1838511780316846
0.15344569220099613
0.1282989834433016
0.12188181380130193
0.3666917302322007
0.3467300460671662
0.46119965184252126
0.43088373242671524
0.4273223811198786
0.6729262713099886
0.6865002717216373
0.4200240191666795
0.4245220274688556
0.4137141087358493
0.3248187442244912
0.10474356578092828
0.28683971436457023
0.27605338100244425
0.2696508326816482
0.26535914088458606
0.2582878082016729
0.43612612412460433
0.44668842274474563
0.1280567550941842
0.6682052527111431
0.5804018207301745
0.47311844417469223
0.3493714643214003
0.30867535135550583
0.2946880880765022
0.372068953268908
0.5308383053231365
0.5915580124554803
0.5726957272323764
0.42047444310961707
0.6424323352622748
0.6584896091252875
0.6720927386055421
0.6917546572044778
0.444711072130923
0.474275440559571
0.44905081077328773
0.4291039630910743
0.4104511770611298
0.39914346287477653
0.6978833202697571
0.34685386689049363
0.2533825879654485
0.20209845310152605
0.2003461503595466
0.2162310571207068
0.2077808668479755
0.22263706647417328
0.1905571763565539
0.23249471775249722
0.2361036343067377
0.2026530578934096
0.5201473615303284
0.24424673631049537
0.5027843187296392
0.33959362134201604
0.6616497948059286
0.665112688206024
0.18303732177096313
0.1717480072880033
0.43646203641741727
0.728801557123206
0.7358038809374773
0.7301468098060042
0.7459943947007075
0.7361963722476829
0.7581221719469224
0.4549981773656045
0.4586916759166049
0.4630118792833422
0.45862481799022614
0.4620384745613885
0.4530434198854814
0.4595626076629262
0.4498500853202624
0.44154983782912244
0.46737985872849286
0.43887335928172927
0.46896691062284757
0.4601861427860819
0.4707430435862891
0.45059818149386144
0.45696876684681925
0.4785964708460658
0.4668163309749887
0.47367726213845246
0.2789569820150886
0.24932592676773446
0.33982834484336816
0.20218085904201727
0.20806100089767549
0.6825364985812331
0.4536984765879549
0.3052997941562865
0.2906513980510169
0.28845661246806076
0.2945913370377503
0.30961776215896
0.30083892801846873
0.30731645078294156
0.2970648928126901
0.23746569112133792
0.4166434439933589
0.4420664888832028
0.4634867215251324
0.48680620783244444
0.45783442149857667
0.4834364496986601
0.3813410344703652
0.26835776226093017
0.2710262006348607
0.2847734889626014
0.296186185139541
0.3100041589645508
0.25910457780111396
0.5337152379629511
0.3690537565550654
0.36965831067526134
0.15113590890616657
0.5576846936896807
0.7579285333035485
0.3639361883627596
0.3875196810198153
0.4486616924855367
0.43655267096626693
0.7059445502931908
0.5063166681451062
0.4876879749066121
0.48903829832779416
0.4806276226417978
0.48145074230189505
0.4706973457380277
0.4690545141914647
0.4768876307879674
0.45465637470968706
0.476249191326218
0.46901680797467266
0.49395102035969607
0.45993510276979804
0.4857312699111918
0.6708120428450799
0.38234552951430745
0.44106025959002493
0.3381152230754446
0.44189419748080566
0.33368911002616186
0.3152939351080718
0.3272413341145171
0.3098829202286425
0.29137355899132905
0.2904989203944088
0.3048742725549612
0.3412112625630752
0.37560740008780025
0.3265843385668625
0.5555671167102249
0.47954685406597386
0.6053560193160813
0.2897681688863662
0.6463224312172937
0.5398950649658275
0.5494378166208336
0.272532345181276
0.3731694091855516
0.41356345313764215
0.410226861212766
0.40581383574272506
0.38823314502304757
0.27830671180643757
0.824647950184853
0.6974530530812707
0.8597147488198656
0.21383926717148424
0.5377443900689494
0.5651912169538978
0.6791844731524771
0.7497598669546435
0.35637441980215995
0.41078052421489764
0.5230117781533995
0.31149399375190406
0.3176253707113585
0.30951610316157463
0.36413502014203375
0.3206729890443433
0.35992790115024126
0.30338306717345886
0.3072241863269902
0.47554328101396726
0.48083473478098593
0.42570469693752594
0.4372100117798917
0.29781019343820553
0.5266950389027252
0.4933354057284933
0.6214079121058624
0.4488648828915274
0.2254391835806326
0.46204905656041184
0.2551812044717299
0.5723851443164566
0.4808199931030844
0.43535411712352695
0.44472919762558516
0.4301416081888964
0.41674984811512295
0.35205721097367126
0.3006712859542333
0.3350251243935068
0.38430102298720303
0.3832926070011679
0.4667698144312493
0.9000498823559202
0.8698572624642296
0.8880970810724824
0.8623588159214491
0.8467531848824832
0.8283715957176492
0.8396538000346112
0.711799308929406
0.4247409965021111
0.3952424377168879
0.4013128911116086
0.4608425285508617
0.571559974869554
0.4113957472528152
0.4878840517981312
0.49311576548928066
0.47975463571078647
0.4799923705691807
0.5296874723252872
0.42749116854060637
0.3573278700609826
0.3309101639003619
0.5081712019263863
0.49034901013695065
0.3569654648623089
0.3987121893436577
0.38836018545259376
0.3772322002028951
0.3751971554432818
0.31862718817765334
0.11965915381032832
0.8137463451698272
0.7990462991607704
0.7841242734473005
0.8095617564503682
0.4482026855930482
0.711471369787109
0.20159547603030997
0.23158978430239457
0.42900682312792887
0.4139742546662599
0.4299256957694822
0.3664547727022708
0.3540554502296694
0.30872352434386685
0.41393732426544194
0.5144158414634834
0.81833042968906
0.31989036893588146
0.3157043426022212
0.5650525714101269
0.7076064975048101
0.5624191682593526
0.5829640702826862
0.47605155831282425
0.4004241827159353
0.39178449694920214
0.3821699340735878
0.38393978671821
0.3897447849977113
0.39590235474084207
0.36892792008894437
0.7806616009996651
0.7677294592746712
0.783654469166067
0.7996739584040418
0.8192323387255873
0.828832296455443
0.7770164370273214
0.7806596151459129
0.2833068895847797
0.3765480841183351
0.6058618279708439
0.8954665283891542
0.44523793565526154
0.8856821642226446
0.9078612105627956
0.5953802995206638
0.45742378415142737
0.4433645105388557
0.48669968839575123
0.35582599852292424
0.4619275435650389
0.6531541674832604
0.4169210960475441
0.41597888151113555
0.4286094024102242
0.4036196809985449
0.42763239009912396
0.4157608737471479
0.40401511260281014
0.39061473806266694
0.4495391114385732
0.4382450224934264
0.42786754795988613
0.5689333798024069
0.5031592725543104
0.43710607992565603
0.37529890175555425
0.33863535518781623
0.39400759217398673
0.3761658697098608
0.375355415383455
0.3828409542290629
0.7830895271580083
0.8196925530850768
0.841813369167801
0.8002223125142449
0.6670332127262457
0.33565339358274304
0.5461901658897055
0.5184305540103553
0.8075380132130852
0.5747945873942794
0.44878015797568377
0.41735613199804744
0.3623092762883359
0.49603416214365664
0.5143817804320961
0.4612586945967166
0.566145097869519
0.558911475359432
0.5675588627630227
0.5906730645536438
0.4242889276262492
0.5442489760235575
0.432580251484524
0.3499771799078534
0.35956096910508123
0.3152929893636766
0.4354942686493859
0.7863538599892774
0.3076539692412624
0.6339199137202639
0.6386042991191739
0.6707527614137023
0.6405225271650754
0.6705512910848884
0.7021814750288072
0.3969080163893726
0.4727651988250386
0.4723139066959529
0.5191663447752881
0.4587854511941341
0.9152214111644648
0.5403847894431826
0.6117103062707322
0.7148955982384271
0.41571748128110275
0.4671488792104349
0.5330057144361451
0.3805688073721249
0.05901986619881608
0.7447679467914751
0.4181421080828411
0.45794628721836017
0.460825183935167
0.43685204206725237
0.4391030201931826
0.4157346058284907
0.42375487908284176
0.6493900281439116
0.4114271489867002
0.48753158164965793
0.5112634506060199
0.4642922081881354
0.5123705051918243
0.5823535774024167
0.7168887228712074
0.3447611111934233
0.5012362572767809
0.4842736981268896
0.4617139107941829
0.4223465844870369
0.510065483224338
0.3716314931467879
0.44305899015129474
0.31770617811726215
0.3273092499950612
0.3773483762532076
0.4974049784030861
0.49814104129337666
0.48692381321172773
0.4775033414078431
0.640296027297946
0.5684856361035096
0.34670432284258335
0.3528039921984899
0.39704371009059736
0.5193236474046992
0.3841145625640586
0.5016960212501504
0.7606017782436238
0.46720529343754347
0.3685743402118371
0.38131097089277727
0.4759044303682134
0.9190967631835484
0.34618948974332964
0.455252286716549
0.4481039723111909
0.47274563239853196
0.7223278917280118
0.6930108558658358
0.6819472127785011
0.42746026001759285
0.9266781750780905
0.8469033521011792
0.726093220156241
0.8028596776664094
0.7258274498216645
0.7624945904374215
0.5521106381336913
0.44578405506876245
0.894378745070923
0.5910753247974808
0.37443072084722295
0.47843896697141985
0.643575939655076
0.671030693121734
0.4411142637405055
0.49913355122098363
0.6959853851066242
0.41526553928785354
0.3634849223606149
0.45515380272688616
0.4327582771270703
0.2678313545883998
0.4063853976592224
0.5471247639777288
0.22385504122652958
0.21586849005413522
0.5782540804098383
0.5011348488212655
0.5523593976496647
0.42626672042857183
0.8413056752582236
0.35606472324599653
0.3187659265359138
0.34852516852776916
0.48717473897370495
0.5655597708627543
0.4584400940634246
0.10485011872058646
0.7612912401705714
0.6895008521491891
0.4403628468188482
0.5970698433171276
0.45285273339192617
0.5781855954802319
0.6103487106043952
0.5688061139433959
0.3830791976463837
0.45442960932987975
0.9108572660112608
0.5692662256241328
0.5586880839237787
0.3525178277815816
0.8445267133749443
0.5293289547883648
0.41257127051783465
0.4730088847223414
0.36995385363537375
0.43438186349605895
0.29837026115803683
0.51659449049016
0.48148826719949295
0.36883664577575004
0.686414215399779
0.2773959617958473
0.2729084113967429
0.8312058384194427
0.5872302419686027
0.7920564655623832
0.7153181921486271
0.45341754179767657
0.1351647992905815
0.4679881260078207
0.5937880331370365
0.5851345351498866
0.25051642043383593
0.4744820034238722
0.6358223105048358
0.17736769796468027
0.6315472930503389
0.43117349971793206
0.3328661038778779
0.3904560197641559
0.21811330553906721
0.2416263005175783
0.42117330439118805
0.4822314330825826
0.3107289365257891
0.5643076712030322
0.45928740866989237
0.6154246014471257
0.5875977557551663
0.44226214006985304
0.6781284933268349
0.6992434213772282
0.36074507759403324
0.3330579965943762
0.2612146297347525
0.3503147407615303
0.28177372777720583
0.600629586041297
0.6976190627941146
0.13666901246588847
0.16414209285062525
0.18318333606588943
0.40160047293263
0.20576327462052632
0.4393867717672272
0.47488724324315007
0.5311577726932837
0.30292731736084144
0.32487978500393067
0.422575018305656
0.4450370489188029
0.3857368136430653
0.5875598291234833
0.44018366065455494
0.5106737810310931
0.4949533076596007
0.28321937269983977
0.24063804428506505
0.47485498565363815
0.48840813622637946
0.887592873610213
0.2589710826723348
0.6562995014679169
0.356579334849782
0.6274111324050692
0.4619854462911401
0.6789080009408821
0.45582464286867125
0.4011139078266149
0.3639436401449371
0.5194046638360292
0.5383593418845236
0.513325884959559
0.8354556145359257
0.3189478473297193
0.25092374023820874
0.5227900187052146
0.6603695761723757
0.3649771234155517
0.5708361847773712
0.4053912588834929
0.6005806191872256
0.4289107340692476
0.45209410420089563
0.26379897455506585
0.48691354282405286
0.05461540352188119
0.33648999681690356
0.4780345349664532
0.39650894072064113
0.35881133079738686
0.5610345677581308
0.6461844219514504
0.38287427600095775
0.31099713643387134
0.6559160203060986
0.3220331784973474
0.4905106060039634
0.39929500586606487
0.46908656679094624
0.250249113838711
0.2946975862509293
0.4302119043020257
0.45893257666993575
0.44404627650687645
0.2800719304124305
0.3039472798364988
0.5962163083062777
0.6206621781432231
0.3575430288720822
0.3465903572087584
0.2815084994163688
0.7038939671699964
0.3925617059962476
0.3888160215768766
0.4216226760946546
0.2988890942900487
0.4714379890001815
0.5546715940092064
0.5149050856781111
0.4938846253117223
0.5119573568590325
0.4465301257614848
0.5198172507525703
0.3906003176071912
0.2611348292814902
0.3730647802514977
0.3340888890243462
0.3964642388862989
0.3406527863545113
0.7737106350564926
0.37835757967855477
0.4535322881749511
0.6767248827492018
0.5165083965423356
0.31354503502916464
0.42718066383696446
0.3702511423582687
0.4931565973581742
0.37715117539801835
0.36691749510065996
0.1133049366090138
0.465873989273611
0.583449782154883
0.3687590253544549
0.48776886189999846
0.41485140532540976
0.5478428606069667
0.32929065848868144
0.44149606959042964
0.3660410892341866
0.5537007384445882
0.5298257441754636
0.5133036487025364
0.3318939782541724
0.5163568586269085
0.3932063297638959
0.484679676865109
0.2683918152377486
0.5407988666865734
0.7521700739478578
0.4028189216306486
0.4671496150801896
0.5351292985792342
0.326748516510845
0.3208101048414835
0.7390940749909951
0.35146782450703046
0.5051451051316961
0.3413768523803317
0.47203507553841767
0.38224408219650385
0.23862767396551451
0.5396959634150317
0.15604128782149637
0.34118948105023394
0.60191454578159
0.5591323127996854
0.49048407085048423
0.3698463783759642
0.4008958192610186
0.4879747126039039
0.25938112196157725
0.47622534757631874
0.4225623053068207
0.48199846525281065
0.5120657077038578
0.385447576056175
0.21910080920459354
0.6167488071616282
0.6434837886043718
0.3032442139989582
0.4559810267039727
0.4345855605148124
0.1923030815524774
0.29411585823736414
0.17140608647517525
0.26923731222153036
0.4589900676960209
0.4760225465905055
0.44935370469287755
0.7563325664990493
0.34764791659194916
0.8283648306775737
0.38842652692830537
0.4935081198458438
0.48719759048470196
0.3134962499584531
0.21857643509029862
0.23205224672634236
0.4186108255888626
0.5778931242093035
0.5107204887572123
0.5001843679725338
0.47551044395631464
0.4848139844290803
0.4784442283540605
0.6531970102425089
0.27737720444353836
0.27525282163241255
0.4480788935664075
0.2888202654752803
0.35887634604467433
0.5560810856608318
0.5138890833013167
0.3109232387874796
0.493747426248578
0.44519730487592457
0.4490896837820745
0.4346696204181544
0.46142962241315233
0.4333490147369732
0.8052929520733682
0.4209787940657121
0.27270123542956054
0.3886586794017899
0.34854737884154136
0.3021468299757904
0.4306102500529279
0.5053316780437758
0.38014056365419413
0.44697064853571833
0.3695174388672505
0.6801326556211746
0.6037161598494882
0.27676325592022
0.3948511675563736
0.3834779039514774
0.33288387658887425
0.5920249180048298
0.360707213194874
0.3960858392369929
0.5279196547277796
0.2974675297540184
0.6308432586519468
0.6272337361796685
0.3923838202085793
0.6974025565215445
0.3632691988562492
0.5946084398042951
0.4709484437571998
0.5218967649228248
0.38585166088923034
0.12064683368035017
0.27323350049278633
0.6027045319820379
0.32400524726376534
0.2438911103506891
0.4267545215477333
0.4346040240734151
0.36642284041629386
0.7242984747388375
0.6952639450785656
0.41606549654016695
0.646560739691277
0.31548612523499675
0.391383515356209
0.4707971129163842
0.7424234618887992
0.45661292011611526
0.47653852415109416
0.430498454611933
0.3531357840587248
0.7809863971121715
0.47037516300225635
0.4642251776262345
0.3693579747711772
0.39500601289406506
0.4488007496922761
0.4916562223631774
0.5787353459472908
0.24762564001550064
0.4697838532422504
0.5825933071691012
0.6312330837369599
0.4845927340659598
0.7747599658383436
0.5652025672414778
0.3614516045222861
0.37391830488804173
0.3346102942862975
0.3791097495330326
0.1622248403420522
0.4213329400719142
0.40153701643839546
0.2529091159393651
0.16601748717117315
0.3324532889225654
0.3240506716136682
0.3823878425248311
0.3574702047169721
0.5706077602480305
0.729052625240998
0.387698796280377
0.2387988710258209
0.29417472539491984
0.16539223753651625
0.4845012262142496
0.278909775554778
0.35652824138411765
0.5606250218424219
0.3662271570575381
0.48020476445939614
0.6685310795860774
0.4651751501368779
0.536317383945365
0.8602152439491093
0.5797336128545211
0.5989209772702772
0.4742761603390599
0.5494525886364353
0.44115623543882704
0.4933034255058226
0.32664984979043005
0.6231772667221275
0.36832072431738033
0.30048291009815625
0.4657363347502198
0.3717607480154706
0.6230266293376843
0.9703918275306124
0.9792765250692123
0.5041076448044455
0.21127273325559506
0.4843042930414962
0.8157944824928687
0.7819579193659199
0.3966962941756787
0.3676471893526516
0.36897081947057564
0.3744586822461796
0.38093878785627405
0.4492757760584163
0.32894030619058884
0.26771517784914006
0.30024715726695494
0.5133613041295145
0.4765409305280913
0.30331644409404235
0.41530757725294065
0.2817501593316403
0.6551755804575085
0.2757121063905366
0.45691730858504837
0.442196093929261
0.4540668977940009
0.5543077221192672
0.3554410616229578
0.35231681131475356
0.1833209400172128
0.33373440726528364
0.4528198428517775
0.8986222521449767
0.4744260705892973
0.42179555317622913
0.2708863899546537
0.4271715102493319
0.2490215328305385
0.40426423850418497
0.4140672197276209
0.5875236885483892
0.3453783437053142
0.28712038628025305
0.5477671762910858
0.3234195734974752
0.35062719643031004
0.2735132379186184
0.2260766625127211
0.6298815402094907
0.2900782992332966
0.4669489515210884
0.5660631324766816
0.6653176452216287
0.4192414457081829
0.40725486444364173
0.38638759754332996
0.9223872071559642
0.5589130180434804
0.6544926397945245
0.3806197853685638
0.6453856103333057
0.38976610015612184
0.32900614122321625
0.280817740689272
0.6756567176287473
0.45932352906556617
0.4372659668780566
0.784729182795767
0.4402696971328618
0.4609649957120729
0.9331330455091417
0.6046102641247794
0.328595054634794
0.4810070431037712
0.7278611462470992
0.693123221738207
0.7640173651004042
0.3114902257325273
0.5885411618438969
0.2925290883536601
0.35956133882900565
0.443578113925503
0.48327716610291654
0.2513297948211498
0.3896417446128548
0.5150096889011758
0.47150936649192765
0.3534950360561398
0.7452937897431964
0.47292663965386056
0.34354063399586093
0.48395714725813505
0.5027656991937299
0.5601300893970945
0.41089185965720704
0.360850673607146
0.35254523363515694
0.59424758103212
0.4519259303052706
0.35262348676693783
0.41014415858754505
0.551101549130929
0.47751298181190527
0.36015586407266575
0.37679811476160757
0.4632779943219952
0.40587920933953
0.4333254115481153
0.4124007341741347
0.3338296260518283
0.3650789604201136
0.604026810979591
0.8576295013334703
0.5064074011330014
0.5400306854300929
0.5348940093556958
0.42801376587291
0.9035296409083253
0.5776327884891166
0.454527152716904
0.46158980864277355
0.3913500384888957
0.4576692447181254
0.44376481349950997
0.40826339279801127
0.35474994683890737
0.41236702953737875
0.3799973854177429
0.437951126886021
0.7953071580827044
0.4299386761668946
0.311907348990442
0.4575131013900511
0.6998809308089439
0.3986939475158165
0.4650966032590592
0.47539849679628843
0.17907156949515463
0.4226675597099427
0.37212760834623815
0.1634828990749239
0.17916639004957824
0.09740426349174017
0.29547799216591253
0.3290960405397142
0.48056208189847904
0.4828884980007864
0.6380572067714164
0.45823129012867303
0.3179884528018947
0.3990369597333048
0.8470138165057797
0.4818535227912312
0.41363146332311196
0.49540050025029586
0.3629789051171353
0.3071828926121361
0.541418168242933
0.26414003402591224
0.417791186432638
0.4076809319259428
0.4532447303098336
0.6526383193840479
0.3700810322759305
0.477451497548691
0.34896673984647725
0.47587246385634757
0.5374640629416293
0.5994084819084314
0.7222219865402554
0.653047042570818
0.30410579858454273
0.42786825633920433
0.2204549351499957
0.5616664644861655
0.467989690341922
0.2551006950446795
0.4425760721301411
0.338575262590429
0.5358755340337588
0.41916905593057063
0.3307966065392534
0.2757491091188649
0.2976533914618341
0.576907199525105
0.45469145991374227
0.2303009762635719
0.471037493914227
0.8857280556099916
0.47437054637604326
0.27923748141059546
0.3365287398021797
0.3158716263527683
0.8138683598195086
0.3915529646178697
0.3935540792553839
0.5954672989940551
0.5276048820347227
0.46161367653718693
0.3608673166642884
0.44462355979123963
0.8320589706627403
0.38694958836541815
0.5869135371093204
0.20241721375065416
0.7524119257322776
0.2723165952606866
0.3994395630054699
0.31547275609515335
0.35707565251290074
0.46557802831846057
0.1422107977562317
0.2902219078048712
0.8685602977878072
0.611254765618268
0.3904295198924933
0.6074182643193135
0.3462983777684119
0.6520813553232268
0.2957758398833083
0.0836841976430118
0.425564722938044
0.4454256381069634
0.7637074327514004
0.6944511185523361
0.46459118993600895
0.6281506774905906
0.8939259003962259
0.35241586274970715
0.5446275924999626
0.39932085596233874
0.23725492373188112
0.8824710534160749
0.4563466555269658
0.7600381221900678
CELL_DATA 4886
TENSORS stress float
-8.953856806300387e6 8.785614419653445e6 0.0
8.785614419653445e6 4.002831193752512e7 0.0
0.0 0.0 0.0

-2.1574009321891043e7 1.413674296636274e7 0.0
1.413674296636274e7 7.050436971124665e6 0.0
0.0 0.0 0.0

-1.1341660416944431e7 2.5618120213587902e7 0.0
2.5618120213587902e7 -1.081578800143256e7 0.0
0.0 0.0 0.0

-3.3952734014059324e6 2.460816639126156e7 0.0
2.460816639126156e7 1.458896923491165e7 0.0
0.0 0.0 0.0

-1.5238135269901478e6 2.9033450872863505e7 0.0
2.9033450872863505e7 -1.3129214913642392e6 0.0
0.0 0.0 0.0

1.442907737941212e6 2.6479632319056815e6 0.0
2.6479632319056815e6 -3.9618449285416e6 0.0
0.0 0.0 0.0

7.052077295069084e7 3.271684012109216e7 0.0
3.271684012109216e7 1.8395238113913473e7 0.0
0.0 0.0 0.0

1.7482400052938014e6 2.9618971296575638e6 0.0
2.9618971296575638e6 -5.378414923810363e7 0.0
0.0 0.0 0.0

-8.536198839371098e6 1.064149426003788e7 0.0
1.064149426003788e7 4.1464408074455485e7 0.0
0.0 0.0 0.0

2.5850039879928855e6 2.106092596941609e7 0.0
2.106092596941609e7 2.5391192505195007e7 0.0
0.0 0.0 0.0

-507341.1061464376 2.3366091870350495e7 0.0
2.3366091870350495e7 -8.678509036713786e6 0.0
0.0 0.0 0.0

274503.9758377095 3.55504256274981e7 0.0
3.55504256274981e7 -1.3341750241727193e6 0.0
0.0 0.0 0.0

547672.6497359835 1.0160867893887276e7 0.0
1.0160867893887276e7 -4.914099385210821e7 0.0
0.0 0.0 0.0

1.0046505012386534e8 3.624018276979918e7 0.0
3.624018276979918e7 2.0235212284452945e7 0.0
0.0 0.0 0.0

-137232.7526658075 2.4132096580479216e7 0.0
2.4132096580479216e7 -8.646114712300893e6 0.0
0.0 0.0 0.0

3.142577625917079e6 3.9455088524881806e6 0.0
3.9455088524881806e6 -1.8914786399176385e7 0.0
0.0 0.0 0.0

-4.320788480945504e6 1.955999633984185e7 0.0
1.955999633984185e7 -2.512141461268401e7 0.0
0.0 0.0 0.0

-472917.55109491944 1.5437420377916794e7 0.0
1.5437420377916794e7 -3.345883162686799e7 0.0
0.0 0.0 0.0

-8.753287400433423e6 -785536.1262322261 0.0
-785536.1262322261 3.1771211707487486e7 0.0
0.0 0.0 0.0

716932.8262026934 2.7212682888698794e7 0.0
2.7212682888698794e7 -7.9274699548181435e6 0.0
0.0 0.0 0.0

1.9889234579732707e6 1.2365002128148912e7 0.0
1.2365002128148912e7 -2.3682998848985583e7 0.0
0.0 0.0 0.0

1.8051277610513936e6 3.5129611466366515e7 0.0
3.5129611466366515e7 -1.2802256037255428e6 0.0
0.0 0.0 0.0

-1.0473385502437692e7 9.785229279432915e6 0.0
9.785229279432915e6 2.107723973888628e7 0.0
0.0 0.0 0.0

-1.6591718234918099e7 2.6565286105226878e7 0.0
2.6565286105226878e7 -792808.4926520046 0.0
0.0 0.0 0.0

-1.1344899537204616e6 1.3575888300908068e7 0.0
1.3575888300908068e7 -4.406641275886919e7 0.0
0.0 0.0 0.0

2.9776875942432158e7 4.9538578627028115e7 0.0
4.9538578627028115e7 -1.0065288038562257e7 0.0
0.0 0.0 0.0

4.732658043566666e7 2.5411504111789793e7 0.0
2.5411504111789793e7 1.03879719586061e7 0.0
0.0 0.0 0.0

-7.680124908473989e6 1.8102068131358135e7 0.0
1.8102068131358135e7 2.904569570246868e7 0.0
0.0 0.0 0.0

3.23050875022172e6 3.9453769836324686e6 0.0
3.9453769836324686e6 -1.9365892600020844e7 0.0
0.0 0.0 0.0

-8.550475712620497e6 -2.491493851977773e6 0.0
-2.491493851977773e6 1.7685981020131007e7 0.0
0.0 0.0 0.0

-1.1070047976879783e7 1.1473937049559299e7 0.0
1.1473937049559299e7 1.904281057076533e7 0.0
0.0 0.0 0.0

1.284342176293382e6 9.45942577481857e6 0.0
9.45942577481857e6 -9.516281819061652e6 0.0
0.0 0.0 0.0

2.763373894557587e6 2.3500910442371316e7 0.0
2.3500910442371316e7 1.0137380551728103e7 0.0
0.0 0.0 0.0

-110512.0272898613 2.0853186569020614e7 0.0
2.0853186569020614e7 291861.06012610113 0.0
0.0 0.0 0.0

-2.840821327804712e6 2.5849763907153808e7 0.0
2.5849763907153808e7 5.695710719890846e6 0.0
0.0 0.0 0.0

-1.14774688842985e7 8.308982668035224e6 0.0
8.308982668035224e6 1.796261055776364e7 0.0
0.0 0.0 0.0

-36100.80215515103 1.3717121558472585e7 0.0
1.3717121558472585e7 -8.197328345598927e6 0.0
0.0 0.0 0.0

-2.2092467449578396e6 2.5497742141686104e7 0.0
2.5497742141686104e7 6.311260315866621e6 0.0
0.0 0.0 0.0

-5.786264415692158e6 1.695449824928507e7 0.0
1.695449824928507e7 -4.614834721914637e7 0.0
0.0 0.0 0.0

-2.5636437754212287e6 3.13408087036759e7 0.0
3.13408087036759e7 1.776321701069866e6 0.0
0.0 0.0 0.0

-497310.7886647992 1.0287924051257769e7 0.0
1.0287924051257769e7 -5.36014587362475e7 0.0
0.0 0.0 0.0

-1.4186205253109392e7 2.7436024786903504e7 0.0
2.7436024786903504e7 -1.193482186797212e7 0.0
0.0 0.0 0.0

-2.4642594703920954e6 3.050964891229517e7 0.0
3.050964891229517e7 1.6435099336611498e6 0.0
0.0 0.0 0.0

-1.053470272527271e7 6.1743443393720025e6 0.0
6.1743443393720025e6 2.8764728701208554e7 0.0
0.0 0.0 0.0

1.3839527801206596e6 1.2234782601224532e7 0.0
1.2234782601224532e7 -2.596085174065699e7 0.0
0.0 0.0 0.0

-6.205253975999352e6 1.9276318889892552e7 0.0
1.9276318889892552e7 2.7273231015171252e7 0.0
0.0 0.0 0.0

1.2100825904041706e6 2.3074126756734446e7 0.0
2.3074126756734446e7 -1.3736727305890797e7 0.0
0.0 0.0 0.0

-866411.2343596024 1.3171657334775943e7 0.0
1.3171657334775943e7 -9.114926911653068e6 0.0
0.0 0.0 0.0

2.2492571961387135e6 2.993816949554759e6 0.0
2.993816949554759e6 -4.442838030303871e7 0.0
0.0 0.0 0.0

5.922406667128534e6 1.8620634502505332e7 0.0
1.8620634502505332e7 1.974135546088041e7 0.0
0.0 0.0 0.0

-529672.0421115493 3.0345008910819594e7 0.0
3.0345008910819594e7 -412581.98153363133 0.0
0.0 0.0 0.0

-1.5425846991899094e7 1.1910490544709245e7 0.0
1.1910490544709245e7 6.348024263285866e6 0.0
0.0 0.0 0.0

2.2868408832772523e6 3.0470546402991083e6 0.0
3.0470546402991083e6 -4.6143297571244314e7 0.0
0.0 0.0 0.0

-1.3686615892789285e6 2.803935623410792e7 0.0
2.803935623410792e7 1.13855802687496e6 0.0
0.0 0.0 0.0

6.543655920165315e6 1.8667832222617395e7 0.0
1.8667832222617395e7 2.3784917251174677e7 0.0
0.0 0.0 0.0

-8.698611682919245e6 2.7722328666244917e7 0.0
2.7722328666244917e7 6.2065948610272e6 0.0
0.0 0.0 0.0

1.3888893838456497e6 3.7459832976252246e6 0.0
3.7459832976252246e6 -5.9078376296285234e7 0.0
0.0 0.0 0.0

-1.8056667385414983e6 3.1605485206931245e7 0.0
3.1605485206931245e7 1.8549724133230976e6 0.0
0.0 0.0 0.0

6.689478836590584e6 2.0230477353405822e7 0.0
2.0230477353405822e7 4.5566813548015416e7 0.0
0.0 0.0 0.0

2.0602176827844623e6 1.111893510080141e7 0.0
1.111893510080141e7 -2.8797750825480763e7 0.0
0.0 0.0 0.0

-2.92352587830162e6 1.886341017876253e7 0.0
1.886341017876253e7 -1.2620387015877347e7 0.0
0.0 0.0 0.0

3.496499712365989e7 2.817331240027798e7 0.0
2.817331240027798e7 2.426359273536807e6 0.0
0.0 0.0 0.0

-4.778553587512336e6 2.1882899215281274e7 0.0
2.1882899215281274e7 -1.5138640709760953e7 0.0
0.0 0.0 0.0

-9.57827271865708e6 631137.0912036424 0.0
631137.0912036424 1.8468101069322444e7 0.0
0.0 0.0 0.0

-182588.96076976214 6.800370772586693e6 0.0
6.800370772586693e6 -899201.1977078232 0.0
0.0 0.0 0.0

2.0451499611604866e6 4.446449156242945e6 0.0
4.446449156242945e6 -4.328546595594225e7 0.0
0.0 0.0 0.0

1.1969919788626246e6 8.78675737105477e6 0.0
8.78675737105477e6 -4.8799037493636444e7 0.0
0.0 0.0 0.0

-2.1407011522712363e6 2.7557915230393376e7 0.0
2.7557915230393376e7 306032.08642531827 0.0
0.0 0.0 0.0

3.3841570818270408e6 2.0085728749044362e7 0.0
2.0085728749044362e7 3.7351510367828e7 0.0
0.0 0.0 0.0

2.5011025424130853e7 1.9590230494259913e7 0.0
1.9590230494259913e7 5.180691148536565e6 0.0
0.0 0.0 0.0

-1.1389986698789718e7 7.993570785655461e6 0.0
7.993570785655461e6 2.6184353199482627e7 0.0
0.0 0.0 0.0

-185980.76093676314 1.3673299550724873e7 0.0
1.3673299550724873e7 -4.075721365664453e7 0.0
0.0 0.0 0.0

-5.305419563395373e6 1.814864742671008e7 0.0
1.814864742671008e7 -4.236906462103276e7 0.0
0.0 0.0 0.0

8.879653371108381e6 1.987857848378773e7 0.0
1.987857848378773e7 6.122526688477607e7 0.0
0.0 0.0 0.0

-3.15111926540595e6 2.475462671582156e7 0.0
2.475462671582156e7 1.3961969474347133e7 0.0
0.0 0.0 0.0

-6.460733845616763e6 1.958208623930292e7 0.0
1.958208623930292e7 2.6773801278174046e7 0.0
0.0 0.0 0.0

-945716.059430426 1.4991937194535708e7 0.0
1.4991937194535708e7 1.1252286180643976e7 0.0
0.0 0.0 0.0

-3.353856939547574e6 1.9253820022041395e7 0.0
1.9253820022041395e7 -2.468092413641152e7 0.0
0.0 0.0 0.0

-921949.0410174737 2.0772048518528044e7 0.0
2.0772048518528044e7 -1.2651740106083013e7 0.0
0.0 0.0 0.0

797293.821907293 1.545887004634184e7 0.0
1.545887004634184e7 -2.077124182390973e7 0.0
0.0 0.0 0.0

2.801442502101704e7 2.9736972045571063e7 0.0
2.9736972045571063e7 -3.329234616459584e6 0.0
0.0 0.0 0.0

-8.592048676761454e6 -457830.8841189008 0.0
-457830.8841189008 3.729544256201253e7 0.0
0.0 0.0 0.0

1.890304123257977e6 2.153819449471844e7 0.0
2.153819449471844e7 -1.9796561320482928e6 0.0
0.0 0.0 0.0

1.9217025528533028e6 3.689005934559877e7 0.0
3.689005934559877e7 -2.2143812729833354e6 0.0
0.0 0.0 0.0

-3.5025553279695315e6 2.4699971067808382e7 0.0
2.4699971067808382e7 1.4702672454832794e7 0.0
0.0 0.0 0.0

3.0229638389059566e6 3.350453997538936e6 0.0
3.350453997538936e6 -2.7169634733662125e7 0.0
0.0 0.0 0.0

705518.0972206858 8.444712600015933e6 0.0
8.444712600015933e6 -1.0781408311188223e7 0.0
0.0 0.0 0.0

2.555456348211889e6 2.2293598116557267e7 0.0
2.2293598116557267e7 9.28799623403489e6 0.0
0.0 0.0 0.0

2.497494313694863e7 5.115427165127763e7 0.0
5.115427165127763e7 -1.2587944061440207e7 0.0
0.0 0.0 0.0

-7.17094883047235e6 9.65129777680903e6 0.0
9.65129777680903e6 5.052776858402098e7 0.0
0.0 0.0 0.0

1.9540972086027535e6 2.326048636900424e7 0.0
2.326048636900424e7 -7.578151854475951e6 0.0
0.0 0.0 0.0

-2.288645452539587e6 2.120478542065514e7 0.0
2.120478542065514e7 -1.576268344170364e7 0.0
0.0 0.0 0.0

-792828.8213736294 1.2009482379123082e7 0.0
1.2009482379123082e7 -7.609868249242493e6 0.0
0.0 0.0 0.0

-1.483353268217003e6 5.642029024440583e6 0.0
5.642029024440583e6 -2.564389679541511e6 0.0
0.0 0.0 0.0

6.666730951814249e6 2.4215144680897344e7 0.0
2.4215144680897344e7 -4.190418595707211e6 0.0
0.0 0.0 0.0

-4.741203428153841e6 1.8966107116212852e7 0.0
1.8966107116212852e7 -3.417602158678397e7 0.0
0.0 0.0 0.0

1.6960654767754637e6 2.959094672828432e6 0.0
2.959094672828432e6 -5.358306116584699e7 0.0
0.0 0.0 0.0

-3.7066329624696337e6 2.5313516899928674e7 0.0
2.5313516899928674e7 1.2600158759520272e7 0.0
0.0 0.0 0.0

1.3980807436673865e6 9.652872199880647e6 0.0
9.652872199880647e6 -3.8413846556506306e7 0.0
0.0 0.0 0.0

1.37405796739126e6 3.7348573804180264e6 0.0
3.7348573804180264e6 -5.98440939404616e7 0.0
0.0 0.0 0.0

-2.7822337446687343e6 2.3307694890434045e7 0.0
2.3307694890434045e7 1.5861261203880925e7 0.0
0.0 0.0 0.0

-5.995837868254369e6 2.0041084966731522e7 0.0
2.0041084966731522e7 -2.082972661345382e7 0.0
0.0 0.0 0.0

-1.0743451269157816e7 1.0084817191837117e7 0.0
1.0084817191837117e7 2.3114185329187855e7 0.0
0.0 0.0 0.0

-1.2834777334399545e6 2.9676495588446863e7 0.0
2.9676495588446863e7 1.2487155596445769e6 0.0
0.0 0.0 0.0

-376228.0304695843 1.2224322383496283e7 0.0
1.2224322383496283e7 -5.299533861893232e6 0.0
0.0 0.0 0.0

-4.939139456300868e6 1.539122999666676e7 0.0
1.539122999666676e7 1.4205227623178646e7 0.0
0.0 0.0 0.0

-8.360039114044737e6 -288018.40985536855 0.0
-288018.40985536855 3.761743716538295e7 0.0
0.0 0.0 0.0

1.327298417846324e6 1.5735577959830396e7 0.0
1.5735577959830396e7 -1.9330783978826083e7 0.0
0.0 0.0 0.0

1.0948716652087811e6 3.472959184754123e7 0.0
3.472959184754123e7 -1.5124570110401865e6 0.0
0.0 0.0 0.0

-9.809283066685636e6 9.128357553935785e6 0.0
9.128357553935785e6 1.9326767515673567e7 0.0
0.0 0.0 0.0

-30785.40457840264 8.896121078732068e6 0.0
8.896121078732068e6 -5.291584302413393e7 0.0
0.0 0.0 0.0

-2.583066205579431e6 1.3212046972838705e7 0.0
1.3212046972838705e7 -3.115520533571795e6 0.0
0.0 0.0 0.0

1.1776483637312243e7 2.4965034126190677e7 0.0
2.4965034126190677e7 1.3740906516976995e7 0.0
0.0 0.0 0.0

4.799022896855257e7 2.6306414632895302e7 0.0
2.6306414632895302e7 9.982653164711136e6 0.0
0.0 0.0 0.0

2.899073926288476e6 6.369393718457602e6 0.0
6.369393718457602e6 -2.4708281983702645e7 0.0
0.0 0.0 0.0

-6.92395500258278e6 1.8782998885649916e7 0.0
1.8782998885649916e7 -4.330764344113509e7 0.0
0.0 0.0 0.0

2.621172743463004e6 6.290920915981568e6 0.0
6.290920915981568e6 -2.6027044503398232e7 0.0
0.0 0.0 0.0

3.2413447087508794e6 3.3978657439677697e6 0.0
3.3978657439677697e6 -2.8232128243212182e7 0.0
0.0 0.0 0.0

3.973659856203814e7 1.6343359571408298e7 0.0
1.6343359571408298e7 2.27758127150126e6 0.0
0.0 0.0 0.0

-1.224338604855617e7 4.200327318527821e7 0.0
4.200327318527821e7 3.4625840779083483e6 0.0
0.0 0.0 0.0

-4.4898700585323125e6 1.728741817386607e7 0.0
1.728741817386607e7 -3.890496681518774e7 0.0
0.0 0.0 0.0

-1.3157952617210789e7 2.5845909258021496e7 0.0
2.5845909258021496e7 -3.835595155281784e6 0.0
0.0 0.0 0.0

2.97670277811314e6 3.366706173352605e6 0.0
3.366706173352605e6 -3.7070915276327744e7 0.0
0.0 0.0 0.0

-9.068608726631118e6 2.7496414171831228e7 0.0
2.7496414171831228e7 6.981411975238498e6 0.0
0.0 0.0 0.0

1.1915321481799306e7 3.537070886278549e7 0.0
3.537070886278549e7 -5.4120688365197675e6 0.0
0.0 0.0 0.0

-8.886714341084788e6 1.1958564274311518e7 0.0
1.1958564274311518e7 3.8411954668717936e7 0.0
0.0 0.0 0.0

1.733376308109141e7 4.9715217911605015e7 0.0
4.9715217911605015e7 -7.860817680331231e6 0.0
0.0 0.0 0.0

-967370.236845168 2.1957517564191356e7 0.0
2.1957517564191356e7 -854942.9190407031 0.0
0.0 0.0 0.0

2.1099389459655713e6 2.9181628537263554e6 0.0
2.9181628537263554e6 -4.733390833290087e7 0.0
0.0 0.0 0.0

3.566053053043956e7 2.234734943878155e7 0.0
2.234734943878155e7 8.46104307698649e6 0.0
0.0 0.0 0.0

-2.1095048950616373e6 2.2690574248026155e7 0.0
2.2690574248026155e7 1.6217405257330175e7 0.0
0.0 0.0 0.0

1.5473252259073108e6 6.541127796584845e6 0.0
6.541127796584845e6 -4.242698529373025e7 0.0
0.0 0.0 0.0

1.7739359841025947e6 2.7778598066808086e7 0.0
2.7778598066808086e7 -6.999456409136215e6 0.0
0.0 0.0 0.0

2.0413401269319635e6 2.2403642324097306e7 0.0
2.2403642324097306e7 -8.621216941899864e6 0.0
0.0 0.0 0.0

-4.207323834859974e6 2.0517300947124768e7 0.0
2.0517300947124768e7 -1.5573306889324376e7 0.0
0.0 0.0 0.0

-1.0071883680275637e6 2.1784209936575547e7 0.0
2.1784209936575547e7 -1.0988741139914177e7 0.0
0.0 0.0 0.0

1.5160716077204525e7 2.5691801457666587e7 0.0
2.5691801457666587e7 1.3710453387603492e7 0.0
0.0 0.0 0.0

-417670.2928100005 7.161711548216017e6 0.0
7.161711548216017e6 -7.427271006330581e7 0.0
0.0 0.0 0.0

-4.899296271456629e6 2.6177405000024125e7 0.0
2.6177405000024125e7 1.1979134831052234e7 0.0
0.0 0.0 0.0

948841.320839942 4.623748114998376e6 0.0
4.623748114998376e6 -3.307812088369968e6 0.0
0.0 0.0 0.0

-8.085225909893673e6 1.6611976592729604e7 0.0
1.6611976592729604e7 2.978784984332153e7 0.0
0.0 0.0 0.0

3.4987090019336455e6 3.934176457774249e6 0.0
3.934176457774249e6 -2.4530938748852253e7 0.0
0.0 0.0 0.0

-7.491086749232871e6 -1.0312775312329329e6 0.0
-1.0312775312329329e6 4.479096111401887e7 0.0
0.0 0.0 0.0

1.2128033225308256e6 1.6695849988422893e7 0.0
1.6695849988422893e7 -2.3626079628084123e7 0.0
0.0 0.0 0.0

607646.8475055764 2.283122305729339e6 0.0
2.283122305729339e6 -3.321612153745698e6 0.0
0.0 0.0 0.0

5.278009766035143e6 1.958482873696184e7 0.0
1.958482873696184e7 2.2785307266252857e7 0.0
0.0 0.0 0.0

-2.5636195794939017e6 3.075437608842865e7 0.0
3.075437608842865e7 4.052892791235864e6 0.0
0.0 0.0 0.0

-8.3277710590270925e6 429735.7604917694 0.0
429735.7604917694 4.282919643660292e7 0.0
0.0 0.0 0.0

-1.3071765958546433e6 2.2432408322765134e7 0.0
2.2432408322765134e7 9.80024333960737e6 0.0
0.0 0.0 0.0

7.121625641681913e6 2.5750345239799753e7 0.0
2.5750345239799753e7 -5.321547071188922e6 0.0
0.0 0.0 0.0

-2.1672402509868364e6 2.661079353936145e7 0.0
2.661079353936145e7 83811.7581682821 0.0
0.0 0.0 0.0

-5.935155947126838e6 2.366989483627639e7 0.0
2.366989483627639e7 -1.1832422329531552e7 0.0
0.0 0.0 0.0

-1.5928230800320716e6 2.6747317548092697e7 0.0
2.6747317548092697e7 1.9364899938384881e6 0.0
0.0 0.0 0.0

-7.163211668195732e6 1.875703936059901e7 0.0
1.875703936059901e7 -2.3549069885068227e7 0.0
0.0 0.0 0.0

2.3489481756234836e7 2.8982231635400407e7 0.0
2.8982231635400407e7 -3.452180332226732e6 0.0
0.0 0.0 0.0

-2.2216680735914283e6 1.998772213475024e7 0.0
1.998772213475024e7 -1.7203847126858238e7 0.0
0.0 0.0 0.0

-2.7444784032519143e6 2.1138619757292233e7 0.0
2.1138619757292233e7 2.6985516038758818e7 0.0
0.0 0.0 0.0

6.303070559253288e6 2.3498497681185383e7 0.0
2.3498497681185383e7 1.5803073475043822e7 0.0
0.0 0.0 0.0

1.7203046290204823e6 1.1255780890413042e7 0.0
1.1255780890413042e7 -2.7794598024102956e7 0.0
0.0 0.0 0.0

-6.442398577791736e6 1.4624761887253813e7 0.0
1.4624761887253813e7 1.3196967932246376e7 0.0
0.0 0.0 0.0

-3.232364480694517e6 3.592066754711312e7 0.0
3.592066754711312e7 1.2618353058730166e6 0.0
0.0 0.0 0.0

-4.565365445976277e6 2.1706612256193735e7 0.0
2.1706612256193735e7 1.8627673664521165e7 0.0
0.0 0.0 0.0

4.861225056221505e6 3.828426449238079e7 0.0
3.828426449238079e7 -1.895873904054464e6 0.0
0.0 0.0 0.0

618602.6433806466 1.6300709768459225e7 0.0
1.6300709768459225e7 -2.519944419741332e7 0.0
0.0 0.0 0.0

-2.684818836291177e7 2.9730580503225196e7 0.0
2.9730580503225196e7 -1.1342737093278253e7 0.0
0.0 0.0 0.0

2.0969670967871211e6 4.8067416700807465e6 0.0
4.8067416700807465e6 -5.270248848761416e7 0.0
0.0 0.0 0.0

1.5784879686217032e7 3.8468363089772426e7 0.0
3.8468363089772426e7 -5.157539188932364e6 0.0
0.0 0.0 0.0

-2.132313288908709e7 3.54945950685647e7 0.0
3.54945950685647e7 6.613484698686418e6 0.0
0.0 0.0 0.0

2.2652530168628097e6 2.0871637542692013e7 0.0
2.0871637542692013e7 2.3102959762597106e7 0.0
0.0 0.0 0.0

-3.982052068750655e7 3.588522472003951e7 0.0
3.588522472003951e7 5.678392444748497e6 0.0
0.0 0.0 0.0

2.330256906989334e6 2.9875239986177017e6 0.0
2.9875239986177017e6 -4.8839348404795825e7 0.0
0.0 0.0 0.0

-4.0421393544009523e6 2.142031185031943e7 0.0
2.142031185031943e7 2.0090895763930738e7 0.0
0.0 0.0 0.0

-1.0618685544688646e7 8.898903061920954e6 0.0
8.898903061920954e6 1.6397204581899606e7 0.0
0.0 0.0 0.0

3.0948782502655126e6 2.930412848472369e6 0.0
2.930412848472369e6 -2.5898293854034975e7 0.0
0.0 0.0 0.0

1.065437577617154e6 2.2302573164206285e7 0.0
2.2302573164206285e7 -1.0713367748913383e7 0.0
0.0 0.0 0.0

-7.720558577659417e6 4.370756054509878e7 0.0
4.370756054509878e7 4.944435317389578e6 0.0
0.0 0.0 0.0

-1.4688460973791294e7 1.933701769416719e7 0.0
1.933701769416719e7 4.603023480101239e6 0.0
0.0 0.0 0.0

-4.050402264885661e7 3.0312228557531092e7 0.0
3.0312228557531092e7 -1.1142455669590123e6 0.0
0.0 0.0 0.0

5.097849307629702e7 2.654319737673061e7 0.0
2.654319737673061e7 1.9549838913633917e7 0.0
0.0 0.0 0.0

-9.022366278661832e6 1.7579034065356333e7 0.0
1.7579034065356333e7 -9.481377876485957e7 0.0
0.0 0.0 0.0

-272076.9074700782 2.1080983768905573e7 0.0
2.1080983768905573e7 -1.3987661793216554e7 0.0
0.0 0.0 0.0

-2.3270480883758143e6 2.0539099651367124e7 0.0
2.0539099651367124e7 2.719878932222148e7 0.0
0.0 0.0 0.0

1.821039522225873e6 2.5399120096248917e7 0.0
2.5399120096248917e7 -1.0446654060910398e7 0.0
0.0 0.0 0.0

-654917.7551231816 2.9498532981040042e7 0.0
2.9498532981040042e7 -550742.2828897473 0.0
0.0 0.0 0.0

3.800341613629119e6 1.8380879657624383e7 0.0
1.8380879657624383e7 1.3089499097522544e7 0.0
0.0 0.0 0.0

4.1639043278523516e6 3.733961392491172e7 0.0
3.733961392491172e7 -1.8565175792260442e6 0.0
0.0 0.0 0.0

-1.0613013244912012e7 9.80941462733625e6 0.0
9.80941462733625e6 1.942283332379479e7 0.0
0.0 0.0 0.0

6.770328689050697e7 4.064434108245161e7 0.0
4.064434108245161e7 2.929940903176886e7 0.0
0.0 0.0 0.0

2.680242948352751e6 2.9451071191413656e7 0.0
2.9451071191413656e7 -6.755067153345038e6 0.0
0.0 0.0 0.0

5.026806200273842e6 1.7438182537948925e7 0.0
1.7438182537948925e7 1.8307954830058426e7 0.0
0.0 0.0 0.0

-1.2902551472548105e7 2.765513824140119e7 0.0
2.765513824140119e7 1.8268684075221634e6 0.0
0.0 0.0 0.0

1.4508520281171678e6 1.956589913443127e7 0.0
1.956589913443127e7 1.9175512241520442e7 0.0
0.0 0.0 0.0

1.336479076629553e6 2.771858000254378e7 0.0
2.771858000254378e7 -6.523609699293217e6 0.0
0.0 0.0 0.0

1.8135052195492946e6 8.52808146061206e6 0.0
8.52808146061206e6 -3.758811438543228e7 0.0
0.0 0.0 0.0

-2.5925397213400584e6 2.4614738186522853e7 0.0
2.4614738186522853e7 6.859017394422984e6 0.0
0.0 0.0 0.0

-7.058829504579138e6 2.482836698250699e7 0.0
2.482836698250699e7 4.1351236874475023e6 0.0
0.0 0.0 0.0

1.1242081443063086e6 8.475536027873838e6 0.0
8.475536027873838e6 -1.3252448077478241e7 0.0
0.0 0.0 0.0

-3.48214490367152e6 2.541868709472654e7 0.0
2.541868709472654e7 1.2728302283892311e7 0.0
0.0 0.0 0.0

-6.734308772648577e6 6.844622139942635e6 0.0
6.844622139942635e6 5.4488250841465525e7 0.0
0.0 0.0 0.0

-1.1446311256491933e6 1.258741524905476e7 0.0
1.258741524905476e7 -2.118860389917027e6 0.0
0.0 0.0 0.0

-1.2738139343356159e7 2.5676509834583588e7 0.0
2.5676509834583588e7 -1.123312083706588e7 0.0
0.0 0.0 0.0

4.72539960474038e7 3.3086321548933458e7 0.0
3.3086321548933458e7 2.0934708827533606e7 0.0
0.0 0.0 0.0

-9230.861404730007 1.5808657875970747e7 0.0
1.5808657875970747e7 -3.266146730658418e7 0.0
0.0 0.0 0.0

2.3313021763087586e6 6.616976556085216e6 0.0
6.616976556085216e6 -3.9827403825636186e7 0.0
0.0 0.0 0.0

1.1254330819923965e7 2.3926483855110925e7 0.0
2.3926483855110925e7 5.298789666294807e6 0.0
0.0 0.0 0.0

-2.326611795413497e6 1.2834671271977618e7 0.0
1.2834671271977618e7 1.638655728454272e7 0.0
0.0 0.0 0.0

-1.099241977141057e6 2.8317210197115246e7 0.0
2.8317210197115246e7 127908.10130004963 0.0
0.0 0.0 0.0

-745894.3096503576 2.4283959532925215e7 0.0
2.4283959532925215e7 -8.140599468619004e6 0.0
0.0 0.0 0.0

76830.99623695295 2.4564204976069592e7 0.0
2.4564204976069592e7 -1.0180858928725421e7 0.0
0.0 0.0 0.0

-1.2726385371780863e6 2.1117811672219537e7 0.0
2.1117811672219537e7 -8.898590234242553e6 0.0
0.0 0.0 0.0

1.8563397937563765e6 9.355207827880058e6 0.0
9.355207827880058e6 -1.1933472967633761e7 0.0
0.0 0.0 0.0

3.9530510293632455e7 2.991256411361999e7 0.0
2.991256411361999e7 1.8263064421743337e7 0.0
0.0 0.0 0.0

3.2065379487524526e6 1.934709927015095e7 0.0
1.934709927015095e7 1.165514115459146e7 0.0
0.0 0.0 0.0

-3.6422613629432577e6 3.497035554576826e7 0.0
3.497035554576826e7 3.458844243610585e6 0.0
0.0 0.0 0.0

-4.15355339031998e7 2.482027020321322e7 0.0
2.482027020321322e7 5.443575871802099e6 0.0
0.0 0.0 0.0

3.444777688807809e6 3.610025776211872e6 0.0
3.610025776211872e6 -2.2903034684054296e7 0.0
0.0 0.0 0.0

901435.412268467 2.1423001230110947e7 0.0
2.1423001230110947e7 7.833999240907682e6 0.0
0.0 0.0 0.0

-5.41753573713562e6 1.792063724173823e7 0.0
1.792063724173823e7 -2.252149181447687e7 0.0
0.0 0.0 0.0

-379905.5648809187 1.901809236559726e7 0.0
1.901809236559726e7 -2.370962372105798e7 0.0
0.0 0.0 0.0

-8.947828289961603e6 -1.509714387252311e6 0.0
-1.509714387252311e6 3.072598563867064e7 0.0
0.0 0.0 0.0

958580.3048233604 1.4824794970169907e7 0.0
1.4824794970169907e7 -2.235186588062782e7 0.0
0.0 0.0 0.0

-1.1943244582209907e7 1.8509778912970148e7 0.0
1.8509778912970148e7 -5.698950076198581e7 0.0
0.0 0.0 0.0

1.13433217808175e6 1.4148194071039304e7 0.0
1.4148194071039304e7 -2.3667278364917714e7 0.0
0.0 0.0 0.0

2.5676848246169263e6 2.3031657439723432e7 0.0
2.3031657439723432e7 -9.807769916027416e6 0.0
0.0 0.0 0.0

3.699821179394107e7 2.431659868826068e7 0.0
2.431659868826068e7 8.655828183268633e6 0.0
0.0 0.0 0.0

-6.038284425704889e6 1.606769712253593e7 0.0
1.606769712253593e7 3.956576299996214e7 0.0
0.0 0.0 0.0

-6.189924417594712e6 2.482806894104182e7 0.0
2.482806894104182e7 -1.2504879206285477e7 0.0
0.0 0.0 0.0

427496.89813710016 1.9802910005816948e7 0.0
1.9802910005816948e7 1.0127136873764038e6 0.0
0.0 0.0 0.0

-7.0115789025602415e6 2.24987265688185e7 0.0
2.24987265688185e7 -1.6071365424236555e7 0.0
0.0 0.0 0.0

3.729894785457542e7 2.99420701478516e7 0.0
2.99420701478516e7 1.65981314810884e7 0.0
0.0 0.0 0.0

-4.207009248189078e6 2.550498641495003e7 0.0
2.550498641495003e7 1.3490944365754055e7 0.0
0.0 0.0 0.0

2.376364240287362e6 2.2755864715431258e7 0.0
2.2755864715431258e7 -3.1871837200512704e6 0.0
0.0 0.0 0.0

577907.8884176166 3.165526927928646e7 0.0
3.165526927928646e7 -1.7147579677468857e6 0.0
0.0 0.0 0.0

-2.4795476664370215e6 2.4571068529883098e7 0.0
2.4571068529883098e7 7.795057503720308e6 0.0
0.0 0.0 0.0

-4.5213149388391785e6 2.237305215525949e6 0.0
2.237305215525949e6 8.115902398453887e7 0.0
0.0 0.0 0.0

857492.9244495463 2.236128304560157e7 0.0
2.236128304560157e7 -1.5248805672189679e7 0.0
0.0 0.0 0.0

-1.710355668097331e6 3.087723153789082e7 0.0
3.087723153789082e7 2.265553724136599e6 0.0
0.0 0.0 0.0

-933195.7301734159 3.968270863581191e6 0.0
3.968270863581191e6 1.9192916894481115e6 0.0
0.0 0.0 0.0

-7.035150434810754e6 1.8112445471926857e7 0.0
1.8112445471926857e7 2.874050595080292e7 0.0
0.0 0.0 0.0

-4.1937380123586664e6 1.9361824569222987e7 0.0
1.9361824569222987e7 -1.532445283847154e7 0.0
0.0 0.0 0.0

2.6746183940412514e6 3.594829549765211e6 0.0
3.594829549765211e6 -3.2178272645115614e7 0.0
0.0 0.0 0.0

-1.8063074199716917e6 3.646011735274709e7 0.0
3.646011735274709e7 2.0784076827828358e6 0.0
0.0 0.0 0.0

1.6199513486244204e6 1.5146131176133594e7 0.0
1.5146131176133594e7 -2.0365575587782625e7 0.0
0.0 0.0 0.0

-4.674766177570205e6 2.08182541440999e7 0.0
2.08182541440999e7 2.1947613646797784e7 0.0
0.0 0.0 0.0

838053.1806602404 6.419713739241983e6 0.0
6.419713739241983e6 -6.876510584047945e7 0.0
0.0 0.0 0.0

-4.455324470462155e6 3.455270936313573e7 0.0
3.455270936313573e7 2.9299890575656905e6 0.0
0.0 0.0 0.0

-9.303263094364356e6 1.884587018938789e7 0.0
1.884587018938789e7 -3.362458868896646e7 0.0
0.0 0.0 0.0

3.3530326637030244e6 2.5171419513667505e6 0.0
2.5171419513667505e6 -1.4825222719962416e7 0.0
0.0 0.0 0.0

-785485.8505893453 1.1707211458166104e7 0.0
1.1707211458166104e7 -3.7948905249042343e6 0.0
0.0 0.0 0.0

-1.8180865832279753e7 3.561636040366864e7 0.0
3.561636040366864e7 5.789464689350087e6 0.0
0.0 0.0 0.0

6.572913207633448e6 1.745261403806612e7 0.0
1.745261403806612e7 2.1586143206079956e7 0.0
0.0 0.0 0.0

-9.00499701548015e6 4.116673393843013e7 0.0
4.116673393843013e7 3.157377474655459e6 0.0
0.0 0.0 0.0

-1.0349632739946341e7 7.706633735025413e6 0.0
7.706633735025413e6 2.9755334994954262e7 0.0
0.0 0.0 0.0

-505790.1178470515 9.77014157791835e6 0.0
9.77014157791835e6 -7.668292049703364e7 0.0
0.0 0.0 0.0

8.767968875514539e7 2.9385076284031935e7 0.0
2.9385076284031935e7 8.757734309164423e6 0.0
0.0 0.0 0.0

-1.0206835739551428e6 2.9187692234853268e7 0.0
2.9187692234853268e7 288996.6691390346 0.0
0.0 0.0 0.0

-5.727906893720234e6 3.023876285676174e7 0.0
3.023876285676174e7 7.042005574662585e6 0.0
0.0 0.0 0.0

-2.118666588950299e6 2.6967800768547427e7 0.0
2.6967800768547427e7 5.0851053476375e6 0.0
0.0 0.0 0.0

9.21631133082223e6 2.1292928400307696e7 0.0
2.1292928400307696e7 6.2123326640147075e7 0.0
0.0 0.0 0.0

2.220684338932881e6 3.9229959017124125e6 0.0
3.9229959017124125e6 -3.789488523710075e7 0.0
0.0 0.0 0.0

146511.32457001926 1.4230177612211222e7 0.0
1.4230177612211222e7 -9.281617345329797e6 0.0
0.0 0.0 0.0

9.624828210769305e6 3.5235812974298105e7 0.0
3.5235812974298105e7 -4.945079048631481e6 0.0
0.0 0.0 0.0

134923.8642780073 1.1627780549799506e7 0.0
1.1627780549799506e7 -4.290940942199507e7 0.0
0.0 0.0 0.0

-2.2116317529422313e7 2.1862693934019983e7 0.0
2.1862693934019983e7 4.1899545259247944e6 0.0
0.0 0.0 0.0

-6.974369544961583e6 2.517605953126969e7 0.0
2.517605953126969e7 2.7881010577361234e6 0.0
0.0 0.0 0.0

578250.4670113063 2.038152878030236e7 0.0
2.038152878030236e7 4.5985077392451875e6 0.0
0.0 0.0 0.0

1.7249228687214553e6 1.4477767764053106e7 0.0
1.4477767764053106e7 -2.1782034721072655e7 0.0
0.0 0.0 0.0

4.1772351412143297e6 2.0396767014722683e7 0.0
2.0396767014722683e7 4.006663553783544e7 0.0
0.0 0.0 0.0

1.5305842861987362e7 3.551727547968594e7 0.0
3.551727547968594e7 -5.800990479853951e6 0.0
0.0 0.0 0.0

-4.7235497546549834e7 4.57805973302022e6 0.0
4.57805973302022e6 5.8889210366779845e6 0.0
0.0 0.0 0.0

5.1496309505403124e7 4.82891104692547e7 0.0
4.82891104692547e7 -9.45344406642773e6 0.0
0.0 0.0 0.0

1.458302905630912e7 3.581172475999551e7 0.0
3.581172475999551e7 -6.262073872144227e6 0.0
0.0 0.0 0.0

3.1133677396846917e6 3.6838456613991316e6 0.0
3.6838456613991316e6 -2.2047810216751795e7 0.0
0.0 0.0 0.0

-2.9886892574599767e6 3.093926283744531e7 0.0
3.093926283744531e7 2.473423403688277e6 0.0
0.0 0.0 0.0

4.4398415904873684e7 1.6855056231152546e7 0.0
1.6855056231152546e7 2.7931512524950765e6 0.0
0.0 0.0 0.0

-5.558566222791661e6 9.014222195299983e6 0.0
9.014222195299983e6 5.897614444933623e7 0.0
0.0 0.0 0.0

863129.1845124802 2.2624367081123043e7 0.0
2.2624367081123043e7 -1.4724890490481202e7 0.0
0.0 0.0 0.0

2.7973202788917914e7 2.0712216193372e7 0.0
2.0712216193372e7 5.656664665284583e6 0.0
0.0 0.0 0.0

1.8464372497522663e6 2.3066212458571374e7 0.0
2.3066212458571374e7 -1.164749391815928e7 0.0
0.0 0.0 0.0

2.451147574920684e6 4.54008153042253e6 0.0
4.54008153042253e6 -4.085092606573426e7 0.0
0.0 0.0 0.0

-460320.79387978785 2.8970788576431673e7 0.0
2.8970788576431673e7 -1.5620130153588566e6 0.0
0.0 0.0 0.0

-4.768063584242113e6 1.832390303422052e7 0.0
1.832390303422052e7 -2.0328301199357245e7 0.0
0.0 0.0 0.0

3.1709989654671727e6 3.1186723108938597e7 0.0
3.1186723108938597e7 -5.475111885882752e6 0.0
0.0 0.0 0.0

-3.9582073711857833e6 1.1836387368446792e7 0.0
1.1836387368446792e7 6.109042537169877e7 0.0
0.0 0.0 0.0

-1.1373822743079606e6 2.0382386210755296e7 0.0
2.0382386210755296e7 -1.1115544048738962e7 0.0
0.0 0.0 0.0

1.638117700458847e6 1.0894798361941667e7 0.0
1.0894798361941667e7 -2.9945702060161944e7 0.0
0.0 0.0 0.0

5.398824607316447e6 2.5957088502160758e7 0.0
2.5957088502160758e7 -6.656319143752227e6 0.0
0.0 0.0 0.0

-3.303811306599626e6 1.9916041164980017e7 0.0
1.9916041164980017e7 -1.0459343256666183e7 0.0
0.0 0.0 0.0

-6.870698033926133e6 4.200476482635009e6 0.0
4.200476482635009e6 5.447409449748093e7 0.0
0.0 0.0 0.0

3.43373686695251e6 2.0983314561125413e7 0.0
2.0983314561125413e7 2.4029272962678894e7 0.0
0.0 0.0 0.0

-126060.09651605226 1.1221684171473708e7 0.0
1.1221684171473708e7 -4.636469871787614e7 0.0
0.0 0.0 0.0

4.023790707363687e6 3.0884911528201196e7 0.0
3.0884911528201196e7 -5.29922898711415e6 0.0
0.0 0.0 0.0

4.359435654185534e6 2.3817985527551815e7 0.0
2.3817985527551815e7 1.5185624661153544e7 0.0
0.0 0.0 0.0

2.383080973680025e6 9.748770337502915e6 0.0
9.748770337502915e6 -2.9339438800078895e7 0.0
0.0 0.0 0.0

6.604691923956204e7 2.902877344272131e7 0.0
2.902877344272131e7 1.5229102135215443e7 0.0
0.0 0.0 0.0

3.109080164920656e6 3.0186932977650817e7 0.0
3.0186932977650817e7 -5.494709730758447e6 0.0
0.0 0.0 0.0

-8.669212622561567e6 -1.1602314844902798e6 0.0
-1.1602314844902798e6 3.410474919984243e7 0.0
0.0 0.0 0.0

-8.020673203491263e6 4.534845957770129e6 0.0
4.534845957770129e6 5.079130070354171e7 0.0
0.0 0.0 0.0

2.988042100828523e6 1.7681553803398865e6 0.0
1.7681553803398865e6 -3.429397931908819e7 0.0
0.0 0.0 0.0

-2.7406621563685434e6 2.6494235706168026e7 0.0
2.6494235706168026e7 4.455347524730874e6 0.0
0.0 0.0 0.0

-1.794373588803969e6 2.0277839105678603e7 0.0
2.0277839105678603e7 -9.869723262481065e6 0.0
0.0 0.0 0.0

1.7922894295499786e6 2.4743236986188497e7 0.0
2.4743236986188497e7 -1.1759790909677789e7 0.0
0.0 0.0 0.0

-9.675759600645803e6 1.4565828372470548e6 0.0
1.4565828372470548e6 2.6304430329192843e7 0.0
0.0 0.0 0.0

509758.0337401065 2.5072510105352104e7 0.0
2.5072510105352104e7 -8.518923070959345e6 0.0
0.0 0.0 0.0

-7.220937157990962e6 4.0696293880728832e6 0.0
4.0696293880728832e6 5.431574323095047e7 0.0
0.0 0.0 0.0

1.0856991374162171e7 2.2566858125579815e7 0.0
2.2566858125579815e7 7.032416965201963e6 0.0
0.0 0.0 0.0

-630982.9754570145 1.3598733124867752e7 0.0
1.3598733124867752e7 -4.423488181986079e7 0.0
0.0 0.0 0.0

523466.99240488186 1.1235949948683348e7 0.0
1.1235949948683348e7 -4.666125105547023e7 0.0
0.0 0.0 0.0

-7.141808384997899e6 1.770312017476229e7 0.0
1.770312017476229e7 3.0372462098817784e7 0.0
0.0 0.0 0.0

-2.1867277275152234e6 2.2131360390959214e7 0.0
2.2131360390959214e7 5.6698315495710205e6 0.0
0.0 0.0 0.0

367038.1934831855 4.900559680248183e6 0.0
4.900559680248183e6 -1.396485944740001e6 0.0
0.0 0.0 0.0

-1.44835663514311e6 2.1451319356489927e7 0.0
2.1451319356489927e7 -9.426226351142999e6 0.0
0.0 0.0 0.0

-3.4061454056262104e6 2.9055280535642978e7 0.0
2.9055280535642978e7 7.247759650352996e6 0.0
0.0 0.0 0.0

8.196233548926267e6 2.1149510471445516e7 0.0
2.1149510471445516e7 4.995914751054299e7 0.0
0.0 0.0 0.0

1.5723958160185508e7 2.5611452760221276e7 0.0
2.5611452760221276e7 -1.6707693518258436e6 0.0
0.0 0.0 0.0

-4.0477786045815386e6 1.8347531373803553e6 0.0
1.8347531373803553e6 7.870152095320018e7 0.0
0.0 0.0 0.0

-6.464776598749574e6 1.1680227304329762e7 0.0
1.1680227304329762e7 4.838668595112529e7 0.0
0.0 0.0 0.0

-7.5316764723629095e6 1.7730403278044228e7 0.0
1.7730403278044228e7 2.478460930422552e7 0.0
0.0 0.0 0.0

2.589614605344475e6 2.0269149448426817e7 0.0
2.0269149448426817e7 1.2467624808514893e7 0.0
0.0 0.0 0.0

-1.0665899305320296e7 5.37517672455143e6 0.0
5.37517672455143e6 1.9636641589012783e7 0.0
0.0 0.0 0.0

-1.1683955585022595e7 2.2657808296806958e7 0.0
2.2657808296806958e7 -8.76407106526623e6 0.0
0.0 0.0 0.0

2.8637806199024357e6 5.019896126644247e6 0.0
5.019896126644247e6 -3.6100286512677014e7 0.0
0.0 0.0 0.0

-9.076383915296786e6 1.8445582222473204e7 0.0
1.8445582222473204e7 -4.803387407565908e7 0.0
0.0 0.0 0.0

2.238401623722977e6 1.926402362930872e7 0.0
1.926402362930872e7 8.010044501975169e6 0.0
0.0 0.0 0.0

2.0991734775603853e7 3.1747239170291316e7 0.0
3.1747239170291316e7 -5.63855078040193e6 0.0
0.0 0.0 0.0

2.4224766973387143e6 2.3738667499712463e7 0.0
2.3738667499712463e7 -8.698618507619882e6 0.0
0.0 0.0 0.0

-2.6642591935751893e7 2.8747104546478484e7 0.0
2.8747104546478484e7 -8.807749411381232e6 0.0
0.0 0.0 0.0

-1.0008631132256028e6 3.0155563801575862e7 0.0
3.0155563801575862e7 -1.8560938585148912e6 0.0
0.0 0.0 0.0

-2.1232987720863544e6 7.555302448919976e6 0.0
7.555302448919976e6 -2.088047648138737e6 0.0
0.0 0.0 0.0

-5.920918644756596e6 4.221033684774126e7 0.0
4.221033684774126e7 4.770297544750687e6 0.0
0.0 0.0 0.0

-2.0848489557053584e6 2.271007750733579e7 0.0
2.271007750733579e7 4.253006279337839e6 0.0
0.0 0.0 0.0

-1.1696455029717833e7 1.0091903197289929e7 0.0
1.0091903197289929e7 1.9922126120518297e7 0.0
0.0 0.0 0.0

-2.6856815603084965e6 2.2705837242986746e7 0.0
2.2705837242986746e7 2.1631545387353403e6 0.0
0.0 0.0 0.0

-6.382636009319923e6 1.5595561451892648e6 0.0
1.5595561451892648e6 7.119820715229255e6 0.0
0.0 0.0 0.0

397456.02478919644 1.0752712980361871e7 0.0
1.0752712980361871e7 -2.1244574436499026e7 0.0
0.0 0.0 0.0

-205420.74568079785 1.4291901815155348e7 0.0
1.4291901815155348e7 -3.8150685026128136e7 0.0
0.0 0.0 0.0

-1.1952235741431944e7 2.463363310127693e7 0.0
2.463363310127693e7 -1.0010378894472186e7 0.0
0.0 0.0 0.0

-2.726587309190057e6 2.1276723034200713e7 0.0
2.1276723034200713e7 2.5302248183023706e7 0.0
0.0 0.0 0.0

-1.3349895941273242e6 2.0144554362060245e7 0.0
2.0144554362060245e7 -7.1491840535147e6 0.0
0.0 0.0 0.0

3.0975507180071995e6 4.1522894795877915e6 0.0
4.1522894795877915e6 -1.5045600211177394e7 0.0
0.0 0.0 0.0

-428263.03613465466 2.7107700748535357e7 0.0
2.7107700748535357e7 -5.600947104849292e6 0.0
0.0 0.0 0.0

140418.44140262867 3.144911856166132e7 0.0
3.144911856166132e7 -2.984079280802651e6 0.0
0.0 0.0 0.0

7.216468206978617e6 2.5429645885912318e7 0.0
2.5429645885912318e7 -5.810925759733929e6 0.0
0.0 0.0 0.0

-1.0785247703937186e7 1.3170278820247987e7 0.0
1.3170278820247987e7 2.1268792553222477e7 0.0
0.0 0.0 0.0

-2.8140645437545534e6 1.938882978045223e7 0.0
1.938882978045223e7 -2.2380082381889243e7 0.0
0.0 0.0 0.0

-6.48996457726947e6 3.621462672888403e7 0.0
3.621462672888403e7 3.2987511697679646e6 0.0
0.0 0.0 0.0

-5.383243671420954e6 3.539191426139335e7 0.0
3.539191426139335e7 3.102026184128677e6 0.0
0.0 0.0 0.0

-3.6289884431760283e6 1.7185726693043627e7 0.0
1.7185726693043627e7 -3.565107260956349e7 0.0
0.0 0.0 0.0

-4.274313521499936e6 1.9704484778098494e7 0.0
1.9704484778098494e7 -1.3496983967554916e7 0.0
0.0 0.0 0.0

1.2594499866524092e6 2.0139179494396724e7 0.0
2.0139179494396724e7 6.5731686030393075e6 0.0
0.0 0.0 0.0

1.3460008460228741e6 1.0336669751125732e7 0.0
1.0336669751125732e7 -3.6380287677660316e7 0.0
0.0 0.0 0.0

-7.983385441904385e6 1.2998140000150537e7 0.0
1.2998140000150537e7 3.981039590280801e7 0.0
0.0 0.0 0.0

-2.564526530968979e6 1.3379918938420232e7 0.0
1.3379918938420232e7 -7.968598242007528e7 0.0
0.0 0.0 0.0

1.268638532965698e7 3.966923614236867e7 0.0
3.966923614236867e7 -6.788754510945225e6 0.0
0.0 0.0 0.0

8.138645141340833e6 1.8942587211206097e7 0.0
1.8942587211206097e7 3.5282509821164005e7 0.0
0.0 0.0 0.0

5.859475660204992e6 2.00088308764689e7 0.0
2.00088308764689e7 4.521686151772921e7 0.0
0.0 0.0 0.0

2.7773250028239798e7 2.6567999300703295e7 0.0
2.6567999300703295e7 1.3260535395272516e7 0.0
0.0 0.0 0.0

-202115.99722580123 2.098436770428441e7 0.0
2.098436770428441e7 3.4630250820606207e6 0.0
0.0 0.0 0.0

-350532.88415517565 2.6620651671096794e7 0.0
2.6620651671096794e7 -5.314755740342203e6 0.0
0.0 0.0 0.0

-3.399787168518228e7 2.9460780625491448e7 0.0
2.9460780625491448e7 -1.0062454845030405e7 0.0
0.0 0.0 0.0

-186131.91867249814 1.999162290691578e7 0.0
1.999162290691578e7 1.2782869770335117e6 0.0
0.0 0.0 0.0

-4.077420169089326e6 2.395112955164414e7 0.0
2.395112955164414e7 6.21073396283401e6 0.0
0.0 0.0 0.0

3.326167636801649e6 3.744133807899292e6 0.0
3.744133807899292e6 -2.9767850078461442e7 0.0
0.0 0.0 0.0

-1.3374340966157917e7 2.4409001986094873e7 0.0
2.4409001986094873e7 -6.91202671206433e6 0.0
0.0 0.0 0.0

-1.6168208100753384e7 4.433536177568865e7 0.0
4.433536177568865e7 5.562609987060326e6 0.0
0.0 0.0 0.0

-9.72591866595426e6 3.3007740277864607e6 0.0
3.3007740277864607e6 2.951719166943064e7 0.0
0.0 0.0 0.0

1.4883712499422248e7 3.277409898918414e7 0.0
3.277409898918414e7 -5.3586895267473925e6 0.0
0.0 0.0 0.0

-2.2806676116954237e6 1.1318498928415153e7 0.0
1.1318498928415153e7 8.553305734885593e7 0.0
0.0 0.0 0.0

-8.67302156616377e6 -1.1502369366775185e6 0.0
-1.1502369366775185e6 3.393200903233211e7 0.0
0.0 0.0 0.0

-1.529487593662253e7 2.094821266422493e7 0.0
2.094821266422493e7 -6.2325272536388345e7 0.0
0.0 0.0 0.0

-373133.5130901644 2.2025925969802473e7 0.0
2.2025925969802473e7 -1.2399129877234943e7 0.0
0.0 0.0 0.0

308945.10962277744 3.2460491250225507e7 0.0
3.2460491250225507e7 -1.578437681629073e6 0.0
0.0 0.0 0.0

-8.436431785720438e6 2.0583671822252654e7 0.0
2.0583671822252654e7 -1.1901882896302395e7 0.0
0.0 0.0 0.0

-967885.5936545972 1.1115499034286292e7 0.0
1.1115499034286292e7 -2.196475061993675e6 0.0
0.0 0.0 0.0

-977982.567182694 2.87322832255327e7 0.0
2.87322832255327e7 -3.074399733191872e6 0.0
0.0 0.0 0.0

-3.2988815452524354e6 3.424271852106746e7 0.0
3.424271852106746e7 2.876651827562454e6 0.0
0.0 0.0 0.0

648428.1258305409 3.2673102381106153e7 0.0
3.2673102381106153e7 -2.0315702199138307e6 0.0
0.0 0.0 0.0

-4.645037936818723e6 1.2383443283629363e7 0.0
1.2383443283629363e7 -8.645926784277144e7 0.0
0.0 0.0 0.0

-6.265766794385852e6 2.0702106485078145e7 0.0
2.0702106485078145e7 -2.2058340619158477e7 0.0
0.0 0.0 0.0

-5.750647939707365e6 3.1530811878383663e6 0.0
3.1530811878383663e6 6.42988584589943e7 0.0
0.0 0.0 0.0

1.5409790252644876e7 2.4042718850599e7 0.0
2.4042718850599e7 6.962599301616754e7 0.0
0.0 0.0 0.0

-5.340230694940147e7 4.460612755151307e6 0.0
4.460612755151307e6 5.682108911201082e6 0.0
0.0 0.0 0.0

4.6312153392839976e7 3.126719595569226e7 0.0
3.126719595569226e7 9.374845326568607e6 0.0
0.0 0.0 0.0

-445606.9638104886 1.6917243919892088e7 0.0
1.6917243919892088e7 -3.1503257262593545e7 0.0
0.0 0.0 0.0

2.128275336835559e6 5.715832713706235e6 0.0
5.715832713706235e6 -8.997664000065472e6 0.0
0.0 0.0 0.0

6.2576012331685595e7 2.961667571479655e7 0.0
2.961667571479655e7 -194026.9803702645 0.0
0.0 0.0 0.0

2.634472994396327e6 1.2302807734941525e7 0.0
1.2302807734941525e7 -2.7331930318829384e7 0.0
0.0 0.0 0.0

3.456135076344524e7 2.6893215417306345e7 0.0
2.6893215417306345e7 1.4288812381082833e7 0.0
0.0 0.0 0.0

-1.418270433280772e6 2.9880190315327622e7 0.0
2.9880190315327622e7 -1.168733055940554e6 0.0
0.0 0.0 0.0

-4.836511556695657e6 2.958071484240162e7 0.0
2.958071484240162e7 7.302351549081167e6 0.0
0.0 0.0 0.0

-1.0078673808848402e6 1.4743779292810457e7 0.0
1.4743779292810457e7 -1.0085266023090988e7 0.0
0.0 0.0 0.0

-6.650428857108399e6 1.520696789079689e7 0.0
1.520696789079689e7 -6.747959385875401e6 0.0
0.0 0.0 0.0

-6.192222055535388e6 1.947094073389416e7 0.0
1.947094073389416e7 -2.2003713033343926e7 0.0
0.0 0.0 0.0

-1.902823084013864e6 2.2928840189778242e7 0.0
2.2928840189778242e7 9.52282284403416e6 0.0
0.0 0.0 0.0

3.9874388507872745e6 2.2754864288944747e7 0.0
2.2754864288944747e7 1.1473025588869127e7 0.0
0.0 0.0 0.0

-2.720821160268102e6 9.82522804568026e6 0.0
9.82522804568026e6 8.053612218201579e7 0.0
0.0 0.0 0.0

-1.8898044607955792e6 2.7907668695065625e7 0.0
2.7907668695065625e7 -566086.3846463334 0.0
0.0 0.0 0.0

2.939870633642575e6 1.7382744942576454e6 0.0
1.7382744942576454e6 -3.450744808484694e7 0.0
0.0 0.0 0.0

-2.92452001903476e6 2.361277495267526e7 0.0
2.361277495267526e7 1.6686503200826045e7 0.0
0.0 0.0 0.0

2.6023025073514003e6 2.2715630418002155e7 0.0
2.2715630418002155e7 1.3180203827823505e7 0.0
0.0 0.0 0.0

1.4633584037095007e7 2.7733260481579285e7 0.0
2.7733260481579285e7 -3.8582616684245504e6 0.0
0.0 0.0 0.0

1.2565027759402273e6 2.7075353909738123e7 0.0
2.7075353909738123e7 -8.524621156535523e6 0.0
0.0 0.0 0.0

-4.4323191640658565e6 3.837374185729441e7 0.0
3.837374185729441e7 1.8741392485266621e6 0.0
0.0 0.0 0.0

-3.200547816543503e6 8.29686126170063e6 0.0
8.29686126170063e6 -194220.23738208145 0.0
0.0 0.0 0.0

-1.3132508283284836e7 3.540641394638276e7 0.0
3.540641394638276e7 5.406262944700685e6 0.0
0.0 0.0 0.0

-2.0131858697592297e6 3.0501101161568124e7 0.0
3.0501101161568124e7 3.192713247684376e6 0.0
0.0 0.0 0.0

-7.105752364392448e6 1.888989204751488e7 0.0
1.888989204751488e7 2.4743753075057276e7 0.0
0.0 0.0 0.0

3.824635539384034e7 2.703025621246918e7 0.0
2.703025621246918e7 1.8115975956885032e6 0.0
0.0 0.0 0.0

959671.9370025964 2.073306281138734e7 0.0
2.073306281138734e7 -1.6076548172053175e7 0.0
0.0 0.0 0.0

-1.7748791030272935e6 2.9575965882581215e7 0.0
2.9575965882581215e7 -355399.19887548604 0.0
0.0 0.0 0.0

-791146.8880485855 1.3389293811496368e7 0.0
1.3389293811496368e7 -1.0490199278025657e7 0.0
0.0 0.0 0.0

-928498.4632632397 2.2427178019238047e7 0.0
2.2427178019238047e7 1.5068539515755596e7 0.0
0.0 0.0 0.0

-1.062988428448829e7 1.6348127314146401e7 0.0
1.6348127314146401e7 -3.5813626309246537e6 0.0
0.0 0.0 0.0

-1.3392345356166309e7 2.350408215648939e7 0.0
2.350408215648939e7 -7.108819874690244e6 0.0
0.0 0.0 0.0

412679.23828797834 2.166497997264773e7 0.0
2.166497997264773e7 -1.234001207041605e7 0.0
0.0 0.0 0.0

1.2026296797213275e7 1.6875681291327167e7 0.0
1.6875681291327167e7 4.8130416336456295e6 0.0
0.0 0.0 0.0

-2666.4158450653777 2.0082343149882033e7 0.0
2.0082343149882033e7 -2.020892792316915e7 0.0
0.0 0.0 0.0

-2.6374702955380976e6 2.1015869632682666e7 0.0
2.1015869632682666e7 2.5256175661849633e7 0.0
0.0 0.0 0.0

-1.782103982121579e7 2.251356601591681e7 0.0
2.251356601591681e7 -1.4445410332105877e6 0.0
0.0 0.0 0.0

-2.9529733184850225e6 2.2707377222211547e7 0.0
2.2707377222211547e7 3.9568511954826405e6 0.0
0.0 0.0 0.0

-1.1348546307102764e7 8.984710506191416e6 0.0
8.984710506191416e6 2.732274560785706e7 0.0
0.0 0.0 0.0

3.4875070728533976e6 2.0183085408742618e7 0.0
2.0183085408742618e7 2.2678390534162123e7 0.0
0.0 0.0 0.0

1.7822571791813463e7 3.597999387870164e7 0.0
3.597999387870164e7 -6.894230041018056e6 0.0
0.0 0.0 0.0

-4.4293184887308516e7 2.9601470497480944e7 0.0
2.9601470497480944e7 -191425.52411380783 0.0
0.0 0.0 0.0

1.1744728278148895e7 4.491471551857021e7 0.0
4.491471551857021e7 -3.5725293737811986e6 0.0
0.0 0.0 0.0

-1.541672997217612e7 2.6385022932591353e7 0.0
2.6385022932591353e7 -403654.51976765506 0.0
0.0 0.0 0.0

7.063154565721061e6 4.066099590789427e7 0.0
4.066099590789427e7 -2.27989129541957e6 0.0
0.0 0.0 0.0

-1.1138314869226323e7 5.0361945499361865e6 0.0
5.0361945499361865e6 2.679809284186332e7 0.0
0.0 0.0 0.0

1.80320634594827e7 2.6456825416254997e7 0.0
2.6456825416254997e7 -1.8543991167988377e6 0.0
0.0 0.0 0.0

-4.32068044318362e6 3.5803744813155845e7 0.0
3.5803744813155845e7 3.7449113298893077e6 0.0
0.0 0.0 0.0

-5.606838279428235e6 2.369807731785352e7 0.0
2.369807731785352e7 1.0782520660123911e6 0.0
0.0 0.0 0.0

-601521.0695015127 1.873091009254557e7 0.0
1.873091009254557e7 -2.5921355853302784e7 0.0
0.0 0.0 0.0

-6.937080445648107e6 3.2064352352124557e7 0.0
3.2064352352124557e7 6.089451073935498e6 0.0
0.0 0.0 0.0

-8.261915298701459e6 2.0209662843883812e7 0.0
2.0209662843883812e7 -7.837572718495473e6 0.0
0.0 0.0 0.0

6.198961048677443e6 3.986013301146176e7 0.0
3.986013301146176e7 -4.309430040946991e6 0.0
0.0 0.0 0.0

-1.659105440691638e7 3.5793326092572324e7 0.0
3.5793326092572324e7 6.438605801954296e6 0.0
0.0 0.0 0.0

1.2544330561714256e7 2.6781028557851322e7 0.0
2.6781028557851322e7 -3.3939066252940474e6 0.0
0.0 0.0 0.0

3.229910927467658e6 5.849986815220696e6 0.0
5.849986815220696e6 -1.945240510225086e7 0.0
0.0 0.0 0.0

-7.049754285577369e6 1.917126414807491e7 0.0
1.917126414807491e7 -3.8666670469615296e7 0.0
0.0 0.0 0.0

3.007879721385828e6 4.039651122212523e6 0.0
4.039651122212523e6 -1.6493707912810579e7 0.0
0.0 0.0 0.0

6.279056002150532e6 1.9408204937134974e7 0.0
1.9408204937134974e7 3.33318534853715e7 0.0
0.0 0.0 0.0

6.622496253782568e6 2.4702611193211604e7 0.0
2.4702611193211604e7 -3.632534415302627e6 0.0
0.0 0.0 0.0

1.1584114988292104e7 3.3118246186311968e7 0.0
3.3118246186311968e7 -5.465204127592764e6 0.0
0.0 0.0 0.0

-6.961206228434872e6 1.8774969402740486e7 0.0
1.8774969402740486e7 2.8801109457380004e7 0.0
0.0 0.0 0.0

-126587.68788206484 1.5481583980696814e7 0.0
1.5481583980696814e7 -8.96772304855741e6 0.0
0.0 0.0 0.0

1.0167330411073783e6 9.919955661584783e6 0.0
9.919955661584783e6 4.1336547285826826e6 0.0
0.0 0.0 0.0

-1.1808631050205678e6 1.164198059346617e7 0.0
1.164198059346617e7 -6.5745553585206896e7 0.0
0.0 0.0 0.0

2.6688940735737244e6 1.743112516372451e7 0.0
1.743112516372451e7 7.780514077940329e6 0.0
0.0 0.0 0.0

-1.582563884190439e7 3.185193471400926e7 0.0
3.185193471400926e7 5.156143207545241e6 0.0
0.0 0.0 0.0

-1.5832701250100448e6 2.022119936968536e7 0.0
2.022119936968536e7 -1.4314551765870782e7 0.0
0.0 0.0 0.0

2.9389423931878217e7 2.589919945666249e7 0.0
2.589919945666249e7 1.2871324032220868e7 0.0
0.0 0.0 0.0

-9.80442162787303e6 7.653319235585442e6 0.0
7.653319235585442e6 3.5433675975360155e7 0.0
0.0 0.0 0.0

-3.57026492752342e7 3.3321862284211066e7 0.0
3.3321862284211066e7 713359.232969284 0.0
0.0 0.0 0.0

3.693296026729831e7 3.78974818359188e7 0.0
3.78974818359188e7 -9.04497091073678e6 0.0
0.0 0.0 0.0

-5.175790944316097e6 2.965199251089111e7 0.0
2.965199251089111e7 8.06300725429176e6 0.0
0.0 0.0 0.0

50740.02494481311 1.8366195593813058e7 0.0
1.8366195593813058e7 2.9005608268071944e6 0.0
0.0 0.0 0.0

-5.346214294800837e6 1.7699226598732192e7 0.0
1.7699226598732192e7 3.632885363854736e7 0.0
0.0 0.0 0.0

-9.090134500209507e6 2254.0054079343945 0.0
2254.0054079343945 3.4992645524161346e7 0.0
0.0 0.0 0.0

367842.79588577617 2.028973096970036e7 0.0
2.028973096970036e7 -1.7575643389794514e7 0.0
0.0 0.0 0.0

-1.1687768007386897e7 2.7178934853472974e7 0.0
2.7178934853472974e7 -1.3195250923422858e7 0.0
0.0 0.0 0.0

82572.8346643257 2.071593056079683e7 0.0
2.071593056079683e7 -1.1512279479344029e7 0.0
0.0 0.0 0.0

-4.440163694084868e6 1.2299912981705531e7 0.0
1.2299912981705531e7 5.628530908127639e7 0.0
0.0 0.0 0.0

155600.2575755734 1.5779708109648194e7 0.0
1.5779708109648194e7 -3.082573439297566e7 0.0
0.0 0.0 0.0

-1.139338266829281e7 2.6954470993235838e7 0.0
2.6954470993235838e7 -1.3433688339125242e7 0.0
0.0 0.0 0.0

-722026.3732092297 1.8222026273086432e7 0.0
1.8222026273086432e7 -2.5827392712626014e7 0.0
0.0 0.0 0.0

3.0195446068167493e7 2.5376392880960833e7 0.0
2.5376392880960833e7 1.4853606750215227e7 0.0
0.0 0.0 0.0

-6.202723865872253e6 1.055437145094368e7 0.0
1.055437145094368e7 5.179694182195171e7 0.0
0.0 0.0 0.0

1.649323030433147e6 2.261564322951946e7 0.0
2.261564322951946e7 -768635.1656350021 0.0
0.0 0.0 0.0

-1.3260008307617065e6 2.225282414659977e7 0.0
2.225282414659977e7 2.062095638059026e7 0.0
0.0 0.0 0.0

4.968913633728618e6 3.1727910703171752e7 0.0
3.1727910703171752e7 -5.257684166689139e6 0.0
0.0 0.0 0.0

2.178576231189389e6 1.0647687056061462e7 0.0
1.0647687056061462e7 -3.1568217291874755e7 0.0
0.0 0.0 0.0

1.8295564763117172e6 1.0001042458857343e7 0.0
1.0001042458857343e7 -1.2938462310273625e7 0.0
0.0 0.0 0.0

-1.1480975392027348e6 1.2208063188995766e7 0.0
1.2208063188995766e7 -5.6851342924605e7 0.0
0.0 0.0 0.0

-1.1375627415694412e7 2.5261688555395238e7 0.0
2.5261688555395238e7 -5.1337270496768765e6 0.0
0.0 0.0 0.0

-7.679651999659048e6 1.0368747571112167e7 0.0
1.0368747571112167e7 4.682719534645389e7 0.0
0.0 0.0 0.0

-1.0102089052552734e7 2.4995617569268838e7 0.0
2.4995617569268838e7 -9.373243229751907e6 0.0
0.0 0.0 0.0

106437.6399813015 1.9582967988873843e7 0.0
1.9582967988873843e7 -1.1957127536468469e7 0.0
0.0 0.0 0.0

243935.1520905681 9.408548440008564e6 0.0
9.408548440008564e6 -4.9765498953091286e7 0.0
0.0 0.0 0.0

-6.323877139078604e6 1.6499237307232572e7 0.0
1.6499237307232572e7 3.698259910236705e7 0.0
0.0 0.0 0.0

4.039459982706564e6 1.9248911068671647e7 0.0
1.9248911068671647e7 1.493038214220455e7 0.0
0.0 0.0 0.0

-1.0973524362353124e6 1.3997745984733038e7 0.0
1.3997745984733038e7 -4.126342270400435e7 0.0
0.0 0.0 0.0

2.439781651119126e6 2.542871937480093e6 0.0
2.542871937480093e6 -3.854647242379136e7 0.0
0.0 0.0 0.0

-3.1879558150172317e6 2.3034414490188066e7 0.0
2.3034414490188066e7 1.6777172313251242e7 0.0
0.0 0.0 0.0

-9.498917149392527e6 2.5634915770130612e7 0.0
2.5634915770130612e7 -1.2798397002868904e7 0.0
0.0 0.0 0.0

1.102925817005421e6 1.437775182877443e7 0.0
1.437775182877443e7 -1.5119648253607906e7 0.0
0.0 0.0 0.0

-8.466080990017086e6 3.774734148939482e6 0.0
3.774734148939482e6 4.286387665439345e7 0.0
0.0 0.0 0.0

-4.1518260268369513e6 1.0391265396908062e6 0.0
1.0391265396908062e6 7.899458689898649e6 0.0
0.0 0.0 0.0

-5.238023026186771e6 2.1144398674674653e7 0.0
2.1144398674674653e7 2.034103773942726e7 0.0
0.0 0.0 0.0

3.2100831321963906e7 2.837940072737621e7 0.0
2.837940072737621e7 1.8989435520107828e7 0.0
0.0 0.0 0.0

2.4516744860823844e7 2.5830678133542933e7 0.0
2.5830678133542933e7 1.429359743589159e7 0.0
0.0 0.0 0.0

-1.799000468028193e7 2.60393649810166e7 0.0
2.60393649810166e7 -1.177590667872161e7 0.0
0.0 0.0 0.0

-4.585752566785636e6 1.7937073758798014e7 0.0
1.7937073758798014e7 -1.3875534179231174e7 0.0
0.0 0.0 0.0

-1.0516808372386819e7 2.6191883300867073e7 0.0
2.6191883300867073e7 -1.0876507143309627e7 0.0
0.0 0.0 0.0

-1.0523031566848747e7 2.432182373064756e7 0.0
2.432182373064756e7 -1.1691035855230272e7 0.0
0.0 0.0 0.0

-944553.3937351964 1.2909965996713893e7 0.0
1.2909965996713893e7 -5.034451786142822e7 0.0
0.0 0.0 0.0

-1.6920385422852873e6 4.272026869375724e6 0.0
4.272026869375724e6 -891587.2489364566 0.0
0.0 0.0 0.0

-1.167725282039137e6 7.475021432289546e6 0.0
7.475021432289546e6 1.1060104413942965e6 0.0
0.0 0.0 0.0

1.4047703750766893e6 1.870889990542998e7 0.0
1.870889990542998e7 2.1149230076207942e6 0.0
0.0 0.0 0.0

2.1712965331044763e7 2.5944306685547583e7 0.0
2.5944306685547583e7 1.3196169810038278e7 0.0
0.0 0.0 0.0

1.6177189296421858e6 1.9651437808130138e7 0.0
1.9651437808130138e7 9.459665181120157e6 0.0
0.0 0.0 0.0

-3.9091700966219706e6 2.2173376271452628e7 0.0
2.2173376271452628e7 1.7400189543676946e7 0.0
0.0 0.0 0.0

-2.6310213066576596e7 1.3767282405215397e7 0.0
1.3767282405215397e7 7.884084648826355e6 0.0
0.0 0.0 0.0

3.1024335197120123e6 1.9304193769728195e7 0.0
1.9304193769728195e7 1.1593126098865539e7 0.0
0.0 0.0 0.0

2.324874541535157e6 6.447096863623929e6 0.0
6.447096863623929e6 -2.036013336687339e7 0.0
0.0 0.0 0.0

-1.5742838518167522e7 3.3857375110082e7 0.0
3.3857375110082e7 6.047434897405397e6 0.0
0.0 0.0 0.0

-7.960182982511349e6 1.6879454664267865e6 0.0
1.6879454664267865e6 4.5312542496718735e7 0.0
0.0 0.0 0.0

-1.9526861881356935e6 2.194702354211356e7 0.0
2.194702354211356e7 -1.0233259545957219e7 0.0
0.0 0.0 0.0

1.0175473553643132e7 2.3218370364713844e7 0.0
2.3218370364713844e7 1.2378010672612544e7 0.0
0.0 0.0 0.0

-8.89336392027876e6 2.532767369375987e7 0.0
2.532767369375987e7 -1.2828261413306061e7 0.0
0.0 0.0 0.0

-3.803293753149365e6 1.789481784143285e7 0.0
1.789481784143285e7 -3.2336787022326753e7 0.0
0.0 0.0 0.0

2.5587715905323174e7 2.717327052330467e7 0.0
2.717327052330467e7 1.7275581203187913e7 0.0
0.0 0.0 0.0

-3.6420426014174335e6 2.0014960044784244e7 0.0
2.0014960044784244e7 -2.3272266837134235e7 0.0
0.0 0.0 0.0

2.243286275107777e6 2.0389406272822738e7 0.0
2.0389406272822738e7 1.35194984205443e7 0.0
0.0 0.0 0.0

5.388232246176798e6 2.2678188114260305e7 0.0
2.2678188114260305e7 1.6197707299371863e7 0.0
0.0 0.0 0.0

-2.934770859739027e6 2.280680214304264e7 0.0
2.280680214304264e7 1.7805664240868554e7 0.0
0.0 0.0 0.0

-2.481010025549816e6 2.2869200439867843e7 0.0
2.2869200439867843e7 1.1998063594790746e7 0.0
0.0 0.0 0.0

2.0967316696220431e6 5.586265642545486e6 0.0
5.586265642545486e6 -3.6947697164465554e7 0.0
0.0 0.0 0.0

1.4939350514126332e6 3.421089010199895e7 0.0
3.421089010199895e7 -2.2015024802256543e6 0.0
0.0 0.0 0.0

-6.822889563935321e6 2.1663871936355673e7 0.0
2.1663871936355673e7 -1.7495926240765914e7 0.0
0.0 0.0 0.0

3.648824900222542e7 2.396579194489567e7 0.0
2.396579194489567e7 1.4967092375081565e7 0.0
0.0 0.0 0.0

-9.389731764583666e6 3.0961117817375667e7 0.0
3.0961117817375667e7 6.53050074591662e6 0.0
0.0 0.0 0.0

2.242309018717721e6 4.571654410221747e6 0.0
4.571654410221747e6 -4.288240643593502e7 0.0
0.0 0.0 0.0

-2.4296722543335226e6 2.0323609720895275e7 0.0
2.0323609720895275e7 7.413664779901031e6 0.0
0.0 0.0 0.0

1.8656826387561206e7 2.332963438301135e7 0.0
2.332963438301135e7 1.0275197058740232e7 0.0
0.0 0.0 0.0

4.6669097930210985e7 2.226790676219367e7 0.0
2.226790676219367e7 1.2422949441524412e7 0.0
0.0 0.0 0.0

-6.058369535855303e6 3.553863082123835e7 0.0
3.553863082123835e7 4.726424599596892e6 0.0
0.0 0.0 0.0

487744.95047698356 2.1092200586445756e7 0.0
2.1092200586445756e7 -1.8857007941455625e7 0.0
0.0 0.0 0.0

-1.0198523918783246e7 1.2357067182177655e7 0.0
1.2357067182177655e7 2.277471541445166e7 0.0
0.0 0.0 0.0

-8.468019797578517e6 1.8706951018475785e6 0.0
1.8706951018475785e6 4.3579752205269925e7 0.0
0.0 0.0 0.0

2.3684719063909696e6 1.9471849152957555e7 0.0
1.9471849152957555e7 8.0275746699573845e6 0.0
0.0 0.0 0.0

1.4556546683629762e7 1.9407179369416587e7 0.0
1.9407179369416587e7 1.054935187637857e7 0.0
0.0 0.0 0.0

-9.856363406328948e6 5.315008540365924e6 0.0
5.315008540365924e6 3.402059309361439e7 0.0
0.0 0.0 0.0

-3.1279021522000562e6 1.3938652599466318e7 0.0
1.3938652599466318e7 -1.3686508144498826e6 0.0
0.0 0.0 0.0

-4.485709053853885e6 2.190665210418644e7 0.0
2.190665210418644e7 -1.5783700120908637e7 0.0
0.0 0.0 0.0

-5.018535122130058e6 1.8299490492904555e7 0.0
1.8299490492904555e7 -3.010517003380216e7 0.0
0.0 0.0 0.0

400664.8843176726 3.3431924641902205e7 0.0
3.3431924641902205e7 -1.758713961340539e6 0.0
0.0 0.0 0.0

5.960045826105141e6 3.2409380772749204e7 0.0
3.2409380772749204e7 -5.496557357065979e6 0.0
0.0 0.0 0.0

5.625791375103943e6 4.370193420541911e7 0.0
4.370193420541911e7 -3.9256528980783336e6 0.0
0.0 0.0 0.0

-1.6011548760185234e7 4.138305671681734e7 0.0
4.138305671681734e7 6.590562752259168e6 0.0
0.0 0.0 0.0

8.947745679680815e6 2.0146029556096617e7 0.0
2.0146029556096617e7 3.3391299794051718e7 0.0
0.0 0.0 0.0

-8.928006760796104e6 1.8460418751957193e7 0.0
1.8460418751957193e7 -8.337239431463277e7 0.0
0.0 0.0 0.0

-1.033487371703779e7 795739.8257268718 0.0
795739.8257268718 2.488927080928671e7 0.0
0.0 0.0 0.0

-1.0789560573241785e7 1.7026894350161728e7 0.0
1.7026894350161728e7 -3.67059082117302e7 0.0
0.0 0.0 0.0

-4.914252530853125e6 1.685832962107152e7 0.0
1.685832962107152e7 -1.6025015394145465e7 0.0
0.0 0.0 0.0

7.213296201170088e6 2.0557302724767637e7 0.0
2.0557302724767637e7 3.2114755751049086e7 0.0
0.0 0.0 0.0

-1.04314136433018e7 1.9126554386974275e7 0.0
1.9126554386974275e7 -4.354498790743251e7 0.0
0.0 0.0 0.0

-8.011491875302771e6 1.7540852710222073e7 0.0
1.7540852710222073e7 -3.0703060512996975e7 0.0
0.0 0.0 0.0

2.120069057722126e7 2.5604088198143285e7 0.0
2.5604088198143285e7 1.156962374698076e7 0.0
0.0 0.0 0.0

-6.0818312997921305e6 2.2180880225662038e7 0.0
2.2180880225662038e7 -1.5584772536217367e7 0.0
0.0 0.0 0.0

1.9827778113894332e6 9.77067845163811e6 0.0
9.77067845163811e6 -3.563349641382148e7 0.0
0.0 0.0 0.0

1.513687540009323e6 1.961297279188262e7 0.0
1.961297279188262e7 4.421039206516866e6 0.0
0.0 0.0 0.0

-1.051462274432164e7 2.6104139600398764e7 0.0
2.6104139600398764e7 -1.3421551828250434e7 0.0
0.0 0.0 0.0

5.482184021237173e6 1.8824145144853618e7 0.0
1.8824145144853618e7 2.0357911821170945e7 0.0
0.0 0.0 0.0

3.0673976041404596e6 4.0346436453597485e6 0.0
4.0346436453597485e6 -1.6970243016216777e7 0.0
0.0 0.0 0.0

-2.0499302428362458e6 2.9278701884231925e7 0.0
2.9278701884231925e7 588259.8548904881 0.0
0.0 0.0 0.0

-4.0569817018545424e6 3.343978289869308e7 0.0
3.343978289869308e7 2.754891649884823e6 0.0
0.0 0.0 0.0

-6.789421397696344e6 1.6769758461105697e7 0.0
1.6769758461105697e7 3.574514323676183e7 0.0
0.0 0.0 0.0

2.189366302289713e6 2.107214565106491e7 0.0
2.107214565106491e7 1.0082083445480945e7 0.0
0.0 0.0 0.0

4.990442952792153e6 2.2938067489800464e7 0.0
2.2938067489800464e7 1.7094757277177006e7 0.0
0.0 0.0 0.0

-4.239642954660753e6 3.7701247292568125e7 0.0
3.7701247292568125e7 3.1187307775179585e6 0.0
0.0 0.0 0.0

-3.614760481077401e6 2.1989530331073828e7 0.0
2.1989530331073828e7 1.8080808186704297e7 0.0
0.0 0.0 0.0

-9.613029875659224e6 -637699.7096987485 0.0
-637699.7096987485 2.8640143538525876e7 0.0
0.0 0.0 0.0

-3.5657469508766397e6 3.3215580540696345e7 0.0
3.3215580540696345e7 4.222874057524839e6 0.0
0.0 0.0 0.0

-276350.8076120444 2.8413510536470838e7 0.0
2.8413510536470838e7 -2.63604373158404e6 0.0
0.0 0.0 0.0

-2.887610798960145e6 2.222232099475898e7 0.0
2.222232099475898e7 3.3449695672525875e6 0.0
0.0 0.0 0.0

1.2008430643118867e6 3.3832291947171666e7 0.0
3.3832291947171666e7 -2.312557120092924e6 0.0
0.0 0.0 0.0

1.1296724640576623e6 3.309428579437945e7 0.0
3.309428579437945e7 -1.8616696883502412e6 0.0
0.0 0.0 0.0

-2.353731149117538e6 2.1230545999341246e7 0.0
2.1230545999341246e7 -1.1313703962958828e7 0.0
0.0 0.0 0.0

4.1455373454237035e6 2.1229093991451643e7 0.0
2.1229093991451643e7 1.3818458328868143e7 0.0
0.0 0.0 0.0

1.6740959162360597e6 9.57867136274885e6 0.0
9.57867136274885e6 -3.3333234400216643e7 0.0
0.0 0.0 0.0

-1.4184385632871188e7 1.786409908292196e7 0.0
1.786409908292196e7 -5.2607590393669784e7 0.0
0.0 0.0 0.0

-5.0082960966126025e6 2.4091155105532438e7 0.0
2.4091155105532438e7 3.6909674731583567e6 0.0
0.0 0.0 0.0

-4.048062561265998e7 3.585163863322677e7 0.0
3.585163863322677e7 -1.54903257283725e7 0.0
0.0 0.0 0.0

-8.32205997902423e6 1.8772514799585212e7 0.0
1.8772514799585212e7 -2.9117584550284214e7 0.0
0.0 0.0 0.0

-4.535185502074036e7 3.542214862450049e7 0.0
3.542214862450049e7 -8.665014697331494e6 0.0
0.0 0.0 0.0

-3.6030720563925924e6 2.4603684502084732e7 0.0
2.4603684502084732e7 1.2611881854638742e7 0.0
0.0 0.0 0.0

-7.280968759277202e6 502331.60106122756 0.0
502331.60106122756 5.0254027165127024e7 0.0
0.0 0.0 0.0

4.133721321210003e6 3.1559946655624863e7 0.0
3.1559946655624863e7 -5.21642692993922e6 0.0
0.0 0.0 0.0

-1.8246178607430894e7 2.8262159878839653e7 0.0
2.8262159878839653e7 -1.2352930626146045e7 0.0
0.0 0.0 0.0

455719.2897663545 2.178788597738171e7 0.0
2.178788597738171e7 -1.7064655429551605e7 0.0
0.0 0.0 0.0

-1.2846626285320753e7 3.391508012561102e7 0.0
3.391508012561102e7 5.840292247920686e6 0.0
0.0 0.0 0.0

-1.0917981375021696e7 8.804781186283406e6 0.0
8.804781186283406e6 2.6864097715396408e7 0.0
0.0 0.0 0.0

877878.249049291 1.0771582364472682e7 0.0
1.0771582364472682e7 -4.205752720467812e7 0.0
0.0 0.0 0.0

-1.6627553063391559e7 3.3503236640391875e7 0.0
3.3503236640391875e7 5.490613615827532e6 0.0
0.0 0.0 0.0

1.719751896525938e6 2.036813242599756e7 0.0
2.036813242599756e7 6.629958006539626e6 0.0
0.0 0.0 0.0

-1.15354112463388e7 1.1024390549825355e7 0.0
1.1024390549825355e7 2.1126114997536536e7 0.0
0.0 0.0 0.0

-609609.4321965901 1.9906732304237906e7 0.0
1.9906732304237906e7 -1.248981816667718e7 0.0
0.0 0.0 0.0

3.9221613853094806e6 2.9904367773040053e7 0.0
2.9904367773040053e7 -6.045488987151375e6 0.0
0.0 0.0 0.0

-2.8197438113800235e7 1.4312679151607046e7 0.0
1.4312679151607046e7 7.57685944708596e6 0.0
0.0 0.0 0.0

-6.84264196877194e6 3.126069946733738e7 0.0
3.126069946733738e7 6.864340256910258e6 0.0
0.0 0.0 0.0

-396213.2342313025 2.0747286726812977e7 0.0
2.0747286726812977e7 -2.018524430395478e7 0.0
0.0 0.0 0.0

1.8348369531345628e6 9.860138663528532e6 0.0
9.860138663528532e6 -2.9433681619468797e7 0.0
0.0 0.0 0.0

-372636.8151170701 5.067884759690884e6 0.0
5.067884759690884e6 -3.917119526191014e6 0.0
0.0 0.0 0.0

916609.1771426303 1.8519236350283656e7 0.0
1.8519236350283656e7 -2.2223377472174283e7 0.0
0.0 0.0 0.0

-2.4837711765691746e7 2.8173596506160498e7 0.0
2.8173596506160498e7 -5.673656918347615e6 0.0
0.0 0.0 0.0

8.46066751027696e6 4.3406437201407395e7 0.0
4.3406437201407395e7 -3.0542930757558723e6 0.0
0.0 0.0 0.0

2.5390689236478116e6 1.977583132586704e7 0.0
1.977583132586704e7 3.687904959749148e7 0.0
0.0 0.0 0.0

3.361249156759956e6 2.144329088604442e7 0.0
2.144329088604442e7 1.2398225822463023e7 0.0
0.0 0.0 0.0

9.305998414562965e6 1.790868244465885e7 0.0
1.790868244465885e7 3.2680564326950155e7 0.0
0.0 0.0 0.0

-4.355514521357185e6 2.0958405286071535e7 0.0
2.0958405286071535e7 -1.451838210773329e7 0.0
0.0 0.0 0.0

-6.905200407237314e6 1.6336463475223018e7 0.0
1.6336463475223018e7 3.6792929415614806e7 0.0
0.0 0.0 0.0

-3.622154930311989e6 1.927317714475615e7 0.0
1.927317714475615e7 -1.5572850649791202e7 0.0
0.0 0.0 0.0

-2.8824517570863776e7 3.742062105059324e7 0.0
3.742062105059324e7 7.288685065660533e6 0.0
0.0 0.0 0.0

-8.850421521873208e6 5.225747704202233e6 0.0
5.225747704202233e6 4.067139524280434e7 0.0
0.0 0.0 0.0

-7.19522500335405e6 456804.826383597 0.0
456804.826383597 5.093274353363705e7 0.0
0.0 0.0 0.0

497040.31742692087 1.4180331194172636e7 0.0
1.4180331194172636e7 -1.7253174737917744e7 0.0
0.0 0.0 0.0

1.7284841608639294e6 4.0268465859835637e6 0.0
4.0268465859835637e6 -436258.1957647675 0.0
0.0 0.0 0.0

-283381.88791847974 1.0408809419683818e7 0.0
1.0408809419683818e7 -5.2944682525404625e7 0.0
0.0 0.0 0.0

-6.641446248139154e6 1.3697047090964021e7 0.0
1.3697047090964021e7 4.4162098452455774e7 0.0
0.0 0.0 0.0

-395014.69437207654 1.3161215634077383e7 0.0
1.3161215634077383e7 -4.0880592136716686e7 0.0
0.0 0.0 0.0

-9.013069533344474e6 1.2486796893626528e6 0.0
1.2486796893626528e6 3.359029000064426e7 0.0
0.0 0.0 0.0

-3.182501049022315e6 3.0329186608664297e7 0.0
3.0329186608664297e7 3.3808858178640297e6 0.0
0.0 0.0 0.0

4.863712182981289e6 3.048437862360425e7 0.0
3.048437862360425e7 -5.903699301616311e6 0.0
0.0 0.0 0.0

-4.016428826172013e6 3.534506505395574e7 0.0
3.534506505395574e7 2.0271689542787415e6 0.0
0.0 0.0 0.0

4.963607547943851e6 4.21103903524089e7 0.0
4.21103903524089e7 -2.35720523455612e6 0.0
0.0 0.0 0.0

2.1259118550220337e6 3.775916144552114e7 0.0
3.775916144552114e7 -2.624614921769839e6 0.0
0.0 0.0 0.0

-8.496097092610039e6 1.8126579090019912e6 0.0
1.8126579090019912e6 4.187392935978076e7 0.0
0.0 0.0 0.0

1.7347878057988025e6 4.983406362996708e6 0.0
4.983406362996708e6 -4.603582896354646e7 0.0
0.0 0.0 0.0

865954.9314020472 2.2708469019577153e7 0.0
2.2708469019577153e7 -1.2301803820079613e7 0.0
0.0 0.0 0.0

630195.7306685471 2.4324269361486755e7 0.0
2.4324269361486755e7 -9.792239410089148e6 0.0
0.0 0.0 0.0

1.8120931656583752e6 1.2800872873983473e7 0.0
1.2800872873983473e7 -2.4277724814285662e7 0.0
0.0 0.0 0.0

-7.358067137091835e6 1.6739485478817007e7 0.0
1.6739485478817007e7 -2.3870233233420644e7 0.0
0.0 0.0 0.0

1.7827857528597843e6 1.8580538293129366e7 0.0
1.8580538293129366e7 5.942619099556885e6 0.0
0.0 0.0 0.0

-3.459582017950727e6 2.650248373910149e7 0.0
2.650248373910149e7 9.429134930684878e6 0.0
0.0 0.0 0.0

-1.0163569868571337e7 3.211938897783531e7 0.0
3.211938897783531e7 6.091343882346294e6 0.0
0.0 0.0 0.0

-2.7232926700400556e6 1.9328225906510208e7 0.0
1.9328225906510208e7 -8.492990479688214e6 0.0
0.0 0.0 0.0

-1.4679952955033686e6 1.3991944374700157e7 0.0
1.3991944374700157e7 -2.0394951052239144e6 0.0
0.0 0.0 0.0

2.523941621570982e6 3.205100167237133e6 0.0
3.205100167237133e6 -3.6833174404824324e7 0.0
0.0 0.0 0.0

3.1346109513915074e6 2.240857632732364e7 0.0
2.240857632732364e7 -6.12868831535025e6 0.0
0.0 0.0 0.0

1.6344635313931443e6 1.0292007823756153e7 0.0
1.0292007823756153e7 -3.1643308602220345e7 0.0
0.0 0.0 0.0

-4.156187653602297e6 9.105614858383661e6 0.0
9.105614858383661e6 1.8554942825163326e6 0.0
0.0 0.0 0.0

-1.9346984700604314e6 1.2528897820180278e7 0.0
1.2528897820180278e7 -4.956973338494229e6 0.0
0.0 0.0 0.0

-4.0399463303546505e6 3.003146537386745e6 0.0
3.003146537386745e6 2.8385133761297585e6 0.0
0.0 0.0 0.0

-2.0027258327538616e6 2.754995293562942e7 0.0
2.754995293562942e7 3.9492793485219935e6 0.0
0.0 0.0 0.0

-363718.71416484285 1.917741492133937e7 0.0
1.917741492133937e7 -2.3851081949274987e7 0.0
0.0 0.0 0.0

-1.1658921036453582e6 1.0029439025875356e7 0.0
1.0029439025875356e7 -6.128416785051314e7 0.0
0.0 0.0 0.0

-8.779917578388384e6 2.426964395543292e7 0.0
2.426964395543292e7 -7.344919481400261e6 0.0
0.0 0.0 0.0

-3.006622260794896e7 3.235759112306538e7 0.0
3.235759112306538e7 -1.488458720814269e7 0.0
0.0 0.0 0.0

-2.1210586523632444e7 3.259074715254844e7 0.0
3.259074715254844e7 4.66502426177976e6 0.0
0.0 0.0 0.0

-1.2661406567191137e7 2.714295427432172e7 0.0
2.714295427432172e7 -1.2700629859037993e7 0.0
0.0 0.0 0.0

-5.64203054205237e6 1.7195269467723504e7 0.0
1.7195269467723504e7 -4.092325002614404e7 0.0
0.0 0.0 0.0

-9.124537614666492e6 1.806464250677745e7 0.0
1.806464250677745e7 -3.04151263687324e7 0.0
0.0 0.0 0.0

-2.34795669661291e7 2.979192905207342e7 0.0
2.979192905207342e7 -1.2890491008595787e7 0.0
0.0 0.0 0.0

-1.3253245399605768e7 1.875119608957602e7 0.0
1.875119608957602e7 -4.417748583781578e7 0.0
0.0 0.0 0.0

-5.422476912801409e6 2.0764324173786145e7 0.0
2.0764324173786145e7 2.407577271880491e7 0.0
0.0 0.0 0.0

-1.0665041400118375e7 1.618196254778159e6 0.0
1.618196254778159e6 2.2963446711107634e7 0.0
0.0 0.0 0.0

-251834.3294713772 2.8020080851636942e7 0.0
2.8020080851636942e7 -4.336870132874348e6 0.0
0.0 0.0 0.0

-3.7317645289437324e6 2.358571336822905e7 0.0
2.358571336822905e7 1.4922137251309622e7 0.0
0.0 0.0 0.0

-9.91119715344692e6 586967.9386643857 0.0
586967.9386643857 2.9325070167871058e7 0.0
0.0 0.0 0.0

495461.6500600185 1.5476842790931305e7 0.0
1.5476842790931305e7 -3.0400430531866144e7 0.0
0.0 0.0 0.0

-1.8273819965081904e6 2.8732099755307574e7 0.0
2.8732099755307574e7 -457590.7143087414 0.0
0.0 0.0 0.0

593730.7969486688 1.931542959375972e7 0.0
1.931542959375972e7 -1.7074728328207913e6 0.0
0.0 0.0 0.0

-4.486783442777185e6 2.9640932069696244e7 0.0
2.9640932069696244e7 6.491161165918939e6 0.0
0.0 0.0 0.0

-2.1574417056912508e7 3.0143831980798192e7 0.0
3.0143831980798192e7 -1.4142583912156995e7 0.0
0.0 0.0 0.0

-1.0346576350125413e7 1.8308395428245418e7 0.0
1.8308395428245418e7 -3.448858820079797e7 0.0
0.0 0.0 0.0

5.312398281364713e6 2.23792213895996e7 0.0
2.23792213895996e7 1.8376547300462637e7 0.0
0.0 0.0 0.0

-3.254429900443511e7 3.3082510390000544e7 0.0
3.3082510390000544e7 3.236798702599533e6 0.0
0.0 0.0 0.0

-1.0138093259416603e7 1.123158360023428e7 0.0
1.123158360023428e7 2.203469217601182e7 0.0
0.0 0.0 0.0

-6.066259456693191e6 1.1009639833202038e7 0.0
1.1009639833202038e7 5.466936596736133e7 0.0
0.0 0.0 0.0

-2.6608755777310543e6 2.1300915450681742e7 0.0
2.1300915450681742e7 -1.1277421668396603e7 0.0
0.0 0.0 0.0

4.2316151294179065e6 3.74728192907615e7 0.0
3.74728192907615e7 -3.625359037815865e6 0.0
0.0 0.0 0.0

9.207751799126972e6 1.897489575778111e7 0.0
1.897489575778111e7 3.0692506285347752e7 0.0
0.0 0.0 0.0

2.784856531748907e7 2.2163616930338934e7 0.0
2.2163616930338934e7 6.075161200888202e6 0.0
0.0 0.0 0.0

-1.6760667405685417e7 2.8474230302334115e7 0.0
2.8474230302334115e7 -1.342786437902417e7 0.0
0.0 0.0 0.0

6.219752651495194e6 3.461061053162321e7 0.0
3.461061053162321e7 -5.028045767293792e6 0.0
0.0 0.0 0.0

1.2555004149783606e7 1.870801639867838e7 0.0
1.870801639867838e7 4.7169463903165914e7 0.0
0.0 0.0 0.0

1.203697383140672e6 7.212698681550712e6 0.0
7.212698681550712e6 -5.928662236571792e7 0.0
0.0 0.0 0.0

-6.471839141061395e6 3.0237224169641983e7 0.0
3.0237224169641983e7 7.545413629398132e6 0.0
0.0 0.0 0.0

903743.3594214373 1.789635148789823e7 0.0
1.789635148789823e7 403033.89042299695 0.0
0.0 0.0 0.0

-1.4966748457503062e7 1.9404221348505005e7 0.0
1.9404221348505005e7 -4.9889163191985466e7 0.0
0.0 0.0 0.0

-7.074272669089212e6 2.4610560385720294e7 0.0
2.4610560385720294e7 -2.714747097954494e6 0.0
0.0 0.0 0.0

2.05161749648479e6 3.0451947976857917e6 0.0
3.0451947976857917e6 -5.090090224743205e7 0.0
0.0 0.0 0.0

-459086.78161292477 2.294650787599832e7 0.0
2.294650787599832e7 -1.0231394996605137e7 0.0
0.0 0.0 0.0

4.8715737043907745e6 2.5481018272349186e7 0.0
2.5481018272349186e7 -8.179099294899898e6 0.0
0.0 0.0 0.0

2.720121004494716e7 2.620561856925621e7 0.0
2.620561856925621e7 2.274754052751609e6 0.0
0.0 0.0 0.0

-6.632814568329185e6 1.929825761941344e7 0.0
1.929825761941344e7 2.475119304700455e7 0.0
0.0 0.0 0.0

-2.42602370686714e6 1.6575745737289304e7 0.0
1.6575745737289304e7 -8.996899754773246e6 0.0
0.0 0.0 0.0

-1.0524784902381508e7 2.555657570879112e7 0.0
2.555657570879112e7 -1.2774194743132371e7 0.0
0.0 0.0 0.0

-650531.2311230886 2.8253431918630652e7 0.0
2.8253431918630652e7 -3.822670479033304e6 0.0
0.0 0.0 0.0

-6.957319084054157e6 3.1495919780126503e6 0.0
3.1495919780126503e6 5.399330726944341e7 0.0
0.0 0.0 0.0

-2.2439135965844872e6 1.943545908977855e7 0.0
1.943545908977855e7 -1.0167339085949726e7 0.0
0.0 0.0 0.0

-1.1626253313472424e7 3.252893072376897e7 0.0
3.252893072376897e7 6.126277173073184e6 0.0
0.0 0.0 0.0

1.1332966537545444e6 9.14764812926228e6 0.0
9.14764812926228e6 -1.4227463779824795e7 0.0
0.0 0.0 0.0

1.183037252443711e7 2.2213883591328334e7 0.0
2.2213883591328334e7 1.3551522572719527e7 0.0
0.0 0.0 0.0

-4.976935122177668e7 3.508599764539592e7 0.0
3.508599764539592e7 3.0918232750381157e6 0.0
0.0 0.0 0.0

3.4795164774746103e6 1.7352185935623728e7 0.0
1.7352185935623728e7 1.132068766751521e7 0.0
0.0 0.0 0.0

2.9941523742964286e6 7.34055299380257e6 0.0
7.34055299380257e6 -1.895986395527433e7 0.0
0.0 0.0 0.0

5.270299772867091e6 2.1375464698123064e7 0.0
2.1375464698123064e7 2.1560244496538963e7 0.0
0.0 0.0 0.0

2.193905477385615e6 2.757799433545043e7 0.0
2.757799433545043e7 -7.695820678806357e6 0.0
0.0 0.0 0.0

2.4131469230149634e7 3.518368659965059e7 0.0
3.518368659965059e7 -6.01958676286478e6 0.0
0.0 0.0 0.0

-4.1832869830996036e6 1.8045492420580734e7 0.0
1.8045492420580734e7 -1.3944290258302154e7 0.0
0.0 0.0 0.0

-2.915200310035641e6 1.8395089617855646e7 0.0
1.8395089617855646e7 9.575092792864235e6 0.0
0.0 0.0 0.0

551902.4575860729 9.28576625928309e6 0.0
9.28576625928309e6 -1.1905098429661108e7 0.0
0.0 0.0 0.0

-5.720616089299187e6 1.972303819912929e7 0.0
1.972303819912929e7 -2.829541166201936e7 0.0
0.0 0.0 0.0

480498.4227035311 2.3303464461744197e7 0.0
2.3303464461744197e7 -1.0603545547176037e7 0.0
0.0 0.0 0.0

1.9998203398818713e7 2.6305879914383713e7 0.0
2.6305879914383713e7 1.515565298758067e7 0.0
0.0 0.0 0.0

-8.28877769116873e6 2.461892575450446e7 0.0
2.461892575450446e7 -1.330122793793825e7 0.0
0.0 0.0 0.0

4.236185098521628e6 2.5288544399400737e7 0.0
2.5288544399400737e7 -7.508418611702243e6 0.0
0.0 0.0 0.0

-8.107044747985416e6 4.468999115753331e6 0.0
4.468999115753331e6 1.1469260621718192e7 0.0
0.0 0.0 0.0

20015.893053402542 7.966171251503072e6 0.0
7.966171251503072e6 -2.199270024204051e6 0.0
0.0 0.0 0.0

1.2092544520316241e7 2.4772332290111054e7 0.0
2.4772332290111054e7 -1.2069282443319787e6 0.0
0.0 0.0 0.0

2.9608771466791593e6 1.8396504244271655e7 0.0
1.8396504244271655e7 9.52570069583613e6 0.0
0.0 0.0 0.0

6.3410954432285644e7 2.5779798384335086e7 0.0
2.5779798384335086e7 1.780691213010558e7 0.0
0.0 0.0 0.0

-9.57865019548662e6 713758.9996042949 0.0
713758.9996042949 3.2680409507481664e7 0.0
0.0 0.0 0.0

-2.059852374443155e7 2.8212485792239316e7 0.0
2.8212485792239316e7 -9.846382296390096e6 0.0
0.0 0.0 0.0

-1.6211287768390361e7 2.5847770776966207e7 0.0
2.5847770776966207e7 -7.658348378056783e6 0.0
0.0 0.0 0.0

-3.8197185549894005e7 2.9900548704170644e7 0.0
2.9900548704170644e7 -1.4655660237500988e7 0.0
0.0 0.0 0.0

4.216971604244925e7 6.277534985702652e6 0.0
6.277534985702652e6 -1.4012284696559962e6 0.0
0.0 0.0 0.0

-4.809535654532559e6 9.805025973627111e6 0.0
9.805025973627111e6 6.31502821209086e7 0.0
0.0 0.0 0.0

-1.7516424804217326e6 1.3291084584111026e7 0.0
1.3291084584111026e7 -321914.5044382615 0.0
0.0 0.0 0.0

-1.9687656916104633e7 2.7428960302001085e7 0.0
2.7428960302001085e7 -1.350407163715886e7 0.0
0.0 0.0 0.0

-4.575489020713537e6 2.9793891561120782e7 0.0
2.9793891561120782e7 7.667826799447576e6 0.0
0.0 0.0 0.0

-59860.408689244185 2.2836024312054407e7 0.0
2.2836024312054407e7 -1.2134354949921569e7 0.0
0.0 0.0 0.0

902407.240253659 1.5087367393676545e7 0.0
1.5087367393676545e7 -1.8476450019264355e7 0.0
0.0 0.0 0.0

-147937.49236599496 1.930266702361665e7 0.0
1.930266702361665e7 -6.77714901881519e6 0.0
0.0 0.0 0.0

-9.045015607071491e6 1.676304281497855e7 0.0
1.676304281497855e7 -3.226084017366984e7 0.0
0.0 0.0 0.0

-1.1545348636258515e7 1.9675310731831666e7 0.0
1.9675310731831666e7 -7.106522805366537e7 0.0
0.0 0.0 0.0

1.5633837274055548e7 5.874941924284793e6 0.0
5.874941924284793e6 -2.2840313121914407e6 0.0
0.0 0.0 0.0

1.1633856823267713e7 3.550156758151459e7 0.0
3.550156758151459e7 -5.619722708951115e6 0.0
0.0 0.0 0.0

-6.671500666377914e6 1.805214014020821e7 0.0
1.805214014020821e7 -2.2238336330972314e7 0.0
0.0 0.0 0.0

2.0987244098347086e7 1.8665168982968953e7 0.0
1.8665168982968953e7 4.88391221193972e6 0.0
0.0 0.0 0.0

-611298.6214119438 2.0485466047485556e7 0.0
2.0485466047485556e7 -7.83605019088248e6 0.0
0.0 0.0 0.0

-136473.7855782127 2.7508685032281905e7 0.0
2.7508685032281905e7 -4.0206025608587544e6 0.0
0.0 0.0 0.0

-5.223710054901034e6 1.9473883475368172e7 0.0
1.9473883475368172e7 -1.8558641374567043e7 0.0
0.0 0.0 0.0

-2.1397008089856703e7 2.146065302568373e7 0.0
2.146065302568373e7 1.5350740046550734e6 0.0
0.0 0.0 0.0

-9.02975197742846e6 -2.5844055629912294e6 0.0
-2.5844055629912294e6 1.835700525734826e7 0.0
0.0 0.0 0.0

-5.261915491922718e6 2.0276568658924997e7 0.0
2.0276568658924997e7 2.3713259031820696e7 0.0
0.0 0.0 0.0

-409087.4638119278 1.9217278814076424e7 0.0
1.9217278814076424e7 2.487816436880442e6 0.0
0.0 0.0 0.0

-7.145089083453793e6 1.973723645802931e7 0.0
1.973723645802931e7 -1.9909263922509972e7 0.0
0.0 0.0 0.0

-534682.6640407392 2.0483620883639466e7 0.0
2.0483620883639466e7 -8.382655590664674e6 0.0
0.0 0.0 0.0

-2.767064416736493e6 1.4575349136500003e7 0.0
1.4575349136500003e7 -2.984065732399333e6 0.0
0.0 0.0 0.0

3.1634035728288297e7 2.5744417199007332e7 0.0
2.5744417199007332e7 1.3575275105602555e6 0.0
0.0 0.0 0.0

-1.1860563696855774e7 3.589185057375589e7 0.0
3.589185057375589e7 6.083839767458865e6 0.0
0.0 0.0 0.0

7.991410034435799e6 2.6366241171943616e7 0.0
2.6366241171943616e7 -5.537845493739286e6 0.0
0.0 0.0 0.0

-5.733163192437614e6 2.3289355379624337e7 0.0
2.3289355379624337e7 -4.418219088827677e6 0.0
0.0 0.0 0.0

-2.8449650616690004e6 3.5781261013653085e7 0.0
3.5781261013653085e7 2.710278226781019e6 0.0
0.0 0.0 0.0

-4.927760480617181e6 2.1671646998494394e7 0.0
2.1671646998494394e7 2.0378379308745243e7 0.0
0.0 0.0 0.0

1.1269491681141723e6 8.515124623256763e6 0.0
8.515124623256763e6 -9.035448116603764e6 0.0
0.0 0.0 0.0

-2.162845801338744e6 8.224705765527268e6 0.0
8.224705765527268e6 3.262516939376934e6 0.0
0.0 0.0 0.0

-1.2596122054627083e7 1.7398127267233633e7 0.0
1.7398127267233633e7 -4.6832030173394024e7 0.0
0.0 0.0 0.0

-3.4664238221782073e6 2.3303676573704336e7 0.0
2.3303676573704336e7 6.571155073304332e6 0.0
0.0 0.0 0.0

1.4378825383017915e6 5.522807802715536e6 0.0
5.522807802715536e6 -9.147499118084647e6 0.0
0.0 0.0 0.0

-6.035917979234038e7 3.612298248367542e7 0.0
3.612298248367542e7 -9.589804512531094e6 0.0
0.0 0.0 0.0

-1.4733736564361006e6 9.371816463627648e6 0.0
9.371816463627648e6 -7.1127531596996e7 0.0
0.0 0.0 0.0

-1.7926119431951805e6 1.1092868026271526e7 0.0
1.1092868026271526e7 -4.963397294258998e6 0.0
0.0 0.0 0.0

-1.1471933862273743e7 1.818588719741123e7 0.0
1.818588719741123e7 -4.988556180951102e7 0.0
0.0 0.0 0.0

2.0362498394966945e6 4.625851404969451e6 0.0
4.625851404969451e6 -4.496271275056374e7 0.0
0.0 0.0 0.0

2.954245912321507e7 3.984525398120441e7 0.0
3.984525398120441e7 -8.548793849929983e6 0.0
0.0 0.0 0.0

2.329038374906251e6 1.0619334460594809e7 0.0
1.0619334460594809e7 -2.9596548478065707e7 0.0
0.0 0.0 0.0

-4.38775917655424e6 1.444588094101026e7 0.0
1.444588094101026e7 5.076224952506137e7 0.0
0.0 0.0 0.0

-6.373222478474399e6 1.948841770210414e7 0.0
1.948841770210414e7 2.519837631398148e7 0.0
0.0 0.0 0.0

-3.8824335886744363e6 2.546168479681797e7 0.0
2.546168479681797e7 1.1893371680774525e7 0.0
0.0 0.0 0.0

-9.660394539945342e6 2.3558796114333354e7 0.0
2.3558796114333354e7 -1.135981642994362e7 0.0
0.0 0.0 0.0

-5.41380372171657e6 2.020496034302001e7 0.0
2.020496034302001e7 2.5904311465003833e7 0.0
0.0 0.0 0.0

-2.4576363618025663e6 2.757185233500907e7 0.0
2.757185233500907e7 2.2478018385383114e6 0.0
0.0 0.0 0.0

1.3401053624264847e7 2.0220583500733588e7 0.0
2.0220583500733588e7 4.4670180428885125e7 0.0
0.0 0.0 0.0

-1.0539293372182954e7 832246.74112008 0.0
832246.74112008 1.9907989602206044e7 0.0
0.0 0.0 0.0

1.1665005357774356e6 2.2332684410336938e7 0.0
2.2332684410336938e7 -1.5214802120624015e7 0.0
0.0 0.0 0.0

-4.443734028439026e6 1.341838486162876e7 0.0
1.341838486162876e7 -7.98361428426324e7 0.0
0.0 0.0 0.0

-1.0409243368893566e7 3.794418880608984e7 0.0
3.794418880608984e7 5.933876532899674e6 0.0
0.0 0.0 0.0

4.588969667039961e6 2.946315377470171e7 0.0
2.946315377470171e7 -6.867431291134004e6 0.0
0.0 0.0 0.0

3.885807157075126e6 2.2987486423275743e7 0.0
2.2987486423275743e7 3.251970449702806e6 0.0
0.0 0.0 0.0

-6.271983863691583e6 1.9419483268628325e7 0.0
1.9419483268628325e7 2.6761273409064155e7 0.0
0.0 0.0 0.0

-2.2882893555153117e7 3.8127506355407365e7 0.0
3.8127506355407365e7 6.813624982625156e6 0.0
0.0 0.0 0.0

2.0776159564082571e6 2.5162048157353684e7 0.0
2.5162048157353684e7 -1.0761472286096126e7 0.0
0.0 0.0 0.0

-5.823614926752828e6 1.789325427864853e7 0.0
1.789325427864853e7 -3.6693966828640014e7 0.0
0.0 0.0 0.0

-1.7735113971697256e7 4.0883946086510256e7 0.0
4.0883946086510256e7 5.890513955300892e6 0.0
0.0 0.0 0.0

4.095010240644672e7 3.682165761552725e7 0.0
3.682165761552725e7 -9.090502450947806e6 0.0
0.0 0.0 0.0

3.053086592886058e6 2.1870892739075843e7 0.0
2.1870892739075843e7 4.564702759109272e6 0.0
0.0 0.0 0.0

1.665639066093959e6 1.265780839315175e7 0.0
1.265780839315175e7 -2.6238651120192707e7 0.0
0.0 0.0 0.0

-1.4120177213745896e7 2.0245230662978932e7 0.0
2.0245230662978932e7 -5.443752823605875e7 0.0
0.0 0.0 0.0

1.9399011761447538e7 3.538856103787079e7 0.0
3.538856103787079e7 -6.009224217151571e6 0.0
0.0 0.0 0.0

-718016.45304316 2.0795471861740105e7 0.0
2.0795471861740105e7 -1.5839220601303827e7 0.0
0.0 0.0 0.0

1.1660480675216669e6 3.2365002815649968e7 0.0
3.2365002815649968e7 -3.497257445090624e6 0.0
0.0 0.0 0.0

-3.1374495830520242e6 1.240183709415225e7 0.0
1.240183709415225e7 -6.689390248395077e7 0.0
0.0 0.0 0.0

1.6181968752980186e6 2.0850766742091168e7 0.0
2.0850766742091168e7 9.258226381436264e6 0.0
0.0 0.0 0.0

-2.717272116911e7 3.4504933894111454e7 0.0
3.4504933894111454e7 5.912270926647803e6 0.0
0.0 0.0 0.0

-1.8236321260632356e6 2.809126770741832e7 0.0
2.809126770741832e7 2.9955121138870004e6 0.0
0.0 0.0 0.0

2.8455833236955352e7 2.304543227876418e7 0.0
2.304543227876418e7 1.1369215031338554e7 0.0
0.0 0.0 0.0

-3.8101869016338605e6 3.674809584545034e7 0.0
3.674809584545034e7 1.4269094161378234e6 0.0
0.0 0.0 0.0

4.0535402261743597e6 2.063744838878973e7 0.0
2.063744838878973e7 1.4998936031305091e7 0.0
0.0 0.0 0.0

-2.2636054566999637e6 3.0424605762264384e6 0.0
3.0424605762264384e6 419365.1148438223 0.0
0.0 0.0 0.0

1.2135241594080172e7 3.7764190859890215e7 0.0
3.7764190859890215e7 -4.802303583441215e6 0.0
0.0 0.0 0.0

-303566.3720885813 2.0025718204032507e7 0.0
2.0025718204032507e7 -2.2118885081520624e7 0.0
0.0 0.0 0.0

1.7819682601396367e6 3.762512642751469e6 0.0
3.762512642751469e6 -5.631167294874568e7 0.0
0.0 0.0 0.0

-463754.5485966783 1.21530790487816e7 0.0
1.21530790487816e7 -7.658917032008724e6 0.0
0.0 0.0 0.0

1.604654592684303e6 6.940796765186831e6 0.0
6.940796765186831e6 -9.397020696941163e6 0.0
0.0 0.0 0.0

1.0398671786146061e6 1.6078747930671487e7 0.0
1.6078747930671487e7 -1.8293992053454597e7 0.0
0.0 0.0 0.0

-2.3771732388958883e7 3.244348536817199e7 0.0
3.244348536817199e7 4.868284694761456e6 0.0
0.0 0.0 0.0

-3.336645769314741e6 2.3416399715329405e7 0.0
2.3416399715329405e7 3.614129072248362e6 0.0
0.0 0.0 0.0

6.558808291871505e6 2.683487061337258e7 0.0
2.683487061337258e7 -6.255404431751665e6 0.0
0.0 0.0 0.0

2.287998486779405e6 6.121431503682769e6 0.0
6.121431503682769e6 -4.400190065094095e7 0.0
0.0 0.0 0.0

126982.38650425617 2.277032095158003e7 0.0
2.277032095158003e7 -1.0250676443578497e7 0.0
0.0 0.0 0.0

-30060.12609919533 1.9013370531219903e7 0.0
1.9013370531219903e7 -1.5752755806611856e7 0.0
0.0 0.0 0.0

-1.559347317132749e7 2.6344708080377776e7 0.0
2.6344708080377776e7 -1.2823412153559294e7 0.0
0.0 0.0 0.0

1.72568662458602e7 3.2538784495038997e7 0.0
3.2538784495038997e7 -5.827339393897447e6 0.0
0.0 0.0 0.0

-4.891698166770915e6 2.692447501435426e7 0.0
2.692447501435426e7 1.1083113389361609e7 0.0
0.0 0.0 0.0

3.673460568781278e6 2.1671557102954786e7 0.0
2.1671557102954786e7 1.457087169604595e7 0.0
0.0 0.0 0.0

5.555286108355403e6 1.911358818019801e7 0.0
1.911358818019801e7 8.233329423541835e7 0.0
0.0 0.0 0.0

-4.528564375870765e6 4.087525552264315e7 0.0
4.087525552264315e7 3.675609532247192e6 0.0
0.0 0.0 0.0

1.5154671712144008e6 2.3102286627925724e7 0.0
2.3102286627925724e7 -9.886863774125794e6 0.0
0.0 0.0 0.0

1.761416285411587e6 1.1392621151669122e7 0.0
1.1392621151669122e7 -3.450869359209795e7 0.0
0.0 0.0 0.0

1.7740985408940502e6 1.044617709350395e7 0.0
1.044617709350395e7 -3.645851649746724e7 0.0
0.0 0.0 0.0

3.3165570849777013e6 3.0601046140126735e6 0.0
3.0601046140126735e6 -3.1224265542414892e7 0.0
0.0 0.0 0.0

-3.1052082595017287e6 2.6142378732306298e7 0.0
2.6142378732306298e7 1.1147557606262965e7 0.0
0.0 0.0 0.0

2.9511601258909684e6 3.331430711593508e6 0.0
3.331430711593508e6 -3.10614722054902e7 0.0
0.0 0.0 0.0

-9.254710476916995e6 3.8470513013036815e6 0.0
3.8470513013036815e6 3.936492873871364e7 0.0
0.0 0.0 0.0

-3.2577512301013917e6 2.359131641476954e7 0.0
2.359131641476954e7 1.7581469307386514e7 0.0
0.0 0.0 0.0

-2.432446828939686e6 1.1766687520332191e7 0.0
1.1766687520332191e7 -3.2612168122392218e6 0.0
0.0 0.0 0.0

3.5390081697302507e6 3.013246432639059e7 0.0
3.013246432639059e7 -6.445012452725591e6 0.0
0.0 0.0 0.0

7.8394714210993545e6 3.403169741906367e7 0.0
3.403169741906367e7 -4.495604796081336e6 0.0
0.0 0.0 0.0

1.811490990035202e6 1.762308708964005e7 0.0
1.762308708964005e7 4.1455002315937574e6 0.0
0.0 0.0 0.0

-2.2202294876993448e6 1.2565788408610336e7 0.0
1.2565788408610336e7 -5.7412234411846355e7 0.0
0.0 0.0 0.0

2.352189155309638e6 4.315808552663785e6 0.0
4.315808552663785e6 -4.850270672859324e7 0.0
0.0 0.0 0.0

-5.570906711382476e7 4.0660773626226164e7 0.0
4.0660773626226164e7 -1.4430684666154843e7 0.0
0.0 0.0 0.0

2.809995697748232e7 2.7127026381022085e7 0.0
2.7127026381022085e7 1.3479423329827864e7 0.0
0.0 0.0 0.0

6.3949552351217205e6 3.3481617282995954e7 0.0
3.3481617282995954e7 -4.4841545212059505e6 0.0
0.0 0.0 0.0

577612.0227010427 2.0790407529473007e7 0.0
2.0790407529473007e7 2.1736141790271547e7 0.0
0.0 0.0 0.0

1.4664649934625945e6 1.937575174941595e7 0.0
1.937575174941595e7 4.329189183740584e6 0.0
0.0 0.0 0.0

-8.2688039284564e6 8.823493318724228e6 0.0
8.823493318724228e6 4.6018117439399295e7 0.0
0.0 0.0 0.0

-1.2730746086444872e7 3.390511448335596e7 0.0
3.390511448335596e7 5.808420693913187e6 0.0
0.0 0.0 0.0

-1.2752776436721983e6 1.5955104131398138e7 0.0
1.5955104131398138e7 -9.715089869975949e6 0.0
0.0 0.0 0.0

-1.0233400070366206e7 2.7564933240498053e6 0.0
2.7564933240498053e6 3.1000352358240694e7 0.0
0.0 0.0 0.0

983223.7972116917 1.3554058875260992e7 0.0
1.3554058875260992e7 9.774077997572693e7 0.0
0.0 0.0 0.0

1.2258025525908312e6 2.3051836841990095e7 0.0
2.3051836841990095e7 -1.39928506301004e7 0.0
0.0 0.0 0.0

2.4523148169671865e6 4.477356069411195e6 0.0
4.477356069411195e6 -9.991621847822152e6 0.0
0.0 0.0 0.0

-5.004168175797161e6 9.604216848316675e6 0.0
9.604216848316675e6 6.558089768817821e7 0.0
0.0 0.0 0.0

2.7715611080502085e6 3.316537911036162e6 0.0
3.316537911036162e6 -3.96590493347679e7 0.0
0.0 0.0 0.0

-7.309622192129472e6 2.340735999022434e7 0.0
2.340735999022434e7 -1.42472202597612e7 0.0
0.0 0.0 0.0

-2.5396529344905324e7 2.8568703298285577e7 0.0
2.8568703298285577e7 -1.4352240502143517e7 0.0
0.0 0.0 0.0

201331.44565112237 2.0774042438037086e7 0.0
2.0774042438037086e7 -1.8365546087969445e7 0.0
0.0 0.0 0.0

-2.557599802159884e6 1.2611957366412153e7 0.0
1.2611957366412153e7 1.4957028985893955e6 0.0
0.0 0.0 0.0

-6.076308787543056e6 2.4365051110813115e7 0.0
2.4365051110813115e7 857504.0600738712 0.0
0.0 0.0 0.0

2.160828642695723e7 3.150905128427498e7 0.0
3.150905128427498e7 -5.330161395336367e6 0.0
0.0 0.0 0.0

-8.909709833230443e6 -2.617486942372806e6 0.0
-2.617486942372806e6 2.043555788108295e7 0.0
0.0 0.0 0.0

1.3214809973979065e7 2.27130969302392e7 0.0
2.27130969302392e7 8.120596602694422e6 0.0
0.0 0.0 0.0

2.0975152820193212e7 4.1289066433421575e7 0.0
4.1289066433421575e7 -8.180433676197638e6 0.0
0.0 0.0 0.0

3.0811422267676964e6 3.3440587291451544e6 0.0
3.3440587291451544e6 -3.504082272442424e7 0.0
0.0 0.0 0.0

-3.1550885548101505e6 2.044052141240061e7 0.0
2.044052141240061e7 4.98607870365678e6 0.0
0.0 0.0 0.0

1.2699073063114904e7 2.1537114556273013e7 0.0
2.1537114556273013e7 4.993442568329599e7 0.0
0.0 0.0 0.0

6.904648552171111e7 7.936976851697275e6 0.0
7.936976851697275e6 -475614.241041936 0.0
0.0 0.0 0.0

-3.27169969288645e7 3.0952159744035397e7 0.0
3.0952159744035397e7 -1.3900294628112135e7 0.0
0.0 0.0 0.0

-2.619726641037541e6 2.708119338127178e7 0.0
2.708119338127178e7 3.3042511523687243e6 0.0
0.0 0.0 0.0

-1.671398943961205e6 1.2833352514332866e7 0.0
1.2833352514332866e7 -5.003100127179691e7 0.0
0.0 0.0 0.0

-1.773085738247726e7 3.183078041627199e7 0.0
3.183078041627199e7 5.252971460210152e6 0.0
0.0 0.0 0.0

1.1454018834391173e7 2.314122571141089e7 0.0
2.314122571141089e7 1.0046159470156748e7 0.0
0.0 0.0 0.0

-2.4782560128352307e6 9.136390667846229e6 0.0
9.136390667846229e6 7.891235856332137e7 0.0
0.0 0.0 0.0

-4.697596307886321e6 2.525369361268297e7 0.0
2.525369361268297e7 1.2039938031689897e7 0.0
0.0 0.0 0.0

4.34783116385228e6 1.9320894000713922e7 0.0
1.9320894000713922e7 1.9883600957981665e7 0.0
0.0 0.0 0.0

-647696.1851199758 2.0956355981413543e7 0.0
2.0956355981413543e7 -1.1757989496137884e7 0.0
0.0 0.0 0.0

9.503467739545556e6 2.4523649840139084e7 0.0
2.4523649840139084e7 -900501.602363226 0.0
0.0 0.0 0.0

2.9427871033046898e6 2.380447937566403e7 0.0
2.380447937566403e7 -6.747486897714606e6 0.0
0.0 0.0 0.0

-2.840109053450198e6 1.5914683717114327e7 0.0
1.5914683717114327e7 -2.747994507143382e6 0.0
0.0 0.0 0.0

2.734575346337638e6 2.036973946959438e7 0.0
2.036973946959438e7 2.5557074303143565e7 0.0
0.0 0.0 0.0

1.2249611166900138e6 2.0485926050622243e7 0.0
2.0485926050622243e7 3.0534798091645436e6 0.0
0.0 0.0 0.0

229359.3134541791 1.9975182989718396e7 0.0
1.9975182989718396e7 -4.098765264947929e6 0.0
0.0 0.0 0.0

-5.976313896161855e6 1.8225547359482292e7 0.0
1.8225547359482292e7 -3.2170229368704956e7 0.0
0.0 0.0 0.0

-2.779919992188573e6 3.013997294386497e7 0.0
3.013997294386497e7 4.929866668353264e6 0.0
0.0 0.0 0.0

-2.239343942132855e7 2.7063424873570666e7 0.0
2.7063424873570666e7 -1.3057899578858472e7 0.0
0.0 0.0 0.0

-1.0658240184916401e7 3.507897491224397e7 0.0
3.507897491224397e7 5.277540483867516e6 0.0
0.0 0.0 0.0

-394263.7133077262 2.1936612290678106e7 0.0
2.1936612290678106e7 1.536545641972179e7 0.0
0.0 0.0 0.0

2.6809319140399005e6 6.622576869988141e6 0.0
6.622576869988141e6 -3.5184369511874124e7 0.0
0.0 0.0 0.0

1.061705608935765e6 2.2379395786809664e7 0.0
2.2379395786809664e7 -1.5128361671724793e7 0.0
0.0 0.0 0.0

1.810395877297647e7 3.2199035138431743e7 0.0
3.2199035138431743e7 -5.289165030460242e6 0.0
0.0 0.0 0.0

-9.495244190972129e6 2.865853912041903e6 0.0
2.865853912041903e6 3.622458603991267e7 0.0
0.0 0.0 0.0

-4.570303687526857e6 2.4524195383271385e7 0.0
2.4524195383271385e7 8.631784326662667e6 0.0
0.0 0.0 0.0

2.109595188056194e6 2.2787231975490373e7 0.0
2.2787231975490373e7 2.6914651960617327e6 0.0
0.0 0.0 0.0

1.037645437179212e7 2.5688715475914564e7 0.0
2.5688715475914564e7 -2.8717361480146e6 0.0
0.0 0.0 0.0

-9.950049179228555e6 9.178360486700496e6 0.0
9.178360486700496e6 3.384688824650496e7 0.0
0.0 0.0 0.0

6.872021780028798e6 1.8679692124807198e7 0.0
1.8679692124807198e7 2.733746099220105e7 0.0
0.0 0.0 0.0

-9.099684459176673e6 2.2928390375778362e7 0.0
2.2928390375778362e7 -1.3915000977993233e7 0.0
0.0 0.0 0.0

-756017.0380892307 1.803774707144263e7 0.0
1.803774707144263e7 -2.8726982080164403e7 0.0
0.0 0.0 0.0

1.0792427456523173e7 4.022669511549165e7 0.0
4.022669511549165e7 -3.83688901016373e6 0.0
0.0 0.0 0.0

-1.0317322580264442e7 3.6496581166557096e7 0.0
3.6496581166557096e7 4.663599975714743e6 0.0
0.0 0.0 0.0

-1.0391954210611176e7 1.0434380127036555e7 0.0
1.0434380127036555e7 2.926696283993281e7 0.0
0.0 0.0 0.0

-9.873234926336726e6 2.502951446365303e7 0.0
2.502951446365303e7 -7.573286492976664e6 0.0
0.0 0.0 0.0

-7.730055284309119e6 3.705648110216537e7 0.0
3.705648110216537e7 3.620252395462998e6 0.0
0.0 0.0 0.0

-8.463285579198634e6 3.582423456750778e7 0.0
3.582423456750778e7 4.392581800970696e6 0.0
0.0 0.0 0.0

4.334969506270415e6 1.8372740346103538e7 0.0
1.8372740346103538e7 1.6565637903239382e7 0.0
0.0 0.0 0.0

1.776431365298476e6 1.4310104972011868e7 0.0
1.4310104972011868e7 -2.369066367131242e7 0.0
0.0 0.0 0.0

6.306002184869804e7 3.778735461670605e7 0.0
3.778735461670605e7 2.766262955132832e7 0.0
0.0 0.0 0.0

-4.131135326609811e7 3.9055636350058164e6 0.0
3.9055636350058164e6 6.542082770174341e6 0.0
0.0 0.0 0.0

-1.9736673938405618e7 3.0934679847949926e7 0.0
3.0934679847949926e7 3.7991690269424077e6 0.0
0.0 0.0 0.0

2.2717066237095557e6 3.0576326396589614e6 0.0
3.0576326396589614e6 -3.943699205484836e7 0.0
0.0 0.0 0.0

30432.67253036704 2.2075778534514904e7 0.0
2.2075778534514904e7 -1.3468106119343573e7 0.0
0.0 0.0 0.0

-1.4649114221530579e7 3.230055824745954e7 0.0
3.230055824745954e7 5.861282401240233e6 0.0
0.0 0.0 0.0

-9.771221476813434e6 6.473027562750788e6 0.0
6.473027562750788e6 3.8015618935143694e7 0.0
0.0 0.0 0.0

1.3600277606636435e6 1.1056383362488328e7 0.0
1.1056383362488328e7 -3.222988355847457e7 0.0
0.0 0.0 0.0

-7.3410288736113915e6 1.7670544308871824e7 0.0
1.7670544308871824e7 -2.6277881505834993e7 0.0
0.0 0.0 0.0

1.166963475895291e7 2.4268263885526378e7 0.0
2.4268263885526378e7 1.0388857019952644e7 0.0
0.0 0.0 0.0

-4.329182805691536e7 3.3513680530518126e7 0.0
3.3513680530518126e7 -1.249500100678088e7 0.0
0.0 0.0 0.0

-3.9576321351229525e6 1.40560576338256e7 0.0
1.40560576338256e7 2.195531174215951e6 0.0
0.0 0.0 0.0

-1.1060652241662065e7 3.112416688002158e7 0.0
3.112416688002158e7 6.244705801637285e6 0.0
0.0 0.0 0.0

-2.169738878052446e6 3.1374142213602684e7 0.0
3.1374142213602684e7 3.2061829041343634e6 0.0
0.0 0.0 0.0

-7.327925262390855e6 7.118192207768145e6 0.0
7.118192207768145e6 2.0390045250132e7 0.0
0.0 0.0 0.0

-9.204777594261862e6 -7609.022367845057 0.0
-7609.022367845057 2.152938418817195e7 0.0
0.0 0.0 0.0

1.0069362978661675e6 1.4716145882532103e7 0.0
1.4716145882532103e7 -2.4351033986564986e7 0.0
0.0 0.0 0.0

-9.34647778810546e6 5.1742838165069055e6 0.0
5.1742838165069055e6 3.767440741732058e7 0.0
0.0 0.0 0.0

453036.43281454034 1.850921874166696e7 0.0
1.850921874166696e7 -2.216764330399384e7 0.0
0.0 0.0 0.0

9.717125720505958e6 2.3108001200854134e7 0.0
2.3108001200854134e7 615345.819070308 0.0
0.0 0.0 0.0

644811.9912259011 9.929023945850512e6 0.0
9.929023945850512e6 -1.288330287790243e7 0.0
0.0 0.0 0.0

-2.095781897580301e7 3.092507575992213e7 0.0
3.092507575992213e7 3.7825642142737973e6 0.0
0.0 0.0 0.0

-1.3806059290020443e7 2.6519538431203023e7 0.0
2.6519538431203023e7 -1.3026598972195538e7 0.0
0.0 0.0 0.0

614294.065250315 1.920195876569951e7 0.0
1.920195876569951e7 2.0476479875031314e6 0.0
0.0 0.0 0.0

-473789.05887376546 1.919160467505869e7 0.0
1.919160467505869e7 -1.5792977394590722e6 0.0
0.0 0.0 0.0

1.6402590761860544e6 1.5087388822329467e7 0.0
1.5087388822329467e7 -2.234559263917078e7 0.0
0.0 0.0 0.0

-6.587306325378133e6 1.8516673156761814e7 0.0
1.8516673156761814e7 -2.5701957189459722e7 0.0
0.0 0.0 0.0

-1.0381747788073806e7 2.0731629157168465e6 0.0
2.0731629157168465e6 2.7713312393853486e7 0.0
0.0 0.0 0.0

-3.533636238910018e6 1.5292883337042818e7 0.0
1.5292883337042818e7 8.727443944016375e6 0.0
0.0 0.0 0.0

2.116904282622057e6 2.4804511670019653e7 0.0
2.4804511670019653e7 -1.0951020765115976e7 0.0
0.0 0.0 0.0

2.2889509786402686e6 7.572473182856106e6 0.0
7.572473182856106e6 -2.4567414182271305e7 0.0
0.0 0.0 0.0

-4.531502428087377e7 3.004272649181708e7 0.0
3.004272649181708e7 -6.43103632858018e6 0.0
0.0 0.0 0.0

7.499501033277764e6 2.425494645626105e7 0.0
2.425494645626105e7 -1.2533863672224209e6 0.0
0.0 0.0 0.0

2.7961745321272146e7 2.2812629546713028e7 0.0
2.2812629546713028e7 5.934956924771592e6 0.0
0.0 0.0 0.0

-1.1315494943676379e7 4.0886116477050886e7 0.0
4.0886116477050886e7 5.967303372442751e6 0.0
0.0 0.0 0.0

-1.0554840418964025e7 5.284505822337172e6 0.0
5.284505822337172e6 2.429508108057203e7 0.0
0.0 0.0 0.0

-245047.48474842217 1.9723525625255097e7 0.0
1.9723525625255097e7 -1.4407844034068972e7 0.0
0.0 0.0 0.0

-1.1848319174149374e7 2.4832864212556757e7 0.0
2.4832864212556757e7 -6.97018992658584e6 0.0
0.0 0.0 0.0

-2.2674717098536603e7 3.484090626865727e7 0.0
3.484090626865727e7 5.572446517019479e6 0.0
0.0 0.0 0.0

-8.65623762649793e6 1.9179157538656402e7 0.0
1.9179157538656402e7 -4.086492145490648e7 0.0
0.0 0.0 0.0

2.401390640237238e6 2.0175740934641045e7 0.0
2.0175740934641045e7 1.0545991337200569e7 0.0
0.0 0.0 0.0

-5.77317146780202e6 1.8300190857017856e7 0.0
1.8300190857017856e7 -2.801564282891251e7 0.0
0.0 0.0 0.0

-1.707723241246415e7 3.836956684113389e7 0.0
3.836956684113389e7 6.4425692842014525e6 0.0
0.0 0.0 0.0

1.922661076213621e6 2.7801826085500192e7 0.0
2.7801826085500192e7 -8.028442903171398e6 0.0
0.0 0.0 0.0

-8.487339055190997e6 2.538639470929053e7 0.0
2.538639470929053e7 -912903.323928464 0.0
0.0 0.0 0.0

1.3886460493588652e6 1.2233841742096813e7 0.0
1.2233841742096813e7 -3.509151257251384e7 0.0
0.0 0.0 0.0

-8.542198209542459e6 8.891312026314162e6 0.0
8.891312026314162e6 4.317760441115957e7 0.0
0.0 0.0 0.0

-1.4019882785820477e6 1.9822940145387955e7 0.0
1.9822940145387955e7 -9.446688313245218e6 0.0
0.0 0.0 0.0

1.0439317078687415e7 2.4144229928352546e7 0.0
2.4144229928352546e7 -1.3748178948548823e6 0.0
0.0 0.0 0.0

-7.236283049595823e6 1.939524027377129e7 0.0
1.939524027377129e7 -3.400086532539503e7 0.0
0.0 0.0 0.0

-1.2160038042387268e7 3.0856008657914974e7 0.0
3.0856008657914974e7 5.809400352860878e6 0.0
0.0 0.0 0.0

3.2333274767968304e7 3.892594639288869e7 0.0
3.892594639288869e7 -7.1293218008091375e6 0.0
0.0 0.0 0.0

-8.234901969615936e6 2.4738561627932437e7 0.0
2.4738561627932437e7 -5.214073853912171e6 0.0
0.0 0.0 0.0

-1.2762573187424751e7 3.231055583368664e7 0.0
3.231055583368664e7 5.744504845358614e6 0.0
0.0 0.0 0.0

-5.749135810913642e6 2.0646088346229203e7 0.0
2.0646088346229203e7 2.1924315412122887e7 0.0
0.0 0.0 0.0

4.267472469615327e6 2.301280996342229e7 0.0
2.301280996342229e7 -5.409284002810764e6 0.0
0.0 0.0 0.0

-3.456341129291887e6 3.018774713849613e7 0.0
3.018774713849613e7 5.7593239116435135e6 0.0
0.0 0.0 0.0

-7.190299386082941e6 1.7925246006650504e7 0.0
1.7925246006650504e7 -3.913626134679183e7 0.0
0.0 0.0 0.0

2.3712416659525167e6 5.039136533554846e6 0.0
5.039136533554846e6 -3.3538269421826035e7 0.0
0.0 0.0 0.0

-7.126212629514768e6 1.9485145895102914e7 0.0
1.9485145895102914e7 -2.9808116293397114e7 0.0
0.0 0.0 0.0

-5.078298079508759e6 3.358924631941385e7 0.0
3.358924631941385e7 3.654339432820646e6 0.0
0.0 0.0 0.0

-3.593298300977112e6 2.057954897553891e7 0.0
2.057954897553891e7 -1.1977661022603832e7 0.0
0.0 0.0 0.0

3.324905441031755e6 2.0673491732237406e7 0.0
2.0673491732237406e7 1.1083018676006204e7 0.0
0.0 0.0 0.0

-6.648666150663793e6 1.7962968512044705e7 0.0
1.7962968512044705e7 3.2001081097968545e7 0.0
0.0 0.0 0.0

-1.6641205567323589e6 1.535198601704631e7 0.0
1.535198601704631e7 -1.8302801599238943e6 0.0
0.0 0.0 0.0

1.4157357453157121e7 1.9279055960759513e7 0.0
1.9279055960759513e7 5.390355212345346e7 0.0
0.0 0.0 0.0

-8.890624491597582e6 3.7103751968251155e6 0.0
3.7103751968251155e6 4.2718631179652095e7 0.0
0.0 0.0 0.0

1.7292354014022425e6 4.396647473515101e6 0.0
4.396647473515101e6 -4.800648092888125e7 0.0
0.0 0.0 0.0

-4.847818603871631e6 1.9509764729241904e7 0.0
1.9509764729241904e7 -3.048820808275968e7 0.0
0.0 0.0 0.0

-1.0944927591239769e7 3.250790680581326e7 0.0
3.250790680581326e7 5.864469641689214e6 0.0
0.0 0.0 0.0

3.3198032613266155e7 1.5133622584497083e7 0.0
1.5133622584497083e7 1.4290443308140095e6 0.0
0.0 0.0 0.0

-1.0651974946611775e7 7.624905540943924e6 0.0
7.624905540943924e6 3.2014310344254438e7 0.0
0.0 0.0 0.0

-2.8015833477514066e7 3.2499021032338664e7 0.0
3.2499021032338664e7 -1.4428870632682022e7 0.0
0.0 0.0 0.0

-3.825181099167814e6 2.388814573456009e7 0.0
2.388814573456009e7 9.03920963040385e6 0.0
0.0 0.0 0.0

-2.2558652028184395e7 3.810871376908614e7 0.0
3.810871376908614e7 6.748898778004696e6 0.0
0.0 0.0 0.0

1.4880565592716038e6 4.971473619330134e6 0.0
4.971473619330134e6 -4.948942778001575e7 0.0
0.0 0.0 0.0

7.735374453306656e6 3.2659218611960582e7 0.0
3.2659218611960582e7 -5.1370248992543155e6 0.0
0.0 0.0 0.0

-3.0307775288538486e6 1.3895373912736522e7 0.0
1.3895373912736522e7 6.038142443466043e7 0.0
0.0 0.0 0.0

-3.7116131227477053e6 2.9077588885395125e7 0.0
2.9077588885395125e7 7.978066542536442e6 0.0
0.0 0.0 0.0

-1.7859116579998822e6 1.919285745287607e7 0.0
1.919285745287607e7 -7.282147482052078e6 0.0
0.0 0.0 0.0

-8.105891999451246e6 2.3929431261891574e6 0.0
2.3929431261891574e6 1.4670476413528223e7 0.0
0.0 0.0 0.0

5.392136898081277e6 2.0754496164226122e7 0.0
2.0754496164226122e7 1.758783901819488e7 0.0
0.0 0.0 0.0

-4.804015534254292e6 2.4977442471251957e7 0.0
2.4977442471251957e7 1.055646028239528e7 0.0
0.0 0.0 0.0

1.397091054172095e6 1.0792457255963981e7 0.0
1.0792457255963981e7 -1.1549238208186394e7 0.0
0.0 0.0 0.0

-3.8523476884889416e6 2.2898032135057013e7 0.0
2.2898032135057013e7 1.0578268251436222e6 0.0
0.0 0.0 0.0

8.555660282287791e6 2.3725346951404452e7 0.0
2.3725346951404452e7 -2.0201453111039158e6 0.0
0.0 0.0 0.0

-2.315002079431165e6 1.5455187658794709e7 0.0
1.5455187658794709e7 1.5554555162703856e6 0.0
0.0 0.0 0.0

-4.724749708617459e6 1.7861520520403806e7 0.0
1.7861520520403806e7 -3.437428684626412e7 0.0
0.0 0.0 0.0

-3.7538668240092755e6 1.9135199807144906e7 0.0
1.9135199807144906e7 8.312725726431327e6 0.0
0.0 0.0 0.0

-4.987303562958535e6 2.036180221477323e7 0.0
2.036180221477323e7 2.591686051132147e7 0.0
0.0 0.0 0.0

-9.466266723910058e6 1.8690291957459436e6 0.0
1.8690291957459436e6 3.096432074091175e7 0.0
0.0 0.0 0.0

-1.337611855412078e7 2.548175918925974e7 0.0
2.548175918925974e7 -121427.93457337562 0.0
0.0 0.0 0.0

-7.749179932880918e6 3.0612350954488333e7 0.0
3.0612350954488333e7 6.975883558378212e6 0.0
0.0 0.0 0.0

1.399863445165784e7 3.3044725284607712e7 0.0
3.3044725284607712e7 -5.761237922396125e6 0.0
0.0 0.0 0.0

-1.0167022720363889e7 7.122832043035596e6 0.0
7.122832043035596e6 3.4932523166695595e7 0.0
0.0 0.0 0.0

-5.870225827860985e6 1.8866321622558992e7 0.0
1.8866321622558992e7 -3.587099161497324e7 0.0
0.0 0.0 0.0

-5.000811792338671e6 3.050950496031436e7 0.0
3.050950496031436e7 7.0372790826647375e6 0.0
0.0 0.0 0.0

798670.7987854513 2.139946692195975e7 0.0
2.139946692195975e7 -8.310654452434536e6 0.0
0.0 0.0 0.0

-1.709659359327056e6 1.6698510362997275e7 0.0
1.6698510362997275e7 -8.182780682696039e6 0.0
0.0 0.0 0.0

-1.0094601363428256e7 2.6864515567603405e6 0.0
2.6864515567603405e6 2.2208812841688517e7 0.0
0.0 0.0 0.0

-1.058479720278872e7 3.3854728546171e7 0.0
3.3854728546171e7 5.8492561216772515e6 0.0
0.0 0.0 0.0

-1.3936861526862588e6 2.5537895948655166e7 0.0
2.5537895948655166e7 -191156.3954324752 0.0
0.0 0.0 0.0

4.238182019193016e6 2.2326505423382286e7 0.0
2.2326505423382286e7 1.5775063206696998e7 0.0
0.0 0.0 0.0

-2.9535129979530605e6 2.3753989848275217e6 0.0
2.3753989848275217e6 6.4546325050794175e6 0.0
0.0 0.0 0.0

5.3314430285575185e6 2.265911226700705e7 0.0
2.265911226700705e7 5.594449312950297e6 0.0
0.0 0.0 0.0

-1.2393102786123157e6 9.62667249125218e6 0.0
9.62667249125218e6 -6.557162371150047e7 0.0
0.0 0.0 0.0

8.118875005578443e6 3.7602207875755295e7 0.0
3.7602207875755295e7 -4.957128822464086e6 0.0
0.0 0.0 0.0

-5.29724918379039e6 2.605055835420924e7 0.0
2.605055835420924e7 1.1278748061300363e7 0.0
0.0 0.0 0.0

-1.0345790592989335e7 1.1373291274218304e7 0.0
1.1373291274218304e7 1.6543955797875173e7 0.0
0.0 0.0 0.0

-1.6138439633901976e6 2.216140871370922e7 0.0
2.216140871370922e7 -3.687886628846934e6 0.0
0.0 0.0 0.0

-1.3880378518531434e6 1.2054129240692323e7 0.0
1.2054129240692323e7 -6.1182178310675405e7 0.0
0.0 0.0 0.0

-1.2389732545332294e6 1.8689620954143457e7 0.0
1.8689620954143457e7 -2.5809236626095336e7 0.0
0.0 0.0 0.0

-1.1025124564432794e7 3.826713320977943e7 0.0
3.826713320977943e7 4.2727163625309225e6 0.0
0.0 0.0 0.0

-2.800184712704727e6 2.028419792435661e7 0.0
2.028419792435661e7 -9.333950222458342e6 0.0
0.0 0.0 0.0

-5.786155971081084e6 2.4279673946973193e7 0.0
2.4279673946973193e7 -1.3502378749861915e7 0.0
0.0 0.0 0.0

-2.2394014352512793e6 2.6316791026366122e7 0.0
2.6316791026366122e7 6.31448793107365e6 0.0
0.0 0.0 0.0

718380.1881862246 1.9782736497067496e7 0.0
1.9782736497067496e7 -1.4531139186457744e7 0.0
0.0 0.0 0.0

9.141303899552008e6 2.4053728096327193e7 0.0
2.4053728096327193e7 8.615785249424312e6 0.0
0.0 0.0 0.0

-9.087045216101842e6 2.484565094601694e7 0.0
2.484565094601694e7 -1.358453770116474e7 0.0
0.0 0.0 0.0

-2.5771276630500657e6 2.3272991326031476e7 0.0
2.3272991326031476e7 6.467866399303712e6 0.0
0.0 0.0 0.0

-4.0218752344153896e6 1.0160697142825548e7 0.0
1.0160697142825548e7 6.644328445443621e7 0.0
0.0 0.0 0.0

-580631.2859555022 1.6214264966151955e7 0.0
1.6214264966151955e7 -7.413800889553921e6 0.0
0.0 0.0 0.0

-8.228364358979388e6 1.6798079872247674e7 0.0
1.6798079872247674e7 -2.804912014748023e7 0.0
0.0 0.0 0.0

844544.491614583 2.177692923872412e7 0.0
2.177692923872412e7 -1.6689596779931e7 0.0
0.0 0.0 0.0

-6.2890416722679e6 2.1673989842514474e7 0.0
2.1673989842514474e7 -1.7506939025605623e7 0.0
0.0 0.0 0.0

-3.748974334407683e6 2.4353516664671645e7 0.0
2.4353516664671645e7 1.1056887461358603e7 0.0
0.0 0.0 0.0

649182.4125175206 1.8844113537188962e7 0.0
1.8844113537188962e7 2.1639413859189274e6 0.0
0.0 0.0 0.0

-2.7753568998605693e6 3.159209131279082e7 0.0
3.159209131279082e7 4.111247264129119e6 0.0
0.0 0.0 0.0

-4.128250042987471e6 2.364822138386254e7 0.0
2.364822138386254e7 782511.9120591499 0.0
0.0 0.0 0.0

-6.073041946360793e6 3.3704046211873856e6 0.0
3.3704046211873856e6 6.483796243322508e7 0.0
0.0 0.0 0.0

-1.10996054298606e7 1.1570253174868232e7 0.0
1.1570253174868232e7 2.6979787622032277e7 0.0
0.0 0.0 0.0

1.8009062012647144e6 2.1884389652415793e7 0.0
2.1884389652415793e7 -7.153401990347411e6 0.0
0.0 0.0 0.0

-2.7403512993456226e7 3.081848835124956e7 0.0
3.081848835124956e7 2.2428961070456374e6 0.0
0.0 0.0 0.0

-1.1135142317323364e7 3.503353643251488e6 0.0
3.503353643251488e6 2.169619426866808e7 0.0
0.0 0.0 0.0

-6.869845256209891e6 8.534945071923042e6 0.0
8.534945071923042e6 5.419191199603134e7 0.0
0.0 0.0 0.0

-2.873505710448802e6 2.1283343790912684e6 0.0
2.1283343790912684e6 6.490977983205325e6 0.0
0.0 0.0 0.0

-4.322083552408129e6 5.8422386110694185e6 0.0
5.8422386110694185e6 -581725.2322391716 0.0
0.0 0.0 0.0

1.3742427724309545e6 1.2873948392518548e7 0.0
1.2873948392518548e7 -2.457962988765198e7 0.0
0.0 0.0 0.0

-2.106993558035326e6 2.5972063270547096e7 0.0
2.5972063270547096e7 -979291.296798144 0.0
0.0 0.0 0.0

-7.359521767571542e6 2.128344658959626e7 0.0
2.128344658959626e7 -1.7417883754134078e7 0.0
0.0 0.0 0.0

-3.2150419371821033e6 2.3896719050007317e7 0.0
2.3896719050007317e7 1.4619218364515271e7 0.0
0.0 0.0 0.0

-4.830582688244323e6 1.8552508555311915e7 0.0
1.8552508555311915e7 -2.593638628361036e7 0.0
0.0 0.0 0.0

2.69295033033615e6 2.1901752102392428e7 0.0
2.1901752102392428e7 1.417274105199621e7 0.0
0.0 0.0 0.0

-1.1765472493281148e7 1.7153831485115003e7 0.0
1.7153831485115003e7 -4.15953649815106e7 0.0
0.0 0.0 0.0

-4.445899422561718e6 2.356211136402011e7 0.0
2.356211136402011e7 3.9283184866789384e6 0.0
0.0 0.0 0.0

-3.327523336810991e6 1.2566793542894242e7 0.0
1.2566793542894242e7 -7.234597828836241e7 0.0
0.0 0.0 0.0

-995983.5682072118 1.259491580104476e7 0.0
1.259491580104476e7 -5.332593582324174e7 0.0
0.0 0.0 0.0

-4.679144543790366e6 2.3316610659340624e7 0.0
2.3316610659340624e7 -1.2874890784671554e7 0.0
0.0 0.0 0.0

-1.786340651960977e7 2.7864480823273197e7 0.0
2.7864480823273197e7 -1.3014026260040449e7 0.0
0.0 0.0 0.0

-1.3263324226563998e7 3.091120461688025e7 0.0
3.091120461688025e7 5.780441320441274e6 0.0
0.0 0.0 0.0

-4.491127515795477e6 1.598682122260049e7 0.0
1.598682122260049e7 7.456408212186199e6 0.0
0.0 0.0 0.0

-2.1755390359099903e6 7.435831603776239e6 0.0
7.435831603776239e6 8.582052412668062e6 0.0
0.0 0.0 0.0

380906.59842575947 2.0988138575266607e7 0.0
2.0988138575266607e7 -6.60640818931322e6 0.0
0.0 0.0 0.0

1.1742334375248238e7 2.5047277840681013e7 0.0
2.5047277840681013e7 -1.0352972968186764e6 0.0
0.0 0.0 0.0

-1.8799186907572187e6 1.4545831583144382e7 0.0
1.4545831583144382e7 6.1311917091080554e7 0.0
0.0 0.0 0.0

-1.2644621903025303e6 2.2715786656360585e7 0.0
2.2715786656360585e7 1.2279624698740931e7 0.0
0.0 0.0 0.0

-7.943298200056862e6 3.0632653255700056e7 0.0
3.0632653255700056e7 7.02886845390054e6 0.0
0.0 0.0 0.0

-4.673969348562733e6 1.8913276803342894e7 0.0
1.8913276803342894e7 -1.6335605431463333e7 0.0
0.0 0.0 0.0

-6.073278066761952e6 1.1946852515792327e7 0.0
1.1946852515792327e7 5.0937847273234665e7 0.0
0.0 0.0 0.0

-2.1158620056326855e6 2.2459788786234993e7 0.0
2.2459788786234993e7 6.976552940607347e6 0.0
0.0 0.0 0.0

620057.685041084 2.1625056487446208e7 0.0
2.1625056487446208e7 -1.6568958230219632e7 0.0
0.0 0.0 0.0

-1.4666213713446893e6 1.7368130429993004e7 0.0
1.7368130429993004e7 -3.0610026337625373e7 0.0
0.0 0.0 0.0

-617971.8399087936 1.1233232563802367e7 0.0
1.1233232563802367e7 -5.0528281638244785e7 0.0
0.0 0.0 0.0

173820.33669305593 1.2177015442061925e7 0.0
1.2177015442061925e7 -4.033719803601509e7 0.0
0.0 0.0 0.0

-1.2028219962720321e7 2.0038141475795254e7 0.0
2.0038141475795254e7 -5.8605414594338566e7 0.0
0.0 0.0 0.0

-3.1561731536035584e6 3.088641267318195e7 0.0
3.088641267318195e7 4.932519671486855e6 0.0
0.0 0.0 0.0

-6.331367895566654e6 2.405761338004254e7 0.0
2.405761338004254e7 -1.3669136760756066e7 0.0
0.0 0.0 0.0

-1.4952743948278422e6 2.1545162108826697e7 0.0
2.1545162108826697e7 -1.3947252710927127e7 0.0
0.0 0.0 0.0

2.5891577069255225e7 2.524013344360595e7 0.0
2.524013344360595e7 895415.3461097302 0.0
0.0 0.0 0.0

-6.049861187633678e6 6.343607812513194e6 0.0
6.343607812513194e6 5.844302443557344e7 0.0
0.0 0.0 0.0

-2.644922088259008e6 1.2435318346439797e7 0.0
1.2435318346439797e7 -6.178729694614947e7 0.0
0.0 0.0 0.0

561684.8460510112 1.2567598434716031e7 0.0
1.2567598434716031e7 -4.021114776679598e7 0.0
0.0 0.0 0.0

-2.7592697910798974e6 1.0099109189251982e7 0.0
1.0099109189251982e7 7.285941264840755e7 0.0
0.0 0.0 0.0

2.3880626282476757e7 2.5592960145967133e7 0.0
2.5592960145967133e7 1.5368910565104535e7 0.0
0.0 0.0 0.0

-5.646915814600334e6 9.746918940570652e6 0.0
9.746918940570652e6 5.5678068858770475e7 0.0
0.0 0.0 0.0

-7.564535333434484e6 -1.121272035410919e6 0.0
-1.121272035410919e6 1.0871713519998726e7 0.0
0.0 0.0 0.0

-3.6044273426900716e6 3.2591463975211967e7 0.0
3.2591463975211967e7 2.6519344749175943e6 0.0
0.0 0.0 0.0

1.3392871388607863e6 1.1850888090946883e7 0.0
1.1850888090946883e7 -3.0548869252800684e7 0.0
0.0 0.0 0.0

-8.093486411833396e6 3.4906189138214186e7 0.0
3.4906189138214186e7 5.616352345991371e6 0.0
0.0 0.0 0.0

-5.574561416020878e6 1.4590747456013171e7 0.0
1.4590747456013171e7 4.535307964532632e7 0.0
0.0 0.0 0.0

-1.156861527350844e7 9.595289200043783e6 0.0
9.595289200043783e6 2.4987512779338423e7 0.0
0.0 0.0 0.0

9.417820032555502e6 3.299792069431461e7 0.0
3.299792069431461e7 -5.309558043762334e6 0.0
0.0 0.0 0.0

-3.9368112266360605e6 2.4670488074008964e7 0.0
2.4670488074008964e7 1.4100512215651445e7 0.0
0.0 0.0 0.0

2.8753217157854694e6 2.824355437160936e7 0.0
2.824355437160936e7 -7.321954838039245e6 0.0
0.0 0.0 0.0

-7.067594280872492e6 2.7714902244444218e7 0.0
2.7714902244444218e7 7.618824793921974e6 0.0
0.0 0.0 0.0

-4.456608515645174e6 1.9773463068081614e7 0.0
1.9773463068081614e7 -2.7518968526620217e7 0.0
0.0 0.0 0.0

5.976549529630382e6 2.514388926788346e7 0.0
2.514388926788346e7 -6.965670075394451e6 0.0
0.0 0.0 0.0

9.777280833935112e6 1.983939766336844e7 0.0
1.983939766336844e7 5.1368643831632696e7 0.0
0.0 0.0 0.0

-5.179701438938545e6 6.295739647939429e6 0.0
6.295739647939429e6 1.7755279804152656e7 0.0
0.0 0.0 0.0

-1.9146738248545923e6 9.17884428834772e6 0.0
9.17884428834772e6 -8.599454603204677e6 0.0
0.0 0.0 0.0

-4.929715678135762e6 2.1167350975513294e7 0.0
2.1167350975513294e7 -1.6432385314974178e7 0.0
0.0 0.0 0.0

4.921731706382621e6 2.1449572431944504e7 0.0
2.1449572431944504e7 1.6405772491151987e7 0.0
0.0 0.0 0.0

1.0035212655715138e7 3.846681682764367e7 0.0
3.846681682764367e7 -5.848794039960458e6 0.0
0.0 0.0 0.0

3.3805518383221384e6 5.354358589922595e6 0.0
5.354358589922595e6 -1.861608942232336e7 0.0
0.0 0.0 0.0

-5.006286492840756e6 3.672009112530652e7 0.0
3.672009112530652e7 4.0816635902838185e6 0.0
0.0 0.0 0.0

-4.52459980695477e7 1.7206519619309764e7 0.0
1.7206519619309764e7 7.066405786685761e6 0.0
0.0 0.0 0.0

1.0039481062486349e6 2.2168797504230082e7 0.0
2.2168797504230082e7 -1.5050627096999085e7 0.0
0.0 0.0 0.0

-5.1663840877911e6 1.6338904985259764e7 0.0
1.6338904985259764e7 4.109460242982385e7 0.0
0.0 0.0 0.0

372821.16330669215 2.2331691763907675e7 0.0
2.2331691763907675e7 -6.935885537180352e6 0.0
0.0 0.0 0.0

-4.309794932922715e6 2.528753745122242e7 0.0
2.528753745122242e7 1.0683252005302314e7 0.0
0.0 0.0 0.0

-1.9714576328189103e6 2.5395840414108135e7 0.0
2.5395840414108135e7 -2.0890218437222007e6 0.0
0.0 0.0 0.0

943917.1313629537 2.2683710097591206e7 0.0
2.2683710097591206e7 -8.49816047043882e6 0.0
0.0 0.0 0.0

1.4189361844344996e6 4.0585467320151892e6 0.0
4.0585467320151892e6 -5.185014069546621e7 0.0
0.0 0.0 0.0

-908983.1056144758 1.855945182982952e7 0.0
1.855945182982952e7 -3.02994413477724e6 0.0
0.0 0.0 0.0

1.3067970498066854e7 2.6408139781848688e7 0.0
2.6408139781848688e7 -3.205155613470004e6 0.0
0.0 0.0 0.0

-1.721868275085323e6 2.1051367096926503e7 0.0
2.1051367096926503e7 -1.6240665719228322e7 0.0
0.0 0.0 0.0

7.332350444383597e6 2.3865344541069034e7 0.0
2.3865344541069034e7 1.1794451322790662e7 0.0
0.0 0.0 0.0

-1.9229020549645312e6 1.2740089779787136e7 0.0
1.2740089779787136e7 -5.3559941089357115e7 0.0
0.0 0.0 0.0

-49429.137209094595 2.472399312171881e7 0.0
2.472399312171881e7 -9.25331526075032e6 0.0
0.0 0.0 0.0

5.396148162526956e6 2.364796689438402e7 0.0
2.364796689438402e7 1.5929624152276915e7 0.0
0.0 0.0 0.0

3.092388941321535e7 3.1993479731924247e7 0.0
3.1993479731924247e7 -4.0594191366832703e6 0.0
0.0 0.0 0.0

-593802.2087492086 1.2922019574692307e7 0.0
1.2922019574692307e7 -4.641856544530551e7 0.0
0.0 0.0 0.0

-3.672494276235992e7 1.5760814106866935e7 0.0
1.5760814106866935e7 7.421807645857023e6 0.0
0.0 0.0 0.0

2.8671838283991134e6 2.0193598608334254e7 0.0
2.0193598608334254e7 1.9716163779062502e7 0.0
0.0 0.0 0.0

-7.244307103914671e6 3.628649430689545e7 0.0
3.628649430689545e7 5.117362435295483e6 0.0
0.0 0.0 0.0

596291.6294312747 2.2577363556591436e7 0.0
2.2577363556591436e7 -1.1726287407060131e7 0.0
0.0 0.0 0.0

-6.662352816413164e6 3.1155989126148365e7 0.0
3.1155989126148365e7 6.613207565052735e6 0.0
0.0 0.0 0.0

-2.942090884765528e6 1.3535322962347452e7 0.0
1.3535322962347452e7 6.539602523252334e7 0.0
0.0 0.0 0.0

1.3204064211365338e6 1.6503590269407047e7 0.0
1.6503590269407047e7 -1.9473333169219024e7 0.0
0.0 0.0 0.0

7.257439387205326e6 3.290667848330481e7 0.0
3.290667848330481e7 -5.546351951990034e6 0.0
0.0 0.0 0.0

-2.657925580564929e6 1.3332546581863951e7 0.0
1.3332546581863951e7 3.3913865808157083e6 0.0
0.0 0.0 0.0

-3.3464825965446874e7 1.5005158180834275e7 0.0
1.5005158180834275e7 7.202649438010192e6 0.0
0.0 0.0 0.0

-3.2743614355164906e6 1.737911761235781e7 0.0
1.737911761235781e7 604516.676716838 0.0
0.0 0.0 0.0

-1.0111829244851638e7 5.332246055168747e6 0.0
5.332246055168747e6 3.518414118545321e7 0.0
0.0 0.0 0.0

-4.30413794616206e6 1.6923250236770026e7 0.0
1.6923250236770026e7 4.191880876639202e7 0.0
0.0 0.0 0.0

-5.9504250803741785e6 3.433371357983482e7 0.0
3.433371357983482e7 3.814972834748645e6 0.0
0.0 0.0 0.0

-6.364447662653251e6 3.7565718816824794e7 0.0
3.7565718816824794e7 4.418727984268839e6 0.0
0.0 0.0 0.0

-4.897079623642772e6 1.294291394119572e7 0.0
1.294291394119572e7 5.219400349166329e7 0.0
0.0 0.0 0.0

1.1045941997031374e6 1.4833524781502394e7 0.0
1.4833524781502394e7 -1.5975179115224821e7 0.0
0.0 0.0 0.0

7.99889724652768e6 2.38903175595029e7 0.0
2.38903175595029e7 1.6469327489512926e6 0.0
0.0 0.0 0.0

-3.8965635434341743e6 1.691184017103197e7 0.0
1.691184017103197e7 -1.20267244285095e7 0.0
0.0 0.0 0.0

1.0879668923296696e6 1.0278191446324054e7 0.0
1.0278191446324054e7 -1.4461642894879282e7 0.0
0.0 0.0 0.0

-4.2405714816620555e6 3.399880076983488e7 0.0
3.399880076983488e7 4.258806283601547e6 0.0
0.0 0.0 0.0

-6.172995402297348e6 1.93230897894613e7 0.0
1.93230897894613e7 2.8907363454354443e7 0.0
0.0 0.0 0.0

-1.378881732744934e6 1.3245674259026904e7 0.0
1.3245674259026904e7 -4.691909284350659e7 0.0
0.0 0.0 0.0

-2.394427992119758e7 2.9617970206823878e7 0.0
2.9617970206823878e7 1.68072924952628e6 0.0
0.0 0.0 0.0

3.0536308554162006e6 2.9228143896127384e7 0.0
2.9228143896127384e7 -6.392096653820912e6 0.0
0.0 0.0 0.0

356711.08770277724 5.832517501250371e6 0.0
5.832517501250371e6 -6.20529966335831e7 0.0
0.0 0.0 0.0

-1.1165116101780897e6 2.142423072388243e7 0.0
2.142423072388243e7 2.176400197506664e7 0.0
0.0 0.0 0.0

-1.7399844220584133e6 2.572362296081841e7 0.0
2.572362296081841e7 1.7763293209935408e6 0.0
0.0 0.0 0.0

773341.2968458897 2.237001962577622e7 0.0
2.237001962577622e7 -1.5341189849645909e7 0.0
0.0 0.0 0.0

-9.878389296396384e6 3.539615273490342e7 0.0
3.539615273490342e7 5.78165398555684e6 0.0
0.0 0.0 0.0

-1.1784627678033228e6 2.5927915790494025e7 0.0
2.5927915790494025e7 -1.2222979623992154e6 0.0
0.0 0.0 0.0

-7.135762556606678e6 3.511166685497088e7 0.0
3.511166685497088e7 4.057509198239754e6 0.0
0.0 0.0 0.0

-3.09703594985196e6 8.967228295413505e6 0.0
8.967228295413505e6 5.381001219961901e6 0.0
0.0 0.0 0.0

7.0688152761052e6 1.969140554302901e7 0.0
1.969140554302901e7 2.5887572804289352e7 0.0
0.0 0.0 0.0

-1.3423956775249476e6 1.9441873537552956e7 0.0
1.9441873537552956e7 -2.3042290874437097e7 0.0
0.0 0.0 0.0

-2.3148632395512867e6 1.6793843044958085e7 0.0
1.6793843044958085e7 1.5959713832905707e6 0.0
0.0 0.0 0.0

44391.6507591391 2.0881097366917916e7 0.0
2.0881097366917916e7 -1.799262968296224e7 0.0
0.0 0.0 0.0

2.0349084681476038e6 8.397499788580978e6 0.0
8.397499788580978e6 -2.317888552854174e7 0.0
0.0 0.0 0.0

1.5738926298264224e7 2.5015202407636285e7 0.0
2.5015202407636285e7 1.1673894600712318e7 0.0
0.0 0.0 0.0

-7.8999073535765745e6 1.141993761599095e6 0.0
1.141993761599095e6 4.3737352289140284e7 0.0
0.0 0.0 0.0

7.954933061493076e6 1.985954959516866e7 0.0
1.985954959516866e7 2.9484984500107788e7 0.0
0.0 0.0 0.0

-3.97304283111938e6 3.1971677411483373e7 0.0
3.1971677411483373e7 3.5512390532538253e6 0.0
0.0 0.0 0.0

-1.0957251414456088e6 1.9039399934951916e7 0.0
1.9039399934951916e7 -2.632745866827432e7 0.0
0.0 0.0 0.0

6.316863970130698e6 3.220881778991196e7 0.0
3.220881778991196e7 -5.192116021257481e6 0.0
0.0 0.0 0.0

-966825.4449503678 2.111024614888059e7 0.0
2.111024614888059e7 -2.916751269576331e6 0.0
0.0 0.0 0.0

2.098231885817563e6 1.1412750195231697e7 0.0
1.1412750195231697e7 -2.9848328197922554e7 0.0
0.0 0.0 0.0

2.6624329699173546e6 2.8433839173508443e7 0.0
2.8433839173508443e7 -7.613956376800758e6 0.0
0.0 0.0 0.0

-911460.6468025753 1.9860552266473737e7 0.0
1.9860552266473737e7 -2.128007698379418e7 0.0
0.0 0.0 0.0

-1.1163861762822893e7 8.132906719401922e6 0.0
8.132906719401922e6 1.9291622971158974e7 0.0
0.0 0.0 0.0

5.325684419870362e6 2.1899116717198018e7 0.0
2.1899116717198018e7 1.9138360585719757e7 0.0
0.0 0.0 0.0

-5.6769499310794715e6 2.582093175754917e7 0.0
2.582093175754917e7 1.0124924329290207e7 0.0
0.0 0.0 0.0

-4.504789235673951e6 3.2795142563961696e7 0.0
3.2795142563961696e7 3.557702715820267e6 0.0
0.0 0.0 0.0

76000.8401493309 2.1470630877489366e7 0.0
2.1470630877489366e7 1.3046646568920145e7 0.0
0.0 0.0 0.0

-7.4940443171775825e6 4.551254717658098e6 0.0
4.551254717658098e6 1.3723264370517671e7 0.0
0.0 0.0 0.0

-7.74213270666459e6 1.1686536357059529e7 0.0
1.1686536357059529e7 4.3875797834059104e7 0.0
0.0 0.0 0.0

530542.8964565042 2.1459692917401172e7 0.0
2.1459692917401172e7 -1.6524144543354806e7 0.0
0.0 0.0 0.0

-4.396977019785281e6 1.5753813335627107e7 0.0
1.5753813335627107e7 -7.183592451768391e7 0.0
0.0 0.0 0.0

-6.227734033897833e6 6.4450050888243485e6 0.0
6.4450050888243485e6 1.1952247637436546e7 0.0
0.0 0.0 0.0

-1.0699771751311557e7 3.4362962048766892e6 0.0
3.4362962048766892e6 2.6265192429525074e7 0.0
0.0 0.0 0.0

-3.7902335758116944e6 1.9570573167086445e7 0.0
1.9570573167086445e7 9.739111777658358e6 0.0
0.0 0.0 0.0

2.415060451960633e6 2.9500121830862317e7 0.0
2.9500121830862317e7 -5.72145320828253e6 0.0
0.0 0.0 0.0

-5.376638919034315e6 1.749771148529684e7 0.0
1.749771148529684e7 -4.589997006854408e7 0.0
0.0 0.0 0.0

2.8392450267808773e6 8.006571035292941e6 0.0
8.006571035292941e6 -1.998707254812674e7 0.0
0.0 0.0 0.0

-2.4223210225028824e6 3.2215808390294176e7 0.0
3.2215808390294176e7 3.2230615259603136e6 0.0
0.0 0.0 0.0

3.6269750265801796e6 2.884367458186988e7 0.0
2.884367458186988e7 -6.960276023731485e6 0.0
0.0 0.0 0.0

-1.0961452600191535e7 4.362738764465023e7 0.0
4.362738764465023e7 3.969916675080658e6 0.0
0.0 0.0 0.0

-3.157773701697521e6 3.238102048420047e7 0.0
3.238102048420047e7 4.1743143566583768e6 0.0
0.0 0.0 0.0

-2.96046246870084e7 3.1263468381601255e7 0.0
3.1263468381601255e7 -1.2265144661497008e7 0.0
0.0 0.0 0.0

-4.990582964538482e6 2.387814658208102e7 0.0
2.387814658208102e7 -1.9781612841720793e6 0.0
0.0 0.0 0.0

-4.705904968685692e6 1.5665583608184557e7 0.0
1.5665583608184557e7 -6.60610039200128e7 0.0
0.0 0.0 0.0

-3.4049616286235107e6 1.6079198748754138e7 0.0
1.6079198748754138e7 509382.902856085 0.0
0.0 0.0 0.0

-8.052723072779022e6 3.2969486793750287e6 0.0
3.2969486793750287e6 5.001561436261837e7 0.0
0.0 0.0 0.0

-6.426332941622905e6 7.059554642231814e6 0.0
7.059554642231814e6 5.813599247560593e7 0.0
0.0 0.0 0.0

1.3848476087208986e6 6.880127790649964e6 0.0
6.880127790649964e6 -4.5080333895426095e7 0.0
0.0 0.0 0.0

-5.013712054375675e6 2.7156079119688965e7 0.0
2.7156079119688965e7 9.767364810027063e6 0.0
0.0 0.0 0.0

-2.6222209854506627e6 1.4934037735251188e7 0.0
1.4934037735251188e7 5.6453752750788435e7 0.0
0.0 0.0 0.0

-436702.4183842717 2.0359501827585388e7 0.0
2.0359501827585388e7 -1.9588568015129633e7 0.0
0.0 0.0 0.0

-394803.3060151264 1.6995165657897137e7 0.0
1.6995165657897137e7 5.410129668794498e7 0.0
0.0 0.0 0.0

1.9459810242209518e6 2.879540048362022e7 0.0
2.879540048362022e7 -7.074661938078878e6 0.0
0.0 0.0 0.0

4.658774706480062e6 3.51099703938616e7 0.0
3.51099703938616e7 -4.204816732060831e6 0.0
0.0 0.0 0.0

-566701.5163574982 2.0948888223423366e7 0.0
2.0948888223423366e7 -5.101517743582992e6 0.0
0.0 0.0 0.0

-1.0877040951605551e7 6.439753190127699e6 0.0
6.439753190127699e6 2.5375341350557238e7 0.0
0.0 0.0 0.0

1.4769387831191556e6 2.079259303369598e7 0.0
2.079259303369598e7 1.634887951806059e7 0.0
0.0 0.0 0.0

-2.967642499221591e6 1.88627771314457e7 0.0
1.88627771314457e7 1.099049014478311e7 0.0
0.0 0.0 0.0

2.0529732100020777e6 4.757180939393808e6 0.0
4.757180939393808e6 -4.115162749214375e7 0.0
0.0 0.0 0.0

5.5865291218262995e6 2.490389544619889e7 0.0
2.490389544619889e7 -5.56474184199678e6 0.0
0.0 0.0 0.0

-1.6164487422540389e7 2.312229102086661e7 0.0
2.312229102086661e7 -560212.6287949802 0.0
0.0 0.0 0.0

-2.702604248939857e7 2.680053398084368e7 0.0
2.680053398084368e7 -9.020110710210234e6 0.0
0.0 0.0 0.0

-2.4030105268321484e6 3.290885163885802e7 0.0
3.290885163885802e7 925200.9921944964 0.0
0.0 0.0 0.0

109117.04192794394 1.430347256611401e7 0.0
1.430347256611401e7 -1.5033849403140903e7 0.0
0.0 0.0 0.0

-7.302698254984891e6 2.3558488027727783e7 0.0
2.3558488027727783e7 -1.7592905431692202e6 0.0
0.0 0.0 0.0

2.9426256278590164e6 3.5251298633599184e7 0.0
3.5251298633599184e7 -2.118054296068581e6 0.0
0.0 0.0 0.0

-1.9098771546283616e6 2.148735950723173e7 0.0
2.148735950723173e7 2.2841227917023882e7 0.0
0.0 0.0 0.0

-932992.0632735807 2.1986978343336847e7 0.0
2.1986978343336847e7 1.2760524020048901e7 0.0
0.0 0.0 0.0

1.096015549138585e6 1.3800547832198918e7 0.0
1.3800547832198918e7 -1.421662646918595e7 0.0
0.0 0.0 0.0

-2.131326771852548e6 3.744974333455153e7 0.0
3.744974333455153e7 1.7309285828748087e6 0.0
0.0 0.0 0.0

-9.373770428525457e6 2.804371739655298e6 0.0
2.804371739655298e6 3.828902260481673e7 0.0
0.0 0.0 0.0

2.9413108255877104e6 6.005197427290227e6 0.0
6.005197427290227e6 -3.2001542209014665e7 0.0
0.0 0.0 0.0

1.1529398268868923e6 3.188258015914739e7 0.0
3.188258015914739e7 -2.286120597004405e6 0.0
0.0 0.0 0.0

-1.3771663285361286e6 1.9822959861235935e7 0.0
1.9822959861235935e7 -2.3641890249914356e7 0.0
0.0 0.0 0.0

-6.089550463141593e6 -343257.19880139054 0.0
-343257.19880139054 1.0969763621108826e7 0.0
0.0 0.0 0.0

668849.7699808208 1.0576139251135316e7 0.0
1.0576139251135316e7 -1.3875507295920314e7 0.0
0.0 0.0 0.0

-1.190556018442413e7 2.643450361353875e7 0.0
2.643450361353875e7 -1.1458492805127902e7 0.0
0.0 0.0 0.0

1.8361091142838057e6 1.2843560374034796e7 0.0
1.2843560374034796e7 -2.8853431529146805e7 0.0
0.0 0.0 0.0

1.5186173803896317e7 2.58099074921875e7 0.0
2.58099074921875e7 1.3919706727952823e7 0.0
0.0 0.0 0.0

-5.046524560077023e6 9.876128103347115e6 0.0
9.876128103347115e6 3.908816797662857e6 0.0
0.0 0.0 0.0

-8.620677282136006e6 4.854562267940323e6 0.0
4.854562267940323e6 9.57721688360529e6 0.0
0.0 0.0 0.0

1.1551293820125602e7 3.31107849473996e7 0.0
3.31107849473996e7 -5.4379993798079705e6 0.0
0.0 0.0 0.0

-9.311449727748707e6 3.253981513154476e6 0.0
3.253981513154476e6 3.71807699715153e7 0.0
0.0 0.0 0.0

979837.0212226659 1.7943347193701506e7 0.0
1.7943347193701506e7 -1.6584961546318516e7 0.0
0.0 0.0 0.0

1.8261501611995776e6 2.145352383054056e7 0.0
2.145352383054056e7 3.112859800394946e6 0.0
0.0 0.0 0.0

2.0534674261836145e7 2.789215681997472e7 0.0
2.789215681997472e7 -2.464350267403613e6 0.0
0.0 0.0 0.0

944090.9277033098 1.9078990980048183e7 0.0
1.9078990980048183e7 -2.0485013524307393e7 0.0
0.0 0.0 0.0

1.0380981413451754e7 2.0583437840098612e7 0.0
2.0583437840098612e7 3.890616347997409e7 0.0
0.0 0.0 0.0

-9.259646834442211e6 3.097669460479102e7 0.0
3.097669460479102e7 6.545956568997141e6 0.0
0.0 0.0 0.0

-7.741031239166953e6 3.300156880886104e6 0.0
3.300156880886104e6 4.64851488320932e7 0.0
0.0 0.0 0.0

1.9689670574538663e6 3.199889684007866e7 0.0
3.199889684007866e7 -2.9016624154914077e6 0.0
0.0 0.0 0.0

1.3668315641943468e6 2.160310130191502e7 0.0
2.160310130191502e7 2.2725767138379145e7 0.0
0.0 0.0 0.0

1.4362536093269307e6 1.2236447584902972e7 0.0
1.2236447584902972e7 -2.3898525280655347e7 0.0
0.0 0.0 0.0

2.2863873441133685e6 5.09469693329749e6 0.0
5.09469693329749e6 -4.628910746563148e7 0.0
0.0 0.0 0.0

-1.7460273406237697e6 2.5728362041151166e7 0.0
2.5728362041151166e7 -3.06488049053128e6 0.0
0.0 0.0 0.0

-8.090078180115268e6 1.3399334314701399e7 0.0
1.3399334314701399e7 1.8982555384359837e7 0.0
0.0 0.0 0.0

-5.917970164957311e6 1.792245120494768e7 0.0
1.792245120494768e7 3.489590625242673e7 0.0
0.0 0.0 0.0

-1.5386385694566797e6 1.863175107242316e7 0.0
1.863175107242316e7 -2.8275675562155817e7 0.0
0.0 0.0 0.0

-4.0230876594737377e6 1.5116110038595837e7 0.0
1.5116110038595837e7 -6.1398813385539174e7 0.0
0.0 0.0 0.0

2.4797094840260167e6 3.276267001728419e7 0.0
3.276267001728419e7 -2.886398146873324e6 0.0
0.0 0.0 0.0

-401536.2648920389 2.16888192234454e7 0.0
2.16888192234454e7 1.0131744548657876e7 0.0
0.0 0.0 0.0

-4.143784191174993e7 1.6137400117201593e7 0.0
1.6137400117201593e7 6.759677558873339e6 0.0
0.0 0.0 0.0

1.1321867459669413e7 2.1032430152878214e7 0.0
2.1032430152878214e7 4.362109871063075e7 0.0
0.0 0.0 0.0

-3.740119043063697e7 3.72486309005635e7 0.0
3.72486309005635e7 5.9888170710747875e6 0.0
0.0 0.0 0.0

981797.3789850809 1.1811345407122133e7 0.0
1.1811345407122133e7 -3.513882521862273e7 0.0
0.0 0.0 0.0

9.204852989218965e6 5.954471570313236e6 0.0
5.954471570313236e6 -1.5563956719328463e6 0.0
0.0 0.0 0.0

-1.962105747771601e7 1.7782647720068926e6 0.0
1.7782647720068926e6 6.201839710674919e6 0.0
0.0 0.0 0.0

-8.087811155500551e6 1.2105046665052399e7 0.0
1.2105046665052399e7 1.7113955340785567e7 0.0
0.0 0.0 0.0

-8.302117350580156e6 4.674678132494787e6 0.0
4.674678132494787e6 4.419867086107297e7 0.0
0.0 0.0 0.0

-9.815406450568188e6 5.386577826963346e6 0.0
5.386577826963346e6 3.699520451706557e7 0.0
0.0 0.0 0.0

40507.350651506335 2.122836275882632e7 0.0
2.122836275882632e7 -1.8582204517640486e7 0.0
0.0 0.0 0.0

-2.9831101730846586e6 1.817511026405241e7 0.0
1.817511026405241e7 -9.943700554020494e6 0.0
0.0 0.0 0.0

2.8511626417958876e6 1.84315569417024e7 0.0
1.84315569417024e7 9.5038755178506e6 0.0
0.0 0.0 0.0

1.40340550376318e6 2.12056251403981e7 0.0
2.12056251403981e7 -91958.18240829447 0.0
0.0 0.0 0.0

3.054837364524601e6 3.3524734490359344e7 0.0
3.3524734490359344e7 -2.8063972255106983e6 0.0
0.0 0.0 0.0

-1.0074066797209589e7 1.306740861004686e7 0.0
1.306740861004686e7 2.3689192479939863e7 0.0
0.0 0.0 0.0

498619.49427544605 1.9824697515144516e7 0.0
1.9824697515144516e7 -1.9147300119667135e7 0.0
0.0 0.0 0.0

-2.703818928731032e6 2.790563003958415e7 0.0
2.790563003958415e7 3.362387776046745e6 0.0
0.0 0.0 0.0

948629.9410214461 9.509123629652414e6 0.0
9.509123629652414e6 -4.1567126268219866e7 0.0
0.0 0.0 0.0

-8.948342985822598e6 4.1244870006095585e6 0.0
4.1244870006095585e6 3.9718965031986214e7 0.0
0.0 0.0 0.0

2.2356335882110754e6 3.1197470237910476e7 0.0
3.1197470237910476e7 -3.8674027657477045e6 0.0
0.0 0.0 0.0

-929046.91106511 2.1782891152854938e7 0.0
2.1782891152854938e7 7.193461496198187e6 0.0
0.0 0.0 0.0

-1.5143258088002072e6 2.200627311968038e7 0.0
2.200627311968038e7 4.302591532733352e6 0.0
0.0 0.0 0.0

-8.028111601971915e6 2.5591295182309974e7 0.0
2.5591295182309974e7 -1.3666687568300307e7 0.0
0.0 0.0 0.0

8.181953461777735e6 1.7762156774845734e7 0.0
1.7762156774845734e7 2.883463691321268e7 0.0
0.0 0.0 0.0

-9.357497527844412e6 2.4488059140767474e7 0.0
2.4488059140767474e7 -1.1540018681589628e7 0.0
0.0 0.0 0.0

-4.920489547863329e6 1.5766549988482632e7 0.0
1.5766549988482632e7 4.408816627234991e7 0.0
0.0 0.0 0.0

-8.364227877716055e6 3.2085393935365835e6 0.0
3.2085393935365835e6 4.6330938507466495e7 0.0
0.0 0.0 0.0

2.149489211315036e6 1.1739826460906181e7 0.0
1.1739826460906181e7 -2.307486153085322e7 0.0
0.0 0.0 0.0

1.362831616283929e6 5.948968052711854e6 0.0
5.948968052711854e6 -4.737770677669729e7 0.0
0.0 0.0 0.0

1.0750883694609515e6 2.03923534213948e7 0.0
2.03923534213948e7 -1.7640021580425162e7 0.0
0.0 0.0 0.0

9.46242083984152e6 2.4663017433071967e7 0.0
2.4663017433071967e7 1.1540150432999168e7 0.0
0.0 0.0 0.0

2.261285760350924e6 7.144520993167071e6 0.0
7.144520993167071e6 -2.137446436230599e7 0.0
0.0 0.0 0.0

-8.654421508339763e6 1.915290998659158e7 0.0
1.915290998659158e7 -3.5879150390749246e7 0.0
0.0 0.0 0.0

-3.4621242630353067e6 1.4785468519536266e7 0.0
1.4785468519536266e7 -5.702332677540858e7 0.0
0.0 0.0 0.0

-3.7109726074195052e6 1.859745360170081e7 0.0
1.859745360170081e7 6.887295117730321e6 0.0
0.0 0.0 0.0

-6.623886709731694e6 2.758238336424845e7 0.0
2.758238336424845e7 9.235150445748363e6 0.0
0.0 0.0 0.0

-1.2300546538035866e7 2.536236498695168e7 0.0
2.536236498695168e7 -1.2174191395029819e7 0.0
0.0 0.0 0.0

-6.481878901090946e6 3.94794145644179e6 0.0
3.94794145644179e6 5.703997920565022e7 0.0
0.0 0.0 0.0

-2.883557286191931e6 1.46456405858263e7 0.0
1.46456405858263e7 -5.323219868907037e7 0.0
0.0 0.0 0.0

-4.628142741808245e6 1.5065302815219084e7 0.0
1.5065302815219084e7 4.719091047928702e7 0.0
0.0 0.0 0.0

-2.272049621683397e6 2.22045645463141e7 0.0
2.22045645463141e7 1.386904172192654e6 0.0
0.0 0.0 0.0

1.5810017849477676e6 3.31164913524737e7 0.0
3.31164913524737e7 -3.4454260389724253e6 0.0
0.0 0.0 0.0

-1.4784098444543507e7 3.0361014241331786e7 0.0
3.0361014241331786e7 4.919282971527086e6 0.0
0.0 0.0 0.0

-6.807182917487973e6 1.713063479104553e7 0.0
1.713063479104553e7 3.446229698139375e7 0.0
0.0 0.0 0.0

-5.903185233700438e6 1.6758503428080598e7 0.0
1.6758503428080598e7 -2.0073310928386364e7 0.0
0.0 0.0 0.0

5.367680743288835e6 1.929659100105643e7 0.0
1.929659100105643e7 1.759853106208977e7 0.0
0.0 0.0 0.0

1.2644167866441645e6 7.591362613139503e6 0.0
7.591362613139503e6 -4.30514250462067e7 0.0
0.0 0.0 0.0

1.1121819571591802e6 9.796612120691957e6 0.0
9.796612120691957e6 -1.5239561444156008e7 0.0
0.0 0.0 0.0

-6.797900869379615e6 1.2784572895848742e7 0.0
1.2784572895848742e7 4.524333859324717e7 0.0
0.0 0.0 0.0

-3.155691797058941e6 2.3792738362434637e7 0.0
2.3792738362434637e7 1.3234543750381578e7 0.0
0.0 0.0 0.0

-3.685527312735666e7 3.1106262821183648e7 0.0
3.1106262821183648e7 30156.03419888206 0.0
0.0 0.0 0.0

-899286.4112787936 1.6721663871136839e7 0.0
1.6721663871136839e7 -3.1114412479181044e7 0.0
0.0 0.0 0.0

583474.1071767937 1.1188630638509613e7 0.0
1.1188630638509613e7 -3.9946965609194055e7 0.0
0.0 0.0 0.0

-2.2967551495022736e6 1.4659082234594934e7 0.0
1.4659082234594934e7 -4.969040350933379e7 0.0
0.0 0.0 0.0

2.6383875857620733e6 4.405873763474829e6 0.0
4.405873763474829e6 -1.1017399543884885e7 0.0
0.0 0.0 0.0

838990.5302875484 2.2796732971195497e7 0.0
2.2796732971195497e7 -1.2324271090421302e7 0.0
0.0 0.0 0.0

2.7944829617834873e6 2.473598830482535e7 0.0
2.473598830482535e7 -9.865029715550004e6 0.0
0.0 0.0 0.0

-2.293201263950809e7 4.1192877515365385e7 0.0
4.1192877515365385e7 7.0043650510778865e6 0.0
0.0 0.0 0.0

1.4250450044012582e6 4.535808704925097e6 0.0
4.535808704925097e6 -5.718424070702875e6 0.0
0.0 0.0 0.0

-873065.3077423982 2.0255127761782363e7 0.0
2.0255127761782363e7 -2.1798983223747402e7 0.0
0.0 0.0 0.0

-5.427659004462291e6 1.9412594632287756e7 0.0
1.9412594632287756e7 2.9099307251953166e7 0.0
0.0 0.0 0.0

-9.716389543765306e6 4.1919779149659625e6 0.0
4.1919779149659625e6 3.2822284790380195e7 0.0
0.0 0.0 0.0

1.9632335736679826e6 5.47201888097453e6 0.0
5.47201888097453e6 -3.937960284123274e7 0.0
0.0 0.0 0.0

-1.0128547331105126e7 7.029506087756647e6 0.0
7.029506087756647e6 3.220302311047976e7 0.0
0.0 0.0 0.0

-9.143537796683725e6 6.880759005696942e6 0.0
6.880759005696942e6 3.87212812353883e7 0.0
0.0 0.0 0.0

-9.328360845327875e6 1.236395529401084e7 0.0
1.236395529401084e7 2.056672105059587e7 0.0
0.0 0.0 0.0

-4.424832260068813e6 2.534537603613739e7 0.0
2.534537603613739e7 1.3095544477826111e7 0.0
0.0 0.0 0.0

-2.262986672220531e6 1.4050269379539734e7 0.0
1.4050269379539734e7 1.5268571266741771e6 0.0
0.0 0.0 0.0

2.5466229145625427e7 6.216700603464726e6 0.0
6.216700603464726e6 -1.944229160412306e6 0.0
0.0 0.0 0.0

-3.681572439336212e7 3.7741284845542507e6 0.0
3.7741284845542507e6 6.21579127848959e6 0.0
0.0 0.0 0.0

2.4565933041116334e6 9.055980288918216e6 0.0
9.055980288918216e6 -1.6437919312697329e7 0.0
0.0 0.0 0.0

1.412554868657399e6 1.0725202107381603e7 0.0
1.0725202107381603e7 -3.924573191983687e7 0.0
0.0 0.0 0.0

1.832330936034795e6 8.87904122788205e6 0.0
8.87904122788205e6 -4.06153364619745e7 0.0
0.0 0.0 0.0

681508.6181869531 2.273728446869683e6 0.0
2.273728446869683e6 1.9561885261699122e6 0.0
0.0 0.0 0.0

-4.780189800649046e6 -598900.8909140433 0.0
-598900.8909140433 3.8837781210481795e6 0.0
0.0 0.0 0.0

-5.90940683841746e6 1.9355592428143013e7 0.0
1.9355592428143013e7 -3.2012944354115494e7 0.0
0.0 0.0 0.0

1.5990524419635106e6 5.890675117766627e6 0.0
5.890675117766627e6 -4.437469748426741e7 0.0
0.0 0.0 0.0

-3.1315146926298272e7 2.8265695494305518e7 0.0
2.8265695494305518e7 -1.3088077115637837e7 0.0
0.0 0.0 0.0

-4.449121930482242e6 2.230917066048134e7 0.0
2.230917066048134e7 1.8503250685913425e7 0.0
0.0 0.0 0.0

2.3806723854361633e6 3.035852737905585e7 0.0
3.035852737905585e7 -4.773564561369797e6 0.0
0.0 0.0 0.0

7.1353347350207e6 1.761895967697193e7 0.0
1.761895967697193e7 2.5211560337960634e7 0.0
0.0 0.0 0.0

1.50432355433473e7 1.2129901503928244e7 0.0
1.2129901503928244e7 1.626217110147453e6 0.0
0.0 0.0 0.0

-1.5276760483662192e7 2.8044828907099914e7 0.0
2.8044828907099914e7 -1.2681897660352902e7 0.0
0.0 0.0 0.0

-7.354136445546463e6 7.168345077927342e6 0.0
7.168345077927342e6 4.977504273171279e7 0.0
0.0 0.0 0.0

-6.300014420077358e6 2.667474504853839e7 0.0
2.667474504853839e7 9.719206883058127e6 0.0
0.0 0.0 0.0

3.5453116042894847e6 2.4892217655167043e7 0.0
2.4892217655167043e7 -8.46197987208313e6 0.0
0.0 0.0 0.0

-5.223967267315069e6 1.990677941537261e7 0.0
1.990677941537261e7 2.751669181740658e7 0.0
0.0 0.0 0.0

-8.998617604996208e6 329911.0616962048 0.0
329911.0616962048 3.2766345680341195e7 0.0
0.0 0.0 0.0

691450.8061238376 3.1566778547982726e7 0.0
3.1566778547982726e7 -3.574983306721425e6 0.0
0.0 0.0 0.0

965677.5840559024 1.105352359284081e7 0.0
1.105352359284081e7 -3.729496482510245e7 0.0
0.0 0.0 0.0

4.551674081181396e6 2.9358289484835703e7 0.0
2.9358289484835703e7 -6.700343520405857e6 0.0
0.0 0.0 0.0

2.1761805485993996e6 7.111724673779934e6 0.0
7.111724673779934e6 -4.2288982863831766e7 0.0
0.0 0.0 0.0

6.930611530895915e6 2.008383503307143e7 0.0
2.008383503307143e7 2.0952600158776943e7 0.0
0.0 0.0 0.0

-204111.70671028784 2.3521142612398423e7 0.0
2.3521142612398423e7 -1.0727932553297902e7 0.0
0.0 0.0 0.0

-1.1324162785784889e7 4.120662049930454e6 0.0
4.120662049930454e6 1.969660176962454e7 0.0
0.0 0.0 0.0

-3.2944142518100454e6 1.7967664177595112e7 0.0
1.7967664177595112e7 -1.0222406701766003e7 0.0
0.0 0.0 0.0

2.4787262441661395e6 5.130263521832919e6 0.0
5.130263521832919e6 -4.320960445344424e7 0.0
0.0 0.0 0.0

1.7246103156829726e7 2.9524850210568205e7 0.0
2.9524850210568205e7 -4.106076288261202e6 0.0
0.0 0.0 0.0

2.0031514427165147e6 8.008910978663284e6 0.0
8.008910978663284e6 -2.0026951636258036e7 0.0
0.0 0.0 0.0

-1.168814902169544e7 8.805643704247573e6 0.0
8.805643704247573e6 2.3861008881747924e7 0.0
0.0 0.0 0.0

-3.5152497258635517e6 3.1143407697468635e7 0.0
3.1143407697468635e7 3.43599186417422e6 0.0
0.0 0.0 0.0

-2.0462458170207087e6 1.4699293220530283e7 0.0
1.4699293220530283e7 -4.627797265571976e7 0.0
0.0 0.0 0.0

-5.36039319037454e6 1.799696429412032e7 0.0
1.799696429412032e7 -1.7867977159870498e7 0.0
0.0 0.0 0.0

4.94354930339631e6 1.843643564790945e7 0.0
1.843643564790945e7 1.6478498040618919e7 0.0
0.0 0.0 0.0

-2.6232119788190173e6 1.4786569801052034e7 0.0
1.4786569801052034e7 3.3365996027920195e6 0.0
0.0 0.0 0.0

-4.929798199834483e6 1.7020579096759465e7 0.0
1.7020579096759465e7 1.0672007635847459e7 0.0
0.0 0.0 0.0

3.2958689142912836e6 2.090560659772025e7 0.0
2.090560659772025e7 2.229210907757941e7 0.0
0.0 0.0 0.0

-9.685657799612155e6 1.8955696985126117e6 0.0
1.8955696985126117e6 2.860379290624534e7 0.0
0.0 0.0 0.0

2.726897432546634e6 2.3092079783517998e7 0.0
2.3092079783517998e7 5.746513544485671e6 0.0
0.0 0.0 0.0

-3.718525766330505e6 2.4633571498909228e7 0.0
2.4633571498909228e7 1.3845978998792604e7 0.0
0.0 0.0 0.0

1.8317369184181578e6 8.2203691765139e6 0.0
8.2203691765139e6 -1.7753420117741007e7 0.0
0.0 0.0 0.0

-1.0783093001246972e7 5.49867339905735e6 0.0
5.49867339905735e6 3.0157652605309423e7 0.0
0.0 0.0 0.0

-7.666358577641415e6 2.3993930959505204e7 0.0
2.3993930959505204e7 -9.60432357579897e6 0.0
0.0 0.0 0.0

-5.669189981267117e6 2.039135566320823e7 0.0
2.039135566320823e7 2.601899911297776e7 0.0
0.0 0.0 0.0

480830.8096767785 2.1840515085637204e7 0.0
2.1840515085637204e7 1.8244752667796392e7 0.0
0.0 0.0 0.0

-1.0220762596408166e7 9.803394002209332e6 0.0
9.803394002209332e6 3.154508728516063e7 0.0
0.0 0.0 0.0

2.804816531314591e6 2.4349358566977557e7 0.0
2.4349358566977557e7 -1.0909877666403085e7 0.0
0.0 0.0 0.0

-6.498916804422047e6 3.0128657440696694e7 0.0
3.0128657440696694e7 7.332887498593541e6 0.0
0.0 0.0 0.0

-7.5285263160150405e6 1.1062129344066158e7 0.0
1.1062129344066158e7 4.471449920193249e7 0.0
0.0 0.0 0.0

-8.939262221770482e6 1.434771619564795e7 0.0
1.434771619564795e7 1.7103863340069458e7 0.0
0.0 0.0 0.0

-8.725809991553085e6 4.651727020422511e6 0.0
4.651727020422511e6 4.367134617276024e7 0.0
0.0 0.0 0.0

491371.14778204635 1.9181287559778597e7 0.0
1.9181287559778597e7 -2.0646723547032017e7 0.0
0.0 0.0 0.0

-5.663161381789548e6 2.6863000573023032e7 0.0
2.6863000573023032e7 1.0565268946764167e7 0.0
0.0 0.0 0.0

-3.0590193375264453e6 2.2396707936827328e7 0.0
2.2396707936827328e7 -1.450654583351789e6 0.0
0.0 0.0 0.0

2.658049314385061e6 9.19101186936594e6 0.0
9.19101186936594e6 -2.1819404400979545e7 0.0
0.0 0.0 0.0

-8.766873903408663e6 1.128270575330917e6 0.0
1.128270575330917e6 3.640379328819054e7 0.0
0.0 0.0 0.0

-1.3170781616728753e6 1.729887516975063e7 0.0
1.729887516975063e7 5.0161004822679505e7 0.0
0.0 0.0 0.0

-5.385178336327372e6 1.3791881104784396e7 0.0
1.3791881104784396e7 4.844354508984712e7 0.0
0.0 0.0 0.0

2.589459621923473e6 2.1547863104608808e7 0.0
2.1547863104608808e7 1.2480344645187145e7 0.0
0.0 0.0 0.0

-1.1020593741135972e7 8.318909770514613e6 0.0
8.318909770514613e6 2.954580623439038e7 0.0
0.0 0.0 0.0

-3.9300418629951887e6 1.6277950767567946e7 0.0
1.6277950767567946e7 1.2045760839595178e7 0.0
0.0 0.0 0.0

-756571.2614577913 2.2277050009478427e7 0.0
2.2277050009478427e7 -6.576002969733521e6 0.0
0.0 0.0 0.0

361637.822964821 1.726690724352979e7 0.0
1.726690724352979e7 -1.7658120630628657e7 0.0
0.0 0.0 0.0

-3.8540091071850127e6 2.4641640812359832e7 0.0
2.4641640812359832e7 1.505397464199299e7 0.0
0.0 0.0 0.0

-5.024834848402651e6 3.4741417230493136e7 0.0
3.4741417230493136e7 4.451109423399667e6 0.0
0.0 0.0 0.0

-8.020082271970717e6 1.4646689304196356e7 0.0
1.4646689304196356e7 3.697935773683508e7 0.0
0.0 0.0 0.0

1.0239688489152672e7 1.8118522222165275e7 0.0
1.8118522222165275e7 3.683070713735521e7 0.0
0.0 0.0 0.0

-23440.30344859697 2.2241590185403336e7 0.0
2.2241590185403336e7 -9.74036720239231e6 0.0
0.0 0.0 0.0

2.016643376029672e6 1.2194831925791569e7 0.0
1.2194831925791569e7 -2.8340312897570778e7 0.0
0.0 0.0 0.0

2.121141831189802e6 2.958551419321015e6 0.0
2.958551419321015e6 -4.658745612657684e7 0.0
0.0 0.0 0.0

-8.561725115648357e6 1.3117639804363726e6 0.0
1.3117639804363726e6 4.072301006485716e7 0.0
0.0 0.0 0.0

-3.364501231601853e6 2.457460946522331e7 0.0
2.457460946522331e7 1.3764049388644245e7 0.0
0.0 0.0 0.0

-559335.5980303809 1.785151059610068e7 0.0
1.785151059610068e7 1.7607976558507305e7 0.0
0.0 0.0 0.0

2.7002310700332783e6 1.7808392569003247e7 0.0
1.7808392569003247e7 7.166680401772346e7 0.0
0.0 0.0 0.0

100716.06344279181 1.6384579537687233e7 0.0
1.6384579537687233e7 -1.6274861233756542e7 0.0
0.0 0.0 0.0

8.12353554244235e6 1.8770783447929345e7 0.0
1.8770783447929345e7 2.707845227506396e7 0.0
0.0 0.0 0.0

-1.000582903562965e7 1.572861112347058e6 0.0
1.572861112347058e6 3.0346176734099507e7 0.0
0.0 0.0 0.0

-2.44816568374581e7 2.3322954183037234e6 0.0
2.3322954183037234e6 7.750099053136598e6 0.0
0.0 0.0 0.0

1.4675712610956691e6 1.0324830214685384e7 0.0
1.0324830214685384e7 -3.394247278290523e7 0.0
0.0 0.0 0.0

-1.1336772851045895e7 6.310211633383117e6 0.0
6.310211633383117e6 2.6071260718250744e7 0.0
0.0 0.0 0.0

622242.7288215384 1.1875259937082209e7 0.0
1.1875259937082209e7 -3.771018896025064e7 0.0
0.0 0.0 0.0

-4.732894349517357e6 1.796389420986332e7 0.0
1.796389420986332e7 3.672997730570206e7 0.0
0.0 0.0 0.0

3.252754152805591e6 3.3612799353783657e6 0.0
3.3612799353783657e6 -2.9020096530818637e7 0.0
0.0 0.0 0.0

1.414607120580203e7 3.061955401127231e7 0.0
3.061955401127231e7 -4.883400566268116e6 0.0
0.0 0.0 0.0

-2.0347732542393352e6 1.608414518320541e7 0.0
1.608414518320541e7 -94831.08995342965 0.0
0.0 0.0 0.0

820581.5621689633 7.101852780084537e6 0.0
7.101852780084537e6 -4.063805354627637e6 0.0
0.0 0.0 0.0

3.620154178190113e7 6.429984484401889e6 0.0
6.429984484401889e6 -1.4511779382935837e6 0.0
0.0 0.0 0.0

-3.1003215461089127e6 1.8467981962301243e7 0.0
1.8467981962301243e7 3.803178936826575e7 0.0
0.0 0.0 0.0

-1.3562975982402503e6 1.166289675768963e7 0.0
1.166289675768963e7 -6.406261535843225e6 0.0
0.0 0.0 0.0

-9.376279616578292e6 6.097169412945124e6 0.0
6.097169412945124e6 4.101981873349642e7 0.0
0.0 0.0 0.0

1.7396164388692826e6 5.765928626751207e6 0.0
5.765928626751207e6 -1.0797075898750203e7 0.0
0.0 0.0 0.0

-6.703497323709443e6 2.3557346950177494e7 0.0
2.3557346950177494e7 -7.115507983683324e6 0.0
0.0 0.0 0.0

-3.4695295688204747e6 2.2413594927189615e7 0.0
2.2413594927189615e7 1.8598982629398316e7 0.0
0.0 0.0 0.0

-1.0783227887665065e7 1.0333220565455513e7 0.0
1.0333220565455513e7 2.5880925287606437e7 0.0
0.0 0.0 0.0

1.671932397163773e6 8.76782735702157e6 0.0
8.76782735702157e6 -3.5059468262279004e7 0.0
0.0 0.0 0.0

-7.491612594618291e6 1.7725705412574176e7 0.0
1.7725705412574176e7 -4.382432468059509e7 0.0
0.0 0.0 0.0

-8.392266463059416e6 7.66203157513436e6 0.0
7.66203157513436e6 9.907745612315947e6 0.0
0.0 0.0 0.0

2.829499918039905e6 3.617613823945695e6 0.0
3.617613823945695e6 -2.6439374228787296e7 0.0
0.0 0.0 0.0

-93618.39227231592 2.0071311710839875e7 0.0
2.0071311710839875e7 -1.4977176050089e7 0.0
0.0 0.0 0.0

2.3099041024030242e7 2.465043155255827e7 0.0
2.465043155255827e7 8.946240395625781e6 0.0
0.0 0.0 0.0

2.0948003962087221e6 6.213436502467089e6 0.0
6.213436502467089e6 -4.715731651528128e7 0.0
0.0 0.0 0.0

-1.3362115070167616e7 569240.8896339381 0.0
569240.8896339381 6.66460785243135e6 0.0
0.0 0.0 0.0

-4.919593008065216e6 2.0607092327157483e7 0.0
2.0607092327157483e7 2.3989340424484987e7 0.0
0.0 0.0 0.0

-2.4475893294157004e6 1.0081653456891086e7 0.0
1.0081653456891086e7 3.3663004595437637e6 0.0
0.0 0.0 0.0

-1.0641372585461551e7 9.407211996589892e6 0.0
9.407211996589892e6 2.8297774420497727e7 0.0
0.0 0.0 0.0

1.6057834294225909e6 6.690026349588478e6 0.0
6.690026349588478e6 -5.454085854782032e7 0.0
0.0 0.0 0.0

1.1791324173092036e7 1.958736653226167e7 0.0
1.958736653226167e7 3.930441451156888e7 0.0
0.0 0.0 0.0

1.1492224283823326e7 2.5535077371209238e7 0.0
2.5535077371209238e7 1.3787848994913872e7 0.0
0.0 0.0 0.0

-6.3528615084688645e6 1.95115475096029e7 0.0
1.95115475096029e7 -2.597906505429547e7 0.0
0.0 0.0 0.0

-264570.75466671214 1.4992649068979917e7 0.0
1.4992649068979917e7 -1.3696584424694246e7 0.0
0.0 0.0 0.0

-3.224469370732298e6 2.3241267869544487e7 0.0
2.3241267869544487e7 1.7208501190206926e7 0.0
0.0 0.0 0.0

1.2044374412795745e7 2.3256424089467213e7 0.0
2.3256424089467213e7 1.2330506781590204e6 0.0
0.0 0.0 0.0

1.2039418559879623e6 1.1786432240592951e7 0.0
1.1786432240592951e7 -3.2761465933505103e7 0.0
0.0 0.0 0.0

2.043847574190608e6 3.390178843649415e7 0.0
3.390178843649415e7 -3.397901872461758e6 0.0
0.0 0.0 0.0

86647.16342704766 2.013958803370353e7 0.0
2.013958803370353e7 4.622458756982411e6 0.0
0.0 0.0 0.0

-7.59350091917806e7 6.994343649762509e6 0.0
6.994343649762509e6 3.2669697477628067e6 0.0
0.0 0.0 0.0

6.463918413224129e7 8.002915830979304e6 0.0
8.002915830979304e6 -124629.3643896468 0.0
0.0 0.0 0.0

5.327928934743349e6 2.330602845690952e7 0.0
2.330602845690952e7 1.0145644227740075e7 0.0
0.0 0.0 0.0

-4.402463426967027e6 9.138806916156888e6 0.0
9.138806916156888e6 2.9804270557886913e7 0.0
0.0 0.0 0.0

1.6591517813799074e6 2.141011930056237e7 0.0
2.141011930056237e7 1.8610981435614567e7 0.0
0.0 0.0 0.0

3.319139876164119e6 2.7960882090930495e7 0.0
2.7960882090930495e7 -8.048972212176242e6 0.0
0.0 0.0 0.0

5.614699966921142e6 2.139570754033947e7 0.0
2.139570754033947e7 1.8715667201108243e7 0.0
0.0 0.0 0.0

-1.0857097925404176e7 9.328853785783479e6 0.0
9.328853785783479e6 2.5065154930688526e7 0.0
0.0 0.0 0.0

-2.537187684325523e6 2.2947160504109528e7 0.0
2.2947160504109528e7 1.1843200734331325e7 0.0
0.0 0.0 0.0

-5.240106713188744e7 3.890938846973544e7 0.0
3.890938846973544e7 -1.2384023926583827e7 0.0
0.0 0.0 0.0

2.4230626837557033e6 4.24044158329601e6 0.0
4.24044158329601e6 -3.2981715302817397e7 0.0
0.0 0.0 0.0

-3.864767721589945e6 2.266450906336871e7 0.0
2.266450906336871e7 -4.1699845284774695e6 0.0
0.0 0.0 0.0

1.110362452990147e7 1.836048369259651e7 0.0
1.836048369259651e7 4.151198607479314e7 0.0
0.0 0.0 0.0

-7.803154129490035e6 1.79740006826433e7 0.0
1.79740006826433e7 -2.6010513763115812e7 0.0
0.0 0.0 0.0

7.059171992367246e6 1.8577480138716303e7 0.0
1.8577480138716303e7 2.3530574172398362e7 0.0
0.0 0.0 0.0

-1.6136673929859232e6 1.501987676699594e7 0.0
1.501987676699594e7 -4.3471862637875095e7 0.0
0.0 0.0 0.0

-9.546387142576493e6 2.9194210728699462e6 0.0
2.9194210728699462e6 3.2057094328432634e7 0.0
0.0 0.0 0.0

-1.9485092390931897e7 3.334060339737322e7 0.0
3.334060339737322e7 5.880972558755446e6 0.0
0.0 0.0 0.0

1.9275797855757307e6 8.633070730082726e6 0.0
8.633070730082726e6 -2.0980596577362716e7 0.0
0.0 0.0 0.0

-3.3118590287570152e6 1.887880307733922e7 0.0
1.887880307733922e7 3.5850979441535555e7 0.0
0.0 0.0 0.0

-1.1695452922000617e7 6.619106973614838e6 0.0
6.619106973614838e6 2.165652953060554e7 0.0
0.0 0.0 0.0

-5.596079281103734e6 3.3761870197995335e7 0.0
3.3761870197995335e7 5.114144357626711e6 0.0
0.0 0.0 0.0

-1.3100223442386772e7 3.830341881375966e7 0.0
3.830341881375966e7 5.942531582466094e6 0.0
0.0 0.0 0.0

-1.3166150729054283e7 531397.4807233444 0.0
531397.4807233444 6.705418089803178e6 0.0
0.0 0.0 0.0

-3.5387497088529477e6 1.915710807140662e7 0.0
1.915710807140662e7 -1.2457955827791933e7 0.0
0.0 0.0 0.0

2.599375560607589e6 2.726678980393287e7 0.0
2.726678980393287e7 -8.31050377546337e6 0.0
0.0 0.0 0.0

-1.0122496355848365e7 3.51541593469348e6 0.0
3.51541593469348e6 1.2861661067542663e7 0.0
0.0 0.0 0.0

1.1348238320543569e7 3.1241503261841215e7 0.0
3.1241503261841215e7 -5.380813983832823e6 0.0
0.0 0.0 0.0

-1.175817691844607e7 7.764513429424558e6 0.0
7.764513429424558e6 2.2843104482212808e7 0.0
0.0 0.0 0.0

2.1027473488077447e6 4.708581557697934e6 0.0
4.708581557697934e6 -3.8675696972777456e7 0.0
0.0 0.0 0.0

2.2245128226985503e6 5.722495923650375e6 0.0
5.722495923650375e6 -3.448666726191138e7 0.0
0.0 0.0 0.0

560815.663513476 1.4682320443002364e7 0.0
1.4682320443002364e7 -1.8018837072450433e7 0.0
0.0 0.0 0.0

2.331593065409926e6 2.4198141223735277e7 0.0
2.4198141223735277e7 -1.1900757000519719e7 0.0
0.0 0.0 0.0

1.6086562490789108e6 5.935242968025888e6 0.0
5.935242968025888e6 -5.788474168813052e7 0.0
0.0 0.0 0.0

-7.462560243485224e6 2.4852583177371662e7 0.0
2.4852583177371662e7 -1.425531723532725e7 0.0
0.0 0.0 0.0

506577.8015304534 1.6879608761584338e7 0.0
1.6879608761584338e7 -2.5285307633741528e7 0.0
0.0 0.0 0.0

-6.67795459934679e6 1.934153941017469e7 0.0
1.934153941017469e7 2.7534054888420798e7 0.0
0.0 0.0 0.0

-6.936908409806715e6 2.449782852070753e7 0.0
2.449782852070753e7 -1.2963816283483751e7 0.0
0.0 0.0 0.0

1.9517762552154101e6 1.1388092952974306e7 0.0
1.1388092952974306e7 -3.213794283743851e7 0.0
0.0 0.0 0.0

-3.5295134568130024e7 2.642036424365239e7 0.0
2.642036424365239e7 3.3935090745749865e6 0.0
0.0 0.0 0.0

2.0812102227663733e6 3.823151123357572e6 0.0
3.823151123357572e6 -4.046967029430775e7 0.0
0.0 0.0 0.0

2.8386172875725813e6 5.881024230755938e6 0.0
5.881024230755938e6 -3.440144074990871e7 0.0
0.0 0.0 0.0

1.1764183720405726e6 2.1987517854113776e7 0.0
2.1987517854113776e7 -1.5386133537358435e7 0.0
0.0 0.0 0.0

-1.7623333007581547e7 775468.8830854042 0.0
775468.8830854042 7.8454668450607555e6 0.0
0.0 0.0 0.0

1.3980540490290662e6 1.1407716985108173e7 0.0
1.1407716985108173e7 -1.2581583382057048e7 0.0
0.0 0.0 0.0

588671.3028329974 1.9216402658167027e7 0.0
1.9216402658167027e7 2.245479128026534e7 0.0
0.0 0.0 0.0

-4.0862220126654087e6 3.2343279166931007e7 0.0
3.2343279166931007e7 5.06031178376485e6 0.0
0.0 0.0 0.0

-6.764466576700341e6 3.43518904943882e7 0.0
3.43518904943882e7 5.341468852656834e6 0.0
0.0 0.0 0.0

-1.1611304492027478e7 1.0443939324483784e7 0.0
1.0443939324483784e7 2.29946786675495e7 0.0
0.0 0.0 0.0

-846211.021238219 1.473556924562896e7 0.0
1.473556924562896e7 6.699599661116866e7 0.0
0.0 0.0 0.0

-2.6685486499012504e6 3.304635422786297e7 0.0
3.304635422786297e7 3.3838013223678106e6 0.0
0.0 0.0 0.0

-4.816046855954589e6 2.3068223516418267e7 0.0
2.3068223516418267e7 -1.715770580146035e6 0.0
0.0 0.0 0.0

-75231.78859433136 2.2009358391561102e7 0.0
2.2009358391561102e7 -5.060775878067425e6 0.0
0.0 0.0 0.0

4.20012893544983e7 2.680444162211748e7 0.0
2.680444162211748e7 1.663114373487233e7 0.0
0.0 0.0 0.0

-1.051859476603382e7 1.170867171688587e7 0.0
1.170867171688587e7 2.4845249965754833e7 0.0
0.0 0.0 0.0

2.8457292550216634e6 4.1266510356548694e6 0.0
4.1266510356548694e6 -3.7816284391160354e7 0.0
0.0 0.0 0.0

649121.3281631637 2.0828985860158578e7 0.0
2.0828985860158578e7 -1.3777209350644449e7 0.0
0.0 0.0 0.0

-2.4839851702092914e6 1.7455654951913305e7 0.0
1.7455654951913305e7 3.2265408407503744e6 0.0
0.0 0.0 0.0

-1.3916455772885133e7 2.104343456069342e7 0.0
2.104343456069342e7 244298.90974102914 0.0
0.0 0.0 0.0

-8.672212268652048e6 2.7203244407676472e6 0.0
2.7203244407676472e6 3.901241898262125e7 0.0
0.0 0.0 0.0

-8.416075621404855e7 5.1040412243486464e7 0.0
5.1040412243486464e7 -1.973786228346484e7 0.0
0.0 0.0 0.0

-1.1722855345960513e7 1.841135036558221e7 0.0
1.841135036558221e7 -3.907618546866199e7 0.0
0.0 0.0 0.0

1.046722502870602e7 1.9211935328874994e7 0.0
1.9211935328874994e7 3.48907510897226e7 0.0
0.0 0.0 0.0

474152.7048983872 1.570412825822522e7 0.0
1.570412825822522e7 -2.872251692258398e7 0.0
0.0 0.0 0.0

-1.5465877173950339e7 2.6070789798244264e7 0.0
2.6070789798244264e7 -7.4137237666847445e6 0.0
0.0 0.0 0.0

2.5257796264107954e6 9.45655698747574e6 0.0
9.45655698747574e6 -1.963391746675094e7 0.0
0.0 0.0 0.0

2.219791954654271e6 9.859089172202224e6 0.0
9.859089172202224e6 -3.321349209852993e7 0.0
0.0 0.0 0.0

-3.887443485010391e6 2.173148311199578e7 0.0
2.173148311199578e7 2.048732984322101e7 0.0
0.0 0.0 0.0

1.169940504410047e6 1.249889182793276e7 0.0
1.249889182793276e7 -3.104126868040239e7 0.0
0.0 0.0 0.0

-4.684486437304594e6 3.3066178623059716e7 0.0
3.3066178623059716e7 5.091435833112606e6 0.0
0.0 0.0 0.0

-1.008449990920622e7 8.174024268638529e6 0.0
8.174024268638529e6 3.594313849520021e7 0.0
0.0 0.0 0.0

-9.150109648398696e6 677228.5107607369 0.0
677228.5107607369 3.0214183820864685e7 0.0
0.0 0.0 0.0

1.8687525298074167e6 7.988641713489477e6 0.0
7.988641713489477e6 -3.433330640023539e7 0.0
0.0 0.0 0.0

-1.44572592442078e7 2.528380778279699e7 0.0
2.528380778279699e7 -1.121302914799111e7 0.0
0.0 0.0 0.0

6.573445198647863e6 3.682006449399405e7 0.0
3.682006449399405e7 -4.420456068220146e6 0.0
0.0 0.0 0.0

-5.907193939889034e6 1.9737316263509944e7 0.0
1.9737316263509944e7 2.5351386222610123e7 0.0
0.0 0.0 0.0

1.9442543666144852e6 6.32069976636194e6 0.0
6.32069976636194e6 -3.7740634359310664e7 0.0
0.0 0.0 0.0

1.6886642120361105e6 6.60460917821388e6 0.0
6.60460917821388e6 -5.057104946647096e7 0.0
0.0 0.0 0.0

-4.0394107303399853e6 1.3632086027962064e7 0.0
1.3632086027962064e7 5.489917828629313e7 0.0
0.0 0.0 0.0

-9.56769191498713e6 8.402028361736339e6 0.0
8.402028361736339e6 3.6755125311558805e7 0.0
0.0 0.0 0.0

9.214104662902668e6 3.1399856298578046e7 0.0
3.1399856298578046e7 -5.662920354763761e6 0.0
0.0 0.0 0.0

-1.07276733957189e6 2.532918189530379e7 0.0
2.532918189530379e7 -2.395912501132202e6 0.0
0.0 0.0 0.0

-8.641523163933292e6 6.271225102674215e6 0.0
6.271225102674215e6 4.207911599990892e7 0.0
0.0 0.0 0.0

2.6547389764145734e6 4.9969160562291695e6 0.0
4.9969160562291695e6 -2.0684950349475224e7 0.0
0.0 0.0 0.0

-2.383239888787191e6 2.5315339766500037e7 0.0
2.5315339766500037e7 977942.8289016142 0.0
0.0 0.0 0.0

-2.071114167498839e7 2.6147186179855395e7 0.0
2.6147186179855395e7 -9.586665337021627e6 0.0
0.0 0.0 0.0

-1.0224169958298229e7 1.2503461210182138e7 0.0
1.2503461210182138e7 1.7617969404113214e7 0.0
0.0 0.0 0.0

2.677606287397051e6 5.755833088242271e6 0.0
5.755833088242271e6 -3.689336179363994e7 0.0
0.0 0.0 0.0

1.2566385220884047e6 1.2528215458129201e7 0.0
1.2528215458129201e7 -2.8882791710181285e7 0.0
0.0 0.0 0.0

-1.0940472075027151e7 2.1932366095688366e6 0.0
2.1932366095688366e6 2.069808332045456e7 0.0
0.0 0.0 0.0

-1.0206069591353467e7 1.1352702934920471e7 0.0
1.1352702934920471e7 3.0106622753830135e7 0.0
0.0 0.0 0.0

-1.4409426788330302e6 1.5293140248542637e7 0.0
1.5293140248542637e7 -4.045360681526836e7 0.0
0.0 0.0 0.0

2.9505403219919056e6 5.148472455175101e6 0.0
5.148472455175101e6 -3.36388113325636e7 0.0
0.0 0.0 0.0

-1.6558425517073302e6 2.5082258464387633e7 0.0
2.5082258464387633e7 -4.2727996050416725e6 0.0
0.0 0.0 0.0

2.491434214369172e6 8.24815209293036e6 0.0
8.24815209293036e6 -3.424224779388559e7 0.0
0.0 0.0 0.0

-1.0302726770507596e7 4.005306799263112e6 0.0
4.005306799263112e6 2.317570250209249e7 0.0
0.0 0.0 0.0

-1.6925942590582624e7 2.0141117928055707e7 0.0
2.0141117928055707e7 -5.641981196406291e7 0.0
0.0 0.0 0.0

1.5270726353317464e7 2.0939739133978114e7 0.0
2.0939739133978114e7 5.090242365625152e7 0.0
0.0 0.0 0.0

996302.779384353 2.231546175184918e7 0.0
2.231546175184918e7 1.5138977883307482e6 0.0
0.0 0.0 0.0

-2.783129396598153e7 2.961590433453107e6 0.0
2.961590433453107e6 6.934255271397844e6 0.0
0.0 0.0 0.0

-9.652906290584331e6 804205.1431722968 0.0
804205.1431722968 2.3171095280247353e7 0.0
0.0 0.0 0.0

6.844885572673753e6 2.1088972729934968e7 0.0
2.1088972729934968e7 2.281628207175673e7 0.0
0.0 0.0 0.0

-6.237668364040555e6 2.0316801228888247e7 0.0
2.0316801228888247e7 -2.0792224986233633e7 0.0
0.0 0.0 0.0

-141236.10594907776 1.4983631238058014e7 0.0
1.4983631238058014e7 7.310547991365892e7 0.0
0.0 0.0 0.0

1.9167544631404616e6 7.183423698615604e6 0.0
7.183423698615604e6 -3.603985060876329e7 0.0
0.0 0.0 0.0

2.312797668770186e6 2.6477980876620222e7 0.0
2.6477980876620222e7 -9.549710376472445e6 0.0
0.0 0.0 0.0

-9.024197030845182e6 1.8093969766289964e7 0.0
1.8093969766289964e7 -4.245472826751504e7 0.0
0.0 0.0 0.0

-4.141170307735203e6 3.1201282629030954e7 0.0
3.1201282629030954e7 4.467511638381388e6 0.0
0.0 0.0 0.0

-4.657179916971e6 2.482373403477334e7 0.0
2.482373403477334e7 8.964985605697384e6 0.0
0.0 0.0 0.0

1.4785722832526336e6 3.1510981232051626e7 0.0
3.1510981232051626e7 -4.362723479220609e6 0.0
0.0 0.0 0.0

-1.5279487875464994e7 1.833313839225914e7 0.0
1.833313839225914e7 -5.927226387819238e7 0.0
0.0 0.0 0.0

7.439232950724399e6 3.1334318875707205e7 0.0
3.1334318875707205e7 -5.83901889853256e6 0.0
0.0 0.0 0.0

-5.362812396585075e6 1.828916672611074e7 0.0
1.828916672611074e7 3.451197375104396e7 0.0
0.0 0.0 0.0

1.6356816688341442e6 1.0035040124966502e7 0.0
1.0035040124966502e7 -2.056022326789627e7 0.0
0.0 0.0 0.0

2.0690861572034229e6 6.437553258324199e6 0.0
6.437553258324199e6 -3.5264247204609126e7 0.0
0.0 0.0 0.0

2.4316276829671944e6 2.5236299526637662e7 0.0
2.5236299526637662e7 -1.0856068515515666e7 0.0
0.0 0.0 0.0

-2.0633070953906102e6 1.7449932270841096e7 0.0
1.7449932270841096e7 -6.638525489131521e6 0.0
0.0 0.0 0.0

1.017037178641906e6 1.017327909810174e7 0.0
1.017327909810174e7 -3.9381422356326416e7 0.0
0.0 0.0 0.0

-3.4024713856579843e6 2.9629970854166258e7 0.0
2.9629970854166258e7 5.492896331296258e6 0.0
0.0 0.0 0.0

-2.0421348093539844e6 1.9783618225602366e7 0.0
1.9783618225602366e7 291476.24606453255 0.0
0.0 0.0 0.0

763010.6254583579 1.714163001208073e7 0.0
1.714163001208073e7 -1.5129481910380937e7 0.0
0.0 0.0 0.0

437257.7387327496 1.3437291322343877e7 0.0
1.3437291322343877e7 -3.7883741303280905e7 0.0
0.0 0.0 0.0

4.816791749209218e6 3.065347924964025e7 0.0
3.065347924964025e7 -6.168033462388396e6 0.0
0.0 0.0 0.0

558256.9660862666 1.939305261582065e7 0.0
1.939305261582065e7 -1.3882265397836972e7 0.0
0.0 0.0 0.0

-2.312105229207792e6 1.8220031546651203e7 0.0
1.8220031546651203e7 -6.484145914432967e6 0.0
0.0 0.0 0.0

3.1790677026120503e7 5.9174071115822075e6 0.0
5.9174071115822075e6 -1.9122585175578892e6 0.0
0.0 0.0 0.0

-2.443512163517688e6 2.0836859270327203e7 0.0
2.0836859270327203e7 8.708531476662239e6 0.0
0.0 0.0 0.0

-9.516638110813629e6 1.1599874521977762e7 0.0
1.1599874521977762e7 1.941483445246168e7 0.0
0.0 0.0 0.0

-9.17777663285393e6 2.5050426999684293e6 0.0
2.5050426999684293e6 3.4605533276137665e7 0.0
0.0 0.0 0.0

3.1803494567782916e6 3.6787877015507687e6 0.0
3.6787877015507687e6 -3.2068841426534623e7 0.0
0.0 0.0 0.0

2.8066511176648512e6 6.590337098882423e6 0.0
6.590337098882423e6 -2.3567077173166245e7 0.0
0.0 0.0 0.0

3.0582353100557793e6 5.284258335885167e6 0.0
5.284258335885167e6 -3.1189065124379903e7 0.0
0.0 0.0 0.0

-5.426836635216947e6 1.9954995603056006e7 0.0
1.9954995603056006e7 -2.439333993097157e7 0.0
0.0 0.0 0.0

6.005925828091387e6 3.105538623073928e7 0.0
3.105538623073928e7 -5.99874870811112e6 0.0
0.0 0.0 0.0

-5.468206911266567e6 1.8597826933482163e7 0.0
1.8597826933482163e7 3.2193440219830852e7 0.0
0.0 0.0 0.0

-3.161351179598573e6 2.1455358174385335e7 0.0
2.1455358174385335e7 7.623076892320011e6 0.0
0.0 0.0 0.0

2.32891234635148e6 5.89187441594669e6 0.0
5.89187441594669e6 -3.2189059619775698e7 0.0
0.0 0.0 0.0

-1.1594991516384589e7 5.3673428042947445e6 0.0
5.3673428042947445e6 2.0736038596114673e7 0.0
0.0 0.0 0.0

-5.978562620338831e6 1.9853572176863544e7 0.0
1.9853572176863544e7 2.7405310120156877e7 0.0
0.0 0.0 0.0

1.0086582903648736e6 2.1602469718916863e7 0.0
2.1602469718916863e7 -1.6604263843154307e7 0.0
0.0 0.0 0.0

1.4774041088504647e6 2.276013983749946e7 0.0
2.276013983749946e7 -5.91249878357609e6 0.0
0.0 0.0 0.0

-3.8178341639686693e6 3.0780723916140724e7 0.0
3.0780723916140724e7 5.916630750178901e6 0.0
0.0 0.0 0.0

1.0955121237732107e6 1.673744821651089e7 0.0
1.673744821651089e7 -2.5088362088632192e7 0.0
0.0 0.0 0.0

2.7871299036206584e6 6.738510654731764e6 0.0
6.738510654731764e6 -3.2823767935762938e7 0.0
0.0 0.0 0.0

2.2111785632555373e6 6.578553937246305e6 0.0
6.578553937246305e6 -3.2912064154715274e7 0.0
0.0 0.0 0.0

1.504367278813499e6 9.000141271147083e6 0.0
9.000141271147083e6 -1.6499712152796581e7 0.0
0.0 0.0 0.0

2.0358707944979034e6 7.259182024210386e6 0.0
7.259182024210386e6 -3.3662959612819865e7 0.0
0.0 0.0 0.0

3.201332442567475e6 5.817220179296244e6 0.0
5.817220179296244e6 -2.7256018205781586e7 0.0
0.0 0.0 0.0

-8.869486233251793e6 3.702682948540754e7 0.0
3.702682948540754e7 5.467993339937903e6 0.0
0.0 0.0 0.0

9.343042106570628e6 3.3130664943556618e7 0.0
3.3130664943556618e7 -5.544344471424069e6 0.0
0.0 0.0 0.0

-5.342345310014374e6 2.5848498385343466e7 0.0
2.5848498385343466e7 8.943650261866303e6 0.0
0.0 0.0 0.0

2.3342264552428313e6 6.462057629306056e6 0.0
6.462057629306056e6 -2.8295206209433526e7 0.0
0.0 0.0 0.0

-1.6330795386379217e6 2.16314209634746e7 0.0
2.16314209634746e7 -7.598844483910581e6 0.0
0.0 0.0 0.0

-1.4208366914673229e6 1.896621748871011e7 0.0
1.896621748871011e7 -297637.8492900328 0.0
0.0 0.0 0.0

-2.221644218114173e7 2.265726120762698e7 0.0
2.265726120762698e7 -7.405482312284347e7 0.0
0.0 0.0 0.0

2.116222004138514e7 2.4277658373144895e7 0.0
2.4277658373144895e7 7.054075173409636e7 0.0
0.0 0.0 0.0

1.443905964788021e7 2.3653942462830283e7 0.0
2.3653942462830283e7 1.414359505601318e6 0.0
0.0 0.0 0.0

2.174610431336931e7 2.5610001702022165e7 0.0
2.5610001702022165e7 1.5018698970708298e6 0.0
0.0 0.0 0.0

-144266.17133277282 7.180252035440638e6 0.0
7.180252035440638e6 -6.377877620993402e7 0.0
0.0 0.0 0.0

1.0219900620740559e6 1.9752050277090933e7 0.0
1.9752050277090933e7 -1.9063957279854454e7 0.0
0.0 0.0 0.0

129250.98531854711 2.1997038142523423e7 0.0
2.1997038142523423e7 1.5554544589261733e7 0.0
0.0 0.0 0.0

-9.601111146130038e6 7.700785525030613e6 0.0
7.700785525030613e6 3.886854144473542e7 0.0
0.0 0.0 0.0

-4.513926622896459e6 1.74806057499438e7 0.0
1.74806057499438e7 3.917671532749041e7 0.0
0.0 0.0 0.0

-3.1554486307749064e6 2.3806598262848727e7 0.0
2.3806598262848727e7 8.86020626282274e6 0.0
0.0 0.0 0.0

-1.0093027450140658e6 1.6958403537050605e7 0.0
1.6958403537050605e7 -5.846975584625588e6 0.0
0.0 0.0 0.0

-1.5626088334890144e7 2.8483936944454916e7 0.0
2.8483936944454916e7 -1.3401831522668244e7 0.0
0.0 0.0 0.0

-3.184036711188793e6 2.398594438765809e7 0.0
2.398594438765809e7 1.5506678394179517e7 0.0
0.0 0.0 0.0

-7.234882866506588e6 1.5448496295967901e7 0.0
1.5448496295967901e7 1.5391972037057701e7 0.0
0.0 0.0 0.0

-2.4493977608909095e6 2.4796141122491036e7 0.0
2.4796141122491036e7 5.854638483863195e6 0.0
0.0 0.0 0.0

1.9924784724269938e6 7.19288517020798e6 0.0
7.19288517020798e6 -4.5012707415249355e7 0.0
0.0 0.0 0.0

2.949755538041464e6 7.769596976352718e6 0.0
7.769596976352718e6 -2.2212587615677968e7 0.0
0.0 0.0 0.0

530323.3477765229 2.2093482823975917e7 0.0
2.2093482823975917e7 -1.4667345291902605e7 0.0
0.0 0.0 0.0

1.1857421580904853e6 1.3307925122081567e7 0.0
1.3307925122081567e7 -2.7395869739470195e7 0.0
0.0 0.0 0.0

-7.280796332291845e6 9.916674156210594e6 0.0
9.916674156210594e6 4.73204835209434e7 0.0
0.0 0.0 0.0

-8.960846975005653e6 2.668746119376627e6 0.0
2.668746119376627e6 1.132177670394345e7 0.0
0.0 0.0 0.0

-5.094474324418727e6 8.791530160793984e6 0.0
8.791530160793984e6 6.015785983888696e7 0.0
0.0 0.0 0.0

-53005.9018440675 2.1098682599272456e7 0.0
2.1098682599272456e7 -1.420155373919846e7 0.0
0.0 0.0 0.0

-4.779273267788755e6 2.621738705388279e7 0.0
2.621738705388279e7 1.0265133584782474e7 0.0
0.0 0.0 0.0

-8.103914512429017e6 1.424242560626422e7 0.0
1.424242560626422e7 1.9947699334701385e7 0.0
0.0 0.0 0.0

4.29233443765826e6 2.83744736619258e7 0.0
2.83744736619258e7 -7.548123064751419e6 0.0
0.0 0.0 0.0

-1.0835879096226066e7 1.0152432230876809e7 0.0
1.0152432230876809e7 1.7387340698676996e7 0.0
0.0 0.0 0.0

-3.9432211544336407e6 2.3219577248829868e7 0.0
2.3219577248829868e7 1.71790777035696e7 0.0
0.0 0.0 0.0

2.9649810095983624e7 3.127125906561543e7 0.0
3.127125906561543e7 -5.172715443667555e6 0.0
0.0 0.0 0.0

-5.966148206656756e6 2.0531673259365905e7 0.0
2.0531673259365905e7 2.3824157314003825e7 0.0
0.0 0.0 0.0

-6.028428457888782e6 3.9048340559187015e6 0.0
3.9048340559187015e6 1.106138894792951e7 0.0
0.0 0.0 0.0

-3.217528330242916e7 3.013412261342112e6 0.0
3.013412261342112e6 7.194196656124033e6 0.0
0.0 0.0 0.0

2.4922759344064873e6 4.338604663343398e6 0.0
4.338604663343398e6 -3.503348022458676e7 0.0
0.0 0.0 0.0

-8.919501902063629e6 3.2586337156790514e7 0.0
3.2586337156790514e7 6.477689721469763e6 0.0
0.0 0.0 0.0

-1.1275512308944922e7 2.6522510744260964e6 0.0
2.6522510744260964e6 1.823930743192747e7 0.0
0.0 0.0 0.0

-3.497256776076696e6 1.4717673117500335e7 0.0
1.4717673117500335e7 431848.1862512678 0.0
0.0 0.0 0.0

-1.0202242618616363e7 3.843367021955197e6 0.0
3.843367021955197e6 3.1953999283784054e7 0.0
0.0 0.0 0.0

473472.74602992274 2.1591922118839778e7 0.0
2.1591922118839778e7 -1.667784369355232e7 0.0
0.0 0.0 0.0

-9.753348851799529e6 2.340361410971043e6 0.0
2.340361410971043e6 3.3827605226088814e7 0.0
0.0 0.0 0.0

406516.42620046623 1.7551880527609825e7 0.0
1.7551880527609825e7 -1.8601686597150583e7 0.0
0.0 0.0 0.0

-5.252502198723484e6 1.9305226711752113e7 0.0
1.9305226711752113e7 3.049950028070715e7 0.0
0.0 0.0 0.0

-1.0032260800172955e7 1.3455474728160452e7 0.0
1.3455474728160452e7 1.873311033937273e7 0.0
0.0 0.0 0.0

-2.887191454073012e6 1.8045017324525815e7 0.0
1.8045017324525815e7 4.043413938794835e7 0.0
0.0 0.0 0.0

-8.203206966238372e6 1.7345441307048738e7 0.0
1.7345441307048738e7 2.2377908031667404e7 0.0
0.0 0.0 0.0

-2.3318081047453796e6 2.6217683108957607e7 0.0
2.6217683108957607e7 933674.3808041224 0.0
0.0 0.0 0.0

1.8907353521924764e6 8.0492807681825645e6 0.0
8.0492807681825645e6 -4.287830755474204e7 0.0
0.0 0.0 0.0

-3.4802328959476016e6 1.9254478361708485e7 0.0
1.9254478361708485e7 3.39186127353987e7 0.0
0.0 0.0 0.0

1.539826882424224e7 2.361894088949796e7 0.0
2.361894088949796e7 9.327305838291176e6 0.0
0.0 0.0 0.0

-2.118273575681518e7 1.3639314209228532e7 0.0
1.3639314209228532e7 8.231866494825758e6 0.0
0.0 0.0 0.0

944602.8943116888 1.2457944875986986e7 0.0
1.2457944875986986e7 -3.753240283971105e7 0.0
0.0 0.0 0.0

-6.410517663793015e6 1.4984054394829923e7 0.0
1.4984054394829923e7 1.8155288861335885e7 0.0
0.0 0.0 0.0

2.3019790219786586e6 1.026302455105317e7 0.0
1.026302455105317e7 -1.8365263910679027e7 0.0
0.0 0.0 0.0

-9.676471301300142e6 1.3530342103870718e6 0.0
1.3530342103870718e6 2.058530520425447e7 0.0
0.0 0.0 0.0

-1.0071968937712923e7 873138.5629575084 0.0
873138.5629575084 2.707228249516738e7 0.0
0.0 0.0 0.0

848721.8347777128 1.5399361427475229e7 0.0
1.5399361427475229e7 -2.2834728621692993e7 0.0
0.0 0.0 0.0

-1.0804112643583316e7 8.351889048415474e6 0.0
8.351889048415474e6 2.411603454758831e7 0.0
0.0 0.0 0.0

-5.748368819453031e6 2.6883772906816922e7 0.0
2.6883772906816922e7 8.884965570625069e6 0.0
0.0 0.0 0.0

7.6678744781180415e6 1.7821122419740107e7 0.0
1.7821122419740107e7 7.8071797901896015e6 0.0
0.0 0.0 0.0

-747457.0075846652 8.526260070755148e6 0.0
8.526260070755148e6 -655340.4977301401 0.0
0.0 0.0 0.0

671999.7124007391 2.1819607047679596e7 0.0
2.1819607047679596e7 -1.306256790069343e7 0.0
0.0 0.0 0.0

2.133818226804374e6 8.056245626836854e6 0.0
8.056245626836854e6 -2.551471595712073e7 0.0
0.0 0.0 0.0

1.7789345810787436e6 3.063620042608747e7 0.0
3.063620042608747e7 -5.2274183761703605e6 0.0
0.0 0.0 0.0

-7.003560308891704e6 1.6610041489066532e7 0.0
1.6610041489066532e7 -7.312772260507095e7 0.0
0.0 0.0 0.0

2.431436748118067e6 5.765217933459997e6 0.0
5.765217933459997e6 -1.927215996756233e7 0.0
0.0 0.0 0.0

2.5149175840817597e6 5.693917076480718e6 0.0
5.693917076480718e6 -2.761536981762218e7 0.0
0.0 0.0 0.0

-4.58692800044637e6 2.010470108330516e7 0.0
2.010470108330516e7 -2.2048630882847346e7 0.0
0.0 0.0 0.0

-1.594137239879035e6 9.306331624510495e6 0.0
9.306331624510495e6 1.3358319841419244e6 0.0
0.0 0.0 0.0

-1.7481898912933692e7 1.91501166525516e7 0.0
1.91501166525516e7 -6.808898408166698e7 0.0
0.0 0.0 0.0

1.8658564213444325e6 8.648463116089804e6 0.0
8.648463116089804e6 -1.0857431302133966e7 0.0
0.0 0.0 0.0

2.6249446559428573e6 8.851677567187345e6 0.0
8.851677567187345e6 -1.86823713146397e7 0.0
0.0 0.0 0.0

-780016.6865111585 2.1393498987171054e7 0.0
2.1393498987171054e7 -2.955248072233248e6 0.0
0.0 0.0 0.0

-6.756534746120514e6 1.4620727868831623e7 0.0
1.4620727868831623e7 4.130783975557408e7 0.0
0.0 0.0 0.0

-2.770950448028022e6 3.2395680122989677e7 0.0
3.2395680122989677e7 1.7948816351783795e6 0.0
0.0 0.0 0.0

-1.1383037637119107e7 1.0792494771156656e7 0.0
1.0792494771156656e7 7.873842075072752e6 0.0
0.0 0.0 0.0

1.1325154011768978e6 1.395044956224302e7 0.0
1.395044956224302e7 -2.5804770479010396e7 0.0
0.0 0.0 0.0

2.212288986146248e6 2.1372805860383768e7 0.0
2.1372805860383768e7 2.1466516362733e7 0.0
0.0 0.0 0.0

1.8854376091327514e6 2.9766733917567056e7 0.0
2.9766733917567056e7 -6.152434477414508e6 0.0
0.0 0.0 0.0

-816383.381459896 1.5232036738284862e7 0.0
1.5232036738284862e7 -1.122581097356727e7 0.0
0.0 0.0 0.0

3.530736290650014e6 2.901410322876209e7 0.0
2.901410322876209e7 -7.230702022019041e6 0.0
0.0 0.0 0.0

511419.1592122521 1.5738274925163614e7 0.0
1.5738274925163614e7 -1.2538078410464602e7 0.0
0.0 0.0 0.0

-9.844282252368037e6 -634479.7664027786 0.0
-634479.7664027786 2.117017365228722e7 0.0
0.0 0.0 0.0

129233.13569960184 2.1354092448189564e7 0.0
2.1354092448189564e7 -1.4758951163746724e7 0.0
0.0 0.0 0.0

1.727707954355926e7 4.9154598620807275e7 0.0
4.9154598620807275e7 -7.485245949112949e6 0.0
0.0 0.0 0.0

7.65259382809001e6 2.5371601529269964e7 0.0
2.5371601529269964e7 -4.350830465377193e6 0.0
0.0 0.0 0.0

973784.6724366974 2.071783483152558e7 0.0
2.071783483152558e7 -1.786931548577198e7 0.0
0.0 0.0 0.0

-3.191835968824681e6 1.6628778271914698e7 0.0
1.6628778271914698e7 8.424655143704252e6 0.0
0.0 0.0 0.0

-2.82925162511852e6 2.030438008428126e7 0.0
2.030438008428126e7 -574935.4324748595 0.0
0.0 0.0 0.0

3.0277230785352904e6 3.1921158684102376e6 0.0
3.1921158684102376e6 -3.38746564111561e7 0.0
0.0 0.0 0.0

2.9722240365905715e6 4.2171571211654395e6 0.0
4.2171571211654395e6 -1.345071153981068e7 0.0
0.0 0.0 0.0

-4.209924297793372e6 1.090644552141653e7 0.0
1.090644552141653e7 2.0379463606226754e6 0.0
0.0 0.0 0.0

-1.0758813394336965e7 2.443020624843376e7 0.0
2.443020624843376e7 -2.3778399490782563e6 0.0
0.0 0.0 0.0

2.436858728627704e6 6.251428616965223e6 0.0
6.251428616965223e6 -2.2818445026098467e7 0.0
0.0 0.0 0.0

42902.59465486277 1.790066725190555e7 0.0
1.790066725190555e7 -1.641961474045019e7 0.0
0.0 0.0 0.0

-214634.3423286695 2.217955212314125e7 0.0
2.217955212314125e7 1.2642235541140415e7 0.0
0.0 0.0 0.0

1.9107512392009888e6 1.2880440930049252e7 0.0
1.2880440930049252e7 -2.6709561113101926e7 0.0
0.0 0.0 0.0

-1.0715225834603466e7 7.065058595656647e6 0.0
7.065058595656647e6 2.3177807795895413e7 0.0
0.0 0.0 0.0

-2.9313698553887658e7 3.3255968984381575e7 0.0
3.3255968984381575e7 3.6908780525835045e6 0.0
0.0 0.0 0.0

1.878679865664797e6 1.2130234505415773e7 0.0
1.2130234505415773e7 -3.0450218690719925e7 0.0
0.0 0.0 0.0

-5.9556558573511e7 5.538747483970998e6 0.0
5.538747483970998e6 4.415987551341716e6 0.0
0.0 0.0 0.0

2.13022834000183e6 7.779731264308681e6 0.0
7.779731264308681e6 -2.2318400447065152e7 0.0
0.0 0.0 0.0

-2.836549063661742e6 2.149752610885039e7 0.0
2.149752610885039e7 2.330559669934616e7 0.0
0.0 0.0 0.0

-1.213938069692446e6 1.5568591373120736e7 0.0
1.5568591373120736e7 -3.811621685608047e7 0.0
0.0 0.0 0.0

250699.91746703535 1.681624812735923e7 0.0
1.681624812735923e7 -2.878890682293191e7 0.0
0.0 0.0 0.0

-9.026958585539192e6 3.4788340003464823e6 0.0
3.4788340003464823e6 1.6659900722742982e7 0.0
0.0 0.0 0.0

-1.0923085746428907e7 1.0955193048583055e7 0.0
1.0955193048583055e7 2.9163442040220223e7 0.0
0.0 0.0 0.0

-2.854225796995535e6 1.7197541164118435e7 0.0
1.7197541164118435e7 -2.486022055463887e6 0.0
0.0 0.0 0.0

-3.725152675405667e6 1.5799343326023694e7 0.0
1.5799343326023694e7 1.037325823021681e7 0.0
0.0 0.0 0.0

-1.0306026169518387e7 9.74280549076198e6 0.0
9.74280549076198e6 3.383634485214378e7 0.0
0.0 0.0 0.0

-1.8082976977724084e6 1.667037710076876e7 0.0
1.667037710076876e7 -1.620539556143138e6 0.0
0.0 0.0 0.0

92942.00641832035 2.037259042151223e7 0.0
2.037259042151223e7 -1.554672712788105e7 0.0
0.0 0.0 0.0

514164.10884110304 2.1555033265639998e7 0.0
2.1555033265639998e7 -1.2434431603483759e7 0.0
0.0 0.0 0.0

304890.7225945946 2.2252661883463617e7 0.0
2.2252661883463617e7 -1.3986228649917759e7 0.0
0.0 0.0 0.0

592786.1755170953 1.6804244936987095e7 0.0
1.6804244936987095e7 -1.995331294666328e7 0.0
0.0 0.0 0.0

1.433433168761843e6 9.656129774100568e6 0.0
9.656129774100568e6 -1.743677030397524e7 0.0
0.0 0.0 0.0

-1.014776602676149e6 2.1552976391003072e7 0.0
2.1552976391003072e7 -6.291456947101371e6 0.0
0.0 0.0 0.0

-285293.48810878163 2.0806759900612835e7 0.0
2.0806759900612835e7 -1.3646646225964528e7 0.0
0.0 0.0 0.0

17504.2598651601 1.5984379996945104e7 0.0
1.5984379996945104e7 -1.0080157198883904e7 0.0
0.0 0.0 0.0

-1.0387872252341347e7 5.812272604953639e6 0.0
5.812272604953639e6 2.2186031882089127e7 0.0
0.0 0.0 0.0

705144.7147940127 1.6125706460167589e7 0.0
1.6125706460167589e7 -2.1401733626755357e7 0.0
0.0 0.0 0.0

-1.9252614975256573e7 2.1258544246350117e7 0.0
2.1258544246350117e7 -6.417538342544358e7 0.0
0.0 0.0 0.0

-8.475303511904392e6 5.409708097430606e6 0.0
5.409708097430606e6 1.555039277852427e7 0.0
0.0 0.0 0.0

1.8522157895527491e6 9.22328489798332e6 0.0
9.22328489798332e6 -2.1864792972345933e7 0.0
0.0 0.0 0.0

-698449.4534208741 7.8828396333039105e6 0.0
7.8828396333039105e6 -5.324106731423954e6 0.0
0.0 0.0 0.0

-5.524605174308263e6 1.5655063875373691e7 0.0
1.5655063875373691e7 -6.611957190579297e7 0.0
0.0 0.0 0.0

-4.1272444153164206e6 1.6688715890430281e7 0.0
1.6688715890430281e7 1.374099210059081e7 0.0
0.0 0.0 0.0

3.0091130608723033e6 7.160518906244541e6 0.0
7.160518906244541e6 -2.1327288369065665e7 0.0
0.0 0.0 0.0

-1.1374627715488438e7 1.063721249066239e7 0.0
1.063721249066239e7 2.5952217524363287e7 0.0
0.0 0.0 0.0

-7.280703676133312e6 3.0443766716614e6 0.0
3.0443766716614e6 4.996659897958921e7 0.0
0.0 0.0 0.0

446918.7393921595 2.05438358395251e7 0.0
2.05438358395251e7 -2.149254261614546e6 0.0
0.0 0.0 0.0

2.1876935885257525e6 1.848353401699945e7 0.0
1.848353401699945e7 5.932194684345953e6 0.0
0.0 0.0 0.0

-7.705480606983777e6 2.7192319174248688e7 0.0
2.7192319174248688e7 8.276582530244829e6 0.0
0.0 0.0 0.0

-2.858635318610358e6 2.274465363954876e7 0.0
2.274465363954876e7 4.615464405597001e6 0.0
0.0 0.0 0.0

2.7162520500679947e6 4.964249494725424e6 0.0
4.964249494725424e6 -3.859645761184892e7 0.0
0.0 0.0 0.0

2.7493932358847205e6 5.711243855307599e6 0.0
5.711243855307599e6 -3.9130420259014875e7 0.0
0.0 0.0 0.0

-8.601086515322896e6 1.6059553333812956e7 0.0
1.6059553333812956e7 2.9690580264280714e7 0.0
0.0 0.0 0.0

136915.875194191 1.9364147541985918e7 0.0
1.9364147541985918e7 -1.637199489562116e7 0.0
0.0 0.0 0.0

1.0161280979571626e7 2.40634789117738e7 0.0
2.40634789117738e7 2.0194052664046017e6 0.0
0.0 0.0 0.0

-7.146149423501473e6 5.2809222458700845e6 0.0
5.2809222458700845e6 5.7056695509902135e7 0.0
0.0 0.0 0.0

-2.655505365453857e6 2.005975734329827e7 0.0
2.005975734329827e7 1.0488369791045012e7 0.0
0.0 0.0 0.0

-1.090985227651645e6 1.9093748659104735e7 0.0
1.9093748659104735e7 -1.0819949640606703e7 0.0
0.0 0.0 0.0

435640.06249729544 1.722948253127777e7 0.0
1.722948253127777e7 5.9019010244455606e7 0.0
0.0 0.0 0.0

-477807.22213960276 5.441399629135065e6 0.0
5.441399629135065e6 739072.1717531029 0.0
0.0 0.0 0.0

-190443.59393787757 2.546020809704412e7 0.0
2.546020809704412e7 -8.258741231052784e6 0.0
0.0 0.0 0.0

5.948541308953402e6 2.225007376207972e7 0.0
2.225007376207972e7 1.810866734721574e7 0.0
0.0 0.0 0.0

2.7059895459314175e6 8.63768968824686e6 0.0
8.63768968824686e6 -2.0925886503370915e7 0.0
0.0 0.0 0.0

-3.1548213797183516e6 1.5324949251155565e7 0.0
1.5324949251155565e7 -1.229884335225885e6 0.0
0.0 0.0 0.0

-4.0317058221132495e6 1.641072044607655e7 0.0
1.641072044607655e7 4.4972849935141005e7 0.0
0.0 0.0 0.0

1.753245988287691e6 9.807000032033568e6 0.0
9.807000032033568e6 -3.880986305874045e7 0.0
0.0 0.0 0.0

910130.27500284 2.0109220595734447e7 0.0
2.0109220595734447e7 -1.930240742789228e7 0.0
0.0 0.0 0.0

-8.487370962925097e6 1.6877490439251254e6 0.0
1.6877490439251254e6 4.049501097827516e7 0.0
0.0 0.0 0.0

1.4174007187769506e6 1.146488245571423e7 0.0
1.146488245571423e7 -3.7075676792348556e7 0.0
0.0 0.0 0.0

69811.37227295525 1.1064260311707819e7 0.0
1.1064260311707819e7 -6.683285210478291e6 0.0
0.0 0.0 0.0

2.435690474646153e6 9.099399632586097e6 0.0
9.099399632586097e6 -3.2549543633246973e7 0.0
0.0 0.0 0.0

-818.8814555658028 1.5953379557041619e7 0.0
1.5953379557041619e7 -1.5468465536955725e7 0.0
0.0 0.0 0.0

196788.08149945363 1.8293698735801946e7 0.0
1.8293698735801946e7 -1.714329853753498e7 0.0
0.0 0.0 0.0

-1.050386539284196e7 8.486276144189503e6 0.0
8.486276144189503e6 3.3047692364280824e7 0.0
0.0 0.0 0.0

4.344412149957315e6 2.2526667927905e7 0.0
2.2526667927905e7 5.3596330151088685e6 0.0
0.0 0.0 0.0

-1.0599730750454374e7 4.507328146250305e6 0.0
4.507328146250305e6 2.110515258838993e7 0.0
0.0 0.0 0.0

1.1420435884862272e6 1.7379388741370216e7 0.0
1.7379388741370216e7 -2.367472511819063e7 0.0
0.0 0.0 0.0

-4.98122805604076e6 5.792963661218855e6 0.0
5.792963661218855e6 9.449066063844845e6 0.0
0.0 0.0 0.0

521434.91937139584 5.731510074849617e6 0.0
5.731510074849617e6 -6.6788887941332655e6 0.0
0.0 0.0 0.0

-74914.39429260232 1.7513221271068957e7 0.0
1.7513221271068957e7 -1.5722367561796635e7 0.0
0.0 0.0 0.0

3.26371343877411e6 5.478871522091273e6 0.0
5.478871522091273e6 -2.166330375459766e7 0.0
0.0 0.0 0.0

-1.073432310217274e7 4.368375954471667e6 0.0
4.368375954471667e6 2.923292661623647e7 0.0
0.0 0.0 0.0

1.3571733834070005e6 3.42522137072251e6 0.0
3.42522137072251e6 -5.743274825612289e7 0.0
0.0 0.0 0.0

-1.4301732154984593e6 1.9509703768068347e7 0.0
1.9509703768068347e7 -4.767243532540905e6 0.0
0.0 0.0 0.0

-1.1148072493010918e7 1.2671131108662544e7 0.0
1.2671131108662544e7 2.302795161309703e7 0.0
0.0 0.0 0.0

-8.840541583489563e6 2.61346727992373e7 0.0
2.61346727992373e7 5.802563961245157e6 0.0
0.0 0.0 0.0

3.974608519808208e6 2.327677052609953e7 0.0
2.327677052609953e7 9.819639316792455e6 0.0
0.0 0.0 0.0

-5.124605574351151e6 1.986745995976719e7 0.0
1.986745995976719e7 2.8914481489566173e7 0.0
0.0 0.0 0.0

-4.357472945056268e6 2.113179893924778e7 0.0
2.113179893924778e7 2.2263981486598674e7 0.0
0.0 0.0 0.0

-8.29305534440504e6 -464711.7599214672 0.0
-464711.7599214672 4.04730055738782e7 0.0
0.0 0.0 0.0

-2.8905087824555677e6 1.54730361981893e7 0.0
1.54730361981893e7 5.083465759147225e6 0.0
0.0 0.0 0.0

5.742929540647179e6 2.236527747281818e7 0.0
2.236527747281818e7 1.7703591662396993e7 0.0
0.0 0.0 0.0

-3.9567933787512034e6 2.453210040897886e7 0.0
2.453210040897886e7 1.2724719577690536e7 0.0
0.0 0.0 0.0

-1.1163738158820935e7 9.994608095470693e6 0.0
9.994608095470693e6 2.82141597246193e7 0.0
0.0 0.0 0.0

647134.8174846303 1.5688466290511958e7 0.0
1.5688466290511958e7 -2.6833479092520535e7 0.0
0.0 0.0 0.0

2.142773001294976e6 7.396145797028888e6 0.0
7.396145797028888e6 -1.901363315585261e7 0.0
0.0 0.0 0.0

869867.2474153088 1.90677383517306e7 0.0
1.90677383517306e7 -1.590368564512898e7 0.0
0.0 0.0 0.0

-3.053684205230437e6 1.4066717921464343e7 0.0
1.4066717921464343e7 5.216531080539402e6 0.0
0.0 0.0 0.0

3.0795773275075844e6 5.500108895546055e6 0.0
5.500108895546055e6 -1.3620794334919881e7 0.0
0.0 0.0 0.0

-304127.00044855406 2.610754159104682e7 0.0
2.610754159104682e7 -7.058659544700615e6 0.0
0.0 0.0 0.0

-7.626735525884103e6 4.523797420438308e6 0.0
4.523797420438308e6 4.770212552185293e7 0.0
0.0 0.0 0.0

-8.507308869149117e6 2.7241635866884217e6 0.0
2.7241635866884217e6 4.1813988553478085e7 0.0
0.0 0.0 0.0

-7.955553522026248e6 1.281476185352566e7 0.0
1.281476185352566e7 4.1239174669716105e7 0.0
0.0 0.0 0.0

82080.18026971538 2.378890428686342e7 0.0
2.378890428686342e7 -1.1429414323665489e7 0.0
0.0 0.0 0.0

-2.572907287560579e6 9.326907571599543e6 0.0
9.326907571599543e6 -1.9278930575718908e6 0.0
0.0 0.0 0.0

1.9158907082289338e7 2.544586137673467e7 0.0
2.544586137673467e7 1.5285388510021904e7 0.0
0.0 0.0 0.0

1.4134967314975219e7 2.2662129092900045e7 0.0
2.2662129092900045e7 5.724341123643354e7 0.0
0.0 0.0 0.0

3.067583304773882e6 6.66661929669271e6 0.0
6.66661929669271e6 -1.784630417957596e7 0.0
0.0 0.0 0.0

-1.0684627455671258e7 6.565764049398311e6 0.0
6.565764049398311e6 2.5307841407903496e7 0.0
0.0 0.0 0.0

-2.7209799562771088e6 1.679421034727432e7 0.0
1.679421034727432e7 4.934943860977999e6 0.0
0.0 0.0 0.0

-3.979909980723082e6 2.2961958506870322e7 0.0
2.2961958506870322e7 1.696530332609768e7 0.0
0.0 0.0 0.0

2.377006357540071e6 6.222875891847137e6 0.0
6.222875891847137e6 -4.200481407828609e7 0.0
0.0 0.0 0.0

2.512240877663452e6 7.3626483372588195e6 0.0
7.3626483372588195e6 -3.594304474382803e7 0.0
0.0 0.0 0.0

-7.413577872453789e6 6.825203940824264e6 0.0
6.825203940824264e6 7.794913943297258e6 0.0
0.0 0.0 0.0

-2.468935841257019e6 2.120853840967861e7 0.0
2.120853840967861e7 1.0030241054384163e7 0.0
0.0 0.0 0.0

114393.1581262052 1.7610608284182806e7 0.0
1.7610608284182806e7 5.4834642045933895e7 0.0
0.0 0.0 0.0

819259.4144030893 2.0123134793233294e7 0.0
2.0123134793233294e7 -1.5158224613959061e7 0.0
0.0 0.0 0.0

-4.980798905637606e6 8.16015437487037e6 0.0
8.16015437487037e6 9.827648735192616e6 0.0
0.0 0.0 0.0

2.560371677960729e6 6.491233264629729e6 0.0
6.491233264629729e6 -3.760307956580816e7 0.0
0.0 0.0 0.0

-3.216769315397419e6 2.3639502355801966e7 0.0
2.3639502355801966e7 1.0698950761103366e7 0.0
0.0 0.0 0.0

1.9410568775599822e6 8.93496197723522e6 0.0
8.93496197723522e6 -2.4233474414508723e7 0.0
0.0 0.0 0.0

-9.037106275408622e6 9.534008319459608e6 0.0
9.534008319459608e6 436525.3246250553 0.0
0.0 0.0 0.0

179333.8481231397 1.678694035692908e7 0.0
1.678694035692908e7 -1.709623559885911e7 0.0
0.0 0.0 0.0

-5.925151897896079e6 3.383834507415592e6 0.0
3.383834507415592e6 4.875325554281522e6 0.0
0.0 0.0 0.0

-3.181747120207175e6 1.2552856198717235e7 0.0
1.2552856198717235e7 5.331769851342719e6 0.0
0.0 0.0 0.0

-3.19749014007434e6 1.0855448213043656e7 0.0
1.0855448213043656e7 5.419266726189118e6 0.0
0.0 0.0 0.0

-191394.7394585954 1.7054808687653355e7 0.0
1.7054808687653355e7 -1.4974418589455811e7 0.0
0.0 0.0 0.0

-3.1158477335371464e6 1.666119310414867e7 0.0
1.666119310414867e7 -1.0535864121676392e6 0.0
0.0 0.0 0.0

-1.0667499584876316e7 1.0275409776153943e7 0.0
1.0275409776153943e7 3.1487393649964325e7 0.0
0.0 0.0 0.0

-3.1894385450486355e6 1.5338384914592076e7 0.0
1.5338384914592076e7 5.1915153597726315e7 0.0
0.0 0.0 0.0

-6.395253255172312e6 1.2732919087881729e7 0.0
1.2732919087881729e7 4.717813502091272e7 0.0
0.0 0.0 0.0

-3.677006823577134e6 1.5897512994746335e7 0.0
1.5897512994746335e7 4.8271076108328484e7 0.0
0.0 0.0 0.0

-4.751689026843753e6 8.256083794652996e6 0.0
8.256083794652996e6 7.046373628806116e7 0.0
0.0 0.0 0.0

-660814.6382217943 2.2337550430704966e7 0.0
2.2337550430704966e7 9.770914272276033e6 0.0
0.0 0.0 0.0

-7.406506897365972e6 6.5325367112073265e6 0.0
6.5325367112073265e6 5.3969428156837694e7 0.0
0.0 0.0 0.0

-1.5358733730674775e6 2.4396940922219925e7 0.0
2.4396940922219925e7 -5.5291946950343205e6 0.0
0.0 0.0 0.0

-1.930542478807235e6 2.1367588929671872e7 0.0
2.1367588929671872e7 -1.259547931273385e7 0.0
0.0 0.0 0.0

-6.1179835178124115e7 3.847898626943222e7 0.0
3.847898626943222e7 -1.1690306989611823e7 0.0
0.0 0.0 0.0

2.721588636534185e6 8.2349913683142215e6 0.0
8.2349913683142215e6 -1.768618679032829e7 0.0
0.0 0.0 0.0

1.8614013274961654e6 1.3678770767721156e7 0.0
1.3678770767721156e7 -2.538934743089234e7 0.0
0.0 0.0 0.0

88469.18210781296 2.6332352196959533e7 0.0
2.6332352196959533e7 -6.005206302116849e6 0.0
0.0 0.0 0.0

-1.9140377578244258e6 2.489400173296493e7 0.0
2.489400173296493e7 4.014576670426637e6 0.0
0.0 0.0 0.0

2.601756305162711e6 8.313445101909567e6 0.0
8.313445101909567e6 -3.1956817160011563e7 0.0
0.0 0.0 0.0

1.9983676789234918e7 2.7656503755105905e7 0.0
2.7656503755105905e7 -2.8154339571175557e6 0.0
0.0 0.0 0.0

-4.509173545595192e6 1.3313223810255958e7 0.0
1.3313223810255958e7 4.06389520648566e6 0.0
0.0 0.0 0.0

323518.03017989546 6.508755226025535e6 0.0
6.508755226025535e6 -5.877727238835721e7 0.0
0.0 0.0 0.0

-4.803409117891098e6 1.1699731119903699e7 0.0
1.1699731119903699e7 4.0210650317332037e6 0.0
0.0 0.0 0.0

1.7649407988889469e6 8.863018095387949e6 0.0
8.863018095387949e6 -1.8707037183922783e7 0.0
0.0 0.0 0.0

-4.982654552895391e6 2.028691750119171e7 0.0
2.028691750119171e7 2.734350150466472e7 0.0
0.0 0.0 0.0

-4.033336425848654e7 3.302128961697176e7 0.0
3.302128961697176e7 -78603.02590734325 0.0
0.0 0.0 0.0

-9.574876876799406e6 1.3966550501943047e6 0.0
1.3966550501943047e6 3.330381494198361e7 0.0
0.0 0.0 0.0

803880.4901062623 2.110929632247783e7 0.0
2.110929632247783e7 -1.4376437080319244e7 0.0
0.0 0.0 0.0

-1.8179062732908513e7 2.7964772510161303e7 0.0
2.7964772510161303e7 -8.591700546872571e6 0.0
0.0 0.0 0.0

3.123696699551305e6 5.992058932464347e6 0.0
5.992058932464347e6 -1.711188606084258e7 0.0
0.0 0.0 0.0

-1.0602395408857033e7 1.1162514341218844e7 0.0
1.1162514341218844e7 2.708430285647679e7 0.0
0.0 0.0 0.0

644292.0363862561 1.828315457933045e7 0.0
1.828315457933045e7 -1.4517186479671642e7 0.0
0.0 0.0 0.0

-781513.4095724013 1.74286833346852e7 0.0
1.74286833346852e7 -7.047503300681636e6 0.0
0.0 0.0 0.0

-4.203250820504289e6 1.477777630911769e7 0.0
1.477777630911769e7 4.0209185929180896e6 0.0
0.0 0.0 0.0

-8.565246625822734e6 1.125472469660568e7 0.0
1.125472469660568e7 4.121633918982798e7 0.0
0.0 0.0 0.0

3.033048792364003e6 4.256869296548765e6 0.0
4.256869296548765e6 -3.525868052294486e7 0.0
0.0 0.0 0.0

2.580497875281929e6 5.636974286033496e6 0.0
5.636974286033496e6 -2.153763536291011e7 0.0
0.0 0.0 0.0

-3.178193488277837e6 2.329184712225836e7 0.0
2.329184712225836e7 9.723509875528723e6 0.0
0.0 0.0 0.0

-1.0735798137177328e7 2.704400785795718e6 0.0
2.704400785795718e6 1.5316402849862818e7 0.0
0.0 0.0 0.0

-127371.06486331765 1.5467231500103652e7 0.0
1.5467231500103652e7 -1.4643021962308638e7 0.0
0.0 0.0 0.0

2.8805636121742036e6 7.321911193086165e6 0.0
7.321911193086165e6 -2.6798335749379974e7 0.0
0.0 0.0 0.0

-8.35807705726283e6 5.905005977058017e6 0.0
5.905005977058017e6 4.4982007463163234e7 0.0
0.0 0.0 0.0

-1.1695265648540198e6 2.255180268714531e7 0.0
2.255180268714531e7 6.832648187795777e6 0.0
0.0 0.0 0.0

-1.05270523955483e7 3.209813689137447e6 0.0
3.209813689137447e6 2.8474614907642547e7 0.0
0.0 0.0 0.0

923790.016135646 1.306952273092095e7 0.0
1.306952273092095e7 -3.550246685582201e7 0.0
0.0 0.0 0.0

-551958.1823577648 1.9688093442171663e7 0.0
1.9688093442171663e7 -2.170688656644326e7 0.0
0.0 0.0 0.0

-1.058726181081844e7 1.3857331746254731e7 0.0
1.3857331746254731e7 2.217992829196996e7 0.0
0.0 0.0 0.0

700068.6451904494 1.6733933513259893e7 0.0
1.6733933513259893e7 -2.695534620107846e7 0.0
0.0 0.0 0.0

1.1087776675602403e6 1.7181282075216077e7 0.0
1.7181282075216077e7 -1.8036213014870934e7 0.0
0.0 0.0 0.0

-1.4899030540000622e6 2.591092069807679e6 0.0
2.591092069807679e6 3.242076811698474e6 0.0
0.0 0.0 0.0

-1.066641918565161e7 2.2220020870217024e6 0.0
2.2220020870217024e6 2.541765461682007e7 0.0
0.0 0.0 0.0

-95439.46300138626 1.3265449166974198e7 0.0
1.3265449166974198e7 -1.312612348622815e7 0.0
0.0 0.0 0.0

283224.47883947566 1.1972359302613087e7 0.0
1.1972359302613087e7 -1.3500889938686319e7 0.0
0.0 0.0 0.0

808856.7690775767 1.8671542043153703e7 0.0
1.8671542043153703e7 -1.5209454012918374e7 0.0
0.0 0.0 0.0

-1.959414977020398e6 2.274257014015211e7 0.0
2.274257014015211e7 3.877185171840328e6 0.0
0.0 0.0 0.0

1.1080741012545973e6 1.0445794007556304e7 0.0
1.0445794007556304e7 -1.6143573537421178e7 0.0
0.0 0.0 0.0

-3.31105546133969e6 1.4571546171581334e7 0.0
1.4571546171581334e7 -5.3171840845067866e7 0.0
0.0 0.0 0.0

-1.0543008175575003e7 4.633086018748495e6 0.0
4.633086018748495e6 1.4652915241405591e7 0.0
0.0 0.0 0.0

-1.2858871135390015e7 1.96958374162491e7 0.0
1.96958374162491e7 -4.7933340876558036e7 0.0
0.0 0.0 0.0

-1.2972264565838765e8 1.5959133208695894e7 0.0
1.5959133208695894e7 -2.653555548318222e6 0.0
0.0 0.0 0.0

1.1908967868856972e8 1.700891229575014e7 0.0
1.700891229575014e7 6.043767419133626e6 0.0
0.0 0.0 0.0

-4.767671669722177e6 1.4998441411135115e7 0.0
1.4998441411135115e7 -6.13105240691548e7 0.0
0.0 0.0 0.0

-6.7550795394790955e6 1.783389037462921e7 0.0
1.783389037462921e7 2.314067166068628e7 0.0
0.0 0.0 0.0

-2.7389796284165736e6 2.2060171250087723e7 0.0
2.2060171250087723e7 879783.581838408 0.0
0.0 0.0 0.0

-421548.6874325904 1.4496851103154093e7 0.0
1.4496851103154093e7 -1.2722118190756176e7 0.0
0.0 0.0 0.0

-1.0603401533546164e6 6.90935263080175e6 0.0
6.90935263080175e6 -3.8090509603077774e6 0.0
0.0 0.0 0.0

146332.43681158975 7.805552777742e6 0.0
7.805552777742e6 -2.4956546003073235e6 0.0
0.0 0.0 0.0

-3.90417160487682e6 1.6148889618387986e7 0.0
1.6148889618387986e7 3.9357682907206984e6 0.0
0.0 0.0 0.0

-4.0185929838665426e6 1.474534796577974e7 0.0
1.474534796577974e7 -5.7018334564105354e7 0.0
0.0 0.0 0.0

1.0146812069465425e6 1.2741520800035182e7 0.0
1.2741520800035182e7 -1.2282177425435781e7 0.0
0.0 0.0 0.0

-9.844896159613647e6 4.387282647459852e6 0.0
4.387282647459852e6 3.630153020054412e7 0.0
0.0 0.0 0.0

9.81586098156758e7 2.1054405609173834e7 0.0
2.1054405609173834e7 221972.34003580362 0.0
0.0 0.0 0.0

663413.4222877533 1.4011894962350827e7 0.0
1.4011894962350827e7 -1.1945451861839006e7 0.0
0.0 0.0 0.0

2.913885577335974e6 6.847769775087953e6 0.0
6.847769775087953e6 -3.0581533551261075e7 0.0
0.0 0.0 0.0

2.75739698149742e6 7.565230717956734e6 0.0
7.565230717956734e6 -3.1277577688189067e7 0.0
0.0 0.0 0.0

-4.860218602758836e6 2.072625894354972e7 0.0
2.072625894354972e7 2.5789919789003365e7 0.0
0.0 0.0 0.0

1.500667448235888e6 1.5747196514830166e7 0.0
1.5747196514830166e7 -2.0779591128290877e7 0.0
0.0 0.0 0.0

-4.0258443235209077e6 2.3151073078172885e7 0.0
2.3151073078172885e7 -1.322964197307385e7 0.0
0.0 0.0 0.0

8.2181409198875325e6 2.511364839775791e7 0.0
2.511364839775791e7 -2.895033189287899e6 0.0
0.0 0.0 0.0

-1.9358411066115897e6 1.4710255621563757e7 0.0
1.4710255621563757e7 -214551.15733579505 0.0
0.0 0.0 0.0

1.5038985042964125e6 6.337752192352697e6 0.0
6.337752192352697e6 -5.644464958166529e6 0.0
0.0 0.0 0.0

-3.437743264317846e6 1.0103374754849836e7 0.0
1.0103374754849836e7 66664.72010823851 0.0
0.0 0.0 0.0

-7.25723088043262e6 7.252442415234314e6 0.0
7.252442415234314e6 1.3945968446205195e7 0.0
0.0 0.0 0.0

-7.183600798879242e6 1.7933057721840836e7 0.0
1.7933057721840836e7 -3.423232774119642e7 0.0
0.0 0.0 0.0

1.635238944390729e6 1.284436037905289e7 0.0
1.284436037905289e7 -3.096032120118467e7 0.0
0.0 0.0 0.0

2.131303178227541e6 6.627792041155253e6 0.0
6.627792041155253e6 -1.812326737744768e7 0.0
0.0 0.0 0.0

2.1371775826496333e6 9.863126480209764e6 0.0
9.863126480209764e6 -1.5161098707177382e7 0.0
0.0 0.0 0.0

-2.0834546045462321e6 1.7380643961624473e7 0.0
1.7380643961624473e7 43305.49765109469 0.0
0.0 0.0 0.0

1.6937430204463787e6 9.457165921285233e6 0.0
9.457165921285233e6 -1.96488799562429e7 0.0
0.0 0.0 0.0

-1.661668138884539e6 8.56497076957934e6 0.0
8.56497076957934e6 -3.7013818272846043e6 0.0
0.0 0.0 0.0

3.437116220360376e6 4.693171990480676e6 0.0
4.693171990480676e6 -2.2918341697997447e7 0.0
0.0 0.0 0.0

682980.1304047396 1.6665207568422629e7 0.0
1.6665207568422629e7 -1.4351406663896216e7 0.0
0.0 0.0 0.0

-1.039013367266728e7 6.617077116856865e6 0.0
6.617077116856865e6 1.3484261203233114e7 0.0
0.0 0.0 0.0

-4444.879522439558 2.5428680081545714e7 0.0
2.5428680081545714e7 -9.078745431006622e6 0.0
0.0 0.0 0.0

1.0827714823385552e6 6.014679414671457e6 0.0
6.014679414671457e6 -5.08194408963362e7 0.0
0.0 0.0 0.0

523693.9638200775 1.7825143066698335e7 0.0
1.7825143066698335e7 -1.3798675537138239e7 0.0
0.0 0.0 0.0

2.699522554320422e6 9.017565382996082e6 0.0
9.017565382996082e6 -2.3973711184538335e7 0.0
0.0 0.0 0.0

-3.550968265790674e6 4.998132638263268e6 0.0
4.998132638263268e6 7.363377628734378e6 0.0
0.0 0.0 0.0

2.8144113483321182e6 8.203797851721152e6 0.0
8.203797851721152e6 -2.5420429398374893e7 0.0
0.0 0.0 0.0

-2.2041472794527356e6 2.2613981476304997e7 0.0
2.2613981476304997e7 6.822386975070884e6 0.0
0.0 0.0 0.0

2.4922401041167686e6 2.743241605820696e7 0.0
2.743241605820696e7 -8.550926964735318e6 0.0
0.0 0.0 0.0

-1.5153693470538314e6 2.0543085908751503e7 0.0
2.0543085908751503e7 -2.1213114149549145e7 0.0
0.0 0.0 0.0

-3023.6574383242987 7.106556781904415e6 0.0
7.106556781904415e6 -6.812687283847474e6 0.0
0.0 0.0 0.0

2.378972782315267e6 2.852813069149524e7 0.0
2.852813069149524e7 -6.677103330102493e6 0.0
0.0 0.0 0.0

754449.2946302546 2.3547416114261333e7 0.0
2.3547416114261333e7 -1.105963761624793e7 0.0
0.0 0.0 0.0

-1.1747655090665357e7 9.472272179722356e6 0.0
9.472272179722356e6 2.200082930283466e7 0.0
0.0 0.0 0.0

-3.314195754496783e6 2.4100869867732253e7 0.0
2.4100869867732253e7 1.5007181042510439e7 0.0
0.0 0.0 0.0

-7.064127009186501e6 4.35549872484183e6 0.0
4.35549872484183e6 7.311392633762997e6 0.0
0.0 0.0 0.0

-2.6528338340003816e6 1.1791420457207557e7 0.0
1.1791420457207557e7 3.3969829850442708e6 0.0
0.0 0.0 0.0

-6.999713256561104e6 8.921090024665749e6 0.0
8.921090024665749e6 5.064866213538241e7 0.0
0.0 0.0 0.0

-5.273270812326774e6 1.5110182319953142e7 0.0
1.5110182319953142e7 9.344538145259064e6 0.0
0.0 0.0 0.0

3.832646822423812e6 2.2009658049443778e7 0.0
2.2009658049443778e7 2.4772641861161673e6 0.0
0.0 0.0 0.0

393823.16882194346 1.5258845049057804e7 0.0
1.5258845049057804e7 -1.1528712267593428e7 0.0
0.0 0.0 0.0

-335095.3332849769 1.6623350224343648e7 0.0
1.6623350224343648e7 -1.4107654913519861e7 0.0
0.0 0.0 0.0

-3.014475626718968e6 1.4558823530998422e7 0.0
1.4558823530998422e7 -4.9634150808364935e7 0.0
0.0 0.0 0.0

611920.0176094435 6.472236422281279e6 0.0
6.472236422281279e6 -5.4200201203328736e7 0.0
0.0 0.0 0.0

-1.0808832374829281e7 1.2444809464880884e7 0.0
1.2444809464880884e7 2.7892987626400728e7 0.0
0.0 0.0 0.0

-2.427916877810445e6 2.6517366287232857e7 0.0
2.6517366287232857e7 7.293843882878805e6 0.0
0.0 0.0 0.0

-9.397920927984634e6 4.783475846814066e6 0.0
4.783475846814066e6 4.0239079030918114e7 0.0
0.0 0.0 0.0

759395.6802932825 2.2039949168612167e7 0.0
2.2039949168612167e7 -1.3649307271744719e7 0.0
0.0 0.0 0.0

546139.8934813831 2.1443897735338386e7 0.0
2.1443897735338386e7 -1.6399997153291406e7 0.0
0.0 0.0 0.0

1.6398695056748016e7 6.084510402351343e6 0.0
6.084510402351343e6 -1.9967191570339883e6 0.0
0.0 0.0 0.0

1.3631304173176745e6 1.0150287985869829e7 0.0
1.0150287985869829e7 -1.0623099383714182e7 0.0
0.0 0.0 0.0

-8.850196914983287e6 1.5076956341743594e7 0.0
1.5076956341743594e7 1.8477942443325866e7 0.0
0.0 0.0 0.0

-3.617289542483234e6 2.0471550193783116e7 0.0
2.0471550193783116e7 -2.039029165870818e7 0.0
0.0 0.0 0.0

596407.4276991896 1.6232505738309108e7 0.0
1.6232505738309108e7 -1.3486086870669136e7 0.0
0.0 0.0 0.0

877754.1033773785 1.757648533574827e7 0.0
1.757648533574827e7 -1.5908877193250913e7 0.0
0.0 0.0 0.0

-7.176594021539899e6 1.4483814212049108e7 0.0
1.4483814212049108e7 3.981643185900763e7 0.0
0.0 0.0 0.0

-1.1142847669897983e7 1.2197786238060016e7 0.0
1.2197786238060016e7 2.502631645404651e7 0.0
0.0 0.0 0.0

-494323.8067708104 1.61706692985646e7 0.0
1.61706692985646e7 -1.3226646781366138e7 0.0
0.0 0.0 0.0

-1.1303243290605545e6 2.013842171008853e7 0.0
2.013842171008853e7 -1.0425283832661962e7 0.0
0.0 0.0 0.0

-6.482553039390542e6 2.12624929801334e7 0.0
2.12624929801334e7 -1.265786032576021e7 0.0
0.0 0.0 0.0

-1.4463757896168097e6 2.7553427051245864e7 0.0
2.7553427051245864e7 -2.5932134135410707e6 0.0
0.0 0.0 0.0

1.367694166073354e6 1.2947646908532683e7 0.0
1.2947646908532683e7 -3.316863759632913e7 0.0
0.0 0.0 0.0

-1.9618741174306201e6 3.283179713296166e7 0.0
3.283179713296166e7 2.4462930376096726e6 0.0
0.0 0.0 0.0

-7.557256349492994e6 1.5856309741766747e7 0.0
1.5856309741766747e7 1.6623345710653983e7 0.0
0.0 0.0 0.0

-9.512778656849336e6 2.613879840679347e7 0.0
2.613879840679347e7 -1.1886970551596098e7 0.0
0.0 0.0 0.0

58910.73587720108 1.9235940186911155e7 0.0
1.9235940186911155e7 -1.8817645815569703e6 0.0
0.0 0.0 0.0

-969388.1375111686 2.089415844332043e7 0.0
2.089415844332043e7 -1.9595786508037392e7 0.0
0.0 0.0 0.0

-2.6219126541225007e6 2.064866896609971e7 0.0
2.064866896609971e7 -1.2143318522642182e7 0.0
0.0 0.0 0.0

-3.2647186309688725e6 2.561211060121653e7 0.0
2.561211060121653e7 9.906293867940212e6 0.0
0.0 0.0 0.0

521283.843424581 2.0490037241222e7 0.0
2.0490037241222e7 -1.3150978421580102e7 0.0
0.0 0.0 0.0

-656443.6858133702 1.5719407366893131e7 0.0
1.5719407366893131e7 -1.226330588246833e7 0.0
0.0 0.0 0.0

-731363.8658918962 1.937975162689546e7 0.0
1.937975162689546e7 -2.3896513455623362e7 0.0
0.0 0.0 0.0

-1.6605367603439873e6 1.3118824924179776e7 0.0
1.3118824924179776e7 -6.573016902726117e6 0.0
0.0 0.0 0.0

-2.4578178740613894e6 2.4965617690498564e7 0.0
2.4965617690498564e7 2.196775492291586e6 0.0
0.0 0.0 0.0

-1.2960123840966565e6 2.695547898274554e7 0.0
2.695547898274554e7 -3.7863645577166746e6 0.0
0.0 0.0 0.0

-2.203124025557372e6 4.405872576218339e6 0.0
4.405872576218339e6 4.905411389812048e6 0.0
0.0 0.0 0.0

231427.126084554 1.1362036628212819e7 0.0
1.1362036628212819e7 -1.2468848286939269e7 0.0
0.0 0.0 0.0

-753056.1875717372 2.865973753247525e7 0.0
2.865973753247525e7 -697183.453042721 0.0
0.0 0.0 0.0

-2.9744050651677493e6 2.212373285509201e7 0.0
2.212373285509201e7 6.039574261754314e6 0.0
0.0 0.0 0.0

-9.737301393857881e7 9.830234102973053e6 0.0
9.830234102973053e6 817323.3850440271 0.0
0.0 0.0 0.0

321511.50309228525 1.7316785391874325e7 0.0
1.7316785391874325e7 -2.7073416183111943e7 0.0
0.0 0.0 0.0

-3.446587312355417e6 2.0734930576494683e7 0.0
2.0734930576494683e7 9.304413597710242e6 0.0
0.0 0.0 0.0

-935251.7205096296 2.4694310635977462e7 0.0
2.4694310635977462e7 -3.6237097836648505e6 0.0
0.0 0.0 0.0

-3.2135383732080674e6 2.185438485075847e7 0.0
2.185438485075847e7 8.908647112441186e6 0.0
0.0 0.0 0.0

-2.538221704830726e6 2.2997674148442093e7 0.0
2.2997674148442093e7 985392.3977944643 0.0
0.0 0.0 0.0

335099.46485000197 2.224746184973455e7 0.0
2.224746184973455e7 -1.133412896147297e7 0.0
0.0 0.0 0.0

-6.162570767720674e6 1.669716586330027e7 0.0
1.669716586330027e7 1.4389193943116575e7 0.0
0.0 0.0 0.0

-1.0355519560412819e7 8.718408349094363e6 0.0
8.718408349094363e6 3.0706323778058376e7 0.0
0.0 0.0 0.0

-777484.2740847532 1.383433822750259e7 0.0
1.383433822750259e7 -5.25209346685754e6 0.0
0.0 0.0 0.0

2.7165145010588607e6 6.20035978439486e6 0.0
6.20035978439486e6 -1.2381184739852149e7 0.0
0.0 0.0 0.0

-1.8273066152072153e6 1.7898609549105532e7 0.0
1.7898609549105532e7 -7.799565781178006e6 0.0
0.0 0.0 0.0

202808.8355187755 2.3033835919518195e7 0.0
2.3033835919518195e7 -1.2694527023682617e7 0.0
0.0 0.0 0.0

-3.149218778365335e6 2.10124585422704e7 0.0
2.10124585422704e7 6.292201314073388e6 0.0
0.0 0.0 0.0

-2.5806792845351333e6 1.6452333168514278e7 0.0
1.6452333168514278e7 -4.135077967291111e6 0.0
0.0 0.0 0.0

-8.846903896666523e6 1.5672987752565332e6 0.0
1.5672987752565332e6 1.7339527598240614e7 0.0
0.0 0.0 0.0

2.0496304871239904e6 6.08320006352018e6 0.0
6.08320006352018e6 -1.4599032955594093e7 0.0
0.0 0.0 0.0

-9.053951726867203e6 8.0033823095665e6 0.0
8.0033823095665e6 3.976482120206788e7 0.0
0.0 0.0 0.0

-1.132912985193457e7 4.647322883024055e6 0.0
4.647322883024055e6 2.2645063588195585e7 0.0
0.0 0.0 0.0

-1.065587575036645e6 2.0798305872116655e7 0.0
2.0798305872116655e7 2.6229903067553878e7 0.0
0.0 0.0 0.0

-1.124673515769467e6 2.1169542904937852e7 0.0
2.1169542904937852e7 -9.967438440953316e6 0.0
0.0 0.0 0.0

71499.81859479612 1.0677879964997573e7 0.0
1.0677879964997573e7 -1.1462825287634145e7 0.0
0.0 0.0 0.0

-8.505676536247639e6 7.675540944674994e6 0.0
7.675540944674994e6 4.281278413952565e7 0.0
0.0 0.0 0.0

-631716.2908501296 2.5004327946400214e7 0.0
2.5004327946400214e7 -4.581582799309603e6 0.0
0.0 0.0 0.0

-3.749254890607087e6 1.5462994570359303e7 0.0
1.5462994570359303e7 2.20814937479768e6 0.0
0.0 0.0 0.0

-1.9673559627709182e6 1.0996504575089805e7 0.0
1.0996504575089805e7 1.4429718821048266e6 0.0
0.0 0.0 0.0

-1.9901455343359855e6 1.4395820583289199e7 0.0
1.4395820583289199e7 -6.166694460929434e6 0.0
0.0 0.0 0.0

-3.767805927072482e6 1.8799245768124606e7 0.0
1.8799245768124606e7 -3.160574752544326e7 0.0
0.0 0.0 0.0

-2.293716060354808e6 2.193785904096942e7 0.0
2.193785904096942e7 8.364313757430181e6 0.0
0.0 0.0 0.0

1.0880681156498622e6 2.138569688107955e7 0.0
2.138569688107955e7 -1.6409921386668062e7 0.0
0.0 0.0 0.0

2.499236439979106e6 1.8195322104227733e7 0.0
1.8195322104227733e7 6.502126079135505e7 0.0
0.0 0.0 0.0

5.83311681170536e6 2.4629526250754815e7 0.0
2.4629526250754815e7 1.3018597924010238e7 0.0
0.0 0.0 0.0

-9.783272821258685e6 1.4821361878688404e7 0.0
1.4821361878688404e7 2.1060949635237075e7 0.0
0.0 0.0 0.0

1.7624621468164362e6 1.3566906270220438e7 0.0
1.3566906270220438e7 -2.720244841772351e7 0.0
0.0 0.0 0.0

-1.5704963027196152e6 1.7186827418662928e7 0.0
1.7186827418662928e7 -3.0012245296814353e6 0.0
0.0 0.0 0.0

2.0432542288974524e6 2.4471982949510515e7 0.0
2.4471982949510515e7 -1.1917354325921927e7 0.0
0.0 0.0 0.0

-2.2564617602046374e6 2.7782134269842807e7 0.0
2.7782134269842807e7 5.023414087989006e6 0.0
0.0 0.0 0.0

-1.1778279982174698e6 2.629059971393996e7 0.0
2.629059971393996e7 -4.819057445727682e6 0.0
0.0 0.0 0.0

-430654.7837459929 2.1345471914583635e7 0.0
2.1345471914583635e7 -1.799031260429405e7 0.0
0.0 0.0 0.0

-1.4241305192895378e6 1.5928815475681627e7 0.0
1.5928815475681627e7 -3.290340542948199e6 0.0
0.0 0.0 0.0

-2.991666364009829e6 2.2538211344039857e7 0.0
2.2538211344039857e7 7.327393558379341e6 0.0
0.0 0.0 0.0

-1.1848491299653998e7 8.46965328864967e6 0.0
8.46965328864967e6 2.0590823660935424e7 0.0
0.0 0.0 0.0

2.276855523666584e6 5.90617857642825e6 0.0
5.90617857642825e6 -1.6965367140098892e7 0.0
0.0 0.0 0.0

-1.1380476045257293e6 1.816845970166085e7 0.0
1.816845970166085e7 -5.525420352194525e6 0.0
0.0 0.0 0.0

2.44712526197616e6 1.004425319765747e7 0.0
1.004425319765747e7 -2.054103543049375e7 0.0
0.0 0.0 0.0

-2.044668625864659e6 2.20992660560054e7 0.0
2.20992660560054e7 3.1906682157979454e6 0.0
0.0 0.0 0.0

-1.153514394619484e6 1.0249004456025127e7 0.0
1.0249004456025127e7 -528574.4692795163 0.0
0.0 0.0 0.0

415105.30900780763 3.078765463192379e7 0.0
3.078765463192379e7 -3.8345111097567556e6 0.0
0.0 0.0 0.0

-6.4451427972729966e7 5.406402549304454e6 0.0
5.406402549304454e6 4.788096128556132e6 0.0
0.0 0.0 0.0

-433512.1752832251 9.457104967820067e6 0.0
9.457104967820067e6 -2.341142611365814e6 0.0
0.0 0.0 0.0

-4.400324042858171e6 1.76857057059142e7 0.0
1.76857057059142e7 -3.903977050960655e7 0.0
0.0 0.0 0.0

1.5856420049375407e6 2.343689574028891e7 0.0
2.343689574028891e7 -1.0372281502123486e7 0.0
0.0 0.0 0.0

723422.1342848856 1.4516963169586496e7 0.0
1.4516963169586496e7 -1.2934409200183246e7 0.0
0.0 0.0 0.0

797285.7839502189 1.9507804330258917e7 0.0
1.9507804330258917e7 -2.0749145843775313e7 0.0
0.0 0.0 0.0

252586.40120515972 8.75700133883422e6 0.0
8.75700133883422e6 -3.978553251849158e6 0.0
0.0 0.0 0.0

2.843947942166986e6 8.280864668431739e6 0.0
8.280864668431739e6 -2.317029195322422e7 0.0
0.0 0.0 0.0

-1.6056049071006477e6 2.8140649109511282e7 0.0
2.8140649109511282e7 -1.514827745744012e6 0.0
0.0 0.0 0.0

-186832.4248050677 6.300302495040183e6 0.0
6.300302495040183e6 -5.224823178529258e6 0.0
0.0 0.0 0.0

689351.305116782 1.1195583080995781e7 0.0
1.1195583080995781e7 -1.4854129905203015e7 0.0
0.0 0.0 0.0

660361.4942320156 3.2208988268154994e7 0.0
3.2208988268154994e7 -2.842286183279046e6 0.0
0.0 0.0 0.0

4.46787950140281e6 2.3087183567711674e7 0.0
2.3087183567711674e7 1.2372286144098565e6 0.0
0.0 0.0 0.0

2.3193263884469564e6 2.6333438290216796e7 0.0
2.6333438290216796e7 -9.356595414701551e6 0.0
0.0 0.0 0.0

696759.0648148432 8.711984204233658e6 0.0
8.711984204233658e6 -6.4260368143131204e7 0.0
0.0 0.0 0.0

-6.368889033280011e6 1.8350148325778253e7 0.0
1.8350148325778253e7 3.065981280662349e7 0.0
0.0 0.0 0.0

-1.4331770531532296e6 2.7122664106436927e7 0.0
2.7122664106436927e7 1.0181984545451595e6 0.0
0.0 0.0 0.0

2.368364660505182e6 9.67197756368087e6 0.0
9.67197756368087e6 -1.7418301771969866e7 0.0
0.0 0.0 0.0

803681.2978695577 7.957983368191306e6 0.0
7.957983368191306e6 -5.482452788198791e6 0.0
0.0 0.0 0.0

-44493.027093607 1.0008390406241575e7 0.0
1.0008390406241575e7 -1.0390028452261765e7 0.0
0.0 0.0 0.0

-3.5800285908980495e6 3.1602769777520135e7 0.0
3.1602769777520135e7 5.039878207671286e6 0.0
0.0 0.0 0.0

-9.877064343906803e6 2.1751550849452466e6 0.0
2.1751550849452466e6 2.4348939692456305e7 0.0
0.0 0.0 0.0

-8.566935677193128e6 1.6806859100617785e7 0.0
1.6806859100617785e7 2.8004086451826543e7 0.0
0.0 0.0 0.0

-646927.205519665 2.6568596181507524e7 0.0
2.6568596181507524e7 -3.156585641816935e6 0.0
0.0 0.0 0.0

970143.8358077202 1.6470560043288853e7 0.0
1.6470560043288853e7 -1.6598144709079707e7 0.0
0.0 0.0 0.0

-2.1486382451345203e6 2.2268801360003363e7 0.0
2.2268801360003363e7 2.1459984697867792e7 0.0
0.0 0.0 0.0

-2.6121766598725454e6 1.7699286601816356e7 0.0
1.7699286601816356e7 -3.8370891008973815e6 0.0
0.0 0.0 0.0

408891.4731343491 1.736197016428604e7 0.0
1.736197016428604e7 -1.300395776914271e7 0.0
0.0 0.0 0.0

-1.7627772945972253e6 1.7028147790688336e7 0.0
1.7028147790688336e7 -3.27634199971143e7 0.0
0.0 0.0 0.0

3.311414125537538e6 2.7851435942246787e7 0.0
2.7851435942246787e7 -7.873844818051117e6 0.0
0.0 0.0 0.0

-2.4847571114226803e6 1.484663565954705e7 0.0
1.484663565954705e7 -4.650758628142065e7 0.0
0.0 0.0 0.0

-1.1786077630655337e7 7.224761406073726e6 0.0
7.224761406073726e6 1.9546995301541615e7 0.0
0.0 0.0 0.0

6.045216803511821e6 2.211895187537316e7 0.0
2.211895187537316e7 2.584503455762898e7 0.0
0.0 0.0 0.0

-4.1599541545390477e6 3.041968349868381e7 0.0
3.041968349868381e7 5.450195066022199e6 0.0
0.0 0.0 0.0

-2.376813693043738e6 1.8179761388670973e7 0.0
1.8179761388670973e7 -5.094214454471424e6 0.0
0.0 0.0 0.0

5.000826986568292e6 2.4465457411362614e7 0.0
2.4465457411362614e7 -6.074273024832385e6 0.0
0.0 0.0 0.0

-454376.56611877214 2.596654726285722e7 0.0
2.596654726285722e7 -4.299446595461991e6 0.0
0.0 0.0 0.0

-6.999624503346488e6 9.27972459880763e6 0.0
9.27972459880763e6 7.954486589512765e6 0.0
0.0 0.0 0.0

54129.425600552 2.18062529634758e7 0.0
2.18062529634758e7 -1.6495809391823025e7 0.0
0.0 0.0 0.0

1.5443181993872318e6 1.5636427258657768e7 0.0
1.5636427258657768e7 -2.2877563686918568e7 0.0
0.0 0.0 0.0

1.3922890158885978e6 1.6287927830474421e7 0.0
1.6287927830474421e7 -2.138019083132475e7 0.0
0.0 0.0 0.0

-1.0522639006352932e6 1.6438258159721594e7 0.0
1.6438258159721594e7 -1.0800771177247431e7 0.0
0.0 0.0 0.0

1.7538235709075764e7 2.9194893941979617e7 0.0
2.9194893941979617e7 -4.546126903686685e6 0.0
0.0 0.0 0.0

1.3977390100347847e6 1.1999548816593116e7 0.0
1.1999548816593116e7 -1.3596326455267344e7 0.0
0.0 0.0 0.0

2.344692624436791e6 5.324757220463342e6 0.0
5.324757220463342e6 -1.6001515474193167e7 0.0
0.0 0.0 0.0

1.6411126900699018e6 1.4928572647240447e7 0.0
1.4928572647240447e7 -2.4256019233670548e7 0.0
0.0 0.0 0.0

1.0798246871579234e6 6.963717727087019e6 0.0
6.963717727087019e6 -4.8233179519136906e7 0.0
0.0 0.0 0.0

-9.24751326475722e6 8.485649473065855e6 0.0
8.485649473065855e6 1.1842365201166894e7 0.0
0.0 0.0 0.0

-2.6393576684996267e6 2.433362376485125e7 0.0
2.433362376485125e7 3.1959876772266896e6 0.0
0.0 0.0 0.0

3.0152204059708044e6 4.745039657871314e6 0.0
4.745039657871314e6 -2.764218476253205e7 0.0
0.0 0.0 0.0

1.6280001593397548e6 6.912047829235041e6 0.0
6.912047829235041e6 -1.3509971552001048e7 0.0
0.0 0.0 0.0

-380218.95367417065 1.67029389993769e7 0.0
1.67029389993769e7 -8.585288492579166e6 0.0
0.0 0.0 0.0

-5.770094526059829e6 1.5338914301763862e7 0.0
1.5338914301763862e7 4.2354667444735624e7 0.0
0.0 0.0 0.0

-3.712456045465109e6 2.3896668391352963e7 0.0
2.3896668391352963e7 1.5421097226452226e7 0.0
0.0 0.0 0.0

-5.768939017875355e6 1.0636461709549498e7 0.0
1.0636461709549498e7 5.968686340455247e6 0.0
0.0 0.0 0.0

-5.054760711257839e6 2.1385654262447204e7 0.0
2.1385654262447204e7 2.2451204151330512e7 0.0
0.0 0.0 0.0

3.187542565478064e6 6.4507588052973e6 0.0
6.4507588052973e6 -2.0300055022700466e7 0.0
0.0 0.0 0.0

1.6242460930101983e6 1.4253087241102291e7 0.0
1.4253087241102291e7 -2.5878167943040535e7 0.0
0.0 0.0 0.0

-375431.4242677046 6.881618859231709e7 0.0
6.881618859231709e7 6.488054775599044e6 0.0
0.0 0.0 0.0

-5.061136770525033e6 1.4568813356956163e7 0.0
1.4568813356956163e7 7.629679107724775e6 0.0
0.0 0.0 0.0

-1.1458793141727187e7 5.613120630134285e6 0.0
5.613120630134285e6 1.8686203594984658e7 0.0
0.0 0.0 0.0

431574.5132757947 2.051391044835564e7 0.0
2.051391044835564e7 -1.7776473497316327e7 0.0
0.0 0.0 0.0

1.2935388929572888e6 1.6973955274396032e7 0.0
1.6973955274396032e7 -2.0042499742002066e7 0.0
0.0 0.0 0.0

-40006.833322721766 3.4908610318454723e6 0.0
3.4908610318454723e6 3.375157590985342e6 0.0
0.0 0.0 0.0

-3.329254957635024e6 1.9010836074730407e6 0.0
1.9010836074730407e6 6.701105192909878e6 0.0
0.0 0.0 0.0

-4.73399404641107e6 3.1973218012616817e7 0.0
3.1973218012616817e7 4.478229727239126e6 0.0
0.0 0.0 0.0

-3.3983045582537693e6 2.0318790617281448e7 0.0
2.0318790617281448e7 7.90739944939213e6 0.0
0.0 0.0 0.0

-3.2094879870385807e6 3.1796562738998096e7 0.0
3.1796562738998096e7 2.553260915366555e6 0.0
0.0 0.0 0.0

2.544435849776053e6 9.84593778116033e6 0.0
9.84593778116033e6 -2.273470100248689e7 0.0
0.0 0.0 0.0

-2.856000112467651e6 2.317886701127851e7 0.0
2.317886701127851e7 5.848088981729885e6 0.0
0.0 0.0 0.0

-9.76558040732363e6 5.305296861371809e6 0.0
5.305296861371809e6 3.383377723397382e7 0.0
0.0 0.0 0.0

-7.931877501936997e7 6.99073071105682e6 0.0
6.99073071105682e6 3.900406558648959e6 0.0
0.0 0.0 0.0

-2.6070398484343523e6 2.535973472971474e7 0.0
2.535973472971474e7 3.2249431803750717e6 0.0
0.0 0.0 0.0

-4.621861505863163e6 2.1938385628316864e7 0.0
2.1938385628316864e7 2.0741847450993035e7 0.0
0.0 0.0 0.0

1.420895839641186e6 2.8077544675074223e7 0.0
2.8077544675074223e7 -7.416595065605476e6 0.0
0.0 0.0 0.0

1.7319011821479541e6 6.227131788189411e6 0.0
6.227131788189411e6 -1.2174489890373863e7 0.0
0.0 0.0 0.0

-4.71784859248822e6 1.6490175302587563e7 0.0
1.6490175302587563e7 9.079106709598096e6 0.0
0.0 0.0 0.0

-1.6216492579370806e7 2.708601437710396e7 0.0
2.708601437710396e7 -9.588819567958705e6 0.0
0.0 0.0 0.0

-8.1139014220003905e6 2.523762527990191e7 0.0
2.523762527990191e7 -9.927727432725962e6 0.0
0.0 0.0 0.0

2.8601062923994195e6 7.562896610339613e6 0.0
7.562896610339613e6 -1.665662315675481e7 0.0
0.0 0.0 0.0

-4.28418551436168e6 2.255541393618817e7 0.0
2.255541393618817e7 1.897655527622262e7 0.0
0.0 0.0 0.0

-287197.3512909105 1.9733176034960657e7 0.0
1.9733176034960657e7 -9.794830822731156e6 0.0
0.0 0.0 0.0

1.0400899376791753e6 5.015843948593175e6 0.0
5.015843948593175e6 -5.294935672053419e7 0.0
0.0 0.0 0.0

-7.973541007926885e6 2.4217373357968996e6 0.0
2.4217373357968996e6 4.9038900733097404e7 0.0
0.0 0.0 0.0

2.0792039710951587e6 1.0472168175023071e7 0.0
1.0472168175023071e7 -1.6146907495705303e7 0.0
0.0 0.0 0.0

2.652548135886511e6 7.494409501918469e6 0.0
7.494409501918469e6 -3.354530053684551e7 0.0
0.0 0.0 0.0

-552134.7079841159 2.1920220082448285e7 0.0
2.1920220082448285e7 -8.125021240568967e6 0.0
0.0 0.0 0.0

-352985.2856012322 1.2619884518700074e7 0.0
1.2619884518700074e7 -4.4059244896584585e7 0.0
0.0 0.0 0.0

2.5343737958388636e6 3.471422996846554e7 0.0
3.471422996846554e7 -3.4230097923790608e6 0.0
0.0 0.0 0.0

-2.309220674495304e6 1.8389910628591295e7 0.0
1.8389910628591295e7 4.091362464763558e7 0.0
0.0 0.0 0.0

-8.488090265496567e6 2.3373494548551026e6 0.0
2.3373494548551026e6 4.524704631755733e7 0.0
0.0 0.0 0.0

-317485.0858114464 2.07942687706605e7 0.0
2.07942687706605e7 -9.367988832512014e6 0.0
0.0 0.0 0.0

1.4593106680626813e6 8.328148665999004e6 0.0
8.328148665999004e6 -4.0668034575237855e7 0.0
0.0 0.0 0.0

-1.979993323529853e6 2.0922533223187968e7 0.0
2.0922533223187968e7 393632.0921497537 0.0
0.0 0.0 0.0

-2.7176695442946507e6 2.3313677292966336e7 0.0
2.3313677292966336e7 3.1923109941370627e6 0.0
0.0 0.0 0.0

-1.0826012032469679e7 7.756653394286915e6 0.0
7.756653394286915e6 2.6252035903561223e7 0.0
0.0 0.0 0.0

4.151536431525619e6 2.832917162046358e7 0.0
2.832917162046358e7 -7.463762830607343e6 0.0
0.0 0.0 0.0

1.0007379976595473e6 2.2428602644897018e7 0.0
2.2428602644897018e7 -4.0336263540166486e6 0.0
0.0 0.0 0.0

-742617.4751637863 2.7202932661901977e7 0.0
2.7202932661901977e7 -2.0268805199244898e6 0.0
0.0 0.0 0.0

1.8582686598615516e6 2.77635995680739e6 0.0
2.77635995680739e6 -5.025928385022925e7 0.0
0.0 0.0 0.0

-2.7570163967016526e6 2.378567098606318e7 0.0
2.378567098606318e7 4.438044597138056e6 0.0
0.0 0.0 0.0

773616.5776181892 1.5002576460662529e7 0.0
1.5002576460662529e7 -1.388369212413746e7 0.0
0.0 0.0 0.0

-4.129954587880515e6 1.2546636020338723e7 0.0
1.2546636020338723e7 2.1667096145990463e6 0.0
0.0 0.0 0.0

-1.0007106472815862e6 1.5201774558353562e7 0.0
1.5201774558353562e7 -4.941902714073772e6 0.0
0.0 0.0 0.0

-9.548428468885126e6 5.742403257385637e6 0.0
5.742403257385637e6 1.171793504009796e7 0.0
0.0 0.0 0.0

1.399357680208959e6 2.142415786822901e7 0.0
2.142415786822901e7 -5.308489170665771e6 0.0
0.0 0.0 0.0

-9.247707462971145e6 9.637343396344854e6 0.0
9.637343396344854e6 3.76791142329325e7 0.0
0.0 0.0 0.0

286191.13786813663 1.6923776788376026e7 0.0
1.6923776788376026e7 -1.2084920009934936e7 0.0
0.0 0.0 0.0

-6.131852820615899e6 6.173023285798045e6 0.0
6.173023285798045e6 5.461430320076399e6 0.0
0.0 0.0 0.0

-5.366884704266679e6 3.2708672718397163e7 0.0
3.2708672718397163e7 4.5339886606468e6 0.0
0.0 0.0 0.0

345835.8075984507 2.584824949177505e7 0.0
2.584824949177505e7 -6.755072995191185e6 0.0
0.0 0.0 0.0

845185.9748825552 1.7878762057786215e7 0.0
1.7878762057786215e7 -2.370721392295402e7 0.0
0.0 0.0 0.0

1.747260694066545e6 1.1235921180477047e7 0.0
1.1235921180477047e7 -1.4890719031800566e7 0.0
0.0 0.0 0.0

-1.901298567964679e6 2.5827510856115855e7 0.0
2.5827510856115855e7 3.9290506226381077e6 0.0
0.0 0.0 0.0

-4.685218499642367e6 2.1216794774513077e7 0.0
2.1216794774513077e7 2.412670488649944e7 0.0
0.0 0.0 0.0

7.239391887715608e6 2.1301184051372796e7 0.0
2.1301184051372796e7 1.2173413496141251e7 0.0
0.0 0.0 0.0

937509.473152671 8.641683664144864e6 0.0
8.641683664144864e6 -4.376335835932429e7 0.0
0.0 0.0 0.0

-2.2130219307165937e6 2.299008199916865e7 0.0
2.299008199916865e7 8.026660911500033e6 0.0
0.0 0.0 0.0

-2.0460948907061233e6 2.428560003352416e7 0.0
2.428560003352416e7 5.192760970721302e6 0.0
0.0 0.0 0.0

-1.0984308069710515e7 1.24683444985085e7 0.0
1.24683444985085e7 2.017700625040446e7 0.0
0.0 0.0 0.0

3.229296021479113e6 3.555718654940563e7 0.0
3.555718654940563e7 -3.4387366680295104e6 0.0
0.0 0.0 0.0

272327.7044650726 1.4760106603316598e7 0.0
1.4760106603316598e7 -1.0478093068682497e7 0.0
0.0 0.0 0.0

-7.214700967432983e6 1.8554619450887173e7 0.0
1.8554619450887173e7 2.1747694900929514e7 0.0
0.0 0.0 0.0

1.7948225102793397e6 1.0635544695972111e7 0.0
1.0635544695972111e7 -1.3924853600558827e7 0.0
0.0 0.0 0.0

-3.9522987438770155e6 9.655747113886489e6 0.0
9.655747113886489e6 7.5920986610174505e6 0.0
0.0 0.0 0.0

-1.7592100948597752e6 2.6263274828657087e7 0.0
2.6263274828657087e7 2.838040144243383e6 0.0
0.0 0.0 0.0

-1.797928495683085e6 2.7222662335133944e7 0.0
2.7222662335133944e7 2.861368882068052e6 0.0
0.0 0.0 0.0

164815.055636602 1.6466345989131277e7 0.0
1.6466345989131277e7 -1.1101302961189356e7 0.0
0.0 0.0 0.0

2.5575258471574932e6 2.3207076183774482e7 0.0
2.3207076183774482e7 -5.147362658015056e6 0.0
0.0 0.0 0.0

1.4919389070351213e7 3.033254076920923e7 0.0
3.033254076920923e7 -5.359164687946447e6 0.0
0.0 0.0 0.0

-5.824515593084543e6 2.53332062520449e7 0.0
2.53332062520449e7 8.50720191903876e6 0.0
0.0 0.0 0.0

-1.057216162121284e7 1.786453450393667e7 0.0
1.786453450393667e7 -4.4699433269723654e7 0.0
0.0 0.0 0.0

987462.1834518132 1.2172584774564706e7 0.0
1.2172584774564706e7 -1.1206183311692722e7 0.0
0.0 0.0 0.0

-1.002281133726633e7 5.853454121934075e6 0.0
5.853454121934075e6 3.1308334842692323e7 0.0
0.0 0.0 0.0

-3.275291728666859e6 2.323975159885909e7 0.0
2.323975159885909e7 -1.8272107085418846e6 0.0
0.0 0.0 0.0

-6.705164116591428e6 2.394012532853982e7 0.0
2.394012532853982e7 -1.274183070155367e6 0.0
0.0 0.0 0.0

-2.1458736992438817e6 2.3611963042260226e7 0.0
2.3611963042260226e7 6.506767571038673e6 0.0
0.0 0.0 0.0

-9.287478803751353e6 3.5679904968039608e6 0.0
3.5679904968039608e6 3.535196711811041e7 0.0
0.0 0.0 0.0

-6.236208231873916e6 3.3430202439131588e7 0.0
3.3430202439131588e7 4.60306135397839e6 0.0
0.0 0.0 0.0

-2.4406220138086514e6 2.585138567013773e7 0.0
2.585138567013773e7 2.1241565174609697e6 0.0
0.0 0.0 0.0

2.709257075121751e6 2.166645494347358e7 0.0
2.166645494347358e7 1.0878407536143616e6 0.0
0.0 0.0 0.0

3.911753226723473e6 1.8394169063272297e7 0.0
1.8394169063272297e7 1.3039177618301177e7 0.0
0.0 0.0 0.0

-2.3335082848701566e6 2.2295663191306658e7 0.0
2.2295663191306658e7 9.592999872346647e6 0.0
0.0 0.0 0.0

-4.729819917353249e6 2.0002970114349697e7 0.0
2.0002970114349697e7 1.5582029198789487e7 0.0
0.0 0.0 0.0

2.9119971835287698e6 6.854193986736444e6 0.0
6.854193986736444e6 -1.5606093894638661e7 0.0
0.0 0.0 0.0

-405018.2881819011 2.7500653828155093e7 0.0
2.7500653828155093e7 -2.9391584886287893e6 0.0
0.0 0.0 0.0

-7.811795300290573e6 1.6681488143023025e7 0.0
1.6681488143023025e7 2.3774866579708867e7 0.0
0.0 0.0 0.0

2.6586535470730215e6 4.382548886452472e6 0.0
4.382548886452472e6 -2.5302395379465308e7 0.0
0.0 0.0 0.0

-1.3612376696221011e6 2.538416354692022e7 0.0
2.538416354692022e7 -5.201145282914655e6 0.0
0.0 0.0 0.0

-2.0571230496913265e6 2.322370218779212e7 0.0
2.322370218779212e7 5.401936239933891e6 0.0
0.0 0.0 0.0

-4.759972341139666e6 5.467102028223929e6 0.0
5.467102028223929e6 3.2135063537340164e6 0.0
0.0 0.0 0.0

1.0871608475562613e6 1.2126055316029925e7 0.0
1.2126055316029925e7 -1.8830174077883188e7 0.0
0.0 0.0 0.0

1.7912884044313962e6 6.0275375223398685e7 0.0
6.0275375223398685e7 4.688189827333175e6 0.0
0.0 0.0 0.0

-69104.38971113786 7.7726831335099535e6 0.0
7.7726831335099535e6 -7.574001987976855e7 0.0
0.0 0.0 0.0

2.48386767226905e6 5.626556655891015e6 0.0
5.626556655891015e6 -2.9692954583162583e7 0.0
0.0 0.0 0.0

1.7841924489777144e6 1.375443203612019e7 0.0
1.375443203612019e7 -2.122491292376819e7 0.0
0.0 0.0 0.0

-5.638875018577164e6 2.4750199403031144e7 0.0
2.4750199403031144e7 6.323415590335083e6 0.0
0.0 0.0 0.0

191913.86299938709 1.6303383224805519e7 0.0
1.6303383224805519e7 -2.8906008320229862e7 0.0
0.0 0.0 0.0

943811.3445255682 1.1574950132101508e7 0.0
1.1574950132101508e7 -1.0149629035351308e7 0.0
0.0 0.0 0.0

-3.602994012545337e6 1.174696372179145e7 0.0
1.174696372179145e7 233620.9464122015 0.0
0.0 0.0 0.0

4.45429835851435e6 2.0421622290773697e7 0.0
2.0421622290773697e7 2.2311454233474806e7 0.0
0.0 0.0 0.0

-2.648921801524082e6 1.8640324208644763e7 0.0
1.8640324208644763e7 3.829313933970783e7 0.0
0.0 0.0 0.0

1.4287101255416987e7 1.5717231475480454e7 0.0
1.5717231475480454e7 6.869486103917522e6 0.0
0.0 0.0 0.0

-5.589821800421776e6 3.725194947271002e7 0.0
3.725194947271002e7 2.4551342728651892e6 0.0
0.0 0.0 0.0

-1.4590261616470965e6 1.7159101386860278e7 0.0
1.7159101386860278e7 -9.310243619386237e6 0.0
0.0 0.0 0.0

-3.3047444612576723e7 2.84259049244905e7 0.0
2.84259049244905e7 -2.4421968913840195e6 0.0
0.0 0.0 0.0

-173979.783962938 1.8714187266774673e7 0.0
1.8714187266774673e7 -1.022596354725189e7 0.0
0.0 0.0 0.0

-2.0613208356322644e6 2.387813946241085e7 0.0
2.387813946241085e7 4.044043684635712e6 0.0
0.0 0.0 0.0

-322075.494313736 1.4973631946048498e7 0.0
1.4973631946048498e7 -7.766111552519984e6 0.0
0.0 0.0 0.0

-2.0496267733711302e6 1.797732474917395e7 0.0
1.797732474917395e7 -2.982232702011326e7 0.0
0.0 0.0 0.0

2.630298573771432e6 5.326985348625818e6 0.0
5.326985348625818e6 -2.3993046135377273e7 0.0
0.0 0.0 0.0

916485.1601889078 1.1709450473657345e7 0.0
1.1709450473657345e7 -3.96876108647904e7 0.0
0.0 0.0 0.0

-218974.2393975025 2.2061021158096142e7 0.0
2.2061021158096142e7 1.9545794976429723e7 0.0
0.0 0.0 0.0

2.7121094712586757e6 7.8580651240526615e6 0.0
7.8580651240526615e6 -2.757973066818885e7 0.0
0.0 0.0 0.0

-1.0025281782087539e6 2.5593794053798843e7 0.0
2.5593794053798843e7 -5.996091150247077e6 0.0
0.0 0.0 0.0

-208959.80814858247 2.183818344710765e7 0.0
2.183818344710765e7 -1.2879569139332732e7 0.0
0.0 0.0 0.0

-2.464213205890923e6 1.515394417619895e7 0.0
1.515394417619895e7 -4.478294751972211e6 0.0
0.0 0.0 0.0

-3.612981516467282e6 1.7439546476637483e7 0.0
1.7439546476637483e7 3.8360565300568333e6 0.0
0.0 0.0 0.0

-6.841121382393158e6 1.912001284604488e7 0.0
1.912001284604488e7 2.255961802248692e7 0.0
0.0 0.0 0.0

2.231913043797708e6 1.083859039001418e7 0.0
1.083859039001418e7 -1.926330847244259e7 0.0
0.0 0.0 0.0

-6.839388419893989e6 4.017959099990002e7 0.0
4.017959099990002e7 2.5731696659478154e6 0.0
0.0 0.0 0.0

-7.334822425437585e6 3.401558987152391e7 0.0
3.401558987152391e7 4.82780758124054e6 0.0
0.0 0.0 0.0

-6.24719238569412e6 2.0072515754858945e7 0.0
2.0072515754858945e7 2.3402535403295394e7 0.0
0.0 0.0 0.0

-1.8823531674100177e6 1.832436658087668e7 0.0
1.832436658087668e7 -6.274510118602635e6 0.0
0.0 0.0 0.0

1.176707371496711e6 1.763729457218072e7 0.0
1.763729457218072e7 -1.861719074844581e7 0.0
0.0 0.0 0.0

2.9260545451507457e6 7.592365221160781e6 0.0
7.592365221160781e6 -2.4668794255425863e7 0.0
0.0 0.0 0.0

-4.1314504694957514e6 2.6273076318247464e7 0.0
2.6273076318247464e7 1.1160619558690723e7 0.0
0.0 0.0 0.0

-1.1471313461668214e7 1.128897306645973e7 0.0
1.128897306645973e7 2.3999893897665344e7 0.0
0.0 0.0 0.0

6.042496260649299e6 3.0925212981858533e7 0.0
3.0925212981858533e7 -5.79285774409481e6 0.0
0.0 0.0 0.0

-6.5655734778216295e6 3.0096940873173997e6 0.0
3.0096940873173997e6 6.045273648375577e7 0.0
0.0 0.0 0.0

-1.3630153101317293e6 2.1939943072024252e7 0.0
2.1939943072024252e7 -8.576650159298927e6 0.0
0.0 0.0 0.0

-8.833172591232385e6 -1.1017126773495732e6 0.0
-1.1017126773495732e6 3.1795366644869518e7 0.0
0.0 0.0 0.0

-9.6022223250235e6 4.790140278666863e6 0.0
4.790140278666863e6 1.7739809091568463e7 0.0
0.0 0.0 0.0

2.969168069075996e6 6.078902135599302e6 0.0
6.078902135599302e6 -1.4740675586549e7 0.0
0.0 0.0 0.0

-6.8544919772682e6 1.5509636773760678e7 0.0
1.5509636773760678e7 3.8697319508811295e7 0.0
0.0 0.0 0.0

1.6946237752832975e6 1.2159179474538963e7 0.0
1.2159179474538963e7 -3.2683105493657712e7 0.0
0.0 0.0 0.0

-786634.8187676237 2.5670770856297668e7 0.0
2.5670770856297668e7 -3.3526395945525463e6 0.0
0.0 0.0 0.0

-2.0414688090326623e6 2.525043594405479e7 0.0
2.525043594405479e7 5.143039057843219e6 0.0
0.0 0.0 0.0

-1.6547382140641254e6 1.8414358444323085e7 0.0
1.8414358444323085e7 -2.735396297244197e6 0.0
0.0 0.0 0.0

-2.2851038020661897e6 2.560212901314829e7 0.0
2.560212901314829e7 7.552819328431922e6 0.0
0.0 0.0 0.0

799264.8339445791 6.295579924919162e6 0.0
6.295579924919162e6 -8.041294672432225e6 0.0
0.0 0.0 0.0

-2.2632027101071915e6 2.16243254008114e7 0.0
2.16243254008114e7 -4.1134565709867133e6 0.0
0.0 0.0 0.0

1.269880674833736e7 3.109335264572125e7 0.0
3.109335264572125e7 -5.610251787743395e6 0.0
0.0 0.0 0.0

739763.4922680212 1.0777627898750897e7 0.0
1.0777627898750897e7 -9.261157800151013e6 0.0
0.0 0.0 0.0

-201467.99423104804 1.717432698382264e7 0.0
1.717432698382264e7 -9.65994338671524e6 0.0
0.0 0.0 0.0

-6.950109495861333e6 2.45906280279457e7 0.0
2.45906280279457e7 -7.465463165416748e6 0.0
0.0 0.0 0.0

-1.8652987946515665e6 1.7908588172234714e7 0.0
1.7908588172234714e7 -1.3966948848837905e6 0.0
0.0 0.0 0.0

1.382809070911889e7 2.5700926191510666e7 0.0
2.5700926191510666e7 -1.3918831196520282e6 0.0
0.0 0.0 0.0

-3.391594372586439e6 4.693701516054706e6 0.0
4.693701516054706e6 821643.5923348397 0.0
0.0 0.0 0.0

2.221439015795324e6 4.826581997305025e6 0.0
4.826581997305025e6 -3.6125331861302085e7 0.0
0.0 0.0 0.0

-4.539086193860433e6 3.032086080148386e6 0.0
3.032086080148386e6 9.434009073415529e6 0.0
0.0 0.0 0.0

-2.8956888506764886e6 1.0954258186991535e7 0.0
1.0954258186991535e7 -1.6490240756951459e6 0.0
0.0 0.0 0.0

-2.136801506161049e6 1.8637174757351585e7 0.0
1.8637174757351585e7 -6.283033493698346e6 0.0
0.0 0.0 0.0

-9.339992900078556e6 6.352797705007618e6 0.0
6.352797705007618e6 1.7146350236352984e7 0.0
0.0 0.0 0.0

2.407032642211832e6 7.059303049945412e6 0.0
7.059303049945412e6 -1.0956569915674713e7 0.0
0.0 0.0 0.0

598378.1386222597 2.236727599516589e7 0.0
2.236727599516589e7 -1.506774678754289e7 0.0
0.0 0.0 0.0

-2.0681668595219706e6 1.0213980262260355e7 0.0
1.0213980262260355e7 -3.575180076524134e6 0.0
0.0 0.0 0.0

905374.981424643 5.406854702910143e7 0.0
5.406854702910143e7 2.838183629269273e6 0.0
0.0 0.0 0.0

1.4967798699841017e7 2.481069278826223e7 0.0
2.481069278826223e7 1.3052181790021094e7 0.0
0.0 0.0 0.0

-1.2546163151932296e6 9.436037504041225e6 0.0
9.436037504041225e6 -5.077566998771286e6 0.0
0.0 0.0 0.0

-5.10069948129777e6 1.5794289269552553e7 0.0
1.5794289269552553e7 1.5978162490017831e7 0.0
0.0 0.0 0.0

1.6960480274001816e6 4.416461470922514e6 0.0
4.416461470922514e6 -6.819897426186839e6 0.0
0.0 0.0 0.0

-9.721391562152099e6 1.020027602525154e7 0.0
1.020027602525154e7 3.503480846159343e7 0.0
0.0 0.0 0.0

-539863.1143752129 8.642515953534115e6 0.0
8.642515953534115e6 -6.590918569165385e6 0.0
0.0 0.0 0.0

-9.136487197259223e6 3.982435861111409e7 0.0
3.982435861111409e7 4.675902932926346e6 0.0
0.0 0.0 0.0

7.360808367713697e6 3.1258107623422477e7 0.0
3.1258107623422477e7 -5.698211533546207e6 0.0
0.0 0.0 0.0

3.0567900008535534e6 6.730791057792118e6 0.0
6.730791057792118e6 -2.5983613486859683e7 0.0
0.0 0.0 0.0

-340507.37988596084 2.2471243358771972e7 0.0
2.2471243358771972e7 -1.153186179966922e7 0.0
0.0 0.0 0.0

1.7315111855464634e6 7.936010085684345e6 0.0
7.936010085684345e6 -3.6832797471157745e7 0.0
0.0 0.0 0.0

-2.385945493620324e6 1.9366078303234316e7 0.0
1.9366078303234316e7 -4.768578692048669e6 0.0
0.0 0.0 0.0

3.5845119077615594e6 2.2275432204486344e7 0.0
2.2275432204486344e7 1.3902521043670308e7 0.0
0.0 0.0 0.0

1.0612826034572173e7 3.142083132440203e7 0.0
3.142083132440203e7 -5.6373923574627675e6 0.0
0.0 0.0 0.0

701201.4913225644 1.0264561249148864e7 0.0
1.0264561249148864e7 -7.998098917071743e6 0.0
0.0 0.0 0.0

2.215079512347513e6 9.17926277312022e6 0.0
9.17926277312022e6 -1.4205930216807308e7 0.0
0.0 0.0 0.0

-842439.8024264788 1.3263676939141763e7 0.0
1.3263676939141763e7 -3.877502534212614e6 0.0
0.0 0.0 0.0

-8.996741325395156e6 3.450436852363652e7 0.0
3.450436852363652e7 4.966259363019305e6 0.0
0.0 0.0 0.0

-3.5416567884817086e6 1.6792516424990892e7 0.0
1.6792516424990892e7 2.1942358864197396e6 0.0
0.0 0.0 0.0

9.504475859601062e6 3.711583987189194e7 0.0
3.711583987189194e7 -4.195999332088068e6 0.0
0.0 0.0 0.0

-1.4339383460211037e6 1.8893052763276715e7 0.0
1.8893052763276715e7 -3.9938999399058353e6 0.0
0.0 0.0 0.0

6.737302821155489e6 2.0292328477638263e7 0.0
2.0292328477638263e7 2.8453886583021287e7 0.0
0.0 0.0 0.0

-5.943437539154712e6 2.41864241601436e7 0.0
2.41864241601436e7 -4.826016718236383e6 0.0
0.0 0.0 0.0

-920973.3693022868 2.776402795191812e7 0.0
2.776402795191812e7 -913868.7068410951 0.0
0.0 0.0 0.0

-1.1389611796483006e6 2.1721820327649876e7 0.0
2.1721820327649876e7 -1.4779030498906152e7 0.0
0.0 0.0 0.0

-2.2656233636192605e6 1.5002427296628773e7 0.0
1.5002427296628773e7 -4.348757241555575e7 0.0
0.0 0.0 0.0

-4.772125415880516e6 1.843213857114586e7 0.0
1.843213857114586e7 3.472686792313629e7 0.0
0.0 0.0 0.0

347628.9373798771 1.2544411719829187e7 0.0
1.2544411719829187e7 -1.4480996899458982e7 0.0
0.0 0.0 0.0

-1.0058864567267217e7 1.0771250788697733e7 0.0
1.0771250788697733e7 3.235501516955173e7 0.0
0.0 0.0 0.0

1.593525097177513e6 1.3536768146196112e7 0.0
1.3536768146196112e7 -2.9315021012366656e7 0.0
0.0 0.0 0.0

-2.2838751186830453e6 1.3805728974624267e7 0.0
1.3805728974624267e7 -4.72852752871471e6 0.0
0.0 0.0 0.0

2.8112564766586972e6 4.206080706032457e6 0.0
4.206080706032457e6 -1.4595928031425528e7 0.0
0.0 0.0 0.0

-2.844104760836587e6 2.0926909520320605e7 0.0
2.0926909520320605e7 864443.3691900772 0.0
0.0 0.0 0.0

-2.4514664856528305e6 2.672917079723617e7 0.0
2.672917079723617e7 2.0839221196811348e6 0.0
0.0 0.0 0.0

2.0280696697600964e6 3.2244530738046642e7 0.0
3.2244530738046642e7 -4.2444275323927095e6 0.0
0.0 0.0 0.0

-2.343292201906838e6 2.0509844120684158e7 0.0
2.0509844120684158e7 -4.432583745936599e6 0.0
0.0 0.0 0.0

2.400469196948718e6 6.247680633275525e6 0.0
6.247680633275525e6 -9.90739568358192e6 0.0
0.0 0.0 0.0

8.840955400351632e6 3.1439960977352206e7 0.0
3.1439960977352206e7 -5.70655867833787e6 0.0
0.0 0.0 0.0

-1.033946712861228e7 1.256459469539192e7 0.0
1.256459469539192e7 2.5821526379310448e7 0.0
0.0 0.0 0.0

1.0061452287599985e6 7.859902459828105e6 0.0
7.859902459828105e6 -4.598149580349936e7 0.0
0.0 0.0 0.0

4.741210872177791e6 2.436712571514267e7 0.0
2.436712571514267e7 1.3471419236038562e7 0.0
0.0 0.0 0.0

-3.301613011484614e6 2.9728947755226694e7 0.0
2.9728947755226694e7 4.29043015826492e6 0.0
0.0 0.0 0.0

-3.109227113818384e6 2.0038772390015796e7 0.0
2.0038772390015796e7 -1.3170219606352903e7 0.0
0.0 0.0 0.0

-2.925602351696862e6 1.896742530844105e7 0.0
1.896742530844105e7 3.6001356639905676e7 0.0
0.0 0.0 0.0

-5.4000769196910355e6 2.0852172725936875e7 0.0
2.0852172725936875e7 -1.800025657911479e7 0.0
0.0 0.0 0.0

-592518.8198762448 1.3968054477066707e7 0.0
1.3968054477066707e7 -1.1658124639633125e7 0.0
0.0 0.0 0.0

2.6922504948086296e6 2.0941386198573e7 0.0
2.0941386198573e7 1.9106223027927633e7 0.0
0.0 0.0 0.0

956359.2329605569 5.015415097963014e7 0.0
5.015415097963014e7 2.2176695536888856e6 0.0
0.0 0.0 0.0

-4.517937227923801e6 2.419603799123926e7 0.0
2.419603799123926e7 -1.101733825799773e7 0.0
0.0 0.0 0.0

6.533424481632987e7 2.1521616942192618e7 0.0
2.1521616942192618e7 5.691733205365799e6 0.0
0.0 0.0 0.0

-2.178230974543074e6 1.5706543089273285e7 0.0
1.5706543089273285e7 -5.748845103267293e6 0.0
0.0 0.0 0.0

-2.7311374744662633e6 2.143342519252614e7 0.0
2.143342519252614e7 -459535.94772092 0.0
0.0 0.0 0.0

734447.9751727572 1.587979328220344e7 0.0
1.587979328220344e7 -1.8756000319100555e7 0.0
0.0 0.0 0.0

2.5518647091493523e6 3.296224236339314e7 0.0
3.296224236339314e7 -4.238357031081984e6 0.0
0.0 0.0 0.0

1.825789482200643e6 6.253253658054098e6 0.0
6.253253658054098e6 -4.007203860022995e7 0.0
0.0 0.0 0.0

-338183.6405178574 9.22746590716435e6 0.0
9.22746590716435e6 -7.809409694729629e6 0.0
0.0 0.0 0.0

1.2601848681235434e6 1.2444655981053742e7 0.0
1.2444655981053742e7 -2.175275629087743e7 0.0
0.0 0.0 0.0

-3.6046395630243113e6 2.3987372728000592e7 0.0
2.3987372728000592e7 1.5881208290680544e7 0.0
0.0 0.0 0.0

-2.1745592051634504e6 2.269714889394559e7 0.0
2.269714889394559e7 -3.8192352064794367e6 0.0
0.0 0.0 0.0

514050.9937962659 2.1209912679419838e7 0.0
2.1209912679419838e7 6.381836089989268e6 0.0
0.0 0.0 0.0

-1.1989163093545455e6 1.4592091220105957e7 0.0
1.4592091220105957e7 -3.576392032055199e6 0.0
0.0 0.0 0.0

-1.4631419085839293e6 2.118527897588268e7 0.0
2.118527897588268e7 -3.387205902532511e6 0.0
0.0 0.0 0.0

2.527039787061055e6 2.1891622975141935e7 0.0
2.1891622975141935e7 -4.328554461607046e6 0.0
0.0 0.0 0.0

1.49505084516169e6 4.737150761917437e7 0.0
4.737150761917437e7 2.0839739817503875e6 0.0
0.0 0.0 0.0

-1.4056885926933018e6 2.2268732476871323e7 0.0
2.2268732476871323e7 -3.108166279365548e6 0.0
0.0 0.0 0.0

-3.830033945898687e6 7.4762920825032e6 0.0
7.4762920825032e6 7.469631207387935e6 0.0
0.0 0.0 0.0

3.0698741051814053e7 1.4450862640235605e7 0.0
1.4450862640235605e7 2.0741377538409121e6 0.0
0.0 0.0 0.0

-908525.211485114 1.047931622065937e7 0.0
1.047931622065937e7 -5.719368652139312e7 0.0
0.0 0.0 0.0

-1.6121740165970763e6 2.7667922412231848e7 0.0
2.7667922412231848e7 2.0241700281245592e6 0.0
0.0 0.0 0.0

-5.885109044576418e6 8.926055833295165e6 0.0
8.926055833295165e6 1.1830277488652263e7 0.0
0.0 0.0 0.0

-1.6968268597290823e6 1.5025621748714186e7 0.0
1.5025621748714186e7 -7.242719545621231e6 0.0
0.0 0.0 0.0

-215783.99009168195 1.2709957699699495e7 0.0
1.2709957699699495e7 -1.2071015089592183e7 0.0
0.0 0.0 0.0

1.3629749414595915e6 4.503956082716028e7 0.0
4.503956082716028e7 1.2341941681432726e6 0.0
0.0 0.0 0.0

1.2646069330031034e6 1.1068058155136118e7 0.0
1.1068058155136118e7 -3.453486293021018e7 0.0
0.0 0.0 0.0

-1.1077121266107483e7 6.125641382021465e6 0.0
6.125641382021465e6 2.7673966905491076e7 0.0
0.0 0.0 0.0

-6.018781548348197e6 2.342922581845824e7 0.0
2.342922581845824e7 -1.4510190458016045e7 0.0
0.0 0.0 0.0

-8.140478012763702e6 8.110436131168581e6 0.0
8.110436131168581e6 1.5719372761891691e7 0.0
0.0 0.0 0.0

-1.40610956181846e6 2.0890348106937476e7 0.0
2.0890348106937476e7 -9.018086353717145e6 0.0
0.0 0.0 0.0

-2.433442219162619e6 2.29032222419478e7 0.0
2.29032222419478e7 -1.4130073117737235e6 0.0
0.0 0.0 0.0

555471.9767530458 1.7409076065224912e7 0.0
1.7409076065224912e7 -2.3486155322247013e7 0.0
0.0 0.0 0.0

927372.3374484365 4.310181656423715e7 0.0
4.310181656423715e7 862625.8993788805 0.0
0.0 0.0 0.0

-3.625882378153611e6 2.473477888804602e7 0.0
2.473477888804602e7 1.4309301219580166e7 0.0
0.0 0.0 0.0

-1.3238762412218265e6 2.3315902460750606e7 0.0
2.3315902460750606e7 -2.8608607416947903e6 0.0
0.0 0.0 0.0

1.7447314350553975e6 7.098034594018075e6 0.0
7.098034594018075e6 -3.8569110462559275e7 0.0
0.0 0.0 0.0

-3.8125249907559264e6 1.1561816607399166e7 0.0
1.1561816607399166e7 7.393700076490115e6 0.0
0.0 0.0 0.0

1.1359018251141643e6 4.158525354642901e7 0.0
4.158525354642901e7 872780.0725734766 0.0
0.0 0.0 0.0

318449.22266855836 9.430713619276326e6 0.0
9.430713619276326e6 -6.0344038690692365e7 0.0
0.0 0.0 0.0

1.188903268146259e6 4.03210424743038e7 0.0
4.03210424743038e7 703107.7684376885 0.0
0.0 0.0 0.0

1.0375388566263029e6 3.915753088282101e7 0.0
3.915753088282101e7 420036.74228167697 0.0
0.0 0.0 0.0

-1.3321895813821515e6 3.0683245787564144e7 0.0
3.0683245787564144e7 -952625.9643918955 0.0
0.0 0.0 0.0

-1.2428588805253224e6 3.144372904859472e7 0.0
3.144372904859472e7 -793827.0107262996 0.0
0.0 0.0 0.0

-1.204333218907389e6 3.2198176890379056e7 0.0
3.2198176890379056e7 -689686.5339213763 0.0
0.0 0.0 0.0

-1.151718930527583e6 3.2915211615513653e7 0.0
3.2915211615513653e7 -668203.45905758 0.0
0.0 0.0 0.0

-1.1281973112380125e6 3.3641457374304414e7 0.0
3.3641457374304414e7 -580382.4743147693 0.0
0.0 0.0 0.0

-1.117082756207975e6 3.440659041826054e7 0.0
3.440659041826054e7 -633638.593125202 0.0
0.0 0.0 0.0

-5.679104976694807e6 1.564096031407618e7 0.0
1.564096031407618e7 1.1058494469753444e7 0.0
0.0 0.0 0.0

-978699.0545503246 3.5164483421132036e7 0.0
3.5164483421132036e7 -526770.7663237352 0.0
0.0 0.0 0.0

-1.1021864921722151e6 3.597183286179471e7 0.0
3.597183286179471e7 -507317.30997988733 0.0
0.0 0.0 0.0

-6.660003818480495e6 1.8307866694543313e7 0.0
1.8307866694543313e7 2.3889690658420015e7 0.0
0.0 0.0 0.0

865324.0810090197 3.8119683949794956e7 0.0
3.8119683949794956e7 383472.1810319169 0.0
0.0 0.0 0.0

-1.2642073347702296e6 3.67250855898381e7 0.0
3.67250855898381e7 -462968.1141692589 0.0
0.0 0.0 0.0

-1.1491173450167968e6 3.7663548914323725e7 0.0
3.7663548914323725e7 -316675.21358950104 0.0
0.0 0.0 0.0

754736.9912303875 3.721607535666966e7 0.0
3.721607535666966e7 305708.78912766936 0.0
0.0 0.0 0.0

-1.3529676527574146e6 1.768938428401802e7 0.0
1.768938428401802e7 -4.2993382137637725e6 0.0
0.0 0.0 0.0

-1.3915228677924844e6 3.865618114642294e7 0.0
3.865618114642294e7 -366210.55539578595 0.0
0.0 0.0 0.0

391803.6402981171 3.631825367184134e7 0.0
3.631825367184134e7 78408.40470341474 0.0
0.0 0.0 0.0

606498.9952636771 3.55109088969882e7 0.0
3.55109088969882e7 89048.88916625916 0.0
0.0 0.0 0.0

331085.482531981 3.4815821965240136e7 0.0
3.4815821965240136e7 18398.151374654888 0.0
0.0 0.0 0.0

66703.52772266453 3.400510803025943e7 0.0
3.400510803025943e7 -10915.969365114739 0.0
0.0 0.0 0.0

-22625.678201176328 3.3302592659447435e7 0.0
3.3302592659447435e7 -64208.0871690209 0.0
0.0 0.0 0.0

-278281.9853665854 3.2564199663318213e7 0.0
3.2564199663318213e7 -111408.37193122509 0.0
0.0 0.0 0.0

-310259.65475942614 3.1853119280447118e7 0.0
3.1853119280447118e7 -146799.40150060446 0.0
0.0 0.0 0.0

-407883.3148077708 3.1112093662960872e7 0.0
3.1112093662960872e7 -269775.8244834492 0.0
0.0 0.0 0.0

-1.47926231363387e6 2.604451271560172e7 0.0
2.604451271560172e7 -3.972009895459013e6 0.0
0.0 0.0 0.0

-4.653124009324731e6 1.8960351506153535e7 0.0
1.8960351506153535e7 3.272447160511838e7 0.0
0.0 0.0 0.0

-1.7404308962009507e6 3.9684482470230736e7 0.0
3.9684482470230736e7 -294426.29286767007 0.0
0.0 0.0 0.0

2.0015156664539594e6 8.753898061091537e6 0.0
8.753898061091537e6 -2.6292718361454435e7 0.0
0.0 0.0 0.0

-1.8252194974043118e6 2.5373968846421234e7 0.0
2.5373968846421234e7 2.82744893515121e6 0.0
0.0 0.0 0.0

-2.2652694409663943e6 4.094628689251926e7 0.0
4.094628689251926e7 -127852.2468996871 0.0
0.0 0.0 0.0

-9.867328490685917e6 1.376522403667141e7 0.0
1.376522403667141e7 2.4641246085190244e7 0.0
0.0 0.0 0.0

-3.011476857252537e6 4.239927227043015e7 0.0
4.239927227043015e7 -195598.6633757979 0.0
0.0 0.0 0.0

-1.0349592755409205e7 1.203582482585904e7 0.0
1.203582482585904e7 2.7835348937963646e7 0.0
0.0 0.0 0.0

-3.957632530762368e6 4.401415415099692e7 0.0
4.401415415099692e7 -320306.9110258033 0.0
0.0 0.0 0.0

547805.2908674814 2.075542198798726e7 0.0
2.075542198798726e7 -1.7864690306306496e7 0.0
0.0 0.0 0.0

2.0469460929136686e6 1.195939923931704e7 0.0
1.195939923931704e7 -2.0976986770093016e7 0.0
0.0 0.0 0.0

-1.844099858377453e6 1.522772470384101e7 0.0
1.522772470384101e7 -4.03079141953045e7 0.0
0.0 0.0 0.0

-1.5371359756768048e6 2.292747382742392e7 0.0
2.292747382742392e7 -1.769055501506058e6 0.0
0.0 0.0 0.0

-1.2299838372456538e6 1.7599715461926837e7 0.0
1.7599715461926837e7 -1.0335710342565538e7 0.0
0.0 0.0 0.0

-1.2208712656747657e6 2.4662402022008978e7 0.0
2.4662402022008978e7 -6.46003531804521e6 0.0
0.0 0.0 0.0

527533.4455262711 2.0988641902233053e7 0.0
2.0988641902233053e7 -1.7859241862154473e7 0.0
0.0 0.0 0.0

3.082136249674648e6 1.8532764983859968e6 0.0
1.8532764983859968e6 -3.2629830171846658e7 0.0
0.0 0.0 0.0

-3.326045758237982e6 1.4702378434817655e7 0.0
1.4702378434817655e7 7.004198437826898e6 0.0
0.0 0.0 0.0

-4.9919945011173e6 4.602656850971623e7 0.0
4.602656850971623e7 -20486.082563152537 0.0
0.0 0.0 0.0

1.7335353103054166e6 1.292722782273562e7 0.0
1.292722782273562e7 -1.7557969234629072e7 0.0
0.0 0.0 0.0

-9.954429526943026e6 1.2274103585818494e7 0.0
1.2274103585818494e7 3.0937287241347358e7 0.0
0.0 0.0 0.0

-1.4673430166765063e6 2.0062201617412046e7 0.0
2.0062201617412046e7 -3.6934242760625663e6 0.0
0.0 0.0 0.0

918134.1124170112 3.377191159953305e7 0.0
3.377191159953305e7 -1.6325085336312798e6 0.0
0.0 0.0 0.0

2.122776208166456e6 7.904867891020887e6 0.0
7.904867891020887e6 -2.771630606960765e7 0.0
0.0 0.0 0.0

-1.3357196020773169e7 4.017483823236378e7 0.0
4.017483823236378e7 4.89012882682574e6 0.0
0.0 0.0 0.0

-5.107477406156082e6 1.752045873656119e7 0.0
1.752045873656119e7 1.2277733493482322e7 0.0
0.0 0.0 0.0

-1.8087342832026962e7 2.947756525634611e7 0.0
2.947756525634611e7 3.2339555223864065e6 0.0
0.0 0.0 0.0

3.088327312534307e6 2.0389598480263542e7 0.0
2.0389598480263542e7 1.6604373784816314e7 0.0
0.0 0.0 0.0

-7.324655753492486e6 4.884004827010231e7 0.0
4.884004827010231e7 161327.02948836936 0.0
0.0 0.0 0.0

973638.8475768156 1.250686657885962e7 0.0
1.250686657885962e7 -3.3227793635706995e7 0.0
0.0 0.0 0.0

-4.10993630857409e6 1.733581085846544e7 0.0
1.733581085846544e7 7.205171367130992e6 0.0
0.0 0.0 0.0

1.5642519259352346e6 1.9564204977348942e7 0.0
1.9564204977348942e7 5.2141735563056e6 0.0
0.0 0.0 0.0

1.7630025793702332e6 9.805613474607935e6 0.0
9.805613474607935e6 -2.2806376866641767e7 0.0
0.0 0.0 0.0

1.3889154572743415e6 2.258559811451626e7 0.0
2.258559811451626e7 4.707498030283662e6 0.0
0.0 0.0 0.0

1.8888168863495458e6 9.603887625996063e6 0.0
9.603887625996063e6 -2.4917140826949853e7 0.0
0.0 0.0 0.0

-140885.32149379165 1.8288707469898287e7 0.0
1.8288707469898287e7 -3.1542270304495418e6 0.0
0.0 0.0 0.0

-1.643700154320019e6 2.3523833023898177e7 0.0
2.3523833023898177e7 -461898.3864428304 0.0
0.0 0.0 0.0

-2.0617712896180558e6 2.373151614881105e7 0.0
2.373151614881105e7 -3.547258922478083e6 0.0
0.0 0.0 0.0

1.4064416449299464e6 1.0258150511122163e7 0.0
1.0258150511122163e7 -1.8365993374024138e7 0.0
0.0 0.0 0.0

2.9487484155430514e7 2.532756738835258e7 0.0
2.532756738835258e7 1.1247211954099948e7 0.0
0.0 0.0 0.0

1.4037526716681905e6 1.4103724102600882e7 0.0
1.4103724102600882e7 -1.711841046110167e7 0.0
0.0 0.0 0.0

-556573.6550911346 1.789704634875672e7 0.0
1.789704634875672e7 -8.172627323397316e6 0.0
0.0 0.0 0.0

-5.7309613625997435e6 2.5237530847720683e7 0.0
2.5237530847720683e7 7.094537193412164e6 0.0
0.0 0.0 0.0

504637.137497338 1.294490061571873e7 0.0
1.294490061571873e7 -9.808074062501764e6 0.0
0.0 0.0 0.0

-3.814642691155391e6 2.5523942230327066e7 0.0
2.5523942230327066e7 1.265537085520916e7 0.0
0.0 0.0 0.0

5.763258348624475e6 1.930131019235192e7 0.0
1.930131019235192e7 2.9869307369253688e7 0.0
0.0 0.0 0.0

-8.128947753269245e6 1.4913564726700177e7 0.0
1.4913564726700177e7 2.1002062491792917e7 0.0
0.0 0.0 0.0

-1.0826545077354603e7 5.207054969988171e7 0.0
5.207054969988171e7 -271761.3520745062 0.0
0.0 0.0 0.0

2.5774373143025097e6 1.940976994744649e7 0.0
1.940976994744649e7 4.829233324320769e7 0.0
0.0 0.0 0.0

-3.0444851676412476e6 1.7928682214670092e7 0.0
1.7928682214670092e7 -873500.3101522267 0.0
0.0 0.0 0.0

1.2910146411691805e7 2.2607160537915703e7 0.0
2.2607160537915703e7 4.567934550922436e6 0.0
0.0 0.0 0.0

2.2075073351532146e6 7.319025560108406e6 0.0
7.319025560108406e6 -3.1366673268262316e7 0.0
0.0 0.0 0.0

199361.7381714452 1.2784145430350047e7 0.0
1.2784145430350047e7 -3.8031829245587744e7 0.0
0.0 0.0 0.0

-4.061316729852968e6 2.0753965342965975e7 0.0
2.0753965342965975e7 1.366938776528186e7 0.0
0.0 0.0 0.0

-1.6481159964253904e7 2.7890865208377663e7 0.0
2.7890865208377663e7 -1.2268596108463805e7 0.0
0.0 0.0 0.0

-2.1309080729058646e6 2.0407412004859246e7 0.0
2.0407412004859246e7 1.7407748949517943e6 0.0
0.0 0.0 0.0

-303883.9601878179 1.8166765840502806e7 0.0
1.8166765840502806e7 -1.4343793417040473e7 0.0
0.0 0.0 0.0

-1.762092791288858e7 3.824965601491461e7 0.0
3.824965601491461e7 6.252589814150963e6 0.0
0.0 0.0 0.0

1.225724021101513e6 1.2963032249081125e7 0.0
1.2963032249081125e7 -2.25156311158261e7 0.0
0.0 0.0 0.0

-2.0523376512705656e6 2.1521549709522065e7 0.0
2.1521549709522065e7 1.7892652829268826e6 0.0
0.0 0.0 0.0

-4.711807759743948e6 1.035604464549893e7 0.0
1.035604464549893e7 9.610499835751208e6 0.0
0.0 0.0 0.0

-2.730712413698242e6 2.0431414738501463e7 0.0
2.0431414738501463e7 1.181742066490076e7 0.0
0.0 0.0 0.0

-3.8059233492724583e6 8.041069119156462e7 0.0
8.041069119156462e7 3.1274341671755444e6 0.0
0.0 0.0 0.0

-6.777512691183294e6 1.5619289832831182e7 0.0
1.5619289832831182e7 1.934783389717008e7 0.0
0.0 0.0 0.0

-4.968393833255975e6 7.834174248536906e6 0.0
7.834174248536906e6 3.6159414491091147e6 0.0
0.0 0.0 0.0

-1.3163122853074218e6 2.4968376863080416e7 0.0
2.4968376863080416e7 -1.3469943730424284e6 0.0
0.0 0.0 0.0

-2.6054559700242337e6 2.472029806309635e7 0.0
2.472029806309635e7 4.430636661554118e6 0.0
0.0 0.0 0.0

-292998.6987346774 2.1862333713005576e7 0.0
2.1862333713005576e7 -8.871555180921001e6 0.0
0.0 0.0 0.0

-2.1390934476750772e6 2.4378595264409192e7 0.0
2.4378595264409192e7 -2.258417044321298e6 0.0
0.0 0.0 0.0

-1.0071533537115362e7 2.740964334552923e6 0.0
2.740964334552923e6 1.8048069390802495e7 0.0
0.0 0.0 0.0

-95064.55064396095 2.0599352167107757e7 0.0
2.0599352167107757e7 -4.5948479357303195e6 0.0
0.0 0.0 0.0

-2.6834830267206277e6 2.565826500559611e7 0.0
2.565826500559611e7 4.444984616570193e6 0.0
0.0 0.0 0.0

730563.8974020025 1.1789606128384693e7 0.0
1.1789606128384693e7 -1.5788853484801628e7 0.0
0.0 0.0 0.0

845785.9258071079 2.109108564828418e7 0.0
2.109108564828418e7 -3.3551492598590516e6 0.0
0.0 0.0 0.0

-2.1373283831116736e7 2.8250318279095214e7 0.0
2.8250318279095214e7 586660.829379118 0.0
0.0 0.0 0.0

-5.319951163362116e6 1.6309863758070285e7 0.0
1.6309863758070285e7 1.7378267262551412e7 0.0
0.0 0.0 0.0

471378.351197727 2.0117849656810973e7 0.0
2.0117849656810973e7 -1.92690850169432e7 0.0
0.0 0.0 0.0

-2.941117748880891e6 2.6094148546822954e7 0.0
2.6094148546822954e7 6.707567191226e6 0.0
0.0 0.0 0.0

3.3406528015891025e6 2.4427763444451294e6 0.0
2.4427763444451294e6 -1.715750098483727e7 0.0
0.0 0.0 0.0

-5.384120442096877e6 -4.1584980236321823e6 0.0
-4.1584980236321823e6 8.54889629927146e6 0.0
0.0 0.0 0.0

-3.6880561706923465e6 -3.006453297866232e6 0.0
-3.006453297866232e6 5.808057720952564e6 0.0
0.0 0.0 0.0

-8.33733431642727e6 -3.1627553107193476e6 0.0
-3.1627553107193476e6 3.1627642466142066e7 0.0
0.0 0.0 0.0

-2.7317919980097366e6 -841524.4778038248 0.0
-841524.4778038248 2.6944323470679168e6 0.0
0.0 0.0 0.0

-8.354388455677256e6 -3.516466838222342e6 0.0
-3.516466838222342e6 2.9032287726847876e7 0.0
0.0 0.0 0.0

3.3955084827087177e6 2.632854609851377e6 0.0
2.632854609851377e6 -1.3121748090672227e7 0.0
0.0 0.0 0.0

-6.789865428378788e6 -5.506957943736695e6 0.0
-5.506957943736695e6 1.5439025889158824e7 0.0
0.0 0.0 0.0

-8.3444156738679875e6 -4.900442994844323e6 0.0
-4.900442994844323e6 2.177181095971508e7 0.0
0.0 0.0 0.0

-672009.1032907526 1.2178821563309613e6 0.0
1.2178821563309613e6 -571171.8944324832 0.0
0.0 0.0 0.0

-8.460241394184604e6 -3.9502656012450843e6 0.0
-3.9502656012450843e6 2.6369090130321544e7 0.0
0.0 0.0 0.0

2.7442594813897857e6 2.779380616488543e6 0.0
2.779380616488543e6 -8.969057918645691e6 0.0
0.0 0.0 0.0

1.5524895880153305e6 2.5999235527125685e6 0.0
2.5999235527125685e6 -4.847906159061228e6 0.0
0.0 0.0 0.0

-5.474963909739925e6 -4.886659165189198e6 0.0
-4.886659165189198e6 1.0528431039843274e7 0.0
0.0 0.0 0.0

3.257961903344013e6 1.9266518380099684e6 0.0
1.9266518380099684e6 -2.9243514859706454e7 0.0
0.0 0.0 0.0

3.2517376654888447e6 1.8420254353749894e6 0.0
1.8420254353749894e6 -3.178731249310805e7 0.0
0.0 0.0 0.0

3.3632003806855716e6 1.9542396818384037e6 0.0
1.9542396818384037e6 -2.6664726892481912e7 0.0
0.0 0.0 0.0

3.672079760255643e6 2.2182391047090674e6 0.0
2.2182391047090674e6 -2.2684779807142466e7 0.0
0.0 0.0 0.0

-6.784333997709208e6 -5.303127053076832e6 0.0
-5.303127053076832e6 1.3499800368325338e7 0.0
0.0 0.0 0.0

-8.260106315741289e6 -3.695268890888328e6 0.0
-3.695268890888328e6 2.7588584132135384e7 0.0
0.0 0.0 0.0

3.2530974678952415e6 1.9360423441045098e6 0.0
1.9360423441045098e6 -3.0633693604179397e7 0.0
0.0 0.0 0.0

3.3359514964538477e6 2.3454747850066004e6 0.0
2.3454747850066004e6 -1.994445353672808e7 0.0
0.0 0.0 0.0

3.480418539684059e6 2.2996729383510873e6 0.0
2.2996729383510873e6 -2.1291636865893867e7 0.0
0.0 0.0 0.0

3.529001987885529e6 2.3732894863033434e6 0.0
2.3732894863033434e6 -1.8648109138414502e7 0.0
0.0 0.0 0.0

1.0027845357562006e6 1.8346593962285217e7 0.0
1.8346593962285217e7 -1.7326563993236415e7 0.0
0.0 0.0 0.0

-9.090612474310655e6 1.471887774542132e7 0.0
1.471887774542132e7 2.345031261116893e7 0.0
0.0 0.0 0.0

-1.0813712278406631e7 9.331429920546854e6 0.0
9.331429920546854e6 3.051893571993314e7 0.0
0.0 0.0 0.0

-3.878916157225914e6 2.6378223913769513e7 0.0
2.6378223913769513e7 1.1258138949912127e7 0.0
0.0 0.0 0.0

-1.6449638872630848e6 1.829091122931029e7 0.0
1.829091122931029e7 -2.7694205910004728e7 0.0
0.0 0.0 0.0

-2.996736238969369e6 2.1609323469618503e7 0.0
2.1609323469618503e7 4.759914813022286e6 0.0
0.0 0.0 0.0

-1.6441401813675357e7 5.679579057330244e7 0.0
5.679579057330244e7 -697720.9623032939 0.0
0.0 0.0 0.0

-2.9436499104245603e6 1.914036882714433e7 0.0
1.914036882714433e7 -713031.9032621211 0.0
0.0 0.0 0.0

-5.601995122447777e6 2.2120217953265682e7 0.0
2.2120217953265682e7 -1.6695256471699122e7 0.0
0.0 0.0 0.0

1.1773521468944445e7 2.4891118477865413e7 0.0
2.4891118477865413e7 1.3054413940098954e7 0.0
0.0 0.0 0.0

-2.8589632996066073e6 2.292836489744811e7 0.0
2.292836489744811e7 9.615039436271798e6 0.0
0.0 0.0 0.0

-2.5344326323789707e6 2.1549895977581505e7 0.0
2.1549895977581505e7 1.1270889714136843e7 0.0
0.0 0.0 0.0

1.110565552674844e6 2.296009670482936e7 0.0
2.296009670482936e7 -1.376493736312402e7 0.0
0.0 0.0 0.0

-3.1361387828316996e6 1.9636473850263473e7 0.0
1.9636473850263473e7 1.3728322584962513e7 0.0
0.0 0.0 0.0

-2.156453394322554e6 2.5006987425649483e7 0.0
2.5006987425649483e7 -1.1027942981488903e6 0.0
0.0 0.0 0.0

-1.9440249623551886e6 2.305944748112756e7 0.0
2.305944748112756e7 -4.867432400983525e6 0.0
0.0 0.0 0.0

-5.959631561288097e6 1.6161420690435858e7 0.0
1.6161420690435858e7 1.2896077971282803e7 0.0
0.0 0.0 0.0

-860151.6550357151 1.689362643688133e7 0.0
1.689362643688133e7 -1.1779123183829546e7 0.0
0.0 0.0 0.0

-2.284392366477655e6 1.986072737138903e7 0.0
1.986072737138903e7 3.1573395070007597e6 0.0
0.0 0.0 0.0

1.0897206883193906e6 1.1034965595965674e7 0.0
1.1034965595965674e7 -1.7059370427069988e7 0.0
0.0 0.0 0.0

-4.917625217650814e6 -4.530929609899661e6 0.0
-4.530929609899661e6 1.1499969605200559e7 0.0
0.0 0.0 0.0

-3.9083527310637967e6 -3.263540834845268e6 0.0
-3.263540834845268e6 9.435671622191798e6 0.0
0.0 0.0 0.0

-8.53402819189645e6 -3.904553914492352e6 0.0
-3.904553914492352e6 2.6103580314871784e7 0.0
0.0 0.0 0.0

-5.798822254188241e6 -4.758530700151031e6 0.0
-4.758530700151031e6 1.3502556043570945e7 0.0
0.0 0.0 0.0

-6.653750275084247e6 -5.452353522585211e6 0.0
-5.452353522585211e6 1.5037762203227907e7 0.0
0.0 0.0 0.0

3.18936447047282e6 1.8838413637397625e6 0.0
1.8838413637397625e6 -2.9438535613059543e7 0.0
0.0 0.0 0.0

3.122431839262206e6 1.8351017122422387e6 0.0
1.8351017122422387e6 -3.0484051298651546e7 0.0
0.0 0.0 0.0

-8.381651867997114e6 -3.626639930222224e6 0.0
-3.626639930222224e6 2.7749009398273133e7 0.0
0.0 0.0 0.0

3.4045234715428287e6 2.2674162717184583e6 0.0
2.2674162717184583e6 -2.1873970885840032e7 0.0
0.0 0.0 0.0

3.4919955193136223e6 2.4965551128385104e6 0.0
2.4965551128385104e6 -1.750063598063686e7 0.0
0.0 0.0 0.0

3.4291135972469e6 2.3788914126916537e6 0.0
2.3788914126916537e6 -2.0042465416283e7 0.0
0.0 0.0 0.0

3.4841206324615786e6 2.3422824064502507e6 0.0
2.3422824064502507e6 -1.8743338431538574e7 0.0
0.0 0.0 0.0

-3.3543788165147565e6 1.8055582470446333e7 0.0
1.8055582470446333e7 2.2013373438061634e6 0.0
0.0 0.0 0.0

-4.617067343471747e6 1.945384084821231e7 0.0
1.945384084821231e7 3.0752550118057854e7 0.0
0.0 0.0 0.0

-3.950871294059775e6 1.9261444392396394e7 0.0
1.9261444392396394e7 1.6966011482485894e7 0.0
0.0 0.0 0.0

3.1897520424201507e6 6.006106310671177e6 0.0
6.006106310671177e6 -2.566747145853256e7 0.0
0.0 0.0 0.0

-82576.09180295537 2.781371055617359e7 0.0
2.781371055617359e7 -5.526612117851734e6 0.0
0.0 0.0 0.0

-89795.64967237692 2.166096172444821e7 0.0
2.166096172444821e7 2.409216119729127e7 0.0
0.0 0.0 0.0

-9.115353778658096e6 1.643072972892923e7 0.0
1.643072972892923e7 2.552200685459102e7 0.0
0.0 0.0 0.0

1.571063993790391e6 1.0603607555311004e7 0.0
1.0603607555311004e7 -2.1448478146513883e7 0.0
0.0 0.0 0.0

1.2091272269198988e6 1.3459168650628438e7 0.0
1.3459168650628438e7 -2.3124918036443386e7 0.0
0.0 0.0 0.0

-2.0486444205988063e6 2.2009419226440206e7 0.0
2.2009419226440206e7 -5.189526943844228e6 0.0
0.0 0.0 0.0

-914052.8626137599 2.1249728745608624e7 0.0
2.1249728745608624e7 2.689604777523341e7 0.0
0.0 0.0 0.0

-3.5884191599836093e6 1.3221854021743506e7 0.0
1.3221854021743506e7 7.198759811198866e6 0.0
0.0 0.0 0.0

-457210.3487506758 2.2594293792776145e7 0.0
2.2594293792776145e7 -7.546088568646833e6 0.0
0.0 0.0 0.0

-1.2078616587404644e6 2.7441277039517503e7 0.0
2.7441277039517503e7 88810.80804050306 0.0
0.0 0.0 0.0

1.0567498507504258e6 1.5221118562968962e7 0.0
1.5221118562968962e7 -1.6855485888414677e7 0.0
0.0 0.0 0.0

-1.4460540763140914e6 2.3954703331986308e7 0.0
2.3954703331986308e7 -1.5507249437245463e6 0.0
0.0 0.0 0.0

3.264828187967661e6 4.763464286838785e6 0.0
4.763464286838785e6 806845.5281264314 0.0
0.0 0.0 0.0

-1.4133654170440305e6 2.1597002945077743e7 0.0
2.1597002945077743e7 2.525297043105491e7 0.0
0.0 0.0 0.0

269155.15422579646 1.1469813552680813e7 0.0
1.1469813552680813e7 -4.524734241000286e7 0.0
0.0 0.0 0.0

652397.3874798156 1.2573630094302086e7 0.0
1.2573630094302086e7 -3.561319655038744e7 0.0
0.0 0.0 0.0

-514013.14580374653 2.1551064898338567e7 0.0
2.1551064898338567e7 -7.963678946282012e6 0.0
0.0 0.0 0.0

-1.0668458602822222e7 2.701594773859796e7 0.0
2.701594773859796e7 5.10942272699644e6 0.0
0.0 0.0 0.0

2.692267623268813e6 6.9000090982388435e6 0.0
6.9000090982388435e6 -1.3320524588188674e7 0.0
0.0 0.0 0.0

-2.2113724325137227e6 1.9262009543573454e7 0.0
1.9262009543573454e7 1.7021232349521036e6 0.0
0.0 0.0 0.0

-2.2728780142624974e6 2.3348383945197172e7 0.0
2.3348383945197172e7 -2.4853351866993923e6 0.0
0.0 0.0 0.0

-1.2032641185104316e6 2.4343083609469093e7 0.0
2.4343083609469093e7 -2.6013921640435862e6 0.0
0.0 0.0 0.0

-2.020696541396699e6 1.831560452333442e7 0.0
1.831560452333442e7 -3.0402448309967987e7 0.0
0.0 0.0 0.0

1.0946161931097787e6 1.3184034942504903e7 0.0
1.3184034942504903e7 -2.9392276125527143e7 0.0
0.0 0.0 0.0

-4.798319356212221e6 1.3977422994680567e7 0.0
1.3977422994680567e7 5.89998935362481e6 0.0
0.0 0.0 0.0

-3.9663836971977493e6 2.0375186441147603e7 0.0
2.0375186441147603e7 1.243517256426745e7 0.0
0.0 0.0 0.0

-245016.44112227112 1.6491231980036963e7 0.0
1.6491231980036963e7 -3.114811633179434e7 0.0
0.0 0.0 0.0

-353625.2332069143 2.528235518655178e7 0.0
2.528235518655178e7 -5.49694709588694e6 0.0
0.0 0.0 0.0

2.0749907126570907e6 2.65445924008897e6 0.0
2.65445924008897e6 -6.286763332171089e6 0.0
0.0 0.0 0.0

7.561198126678971e6 3.646427322626487e7 0.0
3.646427322626487e7 -3.863660813611973e6 0.0
0.0 0.0 0.0

2.3121459753654413e6 7.825710453982536e6 0.0
7.825710453982536e6 -1.2161192575347887e7 0.0
0.0 0.0 0.0

-1.196653392884471e6 1.6442628388623312e7 0.0
1.6442628388623312e7 -4.600495069302116e6 0.0
0.0 0.0 0.0

-3.6551906168148974e6 2.3402039772030845e7 0.0
2.3402039772030845e7 1.4160437051063899e7 0.0
0.0 0.0 0.0

-2.5719074965412025e6 1.6151292810137419e7 0.0
1.6151292810137419e7 3.2776014453908773e6 0.0
0.0 0.0 0.0

-2.8165256066898573e6 1.8427252896008167e7 0.0
1.8427252896008167e7 -2.2535407341241855e6 0.0
0.0 0.0 0.0

-2.332540395955098e6 2.3950855143786658e7 0.0
2.3950855143786658e7 -1.203712779539648e6 0.0
0.0 0.0 0.0

-5.281101898645323e6 1.2410232276584009e7 0.0
1.2410232276584009e7 5.959349775698272e6 0.0
0.0 0.0 0.0

-9.504672419436028e6 577773.330608487 0.0
577773.330608487 1.7264967088619933e7 0.0
0.0 0.0 0.0

-3.0240631499242345e6 1.924807040598021e7 0.0
1.924807040598021e7 1.2398902855400756e7 0.0
0.0 0.0 0.0

-2.2986351926937867e6 2.1495933236510888e7 0.0
2.1495933236510888e7 7.100483391883949e6 0.0
0.0 0.0 0.0

62653.06285452098 7.805330079016888e6 0.0
7.805330079016888e6 -7.897190805293606e6 0.0
0.0 0.0 0.0

-4.282554893417223e6 1.717935261598627e7 0.0
1.717935261598627e7 1.516297800053645e7 0.0
0.0 0.0 0.0

-1.9178592512173948e6 2.475891821238566e7 0.0
2.475891821238566e7 -3.298740104749131e6 0.0
0.0 0.0 0.0

2.3874004846146517e6 9.920730648238026e6 0.0
9.920730648238026e6 -3.1010244205725573e7 0.0
0.0 0.0 0.0

-9.78211755564641e6 2.731607204419598e7 0.0
2.731607204419598e7 4.294584341339635e6 0.0
0.0 0.0 0.0

-2.127045086921905e6 2.0919240737237956e7 0.0
2.0919240737237956e7 -5.533958757496135e6 0.0
0.0 0.0 0.0

1.8112927367317858e6 2.738556031110036e6 0.0
2.738556031110036e6 -5.236225989176739e6 0.0
0.0 0.0 0.0

-4.4221174012837885e6 2.8840035430952437e7 0.0
2.8840035430952437e7 7.618292706426477e6 0.0
0.0 0.0 0.0

-1.1328228050457507e7 1.1833616478605432e7 0.0
1.1833616478605432e7 2.207860392087021e7 0.0
0.0 0.0 0.0

-2.549540560118096e6 2.00789154350399e7 0.0
2.00789154350399e7 -3.291522019151281e6 0.0
0.0 0.0 0.0

-927588.0158012598 2.627757821427857e7 0.0
2.627757821427857e7 -2.1997534150999296e6 0.0
0.0 0.0 0.0

-1.9840755960857235e6 2.6963760643929824e7 0.0
2.6963760643929824e7 -728345.0634695332 0.0
0.0 0.0 0.0

-1.8144668610587728e6 2.408701994556706e7 0.0
2.408701994556706e7 -4.572413751538793e6 0.0
0.0 0.0 0.0

-1.7321373452078337e6 2.4070708443578873e7 0.0
2.4070708443578873e7 769019.4891931735 0.0
0.0 0.0 0.0

2.970393329833633e6 2.7175198435546583e6 0.0
2.7175198435546583e6 -1.0306079028712442e7 0.0
0.0 0.0 0.0

690994.1371225836 3.005355562918099e7 0.0
3.005355562918099e7 -4.741929215749202e6 0.0
0.0 0.0 0.0

-1.8553433626149263e7 2.0128842930725425e7 0.0
2.0128842930725425e7 -7.906467337105294e7 0.0
0.0 0.0 0.0

1.8267852482751712e7 2.102709244168103e7 0.0
2.102709244168103e7 7.646601648877874e7 0.0
0.0 0.0 0.0

729747.4043353619 1.6595175124354511e7 0.0
1.6595175124354511e7 -2.187132813170017e7 0.0
0.0 0.0 0.0

-693268.1139840193 2.3300292849006664e7 0.0
2.3300292849006664e7 -6.216119163227776e6 0.0
0.0 0.0 0.0

-5.128220806632012e6 1.834045624725563e7 0.0
1.834045624725563e7 -2.4146757892825425e7 0.0
0.0 0.0 0.0

-2.1522297984980433e6 1.9796238458377052e7 0.0
1.9796238458377052e7 -5.907035109072655e6 0.0
0.0 0.0 0.0

1.3837283053780599e6 2.3121063801888663e7 0.0
2.3121063801888663e7 -1.4021339623913093e7 0.0
0.0 0.0 0.0

-1.599158747181154e6 1.8332087812365863e7 0.0
1.8332087812365863e7 -8.864984464135123e6 0.0
0.0 0.0 0.0

-2.4279179423330524e6 2.353616546650076e7 0.0
2.353616546650076e7 -120033.05135891796 0.0
0.0 0.0 0.0

269630.5409052782 1.0017016556859668e7 0.0
1.0017016556859668e7 -5.647692960657867e7 0.0
0.0 0.0 0.0

-1.0366629903807666e7 2.571330850119053e7 0.0
2.571330850119053e7 3.4692262723347438e6 0.0
0.0 0.0 0.0

-2.847368543192905e6 2.3551608082447503e7 0.0
2.3551608082447503e7 7.105672124989737e6 0.0
0.0 0.0 0.0

-924581.8743479394 1.862137920067158e7 0.0
1.862137920067158e7 -6.688441631875724e6 0.0
0.0 0.0 0.0

1.0524834658057299e6 1.3905945050819872e7 0.0
1.3905945050819872e7 -2.7744113515392456e7 0.0
0.0 0.0 0.0

1.7676339245308045e7 2.1961382714955173e7 0.0
2.1961382714955173e7 5.8921130672832504e7 0.0
0.0 0.0 0.0

227630.57847354095 2.3797552827931214e7 0.0
2.3797552827931214e7 -9.650793485578854e6 0.0
0.0 0.0 0.0

-2.80134317974576e7 6.43229983020845e7 0.0
6.43229983020845e7 -328364.1730088368 0.0
0.0 0.0 0.0

810578.3473002315 1.5897572025489368e7 0.0
1.5897572025489368e7 -2.3285118159716934e7 0.0
0.0 0.0 0.0

-1.0775006096331861e6 2.3681045048978724e7 0.0
2.3681045048978724e7 -3.9033656962121166e6 0.0
0.0 0.0 0.0

2.778497321457199e6 2.7787431888734447e6 0.0
2.7787431888734447e6 -9.472822334757742e6 0.0
0.0 0.0 0.0

2.0174601774058733e6 8.682995450812966e6 0.0
8.682995450812966e6 -3.0426656869238537e7 0.0
0.0 0.0 0.0

-1.2875333104296569e6 2.6527862038794525e7 0.0
2.6527862038794525e7 -21585.963685476512 0.0
0.0 0.0 0.0

-8.517483977383457e6 1.887847574472618e7 0.0
1.887847574472618e7 -4.5781788322266474e7 0.0
0.0 0.0 0.0

-1.2201157547644319e6 1.9349779197510436e7 0.0
1.9349779197510436e7 -5.182167772466559e6 0.0
0.0 0.0 0.0

1.0486984901853465e6 1.3293732396849388e7 0.0
1.3293732396849388e7 -1.3284078092613904e7 0.0
0.0 0.0 0.0

-2.8134441355295456e6 1.737691328530479e7 0.0
1.737691328530479e7 6.542339876349632e6 0.0
0.0 0.0 0.0

964420.5303020151 1.5251628695675693e7 0.0
1.5251628695675693e7 -2.4773461084454406e7 0.0
0.0 0.0 0.0

-4.0068622557083913e6 1.676170370313551e7 0.0
1.676170370313551e7 5.599279298552387e6 0.0
0.0 0.0 0.0

407513.13232482225 1.950055086935062e7 0.0
1.950055086935062e7 -2.0702950600770935e7 0.0
0.0 0.0 0.0

-2.723168564058609e7 3.164133489390226e7 0.0
3.164133489390226e7 -1.2704241439840253e7 0.0
0.0 0.0 0.0

-7.662819016239986e6 -5.431135897837373e6 0.0
-5.431135897837373e6 1.7858837072414614e7 0.0
0.0 0.0 0.0

-3.2807764806359545e6 1.7115178380271263e7 0.0
1.7115178380271263e7 1.003922252683116e7 0.0
0.0 0.0 0.0

-1.5334049660296368e6 2.4534842590040676e7 0.0
2.4534842590040676e7 -276769.46173934254 0.0
0.0 0.0 0.0

-6.97121673097318e6 2.19650726818337e6 0.0
2.19650726818337e6 5.237544873031591e7 0.0
0.0 0.0 0.0

1.1813027741507837e6 2.150071286152637e7 0.0
2.150071286152637e7 1.5896591389184821e7 0.0
0.0 0.0 0.0

-1.905142935677355e6 1.906036535117129e7 0.0
1.906036535117129e7 -7.394674579271302e6 0.0
0.0 0.0 0.0

982921.3094657697 2.299194933891302e7 0.0
2.299194933891302e7 -1.2967572231377728e7 0.0
0.0 0.0 0.0

-864748.7115829554 2.0475572943708267e7 0.0
2.0475572943708267e7 -1.1199707147901032e7 0.0
0.0 0.0 0.0

-1.5178208635377043e6 1.5470436782938676e7 0.0
1.5470436782938676e7 -8.545764578836318e6 0.0
0.0 0.0 0.0

-1.543985325672652e6 2.2669301376212846e7 0.0
2.2669301376212846e7 -7.204647114343272e6 0.0
0.0 0.0 0.0

-3.378247031114404e6 2.0353425483358413e7 0.0
2.0353425483358413e7 1.6144081101238966e7 0.0
0.0 0.0 0.0

-2.1634416918362794e6 2.097526639992382e7 0.0
2.097526639992382e7 3.1270823708325247e6 0.0
0.0 0.0 0.0

-2.7510042053914685e6 1.962172452801809e7 0.0
1.962172452801809e7 -2.0575665196530852e6 0.0
0.0 0.0 0.0

1.9415277829681225e6 8.552275799364861e6 0.0
8.552275799364861e6 -3.9286260474272124e7 0.0
0.0 0.0 0.0

-5.583130205806665e6 2.9486531183709506e7 0.0
2.9486531183709506e7 7.807022112492679e6 0.0
0.0 0.0 0.0

-6.97730031475691e6 2.1187969262378127e6 0.0
2.1187969262378127e6 1.1991381732742717e7 0.0
0.0 0.0 0.0

-3.2541182410825538e6 2.0003570768625747e7 0.0
2.0003570768625747e7 1.4979229614182785e7 0.0
0.0 0.0 0.0

584263.3849268751 1.3495532738346612e7 0.0
1.3495532738346612e7 -1.0912821384664547e7 0.0
0.0 0.0 0.0

3.0901343364470303e6 3.465859854769289e6 0.0
3.465859854769289e6 -2.4152945554994367e7 0.0
0.0 0.0 0.0

998172.1203450728 1.4539723471657293e7 0.0
1.4539723471657293e7 -2.633500881354107e7 0.0
0.0 0.0 0.0

-6.14327108863226e6 8.499122285997253e6 0.0
8.499122285997253e6 5.817550295053862e6 0.0
0.0 0.0 0.0

-8.921555651424635e6 1.5772315187675005e7 0.0
1.5772315187675005e7 3.085733162473302e7 0.0
0.0 0.0 0.0

-1.887744551208043e6 2.1298819029191144e7 0.0
2.1298819029191144e7 -6.589474647574137e6 0.0
0.0 0.0 0.0

-7.268102287819838e6 -5.32489943128472e6 0.0
-5.32489943128472e6 1.7041267126693167e7 0.0
0.0 0.0 0.0

-4.387253823719783e6 1.5418178064028747e7 0.0
1.5418178064028747e7 5.766778947175056e6 0.0
0.0 0.0 0.0

973096.2462025089 2.3711948160104495e7 0.0
2.3711948160104495e7 -1.1639928507733665e7 0.0
0.0 0.0 0.0

-2.9062655622083447e6 2.041713084889771e7 0.0
2.041713084889771e7 -2.1724251674307164e7 0.0
0.0 0.0 0.0

775229.9435697095 1.34173739538909e7 0.0
1.34173739538909e7 -1.8375011523560133e7 0.0
0.0 0.0 0.0

-769751.7189466907 1.0612305018038992e7 0.0
1.0612305018038992e7 -7.517017407095512e6 0.0
0.0 0.0 0.0

-1.2572190846130273e6 2.048881847448743e7 0.0
2.048881847448743e7 -4.833320456221244e6 0.0
0.0 0.0 0.0

-2.0009720684846472e6 2.036051945481435e7 0.0
2.036051945481435e7 2.917454053086301e7 0.0
0.0 0.0 0.0

-1.7666418702265224e6 2.725159906606749e7 0.0
2.725159906606749e7 -1.6939160351562905e6 0.0
0.0 0.0 0.0

-5.38958501643523e6 2.1059147210005224e7 0.0
2.1059147210005224e7 2.216223528353671e7 0.0
0.0 0.0 0.0

-2.598526681390932e6 2.3248476710902207e7 0.0
2.3248476710902207e7 1.2798987398266746e7 0.0
0.0 0.0 0.0

-118950.99444148317 1.2050080917454189e7 0.0
1.2050080917454189e7 -1.0927200914408522e7 0.0
0.0 0.0 0.0

-3.064703592081856e6 1.6079144956857989e7 0.0
1.6079144956857989e7 6.779764689057976e6 0.0
0.0 0.0 0.0

385390.81995408796 2.124757629406096e7 0.0
2.124757629406096e7 1.6044955439042287e7 0.0
0.0 0.0 0.0

-1.9188201382899575e6 1.6229591218007326e7 0.0
1.6229591218007326e7 -6.988190668061727e6 0.0
0.0 0.0 0.0

-205345.62773871422 1.682686944721738e7 0.0
1.682686944721738e7 -2.8814808063000888e7 0.0
0.0 0.0 0.0

-1.2422170853450922e6 2.1586584880099468e7 0.0
2.1586584880099468e7 -4.497344672402015e6 0.0
0.0 0.0 0.0

599421.7232863577 1.7254852854089633e7 0.0
1.7254852854089633e7 -2.048668720590289e7 0.0
0.0 0.0 0.0

-2.580192756040306e6 1.806134590553662e7 0.0
1.806134590553662e7 4.791768659760922e6 0.0
0.0 0.0 0.0

-9.439820225233741e6 1.8031096797626365e7 0.0
1.8031096797626365e7 -3.4148222962630555e7 0.0
0.0 0.0 0.0

-1.1784959778720606e6 2.264942340416268e7 0.0
2.264942340416268e7 -4.195036129918666e6 0.0
0.0 0.0 0.0

7.63989547667098e6 2.2822371445554703e7 0.0
2.2822371445554703e7 -111158.24841796095 0.0
0.0 0.0 0.0

-7.154310218760479e6 4.426551534963749e6 0.0
4.426551534963749e6 5.123560492901917e7 0.0
0.0 0.0 0.0

-9.0443880074074e6 3.953949908659313e7 0.0
3.953949908659313e7 4.428975159867208e6 0.0
0.0 0.0 0.0

-3.125568248096885e6 2.3503688578060526e7 0.0
2.3503688578060526e7 1.1425280008759191e7 0.0
0.0 0.0 0.0

-6.774269093583889e6 1.6597586869670788e7 0.0
1.6597586869670788e7 3.409096069918044e7 0.0
0.0 0.0 0.0

-3.3802934933596426e6 2.6375771309359286e7 0.0
2.6375771309359286e7 1.0296461621243075e7 0.0
0.0 0.0 0.0

-2.280861018820524e6 1.8059931157704383e7 0.0
1.8059931157704383e7 1.644834626069684e6 0.0
0.0 0.0 0.0

-715707.2941485825 1.9037436257299975e7 0.0
1.9037436257299975e7 -7.758274067024583e6 0.0
0.0 0.0 0.0

-1.0194573506853462e6 2.0875623148298245e7 0.0
2.0875623148298245e7 -5.9089276905467305e6 0.0
0.0 0.0 0.0

-1.5801809571341171e6 1.1804219022497261e7 0.0
1.1804219022497261e7 -386428.3638162961 0.0
0.0 0.0 0.0

964663.0076147076 2.446973355082477e7 0.0
2.446973355082477e7 -1.0418430999965018e7 0.0
0.0 0.0 0.0

2.301836471471806e6 6.914369660213989e6 0.0
6.914369660213989e6 -2.3720028423340358e7 0.0
0.0 0.0 0.0

1.2613052311468646e6 7.073178333931024e6 0.0
7.073178333931024e6 -1.1177804515090115e7 0.0
0.0 0.0 0.0

-2.978379250318275e6 2.2705605312771596e7 0.0
2.2705605312771596e7 1.5474199972312255e7 0.0
0.0 0.0 0.0

-1.5898081385473297e6 2.6669660279771827e7 0.0
2.6669660279771827e7 -2.8557154897855707e6 0.0
0.0 0.0 0.0

6.637980473843521e6 2.3202602881213512e7 0.0
2.3202602881213512e7 -2.5276451197695443e6 0.0
0.0 0.0 0.0

-1.3536305602250073e7 2.9139823999953344e7 0.0
2.9139823999953344e7 4.698342160773282e6 0.0
0.0 0.0 0.0

1.9137001773086488e6 6.741448804129822e6 0.0
6.741448804129822e6 -1.5872765297338698e7 0.0
0.0 0.0 0.0

-2.312803529776396e6 1.6956742390951995e7 0.0
1.6956742390951995e7 -5.430552683528431e6 0.0
0.0 0.0 0.0

5.2440188544865616e7 1.8255442629780725e7 0.0
1.8255442629780725e7 3.398116619712092e6 0.0
0.0 0.0 0.0

-487721.7105974993 1.1001898210474547e7 0.0
1.1001898210474547e7 -8.955133227034729e6 0.0
0.0 0.0 0.0

2.200527804610459e6 7.115605691479723e6 0.0
7.115605691479723e6 -2.9096195200636014e7 0.0
0.0 0.0 0.0

-4.557128399040898e6 1.9880951943423826e7 0.0
1.9880951943423826e7 2.898120655068864e7 0.0
0.0 0.0 0.0

639866.5125530548 1.8359252563549746e7 0.0
1.8359252563549746e7 -2.1844759598519523e7 0.0
0.0 0.0 0.0

-9.208793401436388e6 1.327926027925767e7 0.0
1.327926027925767e7 2.1469637305245478e7 0.0
0.0 0.0 0.0

-1.4373344569669405e7 3.785566333590554e7 0.0
3.785566333590554e7 5.283694181559174e6 0.0
0.0 0.0 0.0

-4.464081597984072e6 2.0285037340919312e7 0.0
2.0285037340919312e7 2.737537010023514e7 0.0
0.0 0.0 0.0

-4.0269809826208265e6 2.720657291054056e7 0.0
2.720657291054056e7 9.924810218569703e6 0.0
0.0 0.0 0.0

-2.297440220713859e7 2.924363862176949e7 0.0
2.924363862176949e7 -1.2004839852634516e7 0.0
0.0 0.0 0.0

-2.996608661610464e6 1.979925918038585e7 0.0
1.979925918038585e7 792795.1623276696 0.0
0.0 0.0 0.0

4.869474357746781e7 6.984455166765199e6 0.0
6.984455166765199e6 -616854.8175605051 0.0
0.0 0.0 0.0

-131115.13525613258 2.124723605007373e7 0.0
2.124723605007373e7 -1.0212618689783126e7 0.0
0.0 0.0 0.0

-1.6297883479122217e6 1.8226542092303175e7 0.0
1.8226542092303175e7 -642383.1631549218 0.0
0.0 0.0 0.0

920698.3170932177 2.520383458262051e7 0.0
2.520383458262051e7 -9.152552619349983e6 0.0
0.0 0.0 0.0

-1.5719265170610262e7 2.5279224019385017e7 0.0
2.5279224019385017e7 -6.621653594988916e6 0.0
0.0 0.0 0.0

-236643.10520695918 1.028893692654355e7 0.0
1.028893692654355e7 -3.6697622943979967e6 0.0
0.0 0.0 0.0

-3.2026838940842245e6 2.324728494661112e7 0.0
2.324728494661112e7 1.6622408199394993e7 0.0
0.0 0.0 0.0

-4.24542818166014e6 1.87995657294963e7 0.0
1.87995657294963e7 -2.2594331149347927e7 0.0
0.0 0.0 0.0

-1.0716262654216556e7 6.610788469673475e6 0.0
6.610788469673475e6 3.1072171148542386e7 0.0
0.0 0.0 0.0

-1.867873964989364e6 2.6343694674560115e7 0.0
2.6343694674560115e7 -1.905031724797793e6 0.0
0.0 0.0 0.0

-2.0774254666761674e6 1.8606275573420458e7 0.0
1.8606275573420458e7 177129.9743685316 0.0
0.0 0.0 0.0

-1.039805423974779e6 2.68727036228666e7 0.0
2.68727036228666e7 -1.0747643094555303e6 0.0
0.0 0.0 0.0

365777.81578006316 1.891951306525106e7 0.0
1.891951306525106e7 -1.32392077581603e7 0.0
0.0 0.0 0.0

-6.654247495400212e6 9.655033721640304e6 0.0
9.655033721640304e6 1.3638773655692007e7 0.0
0.0 0.0 0.0

-3.0760472279265528e6 2.6951186514034137e7 0.0
2.6951186514034137e7 6.554899839457621e6 0.0
0.0 0.0 0.0

-3.485905492882613e6 2.2567140882124923e7 0.0
2.2567140882124923e7 1.9016147201338835e7 0.0
0.0 0.0 0.0

-2.7084131582785463e6 2.2190815228647865e7 0.0
2.2190815228647865e7 1.3507462257081896e7 0.0
0.0 0.0 0.0

-814258.6903100864 1.5723944469437493e7 0.0
1.5723944469437493e7 -6.17448043130904e6 0.0
0.0 0.0 0.0

943701.2279298641 1.3170435615780475e7 0.0
1.3170435615780475e7 -3.147686215119836e7 0.0
0.0 0.0 0.0

-2.8179185681559257e6 2.1512886709073395e7 0.0
2.1512886709073395e7 2.1994900179688e6 0.0
0.0 0.0 0.0

283559.96298283245 2.0626217446628094e7 0.0
2.0626217446628094e7 -1.6010053677053645e7 0.0
0.0 0.0 0.0

-195402.6598065151 1.862271713568356e7 0.0
1.862271713568356e7 -1.5056469067932937e7 0.0
0.0 0.0 0.0

-129553.68801829871 2.696817867462245e7 0.0
2.696817867462245e7 -6.698880342053956e6 0.0
0.0 0.0 0.0

-862517.1690457473 2.154120902027003e7 0.0
2.154120902027003e7 -1.0619759855817096e7 0.0
0.0 0.0 0.0

1.2844669978870433e6 1.3527186840551667e7 0.0
1.3527186840551667e7 -2.5236971477178544e7 0.0
0.0 0.0 0.0

1.457555185528827e6 7.150451394109162e6 0.0
7.150451394109162e6 -6.843367753530167e6 0.0
0.0 0.0 0.0

-2.737287299247202e6 6.80473768925698e6 0.0
6.80473768925698e6 5.284085540771022e6 0.0
0.0 0.0 0.0

1.4631178548248815e6 3.592116092954757e7 0.0
3.592116092954757e7 -905909.6372908277 0.0
0.0 0.0 0.0

-2.9884184586853087e6 2.0403210301436555e7 0.0
2.0403210301436555e7 2.2308779466658263e6 0.0
0.0 0.0 0.0

-1.2984853889718275e6 2.2977910873291202e7 0.0
2.2977910873291202e7 -8.162027064429636e6 0.0
0.0 0.0 0.0

3.194183914811738e6 4.2013049740541745e6 0.0
4.2013049740541745e6 -1.4962821985640347e7 0.0
0.0 0.0 0.0

-7.4714793897174485e6 6.876380002244625e6 0.0
6.876380002244625e6 5.166032581082681e7 0.0
0.0 0.0 0.0

1.384565966728705e6 1.0815278364170946e7 0.0
1.0815278364170946e7 -1.9258743622250974e7 0.0
0.0 0.0 0.0

7.479207054152552e6 2.7693846697273966e7 0.0
2.7693846697273966e7 -6.301320823211668e6 0.0
0.0 0.0 0.0

1.7559348607416372e6 2.8770079519547805e7 0.0
2.8770079519547805e7 -6.096596237566873e6 0.0
0.0 0.0 0.0

-3.055474359474253e6 2.757684295263135e7 0.0
2.757684295263135e7 5.437948332777683e6 0.0
0.0 0.0 0.0

2.6437885871830527e6 3.531445164652196e6 0.0
3.531445164652196e6 -3.430923225605817e7 0.0
0.0 0.0 0.0

-802258.8903887807 2.401651315461312e7 0.0
2.401651315461312e7 -4.903872046043714e6 0.0
0.0 0.0 0.0

-114314.7714897187 2.5482124123559333e7 0.0
2.5482124123559333e7 -6.413742611406401e6 0.0
0.0 0.0 0.0

1.9721730305284094e6 8.018044892422839e6 0.0
8.018044892422839e6 -3.2010585466704603e7 0.0
0.0 0.0 0.0

-511145.6110679605 2.9064110791032583e7 0.0
2.9064110791032583e7 -3.6186693726516003e6 0.0
0.0 0.0 0.0

3.5019640191847957e6 2.377467219635301e7 0.0
2.377467219635301e7 -8.699670994560655e6 0.0
0.0 0.0 0.0

-1.6886254879058509e6 2.338999913730894e7 0.0
2.338999913730894e7 -5.8769727342928825e6 0.0
0.0 0.0 0.0

-1.156273675573567e6 1.761321634814752e7 0.0
1.761321634814752e7 -3.0977775791929543e7 0.0
0.0 0.0 0.0

1.5650918863104116e6 7.65960713236055e6 0.0
7.65960713236055e6 -1.4583705986408623e7 0.0
0.0 0.0 0.0

405199.1724259928 1.3077521949986396e7 0.0
1.3077521949986396e7 -1.5434366735054802e7 0.0
0.0 0.0 0.0

-322479.1240206384 2.4012953055397227e7 0.0
2.4012953055397227e7 -8.977942550451674e6 0.0
0.0 0.0 0.0

2.644530775607111e6 2.363471758566334e7 0.0
2.363471758566334e7 -1.0511597452007335e7 0.0
0.0 0.0 0.0

-1.0416427210993872e6 2.2184276832664844e7 0.0
2.2184276832664844e7 -9.389418735413807e6 0.0
0.0 0.0 0.0

2.532170595111318e6 8.40082048106959e6 0.0
8.40082048106959e6 -1.5461285406008594e7 0.0
0.0 0.0 0.0

3.1608846722819284e6 4.875070421015378e6 0.0
4.875070421015378e6 -2.863841355638802e7 0.0
0.0 0.0 0.0

293863.4317941908 1.8617817975405775e7 0.0
1.8617817975405775e7 -1.775318573108513e7 0.0
0.0 0.0 0.0

15104.771847357042 1.3791731444256302e7 0.0
1.3791731444256302e7 -1.4088119528750649e7 0.0
0.0 0.0 0.0

-3.1351206386042335e6 1.8613450955185443e7 0.0
1.8613450955185443e7 703447.0087414936 0.0
0.0 0.0 0.0

-1.109730115420343e7 2.9540472117421318e7 0.0
2.9540472117421318e7 5.949474201207933e6 0.0
0.0 0.0 0.0

1.7663373024801165e6 1.5896342041752044e7 0.0
1.5896342041752044e7 8.185547800917777e7 0.0
0.0 0.0 0.0

-1.1142585988963919e7 7.229747314628605e6 0.0
7.229747314628605e6 2.8623738724296473e7 0.0
0.0 0.0 0.0

1.8264191003427259e6 2.6836688612378825e7 0.0
2.6836688612378825e7 -9.028597085941445e6 0.0
0.0 0.0 0.0

-3.156165336637276e6 1.92554244938931e7 0.0
1.92554244938931e7 2.222422149723892e6 0.0
0.0 0.0 0.0

-8.782030926796867e6 9.249820131113298e6 0.0
9.249820131113298e6 4.06631694637585e7 0.0
0.0 0.0 0.0

3.2064040769832097e6 4.921440788844138e6 0.0
4.921440788844138e6 -2.532165912007911e7 0.0
0.0 0.0 0.0

-2.282712881474237e6 2.0411169852124978e7 0.0
2.0411169852124978e7 4.584559988693958e6 0.0
0.0 0.0 0.0

350159.8680036692 1.7936254198816154e7 0.0
1.7936254198816154e7 -2.3781580062996034e7 0.0
0.0 0.0 0.0

890581.5535738841 2.6023916534900878e7 0.0
2.6023916534900878e7 -8.041886888311049e6 0.0
0.0 0.0 0.0

-486184.9086526644 2.4294542586014204e7 0.0
2.4294542586014204e7 -5.86143938735507e6 0.0
0.0 0.0 0.0

-4.211655980764458e6 1.785687408699628e7 0.0
1.785687408699628e7 8.734127545209797e6 0.0
0.0 0.0 0.0

-1.684967351519275e6 1.9595884769318096e7 0.0
1.9595884769318096e7 -2.481779360574096e6 0.0
0.0 0.0 0.0

-8.735783555277176e6 1.1477221336036492e7 0.0
1.1477221336036492e7 1.3504331048229422e7 0.0
0.0 0.0 0.0

-5.155221699792632e7 2.8845545844449867e7 0.0
2.8845545844449867e7 2.8229096191894673e6 0.0
0.0 0.0 0.0

5.784447967464048e6 2.3609818071153875e7 0.0
2.3609818071153875e7 1.24984777162053e7 0.0
0.0 0.0 0.0

-2.849301873021043e6 2.443743870343297e7 0.0
2.443743870343297e7 1.2987868967059005e7 0.0
0.0 0.0 0.0

-1.332121583526837e6 2.88571678362168e7 0.0
2.88571678362168e7 1.17389074027851e6 0.0
0.0 0.0 0.0

1.6774932556208177e6 1.0395272820845624e7 0.0
1.0395272820845624e7 -2.3620514896236774e7 0.0
0.0 0.0 0.0

2.055920871466672e6 8.523010583809733e6 0.0
8.523010583809733e6 -2.8535657256713662e7 0.0
0.0 0.0 0.0

1.9948583841463123e6 1.0598148479355296e7 0.0
1.0598148479355296e7 -3.381954459137016e7 0.0
0.0 0.0 0.0

-3.665564493587772e6 1.8035750255325392e7 0.0
1.8035750255325392e7 5.410150600744951e6 0.0
0.0 0.0 0.0

-9.659038474904604e6 1.517342388642943e7 0.0
1.517342388642943e7 2.8493805577379957e7 0.0
0.0 0.0 0.0

-6.424062717380653e6 1.240066163395197e7 0.0
1.240066163395197e7 1.4931389712751646e7 0.0
0.0 0.0 0.0

5.386315930644455e6 2.3551591228809193e7 0.0
2.3551591228809193e7 -4.694130604223627e6 0.0
0.0 0.0 0.0

-3.433420565986938e6 1.9226778337738954e7 0.0
1.9226778337738954e7 -2.076515429973873e7 0.0
0.0 0.0 0.0

-3.541519608627417e6 2.724339150001721e7 0.0
2.724339150001721e7 8.336745253604845e6 0.0
0.0 0.0 0.0

8.336133271341402e6 3.481184621047847e7 0.0
3.481184621047847e7 -4.410706889289623e6 0.0
0.0 0.0 0.0

-9.12885765504551e6 2.968866991782921e7 0.0
2.968866991782921e7 6.860595454467876e6 0.0
0.0 0.0 0.0

-4.153351318311111e6 2.139666295756029e7 0.0
2.139666295756029e7 2.249880269346832e7 0.0
0.0 0.0 0.0

372700.16346116364 7.464559733050535e6 0.0
7.464559733050535e6 -5.557522056009599e7 0.0
0.0 0.0 0.0

80565.23755716765 1.799686254375806e7 0.0
1.799686254375806e7 -1.1647926417664222e7 0.0
0.0 0.0 0.0

3.15840861780715e6 2.7754147297241203e6 0.0
2.7754147297241203e6 -1.2185363502274057e7 0.0
0.0 0.0 0.0

2.292508027727103e6 9.016180359962653e6 0.0
9.016180359962653e6 -3.49318758526458e7 0.0
0.0 0.0 0.0

-2.976650125917078e6 2.818395717004408e7 0.0
2.818395717004408e7 4.373519427633427e6 0.0
0.0 0.0 0.0

-8.958228556537487e6 1.5660910440683719e7 0.0
1.5660910440683719e7 2.6949519997973517e7 0.0
0.0 0.0 0.0

-4.580506111865733e6 2.088360804225582e7 0.0
2.088360804225582e7 2.430226378751794e7 0.0
0.0 0.0 0.0

-2.9614748943913346e6 2.5260995854394644e7 0.0
2.5260995854394644e7 1.2170843362863751e7 0.0
0.0 0.0 0.0

2.0423754108137134e6 1.1049492922760922e7 0.0
1.1049492922760922e7 -1.710130331519969e7 0.0
0.0 0.0 0.0

-7.863278925008424e6 2.470809754355285e7 0.0
2.470809754355285e7 -1.2417987166792918e7 0.0
0.0 0.0 0.0

2.0180495756453727e6 3.5604232356288165e7 0.0
3.5604232356288165e7 -2.670051981699164e6 0.0
0.0 0.0 0.0

-3.9274801632556533e6 2.9378942802867603e7 0.0
2.9378942802867603e7 6.073150579622072e6 0.0
0.0 0.0 0.0

-4.258805948337322e6 2.0700628428419445e7 0.0
2.0700628428419445e7 2.5782030543425366e7 0.0
0.0 0.0 0.0

-5.891361773879845e6 7.028093717317376e7 0.0
7.028093717317376e7 -1.2155123587413477e7 0.0
0.0 0.0 0.0

-6.589914056562213e6 2.3840379244127885e7 0.0
2.3840379244127885e7 -1.486460287210081e7 0.0
0.0 0.0 0.0

-3.870072792372116e6 1.9980678180743236e7 0.0
1.9980678180743236e7 1.11194608671733e7 0.0
0.0 0.0 0.0

-1.0938886131185656e7 3.279979029097371e6 0.0
3.279979029097371e6 1.6858456680630215e7 0.0
0.0 0.0 0.0

-998748.21158545 1.977240113419887e7 0.0
1.977240113419887e7 -6.290413584444975e6 0.0
0.0 0.0 0.0

-1.264825894600892e7 2.5654476968191892e7 0.0
2.5654476968191892e7 -7.106539151764728e6 0.0
0.0 0.0 0.0

-9.374179155980892e6 3.775984012576001e7 0.0
3.775984012576001e7 4.0537143279558765e6 0.0
0.0 0.0 0.0

-281211.6917601158 2.2827804853023674e7 0.0
2.2827804853023674e7 -8.350601995729187e6 0.0
0.0 0.0 0.0

-947479.6303020664 2.4863579275554843e7 0.0
2.4863579275554843e7 -7.3161668905078955e6 0.0
0.0 0.0 0.0

-1.0381100596505268e7 4.7127909197353525e6 0.0
4.7127909197353525e6 2.6124987544313483e7 0.0
0.0 0.0 0.0

3.109892736503402e6 6.143293553788969e6 0.0
6.143293553788969e6 -2.249889377230368e7 0.0
0.0 0.0 0.0

2.433437777685649e6 3.4536238183434054e7 0.0
3.4536238183434054e7 -2.0281805377647905e6 0.0
0.0 0.0 0.0

-3.8010562191608287e6 2.1963226282948952e7 0.0
2.1963226282948952e7 2.0806818007132784e7 0.0
0.0 0.0 0.0

-1.7669516977558542e7 2.7311662519393392e7 0.0
2.7311662519393392e7 -4.0581477385998443e6 0.0
0.0 0.0 0.0

-2.6432177137842854e6 6.303886468805117e6 0.0
6.303886468805117e6 -620130.3935026354 0.0
0.0 0.0 0.0

-1.4142490190933067e7 2.7140690310293317e7 0.0
2.7140690310293317e7 -1.1521505876652725e7 0.0
0.0 0.0 0.0

-1.40203127730613e6 2.367539036165457e7 0.0
2.367539036165457e7 -6.827118663081053e6 0.0
0.0 0.0 0.0

454140.2681573797 1.7942603995061323e7 0.0
1.7942603995061323e7 -1.910193844367299e7 0.0
0.0 0.0 0.0

-1.0107769579562263e6 2.1948509190910455e7 0.0
2.1948509190910455e7 -5.560712481765147e6 0.0
0.0 0.0 0.0

1.345938738042512e6 1.1369325075153083e7 0.0
1.1369325075153083e7 -2.012658123627874e7 0.0
0.0 0.0 0.0

-1.7789436597667271e6 2.3076367986602005e7 0.0
2.3076367986602005e7 690652.7851658146 0.0
0.0 0.0 0.0

-1.103605982839007e7 5.59909812717822e6 0.0
5.59909812717822e6 1.624119893997734e7 0.0
0.0 0.0 0.0

-8.057861554537817e6 1.549353805253679e7 0.0
1.549353805253679e7 2.20911478593464e7 0.0
0.0 0.0 0.0

-3.380234332735451e6 1.7593641849856693e7 0.0
1.7593641849856693e7 1.1562008837819116e7 0.0
0.0 0.0 0.0

-6.204785583200819e6 1.892411523214854e7 0.0
1.892411523214854e7 -2.0046048761792455e7 0.0
0.0 0.0 0.0

-2.8729579259853684e6 1.7894217657013007e7 0.0
1.7894217657013007e7 8.0808533091845205e6 0.0
0.0 0.0 0.0

-4.029822400576705e7 3.2864776111607775e7 0.0
3.2864776111607775e7 -6.897788167838491e6 0.0
0.0 0.0 0.0

-3.1644266420057523e6 1.9848230463003308e7 0.0
1.9848230463003308e7 3.6581200440591327e6 0.0
0.0 0.0 0.0

-2.3321108842308847e6 2.2027625676760186e7 0.0
2.2027625676760186e7 -3.778967953169803e6 0.0
0.0 0.0 0.0

-5.821649004723559e7 2.79199700253242e7 0.0
2.79199700253242e7 811648.4091156386 0.0
0.0 0.0 0.0

4.3600106705587115e6 2.3818558723717734e7 0.0
2.3818558723717734e7 -6.897866716477859e6 0.0
0.0 0.0 0.0

-2.3852381187234567e6 1.8691434636847246e7 0.0
1.8691434636847246e7 3.188962716790572e6 0.0
0.0 0.0 0.0

1.3995103344042096e6 1.2544734087404395e7 0.0
1.2544734087404395e7 -1.4574346743314074e7 0.0
0.0 0.0 0.0

-1.585618249096768e6 2.932360812166497e7 0.0
2.932360812166497e7 2.1316928572071483e6 0.0
0.0 0.0 0.0

1.0748557616989221e6 1.3157932857014677e7 0.0
1.3157932857014677e7 -2.044979923874065e7 0.0
0.0 0.0 0.0

1.0007957345895171e6 1.4187306807120748e7 0.0
1.4187306807120748e7 -2.1938957753888242e7 0.0
0.0 0.0 0.0

-7.709451992478637e6 1.0035356839346651e7 0.0
1.0035356839346651e7 9.947581827209048e6 0.0
0.0 0.0 0.0

-3.3575103321166686e6 2.2581423948936734e7 0.0
2.2581423948936734e7 1.1258900204894502e7 0.0
0.0 0.0 0.0

2.66695349682332e6 8.288653944548877e6 0.0
8.288653944548877e6 -2.979412090472893e7 0.0
0.0 0.0 0.0

-1.1129719817572948e7 8.871066735181121e6 0.0
8.871066735181121e6 2.2330922376946487e7 0.0
0.0 0.0 0.0

1.0546498752302937e6 1.3647578711549079e7 0.0
1.3647578711549079e7 -2.1225324428165663e7 0.0
0.0 0.0 0.0

-9.817314980161703e7 1.0980867773447694e7 0.0
1.0980867773447694e7 3.174838634886313e6 0.0
0.0 0.0 0.0

692121.628459204 7.330023821390877e6 0.0
7.330023821390877e6 -5.167427635114679e7 0.0
0.0 0.0 0.0

-3.507119342611874e6 2.1124794539399054e7 0.0
2.1124794539399054e7 1.0611368929390416e7 0.0
0.0 0.0 0.0

-3.089613212313097e6 2.294555771758703e7 0.0
2.294555771758703e7 8.4842749927249e6 0.0
0.0 0.0 0.0

-5.170758077471156e6 2.867863304394932e7 0.0
2.867863304394932e7 8.980718612304796e6 0.0
0.0 0.0 0.0

-1.9191915604599419e6 2.0199659554112837e7 0.0
2.0199659554112837e7 -6.977523993719683e6 0.0
0.0 0.0 0.0

-3.6073858412620965e6 2.2890583069810152e7 0.0
2.2890583069810152e7 1.9309845225140415e7 0.0
0.0 0.0 0.0

470948.8459586408 1.5787142184328826e7 0.0
1.5787142184328826e7 -1.7592294609063447e7 0.0
0.0 0.0 0.0

1.7040099619243275e6 1.0609089823542666e7 0.0
1.0609089823542666e7 -2.837024944718244e7 0.0
0.0 0.0 0.0

-1.859888139347373e6 2.8855459701620158e7 0.0
2.8855459701620158e7 3.031573077241309e6 0.0
0.0 0.0 0.0

2.4922797937087333e6 3.0472989182088275e7 0.0
3.0472989182088275e7 -5.965191351288208e6 0.0
0.0 0.0 0.0

1.462479586781906e6 9.875808957419349e6 0.0
9.875808957419349e6 -4.1332610281910494e7 0.0
0.0 0.0 0.0

-4.550855563197737e6 1.4893869782471538e7 0.0
1.4893869782471538e7 1.2371051767040988e7 0.0
0.0 0.0 0.0

-7.506790774069214e6 2.952043283122695e7 0.0
2.952043283122695e7 7.620048048844047e6 0.0
0.0 0.0 0.0

-5.168472015897913e7 7.602976035590914e7 0.0
7.602976035590914e7 -2.4609252305281814e6 0.0
0.0 0.0 0.0

-9.3746017848602e6 1.1278888605836598e7 0.0
1.1278888605836598e7 3.56986344907926e7 0.0
0.0 0.0 0.0

-5.14560967737451e6 1.77122397714157e7 0.0
1.77122397714157e7 -1.8018575533743702e7 0.0
0.0 0.0 0.0

-1.5591650616574057e6 6.101522048946616e6 0.0
6.101522048946616e6 2.9590619407766354e6 0.0
0.0 0.0 0.0

-7.911705962401923e6 -2.7386811398301614e6 0.0
-2.7386811398301614e6 3.5576574135178804e7 0.0
0.0 0.0 0.0

3.059470916178465e6 1.7290664555325767e6 0.0
1.7290664555325767e6 -3.567462258179526e7 0.0
0.0 0.0 0.0

-8.296026566779178e6 2.6000236881555017e7 0.0
2.6000236881555017e7 2.2381984927498377e6 0.0
0.0 0.0 0.0

-1.7514685498109497e6 1.9644265871055625e7 0.0
1.9644265871055625e7 -2.202600858259171e7 0.0
0.0 0.0 0.0

-5.278996913543321e6 1.7030027604582224e7 0.0
1.7030027604582224e7 3.8526269909352146e7 0.0
0.0 0.0 0.0

1.7300320712859086e6 2.595436880372491e7 0.0
2.595436880372491e7 -1.0034714566514235e7 0.0
0.0 0.0 0.0

1.097304603250917e6 1.26588828046222e7 0.0
1.26588828046222e7 -1.9624743141727857e7 0.0
0.0 0.0 0.0

-833741.7575398274 1.7477225840787027e7 0.0
1.7477225840787027e7 5.042808044632495e7 0.0
0.0 0.0 0.0

-1.8560896361337947e6 2.0271639502999492e7 0.0
2.0271639502999492e7 -1.0162751696289302e6 0.0
0.0 0.0 0.0

-366594.16215178 1.9600132896633428e7 0.0
1.9600132896633428e7 3.7067234560171306e7 0.0
0.0 0.0 0.0

-1.263319931960973e6 2.002295037939102e7 0.0
2.002295037939102e7 -2.0338514628399186e7 0.0
0.0 0.0 0.0

8.620869878071459e7 1.0744291234468864e7 0.0
1.0744291234468864e7 2.598439282293685e6 0.0
0.0 0.0 0.0

859737.4805943868 2.6822678455481227e7 0.0
2.6822678455481227e7 -6.980878215689644e6 0.0
0.0 0.0 0.0

3.7277170184497563e6 3.431271104414492e7 0.0
3.431271104414492e7 -2.8027189082102817e6 0.0
0.0 0.0 0.0

916818.787061967 1.3860190676101664e7 0.0
1.3860190676101664e7 -1.9090205560798936e7 0.0
0.0 0.0 0.0

1.8685084315587347e6 1.269402303744701e7 0.0
1.269402303744701e7 -1.9704888010697186e7 0.0
0.0 0.0 0.0

-1.6625471402836698e6 1.9464982889059156e7 0.0
1.9464982889059156e7 -8.43561913642047e6 0.0
0.0 0.0 0.0

-1.0093940960309818e7 1.2851373893534344e7 0.0
1.2851373893534344e7 2.869997553513373e7 0.0
0.0 0.0 0.0

-3.253674999810433e6 1.817314363509837e7 0.0
1.817314363509837e7 -3.0626704545700423e7 0.0
0.0 0.0 0.0

3.015959757964023e6 2.7199053748422563e6 0.0
2.7199053748422563e6 -1.0931067220789075e7 0.0
0.0 0.0 0.0

641145.3342934689 1.6697918937333757e7 0.0
1.6697918937333757e7 -1.9046391665451556e7 0.0
0.0 0.0 0.0

-2.9682293833554436e7 3.7171115243660875e7 0.0
3.7171115243660875e7 6.978868472772621e6 0.0
0.0 0.0 0.0

-3.577109070948497e6 1.3281726909673883e7 0.0
1.3281726909673883e7 332654.4391073368 0.0
0.0 0.0 0.0

1.390081353041131e6 1.7627291883128002e7 0.0
1.7627291883128002e7 5.959714540699324e7 0.0
0.0 0.0 0.0

-2.9973085519566853e6 2.315626593998605e7 0.0
2.315626593998605e7 1.569410863921213e7 0.0
0.0 0.0 0.0

8.650916495764645e6 2.377200770894102e7 0.0
2.377200770894102e7 4.805628008851618e6 0.0
0.0 0.0 0.0

-6.136598317538336e6 2.9173502550978255e7 0.0
2.9173502550978255e7 8.266815355113861e6 0.0
0.0 0.0 0.0

896785.3822262592 2.757136366819639e7 0.0
2.757136366819639e7 -5.80187531900067e6 0.0
0.0 0.0 0.0

-3.9810251696803225e6 2.8822417571237665e7 0.0
2.8822417571237665e7 6.877748867296943e6 0.0
0.0 0.0 0.0

-1.0060395782442056e7 1.3327406106606085e7 0.0
1.3327406106606085e7 2.6613284968584962e7 0.0
0.0 0.0 0.0

-6.838021557591465e6 1.7311005492687058e7 0.0
1.7311005492687058e7 2.232489214731802e7 0.0
0.0 0.0 0.0

-1.1040257972409014e7 7.526775436026774e6 0.0
7.526775436026774e6 1.5093007193688698e7 0.0
0.0 0.0 0.0

2.093397669856392e7 1.3012449465895837e7 0.0
1.3012449465895837e7 1.2518436960488902e6 0.0
0.0 0.0 0.0

-735419.6998776952 2.0417453215664852e7 0.0
2.0417453215664852e7 -1.8800552609650753e7 0.0
0.0 0.0 0.0

378163.1743563735 2.744335150549604e7 0.0
2.744335150549604e7 -5.064698454307777e6 0.0
0.0 0.0 0.0

-2.814812993970992e6 2.872258725208909e7 0.0
2.872258725208909e7 3.3546546702134423e6 0.0
0.0 0.0 0.0

-9.22430776368599e6 -1.6437205600932534e6 0.0
-1.6437205600932534e6 2.6064136951660298e7 0.0
0.0 0.0 0.0

-3.619915079438146e6 3.048489032978208e7 0.0
3.048489032978208e7 4.380127227380721e6 0.0
0.0 0.0 0.0

-2.4235951103120814e6 1.9260702082586356e7 0.0
1.9260702082586356e7 4.674887048619242e6 0.0
0.0 0.0 0.0

-4.825645218578954e6 3.1140036650506828e7 0.0
3.1140036650506828e7 5.363229860214079e6 0.0
0.0 0.0 0.0

8.248919630684715e6 2.2539191592551224e7 0.0
2.2539191592551224e7 2.7598991518631773e6 0.0
0.0 0.0 0.0

2.774235501288468e6 3.191978804845419e7 0.0
3.191978804845419e7 -3.7241457677982943e6 0.0
0.0 0.0 0.0

2.690535506424669e6 4.961777692682262e6 0.0
4.961777692682262e6 -2.8687965675829057e7 0.0
0.0 0.0 0.0

-9.747585527563846e6 1.1695433827329163e7 0.0
1.1695433827329163e7 3.3272762357777204e7 0.0
0.0 0.0 0.0

569375.0665477109 2.250872766445411e7 0.0
2.250872766445411e7 -1.083731598975041e7 0.0
0.0 0.0 0.0

-221474.67972970847 2.0914653429620024e7 0.0
2.0914653429620024e7 -1.7254997578848824e7 0.0
0.0 0.0 0.0

-1.8868691626380414e6 1.910560184376616e7 0.0
1.910560184376616e7 -1.1956184371306654e6 0.0
0.0 0.0 0.0

-4.724189972592432e6 2.4249707571402736e7 0.0
2.4249707571402736e7 6.651363984177615e6 0.0
0.0 0.0 0.0

2.94812227660891e6 2.6917118308899634e7 0.0
2.6917118308899634e7 -8.80682859895775e6 0.0
0.0 0.0 0.0

-246060.70409698272 2.0890557533538923e7 0.0
2.0890557533538923e7 -9.57357592125536e6 0.0
0.0 0.0 0.0

-9.53462689151454e6 1.5481053939960819e7 0.0
1.5481053939960819e7 2.1990161497240305e7 0.0
0.0 0.0 0.0

2.423369925109352e6 1.0411716897554042e7 0.0
1.0411716897554042e7 -2.356454968724255e7 0.0
0.0 0.0 0.0

-1.5163552872993425e6 2.098741305771866e7 0.0
2.098741305771866e7 -1.8090215777824275e7 0.0
0.0 0.0 0.0

3.316025281907561e6 2.328283499123468e7 0.0
2.328283499123468e7 1.4413932200759985e7 0.0
0.0 0.0 0.0

-1.8056797072683398e6 2.2359508015089236e7 0.0
2.2359508015089236e7 -6.224639757951254e6 0.0
0.0 0.0 0.0

2.180374969618868e6 7.897547754748709e6 0.0
7.897547754748709e6 -3.9948967203625396e7 0.0
0.0 0.0 0.0

2.0404800832510218e6 5.77552050588285e6 0.0
5.77552050588285e6 -5.3259703946712e7 0.0
0.0 0.0 0.0

-4.258613700523361e6 1.835377874851926e7 0.0
1.835377874851926e7 1.0207101352967247e7 0.0
0.0 0.0 0.0

-2.5957445314903045e6 2.9232625451596126e7 0.0
2.9232625451596126e7 2.417158599790646e6 0.0
0.0 0.0 0.0

-1.0079047662743682e7 4.654132334049537e6 0.0
4.654132334049537e6 3.0326059117887832e7 0.0
0.0 0.0 0.0

-6.369022034407145e6 1.7201174027709518e7 0.0
1.7201174027709518e7 1.578996663830962e7 0.0
0.0 0.0 0.0

-3.259789466784738e6 2.2201918146841947e7 0.0
2.2201918146841947e7 1.0148655180122841e7 0.0
0.0 0.0 0.0

2.328449609856545e6 1.0650230563931063e7 0.0
1.0650230563931063e7 -2.142929116551337e7 0.0
0.0 0.0 0.0

2.9345746032269076e6 1.602660545884003e6 0.0
1.602660545884003e6 -3.686306407579657e7 0.0
0.0 0.0 0.0

-2.8045292378351465e6 2.078539331057394e7 0.0
2.078539331057394e7 1.3075715065720038e7 0.0
0.0 0.0 0.0

4.52636247564441e6 1.9186270970310923e7 0.0
1.9186270970310923e7 7.307974002189271e7 0.0
0.0 0.0 0.0

-2.2677559982960713e6 2.3326148361117255e7 0.0
2.3326148361117255e7 9.069062375790203e6 0.0
0.0 0.0 0.0

691945.7023725333 2.8209191989841416e7 0.0
2.8209191989841416e7 -4.894028801205184e6 0.0
0.0 0.0 0.0

951898.5041414322 1.4737124660650901e7 0.0
1.4737124660650901e7 -2.0307191252932705e7 0.0
0.0 0.0 0.0

-81444.55240354029 3.0613642563579246e7 0.0
3.0613642563579246e7 -1.140943033647639e6 0.0
0.0 0.0 0.0

-2.0751343627648584e6 2.834388984085683e7 0.0
2.834388984085683e7 3.977599014256427e6 0.0
0.0 0.0 0.0

9.422993113099553e6 1.9193006891618032e7 0.0
1.9193006891618032e7 4.4637594526257925e7 0.0
0.0 0.0 0.0

3.042900659098312e6 2.7385389642766463e6 0.0
2.7385389642766463e6 -1.1598867634685583e7 0.0
0.0 0.0 0.0

4.638378574191788e6 2.4539405532481365e7 0.0
2.4539405532481365e7 -7.907439883683127e6 0.0
0.0 0.0 0.0

3.179107362792504e6 3.8977424246453005e6 0.0
3.8977424246453005e6 -2.050486532899863e7 0.0
0.0 0.0 0.0

-9.180115891930204e6 1.4055785378221855e7 0.0
1.4055785378221855e7 2.2476316189506166e7 0.0
0.0 0.0 0.0

-2.8933891876705457e6 2.6743749552922677e7 0.0
2.6743749552922677e7 5.595842124199366e6 0.0
0.0 0.0 0.0

-932628.088388725 2.2993797337577105e7 0.0
2.2993797337577105e7 -5.232287792473964e6 0.0
0.0 0.0 0.0

1.9998457933798647e6 1.1609202154636811e7 0.0
1.1609202154636811e7 -1.7982905933772203e7 0.0
0.0 0.0 0.0

722.2895843447186 2.1267290159150373e7 0.0
2.1267290159150373e7 -1.1166098430678364e7 0.0
0.0 0.0 0.0

500772.96513758064 2.8893772173873372e7 0.0
2.8893772173873372e7 -3.9574188412960223e6 0.0
0.0 0.0 0.0

-9.717223936018754e6 6.431405117739553e6 0.0
6.431405117739553e6 3.487757652110774e7 0.0
0.0 0.0 0.0

-5.741349455404473e6 1.889138417459416e7 0.0
1.889138417459416e7 2.2307775121274002e7 0.0
0.0 0.0 0.0

-1.0691545005127233e7 1.0905845806138357e7 0.0
1.0905845806138357e7 2.394404752397835e7 0.0
0.0 0.0 0.0

-3.3692712312253555e6 1.8671140860196654e7 0.0
1.8671140860196654e7 3.7489986021106094e6 0.0
0.0 0.0 0.0

-3.0514331832799725e6 2.8289214307756756e7 0.0
2.8289214307756756e7 7.718852363024201e6 0.0
0.0 0.0 0.0

-2.373068714127724e6 2.2292300739996884e7 0.0
2.2292300739996884e7 -2.751212779676808e6 0.0
0.0 0.0 0.0

-1.7573857173076489e6 3.039939477511871e7 0.0
3.039939477511871e7 -186140.35049932287 0.0
0.0 0.0 0.0

-8.30308872049086e6 1.070567421876256e7 0.0
1.070567421876256e7 1.1831351066560246e7 0.0
0.0 0.0 0.0

-6.88202943528571e6 1.6748747472415883e7 0.0
1.6748747472415883e7 2.144064590267669e7 0.0
0.0 0.0 0.0

-2.363532701564902e6 2.968797579399054e7 0.0
2.968797579399054e7 1.561239311106005e6 0.0
0.0 0.0 0.0

2.6690934507567594e6 2.5629053325735554e7 0.0
2.5629053325735554e7 -9.988114056372795e6 0.0
0.0 0.0 0.0

1.6270445439548034e7 2.5538852888103988e7 0.0
2.5538852888103988e7 1.3310976807639671e7 0.0
0.0 0.0 0.0

-2.601717793116705e6 1.861016206633895e7 0.0
1.861016206633895e7 6.318773883362675e6 0.0
0.0 0.0 0.0

7.583013419756867e6 2.900007876327466e7 0.0
2.900007876327466e7 -6.279147958692158e6 0.0
0.0 0.0 0.0

-2.6416121959422426e6 1.963359358677662e7 0.0
1.963359358677662e7 9.100989054440722e6 0.0
0.0 0.0 0.0

-5.818347942957825e6 1.8417802139244854e7 0.0
1.8417802139244854e7 2.1502119504624903e7 0.0
0.0 0.0 0.0

-5.967868166460206e6 1.1657434907095099e7 0.0
1.1657434907095099e7 1.3304563636517517e7 0.0
0.0 0.0 0.0

-2.0938885192676107e6 3.0064930816615075e7 0.0
3.0064930816615075e7 622057.9895580222 0.0
0.0 0.0 0.0

3.0486352603656035e6 6.480156800382854e6 0.0
6.480156800382854e6 -2.810419305215804e7 0.0
0.0 0.0 0.0

2.7376642351142224e6 8.786513080616798e6 0.0
8.786513080616798e6 -2.6228645904989343e7 0.0
0.0 0.0 0.0

-4.389665300781326e6 2.8086191662026875e7 0.0
2.8086191662026875e7 9.575292012757601e6 0.0
0.0 0.0 0.0

-280942.1018715156 1.3376154035654997e7 0.0
1.3376154035654997e7 -7.286511956771744e6 0.0
0.0 0.0 0.0

1.947688419747687e6 1.2171166262130054e7 0.0
1.2171166262130054e7 -1.8833291158203278e7 0.0
0.0 0.0 0.0

-377297.7938273664 3.3121880615319718e7 0.0
3.3121880615319718e7 -1.3083168220513468e6 0.0
0.0 0.0 0.0

199994.74035173224 3.008157694715182e7 0.0
3.008157694715182e7 -2.0477829307074205e6 0.0
0.0 0.0 0.0

-1.0647733468191165e6 2.392086601984777e7 0.0
2.392086601984777e7 -7.707600951859993e6 0.0
0.0 0.0 0.0

-2.3648826088599944e6 1.917483545202611e7 0.0
1.917483545202611e7 -2.7490326017674103e7 0.0
0.0 0.0 0.0

-3.1399479988034624e6 3.3235386743890967e7 0.0
3.3235386743890967e7 1.8215131299877262e6 0.0
0.0 0.0 0.0

-5.604716377827909e6 1.933257217749486e7 0.0
1.933257217749486e7 2.2883824372082513e7 0.0
0.0 0.0 0.0

1.9097096769678826e6 7.538121912635211e6 0.0
7.538121912635211e6 -1.6758759054394199e7 0.0
0.0 0.0 0.0

1.9874028416054097e6 3.614955819253387e7 0.0
3.614955819253387e7 -1.466315114688616e6 0.0
0.0 0.0 0.0

-3.0749345232946957e6 2.387145270560807e7 0.0
2.387145270560807e7 1.3334169784556879e7 0.0
0.0 0.0 0.0

380171.48216751055 2.950788352283375e7 0.0
2.950788352283375e7 -2.918312193832085e6 0.0
0.0 0.0 0.0

313054.90063290764 2.1422973196588192e7 0.0
2.1422973196588192e7 -1.584523211962564e7 0.0
0.0 0.0 0.0

-885601.1628417728 3.0818559539378002e7 0.0
3.0818559539378002e7 482977.5234493099 0.0
0.0 0.0 0.0

-3.262485209361542e6 2.4006345902209412e7 0.0
2.4006345902209412e7 1.593031890189588e7 0.0
0.0 0.0 0.0

-850878.96324433 3.093967629893525e7 0.0
3.093967629893525e7 -1.6652357852637009e6 0.0
0.0 0.0 0.0

8.888008363341337e6 3.89288200711331e7 0.0
3.89288200711331e7 -3.2291085500370553e6 0.0
0.0 0.0 0.0

-8.235043380397718e6 1.6860751253364224e7 0.0
1.6860751253364224e7 2.825421504641341e7 0.0
0.0 0.0 0.0

1.6813578607241511e6 1.342288563341107e7 0.0
1.342288563341107e7 -1.8404458021227542e7 0.0
0.0 0.0 0.0

-9.760756540083392e6 1.3619436250973083e7 0.0
1.3619436250973083e7 2.9517626011220705e7 0.0
0.0 0.0 0.0

-8.75676087671538e6 1.568645256922148e7 0.0
1.568645256922148e7 1.962327524236156e7 0.0
0.0 0.0 0.0

-557433.6074846943 -1.140693941025154e6 0.0
-1.140693941025154e6 1.2754806088638976e6 0.0
0.0 0.0 0.0

-905797.1670412605 -2.1201318185851136e6 0.0
-2.1201318185851136e6 2.5451991187819126e6 0.0
0.0 0.0 0.0

-7.798769133515649e6 1.740530271315287e7 0.0
1.740530271315287e7 2.8811812778530367e7 0.0
0.0 0.0 0.0

1.4743786213375159e7 2.4622272782955896e7 0.0
2.4622272782955896e7 1.2702964095698886e7 0.0
0.0 0.0 0.0

1.575919622916991e6 3.126334608947678e7 0.0
3.126334608947678e7 -3.124627780230436e6 0.0
0.0 0.0 0.0

-244920.49637485133 2.4587756858885184e7 0.0
2.4587756858885184e7 -6.880687942916225e6 0.0
0.0 0.0 0.0

1.6241442592572197e6 1.390341929137266e7 0.0
1.390341929137266e7 -1.9293810532660156e7 0.0
0.0 0.0 0.0

8.590443827202596e6 1.904936038471474e7 0.0
1.904936038471474e7 3.967162714888823e7 0.0
0.0 0.0 0.0

-2.91875862303824e6 3.381265965340513e7 0.0
3.381265965340513e7 3.0412770006935555e6 0.0
0.0 0.0 0.0

-313635.84632465796 3.380352083802681e7 0.0
3.380352083802681e7 -1.2980273773404057e6 0.0
0.0 0.0 0.0

102780.2153567861 3.451481745623029e7 0.0
3.451481745623029e7 -1.3136544367241452e6 0.0
0.0 0.0 0.0

-4.1648674551023887e6 2.1107520281706583e7 0.0
2.1107520281706583e7 1.4783567429395016e7 0.0
0.0 0.0 0.0

-4.374892715819311e6 1.877813571508208e7 0.0
1.877813571508208e7 1.1664301384897903e7 0.0
0.0 0.0 0.0

-7.673991517758021e6 1.3360593696083935e7 0.0
1.3360593696083935e7 1.3224533638056077e7 0.0
0.0 0.0 0.0

-2.6602920559608666e6 2.519205955799956e7 0.0
2.519205955799956e7 1.0821659494603889e7 0.0
0.0 0.0 0.0

-3.4479266194084696e6 1.7996542180985563e7 0.0
1.7996542180985563e7 1.3033321935876258e7 0.0
0.0 0.0 0.0

-8.052160597743465e6 1.6358172040300913e7 0.0
1.6358172040300913e7 3.173945851800662e7 0.0
0.0 0.0 0.0

1.6391299639278548e6 1.4485732866804346e7 0.0
1.4485732866804346e7 -1.9941588640420526e7 0.0
0.0 0.0 0.0

-3.45245793215782e6 2.2909389106862023e7 0.0
2.2909389106862023e7 1.226860463456731e7 0.0
0.0 0.0 0.0

-8.680589259978913e6 1.4755845720520968e7 0.0
1.4755845720520968e7 3.308313617457908e7 0.0
0.0 0.0 0.0

4.965542905150892e6 2.1755251885171596e7 0.0
2.1755251885171596e7 1.6750163847499704e7 0.0
0.0 0.0 0.0

-3.3908865078575243e6 1.981839341457386e7 0.0
1.981839341457386e7 6.585037047931621e6 0.0
0.0 0.0 0.0

-826020.8700582976 3.1553394680109777e7 0.0
3.1553394680109777e7 572623.1082346302 0.0
0.0 0.0 0.0

-924153.1635138646 3.0037418466101233e7 0.0
3.0037418466101233e7 393276.111491513 0.0
0.0 0.0 0.0

-3.2817750572487433e6 2.476084539053109e7 0.0
2.476084539053109e7 1.4338613482307358e7 0.0
0.0 0.0 0.0

-2.1252193469966576e6 2.0147098267253347e7 0.0
2.0147098267253347e7 -2.2851423243439283e7 0.0
0.0 0.0 0.0

-2.9604570429980294e6 2.5481150969143044e7 0.0
2.5481150969143044e7 8.098393389623252e6 0.0
0.0 0.0 0.0

-4.889347956610157e6 1.9902146750434913e7 0.0
1.9902146750434913e7 2.1274661446080737e7 0.0
0.0 0.0 0.0

-486124.5014467938 2.3596754786658116e7 0.0
2.3596754786658116e7 -7.195349126354019e6 0.0
0.0 0.0 0.0

4.586710587395309e6 3.511337131853489e7 0.0
3.511337131853489e7 -2.8035752696934235e6 0.0
0.0 0.0 0.0

-3.478556459820832e6 2.5631522796030074e7 0.0
2.5631522796030074e7 1.2823620027108347e7 0.0
0.0 0.0 0.0

-806976.679205271 2.3213231795857772e7 0.0
2.3213231795857772e7 -8.9342706750874e6 0.0
0.0 0.0 0.0

2.48703976060318e6 9.448964148937011e6 0.0
9.448964148937011e6 -2.7074579357932568e7 0.0
0.0 0.0 0.0

-2.915507669104173e6 2.111378459752846e7 0.0
2.111378459752846e7 1.4235906954072103e7 0.0
0.0 0.0 0.0

5.129882121160256e6 2.8685050563847627e7 0.0
2.8685050563847627e7 -7.061221410363046e6 0.0
0.0 0.0 0.0

2.5566592400715095e6 2.854085177908047e6 0.0
2.854085177908047e6 -8.085377063625262e6 0.0
0.0 0.0 0.0

1.4813402668036819e6 9.550884196498066e6 0.0
9.550884196498066e6 -3.576522477843225e7 0.0
0.0 0.0 0.0

94895.7075000722 2.1784227219786506e7 0.0
2.1784227219786506e7 -1.0918009426616373e7 0.0
0.0 0.0 0.0

1.5117802282184951e7 2.5604551887761835e7 0.0
2.5604551887761835e7 1.4400404488639688e7 0.0
0.0 0.0 0.0

1.787264538960481e6 9.924016066870688e6 0.0
9.924016066870688e6 -2.783299516616675e7 0.0
0.0 0.0 0.0

1.6306612139665578e6 1.125460424426407e7 0.0
1.125460424426407e7 -2.7018154073789928e7 0.0
0.0 0.0 0.0

2.1975899712309814e6 2.1737479462148774e7 0.0
2.1737479462148774e7 6.349810494934272e6 0.0
0.0 0.0 0.0

-1.006618328232301e7 8.147426190328503e6 0.0
8.147426190328503e6 3.303788837036786e7 0.0
0.0 0.0 0.0

-8.753198837065749e6 1.3900899720131647e7 0.0
1.3900899720131647e7 1.6276068672655355e7 0.0
0.0 0.0 0.0

-1.114266826984606e7 1.9698718132896267e7 0.0
1.9698718132896267e7 -5.246660974658331e7 0.0
0.0 0.0 0.0

-5.352144089852375e6 1.844948830696962e7 0.0
1.844948830696962e7 1.506710381862658e7 0.0
0.0 0.0 0.0

-1.0783541574500358e7 1.3483329518173996e7 0.0
1.3483329518173996e7 2.4050275823266312e7 0.0
0.0 0.0 0.0

3.9073019606891125e6 2.394406028642349e7 0.0
2.394406028642349e7 1.1922699640272588e7 0.0
0.0 0.0 0.0

-8.101679964142283e6 -2.964507887129853e6 0.0
-2.964507887129853e6 3.447354086460652e7 0.0
0.0 0.0 0.0

-3.5918771527821366e6 2.149398812256944e7 0.0
2.149398812256944e7 1.1847331636480622e7 0.0
0.0 0.0 0.0

-3.4868116299575567e6 2.832804502364414e7 0.0
2.832804502364414e7 8.419574472110992e6 0.0
0.0 0.0 0.0

276502.89526064415 1.966008521745636e7 0.0
1.966008521745636e7 -1.6933002638151802e7 0.0
0.0 0.0 0.0

-8.196444736818642e6 -2.283101590755665e6 0.0
-2.283101590755665e6 1.4562796069183689e7 0.0
0.0 0.0 0.0

-7.387583773938732e6 1.2670489720646128e7 0.0
1.2670489720646128e7 1.1561736383696789e7 0.0
0.0 0.0 0.0

-456298.7384858951 8.104326959948462e6 0.0
8.104326959948462e6 -6.048669046286756e7 0.0
0.0 0.0 0.0

7.272231677369685e6 3.543013361112673e7 0.0
3.543013361112673e7 -3.596411956970567e6 0.0
0.0 0.0 0.0

-6.886943714096753e6 1.3660400815783216e7 0.0
1.3660400815783216e7 4.247117662249234e7 0.0
0.0 0.0 0.0

-5.923954670739849e6 2.0546180860401865e7 0.0
2.0546180860401865e7 -1.749518980349326e7 0.0
0.0 0.0 0.0

-1.0877587606181106e7 1.2986510601753006e7 0.0
1.2986510601753006e7 2.5956221865161356e7 0.0
0.0 0.0 0.0

-1.4970165591561344e7 2.758920978731613e7 0.0
2.758920978731613e7 -1.0748906706416067e7 0.0
0.0 0.0 0.0

-1.5522999751789323e6 2.170113520994237e7 0.0
2.170113520994237e7 -5.703555046634265e6 0.0
0.0 0.0 0.0

4.0915498656057087e6 1.9685022640930586e7 0.0
1.9685022640930586e7 2.008610464874204e7 0.0
0.0 0.0 0.0

1.527455565662846e6 8.739470275341434e6 0.0
8.739470275341434e6 -3.757689870214576e7 0.0
0.0 0.0 0.0

-5.446660853475684e6 1.835194719010818e7 0.0
1.835194719010818e7 -1.7963660797504857e7 0.0
0.0 0.0 0.0

8.704044923615519e6 4.0938105819241434e7 0.0
4.0938105819241434e7 -4.9182203043264765e6 0.0
0.0 0.0 0.0

-3.033243296515098e6 2.1432056535297193e7 0.0
2.1432056535297193e7 1.5298529607827913e7 0.0
0.0 0.0 0.0

-7.974570724430621e6 -2.364811195182099e6 0.0
-2.364811195182099e6 3.8168110520492926e7 0.0
0.0 0.0 0.0

-748448.6526601994 2.1418726191294942e7 0.0
2.1418726191294942e7 1.8660519685824774e7 0.0
0.0 0.0 0.0

-1.2581518801774468e7 2.659183043182502e7 0.0
2.659183043182502e7 -1.2394216662022164e7 0.0
0.0 0.0 0.0

-6.3631305640024105e6 1.1338638718433805e7 0.0
1.1338638718433805e7 7.9416229693972375e6 0.0
0.0 0.0 0.0

4.507881678619536e6 1.9894822460354898e7 0.0
1.9894822460354898e7 4.234193235514079e7 0.0
0.0 0.0 0.0

-7.355196899399938e6 1.8067146129795846e7 0.0
1.8067146129795846e7 2.094163320219153e7 0.0
0.0 0.0 0.0

-8.614073815966107e6 1.6262389221745439e7 0.0
1.6262389221745439e7 2.0666251400262825e7 0.0
0.0 0.0 0.0

-7.801938487325961e6 1.1835938669242064e7 0.0
1.1835938669242064e7 4.2135800846840344e7 0.0
0.0 0.0 0.0

-503832.1195105398 2.107195341844433e7 0.0
2.107195341844433e7 2.3319775561164286e7 0.0
0.0 0.0 0.0

-9.81333200800882e6 3.3181126406413797e7 0.0
3.3181126406413797e7 5.474533699265854e6 0.0
0.0 0.0 0.0

234796.76633866027 3.700978910374786e7 0.0
3.700978910374786e7 -1.408843119797166e6 0.0
0.0 0.0 0.0

-3.2705842634225134e6 2.388401663180096e7 0.0
2.388401663180096e7 1.1650991469809348e7 0.0
0.0 0.0 0.0

2.2176488966719196e6 2.7142078849406466e6 0.0
2.7142078849406466e6 -6.690461378125967e6 0.0
0.0 0.0 0.0

2.0062908523198748e6 1.2490884395928036e7 0.0
1.2490884395928036e7 -2.17916448283842e7 0.0
0.0 0.0 0.0

1.7213614739551153e6 1.2363403266377032e7 0.0
1.2363403266377032e7 -1.672494161136242e7 0.0
0.0 0.0 0.0

-4.477784358657755e6 1.9206644193770017e7 0.0
1.9206644193770017e7 1.3051692755244687e7 0.0
0.0 0.0 0.0

-706362.538966283 5.032925766179775e7 0.0
5.032925766179775e7 -3.3635576997901304e6 0.0
0.0 0.0 0.0

-1.0051595869142078e7 9.324362806233164e6 0.0
9.324362806233164e6 1.3624685650165237e7 0.0
0.0 0.0 0.0

3.3963000958819306e6 3.2609000293180827e7 0.0
3.2609000293180827e7 -3.6761316701764837e6 0.0
0.0 0.0 0.0

5.641328316361679e6 2.9757529142389137e7 0.0
2.9757529142389137e7 -6.42011866667919e6 0.0
0.0 0.0 0.0

-4.334849835153888e6 1.2199078595406488e7 0.0
1.2199078595406488e7 9.271993975191403e6 0.0
0.0 0.0 0.0

-284909.6896844086 2.0176828342461705e7 0.0
2.0176828342461705e7 1.3415154869395487e6 0.0
0.0 0.0 0.0

2.238242483004312e7 2.439272650338955e7 0.0
2.439272650338955e7 1.1124451884505205e7 0.0
0.0 0.0 0.0

9.229310148697976e6 2.0903328688654285e7 0.0
2.0903328688654285e7 4.1079654781462595e7 0.0
0.0 0.0 0.0

2.463436578559237e6 2.0314544112977874e7 0.0
2.0314544112977874e7 1.672095215858032e7 0.0
0.0 0.0 0.0

-7.46392621648922e6 1.7529245573294975e7 0.0
1.7529245573294975e7 2.005672534097097e7 0.0
0.0 0.0 0.0

44124.12980468478 4.688704799927789e7 0.0
4.688704799927789e7 -2.669736631920718e6 0.0
0.0 0.0 0.0

-2.1680990882218625e7 2.9132578555949632e7 0.0
2.9132578555949632e7 -1.0472689656361986e7 0.0
0.0 0.0 0.0

-8.41176868703444e6 1.683744359861562e7 0.0
1.683744359861562e7 2.157256900732108e7 0.0
0.0 0.0 0.0

-285744.9198041279 1.368297881770888e7 0.0
1.368297881770888e7 -3.826519176026947e7 0.0
0.0 0.0 0.0

2.591516053249575e6 1.4782191214641652e6 0.0
1.4782191214641652e6 -4.338732763067931e7 0.0
0.0 0.0 0.0

1.0327740122337639e6 1.8704555813607242e7 0.0
1.8704555813607242e7 -1.7877991379859045e7 0.0
0.0 0.0 0.0

1.805494939780537e6 1.3218753821352765e7 0.0
1.3218753821352765e7 -2.053740379523721e7 0.0
0.0 0.0 0.0

920924.7715615332 2.0397091979271542e7 0.0
2.0397091979271542e7 -1.566150927015733e7 0.0
0.0 0.0 0.0

-1.5411340968492154e6 5.466072538917625e7 0.0
5.466072538917625e7 -5.432454199711426e6 0.0
0.0 0.0 0.0

-2.0868822585301853e6 2.614867907008903e7 0.0
2.614867907008903e7 5.033264156884346e6 0.0
0.0 0.0 0.0

1.092722920226561e6 2.398805908820264e7 0.0
2.398805908820264e7 -1.2575990652927965e7 0.0
0.0 0.0 0.0

474368.93569501676 2.3125189244066104e7 0.0
2.3125189244066104e7 -1.3149940782758549e7 0.0
0.0 0.0 0.0

2.1301078511051256e6 1.1411941418415012e7 0.0
1.1411941418415012e7 -2.0134109388887834e7 0.0
0.0 0.0 0.0

-3.541095634248337e6 2.50676639139025e7 0.0
2.50676639139025e7 1.1872862938337466e7 0.0
0.0 0.0 0.0

892838.9773778599 2.1841083312850747e7 0.0
2.1841083312850747e7 2.0679679585999236e7 0.0
0.0 0.0 0.0

-6.883977490248002e6 2.6267593390487175e7 0.0
2.6267593390487175e7 8.422981865100646e6 0.0
0.0 0.0 0.0

-2.2796620346547626e6 9.035746699489819e6 0.0
9.035746699489819e6 7.858220071056333e7 0.0
0.0 0.0 0.0

-8.968573207120843e6 -768910.8327370404 0.0
-768910.8327370404 2.4419597340483226e7 0.0
0.0 0.0 0.0

-9.768564977657393e6 8.15062689996611e7 0.0
8.15062689996611e7 -1.6830330840233438e7 0.0
0.0 0.0 0.0

5.04064694663237e6 1.985140602876718e7 0.0
1.985140602876718e7 2.5783324325450182e7 0.0
0.0 0.0 0.0

412793.19932938064 4.45707999595443e7 0.0
4.45707999595443e7 -1.9473735134991365e6 0.0
0.0 0.0 0.0

352791.93965783436 2.003097604311646e7 0.0
2.003097604311646e7 -1.2521961500025282e7 0.0
0.0 0.0 0.0

1.8397839727007411e6 2.3294956417390823e7 0.0
2.3294956417390823e7 -1.1995330036083996e7 0.0
0.0 0.0 0.0

-2.5575511684425403e6 2.7311974546410132e7 0.0
2.7311974546410132e7 7.112820679754773e6 0.0
0.0 0.0 0.0

3.586339576166313e6 2.0329418501317755e6 0.0
2.0329418501317755e6 -2.3980794237932354e7 0.0
0.0 0.0 0.0

1.0462332029129429e7 2.264455086850227e7 0.0
2.264455086850227e7 3.7376840881217173e6 0.0
0.0 0.0 0.0

1.929203439145564e6 1.3116946370581508e7 0.0
1.3116946370581508e7 -2.255127105626335e7 0.0
0.0 0.0 0.0

5.775628481352011e6 2.700453879469223e7 0.0
2.700453879469223e7 -7.0840238254005965e6 0.0
0.0 0.0 0.0

2.2773137866807245e6 8.129931330221958e6 0.0
8.129931330221958e6 -3.664755913598926e7 0.0
0.0 0.0 0.0

-2.420684882150336e6 2.262635330510921e7 0.0
2.262635330510921e7 1.0810266337075174e7 0.0
0.0 0.0 0.0

2.6184369733633995e6 7.690070381253276e6 0.0
7.690070381253276e6 -1.4432315024930522e7 0.0
0.0 0.0 0.0

-2.1367445848519225e6 1.2559133473690761e7 0.0
1.2559133473690761e7 1.5104742381357043e6 0.0
0.0 0.0 0.0

-1.9783319214991663e7 2.6028060342011757e7 0.0
2.6028060342011757e7 -6.87089982157611e6 0.0
0.0 0.0 0.0

2.3123215446409807e6 1.0828776358563226e7 0.0
1.0828776358563226e7 -2.6327287342323415e7 0.0
0.0 0.0 0.0

-2.6036710397485346e6 1.8907991870419964e7 0.0
1.8907991870419964e7 -3.5486979035515757e6 0.0
0.0 0.0 0.0

421830.39367631683 2.4665348480974413e7 0.0
2.4665348480974413e7 -1.0721415728284989e7 0.0
0.0 0.0 0.0

-126025.25952349603 2.0348174477150302e7 0.0
2.0348174477150302e7 2.9620474539888464e7 0.0
0.0 0.0 0.0

500030.2791428061 2.213579324540374e7 0.0
2.213579324540374e7 -1.7874111185756011e6 0.0
0.0 0.0 0.0

-5.229417213316594e6 1.799962417212542e7 0.0
1.799962417212542e7 1.3713861205030842e7 0.0
0.0 0.0 0.0

-9.862190461668529e6 9.362818493441764e6 0.0
9.362818493441764e6 3.6713550801086664e7 0.0
0.0 0.0 0.0

402074.7746207379 2.074405673530171e7 0.0
2.074405673530171e7 3.016653768808953e7 0.0
0.0 0.0 0.0

-6.320796982676628e6 1.9178441765172023e7 0.0
1.9178441765172023e7 2.0160598269195277e7 0.0
0.0 0.0 0.0

-1.021897233084733e7 4.75052465289853e6 0.0
4.75052465289853e6 3.284138855891687e7 0.0
0.0 0.0 0.0

-3.5632983252640674e6 2.0723610237821545e7 0.0
2.0723610237821545e7 1.7105227643473975e7 0.0
0.0 0.0 0.0

-3.8057738327328563e6 2.333266248529723e7 0.0
2.333266248529723e7 1.7587922504869033e7 0.0
0.0 0.0 0.0

-9.94688518542833e6 7.6407714547064705e6 0.0
7.6407714547064705e6 1.8724238205113035e7 0.0
0.0 0.0 0.0

467348.664775928 2.3902972016920403e7 0.0
2.3902972016920403e7 -1.19398871530238e7 0.0
0.0 0.0 0.0

-2.8012954038700797e6 2.735052582592497e7 0.0
2.735052582592497e7 4.451415622509615e6 0.0
0.0 0.0 0.0

-6.147041837505433e6 1.9664238373131763e7 0.0
1.9664238373131763e7 2.090872884199027e7 0.0
0.0 0.0 0.0

-8.333990217823699e6 4.522733488554209e6 0.0
4.522733488554209e6 4.721520141150632e7 0.0
0.0 0.0 0.0

-1.7741772419357244e6 2.289518870446772e7 0.0
2.289518870446772e7 1.4277737739443183e7 0.0
0.0 0.0 0.0

-7.961338918513229e6 1.6113758158497812e7 0.0
1.6113758158497812e7 2.2961180737855922e7 0.0
0.0 0.0 0.0

323790.996246906 1.335300042324671e7 0.0
1.335300042324671e7 -3.5939503564495295e7 0.0
0.0 0.0 0.0

-406512.4837594684 1.950730190941474e7 0.0
1.950730190941474e7 3.6950155099737935e7 0.0
0.0 0.0 0.0

-7.791322664582411e6 1.7566279178663734e7 0.0
1.7566279178663734e7 2.6748950550574124e7 0.0
0.0 0.0 0.0

1.7292674130962575e6 1.17930352765882e7 0.0
1.17930352765882e7 -1.5851703624782667e7 0.0
0.0 0.0 0.0

2.532474300910024e6 3.391227395487747e6 0.0
3.391227395487747e6 -3.4173306929904774e7 0.0
0.0 0.0 0.0

3.7891202358445115e6 1.9864902895379234e7 0.0
1.9864902895379234e7 3.2800168345604334e7 0.0
0.0 0.0 0.0

1.8384592692416068e6 1.9966222268898e7 0.0
1.9966222268898e7 3.5012644181895785e7 0.0
0.0 0.0 0.0

-513754.1725400239 1.9402276680507123e7 0.0
1.9402276680507123e7 -8.787427223616384e6 0.0
0.0 0.0 0.0

-3.6554627428337983e6 2.6533505211972207e7 0.0
2.6533505211972207e7 1.1491166032955186e7 0.0
0.0 0.0 0.0

468841.9247774634 4.0064145679497756e7 0.0
4.0064145679497756e7 -1.6424483162259797e6 0.0
0.0 0.0 0.0

856873.7761513451 2.2015711484324344e7 0.0
2.2015711484324344e7 -1.4476961091162007e7 0.0
0.0 0.0 0.0

-9.557700508207522e6 430012.702276979 0.0
430012.702276979 2.549689187906744e7 0.0
0.0 0.0 0.0

-35709.69209874794 1.5729454455451485e7 0.0
1.5729454455451485e7 -3.0776484282329053e7 0.0
0.0 0.0 0.0

-2.908093153851389e6 2.3632488983914718e7 0.0
2.3632488983914718e7 1.4516005073493317e7 0.0
0.0 0.0 0.0

-8.534461906479543e6 1.6309108769246556e7 0.0
1.6309108769246556e7 2.7585379426666662e7 0.0
0.0 0.0 0.0

4.348589823315665e6 1.737037888270405e7 0.0
1.737037888270405e7 1.481359707118865e7 0.0
0.0 0.0 0.0

564319.8158927392 1.0509792936795909e7 0.0
1.0509792936795909e7 -4.2279131511874795e7 0.0
0.0 0.0 0.0

691919.5541041605 1.3217892966266898e7 0.0
1.3217892966266898e7 -3.3590041597085945e7 0.0
0.0 0.0 0.0

1.0591474890286632e7 4.2886587031054765e7 0.0
4.2886587031054765e7 -5.642100368687751e6 0.0
0.0 0.0 0.0

-1.9279935973970399e6 2.670953603703343e7 0.0
2.670953603703343e7 3.9048859494558647e6 0.0
0.0 0.0 0.0

-2.4877429332164684e6 2.7949645415667094e7 0.0
2.7949645415667094e7 6.017121786977818e6 0.0
0.0 0.0 0.0

-1.3084821255985943e6 2.8446345911277264e7 0.0
2.8446345911277264e7 -2.4089297227230286e6 0.0
0.0 0.0 0.0

3.5099765583264725e6 4.2136782380944e6 0.0
4.2136782380944e6 -1.9793731658679236e7 0.0
0.0 0.0 0.0

-2.490084538053166e6 1.877604626382422e7 0.0
1.877604626382422e7 -8.712202839250715e6 0.0
0.0 0.0 0.0

-2.7475943014025064e6 2.3459573398658928e7 0.0
2.3459573398658928e7 1.374292339762265e7 0.0
0.0 0.0 0.0

1.6189256207714188e6 2.461155107291083e7 0.0
2.461155107291083e7 -1.1547402869155902e7 0.0
0.0 0.0 0.0

452594.3350241274 3.8897334052149266e7 0.0
3.8897334052149266e7 -1.4807630885301041e6 0.0
0.0 0.0 0.0

-7.294380574964923e6 1.044036020800997e7 0.0
1.044036020800997e7 1.5365715980024178e7 0.0
0.0 0.0 0.0

-1.0605389449479058e7 1.1822711490450697e7 0.0
1.1822711490450697e7 3.0117701997924197e7 0.0
0.0 0.0 0.0

346648.7808220518 3.7953908429189265e7 0.0
3.7953908429189265e7 -1.3100444873040174e6 0.0
0.0 0.0 0.0

390741.72392852325 2.5467006779873572e7 0.0
2.5467006779873572e7 -9.584525961464116e6 0.0
0.0 0.0 0.0

1.3100341173234228e6 1.1915061102797663e7 0.0
1.1915061102797663e7 -2.094716312212564e7 0.0
0.0 0.0 0.0

-3.764814516368638e6 1.8860025499801073e7 0.0
1.8860025499801073e7 1.5732526894180764e7 0.0
0.0 0.0 0.0

587990.9827635847 9.69112036700393e6 0.0
9.69112036700393e6 -4.442349189954529e7 0.0
0.0 0.0 0.0

-752041.3922782387 3.2966585538202785e7 0.0
3.2966585538202785e7 656522.8604688032 0.0
0.0 0.0 0.0

-3.759558858646491e6 2.4240940874770347e7 0.0
2.4240940874770347e7 1.0961955898178298e7 0.0
0.0 0.0 0.0

-894335.5657497961 1.4586431046958035e7 0.0
1.4586431046958035e7 -3.859687067402076e7 0.0
0.0 0.0 0.0

-3.523590721277598e6 2.8581656099158455e7 0.0
2.8581656099158455e7 6.211639692137495e6 0.0
0.0 0.0 0.0

-1.0282792574632501e7 1.1413437618982099e7 0.0
1.1413437618982099e7 3.236091053078767e7 0.0
0.0 0.0 0.0

1.0885308272003653e6 1.1572515057834815e7 0.0
1.1572515057834815e7 -1.795664498941216e7 0.0
0.0 0.0 0.0

2.597224002513809e6 2.3138047604409434e7 0.0
2.3138047604409434e7 1.1687468357907878e7 0.0
0.0 0.0 0.0

-2.401673672024212e6 2.5786233010840453e7 0.0
2.5786233010840453e7 8.558094049594903e6 0.0
0.0 0.0 0.0

-1.6207940018180124e6 1.5609464959807262e7 0.0
1.5609464959807262e7 -3.817620784326264e7 0.0
0.0 0.0 0.0

-2.16480212276573e6 6.063911515392847e7 0.0
6.063911515392847e7 -8.572079042243328e6 0.0
0.0 0.0 0.0

-7.0468826053240895e6 1.888031714921791e7 0.0
1.888031714921791e7 2.4282707569017548e7 0.0
0.0 0.0 0.0

-1.3199855301594269e7 1.910826852201881e7 0.0
1.910826852201881e7 -6.3411520081951745e7 0.0
0.0 0.0 0.0

-5.348283232156107e6 1.1036484440005997e7 0.0
1.1036484440005997e7 1.1495443125360189e7 0.0
0.0 0.0 0.0

-3.688356255512663e6 2.1845688605123278e7 0.0
2.1845688605123278e7 1.2967409430513706e7 0.0
0.0 0.0 0.0

-3.096675370314656e6 1.9252011486422975e7 0.0
1.9252011486422975e7 3.394494969667928e7 0.0
0.0 0.0 0.0

-4.446472601716168e6 1.7638770285644136e7 0.0
1.7638770285644136e7 1.6503072076342104e7 0.0
0.0 0.0 0.0

1.6149537378617935e6 1.7890835210014235e7 0.0
1.7890835210014235e7 6.455248167635539e7 0.0
0.0 0.0 0.0

-2.5993035600497816e6 2.1874112075104255e7 0.0
2.1874112075104255e7 1.2441544817146657e7 0.0
0.0 0.0 0.0

-1.851122555158671e6 1.9502187205045693e7 0.0
1.9502187205045693e7 -2.560195258016648e7 0.0
0.0 0.0 0.0

967391.3319515483 2.2487164964194134e7 0.0
2.2487164964194134e7 -1.5279110656663217e7 0.0
0.0 0.0 0.0

1.7502525447051004e8 3.0949043461620986e7 0.0
3.0949043461620986e7 1.6666713436086982e7 0.0
0.0 0.0 0.0

-7.866256096123718e6 -2.268871210128059e6 0.0
-2.268871210128059e6 3.947667431964959e7 0.0
0.0 0.0 0.0

2.807132802467214e6 1.5094706987094085e6 0.0
1.5094706987094085e6 -3.945154901679744e7 0.0
0.0 0.0 0.0

-9.7197700028616e6 1.5696917762237873e6 0.0
1.5696917762237873e6 1.434725249150796e7 0.0
0.0 0.0 0.0

-1.0932228557374e6 2.7803239797905747e7 0.0
2.7803239797905747e7 -3.428318719507024e6 0.0
0.0 0.0 0.0

-6.955373074935351e6 -1.54757975963758e6 0.0
-1.54757975963758e6 5.066769295868883e7 0.0
0.0 0.0 0.0

-8.625155370658927e6 1.820386203028053e7 0.0
1.820386203028053e7 -3.771070470343004e7 0.0
0.0 0.0 0.0

-9.38410919782051e6 1.476412130892382e7 0.0
1.476412130892382e7 2.8207259575815193e7 0.0
0.0 0.0 0.0

-6.018418090831569e6 2.011092439202153e7 0.0
2.011092439202153e7 2.1497396407621384e7 0.0
0.0 0.0 0.0

2.473630882835759e6 1.4276540859436195e6 0.0
1.4276540859436195e6 -4.473046859017174e7 0.0
0.0 0.0 0.0

941808.6802571742 1.939410404812909e7 0.0
1.939410404812909e7 -1.6512722508135589e7 0.0
0.0 0.0 0.0

445908.2577023662 4.143591645298687e7 0.0
4.143591645298687e7 -1.3818106444793604e6 0.0
0.0 0.0 0.0

750098.307831672 1.2333028105357572e7 0.0
1.2333028105357572e7 -1.6724547525978368e7 0.0
0.0 0.0 0.0

-4.1610589859802527e6 2.351664043539529e7 0.0
2.351664043539529e7 -4.516294392171049e6 0.0
0.0 0.0 0.0

895842.4183154181 9.228540826129328e6 0.0
9.228540826129328e6 1.092966287589207e8 0.0
0.0 0.0 0.0

-3.2576701626098044e6 8.782231870802153e6 0.0
8.782231870802153e6 -1.0500864715786676e8 0.0
0.0 0.0 0.0

-7.312350542934988e6 1.8083294478997845e7 0.0
1.8083294478997845e7 -8.874917956278698e7 0.0
0.0 0.0 0.0

1.2148371013630172e6 1.7391841136261284e7 0.0
1.7391841136261284e7 -2.057750044597113e7 0.0
0.0 0.0 0.0

1.7199216418906543e6 7.3837138024456315e6 0.0
7.3837138024456315e6 -4.817258704763545e7 0.0
0.0 0.0 0.0

-2.7390012114791922e7 3.1078185362993404e7 0.0
3.1078185362993404e7 1.8336164227098376e6 0.0
0.0 0.0 0.0

1.4395099647582034e6 2.3911925464461733e7 0.0
2.3911925464461733e7 -1.2845936192780528e7 0.0
0.0 0.0 0.0

-7.7003846389591545e6 -2.226068107057191e6 0.0
-2.226068107057191e6 4.080593553894678e7 0.0
0.0 0.0 0.0

-7.54061934244053e6 1.3342163661393385e7 0.0
1.3342163661393385e7 1.6856061584005453e7 0.0
0.0 0.0 0.0

-2.3469008245018376e6 2.8552886555541918e7 0.0
2.8552886555541918e7 4.949597574375488e6 0.0
0.0 0.0 0.0

-3.4688662159780758e6 2.414041695559754e7 0.0
2.414041695559754e7 1.2519543388062447e7 0.0
0.0 0.0 0.0

-7.620592921769843e6 1.6447075060644494e7 0.0
1.6447075060644494e7 1.7860846859829187e7 0.0
0.0 0.0 0.0

-8.912481878978912e6 8.993915467775714e6 0.0
8.993915467775714e6 1.7512913952563636e7 0.0
0.0 0.0 0.0

8.648175915548034e6 2.2580257065835506e7 0.0
2.2580257065835506e7 5.774741560138396e6 0.0
0.0 0.0 0.0

293717.5297849551 2.6308046141866628e7 0.0
2.6308046141866628e7 -8.495526791567756e6 0.0
0.0 0.0 0.0

-3.8758453600078383e6 7.036014308441512e6 0.0
7.036014308441512e6 1.479143432594762e6 0.0
0.0 0.0 0.0

691093.0775166224 3.030789123164122e7 0.0
3.030789123164122e7 -2.7590995275918166e6 0.0
0.0 0.0 0.0

-8.368070772013234e6 1.765806193383732e7 0.0
1.765806193383732e7 2.6658728849973217e7 0.0
0.0 0.0 0.0

-3.601091859921663e6 1.8440794742838487e7 0.0
1.8440794742838487e7 1.4418918648094207e7 0.0
0.0 0.0 0.0

-7.550840600251628e6 -2.1224101885948638e6 0.0
-2.1224101885948638e6 4.2122292845464736e7 0.0
0.0 0.0 0.0

2.5869196907429677e6 1.4923358073625923e6 0.0
1.4923358073625923e6 -4.204485095166694e7 0.0
0.0 0.0 0.0

1.5105495457589068e6 7.698131174887184e6 0.0
7.698131174887184e6 -5.14565073758522e7 0.0
0.0 0.0 0.0

-1.051940170259693e7 1.3789255171050318e7 0.0
1.3789255171050318e7 2.681324289131327e7 0.0
0.0 0.0 0.0

-1.1101543846368082e6 5.245362685822907e6 0.0
5.245362685822907e6 -9.107500662422311e7 0.0
0.0 0.0 0.0

-5.454130124568824e6 -129388.56638281676 0.0
-129388.56638281676 6.6915941445060894e7 0.0
0.0 0.0 0.0

1.497118190632686e6 1.117869668857306e7 0.0
1.117869668857306e7 -2.227552132084711e7 0.0
0.0 0.0 0.0

2.573876185677374e6 9.60424969918467e6 0.0
9.60424969918467e6 -2.48737705164171e7 0.0
0.0 0.0 0.0

7.076116348001911e6 3.788165663546318e7 0.0
3.788165663546318e7 -3.1160515583348577e6 0.0
0.0 0.0 0.0

-7.71566077122502e6 3.307149413375348e7 0.0
3.307149413375348e7 6.113489569276116e6 0.0
0.0 0.0 0.0

-2.536113343872971e6 2.5137467016973034e7 0.0
2.5137467016973034e7 9.765116978996698e6 0.0
0.0 0.0 0.0

995146.5792573364 2.898235885568573e7 0.0
2.898235885568573e7 -4.638626987414267e6 0.0
0.0 0.0 0.0

-934506.5249455576 3.8590007953133546e7 0.0
3.8590007953133546e7 1.2015702059455526e6 0.0
0.0 0.0 0.0

-2.8523009194777976e6 2.676163117499943e7 0.0
2.676163117499943e7 9.15646972454074e6 0.0
0.0 0.0 0.0

1.0600254338811985e6 2.1000573470295742e7 0.0
2.1000573470295742e7 1.3569406332184758e7 0.0
0.0 0.0 0.0

461059.55493152887 2.674741942820068e6 0.0
2.674741942820068e6 -7.66088027672804e7 0.0
0.0 0.0 0.0

2.268743484918397e6 1.3268728365391677e6 0.0
1.3268728365391677e6 -5.0325035679934785e7 0.0
0.0 0.0 0.0

1.3115210809917971e6 1.7103156773507653e6 0.0
1.7103156773507653e6 -6.58693608445473e7 0.0
0.0 0.0 0.0

-2.3249989499126025e6 2.889263689140758e7 0.0
2.889263689140758e7 1.4679038721020198e6 0.0
0.0 0.0 0.0

-6.94876492765635e6 1.2022399998329751e7 0.0
1.2022399998329751e7 9.803816450189075e6 0.0
0.0 0.0 0.0

-6.678763784222342e6 -1.4024405483836045e6 0.0
-1.4024405483836045e6 5.215181120928943e7 0.0
0.0 0.0 0.0

-1.0464352715258202e7 1.4182831909778114e7 0.0
1.4182831909778114e7 2.49583911281e7 0.0
0.0 0.0 0.0

3.2954742342467867e6 3.509846068968455e6 0.0
3.509846068968455e6 -2.650377583895477e7 0.0
0.0 0.0 0.0

-1.573444419552818e7 3.0455639959243994e7 0.0
3.0455639959243994e7 4.786003530972603e6 0.0
0.0 0.0 0.0

-8.22058435559385e6 1.933042375157025e7 0.0
1.933042375157025e7 -3.192079499254836e7 0.0
0.0 0.0 0.0

-8.151025555292439e6 -2.8645650427904595e6 0.0
-2.8645650427904595e6 3.3873635486514874e7 0.0
0.0 0.0 0.0

-1.1370184616400613e7 5.846896722411259e6 0.0
5.846896722411259e6 2.3726503292386834e7 0.0
0.0 0.0 0.0

-9.504448188299267e6 1.0615439659703285e7 0.0
1.0615439659703285e7 3.751477018412542e7 0.0
0.0 0.0 0.0

-3.3047882475985223e6 2.2271095649437476e7 0.0
2.2271095649437476e7 2.0580389470433373e7 0.0
0.0 0.0 0.0

921011.7640160937 1.3834202133324662e7 0.0
1.3834202133324662e7 -2.9787756329918865e7 0.0
0.0 0.0 0.0

1.156899114038121e6 2.1996955750776087e6 0.0
2.1996955750776087e6 -7.251538228806809e7 0.0
0.0 0.0 0.0

2.8637574066285864e6 1.6056739317996649e6 0.0
1.6056739317996649e6 -3.569149568680085e7 0.0
0.0 0.0 0.0

1.6253319681496285e7 4.058640260654403e7 0.0
4.058640260654403e7 -7.111621041177658e6 0.0
0.0 0.0 0.0

-5.771398085405707e6 -336565.45075975236 0.0
-336565.45075975236 6.428319438125299e7 0.0
0.0 0.0 0.0

1.5530387927130666e6 9.067359487261029e6 0.0
9.067359487261029e6 -4.351969717647841e7 0.0
0.0 0.0 0.0

-4.220529041416828e6 2.6599314913805313e6 0.0
2.6599314913805313e6 8.486294865764824e7 0.0
0.0 0.0 0.0

267246.70980741084 3.5327829232582934e6 0.0
3.5327829232582934e6 -8.24417002596406e7 0.0
0.0 0.0 0.0

-3.9121462813244895e6 2.8257685939741187e7 0.0
2.8257685939741187e7 9.063379187128838e6 0.0
0.0 0.0 0.0

-1.430508304443065e6 1.3698476498131571e7 0.0
1.3698476498131571e7 -7.402232145516565e6 0.0
0.0 0.0 0.0

-474763.4328649184 2.0428656830120962e7 0.0
2.0428656830120962e7 -1.3186638208662912e7 0.0
0.0 0.0 0.0

290562.00920986384 1.8904000575289823e7 0.0
1.8904000575289823e7 -2.2195390040569533e7 0.0
0.0 0.0 0.0

-5.030039123040993e6 205576.5028938508 0.0
205576.5028938508 7.012655735561985e7 0.0
0.0 0.0 0.0

1.104151536585942e6 1.9814409826366494e6 0.0
1.9814409826366494e6 -6.895994983646934e7 0.0
0.0 0.0 0.0

-7.46238928793731e6 1.841908630316282e7 0.0
1.841908630316282e7 2.738631489679721e7 0.0
0.0 0.0 0.0

-8.797590714827571e6 1.7103459465246446e7 0.0
1.7103459465246446e7 2.6054364981309447e7 0.0
0.0 0.0 0.0

-9.930428001166236e6 1.2413756613716772e7 0.0
1.2413756613716772e7 3.312471264162829e7 0.0
0.0 0.0 0.0

-5.583363785731618e6 1.689554348670964e7 0.0
1.689554348670964e7 1.8594072296747033e7 0.0
0.0 0.0 0.0

5.610181407843533e6 2.0399301239526518e7 0.0
2.0399301239526518e7 4.305273710058235e7 0.0
0.0 0.0 0.0

1.3672171684476216e6 2.6942198572185956e7 0.0
2.6942198572185956e7 -7.49518046034042e6 0.0
0.0 0.0 0.0

-2.1661887915494516e6 3.084230418418379e7 0.0
3.084230418418379e7 737820.4788091554 0.0
0.0 0.0 0.0

1.1792806774691842e6 2.8538936184955407e7 0.0
2.8538936184955407e7 -6.352014662480834e6 0.0
0.0 0.0 0.0

2.262583040476823e6 1.1219809972963111e7 0.0
1.1219809972963111e7 -2.22502294153213e7 0.0
0.0 0.0 0.0

-4.330461583496946e6 3.147936773221499e7 0.0
3.147936773221499e7 5.870623668933792e6 0.0
0.0 0.0 0.0

-2.420506464237331e6 2.248531549150709e7 0.0
2.248531549150709e7 -6.320801142413755e6 0.0
0.0 0.0 0.0

1.436578682094723e6 1.613883514278323e7 0.0
1.613883514278323e7 -2.3312452490184173e7 0.0
0.0 0.0 0.0

-7.516424775386488e6 1.6424506420141056e7 0.0
1.6424506420141056e7 3.405310468299302e7 0.0
0.0 0.0 0.0

-1.00873359845344e7 1.4508945521278407e7 0.0
1.4508945521278407e7 2.7667201674861193e7 0.0
0.0 0.0 0.0

1.7861429720622282e6 1.01774353074383e7 0.0
1.01774353074383e7 -2.5774534070712525e7 0.0
0.0 0.0 0.0

-7.29137864698166e6 -1.875273490627254e6 0.0
-1.875273490627254e6 4.6243591372146115e7 0.0
0.0 0.0 0.0

2.36213117482809e6 1.434654149772288e6 0.0
1.434654149772288e6 -4.6078027816342324e7 0.0
0.0 0.0 0.0

746756.3302584374 2.059079144527959e7 0.0
2.059079144527959e7 2.6388440508016497e7 0.0
0.0 0.0 0.0

-5.8999395139339045e6 -528146.5229971677 0.0
-528146.5229971677 6.181290684443753e7 0.0
0.0 0.0 0.0

1.4902821856140941e6 1.5664299824428007e6 0.0
1.5664299824428007e6 -6.094068859298225e7 0.0
0.0 0.0 0.0

2.2646208813205343e6 1.4872594324122544e6 0.0
1.4872594324122544e6 -4.741490763230708e7 0.0
0.0 0.0 0.0

-7.134859459572485e6 -1.7225621812907106e6 0.0
-1.7225621812907106e6 4.7636523243135646e7 0.0
0.0 0.0 0.0

-1.8848435377503093e6 1.810863589618759e7 0.0
1.810863589618759e7 4.3961867224683106e7 0.0
0.0 0.0 0.0

1.7237090557587892e6 1.4717306896899948e6 0.0
1.4717306896899948e6 -5.89506633474211e7 0.0
0.0 0.0 0.0

-6.059765045327757e6 -807080.1955567637 0.0
-807080.1955567637 5.947357949320067e7 0.0
0.0 0.0 0.0

-2.715622225198579e6 2.174700787022922e7 0.0
2.174700787022922e7 2.354568620606939e7 0.0
0.0 0.0 0.0

-8.066375367019545e6 716518.5359838805 0.0
716518.5359838805 4.211460002791044e7 0.0
0.0 0.0 0.0

-7.046611338777222e6 -1.5933796107108414e6 0.0
-1.5933796107108414e6 4.917688574691044e7 0.0
0.0 0.0 0.0

2.417382754216006e6 1.4472893198125386e6 0.0
1.4472893198125386e6 -4.893856983721466e7 0.0
0.0 0.0 0.0

1.803739539301008e6 1.4921809925257608e6 0.0
1.4921809925257608e6 -5.703824584885579e7 0.0
0.0 0.0 0.0

-6.274543872259922e6 -1.049421693614818e6 0.0
-1.049421693614818e6 5.742896823190153e7 0.0
0.0 0.0 0.0

-3.1255847275759506e8 6.872765073216473e7 0.0
6.872765073216473e7 -3.725799444273836e7 0.0
0.0 0.0 0.0

2.97758724155645e8 6.096133562592702e7 0.0
6.096133562592702e7 3.0130961587256826e7 0.0
0.0 0.0 0.0

-7.557994704024594e6 1.699556670523497e7 0.0
1.699556670523497e7 1.9008051176760457e7 0.0
0.0 0.0 0.0

1.7313345478235185e6 1.3830494103661228e6 0.0
1.3830494103661228e6 -5.516726005254696e7 0.0
0.0 0.0 0.0

-6.555821206431445e6 -1.1606858555084541e6 0.0
-1.1606858555084541e6 5.571720562684678e7 0.0
0.0 0.0 0.0

373158.6992273422 2.073216221568496e7 0.0
2.073216221568496e7 -1.3830142346520796e6 0.0
0.0 0.0 0.0

-9.685268252628792e6 1.559089008458445e7 0.0
1.559089008458445e7 2.653341879951314e7 0.0
0.0 0.0 0.0

-2.1329167431027126e6 2.9130161959274326e7 0.0
2.9130161959274326e7 3.9862289944926165e6 0.0
0.0 0.0 0.0

1.5081792902325988e6 2.1191714324303232e7 0.0
2.1191714324303232e7 2.7254821407031953e7 0.0
0.0 0.0 0.0

-6.66312286658055e6 -1.2278057230720744e6 0.0
-1.2278057230720744e6 5.395432391235968e7 0.0
0.0 0.0 0.0

1.9810782589858808e6 1.256139255186869e6 0.0
1.256139255186869e6 -5.361046465768261e7 0.0
0.0 0.0 0.0

286248.6479021497 2.7097523659825e7 0.0
2.7097523659825e7 -7.437901595312707e6 0.0
0.0 0.0 0.0

-9.796448532544766e6 1.8861106496662565e7 0.0
1.8861106496662565e7 -6.487619354836714e7 0.0
0.0 0.0 0.0

-549297.5251055288 3.0406338879641943e7 0.0
3.0406338879641943e7 -2.573609052634739e6 0.0
0.0 0.0 0.0

1.1634638514765026e6 1.805569027358915e7 0.0
1.805569027358915e7 -1.9202450353562977e7 0.0
0.0 0.0 0.0

226488.11627403647 1.6812589732293244e7 0.0
1.6812589732293244e7 -2.70747176668006e7 0.0
0.0 0.0 0.0

42843.846479308326 2.1204442931644447e7 0.0
2.1204442931644447e7 7.75796597002641e6 0.0
0.0 0.0 0.0

3.03393908485115e6 2.69757487668482e7 0.0
2.69757487668482e7 -8.900199164136076e6 0.0
0.0 0.0 0.0

1.5466089827575954e6 2.4593506108192183e7 0.0
2.4593506108192183e7 -1.1423589741681255e7 0.0
0.0 0.0 0.0

-7.056864800949071e6 1.7605173465069514e7 0.0
1.7605173465069514e7 -5.001716885402061e7 0.0
0.0 0.0 0.0

-1.305360368055498e6 3.0477271734520208e7 0.0
3.0477271734520208e7 1.2989753540687826e6 0.0
0.0 0.0 0.0

-2.98003718330584e6 2.4632350909194455e7 0.0
2.4632350909194455e7 1.0540372212305628e7 0.0
0.0 0.0 0.0

-8.737520324974865e6 2.5966698177248918e7 0.0
2.5966698177248918e7 -1.29845292515741e7 0.0
0.0 0.0 0.0

-98667.43553004973 1.732817729065406e7 0.0
1.732817729065406e7 -2.7094333052911196e7 0.0
0.0 0.0 0.0

-1.0270555880585726e7 1.4574055905480402e7 0.0
1.4574055905480402e7 2.306575610045577e7 0.0
0.0 0.0 0.0

3.1518080729372725e6 1.994672547357476e7 0.0
1.994672547357476e7 1.4096063302253524e7 0.0
0.0 0.0 0.0

-9.254083844848635e6 1.6054951957550902e7 0.0
1.6054951957550902e7 2.28303341466655e7 0.0
0.0 0.0 0.0

-1.6625393873210826e6 2.074402921191883e7 0.0
2.074402921191883e7 -2.2409659671716793e6 0.0
0.0 0.0 0.0

-1.5982363288369137e6 3.011495491453729e7 0.0
3.011495491453729e7 2.267249013294953e6 0.0
0.0 0.0 0.0

-2.8492088186565395e6 1.7587485152881242e7 0.0
1.7587485152881242e7 -3.4346595072344795e7 0.0
0.0 0.0 0.0

-1.8628940995063866e6 2.183610648275414e7 0.0
2.183610648275414e7 2.31829534479615e7 0.0
0.0 0.0 0.0

-1.1543437244378664e6 3.9629230492409505e7 0.0
3.9629230492409505e7 1.6754602287712765e6 0.0
0.0 0.0 0.0

-2.460756317214597e6 2.1204959475439496e7 0.0
2.1204959475439496e7 -3.0259092274061646e6 0.0
0.0 0.0 0.0

35386.35535129742 2.850768472818067e7 0.0
2.850768472818067e7 -5.374949797012007e6 0.0
0.0 0.0 0.0

1.9663599473445483e7 2.5872340683991134e7 0.0
2.5872340683991134e7 1.3881773784362612e7 0.0
0.0 0.0 0.0

-1.9147496126461092e6 2.9654480622869443e7 0.0
2.9654480622869443e7 3.0811162054360774e6 0.0
0.0 0.0 0.0

-9.494588058937766e6 1.7381117316689488e7 0.0
1.7381117316689488e7 -2.109353401192797e6 0.0
0.0 0.0 0.0

-1.3363995159516758e6 3.2595074604957074e7 0.0
3.2595074604957074e7 1.3645145953409055e6 0.0
0.0 0.0 0.0

3.2424185816727076e6 1.8478682777054103e6 0.0
1.8478682777054103e6 -2.799621533558593e7 0.0
0.0 0.0 0.0

3.339971579628812e6 1.9191376264486313e6 0.0
1.9191376264486313e6 -2.6890250539389025e7 0.0
0.0 0.0 0.0

248658.4927862608 2.783062684463902e7 0.0
2.783062684463902e7 -6.207979331680663e6 0.0
0.0 0.0 0.0

2.6964862261842974e6 2.0504530769342855e7 0.0
2.0504530769342855e7 3.577619895369748e7 0.0
0.0 0.0 0.0

-720368.8217927599 3.366401216200006e7 0.0
3.366401216200006e7 776913.4645734574 0.0
0.0 0.0 0.0

-1.0158710717432946e7 1.2803278243706185e7 0.0
1.2803278243706185e7 3.0934511350179344e7 0.0
0.0 0.0 0.0

-808209.2962235219 3.68753106691008e7 0.0
3.68753106691008e7 1.0276574651093853e6 0.0
0.0 0.0 0.0

-2.583901480639804e6 2.3106130564600565e7 0.0
2.3106130564600565e7 1.386938986875415e7 0.0
0.0 0.0 0.0

317014.63595659146 1.9643179981413297e7 0.0
1.9643179981413297e7 5.586848528560789e6 0.0
0.0 0.0 0.0

1.3178191844055373e6 1.3567656840355763e7 0.0
1.3567656840355763e7 -3.139923501683263e7 0.0
0.0 0.0 0.0

-3.1390090940481573e6 2.897510537885147e7 0.0
2.897510537885147e7 4.269699583737683e6 0.0
0.0 0.0 0.0

-8.706404242638579e6 -1.4964643308468785e6 0.0
-1.4964643308468785e6 3.0624553869936224e7 0.0
0.0 0.0 0.0

-1.9808163835831862e6 1.7370436026886065e7 0.0
1.7370436026886065e7 4.653585597935885e7 0.0
0.0 0.0 0.0

-6.327794401105003e6 1.7173236789367013e7 0.0
1.7173236789367013e7 -5.6267647556226954e7 0.0
0.0 0.0 0.0

-8.899354015921302e6 1.3618094944696432e7 0.0
1.3618094944696432e7 3.468911687564271e7 0.0
0.0 0.0 0.0

7.94052899729687e6 2.7877948747347947e7 0.0
2.7877948747347947e7 -6.0258746893664235e6 0.0
0.0 0.0 0.0

1.5460609363619797e6 1.4197480705360813e7 0.0
1.4197480705360813e7 -2.7739608179271635e7 0.0
0.0 0.0 0.0

-2.667502997533821e6 2.0777738728731364e7 0.0
2.0777738728731364e7 -1.8778848156724132e6 0.0
0.0 0.0 0.0

-262216.10483848024 2.983925677449802e7 0.0
2.983925677449802e7 -3.468333748799615e6 0.0
0.0 0.0 0.0

-935513.832562654 2.0079724130754817e7 0.0
2.0079724130754817e7 -5.928946651526515e6 0.0
0.0 0.0 0.0

-9.75812366183011e6 1.4036816275757246e7 0.0
1.4036816275757246e7 2.745255210593448e7 0.0
0.0 0.0 0.0

-8.1808603546111565e6 1.5591879815060178e7 0.0
1.5591879815060178e7 3.358642638179311e7 0.0
0.0 0.0 0.0

-87996.43171930453 2.9186477823189624e7 0.0
2.9186477823189624e7 -4.430517649262626e6 0.0
0.0 0.0 0.0

-6.88983523970077e6 1.6199538932025269e7 0.0
1.6199538932025269e7 2.0438509111434985e7 0.0
0.0 0.0 0.0

2.3445299584863335e6 4.5138540522991605e6 0.0
4.5138540522991605e6 -4.5276243446085714e7 0.0
0.0 0.0 0.0

-5.45159493058057e6 1.887940613043199e7 0.0
1.887940613043199e7 1.633712980914541e7 0.0
0.0 0.0 0.0

-2.038725711108961e6 1.9893824865739908e7 0.0
1.9893824865739908e7 -1.2480711265065283e7 0.0
0.0 0.0 0.0

794743.4603903784 2.0968732177643083e7 0.0
2.0968732177643083e7 1.8238494837537177e6 0.0
0.0 0.0 0.0

-4.082911717366838e6 2.2517661811646294e7 0.0
2.2517661811646294e7 -1.4165276858354252e7 0.0
0.0 0.0 0.0

-1.664108037351344e6 2.055994375214226e7 0.0
2.055994375214226e7 -8.019093866704281e6 0.0
0.0 0.0 0.0

291507.7792831417 1.7369255508706924e7 0.0
1.7369255508706924e7 -2.5394100251613144e7 0.0
0.0 0.0 0.0

1.8102186871697474e6 8.764067170914043e6 0.0
8.764067170914043e6 -3.270571910351269e7 0.0
0.0 0.0 0.0

-1.5517411014735468e6 1.9979439414095894e7 0.0
1.9979439414095894e7 -9.19883778979915e6 0.0
0.0 0.0 0.0

1.451831035670056e6 1.1728915428578138e7 0.0
1.1728915428578138e7 -2.3060519009363975e7 0.0
0.0 0.0 0.0

3.365267553006e6 3.8326049430167074e6 0.0
3.8326049430167074e6 -2.1420504467939995e7 0.0
0.0 0.0 0.0

-2.744417789382954e6 3.0047407966370814e7 0.0
3.0047407966370814e7 2.435169357063981e6 0.0
0.0 0.0 0.0

-1.2971672977947192e6 1.4224080331523933e7 0.0
1.4224080331523933e7 -8.945975244151097e6 0.0
0.0 0.0 0.0

-2.9808521572403703e6 2.2338174015540976e7 0.0
2.2338174015540976e7 2.0047952953995317e7 0.0
0.0 0.0 0.0

-8.088230458945462e6 -4.936026568423199e6 0.0
-4.936026568423199e6 2.031695352083364e7 0.0
0.0 0.0 0.0

4.975606906209902e6 2.2589072433768295e7 0.0
2.2589072433768295e7 2.932146496163454e6 0.0
0.0 0.0 0.0

-5.512139225090744e6 2.2785843201512277e7 0.0
2.2785843201512277e7 -1.5624348153713116e7 0.0
0.0 0.0 0.0

1.9164214794157539e6 9.328879597929034e6 0.0
9.328879597929034e6 -2.7098829605846427e7 0.0
0.0 0.0 0.0

-1.1813917457599504e8 2.0091785427343614e7 0.0
2.0091785427343614e7 3.7594061056066006e6 0.0
0.0 0.0 0.0

-4.0929196931227334e6 2.118390310668873e7 0.0
2.118390310668873e7 2.410100235793578e7 0.0
0.0 0.0 0.0

1.0456111622647783e6 2.1044117628487457e7 0.0
2.1044117628487457e7 -1.6285805999971706e7 0.0
0.0 0.0 0.0

-1.3575920768030838e6 1.8733558360783834e7 0.0
1.8733558360783834e7 -9.860963553903274e6 0.0
0.0 0.0 0.0

990220.3175155167 1.549675175124518e7 0.0
1.549675175124518e7 -2.8398181737719692e7 0.0
0.0 0.0 0.0

2.0003942735545258e6 2.0551677240571644e7 0.0
2.0551677240571644e7 1.3957334560649082e7 0.0
0.0 0.0 0.0

432838.279442545 1.4017715133486932e7 0.0
1.4017715133486932e7 -3.5729769801110454e7 0.0
0.0 0.0 0.0

2.0950187061688127e6 2.0929097189008567e7 0.0
2.0929097189008567e7 1.6255945680400738e7 0.0
0.0 0.0 0.0

372310.32784250285 1.8949442757920947e7 0.0
1.8949442757920947e7 -1.8261992812098343e7 0.0
0.0 0.0 0.0

2.6042223014024775e6 9.0720269109619e6 0.0
9.0720269109619e6 -2.889059280082119e7 0.0
0.0 0.0 0.0

1.7249486121557802e6 2.3777219510008395e6 0.0
2.3777219510008395e6 -5.232298461748487e7 0.0
0.0 0.0 0.0

5.773219556034755e6 2.980878456147604e7 0.0
2.980878456147604e7 -6.519167847096562e6 0.0
0.0 0.0 0.0

984156.3525692709 1.3729587781941593e7 0.0
1.3729587781941593e7 -3.355999268778585e7 0.0
0.0 0.0 0.0

-4.440018686591741e6 3.061764821375552e7 0.0
3.061764821375552e7 6.62372822266051e6 0.0
0.0 0.0 0.0

-8.886718069338188e6 2.4542280495785512e7 0.0
2.4542280495785512e7 1.7950698211214743e6 0.0
0.0 0.0 0.0

2.269915483966154e6 8.548815939865e6 0.0
8.548815939865e6 -1.3226000634021526e7 0.0
0.0 0.0 0.0

-1.6297039834063025e6 4.072502297702573e7 0.0
4.072502297702573e7 2.049876648041356e6 0.0
0.0 0.0 0.0

2.443344527430374e6 1.0231356575280622e7 0.0
1.0231356575280622e7 -2.5617639933389284e7 0.0
0.0 0.0 0.0

2.232261614853272e6 1.9173337930679165e7 0.0
1.9173337930679165e7 4.798728870107727e7 0.0
0.0 0.0 0.0

-902334.2877004942 2.143442922211718e7 0.0
2.143442922211718e7 2.1181247149900952e6 0.0
0.0 0.0 0.0

-8.024030781530702e6 3.1818452071116347e7 0.0
3.1818452071116347e7 6.685911366660779e6 0.0
0.0 0.0 0.0

-8.899871494523542e6 1.5365508414798064e7 0.0
1.5365508414798064e7 2.4224401864440024e7 0.0
0.0 0.0 0.0

728600.5713477191 1.5096518512661591e7 0.0
1.5096518512661591e7 -2.844638566334058e7 0.0
0.0 0.0 0.0

-3.0346052848935514e6 1.2483324256447379e7 0.0
1.2483324256447379e7 -1.4909471693455656e6 0.0
0.0 0.0 0.0

-775577.5588128951 2.1230141736506633e7 0.0
2.1230141736506633e7 -6.9591264528694535e6 0.0
0.0 0.0 0.0

1.5799795564666143e7 2.3472757251413893e7 0.0
2.3472757251413893e7 4.488772552911163e6 0.0
0.0 0.0 0.0

913110.719840494 2.0997681952084124e7 0.0
2.0997681952084124e7 -1.7951664227151882e7 0.0
0.0 0.0 0.0

621289.8848466054 9.93027877700456e6 0.0
9.93027877700456e6 -6.562358859945807e6 0.0
0.0 0.0 0.0

463436.1433437895 1.6246323184948362e7 0.0
1.6246323184948362e7 -2.6980693560206562e7 0.0
0.0 0.0 0.0

-8.341391319968194e6 -914741.1782380043 0.0
-914741.1782380043 3.69993802475116e7 0.0
0.0 0.0 0.0

-3.3306433481084676e6 2.3294151434286144e7 0.0
2.3294151434286144e7 1.7543999630918913e7 0.0
0.0 0.0 0.0

-9.235172920269858e6 1.6163635276148386e7 0.0
1.6163635276148386e7 2.7289669565552287e7 0.0
0.0 0.0 0.0

-1.9356812200873878e7 2.798333964229221e7 0.0
2.798333964229221e7 -8.902240777118828e6 0.0
0.0 0.0 0.0

-6.49220468402227e6 1.805521494177787e7 0.0
1.805521494177787e7 -4.775551124224077e7 0.0
0.0 0.0 0.0

-3.132458447153264e6 2.7552008030343883e7 0.0
2.7552008030343883e7 8.832780835463576e6 0.0
0.0 0.0 0.0

-4.788768353243915e6 2.8758303359322157e7 0.0
2.8758303359322157e7 8.308357121925978e6 0.0
0.0 0.0 0.0

2.72285895861346e6 2.482491980268749e7 0.0
2.482491980268749e7 -1.0924781365817184e7 0.0
0.0 0.0 0.0

-4.372899669290261e6 1.6386324831777405e7 0.0
1.6386324831777405e7 -4.9332590077825055e7 0.0
0.0 0.0 0.0

-2.302499649927821e6 2.181287821812088e7 0.0
2.181287821812088e7 2.089745741656323e7 0.0
0.0 0.0 0.0

-7.530078664617192e6 6.655972032177614e6 0.0
6.655972032177614e6 4.948271553690875e7 0.0
0.0 0.0 0.0

2.2753090791200846e6 2.730576697930262e6 0.0
2.730576697930262e6 -7.523833328158967e6 0.0
0.0 0.0 0.0

-1.7365310250868546e6 1.9077942417244293e7 0.0
1.9077942417244293e7 -2.49288239720373e7 0.0
0.0 0.0 0.0

2.742022761038603e6 2.6065451766063455e7 0.0
2.6065451766063455e7 -9.825113184727713e6 0.0
0.0 0.0 0.0

-1.6124902884342787e6 2.1848408262795426e7 0.0
2.1848408262795426e7 -1.9942826692973615e6 0.0
0.0 0.0 0.0

-671018.8881415306 1.730443073969822e7 0.0
1.730443073969822e7 -1.2685714893231392e7 0.0
0.0 0.0 0.0

-9.873513311354898e6 1.9005560187229067e7 0.0
1.9005560187229067e7 -3.865181587816768e7 0.0
0.0 0.0 0.0

-9.184238052342368e6 1.4634633568734616e7 0.0
1.4634633568734616e7 3.231128383793125e7 0.0
0.0 0.0 0.0

684372.8157129292 3.3463033000123467e7 0.0
3.3463033000123467e7 -783958.4336243544 0.0
0.0 0.0 0.0

-2.7445102481221348e7 2.8677729957937766e7 0.0
2.8677729957937766e7 -4.191086038169169e6 0.0
0.0 0.0 0.0

5.432783994300463e6 2.319115258240973e7 0.0
2.319115258240973e7 3.2274056132397456e6 0.0
0.0 0.0 0.0

1.5499653185105035e6 8.351548166458197e6 0.0
8.351548166458197e6 -1.553045420151997e7 0.0
0.0 0.0 0.0

-1.805421851466518e6 2.1396184632181853e7 0.0
2.1396184632181853e7 -883695.5923675695 0.0
0.0 0.0 0.0

-8.627600893619629e6 1.1902590257123025e7 0.0
1.1902590257123025e7 3.906317505407396e7 0.0
0.0 0.0 0.0

-6.0377037080247905e6 3.2694120622540846e7 0.0
3.2694120622540846e7 5.700474898316886e6 0.0
0.0 0.0 0.0

-2.8918800139754256e6 2.1848384485449146e7 0.0
2.1848384485449146e7 2.1577380662423465e7 0.0
0.0 0.0 0.0

-1.7193842022446052e6 3.115590164321841e7 0.0
3.115590164321841e7 -51609.460705885955 0.0
0.0 0.0 0.0

496276.27555955946 1.830254396272311e7 0.0
1.830254396272311e7 -1.958946114468245e7 0.0
0.0 0.0 0.0

-7.996583473603899e6 1.3818920288871394e7 0.0
1.3818920288871394e7 3.876311333248064e7 0.0
0.0 0.0 0.0

32061.646656232886 1.929808286306002e7 0.0
1.929808286306002e7 -2.206396571109808e7 0.0
0.0 0.0 0.0

-7.8837282918855855e6 2.3904883201432567e7 0.0
2.3904883201432567e7 -4.782905434085677e6 0.0
0.0 0.0 0.0

649653.7799742373 3.410469652152403e7 0.0
3.410469652152403e7 -916913.9606658744 0.0
0.0 0.0 0.0

2.8231038071849113e6 5.001326108548623e6 0.0
5.001326108548623e6 -2.2725383358474236e7 0.0
0.0 0.0 0.0

2.6803446211433886e6 2.428468008765356e7 0.0
2.428468008765356e7 -9.518965261690905e6 0.0
0.0 0.0 0.0

-2.8085184203033727e6 2.7473653073456503e7 0.0
2.7473653073456503e7 7.992053808183357e6 0.0
0.0 0.0 0.0

-9.598403632356942e6 1.4452482277147973e7 0.0
1.4452482277147973e7 2.543647066531367e7 0.0
0.0 0.0 0.0

-6.814810766567217e6 2.5247157453028724e7 0.0
2.5247157453028724e7 -1.1509953661325708e7 0.0
0.0 0.0 0.0

-8.236757738730129e6 1.6566324410741234e7 0.0
1.6566324410741234e7 3.1328991038932e7 0.0
0.0 0.0 0.0

-2.5765702066332805e6 6.891522489707937e6 0.0
6.891522489707937e6 5.792178677388356e6 0.0
0.0 0.0 0.0

-2.601017950507941e6 2.666007034147296e7 0.0
2.666007034147296e7 8.211343068402739e6 0.0
0.0 0.0 0.0

-1.0447755021855207e7 1.3287598371722544e7 0.0
1.3287598371722544e7 2.88155148337181e7 0.0
0.0 0.0 0.0

-3.7403912050087517e6 2.2151273403685275e7 0.0
2.2151273403685275e7 1.4036597584182896e7 0.0
0.0 0.0 0.0

5.794612300178019e6 2.003516353800883e7 0.0
2.003516353800883e7 3.764121519409486e7 0.0
0.0 0.0 0.0

-3.174771031678781e6 1.6304423523906121e7 0.0
1.6304423523906121e7 -4.324106738004521e7 0.0
0.0 0.0 0.0

-7.786888656517127e6 -5.380447469607116e6 0.0
-5.380447469607116e6 1.867760335969225e7 0.0
0.0 0.0 0.0

1.06913994513974e7 2.9719127292585023e7 0.0
2.9719127292585023e7 -5.34767048727019e6 0.0
0.0 0.0 0.0

-9.307639091518248e6 1.2673453693644255e7 0.0
1.2673453693644255e7 3.4011855231123865e7 0.0
0.0 0.0 0.0

221688.66964417417 1.4807328752702106e7 0.0
1.4807328752702106e7 -1.5838573853737466e7 0.0
0.0 0.0 0.0

-2.0326935522241304e6 2.2022313110554256e7 0.0
2.2022313110554256e7 1.81539808949506e7 0.0
0.0 0.0 0.0

-775885.855298629 2.0141615384383168e7 0.0
2.0141615384383168e7 -7.357207065895374e6 0.0
0.0 0.0 0.0

-4.021806504106288e6 2.275432971539117e7 0.0
2.275432971539117e7 1.929363382764259e7 0.0
0.0 0.0 0.0

-194897.63762733387 1.2319585668229943e7 0.0
1.2319585668229943e7 -8.438077228396866e6 0.0
0.0 0.0 0.0

-6.58794142101912e6 2.629391130735051e7 0.0
2.629391130735051e7 7.360008971721948e6 0.0
0.0 0.0 0.0

-3.705463030081425e6 2.237351735351721e7 0.0
2.237351735351721e7 1.496043295903075e7 0.0
0.0 0.0 0.0

2.162352469883936e6 2.4012950445036113e7 0.0
2.4012950445036113e7 -1.113368508019475e7 0.0
0.0 0.0 0.0

-3.2870003768415176e6 2.7776741244234316e7 0.0
2.7776741244234316e7 6.359413461197347e6 0.0
0.0 0.0 0.0

-659094.5688462006 3.442008339682659e7 0.0
3.442008339682659e7 893969.1286101546 0.0
0.0 0.0 0.0

-2.5864657990959994e6 1.638783743224853e7 0.0
1.638783743224853e7 -3.746516283556175e7 0.0
0.0 0.0 0.0

840646.2401764189 2.559994166122824e6 0.0
2.559994166122824e6 -1.253099075873664e6 0.0
0.0 0.0 0.0

-9.150516280360792e6 882829.2093179225 0.0
882829.2093179225 1.2306733166332714e7 0.0
0.0 0.0 0.0

1.1956261462310217e6 4.190828616206785e6 0.0
4.190828616206785e6 -6.496149560091008e7 0.0
0.0 0.0 0.0

548018.4441930428 2.592199409341742e7 0.0
2.592199409341742e7 -7.387534464470353e6 0.0
0.0 0.0 0.0

-3.3820942879563076e6 2.1770095220659096e7 0.0
2.1770095220659096e7 2.211976960028494e7 0.0
0.0 0.0 0.0

-1.0085112190012615e7 1.4895523660482842e7 0.0
1.4895523660482842e7 2.5762144133539088e7 0.0
0.0 0.0 0.0

-2.270802982955173e6 4.1949885796532534e7 0.0
4.1949885796532534e7 2.3658733963516187e6 0.0
0.0 0.0 0.0

-9.916277603841472e6 1.0909508702574106e7 0.0
1.0909508702574106e7 3.476549424617293e7 0.0
0.0 0.0 0.0

4.743806903556189e7 7.512705251112781e7 0.0
7.512705251112781e7 -4.73458371260448e6 0.0
0.0 0.0 0.0

813136.6180824898 2.3268436467482112e7 0.0
2.3268436467482112e7 -1.3396161188210959e7 0.0
0.0 0.0 0.0

1.313302215192724e6 1.6748833674740942e7 0.0
1.6748833674740942e7 -2.19135377394512e7 0.0
0.0 0.0 0.0

-3.128883889898887e6 2.2802384477540668e7 0.0
2.2802384477540668e7 1.8359553283296842e7 0.0
0.0 0.0 0.0

-8.95226835535875e6 1.3240198000294412e7 0.0
1.3240198000294412e7 3.633215585934262e7 0.0
0.0 0.0 0.0

1.2565494419891955e6 2.527702245981025e7 0.0
2.527702245981025e7 -9.77831849578992e6 0.0
0.0 0.0 0.0

1.242035171382858e6 2.126191812312948e7 0.0
2.126191812312948e7 4.9300416198917655e6 0.0
0.0 0.0 0.0

2.290791833616374e6 2.428376760362857e6 0.0
2.428376760362857e6 -4.1172977327065356e7 0.0
0.0 0.0 0.0

-9.231399029759172e6 1.0156914419996668e7 0.0
1.0156914419996668e7 1.8613281413434498e7 0.0
0.0 0.0 0.0

-3.903225257896644e6 4.5367873569115765e7 0.0
4.5367873569115765e7 3.751861962897091e6 0.0
0.0 0.0 0.0

-3.8111809370313417e6 2.154013338311643e7 0.0
2.154013338311643e7 2.3981431239659302e7 0.0
0.0 0.0 0.0

-2.330620550368987e6 1.972285798322536e7 0.0
1.972285798322536e7 -2.06235531887286e7 0.0
0.0 0.0 0.0

8.879965077122986e6 2.291652322739263e7 0.0
2.291652322739263e7 8.642681828131504e6 0.0
0.0 0.0 0.0

-1.0538050016087763e7 5.391894985093404e6 0.0
5.391894985093404e6 1.8648101270787317e7 0.0
0.0 0.0 0.0

-5.693247396678606e6 1.3050607570395196e7 0.0
1.3050607570395196e7 7.793799902506322e6 0.0
0.0 0.0 0.0

-2.449712505930944e6 1.9741856623877134e7 0.0
1.9741856623877134e7 -1.5739776522030456e7 0.0
0.0 0.0 0.0

236689.82850170461 1.8470856186549675e7 0.0
1.8470856186549675e7 -1.2526710221777603e7 0.0
0.0 0.0 0.0

-5.377615789506999e6 2.0717240403258823e7 0.0
2.0717240403258823e7 1.987879338973465e7 0.0
0.0 0.0 0.0

-2.21762922169971e6 1.8749190442941394e7 0.0
1.8749190442941394e7 -2.682457003801714e7 0.0
0.0 0.0 0.0

1.305031916257782e6 1.4216408063862937e7 0.0
1.4216408063862937e7 -2.9715773523900557e7 0.0
0.0 0.0 0.0

-3.4898907541174563e6 2.7564937763665017e7 0.0
2.7564937763665017e7 9.498662235107187e6 0.0
0.0 0.0 0.0

655760.6891136328 1.8936329764272757e7 0.0
1.8936329764272757e7 -2.2283878524533726e7 0.0
0.0 0.0 0.0

-9.035967224289363e6 1.5400932462218365e7 0.0
1.5400932462218365e7 2.891386257432801e7 0.0
0.0 0.0 0.0

3.267507955138347e6 5.437106017816016e6 0.0
5.437106017816016e6 -1.6175769497812489e7 0.0
0.0 0.0 0.0

-3.732122280243361e7 3.521189768177165e7 0.0
3.521189768177165e7 -1.4915969515322745e7 0.0
0.0 0.0 0.0

1.2375150281614596e6 7.770257933984693e6 0.0
7.770257933984693e6 -1.2158791456919365e7 0.0
0.0 0.0 0.0

3.523111728996792e6 2.529292031020539e6 0.0
2.529292031020539e6 -1.5867851652354937e7 0.0
0.0 0.0 0.0

-5.164555189728969e6 2.8573901394063376e7 0.0
2.8573901394063376e7 8.780212939056845e6 0.0
0.0 0.0 0.0

2.4126497817578134e6 2.0013814837360226e7 0.0
2.0013814837360226e7 8.0421664787577875e6 0.0
0.0 0.0 0.0

5.768805928279476e6 2.3797008264951404e7 0.0
2.3797008264951404e7 -1.667434073901369e6 0.0
0.0 0.0 0.0

-3.6348513769210745e6 1.9578138169664074e7 0.0
1.9578138169664074e7 3.1865502595508993e7 0.0
0.0 0.0 0.0

-833721.843646938 1.986151968959987e7 0.0
1.986151968959987e7 3.504822323343852e7 0.0
0.0 0.0 0.0

1.3675478736158453e7 1.9586758146159757e7 0.0
1.9586758146159757e7 6.282110533099486e7 0.0
0.0 0.0 0.0

148614.4121159392 2.0162809398920067e7 0.0
2.0162809398920067e7 -4.315776307556045e6 0.0
0.0 0.0 0.0

-3.4156188247489864e6 2.269163797847203e7 0.0
2.269163797847203e7 1.917721558455622e7 0.0
0.0 0.0 0.0

-4.616389312929834e6 1.9617736852214344e7 0.0
1.9617736852214344e7 1.436286009243508e7 0.0
0.0 0.0 0.0

-2.8111917902155966e6 1.9609163779768284e7 0.0
1.9609163779768284e7 -1.901716229670753e7 0.0
0.0 0.0 0.0

-3.61100034713175e6 2.796777053343754e7 0.0
2.796777053343754e7 7.192783487935651e6 0.0
0.0 0.0 0.0

-9.432855646369226e6 1.3373095464795541e7 0.0
1.3373095464795541e7 3.381831959007228e7 0.0
0.0 0.0 0.0

1.5590031578079546e7 2.7974111788326245e7 0.0
2.7974111788326245e7 -3.474361844685575e6 0.0
0.0 0.0 0.0

1.2132489040884743e6 2.382257038579198e7 0.0
2.382257038579198e7 -1.2138440613919009e7 0.0
0.0 0.0 0.0

2.183641340949405e6 7.276472632629652e6 0.0
7.276472632629652e6 -2.693829413281743e7 0.0
0.0 0.0 0.0

5.93846078825671e6 2.5835796492452413e7 0.0
2.5835796492452413e7 -7.139569594414615e6 0.0
0.0 0.0 0.0

-263244.84243452456 2.9832389619506996e7 0.0
2.9832389619506996e7 -1.331393495096722e6 0.0
0.0 0.0 0.0

-8.516769778250553e6 2.020196506627443e7 0.0
2.020196506627443e7 -2.83892400829553e7 0.0
0.0 0.0 0.0

9.949114337518888e6 2.1606803711883094e7 0.0
2.1606803711883094e7 3.316372387317015e7 0.0
0.0 0.0 0.0

-7.535121491119364e6 452579.2666374727 0.0
452579.2666374727 4.7967461990752034e7 0.0
0.0 0.0 0.0

2.1062761783722294e6 2.298849826140326e7 0.0
2.298849826140326e7 7.63044943291449e6 0.0
0.0 0.0 0.0

-8.112268560481135e6 -590975.3644653084 0.0
-590975.3644653084 3.937479416279996e7 0.0
0.0 0.0 0.0

1.2459665467231409e6 3.0475560284308624e7 0.0
3.0475560284308624e7 -3.397933552403557e6 0.0
0.0 0.0 0.0

5.421410560387796e6 2.866764957851956e7 0.0
2.866764957851956e7 -7.049350576720182e6 0.0
0.0 0.0 0.0

-3.12039493155187e6 4.3436498346498206e7 0.0
4.3436498346498206e7 2.5733889753090693e6 0.0
0.0 0.0 0.0

1.0688511337403454e7 2.069028578767762e7 0.0
2.069028578767762e7 8.742678289193662e6 0.0
0.0 0.0 0.0

-9.023257100298233e6 1.2286500730745837e7 0.0
1.2286500730745837e7 3.645096139918271e7 0.0
0.0 0.0 0.0

937927.7698091617 3.110043776756337e7 0.0
3.110043776756337e7 -2.4213985477995775e6 0.0
0.0 0.0 0.0

-3.526637985001995e6 2.317611473148795e7 0.0
2.317611473148795e7 1.33010905876807e7 0.0
0.0 0.0 0.0

-3.10955376363882e6 2.6310043115212396e7 0.0
2.6310043115212396e7 7.67135766731796e6 0.0
0.0 0.0 0.0

1.1455153620994426e6 9.546725094301943e6 0.0
9.546725094301943e6 -4.670633808567068e7 0.0
0.0 0.0 0.0

-3.858157766007947e6 2.7422919640384912e7 0.0
2.7422919640384912e7 1.0238090129543463e7 0.0
0.0 0.0 0.0

1.7990913579087887e7 1.762744183485432e7 0.0
1.762744183485432e7 4.682624975619973e6 0.0
0.0 0.0 0.0

1.5053744083693959e6 1.4869339037052725e7 0.0
1.4869339037052725e7 -2.6225586988586057e7 0.0
0.0 0.0 0.0

-5.666705688341096e6 3.411237213729801e6 0.0
3.411237213729801e6 6.734110003354019e7 0.0
0.0 0.0 0.0

-800326.9289479135 3.2256687362632893e7 0.0
3.2256687362632893e7 648144.9953422619 0.0
0.0 0.0 0.0

3.908936951193831e6 2.3272789822311983e7 0.0
2.3272789822311983e7 7.455224500883103e6 0.0
0.0 0.0 0.0

-9.989697915843652e7 9.15230483447378e7 0.0
9.15230483447378e7 -1.0794035117277037e7 0.0
0.0 0.0 0.0

2.9320418234985694e6 4.027572649239656e6 0.0
4.027572649239656e6 -2.1739647168685224e7 0.0
0.0 0.0 0.0

-1.7295175822584676e6 2.2480099895491388e7 0.0
2.2480099895491388e7 -680871.8654511657 0.0
0.0 0.0 0.0

-1.832986421295049e7 2.9685237417110458e7 0.0
2.9685237417110458e7 2.9112475156363472e6 0.0
0.0 0.0 0.0

-350980.4242024617 2.1838309075503457e7 0.0
2.1838309075503457e7 -1.5742773159718413e7 0.0
0.0 0.0 0.0

957831.2819246473 2.3176281967339985e7 0.0
2.3176281967339985e7 -1.3895268578320904e7 0.0
0.0 0.0 0.0

1.2788800882503565e7 2.4432426136345405e7 0.0
2.4432426136345405e7 1.7379952666895352e6 0.0
0.0 0.0 0.0

-3.363441031376837e6 3.67873025472512e7 0.0
3.67873025472512e7 3.0455642028691983e6 0.0
0.0 0.0 0.0

-4.433297410390929e6 2.287694392470516e7 0.0
2.287694392470516e7 -1.381175458651856e7 0.0
0.0 0.0 0.0

2.0264673891148642e6 5.270075283326976e6 0.0
5.270075283326976e6 -4.9764338185639925e7 0.0
0.0 0.0 0.0

-3.484609302655718e7 3.21026368700721e7 0.0
3.21026368700721e7 -9.589057639292452e6 0.0
0.0 0.0 0.0

-2.8125468233796526e6 2.2466596178523846e7 0.0
2.2466596178523846e7 1.453045041891015e7 0.0
0.0 0.0 0.0

4.985053374150709e6 2.7625514930051327e7 0.0
2.7625514930051327e7 -7.616682957226034e6 0.0
0.0 0.0 0.0

1.503692151834447e6 1.9317383566238333e7 0.0
1.9317383566238333e7 4.509878673086622e7 0.0
0.0 0.0 0.0

1.6748335749663394e7 2.6445540128889672e7 0.0
2.6445540128889672e7 -2.0321593182111187e6 0.0
0.0 0.0 0.0

-3.843279760193525e6 2.550526959035023e7 0.0
2.550526959035023e7 1.3224107507126918e7 0.0
0.0 0.0 0.0

-401920.9030249156 1.9299398244512152e7 0.0
1.9299398244512152e7 -1.3885900010482252e7 0.0
0.0 0.0 0.0

8.860716212132614e6 1.249641044432579e7 0.0
1.249641044432579e7 4.286488961409936e6 0.0
0.0 0.0 0.0

3.4953685208654194e6 2.433238294443905e7 0.0
2.433238294443905e7 -7.807309660822261e6 0.0
0.0 0.0 0.0

-3.9478908029933423e6 2.0717187869423766e7 0.0
2.0717187869423766e7 2.707320897750149e7 0.0
0.0 0.0 0.0

-4.3475701156192385e6 7.032365090269213e6 0.0
7.032365090269213e6 7.04644489819588e7 0.0
0.0 0.0 0.0

-5.164823821081135e6 1.3902894133102426e6 0.0
1.3902894133102426e6 7.381580475787011e7 0.0
0.0 0.0 0.0

-431064.8587320652 2.147791393717078e7 0.0
2.147791393717078e7 -1.2356368600757124e7 0.0
0.0 0.0 0.0

928804.5801712908 2.282569410471116e7 0.0
2.282569410471116e7 -1.3238879278064575e7 0.0
0.0 0.0 0.0

1.123233610629879e6 2.312191208472093e7 0.0
2.312191208472093e7 -1.3978689438253604e7 0.0
0.0 0.0 0.0

-1.4668264383225197e7 2.599506186819926e7 0.0
2.599506186819926e7 -4.265116465955387e6 0.0
0.0 0.0 0.0

2.3024621299805887e7 2.3942116232983995e7 0.0
2.3942116232983995e7 1.2633746210759867e7 0.0
0.0 0.0 0.0

-4.466682433720452e6 2.1708285541919924e7 0.0
2.1708285541919924e7 2.2636704133950993e7 0.0
0.0 0.0 0.0

1.3431561197969075e6 2.3047012353437316e7 0.0
2.3047012353437316e7 -1.3869117553924924e7 0.0
0.0 0.0 0.0

-793101.5782087892 1.83822628943935e7 0.0
1.83822628943935e7 -1.2253960003370607e7 0.0
0.0 0.0 0.0

-9.186321765131757e6 -1.6218285475417345e6 0.0
-1.6218285475417345e6 2.6711064200215816e7 0.0
0.0 0.0 0.0

-702509.1492313035 1.5096378310382351e7 0.0
1.5096378310382351e7 -3.604303721193624e7 0.0
0.0 0.0 0.0

-9.18107254866874e6 1.9012466992136075e6 0.0
1.9012466992136075e6 3.7696745411526226e7 0.0
0.0 0.0 0.0

-8.311446692875618e6 -3.259944165071027e6 0.0
-3.259944165071027e6 2.9983718012687832e7 0.0
0.0 0.0 0.0

-8.345149565080328e6 -3.5259106404134524e6 0.0
-3.5259106404134524e6 2.910970363456209e7 0.0
0.0 0.0 0.0

-4.764510104643587e6 1.2815506307075214e7 0.0
1.2815506307075214e7 1.1037984043717057e7 0.0
0.0 0.0 0.0

610823.849894478 1.763671686896052e7 0.0
1.763671686896052e7 -2.0964021099369157e7 0.0
0.0 0.0 0.0

-103744.56336495467 1.4948453743908303e7 0.0
1.4948453743908303e7 -3.580756364033752e7 0.0
0.0 0.0 0.0

-1.6043179265773671e6 2.163942543692552e7 0.0
2.163942543692552e7 -5.753720388324104e6 0.0
0.0 0.0 0.0

3.474997566489939e6 2.445904341698116e7 0.0
2.445904341698116e7 -9.440761015041199e6 0.0
0.0 0.0 0.0

6.245550283232839e6 2.3599614033951502e7 0.0
2.3599614033951502e7 1.088045452064707e6 0.0
0.0 0.0 0.0

189822.58257505624 2.816492934620829e7 0.0
2.816492934620829e7 -4.178431008648872e6 0.0
0.0 0.0 0.0

6.456241155118587e7 2.948111414743123e7 0.0
2.948111414743123e7 9.763573631580615e6 0.0
0.0 0.0 0.0

9.763516067609966e6 1.6640518789024783e7 0.0
1.6640518789024783e7 1.0013458218541957e7 0.0
0.0 0.0 0.0

5.038582018314481e6 2.407483026434385e7 0.0
2.407483026434385e7 -3.9787572498208787e6 0.0
0.0 0.0 0.0

6.2794692885255795e6 2.8907326441241782e7 0.0
2.8907326441241782e7 -6.674154972569421e6 0.0
0.0 0.0 0.0

180415.1758764729 3.2085094853777416e7 0.0
3.2085094853777416e7 -823818.1899716695 0.0
0.0 0.0 0.0

568631.657032608 1.988422220761071e7 0.0
1.988422220761071e7 -2.083200257880098e7 0.0
0.0 0.0 0.0

-2.046044739792205e7 2.878356936698349e7 0.0
2.878356936698349e7 33083.07680137921 0.0
0.0 0.0 0.0

-6.092764842903226e6 2.915272311067214e7 0.0
2.915272311067214e7 8.222276519171752e6 0.0
0.0 0.0 0.0

3.368232004742041e6 1.9051655581183252e6 0.0
1.9051655581183252e6 -2.472760340486952e7 0.0
0.0 0.0 0.0

-732488.9071893413 2.9627647234604873e7 0.0
2.9627647234604873e7 -2.74988236184821e6 0.0
0.0 0.0 0.0

-6.259591536492759e6 4.7118880527508914e7 0.0
4.7118880527508914e7 4.069218384840532e6 0.0
0.0 0.0 0.0

-2.7594400837770286e6 1.7103625946827218e7 0.0
1.7103625946827218e7 -8.035981836818864e6 0.0
0.0 0.0 0.0

1.3037854862689227e6 1.4869409790334098e7 0.0
1.4869409790334098e7 -2.8088294004232213e7 0.0
0.0 0.0 0.0

426767.49040987715 1.4529459058648737e7 0.0
1.4529459058648737e7 -3.3885316200632386e7 0.0
0.0 0.0 0.0

-951869.1814982742 1.5972268395541249e7 0.0
1.5972268395541249e7 -3.578441778282123e7 0.0
0.0 0.0 0.0

1.4110144361338865e7 4.150295577900684e7 0.0
4.150295577900684e7 -4.666116877778617e6 0.0
0.0 0.0 0.0

1.4046474359139e6 2.2857814428078387e7 0.0
2.2857814428078387e7 -1.3689387297407141e7 0.0
0.0 0.0 0.0

7.189990929912731e6 2.0676885849374276e7 0.0
2.0676885849374276e7 3.854524851307382e7 0.0
0.0 0.0 0.0

-2.5833959796522558e7 2.3304909209019404e7 0.0
2.3304909209019404e7 3.287623081686396e6 0.0
0.0 0.0 0.0

-7.017702408601652e7 3.8377011398961864e7 0.0
3.8377011398961864e7 -7.703060699929016e6 0.0
0.0 0.0 0.0

1.1670041635529213e6 6.749876809995007e6 0.0
6.749876809995007e6 -6.3107052350035846e7 0.0
0.0 0.0 0.0

4.0529923588716267e6 2.4317693984750003e7 0.0
2.4317693984750003e7 -6.045105452536035e6 0.0
0.0 0.0 0.0

5.549505390688428e6 2.6772430225337688e7 0.0
2.6772430225337688e7 -7.467996756146061e6 0.0
0.0 0.0 0.0

3.360385961347499e6 2.0200042302985499e6 0.0
2.0200042302985499e6 -2.330411528513655e7 0.0
0.0 0.0 0.0

-1.949160188279604e7 2.7062134985285208e7 0.0
2.7062134985285208e7 -6.830342735535076e6 0.0
0.0 0.0 0.0

-79456.68571365438 2.074338158929797e7 0.0
2.074338158929797e7 2.4740345254641782e7 0.0
0.0 0.0 0.0

9.870829646981196e6 2.008216045837209e7 0.0
2.008216045837209e7 1.4138294170242712e7 0.0
0.0 0.0 0.0

-8.220089952155465e6 -3.862177497457213e6 0.0
-3.862177497457213e6 2.5138860913761348e7 0.0
0.0 0.0 0.0

414708.0262057092 1.7847284952911414e7 0.0
1.7847284952911414e7 -2.5413031324851967e7 0.0
0.0 0.0 0.0

1.6458979292211812e6 1.0983960148116661e7 0.0
1.0983960148116661e7 -2.444393377063568e7 0.0
0.0 0.0 0.0

449056.3818410728 9.443377649925759e6 0.0
9.443377649925759e6 -5.247161376303656e6 0.0
0.0 0.0 0.0

-9.096095381639734e6 -3.717167481754196e6 0.0
-3.717167481754196e6 2.2022155180616427e7 0.0
0.0 0.0 0.0

7.429809864350226e6 2.0287657302800037e7 0.0
2.0287657302800037e7 8.930720155466056e7 0.0
0.0 0.0 0.0

-8.020963284219369e6 5.737222275781164e6 0.0
5.737222275781164e6 4.819957844531104e7 0.0
0.0 0.0 0.0

4.133903994918717e6 3.3342202722399004e7 0.0
3.3342202722399004e7 -3.64349434525349e6 0.0
0.0 0.0 0.0

-1.8848677733683176e6 2.200740642875627e7 0.0
2.200740642875627e7 439502.17009289295 0.0
0.0 0.0 0.0

-2.782561670476699e6 1.9412232981378116e7 0.0
1.9412232981378116e7 -1.4012234891416647e7 0.0
0.0 0.0 0.0

3.258445403088882e6 2.6495871821046088e7 0.0
2.6495871821046088e7 -9.10601011853598e6 0.0
0.0 0.0 0.0

-3.9010604113128553e6 2.8071576955537535e7 0.0
2.8071576955537535e7 7.9991579499919955e6 0.0
0.0 0.0 0.0

8.59309921105754e6 4.8595468435205385e7 0.0
4.8595468435205385e7 -1.0075187280475036e6 0.0
0.0 0.0 0.0

2.8451820841805935e6 4.344251232256028e6 0.0
4.344251232256028e6 -1.2398872382336969e7 0.0
0.0 0.0 0.0

-9.30247539817591e6 -1.5859197025707725e6 0.0
-1.5859197025707725e6 2.7098531075419616e7 0.0
0.0 0.0 0.0

-131059.13678829873 2.059466857096326e7 0.0
2.059466857096326e7 2.7433749486606205e6 0.0
0.0 0.0 0.0

-1.0040548705850424e7 2.9911395267990865e7 0.0
2.9911395267990865e7 6.529459642497583e6 0.0
0.0 0.0 0.0

-668962.9452069607 2.0542874278763965e7 0.0
2.0542874278763965e7 2.792320312167881e7 0.0
0.0 0.0 0.0

-9.379764344496662e6 1.4373141394559272e7 0.0
1.4373141394559272e7 3.0246102324698612e7 0.0
0.0 0.0 0.0

1.0355934476821516e6 1.6126464712717313e7 0.0
1.6126464712717313e7 -2.680634897717979e7 0.0
0.0 0.0 0.0

-1.8906204872530735e8 3.1359461745025262e7 0.0
3.1359461745025262e7 -1.4519654231521808e7 0.0
0.0 0.0 0.0

-9.658274001524402e6 1.3102543054724665e7 0.0
1.3102543054724665e7 3.176800590039881e7 0.0
0.0 0.0 0.0

-8.439642135599231e6 2.985075156901529e7 0.0
2.985075156901529e7 7.105304065041943e6 0.0
0.0 0.0 0.0

423135.108644831 1.9383184410407502e7 0.0
1.9383184410407502e7 -2.2224699827155862e7 0.0
0.0 0.0 0.0

-2.097397607183665e6 1.6764136428768063e7 0.0
1.6764136428768063e7 -3.504580375483874e7 0.0
0.0 0.0 0.0

6.590293987790802e6 4.585406674598622e7 0.0
4.585406674598622e7 -716377.2640267918 0.0
0.0 0.0 0.0

-2.4513690427650437e6 1.771037862802941e7 0.0
1.771037862802941e7 -3.1895902198033024e7 0.0
0.0 0.0 0.0

1.3640092291520135e6 2.2642586417017777e7 0.0
2.2642586417017777e7 -1.3212673965455508e7 0.0
0.0 0.0 0.0

964982.3802030549 2.1035106955056366e7 0.0
2.1035106955056366e7 5.361612523534818e6 0.0
0.0 0.0 0.0

2.4207128781029712e6 3.74932783341699e7 0.0
3.74932783341699e7 -656502.9352146673 0.0
0.0 0.0 0.0

-1.1922799001583224e7 2.974280364797476e7 0.0
2.974280364797476e7 5.643974197913098e6 0.0
0.0 0.0 0.0

776104.5720080845 1.7309678270767115e7 0.0
1.7309678270767115e7 -2.5324701184683375e7 0.0
0.0 0.0 0.0

1.0026900409217207e6 2.242411268114138e7 0.0
2.242411268114138e7 -1.4460234237965044e7 0.0
0.0 0.0 0.0

-2.517388532068097e6 2.843593945705902e7 0.0
2.843593945705902e7 2.4148058724259348e6 0.0
0.0 0.0 0.0

-7.126837884524612e6 2.955820255658186e7 0.0
2.955820255658186e7 7.660497104306422e6 0.0
0.0 0.0 0.0

-7.868024868557179e6 -2.4331304153178367e6 0.0
-2.4331304153178367e6 3.838777154153453e7 0.0
0.0 0.0 0.0

-4.819525450341139e6 2.0326984620820235e7 0.0
2.0326984620820235e7 2.1854605823631693e7 0.0
0.0 0.0 0.0

-2.726188200751071e6 1.843575899814442e7 0.0
1.843575899814442e7 -2.8842914930316854e7 0.0
0.0 0.0 0.0

2.2641768932168603e7 2.3081115638882264e7 0.0
2.3081115638882264e7 4.529327289825326e6 0.0
0.0 0.0 0.0

-89828.95074877515 1.8240908050480556e7 0.0
1.8240908050480556e7 -2.545423504349719e7 0.0
0.0 0.0 0.0

-504652.99611839576 2.165420062360536e7 0.0
2.165420062360536e7 -3.046471434922169e6 0.0
0.0 0.0 0.0

-8.93708090843753e6 1.0789400262400445e7 0.0
1.0789400262400445e7 3.83950444537749e7 0.0
0.0 0.0 0.0

-7.746360365440447e6 2.361666859424368e7 0.0
2.361666859424368e7 -1.4466568263327163e7 0.0
0.0 0.0 0.0

-1.760018947097343e6 1.952594632425885e7 0.0
1.952594632425885e7 -7.3760390815641675e6 0.0
0.0 0.0 0.0

-17653.085244225338 2.2284782719843283e7 0.0
2.2284782719843283e7 -1.3380380759497873e7 0.0
0.0 0.0 0.0

-1.4565102823580025e7 5.181678863960521e7 0.0
5.181678863960521e7 6.4498801174286315e6 0.0
0.0 0.0 0.0

-5.6903125353651084e7 1.8234423448371235e7 0.0
1.8234423448371235e7 4.1586149773444906e6 0.0
0.0 0.0 0.0

4.0095508872194286e6 3.438232032428766e7 0.0
3.438232032428766e7 -4.200199251978867e6 0.0
0.0 0.0 0.0

-9.306199697329503e6 4.930755538869847e7 0.0
4.930755538869847e7 5.347592278073572e6 0.0
0.0 0.0 0.0

3.079798538536323e7 6.4065986736679845e7 0.0
6.4065986736679845e7 -2.324320193127364e6 0.0
0.0 0.0 0.0

-1.1397486337120403e6 1.6323708697861524e7 0.0
1.6323708697861524e7 -3.333097055852106e7 0.0
0.0 0.0 0.0

-1.0160799568390891e7 1.8700321570841596e7 0.0
1.8700321570841596e7 -3.757552282666848e7 0.0
0.0 0.0 0.0

-4.411008414006776e6 2.7088063224232372e7 0.0
2.7088063224232372e7 1.0385148117369108e7 0.0
0.0 0.0 0.0

-9.744993452018913e6 1.3771106719853602e7 0.0
1.3771106719853602e7 3.1647849680299263e7 0.0
0.0 0.0 0.0

-1.2363508238240821e7 2.6338724873409376e7 0.0
2.6338724873409376e7 2.771454177737371e6 0.0
0.0 0.0 0.0

1.393819265294563e6 2.1349602433243882e7 0.0
2.1349602433243882e7 9.118834263654971e6 0.0
0.0 0.0 0.0

-85439.40864782222 2.017679888812828e7 0.0
2.017679888812828e7 -1.075982585722707e7 0.0
0.0 0.0 0.0

1.0960587141315658e7 5.194683633166e7 0.0
5.194683633166e7 -1.5574027416329696e6 0.0
0.0 0.0 0.0

3.070126577645073e6 2.5574122506511506e7 0.0
2.5574122506511506e7 -9.894879633057235e6 0.0
0.0 0.0 0.0

3.522484642701155e6 2.2427146675483834e7 0.0
2.2427146675483834e7 -3.6089984339863025e6 0.0
0.0 0.0 0.0

2.455422696088385e6 1.3945654290926175e6 0.0
1.3945654290926175e6 -4.333681460571298e7 0.0
0.0 0.0 0.0

-4.266152040451001e6 2.804821412376753e7 0.0
2.804821412376753e7 8.721236805046545e6 0.0
0.0 0.0 0.0

-2.2903381610092698e6 2.0975284462416094e7 0.0
2.0975284462416094e7 5.873567991486919e6 0.0
0.0 0.0 0.0

1.3800167835478112e6 1.3602213591714405e7 0.0
1.3602213591714405e7 -1.628406241848246e7 0.0
0.0 0.0 0.0

-1.9236544431668706e6 1.6933404741716597e7 0.0
1.6933404741716597e7 -3.533033578553718e7 0.0
0.0 0.0 0.0

-2.4374026312809614e6 2.2685355082036275e7 0.0
2.2685355082036275e7 1.9932814021134537e7 0.0
0.0 0.0 0.0

-1.6947196403336078e6 2.010279138474093e7 0.0
2.010279138474093e7 3.0926414759844523e7 0.0
0.0 0.0 0.0

-1.1244463362459221e6 1.9402676938871305e7 0.0
1.9402676938871305e7 -4.824216771626333e6 0.0
0.0 0.0 0.0

6.70549355896347e6 2.7925598500680164e7 0.0
2.7925598500680164e7 -6.64396946428527e6 0.0
0.0 0.0 0.0

-3.5420707198141804e6 2.6837347842211805e7 0.0
2.6837347842211805e7 1.0613191021103559e7 0.0
0.0 0.0 0.0

-6.129736570088241e6 3.5769888088198733e6 0.0
3.5769888088198733e6 6.023016896965406e7 0.0
0.0 0.0 0.0

-3.917038709263304e6 1.3823513635106016e7 0.0
1.3823513635106016e7 8.986696370628122e6 0.0
0.0 0.0 0.0

-141820.54363428708 2.0549817239859298e7 0.0
2.0549817239859298e7 -6.596723263019426e6 0.0
0.0 0.0 0.0

-5.846121312826494e6 2.822513242026737e7 0.0
2.822513242026737e7 9.125123282636268e6 0.0
0.0 0.0 0.0

-3.1401299062942425e6 2.2956100656612575e7 0.0
2.2956100656612575e7 1.6290795390922178e7 0.0
0.0 0.0 0.0

1.8736430348727088e6 1.3787473391625592e7 0.0
1.3787473391625592e7 -2.306425996854531e7 0.0
0.0 0.0 0.0

-1.3142855769363584e6 3.119503281409521e7 0.0
3.119503281409521e7 1.2967249171919976e6 0.0
0.0 0.0 0.0

3.2076130614036066e6 3.943661623253168e7 0.0
3.943661623253168e7 -736182.0503169151 0.0
0.0 0.0 0.0

-2.0964946885414799e6 2.459570499584921e7 0.0
2.459570499584921e7 6.235097521460922e6 0.0
0.0 0.0 0.0

1.3141943370484468e6 1.6120531012225987e7 0.0
1.6120531012225987e7 -2.4966031321559194e7 0.0
0.0 0.0 0.0

-729025.6642757773 3.168167836911437e7 0.0
3.168167836911437e7 -1.457355326720976e6 0.0
0.0 0.0 0.0

3.9432532742408374e6 2.7377595035574134e7 0.0
2.7377595035574134e7 -8.268358732849809e6 0.0
0.0 0.0 0.0

1.7462241464106739e6 2.0505139202674482e7 0.0
2.0505139202674482e7 3.3868414734317474e7 0.0
0.0 0.0 0.0

-2.2031934478996745e6 2.3855107016744e7 0.0
2.3855107016744e7 7.59150867975569e6 0.0
0.0 0.0 0.0

-4.838766480121732e6 3.0340476438649308e7 0.0
3.0340476438649308e7 6.205236480078664e6 0.0
0.0 0.0 0.0

-7.666357536791269e6 1.2095209572921412e6 0.0
1.2095209572921412e6 4.753260671969525e7 0.0
0.0 0.0 0.0

2.714992615768913e6 3.838030387037316e7 0.0
3.838030387037316e7 -644551.6119285371 0.0
0.0 0.0 0.0

2.5169584276681673e6 1.4489933424731614e6 0.0
1.4489933424731614e6 -4.212062672385977e7 0.0
0.0 0.0 0.0

358777.8984697326 2.9263470035424702e7 0.0
2.9263470035424702e7 -5.09123940009048e6 0.0
0.0 0.0 0.0

-7.795469465138737e6 -793835.8353947547 0.0
-793835.8353947547 4.200994268278255e7 0.0
0.0 0.0 0.0

-1.830721436143612e6 1.8919614622311864e7 0.0
1.8919614622311864e7 -5.276736608328234e6 0.0
0.0 0.0 0.0

-1.1698165502406921e7 2.82266451278551e7 0.0
2.82266451278551e7 4.1711895604256764e6 0.0
0.0 0.0 0.0

-2.6939407591877887e6 2.288513552511997e7 0.0
2.288513552511997e7 -4.182395955401414e6 0.0
0.0 0.0 0.0

-4.712978280093409e6 2.3005457420507275e7 0.0
2.3005457420507275e7 -6.695919464201626e6 0.0
0.0 0.0 0.0

-2.121694744282837e6 2.0691180422549836e7 0.0
2.0691180422549836e7 -2.0236990363858517e7 0.0
0.0 0.0 0.0

-8.535987293922756e6 1.543879625444949e7 0.0
1.543879625444949e7 3.287480160153516e7 0.0
0.0 0.0 0.0

2.1964182285046224e6 2.185369647191876e7 0.0
2.185369647191876e7 1.172651965671245e7 0.0
0.0 0.0 0.0

2.486183244685065e6 9.06984902132944e6 0.0
9.06984902132944e6 -3.050013575920108e7 0.0
0.0 0.0 0.0

4.1314399969858658e6 2.0882723966340914e7 0.0
2.0882723966340914e7 3.233631417150522e7 0.0
0.0 0.0 0.0

-1.2994912667339567e7 2.023696834923297e7 0.0
2.023696834923297e7 -7.561036102198483e7 0.0
0.0 0.0 0.0

-3.133991417062915e6 2.172997969534993e7 0.0
2.172997969534993e7 1.624234900057571e7 0.0
0.0 0.0 0.0

-1.6455121822423078e6 3.1876731413682416e7 0.0
3.1876731413682416e7 61565.162126579555 0.0
0.0 0.0 0.0

-2.558621224199899e6 2.398289472531452e7 0.0
2.398289472531452e7 2.250274111430365e6 0.0
0.0 0.0 0.0

1.4576233904374521e6 2.3888037575090293e7 0.0
2.3888037575090293e7 -1.2435550984906074e7 0.0
0.0 0.0 0.0

3.220585540978536e6 2.307113027935929e7 0.0
2.307113027935929e7 -7.606107317400421e6 0.0
0.0 0.0 0.0

-4.626353067309488e6 2.7952849892178826e7 0.0
2.7952849892178826e7 9.357059072655227e6 0.0
0.0 0.0 0.0

-3.09413722808542e6 2.2629018490261376e7 0.0
2.2629018490261376e7 2.04972223632347e7 0.0
0.0 0.0 0.0

-1.6374920046655498e6 2.0319469006556828e7 0.0
2.0319469006556828e7 3.122306652766485e7 0.0
0.0 0.0 0.0

-5.200688959335693e6 2.001816363253564e7 0.0
2.001816363253564e7 -2.0454360789084706e7 0.0
0.0 0.0 0.0

682049.4486165205 1.700209608454784e7 0.0
1.700209608454784e7 -2.2314408321856752e7 0.0
0.0 0.0 0.0

-1.6952326387317954e6 2.263434732179126e7 0.0
2.263434732179126e7 1.9042074239522025e7 0.0
0.0 0.0 0.0

339469.78329456225 1.115676599529138e7 0.0
1.115676599529138e7 -4.329248505880963e7 0.0
0.0 0.0 0.0

-3.389060295712805e6 2.1724928379905377e7 0.0
2.1724928379905377e7 -1.3278850483074067e7 0.0
0.0 0.0 0.0

3.8618519492864185e6 4.070232032881459e7 0.0
4.070232032881459e7 -636132.4028110267 0.0
0.0 0.0 0.0

3.379215788206879e6 2.0127413119544975e7 0.0
2.0127413119544975e7 2.7674872459173545e7 0.0
0.0 0.0 0.0

2.5906554190845743e7 2.657257278664485e7 0.0
2.657257278664485e7 8.635514155449326e7 0.0
0.0 0.0 0.0

-2.6444268318403043e7 2.525854272363604e7 0.0
2.525854272363604e7 -8.81475233819099e7 0.0
0.0 0.0 0.0

-2.9856993770384835e6 2.1023240671443734e7 0.0
2.1023240671443734e7 3.5455886663092286e6 0.0
0.0 0.0 0.0

-3.1010948766746685e7 4.08588406125808e7 0.0
4.08588406125808e7 7.617630577929752e6 0.0
0.0 0.0 0.0

-906069.4135514472 2.7169395000797525e7 0.0
2.7169395000797525e7 -4.570587590985679e6 0.0
0.0 0.0 0.0

-1.4017708211062206e6 2.288483429405117e7 0.0
2.288483429405117e7 1.6347852318458298e7 0.0
0.0 0.0 0.0

2.89698185035286e6 2.0164486089616872e7 0.0
2.0164486089616872e7 3.1301645083307005e7 0.0
0.0 0.0 0.0

9.83116515235535e6 2.165950707645427e7 0.0
2.165950707645427e7 5.44593760634369e7 0.0
0.0 0.0 0.0

9.201780717307277e6 2.358758702655046e7 0.0
2.358758702655046e7 1.1102907483306708e7 0.0
0.0 0.0 0.0

8.814503064155256e6 1.932442306295064e7 0.0
1.932442306295064e7 3.561168023379873e7 0.0
0.0 0.0 0.0

6.147763479479156e6 2.772697169414537e7 0.0
2.772697169414537e7 -6.954725986275541e6 0.0
0.0 0.0 0.0

1.9534689613806745e6 2.0704939185152054e7 0.0
2.0704939185152054e7 1.9146150655032936e7 0.0
0.0 0.0 0.0

-1.4955934921538243e6 2.1750107471241176e7 0.0
2.1750107471241176e7 2.0030125902375657e7 0.0
0.0 0.0 0.0

5.409618820627995e6 3.595325895459137e7 0.0
3.595325895459137e7 -2.7723696449888153e6 0.0
0.0 0.0 0.0

4.089635615749392e6 2.2976268963725995e7 0.0
2.2976268963725995e7 1.4775851460133996e7 0.0
0.0 0.0 0.0

3.055305377150627e6 1.7552677015755693e6 0.0
1.7552677015755693e6 -3.2408469616540395e7 0.0
0.0 0.0 0.0

-7.866905793990741e6 1.7863394048921138e7 0.0
1.7863394048921138e7 2.3213926948946573e7 0.0
0.0 0.0 0.0

-7.739181572500536e6 -2.3973961286673974e6 0.0
-2.3973961286673974e6 3.943032905383483e7 0.0
0.0 0.0 0.0

-3.7535424269354083e6 2.199165922696046e7 0.0
2.199165922696046e7 2.245059909231303e7 0.0
0.0 0.0 0.0

1.6017548656831528e6 3.2636845099078204e7 0.0
3.2636845099078204e7 -2.192886445194387e6 0.0
0.0 0.0 0.0

6.887658758703494e6 2.241635694794535e7 0.0
2.241635694794535e7 1.994335028873019e7 0.0
0.0 0.0 0.0

5.605868473707223e6 1.9299065728958197e7 0.0
1.9299065728958197e7 2.635150068331574e7 0.0
0.0 0.0 0.0

-3.8097622976026153e6 2.9904404332337044e7 0.0
2.9904404332337044e7 6.906507768887814e6 0.0
0.0 0.0 0.0

3.2726960479158303e6 4.120336123524131e6 0.0
4.120336123524131e6 -1.7354323153119523e7 0.0
0.0 0.0 0.0

163794.97842574818 2.9973413446055613e7 0.0
2.9973413446055613e7 -4.150088109768082e6 0.0
0.0 0.0 0.0

2.2961570842931718e6 1.1598442850110564e7 0.0
1.1598442850110564e7 -2.4857776429212347e7 0.0
0.0 0.0 0.0

-8.498800994787987e6 2.8658296633978646e7 0.0
2.8658296633978646e7 7.3824329830510095e6 0.0
0.0 0.0 0.0

7.137423260161483e6 3.0020327954489414e7 0.0
3.0020327954489414e7 -6.185826946503932e6 0.0
0.0 0.0 0.0

-1.1275678095822623e7 2.4895000888665415e7 0.0
2.4895000888665415e7 511056.71009086305 0.0
0.0 0.0 0.0

1.6160700694393255e6 1.6151299191028026e6 0.0
1.6151299191028026e6 -6.333202775020599e7 0.0
0.0 0.0 0.0

6.733889329130755e6 2.363608077469965e7 0.0
2.363608077469965e7 3.946559919071569e6 0.0
0.0 0.0 0.0

3.053026267924639e6 3.1065289937000282e7 0.0
3.1065289937000282e7 -4.55634998293806e6 0.0
0.0 0.0 0.0

1.7034525540468558e6 2.685458115603245e7 0.0
2.685458115603245e7 -8.180459828325649e6 0.0
0.0 0.0 0.0

-2.800990593065937e6 2.0854151871523287e7 0.0
2.0854151871523287e7 -1.4051912496783033e7 0.0
0.0 0.0 0.0

2.6811152531642225e6 4.3307037811158225e6 0.0
4.3307037811158225e6 -2.993708428906816e7 0.0
0.0 0.0 0.0

-2.8712059489530665e6 2.5309899391435593e7 0.0
2.5309899391435593e7 7.086452740978e6 0.0
0.0 0.0 0.0

-208629.6400475949 1.4255077474563766e7 0.0
1.4255077474563766e7 -3.6099862132780924e7 0.0
0.0 0.0 0.0

-7.651679354753908e6 -2.070568736545155e6 0.0
-2.070568736545155e6 4.355111067626485e7 0.0
0.0 0.0 0.0

-4.1553102840473754e6 2.0916054000033572e7 0.0
2.0916054000033572e7 2.007817267717266e7 0.0
0.0 0.0 0.0

-1.6137796837480133e7 2.8341674366764188e7 0.0
2.8341674366764188e7 3.0906867390526375e6 0.0
0.0 0.0 0.0

351494.59489284083 6.105664760080322e6 0.0
6.105664760080322e6 -9.179726960727619e7 0.0
0.0 0.0 0.0

-2.491379306929713e6 1.7639933100595836e7 0.0
1.7639933100595836e7 4.332266390247375e7 0.0
0.0 0.0 0.0

766730.8568291198 2.1449287391075455e7 0.0
2.1449287391075455e7 2.574692634257661e7 0.0
0.0 0.0 0.0

104912.28305982798 1.9419517808979407e7 0.0
1.9419517808979407e7 3.9244618997320265e7 0.0
0.0 0.0 0.0

-1.9955275193578564e6 2.253464806665156e7 0.0
2.253464806665156e7 1.648350108333373e6 0.0
0.0 0.0 0.0

-4.21347993681876e6 2.1428379094869163e7 0.0
2.1428379094869163e7 1.5772376694414077e7 0.0
0.0 0.0 0.0

-2.3677017177106463e6 2.096908707164055e7 0.0
2.096908707164055e7 -1.0830561685466161e7 0.0
0.0 0.0 0.0

762251.7009422174 1.6358925566841222e7 0.0
1.6358925566841222e7 -2.362151622781938e7 0.0
0.0 0.0 0.0

97139.54098641872 1.0618513828487769e7 0.0
1.0618513828487769e7 -5.38371996735129e7 0.0
0.0 0.0 0.0

-7.696132745587677e6 -2.2414048822314227e6 0.0
-2.2414048822314227e6 4.06864545338827e7 0.0
0.0 0.0 0.0

-6.915744070569698e6 -1.5660091129965358e6 0.0
-1.5660091129965358e6 5.053648936432515e7 0.0
0.0 0.0 0.0

-1.0328921143534541e7 2.6720339620569754e7 0.0
2.6720339620569754e7 1.8072249216672643e6 0.0
0.0 0.0 0.0

1.5440570422245748e6 2.3867359474015858e7 0.0
2.3867359474015858e7 -1.2775050510129368e7 0.0
0.0 0.0 0.0

1.6046946895808466e6 1.9334081748252522e7 0.0
1.9334081748252522e7 4.5131009685401455e7 0.0
0.0 0.0 0.0

-1.8234111315661666e6 2.1051810069843903e7 0.0
2.1051810069843903e7 -7.5491073055246e6 0.0
0.0 0.0 0.0

6.772679654911206e6 2.6666974804756388e7 0.0
2.6666974804756388e7 -6.5580131340940725e6 0.0
0.0 0.0 0.0

-3.308726293030988e6 2.7119785134746872e7 0.0
2.7119785134746872e7 7.44660110746156e6 0.0
0.0 0.0 0.0

-8.886653055129776e6 -1.8334755539047115e6 0.0
-1.8334755539047115e6 2.8098012433988422e7 0.0
0.0 0.0 0.0

1.7120543260899104e7 5.679541022294146e7 0.0
5.679541022294146e7 -2.1634953410962913e6 0.0
0.0 0.0 0.0

1.0049093743936592e6 2.1822309120794415e7 0.0
2.1822309120794415e7 -9.845704151706316e6 0.0
0.0 0.0 0.0

-7.812195944027863e6 1.801202939876233e7 0.0
1.801202939876233e7 -6.045940259231172e7 0.0
0.0 0.0 0.0

2.9740266914984155e6 2.7300282575934473e6 0.0
2.7300282575934473e6 -3.891100267831017e7 0.0
0.0 0.0 0.0

-617109.4929152094 2.0725082417204086e7 0.0
2.0725082417204086e7 -6.919025306044121e6 0.0
0.0 0.0 0.0

-5.547709036408033e6 1.9845076533511803e7 0.0
1.9845076533511803e7 2.3306738930293392e7 0.0
0.0 0.0 0.0

-2.7910818578793354e7 2.4076756699937765e7 0.0
2.4076756699937765e7 3.737369222934909e6 0.0
0.0 0.0 0.0

-6.716772473427676e6 2.386865575840505e7 0.0
2.386865575840505e7 -1.0977991783778027e7 0.0
0.0 0.0 0.0

7.4658982871245025e6 1.87706682607449e7 0.0
1.87706682607449e7 3.0996962054262392e7 0.0
0.0 0.0 0.0

-3.6575513278453737e6 2.0374111177386466e7 0.0
2.0374111177386466e7 -1.5490566532983117e7 0.0
0.0 0.0 0.0

-9.447448704468021e6 466563.7902153493 0.0
466563.7902153493 2.7617837677041557e7 0.0
0.0 0.0 0.0

-617821.9074360966 2.2008225090703197e7 0.0
2.2008225090703197e7 -1.1051886905003192e7 0.0
0.0 0.0 0.0

-368303.9190286447 2.1406861510738004e7 0.0
2.1406861510738004e7 4.584088365665367e6 0.0
0.0 0.0 0.0

-389788.14462342113 2.235163074303317e7 0.0
2.235163074303317e7 1.7623205504378892e7 0.0
0.0 0.0 0.0

434613.25233684387 1.9582883636021182e7 0.0
1.9582883636021182e7 -1.89375253932618e7 0.0
0.0 0.0 0.0

-230753.04091509245 2.1033788726412468e7 0.0
2.1033788726412468e7 2.861992472231423e7 0.0
0.0 0.0 0.0

-38560.22010918849 2.042409039382691e7 0.0
2.042409039382691e7 286259.92828972766 0.0
0.0 0.0 0.0

1.6330770593570732e6 2.3825044314068526e7 0.0
2.3825044314068526e7 -1.2940577619150827e7 0.0
0.0 0.0 0.0

5.7777468602070445e6 2.27375401409529e7 0.0
2.27375401409529e7 -1.0939093728333602e6 0.0
0.0 0.0 0.0

696459.9855069332 1.3864109691551765e7 0.0
1.3864109691551765e7 -3.186275358952087e7 0.0
0.0 0.0 0.0

-4.214000305437456e6 2.2193326520601366e7 0.0
2.2193326520601366e7 2.0968354542950626e7 0.0
0.0 0.0 0.0

-354343.9295634674 1.832430282413047e7 0.0
1.832430282413047e7 -9.215641979170596e6 0.0
0.0 0.0 0.0

-5.536167948588413e7 3.299072467654697e7 0.0
3.299072467654697e7 -769443.1254354715 0.0
0.0 0.0 0.0

5.901036168847615e6 2.0066845400290042e7 0.0
2.0066845400290042e7 5.6822342630253285e7 0.0
0.0 0.0 0.0

2.3937078343599737e6 1.3830133935670713e6 0.0
1.3830133935670713e6 -4.460504287299157e7 0.0
0.0 0.0 0.0

-7.058149895207923e6 -1.5801095740613202e6 0.0
-1.5801095740613202e6 4.889083294950912e7 0.0
0.0 0.0 0.0

-5.243168380825466e6 1.673222428291732e7 0.0
1.673222428291732e7 -5.252840208387171e7 0.0
0.0 0.0 0.0

-2.4358718638219507e6 1.8044100044586625e7 0.0
1.8044100044586625e7 -3.2401212344310693e7 0.0
0.0 0.0 0.0

-3.0723612514543086e6 2.239521411843556e7 0.0
2.239521411843556e7 -6.308104354658824e6 0.0
0.0 0.0 0.0

-2.0499566092789028e7 3.0048264550743625e7 0.0
3.0048264550743625e7 -1.3581413231723592e7 0.0
0.0 0.0 0.0

-3.698945207742391e6 1.9993079789839998e7 0.0
1.9993079789839998e7 3.0345294567612566e7 0.0
0.0 0.0 0.0

1.6161938895447562e6 2.3700769604620427e7 0.0
2.3700769604620427e7 -1.2931498515344532e7 0.0
0.0 0.0 0.0

-5.789755721491963e6 -337884.8575545763 0.0
-337884.8575545763 6.4698344063544e7 0.0
0.0 0.0 0.0

-6.838804198276868e6 1.8811145763912946e7 0.0
1.8811145763912946e7 2.6209091468336247e7 0.0
0.0 0.0 0.0

762789.4759788848 3.9985187823704183e6 0.0
3.9985187823704183e6 -8.549496912377217e7 0.0
0.0 0.0 0.0

-1.7119580096809836e6 3.2607166531056907e7 0.0
3.2607166531056907e7 98715.49935020728 0.0
0.0 0.0 0.0

1.1313507405726612e6 2.216939345455149e6 0.0
2.216939345455149e6 -7.41312226959602e7 0.0
0.0 0.0 0.0

-2.5889228490746625e7 5.3231735155063964e7 0.0
5.3231735155063964e7 8.186814353107223e6 0.0
0.0 0.0 0.0

-5.626842890572179e6 -53281.16495282394 0.0
-53281.16495282394 6.763000745485522e7 0.0
0.0 0.0 0.0

904517.2287566997 1.4265909680029137e7 0.0
1.4265909680029137e7 -3.179649048840458e7 0.0
0.0 0.0 0.0

-1.2261950547447825e7 2.793115717475345e7 0.0
2.793115717475345e7 4.65220170789028e6 0.0
0.0 0.0 0.0

-5.174097289704444e7 3.3711972101663955e7 0.0
3.3711972101663955e7 -3.3590112183013055e6 0.0
0.0 0.0 0.0

942298.7421577014 3.0132880925990827e6 0.0
3.0132880925990827e6 -7.951764344122684e7 0.0
0.0 0.0 0.0

-2.5537663499692557e6 2.6225570423983734e7 0.0
2.6225570423983734e7 3.267576139273845e6 0.0
0.0 0.0 0.0

-2.9829350299219247e6 2.3809944507886067e7 0.0
2.3809944507886067e7 1.5253455550422251e7 0.0
0.0 0.0 0.0

1.954579524237177e7 1.863596641934534e7 0.0
1.863596641934534e7 7.683920686230356e6 0.0
0.0 0.0 0.0

-1.0644530237103123e6 1.775508686196059e7 0.0
1.775508686196059e7 -2.823565511899408e7 0.0
0.0 0.0 0.0

-3.0512817532809125e6 1.8912413563628357e7 0.0
1.8912413563628357e7 -2.953948201742642e7 0.0
0.0 0.0 0.0

762938.992060408 2.630994231361856e7 0.0
2.630994231361856e7 -9.059853307884004e6 0.0
0.0 0.0 0.0

-1.7862397491822182e6 3.3284450453339968e7 0.0
3.3284450453339968e7 182955.57338646718 0.0
0.0 0.0 0.0

-8.523976142880976e6 1.3293218589626059e7 0.0
1.3293218589626059e7 3.710885227769383e7 0.0
0.0 0.0 0.0

1.433640979521878e6 1.7147400802085372e6 0.0
1.7147400802085372e6 -6.698154424887251e7 0.0
0.0 0.0 0.0

-1.2828465117391884e7 3.7015083911556676e7 0.0
3.7015083911556676e7 4.758186934110218e6 0.0
0.0 0.0 0.0

3.3451524609671086e6 5.544980609300913e6 0.0
5.544980609300913e6 -2.384087661181536e7 0.0
0.0 0.0 0.0

-2.6221513077413104e6 2.085300296454184e7 0.0
2.085300296454184e7 -1.8849756390538413e7 0.0
0.0 0.0 0.0

1.3157081610488594e6 2.0674198485200603e6 0.0
2.0674198485200603e6 -6.982071932700834e7 0.0
0.0 0.0 0.0

-3.206083708577548e6 1.958512384854902e7 0.0
1.958512384854902e7 -2.652810998918514e7 0.0
0.0 0.0 0.0

-8.450899830723628e6 1.002717466159721e7 0.0
1.002717466159721e7 4.334250051177838e7 0.0
0.0 0.0 0.0

-5.161658188518242e6 1.2504062488249603e6 0.0
1.2504062488249603e6 4.617519152034882e6 0.0
0.0 0.0 0.0

-3.3899449372482975e6 1.9271442159414776e7 0.0
1.9271442159414776e7 5.19904922314995e6 0.0
0.0 0.0 0.0

4.504055698794041e6 2.093838663370181e7 0.0
2.093838663370181e7 2.8901430336794913e7 0.0
0.0 0.0 0.0

2.107934799640866e6 1.2344075039651978e6 0.0
1.2344075039651978e6 -4.937089908835155e7 0.0
0.0 0.0 0.0

-4.221139623219576e6 2.7066805851150367e7 0.0
2.7066805851150367e7 1.0506985693520576e7 0.0
0.0 0.0 0.0

-8.248610058854129e6 -501849.5323733748 0.0
-501849.5323733748 3.907045976836306e7 0.0
0.0 0.0 0.0

59943.61177743405 2.1842427685062926e7 0.0
2.1842427685062926e7 213714.96230487025 0.0
0.0 0.0 0.0

709297.6640698668 1.4488527636171266e7 0.0
1.4488527636171266e7 -3.0141741713220928e7 0.0
0.0 0.0 0.0

-2.9142894833150664e6 2.218675219070358e7 0.0
2.218675219070358e7 2.2028398404524058e7 0.0
0.0 0.0 0.0

4.021002352296401e6 2.0158729724129234e7 0.0
2.0158729724129234e7 3.97763833234582e7 0.0
0.0 0.0 0.0

-1.0742754023137083e6 2.0727308766625013e7 0.0
2.0727308766625013e7 -4.861388385789622e6 0.0
0.0 0.0 0.0

1.2849567765499442e6 2.606084928409713e7 0.0
2.606084928409713e7 -8.653801927776385e6 0.0
0.0 0.0 0.0

-3.2586471873401226e6 2.8402112321896594e7 0.0
2.8402112321896594e7 5.286626522926763e6 0.0
0.0 0.0 0.0

-1.3790862446931982e6 2.1458551937580682e7 0.0
2.1458551937580682e7 -7.75424009075758e6 0.0
0.0 0.0 0.0

2.3441642407878894e7 5.861792680128401e6 0.0
5.861792680128401e6 -2.3251712320754444e6 0.0
0.0 0.0 0.0

-6.056792854404233e6 -435777.6211512505 0.0
-435777.6211512505 6.188826863024916e7 0.0
0.0 0.0 0.0

9.728064796876784e6 2.4274146003690884e7 0.0
2.4274146003690884e7 1.3054503010352843e7 0.0
0.0 0.0 0.0

-6.776943926096231e6 -1.3528340480617888e6 0.0
-1.3528340480617888e6 5.234416913188287e7 0.0
0.0 0.0 0.0

-1.6556736948323885e6 2.1840591686075136e7 0.0
2.1840591686075136e7 -1.0699041143063363e6 0.0
0.0 0.0 0.0

-6.952924465007516e6 1.094663500844666e7 0.0
1.094663500844666e7 3.2399897047398377e7 0.0
0.0 0.0 0.0

-2.6324781128246565e6 1.914256179680843e7 0.0
1.914256179680843e7 7.749714004831148e6 0.0
0.0 0.0 0.0

-685640.8794325148 465742.02729348344 0.0
465742.02729348344 2.1871675185284214e6 0.0
0.0 0.0 0.0

-633575.5056780623 1.3892911545354547e6 0.0
1.3892911545354547e6 2.058301425268244e6 0.0
0.0 0.0 0.0

1.308909701469862e6 2.314851954064776e7 0.0
2.314851954064776e7 -1.404126772735836e7 0.0
0.0 0.0 0.0

-1.028792517004562e7 2.476930689381064e7 0.0
2.476930689381064e7 -4.734426246536337e6 0.0
0.0 0.0 0.0

1.6495217414904237e6 2.3597299155361675e7 0.0
2.3597299155361675e7 -1.2611049772723183e7 0.0
0.0 0.0 0.0

-9.568166493156705e6 1.1984890337445736e7 0.0
1.1984890337445736e7 3.55035661808542e7 0.0
0.0 0.0 0.0

-3.2647651007181755e6 2.070940783750594e7 0.0
2.070940783750594e7 -1.728690327305036e7 0.0
0.0 0.0 0.0

384451.4858678803 1.3942678446321718e7 0.0
1.3942678446321718e7 -3.3891333104633205e7 0.0
0.0 0.0 0.0

-3.932944454101102e6 2.6358902086427823e7 0.0
2.6358902086427823e7 1.1463102268449834e7 0.0
0.0 0.0 0.0

909766.2045676485 1.4474172455981817e7 0.0
1.4474172455981817e7 -2.8181669191267043e7 0.0
0.0 0.0 0.0

-1.1612223241494422e8 4.06422204009765e7 0.0
4.06422204009765e7 -1.0814466558592495e7 0.0
0.0 0.0 0.0

543037.5991235096 1.893062407952644e7 0.0
1.893062407952644e7 -2.0273541426112425e7 0.0
0.0 0.0 0.0

-3.328053198999286e6 3.9081934890185e7 0.0
3.9081934890185e7 832312.0225473936 0.0
0.0 0.0 0.0

802783.495325723 2.0987523099664535e7 0.0
2.0987523099664535e7 6.325068053052347e6 0.0
0.0 0.0 0.0

-3.810939799644351e6 2.1108796848344035e7 0.0
2.1108796848344035e7 2.5550908342360932e7 0.0
0.0 0.0 0.0

-5.371707066055889e6 2.362513667447363e7 0.0
2.362513667447363e7 -1.4480041428003518e7 0.0
0.0 0.0 0.0

1.719843051726247e7 4.3532501087398574e7 0.0
4.3532501087398574e7 -5.733445487959241e6 0.0
0.0 0.0 0.0

-7.285400937775578e6 -1.8709228316807e6 0.0
-1.8709228316807e6 4.614290926571165e7 0.0
0.0 0.0 0.0

2.290340184897663e6 1.3948923184028093e6 0.0
1.3948923184028093e6 -4.593027840371016e7 0.0
0.0 0.0 0.0

537374.8156770761 2.6713942865272157e7 0.0
2.6713942865272157e7 -6.29923525389102e6 0.0
0.0 0.0 0.0

-9.262478928865124e6 -2.67395531348488e6 0.0
-2.67395531348488e6 2.113328237870912e7 0.0
0.0 0.0 0.0

1.7561331189900152e6 1.4811614966763e6 0.0
1.4811614966763e6 -5.9082900649403155e7 0.0
0.0 0.0 0.0

-6.193145507347658e6 -747836.2714534554 0.0
-747836.2714534554 5.983610970476557e7 0.0
0.0 0.0 0.0

-8.070010032589819e6 -2.650624509633518e6 0.0
-2.650624509633518e6 3.546984895953497e7 0.0
0.0 0.0 0.0

-1.9769110776098026e6 2.06131427078974e7 0.0
2.06131427078974e7 -5.605428311477066e6 0.0
0.0 0.0 0.0

-7.166580608492104e6 -1.701298023387805e6 0.0
-1.701298023387805e6 4.755613150953841e7 0.0
0.0 0.0 0.0

2.2040114660538435e6 1.4538638995337249e6 0.0
1.4538638995337249e6 -4.7612243639700726e7 0.0
0.0 0.0 0.0

1.8768010935735144e6 1.5399314112800881e6 0.0
1.5399314112800881e6 -5.689000399260166e7 0.0
0.0 0.0 0.0

-6.326113651855528e6 -1.0279102749426279e6 0.0
-1.0279102749426279e6 5.785262165840942e7 0.0
0.0 0.0 0.0

-5.822889709800724e6 2.1938090828329492e7 0.0
2.1938090828329492e7 -1.6154812228768835e7 0.0
0.0 0.0 0.0

1.1646198123993445e6 2.244500072135616e7 0.0
2.244500072135616e7 -1.5298403885469457e7 0.0
0.0 0.0 0.0

-2.6916604674023064e6 2.8732565854626037e7 0.0
2.8732565854626037e7 5.809698042494428e6 0.0
0.0 0.0 0.0

1.8949222454402298e6 1.4334781021691025e6 0.0
1.4334781021691025e6 -5.533848436855266e7 0.0
0.0 0.0 0.0

-6.475501295981798e6 -1.2085995999016522e6 0.0
-1.2085995999016522e6 5.568650892277202e7 0.0
0.0 0.0 0.0

-1.2746242001903262e6 2.115398833677047e7 0.0
2.115398833677047e7 -4.3097142960624285e6 0.0
0.0 0.0 0.0

1.322133104716083e6 1.5504662765448743e7 0.0
1.5504662765448743e7 -2.660258963331294e7 0.0
0.0 0.0 0.0

158709.24432643247 2.8793293785489507e7 0.0
2.8793293785489507e7 -3.19735053133465e6 0.0
0.0 0.0 0.0

-2.5876437990360972e6 2.2457072363962345e7 0.0
2.2457072363962345e7 -307561.7016949486 0.0
0.0 0.0 0.0

-1.2631034911595155e6 2.0063528253544725e7 0.0
2.0063528253544725e7 3.3091807861063525e7 0.0
0.0 0.0 0.0

-6.632225429519627e6 -1.2428647619069708e6 0.0
-1.2428647619069708e6 5.388200112610443e7 0.0
0.0 0.0 0.0

2.0098784731145091e6 1.349631288184169e6 0.0
1.349631288184169e6 -5.319742856433327e7 0.0
0.0 0.0 0.0

4.947115787329074e6 3.195327041235413e7 0.0
3.195327041235413e7 -5.481041801805186e6 0.0
0.0 0.0 0.0

3.908683663397871e6 1.9810932489567846e7 0.0
1.9810932489567846e7 5.25869304043594e7 0.0
0.0 0.0 0.0

8.858122790068428e7 9.068130855286264e7 0.0
9.068130855286264e7 -1.1713872671746999e7 0.0
0.0 0.0 0.0

-493874.5987180723 1.2143488091216197e7 0.0
1.2143488091216197e7 -8.748343817318752e6 0.0
0.0 0.0 0.0

-1.8949760060273856e6 3.2132333995074272e7 0.0
3.2132333995074272e7 1.8922503132440518e6 0.0
0.0 0.0 0.0

-9.746484002601352e6 602047.5085968706 0.0
602047.5085968706 1.5438292216544174e7 0.0
0.0 0.0 0.0

-2.5206972111579585e6 2.9368477066456553e7 0.0
2.9368477066456553e7 4.881616785437763e6 0.0
0.0 0.0 0.0

3.2636592415687973e6 2.558331641755184e6 0.0
2.558331641755184e6 -1.4435263503071534e7 0.0
0.0 0.0 0.0

1.2975899859117499e7 2.9063125594449215e7 0.0
2.9063125594449215e7 -4.620932576742727e6 0.0
0.0 0.0 0.0

3.717014153055136e6 2.737423564504736e7 0.0
2.737423564504736e7 -8.258887133829722e6 0.0
0.0 0.0 0.0

-6.438047173262044e6 1.8695615611238997e7 0.0
1.8695615611238997e7 1.92861847043147e7 0.0
0.0 0.0 0.0

-1.7830985094000963e6 2.2667220222249877e7 0.0
2.2667220222249877e7 -1.4625958353325252e6 0.0
0.0 0.0 0.0

-4.293181873163551e6 961700.6926630569 0.0
961700.6926630569 7.42344526269927e7 0.0
0.0 0.0 0.0

162032.83487628106 3.754893553943221e6 0.0
3.754893553943221e6 -276020.26317215397 0.0
0.0 0.0 0.0

-5.272478172653228e6 -832511.3166389336 0.0
-832511.3166389336 2.0861491567538378e6 0.0
0.0 0.0 0.0

713094.6940029389 -1.6192634245804306e6 0.0
-1.6192634245804306e6 -1.9764991274686204e6 0.0
0.0 0.0 0.0

4.532424342800658e6 2.7704368517165158e7 0.0
2.7704368517165158e7 -7.733712901928872e6 0.0
0.0 0.0 0.0

-7.2350682268888485e6 1.7209619788825132e7 0.0
1.7209619788825132e7 -5.930828221740312e7 0.0
0.0 0.0 0.0

5.412832960039057e6 2.001213063037945e7 0.0
2.001213063037945e7 3.533313747267574e7 0.0
0.0 0.0 0.0

-3.4712336335239634e6 2.1546833480569277e7 0.0
2.1546833480569277e7 -1.3360805940095037e7 0.0
0.0 0.0 0.0

3.4193650198896993e6 1.9433253124488306e6 0.0
1.9433253124488306e6 -2.798281522661801e7 0.0
0.0 0.0 0.0

-2.0338188124849687e6 1.9420359573152862e7 0.0
1.9420359573152862e7 -5.004822700792133e6 0.0
0.0 0.0 0.0

313474.78107833304 2.2312474541157562e7 0.0
2.2312474541157562e7 -1.4434471502136808e7 0.0
0.0 0.0 0.0

-4.432499991871104e6 1.6666049815993793e7 0.0
1.6666049815993793e7 -4.2330154387630925e7 0.0
0.0 0.0 0.0

901990.5421418571 2.9675498027013432e7 0.0
2.9675498027013432e7 -3.6799388156423788e6 0.0
0.0 0.0 0.0

-3.4744357409082707e6 2.1393671497907117e7 0.0
2.1393671497907117e7 2.379523467632468e7 0.0
0.0 0.0 0.0

-1.6181368214932058e6 2.0031601969983056e7 0.0
2.0031601969983056e7 -3.8689704539891677e6 0.0
0.0 0.0 0.0

458024.93862832803 2.209400477903694e7 0.0
2.209400477903694e7 3.4044122691132883e6 0.0
0.0 0.0 0.0

-6.735228371695604e6 1.8025709113620758e7 0.0
1.8025709113620758e7 -2.954642377242496e7 0.0
0.0 0.0 0.0

-2.6604775586993605e7 3.0914313111419212e7 0.0
3.0914313111419212e7 -8.124594820079674e6 0.0
0.0 0.0 0.0

1.5436780694965653e7 4.747408674700068e7 0.0
4.747408674700068e7 -4.289301087730677e6 0.0
0.0 0.0 0.0

-2.9534388955887356e6 -830091.9036986018 0.0
-830091.9036986018 6.513385860833252e6 0.0
0.0 0.0 0.0

-2.3031266438959697e6 -1.807730795861096e6 0.0
-1.807730795861096e6 5.910897409618263e6 0.0
0.0 0.0 0.0

-3.7022808376489943e6 2.24318099170969e7 0.0
2.24318099170969e7 2.097244965204389e7 0.0
0.0 0.0 0.0

-788409.5127876266 2.5689080846640494e7 0.0
2.5689080846640494e7 -6.668655630661813e6 0.0
0.0 0.0 0.0

-1.3784543996248709e6 3.3303434522547502e7 0.0
3.3303434522547502e7 1.5406798134689082e6 0.0
0.0 0.0 0.0

-2.2957156419383474e6 2.9940587333012287e7 0.0
2.9940587333012287e7 4.0043844552216292e6 0.0
0.0 0.0 0.0

1.4443431304891737e7 2.3624244852177627e7 0.0
2.3624244852177627e7 1.1285974536889657e7 0.0
0.0 0.0 0.0

3.933198627611547e6 2.3720107046825524e7 0.0
2.3720107046825524e7 -4.73863665122577e6 0.0
0.0 0.0 0.0

6.32057921820979e6 1.9391675305256438e7 0.0
1.9391675305256438e7 5.864319117382504e7 0.0
0.0 0.0 0.0

-5.045342933046016e7 3.207412822628268e7 0.0
3.207412822628268e7 -1.6575715112598186e7 0.0
0.0 0.0 0.0

-1.2285898742116216e8 4.536052579078821e7 0.0
4.536052579078821e7 2.18475331112653e6 0.0
0.0 0.0 0.0

-6.452411227888707e6 1.772252340391362e7 0.0
1.772252340391362e7 1.7078296110671055e7 0.0
0.0 0.0 0.0

-2.4136263334353874e6 2.3165733431438383e7 0.0
2.3165733431438383e7 1.772646904605844e7 0.0
0.0 0.0 0.0

2.6555797939165253e6 5.196099225448951e6 0.0
5.196099225448951e6 -2.579733336491834e7 0.0
0.0 0.0 0.0

-6.38444881344378e6 1.885292582527891e7 0.0
1.885292582527891e7 2.4004710577409193e7 0.0
0.0 0.0 0.0

-7.581981935032005e6 -5.199273723346141e6 0.0
-5.199273723346141e6 1.962537087944566e7 0.0
0.0 0.0 0.0

1.149091953592408e7 2.5073691836660013e7 0.0
2.5073691836660013e7 1.3724425498195682e7 0.0
0.0 0.0 0.0

-3.1750312428080793e6 1.7044973092188604e7 0.0
1.7044973092188604e7 -4.047437160646039e7 0.0
0.0 0.0 0.0

3.1115072036898676e6 4.529982889360091e6 0.0
4.529982889360091e6 -3.270936223395125e7 0.0
0.0 0.0 0.0

6.926313042961277e6 2.266621835782779e7 0.0
2.266621835782779e7 7.386796530574776e6 0.0
0.0 0.0 0.0

-969563.9343803003 4.946151428858298e6 0.0
4.946151428858298e6 9.485548880482587e7 0.0
0.0 0.0 0.0

-5.035775021136289e6 3.124375899109831e7 0.0
3.124375899109831e7 6.525725034809591e6 0.0
0.0 0.0 0.0

-1.8898107582417935e7 2.719349715615853e7 0.0
2.719349715615853e7 106925.48664668482 0.0
0.0 0.0 0.0

2.48692963382454e6 2.6015478128266506e7 0.0
2.6015478128266506e7 -9.756872165261125e6 0.0
0.0 0.0 0.0

-8.261120845199561e6 -3.1609076834278004e6 0.0
-3.1609076834278004e6 3.2261897940112e7 0.0
0.0 0.0 0.0

761975.8451583476 2.0522115274825156e7 0.0
2.0522115274825156e7 7.477678946210969e6 0.0
0.0 0.0 0.0

-7.496134854345029e6 -2.1576162380685466e6 0.0
-2.1576162380685466e6 4.223068303240309e7 0.0
0.0 0.0 0.0

6.975363281210985e6 2.3735631264439046e7 0.0
2.3735631264439046e7 7.321766412480364e6 0.0
0.0 0.0 0.0

-1.8903280644089375e6 2.469592637579504e7 0.0
2.469592637579504e7 1.5507968919289354e6 0.0
0.0 0.0 0.0

3.140850910515083e6 2.8775601314362464e6 0.0
2.8775601314362464e6 -3.62893529297277e7 0.0
0.0 0.0 0.0

-5.817353179826608e6 2.2619821703305054e7 0.0
2.2619821703305054e7 -1.5526479625500621e7 0.0
0.0 0.0 0.0

3.443329729351146e6 2.0857575813301613e6 0.0
2.0857575813301613e6 -2.5073328643388394e7 0.0
0.0 0.0 0.0

161661.16618164722 1.8403173297158107e7 0.0
1.8403173297158107e7 -2.3821763246534817e7 0.0
0.0 0.0 0.0

-6.570239489184512e6 3.831845908815537e7 0.0
3.831845908815537e7 2.9991146638969863e6 0.0
0.0 0.0 0.0

-330728.46849449875 1.817103323092554e7 0.0
1.817103323092554e7 -248454.91603469983 0.0
0.0 0.0 0.0

772461.278563445 2.5481927753759507e7 0.0
2.5481927753759507e7 -1.0104211240575466e7 0.0
0.0 0.0 0.0

-4.731443850734928e6 3.62867446395978e7 0.0
3.62867446395978e7 2.2800079218485514e6 0.0
0.0 0.0 0.0

-2.767233105142725e6 2.8117252566931624e7 0.0
2.8117252566931624e7 6.911765840378373e6 0.0
0.0 0.0 0.0

-2.942558343483858e6 2.9529236326128095e7 0.0
2.9529236326128095e7 3.344420707097546e6 0.0
0.0 0.0 0.0

43297.9340812178 3.634244621959316e7 0.0
3.634244621959316e7 -1.115018084507919e6 0.0
0.0 0.0 0.0

1.2537874972359482e6 2.455135997742386e7 0.0
2.455135997742386e7 -1.095884257196512e7 0.0
0.0 0.0 0.0

-4.0368136658451967e6 4.01356933242402e7 0.0
4.01356933242402e7 1.1261573801161204e6 0.0
0.0 0.0 0.0

-9.903295059849873e6 1.420939929738956e7 0.0
1.420939929738956e7 1.991572121060837e7 0.0
0.0 0.0 0.0

815990.8284006603 1.5024857275350032e7 0.0
1.5024857275350032e7 -1.868666936887763e7 0.0
0.0 0.0 0.0

-1.0019067402276738e7 -44000.18972729928 0.0
-44000.18972729928 2.6566064624977946e7 0.0
0.0 0.0 0.0

-1.3681449917204317e7 2.9252377726430573e7 0.0
2.9252377726430573e7 4.518764138512468e6 0.0
0.0 0.0 0.0

-6.816836848966528e6 1.2660944646443075e6 0.0
1.2660944646443075e6 5.5550008489996344e7 0.0
0.0 0.0 0.0

4.560019442659536e6 3.3223417910386942e7 0.0
3.3223417910386942e7 -4.907726578114665e6 0.0
0.0 0.0 0.0

548427.8186705252 1.8385306346949313e7 0.0
1.8385306346949313e7 -2.3818435662606e7 0.0
0.0 0.0 0.0

1.6449041306255187e6 2.2717646302177962e7 0.0
2.2717646302177962e7 9.107848521360358e6 0.0
0.0 0.0 0.0

-1.0055759736714661e6 1.8000237884108897e7 0.0
1.8000237884108897e7 -1.1293776545167768e7 0.0
0.0 0.0 0.0

22221.880350824445 1.550394632123863e7 0.0
1.550394632123863e7 -3.3699260237523705e7 0.0
0.0 0.0 0.0

3.091345852408399e6 4.0018169299502405e6 0.0
4.0018169299502405e6 -1.764396808998894e7 0.0
0.0 0.0 0.0

5.531111327343677e6 2.7887816348703124e7 0.0
2.7887816348703124e7 -7.201926247438649e6 0.0
0.0 0.0 0.0

24903.74908733368 2.2008186327723324e7 0.0
2.2008186327723324e7 7.206722519278894e6 0.0
0.0 0.0 0.0

-2.530822020226409e6 2.1842489151519783e7 0.0
2.1842489151519783e7 -1.649335131413836e6 0.0
0.0 0.0 0.0

1.5310944580434002e6 1.5271641748011229e6 0.0
1.5271641748011229e6 -6.4091619657129765e7 0.0
0.0 0.0 0.0

-1.0567922879691906e7 5.974003224867425e6 0.0
5.974003224867425e6 2.67222669351396e7 0.0
0.0 0.0 0.0

1.1337260898686722e6 4.1867959889617492e6 0.0
4.1867959889617492e6 -6.3900149759173416e7 0.0
0.0 0.0 0.0

-8.59068693970668e6 -4.091732755228693e6 0.0
-4.091732755228693e6 2.467642981532287e7 0.0
0.0 0.0 0.0

-2.305216451144657e6 2.4589386999698654e7 0.0
2.4589386999698654e7 -66078.33309157065 0.0
0.0 0.0 0.0

-556273.9327689956 2.209009334447556e7 0.0
2.209009334447556e7 4.213053535907789e6 0.0
0.0 0.0 0.0

944200.2424047578 2.2362562112478137e7 0.0
2.2362562112478137e7 6.510217106982048e6 0.0
0.0 0.0 0.0

-5.757651821047303e6 1.7412933508822363e7 0.0
1.7412933508822363e7 1.968745758467297e7 0.0
0.0 0.0 0.0

-7.984901207283853e6 -2.3996467737885234e6 0.0
-2.3996467737885234e6 3.629575206731821e7 0.0
0.0 0.0 0.0

6.872830561107794e6 3.0026788149708327e7 0.0
3.0026788149708327e7 -6.177558657860519e6 0.0
0.0 0.0 0.0

7.074293377865262e6 2.2980840983453166e7 0.0
2.2980840983453166e7 1.695429193190804e7 0.0
0.0 0.0 0.0

1.9040735841521062e6 9.198036727588043e6 0.0
9.198036727588043e6 -2.8888473677159272e7 0.0
0.0 0.0 0.0

-8.116154671767989e6 -745419.9094844998 0.0
-745419.9094844998 3.870747576120733e7 0.0
0.0 0.0 0.0

4.733136001829036e6 2.325894049289973e7 0.0
2.325894049289973e7 1.337098704057806e7 0.0
0.0 0.0 0.0

-1.3273067877245527e6 1.7863164649979454e7 0.0
1.7863164649979454e7 4.7177545701114394e7 0.0
0.0 0.0 0.0

8.098437780148417e6 2.4375686731662013e7 0.0
2.4375686731662013e7 1.3381054501671707e7 0.0
0.0 0.0 0.0

-6.120365581979878e6 1.665739116134922e7 0.0
1.665739116134922e7 -5.554089125448389e7 0.0
0.0 0.0 0.0

-2.32595451275496e6 2.093113446237547e7 0.0
2.093113446237547e7 2.8207462869225636e7 0.0
0.0 0.0 0.0

1.9109072223595688e6 2.0311805831681184e7 0.0
2.0311805831681184e7 2.2456497715540882e7 0.0
0.0 0.0 0.0

2.294439483082994e6 2.413938646419192e7 0.0
2.413938646419192e7 -1.2016664590522768e7 0.0
0.0 0.0 0.0

-3.6286878850980573e6 2.3225127256243616e7 0.0
2.3225127256243616e7 -6.68562994700098e6 0.0
0.0 0.0 0.0

669921.7191611286 8.887808484972304e6 0.0
8.887808484972304e6 -4.667625944264237e7 0.0
0.0 0.0 0.0

743735.9655319136 7.97504912013712e6 0.0
7.97504912013712e6 -4.9126881988380864e7 0.0
0.0 0.0 0.0

-59898.527925377246 1.7605028807598263e7 0.0
1.7605028807598263e7 -1.0672444313484674e7 0.0
0.0 0.0 0.0

-5.756764818219135e6 1.8405295374336816e7 0.0
1.8405295374336816e7 3.258528870217675e7 0.0
0.0 0.0 0.0

937129.3908818327 2.24264675608739e7 0.0
2.24264675608739e7 -1.5223848761134105e7 0.0
0.0 0.0 0.0

-4.696388897056058e6 4.0320896047745557e6 0.0
4.0320896047745557e6 7.096127525862984e7 0.0
0.0 0.0 0.0

-3.7102865136448946e6 1.629745786872216e7 0.0
1.629745786872216e7 -4.807346865609044e7 0.0
0.0 0.0 0.0

1.941893318655327e6 1.6628160643667294e7 0.0
1.6628160643667294e7 5.947684480566697e7 0.0
0.0 0.0 0.0

1.6491856302230693e6 1.6240693670978195e6 0.0
1.6240693670978195e6 -6.14926407415124e7 0.0
0.0 0.0 0.0

1.5965319614602132e6 2.5764992803992964e7 0.0
2.5764992803992964e7 -9.88517499433374e6 0.0
0.0 0.0 0.0

6.654308391538044e6 2.4051391233672656e7 0.0
2.4051391233672656e7 1.393727177085658e7 0.0
0.0 0.0 0.0

-7.802232588162834e6 1.823727325406318e7 0.0
1.823727325406318e7 -5.092180197436125e7 0.0
0.0 0.0 0.0

1.2784179948103156e7 1.159612804721019e7 0.0
1.159612804721019e7 1.3205152157521849e6 0.0
0.0 0.0 0.0

-2.38845125853038e6 2.234799891447657e7 0.0
2.234799891447657e7 -8.291827634241096e6 0.0
0.0 0.0 0.0

5.590793183295354e6 2.3559702549236435e7 0.0
2.3559702549236435e7 1.4517174759412434e7 0.0
0.0 0.0 0.0

-2.8788500035561416e6 2.4294961857738912e7 0.0
2.4294961857738912e7 1.224636430783272e7 0.0
0.0 0.0 0.0

-2.7331679307761174e6 2.3036270571317136e7 0.0
2.3036270571317136e7 1.8142356258537695e7 0.0
0.0 0.0 0.0

462603.30107282475 1.359489182053067e7 0.0
1.359489182053067e7 -1.6374449520377688e7 0.0
0.0 0.0 0.0

-7.964058881303001e6 1.7500438692886125e7 0.0
1.7500438692886125e7 3.005059411895281e7 0.0
0.0 0.0 0.0

-5.098464600279275e6 1.618942916624256e7 0.0
1.618942916624256e7 -5.1728140176045805e7 0.0
0.0 0.0 0.0

-2.865634153052446e6 2.218590333014388e7 0.0
2.218590333014388e7 -1.2428769796048487e7 0.0
0.0 0.0 0.0

-7.108959477124969e6 2.5463822664716687e7 0.0
2.5463822664716687e7 6.681257843049215e6 0.0
0.0 0.0 0.0

341911.54369382514 1.2092606499976715e7 0.0
1.2092606499976715e7 -9.242356287636321e6 0.0
0.0 0.0 0.0

-3.8634595334957354e6 6.559446939234018e6 0.0
6.559446939234018e6 9.226342453944519e7 0.0
0.0 0.0 0.0

-8.712463739868568e6 1.786475691419619e7 0.0
1.786475691419619e7 -6.359832605502201e7 0.0
0.0 0.0 0.0

-1.2784253104399499e6 1.9899309763453975e7 0.0
1.9899309763453975e7 3.2889841635288145e7 0.0
0.0 0.0 0.0

-1.7882183762769843e6 3.400812907926641e7 0.0
3.400812907926641e7 249096.9926378649 0.0
0.0 0.0 0.0

2.133757180177246e7 2.3836529553848922e7 0.0
2.3836529553848922e7 8.34935681459007e6 0.0
0.0 0.0 0.0

910130.5459452309 1.950077282667834e7 0.0
1.950077282667834e7 4.229454395041026e7 0.0
0.0 0.0 0.0

-3.588268167275194e6 2.2130750134144183e7 0.0
2.2130750134144183e7 2.090724196951033e7 0.0
0.0 0.0 0.0

462093.56891748495 1.6180352774616396e7 0.0
1.6180352774616396e7 -1.819619962111492e7 0.0
0.0 0.0 0.0

-3.499303837601877e6 2.1187286975000687e7 0.0
2.1187286975000687e7 -1.4326713856998868e7 0.0
0.0 0.0 0.0

-4.757903427925655e6 2.0396091217635855e7 0.0
2.0396091217635855e7 1.6582350126531523e7 0.0
0.0 0.0 0.0

-4.937166636026413e6 1.9006707660361495e7 0.0
1.9006707660361495e7 1.9720454755507547e7 0.0
0.0 0.0 0.0

2.622425278550653e6 2.873148579581122e6 0.0
2.873148579581122e6 -3.35979035741619e7 0.0
0.0 0.0 0.0

-4.197957267863218e6 2.7174924695124693e7 0.0
2.7174924695124693e7 1.0670985733643288e7 0.0
0.0 0.0 0.0

-1.9290507283482787e6 1.8526032631115116e7 0.0
1.8526032631115116e7 -3.2856892270415695e6 0.0
0.0 0.0 0.0

3.781314971636167e6 3.257541243314422e6 0.0
3.257541243314422e6 -2.3956367135075662e7 0.0
0.0 0.0 0.0

2.9419012838242147e6 3.2040170060833476e7 0.0
3.2040170060833476e7 -4.977095363830586e6 0.0
0.0 0.0 0.0

7.740611565598294e6 2.4104567827598203e7 0.0
2.4104567827598203e7 1.5007926016235657e7 0.0
0.0 0.0 0.0

-5.76584156383381e6 2.4192517136278045e6 0.0
2.4192517136278045e6 6.2443814174568124e7 0.0
0.0 0.0 0.0

1.0699807748597227e7 2.5600887281562544e7 0.0
2.5600887281562544e7 1.3166204488870688e7 0.0
0.0 0.0 0.0

7.270272056108678e6 2.4127452661330815e7 0.0
2.4127452661330815e7 1.0319721740684042e7 0.0
0.0 0.0 0.0

42186.16755668726 2.1360518027536247e7 0.0
2.1360518027536247e7 -1.4967304885103691e7 0.0
0.0 0.0 0.0

2.165595616358919e6 2.946965077317071e6 0.0
2.946965077317071e6 -4.4719484685795575e7 0.0
0.0 0.0 0.0

3.747969515167853e6 1.9183006441311833e7 0.0
1.9183006441311833e7 1.5010390779698193e7 0.0
0.0 0.0 0.0

649003.8598244525 2.185617070566313e7 0.0
2.185617070566313e7 -1.3502858694645545e7 0.0
0.0 0.0 0.0

1.7826855505041305e6 2.2348577720678486e7 0.0
2.2348577720678486e7 1.056307919248054e7 0.0
0.0 0.0 0.0

-1.0955294084771007e7 8.059359116031814e6 0.0
8.059359116031814e6 2.1072543713731084e7 0.0
0.0 0.0 0.0

-7.927725317684794e6 -4.444721785821098e6 0.0
-4.444721785821098e6 2.3619331659996685e7 0.0
0.0 0.0 0.0

-5.648514383988286e6 2.4720114798269693e7 0.0
2.4720114798269693e7 4.475491296259796e6 0.0
0.0 0.0 0.0

583476.1988638993 1.6137669927720604e7 0.0
1.6137669927720604e7 -2.865971182548878e7 0.0
0.0 0.0 0.0

-4.19463607081664e6 2.032691951872199e7 0.0
2.032691951872199e7 -1.883049489736946e7 0.0
0.0 0.0 0.0

-4.1619389171354957e6 2.8767481624907744e6 0.0
2.8767481624907744e6 8.933369527080308e7 0.0
0.0 0.0 0.0

-5.199594460985989e6 4.129340059128017e7 0.0
4.129340059128017e7 1.3401859871639027e6 0.0
0.0 0.0 0.0

613766.5361161199 6.133551385543039e6 0.0
6.133551385543039e6 -2.5874957026915574e6 0.0
0.0 0.0 0.0

-1.5058316258981554e6 2.230865163910842e7 0.0
2.230865163910842e7 1.445661693258796e6 0.0
0.0 0.0 0.0

3.945123468313822e6 2.3235494685618546e7 0.0
2.3235494685618546e7 1.3203578214200752e7 0.0
0.0 0.0 0.0

-6.232739000226814e6 1.886859081599576e7 0.0
1.886859081599576e7 2.898919303284885e7 0.0
0.0 0.0 0.0

-1.5614004962143797e7 2.868981801200363e7 0.0
2.868981801200363e7 2.5617568849047534e6 0.0
0.0 0.0 0.0

5.492208161631146e6 2.4143025712107528e7 0.0
2.4143025712107528e7 1.1281358091537423e7 0.0
0.0 0.0 0.0

3.1439775996133466e6 2.3874081661838274e7 0.0
2.3874081661838274e7 1.2404258054735694e7 0.0
0.0 0.0 0.0

631987.6936353492 2.068439665976651e7 0.0
2.068439665976651e7 -1.9383077241318863e7 0.0
0.0 0.0 0.0

2.0851476822184073e6 5.577401282699576e6 0.0
5.577401282699576e6 -1.3498226964775413e7 0.0
0.0 0.0 0.0

-916476.438518743 2.1385128082808e7 0.0
2.1385128082808e7 -1.715906832848144e7 0.0
0.0 0.0 0.0

773809.9406404789 2.3943326979663525e7 0.0
2.3943326979663525e7 -1.230721361236768e7 0.0
0.0 0.0 0.0

-2.3478782804084215e6 2.7145582545657866e7 0.0
2.7145582545657866e7 6.149836587021692e6 0.0
0.0 0.0 0.0

2.7765847563757454e6 2.5198501272035744e7 0.0
2.5198501272035744e7 -1.003048840516538e7 0.0
0.0 0.0 0.0

1.9831584601693167e6 2.4262199603819706e7 0.0
2.4262199603819706e7 -1.102962884887436e7 0.0
0.0 0.0 0.0

2.641531750503022e6 4.067760724386888e6 0.0
4.067760724386888e6 -4.010875523068318e7 0.0
0.0 0.0 0.0

3.886545713831245e6 2.3305878394597717e7 0.0
2.3305878394597717e7 8.1212718047711095e6 0.0
0.0 0.0 0.0

758584.0517438906 2.4677257032136418e7 0.0
2.4677257032136418e7 -1.1138646517534336e7 0.0
0.0 0.0 0.0

-9.60375681682525e6 1.5818945188489683e7 0.0
1.5818945188489683e7 2.4714107367894486e7 0.0
0.0 0.0 0.0

-1.0284849156659624e8 3.194296658532628e7 0.0
3.194296658532628e7 -1.807023285959801e7 0.0
0.0 0.0 0.0

3.3377418642523006e7 3.1753615735247795e7 0.0
3.1753615735247795e7 1.1125828214527264e8 0.0
0.0 0.0 0.0

-3.3198520856228497e7 2.9993691443815853e7 0.0
2.9993691443815853e7 -1.1066195219162416e8 0.0
0.0 0.0 0.0

-3.50500703492325e6 2.099084091404844e7 0.0
2.099084091404844e7 2.5437150743940458e7 0.0
0.0 0.0 0.0

834853.8340892158 1.5743640704637269e7 0.0
1.5743640704637269e7 -2.502101020164578e7 0.0
0.0 0.0 0.0

-4.378719779114025e6 2.227801297344981e7 0.0
2.227801297344981e7 -1.4728640797471246e7 0.0
0.0 0.0 0.0

3.537022604377174e6 4.189452554306591e7 0.0
4.189452554306591e7 -2.8190013080735262e6 0.0
0.0 0.0 0.0

-2.262823305232168e6 1.93246093375285e7 0.0
1.93246093375285e7 -2.3770701916367922e7 0.0
0.0 0.0 0.0

-5.705652561807261e6 2.3385863975675955e7 0.0
2.3385863975675955e7 -8.990561679099848e6 0.0
0.0 0.0 0.0

-8.2188677455937825e6 1.77426099058983e7 0.0
1.77426099058983e7 2.5302297638914347e7 0.0
0.0 0.0 0.0

-546344.9754950204 2.807216976141991e7 0.0
2.807216976141991e7 -1.7951418620548658e6 0.0
0.0 0.0 0.0

-3.424863191784015e6 1.7872101015435506e7 0.0
1.7872101015435506e7 -3.72406869270863e7 0.0
0.0 0.0 0.0

-2.4056697192848856e6 2.220617726695156e7 0.0
2.220617726695156e7 -8.171715630627379e6 0.0
0.0 0.0 0.0

-3.5670841795341056e6 2.433106219648464e7 0.0
2.433106219648464e7 1.334890143382978e7 0.0
0.0 0.0 0.0

2.1059898342591163e7 2.451121334131393e7 0.0
2.451121334131393e7 1.0869508578228801e6 0.0
0.0 0.0 0.0

1.533053531561899e6 2.164703858159945e7 0.0
2.164703858159945e7 7.901455730797648e6 0.0
0.0 0.0 0.0

-3.842456638864534e6 2.158153406905856e7 0.0
2.158153406905856e7 2.245866960626269e7 0.0
0.0 0.0 0.0

-2.31438844717324e7 2.7311677157813344e7 0.0
2.7311677157813344e7 -2.6298446330502545e6 0.0
0.0 0.0 0.0

954602.4847325217 2.2012154410085842e7 0.0
2.2012154410085842e7 7.880988818043122e6 0.0
0.0 0.0 0.0

3.7281440162298684e6 3.2642973733716182e7 0.0
3.2642973733716182e7 -4.788405317120571e6 0.0
0.0 0.0 0.0

1.1305469220576258e7 2.96245645067108e7 0.0
2.96245645067108e7 -5.490412891732803e6 0.0
0.0 0.0 0.0

1.4499600990330894e6 1.5035585351960594e7 0.0
1.5035585351960594e7 -1.8988947888244852e7 0.0
0.0 0.0 0.0

-3.2949888979532644e6 1.96193396990022e7 0.0
1.96193396990022e7 3.1943829739563838e7 0.0
0.0 0.0 0.0

-217431.50390112586 2.0204964310238726e7 0.0
2.0204964310238726e7 -2.004155610144056e7 0.0
0.0 0.0 0.0

-2.4476173776549143e6 1.9799242960639153e7 0.0
1.9799242960639153e7 6.055213261602658e6 0.0
0.0 0.0 0.0

-5.409399374011926e6 2.0218895673859064e7 0.0
2.0218895673859064e7 1.931926778156062e7 0.0
0.0 0.0 0.0

1.9232561862199032e6 7.906145614069645e6 0.0
7.906145614069645e6 -9.902632009796996e6 0.0
0.0 0.0 0.0

1.6289923019695499e6 2.0625226373651203e7 0.0
2.0625226373651203e7 1.148583829795077e7 0.0
0.0 0.0 0.0

6.6722148100654e6 2.8831459774930663e7 0.0
2.8831459774930663e7 -6.57795107374968e6 0.0
0.0 0.0 0.0

-1.6102962135705538e6 1.2115219475732569e7 0.0
1.2115219475732569e7 -7.164769166315946e7 0.0
0.0 0.0 0.0

-9.98372805533219e6 1.5220999914731493e7 0.0
1.5220999914731493e7 2.3921493550476845e7 0.0
0.0 0.0 0.0

2.411451112556502e7 4.507595790960332e7 0.0
4.507595790960332e7 -6.654598120883388e6 0.0
0.0 0.0 0.0

1.7156655409941263e6 8.238447014186239e6 0.0
8.238447014186239e6 -4.576748594411673e7 0.0
0.0 0.0 0.0

963219.4592210855 2.0539268307607275e7 0.0
2.0539268307607275e7 9.10249102474954e6 0.0
0.0 0.0 0.0

3.4983532767652413e6 2.6445683610550784e7 0.0
2.6445683610550784e7 -9.028171686784986e6 0.0
0.0 0.0 0.0

1.5506464410665728e7 2.5418695065719746e7 0.0
2.5418695065719746e7 1.5389898764874142e8 0.0
0.0 0.0 0.0

-1.6202343554898653e7 2.481551766874573e7 0.0
2.481551766874573e7 -1.480050186943656e8 0.0
0.0 0.0 0.0

3.220942148040535e7 2.2180104365089267e7 0.0
2.2180104365089267e7 6.716444823799843e6 0.0
0.0 0.0 0.0

1.3142279914392017e7 2.8895810292863525e7 0.0
2.8895810292863525e7 -4.921541179007064e6 0.0
0.0 0.0 0.0

363670.2939191372 1.145491798739852e7 0.0
1.145491798739852e7 -8.133475516768577e6 0.0
0.0 0.0 0.0

2.4312583382951908e7 4.020106173830716e7 0.0
4.020106173830716e7 -6.773302355630729e6 0.0
0.0 0.0 0.0

-769944.6880874885 2.191832252333287e7 0.0
2.191832252333287e7 2.2435545630461972e7 0.0
0.0 0.0 0.0

1.735480144072965e7 2.4132476313485876e7 0.0
2.4132476313485876e7 1.1531491222151387e6 0.0
0.0 0.0 0.0

-3.3170346384821404e6 2.6400429598609496e7 0.0
2.6400429598609496e7 8.606471189376248e6 0.0
0.0 0.0 0.0

-4.635105669490757e6 1.8116127152866405e7 0.0
1.8116127152866405e7 1.7740123781666197e7 0.0
0.0 0.0 0.0

-451509.1791029026 3.977926546608895e6 0.0
3.977926546608895e6 -2.816124221607701e6 0.0
0.0 0.0 0.0

8.361202482017897e6 2.365291697134574e7 0.0
2.365291697134574e7 1.5723646761020867e7 0.0
0.0 0.0 0.0

669666.5272335587 2.7965657365271978e7 0.0
2.7965657365271978e7 -6.532104083575863e6 0.0
0.0 0.0 0.0

-3.4617606374705434e6 2.069682026206407e7 0.0
2.069682026206407e7 2.7136528798482094e7 0.0
0.0 0.0 0.0

-5.690356016794535e6 2.756071706923751e7 0.0
2.756071706923751e7 9.957478704484351e6 0.0
0.0 0.0 0.0

-2.600591208286644e6 2.5931316642577678e7 0.0
2.5931316642577678e7 9.470665831882603e6 0.0
0.0 0.0 0.0

-2.6195369089600015e6 1.993577438712974e7 0.0
1.993577438712974e7 -7.038317313722209e6 0.0
0.0 0.0 0.0

-870533.1369593088 1.9696857517287947e7 0.0
1.9696857517287947e7 3.484582604537296e7 0.0
0.0 0.0 0.0

-3.1587706459718077e6 2.6830792354582977e7 0.0
2.6830792354582977e7 9.976477440623986e6 0.0
0.0 0.0 0.0

-4.240382291370265e6 1.4369605027331306e7 0.0
1.4369605027331306e7 1.0703809826774621e7 0.0
0.0 0.0 0.0

-4.5176278752134286e7 3.554143536347125e7 0.0
3.554143536347125e7 -7.194202631069597e6 0.0
0.0 0.0 0.0

-5.564432302251801e6 5.353844543907172e6 0.0
5.353844543907172e6 6.234002801350257e7 0.0
0.0 0.0 0.0

-7.8256148719758e6 2.7980786761951625e7 0.0
2.7980786761951625e7 8.166740200359596e6 0.0
0.0 0.0 0.0

-8.467079540066324e6 3.367177652194244e7 0.0
3.367177652194244e7 5.961495628988545e6 0.0
0.0 0.0 0.0

-1.5412883979868554e6 1.7267844593684815e7 0.0
1.7267844593684815e7 -3.3150565442455314e7 0.0
0.0 0.0 0.0

-2.5193901372409044e6 3.774681079854058e7 0.0
3.774681079854058e7 1.6502773834199854e6 0.0
0.0 0.0 0.0

-6.889218048114883e6 4.2699243069214e7 0.0
4.2699243069214e7 1.4195043837882364e6 0.0
0.0 0.0 0.0

-8.691057653733911e6 4.405116027766195e7 0.0
4.405116027766195e7 1.931679245856035e6 0.0
0.0 0.0 0.0

-94806.26267137728 3.060362548238868e7 0.0
3.060362548238868e7 -3.201349163140765e6 0.0
0.0 0.0 0.0

-8.373050896049503e6 1.4525743503477542e7 0.0
1.4525743503477542e7 3.5328203042798705e7 0.0
0.0 0.0 0.0

2.780224985823773e6 1.520432107326863e6 0.0
1.520432107326863e6 -3.740346458193928e7 0.0
0.0 0.0 0.0

-2.0067261294960175e6 2.0636979845806412e7 0.0
2.0636979845806412e7 2.964578245609206e7 0.0
0.0 0.0 0.0

3.251981699654354e6 3.367464729247719e7 0.0
3.367464729247719e7 -4.165495787721037e6 0.0
0.0 0.0 0.0

58130.07960726693 1.7845744834478054e7 0.0
1.7845744834478054e7 -2.539022890385398e7 0.0
0.0 0.0 0.0

-7.256458859243073e6 164804.6922048439 0.0
164804.6922048439 4.897462402186623e7 0.0
0.0 0.0 0.0

367875.93954531866 2.183400500415343e7 0.0
2.183400500415343e7 1.7347847625973953e6 0.0
0.0 0.0 0.0

1.117131460943799e6 2.2403302635851808e7 0.0
2.2403302635851808e7 -1.2315628303444095e7 0.0
0.0 0.0 0.0

-451675.79797749594 2.085439570732752e7 0.0
2.085439570732752e7 -1.6382532821716717e7 0.0
0.0 0.0 0.0

-4.463678267851041e6 1.8386942524977654e7 0.0
1.8386942524977654e7 -1.660019379576151e7 0.0
0.0 0.0 0.0

-9.342289480169632e6 -2.3360564161816402e6 0.0
-2.3360564161816402e6 2.2288510910579145e7 0.0
0.0 0.0 0.0

-473379.6472438292 2.0217275162548386e7 0.0
2.0217275162548386e7 -2.657572845919929e6 0.0
0.0 0.0 0.0

3.7596262535922755e6 2.222189245633221e7 0.0
2.222189245633221e7 7.317093226054537e6 0.0
0.0 0.0 0.0

2.304814409678175e7 2.2782427697563164e7 0.0
2.2782427697563164e7 8.809990518817399e6 0.0
0.0 0.0 0.0

-9.738835823247073e6 4.6419273133775346e7 0.0
4.6419273133775346e7 2.8701206277983407e6 0.0
0.0 0.0 0.0

-4.833169001331501e6 1.8557747273901653e7 0.0
1.8557747273901653e7 1.8862281360358074e7 0.0
0.0 0.0 0.0

-1.1909799662890729e7 1.9727585381296895e7 0.0
1.9727585381296895e7 -7.118615963066043e7 0.0
0.0 0.0 0.0

2.3577595894092396e6 7.3167023490972165e6 0.0
7.3167023490972165e6 -3.820165163386559e7 0.0
0.0 0.0 0.0

-8.216577093873672e6 -2.998500869858192e6 0.0
-2.998500869858192e6 3.2653309730048317e7 0.0
0.0 0.0 0.0

-2.4135643132743124e7 3.079919013478941e7 0.0
3.079919013478941e7 -1.0842339784149565e7 0.0
0.0 0.0 0.0

-2.337970935571649e7 2.7827795915230256e7 0.0
2.7827795915230256e7 -5.277020307409494e6 0.0
0.0 0.0 0.0

-2.584874251603148e6 2.052057083975618e7 0.0
2.052057083975618e7 -8.944076477316326e6 0.0
0.0 0.0 0.0

817207.5206411268 3.3045129192581553e7 0.0
3.3045129192581553e7 -2.904828491536128e6 0.0
0.0 0.0 0.0

-278470.58048420027 6.903665302656693e6 0.0
6.903665302656693e6 -6.79107441407574e7 0.0
0.0 0.0 0.0

1.0699093010911737e7 2.545275001229605e7 0.0
2.545275001229605e7 -3.1310205647588936e6 0.0
0.0 0.0 0.0

7.475665481240084e6 2.4681284831820842e7 0.0
2.4681284831820842e7 1.261820107754648e7 0.0
0.0 0.0 0.0

1.471904215136134e6 1.5527624668159902e7 0.0
1.5527624668159902e7 -2.4729769818647116e7 0.0
0.0 0.0 0.0

-1.5154012228740929e6 2.611183637428807e7 0.0
2.611183637428807e7 945430.2672411185 0.0
0.0 0.0 0.0

1.4018871007235553e6 1.4454072657966731e7 0.0
1.4454072657966731e7 -1.800380844803464e7 0.0
0.0 0.0 0.0

815684.0874742512 1.5147172418778049e7 0.0
1.5147172418778049e7 -2.666488888471304e7 0.0
0.0 0.0 0.0

-3.1916301629334786e6 1.9322195604054123e7 0.0
1.9322195604054123e7 -1.7241672240184132e7 0.0
0.0 0.0 0.0

-8.737761994046427e6 3.25721857689381e7 0.0
3.25721857689381e7 5.892625744001773e6 0.0
0.0 0.0 0.0

-1.8214142501610752e7 2.3641425896763872e7 0.0
2.3641425896763872e7 -8.241204702262445e7 0.0
0.0 0.0 0.0

2.0138535995909765e7 3.936165159960084e7 0.0
3.936165159960084e7 -5.632095079188853e6 0.0
0.0 0.0 0.0

8.131778125731079e6 2.8815029343591668e7 0.0
2.8815029343591668e7 -6.012124609810228e6 0.0
0.0 0.0 0.0

-2.5443915959875365e6 3.495579090307351e7 0.0
3.495579090307351e7 2.46366441514048e6 0.0
0.0 0.0 0.0

-3.737333858183557e6 2.6154517501569293e7 0.0
2.6154517501569293e7 1.160088176012173e7 0.0
0.0 0.0 0.0

-143245.25350236148 5.656000957172292e6 0.0
5.656000957172292e6 -7.10838512550207e7 0.0
0.0 0.0 0.0

-3.582431160444687e6 2.398014222551005e7 0.0
2.398014222551005e7 1.6296799977239849e7 0.0
0.0 0.0 0.0

839778.4365921058 5.438469770542582e6 0.0
5.438469770542582e6 -5.723589668526707e7 0.0
0.0 0.0 0.0

-37494.4361670292 2.322578070221106e7 0.0
2.322578070221106e7 -9.257759735192588e6 0.0
0.0 0.0 0.0

-136265.64541491168 2.228247430827889e7 0.0
2.228247430827889e7 -9.660442299302915e6 0.0
0.0 0.0 0.0

-1.2538758186450505e6 1.967072584363627e7 0.0
1.967072584363627e7 -4.035188554460111e6 0.0
0.0 0.0 0.0

-2.486813880878199e6 2.224893293322128e7 0.0
2.224893293322128e7 1.9260001689197257e7 0.0
0.0 0.0 0.0

-1.1626990153117394e6 2.930140915868797e7 0.0
2.930140915868797e7 -2.116282490280252e6 0.0
0.0 0.0 0.0

-3.6423710551157007e6 2.2479402330055684e7 0.0
2.2479402330055684e7 1.576657485525747e7 0.0
0.0 0.0 0.0

-7.891965555061907e6 -2.5063403308068146e6 0.0
-2.5063403308068146e6 3.713951982423721e7 0.0
0.0 0.0 0.0

1.6789617712486442e6 6.924164134660756e6 0.0
6.924164134660756e6 -4.032408436769711e7 0.0
0.0 0.0 0.0

1.7984733515855484e6 9.506416028589187e6 0.0
9.506416028589187e6 -3.121904692574779e7 0.0
0.0 0.0 0.0

2.3409412261730945e6 3.648707953347941e7 0.0
3.648707953347941e7 -1.9562949558959948e6 0.0
0.0 0.0 0.0

-3.4656762678888463e6 2.2281954702955477e7 0.0
2.2281954702955477e7 -1.2440866086611856e7 0.0
0.0 0.0 0.0

-677899.2940493748 1.6403929118321663e7 0.0
1.6403929118321663e7 -3.3450616767468445e7 0.0
0.0 0.0 0.0

4.304994769070361e6 2.1123844350530628e7 0.0
2.1123844350530628e7 1.726226713875278e7 0.0
0.0 0.0 0.0

-1.0063493816777058e7 3.3557542983372235e6 0.0
3.3557542983372235e6 2.549922195983447e7 0.0
0.0 0.0 0.0

8.376312973150566e6 2.532740758586852e7 0.0
2.532740758586852e7 1.3782559807110772e7 0.0
0.0 0.0 0.0

-1.6079631705070334e7 3.601689803334276e7 0.0
3.601689803334276e7 6.557692871239045e6 0.0
0.0 0.0 0.0

5.357763530226987e6 2.2866121436011545e7 0.0
2.2866121436011545e7 8.10105187364628e6 0.0
0.0 0.0 0.0

3.4822114733991716e6 1.967016821527739e7 0.0
1.967016821527739e7 1.7401869939493347e7 0.0
0.0 0.0 0.0

-6.01370817677433e6 3.1781998804290034e7 0.0
3.1781998804290034e7 6.206250057607181e6 0.0
0.0 0.0 0.0

-3.136404747037367e6 2.3032754464518122e7 0.0
2.3032754464518122e7 1.8835310414467372e7 0.0
0.0 0.0 0.0

623317.1379170306 1.9112486235936478e7 0.0
1.9112486235936478e7 4.179804337671843e7 0.0
0.0 0.0 0.0

-2.2503608660513677e7 2.8466047214369927e7 0.0
2.8466047214369927e7 -3.1930800888227187e6 0.0
0.0 0.0 0.0

-1.434276181710833e7 2.7065479233906023e7 0.0
2.7065479233906023e7 2.3070151633376954e6 0.0
0.0 0.0 0.0

-1.2605373359212838e7 1.8290269325506825e7 0.0
1.8290269325506825e7 -656228.2741654962 0.0
0.0 0.0 0.0

-9.352913350196747e7 3.688738612671234e7 0.0
3.688738612671234e7 -1.1139575962652247e7 0.0
0.0 0.0 0.0

1.4074129053009287e7 2.276097265261731e7 0.0
2.276097265261731e7 8.3051785812668055e6 0.0
0.0 0.0 0.0

-2.8175747269206243e6 1.7555841795873854e7 0.0
1.7555841795873854e7 -3.430906736219094e7 0.0
0.0 0.0 0.0

-3.200184489294593e6 2.559593748630605e7 0.0
2.559593748630605e7 9.002322526966168e6 0.0
0.0 0.0 0.0

722414.792507655 2.175475545045062e7 0.0
2.175475545045062e7 -1.656313884219876e7 0.0
0.0 0.0 0.0

5.011588974760681e7 1.819921800897618e7 0.0
1.819921800897618e7 3.1563650732707437e6 0.0
0.0 0.0 0.0

-7.565468327445253e6 -1.909613291713079e6 0.0
-1.909613291713079e6 1.394075666709397e7 0.0
0.0 0.0 0.0

3.384888527224983e6 2.4408297069328874e6 0.0
2.4408297069328874e6 -1.6146321316111084e7 0.0
0.0 0.0 0.0

467325.886270863 2.248967017054139e7 0.0
2.248967017054139e7 -1.4151331992789224e7 0.0
0.0 0.0 0.0

-755027.8811954356 2.1260127205974862e7 0.0
2.1260127205974862e7 -1.0262396619142259e6 0.0
0.0 0.0 0.0

-7.612404097983435e6 5.729740335463731e6 0.0
5.729740335463731e6 4.8576813768734545e7 0.0
0.0 0.0 0.0

9.615021793064827e6 3.002301069994822e7 0.0
3.002301069994822e7 -5.79606025585959e6 0.0
0.0 0.0 0.0

-1.4923263213314991e7 4.8076108604546554e7 0.0
4.8076108604546554e7 3.3915808545343922e6 0.0
0.0 0.0 0.0

1.3297251444468696e7 2.3705749157045227e7 0.0
2.3705749157045227e7 7.491139895261031e6 0.0
0.0 0.0 0.0

-8.221984356459621e6 -3.3494536193776177e6 0.0
-3.3494536193776177e6 3.0537729600272644e7 0.0
0.0 0.0 0.0

-2.643003191473935e7 2.903892322495541e7 0.0
2.903892322495541e7 -3.8596394736734647e6 0.0
0.0 0.0 0.0

1.2317946992400642e6 2.0710865517200783e7 0.0
2.0710865517200783e7 7.373107577880476e6 0.0
0.0 0.0 0.0

-2.079298095345212e7 5.040534958615879e7 0.0
5.040534958615879e7 4.312014333084063e6 0.0
0.0 0.0 0.0

-6.103066527337454e6 1.9411515842746615e7 0.0
1.9411515842746615e7 2.492629036810149e7 0.0
0.0 0.0 0.0

2.642376690619702e6 2.2352178644974e7 0.0
2.2352178644974e7 -1.4452854914626593e6 0.0
0.0 0.0 0.0

-7.662900071300745e6 1.9159074270444114e7 0.0
1.9159074270444114e7 -2.794889848441396e7 0.0
0.0 0.0 0.0

-3.2248689121241528e6 2.0524955825195875e7 0.0
2.0524955825195875e7 -1.2183893763259536e7 0.0
0.0 0.0 0.0

9.460215551559858e6 2.5034898308783963e7 0.0
2.5034898308783963e7 -3.7531548039505254e6 0.0
0.0 0.0 0.0

4.1584954101178214e7 4.951427609178081e7 0.0
4.951427609178081e7 -1.1415819621450983e7 0.0
0.0 0.0 0.0

-9.3664558477046e6 -1.5859797452838283e6 0.0
-1.5859797452838283e6 2.3920846098923795e7 0.0
0.0 0.0 0.0

3.0286758590625427e6 4.010068458198636e7 0.0
4.010068458198636e7 -3.077482066942493e6 0.0
0.0 0.0 0.0

5.049077733206604e6 3.402161052144309e7 0.0
3.402161052144309e7 -3.6406392314346735e6 0.0
0.0 0.0 0.0

-8.73403279722928e6 858943.8399008154 0.0
858943.8399008154 3.949366272965532e7 0.0
0.0 0.0 0.0

2.729082378458148e6 1.5760498712338065e6 0.0
1.5760498712338065e6 -3.788882847849049e7 0.0
0.0 0.0 0.0

-4.41466483693777e6 2.8942256354145326e7 0.0
2.8942256354145326e7 8.611954526788335e6 0.0
0.0 0.0 0.0

6.77500428576084e6 2.4945009183484208e7 0.0
2.4945009183484208e7 1.4151636674849637e7 0.0
0.0 0.0 0.0

-4.649319795995663e6 6.836984207935151e6 0.0
6.836984207935151e6 6.4879036116925515e6 0.0
0.0 0.0 0.0

-7.5838236534653865e6 1.772250672264641e7 0.0
1.772250672264641e7 2.5171183954078846e7 0.0
0.0 0.0 0.0

5.523465407484744e6 2.4460012332044724e7 0.0
2.4460012332044724e7 1.4604291981201267e7 0.0
0.0 0.0 0.0

-611230.0451696757 1.8829789035072308e7 0.0
1.8829789035072308e7 -1.3103590459896486e7 0.0
0.0 0.0 0.0

-3.9389620144111244e6 1.8921466685599647e7 0.0
1.8921466685599647e7 -1.8793740421055913e7 0.0
0.0 0.0 0.0

2.3533397090935884e6 3.1332630881412648e7 0.0
3.1332630881412648e7 -4.975951120450299e6 0.0
0.0 0.0 0.0

-8.319686831573293e6 -2.2579672265554257e6 0.0
-2.2579672265554257e6 1.6796692297857255e7 0.0
0.0 0.0 0.0

-2.1385003458733456e6 2.154777281536722e7 0.0
2.154777281536722e7 4.461528852883784e6 0.0
0.0 0.0 0.0

-5.584214076559983e6 1.8879977443341766e7 0.0
1.8879977443341766e7 3.075503296964628e7 0.0
0.0 0.0 0.0

839560.4686960634 1.5527117198656984e7 0.0
1.5527117198656984e7 -1.4801571683005111e7 0.0
0.0 0.0 0.0

2.0440733047448108e6 2.558603225650194e7 0.0
2.558603225650194e7 -1.0659089903290277e7 0.0
0.0 0.0 0.0

4.407403220322801e6 4.3963898730909094e7 0.0
4.3963898730909094e7 -785735.1458697056 0.0
0.0 0.0 0.0

-1.375984805939747e6 1.5931266763218163e7 0.0
1.5931266763218163e7 -3.573084761303538e7 0.0
0.0 0.0 0.0

-4.956278688428089e7 5.0763877332174465e7 0.0
5.0763877332174465e7 6.216359870426733e6 0.0
0.0 0.0 0.0

628391.57420884 1.906726869036618e6 0.0
1.906726869036618e6 -1.1077355680062305e6 0.0
0.0 0.0 0.0

231886.48096029076 2.1685213135223063e6 0.0
2.1685213135223063e6 -2.209748353890191e6 0.0
0.0 0.0 0.0

5.9964698424425665e6 2.090798718751819e7 0.0
2.090798718751819e7 3.0710225821334973e7 0.0
0.0 0.0 0.0

5.858279417176814e6 2.3012964474505357e7 0.0
2.3012964474505357e7 1.693926849092654e7 0.0
0.0 0.0 0.0

305307.2815715815 2.1799108311573215e7 0.0
2.1799108311573215e7 1.0152301972385526e7 0.0
0.0 0.0 0.0

-8.638661621755963e6 1.594270083869246e7 0.0
1.594270083869246e7 2.5014312142799143e7 0.0
0.0 0.0 0.0

7.9898463641683925e6 5.840403476819809e6 0.0
5.840403476819809e6 -1.5204692194411098e6 0.0
0.0 0.0 0.0

-2.3173011857701973e6 2.369178225683886e7 0.0
2.369178225683886e7 1.1155452383134946e7 0.0
0.0 0.0 0.0

215081.35822524538 3.2805842787277665e7 0.0
3.2805842787277665e7 -814757.6185150127 0.0
0.0 0.0 0.0

-2.4343073303907346e6 1.6901633892216116e7 0.0
1.6901633892216116e7 -3.7917571695354015e7 0.0
0.0 0.0 0.0

1.2271786558654666e7 2.4926387850031003e7 0.0
2.4926387850031003e7 1.224521028953973e7 0.0
0.0 0.0 0.0

1.8759829221772134e7 2.4267754752856392e7 0.0
2.4267754752856392e7 1.202310397986519e7 0.0
0.0 0.0 0.0

-2.8686047637041114e7 5.2400873079984635e7 0.0
5.2400873079984635e7 6.904763885715015e6 0.0
0.0 0.0 0.0

2.3778267426043185e6 2.201317318516166e7 0.0
2.201317318516166e7 1.050642288590803e7 0.0
0.0 0.0 0.0

-1.0244410345495269e7 1.03298977848154e7 0.0
1.03298977848154e7 1.5178655669063114e7 0.0
0.0 0.0 0.0

-1.0004239774868032e7 1.4077691561505336e7 0.0
1.4077691561505336e7 2.962596538850447e7 0.0
0.0 0.0 0.0

-169631.7994326952 3.1972630080935113e7 0.0
3.1972630080935113e7 -1.9484077196626284e6 0.0
0.0 0.0 0.0

8.48392801346223e6 2.2494901735066112e7 0.0
2.2494901735066112e7 1.6217732398127912e7 0.0
0.0 0.0 0.0

-6.190441829159599e6 5.0174353671534415e6 0.0
5.0174353671534415e6 6.874170883587939e7 0.0
0.0 0.0 0.0

847348.1918597594 2.107225914715504e7 0.0
2.107225914715504e7 1.8646890119831618e7 0.0
0.0 0.0 0.0

-1.1738249854920607e7 1.9143114430046726e7 0.0
1.9143114430046726e7 -4.205170711623731e7 0.0
0.0 0.0 0.0

5.977016980489751e6 2.4205775059379507e7 0.0
2.4205775059379507e7 1.5052612337589744e7 0.0
0.0 0.0 0.0

-3.476155617430195e6 2.0171173686531153e7 0.0
2.0171173686531153e7 2.8577174985793334e7 0.0
0.0 0.0 0.0

-481532.0969092748 1.77155107008374e7 0.0
1.77155107008374e7 -1.3563416208546598e7 0.0
0.0 0.0 0.0

7.216603895731784e6 2.022653784590062e7 0.0
2.022653784590062e7 8.361057814151493e7 0.0
0.0 0.0 0.0

9.818451567371668e6 2.8523514420815088e7 0.0
2.8523514420815088e7 -5.359608852064374e6 0.0
0.0 0.0 0.0

248756.62554475758 1.9781229295366246e7 0.0
1.9781229295366246e7 -2.056654016994145e7 0.0
0.0 0.0 0.0

-543443.4524636604 1.4465740339319326e7 0.0
1.4465740339319326e7 -6.335655416284411e6 0.0
0.0 0.0 0.0

2.25695621308046e6 3.013004400627192e6 0.0
3.013004400627192e6 -4.754287824781097e7 0.0
0.0 0.0 0.0

4.121498160265685e6 4.189053217031925e7 0.0
4.189053217031925e7 -523988.0826785271 0.0
0.0 0.0 0.0

-9.444908716894975e6 1.4847548691881184e7 0.0
1.4847548691881184e7 3.0403840962649144e7 0.0
0.0 0.0 0.0

4.411282299758829e6 1.945423002783006e7 0.0
1.945423002783006e7 2.307890299422007e7 0.0
0.0 0.0 0.0

-1.0297226153801486e7 2.863979027771944e7 0.0
2.863979027771944e7 5.758671572390137e6 0.0
0.0 0.0 0.0

-2.1383898557356144e6 2.3798797541887585e7 0.0
2.3798797541887585e7 2.3309940906000324e6 0.0
0.0 0.0 0.0

-7.692730476290761e6 1.8273974753722988e7 0.0
1.8273974753722988e7 2.5486802633182377e7 0.0
0.0 0.0 0.0

1.5487693752186466e6 1.1547196824228229e7 0.0
1.1547196824228229e7 -2.5229918710598253e7 0.0
0.0 0.0 0.0

-1.4100117051902175e7 4.485143114425798e7 0.0
4.485143114425798e7 6.412948323748377e6 0.0
0.0 0.0 0.0

2.681879464602407e7 1.3427363310910953e7 0.0
1.3427363310910953e7 960294.4564894335 0.0
0.0 0.0 0.0

-1.047406095368021e7 457799.4076712506 0.0
457799.4076712506 2.209540933462147e7 0.0
0.0 0.0 0.0

-7.530841179226933e6 3.3083080127542943e7 0.0
3.3083080127542943e7 5.5924600670655705e6 0.0
0.0 0.0 0.0

-3.0785575309712145e7 2.4844808242407657e7 0.0
2.4844808242407657e7 3.2685725721665304e6 0.0
0.0 0.0 0.0

-4.477541857175354e6 2.359419613820468e7 0.0
2.359419613820468e7 -1.2047442532223653e7 0.0
0.0 0.0 0.0

-5.995020742913835e7 3.682506248081667e7 0.0
3.682506248081667e7 -4.021231274834696e6 0.0
0.0 0.0 0.0

-5.115141095403732e6 2.389189431791302e7 0.0
2.389189431791302e7 -7.030735269636106e6 0.0
0.0 0.0 0.0

-4.2644850812030835e6 2.0455815060664278e7 0.0
2.0455815060664278e7 1.9612070113626264e7 0.0
0.0 0.0 0.0

-9.330395252156513e6 1.5047333587837912e7 0.0
1.5047333587837912e7 2.623456760602678e7 0.0
0.0 0.0 0.0

-6.467544923883531e6 1.8187281618350603e7 0.0
1.8187281618350603e7 1.8261650127142325e7 0.0
0.0 0.0 0.0

-4.528436319963984e6 2.6071945932596248e7 0.0
2.6071945932596248e7 1.2368880753739573e7 0.0
0.0 0.0 0.0

-7.523493028391741e6 2.1547493703029277e6 0.0
2.1547493703029277e6 4.870787296315363e7 0.0
0.0 0.0 0.0

-471107.51902945526 2.009277263038309e7 0.0
2.009277263038309e7 -1.250989839984235e6 0.0
0.0 0.0 0.0

1.386932577846866e6 1.3074493294352151e7 0.0
1.3074493294352151e7 -1.5500726849905206e7 0.0
0.0 0.0 0.0

814940.3369509717 1.792706709206986e7 0.0
1.792706709206986e7 -2.1438361785315827e7 0.0
0.0 0.0 0.0

-8.314826015629441e6 -1.6753738174696274e6 0.0
-1.6753738174696274e6 3.323326677723152e7 0.0
0.0 0.0 0.0

-1.2728274588779062e6 2.052651813345744e7 0.0
2.052651813345744e7 703015.7121644709 0.0
0.0 0.0 0.0

-8.583860247857809e6 2.884467273306406e7 0.0
2.884467273306406e7 6.911998733685732e6 0.0
0.0 0.0 0.0

2.9538823813642086e6 2.0917930130617395e7 0.0
2.0917930130617395e7 3.065926065099929e7 0.0
0.0 0.0 0.0

557572.9631535076 2.1706592750030722e7 0.0
2.1706592750030722e7 -1.4672249539808558e7 0.0
0.0 0.0 0.0

587497.9305467845 2.078948171572109e7 0.0
2.078948171572109e7 5.356507548913564e6 0.0
0.0 0.0 0.0

2.552432068082303e6 3.879506290585533e7 0.0
3.879506290585533e7 -2.718947587744274e6 0.0
0.0 0.0 0.0

1.9837957854465167e6 2.2971074867104404e7 0.0
2.2971074867104404e7 -1.160922628912962e7 0.0
0.0 0.0 0.0

1.1373365335150541e8 4.057008134619212e7 0.0
4.057008134619212e7 2.958352499945529e6 0.0
0.0 0.0 0.0

5.084777179425031e6 2.2886441850068025e7 0.0
2.2886441850068025e7 -3.202469280456934e6 0.0
0.0 0.0 0.0

-2.684275783196238e6 1.9855070843589805e7 0.0
1.9855070843589805e7 -2.460168268523868e7 0.0
0.0 0.0 0.0

3.3011015307739386e6 2.5018375957274172e7 0.0
2.5018375957274172e7 -9.748707306996197e6 0.0
0.0 0.0 0.0

-3.1469824450569656e7 3.145238178376131e7 0.0
3.145238178376131e7 -5.684436749160894e6 0.0
0.0 0.0 0.0

-6.1198234044234995e6 2.7758064153688293e7 0.0
2.7758064153688293e7 8.684983436912071e6 0.0
0.0 0.0 0.0

1.9025733905845307e7 2.423916882026761e7 0.0
2.423916882026761e7 6.528982965469507e6 0.0
0.0 0.0 0.0

-3.9251196448169053e6 1.6288654071063722e7 0.0
1.6288654071063722e7 -4.606569288677708e7 0.0
0.0 0.0 0.0

7.126671077797066e6 1.981358396590068e7 0.0
1.981358396590068e7 3.958181703702603e7 0.0
0.0 0.0 0.0

3.1649635744921584e6 5.376606016106533e6 0.0
5.376606016106533e6 -2.925319542659218e7 0.0
0.0 0.0 0.0

3.4913935564726964e6 2.6007944907704297e7 0.0
2.6007944907704297e7 -9.216533498963868e6 0.0
0.0 0.0 0.0

1.1415341352942847e6 4.441790148239399e6 0.0
4.441790148239399e6 -5.5618035560397096e7 0.0
0.0 0.0 0.0

1.7371306079266467e6 2.528720479393372e7 0.0
2.528720479393372e7 -1.0974165736210471e7 0.0
0.0 0.0 0.0

8.195027874798672e6 3.013767347837809e7 0.0
3.013767347837809e7 -5.999319854353426e6 0.0
0.0 0.0 0.0

-1.874729256024729e6 2.356796095043512e7 0.0
2.356796095043512e7 1.7601375523268187e6 0.0
0.0 0.0 0.0

-1.5029110735127239e7 3.5592244248982236e7 0.0
3.5592244248982236e7 5.274753877776277e6 0.0
0.0 0.0 0.0

-3.780649799697846e6 2.034466463609362e7 0.0
2.034466463609362e7 2.874963265446271e7 0.0
0.0 0.0 0.0

1.823188109975239e6 2.0722061886425633e7 0.0
2.0722061886425633e7 1.149909029818155e7 0.0
0.0 0.0 0.0

-4.121360011612915e7 3.976307038004375e7 0.0
3.976307038004375e7 7.158655337750258e6 0.0
0.0 0.0 0.0

1.8592038356844887e7 2.4466653327401824e7 0.0
2.4466653327401824e7 1.299306567015604e7 0.0
0.0 0.0 0.0

-5.960931844316115e6 1.3639307245291827e7 0.0
1.3639307245291827e7 9.588532668671507e6 0.0
0.0 0.0 0.0

-6.11592737940421e6 3.246547534813747e7 0.0
3.246547534813747e7 5.391944032394024e6 0.0
0.0 0.0 0.0

-6.004906796512721e6 2.438835867278837e7 0.0
2.438835867278837e7 -9.398452529917423e6 0.0
0.0 0.0 0.0

958551.3525615949 1.6032600301792875e7 0.0
1.6032600301792875e7 -1.5714744296517244e7 0.0
0.0 0.0 0.0

2.646142098221313e6 1.4031840969863678e6 0.0
1.4031840969863678e6 -3.9892219334091e7 0.0
0.0 0.0 0.0

-2.297183449724338e6 1.9457463843449395e7 0.0
1.9457463843449395e7 -1.0648570108576056e7 0.0
0.0 0.0 0.0

5.488676545722237e7 7.014142391275218e6 0.0
7.014142391275218e6 -906568.1211558208 0.0
0.0 0.0 0.0

-3.39925493443029e6 1.987327818237575e7 0.0
1.987327818237575e7 3.020352893021156e7 0.0
0.0 0.0 0.0

-8.16655440043131e6 3.1680171468636308e7 0.0
3.1680171468636308e7 6.3960431000830745e6 0.0
0.0 0.0 0.0

-7.448060971688116e6 -1.744175632059748e6 0.0
-1.744175632059748e6 4.417371687874134e7 0.0
0.0 0.0 0.0

-2.509424605268993e6 3.822916404975461e7 0.0
3.822916404975461e7 609833.7833622567 0.0
0.0 0.0 0.0

-2.4088311262339465e7 2.7526208082151342e7 0.0
2.7526208082151342e7 -3.752643245011099e6 0.0
0.0 0.0 0.0

397124.4695335571 2.038211936690466e7 0.0
2.038211936690466e7 -1.921097621180733e7 0.0
0.0 0.0 0.0

5.672662835663463e6 2.066318224513227e7 0.0
2.066318224513227e7 2.747506018516509e7 0.0
0.0 0.0 0.0

283868.6652632551 2.172361059751362e7 0.0
2.172361059751362e7 5.115883984704643e6 0.0
0.0 0.0 0.0

-2.560646771182065e6 2.443091914398231e7 0.0
2.443091914398231e7 9.917582308271855e6 0.0
0.0 0.0 0.0

335378.4664560463 1.5300979696844358e7 0.0
1.5300979696844358e7 -1.6727722805328e7 0.0
0.0 0.0 0.0

2.319371027394455e6 1.1015141062733045e7 0.0
1.1015141062733045e7 -2.4319616914964378e7 0.0
0.0 0.0 0.0

-1.0319704833419141e6 1.0143285448403547e7 0.0
1.0143285448403547e7 -6.309109643792593e6 0.0
0.0 0.0 0.0

-5.435364348620195e6 3.18453233068011e7 0.0
3.18453233068011e7 5.331943788593168e6 0.0
0.0 0.0 0.0

-820511.7323140381 1.9423715124801774e7 0.0
1.9423715124801774e7 -1.17485589318592e7 0.0
0.0 0.0 0.0

2.208243871708683e7 1.3141854217309827e7 0.0
1.3141854217309827e7 732300.512754932 0.0
0.0 0.0 0.0

2.6131751862600558e6 1.5534954678491983e6 0.0
1.5534954678491983e6 -4.039075735062959e7 0.0
0.0 0.0 0.0

4.301748622076881e6 1.9792714581866216e7 0.0
1.9792714581866216e7 2.8876517333127484e7 0.0
0.0 0.0 0.0

-69396.75947096944 9.79551609948267e6 0.0
9.79551609948267e6 -8.86113271670721e6 0.0
0.0 0.0 0.0

3.698414199009017e6 3.169719206808206e7 0.0
3.169719206808206e7 -4.411913599631587e6 0.0
0.0 0.0 0.0

588367.6487313868 2.1581166351827294e7 0.0
2.1581166351827294e7 1.3135089806268046e7 0.0
0.0 0.0 0.0

-8.444035508151354e6 8.870863898747709e6 0.0
8.870863898747709e6 4.369362149403335e7 0.0
0.0 0.0 0.0

-8.2550324758485295e6 935188.6570605781 0.0
935188.6570605781 1.5374860003266029e7 0.0
0.0 0.0 0.0

8.787573894036807e6 3.0009991694344476e7 0.0
3.0009991694344476e7 -5.832630959871299e6 0.0
0.0 0.0 0.0

-5.8457916566550896e7 1.853674306377833e7 0.0
1.853674306377833e7 6.289960723740384e6 0.0
0.0 0.0 0.0

-53175.15341020562 1.8761172238804635e7 0.0
1.8761172238804635e7 -2.3694166457176417e7 0.0
0.0 0.0 0.0

6.448024978709462e6 1.3896391794691062e7 0.0
1.3896391794691062e7 3.7179753338512247e6 0.0
0.0 0.0 0.0

-4.238681369010555e6 2.0086974757590972e7 0.0
2.0086974757590972e7 1.896386307655828e7 0.0
0.0 0.0 0.0

-6.326714525063951e7 1.7864303230686e7 0.0
1.7864303230686e7 4.898581011433002e6 0.0
0.0 0.0 0.0

-2.776890507281062e6 1.9096463863925565e7 0.0
1.9096463863925565e7 -2.578495984184539e7 0.0
0.0 0.0 0.0

1.7517032825357346e6 2.4419167328258235e7 0.0
2.4419167328258235e7 -1.1835598510390954e7 0.0
0.0 0.0 0.0

1.2301504612885143e6 5.701065115668516e6 0.0
5.701065115668516e6 -4.283367875307479e6 0.0
0.0 0.0 0.0

-1.2638827418701455e7 2.630194042705415e7 0.0
2.630194042705415e7 -9.241758393587485e6 0.0
0.0 0.0 0.0

8.687298642359093e6 3.5075965390972756e7 0.0
3.5075965390972756e7 -5.125702378309766e6 0.0
0.0 0.0 0.0

-1.8555989524191187e6 3.479206409474884e7 0.0
3.479206409474884e7 332414.54023321206 0.0
0.0 0.0 0.0

-2.8551886945170583e6 2.414339058196418e7 0.0
2.414339058196418e7 5.6165762578658415e6 0.0
0.0 0.0 0.0

-7.329912725308362e6 1.7132433464972347e7 0.0
1.7132433464972347e7 3.2097406228595957e7 0.0
0.0 0.0 0.0

-3.440575851641546e6 2.415248809467556e7 0.0
2.415248809467556e7 1.6089407350233339e7 0.0
0.0 0.0 0.0

-2.3317568056674637e6 3.7176467592835456e7 0.0
3.7176467592835456e7 514423.7255934924 0.0
0.0 0.0 0.0

777268.0906564333 1.2881267794715598e7 0.0
1.2881267794715598e7 -1.757958168883589e7 0.0
0.0 0.0 0.0

-2.3050211732466263e6 3.6415697439533055e7 0.0
3.6415697439533055e7 378374.83990056394 0.0
0.0 0.0 0.0

6.585527255307162e6 2.325267402342201e7 0.0
2.325267402342201e7 1.5017920007139124e7 0.0
0.0 0.0 0.0

-9.066588201375118e6 1.4974343235957414e7 0.0
1.4974343235957414e7 3.0900188813257396e7 0.0
0.0 0.0 0.0

2.1214914871295486e6 3.0356717896001004e6 0.0
3.0356717896001004e6 -4.177901699056359e7 0.0
0.0 0.0 0.0

-1.0229604411698688e7 2.8417411952491213e7 0.0
2.8417411952491213e7 6.203914525692376e6 0.0
0.0 0.0 0.0

-366285.7706859787 2.8471869409081317e7 0.0
2.8471869409081317e7 -4.609036449143096e6 0.0
0.0 0.0 0.0

1.1412942386839413e6 2.8292747196775347e7 0.0
2.8292747196775347e7 -5.516546019334996e6 0.0
0.0 0.0 0.0

-7.946201011649424e7 4.611496122362581e7 0.0
4.611496122362581e7 -3.849818401738092e7 0.0
0.0 0.0 0.0

798570.3402111568 2.1185895305026982e7 0.0
2.1185895305026982e7 -1.7900639313229043e7 0.0
0.0 0.0 0.0

78634.04129172122 3.1379229668151665e7 0.0
3.1379229668151665e7 -989683.9528451132 0.0
0.0 0.0 0.0

-4.698144927950975e6 2.1236746724411536e7 0.0
2.1236746724411536e7 1.8247471668860555e7 0.0
0.0 0.0 0.0

-3.4561452263125926e7 2.670622328180311e7 0.0
2.670622328180311e7 3.7782314474830944e6 0.0
0.0 0.0 0.0

1.1059659671275895e6 2.0756637570797417e7 0.0
2.0756637570797417e7 603467.2132661326 0.0
0.0 0.0 0.0

4.582500210180704e6 2.0947709660604786e7 0.0
2.0947709660604786e7 1.7146725868368827e7 0.0
0.0 0.0 0.0

2.0227035936630592e6 1.195616601206934e6 0.0
1.195616601206934e6 -5.113174754406745e7 0.0
0.0 0.0 0.0

-2.13913323332941e7 4.1790435497818775e7 0.0
4.1790435497818775e7 7.927959306879091e6 0.0
0.0 0.0 0.0

-7.417407783552313e6 -77568.93290242847 0.0
-77568.93290242847 4.527079197035487e7 0.0
0.0 0.0 0.0

-7.221602809699271e6 1.2705686885501076e6 0.0
1.2705686885501076e6 5.2733775802774526e7 0.0
0.0 0.0 0.0

-7.342319794355453e6 -1.1040057204066892e6 0.0
-1.1040057204066892e6 1.4295455459598895e7 0.0
0.0 0.0 0.0

-7.778326449580604e6 1.5398042094524248e7 0.0
1.5398042094524248e7 3.574992096737946e7 0.0
0.0 0.0 0.0

4.519366913378883e6 1.8789419393839076e7 0.0
1.8789419393839076e7 1.2033606221450722e7 0.0
0.0 0.0 0.0

-399108.9977596216 1.78687266093653e7 0.0
1.78687266093653e7 -2.7326625373241168e7 0.0
0.0 0.0 0.0

-4.240320769800456e7 5.312760472743829e7 0.0
5.312760472743829e7 9.881291285771742e6 0.0
0.0 0.0 0.0

-8.54002420530148e6 1.5583358347576741e7 0.0
1.5583358347576741e7 3.1497696260938853e7 0.0
0.0 0.0 0.0

-4.2058062619923465e6 1.581666291944616e7 0.0
1.581666291944616e7 -4.8379348373922795e7 0.0
0.0 0.0 0.0

-2.3030900103072923e7 2.711527383551355e7 0.0
2.711527383551355e7 -3.381293725388034e6 0.0
0.0 0.0 0.0

-6.742284113329206e6 902889.8775634046 0.0
902889.8775634046 5.404575696809509e7 0.0
0.0 0.0 0.0

347805.71552351955 1.994793351748646e7 0.0
1.994793351748646e7 -1.7317146756928537e7 0.0
0.0 0.0 0.0

-9.42331517935507e6 1.8947267519781955e7 0.0
1.8947267519781955e7 -5.465903111578023e7 0.0
0.0 0.0 0.0

-3.898067916038215e6 2.286187402542864e7 0.0
2.286187402542864e7 -8.541016049570039e6 0.0
0.0 0.0 0.0

-1.996452654857889e7 2.506013765345519e7 0.0
2.506013765345519e7 -2.75067040013779e6 0.0
0.0 0.0 0.0

5.590232978863414e7 3.0205674552034717e7 0.0
3.0205674552034717e7 1.2151331009212203e7 0.0
0.0 0.0 0.0

-1.8152231486972473e6 1.7412825456593893e7 0.0
1.7412825456593893e7 -4.108835299770774e6 0.0
0.0 0.0 0.0

1.1247581289927997e6 1.8454421425565198e7 0.0
1.8454421425565198e7 -1.9682449531733748e7 0.0
0.0 0.0 0.0

-3.4142789868300767e6 1.895553710405402e7 0.0
1.895553710405402e7 -1.5691419948217794e7 0.0
0.0 0.0 0.0

2.123004691187512e6 1.3885365963925903e6 0.0
1.3885365963925903e6 -5.1622751532858826e7 0.0
0.0 0.0 0.0

1.8641357999017125e6 3.050378847696584e7 0.0
3.050378847696584e7 -4.034720039207146e6 0.0
0.0 0.0 0.0

-4.0419843776770197e6 1.8500339935194194e7 0.0
1.8500339935194194e7 -2.8397409922658812e7 0.0
0.0 0.0 0.0

1.540904820466342e6 2.3332894242011808e7 0.0
2.3332894242011808e7 -1.2178256866931506e7 0.0
0.0 0.0 0.0

-339363.38876532274 2.1554658433286816e7 0.0
2.1554658433286816e7 2.1377976629054355e6 0.0
0.0 0.0 0.0

-5.127378974802093e6 1.3396379202735305e7 0.0
1.3396379202735305e7 1.269632537288113e7 0.0
0.0 0.0 0.0

-2.933163606091598e6 2.4110290365238793e7 0.0
2.4110290365238793e7 9.423194535753636e6 0.0
0.0 0.0 0.0

578918.4845576398 2.0334509099167794e7 0.0
2.0334509099167794e7 3.15381416200383e7 0.0
0.0 0.0 0.0

3.0958499799262304e6 1.825281454740427e6 0.0
1.825281454740427e6 -3.3161947778803583e7 0.0
0.0 0.0 0.0

-1.6110641566835158e7 1.6069788015132412e7 0.0
1.6069788015132412e7 1.9005591242379295e6 0.0
0.0 0.0 0.0

7.640086028519072e6 2.485413994082025e7 0.0
2.485413994082025e7 1.4388625710662687e7 0.0
0.0 0.0 0.0

-1.8152370641461508e6 2.005169489789233e7 0.0
2.005169489789233e7 -1.8965685079114214e7 0.0
0.0 0.0 0.0

8.575424591773348e7 1.2143174169335386e7 0.0
1.2143174169335386e7 36726.620272897184 0.0
0.0 0.0 0.0

151399.7337767603 1.886863673889721e7 0.0
1.886863673889721e7 -2.381275790330363e7 0.0
0.0 0.0 0.0

900468.7769401923 2.927754092251841e7 0.0
2.927754092251841e7 -5.6335753091542395e6 0.0
0.0 0.0 0.0

-2.3103640361037524e6 2.558077780607683e7 0.0
2.558077780607683e7 -66340.86131333618 0.0
0.0 0.0 0.0

9.199881702002255e6 2.0307165450815298e7 0.0
2.0307165450815298e7 6.93324000093661e7 0.0
0.0 0.0 0.0

-7.981622844187211e6 1.4232534927496769e7 0.0
1.4232534927496769e7 3.7597002982857645e7 0.0
0.0 0.0 0.0

-7.37356794562944e6 -2.2322004964015144e6 0.0
-2.2322004964015144e6 4.3707039819670275e7 0.0
0.0 0.0 0.0

-8.62027580842696e6 7.273226274066739e6 0.0
7.273226274066739e6 4.5404088622892305e7 0.0
0.0 0.0 0.0

-2.502286114151057e6 3.364756397824141e7 0.0
3.364756397824141e7 1.0155819644030512e6 0.0
0.0 0.0 0.0

1.5708639041082188e6 1.2597122985366758e7 0.0
1.2597122985366758e7 -2.641978376028029e7 0.0
0.0 0.0 0.0

-3.096062379520556e6 2.5448979185860362e7 0.0
2.5448979185860362e7 1.2045217186958417e7 0.0
0.0 0.0 0.0

914866.836214819 2.1773558990405865e7 0.0
2.1773558990405865e7 -1.6609679497347185e7 0.0
0.0 0.0 0.0

-5.544475310235237e6 1.92911963280818e7 0.0
1.92911963280818e7 1.7456133224148557e7 0.0
0.0 0.0 0.0

-5.406329078861418e6 2.8189818697303772e7 0.0
2.8189818697303772e7 9.092298878794719e6 0.0
0.0 0.0 0.0

1.1599818312372878e7 2.7992556578286584e7 0.0
2.7992556578286584e7 -4.677520971111431e6 0.0
0.0 0.0 0.0

-3.5763168643175066e6 2.3444804137156036e7 0.0
2.3444804137156036e7 1.781938789202463e7 0.0
0.0 0.0 0.0

-2.985087900480319e6 2.4554597163786184e7 0.0
2.4554597163786184e7 1.3686763274821606e7 0.0
0.0 0.0 0.0

-4.4900627117428165e6 1.9940742530698985e7 0.0
1.9940742530698985e7 -1.7128600075789563e7 0.0
0.0 0.0 0.0

-9.163344577408647e6 1.5693698379530337e7 0.0
1.5693698379530337e7 2.9132126368252184e7 0.0
0.0 0.0 0.0

-2.101841498483683e6 3.356585624647845e7 0.0
3.356585624647845e7 2.326135967618023e6 0.0
0.0 0.0 0.0

2.5959592449605744e6 4.728456080235861e6 0.0
4.728456080235861e6 -3.1098671989354156e7 0.0
0.0 0.0 0.0

-5.829063095710967e6 3.497130679263092e6 0.0
3.497130679263092e6 6.745221093862754e7 0.0
0.0 0.0 0.0

-2.1557653944096733e6 2.2121280927522644e7 0.0
2.2121280927522644e7 -1.0017470187834665e7 0.0
0.0 0.0 0.0

-2.591881052385584e6 3.440494579152312e7 0.0
3.440494579152312e7 1.1002949661596431e6 0.0
0.0 0.0 0.0

945618.3304019738 1.4890912788499108e7 0.0
1.4890912788499108e7 -3.0061717709342234e7 0.0
0.0 0.0 0.0

1.0270197010804622e6 3.079641606738594e7 0.0
3.079641606738594e7 -4.482941455762519e6 0.0
0.0 0.0 0.0

1.70400571519381e6 1.0761360352334132e7 0.0
1.0761360352334132e7 -2.6492178955632463e7 0.0
0.0 0.0 0.0

-9.225006545314968e6 1.3934325177856497e7 0.0
1.3934325177856497e7 3.247319946544073e7 0.0
0.0 0.0 0.0

-6.520690773049703e7 4.92735214360461e7 0.0
4.92735214360461e7 1.004866940464468e7 0.0
0.0 0.0 0.0

-1.6169969368295755e7 2.756818239996424e7 0.0
2.756818239996424e7 -988038.227012705 0.0
0.0 0.0 0.0

-3.5651959434586195e6 2.5436485900970843e7 0.0
2.5436485900970843e7 1.3090767714058913e7 0.0
0.0 0.0 0.0

-8.51457215452971e6 -4.802686794130445e6 0.0
-4.802686794130445e6 2.185339530614666e7 0.0
0.0 0.0 0.0

-1.9253971627733484e7 2.6124101136602663e7 0.0
2.6124101136602663e7 -3.2265512592307506e6 0.0
0.0 0.0 0.0

-7.34784468145967e6 2.8813285439606976e7 0.0
2.8813285439606976e7 7.731525627375649e6 0.0
0.0 0.0 0.0

2.3925282755002156e6 2.867330389526381e6 0.0
2.867330389526381e6 -4.2839104436947666e7 0.0
0.0 0.0 0.0

-5.826318183662381e6 1.7910081731772244e7 0.0
1.7910081731772244e7 2.0662838942679603e7 0.0
0.0 0.0 0.0

-8.441084579283893e6 1.6464534674826536e7 0.0
1.6464534674826536e7 2.5710518613647837e7 0.0
0.0 0.0 0.0

5.802827830198098e6 3.937790499121848e7 0.0
3.937790499121848e7 -1.9930271685506548e6 0.0
0.0 0.0 0.0

-1.1052252234430376e7 3.2717304031342785e6 0.0
3.2717304031342785e6 2.3784796538402855e7 0.0
0.0 0.0 0.0

-8.591715972269097e6 1.6605105872454165e7 0.0
1.6605105872454165e7 3.0047688857219983e7 0.0
0.0 0.0 0.0

-544330.9079658795 3.51966156833749e7 0.0
3.51966156833749e7 929110.3322991817 0.0
0.0 0.0 0.0

-6.77046884574198e6 1.2635330347688464e6 0.0
1.2635330347688464e6 5.6117783297263406e7 0.0
0.0 0.0 0.0

-8.607772852978814e6 -2.600597160191526e6 0.0
-2.600597160191526e6 2.390325994845065e7 0.0
0.0 0.0 0.0

2.3700400789693557e6 7.735170143549389e6 0.0
7.735170143549389e6 -2.9416434957683347e7 0.0
0.0 0.0 0.0

-2.778229009105523e6 2.4508930849540085e7 0.0
2.4508930849540085e7 1.0583124671107328e7 0.0
0.0 0.0 0.0

-7.685632085126078e6 1.6161927456972178e7 0.0
1.6161927456972178e7 3.348026601902224e7 0.0
0.0 0.0 0.0

476288.0510430047 2.111627919729023e7 0.0
2.111627919729023e7 -1.6332447995658882e7 0.0
0.0 0.0 0.0

1.0540586194973812e6 2.009660416073269e7 0.0
2.009660416073269e7 -1.7293587282072086e7 0.0
0.0 0.0 0.0

1.551882588896133e6 1.2261501133504407e7 0.0
1.2261501133504407e7 -2.8304513771900732e7 0.0
0.0 0.0 0.0

-169257.18560563494 1.8318086215043522e7 0.0
1.8318086215043522e7 -2.553679280797389e7 0.0
0.0 0.0 0.0

1.4552395830880518e6 2.152659087780704e7 0.0
2.152659087780704e7 9.021355624308597e6 0.0
0.0 0.0 0.0

-7.518598967998855e6 1.7256541655970026e7 0.0
1.7256541655970026e7 3.1708101231054507e7 0.0
0.0 0.0 0.0

1.21886088695345e6 2.99240387453978e7 0.0
2.99240387453978e7 -5.452283185343906e6 0.0
0.0 0.0 0.0

-5.894690395677828e6 3.1556645105154682e7 0.0
3.1556645105154682e7 6.087581927740445e6 0.0
0.0 0.0 0.0

-1.3727924525937864e6 3.40505085350687e7 0.0
3.40505085350687e7 1.644323024547942e6 0.0
0.0 0.0 0.0

1.756202971504868e7 2.5533699801392708e7 0.0
2.5533699801392708e7 8.1412833633582e7 0.0
0.0 0.0 0.0

-2.2809752234787648e6 2.4975990956848625e7 0.0
2.4975990956848625e7 8.91728214843814e6 0.0
0.0 0.0 0.0

1.0777234042465836e6 1.909431981935951e7 0.0
1.909431981935951e7 -1.831502744619953e7 0.0
0.0 0.0 0.0

-970713.9319114778 1.921626936990142e7 0.0
1.921626936990142e7 -2.377615201013796e7 0.0
0.0 0.0 0.0

1.0769463113536825e6 1.8796466574826993e7 0.0
1.8796466574826993e7 -2.006240990197506e7 0.0
0.0 0.0 0.0

2.018853288161996e6 3.3472190713165812e7 0.0
3.3472190713165812e7 -2.2582510279955924e6 0.0
0.0 0.0 0.0

-2.85190162807216e6 2.376636822631841e7 0.0
2.376636822631841e7 8.302241358449767e6 0.0
0.0 0.0 0.0

375145.7604180566 2.064756292411584e7 0.0
2.064756292411584e7 3.4162612339854706e6 0.0
0.0 0.0 0.0

-1.0708292168141063e6 2.0506027474098578e7 0.0
2.0506027474098578e7 -1.8130296999698274e7 0.0
0.0 0.0 0.0

-6.1503486270028595e6 1.4176019601871766e7 0.0
1.4176019601871766e7 1.1298208825065926e7 0.0
0.0 0.0 0.0

6.977020451402999e6 4.606800904183279e7 0.0
4.606800904183279e7 -5.189617509524805e6 0.0
0.0 0.0 0.0

1.2414889711709395e6 3.906794373849387e6 0.0
3.906794373849387e6 -6.135347785877579e7 0.0
0.0 0.0 0.0

1.1850504814104931e8 4.543377962186296e7 0.0
4.543377962186296e7 2.9684704986092962e7 0.0
0.0 0.0 0.0

5.2211862524452984e7 4.688028833122996e7 0.0
4.688028833122996e7 -1.6875590834127154e7 0.0
0.0 0.0 0.0

-315316.6368175484 2.1444952094582397e7 0.0
2.1444952094582397e7 2.0750188782077122e7 0.0
0.0 0.0 0.0

2.3327853911206396e6 2.190755190865835e7 0.0
2.190755190865835e7 1.1603004309275828e7 0.0
0.0 0.0 0.0

-2.8656059787949223e7 2.8082809254629172e7 0.0
2.8082809254629172e7 -1.2797693223837465e6 0.0
0.0 0.0 0.0

-6.886285921338698e7 3.415597076856869e7 0.0
3.415597076856869e7 -2.4388336685258076e6 0.0
0.0 0.0 0.0

-6.712434807377248e6 1.435510744798462e7 0.0
1.435510744798462e7 1.7034729780200806e7 0.0
0.0 0.0 0.0

-30680.667898383457 2.929099220063621e7 0.0
2.929099220063621e7 -2.1805743020788943e6 0.0
0.0 0.0 0.0

1.0917262783431467e6 1.77742283868351e7 0.0
1.77742283868351e7 -2.1022550294235654e7 0.0
0.0 0.0 0.0

1.0270606519120261e6 8.118604568122844e6 0.0
8.118604568122844e6 -5.5524847285711005e7 0.0
0.0 0.0 0.0

596352.0962328473 1.8012807462541215e7 0.0
1.8012807462541215e7 -2.1395466595880024e7 0.0
0.0 0.0 0.0

-3.369599151410509e6 1.5950483884980112e7 0.0
1.5950483884980112e7 -4.279202968081771e7 0.0
0.0 0.0 0.0

-8.960490467474043e6 1.6624119593930718e7 0.0
1.6624119593930718e7 2.36213022350293e7 0.0
0.0 0.0 0.0

1.9892682219174001e6 2.025273147178817e7 0.0
2.025273147178817e7 2.9633255557200365e7 0.0
0.0 0.0 0.0

1.0326970070277234e6 2.0093128155017253e7 0.0
2.0093128155017253e7 8.4933568045525e6 0.0
0.0 0.0 0.0

-1.201607700950325e7 9.576506434510836e6 0.0
9.576506434510836e6 5.1733809549138285e6 0.0
0.0 0.0 0.0

-8.735345061558602e6 5.811157808665237e6 0.0
5.811157808665237e6 4.470068220598051e7 0.0
0.0 0.0 0.0

-3.0256209047232047e6 2.8834678055366278e7 0.0
2.8834678055366278e7 6.646662172026303e6 0.0
0.0 0.0 0.0

933169.305541113 2.0672416821562197e7 0.0
2.0672416821562197e7 3.200814658716544e7 0.0
0.0 0.0 0.0

-4.070987626977072e6 1.967201039074698e7 0.0
1.967201039074698e7 1.8037310277147226e7 0.0
0.0 0.0 0.0

-7.7948816492446195e6 2.291874755474805e6 0.0
2.291874755474805e6 8.709794608473593e6 0.0
0.0 0.0 0.0

-2.5711990367256925e6 1.3395340229070524e7 0.0
1.3395340229070524e7 7.11395390561822e7 0.0
0.0 0.0 0.0

-1.9947220705701287e6 2.304026631421395e7 0.0
2.304026631421395e7 2.7039127724435953e6 0.0
0.0 0.0 0.0

1.3648620039765188e6 2.9048326899082255e7 0.0
2.9048326899082255e7 -6.436715703708612e6 0.0
0.0 0.0 0.0

1.0789401184586287e6 2.006997224534736e7 0.0
2.006997224534736e7 3.324576790697651e7 0.0
0.0 0.0 0.0

-5.489654426883893e6 1.4044743406054245e7 0.0
1.4044743406054245e7 1.430351897531141e7 0.0
0.0 0.0 0.0

8.745597397361957e6 2.886903122646767e7 0.0
2.886903122646767e7 -5.871941429582703e6 0.0
0.0 0.0 0.0

-3.879523174671717e6 5.430553523455348e6 0.0
5.430553523455348e6 7.630714295577325e7 0.0
0.0 0.0 0.0

8.613595882356398e6 2.6522503390135106e7 0.0
2.6522503390135106e7 -5.278225254564537e6 0.0
0.0 0.0 0.0

-2.178233987322475e6 3.4268663037551634e7 0.0
3.4268663037551634e7 2.4728334053627723e6 0.0
0.0 0.0 0.0

-6.251038603671411e6 1.8004797459892765e7 0.0
1.8004797459892765e7 -2.5880638195019703e7 0.0
0.0 0.0 0.0

-3.304940102723824e6 2.271672932114936e7 0.0
2.271672932114936e7 1.8933395503416225e7 0.0
0.0 0.0 0.0

-8.777455471490093e6 1.4302119073199442e7 0.0
1.4302119073199442e7 3.455678776470469e7 0.0
0.0 0.0 0.0

5.176800045981875e6 3.292275161351128e7 0.0
3.292275161351128e7 -4.4325615432555275e6 0.0
0.0 0.0 0.0

2.7653310860006507e6 5.649231694815509e6 0.0
5.649231694815509e6 -1.1205305665141717e7 0.0
0.0 0.0 0.0

133513.59775683458 4.2920681636056066e7 0.0
4.2920681636056066e7 -1.7591779860915304e6 0.0
0.0 0.0 0.0

5.335198433754142e6 2.3667978951778665e7 0.0
2.3667978951778665e7 8.91795392675773e6 0.0
0.0 0.0 0.0

-402607.8218346194 2.679108116371407e7 0.0
2.679108116371407e7 -4.0709588958304897e6 0.0
0.0 0.0 0.0

1.8944245439357162e6 5.518363658666911e6 0.0
5.518363658666911e6 -4.224308066212942e7 0.0
0.0 0.0 0.0

-3.0259806126563814e6 2.2958128174998663e7 0.0
2.2958128174998663e7 -1.1640091480041811e7 0.0
0.0 0.0 0.0

8.54168418149418e6 2.4272170438184492e7 0.0
2.4272170438184492e7 1.412983317416069e7 0.0
0.0 0.0 0.0

-1.2449970927210227e6 3.1895865591633093e7 0.0
3.1895865591633093e7 1.395170735198659e6 0.0
0.0 0.0 0.0

5.380324165750632e6 2.076072775174349e7 0.0
2.076072775174349e7 3.39280123473392e7 0.0
0.0 0.0 0.0

-5.215161808779284e6 998756.297051612 0.0
998756.297051612 1.0653451083124556e7 0.0
0.0 0.0 0.0

101188.16677479818 1.9360068157718033e7 0.0
1.9360068157718033e7 3.9166661310259104e7 0.0
0.0 0.0 0.0

-8.15520181068176e6 2.6555390754845235e7 0.0
2.6555390754845235e7 4.765490122643905e6 0.0
0.0 0.0 0.0

9.241826251798939e6 2.7457524714454506e7 0.0
2.7457524714454506e7 -5.271547958342195e6 0.0
0.0 0.0 0.0

3.903629548851156e6 2.5842581770753246e7 0.0
2.5842581770753246e7 -8.955546085762497e6 0.0
0.0 0.0 0.0

9.472577897299882e6 3.478117265614181e7 0.0
3.478117265614181e7 -5.055745156154294e6 0.0
0.0 0.0 0.0

910948.2360736453 1.8961059383737035e7 0.0
1.8961059383737035e7 6.276211840225654e6 0.0
0.0 0.0 0.0

-4.0958497235769685e6 2.6333499345282983e7 0.0
2.6333499345282983e7 1.1883544179365214e7 0.0
0.0 0.0 0.0

5.167033715678616e6 3.5946803249891385e7 0.0
3.5946803249891385e7 -4.372250787483264e6 0.0
0.0 0.0 0.0

-9.50660857723036e6 1.8117635951015707e7 0.0
1.8117635951015707e7 -5.462269007861752e7 0.0
0.0 0.0 0.0

-8.709440762607943e6 1.2066253560609154e7 0.0
1.2066253560609154e7 1.4911260757309373e7 0.0
0.0 0.0 0.0

1.4800839268408536e6 2.1035920780412715e7 0.0
2.1035920780412715e7 1.0264495799174588e7 0.0
0.0 0.0 0.0

5.3787797943835035e6 3.3885287643663086e7 0.0
3.3885287643663086e7 -5.1222749854683755e6 0.0
0.0 0.0 0.0

-1.4884755820064638e6 2.0993250397365652e7 0.0
2.0993250397365652e7 -1.8786060190289605e7 0.0
0.0 0.0 0.0

3.2344181431707237e6 3.3036523294587857e6 0.0
3.3036523294587857e6 -2.9512979742851503e7 0.0
0.0 0.0 0.0

-5.468615266006865e6 309911.32034786395 0.0
309911.32034786395 7.083783649843311e7 0.0
0.0 0.0 0.0

552481.4831783753 1.4971784908977332e7 0.0
1.4971784908977332e7 -3.211359683697354e7 0.0
0.0 0.0 0.0

3.0840304533143938e6 2.2699759200179208e7 0.0
2.2699759200179208e7 1.2978705950734412e7 0.0
0.0 0.0 0.0

-7.630650942069972e6 1.7250752668252412e7 0.0
1.7250752668252412e7 2.4564931825408086e7 0.0
0.0 0.0 0.0

1.0395921595387153e7 2.698534940428442e7 0.0
2.698534940428442e7 -4.520213361125376e6 0.0
0.0 0.0 0.0

2.4680144871579297e6 6.051029308957744e6 0.0
6.051029308957744e6 -2.4712754618935667e7 0.0
0.0 0.0 0.0

4.4622394417339275e6 2.3515131859363597e7 0.0
2.3515131859363597e7 -2.331405448827682e6 0.0
0.0 0.0 0.0

9.144797497963505e6 2.5283179083031934e7 0.0
2.5283179083031934e7 1.3878048094279043e7 0.0
0.0 0.0 0.0

1.3536202683789479e7 4.505692939273936e7 0.0
4.505692939273936e7 -7.609429288170244e6 0.0
0.0 0.0 0.0

3.6968138617104115e6 2.5504790692162097e7 0.0
2.5504790692162097e7 -9.022508292411864e6 0.0
0.0 0.0 0.0

3.8317417445115503e6 1.9353527900012698e7 0.0
1.9353527900012698e7 5.220183704995862e7 0.0
0.0 0.0 0.0

2.8751208976619374e6 1.5932219260096743e6 0.0
1.5932219260096743e6 -3.826172441475573e7 0.0
0.0 0.0 0.0

1.3407578131716908e6 3.4918145848762386e7 0.0
3.4918145848762386e7 -2.618783670438991e6 0.0
0.0 0.0 0.0

6.514236217251237e6 2.2366207458271805e7 0.0
2.2366207458271805e7 5.057032440388592e6 0.0
0.0 0.0 0.0

-7.527314977002221e7 2.1830191971634563e7 0.0
2.1830191971634563e7 2.267089288417086e6 0.0
0.0 0.0 0.0

-6.709039401672138e6 2.8650960442683306e7 0.0
2.8650960442683306e7 8.451542725199848e6 0.0
0.0 0.0 0.0

-7.965489088025157e6 1.1162710550260914e7 0.0
1.1162710550260914e7 1.6465213859544352e7 0.0
0.0 0.0 0.0

-470360.4360001497 1.8334147261815913e7 0.0
1.8334147261815913e7 -2.7500362649734423e7 0.0
0.0 0.0 0.0

-1.4235941157090068e6 2.1941870995423436e7 0.0
2.1941870995423436e7 1.7522922775249634e7 0.0
0.0 0.0 0.0

-4.082867949306504e6 1.808331938508302e7 0.0
1.808331938508302e7 -3.755815050245148e7 0.0
0.0 0.0 0.0

2.4183367669901587e6 2.6313319290464823e6 0.0
2.6313319290464823e6 -5.011515870166757e7 0.0
0.0 0.0 0.0

6.457343007990963e7 2.185902546347555e7 0.0
2.185902546347555e7 5.212403348001912e6 0.0
0.0 0.0 0.0

-1.308617900652756e8 4.8393997165479265e7 0.0
4.8393997165479265e7 -2.7528844585908398e7 0.0
0.0 0.0 0.0

1.6208708957183577e7 2.30173667823556e7 0.0
2.30173667823556e7 8.72694750795365e6 0.0
0.0 0.0 0.0

1.258660696768153e6 2.6196683822168592e7 0.0
2.6196683822168592e7 -9.599062725724652e6 0.0
0.0 0.0 0.0

-3.1409989291087454e6 2.3867359858916167e7 0.0
2.3867359858916167e7 1.5459241372774422e7 0.0
0.0 0.0 0.0

3.0159496685105953e6 3.2953223378297524e6 0.0
3.2953223378297524e6 -2.888847480514041e7 0.0
0.0 0.0 0.0

-7.9641073157093935e6 2.666003068825809e7 0.0
2.666003068825809e7 6.833470246058393e6 0.0
0.0 0.0 0.0

3.749003750989267e6 3.592899295661781e7 0.0
3.592899295661781e7 -2.149827738435397e6 0.0
0.0 0.0 0.0

-4.0300673535781456e6 1.940289408651587e7 0.0
1.940289408651587e7 -2.864066429450734e7 0.0
0.0 0.0 0.0

-802550.2833779983 2.6437963439688217e7 0.0
2.6437963439688217e7 -5.596211710866831e6 0.0
0.0 0.0 0.0

1.9558949019447002e6 5.67736450990824e6 0.0
5.67736450990824e6 -7.1132003485632725e6 0.0
0.0 0.0 0.0

1.2700835933525693e7 2.488401324871852e7 0.0
2.488401324871852e7 1.3700081429834288e7 0.0
0.0 0.0 0.0

-1.325656452411671e7 2.534025443913966e7 0.0
2.534025443913966e7 -2.743498151994804e6 0.0
0.0 0.0 0.0

887146.9344375944 2.1320634427798107e7 0.0
2.1320634427798107e7 -1.4775164265896626e7 0.0
0.0 0.0 0.0

-2.281533145411291e6 2.7169478321344033e7 0.0
2.7169478321344033e7 1.1658465180938425e6 0.0
0.0 0.0 0.0

456561.3695094269 1.5128859799149549e7 0.0
1.5128859799149549e7 -3.0423074854101863e7 0.0
0.0 0.0 0.0

-6.718095402741913e6 1.4329284474293103e6 0.0
1.4329284474293103e6 5.746050918939673e7 0.0
0.0 0.0 0.0

525530.4112606514 1.863603515524793e7 0.0
1.863603515524793e7 -1.9963223115374465e7 0.0
0.0 0.0 0.0

4.818420518506469e6 2.2339523211502492e7 0.0
2.2339523211502492e7 411713.7896013777 0.0
0.0 0.0 0.0

-1.73711649364934e7 2.1841109399294376e7 0.0
2.1841109399294376e7 -6.985065424683227e7 0.0
0.0 0.0 0.0

2.9028963999698274e6 6.890418787982171e6 0.0
6.890418787982171e6 -2.863942960870955e7 0.0
0.0 0.0 0.0

822930.8983566025 2.0435582367141593e7 0.0
2.0435582367141593e7 -1.93818950503222e7 0.0
0.0 0.0 0.0

-5.019698709269883e6 2.775518662610429e7 0.0
2.775518662610429e7 9.82197022264865e6 0.0
0.0 0.0 0.0

-388886.5132481743 3.118276298918925e7 0.0
3.118276298918925e7 -2.4043293741195225e6 0.0
0.0 0.0 0.0

-2.7244675244247126e6 2.516372948756683e7 0.0
2.516372948756683e7 1.1676644132054713e7 0.0
0.0 0.0 0.0

7.008335528047098e6 2.3184856379449338e7 0.0
2.3184856379449338e7 9.693748008657563e6 0.0
0.0 0.0 0.0

-9.429493905100577e7 2.896659325023332e7 0.0
2.896659325023332e7 -1.9095300612311736e6 0.0
0.0 0.0 0.0

-1.3291246824992585e6 923484.7878311689 0.0
923484.7878311689 821418.2116568292 0.0
0.0 0.0 0.0

-1.5527555353805274e6 1.9257330338728637e7 0.0
1.9257330338728637e7 -2.1180698080651797e6 0.0
0.0 0.0 0.0

1.515046336914786e7 2.308839241818105e7 0.0
2.308839241818105e7 4.268713134003998e6 0.0
0.0 0.0 0.0

-685619.3161773509 3.7710415370620735e7 0.0
3.7710415370620735e7 1.2203110144941362e6 0.0
0.0 0.0 0.0

-3.4733312481573056e6 1.6235903271567045e7 0.0
1.6235903271567045e7 -4.593545289091834e7 0.0
0.0 0.0 0.0

-3.4435459624409038e6 2.2967279813409563e7 0.0
2.2967279813409563e7 -8.56258554384331e6 0.0
0.0 0.0 0.0

4.796986128084169e6 2.6980863796891887e7 0.0
2.6980863796891887e7 -7.796118528598203e6 0.0
0.0 0.0 0.0

1.0348117201161971e6 1.6978496797256935e7 0.0
1.6978496797256935e7 -1.720342690762545e7 0.0
0.0 0.0 0.0

4.659329779435383e6 2.611879228900262e7 0.0
2.611879228900262e7 -7.643223432130527e6 0.0
0.0 0.0 0.0

816097.0616615582 2.13657709991172e7 0.0
2.13657709991172e7 1.0670731525312414e7 0.0
0.0 0.0 0.0

371857.1267326204 3.085294916785784e7 0.0
3.085294916785784e7 -1.8738599993277153e6 0.0
0.0 0.0 0.0

2.3057451110521853e6 1.0233491519878468e7 0.0
1.0233491519878468e7 -2.7784125028417148e7 0.0
0.0 0.0 0.0

2.360077387477912e6 2.8478887046738197e6 0.0
2.8478887046738197e6 -4.341163215596941e7 0.0
0.0 0.0 0.0

-1.5079251559857873e6 933537.0150990593 0.0
933537.0150990593 -695823.2451176799 0.0
0.0 0.0 0.0

-1.0024467293201338e7 769286.0973891922 0.0
769286.0973891922 2.7630413707776703e6 0.0
0.0 0.0 0.0

4.1906324138683886e6 2.281775780571277e7 0.0
2.281775780571277e7 1.5807965943329338e7 0.0
0.0 0.0 0.0

2.8980107791296234e6 1.986858685450043e7 0.0
1.986858685450043e7 1.4004884192428479e7 0.0
0.0 0.0 0.0

496735.7161657843 2.1136075392487515e7 0.0
2.1136075392487515e7 1.0672841252869839e7 0.0
0.0 0.0 0.0

2.5776528183271186e6 5.232375220978933e6 0.0
5.232375220978933e6 -1.8363088216072068e7 0.0
0.0 0.0 0.0

4.486806496883042e6 2.486111475857679e7 0.0
2.486111475857679e7 -7.052720016740186e6 0.0
0.0 0.0 0.0

2.2323433980269525e6 4.320629422774015e6 0.0
4.320629422774015e6 -8.537225427123174e6 0.0
0.0 0.0 0.0

4.0424036079185754e6 2.6184563103067223e7 0.0
2.6184563103067223e7 -8.443458085632177e6 0.0
0.0 0.0 0.0

-6.568831481772443e6 1.7813620783601876e7 0.0
1.7813620783601876e7 3.2436741015124794e7 0.0
0.0 0.0 0.0

1.9575371868247606e6 2.965399228652399e7 0.0
2.965399228652399e7 -5.045111031872585e6 0.0
0.0 0.0 0.0

6.070039599367222e6 3.4721930403789975e7 0.0
3.4721930403789975e7 -3.6067440157665676e6 0.0
0.0 0.0 0.0

2.24526790626801e6 7.640683821210925e6 0.0
7.640683821210925e6 -2.977777930880527e7 0.0
0.0 0.0 0.0

2.3343027782351673e6 6.166560372897014e6 0.0
6.166560372897014e6 -3.048165642338739e7 0.0
0.0 0.0 0.0

1.8337377747628577e7 2.5042393372197088e7 0.0
2.5042393372197088e7 1.4520855903510917e6 0.0
0.0 0.0 0.0

1.9818231356152883e6 2.0990481331903666e7 0.0
2.0990481331903666e7 2.878230301682216e7 0.0
0.0 0.0 0.0

390153.79588830844 1.930658069477023e7 0.0
1.930658069477023e7 -1.8636852165855296e7 0.0
0.0 0.0 0.0

-7.189798646561537e6 -2.0230771404804704e6 0.0
-2.0230771404804704e6 4.507241207887466e7 0.0
0.0 0.0 0.0

-675717.022154395 3.597190987728972e7 0.0
3.597190987728972e7 919648.448464019 0.0
0.0 0.0 0.0

-8.253370614560125e6 1.6711316363934163e7 0.0
1.6711316363934163e7 3.011232078172466e7 0.0
0.0 0.0 0.0

-8.973495368475666e6 -2.5666539951943243e6 0.0
-2.5666539951943243e6 1.996263651084952e7 0.0
0.0 0.0 0.0

-51354.71010057395 1.909164471184353e7 0.0
1.909164471184353e7 -1.1213080939608112e7 0.0
0.0 0.0 0.0

2.5439997946304083e6 2.9394698303532545e6 0.0
2.9394698303532545e6 -4.179360224415332e7 0.0
0.0 0.0 0.0

-5.064080613190778e6 3.2145710900677517e7 0.0
3.2145710900677517e7 5.783923877984984e6 0.0
0.0 0.0 0.0

-168383.3346511908 2.6125073103258662e7 0.0
2.6125073103258662e7 -5.1594602242497755e6 0.0
0.0 0.0 0.0

441194.75969496183 1.4571426261557449e7 0.0
1.4571426261557449e7 -3.223172627177433e7 0.0
0.0 0.0 0.0

1.932208083827932e7 2.251396184018607e7 0.0
2.251396184018607e7 7.379497032544473e6 0.0
0.0 0.0 0.0

-5.829451578283235e6 3.089507945062243e7 0.0
3.089507945062243e7 6.859712083187047e6 0.0
0.0 0.0 0.0

-8.154562186876982e6 -688971.8037526112 0.0
-688971.8037526112 4.298542528233625e7 0.0
0.0 0.0 0.0

-8.300404470161008e6 -3.0181076206019977e6 0.0
-3.0181076206019977e6 3.3121886564982187e7 0.0
0.0 0.0 0.0

6.486193503384257e6 2.274076212410427e7 0.0
2.274076212410427e7 967955.3040832696 0.0
0.0 0.0 0.0

1.5366593185283002e6 2.599135717680634e7 0.0
2.599135717680634e7 -9.292940299854685e6 0.0
0.0 0.0 0.0

2.00750285403398e6 2.667729384400274e7 0.0
2.667729384400274e7 -8.802263772780713e6 0.0
0.0 0.0 0.0

-4.689427031427659e6 7.636410601294919e6 0.0
7.636410601294919e6 6.354262568885468e7 0.0
0.0 0.0 0.0

3.337386493187124e6 2.5662536474563237e6 0.0
2.5662536474563237e6 -1.3596212534547035e7 0.0
0.0 0.0 0.0

-9.690581195823262e6 2.530773373437833e7 0.0
2.530773373437833e7 -2.8983668782042656e6 0.0
0.0 0.0 0.0

-1.651758260361559e7 2.561149720411437e7 0.0
2.561149720411437e7 -9.462960921151016e6 0.0
0.0 0.0 0.0

-3.443709697101654e7 3.1259312885569993e7 0.0
3.1259312885569993e7 -6.396540113895336e6 0.0
0.0 0.0 0.0

1.6912024610735858e6 3.653164327301035e7 0.0
3.653164327301035e7 -664796.6765076201 0.0
0.0 0.0 0.0

722110.3624548027 1.9465211964620426e7 0.0
1.9465211964620426e7 1.0727753713088974e6 0.0
0.0 0.0 0.0

-7.709890391330138e6 -73487.28155258815 0.0
-73487.28155258815 4.551605885815508e7 0.0
0.0 0.0 0.0

1.5524766846018687e7 2.465879805578477e7 0.0
2.465879805578477e7 1.3611644414447825e6 0.0
0.0 0.0 0.0

291706.6675734273 2.117826027211119e7 0.0
2.117826027211119e7 -1.1917340455542251e7 0.0
0.0 0.0 0.0

-8.73174736154061e6 420693.8097878412 0.0
420693.8097878412 3.531944613529008e7 0.0
0.0 0.0 0.0

-3.462027037774909e6 2.572098904206103e7 0.0
2.572098904206103e7 1.0392089325370915e7 0.0
0.0 0.0 0.0

-3.762136870533926e6 2.7333896715417307e7 0.0
2.7333896715417307e7 9.141679471034344e6 0.0
0.0 0.0 0.0

-6.447742245116234e6 -8582.129922050182 0.0
-8582.129922050182 8.271465231973591e6 0.0
0.0 0.0 0.0

2.461983704302177e6 5.238705833947871e6 0.0
5.238705833947871e6 -3.1773108556951597e7 0.0
0.0 0.0 0.0

-455482.37988236174 9.011741138421675e6 0.0
9.011741138421675e6 -5.677934512129795e7 0.0
0.0 0.0 0.0

9.180967590501409e6 2.4688893185064744e7 0.0
2.4688893185064744e7 1.4227118600320244e7 0.0
0.0 0.0 0.0

2.593645930692924e6 4.426270619764794e6 0.0
4.426270619764794e6 -1.2066115180565963e7 0.0
0.0 0.0 0.0

2.4537327668958146e7 3.417800558411666e7 0.0
3.417800558411666e7 -7.446580146318661e6 0.0
0.0 0.0 0.0

3.2289389979150984e6 4.457811285668631e6 0.0
4.457811285668631e6 -3.036787269393611e7 0.0
0.0 0.0 0.0

3.396101243602029e6 5.047555399498038e6 0.0
5.047555399498038e6 -2.056775417666342e7 0.0
0.0 0.0 0.0

2.797424865680499e6 4.7731848247256195e6 0.0
4.7731848247256195e6 -2.6722524214694176e7 0.0
0.0 0.0 0.0

1.100231628455896e6 2.0587341142473973e7 0.0
2.0587341142473973e7 3.1127063234963943e6 0.0
0.0 0.0 0.0

1.9686760055724238e6 1.993548172474827e7 0.0
1.993548172474827e7 1.0564388586489193e7 0.0
0.0 0.0 0.0

-233701.93462099507 1.7187919508193783e7 0.0
1.7187919508193783e7 -2.907068846450519e7 0.0
0.0 0.0 0.0

2.339843725411064e7 3.527417192073439e7 0.0
3.527417192073439e7 -6.045839920023708e6 0.0
0.0 0.0 0.0

-8.609224872054987e6 -1.0023241193924638e6 0.0
-1.0023241193924638e6 3.5207349131068096e7 0.0
0.0 0.0 0.0

-3.4608765193523327e6 2.591238320596642e7 0.0
2.591238320596642e7 1.2146220932668494e7 0.0
0.0 0.0 0.0

-1.9570421240057005e6 3.55862414861553e7 0.0
3.55862414861553e7 345438.0075583467 0.0
0.0 0.0 0.0

1.4516259443821053e6 2.9772690818784412e7 0.0
2.9772690818784412e7 -4.302626976766372e6 0.0
0.0 0.0 0.0

-8.47029314289946e6 -2.1951958642983125e6 0.0
-2.1951958642983125e6 2.5627146009554558e7 0.0
0.0 0.0 0.0

-1.009017729657184e7 -144915.71069316857 0.0
-144915.71069316857 1.8388963266706385e7 0.0
0.0 0.0 0.0

3.299247183514648e6 2.1117394918406986e7 0.0
2.1117394918406986e7 2.7655868282402948e7 0.0
0.0 0.0 0.0

-2.946527485799706e6 -1.240081067117337e6 0.0
-1.240081067117337e6 3.9500117591863913e6 0.0
0.0 0.0 0.0

9.045368535065759e6 2.7435525031160705e7 0.0
2.7435525031160705e7 -5.324591732035181e6 0.0
0.0 0.0 0.0

1.055345923926096e6 2.46730669503394e7 0.0
2.46730669503394e7 -1.1303664008959698e7 0.0
0.0 0.0 0.0

402446.13842652645 2.0287811043629568e7 0.0
2.0287811043629568e7 -2.06130846478541e7 0.0
0.0 0.0 0.0

-1.5765565449554627e6 2.5082529213047836e7 0.0
2.5082529213047836e7 844491.9428181429 0.0
0.0 0.0 0.0

-3.4111482645439967e6 2.4825678281331696e7 0.0
2.4825678281331696e7 1.1094926383410357e7 0.0
0.0 0.0 0.0

-8.178717720697099e6 1.6941018589000683e7 0.0
1.6941018589000683e7 2.631679602249643e7 0.0
0.0 0.0 0.0

-2.2501708438553307e7 4.522461411234907e7 0.0
4.522461411234907e7 6.463711598450072e6 0.0
0.0 0.0 0.0

2.8343635154584777e6 4.346463960833985e6 0.0
4.346463960833985e6 -1.2322664582538277e7 0.0
0.0 0.0 0.0

973636.2212495189 1.973649860505471e7 0.0
1.973649860505471e7 -1.701200955229928e7 0.0
0.0 0.0 0.0

1.4969311942688376e6 4.056636251565267e6 0.0
4.056636251565267e6 -6.106332416300252e7 0.0
0.0 0.0 0.0

4.487180510045625e6 2.6692042132483967e7 0.0
2.6692042132483967e7 -8.273832984452127e6 0.0
0.0 0.0 0.0

-6.945494575368677e6 1.4185995408870073e7 0.0
1.4185995408870073e7 1.5299860665854579e7 0.0
0.0 0.0 0.0

-9.996880908538869e6 1.7808910291496195e7 0.0
1.7808910291496195e7 -3.9517055651259795e7 0.0
0.0 0.0 0.0

3.7789200909296915e7 2.3625994796981975e7 0.0
2.3625994796981975e7 7.997598141837971e6 0.0
0.0 0.0 0.0

-9.982657052187528e6 3.3767047864398593e6 0.0
3.3767047864398593e6 2.0417482419719923e7 0.0
0.0 0.0 0.0

1.2416268414704531e7 2.3153320990399357e7 0.0
2.3153320990399357e7 1.0356375970039723e7 0.0
0.0 0.0 0.0

7.305397272676538e6 1.8093141773268975e7 0.0
1.8093141773268975e7 2.8437427261646006e7 0.0
0.0 0.0 0.0

-7.898899521868077e6 1.7858295242866747e7 0.0
1.7858295242866747e7 -2.5435242499870017e7 0.0
0.0 0.0 0.0

5.069600433326522e6 3.849734690951652e7 0.0
3.849734690951652e7 -3.9920720222784868e6 0.0
0.0 0.0 0.0

-93322.27748001693 2.623881312916817e7 0.0
2.623881312916817e7 -7.887929377043317e6 0.0
0.0 0.0 0.0

-4.957361608884503e6 1.944012844135248e7 0.0
1.944012844135248e7 2.058615641448349e7 0.0
0.0 0.0 0.0

-1.6125890517508239e6 8.986662772063432e6 0.0
8.986662772063432e6 -8.025368329727438e7 0.0
0.0 0.0 0.0

-1.0545088886470763e7 1.1532597694020339e6 0.0
1.1532597694020339e6 1.7507918598207816e7 0.0
0.0 0.0 0.0

-1.6156462341333742e6 2.0870497657607853e7 0.0
2.0870497657607853e7 -9.123667381871574e6 0.0
0.0 0.0 0.0

1.1585516452858247e7 2.4044161735087335e7 0.0
2.4044161735087335e7 1.2258536563695934e7 0.0
0.0 0.0 0.0

3.075963486376212e6 1.4710413244043812e7 0.0
1.4710413244043812e7 6.959965427484399e6 0.0
0.0 0.0 0.0

-3.490305166733276e6 2.3918095666131176e7 0.0
2.3918095666131176e7 1.6240578137300361e7 0.0
0.0 0.0 0.0

-2.98184374214328e6 2.9489459974812042e7 0.0
2.9489459974812042e7 5.639721189531001e6 0.0
0.0 0.0 0.0

-1.9557051820588585e7 4.6114124906731464e7 0.0
4.6114124906731464e7 7.77435781486537e6 0.0
0.0 0.0 0.0

923276.88478478 8.481378224370046e6 0.0
8.481378224370046e6 -6.744465000972439e6 0.0
0.0 0.0 0.0

-3.5092976064970884e6 2.915166591007544e7 0.0
2.915166591007544e7 5.142762941707635e6 0.0
0.0 0.0 0.0

-91918.0877531385 2.5041465507974267e7 0.0
2.5041465507974267e7 -7.80724173827418e6 0.0
0.0 0.0 0.0

1.7561465574551605e7 2.4259354589004524e7 0.0
2.4259354589004524e7 1.2297737585470883e7 0.0
0.0 0.0 0.0

500599.5933234468 2.85826547300784e7 0.0
2.85826547300784e7 -5.994304660132839e6 0.0
0.0 0.0 0.0

2.169299819865856e6 4.424143330522865e6 0.0
4.424143330522865e6 -9.59937514067477e6 0.0
0.0 0.0 0.0

450801.4126462154 2.156842312371434e7 0.0
2.156842312371434e7 -1.5185633924091294e7 0.0
0.0 0.0 0.0

-1.012269716622812e7 3.203895173160324e6 0.0
3.203895173160324e6 2.709115361006907e7 0.0
0.0 0.0 0.0

3.065686813300358e6 6.032752483156547e6 0.0
6.032752483156547e6 -2.9737596426643413e7 0.0
0.0 0.0 0.0

1.3648813831349723e6 4.9576615407382e6 0.0
4.9576615407382e6 -6.620159721635578e7 0.0
0.0 0.0 0.0

3.812260830019716e6 2.386391887338455e7 0.0
2.386391887338455e7 1.3963670854417032e7 0.0
0.0 0.0 0.0

791024.4443124216 2.1464614770928625e7 0.0
2.1464614770928625e7 -1.7880317559001956e7 0.0
0.0 0.0 0.0

-5.474095038098709e6 1.9747080432761125e7 0.0
1.9747080432761125e7 1.842733428464063e7 0.0
0.0 0.0 0.0

3.422406307320729e6 2.0113528404616558e6 0.0
2.0113528404616558e6 -2.5456719316901922e7 0.0
0.0 0.0 0.0

1.26113392490171e6 1.7211265884948023e7 0.0
1.7211265884948023e7 -2.2268737634286992e7 0.0
0.0 0.0 0.0

-155379.41276742145 1.9521923117833517e7 0.0
1.9521923117833517e7 -2.1887897414556805e7 0.0
0.0 0.0 0.0

-4.825468031551451e6 2.078760965664829e7 0.0
2.078760965664829e7 1.7508362380634926e7 0.0
0.0 0.0 0.0

417539.64182196313 9.796970180250622e6 0.0
9.796970180250622e6 4.212230274807382e6 0.0
0.0 0.0 0.0

-9.177141357805155e6 -337522.8339634499 0.0
-337522.8339634499 2.917106243106859e7 0.0
0.0 0.0 0.0

300545.4402781902 2.062099319510459e7 0.0
2.062099319510459e7 -1.8778349657458458e7 0.0
0.0 0.0 0.0

-6.893682753563291e6 1.2901835600628745e7 0.0
1.2901835600628745e7 1.6277926635856425e7 0.0
0.0 0.0 0.0

1.6189200577487757e7 2.2148356338193472e7 0.0
2.2148356338193472e7 1.1144461043019831e7 0.0
0.0 0.0 0.0

1.1949098426501793e6 2.5389026824536175e7 0.0
2.5389026824536175e7 -1.0582209808541212e7 0.0
0.0 0.0 0.0

2.360273721268173e6 4.413197919710655e6 0.0
4.413197919710655e6 -8.276108654890691e6 0.0
0.0 0.0 0.0

-7.744822095430126e6 6.99312674951127e6 0.0
6.99312674951127e6 4.604465773419653e7 0.0
0.0 0.0 0.0

-2.0887779234223678e6 3.2241629559687395e7 0.0
3.2241629559687395e7 845046.3513130742 0.0
0.0 0.0 0.0

-1.0304436654856585e7 3.372796748097016e7 0.0
3.372796748097016e7 5.685434452282669e6 0.0
0.0 0.0 0.0

-1.1604987326050257e7 4.6665040710849445e6 0.0
4.6665040710849445e6 1.7801368514160454e7 0.0
0.0 0.0 0.0

-8.969558573072337e6 2.243228034662263e6 0.0
2.243228034662263e6 3.7000322412405215e7 0.0
0.0 0.0 0.0

24028.50815504417 1.5263809393612899e7 0.0
1.5263809393612899e7 -3.2518120797925897e7 0.0
0.0 0.0 0.0

-3.7138992187259505e6 2.1362500706923235e7 0.0
2.1362500706923235e7 1.8118513439765908e7 0.0
0.0 0.0 0.0

-7.807787479114182e6 8.291730944254389e6 0.0
8.291730944254389e6 4.6642333000287674e7 0.0
0.0 0.0 0.0

-7.25219355379455e7 2.272742649579771e7 0.0
2.272742649579771e7 3.672452181945268e6 0.0
0.0 0.0 0.0

909912.377345304 1.4251010047733858e7 0.0
1.4251010047733858e7 -1.985238991058912e7 0.0
0.0 0.0 0.0

1.0343730427494944e6 2.05460771075027e7 0.0
2.05460771075027e7 497303.05758186145 0.0
0.0 0.0 0.0

2.719798563838534e6 1.5203700281325139e6 0.0
1.5203700281325139e6 -4.087044537540781e7 0.0
0.0 0.0 0.0

5.342514732637908e6 2.085177935982804e7 0.0
2.085177935982804e7 1.6385508822513837e7 0.0
0.0 0.0 0.0

-8.855072223699199e6 8.55686084419011e6 0.0
8.55686084419011e6 4.317492242055601e7 0.0
0.0 0.0 0.0

952397.1356649715 7.123860791888528e6 0.0
7.123860791888528e6 -8.862138084064227e6 0.0
0.0 0.0 0.0

-9341.710269617382 2.5087673370595686e7 0.0
2.5087673370595686e7 -7.806996502721006e6 0.0
0.0 0.0 0.0

-2.0825858221199336e6 2.84475466088296e7 0.0
2.84475466088296e7 487512.41443709284 0.0
0.0 0.0 0.0

-2.6175100754685486e6 2.384672327078532e7 0.0
2.384672327078532e7 1.1017225822168631e7 0.0
0.0 0.0 0.0

-7.151129373594206e6 3.2961671338204063e7 0.0
3.2961671338204063e7 5.514387779942714e6 0.0
0.0 0.0 0.0

-2.4772598793458687e6 2.301467082527369e7 0.0
2.301467082527369e7 864134.2978075098 0.0
0.0 0.0 0.0

-7.266229121551111e6 751276.9786192172 0.0
751276.9786192172 5.145740969199113e7 0.0
0.0 0.0 0.0

3.8918803685488263e6 2.0605204751854822e7 0.0
2.0605204751854822e7 2.5226683301842965e7 0.0
0.0 0.0 0.0

1.0806493082517786e6 1.943235958665217e7 0.0
1.943235958665217e7 -1.8722823579454906e7 0.0
0.0 0.0 0.0

-2.048117927052421e7 2.9208200286518525e7 0.0
2.9208200286518525e7 -8.742609618002558e6 0.0
0.0 0.0 0.0

-7.796241145310525e6 -1.60346100726214e6 0.0
-1.60346100726214e6 1.245473732796339e7 0.0
0.0 0.0 0.0

-1.4285619275744858e6 3.4825192386586174e7 0.0
3.4825192386586174e7 1.7582266195038422e6 0.0
0.0 0.0 0.0

342802.6742696287 1.9698168125752002e7 0.0
1.9698168125752002e7 -1.8455545495958244e6 0.0
0.0 0.0 0.0

-6.325744716411613e6 1.8708324036020264e7 0.0
1.8708324036020264e7 3.0460198455112427e7 0.0
0.0 0.0 0.0

2.149439362699546e6 1.2512109460369367e7 0.0
1.2512109460369367e7 -2.640373483985147e7 0.0
0.0 0.0 0.0

-7.280471372076828e6 1.814640500176036e7 0.0
1.814640500176036e7 2.7412758444408096e7 0.0
0.0 0.0 0.0

1.846447099875344e6 4.543759580458108e6 0.0
4.543759580458108e6 -7.979425610209575e6 0.0
0.0 0.0 0.0

2.844962524068143e6 7.56389368726838e6 0.0
7.56389368726838e6 -2.9328931826992974e7 0.0
0.0 0.0 0.0

-3.2524719257821003e6 2.293289437464e7 0.0
2.293289437464e7 -1.0118478670580616e7 0.0
0.0 0.0 0.0

-2.0501305918448942e6 2.4514083688732546e7 0.0
2.4514083688732546e7 2.923838208109158e6 0.0
0.0 0.0 0.0

-1.6003431591555346e6 2.8511518672016554e7 0.0
2.8511518672016554e7 2.0790597480740692e6 0.0
0.0 0.0 0.0

4.872809157065569e6 2.5938473053025093e7 0.0
2.5938473053025093e7 -8.052814207948439e6 0.0
0.0 0.0 0.0

3.271085277126644e6 5.142404372602624e6 0.0
5.142404372602624e6 -2.6598385096467942e7 0.0
0.0 0.0 0.0

1.2483447222549422e6 4.470333019034365e6 0.0
4.470333019034365e6 -5.1743634034504695e6 0.0
0.0 0.0 0.0

2.128654118178649e6 6.738620796794302e6 0.0
6.738620796794302e6 -3.1238095155426674e7 0.0
0.0 0.0 0.0

1.8582280584410895e6 7.063972085456995e6 0.0
7.063972085456995e6 -9.186977698849082e6 0.0
0.0 0.0 0.0

2.181024792531527e7 2.224467398949943e7 0.0
2.224467398949943e7 9.719339158305775e6 0.0
0.0 0.0 0.0

-2.8556303283910127e6 3.8832100062184624e7 0.0
3.8832100062184624e7 2.5541087404527618e6 0.0
0.0 0.0 0.0

-7.990346596254058e6 -639180.4425924198 0.0
-639180.4425924198 4.122299913057786e7 0.0
0.0 0.0 0.0

898735.5193777606 8.907140356517045e6 0.0
8.907140356517045e6 -5.225038023404491e7 0.0
0.0 0.0 0.0

3.955611160903226e6 2.6807543190387953e7 0.0
2.6807543190387953e7 -8.452642810398355e6 0.0
0.0 0.0 0.0

-2.5420132608269625e6 2.276664399546785e7 0.0
2.276664399546785e7 -1.16449326054425e7 0.0
0.0 0.0 0.0

1.5486864853883926e6 7.9549303965214975e6 0.0
7.9549303965214975e6 -3.923905497327233e7 0.0
0.0 0.0 0.0

-7.604651637865451e6 3.8411345673106e7 0.0
3.8411345673106e7 5.02310791225894e6 0.0
0.0 0.0 0.0

9.585857675548367e6 2.4393722043000534e7 0.0
2.4393722043000534e7 1.281035885614302e7 0.0
0.0 0.0 0.0

-4.3672124946749076e7 4.298351453254815e7 0.0
4.298351453254815e7 7.107945636327287e6 0.0
0.0 0.0 0.0

-1.6029442025793372e6 2.1092905115907904e7 0.0
2.1092905115907904e7 2.458750535501838e7 0.0
0.0 0.0 0.0

1.9393559158619195e6 1.1356004908529004e7 0.0
1.1356004908529004e7 -2.716437543246107e7 0.0
0.0 0.0 0.0

8.549992371359248e7 2.764447788565347e7 0.0
2.764447788565347e7 1.1545062481052801e7 0.0
0.0 0.0 0.0

6.6624979910443695e6 2.214568513938939e7 0.0
2.214568513938939e7 1.8578675924693007e7 0.0
0.0 0.0 0.0

-1.0450894872263907e7 4.40137604295642e6 0.0
4.40137604295642e6 2.801672837095004e7 0.0
0.0 0.0 0.0

2.237867857214692e6 2.0516920860596444e7 0.0
2.0516920860596444e7 1.1104858846667787e7 0.0
0.0 0.0 0.0

-3.4080750353697864e6 1.880595069355841e7 0.0
1.880595069355841e7 -2.7728836165547475e7 0.0
0.0 0.0 0.0

1.0717471711173926e7 2.7016779019564033e7 0.0
2.7016779019564033e7 -4.431678898059178e6 0.0
0.0 0.0 0.0

-2.616036080554929e6 2.43508028761274e7 0.0
2.43508028761274e7 8.853019988014393e6 0.0
0.0 0.0 0.0

-8.879713517970093e6 6.966243260948587e6 0.0
6.966243260948587e6 4.222506447833278e7 0.0
0.0 0.0 0.0

-6.8699753666034015e6 3.926077969450857e7 0.0
3.926077969450857e7 3.7439796014329675e6 0.0
0.0 0.0 0.0

-8.60671869569207e6 2.5657909089553345e7 0.0
2.5657909089553345e7 5.043361718208395e6 0.0
0.0 0.0 0.0

-2.299434146602989e6 2.807815202598077e7 0.0
2.807815202598077e7 1.3661336755634863e6 0.0
0.0 0.0 0.0

4.095754551153281e6 3.241259312655624e7 0.0
3.241259312655624e7 -4.436748007772699e6 0.0
0.0 0.0 0.0

-2.0604603015235262e6 3.152408759400622e7 0.0
3.152408759400622e7 787810.4885857999 0.0
0.0 0.0 0.0

178888.0412762306 2.0839777470980283e7 0.0
2.0839777470980283e7 342310.2507119876 0.0
0.0 0.0 0.0

273222.8806589851 2.1953859008226097e7 0.0
2.1953859008226097e7 2.1367594627633084e7 0.0
0.0 0.0 0.0

2.806493350278139e6 2.28409590679621e7 0.0
2.28409590679621e7 776548.5763415518 0.0
0.0 0.0 0.0

-9.907278195398506e6 1.8852347722264417e7 0.0
1.8852347722264417e7 -4.84578580314746e7 0.0
0.0 0.0 0.0

93499.66363354505 2.081827608166251e7 0.0
2.081827608166251e7 2.71055290562422e6 0.0
0.0 0.0 0.0

-2.4119789991213838e6 2.4470386599098615e7 0.0
2.4470386599098615e7 1.4253769254510077e6 0.0
0.0 0.0 0.0

5.46945262573658e6 1.7187322459024098e7 0.0
1.7187322459024098e7 1.4659025762718804e7 0.0
0.0 0.0 0.0

1.0689041453357842e6 2.318004255233964e7 0.0
2.318004255233964e7 -1.3257802999939349e7 0.0
0.0 0.0 0.0

728459.2774084825 1.678221592054524e7 0.0
1.678221592054524e7 -2.3607839100741565e7 0.0
0.0 0.0 0.0

3.236912419588983e6 4.44576165703294e6 0.0
4.44576165703294e6 -2.780762507175622e7 0.0
0.0 0.0 0.0

5.543721158384777e6 2.1789756247170527e7 0.0
2.1789756247170527e7 1.5061265424895236e7 0.0
0.0 0.0 0.0

-1.5183959115385395e6 2.3028747470846158e7 0.0
2.3028747470846158e7 1.4376396385198079e7 0.0
0.0 0.0 0.0

-6.955560911249269e6 1.8522206216939874e7 0.0
1.8522206216939874e7 2.7513430701523837e7 0.0
0.0 0.0 0.0

-2.3999361731226533e6 2.354909498354411e7 0.0
2.354909498354411e7 1.0105724402078185e7 0.0
0.0 0.0 0.0

-4.820409675993863e6 2.310769872221234e7 0.0
2.310769872221234e7 -1.0475660264952756e7 0.0
0.0 0.0 0.0

-7.240468302811479e6 1.8772753261574343e7 0.0
1.8772753261574343e7 2.5872734151655853e7 0.0
0.0 0.0 0.0

-7.188280629812999e6 1.8154375912202735e7 0.0
1.8154375912202735e7 3.0328626523636244e7 0.0
0.0 0.0 0.0

-8.656760944534251e6 1.70491028159737e7 0.0
1.70491028159737e7 2.4349560186957426e7 0.0
0.0 0.0 0.0

-8.90962831085021e6 -1.7101311185094654e6 0.0
-1.7101311185094654e6 2.882321820139986e7 0.0
0.0 0.0 0.0

-2.8077799885639483e6 2.599753723827559e7 0.0
2.599753723827559e7 1.0492622189574443e7 0.0
0.0 0.0 0.0

-4.407657431269441e6 1.7697495080166277e7 0.0
1.7697495080166277e7 -4.1034194712106995e7 0.0
0.0 0.0 0.0

-693134.9670577422 1.710601510273874e7 0.0
1.710601510273874e7 -2.8993132877106704e7 0.0
0.0 0.0 0.0

-3.4022713944124326e7 3.369188203312558e7 0.0
3.369188203312558e7 -1.1745590785157911e7 0.0
0.0 0.0 0.0

-6.818325151793417e6 5.701274173220501e6 0.0
5.701274173220501e6 5.242272138491704e7 0.0
0.0 0.0 0.0

-36538.641468428075 1.7751740552198935e7 0.0
1.7751740552198935e7 -2.7156866071683154e7 0.0
0.0 0.0 0.0

-659971.724122054 3.244400390953942e7 0.0
3.244400390953942e7 -1.3796579338485396e6 0.0
0.0 0.0 0.0

3.671598396651363e6 2.035793581421694e7 0.0
2.035793581421694e7 1.952132192414214e7 0.0
0.0 0.0 0.0

-8.533031014047647e6 -4.127910912896531e6 0.0
-4.127910912896531e6 2.480563932773498e7 0.0
0.0 0.0 0.0

-350269.8587464103 2.056040999613813e7 0.0
2.056040999613813e7 -2.196567067905793e6 0.0
0.0 0.0 0.0

-817110.5802290752 2.254217591816478e7 0.0
2.254217591816478e7 -9.966870901841031e6 0.0
0.0 0.0 0.0

-1.2033814073656023e7 8.888181425015667e6 0.0
8.888181425015667e6 1.928255575446815e7 0.0
0.0 0.0 0.0

2.1187100867480785e6 1.3100019542241353e6 0.0
1.3100019542241353e6 -5.200615977467381e7 0.0
0.0 0.0 0.0

-92576.78915005224 1.1236899271191103e7 0.0
1.1236899271191103e7 -1.0030825304696538e7 0.0
0.0 0.0 0.0

-1.0198259216780528e7 3.457703635970515e6 0.0
3.457703635970515e6 3.393879615085414e7 0.0
0.0 0.0 0.0

1.6937733037456544e6 2.3744314330013495e7 0.0
2.3744314330013495e7 -1.2790285952793213e7 0.0
0.0 0.0 0.0

7.300596794967696e6 1.9876352615656625e7 0.0
1.9876352615656625e7 3.592813773762582e7 0.0
0.0 0.0 0.0

-120045.47794079315 1.0770070157994287e7 0.0
1.0770070157994287e7 -5.15590896230779e6 0.0
0.0 0.0 0.0

1.0097724026362969e7 2.4386617933283605e7 0.0
2.4386617933283605e7 1.4585685021711353e7 0.0
0.0 0.0 0.0

-3.5987085411940366e6 3.9798857988820024e7 0.0
3.9798857988820024e7 2.825575429925953e6 0.0
0.0 0.0 0.0

-1.1291144848790055e7 4.692729783804485e6 0.0
4.692729783804485e6 2.486942824537324e7 0.0
0.0 0.0 0.0

1.0436090357471323e6 2.102821881599456e7 0.0
2.102821881599456e7 2.364238183663049e7 0.0
0.0 0.0 0.0

1.3633247221012749e6 1.1707681956578236e7 0.0
1.1707681956578236e7 -2.7710084297635328e7 0.0
0.0 0.0 0.0

-2.4079757694978457e7 2.9818338802203536e7 0.0
2.9818338802203536e7 1.4116430032671299e6 0.0
0.0 0.0 0.0

-8.590608662167694e6 -2.419041695017129e6 0.0
-2.419041695017129e6 1.6455178832979988e7 0.0
0.0 0.0 0.0

-1.3448651408378378e7 2.5049943818290494e7 0.0
2.5049943818290494e7 -9.17375250806688e6 0.0
0.0 0.0 0.0

3.824026430412037e7 2.5270799648818962e7 0.0
2.5270799648818962e7 8.759688536444712e6 0.0
0.0 0.0 0.0

-578796.5194804955 2.5232947255822957e7 0.0
2.5232947255822957e7 -7.676217511774252e6 0.0
0.0 0.0 0.0

2.003899501644455e6 1.2006865235312719e7 0.0
1.2006865235312719e7 -2.5678642843077324e7 0.0
0.0 0.0 0.0

-4.0797111444357364e6 2.6230410783865474e7 0.0
2.6230410783865474e7 1.1777587408225589e7 0.0
0.0 0.0 0.0

-6.499521760481749e6 1.3647840542264173e6 0.0
1.3647840542264173e6 5.852854946039957e7 0.0
0.0 0.0 0.0

-5.182285187356611e6 2.283354669337381e7 0.0
2.283354669337381e7 -1.528798398476259e7 0.0
0.0 0.0 0.0

-1.5176798373112134e6 3.56004880230462e7 0.0
3.56004880230462e7 1.84324934356939e6 0.0
0.0 0.0 0.0

-2.66481789964759e6 1.6022551538702097e7 0.0
1.6022551538702097e7 -4.00333144420022e7 0.0
0.0 0.0 0.0

66113.2245569313 2.052221673526947e7 0.0
2.052221673526947e7 -2.0468514120421953e7 0.0
0.0 0.0 0.0

28637.69209215697 1.9762285634207048e7 0.0
1.9762285634207048e7 -2.217163114829486e7 0.0
0.0 0.0 0.0

-7.41777830299492e6 1.5027456719464052e7 0.0
1.5027456719464052e7 3.760332795197487e7 0.0
0.0 0.0 0.0

-2.8071246826289706e6 2.4784712346469186e7 0.0
2.4784712346469186e7 9.34586761329109e6 0.0
0.0 0.0 0.0

-5.149480080678761e6 1.2894710556177404e7 0.0
1.2894710556177404e7 1.0634130942188928e8 0.0
0.0 0.0 0.0

2.9635090565925613e6 1.2972088829783013e7 0.0
1.2972088829783013e7 -1.0520742243716317e8 0.0
0.0 0.0 0.0

-1.9360708466249242e7 2.925450974417164e7 0.0
2.925450974417164e7 -1.244488050697727e7 0.0
0.0 0.0 0.0

-2.0170456619620537e6 2.214523529881181e7 0.0
2.214523529881181e7 1.5433506305850126e7 0.0
0.0 0.0 0.0

-2.86553772533665e7 3.0522802504452955e7 0.0
3.0522802504452955e7 -4.259643840737539e6 0.0
0.0 0.0 0.0

-8.749212250102695e6 -2.370606452867561e6 0.0
-2.370606452867561e6 2.0461272331462752e7 0.0
0.0 0.0 0.0

-6.52622740605407e6 1.965661989626784e7 0.0
1.965661989626784e7 2.302651866732242e7 0.0
0.0 0.0 0.0

-1.5141651053226996e7 2.65519968417146e7 0.0
2.65519968417146e7 -7.335303498337429e6 0.0
0.0 0.0 0.0

-9.263988008443609e6 4.6935612880284e6 0.0
4.6935612880284e6 3.623759111770315e7 0.0
0.0 0.0 0.0

3.582589674067128e7 2.2750516974069256e7 0.0
2.2750516974069256e7 7.935707870735594e6 0.0
0.0 0.0 0.0

1.4685502162024928e6 2.0702037388874426e7 0.0
2.0702037388874426e7 2.8367361508108642e7 0.0
0.0 0.0 0.0

-3.61603723005398e6 2.1052550246824637e7 0.0
2.1052550246824637e7 1.7832725826699823e7 0.0
0.0 0.0 0.0

-2.774723114507108e7 4.224733015464247e7 0.0
4.224733015464247e7 9.535624449870279e6 0.0
0.0 0.0 0.0

5.326017739268215e6 2.344775793915969e7 0.0
2.344775793915969e7 6.156488194992947e6 0.0
0.0 0.0 0.0

3.8770452828446887e6 2.2211155291272707e7 0.0
2.2211155291272707e7 -1.0464645671330097e6 0.0
0.0 0.0 0.0

-4.874985449423457e6 2.779025784927214e7 0.0
2.779025784927214e7 9.865424470273446e6 0.0
0.0 0.0 0.0

-9.014216036237458e6 2.458052994487298e7 0.0
2.458052994487298e7 -709942.5742425602 0.0
0.0 0.0 0.0

-1.2063623408980381e6 2.0690635380521115e7 0.0
2.0690635380521115e7 -2.474587918263992e6 0.0
0.0 0.0 0.0

3.7873681576610166e6 2.3109789655614275e7 0.0
2.3109789655614275e7 -3.114156317477718e6 0.0
0.0 0.0 0.0

4.850157186828075e6 2.3190372766423304e7 0.0
2.3190372766423304e7 1.4721437958927928e7 0.0
0.0 0.0 0.0

5.979020389258067e6 3.693386147653402e7 0.0
3.693386147653402e7 -2.7811535856166794e6 0.0
0.0 0.0 0.0

-3.3747366491817804e6 2.5702542290402528e7 0.0
2.5702542290402528e7 1.135739251667739e7 0.0
0.0 0.0 0.0

-5.678502427680965e6 3.929491134042428e7 0.0
3.929491134042428e7 2.013989190843686e6 0.0
0.0 0.0 0.0

-8.408465725191154e6 1.807562690659427e7 0.0
1.807562690659427e7 -5.3208124923937246e7 0.0
0.0 0.0 0.0

-1.8279476148610946e7 2.100690413480941e7 0.0
2.100690413480941e7 -9.858610758171356e7 0.0
0.0 0.0 0.0

1.7276329038043983e7 2.198760526590259e7 0.0
2.198760526590259e7 9.815138695889272e7 0.0
0.0 0.0 0.0

7.566268311010644e6 2.0289112303819813e7 0.0
2.0289112303819813e7 3.446426077161491e7 0.0
0.0 0.0 0.0

113854.51529096067 1.0767583287197389e7 0.0
1.0767583287197389e7 -4.517315604589881e7 0.0
0.0 0.0 0.0

3.3792201916465694e6 3.6444417237135656e7 0.0
3.6444417237135656e7 -3.437144527433656e6 0.0
0.0 0.0 0.0

1.5427174619027562e6 2.5234355965102125e7 0.0
2.5234355965102125e7 -1.0338426854018982e7 0.0
0.0 0.0 0.0

-1.26326739609097e6 2.161062568865033e7 0.0
2.161062568865033e7 -7.803470470339212e6 0.0
0.0 0.0 0.0

1.7814071467885245e6 2.424871373356185e7 0.0
2.424871373356185e7 -1.1998300073882695e7 0.0
0.0 0.0 0.0

-3.6059229188577585e7 4.521861786915573e7 0.0
4.521861786915573e7 1.0668143391018521e7 0.0
0.0 0.0 0.0

-2.9014563950111135e6 3.519376289284051e7 0.0
3.519376289284051e7 1.2253971597750122e6 0.0
0.0 0.0 0.0

-6.9752306705295965e6 2.8543771982390136e7 0.0
2.8543771982390136e7 8.281714852189386e6 0.0
0.0 0.0 0.0

1.7238149069604427e6 3.1964421772143627e6 0.0
3.1964421772143627e6 -5.539624335417879e7 0.0
0.0 0.0 0.0

1.1654001574880287e7 2.788167541788131e7 0.0
2.788167541788131e7 -4.820803060125793e6 0.0
0.0 0.0 0.0

-2.473766175254302e6 1.6641289454462599e7 0.0
1.6641289454462599e7 -3.7371095092922024e7 0.0
0.0 0.0 0.0

1.0253090859481523e7 2.8454970050639246e7 0.0
2.8454970050639246e7 -5.3778798952253945e6 0.0
0.0 0.0 0.0

-648516.5810807487 1.9891718182230894e7 0.0
1.9891718182230894e7 -1.3729866756353064e6 0.0
0.0 0.0 0.0

1.9079286477147043e6 2.174695198451189e7 0.0
2.174695198451189e7 2.455677455541756e7 0.0
0.0 0.0 0.0

-5.481866375409378e6 3.0952544868076894e7 0.0
3.0952544868076894e7 6.100054361447079e6 0.0
0.0 0.0 0.0

-8.870400465617431e6 -783312.5742938322 0.0
-783312.5742938322 3.441249421101769e7 0.0
0.0 0.0 0.0

1.9042673400986813e7 2.304104646248939e7 0.0
2.304104646248939e7 3.9849494017479275e6 0.0
0.0 0.0 0.0

-8.219247565817267e7 3.0098152606358677e7 0.0
3.0098152606358677e7 134419.8023778759 0.0
0.0 0.0 0.0

-8.119483467624746e6 1.5308835281033644e7 0.0
1.5308835281033644e7 3.505321789748165e7 0.0
0.0 0.0 0.0

-6.882903881554432e6 2.558050561578956e7 0.0
2.558050561578956e7 5.532299319344872e6 0.0
0.0 0.0 0.0

4.8761873136854265e6 2.3360972422814928e7 0.0
2.3360972422814928e7 86171.00503525813 0.0
0.0 0.0 0.0

3.058368540997751e6 3.039138678020142e6 0.0
3.039138678020142e6 -3.595901508273409e7 0.0
0.0 0.0 0.0

-2.61369600573746e6 2.2892494446569208e7 0.0
2.2892494446569208e7 1.2070598319780493e7 0.0
0.0 0.0 0.0

-7.1517927639381215e6 631504.2074059307 0.0
631504.2074059307 5.209132147820725e7 0.0
0.0 0.0 0.0

-1.8882464101728566e7 2.5329001026685946e7 0.0
2.5329001026685946e7 -1.0490456082059312e8 0.0
0.0 0.0 0.0

1.7372604709491476e7 2.680756626294247e7 0.0
2.680756626294247e7 1.0295115334367186e8 0.0
0.0 0.0 0.0

76957.62528497353 1.4533392635063684e7 0.0
1.4533392635063684e7 -3.386510823262314e7 0.0
0.0 0.0 0.0

562166.258840035 4.702097698944145e6 0.0
4.702097698944145e6 -5.298984424288101e6 0.0
0.0 0.0 0.0

1.4236294068071753e7 2.0349574802843444e7 0.0
2.0349574802843444e7 6.572267267753584e6 0.0
0.0 0.0 0.0

-6.680179847564839e6 2.072816601896544e6 0.0
2.072816601896544e6 5.891030072428922e7 0.0
0.0 0.0 0.0

761900.8370915372 8.793874909373043e6 0.0
8.793874909373043e6 -8.1586788671696875e6 0.0
0.0 0.0 0.0

7.4743850408808105e6 3.502237160318646e7 0.0
3.502237160318646e7 -4.485309175022457e6 0.0
0.0 0.0 0.0

360910.15973687544 2.0910891019481674e7 0.0
2.0910891019481674e7 -1.621432479569161e7 0.0
0.0 0.0 0.0

5.408992262788169e6 2.0482290253230724e7 0.0
2.0482290253230724e7 2.4599316063700043e7 0.0
0.0 0.0 0.0

-7.155277995925817e6 2.5309113900509283e7 0.0
2.5309113900509283e7 347694.0084715546 0.0
0.0 0.0 0.0

-3.3871224385554545e7 2.8348139789177984e7 0.0
2.8348139789177984e7 -7.739870991159849e6 0.0
0.0 0.0 0.0

-3.4119915187903238e6 3.462865422573524e7 0.0
3.462865422573524e7 1.9703525873684806e6 0.0
0.0 0.0 0.0

1.5695974432823984e6 2.1166549054554373e7 0.0
2.1166549054554373e7 1.3562650869356055e7 0.0
0.0 0.0 0.0

-858410.8123309026 2.2442632190311506e7 0.0
2.2442632190311506e7 1.8028346672982562e7 0.0
0.0 0.0 0.0

1.0067133859819239e6 1.775045230284729e7 0.0
1.775045230284729e7 -2.2738921244518235e7 0.0
0.0 0.0 0.0

1.8550058257355383e6 2.3501970970239732e7 0.0
2.3501970970239732e7 -1.2581447669825094e7 0.0
0.0 0.0 0.0

-7.16877052785008e6 3.727997180284236e6 0.0
3.727997180284236e6 5.678053581522794e7 0.0
0.0 0.0 0.0

-2.9974958381649945e7 4.586605456202108e7 0.0
4.586605456202108e7 7.61988615816726e6 0.0
0.0 0.0 0.0

-1.390008267993246e7 3.60340927386263e7 0.0
3.60340927386263e7 5.860900425544769e6 0.0
0.0 0.0 0.0

-3.3447785691869475e7 3.108121805918847e7 0.0
3.108121805918847e7 -3.0868400829780325e6 0.0
0.0 0.0 0.0

235288.80363102304 2.1539641310147386e7 0.0
2.1539641310147386e7 4.774466960826192e6 0.0
0.0 0.0 0.0

-1.0521632103343008e7 2.605960159931272e7 0.0
2.605960159931272e7 -1.591754974486505e6 0.0
0.0 0.0 0.0

-1.9954768076566577e7 2.8353470701249003e7 0.0
2.8353470701249003e7 -8.598575447488595e6 0.0
0.0 0.0 0.0

1.5799550330576617e6 7.895893532799584e6 0.0
7.895893532799584e6 -7.745156191438231e6 0.0
0.0 0.0 0.0

4.4845934639397515e6 2.073093690927858e7 0.0
2.073093690927858e7 2.5441381572657187e7 0.0
0.0 0.0 0.0

1.1715344704374578e6 9.87545039084221e6 0.0
9.87545039084221e6 -4.429169256451414e7 0.0
0.0 0.0 0.0

-6.962717749548908e6 1.6251335149871241e7 0.0
1.6251335149871241e7 3.62099824901936e7 0.0
0.0 0.0 0.0

-6.184601098792486e6 1.6933774045808376e6 0.0
1.6933774045808376e6 6.011164151856616e7 0.0
0.0 0.0 0.0

2.0237070981013663e6 3.4506748046215633e6 0.0
3.4506748046215633e6 -5.456590778365868e7 0.0
0.0 0.0 0.0

-3.781797827798338e7 3.1256201208159313e7 0.0
3.1256201208159313e7 -4.404951450207653e6 0.0
0.0 0.0 0.0

-7.51052181021411e6 -97705.72078074305 0.0
-97705.72078074305 4.761110327836975e7 0.0
0.0 0.0 0.0

-8.161702113879824e6 -563169.5890859959 0.0
-563169.5890859959 4.15613637031071e7 0.0
0.0 0.0 0.0

804603.4026375762 7.585435480944164e6 0.0
7.585435480944164e6 -1.0073141171867788e7 0.0
0.0 0.0 0.0

-8.427940547347074e6 867035.031028307 0.0
867035.031028307 3.977347604719797e7 0.0
0.0 0.0 0.0

1.0139303669825729e7 4.850897546711813e7 0.0
4.850897546711813e7 -5.280248626076974e6 0.0
0.0 0.0 0.0

-3.2320519343898157e6 2.2065833266482588e7 0.0
2.2065833266482588e7 1.694469770028759e7 0.0
0.0 0.0 0.0

796919.2066230923 4.567743620283798e6 0.0
4.567743620283798e6 -6.722105846555084e7 0.0
0.0 0.0 0.0

1.9893116884019598e6 4.0162007534177443e6 0.0
4.0162007534177443e6 -4.262852007784834e7 0.0
0.0 0.0 0.0

-2.902506479664509e6 2.4575412982902918e7 0.0
2.4575412982902918e7 8.357657816247785e6 0.0
0.0 0.0 0.0

-5.378660103859084e6 3.86950774121215e7 0.0
3.86950774121215e7 3.593109457660081e6 0.0
0.0 0.0 0.0

7.148495116410694e6 1.1494287571048018e7 0.0
1.1494287571048018e7 2.2365410817811727e6 0.0
0.0 0.0 0.0

1.3400461972423201e7 2.3941197365004294e7 0.0
2.3941197365004294e7 1.3178735850467749e7 0.0
0.0 0.0 0.0

1.1767717629556865e7 2.6487269662165713e7 0.0
2.6487269662165713e7 -3.502426299239045e6 0.0
0.0 0.0 0.0

-7.703667282108696e6 148507.70602521976 0.0
148507.70602521976 4.672491458130886e7 0.0
0.0 0.0 0.0

-2.014221572829017e7 2.5380591644075003e7 0.0
2.5380591644075003e7 -2.7735508168515167e6 0.0
0.0 0.0 0.0

-3.2547231676258054e6 3.386461927118431e7 0.0
3.386461927118431e7 1.8388850996494694e6 0.0
0.0 0.0 0.0

5.071321914094329e6 1.9713990484146353e7 0.0
1.9713990484146353e7 5.630105155133925e7 0.0
0.0 0.0 0.0

1.3984434070788104e7 2.7022825120895162e7 0.0
2.7022825120895162e7 -3.48864063680192e6 0.0
0.0 0.0 0.0

-4.984616694523285e6 2.3192235174712908e7 0.0
2.3192235174712908e7 -1.0423468371249318e7 0.0
0.0 0.0 0.0

-3.2310123327778773e6 2.329560861128513e7 0.0
2.329560861128513e7 1.7483100240671087e7 0.0
0.0 0.0 0.0

-3.7261643005436705e6 2.2522223069187634e7 0.0
2.2522223069187634e7 -1.0403220255015671e7 0.0
0.0 0.0 0.0

-7.834913592834784e7 4.2275113610081546e7 0.0
4.2275113610081546e7 -9.981689970161088e6 0.0
0.0 0.0 0.0

-4.235042386278451e6 2.177972105549237e7 0.0
2.177972105549237e7 1.6505892279499345e7 0.0
0.0 0.0 0.0

-4.462059309886261e6 2.3708366493921254e7 0.0
2.3708366493921254e7 -8.839330731410664e6 0.0
0.0 0.0 0.0

-3.4937313991452307e6 2.4081525449954696e7 0.0
2.4081525449954696e7 1.6570876439741561e7 0.0
0.0 0.0 0.0

9.416159482601171e6 2.605599570345824e7 0.0
2.605599570345824e7 -4.469034954558263e6 0.0
0.0 0.0 0.0

2.664164621007433e6 3.0147524005828444e6 0.0
3.0147524005828444e6 -3.4891343162405126e7 0.0
0.0 0.0 0.0

4.059049164283544e6 2.524495833330626e7 0.0
2.524495833330626e7 -8.478021030399637e6 0.0
0.0 0.0 0.0

-2.901187809682302e7 4.5753564465657845e7 0.0
4.5753564465657845e7 7.200778559288969e6 0.0
0.0 0.0 0.0

-6.96705660604061e6 3.224797661145804e7 0.0
3.224797661145804e7 6.441921243036218e6 0.0
0.0 0.0 0.0

-9.245403339867905e6 -1.4564218689586767e6 0.0
-1.4564218689586767e6 2.8035679567624524e7 0.0
0.0 0.0 0.0

536717.8654798903 2.1151229916207436e7 0.0
2.1151229916207436e7 -1.7816957366426572e7 0.0
0.0 0.0 0.0

1.5836145046754424e7 2.386210510728121e7 0.0
2.386210510728121e7 5.270980818295076e6 0.0
0.0 0.0 0.0

-6.895271873891914e7 3.5508918185713954e7 0.0
3.5508918185713954e7 1.3898981285760887e6 0.0
0.0 0.0 0.0

4.599602093071909e6 1.9157871176298715e7 0.0
1.9157871176298715e7 1.770318414926171e7 0.0
0.0 0.0 0.0

453907.8525408637 9.630130939406075e6 0.0
9.630130939406075e6 -4.673757031359341e7 0.0
0.0 0.0 0.0

624550.4226248953 1.744043084006152e7 0.0
1.744043084006152e7 -2.2624883578482978e7 0.0
0.0 0.0 0.0

-2.2876261798323495e6 2.3205442442395385e7 0.0
2.3205442442395385e7 1.4024781513610044e7 0.0
0.0 0.0 0.0

-8.056645926066379e6 3.9018502034184426e7 0.0
3.9018502034184426e7 3.3271480755276303e6 0.0
0.0 0.0 0.0

1.3313762893220182e6 2.902024780109314e7 0.0
2.902024780109314e7 -5.255986046830656e6 0.0
0.0 0.0 0.0

2.4411838827307057e6 2.8600573292586897e6 0.0
2.8600573292586897e6 -4.184217160198501e7 0.0
0.0 0.0 0.0

7.666031446800066e6 2.004297951936517e7 0.0
2.004297951936517e7 4.975801961001468e7 0.0
0.0 0.0 0.0

-765225.0728147438 1.9592306916251402e7 0.0
1.9592306916251402e7 -2.0240782939309266e6 0.0
0.0 0.0 0.0

-5.370762120355758e7 4.105942207656554e7 0.0
4.105942207656554e7 9.948167911959577e6 0.0
0.0 0.0 0.0

-9.416141945155403e6 1.429785024976021e6 0.0
1.429785024976021e6 3.5551848386151806e7 0.0
0.0 0.0 0.0

-8.634277828031644e6 1.1188757800595895e6 0.0
1.1188757800595895e6 3.7945949549885996e7 0.0
0.0 0.0 0.0

1.52008629397063e7 2.3735426157700963e7 0.0
2.3735426157700963e7 8.058500835925549e6 0.0
0.0 0.0 0.0

-7.4523121105994005e6 -204294.1713703988 0.0
-204294.1713703988 4.6449930273315795e7 0.0
0.0 0.0 0.0

3.8549764777667644e6 1.974943566197204e7 0.0
1.974943566197204e7 1.7210101872945584e7 0.0
0.0 0.0 0.0

8.90247832136406e6 2.0434033407181133e7 0.0
2.0434033407181133e7 3.664308915009322e7 0.0
0.0 0.0 0.0

1.5090748012294979e6 3.6310083313185275e7 0.0
3.6310083313185275e7 -1.695373470838246e6 0.0
0.0 0.0 0.0

-6.27504737957624e6 6.780909076937159e6 0.0
6.780909076937159e6 6.208649413538509e7 0.0
0.0 0.0 0.0

-3.2566046144444123e6 1.6679224816989206e7 0.0
1.6679224816989206e7 -3.853720857224319e7 0.0
0.0 0.0 0.0

328747.3177794274 8.51719707808791e6 0.0
8.51719707808791e6 -8.731813349392613e6 0.0
0.0 0.0 0.0

-1.8325009877858106e6 2.27050331870538e7 0.0
2.27050331870538e7 1.2218349765175484e7 0.0
0.0 0.0 0.0

5.265464943209121e6 2.054468487831753e7 0.0
2.054468487831753e7 3.552013191746857e7 0.0
0.0 0.0 0.0

-8.40224076479241e6 1.5740346088416136e6 0.0
1.5740346088416136e6 4.523741285496482e7 0.0
0.0 0.0 0.0

-6.791611458500162e6 9.332131666518584e6 0.0
9.332131666518584e6 6.613920397460559e6 0.0
0.0 0.0 0.0

-2.3069351616033516e6 2.377512341999476e7 0.0
2.377512341999476e7 1.4890963357598144e6 0.0
0.0 0.0 0.0

2.175211033334689e6 1.263090108806305e7 0.0
1.263090108806305e7 1.1509628927857084e7 0.0
0.0 0.0 0.0

4.4894253398963325e6 2.2418968083383966e7 0.0
2.2418968083383966e7 -1.8504666449433267e6 0.0
0.0 0.0 0.0

-9.049991055880548e6 955923.0408839773 0.0
955923.0408839773 3.769368369411037e7 0.0
0.0 0.0 0.0

-5.459277741312142e6 6.682768069538902e6 0.0
6.682768069538902e6 6.596503802214833e7 0.0
0.0 0.0 0.0

3.669570031240503e6 2.3071590976609237e7 0.0
2.3071590976609237e7 -696575.527770971 0.0
0.0 0.0 0.0

1.095860669543731e6 2.1629121230845112e7 0.0
2.1629121230845112e7 -1.5345906018905029e7 0.0
0.0 0.0 0.0

-5.270033689760972e6 6.510058750215332e6 0.0
6.510058750215332e6 6.5333887184849516e7 0.0
0.0 0.0 0.0

9.027312640204465e6 2.6183928239467062e7 0.0
2.6183928239467062e7 -4.310713311132401e6 0.0
0.0 0.0 0.0

4.3331539558558995e6 1.9745213584650464e7 0.0
1.9745213584650464e7 2.595705023544577e7 0.0
0.0 0.0 0.0

-7.749843761609846e6 1.3505774777788594e7 0.0
1.3505774777788594e7 1.4833148918933848e7 0.0
0.0 0.0 0.0

-5.787885546193692e6 1.3103328200344192e7 0.0
1.3103328200344192e7 6.470675880702844e6 0.0
0.0 0.0 0.0

-1.2430116441125391e7 9.646361868021833e6 0.0
9.646361868021833e6 5.300760558020848e6 0.0
0.0 0.0 0.0

