# vtk DataFile Version 2.0
phase field modeling fracture
ASCII
DATASET UNSTRUCTURED_GRID
POINTS 2538 float
0.0 0.0 0.0
10.0 0.0 0.0
0.0 10.0 0.0
10.0 10.0 0.0
0.0 4.9995 0.0
0.0 5.0005 0.0
5.0 5.0 0.0
0.9416964895726688 0.0 0.0
1.803581725054446 0.0 0.0
2.592419885431098 0.0 0.0
3.314401822861676 0.0 0.0
3.975193910351406 0.0 0.0
4.579982132660152 0.0 0.0
5.133512780936812 0.0 0.0
5.640130319506143 0.0 0.0
6.103810708661955 0.0 0.0
6.528192895506818 0.0 0.0
6.916607540127679 0.0 0.0
7.272102969376355 0.0 0.0
7.597469242948583 0.0 0.0
7.895259826292669 0.0 0.0
8.167811885738017 0.0 0.0
8.417264413845215 0.0 0.0
8.645575169389538 0.0 0.0
8.854535961159101 0.0 0.0
9.045786767735546 0.0 0.0
9.220828555767493 0.0 0.0
9.38103509633881 0.0 0.0
9.527663687265145 0.0 0.0
9.661865124984566 0.0 0.0
9.784692609918062 0.0 0.0
9.897110148790482 0.0 0.0
10.0 0.09999999999992584 0.0
10.0 0.199999999999856 0.0
10.0 0.2999999999997771 0.0
10.0 0.3999999999996677 0.0
10.0 0.4999999999995511 0.0
10.0 0.5999999999994683 0.0
10.0 0.6999999999993983 0.0
10.0 0.7999999999993286 0.0
10.0 0.8999999999992587 0.0
10.0 0.9999999999991888 0.0
10.0 1.099999999999119 0.0
10.0 1.199999999999033 0.0
10.0 1.299999999998852 0.0
10.0 1.399999999998576 0.0
10.0 1.499999999998284 0.0
10.0 1.599999999997992 0.0
10.0 1.6999999999977 0.0
10.0 1.799999999997408 0.0
10.0 1.899999999997116 0.0
10.0 1.999999999996825 0.0
10.0 2.099999999996533 0.0
10.0 2.199999999996241 0.0
10.0 2.299999999995949 0.0
10.0 2.399999999995657 0.0
10.0 2.499999999995365 0.0
10.0 2.599999999995073 0.0
10.0 2.699999999994782 0.0
10.0 2.79999999999449 0.0
10.0 2.899999999994198 0.0
10.0 2.999999999993906 0.0
10.0 3.099999999993614 0.0
10.0 3.199999999993322 0.0
10.0 3.299999999993029 0.0
10.0 3.399999999992738 0.0
10.0 3.499999999992446 0.0
10.0 3.599999999992154 0.0
10.0 3.699999999991863 0.0
10.0 3.799999999991571 0.0
10.0 3.899999999991278 0.0
10.0 3.999999999991022 0.0
10.0 4.099999999991035 0.0
10.0 4.199999999991187 0.0
10.0 4.299999999991338 0.0
10.0 4.399999999991491 0.0
10.0 4.499999999991642 0.0
10.0 4.599999999991795 0.0
10.0 4.699999999991947 0.0
10.0 4.799999999992099 0.0
10.0 4.89999999999225 0.0
10.0 4.999999999992403 0.0
10.0 5.099999999992555 0.0
10.0 5.199999999992706 0.0
10.0 5.299999999992858 0.0
10.0 5.39999999999301 0.0
10.0 5.499999999993161 0.0
10.0 5.599999999993313 0.0
10.0 5.699999999993466 0.0
10.0 5.799999999993618 0.0
10.0 5.899999999993771 0.0
10.0 5.999999999993922 0.0
10.0 6.099999999994074 0.0
10.0 6.199999999994227 0.0
10.0 6.299999999994378 0.0
10.0 6.39999999999453 0.0
10.0 6.499999999994682 0.0
10.0 6.599999999994833 0.0
10.0 6.699999999994986 0.0
10.0 6.799999999995138 0.0
10.0 6.899999999995289 0.0
10.0 6.999999999995442 0.0
10.0 7.099999999995594 0.0
10.0 7.199999999995747 0.0
10.0 7.299999999995897 0.0
10.0 7.39999999999605 0.0
10.0 7.499999999996202 0.0
10.0 7.599999999996353 0.0
10.0 7.699999999996505 0.0
10.0 7.799999999996658 0.0
10.0 7.899999999996808 0.0
10.0 7.999999999996962 0.0
10.0 8.099999999997113 0.0
10.0 8.199999999997265 0.0
10.0 8.299999999997418 0.0
10.0 8.399999999997569 0.0
10.0 8.499999999997721 0.0
10.0 8.599999999997873 0.0
10.0 8.699999999998024 0.0
10.0 8.799999999998176 0.0
10.0 8.899999999998329 0.0
10.0 8.99999999999848 0.0
10.0 9.099999999998634 0.0
10.0 9.199999999998786 0.0
10.0 9.299999999998937 0.0
10.0 9.399999999999089 0.0
10.0 9.499999999999241 0.0
10.0 9.599999999999392 0.0
10.0 9.699999999999545 0.0
10.0 9.799999999999697 0.0
10.0 9.899999999999848 0.0
9.897110148790565 10.0 0.0
9.784692609918244 10.0 0.0
9.66186512498486 10.0 0.0
9.527663687265571 10.0 0.0
9.381035096339392 10.0 0.0
9.220828555768257 10.0 0.0
9.045786767736512 10.0 0.0
8.854535961160305 10.0 0.0
8.645575169391027 10.0 0.0
8.417264413847017 10.0 0.0
8.167811885740178 10.0 0.0
7.895259826295246 10.0 0.0
7.597469242951631 10.0 0.0
7.272102969379938 10.0 0.0
6.916607540131873 10.0 0.0
6.528192895511704 10.0 0.0
6.103810708667616 10.0 0.0
5.640130319512691 10.0 0.0
5.13351278094435 10.0 0.0
4.579982132668816 10.0 0.0
3.975193910361222 10.0 0.0
3.314401822869852 10.0 0.0
2.592419885437257 10.0 0.0
1.803581725058137 10.0 0.0
0.9416964895740705 10.0 0.0
0.0 9.00010000000243 0.0
0.0 8.000200000005481 0.0
0.0 7.000300000005135 0.0
0.0 6.000400000002569 0.0
0.901790731451151 5.000409820926855 0.0
1.657200899774397 5.000334279910023 0.0
2.289991063707192 5.000271000893629 0.0
2.820065163538221 5.000217993483646 0.0
3.264096435579811 5.000173590356442 0.0
3.636051481595835 5.00013639485184 0.0
3.947629914072366 5.000105237008593 0.0
4.208632181002628 5.0000791367819 0.0
4.427267949625672 5.000057273205037 0.0
4.610414277633563 5.000038958572237 0.0
4.763831845154243 5.000023616815485 0.0
4.892346298799659 5.00001076537012 0.0
4.892346298799748 4.99998923462988 0.0
4.763831845154455 4.999976383184515 0.0
4.610414277633943 4.999961041427763 0.0
4.427267949626277 4.999942726794963 0.0
4.208632181003523 4.9999208632181 0.0
3.94762991407365 4.999894762991407 0.0
3.636051481597624 4.99986360514816 0.0
3.264096435582253 4.999826409643559 0.0
2.820065163541503 4.999782006516354 0.0
2.289991063711534 4.999728999106371 0.0
1.657200899778495 4.999665720089978 0.0
0.9017907314530094 4.999590179073145 0.0
0.0 3.999600000002013 0.0
0.0 2.999700000005187 0.0
0.0 1.99980000000512 0.0
0.0 0.9999000000025537 0.0
9.897889398521345 2.93573355845387 0.0
9.906568249974548 7.060009441434234 0.0
9.913122631074113 3.64016132281653 0.0
9.922462129543863 6.354535290629151 0.0
9.917693659967533 4.354211663134567 0.0
9.909873057440208 5.637584487339942 0.0
9.914183254994697 4.950672966925282 0.0
9.913885043715895 7.666887930262611 0.0
9.91009668007573 2.351889069770817 0.0
9.905135696074536 8.138152454502785 0.0
9.913397459621809 1.849999999997262 0.0
7.099302372137626 0.297750452375005 0.0
7.095143729410097 9.700359990366296 0.0
4.942912558701401 5.095838627899509 0.0
4.315009232304429 5.165022115481685 0.0
4.946182472483878 4.906763777264103 0.0
4.317967462990024 4.825955043772673 0.0
9.916390871492647 8.64999999999792 0.0
9.921504649680616 1.368376469890358 0.0
8.292538149791614 0.206877570318844 0.0
8.292538149793597 9.793122429681448 0.0
5.884594439766573 9.587645267048616 0.0
5.794826292691579 0.3794853783929359 0.0
9.913397459621425 9.049999999998557 0.0
9.908526577714177 0.9568239351922434 0.0
3.456851160380649 5.315740054130451 0.0
3.457889657868442 4.707121019609468 0.0
8.945214200703926 0.1503383337970344 0.0
8.950161364448409 9.8413906539257 0.0
9.913862335499305 4.055887885208452 0.0
9.916697353372683 4.650158482607802 0.0
9.919076340414442 6.049999999994006 0.0
9.906994308667635 5.25749687748192 0.0
9.917490342358025 6.655979201891897 0.0
9.915757520293784 7.343848891656911 0.0
9.910049507471042 3.363474386285078 0.0
9.914471988502868 2.647400064832979 0.0
9.91474124160965 9.337490423485129 0.0
9.916971008170838 0.6499999999994355 0.0
4.307157269264427 9.509674045029644 0.0
4.331527375865619 0.4401616696422582 0.0
9.45434939180249 9.878397030523757 0.0
9.457696120412969 0.1270877537061785 0.0
2.555070293622606 5.422044496190925 0.0
2.566232917480916 4.608001224030952 0.0
3.026511860837692 9.332320638257093 0.0
2.945561971800619 0.5895662714727601 0.0
7.7395404387124 0.2511088946967771 0.0
7.736379255744154 9.745848826372828 0.0
4.687135269408529 5.122111433928926 0.0
4.688420821504113 4.871895064967488 0.0
9.910554884115975 0.3448356354522978 0.0
9.911230082250466 9.65764729394159 0.0
9.921953841410854 6.851023993342036 0.0
9.912065178606017 5.448170483544033 0.0
9.911660025326261 3.861846960030188 0.0
9.914847467973438 3.14501593945607 0.0
9.913397459621425 5.849999999993703 0.0
9.913397459621425 7.849999999996735 0.0
9.906916878988277 2.15455769998631 0.0
9.913397459621425 8.349999999997479 0.0
9.909472363117661 1.640528221515488 0.0
9.913987325695956 1.152857110636247 0.0
9.913397459621425 8.849999999998241 0.0
0.9100099990995943 2.614215977520411 0.0
0.8395284981715456 7.451196254860987 0.0
9.723278867451556 9.898135916635193 0.0
9.723316350887044 0.09841820909386662 0.0
1.385819164827588 4.454539963646463 0.0
1.338343629665047 5.523111536005823 0.0
1.377179700550677 0.6809168304959698 0.0
1.418060461092743 9.285896715136046 0.0
9.91268220142518 0.1457914080939694 0.0
9.906737126737994 9.845745933882352 0.0
0.7108351382691361 6.537941170074089 0.0
1.527735020267026 6.915620208855231 0.0
1.630993885659103 7.838271825205868 0.0
2.232760943566823 7.370850737296832 0.0
2.243414218068206 6.688299277952821 0.0
2.779655053105118 7.021588754814074 0.0
2.80227799359795 7.632420170547022 0.0
3.282022065908813 7.305859666021318 0.0
3.327597298795347 7.857554136825748 0.0
3.743210251018715 7.549183328204379 0.0
3.716353232200752 7.062036086888612 0.0
4.111978858674101 7.27497101169417 0.0
4.104192177581432 6.879858986267289 0.0
4.436230765617037 7.045693351607117 0.0
4.430360014817357 6.703971783962796 0.0
4.732390145036301 6.849841042423394 0.0
5.056161327708878 5.095276573498806 0.0
5.111586796021131 4.999081142133581 0.0
5.169267363407189 5.09444870412406 0.0
5.223795108752053 4.996986220359468 0.0
5.281480803887719 5.092780870372803 0.0
5.335670761900611 4.994887492556936 0.0
5.393485214772442 5.090486192743301 0.0
5.447323082877892 4.992601527033996 0.0
5.505243219343024 5.087953380710069 0.0
5.558739102026105 4.990287787962959 0.0
5.616491581184779 5.085335255235766 0.0
5.669852346908056 4.9879269227514 0.0
5.727502713908907 5.082679981817038 0.0
5.780766004135139 4.988313988715834 0.0
5.838244881129535 5.080480568766611 0.0
5.891357695677371 4.986433849408193 0.0
5.948696036767613 5.077969900389505 0.0
6.001601341641615 4.981313698556656 0.0
6.058851024265095 5.074871552128682 0.0
6.111614020704875 4.978360695880202 0.0
6.168801161530775 5.072044953270978 0.0
6.221368818778567 4.975825765213497 0.0
6.278268309066882 5.066182320461055 0.0
6.330814273567539 4.972837984645718 0.0
6.387565032421376 5.062889771971895 0.0
6.437476667631405 4.971693683589553 0.0
6.496181111585419 5.060210690175857 0.0
6.539454812256072 4.964658165361536 0.0
6.604198202576491 5.056387520850258 0.0
6.648506025747331 4.939374587506267 0.0
6.714026758992516 5.05873885840664 0.0
6.764418045981209 4.959246676066148 0.0
6.8219334571197 5.055299567406268 0.0
6.873708540948134 4.960426349093742 0.0
6.930181428849307 5.053461390218819 0.0
6.981893615341967 4.96435459462232 0.0
7.037791764774784 5.051219747103022 0.0
7.090993561518408 4.96392420322464 0.0
5.504417457283294 4.900897920552702 0.0
7.145434864123609 5.048960634292441 0.0
6.054532384032612 4.883956083938546 0.0
6.738027949040956 4.850032323068674 0.0
7.198432914526514 4.956325226333323 0.0
7.252637187936749 5.046012229327236 0.0
7.30926729605109 4.948903216650376 0.0
7.248106275544042 4.860306312845646 0.0
7.363100274863074 4.849952416808486 0.0
7.365733472701664 5.039519554615095 0.0
7.308483293090149 5.137557220352172 0.0
6.768399513646964 5.145609705119954 0.0
7.422800035311104 5.132251445551834 0.0
7.358273518796229 5.235980394389298 0.0
7.480824155801127 5.227946127939927 0.0
7.302193400058628 4.761917474298247 0.0
7.413570879789824 4.754555110721153 0.0
7.414392998903179 5.334729114426734 0.0
7.352769630272076 4.660405502266205 0.0
7.467556835255426 4.658352623795039 0.0
7.536246869015014 5.328986926716081 0.0
7.478865844607288 5.432598185493195 0.0
7.406396991826072 4.556956233957538 0.0
7.523581002009154 4.552005631348623 0.0
7.597792398573263 5.429506106314967 0.0
7.540511043402902 5.53619421580439 0.0
7.46214474876342 4.452580994318881 0.0
7.5852185078634 4.446021810672608 0.0
7.663329342323453 5.533453399066901 0.0
7.603478967594521 5.643227430483237 0.0
7.513450346818673 4.347641323140766 0.0
7.640744971722214 4.333388343316237 0.0
7.727671715775243 5.642390483050116 0.0
7.667774597993788 5.753188858425915 0.0
7.570065256728661 4.230515669344811 0.0
7.702881065467917 4.218307808529532 0.0
7.638288257073729 4.107994211855027 0.0
7.493362356301017 4.120843902105771 0.0
7.779018500630071 5.521233457321821 0.0
7.794641287388929 5.752364621610818 0.0
7.73369774483611 5.865894287356292 0.0
7.600834531784728 5.867752110500446 0.0
6.233038857278689 5.15645045634683 0.0
7.669727996028819 5.985665563643058 0.0
7.528582452554481 5.987393423295551 0.0
7.598722674572824 6.11001923494443 0.0
7.778305000222867 4.104318908265786 0.0
7.704329019832056 3.987744174608892 0.0
7.838453459801382 4.213322728668484 0.0
7.864495721576461 5.862306066517277 0.0
7.846552353360407 3.98481756181946 0.0
7.769730409703277 3.86544808681145 0.0
5.785249360396857 5.177248808588045 0.0
7.908837087876153 3.861484036275285 0.0
7.834824606222196 3.740586825753288 0.0
7.97685993406276 3.736209527152902 0.0
7.89665098770825 3.615501862931453 0.0
7.753228010315262 3.617800245018972 0.0
7.826063013090472 3.483173292579822 0.0
7.66789744383048 3.48859328808356 0.0
8.042515855796823 3.595394268381807 0.0
7.75200750488492 3.341279823834038 0.0
7.582870318332553 3.346584916806707 0.0
8.120807847415062 3.732493963388337 0.0
8.189783970303546 3.61159165475499 0.0
7.657801000286734 3.200439907646711 0.0
7.486781956172036 3.201402473247712 0.0
7.452595103886905 6.11418616185016 0.0
7.527098033550077 6.243191052852112 0.0
8.260502906807751 3.728437634721859 0.0
8.327629317451398 3.608173631356984 0.0
7.372763970891452 6.247552889754036 0.0
7.456170570815929 6.384992468962936 0.0
7.621837793616884 6.376077080857113 0.0
7.548039512904141 6.520750676893614 0.0
7.717475944451644 6.514856553988943 0.0
7.636658166268699 6.661648164052906 0.0
7.807468267259438 6.664076174524672 0.0
7.718022764310774 6.817938967122142 0.0
7.887785766941087 6.807440365887151 0.0
7.545993589083432 6.815070675854734 0.0
7.809874785067209 6.967537287475282 0.0
7.975643812145337 6.948729406725126 0.0
8.396477808021062 3.725446935061211 0.0
7.565651643157136 3.044354774611752 0.0
7.384328725505071 3.043048915147076 0.0
8.056405351948353 6.802790889114673 0.0
8.14128318237188 6.940027831915737 0.0
8.064621760266059 7.086348792208953 0.0
8.225003598857908 6.805225152373254 0.0
8.463085452993242 3.606998510553562 0.0
8.230426869720718 7.079551841000411 0.0
8.155262284174286 7.224761758176069 0.0
8.530696760758996 3.721683301125054 0.0
8.596669886994064 3.604516769862316 0.0
8.528531058025589 3.490411531312337 0.0
8.320451770844851 7.218191678954744 0.0
8.245273958732774 7.363444652121271 0.0
8.66324687389452 3.717094013035765 0.0
8.600103125209296 3.831913857228569 0.0
8.662131102573216 3.488322280861316 0.0
8.594166125380536 3.374071873435548 0.0
8.411074336066186 7.353871649576861 0.0
8.339644223432472 7.505172120620427 0.0
8.165883718619623 7.513159193685373 0.0
8.483453820080417 7.2082285366806 0.0
8.261200365730348 7.657400951288149 0.0
8.081570576666843 7.670933304838066 0.0
7.471613195794025 2.872548423100142 0.0
7.268733678357991 2.881209199257603 0.0
7.184255506995786 3.084448584600423 0.0
7.065899603697895 2.883902449336828 0.0
6.960163891183182 3.081014635802978 0.0
6.847612128388715 2.885646860602812 0.0
6.739800729737967 3.078895733381448 0.0
8.729373804596847 3.827689165637365 0.0
8.668550856907444 3.938702277545298 0.0
8.72770789162863 3.371798381178293 0.0
8.659764090070603 3.257493349874974 0.0
8.436453928793245 7.648724489148887 0.0
6.619080287792762 2.90880017416788 0.0
6.511740956842646 3.09340654756684 0.0
8.793527829963288 3.935174834810256 0.0
8.736430500996828 4.042719556852617 0.0
7.631260330584174 4.565300771328012 0.0
8.359058396840432 7.801678182761817 0.0
5.339436215072359 5.184870243702279 0.0
4.994031736761993 5.193306795607908 0.0
6.383387675268097 4.87760645722207 0.0
7.29117392392962 6.382172868329505 0.0
6.378196825372041 2.907113079755629 0.0
6.269817199014261 3.12412150658573 0.0
8.793149127377946 3.255386294257182 0.0
8.725774239201558 3.141596687892195 0.0
8.857434600673502 4.041295940541356 0.0
8.802868937128341 4.1471119953668 0.0
8.532045262478793 7.7905977476835 0.0
7.364542641624493 2.699128473342751 0.0
7.571677611088925 2.695732556686516 0.0
6.723058333614999 2.672341359410618 0.0
8.456744924757372 7.94483904450548 0.0
6.140831279784704 2.921247401137864 0.0
6.02419219050745 3.14358702955763 0.0
8.916255604212301 3.934279868822481 0.0
8.859287250884009 3.140226640574265 0.0
8.791092798057303 3.025929352146465 0.0
7.210445465986021 6.245773134960393 0.0
7.120884161792869 6.385155584680196 0.0
7.036931702064287 6.240721609143972 0.0
6.943722280007011 6.3869279517155 0.0
8.920094519678617 4.144837222494242 0.0
8.864374107136287 4.250930406527029 0.0
7.347569838739255 4.463467417508182 0.0
5.90383431757064 2.935113219563906 0.0
5.783476009580765 3.156456199832474 0.0
8.626013191558314 7.935092223505354 0.0
8.687240186957197 7.796697889991163 0.0
5.642059327424706 2.903018174330269 0.0
5.52647853955939 3.162549070310043 0.0
8.555300051897738 8.086169516016518 0.0
8.405624441178524 8.083972416481254 0.0
5.374124307190728 2.945480555950917 0.0
8.935805220807357 3.249260758206028 0.0
8.981625171409894 4.247375537584228 0.0
8.924725364486765 4.352101286657735 0.0
8.807208588134106 4.356163101450244 0.0
8.868277832430604 4.45657124153171 0.0
8.75099635287701 4.460644845248524 0.0
8.812385950597063 4.560891222623518 0.0
8.693833206943118 4.564602972998703 0.0
8.756474732548273 4.665720853686476 0.0
8.63721608225855 4.669394550615355 0.0
8.700108119351134 4.770682016274914 0.0
8.81920502916846 4.767536120893284 0.0
8.76355311338807 4.871451945248518 0.0
8.881442328033694 4.868382238751069 0.0
8.826433523510634 4.97132552240372 0.0
8.943387824985514 4.967694248194483 0.0
8.888718468126953 5.071044784833541 0.0
8.580377663835254 4.774669738817985 0.0
8.770572242937233 5.073880380431421 0.0
8.832915096600454 5.174518948293615 0.0
8.952224483821848 5.170970838320107 0.0
8.897282771771884 5.275476392171722 0.0
7.463928467290875 2.513944501591933 0.0
7.675935950092034 2.509420347143072 0.0
8.924252417741767 3.024418701372628 0.0
8.857265893102921 2.911213535286156 0.0
8.776981063213334 5.27944309004916 0.0
8.840710910770163 5.380165700477552 0.0
8.960876896785969 5.375521424256389 0.0
8.904555918255223 5.482125846038813 0.0
7.567193097677677 2.32750151280277 0.0
7.780880844888839 2.323064027160363 0.0
6.851602118390116 6.234522818184622 0.0
6.758680682687229 6.389359516748128 0.0
6.66345977321418 6.231254850996584 0.0
8.715764716958308 8.079994249772627 0.0
8.65189989696114 8.227534663647639 0.0
9.042229096541828 4.348551764001607 0.0
6.436774206993324 3.316782326998922 0.0
7.590527613340588 5.22651784724799 0.0
9.024366884701616 5.476726561488805 0.0
8.968734351641839 5.583879050892151 0.0
8.845941080047659 5.586406316932274 0.0
8.909881305857882 5.690482454668167 0.0
7.348726871578975 5.44047403999932 0.0
6.567070253986433 6.398115757512583 0.0
6.697077150072261 6.553426749743366 0.0
5.252377383990728 3.187782967482479 0.0
8.988440431820699 2.908621158637298 0.0
8.922541972760119 2.796420836075996 0.0
6.466806010659505 6.229115583261771 0.0
9.033851153821296 5.686506775615425 0.0
8.978340519963718 5.795772485582058 0.0
8.85111463793018 5.798672910287243 0.0
8.922171984280597 5.907237880910408 0.0
8.795190680908043 5.911854068712683 0.0
8.864373398892472 6.019728357749566 0.0
8.991346995940626 6.014539153309398 0.0
8.93374019140187 6.12698887312768 0.0
5.095192648098848 2.952353430985476 0.0
7.672651464908932 2.141715359830917 0.0
7.886266921042761 2.136211284120189 0.0
9.098474286589756 4.245971410451114 0.0
8.813172564986438 8.216887361735234 0.0
8.74802978243154 8.366104673219047 0.0
9.059985162956899 6.120982589539211 0.0
9.00342813739303 6.233245043891739 0.0
4.961413514304496 3.214209167276753 0.0
9.05248113004685 2.794651022570942 0.0
8.986028039118027 2.681341972594222 0.0
5.671890458441996 3.377122473800023 0.0
4.755829262593116 7.184480462344647 0.0
9.158258644940048 4.34465968221255 0.0
4.799687186662534 2.961354824469195 0.0
6.030554747591715 2.726787502996874 0.0
8.938327180212585 8.34758372042188 0.0
8.847392320655468 8.503370672816716 0.0
8.67342124373679 8.518117686968314 0.0
5.234423106934083 2.694925204361751 0.0
8.964923046453565 8.185313058214797 0.0
7.456650986668838 2.134076476407834 0.0
9.111732084821366 2.897226832609386 0.0
6.368055837513985 6.402805870976705 0.0
6.265629899005033 6.226581076317183 0.0
8.736327196352686 6.026404178766982 0.0
9.117473097358854 2.67987006607594 0.0
9.052137415465204 2.565428515518978 0.0
7.781001557847192 1.955874236406257 0.0
7.992134447300669 1.949184538864554 0.0
8.593074792993455 3.143159483125708 0.0
9.1291360203536 6.226877897052981 0.0
9.072154326613617 6.338696745620542 0.0
8.916532550320525 2.566986282201109 0.0
8.984021113721658 2.449252898983242 0.0
9.178032243215632 6.120533546076094 0.0
9.213703592343162 4.244823670856978 0.0
9.11972142641474 2.449071238668887 0.0
9.052853896812186 2.33190758581705 0.0
8.635035926402708 4.462329956179506 0.0
8.773614475966344 8.657865377672689 0.0
8.596400917257634 8.67759750279447 0.0
8.942023339420883 8.644678093589654 0.0
9.19471670675691 6.33096438039349 0.0
9.138460613363325 6.443043552768813 0.0
8.66620319432524 5.916297234509582 0.0
8.606669825267202 6.032658196729024 0.0
9.27222540210304 4.341341907533128 0.0
9.013782808177437 6.451040569407859 0.0
9.08360982569773 6.55729980456602 0.0
7.885622149776354 1.768093045890686 0.0
8.095672144455353 1.768790621151345 0.0
9.208772072925791 6.549717411809656 0.0
9.154272208194383 6.662613503537815 0.0
9.187669783927937 2.334640996932141 0.0
9.122379015831417 2.215832190697178 0.0
6.164077036161143 6.404611236428829 0.0
6.062367614988677 6.224307160647549 0.0
8.987075041759633 2.211477580983978 0.0
9.056972755801603 2.093573581203428 0.0
9.194557288902232 2.096029761809264 0.0
9.131223008370409 1.972713028695079 0.0
8.87381302587057 8.795793668920256 0.0
9.039169086943392 8.781606667490083 0.0
4.662813350519927 3.228118291851354 0.0
4.474181267994617 2.945703616023359 0.0
6.562627723301209 6.075544382232434 0.0
9.326886053211574 4.243083624343211 0.0
9.280374192897945 6.656072830232892 0.0
9.224718905178564 6.766740750539347 0.0
4.703284910421452 6.528907865005451 0.0
8.955136474970331 6.565989985649191 0.0
8.998148826814893 4.865480736169776 0.0
8.99429836796776 1.965972383552685 0.0
9.065669391141741 1.847195105148808 0.0
9.207236162050343 1.853010386995843 0.0
9.143218073349985 1.725630086781897 0.0
8.998867447699345 1.719378449325465 0.0
9.082595782768397 1.592017827427701 0.0
8.92804562738841 1.585238202229766 0.0
9.01637794607019 1.453847302675876 0.0
8.854253119154375 1.446306868730686 0.0
8.941620273019874 1.320083886766936 0.0
8.775393064215876 1.308487027359826 0.0
9.102170347200483 1.324733726345249 0.0
9.013857060361985 1.178821526410403 0.0
7.991031819452564 1.587689878441685 0.0
7.767218744640202 1.595993197647291 0.0
9.191539171305216 1.194087248761656 0.0
9.123965901037613 1.057102462689568 0.0
4.853921953226772 3.470213116851758 0.0
7.496563223334782 3.470157221608763 0.0
8.536691379028115 5.921845852206257 0.0
8.475496498707471 6.037633662010236 0.0
7.978668526342969 2.307231488316941 0.0
9.384721922092124 4.337357165846226 0.0
9.331039180200886 4.435926256444196 0.0
8.546261775564837 6.150267290476958 0.0
8.411727261785726 6.155319300628062 0.0
8.972203609044218 8.930944433074036 0.0
9.133480321468399 8.90955269607895 0.0
9.197778815538276 8.768743880012563 0.0
6.162231825784922 6.05277753404107 0.0
5.962111081146334 6.046949845237622 0.0
9.268727788642101 4.146883230687689 0.0
9.380694211527906 4.144811697563401 0.0
9.323823335199954 4.049557759546529 0.0
9.283324894520613 1.736313094621396 0.0
5.858151623803662 6.22041808248046 0.0
5.759668475561988 6.038806123495502 0.0
7.836860473863919 3.191674397465999 0.0
9.348591928839294 6.75855034547469 0.0
9.293979592221298 6.870213350675044 0.0
9.170543172728557 6.879819332293818 0.0
9.240028263813034 6.983394994050525 0.0
4.347372565145963 3.312731475520695 0.0
4.114183445909965 2.96879678229065 0.0
8.616264880152233 4.042035981070631 0.0
9.403174760076901 6.650407069150438 0.0
4.173860112179449 7.723461240865885 0.0
9.365302975518428 6.973476802087294 0.0
9.312420275675276 7.088420778208979 0.0
9.184876614539778 7.0978133687822 0.0
9.25921281729617 7.204979813006656 0.0
9.12816413817609 7.21569648263899 0.0
9.203944409919862 7.322703303071253 0.0
9.334311975087337 7.311477957762272 0.0
9.280415785210538 7.428795599957155 0.0
9.274060219641907 1.066603180421249 0.0
9.211820491509728 0.9316562593680151 0.0
9.050684011148748 0.9017681241401576 0.0
9.441953732403995 4.432092590771756 0.0
9.394725873909666 4.526051349391942 0.0
9.43453556160865 4.048003950509361 0.0
9.378043599351757 3.952631412328806 0.0
9.289691247910705 8.890746792319852 0.0
9.228148443138926 9.030109127390128 0.0
4.440757888677695 6.389562448928118 0.0
4.689874463978985 6.239329075084555 0.0
4.291519540095677 2.622920583112654 0.0
3.886073352912894 2.632778677714434 0.0
9.344015622314338 1.202401041544343 0.0
8.193292196814806 3.849649660906171 0.0
6.960946604527747 6.07044529864598 0.0
9.347708267319902 8.756364147482309 0.0
6.826423138602714 3.261415861395883 0.0
6.06309517882478 5.884563187328262 0.0
9.4085057714426 7.414123963607981 0.0
9.356416821537886 7.532359471354527 0.0
5.042074134251055 6.938947182785697 0.0
5.063988238156824 7.311205832605263 0.0
3.946666851334923 3.30681624613374 0.0
8.189857914071878 1.939951128540477 0.0
7.880690277686857 1.38928908049477 0.0
7.63766396748483 1.399736360041063 0.0
9.345004233592562 1.857695941115052 0.0
9.440465164139875 7.085860901905448 0.0
7.918332480761888 5.744468010879592 0.0
9.08007135068879 5.372457017512481 0.0
8.78639561093144 3.718391405525285 0.0
9.356843485085705 0.9414458825132457 0.0
9.29705128845331 0.8103081541678832 0.0
9.251825423225316 2.451701826351773 0.0
8.483895366325516 6.270717564685176 0.0
8.346386886249478 6.275973306650227 0.0
9.493299170161215 4.138582531223591 0.0
5.321115649032961 7.117073603021904 0.0
5.354076009109965 7.436189411362466 0.0
5.597984079819928 7.254284331170681 0.0
5.644042313435943 7.564172740776336 0.0
5.383963016128051 7.753854027984002 0.0
5.681168258142109 7.880444993178456 0.0
5.935548099874979 7.687258900444162 0.0
5.979508404301389 7.994332725561488 0.0
6.21936843555201 7.802335560754011 0.0
6.267092590637372 8.104873033518185 0.0
6.498845418385807 7.917606504106031 0.0
6.544600005636809 8.209910620392591 0.0
6.77336078689533 8.027284686082275 0.0
6.814840179123049 8.311778392637773 0.0
6.721304148677048 7.737863326704131 0.0
7.031320924898797 8.1335673274533 0.0
7.077388928622946 8.403901803728003 0.0
5.417471987089176 8.090112295667405 0.0
8.845427688507666 2.446352368201366 0.0
9.318512319918124 2.339233739859646 0.0
9.380241452597096 2.451895615249572 0.0
7.283805558009199 8.237518806365102 0.0
7.329200330160381 8.497045124353782 0.0
7.233272584416691 7.991590926766813 0.0
9.142592248414191 5.471315142785471 0.0
9.196303265878848 5.36738298742727 0.0
9.25795832955665 5.465260877691205 0.0
9.310581303233182 5.36341558704714 0.0
9.371094700882272 5.459458038195667 0.0
9.422767107822985 5.360687090455724 0.0
9.36402660964156 5.264821436196721 0.0
9.474220736978928 5.262802348886269 0.0
9.41680330511366 5.169477108906666 0.0
5.168675939028436 4.895496152382537 0.0
9.482591449057548 5.454699312257291 0.0
9.431567605310825 5.552723344040521 0.0
7.531449703396948 4.741663470323411 0.0
8.517293123442691 4.672601123164268 0.0
8.459978676626639 4.778466809901586 0.0
8.396595115309985 4.67568709170855 0.0
8.338966609235166 4.782101664607259 0.0
8.275355646032752 4.678829956447008 0.0
8.217675280223542 4.785699596769931 0.0
8.28149024865807 4.888803783902183 0.0
8.16019781596952 4.892696417098926 0.0
8.22433278506531 4.995725219088695 0.0
8.102825704443651 4.999629142625341 0.0
8.166887930010795 5.098242831115916 0.0
8.034904900788316 4.896825406879729 0.0
8.15353539905931 4.682103688185489 0.0
8.211891449058882 4.574219757233394 0.0
8.290305306104333 5.094007100958221 0.0
8.225684228618732 5.201525567655179 0.0
9.444618942559746 2.343141375196729 0.0
6.929446520625337 4.868116916840016 0.0
5.737810725167649 4.893891407574175 0.0
8.720389971487277 5.38508368411851 0.0
8.805734920311323 8.951818172412821 0.0
8.905272694453211 9.083303226359831 0.0
6.006155038818204 5.171375272745409 0.0
6.431496448228514 5.152985998213245 0.0
9.052675024457304 7.106590131831544 0.0
7.740007013494393 6.09727525827826 0.0
9.375852260355511 9.013078430361404 0.0
9.32035844773103 9.14584923943073 0.0
6.989707597683965 5.146377438798643 0.0
9.488190206836386 3.951168069367155 0.0
9.432429152094464 3.855725756072153 0.0
5.568386402814275 5.185723849666124 0.0
9.525561551078322 5.166162126187324 0.0
9.465026391994275 5.072601962964018 0.0
9.320357339516937 3.857795423728873 0.0
9.375955927831914 3.759314274140895 0.0
9.261783786753899 3.761412578759438 0.0
9.31820665563318 3.661845422072752 0.0
9.431798673168924 3.660830894813109 0.0
9.374584413615914 3.563138564686839 0.0
9.48759661134647 3.562294297118573 0.0
9.431339678707085 3.464016717943268 0.0
9.417896212887529 1.746970678437863 0.0
8.731705369070733 9.110902182838881 0.0
5.652297951447118 6.21188565774667 0.0
5.569122518069258 6.024400786163834 0.0
8.257007204149394 3.505875091031567 0.0
8.717428603143034 2.925525757227976 0.0
6.882852832747376 8.57686572931064 0.0
6.337330066435714 8.416819098143066 0.0
9.50188906539997 4.521022403818629 0.0
9.453500859905136 4.617181635748691 0.0
9.46806769570129 6.749352117850711 0.0
8.836822104875719 1.72282859852854 0.0
7.481071063421426 5.64593758994851 0.0
5.668814988976305 5.86611128457842 0.0
5.487644760735084 5.847591822776978 0.0
8.993992818065195 7.228173913870249 0.0
7.98322414937693 7.229980191466666 0.0
9.22810751684646 7.54864871395298 0.0
9.304103360459063 7.654622011545798 0.0
9.432787371848761 7.633691049023619 0.0
9.382619818023882 7.759136995934441 0.0
7.239096822516492 4.679179578301165 0.0
9.47692479956498 1.861231395362419 0.0
8.041243110813022 5.095895152648969 0.0
6.190208781188077 7.509864122823853 0.0
9.283062812782122 4.549418667685757 0.0
9.503847665760087 2.450295046295932 0.0
9.443345385250678 2.557904120404248 0.0
9.52009568463353 6.644015937008899 0.0
9.203119005973903 3.662458522935253 0.0
8.406198651282708 5.92630414760378 0.0
8.467263597743843 5.811987729136874 0.0
9.461423029059445 9.128120577356565 0.0
9.408445330070542 9.26024300250086 0.0
9.266505293379728 9.277952925446408 0.0
4.14874709022218 3.631681332690154 0.0
9.437448107949258 0.8198473430736303 0.0
9.376993771693973 0.6910550697058979 0.0
9.22882356848217 0.6931820370818127 0.0
4.451823867195988 6.103664366188579 0.0
4.200031743909027 6.232039028149317 0.0
4.687154754667774 5.975132870483986 0.0
6.268889397098538 6.592235545990395 0.0
7.509366161722768 8.340075462391164 0.0
7.564775703413765 8.59800936579159 0.0
9.542148732924264 3.854614593058991 0.0
7.036231103929761 6.550562550831048 0.0
4.089373665437328 2.268193930262139 0.0
3.642558884866483 2.250386188148396 0.0
3.442182385618804 2.651948803899947 0.0
3.146832503011753 2.222630466765926 0.0
2.948870467975985 2.805088883766417 0.0
9.352005315330274 5.067356449300542 0.0
9.31729677031493 3.462944187594675 0.0
9.37428383619102 3.365546369736205 0.0
9.4883538239391 3.365384871181599 0.0
9.432147665178338 3.267287636377487 0.0
9.25034519267688 7.775848812012313 0.0
9.332091350002502 7.881724023243533 0.0
9.462101000264603 7.86490055671988 0.0
9.413353271651825 7.98561007219363 0.0
8.273592814723814 6.158623919352561 0.0
8.207135014732339 6.280394934566054 0.0
9.541483811580331 5.548224291759592 0.0
9.491365919893726 5.644847811894615 0.0
8.088095771120983 4.577581369371366 0.0
8.14760102783746 4.468303741922308 0.0
9.556217963323956 4.414867468889523 0.0
9.543667331547693 3.266908751519594 0.0
9.489307652535885 3.169908976697059 0.0
9.26285575842982 8.635341362685686 0.0
9.403220742003983 8.621447866627538 0.0
9.326013417886902 8.506778946171965 0.0
9.455477927154853 8.503896705359047 0.0
9.566646674069602 4.611465258087684 0.0
9.499341049870914 0.9352184973273918 0.0
8.683891958597638 1.444705608998412 0.0
8.599973456173778 1.287265568270043 0.0
7.760988189317371 1.175381292562583 0.0
7.50927661322749 1.171223823957793 0.0
7.380927152434357 1.411062577009695 0.0
7.242417847270241 1.170759311509981 0.0
7.107236746116019 1.421234419770886 0.0
6.960799033544566 1.169618322344823 0.0
6.817786081200392 1.434174581170586 0.0
9.48095050141868 8.738557748483624 0.0
9.319762046171894 3.263060331456388 0.0
8.920653400180534 7.117307656029475 0.0
9.452431221190624 6.544166520883111 0.0
9.571407933653493 6.540336592280795 0.0
9.507586285214174 6.443281357841339 0.0
9.575252974749443 5.070210512157044 0.0
5.755172844377253 6.370710487467459 0.0
9.541351959064952 7.969072511059531 0.0
9.354607289792183 9.3921968735401 0.0
9.495213435762107 9.37218405175897 0.0
3.77688136092967 3.643094492921176 0.0
5.460967180339239 6.159077196937325 0.0
8.656589552918996 5.283032675040985 0.0
8.599307076390474 5.387421722684671 0.0
9.584017606465821 5.263931993965828 0.0
9.51536593891754 4.977534386249715 0.0
7.788544970111893 2.70578432810479 0.0
7.381746833264364 8.755477463411431 0.0
7.615969996822885 8.852710176548548 0.0
7.783643411970649 8.691528137204457 0.0
7.845017394185501 8.938777577473743 0.0
8.570520580943368 7.342304222498308 0.0
9.103648004226827 5.781084627507008 0.0
8.338082930126799 5.815990105349368 0.0
8.930848895071895 4.561111316304916 0.0
7.381089602119859 5.983657236035151 0.0
8.42066837692862 6.393608568217351 0.0
8.888256157021065 6.459558428285236 0.0
8.826495664731354 6.575679897210801 0.0
4.22522220414496 5.921354747981145 0.0
3.943296448343383 6.075578573904587 0.0
9.563175937841836 2.554860696349795 0.0
9.505342423182917 2.656889632284623 0.0
6.660863480070611 1.168750929063519 0.0
6.518316961679488 1.436478598119306 0.0
6.683474168246802 1.694104067636375 0.0
6.376799057174731 1.707382100972048 0.0
6.205091481342603 1.443621641108414 0.0
6.058670988071357 1.728841803855816 0.0
5.877457486049096 1.454297236926778 0.0
5.724979192982589 1.756666409586195 0.0
5.529885788012015 1.462283739157555 0.0
9.514953777019835 0.7018468683209754 0.0
8.398665270372675 5.702731562702358 0.0
9.456442249775696 0.5772068858285652 0.0
9.565795671866349 2.345573662774494 0.0
8.830758563027459 9.247271599108435 0.0
8.523580738257648 4.88015211128435 0.0
5.580123316488715 5.701889892660689 0.0
5.398591029446707 5.685938459654249 0.0
5.367686360823392 1.778740548277203 0.0
9.546603444041448 1.754984055696778 0.0
9.489649223089446 1.641312329051244 0.0
9.617973952467912 3.363804764345866 0.0
9.584322830999731 6.729956156156573 0.0
9.597221861144487 3.948534024289882 0.0
9.49401963819799 8.089507968561776 0.0
9.207321074262563 9.416906871900888 0.0
8.27185428346661 4.464932191097996 0.0
8.207416067213774 4.35878753684812 0.0
8.332747746635944 4.354903699457511 0.0
3.990181919126853 3.930792395858886 0.0
8.267392138262498 4.254008221702929 0.0
7.997788712685495 1.196805377512679 0.0
9.600316638269724 5.639973985281733 0.0
9.550939606739425 5.737313319038155 0.0
9.44084303195315 5.74233753256161 0.0
9.50112296154558 5.834555019909565 0.0
8.897429225733994 6.685415510921676 0.0
8.762930941408914 6.695907295903629 0.0
8.654628175336732 9.278157371342388 0.0
8.544676900803436 9.133790942553834 0.0
5.294904777716057 5.855935872688884 0.0
5.216749389964556 5.66865685845661 0.0
9.508453581298625 2.239460033375932 0.0
9.599691370793206 3.169496930704394 0.0
9.546615051106684 3.073514534194011 0.0
7.484714626923596 5.028675123117963 0.0
9.588496050271255 7.850836295555126 0.0
5.153197381012662 1.471340286561097 0.0
9.433168304679345 3.071871997104804 0.0
9.610464706874994 5.829217654498672 0.0
9.561407772947403 5.926179534044419 0.0
8.273381980676042 5.705233340662362 0.0
8.330794188929296 5.594351887246082 0.0
8.207319603076424 5.596747949305344 0.0
7.251338559467102 5.233758892662348 0.0
8.708518799790543 1.130513882092466 0.0
9.590155250193266 0.5878623138195824 0.0
9.389919385420015 5.841079912164009 0.0
7.991397852194216 5.859910582924319 0.0
9.624951589233206 4.975554514425905 0.0
7.240016788025947 2.531866266726309 0.0
7.635666783493215 3.873554782053258 0.0
9.608476620993713 1.863530872936442 0.0
9.365330459496413 8.10677840682376 0.0
8.775076110585598 2.572737931759856 0.0
8.699389445914996 2.444602334375113 0.0
8.625078713232146 2.580891022578613 0.0
8.54447196848446 2.447624719286678 0.0
8.468898498943965 2.586757328881282 0.0
8.62282309213608 2.307826916202421 0.0
9.622102662978762 6.439307895185218 0.0
9.561995355724862 6.35103962032292 0.0
3.898245450818314 1.856155797593496 0.0
9.681759177700954 5.07069253017652 0.0
9.059254996454502 4.963357716933865 0.0
9.113144532326562 4.861710138088372 0.0
9.62140874877204 2.656009146517733 0.0
7.884510615470827 0.9666888912541309 0.0
8.14902661050739 1.005010215149227 0.0
8.491263206618079 8.527197931363634 0.0
8.408859203395778 8.697060715788105 0.0
6.54422152733529 1.954566069381189 0.0
9.563546573097593 2.755667904356369 0.0
9.453065492925557 2.761122255953964 0.0
9.676889098520615 2.755084315170127 0.0
9.678287124781653 2.556838324720633 0.0
2.60254317790297 2.278874965850319 0.0
9.211706272534968 4.050470567310489 0.0
8.526711683538949 5.698821878547752 0.0
8.296604023060945 8.533761944401608 0.0
9.649704314258118 5.543946557831669 0.0
9.651176136337964 3.85122804518279 0.0
9.44590154800397 9.498503704959054 0.0
9.580491248736612 9.476376347552954 0.0
4.3239388803087 3.921156392977062 0.0
9.65737873521736 3.075324100817917 0.0
8.128000846282253 6.160273991836929 0.0
8.06242981852327 6.292371360998262 0.0
8.500465019503922 1.442700595221201 0.0
9.615253212967009 1.649819368149096 0.0
9.561768620580791 1.538553925606111 0.0
9.435477757657937 1.527391516499924 0.0
9.627993450010088 2.242685831452484 0.0
9.5338252733548 0.4673994795805215 0.0
9.398055066504014 0.4589059948533885 0.0
9.669486082509058 5.920177035588319 0.0
9.621072177439727 6.016493814615133 0.0
9.506185962103057 6.018397021409126 0.0
9.196884440497488 7.898824858961557 0.0
9.112591143666748 7.789491461180181 0.0
9.664357762385308 7.950712034233033 0.0
8.46233617997115 2.308903464128035 0.0
8.547917980328803 2.169381684694277 0.0
8.139931430059324 6.410762600521521 0.0
7.672499127532963 9.099143622036436 0.0
7.91372855627271 9.178704612763656 0.0
8.463425076318451 9.290653726808348 0.0
9.643938029094286 9.335632419679458 0.0
9.647017668702574 0.7068996148634754 0.0
6.241662276606473 5.884018212993202 0.0
6.157742245066693 5.73500474100449 0.0
6.318815619949124 5.730068085823802 0.0
6.247706374231452 5.593094310939028 0.0
6.406948541886973 5.593272398468375 0.0
6.092564106310554 5.587409338401505 0.0
8.535507922245372 5.286142900439676 0.0
8.022959839404006 4.471630490587016 0.0
7.963561162854596 4.581393556789843 0.0
9.683487139413305 1.546750704925431 0.0
9.630761777960082 1.435922217091829 0.0
5.121714348989337 7.950140247572198 0.0
5.136464096196084 8.310254432483559 0.0
5.47349124035624 8.455234262268478 0.0
5.176273618280354 8.687190323573228 0.0
4.796664658962938 8.592678692862421 0.0
9.568705729418735 4.887269869750176 0.0
9.462711651199594 4.88832222094458 0.0
9.674903475028225 4.882285174433025 0.0
5.4996067353406 5.546583260717527 0.0
5.663632234555963 5.557613452957074 0.0
6.829408195405585 1.947174574944512 0.0
5.336529198289861 1.127585641139875 0.0
9.672387559812332 6.34138351957329 0.0
4.463988917379896 2.271060678869338 0.0
8.618048281355405 6.263841736419089 0.0
6.480949808711781 5.74815588680617 0.0
6.562207427719153 5.592185077216444 0.0
6.643040463857446 5.721233693378952 0.0
6.712825900331884 5.588664360236 0.0
6.79240375630333 5.711383948285569 0.0
6.86115931532141 5.584697050428064 0.0
6.939210100691576 5.704407337029545 0.0
7.007668476576536 5.580801046893123 0.0
7.084627386867475 5.702817970154801 0.0
6.633257976075473 5.460881327825488 0.0
6.931430743764456 5.461960451448691 0.0
9.682652370938209 6.533133024505995 0.0
8.761108695241376 9.450742747770144 0.0
9.146031326900015 3.764292700000154 0.0
9.089378801805193 3.661317181076136 0.0
9.514354521818781 8.994988681611192 0.0
8.157650730500988 4.262987189670279 0.0
6.329633198899328 5.4647789391701 0.0
2.340685767996258 2.811285337457589 0.0
7.379572471323651 0.9290892725587991 0.0
4.171878172186605 4.222320767259098 0.0
4.4876601621649 4.16473354200826 0.0
5.336389369563535 6.806464508860387 0.0
9.595468321212476 9.108133206829102 0.0
9.645038675267227 8.982113951305912 0.0
8.393140678816192 4.246338342095281 0.0
8.309440721624494 4.155300532283633 0.0
9.418269339704423 1.9925512363779 0.0
9.662781807969623 0.477809346089035 0.0
8.011297869803792 0.7518828483803571 0.0
8.250149975885678 0.7646904662196189 0.0
9.608674873602773 0.3618049194050078 0.0
8.692696069692623 6.582927327365709 0.0
8.628225948401226 6.705702462696891 0.0
8.701883181418305 6.822086652299242 0.0
8.559276855155542 6.829564723911442 0.0
7.069268463354993 5.459534423493629 0.0
2.654575201159115 3.323490466195074 0.0
3.610801136544596 4.044075244426243 0.0
8.263757217166944 5.48730323490738 0.0
8.138838162809126 5.491254533497952 0.0
7.90196833683664 4.477386962763833 0.0
7.987943097943191 3.978756490171551 0.0
9.704623491880403 3.945605151832784 0.0
9.461009573830147 7.301728818091931 0.0
9.532468631193666 7.399916015174975 0.0
9.582688928417856 7.292330983701011 0.0
9.652579613269625 7.387768793572397 0.0
9.699264016151023 7.282867433965265 0.0
9.633305589700536 7.188543855060478 0.0
9.505576100168666 6.961225778216469 0.0
9.43876966151099 6.342441564206569 0.0
4.908483672172518 6.098703904450545 0.0
9.135448256237908 5.269827196966999 0.0
5.905650502271389 2.025036080946255 0.0
9.709890722072377 9.452748507541063 0.0
9.663337613522643 9.572126259365891 0.0
9.603900123387826 7.495180532331903 0.0
9.720147629525837 7.483400774981126 0.0
9.674588415444239 7.588303295299578 0.0
9.653186673863587 4.039274180923234 0.0
9.053164539680804 4.764545162185531 0.0
9.164908495749003 4.763017269285045 0.0
9.226019227262443 4.858029410614327 0.0
8.809947621994619 3.4964384919072 0.0
9.10538997155458 4.665865142902959 0.0
9.331074106432244 5.748993480915537 0.0
9.055854333858068 7.918554535314415 0.0
9.446431573964945 8.209836764658437 0.0
9.573844810886287 8.191100251691205 0.0
9.309704769895653 8.244395007943949 0.0
7.240329561730736 1.676197957122907 0.0
9.543389817573933 3.660019800390455 0.0
9.598599341122098 3.563130123982772 0.0
9.652615161407017 3.658119804270645 0.0
9.706336063693934 3.564815526226687 0.0
8.632284427755456 6.946688912416058 0.0
9.682863230715835 2.349655023034811 0.0
9.571538455120994 2.142369886250143 0.0
8.090821900439733 9.017409120951333 0.0
6.812258669899192 0.9007667548831626 0.0
6.50135254578461 0.8974046495177885 0.0
9.598335906230732 6.246437748035812 0.0
9.719677442549804 6.253968775436637 0.0
8.593026822691716 5.180101360605356 0.0
5.537586126848265 8.836083861509138 0.0
9.688689404995035 2.143487155934306 0.0
2.821389253975936 6.507820864074362 0.0
9.176571289960709 8.507736431357309 0.0
2.918303740542162 8.256728920338826 0.0
3.428955230180972 8.401446814887457 0.0
8.490587404589881 6.715350139132777 0.0
8.86049054904785 7.243279881821806 0.0
8.93696309213556 7.356650230611625 0.0
3.951931175165697 5.78308550088855 0.0
3.65055612573298 5.91672400098539 0.0
3.668142216548471 6.247526235973777 0.0
9.717269848920886 5.821831227352286 0.0
9.708364917734201 3.164198601626433 0.0
8.45581975650687 4.569560863828342 0.0
8.204448312099833 6.040774355519757 0.0
8.65969449127868 5.485991799508151 0.0
9.707534571012967 5.634423933296901 0.0
9.62102991883279 2.849662850313935 0.0
9.144093558002634 3.560383427867003 0.0
8.29763273805118 1.77155302934031 0.0
5.280452715709455 9.01633391004168 0.0
8.984558945859158 6.99932633710603 0.0
8.4157550875812 1.275784953143711 0.0
2.068078118650995 3.355462780535101 0.0
9.205703884756806 5.568274778556933 0.0
9.745857863753141 7.178456670302003 0.0
9.681628895748586 7.081494416756802 0.0
8.875818787971069 6.240744812097083 0.0
7.993733797566922 6.414830952863579 0.0
8.462810157069566 3.377071044664789 0.0
9.29428363519789 4.759591981903337 0.0
7.933956818298286 5.97437536746848 0.0
9.028281726378319 3.558713145763133 0.0
9.083461773461467 3.455531762175701 0.0
9.73231939683535 2.849247643393067 0.0
6.70072305037728 2.192432536215492 0.0
6.423245125077639 2.212870246546939 0.0
4.931537051605536 1.135086496804522 0.0
4.746426561586179 1.500381091957315 0.0
9.707706579932626 7.836419656220658 0.0
8.590593344701457 1.595639668013959 0.0
8.708946574109854 2.1688179918246 0.0
8.634728854549891 2.028564483452208 0.0
9.230357659411311 8.129337203173913 0.0
9.102841374461482 4.452881308250647 0.0
8.472081531214734 5.388993924853032 0.0
4.925996806199801 5.844046944846857 0.0
4.702806345752284 5.745688656289065 0.0
4.884357002239844 5.633237011762874 0.0
4.709628434300812 5.536404116679045 0.0
4.530800966746534 5.627044171217377 0.0
6.040296145349247 6.603808099703576 0.0
6.162203578696918 6.795213950202512 0.0
5.923135943221574 6.824060069869489 0.0
6.046693245732212 7.010423490915212 0.0
6.297337598588478 6.979895528204233 0.0
7.760448385794147 0.7294020304851334 0.0
8.492228348169641 6.958778476405878 0.0
2.89219822877093 1.704113597264478 0.0
2.26178643438086 1.7814602252425 0.0
9.726968895980871 6.009547057102511 0.0
6.63195110828313 0.6072886418835157 0.0
7.984023036954866 7.515675826210831 0.0
7.893857204140559 7.681876703427663 0.0
7.778465117872411 7.537836322197895 0.0
7.998204230811618 7.844922503023499 0.0
7.798554315988981 7.858161805718108 0.0
7.917846202023782 8.03040048103727 0.0
8.547520504556728 2.721261126162116 0.0
8.39253850806587 2.732073315877738 0.0
8.306047241032278 2.59069854402512 0.0
8.233011054235162 2.739783364361515 0.0
8.318836035587811 2.879838477099622 0.0
8.159530874574331 2.888511553151382 0.0
8.245490421394788 3.024568439743106 0.0
9.759103003747676 3.077839427881478 0.0
8.083610090773394 3.033523757291178 0.0
8.174562583800352 3.166768504406541 0.0
6.046769434852523 1.155662270344939 0.0
6.968371001421964 2.176347877216873 0.0
8.324858098380334 3.152966249334499 0.0
8.145556596142626 2.609897633546475 0.0
8.970652052821418 7.804556541250797 0.0
9.033737629244714 7.681328986528639 0.0
9.62347010002576 4.796939565664328 0.0
9.72520380348743 4.790261082613535 0.0
4.882631186210167 5.455006233451049 0.0
4.618356368594037 3.933076284395493 0.0
4.748083507220199 4.151025177732873 0.0
4.641724290430313 4.358202249373887 0.0
4.87055838101999 4.337900676660481 0.0
4.974114446887331 4.149149057174687 0.0
5.081577844806959 4.3240148266423 0.0
5.179521650033781 4.148725180298481 0.0
5.276261408871418 4.316673822529601 0.0
5.369189110897883 4.148362797753505 0.0
5.463892033849439 4.338819369807593 0.0
5.550828466075906 4.146274465971151 0.0
5.646554822352869 4.303571429647391 0.0
5.728109623160046 4.138582010823754 0.0
5.821689108984419 4.291959598724587 0.0
5.906082534948073 4.141649907302701 0.0
5.99655838673762 4.288752711512514 0.0
6.077312859438928 4.141011188943332 0.0
6.164215275138099 4.281164574562373 0.0
6.241782344986693 4.140701084167517 0.0
6.324316420613108 4.277393447415522 0.0
6.40284165425941 4.140026953305852 0.0
6.483655157361099 4.273418937894759 0.0
6.561170698911611 4.136221843106807 0.0
6.63512300179586 4.269917278694155 0.0
6.720306110251473 4.133393659385058 0.0
6.63777078218551 3.99617001426095 0.0
6.802492763973074 3.994355399489989 0.0
6.798834760478153 4.276914787769972 0.0
6.15377608509923 4.000134206628027 0.0
6.548727135071258 4.400510710520637 0.0
6.251479300130713 4.421887359316258 0.0
5.275876048175579 3.979624500657822 0.0
5.910905077162284 4.431174408784691 0.0
6.717070288412452 3.851239795555301 0.0
6.883499045994213 3.852555480300214 0.0
6.96664848901999 3.994033961856844 0.0
7.048208567116626 3.854750001965969 0.0
5.810004974283072 3.982497501655442 0.0
5.586615391658107 4.471070246359201 0.0
6.547331954052155 3.853872077215347 0.0
5.179081233207816 4.485638492900557 0.0
7.126615227065496 3.995337770596979 0.0
7.209459742762513 3.856893463870469 0.0
7.130226097876905 3.713620439679428 0.0
6.63075064074106 3.699684148676045 0.0
6.446985573861992 3.697358756862005 0.0
7.043151422977365 4.131713936060725 0.0
7.198322215260019 4.129850614748363 0.0
7.119378405252723 4.26005098890218 0.0
4.797146270976422 4.525762781577414 0.0
4.608329098388589 4.573584257851931 0.0
7.294442092743627 3.720853338661503 0.0
7.215753312764997 3.571378507508807 0.0
7.049631633956289 3.568047985538775 0.0
7.133765707749521 3.414282375958479 0.0
9.755079417839903 5.539705890434435 0.0
9.698955703441971 5.450920012703194 0.0
9.717604099406742 9.09084770432896 0.0
9.276716006673976 5.847248422342224 0.0
9.339081208926798 5.941174203394446 0.0
9.031261921742963 3.750271483819014 0.0
9.08721978689863 3.853416037308712 0.0
4.801461566647803 7.510704110489921 0.0
8.206553504932042 5.818005960412773 0.0
7.362361315389098 3.863102442315545 0.0
9.492826845316191 2.963845037486267 0.0
9.376710375304633 2.97229517374228 0.0
9.3192743723601 3.070687802230453 0.0
7.915389082113898 6.293241865913004 0.0
6.735006382384437 5.832450056405368 0.0
8.456481836836168 4.35369289249905 0.0
8.517718268476031 4.246675068616396 0.0
5.583512022030555 5.411069060406398 0.0
5.73625200174779 5.422617752052123 0.0
5.81006929286229 5.548584937688919 0.0
5.903438861894402 5.420604003204523 0.0
5.43801870974416 5.402925156167655 0.0
7.022641548594327 5.825217331839047 0.0
7.165095795605366 5.826005223633447 0.0
7.223078558430726 5.690146755650336 0.0
7.841396000338385 4.586693006493787 0.0
7.904793170875705 4.690826189066096 0.0
7.785999820520073 4.696719777099973 0.0
7.846448506395101 4.798518978096564 0.0
7.728149182067156 4.803800941124008 0.0
7.788983823826226 4.904802634695232 0.0
7.672018889153144 4.910077510508749 0.0
7.731996012352178 5.014717724244488 0.0
7.852072803124419 5.00743796185411 0.0
7.779278698005006 5.118909346425974 0.0
8.088113864063853 5.605434545811022 0.0
8.016457362785575 5.494849890158723 0.0
8.072290383394757 5.385594956317259 0.0
7.95068657972964 5.38825563681957 0.0
8.309366678475389 1.438342408757099 0.0
9.748160780780179 1.447794693754379 0.0
9.696454228162398 1.337889922375316 0.0
9.568813761940916 1.329560834053294 0.0
9.638326779791626 1.226729570935787 0.0
8.472132467407484 5.182856496818138 0.0
8.066211547412054 6.53691730655352 0.0
8.217035586462373 6.522976700918602 0.0
3.544839338670893 3.324491119989469 0.0
6.999740002965287 5.347729916247808 0.0
6.874544698914502 5.347027470386579 0.0
4.880451234715014 5.193043717957879 0.0
9.104510033763066 9.313204713465637 0.0
9.0466357104558 9.45359399494339 0.0
9.146803165140184 9.569652364413551 0.0
8.134107047896672 0.5527712356100052 0.0
8.369770412730738 0.5571215815175228 0.0
8.47386979744655 0.7564607169846485 0.0
8.585193608569258 0.5749174254532757 0.0
8.683868132726584 0.75505070091701 0.0
8.787381435061018 0.5813987798627239 0.0
8.697570280442534 0.3771156480326233 0.0
8.530048434259976 5.077280516000916 0.0
7.995091351438729 2.90367515012593 0.0
9.731083608815164 1.662638626153251 0.0
7.260488865351954 4.255073962371814 0.0
9.760728358076392 8.990038509880067 0.0
9.716710396257366 8.884160310398862 0.0
8.794627466210242 7.369659405098349 0.0
8.868068657550866 7.515048014893154 0.0
8.702594597629135 7.510501129643432 0.0
5.132320689147051 0.7610757801158905 0.0
9.755852887652699 3.853180024615871 0.0
9.787424819067885 2.757921105725315 0.0
9.731193479931608 0.3736343090103709 0.0
9.796526908308536 0.489684029254899 0.0
8.226019692057042 2.453349105940535 0.0
4.560989821496479 5.428206018250252 0.0
4.348810639659689 5.517048281386008 0.0
8.785190163106925 7.119142251269924 0.0
9.015515413043023 7.464769766852701 0.0
9.754861440190705 3.659036930324926 0.0
9.7543610723378 4.033687839160082 0.0
9.707881226943384 4.127219992296752 0.0
9.52841017383273 8.309020665649431 0.0
9.65186044414544 8.289498614805698 0.0
9.714051275521857 8.173576484362068 0.0
8.209758892476394 8.715513071423135 0.0
8.097084883671858 8.548851201381087 0.0
8.177989947800599 8.367872862579052 0.0
7.974142434808908 8.36779470623567 0.0
8.409012054919861 2.142624252464372 0.0
7.707002321497132 8.039129945341395 0.0
7.574653123518228 7.83895791570255 0.0
9.229858094382692 5.951357214361815 0.0
9.75307989876696 1.229893222503321 0.0
9.715811155868643 1.128779429890018 0.0
9.597960915003707 1.117058287635912 0.0
9.672063923518955 1.020806103150243 0.0
8.99090422125785 9.593878510105375 0.0
8.133165456134304 9.257620998029804 0.0
7.976779931497633 9.420725324095141 0.0
9.77231778617502 7.927819487779705 0.0
7.957213679655531 4.364530256281665 0.0
9.609903116082736 8.403725680286847 0.0
9.724891358972584 8.388392708395173 0.0
9.687487059868507 8.495935345161797 0.0
9.810055520269009 8.494090598382963 0.0
9.755967487162335 8.599790818513082 0.0
9.645698986824481 8.606121319182705 0.0
9.721376049217765 8.699989876681524 0.0
9.773009257015609 4.884557953188837 0.0
9.830105798750992 4.796546393900876 0.0
9.775335108731761 4.686093304257503 0.0
7.455611517737074 3.730099283949135 0.0
8.906943567829634 0.4197477661467797 0.0
8.980613334153533 0.5814185917581446 0.0
9.081059111759728 0.4263421860552371 0.0
9.821654809259165 3.576985724143072 0.0
9.761309244784803 3.4792267780002 0.0
9.763329553045937 9.353068233045157 0.0
4.463051839136694 1.164440352584939 0.0
8.0213168204867 5.283436382300235 0.0
7.89385412333227 5.290429544753158 0.0
5.806940001023414 8.583716119232427 0.0
5.88977793877374 8.96065112858812 0.0
9.177759062826041 8.25539130897928 0.0
9.626582559276994 2.05283181283147 0.0
9.747673294325121 2.064954301745188 0.0
8.775905508647185 6.951821187702613 0.0
2.3581644273991 6.029034686663493 0.0
9.777798009058461 9.548066962498762 0.0
9.737129197219856 9.662299853506903 0.0
9.615080366030512 9.683349544763068 0.0
3.315839678697904 6.042943273456425 0.0
8.915083018115329 7.937748428923896 0.0
9.489832173860055 4.712364754630572 0.0
8.118313727862493 8.013944064029838 0.0
8.902248750797776 7.67372145952523 0.0
8.954075939212636 3.463080912810881 0.0
9.45247551997678 2.133243108303608 0.0
8.311151553157742 8.899233004613622 0.0
3.28672004268868 6.826745674539142 0.0
9.86008383798735 3.468233656255824 0.0
8.389990589860254 1.947086063498656 0.0
7.144231739553659 5.329544660076687 0.0
9.654500729007207 7.743301971143119 0.0
9.761920842881946 7.740144345898896 0.0
9.692820773976567 0.2651585113981998 0.0
9.690951720399688 6.100517071814821 0.0
9.775704281989471 6.077882312279847 0.0
9.823117117198079 4.115168542267924 0.0
9.764391943581737 4.214465954230587 0.0
9.659455011849253 4.218716850797838 0.0
9.713462125022623 4.30742830316693 0.0
9.849638067150842 4.208845651573708 0.0
6.376241713254513 3.858766051594979 0.0
6.274931849158213 3.701528298009006 0.0
7.097780104117746 1.926449727602711 0.0
2.457742027508782 3.810157622192786 0.0
2.963634206580268 3.740748099915693 0.0
5.065585416063965 5.544355730437482 0.0
9.783560252464587 7.566507987677117 0.0
9.825819294611026 7.470942204664841 0.0
9.799976114123012 1.01659516618323 0.0
9.745559590633832 0.9150866860898854 0.0
8.20473400632469 9.495828670767946 0.0
8.784586030320169 2.054461500762216 0.0
8.758471587067168 1.888286802854785 0.0
0.9188935087347281 8.510730800272478 0.0
9.674192026048217 9.20389587377276 0.0
9.796314981283475 9.185916994648775 0.0
7.206882433199502 5.452024361489832 0.0
9.773927048949279 6.334665846819535 0.0
9.830288393591173 6.225300227041885 0.0
8.25177349297509 3.282767705830209 0.0
8.099233469407428 3.304040153764131 0.0
9.607860512870598 4.315652630490023 0.0
9.403674738018715 8.367349042046314 0.0
7.611756786273919 5.018691202305147 0.0
7.549513964643336 4.923310232561835 0.0
9.80986724662116 0.2915868356190958 0.0
0.7757562810577034 3.504187313079081 0.0
7.659562100664981 4.698467529240196 0.0
6.539424975891206 3.541729955691742 0.0
6.717348880400739 3.55221857686142 0.0
6.836337579501807 2.417476958454302 0.0
7.096480496160066 5.959124656438389 0.0
7.189742782777612 4.377051328076039 0.0
7.051723187622053 4.38470822973091 0.0
7.125489805519186 4.497018383456762 0.0
6.994915621927777 4.501504591168814 0.0
7.056755276274058 4.607929817497045 0.0
6.932937068803914 4.613249390039674 0.0
6.86629288290367 4.50541343988659 0.0
6.80427099775847 4.617607827251794 0.0
6.739195362053689 4.511124964201849 0.0
6.677260697693361 4.624288827143181 0.0
6.996760608675822 4.711715831373894 0.0
6.316045249462968 0.6456945497683586 0.0
7.321834163850416 5.816449323512759 0.0
7.833101485370825 4.390058096386987 0.0
4.996572652976738 4.498711166259074 0.0
5.112334577457371 4.663858846723513 0.0
5.271923064784868 4.629759173373871 0.0
4.93773508827367 4.668006487116195 0.0
5.348137647919096 4.485934621930562 0.0
5.413454827497575 4.62999925573761 0.0
5.356581113747675 4.770594395332836 0.0
5.013422223730484 4.793321773780133 0.0
8.58674425943957 0.9312335381466886 0.0
8.776450596582496 0.9362399987293505 0.0
4.783496233934828 9.486061758876032 0.0
4.544176394620909 9.034071856445296 0.0
4.082330493623582 9.015765881393772 0.0
9.820867469965414 7.285959215547852 0.0
9.852697883440127 7.166089674802766 0.0
9.260999083164238 2.971390964911171 0.0
9.197701900169713 3.073162109379564 0.0
9.31960210441945 2.867465579641856 0.0
6.660951583415121 3.383363199709994 0.0
5.210469976037585 4.761678854423166 0.0
6.740780285297665 4.733615686805694 0.0
6.611362405615225 4.731958642073806 0.0
6.549091884465382 4.629620704100811 0.0
6.491761716522486 4.733409494449344 0.0
6.425259228542098 4.640546096196947 0.0
9.715556659367534 2.986725573570596 0.0
3.710524324925069 9.463213827486557 0.0
4.768537031214573 4.727001037865238 0.0
5.039413681704655 5.378508462165627 0.0
5.188746429211535 5.440476671296013 0.0
5.172214816037712 5.298914527247826 0.0
4.469063601436893 3.667917323494335 0.0
3.799121596584382 4.741629285988305 0.0
3.661085664896249 4.442847704416992 0.0
3.316563386321876 4.380147387454913 0.0
3.802087298647255 5.26743535640985 0.0
9.738116341343215 8.047178982429934 0.0
9.85106076399546 8.021725551312715 0.0
9.837581050304836 2.844176011307251 0.0
9.664579962075123 4.402853107737106 0.0
9.76433159763034 4.39807801415352 0.0
9.718924973226878 4.487825491046641 0.0
9.826405563645343 4.494594135148365 0.0
4.931068003413168 6.359330991212394 0.0
5.130175746947236 6.201075257041828 0.0
5.143884286052002 6.445382329515047 0.0
4.953395875296406 6.628748468717369 0.0
7.833019185167153 5.400347121613631 0.0
7.766636138801143 5.313240048256084 0.0
9.767038723422333 4.578090619166644 0.0
7.315369355237483 3.441501197259575 0.0
9.556068971301514 0.2347811136726856 0.0
5.733871280791703 4.444861510772459 0.0
5.828809543126846 4.569791247698539 0.0
5.986701526182213 4.562881783985375 0.0
5.912543327921148 4.692966271273211 0.0
6.052130330528581 4.682477327897978 0.0
5.773525984744635 4.697697018456535 0.0
6.121646311546238 4.572302645403103 0.0
6.182349700936326 4.67713231096357 0.0
5.846371383601797 4.808939734754761 0.0
5.117807918383606 5.974361363083184 0.0
6.256132501905665 4.575863546153224 0.0
6.324770064521816 9.645040261272253 0.0
7.345522892050965 4.12581088034536 0.0
9.338523512844539 4.854480276600515 0.0
9.286984287289403 4.959628690044808 0.0
5.676298026114105 4.589279806918992 0.0
5.631257891894775 4.722749088404111 0.0
7.970415275563177 5.621040275419208 0.0
9.565118337557308 7.081391220827488 0.0
9.626201005045262 6.980441083020495 0.0
9.733729506193331 6.979928568877979 0.0
9.684556253529976 6.887102896543928 0.0
9.780785815410074 6.890287441101827 0.0
9.740054813822885 6.794211367612523 0.0
6.462628988057306 7.629921412015864 0.0
6.692564520952154 7.473594130811262 0.0
6.927983108788191 7.570982428592125 0.0
6.899878641134941 7.329306734748538 0.0
7.117542472438434 7.416951094809493 0.0
7.089537168123128 7.186691566729968 0.0
7.296585396514727 7.275888419524222 0.0
6.879678873774065 7.097443005287856 0.0
7.063454637059129 6.967740076426161 0.0
7.329105042924355 7.496317641003757 0.0
6.867084781778411 6.878842928865059 0.0
7.494278796275744 7.351949197351029 0.0
7.462564159480594 7.150140034494138 0.0
7.644835001206406 7.21506678718646 0.0
6.682478929414216 7.008358327294905 0.0
6.449199855715812 7.365660640952548 0.0
7.548139855358765 7.57299228324251 0.0
7.008502809092701 7.844601794812628 0.0
7.371739019901781 7.707688433423657 0.0
5.665345294602155 5.290628720253272 0.0
3.987583013016546 4.486920698115711 0.0
8.893480480320447 0.7785000884179994 0.0
9.715485963651112 0.5955299613117169 0.0
9.761785841543585 0.7048670948649375 0.0
9.670304314877074 4.578896619304786 0.0
8.058509626083154 5.744161686650483 0.0
6.181795443628869 5.462040811515966 0.0
6.256771804808641 5.338464817889848 0.0
6.124070400983443 5.352376180901929 0.0
6.399679261813415 5.349186390888865 0.0
6.477776305607503 5.46505688468465 0.0
6.541624525938461 5.346017118512589 0.0
6.673064575428321 5.339051516933525 0.0
6.599301548842115 5.241958624987057 0.0
9.573774011620444 0.815274945835158 0.0
5.86493292693426 5.877588788523632 0.0
5.552663040119136 6.957487930464628 0.0
5.535080960199246 6.663033131707637 0.0
3.708603689392072 0.5979254716153909 0.0
3.31896983256719 1.188583855309964 0.0
3.895664898001925 1.128137111173669 0.0
6.363360407965353 6.032416442205533 0.0
9.445959758065749 1.070139246426051 0.0
9.50632172780449 1.214052376665338 0.0
9.441030033980638 1.325047485624912 0.0
9.295799464644857 1.341410624832976 0.0
9.184164107767781 1.461677744200096 0.0
6.407191016756832 4.407273313799791 0.0
5.544591888593027 0.7652641669375747 0.0
7.883090151006535 2.497506182548758 0.0
8.073420508370992 2.120510489750234 0.0
5.494822040671399 4.732314720081375 0.0
0.8986976806403217 1.464611451578306 0.0
9.536325549598013 6.83286654168725 0.0
5.972289519322897 5.727532110854501 0.0
9.82203607053145 9.443411729566549 0.0
7.263199949874008 7.064207941227515 0.0
7.233659553805083 6.853135694774254 0.0
9.793310082768443 7.072747972018893 0.0
6.734168931095253 9.67499220075154 0.0
6.941134861034159 9.382328333169653 0.0
7.285822522704258 9.443989747444657 0.0
6.576263515512108 9.333035011158342 0.0
7.160560566479093 9.127732577621245 0.0
6.218711947378506 9.298064908857533 0.0
6.432383355119106 8.980985203293491 0.0
6.795390278360442 9.046043538032663 0.0
8.54677014121837 0.1957422484480979 0.0
8.528696320820908 9.804850950580938 0.0
8.42644965647489 9.604735484095604 0.0
8.010239224104339 9.715048083583248 0.0
8.644359648763341 9.628432815860457 0.0
5.344212921686536 5.526744195650314 0.0
9.760936589662048 7.38409687515441 0.0
9.128187788393989 0.1445485608215519 0.0
9.133307661752394 9.854833215426817 0.0
4.867351616228264 3.944459575003425 0.0
5.905323253270366 7.385600364255367 0.0
5.909045412185362 3.361969954191194 0.0
5.80580919758911 3.569999290452344 0.0
5.578230704221431 3.587842862412673 0.0
6.013352753603037 3.550699073477782 0.0
5.936624955014758 3.721630401607248 0.0
5.735413275357409 3.78528948606432 0.0
5.512538847486775 3.794760621907932 0.0
5.360571639388366 3.618649018042938 0.0
5.134141179590394 3.459385929220745 0.0
6.167399567008798 3.367365990358096 0.0
9.766756262206602 8.291756450136036 0.0
5.486063578307141 9.64505925252771 0.0
9.497624614180321 4.328873442170357 0.0
9.811387324954623 1.570516917365688 0.0
9.389210081887331 4.69150887571586 0.0
9.704395728912932 3.754226393630331 0.0
9.808172776193384 3.748784464356272 0.0
6.549660911932182 4.839747932361234 0.0
6.757415124099031 6.077939876843736 0.0
3.805578542126494 8.040840085419626 0.0
4.232580149691158 8.198659880701744 0.0
4.559765382564095 7.87091698350757 0.0
8.3829075948167 0.9495097054886067 0.0
9.8571301061408 1.456307792614791 0.0
2.005900212453279 4.535525273813588 0.0
1.85904408608185 3.956445706785572 0.0
1.979307922430775 5.474327285927505 0.0
4.387923194305381 4.427191306527721 0.0
9.429258370703248 8.873693567695483 0.0
8.99196583083892 4.664567567015693 0.0
3.050357122593155 5.368999067452741 0.0
2.861107385476722 5.785089447130829 0.0
5.005058958272409 3.711196438448062 0.0
9.8972295764837 2.755337284632969 0.0
9.581048890980513 8.853909321617065 0.0
9.668838904423916 1.762418716497425 0.0
9.716576458425756 1.852218615166234 0.0
9.799043132681442 1.780583141193779 0.0
7.661868217848455 2.880323287492419 0.0
6.780136552904057 5.443858690999834 0.0
6.489544866845868 5.913957888434588 0.0
6.880149522020364 4.134257616716107 0.0
6.970134365280068 4.264072319341612 0.0
2.225481516813409 9.348422240784 0.0
1.843418032490818 8.641605249943353 0.0
2.198000805242772 0.6459947140825729 0.0
8.740020306282506 0.1903932731609072 0.0
6.86957996016679 4.720776242956433 0.0
7.430920333506809 0.2702852342693345 0.0
7.302066064947383 0.6134316505458445 0.0
9.305398039877746 4.64854361125207 0.0
4.078151380865065 5.203425462519088 0.0
4.080704120371218 4.778853303303787 0.0
8.052525541571825 5.965483159581719 0.0
6.367194027835946 4.754896037842673 0.0
8.604191121620719 7.648182513679963 0.0
9.546446695207845 9.234701521982952 0.0
9.018652854946867 3.351011585453845 0.0
9.143853648154607 3.350173119015413 0.0
9.067079866763024 3.245174561579149 0.0
8.991492136849105 3.135578770028028 0.0
9.29603967712795 0.1426516429033488 0.0
9.392428271030795 0.2506306237151588 0.0
9.223973843394301 0.2912279164401488 0.0
8.39375191941536 3.018777714002827 0.0
8.4836475746111 2.88135207267795 0.0
8.741089053946197 9.821127577434911 0.0
9.803966507713174 5.448064463539533 0.0
9.748132240148552 5.359371181503531 0.0
9.850258990973547 5.355211921626304 0.0
9.7965346514158 5.266762244994661 0.0
9.84142096963129 5.171050273734619 0.0
9.738843612428232 5.167483913244169 0.0
9.64168976006725 5.359875132194057 0.0
3.335917453809221 5.671837672982919 0.0
6.962669142802881 1.683222554707996 0.0
7.365210844496719 1.887492842536114 0.0
7.517378971174123 1.677983072937792 0.0
8.00383870208024 6.089394601875145 0.0
1.725435941000569 2.759295503019395 0.0
7.907977929549089 5.102827208603365 0.0
8.052861051278896 0.2683271125209605 0.0
9.80169732768395 3.385443381464333 0.0
9.831597648680848 3.28491948963525 0.0
9.736335895866404 3.316207814499244 0.0
9.597256128490281 3.756160701977744 0.0
8.865819925321706 3.366235906378775 0.0
8.489614436807788 1.757152185195495 0.0
8.88089641144391 1.078983279100314 0.0
7.430923851187758 9.724389499796425 0.0
7.584252919312249 9.509430586267927 0.0
9.744026095940516 2.247117754488748 0.0
9.729961521243718 2.659836747108116 0.0
9.790866569780063 2.558993767350471 0.0
9.736606445116795 2.455104424879619 0.0
9.846806182714698 2.452157456754448 0.0
4.518102112052724 5.141350889745285 0.0
4.519880229178207 4.85678334497067 0.0
9.7302407894617 6.434012603549242 0.0
9.787537474544765 6.523591663056312 0.0
9.744262337067932 6.617499601377625 0.0
9.8406238811518 6.41591236129004 0.0
8.914967252734657 3.579360039684312 0.0
9.154797282599406 5.670753066089419 0.0
4.228839454580575 4.612979739018002 0.0
6.095037541675208 4.42126627187728 0.0
9.304166983880842 9.864854494751789 0.0
9.406445527105628 9.759007358529582 0.0
9.256225114941945 9.700832989525724 0.0
9.796206564635622 2.351215649506205 0.0
9.849373673349081 2.25090453834006 0.0
6.332048155295931 3.511675163099286 0.0
9.069679774213784 3.022879178706259 0.0
9.070599961450037 9.055284879641471 0.0
1.808685691036764 6.331557276533421 0.0
7.120156826652838 4.698481230214924 0.0
7.052894345811342 4.799848851879358 0.0
4.739957520484086 5.369107149361242 0.0
9.389197839958292 7.197139943834638 0.0
9.046688232613976 4.560364044038737 0.0
9.162685461967492 4.562194096410666 0.0
4.227377821420887 1.564128177298305 0.0
9.201090975245227 2.794301402811909 0.0
9.251941624303948 2.677556975242327 0.0
9.186758273070138 2.563916005021366 0.0
9.317609833868786 2.560335260954038 0.0
6.57599191748324 2.437689779955877 0.0
6.305556560534859 2.459112595979303 0.0
6.981058048792093 2.642476994448363 0.0
9.886113463139504 6.510498309609482 0.0
9.250462794607717 6.221362629571698 0.0
9.305373999084068 6.108271307139882 0.0
9.390477915810829 6.228015172491477 0.0
9.44452571968143 6.114582165110393 0.0
9.502105740270528 6.197677857389309 0.0
9.31559697209813 6.331647407124485 0.0
9.370938253597153 6.437386206819511 0.0
9.594764406124872 0.1099001288712305 0.0
9.602872681151728 9.894988341116305 0.0
9.622661196143387 8.076680696281343 0.0
9.769069277144705 5.9102532189237 0.0
2.615076109785583 8.807551523115547 0.0
9.658920005405456 5.730890135691177 0.0
9.76063135061807 5.720703211793342 0.0
8.63963723169499 7.177334225227945 0.0
7.841904391869763 6.41346852896409 0.0
7.764520718520185 6.297267738834625 0.0
9.546492996136271 3.465225175657335 0.0
9.25600964352143 2.219157062786616 0.0
7.625057159226293 7.012987957636062 0.0
9.529121062829038 7.730283486008674 0.0
8.329887090625894 3.845190321147069 0.0
8.265841850823831 3.95687001944245 0.0
8.402006523775544 3.947660780406651 0.0
8.128436391670505 3.968543393650448 0.0
8.46705122470662 3.835767362024195 0.0
8.218867047074696 4.063481375518748 0.0
8.089763413611255 4.08062363292928 0.0
7.939578083855268 4.111915744184436 0.0
3.74991304509639 6.615676756107112 0.0
2.627714335615619 1.170993030860914 0.0
7.046129971268607 6.759930788612616 0.0
8.534603732661887 7.486325780553722 0.0
1.569381386467569 2.042794535871475 0.0
6.228703743210918 1.986421863690014 0.0
6.467030855792859 2.67190498312861 0.0
9.272246093269825 1.975478263632296 0.0
8.05269609263041 3.854522845257449 0.0
8.008595521536957 3.177870309354594 0.0
7.929796740504207 3.350600835935766 0.0
8.048703574664067 3.449582532910417 0.0
9.72947480375618 4.973926800124758 0.0
9.784850360535604 5.072865219810449 0.0
9.896036387646596 5.069261557893528 0.0
9.633140953203334 5.168645132864771 0.0
9.558102991128836 7.602453108835212 0.0
7.278758746505716 3.994295887299482 0.0
8.306681733482405 6.936428510427854 0.0
9.487163072013963 3.757777670075558 0.0
9.532950522284125 5.359403698944497 0.0
9.816036650072329 3.927268437107025 0.0
6.173882586235392 8.734645960664665 0.0
7.972518459433741 5.003005338485466 0.0
8.398453459336153 1.601072016988848 0.0
8.97460527296194 4.040886705742754 0.0
9.037941657530773 4.143578781749325 0.0
8.849604200183613 3.828506169652706 0.0
9.545296177100065 4.042698359132156 0.0
8.595941796785514 5.806754902023664 0.0
8.65588412428292 5.694192853853139 0.0
8.723710665131787 5.801528918332044 0.0
6.861288985046249 6.673713222735126 0.0
8.87477249219366 4.664500928777609 0.0
8.72385765226959 3.608276264790996 0.0
7.145228858696953 5.573648565429618 0.0
7.282945121585866 5.558559688509987 0.0
9.224761401603633 1.602363370249125 0.0
9.609115686587552 2.986868833620756 0.0
9.633989947851914 6.628120633848649 0.0
6.046214325132457 5.45615093027661 0.0
9.017014346798927 5.271996636983457 0.0
9.070824864071271 5.168510834798647 0.0
9.189021391555556 5.166867900487267 0.0
9.123328759137758 5.064718588163964 0.0
9.240587446378079 5.06459430516883 0.0
9.250848280531756 5.267364371053135 0.0
5.773050603406019 5.7192906317521 0.0
8.576466432793914 4.3559007860436 0.0
8.634627802680399 4.253467736542067 0.0
8.461790117175607 5.591735227444779 0.0
8.907610717370224 3.713397213891439 0.0
9.80665594564509 5.628066492225966 0.0
8.985935132601089 4.455263493464225 0.0
9.00640209566022 5.067597672073404 0.0
9.833659276096986 6.976519563917422 0.0
8.0283368553477 4.687271895436317 0.0
8.326580191759327 9.127498457128247 0.0
8.650637373791266 5.07513089931925 0.0
8.701067313435203 2.700069743477523 0.0
4.825307249916392 4.884175191874744 0.0
9.418335984190309 6.858444798015129 0.0
3.91434687300816 8.542956908935874 0.0
5.569239724399552 2.064135034637056 0.0
5.234271567762738 2.128974435011933 0.0
5.757920427527626 2.312422707096966 0.0
5.43365689737979 2.427455772745759 0.0
5.673210219624612 2.602111218343444 0.0
7.214258468265766 6.652783071431555 0.0
9.823626269633962 4.30685540664529 0.0
7.96996639420014 4.794005510174826 0.0
7.616003332725032 0.502676560965646 0.0
3.050634530589821 4.659174799474146 0.0
2.870894249800723 4.246924313393336 0.0
5.285393339952368 6.079037173753393 0.0
9.439954241218905 4.23581687956071 0.0
9.67709722097145 4.710772408106511 0.0
7.40767785509217 4.259947873553335 0.0
8.396202587439676 5.486075637998701 0.0
8.323689688705493 5.372061002264632 0.0
8.191312386254125 5.384662546230823 0.0
5.304380054816289 5.369675374029755 0.0
9.093848379546637 4.047647920840374 0.0
7.916313220758624 3.045043876114836 0.0
8.435854831444637 4.144861908356168 0.0
9.060262453079693 0.7340576053322918 0.0
7.053195520344596 5.238809779682351 0.0
9.621762679347093 2.45205452967588 0.0
8.410730269104743 5.287995309529392 0.0
9.655094569234972 3.472720279371932 0.0
7.982140513923982 6.667914768024983 0.0
8.402690325256646 4.883576657130221 0.0
9.17488654147479 4.962006474835693 0.0
9.013188196102961 8.49700148123058 0.0
9.795977244531603 2.156818021002043 0.0
9.893813711206834 9.545820400859157 0.0
7.965349232662289 4.250048884270795 0.0
8.644264557989125 4.874751532150782 0.0
8.215430976121077 1.26077208565765 0.0
8.379717637669398 8.37324652769609 0.0
9.320026533461409 5.559861899725609 0.0
7.885778178744864 0.4977439426642278 0.0
7.547066983926719 5.125166613071239 0.0
7.657542898944819 5.122996245335209 0.0
7.423918840193691 9.000935553397358 0.0
9.854133000712425 5.541931969512857 0.0
9.328508174398952 2.101486405523264 0.0
9.300749600926641 9.530012105354274 0.0
8.130307182491519 5.277079344947874 0.0
8.346752967392757 4.987627363826086 0.0
9.118404185029991 6.007087846617186 0.0
9.048232213728614 5.89431792713258 0.0
9.088340967655858 5.576242562571367 0.0
8.094762487139027 4.789727191449318 0.0
9.915265904493378 5.749591413470928 0.0
9.92169805280126 6.154216704502091 0.0
9.918022441582268 4.549125436287157 0.0
9.919332362905616 4.849536560132457 0.0
9.914800786693318 6.750595509794719 0.0
9.811792900437824 6.703950687575952 0.0
9.900643083988882 3.749855087409844 0.0
9.912423171222734 3.043228996968949 0.0
9.91892875832665 5.949999999993851 0.0
9.913300070218703 3.960831593817277 0.0
7.709347001661226 4.444236534782706 0.0
7.479443107717332 8.071637285053104 0.0
8.839057072155848 6.807845119358974 0.0
8.972330068019902 6.78765448182788 0.0
8.542093772125282 3.941452413628317 0.0
8.279144752968262 5.930387616620717 0.0
9.393455876855919 4.973162505621418 0.0
9.507123333872533 2.855087674515822 0.0
8.77504684283825 2.317347145885344 0.0
8.394133129040345 4.464046960801843 0.0
5.725509852450801 8.210843960481027 0.0
5.62632390239664 3.967637659758752 0.0
7.910815814627989 4.900765971697654 0.0
8.595808444085467 5.590040244353608 0.0
9.705160502006024 0.8106158419444889 0.0
9.82021247904746 0.808810893177099 0.0
9.218352146075844 4.447736986422823 0.0
9.20781892622228 3.858281726888132 0.0
8.713609974387523 5.178241668554946 0.0
3.55755059259364 8.921522400238844 0.0
9.59122926011489 5.452844834281716 0.0
9.70565100407009 9.77887811062354 0.0
9.826938454219809 9.74303055702321 0.0
7.238962096855633 3.278078153406256 0.0
8.575609105166194 4.567807831727537 0.0
8.936449841121737 4.765835458965493 0.0
5.59323463391086 9.248527978398117 0.0
5.280809113285124 4.886132326418428 0.0
9.328132730893216 6.544753806716806 0.0
9.026944889277736 6.67247283515637 0.0
9.81946239021469 3.007926663525007 0.0
8.677633568960493 6.144049349297466 0.0
8.33427489656924 4.571212803519522 0.0
8.55734024448315 6.382535186588269 0.0
8.692399379422756 6.372347713955898 0.0
8.495817478252626 6.503308565233578 0.0
9.905494734661673 2.544078755559835 0.0
6.177101405266569 7.228490244483556 0.0
9.825373011845263 5.807482724503027 0.0
9.808678508609606 8.118683092442964 0.0
8.397717712407108 7.08010313863416 0.0
7.428555529689225 4.935946611338556 0.0
9.575504958128711 6.125633853639113 0.0
9.154066996197898 4.146562596982661 0.0
8.074381802159323 4.337569667261167 0.0
7.018337246891919 8.843475095716133 0.0
7.970627172560641 2.658650028065857 0.0
7.382546388883145 6.723381543491632 0.0
6.822972334933889 4.884555620881615 0.0
8.343732976791593 6.041576709398377 0.0
7.743680217306919 8.423336160305476 0.0
8.505717922983454 1.115022897794028 0.0
9.113973198216474 6.992972408167606 0.0
5.818882632841168 5.300437503812764 0.0
5.951991891717714 5.279516346785062 0.0
9.450183479138845 5.92934813870612 0.0
8.783346541536119 5.48419035750989 0.0
9.38074895894124 5.65076274999803 0.0
9.513658728876734 7.193620441323493 0.0
6.396040948797887 6.776064256962667 0.0
5.389661780244388 4.89715084345563 0.0
4.473247649068957 5.85935163892416 0.0
9.249586607512612 8.37680799459232 0.0
9.103796366487646 8.379197231055114 0.0
6.274057301184156 4.87985402946409 0.0
9.259628836118232 3.561431822636308 0.0
4.037922477011971 5.489409780163391 0.0
5.62712958624254 4.893925433488392 0.0
8.806426003347967 6.133410188141932 0.0
9.53304466499349 9.59279975429444 0.0
9.542890959420024 1.966631379116419 0.0
7.459736176874619 5.863847835420528 0.0
5.937613117200432 4.89232797168023 0.0
6.171611131472617 4.879541833448487 0.0
6.100695199816815 2.291172318314745 0.0
2.315194906726768 8.081958163666464 0.0
6.878489987598286 5.148099521847569 0.0
9.105264414399338 8.639184652727645 0.0
9.20047261316883 3.457820810661327 0.0
9.895329010385955 7.55944047105717 0.0
9.912742873006831 7.76210330502246 0.0
9.37761459375249 3.168397068877758 0.0
8.946121261512507 6.345629828835438 0.0
9.918632496443566 4.449809517365367 0.0
6.848211525651934 5.945010613369067 0.0
9.915721525903255 2.047407395915179 0.0
6.117255841708726 5.163321965161054 0.0
7.276595248786602 5.347247322210079 0.0
6.32682869954104 5.23674259421017 0.0
8.785886448438022 5.692775375342819 0.0
9.099994401883361 6.776698531382792 0.0
9.913397459621638 0.2499999999998165 0.0
9.910352525643928 0.4481571029410266 0.0
9.907850422008579 0.5479735220323012 0.0
9.911983631350465 9.24778487019403 0.0
9.917634740384067 0.7514684821956668 0.0
9.195214232985496 3.254172408378337 0.0
5.000896927376288 1.846006038077654 0.0
9.917172478547403 8.250155740683276 0.0
9.908120476950126 1.742986232208194 0.0
9.914524635720774 1.949567899316728 0.0
9.907358878377153 9.145625165175748 0.0
9.917695944922635 8.949999999998397 0.0
7.648387553139914 5.325741673607362 0.0
9.605343588986079 4.130627398479715 0.0
6.648113233057817 6.774798386229164 0.0
9.910347203087213 8.446729917003672 0.0
9.913623694530468 8.548470085896316 0.0
9.9201245863254 1.536225488581779 0.0
9.906538426683255 1.059019360781604 0.0
9.912867352010919 8.74999999999809 0.0
9.799662981388353 8.79550485462418 0.0
9.831828680383174 5.99966894118311 0.0
9.91414179906643 1.263025320602998 0.0
9.920690092699912 7.240982963665807 0.0
9.385889285950551 2.235126904097426 0.0
9.28133998925606 8.00415195851526 0.0
9.817074723108401 3.172398890123306 0.0
9.482030285089927 7.512954023388035 0.0
6.682432918504054 7.233889573028878 0.0
8.528699633246763 3.260502457553277 0.0
8.91699963742029 2.327016692708648 0.0
9.267676068834481 3.954520684561369 0.0
8.70811637467455 4.974101624783084 0.0
8.18184214270768 7.816666208279135 0.0
9.690393137288163 5.264344933127836 0.0
6.937111790104696 5.245184991960528 0.0
5.895846026722989 5.174232967273284 0.0
8.281683356622615 6.400073017261236 0.0
9.150883172924027 7.444273543454419 0.0
5.430406600793122 3.390815886517273 0.0
5.049583827974758 5.697634876048387 0.0
8.3966710383105 3.495813899905868 0.0
9.007538428392454 8.046563579784266 0.0
4.645155158868719 2.637132843684674 0.0
4.887444326771336 2.30020425915506 0.0
6.483736782775559 4.522536327482678 0.0
7.843169154548308 8.2116075844056 0.0
5.06295551628385 4.901632590583318 0.0
7.201400991012747 5.138239336380897 0.0
8.519791031104612 8.848807089071627 0.0
8.658623737989732 3.031313729049854 0.0
7.585566208322493 3.629882964874684 0.0
8.411818469596405 6.834326722716643 0.0
9.172363528634236 7.669230647622864 0.0
8.85455683341768 2.682483055215344 0.0
9.359398739738925 1.631421337140716 0.0
9.071793864444992 7.337030604117359 0.0
6.968394563521436 3.712808894519514 0.0
7.899236117684646 7.094583340182754 0.0
9.54362864504834 9.781852543872333 0.0
7.151298729743687 7.644795130415299 0.0
5.452218361466201 5.186873761308322 0.0
5.517642289161902 5.293540933999446 0.0
7.802500357665464 5.978295671754199 0.0
6.594850839687122 8.491429270558893 0.0
6.029132431949566 8.294997405201931 0.0
9.31286590869111 0.5672913838331921 0.0
9.25238720319541 0.4415953739444106 0.0
9.550589523211062 4.228044955453704 0.0
8.748611832783206 6.250900951984038 0.0
7.566980108995873 3.995148257893202 0.0
7.426142759241261 3.996743578498081 0.0
6.478912513785404 4.000296412419969 0.0
9.30435638148753 5.168210982711592 0.0
7.542154188520517 5.752525075248498 0.0
7.219033852073297 2.139582470800704 0.0
7.370913620388047 6.545121498197235 0.0
5.226731036024996 5.187572666585561 0.0
8.515591031124366 4.462223215179979 0.0
6.762864307079274 0.3078036604979366 0.0
8.587432696997471 4.977010533175154 0.0
8.703948448756302 8.815629076400704 0.0
8.081003990931544 7.370949680119862 0.0
7.424404567669909 6.949730915714445 0.0
8.578903262311433 8.377992954045473 0.0
7.301258690263783 6.106184350645308 0.0
5.991600556904204 3.99820087171043 0.0
8.203048538477193 1.601044215405025 0.0
7.289972483120081 4.572350254111052 0.0
7.714697186439165 5.420586967696794 0.0
8.918853780709807 1.841796898567452 0.0
9.919941345877513 4.749808449067644 0.0
7.245589454939737 5.94251251443003 0.0
9.258480524497795 3.358952871140391 0.0
3.705877615124628 5.574038727593425 0.0
8.287096858129765 7.962370605242409 0.0
6.799629860952143 3.705385600481528 0.0
4.146753450763018 6.544154457143895 0.0
7.413973555029582 5.545687501585183 0.0
8.466524978378082 4.980481756569235 0.0
7.336312153537934 2.337983522449311 0.0
7.695505222753409 3.747498713679684 0.0
4.898236813123799 4.795853653580084 0.0
4.59779105899602 1.896916774247134 0.0
8.560170375862322 7.072369101894893 0.0
8.386150468360862 2.449771437140704 0.0
8.41200018115259 5.084601315536367 0.0
5.102189912301071 7.621598618277815 0.0
8.336320418935243 6.71651223072348 0.0
5.081745734883095 3.977838926197614 0.0
7.63590698378166 0.9500570055008507 0.0
7.743369677149255 3.051233984704873 0.0
5.357527459690566 0.3809996753407537 0.0
5.967373112873382 0.7731113464301924 0.0
8.169449265206127 6.666271947462212 0.0
5.95122726745053 5.55758205410881 0.0
9.922289489207834 3.53923011719877 0.0
9.39154684476555 2.659037023454942 0.0
7.701415639167884 7.690060291860976 0.0
9.819179654793023 1.329863870021845 0.0
8.358229579054417 6.506108206863729 0.0
9.269720555169467 5.657096143475924 0.0
4.473187658045934 7.435037860084884 0.0
9.65807158077373 3.255496360750368 0.0
9.605155446454205 8.713645566904637 0.0
7.097383547728313 5.141197376985936 0.0
9.812212483832656 1.89920712759492 0.0
9.83875570675407 6.81603549325055 0.0
8.926246869879279 2.079976511571457 0.0
9.166785856141402 9.169070814302419 0.0
8.763479010228052 1.587152667342957 0.0
5.957377924852992 6.404530806530254 0.0
7.14506854375872 6.10342416684208 0.0
5.672595070581394 5.164323323112049 0.0
4.899782787268781 0.3801727265981219 0.0
4.447133848117348 4.673614099606824 0.0
7.044865074789195 3.253639989243549 0.0
9.818461337102992 7.819456450952447 0.0
9.925334577033155 7.954012377173311 0.0
6.352907898232792 1.173665225954276 0.0
7.351721385581032 5.660361289755705 0.0
9.337367583861807 2.76534436379692 0.0
8.693118347802024 4.360254099729149 0.0
9.476812970101324 0.3524826622168163 0.0
7.109868985890334 0.9024224571333925 0.0
7.899106846231403 5.511805431542581 0.0
8.352799544476607 5.187887629361129 0.0
6.957483547582747 0.6176251309213842 0.0
8.099559500483094 1.412323841044818 0.0
9.913030944540278 0.8542404645334569 0.0
9.143075088381442 8.022165366829135 0.0
8.819861450593166 6.356592599428041 0.0
9.319444417409162 1.49938505915629 0.0
6.490262520326714 7.118204362551877 0.0
6.490874470087819 6.582907761235813 0.0
9.82506653058937 0.6146757679104559 0.0
6.803129818897624 4.419048038171804 0.0
9.840901379354312 0.08198751964190581 0.0
9.839740374244226 9.918356239418472 0.0
8.551927134544655 9.449788917425456 0.0
9.92097857388158 3.249999999993177 0.0
5.797087413057367 7.077351493358238 0.0
9.255412859987286 6.433984412022419 0.0
8.668174522249984 1.740767926084485 0.0
9.920991430240607 6.25262219124529 0.0
7.57275248448898 1.94367954756322 0.0
8.052865444445507 8.19900054463639 0.0
8.748697149245206 4.25201068974208 0.0
9.158270227735827 0.5542256343091421 0.0
5.997487767477439 4.787924707603557 0.0
6.119759900601896 4.78043793682227 0.0
4.353034750397793 8.619182743639561 0.0
8.721093521611476 5.588932824583312 0.0
5.717101151444983 1.123034066822819 0.0
9.825602081347064 8.68753399402474 0.0
8.005502510832988 8.7824052910506 0.0
5.548184234622668 6.408009287230429 0.0
5.77830300433981 6.598697187164234 0.0
9.613093825495433 4.50282172481406 0.0
9.928981132641653 9.74928475696928 0.0
6.613628176297015 4.515513362596662 0.0
1.822126723816303 1.297795131355289 0.0
9.514164594137375 1.43081427463862 0.0
4.735494753432723 3.698541604583975 0.0
9.52844959749262 8.615213629960298 0.0
4.660704511759056 0.7947595073298008 0.0
6.82340845160293 5.239926830264399 0.0
7.885938077030673 7.380147032865134 0.0
7.884599891021201 6.09005968568029 0.0
8.846834820720167 9.653276456345532 0.0
8.457777199486827 0.3851010632068662 0.0
6.66485224572131 8.771510767670392 0.0
9.091499342133352 9.708315832477556 0.0
9.824286725109655 4.976315293637262 0.0
7.848197684391786 5.632217046637356 0.0
3.88430598115417 4.225391362015386 0.0
8.776890759183289 2.809688928468134 0.0
7.393884285023409 3.59397875231041 0.0
6.927568893329758 4.396788356869783 0.0
4.96854327720728 2.662368428358774 0.0
9.1480130720193 3.951479613991279 0.0
7.071049729490975 2.38092990636632 0.0
3.40193058782919 1.686321186206593 0.0
7.612042194200681 4.815904436723407 0.0
9.043395868401339 6.888481825015849 0.0
9.098933057562759 8.152197681006806 0.0
6.058682303253315 3.857501492181965 0.0
3.707092669281355 2.986685502034343 0.0
5.113272509841263 5.189455016444592 0.0
6.960565857079232 3.416349532571279 0.0
8.755151527375476 7.649255597361291 0.0
3.393680865444538 3.679982303262531 0.0
3.117424600120088 3.35605258976247 0.0
8.530814041264104 5.488376426140491 0.0
4.820719767306654 5.106646490188182 0.0
9.918899263509473 4.144927088739744 0.0
9.918194630017027 7.447268230913605 0.0
8.461970084137805 3.144844565847669 0.0
9.924415919486059 6.949999999995354 0.0
7.184050152099684 2.72771667662237 0.0
8.834356715215904 7.801565642745232 0.0
8.689015446783005 4.145232831954543 0.0
8.490778532265319 8.234414357968106 0.0
8.63666290918932 2.83060276219705 0.0
4.61028976098935 4.741894230894578 0.0
6.314735925012879 4.003132559161639 0.0
9.20786580425652 4.67001723737971 0.0
7.141401229301469 4.873205425098625 0.0
6.235177809922153 4.774126344778935 0.0
9.12491895896937 3.145675090615719 0.0
9.255747684068178 3.162525801823036 0.0
8.312852272796098 2.290855459722148 0.0
1.449266720542303 3.363629101350872 0.0
9.525687840398492 4.800807314407045 0.0
4.829905263804087 8.14474456977717 0.0
9.09338914689732 7.563794106183232 0.0
5.389401689694107 5.283808684471545 0.0
8.530979415204587 3.029374286908943 0.0
7.901489077080633 6.535344047486632 0.0
9.218572924671975 5.760893551533255 0.0
8.562382833959296 4.143913974026883 0.0
8.62959127904665 8.974877485888243 0.0
9.408442441596518 9.62276529745719 0.0
7.5034765601713 3.869833107932387 0.0
9.842813436634783 6.600620949014236 0.0
9.826116984327193 8.911617279149695 0.0
7.529907780698261 0.7369111006685982 0.0
7.832164962480427 2.905293639437395 0.0
8.39517908433056 3.267417602291069 0.0
9.823014010107707 9.085319632577246 0.0
9.022314123618541 3.944559746338292 0.0
4.243701230676532 5.332574856090426 0.0
9.816740542566388 1.127839952679595 0.0
8.166775715766304 5.693916696568397 0.0
8.865374421689054 8.068986769641638 0.0
8.761145809863661 6.470583506581853 0.0
8.998345275919851 9.209303502026401 0.0
9.698477487436316 6.706902829754045 0.0
6.439032098063426 0.3109134377713525 0.0
7.562681994382136 4.643158005207056 0.0
9.03999088074715 0.2799354672273258 0.0
5.180741540467516 3.805018725608906 0.0
6.243990330956698 2.718077286244967 0.0
9.79416634023361 0.1815240178579244 0.0
9.926540005061975 2.847049370876555 0.0
9.826476210374608 2.670192168078066 0.0
6.365816673179121 4.536333049275508 0.0
5.546353765219417 4.618331215552614 0.0
9.820703096450293 2.000649418331399 0.0
6.884388790679166 3.561583980715254 0.0
7.431303395649604 5.747824222777201 0.0
8.849816832721245 2.19318290395604 0.0
4.185147517585975 5.697469360586313 0.0
9.165905238119013 5.873664931582344 0.0
7.70479478158537 1.788324620089049 0.0
9.627376046933474 0.9196091445437269 0.0
6.657687963328663 5.144792385996769 0.0
9.83245016645186 0.3925568446109945 0.0
7.483092985762584 9.253837199159435 0.0
5.445348362202234 3.977855663863651 0.0
7.476680532833337 4.837183287808616 0.0
9.572749890969304 8.505160319814301 0.0
9.915853314998252 9.437014513917465 0.0
7.679469018350979 7.390484878021194 0.0
9.418139053434402 4.790576000488359 0.0
8.096967733471567 5.865447162201908 0.0
9.829153508938724 8.378494945652118 0.0
9.926595955569645 5.157718300415699 0.0
8.774484245600224 7.939747459426853 0.0
8.629764448155779 6.481031318922794 0.0
8.961169458302376 3.839036702328818 0.0
4.617199205561317 5.256318959792646 0.0
8.480815774219478 4.031210317621497 0.0
9.708341592512763 3.401018043990571 0.0
7.183974816647467 4.77882314543966 0.0
9.821437962294304 7.659391965474772 0.0
8.150320284869602 2.286501016204562 0.0
9.828114434347311 1.684891358832554 0.0
5.349187766238684 6.538177907133678 0.0
8.076053471314525 2.76180604769483 0.0
4.907713691134565 5.29818629967416 0.0
0.6874399366049438 4.328593906714074 0.0
0.6980011780697519 5.702671170050627 0.0
8.263861466707834 8.182284285231713 0.0
5.838783785156478 4.913981390426639 0.0
7.807619472656604 7.235706382002089 0.0
9.388504256318683 6.022122644748753 0.0
9.929839894767033 6.436189192303577 0.0
8.3205848711706 3.39107920408397 0.0
3.240770542267401 4.019899919523968 0.0
8.059047070496568 2.468855909103855 0.0
9.932479519490421 2.449625056415224 0.0
7.737639000139152 4.580708137963557 0.0
8.26141077223695 0.3940397126348397 0.0
9.69568953371801 1.959951226402445 0.0
6.469120930453264 4.892267070266994 0.0
9.167223997255698 0.8102256463122337 0.0
6.236889648241256 0.9291076084031108 0.0
8.306379082772498 5.268830342852036 0.0
6.716089118890225 5.239344620507032 0.0
9.82511981852641 9.282822358664017 0.0
6.68375719572285 4.404998642130821 0.0
8.913754712375674 6.908138360584365 0.0
6.173250048857013 5.251634416326969 0.0
4.235907497612446 1.924052997345291 0.0
5.151007663981651 2.438629730660893 0.0
8.924254300637541 9.3764975797567 0.0
4.438612423541503 5.287968640901957 0.0
8.571203234299599 1.897009944569934 0.0
6.878800676380218 5.821332862798138 0.0
5.710626178601224 4.792560699857408 0.0
7.149510071621283 5.216310009157644 0.0
2.099966541549645 2.334742113488256 0.0
9.93396330620579 5.350566393301629 0.0
7.143046479323961 8.646955109387985 0.0
7.965747313080266 5.193641450105844 0.0
6.3314394693073 5.135050228240639 0.0
7.665821333021348 6.222698255001823 0.0
6.305321657053551 4.659816230868476 0.0
7.833020917089713 5.208837056143474 0.0
9.41455902676429 2.869725681199307 0.0
8.567151507735133 6.598605357295113 0.0
7.405527786978573 4.377085529441429 0.0
6.552969697053132 5.137148974085434 0.0
9.93630620742063 8.042778076596578 0.0
7.166743296019233 4.593171678848165 0.0
6.595561806063966 5.839366735225723 0.0
6.066152182102007 5.262519562574559 0.0
9.834694151277489 0.9093455747994099 0.0
8.98259191950674 7.579732466796592 0.0
6.465071238839505 5.25485771955322 0.0
9.759759896588413 3.236659507608532 0.0
4.775529448101694 5.224235675150505 0.0
9.935991245222917 7.153416415978829 0.0
0.6530736820718381 9.352299998916202 0.0
0.6449439415299687 0.6468300344151556 0.0
7.804690364869245 4.495816547678174 0.0
9.84503784553893 5.70620404704573 0.0
9.83525329400959 3.826992990746767 0.0
9.922964894244684 4.265000406933376 0.0
8.333767638401964 1.121219971446645 0.0
8.876012546033895 7.019147158538482 0.0
8.172413577824324 3.413096916572049 0.0
7.232233017296214 4.478957103028363 0.0
6.214597295185415 3.852860083673202 0.0
9.85013791746415 4.400709747289421 0.0
3.941627380932058 6.342995010255737 0.0
3.097271569675528 8.77391871286929 0.0
9.292917152323044 6.010976049411984 0.0
8.104342196673183 5.184165973282902 0.0
8.994300084006271 3.652611812846807 0.0
9.937157897030163 5.549999999993244 0.0
8.721368888525245 7.274540720770752 0.0
8.920003648712827 0.9516585309368178 0.0
7.910527456030004 8.536826514867816 0.0
9.846441288756814 4.60515911863952 0.0
9.584942233925151 4.712073182517884 0.0
9.642357858573972 6.805672051759494 0.0
9.797024725252207 9.838837222258014 0.0
9.842451438022124 4.018973836958878 0.0
6.112723137676118 3.704473949316424 0.0
7.574641969193845 3.765362276156904 0.0
7.826594968121701 6.200366572362263 0.0
7.762805366733504 9.34009502796868 0.0
9.56854033867856 1.012566255816665 0.0
7.71256563655353 5.219373702836014 0.0
9.68039392238282 8.786964504862018 0.0
5.910362452777086 9.277662068919813 0.0
7.418090653922814 3.326443419100716 0.0
9.857704179097952 4.697553149694669 0.0
8.452469674653342 8.996585816905599 0.0
9.522351366699843 2.057525484575908 0.0
7.802315574700843 9.548878971475935 0.0
9.938875656926385 3.449999999992592 0.0
8.425189037911712 6.608575180629274 0.0
5.925965231566842 2.523669697740033 0.0
6.654918072256329 5.95749128982984 0.0
9.826748589235729 9.631118448471485 0.0
8.6684585637523 7.39633999085442 0.0
9.844673843931567 3.090088625379724 0.0
9.93613850661301 2.250382721159617 0.0
9.218291993658738 2.892108990205171 0.0
9.83502846611296 8.212781989607324 0.0
7.754136409732265 7.104288507262783 0.0
8.510570542791681 2.036933285735889 0.0
7.757745059307245 4.315798612475442 0.0
7.989231770559189 6.201656630465583 0.0
8.068934521422738 4.198631572122605 0.0
4.957478134450373 9.038766150325067 0.0
7.208661142641733 6.501402463831379 0.0
7.299506095906239 4.363561999234681 0.0
8.250303873550486 2.105322217421675 0.0
8.678637541413377 7.053471135702286 0.0
9.761528395137384 6.163503990672834 0.0
9.84494857233395 8.59999999999775 0.0
9.83825138794677 3.672838954969637 0.0
5.121008544047756 5.808127183024784 0.0
8.343911550360986 4.043535893276861 0.0
9.85324441775315 5.899999999993774 0.0
9.51114465213134 8.41035540646284 0.0
6.505812179224195 6.93390566262983 0.0
6.15572847138365 9.023097246950844 0.0
3.352081892333425 3.024853379890529 0.0
6.433163283162099 8.675072413910678 0.0
8.825744236698243 3.624446391299867 0.0
4.883007294861279 7.819620905924936 0.0
5.876659170760434 5.638247433601083 0.0
6.859400040348503 6.510797998354633 0.0
7.946400945409184 3.500317276373196 0.0
7.496830255505493 6.653194511698024 0.0
9.852183479755313 4.891525833556942 0.0
9.77998778436291 2.922486526124376 0.0
6.774672660492365 5.324728659740495 0.0
5.717254072187427 6.824125962512845 0.0
9.713440940838062 4.63793103997539 0.0
8.859858662536796 0.2721395536350836 0.0
8.37556017530946 9.436653414116012 0.0
7.395237381047616 7.885576562773319 0.0
5.4709157802033 4.511152089197594 0.0
9.489749416979361 9.691840729914848 0.0
4.599216022837964 3.46438688931078 0.0
5.572287492757569 4.807021644849729 0.0
9.926499336309957 9.92730688390086 0.0
9.926499336310107 0.07269311609890093 0.0
9.338127766332573 0.3585313952168247 0.0
6.810761948165162 3.414693294319008 0.0
8.166274345037138 5.943611545564389 0.0
5.2892644736731 6.301081312912763 0.0
9.731911074791544 7.649313380659622 0.0
8.90251102352767 9.50983415326544 0.0
8.997881406541017 1.033666784655452 0.0
5.835124768755703 2.738139962594905 0.0
9.665357480775825 6.185331297099201 0.0
7.656532192558493 8.217157287499347 0.0
9.170463887605525 2.975444721032631 0.0
4.208158615905443 0.8648302238584886 0.0
6.97015686031129 5.933674629077266 0.0
6.181941366523793 3.565885175921835 0.0
3.30313590337911 6.393402837735046 0.0
6.447482061767014 4.816169316820496 0.0
8.185341428749446 4.169172087371246 0.0
4.552595724340015 8.298301336212145 0.0
9.84850676569699 8.999999999998423 0.0
9.846941514449377 7.393642828194986 0.0
7.924592433490734 2.788309934035703 0.0
8.154308714226714 8.853640122009672 0.0
8.876629743004642 1.96110242719995 0.0
7.228849192966834 8.90811350348676 0.0
9.852301635085423 8.296637825215246 0.0
5.219795195341889 5.547413133147649 0.0
9.861497117995457 6.901363010201344 0.0
2.953911258021604 6.136007283255669 0.0
6.93158841067062 4.77708273647784 0.0
9.67540418457871 2.912802891506324 0.0
4.194055958522277 4.437353127730132 0.0
6.133959559341536 0.406856611599261 0.0
8.29952795189331 9.309744645643846 0.0
9.843692337952948 1.209647690818311 0.0
5.164986286280336 6.671544079402435 0.0
9.838533350075606 2.081705440779448 0.0
8.301244777513975 6.604088853319459 0.0
5.471494771710784 2.714598185146428 0.0
8.86534684892311 1.208599471795828 0.0
9.940610684232212 1.451558535868664 0.0
9.40896208432968 1.428353940655538 0.0
2.329177605337097 4.238803555614174 0.0
5.980761651517799 7.182207186682233 0.0
9.66541573964336 0.1719254072074424 0.0
7.220979380229172 7.806128737674462 0.0
1.251721227904697 6.151932667911503 0.0
8.104967286191181 6.057912607875576 0.0
6.650768762224724 4.817922869198292 0.0
6.634976350437587 3.213339182992986 0.0
7.034320437500567 4.898219100342838 0.0
9.502772020064167 6.283064492634301 0.0
8.13187938667684 3.518506862055515 0.0
9.855471943454193 2.599999999994991 0.0
9.056747742708522 8.263936599935574 0.0
4.352645795441222 5.724453640019 0.0
3.744263984699181 1.488951698361357 0.0
5.175860134287045 3.6375726667098 0.0
7.736434712114619 6.400417475661193 0.0
9.857658576695343 6.316607183405179 0.0
7.876525261950537 4.304285002335559 0.0
9.856114384785611 7.914602773442983 0.0
9.848334119947063 0.7059644476295188 0.0
9.59694321995579 6.895814046141667 0.0
5.906465212962551 3.869023950643881 0.0
9.840676994268005 9.364956386459765 0.0
5.355015287544095 3.83518170601625 0.0
6.374090407153147 5.855743754257685 0.0
8.227401290513832 5.297819733684674 0.0
5.451235131977493 4.825706629991923 0.0
6.022070213762754 5.355923882747634 0.0
9.845674433677614 6.108401449483281 0.0
9.835067400944396 7.739582406783081 0.0
8.602026805792988 2.941372356914139 0.0
5.059869081004962 5.269480960018243 0.0
5.284714507903736 5.26496663762182 0.0
9.627110479149561 7.660076105040499 0.0
6.820001127809743 4.792514421153957 0.0
5.120512795059439 4.806607659110254 0.0
9.56933817216883 2.911464407429096 0.0
9.74091654291531 9.267545397628387 0.0
9.93006767325302 6.576784040838644 0.0
9.642486276936268 4.650227701598451 0.0
5.185183328569137 9.410919109238325 0.0
9.37052946854105 4.605636695802024 0.0
1.677077220416309 5.871167715901136 0.0
7.345783833404538 3.184020711886284 0.0
5.419239942654976 5.982692039856376 0.0
6.133318300188262 2.551919945731369 0.0
6.187291396343277 4.499077117404439 0.0
1.231465237822878 3.921479198315213 0.0
8.969849937139944 9.699215363213542 0.0
9.218303154263054 6.037447959776716 0.0
CELLS 4886 19544
3 1113 1356 1450
3 1402 231 1659
3 272 269 1414
3 396 394 1777
3 1451 945 1452
3 194 81 1801
3 1847 1501 2104
3 2024 2121 2479
3 1115 1113 1450
3 1124 1413 1844
3 1061 1955 2409
3 307 305 1645
3 1592 1369 1593
3 238 1501 1847
3 1955 1883 2409
3 1808 243 1910
3 1885 978 2362
3 1440 793 2092
3 189 1488 1608
3 353 350 1864
3 2007 2231 2232
3 307 1645 2493
3 1096 1760 2496
3 2178 874 2179
3 621 625 1595
3 1493 1480 1938
3 1655 1268 2137
3 1341 1410 2212
3 243 1808 2360
3 1902 1446 2516
3 1760 1096 1763
3 856 790 2180
3 2008 2046 2105
3 789 1809 2067
3 694 1543 1575
3 1127 1762 1953
3 1748 807 2228
3 1543 1308 1575
3 820 1872 2170
3 1417 954 1998
3 1369 1592 2386
3 272 1414 1787
3 329 333 1998
3 1544 1095 1545
3 2231 1490 2232
3 1342 1683 1790
3 374 377 1797
3 807 1678 2228
3 1665 198 2128
3 141 142 1620
3 325 322 1952
3 231 1402 1654
3 198 1665 2010
3 1890 1307 2387
3 208 1438 1619
3 2016 1970 2156
3 1436 212 2020
3 954 1417 2333
3 1736 1894 2244
3 1491 1750 2143
3 1677 1064 2146
3 1474 1258 1475
3 1500 233 1930
3 1446 2415 2516
3 1700 973 1800
3 2128 2270 2316
3 1316 1315 1593
3 1307 2341 2387
3 2258 1324 2328
3 1083 1507 1508
3 693 1095 1544
3 621 1595 1596
3 667 1571 1872
3 1932 1766 2061
3 393 391 2240
3 1342 1790 2400
3 252 1707 2234
3 931 978 1885
3 1430 1116 1704
3 1411 1109 1714
3 1478 1227 2440
3 1990 195 2297
3 1792 1167 1985
3 1682 444 1975
3 394 397 1777
3 1711 2028 2162
3 1574 856 2180
3 2008 1851 2046
3 736 1493 1938
3 1069 1060 1662
3 1458 455 1754
3 862 691 1705
3 1161 1642 2286
3 1699 1700 1800
3 447 516 1637
3 955 1482 1483
3 2024 206 2121
3 391 1773 2240
3 1072 1412 1893
3 212 1436 2350
3 1566 1365 1568
3 259 1441 1672
3 872 870 1764
3 330 328 1889
3 1539 1161 2286
3 1897 1898 2275
3 1434 1990 2297
3 1109 1411 1730
3 319 307 2493
3 1762 1761 1953
3 1369 1316 1593
3 1540 834 1832
3 1505 652 2442
3 1732 1655 2137
3 921 1712 2295
3 1872 1388 2170
3 1712 921 2125
3 2028 244 2162
3 1506 1570 1680
3 1569 368 1964
3 1571 667 2375
3 1587 2178 2179
3 196 1723 1737
3 524 2016 2156
3 1528 1250 1733
3 1115 1450 1973
3 1938 1480 1971
3 1809 1396 2067
3 1641 249 2299
3 1223 1258 1474
3 1365 1566 2120
3 1981 962 2316
3 1538 353 1864
3 455 1458 1756
3 152 233 1500
3 1116 1430 1703
3 817 652 1505
3 1347 2003 2004
3 1607 1958 2085
3 194 1801 2195
3 1410 1341 2351
3 223 1415 1710
3 197 1511 2346
3 2198 787 2225
3 81 82 1801
3 1438 208 1620
3 1444 522 1823
3 1511 197 1950
3 726 718 1567
3 1637 516 1739
3 1708 2337 2341
3 1280 1649 2124
3 2337 1395 2341
3 1327 1709 2315
3 1225 1227 1478
3 691 624 1705
3 476 2224 2305
3 830 832 2204
3 1750 1491 2403
3 1366 1897 2275
3 2345 1583 2352
3 2054 405 2110
3 1984 2172 2230
3 1846 2198 2225
3 1177 2042 2418
3 2121 1367 2479
3 1527 1531 1541
3 916 1039 1834
3 1413 1124 2467
3 1622 1503 1868
3 249 1641 2019
3 1805 405 2054
3 1761 1007 1953
3 1415 223 2395
3 960 1756 2203
3 368 1569 2135
3 1402 1659 2473
3 941 1433 2471
3 1267 1477 1501
3 260 2002 2265
3 1704 558 2077
3 2224 1886 2305
3 2053 1386 2199
3 1452 945 1952
3 1717 1611 1718
3 1682 1975 2230
3 1760 1762 2496
3 1481 203 2104
3 1264 1266 1670
3 142 236 1620
3 2133 1182 2179
3 1791 1602 2183
3 350 346 1864
3 1412 1072 2393
3 1281 1575 2255
3 1565 1948 2155
3 849 1449 1513
3 1958 396 2085
3 1339 1069 1662
3 834 1540 1917
3 269 267 1414
3 1268 1267 1501
3 1440 2092 2468
3 1399 1981 2316
3 1635 1636 2041
3 1454 252 2234
3 1451 1305 1890
3 1375 1883 1955
3 362 366 1786
3 1484 2410 2528
3 1449 849 1640
3 1267 1474 1477
3 200 1611 1717
3 1054 1581 1582
3 1350 1977 2253
3 190 1390 2118
3 788 1956 2193
3 1709 1327 1888
3 2233 2298 2413
3 1488 189 2355
3 478 1685 1714
3 230 1525 1690
3 1687 478 1688
3 427 429 1756
3 1570 1065 2476
3 1880 1133 1988
3 1649 656 2124
3 1537 209 1614
3 1134 1769 1986
3 1220 1268 1655
3 396 1777 2085
3 1167 1755 1985
3 2229 1744 2296
3 1575 1281 2287
3 127 240 1882
3 377 647 1797
3 954 329 1998
3 220 1697 1698
3 1342 1341 2212
3 1441 264 1672
3 1512 188 2433
3 763 2345 2352
3 1685 1411 1714
3 1805 1188 1951
3 1347 2004 2157
3 1054 1582 1667
3 1333 1617 1674
3 2217 73 2361
3 1539 1036 1917
3 1039 1292 1834
3 208 141 1620
3 1965 1964 2038
3 693 1544 1969
3 1453 239 2279
3 203 1481 2049
3 945 1451 1889
3 680 1459 2134
3 354 2147 2196
3 1405 1932 2061
3 1723 1722 1737
3 1748 1175 1927
3 1532 1528 1733
3 2057 1824 2154
3 1406 1659 1702
3 1948 1186 2155
3 210 1598 2114
3 1685 478 1687
3 1324 1325 2328
3 1526 1250 1527
3 165 166 1509
3 1493 736 2523
3 1526 1527 1541
3 1390 190 2417
3 522 1444 1998
3 1680 1570 1732
3 1017 1442 2525
3 374 1797 2430
3 1507 1083 2197
3 1756 960 2221
3 2270 1400 2316
3 2205 1452 2282
3 1074 1187 1888
3 2158 1245 2200
3 1442 1017 1684
3 864 1116 1703
3 1750 1751 2143
3 1456 516 1492
3 1677 2146 2149
3 2022 1339 2388
3 1602 258 2183
3 678 1594 1595
3 1245 1670 2200
3 972 830 2204
3 2143 983 2342
3 1268 1501 2226
3 1266 1461 1670
3 1487 222 2465
3 1382 2022 2388
3 58 59 1661
3 2147 1543 2196
3 1484 1485 2410
3 628 2053 2199
3 1906 1549 2259
3 364 362 1786
3 1339 2022 2247
3 1636 525 2041
3 625 678 1595
3 678 1593 1594
3 2212 1410 2222
3 1837 1865 2215
3 1699 1800 1801
3 866 864 1703
3 893 1472 1982
3 1735 1736 2244
3 1633 1255 1922
3 126 127 1882
3 681 867 1656
3 1351 1401 2363
3 11 228 1588
3 1127 1953 2454
3 265 266 267
3 1722 1122 1737
3 1389 1691 2069
3 1613 1610 1616
3 1227 1256 2440
3 429 455 1756
3 1535 1177 2418
3 322 324 1952
3 973 1700 1802
3 1964 368 2038
3 1176 1865 1866
3 1096 872 1764
3 1176 1866 1875
3 193 1839 1892
3 156 157 1441
3 615 617 1596
3 686 1520 2480
3 1409 2097 2305
3 2410 1151 2528
3 1427 2217 2361
3 440 1911 2314
3 1744 1743 2296
3 516 1456 1739
3 1939 589 2164
3 690 931 2150
3 1062 1579 1580
3 1054 1580 1581
3 955 1483 1716
3 1064 1677 2248
3 1956 1616 2193
3 1776 1893 2026
3 1398 1115 1973
3 2002 1453 2265
3 1541 1531 1542
3 216 2191 2536
3 1736 1326 1894
3 1065 994 1066
3 1598 2115 2175
3 2314 1911 2358
3 1433 941 2042
3 2115 1209 2175
3 717 1550 1551
3 188 1941 2433
3 267 1132 1414
3 771 1569 2064
3 1157 1545 1546
3 1231 1250 1526
3 1933 240 2181
3 222 1487 2025
3 1525 230 1765
3 1430 1704 2077
3 757 1744 2495
3 264 263 265
3 883 773 1917
3 739 2205 2282
3 1667 1582 2434
3 1744 757 2474
3 239 1453 2002
3 1441 259 2356
3 2005 1443 2012
3 254 1766 1932
3 1509 166 1679
3 1477 1475 1481
3 793 1440 2165
3 1385 1523 2377
3 1481 1475 2523
3 156 1441 2356
3 1066 1220 1655
3 945 325 1952
3 2094 2087 2134
3 1747 1175 1748
3 253 262 263
3 1327 1074 1888
3 718 715 1567
3 2046 1043 2105
3 240 1933 2399
3 1305 1307 1890
3 224 58 1661
3 1195 1566 2285
3 1590 1393 1749
3 1255 1230 1922
3 353 1538 2073
3 358 1999 2325
3 882 1802 2036
3 1024 1020 1604
3 333 522 1998
3 1401 1351 2414
3 1475 1258 1476
3 2310 786 2364
3 328 945 1889
3 807 1748 1927
3 825 724 1912
3 1742 263 2491
3 267 266 1132
3 2077 2102 2203
3 1431 1432 1860
3 1212 1957 2312
3 2097 476 2305
3 1132 1402 2473
3 717 713 1550
3 1746 693 1969
3 1372 1124 1844
3 1256 1541 2269
3 1977 1350 2274
3 2332 1978 2443
3 874 2133 2179
3 1983 1534 2171
3 1157 1544 1545
3 1230 1228 1922
3 1580 1579 1581
3 1565 806 1948
3 1416 1363 2413
3 1287 1995 2398
3 265 263 266
3 1534 1529 2171
3 1604 1834 2428
3 1255 1633 2509
3 1344 1643 1644
3 1332 1388 1571
3 1423 217 2217
3 2191 1057 2451
3 458 447 1637
3 1250 1233 1733
3 472 2212 2222
3 1175 1747 1840
3 1652 256 1653
3 1073 1347 1572
3 200 145 1609
3 683 640 1585
3 1116 862 1705
3 1221 1223 1474
3 1778 801 1803
3 1503 1622 2471
3 1475 1493 2523
3 464 680 2134
3 14 210 2114
3 579 1880 1988
3 1434 1435 1990
3 1447 2310 2364
3 275 274 276
3 2294 1871 2419
3 814 1068 1684
3 1172 1439 2273
3 273 272 274
3 1363 1416 2406
3 1220 1219 1221
3 1060 1656 1662
3 1099 1792 1985
3 2048 1198 2168
3 1241 1245 2323
3 699 723 1753
3 1640 1862 2070
3 910 1018 1584
3 1586 1067 1587
3 1656 867 1662
3 1067 686 2480
3 654 2242 2294
3 1593 1315 1594
3 1880 553 1974
3 236 1717 1718
3 617 621 1596
3 1723 196 2313
3 402 1877 2116
3 273 274 275
3 2202 1869 2252
3 1510 1358 1767
3 193 1892 2373
3 1188 1805 2054
3 1220 1221 1267
3 1066 1218 1219
3 1517 1097 1518
3 1677 1676 1858
3 686 277 1520
3 268 267 269
3 697 857 1592
3 220 1698 1699
3 1802 1700 2036
3 1612 1537 1614
3 929 817 994
3 228 12 2136
3 2110 2116 2482
3 1659 1658 1702
3 1611 1613 2280
3 1344 991 1643
3 683 1585 1604
3 1638 1358 2404
3 1485 1034 2410
3 2214 833 2424
3 271 272 273
3 1482 955 1962
3 1066 1219 1220
3 931 1885 2150
3 1613 1891 2280
3 1189 1589 2204
3 1566 1195 2120
3 726 1567 2490
3 1122 1722 1874
3 1494 319 2493
3 1671 259 1672
3 1267 1221 1474
3 603 528 1591
3 1664 2128 2316
3 1817 1924 2174
3 1626 1660 2111
3 1474 1475 1477
3 1023 1062 1580
3 1957 1599 2312
3 1764 1939 2164
3 1358 1950 2404
3 200 1609 1610
3 1431 1082 1432
3 1778 1803 2521
3 1830 1832 2075
3 1930 233 2369
3 1329 1482 1650
3 757 1959 2522
3 1239 1247 1597
3 758 1978 2332
3 1569 1290 2064
3 216 1694 2191
3 1453 1420 2265
3 1549 1906 2129
3 24 215 1674
3 19 235 1676
3 1621 1057 2191
3 1691 1389 2262
3 1617 1333 2192
3 929 994 1065
3 1769 1672 1986
3 1893 1412 2026
3 1609 1537 1612
3 271 269 272
3 1373 1438 1620
3 217 1423 2381
3 517 330 1889
3 1322 1055 1667
3 1974 553 2499
3 228 2136 2187
3 1589 1189 1788
3 1999 1577 2325
3 2110 405 2116
3 189 1608 1842
3 1055 1050 1667
3 739 1455 2205
3 1865 1176 2215
3 319 1494 2522
3 2474 757 2522
3 1484 227 1485
3 10 11 1588
3 723 809 1753
3 27 230 1689
3 1550 806 1565
3 1179 1180 1217
3 207 1617 2192
3 1433 1217 1502
3 1562 1556 1606
3 1379 2017 2018
3 1245 2158 2323
3 675 1097 1517
3 884 501 1599
3 1020 683 1604
3 1603 1095 1848
3 1001 2057 2154
3 1604 1585 1834
3 1610 1612 1616
3 1764 870 1939
3 2242 1871 2294
3 1669 1264 1670
3 1658 213 1702
3 1995 1646 2398
3 631 539 1600
3 1491 2143 2342
3 1801 1800 2195
3 1200 1199 1693
3 1535 940 1861
3 1534 758 2332
3 914 2258 2328
3 1588 228 2457
3 216 138 1694
3 151 152 1500
3 1133 1880 1974
3 1677 1858 2248
3 1294 1622 1868
3 875 1010 1767
3 1379 2018 2416
3 1279 2202 2252
3 182 256 1652
3 1592 857 2386
3 672 681 1656
3 615 1596 1824
3 1093 1487 1623
3 1823 522 2100
3 1245 1242 1669
3 1582 1581 1583
3 758 1534 2306
3 1975 1984 2230
3 1358 1510 1950
3 1663 1336 1665
3 2102 960 2203
3 366 1087 1786
3 1740 1490 2231
3 21 207 1709
3 145 146 1609
3 2339 765 2384
3 603 1591 1668
3 2081 199 2149
3 1540 1832 1879
3 1721 1723 1947
3 1754 455 1793
3 1751 1753 2119
3 882 1701 1807
3 1540 1539 1917
3 242 1695 1697
3 1521 354 2091
3 1363 2233 2413
3 1584 1018 1925
3 703 1067 1586
3 1177 1178 1179
3 795 916 1834
3 277 276 607
3 1571 1388 1872
3 22 23 1617
3 1097 823 1177
3 25 26 1624
3 419 418 1790
3 1728 1906 2259
3 440 1455 2261
3 1877 1318 2116
3 1488 1156 1608
3 1439 2130 2273
3 1889 1451 1890
3 1614 209 2389
3 1472 893 2094
3 675 821 823
3 23 24 1674
3 1788 1190 2183
3 917 941 1622
3 1763 1096 1764
3 1068 1442 1684
3 1034 1485 2173
3 2172 1533 2230
3 138 139 1694
3 1065 1570 2197
3 607 674 675
3 1536 1248 2268
3 229 135 1734
3 1437 1925 1926
3 680 510 1646
3 147 209 1537
3 26 27 1689
3 1627 705 2163
3 206 1651 2121
3 2409 1785 2462
3 1492 682 2447
3 1223 1225 1258
3 889 1772 2374
3 253 263 264
3 275 276 277
3 1455 739 2261
3 2022 1382 2176
3 150 227 1484
3 639 1019 1591
3 1449 1640 2070
3 1082 833 2214
3 1503 1502 1504
3 144 200 1717
3 1643 991 1713
3 1190 1791 2183
3 1538 1804 2073
3 1256 2269 2440
3 18 19 1676
3 521 531 2000
3 790 849 2180
3 1075 1329 1650
3 1087 1782 1785
3 1066 994 1218
3 270 269 271
3 682 1492 2494
3 185 252 1454
3 253 158 262
3 1629 1632 1633
3 200 1610 1611
3 1477 1481 2104
3 1623 1487 2465
3 1518 1097 1535
3 1414 1132 2460
3 1179 1217 1433
3 177 1506 1680
3 1392 1017 2525
3 1832 834 2075
3 675 823 1097
3 1459 2094 2134
3 1782 1087 1795
3 1838 1730 2372
3 1639 149 2528
3 1617 23 1674
3 2265 1420 2489
3 180 232 1859
3 1527 1250 1528
3 20 21 1709
3 1083 1508 2311
3 903 866 1703
3 1455 440 2314
3 1187 1858 1888
3 1659 1406 2473
3 1446 1902 2166
3 421 1951 2106
3 1598 210 2115
3 154 259 1671
3 1288 1835 2080
3 1832 1831 1879
3 1258 1225 1478
3 1024 1604 2117
3 1263 1429 1739
3 706 705 1627
3 1583 1581 2352
3 407 1805 1951
3 856 1574 2527
3 1701 882 2036
3 1624 26 1689
3 717 1551 1552
3 1385 2377 2391
3 2302 1745 2354
3 1572 1347 2157
3 1036 883 1917
3 1689 1690 1691
3 1664 1665 2128
3 1476 1479 1480
3 1751 2119 2143
3 815 814 1684
3 1790 889 2400
3 1606 1607 2085
3 265 267 268
3 418 889 1790
3 1522 1521 2091
3 135 136 1734
3 1726 1445 1729
3 647 1796 1797
3 1346 1453 2279
3 1293 1827 2117
3 1242 1244 1669
3 1853 1852 1854
3 889 2374 2400
3 1039 1038 1290
3 1524 628 2199
3 1331 1332 1571
3 1291 1290 1569
3 1475 1476 1493
3 1850 1852 1853
3 1490 1740 2456
3 1689 230 1690
3 1256 1526 1541
3 1704 1705 2167
3 1465 1470 1675
3 956 1073 1572
3 1613 1616 1956
3 916 917 1038
3 2014 1522 2091
3 1221 1222 1223
3 1999 763 2352
3 234 10 1588
3 1697 220 2335
3 1527 1528 1529
3 2298 1600 2413
3 1436 2020 2254
3 1642 1161 1678
3 1523 1385 2436
3 1730 1838 2426
3 795 796 916
3 713 711 1550
3 1456 1263 1739
3 999 1336 1663
3 1785 1784 2462
3 409 415 1783
3 607 675 1517
3 1229 1231 1526
3 1958 1855 2078
3 1589 1588 1590
3 1933 261 2380
3 762 1965 2038
3 1756 1458 2203
3 1776 597 1893
3 1794 1072 1893
3 188 1512 2266
3 1774 2339 2384
3 188 1908 1941
3 1010 1510 1767
3 2189 2285 2307
3 773 834 1917
3 1245 1669 1670
3 1248 1597 2268
3 146 1537 1609
3 818 910 1584
3 1641 1313 1651
3 1217 1745 2302
3 1065 1066 1655
3 1597 1247 2047
3 1360 2177 2376
3 1612 1615 1616
3 2126 867 2186
3 1019 683 1020
3 1747 892 1840
3 1092 1093 1623
3 261 1933 2181
3 400 424 1666
3 1516 1903 2377
3 1100 1392 1605
3 247 1738 1881
3 268 1134 1986
3 1177 823 1178
3 884 1599 1957
3 263 262 2491
3 806 1627 1948
3 1227 1229 1256
3 191 1729 2504
3 1636 1635 2502
3 1480 1479 1601
3 1721 1947 2498
3 1924 1146 2174
3 229 1734 1735
3 175 204 1725
3 1179 1178 1180
3 354 1521 2147
3 665 697 1592
3 640 646 1585
3 627 545 1636
3 1882 240 2399
3 1556 1555 1606
3 1373 1620 2394
3 1871 1071 2419
3 548 1628 1629
3 455 436 1793
3 974 1831 1841
3 1844 1413 2392
3 1612 1614 1615
3 209 1639 1937
3 1329 1330 1331
3 1823 2100 2142
3 1097 1177 1535
3 1021 1020 1022
3 825 1912 2455
3 913 1122 1874
3 400 1666 2113
3 1256 1229 1526
3 1419 1418 2450
3 1552 1551 1553
3 1850 1099 1852
3 1629 1631 1632
3 801 685 2029
3 1618 1619 1621
3 265 268 1986
3 1715 2165 2330
3 1531 1529 1534
3 1022 1024 1576
3 658 693 1746
3 703 686 1067
3 1062 1576 1577
3 1023 1022 1062
3 236 1718 2394
3 1688 502 1740
3 1501 1477 2104
3 213 165 1509
3 646 795 1585
3 196 1737 1738
3 379 679 1795
3 639 640 683
3 924 875 1767
3 1752 699 1753
3 207 2192 2315
3 627 1636 1660
3 1217 1180 1745
3 730 728 1833
3 528 561 1591
3 1444 1417 1998
3 252 186 1602
3 1729 1445 2504
3 460 502 1688
3 1418 946 1778
3 1203 1200 1693
3 548 470 1628
3 849 668 1640
3 646 785 795
3 607 276 674
3 14 15 210
3 147 148 209
3 478 460 1688
3 1709 207 2315
3 1157 1546 1608
3 1155 1731 1899
3 1524 1934 2390
3 1775 921 1876
3 1433 1502 1503
3 470 458 1628
3 1223 1224 1225
3 1291 1569 1964
3 871 1056 1826
3 1781 1783 1915
3 1587 1067 2300
3 916 1038 1039
3 1388 1387 1389
3 1611 1610 1613
3 1075 1328 1329
3 1039 1290 1291
3 1538 1265 1804
3 1184 1185 2163
3 597 598 1794
3 1450 1356 2421
3 1835 576 2080
3 1629 1628 1631
3 1331 1330 1332
3 561 639 1591
3 1476 1480 1493
3 705 703 1586
3 639 683 1019
3 1951 1188 2106
3 436 446 1793
3 1472 1297 2142
3 1332 1387 1388
3 1345 984 1720
3 1329 1328 1330
3 1050 1048 1667
3 150 151 227
3 11 12 228
3 557 541 2256
3 1831 974 1879
3 134 229 1766
3 1357 1358 1638
3 1336 1641 2299
3 1650 1482 1962
3 1591 1019 2512
3 1506 1507 1570
3 1803 801 2029
3 1178 823 1972
3 1552 1553 1554
3 1290 1038 1294
3 1028 1313 1641
3 1237 1239 1597
3 993 1017 1100
3 893 2087 2094
3 149 1484 2528
3 1768 1142 1949
3 9 234 1673
3 1554 1553 1555
3 668 632 1640
3 711 806 1550
3 1628 458 1637
3 1098 1829 1830
3 1482 1331 1483
3 531 1818 2000
3 435 419 1790
3 1156 1157 1608
3 1182 1184 2179
3 510 512 1646
3 1231 1233 1250
3 946 841 1778
3 1483 1331 1571
3 1459 680 2458
3 1166 1040 1210
3 892 1657 1820
3 1042 1445 1726
3 1019 1020 1021
3 749 805 1810
3 234 1588 1589
3 1695 242 1892
3 556 1853 2483
3 1018 1572 1573
3 1529 1528 1530
3 1606 1558 1607
3 1761 1759 2308
3 1396 1032 1921
3 1018 956 1572
3 689 1150 1416
3 1827 1293 2515
3 149 150 1484
3 1647 656 1648
3 1543 694 2196
3 399 409 1783
3 545 525 1636
3 268 269 270
3 715 713 717
3 1100 1017 1392
3 1657 892 1747
3 207 22 1617
3 1666 884 2249
3 1671 1672 1769
3 1554 1555 1556
3 146 147 1537
3 1081 1444 1822
3 711 709 806
3 1443 2005 2322
3 660 658 1746
3 1166 1458 1754
3 916 796 917
3 1056 1728 1826
3 1068 1069 1275
3 184 185 1454
3 158 159 262
3 2007 1687 2231
3 805 1708 1810
3 1672 264 1986
3 1561 1562 1563
3 978 1075 1650
3 1590 1588 2457
3 215 25 1624
3 1551 1550 1565
3 1073 1346 1347
3 857 818 1584
3 1648 656 1649
3 675 674 821
3 561 594 639
3 1731 529 1899
3 2303 1454 2535
3 981 903 1040
3 1630 1629 1633
3 993 877 1017
3 724 718 726
3 512 603 1646
3 1676 235 1858
3 814 1060 1068
3 715 717 1567
3 1796 647 1870
3 1715 1171 2165
3 678 1592 1593
3 644 613 1824
3 1690 1525 2145
3 1297 1822 1823
3 271 656 1647
3 1704 1116 1705
3 1225 1226 1227
3 1275 1069 1338
3 910 956 1018
3 1824 1596 2154
3 1403 1100 1605
3 1221 1219 1222
3 1068 1060 1069
3 1901 245 1949
3 1081 1055 1321
3 1751 563 1752
3 1021 1022 1023
3 672 638 681
3 1095 657 1848
3 1235 1237 1248
3 1561 1556 1562
3 1265 1259 1804
3 524 1819 2016
3 978 1650 2362
3 1492 516 2494
3 229 1735 2061
3 185 186 252
3 157 158 253
3 152 153 233
3 9 10 234
3 1527 1529 1531
3 1808 1344 2360
3 1062 1577 1579
3 1509 1679 1977
3 424 454 1666
3 637 638 672
3 981 1040 1166
3 1555 1558 1606
3 751 749 1810
3 1166 1210 1458
3 1651 1313 2121
3 15 16 2260
3 1633 1632 2509
3 2167 1705 2276
3 551 602 2045
3 697 818 857
3 364 1786 1883
3 832 1189 2204
3 1476 1478 1479
3 678 665 1592
3 213 1509 2096
3 1015 888 1124
3 1062 1022 1576
3 679 1782 1795
3 680 1646 1995
3 1101 1100 1403
3 1109 433 1714
3 1248 1237 1597
3 733 730 1833
3 1702 213 2096
3 499 498 1828
3 1418 1778 2521
3 637 600 638
3 1048 1046 1054
3 1577 1576 1578
3 814 766 1060
3 1279 2252 2292
3 474 470 548
3 199 18 1676
3 157 253 1441
3 1048 1054 1667
3 471 472 2290
3 625 665 678
3 795 785 796
3 1264 1265 1266
3 1437 1926 2350
3 1362 2048 2168
3 1394 2337 2371
3 454 884 1666
3 1022 1020 1024
3 751 1810 1923
3 1046 1023 1580
3 1807 1701 1931
3 1618 208 1619
3 566 588 689
3 1828 498 1829
3 501 509 1599
3 1118 780 1775
3 878 817 929
3 1510 1511 1950
3 1618 1621 1694
3 1052 1081 1822
3 1416 1150 1715
3 1239 1241 1247
3 1396 1921 2067
3 1751 1752 1753
3 1264 1259 1265
3 539 566 1600
3 1762 1127 2496
3 1673 1788 2183
3 1555 1557 1558
3 1052 1050 1055
3 725 724 825
3 1142 1770 1771
3 681 853 867
3 454 501 884
3 1346 1420 1453
3 932 1147 1770
3 1546 1545 1547
3 533 582 1818
3 1266 1337 1460
3 1872 820 2318
3 1117 1119 1713
3 1081 1321 1417
3 1253 1259 1264
3 1569 771 2135
3 1052 1055 1081
3 1181 1178 1972
3 709 706 1627
3 1073 1076 1346
3 1098 1828 1829
3 1382 1380 2176
3 1442 1275 1443
3 919 999 1663
3 1789 828 1855
3 877 815 1684
3 509 539 631
3 992 877 993
3 1266 1265 1337
3 2268 1498 2340
3 1130 1032 1396
3 1095 1603 2508
3 886 826 887
3 531 533 1818
3 1131 1400 1881
3 447 437 516
3 2460 1132 2473
3 940 1535 2418
3 768 1873 2037
3 1813 1869 1954
3 1627 2163 2488
3 1497 1495 1645
3 1198 1409 2168
3 724 726 1912
3 1869 987 1954
3 763 1999 2338
3 1010 1170 1374
3 984 976 1720
3 1470 1743 1744
3 689 588 1150
3 1901 1949 2359
3 1640 632 1862
3 274 272 1787
3 563 564 1752
3 994 817 1505
3 737 1807 1931
3 1770 1147 1771
3 1233 1235 1733
3 2450 1418 2521
3 414 410 1821
3 908 1099 1850
3 1227 1228 1229
3 1692 1203 1693
3 1625 216 2194
3 512 528 603
3 1377 1357 1638
3 1465 1464 1470
3 1360 1359 2177
3 1686 2007 2095
3 1336 1028 1641
3 1857 751 1923
3 1758 572 1759
3 553 541 557
3 1171 1715 1811
3 956 1003 1073
3 1467 1465 1675
3 719 718 724
3 1509 1977 2096
3 1734 1625 1736
3 1503 1504 1868
3 592 597 1776
3 180 181 232
3 162 163 231
3 2308 1759 2370
3 1357 1114 1358
3 875 946 1010
3 509 631 1599
3 17 18 199
3 144 145 200
3 1099 906 1792
3 1469 1467 1494
3 605 589 1939
3 1208 1205 1211
3 354 344 2091
3 692 782 804
3 1010 946 1170
3 1463 1462 1464
3 716 715 718
3 714 713 715
3 271 273 656
3 139 1618 1694
3 549 277 686
3 673 672 766
3 1378 1377 1379
3 2007 868 2095
3 999 1028 1336
3 1208 1211 1447
3 601 545 627
3 1119 1643 1713
3 1332 1333 1387
3 910 912 956
3 520 521 2000
3 828 1789 1819
3 277 607 1520
3 1338 1339 2247
3 818 819 910
3 767 766 814
3 712 711 713
3 1494 1467 1675
3 639 594 640
3 2044 557 2256
3 235 20 1709
3 1620 236 2394
3 804 919 962
3 1862 702 2070
3 681 852 853
3 1559 1556 1561
3 1622 941 2471
3 2165 1440 2330
3 612 644 692
3 697 698 818
3 1903 1516 1994
3 371 379 1795
3 428 426 2138
3 1290 1294 2064
3 1384 1904 2432
3 566 689 1600
3 471 452 472
3 1092 1091 1093
3 1002 1131 1719
3 1090 1089 1091
3 875 841 946
3 1758 1760 1763
3 1562 1606 2085
3 1833 1830 2075
3 178 179 214
3 164 165 213
3 769 923 1815
3 692 644 782
3 804 782 919
3 182 183 256
3 160 161 257
3 1329 1331 1482
3 962 1663 1664
3 1177 1179 2042
3 403 405 1805
3 1461 1460 1462
3 140 208 1618
3 1859 232 1860
3 274 1787 2099
3 1381 2126 2186
3 1558 1560 1789
3 430 428 682
3 452 435 1683
3 1487 1156 1488
3 1470 1464 1743
3 597 1794 1893
3 1244 1253 1669
3 962 919 1663
3 258 8 1673
3 1087 1785 1786
3 970 1042 1726
3 199 1677 2149
3 1664 1663 1665
3 1229 1230 1231
3 991 827 1713
3 792 1603 1848
3 1822 1444 1823
3 665 666 697
3 19 20 235
3 142 143 236
3 728 1098 1833
3 532 530 1898
3 1015 1124 1372
3 1546 1547 1548
3 1851 1850 1853
3 1877 393 2240
3 923 1105 1815
3 1090 1091 1092
3 687 686 703
3 1683 435 1790
3 887 826 1961
3 684 663 1089
3 426 1934 2138
3 464 510 680
3 853 854 855
3 568 572 1758
3 1376 1357 1377
3 1205 1203 1692
3 1607 1789 1855
3 710 709 711
3 780 781 1775
3 1434 1103 1435
3 876 815 877
3 766 672 1656
3 1393 1590 2457
3 684 1089 1090
3 530 890 1898
3 926 1920 1943
3 696 414 1821
3 1563 1562 1777
3 1054 1046 1580
3 1398 1973 1974
3 137 216 1625
3 1210 1040 1430
3 1750 563 1751
3 2010 1665 2299
3 1510 1374 1511
3 1777 1562 2085
3 1707 252 1791
3 1932 1404 1933
3 459 438 1814
3 139 140 1618
3 1093 1156 1487
3 231 163 1658
3 699 722 723
3 1545 1095 2508
3 598 612 1794
3 579 554 1880
3 1941 1908 2401
3 1231 1232 1233
3 1831 1829 1841
3 1037 1383 1799
3 177 178 1506
3 636 600 637
3 1036 1539 2286
3 1356 1114 1357
3 1523 1516 2377
3 704 703 705
3 403 402 405
3 648 792 1848
3 723 756 808
3 1388 1389 2170
3 933 932 1770
3 223 1710 1711
3 1779 399 1783
3 1223 1222 1224
3 1028 1029 1313
3 257 161 1654
3 418 412 421
3 734 882 1807
3 693 657 1095
3 1368 1370 1436
3 136 137 1625
3 688 652 817
3 1075 1327 1328
3 540 479 1813
3 398 395 402
3 548 1629 1630
3 574 591 699
3 1469 1494 1495
3 1041 1598 2175
3 167 168 202
3 175 176 204
3 2045 2046 2201
3 186 187 1602
3 886 887 888
3 1253 1254 1259
3 8 9 1673
3 792 655 810
3 843 1145 1960
3 1180 1349 1745
3 1165 1345 1512
3 708 706 709
3 136 1625 1734
3 21 22 207
3 140 141 208
3 625 626 665
3 1093 1094 1156
3 1585 795 1834
3 1117 1713 1806
3 599 579 600
3 810 871 1826
3 1047 1046 1048
3 1292 1291 1293
3 161 162 1654
3 199 1676 1677
3 1260 1282 1804
3 1005 1142 1768
3 1233 1234 1235
3 792 810 922
3 1122 1719 1737
3 976 985 1720
3 1278 1279 2292
3 2390 1934 2531
3 1436 1437 2350
3 270 271 1647
3 1199 966 1846
3 1683 1342 2212
3 656 273 2124
3 699 591 722
3 1977 1139 2096
3 1738 1719 1881
3 1722 985 1874
3 1797 1448 1798
3 162 231 1654
3 632 604 1862
3 252 1602 1791
3 1051 1050 1052
3 1045 1023 1046
3 648 655 792
3 993 1100 1101
3 1321 1055 1322
3 806 709 1627
3 904 903 981
3 1220 1267 1268
3 648 605 655
3 1737 1719 1738
3 385 399 1779
3 506 499 1828
3 1132 266 1402
3 1170 1418 1419
3 1323 2302 2354
3 24 25 215
3 137 138 216
3 721 965 1919
3 1787 1414 2460
3 778 1117 1806
3 723 722 756
3 407 403 1805
3 564 574 1752
3 1049 1048 1050
3 842 841 875
3 1608 1546 1842
3 809 808 899
3 1517 1519 1520
3 1530 1532 1533
3 889 421 1772
3 913 1002 1122
3 1314 1316 1367
3 1017 877 1684
3 841 802 1778
3 1235 1236 1237
3 751 1857 1900
3 1114 924 1767
3 1344 1644 2360
3 1895 1394 2371
3 1518 1535 1861
3 1758 1759 1760
3 1122 1002 1719
3 546 563 1750
3 1056 1726 1727
3 663 660 1746
3 621 622 625
3 1720 985 1721
3 1857 1843 1900
3 808 756 913
3 1056 970 1726
3 27 28 230
3 134 135 229
3 908 906 1099
3 163 164 1658
3 1727 1726 1729
3 7 8 258
3 154 155 259
3 1101 1403 1404
3 808 913 1874
3 1260 1269 1282
3 1389 1387 2262
3 1297 1053 1822
3 1555 1553 1557
3 1463 1464 1465
3 230 28 1765
3 1237 1238 1239
3 554 553 1880
3 775 778 1806
3 985 899 1874
3 1270 1524 2199
3 489 1820 1936
3 692 1072 1794
3 1472 2142 2272
3 1845 496 1929
3 438 431 1814
3 613 615 1824
3 1241 1242 1245
3 1783 415 1915
3 1192 2081 2149
3 178 214 1506
3 1816 988 1817
3 1760 1759 1761
3 1103 1092 1623
3 1512 1345 1661
3 1876 921 2295
3 1165 984 1345
3 978 1074 1075
3 1239 1240 1241
3 542 541 553
3 813 988 1816
3 1148 984 1165
3 871 970 1056
3 472 452 1683
3 1207 1796 1870
3 1167 1166 1754
3 1296 1053 1297
3 966 964 1846
3 976 899 985
3 982 976 984
3 702 1815 2015
3 900 899 976
3 1143 995 1206
3 1576 1024 1827
3 1235 1248 1733
3 1558 1557 1560
3 943 995 1143
3 1920 1144 1943
3 1471 2115 2477
3 29 30 255
3 132 133 254
3 1630 1633 1634
3 1225 1224 1226
3 1925 1573 1926
3 1211 1205 1692
3 725 825 826
3 1113 924 1114
3 600 579 1988
3 717 1552 1567
3 1820 1657 1936
3 674 276 2099
3 395 393 1877
3 572 543 1897
3 1575 1308 2255
3 999 1000 1028
3 1118 1775 1876
3 1797 1798 2430
3 526 546 559
3 867 853 2186
3 1142 1771 1949
3 1068 1275 1442
3 679 385 1779
3 1607 1558 1789
3 580 568 1758
3 1244 1252 1253
3 1760 1761 1762
3 398 402 403
3 1476 1258 1478
3 418 421 889
3 1771 1147 1839
3 164 213 1658
3 1720 1721 2267
3 1668 1591 2512
3 1042 1128 1445
3 1098 1830 1833
3 1102 1092 1103
3 2249 884 2466
3 1104 1103 1434
3 410 416 1821
3 514 513 541
3 580 1758 1763
3 637 673 1741
3 1913 936 1914
3 1394 1395 2337
3 919 920 999
3 577 554 579
3 2111 1660 2263
3 231 1658 1659
3 612 613 644
3 568 543 572
3 770 775 1806
3 1445 1128 1446
3 1546 1548 1842
3 448 460 478
3 810 870 871
3 1789 1560 1819
3 1154 1082 1431
3 873 973 1802
3 379 385 679
3 837 850 921
3 1461 1462 1463
3 1346 1076 1420
3 1088 1344 1808
3 2125 1143 2353
3 931 977 978
3 882 772 1802
3 29 255 1765
3 849 1513 2180
3 1713 827 1806
3 1130 1396 1397
3 681 638 852
3 1417 1321 1873
3 1654 1402 2530
3 502 526 1740
3 1124 888 2177
3 1266 1460 1461
3 515 1175 1840
3 1253 1264 1669
3 479 466 1813
3 1727 1729 1757
3 379 380 385
3 1971 1480 2514
3 1637 1739 2459
3 1207 1205 1208
3 529 519 1899
3 1129 1845 1929
3 224 1661 2267
3 192 1856 2361
3 732 734 1807
3 1184 2163 2435
3 1119 1120 1353
3 415 414 431
3 719 724 725
3 559 546 1750
3 871 872 970
3 1038 917 1622
3 574 699 1752
3 166 167 1679
3 1117 1118 1119
3 1409 1196 2035
3 617 619 621
3 1172 1173 1439
3 1191 1005 1768
3 664 663 684
3 494 493 1841
3 890 529 1731
3 840 802 841
3 493 974 1841
3 385 386 399
3 679 1779 1780
3 371 376 379
3 416 433 1109
3 670 769 1815
3 902 866 903
3 1780 1779 1781
3 480 515 1840
3 970 971 1042
3 433 448 1714
3 28 29 1765
3 1005 949 1142
3 778 780 1117
3 959 1037 1799
3 1073 1003 1076
3 535 532 1898
3 1119 1118 1120
3 658 657 693
3 1378 1379 1380
3 1397 1396 1809
3 1610 1609 1612
3 1819 1560 2016
3 1837 952 1865
3 1719 1131 1881
3 1131 1399 1400
3 1352 1138 2058
3 399 406 409
3 548 1630 2041
3 1275 1338 2251
3 582 1816 1818
3 1835 1836 2144
3 993 1101 1980
3 1699 1698 1700
3 2407 364 2505
3 1189 1190 1788
3 1117 780 1118
3 1830 1829 1831
3 637 672 673
3 692 804 1072
3 1204 1203 1205
3 1374 1170 2139
3 612 692 1794
3 1642 1408 2286
3 723 808 809
3 450 459 1812
3 409 410 414
3 802 801 1778
3 1853 1854 2483
3 1042 1127 1128
3 1199 1846 2225
3 1147 990 1273
3 1383 1384 2432
3 432 431 438
3 1353 1120 1390
3 1093 1091 1094
3 2020 250 2254
3 148 149 1639
3 606 605 648
3 1970 2016 2422
3 2201 2046 2327
3 475 471 513
3 412 407 1951
3 1991 246 2139
3 727 695 728
3 1673 234 1788
3 1554 1556 1559
3 1089 663 1746
3 1846 964 2056
3 923 991 1088
3 409 406 410
3 729 728 730
3 1424 1427 1856
3 1473 1911 2407
3 1376 1377 1378
3 1010 1374 1510
3 853 852 854
3 366 369 1087
3 772 873 1802
3 1219 1218 1626
3 1766 229 2061
3 1088 991 1344
3 922 810 1826
3 518 506 695
3 405 402 2116
3 962 1664 2316
3 913 942 1002
3 932 990 1147
3 629 813 1816
3 876 877 992
3 399 386 406
3 932 845 990
3 1002 1123 1131
3 843 996 1145
3 781 837 1775
3 262 2304 2491
3 431 696 1814
3 1273 1695 1892
3 731 730 732
3 737 732 1807
3 439 438 450
3 1829 498 1841
3 800 685 801
3 767 814 815
3 1060 766 1656
3 673 766 767
3 1403 1605 1882
3 716 718 719
3 1338 1069 1339
3 847 752 1843
3 864 862 1116
3 2302 443 2519
3 923 827 991
3 526 559 1740
3 1911 1473 2358
3 1085 1310 1867
3 809 899 900
3 1227 1226 1228
3 729 730 731
3 1436 1370 1437
3 731 732 737
3 769 827 923
3 456 452 471
3 1433 1503 2471
3 1435 1103 1623
3 385 380 386
3 1141 1787 2460
3 1354 1088 1808
3 657 649 1848
3 415 431 432
3 484 892 1820
3 727 728 729
3 855 854 1450
3 1721 1722 1723
3 1643 1353 1644
3 1145 1916 1960
3 1421 1191 1422
3 466 1812 1813
3 943 944 995
3 1356 1357 1376
3 714 715 716
3 1156 1094 1157
3 598 611 612
3 631 1600 2298
3 590 589 605
3 965 969 1919
3 416 1109 1821
3 242 1697 2335
3 1548 1547 1549
3 550 573 584
3 584 604 632
3 409 414 415
3 712 713 714
3 642 670 702
3 818 698 819
3 1006 1005 1191
3 1624 1689 1691
3 169 170 237
3 173 174 238
3 956 912 1003
3 937 936 1913
3 1317 1025 1875
3 515 540 550
3 973 1799 1800
3 973 959 1799
3 518 695 727
3 910 819 912
3 584 573 604
3 1170 946 1418
3 173 238 1847
3 550 540 573
3 982 984 1148
3 900 976 982
3 441 435 452
3 448 478 1714
3 1849 1648 2173
3 1631 1628 1637
3 1830 1831 1832
3 1383 1216 1384
3 734 772 882
3 949 933 1770
3 1332 1330 1333
3 574 575 591
3 1105 1088 1354
3 702 670 1815
3 498 494 1841
3 827 770 1806
3 873 959 973
3 1390 1391 1415
3 450 438 459
3 950 949 1005
3 351 362 364
3 1313 1029 1314
3 432 438 439
3 837 838 850
3 1273 1274 1695
3 850 851 943
3 911 952 1837
3 1259 1260 1804
3 566 587 588
3 1037 1216 1383
3 1337 1265 1538
3 1087 369 1795
3 810 655 870
3 1559 1561 1566
3 1147 1273 1839
3 732 733 734
3 1662 867 2126
3 890 1731 2241
3 1854 1852 2397
3 515 479 540
3 451 450 466
3 697 666 698
3 1367 1316 1368
3 662 660 663
3 365 355 694
3 1358 1114 1767
3 379 376 380
3 1796 1448 1797
3 179 180 1859
3 790 668 849
3 569 568 580
3 690 860 931
3 466 450 1812
3 431 414 696
3 1973 1133 1974
3 651 649 657
3 467 466 479
3 1288 1289 1835
3 264 265 1986
3 1302 1303 1304
3 592 596 597
3 1873 1321 2037
3 544 543 568
3 275 277 549
3 209 1937 2389
3 539 565 566
3 1485 227 1486
3 2384 2190 2408
3 1781 1779 1783
3 480 479 515
3 689 1416 2413
3 1108 1161 1539
3 1867 1310 1895
3 1300 1301 1302
3 1695 1696 1697
3 633 632 668
3 1304 1451 1452
3 988 911 1837
3 168 169 1724
3 969 1012 1172
3 582 629 1816
3 1843 752 1900
3 629 812 813
3 710 711 712
3 1782 1780 1784
3 536 535 543
3 1089 1746 1969
3 1108 1107 1161
3 1514 1426 1856
3 486 484 1820
3 369 371 1795
3 1817 988 1924
3 493 609 974
3 1422 1191 2023
3 1426 1424 1856
3 842 875 924
3 922 1826 2259
3 989 1361 1886
3 928 1070 1288
3 669 668 790
3 1113 1114 1356
3 1027 847 1843
3 728 695 1098
3 734 735 772
3 975 1107 1108
3 955 859 1962
3 813 911 988
3 1208 1448 1796
3 1101 1405 1980
3 602 676 2045
3 586 581 589
3 546 547 563
3 493 491 609
3 628 1524 2390
3 348 344 354
3 1298 1299 1300
3 509 538 539
3 974 609 975
3 813 891 911
3 871 870 872
3 1355 1354 1423
3 489 486 1820
3 778 779 780
3 1025 1176 1875
3 772 773 873
3 803 1743 2347
3 167 202 1679
3 873 883 959
3 1483 1571 2375
3 427 1756 2221
3 540 1813 1954
3 1202 1200 1203
3 959 1035 1037
3 837 921 1775
3 1304 1305 1451
3 1799 1383 2195
3 604 642 1862
3 1470 1744 2474
3 1854 2397 2453
3 1282 1269 1386
3 1573 1572 2157
3 472 2222 2290
3 1307 1708 2341
3 769 770 827
3 1037 1215 1216
3 791 790 856
3 1053 1052 1822
3 1056 1727 1728
3 1341 1138 1352
3 1300 1299 1301
3 1814 696 1838
3 1198 1196 1409
3 492 491 493
3 439 450 451
3 1171 858 2132
3 1259 1254 1260
3 665 626 666
3 970 872 971
3 258 1602 2357
3 1296 1297 1472
3 490 489 491
3 516 437 2494
3 1298 1027 1299
3 846 845 932
3 501 508 509
3 460 461 502
3 448 449 460
3 482 480 1840
3 1229 1228 1230
3 604 641 642
3 1424 1423 1427
3 502 503 526
3 1028 1000 1029
3 935 933 949
3 1084 1085 1867
3 2028 1711 2353
3 1513 1426 1514
3 892 482 1840
3 852 638 1988
3 402 395 1877
3 738 737 845
3 413 412 418
3 1119 1353 1643
3 526 527 546
3 280 279 281
3 1731 1155 2123
3 1042 971 1127
3 1208 1447 1448
3 433 434 448
3 262 159 2304
3 184 1454 2303
3 1051 1052 1053
3 1816 1817 1818
3 1081 1417 1444
3 781 836 837
3 911 951 952
3 1090 1092 1102
3 202 168 1724
3 1085 1309 1310
3 408 407 412
3 1337 1538 1864
3 1515 1514 1516
3 530 529 890
3 1517 1518 1519
3 549 686 687
3 923 1088 1105
3 404 403 407
3 1835 1289 1836
3 1314 1367 2121
3 1380 1379 2416
3 670 671 769
3 899 808 1874
3 1040 903 1703
3 1596 1595 2154
3 1496 1495 1497
3 636 637 1741
3 1377 1638 2288
3 1288 1070 1289
3 1072 804 1981
3 1129 1334 1845
3 1865 1084 1866
3 792 922 1603
3 1253 1252 1254
3 981 1167 1792
3 1302 1301 1303
3 1641 1651 2019
3 952 953 1084
3 1813 1812 1869
3 732 730 733
3 975 1106 1107
3 1142 949 1770
3 981 1166 1167
3 840 841 842
3 451 466 467
3 1273 990 1274
3 1049 1050 1051
3 1473 2407 2505
3 968 966 1199
3 642 643 670
3 1310 1309 1311
3 422 419 435
3 1063 833 1082
3 919 782 920
3 911 891 951
3 1084 953 1085
3 1763 1764 2164
3 1498 1497 1682
3 515 550 1175
3 1079 937 1913
3 642 702 1862
3 845 737 1931
3 1394 1311 1395
3 1395 1521 1522
3 467 479 480
3 1755 1754 1793
3 1231 1230 1232
3 1557 1553 2030
3 1624 1691 2262
3 584 632 633
3 1094 1091 1969
3 708 709 710
3 1948 1627 2488
3 952 951 953
3 1102 1103 1104
3 1047 1048 1049
3 1310 1311 1394
3 1852 1099 1985
3 143 144 1717
3 813 812 891
3 1944 1044 1945
3 1105 1354 1355
3 1300 1302 1455
3 1914 936 1940
3 1415 1391 1710
3 1299 1027 1843
3 952 1084 1865
3 1695 1274 1696
3 776 774 1928
3 282 281 283
3 2003 1347 2279
3 1206 995 1499
3 1164 1685 1686
3 1551 1565 2030
3 969 1172 1919
3 633 668 669
3 734 733 735
3 1373 1372 1438
3 599 600 636
3 1431 1860 2487
3 1579 1577 1999
3 484 482 892
3 917 940 941
3 2144 1836 2169
3 1866 1084 1867
3 1110 1747 1748
3 998 1171 1811
3 1390 1120 1391
3 644 1824 2057
3 1362 1961 2048
3 944 1283 1825
3 1086 1027 1298
3 679 1780 1782
3 974 975 1879
3 507 506 518
3 1121 1079 1401
3 775 777 778
3 1965 762 2349
3 1045 1046 1047
3 1772 421 2106
3 16 17 2081
3 416 417 433
3 921 850 2125
3 1607 1855 1958
3 649 648 1848
3 1241 1240 1242
3 2012 1443 2251
3 926 928 1920
3 1487 1488 2025
3 1006 1191 1421
3 1355 1423 1424
3 1133 852 1988
3 591 592 1776
3 1299 1843 1857
3 1085 1308 1309
3 490 491 492
3 958 694 1575
3 1384 1216 1385
3 741 915 1878
3 1233 1232 1234
3 669 790 791
3 481 480 482
3 687 703 704
3 492 493 494
3 1634 1633 1922
3 1697 1696 1698
3 1721 985 1722
3 1839 1273 1892
3 772 735 773
3 488 486 489
3 950 1005 1006
3 1513 1514 1515
3 454 500 501
3 873 773 883
3 284 283 285
3 2185 1505 2442
3 959 883 1035
3 543 535 1897
3 1904 1384 2093
3 800 801 802
3 1037 1035 1215
3 1293 1964 1965
3 1239 1238 1240
3 943 1143 2125
3 1782 1784 1785
3 913 756 942
3 488 490 1884
3 1590 1749 2501
3 1235 1234 1236
3 791 856 1408
3 702 2015 2070
3 1108 1539 1540
3 1021 1023 1045
3 695 506 1828
3 1530 1528 1532
3 488 489 490
3 1621 1619 2161
3 704 705 706
3 1304 1303 1305
3 558 1704 2167
3 625 622 626
3 542 553 554
3 604 573 641
3 664 684 685
3 564 571 574
3 1108 1540 1879
3 1856 1427 2361
3 880 1025 1129
3 1395 1311 1521
3 1466 1465 1467
3 915 495 1884
3 1515 1516 1523
3 1237 1236 1238
3 606 648 649
3 999 920 1000
3 676 829 1043
3 2100 794 2142
3 227 151 1500
3 577 579 599
3 153 154 1671
3 1175 550 1927
3 1014 888 1015
3 286 285 287
3 1649 1280 2427
3 1725 204 2137
3 975 609 1106
3 1129 1317 1334
3 1109 1730 2426
3 1468 1467 1469
3 1131 1123 1399
3 1215 2235 2378
3 1976 1149 1989
3 397 395 398
3 746 743 1878
3 1041 1343 1598
3 975 1108 1879
3 741 495 915
3 1167 1754 1755
3 288 287 289
3 743 741 1878
3 1274 990 1931
3 1506 214 1507
3 857 1584 2277
3 2341 1522 2387
3 846 932 933
3 1107 1106 1110
3 584 633 1927
3 290 289 291
3 722 591 1776
3 1544 1094 1969
3 1135 270 1647
3 935 949 950
3 1920 1288 2080
3 754 1896 2108
3 1693 1199 2225
3 292 291 293
3 394 393 395
3 745 743 746
3 1002 942 1123
3 731 737 738
3 294 293 295
3 1018 1573 1925
3 296 295 297
3 298 297 299
3 321 322 325
3 317 320 321
3 314 315 317
3 312 313 314
3 310 311 312
3 308 309 310
3 1898 890 2275
3 306 307 308
3 304 305 306
3 1401 1079 1913
3 300 299 301
3 302 303 304
3 300 301 302
3 302 301 303
3 491 489 1936
3 298 299 300
3 304 303 305
3 306 305 307
3 308 307 309
3 310 309 311
3 312 311 313
3 314 313 315
3 317 315 320
3 321 320 322
3 1301 1299 1857
3 514 541 542
3 296 297 298
3 850 838 851
3 1310 1394 1895
3 294 295 296
3 590 605 606
3 292 293 294
3 651 657 658
3 290 291 292
3 1207 1208 1796
3 835 1976 1989
3 621 619 622
3 746 1878 1896
3 481 482 483
3 1026 847 1027
3 1335 1207 1870
3 1661 59 2266
3 727 729 1155
3 288 289 290
3 1058 776 1928
3 662 663 664
3 495 488 1884
3 1959 319 2522
3 943 851 944
3 1293 1291 1964
3 534 532 535
3 640 645 646
3 2280 1014 2385
3 286 287 288
3 591 575 592
3 521 519 529
3 13 14 2114
3 780 779 781
3 918 908 1850
3 837 836 838
3 209 148 1639
3 754 748 1896
3 745 746 747
3 769 671 770
3 929 1065 2197
3 1278 1058 1279
3 483 482 484
3 1564 1557 2030
3 633 807 1927
3 392 391 393
3 1057 1621 2161
3 569 580 581
3 284 285 286
3 876 992 1894
3 497 494 498
3 1630 1635 2041
3 982 1148 1918
3 612 611 613
3 700 634 1044
3 822 674 2099
3 880 1129 1929
3 432 439 654
3 1039 1291 1292
3 1164 1686 1989
3 1129 1025 1317
3 738 845 846
3 582 583 629
3 278 6 279
3 544 568 569
3 1701 1274 1931
3 747 749 751
3 1085 953 1308
3 928 930 1070
3 747 748 749
3 1421 1422 2415
3 902 903 904
3 1309 1308 1543
3 642 641 643
3 904 981 1792
3 646 784 785
3 536 543 544
3 1204 1205 1207
3 365 694 958
3 71 72 217
3 88 89 1901
3 87 88 193
3 101 102 189
3 85 86 242
3 99 100 241
3 74 75 192
3 91 92 219
3 94 95 191
3 83 84 220
3 97 98 221
3 77 78 218
3 80 81 194
3 89 90 245
3 62 63 244
3 60 61 188
3 64 65 223
3 67 68 190
3 90 91 1909
3 98 99 1905
3 61 62 1908
3 69 70 243
3 68 69 1907
3 70 71 1910
3 410 411 416
3 586 589 590
3 685 684 2029
3 390 389 391
3 1715 1150 1811
3 1924 1837 2215
3 282 283 284
3 496 497 1929
3 233 1671 1769
3 627 2185 2442
3 1567 1552 2062
3 629 630 812
3 424 453 454
3 583 562 1942
3 749 750 805
3 744 743 745
3 1897 535 1898
3 467 480 481
3 504 759 880
3 670 643 671
3 89 245 1901
3 193 88 1901
3 221 98 1905
3 245 90 1909
3 91 219 1909
3 62 244 1908
3 188 61 1908
3 99 241 1905
3 190 68 1907
3 71 217 1910
3 69 243 1907
3 243 70 1910
3 505 499 506
3 475 513 514
3 1945 1044 2071
3 1712 2125 2353
3 339 343 440
3 989 1360 1361
3 764 869 1152
3 778 777 779
3 1686 1685 1687
3 742 741 743
3 979 989 1886
3 729 731 1887
3 926 927 928
3 1305 1306 1307
3 1838 1278 2292
3 747 746 748
3 181 182 1652
3 1886 1361 2305
3 1595 1594 2486
3 597 596 598
3 928 1288 1920
3 1970 824 2156
3 1425 1424 1426
3 497 504 1929
3 748 746 1896
3 745 747 1900
3 998 858 1171
3 563 547 564
3 1155 729 1887
3 634 583 1942
3 1439 1173 1440
3 1026 1027 1086
3 79 80 1904
3 1533 1532 1536
3 1449 1426 1513
3 1106 609 1936
3 1318 1013 1319
3 1098 695 1828
3 492 494 496
3 750 748 754
3 731 738 1887
3 2415 1422 2516
3 533 562 582
3 988 1837 1924
3 1216 1215 1863
3 534 535 536
3 747 751 1900
3 1753 809 2119
3 1183 824 1970
3 740 495 741
3 80 194 1904
3 893 383 2087
3 655 605 1939
3 1884 2034 2082
3 1301 1857 1923
3 1307 1306 1708
3 752 745 1900
3 750 754 755
3 76 77 1903
3 2090 2347 2365
3 255 30 2159
3 132 254 2160
3 448 434 449
3 753 848 926
3 1075 1074 1327
3 487 488 495
3 377 381 647
3 483 484 485
3 755 754 2148
3 1584 1925 2277
3 1186 1183 1970
3 951 891 1281
3 485 484 486
3 546 527 547
3 133 134 1766
3 1786 1785 2409
3 280 281 282
3 460 449 461
3 744 745 752
3 77 218 1903
3 983 1918 2342
3 1708 1306 1810
3 1389 2069 2170
3 487 486 488
3 641 573 1954
3 507 518 519
3 502 461 503
3 519 518 1899
3 1202 1203 1204
3 821 897 1972
3 92 93 1902
3 521 529 530
3 749 748 750
3 2176 1380 2416
3 885 826 886
3 485 486 487
3 371 372 376
3 1289 1070 1871
3 1110 1657 1747
3 753 926 1943
3 700 1044 1944
3 880 881 1025
3 496 1845 2034
3 1072 1981 2393
3 462 464 2134
3 1949 1771 2359
3 1044 634 1942
3 550 584 1927
3 1390 1415 2118
3 526 503 527
3 990 845 1931
3 1009 1213 1214
3 740 742 1144
3 219 92 1902
3 727 1155 1899
3 369 370 371
3 623 690 2150
3 1279 1058 1928
3 1408 2235 2286
3 487 495 740
3 979 1886 2086
3 1305 1303 1306
3 421 412 1951
3 843 844 996
3 633 669 807
3 518 727 1899
3 826 825 1961
3 1657 1106 1936
3 1172 1012 1173
3 740 741 742
3 433 417 434
3 505 506 507
3 1333 1674 2437
3 742 743 744
3 469 458 470
3 1381 1380 1382
3 1293 1965 2515
3 1554 1559 2062
3 553 557 2499
3 1774 389 2339
3 497 498 499
3 483 485 576
3 740 1144 1935
3 773 735 834
3 366 367 369
3 1120 1118 1876
3 1515 1523 1574
3 1319 1013 2039
3 1303 1301 1923
3 457 447 458
3 561 593 594
3 1355 1424 1425
3 609 491 1936
3 204 1732 2137
3 791 1408 1642
3 995 944 1825
3 456 471 475
3 1692 1693 2239
3 580 1763 2164
3 1292 1293 2117
3 441 452 456
3 388 384 389
3 823 821 1972
3 504 880 1929
3 176 177 1680
3 1070 1071 1871
3 15 2260 2477
3 362 363 366
3 2178 2300 2449
3 1035 883 1036
3 2285 1563 2307
3 978 977 1074
3 1090 1102 2029
3 1810 1306 1923
3 496 494 497
3 1306 1303 1923
3 432 654 1915
3 934 933 935
3 356 355 365
3 398 403 404
3 635 701 843
3 1110 1106 1657
3 574 571 575
3 1025 881 1176
3 386 380 786
3 415 432 1915
3 343 347 1911
3 1070 930 1071
3 1688 1740 2231
3 1385 1216 1863
3 1696 1274 1701
3 1645 305 2317
3 880 759 881
3 926 848 927
3 1427 1423 2217
3 1339 1662 2388
3 770 774 775
3 1263 1257 1428
3 1337 1864 2412
3 349 348 355
3 2267 1721 2498
3 753 752 847
3 1375 1086 1473
3 900 982 983
3 332 335 739
3 429 428 430
3 744 752 753
3 1171 2132 2165
3 1425 1426 1449
3 987 641 1954
3 1883 1786 2409
3 427 426 428
3 928 927 930
3 1815 1105 2015
3 1206 1499 1941
3 410 406 411
3 573 540 1954
3 497 499 504
3 528 560 561
3 1933 1404 2399
3 1091 1089 1969
3 1804 1282 2073
3 504 505 759
3 963 924 1113
3 1711 1710 1712
3 881 759 1146
3 968 1199 1200
3 351 352 362
3 848 847 1026
3 521 530 531
3 1884 490 2034
3 1277 957 1966
3 1349 1350 2329
3 676 1043 2045
3 997 1159 1286
3 517 1889 1890
3 781 835 836
3 944 948 1283
3 722 1776 2026
3 507 519 520
3 2040 1352 2058
3 1276 957 1277
3 446 437 447
3 931 860 977
3 361 359 765
3 1248 1536 2534
3 512 523 528
3 408 412 413
3 1368 1369 1370
3 451 2169 2223
3 192 75 1994
3 942 756 2026
3 345 344 348
3 764 1152 1963
3 413 418 419
3 1286 1773 1774
3 770 671 774
3 275 549 2124
3 1497 1645 2461
3 1982 1472 2272
3 422 435 441
3 281 279 736
3 1134 270 1135
3 582 562 583
3 1421 2415 2454
3 485 487 1935
3 2300 1067 2480
3 1578 1576 1827
3 930 927 1061
3 1026 1086 1375
3 922 2259 2379
3 1391 1120 1876
3 1495 1494 2493
3 404 407 408
3 879 2178 2449
3 1700 1698 2036
3 607 1517 1520
3 753 847 848
3 416 411 417
3 1144 742 1943
3 775 776 777
3 754 2108 2148
3 1006 1421 1953
3 585 581 586
3 531 530 532
3 235 1709 1888
3 520 519 521
3 1180 1181 1349
3 1146 759 1967
3 708 710 1921
3 1350 2253 2329
3 436 430 437
3 504 499 505
3 643 641 987
3 336 330 517
3 811 1059 1149
3 1164 1411 1685
3 846 933 934
3 635 843 1960
3 983 982 1918
3 971 872 1096
3 1149 1163 1164
3 169 237 1724
3 1314 1315 1316
3 629 583 630
3 891 812 1916
3 462 463 464
3 487 740 1935
3 798 2084 2189
3 1814 1838 2292
3 1284 1489 1491
3 340 336 2014
3 1670 1461 2200
3 920 782 2057
3 890 2241 2275
3 510 511 512
3 278 279 280
3 839 802 840
3 1858 235 1888
3 1698 1696 2036
3 104 105 222
3 57 58 224
3 1185 1183 1186
3 588 587 623
3 638 600 1988
3 1282 1386 2245
3 811 776 1058
3 816 815 876
3 2034 1845 2082
3 761 636 1741
3 566 565 587
3 174 175 1725
3 347 350 351
3 1469 1495 1496
3 1059 1058 1278
3 811 1149 1976
3 576 485 1935
3 659 658 660
3 859 1153 1962
3 76 1903 1994
3 1821 1109 2426
3 1294 1038 1622
3 733 1833 2075
3 992 993 1980
3 1566 1561 2285
3 525 474 2041
3 464 465 510
3 343 346 347
3 360 893 1982
3 650 649 651
3 896 608 936
3 950 1006 1007
3 1508 1859 1860
3 539 538 565
3 440 343 1911
3 341 340 344
3 221 1905 1906
3 1297 1823 2142
3 759 505 1967
3 1295 1053 1296
3 473 470 474
3 1463 1465 1466
3 1143 1206 2028
3 799 685 800
3 1210 2077 2203
3 509 508 538
3 492 496 2034
3 1553 1551 2030
3 1260 1261 1269
3 1430 1040 1703
3 586 590 1940
3 838 836 868
3 1705 624 2276
3 1749 972 2501
3 742 744 1943
3 804 962 1981
3 1367 1368 2254
3 531 532 533
3 337 336 340
3 1157 1094 1544
3 536 544 1158
3 812 630 1960
3 781 779 835
3 56 57 1947
3 630 583 634
3 1405 1404 1932
3 1281 891 1916
3 339 342 343
3 1411 1163 1730
3 322 323 324
3 344 340 2091
3 1735 1734 1736
3 75 76 1994
3 430 682 2494
3 1907 243 2360
3 589 581 2164
3 694 355 2196
3 744 753 1943
3 775 774 776
3 1210 1430 2077
3 335 338 339
3 1102 1803 2029
3 1078 937 1079
3 870 655 1939
3 505 507 1967
3 357 360 1982
3 1896 1878 2101
3 326 325 328
3 934 935 957
3 585 608 895
3 333 330 336
3 1270 1272 1524
3 688 817 878
3 507 520 1967
3 1428 1257 2074
3 1818 1817 2000
3 896 937 1077
3 934 957 1111
3 329 328 330
3 1499 995 1825
3 944 851 948
3 387 445 462
3 1678 1161 2228
3 777 776 811
3 313 311 757
3 324 331 332
3 848 1026 1955
3 1312 998 1811
3 1321 1322 2037
3 1080 1079 1121
3 1105 1355 2015
3 1645 2317 2461
3 1559 1568 2062
3 332 334 335
3 501 500 508
3 321 325 326
3 394 395 397
3 322 320 323
3 1529 1530 2171
3 1137 797 1138
3 811 1058 1059
3 661 660 662
3 569 581 585
3 183 4 2303
3 5 160 2304
3 1340 1138 1341
3 1660 1626 2185
3 1743 1464 2347
3 1026 1375 1955
3 1149 1059 1163
3 1736 1625 2194
3 1322 1667 2434
3 311 309 1959
3 309 307 319
3 894 700 1944
3 533 534 562
3 1276 1277 1366
3 2190 1706 2408
3 533 532 534
3 1214 1213 1410
3 1164 1163 1411
3 843 701 844
3 1009 1214 2055
3 234 1589 1788
3 2000 1817 2174
3 317 321 2050
3 328 325 945
3 392 393 394
3 588 623 2089
3 1162 958 1681
3 1078 1080 1136
3 927 848 1955
3 1496 1497 1498
3 390 391 392
3 1061 927 1955
3 1283 948 1284
3 635 634 700
3 1244 1251 1252
3 218 78 2093
3 756 722 2026
3 1071 1784 2419
3 1218 1505 2185
3 1284 948 1285
3 1489 1285 1490
3 918 1850 1851
3 684 1090 2029
3 1759 572 2537
3 1691 1690 2446
3 1979 1158 2071
3 606 649 650
3 2045 1043 2046
3 103 104 2025
3 630 634 635
3 360 383 893
3 406 386 2043
3 1909 219 2023
3 1111 957 1276
3 1925 1437 2277
3 1536 2268 2340
3 854 852 1133
3 233 153 1671
3 651 658 659
3 2099 1787 2368
3 1033 1032 1130
3 1015 1372 1373
3 1412 942 2026
3 253 264 1441
3 1531 1534 2332
3 701 700 894
3 106 107 1990
3 2048 1961 2455
3 276 274 2099
3 738 846 1968
3 1325 925 1326
3 896 936 937
3 585 586 608
3 1450 854 1973
3 1361 1360 1362
3 1045 1668 2512
3 303 301 444
3 996 844 997
3 79 1904 2093
3 1989 1686 2095
3 1928 774 2033
3 1942 562 1979
3 287 285 316
3 935 950 1966
3 1466 1467 1468
3 1242 1243 1244
3 1887 738 1968
3 2115 210 2477
3 878 929 1083
3 1326 1736 2194
3 886 888 1014
3 895 608 896
3 289 287 1978
3 821 822 897
3 936 608 1940
3 613 614 615
3 51 52 1996
3 417 411 1160
3 1149 1164 1989
3 386 786 2043
3 285 283 1971
3 1309 1543 2147
3 375 373 2053
3 371 370 372
3 779 777 1976
3 1286 1159 1773
3 2177 887 2376
3 1560 1557 1564
3 1403 1882 2399
3 1727 1757 2246
3 279 6 2049
3 1619 1438 2438
3 291 289 758
3 1781 1915 2294
3 425 401 426
3 349 355 356
3 66 67 2118
3 474 548 2041
3 1686 1687 2007
3 1262 1456 1457
3 1123 942 1412
3 1916 812 1960
3 1355 1425 2015
3 735 733 2075
3 1861 879 2449
3 1284 1285 1489
3 490 492 2034
3 366 363 367
3 980 578 2051
3 906 904 1792
3 534 536 1979
3 842 924 963
3 2051 578 2083
3 1077 937 1078
3 1102 1104 1803
3 894 1944 1946
3 398 404 2060
3 1007 1006 1953
3 369 367 370
3 348 354 2196
3 1078 1079 1080
3 1378 1380 1381
3 1568 1365 2439
3 608 586 1940
3 598 610 611
3 760 636 761
3 869 1137 1351
3 671 643 2033
3 1661 1345 2267
3 938 914 1057
3 783 761 914
3 576 1835 2144
3 388 389 390
3 297 295 318
3 454 453 500
3 1906 1728 2246
3 1439 1440 2468
3 1159 1013 1318
3 764 797 869
3 236 143 1717
3 782 644 2057
3 592 595 596
3 1542 2332 2443
3 1521 1311 2147
3 345 348 349
3 1304 1452 2205
3 1644 1907 2360
3 2146 1125 2149
3 997 844 1013
3 628 375 2053
3 299 297 1984
3 957 935 1966
3 664 685 799
3 301 299 1975
3 362 352 363
3 777 811 1976
3 1942 1979 2071
3 1001 920 2057
3 312 314 768
3 1552 1554 2062
3 615 616 617
3 357 1982 2076
3 800 802 839
3 774 671 2033
3 1749 1169 2105
3 365 958 1162
3 617 618 619
3 283 281 1938
3 1351 1772 2414
3 1525 1765 2489
3 846 934 1968
3 635 700 701
3 555 554 577
3 536 1158 1979
3 1101 1404 1405
3 630 635 1960
3 1811 1150 2089
3 2113 1666 2249
3 172 173 1847
3 107 108 195
3 54 55 196
3 1191 1768 2023
3 1455 1302 2205
3 115 116 2017
3 1387 1333 2437
3 659 661 764
3 1080 1121 1188
3 50 51 2011
3 411 406 2043
3 295 293 1983
3 643 987 2033
3 707 706 708
3 129 130 261
3 32 33 260
3 2159 260 2265
3 449 434 567
3 1314 1029 1315
3 917 796 940
3 378 375 628
3 108 109 1991
3 2370 1759 2537
3 341 344 345
3 997 1013 1159
3 544 569 1993
3 950 1007 1966
3 477 474 525
3 351 350 352
3 1696 1701 2036
3 334 331 803
3 1137 1138 1340
3 562 534 1979
3 109 110 246
3 52 53 247
3 1368 1316 1369
3 659 660 661
3 33 34 2002
3 123 124 2005
3 835 779 1976
3 851 838 1992
3 1530 1533 2172
3 1668 1045 2348
3 1162 1681 1706
3 342 338 468
3 298 300 358
3 765 359 2065
3 725 826 885
3 35 36 2003
3 46 47 2019
3 38 39 2006
3 336 517 2014
3 934 1111 1968
3 116 117 2018
3 650 651 1963
3 223 1711 2162
3 640 594 645
3 1333 1330 2192
3 104 222 2025
3 1603 922 2379
3 963 1113 1115
3 2084 1193 2189
3 564 570 571
3 36 37 2004
3 57 224 1947
3 1542 1601 2269
3 122 123 2012
3 1000 920 1001
3 127 128 240
3 34 35 239
3 383 387 2087
3 1161 1107 2228
3 1781 2294 2419
3 1201 1200 1202
3 124 125 225
3 37 38 226
3 1340 1341 1342
3 869 797 1137
3 839 840 1008
3 1158 544 1993
3 1326 925 1894
3 352 350 353
3 326 329 954
3 1864 2344 2412
3 836 835 2095
3 1051 1053 1295
3 1031 720 1032
3 503 461 787
3 1407 1112 2044
3 661 662 2058
3 838 868 1992
3 112 113 197
3 49 50 198
3 1359 980 1413
3 121 122 211
3 40 41 212
3 48 49 2010
3 113 114 2009
3 1741 673 2131
3 41 42 2020
3 120 121 2013
3 1409 2035 2097
3 1511 1374 2506
3 114 115 248
3 47 48 249
3 42 43 250
3 119 120 251
3 171 6 201
3 6 172 203
3 585 895 1993
3 43 44 2024
3 118 119 2021
3 905 904 906
3 764 661 797
3 337 340 341
3 1413 980 2051
3 117 118 205
3 44 45 206
3 347 346 350
3 1420 1076 1525
3 324 323 331
3 434 417 2031
3 965 967 969
3 716 719 788
3 1260 1254 1261
3 2053 373 2103
3 2069 2068 2170
3 326 328 329
3 1706 996 2408
3 273 275 2124
3 969 1011 1012
3 590 606 2001
3 1718 1611 2280
3 1914 1940 2001
3 915 1884 2082
3 329 330 333
3 620 859 955
3 2168 1409 2305
3 296 298 1997
3 915 2082 2101
3 339 338 342
3 1218 994 1505
3 333 336 337
3 266 263 1742
3 1873 768 2127
3 244 63 2162
3 64 223 2162
3 343 342 346
3 914 761 2258
3 310 312 1987
3 799 800 2055
3 302 304 763
3 1559 1566 1568
3 1598 1343 2114
3 592 575 595
3 341 345 794
3 189 1842 2220
3 767 815 816
3 1003 912 1004
3 839 1008 1009
3 1263 1428 1429
3 564 547 570
3 1845 1334 2082
3 332 331 334
3 901 866 902
3 651 659 1963
3 1009 1112 1213
3 335 334 338
3 569 585 1993
3 1665 1336 2299
3 1945 2071 2153
3 863 862 864
3 907 906 908
3 1849 1486 1930
3 1935 1144 2080
3 967 966 968
3 809 900 2119
3 865 864 866
3 835 1989 2095
3 190 1907 2417
3 333 337 522
3 1110 1748 2228
3 1193 1194 1195
3 94 191 2166
3 473 1854 2453
3 1769 1134 2369
3 948 851 1992
3 237 170 2216
3 420 419 422
3 1448 1447 2364
3 483 576 2144
3 721 1919 2032
3 885 886 1891
3 613 611 614
3 886 1014 1891
3 1160 411 2043
3 1918 1283 2342
3 1651 206 2485
3 1242 1240 1243
3 598 596 610
3 1295 1296 1459
3 1185 1186 1948
3 1425 1449 2070
3 294 296 762
3 1285 948 1992
3 925 876 1894
3 712 714 789
3 603 1668 2398
3 1940 590 2001
3 721 570 964
3 834 735 2075
3 1144 1920 2080
3 2263 1635 2511
3 1204 1207 1335
3 2235 1408 2378
3 965 964 966
3 1990 1435 2218
3 397 398 2060
3 1138 797 2058
3 1787 1141 2368
3 2068 820 2170
3 360 359 361
3 387 462 2087
3 1524 1272 1934
3 819 698 820
3 1197 1196 1198
3 1662 2126 2388
3 78 79 2093
3 1150 588 2089
3 1269 1261 1270
3 1878 915 2101
3 451 467 2169
3 2262 1387 2437
3 1009 1008 1112
3 757 311 1959
3 897 898 1139
3 1854 473 2483
3 2015 1425 2070
3 2082 1334 2101
3 963 1115 1174
3 1047 1049 1287
3 1194 423 1196
3 321 326 2050
3 417 1160 2031
3 854 1133 1973
3 1201 1212 1348
3 705 1586 2163
3 309 319 1959
3 1353 1390 2417
3 427 428 429
3 357 356 359
3 606 650 2001
3 549 1280 2124
3 1213 1112 1407
3 256 2303 2535
3 356 365 2065
3 662 664 2040
3 701 894 2039
3 1325 1371 2451
3 666 626 667
3 1902 93 2166
3 1236 1234 1246
3 800 839 2055
3 1869 1812 2252
3 1197 1364 1365
3 576 1935 2080
3 404 408 798
3 1678 807 2529
3 1560 1564 2016
3 1319 2039 2122
3 425 426 427
3 349 356 357
3 308 310 327
3 1716 622 2484
3 1801 82 2289
3 1768 1949 2420
3 2006 1926 2507
3 351 364 2407
3 420 423 1193
3 659 764 1963
3 292 294 2038
3 840 842 2027
3 736 279 2049
3 372 373 374
3 461 449 2052
3 2189 1195 2285
3 1174 1115 1398
3 367 363 961
3 909 908 918
3 1738 247 2402
3 1007 1761 2308
3 288 290 2135
3 422 441 2035
3 623 624 690
3 537 525 545
3 1953 1421 2454
3 1887 1968 2123
3 861 691 862
3 654 439 2223
3 1136 1080 2054
3 1312 1811 2089
3 575 571 2032
3 383 361 384
3 968 1200 1201
3 797 661 2058
3 1423 1354 2381
3 1180 1178 1181
3 1513 1515 2180
3 72 73 2217
3 462 445 463
3 12 13 2136
3 457 458 469
3 542 554 555
3 599 636 760
3 254 133 1766
3 1130 1397 1937
3 404 798 2060
3 1044 1942 2071
3 690 691 860
3 357 359 360
3 1008 2027 2152
3 1232 1230 1255
3 372 370 373
3 850 943 2125
3 1457 1456 1492
3 1952 324 2282
3 155 2 2356
3 0 7 2357
3 2017 1379 2288
3 918 1851 2008
3 195 1991 2517
3 2090 803 2347
3 1244 1243 1251
3 290 292 368
3 1432 1082 2214
3 1008 840 2027
3 1743 803 2296
3 1013 844 2039
3 365 1162 2065
3 1594 1315 2184
3 387 384 388
3 1508 1860 2311
3 547 527 2056
3 2005 225 2322
3 314 317 2127
3 1853 556 2327
3 201 6 278
3 1907 1644 2417
3 1896 2101 2108
3 646 645 784
3 538 508 558
3 374 375 377
3 1630 1634 1635
3 1579 1999 2352
3 1647 1648 1849
3 1313 1314 2121
3 1179 1433 2042
3 844 701 2039
3 1252 1251 2098
3 816 876 925
3 1922 1228 2281
3 392 394 396
3 1915 654 2294
3 1652 1653 2487
3 429 430 436
3 456 475 476
3 1605 1392 2510
3 126 1882 2284
3 1784 1780 2419
3 500 453 960
3 377 378 381
3 2178 1587 2300
3 1222 1219 1626
3 413 419 420
3 381 382 400
3 2169 1836 2223
3 1906 1905 2129
3 616 614 793
3 1170 1419 2139
3 101 189 2220
3 241 100 2220
3 1968 1111 2123
3 567 434 2031
3 615 614 616
3 1032 720 1921
3 682 428 2138
3 469 470 473
3 339 440 2261
3 1501 238 2226
3 1154 1431 1653
3 446 447 457
3 1251 1243 1257
3 2229 315 2495
3 1201 1202 1212
3 785 784 879
3 464 463 465
3 66 2118 2395
3 324 332 2282
3 286 288 771
3 17 199 2081
3 571 570 721
3 611 610 2092
3 617 616 618
3 1542 1531 2332
3 400 401 424
3 1325 1326 1371
3 1140 1406 1702
3 1323 443 2302
3 1926 1573 2507
3 436 437 446
3 1262 1457 2098
3 67 190 2118
3 1518 1861 2449
3 989 1359 1360
3 1063 1082 1154
3 1757 96 2526
3 969 967 1011
3 868 836 2095
3 1215 1035 2235
3 96 1757 2309
3 261 2160 2380
3 1381 1382 2126
3 1468 1469 2182
3 1334 1317 2108
3 861 863 1064
3 1270 1261 1271
3 360 361 383
3 287 316 1978
3 1856 192 2367
3 1905 241 2129
3 1615 1809 2425
3 528 523 560
3 979 980 989
3 662 2040 2058
3 721 964 965
3 170 171 2216
3 664 799 2040
3 512 511 523
3 1201 1348 2107
3 620 618 858
3 758 289 1978
3 859 858 998
3 424 425 453
3 1616 1615 2193
3 444 301 1975
3 561 560 593
3 965 966 967
3 1798 376 2430
3 340 2014 2091
3 510 465 511
3 107 195 1990
3 1080 1188 2054
3 1153 998 1312
3 1226 1224 1249
3 1012 1011 1363
3 902 904 905
3 842 963 2027
3 268 270 1134
3 865 901 1125
3 2077 558 2102
3 282 284 442
3 1977 1679 2253
3 1496 1498 2047
3 284 286 2063
3 281 736 1938
3 2132 793 2165
3 1674 215 2437
3 2078 1855 2411
3 839 1009 2055
3 1182 824 1183
3 1168 947 1169
3 1289 1871 2242
3 316 285 1971
3 1270 1271 1272
3 1755 1793 2264
3 51 1996 2011
3 383 384 387
3 1146 1924 2215
3 1279 1928 2202
3 619 618 620
3 1194 1196 1197
3 555 578 979
3 1937 1639 2528
3 1262 1257 1263
3 389 384 2339
3 2251 1338 2464
3 1155 1887 2123
3 1151 1937 2528
3 465 463 828
3 1318 1319 2116
3 1687 1688 2231
3 326 954 2050
3 297 318 1984
3 1308 953 2255
3 1846 2056 2198
3 320 315 2229
3 1254 1252 2059
3 760 761 783
3 951 1281 2255
3 1459 1296 2094
3 2288 1638 2470
3 1975 299 1984
3 52 247 1996
3 468 338 2090
3 2140 1511 2506
3 1125 1126 1192
3 593 824 1182
3 720 708 1921
3 704 706 707
3 623 587 624
3 2044 1112 2152
3 1393 1169 1749
3 900 983 2119
3 783 914 938
3 255 2265 2489
3 2039 894 2122
3 317 2050 2127
3 1866 1867 2513
3 374 373 375
3 429 436 455
3 387 388 445
3 1193 423 1194
3 555 577 578
3 1074 977 1187
3 449 567 2052
3 1197 1198 1364
3 2154 1595 2486
3 1486 1849 2173
3 318 295 1983
3 939 1016 1844
3 131 132 2160
3 30 31 2159
3 881 1146 2215
3 1294 1868 2238
3 1300 1455 2314
3 1365 1364 1912
3 783 938 939
3 2061 1735 2441
3 551 545 601
3 2194 216 2536
3 1251 1257 1262
3 888 887 2177
3 1364 1198 2048
3 1498 1682 2340
3 1589 1590 2501
3 60 188 2266
3 1401 1913 2324
3 195 108 1991
3 420 422 423
3 1675 1470 2474
3 258 1673 2183
3 2161 1619 2438
3 1296 1472 2094
3 1808 1910 2381
3 334 803 2090
3 1490 1285 2232
3 523 511 524
3 1240 1238 2074
3 1184 1183 1185
3 39 40 2151
3 473 474 477
3 1461 1463 2200
3 2072 353 2073
3 861 862 863
3 1206 1941 2401
3 958 1575 2287
3 614 611 2092
3 110 111 2140
3 1136 2054 2110
3 645 594 2133
3 260 33 2002
3 673 767 2131
3 989 980 1359
3 1741 2131 2258
3 1317 1875 2148
3 894 1946 2122
3 863 864 865
3 787 461 2052
3 857 2277 2386
3 109 246 1991
3 2017 116 2018
3 1182 1183 1184
3 377 375 378
3 816 925 1324
3 865 866 901
3 1262 1263 1456
3 359 356 2065
3 2129 241 2472
3 283 1938 1971
3 1458 1210 2203
3 1076 1003 2145
3 196 1738 2402
3 1033 1130 1151
3 1188 1121 2106
3 1140 1702 2096
3 549 687 1280
3 1694 1621 2191
3 861 1064 2112
3 1548 1549 2129
3 1784 1071 2462
3 714 716 2066
3 1961 825 2455
3 1447 1211 2250
3 979 578 980
3 905 907 1209
3 381 378 382
3 457 469 552
3 595 575 2032
3 408 413 2084
3 481 483 2144
3 1745 1349 2293
3 1980 1405 2441
3 198 50 2011
3 248 115 2017
3 912 819 2068
3 620 858 859
3 707 708 720
3 821 674 822
3 514 542 2086
3 400 382 401
3 123 2005 2012
3 1772 1351 2374
3 34 239 2002
3 768 314 2127
3 2003 36 2004
3 280 282 2079
3 124 225 2005
3 596 595 2130
3 593 560 824
3 1504 1502 2519
3 239 35 2003
3 1311 1309 2147
3 1318 1877 2240
3 1860 1432 2311
3 1416 1715 2330
3 859 998 1153
3 352 353 2072
3 312 768 1987
3 2027 1174 2152
3 226 38 2006
3 1827 1024 2117
3 1710 1391 2295
3 690 624 691
3 37 226 2004
3 1153 1312 1885
3 853 855 2186
3 1892 242 2373
3 1967 520 2174
3 939 938 1016
3 47 249 2019
3 388 390 2078
3 1991 2139 2517
3 905 906 907
3 571 721 2032
3 1196 423 2035
3 1324 925 1325
3 1151 1130 1937
3 363 352 2072
3 345 349 2076
3 1031 1032 1033
3 214 179 1859
3 211 122 2012
3 602 601 652
3 117 205 2018
3 710 712 2067
3 1602 187 2357
3 520 2000 2174
3 85 242 2335
3 220 84 2335
3 381 400 2113
3 1586 1587 2435
3 424 401 425
3 963 1174 2027
3 860 691 861
3 610 596 2130
3 1958 2078 2431
3 570 547 2056
3 237 2216 2354
3 1211 1692 2219
3 298 358 1997
3 909 947 1041
3 441 456 2097
3 1135 1647 1849
3 1601 1542 2443
3 197 113 2009
3 49 198 2010
3 1911 347 2407
3 1729 191 2309
3 212 41 2020
3 121 211 2013
3 222 105 2218
3 1125 901 1126
3 114 248 2009
3 249 48 2010
3 42 250 2020
3 251 120 2013
3 233 1769 2369
3 1870 647 2113
3 794 345 2076
3 250 43 2024
3 119 251 2021
3 901 902 2141
3 964 570 2056
3 739 335 2261
3 2108 1317 2148
3 577 599 2083
3 205 118 2021
3 44 206 2024
3 1247 1241 2323
3 1894 992 2244
3 6 203 2049
3 1642 1678 2529
3 1417 1873 2333
3 1422 2023 2516
3 341 794 2100
3 73 74 2361
3 1234 1232 2088
3 1261 1254 2059
3 896 1077 2257
3 1921 710 2067
3 125 126 2284
3 220 1699 2289
3 159 5 2304
3 4 184 2303
3 2059 1252 2098
3 1003 1004 2145
3 2328 1325 2451
3 1486 227 1500
3 63 64 2162
3 2081 1192 2260
3 508 500 2102
3 667 1872 2318
3 338 334 2090
3 423 422 2035
3 1192 1126 1471
3 907 908 909
3 1330 1328 2192
3 1972 897 2500
3 2443 316 2514
3 242 86 2373
3 87 193 2373
3 420 1193 2084
3 1473 1086 2358
3 1987 768 2037
3 522 337 2100
3 627 1660 2185
3 1793 446 2264
3 1405 2061 2441
3 1502 1217 2302
3 171 201 2216
3 1158 1993 2153
3 1197 1365 2120
3 1712 1710 2295
3 1121 1401 2414
3 93 94 2166
3 653 652 688
3 622 1716 2452
3 1345 1720 2267
3 477 537 556
3 128 129 2181
3 2331 1295 2458
3 784 645 874
3 1269 1270 2199
3 189 102 2355
3 1041 1168 1343
3 246 110 2140
3 477 525 537
3 755 1895 2371
3 1947 1723 2313
3 1134 1135 2369
3 223 65 2395
3 968 1201 2107
3 1577 1578 2325
3 210 15 2477
3 961 363 2072
3 1581 1579 2352
3 349 357 2076
3 337 341 2100
3 305 303 2317
3 370 367 2103
3 762 296 1997
3 581 580 2164
3 1278 1838 2372
3 1548 2129 2472
3 594 593 2133
3 2021 251 2022
3 2047 1247 2182
3 967 968 2107
3 1169 947 2008
3 481 2144 2169
3 793 614 2092
3 1910 217 2381
3 1251 1262 2098
3 716 788 2066
3 2101 1334 2108
3 2006 39 2151
3 1603 2379 2508
3 1926 2006 2151
3 96 97 2526
3 750 755 2371
3 789 714 2066
3 909 918 947
3 1993 895 2153
3 106 1990 2218
3 1243 1240 2074
3 832 986 1189
3 1283 1284 2342
3 2297 195 2517
3 1043 829 2326
3 767 816 2131
3 602 653 676
3 1004 912 2068
3 2086 1886 2224
3 1124 2177 2467
3 426 401 2531
3 707 720 1030
3 1000 1001 2184
3 1315 1029 2184
3 467 481 2169
3 541 513 2256
3 647 381 2113
3 225 2284 2510
3 2 156 2356
3 187 0 2357
3 40 212 2151
3 2245 1386 2383
3 676 677 829
3 1004 2068 2069
3 1860 232 2487
3 1031 1033 1034
3 829 830 972
3 996 997 2408
3 1195 1194 2120
3 987 1869 2202
3 1410 1213 2222
3 819 820 2068
3 1485 1486 2173
3 1564 2030 2155
3 807 669 2529
3 129 261 2181
3 1525 1076 2145
3 578 577 2083
3 327 310 1987
3 1083 929 2197
3 2131 1324 2258
3 798 408 2084
3 1838 696 2426
3 1486 1500 1930
3 1946 1944 2291
3 2257 1077 2291
3 1512 1661 2266
3 445 388 2078
3 1192 1471 2260
3 2118 1415 2395
3 1466 1468 2158
3 830 677 831
3 211 2012 2251
3 652 601 2442
3 537 545 551
3 558 508 2102
3 198 2011 2128
3 1718 2280 2385
3 500 960 2102
3 1168 1169 1393
3 1127 971 2496
3 95 96 2309
3 2030 1565 2155
3 1919 1172 2273
3 977 860 2112
3 240 128 2181
3 294 762 2038
3 1800 1799 2195
3 712 789 2067
3 972 1749 2326
3 472 1683 2212
3 874 645 2133
3 551 2045 2201
3 2105 1043 2326
3 1957 1212 2301
3 1514 1856 2367
3 565 538 2167
3 373 370 2103
3 355 348 2196
3 1934 1272 2138
3 1934 426 2531
3 1881 1400 2481
3 2046 1851 2327
3 367 961 2103
3 1963 1152 2206
3 201 278 443
3 3 131 2444
3 31 1 2445
3 2035 441 2097
3 503 787 2198
3 1135 1849 1930
3 1534 1983 2306
3 2089 623 2150
3 687 704 2109
3 869 1351 2363
3 1302 1304 2205
3 955 1716 2484
3 1030 720 1031
3 1159 1318 2240
3 1228 1226 2281
3 947 918 2008
3 413 420 2084
3 785 879 2532
3 1041 947 1168
3 1468 2182 2323
3 1246 1234 2088
3 1730 1163 2372
3 542 555 2086
3 1599 631 2312
3 1146 1967 2174
3 1078 1136 2343
3 1515 1574 2180
3 2336 885 2469
3 1257 1243 2074
3 1347 1346 2279
3 2001 650 2206
3 1480 1601 2514
3 1029 1000 2184
3 1956 788 2336
3 1271 1261 2059
3 130 3 2444
3 1 32 2445
3 1570 1507 2197
3 1232 1255 2088
3 791 1642 2529
3 1601 1479 2269
3 1361 1362 2168
3 1634 1922 2281
3 765 2065 2190
3 2071 1158 2153
3 1699 1801 2289
3 832 831 833
3 1864 346 2344
3 456 476 2097
3 1855 828 2411
3 2065 1162 2190
3 1125 1192 2149
3 599 760 2083
3 361 765 2339
3 1731 2123 2241
3 1349 1181 1350
3 1443 1275 2251
3 1819 524 2429
3 1021 1045 2512
3 858 618 2132
3 1999 358 2338
3 368 292 2038
3 290 368 2135
3 803 331 2296
3 1112 1008 2152
3 56 1947 2313
3 555 979 2086
3 1469 1496 2182
3 1011 967 2107
3 248 2017 2288
3 1809 789 2425
3 960 453 2221
3 538 558 2167
3 1858 1187 2248
3 2246 1757 2526
3 902 905 2141
3 1851 1853 2327
3 1224 1222 2111
3 771 288 2135
3 1945 2153 2257
3 1420 1525 2489
3 1399 1123 2393
3 103 2025 2355
3 897 822 898
3 1861 940 2532
3 865 1125 2146
3 1675 2474 2522
3 1573 2157 2507
3 1632 1631 2382
3 551 601 602
3 527 503 2198
3 1708 805 2337
3 1059 1278 2372
3 2056 527 2198
3 860 861 2112
3 1668 2348 2398
3 255 2159 2265
3 1541 1542 2269
3 1428 2074 2227
3 1582 1583 2321
3 389 1774 2503
3 2004 226 2157
3 1777 397 2405
3 1368 1436 2254
3 1061 2409 2462
3 1071 930 2462
3 1126 901 2141
3 1194 1197 2120
3 1452 1952 2282
3 2116 1319 2482
3 105 106 2218
3 1981 1399 2393
3 2119 983 2143
3 444 1682 2461
3 2173 1648 2463
3 616 793 2132
3 1791 1190 2334
3 1826 1728 2259
3 602 652 653
3 1834 1292 2428
3 556 2201 2327
3 1014 1015 2385
3 1995 1287 2331
3 1193 1195 2189
3 816 1324 2131
3 879 1861 2532
3 593 1182 2133
3 1402 266 1742
3 2216 1323 2354
3 1660 1636 2502
3 620 955 2484
3 1162 1706 2190
3 1870 2113 2249
3 204 1680 1732
3 1909 2023 2420
3 217 72 2217
3 376 372 2430
3 905 1209 2141
3 1378 1381 2283
3 1236 1246 2227
3 286 771 2063
3 1635 2263 2502
3 100 101 2220
3 1139 898 1140
3 2114 1343 2136
3 442 284 2063
3 1772 2106 2414
3 1985 1755 2533
3 2192 1328 2315
3 1064 863 2146
3 1631 1637 2459
3 736 2049 2523
3 221 1906 2246
3 318 1983 2171
3 1496 2047 2182
3 1374 2139 2506
3 196 55 2313
3 2087 462 2134
3 676 653 677
3 2304 257 2491
3 1401 2324 2363
3 829 677 830
3 654 2223 2242
3 1187 977 2112
3 1463 1466 2200
3 2023 219 2516
3 1176 881 2215
3 513 471 2290
3 1812 459 2252
3 1386 1269 2199
3 291 758 2306
3 618 616 2132
3 278 280 2210
3 83 220 2289
3 82 83 2289
3 938 1057 2161
3 1189 986 1190
3 788 719 2336
3 1914 2001 2206
3 232 181 1652
3 1567 2062 2490
3 313 757 2495
3 622 619 2484
3 688 878 1320
3 1222 1626 2111
3 282 442 2079
3 1169 2008 2105
3 1966 1007 2308
3 2040 799 2237
3 1744 2229 2495
3 986 833 1063
3 2284 1605 2510
3 887 1961 2376
3 215 1624 2262
3 830 831 832
3 476 475 2224
3 439 451 2223
3 1932 1933 2380
3 2227 1246 2366
3 1212 1202 2301
3 1107 1110 2228
3 249 2010 2299
3 1983 293 2306
3 2055 1214 2237
3 1438 1372 2478
3 824 560 2156
3 2320 1866 2513
3 1351 1137 2374
3 868 2007 2232
3 2063 771 2064
3 1507 214 1508
3 1728 1727 2246
3 1045 1047 2348
3 1139 1140 2096
3 1648 1649 2463
3 1502 2302 2519
3 704 707 2109
3 2343 1136 2396
3 650 1963 2206
3 2153 895 2257
3 396 1958 2431
3 1379 1377 2288
3 2115 1471 2319
3 2033 987 2202
3 2239 1693 2518
3 2025 1488 2355
3 1209 2115 2319
3 523 524 2156
3 783 939 2243
3 376 1798 2497
3 2066 788 2193
3 1984 318 2172
3 425 427 2221
3 203 172 1847
3 446 457 2264
3 1312 2089 2150
3 2138 1272 2211
3 897 1139 2274
3 828 1819 2429
3 1249 1224 2111
3 666 667 2318
3 1371 1326 2194
3 2433 1499 2475
3 1272 1271 2211
3 1367 2254 2479
3 1386 2053 2383
3 2074 1238 2227
3 755 2148 2320
3 2117 1604 2428
3 475 514 2224
3 228 2187 2457
3 1868 1504 2520
3 1626 1218 2185
3 2123 1111 2241
3 1287 1049 2331
3 1280 687 2109
3 459 1814 2292
3 54 196 2402
3 863 865 2146
3 204 176 1680
3 514 2086 2224
3 1646 603 2398
3 112 197 2346
3 358 300 2338
3 1140 898 1141
3 1204 1335 2301
3 1016 2161 2438
3 909 1041 2175
3 1681 2448 2492
3 2252 459 2292
3 1992 868 2232
3 1035 1036 2235
3 1051 1295 2331
3 1836 1289 2242
3 1508 214 1859
3 247 53 2402
3 1016 938 2161
3 1408 856 2378
3 1466 2158 2200
3 725 885 2336
3 855 1450 2421
3 2023 1768 2420
3 1238 1236 2227
3 1679 202 2253
3 2107 1348 2233
3 1653 1431 2487
3 1946 2291 2343
3 2253 202 2329
3 1885 1312 2150
3 378 628 2390
3 2195 1383 2432
3 1520 1519 2480
3 1532 1733 2534
3 308 327 2278
3 953 951 2255
3 1213 1407 2222
3 1561 1563 2285
3 302 763 2338
3 1928 2033 2202
3 763 304 2345
3 832 833 986
3 1352 2040 2237
3 247 1881 2481
3 560 523 2156
3 335 339 2261
3 346 342 2344
3 201 443 1323
3 2301 1335 2466
3 323 320 2229
3 1136 2110 2396
3 1139 1977 2274
3 1809 1615 2423
3 1707 1791 2334
3 46 2019 2485
3 2064 1294 2238
3 1950 197 2404
3 2021 2022 2176
3 1949 245 2420
3 2044 2152 2207
3 1063 1154 1707
3 1012 1363 2406
3 280 2079 2210
3 2237 1214 2351
3 820 698 2318
3 1140 1141 1406
3 205 2021 2176
3 2043 786 2310
3 2145 1004 2446
3 707 1030 2109
3 1406 2460 2473
3 2137 1268 2226
3 16 2081 2260
3 567 2031 2219
3 2112 1064 2248
3 206 45 2485
3 2347 1462 2365
3 1650 1962 2362
3 453 425 2221
3 1209 907 2175
3 1111 1276 2241
3 2448 1145 2492
3 2051 2083 2243
3 59 60 2266
3 1402 1742 2530
3 831 677 2209
3 624 587 2276
3 238 174 1725
3 1011 2107 2233
3 468 2365 2412
3 2337 805 2371
3 254 1932 2380
3 1174 1398 2207
3 2140 111 2346
3 1381 2186 2283
3 1987 2037 2188
3 1740 559 2456
3 1773 391 2503
3 1335 1870 2249
3 1945 2257 2291
3 828 463 2411
3 1246 2088 2208
3 2060 798 2307
3 1773 1159 2240
3 1187 2112 2248
3 1352 2237 2351
3 2037 1322 2188
3 1941 1499 2433
3 2322 225 2510
3 1031 1034 2236
3 327 2188 2321
3 595 2032 2273
3 1464 1462 2347
3 1285 1992 2232
3 799 2055 2237
3 443 278 2210
3 784 874 2178
3 392 396 2431
3 191 95 2309
3 879 784 2178
3 524 511 2429
3 2128 2011 2270
3 895 896 2257
3 2206 1152 2324
3 318 2171 2172
3 2259 1549 2379
3 1214 1410 2351
3 306 308 2278
3 2022 251 2247
3 1757 1729 2309
3 1283 1918 2524
3 996 1706 2492
3 557 2044 2207
3 1798 1448 2364
3 1447 2250 2310
3 559 1750 2403
3 1363 1011 2233
3 1343 1168 2187
3 1407 2044 2256
3 1462 1460 2365
3 1995 2331 2458
3 327 1987 2188
3 2160 254 2380
3 1681 958 2287
3 2031 1160 2250
3 1600 689 2413
3 2219 1692 2239
3 1494 1675 2522
3 1281 1916 2448
3 907 909 2175
3 565 2167 2276
3 2241 1276 2275
3 1978 316 2443
3 2151 212 2350
3 203 1847 2104
3 2049 1481 2523
3 1961 1362 2376
3 2187 1393 2457
3 940 796 2532
3 2293 1349 2329
3 572 1897 2537
3 332 739 2282
3 2052 567 2239
3 1437 1370 2277
3 567 2219 2239
3 667 626 2452
3 1914 2206 2324
3 2243 939 2392
3 2136 1343 2187
3 257 1654 2530
3 1376 1378 2283
3 2076 1982 2272
3 2083 760 2243
3 1944 1945 2291
3 1771 1839 2359
3 1404 1403 2399
3 1875 1866 2320
3 1460 1337 2412
3 760 783 2243
3 1276 1366 2275
3 1428 2227 2366
3 1882 1605 2284
3 1739 1429 2459
3 2321 2188 2434
3 1328 1327 2315
3 798 2189 2307
3 2152 1174 2207
3 2182 1247 2323
3 1516 1514 2367
3 293 291 2306
3 556 537 2201
3 1298 1300 2314
3 1400 1399 2316
3 1649 2236 2463
3 833 831 2424
3 2127 2050 2333
3 1057 914 2328
3 1839 193 2359
3 761 1741 2258
3 1186 1970 2422
3 1429 2366 2382
3 2211 1271 2271
3 1733 1248 2534
3 13 2114 2136
3 2078 390 2431
3 1533 1536 2340
3 1690 2145 2446
3 1277 2308 2370
3 1168 1393 2187
3 1597 2047 2268
3 587 565 2276
3 1908 244 2401
3 225 125 2284
3 610 2130 2468
3 1749 2105 2326
3 1913 1914 2324
3 2366 2208 2382
3 1391 1876 2295
3 457 552 2264
3 653 688 2209
3 1601 2443 2514
3 682 2138 2211
3 992 1980 2244
3 55 56 2313
3 1645 1495 2493
3 473 477 2483
3 202 1724 2329
3 465 828 2429
3 1277 1966 2308
3 1416 2330 2406
3 1912 1364 2455
3 1716 1483 2375
3 2019 1651 2485
3 1725 2137 2226
3 201 1323 2216
3 878 1083 2213
3 2072 2073 2245
3 1563 1777 2405
3 244 2028 2401
3 2016 1564 2422
3 1682 1497 2461
3 1962 1153 2362
3 1298 2314 2358
3 1384 1385 2391
3 688 1320 2209
3 1587 2179 2435
3 786 380 2497
3 1395 1522 2341
3 2032 1919 2273
3 251 2013 2247
3 2219 2031 2250
3 2397 552 2453
3 1765 255 2489
3 2475 1825 2524
3 1202 1204 2301
3 445 2078 2411
3 323 2229 2296
3 1286 2384 2408
3 537 551 2201
3 1724 237 2293
3 84 85 2335
3 1471 1126 2319
3 1635 1634 2511
3 300 302 2338
3 698 666 2318
3 1030 1031 2236
3 2098 1457 2271
3 696 1821 2426
3 1457 1492 2447
3 1956 2336 2469
3 331 323 2296
3 1284 1491 2342
3 2011 1996 2270
3 256 183 2303
3 160 257 2304
3 2204 1589 2501
3 1891 1014 2280
3 719 725 2336
3 1354 1808 2381
3 437 430 2494
3 2377 218 2391
3 2211 2271 2447
3 1407 2256 2290
3 2365 1460 2412
3 2047 1498 2268
3 1825 1283 2524
3 1499 1825 2475
3 1226 1249 2281
3 2051 2243 2392
3 2250 1160 2310
3 111 112 2346
3 304 306 2345
3 1341 1352 2351
3 2166 191 2504
3 2223 1836 2242
3 1996 247 2481
3 1049 1051 2331
3 1086 1298 2358
3 2130 595 2273
3 1249 2111 2263
3 680 1995 2458
3 1511 2140 2346
3 102 103 2355
3 469 473 2453
3 961 2072 2245
3 2073 1282 2245
3 1442 1443 2525
3 74 192 2361
3 2163 1586 2435
3 1519 1518 2449
3 897 2274 2500
3 303 444 2317
3 1615 1614 2423
3 197 2009 2404
3 1634 2281 2511
3 1780 1781 2419
3 1435 1623 2465
3 1286 1774 2384
3 384 361 2339
3 193 1901 2359
3 1165 2433 2475
3 2277 1370 2386
3 677 653 2209
3 1994 1516 2367
3 1479 1478 2440
3 1165 1512 2433
3 1644 1353 2417
3 1711 1712 2353
3 2193 1615 2425
3 1613 1956 2469
3 1440 1173 2330
3 2269 1479 2440
3 222 2218 2465
3 391 389 2503
3 306 2278 2345
3 468 2090 2365
3 221 2246 2526
3 1445 1446 2504
3 939 1844 2392
3 86 87 2373
3 1429 1428 2366
3 2053 2103 2383
3 1348 1212 2312
3 805 750 2371
3 997 1286 2408
3 1152 869 2363
3 2063 2064 2238
3 192 1994 2367
3 1160 2043 2310
3 1926 2151 2350
3 2059 2098 2271
3 1897 1366 2537
3 215 2262 2437
3 1655 1732 2476
3 2415 1128 2454
3 1320 2213 2214
3 7 258 2357
3 259 155 2356
3 2171 1530 2172
3 347 351 2407
3 1077 1078 2343
3 239 2003 2279
3 1446 1128 2415
3 1034 1033 2410
3 601 627 2442
3 1154 1653 2234
3 397 2060 2405
3 2142 794 2272
3 442 2063 2238
3 1863 1215 2378
3 794 2076 2272
3 1883 1375 2505
3 1320 878 2213
3 342 468 2344
3 1903 218 2377
3 380 376 2497
3 1549 1547 2379
3 1148 1165 2475
3 2157 226 2507
3 829 972 2326
3 884 1957 2466
3 2291 1077 2343
3 65 66 2395
3 787 2052 2518
3 2298 1348 2312
3 1946 2343 2396
3 1653 256 2535
3 1842 1548 2472
3 1957 2301 2466
3 1366 1277 2370
3 2213 1432 2214
3 961 2245 2383
3 218 2093 2391
3 1376 2283 2421
3 1873 2127 2333
3 1019 1021 2512
3 1128 1127 2454
3 1104 1434 2450
3 2130 1439 2468
3 2396 2110 2482
3 2186 855 2283
3 1724 2293 2329
3 1163 1059 2372
3 1614 2389 2423
3 53 54 2402
3 1063 1707 2334
3 2283 855 2421
3 1385 1863 2436
3 364 1883 2505
3 517 1890 2387
3 1145 996 2492
3 1047 1287 2348
3 2148 1875 2320
3 205 2176 2416
3 1372 1844 2478
3 1211 2219 2250
3 1141 898 2368
3 245 1909 2420
3 2278 327 2321
3 2389 1397 2423
3 2256 513 2290
3 559 2403 2456
3 1137 1340 2374
3 2093 1384 2391
3 1918 1148 2524
3 1030 2236 2427
3 1867 1895 2513
3 2014 517 2387
3 2271 1457 2447
3 1143 2028 2353
3 1904 194 2432
3 1148 2475 2524
3 1574 1523 2436
3 2213 1083 2311
3 1997 358 2325
3 2139 246 2506
3 1370 1369 2386
3 1271 2059 2271
3 1034 2173 2463
3 1123 1412 2393
3 1578 1827 2515
3 2209 1320 2424
3 2079 1504 2210
3 1361 2168 2305
3 1491 1489 2403
3 238 1725 2226
3 1190 986 2334
3 1547 1545 2508
3 1891 1613 2469
3 1153 1885 2362
3 2208 1632 2382
3 2287 1281 2448
3 1356 1376 2421
3 1965 2349 2515
3 2155 1186 2422
3 1522 2014 2387
3 2158 1468 2323
3 2050 954 2333
3 1397 1809 2423
3 1362 1360 2376
3 1852 1985 2397
3 2069 1691 2446
3 789 2066 2425
3 1895 755 2513
3 1707 1154 2234
3 372 374 2430
3 2225 787 2518
3 2028 1206 2401
3 986 1063 2334
3 1912 726 2439
3 1340 1342 2400
3 1916 1145 2448
3 2236 1649 2427
3 2374 1340 2400
3 2222 1407 2290
3 2324 1152 2363
3 241 2220 2472
3 765 2190 2384
3 2375 667 2452
3 2330 1173 2406
3 1181 1972 2500
3 2126 1382 2388
3 1173 1012 2406
3 315 313 2495
3 1015 1373 2385
3 97 221 2526
3 1937 1397 2389
3 930 1061 2462
3 971 1096 2496
3 45 46 2485
3 669 791 2529
3 1104 2450 2521
3 382 378 2390
3 2191 1371 2536
3 2235 1036 2286
3 831 2209 2424
3 762 1997 2349
3 2379 1547 2508
3 2177 1359 2467
3 2403 1489 2456
3 796 785 2532
3 219 1902 2516
3 1519 2300 2480
3 1065 1655 2476
3 1375 1473 2505
3 1489 1490 2456
3 390 392 2431
3 2247 2013 2464
3 1135 1930 2369
3 2278 1583 2345
3 626 622 2452
3 631 2298 2312
3 2233 1348 2298
3 1398 1974 2499
3 1706 1681 2492
3 261 130 2444
3 32 260 2445
3 822 2099 2368
3 1365 1912 2439
3 941 940 2418
3 1446 2166 2504
3 2106 1121 2414
3 2300 1519 2449
3 1803 1104 2521
3 1732 1570 2476
3 1413 2051 2392
3 2122 1946 2396
3 2238 1868 2520
3 477 556 2483
3 2397 1985 2533
3 463 445 2411
3 2163 1185 2488
3 1126 2141 2319
3 1755 2264 2533
3 972 2204 2501
3 2230 1533 2340
3 1774 1773 2503
3 1997 2325 2349
3 1004 2069 2446
3 2159 31 2445
3 131 2160 2444
3 1371 2191 2451
3 1001 2154 2486
3 1682 2230 2340
3 2103 961 2383
3 1033 1151 2410
3 382 2390 2531
3 1504 2079 2520
3 1583 2278 2321
3 511 465 2429
3 250 2024 2479
3 2208 2088 2509
3 619 620 2484
3 1246 2208 2366
3 2141 1209 2319
3 1359 1413 2467
3 1295 1459 2458
3 2218 1435 2465
3 2281 1249 2511
3 2293 237 2354
3 2207 1398 2499
3 1564 2155 2422
3 552 469 2453
3 1947 224 2498
3 2062 1568 2490
3 2018 205 2416
3 260 2159 2445
3 2160 261 2444
3 2092 610 2468
3 194 2195 2432
3 1432 2213 2311
3 211 2251 2464
3 2378 856 2527
3 1536 1532 2534
3 2364 786 2497
3 2438 1438 2478
3 1185 1948 2488
3 2042 941 2418
3 1582 2321 2434
3 885 1891 2469
3 1364 2048 2455
3 1693 2225 2518
3 401 382 2531
3 1338 2247 2464
3 442 2238 2520
3 1292 2117 2428
3 2274 1350 2500
3 2066 2193 2425
3 2179 1184 2435
3 898 822 2368
3 2436 1863 2527
3 1844 1016 2478
3 2184 1001 2486
3 557 2207 2499
3 2013 211 2464
3 2254 250 2479
3 1350 1181 2500
3 2009 248 2470
3 246 2140 2506
3 1574 2436 2527
3 2139 1419 2517
3 316 1971 2514
3 1319 2122 2482
3 226 2006 2507
3 1400 2270 2481
3 1681 2287 2448
3 2325 1578 2349
3 232 1652 2487
3 1320 2214 2424
3 1632 2208 2509
3 248 2288 2470
3 1406 1141 2460
3 2188 1322 2434
3 2244 1980 2441
3 2088 1255 2509
3 1280 2109 2427
3 2060 2307 2405
3 2236 1034 2463
3 1745 2293 2354
3 2122 2396 2482
3 2109 1030 2427
3 2307 1563 2405
3 1429 2382 2459
3 224 2267 2498
3 682 2211 2447
3 2079 442 2520
3 2348 1287 2398
3 2220 1842 2472
3 1335 2249 2466
3 1249 2263 2511
3 443 2210 2519
3 2385 1373 2394
3 1594 2184 2486
3 2052 2239 2518
3 1568 2439 2490
3 2349 1578 2515
3 2344 468 2412
3 2270 1996 2481
3 1735 2244 2441
3 2260 1471 2477
3 2210 1504 2519
3 1434 2297 2450
3 2297 1419 2450
3 2263 1660 2502
3 2404 2009 2470
3 1718 2385 2394
3 1371 2194 2536
3 2317 444 2461
3 1443 2322 2525
3 1716 2375 2452
3 1863 2378 2527
3 2439 726 2490
3 1057 2328 2451
3 1638 2404 2470
3 1454 2234 2535
3 755 2320 2513
3 2234 1653 2535
3 2264 552 2533
3 1419 2297 2517
3 1392 2322 2510
3 552 2397 2533
3 1798 2364 2497
3 2322 1392 2525
3 2382 1631 2459
3 1016 2438 2478
3 1366 2370 2537
3 1742 2491 2530
3 2491 257 2530
CELL_TYPES 4886
5
5
5
5
5
5
5
5
5
5
5
5
5
5
5
5
5
5
5
5
5
5
5
5
5
5
5
5
5
5
5
5
5
5
5
5
5
5
5
5
5
5
5
5
5
5
5
5
5
5
5
5
5
5
5
5
5
5
5
5
5
5
5
5
5
5
5
5
5
5
5
5
5
5
5
5
5
5
5
5
5
5
5
5
5
5
5
5
5
5
5
5
5
5
5
5
5
5
5
5
5
5
5
5
5
5
5
5
5
5
5
5
5
5
5
5
5
5
5
5
5
5
5
5
5
5
5
5
5
5
5
5
5
5
5
5
5
5
5
5
5
5
5
5
5
5
5
5
5
5
5
5
5
5
5
5
5
5
5
5
5
5
5
5
5
5
5
5
5
5
5
5
5
5
5
5
5
5
5
5
5
5
5
5
5
5
5
5
5
5
5
5
5
5
5
5
5
5
5
5
5
5
5
5
5
5
5
5
5
5
5
5
5
5
5
5
5
5
5
5
5
5
5
5
5
5
5
5
5
5
5
5
5
5
5
5
5
5
5
5
5
5
5
5
5
5
5
5
5
5
5
5
5
5
5
5
5
5
5
5
5
5
5
5
5
5
5
5
5
5
5
5
5
5
5
5
5
5
5
5
5
5
5
5
5
5
5
5
5
5
5
5
5
5
5
5
5
5
5
5
5
5
5
5
5
5
5
5
5
5
5
5
5
5
5
5
5
5
5
5
5
5
5
5
5
5
5
5
5
5
5
5
5
5
5
5
5
5
5
5
5
5
5
5
5
5
5
5
5
5
5
5
5
5
5
5
5
5
5
5
5
5
5
5
5
5
5
5
5
5
5
5
5
5
5
5
5
5
5
5
5
5
5
5
5
5
5
5
5
5
5
5
5
5
5
5
5
5
5
5
5
5
5
5
5
5
5
5
5
5
5
5
5
5
5
5
5
5
5
5
5
5
5
5
5
5
5
5
5
5
5
5
5
5
5
5
5
5
5
5
5
5
5
5
5
5
5
5
5
5
5
5
5
5
5
5
5
5
5
5
5
5
5
5
5
5
5
5
5
5
5
5
5
5
5
5
5
5
5
5
5
5
5
5
5
5
5
5
5
5
5
5
5
5
5
5
5
5
5
5
5
5
5
5
5
5
5
5
5
5
5
5
5
5
5
5
5
5
5
5
5
5
5
5
5
5
5
5
5
5
5
5
5
5
5
5
5
5
5
5
5
5
5
5
5
5
5
5
5
5
5
5
5
5
5
5
5
5
5
5
5
5
5
5
5
5
5
5
5
5
5
5
5
5
5
5
5
5
5
5
5
5
5
5
5
5
5
5
5
5
5
5
5
5
5
5
5
5
5
5
5
5
5
5
5
5
5
5
5
5
5
5
5
5
5
5
5
5
5
5
5
5
5
5
5
5
5
5
5
5
5
5
5
5
5
5
5
5
5
5
5
5
5
5
5
5
5
5
5
5
5
5
5
5
5
5
5
5
5
5
5
5
5
5
5
5
5
5
5
5
5
5
5
5
5
5
5
5
5
5
5
5
5
5
5
5
5
5
5
5
5
5
5
5
5
5
5
5
5
5
5
5
5
5
5
5
5
5
5
5
5
5
5
5
5
5
5
5
5
5
5
5
5
5
5
5
5
5
5
5
5
5
5
5
5
5
5
5
5
5
5
5
5
5
5
5
5
5
5
5
5
5
5
5
5
5
5
5
5
5
5
5
5
5
5
5
5
5
5
5
5
5
5
5
5
5
5
5
5
5
5
5
5
5
5
5
5
5
5
5
5
5
5
5
5
5
5
5
5
5
5
5
5
5
5
5
5
5
5
5
5
5
5
5
5
5
5
5
5
5
5
5
5
5
5
5
5
5
5
5
5
5
5
5
5
5
5
5
5
5
5
5
5
5
5
5
5
5
5
5
5
5
5
5
5
5
5
5
5
5
5
5
5
5
5
5
5
5
5
5
5
5
5
5
5
5
5
5
5
5
5
5
5
5
5
5
5
5
5
5
5
5
5
5
5
5
5
5
5
5
5
5
5
5
5
5
5
5
5
5
5
5
5
5
5
5
5
5
5
5
5
5
5
5
5
5
5
5
5
5
5
5
5
5
5
5
5
5
5
5
5
5
5
5
5
5
5
5
5
5
5
5
5
5
5
5
5
5
5
5
5
5
5
5
5
5
5
5
5
5
5
5
5
5
5
5
5
5
5
5
5
5
5
5
5
5
5
5
5
5
5
5
5
5
5
5
5
5
5
5
5
5
5
5
5
5
5
5
5
5
5
5
5
5
5
5
5
5
5
5
5
5
5
5
5
5
5
5
5
5
5
5
5
5
5
5
5
5
5
5
5
5
5
5
5
5
5
5
5
5
5
5
5
5
5
5
5
5
5
5
5
5
5
5
5
5
5
5
5
5
5
5
5
5
5
5
5
5
5
5
5
5
5
5
5
5
5
5
5
5
5
5
5
5
5
5
5
5
5
5
5
5
5
5
5
5
5
5
5
5
5
5
5
5
5
5
5
5
5
5
5
5
5
5
5
5
5
5
5
5
5
5
5
5
5
5
5
5
5
5
5
5
5
5
5
5
5
5
5
5
5
5
5
5
5
5
5
5
5
5
5
5
5
5
5
5
5
5
5
5
5
5
5
5
5
5
5
5
5
5
5
5
5
5
5
5
5
5
5
5
5
5
5
5
5
5
5
5
5
5
5
5
5
5
5
5
5
5
5
5
5
5
5
5
5
5
5
5
5
5
5
5
5
5
5
5
5
5
5
5
5
5
5
5
5
5
5
5
5
5
5
5
5
5
5
5
5
5
5
5
5
5
5
5
5
5
5
5
5
5
5
5
5
5
5
5
5
5
5
5
5
5
5
5
5
5
5
5
5
5
5
5
5
5
5
5
5
5
5
5
5
5
5
5
5
5
5
5
5
5
5
5
5
5
5
5
5
5
5
5
5
5
5
5
5
5
5
5
5
5
5
5
5
5
5
5
5
5
5
5
5
5
5
5
5
5
5
5
5
5
5
5
5
5
5
5
5
5
5
5
5
5
5
5
5
5
5
5
5
5
5
5
5
5
5
5
5
5
5
5
5
5
5
5
5
5
5
5
5
5
5
5
5
5
5
5
5
5
5
5
5
5
5
5
5
5
5
5
5
5
5
5
5
5
5
5
5
5
5
5
5
5
5
5
5
5
5
5
5
5
5
5
5
5
5
5
5
5
5
5
5
5
5
5
5
5
5
5
5
5
5
5
5
5
5
5
5
5
5
5
5
5
5
5
5
5
5
5
5
5
5
5
5
5
5
5
5
5
5
5
5
5
5
5
5
5
5
5
5
5
5
5
5
5
5
5
5
5
5
5
5
5
5
5
5
5
5
5
5
5
5
5
5
5
5
5
5
5
5
5
5
5
5
5
5
5
5
5
5
5
5
5
5
5
5
5
5
5
5
5
5
5
5
5
5
5
5
5
5
5
5
5
5
5
5
5
5
5
5
5
5
5
5
5
5
5
5
5
5
5
5
5
5
5
5
5
5
5
5
5
5
5
5
5
5
5
5
5
5
5
5
5
5
5
5
5
5
5
5
5
5
5
5
5
5
5
5
5
5
5
5
5
5
5
5
5
5
5
5
5
5
5
5
5
5
5
5
5
5
5
5
5
5
5
5
5
5
5
5
5
5
5
5
5
5
5
5
5
5
5
5
5
5
5
5
5
5
5
5
5
5
5
5
5
5
5
5
5
5
5
5
5
5
5
5
5
5
5
5
5
5
5
5
5
5
5
5
5
5
5
5
5
5
5
5
5
5
5
5
5
5
5
5
5
5
5
5
5
5
5
5
5
5
5
5
5
5
5
5
5
5
5
5
5
5
5
5
5
5
5
5
5
5
5
5
5
5
5
5
5
5
5
5
5
5
5
5
5
5
5
5
5
5
5
5
5
5
5
5
5
5
5
5
5
5
5
5
5
5
5
5
5
5
5
5
5
5
5
5
5
5
5
5
5
5
5
5
5
5
5
5
5
5
5
5
5
5
5
5
5
5
5
5
5
5
5
5
5
5
5
5
5
5
5
5
5
5
5
5
5
5
5
5
5
5
5
5
5
5
5
5
5
5
5
5
5
5
5
5
5
5
5
5
5
5
5
5
5
5
5
5
5
5
5
5
5
5
5
5
5
5
5
5
5
5
5
5
5
5
5
5
5
5
5
5
5
5
5
5
5
5
5
5
5
5
5
5
5
5
5
5
5
5
5
5
5
5
5
5
5
5
5
5
5
5
5
5
5
5
5
5
5
5
5
5
5
5
5
5
5
5
5
5
5
5
5
5
5
5
5
5
5
5
5
5
5
5
5
5
5
5
5
5
5
5
5
5
5
5
5
5
5
5
5
5
5
5
5
5
5
5
5
5
5
5
5
5
5
5
5
5
5
5
5
5
5
5
5
5
5
5
5
5
5
5
5
5
5
5
5
5
5
5
5
5
5
5
5
5
5
5
5
5
5
5
5
5
5
5
5
5
5
5
5
5
5
5
5
5
5
5
5
5
5
5
5
5
5
5
5
5
5
5
5
5
5
5
5
5
5
5
5
5
5
5
5
5
5
5
5
5
5
5
5
5
5
5
5
5
5
5
5
5
5
5
5
5
5
5
5
5
5
5
5
5
5
5
5
5
5
5
5
5
5
5
5
5
5
5
5
5
5
5
5
5
5
5
5
5
5
5
5
5
5
5
5
5
5
5
5
5
5
5
5
5
5
5
5
5
5
5
5
5
5
5
5
5
5
5
5
5
5
5
5
5
5
5
5
5
5
5
5
5
5
5
5
5
5
5
5
5
5
5
5
5
5
5
5
5
5
5
5
5
5
5
5
5
5
5
5
5
5
5
5
5
5
5
5
5
5
5
5
5
5
5
5
5
5
5
5
5
5
5
5
5
5
5
5
5
5
5
5
5
5
5
5
5
5
5
5
5
5
5
5
5
5
5
5
5
5
5
5
5
5
5
5
5
5
5
5
5
5
5
5
5
5
5
5
5
5
5
5
5
5
5
5
5
5
5
5
5
5
5
5
5
5
5
5
5
5
5
5
5
5
5
5
5
5
5
5
5
5
5
5
5
5
5
5
5
5
5
5
5
5
5
5
5
5
5
5
5
5
5
5
5
5
5
5
5
5
5
5
5
5
5
5
5
5
5
5
5
5
5
5
5
5
5
5
5
5
5
5
5
5
5
5
5
5
5
5
5
5
5
5
5
5
5
5
5
5
5
5
5
5
5
5
5
5
5
5
5
5
5
5
5
5
5
5
5
5
5
5
5
5
5
5
5
5
5
5
5
5
5
5
5
5
5
5
5
5
5
5
5
5
5
5
5
5
5
5
5
5
5
5
5
5
5
5
5
5
5
5
5
5
5
5
5
5
5
5
5
5
5
5
5
5
5
5
5
5
5
5
5
5
5
5
5
5
5
5
5
5
5
5
5
5
5
5
5
5
5
5
5
5
5
5
5
5
5
5
5
5
5
5
5
5
5
5
5
5
5
5
5
5
5
5
5
5
5
5
5
5
5
5
5
5
5
5
5
5
5
5
5
5
5
5
5
5
5
5
5
5
5
5
5
5
5
5
5
5
5
5
5
5
5
5
5
5
5
5
5
5
5
5
5
5
5
5
5
5
5
5
5
5
5
5
5
5
5
5
5
5
5
5
5
5
5
5
5
5
5
5
5
5
5
5
5
5
5
5
5
5
5
5
5
5
5
5
5
5
5
5
5
5
5
5
5
5
5
5
5
5
5
5
5
5
5
5
5
5
5
5
5
5
5
5
5
5
5
5
5
5
5
5
5
5
5
5
5
5
5
5
5
5
5
5
5
5
5
5
5
5
5
5
5
5
5
5
5
5
5
5
5
5
5
5
5
5
5
5
5
5
5
5
5
5
5
5
5
5
5
5
5
5
5
5
5
5
5
5
5
5
5
5
5
5
5
5
5
5
5
5
5
5
5
5
5
5
5
5
5
5
5
5
5
5
5
5
5
5
5
5
5
5
5
5
5
5
5
5
5
5
5
5
5
5
5
5
5
5
5
5
5
5
5
5
5
5
5
5
5
5
5
5
5
5
5
5
5
5
5
5
5
5
5
5
5
5
5
5
5
5
5
5
5
5
5
5
5
5
5
5
5
5
5
5
5
5
5
5
5
5
5
5
5
5
5
5
5
5
5
5
5
5
5
5
5
5
5
5
5
5
5
5
5
5
5
5
5
5
5
5
5
5
5
5
5
5
5
5
5
5
5
5
5
5
5
5
5
5
5
5
5
5
5
5
5
5
5
5
5
5
5
5
5
5
5
5
5
5
5
5
5
5
5
5
5
5
5
5
5
5
5
5
5
5
5
5
5
5
5
5
5
5
5
5
5
5
5
5
5
5
5
5
5
5
5
5
5
5
5
5
5
5
5
5
5
5
5
5
5
5
5
5
5
5
5
5
5
5
5
5
5
5
5
5
5
5
5
5
5
5
5
5
5
5
5
5
5
5
5
5
5
5
5
5
5
5
5
5
5
5
5
5
5
5
5
5
5
5
5
5
5
5
5
5
5
5
5
5
5
5
5
5
5
5
5
5
5
5
5
5
5
5
5
5
5
5
5
5
5
5
5
5
5
5
5
5
5
5
5
5
5
5
5
5
5
5
5
5
5
5
5
5
5
5
5
5
5
5
5
5
5
5
5
5
5
5
5
5
5
5
5
5
5
5
5
5
5
5
5
5
5
5
5
5
5
5
5
5
5
5
5
5
5
5
5
5
5
5
5
5
5
5
5
5
5
5
5
5
5
5
5
5
5
5
5
5
5
5
5
5
5
5
5
5
5
5
5
5
5
5
5
5
5
5
5
5
5
5
5
5
5
5
5
5
5
5
5
5
5
5
5
5
5
5
5
5
5
5
5
5
5
5
5
5
5
5
5
5
5
5
5
5
5
5
5
5
5
5
5
5
5
5
5
5
5
5
5
5
5
5
5
5
5
5
5
5
5
5
5
5
5
5
5
5
5
5
5
5
5
5
5
5
5
5
5
5
5
5
5
5
5
5
5
5
5
5
5
5
5
5
5
5
5
5
5
5
5
5
5
5
5
5
5
5
5
5
5
5
5
5
5
5
5
5
5
5
5
5
5
5
5
5
5
5
5
5
5
5
5
5
5
5
5
5
5
5
5
5
5
5
5
5
5
5
5
5
5
5
5
5
5
5
5
5
5
5
5
5
5
5
5
5
5
5
5
5
5
5
5
5
5
5
5
5
5
5
5
5
5
5
5
5
5
5
5
5
5
5
5
5
5
5
5
5
5
5
5
5
5
5
5
5
5
5
5
5
5
5
5
5
5
5
5
5
5
5
5
5
5
5
5
5
5
5
5
5
5
5
5
5
5
5
5
5
5
5
5
5
5
5
5
5
5
5
5
5
5
5
5
5
5
5
5
5
5
5
5
5
5
5
5
5
5
5
5
5
5
5
5
5
5
5
5
5
5
5
5
5
5
5
5
5
5
5
5
5
5
5
5
5
5
5
5
5
5
5
5
5
5
5
5
5
5
5
5
5
5
5
5
5
5
5
5
5
5
5
5
5
5
5
5
5
5
5
5
5
5
5
5
5
5
5
5
5
5
5
5
5
5
5
5
5
5
5
5
5
5
5
5
5
5
5
5
5
5
5
5
5
5
5
5
5
5
5
5
5
5
5
5
5
5
5
5
5
5
5
5
5
5
5
5
5
5
5
5
5
5
5
5
5
5
5
5
5
5
5
5
5
5
5
5
5
5
5
5
5
5
5
5
5
5
5
5
5
5
5
5
5
5
5
5
5
5
5
5
5
5
5
5
5
5
5
5
5
5
5
5
5
5
5
5
5
5
5
5
5
5
5
5
5
5
5
5
5
5
5
5
5
5
5
5
5
5
5
5
5
5
5
5
5
5
5
5
5
5
5
5
5
5
5
5
5
5
5
5
5
5
5
5
5
5
5
5
5
5
5
5
5
5
5
5
5
5
5
5
5
5
5
5
5
5
5
5
5
5
5
5
5
5
5
5
5
5
5
5
5
5
5
5
5
5
5
5
5
5
5
5
5
5
5
5
5
5
5
5
5
5
5
5
5
5
5
5
5
5
5
5
5
5
5
5
5
5
5
5
5
5
5
5
5
5
5
5
5
5
5
5
5
5
5
5
5
5
5
5
5
5
5
5
5
5
5
5
5
5
5
5
5
5
5
5
5
5
5
5
5
5
5
5
5
5
5
5
5
5
5
5
5
5
5
5
5
5
5
5
5
5
5
5
5
5
5
5
5
5
5
5
5
5
5
5
5
5
5
5
5
5
5
5
5
5
5
5
5
5
5
5
5
5
5
5
5
5
5
5
5
5
5
5
5
5
5
5
5
5
5
5
5
5
5
5
5
5
5
5
5
5
5
5
5
5
5
5
5
5
5
5
5
5
5
5
5
5
5
5
5
5
5
5
5
5
5
5
5
5
5
5
5
5
5
5
5
5
5
5
5
5
5
5
5
5
5
5
5
5
5
5
5
5
5
5
5
5
5
5
5
5
5
5
5
5
5
5
5
5
5
5
5
5
5
5
5
5
5
5
5
5
5
5
5
5
5
5
5
5
5
5
5
5
5
5
5
5
5
5
5
5
5
5
5
5
5
5
5
5
5
5
5
5
5
5
5
5
5
5
5
5
5
5
5
5
5
5
5
5
5
5
5
5
5
5
5
5
5
5
5
5
5
5
5
5
5
5
5
5
5
5
5
5
5
5
5
5
5
5
5
5
5
5
5
5
5
5
5
5
5
5
5
5
5
5
5
5
5
5
5
5
5
5
5
5
5
5
5
5
5
5
5
5
5
5
5
5
5
5
5
5
5
5
5
5
5
5
5
5
5
5
5
5
5
5
5
5
5
5
5
5
5
5
5
5
5
5
5
5
5
5
5
5
5
5
5
5
5
5
5
5
5
5
5
5
5
5
5
5
5
5
5
5
5
5
5
5
5
5
5
5
5
5
5
5
5
5
5
5
5
5
5
5
5
5
5
5
5
5
5
5
5
5
5
5
5
5
5
5
5
5
5
5
5
5
5
5
5
5
5
5
5
5
5
5
5
5
5
5
5
5
5
5
5
5
5
5
5
5
5
5
5
5
5
5
5
5
5
5
5
5
5
5
5
5
5
5
5
5
5
5
5
5
5
5
5
5
5
5
5
5
5
5
5
5
5
5
5
5
5
5
5
5
5
5
5
5
5
5
5
5
5
5
5
5
5
5
5
5
5
5
5
5
5
5
5
5
5
5
5
5
5
5
5
5
5
5
5
5
5
5
5
5
5
5
5
5
5
5
5
5
5
5
5
5
5
5
5
5
5
5
5
5
5
5
5
5
5
5
5
5
5
5
5
5
5
5
5
5
5
5
5
5
5
5
5
5
5
5
5
5
5
5
5
5
5
5
5
5
5
5
5
5
5
5
5
5
5
5
5
5
5
5
5
5
5
5
5
5
5
5
5
5
5
5
5
5
5
5
5
5
5
5
5
5
5
5
5
5
5
5
5
5
5
5
5
5
5
5
5
5
5
5
5
5
5
5
5
5
5
5
5
5
5
5
5
5
5
5
5
5
5
5
5
5
5
5
5
5
5
5
5
5
5
5
5
5
5
5
5
5
5
5
5
5
5
5
5
5
5
5
5
5
5
5
5
5
5
5
5
5
5
5
5
5
5
5
5
5
5
5
5
5
5
5
5
5
5
5
5
5
5
5
5
5
5
5
5
5
5
5
5
5
5
5
5
5
5
5
5
5
5
5
5
5
5
5
5
5
5
5
5
5
5
5
5
5
5
5
5
5
5
5
5
5
5
5
5
5
5
5
5
5
5
5
5
5
5
5
5
5
5
5
5
5
5
5
5
5
5
5
5
5
5
5
5
5
5
5
5
5
5
5
5
5
5
5
5
5
5
5
5
5
5
5
5
5
5
5
5
5
5
5
5
5
5
5
5
5
5
5
5
5
5
5
5
5
5
5
5
5
5
5
5
5
5
5
5
5
5
5
5
5
5
5
5
5
5
5
5
5
5
5
5
5
5
5
5
5
5
5
5
5
5
5
5
5
5
5
5
5
5
5
5
5
5
5
5
5
5
5
5
5
5
5
5
5
5
5
5
5
5
5
5
5
5
5
5
5
5
5
5
5
5
5
5
5
5
5
5
5
5
5
5
5
5
5
5
5
5
5
5
5
5
5
5
5
5
5
5
5
5
5
5
5
5
5
5
5
5
5
5
5
5
5
5
5
5
5
5
5
5
5
5
5
5
5
5
5
5
5
5
5
5
5
5
5
5
5
5
5
5
5
5
5
5
5
5
5
5
5
5
5
5
5
5
5
5
5
5
5
5
5
5
5
5
5
5
5
5
5
5
5
5
5
5
5
5
5
5
5
5
5
5
5
5
5
5
5
5
5
5
5
5
5
5
5
5
5
5
5
5
5
5
5
5
5
5
5
5
5
5
5
5
5
5
5
5
5
5
5
5
5
5
5
5
5
5
5
5
5
5
5
5
5
5
5
5
5
5
5
5
5
5
5
5
5
5
5
5
5
5
5
5
5
5
5
5
5
5
5
5
5
5
5
5
5
5
5
5
5
5
5
5
5
5
5
5
5
5
5
5
5
5
5
5
5
5
5
5
5
5
5
5
5
5
5
5
5
5
5
5
5
5
5
5
5
5
5
5
5
5
5
5
5
5
5
5
5
5
5
5
5
5
5
5
5
5
5
5
5
5
5
5
5
5
5
5
5
5
5
5
5
5
5
5
5
5
5
5
5
5
5
5
5
5
5
5
5
5
5
5
5
5
5
5
5
5
5
5
5
5
5
5
5
5
5
5
5
5
5
5
5
5
5
5
5
5
5
5
5
5
5
5
5
5
5
5
5
5
5
5
5
5
5
5
5
5
5
5
5
5
5
5
5
5
5
5
5
5
5
5
5
5
5
5
5
5
5
5
5
5
5
5
5
5
5
5
POINT_DATA 2538
VECTORS disp float
3.96517048192463e-13 1.1708384171649598e-12 0.0
8.976341318025873e-13 -2.453685906889064e-12 0.0
9.99999996014873e-5 1.1730013673487259e-12 0.0
9.999999910995837e-5 -2.446970971919684e-12 0.0
2.886122521473459e-5 1.1893933114929496e-5 0.0
7.116861371039632e-5 1.1872202869111381e-5 0.0
4.998584292080264e-5 3.7563224721436552e-6 0.0
1.2515308002104674e-13 1.9633367273290055e-13 0.0
2.301965520666792e-13 2.946675942877393e-13 0.0
2.278269920545613e-13 1.9111135989345116e-13 0.0
2.341592654233725e-13 1.8330624475890168e-13 0.0
2.3019208562826884e-13 1.4995943825027226e-13 0.0
2.2377842017874683e-13 1.2124058965579068e-13 0.0
2.1763242295796094e-13 8.433981784429124e-14 0.0
2.1251347184522708e-13 4.182439061172972e-14 0.0
1.9463280414789764e-13 -6.490852288651931e-15 0.0
2.0242126476254608e-13 -5.1861743494157334e-14 0.0
1.9216869144236426e-13 -1.0085069204476134e-13 0.0
1.8686250755479533e-13 -1.5290236361571689e-13 0.0
1.8501027949920311e-13 -2.0345071182683156e-13 0.0
1.7720680593890326e-13 -2.5306138888879427e-13 0.0
1.7877146060685842e-13 -3.1019212104945994e-13 0.0
1.7295811479583012e-13 -3.6142173754120755e-13 0.0
1.761510974418018e-13 -4.167088460403928e-13 0.0
1.7305027223095233e-13 -4.808407407356463e-13 0.0
1.7470190854816358e-13 -5.385197496827084e-13 0.0
1.7666405393248796e-13 -6.043813459646596e-13 0.0
1.812402388298649e-13 -6.764091861572102e-13 0.0
1.9437612538944587e-13 -7.586385954991235e-13 0.0
1.9122232625045023e-13 -8.452896127230493e-13 0.0
2.5741918312824703e-13 -1.032204211214204e-12 0.0
1.0043931896611538e-13 -9.530661118879502e-13 0.0
1.2039775886749955e-6 -1.7053064098251031e-6 0.0
2.061645414261122e-6 -2.9693088885336504e-6 0.0
2.8911920663201176e-6 -4.083337542171828e-6 0.0
3.6870062738747815e-6 -5.104901506588767e-6 0.0
4.460995505134678e-6 -6.06061878229138e-6 0.0
5.2304088862581995e-6 -6.9707420745717015e-6 0.0
6.007947110085132e-6 -7.839158247725288e-6 0.0
6.786237848811988e-6 -8.671454798396272e-6 0.0
7.572131295388324e-6 -9.473736830185125e-6 0.0
8.367046103204863e-6 -1.0246259591231296e-5 0.0
9.171785113333338e-6 -1.099457808986462e-5 0.0
9.991608591406808e-6 -1.1719458036660364e-5 0.0
1.0820139430978825e-5 -1.242046190014316e-5 0.0
1.166206003924572e-5 -1.3102229109930415e-5 0.0
1.2521732785716757e-5 -1.376467997297617e-5 0.0
1.3389736418929277e-5 -1.4406029047811534e-5 0.0
1.4272050912923115e-5 -1.5029514872144732e-5 0.0
1.5167914261405968e-5 -1.5632796368111787e-5 0.0
1.6077003761706487e-5 -1.6218727572250328e-5 0.0
1.6999772225962698e-5 -1.6787479926760775e-5 0.0
1.7937214563118708e-5 -1.733910027429401e-5 0.0
1.8886856402694805e-5 -1.7872675145708126e-5 0.0
1.9853973808007035e-5 -1.8391637201701557e-5 0.0
2.0830305870607602e-5 -1.8891549649576497e-5 0.0
2.1825058793271204e-5 -1.9376075814880492e-5 0.0
2.2828046815133976e-5 -1.9841979385974286e-5 0.0
2.3845433571568042e-5 -2.0292322342613473e-5 0.0
2.4874437489002337e-5 -2.0723272339972278e-5 0.0
2.5919451694285596e-5 -2.1139753977708774e-5 0.0
2.6972403128322945e-5 -2.1537517106946415e-5 0.0
2.804090458262897e-5 -2.1919296421412818e-5 0.0
2.9119558073661688e-5 -2.2282183729391528e-5 0.0
3.0210480297795785e-5 -2.2627725365498303e-5 0.0
3.131109020613798e-5 -2.2954479008778142e-5 0.0
3.242587959962332e-5 -2.3264957285247694e-5 0.0
3.354718326466623e-5 -2.3555646836097553e-5 0.0
3.4679553385730006e-5 -2.3827997431060272e-5 0.0
3.582087077906204e-5 -2.408041845885465e-5 0.0
3.697148701722123e-5 -2.431370098417251e-5 0.0
3.8129770401650725e-5 -2.4528254243988455e-5 0.0
3.929487893022723e-5 -2.4722322060215188e-5 0.0
4.046727834230791e-5 -2.4897450779605825e-5 0.0
4.164634552703571e-5 -2.5052196847196993e-5 0.0
4.282980389813289e-5 -2.5187210027427888e-5 0.0
4.401842774457773e-5 -2.5300657475169097e-5 0.0
4.5209569394921106e-5 -2.5394182455964573e-5 0.0
4.64046926470354e-5 -2.5467369801260813e-5 0.0
4.7602386409960306e-5 -2.55191497308609e-5 0.0
4.880160972796531e-5 -2.555058780342565e-5 0.0
5.000274919791412e-5 -2.5560365985189246e-5 0.0
5.120133706902373e-5 -2.5549337696424794e-5 0.0
5.240346933137431e-5 -2.5518319484444283e-5 0.0
5.3598931590436124e-5 -2.5466126429103223e-5 0.0
5.479699153830004e-5 -2.539313798529925e-5 0.0
5.598655219446004e-5 -2.5299849624048494e-5 0.0
5.717784653630831e-5 -2.5185643405429372e-5 0.0
5.8360774198171565e-5 -2.505176388189964e-5 0.0
5.953877916403796e-5 -2.489706271029724e-5 0.0
6.071083384693397e-5 -2.4722971546942755e-5 0.0
6.187709639721877e-5 -2.4527706091678935e-5 0.0
6.303421412884595e-5 -2.4313343841849608e-5 0.0
6.418384973072069e-5 -2.407941076765027e-5 0.0
6.532500750667164e-5 -2.3827142474909038e-5 0.0
6.645705459340651e-5 -2.3554627397083435e-5 0.0
6.758096881889643e-5 -2.3261775245716594e-5 0.0
6.86946649122371e-5 -2.295436781662231e-5 0.0
6.979517558775211e-5 -2.2626872536039653e-5 0.0
7.088403441019467e-5 -2.228203694503875e-5 0.0
7.196337468676809e-5 -2.191848634630892e-5 0.0
7.303201299608126e-5 -2.153669551319805e-5 0.0
7.408592289787823e-5 -2.113931530224915e-5 0.0
7.513199206903564e-5 -2.072325556063068e-5 0.0
7.616158919260426e-5 -2.0290480738103026e-5 0.0
7.71782296885306e-5 -1.984141049160355e-5 0.0
7.818458090268619e-5 -1.9373492791583126e-5 0.0
7.917363969689498e-5 -1.8890578543059556e-5 0.0
8.015163766726007e-5 -1.839031767356552e-5 0.0
8.111503906484791e-5 -1.787343555504472e-5 0.0
8.20660102944571e-5 -1.733983683025965e-5 0.0
8.300327643101404e-5 -1.6786955512934575e-5 0.0
8.392840936986604e-5 -1.621618030366203e-5 0.0
8.483579112250791e-5 -1.5630618155587052e-5 0.0
8.573143818850676e-5 -1.5026675327033195e-5 0.0
8.661478590874271e-5 -1.4404148506636775e-5 0.0
8.748301263061096e-5 -1.3762782222872748e-5 0.0
8.83383984227338e-5 -1.3102802350995467e-5 0.0
8.918307152621678e-5 -1.2421076577759592e-5 0.0
9.001196409422638e-5 -1.17181218529354e-5 0.0
9.082705175075154e-5 -1.0994490277562343e-5 0.0
9.163463441847164e-5 -1.0247160225205737e-5 0.0
9.243387714626486e-5 -9.473126951586271e-6 0.0
9.322018415218435e-5 -8.670671352720519e-6 0.0
9.399504412522525e-5 -7.8379757174438e-6 0.0
9.476663905331338e-5 -6.9713174448011354e-6 0.0
9.554506800896976e-5 -6.062735032436385e-6 0.0
9.631990836966413e-5 -5.1060604753301014e-6 0.0
9.7102177860564e-5 -4.082362654091522e-6 0.0
9.793758549160402e-5 -2.9666736152005257e-6 0.0
9.88049613178769e-5 -1.7012741600645e-6 0.0
9.999999989723569e-5 -9.467913628456404e-13 0.0
9.999999973872502e-5 -1.050916444767416e-12 0.0
9.999999981170214e-5 -8.304677874505641e-13 0.0
9.999999980657338e-5 -7.628069891736703e-13 0.0
9.999999981640675e-5 -6.782405867433923e-13 0.0
9.999999982420875e-5 -6.035840990043823e-13 0.0
9.999999982442542e-5 -5.382504535081176e-13 0.0
9.999999982872844e-5 -4.782574821519408e-13 0.0
9.99999998258867e-5 -4.1869011525948035e-13 0.0
9.999999982299825e-5 -3.6021413847936594e-13 0.0
9.99999998295317e-5 -3.1309028324748577e-13 0.0
9.999999981617031e-5 -2.5009792210763407e-13 0.0
9.999999981659347e-5 -2.0431029242537638e-13 0.0
9.999999981223234e-5 -1.5179854487860612e-13 0.0
9.999999980765553e-5 -1.0215548034359775e-13 0.0
9.99999998024559e-5 -5.23677321491319e-14 0.0
9.999999980010996e-5 -5.7971296349343365e-15 0.0
9.999999978362423e-5 4.4150720499800405e-14 0.0
9.999999979414315e-5 8.071357113825303e-14 0.0
9.999999977015356e-5 1.2440411277114097e-13 0.0
9.999999977120139e-5 1.5122982843287548e-13 0.0
9.999999976273285e-5 1.7914665805501466e-13 0.0
9.999999977486937e-5 1.9313829297208767e-13 0.0
9.99999997666067e-5 2.9084725706028293e-13 0.0
9.999999987733673e-5 1.9801705223575314e-13 0.0
9.271444583476599e-5 6.889217979748624e-6 0.0
8.611128062647349e-5 1.0196280078723357e-5 0.0
8.00276163552997e-5 1.1679074535792368e-5 0.0
7.504946606301904e-5 1.1963517831485608e-5 0.0
7.125516852187947e-5 8.55137372147976e-6 0.0
7.123321008676125e-5 6.4603246439158005e-6 0.0
7.080088721795934e-5 5.262214826387698e-6 0.0
6.99822393209398e-5 4.660763009930982e-6 0.0
6.880368823830642e-5 4.423626076345947e-6 0.0
6.735494260343882e-5 4.374854589162092e-6 0.0
6.569808642616139e-5 4.406536734527855e-6 0.0
6.38886388862133e-5 4.518809416653925e-6 0.0
6.190573322555687e-5 4.627372933538605e-6 0.0
5.973192326131783e-5 4.704792978017584e-6 0.0
5.724844879880701e-5 4.705261055611357e-6 0.0
5.418364590464776e-5 4.557829469936056e-6 0.0
4.573972514383434e-5 4.559812675235216e-6 0.0
4.2759373930858745e-5 4.709809214722748e-6 0.0
4.029178339587891e-5 4.673049237059714e-6 0.0
3.812403684513151e-5 4.597663941342276e-6 0.0
3.6137959584436985e-5 4.513660376335893e-6 0.0
3.431482938477097e-5 4.437235466990799e-6 0.0
3.265053802056567e-5 4.3954300328964e-6 0.0
3.1197766781071166e-5 4.429739709373483e-6 0.0
3.0020799613784234e-5 4.668699620139153e-6 0.0
2.9190739705209076e-5 5.23893988438259e-6 0.0
2.880094085439946e-5 6.416226885948026e-6 0.0
2.8766484260773133e-5 8.58785366608977e-6 0.0
2.497049789052512e-5 1.1988717198644602e-5 0.0
2.000557690948923e-5 1.1695804031130804e-5 0.0
1.389670349351016e-5 1.0206127012587829e-5 0.0
7.269164513808138e-6 6.8984447631645266e-6 0.0
2.617261442297047e-5 -2.02286949307424e-5 0.0
7.377692657783561e-5 -2.0332055389366743e-5 0.0
3.392925425121865e-5 -2.2700837988530488e-5 0.0
6.600698853240293e-5 -2.2816759673504254e-5 0.0
4.2253838956361715e-5 -2.4169142026929102e-5 0.0
5.7657783734358865e-5 -2.4089680675074864e-5 0.0
4.940720178406402e-5 -2.4546231634789757e-5 0.0
7.995809465414544e-5 -1.773256501863008e-5 0.0
2.0224992546241687e-5 -1.7789642797474816e-5 0.0
8.44412719141386e-5 -1.5150372182232576e-5 0.0
1.547049990720714e-5 -1.5156226089946573e-5 0.0
1.5747001491911043e-6 -3.353686387556026e-7 0.0
9.841169365182399e-5 -3.358587830266568e-7 0.0
5.5048676750355976e-5 4.87646850128285e-6 0.0
6.324441624705774e-5 4.996967356974797e-6 0.0
4.505287779058289e-5 4.857366191029652e-6 0.0
3.676608625191414e-5 5.009646685352479e-6 0.0
8.893190008531976e-5 -1.2076105745682253e-5 0.0
1.1235610360790113e-5 -1.2240703163012601e-5 0.0
1.0295506058812877e-6 -6.260390086929364e-7 0.0
9.897178257553116e-5 -6.259006563243204e-7 0.0
9.765580303019559e-5 8.223147051457482e-8 0.0
2.161727293849703e-6 1.0034084567802037e-7 0.0
9.223443246903815e-5 -9.196073316668344e-6 0.0
7.81384640173767e-6 -9.21366658495617e-6 0.0
6.857153947770127e-5 4.748996503754662e-6 0.0
3.150359424522237e-5 4.737325440322328e-6 0.0
7.443247221410467e-7 -6.927609838000259e-7 0.0
9.921526195712012e-5 -7.341512388666711e-7 0.0
3.873158389290943e-5 -2.3652081883858577e-5 0.0
4.579040726166678e-5 -2.4454371908181135e-5 0.0
6.250785535423825e-5 -2.350093723676232e-5 0.0
5.310601392729815e-5 -2.439809509154135e-5 0.0
6.939240855952352e-5 -2.1879967288879814e-5 0.0
7.672030036518036e-5 -1.9252895135985288e-5 0.0
3.082113806354712e-5 -2.186238816508882e-5 0.0
2.3193820741657447e-5 -1.920339911501182e-5 0.0
9.450331070057128e-5 -6.890215418951043e-6 0.0
5.405224575535109e-6 -6.7966917507728435e-6 0.0
9.699993103927107e-5 6.238198429006553e-7 0.0
2.689718636761514e-6 5.558787470288341e-7 0.0
9.934182253355996e-5 -8.016931696392328e-7 0.0
6.89162456117277e-7 -8.364954977451017e-7 0.0
7.133354579559302e-5 5.11022141278262e-6 0.0
2.8774406408427127e-5 5.105724425593317e-6 0.0
9.582881478656444e-5 1.133052794675837e-6 0.0
3.6621775233460423e-6 1.0192776945298821e-6 0.0
1.283538261989642e-6 -5.132611454010287e-7 0.0
9.86981796462458e-5 -5.184789221556707e-7 0.0
5.9180176713732046e-5 5.2078113870529915e-6 0.0
4.08304900878006e-5 5.206785327873068e-6 0.0
2.980271849432275e-6 -3.91058233267722e-6 0.0
9.704303361471004e-5 -3.899358975428895e-6 0.0
7.152060634007036e-5 -2.1269341584633347e-5 0.0
5.5394791898302526e-5 -2.432125777875347e-5 0.0
3.647205057635135e-5 -2.3228000012469293e-5 0.0
2.8433886964114494e-5 -2.1182318805617906e-5 0.0
6.0169784485247934e-5 -2.3814547113731757e-5 0.0
8.172917908788083e-5 -1.679960027231059e-5 0.0
1.8306350794349217e-5 -1.6764451495806488e-5 0.0
8.633474385175035e-5 -1.3969306616464265e-5 0.0
1.3576109382193316e-5 -1.3880595889371439e-5 0.0
9.41866121791038e-6 -1.0696249001224368e-5 0.0
9.06070931347144e-5 -1.067181005264324e-5 0.0
1.7499745662306724e-5 7.212043738000494e-6 0.0
8.29043857390307e-5 7.367668135187754e-6 0.0
9.935142143439875e-5 -8.679646546298229e-7 0.0
6.136890845649735e-7 -8.337071538640096e-7 0.0
2.7016874604651885e-5 7.143119609779645e-6 0.0
7.292130483775121e-5 7.272573809061819e-6 0.0
3.993467886014007e-6 1.7976336256439376e-6 0.0
9.578336499666968e-5 1.8492804851658671e-6 0.0
1.3002325831396495e-6 -1.7479306563648305e-6 0.0
9.865261217184028e-5 -1.8086376089989532e-6 0.0
7.759852589767581e-5 8.843636302346172e-6 0.0
7.95935522102841e-5 6.2130696154244595e-6 0.0
8.564345752894983e-5 4.731284531415919e-6 0.0
8.232477256856748e-5 4.646718404584771e-6 0.0
7.782193985144767e-5 5.307872667959982e-6 0.0
7.957029241267774e-5 4.6623564451878904e-6 0.0
8.392083841673827e-5 3.920649536337197e-6 0.0
8.126008700654676e-5 4.171732807114978e-6 0.0
8.538456019249965e-5 3.3974846141586327e-6 0.0
8.288473655490927e-5 3.6771886341392838e-6 0.0
7.906908672568997e-5 4.3376983463022626e-6 0.0
8.052041739380707e-5 3.84682424760646e-6 0.0
7.725491276132218e-5 4.380970044600719e-6 0.0
7.840185527806478e-5 3.851082458247631e-6 0.0
7.543124049104341e-5 4.309006567869771e-6 0.0
7.644602547000317e-5 3.6625391235500173e-6 0.0
5.365563394895919e-5 3.2898743208632033e-6 0.0
4.9956583365264163e-5 2.6264003062832987e-6 0.0
5.288654442417973e-5 2.337307715014132e-6 0.0
4.990535378579236e-5 1.8842879891011337e-6 0.0
5.241950288728277e-5 1.6462580356899187e-6 0.0
4.9881762775873753e-5 1.3107545398039128e-6 0.0
5.210877747192453e-5 1.0821995191698153e-6 0.0
4.984118914450335e-5 7.985364558401643e-7 0.0
5.187659842811455e-5 5.871065601342645e-7 0.0
4.98000761645829e-5 3.365680274014053e-7 0.0
5.169679958194027e-5 1.4185900444338682e-7 0.0
4.976616366053886e-5 -8.615089434544725e-8 0.0
5.1556611114646096e-5 -2.824643439538415e-7 0.0
4.978643452212975e-5 -4.902023284075652e-7 0.0
5.14449086286117e-5 -6.828212805780377e-7 0.0
4.975910263177334e-5 -8.810608960195155e-7 0.0
5.134442038723404e-5 -1.068259795724619e-6 0.0
4.968053153562679e-5 -1.2598373839466931e-6 0.0
5.1248335800124857e-5 -1.444286026461994e-6 0.0
4.9643133956368234e-5 -1.6285780519293235e-6 0.0
5.116863270445631e-5 -1.8146238218705426e-6 0.0
4.961372732571138e-5 -1.9940158315064887e-6 0.0
5.104882545092509e-5 -2.179594764632892e-6 0.0
4.957684454286152e-5 -2.3593602817050055e-6 0.0
5.097685584798398e-5 -2.546212430871479e-6 0.0
4.956943187265687e-5 -2.7170745417118466e-6 0.0
5.0916031814465225e-5 -2.9137130317164176e-6 0.0
4.946927224924515e-5 -3.0624545582826155e-6 0.0
5.0843182214515206e-5 -3.2828096123218817e-6 0.0
4.910408278728966e-5 -3.4364731267077377e-6 0.0
5.086614096669547e-5 -3.6633168056240786e-6 0.0
4.94072720328834e-5 -3.840865150018647e-6 0.0
5.080422313419916e-5 -4.045602616175499e-6 0.0
4.943141352071576e-5 -4.23422856101778e-6 0.0
5.0767296443754706e-5 -4.439845365986697e-6 0.0
4.949502494894632e-5 -4.6319673625669105e-6 0.0
5.072657834601726e-5 -4.841063224510514e-6 0.0
4.9493819332164874e-5 -5.044920021162608e-6 0.0
4.788693585612375e-5 5.952711628495919e-7 0.0
5.068695944585334e-5 -5.2547722422063e-6 0.0
4.806364687529127e-5 -1.4176341994365765e-6 0.0
4.7808572521766764e-5 -3.7337745770691727e-6 0.0
4.939332445950529e-5 -5.464071329932243e-6 0.0
5.063967945581553e-5 -5.681084510079247e-6 0.0
4.9297178004072574e-5 -5.9115173159152025e-6 0.0
4.806601565656611e-5 -5.652038850161123e-6 0.0
4.794257735783872e-5 -6.1229223978804985e-6 0.0
5.0544674001091344e-5 -6.146832893327237e-6 0.0
5.1899125441873176e-5 -5.89884690743042e-6 0.0
5.212405144112524e-5 -3.8409998184695495e-6 0.0
5.1809279635921255e-5 -6.379036168621744e-6 0.0
5.323991532536698e-5 -6.0836589984530995e-6 0.0
5.310129082274771e-5 -6.6092816637424935e-6 0.0
4.672067090713203e-5 -5.849644457410925e-6 0.0
4.664958171294e-5 -6.313672720567536e-6 0.0
5.456935679435142e-5 -6.286831885485982e-6 0.0
4.534727772142408e-5 -6.024089499939045e-6 0.0
4.535937860308357e-5 -6.513664654957107e-6 0.0
5.445254115943461e-5 -6.819944107622646e-6 0.0
5.586755964110618e-5 -6.521428191547983e-6 0.0
4.396573388249457e-5 -6.2030873321855105e-6 0.0
4.3948680247914895e-5 -6.710561111548318e-6 0.0
5.5779525247179845e-5 -7.053075658496329e-6 0.0
5.722633139465559e-5 -6.736201552014557e-6 0.0
4.25907577442708e-5 -6.383990665534052e-6 0.0
4.2564719711300804e-5 -6.925622784136201e-6 0.0
5.71334752668734e-5 -7.297607215248917e-6 0.0
5.861049317655603e-5 -6.949299326583595e-6 0.0
4.122477499488875e-5 -6.53936449307535e-6 0.0
4.110878840889942e-5 -7.1021461732611596e-6 0.0
5.853504123437922e-5 -7.527611674907537e-6 0.0
6.001168293267658e-5 -7.159819940253775e-6 0.0
3.9722056868077586e-5 -6.698185868761814e-6 0.0
3.9643551126471594e-5 -7.298899211826849e-6 0.0
3.81787092965303e-5 -6.898446659069679e-6 0.0
3.824390191572986e-5 -6.262193494344204e-6 0.0
5.6923253213960145e-5 -7.854972764454376e-6 0.0
5.992934530645045e-5 -7.763702391217632e-6 0.0
6.14275563561535e-5 -7.369641203940918e-6 0.0
6.153707542713743e-5 -6.751607342339846e-6 0.0
5.249668102214964e-5 -2.0085446261033476e-6 0.0
6.300129455282648e-5 -6.951434835256679e-6 0.0
6.312611087370288e-5 -6.311994966520342e-6 0.0
6.462755643067331e-5 -6.493358812506382e-6 0.0
3.8221874593904926e-5 -7.553467350963357e-6 0.0
3.668901511327571e-5 -7.083851063894898e-6 0.0
3.965650414356167e-5 -7.949700929513868e-6 0.0
6.130309907351319e-5 -8.008628017283241e-6 0.0
3.6748263844800576e-5 -7.762926402834314e-6 0.0
3.519690179405963e-5 -7.25621058189215e-6 0.0
5.3226496889254014e-5 -4.423599955345804e-7 0.0
3.524570924935303e-5 -7.928509411206457e-6 0.0
3.369810160917375e-5 -7.4131869772499375e-6 0.0
3.374716910074892e-5 -8.109864746078651e-6 0.0
3.2219456603936455e-5 -7.543290698165068e-6 0.0
3.213639718611224e-5 -6.864968676707404e-6 0.0
3.0573848349994136e-5 -7.016251122556687e-6 0.0
3.051031713380152e-5 -6.299301128539139e-6 0.0
3.208354728512268e-5 -8.24503614680828e-6 0.0
2.8837194068201093e-5 -6.461982985894719e-6 0.0
2.8759080900390818e-5 -5.727748354773926e-6 0.0
3.380232163533524e-5 -8.855273134060492e-6 0.0
3.2384093880298426e-5 -9.049844149793538e-6 0.0
2.7127762022352048e-5 -5.8326695508986375e-6 0.0
2.6994942648754267e-5 -5.1205556647615875e-6 0.0
6.479726028068109e-5 -5.847929198969375e-6 0.0
6.634840228153951e-5 -6.023510687938742e-6 0.0
3.384657395503313e-5 -9.618804469120222e-6 0.0
3.2439220159031826e-5 -9.81623436553237e-6 0.0
6.653678373809337e-5 -5.3603735875269345e-6 0.0
6.815177023737244e-5 -5.54532137905811e-6 0.0
6.790187485560514e-5 -6.275401838076976e-6 0.0
6.970765979581763e-5 -5.761209939836298e-6 0.0
6.949532669542993e-5 -6.515322170951533e-6 0.0
7.12965000597042e-5 -5.94659713075611e-6 0.0
7.118495749903709e-5 -6.705388934628013e-6 0.0
7.303819908520691e-5 -6.063866998485916e-6 0.0
7.278155260499018e-5 -6.844614092973103e-6 0.0
7.314709569834142e-5 -5.338065148451332e-6 0.0
7.466027124878834e-5 -6.2209768999823765e-6 0.0
7.431865176791006e-5 -7.007059054363457e-6 0.0
3.389940488683997e-5 -1.040460874804587e-5 0.0
2.5282160351262023e-5 -5.210052156675429e-6 0.0
2.5117238876918016e-5 -4.490396704958786e-6 0.0
7.259598731216245e-5 -7.659710501016534e-6 0.0
7.409062906101224e-5 -7.823497020886918e-6 0.0
7.578393129049598e-5 -7.162762800105341e-6 0.0
7.249258343479551e-5 -8.513194348130801e-6 0.0
3.251854489097367e-5 -1.061350727139797e-5 0.0
7.557812293319986e-5 -7.985484284750555e-6 0.0
7.722767277565017e-5 -7.304681189154003e-6 0.0
3.394115859967602e-5 -1.1221190507127278e-5 0.0
3.257989780867975e-5 -1.1442190742768898e-5 0.0
3.118068047584546e-5 -1.0806312691664612e-5 0.0
7.70257621283125e-5 -8.134041245211806e-6 0.0
7.864622049626397e-5 -7.422460331437585e-6 0.0
3.397105879150045e-5 -1.2071446818794614e-5 0.0
3.531910419940301e-5 -1.1838345164313571e-5 0.0
3.1251307303547155e-5 -1.1647783395202585e-5 0.0
2.9866528712157458e-5 -1.0987666682428974e-5 0.0
7.8410399292721e-5 -8.269236399401844e-6 0.0
8.006208681975559e-5 -7.526861175593365e-6 0.0
8.028037481626522e-5 -6.703488385982405e-6 0.0
7.678447194207391e-5 -9.017274917262419e-6 0.0
8.169064139790346e-5 -6.775627083071766e-6 0.0
8.19600010857006e-5 -5.9750973009311795e-6 0.0
2.3308851815901046e-5 -4.579354530758881e-6 0.0
2.3241418737945936e-5 -3.8392860668738186e-6 0.0
2.540281823779222e-5 -3.7917698786870768e-6 0.0
2.3101316842417325e-5 -3.125633245841003e-6 0.0
2.5159534784401134e-5 -2.981105902327735e-6 0.0
2.293458225172109e-5 -2.392109650580879e-6 0.0
2.4922854941093306e-5 -2.2167154634799875e-6 0.0
3.534443179223521e-5 -1.2698206195203394e-5 0.0
3.6660229188696136e-5 -1.2449261807026852e-5 0.0
2.9939808520674747e-5 -1.1841219178011919e-5 0.0
2.8569872093795596e-5 -1.115444537275671e-5 0.0
8.146399136162737e-5 -7.612260751875678e-6 0.0
2.2978613404844255e-5 -1.6692584640549177e-6 0.0
2.4847412215603538e-5 -1.466070575820813e-6 0.0
3.668558475304476e-5 -1.3311068909093975e-5 0.0
3.79707366898759e-5 -1.3057890923358353e-5 0.0
4.4169561757469436e-5 -7.203597400938905e-6 0.0
8.306696834626634e-5 -6.828228871901066e-6 0.0
5.4373145279379566e-5 1.4923897422895065e-6 0.0
5.682271537318564e-5 4.306820379304471e-6 0.0
4.810922503537577e-5 -2.5200113164022873e-6 0.0
6.826910645680236e-5 -4.8670358923443285e-6 0.0
2.2742269535920845e-5 -9.111474034530135e-7 0.0
2.4914250172404117e-5 -6.895811241949461e-7 0.0
2.8649956084380004e-5 -1.20185323631584e-5 0.0
2.730222350364955e-5 -1.13103638491842e-5 0.0
3.801386789409387e-5 -1.3924130475250003e-5 0.0
3.928812505346843e-5 -1.3661721962354586e-5 0.0
8.281586958305671e-5 -7.662437804856133e-6 0.0
2.136987769400005e-5 -3.931226895834082e-6 0.0
2.1485333036126226e-5 -4.6835241669244966e-6 0.0
2.061658021172399e-5 -1.8017294122916627e-6 0.0
8.439959002062097e-5 -6.848601442726579e-6 0.0
2.2663936724683443e-5 -1.8545430748104342e-7 0.0
2.4837440347737965e-5 1.0416755092865531e-7 0.0
3.6741418456699175e-5 -1.4205954568744733e-5 0.0
2.739563266148557e-5 -1.2188597487720526e-5 0.0
2.6058067087229022e-5 -1.1446503520182604e-5 0.0
6.666680889931732e-5 -4.698735940438152e-6 0.0
6.847367209221858e-5 -4.187446778521434e-6 0.0
6.678226398107638e-5 -4.02326292014308e-6 0.0
6.86862194368352e-5 -3.5089590060344145e-6 0.0
3.931285284558031e-5 -1.4526633755849897e-5 0.0
4.059794786250267e-5 -1.4230794373884573e-5 0.0
4.267665250786882e-5 -5.901802365599024e-6 0.0
2.257978969075044e-5 5.243532689571672e-7 0.0
2.4688445892605897e-5 8.761834811659715e-7 0.0
8.416181657084695e-5 -7.660534074040644e-6 0.0
8.273924393906365e-5 -8.418918063732813e-6 0.0
2.2019672511126256e-5 1.2768881484210999e-6 0.0
2.445902622552897e-5 1.6764589430141886e-6 0.0
8.568048759678321e-5 -6.840382575580147e-6 0.0
8.577705961298369e-5 -6.214212052092548e-6 0.0
2.2201494261001027e-5 2.0143615149364865e-6 0.0
2.869314229025489e-5 -1.2988485728022001e-5 0.0
4.060083616467757e-5 -1.5121440027843562e-5 0.0
4.1875472356066345e-5 -1.4789051372915831e-5 0.0
4.188512133425494e-5 -1.3913486873882384e-5 0.0
4.31589862337138e-5 -1.4451174887709643e-5 0.0
4.317531878819152e-5 -1.359391511626197e-5 0.0
4.445223169073947e-5 -1.4108827467889506e-5 0.0
4.4470472932186535e-5 -1.3259089176131675e-5 0.0
4.576270560232238e-5 -1.3758812461283967e-5 0.0
4.578702421536277e-5 -1.2921376230894286e-5 0.0
4.70847365700471e-5 -1.3398180008480865e-5 0.0
4.706029806682191e-5 -1.4258406357509883e-5 0.0
4.837099900335162e-5 -1.3877284042643834e-5 0.0
4.834070348374873e-5 -1.4752419000215365e-5 0.0
4.9639793390006406e-5 -1.4350401358650243e-5 0.0
4.959593418154516e-5 -1.5242120566568081e-5 0.0
5.0899783662302194e-5 -1.4816870740357494e-5 0.0
4.7119878249966195e-5 -1.2575250043735048e-5 0.0
5.094043154051653e-5 -1.3936057856637069e-5 0.0
5.221096719479217e-5 -1.4377246669910248e-5 0.0
5.215480923568924e-5 -1.5290060911597886e-5 0.0
5.3476603665235435e-5 -1.4830363496194508e-5 0.0
1.9514891141773533e-5 -4.004149756722823e-6 0.0
1.9610468423032042e-5 -4.758521055512716e-6 0.0
2.6156436298694166e-5 -1.2329379264970893e-5 0.0
2.4848509532579513e-5 -1.1571298017618246e-5 0.0
5.354507669382527e-5 -1.393112411491344e-5 0.0
5.480463836440628e-5 -1.4353370459429475e-5 0.0
5.472153521585089e-5 -1.5274790783387045e-5 0.0
5.606914657670518e-5 -1.4771672952965115e-5 0.0
1.7696726145428436e-5 -4.056488548190568e-6 0.0
1.778412889786844e-5 -4.800038017384582e-6 0.0
6.691450116816941e-5 -3.324253916111336e-6 0.0
6.893386813477278e-5 -2.8162135653728603e-6 0.0
6.711153257960288e-5 -2.6270450668692614e-6 0.0
8.548051356662326e-5 -7.597202352531796e-6 0.0
8.692972005356007e-5 -6.781172632615403e-6 0.0
4.187221317562617e-5 -1.5708178155138533e-5 0.0
2.7224251950091394e-5 -1.384337494224479e-6 0.0
5.3058630787784926e-5 -7.096821435896653e-6 0.0
5.597083643930637e-5 -1.5713827979215917e-5 0.0
5.7319881098344125e-5 -1.5187973737383521e-5 0.0
5.7390066218737455e-5 -1.4249024669386297e-5 0.0
5.866369894564901e-5 -1.4634139278567204e-5 0.0
5.603050315911124e-5 -5.961368017508383e-6 0.0
6.928801297218418e-5 -2.106864378984648e-6 0.0
7.096559533267889e-5 -2.424673156480508e-6 0.0
2.440862887677247e-5 2.487700437232393e-6 0.0
2.493884749065002e-5 -1.2448000886141036e-5 0.0
2.3659480763830247e-5 -1.1670866623333313e-5 0.0
6.736257924895017e-5 -1.9063711905628923e-6 0.0
5.8569058290997186e-5 -1.5605538447322188e-5 0.0
5.993724969520581e-5 -1.5046346672385534e-5 0.0
6.0026561921198074e-5 -1.4077206549667277e-5 0.0
6.133081027916038e-5 -1.4476262766592907e-5 0.0
6.144742631106721e-5 -1.353347348806959e-5 0.0
6.273323092738469e-5 -1.3890001034889208e-5 0.0
6.260374275892065e-5 -1.4855539143356834e-5 0.0
6.399512030041778e-5 -1.4241211191943461e-5 0.0
2.2047329387374165e-5 2.698836219419796e-6 0.0
1.5932999996345664e-5 -4.081288275356381e-6 0.0
1.600246424952488e-5 -4.7998295389505e-6 0.0
4.062997774473769e-5 -1.6055224269913165e-5 0.0
8.668118621803515e-5 -7.557263952117129e-6 0.0
8.811974921886729e-5 -6.684993587192906e-6 0.0
6.38510491780052e-5 -1.5224532792850844e-5 0.0
6.522771809300202e-5 -1.4588324283365443e-5 0.0
2.4364117187047466e-5 3.2550368627025874e-6 0.0
2.3763196047398113e-5 -1.2549376531974084e-5 0.0
2.2486624512760087e-5 -1.17390212063909e-5 0.0
2.6844739347414362e-5 1.2304490867367352e-6 0.0
7.941175442208642e-5 3.22500406625451e-6 0.0
4.1864233410687673e-5 -1.666005511488068e-5 0.0
2.191914022682751e-5 3.310055070659023e-6 0.0
2.0629102978696088e-5 1.8682261358773803e-7 0.0
8.77627757499373e-5 -7.628915931350614e-6 0.0
8.926299645458425e-5 -6.564275407283423e-6 0.0
8.954864487875627e-5 -5.80394746368715e-6 0.0
1.9796413996624168e-5 2.1746768545525384e-6 0.0
8.622645116402911e-5 -8.438437911816097e-6 0.0
1.574428262714331e-5 -3.3853670637953625e-6 0.0
2.493050009487503e-5 -1.3291651851269746e-5 0.0
6.962635438754576e-5 -1.379854668170701e-6 0.0
6.764891729105327e-5 -1.1626956122989409e-6 0.0
6.288212757708899e-5 -1.2964144634645606e-5 0.0
2.2601893563511435e-5 -1.2636940901597787e-5 0.0
2.1331185356355047e-5 -1.1800192354391847e-5 0.0
1.4221315362854635e-5 -4.071799299752944e-6 0.0
1.427163973139175e-5 -4.752696238644829e-6 0.0
2.7213588317422477e-5 -1.0485052393923735e-5 0.0
6.507397652698312e-5 -1.558867419026266e-5 0.0
6.64339094209699e-5 -1.492057619873265e-5 0.0
2.121150082215909e-5 -1.0921355598498202e-5 0.0
2.0054794673527657e-5 -1.0956570319811049e-5 0.0
6.377866285003549e-5 -1.618036946577874e-5 0.0
4.06616145144265e-5 -1.7021049155068073e-5 0.0
2.019625155602191e-5 -1.1846690000964812e-5 0.0
1.8927938750621553e-5 -1.0977353986553442e-5 0.0
4.316201756608512e-5 -1.2784354110301259e-5 0.0
9.068454308091076e-5 -5.632908562521437e-6 0.0
9.09908226336484e-5 -4.937596424995343e-6 0.0
9.041072200562736e-5 -6.35141921207511e-6 0.0
6.626107422531815e-5 -1.591923418684342e-5 0.0
6.761176571728746e-5 -1.522676456261048e-5 0.0
6.156422474742181e-5 -1.2625576471563351e-5 0.0
6.302817930246175e-5 -1.207586187221208e-5 0.0
4.186313185144935e-5 -1.7640104751431057e-5 0.0
6.779355843745725e-5 -1.424136838194949e-5 0.0
6.89775932049437e-5 -1.4540339184860057e-5 0.0
1.2538338851997105e-5 -3.9980816362174475e-6 0.0
1.2651908843218819e-5 -4.661826180806478e-6 0.0
6.879523136618448e-5 -1.554889137965428e-5 0.0
7.01316058345917e-5 -1.4837329608022512e-5 0.0
1.910602764269717e-5 -1.1878286538341398e-5 0.0
1.783930138139501e-5 -1.0981551743314247e-5 0.0
6.996198136372816e-5 -6.334106512255715e-7 0.0
6.797599299267956e-5 -3.9913495842766353e-7 0.0
1.764611372737241e-5 -1.0122485247891721e-5 0.0
1.655727702799059e-5 -1.0090564103998657e-5 0.0
1.674280737002479e-5 -1.0959309053803135e-5 0.0
1.547160229250745e-5 -1.0041644522733742e-5 0.0
9.177057349967913e-5 -5.413012811283275e-6 0.0
9.148431812067347e-5 -6.1127516997887465e-6 0.0
2.420482737994017e-5 3.8771825613408245e-6 0.0
2.1568188238130443e-5 3.7851246509432278e-6 0.0
6.527560384388216e-5 -2.4124581181014107e-6 0.0
4.068580011179483e-5 -1.8013831936699406e-5 0.0
6.995483407766321e-5 -1.5870771204113678e-5 0.0
7.125346171520885e-5 -1.5124429033726702e-5 0.0
7.353072935027306e-5 4.107417948402335e-6 0.0
6.917436428064421e-5 -1.3556386905120542e-5 0.0
4.831272431078958e-5 -1.5661895814556616e-5 0.0
1.5248486645626623e-5 -9.216236499910423e-6 0.0
1.4199517987376935e-5 -9.12401226393645e-6 0.0
1.4426916808299087e-5 -9.976358342704214e-6 0.0
1.3155610157596386e-5 -9.022479563442606e-6 0.0
1.2926916580866217e-5 -8.217241238222689e-6 0.0
1.1855725071171917e-5 -8.084642234062737e-6 0.0
1.1618709297239054e-5 -7.295256285215265e-6 0.0
1.0537942296490505e-5 -7.123026037436043e-6 0.0
1.0301322144383001e-5 -6.380515044507e-6 0.0
9.286397407223493e-6 -6.188100190600757e-6 0.0
9.032117171698452e-6 -5.500950585195923e-6 0.0
9.504464285765322e-6 -6.90360151356019e-6 0.0
8.153181329596098e-6 -5.816602088786269e-6 0.0
1.0976046260319153e-5 -3.889906628841352e-6 0.0
1.0960985373410817e-5 -3.2980136721839972e-6 0.0
8.492141265722328e-6 -6.642022250417732e-6 0.0
7.262320677924475e-6 -5.6391611429268455e-6 0.0
2.666713774597234e-5 3.7754831342799437e-6 0.0
3.0145144148648662e-5 -5.530114917170057e-6 0.0
6.169665499347878e-5 -1.175984141527736e-5 0.0
6.316112399289789e-5 -1.1225697028267e-5 0.0
1.7754780344662246e-5 -5.514449214942561e-6 0.0
4.185434463942793e-5 -1.8652394998615055e-5 0.0
4.30405717519988e-5 -1.8261004991332922e-5 0.0
6.450156385867358e-5 -1.1517170754449666e-5 0.0
6.464384365791032e-5 -1.0672138508914867e-5 0.0
9.280231018811056e-5 -5.140668166719589e-6 0.0
9.2452503284004e-5 -5.848830710001587e-6 0.0
9.1183322673467e-5 -6.867433371686212e-6 0.0
6.563847600122225e-5 -9.417597862910795e-7 0.0
6.59606680661086e-5 -1.6845749683419173e-7 0.0
3.949353591014184e-5 -1.7372063623961286e-5 0.0
3.95190262082226e-5 -1.8371364016472463e-5 0.0
3.8344926963490244e-5 -1.7716064115816444e-5 0.0
1.3436883595559718e-5 -9.892136749500788e-6 0.0
6.831921189720546e-5 3.859811951110043e-7 0.0
6.630454791176058e-5 6.482690893757529e-7 0.0
2.7172835869017986e-5 -6.608878318312159e-6 0.0
7.105417954700442e-5 -1.616400226581819e-5 0.0
7.23496243897314e-5 -1.539146276715902e-5 0.0
7.256727564564881e-5 -1.4386703503023046e-5 0.0
7.364928869051331e-5 -1.462390119148984e-5 0.0
2.4640803564278558e-5 4.426275058489138e-6 0.0
2.1512082882420443e-5 4.168579649901525e-6 0.0
3.7901626150857545e-5 -1.2236879499639788e-5 0.0
6.978915614904002e-5 -1.6929180564415362e-5 0.0
8.412304312113143e-5 3.170339003282743e-6 0.0
7.342113978454412e-5 -1.5662149605098966e-5 0.0
7.472379540915431e-5 -1.4865487190074733e-5 0.0
7.495119940527075e-5 -1.3847750868834684e-5 0.0
7.603212735505762e-5 -1.4064607317629883e-5 0.0
7.627936867658872e-5 -1.3055325288686892e-5 0.0
7.734096347601551e-5 -1.3249861406990766e-5 0.0
7.7083035484332e-5 -1.4274077605842125e-5 0.0
7.83697818083333e-5 -1.3436229490356985e-5 0.0
7.533318152861329e-6 -6.306198510995273e-6 0.0
6.342517944921328e-6 -5.289228523113114e-6 0.0
5.923896765689985e-6 -4.571054161258511e-6 0.0
4.3027962421992626e-5 -1.928771052703806e-5 0.0
4.416439578114259e-5 -1.8925455736649362e-5 0.0
3.8381988542066914e-5 -1.87217272554502e-5 0.0
3.721313632053857e-5 -1.8043686352296747e-5 0.0
9.209154404792755e-5 -6.621418382843266e-6 0.0
9.332966891384498e-5 -5.5682206393929965e-6 0.0
7.261890230091737e-5 4.699633095658012e-6 0.0
7.080159089344725e-5 4.49118922317019e-6 0.0
1.8746785384602764e-5 3.5448652502131436e-6 0.0
1.8641003554867504e-5 3.8512650054407645e-6 0.0
8.777829728263338e-6 -7.416298767428092e-6 0.0
3.5286663332922737e-5 -9.411026424581865e-6 0.0
6.470947148502055e-5 -3.9091554252562e-6 0.0
9.086575492119495e-5 -7.669793602029743e-6 0.0
2.7051508113485036e-5 -2.69966975952596e-6 0.0
6.36163727179948e-5 -7.337554103406554e-7 0.0
7.80719473005664e-5 -1.4473778105624412e-5 0.0
7.934970751096365e-5 -1.3611462103551764e-5 0.0
7.700347745384879e-5 2.9270162491023144e-6 0.0
8.036315759297429e-5 2.523542820595412e-6 0.0
2.4135428752476517e-5 4.6949671806470424e-6 0.0
1.4304033577196979e-5 -5.437137677331586e-6 0.0
9.23580311568144e-6 -3.1386410159052026e-6 0.0
9.256238276531146e-6 -2.6057059920655837e-6 0.0
1.4653534073052117e-5 -1.0867493175087571e-5 0.0
7.456627379406437e-5 -1.5922294158501242e-5 0.0
5.976231144018695e-5 -8.3857280116122e-6 0.0
5.465924951960392e-5 -1.6234106419047942e-5 0.0
3.406491275128975e-5 -1.2911810840570778e-5 0.0
6.617810926992465e-6 -5.934233919531541e-6 0.0
5.475830999324036e-6 -4.899246848788777e-6 0.0
2.0370253921228956e-5 -1.277832755322357e-5 0.0
6.600239086257319e-5 -1.0941513610423878e-5 0.0
6.615491992009228e-5 -1.0106219249432985e-5 0.0
3.9495992126604924e-5 -1.9416864316357307e-5 0.0
7.843829360131768e-5 2.1109593525612234e-6 0.0
8.1330414090647e-5 1.825018351867504e-6 0.0
7.952137648683367e-5 1.3472353151389152e-6 0.0
8.234009601173234e-5 1.1262169601178481e-6 0.0
8.409715464969312e-5 1.5530738520178197e-6 0.0
8.509982348468579e-5 9.256694601465378e-7 0.0
8.331645116338265e-5 4.41081462471641e-7 0.0
8.599892176867807e-5 3.1691638114288743e-7 0.0
8.423420781607212e-5 -2.0284118203230767e-7 0.0
8.68753975517913e-5 -2.4847185628605024e-7 0.0
8.516302260722029e-5 -8.097755953828482e-7 0.0
8.770416451931423e-5 -7.68990355429031e-7 0.0
8.604871118908721e-5 -1.378423584754203e-6 0.0
8.851203728712369e-5 -1.251088311827285e-6 0.0
8.341204759952477e-5 -1.4693436406810742e-6 0.0
8.690997057471385e-5 -1.89113952117134e-6 0.0
8.923414931780471e-5 -1.7042815866876735e-6 0.0
8.689950121843634e-5 1.2689250707474684e-6 0.0
1.9886089099293172e-5 -1.0093908200997192e-5 0.0
1.9306805477560272e-5 -1.2816142783017339e-5 0.0
2.052263573649254e-5 -1.3728988483504378e-5 0.0
8.774961380503131e-5 -2.36786881609276e-6 0.0
8.996126525053696e-5 -2.1127415387265982e-6 0.0
8.554690217893206e-5 -2.567137625527223e-6 0.0
5.5873535574612564e-5 -1.6689987944344082e-5 0.0
5.457303509074249e-5 -1.7217007192445463e-5 0.0
5.576974036752628e-5 -1.7689965618120785e-5 0.0
5.4501376749793864e-5 -1.822957754314083e-5 0.0
5.567021783991696e-5 -1.8717585613999388e-5 0.0
5.4445690262169334e-5 -1.9269932092253175e-5 0.0
5.3275742895355076e-5 -1.8770583357059278e-5 0.0
5.3234793908858805e-5 -1.98154652820915e-5 0.0
5.209357090384761e-5 -1.9300230296562333e-5 0.0
4.679431443171964e-5 2.3643110437665435e-6 0.0
5.558432440797746e-5 -1.9777094862995403e-5 0.0
5.679551636171035e-5 -1.9203836714824524e-5 0.0
4.650412695900952e-5 -6.823098982177698e-6 0.0
4.580517875454206e-5 -1.2119682981930833e-5 0.0
4.7152681944436046e-5 -1.1787493696071731e-5 0.0
4.5821352718543094e-5 -1.1351498517521177e-5 0.0
4.718324501273554e-5 -1.1033972050130794e-5 0.0
4.583762055184101e-5 -1.0617044797965783e-5 0.0
4.7213182173829146e-5 -1.031511047998581e-5 0.0
4.8559006259761224e-5 -1.0710609978608425e-5 0.0
4.860108791472672e-5 -1.0007399245301843e-5 0.0
4.9947111155272454e-5 -1.0382220624995488e-5 0.0
4.999797881573148e-5 -9.693505017235088e-6 0.0
5.128563001993009e-5 -1.0045845019601861e-5 0.0
4.8646098786976024e-5 -9.316892447703401e-6 0.0
4.58548338178458e-5 -9.914747258839705e-6 0.0
4.447019031083105e-5 -1.0197695185189299e-5 0.0
5.12225367241617e-5 -1.0765118678418285e-5 0.0
5.262466550089566e-5 -1.0364352948574922e-5 0.0
1.9502081283133674e-5 -1.3773619216978455e-5 0.0
4.811604694406414e-5 -4.427986941589623e-6 0.0
4.801669787903162e-5 -3.112842875647205e-7 0.0
5.4892033202068105e-5 -1.3475217489761226e-5 0.0
9.311487004732859e-5 -4.5065818540217855e-6 0.0
9.408629166602276e-5 -4.211233691029995e-6 0.0
5.289204693166288e-5 -1.2287092339505096e-6 0.0
5.2349148082433797e-5 -2.6771010933935046e-6 0.0
7.517267228998397e-5 -1.2853852586549173e-5 0.0
6.436184234057385e-5 -7.1584479037256825e-6 0.0
9.298138342707032e-5 -6.293042577804912e-6 0.0
9.414444364909526e-5 -5.248064299979816e-6 0.0
5.20812825161165e-5 -4.648446746992018e-6 0.0
3.725708083343885e-5 -1.9060185146653238e-5 0.0
3.6094998023169347e-5 -1.836233481885497e-5 0.0
5.3744198016760126e-5 4.1829151719922286e-7 0.0
5.204251964811533e-5 -2.0355020700281882e-5 0.0
5.089648012912197e-5 -1.978216476098879e-5 0.0
3.605222559884051e-5 -1.7358967362846947e-5 0.0
3.492410868259252e-5 -1.765957007814154e-5 0.0
3.487565760471367e-5 -1.6668066475396616e-5 0.0
3.374381145644486e-5 -1.6947512039531278e-5 0.0
3.381059858955403e-5 -1.7951121645123236e-5 0.0
3.263699417244664e-5 -1.7216827010765933e-5 0.0
3.2711446983108044e-5 -1.823058190692583e-5 0.0
3.154101493474965e-5 -1.74762277749393e-5 0.0
1.3725217169527151e-5 -1.079988808130222e-5 0.0
9.441737194744446e-5 -3.63242375681378e-6 0.0
6.864253266375792e-5 1.2028311517673256e-6 0.0
6.658250526903642e-5 1.452759662902263e-6 0.0
3.116871941501526e-5 -9.249357807587235e-6 0.0
2.4883503145404798e-5 -1.0719632435365747e-5 0.0
9.068355811328202e-5 -1.1673975698019697e-6 0.0
8.944871746312164e-5 -3.1154319110953775e-7 0.0
4.413000992172212e-5 -1.994665777669403e-5 0.0
4.5294511241640626e-5 -1.9550528087866805e-5 0.0
7.084537928772313e-5 -1.722107931412591e-5 0.0
1.2785747515916032e-5 -7.432123382699781e-6 0.0
5.871478424155809e-5 -6.401414715492496e-6 0.0
6.4303612337433e-5 8.844635406678719e-7 0.0
6.456849508362048e-5 1.6971284255282713e-6 0.0
7.654461505388993e-5 -1.2075885458992814e-5 0.0
7.741744314229762e-5 -6.503807745052492e-6 0.0
7.966503519009796e-5 -1.260675530413601e-5 0.0
8.065335767825723e-5 -1.2736464396875314e-5 0.0
8.028450808636608e-5 -1.3781999445977375e-5 0.0
8.160117327420372e-5 -1.2870598439968682e-5 0.0
4.5562304236987974e-5 -5.565190674261118e-6 0.0
1.4873985091575879e-5 -1.1780084182239185e-5 0.0
5.126270746736561e-5 -9.352150498324175e-6 0.0
8.15478640680146e-5 -1.9299448547429208e-7 0.0
4.4422072382911814e-5 -1.7923685392895296e-5 0.0
2.065749126834205e-5 -1.4690564724910911e-5 0.0
2.1685023951898567e-5 -1.464069125954585e-5 0.0
6.961775686325418e-5 -1.798882921938341e-5 0.0
3.367272347740653e-5 -1.597635565105956e-5 0.0
6.181823403377376e-5 -1.0933963772140326e-5 0.0
6.035962545531546e-5 -1.143930080152776e-5 0.0
9.378626265451271e-5 -5.955044581525117e-6 0.0
9.493218334968407e-5 -4.864171226463844e-6 0.0
9.525883711081738e-5 -4.262110911637276e-6 0.0
2.7106166667182806e-5 4.972683460890513e-6 0.0
5.75690740913619e-6 -5.508320810231301e-6 0.0
4.645020331250545e-6 -4.435150928180741e-6 0.0
4.48226683640192e-6 -3.979557013454859e-6 0.0
6.99870168636401e-5 5.035736897054559e-6 0.0
7.166163910503685e-5 5.081058431526461e-6 0.0
6.820743802594481e-5 4.82479966849765e-6 0.0
7.197020663861062e-5 -8.702427247477269e-7 0.0
8.857747128143452e-5 -2.764416634446975e-6 0.0
9.074592851588655e-5 -2.4493827330156457e-6 0.0
3.614897701560664e-5 -1.939116207583227e-5 0.0
7.0549681224438e-5 -3.6737868476569496e-6 0.0
1.5815961932173276e-5 3.2077550918195606e-6 0.0
1.555587545564176e-5 3.425440879959497e-6 0.0
1.8549974534494096e-5 4.060805231454277e-6 0.0
1.5194067932007374e-5 3.5694846768383295e-6 0.0
1.9388537639845158e-5 4.404345572135027e-6 0.0
5.0836421652947434e-5 -1.8714215193963446e-5 0.0
3.143978769855431e-5 -1.648142203995818e-5 0.0
3.0373850437281353e-5 -1.6720475295494967e-5 0.0
3.0467534260939527e-5 -1.772603885780271e-5 0.0
2.9314873642016414e-5 -1.695269465247188e-5 0.0
8.193081397372486e-5 -1.186368617527389e-5 0.0
8.287172617532172e-5 -1.1977247249523148e-5 0.0
8.253616221763484e-5 -1.2989875095678777e-5 0.0
8.37696845616465e-5 -1.2076303818849598e-5 0.0
6.476929803348455e-5 -9.853550829197864e-6 0.0
6.630114639121714e-5 -9.307394568628732e-6 0.0
5.6707754336162386e-5 -2.0271445324049822e-5 0.0
5.78970810492702e-5 -1.968076945413527e-5 0.0
4.44790482151356e-5 -9.503871153238348e-6 0.0
4.308288050343876e-5 -9.77035227559767e-6 0.0
4.285460171357196e-5 -2.0381299463240816e-5 0.0
2.9409762102944844e-5 -1.7949367443586836e-5 0.0
2.8281398834068042e-5 -1.7168576025100383e-5 0.0
8.994035684843009e-5 -7.892644268011613e-6 0.0
8.961054776212756e-5 -8.737521381830984e-6 0.0
8.871401373851655e-5 -8.918112461589239e-6 0.0
8.849232680279687e-5 -9.707990856260633e-6 0.0
4.5247798387908894e-5 -2.065644479362267e-5 0.0
6.798110688351113e-6 -6.5538994027268815e-6 0.0
1.0136049219662782e-5 -5.70378781968358e-6 0.0
8.71608342715535e-6 -4.821386115418291e-6 0.0
7.477209236399981e-6 -2.4202322661814985e-6 0.0
7.408542869746823e-6 -1.9502094590246708e-6 0.0
9.295285570015136e-6 -2.085330046010726e-6 0.0
7.380839260800538e-6 -1.5040558256936502e-6 0.0
9.335784829810339e-6 -1.5700777143602948e-6 0.0
7.361226933794785e-6 -1.0737663847488248e-6 0.0
9.407550138434878e-6 -1.0640708672395756e-6 0.0
9.050082795997549e-5 -8.50870605493328e-6 0.0
2.9169617202456347e-5 -1.598128729739757e-5 0.0
7.541135731157303e-5 -1.1910140899227621e-5 0.0
6.85413999936824e-5 -1.7644616775725303e-5 0.0
6.840156484642657e-5 -1.8746993227550366e-5 0.0
6.734305323583357e-5 -1.839956919481411e-5 0.0
5.0863078549359e-5 -2.0872073446400304e-5 0.0
7.026388639603788e-5 8.659753929924034e-7 0.0
8.34309163684201e-5 -1.3091776799378526e-5 0.0
9.603376932474395e-5 -3.825364688249771e-6 0.0
9.567994481377912e-5 -4.4262248582745135e-6 0.0
2.6531617119565194e-5 5.056264821420475e-6 0.0
6.843920081792582e-5 1.9682081173202803e-6 0.0
5.360968649207075e-5 -1.3075089875366792e-5 0.0
5.4947920372264886e-5 -1.2635785286104994e-5 0.0
5.3232661369058404e-5 -2.090276325269115e-5 0.0
4.9726541623102655e-5 -2.0276824372559217e-5 0.0
2.1750162109872015e-5 -5.552092195756268e-6 0.0
9.203839987839243e-5 -1.8393223569254958e-6 0.0
9.276706624445704e-5 -2.094655451319964e-6 0.0
9.145975147956586e-5 -2.742073252212768e-6 0.0
9.339470654290268e-5 -2.334005764196812e-6 0.0
7.81520907692047e-5 -9.145176002713229e-6 0.0
5.970503926381214e-5 -1.6065551132979782e-5 0.0
6.0469460257660245e-5 -1.0640751373975223e-5 0.0
4.448327158336758e-5 -1.5002987888001564e-5 0.0
6.319424667708512e-5 -5.679460219117379e-6 0.0
6.752240812131121e-5 -1.0358138121635099e-5 0.0
6.798188069453948e-5 -1.3298545323759497e-5 0.0
6.93824804983501e-5 -1.2620950950771002e-5 0.0
6.89640322679677e-5 5.350799752602996e-6 0.0
7.098042477788856e-5 5.246408007588676e-6 0.0
2.179825458531633e-5 -1.561053235274667e-5 0.0
2.2784171086712045e-5 -1.5532163622290223e-5 0.0
7.3538204053016505e-6 -6.511963234036801e-7 0.0
9.402442146253274e-6 -5.68742910706647e-7 0.0
1.15198182094659e-5 -9.935695120418206e-7 0.0
1.1577969219612894e-5 -4.17207478045298e-7 0.0
9.444573890860359e-6 -8.922654792109456e-8 0.0
1.1709618894479408e-5 1.447628348218372e-7 0.0
9.52120304470182e-6 3.744107327304545e-7 0.0
1.1900140634440972e-5 6.99772303761936e-7 0.0
9.589686436111187e-6 8.205495921020581e-7 0.0
4.94193800966097e-6 -5.0304191909560915e-6 0.0
5.901340564381287e-5 -1.1116769459726565e-5 0.0
3.871413479994238e-6 -3.940439959886894e-6 0.0
1.9683274872907067e-5 -1.4742392262912679e-5 0.0
9.539134460549465e-5 -3.2782229350775023e-6 0.0
4.846472906360789e-5 -1.2222501759534535e-5 0.0
6.231491560802218e-5 1.1109995737095295e-6 0.0
6.269505250540537e-5 2.0021660219689883e-6 0.0
1.2052922325833283e-5 1.244656169441788e-6 0.0
1.3992652919138539e-5 -1.172615672825392e-5 0.0
1.2866343170220346e-5 -1.0724185803750372e-5 0.0
3.056097910871604e-5 -1.8923172823419738e-5 0.0
7.052367485284551e-5 -1.833106613668392e-5 0.0
3.728814443053724e-5 -2.0109182134595288e-5 0.0
8.464278564138769e-5 -1.2148705353432993e-5 0.0
9.637399512244921e-5 -3.2827889321007895e-6 0.0
4.3081000721531385e-5 -1.0482015616293071e-5 0.0
4.169668815056073e-5 -1.0030779043879844e-5 0.0
4.169638915504788e-5 -1.0763701421675753e-5 0.0
2.9170067897190552e-5 5.256037799599812e-6 0.0
4.03879808936918e-5 -1.0289846149163373e-5 0.0
7.698529630829888e-6 -2.9530469219105966e-6 0.0
5.779960391375332e-5 -2.076230551518499e-5 0.0
5.899259366705378e-5 -2.0150506608017013e-5 0.0
5.90972595617513e-5 -1.9082478866589392e-5 0.0
6.0183763440957455e-5 -1.9532116241455855e-5 0.0
7.059537127558485e-5 -1.2871129447225716e-5 0.0
7.082043235991643e-5 -1.19272759578631e-5 0.0
9.569841828593504e-5 -2.79346155770875e-6 0.0
9.467998841464316e-5 -3.121953167217987e-6 0.0
6.526567130877053e-5 2.6423551358742162e-6 0.0
6.312030550054412e-5 2.9747913789827604e-6 0.0
1.855459182860176e-5 -1.381361029551997e-5 0.0
2.8381435588675188e-5 -1.816659141331968e-5 0.0
2.727668947684557e-5 -1.7374334899716395e-5 0.0
5.039247708058439e-5 -6.655932257615873e-6 0.0
8.222485528640422e-5 -1.4024858474342328e-5 0.0
9.678845346955969e-6 1.2480955838800966e-6 0.0
2.7147047817512753e-5 -1.6375318478499396e-5 0.0
6.007001101066359e-5 -2.0614854511236993e-5 0.0
6.125088850319066e-5 -1.9976607122874645e-5 0.0
5.909692388700839e-5 -1.0361307374531092e-5 0.0
5.766281397724477e-5 -1.0791570200459493e-5 0.0
5.773850563168526e-5 -1.0063685690769133e-5 0.0
5.323839322689378e-5 -5.6442002381430074e-6 0.0
7.484016902334998e-6 -4.555066474440737e-6 0.0
4.171826314011476e-6 -4.507383117286236e-6 0.0
6.0312030644186334e-5 -1.8476084308840248e-5 0.0
6.120115488026119e-5 -8.658134918621277e-6 0.0
4.970378133054825e-5 -2.1383810427907876e-5 0.0
1.95500053110306e-5 -3.276193402508198e-6 0.0
3.519900563008996e-5 -6.642347791217641e-6 0.0
1.509367694978185e-5 -1.2753893399587728e-5 0.0
8.49889883139722e-5 -1.1173172692243397e-5 0.0
2.1136148960381687e-5 -1.007398628102325e-5 0.0
1.9729732577006287e-5 -9.247825175402866e-6 0.0
2.108642793328688e-5 -9.235757837714082e-6 0.0
1.9623714615748793e-5 -8.423197451725545e-6 0.0
2.1014749263348416e-5 -8.411680257607562e-6 0.0
1.825933921936792e-5 -8.416755376961744e-6 0.0
6.720939335317016e-5 -1.949503608030942e-5 0.0
6.623866029443312e-5 -1.9132302649133442e-5 0.0
1.260097457117714e-5 2.7222281856447594e-6 0.0
5.086446759413453e-5 -2.1972783970664078e-5 0.0
4.954352298019646e-5 -1.6168746770931607e-5 0.0
4.8274001622517054e-5 -1.6601241881328598e-5 0.0
2.291271786255133e-5 -1.6519582385204724e-5 0.0
5.906508130875884e-6 -2.1897887469013013e-6 0.0
6.238318240814576e-6 -2.7640383986176766e-6 0.0
8.976450211735308e-5 -5.116606037222871e-6 0.0
9.127138199681083e-5 -4.290381134634041e-6 0.0
1.3726631259190686e-5 -8.494987362141879e-7 0.0
2.3885930932261697e-5 -1.6404259388968384e-5 0.0
2.3819822951807042e-5 -1.5488315030965176e-5 0.0
2.4012009637990035e-5 -1.740617571368208e-5 0.0
2.196250617739124e-5 -1.6610262903702113e-5 0.0
1.5400098799822e-5 3.913330796603211e-6 0.0
3.830031343422721e-5 -1.674201084042297e-5 0.0
5.8913011153150035e-5 -1.1930548215156486e-5 0.0
8.994035210947214e-5 -4.46693667516408e-6 0.0
5.662295721098478e-5 -2.136982719915418e-5 0.0
3.617733378285852e-5 -2.045436916625822e-5 0.0
9.67255970797349e-5 -3.3800608492088684e-6 0.0
9.63532700616992e-5 -3.980474477365079e-6 0.0
2.9947087423812303e-5 5.172749826911638e-6 0.0
2.74074631506512e-5 -1.839526135833075e-5 0.0
6.488202278078039e-5 -9.039704649392114e-6 0.0
6.654586294496621e-5 -8.511110995776942e-6 0.0
9.983260444418215e-6 -5.045706476548117e-6 0.0
1.3144515951143717e-5 -1.1642302149349396e-5 0.0
1.205792323830483e-5 -1.0639725795776288e-5 0.0
1.1756335613034006e-5 -9.755965958475902e-6 0.0
1.87492769152773e-5 -1.4784105610056327e-5 0.0
3.1396229399625215e-6 -3.3992256158245826e-6 0.0
2.90308370548931e-6 -2.9704929453673822e-6 0.0
6.112435285738905e-5 -2.1069243338187238e-5 0.0
6.22894067832658e-5 -2.0410624305170223e-5 0.0
6.237665027701145e-5 -1.9285011647123904e-5 0.0
8.320784019905905e-5 -1.0995556698302608e-5 0.0
8.222826125485266e-5 -1.0896977597092552e-5 0.0
8.307479867519869e-5 -1.414142050494904e-5 0.0
1.8132967951543634e-5 -7.615970103572648e-6 0.0
1.6804587408473757e-5 -7.6169739912125115e-6 0.0
6.792405902113198e-5 -8.746567656341323e-6 0.0
9.459775022972241e-5 -1.7253698990522454e-6 0.0
9.514653351982496e-5 -1.902418758973333e-6 0.0
9.584394963369896e-5 -2.417807687423366e-6 0.0
9.512146488076008e-5 -5.32743410344352e-6 0.0
5.229352521365402e-6 -5.6712809764129665e-6 0.0
6.326622374407229e-5 -1.4155602661266752e-6 0.0
6.136268441683115e-5 -1.2590610588758909e-6 0.0
6.101210888560406e-5 -1.8624364636822679e-6 0.0
5.916574922276667e-5 -1.7401759359576361e-6 0.0
5.89358176615073e-5 -2.315328206043501e-6 0.0
5.934923086079793e-5 -1.173614676492827e-6 0.0
5.3669086603838695e-5 -1.2256192757891296e-5 0.0
4.3081328997220644e-5 -9.090873460097105e-6 0.0
4.449195919475922e-5 -8.839612005893237e-6 0.0
1.2338079304280061e-5 -1.1541600937234729e-5 0.0
1.1270175526316843e-5 -1.050816870327544e-5 0.0
8.579271566009626e-5 1.8268812533431268e-6 0.0
8.866266459853521e-5 1.4763459743688107e-6 0.0
8.978601989435865e-5 9.468215324778659e-7 0.0
9.150558182239035e-5 1.0936231774894018e-6 0.0
9.078811275099247e-5 1.5222858113790357e-6 0.0
4.8620588994671285e-5 -2.07989730516464e-5 0.0
4.862727026845842e-5 -1.9753420195016167e-5 0.0
4.8566397901494647e-5 -2.1892598350545584e-5 0.0
6.0292621471814425e-5 1.303417264949878e-6 0.0
5.992369943927845e-5 5.301879396206153e-7 0.0
1.3751438673186905e-5 -1.491135185917838e-6 0.0
7.145718234648855e-6 7.89666090699701e-7 0.0
6.60477486853459e-5 -2.0233412130188884e-5 0.0
1.5921030424201565e-5 2.8974937734592612e-6 0.0
6.583427957979162e-5 -1.180535309414393e-5 0.0
6.102256376287817e-5 -2.4402034015009348e-6 0.0
5.872609634684638e-5 -2.8723295516696483e-6 0.0
6.043752283300737e-5 -3.0550074283300526e-6 0.0
5.851552057257854e-5 -3.417426505160227e-6 0.0
6.013492046023928e-5 -3.610531023127347e-6 0.0
5.832361466317815e-5 -3.964381958573698e-6 0.0
5.9895947942033736e-5 -4.165115988308697e-6 0.0
5.815073083872403e-5 -4.518166009302799e-6 0.0
5.974826684764013e-5 -4.725322348614636e-6 0.0
5.677652889569723e-5 -3.2230722013898016e-6 0.0
5.655814022557136e-5 -4.30535809653243e-6 0.0
6.822786997444097e-5 -1.9838139781155592e-5 0.0
9.686819330648083e-5 -2.2702297148322805e-6 0.0
3.4836333536407684e-5 -1.5710965597540846e-5 0.0
3.358293421009687e-5 -1.5057610904786629e-5 0.0
9.260417378072043e-5 -7.088623208190207e-6 0.0
4.0453428133204345e-5 -9.671310950590508e-6 0.0
5.715523163450278e-5 -2.1506063631036994e-6 0.0
1.904321980395277e-5 4.764997351691027e-6 0.0
5.599810639857756e-6 -1.371427004656162e-6 0.0
3.20239865371638e-5 5.40989378732212e-6 0.0
3.260888373167628e-5 5.287151427254372e-6 0.0
7.545695799259087e-5 2.257216548514791e-6 0.0
9.338397983054967e-5 -6.751570890733052e-6 0.0
9.225483112609296e-5 -7.906275678402556e-6 0.0
4.034588104073691e-5 -1.1035552714980741e-5 0.0
3.916101632656582e-5 -1.0440708705454724e-5 0.0
1.6032353217041507e-5 -1.2007059032367074e-5 0.0
3.4441104727059453e-6 -3.932019648349014e-6 0.0
4.3777248928508434e-6 -1.8695501914321438e-6 0.0
4.500655536160785e-6 -2.2561673645794153e-6 0.0
2.4417992345855e-6 -2.8075149505712793e-6 0.0
6.956591883969665e-5 -1.1706215016478099e-5 0.0
7.103690936963491e-5 -1.103520780020299e-5 0.0
7.231081451381466e-5 -1.1241845481862845e-5 0.0
7.25085518587847e-5 -1.0342071700312493e-5 0.0
5.643729459521666e-5 -4.830287172401349e-6 0.0
2.2652365932322895e-5 5.004287756771608e-6 0.0
2.8957720849370084e-5 5.1884183753722545e-6 0.0
5.63129935716968e-5 -1.0463754057482057e-5 0.0
5.640284250647407e-5 -9.745114816493102e-6 0.0
4.3111646462670594e-5 -8.465333526165935e-6 0.0
3.6762071831043166e-5 -8.46879854381578e-6 0.0
3.731669477949077e-5 -2.118697739152774e-5 0.0
7.683982604738429e-5 -1.532272397466538e-5 0.0
7.777892974214243e-5 -1.553547389873563e-5 0.0
7.660130648880854e-5 -1.6385305975598546e-5 0.0
7.750721276801699e-5 -1.661386254590631e-5 0.0
7.636391773617548e-5 -1.745685041844607e-5 0.0
7.545290759892456e-5 -1.722829212316787e-5 0.0
7.314948623005504e-5 -1.6895956005792433e-5 0.0
6.622975066133563e-5 -1.8007942055595654e-5 0.0
6.897184452691284e-5 4.094455707549421e-6 0.0
5.33706447644933e-5 -1.674670060476818e-5 0.0
1.4159274339264863e-5 4.618056196490137e-7 0.0
9.59140320180395e-5 -4.707094437456966e-6 0.0
9.695176233078177e-5 -3.522549047763411e-6 0.0
7.86678131607797e-5 -1.5745613189046555e-5 0.0
7.839946837517127e-5 -1.680803709331221e-5 0.0
7.951645444372139e-5 -1.5946951305020258e-5 0.0
3.839195844411393e-5 -2.0833734563896463e-5 0.0
4.7052748485676965e-5 -1.6077681840555685e-5 0.0
4.7048086520297316e-5 -1.7009457426994204e-5 0.0
4.823672863957381e-5 -1.7568307855658075e-5 0.0
3.14518629749407e-5 -1.2655594123418323e-5 0.0
4.5827921834810526e-5 -1.6465182446837812e-5 0.0
5.9221823449402504e-5 -1.8061673435238078e-5 0.0
8.356639616645178e-5 -1.0033624974129306e-5 0.0
8.583730491317377e-5 -1.1210133511271806e-5 0.0
8.547070963658962e-5 -1.2206199944721193e-5 0.0
8.635392231190417e-5 -1.0150687509597944e-5 0.0
1.149232443025637e-5 -2.1542885056492634e-6 0.0
3.38798871066299e-5 -1.898318837041575e-5 0.0
3.280528069157102e-5 -1.927534814708798e-5 0.0
3.3936853641115363e-5 -2.0035981710066382e-5 0.0
3.290848268777582e-5 -2.0336046210934517e-5 0.0
7.377187921408596e-5 -1.0514255164436672e-5 0.0
1.9881201518818727e-5 -1.573776607605832e-5 0.0
1.7690837933881917e-5 -1.3858790691814852e-5 0.0
9.394567286153824e-5 -2.593254080932064e-6 0.0
5.41643990856528e-6 -6.659481076200475e-7 0.0
5.417750312897062e-6 -3.4454768574598813e-7 0.0
6.500265542247104e-5 -1.972202637392905e-5 0.0
6.500441334461705e-5 -2.0916517498695606e-5 0.0
5.230614454675485e-5 -1.2673033759149209e-5 0.0
9.262130198146908e-5 6.371513897469326e-7 0.0
1.7869735712149037e-5 -1.4811793628095376e-5 0.0
7.607558784623047e-5 5.040309261667308e-6 0.0
8.892748431311665e-5 -8.093747373774095e-6 0.0
8.840324708548944e-5 2.9366774131234986e-6 0.0
8.937105109831606e-5 2.5322239142476887e-6 0.0
7.12536139662365e-5 -1.0176572413547186e-5 0.0
7.683365488989443e-5 -1.1150613135401585e-5 0.0
7.797041054544978e-5 -1.1295630193157117e-5 0.0
6.88245753830455e-5 5.319625391352912e-6 0.0
7.068615321831012e-5 5.18594470886769e-6 0.0
7.288614799663375e-5 5.106674884342593e-6 0.0
5.993245400180195e-5 -2.1722180011393314e-5 0.0
2.8429418301250475e-5 -1.917545926728702e-5 0.0
4.4474365061664635e-5 -1.1672269255100185e-5 0.0
6.335538168499544e-5 -9.614030660259343e-6 0.0
5.618295775119188e-5 -1.2989262938504036e-5 0.0
5.769412426899834e-5 -2.187481460761055e-5 0.0
2.494472334832964e-5 -1.7263282594448517e-5 0.0
3.243860896466445e-5 -1.527947720424968e-5 0.0
1.2798333905925157e-5 -5.369057140501745e-6 0.0
9.385567007778445e-5 7.290484674277916e-7 0.0
7.405850148745371e-5 -1.2683735259633778e-5 0.0
8.5100559324249e-6 -4.221884146888724e-6 0.0
2.2289122052689085e-5 5.520416054529154e-6 0.0
5.705383310412536e-5 -1.7148261217124556e-5 0.0
7.521651504824855e-5 -1.8301467955863403e-5 0.0
7.426133588288228e-5 -1.8067053242178016e-5 0.0
6.539614714000546e-5 -1.3621737615116399e-5 0.0
6.807941409895071e-5 -7.982855078941022e-6 0.0
2.980394308906689e-5 -1.0194142481555975e-5 0.0
4.7021529351514766e-5 -1.8142266362390454e-5 0.0
6.268558854982301e-5 -8.244649041058377e-6 0.0
3.233695106556528e-5 -1.4372688478538639e-5 0.0
3.117694682149131e-5 -1.456838229253139e-5 0.0
2.506706859434986e-5 -1.8281966191368178e-5 0.0
1.593460614595836e-5 -1.3649104441924415e-6 0.0
1.5999554555039077e-5 -6.880558767054755e-7 0.0
7.2481087560000035e-6 1.1124020903154203e-6 0.0
9.922205635098431e-6 1.662776065591495e-6 0.0
8.19122701459281e-5 -1.5065133994738049e-5 0.0
1.1403276672204106e-5 -5.903010604971757e-6 0.0
1.6942054456398116e-5 -8.418739234094294e-6 0.0
1.5495817182405426e-5 -7.585905044196599e-6 0.0
8.538289810890993e-5 -1.0199707005276753e-5 0.0
4.318198629511017e-5 -1.6298044086152682e-5 0.0
5.499617096203484e-5 -1.1797935520273513e-5 0.0
6.620233232903612e-5 4.294191870792337e-6 0.0
6.579995083417427e-5 5.069337445873048e-6 0.0
6.390860618717753e-5 4.662998793279057e-6 0.0
6.349316995683278e-5 5.29715240982008e-6 0.0
6.523309441688073e-5 5.431369686480739e-6 0.0
7.242362829300266e-5 -5.860031859651891e-8 0.0
7.435503620113897e-5 -3.75085258482584e-7 0.0
7.495424137997325e-5 4.2694800580244975e-7 0.0
7.674025003651633e-5 8.345829602019413e-8 0.0
7.616991578936906e-5 -7.162167606673986e-7 0.0
4.215071849893557e-6 -1.5019633437877462e-6 0.0
7.402141989410422e-5 -9.659275628164957e-6 0.0
1.1306282963985759e-5 2.8932282765396123e-6 0.0
1.1719150451990158e-5 3.347851483313333e-6 0.0
6.214838388446204e-5 -2.150351398274949e-5 0.0
3.483804607563358e-6 -3.266415135511074e-7 0.0
8.044068342146507e-5 -5.917658395088786e-6 0.0
8.219839640423892e-5 -5.2108842448035196e-6 0.0
8.081248993218782e-5 -5.057203041559168e-6 0.0
8.374900053322918e-5 -5.2497067152420115e-6 0.0
8.400051999096471e-5 -4.504597636767441e-6 0.0
8.558411285934177e-5 -4.5470711720947805e-6 0.0
2.2514098495739585e-5 -9.188054256762673e-6 0.0
2.2501392694701504e-5 -8.384012713728734e-6 0.0
2.0923798978977884e-5 -7.603781600142473e-6 0.0
2.245655578689567e-5 -7.599644763902804e-6 0.0
2.405001005804548e-5 -8.347137653345904e-6 0.0
2.401878675425564e-5 -7.565779624374045e-6 0.0
2.5598544595202218e-5 -8.28053199155975e-6 0.0
2.7540672268222055e-5 -1.9376213628794344e-5 0.0
2.5571771559633407e-5 -7.487446358703457e-6 0.0
2.7152811305663503e-5 -8.197512532655119e-6 0.0
7.280886755351445e-6 1.0809595043279259e-7 0.0
1.5908358030402445e-5 -2.0513751191165966e-6 0.0
2.711307249905752e-5 -8.965869884982327e-6 0.0
2.1002165067654715e-5 -6.8943293694086234e-6 0.0
8.25354449302326e-5 -9.963952280698425e-6 0.0
8.122944365720432e-5 -1.0806689296485244e-5 0.0
4.752081557151529e-5 -2.1332084189631678e-5 0.0
4.745055517450664e-5 -2.2399212701129706e-5 0.0
6.168231768658411e-5 4.859330946945678e-6 0.0
3.0733012876581744e-5 4.836484749592845e-6 0.0
3.324564333124175e-5 4.831724200247061e-6 0.0
3.5066278604234897e-5 5.299916855152162e-6 0.0
3.569723588524542e-5 4.675758628239427e-6 0.0
3.385776072844144e-5 4.0954435253698205e-6 0.0
3.628361944598859e-5 3.7117159141376986e-6 0.0
3.4450977238454855e-5 3.1924099783125955e-6 0.0
3.690731115079757e-5 2.651909575475318e-6 0.0
3.501984198835444e-5 2.273113146065478e-6 0.0
3.788316657667271e-5 1.63476650029118e-6 0.0
3.55342184855126e-5 1.4055438321977402e-6 0.0
3.796714194680834e-5 7.948266314747266e-7 0.0
3.5917450080926943e-5 6.192546571178451e-7 0.0
3.82850652854278e-5 4.128145929251076e-8 0.0
3.639828999529041e-5 -1.3597056982807208e-7 0.0
3.8652169200305875e-5 -6.674708846109037e-7 0.0
3.676403303905998e-5 -8.175047871727991e-7 0.0
3.888189346077163e-5 -1.3019870694304776e-6 0.0
3.7074311597251125e-5 -1.4437730604302448e-6 0.0
3.9105149722019436e-5 -1.8924064867029858e-6 0.0
3.733538618558688e-5 -2.041786931373874e-6 0.0
3.928718392994363e-5 -2.468783004144981e-6 0.0
3.751734317537628e-5 -2.6197682630780038e-6 0.0
3.943563802642973e-5 -3.0164073758151504e-6 0.0
3.7686186299088404e-5 -3.2035654082082257e-6 0.0
3.576450324402251e-5 -2.763401038029951e-6 0.0
3.5950765681132084e-5 -3.3746615363626244e-6 0.0
3.9716690160833625e-5 -3.6243321326142016e-6 0.0
3.5039280935708664e-5 -9.636447571195109e-7 0.0
4.115791492141217e-5 -2.8174513074633255e-6 0.0
4.106277920558923e-5 -1.770698583445241e-6 0.0
3.272649060522101e-5 2.7411166320352456e-6 0.0
4.0557744427763104e-5 -4.97007472602509e-7 0.0
3.4003496233286755e-5 -2.910824311896727e-6 0.0
3.422487267254329e-5 -3.5357125608125114e-6 0.0
3.613329921294433e-5 -3.99617287919747e-6 0.0
3.443564321895415e-5 -4.168627523399906e-6 0.0
3.4084937236909604e-5 4.1979135850611153e-7 0.0
4.028735298520915e-5 8.463572544242339e-7 0.0
3.380509418091109e-5 -2.2848260109384293e-6 0.0
3.88798769316861e-5 3.1012564844165623e-6 0.0
3.631320766086881e-5 -4.6197233207012585e-6 0.0
3.4625021980899686e-5 -4.807568120888946e-6 0.0
3.2754590986140266e-5 -4.336131910699715e-6 0.0
3.1994972590685695e-5 -2.437151841966546e-6 0.0
3.170679068900783e-5 -1.7593634840456146e-6 0.0
3.8013134816864077e-5 -4.4221137829852e-6 0.0
3.8129848467532026e-5 -5.033492199860727e-6 0.0
3.978737163209196e-5 -4.831768301938731e-6 0.0
3.7644294355886834e-5 5.1396583276754734e-6 0.0
3.715223008463738e-5 5.488551547422174e-6 0.0
3.300537186921321e-5 -5.000710070489558e-6 0.0
3.1100419527036995e-5 -4.50972274652494e-6 0.0
3.089046086310705e-5 -3.8605056479968675e-6 0.0
2.914259747669513e-5 -4.004233901988833e-6 0.0
5.653924581062718e-5 -2.248558926409267e-5 0.0
5.5483989076381314e-5 -2.196959116958895e-5 0.0
9.299782698384366e-5 -7.56976793862294e-6 0.0
6.043745872843278e-5 -1.744974124000361e-5 0.0
6.154210806845557e-5 -1.7866601335313688e-5 0.0
3.4597877203547215e-5 -1.4773066993641462e-5 0.0
3.586361095060266e-5 -1.5397212463941763e-5 0.0
8.220445440800058e-5 2.7668421285021684e-6 0.0
6.055743533232354e-5 -9.869636068854444e-6 0.0
3.484405081674612e-5 -5.441308793960503e-6 0.0
2.6029004422326188e-5 -1.65359568950769e-5 0.0
2.6004748171568865e-5 -1.5582976549616644e-5 0.0
2.7025822934194648e-5 -1.5420586869490753e-5 0.0
6.666234433033595e-5 -7.76408951520114e-6 0.0
6.184114613765485e-5 -3.290792955137559e-6 0.0
4.1727980690337784e-5 -1.1526175281954728e-5 0.0
4.040310556557256e-5 -1.1820751279010208e-5 0.0
5.780295668842846e-5 6.797656041563586e-7 0.0
5.756222993132879e-5 2.4279274075830744e-8 0.0
5.938065222267045e-5 -1.1468820334578169e-7 0.0
5.715399063440041e-5 -6.437823173997301e-7 0.0
5.8176793006411466e-5 1.3911148035124267e-6 0.0
6.144053514994651e-5 -4.381939420435011e-6 0.0
6.132304072271595e-5 -4.940549133193663e-6 0.0
5.94710827939296e-5 -5.285886195534232e-6 0.0
4.452367094565307e-5 -8.219450633682705e-6 0.0
4.591390616107456e-5 -8.58352090889195e-6 0.0
4.5964090609276405e-5 -7.9914830507075e-6 0.0
4.732669854498692e-5 -8.32090167064078e-6 0.0
4.7377826336029005e-5 -7.744757514899406e-6 0.0
4.873265613991589e-5 -8.055935905237588e-6 0.0
4.879425287324865e-5 -7.497263337872369e-6 0.0
5.0199226961930686e-5 -7.785476817319158e-6 0.0
5.010087129821162e-5 -8.373756795509563e-6 0.0
5.158869938999067e-5 -8.005276861739173e-6 0.0
5.789504520172748e-5 -9.389927220192596e-6 0.0
5.6490282535029026e-5 -9.077141546493615e-6 0.0
5.505112080046731e-5 -9.43508181644484e-6 0.0
5.5118932169422066e-5 -8.787891960170028e-6 0.0
9.83070563143067e-6 -4.421465212701292e-6 0.0
1.1585633901454387e-5 -1.141643208669789e-5 0.0
1.0542085314236753e-5 -1.0353253640664777e-5 0.0
1.0239693619510721e-5 -9.45394040641766e-6 0.0
9.484730777989721e-6 -9.254381081871566e-6 0.0
5.235467849386391e-5 -1.1876474933734736e-5 0.0
6.948428417146955e-5 -8.16273507888614e-6 0.0
6.920663601041247e-5 -8.979593869555918e-6 0.0
2.3763267165604296e-5 4.798455585949642e-6 0.0
5.4919671197971443e-5 -4.620708110120276e-6 0.0
5.497605175475257e-5 -4.1570651592427265e-6 0.0
5.779291906052435e-5 5.121964578548938e-6 0.0
9.569033877366831e-5 -3.603775964580647e-6 0.0
9.675431252727892e-5 -2.7432322693608906e-6 0.0
9.750109608892755e-5 -2.30249325574302e-6 0.0
3.062076208265405e-6 -1.499536603861571e-6 0.0
3.1111287926463175e-6 -1.7787971583151105e-6 0.0
4.493230113498052e-6 -2.595434864396064e-6 0.0
3.260824107885385e-6 -2.1178289272360294e-6 0.0
4.556815734081135e-6 -2.981396944364473e-6 0.0
3.3630565162317942e-6 -2.4482707533506734e-6 0.0
2.0102954006239803e-6 -1.4865250496763257e-6 0.0
5.099456750190067e-5 -1.2271128739649829e-5 0.0
2.4057529534714113e-5 -6.818992249973812e-6 0.0
1.3455843043844565e-5 -1.2579262089453324e-5 0.0
3.983178401343363e-5 -5.393076469490015e-6 0.0
9.208316797122321e-5 -8.575654595188699e-6 0.0
9.129828710220355e-5 -9.027940812331805e-6 0.0
7.82445910646914e-5 -1.0365177052112539e-5 0.0
7.969857989135527e-5 -1.0354794496260024e-5 0.0
7.980535753955666e-5 -9.400462977049256e-6 0.0
4.660609774774406e-6 6.29672515600952e-7 0.0
3.626687897957717e-5 -2.1531057672755814e-5 0.0
2.4173962146545396e-5 -1.844197783063681e-5 0.0
2.7594312295576576e-6 -3.3190022887663354e-6 0.0
3.834645975652215e-6 -4.646244197034729e-6 0.0
1.942476870618537e-5 -6.893896906675717e-6 0.0
6.315370807371771e-5 5.50076719789372e-6 0.0
6.515006183404683e-5 5.460265922105346e-6 0.0
7.555454228472373e-5 -1.1022515393326094e-5 0.0
7.902785387587126e-5 -1.1452978083273385e-5 0.0
3.402355598779813e-5 -2.1071320193530664e-5 0.0
3.8380521165635884e-5 -2.187326519596728e-5 0.0
3.946328767715579e-5 -2.1544417222645036e-5 0.0
8.662563275877159e-5 -1.1254058320390026e-5 0.0
8.624836271075854e-5 -1.2250489320598486e-5 0.0
8.508553372494654e-5 -1.3366035843113463e-5 0.0
9.151858742264521e-5 -3.6897311372695905e-6 0.0
9.016612666367727e-5 -3.843855426851336e-6 0.0
8.854437360755708e-5 -4.568413180005995e-6 0.0
8.864413216046925e-5 -3.9480662452865705e-6 0.0
1.642570438087482e-5 -6.892333252039965e-6 0.0
8.577655016418031e-5 -3.850273450339694e-6 0.0
8.394408967057203e-5 -3.799048352533353e-6 0.0
6.171828853951985e-5 -1.689346161049393e-5 0.0
9.730044441745497e-6 -1.0048734466696298e-5 0.0
8.806555327158524e-6 -9.114515656545864e-6 0.0
8.48094396716344e-6 -8.290216700096197e-6 0.0
7.826562109055292e-6 -8.092166647358002e-6 0.0
9.772904066005858e-5 -1.9505085456795535e-6 0.0
9.567659875510473e-5 -2.0151233051279296e-6 0.0
9.677671012700263e-5 -1.4071931543613032e-6 0.0
8.269185140214343e-5 -1.5151171520911274e-5 0.0
4.166860872835841e-5 -8.671761008734975e-6 0.0
8.734702120537975e-5 -1.1302325544146573e-5 0.0
8.701469675304953e-5 -1.2232985296075546e-5 0.0
8.803100028104184e-5 -1.1315562133101826e-5 0.0
8.779385196221224e-5 -1.2244175060664705e-5 0.0
8.881275011247805e-5 -1.1175887026823469e-5 0.0
8.906941136632274e-5 -1.0352334644885443e-5 0.0
8.97403679646997e-5 -1.0286175928775421e-5 0.0
4.860072922784163e-5 -2.294746133668499e-5 0.0
4.7539907200306854e-5 -2.355015496816953e-5 0.0
4.6195942749414004e-5 -2.289160696072029e-5 0.0
3.326584776375851e-5 -5.684137425867352e-6 0.0
2.3281057279817975e-6 -1.905450271568503e-6 0.0
3.4567195470397616e-6 -2.791789498814634e-6 0.0
2.439588426789099e-6 -2.1808548020267683e-6 0.0
3.313880760244069e-5 -2.1551383432171414e-5 0.0
3.198262511076758e-5 -2.066048778596178e-5 0.0
9.4997809038284e-5 -5.810478328725993e-6 0.0
7.510690649254362e-6 1.440917450665952e-6 0.0
5.372799256749513e-5 -9.202360638613198e-6 0.0
5.384640264784747e-5 -8.534742685628984e-6 0.0
9.077466896173351e-5 4.581011529922399e-7 0.0
9.354405788429973e-5 2.449228925894501e-7 0.0
8.663114719625453e-5 -9.30691041807618e-6 0.0
1.690636301276253e-5 -1.38613071449397e-5 0.0
1.72064908134002e-5 -1.49080282740463e-5 0.0
7.371223688931233e-5 -1.1402630907999235e-5 0.0
7.405320702284154e-5 5.416526421924071e-6 0.0
9.651310343918757e-5 -4.2099488696131395e-6 0.0
9.751916608433458e-5 -3.013721959175696e-6 0.0
9.789750171189374e-5 -2.4630458056294874e-6 0.0
7.234809852418139e-5 5.089132991541364e-6 0.0
8.390808397302033e-5 -9.146261763909473e-6 0.0
4.646849220852867e-5 -1.9957799999780277e-5 0.0
8.530823222572081e-5 -5.2919888138695575e-6 0.0
8.12912000127718e-5 -1.0028031206156565e-5 0.0
3.1167848065893927e-5 -1.3612850356701735e-5 0.0
1.7438327758326306e-5 -1.2907064223574689e-5 0.0
9.296936933518326e-5 -3.386015694640096e-6 0.0
7.768767859502634e-5 4.6951790435038625e-6 0.0
3.194316987276022e-5 -2.1652820054764477e-5 0.0
1.4509475417095892e-5 -6.241015490826628e-6 0.0
5.4599767353498286e-5 -5.184295814943397e-6 0.0
8.107993273642415e-5 -1.5067997888222502e-5 0.0
8.089610309198088e-5 -1.5998949428023727e-5 0.0
1.8270702630370038e-6 -2.229928683832229e-6 0.0
6.323849232199108e-5 -2.0956537261480314e-5 0.0
6.292107944881034e-5 -2.1883707107220396e-5 0.0
3.937836886538683e-5 -2.275213861273473e-5 0.0
4.052690934412442e-5 -2.2278707703462516e-5 0.0
4.05312238956992e-5 -2.1182249825141177e-5 0.0
4.161595851583901e-5 -2.186527104325572e-5 0.0
4.0499778348187206e-5 -2.3196669528936042e-5 0.0
3.360716076575134e-5 -1.6577857541466767e-6 0.0
3.149332785264743e-5 -1.1352479764841972e-6 0.0
1.3657655850263973e-5 -2.1185458371332563e-6 0.0
2.5222995172488812e-5 5.317782529217268e-6 0.0
2.5655844398727356e-5 5.057937103825435e-6 0.0
6.2051653605645e-5 3.8245246931939494e-6 0.0
7.915110508362217e-5 -1.7005976334689623e-5 0.0
7.813374802724272e-5 -1.782769291112765e-5 0.0
8.055807618275782e-6 -8.88590408243348e-6 0.0
7.115219265251718e-6 -7.791601515050187e-6 0.0
9.725152679966187e-5 -1.438912793446263e-6 0.0
1.588914753790713e-5 -8.415582207886409e-6 0.0
1.4261917138823262e-5 -7.687201761974388e-6 0.0
9.019163267084246e-5 4.728000134713538e-6 0.0
9.400075761110458e-5 -6.4791895648405646e-6 0.0
9.359407086286337e-5 -7.33875531299082e-6 0.0
5.6258070585043136e-5 -5.374679196217901e-6 0.0
6.589435068290484e-5 -2.128353395040074e-5 0.0
6.459606074660382e-5 -2.2139444201079703e-5 0.0
2.854823222486789e-5 -8.82355239399395e-6 0.0
2.867840677117413e-5 -8.06232530440685e-6 0.0
4.1673586868910374e-5 -2.0785993512308642e-5 0.0
8.73464258299444e-5 -1.011795045363239e-5 0.0
5.0254111174806405e-5 -7.223188310000752e-6 0.0
4.896335015258491e-5 -6.939518022230905e-6 0.0
2.2798246090169538e-6 -2.8659964360265167e-6 0.0
2.265913140816175e-5 8.668842396807921e-6 0.0
4.595545048770434e-5 -7.390740914591918e-6 0.0
2.9962050387987896e-5 -1.948446569336527e-6 0.0
3.031811254245338e-5 -2.6052362712052755e-6 0.0
1.8150180587059e-5 -1.9149194265593827e-6 0.0
6.313087697413986e-5 -4.547165605902674e-6 0.0
4.141344963240643e-5 -5.200230390173668e-6 0.0
4.1416930722140835e-5 -4.663599462345318e-6 0.0
4.30027297246193e-5 -5.024598615759247e-6 0.0
4.2979201082672265e-5 -4.523614437616386e-6 0.0
4.449488619294606e-5 -4.818538879463641e-6 0.0
4.450087655049318e-5 -4.352324016989443e-6 0.0
4.294122852052487e-5 -4.044139711694636e-6 0.0
4.4483364074286954e-5 -3.881501878527848e-6 0.0
4.2920608821316335e-5 -3.5827646086854163e-6 0.0
4.449248662045365e-5 -3.4300477519844783e-6 0.0
4.592072591233964e-5 -4.633862696377401e-6 0.0
3.764997990680075e-6 -1.2649558583518208e-7 0.0
6.107173544773177e-5 -5.5874660829551074e-6 0.0
4.194602516591641e-5 -8.062195959072462e-6 0.0
3.821509926917592e-5 4.241339404991529e-6 0.0
4.1332337076829356e-5 3.398823107016943e-6 0.0
4.1631391193655236e-5 2.3105845326409924e-6 0.0
4.036146014898727e-5 4.70171027097766e-6 0.0
3.962533381476527e-5 2.0768455630261762e-6 0.0
4.2281742805120775e-5 1.4590449221602502e-6 0.0
4.473495376427984e-5 1.4974777822128403e-6 0.0
4.3079144950988684e-5 4.125578863388637e-6 0.0
5.831083989074518e-6 -3.4551259053814452e-6 0.0
5.978101409084184e-6 -3.948052019908952e-6 0.0
9.689983695793855e-5 5.224414792744072e-7 0.0
9.388824938017873e-5 1.1505007574983604e-6 0.0
9.371624758588855e-5 1.3687335635960154e-6 0.0
7.624759125994445e-5 -1.8578921121552945e-5 0.0
7.495900919292708e-5 -1.937708939910092e-5 0.0
2.5882150176813043e-5 -1.464992909251814e-5 0.0
2.694033180045676e-5 -1.4461198315909143e-5 0.0
2.4811860222770284e-5 -1.4778866002484678e-5 0.0
2.8265249438244827e-5 -2.234200920096193e-6 0.0
4.3846639848797156e-5 2.430147357334514e-6 0.0
4.611387066719644e-5 -3.7068738044782605e-6 0.0
4.602002663697442e-5 -3.2513019324554665e-6 0.0
4.447130557371111e-5 -2.983189212081223e-6 0.0
4.596970660208275e-5 -2.8391677215479477e-6 0.0
4.452432400618299e-5 -2.5598691282582215e-6 0.0
2.651036405201319e-5 -1.8634581411983535e-5 0.0
9.666329048112352e-5 8.08831999447832e-7 0.0
4.0049157164002206e-5 5.396511730337256e-6 0.0
5.977131040521065e-5 3.984538049724183e-6 0.0
5.9944917265371244e-5 2.967694431653637e-6 0.0
5.761275772058938e-5 2.865561096501574e-6 0.0
2.7956195400732868e-5 4.730725289640339e-6 0.0
3.3123281099355016e-5 4.814662554118096e-6 0.0
3.137148746713234e-5 5.050525655695694e-6 0.0
2.9870194817384057e-5 4.9924301310583495e-6 0.0
6.689801064753495e-5 4.8098798692350915e-6 0.0
8.38729680038355e-5 -1.4239924456981268e-5 0.0
8.345497030741604e-5 -1.5329375243370622e-5 0.0
2.51367376732149e-5 -1.927192470364576e-5 0.0
4.274509256147726e-5 -2.146851180333977e-5 0.0
4.272209755897173e-5 -2.25197447319588e-5 0.0
4.378777021153857e-5 -2.2126341013065426e-5 0.0
4.390111431643044e-5 -2.3299883529963247e-5 0.0
7.157574097720119e-5 3.7665185265974703e-6 0.0
6.959815762302406e-5 3.259375220343027e-6 0.0
7.210944521238521e-5 3.052068863790205e-6 0.0
7.416930897519538e-5 3.436451847093954e-6 0.0
5.531245873096036e-5 -8.185013671758165e-6 0.0
5.417813383702904e-5 -7.895033401834663e-6 0.0
4.489015198992938e-5 -2.2724480366534068e-5 0.0
2.9640309818834834e-5 -4.747992883669147e-6 0.0
1.4380563286265164e-6 -1.7027352881689824e-6 0.0
4.032289585031786e-5 2.1851735039398377e-7 0.0
4.2539734712506126e-5 -3.414564821341731e-7 0.0
4.2750553208172796e-5 -9.411905487758875e-7 0.0
4.472651400795206e-5 -7.99098433986067e-7 0.0
4.476235313872815e-5 -1.2895134209636322e-6 0.0
4.4558799310788885e-5 -2.776813709729661e-7 0.0
4.312407546207853e-5 -1.4424544549320932e-6 0.0
4.4837590514246284e-5 -1.7409541913556796e-6 0.0
4.6605547699335394e-5 -6.564068455843507e-7 0.0
6.714784094610016e-5 3.4357669685879876e-6 0.0
4.336293035952128e-5 -1.922634073399578e-6 0.0
9.803064617401308e-5 -7.982544814205293e-8 0.0
3.8198165483596555e-5 -5.633376740926026e-6 0.0
4.8202098179614494e-5 -1.857602809556424e-5 0.0
4.9501574854000304e-5 -1.8124522132857686e-5 0.0
4.2476252967486596e-5 2.627556219782452e-7 0.0
4.468052115748378e-5 2.6414797170689986e-7 0.0
5.814529022291198e-5 -8.752233826073187e-6 0.0
7.438753543608304e-5 -1.701175030294293e-5 0.0
7.323347965537344e-5 -1.791394249571345e-5 0.0
7.311495874168288e-5 -1.8925792397318885e-5 0.0
7.216049888705794e-5 -1.8777563403669736e-5 0.0
7.209601216195765e-5 -1.9698779712221607e-5 0.0
7.108794946263204e-5 -1.9619783544361948e-5 0.0
8.252780841458677e-5 -8.600048009668885e-7 0.0
8.087845800506395e-5 -1.590657401289316e-6 0.0
8.169131700556779e-5 -2.18835618788145e-6 0.0
7.927849084697444e-5 -2.344595881705038e-6 0.0
8.002106387457899e-5 -2.940866662595599e-6 0.0
7.764017462258405e-5 -3.1228104128232555e-6 0.0
7.842544754279003e-5 -3.7243361125176678e-6 0.0
7.68630535638525e-5 -2.5138052067686197e-6 0.0
7.528931259852602e-5 -3.2897082670385155e-6 0.0
8.068792263449714e-5 -3.5293425666513453e-6 0.0
7.448992449658982e-5 -2.6967369920482477e-6 0.0
7.908198478364845e-5 -4.319786894032619e-6 0.0
7.695174650041228e-5 -4.509747820827392e-6 0.0
7.751313215557483e-5 -5.113151531423767e-6 0.0
7.60876053647984e-5 -1.9448470414856754e-6 0.0
7.997831470290185e-5 -9.623384225901227e-7 0.0
8.132655004155453e-5 -4.15588039110942e-6 0.0
8.428099713601502e-5 -2.1355456454952936e-6 0.0
8.277235110478717e-5 -3.3639587819027416e-6 0.0
5.547402378485983e-5 1.401983418265881e-7 0.0
3.304787273547263e-5 5.242458829488111e-6 0.0
4.8400898962622094e-6 -3.539246907817268e-6 0.0
4.485378864914545e-6 -5.137518664460385e-6 0.0
5.462029083389375e-6 -6.2739213559052e-6 0.0
4.48758484636209e-5 -2.1694064364340598e-5 0.0
5.9689283382345514e-5 -9.118853276333635e-6 0.0
5.73143027904732e-5 -1.6274346450627845e-6 0.0
5.53266709534856e-5 -1.9920911808780557e-6 0.0
5.5701907306259096e-5 -1.5189571091442422e-6 0.0
5.5347534399552256e-5 -2.4779960460502e-6 0.0
5.698853567924312e-5 -2.671305383587365e-6 0.0
5.517944787326421e-5 -2.9715692553884413e-6 0.0
5.498312046898117e-5 -3.4349636904839327e-6 0.0
5.360513165660564e-5 -3.220089284411079e-6 0.0
5.957898301780801e-6 -6.10086602031113e-6 0.0
6.396157893361122e-5 5.527063412537715e-8 0.0
7.671470723919013e-5 1.5674047635628719e-6 0.0
7.377573367771471e-5 1.6897386267737905e-6 0.0
3.7269266657034464e-6 9.001378806887441e-7 0.0
7.703505879606557e-6 1.9220680913298547e-6 0.0
7.295402261265433e-6 1.6527402009441514e-6 0.0
6.502484704480323e-5 -1.7195533673172197e-6 0.0
7.821737801623885e-6 -7.146499350456725e-6 0.0
9.14150334856875e-6 -8.36639170956062e-6 0.0
9.985129091940036e-6 -8.653011060250809e-6 0.0
9.905451595007331e-6 -7.938095840654283e-6 0.0
1.0811142522834186e-5 -7.985967795096667e-6 0.0
4.1076516761509294e-5 -2.3158161667085624e-6 0.0
4.6304198338624845e-6 3.9335019636924795e-7 0.0
1.963068537378699e-5 -5.53512829190217e-6 0.0
1.5966696415644088e-5 -5.452851009610268e-6 0.0
4.44839752308105e-5 8.613917228671601e-7 0.0
9.636722048335961e-6 4.701256771194187e-6 0.0
7.170991005937252e-5 -1.7578370726847733e-5 0.0
6.16354408857434e-5 -5.529700390417462e-7 0.0
9.557498287536643e-5 -5.376115528697573e-6 0.0
7.617655024484735e-5 -3.889344087643101e-6 0.0
7.385409986885476e-5 -4.053745612573979e-6 0.0
7.404280776893882e-5 -1.9159319462781685e-5 0.0
9.823982202860883e-5 -2.1984514976507428e-7 0.0
9.648752232238803e-5 -5.592780837803757e-7 0.0
9.690103145590852e-5 -7.548515507534372e-7 0.0
9.613909638640943e-5 -3.1692421606679204e-7 0.0
9.480454687322113e-5 -1.0283592408254962e-6 0.0
9.587102568624337e-5 -6.627243425463764e-8 0.0
9.374101243518944e-5 -3.125670674157823e-7 0.0
9.421823895510284e-5 -6.843077823664266e-7 0.0
9.670377341972504e-7 -6.979302842909818e-7 0.0
9.90353512335171e-5 -6.888809328548681e-7 0.0
9.789680912248872e-5 -1.3056013020814104e-6 0.0
9.854828304945205e-5 -7.089665614926034e-7 0.0
9.802509353838571e-5 -1.416173294579733e-6 0.0
6.059124165092076e-5 2.1214751732640163e-6 0.0
7.733363841248817e-5 -1.7606045906617714e-5 0.0
7.25937876935566e-7 -7.525427858076226e-7 0.0
9.926951308720838e-5 -7.567346431357872e-7 0.0
3.139012101386646e-5 4.258354101249489e-6 0.0
8.055141064746057e-5 5.341571844246474e-7 0.0
2.7023797099880643e-5 4.1015732842269343e-7 0.0
2.9159753109426966e-5 7.002976632593007e-7 0.0
2.8960083728322134e-5 1.5472846911398437e-6 0.0
2.928482061287431e-5 -5.223256799348985e-8 0.0
3.1145843679351744e-5 1.236116157103097e-7 0.0
3.150281211369228e-5 8.708490399015445e-7 0.0
3.115211761926209e-5 1.7663723818362422e-6 0.0
2.891308476290605e-5 2.3508538479437215e-6 0.0
2.6930264086563423e-5 3.0167831269300846e-6 0.0
2.7441613986910176e-5 -4.887275765455508e-7 0.0
8.607554553143844e-5 -1.3119320257941207e-5 0.0
9.79432359865463e-5 1.9453889022231808e-7 0.0
4.1791936053654584e-5 -1.9711553366056612e-5 0.0
1.2777145556074206e-5 -1.2653381046933394e-5 0.0
4.619602168586552e-5 -1.8984921954612646e-5 0.0
3.508425678978245e-5 -2.078084842119716e-5 0.0
3.5094164737710737e-5 -2.1843348734305977e-5 0.0
4.7593062058233996e-5 -3.0783641338713117e-6 0.0
6.504478324987225e-5 -3.1329782996374487e-6 0.0
8.665639787061546e-5 2.930711129504214e-6 0.0
8.781410834568827e-5 2.4544340162701204e-6 0.0
8.523127602848849e-5 2.626086098970397e-6 0.0
5.889308585700237e-6 -3.07086319902925e-6 0.0
1.1865090624451834e-5 -1.2301771760833063e-5 0.0
2.7772681184683412e-5 5.794206131822648e-6 0.0
2.5294536775026316e-5 6.067570796084767e-6 0.0
7.230358932971554e-5 5.903465583642316e-6 0.0
3.460185484520437e-5 5.495040924811353e-6 0.0
9.173500072455896e-5 -7.404302210040723e-6 0.0
4.579124934551407e-5 -1.5541645884166015e-5 0.0
7.005686256666247e-5 4.812647371089892e-6 0.0
7.207714623110034e-5 5.100492837175777e-6 0.0
2.9261506471356316e-5 3.6112206528445365e-6 0.0
2.428234617826405e-5 -1.9494934653569533e-5 0.0
9.130646347631647e-5 -8.377365853177399e-6 0.0
1.425673004469976e-5 -1.2664625631944943e-5 0.0
1.5161686806420358e-5 -1.3529570275226884e-5 0.0
1.46406466015598e-5 -1.3791501565202713e-5 0.0
2.354215738105766e-5 -5.341184619906625e-6 0.0
5.6412500964353545e-5 -3.760584822325041e-6 0.0
6.326420522112732e-5 -2.3076256261361446e-6 0.0
3.7880932552814534e-5 -3.8018765928773798e-6 0.0
3.971116512543998e-5 -4.256068592460527e-6 0.0
9.602568567320801e-5 1.281789877856245e-6 0.0
9.126471447748711e-5 2.865858082096808e-6 0.0
3.9321005181081335e-6 1.2860999651604827e-6 0.0
9.461964717578888e-7 -7.724130228913085e-7 0.0
4.599262150231888e-5 -4.166194709738052e-6 0.0
1.402319528975683e-6 -4.283787206903504e-7 0.0
3.456938453903991e-6 -8.472179614367357e-7 0.0
4.565102358437039e-5 -1.818895978411904e-5 0.0
6.510589004998049e-5 4.867912746624617e-6 0.0
3.4865452895891436e-5 4.915173572866256e-6 0.0
6.250237158919216e-5 -8.869573014341569e-6 0.0
4.62071765101203e-5 -2.424154804547866e-6 0.0
8.131561762130595e-5 -8.453089032699208e-6 0.0
9.449905867800547e-5 -5.617669104530391e-6 0.0
2.9922492319101504e-5 -1.383323223692404e-5 0.0
3.0011604209027382e-5 -1.4787427562030662e-5 0.0
2.875416396484032e-5 -1.3934699767937385e-5 0.0
2.7454864654493995e-5 -1.3097940702616848e-5 0.0
7.4246881640865e-7 -8.35458958709728e-7 0.0
1.4368586082558225e-6 -1.5893983012537176e-6 0.0
1.6159997153029172e-6 -1.6361086961656234e-6 0.0
2.5651968585754613e-5 -9.057860642723683e-6 0.0
2.4200141703879403e-5 -9.235934177645864e-6 0.0
9.911749887567237e-5 -7.233327416138724e-7 0.0
5.54223176361634e-5 -2.3104914090934226e-5 0.0
5.436476380090106e-5 -2.256476579241801e-5 0.0
5.4293089124793615e-5 -2.3694745329136676e-5 0.0
5.323521016356842e-5 -2.314844232765975e-5 0.0
5.207140361700633e-5 -2.3690603275581154e-5 0.0
5.2038485238301944e-5 -2.2560147629141778e-5 0.0
5.439239083906028e-5 -2.1438822669685887e-5 0.0
7.031391268183896e-5 5.007473113820862e-6 0.0
1.1485356006161526e-5 -1.554274236525928e-6 0.0
1.3403301806069843e-5 -2.7532262929676e-6 0.0
1.1585569549988711e-5 -2.812822877170982e-6 0.0
6.408339261497997e-5 -8.47215923521294e-6 0.0
1.8438223896698896e-5 5.448484722017636e-6 0.0
5.136399135929011e-5 -8.650061542350104e-6 0.0
1.3578821232095704e-6 -6.886045084938523e-7 0.0
3.096576076958968e-5 -2.0800046730401054e-5 0.0
2.987918640096487e-5 -2.079455524537702e-5 0.0
3.0136483920530835e-5 -1.9931993394791336e-5 0.0
3.503317372050101e-5 -1.971811529927876e-5 0.0
2.997922959552191e-5 -1.2767212459353553e-5 0.0
1.2800184335817202e-5 -6.054058227336429e-6 0.0
7.199387437286498e-6 -4.879093518888437e-6 0.0
9.856592402133432e-5 -4.3516256452871476e-7 0.0
9.732120335003496e-5 -8.784501556669112e-7 0.0
1.8956610202195436e-5 -1.5782568988625193e-5 0.0
2.3085489613054117e-5 -1.750681946305005e-5 0.0
2.212987241113857e-5 -1.7637047776829328e-5 0.0
2.1007923617679097e-5 -1.6684238683220525e-5 0.0
2.1129039065615394e-5 -1.767535233043724e-5 0.0
6.12553064353325e-5 5.117818292231079e-6 0.0
3.8772400652959086e-5 5.085823507478791e-6 0.0
6.706416087328226e-5 -2.0579883618765767e-5 0.0
6.803132776940386e-5 -2.0919740374730817e-5 0.0
6.912425047780532e-5 -2.0209138310633765e-5 0.0
6.676986091632626e-5 -2.176979578599286e-5 0.0
3.2498689980682946e-5 -1.3570996672430194e-5 0.0
5.833168325758091e-5 -1.6614329576548145e-5 0.0
3.5065772343861653e-5 5.287674620984247e-6 0.0
4.0785098449793514e-5 -1.1946059818072308e-6 0.0
9.9296871728367e-5 -7.957849348044618e-7 0.0
9.861505739324518e-5 -1.5481731449215427e-6 0.0
9.832218233837966e-5 -1.7140388186545975e-6 0.0
2.005451258719185e-5 -1.673909305015284e-5 0.0
1.9147644194445103e-5 -1.673357589870305e-5 0.0
2.93216783143834e-5 -1.1757104233380068e-6 0.0
2.626841481558477e-5 -1.3353911542895394e-5 0.0
9.371523125873015e-5 -4.860980078710157e-6 0.0
7.62255519725812e-5 6.115322183673979e-6 0.0
4.578417002847561e-5 -5.101492632178738e-6 0.0
4.717918478097113e-5 -4.874518179581494e-6 0.0
6.138023245735064e-5 5.389157850094321e-6 0.0
7.581262169628581e-5 -1.5115437953553179e-5 0.0
4.4501378493829865e-5 -1.591968340538793e-5 0.0
4.455162245647084e-5 -1.688370158957423e-5 0.0
1.041673272175353e-5 2.121398177769693e-6 0.0
2.39054910730864e-5 -1.3621856610513702e-5 0.0
2.271776101413416e-5 -1.3605697746181634e-5 0.0
2.145729810267743e-5 -1.2727011582904744e-5 0.0
2.156412070302324e-5 -1.3674704896104121e-5 0.0
1.819140396413463e-5 -1.2007495965517277e-6 0.0
1.823690305221874e-5 -4.863773811848754e-7 0.0
2.0498450689184306e-5 -2.574329861444002e-6 0.0
6.77996031680859e-5 -2.1987345104897792e-5 0.0
6.4932730568102e-5 -1.6603384774622144e-5 0.0
6.355766687683271e-5 -1.728893437412609e-5 0.0
6.492339218684317e-5 -1.7815891190909102e-5 0.0
6.354954962597072e-5 -1.8528558834296126e-5 0.0
6.449597563217466e-5 -1.8906219327204813e-5 0.0
6.618849610154984e-5 -1.6939672143351287e-5 0.0
6.737788861025672e-5 -1.718394151593105e-5 0.0
6.345105623282203e-7 -8.161775374532108e-7 0.0
9.94001311596149e-5 -7.801769135780739e-7 0.0
8.432932456525652e-5 -1.3172134722889136e-5 0.0
6.095539269945537e-5 -2.2127315764139713e-5 0.0
9.232798419373863e-5 2.134766195945884e-6 0.0
5.887156399773576e-5 -2.1246862748216082e-5 0.0
5.87074779373203e-5 -2.2329920568316264e-5 0.0
7.631621780233752e-5 -9.978257780443101e-6 0.0
6.817856768998002e-5 -7.240978649610893e-6 0.0
6.682393533396023e-5 -7.029487327460626e-6 0.0
3.164700510536296e-5 -1.853034616040018e-5 0.0
1.8030400165919198e-5 -1.1882726397857433e-5 0.0
7.53179247230377e-5 -5.3605315244418464e-6 0.0
8.112485098371196e-5 -1.4111579567285437e-5 0.0
3.531730626375429e-5 -1.0185000318353555e-5 0.0
3.665733991106631e-5 -9.959026156283523e-6 0.0
3.662160382354871e-5 -1.0753167641248689e-5 0.0
3.6721042566440894e-5 -9.202840905986922e-6 0.0
3.528588249642025e-5 -1.0998481483277134e-5 0.0
3.796125525005099e-5 -9.816663951464706e-6 0.0
3.810559917855528e-5 -9.11870632886841e-6 0.0
3.8415888735381916e-5 -8.3610399848081e-6 0.0
7.551771781101918e-5 4.833728678130728e-6 0.0
7.5178925171943664e-6 2.0975356374994714e-6 0.0
7.297231374731921e-5 -3.46961946335241e-6 0.0
7.970484164157514e-5 -8.556975143882049e-6 0.0
1.35005380874252e-5 4.6379776131214945e-6 0.0
1.3913188306685873e-5 -1.886033466390676e-7 0.0
2.041969730357739e-5 -1.0364213853111104e-6 0.0
1.567384949916552e-5 -1.0938111918162979e-5 0.0
3.5256113307376674e-5 -8.656964715284167e-6 0.0
2.7149928272562343e-5 -7.390724030159269e-6 0.0
2.9088154954305114e-5 -7.303110736364849e-6 0.0
3.034576922716116e-5 -8.052029632577352e-6 0.0
4.968571701248609e-5 -2.2485864097212026e-5 0.0
5.088651682882386e-5 -2.308284802712566e-5 0.0
5.083770111757515e-5 -2.4333236574366304e-5 0.0
5.206287826939727e-5 -2.1442866104081235e-5 0.0
7.981043161862762e-5 -1.4905579170738651e-5 0.0
3.6440109642218614e-5 -5.231307930283753e-6 0.0
7.391987429919533e-5 -8.684143166216526e-6 0.0
3.497867965078737e-5 -1.8671300977245725e-5 0.0
5.440833064760374e-5 -2.033820852404494e-5 0.0
3.71687721891364e-5 -2.232215328005054e-5 0.0
9.192961079916586e-5 -4.0735444340076234e-8 0.0
5.0041928149189196e-5 -8.991804418377203e-6 0.0
1.1314305453445913e-5 -5.21465348637566e-6 0.0
3.806718708878521e-5 -1.4805656682781459e-5 0.0
3.9350366815648956e-5 -1.5441066736448385e-5 0.0
3.542495998678639e-5 -1.3548252452016028e-5 0.0
3.837559078510285e-5 -1.976730971939931e-5 0.0
6.023669856107655e-5 -1.2278522211426682e-5 0.0
5.880494130627353e-5 -1.2795860106304642e-5 0.0
6.011628372158032e-5 -1.3156949497857155e-5 0.0
7.217250588865535e-5 -2.89224192739208e-6 0.0
4.5769153902267946e-5 -1.4632432607350141e-5 0.0
3.271111947646791e-5 -1.2286713786760466e-5 0.0
5.7954240768483073e-5 -5.057361155204244e-6 0.0
5.766288925066356e-5 -5.621065502240643e-6 0.0
1.2130083295796791e-5 -8.897621302143198e-6 0.0
2.639831927632824e-5 -1.764739213307735e-5 0.0
6.934043141436648e-5 -1.9098095387166907e-5 0.0
5.7442826173193155e-5 -1.1409482236116381e-6 0.0
5.3415077848089475e-5 -1.5770515345570972e-5 0.0
5.211297730372554e-5 -1.6242743765236877e-5 0.0
5.20817259628136e-5 -1.72393977514323e-5 0.0
5.081165077566131e-5 -1.6698366340020143e-5 0.0
5.080594718011818e-5 -1.7708632219125258e-5 0.0
5.3323438858816005e-5 -1.7744752542605652e-5 0.0
6.200511910719843e-5 2.6151751281333004e-7 0.0
4.179991399561829e-5 -1.2305756981659228e-5 0.0
4.053679763400083e-5 -1.2601076184597126e-5 0.0
5.758347684414997e-5 -1.1603258296144177e-5 0.0
3.4081303031885285e-5 -1.3771375537451716e-5 0.0
5.7581892585075584e-5 -2.2947097373442303e-5 0.0
4.317722830706214e-5 -1.5355789417118034e-5 0.0
5.0851898064456864e-5 -1.5737905281444773e-5 0.0
7.296992494063985e-5 -1.9915163282382564e-5 0.0
4.5895149774167745e-5 -9.228696313072535e-6 0.0
9.47078094688751e-5 -2.7149405756162795e-6 0.0
5.096151289954398e-5 -1.3085172878196048e-5 0.0
2.2421068371959737e-5 -1.0007571430937337e-5 0.0
4.27828339035865e-5 5.194528740378581e-6 0.0
7.210434199015368e-5 -1.6465163042239834e-5 0.0
9.037422715189923e-5 2.127807317940831e-6 0.0
1.4414717554715388e-5 1.1040786726255976e-6 0.0
1.4891723398272103e-5 1.72229452708917e-6 0.0
1.662092044858593e-5 8.312809609827661e-7 0.0
1.7504086085183067e-5 1.572269889499228e-6 0.0
1.920188170343711e-5 1.1118874776251096e-6 0.0
7.157061012575159e-5 -4.231901371136681e-6 0.0
4.165308034651136e-5 -2.3050246953067826e-5 0.0
4.7285949570338855e-5 -8.952461642828108e-6 0.0
2.7559028259076684e-6 -9.234355243288353e-7 0.0
3.0025325727193598e-5 4.792026382810478e-6 0.0
2.812612805289857e-5 5.0706330014928325e-6 0.0
6.792411847440274e-5 2.6916987006752673e-6 0.0
4.064351331522998e-5 -1.9045905986891748e-5 0.0
4.647885822602981e-5 -2.185227363974599e-5 0.0
4.000151355195862e-5 -6.0113235095625705e-6 0.0
5.625852374484037e-5 -1.1265420927158292e-5 0.0
5.481330670182964e-5 -1.0882697843006891e-5 0.0
5.500876402638677e-5 -1.009848651322358e-5 0.0
5.8178969306162066e-5 2.0972301293558253e-6 0.0
3.820792647587032e-5 -1.5759416956355672e-5 0.0
2.5570255461694683e-5 -6.719889144977671e-6 0.0
3.9090780945109294e-5 -1.1196748122518676e-5 0.0
4.634454473142392e-6 -3.7440358426069087e-6 0.0
5.336824536232245e-5 -4.8654505367169045e-6 0.0
2.0825602590048333e-5 -1.567252444804751e-5 0.0
5.371421593055379e-5 -1.14557727826909e-5 0.0
3.182146483824131e-5 -1.958395050937283e-5 0.0
7.109116163667961e-5 -7.52615719016986e-6 0.0
4.85000420837905e-5 -1.1448545972384105e-5 0.0
4.952900094670658e-5 -1.7139097583345033e-5 0.0
8.903128445191033e-5 -7.334050116115885e-6 0.0
1.815836728924766e-5 -1.5786844346975845e-5 0.0
9.619797293808077e-5 -4.878275577385906e-6 0.0
4.019584584359833e-5 -8.622739829259326e-6 0.0
4.8404371956492854e-5 -1.3034130322962094e-5 0.0
8.290458481880244e-6 -3.6345055662999362e-6 0.0
8.847292731833478e-5 -5.229988983217064e-6 0.0
5.691620597762931e-5 -1.8165433270898844e-5 0.0
2.712410966019477e-6 -1.1303144528666296e-6 0.0
5.169724878451547e-5 -6.922390036915629e-6 0.0
5.1655542953087024e-5 -7.426124220617356e-6 0.0
9.389787536910958e-5 -1.5337630240546698e-6 0.0
5.653485765624284e-5 -2.357294052062669e-5 0.0
1.696450028093875e-5 -1.1879241844970593e-5 0.0
9.711527796771896e-5 -2.8201383468178216e-6 0.0
5.3623703374689925e-5 -9.799687837085104e-6 0.0
4.984253515754172e-5 -1.111163937201146e-5 0.0
6.244756090451007e-5 -1.5877106056228138e-5 0.0
6.111369236829313e-5 -1.5473740519513496e-5 0.0
5.71879785145036e-5 -1.6153401304421195e-5 0.0
4.724823486971619e-5 -9.622292027980689e-6 0.0
5.898477985838633e-5 -2.399624614192473e-5 0.0
6.371327631278251e-5 -2.3302468721666103e-5 0.0
4.4580269546366696e-5 -2.4388220973918455e-5 0.0
4.8188208447385424e-5 -2.4585900919927625e-5 0.0
7.043435422212918e-5 -2.1541395614093056e-5 0.0
7.002405507746333e-5 -2.0625593474302867e-5 0.0
3.517312566893636e-5 -2.2843086319437043e-5 0.0
2.7333672711662915e-5 -2.0786682712534337e-5 0.0
6.134233993154645e-5 -2.3697707714382327e-5 0.0
3.762022916173473e-5 -2.3458494548040823e-5 0.0
4.259861948206215e-5 -7.4994684059864575e-6 0.0
8.618607700176746e-5 -3.121774110430518e-6 0.0
7.203831034952298e-5 -1.2177397071608204e-5 0.0
7.17007799396551e-5 -1.3156677971654277e-5 0.0
3.662424890475919e-5 -1.1620013261506668e-5 0.0
6.19359697461986e-5 -1.0171631378262855e-5 0.0
4.9671682687212255e-5 -1.9103955577926107e-5 0.0
2.487609819269057e-5 -1.6282305628045855e-5 0.0
1.8496909485164586e-5 -9.26512324149763e-6 0.0
4.310925267472531e-5 -1.121973030416626e-5 0.0
8.784896307762346e-5 7.147425608765019e-7 0.0
3.346492212063374e-5 1.209844835379808e-6 0.0
4.8688599323400646e-5 -8.665275534869219e-6 0.0
5.751670961254044e-5 -1.2478827040597315e-5 0.0
6.183944875751354e-6 -6.7674769743385384e-6 0.0
6.424413412998278e-6 -7.454638227892846e-6 0.0
4.31520365765346e-5 -1.7272448889766355e-5 0.0
3.5991576497647093e-5 -1.639368325409437e-5 0.0
5.2269989198748464e-5 -1.3508321947035176e-5 0.0
9.304849361533849e-5 1.6768057063737716e-6 0.0
5.5534556267293195e-5 -2.0854159464305554e-5 0.0
9.850034507575232e-5 -1.8679119879401982e-6 0.0
9.798052210427907e-5 -2.5829817603587324e-6 0.0
2.7655180107070356e-5 -4.241535559753461e-6 0.0
4.4482129666614474e-5 -1.2452003733271418e-5 0.0
4.705392021674356e-5 -1.5148096078355429e-5 0.0
9.547675876905035e-5 3.634911686768019e-7 0.0
4.704375977396462e-5 1.6962272565408582e-6 0.0
6.864612307747239e-5 -1.6554642913413338e-5 0.0
7.034557869957659e-5 -1.3839646967754583e-5 0.0
2.6851755750376618e-5 -1.9718391840716314e-5 0.0
6.434881373003073e-5 -1.2389938225587622e-5 0.0
4.446421645996646e-5 -1.0918897163242077e-5 0.0
6.729739639549305e-5 -1.1215339970609944e-5 0.0
6.708538182773073e-5 -1.2109813851117236e-5 0.0
6.877457967995275e-5 -1.06196126874507e-5 0.0
2.21343838328466e-5 -1.8651415906217884e-5 0.0
7.88288313169124e-5 -2.329157966478301e-7 0.0
5.971145924303874e-5 -2.290305748040197e-5 0.0
8.442359908442932e-5 -1.443779680677342e-5 0.0
7.545071096885671e-5 -8.858395617590663e-6 0.0
4.912695348403013e-5 -6.410786642502622e-6 0.0
6.360418187078567e-5 -1.97519773251212e-5 0.0
3.9438356630435724e-5 -1.6392059237434082e-5 0.0
4.137030078760176e-5 -9.27321303943496e-6 0.0
9.274365765258249e-5 -1.145156541265481e-6 0.0
2.1386578099025185e-5 -6.2237696094958546e-6 0.0
7.22364216630193e-5 -4.802758224310139e-6 0.0
4.832985162718526e-5 -4.042375361578426e-6 0.0
6.328387879701852e-5 -1.0417068954444797e-5 0.0
8.922483288282202e-5 -3.19512025323872e-6 0.0
7.238559426090243e-6 -3.923023687214683e-6 0.0
7.387164373956629e-5 -1.3634814057037285e-5 0.0
5.532773425337509e-5 -4.5059221411751396e-7 0.0
5.47614309819041e-5 -9.632668623958316e-7 0.0
6.134512695982232e-5 -1.8905023415916466e-5 0.0
5.6126928062377135e-5 -1.3866892839058814e-5 0.0
5.8007590659262266e-5 -1.8629115183721892e-5 0.0
7.56402460761276e-5 -1.6162851176480663e-5 0.0
7.386335154867352e-5 -1.1746750412159995e-6 0.0
4.760497607924825e-5 1.120700732734918e-6 0.0
6.766532422380443e-5 5.265731968453081e-6 0.0
8.76505128673443e-5 -9.139455157011602e-6 0.0
8.785986880684723e-5 -8.325544206824365e-6 0.0
4.809996153725091e-5 -2.1552037802106e-6 0.0
3.2533559511198754e-5 -1.622701460941109e-5 0.0
6.659165970150637e-5 5.230181427090915e-6 0.0
4.7906026129759975e-5 1.0640421601731967e-7 0.0
6.414544775976952e-5 -1.3299572226009396e-5 0.0
9.732348641564506e-5 -2.947935464708211e-6 0.0
1.596567209129928e-5 -1.2785424855059952e-5 0.0
6.158424213835402e-5 -6.1295720840466305e-6 0.0
4.813659675387417e-5 -1.0248262419122311e-6 0.0
4.805021056897427e-5 -1.810558166270782e-6 0.0
1.6570875229733186e-5 5.774838764432163e-8 0.0
8.72839106459857e-5 3.526169037150731e-6 0.0
5.213200013676387e-5 -4.2370955337016265e-6 0.0
9.017954645186082e-5 -7.096358019576525e-6 0.0
3.1291563477537026e-5 -1.5499404268916834e-5 0.0
7.892504931792565e-5 -1.8073869023015832e-5 0.0
8.088577781710032e-5 -1.724627739084979e-5 0.0
2.816155055639698e-5 -1.6196835850876125e-5 0.0
6.659964950389879e-5 -1.3946471225088342e-5 0.0
4.339457228348583e-5 -2.4295055028060383e-5 0.0
6.320592119506087e-5 -3.6062983841048e-6 0.0
1.73041877510683e-5 -1.627588447066584e-5 0.0
5.267708510799509e-5 -1.6137109641753043e-6 0.0
5.478982786474564e-5 -5.7060628808411515e-6 0.0
5.369384239525283e-5 -2.2919075101028065e-6 0.0
5.8738177428424816e-5 -1.3712198549909619e-5 0.0
7.14712526748237e-5 -1.412716384612429e-5 0.0
2.2039057685394693e-6 -2.9291128535758295e-6 0.0
3.8086892366616344e-6 -4.930038004023321e-6 0.0
4.579484050710316e-6 -5.83576483744418e-6 0.0
9.380957685716999e-5 -7.622466623216271e-6 0.0
6.204386826604813e-6 -7.656553303713936e-6 0.0
2.8963386274496435e-5 -1.4944628553249885e-5 0.0
1.2570936269145299e-5 1.7808833566251778e-6 0.0
8.543503339342748e-5 -1.4603110824394448e-5 0.0
1.449117222886994e-5 -1.448696361879083e-5 0.0
1.6388405896093788e-5 -1.572862602881799e-5 0.0
9.30151214956543e-5 -8.40992497339416e-6 0.0
9.141453005333384e-5 -9.979516318638567e-6 0.0
5.437614627859537e-5 -7.3307387183521785e-6 0.0
3.945383836720801e-5 -2.0502245936545558e-5 0.0
7.355945972493873e-5 -2.038612560861921e-6 0.0
8.71932729178978e-5 -1.334491349043117e-5 0.0
8.806795510426583e-5 -1.2723370530203958e-5 0.0
1.2681277857935268e-5 -1.3319992446227373e-5 0.0
8.632801776724866e-6 -9.96137633260867e-6 0.0
8.978167878760311e-5 -1.1368252544133386e-5 0.0
9.039391609494358e-5 -1.020470612317999e-5 0.0
6.197354284621028e-5 -2.263816970060679e-5 0.0
1.0335241385606868e-5 -1.146987590258571e-5 0.0
7.565691806529438e-5 -1.9742919483075286e-5 0.0
1.8351238786603623e-5 -1.2870293209398962e-5 0.0
8.412328341389987e-5 -1.1090550395210715e-5 0.0
2.8629164296962733e-5 -2.0273307241472038e-5 0.0
7.900052459845366e-5 -1.4667370401878037e-5 0.0
7.846381628735495e-5 -1.7509515096995728e-6 0.0
2.8503092611310383e-5 -1.0352481087143884e-5 0.0
1.873553840163078e-5 -1.0118607427750763e-5 0.0
3.7175345027210526e-5 -1.7069857672729565e-5 0.0
4.967324330879457e-5 -1.3491106059198833e-5 0.0
8.334717761384904e-5 -6.033147673045884e-6 0.0
5.32218292655962e-5 -2.2003256727063693e-5 0.0
5.3500305432095095e-5 -4.4270653988452e-6 0.0
5.3042856661464054e-5 -8.411622305066644e-7 0.0
6.769535261171685e-5 -9.540433027723439e-6 0.0
7.867255270038444e-5 -1.244447306328694e-5 0.0
2.664704635677281e-5 2.0447705748641283e-6 0.0
6.40892518958895e-5 3.856360979231231e-6 0.0
3.1150162818904746e-5 -1.0025336991944395e-5 0.0
8.48612668816143e-5 -9.237544089276268e-6 0.0
1.900913839927481e-5 3.1582202715065673e-6 0.0
1.624180513883898e-5 2.418773428111363e-6 0.0
4.284100231268114e-5 -2.6831369874970997e-6 0.0
8.730366014575665e-5 -3.9147128843400114e-6 0.0
4.627366251729112e-5 3.2469724524211054e-6 0.0
5.192642470397975e-5 -5.465008022780362e-6 0.0
9.246414495443448e-5 -4.087353809800372e-6 0.0
2.600760906819762e-5 -1.0623000989679546e-5 0.0
3.2146508558799246e-5 -6.121727314368005e-6 0.0
7.267926765919713e-5 -9.475381268461704e-6 0.0
8.095419661926667e-5 -1.1759006130770573e-5 0.0
2.2373043207463277e-5 -1.0891817827872379e-5 0.0
1.258127769843776e-5 -9.83408913390718e-6 0.0
7.762870520718054e-5 -1.2261086509046625e-5 0.0
3.257151680227702e-5 -3.7100541845683406e-6 0.0
7.600344953031136e-5 -6.391118035134582e-6 0.0
9.868010821009404e-5 -1.5654155280751755e-6 0.0
8.22827226277356e-5 -2.769215219835114e-6 0.0
5.404896770030433e-5 9.333793805657692e-7 0.0
5.5928258141002284e-5 7.98281118495905e-7 0.0
6.281801698742276e-5 -7.5883674790433905e-6 0.0
9.002476551010666e-5 -7.284545151539463e-7 0.0
8.850151817079295e-5 1.9308269911367614e-7 0.0
3.6169526976458945e-6 -3.4533705537634453e-6 0.0
2.6481108042769543e-6 -2.5504211015396286e-6 0.0
4.059598553727542e-5 -2.010103008435706e-5 0.0
6.559672409524489e-5 -1.2703099381000464e-5 0.0
3.6684100762754426e-5 -6.464260209404357e-6 0.0
3.659515437637798e-5 -5.851044833069069e-6 0.0
3.5591529069704075e-5 -2.1806808218698862e-6 0.0
5.2088041717119485e-5 -1.8258696722184114e-5 0.0
6.007932453054763e-5 -6.589353416982799e-6 0.0
1.567933201697494e-5 -2.701227047064588e-6 0.0
7.015651690173833e-5 -4.9888555838843135e-6 0.0
5.493797986809796e-5 2.184883452764137e-6 0.0
4.3124211962190654e-5 -1.1988617839969142e-5 0.0
1.655815940278737e-6 -2.1779914632282827e-7 0.0
4.970862639394569e-5 -1.2656899825925824e-5 0.0
9.207486273662717e-5 -4.756466112031454e-6 0.0
7.885242860449349e-5 -6.645687922935145e-6 0.0
7.477517513147864e-5 -4.654927708073525e-6 0.0
8.837113746672215e-5 -5.948939809351071e-6 0.0
6.482753450736252e-5 -5.220656240420391e-6 0.0
3.469123299722292e-5 -3.3154708365736674e-7 0.0
1.1197120946740875e-5 -4.563479843323483e-6 0.0
4.412128635890324e-5 -5.724094370245929e-6 0.0
5.5618627527014274e-5 -7.600655359159343e-6 0.0
1.3985263586868036e-5 -8.310793643349036e-6 0.0
4.698917641395093e-5 -2.4552492550195296e-5 0.0
6.277731768849168e-5 -5.158285846499954e-6 0.0
3.0204018749577104e-5 -1.5729403787006792e-5 0.0
6.854516880994405e-5 5.084434728205708e-6 0.0
8.469817498820604e-5 -6.07821566189633e-6 0.0
3.228217238642956e-5 -3.0673464764282305e-6 0.0
7.440084862079669e-5 4.7608628465248425e-6 0.0
5.741651724210384e-5 -6.1780583355604245e-6 0.0
4.9751528040025976e-5 -1.1861426604953009e-5 0.0
1.7663807749030318e-5 -3.3191654052876665e-6 0.0
3.3677243021130824e-5 -6.7671136357203265e-6 0.0
4.2200556005986914e-5 5.03679423498373e-6 0.0
1.2951392122654597e-5 2.2802991608607065e-6 0.0
7.523127770801095e-5 -9.783058102008814e-6 0.0
1.9514025807958662e-5 -7.633825738321684e-6 0.0
5.109427399762867e-5 -1.1511121356158565e-5 0.0
8.304903920761663e-5 2.1613908863985887e-6 0.0
7.138455115913144e-5 -9.289413123718381e-6 0.0
3.222930981929715e-5 3.5465621831013396e-6 0.0
5.762501030236628e-6 -1.7671574141904531e-6 0.0
2.5502632359149006e-5 -5.9632648242087975e-6 0.0
2.214284479876169e-6 2.402351835284609e-7 0.0
4.625707156617787e-6 1.1663537965197916e-7 0.0
7.092855139525519e-5 -8.47750978977567e-6 0.0
5.919048589289769e-5 -6.672734877256309e-7 0.0
3.279677636002847e-5 -2.252287423146806e-5 0.0
2.2676985441304385e-5 -1.4614716213780004e-5 0.0
8.240147463789462e-5 -4.492075485609197e-6 0.0
1.07063957369721e-5 -1.1189376967866762e-5 0.0
6.890558595941645e-5 -9.799680955902094e-6 0.0
5.812363906871065e-5 -1.761954688921974e-5 0.0
8.168313475125984e-5 3.2889575136396942e-6 0.0
2.9387470802677546e-5 -1.8983756556754433e-5 0.0
9.007053147140655e-5 -9.416086887235192e-6 0.0
5.198613361064146e-5 -5.056980569334956e-6 0.0
1.575374461376232e-5 -1.4567711050502238e-5 0.0
7.122783685807034e-5 -2.0532658420103614e-5 0.0
1.6281762629812446e-5 -9.275582682553827e-6 0.0
9.451912903782015e-5 -4.5697762320604816e-6 0.0
1.1473318970019793e-5 -6.571204048846167e-6 0.0
7.030142106607224e-5 1.3138413826953041e-7 0.0
6.493839804643336e-5 -4.591579010191071e-6 0.0
5.315300345690329e-5 -1.5936855263458735e-8 0.0
2.2583016117268784e-6 3.610644007534348e-7 0.0
3.694455752441329e-5 5.384228751936086e-6 0.0
2.7187648929269484e-5 -3.48189178481087e-6 0.0
8.158337616669357e-5 -1.6100973350142234e-5 0.0
8.269801223487484e-5 -1.6355111487620946e-5 0.0
7.399484288163711e-6 -2.5665294981345753e-7 0.0
5.898532643265828e-5 -5.836807676823422e-6 0.0
2.3739025481970244e-5 -1.4570732326635774e-5 0.0
4.189610902420187e-5 -1.3103172040070239e-5 0.0
2.205483558196306e-6 -2.417059397835958e-6 0.0
5.412185138773545e-6 -1.0052938349060752e-6 0.0
5.675311842040142e-5 -8.457446031884589e-6 0.0
5.243302744781341e-5 -1.112567826453424e-5 0.0
3.5160188609282788e-6 -5.739648970063324e-7 0.0
9.507584347906885e-6 -3.748989858387834e-6 0.0
7.003062796346419e-6 -8.45170327305812e-6 0.0
8.446921082365958e-5 -1.0134824690628983e-5 0.0
6.6813370145156e-5 -1.3012655347132925e-5 0.0
1.1334555799210187e-5 -8.911495680191777e-6 0.0
7.742821196603078e-5 -1.2374703596287983e-6 0.0
7.156591174901962e-5 -1.6616210511971257e-6 0.0
4.896415688244082e-6 -5.8980201390452405e-6 0.0
4.168152024028782e-5 -3.751099761106203e-6 0.0
5.826129084540887e-7 -8.148153916669031e-7 0.0
9.94222023291456e-5 -8.13191647386811e-7 0.0
9.690926982523639e-5 -1.9812379464293487e-6 0.0
2.9582659346006476e-5 -2.160877443814435e-5 0.0
7.766368336133523e-5 8.437967248457286e-7 0.0
6.742296035233903e-5 -1.6202536584780794e-5 0.0
1.2793866438153308e-5 -6.7386794378910535e-6 0.0
6.484403982184564e-5 -2.3061270916632262e-5 0.0
1.4006285846605454e-5 -3.416803602357482e-6 0.0
8.708208474670365e-5 -4.6010448875912506e-6 0.0
4.0565088492592135e-5 -1.3390337689614392e-5 0.0
3.378634420278565e-6 -3.0107340844466267e-6 0.0
4.642137778035915e-5 -1.175586758590251e-6 0.0
4.6416228004985725e-5 -1.5924122098414052e-6 0.0
9.093996151694703e-5 1.793512361454267e-6 0.0
5.746176431413003e-5 -1.3342249909088514e-5 0.0
7.0703482295324934e-6 4.3771634557313876e-7 0.0
8.943080457595128e-5 -1.1122681743652851e-5 0.0
9.213900808829938e-5 -3.02067747747179e-6 0.0
7.105362533823811e-5 1.6544640477610245e-6 0.0
7.275132052443334e-5 8.598271352990079e-7 0.0
4.393835535934922e-5 -2.103901798207091e-5 0.0
9.773334765942334e-5 -3.0398582056426005e-6 0.0
4.2871054098799886e-5 -3.13707565683174e-6 0.0
8.297162761861157e-6 2.770473363801794e-6 0.0
1.102620350273039e-5 -9.710612295908117e-6 0.0
2.868701544110508e-5 4.311869186782622e-6 0.0
8.935311851334308e-5 -9.528251717829256e-6 0.0
4.946548914356875e-6 8.887035891642253e-7 0.0
5.347047577098493e-5 -4.012111966318005e-6 0.0
7.909471053879912e-5 -5.788266146563902e-6 0.0
6.417056809241479e-5 -7.867342418796535e-6 0.0
9.814516643799074e-5 -1.510212535169271e-6 0.0
2.0386752373101753e-6 -1.298578718197477e-6 0.0
9.220741594180272e-5 -6.893269206813716e-7 0.0
9.842092299837186e-5 -1.4903074348877954e-6 0.0
4.971590288251559e-5 -2.3525833535477866e-5 0.0
5.8344682501740517e-5 -8.121488804729605e-6 0.0
3.098008386683059e-5 5.288706499533598e-6 0.0
2.3670196730477485e-5 -1.0775811626956565e-5 0.0
3.154287327633662e-5 -5.258485404732457e-6 0.0
4.14824987015107e-5 -4.2000436684436725e-6 0.0
1.9369017698667937e-5 2.6737661410413865e-6 0.0
3.707427896188489e-5 -1.6054191971674525e-5 0.0
1.7931414819019034e-5 -2.56411941527783e-6 0.0
1.126952240542647e-5 2.675634950819655e-6 0.0
4.752047809574911e-5 -7.204989359965974e-6 0.0
7.277571888511419e-5 -1.3408977773258014e-5 0.0
8.576190361637082e-5 -9.31453280605559e-6 0.0
3.3036528805445084e-5 -4.585253067896291e-7 0.0
2.133750459241284e-5 4.399583998311805e-6 0.0
5.569395520373783e-5 3.0548201098599205e-6 0.0
2.8987641694873316e-5 -3.354689526871134e-6 0.0
8.118778687515566e-5 -9.263116906315384e-6 0.0
2.6044175081443592e-5 5.033262128749228e-6 0.0
2.3412255691539426e-5 4.849340895891044e-6 0.0
5.624893367816327e-5 -1.2121106719077172e-5 0.0
5.715782777397651e-5 5.187307095150425e-6 0.0
3.977834978664381e-5 -2.3868235648988938e-5 0.0
7.776845852911461e-5 -1.881429006493452e-5 0.0
2.7128617209829966e-5 -9.715139309106727e-6 0.0
7.258437779575226e-5 -2.09346003048787e-5 0.0
2.1538933786952743e-5 -3.342747272643695e-6 0.0
8.264703528129142e-5 -9.192730941823564e-6 0.0
3.921340014513769e-5 -1.2855048370827419e-5 0.0
8.71239390701344e-5 -6.085776863260053e-6 0.0
2.3775387343556777e-5 -9.9832466672231e-6 0.0
3.882772083887367e-5 5.3861290213259824e-6 0.0
3.536602792497899e-5 -1.573935365620112e-6 0.0
4.58978199478061e-5 -1.734002316289638e-5 0.0
4.8227421445933406e-5 -5.2313617510608376e-6 0.0
4.6411285673130205e-5 -1.9814724509382705e-6 0.0
2.7683670534449728e-5 -1.4106849802731133e-5 0.0
2.7986246020426314e-5 -1.517566906188546e-5 0.0
1.783035573250788e-5 -6.8726814850293725e-6 0.0
2.1960816765331492e-5 6.614627322333208e-6 0.0
4.7557202924080085e-5 -2.0346131262934178e-5 0.0
8.737576061356868e-5 1.995225929748238e-6 0.0
7.996898907605831e-5 -1.1624052336378838e-5 0.0
5.619859386093825e-5 1.4227401728519146e-6 0.0
2.5882149786094888e-5 -9.854862566747635e-6 0.0
6.95913693847489e-5 -7.345838000656777e-6 0.0
5.941151536423247e-5 -1.7055352198646155e-5 0.0
3.9138882811891735e-5 -1.2002815468100092e-5 0.0
9.341582286324609e-5 -3.917664334712628e-6 0.0
9.768290303153395e-5 -2.4444357922367056e-6 0.0
3.504829647634212e-5 -6.049659811505984e-6 0.0
6.88461721418712e-5 -2.1265941939117133e-5 0.0
9.130006959537572e-5 -9.584746556301601e-6 0.0
4.2708592169929245e-6 -1.2536327462009913e-6 0.0
2.3948897733849266e-5 -6.095512113171791e-6 0.0
2.848027168977548e-5 -9.587192139271207e-6 0.0
9.272313422155271e-5 -8.287393064593515e-6 0.0
3.692315661576589e-5 -1.5034325987763739e-5 0.0
6.454414771522812e-5 5.2394757927423395e-6 0.0
9.006368566526284e-6 -9.79777440798196e-6 0.0
5.899877003400354e-5 -9.75864718618902e-6 0.0
8.522920819440154e-5 -8.382340537449427e-6 0.0
6.820089767369665e-5 -1.2388314195665374e-5 0.0
9.499128113207348e-5 -3.864480136507145e-6 0.0
7.01625471823651e-5 -1.94870937484032e-5 0.0
1.7032994140905735e-6 -1.0422404867698597e-7 0.0
4.5186124440029154e-5 -6.928011321567457e-6 0.0
1.4922248232934745e-6 -1.3812807247844052e-6 0.0
3.0582182750560154e-5 3.0708033722938987e-6 0.0
2.071002585004571e-5 -4.172113178548476e-7 0.0
1.3275161999459014e-6 -1.7151019719914552e-6 0.0
2.5274286407634e-5 -2.0167585682334847e-5 0.0
2.331456420267865e-5 -1.8449942060252824e-5 0.0
4.290930445749655e-5 -2.2801630072917672e-6 0.0
4.257177577001078e-5 8.027440007809068e-7 0.0
1.6711975727304413e-5 -1.5188507988554122e-5 0.0
3.063032046997339e-5 -3.230299041301287e-6 0.0
6.009006637344749e-5 -6.10863627903459e-6 0.0
1.7321079676040053e-5 -9.26000345154203e-6 0.0
6.729968931029514e-5 5.414229378807874e-6 0.0
6.080751377230556e-5 -1.646306832607435e-5 0.0
1.2644588496196764e-5 -3.511939917193103e-6 0.0
6.910391770824406e-6 -7.1224851259899004e-6 0.0
5.2143548008959655e-5 -3.45340968670067e-6 0.0
3.152230833180045e-6 -3.947125148877422e-6 0.0
9.567161940470979e-5 -1.2168008016389358e-6 0.0
3.3139368415376964e-5 1.99352276641117e-6 0.0
4.7786770512169516e-5 -6.605284500493977e-6 0.0
8.831102749406314e-5 -1.0460856505776168e-5 0.0
9.527791985842046e-5 -6.027290014676726e-6 0.0
7.935313471088898e-5 -4.947716683836219e-6 0.0
4.742033289284967e-5 -1.9300669517081913e-5 0.0
6.121504825108477e-5 -9.214513515055096e-6 0.0
8.674066381993615e-5 -1.3102497610701709e-5 0.0
5.1902720084433384e-5 -2.4667746698048573e-5 0.0
8.40697297432723e-5 -8.38602852532218e-6 0.0
6.841656385601727e-5 -1.1498294711035775e-5 0.0
3.561787138853155e-5 -1.4391028944558608e-5 0.0
6.110362977309926e-5 5.4236145906911575e-6 0.0
3.7698245908470084e-5 -1.1346431819667795e-5 0.0
3.105699013648857e-5 -1.9907882424118806e-5 0.0
4.692226782178039e-5 -5.377172321992594e-6 0.0
8.001831303003832e-5 -1.6915471976414274e-5 0.0
1.766557387754173e-5 -6.160455305196249e-6 0.0
1.382583122171666e-5 -1.347448216446436e-5 0.0
7.275176732393212e-5 2.3385594291375963e-6 0.0
2.2571496478337813e-5 -6.906582091974992e-6 0.0
5.931679177336933e-5 4.913088844810547e-6 0.0
2.6367197725127277e-5 9.293796896892696e-6 0.0
7.378399702438883e-5 9.223017291102816e-6 0.0
8.680251318800488e-5 -5.376977120756059e-6 0.0
4.845568889270614e-5 -6.802463506250885e-7 0.0
7.761279086904121e-5 -5.737183779124703e-6 0.0
6.248533141048348e-5 -1.8183566278092115e-5 0.0
6.692422248897655e-5 -2.2674789312397886e-5 0.0
2.9862324323509377e-5 -9.40142996940402e-6 0.0
2.7820092776481374e-5 5.073147320522701e-6 0.0
1.9460111691930115e-5 -6.199359546134817e-6 0.0
2.1225373096000947e-5 -1.8473619845005686e-5 0.0
4.441194963762996e-5 -7.710274530363883e-6 0.0
2.0922191234617927e-6 -1.1696385264178293e-6 0.0
1.6132894129911045e-5 -1.393551087880558e-5 0.0
4.836034005763351e-5 -2.815260770708985e-6 0.0
5.322458650121197e-6 -4.459429153732858e-6 0.0
5.665034683663891e-6 -9.679365766863932e-8 0.0
5.3484160715299716e-5 -1.0821703219844381e-5 0.0
5.350833961208014e-5 -3.6288788272458234e-6 0.0
9.429820966134953e-5 -6.752427983818535e-6 0.0
4.137001779368141e-5 -3.3072617167217688e-6 0.0
7.310677701902455e-5 -1.2435553335734046e-5 0.0
5.4053702398358334e-5 -1.7601824222674408e-6 0.0
1.3150633561479041e-5 2.6123530487692238e-6 0.0
1.750191329858622e-5 2.125219147319418e-6 0.0
9.62770800111285e-5 -2.8813441652734903e-6 0.0
6.285888947314577e-5 5.340397933168613e-6 0.0
1.4178981386668752e-5 -6.852854252108827e-6 0.0
6.15317589644384e-5 -3.836690938365541e-6 0.0
4.6114858927800086e-5 -1.360727541880891e-7 0.0
5.302463906505113e-5 -5.2421502106457084e-6 0.0
1.5639092871401674e-5 4.40493900379635e-6 0.0
5.4219541364303514e-5 -2.465367326899002e-5 0.0
9.121098550093515e-5 -1.5588998675066977e-6 0.0
5.255712666285403e-5 -8.933169292923915e-6 0.0
5.211408007066097e-5 -2.342453890839152e-6 0.0
6.598206349112317e-5 -6.665454309964021e-6 0.0
4.469821714596012e-5 -2.1582710840545852e-6 0.0
5.277773045012404e-5 -8.25262037139147e-6 0.0
2.4933170434424196e-5 -1.5555745132181166e-5 0.0
6.984139797664876e-5 -1.0875360946460072e-5 0.0
4.1552630929112616e-5 -6.090035839057379e-6 0.0
5.2062766486796034e-5 -3.0940063149543653e-6 0.0
8.350741982044246e-5 -1.5964985139797786e-5 0.0
4.4346767768531624e-5 -5.238792707143019e-6 0.0
6.210913148193367e-5 -2.7711235248252954e-6 0.0
5.43387554158743e-5 -1.3839114222283808e-6 0.0
7.265150442709256e-6 -8.328218834244076e-6 0.0
8.02478966283164e-5 -1.0848851934826467e-5 0.0
5.3874089881351656e-5 -2.7527482042539734e-6 0.0
2.9277061082718813e-5 -1.9915042172919055e-5 0.0
5.92742857959361e-5 5.378311306527018e-6 0.0
7.472547968763078e-5 -2.0259970917143467e-5 0.0
9.618180516644082e-5 2.593845289504779e-6 0.0
3.8017357447523813e-6 2.6084329896775603e-6 0.0
4.331610639654436e-5 -7.990507301079564e-6 0.0
5.849949485066191e-5 -2.327031849717755e-5 0.0
3.6016565924287835e-5 -2.231368908448579e-5 0.0
4.1198764243463294e-5 -2.410582935199483e-5 0.0
7.212831560627107e-6 -3.509569296107195e-6 0.0
7.437247251062726e-5 -1.1886433528652723e-5 0.0
3.001028002141332e-5 -8.63309822907641e-6 0.0
4.282064371645407e-5 -5.438249113379515e-6 0.0
3.326284804575647e-5 -1.0493135911894875e-6 0.0
4.27839136158154e-5 -2.3463271323997604e-5 0.0
7.307858537301873e-5 5.0458052815771336e-6 0.0
9.203935827955032e-5 2.0409007882068807e-6 0.0
6.240199021861163e-5 -1.7347513483450043e-5 0.0
5.241348564036836e-5 -9.680729679815777e-6 0.0
3.341731531209535e-5 -1.4306405354877297e-5 0.0
5.6603761567876904e-5 -2.4508665940315495e-5 0.0
7.729569779611025e-5 -1.0198499442871615e-5 0.0
6.2120715885261464e-6 -4.421367468300604e-6 0.0
9.013324746307455e-5 -3.382730299547216e-6 0.0
4.523531486252543e-5 -2.3622155848636495e-5 0.0
4.6480356218233305e-5 -2.0901116348826283e-5 0.0
7.130892429953546e-5 -1.8642467680011057e-5 0.0
9.882425087486014e-5 -1.5300706283926558e-6 0.0
3.8258426094601285e-5 -2.27901926246709e-5 0.0
3.125740672802274e-5 -5.326893985363671e-7 0.0
3.3802428833964276e-5 -6.242372558621707e-6 0.0
6.558396684674334e-5 -7.44832693451712e-6 0.0
9.624946434995995e-5 -1.3629274599214982e-6 0.0
7.562150938755838e-6 -7.436521323917378e-6 0.0
5.2939079212352365e-5 -7.665029576880501e-6 0.0
9.055659957882746e-5 -9.440177670149007e-6 0.0
9.569167602098746e-5 1.4352925283601692e-7 0.0
2.8381012739081625e-5 -5.013380506773058e-6 0.0
4.6348365102691804e-5 -2.3811682504103773e-5 0.0
9.36716306493081e-5 -3.4050325751579023e-6 0.0
1.6801481793778847e-5 -1.3076426504319336e-5 0.0
9.756208511410074e-5 -9.641499538778155e-7 0.0
3.1811546539597085e-5 -2.2440549408924204e-5 0.0
7.006333667547156e-5 -1.0003095905677225e-5 0.0
1.8622482887843788e-5 4.74249412463731e-7 0.0
6.360691896811713e-5 -2.8723547671512095e-6 0.0
9.705657268353545e-5 -3.6887917636107294e-6 0.0
7.864043307830902e-5 -9.545859083634814e-6 0.0
2.7763906418412494e-5 -2.0267395946887284e-5 0.0
1.9274304124361876e-5 -1.7529124747612723e-5 0.0
2.498048966478696e-5 -1.4069425065673529e-5 0.0
8.524011286499284e-5 -1.4126178724619981e-5 0.0
7.62212688545536e-5 -5.747404421983098e-6 0.0
1.5471981171941398e-5 -7.0339210833217176e-6 0.0
4.094049353709697e-5 -7.640566269094896e-6 0.0
6.548574246892856e-5 -8.256006452796209e-6 0.0
3.9589750433135564e-5 -9.124735711571559e-6 0.0
9.39739613546603e-5 9.216997651577496e-7 0.0
6.978691345116067e-5 -4.3952509968843e-6 0.0
4.13062508084436e-5 -5.637153692333238e-6 0.0
1.593943414025115e-5 -6.113736787765252e-6 0.0
7.492179505662921e-5 -1.053524621326537e-5 0.0
6.392818870676007e-5 -2.1553935137941927e-5 0.0
8.864496631383076e-5 -1.1843879539705106e-5 0.0
3.4245050289665574e-5 -2.197746399550439e-5 0.0
6.520295805373575e-5 3.4744532551679716e-6 0.0
3.777943696406638e-5 -1.0521891105835576e-5 0.0
6.079039245465235e-5 -2.3056437201016886e-5 0.0
8.75656021634158e-5 -1.0586810556393606e-5 0.0
7.545891446333255e-5 -1.4226345603485477e-6 0.0
9.40023005382297e-5 -2.1749711512722976e-8 0.0
2.1319283270398075e-5 4.53352921681274e-6 0.0
9.147066667230971e-5 -4.02489114580632e-7 0.0
3.29719450002583e-5 -1.3018269001993013e-5 0.0
8.475541947052748e-5 2.292444310792579e-6 0.0
6.0550442771566964e-5 -2.720498801631571e-7 0.0
7.026946736547072e-5 -3.0603568106906975e-6 0.0
3.0872245494923996e-5 -7.619606417667807e-6 0.0
7.131659885526557e-5 -5.365676381015512e-6 0.0
4.869041318126957e-5 -2.382868681282524e-5 0.0
2.5896473783004305e-5 -1.9013715430404334e-5 0.0
5.471365318286806e-5 -3.8020415197038455e-6 0.0
7.519562824015382e-5 1.0863795286929462e-6 0.0
4.56004414304302e-5 -2.2195153987597945e-5 0.0
1.415535262072495e-6 -1.192582135535866e-6 0.0
9.68459498488223e-5 -1.8053530115174683e-6 0.0
8.447866364000393e-5 -3.1715428309931624e-6 0.0
4.0515978031435164e-5 1.356654659962512e-6 0.0
9.809699322890669e-5 -2.1295756741809715e-6 0.0
2.6296163597609415e-5 4.276327934369845e-6 0.0
4.612953398787429e-5 4.0835984078241104e-7 0.0
9.937464674804158e-5 -8.855579691309784e-7 0.0
6.28406459480559e-7 -8.905693566073528e-7 0.0
2.1318717072247283e-6 -2.198858691400974e-6 0.0
2.8804848627396386e-5 -2.8045112608115056e-6 0.0
6.216225230487374e-5 -9.512065964307035e-6 0.0
7.036119341584462e-5 2.628469002132971e-6 0.0
8.004524914443356e-5 -1.6167072345292815e-5 0.0
9.720591246643459e-5 -2.223608563022022e-6 0.0
6.940337892184174e-6 -5.0585989820185975e-6 0.0
2.0593396160028577e-5 7.215663191715258e-7 0.0
6.424527400028106e-5 -2.052196862430636e-5 0.0
8.743206389849264e-5 -3.366347691565285e-6 0.0
2.5842075047492503e-5 -1.3965794099723916e-5 0.0
5.471030221695582e-6 1.1543856705430813e-6 0.0
6.29242609196122e-5 -4.079268371591839e-6 0.0
2.9730393573099585e-5 -6.800328276072184e-7 0.0
7.459783030116146e-5 4.999870768503018e-6 0.0
4.719177862712016e-5 -2.7223731051588895e-6 0.0
3.9275235466028456e-5 -9.738235413493069e-6 0.0
8.856246180836947e-5 2.0746639167924313e-6 0.0
9.197381625085454e-5 -9.10236518069821e-6 0.0
7.731948693757035e-5 -1.8369047862780603e-5 0.0
2.274363669416928e-5 -6.2818443982916335e-6 0.0
9.265216691046359e-5 -3.1728805918500303e-6 0.0
1.5076442823113703e-5 -8.556795943527478e-6 0.0
9.321490911515683e-5 -1.3834420127997017e-6 0.0
8.596797973789491e-5 -1.3780468490211958e-5 0.0
6.140182720868145e-5 2.865714503243146e-6 0.0
7.212953296169232e-5 -2.046746652688557e-5 0.0
7.366196479947547e-5 5.084903696851872e-6 0.0
4.681918951193401e-5 -4.412903040478224e-6 0.0
2.5675916339201943e-5 -1.799103598308629e-5 0.0
3.369569692166502e-5 5.344002069323672e-6 0.0
2.3032814136920105e-6 -1.0768699644599377e-8 0.0
9.60059642648817e-5 -2.1054769288828452e-6 0.0
9.743944486099639e-6 -1.0563707406197251e-5 0.0
7.433003095934883e-5 2.8257789730430093e-6 0.0
1.750645807492584e-5 -1.5773376325669563e-5 0.0
7.010200756526851e-5 -9.304331007670139e-6 0.0
2.0119896985857716e-5 1.645421535381742e-6 0.0
8.26316220226682e-6 -5.401569175486192e-6 0.0
1.1986993797560168e-5 -1.2945435497474058e-5 0.0
1.0837450239522863e-5 -9.050349101424904e-6 0.0
2.7083676059469652e-5 5.446812207226494e-6 0.0
7.852681478798399e-5 3.123818830069578e-7 0.0
1.0976159501223795e-6 -1.3835127094887581e-6 0.0
8.380628334643462e-5 -2.7734243111892807e-6 0.0
7.559338503302138e-5 7.429541196359358e-6 0.0
6.362849481890735e-5 -9.044817884259354e-6 0.0
4.730759278756788e-5 -3.4184526267761137e-6 0.0
2.6302323772854925e-5 -1.983088029915995e-6 0.0
4.8561765291610544e-5 -4.822749662316182e-6 0.0
6.549318290296074e-5 -1.87315088012783e-5 0.0
3.1228627029970236e-5 -8.594420340818972e-6 0.0
2.2632089807217638e-5 -1.8425896006112544e-5 0.0
8.685768830241695e-5 -8.594672046813904e-6 0.0
6.684958979581841e-5 5.4222328098050805e-6 0.0
9.867395358053837e-6 2.2453382394105245e-6 0.0
2.8808195218576546e-5 2.9904952971234608e-6 0.0
6.810095428816999e-5 -6.761658491463951e-6 0.0
6.56245235455554e-5 -2.2211219606878565e-5 0.0
4.0851943338063445e-5 -8.215497482629949e-6 0.0
8.243542341644735e-5 -1.5945196890086477e-5 0.0
5.675518742224858e-6 -6.810250622682537e-6 0.0
7.23438206340536e-5 -1.793106529470615e-5 0.0
3.288083881822349e-5 1.2706871123166269e-7 0.0
9.490511233629963e-5 -6.1674385192382374e-6 0.0
3.1278323300659675e-5 2.398615281050658e-6 0.0
6.265859289654568e-5 -1.9407822906447247e-6 0.0
5.387337689603654e-5 -1.0344745585023345e-5 0.0
4.6213814311493154e-5 9.155356769158328e-7 0.0
5.5903281746171935e-5 -1.1527529009999152e-6 0.0
6.323349505573265e-5 -2.2568495824879843e-5 0.0
8.078278167876901e-5 -1.66492196481459e-5 0.0
2.496080132994644e-5 -1.0062167319373058e-5 0.0
5.778340833100807e-5 3.7556718414484588e-6 0.0
5.62917242035476e-5 1.9892535338889984e-6 0.0
8.029648038700183e-5 -1.5223610529330423e-5 0.0
4.700114202695028e-5 -4.012247438978191e-6 0.0
4.426019506714562e-5 3.019013802451284e-6 0.0
2.5546971007418926e-5 -1.702768313589831e-5 0.0
9.437145013130916e-5 -6.370780198105761e-6 0.0
6.850151679994388e-5 -2.2263360320726676e-5 0.0
4.573516982015708e-5 -2.1457174585559427e-5 0.0
9.646997275914334e-5 4.679007919800524e-7 0.0
4.513425868577859e-5 -1.8759896290203177e-5 0.0
7.411979772508851e-5 6.471808119871209e-6 0.0
2.6674588089082442e-5 -4.535261373243722e-6 0.0
6.645490254568287e-5 2.1001043191397407e-6 0.0
1.9017545999132196e-5 -6.197928377425925e-8 0.0
4.211494805858282e-5 -1.6128185175946684e-6 0.0
2.4726366887757662e-5 7.482142533860827e-6 0.0
9.838523296787321e-5 -1.4219692598217605e-6 0.0
6.275770988074965e-5 -1.6661477449540497e-5 0.0
SCALARS damage float 1
LOOKUP_TABLE damage
0.9999517449064855
0.9995144967253915
0.9998878952597925
0.9998322058901679
1.000000051232581
0.9999999576368812
0.9978636042440399
0.9999692502496285
0.9999677293340665
0.9999654360040414
0.9999650569587833
0.9999657090025253
0.9999676042412581
0.9999695311816851
0.999971230915602
0.9999733793362636
0.9999736702973528
0.9999743818220964
0.9999745127809261
0.9999733885462289
0.9999720666217815
0.999970453142598
0.9999673912607305
0.9999625084000385
0.9999588201021058
0.9999522287364825
0.9999430145403709
0.9999334183910042
0.9999179577921262
0.9998981789653991
0.9998676833735389
0.9998140519585812
0.999454056198984
0.9996647360455212
0.9997135861027913
0.9997538760923411
0.999781333512195
0.9998008029800738
0.9998178045090902
0.9998313768956517
0.999843437461171
0.9998544221377317
0.9998632187115737
0.9998719958211829
0.9998801799744577
0.9998862434312911
0.999892260631942
0.999898595719052
0.9999048796491302
0.9999113547274587
0.999915964126172
0.9999208139268484
0.9999255864077735
0.9999305979445399
0.9999340769289272
0.9999392890272704
0.9999426859787401
0.9999470955528644
0.9999508971585301
0.9999551415800373
0.9999577108836063
0.9999619226223949
0.9999651021324398
0.9999686302504187
0.9999714504928028
0.9999746546192476
0.9999770719764429
0.9999798454668216
0.9999824700828654
0.9999853547669927
0.9999874724042052
0.9999894735074366
0.9999914564045504
0.9999932310810082
0.9999946723227952
0.9999960868989722
0.9999973082462067
0.9999982211023393
0.9999990117640268
0.9999995546906296
0.9999998576791128
1.000000010978657
0.999999965265667
0.9999999116478073
0.999999766759363
0.9999996364495499
0.9999993942175869
0.9999991844584687
0.9999988806553897
0.9999985481695658
0.9999981454044896
0.9999977371747738
0.999997279317638
0.9999968238357286
0.999996286575127
0.9999956777259943
0.9999951499982058
0.9999945472713894
0.9999939228704676
0.9999932309242001
0.9999924994769896
0.9999918904836881
0.9999909639873253
0.9999903036205575
0.999989591218813
0.9999886974918825
0.9999879175226772
0.9999868601231469
0.9999860298429963
0.9999851254884249
0.9999840504832598
0.9999829034566877
0.9999821071962116
0.9999808992255226
0.9999797368877942
0.9999784478263255
0.9999772031733167
0.999975737221463
0.9999741257189357
0.9999725861965587
0.9999708688844976
0.9999688608329931
0.9999665100532761
0.9999639639649943
0.9999610851802059
0.9999577940735425
0.9999539908327758
0.9999468809909776
0.9999382156627827
0.9999293487589427
0.9998763838018913
0.999902423787606
0.9999299374246622
0.9999447295796539
0.9999547489682566
0.9999601976277651
0.9999651857637669
0.9999687186926951
0.9999712430589673
0.9999728230109135
0.9999743115560067
0.9999750292986648
0.999975397075838
0.9999755875779571
0.9999756062052648
0.9999750346933751
0.9999738778959169
0.9999723195459176
0.9999710724226156
0.9999676749433504
0.9999659070062334
0.9999635642445607
0.9999615627813515
0.999962784475864
0.999960967503936
0.9999772289785351
0.9999218000120039
0.999991278003956
0.9999991974953613
1.0000001278918247
0.9999999800204181
0.9999999888517827
0.9999996520865674
0.9999978705947967
0.9999932221890638
0.9999848079716316
0.9999703134982418
0.9999513414642068
0.9999191930057492
0.9998712883315333
0.9997944272651975
0.9998514292014389
0.9962770437275672
0.9988059889333085
0.9993638999775205
0.9996474584893884
0.9997864590315688
0.9998759875670606
0.9999282233241636
0.9999637119366716
0.999984558822865
0.9999955283716658
0.9999998926883259
1.0000001628715613
0.9999999588834269
0.9999994518587704
0.9999988103875582
0.9999842442367005
0.9999614339051918
0.9999916787242769
0.9999819343945711
0.9999960928096155
0.9999955084333928
0.9999989648531895
0.9999997362415395
0.9999868291335081
0.9999394041532257
0.9999822464068798
0.9999165365058742
0.9999741963595349
0.9999743164692696
1.0000388935810034
0.9999643943180272
0.9978409767465091
0.9997245262672304
0.9999755864734636
0.999887694737873
0.9999686606916129
0.9999740466726069
0.9999699558296492
0.9999718256098781
0.9999683618020376
0.9998529231643238
0.9999948533000781
0.9999338951284013
0.999953682118437
0.9999690448700856
0.9999907964787452
0.9999985044307654
0.9999975299922265
0.9999996742246638
0.9999943763727074
0.9999894895125933
0.9999745277572635
0.9999507085969404
0.9999600588923342
0.9998131789254482
0.9999624363855807
0.9999672025688561
0.9999569940111549
0.9999150550205678
0.9999994132668366
0.9999825886905993
0.9999614895975786
0.9999626900464855
0.9999733691038754
0.9999753907072297
0.999950214874933
0.9993029728461489
0.9997429935209122
0.9999435067218094
0.9999930301048383
0.9999994048710645
0.9999869407078771
0.9999677115295723
0.9999983006620249
0.9999849942195672
0.9999309992389352
0.999979694843138
0.999904643327267
0.99987132377338
0.9999722666396257
0.9999913901331824
0.9999862277996118
0.9999388338065642
0.9998608358097608
0.9999983023352277
0.9999997670330273
0.9999654957549108
0.9999638393989916
0.9996600667459036
0.999920066701001
0.9999982717106077
0.999987528370324
0.9999705533662407
0.999973121943082
0.9999856384177365
0.9999721885465762
0.9999630207003969
0.9999620716537718
0.9999565870774795
0.9999558995051835
0.9999605086750981
0.9999567018336792
0.9999615492358942
0.9999597296828647
0.9999643965850781
0.9999654255940182
0.9998833349460767
0.999417925911864
0.9997420792486644
0.9994972843323312
0.9997562691277837
0.9996281507928921
0.9997713430048153
0.9996997433982341
0.9997888860952625
0.9997416921862554
0.9998002926580613
0.9997736823215898
0.9998186942425915
0.9997974255223504
0.999830880284137
0.9998162394903479
0.9998410007896747
0.9998284444418974
0.9998493268852686
0.9998402016577244
0.999857179232164
0.9998506471212786
0.9998637926402474
0.9998589311946715
0.9998714934058208
0.9998678589097869
0.9998779656919231
0.9998739844374608
0.9998833446413726
0.9998787607942012
0.9998887163228309
0.9998869667216318
0.9998945063483821
0.9998928625983454
0.9998993590542888
0.9998982201005425
0.9999041625880242
0.9999036718550588
0.9996835587150648
0.9999087775881249
0.9998237039741391
0.9998814749121889
0.9999084383931218
0.9999134213521655
0.9999133269934253
0.9999085252352199
0.9999136393360647
0.999918056833815
0.9999184949902306
0.9998966021093995
0.9999228331305493
0.9999233053778571
0.999927299810645
0.999909130055546
0.9999143864744182
0.9999279566729106
0.9999102021740356
0.9999156037479906
0.9999319557825886
0.9999327763269861
0.9999120512693846
0.9999172534264307
0.9999365624271044
0.9999374902284532
0.9999141097741263
0.9999193153016254
0.9999410938942744
0.9999420296300018
0.9999158814452582
0.9999215773647047
0.999945406527951
0.9999461922621133
0.9999183047299436
0.9999245813581273
0.9999217937297471
0.9999157747331692
0.9999445229067726
0.9999494226613502
0.9999500044060888
0.9999469377035655
0.9998720213783295
0.9999508378298729
0.9999479945252083
0.9999517964752968
0.9999279105995648
0.9999253328436978
0.9999298628539374
0.9999531334473645
0.9999307044668965
0.9999283977143288
0.99985477466673
0.9999335286344687
0.9999314808288337
0.99993639008417
0.9999345110823732
0.9999296802892736
0.9999329322870555
0.9999289929351206
0.9999392073791261
0.9999330260437457
0.9999289482583351
0.9999414687411468
0.999943789660347
0.999932813500968
0.9999298162327567
0.9999496874455899
0.9999531933874907
0.9999462012989796
0.9999481748270516
0.999951486999677
0.9999549550997016
0.9999566785361338
0.9999579463678111
0.9999601855934699
0.999960777788912
0.9999629980828438
0.999963215155279
0.9999653959208864
0.9999614420793086
0.9999652464225289
0.9999675502789358
0.999950728660011
0.999933818634218
0.9999312155803174
0.9999679041124818
0.9999700719599753
0.9999694746236442
0.999971036173816
0.9999524670473786
0.9999721083592844
0.9999712921547491
0.9999551548430233
0.9999567541587988
0.9999541779339639
0.9999739221828651
0.9999729731267659
0.9999595974991496
0.999958226521695
0.9999581514046467
0.9999554722694258
0.999975283884956
0.9999744643242494
0.9999718872080124
0.9999763891692788
0.9999731435906812
0.9999708501220247
0.9999355492234121
0.9999336064351949
0.9999281867387463
0.9999329871484106
0.9999269226599098
0.999932328038793
0.9999257444876958
0.9999626208823671
0.9999613608645261
0.9999590112559793
0.9999564113102235
0.9999754718373195
0.9999329745935865
0.9999269152754839
0.9999656610588938
0.9999645249163193
0.9999220220421323
0.9999742784819923
0.9998627872284975
0.999992132664892
0.9998581608566792
0.9999535757759469
0.9999339808441619
0.9999276592463403
0.9999598401901493
0.9999572045531698
0.9999686140832141
0.9999677251980473
0.9999764188509985
0.9999384662863963
0.9999397444936046
0.9999388993414862
0.9999750122192993
0.999936360174596
0.9999296689182778
0.9999695419205947
0.9999599277666453
0.9999572812132498
0.9999500732534978
0.9999527254794319
0.9999490570733698
0.9999528752216403
0.9999716319360253
0.9999706754008678
0.9999083938312648
0.9999384112305263
0.9999344579057048
0.9999770519738895
0.9999784870582332
0.9999428953421334
0.9999377998926063
0.999975701882604
0.9999738852057652
0.9999449594022141
0.9999628253270247
0.9999746228155386
0.9999736064583628
0.9999695516309368
0.9999725424928373
0.9999683393799786
0.9999713974298062
0.9999670589381096
0.9999701585229193
0.999965726135722
0.9999688882922627
0.9999731944246593
0.9999720099719073
0.9999761476627508
0.9999750043929466
0.9999789436889358
0.9999778212215151
0.9999644179144129
0.9999738119015394
0.9999766612598022
0.9999805009775813
0.9999793742735894
0.999941997149523
0.9999429731246883
0.9999598032402672
0.999957116196304
0.999975507087959
0.9999782169754272
0.9999818856539089
0.9999807432175054
0.9999453587860225
0.9999458332231922
0.999949498594799
0.9999538665213077
0.9999509005914354
0.9999775179665941
0.9999760144457553
0.9999775140861296
0.9999172643363389
0.9999315589455133
0.999984189238779
0.9999830648216361
0.9999795418909571
0.9999819050411849
0.9999291187742558
0.9999560937254703
0.9999579510849305
0.9999405047403275
0.9999591460884981
0.9999566113155248
0.9999532488214407
0.9999851794145451
0.9999841044244789
0.9999807201208207
0.9999830354827426
0.9999796771227907
0.9999819222411621
0.9999850350048163
0.9999839016116551
0.9999456666817758
0.9999479606971671
0.9999479681402602
0.9999784036419812
0.9999776890914754
0.9999762397873053
0.9999866258384124
0.9999856246598002
0.999939698345175
0.9999584956018742
0.9999557990441154
0.9999279098559448
0.9999616419177169
0.9999811410411027
0.9999439958052105
0.9999430816469179
0.9999778895198232
0.9999757884536503
0.9999743191293948
0.9999490161328692
0.9999794009435546
0.999948696780424
0.9999603639471056
0.9999597095001537
0.9999576950349419
0.9999786413677327
0.9999568052926143
0.9999542516221852
0.9999499395633644
0.9999495027098775
0.9999540939936118
0.9999881653263367
0.9999870662342248
0.9999532204248125
0.9999518439365731
0.9999891608808597
0.9999817719846272
0.9999521650959892
0.9999497734751348
0.9999639823074834
0.9999739526914484
0.9999726151655256
0.9999752252843898
0.9999893790436121
0.9999882784724622
0.9999761861134062
0.9999752346263656
0.9999843553207243
0.9999859780604387
0.9999872217062676
0.9999518996694342
0.9999503234033722
0.9999893109513074
0.9999882439005253
0.9999494077899898
0.9999469688178085
0.9999638982353378
0.9999627964652332
0.9999475807252025
0.9999448401485569
0.9999432449821365
0.999941072549974
0.9999733105009327
0.9999743863402237
0.9999363936111691
0.999941046106737
0.9999470830917299
0.9999848567733954
0.9999901389542208
0.9999890510114537
0.999970173410203
0.9999848708852908
0.999980043036788
0.9999429690595674
0.9999393238115569
0.999936808109654
0.9999347073941468
0.9999377396556725
0.9999330081892588
0.999936903964352
0.9999321723546698
0.9999374194201602
0.9999326245473391
0.9999391396228627
0.9999263017745964
0.9999285810692681
0.9999529304555508
0.9999547962493627
0.9999176074360191
0.9999204355490288
0.9999334899293928
0.9999246717012608
0.9999725877646093
0.9999717743754277
0.9999464746310424
0.9999872926024733
0.9999867573956344
0.9999743415084487
0.9999709475559306
0.9999723525792217
0.9999731380952582
0.999975253974549
0.9999548934238875
0.99996154586158
0.9999822614032674
0.9999851249934099
0.999982601280915
0.9999313761706156
0.9999688092580047
0.9999689874404262
0.9999363030264975
0.9999906862808837
0.9999896341257246
0.9999879874629787
0.9999885927932347
0.9999291098593842
0.9999359747936215
0.9999601069635365
0.9999916686416569
0.9999543074675799
0.999990072944598
0.9999890234824673
0.9999874914782946
0.9999879414867706
0.9999863565631176
0.9999868213583214
0.9999881550147116
0.9999870720649492
0.9999099014225773
0.9999114113844128
0.9999245199460406
0.9999895538857532
0.9999892063547731
0.9999851325789494
0.999982631074568
0.9999736794561389
0.9999714419506176
0.9999698182157727
0.9999753135075795
0.9999447517502419
0.999942150823382
0.9999086022963837
0.9999439348040859
0.9999446436644909
0.9999757497832824
0.9999201077190724
0.9999507391634326
0.9999881646137476
0.9999871358305592
0.999968002493682
0.999963581116371
0.9999262091159569
0.9999491416839885
0.9999561416577628
0.9999582502240325
0.9999336198461978
0.9999901754766538
0.9999528018454305
0.9999853118528153
0.9999636474317036
0.9998991966475814
0.9999021831510234
0.9999521164331477
0.9999734894415044
0.9999702281158284
0.9999875096062754
0.9999681375729894
0.9999647014580946
0.9999672752801385
0.9999650917687071
0.9999625976425633
0.9999633655737411
0.9999649960256063
0.9999635054744846
0.9999647454822395
0.9999644170957889
0.9999645505349807
0.9999646639155586
0.9999648025050267
0.9999648344580097
0.9999643513124319
0.9999649354369792
0.9999655845570614
0.9999614946881499
0.9999510595827129
0.9999489206477432
0.9999515942799161
0.9999658646942238
0.999966443072637
0.9999653209339343
0.9999873626798723
0.999988436906121
0.9999902181510566
0.9999912345386417
0.9999927344564148
0.9999936660126787
0.9999922224580308
0.9999945496094631
0.9999931464963617
0.9992617283109296
0.9999948862554857
0.9999940111545758
0.9999198065406775
0.9999611348919809
0.9999597947298342
0.9999563809262997
0.9999550170462301
0.9999514702156013
0.9999501001580879
0.9999537510217056
0.9999488191109679
0.9999526739974501
0.9999476075267766
0.9999515485441258
0.9999437404065032
0.9999463711526647
0.9999479553525739
0.9999562937126207
0.9999551772386941
0.999947937273198
0.999892220219991
0.9997669623712772
0.9999743666549255
0.9999714802552007
0.99997047080729
0.9998622338508777
0.9998821131111953
0.9999857127451947
0.9999544346332532
0.9999719362502907
0.9999694479098461
0.9999058705360442
0.9999848400434193
0.9999823470873455
0.9998509544587559
0.999995330339437
0.9999938752072659
0.9999800062195752
0.9999797797569023
0.9999772576501024
0.999977119766044
0.9999792564665327
0.9999765842808139
0.9999784272878774
0.9999756958588122
0.9999280152676179
0.9999699726690147
0.9999752499638734
0.9999760373982489
0.9999461091914956
0.9999552065366241
0.9999655401892387
0.9999645085194379
0.9999917476799446
0.9999914332939204
0.9999919341912795
0.9999410346186488
0.9999388500489762
0.9999679157230803
0.9999774804519131
0.9999845477271709
0.9999689529840179
0.9999859181799305
0.9999859540991829
0.9999869276016299
0.9999858487129204
0.9999045875977052
0.9999310548198698
0.9999465689832072
0.9999656277527172
0.9999864094913319
0.9999507570248155
0.9999542505727499
0.9999928418842835
0.9999745194438664
0.9999689361596674
0.9999697107117841
0.9999697253538514
0.9999669354149381
0.9999671632412046
0.9999132161331662
0.9998862331171613
0.9998912858020916
0.9999099040711796
0.9999773616447196
0.9999745300342057
0.9999821283995506
0.999963907312737
0.9999665187726895
0.9999674218617262
0.9999842806249507
0.9999558767667281
0.9999488429295987
0.9999483676904214
0.9999420155694756
0.9999496035806701
0.9999485619740183
0.9999913421992451
0.9999738669296834
0.9999729191295341
0.9999745127405032
0.9999718341757298
0.9999847473412574
0.9999846417154696
0.9999853760944922
0.999984199027978
0.9999674408858202
0.9999669337695213
0.9999958704808182
0.9999950269686899
0.9999426761441934
0.9999444786727323
0.9999918119227444
0.9999727857715761
0.999970178215421
0.9999771267436436
0.9999777008608973
0.9999788709398957
0.9999791983655022
0.99999369307606
0.9998844693134757
0.9999422958448004
0.9999444127486726
0.9999602567108717
0.9999622244923849
0.9999592457179716
0.9999637861308521
0.9999607358599558
0.9999650194964582
0.999961926581499
0.9999761904388695
0.9999701616067536
0.9999836935586073
0.9999925555200528
0.9999937332871247
0.999993456302624
0.9999960202995541
0.9999734670637676
0.9999847322718322
0.9999643498614834
0.999963836890406
0.9999149591595565
0.9999796691655445
0.9999714867928212
0.9999703140477727
0.9999964744229405
0.9999945426403938
0.9999413178631653
0.9999671045203471
0.9999680435844829
0.9999678937276814
0.9999686643808687
0.99997783813584
0.9999871279985972
0.999965899664365
0.9999755528271704
0.9999454217055403
0.9999727165589796
0.999983449810129
0.9999822932887902
0.9999846906844112
0.9999829742959212
0.9999533888076748
0.9999570012501336
0.9999657141345494
0.9999628186595354
0.9999585114820542
0.9999595790686137
0.999963380443288
0.9999602482864935
0.9999635676492109
0.9999605148552926
0.9999634574531551
0.999872230491237
0.9999666516475807
0.9998789257394298
0.9999466060517089
0.9999693029361608
0.999963156146163
0.9999658266774019
0.9999785588020453
0.9999602841434291
0.999924247335263
0.9999214099514742
0.9999754654186548
0.9999929764708387
0.9999865611097847
0.9999835355163693
0.999965340361152
0.999949577045002
0.9999462148335336
0.9999513076117238
0.9998923433219788
0.9999482838158282
0.9999570327896022
0.9999966093193146
0.9999958153332058
0.9999941536011802
0.9999949865092391
0.9999837516832322
0.9999811725104831
0.9999690611413697
0.9999697228253005
0.9999861886495168
0.9999895819246256
0.9999437862571849
0.9999706924066407
0.9999682041662374
0.999922940472493
0.9999858171076147
0.9999625556353399
0.9999674653871319
0.9999963880361751
0.9999956312103886
0.9999630138844209
0.9999634876879947
0.9999594405788651
0.9999194313566181
0.9999417508267282
0.9998545207283951
0.9999932266742448
0.9999562383320213
0.999996626861561
0.999941180328908
0.9999235388668816
0.9999267277403273
0.9999829735937129
0.9999522071110056
0.9999503329154583
0.9999509780895794
0.9999494227510278
0.9999493426457896
0.9999487995845817
0.9999945607880562
0.9999943366542718
0.9999524357070229
0.9999977131977853
0.9999826426003658
0.9999836551719841
0.9999559579517199
0.9999620420938504
0.9999574986930054
0.9999726642506052
0.9999713711882817
0.999954977728275
0.9999594596449453
0.9999599072446794
0.9999586097175659
0.9999521339157039
0.999954163977885
0.9999796260459735
0.9999705621904377
0.9999712629404353
0.999997339623716
0.9999857161751904
0.9999608329004545
0.9999597038456524
0.99989276128128
0.9999681299041097
0.9999639855089192
0.9999638425096561
0.9999466807247032
0.9999169964670277
0.9999137498717525
0.999918781125192
0.9999421513087677
0.9998639404413208
0.9998918008631628
0.9999967673723529
0.9999960451976161
0.9999947057028058
0.99998353582307
0.9999834518955124
0.9999849297533144
0.9999483771061837
0.9999480227146662
0.999966562830042
0.9999692386814364
0.9999696550931518
0.9999699154021616
0.9999632945675438
0.9998527287466781
0.9999447956296313
0.9999375716440569
0.9999329493463529
0.9999231836973966
0.9999220678377413
0.9999262231418554
0.9999672470467306
0.9999391812135817
0.9999372726951309
0.9999089910140068
0.9999052255249068
0.9999594607609248
0.9999588161473839
0.9999614107713757
0.9999603085065263
0.9999578636969665
0.9999953275026714
0.9999930977480602
0.9999971021446
0.9999595247840367
0.9999459720542969
0.999953837359559
0.9999660362985726
0.9999953316485626
0.9999517904526858
0.9999767268473236
0.999932089571637
0.9999212514965914
0.9999296184638441
0.9999219934742752
0.9999294171111368
0.9999233815869185
0.999930569776665
0.9999258930153108
0.9999324320449553
0.9999127769390939
0.9999188442823272
0.9999945404008608
0.9999684117493141
0.9999744196684084
0.9999717851467376
0.9999720721453982
0.9999439500385496
0.9999100647789607
0.9999614017994857
0.9999667827493071
0.9998570168014969
0.999867214610085
0.9999716122138438
0.9999694041403538
0.9999716838689121
0.9999530996769402
0.9999493767255184
0.9999366512528799
0.9998326377675529
0.9999633601706722
0.9999590821076239
0.9998474048957373
0.9999796292809199
0.9999784773261109
0.9999800588267317
0.9999773571260748
0.99992196528736
0.9999556160306641
0.9999059286832519
0.9999600510305934
0.9999557337387346
0.999934273808075
0.9999361791264089
0.999987932108718
0.9999891516062831
0.9999889382013589
0.9999898331723829
0.9999894243242519
0.9999902594660168
0.9999907065970662
0.9999912601479515
0.9999930535509082
0.9999823469497944
0.9999864279498489
0.9999565180147393
0.9999582089697335
0.999954265267303
0.9999885750381626
0.9999888435312216
0.999988115539299
0.9999888125614951
0.9999810378974486
0.9999846968713202
0.9999869245880538
0.9999623946169425
0.9999820470810927
0.9999921490243168
0.9999821379143911
0.9999822717036139
0.9999827266727007
0.9999814609120775
0.9999569183089686
0.99998094095009
0.9999796115077193
0.9999819590846108
0.9999804083230527
0.999978977272147
0.9999448378761095
0.9999395417854968
0.9999693932078376
0.9999689102569276
0.9999692049642575
0.9999951014862816
0.9999959346163174
0.9999684066131439
0.9999629234463522
0.9999370489684696
0.9999844778424293
0.9999781830025215
0.9999581955476868
0.9999554250187154
0.9999755675456495
0.9999825690427496
0.999983395113196
0.9999936545588475
0.9999925071115181
0.9999810281135637
0.9999974504257079
0.9999703845195466
0.9999578464401492
0.9999648649503597
0.999973112699049
0.9999977865397879
0.9999615447415153
0.9999717217815522
0.9999484323112591
0.9999616679772827
0.999985065476136
0.9999491668996328
0.9999725104029625
0.999989186162367
0.99999096717461
0.9999915046761769
0.9999828070940991
0.9999635648593919
0.9999517454675573
0.9999881361262388
0.9999566507963157
0.9999686820550321
0.9999687756325032
0.999960920089993
0.9999500565893921
0.9999512390703801
0.9999644009670645
0.9999606356488626
0.9999858895284984
0.9999448496771197
0.9999475500755324
0.9999464761979904
0.9999820811365816
0.9999803391778315
0.9999658520434456
0.9999893666968058
0.9999885837585246
0.9999957071496701
0.9999977912977006
0.9999948622329097
0.999967845884002
0.9999666727404254
0.9999697975599735
0.999967430986346
0.9999656264974794
0.9999667431413356
0.9999761434462644
0.9999544014807278
0.9999605127365787
0.9999969638665432
0.9999717973429201
0.9999695878260214
0.9999688887759032
0.999967448559386
0.9999700202915754
0.9999682273186997
0.9999691436564497
0.9999508089334286
0.9999486732249032
0.9999475985308371
0.999946458535348
0.999947757392189
0.9999447348410696
0.9999460522865656
0.9999677637001724
0.9999428926699154
0.9999441653227777
0.9999669866569654
0.9999490888294322
0.999947700794208
0.9999458870571626
0.9999819324113387
0.9999832634502328
0.999995984180492
0.99999748800439
0.9999994023670932
0.9999033678828386
0.9998887089092696
0.9998323597603489
0.9998681328954157
0.9998992401888644
0.9998722347592914
0.9998911538711118
0.9998502835040068
0.9998735138408122
0.9998251896526935
0.9998629504431097
0.9998252725731986
0.9998565983741595
0.9998301924854888
0.9998541745794596
0.9998379896283556
0.999857028305287
0.9998463628201872
0.9998620830536985
0.9998556783610715
0.9998681461610642
0.999864694813975
0.9998750809515887
0.9998731699517429
0.9998820572308222
0.9998847640110657
0.9998905152863327
0.9998820583218356
0.999872520003508
0.9998644238417635
0.99984283263557
0.9999051561803575
0.9998141455136119
0.9998938898150906
0.9998983394238546
0.9998964905006573
0.999903298108797
0.9998763897657452
0.9997810835977267
0.9998895745732134
0.9998152789041688
0.9999025431874375
0.9999086132777282
0.9999097530761843
0.9998988940624771
0.999897730340493
0.9998963284742043
0.9999030282815679
0.9998979114704271
0.9998066012779191
0.9997245239847335
0.9999143338069402
0.9999158629430843
0.9999121332348766
0.999918500266104
0.9999983824037731
0.999997985237611
0.9999689600612284
0.9999910846301072
0.999992315089025
0.9999712980332176
0.9999739555497166
0.9999592973239965
0.9999620547621332
0.9999137888925543
0.9999653438073999
0.9999650577286876
0.9999664683709154
0.9999608168559952
0.9999352678103491
0.9999562159554247
0.9999578669241268
0.9999285871342012
0.9999156959915333
0.9999349127751571
0.9999094020992404
0.9999431064338982
0.999936432184005
0.9999378699536331
0.9999342566934954
0.9999322967041282
0.9999359198703102
0.9999307161341772
0.9999346687197631
0.9999294170025215
0.9999336325398336
0.9999285419887114
0.9999328495562957
0.9999377216581099
0.999936632748509
0.9999556222511442
0.9999516661128982
0.9999518309049077
0.9999477714633365
0.9999497880941004
0.9998998453372763
0.9998963536525619
0.9999017988793504
0.999892533726497
0.9999641261778837
0.9999661201695008
0.9999690723695575
0.9999281708771075
0.9999153047547226
0.9999117159674158
1.0000023219119374
0.9999672576411017
0.9999664972316378
0.9999639711099899
0.9999653345766942
0.9999604480254509
0.9999543743547648
0.9999540427198097
0.9999466341548712
0.9999453764696196
0.999955500145887
0.9999651986344076
0.9999421411348612
0.9999132179845756
0.9999045368770509
0.9999706136472379
0.9999730137976625
0.9999813599133378
0.9999818736381185
0.9999796684078296
0.9999677340869038
0.9999864305369242
0.9999574787663642
0.9998038697889422
0.9998018829525542
0.9999469667772447
1.0000004569528074
0.9999996665230966
0.9999815301709603
0.9999840408373821
0.9999825964685889
0.9999896800289804
0.999990885751268
0.9999816329347507
0.9999816433743406
0.9999827253111325
0.9999695590676843
0.9999700530226414
0.9999708266609658
0.9999689367687691
0.9999479211249647
0.9999675122837709
0.9999665972314989
0.9999902726859483
0.9998857348397002
0.9998801783769968
0.9998891039057821
0.9998761819470734
0.9999661128657077
0.9999700160764432
0.9999713355876912
0.9999849856108846
0.99993578381612
0.9999805031182627
0.9999802451225479
0.999979096286921
0.9999786571059194
0.9999774584000718
0.999977806953369
0.9999761129247446
0.9999983766393044
0.9999986622197616
0.9999975121833254
0.9999188729408423
0.9999437582763054
0.9999342345024266
0.9999317080060169
0.9999807502063756
0.9999785842129106
0.9999609345634484
0.9999620677159929
0.9999484731585504
0.9999440454633394
0.9999627681265177
0.9999646063488496
0.9999807143796186
0.9999346233269923
0.9999315960586218
0.9999814815547379
0.9999965478460113
0.9999531783869672
0.9999471806247826
0.9999507045326249
0.9999924914988549
0.9999805366394082
0.9999927530691647
0.9999708423308069
0.9999816782357098
0.9999656870342404
0.9999411779948927
0.999969658363085
0.9999708801130597
0.9999777455573281
0.9999475348550291
0.9999189415212469
0.9999866438348362
0.999986632198062
0.9998220667844543
0.9999963941697033
0.9999969831228029
0.9999915520736637
0.9999926013024242
0.9999914365268409
0.9999933088806987
0.9999931211905074
0.9998862280652857
0.9998958543471277
0.9999531859153851
0.999965812958773
0.9999454839466134
0.9999969198671699
0.9999881112292325
0.9999887240699771
0.9998659695834848
0.9998606641592277
0.9999710860201722
0.9999458483556172
0.9999443029358384
0.9999706263213227
0.9999667316689068
0.999966155135207
0.9999252453598444
0.9999958775059762
0.9999965890856294
0.9999459119690001
0.9999418894359323
0.9999917052824072
0.9999806564755307
0.9999278663008357
0.9999234735830952
0.9997646409870511
0.9999979707760949
0.9999249336685675
0.9999074312875946
0.9999075268956229
0.9999441924563398
0.9999416895093399
0.999900190992285
0.9998936851576863
0.9998968037604218
0.999890329085992
0.9998941069522591
0.999887149417236
0.9998830989144336
0.9998798259241579
0.9998752099276509
0.9998717135383279
0.9998926233338596
0.9999713494319323
0.9999403198675036
0.9999305624695062
0.9998363939824271
0.9997109717426448
0.999696585702417
0.9997378347405869
0.999784070942714
0.9997062287805789
0.9996102440254787
0.9997102353106533
0.9999470790818239
0.9999396435401964
0.9999644152660583
0.9999587619210584
0.999957600136669
0.9999902515579266
0.9999910601966336
0.9999642191997884
0.9999650977518348
0.9999625495809801
0.9999137547462282
0.9995442764256975
0.999877390883304
0.9998686514880737
0.9998624959010802
0.999859616369417
0.9998524568352228
0.9999652910580347
0.9999614720466199
0.9995667932937794
1.0000008783230532
0.9999857378539647
0.9999698048813994
0.9999159593647104
0.9998897872599444
0.9998905708408218
0.9999315351465905
0.999989373163823
0.9999839871054783
0.9999837469314883
0.9999593853520277
0.9999936035070419
0.999994877373328
0.9999952612666102
0.9999965402976561
0.9999771844130794
0.9999822526187386
0.9999767949143393
0.9999717922720016
0.999943942175124
0.9999398057200133
0.9999965510437312
0.9999212531476387
0.9998783681032555
0.9997982461176277
0.9997867028030764
0.9998077276942821
0.9997923829395807
0.9998131309784335
0.9997655422622748
0.9998256443218613
0.99982923236432
0.999782443216511
0.9999883051348264
0.9998384426546661
0.9999723458349563
0.9999094882874779
0.9999901035521251
0.9999891260384408
0.9997598113087557
0.9997294649804008
0.9999522345791985
0.9999910162384258
0.9999918492886913
0.999992260877301
0.9999926807583324
0.9999928748218011
0.9999934009662659
0.9999648863494648
0.9999641506679326
0.9999640541740326
0.9999633188266258
0.9999636486079733
0.9999624219089985
0.9999633919438701
0.9999621739016453
0.9999608038877358
0.9999644144101522
0.999960615158055
0.9999647278913119
0.9999635339644712
0.999965077723233
0.9999625113581957
0.9999650677260169
0.9999660978656952
0.9999646055333379
0.9999651628964183
0.9998879926467008
0.9998504487068708
0.9999353376883925
0.9998303925626105
0.9998363251939428
0.9999952868622123
0.9999566948231833
0.9999105626075345
0.9998968322253341
0.9998960512168945
0.9998993241528222
0.999911301626323
0.9999025944455356
0.9999054002405309
0.9998963357887164
0.9998701628175033
0.9999589263888812
0.999970037161012
0.9999741114769697
0.9999638867010913
0.9999581685544895
0.9999603693204785
0.9999490809085833
0.9998972434704791
0.9998993842868924
0.9999090576740209
0.9999176407824166
0.9999261608926074
0.9998544755165772
0.9999691197450195
0.999944208371342
0.9999479197413026
0.9996838830517296
0.999982966640764
0.9999921218149967
0.9999436040353781
0.9999566028801465
0.9999618287451716
0.9999599793288337
0.9999917274508195
0.9999732944745467
0.9999702171215922
0.9999709754358722
0.9999688914520262
0.999968812569628
0.9999671383021718
0.9999667730313241
0.9999679539853072
0.9999645267802106
0.9999728852524373
0.9999715739144021
0.99997432221884
0.9999700569985787
0.9999736810383069
0.9999895610187937
0.9999436468112041
0.9999662730860358
0.9999134425333888
0.9999666627473313
0.999922725599871
0.9999141746232034
0.9999196365946642
0.9999100006252857
0.9998985607356118
0.999899838886494
0.9999087418878435
0.9999242752944953
0.9999349315403114
0.9999185051273108
0.9999812127987229
0.9999679337082726
0.9999897924269163
0.999904704942952
0.9999903855852933
0.9999843323550406
0.9999847708742503
0.9998676205101718
0.9999454269920643
0.999954037074473
0.9999545358674911
0.9999558405563022
0.9999534548503684
0.9998959465322239
0.9999915114280388
0.9999854622637794
0.9999996530492068
0.9998011860436449
0.9999742598377515
0.9999784058011103
0.9999976487505635
0.9999980831664567
0.9999255123462484
0.9999553038730856
0.9999743586232144
0.9999204272985095
0.9999227665068717
0.9999166408186183
0.9999374219873451
0.9999147455530026
0.9999410115735068
0.9998892422465211
0.999890346924054
0.9999658280664204
0.9999614895694414
0.9999631865124174
0.9999600683553128
0.9998851785405195
0.9999739380281606
0.9999705743925686
0.9999877994795605
0.9999800660313217
0.9998190602740212
0.9999595454887135
0.9998499041415084
0.9999777265007029
0.9999667472506082
0.9999657686422985
0.9999687101367087
0.999965484995302
0.9999623506109017
0.9999322168905399
0.9999098389262662
0.9999277053640393
0.9999489352099661
0.999950563163271
0.9999715978819245
0.9999989143178858
0.9999985707146215
0.9999993085134339
0.9999990685615409
0.9999994108339632
0.9999985254456889
0.9999973559831544
0.9999986486921262
0.9999574868777028
0.9999519857803169
0.9999549367700479
0.9999599204929799
0.9999773051417556
0.9999415502717415
0.9999704717636526
0.9999761312390557
0.999973160526222
0.9999744223391545
0.9999833286574117
0.9999627136181076
0.9999467720159634
0.9999343144519325
0.9999749469134985
0.9999720623263774
0.9999398135682127
0.9999547385645814
0.9999503742918293
0.9999475491156649
0.9999449776548337
0.9999520076938314
0.9995625173628051
0.9999952322825797
0.999995019195945
0.9999943576756639
0.9999956639002053
0.9999662725616703
0.9999881529008753
0.9997856466161229
0.999828987910765
0.9999625606330009
0.9999580847448182
0.999962146925891
0.999942504740235
0.9999367950244364
0.9999068251691714
0.9999622719404795
0.9999710633421534
0.9999958049024298
0.9998988991352258
0.9998974886997842
0.9999989335686253
0.9999891981364356
0.9999794065472859
0.9999830990708359
0.9999578489746116
0.9999596576761073
0.9999574044018978
0.9999548195071166
0.9999547802270273
0.9999451699427645
0.999946387259001
0.9999389366090912
0.9999952702886966
0.999990587395812
0.9999915623119071
0.9999926575039826
0.9999936500682826
0.9999941966679533
0.9999913851495084
0.9999920096090782
0.9998965748800321
0.9999493420038519
0.9999838435313368
0.9999975313352519
0.9999588511303553
0.9999971131499389
0.9999980151792698
0.999979097502278
0.9999608560306005
0.9999581660264417
0.9999770416173498
0.9999459796358086
0.9999636546660823
0.9999866286149883
0.9999488779952957
0.9999467688317345
0.99995190321023
0.9999415005230462
0.999953570452366
0.9999452483575173
0.9999400857308053
0.999934166842981
0.9999689962148528
0.9999585467962866
0.9999586609776744
0.9999770815472142
0.9999719642525854
0.9999560142138402
0.9999398489055094
0.9999390944581823
0.9999387135983876
0.9999405223140069
0.9999373272490273
0.9999397800617489
0.9999981334826297
0.999998956376388
0.9999997416917719
0.9999971492592262
0.9999876913578603
0.9999085551297832
0.999973115023243
0.999981809593104
0.9999957127365503
0.9999882348054857
0.999963770355669
0.9999426614606011
0.9999479397409803
0.9999726173282166
0.9999755652294069
0.999966414922577
0.9999871988336487
0.9999734543348798
0.9999745012560869
0.999977154910872
0.9999582616880885
0.9999744025862792
0.9999604331479787
0.9999284229986243
0.9999310888919105
0.9999288149589411
0.9999660766112102
0.9999937939755948
0.9999125063651889
0.999983035934756
0.9999841317082956
0.9999874815724292
0.9999851635276213
0.9999884169897778
0.9999894983603447
0.9999537041557613
0.9999609332346703
0.9999623265105582
0.9999676313238594
0.9999674075805518
0.9999985714533952
0.9999765575839493
0.9999815991140297
0.999992329092591
0.9999411279394474
0.9999697401061947
0.9999695755022515
0.9999527015016373
0.9991373526649939
0.9999910052380303
0.9999548448249928
0.999957320234481
0.9999564673145764
0.999953651858827
0.999953081204352
0.9999488810279135
0.9999577520524082
0.9999943991388448
0.9999398523870705
0.9999708394795978
0.9999613148553713
0.9999559827143332
0.9999840191807038
0.9999875524763131
0.9999964125559527
0.9999115005447832
0.9999643889400769
0.9999608409425877
0.9999562326007037
0.9999602597296489
0.9999762855393413
0.9999396516176695
0.9999541773935964
0.9999243505117558
0.9999121115702868
0.9999494042102034
0.9999630340775756
0.9999782496145815
0.9999657945844499
0.9999584955092466
0.9999861312507347
0.9999771753627119
0.9999345724119287
0.9999516018223139
0.9999355843012487
0.9999676612501225
0.999953324239804
0.9999725281601386
0.9999917780406518
0.9999682769528823
0.9999273843231246
0.9999319214092013
0.9999679315457791
0.9999989992435564
0.9999417392058914
0.9999625900088039
0.9999525818612185
0.9999573366196394
0.9999878557702563
0.999986083621889
0.9999862660332605
0.9999449886683174
0.999998662771042
0.9999970836662552
0.9999977053540168
0.9999995469417097
0.9999937164183829
0.9999940614519586
0.999984547321552
0.9999645728686839
0.9999979499920548
0.9999890336532014
0.9999252701610418
0.9999664372467033
0.9999826691527449
0.9999850400749117
0.999956788879891
0.999965458612435
0.9999920350998703
0.9999622487998988
0.9999491919708902
0.9999545459111017
0.9999628324050831
0.9998840995077293
0.9999386742839945
0.999971796860285
0.9998550227751444
0.9998431070229749
0.9999838286747548
0.9999772386277184
0.9999726205051345
0.9999566528553886
0.9999966454524613
0.999943018758364
0.9999373021211994
0.9999240776963086
0.9999625331437705
0.9999772810593863
0.9999648642887765
0.9994875381330677
0.9999911091065593
0.9999861230690098
0.9999648412763598
0.999977652782995
0.9999529978802958
0.9999757944663837
0.9999788839786814
0.9999749344217783
0.9999465886159025
0.9999660954681052
0.9999981556364311
0.9999830688853012
0.9999748470142257
0.9999184085417034
0.9999952287635826
0.9999790803898345
0.9999408267533446
0.9999669342738944
0.9999437773242469
0.9999593533299634
0.9998876918958081
0.9999681973680731
0.9999682164904609
0.9999486146661473
0.9999868956694409
0.9998873127444773
0.9998824852185033
0.9999941208731882
0.9999770481608824
0.9999930886606727
0.9999901057026993
0.9999636049725813
0.9996143254074024
0.99998361977361
0.9999800449521653
0.9999790220912019
0.9998472230262904
0.9999743977835354
0.9999999536462597
0.99973338033824
0.9999808422423222
0.9999568854745222
0.9999330633544142
0.9999441848128549
0.9998067136164116
0.9998374096531251
0.9999518599792833
0.999963335727705
0.9999015556107477
0.9999763886709714
0.9999715708810052
0.9999878258201702
0.999985945435738
0.9999690816881175
0.9999845301723556
0.999996620527276
0.999939958335367
0.999925804706517
0.9998667968325985
0.9999238782308951
0.9998865696412328
0.9999783212573459
0.9999871707149184
0.9997094305124276
0.9997693987586433
0.9997964778881412
0.9999631244690751
0.9998274564325038
0.9999680791493919
0.9999586277700804
0.9999808541205395
0.9999102632863212
0.9999215538490385
0.9999662088610601
0.9999702885734983
0.9999358336753833
0.9999893959725105
0.9999610374895379
0.9999786016676881
0.9999770492648787
0.9998974178722572
0.999863628208958
0.9999741458308383
0.9999740994286407
0.9999975403420959
0.9998796717192849
0.9999903678360578
0.999945169933159
0.999983398544574
0.9999698884956253
0.9999879850095408
0.9999634226385127
0.9999530087087126
0.9999496509714427
0.9999799741455985
0.9999708199076647
0.9999719838685132
0.9999979824745119
0.9999083666051922
0.999857244811283
0.9999696129898514
0.9999857315588252
0.999933128441332
0.9999955487452075
0.9999501025334888
0.9999808019146487
0.9999475552565792
0.9999536326183955
0.9998573607407378
0.9999686399683848
0.9990868023451176
0.9999142154563022
0.9999708502716544
0.9999548579056342
0.9999246387141859
0.9999744088089579
0.9999847240857218
0.9999542664164616
0.9999253453213041
0.9999852287834768
0.9999055980261331
0.9999672980206035
0.9999525351782717
0.999964541513602
0.9998535336418877
0.999899338231169
0.9999536772171325
0.9999650177833677
0.9999639971876577
0.9999009986647179
0.9999138937202412
0.9999897040183076
0.9999798233713356
0.9999197697912684
0.9999142553735293
0.9998792962828046
0.9999904967553637
0.9999431695058051
0.9999486986603903
0.9999566265558197
0.9998946557173561
0.999959347525171
0.9999744247937857
0.9999664139454835
0.9999721017929833
0.9999704729017224
0.9999614637183226
0.9999741492264221
0.9999473568282169
0.9998713438271858
0.9999505377780122
0.9999060610988919
0.9999402203215862
0.9999415320593997
0.9999990953042301
0.9999429551080259
0.9999709936433259
0.9999994119451446
0.9999730652518689
0.9999020223185051
0.9999669150994152
0.9999341061239694
0.9999619123579231
0.9999447267832301
0.9999269290913745
0.9995448025811179
0.9999557894045951
0.9999774560896733
0.9999481928247074
0.9999608138365244
0.9999618242296511
0.9999727866079801
0.9999137655120914
0.9999641746193698
0.9999364743491703
0.9999711014818496
0.9999696410264672
0.999969014629828
0.9999287598422778
0.9999789615714506
0.9999571264167377
0.9999674301486811
0.9998897809809821
0.9999719490829686
0.9999908099129626
0.9999571501368952
0.9999727743356142
0.9999763919741405
0.9999096917594827
0.9999222999802441
0.9999933850528754
0.9999455843445434
0.9999691731873943
0.9999412694503583
0.9999681056091774
0.999946131749069
0.9998430113979532
0.9999693608716073
0.9996906443796416
0.999921636607939
0.9999857683320813
0.999983936489822
0.9999661319812385
0.9999360714699129
0.9999595176021508
0.9999653135339575
0.9998828566166921
0.9999674782390406
0.9999480578177184
0.9999597460342843
0.9999716098878968
0.9999535779103723
0.999841852525139
0.9999822670458609
0.999981783392373
0.9999218067312478
0.999964287658192
0.9999604841553353
0.9998154326332578
0.999880657912162
0.9997857952649316
0.9999207475357285
0.9999696551513638
0.9999712482233818
0.9999690460444086
0.9999902710197575
0.9999438988509279
0.9999965831786463
0.9999512171016168
0.9999702071166205
0.9999666093629853
0.9999202069928771
0.9998069857533586
0.9998244421734269
0.999955953553111
0.9999758017027724
0.9999663311009537
0.9999757292298502
0.9999689946563696
0.9999762927194172
0.9999721553173833
0.9999936757958434
0.9999319564877508
0.9998667648349144
0.9999649335353614
0.9999107383814849
0.9999226335567158
0.9999778647324046
0.9999658702661826
0.9999041802712143
0.9999682326634592
0.9999572252802863
0.9999682673326457
0.9999619675375602
0.9999652500800332
0.9999651904218193
0.9999991715097782
0.9999487695184075
0.9998745004582539
0.9999549403855051
0.999919964340347
0.9998864637511375
0.9999493331601119
0.9999767448465595
0.9999445404558776
0.9999530245433126
0.9999244032211376
0.9999861174586185
0.9999809277762135
0.999885142816996
0.9999358013436874
0.9999425399630524
0.9999158318181516
0.9999798482314015
0.9999257122406843
0.9999390842709233
0.9999688488174414
0.9999296737597538
0.9999924845565328
0.9999886353363839
0.9999508427143237
0.9999923918801096
0.9999365833180509
0.9999802609867975
0.9999635120246809
0.9999742270938411
0.9999529205593709
0.9995611731240718
0.9998752232713507
0.9999851234246591
0.9999034181674495
0.9998379707235537
0.9999652455138541
0.9999673992226724
0.9999477287919201
0.9999880389133912
0.9999940644006368
0.9999581395119735
0.9999846492141939
0.9999123414183892
0.9999522100257638
0.9999632657450808
0.9999898056893642
0.9999589330075723
0.9999707366051812
0.9999586690831666
0.9999188533836969
0.9999947392500329
0.9999718333690413
0.9999674194984454
0.9999398628312169
0.9999495444284904
0.9999683399917493
0.9999732484999295
0.9999973746651506
0.999873941814163
0.9999594667026418
0.999979198353798
0.9999807580986207
0.9999693951294295
0.9999937670851272
0.999974166240023
0.999919873707103
0.9999431833909967
0.9999196211951213
0.9999405383958294
0.9997736587260636
0.9999579384205094
0.9999537825137246
0.9998472667693185
0.9997283555428511
0.9999272895209783
0.9999093648948337
0.9999406210686503
0.9999476081385128
0.999994964748931
0.9999887244322686
0.9999522066169666
0.999871030491013
0.9998914268924629
0.9997738880937964
0.9999701855398896
0.9998927598539561
0.9999190131644643
0.9999791445760725
0.9999562334068958
0.9999663657613288
0.9999916326323829
0.9999594643477335
0.999979894418188
0.999999820045329
0.9999789281609126
0.9999778556864574
0.9999702567264115
1.0000018232924055
0.9999551876183753
0.9999768610929411
0.9999036455825252
0.9999872823463895
0.999947136770987
0.9999106073826802
0.9999769545788029
0.999944171434587
0.9999999338499276
0.9999995165392733
0.9999998219590736
0.9999721568145018
0.99979537754016
0.999966883504749
0.9999931297064987
0.9999955942097458
0.9999477879772359
0.9999289848155453
0.9999457307834118
0.9999426956490447
0.9999277758562207
0.999965496153962
0.9999285825778413
0.9998646720478301
0.99991582695447
0.999968510535304
0.9999589927768848
0.9998998369027108
0.9999628138302695
0.9998726244825588
0.999983934939588
0.999882498552738
0.9999539174706888
0.9999527072029268
0.9999676678844354
0.9999985439181593
0.9999463683628363
0.9999351778160214
0.999747956713638
0.9999146642834444
0.9999632975059974
0.9999996273413341
0.9999667425114223
0.9999452002356563
0.9998745343479553
0.9999551343031384
0.9998429030414676
0.9999403261796783
0.9999625964873582
0.9999768271188321
0.9999113466539753
0.9998866263854477
0.9999829360829842
0.9999001609114451
0.9999365391507281
0.9998816940415826
0.9998531803183688
0.9999832940019969
0.9998925925716043
0.9999718337502048
1.0000107058862673
0.9999909275712737
0.9999355479777118
0.9999689023668499
0.9999300579705233
0.999998541969586
0.999986158537422
0.9999941172132395
0.9999522708727445
0.9999833466984129
0.9999437870319661
0.99990273138037
0.9998852767945953
0.9999957155266208
0.999974075627843
0.9999574688495382
0.9999914462808269
0.9999500799319968
0.999969177729302
0.9999992436452385
0.9999802353021572
0.9999324005651256
0.9999690752516533
0.999997744079864
0.9999947716709504
0.999992961210969
0.9999324105157376
0.9999899851404335
0.9998971758963316
0.9999227593210659
0.999957676767838
0.9999706445285187
0.9998829613787062
0.9999358715301936
0.9999752800661694
0.9999672427666049
0.9999259104661872
0.999998406870898
0.9999705834233855
0.9999377575684358
0.9999717923647019
0.9999764096961921
0.9999740414373202
0.9999484092795179
0.9999411098490677
0.9999468850797789
0.999979353226789
0.9999672195149709
0.9999342093319761
0.9999620004052077
0.9999817560897345
0.9999658610546073
0.9999474842715457
0.999926826450862
0.9999608747347427
0.9999396518466492
0.9999599374209842
0.9999551190204626
0.9999057452399429
0.9999476280718765
0.9999796797861533
0.9999965314818305
0.9999769267116277
0.9999830789511064
0.9999898141404673
0.9999501771362291
0.9999979653089631
0.9999803587414104
0.9999635686527374
0.9999655698624597
0.9999378395959109
0.9999648679776845
0.9999640239278414
0.9999581950419324
0.9999393694935184
0.999955873295025
0.9999369837146572
0.9999595868805419
0.9999992092491623
0.9999626842977846
0.9999071773820236
0.9999713682541312
0.9999963188685286
0.9999515564176771
0.999970006989538
0.9999657011858567
0.9997663599579434
0.9999560630531806
0.9999289927347763
0.9997039735508355
0.9998821011256636
0.9996112362027306
0.9999077286217708
0.9999140804470744
0.9999624495384313
0.9999801081761652
0.9999874658137115
0.9999687689154466
0.9999277714508519
0.9999448098540262
0.9999959168674654
0.9999675729877417
0.99996273551714
0.9999632796457946
0.9999398235988982
0.9999060163062921
0.9999814718526283
0.999859083837665
0.9999445012501552
0.9999548561250458
0.9999698238229849
0.9999893329172439
0.9999422274117897
0.9999699570230338
0.9999444938429869
0.9999673641606858
0.9999806036516383
0.9999885691905567
0.9999928234953618
0.9999921350143183
0.9998901232988209
0.9999635413181394
0.9998160139853248
0.9999734429945355
0.9999699831830682
0.999879203986817
0.9999742045561182
0.9999299937946567
0.9999714192466216
0.999948640864469
0.9999352431992691
0.9998914652574972
0.9999166153962742
0.9999759936120507
0.9999682968631568
0.9998579169749234
0.9999648567119543
0.9999977764445862
0.9999620460468891
0.9998732057381194
0.9999212031800752
0.9998991173957625
0.9999939252684223
0.9999425166033608
0.9999506305111322
0.9999798336319645
0.9999915848169815
0.9999559482161915
0.9999292010824211
0.9999591053206007
0.9999962257967743
0.9999315730191765
0.9999848375660466
0.9998267508407656
0.999992287106631
0.9998847063342237
0.9999596133748844
0.9999125419778796
0.9999406165520218
0.9999565109236819
0.999644319940635
0.9998972049518687
0.9999971343472751
0.9999864794563922
0.9999531964982165
0.9999952245486369
0.9999268377929412
0.9999875253240756
0.9998846704227672
0.999435424186503
0.9999640042100719
0.9999647477573922
0.9999948490664137
0.9999954460883289
0.9999654445985545
0.9999891991602902
0.9999986394196376
0.9999272940196098
0.9999816901852107
0.9999462218713144
0.9998326899963753
0.9999954783995091
0.9999688422890447
0.9999899904569632
CELL_DATA 4886
TENSORS stress float
10097.368519618525 189136.25502813383 0.0
189136.25502813383 1.0250705602902583e6 0.0
0.0 0.0 0.0

-434399.45347886777 257647.6832784712 0.0
257647.6832784712 -58929.29571398898 0.0
0.0 0.0 0.0

-261966.8437144211 555025.3983377323 0.0
555025.3983377323 -297551.9065375291 0.0
0.0 0.0 0.0

-76181.86066947773 542387.2252674653 0.0
542387.2252674653 293635.06812709244 0.0
0.0 0.0 0.0

-9139.814123982695 698384.1580188244 0.0
698384.1580188244 -14210.321057644589 0.0
0.0 0.0 0.0

504.0945332401633 19431.788096295728 0.0
19431.788096295728 -2103.4417847488444 0.0
0.0 0.0 0.0

1.9766967243712002e6 886057.4731540065 0.0
886057.4731540065 522898.89243347023 0.0
0.0 0.0 0.0

-3981.381964387605 53175.654024307245 0.0
53175.654024307245 -1.3571661374507807e6 0.0
0.0 0.0 0.0

21789.25452553114 211367.88283046335 0.0
211367.88283046335 1.0438215696235255e6 0.0
0.0 0.0 0.0

129094.42332290887 437533.6320172805 0.0
437533.6320172805 653073.5538104889 0.0
0.0 0.0 0.0

43143.361902244025 558025.3583964721 0.0
558025.3583964721 -157321.2578049998 0.0
0.0 0.0 0.0

19681.395331086514 889671.2447352789 0.0
889671.2447352789 -25259.603066162217 0.0
0.0 0.0 0.0

-22737.824706180138 215930.756716309 0.0
215930.756716309 -1.2292024519694706e6 0.0
0.0 0.0 0.0

2.7998167068173285e6 975206.1957533362 0.0
975206.1957533362 581004.689254007 0.0
0.0 0.0 0.0

53142.99298394048 578598.3391726812 0.0
578598.3391726812 -156433.47758135802 0.0
0.0 0.0 0.0

-360.59049750160193 49751.01926628465 0.0
49751.01926628465 -429566.5745553572 0.0
0.0 0.0 0.0

-125791.62176569123 437573.41250586306 0.0
437573.41250586306 -600835.8749821379 0.0
0.0 0.0 0.0

-39150.72586817833 336125.1141340973 0.0
336125.1141340973 -795956.0445996282 0.0
0.0 0.0 0.0

6748.714827277145 49693.1468214279 0.0
49693.1468214279 796182.3851298919 0.0
0.0 0.0 0.0

81291.47429224849 664345.8301997976 0.0
664345.8301997976 -156162.41784534883 0.0
0.0 0.0 0.0

15587.848336577445 261969.84255927042 0.0
261969.84255927042 -525261.7870439925 0.0
0.0 0.0 0.0

67573.10917705794 876104.3000117472 0.0
876104.3000117472 -22107.021828301775 0.0
0.0 0.0 0.0

1728.04562578263 188565.0397913809 0.0
188565.0397913809 445040.72430303146 0.0
0.0 0.0 0.0

-375873.6524582239 565305.7748886797 0.0
565305.7748886797 -42152.07669869407 0.0
0.0 0.0 0.0

-60920.159445145575 290206.56246922555 0.0
290206.56246922555 -1.0866972708523818e6 0.0
0.0 0.0 0.0

870768.4136287994 1.2930286466734963e6 0.0
1.2930286466734963e6 -213006.54292524583 0.0
0.0 0.0 0.0

1.3400286115627103e6 640324.5327104279 0.0
640324.5327104279 296676.527949701 0.0
0.0 0.0 0.0

-2858.1864621685236 346497.013658663 0.0
346497.013658663 658671.7729898776 0.0
0.0 0.0 0.0

1317.7142505547672 49868.92426466402 0.0
49868.92426466402 -436902.14989633183 0.0
0.0 0.0 0.0

1307.9622605674376 44199.28704211004 0.0
44199.28704211004 445037.04093205 0.0
0.0 0.0 0.0

-16200.124548934546 219612.270439789 0.0
219612.270439789 406741.3125138632 0.0
0.0 0.0 0.0

10812.775528214639 171146.47135314049 0.0
171146.47135314049 -142588.0538999411 0.0
0.0 0.0 0.0

92004.68740599653 538907.8003648599 0.0
538907.8003648599 253728.1585715497 0.0
0.0 0.0 0.0

-1653.044846539049 473846.72039839334 0.0
473846.72039839334 1171.2095900918673 0.0
0.0 0.0 0.0

-57985.71303197368 589591.2868641996 0.0
589591.2868641996 135244.38530105475 0.0
0.0 0.0 0.0

-11043.128458368708 168268.11808712868 0.0
168268.11808712868 405902.36938914703 0.0
0.0 0.0 0.0

13724.517999119344 283373.473738391 0.0
283373.473738391 -113079.01234766224 0.0
0.0 0.0 0.0

-38888.930753558096 579545.84437347 0.0
579545.84437347 152541.0527508642 0.0
0.0 0.0 0.0

-167447.21795632236 363870.9904103092 0.0
363870.9904103092 -1.1654624643740994e6 0.0
0.0 0.0 0.0

-66319.2572107895 751747.6896916091 0.0
751747.6896916091 48576.039173289704 0.0
0.0 0.0 0.0

-46392.14609855332 216453.5447078554 0.0
216453.5447078554 -1.3393953054605012e6 0.0
0.0 0.0 0.0

-315394.3062912845 589169.9820876856 0.0
589169.9820876856 -320101.7046212728 0.0
0.0 0.0 0.0

-57599.619351167974 729315.0146707805 0.0
729315.0146707805 46951.15089013211 0.0
0.0 0.0 0.0

4893.626387206692 139643.5785495643 0.0
139643.5785495643 700234.2644493735 0.0
0.0 0.0 0.0

-307.5036781039962 257037.42256261624 0.0
257037.42256261624 -586896.7745467962 0.0
0.0 0.0 0.0

1486.388278726954 375642.6191433657 0.0
375642.6191433657 597494.4999068169 0.0
0.0 0.0 0.0

76552.2941365076 551726.3349832798 0.0
551726.3349832798 -272530.69318660855 0.0
0.0 0.0 0.0

-3186.42209391902 269315.50681128906 0.0
269315.50681128906 -137178.9402752989 0.0
0.0 0.0 0.0

-1118.3301862679655 50782.91803788112 0.0
50782.91803788112 -1.119463257703699e6 0.0
0.0 0.0 0.0

164045.33588118578 391892.48940188676 0.0
391892.48940188676 546817.7535884652 0.0
0.0 0.0 0.0

14751.437683036685 734051.6913731598 0.0
734051.6913731598 6530.095503187197 0.0
0.0 0.0 0.0

-285469.72750559193 206238.2919153551 0.0
206238.2919153551 -73751.04714335337 0.0
0.0 0.0 0.0

452.6292797338101 52000.68823760018 0.0
52000.68823760018 -1.1679276410266238e6 0.0
0.0 0.0 0.0

-6645.553721506722 663484.0642779999 0.0
663484.0642779999 44558.52067539641 0.0
0.0 0.0 0.0

214726.78746009237 376531.9278310245 0.0
376531.9278310245 662627.8118673499 0.0
0.0 0.0 0.0

-197048.29351972157 608238.9513351588 0.0
608238.9513351588 108955.92715251133 0.0
0.0 0.0 0.0

-6450.9616763456725 71701.49619143813 0.0
71701.49619143813 -1.4929496010539697e6 0.0
0.0 0.0 0.0

-40639.42585018208 761021.0800056522 0.0
761021.0800056522 52665.733325621906 0.0
0.0 0.0 0.0

251451.56382050744 398964.2303036069 0.0
398964.2303036069 1.281571644029198e6 0.0
0.0 0.0 0.0

8201.871415390138 231405.00243910935 0.0
231405.00243910935 -672363.7998150304 0.0
0.0 0.0 0.0

-84187.61306752724 427646.9665900009 0.0
427646.9665900009 -297333.4931154297 0.0
0.0 0.0 0.0

999820.1293888739 711221.3068610585 0.0
711221.3068610585 162281.71817113526 0.0
0.0 0.0 0.0

-115599.99659899349 501019.2958275859 0.0
501019.2958275859 -345154.65919011127 0.0
0.0 0.0 0.0

485.84353113616817 77077.90578771845 0.0
77077.90578771845 456113.540533939 0.0
0.0 0.0 0.0

9545.872825989603 106191.10728734781 0.0
106191.10728734781 60003.52028967985 0.0
0.0 0.0 0.0

-6159.121588272916 81271.99909692716 0.0
81271.99909692716 -1.0875923689262536e6 0.0
0.0 0.0 0.0

-10600.165946395602 184835.28568377125 0.0
184835.28568377125 -1.2216754972289174e6 0.0
0.0 0.0 0.0

-27879.901588835608 650889.8854994079 0.0
650889.8854994079 22948.86237861744 0.0
0.0 0.0 0.0

176089.25472299248 392166.9356280151 0.0
392166.9356280151 1.0249184987871046e6 0.0
0.0 0.0 0.0

707644.8129770162 451520.61599956156 0.0
451520.61599956156 137157.87039611128 0.0
0.0 0.0 0.0

-11736.832565432676 169217.62954769886 0.0
169217.62954769886 658126.3278151824 0.0
0.0 0.0 0.0

-37623.67793661455 295211.0043825075 0.0
295211.0043825075 -1.0034204458565533e6 0.0
0.0 0.0 0.0

-152788.2951267931 396509.17230446637 0.0
396509.17230446637 -1.0615654183853718e6 0.0
0.0 0.0 0.0

301027.2856732873 396621.15710136254 0.0
396621.15710136254 1.6588964444329818e6 0.0
0.0 0.0 0.0

-71690.30267742454 547270.5535649465 0.0
547270.5535649465 288981.3512832344 0.0
0.0 0.0 0.0

-8644.761882542021 387520.1260567045 0.0
387520.1260567045 577357.4344770475 0.0
0.0 0.0 0.0

80534.94902350401 273797.70744130755 0.0
273797.70744130755 198264.70411527203 0.0
0.0 0.0 0.0

-98891.67257490873 431937.3525374229 0.0
431937.3525374229 -590566.9302343631 0.0
0.0 0.0 0.0

-12793.170077809555 483034.5371668019 0.0
483034.5371668019 -267525.03274005465 0.0
0.0 0.0 0.0

12027.685867138789 343451.26269868546 0.0
343451.26269868546 -438901.38255923387 0.0
0.0 0.0 0.0

820898.6175068474 732866.0687668179 0.0
732866.0687668179 -30998.668888798682 0.0
0.0 0.0 0.0

-4479.335749049671 49216.92144483249 0.0
49216.92144483249 952588.1299512099 0.0
0.0 0.0 0.0

72674.8506950564 502028.7285419511 0.0
502028.7285419511 -14467.798297081117 0.0
0.0 0.0 0.0

66003.80110150838 931037.0140412764 0.0
931037.0140412764 -48178.89361061464 0.0
0.0 0.0 0.0

-66718.31307665732 542257.5119535865 0.0
542257.5119535865 294202.1721864159 0.0
0.0 0.0 0.0

-3010.406838747527 45264.274054537666 0.0
45264.274054537666 -659057.2927995813 0.0
0.0 0.0 0.0

-7316.125495125096 143501.66229258187 0.0
143501.66229258187 -177347.75167560688 0.0
0.0 0.0 0.0

92340.8318439807 508472.76521372295 0.0
508472.76521372295 233666.63601318072 0.0
0.0 0.0 0.0

757820.4513678671 1.3208602936954899e6 0.0
1.3208602936954899e6 -255811.6328475768 0.0
0.0 0.0 0.0

19858.050974190235 207991.04652253975 0.0
207991.04652253975 1.301717555573179e6 0.0
0.0 0.0 0.0

82051.24189471896 549599.6802773174 0.0
549599.6802773174 -135951.48114881545 0.0
0.0 0.0 0.0

-60258.774180693676 489801.78020647244 0.0
489801.78020647244 -348494.8400775259 0.0
0.0 0.0 0.0

-2018.376894242745 237553.2268747088 0.0
237553.2268747088 -99001.84898371407 0.0
0.0 0.0 0.0

-11380.01016048084 84593.36646410791 0.0
84593.36646410791 29183.117044679766 0.0
0.0 0.0 0.0

231950.70441023418 574729.8249405579 0.0
574729.8249405579 -55106.12853592707 0.0
0.0 0.0 0.0

-139269.34770082927 419710.5301723754 0.0
419710.5301723754 -841025.3641394315 0.0
0.0 0.0 0.0

-5494.7197421238525 52485.378313636655 0.0
52485.378313636655 -1.3570370352941586e6 0.0
0.0 0.0 0.0

-84802.58351374272 562904.8333850844 0.0
562904.8333850844 259295.53092419996 0.0
0.0 0.0 0.0

-12221.396454422676 197832.91952504427 0.0
197832.91952504427 -938105.3002581161 0.0
0.0 0.0 0.0

-6123.887733346666 71881.6565754671 0.0
71881.6565754671 -1.5052837567680895e6 0.0
0.0 0.0 0.0

-29506.917277205037 514227.9503780162 0.0
514227.9503780162 323671.4578574548 0.0
0.0 0.0 0.0

-141578.60881739922 421305.8950545794 0.0
421305.8950545794 -574284.684376806 0.0
0.0 0.0 0.0

3981.2448733783094 189384.46128048285 0.0
189384.46128048285 513064.25056426536 0.0
0.0 0.0 0.0

-12368.445605363551 709204.7937357059 0.0
709204.7937357059 43688.92951091596 0.0
0.0 0.0 0.0

11012.262374364016 237826.81986198752 0.0
237826.81986198752 -44398.08481999083 0.0
0.0 0.0 0.0

-5853.1862332946475 305975.1470710379 0.0
305975.1470710379 296599.6855205784 0.0
0.0 0.0 0.0

6222.69889686536 50121.00349648881 0.0
50121.00349648881 951511.0142528579 0.0
0.0 0.0 0.0

27691.830303494906 352357.2853583547 0.0
352357.2853583547 -398106.6843869946 0.0
0.0 0.0 0.0

50972.797666068276 866348.4684477983 0.0
866348.4684477983 -27554.492453980005 0.0
0.0 0.0 0.0

8015.546760483092 175123.50919602113 0.0
175123.50919602113 411848.3767062515 0.0
0.0 0.0 0.0

-39533.08981412719 184445.5873696121 0.0
184445.5873696121 -1.321236881566804e6 0.0
0.0 0.0 0.0

-9286.718155506 260530.28117171992 0.0
260530.28117171992 -8170.435946820653 0.0
0.0 0.0 0.0

351790.25096470636 578673.6453014719 0.0
578673.6453014719 372934.8137904329 0.0
0.0 0.0 0.0

1.3657001792531535e6 659891.7540310815 0.0
659891.7540310815 290565.784325974 0.0
0.0 0.0 0.0

4936.211238367512 111850.05413899173 0.0
111850.05413899173 -581744.8576810665 0.0
0.0 0.0 0.0

-190733.05134589828 410153.51681227144 0.0
410153.51681227144 -1.0935412955368499e6 0.0
0.0 0.0 0.0

-2117.6468849156518 109256.2317931181 0.0
109256.2317931181 -610667.2885146965 0.0
0.0 0.0 0.0

2507.4436808374303 47238.299848806 0.0
47238.299848806 -691749.1613683415 0.0
0.0 0.0 0.0

1.145795346528588e6 382082.3755072041 0.0
382082.3755072041 85873.07157977094 0.0
0.0 0.0 0.0

-390855.2946870036 1.0548295655107806e6 0.0
1.0548295655107806e6 82981.29070188239 0.0
0.0 0.0 0.0

-136198.1325343651 375774.52461590874 0.0
375774.52461590874 -970278.7004161758 0.0
0.0 0.0 0.0

-311825.7224053976 552272.1554076363 0.0
552272.1554076363 -101049.63701620758 0.0
0.0 0.0 0.0

8493.638833628327 55955.3626837467 0.0
55955.3626837467 -930488.5840664654 0.0
0.0 0.0 0.0

-217522.69915585563 605465.4779109093 0.0
605465.4779109093 125878.77518957165 0.0
0.0 0.0 0.0

377955.69721683086 892998.5186057026 0.0
892998.5186057026 -117893.46710780004 0.0
0.0 0.0 0.0

12159.725468161807 238540.92328797688 0.0
238540.92328797688 981671.085140552 0.0
0.0 0.0 0.0

537669.1168380991 1.291423191689518e6 0.0
1.291423191689518e6 -166393.76895263194 0.0
0.0 0.0 0.0

-21603.705400421386 500055.8233324492 0.0
500055.8233324492 -25969.62639518342 0.0
0.0 0.0 0.0

-914.4186477704206 50685.972701642655 0.0
50685.972701642655 -1.194819530778515e6 0.0
0.0 0.0 0.0

1.0092423558922902e6 541886.5032273456 0.0
541886.5032273456 301133.9881819858 0.0
0.0 0.0 0.0

-8490.444029769467 493282.77913043794 0.0
493282.77913043794 335230.69983157574 0.0
0.0 0.0 0.0

-14470.688116448815 127683.19694206186 0.0
127683.19694206186 -1.0522622854706352e6 0.0
0.0 0.0 0.0

109726.37912353876 678111.500375118 0.0
678111.500375118 -133832.9599503676 0.0
0.0 0.0 0.0

91811.75368221076 529603.0958746871 0.0
529603.0958746871 -159452.78683137603 0.0
0.0 0.0 0.0

-101399.86982180936 467161.4329455038 0.0
467161.4329455038 -355791.148924569 0.0
0.0 0.0 0.0

-18381.774886000756 508056.7635778677 0.0
508056.7635778677 -226318.69385545183 0.0
0.0 0.0 0.0

441864.4029460398 606003.8854500887 0.0
606003.8854500887 364750.0862163442 0.0
0.0 0.0 0.0

-33650.40825810679 148491.86018135585 0.0
148491.86018135585 -1.854245106667362e6 0.0
0.0 0.0 0.0

-116473.06882057505 580570.0605614141 0.0
580570.0605614141 237789.91701037253 0.0
0.0 0.0 0.0

5648.959541154393 56202.590883125784 0.0
56202.590883125784 14062.803204483487 0.0
0.0 0.0 0.0

6016.0466512918065 308861.1976305526 0.0
308861.1976305526 682330.2943074759 0.0
0.0 0.0 0.0

8302.108878563595 57485.316847797425 0.0
57485.316847797425 -589976.8958949768 0.0
0.0 0.0 0.0

5786.184022499714 30387.31370864624 0.0
30387.31370864624 1.1314244621474305e6 0.0
0.0 0.0 0.0

20732.958388254337 375647.9860742102 0.0
375647.9860742102 -517111.02323313284 0.0
0.0 0.0 0.0

-2857.434893326611 19684.551321730803 0.0
19684.551321730803 21199.347060839602 0.0
0.0 0.0 0.0

166143.38577705127 408877.539700802 0.0
408877.539700802 626507.3536571708 0.0
0.0 0.0 0.0

-70303.34750521269 727503.9821857329 0.0
727503.9821857329 99942.22341832446 0.0
0.0 0.0 0.0

-8756.546877153218 58441.68135741616 0.0
58441.68135741616 1.0938919386332587e6 0.0
0.0 0.0 0.0

-4255.369258555947 501260.5351842373 0.0
501260.5351842373 209069.79568603094 0.0
0.0 0.0 0.0

244239.12590900602 616396.7790181488 0.0
616396.7790181488 -86022.52691720519 0.0
0.0 0.0 0.0

-23485.852036089465 624598.1865906981 0.0
624598.1865906981 19850.564070366454 0.0
0.0 0.0 0.0

-149639.14295774954 530826.6313593466 0.0
530826.6313593466 -297424.26803932444 0.0
0.0 0.0 0.0

-10733.366676231366 624647.3562552361 0.0
624647.3562552361 64075.16048378548 0.0
0.0 0.0 0.0

-198588.59443096042 408627.0434908638 0.0
408627.0434908638 -589184.6468844898 0.0
0.0 0.0 0.0

688805.4127752227 715040.785546405 0.0
715040.785546405 -24017.47671247431 0.0
0.0 0.0 0.0

-58354.184675893426 457563.8056855143 0.0
457563.8056855143 -386653.22461967706 0.0
0.0 0.0 0.0

36952.81919770304 427188.74516766256 0.0
427188.74516766256 613813.6987630463 0.0
0.0 0.0 0.0

166697.4060726347 545545.0262457343 0.0
545545.0262457343 347770.62917788804 0.0
0.0 0.0 0.0

1198.825660178467 233688.51916820664 0.0
233688.51916820664 -641095.4769337315 0.0
0.0 0.0 0.0

-14237.571461105545 284447.93310816225 0.0
284447.93310816225 274375.3741308149 0.0
0.0 0.0 0.0

-103035.50260889507 885785.8403922002 0.0
885785.8403922002 33572.29279051456 0.0
0.0 0.0 0.0

-47852.065934418875 465250.5091850427 0.0
465250.5091850427 368249.68099622254 0.0
0.0 0.0 0.0

155450.33851780303 973584.8191210267 0.0
973584.8191210267 -38438.09090847273 0.0
0.0 0.0 0.0

3927.7962360489473 363767.77724717214 0.0
363767.77724717214 -560624.8168018892 0.0
0.0 0.0 0.0

-685395.8851524149 587854.1594072558 0.0
587854.1594072558 -337721.66834306525 0.0
0.0 0.0 0.0

7637.665455687325 96003.50085571126 0.0
96003.50085571126 -1.3311334871081582e6 0.0
0.0 0.0 0.0

481370.1750783925 982530.6732977765 0.0
982530.6732977765 -112527.99886039834 0.0
0.0 0.0 0.0

-555084.5746777793 795267.9375236399 0.0
795267.9375236399 114238.86188813558 0.0
0.0 0.0 0.0

124475.3614735606 435163.07043910684 0.0
435163.07043910684 578822.8929777934 0.0
0.0 0.0 0.0

-998630.7865032916 785543.8241537281 0.0
785543.8241537281 57626.0857621131 0.0
0.0 0.0 0.0

5365.712079761201 52750.24095546844 0.0
52750.24095546844 -1.2385038463557428e6 0.0
0.0 0.0 0.0

-30252.13752346547 452228.6552677121 0.0
452228.6552677121 412486.86688684294 0.0
0.0 0.0 0.0

-10173.470058017556 179332.8347912653 0.0
179332.8347912653 353030.1106914218 0.0
0.0 0.0 0.0

-5512.332984656852 32783.39723579051 0.0
32783.39723579051 -623928.2251713711 0.0
0.0 0.0 0.0

61384.58592092196 525511.5147877709 0.0
525511.5147877709 -209382.0649309088 0.0
0.0 0.0 0.0

-251173.07632689044 1.1070655177290703e6 0.0
1.1070655177290703e6 127095.62721617955 0.0
0.0 0.0 0.0

-331528.2378391771 334436.1801136732 0.0
334436.1801136732 -77875.97273521536 0.0
0.0 0.0 0.0

-938408.9576483907 602198.8304852587 0.0
602198.8304852587 -132905.52318658258 0.0
0.0 0.0 0.0

1.438397651208918e6 692101.3397900246 0.0
692101.3397900246 577257.1445647421 0.0
0.0 0.0 0.0

-222732.78308126488 382202.02653967805 0.0
382202.02653967805 -2.328716193826458e6 0.0
0.0 0.0 0.0

9707.805702220692 492210.8330751392 0.0
492210.8330751392 -293722.5219168831 0.0
0.0 0.0 0.0

52705.758717668534 410037.3641176763 0.0
410037.3641176763 635085.7879720401 0.0
0.0 0.0 0.0

108749.07880638147 614661.1854351485 0.0
614661.1854351485 -204473.32083459978 0.0
0.0 0.0 0.0

15353.657802943899 710392.7165216279 0.0
710392.7165216279 5287.754532957573 0.0
0.0 0.0 0.0

126995.63349166993 394350.01452455524 0.0
394350.01452455524 343660.10654157406 0.0
0.0 0.0 0.0

137148.07139127664 945352.1580700792 0.0
945352.1580700792 -36705.555345197754 0.0
0.0 0.0 0.0

-4012.02878030765 191682.03824676483 0.0
191682.03824676483 422363.71799686993 0.0
0.0 0.0 0.0

1.90138474748134e6 1.1028770366435589e6 0.0
1.1028770366435589e6 927428.7733938362 0.0
0.0 0.0 0.0

132573.69992532436 725170.4446755154 0.0
725170.4446755154 -137561.68369176547 0.0
0.0 0.0 0.0

158361.22466562755 359225.71415296185 0.0
359225.71415296185 509966.911585015 0.0
0.0 0.0 0.0

-289588.9659408718 595837.5345127097 0.0
595837.5345127097 15004.135821975317 0.0
0.0 0.0 0.0

82015.44782011717 397779.6643396132 0.0
397779.6643396132 407548.70350561076 0.0
0.0 0.0 0.0

95847.56680783107 675664.9001293912 0.0
675664.9001293912 -122179.12840250318 0.0
0.0 0.0 0.0

-4788.356064618856 173735.7736496361 0.0
173735.7736496361 -920774.819692326 0.0
0.0 0.0 0.0

-47566.553304883455 554493.0272484751 0.0
554493.0272484751 159811.53520701913 0.0
0.0 0.0 0.0

-156264.6087315565 551201.3840430406 0.0
551201.3840430406 76223.2149238739 0.0
0.0 0.0 0.0

-7889.922903763058 146670.75218583932 0.0
146670.75218583932 -245055.09150911155 0.0
0.0 0.0 0.0

-84011.2257241189 561670.8456186899 0.0
561670.8456186899 255688.9201309311 0.0
0.0 0.0 0.0

27362.94163040392 156877.775479785 0.0
156877.775479785 1.3738185958353137e6 0.0
0.0 0.0 0.0

10983.42250407737 243563.72270315586 0.0
243563.72270315586 20258.483745020123 0.0
0.0 0.0 0.0

-259264.68523462198 545501.0414227853 0.0
545501.0414227853 -296984.32051184954 0.0
0.0 0.0 0.0

1.3535221657878216e6 861503.7654295533 0.0
861503.7654295533 616363.5416263664 0.0
0.0 0.0 0.0

-25764.231382399885 347130.4109242218 0.0
347130.4109242218 -773940.6129235775 0.0
0.0 0.0 0.0

4103.343677694909 131186.83590884283 0.0
131186.83590884283 -991323.6143377449 0.0
0.0 0.0 0.0

342394.6270443731 553338.6420458591 0.0
553338.6420458591 175438.0555714769 0.0
0.0 0.0 0.0

119378.02577693411 232904.89340095187 0.0
232904.89340095187 278824.9999145984 0.0
0.0 0.0 0.0

4268.348488159954 674489.216652627 0.0
674489.216652627 22409.115482701538 0.0
0.0 0.0 0.0

39391.07026329224 582756.3828404236 0.0
582756.3828404236 -149417.7938946266 0.0
0.0 0.0 0.0

62075.592981515816 593894.2316260651 0.0
593894.2316260651 -196978.22571138915 0.0
0.0 0.0 0.0

-30840.736502519976 483010.6353258103 0.0
483010.6353258103 -213173.7003848876 0.0
0.0 0.0 0.0

13062.885276901216 171248.24167109965 0.0
171248.24167109965 -208187.99739721755 0.0
0.0 0.0 0.0

1.1366956898728106e6 769936.9137036818 0.0
769936.9137036818 583189.8232534446 0.0
0.0 0.0 0.0

96395.15758501408 425171.9770402422 0.0
425171.9770402422 297496.3724724825 0.0
0.0 0.0 0.0

-120181.88895760529 845346.4259789387 0.0
845346.4259789387 83478.32106047744 0.0
0.0 0.0 0.0

-1.0872684169879798e6 531567.464363714 0.0
531567.464363714 -162872.40390241417 0.0
0.0 0.0 0.0

4285.606991659792 47499.917788778796 0.0
47499.917788778796 -545338.0541954658 0.0
0.0 0.0 0.0

40576.62159968514 484734.623961639 0.0
484734.623961639 176968.17747473 0.0
0.0 0.0 0.0

-151904.6668217575 388762.72984809714 0.0
388762.72984809714 -563610.1926095092 0.0
0.0 0.0 0.0

-9580.708261684922 432952.90443801065 0.0
432952.90443801065 -530297.2477051766 0.0
0.0 0.0 0.0

-5328.608594540128 40811.15456577955 0.0
40811.15456577955 782920.422041768 0.0
0.0 0.0 0.0

9237.083290621405 326030.32387557795 0.0
326030.32387557795 -482447.0556046967 0.0
0.0 0.0 0.0

-311441.2531157278 386964.0620182431 0.0
386964.0620182431 -1.4551422001644587e6 0.0
0.0 0.0 0.0

7477.358670069894 307944.9565200053 0.0
307944.9565200053 -519300.6068397492 0.0
0.0 0.0 0.0

113789.17311657702 547248.7326605184 0.0
547248.7326605184 -185773.84013792648 0.0
0.0 0.0 0.0

1.0502108003958014e6 590672.1720214925 0.0
590672.1720214925 245359.1716395805 0.0
0.0 0.0 0.0

54844.608398977434 299491.4724146024 0.0
299491.4724146024 994651.7887810007 0.0
0.0 0.0 0.0

-145270.33426422888 561087.9708945089 0.0
561087.9708945089 -312087.47537600156 0.0
0.0 0.0 0.0

14202.777377701463 448711.8713191813 0.0
448711.8713191813 19565.69456545682 0.0
0.0 0.0 0.0

-152961.51255675318 503613.3407172666 0.0
503613.3407172666 -389807.2761582352 0.0
0.0 0.0 0.0

1.0759945452165802e6 757934.6833345543 0.0
757934.6833345543 480778.7270699473 0.0
0.0 0.0 0.0

-91915.58348704838 563861.6128461193 0.0
563861.6128461193 267888.9814062474 0.0
0.0 0.0 0.0

86676.317609856 533082.7220040374 0.0
533082.7220040374 -38720.61189020646 0.0
0.0 0.0 0.0

48015.93580687819 775940.5297103798 0.0
775940.5297103798 -25448.223043683392 0.0
0.0 0.0 0.0

-43056.206871807866 552140.4363178826 0.0
552140.4363178826 181739.1604079456 0.0
0.0 0.0 0.0

4524.416642577737 64041.61360717341 0.0
64041.61360717341 1.9758515743474881e6 0.0
0.0 0.0 0.0

67844.89760421586 533600.5730376045 0.0
533600.5730376045 -310111.5370108035 0.0
0.0 0.0 0.0

-35088.6429844349 739494.9320559439 0.0
739494.9320559439 63713.11780328248 0.0
0.0 0.0 0.0

8818.056713183934 61437.561663360975 0.0
61437.561663360975 134947.62662315578 0.0
0.0 0.0 0.0

7385.826088727656 343039.2307798873 0.0
343039.2307798873 643763.2235670538 0.0
0.0 0.0 0.0

-83730.07917322725 399975.70600379544 0.0
399975.70600379544 -396938.16610583983 0.0
0.0 0.0 0.0

-6572.762105167785 53189.46047341877 0.0
53189.46047341877 -792924.9684180514 0.0
0.0 0.0 0.0

-60982.10884144023 901078.2858945521 0.0
901078.2858945521 56217.238749220895 0.0
0.0 0.0 0.0

27955.736780398205 336163.19883899315 0.0
336163.19883899315 -427156.4019220327 0.0
0.0 0.0 0.0

-24032.660573932313 432947.6780834312 0.0
432947.6780834312 451212.0398936346 0.0
0.0 0.0 0.0

-7400.181342934025 133287.32882445108 0.0
133287.32882445108 -1.7229608194472098e6 0.0
0.0 0.0 0.0

-139185.85463095072 835708.272186529 0.0
835708.272186529 71225.71956678927 0.0
0.0 0.0 0.0

-248538.1357630614 401219.5404425435 0.0
401219.5404425435 -861932.4024312388 0.0
0.0 0.0 0.0

-688.5383661272353 15357.164932214484 0.0
15357.164932214484 -317305.82628380344 0.0
0.0 0.0 0.0

7869.044514200077 222647.50868834494 0.0
222647.50868834494 -11387.830401543224 0.0
0.0 0.0 0.0

-531470.2444789882 803210.417910622 0.0
803210.417910622 93711.11676983468 0.0
0.0 0.0 0.0

204657.25623238483 351546.9710255087 0.0
351546.9710255087 610424.4385760017 0.0
0.0 0.0 0.0

-288071.2791832151 1.0332646972303529e6 0.0
1.0332646972303529e6 78585.47054424118 0.0
0.0 0.0 0.0

7444.014674156671 159227.5484698851 0.0
159227.5484698851 725430.7919290285 0.0
0.0 0.0 0.0

-32128.050546038896 206977.9690385623 0.0
206977.9690385623 -1.9120764706792713e6 0.0
0.0 0.0 0.0

2.414952149160221e6 796735.3492050618 0.0
796735.3492050618 370594.2764965913 0.0
0.0 0.0 0.0

2237.198318546014 698659.9536330145 0.0
698659.9536330145 24246.646826469543 0.0
0.0 0.0 0.0

-167979.7878630584 692232.4006487047 0.0
692232.4006487047 149716.7778360729 0.0
0.0 0.0 0.0

-40543.72322969162 622257.27198727 0.0
622257.27198727 126221.68804302134 0.0
0.0 0.0 0.0

303802.03752224904 424147.29444024543 0.0
424147.29444024543 1.6637706365267313e6 0.0
0.0 0.0 0.0

-10049.5822187101 64690.41569674251 0.0
64690.41569674251 -943778.4271615245 0.0
0.0 0.0 0.0

16494.51327505629 300161.4386897349 0.0
300161.4386897349 -139429.34937472787 0.0
0.0 0.0 0.0

309490.0429784215 887727.2179062741 0.0
887727.2179062741 -106923.98197959864 0.0
0.0 0.0 0.0

-35621.00013855565 245310.56908459743 0.0
245310.56908459743 -1.0554561146463954e6 0.0
0.0 0.0 0.0

-521742.19864861394 400326.2889280568 0.0
400326.2889280568 -114085.90167433623 0.0
0.0 0.0 0.0

-155760.71950594307 557170.3876094813 0.0
557170.3876094813 47922.12019593871 0.0
0.0 0.0 0.0

14886.157659903525 462886.6477401615 0.0
462886.6477401615 115118.57863134022 0.0
0.0 0.0 0.0

23777.349245935853 317879.48400207225 0.0
317879.48400207225 -467495.80450559716 0.0
0.0 0.0 0.0

192556.47845248072 394069.5507420694 0.0
394069.5507420694 1.1048305832836966e6 0.0
0.0 0.0 0.0

472299.6291191583 897157.8477004466 0.0
897157.8477004466 -124822.95038539148 0.0
0.0 0.0 0.0

-1.0655371367317468e6 130415.40159852688 0.0
130415.40159852688 -6815.68075902143 0.0
0.0 0.0 0.0

1.4695447353417592e6 1.2577281448085802e6 0.0
1.2577281448085802e6 -160186.62880089582 0.0
0.0 0.0 0.0

449180.84155437234 904045.3243862895 0.0
904045.3243862895 -133523.31297404566 0.0
0.0 0.0 0.0

-2544.6991383061686 47892.49871628898 0.0
47892.49871628898 -516262.3194096266 0.0
0.0 0.0 0.0

-79013.68825268114 737411.700615009 0.0
737411.700615009 63160.441465869175 0.0
0.0 0.0 0.0

1.254520666931403e6 399807.87814594625 0.0
399807.87814594625 92943.08193416568 0.0
0.0 0.0 0.0

31591.926243090304 193578.97888212034 0.0
193578.97888212034 1.5050414603904472e6 0.0
0.0 0.0 0.0

70253.68255394834 541539.7644292382 0.0
541539.7644292382 -295508.0577239451 0.0
0.0 0.0 0.0

782775.9198823274 479843.81947957334 0.0
479843.81947957334 149274.4379495518 0.0
0.0 0.0 0.0

85335.78157028546 547895.168143592 0.0
547895.168143592 -228250.0657387019 0.0
0.0 0.0 0.0

3576.7086101869354 84686.48077156542 0.0
84686.48077156542 -1.0241113415641919e6 0.0
0.0 0.0 0.0

27158.79922137665 698265.7507029837 0.0
698265.7507029837 -15532.40544584937 0.0
0.0 0.0 0.0

-136676.87979126355 404668.2190546942 0.0
404668.2190546942 -498249.725290014 0.0
0.0 0.0 0.0

139597.7711516341 773121.4240294999 0.0
773121.4240294999 -113853.29822417608 0.0
0.0 0.0 0.0

71888.9228293107 242315.68484117035 0.0
242315.68484117035 1.544734141365445e6 0.0
0.0 0.0 0.0

-23841.129032707533 472695.3203672526 0.0
472695.3203672526 -236782.01742158196 0.0
0.0 0.0 0.0

-2689.826317899715 224588.15010679665 0.0
224588.15010679665 -699745.0238839543 0.0
0.0 0.0 0.0

202260.2949473285 623375.6610181716 0.0
623375.6610181716 -119262.8479763111 0.0
0.0 0.0 0.0

-91162.69429829528 453834.1003008107 0.0
453834.1003008107 -243979.33473758036 0.0
0.0 0.0 0.0

18178.840353708307 112762.4840629797 0.0
112762.4840629797 1.3692199233051112e6 0.0
0.0 0.0 0.0

142959.8459253132 423094.1522059067 0.0
423094.1522059067 588790.3566884336 0.0
0.0 0.0 0.0

-40196.35673941695 236678.12981547997 0.0
236678.12981547997 -1.1487016364102378e6 0.0
0.0 0.0 0.0

166681.87312763857 762976.0995800495 0.0
762976.0995800495 -105876.60714047344 0.0
0.0 0.0 0.0

120727.59178402816 548862.1557793067 0.0
548862.1557793067 338140.5331211417 0.0
0.0 0.0 0.0

9484.681379766727 198381.79885294606 0.0
198381.79885294606 -692724.0992887226 0.0
0.0 0.0 0.0

1.8600749937933215e6 758646.5104824818 0.0
758646.5104824818 436296.07043228997 0.0
0.0 0.0 0.0

142634.56944925006 743827.9719695344 0.0
743827.9719695344 -108318.90085710002 0.0
0.0 0.0 0.0

2467.268800501013 41173.262430214425 0.0
41173.262430214425 861676.3760429043 0.0
0.0 0.0 0.0

-5111.858949478366 121692.08754052581 0.0
121692.08754052581 1.2959937111008023e6 0.0
0.0 0.0 0.0

-762.4402416585945 16203.380968057721 0.0
16203.380968057721 -862128.7267920448 0.0
0.0 0.0 0.0

-54929.35746926532 609908.1324741407 0.0
609908.1324741407 110034.49702808954 0.0
0.0 0.0 0.0

-43607.80847440944 465517.79187637434 0.0
465517.79187637434 -233694.26426790617 0.0
0.0 0.0 0.0

108905.17726078742 598249.529388175 0.0
598249.529388175 -234060.9121785258 0.0
0.0 0.0 0.0

7249.14487069624 83158.1046487032 0.0
83158.1046487032 647132.9585006825 0.0
0.0 0.0 0.0

72539.82562425514 605049.7528979544 0.0
605049.7528979544 -157272.78462095995 0.0
0.0 0.0 0.0

1724.1995835650596 111865.45022773842 0.0
111865.45022773842 1.379102749458027e6 0.0
0.0 0.0 0.0

329651.3544595926 516509.84103101393 0.0
516509.84103101393 214490.62147476448 0.0
0.0 0.0 0.0

-48132.4578881599 293554.1814918417 0.0
293554.1814918417 -1.0969683857937462e6 0.0
0.0 0.0 0.0

-23754.386965404265 239891.16960407852 0.0
239891.16960407852 -1.1634292005991414e6 0.0
0.0 0.0 0.0

14289.913447273691 331626.6596356322 0.0
331626.6596356322 697503.1795345427 0.0
0.0 0.0 0.0

-13557.467166766575 488412.2105112826 0.0
488412.2105112826 147232.8082255596 0.0
0.0 0.0 0.0

8406.547596343016 66022.44641518264 0.0
66022.44641518264 59377.3682482925 0.0
0.0 0.0 0.0

-34348.60427629527 498652.2696483605 0.0
498652.2696483605 -195745.6234899262 0.0
0.0 0.0 0.0

-98525.29161971941 668750.0332785643 0.0
668750.0332785643 162411.31585080017 0.0
0.0 0.0 0.0

279388.61466752575 415109.1162180099 0.0
415109.1162180099 1.3953007349985822e6 0.0
0.0 0.0 0.0

480219.75754629326 611042.0134577221 0.0
611042.0134577221 7831.5239646168775 0.0
0.0 0.0 0.0

14254.841354376404 55538.74009306951 0.0
55538.74009306951 1.9176255666168001e6 0.0
0.0 0.0 0.0

48854.76380987436 233571.3390245759 0.0
233571.3390245759 1.2295929345167195e6 0.0
0.0 0.0 0.0

-10909.598296801618 342306.6290315725 0.0
342306.6290315725 524409.5469010186 0.0
0.0 0.0 0.0

72161.6712635172 461265.4084777959 0.0
461265.4084777959 305507.95144577423 0.0
0.0 0.0 0.0

981.0911190447805 131401.3478160534 0.0
131401.3478160534 427426.3396639876 0.0
0.0 0.0 0.0

-247295.9756106338 460624.832992808 0.0
460624.832992808 -269779.3566364495 0.0
0.0 0.0 0.0

8863.106323268323 92555.08109890655 0.0
92555.08109890655 -898273.2960584078 0.0
0.0 0.0 0.0

-244972.11377479276 392621.96628668596 0.0
392621.96628668596 -1.2274896307886748e6 0.0
0.0 0.0 0.0

80327.27494535026 428200.0318935246 0.0
428200.0318935246 196874.8670076971 0.0
0.0 0.0 0.0

625529.9786427327 787983.2311901198 0.0
787983.2311901198 -95157.35288368625 0.0
0.0 0.0 0.0

101755.62197659706 563414.6457570114 0.0
563414.6457570114 -160401.8220753456 0.0
0.0 0.0 0.0

-675757.2891779654 567750.9580527528 0.0
567750.9580527528 -265681.50306595827 0.0
0.0 0.0 0.0

4145.177733076496 732511.646479795 0.0
732511.646479795 -28632.015870906078 0.0
0.0 0.0 0.0

-10451.759723728639 124482.33040944587 0.0
124482.33040944587 29755.97127487336 0.0
0.0 0.0 0.0

-200708.57294206996 1.061532693907125e6 0.0
1.061532693907125e6 121965.0352254709 0.0
0.0 0.0 0.0

-10511.813304848722 506555.05937835755 0.0
506555.05937835755 118872.60572720885 0.0
0.0 0.0 0.0

-16988.74467937037 197013.92749171716 0.0
197013.92749171716 445637.58819567953 0.0
0.0 0.0 0.0

-25606.88568820597 509394.1579656976 0.0
509394.1579656976 69413.27779490553 0.0
0.0 0.0 0.0

-7609.273695077311 60125.68482606392 0.0
60125.68482606392 219313.0406522888 0.0
0.0 0.0 0.0

-48516.75146547711 191573.08512263093 0.0
191573.08512263093 -676033.5930933736 0.0
0.0 0.0 0.0

-37156.56281351723 309909.9360777574 0.0
309909.9360777574 -930676.2218139776 0.0
0.0 0.0 0.0

-311067.39543593477 519705.65575244493 0.0
519705.65575244493 -266794.5120781034 0.0
0.0 0.0 0.0

26890.19688535927 437443.458617859 0.0
437443.458617859 565364.6526375518 0.0
0.0 0.0 0.0

-33046.11671808564 461160.91541843774 0.0
461160.91541843774 -173831.8703716068 0.0
0.0 0.0 0.0

1251.1929607576458 49230.94932129283 0.0
49230.94932129283 -319709.03176643606 0.0
0.0 0.0 0.0

42347.81682189323 656293.1743879112 0.0
656293.1743879112 -102201.25056881597 0.0
0.0 0.0 0.0

38331.36256152819 773552.2331979586 0.0
773552.2331979586 -56854.353253724155 0.0
0.0 0.0 0.0

254611.4702320478 609451.767424422 0.0
609451.767424422 -96517.94616253287 0.0
0.0 0.0 0.0

-17996.618809287145 247414.31806415942 0.0
247414.31806415942 452698.84593190334 0.0
0.0 0.0 0.0

-82000.84428193823 437725.6871271021 0.0
437725.6871271021 -524718.4753083878 0.0
0.0 0.0 0.0

-207207.26543803295 878732.6321238219 0.0
878732.6321238219 78152.95225123347 0.0
0.0 0.0 0.0

-171642.39359380203 857347.08027496 0.0
857347.08027496 74110.41674999284 0.0
0.0 0.0 0.0

-114988.28062671208 374563.64925564075 0.0
374563.64925564075 -879153.3932771146 0.0
0.0 0.0 0.0

-120065.65986145951 446111.2483505251 0.0
446111.2483505251 -318097.026687667 0.0
0.0 0.0 0.0

52385.64792945778 452235.33816165256 0.0
452235.33816165256 155539.76020213115 0.0
0.0 0.0 0.0

-11815.614292196056 213104.92435398902 0.0
213104.92435398902 -880018.5642585078 0.0
0.0 0.0 0.0

30854.50508808653 246214.63716750973 0.0
246214.63716750973 993197.1103204341 0.0
0.0 0.0 0.0

-76631.84007594909 287163.43739358534 0.0
287163.43739358534 -1.9845357266380917e6 0.0
0.0 0.0 0.0

390256.72961259825 1.0157249839667067e6 0.0
1.0157249839667067e6 -153985.49423411756 0.0
0.0 0.0 0.0

261737.37465390406 367093.8662530771 0.0
367093.8662530771 1.0173985233226352e6 0.0
0.0 0.0 0.0

233877.485065034 388943.21598494647 0.0
388943.21598494647 1.2704760875567785e6 0.0
0.0 0.0 0.0

795728.3094274125 642746.7760038073 0.0
642746.7760038073 368942.95442771254 0.0
0.0 0.0 0.0

-1297.0834869342107 478776.2881095305 0.0
478776.2881095305 88324.63846240345 0.0
0.0 0.0 0.0

48000.25282419468 642228.9102797897 0.0
642228.9102797897 -93049.71310281656 0.0
0.0 0.0 0.0

-804623.1882571905 583689.6461680862 0.0
583689.6461680862 -311218.65205340623 0.0
0.0 0.0 0.0

1627.3121497157426 456337.66378752736 0.0
456337.66378752736 38303.359009743115 0.0
0.0 0.0 0.0

-84653.18438197588 537325.2166174691 0.0
537325.2166174691 124450.12632381015 0.0
0.0 0.0 0.0

9258.907264374197 58438.47195944316 0.0
58438.47195944316 -732707.3701085532 0.0
0.0 0.0 0.0

-299032.5325506865 498845.1798635444 0.0
498845.1798635444 -240494.48153643683 0.0
0.0 0.0 0.0

-498624.6644545588 1.1199100990065157e6 0.0
1.1199100990065157e6 138573.74764485823 0.0
0.0 0.0 0.0

8798.422150942613 104243.83501667551 0.0
104243.83501667551 729994.7972093466 0.0
0.0 0.0 0.0

461901.3607187345 816042.008732885 0.0
816042.008732885 -104668.42683299334 0.0
0.0 0.0 0.0

42266.18022280792 229660.9237948707 0.0
229660.9237948707 2.0866342674068226e6 0.0
0.0 0.0 0.0

415.79539659956936 42416.30046420565 0.0
42416.30046420565 859608.488841986 0.0
0.0 0.0 0.0

-390526.85016392637 445700.1076968022 0.0
445700.1076968022 -1.5848423756003878e6 0.0
0.0 0.0 0.0

3155.5424919545767 515374.98029170325 0.0
515374.98029170325 -254617.28902165146 0.0
0.0 0.0 0.0

33461.29981415647 798429.7435910362 0.0
798429.7435910362 -24959.61334409695 0.0
0.0 0.0 0.0

-181736.52699187372 409501.6755360448 0.0
409501.6755360448 -347139.57558030327 0.0
0.0 0.0 0.0

8917.268774977369 206637.61904983106 0.0
206637.61904983106 24052.395236330347 0.0
0.0 0.0 0.0

15851.573631370738 695633.4347453789 0.0
695633.4347453789 -52393.84783359114 0.0
0.0 0.0 0.0

-106507.08939398755 826843.1508177391 0.0
826843.1508177391 70126.09177094122 0.0
0.0 0.0 0.0

47593.43410466853 807309.8781730392 0.0
807309.8781730392 -36543.45207731318 0.0
0.0 0.0 0.0

-123495.44694283872 264545.31625115254 0.0
264545.31625115254 -2.1358051327674985e6 0.0
0.0 0.0 0.0

-170837.57991328486 455560.8856462442 0.0
455560.8856462442 -635953.1526847905 0.0
0.0 0.0 0.0

11125.057042385859 88024.86570384806 0.0
88024.86570384806 1.6059727221923561e6 0.0
0.0 0.0 0.0

431702.4285250193 482476.11003667855 0.0
482476.11003667855 1.8346040037317348e6 0.0
0.0 0.0 0.0

-1.2485997474649758e6 133316.09315118074 0.0
133316.09315118074 -3031.426676590403 0.0
0.0 0.0 0.0

1.3105622287544103e6 815754.7615877113 0.0
815754.7615877113 375321.85950323497 0.0
0.0 0.0 0.0

-33730.744667205465 374488.6824126962 0.0
374488.6824126962 -744876.1710642152 0.0
0.0 0.0 0.0

4891.756036255982 77299.95931656977 0.0
77299.95931656977 -137982.4856410024 0.0
0.0 0.0 0.0

1.7405743718733655e6 765117.5577299998 0.0
765117.5577299998 105471.31824703113 0.0
0.0 0.0 0.0

16270.053047287918 235651.75647931852 0.0
235651.75647931852 -783503.1528491245 0.0
0.0 0.0 0.0

991161.2011108468 663572.5539853589 0.0
663572.5539853589 408852.69491589756 0.0
0.0 0.0 0.0

-10614.396040849653 721886.2399710262 0.0
721886.2399710262 -13099.274625572036 0.0
0.0 0.0 0.0

-140296.57968149515 676907.6363508763 0.0
676907.6363508763 156874.7258200706 0.0
0.0 0.0 0.0

-1527.3203786493323 315510.4717201301 0.0
315510.4717201301 -163441.20450097718 0.0
0.0 0.0 0.0

-139317.34216464133 246251.70808712675 0.0
246251.70808712675 -290473.29051339475 0.0
0.0 0.0 0.0

-171837.20941027673 433182.4285060491 0.0
433182.4285060491 -539884.0991446219 0.0
0.0 0.0 0.0

-24734.39353981703 516669.5727782292 0.0
516669.5727782292 199872.97283448617 0.0
0.0 0.0 0.0

125451.4491365173 522825.5860153783 0.0
522825.5860153783 280717.14147967624 0.0
0.0 0.0 0.0

46787.70961965446 204800.4708225066 0.0
204800.4708225066 1.9921474173332555e6 0.0
0.0 0.0 0.0

-18740.130101199036 663479.6089378942 0.0
663479.6089378942 4106.218475730362 0.0
0.0 0.0 0.0

-783.1125125169056 16192.468128021299 0.0
16192.468128021299 -862486.0137598775 0.0
0.0 0.0 0.0

-30773.985654030548 514661.62975496374 0.0
514661.62975496374 332892.6329432499 0.0
0.0 0.0 0.0

76021.98855316365 519793.38705431786 0.0
519793.38705431786 308507.4651117062 0.0
0.0 0.0 0.0

449497.13796911814 672012.2878496599 0.0
672012.2878496599 -52953.819937022665 0.0
0.0 0.0 0.0

97774.96007192219 661300.1588697595 0.0
661300.1588697595 -168894.41255809116 0.0
0.0 0.0 0.0

-146656.73225879658 956485.6235478127 0.0
956485.6235478127 48543.59204251227 0.0
0.0 0.0 0.0

-10756.195178119706 142528.17374200837 0.0
142528.17374200837 63603.51050872018 0.0
0.0 0.0 0.0

-378093.14944490814 822883.2534378648 0.0
822883.2534378648 111050.58548372454 0.0
0.0 0.0 0.0

-48103.821135472295 724653.3719772928 0.0
724653.3719772928 83192.63263114163 0.0
0.0 0.0 0.0

-20503.853858084185 374969.38407971687 0.0
374969.38407971687 516841.43063649134 0.0
0.0 0.0 0.0

1.0867370246802669e6 668944.9989983472 0.0
668944.9989983472 133800.69897541232 0.0
0.0 0.0 0.0

54690.45982336911 489395.09097671835 0.0
489395.09097671835 -320769.68293737527 0.0
0.0 0.0 0.0

-23612.155574515436 710352.4028884141 0.0
710352.4028884141 5263.053279523343 0.0
0.0 0.0 0.0

-4649.643628170372 277858.6766070065 0.0
277858.6766070065 -171230.10216820647 0.0
0.0 0.0 0.0

18034.505530927054 497206.5380752067 0.0
497206.5380752067 327161.42013691494 0.0
0.0 0.0 0.0

-193120.76742654736 259636.44469091497 0.0
259636.44469091497 -225480.5169529796 0.0
0.0 0.0 0.0

-254691.4492964364 462818.03449699504 0.0
462818.03449699504 -235083.0455824481 0.0
0.0 0.0 0.0

36295.02383902154 508842.2628975087 0.0
508842.2628975087 -250501.5412633933 0.0
0.0 0.0 0.0

339184.29620602843 357198.4229313474 0.0
357198.4229313474 87594.29321411831 0.0
0.0 0.0 0.0

14395.379858206608 464755.4096441789 0.0
464755.4096441789 -435702.82513085444 0.0
0.0 0.0 0.0

40751.49807894201 424165.6706740233 0.0
424165.6706740233 565721.988031018 0.0
0.0 0.0 0.0

-396150.49477305566 413700.64090817346 0.0
413700.64090817346 -178683.4108066025 0.0
0.0 0.0 0.0

-60937.28329317691 511587.136701931 0.0
511587.136701931 81172.11505379684 0.0
0.0 0.0 0.0

-12510.11284379015 183277.40017695166 0.0
183277.40017695166 679872.9641185163 0.0
0.0 0.0 0.0

147815.89515218424 418777.07619372755 0.0
418777.07619372755 588700.2112061942 0.0
0.0 0.0 0.0

539191.1138319215 908617.0024372144 0.0
908617.0024372144 -143352.42413075117 0.0
0.0 0.0 0.0

-1.1331040239264958e6 602983.8018560155 0.0
602983.8018560155 -262905.89736935537 0.0
0.0 0.0 0.0

357406.98051328235 1.169778011540917e6 0.0
1.169778011540917e6 -78718.01364585946 0.0
0.0 0.0 0.0

-343576.0788135164 568352.8982063573 0.0
568352.8982063573 -33572.51940730732 0.0
0.0 0.0 0.0

216868.594856699 1.0444551441558043e6 0.0
1.0444551441558043e6 -49320.01975955996 0.0
0.0 0.0 0.0

-12376.523281287955 131549.01735862123 0.0
131549.01735862123 687211.3941606816 0.0
0.0 0.0 0.0

544194.3347599588 635474.2439266965 0.0
635474.2439266965 4564.621422914235 0.0
0.0 0.0 0.0

-144064.38459377555 867411.6869172524 0.0
867411.6869172524 89843.40804929443 0.0
0.0 0.0 0.0

-127608.91860412376 528910.6210717815 0.0
528910.6210717815 16351.889395297156 0.0
0.0 0.0 0.0

-21472.59538939537 423431.90097951575 0.0
423431.90097951575 -590530.2670728189 0.0
0.0 0.0 0.0

-203681.4437926564 739169.8574724522 0.0
739169.8574724522 129667.83485459237 0.0
0.0 0.0 0.0

-149427.390042938 385444.91569606814 0.0
385444.91569606814 -243491.565988801 0.0
0.0 0.0 0.0

194670.5183518086 1.0228838225691273e6 0.0
1.0228838225691273e6 -100163.436330319 0.0
0.0 0.0 0.0

-457284.7827333348 819507.7978802521 0.0
819507.7978802521 120678.19805734514 0.0
0.0 0.0 0.0

392136.29679526977 643600.6837362787 0.0
643600.6837362787 -40066.516768806265 0.0
0.0 0.0 0.0

9621.065460418846 94782.4414057494 0.0
94782.4414057494 -436604.4750532074 0.0
0.0 0.0 0.0

-195503.81517418727 419690.00537602487 0.0
419690.00537602487 -974330.4809159467 0.0
0.0 0.0 0.0

-1595.9310711932048 48685.5624062366 0.0
48685.5624062366 -360495.90126025944 0.0
0.0 0.0 0.0

223600.75248329574 379009.85543713794 0.0
379009.85543713794 944959.8470534895 0.0
0.0 0.0 0.0

221831.18352787837 585361.2261067901 0.0
585361.2261067901 -44125.52141062557 0.0
0.0 0.0 0.0

370273.3926573245 826613.6343707984 0.0
826613.6343707984 -112467.82324706978 0.0
0.0 0.0 0.0

3452.2738382399257 362511.3811682715 0.0
362511.3811682715 651709.2715494969 0.0
0.0 0.0 0.0

18582.29252646857 334986.4016613381 0.0
334986.4016613381 -134034.2127074473 0.0
0.0 0.0 0.0

155445.89807643078 147708.77854245788 0.0
147708.77854245788 63102.29153104457 0.0
0.0 0.0 0.0

-50396.00869455503 248890.1099706413 0.0
248890.1099706413 -1.6500067294919763e6 0.0
0.0 0.0 0.0

80673.30856533705 382761.22741326195 0.0
382761.22741326195 202607.34453670963 0.0
0.0 0.0 0.0

-419095.26130706095 696218.2899863992 0.0
696218.2899863992 70977.43171024337 0.0
0.0 0.0 0.0

-37891.14615540336 466841.39569305995 0.0
466841.39569305995 -314442.7037364778 0.0
0.0 0.0 0.0

851202.6200769336 638867.164677119 0.0
638867.164677119 422451.1560461777 0.0
0.0 0.0 0.0

7845.141919406655 163645.16317846265 0.0
163645.16317846265 888126.986585924 0.0
0.0 0.0 0.0

-842187.7592152844 688006.3126916712 0.0
688006.3126916712 -103234.2528187214 0.0
0.0 0.0 0.0

1.0599964438407305e6 964628.8054972668 0.0
964628.8054972668 -126415.06332008279 0.0
0.0 0.0 0.0

-153330.26052108058 671514.8729847609 0.0
671514.8729847609 167858.28920648323 0.0
0.0 0.0 0.0

3947.481169549159 416832.62895315344 0.0
416832.62895315344 80037.19361442592 0.0
0.0 0.0 0.0

52418.14424689478 337706.1349419205 0.0
337706.1349419205 921379.7902593019 0.0
0.0 0.0 0.0

-8441.269149190222 58598.98169556076 0.0
58598.98169556076 897321.3795896701 0.0
0.0 0.0 0.0

38560.09918912123 477159.44147868955 0.0
477159.44147868955 -361415.5348600802 0.0
0.0 0.0 0.0

-284029.73282566736 597989.3816881289 0.0
597989.3816881289 -350007.7138139416 0.0
0.0 0.0 0.0

43389.52174685133 487666.79618311435 0.0
487666.79618311435 -207970.30462050813 0.0
0.0 0.0 0.0

72252.30229282379 248289.35460825096 0.0
248289.35460825096 1.4347454132092518e6 0.0
0.0 0.0 0.0

-18770.54204235252 346495.48003757995 0.0
346495.48003757995 -719492.0448115852 0.0
0.0 0.0 0.0

-261692.1495106349 597050.0194711712 0.0
597050.0194711712 -346840.31087134493 0.0
0.0 0.0 0.0

-30122.56891522449 408820.7411975849 0.0
408820.7411975849 -589344.5629061382 0.0
0.0 0.0 0.0

873817.0488329295 618658.6944745601 0.0
618658.6944745601 442271.2345381253 0.0
0.0 0.0 0.0

48481.4925019269 216726.98394942496 0.0
216726.98394942496 1.3155743061016072e6 0.0
0.0 0.0 0.0

62350.68429768148 525151.0750732353 0.0
525151.0750732353 10848.78426673599 0.0
0.0 0.0 0.0

35183.97071316364 472536.10705991497 0.0
472536.10705991497 449608.204369128 0.0
0.0 0.0 0.0

191920.4369721456 787555.3964691771 0.0
787555.3964691771 -108220.42514146162 0.0
0.0 0.0 0.0

8692.427993392368 221799.81897974078 0.0
221799.81897974078 -751766.470000752 0.0
0.0 0.0 0.0

13589.082877893728 189290.2365929457 0.0
189290.2365929457 -234106.86808513783 0.0
0.0 0.0 0.0

-54397.15188125335 261864.27241489984 0.0
261864.27241489984 -1.4284953185276873e6 0.0
0.0 0.0 0.0

-280191.83957911807 540570.3482019391 0.0
540570.3482019391 -131017.57594885016 0.0
0.0 0.0 0.0

19259.99704083003 219200.2797781048 0.0
219200.2797781048 1.209887076681884e6 0.0
0.0 0.0 0.0

-264502.2068494869 531234.877441406 0.0
531234.877441406 -247672.70675271432 0.0
0.0 0.0 0.0

37335.01375914014 456176.1003557521 0.0
456176.1003557521 -215120.0265373656 0.0
0.0 0.0 0.0

-33820.89583152969 195611.53754841627 0.0
195611.53754841627 -1.2384788760922619e6 0.0
0.0 0.0 0.0

46083.152250952524 306971.75552440307 0.0
306971.75552440307 916805.0389618764 0.0
0.0 0.0 0.0

122742.86408566003 416198.1940553838 0.0
416198.1940553838 392525.61561971676 0.0
0.0 0.0 0.0

-59766.564987854625 300120.4638926244 0.0
300120.4638926244 -1.0105329240105111e6 0.0
0.0 0.0 0.0

-7056.523306575837 34657.55132508144 0.0
34657.55132508144 -968448.1264443576 0.0
0.0 0.0 0.0

-49947.88170784389 501222.5592509585 0.0
501222.5592509585 344562.4308478906 0.0
0.0 0.0 0.0

-237427.20325310415 565256.7468921962 0.0
565256.7468921962 -337940.14050221315 0.0
0.0 0.0 0.0

21728.268754148376 312092.6110537732 0.0
312092.6110537732 -285348.95694549347 0.0
0.0 0.0 0.0

10289.70333772956 109871.81794046676 0.0
109871.81794046676 1.086382786075645e6 0.0
0.0 0.0 0.0

9022.51615800256 41631.99040397348 0.0
41631.99040397348 249778.37352945446 0.0
0.0 0.0 0.0

-42034.773296959494 446557.88733066653 0.0
446557.88733066653 403360.1180274759 0.0
0.0 0.0 0.0

932962.7203220464 711855.2505084308 0.0
711855.2505084308 570669.2135446789 0.0
0.0 0.0 0.0

715529.3862101702 620797.1956936624 0.0
620797.1956936624 412281.48181505036 0.0
0.0 0.0 0.0

-473433.4986755496 525669.8993916512 0.0
525669.8993916512 -336168.4302153134 0.0
0.0 0.0 0.0

-130264.99524476737 396856.3370685628 0.0
396856.3370685628 -341492.27375230694 0.0
0.0 0.0 0.0

-267696.3064779837 563211.2557615561 0.0
563211.2557615561 -290239.1850677573 0.0
0.0 0.0 0.0

-228980.54335717796 527064.1701556197 0.0
527064.1701556197 -309355.29633821984 0.0
0.0 0.0 0.0

-52999.10212806816 277641.670978856 0.0
277641.670978856 -1.2599560463859201e6 0.0
0.0 0.0 0.0

-9611.214813698476 61886.71583365628 0.0
61886.71583365628 71839.808272289 0.0
0.0 0.0 0.0

9302.95591796019 123340.36885426367 0.0
123340.36885426367 95737.90860435781 0.0
0.0 0.0 0.0

43851.14905951507 420078.4470425249 0.0
420078.4470425249 49278.75763745791 0.0
0.0 0.0 0.0

618661.038598217 618082.6975233437 0.0
618082.6975233437 351138.2323568199 0.0
0.0 0.0 0.0

48309.91579888936 447652.2365979191 0.0
447652.2365979191 241921.6059718976 0.0
0.0 0.0 0.0

-50168.79215903417 479688.09975838166 0.0
479688.09975838166 349314.3367113513 0.0
0.0 0.0 0.0

-585407.5887956503 270538.93902673095 0.0
270538.93902673095 -40418.42854973808 0.0
0.0 0.0 0.0

110613.81419956738 422494.7226962961 0.0
422494.7226962961 292605.19746822526 0.0
0.0 0.0 0.0

-8259.087491987273 105792.65806648553 0.0
105792.65806648553 -453380.61716943316 0.0
0.0 0.0 0.0

-412944.84664066375 760168.5620523187 0.0
760168.5620523187 111143.58778382116 0.0
0.0 0.0 0.0

7678.8600858870195 76198.11997875164 0.0
76198.11997875164 1.1454919736722591e6 0.0
0.0 0.0 0.0

-48057.10481041309 504272.0921884905 0.0
504272.0921884905 -244714.5883502414 0.0
0.0 0.0 0.0

269270.2270825132 527892.8103664786 0.0
527892.8103664786 251112.7704492642 0.0
0.0 0.0 0.0

-211440.24891961284 564393.6797668354 0.0
564393.6797668354 -328800.0241415378 0.0
0.0 0.0 0.0

-117063.20304950944 392146.6573770864 0.0
392146.6573770864 -793543.3316149957 0.0
0.0 0.0 0.0

749100.0789997742 665145.9844015834 0.0
665145.9844015834 504712.4412149255 0.0
0.0 0.0 0.0

-105065.11926269051 452315.76964319806 0.0
452315.76964319806 -545819.3698303816 0.0
0.0 0.0 0.0

87848.17531492854 449614.9481669256 0.0
449614.9481669256 332349.01652623474 0.0
0.0 0.0 0.0

142795.89388209995 520238.1990799878 0.0
520238.1990799878 358032.04371003684 0.0
0.0 0.0 0.0

-28362.032743278178 497028.25367617724 0.0
497028.25367617724 366838.7683536402 0.0
0.0 0.0 0.0

-30712.063302412615 511756.5325731427 0.0
511756.5325731427 249931.47699495126 0.0
0.0 0.0 0.0

-9343.133337767154 101740.40602773493 0.0
101740.40602773493 -912268.2141481213 0.0
0.0 0.0 0.0

63099.020536603275 851389.6394599024 0.0
851389.6394599024 -43825.73964504224 0.0
0.0 0.0 0.0

-178885.0725663507 485256.15484504733 0.0
485256.15484504733 -442170.55755035166 0.0
0.0 0.0 0.0

1.0399267737281306e6 594045.7756643561 0.0
594045.7756643561 461737.28661461914 0.0
0.0 0.0 0.0

-260454.65877068785 690200.2761386295 0.0
690200.2761386295 120233.79871997239 0.0
0.0 0.0 0.0

-67.93348460231209 85082.89158287027 0.0
85082.89158287027 -1.0723899046009837e6 0.0
0.0 0.0 0.0

-10904.50188614233 436473.6000545864 0.0
436473.6000545864 182026.84187740926 0.0
0.0 0.0 0.0

551059.5115565044 541337.2066330153 0.0
541337.2066330153 314466.3571945044 0.0
0.0 0.0 0.0

1.307396183723123e6 559481.1453773386 0.0
559481.1453773386 417610.84287164337 0.0
0.0 0.0 0.0

-198322.6118451433 848807.0719279429 0.0
848807.0719279429 107282.17418580508 0.0
0.0 0.0 0.0

27858.517519100453 491329.4200264901 0.0
491329.4200264901 -400078.03963982814 0.0
0.0 0.0 0.0

938.8400824522541 227239.95209750705 0.0
227239.95209750705 489399.26136723056 0.0
0.0 0.0 0.0

-3133.7068658453063 81455.4951799014 0.0
81455.4951799014 1.1145032076313787e6 0.0
0.0 0.0 0.0

70165.46663982404 433914.60876128904 0.0
433914.60876128904 198724.49690978142 0.0
0.0 0.0 0.0

398197.77816297027 423737.5367606351 0.0
423737.5367606351 211872.51877924427 0.0
0.0 0.0 0.0

1329.0395727223367 134798.4424979213 0.0
134798.4424979213 869210.93407767 0.0
0.0 0.0 0.0

-11117.08254169402 276119.724756512 0.0
276119.724756512 22925.784212128197 0.0
0.0 0.0 0.0

-105937.73257806012 502237.73708712147 0.0
502237.73708712147 -363508.0921270356 0.0
0.0 0.0 0.0

-147446.31885165078 400872.5389059941 0.0
400872.5389059941 -743995.2678340842 0.0
0.0 0.0 0.0

34472.46602405409 828843.8582792538 0.0
828843.8582792538 -31533.46778823245 0.0
0.0 0.0 0.0

214483.55888677543 807159.1412407297 0.0
807159.1412407297 -116973.0106821081 0.0
0.0 0.0 0.0

173761.21198101592 1.1326796101657248e6 0.0
1.1326796101657248e6 -91197.38419375778 0.0
0.0 0.0 0.0

-503058.9713160829 1.0042356888477866e6 0.0
1.0042356888477866e6 143567.12445512385 0.0
0.0 0.0 0.0

269848.3057987072 404626.2117353584 0.0
404626.2117353584 958448.506181271 0.0
0.0 0.0 0.0

-224810.77902076626 399589.1266383988 0.0
399589.1266383988 -2.06818336079154e6 0.0
0.0 0.0 0.0

-9574.354345068889 78542.55033996006 0.0
78542.55033996006 642249.9378675389 0.0
0.0 0.0 0.0

-289043.195068246 346376.3002252922 0.0
346376.3002252922 -953129.7109298725 0.0
0.0 0.0 0.0

-134562.49272912508 366143.06661870534 0.0
366143.06661870534 -405216.09742973914 0.0
0.0 0.0 0.0

232780.59938710622 416159.12041109457 0.0
416159.12041109457 902927.372799837 0.0
0.0 0.0 0.0

-278699.15986666735 409527.26866362453 0.0
409527.26866362453 -1.1159433443907409e6 0.0
0.0 0.0 0.0

-221488.37593017498 368400.80743983644 0.0
368400.80743983644 -785777.9947503709 0.0
0.0 0.0 0.0

607901.3250925522 612380.578414729 0.0
612380.578414729 316612.33218970185 0.0
0.0 0.0 0.0

-138670.8559346763 493654.971835619 0.0
493654.971835619 -376582.5552260586 0.0
0.0 0.0 0.0

1791.2464325609035 202602.38933307558 0.0
202602.38933307558 -865941.8855144161 0.0
0.0 0.0 0.0

44136.55142605953 441414.41859906394 0.0
441414.41859906394 104695.32760283953 0.0
0.0 0.0 0.0

-226091.4904032998 576892.8056013919 0.0
576892.8056013919 -334948.1100525325 0.0
0.0 0.0 0.0

186382.60444142506 388521.6616398918 0.0
388521.6616398918 552127.1665830468 0.0
0.0 0.0 0.0

-299.0528954756155 48796.956261660285 0.0
48796.956261660285 -367924.7442378034 0.0
0.0 0.0 0.0

-34661.40399372429 698599.858583635 0.0
698599.858583635 26326.758650047435 0.0
0.0 0.0 0.0

-125395.46064532947 804771.6526312608 0.0
804771.6526312608 66961.84446143474 0.0
0.0 0.0 0.0

33756.75850560045 316971.1929043894 0.0
316971.1929043894 889388.1967843048 0.0
0.0 0.0 0.0

57995.09038085747 478177.87745402975 0.0
478177.87745402975 246333.16540163738 0.0
0.0 0.0 0.0

127592.93392376837 520496.8617999932 0.0
520496.8617999932 366106.6087668683 0.0
0.0 0.0 0.0

-145498.9983570328 928271.0914283935 0.0
928271.0914283935 76994.05225102243 0.0
0.0 0.0 0.0

-37388.711308790225 470054.3809013105 0.0
470054.3809013105 372678.369666674 0.0
0.0 0.0 0.0

-9151.532422654156 56018.10567621914 0.0
56018.10567621914 734621.4532060073 0.0
0.0 0.0 0.0

-111779.03054928467 792068.4754780253 0.0
792068.4754780253 100587.1914722933 0.0
0.0 0.0 0.0

37465.66158004945 685533.7864460481 0.0
685533.7864460481 -37668.90527877584 0.0
0.0 0.0 0.0

-30025.936835890694 493169.1417102219 0.0
493169.1417102219 92994.5536124207 0.0
0.0 0.0 0.0

60558.37333197438 842051.9596209857 0.0
842051.9596209857 -45160.72022702727 0.0
0.0 0.0 0.0

58311.61621584222 817586.2013909902 0.0
817586.2013909902 -32704.650777104333 0.0
0.0 0.0 0.0

-56303.217661638 486650.6277661817 0.0
486650.6277661817 -265730.6546120194 0.0
0.0 0.0 0.0

99259.42551219185 479468.863680864 0.0
479468.863680864 330864.755709755 0.0
0.0 0.0 0.0

-7499.72861250391 193441.21008046795 0.0
193441.21008046795 -798483.5906331722 0.0
0.0 0.0 0.0

-369966.84224023996 362161.3353407531 0.0
362161.3353407531 -1.3544088904168003e6 0.0
0.0 0.0 0.0

-112654.05328269287 538657.4961380566 0.0
538657.4961380566 70882.14554474904 0.0
0.0 0.0 0.0

-1.0749405000750597e6 730777.8499488832 0.0
730777.8499488832 -536916.4900340182 0.0
0.0 0.0 0.0

-222039.9671795271 402282.61750521674 0.0
402282.61750521674 -741485.8577476916 0.0
0.0 0.0 0.0

-1.123479657129599e6 687290.1271827533 0.0
687290.1271827533 -352701.97338764684 0.0
0.0 0.0 0.0

-73064.05268113242 541657.3776207368 0.0
541657.3776207368 250674.50785244026 0.0
0.0 0.0 0.0

2231.4746749584447 53009.383918322375 0.0
53009.383918322375 1.2738228253034882e6 0.0
0.0 0.0 0.0

165126.88121389603 782157.5615527506 0.0
782157.5615527506 -106925.93257313831 0.0
0.0 0.0 0.0

-473264.0617800104 589593.7545258602 0.0
589593.7545258602 -350553.31506389054 0.0
0.0 0.0 0.0

33375.37065053014 510786.7559236763 0.0
510786.7559236763 -356193.76500387804 0.0
0.0 0.0 0.0

-374425.75680075615 764300.330325057 0.0
764300.330325057 102766.42867759895 0.0
0.0 0.0 0.0

1210.0579134009022 172992.23703998575 0.0
172992.23703998575 645098.6906658962 0.0
0.0 0.0 0.0

-18871.623524543655 228290.3576702585 0.0
228290.3576702585 -1.0380972777251183e6 0.0
0.0 0.0 0.0

-460668.23487550044 741039.0359658363 0.0
741039.0359658363 81049.13184796443 0.0
0.0 0.0 0.0

56301.92610756669 459176.8443990509 0.0
459176.8443990509 157029.0895979982 0.0
0.0 0.0 0.0

-16992.087014167104 210771.87090450258 0.0
210771.87090450258 468818.30014303885 0.0
0.0 0.0 0.0

24467.859709372264 466171.3065699432 0.0
466171.3065699432 -234018.06831195613 0.0
0.0 0.0 0.0

168009.84593183052 736412.229770176 0.0
736412.229770176 -119986.19499712481 0.0
0.0 0.0 0.0

-646595.3359159612 289058.6723637494 0.0
289058.6723637494 -53177.30187529797 0.0
0.0 0.0 0.0

-204907.0077931491 712117.6141736895 0.0
712117.6141736895 140881.8458615187 0.0
0.0 0.0 0.0

-4107.442565288802 479035.4543213546 0.0
479035.4543213546 -440013.93735997076 0.0
0.0 0.0 0.0

-2392.0379023602 198782.50488535056 0.0
198782.50488535056 -690138.1548733152 0.0
0.0 0.0 0.0

-10617.748192153467 66098.40051110172 0.0
66098.40051110172 -4261.138156209984 0.0
0.0 0.0 0.0

23971.096362385433 423769.2622463473 0.0
423769.2622463473 -480167.97987892537 0.0
0.0 0.0 0.0

-599657.849683449 564601.7934312331 0.0
564601.7934312331 -173685.9197030079 0.0
0.0 0.0 0.0

258913.75973106682 1.1268091662756237e6 0.0
1.1268091662756237e6 -67166.60589515399 0.0
0.0 0.0 0.0

159808.80698082395 381925.96446093393 0.0
381925.96446093393 1.0105878232674405e6 0.0
0.0 0.0 0.0

87371.73339611772 487394.06819019536 0.0
487394.06819019536 295807.39402456774 0.0
0.0 0.0 0.0

283921.67334391887 343699.9454130033 0.0
343699.9454130033 953909.5118234347 0.0
0.0 0.0 0.0

-99349.74649418144 478160.49765851547 0.0
478160.49765851547 -331165.8301910918 0.0
0.0 0.0 0.0

34177.97653030994 311365.6810122233 0.0
311365.6810122233 931708.069733701 0.0
0.0 0.0 0.0

-101252.92270811705 433683.43878262414 0.0
433683.43878262414 -374826.4613670037 0.0
0.0 0.0 0.0

-795026.8549632676 824321.2933801234 0.0
824321.2933801234 80485.35279744392 0.0
0.0 0.0 0.0

12121.987188649422 130767.10448862452 0.0
130767.10448862452 1.0282772631044799e6 0.0
0.0 0.0 0.0

4857.159517579246 51428.826075237725 0.0
51428.826075237725 1.2841393309224953e6 0.0
0.0 0.0 0.0

4942.577640212228 307070.4341494866 0.0
307070.4341494866 -344241.4558310852 0.0
0.0 0.0 0.0

168378.0940604868 54688.96910332867 0.0
54688.96910332867 -3062.5699670511312 0.0
0.0 0.0 0.0

-41250.01958179107 219206.56284067288 0.0
219206.56284067288 -1.3212609701048674e6 0.0
0.0 0.0 0.0

40327.1410731987 273064.28861675947 0.0
273064.28861675947 1.147953177525664e6 0.0
0.0 0.0 0.0

-45202.82835373958 280602.30427167367 0.0
280602.30427167367 -1.0002594022837678e6 0.0
0.0 0.0 0.0

9859.261458105408 75977.68794568983 0.0
75977.68794568983 845561.5993128798 0.0
0.0 0.0 0.0

-85590.2548444238 716802.7519160095 0.0
716802.7519160095 83025.7624268358 0.0
0.0 0.0 0.0

193271.81828545738 752523.5723926952 0.0
752523.5723926952 -119276.92174799975 0.0
0.0 0.0 0.0

-127175.98139353422 864017.0453067656 0.0
864017.0453067656 51308.01282363556 0.0
0.0 0.0 0.0

150779.19574882757 1.085820862136772e6 0.0
1.085820862136772e6 -51555.4349062333 0.0
0.0 0.0 0.0

69337.44737474242 957549.9073777194 0.0
957549.9073777194 -60506.79971551105 0.0
0.0 0.0 0.0

-713.4969147276715 81806.17882759123 0.0
81806.17882759123 1.0694030055599825e6 0.0
0.0 0.0 0.0

-9609.045722674462 94157.06358792672 0.0
94157.06358792672 -1.153630280906941e6 0.0
0.0 0.0 0.0

49855.725563700296 536775.2673119335 0.0
536775.2673119335 -244307.55798546918 0.0
0.0 0.0 0.0

73419.1348819045 585864.4191105635 0.0
585864.4191105635 -181957.25377520098 0.0
0.0 0.0 0.0

13199.241642565845 273135.65882269526 0.0
273135.65882269526 -540382.6960817636 0.0
0.0 0.0 0.0

-199686.66741156555 352291.7435247199 0.0
352291.7435247199 -611366.9508748096 0.0
0.0 0.0 0.0

44599.792361917745 416600.1173403314 0.0
416600.1173403314 148665.9656151879 0.0
0.0 0.0 0.0

-87796.56255288667 597557.6623636995 0.0
597557.6623636995 202561.08357006212 0.0
0.0 0.0 0.0

-282253.00988945644 728361.1964104663 0.0
728361.1964104663 120162.98292402131 0.0
0.0 0.0 0.0

-73502.0308716785 435801.33218637976 0.0
435801.33218637976 -204637.19135723475 0.0
0.0 0.0 0.0

9288.939321564978 280460.3664028026 0.0
280460.3664028026 18224.723254453562 0.0
0.0 0.0 0.0

-5707.2426343379775 48369.81283370857 0.0
48369.81283370857 -919203.8328641389 0.0
0.0 0.0 0.0

119921.57497185285 528908.3382949675 0.0
528908.3382949675 -101714.31291994094 0.0
0.0 0.0 0.0

-5838.47058369522 210101.71914182004 0.0
210101.71914182004 -749367.9642834051 0.0
0.0 0.0 0.0

-11000.455248021295 160296.32650700258 0.0
160296.32650700258 96340.40445690464 0.0
0.0 0.0 0.0

-7804.380845887124 245966.34070786778 0.0
245966.34070786778 -42814.1276814484 0.0
0.0 0.0 0.0

-9626.126140047767 59677.1815438577 0.0
59677.1815438577 145534.70761344605 0.0
0.0 0.0 0.0

-35948.4016937536 641085.3014432439 0.0
641085.3014432439 102690.73133947722 0.0
0.0 0.0 0.0

-14924.893330430612 435632.6661604445 0.0
435632.6661604445 -533760.0768999312 0.0
0.0 0.0 0.0

-58318.41906785569 210503.01423826392 0.0
210503.01423826392 -1.5323635008808519e6 0.0
0.0 0.0 0.0

-228479.17312161994 522340.93712686363 0.0
522340.93712686363 -189918.523311297 0.0
0.0 0.0 0.0

-797111.2865450424 659094.5543698771 0.0
659094.5543698771 -472107.92573704745 0.0
0.0 0.0 0.0

-554118.8613520764 703368.1116999487 0.0
703368.1116999487 43701.574727827974 0.0
0.0 0.0 0.0

-318313.02604607854 587918.4618237978 0.0
587918.4618237978 -344833.20298965374 0.0
0.0 0.0 0.0

-165217.71699619945 369331.32938801305 0.0
369331.32938801305 -1.032460676602291e6 0.0
0.0 0.0 0.0

-235091.5821559541 380027.82493285346 0.0
380027.82493285346 -783638.6165100125 0.0
0.0 0.0 0.0

-618364.988294157 611229.0096000789 0.0
611229.0096000789 -380284.34191998676 0.0
0.0 0.0 0.0

-343262.9662203427 386315.5547045711 0.0
386315.5547045711 -1.1442098948741977e6 0.0
0.0 0.0 0.0

-12315.827926850674 422520.78480196564 0.0
422520.78480196564 501802.54582128406 0.0
0.0 0.0 0.0

-8984.614055924496 89733.37869509574 0.0
89733.37869509574 591420.7857985307 0.0
0.0 0.0 0.0

41910.688067641444 678408.6321423796 0.0
678408.6321423796 -76249.70412033079 0.0
0.0 0.0 0.0

-62019.60006455016 516204.5282997424 0.0
516204.5282997424 303174.8712285048 0.0
0.0 0.0 0.0

-10708.780394064 72462.40200038627 0.0
72462.40200038627 755392.9814297019 0.0
0.0 0.0 0.0

-13789.156464620959 339916.18690908933 0.0
339916.18690908933 -710455.8677401458 0.0
0.0 0.0 0.0

-21087.36267414542 686671.6726557881 0.0
686671.6726557881 4764.27805788601 0.0
0.0 0.0 0.0

18818.898935284393 437384.2014930318 0.0
437384.2014930318 -44937.183752882316 0.0
0.0 0.0 0.0

-131432.88764469302 683055.1298693836 0.0
683055.1298693836 142750.43232111944 0.0
0.0 0.0 0.0

-562809.7757216522 635723.1971034466 0.0
635723.1971034466 -418143.3023640636 0.0
0.0 0.0 0.0

-267490.0303388047 382284.1260925917 0.0
382284.1260925917 -891633.4245698369 0.0
0.0 0.0 0.0

140788.17660647113 491720.61801409913 0.0
491720.61801409913 383960.27444479533 0.0
0.0 0.0 0.0

-743080.0098349978 694600.127041008 0.0
694600.127041008 -175.47739063529298 0.0
0.0 0.0 0.0

4127.055761407653 209824.29916653075 0.0
209824.29916653075 468489.2322394268 0.0
0.0 0.0 0.0

30989.42774238001 230416.94660875117 0.0
230416.94660875117 1.4094188981667638e6 0.0
0.0 0.0 0.0

-63780.46308697901 491092.8402764444 0.0
491092.8402764444 -265974.75107233325 0.0
0.0 0.0 0.0

139000.88300971582 951767.4911956085 0.0
951767.4911956085 -83327.91035005255 0.0
0.0 0.0 0.0

266627.1252292728 379514.53713309055 0.0
379514.53713309055 888757.0750313329 0.0
0.0 0.0 0.0

790403.9469598153 527970.5854340341 0.0
527970.5854340341 168759.25713140494 0.0
0.0 0.0 0.0

-427060.5483419701 608122.9922932067 0.0
608122.9922932067 -378432.36104810046 0.0
0.0 0.0 0.0

213413.8854103533 871134.4766956267 0.0
871134.4766956267 -111709.83610661619 0.0
0.0 0.0 0.0

371440.80811148416 361802.0544863991 0.0
361802.0544863991 1.3574868657298877e6 0.0
0.0 0.0 0.0

-3947.6993455122574 151355.41953408325 0.0
151355.41953408325 -1.4908167046029617e6 0.0
0.0 0.0 0.0

-190521.69471035036 682814.4385845365 0.0
682814.4385845365 152665.19149089925 0.0
0.0 0.0 0.0

25789.148003077113 404172.5245935443 0.0
404172.5245935443 6942.57881742543 0.0
0.0 0.0 0.0

-386151.62064207153 400366.69769026997 0.0
400366.69769026997 -1.2871720878497602e6 0.0
0.0 0.0 0.0

-174260.22167031025 540743.0990995396 0.0
540743.0990995396 -70062.02890210798 0.0
0.0 0.0 0.0

2171.1064177362714 56213.20198167503 0.0
56213.20198167503 -1.2876427459649085e6 0.0
0.0 0.0 0.0

42922.53011324823 548869.8102171631 0.0
548869.8102171631 -192564.69692090584 0.0
0.0 0.0 0.0

191024.48991866104 613294.1000767743 0.0
613294.1000767743 -152796.7492453728 0.0
0.0 0.0 0.0

786813.9394667113 642671.1293089801 0.0
642671.1293089801 139642.01448021657 0.0
0.0 0.0 0.0

-11030.745476946991 382421.3608953203 0.0
382421.3608953203 520076.16315041034 0.0
0.0 0.0 0.0

-26976.564073870904 294926.5545044197 0.0
294926.5545044197 -269017.3624378516 0.0
0.0 0.0 0.0

-272489.20873829065 553992.7801514845 0.0
553992.7801514845 -344583.2508789888 0.0
0.0 0.0 0.0

31166.63145760358 684772.9916245297 0.0
684772.9916245297 -66744.67644646764 0.0
0.0 0.0 0.0

15406.402671746328 94778.62851006212 0.0
94778.62851006212 1.3582697424703576e6 0.0
0.0 0.0 0.0

-54108.73954328665 446121.7796166122 0.0
446121.7796166122 -240805.37961890365 0.0
0.0 0.0 0.0

-307315.7589907481 730022.6797677833 0.0
730022.6797677833 115163.60488226128 0.0
0.0 0.0 0.0

-6616.299394485599 165323.9688070721 0.0
165323.9688070721 -270323.5976419309 0.0
0.0 0.0 0.0

314686.7591239072 503860.2694581938 0.0
503860.2694581938 280425.8605542132 0.0
0.0 0.0 0.0

-1.2054058461972605e6 746163.56967044 0.0
746163.56967044 -42842.411064701504 0.0
0.0 0.0 0.0

107543.45165638141 373757.70028104575 0.0
373757.70028104575 302802.960373889 0.0
0.0 0.0 0.0

12723.181707515178 129890.67617831306 0.0
129890.67617831306 -415616.2530105943 0.0
0.0 0.0 0.0

157722.61393765867 458248.67917577183 0.0
458248.67917577183 477293.13653522055 0.0
0.0 0.0 0.0

122616.70926254103 673333.8053828748 0.0
673333.8053828748 -149297.2544108714 0.0
0.0 0.0 0.0

715568.090550536 888743.9404963681 0.0
888743.9404963681 -117162.83095431057 0.0
0.0 0.0 0.0

-104499.7501286598 399099.55035155534 0.0
399099.55035155534 -348332.4966337009 0.0
0.0 0.0 0.0

-7773.241256796144 383117.49993787124 0.0
383117.49993787124 221720.12450168515 0.0
0.0 0.0 0.0

-8849.896900669039 166208.10762182527 0.0
166208.10762182527 -206286.4105362214 0.0
0.0 0.0 0.0

-161111.02429696568 439073.1527321905 0.0
439073.1527321905 -694998.3702459066 0.0
0.0 0.0 0.0

65452.99051735335 558810.1114481218 0.0
558810.1114481218 -196202.36154823558 0.0
0.0 0.0 0.0

587007.6939491249 630426.8466757091 0.0
630426.8466757091 430498.09489760234 0.0
0.0 0.0 0.0

-187525.48315189558 551185.4789462214 0.0
551185.4789462214 -331204.36614997796 0.0
0.0 0.0 0.0

169705.58393559844 605943.3981205233 0.0
605943.3981205233 -137329.42871448086 0.0
0.0 0.0 0.0

-6996.755684437783 94344.45904446651 0.0
94344.45904446651 188828.57459580342 0.0
0.0 0.0 0.0

9164.756047935763 88170.24395261692 0.0
88170.24395261692 -190362.13847837137 0.0
0.0 0.0 0.0

378129.03932424803 586874.2968358529 0.0
586874.2968358529 19274.517451669497 0.0
0.0 0.0 0.0

98779.30476075108 402249.63289191463 0.0
402249.63289191463 243625.75789875095 0.0
0.0 0.0 0.0

1.769573183848656e6 688398.6542044879 0.0
688398.6542044879 566497.9160242488 0.0
0.0 0.0 0.0

-9089.86225607741 71619.51129603748 0.0
71619.51129603748 839326.1923840437 0.0
0.0 0.0 0.0

-526998.639829256 571810.3452382353 0.0
571810.3452382353 -275567.813117702 0.0
0.0 0.0 0.0

-351714.8705101721 524963.4415247892 0.0
524963.4415247892 -248056.78254113442 0.0
0.0 0.0 0.0

-970648.2934885183 568331.6940620516 0.0
568331.6940620516 -501547.8822931126 0.0
0.0 0.0 0.0

1.2076634762646987e6 133709.7017052623 0.0
133709.7017052623 1547.0506524431985 0.0
0.0 0.0 0.0

40734.801954660914 207371.52696490707 0.0
207371.52696490707 1.5951626195374203e6 0.0
0.0 0.0 0.0

9041.97701000594 258668.4241982536 0.0
258668.4241982536 52638.496977814815 0.0
0.0 0.0 0.0

-529863.995412551 556171.7172065102 0.0
556171.7172065102 -406133.4725611857 0.0
0.0 0.0 0.0

-138526.69824301137 681496.9933070702 0.0
681496.9933070702 165136.29501045315 0.0
0.0 0.0 0.0

51758.309527464226 548084.0952180111 0.0
548084.0952180111 -235717.38699408603 0.0
0.0 0.0 0.0

15908.995027358018 333355.5421610663 0.0
333355.5421610663 -376642.7481320205 0.0
0.0 0.0 0.0

-5945.288537761073 441516.002742413 0.0
441516.002742413 -165410.98778628654 0.0
0.0 0.0 0.0

-244990.63740156527 343398.74018116656 0.0
343398.74018116656 -836174.0112796859 0.0
0.0 0.0 0.0

-290791.75078008673 424730.29612779344 0.0
424730.29612779344 -1.7888187289598146e6 0.0
0.0 0.0 0.0

480713.9657961291 80797.6216041845 0.0
80797.6216041845 -5193.623603781249 0.0
0.0 0.0 0.0

366123.3338002592 895503.9722088226 0.0
895503.9722088226 -121646.11892236737 0.0
0.0 0.0 0.0

-169205.6961254946 389272.8245287725 0.0
389272.8245287725 -564018.9909121522 0.0
0.0 0.0 0.0

582899.3264753057 418845.1416122853 0.0
418845.1416122853 116142.37423997329 0.0
0.0 0.0 0.0

-8223.75365722672 476112.3888933666 0.0
476112.3888933666 -158917.9751596429 0.0
0.0 0.0 0.0

49489.60202385612 664075.8318062526 0.0
664075.8318062526 -66263.08882288774 0.0
0.0 0.0 0.0

-143922.04540020588 435316.5739664894 0.0
435316.5739664894 -451046.94052740344 0.0
0.0 0.0 0.0

-511001.98750900873 394447.078615134 0.0
394447.078615134 -162198.38021312188 0.0
0.0 0.0 0.0

-3056.083060311241 46748.22756584167 0.0
46748.22756584167 473673.01614105486 0.0
0.0 0.0 0.0

-18006.544242012635 414693.0037116625 0.0
414693.0037116625 492485.12706452113 0.0
0.0 0.0 0.0

-6390.792906533719 435024.49570125993 0.0
435024.49570125993 64281.80777553172 0.0
0.0 0.0 0.0

-188130.01063176175 420701.069232877 0.0
420701.069232877 -517767.82606380037 0.0
0.0 0.0 0.0

32435.70938858766 475491.2593174116 0.0
475491.2593174116 -136188.17064897646 0.0
0.0 0.0 0.0

-10017.561295037265 296484.25669062254 0.0
296484.25669062254 -9775.809823392394 0.0
0.0 0.0 0.0

909268.134855963 626009.7288716427 0.0
626009.7288716427 107794.772338273 0.0
0.0 0.0 0.0

-356106.54281271936 831174.6585007353 0.0
831174.6585007353 122477.23310002564 0.0
0.0 0.0 0.0

277722.69921797415 634591.6753299052 0.0
634591.6753299052 -93607.62530417451 0.0
0.0 0.0 0.0

-148070.66064373034 513944.60105740896 0.0
513944.60105740896 -112764.6134109163 0.0
0.0 0.0 0.0

-95713.21771502517 874779.7569959913 0.0
874779.7569959913 68142.72445537572 0.0
0.0 0.0 0.0

-37158.01783334039 456610.15595811757 0.0
456610.15595811757 408406.05949624605 0.0
0.0 0.0 0.0

5508.201178186158 147359.94566236454 0.0
147359.94566236454 -131180.28651573462 0.0
0.0 0.0 0.0

8959.913125080006 140729.2559534702 0.0
140729.2559534702 129266.35146187543 0.0
0.0 0.0 0.0

-332426.08947705553 351189.9208815349 0.0
351189.9208815349 -1.212335870422862e6 0.0
0.0 0.0 0.0

-67349.86223719068 522174.6048440666 0.0
522174.6048440666 133753.37561950914 0.0
0.0 0.0 0.0

-7256.014356263426 73276.21546950741 0.0
73276.21546950741 -142483.88423005288 0.0
0.0 0.0 0.0

-1.5551179466606902e6 747625.0980858508 0.0
747625.0980858508 -605331.661779162 0.0
0.0 0.0 0.0

-60033.08314022026 196125.81861180637 0.0
196125.81861180637 -1.7741115875246613e6 0.0
0.0 0.0 0.0

-10886.095542848343 207941.51232226388 0.0
207941.51232226388 -41810.44397011652 0.0
0.0 0.0 0.0

-304325.8450643052 378221.346007973 0.0
378221.346007973 -1.2812613972233008e6 0.0
0.0 0.0 0.0

-4900.267137380142 85915.42932497697 0.0
85915.42932497697 -1.1307337501970532e6 0.0
0.0 0.0 0.0

860365.5771082129 1.0216460569770014e6 0.0
1.0216460569770014e6 -173690.56956699392 0.0
0.0 0.0 0.0

12324.054596492904 220166.42994662074 0.0
220166.42994662074 -697685.621269381 0.0
0.0 0.0 0.0

68096.37913474016 289379.456146931 0.0
289379.456146931 1.3311372218476401e6 0.0
0.0 0.0 0.0

-8320.686718305456 384098.7971875895 0.0
384098.7971875895 536155.1526645531 0.0
0.0 0.0 0.0

-89238.71114240981 561412.5435483197 0.0
561412.5435483197 235838.3199383429 0.0
0.0 0.0 0.0

-183067.59740865737 493106.57068059465 0.0
493106.57068059465 -292367.47349719534 0.0
0.0 0.0 0.0

-5293.025298103661 405805.1636293674 0.0
405805.1636293674 551230.8753095022 0.0
0.0 0.0 0.0

-44648.787376348984 645538.9775775854 0.0
645538.9775775854 63521.03180365858 0.0
0.0 0.0 0.0

388242.97160708375 400211.3969475996 0.0
400211.3969475996 1.2941432711567134e6 0.0
0.0 0.0 0.0

-7719.7539069262275 81589.3349014106 0.0
81589.3349014106 502590.2191011418 0.0
0.0 0.0 0.0

67911.46269281668 530881.7391392748 0.0
530881.7391392748 -305508.3354604121 0.0
0.0 0.0 0.0

-121889.74387645506 286619.5906303677 0.0
286619.5906303677 -1.981875055814152e6 0.0
0.0 0.0 0.0

-328661.38722346554 903229.7446012254 0.0
903229.7446012254 129919.62884142448 0.0
0.0 0.0 0.0

187596.05361097935 724763.3283019674 0.0
724763.3283019674 -139498.32861742604 0.0
0.0 0.0 0.0

129269.95738040966 529676.4720685612 0.0
529676.4720685612 105821.76858049189 0.0
0.0 0.0 0.0

-5479.186763428763 382176.04266512237 0.0
382176.04266512237 576101.9058059802 0.0
0.0 0.0 0.0

-628687.8298284976 882916.9274676027 0.0
882916.9274676027 134602.74771904468 0.0
0.0 0.0 0.0

113700.66809918908 607636.7177957773 0.0
607636.7177957773 -210903.35036982945 0.0
0.0 0.0 0.0

-167835.54546494724 386684.7841301868 0.0
386684.7841301868 -923429.2720184063 0.0
0.0 0.0 0.0

-537003.8503826674 997648.7847839239 0.0
997648.7847839239 136429.67765706035 0.0
0.0 0.0 0.0

1.1668998097823572e6 943101.5015823361 0.0
943101.5015823361 -154165.26397052646 0.0
0.0 0.0 0.0

107320.98164033462 501708.1304989093 0.0
501708.1304989093 132674.47134905338 0.0
0.0 0.0 0.0

8989.804611825588 269350.5888898949 0.0
269350.5888898949 -594453.3862225284 0.0
0.0 0.0 0.0

-365019.5800670376 428304.9876032358 0.0
428304.9876032358 -1.3943898348416388e6 0.0
0.0 0.0 0.0

586006.5981904527 894026.3580303191 0.0
894026.3580303191 -124159.11970746427 0.0
0.0 0.0 0.0

-10066.964684575476 482893.23077207117 0.0
482893.23077207117 -343606.02943019324 0.0
0.0 0.0 0.0

67063.30699901325 801832.3709503207 0.0
801832.3709503207 -70834.55345634131 0.0
0.0 0.0 0.0

-98558.26062833442 262884.7762449217 0.0
262884.7762449217 -1.672441046368551e6 0.0
0.0 0.0 0.0

61475.664634979024 468833.87236564327 0.0
468833.87236564327 217138.23475218838 0.0
0.0 0.0 0.0

-655442.5557653755 750066.7559681864 0.0
750066.7559681864 77059.3635179222 0.0
0.0 0.0 0.0

-29145.87231658415 658828.6585101599 0.0
658828.6585101599 82600.89890189898 0.0
0.0 0.0 0.0

818680.1335018844 550956.1709680173 0.0
550956.1709680173 363467.83112705697 0.0
0.0 0.0 0.0

-126534.92590833367 908726.7693761776 0.0
908726.7693761776 36474.51770502388 0.0
0.0 0.0 0.0

110486.90004413706 465246.4449396565 0.0
465246.4449396565 357161.0068010082 0.0
0.0 0.0 0.0

-9207.9213407992 46221.31801603334 0.0
46221.31801603334 110136.85820485665 0.0
0.0 0.0 0.0

378227.9908564123 962505.1116669292 0.0
962505.1116669292 -106635.43632734573 0.0
0.0 0.0 0.0

-7376.924693341192 458963.18600789853 0.0
458963.18600789853 -489235.9881198065 0.0
0.0 0.0 0.0

2335.4016048772028 73626.12424149494 0.0
73626.12424149494 -1.4197303886798024e6 0.0
0.0 0.0 0.0

3527.724746330132 239979.40290669654 0.0
239979.40290669654 -99775.89369499304 0.0
0.0 0.0 0.0

1960.5210678267613 106609.15979508581 0.0
106609.15979508581 -144710.1856060754 0.0
0.0 0.0 0.0

25273.73875100429 361235.690526103 0.0
361235.690526103 -369876.94643217063 0.0
0.0 0.0 0.0

-555273.4357218411 696517.4806439058 0.0
696517.4806439058 54233.120475215546 0.0
0.0 0.0 0.0

-74248.73631132426 527220.557877183 0.0
527220.557877183 72230.12319341941 0.0
0.0 0.0 0.0

235483.9087210367 647545.6433121022 0.0
647545.6433121022 -113194.66223856754 0.0
0.0 0.0 0.0

5957.611292286194 122959.09161243234 0.0
122959.09161243234 -1.1023120548969288e6 0.0
0.0 0.0 0.0

55264.06420564123 543668.5905840978 0.0
543668.5905840978 -186537.78214097454 0.0
0.0 0.0 0.0

26865.039895395632 443368.9802947156 0.0
443368.9802947156 -310970.4352565404 0.0
0.0 0.0 0.0

-412850.61539071664 545705.8340837522 0.0
545705.8340837522 -366676.86300985643 0.0
0.0 0.0 0.0

526729.4071889338 811237.4630170616 0.0
811237.4630170616 -114779.87406225174 0.0
0.0 0.0 0.0

-126266.05017029314 599451.5213718395 0.0
599451.5213718395 222308.68210444992 0.0
0.0 0.0 0.0

100257.81672702573 494165.29748240806 0.0
494165.29748240806 335619.41238530603 0.0
0.0 0.0 0.0

202642.82158642594 383762.0263707157 0.0
383762.0263707157 2.0609045330859257e6 0.0
0.0 0.0 0.0

-158283.4041842104 1.0249986236093899e6 0.0
1.0249986236093899e6 93330.5464824465 0.0
0.0 0.0 0.0

69431.31638015532 546355.7612356808 0.0
546355.7612356808 -188533.06852485926 0.0
0.0 0.0 0.0

1664.2870723616797 240992.9873177314 0.0
240992.9873177314 -830814.4184768099 0.0
0.0 0.0 0.0

-586.7129189937259 219071.80466486327 0.0
219071.80466486327 -886501.9459265855 0.0
0.0 0.0 0.0

7938.778263008629 44386.53685876967 0.0
44386.53685876967 -777826.5630334144 0.0
0.0 0.0 0.0

-81495.54712532196 586070.836929257 0.0
586070.836929257 239656.56294013307 0.0
0.0 0.0 0.0

-2030.8516473098134 46988.15957752932 0.0
46988.15957752932 -767392.2103322146 0.0
0.0 0.0 0.0

-4295.398470187909 114980.74774100917 0.0
114980.74774100917 1.0109967834425784e6 0.0
0.0 0.0 0.0

-38901.71268927696 512965.9469171596 0.0
512965.9469171596 349281.5899551251 0.0
0.0 0.0 0.0

-10479.42978105641 222985.44677718214 0.0
222985.44677718214 -7161.591646075297 0.0
0.0 0.0 0.0

155026.45096281165 743730.886982855 0.0
743730.886982855 -132659.7792858263 0.0
0.0 0.0 0.0

264491.37790777715 852930.2866451811 0.0
852930.2866451811 -95111.16413690367 0.0
0.0 0.0 0.0

53059.18758770787 393163.4954911669 0.0
393163.4954911669 103779.3635546621 0.0
0.0 0.0 0.0

-82136.22151433298 266840.41460163676 0.0
266840.41460163676 -1.4367312860616029e6 0.0
0.0 0.0 0.0

8704.700046722195 84198.12134781003 0.0
84198.12134781003 -1.2255045655188782e6 0.0
0.0 0.0 0.0

-1.452541048484898e6 836089.0425885385 0.0
836089.0425885385 -606658.2394957974 0.0
0.0 0.0 0.0

810051.3360693551 665596.1924964588 0.0
665596.1924964588 381487.46416633844 0.0
0.0 0.0 0.0

225079.66337651605 837273.6161592619 0.0
837273.6161592619 -93972.03749289857 0.0
0.0 0.0 0.0

85395.60263105149 436459.74852090515 0.0
436459.74852090515 524086.5463490557 0.0
0.0 0.0 0.0

51149.260397157326 435983.8341053919 0.0
435983.8341053919 102994.60803568417 0.0
0.0 0.0 0.0

8974.543755993538 193667.5181762037 0.0
193667.5181762037 1.1844841306902152e6 0.0
0.0 0.0 0.0

-349262.70021072176 772302.0616401943 0.0
772302.0616401943 114856.33426873058 0.0
0.0 0.0 0.0

69.12528664326237 349497.91133994097 0.0
349497.91133994097 -157571.2742264257 0.0
0.0 0.0 0.0

-9871.837976647075 101654.47564972493 0.0
101654.47564972493 801373.0599343007 0.0
0.0 0.0 0.0

111192.32887265238 281536.89068812004 0.0
281536.89068812004 2.3469441587267476e6 0.0
0.0 0.0 0.0

70396.15530139655 547650.4347985022 0.0
547650.4347985022 -281498.78994310705 0.0
0.0 0.0 0.0

464.7264592589345 49963.905238191786 0.0
49963.905238191786 -170711.87930954833 0.0
0.0 0.0 0.0

23755.764420590538 203445.02353315058 0.0
203445.02353315058 1.6548770823856134e6 0.0
0.0 0.0 0.0

6463.955892829632 56305.87667809622 0.0
56305.87667809622 -998747.213515795 0.0
0.0 0.0 0.0

-149356.44165681163 513352.78989738185 0.0
513352.78989738185 -339571.1179498029 0.0
0.0 0.0 0.0

-685330.4034871379 568474.6243654743 0.0
568474.6243654743 -458534.63835918176 0.0
0.0 0.0 0.0

27552.741841946845 484624.1329154784 0.0
484624.1329154784 -389689.45756276697 0.0
0.0 0.0 0.0

-28551.076846360047 172848.93379244438 0.0
172848.93379244438 -111589.498755924 0.0
0.0 0.0 0.0

-143375.38831894004 540690.8661129029 0.0
540690.8661129029 10225.38499366516 0.0
0.0 0.0 0.0

644829.7744572868 783129.6477805941 0.0
783129.6477805941 -93969.56161626548 0.0
0.0 0.0 0.0

852.4803088284389 41945.848913125985 0.0
41945.848913125985 516836.7631810603 0.0
0.0 0.0 0.0

396330.7194575533 520449.2679536434 0.0
520449.2679536434 248441.13909060194 0.0
0.0 0.0 0.0

628599.9808534767 1.0558687520432062e6 0.0
1.0558687520432062e6 -169074.21288011188 0.0
0.0 0.0 0.0

8086.342980483372 53178.77275178175 0.0
53178.77275178175 -876470.0401408413 0.0
0.0 0.0 0.0

-27176.38702946889 440930.3528219392 0.0
440930.3528219392 127432.86196516162 0.0
0.0 0.0 0.0

371887.16338894464 428112.1912256024 0.0
428112.1912256024 1.412278025266059e6 0.0
0.0 0.0 0.0

1.9358827106942665e6 195817.12892049298 0.0
195817.12892049298 4514.974287278368 0.0
0.0 0.0 0.0

-883567.0596260147 610027.6344539835 0.0
610027.6344539835 -502156.90499942837 0.0
0.0 0.0 0.0

-50996.74702687996 628935.938291394 0.0
628935.938291394 86073.59328730372 0.0
0.0 0.0 0.0

-72468.08970418008 273011.69197156944 0.0
273011.69197156944 -1.2461372771473646e6 0.0
0.0 0.0 0.0

-421897.13868794916 692693.9958512706 0.0
692693.9958512706 76902.32135580896 0.0
0.0 0.0 0.0

347490.08499464486 528679.5671580822 0.0
528679.5671580822 286426.72997077013 0.0
0.0 0.0 0.0

48376.62343854888 189294.36686175145 0.0
189294.36686175145 1.9369412448799657e6 0.0
0.0 0.0 0.0

-97346.14853150379 559952.3249268403 0.0
559952.3249268403 236385.18410610917 0.0
0.0 0.0 0.0

145653.03709544166 407086.97220237047 0.0
407086.97220237047 534880.3808413376 0.0
0.0 0.0 0.0

29248.227240354783 494870.3298754023 0.0
494870.3298754023 -220711.11013817808 0.0
0.0 0.0 0.0

298364.09803238604 577740.5345274339 0.0
577740.5345274339 23043.66695638375 0.0
0.0 0.0 0.0

115453.38698829769 563979.2328331706 0.0
563979.2328331706 -116090.34692467208 0.0
0.0 0.0 0.0

-9939.606540976842 332193.3300169701 0.0
332193.3300169701 -9400.73833530224 0.0
0.0 0.0 0.0

140049.43222219107 413092.8408429775 0.0
413092.8408429775 660615.4721642999 0.0
0.0 0.0 0.0

37946.82976102692 465174.6288499203 0.0
465174.6288499203 68492.02741947687 0.0
0.0 0.0 0.0

5532.95391407967 454786.1134997547 0.0
454786.1134997547 -102857.43923194885 0.0
0.0 0.0 0.0

-171912.45951978292 395364.5303224164 0.0
395364.5303224164 -806249.6311634138 0.0
0.0 0.0 0.0

-77974.93559944301 707037.3801265862 0.0
707037.3801265862 117768.68511314924 0.0
0.0 0.0 0.0

-585171.9591406921 534412.7765795807 0.0
534412.7765795807 -384224.20033755404 0.0
0.0 0.0 0.0

-313199.0886832228 820502.863117796 0.0
820502.863117796 113167.86079432331 0.0
0.0 0.0 0.0

38962.661955474265 478375.7846261274 0.0
478375.7846261274 338680.37046666164 0.0
0.0 0.0 0.0

8245.313060204964 128613.95747936495 0.0
128613.95747936495 -866694.7400662553 0.0
0.0 0.0 0.0

69623.32712914672 531488.785386314 0.0
531488.785386314 -308945.8349515039 0.0
0.0 0.0 0.0

549586.6911428971 799344.0420873939 0.0
799344.0420873939 -95311.5118280873 0.0
0.0 0.0 0.0

-4718.692098408588 100622.86930704508 0.0
100622.86930704508 932368.5180818058 0.0
0.0 0.0 0.0

-91141.09705795534 547564.0390414402 0.0
547564.0390414402 170522.54396575957 0.0
0.0 0.0 0.0

76546.40111742205 524859.6638330237 0.0
524859.6638330237 87675.0086486724 0.0
0.0 0.0 0.0

329220.72307020955 612315.5474873566 0.0
612315.5474873566 -26221.372392716803 0.0
0.0 0.0 0.0

8081.282450362807 182878.57623429716 0.0
182878.57623429716 835864.8914317228 0.0
0.0 0.0 0.0

226267.5249307988 370271.4228251128 0.0
370271.4228251128 775409.8226883848 0.0
0.0 0.0 0.0

-192412.60576367672 495439.043417232 0.0
495439.043417232 -359382.94991399365 0.0
0.0 0.0 0.0

-36135.29038997865 403115.05888171145 0.0
403115.05888171145 -670486.1418251902 0.0
0.0 0.0 0.0

332809.32611557026 1.0340604904116255e6 0.0
1.0340604904116255e6 -85701.07661157253 0.0
0.0 0.0 0.0

-315133.61866436026 870022.3874234037 0.0
870022.3874234037 104401.70177153547 0.0
0.0 0.0 0.0

6256.547350720677 196035.0166923371 0.0
196035.0166923371 697952.559145043 0.0
0.0 0.0 0.0

-249226.5888340695 539024.791862426 0.0
539024.791862426 -193962.46672221267 0.0
0.0 0.0 0.0

-246189.37859927755 900495.2820425222 0.0
900495.2820425222 85113.63854201988 0.0
0.0 0.0 0.0

-262158.43434946256 855640.5025106352 0.0
855640.5025106352 99732.77942614845 0.0
0.0 0.0 0.0

145173.21655423153 386974.6280306143 0.0
386974.6280306143 445430.12437811744 0.0
0.0 0.0 0.0

21375.490932979184 313131.433602816 0.0
313131.433602816 -520724.6579761935 0.0
0.0 0.0 0.0

1.789997745280898e6 1.0140667456079542e6 0.0
1.0140667456079542e6 840109.2959699992 0.0
0.0 0.0 0.0

-936475.1790445744 120716.05344578366 0.0
120716.05344578366 -1629.6242621202837 0.0
0.0 0.0 0.0

-490965.0261994652 663193.1811672304 0.0
663193.1811672304 29480.664429137163 0.0
0.0 0.0 0.0

-8717.797028750181 46778.256224758916 0.0
46778.256224758916 -988336.4584684339 0.0
0.0 0.0 0.0

49231.92076584189 527732.4438360463 0.0
527732.4438360463 -264330.1511579986 0.0
0.0 0.0 0.0

-368480.0711579275 715484.3178603586 0.0
715484.3178603586 101250.66839926853 0.0
0.0 0.0 0.0

-5075.738663307799 154507.80556721048 0.0
154507.80556721048 977619.7828447402 0.0
0.0 0.0 0.0

-9205.276026603387 229065.56744842316 0.0
229065.56744842316 -763278.7193580843 0.0
0.0 0.0 0.0

-203365.8868111469 375427.30918566405 0.0
375427.30918566405 -668334.9136010023 0.0
0.0 0.0 0.0

356182.66051918274 558991.7103015636 0.0
558991.7103015636 305332.60999565944 0.0
0.0 0.0 0.0

-1.1599158554921758e6 667959.5106565066 0.0
667959.5106565066 -568536.7825953388 0.0
0.0 0.0 0.0

-13441.535411397439 272409.2019337935 0.0
272409.2019337935 86555.2232859429 0.0
0.0 0.0 0.0

-282034.00250031124 692950.659376623 0.0
692950.659376623 115581.61478165853 0.0
0.0 0.0 0.0

-55750.67954439508 749001.3539416278 0.0
749001.3539416278 82452.12051331789 0.0
0.0 0.0 0.0

1378.8328077701735 157664.89709083448 0.0
157664.89709083448 446662.440341376 0.0
0.0 0.0 0.0

6463.969083469448 68705.7169396337 0.0
68705.7169396337 530409.8349997251 0.0
0.0 0.0 0.0

7030.2027862818795 323003.18956187955 0.0
323003.18956187955 -537102.6547698788 0.0
0.0 0.0 0.0

8623.096510810137 129568.18830683878 0.0
129568.18830683878 946121.5228228815 0.0
0.0 0.0 0.0

18070.488881609635 424173.7266972118 0.0
424173.7266972118 -480408.93394373835 0.0
0.0 0.0 0.0

303493.0232767282 540320.9800886025 0.0
540320.9800886025 61361.20865987861 0.0
0.0 0.0 0.0

-6870.798530909873 184609.13113878635 0.0
184609.13113878635 -231883.4433066448 0.0
0.0 0.0 0.0

-475767.42825504387 659727.0422663608 0.0
659727.0422663608 35036.05359233945 0.0
0.0 0.0 0.0

-360618.7989581169 564198.1492308999 0.0
564198.1492308999 -367045.0309055592 0.0
0.0 0.0 0.0

17433.807467747178 438189.9947916336 0.0
438189.9947916336 58112.71726748009 0.0
0.0 0.0 0.0

-13148.511144857479 437300.24182803807 0.0
437300.24182803807 -43828.394185577745 0.0
0.0 0.0 0.0

24381.16493955633 334021.4910547254 0.0
334021.4910547254 -482419.4371945402 0.0
0.0 0.0 0.0

-177341.14288050274 399042.5041481501 0.0
399042.5041481501 -650891.08492777 0.0
0.0 0.0 0.0

-9469.395778670616 93385.32280500361 0.0
93385.32280500361 713540.1698106687 0.0
0.0 0.0 0.0

762.0034619914659 300807.83941711276 0.0
300807.83941711276 207065.89125593423 0.0
0.0 0.0 0.0

112411.04849404359 596937.5265111807 0.0
596937.5265111807 -214506.1791213088 0.0
0.0 0.0 0.0

-4593.727450221777 137283.43484631798 0.0
137283.43484631798 -566755.8279322393 0.0
0.0 0.0 0.0

-1.060711204945721e6 589143.0068871798 0.0
589143.0068871798 -294732.07086627756 0.0
0.0 0.0 0.0

241361.5822524646 570360.998122258 0.0
570360.998122258 12750.958734377171 0.0
0.0 0.0 0.0

802422.9010475375 543209.8598067358 0.0
543209.8598067358 224555.80076404716 0.0
0.0 0.0 0.0

-365707.5761478166 998990.218589472 0.0
998990.218589472 136515.96168863558 0.0
0.0 0.0 0.0

6108.470895318722 127996.17514722786 0.0
127996.17514722786 574015.9478599875 0.0
0.0 0.0 0.0

28540.782616378594 462506.27795502846 0.0
462506.27795502846 -279805.84280997893 0.0
0.0 0.0 0.0

-299192.3365391418 526167.1663735299 0.0
526167.1663735299 -180780.35813871463 0.0
0.0 0.0 0.0

-629260.4140402187 761676.6779124814 0.0
761676.6779124814 60926.634346982086 0.0
0.0 0.0 0.0

-235402.71900613082 416032.2599055044 0.0
416032.2599055044 -1.0396666127548447e6 0.0
0.0 0.0 0.0

80578.64672235705 449692.60787286103 0.0
449692.60787286103 258702.56420249928 0.0
0.0 0.0 0.0

-165949.03782041464 398767.4887062384 0.0
398767.4887062384 -698283.4363933799 0.0
0.0 0.0 0.0

-521005.75582852215 892190.0326417432 0.0
892190.0326417432 120251.05064513456 0.0
0.0 0.0 0.0

115848.8473659521 680741.376253551 0.0
680741.376253551 -160203.94712101365 0.0
0.0 0.0 0.0

-200969.50376152532 554887.2618746789 0.0
554887.2618746789 -30326.245813401438 0.0
0.0 0.0 0.0

-4661.6344181079185 261162.87173744768 0.0
261162.87173744768 -845234.6356113439 0.0
0.0 0.0 0.0

16431.025068438554 189084.09018947923 0.0
189084.09018947923 1.0986135986350216e6 0.0
0.0 0.0 0.0

12284.293053288238 459156.7136421054 0.0
459156.7136421054 -162534.96698135097 0.0
0.0 0.0 0.0

330879.8387728217 570192.8495856731 0.0
570192.8495856731 14414.5868858795 0.0
0.0 0.0 0.0

-200137.8690381564 425705.8443801969 0.0
425705.8443801969 -853735.8554189563 0.0
0.0 0.0 0.0

-325680.0952380844 681025.3246907695 0.0
681025.3246907695 96487.83955540381 0.0
0.0 0.0 0.0

947760.4860603162 986270.7057071095 0.0
986270.7057071095 -117692.97310684377 0.0
0.0 0.0 0.0

-207044.42574503942 538305.1571368325 0.0
538305.1571368325 -131483.8629969636 0.0
0.0 0.0 0.0

-355423.1605449174 718297.1363407248 0.0
718297.1363407248 95749.36429515392 0.0
0.0 0.0 0.0

-31893.482193119155 427458.07980468334 0.0
427458.07980468334 440567.6718617126 0.0
0.0 0.0 0.0

156768.58875764345 544265.3735364501 0.0
544265.3735364501 -83830.86656244632 0.0
0.0 0.0 0.0

-102998.04597358334 702784.3926783793 0.0
702784.3926783793 131799.72406669127 0.0
0.0 0.0 0.0

-201698.13244860442 383315.5912823687 0.0
383315.5912823687 -995010.5276061218 0.0
0.0 0.0 0.0

-7349.4644061984145 86912.79747119831 0.0
86912.79747119831 -823415.8615969345 0.0
0.0 0.0 0.0

-197607.89231900228 428899.81835846667 0.0
428899.81835846667 -743782.7586846601 0.0
0.0 0.0 0.0

-157692.3693394798 802103.878333545 0.0
802103.878333545 85500.1307984735 0.0
0.0 0.0 0.0

-83884.95330952985 470655.31364236836 0.0
470655.31364236836 -279616.50987672945 0.0
0.0 0.0 0.0

83267.89606658978 470057.77386521216 0.0
470057.77386521216 277559.660625174 0.0
0.0 0.0 0.0

24853.629785084166 341509.95556558715 0.0
341509.95556558715 769216.1302862447 0.0
0.0 0.0 0.0

9708.659750418954 315943.1259621029 0.0
315943.1259621029 18721.715425174316 0.0
0.0 0.0 0.0

409932.6807558575 378097.1471980812 0.0
378097.1471980812 1.5180060092745402e6 0.0
0.0 0.0 0.0

-6814.451595362916 112138.45561836829 0.0
112138.45561836829 1.0996154181585673e6 0.0
0.0 0.0 0.0

-8774.984556804236 82099.9552208617 0.0
82099.9552208617 -1.2090459163616628e6 0.0
0.0 0.0 0.0

-140062.33910760586 433981.30671110156 0.0
433981.30671110156 -745201.1980054992 0.0
0.0 0.0 0.0

-317386.1164515257 733825.4676640149 0.0
733825.4676640149 109705.57653907628 0.0
0.0 0.0 0.0

943383.2481569566 343371.0619575259 0.0
343371.0619575259 56700.52805766073 0.0
0.0 0.0 0.0

-7160.682996496849 167280.50821929405 0.0
167280.50821929405 816311.4772753526 0.0
0.0 0.0 0.0

-743311.4774179754 681092.2267747488 0.0
681092.2267747488 -455681.35870321386 0.0
0.0 0.0 0.0

-73546.9668796651 531606.4935379764 0.0
531606.4935379764 180427.86507477023 0.0
0.0 0.0 0.0

-663878.3802342553 864965.801809572 0.0
864965.801809572 105263.9727973975 0.0
0.0 0.0 0.0

-12513.486965368851 95337.98127010858 0.0
95337.98127010858 -1.2425146262697545e6 0.0
0.0 0.0 0.0

267280.9074076001 814027.9658504367 0.0
814027.9658504367 -107204.7151854336 0.0
0.0 0.0 0.0

75522.33218894014 281148.2988240714 0.0
281148.2988240714 1.5567147069067643e6 0.0
0.0 0.0 0.0

-109933.00467323525 664750.713723151 0.0
664750.713723151 173809.6234378426 0.0
0.0 0.0 0.0

-42682.030978389506 439065.93110326305 0.0
439065.93110326305 -176734.25730280517 0.0
0.0 0.0 0.0

7435.674153158267 88121.41838976664 0.0
88121.41838976664 339493.76882179093 0.0
0.0 0.0 0.0

145214.62496958495 456402.88016409427 0.0
456402.88016409427 415287.922570331 0.0
0.0 0.0 0.0

-95892.46835502225 555473.7733602226 0.0
555473.7733602226 207471.49244089247 0.0
0.0 0.0 0.0

13974.518067680598 208771.43941729754 0.0
208771.43941729754 -194553.05179178514 0.0
0.0 0.0 0.0

-89093.56141628271 514346.8829337667 0.0
514346.8829337667 17295.574768941 0.0
0.0 0.0 0.0

277844.5874098301 559663.4783804162 0.0
559663.4783804162 -2373.620782625934 0.0
0.0 0.0 0.0

6409.931879149168 311133.78809366067 0.0
311133.78809366067 82066.13002743821 0.0
0.0 0.0 0.0

-141300.9563920258 389143.33170558006 0.0
389143.33170558006 -854819.2812814853 0.0
0.0 0.0 0.0

-28355.533489332876 402116.6303312937 0.0
402116.6303312937 189229.46885939402 0.0
0.0 0.0 0.0

442.7049795812927 408761.0527632047 0.0
408761.0527632047 557473.6149077138 0.0
0.0 0.0 0.0

6908.8758958344115 86119.93049826946 0.0
86119.93049826946 774205.5569957088 0.0
0.0 0.0 0.0

-298652.14310778124 553925.2689093822 0.0
553925.2689093822 -22336.382688167898 0.0
0.0 0.0 0.0

-211529.16711142915 690767.346742543 0.0
690767.346742543 140169.67720935814 0.0
0.0 0.0 0.0

438347.6015410511 825353.1399204386 0.0
825353.1399204386 -119389.29981032299 0.0
0.0 0.0 0.0

-4570.061801407719 162574.81478366914 0.0
162574.81478366914 899720.2379304903 0.0
0.0 0.0 0.0

-167525.68291569446 415208.1823174833 0.0
415208.1823174833 -893496.963792622 0.0
0.0 0.0 0.0

-150864.83893604518 698841.1147891029 0.0
698841.1147891029 150949.53404073836 0.0
0.0 0.0 0.0

42563.352217314365 501679.2846811552 0.0
501679.2846811552 -158857.5316253641 0.0
0.0 0.0 0.0

-1249.187751962323 367520.2404733916 0.0
367520.2404733916 -125104.22421041687 0.0
0.0 0.0 0.0

6519.440159689664 98027.44254421408 0.0
98027.44254421408 524153.34108865453 0.0
0.0 0.0 0.0

-316983.3982692293 772955.555633115 0.0
772955.555633115 113186.63517035842 0.0
0.0 0.0 0.0

7476.796295995229 596736.6618184155 0.0
596736.6618184155 22807.22579105747 0.0
0.0 0.0 0.0

108937.76389838452 505068.24379674194 0.0
505068.24379674194 355777.70183840947 0.0
0.0 0.0 0.0

9237.837121485223 57034.04262149128 0.0
57034.04262149128 208392.301837706 0.0
0.0 0.0 0.0

171816.15216751455 519246.29688167624 0.0
519246.29688167624 162546.37164433303 0.0
0.0 0.0 0.0

-57905.997680511384 201485.57061842104 0.0
201485.57061842104 -1.6392101012532534e6 0.0
0.0 0.0 0.0

258315.39988959255 956749.4001916902 0.0
956749.4001916902 -112768.09228062505 0.0
0.0 0.0 0.0

-120789.47509576728 577766.1262490323 0.0
577766.1262490323 220952.8637374644 0.0
0.0 0.0 0.0

-18177.48562148842 221963.0353957552 0.0
221963.0353957552 337236.2578408432 0.0
0.0 0.0 0.0

-40520.8545336291 503814.1494130309 0.0
503814.1494130309 -92563.03303474323 0.0
0.0 0.0 0.0

-57613.83853273449 258264.5137267781 0.0
258264.5137267781 -1.5368712314735153e6 0.0
0.0 0.0 0.0

-39695.388143519725 420857.23699297156 0.0
420857.23699297156 -593633.1830453913 0.0
0.0 0.0 0.0

-354058.00134512055 929743.6760621617 0.0
929743.6760621617 97311.26686306958 0.0
0.0 0.0 0.0

-67024.9383022788 464013.06801878696 0.0
464013.06801878696 -223416.4899004094 0.0
0.0 0.0 0.0

-131314.65822868276 554058.778050733 0.0
554058.778050733 -326236.6777119621 0.0
0.0 0.0 0.0

-44776.31596472891 601939.4142031457 0.0
601939.4142031457 151257.9644343276 0.0
0.0 0.0 0.0

46667.256211822605 463517.96750305337 0.0
463517.96750305337 -278979.9127977544 0.0
0.0 0.0 0.0

282873.99641524185 551863.0342904344 0.0
551863.0342904344 251437.26777955494 0.0
0.0 0.0 0.0

-185457.1118974543 546372.9345363219 0.0
546372.9345363219 -329560.9439038524 0.0
0.0 0.0 0.0

-49114.54768762374 524858.808492001 0.0
524858.808492001 133245.06749163457 0.0
0.0 0.0 0.0

59519.31561910623 212154.98515802264 0.0
212154.98515802264 1.6686560660256052e6 0.0
0.0 0.0 0.0

17155.668471890895 352761.36527688126 0.0
352761.36527688126 -100791.4186670258 0.0
0.0 0.0 0.0

-222783.98964906807 348672.6187716044 0.0
348672.6187716044 -723499.2014384102 0.0
0.0 0.0 0.0

55827.04316365755 514050.0799046638 0.0
514050.0799046638 -345946.23824417836 0.0
0.0 0.0 0.0

-146562.53212061682 480946.1251975116 0.0
480946.1251975116 -435254.3542019543 0.0
0.0 0.0 0.0

-73927.51738023435 538450.2399691219 0.0
538450.2399691219 219171.24415727024 0.0
0.0 0.0 0.0

14827.638847617012 426777.2398908936 0.0
426777.2398908936 49425.45914011457 0.0
0.0 0.0 0.0

-81414.40443433428 749364.7857804588 0.0
749364.7857804588 99744.01122941637 0.0
0.0 0.0 0.0

-99119.38615325556 529678.7542621656 0.0
529678.7542621656 10392.539243690851 0.0
0.0 0.0 0.0

2744.0977510089288 93605.24159517797 0.0
93605.24159517797 1.6130733928473648e6 0.0
0.0 0.0 0.0

-12994.10014243098 220211.8150324428 0.0
220211.8150324428 650249.3238805986 0.0
0.0 0.0 0.0

77417.79677370867 514950.92623677483 0.0
514950.92623677483 -127892.47003893484 0.0
0.0 0.0 0.0

-662204.9795996815 646651.3079092089 0.0
646651.3079092089 -26860.438214790367 0.0
0.0 0.0 0.0

-10060.886312767427 111932.66412718195 0.0
111932.66412718195 550131.9232542248 0.0
0.0 0.0 0.0

15074.946700250963 188509.13941003932 0.0
188509.13941003932 1.3870493087726678e6 0.0
0.0 0.0 0.0

61404.790355167774 67150.99120126729 0.0
67150.99120126729 77009.92945873148 0.0
0.0 0.0 0.0

-58075.09547615004 61902.46294718002 0.0
61902.46294718002 -74316.87721620465 0.0
0.0 0.0 0.0

4618.703264084295 273797.6408018693 0.0
273797.6408018693 -546553.6678234969 0.0
0.0 0.0 0.0

-14992.848215327582 609940.4841482982 0.0
609940.4841482982 -931.5179433603294 0.0
0.0 0.0 0.0

-158074.3675351851 461045.1593503559 0.0
461045.1593503559 -457295.3079128493 0.0
0.0 0.0 0.0

-56256.246501150585 523612.1541915584 0.0
523612.1541915584 292763.90875786496 0.0
0.0 0.0 0.0

-140638.75688284117 409277.81715088163 0.0
409277.81715088163 -634392.5340172937 0.0
0.0 0.0 0.0

72416.87600367924 497567.2987172656 0.0
497567.2987172656 327301.2857933985 0.0
0.0 0.0 0.0

-312505.29040779773 346664.2674696401 0.0
346664.2674696401 -1.0799432939217617e6 0.0
0.0 0.0 0.0

-95448.63376419696 527751.0564053438 0.0
527751.0564053438 77445.4495201765 0.0
0.0 0.0 0.0

-99880.92154816532 266915.87719350104 0.0
266915.87719350104 -1.804762351567825e6 0.0
0.0 0.0 0.0

-52301.40136186383 270772.3408919853 0.0
270772.3408919853 -1.338088494760687e6 0.0
0.0 0.0 0.0

-114381.1785596217 531065.5425900856 0.0
531065.5425900856 -313971.7343615222 0.0
0.0 0.0 0.0

-473875.5247682452 581072.4940135538 0.0
581072.4940135538 -389535.62024564366 0.0
0.0 0.0 0.0

-320694.2366462636 680088.2597457431 0.0
680088.2597457431 97808.66079624006 0.0
0.0 0.0 0.0

-18123.47155586449 317485.79448528 0.0
317485.79448528 175575.9588218072 0.0
0.0 0.0 0.0

112352.83215440054 118077.7296664963 0.0
118077.7296664963 120965.74665331142 0.0
0.0 0.0 0.0

24885.930537332802 490149.36945060716 0.0
490149.36945060716 -124307.17164971335 0.0
0.0 0.0 0.0

361635.44099255063 592933.4515387119 0.0
592933.4515387119 21306.253738670275 0.0
0.0 0.0 0.0

110592.55642279005 289953.7312159609 0.0
289953.7312159609 1.5713198943753808e6 0.0
0.0 0.0 0.0

-628.6915654961922 508533.58494173124 0.0
508533.58494173124 261608.78087173036 0.0
0.0 0.0 0.0

-227043.9529967957 688246.2733529571 0.0
688246.2733529571 136963.75734285108 0.0
0.0 0.0 0.0

-124881.72296050958 419524.494704662 0.0
419524.494704662 -401685.2210017331 0.0
0.0 0.0 0.0

39367.27367595688 246398.715868981 0.0
246398.715868981 1.319782967726893e6 0.0
0.0 0.0 0.0

-33160.90868831761 505277.4867879827 0.0
505277.4867879827 146803.79337446598 0.0
0.0 0.0 0.0

53351.78216930917 511937.7281893566 0.0
511937.7281893566 -341525.2884052714 0.0
0.0 0.0 0.0

-56301.88385182785 384100.84482910135 0.0
384100.84482910135 -723917.1288606555 0.0
0.0 0.0 0.0

-50772.51909248385 236787.44299813695 0.0
236787.44299813695 -1.2568867523218172e6 0.0
0.0 0.0 0.0

-34000.217338335584 257602.7425787177 0.0
257602.7425787177 -984844.6488925134 0.0
0.0 0.0 0.0

-310765.8574988891 431580.55160862976 0.0
431580.55160862976 -1.4914854094224346e6 0.0
0.0 0.0 0.0

-93571.2407932417 725775.909416526 0.0
725775.909416526 116107.27981128718 0.0
0.0 0.0 0.0

-148210.5103248926 546846.6709058074 0.0
546846.6709058074 -333077.59368634026 0.0
0.0 0.0 0.0

-33233.45720550149 500869.97887708485 0.0
500869.97887708485 -297014.62999962125 0.0
0.0 0.0 0.0

754074.4845077472 606557.8302155117 0.0
606557.8302155117 86815.76819156189 0.0
0.0 0.0 0.0

31083.639505458123 147145.73998372076 0.0
147145.73998372076 1.46720369375339e6 0.0
0.0 0.0 0.0

-89869.5599513271 263728.6682489755 0.0
263728.6682489755 -1.5466430359051565e6 0.0
0.0 0.0 0.0

-22898.839239457215 269630.56286721915 0.0
269630.56286721915 -986858.8945598486 0.0
0.0 0.0 0.0

70473.47938673181 211123.26905453042 0.0
211123.26905453042 1.8082831990701747e6 0.0
0.0 0.0 0.0

701040.0175862224 618148.5242950032 0.0
618148.5242950032 468958.50917395344 0.0
0.0 0.0 0.0

50322.512986038695 204431.66592415207 0.0
204431.66592415207 1.4094960732422273e6 0.0
0.0 0.0 0.0

-1875.7756468104926 51055.76024835492 0.0
51055.76024835492 319937.9704433557 0.0
0.0 0.0 0.0

-106456.87131861952 782041.0209496692 0.0
782041.0209496692 65750.06511966804 0.0
0.0 0.0 0.0

-5978.624052544212 248321.7079509184 0.0
248321.7079509184 -714716.619556092 0.0
0.0 0.0 0.0

-256026.77599454686 817278.0975788584 0.0
817278.0975788584 119799.89608430112 0.0
0.0 0.0 0.0

64350.15844666859 279163.9797299034 0.0
279163.9797299034 1.1580964906057357e6 0.0
0.0 0.0 0.0

-13540.74284364999 189822.97101499338 0.0
189822.97101499338 605626.001874242 0.0
0.0 0.0 0.0

313301.7620922641 823871.5248483684 0.0
823871.5248483684 -111783.24812409781 0.0
0.0 0.0 0.0

-73882.12134331433 545249.0561078595 0.0
545249.0561078595 278968.52330993715 0.0
0.0 0.0 0.0

141599.72970934422 691309.9091398091 0.0
691309.9091398091 -143473.2752370599 0.0
0.0 0.0 0.0

-170034.79404340032 610215.9013035554 0.0
610215.9013035554 140752.0817158571 0.0
0.0 0.0 0.0

-127861.31733319027 442567.5136551526 0.0
442567.5136551526 -667129.942792437 0.0
0.0 0.0 0.0

217664.07215864834 602989.3885729831 0.0
602989.3885729831 -122786.02612572876 0.0
0.0 0.0 0.0

318261.7297107406 389911.6283514034 0.0
389911.6283514034 1.4463195683408566e6 0.0
0.0 0.0 0.0

61828.647592685455 139494.29881040085 0.0
139494.29881040085 316513.7945064036 0.0
0.0 0.0 0.0

-62855.32323657894 134248.1804527262 0.0
134248.1804527262 -315445.14723969984 0.0
0.0 0.0 0.0

-111890.18597630858 480560.5812369995 0.0
480560.5812369995 -372967.27538102027 0.0
0.0 0.0 0.0

113990.7670359158 477818.964061349 0.0
477818.964061349 379969.21760593186 0.0
0.0 0.0 0.0

313813.62540711113 981610.348248874 0.0
981610.348248874 -133714.51562697694 0.0
0.0 0.0 0.0

10582.198424124887 82249.01289341155 0.0
82249.01289341155 -418122.4257101183 0.0
0.0 0.0 0.0

-167278.02644156927 891351.0619192986 0.0
891351.0619192986 97479.28967504257 0.0
0.0 0.0 0.0

-1.1128188028933865e6 380569.6653525453 0.0
380569.6653525453 -65841.6175183116 0.0
0.0 0.0 0.0

64817.227268187155 524691.9067123341 0.0
524691.9067123341 -308366.62922951137 0.0
0.0 0.0 0.0

62106.942466982524 316102.2571103341 0.0
316102.2571103341 1.071620042583927e6 0.0
0.0 0.0 0.0

26279.561132453353 523317.63072782767 0.0
523317.63072782767 -127119.33926976589 0.0
0.0 0.0 0.0

-95057.86912638077 558079.3152502129 0.0
558079.3152502129 209129.29560310292 0.0
0.0 0.0 0.0

-6105.72078645722 596939.3577628838 0.0
596939.3577628838 -22605.8480220005 0.0
0.0 0.0 0.0

47522.13260153072 533930.8588126657 0.0
533930.8588126657 -159147.40580200255 0.0
0.0 0.0 0.0

-13293.226576995978 75353.01648277923 0.0
75353.01648277923 -1.3063298534499512e6 0.0
0.0 0.0 0.0

-22102.32951528943 421413.1585639775 0.0
421413.1585639775 -73674.44395261028 0.0
0.0 0.0 0.0

406331.7207997158 633461.9091989141 0.0
633461.9091989141 -35583.952910465916 0.0
0.0 0.0 0.0

-40614.130320166965 485865.74804767064 0.0
485865.74804767064 -353178.8189264118 0.0
0.0 0.0 0.0

223989.0518009517 549473.7433681937 0.0
549473.7433681937 305442.4430379212 0.0
0.0 0.0 0.0

-77152.19852984621 270682.396597315 0.0
270682.396597315 -1.3382830675606865e6 0.0
0.0 0.0 0.0

57932.35069523279 596622.6045201998 0.0
596622.6045201998 -173955.27981013912 0.0
0.0 0.0 0.0

139099.82501224225 540879.0973133142 0.0
540879.0973133142 339396.4835926531 0.0
0.0 0.0 0.0

900838.6164471612 796483.7535748878 0.0
796483.7535748878 -42089.49175227521 0.0
0.0 0.0 0.0

-46119.00217713072 278329.84034687123 0.0
278329.84034687123 -1.1572446439077207e6 0.0
0.0 0.0 0.0

-875946.3682429926 334117.0173826569 0.0
334117.0173826569 -63889.321519342804 0.0
0.0 0.0 0.0

129690.82251926538 425898.19724821625 0.0
425898.19724821625 501457.2067900836 0.0
0.0 0.0 0.0

-235553.66952187638 865420.1768387709 0.0
865420.1768387709 114966.34590334819 0.0
0.0 0.0 0.0

63410.02418011786 539452.181524414 0.0
539452.181524414 -220431.58608356718 0.0
0.0 0.0 0.0

-191931.52823700692 712194.4244590435 0.0
712194.4244590435 138527.72455881519 0.0
0.0 0.0 0.0

64403.33098842128 274708.15300407074 0.0
274708.15300407074 1.670836001114568e6 0.0
0.0 0.0 0.0

30193.45025715849 372803.0278415535 0.0
372803.0278415535 -402010.8246587955 0.0
0.0 0.0 0.0

249852.24196894417 821228.6061874863 0.0
821228.6061874863 -118685.53933804571 0.0
0.0 0.0 0.0

6688.458024348543 254024.8523307388 0.0
254024.8523307388 118207.21449476511 0.0
0.0 0.0 0.0

-784372.7109839438 310087.29937113775 0.0
310087.29937113775 -60298.63553041886 0.0
0.0 0.0 0.0

-14523.886822726436 363523.83853685745 0.0
363523.83853685745 50616.049816013954 0.0
0.0 0.0 0.0

-4918.947204410913 136125.04450710688 0.0
136125.04450710688 905570.4764951988 0.0
0.0 0.0 0.0

80251.47486010438 317566.6122627594 0.0
317566.6122627594 1.0752452975742e6 0.0
0.0 0.0 0.0

-186342.93481151736 820737.2821581484 0.0
820737.2821581484 88503.92198938619 0.0
0.0 0.0 0.0

-212464.80183162162 912879.3548801263 0.0
912879.3548801263 104492.24206050248 0.0
0.0 0.0 0.0

70814.1862756235 256730.90292852782 0.0
256730.90292852782 1.3356806175094272e6 0.0
0.0 0.0 0.0

22868.659125971462 325604.8613519318 0.0
325604.8613519318 -308145.96183776605 0.0
0.0 0.0 0.0

252165.30478783225 556461.2381037433 0.0
556461.2381037433 81882.54167835055 0.0
0.0 0.0 0.0

-108174.2005355379 372781.16067302256 0.0
372781.16067302256 -303293.45163529145 0.0
0.0 0.0 0.0

1280.1336670512392 158792.93809716508 0.0
158792.93809716508 -426499.2444066545 0.0
0.0 0.0 0.0

-138135.70060915168 811897.868380724 0.0
811897.868380724 99912.44378539367 0.0
0.0 0.0 0.0

11465.148024908645 375291.9237600505 0.0
375291.9237600505 657974.2128164175 0.0
0.0 0.0 0.0

-66405.98145070445 282310.8511278203 0.0
282310.8511278203 -1.1638011585969985e6 0.0
0.0 0.0 0.0

-558382.6270983394 623224.9832548633 0.0
623224.9832548633 -23745.569352723338 0.0
0.0 0.0 0.0

144602.40891477733 717933.3910412835 0.0
717933.3910412835 -125772.8219764788 0.0
0.0 0.0 0.0

-27422.7655921026 117401.30914487215 0.0
117401.30914487215 -1.558273859617935e6 0.0
0.0 0.0 0.0

45749.10280898608 452767.96269038797 0.0
452767.96269038797 495641.82260828477 0.0
0.0 0.0 0.0

-9044.520513696883 596449.3091568683 0.0
596449.3091568683 62552.26687875246 0.0
0.0 0.0 0.0

50127.934730246736 527801.6800929754 0.0
527801.6800929754 -313591.3764829129 0.0
0.0 0.0 0.0

-306592.86916192755 823581.4136813642 0.0
823581.4136813642 118172.40539950658 0.0
0.0 0.0 0.0

15195.96672435231 610676.7621458969 0.0
610676.7621458969 -270.06471340679946 0.0
0.0 0.0 0.0

-221967.88961112977 839652.872175909 0.0
839652.872175909 92943.58242310975 0.0
0.0 0.0 0.0

8482.869682403369 157854.1490170437 0.0
157854.1490170437 161196.75609193346 0.0
0.0 0.0 0.0

214688.30732035142 405059.23996411776 0.0
405059.23996411776 724780.2082238874 0.0
0.0 0.0 0.0

-37042.51285312354 441665.21018764685 0.0
441665.21018764685 -522937.85863035626 0.0
0.0 0.0 0.0

5372.636965048907 346890.6301086398 0.0
346890.6301086398 79728.60489149754 0.0
0.0 0.0 0.0

21514.88384541827 486454.97363952413 0.0
486454.97363952413 -383866.42141671816 0.0
0.0 0.0 0.0

-5255.329170333949 156468.484166879 0.0
156468.484166879 -523710.2693237476 0.0
0.0 0.0 0.0

448008.45669168414 588301.919161266 0.0
588301.919161266 302776.07026626694 0.0
0.0 0.0 0.0

10786.955593185732 68170.72827140059 0.0
68170.72827140059 1.1078797478062564e6 0.0
0.0 0.0 0.0

241238.8134724679 402978.7376963237 0.0
402978.7376963237 837185.3351028967 0.0
0.0 0.0 0.0

-117138.04055399052 759920.56489477 0.0
759920.56489477 84569.91438999453 0.0
0.0 0.0 0.0

-39362.81555504678 429399.8105831992 0.0
429399.8105831992 -606369.5658403027 0.0
0.0 0.0 0.0

228656.5306811967 801196.1370605753 0.0
801196.1370605753 -107775.14844858661 0.0
0.0 0.0 0.0

-27940.802408101787 478967.5876115566 0.0
478967.5876115566 -75030.15312176674 0.0
0.0 0.0 0.0

10065.78335936257 240022.4925463796 0.0
240022.4925463796 -701500.6539069703 0.0
0.0 0.0 0.0

135753.99849896776 697641.2219100847 0.0
697641.2219100847 -153167.58789533388 0.0
0.0 0.0 0.0

-19121.383186286257 455142.27811333287 0.0
455142.27811333287 -473365.16912929557 0.0
0.0 0.0 0.0

-4115.136261381325 163972.3280006394 0.0
163972.3280006394 422894.97744108434 0.0
0.0 0.0 0.0

151190.7583171848 479037.75754209195 0.0
479037.75754209195 440335.0468541325 0.0
0.0 0.0 0.0

-122868.91003278112 572837.9466732359 0.0
572837.9466732359 196556.00853018224 0.0
0.0 0.0 0.0

-136877.8192078869 781331.4886746046 0.0
781331.4886746046 83634.76303452288 0.0
0.0 0.0 0.0

43625.28855338516 474245.6436892472 0.0
474245.6436892472 293500.0806189427 0.0
0.0 0.0 0.0

7599.074006895753 110510.53427977122 0.0
110510.53427977122 304004.1339277331 0.0
0.0 0.0 0.0

23611.006589892786 239163.52905337085 0.0
239163.52905337085 1.1337131291998876e6 0.0
0.0 0.0 0.0

43517.31575430765 504053.3013529833 0.0
504053.3013529833 -345379.9046899169 0.0
0.0 0.0 0.0

-121289.29843886482 339365.0572348216 0.0
339365.0572348216 -1.8008010743202993e6 0.0
0.0 0.0 0.0

7258.966626822206 131961.94271480554 0.0
131961.94271480554 265126.7840414547 0.0
0.0 0.0 0.0

-8071.074115839874 111142.56007360145 0.0
111142.56007360145 673474.2735096428 0.0
0.0 0.0 0.0

-31308.436463316553 413547.6713326362 0.0
413547.6713326362 215097.82850694392 0.0
0.0 0.0 0.0

124357.93597102842 724622.710372327 0.0
724622.710372327 -110944.38360494236 0.0
0.0 0.0 0.0

-154360.12974354427 380200.79905874643 0.0
380200.79905874643 -1.1548470154959513e6 0.0
0.0 0.0 0.0

12421.682280578098 147171.59208310742 0.0
147171.59208310742 -440708.72238834837 0.0
0.0 0.0 0.0

-69361.78828129693 771488.9495868866 0.0
771488.9495868866 81411.22547351335 0.0
0.0 0.0 0.0

162285.0450970329 707507.9246304922 0.0
707507.9246304922 -137708.38917243 0.0
0.0 0.0 0.0

-355907.82239412103 1.1004775667900431e6 0.0
1.1004775667900431e6 95005.38211620359 0.0
0.0 0.0 0.0

-96741.35069297536 770048.8555028363 0.0
770048.8555028363 99996.75586001959 0.0
0.0 0.0 0.0

-806486.1833416458 635505.7041486627 0.0
635505.7041486627 -452804.61249319144 0.0
0.0 0.0 0.0

-124588.44055271182 530962.2738100518 0.0
530962.2738100518 -52632.72199550795 0.0
0.0 0.0 0.0

-130179.93424467469 337687.5671587666 0.0
337687.5671587666 -1.6614010866357118e6 0.0
0.0 0.0 0.0

-13645.721737972068 328394.5444811307 0.0
328394.5444811307 51902.44635626028 0.0
0.0 0.0 0.0

-7136.702572623442 101709.39822637365 0.0
101709.39822637365 1.2721705897799805e6 0.0
0.0 0.0 0.0

13787.44260990771 160993.36584618638 0.0
160993.36584618638 1.476183684916911e6 0.0
0.0 0.0 0.0

-15403.662350384693 136582.10875687067 0.0
136582.10875687067 -1.1220820151336342e6 0.0
0.0 0.0 0.0

-129287.37805066783 601332.8616102128 0.0
601332.8616102128 192159.49468636134 0.0
0.0 0.0 0.0

104010.42181729298 294432.7740947979 0.0
294432.7740947979 1.4557426506150425e6 0.0
0.0 0.0 0.0

780.6819089068158 470418.0856303177 0.0
470418.0856303177 -426703.32411397155 0.0
0.0 0.0 0.0

130732.68540358741 336884.79218068486 0.0
336884.79218068486 1.437008562167933e6 0.0
0.0 0.0 0.0

113413.55051951189 707298.195027106 0.0
707298.195027106 -142246.14505999276 0.0
0.0 0.0 0.0

162640.31827223752 883963.6601877656 0.0
883963.6601877656 -93026.81469656253 0.0
0.0 0.0 0.0

-17277.796337223368 476539.2623184927 0.0
476539.2623184927 -126327.45618850565 0.0
0.0 0.0 0.0

-2105.460308243986 146684.36412349434 0.0
146684.36412349434 627607.3052964206 0.0
0.0 0.0 0.0

88776.56657681402 449986.02158274053 0.0
449986.02158274053 390156.45667391643 0.0
0.0 0.0 0.0

-11621.160185242275 395961.08282388904 0.0
395961.08282388904 246293.7913249065 0.0
0.0 0.0 0.0

-7892.530625866202 86228.67011215702 0.0
86228.67011215702 -1.0268543591499539e6 0.0
0.0 0.0 0.0

197715.80567864218 593330.018646444 0.0
593330.018646444 -89273.26271362309 0.0
0.0 0.0 0.0

-377130.41801212204 444197.70549800433 0.0
444197.70549800433 -145882.1046457886 0.0
0.0 0.0 0.0

-645673.5347623706 534520.9944521335 0.0
534520.9944521335 -258330.19212327077 0.0
0.0 0.0 0.0

-63350.35334544676 800518.1514487416 0.0
800518.1514487416 28442.361772305507 0.0
0.0 0.0 0.0

3355.048366419229 308908.65839154954 0.0
308908.65839154954 -285516.97600164544 0.0
0.0 0.0 0.0

-177412.63390968848 519363.70161832916 0.0
519363.70161832916 -50372.67323000454 0.0
0.0 0.0 0.0

107853.729451808 883674.6051885055 0.0
883674.6051885055 -41784.790026805174 0.0
0.0 0.0 0.0

30905.42402664665 450728.27349371155 0.0
450728.27349371155 507640.9682825649 0.0
0.0 0.0 0.0

15546.68776989088 486892.09470041987 0.0
486892.09470041987 277542.12136660283 0.0
0.0 0.0 0.0

20048.313287725716 294927.45508035866 0.0
294927.45508035866 -261944.707810094 0.0
0.0 0.0 0.0

-72317.92490492928 931473.53791675 0.0
931473.53791675 46829.28479524511 0.0
0.0 0.0 0.0

-7146.051208067744 99287.95902107283 0.0
99287.95902107283 984097.0953011446 0.0
0.0 0.0 0.0

9772.430134737486 111844.277445878 0.0
111844.277445878 -783784.8343660653 0.0
0.0 0.0 0.0

67841.15152500926 784948.4881337424 0.0
784948.4881337424 -38971.19559357179 0.0
0.0 0.0 0.0

-41595.611557876226 450595.9397029438 0.0
450595.9397029438 -536977.8904936753 0.0
0.0 0.0 0.0

554.9862736485957 50228.85297127399 0.0
50228.85297127399 289321.8116759762 0.0
0.0 0.0 0.0

-5717.058114253232 203230.59709344298 0.0
203230.59709344298 -257659.82631183346 0.0
0.0 0.0 0.0

-289624.8574594333 573658.4506451804 0.0
573658.4506451804 -315541.0429047096 0.0
0.0 0.0 0.0

10314.483606479218 275304.7429912911 0.0
275304.7429912911 -668808.9685199951 0.0
0.0 0.0 0.0

445437.79396918806 608956.6489593649 0.0
608956.6489593649 380168.3239097941 0.0
0.0 0.0 0.0

-11704.729876273057 177340.87707215716 0.0
177340.87707215716 127456.06623117703 0.0
0.0 0.0 0.0

-11064.82181634882 113119.95538931809 0.0
113119.95538931809 237489.30781812523 0.0
0.0 0.0 0.0

371905.8798647526 827028.0887050465 0.0
827028.0887050465 -113921.33130683971 0.0
0.0 0.0 0.0

4098.028622102982 103582.67135097571 0.0
103582.67135097571 936138.0061991748 0.0
0.0 0.0 0.0

37496.409137582916 412792.29358011717 0.0
412792.29358011717 -327215.91940026963 0.0
0.0 0.0 0.0

69023.3506730323 493461.12364101823 0.0
493461.12364101823 94640.33150538937 0.0
0.0 0.0 0.0

613476.4670734832 677360.5035908016 0.0
677360.5035908016 -10004.767525209638 0.0
0.0 0.0 0.0

31535.01529565704 440096.4527926902 0.0
440096.4527926902 -434248.00120896334 0.0
0.0 0.0 0.0

310613.18619282934 409846.88165424834 0.0
409846.88165424834 1.1231380718703556e6 0.0
0.0 0.0 0.0

-244880.5427384014 694712.0030001799 0.0
694712.0030001799 126945.9663862064 0.0
0.0 0.0 0.0

16054.086545583385 101036.55459293367 0.0
101036.55459293367 1.1740400841955577e6 0.0
0.0 0.0 0.0

95266.27937101723 790511.5168216334 0.0
790511.5168216334 -52881.253571327834 0.0
0.0 0.0 0.0

101110.26648005203 453186.22427838756 0.0
453186.22427838756 544373.4920285906 0.0
0.0 0.0 0.0

3080.163517657289 256691.72441679964 0.0
256691.72441679964 -529158.4468666827 0.0
0.0 0.0 0.0

6058.262717966922 100479.86623528985 0.0
100479.86623528985 -1.1639240397188384e6 0.0
0.0 0.0 0.0

1989.268495128279 609394.8095643169 0.0
609394.8095643169 -44073.50113896954 0.0
0.0 0.0 0.0

-3256.8713121740584 257785.67097954455 0.0
257785.67097954455 384026.17796354735 0.0
0.0 0.0 0.0

41961.696271918336 335103.7234932063 0.0
335103.7234932063 848494.8523192599 0.0
0.0 0.0 0.0

-54800.72261345334 417330.28270389594 0.0
417330.28270389594 -662880.2394013708 0.0
0.0 0.0 0.0

-116641.53349960328 325801.9550711901 0.0
325801.9550711901 -1.545445437534717e6 0.0
0.0 0.0 0.0

107310.52567412617 812588.6295328405 0.0
812588.6295328405 -54560.10624053335 0.0
0.0 0.0 0.0

21210.172037200413 484614.75925188255 0.0
484614.75925188255 224244.1802313199 0.0
0.0 0.0 0.0

-1.0042898581263635e6 350603.34999114164 0.0
350603.34999114164 -76682.34864717125 0.0
0.0 0.0 0.0

337911.5471890373 417835.198319294 0.0
417835.198319294 1.2541721343714707e6 0.0
0.0 0.0 0.0

-964981.1710143881 802028.1526455119 0.0
802028.1526455119 9257.305540375935 0.0
0.0 0.0 0.0

-15647.23078415633 248197.87582347466 0.0
248197.87582347466 -841871.3228631051 0.0
0.0 0.0 0.0

316518.3166460094 83938.7752872616 0.0
83938.7752872616 11250.960342816717 0.0
0.0 0.0 0.0

-316123.34830347745 84521.3904572455 0.0
84521.3904572455 -24291.554855183305 0.0
0.0 0.0 0.0

744.6352468533296 230338.70194473965 0.0
230338.70194473965 349823.4068965539 0.0
0.0 0.0 0.0

14631.055010166776 122663.5604819466 0.0
122663.5604819466 1.1159699210296806e6 0.0
0.0 0.0 0.0

-6028.110666633584 138286.73706228967 0.0
138286.73706228967 952852.0966454791 0.0
0.0 0.0 0.0

14629.527719318226 493992.8402048658 0.0
493992.8402048658 -396335.62141615164 0.0
0.0 0.0 0.0

-74264.23814664244 406819.74389888527 0.0
406819.74389888527 -247547.45053803065 0.0
0.0 0.0 0.0

73903.77419945563 407747.26215598604 0.0
407747.26215598604 246345.90541520738 0.0
0.0 0.0 0.0

55254.86823900854 491219.7412336796 0.0
491219.7412336796 23027.50877153058 0.0
0.0 0.0 0.0

121179.33204515242 834845.3040614316 0.0
834845.3040614316 -54262.200289542074 0.0
0.0 0.0 0.0

-411.2348967283615 238858.9715408169 0.0
238858.9715408169 514727.30641703453 0.0
0.0 0.0 0.0

34437.28683234405 462699.15486562176 0.0
462699.15486562176 -401774.2769015209 0.0
0.0 0.0 0.0

-58121.04618648467 651343.7020718366 0.0
651343.7020718366 86004.84205059013 0.0
0.0 0.0 0.0

-22240.91522624012 195224.90942496835 0.0
195224.90942496835 -1.0216856045382273e6 0.0
0.0 0.0 0.0

9131.993082648027 115129.35172772233 0.0
115129.35172772233 1.0030797138910311e6 0.0
0.0 0.0 0.0

109241.39838687138 769641.9835087571 0.0
769641.9835087571 -73463.35531019972 0.0
0.0 0.0 0.0

-1757.3571567353138 491023.7665646667 0.0
491023.7665646667 156373.2424101405 0.0
0.0 0.0 0.0

-25281.60135018416 497354.3465369278 0.0
497354.3465369278 91358.89263640893 0.0
0.0 0.0 0.0

-181359.31349386816 575969.2212610586 0.0
575969.2212610586 -339521.8952175414 0.0
0.0 0.0 0.0

252491.916472532 344968.91348955024 0.0
344968.91348955024 836079.7766161022 0.0
0.0 0.0 0.0

-245001.00936487503 528929.7717833284 0.0
528929.7717833284 -306419.4509506131 0.0
0.0 0.0 0.0

65636.02009608038 308559.2924002407 0.0
308559.2924002407 1.1555674880854755e6 0.0
0.0 0.0 0.0

-5276.873392290552 102799.99786949292 0.0
102799.99786949292 1.1837593673318063e6 0.0
0.0 0.0 0.0

16462.225016486336 245308.9998582405 0.0
245308.9998582405 -510064.7856112261 0.0
0.0 0.0 0.0

-15932.535793928313 116302.3217274792 0.0
116302.3217274792 -1.1847623087828262e6 0.0
0.0 0.0 0.0

50141.932094086194 478275.0155740214 0.0
478275.0155740214 -360802.8895557206 0.0
0.0 0.0 0.0

291399.651575799 567341.0256674153 0.0
567341.0256674153 323664.4244035328 0.0
0.0 0.0 0.0

-6423.847771783243 123636.08719794382 0.0
123636.08719794382 -478523.14393666387 0.0
0.0 0.0 0.0

-236299.89954830927 415031.1116759888 0.0
415031.1116759888 -911818.6139724996 0.0
0.0 0.0 0.0

-105967.72262801655 318940.11086389003 0.0
318940.11086389003 -1.435206721525965e6 0.0
0.0 0.0 0.0

-24788.2257012735 388112.9639412069 0.0
388112.9639412069 164143.1028801946 0.0
0.0 0.0 0.0

-164824.54024166224 612592.4737619224 0.0
612592.4737619224 180185.6421359048 0.0
0.0 0.0 0.0

-322855.4111230605 536574.3776184014 0.0
536574.3776184014 -334025.3466129886 0.0
0.0 0.0 0.0

17710.101975071942 106917.05599130495 0.0
106917.05599130495 1.431651609836101e6 0.0
0.0 0.0 0.0

-94751.64327295247 316224.1580911405 0.0
316224.1580911405 -1.3379542352927842e6 0.0
0.0 0.0 0.0

68322.05811367073 298449.5665812786 0.0
298449.5665812786 1.2396996118351447e6 0.0
0.0 0.0 0.0

-51677.107599229654 501588.5435795043 0.0
501588.5435795043 25515.193358178472 0.0
0.0 0.0 0.0

75732.33417719073 823693.9346571617 0.0
823693.9346571617 -71720.25675537018 0.0
0.0 0.0 0.0

-374467.3991022869 660634.1253207275 0.0
660634.1253207275 67359.04667738985 0.0
0.0 0.0 0.0

31707.957133868185 318270.51560061844 0.0
318270.51560061844 831685.1883766727 0.0
0.0 0.0 0.0

-161724.82031672227 357904.5159393206 0.0
357904.5159393206 -510961.7576565501 0.0
0.0 0.0 0.0

162216.20678634883 411136.2383487936 0.0
411136.2383487936 470505.4356705715 0.0
0.0 0.0 0.0

-18178.394961258397 151852.17889395473 0.0
151852.17889395473 -1.0657436271727323e6 0.0
0.0 0.0 0.0

-5869.410360220732 183772.17959237166 0.0
183772.17959237166 -296539.9834443814 0.0
0.0 0.0 0.0

46381.267326836765 248666.44168389577 0.0
248666.44168389577 1.147558591258283e6 0.0
0.0 0.0 0.0

-53425.4735951223 523700.44412992994 0.0
523700.44412992994 265759.43871474 0.0
0.0 0.0 0.0

-868591.8720241721 631694.6818356541 0.0
631694.6818356541 -110073.59901399349 0.0
0.0 0.0 0.0

-43673.426385680534 368393.35467157856 0.0
368393.35467157856 -733110.7131753376 0.0
0.0 0.0 0.0

-26958.07933254144 234226.2649943044 0.0
234226.2649943044 -974497.5296296406 0.0
0.0 0.0 0.0

-82550.5110019329 317008.5221623858 0.0
317008.5221623858 -1.2454514652912507e6 0.0
0.0 0.0 0.0

805.1538939090096 50837.66480084974 0.0
50837.66480084974 -201230.96935873284 0.0
0.0 0.0 0.0

69368.5191819984 545629.1572961892 0.0
545629.1572961892 -235936.83294102421 0.0
0.0 0.0 0.0

125739.01706991375 592366.0534061501 0.0
592366.0534061501 -189182.5729167903 0.0
0.0 0.0 0.0

-667704.7812463582 997314.1680310605 0.0
997314.1680310605 157268.14861075886 0.0
0.0 0.0 0.0

424.6727654016977 49783.84377075274 0.0
49783.84377075274 -54236.13311314707 0.0
0.0 0.0 0.0

-23100.30838650724 463843.70330184954 0.0
463843.70330184954 -485196.00281611935 0.0
0.0 0.0 0.0

21439.828204385034 375841.8820796618 0.0
375841.8820796618 659751.2510967428 0.0
0.0 0.0 0.0

7296.462467220088 115958.43542026388 0.0
115958.43542026388 820830.2329596536 0.0
0.0 0.0 0.0

-10222.150157401455 101030.22456486773 0.0
101030.22456486773 -977488.7133274106 0.0
0.0 0.0 0.0

7299.777742921957 152290.16905196378 0.0
152290.16905196378 795345.8280603644 0.0
0.0 0.0 0.0

13814.468469457177 153585.48096046183 0.0
153585.48096046183 972444.7931154437 0.0
0.0 0.0 0.0

2682.3676809164754 230389.39374885935 0.0
230389.39374885935 425775.4689147699 0.0
0.0 0.0 0.0

-95255.53107518466 561139.105374018 0.0
561139.105374018 258363.41705221368 0.0
0.0 0.0 0.0

7400.418295936208 274499.6201774638 0.0
274499.6201774638 84512.60751966437 0.0
0.0 0.0 0.0

785069.5754641376 111450.36561549755 0.0
111450.36561549755 13153.970504544879 0.0
0.0 0.0 0.0

-782737.634816121 116334.5293777546 0.0
116334.5293777546 -12602.877123391227 0.0
0.0 0.0 0.0

13689.442459745478 169346.314404642 0.0
169346.314404642 -335375.29627793544 0.0
0.0 0.0 0.0

-7674.762372297177 226449.63754449433 0.0
226449.63754449433 -962487.0587928607 0.0
0.0 0.0 0.0

-1431.564195343759 184222.7826737035 0.0
184222.7826737035 -1.0048724197133805e6 0.0
0.0 0.0 0.0

16396.375276552277 28880.008423122832 0.0
28880.008423122832 24462.537146654846 0.0
0.0 0.0 0.0

-15194.952016459556 34111.163975439275 0.0
34111.163975439275 -31485.125036110625 0.0
0.0 0.0 0.0

-167489.77511058387 428013.690847978 0.0
428013.690847978 -793405.5259127495 0.0
0.0 0.0 0.0

-12805.321600692929 113641.67039513253 0.0
113641.67039513253 -1.1060060883336673e6 0.0
0.0 0.0 0.0

-805523.1210205324 538740.4257700637 0.0
538740.4257700637 -411788.2353328605 0.0
0.0 0.0 0.0

-46563.72724834709 477328.25576820585 0.0
477328.25576820585 368132.335912156 0.0
0.0 0.0 0.0

118735.31209000517 747381.384162793 0.0
747381.384162793 -91848.83869241402 0.0
0.0 0.0 0.0

221628.30347526987 348190.41692847724 0.0
348190.41692847724 723407.6523074425 0.0
0.0 0.0 0.0

455640.6226890724 234233.21327199062 0.0
234233.21327199062 54199.145906765334 0.0
0.0 0.0 0.0

-366307.97055086633 610671.548131128 0.0
610671.548131128 -346275.2041644729 0.0
0.0 0.0 0.0

27046.101367566152 162048.20126882344 0.0
162048.20126882344 1.256030268634557e6 0.0
0.0 0.0 0.0

-146494.5285828247 591450.3461724902 0.0
591450.3461724902 188316.59282774318 0.0
0.0 0.0 0.0

146154.46041291743 595757.3007214337 0.0
595757.3007214337 -157026.982283323 0.0
0.0 0.0 0.0

11705.590656766231 392288.9346985748 0.0
392288.9346985748 606963.7626768288 0.0
0.0 0.0 0.0

6735.673294160864 64523.720103374384 0.0
64523.720103374384 824351.240434615 0.0
0.0 0.0 0.0

57040.66129148015 779049.2201440003 0.0
779049.2201440003 -70576.96195300663 0.0
0.0 0.0 0.0

-18565.331477480067 230358.89483701042 0.0
230358.89483701042 -902363.0086209483 0.0
0.0 0.0 0.0

187344.66492466372 721310.8319775129 0.0
721310.8319775129 -134005.94815651892 0.0
0.0 0.0 0.0

3621.416964933276 144245.50941615814 0.0
144245.50941615814 -1.0538545431607233e6 0.0
0.0 0.0 0.0

191855.88557482505 419416.1986890059 0.0
419416.1986890059 519825.1700425001 0.0
0.0 0.0 0.0

51068.807771113075 565334.3937805914 0.0
565334.3937805914 -206055.0943172662 0.0
0.0 0.0 0.0

-10261.9840153181 119165.15217388279 0.0
119165.15217388279 486991.09487747727 0.0
0.0 0.0 0.0

-94320.54294163712 401466.6671207886 0.0
401466.6671207886 -248984.2493029507 0.0
0.0 0.0 0.0

7920.147875325463 99623.91840159915 0.0
99623.91840159915 -1.0844425269026167e6 0.0
0.0 0.0 0.0

527211.1926656332 722793.9154901918 0.0
722793.9154901918 -61574.872928485216 0.0
0.0 0.0 0.0

-6512.808964789321 143279.16815004748 0.0
143279.16815004748 -437006.8451402183 0.0
0.0 0.0 0.0

-12865.249145355861 177861.28204268217 0.0
177861.28204268217 579403.278294179 0.0
0.0 0.0 0.0

-99453.30639526655 738410.4781713248 0.0
738410.4781713248 83259.27595644983 0.0
0.0 0.0 0.0

-77767.84122232278 318358.2696490759 0.0
318358.2696490759 -1.155533174164886e6 0.0
0.0 0.0 0.0

-134767.74972243345 393190.7526286837 0.0
393190.7526286837 -449225.8149383996 0.0
0.0 0.0 0.0

134508.16690044987 394017.5001094498 0.0
394017.5001094498 448360.5572821365 0.0
0.0 0.0 0.0

5683.190685943344 290654.7053498048 0.0
290654.7053498048 115014.4411868725 0.0
0.0 0.0 0.0

-23832.110607874652 344382.33360095345 0.0
344382.33360095345 230557.8436974213 0.0
0.0 0.0 0.0

134531.87015379572 443571.5389371113 0.0
443571.5389371113 573623.5064938894 0.0
0.0 0.0 0.0

7137.710105133912 87457.20635003033 0.0
87457.20635003033 709417.1596967085 0.0
0.0 0.0 0.0

95203.11667736611 528613.3051479884 0.0
528613.3051479884 157884.90129790784 0.0
0.0 0.0 0.0

-74859.36150395923 543482.6799915131 0.0
543482.6799915131 281298.72809280973 0.0
0.0 0.0 0.0

-6212.654378170482 145856.1493470864 0.0
145856.1493470864 -372345.31670787 0.0
0.0 0.0 0.0

-9865.720398401754 138102.96840637107 0.0
138102.96840637107 775415.0674229298 0.0
0.0 0.0 0.0

-203871.92386151044 518708.0402274998 0.0
518708.0402274998 -250619.7286190203 0.0
0.0 0.0 0.0

-2920.7850375057023 408775.65820434334 0.0
408775.65820434334 557745.9415772827 0.0
0.0 0.0 0.0

62745.550782334176 475522.705517827 0.0
475522.705517827 422214.0464925594 0.0
0.0 0.0 0.0

6836.053832902777 189115.49561342207 0.0
189115.49561342207 766914.2546443585 0.0
0.0 0.0 0.0

131955.91505988105 584683.4899989616 0.0
584683.4899989616 -212803.37267843867 0.0
0.0 0.0 0.0

-182234.26815054548 682668.2058836792 0.0
682668.2058836792 150994.9356773935 0.0
0.0 0.0 0.0

36067.57249382639 220186.18984578722 0.0
220186.18984578722 1.130597991377633e6 0.0
0.0 0.0 0.0

-21308.995049106597 277693.8861579583 0.0
277693.8861579583 344646.93241474946 0.0
0.0 0.0 0.0

-2126.117774010054 126985.43034418636 0.0
126985.43034418636 1.119804573219459e6 0.0
0.0 0.0 0.0

26725.08094619619 443948.921023032 0.0
443948.921023032 -440213.73983557936 0.0
0.0 0.0 0.0

-139754.9103640366 596818.1957066385 0.0
596818.1957066385 208282.9404743489 0.0
0.0 0.0 0.0

-77505.43033668667 503686.27098434954 0.0
503686.27098434954 -40143.13366053537 0.0
0.0 0.0 0.0

14312.68163516483 178695.14098273718 0.0
178695.14098273718 -485792.4466987723 0.0
0.0 0.0 0.0

9271.110169992724 72887.51947389496 0.0
72887.51947389496 916738.4240587406 0.0
0.0 0.0 0.0

119112.48623957619 340439.7974596507 0.0
340439.7974596507 1.3370952387491448e6 0.0
0.0 0.0 0.0

65704.38073981565 268571.45680633327 0.0
268571.45680633327 1.2415822575004762e6 0.0
0.0 0.0 0.0

75783.81002166566 492207.0771626925 0.0
492207.0771626925 292194.711178141 0.0
0.0 0.0 0.0

-9657.111566191888 175495.6860801905 0.0
175495.6860801905 747770.1265257901 0.0
0.0 0.0 0.0

-4935.763945937724 327425.01986978727 0.0
327425.01986978727 262866.5537866486 0.0
0.0 0.0 0.0

33937.011128729544 522106.44867095817 0.0
522106.44867095817 -102801.75219551683 0.0
0.0 0.0 0.0

20393.539814134172 394463.2832322176 0.0
394463.2832322176 -356290.5701698403 0.0
0.0 0.0 0.0

-74042.91762123881 543178.4198032802 0.0
543178.4198032802 298607.59922894416 0.0
0.0 0.0 0.0

-164928.59278820816 829977.2837611496 0.0
829977.2837611496 102924.46697804058 0.0
0.0 0.0 0.0

23100.394670467416 280736.651047867 0.0
280736.651047867 934302.7678555604 0.0
0.0 0.0 0.0

309055.78537443944 346565.44495444506 0.0
346565.44495444506 1.0768699619454634e6 0.0
0.0 0.0 0.0

14540.343894007216 521503.8370815568 0.0
521503.8370815568 -191855.12363991034 0.0
0.0 0.0 0.0

11902.127406061889 259045.6920034575 0.0
259045.6920034575 -656660.8924423805 0.0
0.0 0.0 0.0

-2545.1244329704787 49912.750710370914 0.0
49912.750710370914 -1.1735556141659834e6 0.0
0.0 0.0 0.0

-2277.529018499132 74800.48656427208 0.0
74800.48656427208 1.0406674959536779e6 0.0
0.0 0.0 0.0

-70323.96009111399 540169.5126260911 0.0
540169.5126260911 275506.6940138982 0.0
0.0 0.0 0.0

92707.60188932007 342239.8973066613 0.0
342239.8973066613 361180.51829773036 0.0
0.0 0.0 0.0

160671.2117652467 356823.59248464956 0.0
356823.59248464956 1.8384203852968225e6 0.0
0.0 0.0 0.0

12842.713374585583 369252.7873360409 0.0
369252.7873360409 -319326.3385558667 0.0
0.0 0.0 0.0

232748.74201665033 380241.3290607882 0.0
380241.3290607882 775829.1316212394 0.0
0.0 0.0 0.0

-9674.017068775924 85906.67752374346 0.0
85906.67752374346 782515.309123232 0.0
0.0 0.0 0.0

-477901.2668589297 90509.58508977572 0.0
90509.58508977572 4170.497416875674 0.0
0.0 0.0 0.0

-9580.769586954237 211785.23941688472 0.0
211785.23941688472 -812808.5271865684 0.0
0.0 0.0 0.0

-9845.631416528136 146569.36035600936 0.0
146569.36035600936 657417.3187431794 0.0
0.0 0.0 0.0

-24231.303502266004 250105.25686851607 0.0
250105.25686851607 -912424.5778980494 0.0
0.0 0.0 0.0

64093.56569473646 335453.04735310876 0.0
335453.04735310876 919195.9972086559 0.0
0.0 0.0 0.0

5321.723419589922 48479.08011720815 0.0
48479.08011720815 -712788.1387637968 0.0
0.0 0.0 0.0

444263.8114683886 753905.2408433747 0.0
753905.2408433747 -88280.07234054603 0.0
0.0 0.0 0.0

7760.962947688348 331634.7214528528 0.0
331634.7214528528 49829.337212695464 0.0
0.0 0.0 0.0

10186.613495286958 109462.23418558786 0.0
109462.23418558786 -11324.481809389843 0.0
0.0 0.0 0.0

1.072470417327691e6 128969.35742914406 0.0
128969.35742914406 14014.55001427076 0.0
0.0 0.0 0.0

84996.30735923097 353762.89821094566 0.0
353762.89821094566 990985.8000114191 0.0
0.0 0.0 0.0

-8480.567498236076 225567.3865690914 0.0
225567.3865690914 -73036.43598352376 0.0
0.0 0.0 0.0

-4187.689819229883 149243.17965440062 0.0
149243.17965440062 1.0560650851106592e6 0.0
0.0 0.0 0.0

-6216.544724260231 79337.23623851842 0.0
79337.23623851842 -186491.6100415578 0.0
0.0 0.0 0.0

-176703.1079569258 514366.94541637163 0.0
514366.94541637163 -181831.2700684504 0.0
0.0 0.0 0.0

-41987.46633639948 483182.0566896178 0.0
483182.0566896178 378378.1125650719 0.0
0.0 0.0 0.0

2178.725252388045 193678.0247935814 0.0
193678.0247935814 600875.6413794351 0.0
0.0 0.0 0.0

-10158.751825733576 174865.92051439142 0.0
174865.92051439142 -848454.9657177742 0.0
0.0 0.0 0.0

-209065.52375484622 379023.8177690633 0.0
379023.8177690633 -1.114566648317971e6 0.0
0.0 0.0 0.0

-11640.851493409733 151336.1205563956 0.0
151336.1205563956 230527.10694335293 0.0
0.0 0.0 0.0

-8050.284475110617 48829.678567536495 0.0
48829.678567536495 -634736.3220518454 0.0
0.0 0.0 0.0

33163.449153311114 472596.81995158416 0.0
472596.81995158416 -294512.1859537708 0.0
0.0 0.0 0.0

673613.6813155068 591329.8751073356 0.0
591329.8751073356 303421.64451122587 0.0
0.0 0.0 0.0

4480.586788626271 126367.75119869127 0.0
126367.75119869127 -1.1845156677090062e6 0.0
0.0 0.0 0.0

-148126.81091931488 50298.41783891547 0.0
50298.41783891547 8185.224071365323 0.0
0.0 0.0 0.0

-14720.417148717068 422329.8828383701 0.0
422329.8828383701 499548.5734998943 0.0
0.0 0.0 0.0

8479.850913609203 179036.2178926501 0.0
179036.2178926501 125145.3459724199 0.0
0.0 0.0 0.0

4910.742373935675 180732.018809299 0.0
180732.018809299 675651.7950639084 0.0
0.0 0.0 0.0

1020.1892888196744 139149.26954780478 0.0
139149.26954780478 -1.3722538336922838e6 0.0
0.0 0.0 0.0

343705.030868351 387080.85645951214 0.0
387080.85645951214 1.1456834370530592e6 0.0
0.0 0.0 0.0

334458.6678705005 595998.4086496049 0.0
595998.4086496049 357090.4901045357 0.0
0.0 0.0 0.0

-176201.59503949087 431692.304965307 0.0
431692.304965307 -643125.3054959996 0.0
0.0 0.0 0.0

3808.7382389517734 327383.38877016964 0.0
327383.38877016964 -251803.47583583157 0.0
0.0 0.0 0.0

-52651.118902883914 506529.9724494917 0.0
506529.9724494917 349179.014433026 0.0
0.0 0.0 0.0

368732.9293209779 543936.886405588 0.0
543936.886405588 79405.65562720702 0.0
0.0 0.0 0.0

-9994.51547284858 247210.40576393553 0.0
247210.40576393553 -776159.8525892248 0.0
0.0 0.0 0.0

86174.60989777789 846417.1532802675 0.0
846417.1532802675 -72249.32160275258 0.0
0.0 0.0 0.0

11908.637799292377 458281.04432262294 0.0
458281.04432262294 116903.62021052354 0.0
0.0 0.0 0.0

-1.823230081455777e6 187702.48868974857 0.0
187702.48868974857 -31264.718239989597 0.0
0.0 0.0 0.0

1.824377832250542e6 190989.36090093845 0.0
190989.36090093845 25430.012651604367 0.0
0.0 0.0 0.0

167964.93768969603 534931.7831238174 0.0
534931.7831238174 261994.85319165495 0.0
0.0 0.0 0.0

43830.78712929622 190214.56471661307 0.0
190214.56471661307 674751.846282766 0.0
0.0 0.0 0.0

90284.73387402933 464950.74249070714 0.0
464950.74249070714 448342.0640537009 0.0
0.0 0.0 0.0

155740.88325428762 684343.5077767789 0.0
684343.5077767789 -161163.3011555673 0.0
0.0 0.0 0.0

131266.99276471563 468222.47905476013 0.0
468222.47905476013 437556.64455162606 0.0
0.0 0.0 0.0

3333.214347388246 179122.3850102452 0.0
179122.3850102452 579039.45205305 0.0
0.0 0.0 0.0

-39118.94567689509 505176.2691496371 0.0
505176.2691496371 259234.20580241852 0.0
0.0 0.0 0.0

-1.3880949586229736e6 820516.6454088554 0.0
820516.6454088554 -557474.1936951935 0.0
0.0 0.0 0.0

-9902.771016740619 68000.36606390726 0.0
68000.36606390726 -810988.2314303071 0.0
0.0 0.0 0.0

-102327.4532334153 505844.74515932536 0.0
505844.74515932536 -106074.5897761473 0.0
0.0 0.0 0.0

334960.8867082536 350965.61818173714 0.0
350965.61818173714 1.2098473837026886e6 0.0
0.0 0.0 0.0

-199525.14006868706 382816.6752641566 0.0
382816.6752641566 -665083.7846926788 0.0
0.0 0.0 0.0

199481.0345607898 382320.9618317291 0.0
382320.9618317291 664936.79933005 0.0
0.0 0.0 0.0

-68372.68401228247 326060.3039885829 0.0
326060.3039885829 -1.0793174204298712e6 0.0
0.0 0.0 0.0

7991.300631330407 99528.7087844345 0.0
99528.7087844345 801219.5643047837 0.0
0.0 0.0 0.0

-482765.5714496093 734157.8954439755 0.0
734157.8954439755 93508.63272136415 0.0
0.0 0.0 0.0

-5205.610343561944 160047.66381101627 0.0
160047.66381101627 -461145.0756012197 0.0
0.0 0.0 0.0

75642.47008787873 361573.7404822699 0.0
361573.7404822699 917288.8085273018 0.0
0.0 0.0 0.0

-11829.922218802676 149260.24589045352 0.0
149260.24589045352 531918.4526408231 0.0
0.0 0.0 0.0

-180365.98844175544 794933.8206379618 0.0
794933.8206379618 113697.06173763682 0.0
0.0 0.0 0.0

-413873.35203772754 905715.6050148717 0.0
905715.6050148717 121783.77379266391 0.0
0.0 0.0 0.0

-142720.76288240583 63764.91869884343 0.0
63764.91869884343 -20450.034404003964 0.0
0.0 0.0 0.0

-95652.90297395407 429577.4066989629 0.0
429577.4066989629 -302388.74542518903 0.0
0.0 0.0 0.0

134176.33080449403 665004.8329003681 0.0
665004.8329003681 -162605.53546981115 0.0
0.0 0.0 0.0

-10600.307055054582 107651.28110073743 0.0
107651.28110073743 307201.3899240552 0.0
0.0 0.0 0.0

367934.9078835937 772202.6803734879 0.0
772202.6803734879 -105587.45481457456 0.0
0.0 0.0 0.0

-12221.544835697481 163948.8193047876 0.0
163948.8193047876 557074.2778126433 0.0
0.0 0.0 0.0

-9788.656990691903 83066.76514347992 0.0
83066.76514347992 -961614.5879648764 0.0
0.0 0.0 0.0

-7919.556476967991 103116.85439641163 0.0
103116.85439641163 -845659.5585568129 0.0
0.0 0.0 0.0

7844.446792946954 321570.3128974145 0.0
321570.3128974145 -364462.85815750784 0.0
0.0 0.0 0.0

118729.3859111021 581366.170244359 0.0
581366.170244359 -235426.92072182486 0.0
0.0 0.0 0.0

2759.1198049998493 122665.65134991931 0.0
122665.65134991931 -1.4593636340760828e6 0.0
0.0 0.0 0.0

-161506.03341137854 561096.5936638202 0.0
561096.5936638202 -341593.3019855838 0.0
0.0 0.0 0.0

3587.602650956105 378530.734257013 0.0
378530.734257013 -563826.4986449517 0.0
0.0 0.0 0.0

-2405.379914631427 378789.82719477144 0.0
378789.82719477144 605370.2704208182 0.0
0.0 0.0 0.0

-170720.41330999375 549983.0093251436 0.0
549983.0093251436 -327139.76007178193 0.0
0.0 0.0 0.0

6122.77362640982 240064.96464554913 0.0
240064.96464554913 -764976.1250895273 0.0
0.0 0.0 0.0

-906191.582449587 531779.9920211562 0.0
531779.9920211562 -178253.41006904442 0.0
0.0 0.0 0.0

-10392.031762037543 64373.59194974657 0.0
64373.59194974657 -1.0115128796172588e6 0.0
0.0 0.0 0.0

8982.960090402688 110957.72637933107 0.0
110957.72637933107 -848923.7874527806 0.0
0.0 0.0 0.0

69086.62547643906 523415.76236142626 0.0
523415.76236142626 -307580.969777315 0.0
0.0 0.0 0.0

-294919.1242322473 66317.10669177672 0.0
66317.10669177672 7169.201961449988 0.0
0.0 0.0 0.0

14915.18427775285 226565.42206140317 0.0
226565.42206140317 -221350.37859945832 0.0
0.0 0.0 0.0

115280.7903067286 372847.75206807075 0.0
372847.75206807075 475317.49062500626 0.0
0.0 0.0 0.0

-128423.39090954802 762125.2808966935 0.0
762125.2808966935 116313.61699021838 0.0
0.0 0.0 0.0

-215559.58330638908 806929.266767576 0.0
806929.266767576 116294.26857891884 0.0
0.0 0.0 0.0

-14649.775942312903 201098.29034255524 0.0
201098.29034255524 538700.9460033969 0.0
0.0 0.0 0.0

121321.93432796642 295307.25546485203 0.0
295307.25546485203 1.7015423038664383e6 0.0
0.0 0.0 0.0

-80390.12372293728 793904.0433379335 0.0
793904.0433379335 84729.21533666924 0.0
0.0 0.0 0.0

-118650.7496844261 514631.51240798767 0.0
514631.51240798767 -46638.67002244734 0.0
0.0 0.0 0.0

9387.713232061415 513097.96882843314 0.0
513097.96882843314 -89655.4041481188 0.0
0.0 0.0 0.0

1.197740125611123e6 677608.8949891687 0.0
677608.8949891687 482002.42450356146 0.0
0.0 0.0 0.0

1836.2660548289423 214552.18464508888 0.0
214552.18464508888 558625.0603311294 0.0
0.0 0.0 0.0

7870.9929937525885 73698.54397603791 0.0
73698.54397603791 -947478.9462300793 0.0
0.0 0.0 0.0

52295.67676703245 492059.6347071855 0.0
492059.6347071855 -263688.4876899075 0.0
0.0 0.0 0.0

2694.1662073663756 361708.84135312337 0.0
361708.84135312337 108615.47497757594 0.0
0.0 0.0 0.0

-304474.1188394476 380386.7216576238 0.0
380386.7216576238 -143240.49173616766 0.0
0.0 0.0 0.0

9990.5710807594 94627.49709829819 0.0
94627.49709829819 983060.0556431165 0.0
0.0 0.0 0.0

-2.0845851228765885e6 1.0798706699201656e6 0.0
1.0798706699201656e6 -876626.6193818769 0.0
0.0 0.0 0.0

-303824.80260705744 380845.8531593837 0.0
380845.8531593837 -1.0127493477808386e6 0.0
0.0 0.0 0.0

305187.1979269932 380585.6915971712 0.0
380585.6915971712 1.0172906747562197e6 0.0
0.0 0.0 0.0

-8292.388334725285 345930.86845911323 0.0
345930.86845911323 -659514.0956312919 0.0
0.0 0.0 0.0

-367483.85796214483 542559.0662038213 0.0
542559.0662038213 -251033.0850463559 0.0
0.0 0.0 0.0

14100.44981715962 183197.57958487936 0.0
183197.57958487936 -423372.2752568107 0.0
0.0 0.0 0.0

7012.3435665380675 203601.63900519823 0.0
203601.63900519823 -800000.288798979 0.0
0.0 0.0 0.0

-32799.06254460095 462194.80204727466 0.0
462194.80204727466 416939.2420450699 0.0
0.0 0.0 0.0

-7384.1585908636625 264636.2195828765 0.0
264636.2195828765 -726787.7793048439 0.0
0.0 0.0 0.0

-150262.787014741 779212.4131126414 0.0
779212.4131126414 115638.14399543089 0.0
0.0 0.0 0.0

-3945.7718226709985 178098.21598307532 0.0
178098.21598307532 919762.2137706536 0.0
0.0 0.0 0.0

8912.810676474212 70864.81367785273 0.0
70864.81367785273 754076.73052472 0.0
0.0 0.0 0.0

-8619.678403612459 155947.12662658555 0.0
155947.12662658555 -831826.5756078239 0.0
0.0 0.0 0.0

-379466.5524272483 521871.90670231235 0.0
521871.90670231235 -309784.5370961423 0.0
0.0 0.0 0.0

213971.2849909171 933766.387962275 0.0
933766.387962275 -99904.57862464445 0.0
0.0 0.0 0.0

-13223.51234096146 395753.52803963836 0.0
395753.52803963836 535118.1872578611 0.0
0.0 0.0 0.0

-9931.67974267347 119270.8371554468 0.0
119270.8371554468 -930343.5055483471 0.0
0.0 0.0 0.0

-936.0284227445954 136144.6770663946 0.0
136144.6770663946 -1.271751845799311e6 0.0
0.0 0.0 0.0

67322.26583517087 276074.1868035942 0.0
276074.1868035942 1.4310132526616864e6 0.0
0.0 0.0 0.0

11717.026718196343 173600.2285770034 0.0
173600.2285770034 916055.7096182697 0.0
0.0 0.0 0.0

309402.1883629663 777399.5777760685 0.0
777399.5777760685 -115299.36740563117 0.0
0.0 0.0 0.0

22579.364896849416 597104.1214661989 0.0
597104.1214661989 -23460.425865099438 0.0
0.0 0.0 0.0

16601.729672460293 146377.23898769924 0.0
146377.23898769924 1.059399134064497e6 0.0
0.0 0.0 0.0

-8481.547902496037 72180.47989927494 0.0
72180.47989927494 -469411.76495115046 0.0
0.0 0.0 0.0

-26334.43171605779 585638.9160097623 0.0
585638.9160097623 41543.28186009163 0.0
0.0 0.0 0.0

-518639.4886771746 525706.1260099033 0.0
525706.1260099033 -266537.6112888922 0.0
0.0 0.0 0.0

-18744.280208716416 238997.93131607317 0.0
238997.93131607317 357432.21966529865 0.0
0.0 0.0 0.0

7235.025477687828 109900.79474313649 0.0
109900.79474313649 -916088.6054722322 0.0
0.0 0.0 0.0

-3459.2984704248665 265335.31352360896 0.0
265335.31352360896 -666610.2737879992 0.0
0.0 0.0 0.0

-10613.252546000644 97263.41512938686 0.0
97263.41512938686 526401.5210560799 0.0
0.0 0.0 0.0

5613.0949863208225 210714.7704535325 0.0
210714.7704535325 717991.3220276411 0.0
0.0 0.0 0.0

-64771.662200342806 332754.9767463367 0.0
332754.9767463367 -997913.5378442736 0.0
0.0 0.0 0.0

8713.917800612864 93450.46149186799 0.0
93450.46149186799 -831151.6585404644 0.0
0.0 0.0 0.0

9034.355297556322 594736.7962736043 0.0
594736.7962736043 -68065.91896439537 0.0
0.0 0.0 0.0

8306.30748400971 165939.43655794222 0.0
165939.43655794222 -834444.2411618695 0.0
0.0 0.0 0.0

7182.538827240525 112643.98348793366 0.0
112643.98348793366 548355.6577977977 0.0
0.0 0.0 0.0

-433979.6538863064 417132.84817942 0.0
417132.84817942 -1.446598906011768e6 0.0
0.0 0.0 0.0

434683.8011770287 416346.8721389129 0.0
416346.8721389129 1.448946048632168e6 0.0
0.0 0.0 0.0

41802.62707120557 514589.2418786544 0.0
514589.2418786544 56665.9459549845 0.0
0.0 0.0 0.0

-534160.1900786118 101978.64023556386 0.0
101978.64023556386 -11186.355270554777 0.0
0.0 0.0 0.0

6878.340311878914 76595.5618400077 0.0
76595.5618400077 563405.5586239318 0.0
0.0 0.0 0.0

174067.21453809735 451141.48438363045 0.0
451141.48438363045 580223.9672093894 0.0
0.0 0.0 0.0

-170746.42807063306 454215.14977703075 0.0
454215.14977703075 -569154.6745859745 0.0
0.0 0.0 0.0

123280.55207950162 302507.0721576431 0.0
302507.0721576431 1.8385509009461254e6 0.0
0.0 0.0 0.0

-9262.962947114778 138106.6901830692 0.0
138106.6901830692 -881292.7586761062 0.0
0.0 0.0 0.0

128218.0114806761 645031.0287264419 0.0
645031.0287264419 -189634.78976137046 0.0
0.0 0.0 0.0

-246593.90370291733 382235.37661420665 0.0
382235.37661420665 -1.0882804317456754e6 0.0
0.0 0.0 0.0

-121617.35209506423 734306.9340819268 0.0
734306.9340819268 103738.38691923507 0.0
0.0 0.0 0.0

-98711.20446562259 549795.6596864903 0.0
549795.6596864903 174467.3233119934 0.0
0.0 0.0 0.0

83303.75668771192 779428.5321139464 0.0
779428.5321139464 -88828.73911908238 0.0
0.0 0.0 0.0

-393982.054949849 373979.0243565278 0.0
373979.0243565278 -1.5146851401431982e6 0.0
0.0 0.0 0.0

260793.341668926 776175.9526583555 0.0
776175.9526583555 -120671.00180712073 0.0
0.0 0.0 0.0

47103.96360263368 348884.4654723285 0.0
348884.4654723285 857815.2929221475 0.0
0.0 0.0 0.0

-2775.1353229695524 195998.53995048566 0.0
195998.53995048566 -443951.7410871147 0.0
0.0 0.0 0.0

-8606.538832173217 120276.9492459554 0.0
120276.9492459554 -863418.1154382855 0.0
0.0 0.0 0.0

128321.3021713114 610663.3389087699 0.0
610663.3389087699 -214752.0536237878 0.0
0.0 0.0 0.0

-2510.1466416679214 385020.30757509806 0.0
385020.30757509806 -93949.06896654256 0.0
0.0 0.0 0.0

-19311.698663809337 210133.8147758079 0.0
210133.8147758079 -961119.6044825458 0.0
0.0 0.0 0.0

-95465.71536842624 689741.9211530975 0.0
689741.9211530975 127240.0546687622 0.0
0.0 0.0 0.0

5513.2170459891295 432630.299877767 0.0
432630.299877767 47166.82541494623 0.0
0.0 0.0 0.0

30987.12256481356 389760.74012802576 0.0
389760.74012802576 -288293.5969422421 0.0
0.0 0.0 0.0

-23972.37517551682 289992.5895632077 0.0
289992.5895632077 -922305.3121007596 0.0
0.0 0.0 0.0

189498.472731709 757749.497816926 0.0
757749.497816926 -127447.54609451332 0.0
0.0 0.0 0.0

42380.783299152434 452524.7320686215 0.0
452524.7320686215 -261423.93342979482 0.0
0.0 0.0 0.0

-65793.11282164388 409608.6014700895 0.0
409608.6014700895 -156941.51245313926 0.0
0.0 0.0 0.0

927085.3620322841 112617.67766869921 0.0
112617.67766869921 -169.9045959423529 0.0
0.0 0.0 0.0

-16177.536145390157 450128.56909851043 0.0
450128.56909851043 204886.30436239933 0.0
0.0 0.0 0.0

819.0607611488667 217629.51140914767 0.0
217629.51140914767 399240.80921380536 0.0
0.0 0.0 0.0

9879.054874957423 92888.72013823554 0.0
92888.72013823554 870023.8805837589 0.0
0.0 0.0 0.0

7791.557865933224 58601.50921166366 0.0
58601.50921166366 -795925.0579398273 0.0
0.0 0.0 0.0

4377.414696316497 116683.32242120769 0.0
116683.32242120769 -546133.4875341286 0.0
0.0 0.0 0.0

9425.087852572993 94506.95344288714 0.0
94506.95344288714 -765695.9098748676 0.0
0.0 0.0 0.0

-152895.33576500064 446981.41254447534 0.0
446981.41254447534 -592420.3943141551 0.0
0.0 0.0 0.0

221723.44326545266 768790.2151970793 0.0
768790.2151970793 -124418.61647260224 0.0
0.0 0.0 0.0

38212.15791091847 355928.8272806422 0.0
355928.8272806422 780160.0971945173 0.0
0.0 0.0 0.0

-36156.217105759555 466579.8983277894 0.0
466579.8983277894 176127.00402309507 0.0
0.0 0.0 0.0

-7148.453041174565 105097.23197490441 0.0
105097.23197490441 -782924.5279226827 0.0
0.0 0.0 0.0

-11929.388187304663 134187.56511791763 0.0
134187.56511791763 509590.26283647603 0.0
0.0 0.0 0.0

3646.708404440782 391558.8045277921 0.0
391558.8045277921 605543.2183209733 0.0
0.0 0.0 0.0

56448.3834253424 510257.21715634404 0.0
510257.21715634404 -338637.1548178445 0.0
0.0 0.0 0.0

62180.560414537766 534859.0797042175 0.0
534859.0797042175 -100036.8302991458 0.0
0.0 0.0 0.0

-116710.68960710632 717318.2551483562 0.0
717318.2551483562 134383.59764479302 0.0
0.0 0.0 0.0

14079.234364138974 375226.68619908753 0.0
375226.68619908753 -558861.3485797177 0.0
0.0 0.0 0.0

9196.545090236526 129441.79210624147 0.0
129441.79210624147 -802655.3785456965 0.0
0.0 0.0 0.0

-6592.617675321351 121712.8033726204 0.0
121712.8033726204 -799399.6652952683 0.0
0.0 0.0 0.0

-5963.4232753567485 164275.30989359642 0.0
164275.30989359642 -334252.4764341481 0.0
0.0 0.0 0.0

-7817.373874136421 138236.92868070558 0.0
138236.92868070558 -816679.9417589656 0.0
0.0 0.0 0.0

11425.615302084305 103110.98796351919 0.0
103110.98796351919 -655202.9072483429 0.0
0.0 0.0 0.0

-284237.7993390808 881323.2917322374 0.0
881323.2917322374 121535.8529816899 0.0
0.0 0.0 0.0

308295.8864933088 827252.5534517098 0.0
827252.5534517098 -117466.94494179075 0.0
0.0 0.0 0.0

-121968.64230168005 570494.4624740921 0.0
570494.4624740921 170983.93200889346 0.0
0.0 0.0 0.0

-7204.776196302642 114795.711749026 0.0
114795.711749026 -673939.1533551619 0.0
0.0 0.0 0.0

13034.940201598445 506158.0084293556 0.0
506158.0084293556 -128078.07225311818 0.0
0.0 0.0 0.0

-37456.97835118856 428816.8561056355 0.0
428816.8561056355 -3874.1281673603626 0.0
0.0 0.0 0.0

-558531.0828351981 479655.3840570286 0.0
479655.3840570286 -1.8617706354118122e6 0.0
0.0 0.0 0.0

561811.0088568056 489776.43433879956 0.0
489776.43433879956 1.8727037589515017e6 0.0
0.0 0.0 0.0

436358.0434353902 555200.4884331055 0.0
555200.4884331055 86948.0456549965 0.0
0.0 0.0 0.0

636507.7354244293 618155.3899026042 0.0
618155.3899026042 105765.61821133984 0.0
0.0 0.0 0.0

-36003.11493342242 147395.98815301235 0.0
147395.98815301235 -1.597209144971162e6 0.0
0.0 0.0 0.0

41207.596784887544 459778.1427170185 0.0
459778.1427170185 -397099.7139243382 0.0
0.0 0.0 0.0

45076.0072883909 486229.2475136299 0.0
486229.2475136299 350190.91756035446 0.0
0.0 0.0 0.0

-1143.9885185781168 173036.6516828623 0.0
173036.6516828623 999467.9920651265 0.0
0.0 0.0 0.0

73384.09060024869 326098.81576923537 0.0
326098.81576923537 994905.4031157824 0.0
0.0 0.0 0.0

-56568.793416090746 534001.9743413439 0.0
534001.9743413439 179660.05967920943 0.0
0.0 0.0 0.0

15682.036998077005 370002.76680229563 0.0
370002.76680229563 -68654.5190669646 0.0
0.0 0.0 0.0

-387488.224194873 617103.8128505461 0.0
617103.8128505461 -370528.5233305064 0.0
0.0 0.0 0.0

-63042.85117533953 526474.9031498042 0.0
526474.9031498042 317500.39172121807 0.0
0.0 0.0 0.0

-20564.981782785922 303119.92748350085 0.0
303119.92748350085 309737.5635904481 0.0
0.0 0.0 0.0

-40915.87795810203 560929.6526982345 0.0
560929.6526982345 141546.10276150782 0.0
0.0 0.0 0.0

2120.252677022945 147597.38627069077 0.0
147597.38627069077 -1.1256146617110576e6 0.0
0.0 0.0 0.0

12797.884503017674 143682.22402407633 0.0
143682.22402407633 -504043.66858911794 0.0
0.0 0.0 0.0

56224.05369201956 525842.1298859336 0.0
525842.1298859336 -295016.13634952926 0.0
0.0 0.0 0.0

-237.00220714998432 285346.5415867452 0.0
285346.5415867452 -623545.7146687816 0.0
0.0 0.0 0.0

35367.30809027917 204734.76150689708 0.0
204734.76150689708 1.2002713604266022e6 0.0
0.0 0.0 0.0

-9037.816848309434 90587.13412452966 0.0
90587.13412452966 278451.3236119464 0.0
0.0 0.0 0.0

50261.9451943718 189028.93008218647 0.0
189028.93008218647 1.5112921850390495e6 0.0
0.0 0.0 0.0

41161.94439259621 500984.23842112854 0.0
500984.23842112854 -278450.2456873656 0.0
0.0 0.0 0.0

-115049.62521002177 578789.5308042391 0.0
578789.5308042391 200300.82335247548 0.0
0.0 0.0 0.0

-3768.567483228253 271500.85953635094 0.0
271500.85953635094 405940.83637615934 0.0
0.0 0.0 0.0

182103.9837918504 694828.7165716828 0.0
694828.7165716828 -151025.66988029133 0.0
0.0 0.0 0.0

-12309.186048235584 196793.69332430916 0.0
196793.69332430916 370514.2380106738 0.0
0.0 0.0 0.0

-52785.7134735967 502940.7379160477 0.0
502940.7379160477 343493.19800494885 0.0
0.0 0.0 0.0

858393.8790831959 785592.5769154675 0.0
785592.5769154675 -59365.00076397811 0.0
0.0 0.0 0.0

-20142.003018871008 417965.5566326222 0.0
417965.5566326222 493147.6478572937 0.0
0.0 0.0 0.0

7572.121028878668 95141.05949299877 0.0
95141.05949299877 268288.6992117863 0.0
0.0 0.0 0.0

-694396.0308112057 105038.42823409186 0.0
105038.42823409186 325.99136421168805 0.0
0.0 0.0 0.0

-5447.017571334494 72198.72655190504 0.0
72198.72655190504 -867593.8416769414 0.0
0.0 0.0 0.0

-253760.90919793688 739153.1381201915 0.0
739153.1381201915 129421.54936891649 0.0
0.0 0.0 0.0

-12579.472312232392 103167.66255075755 0.0
103167.66255075755 456641.6636519121 0.0
0.0 0.0 0.0

-12520.583548682785 292429.800602404 0.0
292429.800602404 53922.41066191618 0.0
0.0 0.0 0.0

-7152.979456890374 116001.98431175126 0.0
116001.98431175126 824076.2713082146 0.0
0.0 0.0 0.0

38514.6197697562 506604.7737189787 0.0
506604.7737189787 -346082.0281171586 0.0
0.0 0.0 0.0

-6427.804827674641 93944.37272519051 0.0
93944.37272519051 871492.1676657486 0.0
0.0 0.0 0.0

22117.76348344049 402767.3704600778 0.0
402767.3704600778 -381189.95945126005 0.0
0.0 0.0 0.0

32070.617407365557 372825.3456561879 0.0
372825.3456561879 719472.1577000141 0.0
0.0 0.0 0.0

-18485.21294376906 255983.52489056895 0.0
255983.52489056895 383034.8170225004 0.0
0.0 0.0 0.0

92018.44001116409 347244.3161069805 0.0
347244.3161069805 1.0676367976532932e6 0.0
0.0 0.0 0.0

-23257.679228988854 339016.4511321983 0.0
339016.4511321983 459307.29045657266 0.0
0.0 0.0 0.0

-29870.179368580302 610949.0781492004 0.0
610949.0781492004 38145.921073823716 0.0
0.0 0.0 0.0

-469.483506303397 166113.13966968027 0.0
166113.13966968027 -1.066773988024793e6 0.0
0.0 0.0 0.0

66644.05643206355 370021.82573965203 0.0
370021.82573965203 849211.1907223737 0.0
0.0 0.0 0.0

458563.9541725291 547258.9350552638 0.0
547258.9350552638 289316.2864395665 0.0
0.0 0.0 0.0

-446380.1434579834 255223.3026549766 0.0
255223.3026549766 -45923.889326864955 0.0
0.0 0.0 0.0

-14649.806126208161 266787.87415937387 0.0
266787.87415937387 -912993.563451147 0.0
0.0 0.0 0.0

-3207.622094147926 294554.6009728607 0.0
294554.6009728607 367880.3593522319 0.0
0.0 0.0 0.0

15361.139378372114 202883.90540670333 0.0
202883.90540670333 -384287.51742090454 0.0
0.0 0.0 0.0

5966.26454570191 83529.1194208181 0.0
83529.1194208181 493091.6752298653 0.0
0.0 0.0 0.0

-8017.074093079544 78214.85208309405 0.0
78214.85208309405 695262.2558574663 0.0
0.0 0.0 0.0

9460.124062268646 341504.0848762306 0.0
341504.0848762306 -495069.1336786393 0.0
0.0 0.0 0.0

4552.540607324685 165604.32450681532 0.0
165604.32450681532 555591.1269711297 0.0
0.0 0.0 0.0

-140342.50710448524 592958.8931006237 0.0
592958.8931006237 168945.85146251644 0.0
0.0 0.0 0.0

223334.32807390572 368722.1424236384 0.0
368722.1424236384 125948.40990538074 0.0
0.0 0.0 0.0

9162.198796047353 144435.45797610033 0.0
144435.45797610033 58696.44022863614 0.0
0.0 0.0 0.0

59599.07955077305 519164.34013752977 0.0
519164.34013752977 -249728.83716423993 0.0
0.0 0.0 0.0

-5330.385496289993 150126.10867587687 0.0
150126.10867587687 -589585.9545161718 0.0
0.0 0.0 0.0

98230.84506227003 756336.1549287272 0.0
756336.1549287272 -106319.47008286143 0.0
0.0 0.0 0.0

-183463.2304421725 356212.6729740772 0.0
356212.6729740772 -1.828196916400908e6 0.0
0.0 0.0 0.0

-8628.281842505137 88577.76101580956 0.0
88577.76101580956 -426168.55435306445 0.0
0.0 0.0 0.0

-6235.654192305286 96485.7865391291 0.0
96485.7865391291 -657862.5596079872 0.0
0.0 0.0 0.0

-129744.42038796673 453870.6320484249 0.0
453870.6320484249 -523082.74306967313 0.0
0.0 0.0 0.0

9215.291245043649 162006.8072760623 0.0
162006.8072760623 92717.15897818687 0.0
0.0 0.0 0.0

-441489.32826871483 396625.2518127326 0.0
396625.2518127326 -1.7210360573732315e6 0.0
0.0 0.0 0.0

12009.655402648146 151667.18824826353 0.0
151667.18824826353 -181150.28974797748 0.0
0.0 0.0 0.0

13530.145029333333 166804.92471962277 0.0
166804.92471962277 -399512.41247083136 0.0
0.0 0.0 0.0

-17829.984412296755 488567.1096079056 0.0
488567.1096079056 -74917.9943912265 0.0
0.0 0.0 0.0

39747.4619743526 285910.1032132951 0.0
285910.1032132951 1.0694121871580954e6 0.0
0.0 0.0 0.0

-75313.98991851341 782112.1010778891 0.0
782112.1010778891 48330.914650033774 0.0
0.0 0.0 0.0

-202297.28484860773 171354.6967140788 0.0
171354.6967140788 -17825.45334116339 0.0
0.0 0.0 0.0

3778.028132595209 302350.6353653692 0.0
302350.6353653692 -578413.338958403 0.0
0.0 0.0 0.0

110082.54743172589 455824.83874422754 0.0
455824.83874422754 531226.7159060691 0.0
0.0 0.0 0.0

106877.82615699849 733261.8226807868 0.0
733261.8226807868 -124887.5566362293 0.0
0.0 0.0 0.0

1112.6647780269268 331112.5639432417 0.0
331112.5639432417 -191654.683088801 0.0
0.0 0.0 0.0

159126.45011276336 713019.2931680504 0.0
713019.2931680504 -146453.05188340152 0.0
0.0 0.0 0.0

23824.526739055975 347660.42370142095 0.0
347660.42370142095 -220305.01356814144 0.0
0.0 0.0 0.0

-6628.864500572672 63744.277668354545 0.0
63744.277668354545 544807.3279060677 0.0
0.0 0.0 0.0

45750.65587862236 507805.843993206 0.0
507805.843993206 -293142.1728549104 0.0
0.0 0.0 0.0

520721.564141729 1.2865087250749415e6 0.0
1.2865087250749415e6 -166992.4151250961 0.0
0.0 0.0 0.0

262152.85103521415 605409.4830894964 0.0
605409.4830894964 -61988.39743491859 0.0
0.0 0.0 0.0

47936.9448038346 486162.70846876677 0.0
486162.70846876677 -368144.1640723843 0.0
0.0 0.0 0.0

-2080.732226030552 335647.7810361596 0.0
335647.7810361596 201722.0511122617 0.0
0.0 0.0 0.0

-14393.79469314603 448297.65378091135 0.0
448297.65378091135 20790.298183875235 0.0
0.0 0.0 0.0

4428.818859892373 48434.48940869957 0.0
48434.48940869957 -847549.8005110988 0.0
0.0 0.0 0.0

1880.9494398955576 49805.12646304962 0.0
49805.12646304962 -273777.47722265695 0.0
0.0 0.0 0.0

-11487.591955206313 198281.69138193873 0.0
198281.69138193873 92493.55115710519 0.0
0.0 0.0 0.0

-253554.6577855815 531703.0792763096 0.0
531703.0792763096 -65704.94726084707 0.0
0.0 0.0 0.0

-7680.22137951263 103706.5051266017 0.0
103706.5051266017 -522443.8126022263 0.0
0.0 0.0 0.0

20426.282283442633 412254.54079205595 0.0
412254.54079205595 -325396.71674360393 0.0
0.0 0.0 0.0

27114.753824130377 496022.8664757685 0.0
496022.8664757685 279015.34664381994 0.0
0.0 0.0 0.0

14037.529266174097 276013.8008879045 0.0
276013.8008879045 -608504.2654642658 0.0
0.0 0.0 0.0

5262.37413935957 149177.34298076446 0.0
149177.34298076446 531641.0375370249 0.0
0.0 0.0 0.0

-757028.3002638728 699992.2340772881 0.0
699992.2340772881 -7787.76840982557 0.0
0.0 0.0 0.0

7533.311126569053 257759.9140777686 0.0
257759.9140777686 -715840.3586780976 0.0
0.0 0.0 0.0

-1.3922315063844982e6 151390.21154257833 0.0
151390.21154257833 -19081.548230451008 0.0
0.0 0.0 0.0

-6348.738296021649 139998.89892445004 0.0
139998.89892445004 -502251.84278689744 0.0
0.0 0.0 0.0

13031.37135015626 449001.0565809393 0.0
449001.0565809393 505376.4124136818 0.0
0.0 0.0 0.0

-58607.105504043924 339586.9068159217 0.0
339586.9068159217 -932128.4540534384 0.0
0.0 0.0 0.0

-14456.749177836871 373577.43479777646 0.0
373577.43479777646 -666564.8042507322 0.0
0.0 0.0 0.0

7769.883945039663 104124.24917112588 0.0
104124.24917112588 373493.55194664863 0.0
0.0 0.0 0.0

-9919.688945676986 212547.39384553948 0.0
212547.39384553948 719113.7244303974 0.0
0.0 0.0 0.0

-10034.624615448714 366815.9755597063 0.0
366815.9755597063 -8145.151694849405 0.0
0.0 0.0 0.0

-2145.490419571055 314752.4066159594 0.0
314752.4066159594 235011.75458949895 0.0
0.0 0.0 0.0

-3894.6790587449796 199467.2457305939 0.0
199467.2457305939 860180.82643279 0.0
0.0 0.0 0.0

9165.28363632436 351249.87147849833 0.0
351249.87147849833 18709.051768162135 0.0
0.0 0.0 0.0

37987.963454313416 480992.16045682196 0.0
480992.16045682196 -309337.8841278262 0.0
0.0 0.0 0.0

55602.97750789512 511688.1007501632 0.0
511688.1007501632 -233196.5978056736 0.0
0.0 0.0 0.0

56001.17903708707 532509.8673915921 0.0
532509.8673915921 -277643.52932936256 0.0
0.0 0.0 0.0

18273.3363597063 381266.7259331199 0.0
381266.7259331199 -416855.9004754278 0.0
0.0 0.0 0.0

-4946.662388050463 182698.25286786744 0.0
182698.25286786744 -358014.4598276145 0.0
0.0 0.0 0.0

-21062.63532779787 500697.61777391576 0.0
500697.61777391576 -123472.53234599448 0.0
0.0 0.0 0.0

34918.03640571993 492408.45454366994 0.0
492408.45454366994 -264427.15704816155 0.0
0.0 0.0 0.0

21090.608612502896 351162.49182269117 0.0
351162.49182269117 -161176.2196637731 0.0
0.0 0.0 0.0

7761.152667367278 133669.09060200144 0.0
133669.09060200144 508729.67957467935 0.0
0.0 0.0 0.0

13023.306535489013 361822.8300677318 0.0
361822.8300677318 -455674.294261759 0.0
0.0 0.0 0.0

-489661.40269290237 444116.7176653852 0.0
444116.7176653852 -1.6322046599760167e6 0.0
0.0 0.0 0.0

6996.891565284313 126173.00528029802 0.0
126173.00528029802 333593.4791388639 0.0
0.0 0.0 0.0

-4046.179865999293 175980.32227105895 0.0
175980.32227105895 -483416.0177001377 0.0
0.0 0.0 0.0

-8965.454020620382 127476.77228739443 0.0
127476.77228739443 -41365.80073998933 0.0
0.0 0.0 0.0

-152165.92250638112 334911.1009704407 0.0
334911.1009704407 -1.6597383304703922e6 0.0
0.0 0.0 0.0

-7531.2576680306665 339025.4971452563 0.0
339025.4971452563 291619.007984127 0.0
0.0 0.0 0.0

10831.259145184653 127896.40909960782 0.0
127896.40909960782 -482880.639754 0.0
0.0 0.0 0.0

-14091.748321847816 205903.7000783803 0.0
205903.7000783803 628330.3947239617 0.0
0.0 0.0 0.0

17548.100252728036 94983.18248489071 0.0
94983.18248489071 1.2609153253907578e6 0.0
0.0 0.0 0.0

10977.770939023634 467539.52095838473 0.0
467539.52095838473 -55368.70715151033 0.0
0.0 0.0 0.0

70830.0981701802 410182.23979918775 0.0
410182.23979918775 147229.77665273703 0.0
0.0 0.0 0.0

-179840.6330877854 601840.6639802371 0.0
601840.6639802371 156472.49255425343 0.0
0.0 0.0 0.0

-34841.30815835312 505700.7810763172 0.0
505700.7810763172 117736.51994390594 0.0
0.0 0.0 0.0

7689.578191758308 92870.46266917298 0.0
92870.46266917298 -964809.2524622882 0.0
0.0 0.0 0.0

10828.108401103702 110193.28474858857 0.0
110193.28474858857 -976474.9719831129 0.0
0.0 0.0 0.0

2572.4801825973555 295617.79683913896 0.0
295617.79683913896 678524.340034741 0.0
0.0 0.0 0.0

31420.282077119555 453171.7073577536 0.0
453171.7073577536 -327403.7206747124 0.0
0.0 0.0 0.0

313241.490524461 561506.7462590694 0.0
561506.7462590694 94946.3128935587 0.0
0.0 0.0 0.0

-2332.472278167901 131703.64486732677 0.0
131703.64486732677 1.4448939411349178e6 0.0
0.0 0.0 0.0

-15911.334369766555 428648.250945086 0.0
428648.250945086 237187.9474021346 0.0
0.0 0.0 0.0

13977.79852502262 441108.78492998297 0.0
441108.78492998297 -191331.98649556338 0.0
0.0 0.0 0.0

138810.12594890705 342769.9582061142 0.0
342769.9582061142 1.5537253375725565e6 0.0
0.0 0.0 0.0

10166.643479885672 82690.73454141508 0.0
82690.73454141508 100694.08934358353 0.0
0.0 0.0 0.0

54819.315338294546 615833.1575399067 0.0
615833.1575399067 -155800.4133603752 0.0
0.0 0.0 0.0

159941.1628049183 499804.1413062795 0.0
499804.1413062795 396807.3342367513 0.0
0.0 0.0 0.0

12578.592414098792 163753.729600591 0.0
163753.729600591 -463778.1268309739 0.0
0.0 0.0 0.0

-11695.07878190221 312419.2926140006 0.0
312419.2926140006 21525.741732490078 0.0
0.0 0.0 0.0

86068.01118971786 310978.9392046659 0.0
310978.9392046659 1.1607966670143532e6 0.0
0.0 0.0 0.0

-2345.5072156716487 204929.10452660779 0.0
204929.10452660779 -952963.3885430219 0.0
0.0 0.0 0.0

38622.50673903676 468231.6537500147 0.0
468231.6537500147 -404990.9011777207 0.0
0.0 0.0 0.0

7496.559460805729 78558.87172008821 0.0
78558.87172008821 1.0254751161837984e6 0.0
0.0 0.0 0.0

-6090.703989448142 243414.1032091718 0.0
243414.1032091718 -901975.9459135595 0.0
0.0 0.0 0.0

8700.602455080938 209580.83771778818 0.0
209580.83771778818 -74844.55768613427 0.0
0.0 0.0 0.0

9195.301898743375 185102.632415118 0.0
185102.632415118 -785058.0708327463 0.0
0.0 0.0 0.0

10141.968729042914 356541.7771071063 0.0
356541.7771071063 -297886.3287347006 0.0
0.0 0.0 0.0

24685.856898976243 423321.2248687799 0.0
423321.2248687799 -344591.17365324195 0.0
0.0 0.0 0.0

-4971.4672854352975 180004.1490303057 0.0
180004.1490303057 840355.991004027 0.0
0.0 0.0 0.0

145371.509030081 516405.84687215276 0.0
516405.84687215276 156011.3024341503 0.0
0.0 0.0 0.0

4346.099203917896 120139.3602042455 0.0
120139.3602042455 482947.07282598363 0.0
0.0 0.0 0.0

21682.91302296563 393307.9162945581 0.0
393307.9162945581 -518660.95135585655 0.0
0.0 0.0 0.0

8135.309399290985 115020.67564575835 0.0
115020.67564575835 233780.3463305343 0.0
0.0 0.0 0.0

-8282.523502194827 76785.11676307689 0.0
76785.11676307689 -73000.53468457116 0.0
0.0 0.0 0.0

17129.29046843249 400919.3462969635 0.0
400919.3462969635 -306809.3861067946 0.0
0.0 0.0 0.0

8256.96817300134 88714.06594242755 0.0
88714.06594242755 -500030.9627378797 0.0
0.0 0.0 0.0

-10592.070224340918 123288.93932485011 0.0
123288.93932485011 754709.7544193941 0.0
0.0 0.0 0.0

-9902.499872898334 63892.11052478665 0.0
63892.11052478665 -1.4521452967017838e6 0.0
0.0 0.0 0.0

-36137.68799875454 445743.68870724295 0.0
445743.68870724295 -120458.94615382126 0.0
0.0 0.0 0.0

-17241.5945468696 237040.53499925777 0.0
237040.53499925777 516884.3427559605 0.0
0.0 0.0 0.0

-199528.71365099322 575822.5361336769 0.0
575822.5361336769 102098.19774017413 0.0
0.0 0.0 0.0

132515.34140653757 530080.8422381254 0.0
530080.8422381254 255869.7077982132 0.0
0.0 0.0 0.0

23940.259033183334 388651.6947127657 0.0
388651.6947127657 663223.2303263348 0.0
0.0 0.0 0.0

-22249.98421191133 441088.748258876 0.0
441088.748258876 457657.82649076503 0.0
0.0 0.0 0.0

-2268.9740198403597 45497.374678349806 0.0
45497.374678349806 1.0291157841942204e6 0.0
0.0 0.0 0.0

3303.560751682373 306502.1086526342 0.0
306502.1086526342 144352.67806914597 0.0
0.0 0.0 0.0

146096.6762855497 498825.70851904765 0.0
498825.70851904765 389990.03906499734 0.0
0.0 0.0 0.0

-72102.81069504959 544399.3758358171 0.0
544399.3758358171 252536.82149893767 0.0
0.0 0.0 0.0

-11183.370298830152 198008.07474980148 0.0
198008.07474980148 699699.2842593883 0.0
0.0 0.0 0.0

-1109.1422752557555 346791.915632954 0.0
346791.915632954 -606038.5493417205 0.0
0.0 0.0 0.0

-6232.059137789591 126887.66458766662 0.0
126887.66458766662 -411437.8732555652 0.0
0.0 0.0 0.0

42886.526362855875 443747.9644537226 0.0
443747.9644537226 -311886.3124680973 0.0
0.0 0.0 0.0

4777.14284525445 270481.88995406165 0.0
270481.88995406165 148089.30311381468 0.0
0.0 0.0 0.0

10817.71448547105 79301.0877402487 0.0
79301.0877402487 -274406.4523903319 0.0
0.0 0.0 0.0

51080.68372487401 631635.6686255785 0.0
631635.6686255785 -131947.6132141637 0.0
0.0 0.0 0.0

19542.229891545372 120113.02235348332 0.0
120113.02235348332 1.20461584079367e6 0.0
0.0 0.0 0.0

8777.465380628302 93767.62570240702 0.0
93767.62570240702 1.057624665357038e6 0.0
0.0 0.0 0.0

23183.055915205914 255094.25351941417 0.0
255094.25351941417 1.062155420779073e6 0.0
0.0 0.0 0.0

59826.85637840032 573757.6825576895 0.0
573757.6825576895 -222993.3570138357 0.0
0.0 0.0 0.0

-10621.566409902674 163708.39067884226 0.0
163708.39067884226 26828.23904087828 0.0
0.0 0.0 0.0

569347.8540967036 603884.2303398806 0.0
603884.2303398806 450447.3173098619 0.0
0.0 0.0 0.0

406432.9196739088 451666.4352394543 0.0
451666.4352394543 1.580196046218416e6 0.0
0.0 0.0 0.0

10899.087347312772 112487.06457709233 0.0
112487.06457709233 -388369.4354226333 0.0
0.0 0.0 0.0

5007.7264212242735 143898.12099324053 0.0
143898.12099324053 598526.1940124771 0.0
0.0 0.0 0.0

1749.5501870660228 341584.07921590545 0.0
341584.07921590545 140456.07809328145 0.0
0.0 0.0 0.0

-54313.286230329686 498454.174271677 0.0
498454.174271677 339178.39944658283 0.0
0.0 0.0 0.0

5554.253219095117 123041.26704753793 0.0
123041.26704753793 -1.0515454136272445e6 0.0
0.0 0.0 0.0

7120.344828920031 146292.73348762488 0.0
146292.73348762488 -883895.476941891 0.0
0.0 0.0 0.0

-11855.40112662068 134235.8000092633 0.0
134235.8000092633 199860.39234171886 0.0
0.0 0.0 0.0

-21258.051196628105 460003.0291458564 0.0
460003.0291458564 228368.84084419758 0.0
0.0 0.0 0.0

150303.48511991376 342157.85603925993 0.0
342157.85603925993 1.4456441853251855e6 0.0
0.0 0.0 0.0

49227.35305374955 472819.875704471 0.0
472819.875704471 -295984.9876898712 0.0
0.0 0.0 0.0

7349.788009514785 153178.6631205548 0.0
153178.6631205548 228114.40873165752 0.0
0.0 0.0 0.0

7216.574337014288 127205.98989251746 0.0
127205.98989251746 -932039.7061874134 0.0
0.0 0.0 0.0

-57658.63212226919 522598.70592040644 0.0
522598.70592040644 230510.68548099117 0.0
0.0 0.0 0.0

-4677.212521703186 170897.35939340806 0.0
170897.35939340806 -549822.7236718944 0.0
0.0 0.0 0.0

-124393.0366987082 128227.15071340803 0.0
128227.15071340803 -119225.99131552278 0.0
0.0 0.0 0.0

15321.843514817141 381166.7572958667 0.0
381166.7572958667 -341024.7103344468 0.0
0.0 0.0 0.0

-10331.647425920055 78680.62625151468 0.0
78680.62625151468 175186.8571379985 0.0
0.0 0.0 0.0

6092.438880122681 233780.8181659783 0.0
233780.8181659783 151883.0852108409 0.0
0.0 0.0 0.0

7528.402558852737 196164.90825453674 0.0
196164.90825453674 156120.07749673948 0.0
0.0 0.0 0.0

13949.13051233541 387660.45790065 0.0
387660.45790065 -286942.5740056264 0.0
0.0 0.0 0.0

-12124.682677060862 348111.1936075733 0.0
348111.1936075733 21108.253876376 0.0
0.0 0.0 0.0

-6591.755682700401 204668.60558689546 0.0
204668.60558689546 789136.2505253577 0.0
0.0 0.0 0.0

98359.22370820481 298177.02606245875 0.0
298177.02606245875 1.3452004912371458e6 0.0
0.0 0.0 0.0

40703.069696551946 258767.49085676763 0.0
258767.49085676763 1.2273590813391479e6 0.0
0.0 0.0 0.0

91874.96212846745 305053.2781700352 0.0
305053.2781700352 1.2503873554881373e6 0.0
0.0 0.0 0.0

15439.016017878195 176122.80461733462 0.0
176122.80461733462 1.7605829313844163e6 0.0
0.0 0.0 0.0

6855.733991555127 503986.05125609314 0.0
503986.05125609314 211662.26979917422 0.0
0.0 0.0 0.0

2615.9555887798197 154503.49991725458 0.0
154503.49991725458 1.3753767574412304e6 0.0
0.0 0.0 0.0

15268.03320665125 579052.5708617772 0.0
579052.5708617772 -92947.16245773553 0.0
0.0 0.0 0.0

-48769.15662987621 495593.0151278533 0.0
495593.0151278533 -271372.62618472415 0.0
0.0 0.0 0.0

-1.4922157694058355e6 816824.2208681892 0.0
816824.2208681892 -561297.5098761676 0.0
0.0 0.0 0.0

12693.593286944175 150148.0787634037 0.0
150148.0787634037 -374652.6056968357 0.0
0.0 0.0 0.0

18295.02358272884 296602.482003392 0.0
296602.482003392 -569404.6574587208 0.0
0.0 0.0 0.0

58551.64843963778 635320.3678301196 0.0
635320.3678301196 -105666.69971938196 0.0
0.0 0.0 0.0

-18100.701360015162 568007.5854662998 0.0
568007.5854662998 109262.59880465349 0.0
0.0 0.0 0.0

9919.293073511391 165832.93121133078 0.0
165832.93121133078 -772089.5195644702 0.0
0.0 0.0 0.0

592590.5264859983 673918.2736019355 0.0
673918.2736019355 -16447.654484567873 0.0
0.0 0.0 0.0

-13397.89461341974 251909.98684041583 0.0
251909.98684041583 120314.90647961269 0.0
0.0 0.0 0.0

-29998.71669840865 131911.52282766913 0.0
131911.52282766913 -1.4739188279240734e6 0.0
0.0 0.0 0.0

-12356.966819454734 214851.42366969673 0.0
214851.42366969673 123303.31715082223 0.0
0.0 0.0 0.0

-5005.3434965585475 163560.58062139605 0.0
163560.58062139605 -396588.0427708586 0.0
0.0 0.0 0.0

15132.73603554425 402795.1869869364 0.0
402795.1869869364 608443.112911248 0.0
0.0 0.0 0.0

-934731.0299305499 669152.5711648576 0.0
669152.5711648576 -109111.53542302243 0.0
0.0 0.0 0.0

-6327.53197772929 80700.76002688763 0.0
80700.76002688763 854072.7404914692 0.0
0.0 0.0 0.0

56073.06501113156 499711.6046114624 0.0
499711.6046114624 -279601.4752828266 0.0
0.0 0.0 0.0

-418783.5393082676 578351.0363112494 0.0
578351.0363112494 -273763.9981588058 0.0
0.0 0.0 0.0

9784.233061183579 95443.61041689536 0.0
95443.61041689536 -370015.4357935321 0.0
0.0 0.0 0.0

2521.65425867241 206265.79766198274 0.0
206265.79766198274 628178.3155019819 0.0
0.0 0.0 0.0

36414.022113098705 421519.14140915044 0.0
421519.14140915044 -274564.415580986 0.0
0.0 0.0 0.0

18874.98599227397 386125.30818756873 0.0
386125.30818756873 -96199.47242265524 0.0
0.0 0.0 0.0

-14827.532815564147 288300.5364958193 0.0
288300.5364958193 117116.89566255668 0.0
0.0 0.0 0.0

15163.248317048477 229392.7577546823 0.0
229392.7577546823 1.0590326847186766e6 0.0
0.0 0.0 0.0

9893.164069383289 74830.43613182512 0.0
74830.43613182512 -879513.7714635708 0.0
0.0 0.0 0.0

-7489.40356216245 88252.27143042587 0.0
88252.27143042587 -491124.2964572274 0.0
0.0 0.0 0.0

-53075.834674275044 514656.3892836394 0.0
514656.3892836394 213179.90281257057 0.0
0.0 0.0 0.0

-9933.400932675955 100335.6779291737 0.0
100335.6779291737 373066.39209178096 0.0
0.0 0.0 0.0

6817.662916365007 341865.4771262457 0.0
341865.4771262457 -276477.6627302685 0.0
0.0 0.0 0.0

10075.780369742366 137759.60023934272 0.0
137759.60023934272 -634190.6627584943 0.0
0.0 0.0 0.0

15333.408109482029 141838.3542202397 0.0
141838.3542202397 1.1375915621885085e6 0.0
0.0 0.0 0.0

-14448.14971352039 510363.8821413186 0.0
510363.8821413186 145434.53554129932 0.0
0.0 0.0 0.0

-9934.043398583977 108244.6107773541 0.0
108244.6107773541 733016.4730293511 0.0
0.0 0.0 0.0

-13454.572583090689 281050.5880675516 0.0
281050.5880675516 -855566.8692868307 0.0
0.0 0.0 0.0

-8210.956226749055 451452.2184840908 0.0
451452.2184840908 -479642.3431187468 0.0
0.0 0.0 0.0

-18905.820293039957 259743.7503580922 0.0
259743.7503580922 475697.5873413958 0.0
0.0 0.0 0.0

324.35755734413397 373348.94758175424 0.0
373348.94758175424 -612619.6297659763 0.0
0.0 0.0 0.0

32380.822184459263 391528.7997075491 0.0
391528.7997075491 -364463.62203936884 0.0
0.0 0.0 0.0

8958.371608415495 44924.38035870834 0.0
44924.38035870834 171893.09706829156 0.0
0.0 0.0 0.0

-10361.677601721603 96003.64713642266 0.0
96003.64713642266 653351.548190167 0.0
0.0 0.0 0.0

-1555.0060672020481 277283.3830929494 0.0
277283.3830929494 -236261.42727810115 0.0
0.0 0.0 0.0

-3222.5863800118095 241282.6698655 0.0
241282.6698655 -246251.9570916081 0.0
0.0 0.0 0.0

40961.30479206426 432878.12066916155 0.0
432878.12066916155 -293020.82652326825 0.0
0.0 0.0 0.0

-40675.645030450294 514932.0864489174 0.0
514932.0864489174 79879.6955335241 0.0
0.0 0.0 0.0

-4131.858545336858 202148.8875676173 0.0
202148.8875676173 -319980.3183022285 0.0
0.0 0.0 0.0

-107478.33472941112 311580.8387998543 0.0
311580.8387998543 -1.3329720175516957e6 0.0
0.0 0.0 0.0

-9785.695572611847 123687.37253869747 0.0
123687.37253869747 338421.001166988 0.0
0.0 0.0 0.0

-336701.978348293 415526.09370951954 0.0
415526.09370951954 -1.2328983333117454e6 0.0
0.0 0.0 0.0

-3.286059612404733e6 435156.1487904851 0.0
435156.1487904851 -162122.39601127827 0.0
0.0 0.0 0.0

3.269702231160608e6 448480.0022652762 0.0
448480.0022652762 176616.20608366455 0.0
0.0 0.0 0.0

-137216.9595978813 320491.1396329895 0.0
320491.1396329895 -1.5403263445416293e6 0.0
0.0 0.0 0.0

-13194.70423988835 352532.9525330883 0.0
352532.9525330883 478073.9580598441 0.0
0.0 0.0 0.0

-20658.126871069464 493842.40393267426 0.0
493842.40393267426 45269.24788431074 0.0
0.0 0.0 0.0

659.2561273283936 312039.58182238694 0.0
312039.58182238694 -226976.67092437268 0.0
0.0 0.0 0.0

-9800.420509759291 107149.31960993905 0.0
107149.31960993905 -4395.85837483636 0.0
0.0 0.0 0.0

10592.952202173225 126758.93432969286 0.0
126758.93432969286 23973.844270222264 0.0
0.0 0.0 0.0

-16592.064522882727 324137.5011145832 0.0
324137.5011145832 113660.64008668126 0.0
0.0 0.0 0.0

-122179.15654988366 315259.8424138679 0.0
315259.8424138679 -1.4317789149284035e6 0.0
0.0 0.0 0.0

16644.173257350732 262850.51737617585 0.0
262850.51737617585 -212071.65506661744 0.0
0.0 0.0 0.0

-7419.764284892357 123334.4312823485 0.0
123334.4312823485 936293.7002041669 0.0
0.0 0.0 0.0

2.7295000992621225e6 562071.8118181148 0.0
562071.8118181148 10674.282002892229 0.0
0.0 0.0 0.0

18305.6151790586 298007.8060575673 0.0
298007.8060575673 -203469.88153190093 0.0
0.0 0.0 0.0

11054.721298368037 130151.68228759382 0.0
130151.68228759382 -740947.0791683871 0.0
0.0 0.0 0.0

10362.72680083054 147565.41030648618 0.0
147565.41030648618 -756682.4519848202 0.0
0.0 0.0 0.0

5787.381125299289 417501.499812533 0.0
417501.499812533 556886.8122353102 0.0
0.0 0.0 0.0

27505.296495058457 351936.50882832025 0.0
351936.50882832025 -438486.3955171174 0.0
0.0 0.0 0.0

-94367.96960537594 532253.8201312717 0.0
532253.8201312717 -313165.9471941815 0.0
0.0 0.0 0.0

268790.26968967915 595982.9822732921 0.0
595982.9822732921 -26010.772569031833 0.0
0.0 0.0 0.0

8309.06679885678 295451.1154445701 0.0
295451.1154445701 51322.6489622554 0.0
0.0 0.0 0.0

10290.677923600237 90623.09286799114 0.0
90623.09286799114 -48856.07331791198 0.0
0.0 0.0 0.0

-10862.864612622976 181062.0511211437 0.0
181062.0511211437 60829.61908502132 0.0
0.0 0.0 0.0

7109.105257930059 147795.7929804535 0.0
147795.7929804535 295552.73978558334 0.0
0.0 0.0 0.0

-201401.14804355384 383581.38121068175 0.0
383581.38121068175 -869703.1813008273 0.0
0.0 0.0 0.0

4386.008528421342 275416.2826809121 0.0
275416.2826809121 -728308.2403289387 0.0
0.0 0.0 0.0

-9179.874621195748 107164.7674864094 0.0
107164.7674864094 -388648.5986806137 0.0
0.0 0.0 0.0

14138.785570179534 188644.59930873764 0.0
188644.59930873764 -296437.7235379052 0.0
0.0 0.0 0.0

7018.857086246318 366490.93627822516 0.0
366490.93627822516 48930.90401936264 0.0
0.0 0.0 0.0

-4032.854469279555 180020.63106915896 0.0
180020.63106915896 -420676.4779372783 0.0
0.0 0.0 0.0

-10602.708401410466 145435.16553898453 0.0
145435.16553898453 -7151.463136376022 0.0
0.0 0.0 0.0

8912.002591130702 72896.61303850489 0.0
72896.61303850489 -542217.94491107 0.0
0.0 0.0 0.0

28541.484745822556 375960.27135813143 0.0
375960.27135813143 -267412.64505845704 0.0
0.0 0.0 0.0

-12237.84603954968 145816.15313041542 0.0
145816.15313041542 298327.6306105996 0.0
0.0 0.0 0.0

61098.48456102858 616302.4170310807 0.0
616302.4170310807 -174983.25632253048 0.0
0.0 0.0 0.0

-19225.934773165965 118934.69266911277 0.0
118934.69266911277 -1.2728200227760866e6 0.0
0.0 0.0 0.0

33044.00131527326 408300.09654779505 0.0
408300.09654779505 -255442.06262547633 0.0
0.0 0.0 0.0

13591.355955108302 176478.88552413645 0.0
176478.88552413645 -547400.6537277675 0.0
0.0 0.0 0.0

9217.25342900303 97336.5432355966 0.0
97336.5432355966 203807.46576258907 0.0
0.0 0.0 0.0

12044.761339918652 157622.82812178752 0.0
157622.82812178752 -591653.499807745 0.0
0.0 0.0 0.0

-20141.69491482396 500259.43566705537 0.0
500259.43566705537 167737.86162525316 0.0
0.0 0.0 0.0

133076.95359631744 670639.882424932 0.0
670639.882424932 -170659.62141644748 0.0
0.0 0.0 0.0

-40440.31129046768 470711.8341935284 0.0
470711.8341935284 -474727.7820440449 0.0
0.0 0.0 0.0

-9236.06511130866 109155.36012150893 0.0
109155.36012150893 -76234.05468034092 0.0
0.0 0.0 0.0

126319.82110367816 698688.9489300465 0.0
698688.9489300465 -129500.25617678161 0.0
0.0 0.0 0.0

72485.43035741648 565753.383828435 0.0
565753.383828435 -209008.48087539006 0.0
0.0 0.0 0.0

-14495.428950979403 187057.86040290084 0.0
187057.86040290084 515269.4451972453 0.0
0.0 0.0 0.0

-49839.97087242827 531821.1549630868 0.0
531821.1549630868 299579.3057325854 0.0
0.0 0.0 0.0

-10171.132370654173 96980.46679728608 0.0
96980.46679728608 207359.57878553987 0.0
0.0 0.0 0.0

7038.370055644391 217108.2131746046 0.0
217108.2131746046 121027.97748503432 0.0
0.0 0.0 0.0

33669.51326578023 190879.9928556588 0.0
190879.9928556588 1.2839973798491766e6 0.0
0.0 0.0 0.0

-17420.79849890992 295177.30300097517 0.0
295177.30300097517 208401.57619812456 0.0
0.0 0.0 0.0

131000.45501320835 509040.5410715834 0.0
509040.5410715834 90100.41377032487 0.0
0.0 0.0 0.0

21095.999990198776 332646.12186307966 0.0
332646.12186307966 -194702.36252236838 0.0
0.0 0.0 0.0

10473.275634608377 374587.19963136746 0.0
374587.19963136746 -264499.63183423533 0.0
0.0 0.0 0.0

-101795.6018205001 311740.28963558783 0.0
311740.28963558783 -1.2406813024893426e6 0.0
0.0 0.0 0.0

-26732.765361691767 130376.17419984752 0.0
130376.17419984752 -1.359321508744029e6 0.0
0.0 0.0 0.0

-11777.092027093022 234766.3815084956 0.0
234766.3815084956 670194.3031631984 0.0
0.0 0.0 0.0

-55434.52158952947 604869.050399075 0.0
604869.050399075 169316.37459932457 0.0
0.0 0.0 0.0

-6177.9452699349495 128884.12599436817 0.0
128884.12599436817 1.0360309730896526e6 0.0
0.0 0.0 0.0

61647.931181647116 524963.2651253042 0.0
524963.2651253042 -265387.0325454598 0.0
0.0 0.0 0.0

51300.90174024015 508029.8626513834 0.0
508029.8626513834 -336045.9713426626 0.0
0.0 0.0 0.0

534629.265539229 95601.39298087462 0.0
95601.39298087462 15122.770792353083 0.0
0.0 0.0 0.0

12587.75429539205 190433.11316222354 0.0
190433.11316222354 -170416.62274497963 0.0
0.0 0.0 0.0

-21825.24729778849 291852.29482569505 0.0
291852.29482569505 370082.63705925323 0.0
0.0 0.0 0.0

-101626.06258488444 466061.60468326625 0.0
466061.60468326625 -472753.66229495395 0.0
0.0 0.0 0.0

26113.385891988102 362804.628010541 0.0
362804.628010541 -244835.88280342863 0.0
0.0 0.0 0.0

34326.75497406816 402385.8439471951 0.0
402385.8439471951 -309107.24220595637 0.0
0.0 0.0 0.0

41230.181732494326 271754.0117224012 0.0
271754.0117224012 996061.623468814 0.0
0.0 0.0 0.0

-14330.101704371744 228949.29261386913 0.0
228949.29261386913 584121.6989039404 0.0
0.0 0.0 0.0

7053.587925224085 360690.5918692733 0.0
360690.5918692733 -241966.9154786705 0.0
0.0 0.0 0.0

17864.28367831165 470050.54642912844 0.0
470050.54642912844 -185678.19759005733 0.0
0.0 0.0 0.0

-114088.82585637129 440957.5667276673 0.0
440957.5667276673 -320360.2725441889 0.0
0.0 0.0 0.0

3660.24468369812 660203.0980813759 0.0
660203.0980813759 -38628.39802418614 0.0
0.0 0.0 0.0

-2580.728080520057 278086.02258328395 0.0
278086.02258328395 -790255.5706052921 0.0
0.0 0.0 0.0

-53598.344874365765 793093.6142046282 0.0
793093.6142046282 64819.18766546091 0.0
0.0 0.0 0.0

-23557.835490835205 313864.15700049733 0.0
313864.15700049733 333236.9358397319 0.0
0.0 0.0 0.0

-235684.3579725928 575184.3056521936 0.0
575184.3056521936 -312102.0118748323 0.0
0.0 0.0 0.0

4139.155713935572 436446.36484594014 0.0
436446.36484594014 -49451.72187414732 0.0
0.0 0.0 0.0

-20517.26899749023 482217.23050028936 0.0
482217.23050028936 -429248.51388980326 0.0
0.0 0.0 0.0

-62451.8577745324 475196.74446109566 0.0
475196.74446109566 -282109.62110434513 0.0
0.0 0.0 0.0

-76479.37010152121 574485.2130692336 0.0
574485.2130692336 213505.81135042923 0.0
0.0 0.0 0.0

49087.79871461383 482673.08639926655 0.0
482673.08639926655 -246754.1368712204 0.0
0.0 0.0 0.0

3825.20830586995 346446.1702726942 0.0
346446.1702726942 -217648.83645615174 0.0
0.0 0.0 0.0

-25163.0485358382 439823.81979227264 0.0
439823.81979227264 -539119.3551537435 0.0
0.0 0.0 0.0

-7336.96367362843 264100.3445547362 0.0
264100.3445547362 -80090.6070099046 0.0
0.0 0.0 0.0

-30641.84448478546 572883.0274355845 0.0
572883.0274355845 67119.92342602287 0.0
0.0 0.0 0.0

13327.258351448967 646489.0720636392 0.0
646489.0720636392 -63026.92331324285 0.0
0.0 0.0 0.0

9935.468783238182 78976.88385023162 0.0
78976.88385023162 173655.13849893375 0.0
0.0 0.0 0.0

-4240.083459740388 223678.09051254726 0.0
223678.09051254726 -219517.22029044715 0.0
0.0 0.0 0.0

16534.275440600915 686915.1422316851 0.0
686915.1422316851 4394.8173425446175 0.0
0.0 0.0 0.0

-35814.167659117586 486545.10627781216 0.0
486545.10627781216 145686.82094493962 0.0
0.0 0.0 0.0

-2.3976277493216028e6 265378.89595444023 0.0
265378.89595444023 -79459.46226422151 0.0
0.0 0.0 0.0

-7554.169466416439 387470.1447847183 0.0
387470.1447847183 -617701.189169865 0.0
0.0 0.0 0.0

-35834.9260240704 445778.3717997579 0.0
445778.3717997579 207130.5468567487 0.0
0.0 0.0 0.0

29212.150747072563 582643.2652292673 0.0
582643.2652292673 -47517.09196423365 0.0
0.0 0.0 0.0

-41154.8350323974 476685.7963538804 0.0
476685.7963538804 199471.98425319116 0.0
0.0 0.0 0.0

-60863.1699254345 519281.3786959744 0.0
519281.3786959744 15657.828388896934 0.0
0.0 0.0 0.0

56759.56944403153 530345.0604750024 0.0
530345.0604750024 -209349.41900778262 0.0
0.0 0.0 0.0

-24926.182728927466 335849.03406074445 0.0
335849.03406074445 294464.15454642655 0.0
0.0 0.0 0.0

6822.700847153261 173602.23961237626 0.0
173602.23961237626 746849.8907037338 0.0
0.0 0.0 0.0

11002.020499993003 282173.7009169012 0.0
282173.7009169012 -45886.48091938637 0.0
0.0 0.0 0.0

9933.09813053887 93515.32260757427 0.0
93515.32260757427 -233063.11070983825 0.0
0.0 0.0 0.0

764.5065969788702 400631.69905716786 0.0
400631.69905716786 -120410.13327133414 0.0
0.0 0.0 0.0

58818.80408038647 553599.2930424273 0.0
553599.2930424273 -249752.83478195337 0.0
0.0 0.0 0.0

-31735.583848048474 455454.43605389964 0.0
455454.43605389964 151162.04510779533 0.0
0.0 0.0 0.0

-8027.415552171597 350745.2717331846 0.0
350745.2717331846 -38680.150013483195 0.0
0.0 0.0 0.0

9031.555773955028 83019.17691965675 0.0
83019.17691965675 406288.566816232 0.0
0.0 0.0 0.0

-7889.247054837062 89966.26120644987 0.0
89966.26120644987 -292315.8310874637 0.0
0.0 0.0 0.0

15557.743871992396 170218.7360130592 0.0
170218.7360130592 997602.6234862667 0.0
0.0 0.0 0.0

-9540.030615359487 125473.18644005709 0.0
125473.18644005709 572393.3823149588 0.0
0.0 0.0 0.0

69154.79653025135 421295.7721579658 0.0
421295.7721579658 623559.5855003851 0.0
0.0 0.0 0.0

22071.985149974622 498399.2855940781 0.0
498399.2855940781 -179166.66903568676 0.0
0.0 0.0 0.0

-7565.632604611339 203670.04195254622 0.0
203670.04195254622 -193672.5920122854 0.0
0.0 0.0 0.0

19042.47753558599 167593.24593036415 0.0
167593.24593036415 1.078989140262834e6 0.0
0.0 0.0 0.0

38519.92103982215 594244.9624978892 0.0
594244.9624978892 -69242.59270773368 0.0
0.0 0.0 0.0

-14431.00143988576 308598.33355760033 0.0
308598.33355760033 84095.41154507229 0.0
0.0 0.0 0.0

8012.124493793817 200130.1186371155 0.0
200130.1186371155 89970.4338000264 0.0
0.0 0.0 0.0

-7244.253261295737 298614.3030563699 0.0
298614.3030563699 -74907.18127308281 0.0
0.0 0.0 0.0

-114218.43247572645 417261.35468125873 0.0
417261.35468125873 -766933.7768366192 0.0
0.0 0.0 0.0

-20778.054402901893 480668.38024704205 0.0
480668.38024704205 197509.33741353985 0.0
0.0 0.0 0.0

58396.44219837432 505315.6598466648 0.0
505315.6598466648 -331861.7423865701 0.0
0.0 0.0 0.0

184084.32333985716 360719.78019042104 0.0
360719.78019042104 1.6902753508888637e6 0.0
0.0 0.0 0.0

179804.4234656397 566560.8849076706 0.0
566560.8849076706 332896.72226940637 0.0
0.0 0.0 0.0

-20598.916145437397 282096.9738720405 0.0
282096.9738720405 434517.33426511294 0.0
0.0 0.0 0.0

12984.764850017731 293514.9013772188 0.0
293514.9013772188 -621084.7683569088 0.0
0.0 0.0 0.0

11565.514396494022 369148.95878717984 0.0
369148.95878717984 -10351.172758975303 0.0
0.0 0.0 0.0

113832.8145732911 589871.7401142076 0.0
589871.7401142076 -236990.5815569536 0.0
0.0 0.0 0.0

-49211.14779972486 644288.4795258727 0.0
644288.4795258727 123456.55455072949 0.0
0.0 0.0 0.0

21607.75185147881 630982.059009729 0.0
630982.059009729 -83216.6346712801 0.0
0.0 0.0 0.0

309.37630976834043 496038.60333666083 0.0
496038.60333666083 -385159.9424642537 0.0
0.0 0.0 0.0

11194.564814711886 335203.8520228642 0.0
335203.8520228642 -12066.593258016896 0.0
0.0 0.0 0.0

-40902.30207225605 496677.3384818471 0.0
496677.3384818471 170020.52894867098 0.0
0.0 0.0 0.0

-15128.392515716434 173137.5946106402 0.0
173137.5946106402 487672.14181007183 0.0
0.0 0.0 0.0

-7864.018722567955 89048.99049448928 0.0
89048.99049448928 -359364.79720935866 0.0
0.0 0.0 0.0

17225.230830255012 403243.0051547175 0.0
403243.0051547175 -65756.81099162048 0.0
0.0 0.0 0.0

15249.625780380797 199203.19156383656 0.0
199203.19156383656 -446027.0612271622 0.0
0.0 0.0 0.0

-4485.830765982086 491523.9006505802 0.0
491523.9006505802 99511.49077323562 0.0
0.0 0.0 0.0

9789.26334352808 183922.454240159 0.0
183922.454240159 57133.67722336608 0.0
0.0 0.0 0.0

52895.80920866583 757213.8893784364 0.0
757213.8893784364 -74814.869481366 0.0
0.0 0.0 0.0

-1.5376788177303332e6 151656.94928259068 0.0
151656.94928259068 -31.517274455574807 0.0
0.0 0.0 0.0

9836.939146355971 165768.11010786172 0.0
165768.11010786172 23649.944752294403 0.0
0.0 0.0 0.0

-133613.262624479 385076.6194139139 0.0
385076.6194139139 -973289.6313454709 0.0
0.0 0.0 0.0

80580.56800758702 555279.0824427383 0.0
555279.0824427383 -199480.3677328119 0.0
0.0 0.0 0.0

19997.092039757074 313524.8267589576 0.0
313524.8267589576 -228901.92375389923 0.0
0.0 0.0 0.0

28537.99488971918 450528.9253422355 0.0
450528.9253422355 -442894.7136887903 0.0
0.0 0.0 0.0

9928.068867321781 148294.03953754684 0.0
148294.03953754684 -9376.917686033757 0.0
0.0 0.0 0.0

13440.599858446803 157333.62490304362 0.0
157333.62490304362 -527749.6306412362 0.0
0.0 0.0 0.0

-7534.443143770319 673467.2566454812 0.0
673467.2566454812 -16770.564783212594 0.0
0.0 0.0 0.0

-8883.332593913861 90943.19759032992 0.0
90943.19759032992 -37864.768900765164 0.0
0.0 0.0 0.0

-4295.113620752018 221172.6602147554 0.0
221172.6602147554 -283152.51947335585 0.0
0.0 0.0 0.0

48868.56670255742 794684.5518028883 0.0
794684.5518028883 -55045.51217654905 0.0
0.0 0.0 0.0

148038.53072580937 536160.3020144732 0.0
536160.3020144732 63897.45918524282 0.0
0.0 0.0 0.0

124921.7743713077 639941.587621248 0.0
639941.587621248 -183107.69790308474 0.0
0.0 0.0 0.0

-10937.250321181957 184405.7293876829 0.0
184405.7293876829 -1.6133456083669963e6 0.0
0.0 0.0 0.0

21720.504844809824 346661.8672963733 0.0
346661.8672963733 708244.6785775119 0.0
0.0 0.0 0.0

-4232.806366383629 637887.361121261 0.0
637887.361121261 44063.150241896394 0.0
0.0 0.0 0.0

14257.283578663453 186389.8389367574 0.0
186389.8389367574 -360249.59350946394 0.0
0.0 0.0 0.0

8408.882843811863 129255.13205819624 0.0
129255.13205819624 -44832.8717826142 0.0
0.0 0.0 0.0

-9182.52041683792 184399.50544326386 0.0
184399.50544326386 -166719.16401174167 0.0
0.0 0.0 0.0

-109654.12284446653 743739.1680064562 0.0
743739.1680064562 117080.79641292902 0.0
0.0 0.0 0.0

6722.553557506675 92398.84060743143 0.0
92398.84060743143 589623.2956205211 0.0
0.0 0.0 0.0

-4782.659055371478 316942.5816161376 0.0
316942.5816161376 632654.2945056597 0.0
0.0 0.0 0.0

33868.52690008482 634522.4103412641 0.0
634522.4103412641 -43574.56834283408 0.0
0.0 0.0 0.0

28194.8080395594 371535.63329717645 0.0
371535.63329717645 -325495.31012964406 0.0
0.0 0.0 0.0

20398.30715181613 470009.0585188553 0.0
470009.0585188553 457852.3847605198 0.0
0.0 0.0 0.0

-7574.936669310853 384519.90543491754 0.0
384519.90543491754 -36642.93702354823 0.0
0.0 0.0 0.0

29767.404592802486 394424.48295456084 0.0
394424.48295456084 -234882.84763618404 0.0
0.0 0.0 0.0

-66957.32610168465 374168.89579327166 0.0
374168.89579327166 -785104.475122625 0.0
0.0 0.0 0.0

154390.90895902133 680457.946780338 0.0
680457.946780338 -154932.82904920488 0.0
0.0 0.0 0.0

-90319.21034162713 318876.92824678234 0.0
318876.92824678234 -1.157367677913272e6 0.0
0.0 0.0 0.0

-13780.329454466497 156585.66959057018 0.0
156585.66959057018 465695.85191073746 0.0
0.0 0.0 0.0

178515.5013799479 454836.70969140425 0.0
454836.70969140425 642610.6011387582 0.0
0.0 0.0 0.0

-121435.21768428452 708815.751328563 0.0
708815.751328563 123814.46567537026 0.0
0.0 0.0 0.0

-4667.430194629584 401569.8281464201 0.0
401569.8281464201 -63864.03800100068 0.0
0.0 0.0 0.0

188524.72120290765 582817.6559429317 0.0
582817.6559429317 -100549.27683412777 0.0
0.0 0.0 0.0

42368.536140392134 620572.6980686683 0.0
620572.6980686683 -66328.47037499951 0.0
0.0 0.0 0.0

-12331.019252322425 172576.28502968926 0.0
172576.28502968926 193720.0533545139 0.0
0.0 0.0 0.0

20351.616868083613 510244.70987086865 0.0
510244.70987086865 -345349.96411549085 0.0
0.0 0.0 0.0

24111.333588021458 348249.9359015711 0.0
348249.9359015711 -496717.81610414595 0.0
0.0 0.0 0.0

26771.05551061398 366089.16935091844 0.0
366089.16935091844 -454899.82738698914 0.0
0.0 0.0 0.0

3442.5374125206945 365048.4474581207 0.0
365048.4474581207 -184100.2647317554 0.0
0.0 0.0 0.0

530567.9885176338 715549.1845088591 0.0
715549.1845088591 -71420.55882254508 0.0
0.0 0.0 0.0

16149.29629520241 244000.7616468566 0.0
244000.7616468566 -247437.91043036 0.0
0.0 0.0 0.0

-8204.958149407365 73994.26660468939 0.0
73994.26660468939 -335586.8412366664 0.0
0.0 0.0 0.0

20528.689735378226 329246.4285049609 0.0
329246.4285049609 -535848.9070428789 0.0
0.0 0.0 0.0

-19776.007633265108 139791.91676892538 0.0
139791.91676892538 -1.204247063384398e6 0.0
0.0 0.0 0.0

-12731.467634971661 167630.7415499437 0.0
167630.7415499437 260054.5030340334 0.0
0.0 0.0 0.0

-35862.75360452581 552962.9391176256 0.0
552962.9391176256 87392.04191729252 0.0
0.0 0.0 0.0

708.6375695232709 75504.79967525174 0.0
75504.79967525174 -668197.3133915 0.0
0.0 0.0 0.0

-8173.557278066684 108440.2117062542 0.0
108440.2117062542 -256812.73499511834 0.0
0.0 0.0 0.0

20274.797778962806 368907.7459122103 0.0
368907.7459122103 -128343.61148338034 0.0
0.0 0.0 0.0

61279.21919734066 288942.46266755945 0.0
288942.46266755945 1.074992189903023e6 0.0
0.0 0.0 0.0

-63090.39644813146 522968.09114939964 0.0
522968.09114939964 310362.724268137 0.0
0.0 0.0 0.0

-12349.358253520004 193892.9324812077 0.0
193892.9324812077 158210.2353459382 0.0
0.0 0.0 0.0

-22996.461375149956 443691.25158238603 0.0
443691.25158238603 458117.257923526 0.0
0.0 0.0 0.0

11586.169159499259 110192.30734673521 0.0
110192.30734673521 -457702.504395337 0.0
0.0 0.0 0.0

14578.573905091878 311237.55801819864 0.0
311237.55801819864 -582019.7494122334 0.0
0.0 0.0 0.0

88596.73356484926 1.850539561436309e6 0.0
1.850539561436309e6 218170.08726946457 0.0
0.0 0.0 0.0

-16100.276554080025 281420.547654591 0.0
281420.547654591 179054.6664042767 0.0
0.0 0.0 0.0

-9990.152823000215 137571.17547246767 0.0
137571.17547246767 445113.93825205206 0.0
0.0 0.0 0.0

40547.99190658357 482492.2653744716 0.0
482492.2653744716 -367637.29019010847 0.0
0.0 0.0 0.0

31014.4775124249 385227.87243002316 0.0
385227.87243002316 -418201.12281143904 0.0
0.0 0.0 0.0

3668.6771571483223 36279.82126314248 0.0
36279.82126314248 -77161.51696825348 0.0
0.0 0.0 0.0

-4057.33392467838 31646.390298109036 0.0
31646.390298109036 63105.66581317031 0.0
0.0 0.0 0.0

-142502.8345603838 753446.1710456522 0.0
753446.1710456522 102653.68100329977 0.0
0.0 0.0 0.0

-31843.66267967898 434911.23984015215 0.0
434911.23984015215 181576.60022369385 0.0
0.0 0.0 0.0

-90386.17789189784 760675.7610380877 0.0
760675.7610380877 64161.83138071674 0.0
0.0 0.0 0.0

14916.058040030417 196062.0347847529 0.0
196062.0347847529 -508531.81885696936 0.0
0.0 0.0 0.0

-40177.00252116464 515795.2619249584 0.0
515795.2619249584 141162.28834102262 0.0
0.0 0.0 0.0

8029.553521118127 130531.84970274522 0.0
130531.84970274522 843852.1861191384 0.0
0.0 0.0 0.0

-1.9227553546609986e6 192687.43065284519 0.0
192687.43065284519 -2172.507379340357 0.0
0.0 0.0 0.0

-40484.04360795101 581458.5806807396 0.0
581458.5806807396 86716.86380680016 0.0
0.0 0.0 0.0

-32226.6340846768 462826.88188100624 0.0
462826.88188100624 417032.2033533768 0.0
0.0 0.0 0.0

99677.31111362408 687681.2420835152 0.0
687681.2420835152 -147072.05133239547 0.0
0.0 0.0 0.0

-7547.517551138109 90424.04533860782 0.0
90424.04533860782 -223360.19478095826 0.0
0.0 0.0 0.0

-20969.622651911064 330977.3962421997 0.0
330977.3962421997 203304.1272347209 0.0
0.0 0.0 0.0

-415267.04723312997 560760.9611224919 0.0
560760.9611224919 -259680.12720529136 0.0
0.0 0.0 0.0

-204739.47998692075 552828.962594691 0.0
552828.962594691 -256105.12661619988 0.0
0.0 0.0 0.0

12724.821395298262 132212.55620227085 0.0
132212.55620227085 -349366.99977480015 0.0
0.0 0.0 0.0

-43143.298859448434 483092.70865656616 0.0
483092.70865656616 378655.1599232976 0.0
0.0 0.0 0.0

32989.15438777446 457099.65603656357 0.0
457099.65603656357 -165668.67927456874 0.0
0.0 0.0 0.0

-19798.584015680244 97477.68770544077 0.0
97477.68770544077 -1.3297186493955702e6 0.0
0.0 0.0 0.0

-6297.270166521601 87873.51210416436 0.0
87873.51210416436 1.2496625775575265e6 0.0
0.0 0.0 0.0

15019.878957446446 205786.7549161236 0.0
205786.7549161236 -321532.93085581495 0.0
0.0 0.0 0.0

9087.655381614051 147729.2464544911 0.0
147729.2464544911 -818837.36742272 0.0
0.0 0.0 0.0

-4762.680209672275 511912.9949163473 0.0
511912.9949163473 -159481.90094186255 0.0
0.0 0.0 0.0

-44441.64001621411 268369.7766207558 0.0
268369.7766207558 -1.0856159756175762e6 0.0
0.0 0.0 0.0

97605.291817688 870474.2541293154 0.0
870474.2541293154 -74573.02325974162 0.0
0.0 0.0 0.0

103850.72099955127 345706.03784687136 0.0
345706.03784687136 1.0672354949698716e6 0.0
0.0 0.0 0.0

-8719.185246724694 89111.04329149921 0.0
89111.04329149921 1.1568575114557112e6 0.0
0.0 0.0 0.0

37237.82617409887 486360.32606112276 0.0
486360.32606112276 -159359.5492597536 0.0
0.0 0.0 0.0

-13535.249619004084 167622.23369776228 0.0
167622.23369776228 -1.0002428190210892e6 0.0
0.0 0.0 0.0

4580.8242759403 464435.9985096857 0.0
464435.9985096857 46081.290546038406 0.0
0.0 0.0 0.0

-31887.18258083593 524091.4765574467 0.0
524091.4765574467 88411.74596484946 0.0
0.0 0.0 0.0

3385.5214219825575 159209.555737506 0.0
159209.555737506 621493.2098320401 0.0
0.0 0.0 0.0

177444.0600962863 692952.4550788754 0.0
692952.4550788754 -147591.09562338074 0.0
0.0 0.0 0.0

43910.08697093354 524085.83343776385 0.0
524085.83343776385 -61562.93469765413 0.0
0.0 0.0 0.0

26212.33344140434 649192.2870260725 0.0
649192.2870260725 -20868.243075285478 0.0
0.0 0.0 0.0

-5894.582583112759 46782.61723945185 0.0
46782.61723945185 -1.2685777746738102e6 0.0
0.0 0.0 0.0

-38983.137455553886 534949.807058317 0.0
534949.807058317 112657.79002760281 0.0
0.0 0.0 0.0

21737.993119045612 328396.1502434162 0.0
328396.1502434162 -253450.21372852146 0.0
0.0 0.0 0.0

-12461.739924432339 235566.29219565037 0.0
235566.29219565037 89547.5388909583 0.0
0.0 0.0 0.0

12604.235310913611 319034.2818858424 0.0
319034.2818858424 -44017.05955703627 0.0
0.0 0.0 0.0

-11258.03055307141 129843.3087783405 0.0
129843.3087783405 269611.12765231804 0.0
0.0 0.0 0.0

58916.9584976653 501651.81999155495 0.0
501651.81999155495 -89509.71996276772 0.0
0.0 0.0 0.0

15800.743104418681 192122.57296612056 0.0
192122.57296612056 938087.8043720406 0.0
0.0 0.0 0.0

26651.25070570348 380773.3561639544 0.0
380773.3561639544 -211553.05406264676 0.0
0.0 0.0 0.0

-11069.157134354893 117414.42485770288 0.0
117414.42485770288 168609.85348775412 0.0
0.0 0.0 0.0

-163668.40658564208 771365.9537976291 0.0
771365.9537976291 103412.82144087643 0.0
0.0 0.0 0.0

67481.28250723511 623769.5633186203 0.0
623769.5633186203 -119234.81141089495 0.0
0.0 0.0 0.0

15331.828836596484 405386.45960876055 0.0
405386.45960876055 -521425.11088053556 0.0
0.0 0.0 0.0

15450.075401721784 224732.11272522697 0.0
224732.11272522697 -284185.02279090154 0.0
0.0 0.0 0.0

-22783.561823198514 594112.260896675 0.0
594112.260896675 105704.87926228423 0.0
0.0 0.0 0.0

-4770.219211315183 434319.8293260056 0.0
434319.8293260056 506512.6470228983 0.0
0.0 0.0 0.0

194117.30759305728 467091.6003356235 0.0
467091.6003356235 223319.9102851905 0.0
0.0 0.0 0.0

-23064.396250761987 176223.4235661316 0.0
176223.4235661316 -1.082213730843253e6 0.0
0.0 0.0 0.0

-25920.428403629325 509545.53568194073 0.0
509545.53568194073 189824.80431946283 0.0
0.0 0.0 0.0

-22478.596409587415 548706.6223658997 0.0
548706.6223658997 133312.45673343298 0.0
0.0 0.0 0.0

-17981.753581327794 236371.69907993986 0.0
236371.69907993986 428501.44275350013 0.0
0.0 0.0 0.0

115775.17457229896 895492.3089123401 0.0
895492.3089123401 -75944.7060816804 0.0
0.0 0.0 0.0

18543.859565707164 316957.61982762394 0.0
316957.61982762394 -168592.21148149075 0.0
0.0 0.0 0.0

-27890.121903549036 372096.1481904819 0.0
372096.1481904819 440682.3310367621 0.0
0.0 0.0 0.0

14662.23827371547 207509.37451487166 0.0
207509.37451487166 -259342.2746843239 0.0
0.0 0.0 0.0

7416.12803256818 174741.33850169159 0.0
174741.33850169159 191633.60622418066 0.0
0.0 0.0 0.0

-16774.069484190957 608903.2163520532 0.0
608903.2163520532 83184.89580022935 0.0
0.0 0.0 0.0

-23539.428114339906 635070.7483125346 0.0
635070.7483125346 81461.93375462027 0.0
0.0 0.0 0.0

24062.790574689257 366400.03689173306 0.0
366400.03689173306 -186615.82369002153 0.0
0.0 0.0 0.0

97487.22709974459 547054.0101883641 0.0
547054.0101883641 -80246.98170792536 0.0
0.0 0.0 0.0

462421.72251907253 747055.2512701203 0.0
747055.2512701203 -99629.85302789029 0.0
0.0 0.0 0.0

-122127.29920235211 563125.5865275145 0.0
563125.5865275145 164578.34221417064 0.0
0.0 0.0 0.0

-282872.8876193643 369696.0172700198 0.0
369696.0172700198 -1.1514740553304444e6 0.0
0.0 0.0 0.0

15499.342031774468 245832.01747331428 0.0
245832.01747331428 -185009.46110679075 0.0
0.0 0.0 0.0

8423.688985418645 136758.6549694876 0.0
136758.6549694876 774374.5483104776 0.0
0.0 0.0 0.0

-82464.44397637887 522235.43666265346 0.0
522235.43666265346 -48484.72835325008 0.0
0.0 0.0 0.0

-159698.4051260044 529849.5241037967 0.0
529849.5241037967 -36824.26412287149 0.0
0.0 0.0 0.0

-25223.064223081754 528121.8591603894 0.0
528121.8591603894 159726.9209201457 0.0
0.0 0.0 0.0

9738.058970329643 107643.03092848441 0.0
107643.03092848441 889796.8087679422 0.0
0.0 0.0 0.0

-190591.48959746776 788336.9840514691 0.0
788336.9840514691 103594.26837846832 0.0
0.0 0.0 0.0

-35003.729668046115 597933.1072784362 0.0
597933.1072784362 64186.05073184172 0.0
0.0 0.0 0.0

95960.88121616628 501648.17462955415 0.0
501648.17462955415 54735.328860544294 0.0
0.0 0.0 0.0

104103.53130099071 400251.5108725809 0.0
400251.5108725809 347011.7620674888 0.0
0.0 0.0 0.0

-26681.343740276163 489683.6822244964 0.0
489683.6822244964 219446.14167759006 0.0
0.0 0.0 0.0

-37701.11592826231 422138.1148248295 0.0
422138.1148248295 318103.4131118773 0.0
0.0 0.0 0.0

11106.311031063859 113872.26498803525 0.0
113872.26498803525 -323638.9148234781 0.0
0.0 0.0 0.0

38085.94505255125 660311.7170910084 0.0
660311.7170910084 -41527.10656947359 0.0
0.0 0.0 0.0

-8717.282480280817 320237.07594538963 0.0
320237.07594538963 497840.206665804 0.0
0.0 0.0 0.0

-10211.941038245655 63816.62697367482 0.0
63816.62697367482 -599327.3477107097 0.0
0.0 0.0 0.0

18464.490462991384 606084.0188289832 0.0
606084.0188289832 -88778.20332141123 0.0
0.0 0.0 0.0

-16595.716630264462 518969.2612629387 0.0
518969.2612629387 139808.164724598 0.0
0.0 0.0 0.0

-10425.964528338853 99552.37985834124 0.0
99552.37985834124 137659.34243060127 0.0
0.0 0.0 0.0

1088.6829869781068 250985.02288877597 0.0
250985.02288877597 -389784.0848760754 0.0
0.0 0.0 0.0

100440.79186855584 1.6124794425306844e6 0.0
1.6124794425306844e6 149246.95470255692 0.0
0.0 0.0 0.0

-25605.72826071293 162049.83890769398 0.0
162049.83890769398 -1.8850244092925407e6 0.0
0.0 0.0 0.0

-6524.5402965879475 96531.69208947576 0.0
96531.69208947576 -716560.7781152086 0.0
0.0 0.0 0.0

21835.397157820873 298167.88176277914 0.0
298167.88176277914 -453117.57850744925 0.0
0.0 0.0 0.0

-119943.7104643607 551781.4758183827 0.0
551781.4758183827 122556.89776530673 0.0
0.0 0.0 0.0

-13450.436684994958 360576.24453931564 0.0
360576.24453931564 -666102.122321399 0.0
0.0 0.0 0.0

14573.175538417614 228149.56195437972 0.0
228149.56195437972 -157923.00369442088 0.0
0.0 0.0 0.0

-11660.699318816107 218591.6979307157 0.0
218591.6979307157 58398.35837900604 0.0
0.0 0.0 0.0

156814.32567921333 431108.90337881696 0.0
431108.90337881696 593262.5773458364 0.0
0.0 0.0 0.0

93618.93632031459 350089.6411126565 0.0
350089.6411126565 987336.0243690163 0.0
0.0 0.0 0.0

412890.41147702234 323091.4650716505 0.0
323091.4650716505 142331.76147951395 0.0
0.0 0.0 0.0

-183189.37909657287 916572.902086359 0.0
916572.902086359 60231.728435985104 0.0
0.0 0.0 0.0

2259.892793404346 382940.3393227628 0.0
382940.3393227628 -151634.98096624634 0.0
0.0 0.0 0.0

-752975.4082609632 580831.7765543817 0.0
580831.7765543817 -130705.8841683335 0.0
0.0 0.0 0.0

29901.250725395774 428862.4157296755 0.0
428862.4157296755 -172167.11371876684 0.0
0.0 0.0 0.0

-16504.355511263122 539595.9321229665 0.0
539595.9321229665 111721.79736061144 0.0
0.0 0.0 0.0

15710.213208262852 318457.5403866407 0.0
318457.5403866407 -105536.05038270517 0.0
0.0 0.0 0.0

-69765.09654470359 398809.07704039017 0.0
398809.07704039017 -708332.3500107892 0.0
0.0 0.0 0.0

-7792.623120495264 83665.02815453772 0.0
83665.02815453772 -560202.8126779282 0.0
0.0 0.0 0.0

-16852.92126057064 249518.02405132932 0.0
249518.02405132932 -973115.3585999887 0.0
0.0 0.0 0.0

56037.646722374455 472051.07969058736 0.0
472051.07969058736 437101.5456927111 0.0
0.0 0.0 0.0

8828.633851384482 151236.21086438306 0.0
151236.21086438306 -652360.1570718514 0.0
0.0 0.0 0.0

29660.279217725358 614415.8999121464 0.0
614415.8999121464 -106603.36279250665 0.0
0.0 0.0 0.0

42871.69505421151 520823.3293933127 0.0
520823.3293933127 -249497.3006029936 0.0
0.0 0.0 0.0

-8376.66747713674 315866.9648816996 0.0
315866.9648816996 -41579.97436614565 0.0
0.0 0.0 0.0

-18321.22636570884 359066.57532018295 0.0
359066.57532018295 110252.35010935152 0.0
0.0 0.0 0.0

-25646.236375978362 384603.9407332856 0.0
384603.9407332856 459825.31274166174 0.0
0.0 0.0 0.0

16373.393110984878 218892.68833323952 0.0
218892.68833323952 -407052.4946938289 0.0
0.0 0.0 0.0

-224673.9767697222 1.0068412284532973e6 0.0
1.0068412284532973e6 64233.088052177234 0.0
0.0 0.0 0.0

-222671.06372677902 800878.9990621938 0.0
800878.9990621938 107151.16241121257 0.0
0.0 0.0 0.0

-21781.98490155916 407125.0241316506 0.0
407125.0241316506 480277.5981452371 0.0
0.0 0.0 0.0

-46654.34993687792 413804.1719770231 0.0
413804.1719770231 -155514.48219229348 0.0
0.0 0.0 0.0

35339.008016060805 403917.5421097451 0.0
403917.5421097451 -380548.37965530046 0.0
0.0 0.0 0.0

11318.304301123251 141935.2147010678 0.0
141935.2147010678 -575579.6725478667 0.0
0.0 0.0 0.0

-105291.43668764351 581231.5798251061 0.0
581231.5798251061 222262.39101321253 0.0
0.0 0.0 0.0

-15161.319112841826 214334.64030512486 0.0
214334.64030512486 560763.0153976025 0.0
0.0 0.0 0.0

225203.52929184012 764795.5541374502 0.0
764795.5541374502 -118115.86898171883 0.0
0.0 0.0 0.0

-2760.0625606869 89308.15438843328 0.0
89308.15438843328 1.5195576812050606e6 0.0
0.0 0.0 0.0

19531.923342685914 517262.28321829723 0.0
517262.28321829723 -150522.36152647113 0.0
0.0 0.0 0.0

-1266.8968156407936 45266.54613139108 0.0
45266.54613139108 808892.4019293501 0.0
0.0 0.0 0.0

7306.375175491805 120830.90918387673 0.0
120830.90918387673 397796.6975056099 0.0
0.0 0.0 0.0

10219.006247457888 94215.5634228223 0.0
94215.5634228223 -301872.6337810594 0.0
0.0 0.0 0.0

37532.35647397372 298874.98954885296 0.0
298874.98954885296 993589.3814416104 0.0
0.0 0.0 0.0

2732.074968569679 258927.50830543862 0.0
258927.50830543862 -778173.2098995659 0.0
0.0 0.0 0.0

31864.864611451132 609571.8348310747 0.0
609571.8348310747 -44869.877608173476 0.0
0.0 0.0 0.0

-27780.40351418411 575564.5366329049 0.0
575564.5366329049 130678.54399984937 0.0
0.0 0.0 0.0

11848.096234666173 402560.62375195266 0.0
402560.62375195266 -8922.903053570117 0.0
0.0 0.0 0.0

-45781.33076892169 580604.5043717397 0.0
580604.5043717397 176096.45186689135 0.0
0.0 0.0 0.0

-7654.568452567928 89664.77998100928 0.0
89664.77998100928 -109836.48253703557 0.0
0.0 0.0 0.0

-1872.4506423639396 496012.33594792156 0.0
496012.33594792156 -54326.13452430669 0.0
0.0 0.0 0.0

404259.34282255184 768572.5932100586 0.0
768572.5932100586 -111204.90747084597 0.0
0.0 0.0 0.0

10061.578212217159 205828.13385204584 0.0
205828.13385204584 -135404.02048451564 0.0
0.0 0.0 0.0

23536.080799136784 384318.46081986383 0.0
384318.46081986383 -154253.04487767216 0.0
0.0 0.0 0.0

-175864.84817007746 539114.4468243764 0.0
539114.4468243764 -188255.11016138247 0.0
0.0 0.0 0.0

9193.02263195415 384833.6812268836 0.0
384833.6812268836 19329.524355196387 0.0
0.0 0.0 0.0

421111.55134100735 612693.7141511597 0.0
612693.7141511597 14543.723872904258 0.0
0.0 0.0 0.0

-11041.38106737331 80358.0182665257 0.0
80358.0182665257 102888.35379507107 0.0
0.0 0.0 0.0

-9427.978057104163 83765.32585340322 0.0
83765.32585340322 -893301.0057701549 0.0
0.0 0.0 0.0

10217.939812750352 75275.06117197791 0.0
75275.06117197791 243126.1775176796 0.0
0.0 0.0 0.0

-10856.154752402608 201248.29657295957 0.0
201248.29657295957 26602.07768997205 0.0
0.0 0.0 0.0

-1203.3587590995994 417700.5527340446 0.0
417700.5527340446 -90237.39029362216 0.0
0.0 0.0 0.0

6316.437818557693 140671.07675736735 0.0
140671.07675736735 363262.1458597865 0.0
0.0 0.0 0.0

12022.520283713238 112637.65461581177 0.0
112637.65461581177 -190775.7399673034 0.0
0.0 0.0 0.0

42035.36721326069 526725.2755432564 0.0
526725.2755432564 -308952.13982203073 0.0
0.0 0.0 0.0

-10180.394481321237 184498.5345604416 0.0
184498.5345604416 -9635.531748273335 0.0
0.0 0.0 0.0

49638.07552772489 1.4344427526767754e6 0.0
1.4344427526767754e6 90681.12946038727 0.0
0.0 0.0 0.0

445022.1756382412 579092.289819091 0.0
579092.289819091 362152.65741334326 0.0
0.0 0.0 0.0

-9269.10802371292 165814.12702940084 0.0
165814.12702940084 -40107.21846008243 0.0
0.0 0.0 0.0

-5635.730226691798 316281.93434544915 0.0
316281.93434544915 329392.72891792905 0.0
0.0 0.0 0.0

823.2479182103016 50453.988004427854 0.0
50453.988004427854 -80635.35547402145 0.0
0.0 0.0 0.0

10741.200043761462 197994.3504858386 0.0
197994.3504858386 862316.260458043 0.0
0.0 0.0 0.0

-9338.706193606911 146053.27620813658 0.0
146053.27620813658 -73113.59678385191 0.0
0.0 0.0 0.0

-303769.7471548994 975717.4121104849 0.0
975717.4121104849 107407.21818282761 0.0
0.0 0.0 0.0

260827.97746974594 773989.4251517592 0.0
773989.4251517592 -116803.29406578209 0.0
0.0 0.0 0.0

11037.662278772565 122983.03075237178 0.0
122983.03075237178 -616176.1757195288 0.0
0.0 0.0 0.0

43254.26603741183 536984.6486559293 0.0
536984.6486559293 -220673.20520210324 0.0
0.0 0.0 0.0

-10657.373308872338 156271.84189213946 0.0
156271.84189213946 -899417.8970792915 0.0
0.0 0.0 0.0

-3884.8503851748537 434040.5949469699 0.0
434040.5949469699 -60981.203015033156 0.0
0.0 0.0 0.0

100736.20326975695 512195.602740984 0.0
512195.602740984 318355.4799217435 0.0
0.0 0.0 0.0

348231.39920748986 778085.5856605854 0.0
778085.5856605854 -114426.76600427848 0.0
0.0 0.0 0.0

9893.222907885582 188750.07633483934 0.0
188750.07633483934 -104558.09532103292 0.0
0.0 0.0 0.0

13357.258480307006 169705.59131281672 0.0
169705.59131281672 -272247.1323407536 0.0
0.0 0.0 0.0

11859.190368275793 264545.34769301815 0.0
264545.34769301815 -16031.693558072664 0.0
0.0 0.0 0.0

-271544.5143365284 809992.2008396604 0.0
809992.2008396604 107899.19089058874 0.0
0.0 0.0 0.0

-15793.60317332167 344118.6770630223 0.0
344118.6770630223 81295.4073840432 0.0
0.0 0.0 0.0

303801.051762432 943427.54233798 0.0
943427.54233798 -91914.59632509919 0.0
0.0 0.0 0.0

15112.362182873372 419564.2220600199 0.0
419564.2220600199 -36163.91857257152 0.0
0.0 0.0 0.0

218245.14685933202 414889.13402256457 0.0
414889.13402256457 791447.1567395378 0.0
0.0 0.0 0.0

-150331.5620994222 533723.302150139 0.0
533723.302150139 -121091.28339726522 0.0
0.0 0.0 0.0

15834.250201206134 661960.9787726473 0.0
661960.9787726473 1511.9229162814254 0.0
0.0 0.0 0.0

-19101.87425316473 505603.01873659546 0.0
505603.01873659546 -312072.84865646873 0.0
0.0 0.0 0.0

-85486.02476946692 322936.59201923636 0.0
322936.59201923636 -1.076041678831432e6 0.0
0.0 0.0 0.0

56612.62804683886 345787.14665497607 0.0
345787.14665497607 852148.1626634914 0.0
0.0 0.0 0.0

-1365.1287584432139 258388.98174455165 0.0
258388.98174455165 -271550.81181458425 0.0
0.0 0.0 0.0

6953.636051004723 203966.1408194343 0.0
203966.1408194343 786606.983510978 0.0
0.0 0.0 0.0

7122.091521142633 292567.858882373 0.0
292567.858882373 -680459.6354397887 0.0
0.0 0.0 0.0

-8786.41914663418 280224.46763024386 0.0
280224.46763024386 -42065.39490479833 0.0
0.0 0.0 0.0

-3294.0910040348244 48222.41966484338 0.0
48222.41966484338 -299624.41385330394 0.0
0.0 0.0 0.0

-18208.067227991833 462177.9948970101 0.0
462177.9948970101 47768.49988227496 0.0
0.0 0.0 0.0

-39683.3353121799 622388.2384796827 0.0
622388.2384796827 61477.36885504486 0.0
0.0 0.0 0.0

96249.96972621456 800395.7813806741 0.0
800395.7813806741 -87964.18603328006 0.0
0.0 0.0 0.0

-2861.2827675154876 465417.6406568763 0.0
465417.6406568763 -57638.83189631621 0.0
0.0 0.0 0.0

9890.4526021977 91475.45977885979 0.0
91475.45977885979 -163943.4639292025 0.0
0.0 0.0 0.0

300584.7450386878 778917.2631385648 0.0
778917.2631385648 -117335.27560749488 0.0
0.0 0.0 0.0

570.7059533581196 228922.89249663602 0.0
228922.89249663602 581778.1648269079 0.0
0.0 0.0 0.0

-21772.940018647932 159171.33694993367 0.0
159171.33694993367 -1.142926956707839e6 0.0
0.0 0.0 0.0

142144.21744807923 561439.6755939513 0.0
561439.6755939513 328350.51905304025 0.0
0.0 0.0 0.0

-89871.33837129381 696964.4166086306 0.0
696964.4166086306 102103.22895014164 0.0
0.0 0.0 0.0

-74506.7652462063 459578.33070462267 0.0
459578.33070462267 -303945.6024973326 0.0
0.0 0.0 0.0

82917.30158827189 357612.18751067045 0.0
357612.18751067045 913082.7656807151 0.0
0.0 0.0 0.0

-129706.08633228972 469194.13459186925 0.0
469194.13459186925 -432353.6280906172 0.0
0.0 0.0 0.0

-2106.223135196058 295745.6989523997 0.0
295745.6989523997 -200091.6111273059 0.0
0.0 0.0 0.0

113951.46682808007 452151.0484442588 0.0
452151.0484442588 477898.8239140531 0.0
0.0 0.0 0.0

35739.908290190215 1.3201214089837575e6 0.0
1.3201214089837575e6 70225.1448656576 0.0
0.0 0.0 0.0

-114047.77736716582 544166.3962015511 0.0
544166.3962015511 -276699.5775636958 0.0
0.0 0.0 0.0

1.8434883454246675e6 545268.7175468862 0.0
545268.7175468862 174287.38440805464 0.0
0.0 0.0 0.0

-6115.251280360879 334122.91765733977 0.0
334122.91765733977 -69646.55057680405 0.0
0.0 0.0 0.0

-15751.968381794268 479755.26945542387 0.0
479755.26945542387 20313.225469271663 0.0
0.0 0.0 0.0

15690.974138452031 355006.3724939138 0.0
355006.3724939138 -384756.478636756 0.0
0.0 0.0 0.0

108639.4263408713 821139.0599146435 0.0
821139.0599146435 -90109.35426894322 0.0
0.0 0.0 0.0

-10561.480314872286 119685.62357197372 0.0
119685.62357197372 -991938.0204011496 0.0
0.0 0.0 0.0

-8068.811206629987 162081.453188135 0.0
162081.453188135 -100778.14751453823 0.0
0.0 0.0 0.0

2440.5698228647816 261379.22238860693 0.0
261379.22238860693 -469712.29764676606 0.0
0.0 0.0 0.0

-58876.12700994876 523677.53311788966 0.0
523677.53311788966 318427.80526259914 0.0
0.0 0.0 0.0

-1166.3212849399988 525558.6466404378 0.0
525558.6466404378 -51369.543158272354 0.0
0.0 0.0 0.0

18712.771338374467 483012.0319470338 0.0
483012.0319470338 157657.35091873087 0.0
0.0 0.0 0.0

11047.01040217281 299655.1005788682 0.0
299655.1005788682 -14034.129722513844 0.0
0.0 0.0 0.0

16984.87032863126 482455.0296384885 0.0
482455.0296384885 -31295.860544832467 0.0
0.0 0.0 0.0

95589.65591220651 513988.0373795276 0.0
513988.0373795276 -63509.12295943226 0.0
0.0 0.0 0.0

42900.62174716209 1.237338251381501e6 0.0
1.237338251381501e6 64814.02332196469 0.0
0.0 0.0 0.0

18262.21461194331 512307.59256527235 0.0
512307.59256527235 -28910.14770867655 0.0
0.0 0.0 0.0

8643.268922744814 136355.69239953332 0.0
136355.69239953332 197500.80645755373 0.0
0.0 0.0 0.0

895790.7479573238 320891.8768873631 0.0
320891.8768873631 81148.1442243013 0.0
0.0 0.0 0.0

-54424.06378692464 220358.7714182671 0.0
220358.7714182671 -1.4298500878253656e6 0.0
0.0 0.0 0.0

-16097.863439393434 650263.4378100082 0.0
650263.4378100082 63645.05572087392 0.0
0.0 0.0 0.0

6402.493485857951 169733.8432976278 0.0
169733.8432976278 257656.09810296327 0.0
0.0 0.0 0.0

-3957.059420478752 318088.6352686072 0.0
318088.6352686072 -99140.57141398519 0.0
0.0 0.0 0.0

-3569.9194002430813 260198.544125717 0.0
260198.544125717 -209414.5198444596 0.0
0.0 0.0 0.0

35284.94312135798 1.1677894620927596e6 0.0
1.1677894620927596e6 39571.0308513452 0.0
0.0 0.0 0.0

-11500.196854546084 230066.04103620237 0.0
230066.04103620237 -826994.1400685271 0.0
0.0 0.0 0.0

-10734.34571716655 145930.83198385558 0.0
145930.83198385558 706770.3996138632 0.0
0.0 0.0 0.0

-135481.69564364693 535759.7184590854 0.0
535759.7184590854 -344105.80975202634 0.0
0.0 0.0 0.0

5834.60037177417 163374.28650700886 0.0
163374.28650700886 324207.3948835017 0.0
0.0 0.0 0.0

15780.466669612564 488569.91750558646 0.0
488569.91750558646 -156578.8778469063 0.0
0.0 0.0 0.0

-11447.586538222222 524174.63979221723 0.0
524174.63979221723 -2472.756004627574 0.0
0.0 0.0 0.0

10840.519268686563 393728.26903902827 0.0
393728.26903902827 -514835.4128615571 0.0
0.0 0.0 0.0

20232.731477684414 1.1096702979605843e6 0.0
1.1096702979605843e6 28670.811895103343 0.0
0.0 0.0 0.0

-72531.0149030801 544555.9566284657 0.0
544555.9566284657 288570.9444189063 0.0
0.0 0.0 0.0

19442.06609845295 541239.365866403 0.0
541239.365866403 -27092.247657621898 0.0
0.0 0.0 0.0

-11745.04367820447 137849.7768554878 0.0
137849.7768554878 -948898.7147080653 0.0
0.0 0.0 0.0

6189.67437943507 212574.57686460463 0.0
212574.57686460463 186316.48744586614 0.0
0.0 0.0 0.0

26438.687132025872 1.064021662085105e6 0.0
1.064021662085105e6 28748.97657238534 0.0
0.0 0.0 0.0

-21174.420635529095 200261.21998008306 0.0
200261.21998008306 -1.5164667895780099e6 0.0
0.0 0.0 0.0

28917.285473097712 1.0262878573809438e6 0.0
1.0262878573809438e6 24324.727355198498 0.0
0.0 0.0 0.0

26468.50647836519 991521.4826179879 0.0
991521.4826179879 17126.584532137145 0.0
0.0 0.0 0.0

-12500.401194291497 744372.159336381 0.0
744372.159336381 -9671.692363544777 0.0
0.0 0.0 0.0

-13773.320086799453 765734.2524930288 0.0
765734.2524930288 -7331.565176045993 0.0
0.0 0.0 0.0

-16430.31383343831 787225.1917160756 0.0
787225.1917160756 -6358.191901032935 0.0
0.0 0.0 0.0

-18522.31782720462 807838.530175115 0.0
807838.530175115 -7109.33912285438 0.0
0.0 0.0 0.0

-21124.644248040728 828873.7005422169 0.0
828873.7005422169 -6211.108494923268 0.0
0.0 0.0 0.0

-24436.939601166712 851176.0306044527 0.0
851176.0306044527 -9323.370944280443 0.0
0.0 0.0 0.0

-20425.800837704548 309404.70589606045 0.0
309404.70589606045 237152.37371288647 0.0
0.0 0.0 0.0

-23708.800905595286 873605.5211280107 0.0
873605.5211280107 -6847.170562645796 0.0
0.0 0.0 0.0

-30327.759277399415 896964.569754907 0.0
896964.569754907 -7238.27786320059 0.0
0.0 0.0 0.0

-14410.238400482398 362150.45969019155 0.0
362150.45969019155 496421.60779171565 0.0
0.0 0.0 0.0

23996.59453224323 960459.2643722704 0.0
960459.2643722704 16685.740233958415 0.0
0.0 0.0 0.0

-38495.88905550873 919270.4053560841 0.0
919270.4053560841 -7131.564782667816 0.0
0.0 0.0 0.0

-38488.31411508522 947011.1649041654 0.0
947011.1649041654 -3898.778540268271 0.0
0.0 0.0 0.0

23765.335071008485 933272.1975790708 0.0
933272.1975790708 14791.546929106486 0.0
0.0 0.0 0.0

14182.095770356169 386603.2502909015 0.0
386603.2502909015 -38471.85947855767 0.0
0.0 0.0 0.0

-48930.59755944406 976881.3282407441 0.0
976881.3282407441 -5840.462401493436 0.0
0.0 0.0 0.0

15714.415228797749 906537.5229323473 0.0
906537.5229323473 9428.68439169911 0.0
0.0 0.0 0.0

24438.711419729207 882822.335697568 0.0
882822.335697568 10514.46324798254 0.0
0.0 0.0 0.0

21652.93663992009 863003.9031393783 0.0
863003.9031393783 9721.6238015557 0.0
0.0 0.0 0.0

15709.26897298251 838887.6586039356 0.0
838887.6586039356 9479.868290260763 0.0
0.0 0.0 0.0

16421.33878525415 818485.6122257186 0.0
818485.6122257186 9331.274361213833 0.0
0.0 0.0 0.0

11718.935953358 797229.294198601 0.0
797229.294198601 9219.100434766471 0.0
0.0 0.0 0.0

13871.433121246313 776672.6608512695 0.0
776672.6608512695 9873.630991007503 0.0
0.0 0.0 0.0

14612.626600238209 755714.6620673417 0.0
755714.6620673417 8269.867976701697 0.0
0.0 0.0 0.0

11213.12239785309 621221.2399132972 0.0
621221.2399132972 -64280.81773570999 0.0
0.0 0.0 0.0

49523.49888547676 359720.63894363225 0.0
359720.63894363225 786037.7099163109 0.0
0.0 0.0 0.0

-61720.88660275223 1.0077711239084705e6 0.0
1.0077711239084705e6 -4698.927176400744 0.0
0.0 0.0 0.0

-4801.117240441061 168238.31739433247 0.0
168238.31739433247 -608468.3935828488 0.0
0.0 0.0 0.0

-13767.994352065289 584207.9867054328 0.0
584207.9867054328 84600.25119060201 0.0
0.0 0.0 0.0

-79017.37675308752 1.0452620532665052e6 0.0
1.0452620532665052e6 -631.3534732797998 0.0
0.0 0.0 0.0

-1446.3181258313998 251482.09016040064 0.0
251482.09016040064 538122.5758738623 0.0
0.0 0.0 0.0

-102683.39536657558 1.0885611433993962e6 0.0
1.0885611433993962e6 -3029.7179019699397 0.0
0.0 0.0 0.0

2606.123427161132 220016.74104460943 0.0
220016.74104460943 647931.9617501348 0.0
0.0 0.0 0.0

-130663.6540047382 1.1371945339645543e6 0.0
1.1371945339645543e6 -6662.503699263958 0.0
0.0 0.0 0.0

43683.24114044869 488187.79219881946 0.0
488187.79219881946 -371501.646399411 0.0
0.0 0.0 0.0

17160.6269999175 249692.70253088447 0.0
249692.70253088447 -450907.5767268329 0.0
0.0 0.0 0.0

-75090.11090773123 328688.4245570365 0.0
328688.4245570365 -989955.217667765 0.0
0.0 0.0 0.0

13355.920838015492 526973.6921546909 0.0
526973.6921546909 -3219.456715717226 0.0
0.0 0.0 0.0

6154.093155177645 397460.9929018337 0.0
397460.9929018337 -176263.1934900067 0.0
0.0 0.0 0.0

24700.845960342944 589115.1766417406 0.0
589115.1766417406 -114072.32530965272 0.0
0.0 0.0 0.0

43244.644727451 493226.20191379334 0.0
493226.20191379334 -372965.6661017032 0.0
0.0 0.0 0.0

1666.1037195284152 18734.377327295293 0.0
18734.377327295293 -815781.1889332782 0.0
0.0 0.0 0.0

2929.6443661312514 285836.26610759465 0.0
285836.26610759465 177937.70988715917 0.0
0.0 0.0 0.0

-159162.2007302655 1.19737230558074e6 0.0
1.19737230558074e6 2279.2242474886807 0.0
0.0 0.0 0.0

20999.00124362079 273879.4138243172 0.0
273879.4138243172 -353445.8508674914 0.0
0.0 0.0 0.0

5875.9283329328755 225673.55649552422 0.0
225673.55649552422 737352.0313172577 0.0
0.0 0.0 0.0

16072.073879515865 451621.38537016226 0.0
451621.38537016226 -33870.68572863333 0.0
0.0 0.0 0.0

46003.25399365186 836980.2821400445 0.0
836980.2821400445 -28768.283662706377 0.0
0.0 0.0 0.0

-5949.478463810461 148662.17913580473 0.0
148662.17913580473 -651346.9316829245 0.0
0.0 0.0 0.0

-413537.0158754818 984018.3233741531 0.0
984018.3233741531 114727.48088348971 0.0
0.0 0.0 0.0

-26700.923925498762 357647.0847702567 0.0
357647.0847702567 258491.93261834158 0.0
0.0 0.0 0.0

-431804.99611265643 632104.4436461513 0.0
632104.4436461513 22474.833208992757 0.0
0.0 0.0 0.0

114787.63906023267 443089.73628878605 0.0
443089.73628878605 418870.60511423746 0.0
0.0 0.0 0.0

-223521.2653626134 1.2806919415219002e6 0.0
1.2806919415219002e6 8525.17307080228 0.0
0.0 0.0 0.0

-12841.01800783127 264975.01895710005 0.0
264975.01895710005 -787640.5986385171 0.0
0.0 0.0 0.0

-22004.64609125023 353579.0886531018 0.0
353579.0886531018 170402.2122496835 0.0
0.0 0.0 0.0

41573.99149709747 447059.5839652796 0.0
447059.5839652796 138579.97839310675 0.0
0.0 0.0 0.0

-3171.237624955742 191847.04421860832 0.0
191847.04421860832 -506963.9729481287 0.0
0.0 0.0 0.0

54543.70774511855 517576.3245474043 0.0
517576.3245474043 128365.87881612971 0.0
0.0 0.0 0.0

-2603.6909213358886 188549.85913850565 0.0
188549.85913850565 -566839.1611147971 0.0
0.0 0.0 0.0

-2928.5379759981115 416056.94485525746 0.0
416056.94485525746 -81020.5766173838 0.0
0.0 0.0 0.0

7423.339737263305 540213.6519941039 0.0
540213.6519941039 22076.62598106149 0.0
0.0 0.0 0.0

-494.7831203114274 554149.0204072996 0.0
554149.0204072996 -48692.974505064456 0.0
0.0 0.0 0.0

-3334.7714254074235 199752.11608609708 0.0
199752.11608609708 -382052.6356557458 0.0
0.0 0.0 0.0

832725.4541945722 607809.6946215348 0.0
607809.6946215348 302488.6645404609 0.0
0.0 0.0 0.0

21938.67370115059 305765.83399743267 0.0
305765.83399743267 -339923.0926729724 0.0
0.0 0.0 0.0

22614.836651624864 401852.248155824 0.0
401852.248155824 -122519.65691784142 0.0
0.0 0.0 0.0

-125177.08784572963 558663.7775083187 0.0
558663.7775083187 134258.92154975387 0.0
0.0 0.0 0.0

15129.445442016367 265084.5711180377 0.0
265084.5711180377 -149534.31716541055 0.0
0.0 0.0 0.0

-86980.24447233342 565830.3531491735 0.0
565830.3531491735 257408.23151076457 0.0
0.0 0.0 0.0

206756.30802067416 381802.5088674211 0.0
381802.5088674211 839441.3703905295 0.0
0.0 0.0 0.0

-5289.7037654783635 284790.71097120136 0.0
284790.71097120136 429788.5330834767 0.0
0.0 0.0 0.0

-314712.8291477527 1.3755222938251586e6 0.0
1.3755222938251586e6 -979.5666424407536 0.0
0.0 0.0 0.0

181265.2692783028 380275.34638330905 0.0
380275.34638330905 1.3189591747788356e6 0.0
0.0 0.0 0.0

-12750.381831240957 382542.3439739104 0.0
382542.3439739104 21088.214897599475 0.0
0.0 0.0 0.0

387625.30080944503 523519.70625576883 0.0
523519.70625576883 160574.63920373225 0.0
0.0 0.0 0.0

-4854.740326096449 138171.34986021995 0.0
138171.34986021995 -753984.1814691287 0.0
0.0 0.0 0.0

-31963.836961035733 271758.1041462669 0.0
271758.1041462669 -920908.9247740885 0.0
0.0 0.0 0.0

-40856.74275581354 443858.449521115 0.0
443858.449521115 284648.43345906615 0.0
0.0 0.0 0.0

-426087.2187502355 591048.7343924752 0.0
591048.7343924752 -361047.11088533315 0.0
0.0 0.0 0.0

1513.210506656429 446671.85586406605 0.0
446671.85586406605 74069.41399953881 0.0
0.0 0.0 0.0

18901.27409768125 418829.9537285363 0.0
418829.9537285363 -273884.2966144905 0.0
0.0 0.0 0.0

-503807.61387661035 901062.1373238362 0.0
901062.1373238362 134039.67588359353 0.0
0.0 0.0 0.0

4049.2700759916333 275739.45480065705 0.0
275739.45480065705 -489634.7173002862 0.0
0.0 0.0 0.0

-322.2156833146146 477895.95873224415 0.0
477895.95873224415 72194.77176465877 0.0
0.0 0.0 0.0

6269.591404737264 191136.21956149364 0.0
191136.21956149364 221573.99135670534 0.0
0.0 0.0 0.0

-20732.74573398012 438518.80580295477 0.0
438518.80580295477 260465.23745443323 0.0
0.0 0.0 0.0

82430.00852714106 2.182142417574728e6 0.0
2.182142417574728e6 238306.61368951714 0.0
0.0 0.0 0.0

-7017.694679548309 306652.71582962514 0.0
306652.71582962514 391996.3918037245 0.0
0.0 0.0 0.0

-10929.397294479335 138935.34156648166 0.0
138935.34156648166 131795.44506941555 0.0
0.0 0.0 0.0

14503.029478678396 583871.1932453124 0.0
583871.1932453124 -12.127149934288354 0.0
0.0 0.0 0.0

-41087.898442482954 561253.7882039114 0.0
561253.7882039114 111656.82594234435 0.0
0.0 0.0 0.0

42202.17402025254 515644.5999155518 0.0
515644.5999155518 -151881.40339453478 0.0
0.0 0.0 0.0

-6848.1132457004705 568637.6352387202 0.0
568637.6352387202 -23554.72190155521 0.0
0.0 0.0 0.0

1898.8064183377137 99084.1915578628 0.0
99084.1915578628 427502.02922195895 0.0
0.0 0.0 0.0

7051.857050571623 478232.7025804208 0.0
478232.7025804208 -84321.0921641131 0.0
0.0 0.0 0.0

-47998.96870266689 587076.447405574 0.0
587076.447405574 111261.86091857924 0.0
0.0 0.0 0.0

-2077.1764217099408 238731.19784342844 0.0
238731.19784342844 -307410.05930017843 0.0
0.0 0.0 0.0

38534.383339741624 491168.1161113046 0.0
491168.1161113046 -50238.79278048032 0.0
0.0 0.0 0.0

-483790.21863630717 598026.8293201467 0.0
598026.8293201467 -33390.503051846215 0.0
0.0 0.0 0.0

-7845.617677984614 328539.83192000294 0.0
328539.83192000294 354829.9681709551 0.0
0.0 0.0 0.0

34040.72710663741 469490.2129733953 0.0
469490.2129733953 -406823.38945690385 0.0
0.0 0.0 0.0

-66056.51502228976 593633.906559385 0.0
593633.906559385 154044.79771076827 0.0
0.0 0.0 0.0

-2063.192318115529 16935.785307576487 0.0
16935.785307576487 -388754.59014863597 0.0
0.0 0.0 0.0

-1273.421922209891 17586.79079125922 0.0
17586.79079125922 309020.31662820245 0.0
0.0 0.0 0.0

2093.6421461092104 17489.636091204822 0.0
17489.636091204822 268387.13970371505 0.0
0.0 0.0 0.0

-2550.7267125267826 15241.060231684945 0.0
15241.060231684945 793995.2038819307 0.0
0.0 0.0 0.0

-433.2720692771327 16704.056156901308 0.0
16704.056156901308 186446.7408803213 0.0
0.0 0.0 0.0

-2050.733215734537 14967.76655793783 0.0
14967.76655793783 726485.9774934812 0.0
0.0 0.0 0.0

1980.57750591253 16648.46074379573 0.0
16648.46074379573 -269432.1872097623 0.0
0.0 0.0 0.0

-432.25654631244834 15964.033480450438 0.0
15964.033480450438 428594.8226948758 0.0
0.0 0.0 0.0

-3472.646805663011 15872.434413944227 0.0
15872.434413944227 543988.361607882 0.0
0.0 0.0 0.0

-1484.8951102746068 17892.14147977433 0.0
17892.14147977433 103940.64214910341 0.0
0.0 0.0 0.0

-1656.7728248500498 15808.226149095744 0.0
15808.226149095744 654493.5293161379 0.0
0.0 0.0 0.0

864.6433636406218 17590.2526588999 0.0
17590.2526588999 -146115.2975835125 0.0
0.0 0.0 0.0

1392.067093851666 19242.91172700253 0.0
19242.91172700253 -19138.743399028983 0.0
0.0 0.0 0.0

640.1133189126122 17373.01597234452 0.0
17373.01597234452 348374.36070296896 0.0
0.0 0.0 0.0

-306.36243983294116 16410.382192614652 0.0
16410.382192614652 -725866.524691188 0.0
0.0 0.0 0.0

2683.5595052819117 16559.02444132706 0.0
16559.02444132706 -794721.1906257877 0.0
0.0 0.0 0.0

-555.4567214699637 14761.934999336705 0.0
14761.934999336705 -653673.9235781981 0.0
0.0 0.0 0.0

4352.539044726669 17340.90486360055 0.0
17340.90486360055 -543395.4282132878 0.0
0.0 0.0 0.0

-2395.3175590438914 16957.948995787272 0.0
16957.948995787272 389812.3152583798 0.0
0.0 0.0 0.0

-324.5114408554509 15071.964763619735 0.0
15071.964763619735 689573.8285679568 0.0
0.0 0.0 0.0

822.6699620602303 17466.79650488577 0.0
17466.79650488577 -763311.8279467885 0.0
0.0 0.0 0.0

-3441.1248423191137 17204.0738168904 0.0
17204.0738168904 -467597.38808898145 0.0
0.0 0.0 0.0

427.31145148552605 17978.639463067022 0.0
17978.639463067022 -504713.8621546096 0.0
0.0 0.0 0.0

139.02080331603065 16421.162521188417 0.0
16421.162521188417 -429064.8133924078 0.0
0.0 0.0 0.0

38526.67167834558 423830.87794253725 0.0
423830.87794253725 -347405.06385172077 0.0
0.0 0.0 0.0

-3630.814378466108 273991.05093094415 0.0
273991.05093094415 496023.6894804148 0.0
0.0 0.0 0.0

-7861.661283274501 190085.68744380205 0.0
190085.68744380205 768058.6722627521 0.0
0.0 0.0 0.0

-97068.02508979794 588556.7658247759 0.0
588556.7658247759 232285.45680017798 0.0
0.0 0.0 0.0

-55685.9314706664 408478.7945058582 0.0
408478.7945058582 -647865.6434383701 0.0
0.0 0.0 0.0

-31189.41768651612 473942.7197376931 0.0
473942.7197376931 121200.17849625014 0.0
0.0 0.0 0.0

-456001.4181558417 1.5111367130672003e6 0.0
1.5111367130672003e6 -7437.464694864262 0.0
0.0 0.0 0.0

-13459.155210344852 415898.92355540063 0.0
415898.92355540063 21049.08970619754 0.0
0.0 0.0 0.0

-138619.57254368486 502831.0586080921 0.0
502831.0586080921 -388771.1066740365 0.0
0.0 0.0 0.0

359018.04950318875 576369.4685391543 0.0
576369.4685391543 370446.3598286195 0.0
0.0 0.0 0.0

-46864.7839199787 513001.5805997065 0.0
513001.5805997065 198282.500637847 0.0
0.0 0.0 0.0

-26657.9826096866 468784.0148965869 0.0
468784.0148965869 250315.42516697804 0.0
0.0 0.0 0.0

63578.2851040385 543991.6247675953 0.0
543991.6247675953 -276922.67217546323 0.0
0.0 0.0 0.0

-19422.161874962432 416915.3045508305 0.0
416915.3045508305 293955.935331946 0.0
0.0 0.0 0.0

-12776.405390706259 582820.4154959746 0.0
582820.4154959746 -1056.4449841772257 0.0
0.0 0.0 0.0

5120.209168276942 539034.2202991211 0.0
539034.2202991211 -74390.99199882937 0.0
0.0 0.0 0.0

-22836.056710369652 322325.5091188738 0.0
322325.5091188738 268345.90590469906 0.0
0.0 0.0 0.0

6953.7763761384995 379491.14014248224 0.0
379491.14014248224 -208276.67998348325 0.0
0.0 0.0 0.0

-1007.8399966627985 428469.38184040366 0.0
428469.38184040366 102667.32517161194 0.0
0.0 0.0 0.0

-2597.521292283578 219254.68064714735 0.0
219254.68064714735 -343712.9673069948 0.0
0.0 0.0 0.0

147.4694130885764 16422.44786247128 0.0
16422.44786247128 318868.50733792526 0.0
0.0 0.0 0.0

-57.241033796963166 17462.4444677861 0.0
17462.4444677861 278912.8424305975 0.0
0.0 0.0 0.0

527.6404532401357 14367.415791588164 0.0
14367.415791588164 654444.2437824294 0.0
0.0 0.0 0.0

528.7756120992126 17150.164938302296 0.0
17150.164938302296 361416.20094159804 0.0
0.0 0.0 0.0

606.4872542287776 14933.997289406498 0.0
14933.997289406498 397106.039805177 0.0
0.0 0.0 0.0

-1104.9845842852083 15899.949374977812 0.0
15899.949374977812 -727331.7487631267 0.0
0.0 0.0 0.0

-651.0913157200848 16084.803752113285 0.0
16084.803752113285 -756078.0184721401 0.0
0.0 0.0 0.0

1017.0030998390866 14151.071957389673 0.0
14151.071957389673 694600.2746364885 0.0
0.0 0.0 0.0

-1194.7176220440597 17195.482564014354 0.0
17195.482564014354 -514622.51613060094 0.0
0.0 0.0 0.0

1346.357981006906 18371.260402989585 0.0
18371.260402989585 -393362.4659033952 0.0
0.0 0.0 0.0

499.7479473192652 19286.361245775082 0.0
19286.361245775082 -465341.6192026089 0.0
0.0 0.0 0.0

1408.6632685316144 17165.346101140378 0.0
17165.346101140378 -427632.38054708287 0.0
0.0 0.0 0.0

-17391.489838222395 378675.907648814 0.0
378675.907648814 79084.33006504383 0.0
0.0 0.0 0.0

39913.53616447485 373875.598342047 0.0
373875.598342047 721660.5120943428 0.0
0.0 0.0 0.0

-21599.644356050092 405027.55601552984 0.0
405027.55601552984 350408.05317633535 0.0
0.0 0.0 0.0

9898.938024196075 104659.43313418597 0.0
104659.43313418597 -612576.5354276831 0.0
0.0 0.0 0.0

51035.78148215879 676206.2655436554 0.0
676206.2655436554 -102936.17348417293 0.0
0.0 0.0 0.0

74691.8289066805 448631.668689083 0.0
448631.668689083 562152.612999916 0.0
0.0 0.0 0.0

-16445.70839203612 311509.1730218055 0.0
311509.1730218055 556778.4490416459 0.0
0.0 0.0 0.0

-1606.2060770651442 211706.92511874394 0.0
211706.92511874394 -466442.63663361943 0.0
0.0 0.0 0.0

5979.98487176231 289325.7376075736 0.0
289325.7376075736 -505462.8652758364 0.0
0.0 0.0 0.0

3434.9313523444325 510145.0916402192 0.0
510145.0916402192 -77905.4515299156 0.0
0.0 0.0 0.0

69922.43321450631 430362.24320424785 0.0
430362.24320424785 636859.6473902373 0.0
0.0 0.0 0.0

4664.118548432365 249697.31070895013 0.0
249697.31070895013 181998.5882653805 0.0
0.0 0.0 0.0

41299.73681457689 533321.115566035 0.0
533321.115566035 -125227.50156584104 0.0
0.0 0.0 0.0

5025.800804629413 649841.506353096 0.0
649841.506353096 23639.9992624275 0.0
0.0 0.0 0.0

21893.059806871155 336546.35602962336 0.0
336546.35602962336 -332232.2485363043 0.0
0.0 0.0 0.0

13710.934385521623 555525.126317741 0.0
555525.126317741 -1576.2018132347066 0.0
0.0 0.0 0.0

131529.79906363678 62886.88439386811 0.0
62886.88439386811 27944.41407623262 0.0
0.0 0.0 0.0

53756.41081875545 442706.64823248767 0.0
442706.64823248767 577075.6219607547 0.0
0.0 0.0 0.0

-30535.55393710296 244293.53822920966 0.0
244293.53822920966 -1.122968966251533e6 0.0
0.0 0.0 0.0

-21098.883814811124 266634.8620232927 0.0
266634.8620232927 -853816.0855542895 0.0
0.0 0.0 0.0

36776.664322451725 504787.54402866797 0.0
504787.54402866797 -130678.77943517448 0.0
0.0 0.0 0.0

-244667.63075483957 592290.6592593095 0.0
592290.6592593095 83984.69423902388 0.0
0.0 0.0 0.0

11314.403302122562 112012.81134405748 0.0
112012.81134405748 -257807.81641170956 0.0
0.0 0.0 0.0

2863.0152349856726 414645.1050876305 0.0
414645.1050876305 75957.70725736559 0.0
0.0 0.0 0.0

-6750.4260220022425 539911.9979034481 0.0
539911.9979034481 -25630.12149024406 0.0
0.0 0.0 0.0

21084.535937863406 569708.3205994999 0.0
569708.3205994999 -24631.825250935333 0.0
0.0 0.0 0.0

-69879.18275304878 407822.7683436494 0.0
407822.7683436494 -723743.3592401994 0.0
0.0 0.0 0.0

-4850.9950194672565 282034.6769748449 0.0
282034.6769748449 -679445.3214695409 0.0
0.0 0.0 0.0

-14372.475237629857 267218.6425162104 0.0
267218.6425162104 150529.16968448614 0.0
0.0 0.0 0.0

-37922.91708258857 434559.9919035059 0.0
434559.9919035059 262907.77045642614 0.0
0.0 0.0 0.0

-27441.06128317915 363789.711169921 0.0
363789.711169921 -730479.5917231091 0.0
0.0 0.0 0.0

46981.3214736339 604391.0234351027 0.0
604391.0234351027 -90334.37375294138 0.0
0.0 0.0 0.0

1699.655228986674 17701.277956383343 0.0
17701.277956383343 -62366.248560765736 0.0
0.0 0.0 0.0

247593.48159171522 923558.2631102921 0.0
923558.2631102921 -84136.80925461357 0.0
0.0 0.0 0.0

12028.11724010235 132734.0421283312 0.0
132734.0421283312 -220867.3406685345 0.0
0.0 0.0 0.0

13578.10941324703 352774.90865112335 0.0
352774.90865112335 -40564.55940047502 0.0
0.0 0.0 0.0

-60135.649619778706 512577.9911080759 0.0
512577.9911080759 291271.3557071154 0.0
0.0 0.0 0.0

4209.720651719366 326493.0521649594 0.0
326493.0521649594 111783.43999035364 0.0
0.0 0.0 0.0

-10211.837103063335 400361.2304535244 0.0
400361.2304535244 -7248.422921056326 0.0
0.0 0.0 0.0

-13102.051298053988 553306.3288907558 0.0
553306.3288907558 -771.2727975121034 0.0
0.0 0.0 0.0

-13300.018335638932 230723.120692542 0.0
230723.120692542 153990.94740731176 0.0
0.0 0.0 0.0

802.5080357128172 74236.38279182078 0.0
74236.38279182078 416415.8629852044 0.0
0.0 0.0 0.0

-15239.004538734269 406574.6417718585 0.0
406574.6417718585 270946.12741538126 0.0
0.0 0.0 0.0

-15231.028551681891 469147.10624064563 0.0
469147.10624064563 174946.56421143867 0.0
0.0 0.0 0.0

-10124.19857238538 125860.30010759462 0.0
125860.30010759462 -105469.53603913788 0.0
0.0 0.0 0.0

-9845.17361955336 351192.8755508977 0.0
351192.8755508977 317262.8490480302 0.0
0.0 0.0 0.0

515.2946982598005 582593.4045051273 0.0
582593.4045051273 -46425.79235320468 0.0
0.0 0.0 0.0

10608.135994847777 203808.82368558648 0.0
203808.82368558648 -739795.0070203514 0.0
0.0 0.0 0.0

-217686.24055632183 596792.14648804 0.0
596792.14648804 68911.65982902356 0.0
0.0 0.0 0.0

1708.8086925488642 480276.71109213406 0.0
480276.71109213406 -81772.83455081815 0.0
0.0 0.0 0.0

-197.64178895131045 17589.639107364266 0.0
17589.639107364266 -42045.305540662135 0.0
0.0 0.0 0.0

-125707.44483533916 658603.2921411514 0.0
658603.2921411514 164126.72046055482 0.0
0.0 0.0 0.0

-16381.454454145278 223037.12518523776 0.0
223037.12518523776 494087.3620315985 0.0
0.0 0.0 0.0

-7030.0680388373485 449721.2452617205 0.0
449721.2452617205 -33054.8067208069 0.0
0.0 0.0 0.0

24071.9968495899 623444.726578198 0.0
623444.726578198 -21950.822728282372 0.0
0.0 0.0 0.0

-16265.347192800053 637401.0897767164 0.0
637401.0897767164 2506.1789209283706 0.0
0.0 0.0 0.0

6899.1394333423195 567355.1665210926 0.0
567355.1665210926 -71400.37035707221 0.0
0.0 0.0 0.0

840.6607567389074 552434.7017940264 0.0
552434.7017940264 46131.424396269365 0.0
0.0 0.0 0.0

833.4688119697239 16972.549452435753 0.0
16972.549452435753 -186799.92094725848 0.0
0.0 0.0 0.0

66772.54789369069 738433.3759104683 0.0
738433.3759104683 -93309.92654605683 0.0
0.0 0.0 0.0

-458463.01182509057 425348.1275296066 0.0
425348.1275296066 -1.9715290633865418e6 0.0
0.0 0.0 0.0

484438.5820501906 428859.64472713915 0.0
428859.64472713915 1.9853936286148329e6 0.0
0.0 0.0 0.0

15494.965082394716 374354.52162225003 0.0
374354.52162225003 -468482.15991788794 0.0
0.0 0.0 0.0

37370.59542757837 550198.4219900253 0.0
550198.4219900253 -98611.94333875016 0.0
0.0 0.0 0.0

-148206.2592956652 402535.8587858439 0.0
402535.8587858439 -597507.1125251374 0.0
0.0 0.0 0.0

281.38617159545174 449507.36169252824 0.0
449507.36169252824 -86071.59888657644 0.0
0.0 0.0 0.0

79863.81209102513 552328.03699813 0.0
552328.03699813 -279833.4711812392 0.0
0.0 0.0 0.0

4485.6517218078225 415386.3352711617 0.0
415386.3352711617 -145268.0186433126 0.0
0.0 0.0 0.0

-16480.043264280357 538194.7395215562 0.0
538194.7395215562 22364.09791086981 0.0
0.0 0.0 0.0

-24035.002910550567 213379.19001107855 0.0
213379.19001107855 -1.4185353661451058e6 0.0
0.0 0.0 0.0

-228388.03483414638 565711.7969649602 0.0
565711.7969649602 55060.13664465702 0.0
0.0 0.0 0.0

-45396.3765352843 524666.1635461529 0.0
524666.1635461529 165134.71082424364 0.0
0.0 0.0 0.0

20638.137182413935 418985.93449317396 0.0
418985.93449317396 -92245.71190367147 0.0
0.0 0.0 0.0

-947.5303359671962 300661.62486069364 0.0
300661.62486069364 -632553.38587485 0.0
0.0 0.0 0.0

489852.1239830595 439415.3821855022 0.0
439415.3821855022 1.6328403877989089e6 0.0
0.0 0.0 0.0

62047.94319389214 571519.6363584775 0.0
571519.6363584775 -176882.0789713953 0.0
0.0 0.0 0.0

-741692.3371922412 1.719703391320673e6 0.0
1.719703391320673e6 20050.598848892114 0.0
0.0 0.0 0.0

10769.996723875869 354795.1275026148 0.0
354795.1275026148 -507248.9638492082 0.0
0.0 0.0 0.0

26474.998026181267 554662.46342175 0.0
554662.46342175 -50156.48000166772 0.0
0.0 0.0 0.0

-313.52711079890287 16288.25898133566 0.0
16288.25898133566 -161914.33350808633 0.0
0.0 0.0 0.0

-3861.4951503313205 169947.96788315324 0.0
169947.96788315324 -722380.546511068 0.0
0.0 0.0 0.0

6705.370949855248 624274.8401274324 0.0
624274.8401274324 23692.12612129376 0.0
0.0 0.0 0.0

-230579.04533858068 408806.7091071586 0.0
408806.7091071586 -1.1655011289527025e6 0.0
0.0 0.0 0.0

18670.09576379991 435648.8220537989 0.0
435648.8220537989 -62550.88405439804 0.0
0.0 0.0 0.0

18110.88160519676 279543.4712541127 0.0
279543.4712541127 -237754.4684259092 0.0
0.0 0.0 0.0

-1292.1008950924443 356133.49146788043 0.0
356133.49146788043 168521.5281903408 0.0
0.0 0.0 0.0

8258.131414962292 336991.0928399571 0.0
336991.0928399571 -548475.013165182 0.0
0.0 0.0 0.0

-19080.84588984048 338849.79221908684 0.0
338849.79221908684 142548.4589325294 0.0
0.0 0.0 0.0

24663.476530567335 451243.3588060673 0.0
451243.3588060673 -443847.77079478756 0.0
0.0 0.0 0.0

-708277.2626137818 665785.3741226067 0.0
665785.3741226067 -411132.2573139542 0.0
0.0 0.0 0.0

-2288.691847277776 15858.477181530805 0.0
15858.477181530805 467179.5408437397 0.0
0.0 0.0 0.0

-4643.1523010665405 348931.4001455779 0.0
348931.4001455779 229751.23175116058 0.0
0.0 0.0 0.0

7246.12374211809 568637.8223664149 0.0
568637.8223664149 23573.63293211165 0.0
0.0 0.0 0.0

14770.431360309478 79517.96810142905 0.0
79517.96810142905 1.31971918706809e6 0.0
0.0 0.0 0.0

72021.82192613193 473488.8269185673 0.0
473488.8269185673 373320.4442525023 0.0
0.0 0.0 0.0

2625.567398117353 432631.67443767964 0.0
432631.67443767964 -115379.02468805932 0.0
0.0 0.0 0.0

73255.79473470469 550882.6705215249 0.0
550882.6705215249 -252292.12078774834 0.0
0.0 0.0 0.0

23391.25437427628 480573.27599828446 0.0
480573.27599828446 -205651.37951376865 0.0
0.0 0.0 0.0

-2775.7657412081826 333713.71947896 0.0
333713.71947896 -129670.8796778179 0.0
0.0 0.0 0.0

16483.513675150592 534551.724457346 0.0
534551.724457346 -123124.71179780479 0.0
0.0 0.0 0.0

-26655.626759292747 434583.0058971343 0.0
434583.0058971343 336522.55228455894 0.0
0.0 0.0 0.0

-2707.848968031205 459975.44117698376 0.0
459975.44117698376 100030.94739398616 0.0
0.0 0.0 0.0

-10684.63883770294 433245.45034611627 0.0
433245.45034611627 -6899.446942071834 0.0
0.0 0.0 0.0

-1477.634259061946 174573.68505936195 0.0
174573.68505936195 -968529.907557379 0.0
0.0 0.0 0.0

-157790.99099966348 668684.9882199843 0.0
668684.9882199843 162493.88485520042 0.0
0.0 0.0 0.0

6919.207297025045 77174.21492771007 0.0
77174.21492771007 304768.6917291304 0.0
0.0 0.0 0.0

-23221.030407062193 426145.6356261069 0.0
426145.6356261069 315727.12195743324 0.0
0.0 0.0 0.0

16367.841475314992 281893.47442425386 0.0
281893.47442425386 -177531.01466047956 0.0
0.0 0.0 0.0

-4449.594842042279 43405.91155732251 0.0
43405.91155732251 -572797.9874535486 0.0
0.0 0.0 0.0

2989.078764031001 317672.0353284067 0.0
317672.0353284067 -592398.6136440769 0.0
0.0 0.0 0.0

-11797.291454713348 155801.81313182064 0.0
155801.81313182064 163083.4059687378 0.0
0.0 0.0 0.0

645.5896143089631 296314.9334806097 0.0
296314.9334806097 734841.2122206783 0.0
0.0 0.0 0.0

7076.7440743318 493994.392392236 0.0
493994.392392236 -105255.62060808692 0.0
0.0 0.0 0.0

1099.5601838267175 14614.198178514996 0.0
14614.198178514996 438527.274107488 0.0
0.0 0.0 0.0

-16673.571672660117 303467.01400611806 0.0
303467.01400611806 146533.0608604098 0.0
0.0 0.0 0.0

78099.43407993198 570257.0690005255 0.0
570257.0690005255 -223844.67151850718 0.0
0.0 0.0 0.0

-82193.3828649895 464954.6718850333 0.0
464954.6718850333 -499594.4764283415 0.0
0.0 0.0 0.0

3517.8128556216107 286372.66701448895 0.0
286372.66701448895 -375325.89629714814 0.0
0.0 0.0 0.0

-7629.2786184744145 199282.28577232047 0.0
199282.28577232047 -95865.82242953987 0.0
0.0 0.0 0.0

20226.781423744716 466876.56261384994 0.0
466876.56261384994 -59167.23353678055 0.0
0.0 0.0 0.0

65878.02057654446 401764.5355346534 0.0
401764.5355346534 701883.5352837393 0.0
0.0 0.0 0.0

-7722.299454898259 648702.6449658455 0.0
648702.6449658455 -18727.49937566873 0.0
0.0 0.0 0.0

-27082.0607540778 436457.68858796015 0.0
436457.68858796015 450291.9327931447 0.0
0.0 0.0 0.0

-44532.83966180714 512253.92652083456 0.0
512253.92652083456 275296.9226683578 0.0
0.0 0.0 0.0

-1539.603358695771 240315.7137711327 0.0
240315.7137711327 -180436.1748832068 0.0
0.0 0.0 0.0

862.6641047496669 321369.8468948968 0.0
321369.8468948968 173321.0486164036 0.0
0.0 0.0 0.0

61944.29617428215 461486.6229199596 0.0
461486.6229199596 368546.6844015806 0.0
0.0 0.0 0.0

-3584.2344933103595 351474.7591218407 0.0
351474.7591218407 -97668.96963683085 0.0
0.0 0.0 0.0

-22204.76637253887 373158.194968948 0.0
373158.194968948 -666104.1091451538 0.0
0.0 0.0 0.0

22081.785763116895 497001.4605964511 0.0
497001.4605964511 -55807.200704262024 0.0
0.0 0.0 0.0

19598.740645251703 393312.3378362624 0.0
393312.3378362624 -431495.8377283002 0.0
0.0 0.0 0.0

-556.5490003100203 376171.0733825638 0.0
376171.0733825638 136299.54431157402 0.0
0.0 0.0 0.0

-258280.37239382075 379053.4843520843 0.0
379053.4843520843 -877698.1772258156 0.0
0.0 0.0 0.0

24197.103437441918 526217.7170726014 0.0
526217.7170726014 -52938.53260131051 0.0
0.0 0.0 0.0

244911.5340951982 534066.6435694431 0.0
534066.6435694431 41665.99883882084 0.0
0.0 0.0 0.0

21122.871360023157 117353.27648417042 0.0
117353.27648417042 1.2920323832803634e6 0.0
0.0 0.0 0.0

-286939.32679843105 972848.4598226243 0.0
972848.4598226243 107914.17256677612 0.0
0.0 0.0 0.0

-51687.687047041545 520885.93214683933 0.0
520885.93214683933 231306.7004763151 0.0
0.0 0.0 0.0

34841.77991318834 311744.4356324417 0.0
311744.4356324417 836499.2506010645 0.0
0.0 0.0 0.0

-86966.94000461158 591352.9490760633 0.0
591352.9490760633 218086.30170935395 0.0
0.0 0.0 0.0

4108.633550920014 381395.1797223565 0.0
381395.1797223565 77732.67441615729 0.0
0.0 0.0 0.0

24444.93223085542 433226.4337248037 0.0
433226.4337248037 -117270.25655628889 0.0
0.0 0.0 0.0

25317.532116148064 480729.3879033923 0.0
480729.3879033923 -83362.01451709156 0.0
0.0 0.0 0.0

8426.676286327716 221164.15281273887 0.0
221164.15281273887 55535.62543005472 0.0
0.0 0.0 0.0

82191.6348817394 590445.6658729487 0.0
590445.6658729487 -198177.26218518702 0.0
0.0 0.0 0.0

-7387.784760857088 120486.39859019198 0.0
120486.39859019198 -544661.3658143957 0.0
0.0 0.0 0.0

-7653.358938089863 109258.63220950136 0.0
109258.63220950136 -191189.60078559688 0.0
0.0 0.0 0.0

-45981.57612433366 495945.2290236331 0.0
495945.2290236331 323050.68876423343 0.0
0.0 0.0 0.0

2982.9390795249947 635535.8401800722 0.0
635535.8401800722 -42106.58339878997 0.0
0.0 0.0 0.0

222347.43562257788 546676.1979535022 0.0
546676.1979535022 -15233.260580330534 0.0
0.0 0.0 0.0

-328764.3156526437 633256.1273007861 0.0
633256.1273007861 66355.68265834241 0.0
0.0 0.0 0.0

-8955.668217885293 107040.07377240463 0.0
107040.07377240463 -323957.4723203106 0.0
0.0 0.0 0.0

-5408.027401089439 368197.22261433955 0.0
368197.22261433955 -66830.45212238046 0.0
0.0 0.0 0.0

1.4776871199950979e6 451458.0597546644 0.0
451458.0597546644 105985.54094924312 0.0
0.0 0.0 0.0

-5985.406057045206 210380.2058030637 0.0
210380.2058030637 -129567.50159147062 0.0
0.0 0.0 0.0

-7415.0590552177455 130804.48534665305 0.0
130804.48534665305 -693526.3493884068 0.0
0.0 0.0 0.0

29177.363662202377 388206.2167478254 0.0
388206.2167478254 663096.568088156 0.0
0.0 0.0 0.0

23133.613836192817 421314.1008563996 0.0
421314.1008563996 -469664.2033080569 0.0
0.0 0.0 0.0

649.8153237796505 247424.66080849036 0.0
247424.66080849036 446405.24613135256 0.0
0.0 0.0 0.0

-435290.10775833117 899508.6050297887 0.0
899508.6050297887 113692.12607333384 0.0
0.0 0.0 0.0

18779.30142656513 402966.9590355613 0.0
402966.9590355613 608920.1076491786 0.0
0.0 0.0 0.0

-106974.84577479183 611667.286626241 0.0
611667.286626241 207961.25784215113 0.0
0.0 0.0 0.0

-618124.3103199074 600234.6149730425 0.0
600234.6149730425 -399698.40859345836 0.0
0.0 0.0 0.0

-16960.118348750988 430468.23988879274 0.0
430468.23988879274 48831.19847105288 0.0
0.0 0.0 0.0

1.404219524711514e6 154394.88976652126 0.0
154394.88976652126 24104.351012223342 0.0
0.0 0.0 0.0

42589.029604380885 500873.75307984167 0.0
500873.75307984167 -179696.8764043008 0.0
0.0 0.0 0.0

-40253.32734988384 412858.16148020216 0.0
412858.16148020216 -12812.395086905468 0.0
0.0 0.0 0.0

84091.14060870881 609517.0613456584 0.0
609517.0613456584 -171902.7565507426 0.0
0.0 0.0 0.0

-385565.3136373495 528205.7697968706 0.0
528205.7697968706 -176409.03651974798 0.0
0.0 0.0 0.0

10012.25773635626 186345.45529312457 0.0
186345.45529312457 -5930.941071744601 0.0
0.0 0.0 0.0

-46829.3477129418 506155.6645023638 0.0
506155.6645023638 334673.03538200335 0.0
0.0 0.0 0.0

-123166.24078730468 418270.33145422104 0.0
418270.33145422104 -547715.5169665135 0.0
0.0 0.0 0.0

-8084.737000818073 153141.68731757643 0.0
153141.68731757643 795913.2784131328 0.0
0.0 0.0 0.0

-6733.491850430151 623335.0038612331 0.0
623335.0038612331 -20987.83333502836 0.0
0.0 0.0 0.0

6343.050770475898 400004.56876285403 0.0
400004.56876285403 48105.47429309593 0.0
0.0 0.0 0.0

15809.593364350214 636954.3357856247 0.0
636954.3357856247 383.00789720501416 0.0
0.0 0.0 0.0

37103.244954609574 439030.541589388 0.0
439030.541589388 -244230.8313058244 0.0
0.0 0.0 0.0

5674.019761680625 185248.43339002295 0.0
185248.43339002295 286276.5189498458 0.0
0.0 0.0 0.0

-74712.25724057863 616446.403004505 0.0
616446.403004505 149829.9505046389 0.0
0.0 0.0 0.0

-42649.888835596415 487216.406971748 0.0
487216.406971748 384790.3079482933 0.0
0.0 0.0 0.0

-36569.22927598658 484616.56010241277 0.0
484616.56010241277 289154.3762089102 0.0
0.0 0.0 0.0

14550.270670901613 336116.3225137568 0.0
336116.3225137568 -71656.17294946515 0.0
0.0 0.0 0.0

-10093.216240537178 281386.8900666292 0.0
281386.8900666292 -737714.5846774953 0.0
0.0 0.0 0.0

-22478.151903951297 475827.02812938794 0.0
475827.02812938794 72733.15140158882 0.0
0.0 0.0 0.0

42549.75503426121 487521.4826666101 0.0
487521.4826666101 -322138.3904529037 0.0
0.0 0.0 0.0

22185.852160504117 432007.0954969796 0.0
432007.0954969796 -292701.06064404745 0.0
0.0 0.0 0.0

54333.9955779788 655451.6088218621 0.0
655451.6088218621 -127081.34243131221 0.0
0.0 0.0 0.0

27987.24060073316 509448.03443091916 0.0
509448.03443091916 -196489.22079463187 0.0
0.0 0.0 0.0

5392.221014282113 291166.00796665164 0.0
291166.00796665164 -563645.4738217837 0.0
0.0 0.0 0.0

9103.517781053622 110769.91394868547 0.0
110769.91394868547 -80224.76565917543 0.0
0.0 0.0 0.0

9708.757558295256 118675.41045599597 0.0
118675.41045599597 167150.488007674 0.0
0.0 0.0 0.0

52495.19204988595 898518.1249726758 0.0
898518.1249726758 -13732.018553566482 0.0
0.0 0.0 0.0

-20613.0518399461 444319.7609967377 0.0
444319.7609967377 75498.44322678656 0.0
0.0 0.0 0.0

23033.05864514882 545480.8484989131 0.0
545480.8484989131 -145398.59169321394 0.0
0.0 0.0 0.0

5481.19914281051 51502.0401232305 0.0
51502.0401232305 -315539.68891345663 0.0
0.0 0.0 0.0

11525.994015524513 160448.3060501023 0.0
160448.3060501023 1.3197558227763495e6 0.0
0.0 0.0 0.0

-1648.3132792726974 215640.05338612557 0.0
215640.05338612557 -405126.3344521739 0.0
0.0 0.0 0.0

267213.05659020937 672574.5076548378 0.0
672574.5076548378 -117718.63032633193 0.0
0.0 0.0 0.0

107065.31779292719 704580.8172654861 0.0
704580.8172654861 -117495.49118378464 0.0
0.0 0.0 0.0

-74668.72757842725 635927.7126927582 0.0
635927.7126927582 127374.65847945769 0.0
0.0 0.0 0.0

-2380.539844363462 57368.39315998288 0.0
57368.39315998288 -854229.299048364 0.0
0.0 0.0 0.0

34416.21169955515 566981.1404680714 0.0
566981.1404680714 -72674.39239005337 0.0
0.0 0.0 0.0

54308.96114018889 612184.5068248035 0.0
612184.5068248035 -111606.31339268023 0.0
0.0 0.0 0.0

-7281.486492182099 155096.50803801965 0.0
155096.50803801965 -768632.0900229146 0.0
0.0 0.0 0.0

30178.97408151726 706810.5901928025 0.0
706810.5901928025 -64733.42671857534 0.0
0.0 0.0 0.0

145775.9613561437 566986.0290884711 0.0
566986.0290884711 -160687.3741590088 0.0
0.0 0.0 0.0

12244.577243354586 551367.5141846017 0.0
551367.5141846017 -96926.12177113967 0.0
0.0 0.0 0.0

-49708.2731967954 391091.70330877474 0.0
391091.70330877474 -734442.0251308092 0.0
0.0 0.0 0.0

-7681.04494128222 127786.94854518856 0.0
127786.94854518856 -284390.18932237447 0.0
0.0 0.0 0.0

579.2845786303515 274520.7052608209 0.0
274520.7052608209 -296316.24219547154 0.0
0.0 0.0 0.0

49869.55282394815 576660.5409655656 0.0
576660.5409655656 -166330.75118793137 0.0
0.0 0.0 0.0

122822.72591855752 564241.3849935231 0.0
564241.3849935231 -202648.54602305547 0.0
0.0 0.0 0.0

27345.202202902234 526063.6842198028 0.0
526063.6842198028 -169923.18042497398 0.0
0.0 0.0 0.0

12569.82215766875 151297.94667901055 0.0
151297.94667901055 -311046.98044104147 0.0
0.0 0.0 0.0

7786.4275211122 82485.32799377062 0.0
82485.32799377062 -696722.5837714996 0.0
0.0 0.0 0.0

27520.216206890924 432226.2816080059 0.0
432226.2816080059 -361303.79138520645 0.0
0.0 0.0 0.0

941.0858604832465 293372.8416092503 0.0
293372.8416092503 -260968.82875665693 0.0
0.0 0.0 0.0

-15615.918317586871 397517.85309460317 0.0
397517.85309460317 49686.75875818616 0.0
0.0 0.0 0.0

-285564.08391794085 648383.0247925313 0.0
648383.0247925313 98940.24603069533 0.0
0.0 0.0 0.0

149126.71744953335 320586.4768090834 0.0
320586.4768090834 2.022338114319045e6 0.0
0.0 0.0 0.0

-10900.343360365106 160579.08433437123 0.0
160579.08433437123 727897.8898770703 0.0
0.0 0.0 0.0

114453.43296852485 654957.9851067209 0.0
654957.9851067209 -179178.27018079834 0.0
0.0 0.0 0.0

-18743.718987293112 412040.70865700505 0.0
412040.70865700505 77376.99062823711 0.0
0.0 0.0 0.0

19182.711700495332 189231.41570677471 0.0
189231.41570677471 1.0200026754464201e6 0.0
0.0 0.0 0.0

6062.454099054739 79551.6109986161 0.0
79551.6109986161 -607262.8873285179 0.0
0.0 0.0 0.0

-4621.236705596602 441724.83781600854 0.0
441724.83781600854 129299.65321372858 0.0
0.0 0.0 0.0

7978.845079105056 407142.03993212385 0.0
407142.03993212385 -524056.4753904686 0.0
0.0 0.0 0.0

84325.50299902915 630685.465765092 0.0
630685.465765092 -150182.87829528953 0.0
0.0 0.0 0.0

43371.91646686759 577370.0924941583 0.0
577370.0924941583 -94539.46409838798 0.0
0.0 0.0 0.0

-24879.953100869578 367275.3991459282 0.0
367275.3991459282 197081.2547693207 0.0
0.0 0.0 0.0

12182.860128433389 435043.5940022457 0.0
435043.5940022457 -7538.607680581967 0.0
0.0 0.0 0.0

-14471.773548283367 218772.7018290879 0.0
218772.7018290879 279388.20495238685 0.0
0.0 0.0 0.0

-1.3256243826797928e6 618732.8647332026 0.0
618732.8647332026 -254580.26135988184 0.0
0.0 0.0 0.0

174647.68411973966 545203.3686500044 0.0
545203.3686500044 308143.7317341097 0.0
0.0 0.0 0.0

-61500.36148896383 542084.8588445251 0.0
542084.8588445251 275282.60829827643 0.0
0.0 0.0 0.0

-9452.021125671023 686578.652444296 0.0
686578.652444296 43610.072190970735 0.0
0.0 0.0 0.0

-2214.943401635246 207882.20643962236 0.0
207882.20643962236 -527652.6039340645 0.0
0.0 0.0 0.0

-4348.5340312971675 164316.47904480295 0.0
164316.47904480295 -671181.616628623 0.0
0.0 0.0 0.0

4356.951639883744 221581.5262730136 0.0
221581.5262730136 -813994.1116236906 0.0
0.0 0.0 0.0

-21501.157074224044 373730.0922149471 0.0
373730.0922149471 137999.14078936333 0.0
0.0 0.0 0.0

-8593.36717576944 282721.46063454327 0.0
282721.46063454327 661582.7698057218 0.0
0.0 0.0 0.0

1566.8790844472678 236694.51298304414 0.0
236694.51298304414 305770.7183300398 0.0
0.0 0.0 0.0

192386.17403966325 557729.0819436054 0.0
557729.0819436054 -66559.54149886212 0.0
0.0 0.0 0.0

-99529.60390600289 432927.08597916143 0.0
432927.08597916143 -492296.6417575187 0.0
0.0 0.0 0.0

-93233.89270673438 618684.9439263942 0.0
618684.9439263942 181988.43173412973 0.0
0.0 0.0 0.0

275381.79172103666 874930.6072069348 0.0
874930.6072069348 -93469.3320105298 0.0
0.0 0.0 0.0

-244253.52328997222 657991.5396812684 0.0
657991.5396812684 125573.44699253136 0.0
0.0 0.0 0.0

-19852.11938142919 447494.7200158289 0.0
447494.7200158289 463792.5606246784 0.0
0.0 0.0 0.0

-29808.428048125992 152616.63921121255 0.0
152616.63921121255 -1.3915803669885697e6 0.0
0.0 0.0 0.0

29170.22799994977 410680.36216377554 0.0
410680.36216377554 -203802.37966546937 0.0
0.0 0.0 0.0

180.84502262593014 17586.682297011816 0.0
17586.682297011816 -240386.6952278727 0.0
0.0 0.0 0.0

6497.716865526105 184434.78173581904 0.0
184434.78173581904 -850081.318174286 0.0
0.0 0.0 0.0

-72050.81274852979 655381.008889474 0.0
655381.008889474 105677.30156951162 0.0
0.0 0.0 0.0

-2046.1190760411555 289223.86115079216 0.0
289223.86115079216 596945.8841375565 0.0
0.0 0.0 0.0

-9799.423548615014 428702.3171179406 0.0
428702.3171179406 510141.9217841039 0.0
0.0 0.0 0.0

-71957.40697391865 563315.5143785347 0.0
563315.5143785347 257956.36587197636 0.0
0.0 0.0 0.0

16398.08830216581 222338.22634395797 0.0
222338.22634395797 -345982.62619542144 0.0
0.0 0.0 0.0

-201083.52135215243 545225.9274351795 0.0
545225.9274351795 -322705.7865329271 0.0
0.0 0.0 0.0

75106.79366091764 894079.7853247712 0.0
894079.7853247712 -58080.1002204371 0.0
0.0 0.0 0.0

-114011.65395452041 680249.242475423 0.0
680249.242475423 136780.73956883885 0.0
0.0 0.0 0.0

8720.939917725249 418615.5029271728 0.0
418615.5029271728 558614.0381627837 0.0
0.0 0.0 0.0

-49087.748885490444 1.8428209281611284e6 0.0
1.8428209281611284e6 -240013.63169098986 0.0
0.0 0.0 0.0

-142685.324536858 538857.2247035594 0.0
538857.2247035594 -347553.4703573535 0.0
0.0 0.0 0.0

-34674.014274219924 424451.78996366315 0.0
424451.78996366315 239579.67988441393 0.0
0.0 0.0 0.0

-8789.806003755017 107999.76087584061 0.0
107999.76087584061 402218.2354573754 0.0
0.0 0.0 0.0

22812.947742331125 450511.42890795757 0.0
450511.42890795757 -87673.023753642 0.0
0.0 0.0 0.0

-317896.0054125761 542580.1756178277 0.0
542580.1756178277 -184315.58809631155 0.0
0.0 0.0 0.0

-296179.6343790828 917657.5940666248 0.0
917657.5940666248 95266.71312949545 0.0
0.0 0.0 0.0

45985.896829376325 541899.3551695874 0.0
541899.3551695874 -144358.21081565216 0.0
0.0 0.0 0.0

33133.73162020673 597036.4300446329 0.0
597036.4300446329 -133756.71934569444 0.0
0.0 0.0 0.0

4891.696240257181 122456.30973409976 0.0
122456.30973409976 633497.4668189514 0.0
0.0 0.0 0.0

8219.216604765272 105419.64475295998 0.0
105419.64475295998 -520798.58565380826 0.0
0.0 0.0 0.0

95974.25146019532 862776.5406687016 0.0
862776.5406687016 -37751.259821952925 0.0
0.0 0.0 0.0

-31347.266444570152 467415.40355721087 0.0
467415.40355721087 423778.00651676406 0.0
0.0 0.0 0.0

-422883.86182080396 568781.1394480924 0.0
568781.1394480924 -113386.20931933032 0.0
0.0 0.0 0.0

-10083.990008819554 103422.88767017299 0.0
103422.88767017299 66688.66888768807 0.0
0.0 0.0 0.0

-361506.2886654842 574494.4962854753 0.0
574494.4962854753 -315871.1548582662 0.0
0.0 0.0 0.0

20386.85485132652 562080.5717408817 0.0
562080.5717408817 -118387.63290965147 0.0
0.0 0.0 0.0

23709.661005665315 412874.0407403359 0.0
412874.0407403359 -395345.573394843 0.0
0.0 0.0 0.0

27695.208254270758 510153.00266799977 0.0
510153.00266799977 -79653.97545203668 0.0
0.0 0.0 0.0

-243.81770348994178 231288.95065299384 0.0
231288.95065299384 -427448.3437811383 0.0
0.0 0.0 0.0

3055.9170014655538 524448.1669793912 0.0
524448.1669793912 46579.1372122247 0.0
0.0 0.0 0.0

-10425.334919426212 135646.5525331658 0.0
135646.5525331658 366135.5289032636 0.0
0.0 0.0 0.0

-6188.065898315632 296506.31365389546 0.0
296506.31365389546 454915.0890504617 0.0
0.0 0.0 0.0

-7604.3258912291785 361659.14983226 0.0
361659.14983226 255869.19150794964 0.0
0.0 0.0 0.0

-166324.31583756642 415908.89293235773 0.0
415908.89293235773 -498528.7389590609 0.0
0.0 0.0 0.0

-4443.476171995193 369627.66842572007 0.0
369627.66842572007 195664.03435816453 0.0
0.0 0.0 0.0

-1.0876465092328957e6 671108.3981299385 0.0
671108.3981299385 -426606.8287034831 0.0
0.0 0.0 0.0

-22780.801530759738 426281.8047644321 0.0
426281.8047644321 103466.89663385488 0.0
0.0 0.0 0.0

-63011.067417964005 496145.1177055534 0.0
496145.1177055534 -95751.85647099248 0.0
0.0 0.0 0.0

-1.482325148289676e6 612633.2902810256 0.0
612633.2902810256 -285135.3589480531 0.0
0.0 0.0 0.0

166823.5194074256 566663.6766460444 0.0
566663.6766460444 -118831.1219609371 0.0
0.0 0.0 0.0

940.7456134266395 395765.52361682535 0.0
395765.52361682535 105560.8830424794 0.0
0.0 0.0 0.0

17425.91659805909 260272.1444710407 0.0
260272.1444710407 -272774.2946943872 0.0
0.0 0.0 0.0

-23768.704103472894 696205.7587858023 0.0
696205.7587858023 62924.72974310253 0.0
0.0 0.0 0.0

4694.828210792795 280450.97539661324 0.0
280450.97539661324 -432351.9909817782 0.0
0.0 0.0 0.0

7273.881321192515 309043.3162681769 0.0
309043.3162681769 -471545.9994813548 0.0
0.0 0.0 0.0

-12602.925634190251 188880.5971113553 0.0
188880.5971113553 223519.2658128082 0.0
0.0 0.0 0.0

-50305.84307202518 494448.9176772088 0.0
494448.9176772088 241243.5378250462 0.0
0.0 0.0 0.0

10520.861190168594 163749.32145248647 0.0
163749.32145248647 -712581.1838199219 0.0
0.0 0.0 0.0

1133.9612544341653 172647.75427105496 0.0
172647.75427105496 492401.65999319224 0.0
0.0 0.0 0.0

6201.346186124225 294238.90143098996 0.0
294238.90143098996 -452772.7139938709 0.0
0.0 0.0 0.0

-2.3905528728717575e6 301306.7380889782 0.0
301306.7380889782 -10507.001829970046 0.0
0.0 0.0 0.0

-25476.340021897166 149129.97928216116 0.0
149129.97928216116 -1.2916940849188904e6 0.0
0.0 0.0 0.0

-39795.93341313521 455749.1640770781 0.0
455749.1640770781 230469.22354488386 0.0
0.0 0.0 0.0

-47331.29402115094 506363.48400270223 0.0
506363.48400270223 191104.4539626546 0.0
0.0 0.0 0.0

-149456.76804440244 644564.6776248803 0.0
644564.6776248803 184243.1275930308 0.0
0.0 0.0 0.0

4800.08292070427 463887.3559128914 0.0
463887.3559128914 -110006.99009905702 0.0
0.0 0.0 0.0

-31789.645753014192 491459.29685808305 0.0
491459.29685808305 386006.8459113692 0.0
0.0 0.0 0.0

14021.680746974875 352994.339964477 0.0
352994.339964477 -352498.240942674 0.0
0.0 0.0 0.0

-2815.046784575563 216187.19790898392 0.0
216187.19790898392 -659212.7413131336 0.0
0.0 0.0 0.0

-34190.659678577926 679978.412200629 0.0
679978.412200629 82029.82787341007 0.0
0.0 0.0 0.0

122030.17334584658 753099.9865269797 0.0
753099.9865269797 -123457.107006737 0.0
0.0 0.0 0.0

-7498.965353258885 207436.81927425272 0.0
207436.81927425272 -1.021163437672936e6 0.0
0.0 0.0 0.0

-2458.7208774287865 292989.6080387715 0.0
292989.6080387715 267193.45221855445 0.0
0.0 0.0 0.0

-208075.81559891882 658572.8323647714 0.0
658572.8323647714 146840.05002116878 0.0
0.0 0.0 0.0

-1.3032691787886021e6 2.0211587086151976e6 0.0
2.0211587086151976e6 19682.831227848073 0.0
0.0 0.0 0.0

14449.62550413562 214697.81116359515 0.0
214697.81116359515 879894.5653879887 0.0
0.0 0.0 0.0

-145552.70004558403 386308.5924438063 0.0
386308.5924438063 -448713.35366156866 0.0
0.0 0.0 0.0

10285.136137478621 101115.17090339168 0.0
101115.17090339168 134236.48219071008 0.0
0.0 0.0 0.0

1478.699691873102 14399.721513615039 0.0
14399.721513615039 898584.1029063247 0.0
0.0 0.0 0.0

2357.027316412539 16285.746439000934 0.0
16285.746439000934 -899978.8050865934 0.0
0.0 0.0 0.0

-188142.4654257511 570439.736639059 0.0
570439.736639059 33057.31948269204 0.0
0.0 0.0 0.0

-48668.97808400799 446670.31943651626 0.0
446670.31943651626 -502849.5765664654 0.0
0.0 0.0 0.0

58163.66489578091 326326.8446340521 0.0
326326.8446340521 993822.4873737722 0.0
0.0 0.0 0.0

111092.84862664262 631391.4668481224 0.0
631391.4668481224 -198282.37227572105 0.0
0.0 0.0 0.0

3406.1903647095314 266275.40399980394 0.0
266275.40399980394 -410555.7768268307 0.0
0.0 0.0 0.0

134965.02052236872 336345.656139381 0.0
336345.656139381 1.3347518743241092e6 0.0
0.0 0.0 0.0

8860.0371291025 449951.4328374809 0.0
449951.4328374809 19957.557162065994 0.0
0.0 0.0 0.0

117767.92573767056 377750.94132613455 0.0
377750.94132613455 980460.6155622274 0.0
0.0 0.0 0.0

-30085.735219193724 458699.17370660836 0.0
458699.17370660836 -454761.0805438427 0.0
0.0 0.0 0.0

2.3940233980657435e6 272289.7379026906 0.0
272289.7379026906 89522.97819287528 0.0
0.0 0.0 0.0

83135.8568029803 651354.3221841733 0.0
651354.3221841733 -129184.16703873323 0.0
0.0 0.0 0.0

138320.26385442622 858077.3575724197 0.0
858077.3575724197 -55727.40776893184 0.0
0.0 0.0 0.0

8487.699105035412 299504.42046215944 0.0
299504.42046215944 -393872.4778221221 0.0
0.0 0.0 0.0

19159.24912627961 268771.93508578505 0.0
268771.93508578505 -413387.8956480497 0.0
0.0 0.0 0.0

7159.857363048934 446719.5267523699 0.0
446719.5267523699 -139073.53102528685 0.0
0.0 0.0 0.0

2775.551126799168 233799.76562260865 0.0
233799.76562260865 668992.9001937525 0.0
0.0 0.0 0.0

-101633.5294956296 401132.88595300977 0.0
401132.88595300977 -741713.9024401302 0.0
0.0 0.0 0.0

-275.9654699888779 15756.191590484379 0.0
15756.191590484379 -202115.5493285088 0.0
0.0 0.0 0.0

20438.678125938037 378847.3552511054 0.0
378847.3552511054 -391082.7229381937 0.0
0.0 0.0 0.0

-769155.060570909 843522.7076577063 0.0
843522.7076577063 117612.72208748973 0.0
0.0 0.0 0.0

-11985.404783748621 255766.55833760105 0.0
255766.55833760105 55525.798810702356 0.0
0.0 0.0 0.0

169353.6379443411 346536.819835931 0.0
346536.819835931 1.562230698045778e6 0.0
0.0 0.0 0.0

-41330.01570943983 506660.9542548506 0.0
506660.9542548506 317893.1248243485 0.0
0.0 0.0 0.0

269030.27926380374 548293.7751346051 0.0
548293.7751346051 157249.14775170234 0.0
0.0 0.0 0.0

-175414.13535105332 653611.7336389469 0.0
653611.7336389469 165351.8057310403 0.0
0.0 0.0 0.0

81994.40273141567 670183.319477832 0.0
670183.319477832 -105014.21608918058 0.0
0.0 0.0 0.0

-112381.86990196988 662147.9083610798 0.0
662147.9083610798 151553.60091996094 0.0
0.0 0.0 0.0

188.06513649973203 242084.08411301026 0.0
242084.08411301026 602725.2444348203 0.0
0.0 0.0 0.0

-12378.22706544376 341465.0808882541 0.0
341465.0808882541 457932.82338198146 0.0
0.0 0.0 0.0

-14957.889522468147 161568.25612789983 0.0
161568.25612789983 325300.51749954396 0.0
0.0 0.0 0.0

595513.316863591 258916.8058960887 0.0
258916.8058960887 40828.298872063606 0.0
0.0 0.0 0.0

-9182.732720488406 471313.6283116669 0.0
471313.6283116669 -411330.64109173237 0.0
0.0 0.0 0.0

66186.18941658249 664969.4805884324 0.0
664969.4805884324 -88736.42717913115 0.0
0.0 0.0 0.0

-66432.82164019684 673485.7364761111 0.0
673485.7364761111 84499.76407304613 0.0
0.0 0.0 0.0

-1261.1160825649858 46673.60833117224 0.0
46673.60833117224 656297.1778618264 0.0
0.0 0.0 0.0

-101880.672106332 716275.0687702431 0.0
716275.0687702431 103300.70222226379 0.0
0.0 0.0 0.0

-2525.6650881858586 409498.7838652483 0.0
409498.7838652483 132618.1606977185 0.0
0.0 0.0 0.0

-143637.48595368647 726523.4226469438 0.0
726523.4226469438 120367.08976475452 0.0
0.0 0.0 0.0

257969.3705513037 522377.0089935794 0.0
522377.0089935794 108278.85454380444 0.0
0.0 0.0 0.0

122648.82129843405 790241.9286773468 0.0
790241.9286773468 -71980.28928949183 0.0
0.0 0.0 0.0

-4521.427184203028 80771.47825027182 0.0
80771.47825027182 -692466.1509388135 0.0
0.0 0.0 0.0

8828.200983091025 218759.31168402126 0.0
218759.31168402126 807630.6106695803 0.0
0.0 0.0 0.0

35863.114841297924 529280.7338741518 0.0
529280.7338741518 -213739.10618712506 0.0
0.0 0.0 0.0

11935.10026496384 486398.9812242026 0.0
486398.9812242026 -369143.9848741996 0.0
0.0 0.0 0.0

8935.746831596578 417686.20520397584 0.0
417686.20520397584 19754.14682943546 0.0
0.0 0.0 0.0

-98196.08975081824 540135.8583532922 0.0
540135.8583532922 130326.28286880962 0.0
0.0 0.0 0.0

143363.2588291907 655065.1075160338 0.0
655065.1075160338 -172724.51793917385 0.0
0.0 0.0 0.0

7137.114029646837 487419.9231914396 0.0
487419.9231914396 -193713.74886704978 0.0
0.0 0.0 0.0

-21055.490039750264 294797.6866429016 0.0
294797.6866429016 457084.03449120873 0.0
0.0 0.0 0.0

14851.158559044503 211179.84357723704 0.0
211179.84357723704 -529078.1232816647 0.0
0.0 0.0 0.0

-36904.146096568205 485154.98522837297 0.0
485154.98522837297 -401135.062959654 0.0
0.0 0.0 0.0

94182.16561071573 535632.2386518901 0.0
535632.2386518901 329144.9933243211 0.0
0.0 0.0 0.0

9613.477289759518 523063.2451007537 0.0
523063.2451007537 -100939.64398333388 0.0
0.0 0.0 0.0

3853.0947587896953 161506.69226849166 0.0
161506.69226849166 -990773.1415045664 0.0
0.0 0.0 0.0

9093.304202199157 118654.41597617223 0.0
118654.41597617223 -1.3414805145661149e6 0.0
0.0 0.0 0.0

-27156.664173559227 379911.26984895143 0.0
379911.26984895143 223108.93898614263 0.0
0.0 0.0 0.0

-58769.47778409626 690837.0296584641 0.0
690837.0296584641 64627.122251696775 0.0
0.0 0.0 0.0

6800.583234478487 121303.62121349035 0.0
121303.62121349035 751056.588186976 0.0
0.0 0.0 0.0

-27048.293867005763 348069.8416388324 0.0
348069.8416388324 319462.3873667585 0.0
0.0 0.0 0.0

-45482.13996163076 485330.22984563996 0.0
485330.22984563996 221877.99923773378 0.0
0.0 0.0 0.0

15375.233074477874 215564.644412028 0.0
215564.644412028 -468376.5919169482 0.0
0.0 0.0 0.0

1601.345972502546 14530.803271709892 0.0
14530.803271709892 -931326.7383982918 0.0
0.0 0.0 0.0

-25080.004261215043 447659.4531403144 0.0
447659.4531403144 282409.577045977 0.0
0.0 0.0 0.0

215492.011829802 384254.394174162 0.0
384254.394174162 1.8708363810439566e6 0.0
0.0 0.0 0.0

-32852.17895165522 517546.9038628924 0.0
517546.9038628924 207924.89463273744 0.0
0.0 0.0 0.0

73780.70173613685 686068.8707010434 0.0
686068.8707010434 -87306.5897485191 0.0
0.0 0.0 0.0

12220.67412110776 324159.76279112237 0.0
324159.76279112237 -426623.5582346042 0.0
0.0 0.0 0.0

30453.61616112859 744399.4520048067 0.0
744399.4520048067 -10062.010585314487 0.0
0.0 0.0 0.0

-42430.33213269526 662709.6014462524 0.0
662709.6014462524 101899.06148918849 0.0
0.0 0.0 0.0

305096.1396607617 373744.2915226548 0.0
373744.2915226548 1.281334292986673e6 0.0
0.0 0.0 0.0

-1116.6022381935618 17480.920286817844 0.0
17480.920286817844 -227229.87615378705 0.0
0.0 0.0 0.0

180562.36856380742 587465.1956475422 0.0
587465.1956475422 -143294.6944721825 0.0
0.0 0.0 0.0

-1700.4870262767945 49402.52287026625 0.0
49402.52287026625 -473707.4650254018 0.0
0.0 0.0 0.0

-2330.8478181475366 262086.24315766938 0.0
262086.24315766938 471125.4527088962 0.0
0.0 0.0 0.0

-65040.3882592762 613505.3606168627 0.0
613505.3606168627 132051.2994255239 0.0
0.0 0.0 0.0

30811.77026021036 538876.9579987169 0.0
538876.9579987169 -76199.09197756599 0.0
0.0 0.0 0.0

17715.86040354523 238361.57368381723 0.0
238361.57368381723 -368649.14032054425 0.0
0.0 0.0 0.0

20264.421101551183 497829.1662840039 0.0
497829.1662840039 -226321.35583078914 0.0
0.0 0.0 0.0

64264.835026143766 703033.5136279596 0.0
703033.5136279596 -68660.82356782908 0.0
0.0 0.0 0.0

9247.428004779387 146061.29873361197 0.0
146061.29873361197 867331.1044001847 0.0
0.0 0.0 0.0

-18156.336532943184 383230.30755324394 0.0
383230.30755324394 456436.225829956 0.0
0.0 0.0 0.0

2981.763592541771 201736.59167711332 0.0
201736.59167711332 535772.3177211946 0.0
0.0 0.0 0.0

-20442.433695184256 393191.47463389084 0.0
393191.47463389084 106970.86459282046 0.0
0.0 0.0 0.0

-86071.10602475828 648364.8398547071 0.0
648364.8398547071 173269.26011927158 0.0
0.0 0.0 0.0

-6434.669131271437 510755.6635198626 0.0
510755.6635198626 -28278.42443512817 0.0
0.0 0.0 0.0

-27502.79166063552 733222.9475147153 0.0
733222.9475147153 7487.622464381884 0.0
0.0 0.0 0.0

-13256.791866092739 203981.87008903385 0.0
203981.87008903385 252520.81854998256 0.0
0.0 0.0 0.0

-10712.043629249616 329905.22243123164 0.0
329905.22243123164 437432.9588433105 0.0
0.0 0.0 0.0

-50132.85201822063 706799.1217339076 0.0
706799.1217339076 46343.36759472676 0.0
0.0 0.0 0.0

130820.28088052935 619121.5368525273 0.0
619121.5368525273 -195144.67057445087 0.0
0.0 0.0 0.0

458091.6012803019 602717.6175287726 0.0
602717.6175287726 332636.32352223154 0.0
0.0 0.0 0.0

-3573.13364711788 389870.9539747512 0.0
389870.9539747512 163742.0320365933 0.0
0.0 0.0 0.0

268534.87662978773 709198.679383363 0.0
709198.679383363 -122405.81244477422 0.0
0.0 0.0 0.0

-11645.78489652391 416849.1082582675 0.0
416849.1082582675 213011.88147715907 0.0
0.0 0.0 0.0

-17332.818011388794 373094.5526579328 0.0
373094.5526579328 438537.13441758166 0.0
0.0 0.0 0.0

3344.0849158876517 221542.353591053 0.0
221542.353591053 278722.9071166109 0.0
0.0 0.0 0.0

-39664.8860094162 720623.7570945828 0.0
720623.7570945828 25530.92375649508 0.0
0.0 0.0 0.0

10911.1616692073 119010.54214320642 0.0
119010.54214320642 -675108.2480747255 0.0
0.0 0.0 0.0

13429.313089794654 172769.11410166416 0.0
172769.11410166416 -610823.038653776 0.0
0.0 0.0 0.0

-127479.25263373312 631678.8586706915 0.0
631678.8586706915 199019.07974955344 0.0
0.0 0.0 0.0

11598.929747338174 273462.451030135 0.0
273462.451030135 -88688.97227582076 0.0
0.0 0.0 0.0

18883.018545468178 254170.49572694107 0.0
254170.49572694107 -390588.3997756295 0.0
0.0 0.0 0.0

7378.820777133941 816851.4341000116 0.0
816851.4341000116 -21448.059974538322 0.0
0.0 0.0 0.0

44700.5021945898 731905.7029196767 0.0
731905.7029196767 -29004.456732588013 0.0
0.0 0.0 0.0

29717.305118172837 571440.446472784 0.0
571440.446472784 -138778.5219230161 0.0
0.0 0.0 0.0

-74647.41407072646 430333.8949814704 0.0
430333.8949814704 -647390.1653238566 0.0
0.0 0.0 0.0

-91737.94571888173 804578.8587540397 0.0
804578.8587540397 47418.66757813034 0.0
0.0 0.0 0.0

-17479.598266194516 392102.6867223236 0.0
392102.6867223236 471732.036032322 0.0
0.0 0.0 0.0

-6678.981702626537 127522.78795872962 0.0
127522.78795872962 -346862.8321752987 0.0
0.0 0.0 0.0

74032.80702485613 908620.4790231227 0.0
908620.4790231227 -27007.544674756384 0.0
0.0 0.0 0.0

-45341.00694561313 529898.3731092799 0.0
529898.3731092799 267923.37319797184 0.0
0.0 0.0 0.0

55702.34253392143 718176.7738979955 0.0
718176.7738979955 -46839.812555444856 0.0
0.0 0.0 0.0

33784.3546506508 502034.5017625579 0.0
502034.5017625579 -331920.23133162135 0.0
0.0 0.0 0.0

-2163.058596599407 744348.215982696 0.0
744348.215982696 25146.463286824142 0.0
0.0 0.0 0.0

-65464.6278078108 526699.8203953353 0.0
526699.8203953353 322096.2903358772 0.0
0.0 0.0 0.0

4311.862876667434 754496.4358260117 0.0
754496.4358260117 -25822.406221151985 0.0
0.0 0.0 0.0

278293.6753868261 995222.2336595553 0.0
995222.2336595553 -70546.90423048321 0.0
0.0 0.0 0.0

-2393.4572371194663 315306.2310901627 0.0
315306.2310901627 630302.0860130934 0.0
0.0 0.0 0.0

21444.292897253472 288021.3969925697 0.0
288021.3969925697 -375844.7862831679 0.0
0.0 0.0 0.0

3218.3977155489265 247704.64611419695 0.0
247704.64611419695 688383.4827234392 0.0
0.0 0.0 0.0

-22744.731486959616 304710.06295408035 0.0
304710.06295408035 394404.08267544105 0.0
0.0 0.0 0.0

-15318.276406990846 -4365.758284244967 0.0
-4365.758284244967 19218.831704973658 0.0
0.0 0.0 0.0

13775.131436558755 -4119.774201490446 0.0
-4119.774201490446 -18312.183783905522 0.0
0.0 0.0 0.0

-41.741679449769435 326704.3260917274 0.0
326704.3260917274 644914.6651747498 0.0
0.0 0.0 0.0

443689.5206344115 572899.2810199461 0.0
572899.2810199461 374385.3657471798 0.0
0.0 0.0 0.0

86176.47334360331 769327.2881766434 0.0
769327.2881766434 -56325.52721730145 0.0
0.0 0.0 0.0

50180.93014019492 587738.3201143745 0.0
587738.3201143745 -118501.54882348841 0.0
0.0 0.0 0.0

21890.370228969434 301617.0147248095 0.0
301617.0147248095 -399520.0883491628 0.0
0.0 0.0 0.0

278143.6394975573 366936.8869273382 0.0
366936.8869273382 1.1484954149157607e6 0.0
0.0 0.0 0.0

-89560.33622738926 816629.0125815796 0.0
816629.0125815796 76396.45005807496 0.0
0.0 0.0 0.0

6118.109936959997 836752.3940959054 0.0
836752.3940959054 -22701.79079669887 0.0
0.0 0.0 0.0

14865.52006229928 857480.8547669488 0.0
857480.8547669488 -24236.91358425688 0.0
0.0 0.0 0.0

-43153.78737071446 452270.23319133726 0.0
452270.23319133726 304317.1557264572 0.0
0.0 0.0 0.0

-30145.29605652801 391693.7045286342 0.0
391693.7045286342 248772.07651803095 0.0
0.0 0.0 0.0

-15160.020721463006 254149.76147611137 0.0
254149.76147611137 273759.18324083614 0.0
0.0 0.0 0.0

-61976.72473920326 564644.6805158753 0.0
564644.6805158753 234680.5092957357 0.0
0.0 0.0 0.0

-10326.871786710573 373121.6719015136 0.0
373121.6719015136 281582.73751476815 0.0
0.0 0.0 0.0

12660.275875896681 301852.71923364245 0.0
301852.71923364245 743335.7104283811 0.0
0.0 0.0 0.0

25047.234893730347 318039.8791684665 0.0
318039.8791684665 -416284.1599639542 0.0
0.0 0.0 0.0

-54649.46910702161 501969.50926257134 0.0
501969.50926257134 259247.77107088472 0.0
0.0 0.0 0.0

14963.394573911763 270438.97130151384 0.0
270438.97130151384 789249.1610310423 0.0
0.0 0.0 0.0

133198.07694126712 491412.1594029787 0.0
491412.1594029787 378398.8008408889 0.0
0.0 0.0 0.0

-28139.895821920603 422110.8156252783 0.0
422110.8156252783 157514.26475990826 0.0
0.0 0.0 0.0

-3843.6206481923073 765123.970731594 0.0
765123.970731594 25989.405242210705 0.0
0.0 0.0 0.0

525.1482277315081 722357.5910370561 0.0
722357.5910370561 24611.92754202495 0.0
0.0 0.0 0.0

-75887.09341692612 546527.3026074134 0.0
546527.3026074134 292028.4602799413 0.0
0.0 0.0 0.0

-61161.90032159464 458435.5176023904 0.0
458435.5176023904 -522021.4974000063 0.0
0.0 0.0 0.0

-64496.76051300662 574976.6412127235 0.0
574976.6412127235 181708.26972159068 0.0
0.0 0.0 0.0

-23926.633653049736 412940.4967479103 0.0
412940.4967479103 434744.26957583847 0.0
0.0 0.0 0.0

43463.4179734794 560669.322325175 0.0
560669.322325175 -121672.2066739143 0.0
0.0 0.0 0.0

160664.6587365086 881778.0384449688 0.0
881778.0384449688 -57058.28321005599 0.0
0.0 0.0 0.0

-89435.17507053388 569710.7107909684 0.0
569710.7107909684 263526.8589148545 0.0
0.0 0.0 0.0

34829.576839222194 554148.896930525 0.0
554148.896930525 -162726.0273445055 0.0
0.0 0.0 0.0

11094.404959695617 189632.0704511675 0.0
189632.0704511675 -631255.7821952258 0.0
0.0 0.0 0.0

-29492.006087331378 455852.85704157443 0.0
455852.85704157443 302602.1468689431 0.0
0.0 0.0 0.0

203735.44186550094 702024.8923728502 0.0
702024.8923728502 -139808.98823947756 0.0
0.0 0.0 0.0

-32.96865648405219 17135.802468913753 0.0
17135.802468913753 -120105.70419584328 0.0
0.0 0.0 0.0

-11642.296505278093 193969.56627809085 0.0
193969.56627809085 -864959.1290704816 0.0
0.0 0.0 0.0

49419.163313586 516898.59724273236 0.0
516898.59724273236 -198273.79919553304 0.0
0.0 0.0 0.0

452230.55121146684 601210.9981122918 0.0
601210.9981122918 410236.90783197596 0.0
0.0 0.0 0.0

-3581.9370729547227 198722.47852168515 0.0
198722.47852168515 -645737.9879155026 0.0
0.0 0.0 0.0

-284.99655645433813 232268.85807796993 0.0
232268.85807796993 -618655.755044549 0.0
0.0 0.0 0.0

81420.27830944737 496732.88236955326 0.0
496732.88236955326 167090.81042903365 0.0
0.0 0.0 0.0

7487.38721622646 167634.59175376373 0.0
167634.59175376373 815466.1638581314 0.0
0.0 0.0 0.0

-18646.39584449159 266190.4771558261 0.0
266190.4771558261 324000.9694223711 0.0
0.0 0.0 0.0

-291071.2511844212 422126.82392676483 0.0
422126.82392676483 -1.3411464727640753e6 0.0
0.0 0.0 0.0

-30567.670197026076 381134.40426656074 0.0
381134.40426656074 307927.2910767606 0.0
0.0 0.0 0.0

-16398.693921054655 251022.8643999589 0.0
251022.8643999589 540246.4580903838 0.0
0.0 0.0 0.0

127064.24655098087 548001.4136400551 0.0
548001.4136400551 301429.0916840509 0.0
0.0 0.0 0.0

9.455216067901347 13191.091331965297 0.0
13191.091331965297 865552.4816192172 0.0
0.0 0.0 0.0

-43612.44855917287 464953.56510289316 0.0
464953.56510289316 252355.9230390655 0.0
0.0 0.0 0.0

-101507.12800109362 645736.94764545 0.0
645736.94764545 184262.89506490843 0.0
0.0 0.0 0.0

35008.86384503903 461130.42447462515 0.0
461130.42447462515 -342511.6727657702 0.0
0.0 0.0 0.0

-1055.0314832296863 47908.22331100058 0.0
47908.22331100058 396481.06086136814 0.0
0.0 0.0 0.0

-15900.613029587694 240502.53360042066 0.0
240502.53360042066 245199.77333756656 0.0
0.0 0.0 0.0

-45444.47703409201 167309.05258077156 0.0
167309.05258077156 -1.5141472017634402e6 0.0
0.0 0.0 0.0

240884.83527450138 892797.4625314234 0.0
892797.4625314234 -75843.3524254428 0.0
0.0 0.0 0.0

46875.77834474039 260201.6044433413 0.0
260201.6044433413 1.0706864688725225e6 0.0
0.0 0.0 0.0

-148203.0614177902 457338.76487973426 0.0
457338.76487973426 -412819.3898365324 0.0
0.0 0.0 0.0

-14551.47918483577 242383.20430635576 0.0
242383.20430635576 604689.4462321745 0.0
0.0 0.0 0.0

-371039.4463741052 585099.3278755138 0.0
585099.3278755138 -318995.924374013 0.0
0.0 0.0 0.0

-37795.20891091625 495654.79245529976 0.0
495654.79245529976 -140385.31243537925 0.0
0.0 0.0 0.0

156948.6843806721 412229.66131155123 0.0
412229.66131155123 528160.7054733573 0.0
0.0 0.0 0.0

-12539.416915678477 175588.3083600638 0.0
175588.3083600638 -916501.9324512377 0.0
0.0 0.0 0.0

-131282.14920832068 359792.6277523859 0.0
359792.6277523859 -504801.522319573 0.0
0.0 0.0 0.0

268807.24799893145 1.0531741701528695e6 0.0
1.0531741701528695e6 -113586.77505201071 0.0
0.0 0.0 0.0

-33615.96485797412 463348.0553379572 0.0
463348.0553379572 320779.811287537 0.0
0.0 0.0 0.0

-1944.0759691630956 16667.878464038196 0.0
16667.878464038196 965245.2742568663 0.0
0.0 0.0 0.0

41735.01325769465 461322.4245377174 0.0
461322.4245377174 421851.23327571683 0.0
0.0 0.0 0.0

-319540.1687808384 574837.3772361291 0.0
574837.3772361291 -344801.61496750294 0.0
0.0 0.0 0.0

-13045.229438142786 209782.2758005822 0.0
209782.2758005822 188235.13768813616 0.0
0.0 0.0 0.0

203973.6906940668 384695.7038466612 0.0
384695.7038466612 1.1798786962714654e6 0.0
0.0 0.0 0.0

-28084.93742084317 361690.4676026439 0.0
361690.4676026439 421185.53380888223 0.0
0.0 0.0 0.0

-23587.833145577402 316710.3630440083 0.0
316710.3630440083 417892.89256202633 0.0
0.0 0.0 0.0

33936.24060548586 229958.37618244893 0.0
229958.37618244893 1.0597239001887986e6 0.0
0.0 0.0 0.0

65949.82953776908 438196.8102768569 0.0
438196.8102768569 548319.1502011935 0.0
0.0 0.0 0.0

-289376.84158922 763613.6788856088 0.0
763613.6788856088 111229.11884425684 0.0
0.0 0.0 0.0

10278.486441629511 931446.9149086149 0.0
931446.9149086149 -30010.53980403461 0.0
0.0 0.0 0.0

-61347.281733642565 528199.2446769456 0.0
528199.2446769456 246487.1349477903 0.0
0.0 0.0 0.0

-164.3921295510554 15742.763488721508 0.0
15742.763488721508 -81482.72068272934 0.0
0.0 0.0 0.0

18408.192207984015 264197.08320767974 0.0
264197.08320767974 -472056.0944297003 0.0
0.0 0.0 0.0

18569.37862103278 257567.8675312366 0.0
257567.8675312366 -331758.34540638933 0.0
0.0 0.0 0.0

-32550.898189022846 402724.64693086845 0.0
402724.64693086845 273338.1506075779 0.0
0.0 0.0 0.0

-8002.473485924478 1.3233009082347918e6 0.0
1.3233009082347918e6 -76346.86883491871 0.0
0.0 0.0 0.0

-14917.018119021217 183600.96421118302 0.0
183600.96421118302 287611.14066179213 0.0
0.0 0.0 0.0

138107.7772420582 810121.3986507533 0.0
810121.3986507533 -72832.55026041952 0.0
0.0 0.0 0.0

216659.88098856958 731897.1768962939 0.0
731897.1768962939 -128854.77606520322 0.0
0.0 0.0 0.0

4584.940138949707 228172.27002800733 0.0
228172.27002800733 215792.86265895757 0.0
0.0 0.0 0.0

-7362.208324874378 458192.08103358326 0.0
458192.08103358326 36150.954715383035 0.0
0.0 0.0 0.0

623832.339934003 575734.9688138479 0.0
575734.9688138479 279215.723387891 0.0
0.0 0.0 0.0

290219.2941545001 415396.3435791878 0.0
415396.3435791878 1.169791033047506e6 0.0
0.0 0.0 0.0

113101.9783179911 437062.97670892987 0.0
437062.97670892987 414368.26336891024 0.0
0.0 0.0 0.0

-27237.15490538432 350095.55649772944 0.0
350095.55649772944 401791.42574834765 0.0
0.0 0.0 0.0

4230.618118417413 1.2250299255522096e6 0.0
1.2250299255522096e6 -61992.85109904143 0.0
0.0 0.0 0.0

-570573.0154283991 603476.7015970637 0.0
603476.7015970637 -355347.64005667786 0.0
0.0 0.0 0.0

-23614.215462148277 328327.00090379774 0.0
328327.00090379774 439380.07624636695 0.0
0.0 0.0 0.0

-41133.17056267426 293113.660208797 0.0
293113.660208797 -927951.3396500564 0.0
0.0 0.0 0.0

1388.1548747101915 15477.80850150945 0.0
15477.80850150945 -1.10282424860829e6 0.0
0.0 0.0 0.0

39981.78915214882 433210.48523581214 0.0
433210.48523581214 -362695.25288686226 0.0
0.0 0.0 0.0

19982.34370330503 283386.9509166403 0.0
283386.9509166403 -435164.50092748017 0.0
0.0 0.0 0.0

52361.43086225058 480417.07507349784 0.0
480417.07507349784 -309280.85802765354 0.0
0.0 0.0 0.0

-14085.093297681211 1.4429794536409837e6 0.0
1.4429794536409837e6 -123516.77635714684 0.0
0.0 0.0 0.0

-34891.46956604134 600036.8800934271 0.0
600036.8800934271 126346.42352509988 0.0
0.0 0.0 0.0

86338.18026041707 578352.9286248304 0.0
578352.9286248304 -250995.52561558725 0.0
0.0 0.0 0.0

65723.00759681976 556083.849783509 0.0
556083.849783509 -261421.0728579645 0.0
0.0 0.0 0.0

16659.840197769285 234640.77495675173 0.0
234640.77495675173 -429221.60966530314 0.0
0.0 0.0 0.0

-78008.05551626216 557474.618374688 0.0
557474.618374688 248004.04158094345 0.0
0.0 0.0 0.0

79416.72629482887 468324.8176070899 0.0
468324.8176070899 489598.5807109772 0.0
0.0 0.0 0.0

-151408.50519277866 581776.8386236825 0.0
581776.8386236825 160549.2847953156 0.0
0.0 0.0 0.0

67704.95978752594 190562.89552722077 0.0
190562.89552722077 1.9325747297690106e6 0.0
0.0 0.0 0.0

7536.012505551102 58851.94616520293 0.0
58851.94616520293 600691.9652054865 0.0
0.0 0.0 0.0

-75617.1072868996 2.1255697711605974e6 0.0
2.1255697711605974e6 -284587.24555938866 0.0
0.0 0.0 0.0

174721.74337100642 407683.6622757076 0.0
407683.6622757076 708184.5233880705 0.0
0.0 0.0 0.0

10142.401513348634 1.1574729384236773e6 0.0
1.1574729384236773e6 -44552.57217243816 0.0
0.0 0.0 0.0

44469.66915920863 470033.58703559515 0.0
470033.58703559515 -229301.3413367619 0.0
0.0 0.0 0.0

98086.36092748269 555296.624448056 0.0
555296.624448056 -237015.53415935807 0.0
0.0 0.0 0.0

-63635.05495248775 626093.5132676825 0.0
626093.5132676825 164712.08155564207 0.0
0.0 0.0 0.0

3459.1080567977624 15095.374435486146 0.0
15095.374435486146 -580341.3692836948 0.0
0.0 0.0 0.0

319825.5549675846 523986.4521442344 0.0
523986.4521442344 135748.5474233772 0.0
0.0 0.0 0.0

19552.911080370453 281400.63827636885 0.0
281400.63827636885 -491311.4864476719 0.0
0.0 0.0 0.0

217204.27604424063 653365.7172683373 0.0
653365.7172683373 -133546.79408467747 0.0
0.0 0.0 0.0

4253.945734188717 164519.3496607693 0.0
164519.3496607693 -899548.4266081282 0.0
0.0 0.0 0.0

-33150.317951700636 497628.12400325 0.0
497628.12400325 240964.58348743676 0.0
0.0 0.0 0.0

12010.669944985639 132198.3472861696 0.0
132198.3472861696 -285706.07880774245 0.0
0.0 0.0 0.0

8290.414920942483 237076.12011882768 0.0
237076.12011882768 87553.2984176927 0.0
0.0 0.0 0.0

-472702.82477008103 537625.4663352733 0.0
537625.4663352733 -184736.192197624 0.0
0.0 0.0 0.0

13440.293139085901 223561.7379950035 0.0
223561.7379950035 -604518.6984897006 0.0
0.0 0.0 0.0

-7367.513521837076 417540.2575624971 0.0
417540.2575624971 -34651.23894433346 0.0
0.0 0.0 0.0

72098.23245133858 597179.3031385975 0.0
597179.3031385975 -209727.1219234657 0.0
0.0 0.0 0.0

97644.5947155416 403371.25146730046 0.0
403371.25146730046 746997.6898509802 0.0
0.0 0.0 0.0

26262.196251031055 513611.76236437785 0.0
513611.76236437785 -16655.742169700257 0.0
0.0 0.0 0.0

-28676.204282965322 370007.72273335216 0.0
370007.72273335216 283633.573257368 0.0
0.0 0.0 0.0

-1165.270562169142 196320.54908498883 0.0
196320.54908498883 939462.0167489796 0.0
0.0 0.0 0.0

104844.73180390167 411715.7693373859 0.0
411715.7693373859 758090.4410348224 0.0
0.0 0.0 0.0

-31868.242044265207 392873.3636153277 0.0
392873.3636153277 403797.5275161277 0.0
0.0 0.0 0.0

-5934.1632508087205 128624.6800874274 0.0
128624.6800874274 844966.1356512017 0.0
0.0 0.0 0.0

-30741.240170233184 442898.39210336877 0.0
442898.39210336877 353262.6326831933 0.0
0.0 0.0 0.0

-49316.51602047603 505529.5957315632 0.0
505529.5957315632 350490.6209399212 0.0
0.0 0.0 0.0

5190.170957748982 157393.92973554795 0.0
157393.92973554795 393116.54323681054 0.0
0.0 0.0 0.0

70099.42690792572 576994.5131007314 0.0
576994.5131007314 -235253.13648569945 0.0
0.0 0.0 0.0

-62082.77029220548 633000.4501551379 0.0
633000.4501551379 108672.1477596506 0.0
0.0 0.0 0.0

-31337.44463729515 403578.6253866482 0.0
403578.6253866482 419886.6636353237 0.0
0.0 0.0 0.0

-3090.164521939121 123825.34927276036 0.0
123825.34927276036 1.2072504319935567e6 0.0
0.0 0.0 0.0

-5113.392416418137 503428.37015182216 0.0
503428.37015182216 296955.6742754072 0.0
0.0 0.0 0.0

-7609.739302705915 308483.3030693774 0.0
308483.3030693774 476801.4859834276 0.0
0.0 0.0 0.0

-26658.40969839957 285444.4729013474 0.0
285444.4729013474 -862456.724646875 0.0
0.0 0.0 0.0

117977.11528365512 371088.43322891725 0.0
371088.43322891725 972406.9902317647 0.0
0.0 0.0 0.0

-7546.975319442456 334075.37105469627 0.0
334075.37105469627 581495.8944187842 0.0
0.0 0.0 0.0

16771.520222401916 240977.51202402532 0.0
240977.51202402532 -309121.59626720456 0.0
0.0 0.0 0.0

-7943.712209467485 50390.784862639135 0.0
50390.784862639135 -846786.6604427865 0.0
0.0 0.0 0.0

171363.94626129605 391001.63558018603 0.0
391001.63558018603 905019.2956617485 0.0
0.0 0.0 0.0

144627.06152724754 386575.5045410724 0.0
386575.5045410724 943365.2695546923 0.0
0.0 0.0 0.0

28389.696380296817 445799.7562653454 0.0
445799.7562653454 -141564.15981912706 0.0
0.0 0.0 0.0

-100530.30049468862 592946.0547609284 0.0
592946.0547609284 238450.26466365944 0.0
0.0 0.0 0.0

10126.051664046 1.0237535613449538e6 0.0
1.0237535613449538e6 -37858.96322576291 0.0
0.0 0.0 0.0

56539.753841209385 519236.03122768935 0.0
519236.03122768935 -296882.9757851557 0.0
0.0 0.0 0.0

5566.221129524376 72183.47908225407 0.0
72183.47908225407 629526.0137102039 0.0
0.0 0.0 0.0

-26531.916178128362 344993.41368181485 0.0
344993.41368181485 -722490.1019683694 0.0
0.0 0.0 0.0

-54933.99060236203 520114.57285969413 0.0
520114.57285969413 303788.5210956407 0.0
0.0 0.0 0.0

-1675.5303480483417 302836.108926599 0.0
302836.108926599 613257.7638594888 0.0
0.0 0.0 0.0

135545.11679081974 366155.4895967693 0.0
366155.4895967693 404870.4950974323 0.0
0.0 0.0 0.0

-28494.503184406727 218911.47203938177 0.0
218911.47203938177 -1.0385191846512666e6 0.0
0.0 0.0 0.0

-17217.863564165746 282377.7344352116 0.0
282377.7344352116 -797006.7120165465 0.0
0.0 0.0 0.0

326877.8965577706 1.1090895943565832e6 0.0
1.1090895943565832e6 -126923.05609688612 0.0
0.0 0.0 0.0

-28661.01840668934 618179.9412141953 0.0
618179.9412141953 103322.78354045574 0.0
0.0 0.0 0.0

-61119.60963984689 645787.521420227 0.0
645787.521420227 142680.06328768807 0.0
0.0 0.0 0.0

4012.4933560900336 684949.5064924187 0.0
684949.5064924187 -36966.88987646065 0.0
0.0 0.0 0.0

7998.603282963624 58437.112598691776 0.0
58437.112598691776 -453498.4035821523 0.0
0.0 0.0 0.0

-71125.99682983369 426947.05817634624 0.0
426947.05817634624 -202759.96139676738 0.0
0.0 0.0 0.0

-50795.15480870854 516675.1797660141 0.0
516675.1797660141 290868.06952911225 0.0
0.0 0.0 0.0

98752.75230125565 593388.9600005952 0.0
593388.9600005952 -226178.14796797076 0.0
0.0 0.0 0.0

11230.02038436823 988469.2455923798 0.0
988469.2455923798 -33138.65831826173 0.0
0.0 0.0 0.0

4333.556442702044 200435.29171243552 0.0
200435.29171243552 313599.18475306506 0.0
0.0 0.0 0.0

-8047.187045666826 226609.43199767754 0.0
226609.43199767754 739345.6273832504 0.0
0.0 0.0 0.0

10635.025922323333 960216.7819704161 0.0
960216.7819704161 -27896.243363145597 0.0
0.0 0.0 0.0

72528.59644216778 618136.0796400337 0.0
618136.0796400337 -186726.82284616277 0.0
0.0 0.0 0.0

1337.8876558402262 246595.34188397185 0.0
246595.34188397185 -448727.4301916807 0.0
0.0 0.0 0.0

-17922.72508987898 395447.47417064564 0.0
395447.47417064564 328462.7211412933 0.0
0.0 0.0 0.0

-28768.860171851935 200679.8398037333 0.0
200679.8398037333 -1.0978617101539385e6 0.0
0.0 0.0 0.0

-8834.61703849049 805318.8229925606 0.0
805318.8229925606 25681.12145085608 0.0
0.0 0.0 0.0

-67260.43408044054 540620.8178478671 0.0
540620.8178478671 219295.6620751149 0.0
0.0 0.0 0.0

-53505.74982252417 314304.57195645315 0.0
314304.57195645315 -937792.1465238741 0.0
0.0 0.0 0.0

-96583.05810047197 659430.5141711718 0.0
659430.5141711718 140808.30071544036 0.0
0.0 0.0 0.0

-3160.5680408431217 222458.5336927121 0.0
222458.5336927121 809216.7273789025 0.0
0.0 0.0 0.0

-852.2851134627126 234928.13291396358 0.0
234928.13291396358 -367021.5417286254 0.0
0.0 0.0 0.0

81389.3931831991 531359.701010059 0.0
531359.701010059 281469.89188752096 0.0
0.0 0.0 0.0

-54438.838955775995 583633.4342725546 0.0
583633.4342725546 194450.28798238758 0.0
0.0 0.0 0.0

-68734.67462457184 338485.3511649938 0.0
338485.3511649938 -930224.3319184884 0.0
0.0 0.0 0.0

-1922.8194470147137 1.6009037417851598e6 0.0
1.6009037417851598e6 -190445.53745839093 0.0
0.0 0.0 0.0

-15282.151427651406 372550.9039257122 0.0
372550.9039257122 507435.07734553696 0.0
0.0 0.0 0.0

-340428.52697231603 403229.07932401105 0.0
403229.07932401105 -1.6095506466901249e6 0.0
0.0 0.0 0.0

5030.090471067058 206813.6180969335 0.0
206813.6180969335 250402.79149286108 0.0
0.0 0.0 0.0

-47200.255598254866 473502.3481857394 0.0
473502.3481857394 271917.1328151369 0.0
0.0 0.0 0.0

73400.89404277745 365387.826881646 0.0
365387.826881646 843556.9048633827 0.0
0.0 0.0 0.0

-12556.641005440499 362647.29053849285 0.0
362647.29053849285 341028.51003365417 0.0
0.0 0.0 0.0

151355.647003918 356616.7653890456 0.0
356616.7653890456 1.681493412087785e6 0.0
0.0 0.0 0.0

-31523.345488494655 476805.89475790027 0.0
476805.89475790027 270751.50367879216 0.0
0.0 0.0 0.0

-58121.63947754519 440524.6468682227 0.0
440524.6468682227 -592680.1555119761 0.0
0.0 0.0 0.0

58656.0980881814 532296.9647383182 0.0
532296.9647383182 -310875.724942635 0.0
0.0 0.0 0.0

4.77978726770073e6 841645.4106010504 0.0
841645.4106010504 472907.3233570515 0.0
0.0 0.0 0.0

-2686.2332476811716 16796.10117949258 0.0
16796.10117949258 999715.8690115997 0.0
0.0 0.0 0.0

1856.7461037460016 13998.468800234334 0.0
13998.468800234334 -999267.8719201186 0.0
0.0 0.0 0.0

-6232.081167495751 86446.30135552153 0.0
86446.30135552153 351115.16349574726 0.0
0.0 0.0 0.0

16238.040667640566 670223.8861392319 0.0
670223.8861392319 -57650.04315195842 0.0
0.0 0.0 0.0

-648.5068164590048 16185.908518159382 0.0
16185.908518159382 1.2825380154847445e6 0.0
0.0 0.0 0.0

-234646.1858169284 385064.30583999754 0.0
385064.30583999754 -966864.1663758418 0.0
0.0 0.0 0.0

978.3871474900516 269301.540494846 0.0
269301.540494846 641836.9121875569 0.0
0.0 0.0 0.0

-31311.59439646572 413547.1427143837 0.0
413547.1427143837 433778.3912975493 0.0
0.0 0.0 0.0

390.48554828896886 15046.682231667322 0.0
15046.682231667322 -1.137387563359715e6 0.0
0.0 0.0 0.0

45057.138738768204 452731.92948218965 0.0
452731.92948218965 -328543.9052118125 0.0
0.0 0.0 0.0

8934.03722362956 1.0647770396455578e6 0.0
1.0647770396455578e6 -30290.651429964237 0.0
0.0 0.0 0.0

-422.0300723667897 254798.70153125343 0.0
254798.70153125343 -331893.1223721712 0.0
0.0 0.0 0.0

-106160.13243982174 525412.4080168925 0.0
525412.4080168925 -113173.04789944184 0.0
0.0 0.0 0.0

84381.26577216096 189515.93607661664 0.0
189515.93607661664 2.556113290002928e6 0.0
0.0 0.0 0.0

-87155.57996485068 187393.61897117714 0.0
187393.61897117714 -2.554151631408273e6 0.0
0.0 0.0 0.0

-185954.57571518508 391733.425471869 0.0
391733.425471869 -2.193355530833384e6 0.0
0.0 0.0 0.0

30457.457979494182 396089.19931631506 0.0
396089.19931631506 -433230.6091939474 0.0
0.0 0.0 0.0

-1272.7711679385975 152709.95005701281 0.0
152709.95005701281 -1.2079046921330898e6 0.0
0.0 0.0 0.0

-616304.3616249635 645835.4807912915 0.0
645835.4807912915 -25750.76491884215 0.0
0.0 0.0 0.0

94756.76942071336 575498.486732307 0.0
575498.486732307 -257338.36025982053 0.0
0.0 0.0 0.0

-1337.7043998648296 15512.92892420321 0.0
15512.92892420321 1.0333629257200082e6 0.0
0.0 0.0 0.0

-4108.336882622563 258089.06541463285 0.0
258089.06541463285 339157.0267054801 0.0
0.0 0.0 0.0

-55967.00340871196 665220.7423263898 0.0
665220.7423263898 121039.76587992065 0.0
0.0 0.0 0.0

-66792.31242226223 533170.245513598 0.0
533170.245513598 261010.85591382766 0.0
0.0 0.0 0.0

-25437.85697313593 326234.9901516151 0.0
326234.9901516151 356602.01025941526 0.0
0.0 0.0 0.0

4379.277174214425 178391.24067921063 0.0
178391.24067921063 353380.6696117776 0.0
0.0 0.0 0.0

267855.17412862513 517925.96074968233 0.0
517925.96074968233 178162.0912480601 0.0
0.0 0.0 0.0

69847.92613021703 640046.4636218811 0.0
640046.4636218811 -165376.36571530523 0.0
0.0 0.0 0.0

-10325.078845043507 121139.72501656655 0.0
121139.72501656655 100265.36854893024 0.0
0.0 0.0 0.0

61069.661795821565 740445.4200578049 0.0
740445.4200578049 -45509.7588719778 0.0
0.0 0.0 0.0

-14647.93769267865 338538.9014293373 0.0
338538.9014293373 585315.4606022092 0.0
0.0 0.0 0.0

-14173.226927160402 384837.8264914189 0.0
384837.8264914189 305581.4146866461 0.0
0.0 0.0 0.0

-54.290976611024234 14681.859922561138 0.0
14681.859922561138 1.0671811622746561e6 0.0
0.0 0.0 0.0

-80.1089278611471 15041.400598997376 0.0
15041.400598997376 -1.0671737755106639e6 0.0
0.0 0.0 0.0

-2847.9667210903135 160943.2070614507 0.0
160943.2070614507 -1.2915017233198339e6 0.0
0.0 0.0 0.0

-13769.610738156975 256820.55118842627 0.0
256820.55118842627 623973.9349837861 0.0
0.0 0.0 0.0

-42940.04592315375 107651.94291502351 0.0
107651.94291502351 -2.2409393210550607e6 0.0
0.0 0.0 0.0

1861.9547318348195 27705.868638436707 0.0
27705.868638436707 1.6659498569665672e6 0.0
0.0 0.0 0.0

-581.5099988123984 227543.89593643165 0.0
227543.89593643165 -487645.0865355544 0.0
0.0 0.0 0.0

13601.957519651973 191760.30672123007 0.0
191760.30672123007 -569345.9276517022 0.0
0.0 0.0 0.0

226794.8200859625 964251.9417183262 0.0
964251.9417183262 -67845.77827544077 0.0
0.0 0.0 0.0

-227937.36621359177 762605.29450076 0.0
762605.29450076 129646.61470324225 0.0
0.0 0.0 0.0

-56032.5717485863 564487.740298885 0.0
564487.740298885 217360.4812292118 0.0
0.0 0.0 0.0

80484.35978045408 707372.5348079544 0.0
707372.5348079544 -84275.98565481586 0.0
0.0 0.0 0.0

-37972.685403813244 968965.5233937044 0.0
968965.5233937044 34716.38237424487 0.0
0.0 0.0 0.0

-75166.54203368303 606442.4066408193 0.0
606442.4066408193 202758.78798363905 0.0
0.0 0.0 0.0

69982.02146219768 461588.3754650596 0.0
461588.3754650596 316451.83534144796 0.0
0.0 0.0 0.0

-14673.082617603126 50413.31502674148 0.0
50413.31502674148 -1.915836476192553e6 0.0
0.0 0.0 0.0

3327.756171836867 15699.574506389386 0.0
15699.574506389386 -1.2816998228229983e6 0.0
0.0 0.0 0.0

-4061.9137541645905 28079.278201553978 0.0
28079.278201553978 -1.665811675469437e6 0.0
0.0 0.0 0.0

-44824.13134684674 684774.969124366 0.0
684774.969124366 45288.25666472147 0.0
0.0 0.0 0.0

-14307.042440298042 225202.34034941831 0.0
225202.34034941831 217274.24810655197 0.0
0.0 0.0 0.0

1739.446305186546 17216.048726375466 0.0
17216.048726375466 1.3204815776455193e6 0.0
0.0 0.0 0.0

-16331.406367694464 264187.98550927796 0.0
264187.98550927796 561018.3668069311 0.0
0.0 0.0 0.0

2899.093658746744 48912.44254760088 0.0
48912.44254760088 -645939.111963647 0.0
0.0 0.0 0.0

-363313.98059394193 660444.8402561836 0.0
660444.8402561836 67425.67803721878 0.0
0.0 0.0 0.0

-223768.28217950597 420636.8280146011 0.0
420636.8280146011 -808535.1701230088 0.0
0.0 0.0 0.0

121.26542407739908 14392.45104628181 0.0
14392.45104628181 856024.4944515575 0.0
0.0 0.0 0.0

-8823.095976911223 140093.0835576871 0.0
140093.0835576871 595616.3156581201 0.0
0.0 0.0 0.0

4360.929295834096 215939.45918215488 0.0
215939.45918215488 958699.7978963648 0.0
0.0 0.0 0.0

-22499.150194841204 475289.42744052067 0.0
475289.42744052067 423842.43135772203 0.0
0.0 0.0 0.0

-6486.658613533102 298372.3373976893 0.0
298372.3373976893 -689661.5030230875 0.0
0.0 0.0 0.0

-2328.4636055117007 39683.84192208614 0.0
39683.84192208614 -1.8209451236436644e6 0.0
0.0 0.0 0.0

-428.5683601543424 14551.720385339422 0.0
14551.720385339422 -895736.1959373993 0.0
0.0 0.0 0.0

494215.82576262945 1.0395658892638882e6 0.0
1.0395658892638882e6 -154226.78990182435 0.0
0.0 0.0 0.0

1258.978698101826 26042.05213138938 0.0
26042.05213138938 1.605288891338475e6 0.0
0.0 0.0 0.0

-5646.2443321201135 189624.30510875254 0.0
189624.30510875254 -1.081365869810151e6 0.0
0.0 0.0 0.0

1120.7191489016404 67462.71520386124 0.0
67462.71520386124 2.0477318582150282e6 0.0
0.0 0.0 0.0

-15708.933763721143 69692.1018791518 0.0
69692.1018791518 -2.0478406089648616e6 0.0
0.0 0.0 0.0

-114462.5360451904 640141.8858556664 0.0
640141.8858556664 193391.195600659 0.0
0.0 0.0 0.0

-5519.204520173058 281265.97718641855 0.0
281265.97718641855 -100865.82900564745 0.0
0.0 0.0 0.0

28603.70508404734 480972.5504142898 0.0
480972.5504142898 -253133.45957060828 0.0
0.0 0.0 0.0

14329.627733420173 433598.3431490052 0.0
433598.3431490052 -483446.870390672 0.0
0.0 0.0 0.0

6904.013366059517 31583.322842666796 0.0
31583.322842666796 1.7353877492852532e6 0.0
0.0 0.0 0.0

-6240.995978884166 34578.96696674115 0.0
34578.96696674115 -1.738704645101955e6 0.0
0.0 0.0 0.0

-5500.852212216909 355507.0488053633 0.0
355507.0488053633 603685.6044875846 0.0
0.0 0.0 0.0

-16665.25643492723 325922.4275407346 0.0
325922.4275407346 569924.6679420298 0.0
0.0 0.0 0.0

-380.4757577566779 238975.15133033038 0.0
238975.15133033038 825892.8465279934 0.0
0.0 0.0 0.0

-10827.86602744025 340631.1683275128 0.0
340631.1683275128 377936.5978662295 0.0
0.0 0.0 0.0

225055.03406563055 400560.8746588553 0.0
400560.8746588553 1.200193601094436e6 0.0
0.0 0.0 0.0

98026.87445462566 655500.2641005229 0.0
655500.2641005229 -141021.0816056723 0.0
0.0 0.0 0.0

-46288.85854827471 742023.0541835441 0.0
742023.0541835441 26785.95074077746 0.0
0.0 0.0 0.0

89833.73803352406 698257.6186340117 0.0
698257.6186340117 -122773.29400748527 0.0
0.0 0.0 0.0

16490.0279406255 231090.47968697187 0.0
231090.47968697187 -489188.6567223279 0.0
0.0 0.0 0.0

-134394.56751499436 734043.2552511914 0.0
734043.2552511914 131529.69006572038 0.0
0.0 0.0 0.0

-61178.76173799138 510835.5129083592 0.0
510835.5129083592 -155639.07977531702 0.0
0.0 0.0 0.0

23663.55128588993 361376.4218781317 0.0
361376.4218781317 -508406.7627195993 0.0
0.0 0.0 0.0

24070.00986795916 303599.4447083314 0.0
303599.4447083314 816828.3189502967 0.0
0.0 0.0 0.0

-11750.103723260167 270286.934318217 0.0
270286.934318217 642990.0833006131 0.0
0.0 0.0 0.0

-2082.148233531072 203754.22338284398 0.0
203754.22338284398 -588198.0192148994 0.0
0.0 0.0 0.0

-63.24165103491396 14903.550525487597 0.0
14903.550525487597 1.1711053236534437e6 0.0
0.0 0.0 0.0

-685.9376660309499 15773.850070512404 0.0
15773.850070512404 -1.1720681895800158e6 0.0
0.0 0.0 0.0

101546.76636104498 418467.24133481254 0.0
418467.24133481254 661790.4836843504 0.0
0.0 0.0 0.0

2342.53674093273 24954.175005836787 0.0
24954.175005836787 1.5487693082601316e6 0.0
0.0 0.0 0.0

-4827.27943786321 23619.892026464644 0.0
23619.892026464644 -1.5464937059246583e6 0.0
0.0 0.0 0.0

-744.0824300096137 17778.912217092522 0.0
17778.912217092522 -1.206786216666354e6 0.0
0.0 0.0 0.0

120.49859096412547 16017.468231969971 0.0
16017.468231969971 1.2079218066845376e6 0.0
0.0 0.0 0.0

113827.78612902015 342480.1055552521 0.0
342480.1055552521 1.1537012274567788e6 0.0
0.0 0.0 0.0

-1460.1439543179004 21058.17060532597 0.0
21058.17060532597 -1.4970750404536265e6 0.0
0.0 0.0 0.0

2237.515827338968 21836.80693508919 0.0
21836.80693508919 1.4953313594597392e6 0.0
0.0 0.0 0.0

24391.85204890481 449319.1933326532 0.0
449319.1933326532 507952.9955737154 0.0
0.0 0.0 0.0

6983.318893289717 62331.21267601782 0.0
62331.21267601782 1.0703887534190048e6 0.0
0.0 0.0 0.0

267.5077591808513 16784.252469297244 0.0
16784.252469297244 1.2451338931156383e6 0.0
0.0 0.0 0.0

4577.108523714123 17519.160691692618 0.0
17519.160691692618 -1.245598516113539e6 0.0
0.0 0.0 0.0

-1501.6699815490865 21170.774361771262 0.0
21170.774361771262 -1.450210394587269e6 0.0
0.0 0.0 0.0

1065.3342046714388 18999.801731376345 0.0
18999.801731376345 1.4475827510017562e6 0.0
0.0 0.0 0.0

-8.091118890645341e6 1.7043775942898113e6 0.0
1.7043775942898113e6 -976651.130817245 0.0
0.0 0.0 0.0

8.173389304125285e6 1.7446364201750401e6 0.0
1.7446364201750401e6 951723.1239095274 0.0
0.0 0.0 0.0

-26246.83397680281 338227.3723573796 0.0
338227.3723573796 379945.2976762043 0.0
0.0 0.0 0.0

-5143.589382531762 17891.401922297657 0.0
17891.401922297657 -1.4035508037832826e6 0.0
0.0 0.0 0.0

-1034.314391870459 18441.70729984281 0.0
18441.70729984281 1.4055991553276444e6 0.0
0.0 0.0 0.0

21840.01626924042 479512.7978071639 0.0
479512.7978071639 -11360.966606450185 0.0
0.0 0.0 0.0

-14949.037365857046 291941.95219576696 0.0
291941.95219576696 597602.8026442325 0.0
0.0 0.0 0.0

-48295.46348585983 684203.3953454907 0.0
684203.3953454907 101110.40476840494 0.0
0.0 0.0 0.0

115206.75929759078 430959.4809227442 0.0
430959.4809227442 679646.2444815175 0.0
0.0 0.0 0.0

-445.8672439085203 18759.546977348782 0.0
18759.546977348782 1.3633177862965784e6 0.0
0.0 0.0 0.0

-957.5887240034062 14642.163515740334 0.0
14642.163515740334 -1.3638216961950134e6 0.0
0.0 0.0 0.0

67633.20593535181 660377.0490550975 0.0
660377.0490550975 -144853.77556631214 0.0
0.0 0.0 0.0

-251947.3630724976 406707.70170902426 0.0
406707.70170902426 -1.6396422947013453e6 0.0
0.0 0.0 0.0

19640.33364059054 742087.792135047 0.0
742087.792135047 -45163.302927297664 0.0
0.0 0.0 0.0

35881.61565668421 414843.5939364696 0.0
414843.5939364696 -396988.47754550143 0.0
0.0 0.0 0.0

-7570.1363225030655 374811.7072325395 0.0
374811.7072325395 -614853.0353108305 0.0
0.0 0.0 0.0

25032.88858580332 477540.5020086519 0.0
477540.5020086519 174234.7999706196 0.0
0.0 0.0 0.0

148597.04784948868 657670.4942363363 0.0
657670.4942363363 -176882.7939257024 0.0
0.0 0.0 0.0

97710.12291454803 594034.821878724 0.0
594034.821878724 -222448.38572358314 0.0
0.0 0.0 0.0

-195113.17491431657 377668.0818868271 0.0
377668.0818868271 -1.2689496619079337e6 0.0
0.0 0.0 0.0

-17071.847039792076 731488.8213434794 0.0
731488.8213434794 43188.866151457405 0.0
0.0 0.0 0.0

-61314.83605763961 548384.1162977016 0.0
548384.1162977016 229339.8285524179 0.0
0.0 0.0 0.0

-207602.81470501408 579571.6930201316 0.0
579571.6930201316 -333107.28275873227 0.0
0.0 0.0 0.0

-14289.629693678755 387307.5484837649 0.0
387307.5484837649 -617504.1243992143 0.0
0.0 0.0 0.0

-18834.263665772945 272904.3619342689 0.0
272904.3619342689 497621.40035453497 0.0
0.0 0.0 0.0

105655.16165393936 437362.1684709737 0.0
437362.1684709737 357514.7625283365 0.0
0.0 0.0 0.0

-20775.635189667024 306333.18503639504 0.0
306333.18503639504 478487.42443608306 0.0
0.0 0.0 0.0

12628.026435439473 466707.4119738908 0.0
466707.4119738908 -6195.642333825676 0.0
0.0 0.0 0.0

-28509.383755654188 718003.5496104213 0.0
718003.5496104213 64718.13962244434 0.0
0.0 0.0 0.0

-94044.20839367568 386054.1259274744 0.0
386054.1259274744 -836790.2525183103 0.0
0.0 0.0 0.0

37158.12362874423 453885.64735221356 0.0
453885.64735221356 511793.8318661686 0.0
0.0 0.0 0.0

-46908.48400286271 999517.1096442759 0.0
999517.1096442759 46618.02700345067 0.0
0.0 0.0 0.0

-6564.484651492339 480778.0867332335 0.0
480778.0867332335 -30958.157317573237 0.0
0.0 0.0 0.0

53304.086214320036 695565.2700757527 0.0
695565.2700757527 -102644.87954991616 0.0
0.0 0.0 0.0

575315.337233483 614863.5605024946 0.0
614863.5605024946 385837.8493769858 0.0
0.0 0.0 0.0

-40086.04369910314 701921.379409646 0.0
701921.379409646 82066.93803869208 0.0
0.0 0.0 0.0

-201340.901396139 305445.70924604335 0.0
305445.70924604335 -164520.47941600095 0.0
0.0 0.0 0.0

-29007.86612428267 791030.7646578972 0.0
791030.7646578972 41306.81429859502 0.0
0.0 0.0 0.0

-1296.5620196267555 14279.59655965863 0.0
14279.59655965863 -687868.9394435307 0.0
0.0 0.0 0.0

-819.4118865857017 14422.683478926963 0.0
14422.683478926963 -655684.0065245208 0.0
0.0 0.0 0.0

63379.17140009722 678560.451787047 0.0
678560.451787047 -118778.73811003519 0.0
0.0 0.0 0.0

158308.80772568905 400054.29088986904 0.0
400054.29088986904 961706.458004837 0.0
0.0 0.0 0.0

-11165.555401363854 825211.7333410508 0.0
825211.7333410508 27554.370134688506 0.0
0.0 0.0 0.0

-4147.048146175075 242872.36836721314 0.0
242872.36836721314 757757.0383375294 0.0
0.0 0.0 0.0

-27186.714743692894 918578.7334692347 0.0
918578.7334692347 30783.55113246563 0.0
0.0 0.0 0.0

-30414.946399528082 508110.20861964545 0.0
508110.20861964545 283409.22936935315 0.0
0.0 0.0 0.0

14610.065842150136 444202.1128482126 0.0
444202.1128482126 140559.09961356322 0.0
0.0 0.0 0.0

-876.96362874849 293087.9161163454 0.0
293087.9161163454 -739367.6018501945 0.0
0.0 0.0 0.0

-80925.27503075145 676825.3955966369 0.0
676825.3955966369 102516.77464757119 0.0
0.0 0.0 0.0

3677.986459761596 41913.08817265807 0.0
41913.08817265807 768451.547085297 0.0
0.0 0.0 0.0

109175.66872054944 339349.2868900596 0.0
339349.2868900596 1.2410800514579406e6 0.0
0.0 0.0 0.0

-172806.22991740337 371515.2787915774 0.0
371515.2787915774 -1.422246693455995e6 0.0
0.0 0.0 0.0

16476.902376699494 251372.6698005689 0.0
251372.6698005689 842731.6716289264 0.0
0.0 0.0 0.0

274971.4861435615 676830.7214679372 0.0
676830.7214679372 -111683.46895900396 0.0
0.0 0.0 0.0

10298.050727773661 309465.4129296508 0.0
309465.4129296508 -634794.9644489647 0.0
0.0 0.0 0.0

-11168.574018676156 465201.7156148885 0.0
465201.7156148885 -6585.782194435245 0.0
0.0 0.0 0.0

33833.03095100555 728507.8944344955 0.0
728507.8944344955 -63741.251572929774 0.0
0.0 0.0 0.0

-21158.11919633107 464156.5328147721 0.0
464156.5328147721 -121353.88408022095 0.0
0.0 0.0 0.0

218.32273222421645 255286.12321635257 0.0
255286.12321635257 623145.7255543988 0.0
0.0 0.0 0.0

17555.662825847598 286704.4481049875 0.0
286704.4481049875 802394.5986528397 0.0
0.0 0.0 0.0

44379.51129256801 712398.7096091293 0.0
712398.7096091293 -83722.70483982543 0.0
0.0 0.0 0.0

-9116.289014995447 318559.88054084533 0.0
318559.88054084533 415208.14320586284 0.0
0.0 0.0 0.0

5248.879354947538 86802.7648468248 0.0
86802.7648468248 -1.1419220512923468e6 0.0
0.0 0.0 0.0

-31923.289916604263 390866.26796783 0.0
390866.26796783 331249.22007524275 0.0
0.0 0.0 0.0

-54228.043777322564 457851.4552329167 0.0
457851.4552329167 -277432.6819300795 0.0
0.0 0.0 0.0

35854.500154304085 482297.4032917438 0.0
482297.4032917438 60300.55444944359 0.0
0.0 0.0 0.0

-97663.59854648201 519091.4309563782 0.0
519091.4309563782 -327716.26771675266 0.0
0.0 0.0 0.0

10118.378543989718 476853.0062405673 0.0
476853.0062405673 -133566.80111810158 0.0
0.0 0.0 0.0

-111.68956534279278 390572.507653406 0.0
390572.507653406 -568279.6812303914 0.0
0.0 0.0 0.0

-7710.607699696266 173486.92701934336 0.0
173486.92701934336 -784372.1717020549 0.0
0.0 0.0 0.0

-39335.11449361172 461489.23581831745 0.0
461489.23581831745 -197973.32970315995 0.0
0.0 0.0 0.0

1004.1976257085626 242710.5184422328 0.0
242710.5184422328 -507749.474240156 0.0
0.0 0.0 0.0

2889.3335818870983 51162.29098201268 0.0
51162.29098201268 -503359.2281364558 0.0
0.0 0.0 0.0

-67191.9268468887 713174.4558287901 0.0
713174.4558287901 64082.82610025476 0.0
0.0 0.0 0.0

-4528.558577616779 300005.5208552229 0.0
300005.5208552229 -134603.78929456303 0.0
0.0 0.0 0.0

-17307.11839200431 479347.37235532544 0.0
479347.37235532544 415747.9786864511 0.0
0.0 0.0 0.0

1442.77423423031 14828.949532763663 0.0
14828.949532763663 512685.5483324036 0.0
0.0 0.0 0.0

165100.80089288097 522458.6893949942 0.0
522458.6893949942 104505.81894986995 0.0
0.0 0.0 0.0

-130388.42850145343 519926.0311419741 0.0
519926.0311419741 -364199.66833436646 0.0
0.0 0.0 0.0

-3641.469877323805 183393.25122974027 0.0
183393.25122974027 -627838.160557696 0.0
0.0 0.0 0.0

-2.8682445014507137e6 550413.4981093995 0.0
550413.4981093995 6558.60870984639 0.0
0.0 0.0 0.0

-3731.4717038241797 436414.35579022346 0.0
436414.35579022346 509600.65655613097 0.0
0.0 0.0 0.0

57119.86344646494 496963.6126701816 0.0
496963.6126701816 -327615.7850129587 0.0
0.0 0.0 0.0

8904.93734725134 429004.6730972325 0.0
429004.6730972325 -168571.37194545177 0.0
0.0 0.0 0.0

969.9890694827482 341654.3038549183 0.0
341654.3038549183 -652829.1562092174 0.0
0.0 0.0 0.0

93673.85751594247 450113.6206529466 0.0
450113.6206529466 336529.62702107755 0.0
0.0 0.0 0.0

-22613.72722199725 303590.36561214615 0.0
303590.36561214615 -861909.3457057656 0.0
0.0 0.0 0.0

92608.67467114935 458475.9903619492 0.0
458475.9903619492 396241.5032920508 0.0
0.0 0.0 0.0

29852.859352421496 440959.8095777442 0.0
440959.8095777442 -375280.8053241266 0.0
0.0 0.0 0.0

11355.50720489581 180804.37049492678 0.0
180804.37049492678 -683691.7610006656 0.0
0.0 0.0 0.0

-7854.475989809376 38365.20478128941 0.0
38365.20478128941 -1.3253058605954705e6 0.0
0.0 0.0 0.0

219531.4729795646 733718.8018619767 0.0
733718.8018619767 -132249.19679871446 0.0
0.0 0.0 0.0

-9639.577549543144 296843.0648821842 0.0
296843.0648821842 -800404.039026286 0.0
0.0 0.0 0.0

-135816.86741661726 707042.6097526758 0.0
707042.6097526758 145504.34974705323 0.0
0.0 0.0 0.0

-199077.695866854 542867.2606952186 0.0
542867.2606952186 25500.084339767243 0.0
0.0 0.0 0.0

12753.74419561158 152063.82475168796 0.0
152063.82475168796 -247300.81894670494 0.0
0.0 0.0 0.0

-62995.839048763155 1.0316557264407893e6 0.0
1.0316557264407893e6 56227.84008936009 0.0
0.0 0.0 0.0

13645.248104172148 208060.29098521752 0.0
208060.29098521752 -587453.463307318 0.0
0.0 0.0 0.0

179439.89251951635 369180.75244356686 0.0
369180.75244356686 1.306863253782705e6 0.0
0.0 0.0 0.0

-16784.210730380946 485839.76825071545 0.0
485839.76825071545 43095.049943013975 0.0
0.0 0.0 0.0

-233447.73607928515 721819.0557230776 0.0
721819.0557230776 133321.6137939958 0.0
0.0 0.0 0.0

-5052.457709327427 286672.0846639046 0.0
286672.0846639046 516981.6247174979 0.0
0.0 0.0 0.0

-4093.0205001999275 330829.9548913065 0.0
330829.9548913065 -651309.040132471 0.0
0.0 0.0 0.0

-10582.33954123794 238736.22947019883 0.0
238736.22947019883 24781.983147827454 0.0
0.0 0.0 0.0

30731.915747867708 493426.7333803798 0.0
493426.7333803798 -107339.1158927026 0.0
0.0 0.0 0.0

468343.83017157856 546073.4681381324 0.0
546073.4681381324 164715.38922263103 0.0
0.0 0.0 0.0

46348.831267580725 492580.1881752938 0.0
492580.1881752938 -372229.32376659254 0.0
0.0 0.0 0.0

11310.439018080197 178825.34582724373 0.0
178825.34582724373 -70482.14098705146 0.0
0.0 0.0 0.0

-3391.5401144331263 360835.0534116695 0.0
360835.0534116695 -610777.3775085239 0.0
0.0 0.0 0.0

3513.678698300326 41888.17699336048 0.0
41888.17699336048 934548.0874741644 0.0
0.0 0.0 0.0

-53412.794406045505 507779.2879904843 0.0
507779.2879904843 353715.5963309114 0.0
0.0 0.0 0.0

-11999.120863500226 303937.9542913865 0.0
303937.9542913865 615306.2864712453 0.0
0.0 0.0 0.0

-476317.84488300775 586058.0707114397 0.0
586058.0707114397 -292920.1640142426 0.0
0.0 0.0 0.0

-180310.164054954 392669.55816635245 0.0
392669.55816635245 -1.2072549895095155e6 0.0
0.0 0.0 0.0

-87460.36622083701 626495.6935837177 0.0
626495.6935837177 194674.70509582246 0.0
0.0 0.0 0.0

-135164.60723172195 652122.5983679803 0.0
652122.5983679803 175335.35879821505 0.0
0.0 0.0 0.0

133475.94342247778 598459.8774889895 0.0
598459.8774889895 -214651.53614713682 0.0
0.0 0.0 0.0

-130362.97801239014 355145.08257866336 0.0
355145.08257866336 -1.2412595969042568e6 0.0
0.0 0.0 0.0

10791.252598750725 464679.8683504651 0.0
464679.8683504651 450347.9232698284 0.0
0.0 0.0 0.0

14838.397046869039 157146.94783507488 0.0
157146.94783507488 1.263650317813621e6 0.0
0.0 0.0 0.0

-1008.528016479584 17477.067160507908 0.0
17477.067160507908 -103862.41760491159 0.0
0.0 0.0 0.0

-52715.682773490815 430296.25347165903 0.0
430296.25347165903 -576473.7158454693 0.0
0.0 0.0 0.0

139393.27113815935 632989.5400518592 0.0
632989.5400518592 -194517.80155295733 0.0
0.0 0.0 0.0

13100.545258276696 497195.3111158655 0.0
497195.3111158655 -4585.542528494887 0.0
0.0 0.0 0.0

10656.949964663334 392555.2993094317 0.0
392555.2993094317 -230925.47690727128 0.0
0.0 0.0 0.0

-265292.72156404547 406226.1727870278 0.0
406226.1727870278 -991234.5694880717 0.0
0.0 0.0 0.0

3591.720711421978 275847.8402781081 0.0
275847.8402781081 787639.7442004349 0.0
0.0 0.0 0.0

40143.24851984898 826213.1368189446 0.0
826213.1368189446 -7322.251170380014 0.0
0.0 0.0 0.0

-713062.0013870958 578011.6415421366 0.0
578011.6415421366 -262582.6142204692 0.0
0.0 0.0 0.0

175715.36429890172 535040.8590875276 0.0
535040.8590875276 110983.88391877516 0.0
0.0 0.0 0.0

-6784.954455829458 146362.59021587027 0.0
146362.59021587027 -309576.6941009633 0.0
0.0 0.0 0.0

8488.749011644202 481214.05750555824 0.0
481214.05750555824 19236.312275160955 0.0
0.0 0.0 0.0

22081.727180879156 228368.69960091222 0.0
228368.69960091222 974981.1647483384 0.0
0.0 0.0 0.0

-189042.45116225097 761319.2535885903 0.0
761319.2535885903 124495.20479437076 0.0
0.0 0.0 0.0

-1133.3647916851041 462584.3647243716 0.0
462584.3647243716 456106.6774441344 0.0
0.0 0.0 0.0

-30531.97562797572 754497.954248965 0.0
754497.954248965 9328.74239632918 0.0
0.0 0.0 0.0

25463.571062017436 422283.4127846661 0.0
422283.4127846661 -408999.9522452077 0.0
0.0 0.0 0.0

23647.95279111754 269538.6377534892 0.0
269538.6377534892 992732.2046577639 0.0
0.0 0.0 0.0

8111.254935596109 442947.6785115108 0.0
442947.6785115108 -482339.48701230594 0.0
0.0 0.0 0.0

-199996.24314476099 521099.3728829028 0.0
521099.3728829028 -122640.82000426999 0.0
0.0 0.0 0.0

38169.848136203305 846251.5312795761 0.0
846251.5312795761 -11325.28331096692 0.0
0.0 0.0 0.0

-5237.642403849924 75271.55871787526 0.0
75271.55871787526 -529433.4038367491 0.0
0.0 0.0 0.0

116205.68549008507 579182.8871902437 0.0
579182.8871902437 -179929.41604005426 0.0
0.0 0.0 0.0

-74931.22746867256 627489.4193920804 0.0
627489.4193920804 180489.02020982836 0.0
0.0 0.0 0.0

-2420.044056365383 264511.79569384834 0.0
264511.79569384834 559349.4613212874 0.0
0.0 0.0 0.0

-167997.28596266912 562106.9795556806 0.0
562106.9795556806 -294667.54380101105 0.0
0.0 0.0 0.0

7152.574122370075 312103.241710149 0.0
312103.241710149 746334.1052633125 0.0
0.0 0.0 0.0

53815.71404594145 86249.95918855372 0.0
86249.95918855372 70106.49648915688 0.0
0.0 0.0 0.0

-64592.67489912867 606300.0492164514 0.0
606300.0492164514 186057.50650763192 0.0
0.0 0.0 0.0

-10124.613353141584 249004.92257092366 0.0
249004.92257092366 689715.1613211446 0.0
0.0 0.0 0.0

-49442.74821821254 480319.84209804144 0.0
480319.84209804144 290904.7792085217 0.0
0.0 0.0 0.0

219391.30504304118 391735.03341875575 0.0
391735.03341875575 1.0643082147039825e6 0.0
0.0 0.0 0.0

-104130.09405496635 354840.4174232469 0.0
354840.4174232469 -1.0775002425740375e6 0.0
0.0 0.0 0.0

1082.251180990279 13672.4496670679 0.0
13672.4496670679 474296.79186399805 0.0
0.0 0.0 0.0

352186.5226153211 728519.720443205 0.0
728519.720443205 -100432.92011016031 0.0
0.0 0.0 0.0

13346.530013760464 234923.5865268107 0.0
234923.5865268107 826302.599151085 0.0
0.0 0.0 0.0

6538.015405323182 323832.48533646116 0.0
323832.48533646116 -306883.19233933033 0.0
0.0 0.0 0.0

3525.9668740289926 477752.4457966218 0.0
477752.4457966218 388546.29011329747 0.0
0.0 0.0 0.0

27366.97536136159 463542.82933899545 0.0
463542.82933899545 -112225.26738562022 0.0
0.0 0.0 0.0

-38731.38307385045 487751.70329762227 0.0
487751.70329762227 385132.4780055661 0.0
0.0 0.0 0.0

4401.921556313027 244938.99336858385 0.0
244938.99336858385 -120756.77979005761 0.0
0.0 0.0 0.0

-151437.08397989487 579175.6869642055 0.0
579175.6869642055 135990.89181007957 0.0
0.0 0.0 0.0

-49408.25807579336 485255.72308583284 0.0
485255.72308583284 307021.20123242855 0.0
0.0 0.0 0.0

102396.44725054686 572896.4392756022 0.0
572896.4392756022 -216377.11705396252 0.0
0.0 0.0 0.0

-85213.57432498317 638398.6444108177 0.0
638398.6444108177 144871.28434251758 0.0
0.0 0.0 0.0

-13073.11253223863 847059.4833519468 0.0
847059.4833519468 29814.156537019953 0.0
0.0 0.0 0.0

-91161.15529589014 355897.85438498115 0.0
355897.85438498115 -922112.8994326215 0.0
0.0 0.0 0.0

3860.1235721480007 21619.489809991075 0.0
21619.489809991075 58967.520953628606 0.0
0.0 0.0 0.0

-8365.154306177355 75134.6597789213 0.0
75134.6597789213 319167.04239562264 0.0
0.0 0.0 0.0

-5811.258798198309 82848.07163562608 0.0
82848.07163562608 -1.630293877972826e6 0.0
0.0 0.0 0.0

74022.43435403632 627039.5350504698 0.0
627039.5350504698 -135163.12156020734 0.0
0.0 0.0 0.0

-9280.034562483546 458586.3627634209 0.0
458586.3627634209 462161.3880635654 0.0
0.0 0.0 0.0

-15909.61690230461 278066.1801220783 0.0
278066.1801220783 579661.5936537489 0.0
0.0 0.0 0.0

-83629.32064577442 1.067799163112834e6 0.0
1.067799163112834e6 64680.79605198926 0.0
0.0 0.0 0.0

347.76842473377474 217480.83082807547 0.0
217480.83082807547 880822.4006769024 0.0
0.0 0.0 0.0

1.3793817689620177e6 1.9898334533163079e6 0.0
1.9898334533163079e6 -14122.161404892511 0.0
0.0 0.0 0.0

74184.49027840467 559334.5526305727 0.0
559334.5526305727 -267258.51560792635 0.0
0.0 0.0 0.0

26552.191298798454 378118.2702835689 0.0
378118.2702835689 -469711.9285407786 0.0
0.0 0.0 0.0

-33623.13033513016 493888.77796338324 0.0
493888.77796338324 375359.85458654957 0.0
0.0 0.0 0.0

11041.694181822764 256708.93652545565 0.0
256708.93652545565 917970.6162454997 0.0
0.0 0.0 0.0

93184.62640158267 612003.4215710404 0.0
612003.4215710404 -186857.72271135525 0.0
0.0 0.0 0.0

50123.95780031514 486354.10323645466 0.0
486354.10323645466 130393.70440456006 0.0
0.0 0.0 0.0

-7587.745725657209 33713.34769079262 0.0
33713.34769079262 -1.0371419218908229e6 0.0
0.0 0.0 0.0

4912.105572317145 195632.35820630187 0.0
195632.35820630187 382108.5001348139 0.0
0.0 0.0 0.0

-131114.08458573293 1.1695590025068934e6 0.0
1.1695590025068934e6 101712.16045104517 0.0
0.0 0.0 0.0

6061.0362765896425 443379.3799086051 0.0
443379.3799086051 508445.0301154758 0.0
0.0 0.0 0.0

-65040.08058309562 448353.73356285953 0.0
448353.73356285953 -473310.1604953726 0.0
0.0 0.0 0.0

274164.5660004517 522830.4173501969 0.0
522830.4173501969 245157.51833855663 0.0
0.0 0.0 0.0

1762.433045738173 131345.40668270885 0.0
131345.40668270885 423316.29349697055 0.0
0.0 0.0 0.0

-14479.61609001876 246060.21086022284 0.0
246060.21086022284 183141.60317926956 0.0
0.0 0.0 0.0

-67407.26856007104 451709.10399624397 0.0
451709.10399624397 -357805.31996501435 0.0
0.0 0.0 0.0

33261.8106571519 425373.03517126123 0.0
425373.03517126123 -225688.52482129098 0.0
0.0 0.0 0.0

-38194.988438405446 434596.8352964237 0.0
434596.8352964237 397746.9008431182 0.0
0.0 0.0 0.0

-69581.8696767395 419795.4994409345 0.0
419795.4994409345 -630906.485585803 0.0
0.0 0.0 0.0

2430.7311727023043 309327.479491909 0.0
309327.479491909 -690812.5833429516 0.0
0.0 0.0 0.0

-99791.98600687386 623493.282272077 0.0
623493.282272077 204166.8393997175 0.0
0.0 0.0 0.0

18061.833924527484 433788.6898306174 0.0
433788.6898306174 -484100.25089359103 0.0
0.0 0.0 0.0

827.5497382399044 282288.80754279636 0.0
282288.80754279636 659623.006187049 0.0
0.0 0.0 0.0

11302.49175409603 81267.97816830922 0.0
81267.97816830922 -347699.1954647303 0.0
0.0 0.0 0.0

-1.0004485610184155e6 735442.4868979952 0.0
735442.4868979952 -526475.664368559 0.0
0.0 0.0 0.0

-7121.847109027796 127638.65837139502 0.0
127638.65837139502 -216829.9691291486 0.0
0.0 0.0 0.0

1747.5581949307962 17127.71261331377 0.0
17127.71261331377 -349733.17132291663 0.0
0.0 0.0 0.0

-142935.789350581 643000.39021316 0.0
643000.39021316 180420.12328212993 0.0
0.0 0.0 0.0

62620.05352883506 456938.3271091103 0.0
456938.3271091103 208733.5191649599 0.0
0.0 0.0 0.0

191916.67880082745 558929.2303133055 0.0
558929.2303133055 2160.857879182804 0.0
0.0 0.0 0.0

57356.88939641861 378423.11354452337 0.0
378423.11354452337 779071.3017552404 0.0
0.0 0.0 0.0

103936.57767831927 383774.63888864184 0.0
383774.63888864184 908700.6894552975 0.0
0.0 0.0 0.0

401016.08509419195 391624.2776612966 0.0
391624.2776612966 1.7114734723393116e6 0.0
0.0 0.0 0.0

4008.0200966231714 459686.9635269231 0.0
459686.9635269231 -106591.02801073814 0.0
0.0 0.0 0.0

-40244.097246250254 489459.9852354207 0.0
489459.9852354207 387953.34672427503 0.0
0.0 0.0 0.0

-35242.03320357289 412900.08275990916 0.0
412900.08275990916 296541.060814697 0.0
0.0 0.0 0.0

-79424.21353764363 445516.34932373156 0.0
445516.34932373156 -440084.1086299685 0.0
0.0 0.0 0.0

-97460.36547234774 640290.8772900343 0.0
640290.8772900343 159861.88795316181 0.0
0.0 0.0 0.0

4500.103510961111 255451.85055137792 0.0
255451.85055137792 841694.1793757625 0.0
0.0 0.0 0.0

482406.66014395293 677913.1447126522 0.0
677913.1447126522 -43293.08369602711 0.0
0.0 0.0 0.0

84025.88578420562 573350.484680687 0.0
573350.484680687 -236376.55939677788 0.0
0.0 0.0 0.0

-7648.2035208460875 132636.21314711845 0.0
132636.21314711845 -632459.9716107064 0.0
0.0 0.0 0.0

223115.5879547229 622035.9538742139 0.0
622035.9538742139 -129826.25269095495 0.0
0.0 0.0 0.0

28774.618664156445 722317.6516300895 0.0
722317.6516300895 -12541.915832875815 0.0
0.0 0.0 0.0

-264046.15037387225 453461.8293566267 0.0
453461.8293566267 -880154.0298650304 0.0
0.0 0.0 0.0

265888.2695868909 452114.354436929 0.0
452114.354436929 886294.4240663025 0.0
0.0 0.0 0.0

-542.8660195764387 54451.89794815603 0.0
54451.89794815603 1.2172009446075975e6 0.0
0.0 0.0 0.0

74719.8458857615 525611.8395125429 0.0
525611.8395125429 195909.81031751184 0.0
0.0 0.0 0.0

1236.7058594071423 45347.291567231965 0.0
45347.291567231965 999901.2955301413 0.0
0.0 0.0 0.0

79585.86052389313 747092.9502757046 0.0
747092.9502757046 -60525.57165054993 0.0
0.0 0.0 0.0

212413.88787770958 701905.7916243684 0.0
701905.7916243684 -140148.74325451016 0.0
0.0 0.0 0.0

-109212.04922355156 1.1115213277056932e6 0.0
1.1115213277056932e6 69353.35139443596 0.0
0.0 0.0 0.0

289439.6150934958 457556.98675372533 0.0
457556.98675372533 166278.80942437885 0.0
0.0 0.0 0.0

17830.916920043237 231172.43246767763 0.0
231172.43246767763 898743.7623691143 0.0
0.0 0.0 0.0

64846.69577443044 762615.7788793059 0.0
762615.7788793059 -39818.60918345547 0.0
0.0 0.0 0.0

-57209.241777534626 507501.3202772635 0.0
507501.3202772635 277268.5766515116 0.0
0.0 0.0 0.0

-74021.81070419564 597057.701259724 0.0
597057.701259724 171862.00430026528 0.0
0.0 0.0 0.0

-12415.572570210963 201137.6447655438 0.0
201137.6447655438 -1.1651580168007347e6 0.0
0.0 0.0 0.0

-110187.28440906777 616840.5863123905 0.0
616840.5863123905 215062.02941608086 0.0
0.0 0.0 0.0

505665.65926511184 390643.97632248397 0.0
390643.97632248397 111759.28056681108 0.0
0.0 0.0 0.0

14035.350157279172 326910.24851349916 0.0
326910.24851349916 -591192.2649044943 0.0
0.0 0.0 0.0

7667.67061837588 89872.17865480052 0.0
89872.17865480052 1.6756973981336784e6 0.0
0.0 0.0 0.0

-6621.174266538534 785133.0095332253 0.0
785133.0095332253 26763.791474049438 0.0
0.0 0.0 0.0

132474.26136161148 531726.024857492 0.0
531726.024857492 203571.03052090894 0.0
0.0 0.0 0.0

-2.432628370400654e6 2.4339465127170603e6 0.0
2.4339465127170603e6 -59262.457899982925 0.0
0.0 0.0 0.0

-6637.577972266416 52595.60343908689 0.0
52595.60343908689 -502891.93681892956 0.0
0.0 0.0 0.0

8032.677604183369 511272.57742707356 0.0
511272.57742707356 20202.496085321603 0.0
0.0 0.0 0.0

-408784.75575902924 632422.2125504068 0.0
632422.2125504068 22133.447643964784 0.0
0.0 0.0 0.0

6324.543887234802 509968.62666022853 0.0
509968.62666022853 -330498.6821804999 0.0
0.0 0.0 0.0

77503.18497510205 556413.1365874315 0.0
556413.1365874315 -279427.8745139439 0.0
0.0 0.0 0.0

386906.6372773256 573483.0773700952 0.0
573483.0773700952 92351.57320972909 0.0
0.0 0.0 0.0

-113328.94109491046 903252.2232188713 0.0
903252.2232188713 76331.74775219007 0.0
0.0 0.0 0.0

-103352.50058742304 526173.4105289943 0.0
526173.4105289943 -326117.2711020206 0.0
0.0 0.0 0.0

4114.55070429889 105936.1860466411 0.0
105936.1860466411 -1.2538226254004838e6 0.0
0.0 0.0 0.0

-882429.4068788525 624184.7721294174 0.0
624184.7721294174 -322758.8116098582 0.0
0.0 0.0 0.0

-41452.841647735826 490707.2685878058 0.0
490707.2685878058 306481.22583088477 0.0
0.0 0.0 0.0

201561.69913579524 673250.979582301 0.0
673250.979582301 -149027.98075123975 0.0
0.0 0.0 0.0

160969.814423724 376113.3831747095 0.0
376113.3831747095 1.2283720650629238e6 0.0
0.0 0.0 0.0

502663.71501950535 636386.43464171 0.0
636386.43464171 296.75623483548407 0.0
0.0 0.0 0.0

-85353.6902832519 563891.2512469899 0.0
563891.2512469899 266146.75045787945 0.0
0.0 0.0 0.0

23582.653249527357 450272.29036873014 0.0
450272.29036873014 -266047.19933173904 0.0
0.0 0.0 0.0

309628.93445061403 206668.3989545573 0.0
206668.3989545573 60515.08239258115 0.0
0.0 0.0 0.0

138045.79358689723 579696.6310324975 0.0
579696.6310324975 -140255.88898583085 0.0
0.0 0.0 0.0

25402.150262280396 414138.9098863112 0.0
414138.9098863112 608871.1651393718 0.0
0.0 0.0 0.0

39475.1900943683 154973.28287132052 0.0
154973.28287132052 1.7464492620894052e6 0.0
0.0 0.0 0.0

-2320.620733979158 51648.1182830361 0.0
51648.1182830361 1.8184637036750226e6 0.0
0.0 0.0 0.0

35915.99621238466 509919.87090028526 0.0
509919.87090028526 -236538.6249421708 0.0
0.0 0.0 0.0

55028.41691334882 539583.0379817341 0.0
539583.0379817341 -265825.45449920633 0.0
0.0 0.0 0.0

80326.23264188295 553561.9736748582 0.0
553561.9736748582 -282390.8616892743 0.0
0.0 0.0 0.0

-355447.59808197455 548291.5984993757 0.0
548291.5984993757 -114563.5030466498 0.0
0.0 0.0 0.0

673812.1096557282 565166.9833470854 0.0
565166.9833470854 381991.98853063793 0.0
0.0 0.0 0.0

-15244.344791628042 451872.8265976892 0.0
451872.8265976892 464774.81377876183 0.0
0.0 0.0 0.0

84114.02930111278 550434.1802302395 0.0
550434.1802302395 -279882.9880753772 0.0
0.0 0.0 0.0

14397.926645562213 422910.42547259707 0.0
422910.42547259707 -223211.1930289749 0.0
0.0 0.0 0.0

2516.6450371090905 44516.307598896994 0.0
44516.307598896994 666886.934372003 0.0
0.0 0.0 0.0

-46893.37038434259 327183.0167252763 0.0
327183.0167252763 -867525.6317924022 0.0
0.0 0.0 0.0

-5565.9382145250565 85497.3087896763 0.0
85497.3087896763 968581.155740018 0.0
0.0 0.0 0.0

1329.5973756976891 14733.59467362626 0.0
14733.59467362626 756247.6826871937 0.0
0.0 0.0 0.0

1191.366751207417 13040.491968164744 0.0
13040.491968164744 729528.8764286852 0.0
0.0 0.0 0.0

3035.5788410461537 243097.12826560216 0.0
243097.12826560216 243589.09509029405 0.0
0.0 0.0 0.0

20855.289124026924 403217.09342634224 0.0
403217.09342634224 -444838.97089301917 0.0
0.0 0.0 0.0

-33121.828607970936 325753.9996284226 0.0
325753.9996284226 -865065.6414543185 0.0
0.0 0.0 0.0

-46317.43823738195 489383.09067709756 0.0
489383.09067709756 -142882.8874454093 0.0
0.0 0.0 0.0

150829.56612680186 586575.0942104703 0.0
586575.0942104703 -179617.4699573681 0.0
0.0 0.0 0.0

201835.02484493505 549554.9472683667 0.0
549554.9472683667 65490.32294226682 0.0
0.0 0.0 0.0

57712.154081536064 683218.9449015838 0.0
683218.9449015838 -71691.58921593528 0.0
0.0 0.0 0.0

1.8186131153364824e6 779212.239397297 0.0
779212.239397297 276978.86594348325 0.0
0.0 0.0 0.0

299011.697788765 330332.92441896367 0.0
330332.92441896367 193491.23404420968 0.0
0.0 0.0 0.0

175376.28085416 569004.0297939293 0.0
569004.0297939293 -51664.64026284698 0.0
0.0 0.0 0.0

234314.6748779994 707389.5470337411 0.0
707389.5470337411 -131562.80317483193 0.0
0.0 0.0 0.0

30058.775981333183 785743.304537145 0.0
785743.304537145 -5955.219229599934 0.0
0.0 0.0 0.0

23406.144790599443 459603.7789497021 0.0
459603.7789497021 -447166.11472814175 0.0
0.0 0.0 0.0

-460186.26750835055 603416.0163880648 0.0
603416.0163880648 -37408.36289355936 0.0
0.0 0.0 0.0

-165146.35215883376 655175.6540451356 0.0
655175.6540451356 167059.48626997427 0.0
0.0 0.0 0.0

-1966.636953094072 11815.995835498654 0.0
11815.995835498654 -595990.4713923442 0.0
0.0 0.0 0.0

18180.26787954733 720219.173566351 0.0
720219.173566351 -47135.31803502582 0.0
0.0 0.0 0.0

-196833.1404393246 1.2201280514733815e6 0.0
1.2201280514733815e6 110010.89097099479 0.0
0.0 0.0 0.0

-76972.54086943263 381730.53474412044 0.0
381730.53474412044 -202192.39795619962 0.0
0.0 0.0 0.0

6727.062160802918 326232.6316840512 0.0
326232.6316840512 -644016.6651850465 0.0
0.0 0.0 0.0

-20815.12936295467 315926.5949184931 0.0
315926.5949184931 -809450.0115950044 0.0
0.0 0.0 0.0

-51152.538013924466 349672.3339403989 0.0
349672.3339403989 -866687.7770608035 0.0
0.0 0.0 0.0

428766.2370800929 1.0703715580276183e6 0.0
1.0703715580276183e6 -105165.7094112628 0.0
0.0 0.0 0.0

83240.52492988417 544093.7017818335 0.0
544093.7017818335 -275931.5625130411 0.0
0.0 0.0 0.0

244491.63337122777 408913.53220838227 0.0
408913.53220838227 1.0866799764412725e6 0.0
0.0 0.0 0.0

-634375.199486038 438562.88982583483 0.0
438562.88982583483 -142192.17779502782 0.0
0.0 0.0 0.0

-1.8941656572824419e6 733983.3477005832 0.0
733983.3477005832 -593408.9871952566 0.0
0.0 0.0 0.0

-2979.226767127984 140951.36341482433 0.0
140951.36341482433 -1.5873864336749788e6 0.0
0.0 0.0 0.0

151354.40163201638 577550.0690090732 0.0
577550.0690090732 -99860.15084740745 0.0
0.0 0.0 0.0

215778.85019803216 648660.3887725283 0.0
648660.3887725283 -141488.75950609823 0.0
0.0 0.0 0.0

-1835.4631995417876 13370.671814525596 0.0
13370.671814525596 -555207.5658883811 0.0
0.0 0.0 0.0

-481736.15519184805 552615.5328325502 0.0
552615.5328325502 -188123.23308903087 0.0
0.0 0.0 0.0

82161.10082240318 426431.52056697337 0.0
426431.52056697337 602324.2999016345 0.0
0.0 0.0 0.0

277627.9041663619 432638.49465352116 0.0
432638.49465352116 278075.0130414802 0.0
0.0 0.0 0.0

6892.463187960355 20878.237595109 0.0
20878.237595109 615816.2310905487 0.0
0.0 0.0 0.0

23.13420647982275 402352.80457096285 0.0
402352.80457096285 -570663.2021065289 0.0
0.0 0.0 0.0

-83.2799916723452 223893.5935864877 0.0
223893.5935864877 -548572.3292288212 0.0
0.0 0.0 0.0

10373.03698840624 165484.60848459278 0.0
165484.60848459278 -40184.7914231271 0.0
0.0 0.0 0.0

-7886.43083338064 25461.102593759202 0.0
25461.102593759202 561478.3994433687 0.0
0.0 0.0 0.0

244711.54875550402 418241.56266024226 0.0
418241.56266024226 2.221912177502876e6 0.0
0.0 0.0 0.0

4248.05695466185 142951.08171567094 0.0
142951.08171567094 1.2327155933382995e6 0.0
0.0 0.0 0.0

157332.6970556883 831600.8796232484 0.0
831600.8796232484 -73727.81354839794 0.0
0.0 0.0 0.0

3687.2228198244866 494765.99567357154 0.0
494765.99567357154 43827.575903709745 0.0
0.0 0.0 0.0

-78670.6817956014 442460.7139624499 0.0
442460.7139624499 -322832.8104862712 0.0
0.0 0.0 0.0

150253.56341650206 642765.4634754381 0.0
642765.4634754381 -178125.1804289943 0.0
0.0 0.0 0.0

-107687.90576887349 639517.3671814261 0.0
639517.3671814261 173811.12241310783 0.0
0.0 0.0 0.0

261242.96630159015 1.2758962330493762e6 0.0
1.2758962330493762e6 -13096.373647157787 0.0
0.0 0.0 0.0

2184.1534084254818 50721.38717426664 0.0
50721.38717426664 -242001.61631514406 0.0
0.0 0.0 0.0

-6311.529275512818 45338.657406341874 0.0
45338.657406341874 686651.2932095879 0.0
0.0 0.0 0.0

4895.01309581478 468686.18867675157 0.0
468686.18867675157 59580.45423623402 0.0
0.0 0.0 0.0

-246511.3468888896 661573.4324754812 0.0
661573.4324754812 119527.20134818507 0.0
0.0 0.0 0.0

82506.87288008392 411302.33284876373 0.0
411302.33284876373 684544.3647607327 0.0
0.0 0.0 0.0

4125.759779619606 261526.20786475614 0.0
261526.20786475614 706440.7104194321 0.0
0.0 0.0 0.0

6971.673564360448 358482.2213368049 0.0
358482.2213368049 -607307.5570696173 0.0
0.0 0.0 0.0

-4.902611699494841e6 825127.7500879732 0.0
825127.7500879732 -444214.7065938115 0.0
0.0 0.0 0.0

6420.686023270187 240010.31079972835 0.0
240010.31079972835 757154.2791675428 0.0
0.0 0.0 0.0

-216372.81687895267 664972.0486430422 0.0
664972.0486430422 136180.0082190851 0.0
0.0 0.0 0.0

12671.169320201268 444442.2328108375 0.0
444442.2328108375 -485060.8212922964 0.0
0.0 0.0 0.0

-77148.90873165824 366720.7293419154 0.0
366720.7293419154 -849397.4185843656 0.0
0.0 0.0 0.0

199096.87179561975 1.1967175630323298e6 0.0
1.1967175630323298e6 -6915.778997369125 0.0
0.0 0.0 0.0

-82531.33810512166 390634.6614445249 0.0
390634.6614445249 -767561.4503516112 0.0
0.0 0.0 0.0

77975.0506780727 537241.8354441976 0.0
537241.8354441976 -266008.27140426275 0.0
0.0 0.0 0.0

36880.49201641278 476959.96838636766 0.0
476959.96838636766 121519.7919857933 0.0
0.0 0.0 0.0

78918.98896808349 945793.6985496866 0.0
945793.6985496866 -7705.850394096295 0.0
0.0 0.0 0.0

-279373.70584232395 651045.0958724367 0.0
651045.0958724367 94203.16971235925 0.0
0.0 0.0 0.0

7646.204540497245 389250.21673629736 0.0
389250.21673629736 -566517.6801178178 0.0
0.0 0.0 0.0

70331.35935786486 535596.5867548939 0.0
535596.5867548939 -285971.7429669458 0.0
0.0 0.0 0.0

-51786.03505684924 669022.8923558608 0.0
669022.8923558608 65894.8239170063 0.0
0.0 0.0 0.0

-189767.39668453686 661999.7985835365 0.0
661999.7985835365 151600.2956172488 0.0
0.0 0.0 0.0

1558.7646958419355 14077.878725132014 0.0
14077.878725132014 970154.6618940142 0.0
0.0 0.0 0.0

-24429.937895705196 422514.2972840693 0.0
422514.2972840693 447169.51647515834 0.0
0.0 0.0 0.0

-85897.21693213959 409887.49360348977 0.0
409887.49360348977 -688997.0613203592 0.0
0.0 0.0 0.0

658048.3233879098 544069.2762177711 0.0
544069.2762177711 178795.15866407403 0.0
0.0 0.0 0.0

-12622.726737132412 411109.00196381763 0.0
411109.00196381763 -574858.4431627943 0.0
0.0 0.0 0.0

-5222.663456038827 501530.6118965329 0.0
501530.6118965329 -50218.181734354366 0.0
0.0 0.0 0.0

19339.61973618943 210251.57633155645 0.0
210251.57633155645 957602.854387059 0.0
0.0 0.0 0.0

-169063.98052560302 530024.7711839821 0.0
530024.7711839821 -352997.75032165076 0.0
0.0 0.0 0.0

-47938.725643180835 448066.45398222504 0.0
448066.45398222504 -162316.0538783976 0.0
0.0 0.0 0.0

17629.579337658957 522795.1716270269 0.0
522795.1716270269 -273426.5295549301 0.0
0.0 0.0 0.0

-410105.1958578101 1.358658413154149e6 0.0
1.358658413154149e6 172856.57250111786 0.0
0.0 0.0 0.0

-1.3806672275266277e6 414107.95409826376 0.0
414107.95409826376 -129004.82984277152 0.0
0.0 0.0 0.0

146061.4425546896 862779.3753123668 0.0
862779.3753123668 -92001.62906416207 0.0
0.0 0.0 0.0

-276335.77951000555 1.2845631700620758e6 0.0
1.2845631700620758e6 145040.02862841077 0.0
0.0 0.0 0.0

911647.6994331543 1.6992853000794768e6 0.0
1.6992853000794768e6 -12341.736108732468 0.0
0.0 0.0 0.0

-53200.79981257851 357338.4319951967 0.0
357338.4319951967 -795660.8617925653 0.0
0.0 0.0 0.0

-269264.2231859727 392848.47316454217 0.0
392848.47316454217 -968530.2861775015 0.0
0.0 0.0 0.0

-118242.84707148484 602102.9302137065 0.0
602102.9302137065 209839.25181101437 0.0
0.0 0.0 0.0

-1395.3742094983463 259967.64898492786 0.0
259967.64898492786 773698.5504402635 0.0
0.0 0.0 0.0

-274727.59455211274 575271.2561981136 0.0
575271.2561981136 35367.617152714825 0.0
0.0 0.0 0.0

50479.6123578001 487269.6054109058 0.0
487269.6054109058 220588.74648381132 0.0
0.0 0.0 0.0

38181.78605021803 471565.60415082733 0.0
471565.60415082733 -188647.51201418118 0.0
0.0 0.0 0.0

338386.9353423605 1.3712939431731317e6 0.0
1.3712939431731317e6 -22782.118021188828 0.0
0.0 0.0 0.0

146721.39616302517 618734.6046149913 0.0
618734.6046149913 -194094.53711599667 0.0
0.0 0.0 0.0

128850.89191751493 527470.7150739147 0.0
527470.7150739147 -43998.94962872557 0.0
0.0 0.0 0.0

-581.4109331671498 14330.33488183742 0.0
14330.33488183742 -1.09646483779396e6 0.0
0.0 0.0 0.0

-117782.6735598136 635291.9673375415 0.0
635291.9673375415 185151.0121595845 0.0
0.0 0.0 0.0

-9740.324281381894 455862.1086855403 0.0
455862.1086855403 152796.03166478436 0.0
0.0 0.0 0.0

20248.026085133504 291567.40241132514 0.0
291567.40241132514 -317455.32939454436 0.0
0.0 0.0 0.0

-72740.1773137548 372188.6789498792 0.0
372188.6789498792 -858552.1953595106 0.0
0.0 0.0 0.0

3364.237234922766 484708.2405379835 0.0
484708.2405379835 413574.3548502563 0.0
0.0 0.0 0.0

78547.97669222273 391595.5205096136 0.0
391595.5205096136 763382.5757949407 0.0
0.0 0.0 0.0

-26400.22135643933 442765.2531932626 0.0
442765.2531932626 -118903.54112610509 0.0
0.0 0.0 0.0

243910.2902178151 678989.8823579056 0.0
678989.8823579056 -126965.10545510177 0.0
0.0 0.0 0.0

-97982.55285284865 603060.1949492389 0.0
603060.1949492389 224576.34791591676 0.0
0.0 0.0 0.0

18129.36034320871 98639.53268302948 0.0
98639.53268302948 1.5063659606968693e6 0.0
0.0 0.0 0.0

3023.9196363866795 264748.97676553536 0.0
264748.97676553536 211091.2368560016 0.0
0.0 0.0 0.0

-3504.307439561897 469624.8200056258 0.0
469624.8200056258 -161156.5676922101 0.0
0.0 0.0 0.0

-161386.70446871794 629238.2304731756 0.0
629238.2304731756 181845.06105850812 0.0
0.0 0.0 0.0

-49566.8275269344 501002.2361995055 0.0
501002.2361995055 336985.115617361 0.0
0.0 0.0 0.0

21288.97083441206 299383.9562359667 0.0
299383.9562359667 -504223.8605140651 0.0
0.0 0.0 0.0

-20767.67919431455 751723.9596709 0.0
751723.9596709 42033.56791592314 0.0
0.0 0.0 0.0

97660.28585467527 1.0047947123601593e6 0.0
1.0047947123601593e6 -10831.941806597963 0.0
0.0 0.0 0.0

-30326.10330747292 555237.5249987581 0.0
555237.5249987581 151985.71170217643 0.0
0.0 0.0 0.0

17458.701699132915 359766.2506620984 0.0
359766.2506620984 -555041.5688842563 0.0
0.0 0.0 0.0

4163.318765459623 775391.4367121798 0.0
775391.4367121798 -22187.43934874832 0.0
0.0 0.0 0.0

173534.34614352538 667615.3632110666 0.0
667615.3632110666 -163557.93101221218 0.0
0.0 0.0 0.0

137023.81562748825 401960.1029432416 0.0
401960.1029432416 892745.7913656872 0.0
0.0 0.0 0.0

-31249.282029610935 534137.6554184445 0.0
534137.6554184445 180637.18740705503 0.0
0.0 0.0 0.0

-141153.72796409426 700953.6375367017 0.0
700953.6375367017 136438.476978609 0.0
0.0 0.0 0.0

7137.861203985522 66814.99407401885 0.0
66814.99407401885 1.2021406148159278e6 0.0
0.0 0.0 0.0

84988.88589857575 973015.754929097 0.0
973015.754929097 -7925.388175788201 0.0
0.0 0.0 0.0

-889.575793389522 14629.124082562794 0.0
14629.124082562794 -1.0649279221816538e6 0.0
0.0 0.0 0.0

60248.22257176643 716468.5035774942 0.0
716468.5035774942 -98959.90160204723 0.0
0.0 0.0 0.0

3349.044802447839 37579.26653989885 0.0
37579.26653989885 1.0662677958083563e6 0.0
0.0 0.0 0.0

-51272.15747303123 431065.2657541918 0.0
431065.2657541918 -120286.01097852533 0.0
0.0 0.0 0.0

-261892.0616346446 613196.640861032 0.0
613196.640861032 61705.03948951054 0.0
0.0 0.0 0.0

-69126.16039450726 516242.66017466824 0.0
516242.66017466824 -104536.46944311181 0.0
0.0 0.0 0.0

-126329.62157888 509618.60883390805 0.0
509618.60883390805 -169219.8328813546 0.0
0.0 0.0 0.0

-57260.105033743544 474319.8615876697 0.0
474319.8615876697 -455655.44818962767 0.0
0.0 0.0 0.0

10456.53365553345 290750.59297242895 0.0
290750.59297242895 801415.7801263568 0.0
0.0 0.0 0.0

69817.55315226721 500432.80940738664 0.0
500432.80940738664 275700.07776058716 0.0
0.0 0.0 0.0

9441.537336130219 182812.68848832624 0.0
182812.68848832624 -728663.5204422335 0.0
0.0 0.0 0.0

173103.03378554917 417015.3232101216 0.0
417015.3232101216 867368.9068832438 0.0
0.0 0.0 0.0

-323353.54170254053 433910.59147767996 0.0
433910.59147767996 -1.8931789540176538e6 0.0
0.0 0.0 0.0

-36742.92843838177 469963.72446380864 0.0
469963.72446380864 337722.224327489 0.0
0.0 0.0 0.0

-31950.289927705344 774900.7545953507 0.0
774900.7545953507 10887.160010253148 0.0
0.0 0.0 0.0

-27411.668298801993 545129.4234262272 0.0
545129.4234262272 69626.15234331664 0.0
0.0 0.0 0.0

89754.30988573443 574451.4556685523 0.0
574451.4556685523 -243822.97639690302 0.0
0.0 0.0 0.0

131156.1237374231 547322.6599342563 0.0
547322.6599342563 -134528.8709078119 0.0
0.0 0.0 0.0

-125970.64098923047 629153.5325125206 0.0
629153.5325125206 194432.68298644928 0.0
0.0 0.0 0.0

-9141.743843832432 481664.10317585175 0.0
481664.10317585175 419383.15738767595 0.0
0.0 0.0 0.0

78935.3399297985 397500.06121397915 0.0
397500.06121397915 771382.30004518 0.0
0.0 0.0 0.0

-145310.33437259163 450624.6535773802 0.0
450624.6535773802 -491072.2414327959 0.0
0.0 0.0 0.0

15811.516696002713 384894.9829711967 0.0
384894.9829711967 -480927.8743119419 0.0
0.0 0.0 0.0

17231.385181755686 486906.7786487296 0.0
486906.7786487296 402242.9330175585 0.0
0.0 0.0 0.0

-30215.583045771345 236331.6950085911 0.0
236331.6950085911 -1.0690879323379442e6 0.0
0.0 0.0 0.0

-79410.22768339967 502333.03654618206 0.0
502333.03654618206 -308329.65613444254 0.0
0.0 0.0 0.0

115144.67004493154 1.0424970115300425e6 0.0
1.0424970115300425e6 -8277.059341671738 0.0
0.0 0.0 0.0

154835.59121508396 406119.89011565736 0.0
406119.89011565736 740531.9322544007 0.0
0.0 0.0 0.0

656718.7827408643 544389.0145951514 0.0
544389.0145951514 2.1890616691246917e6 0.0
0.0 0.0 0.0

-655271.0913379919 546624.2721461653 0.0
546624.2721461653 -2.18423604019323e6 0.0
0.0 0.0 0.0

-25614.32027773009 459458.5271869314 0.0
459458.5271869314 99250.33445710434 0.0
0.0 0.0 0.0

-875968.0171875714 975713.4071786402 0.0
975713.4071786402 158167.85816228937 0.0
0.0 0.0 0.0

26282.535495389217 655140.385380563 0.0
655140.385380563 -80274.7055321686 0.0
0.0 0.0 0.0

13315.837943311722 499470.6306863221 0.0
499470.6306863221 344030.58988888236 0.0
0.0 0.0 0.0

153881.5304548289 399177.75891268905 0.0
399177.75891268905 842743.0945270894 0.0
0.0 0.0 0.0

316915.49973963853 429328.9721429705 0.0
429328.9721429705 1.5041004993335058e6 0.0
0.0 0.0 0.0

281372.2391882776 540409.4816584149 0.0
540409.4816584149 300969.6723108777 0.0
0.0 0.0 0.0

279446.00770068134 377247.2789246815 0.0
377247.2789246815 1.0260771859246325e6 0.0
0.0 0.0 0.0

232437.58949703473 674846.0591362072 0.0
674846.0591362072 -133446.91580059726 0.0
0.0 0.0 0.0

108792.23792975853 439633.5546845786 0.0
439633.5546845786 469484.22141290107 0.0
0.0 0.0 0.0

26498.874297716713 465867.99441475346 0.0
465867.99441475346 440888.6669702738 0.0
0.0 0.0 0.0

182016.5223461202 906474.8696280258 0.0
906474.8696280258 -57202.97811873343 0.0
0.0 0.0 0.0

108836.42305575902 525938.1082701603 0.0
525938.1082701603 335244.2496788118 0.0
0.0 0.0 0.0

-1471.1613521212712 14321.576619030016 0.0
14321.576619030016 -805796.7046424453 0.0
0.0 0.0 0.0

-20305.827068543527 349502.9818627812 0.0
349502.9818627812 480441.33908879163 0.0
0.0 0.0 0.0

1290.6345250812592 12871.104137930153 0.0
12871.104137930153 998904.5332399451 0.0
0.0 0.0 0.0

-6181.502690295747 459712.86989324936 0.0
459712.86989324936 463922.1218855606 0.0
0.0 0.0 0.0

77625.67679342511 806924.5876374353 0.0
806924.5876374353 -38273.43635392728 0.0
0.0 0.0 0.0

176990.52641175222 483202.0957334589 0.0
483202.0957334589 446337.94288651075 0.0
0.0 0.0 0.0

196955.741395649 387558.4818553557 0.0
387558.4818553557 729237.9245941216 0.0
0.0 0.0 0.0

-115471.6005835844 690064.7173462878 0.0
690064.7173462878 153952.14547064697 0.0
0.0 0.0 0.0

4835.790954377575 53228.13646458113 0.0
53228.13646458113 -384628.2032622678 0.0
0.0 0.0 0.0

49059.96006430888 734441.402347384 0.0
734441.402347384 -79732.15738631642 0.0
0.0 0.0 0.0

17495.348214774043 242413.36072132277 0.0
242413.36072132277 -561105.2156063464 0.0
0.0 0.0 0.0

-219910.03966577025 633684.258442067 0.0
633684.258442067 136792.46300658968 0.0
0.0 0.0 0.0

256355.91319765468 738834.4433957933 0.0
738834.4433957933 -124399.94966212478 0.0
0.0 0.0 0.0

-251474.34880869652 546153.8376758696 0.0
546153.8376758696 -4866.091368665191 0.0
0.0 0.0 0.0

318.863145716954 25270.77546956747 0.0
25270.77546956747 -1.6044684046351719e6 0.0
0.0 0.0 0.0

214030.4734261984 545288.2854550492 0.0
545288.2854550492 131736.29008219694 0.0
0.0 0.0 0.0

135678.2085630857 767237.0570419986 0.0
767237.0570419986 -88924.34328349018 0.0
0.0 0.0 0.0

108271.09486918029 653828.5445169741 0.0
653828.5445169741 -157280.51312943196 0.0
0.0 0.0 0.0

-76259.51368225864 480427.703678069 0.0
480427.703678069 -314222.7418615943 0.0
0.0 0.0 0.0

-6048.186517097958 67850.08738072778 0.0
67850.08738072778 -731100.234197581 0.0
0.0 0.0 0.0

-58874.79422453546 571765.245182163 0.0
571765.245182163 161803.49781962286 0.0
0.0 0.0 0.0

-37323.513541739114 307097.632889672 0.0
307097.632889672 -867530.826922871 0.0
0.0 0.0 0.0

-5648.251562537858 14127.355847709601 0.0
14127.355847709601 1.104068159179496e6 0.0
0.0 0.0 0.0

-29300.272719350964 441764.7753812076 0.0
441764.7753812076 410536.907263217 0.0
0.0 0.0 0.0

-372827.0004338487 610408.0854381098 0.0
610408.0854381098 27412.246932159935 0.0
0.0 0.0 0.0

-7773.8897430091165 128319.27425457897 0.0
128319.27425457897 -2.259706971557509e6 0.0
0.0 0.0 0.0

100068.45822414104 342234.4138949262 0.0
342234.4138949262 1.151867012984251e6 0.0
0.0 0.0 0.0

95106.58083873693 440243.1957515618 0.0
440243.1957515618 621741.0760081874 0.0
0.0 0.0 0.0

130571.86731193014 374953.53953615983 0.0
374953.53953615983 1.0540192100566821e6 0.0
0.0 0.0 0.0

-2991.8159749339175 506669.9923155109 0.0
506669.9923155109 66158.93125128112 0.0
0.0 0.0 0.0

-45572.84361337907 459665.7152461461 0.0
459665.7152461461 321426.9535045565 0.0
0.0 0.0 0.0

-63255.242066225124 484762.198599958 0.0
484762.198599958 -236141.73871840988 0.0
0.0 0.0 0.0

11278.279930233257 366616.17527095636 0.0
366616.17527095636 -516807.2704595534 0.0
0.0 0.0 0.0

-29762.588668808632 226202.91442204942 0.0
226202.91442204942 -1.3502425303384766e6 0.0
0.0 0.0 0.0

145.83432625827845 13986.207917735332 0.0
13986.207917735332 1.0304502590633592e6 0.0
0.0 0.0 0.0

280.95601080945926 15860.455408866686 0.0
15860.455408866686 1.2763510223607295e6 0.0
0.0 0.0 0.0

-233466.44330110462 580943.1926941486 0.0
580943.1926941486 19710.59309032964 0.0
0.0 0.0 0.0

90812.39149271835 572940.2608004939 0.0
572940.2608004939 -252617.38194014295 0.0
0.0 0.0 0.0

164184.6561401969 369697.3700894275 0.0
369697.3700894275 1.221261139342718e6 0.0
0.0 0.0 0.0

-47214.386722118616 486877.30530845834 0.0
486877.30530845834 -158928.7700685601 0.0
0.0 0.0 0.0

247283.99653872784 644285.641592073 0.0
644285.641592073 -119521.97668701201 0.0
0.0 0.0 0.0

-84297.43616430901 618244.5009653097 0.0
618244.5009653097 166298.55011727926 0.0
0.0 0.0 0.0

2978.2048434567987 39308.81837682549 0.0
39308.81837682549 704547.0563586317 0.0
0.0 0.0 0.0

521365.72319474886 1.505010837136865e6 0.0
1.505010837136865e6 -28485.92222278111 0.0
0.0 0.0 0.0

55505.88950211949 513723.9640104932 0.0
513723.9640104932 -190757.06473471504 0.0
0.0 0.0 0.0

-206324.8939516755 389256.85273847944 0.0
389256.85273847944 -1.5288921303773806e6 0.0
0.0 0.0 0.0

8909.271137544245 42824.68552349881 0.0
42824.68552349881 -982620.796272461 0.0
0.0 0.0 0.0

-16857.75346211787 473772.5734774643 0.0
473772.5734774643 -167844.04787912103 0.0
0.0 0.0 0.0

-19613.669790001848 403631.2437385522 0.0
403631.2437385522 481282.25983725244 0.0
0.0 0.0 0.0

-695709.8928407661 463004.7265972132 0.0
463004.7265972132 -139812.1739224838 0.0
0.0 0.0 0.0

-176965.85897446517 524810.8837672988 0.0
524810.8837672988 -283553.2069482942 0.0
0.0 0.0 0.0

244986.74390973014 366069.65168925544 0.0
366069.65168925544 889491.4820277964 0.0
0.0 0.0 0.0

-102366.36481764413 465125.6380717497 0.0
465125.6380717497 -357711.0082409668 0.0
0.0 0.0 0.0

6530.062811673037 69974.01139383568 0.0
69974.01139383568 685825.4505426388 0.0
0.0 0.0 0.0

34912.84385326278 523383.12294620264 0.0
523383.12294620264 -207972.54490776424 0.0
0.0 0.0 0.0

4927.394259389788 484219.2817934047 0.0
484219.2817934047 100635.14413830025 0.0
0.0 0.0 0.0

40160.281433334865 488273.1552973704 0.0
488273.1552973704 390353.8548010488 0.0
0.0 0.0 0.0

32517.965588463616 456928.578316187 0.0
456928.578316187 -395005.40705606656 0.0
0.0 0.0 0.0

88323.83123922703 421139.409846379 0.0
421139.409846379 698299.2569029231 0.0
0.0 0.0 0.0

8373.509016753049 468908.7699396418 0.0
468908.7699396418 20743.74438661306 0.0
0.0 0.0 0.0

91332.60555795683 570925.8931866612 0.0
570925.8931866612 -256818.43727514843 0.0
0.0 0.0 0.0

191976.74410064708 532759.7462380133 0.0
532759.7462380133 15785.68895365017 0.0
0.0 0.0 0.0

-13614.332654495141 298536.31806869496 0.0
298536.31806869496 -747888.8560164789 0.0
0.0 0.0 0.0

-26047.16554440162 468868.0717275771 0.0
468868.0717275771 423366.8535221579 0.0
0.0 0.0 0.0

26382.26977251086 416026.08200774953 0.0
416026.08200774953 -147590.73511062886 0.0
0.0 0.0 0.0

-1.453062673492318e6 708074.4139960083 0.0
708074.4139960083 -381004.487646523 0.0
0.0 0.0 0.0

241736.30239771178 397404.2404481857 0.0
397404.2404481857 1.5358027627543828e6 0.0
0.0 0.0 0.0

-489.60313111543655 14711.286585590513 0.0
14711.286585590513 -1.129518459527064e6 0.0
0.0 0.0 0.0

-353.3383376658312 17343.48520706649 0.0
17343.48520706649 1.2367126303469036e6 0.0
0.0 0.0 0.0

-149035.14693718188 362495.73220197664 0.0
362495.73220197664 -1.3255297439461981e6 0.0
0.0 0.0 0.0

-82563.8063214765 399852.72512122686 0.0
399852.72512122686 -781527.1435915142 0.0
0.0 0.0 0.0

-84112.9752796017 501810.0863647492 0.0
501810.0863647492 -157793.1908467444 0.0
0.0 0.0 0.0

-518389.7245280296 641025.2994748623 0.0
641025.2994748623 -396793.0622298666 0.0
0.0 0.0 0.0

48460.53048200064 389893.33719556633 0.0
389893.33719556633 722657.4191573393 0.0
0.0 0.0 0.0

88471.76841499977 566404.0170362876 0.0
566404.0170362876 -257098.57922355895 0.0
0.0 0.0 0.0

-51.64479212358128 26678.673223564965 0.0
26678.673223564965 1.6098655532538816e6 0.0
0.0 0.0 0.0

-12256.983606634021 368218.1886341836 0.0
368218.1886341836 560116.6276307779 0.0
0.0 0.0 0.0

-3227.2724859163864 81025.98405719195 0.0
81025.98405719195 -2.1141288517684024e6 0.0
0.0 0.0 0.0

-37546.05465387852 795741.2876313293 0.0
795741.2876313293 10665.58096643775 0.0
0.0 0.0 0.0

-1376.2602976751514 40985.99430080673 0.0
40985.99430080673 -1.851589265416303e6 0.0
0.0 0.0 0.0

-693783.3258153788 1.4036407968054893e6 0.0
1.4036407968054893e6 220597.3930532558 0.0
0.0 0.0 0.0

-2059.6804357020883 29587.39365001068 0.0
29587.39365001068 1.6776072352019912e6 0.0
0.0 0.0 0.0

-8894.305634627672 309983.51182734285 0.0
309983.51182734285 -749919.489423655 0.0
0.0 0.0 0.0

-287823.249234254 608684.0077231318 0.0
608684.0077231318 69281.55040445724 0.0
0.0 0.0 0.0

-1.2803751553931797e6 694708.2583797559 0.0
694708.2583797559 -267317.6024003159 0.0
0.0 0.0 0.0

-2526.9377634484554 58857.40481933856 0.0
58857.40481933856 -1.9769678955056495e6 0.0
0.0 0.0 0.0

-43886.868164433545 605575.4623353624 0.0
605575.4623353624 86866.76265636005 0.0
0.0 0.0 0.0

-57717.934950825016 523224.944146425 0.0
523224.944146425 315991.6903393238 0.0
0.0 0.0 0.0

538822.8090036481 411756.943602038 0.0
411756.943602038 167579.4880399429 0.0
0.0 0.0 0.0

-42023.67158792153 395334.1515069449 0.0
395334.1515069449 -657078.0221185159 0.0
0.0 0.0 0.0

-94609.26139788917 421940.9165406169 0.0
421940.9165406169 -706634.1262807355 0.0
0.0 0.0 0.0

83761.59685775089 640833.7634651639 0.0
640833.7634651639 -178163.1086452711 0.0
0.0 0.0 0.0

-43463.29258656732 815024.290203989 0.0
815024.290203989 11605.784381351712 0.0
0.0 0.0 0.0

23051.895909509156 248404.3879421335 0.0
248404.3879421335 915342.8425862861 0.0
0.0 0.0 0.0

-294.054185771849 29050.656159168706 0.0
29050.656159168706 -1.685134911858989e6 0.0
0.0 0.0 0.0

-388771.61151112954 880829.0179819678 0.0
880829.0179819678 102969.58845358767 0.0
0.0 0.0 0.0

10284.63424777583 92284.01628552245 0.0
92284.01628552245 -563088.5760621802 0.0
0.0 0.0 0.0

-71522.81939473211 478517.65082374547 0.0
478517.65082374547 -425968.9094828433 0.0
0.0 0.0 0.0

-197.16014876693953 37489.09990806836 0.0
37489.09990806836 -1.7519518805728487e6 0.0
0.0 0.0 0.0

-95673.17450977612 440069.9490373945 0.0
440069.9490373945 -628626.1566290536 0.0
0.0 0.0 0.0

11801.689835389261 212038.54062280184 0.0
212038.54062280184 1.1179463910547623e6 0.0
0.0 0.0 0.0

-9626.691774891719 45426.5671584192 0.0
45426.5671584192 189075.4559925025 0.0
0.0 0.0 0.0

-24191.70369353587 408059.3872953182 0.0
408059.3872953182 132854.4223500071 0.0
0.0 0.0 0.0

174069.50459604818 426332.260643313 0.0
426332.260643313 770798.7721063294 0.0
0.0 0.0 0.0

-1888.3827552639414 12782.619317122535 0.0
12782.619317122535 -1.2512570271058283e6 0.0
0.0 0.0 0.0

-110394.67787232716 604930.6744210785 0.0
604930.6744210785 215811.82750754576 0.0
0.0 0.0 0.0

-74.6914290584391 45143.02002420868 0.0
45143.02002420868 993268.2942827655 0.0
0.0 0.0 0.0

11858.121190763744 503260.290617168 0.0
503260.290617168 22661.547110538675 0.0
0.0 0.0 0.0

-9191.774756157974 314712.709402855 0.0
314712.709402855 -699242.5832482796 0.0
0.0 0.0 0.0

7475.391677469481 465811.1295532551 0.0
465811.1295532551 461074.9214379387 0.0
0.0 0.0 0.0

190972.8524392169 394406.1379773392 0.0
394406.1379773392 1.104993702145079e6 0.0
0.0 0.0 0.0

-26482.59101901119 474255.7694558857 0.0
474255.7694558857 -120369.15697926808 0.0
0.0 0.0 0.0

95782.2962889786 632573.7382418109 0.0
632573.7382418109 -164101.49797482553 0.0
0.0 0.0 0.0

-84559.19733277478 657903.7372144946 0.0
657903.7372144946 123249.27923038078 0.0
0.0 0.0 0.0

-38250.43971127972 487999.0727553975 0.0
487999.0727553975 -189443.91544739748 0.0
0.0 0.0 0.0

695443.8377596036 96179.67721518854 0.0
96179.67721518854 -2836.5176356295415 0.0
0.0 0.0 0.0

-1016.3166987686418 27004.990086385416 0.0
27004.990086385416 1.5471033373027947e6 0.0
0.0 0.0 0.0

292395.4378666169 561410.5414065906 0.0
561410.5414065906 340208.86839294084 0.0
0.0 0.0 0.0

676.7503307600855 17822.301591936724 0.0
17822.301591936724 1.3206403623292702e6 0.0
0.0 0.0 0.0

-41738.74379488144 493857.09663333534 0.0
493857.09663333534 -31182.22659822463 0.0
0.0 0.0 0.0

-15648.599697712198 233597.40955704538 0.0
233597.40955704538 785677.3290650067 0.0
0.0 0.0 0.0

-7547.282340592472 403747.23132554174 0.0
403747.23132554174 189162.16326775533 0.0
0.0 0.0 0.0

-226.42636518630025 16834.276292640836 0.0
16834.276292640836 152927.8682831678 0.0
0.0 0.0 0.0

1676.0093006330135 17747.287867204348 0.0
17747.287867204348 134555.84422702072 0.0
0.0 0.0 0.0

75760.39891767898 551690.7939047694 0.0
551690.7939047694 -281584.2133207537 0.0
0.0 0.0 0.0

-254586.84849341918 533641.9980573795 0.0
533641.9980573795 -122342.48075646463 0.0
0.0 0.0 0.0

85708.36259170908 562363.0157353219 0.0
562363.0157353219 -249438.1745302944 0.0
0.0 0.0 0.0

4001.8756839080015 235285.92948901706 0.0
235285.92948901706 898035.5998067845 0.0
0.0 0.0 0.0

-90194.29860390071 474600.66396815894 0.0
474600.66396815894 -394348.59951026546 0.0
0.0 0.0 0.0

-22290.772338003677 299947.8385054054 0.0
299947.8385054054 -805479.5762733009 0.0
0.0 0.0 0.0

-99995.65315204399 584910.1790958607 0.0
584910.1790958607 232558.23725485784 0.0
0.0 0.0 0.0

-2081.079618846765 315214.6686269432 0.0
315214.6686269432 -644046.0030792383 0.0
0.0 0.0 0.0

-2.8949061946295626e6 983385.7585324959 0.0
983385.7585324959 -540825.3111425703 0.0
0.0 0.0 0.0

27725.465543225902 438139.8942247259 0.0
438139.8942247259 -428997.147712952 0.0
0.0 0.0 0.0

-112497.88132656644 984273.5487278209 0.0
984273.5487278209 23239.691607144705 0.0
0.0 0.0 0.0

35389.72127093014 478428.0994161881 0.0
478428.0994161881 158162.46969783364 0.0
0.0 0.0 0.0

18236.149281415303 427812.44761785923 0.0
427812.44761785923 557788.9830555676 0.0
0.0 0.0 0.0

-121396.0107449831 541063.5727818804 0.0
541063.5727818804 -339254.89230937813 0.0
0.0 0.0 0.0

517824.76507613633 1.1280281692600816e6 0.0
1.1280281692600816e6 -128984.87673904977 0.0
0.0 0.0 0.0

769.5062758575077 14697.310003929659 0.0
14697.310003929659 1.1680908016090756e6 0.0
0.0 0.0 0.0

-1105.3960975273512 15707.404712315814 0.0
15707.404712315814 -1.1637350670742579e6 0.0
0.0 0.0 0.0

72643.4106304309 646729.9052326515 0.0
646729.9052326515 -112942.6617919787 0.0
0.0 0.0 0.0

-5899.074999493518 42240.54372696671 0.0
42240.54372696671 540408.679781816 0.0
0.0 0.0 0.0

947.0643802204868 22580.9793629449 0.0
22580.9793629449 -1.4932176105303285e6 0.0
0.0 0.0 0.0

373.11744179419475 22687.716353220265 0.0
22687.716353220265 1.4998774693073975e6 0.0
0.0 0.0 0.0

475.2130478809704 15172.002577406365 0.0
15172.002577406365 895335.9852006951 0.0
0.0 0.0 0.0

-52663.3533874641 473471.1827095394 0.0
473471.1827095394 -120949.12696496618 0.0
0.0 0.0 0.0

471.78380484570516 15986.0708542459 0.0
15986.0708542459 1.2036736709980248e6 0.0
0.0 0.0 0.0

-1162.9229993266636 17472.927573789293 0.0
17472.927573789293 -1.2070220703009781e6 0.0
0.0 0.0 0.0

1976.322398488992 23581.828392435968 0.0
23581.828392435968 -1.440314513341899e6 0.0
0.0 0.0 0.0

688.2105180189246 19108.33319134983 0.0
19108.33319134983 1.4528775584691162e6 0.0
0.0 0.0 0.0

-137560.63184784993 496879.56253079337 0.0
496879.56253079337 -374304.5299566365 0.0
0.0 0.0 0.0

66822.13889471417 532902.2988403599 0.0
532902.2988403599 -309042.5644973477 0.0
0.0 0.0 0.0

-71187.01177754576 666573.0792640927 0.0
666573.0792640927 136996.46761729557 0.0
0.0 0.0 0.0

-110.23015732230851 20268.703096573736 0.0
20268.703096573736 -1.4022213562069542e6 0.0
0.0 0.0 0.0

463.44014635158237 17616.61014739903 0.0
17616.61014739903 1.4015441799758037e6 0.0
0.0 0.0 0.0

-30682.951256625518 488510.76157181256 0.0
488510.76157181256 -84678.05520224218 0.0
0.0 0.0 0.0

12133.380359917617 343088.99764068774 0.0
343088.99764068774 -601292.1747467256 0.0
0.0 0.0 0.0

51183.78568213047 698193.7911246093 0.0
698193.7911246093 -51220.04756140489 0.0
0.0 0.0 0.0

-16306.903805279613 508517.418589349 0.0
508517.418589349 20855.51671551203 0.0
0.0 0.0 0.0

90907.23254217597 389729.3811974993 0.0
389729.3811974993 838847.9564787855 0.0
0.0 0.0 0.0

475.0397959111142 18422.068908952704 0.0
18422.068908952704 1.358157616025181e6 0.0
0.0 0.0 0.0

973.6753202127875 18321.835112362773 0.0
18321.835112362773 -1.3489083249117064e6 0.0
0.0 0.0 0.0

187002.29276232625 794018.1468524039 0.0
794018.1468524039 -115386.77657761304 0.0
0.0 0.0 0.0

211101.37511782092 384516.05871368205 0.0
384516.05871368205 1.4258120641983594e6 0.0
0.0 0.0 0.0

2.491645526505583e6 2.442968796099085e6 0.0
2.442968796099085e6 -3244.851079459768 0.0
0.0 0.0 0.0

-549.6731721762117 242093.74986207244 0.0
242093.74986207244 -124984.53170206308 0.0
0.0 0.0 0.0

-48753.57285383892 773983.6677409892 0.0
773983.6677409892 51819.59123742028 0.0
0.0 0.0 0.0

-5382.33923450514 77595.01680308451 0.0
77595.01680308451 397983.59831954446 0.0
0.0 0.0 0.0

-65744.31908748171 686907.967154692 0.0
686907.967154692 118196.0635799419 0.0
0.0 0.0 0.0

-2425.2450996113766 16065.254375860355 0.0
16065.254375860355 -310219.70871222636 0.0
0.0 0.0 0.0

413562.964185106 709141.0221007668 0.0
709141.0221007668 -78270.12560812419 0.0
0.0 0.0 0.0

165037.05818439685 666840.7215063395 0.0
666840.7215063395 -162154.78463621408 0.0
0.0 0.0 0.0

-32053.77728828763 382414.6340582592 0.0
382414.6340582592 384607.80289700796 0.0
0.0 0.0 0.0

-45199.555768201775 513075.13234582834 0.0
513075.13234582834 -40448.84701300863 0.0
0.0 0.0 0.0

16228.811621029745 43241.42613979535 0.0
43241.42613979535 1.8220334682147338e6 0.0
0.0 0.0 0.0

9484.158193262087 49316.591423145335 0.0
49316.591423145335 95447.11214327258 0.0
0.0 0.0 0.0

-28586.668912035293 -462.89313713387304 0.0
-462.89313713387304 9688.818283083525 0.0
0.0 0.0 0.0

31010.668517939106 1250.4632477456023 0.0
1250.4632477456023 -9655.512058939219 0.0
0.0 0.0 0.0

187150.27507426814 674998.6076611667 0.0
674998.6076611667 -151501.5426495499 0.0
0.0 0.0 0.0

-195145.92102845124 368464.7209896899 0.0
368464.7209896899 -1.4992837608852298e6 0.0
0.0 0.0 0.0

208518.18226128182 392239.62187943055 0.0
392239.62187943055 990603.3749983031 0.0
0.0 0.0 0.0

-82847.34295368899 494360.40319268085 0.0
494360.40319268085 -308311.49883999303 0.0
0.0 0.0 0.0

1235.6117911512265 15460.451517470306 0.0
15460.451517470306 -690712.5886776083 0.0
0.0 0.0 0.0

-53640.037794929965 439187.13984334085 0.0
439187.13984334085 -119876.10212951373 0.0
0.0 0.0 0.0

31313.373482228693 524736.9612437617 0.0
524736.9612437617 -295895.3369288279 0.0
0.0 0.0 0.0

-134473.73952763752 360647.7492245629 0.0
360647.7492245629 -1.0614558785772307e6 0.0
0.0 0.0 0.0

72907.61530787278 724817.9829028213 0.0
724817.9829028213 -64545.66052507919 0.0
0.0 0.0 0.0

3751.752673284762 443460.6120139948 0.0
443460.6120139948 508429.6892119963 0.0
0.0 0.0 0.0

-42727.3592494067 457690.7320238106 0.0
457690.7320238106 -86220.30293456514 0.0
0.0 0.0 0.0

24987.489925531023 506595.9685260632 0.0
506595.9685260632 94252.49878621059 0.0
0.0 0.0 0.0

-189606.44315097766 387232.8188653357 0.0
387232.8188653357 -747071.8643031274 0.0
0.0 0.0 0.0

-715040.9481930792 634709.1789569573 0.0
634709.1789569573 -354032.411881192 0.0
0.0 0.0 0.0

465568.89716764184 1.2411733045542e6 0.0
1.2411733045542e6 -94010.5049022689 0.0
0.0 0.0 0.0

605.8704949654493 15330.686411374552 0.0
15330.686411374552 211209.1880857672 0.0
0.0 0.0 0.0

-2001.972358236686 18578.26108037053 0.0
18578.26108037053 228241.11906102992 0.0
0.0 0.0 0.0

-19781.382593603834 476113.287809886 0.0
476113.287809886 425033.1762667489 0.0
0.0 0.0 0.0

37626.78352126595 619002.1166773272 0.0
619002.1166773272 -122189.55416977183 0.0
0.0 0.0 0.0

-33712.71621436825 810900.1740000371 0.0
810900.1740000371 44685.23510016763 0.0
0.0 0.0 0.0

-57630.47000434411 705938.075984621 0.0
705938.075984621 100155.17028597774 0.0
0.0 0.0 0.0

432588.9863321332 543855.6647113936 0.0
543855.6647113936 325230.2200178937 0.0
0.0 0.0 0.0

140119.55739403373 560512.4918963034 0.0
560512.4918963034 -69900.28816530028 0.0
0.0 0.0 0.0

254569.27343207606 384032.94167167577 0.0
384032.94167167577 1.5871573603357316e6 0.0
0.0 0.0 0.0

-1.2394722643772298e6 616402.5389924981 0.0
616402.5389924981 -639800.7019392682 0.0
0.0 0.0 0.0

-3.1627564897221546e6 1.1674621891213327e6 0.0
1.1674621891213327e6 -56963.45247435116 0.0
0.0 0.0 0.0

-28665.415989110843 359411.26074757706 0.0
359411.26074757706 343187.01853241277 0.0
0.0 0.0 0.0

-9228.901954522866 503571.02640054846 0.0
503571.02640054846 364731.79565463227 0.0
0.0 0.0 0.0

-6403.9446652554325 83194.66513704308 0.0
83194.66513704308 -609407.9606038531 0.0
0.0 0.0 0.0

-11953.289649445302 372746.23742321116 0.0
372746.23742321116 501957.97149220377 0.0
0.0 0.0 0.0

295.43944036075845 15793.505768673993 0.0
15793.505768673993 504625.2173151905 0.0
0.0 0.0 0.0

330359.4788346569 587427.9102551398 0.0
587427.9102551398 342320.2020549901 0.0
0.0 0.0 0.0

-104058.16977112339 371982.7137801555 0.0
371982.7137801555 -1.0005235046603739e6 0.0
0.0 0.0 0.0

9378.507670137682 78631.79034813831 0.0
78631.79034813831 -810160.2148877303 0.0
0.0 0.0 0.0

218477.80439814864 517593.019163546 0.0
517593.019163546 209245.1720522471 0.0
0.0 0.0 0.0

56520.30748579174 109025.43771182731 0.0
109025.43771182731 2.2483341700129956e6 0.0
0.0 0.0 0.0

-155493.57652673748 721902.323316177 0.0
721902.323316177 142150.07737645908 0.0
0.0 0.0 0.0

-419835.855214608 580633.2094689665 0.0
580633.2094689665 -33607.656973386984 0.0
0.0 0.0 0.0

128440.08155624577 630580.0666127851 0.0
630580.0666127851 -191193.9970531394 0.0
0.0 0.0 0.0

2192.919495405804 12703.891732082799 0.0
12703.891732082799 808202.8416057453 0.0
0.0 0.0 0.0

29785.308555161624 466914.30027872784 0.0
466914.30027872784 183244.62504756165 0.0
0.0 0.0 0.0

1980.0281535052345 13415.683644853396 0.0
13415.683644853396 1.0692746685172776e6 0.0
0.0 0.0 0.0

221043.85124381288 543726.6209546358 0.0
543726.6209546358 212222.3860944323 0.0
0.0 0.0 0.0

-7975.338400638568 567951.5599330537 0.0
567951.5599330537 58874.58374679502 0.0
0.0 0.0 0.0

10108.54472794605 44367.52453220081 0.0
44367.52453220081 -913573.8783470221 0.0
0.0 0.0 0.0

-130265.7705143909 517990.47406078817 0.0
517990.47406078817 -362370.4232726022 0.0
0.0 0.0 0.0

1978.8980620641669 18152.130860451325 0.0
18152.130860451325 -609353.4940766224 0.0
0.0 0.0 0.0

4144.32480686155 418464.64303536154 0.0
418464.64303536154 -527354.1043951247 0.0
0.0 0.0 0.0

-212261.54893982568 945778.994498098 0.0
945778.994498098 74165.79253167355 0.0
0.0 0.0 0.0

-8880.850789565002 410512.0960483781 0.0
410512.0960483781 -3104.925310834114 0.0
0.0 0.0 0.0

83666.42129075722 618979.7156020458 0.0
618979.7156020458 -198434.04566296222 0.0
0.0 0.0 0.0

-152859.73929534166 889713.1076439264 0.0
889713.1076439264 56158.546964262474 0.0
0.0 0.0 0.0

-73594.54330864928 647247.9911981708 0.0
647247.9911981708 159313.19634560656 0.0
0.0 0.0 0.0

-74377.65951065655 695415.7928376902 0.0
695415.7928376902 83279.94782267105 0.0
0.0 0.0 0.0

7709.432965078185 911984.9506083524 0.0
911984.9506083524 -20955.6657847302 0.0
0.0 0.0 0.0

89597.75083755126 592777.5282715391 0.0
592777.5282715391 -211361.71564352734 0.0
0.0 0.0 0.0

-136779.9965106908 1.0149970973259907e6 0.0
1.0149970973259907e6 30105.46505007118 0.0
0.0 0.0 0.0

-19141.247306573263 270210.35576986213 0.0
270210.35576986213 408484.93368876516 0.0
0.0 0.0 0.0

14615.998597009137 332221.8363026976 0.0
332221.8363026976 -381675.3519904902 0.0
0.0 0.0 0.0

-10060.742108954903 66112.85398259929 0.0
66112.85398259929 682518.2872892332 0.0
0.0 0.0 0.0

-309985.05018096627 634099.7844387658 0.0
634099.7844387658 64609.716184673205 0.0
0.0 0.0 0.0

3366.4925807961263 61716.70986092787 0.0
61716.70986092787 1.4018071935819883e6 0.0
0.0 0.0 0.0

169482.49327390737 830126.2820501461 0.0
830126.2820501461 -105782.92532114188 0.0
0.0 0.0 0.0

9024.294034791179 417650.963981475 0.0
417650.963981475 -526274.6766899463 0.0
0.0 0.0 0.0

57744.34707348949 519539.6448179733 0.0
519539.6448179733 224873.40575769055 0.0
0.0 0.0 0.0

10403.246133345674 410623.7550492104 0.0
410623.7550492104 -199376.6933396562 0.0
0.0 0.0 0.0

-27648.40651562222 339603.29054820613 0.0
339603.29054820613 -805582.7184611566 0.0
0.0 0.0 0.0

-1619.524186980183 49046.881708442976 0.0
49046.881708442976 -394723.90759372484 0.0
0.0 0.0 0.0

213600.8870660733 679057.1243033523 0.0
679057.1243033523 -139846.09446550772 0.0
0.0 0.0 0.0

16506.707423221917 498484.7878548859 0.0
498484.7878548859 157945.11595386107 0.0
0.0 0.0 0.0

-10669.685109767195 494873.29431261664 0.0
494873.29431261664 -4652.739374034365 0.0
0.0 0.0 0.0

-316.55537757545244 24332.304952356557 0.0
24332.304952356557 -1.615264183831859e6 0.0
0.0 0.0 0.0

3423.3354778352077 138156.01934359115 0.0
138156.01934359115 652385.1120974472 0.0
0.0 0.0 0.0

-7508.289040102158 82451.0423467542 0.0
82451.0423467542 -1.6106353870639068e6 0.0
0.0 0.0 0.0

-2872.3766904090007 18103.778819622257 0.0
18103.778819622257 613953.1451798165 0.0
0.0 0.0 0.0

-18519.716982623395 567891.9156660603 0.0
567891.9156660603 21305.407506764725 0.0
0.0 0.0 0.0

-4972.739786190828 501570.3652132078 0.0
501570.3652132078 89824.60946125149 0.0
0.0 0.0 0.0

39604.058935646564 510887.26510046935 0.0
510887.26510046935 165458.40926612806 0.0
0.0 0.0 0.0

-13814.987695374031 351702.9650091625 0.0
351702.9650091625 399799.6572351328 0.0
0.0 0.0 0.0

496.854591610434 17482.115050840468 0.0
17482.115050840468 920660.2085191205 0.0
0.0 0.0 0.0

249644.41007182817 738933.0738042003 0.0
738933.0738042003 -124074.90775209159 0.0
0.0 0.0 0.0

184191.82766990276 526133.2091265357 0.0
526133.2091265357 362552.68838026986 0.0
0.0 0.0 0.0

-4292.794009496487 181646.2678993529 0.0
181646.2678993529 -678258.0516129083 0.0
0.0 0.0 0.0

4985.958362681617 41819.556467048686 0.0
41819.556467048686 979467.6265808344 0.0
0.0 0.0 0.0

138984.71335485304 538464.2948796427 0.0
538464.2948796427 316292.90167262964 0.0
0.0 0.0 0.0

125226.56051613955 340444.55148900655 0.0
340444.55148900655 1.2445623955215234e6 0.0
0.0 0.0 0.0

237677.70017532274 566753.7908332507 0.0
566753.7908332507 331286.9658800905 0.0
0.0 0.0 0.0

-170738.6328540162 357127.81944563624 0.0
357127.81944563624 -1.402202977194312e6 0.0
0.0 0.0 0.0

51858.89504571515 419053.2104433802 0.0
419053.2104433802 658649.692602677 0.0
0.0 0.0 0.0

113141.36443039685 422909.31196991925 0.0
422909.31196991925 564111.9620100805 0.0
0.0 0.0 0.0

111040.05887222981 578845.9920900686 0.0
578845.9920900686 -236557.5867605089 0.0
0.0 0.0 0.0

-92047.2774233316 522680.27083008864 0.0
522680.27083008864 -165525.11457669834 0.0
0.0 0.0 0.0

-26960.580225262267 182937.3939769417 0.0
182937.3939769417 -1.1594015228744445e6 0.0
0.0 0.0 0.0

-24884.962787795346 162906.44784915223 0.0
162906.44784915223 -1.2240637105679268e6 0.0
0.0 0.0 0.0

26247.504450668435 398066.199785556 0.0
398066.199785556 -179389.37097859549 0.0
0.0 0.0 0.0

36206.01576901914 346452.28920656064 0.0
346452.28920656064 775996.4791217144 0.0
0.0 0.0 0.0

68218.6532838847 533765.5611113578 0.0
533765.5611113578 -310996.37605447945 0.0
0.0 0.0 0.0

20819.469866740867 99613.43209855272 0.0
99613.43209855272 1.7549121684044874e6 0.0
0.0 0.0 0.0

-151020.15527901694 340370.5226447764 0.0
340370.5226447764 -1.4232872060524512e6 0.0
0.0 0.0 0.0

147970.17897634633 338077.955672232 0.0
338077.955672232 1.4242177548247152e6 0.0
0.0 0.0 0.0

353.6498820038396 26122.6275105485 0.0
26122.6275105485 -1.5527670837175562e6 0.0
0.0 0.0 0.0

104230.98296308587 624698.7296428847 0.0
624698.7296428847 -193403.3825431147 0.0
0.0 0.0 0.0

189915.36566390068 560003.8234499459 0.0
560003.8234499459 329397.8980991886 0.0
0.0 0.0 0.0

-210827.90630307992 394522.02958587534 0.0
394522.02958587534 -1.2927641301496602e6 0.0
0.0 0.0 0.0

379987.88357998687 206861.10552176292 0.0
206861.10552176292 17469.866812908935 0.0
0.0 0.0 0.0

-57916.19059636104 510827.20362849784 0.0
510827.20362849784 -201432.89643635708 0.0
0.0 0.0 0.0

155046.62094216907 548484.4032551494 0.0
548484.4032551494 332673.1738250305 0.0
0.0 0.0 0.0

-60601.384692114734 540089.2841475288 0.0
540089.2841475288 263100.4248747342 0.0
0.0 0.0 0.0

-14558.538344904737 497398.4089011373 0.0
497398.4089011373 368021.4361887473 0.0
0.0 0.0 0.0

2692.2015231081896 289870.653371861 0.0
289870.653371861 -320950.87968298723 0.0
0.0 0.0 0.0

1558.250032074313 332186.08306839014 0.0
332186.08306839014 698096.8764548732 0.0
0.0 0.0 0.0

-149260.31645750575 347330.36162639206 0.0
347330.36162639206 -1.3033172347758817e6 0.0
0.0 0.0 0.0

-69149.92527253476 511144.4386739722 0.0
511144.4386739722 -292129.83048353257 0.0
0.0 0.0 0.0

-152923.82226966205 565130.6319101552 0.0
565130.6319101552 125938.33248227832 0.0
0.0 0.0 0.0

11359.741855828142 242245.18494288542 0.0
242245.18494288542 -134847.88512405564 0.0
0.0 0.0 0.0

-5491.515123628662 139275.23947765565 0.0
139275.23947765565 2.2309995773327667e6 0.0
0.0 0.0 0.0

-228183.41289980593 381444.4706069597 0.0
381444.4706069597 -1.6077450328655432e6 0.0
0.0 0.0 0.0

92411.65355907375 383831.87432303256 0.0
383831.87432303256 831823.9829929033 0.0
0.0 0.0 0.0

-47382.71115030752 835571.0227703063 0.0
835571.0227703063 11992.192553943685 0.0
0.0 0.0 0.0

602404.1678366637 564976.284393265 0.0
564976.284393265 219917.20158978732 0.0
0.0 0.0 0.0

148438.44709461255 371263.7653836825 0.0
371263.7653836825 1.135732761669826e6 0.0
0.0 0.0 0.0

-27454.902955449797 471524.1833220754 0.0
471524.1833220754 427105.0866850099 0.0
0.0 0.0 0.0

14194.43752952476 363676.86565151275 0.0
363676.86565151275 -369582.7346580406 0.0
0.0 0.0 0.0

-82637.81172623849 487373.925576887 0.0
487373.925576887 -327452.2211663494 0.0
0.0 0.0 0.0

-38743.008976748635 431135.5631386972 0.0
431135.5631386972 336016.57630864234 0.0
0.0 0.0 0.0

-21269.91703311834 392779.5700754483 0.0
392779.5700754483 402220.8008808449 0.0
0.0 0.0 0.0

-8469.515216936648 38108.94237103094 0.0
38108.94237103094 -834457.9965254866 0.0
0.0 0.0 0.0

-117433.01857724633 607598.5618836054 0.0
607598.5618836054 219721.18656539102 0.0
0.0 0.0 0.0

-53189.96629586498 417870.6425795205 0.0
417870.6425795205 -78610.02338928702 0.0
0.0 0.0 0.0

11563.517782991723 41783.61174923516 0.0
41783.61174923516 -577726.5463993669 0.0
0.0 0.0 0.0

126872.50984918856 795738.8335563669 0.0
795738.8335563669 -104874.95677359571 0.0
0.0 0.0 0.0

209139.56329019085 562484.9768896417 0.0
562484.9768896417 338009.6236157486 0.0
0.0 0.0 0.0

13342.791441854555 77419.6902527636 0.0
77419.6902527636 1.5596462016241145e6 0.0
0.0 0.0 0.0

321792.7331977401 596278.1328459213 0.0
596278.1328459213 359702.24317889364 0.0
0.0 0.0 0.0

228503.22231622023 552092.6850193634 0.0
552092.6850193634 285397.29957899696 0.0
0.0 0.0 0.0

23023.351457361903 499466.26296799723 0.0
499466.26296799723 -313690.7293121714 0.0
0.0 0.0 0.0

-4578.5547533252975 48857.51459762325 0.0
48857.51459762325 -1.1317497587218697e6 0.0
0.0 0.0 0.0

133866.2708579823 412295.2608941978 0.0
412295.2608941978 388825.1954166444 0.0
0.0 0.0 0.0

46673.98499327047 514075.48230356944 0.0
514075.48230356944 -276146.48171763663 0.0
0.0 0.0 0.0

55288.69466423882 510797.79743533477 0.0
510797.79743533477 254400.43283066867 0.0
0.0 0.0 0.0

1746.1180444461643 162286.77138225958 0.0
162286.77138225958 470461.34233104344 0.0
0.0 0.0 0.0

3781.6117090422777 16097.409068013776 0.0
16097.409068013776 586838.7862471844 0.0
0.0 0.0 0.0

-122723.46848772127 549575.9735718173 0.0
549575.9735718173 84730.98647273504 0.0
0.0 0.0 0.0

-7674.388734311127 357072.5103522459 0.0
357072.5103522459 -661165.8681757652 0.0
0.0 0.0 0.0

-117838.24879969016 461946.73622322053 0.0
461946.73622322053 -441363.56629189686 0.0
0.0 0.0 0.0

1400.8378447256982 73528.79599813191 0.0
73528.79599813191 2.1553163590108193e6 0.0
0.0 0.0 0.0

-174122.60437803314 1.0488356697601539e6 0.0
1.0488356697601539e6 35061.57170771043 0.0
0.0 0.0 0.0

9856.250259091865 89093.8287957949 0.0
89093.8287957949 24316.382606454597 0.0
0.0 0.0 0.0

-33147.31457641663 506613.1906971037 0.0
506613.1906971037 26603.815667345552 0.0
0.0 0.0 0.0

113068.15421264921 537754.4778040844 0.0
537754.4778040844 309586.05043053126 0.0
0.0 0.0 0.0

11974.330801259377 362345.5566738612 0.0
362345.5566738612 652296.7518766852 0.0
0.0 0.0 0.0

-348463.1124605673 614180.9912505695 0.0
614180.9912505695 21875.423513821952 0.0
0.0 0.0 0.0

175116.37639287743 552098.1737672499 0.0
552098.1737672499 298132.6497002282 0.0
0.0 0.0 0.0

99605.2741368406 549061.4992398794 0.0
549061.4992398794 301459.29830144206 0.0
0.0 0.0 0.0

33067.14436927345 482223.31833888724 0.0
482223.31833888724 -410608.345121345 0.0
0.0 0.0 0.0

-8315.01195176314 76375.55905160571 0.0
76375.55905160571 -263673.8163536842 0.0
0.0 0.0 0.0

-15351.840080241673 496154.6522669302 0.0
496154.6522669302 -369124.74433801236 0.0
0.0 0.0 0.0

77828.25949784642 577908.2816002663 0.0
577908.2816002663 -244442.47751464957 0.0
0.0 0.0 0.0

-52905.45338358796 624198.0051110098 0.0
624198.0051110098 146536.4280593261 0.0
0.0 0.0 0.0

130123.34909308406 606259.2799230895 0.0
606259.2799230895 -194365.20453709722 0.0
0.0 0.0 0.0

105399.75857399173 580936.6138949383 0.0
580936.6138949383 -215973.9209611551 0.0
0.0 0.0 0.0

5721.608576535771 73733.21373825792 0.0
73733.21373825792 -1.0078771816382792e6 0.0
0.0 0.0 0.0

126027.26111564133 533686.9200232334 0.0
533686.9200232334 213358.9802885493 0.0
0.0 0.0 0.0

81266.62401991907 597585.5561836656 0.0
597585.5561836656 -219381.33236969914 0.0
0.0 0.0 0.0

-18751.475866175868 298433.768108518 0.0
298433.768108518 536900.2185604745 0.0
0.0 0.0 0.0

-2.577777062959501e6 814323.5532900944 0.0
814323.5532900944 -473457.4685812107 0.0
0.0 0.0 0.0

803215.3212411879 661740.6455015673 0.0
661740.6455015673 2.6773895052384753e6 0.0
0.0 0.0 0.0

-807760.7198709248 664971.5161355695 0.0
664971.5161355695 -2.6925408982639257e6 0.0
0.0 0.0 0.0

17092.626105967094 427840.25434093334 0.0
427840.25434093334 557702.4215865247 0.0
0.0 0.0 0.0

6813.44963761259 349520.8551649847 0.0
349520.8551649847 -555526.3797872083 0.0
0.0 0.0 0.0

-100984.62113172053 514495.47329767456 0.0
514495.47329767456 -340406.73149141786 0.0
0.0 0.0 0.0

108691.77106207413 1.0820355504477452e6 0.0
1.0820355504477452e6 -64693.540163353304 0.0
0.0 0.0 0.0

-66763.6040236876 436273.2261355188 0.0
436273.2261355188 -553181.8531232218 0.0
0.0 0.0 0.0

-152006.7303605086 514798.8212074104 0.0
514798.8212074104 -229427.97524439686 0.0
0.0 0.0 0.0

-20128.42260051219 344680.1170976347 0.0
344680.1170976347 538288.909657912 0.0
0.0 0.0 0.0

28550.694779546822 673440.2543923439 0.0
673440.2543923439 -18219.192474224874 0.0
0.0 0.0 0.0

-108209.56478736116 392879.14367709984 0.0
392879.14367709984 -915418.2461747675 0.0
0.0 0.0 0.0

-66868.37341980185 501288.10758431285 0.0
501288.10758431285 -202829.51753330833 0.0
0.0 0.0 0.0

-70462.26519805593 537505.9785110661 0.0
537505.9785110661 274681.30425470945 0.0
0.0 0.0 0.0

620893.735462385 582693.7405608181 0.0
582693.7405608181 87028.00523682333 0.0
0.0 0.0 0.0

59761.48651573431 494050.91018208506 0.0
494050.91018208506 196815.5170025313 0.0
0.0 0.0 0.0

-15356.489947575174 452520.58829568565 0.0
452520.58829568565 465747.87321158464 0.0
0.0 0.0 0.0

-516886.6654433436 571258.7548557414 0.0
571258.7548557414 -96410.62890661048 0.0
0.0 0.0 0.0

34680.652184918334 502033.33661796607 0.0
502033.33661796607 193935.8415955001 0.0
0.0 0.0 0.0

147357.67811047708 813193.7958640207 0.0
813193.7958640207 -101503.49403504816 0.0
0.0 0.0 0.0

366142.37116998906 725905.0002142906 0.0
725905.0002142906 -104397.76415684477 0.0
0.0 0.0 0.0

26526.033147674054 332937.273088179 0.0
332937.273088179 -389125.07161610754 0.0
0.0 0.0 0.0

61983.36174114767 376497.6994523628 0.0
376497.6994523628 776717.6933274977 0.0
0.0 0.0 0.0

8235.238481727894 467407.7935652901 0.0
467407.7935652901 -434229.72202536813 0.0
0.0 0.0 0.0

-6721.014518143857 422897.7821066172 0.0
422897.7821066172 157461.58366304706 0.0
0.0 0.0 0.0

-36453.20186554846 422923.90713242936 0.0
422923.90713242936 386190.64656978205 0.0
0.0 0.0 0.0

11538.062970546212 132016.43236070513 0.0
132016.43236070513 -156332.03837772846 0.0
0.0 0.0 0.0

76256.114980155 457048.0988589408 0.0
457048.0988589408 271590.70610326313 0.0
0.0 0.0 0.0

245827.2400341034 705445.6516383863 0.0
705445.6516383863 -129269.23805973835 0.0
0.0 0.0 0.0

-57856.36897144187 259209.19761131215 0.0
259209.19761131215 -1.7930833484289264e6 0.0
0.0 0.0 0.0

-19335.445996297436 285825.16118457384 0.0
285825.16118457384 518552.2326956984 0.0
0.0 0.0 0.0

717599.0463640373 1.169112463866236e6 0.0
1.169112463866236e6 -144797.67249918263 0.0
0.0 0.0 0.0

-1677.7600244550267 171711.09145163745 0.0
171711.09145163745 -1.1428887207227699e6 0.0
0.0 0.0 0.0

50930.403733290994 460748.7440114923 0.0
460748.7440114923 211789.7597259878 0.0
0.0 0.0 0.0

160758.61234369042 642313.095856898 0.0
642313.095856898 -177483.44796358823 0.0
0.0 0.0 0.0

394033.8266578368 551757.2460284192 0.0
551757.2460284192 3.520753574173306e6 0.0
0.0 0.0 0.0

-386391.982984073 560810.4010234348 0.0
560810.4010234348 -3.526525507176221e6 0.0
0.0 0.0 0.0

915732.5007097758 527396.1139807791 0.0
527396.1139807791 188318.54672883314 0.0
0.0 0.0 0.0

413561.51593579305 704830.8460813841 0.0
704830.8460813841 -85748.15620377846 0.0
0.0 0.0 0.0

10588.885362979141 220517.2940861896 0.0
220517.2940861896 -109750.07955745216 0.0
0.0 0.0 0.0

718591.1789242432 1.0308857452513607e6 0.0
1.0308857452513607e6 -142243.17406389848 0.0
0.0 0.0 0.0

53140.27535089552 460013.33010415157 0.0
460013.33010415157 505693.11029297457 0.0
0.0 0.0 0.0

517793.03418274666 569770.0950554681 0.0
569770.0950554681 84167.91474661221 0.0
0.0 0.0 0.0

-82119.22558038152 597061.5639353822 0.0
597061.5639353822 188609.21002409048 0.0
0.0 0.0 0.0

-15828.456857488069 373642.486696784 0.0
373642.486696784 363325.1072092597 0.0
0.0 0.0 0.0

-8624.245229418251 48170.79451035069 0.0
48170.79451035069 31893.55706328681 0.0
0.0 0.0 0.0

219820.57758178154 547980.9764977986 0.0
547980.9764977986 333506.5851083943 0.0
0.0 0.0 0.0

77384.29404548765 683368.8685406713 0.0
683368.8685406713 -127214.91976085625 0.0
0.0 0.0 0.0

29793.055108864704 414491.27126051433 0.0
414491.27126051433 609977.070444593 0.0
0.0 0.0 0.0

-150977.92772709383 614291.3692529702 0.0
614291.3692529702 198887.24850964054 0.0
0.0 0.0 0.0

-63473.78008881527 585258.3436720461 0.0
585258.3436720461 210175.94590901985 0.0
0.0 0.0 0.0

-71046.3700189563 455143.7510634818 0.0
455143.7510634818 -161933.0822484666 0.0
0.0 0.0 0.0

104594.71122848979 376699.38348309614 0.0
376699.38348309614 900264.4215829236 0.0
0.0 0.0 0.0

-86274.19875363517 605598.2302763155 0.0
605598.2302763155 216291.5337343301 0.0
0.0 0.0 0.0

418.10849047190277 279001.3704227367 0.0
279001.3704227367 239205.66817329347 0.0
0.0 0.0 0.0

-1.203086454546242e6 745379.1162616243 0.0
745379.1162616243 -429278.01390195836 0.0
0.0 0.0 0.0

30099.15008413361 128918.65652123517 0.0
128918.65652123517 1.5551871001543584e6 0.0
0.0 0.0 0.0

-196691.37569099743 620089.817728692 0.0
620089.817728692 155803.0863885901 0.0
0.0 0.0 0.0

-257446.80540376526 774844.5569372326 0.0
774844.5569372326 121288.75059489642 0.0
0.0 0.0 0.0

-61666.520946535515 381289.80039837776 0.0
381289.80039837776 -796588.4822598576 0.0
0.0 0.0 0.0

-90283.13495100648 937953.4555402645 0.0
937953.4555402645 42237.706898013166 0.0
0.0 0.0 0.0

-224310.11744840944 1.0903892216752544e6 0.0
1.0903892216752544e6 36278.727110943975 0.0
0.0 0.0 0.0

-280636.1468398104 1.130618874361412e6 0.0
1.130618874361412e6 49279.52544397222 0.0
0.0 0.0 0.0

35624.77076730243 749956.0556366852 0.0
749956.0556366852 -59673.970696407676 0.0
0.0 0.0 0.0

20862.667936035024 268140.9207646822 0.0
268140.9207646822 858862.0748542078 0.0
0.0 0.0 0.0

-1592.73062559159 12680.39637852094 0.0
12680.39637852094 -940321.4176684961 0.0
0.0 0.0 0.0

65463.25948712029 407889.02545652865 0.0
407889.02545652865 712337.490477425 0.0
0.0 0.0 0.0

126422.76056267269 841898.6179167754 0.0
841898.6179167754 -89728.26702796303 0.0
0.0 0.0 0.0

-4699.121070541209 402259.07276491815 0.0
402259.07276491815 -570235.0588855173 0.0
0.0 0.0 0.0

5079.877238010813 48025.965684856645 0.0
48025.965684856645 1.2408540149187325e6 0.0
0.0 0.0 0.0

15899.506542003393 496869.35294849856 0.0
496869.35294849856 35284.820482783456 0.0
0.0 0.0 0.0

66852.36358670636 529622.0405649527 0.0
529622.0405649527 -246304.63367661653 0.0
0.0 0.0 0.0

2368.181212854237 484426.8126616077 0.0
484426.8126616077 -351598.08041237487 0.0
0.0 0.0 0.0

-127461.23681219293 409180.5426998728 0.0
409180.5426998728 -403736.3288351421 0.0
0.0 0.0 0.0

-6019.628669519152 41662.95270656124 0.0
41662.95270656124 576614.780626292 0.0
0.0 0.0 0.0

-6045.895284559008 466223.42626351054 0.0
466223.42626351054 -45976.33909494707 0.0
0.0 0.0 0.0

127392.46529034516 507435.5389919823 0.0
507435.5389919823 194916.9483053535 0.0
0.0 0.0 0.0

669040.377895141 533819.1040350645 0.0
533819.1040350645 289205.6672964458 0.0
0.0 0.0 0.0

-306614.30441504566 1.2008478156226736e6 0.0
1.2008478156226736e6 75914.91694029846 0.0
0.0 0.0 0.0

-18990.778851778625 383396.38366027054 0.0
383396.38366027054 384894.2007959437 0.0
0.0 0.0 0.0

-300243.02650258306 423774.8871149573 0.0
423774.8871149573 -1.7901416309026973e6 0.0
0.0 0.0 0.0

4618.825921732467 146440.26773835407 0.0
146440.26773835407 -945040.0393289357 0.0
0.0 0.0 0.0

322.01829889271175 14439.926386589139 0.0
14439.926386589139 823389.3876836343 0.0
0.0 0.0 0.0

-610337.0715050428 643803.0089602867 0.0
643803.0089602867 -358520.53469656146 0.0
0.0 0.0 0.0

-541856.3309795125 570361.6165235112 0.0
570361.6165235112 -155802.32081641565 0.0
0.0 0.0 0.0

-70681.64775547347 471432.5716228526 0.0
471432.5716228526 -199133.54776075578 0.0
0.0 0.0 0.0

51745.15496709844 819704.7461833502 0.0
819704.7461833502 -58661.13255064214 0.0
0.0 0.0 0.0

-36492.477461869305 141658.12333710078 0.0
141658.12333710078 -1.6990740685373745e6 0.0
0.0 0.0 0.0

344975.42048757133 606946.9816914072 0.0
606946.9816914072 -31238.30540379099 0.0
0.0 0.0 0.0

231502.70023503294 567515.4898639098 0.0
567515.4898639098 338241.6334168894 0.0
0.0 0.0 0.0

18978.742498475767 344785.8600345691 0.0
344785.8600345691 -548418.6783649686 0.0
0.0 0.0 0.0

-1369.130921621705 609906.5361692049 0.0
609906.5361692049 44872.43099250502 0.0
0.0 0.0 0.0

22458.753845268293 316019.56111672655 0.0
316019.56111672655 -363731.18875341123 0.0
0.0 0.0 0.0

777.8916036682785 333163.6650274997 0.0
333163.6650274997 -601222.1372380947 0.0
0.0 0.0 0.0

-91262.19450242392 437789.9539433905 0.0
437789.9539433905 -403185.2865148096 0.0
0.0 0.0 0.0

-255260.52293288012 749007.8649421339 0.0
749007.8649421339 121399.76349307611 0.0
0.0 0.0 0.0

-449104.5370737419 515055.8637139234 0.0
515055.8637139234 -2.0545600120550836e6 0.0
0.0 0.0 0.0

603699.0320063342 1.0078773809207302e6 0.0
1.0078773809207302e6 -119982.76356680266 0.0
0.0 0.0 0.0

284708.03555439773 703862.5000342021 0.0
703862.5000342021 -114799.47625398096 0.0
0.0 0.0 0.0

-81532.5183454124 852602.3553548979 0.0
852602.3553548979 63276.42090649808 0.0
0.0 0.0 0.0

-95572.63474936159 585999.8513825645 0.0
585999.8513825645 243800.83883560004 0.0
0.0 0.0 0.0

-31355.70784124697 114726.6645407862 0.0
114726.6645407862 -1.779067409121485e6 0.0
0.0 0.0 0.0

-68784.22741846883 526675.6236815922 0.0
526675.6236815922 327328.8000498973 0.0
0.0 0.0 0.0

-20579.38315200078 107576.40218057511 0.0
107576.40218057511 -1.4395215357562965e6 0.0
0.0 0.0 0.0

53142.49187932932 554613.8529271515 0.0
554613.8529271515 -166101.5999810846 0.0
0.0 0.0 0.0

47112.00159339266 528913.5589570858 0.0
528913.5589570858 -171290.9676489529 0.0
0.0 0.0 0.0

-32118.575391343224 451382.30311413173 0.0
451382.30311413173 -84327.90226369533 0.0
0.0 0.0 0.0

-5487.265188742866 479284.1115276699 0.0
479284.1115276699 405142.40501742496 0.0
0.0 0.0 0.0

3902.7705160783407 708782.5465785491 0.0
708782.5465785491 -32680.29934317107 0.0
0.0 0.0 0.0

-45782.27474115499 484675.8314849823 0.0
484675.8314849823 323148.7548470544 0.0
0.0 0.0 0.0

779.4347907255287 16272.513039975987 0.0
16272.513039975987 936069.2304749801 0.0
0.0 0.0 0.0

-11241.953899228305 135878.44880526586 0.0
135878.44880526586 -994086.6895326714 0.0
0.0 0.0 0.0

-5719.393586892984 190499.9032282728 0.0
190499.9032282728 -741106.0749363233 0.0
0.0 0.0 0.0

84740.53256553074 920707.5877541074 0.0
920707.5877541074 -39293.599403144995 0.0
0.0 0.0 0.0

-83365.26198771942 512311.11394494335 0.0
512311.11394494335 -295480.3495122121 0.0
0.0 0.0 0.0

-42392.023869543074 360968.8397740385 0.0
360968.8397740385 -801161.5418919496 0.0
0.0 0.0 0.0

126239.38545477176 448794.3062009475 0.0
448794.3062009475 344887.85233693325 0.0
0.0 0.0 0.0

7651.698329756095 106168.08075094102 0.0
106168.08075094102 615853.7963059859 0.0
0.0 0.0 0.0

248705.33471774604 587824.9379354153 0.0
587824.9379354153 356633.53421535034 0.0
0.0 0.0 0.0

-446826.96727695933 824794.0932247546 0.0
824794.0932247546 127773.62071815997 0.0
0.0 0.0 0.0

172230.63867911228 523047.1704784524 0.0
523047.1704784524 219125.0553632017 0.0
0.0 0.0 0.0

137392.3672987016 418876.7977951728 0.0
418876.7977951728 447267.8693129396 0.0
0.0 0.0 0.0

-185498.77548563416 733406.7591128398 0.0
733406.7591128398 132730.26719883527 0.0
0.0 0.0 0.0

-23586.23644688583 496024.98165741283 0.0
496024.98165741283 377839.6771110309 0.0
0.0 0.0 0.0

142753.93192185968 370996.3156895179 0.0
370996.3156895179 1.1347321257110601e6 0.0
0.0 0.0 0.0

-523907.4315226389 584234.5803375186 0.0
584234.5803375186 -106270.64563334032 0.0
0.0 0.0 0.0

-323233.9798967815 587261.0768914797 0.0
587261.0768914797 20288.640848678246 0.0
0.0 0.0 0.0

-224110.17601972772 311884.57685100107 0.0
311884.57685100107 -152652.25151232435 0.0
0.0 0.0 0.0

-2.124565738485805e6 921642.3652971119 0.0
921642.3652971119 -482610.5564463263 0.0
0.0 0.0 0.0

419200.6603724322 521431.3094991073 0.0
521431.3094991073 253534.40959620872 0.0
0.0 0.0 0.0

-94317.31663381195 386105.8309367936 0.0
386105.8309367936 -836888.2908964511 0.0
0.0 0.0 0.0

-72761.99913298264 576019.4536035787 0.0
576019.4536035787 198176.2827258381 0.0
0.0 0.0 0.0

55125.49777114815 514412.60165148263 0.0
514412.60165148263 -342423.37254103285 0.0
0.0 0.0 0.0

1.434353480385953e6 443673.9379182118 0.0
443673.9379182118 109213.95211169182 0.0
0.0 0.0 0.0

-675.0166456596926 47529.246743216485 0.0
47529.246743216485 360555.9632708617 0.0
0.0 0.0 0.0

348.43119671983004 16219.922844919147 0.0
16219.922844919147 -355138.57906619937 0.0
0.0 0.0 0.0

59816.77316842943 537713.4188751268 0.0
537713.4188751268 -283048.26022156235 0.0
0.0 0.0 0.0

-14426.695944419938 488860.93443098216 0.0
488860.93443098216 -10564.943669892718 0.0
0.0 0.0 0.0

20884.21781380725 139021.65178315516 0.0
139021.65178315516 1.2268233781615389e6 0.0
0.0 0.0 0.0

321943.71226607496 737713.6745525678 0.0
737713.6745525678 -114241.01876040795 0.0
0.0 0.0 0.0

-457154.9521328778 1.2493324106029705e6 0.0
1.2493324106029705e6 88801.16148931484 0.0
0.0 0.0 0.0

400433.7338909133 549439.1732652369 0.0
549439.1732652369 235895.79537412495 0.0
0.0 0.0 0.0

-325.7477612911316 14990.75867449517 0.0
14990.75867449517 763483.9418932797 0.0
0.0 0.0 0.0

-663582.5377425461 586198.1489642487 0.0
586198.1489642487 -247149.5064443663 0.0
0.0 0.0 0.0

33519.67505094188 469775.07827679586 0.0
469775.07827679586 183514.55739625706 0.0
0.0 0.0 0.0

-619690.8907996746 1.3182237323846216e6 0.0
1.3182237323846216e6 112576.83760980901 0.0
0.0 0.0 0.0

-15563.9853850863 389017.61989908275 0.0
389017.61989908275 521270.47931218887 0.0
0.0 0.0 0.0

98502.28461354623 521671.13286584447 0.0
521671.13286584447 1278.9584776503943 0.0
0.0 0.0 0.0

-208628.03399504354 418298.72249433445 0.0
418298.72249433445 -703017.2026862236 0.0
0.0 0.0 0.0

-89228.79350875341 470608.22769330203 0.0
470608.22769330203 -276598.3843506597 0.0
0.0 0.0 0.0

309108.5386200697 596133.9744825929 0.0
596133.9744825929 -46361.93649266132 0.0
0.0 0.0 0.0

1.220320779648312e6 1.272591239262263e6 0.0
1.272591239262263e6 -184900.0851869625 0.0
0.0 0.0 0.0

-3064.133741541562 49002.87797149483 0.0
49002.87797149483 609068.1127414362 0.0
0.0 0.0 0.0

93422.61541792395 1.0279596203185369e6 0.0
1.0279596203185369e6 -72651.27990877631 0.0
0.0 0.0 0.0

181650.1905149677 851666.7677301408 0.0
851666.7677301408 -75053.70192917815 0.0
0.0 0.0 0.0

-6528.3674033796415 68692.13342788105 0.0
68692.13342788105 1.0121626758968579e6 0.0
0.0 0.0 0.0

-477.32940646714997 15960.637890055206 0.0
15960.637890055206 -955482.6391162034 0.0
0.0 0.0 0.0

-131899.2930422015 655607.5763825458 0.0
655607.5763825458 181626.57493488747 0.0
0.0 0.0 0.0

195857.5526206839 577737.1496710493 0.0
577737.1496710493 345496.5801452573 0.0
0.0 0.0 0.0

-47244.28783164547 87040.70625894108 0.0
87040.70625894108 -49532.61651811945 0.0
0.0 0.0 0.0

-14630.493210931163 343366.9198005288 0.0
343366.9198005288 533351.631724362 0.0
0.0 0.0 0.0

155077.12066943286 565561.8442780813 0.0
565561.8442780813 338705.42882923386 0.0
0.0 0.0 0.0

18229.038113744857 436199.4229895329 0.0
436199.4229895329 -245529.4084233859 0.0
0.0 0.0 0.0

-114006.74300143271 424006.46159941313 0.0
424006.46159941313 -450747.19764277147 0.0
0.0 0.0 0.0

112489.40381117181 775715.7507230269 0.0
775715.7507230269 -102102.45459883151 0.0
0.0 0.0 0.0

2244.7429539781006 45614.875652096416 0.0
45614.875652096416 410798.31361205154 0.0
0.0 0.0 0.0

-6861.9421797836985 473760.3605546755 0.0
473760.3605546755 125032.75975719199 0.0
0.0 0.0 0.0

29928.51824186626 359649.2845170039 0.0
359649.2845170039 715438.2238773892 0.0
0.0 0.0 0.0

23920.343071524097 343848.9927115951 0.0
343848.9927115951 -278033.51902282337 0.0
0.0 0.0 0.0

119321.14040322368 621063.4922503686 0.0
621063.4922503686 -211454.98726431848 0.0
0.0 0.0 0.0

132600.02575920965 1.140782174358675e6 0.0
1.140782174358675e6 -11355.760868269863 0.0
0.0 0.0 0.0

-61244.048442219035 346833.1378436366 0.0
346833.1378436366 -862601.5912242727 0.0
0.0 0.0 0.0

-1.281763634471444e6 1.3269161110124488e6 0.0
1.3269161110124488e6 135426.6928217415 0.0
0.0 0.0 0.0

620.173463173167 17661.1478538921 0.0
17661.1478538921 76744.69951524893 0.0
0.0 0.0 0.0

-2102.223035392173 19623.616227299754 0.0
19623.616227299754 61405.75705017039 0.0
0.0 0.0 0.0

206725.60159740716 424559.3088758895 0.0
424559.3088758895 841028.8084831404 0.0
0.0 0.0 0.0

150490.63358290656 515668.4927407667 0.0
515668.4927407667 346030.8923688566 0.0
0.0 0.0 0.0

32598.368884649637 491120.7664356051 0.0
491120.7664356051 226469.59857172568 0.0
0.0 0.0 0.0

-5442.653718391666 298251.2845468864 0.0
298251.2845468864 536930.1593557769 0.0
0.0 0.0 0.0

300572.18122753577 74075.21812362756 0.0
74075.21812362756 -6307.199610968601 0.0
0.0 0.0 0.0

-29168.159709345447 528061.7391855814 0.0
528061.7391855814 226925.6850055202 0.0
0.0 0.0 0.0

30414.60995282683 807636.9623408576 0.0
807636.9623408576 -7038.7332051765825 0.0
0.0 0.0 0.0

-85644.54357051715 370394.6910383281 0.0
370394.6910383281 -930225.2309352448 0.0
0.0 0.0 0.0

342307.9747413464 580818.0985033505 0.0
580818.0985033505 295855.81403932406 0.0
0.0 0.0 0.0

554483.2781664312 570800.4041791781 0.0
570800.4041791781 370041.87563485 0.0
0.0 0.0 0.0

-832305.4615541564 1.3779964827628762e6 0.0
1.3779964827628762e6 182976.08821991342 0.0
0.0 0.0 0.0

80480.92660179996 504103.9656948265 0.0
504103.9656948265 253587.06176964217 0.0
0.0 0.0 0.0

-15320.821829904977 201372.38631362515 0.0
201372.38631362515 312879.49144762865 0.0
0.0 0.0 0.0

-7010.70332743699 263385.76985890337 0.0
263385.76985890337 707328.0795110175 0.0
0.0 0.0 0.0

23575.872852271117 786402.8710251178 0.0
786402.8710251178 -33569.15483305666 0.0
0.0 0.0 0.0

227490.94412244513 506016.41676394746 0.0
506016.41676394746 331162.1618001187 0.0
0.0 0.0 0.0

-11852.182423739345 119848.42311703165 0.0
119848.42311703165 1.711660818886003e6 0.0
0.0 0.0 0.0

81513.4074668327 449266.7644658997 0.0
449266.7644658997 437703.0700603855 0.0
0.0 0.0 0.0

-309331.850464683 402201.7347236 0.0
402201.7347236 -1.0846143273975158e6 0.0
0.0 0.0 0.0

158977.3566231404 556838.9326910028 0.0
556838.9326910028 327328.04630979884 0.0
0.0 0.0 0.0

42081.98888636191 397299.1167936211 0.0
397299.1167936211 662363.1180040261 0.0
0.0 0.0 0.0

14555.69538495128 405190.98648724717 0.0
405190.98648724717 -253343.7171066383 0.0
0.0 0.0 0.0

257070.29679917527 408540.4701751437 0.0
408540.4701751437 2.0929799561413764e6 0.0
0.0 0.0 0.0

329346.6408056075 694505.0915560551 0.0
694505.0915560551 -96522.35621951969 0.0
0.0 0.0 0.0

20414.06167639038 457755.3008272888 0.0
457755.3008272888 -442889.6241847967 0.0
0.0 0.0 0.0

13871.671997308986 302224.77008212195 0.0
302224.77008212195 -72178.98865568788 0.0
0.0 0.0 0.0

1181.8706623344915 52052.088792019254 0.0
52052.088792019254 -1.205132675947917e6 0.0
0.0 0.0 0.0

121431.528041814 1.0777923976872694e6 0.0
1.0777923976872694e6 -5274.116267048972 0.0
0.0 0.0 0.0

-2139.1074285353534 277974.9713121591 0.0
277974.9713121591 725040.9235047036 0.0
0.0 0.0 0.0

165695.2192307766 400445.4899112087 0.0
400445.4899112087 619796.7638555347 0.0
0.0 0.0 0.0

-236894.90235782004 626693.853065876 0.0
626693.853065876 97430.51293691952 0.0
0.0 0.0 0.0

-15646.588524238472 539549.9660819158 0.0
539549.9660819158 74781.53913888508 0.0
0.0 0.0 0.0

-13537.578758669493 354925.8263932585 0.0
354925.8263932585 544989.3362277306 0.0
0.0 0.0 0.0

414.37108040289604 238927.37281695896 0.0
238927.37281695896 -568413.1903282009 0.0
0.0 0.0 0.0

-439795.1739490567 1.13012839423254e6 0.0
1.13012839423254e6 156913.98750223534 0.0
0.0 0.0 0.0

761562.5989315136 285759.5785799777 0.0
285759.5785799777 43285.114121780905 0.0
0.0 0.0 0.0

-9733.333076343057 76041.49909178968 0.0
76041.49909178968 567150.9598787361 0.0
0.0 0.0 0.0

-234437.9885198519 767030.9759579267 0.0
767030.9759579267 117971.09106720143 0.0
0.0 0.0 0.0

-780297.2450882691 482660.0441097313 0.0
482660.0441097313 -154851.54335546627 0.0
0.0 0.0 0.0

-105259.91383074017 539382.0201037442 0.0
539382.0201037442 -292243.1431044148 0.0
0.0 0.0 0.0

-1.4664870625007483e6 728197.3522106694 0.0
728197.3522106694 -300615.535588708 0.0
0.0 0.0 0.0

-129728.30163498914 531356.0226390276 0.0
531356.0226390276 -175543.48988223818 0.0
0.0 0.0 0.0

-29267.443101776647 431193.86621616763 0.0
431193.86621616763 401307.8014896658 0.0
0.0 0.0 0.0

-3157.841209072474 276404.7813753421 0.0
276404.7813753421 578898.5002137545 0.0
0.0 0.0 0.0

-30067.888160561648 370301.8692849902 0.0
370301.8692849902 365423.6191887006 0.0
0.0 0.0 0.0

-111851.37958595295 579040.6528933789 0.0
579040.6528933789 247353.94427740754 0.0
0.0 0.0 0.0

11348.693372552982 81426.89643465109 0.0
81426.89643465109 1.2321535314357274e6 0.0
0.0 0.0 0.0

-11161.617907083191 458801.6566099125 0.0
458801.6566099125 -23383.86055573242 0.0
0.0 0.0 0.0

18702.452638580362 276111.2995477704 0.0
276111.2995477704 -296752.49276453815 0.0
0.0 0.0 0.0

20831.224251185165 408451.011300989 0.0
408451.011300989 -459101.3773678593 0.0
0.0 0.0 0.0

6882.763091557426 35225.3130890335 0.0
35225.3130890335 834704.0934939042 0.0
0.0 0.0 0.0

-29578.828220094765 468721.34663338 0.0
468721.34663338 23410.836592702726 0.0
0.0 0.0 0.0

-206418.28630495816 635166.1819089233 0.0
635166.1819089233 125863.86901271407 0.0
0.0 0.0 0.0

149097.0497433339 418783.4288064211 0.0
418783.4288064211 804145.0280004649 0.0
0.0 0.0 0.0

54845.75434703789 516026.6291994322 0.0
516026.6291994322 -292752.4426362819 0.0
0.0 0.0 0.0

31300.887420777843 469889.9999964223 0.0
469889.9999964223 121852.95614714181 0.0
0.0 0.0 0.0

80453.74759108211 988844.2947367026 0.0
988844.2947367026 -63198.76354192938 0.0
0.0 0.0 0.0

98151.19149768088 545939.6925441814 0.0
545939.6925441814 -227431.62099975027 0.0
0.0 0.0 0.0

3.166513305218566e6 1.112266255682698e6 0.0
1.112266255682698e6 83000.76069100038 0.0
0.0 0.0 0.0

176589.63795926364 539014.0650546387 0.0
539014.0650546387 -31914.03144781261 0.0
0.0 0.0 0.0

-79612.50869504565 448835.3419840481 0.0
448835.3419840481 -572858.4656744195 0.0
0.0 0.0 0.0

150011.5094621986 602588.1932003261 0.0
602588.1932003261 -188685.69762927308 0.0
0.0 0.0 0.0

-807636.1039413873 642829.2977091802 0.0
642829.2977091802 -309086.14791319927 0.0
0.0 0.0 0.0

-158764.58020222234 614040.7941304158 0.0
614040.7941304158 167358.84674623096 0.0
0.0 0.0 0.0

559412.8303117349 572672.11551456 0.0
572672.11551456 228439.6903830518 0.0
0.0 0.0 0.0

-122451.03627363124 351383.0906891408 0.0
351383.0906891408 -1.1520464420633262e6 0.0
0.0 0.0 0.0

247358.08110353106 385655.1790554803 0.0
385655.1790554803 1.1310616607601978e6 0.0
0.0 0.0 0.0

10517.290634650475 94775.33581793406 0.0
94775.33581793406 -711641.6586139617 0.0
0.0 0.0 0.0

153785.21035446454 628526.2489304573 0.0
628526.2489304573 -178785.49868066053 0.0
0.0 0.0 0.0

-16219.834695895319 85283.59052809287 0.0
85283.59052809287 -1.4002029093455295e6 0.0
0.0 0.0 0.0

108686.97089634629 613058.0122810708 0.0
613058.0122810708 -215207.79035194882 0.0
0.0 0.0 0.0

284817.9256927532 741542.4613394086 0.0
741542.4613394086 -120079.77174682774 0.0
0.0 0.0 0.0

-4251.082118997052 535667.0322822236 0.0
535667.0322822236 67051.48255082994 0.0
0.0 0.0 0.0

-441143.59916547476 818970.017410853 0.0
818970.017410853 102110.98883947768 0.0
0.0 0.0 0.0

38937.861402425566 400808.1213461426 0.0
400808.1213461426 666204.6219383441 0.0
0.0 0.0 0.0

52185.97358585794 470697.2176688451 0.0
470697.2176688451 275085.08233769465 0.0
0.0 0.0 0.0

-1.1554934222549186e6 928232.2333451677 0.0
928232.2333451677 125428.50110262062 0.0
0.0 0.0 0.0

550802.7862276126 572888.1949397231 0.0
572888.1949397231 375868.574281596 0.0
0.0 0.0 0.0

-15154.612301710556 260233.69530746198 0.0
260233.69530746198 212311.14211766358 0.0
0.0 0.0 0.0

-184715.05024303077 757062.7715097795 0.0
757062.7715097795 119218.12582252196 0.0
0.0 0.0 0.0

-151515.92644197724 541859.5691001498 0.0
541859.5691001498 -237986.38274776208 0.0
0.0 0.0 0.0

27338.927394048907 358982.68816267943 0.0
358982.68816267943 -301822.41902142623 0.0
0.0 0.0 0.0

-1695.0647156414343 11712.362609445334 0.0
11712.362609445334 -1.0063253401555448e6 0.0
0.0 0.0 0.0

-64145.27516469558 445639.46730898006 0.0
445639.46730898006 -240482.46776844448 0.0
0.0 0.0 0.0

1.552885676145984e6 163324.63621846982 0.0
163324.63621846982 3404.7361211626558 0.0
0.0 0.0 0.0

52708.06476296211 386118.8682594882 0.0
386118.8682594882 717829.7902238641 0.0
0.0 0.0 0.0

-230236.76658235508 720894.7794635828 0.0
720894.7794635828 129797.6792164854 0.0
0.0 0.0 0.0

-1913.667055551312 19887.981576531274 0.0
19887.981576531274 1.120670665681654e6 0.0
0.0 0.0 0.0

-84239.76912546773 959134.8726295745 0.0
959134.8726295745 18417.528523345023 0.0
0.0 0.0 0.0

-606239.4433570935 549198.7355194436 0.0
549198.7355194436 -233482.5562810387 0.0
0.0 0.0 0.0

32017.795081137185 475462.963298655 0.0
475462.963298655 -407188.6364374843 0.0
0.0 0.0 0.0

194848.33816127703 424761.28101533576 0.0
424761.28101533576 746558.796568207 0.0
0.0 0.0 0.0

16860.51717489957 496013.7600553679 0.0
496013.7600553679 129504.11946153834 0.0
0.0 0.0 0.0

-50494.252868751486 545641.3819079618 0.0
545641.3819079618 220850.03875560005 0.0
0.0 0.0 0.0

10120.276578211415 338808.0652795125 0.0
338808.0652795125 -329758.4265944618 0.0
0.0 0.0 0.0

15427.040922334883 227085.62978660275 0.0
227085.62978660275 -547896.3064825761 0.0
0.0 0.0 0.0

-8708.97947816299 184772.63565868064 0.0
184772.63565868064 -68218.35091546315 0.0
0.0 0.0 0.0

-164059.49869234895 743173.1543408732 0.0
743173.1543408732 118524.17244496614 0.0
0.0 0.0 0.0

19280.69363673737 451823.3517520988 0.0
451823.3517520988 -214523.910618597 0.0
0.0 0.0 0.0

654182.9078167409 274275.1335200566 0.0
274275.1335200566 44082.48561309019 0.0
0.0 0.0 0.0

78.58079449774232 17121.267997693532 0.0
17121.267997693532 -1.0219765917124292e6 0.0
0.0 0.0 0.0

175426.0149418373 395794.4877831104 0.0
395794.4877831104 792927.0291639873 0.0
0.0 0.0 0.0

-5754.380531037801 177040.241092417 0.0
177040.241092417 -127319.06491085941 0.0
0.0 0.0 0.0

152258.2101557727 785050.2075675623 0.0
785050.2075675623 -87767.78439020264 0.0
0.0 0.0 0.0

48738.10678307054 481159.20441303524 0.0
481159.20441303524 300411.82473854895 0.0
0.0 0.0 0.0

20323.92486366065 186288.12515530034 0.0
186288.12515530034 1.1043108336826945e6 0.0
0.0 0.0 0.0

7496.456052079215 72895.43048916232 0.0
72895.43048916232 377029.34384476696 0.0
0.0 0.0 0.0

300909.4341336914 737658.0017098129 0.0
737658.0017098129 -114756.14347968054 0.0
0.0 0.0 0.0

-1.4394454057347674e6 428985.0141578631 0.0
428985.0141578631 -71093.30945086823 0.0
0.0 0.0 0.0

-736.529083583242 427124.2356022558 0.0
427124.2356022558 -526462.0237081897 0.0
0.0 0.0 0.0

217898.25382979363 259492.6981976126 0.0
259492.6981976126 49268.11203082255 0.0
0.0 0.0 0.0

-27943.937359372794 423380.8460544758 0.0
423380.8460544758 387653.28711850254 0.0
0.0 0.0 0.0

-1.5512441443950566e6 419848.3268496105 0.0
419848.3268496105 -95838.1165385964 0.0
0.0 0.0 0.0

-83844.92245497581 428387.2269266468 0.0
428387.2269266468 -610824.6880834956 0.0
0.0 0.0 0.0

100187.93423834798 587413.9669946735 0.0
587413.9669946735 -233186.23485460566 0.0
0.0 0.0 0.0

8820.359401863763 76453.607409926 0.0
76453.607409926 -14875.607150895034 0.0
0.0 0.0 0.0

-323840.429128696 553833.4636943116 0.0
553833.4636943116 -246220.9939699347 0.0
0.0 0.0 0.0

284132.4977496206 885177.916164137 0.0
885177.916164137 -112629.62012669741 0.0
0.0 0.0 0.0

-52825.3866830533 858169.9109255555 0.0
858169.9109255555 13458.912072496561 0.0
0.0 0.0 0.0

-46709.0726924476 542703.5222906729 0.0
542703.5222906729 135462.4935027847 0.0
0.0 0.0 0.0

19303.858559971733 317932.43387701316 0.0
317932.43387701316 754620.2804835493 0.0
0.0 0.0 0.0

-53802.00220239327 530501.799067902 0.0
530501.799067902 320185.87320762716 0.0
0.0 0.0 0.0

-78884.83040969665 927340.0396064783 0.0
927340.0396064783 15358.20113156223 0.0
0.0 0.0 0.0

1766.6238666216668 270884.758087046 0.0
270884.758087046 -354469.726506492 0.0
0.0 0.0 0.0

-71658.65190976237 905701.9446060904 0.0
905701.9446060904 13145.528533579374 0.0
0.0 0.0 0.0

166555.18493716454 525298.9330588988 0.0
525298.9330588988 302564.1203428034 0.0
0.0 0.0 0.0

4722.034438067203 273725.9592398994 0.0
273725.9592398994 722090.2296199147 0.0
0.0 0.0 0.0

-9078.562506342598 48181.069742554915 0.0
48181.069742554915 -1.0491842881293956e6 0.0
0.0 0.0 0.0

-252705.08580337558 623719.0855082705 0.0
623719.0855082705 106592.45050963745 0.0
0.0 0.0 0.0

39493.46688525943 692545.572660966 0.0
692545.572660966 -84938.05281847615 0.0
0.0 0.0 0.0

87999.00789933105 689875.0795864571 0.0
689875.0795864571 -101668.0063753842 0.0
0.0 0.0 0.0

-2.0262592818724664e6 1.1951420761815284e6 0.0
1.1951420761815284e6 -1.024470804151654e6 0.0
0.0 0.0 0.0

42840.37603593037 496451.9633952197 0.0
496451.9633952197 -372981.4757307349 0.0
0.0 0.0 0.0

31377.742504627684 765987.5080744049 0.0
765987.5080744049 -8064.36476046013 0.0
0.0 0.0 0.0

-42772.80806343518 452094.8783599874 0.0
452094.8783599874 364946.18683375255 0.0
0.0 0.0 0.0

-891485.4886659426 534902.9022812836 0.0
534902.9022812836 -172579.00489118346 0.0
0.0 0.0 0.0

33113.4606421236 472601.9052177214 0.0
472601.9052177214 9865.624692637848 0.0
0.0 0.0 0.0

151501.63042754238 432779.7403783002 0.0
432779.7403783002 324232.77747776 0.0
0.0 0.0 0.0

-2400.397529709444 12379.420045187255 0.0
12379.420045187255 -1.2971765099890756e6 0.0
0.0 0.0 0.0

-646800.6192372184 1.0016701856428446e6 0.0
1.0016701856428446e6 161356.9904159615 0.0
0.0 0.0 0.0

10682.492736354412 46470.78514655098 0.0
46470.78514655098 1.1437231213234877e6 0.0
0.0 0.0 0.0

-3110.6355217855307 64720.96324393161 0.0
64720.96324393161 1.3345986308269603e6 0.0
0.0 0.0 0.0

3180.4871366159205 48539.57084805948 0.0
48539.57084805948 343064.5897237543 0.0
0.0 0.0 0.0

26975.685314563394 284684.22315381427 0.0
284684.22315381427 873157.6365096299 0.0
0.0 0.0 0.0

153670.3655429241 385908.23370275646 0.0
385908.23370275646 205679.88954892824 0.0
0.0 0.0 0.0

-20874.28912354188 400475.93085893965 0.0
400475.93085893965 -626153.5041742142 0.0
0.0 0.0 0.0

-1.1680799983223265e6 1.4045444182172602e6 0.0
1.4045444182172602e6 262210.59384892683 0.0
0.0 0.0 0.0

10998.61911218692 286312.4502316944 0.0
286312.4502316944 737568.0376804672 0.0
0.0 0.0 0.0

-129202.97539172578 339508.45174875925 0.0
339508.45174875925 -1.2149440817712941e6 0.0
0.0 0.0 0.0

-545952.7484359944 536424.5592439872 0.0
536424.5592439872 -213784.5683160548 0.0
0.0 0.0 0.0

6801.212127077044 56907.03345797588 0.0
56907.03345797588 1.36357529709457e6 0.0
0.0 0.0 0.0

36906.347515915884 468375.51496717025 0.0
468375.51496717025 -353972.73710514075 0.0
0.0 0.0 0.0

-248168.0204842338 409175.77830309886 0.0
409175.77830309886 -1.3898374204049925e6 0.0
0.0 0.0 0.0

-105577.4869003524 510313.50055835274 0.0
510313.50055835274 -214753.48962740318 0.0
0.0 0.0 0.0

-456081.26936778706 484048.603916429 0.0
484048.603916429 -188158.2355022541 0.0
0.0 0.0 0.0

1.5887265346129332e6 779697.5041246845 0.0
779697.5041246845 354287.43028983485 0.0
0.0 0.0 0.0

-49534.084622217284 392031.9802196934 0.0
392031.9802196934 -102259.9988650051 0.0
0.0 0.0 0.0

35809.38363508464 425056.1861403662 0.0
425056.1861403662 -410612.3178655441 0.0
0.0 0.0 0.0

-98562.76629110465 427855.2474667997 0.0
427855.2474667997 -371793.5626917178 0.0
0.0 0.0 0.0

2010.7233279514476 18888.795395423378 0.0
18888.795395423378 -1.311009325687805e6 0.0
0.0 0.0 0.0

100361.3824480806 750002.230390524 0.0
750002.230390524 -75247.97473711768 0.0
0.0 0.0 0.0

-121138.71707727332 408375.43757694616 0.0
408375.43757694616 -691708.8125555936 0.0
0.0 0.0 0.0

78690.22633681766 554301.2243225924 0.0
554301.2243225924 -240537.21616135954 0.0
0.0 0.0 0.0

-1325.9138256136976 493523.59847952914 0.0
493523.59847952914 61130.32504226207 0.0
0.0 0.0 0.0

1486.607861920551 257632.39277815688 0.0
257632.39277815688 272214.55406239885 0.0
0.0 0.0 0.0

-55639.25578118753 537157.8783610949 0.0
537157.8783610949 207832.5437530866 0.0
0.0 0.0 0.0

113845.72665996035 398871.1220315839 0.0
398871.1220315839 813894.8663550027 0.0
0.0 0.0 0.0

118.09846877318341 16784.367606820408 0.0
16784.367606820408 -832927.8459366094 0.0
0.0 0.0 0.0

-295949.6617737585 266246.7397336205 0.0
266246.7397336205 -159767.11980525614 0.0
0.0 0.0 0.0

208352.69656535191 575477.0319917074 0.0
575477.0319917074 330478.6699827292 0.0
0.0 0.0 0.0

-46442.7630811859 458980.55690384505 0.0
458980.55690384505 -425860.9929731964 0.0
0.0 0.0 0.0

2.390176312473372e6 315311.7433887276 0.0
315311.7433887276 9589.654976468417 0.0
0.0 0.0 0.0

-843.5475585875101 429038.8318036531 0.0
429038.8318036531 -528924.5492968984 0.0
0.0 0.0 0.0

78266.00084822044 718408.0194391531 0.0
718408.0194391531 -110920.68808092794 0.0
0.0 0.0 0.0

-22023.686986346023 596202.3502363573 0.0
596202.3502363573 18813.901400947885 0.0
0.0 0.0 0.0

295328.62820825964 409553.5833180614 0.0
409553.5833180614 1.8246312352329968e6 0.0
0.0 0.0 0.0

28513.941652892565 265079.0564128233 0.0
265079.0564128233 929872.5730614662 0.0
0.0 0.0 0.0

1233.0633780414937 10195.744590082135 0.0
10195.744590082135 1.1065611799282948e6 0.0
0.0 0.0 0.0

1831.4768047831021 168620.00264110081 0.0
168620.00264110081 1.1659099631074206e6 0.0
0.0 0.0 0.0

-71300.22462041615 821117.5834032961 0.0
821117.5834032961 29400.85033428149 0.0
0.0 0.0 0.0

5992.657846091752 267303.06158534926 0.0
267303.06158534926 -598179.1060334882 0.0
0.0 0.0 0.0

-75796.53985020544 564981.9082095867 0.0
564981.9082095867 251569.76038373035 0.0
0.0 0.0 0.0

53263.982230079826 513500.30008194066 0.0
513500.30008194066 -340690.134424187 0.0
0.0 0.0 0.0

-34724.92947283987 401100.11257276277 0.0
401100.11257276277 350633.92029382684 0.0
0.0 0.0 0.0

-143107.1648620717 629390.9786791803 0.0
629390.9786791803 182820.98567608235 0.0
0.0 0.0 0.0

375705.88535296294 678864.9397819191 0.0
678864.9397819191 -77367.9993173758 0.0
0.0 0.0 0.0

-45058.698734388614 508228.69491555705 0.0
508228.69491555705 354194.2671241246 0.0
0.0 0.0 0.0

-65900.37154825199 543377.6468659785 0.0
543377.6468659785 287276.2418121271 0.0
0.0 0.0 0.0

-124600.59658537297 451374.78386676736 0.0
451374.78386676736 -406123.2215711493 0.0
0.0 0.0 0.0

-3500.6473175766296 292910.75007616036 0.0
292910.75007616036 677143.0196152366 0.0
0.0 0.0 0.0

-60912.22693170411 813773.5303184108 0.0
813773.5303184108 61289.21571800708 0.0
0.0 0.0 0.0

-5891.472098074562 77699.39522807911 0.0
77699.39522807911 -758828.1869125462 0.0
0.0 0.0 0.0

1314.2337135215057 93380.80318876644 0.0
93380.80318876644 1.6768023561543198e6 0.0
0.0 0.0 0.0

-56936.85170280438 503440.3797571841 0.0
503440.3797571841 -244265.02161523045 0.0
0.0 0.0 0.0

-77104.29433219979 842678.360175175 0.0
842678.360175175 30735.905507927375 0.0
0.0 0.0 0.0

-4468.2085629844805 325756.62135607627 0.0
325756.62135607627 -700337.6263015143 0.0
0.0 0.0 0.0

73234.38547931224 759074.1321854866 0.0
759074.1321854866 -89287.71173610713 0.0
0.0 0.0 0.0

-883.1673442815663 219231.96884687085 0.0
219231.96884687085 -605954.2200507825 0.0
0.0 0.0 0.0

10015.328304208088 255106.27675152943 0.0
255106.27675152943 774774.7769614367 0.0
0.0 0.0 0.0

-1.639464110867968e6 1.2677247546059263e6 0.0
1.2677247546059263e6 267559.670332373 0.0
0.0 0.0 0.0

-368406.1882178249 584696.394945958 0.0
584696.394945958 -48469.29543813468 0.0
0.0 0.0 0.0

-89039.46637117674 563172.1945236506 0.0
563172.1945236506 265115.2938032454 0.0
0.0 0.0 0.0

-606.9068430609186 14054.178889176432 0.0
14054.178889176432 548594.7344516501 0.0
0.0 0.0 0.0

-436420.06769704114 551637.6556301771 0.0
551637.6556301771 -99663.22252328566 0.0
0.0 0.0 0.0

-185698.01823203987 638653.4397293712 0.0
638653.4397293712 147538.36427241837 0.0
0.0 0.0 0.0

591.427239300916 47524.00470805767 0.0
47524.00470805767 -1.078250716531055e6 0.0
0.0 0.0 0.0

-15875.054672570666 362109.15191132104 0.0
362109.15191132104 420157.4476588492 0.0
0.0 0.0 0.0

-7593.3372572074295 309590.44870069437 0.0
309590.44870069437 553941.5245424517 0.0
0.0 0.0 0.0

181605.67524962197 1.0066973311479408e6 0.0
1.0066973311479408e6 -41138.137591713145 0.0
0.0 0.0 0.0

-9419.777764373663 108879.4875205037 0.0
108879.4875205037 611651.5788413772 0.0
0.0 0.0 0.0

-2214.7057023556263 313104.3508201182 0.0
313104.3508201182 698948.817735445 0.0
0.0 0.0 0.0

-12452.351832564367 869687.804839155 0.0
869687.804839155 29998.5443963127 0.0
0.0 0.0 0.0

4330.456192701531 61464.287307911625 0.0
61464.287307911625 1.410087496005709e6 0.0
0.0 0.0 0.0

7257.422350236186 37449.33313467612 0.0
37449.33313467612 581164.0501917709 0.0
0.0 0.0 0.0

990.4669716533972 147843.6737279286 0.0
147843.6737279286 -697961.3793199352 0.0
0.0 0.0 0.0

-59289.71770906368 547146.6110005057 0.0
547146.6110005057 229711.57476467325 0.0
0.0 0.0 0.0

21473.240955256653 304675.40752042393 0.0
304675.40752042393 818346.2325186383 0.0
0.0 0.0 0.0

48692.128061047115 500349.3525478947 0.0
500349.3525478947 -332981.04361387715 0.0
0.0 0.0 0.0

49198.09572049123 470862.4416388322 0.0
470862.4416388322 -350835.29388295615 0.0
0.0 0.0 0.0

2022.5678809660021 258565.69154289027 0.0
258565.69154289027 -652353.4097410203 0.0
0.0 0.0 0.0

-9709.994935664843 413816.2020568271 0.0
413816.2020568271 -576595.0020817689 0.0
0.0 0.0 0.0

42638.60068396681 490795.5394481606 0.0
490795.5394481606 219898.39097089204 0.0
0.0 0.0 0.0

14572.28358543443 326326.13509224344 0.0
326326.13509224344 757858.5706163291 0.0
0.0 0.0 0.0

85134.1083057592 736475.1725727511 0.0
736475.1725727511 -108949.36462857744 0.0
0.0 0.0 0.0

-175532.36043518467 729058.539697508 0.0
729058.539697508 132306.60151882452 0.0
0.0 0.0 0.0

-36836.23123058639 832247.8647801308 0.0
832247.8647801308 46549.29021539728 0.0
0.0 0.0 0.0

468037.75387555175 517342.5847783628 0.0
517342.5847783628 2.0731825282649263e6 0.0
0.0 0.0 0.0

-45370.86314186295 561982.4048672507 0.0
561982.4048672507 202707.97543738136 0.0
0.0 0.0 0.0

41761.38638958223 443353.3437388019 0.0
443353.3437388019 -375103.8138239933 0.0
0.0 0.0 0.0

-26144.3216055863 436904.513359543 0.0
436904.513359543 -536399.2662640411 0.0
0.0 0.0 0.0

34773.47869530419 433519.37660984736 0.0
433519.37660984736 -421814.8544639995 0.0
0.0 0.0 0.0

86023.26197358305 830733.0245032508 0.0
830733.0245032508 -42637.440849797465 0.0
0.0 0.0 0.0

-49332.17698453041 529405.8933058716 0.0
529405.8933058716 187367.34247492751 0.0
0.0 0.0 0.0

22180.548599033613 472126.4132188804 0.0
472126.4132188804 91757.4775397714 0.0
0.0 0.0 0.0

-20721.52691415351 473478.76444098377 0.0
473478.76444098377 -398853.2007447905 0.0
0.0 0.0 0.0

-14932.757338583877 274161.78772897454 0.0
274161.78772897454 241637.5527907502 0.0
0.0 0.0 0.0

218310.14807378058 1.2002400287677243e6 0.0
1.2002400287677243e6 -119961.14621752228 0.0
0.0 0.0 0.0

-7939.530615482188 75839.21501109556 0.0
75839.21501109556 -1.5495613427058256e6 0.0
0.0 0.0 0.0

3.3115976326901354e6 1.2646163212918895e6 0.0
1.2646163212918895e6 903845.159862581 0.0
0.0 0.0 0.0

1.4803695541116528e6 1.2333419949117657e6 0.0
1.2333419949117657e6 -273899.3043330795 0.0
0.0 0.0 0.0

57502.410249229986 456843.9798655443 0.0
456843.9798655443 482439.1406454326 0.0
0.0 0.0 0.0

64448.782507293436 499895.66944379784 0.0
499895.66944379784 276606.79374017596 0.0
0.0 0.0 0.0

-643286.3891355916 578568.3834829428 0.0
578568.3834829428 -90808.43309617054 0.0
0.0 0.0 0.0

-1.7578110090821339e6 755991.8039574892 0.0
755991.8039574892 -399698.55536073307 0.0
0.0 0.0 0.0

-6574.989564787742 280345.0149647032 0.0
280345.0149647032 344036.065870455 0.0
0.0 0.0 0.0

41108.989779285715 709760.3112051749 0.0
709760.3112051749 -29835.24608726016 0.0
0.0 0.0 0.0

28540.912411628553 405772.18402683665 0.0
405772.18402683665 -446078.2221976156 0.0
0.0 0.0 0.0

-9730.260212208494 170931.23631638932 0.0
170931.23631638932 -1.395775599392086e6 0.0
0.0 0.0 0.0

21479.925764257234 412793.08147662884 0.0
412793.08147662884 -457034.3580712316 0.0
0.0 0.0 0.0

-110579.90458898564 344450.24366938917 0.0
344450.24366938917 -1.0643790022861431e6 0.0
0.0 0.0 0.0

-19892.12130731682 317809.8029199331 0.0
317809.8029199331 498152.3681401924 0.0
0.0 0.0 0.0

133804.76968407526 403567.0144790919 0.0
403567.0144790919 780782.4116547344 0.0
0.0 0.0 0.0

32916.653290121045 455385.51270826627 0.0
455385.51270826627 209279.37822753447 0.0
0.0 0.0 0.0

-157194.353238923 148262.84339244143 0.0
148262.84339244143 -88473.72388956239 0.0
0.0 0.0 0.0

-1434.2751955420827 144843.59018529387 0.0
144843.59018529387 1.146791396850834e6 0.0
0.0 0.0 0.0

-84025.6705234308 666385.9690018168 0.0
666385.9690018168 153102.88422254677 0.0
0.0 0.0 0.0

118362.08778981716 407110.9932811424 0.0
407110.9932811424 824994.3501495821 0.0
0.0 0.0 0.0

-23657.35705338762 413766.2617990435 0.0
413766.2617990435 371318.1649851563 0.0
0.0 0.0 0.0

-9315.516887142629 78167.7658312648 0.0
78167.7658312648 243640.34487057704 0.0
0.0 0.0 0.0

60090.15624859405 270445.66111757857 0.0
270445.66111757857 1.7963197881643246e6 0.0
0.0 0.0 0.0

-7176.351128218241 518905.3730688288 0.0
518905.3730688288 86181.44370514434 0.0
0.0 0.0 0.0

94329.8471651313 713481.5220302762 0.0
713481.5220302762 -128415.4520279303 0.0
0.0 0.0 0.0

127552.68596806476 390594.28779255075 0.0
390594.28779255075 877193.4903708161 0.0
0.0 0.0 0.0

-1460.3339357002988 273103.1206940701 0.0
273103.1206940701 298795.02003518335 0.0
0.0 0.0 0.0

298225.89774466614 704824.9214756147 0.0
704824.9214756147 -111978.0243807642 0.0
0.0 0.0 0.0

34872.17492352566 124311.48910355847 0.0
124311.48910355847 1.8669608685226429e6 0.0
0.0 0.0 0.0

289481.7639661411 638116.9755998251 0.0
638116.9755998251 -88240.99725352398 0.0
0.0 0.0 0.0

-66793.5896316653 833756.8166418464 0.0
833756.8166418464 64688.48561774792 0.0
0.0 0.0 0.0

-176130.71482744953 388884.9020909626 0.0
388884.9020909626 -649745.1958437628 0.0
0.0 0.0 0.0

-37541.582485216 490235.1439796214 0.0
490235.1439796214 384435.60506226117 0.0
0.0 0.0 0.0

12144.460975175374 271772.80101932155 0.0
271772.80101932155 858515.306309663 0.0
0.0 0.0 0.0

191733.39865182282 821172.8651845835 0.0
821172.8651845835 -91712.55984985195 0.0
0.0 0.0 0.0

9520.391027553662 78810.35892410485 0.0
78810.35892410485 -203403.06509854394 0.0
0.0 0.0 0.0

-745.1197558001113 1.108470393137893e6 0.0
1.108470393137893e6 -41139.758825539735 0.0
0.0 0.0 0.0

173780.8654691707 540137.3880116737 0.0
540137.3880116737 243630.5976731487 0.0
0.0 0.0 0.0

43135.51692290866 643374.0408282661 0.0
643374.0408282661 -64576.17651096449 0.0
0.0 0.0 0.0

-9191.976967119379 103635.157068529 0.0
103635.157068529 -1.0511941124413782e6 0.0
0.0 0.0 0.0

-78047.60403913535 521898.9334779553 0.0
521898.9334779553 -284849.03928751533 0.0
0.0 0.0 0.0

222236.89973524038 558235.3638147251 0.0
558235.3638147251 304384.8628500546 0.0
0.0 0.0 0.0

-22358.04540415241 771810.3913630863 0.0
771810.3913630863 43703.6723717605 0.0
0.0 0.0 0.0

203434.94703073415 412458.27238174225 0.0
412458.27238174225 930888.4853180957 0.0
0.0 0.0 0.0

9818.563688708426 55917.043511272386 0.0
55917.043511272386 275486.36156087654 0.0
0.0 0.0 0.0

130739.17678601807 367573.182508525 0.0
367573.182508525 1.044395055429028e6 0.0
0.0 0.0 0.0

-180033.8005220553 583244.5666164652 0.0
583244.5666164652 82212.12992808246 0.0
0.0 0.0 0.0

308346.7188313476 663918.5148675705 0.0
663918.5148675705 -91461.1580502383 0.0
0.0 0.0 0.0

169849.22641407273 624791.3143959354 0.0
624791.3143959354 -173227.56154095894 0.0
0.0 0.0 0.0

310142.77753098134 875290.7999692403 0.0
875290.7999692403 -109657.38800709795 0.0
0.0 0.0 0.0

28395.508853855663 431474.34621432825 0.0
431474.34621432825 165834.15483186833 0.0
0.0 0.0 0.0

-109685.45345576722 586484.6920706448 0.0
586484.6920706448 241798.2346065932 0.0
0.0 0.0 0.0

174760.426885071 908183.4246810781 0.0
908183.4246810781 -98781.41612014297 0.0
0.0 0.0 0.0

-251749.84797871794 384487.93116186454 0.0
384487.93116186454 -1.39245473811791e6 0.0
0.0 0.0 0.0

-14086.849428729154 234373.4837124129 0.0
234373.4837124129 302520.3636293682 0.0
0.0 0.0 0.0

47698.01996581338 479827.3201851738 0.0
479827.3201851738 245833.67977855174 0.0
0.0 0.0 0.0

191016.10040447192 849587.0732251036 0.0
849587.0732251036 -112938.72379387575 0.0
0.0 0.0 0.0

-35615.641779167796 484240.3777192457 0.0
484240.3777192457 -413900.3816027195 0.0
0.0 0.0 0.0

3132.448693070619 45935.00430829823 0.0
45935.00430829823 -727922.9483901402 0.0
0.0 0.0 0.0

-2985.850114215049 34154.38579379746 0.0
34154.38579379746 1.7496750758386939e6 0.0
0.0 0.0 0.0

-15605.340917083551 326817.1750904768 0.0
326817.1750904768 -759208.894444108 0.0
0.0 0.0 0.0

95379.07687553347 521651.18212176237 0.0
521651.18212176237 305280.75839116966 0.0
0.0 0.0 0.0

-9686.586478607642 331918.4150357698 0.0
331918.4150357698 518046.2799408542 0.0
0.0 0.0 0.0

342414.84135551297 650221.9639385332 0.0
650221.9639385332 -69784.85920459878 0.0
0.0 0.0 0.0

-8096.593405201391 101265.38605406276 0.0
101265.38605406276 -578044.965206898 0.0
0.0 0.0 0.0

153227.92514761837 551907.2729348802 0.0
551907.2729348802 -14534.699139354234 0.0
0.0 0.0 0.0

258979.68222506478 587756.5247565792 0.0
587756.5247565792 338585.55140436534 0.0
0.0 0.0 0.0

414495.14029455656 1.168582662210385e6 0.0
1.168582662210385e6 -172136.74681818168 0.0
0.0 0.0 0.0

155614.13676766687 613814.4668209432 0.0
613814.4668209432 -172046.5259431183 0.0
0.0 0.0 0.0

204167.15973769844 381861.7620361488 0.0
381861.7620361488 1.4221826111873488e6 0.0
0.0 0.0 0.0

1409.9269894798053 15135.881389163531 0.0
15135.881389163531 -968629.3525140047 0.0
0.0 0.0 0.0

57788.14803626608 874180.1116391158 0.0
874180.1116391158 -55919.56918561827 0.0
0.0 0.0 0.0

207583.32279746264 513592.4122395575 0.0
513592.4122395575 155970.7293157685 0.0
0.0 0.0 0.0

-1.8691236677940395e6 525452.4536513484 0.0
525452.4536513484 -167763.79530377517 0.0
0.0 0.0 0.0

-173744.9210376795 638880.626203807 0.0
638880.626203807 166436.8473780623 0.0
0.0 0.0 0.0

946.4014120716747 214614.13739390098 0.0
214614.13739390098 336604.631380501 0.0
0.0 0.0 0.0

-24303.517755488603 412164.0087711476 0.0
412164.0087711476 -633726.4749696471 0.0
0.0 0.0 0.0

16485.395700530862 479091.9259771828 0.0
479091.9259771828 382368.87765398296 0.0
0.0 0.0 0.0

-124530.92668353146 397940.50756703387 0.0
397940.50756703387 -929460.1062417018 0.0
0.0 0.0 0.0

8897.041012057394 46133.86529327725 0.0
46133.86529327725 -1.2727854230354414e6 0.0
0.0 0.0 0.0

1.8124034258877202e6 561698.4431746119 0.0
561698.4431746119 151837.31047192373 0.0
0.0 0.0 0.0

-3.378037101681372e6 1.2086691125028061e6 0.0
1.2086691125028061e6 -824483.9564323721 0.0
0.0 0.0 0.0

448837.9692149283 534305.5659432968 0.0
534305.5659432968 208482.76786824036 0.0
0.0 0.0 0.0

98075.7138274559 638025.2578314582 0.0
638025.2578314582 -189726.26455645237 0.0
0.0 0.0 0.0

-54332.79789569459 521908.68263905245 0.0
521908.68263905245 309776.3748114923 0.0
0.0 0.0 0.0

-2404.583038584882 44583.42023774823 0.0
44583.42023774823 -704672.0426200943 0.0
0.0 0.0 0.0

-176243.30667949226 588465.2750522441 0.0
588465.2750522441 125463.87250070351 0.0
0.0 0.0 0.0

128160.30259476906 903227.7324300006 0.0
903227.7324300006 -43361.74051174353 0.0
0.0 0.0 0.0

-118142.27564199179 433466.32546849316 0.0
433466.32546849316 -689552.2662200659 0.0
0.0 0.0 0.0

33560.33412050437 637230.4220645718 0.0
637230.4220645718 -99924.86942753935 0.0
0.0 0.0 0.0

7230.228386455066 75145.29182663499 0.0
75145.29182663499 -88756.52779220951 0.0
0.0 0.0 0.0

350067.6154188587 583103.2729976424 0.0
583103.2729976424 320997.27400855673 0.0
0.0 0.0 0.0

-312363.7188206592 543219.5463922475 0.0
543219.5463922475 -76274.20085041039 0.0
0.0 0.0 0.0

58596.76346275925 505402.2886412796 0.0
505402.2886412796 -290400.7263046518 0.0
0.0 0.0 0.0

-33290.358552780235 637364.1766082372 0.0
637364.1766082372 41417.03781258738 0.0
0.0 0.0 0.0

-13213.014590713894 330490.6492841308 0.0
330490.6492841308 -707475.7731690918 0.0
0.0 0.0 0.0

-406.7740485231043 63324.543979918584 0.0
63324.543979918584 1.447606533487814e6 0.0
0.0 0.0 0.0

26737.989965971326 430844.8045658193 0.0
430844.8045658193 -419927.7648506076 0.0
0.0 0.0 0.0

161060.24034609515 520326.32825686445 0.0
520326.32825686445 47128.18926897117 0.0
0.0 0.0 0.0

-437379.2585425526 467621.5017107662 0.0
467621.5017107662 -1.7634536232252805e6 0.0
0.0 0.0 0.0

9971.478001600743 129341.69530166933 0.0
129341.69530166933 -687043.6082306709 0.0
0.0 0.0 0.0

36684.04534626898 475953.3120180248 0.0
475953.3120180248 -408873.52938779787 0.0
0.0 0.0 0.0

-134236.01923325093 621223.8141244344 0.0
621223.8141244344 199947.82754919573 0.0
0.0 0.0 0.0

20685.07479672975 763997.3082073842 0.0
763997.3082073842 -43175.557245387325 0.0
0.0 0.0 0.0

-64583.73492067761 561895.7996602538 0.0
561895.7996602538 252299.85436148677 0.0
0.0 0.0 0.0

219514.32103864205 529936.5261358945 0.0
529936.5261358945 261216.97191668203 0.0
0.0 0.0 0.0

-2.3549692017180827e6 707341.6388693149 0.0
707341.6388693149 -305631.53191204387 0.0
0.0 0.0 0.0

-1112.674811917408 18187.60705279769 0.0
18187.60705279769 145643.08516384804 0.0
0.0 0.0 0.0

-40573.60485855155 439222.22211143887 0.0
439222.22211143887 -44628.21407344277 0.0
0.0 0.0 0.0

450666.1631290581 537821.4057396881 0.0
537821.4057396881 158872.01814505563 0.0
0.0 0.0 0.0

-26849.748805446572 943509.599355146 0.0
943509.599355146 35920.527589050434 0.0
0.0 0.0 0.0

-110089.28470992087 352629.3969269165 0.0
352629.3969269165 -1.1511594332658558e6 0.0
0.0 0.0 0.0

-84517.09093748766 521576.3000352119 0.0
521576.3000352119 -210258.79802915305 0.0
0.0 0.0 0.0

192175.8532700247 654013.4094177241 0.0
654013.4094177241 -149969.091730217 0.0
0.0 0.0 0.0

31178.28931365136 385628.3564318058 0.0
385628.3564318058 -342116.30816250073 0.0
0.0 0.0 0.0

184679.63843023143 629108.9319319269 0.0
629108.9319319269 -143674.93256494508 0.0
0.0 0.0 0.0

47820.411449379244 479059.10060905386 0.0
479059.10060905386 246515.14266149676 0.0
0.0 0.0 0.0

46159.92147560777 753623.1155004879 0.0
753623.1155004879 -27096.3589583354 0.0
0.0 0.0 0.0

9483.56509896685 209215.01069511703 0.0
209215.01069511703 -648328.5892746514 0.0
0.0 0.0 0.0

-2089.000692228263 45848.47502356756 0.0
45848.47502356756 -1.097919430510066e6 0.0
0.0 0.0 0.0

61784.00132989199 31731.116442201343 0.0
31731.116442201343 4035.3162515185195 0.0
0.0 0.0 0.0

-75537.61687709112 36197.18931014321 0.0
36197.18931014321 -6877.092967156463 0.0
0.0 0.0 0.0

110654.44115534508 523750.49861417874 0.0
523750.49861417874 347674.1184908672 0.0
0.0 0.0 0.0

114954.26464526192 431321.25721234863 0.0
431321.25721234863 350422.6803428427 0.0
0.0 0.0 0.0

46387.376064389166 470897.1515601593 0.0
470897.1515601593 244192.20212539364 0.0
0.0 0.0 0.0

-6915.028796360944 74853.22489890494 0.0
74853.22489890494 -403852.09818554344 0.0
0.0 0.0 0.0

169990.22330161335 593896.8191876059 0.0
593896.8191876059 -123366.80810260483 0.0
0.0 0.0 0.0

661.0527218161442 46060.22360164516 0.0
46060.22360164516 -131551.79451911972 0.0
0.0 0.0 0.0

169174.00933576812 632365.3862891236 0.0
632365.3862891236 -161987.7243879321 0.0
0.0 0.0 0.0

27683.89656657772 333085.0481326588 0.0
333085.0481326588 766958.7988453408 0.0
0.0 0.0 0.0

108214.64669627673 727956.2863603616 0.0
727956.2863603616 -96134.22286565072 0.0
0.0 0.0 0.0

208820.86377536922 872272.1203678348 0.0
872272.1203678348 -75109.84834926331 0.0
0.0 0.0 0.0

-3073.767174185108 144707.55840579077 0.0
144707.55840579077 -710347.6371648192 0.0
0.0 0.0 0.0

-7152.6062114386 109928.06905779173 0.0
109928.06905779173 -735215.1948452772 0.0
0.0 0.0 0.0

541465.535519628 596836.6880917561 0.0
596836.6880917561 96008.13185344975 0.0
0.0 0.0 0.0

127282.43290121504 422401.242208731 0.0
422401.242208731 736938.1787867473 0.0
0.0 0.0 0.0

30915.19937364904 450028.7058444386 0.0
450028.7058444386 -386203.01465724525 0.0
0.0 0.0 0.0

2329.832390806463 13826.414677980758 0.0
13826.414677980758 1.142249368260516e6 0.0
0.0 0.0 0.0

-19974.769378596837 892262.4176791916 0.0
892262.4176791916 28851.80462351202 0.0
0.0 0.0 0.0

1569.9259157177003 311468.1177620861 0.0
311468.1177620861 692442.5584716088 0.0
0.0 0.0 0.0

-3675.733169983607 44806.20254862661 0.0
44806.20254862661 510026.1379842296 0.0
0.0 0.0 0.0

32909.605799049634 441411.39753092814 0.0
441411.39753092814 -196107.46325746627 0.0
0.0 0.0 0.0

1602.5515500413603 48008.89456895155 0.0
48008.89456895155 -1.0570497456670152e6 0.0
0.0 0.0 0.0

-159030.68938049232 749558.1825418547 0.0
749558.1825418547 128028.50495734853 0.0
0.0 0.0 0.0

51306.08878961366 627269.9608258603 0.0
627269.9608258603 -86372.87595177162 0.0
0.0 0.0 0.0

-17549.162600009964 315988.38293570647 0.0
315988.38293570647 -758432.4451121538 0.0
0.0 0.0 0.0

565434.6848065031 522141.3269326869 0.0
522141.3269326869 244488.5242437679 0.0
0.0 0.0 0.0

-177282.0760566304 707051.1099392705 0.0
707051.1099392705 144572.9419881191 0.0
0.0 0.0 0.0

-9446.401070364926 39734.56944768379 0.0
39734.56944768379 1.0939700265358035e6 0.0
0.0 0.0 0.0

-3054.980086799653 14992.74209613941 0.0
14992.74209613941 831202.9892107875 0.0
0.0 0.0 0.0

207497.2913086019 529268.0201004666 0.0
529268.0201004666 62576.950603067744 0.0
0.0 0.0 0.0

102933.76804612132 630950.0667759283 0.0
630950.0667759283 -179398.83267457134 0.0
0.0 0.0 0.0

116916.89444547832 649198.7739235467 0.0
649198.7739235467 -171316.69260086305 0.0
0.0 0.0 0.0

47941.088817236654 168409.74206634104 0.0
168409.74206634104 1.5878971369189397e6 0.0
0.0 0.0 0.0

1319.1362764644437 15548.173525588307 0.0
15548.173525588307 -279212.5265855635 0.0
0.0 0.0 0.0

-235140.76341427834 548834.5305389332 0.0
548834.5305389332 -76371.531821024 0.0
0.0 0.0 0.0

-422193.92188761407 524481.4843516311 0.0
524481.4843516311 -256440.4710110547 0.0
0.0 0.0 0.0

-898970.4514999201 634316.7881613175 0.0
634316.7881613175 -329797.5581481445 0.0
0.0 0.0 0.0

58670.615753769795 917095.989126067 0.0
917095.989126067 -7837.343220164086 0.0
0.0 0.0 0.0

24148.598506705395 441280.02654606814 0.0
441280.02654606814 22485.92058051563 0.0
0.0 0.0 0.0

-2520.733972064394 47594.13814532233 0.0
47594.13814532233 1.1579145342783916e6 0.0
0.0 0.0 0.0

464441.717184114 582918.00227329 0.0
582918.00227329 88048.71215231482 0.0
0.0 0.0 0.0

49914.464273361256 501184.0110834042 0.0
501184.0110834042 -218958.1990236155 0.0
0.0 0.0 0.0

8537.101513452362 62711.12253446456 0.0
62711.12253446456 891436.1355821072 0.0
0.0 0.0 0.0

-82431.95514219215 575708.596515353 0.0
575708.596515353 220092.67876823468 0.0
0.0 0.0 0.0

-100300.40706542137 617973.1484989633 0.0
617973.1484989633 195708.1179880879 0.0
0.0 0.0 0.0

-2206.4928748908715 52536.47901800354 0.0
52536.47901800354 273878.8631527562 0.0
0.0 0.0 0.0

-6476.870782854705 89925.35231670717 0.0
89925.35231670717 -773811.8000584479 0.0
0.0 0.0 0.0

-46033.38533817598 187740.5209713036 0.0
187740.5209713036 -1.4203227531216312e6 0.0
0.0 0.0 0.0

256774.7186872149 577192.3027607369 0.0
577192.3027607369 335241.6629454029 0.0
0.0 0.0 0.0

-2537.091469132618 49630.02045406335 0.0
49630.02045406335 -225858.6593355263 0.0
0.0 0.0 0.0

721769.1259898365 862221.0610137003 0.0
862221.0610137003 -142696.67449067248 0.0
0.0 0.0 0.0

9904.088558466407 75161.59778675195 0.0
75161.59778675195 -747510.4676181186 0.0
0.0 0.0 0.0

9135.283481320948 77527.20060388878 0.0
77527.20060388878 -473581.78124382196 0.0
0.0 0.0 0.0

-3965.8888713883935 75265.10536064566 0.0
75265.10536064566 -638718.175508369 0.0
0.0 0.0 0.0

39078.318448681115 466372.0632206421 0.0
466372.0632206421 69819.90390731012 0.0
0.0 0.0 0.0

79357.41269729065 442789.79633757134 0.0
442789.79633757134 254729.28143999743 0.0
0.0 0.0 0.0

-25170.418258534046 382250.8867904936 0.0
382250.8867904936 -676660.191620783 0.0
0.0 0.0 0.0

695215.881331377 887670.3903484612 0.0
887670.3903484612 -110184.13329487378 0.0
0.0 0.0 0.0

-2260.082517419767 42756.921695450525 0.0
42756.921695450525 892826.3741194187 0.0
0.0 0.0 0.0

-88294.30198087679 577510.5073135503 0.0
577510.5073135503 253576.45473619222 0.0
0.0 0.0 0.0

-59359.28096321006 881323.2067691053 0.0
881323.2067691053 12918.698584309346 0.0
0.0 0.0 0.0

91140.93719768242 729307.2333425332 0.0
729307.2333425332 -79003.46522376782 0.0
0.0 0.0 0.0

7095.522237644502 41280.87519687722 0.0
41280.87519687722 634710.4748946979 0.0
0.0 0.0 0.0

-6753.427769432863 70875.84431657405 0.0
70875.84431657405 474194.0577631839 0.0
0.0 0.0 0.0

146937.12992735897 432169.587142786 0.0
432169.587142786 720668.8895875352 0.0
0.0 0.0 0.0

-109.55643010402855 17814.909071617705 0.0
17814.909071617705 228379.57030952006 0.0
0.0 0.0 0.0

308248.64250012406 663959.6590709921 0.0
663959.6590709921 -91430.89844715926 0.0
0.0 0.0 0.0

88654.12370186782 596799.8448613269 0.0
596799.8448613269 -224514.04533031373 0.0
0.0 0.0 0.0

18898.934182312514 469119.44689952425 0.0
469119.44689952425 -443934.62145052693 0.0
0.0 0.0 0.0

1363.7730506376502 581222.2451820173 0.0
581222.2451820173 45868.35308445408 0.0
0.0 0.0 0.0

-73675.24593667386 553394.6136782808 0.0
553394.6136782808 234114.99567406363 0.0
0.0 0.0 0.0

-6139.057383206615 320294.57655371004 0.0
320294.57655371004 570419.8078934967 0.0
0.0 0.0 0.0

-675177.5885961131 1.1406240268956802e6 0.0
1.1406240268956802e6 158263.59495570662 0.0
0.0 0.0 0.0

502.9678690558212 50001.27385236687 0.0
50001.27385236687 -241117.77773248646 0.0
0.0 0.0 0.0

46807.46086003988 461877.8035530219 0.0
461877.8035530219 -342070.335340501 0.0
0.0 0.0 0.0

-343.69919616373954 80730.45911914308 0.0
80730.45911914308 -1.536844618174574e6 0.0
0.0 0.0 0.0

187611.93647070252 647775.8922365105 0.0
647775.8922365105 -160398.5832630598 0.0
0.0 0.0 0.0

-15284.579329920947 282306.29536019714 0.0
282306.29536019714 310716.1750571288 0.0
0.0 0.0 0.0

-269637.98169241415 368746.802751749 0.0
368746.802751749 -1.0199477880432047e6 0.0
0.0 0.0 0.0

1.0746705650741374e6 581472.5541179681 0.0
581472.5541179681 228372.66652815312 0.0
0.0 0.0 0.0

6765.897272101865 106570.50677588857 0.0
106570.50677588857 467246.5424602688 0.0
0.0 0.0 0.0

335365.4442930876 531705.3477865121 0.0
531705.3477865121 226541.76298930147 0.0
0.0 0.0 0.0

225003.17634309016 354174.2203336419 0.0
354174.2203336419 757687.9817037707 0.0
0.0 0.0 0.0

-228615.5596592323 355937.90915209416 0.0
355937.90915209416 -756185.0252735511 0.0
0.0 0.0 0.0

162382.22513422003 982602.8428667795 0.0
982602.8428667795 -93006.37753515723 0.0
0.0 0.0 0.0

58182.51032425197 637165.8677682704 0.0
637165.8677682704 -151242.97123220318 0.0
0.0 0.0 0.0

-23757.91610652124 402836.0091254912 0.0
402836.0091254912 418840.46502359764 0.0
0.0 0.0 0.0

-57780.48038338532 188909.39299296355 0.0
188909.39299296355 -1.992881515876232e6 0.0
0.0 0.0 0.0

-7245.189339815377 83803.704269033 0.0
83803.704269033 436696.06800247164 0.0
0.0 0.0 0.0

-41009.83981217086 478854.8864018002 0.0
478854.8864018002 -218677.75756000154 0.0
0.0 0.0 0.0

349940.0391667489 553404.7659928746 0.0
553404.7659928746 335577.641235698 0.0
0.0 0.0 0.0

151278.33507310055 264995.8436630616 0.0
264995.8436630616 104736.1446931364 0.0
0.0 0.0 0.0

-54503.36289961444 521785.3585543696 0.0
521785.3585543696 323886.66247807466 0.0
0.0 0.0 0.0

-84596.6863626531 685977.6402920822 0.0
685977.6402920822 131454.12475420893 0.0
0.0 0.0 0.0

-590435.5777756292 1.161024010157793e6 0.0
1.161024010157793e6 185960.2071420696 0.0
0.0 0.0 0.0

8526.001600370728 143265.98524284732 0.0
143265.98524284732 -75444.59327326762 0.0
0.0 0.0 0.0

-95328.56383243864 677681.8336595665 0.0
677681.8336595665 119396.38713609362 0.0
0.0 0.0 0.0

55711.41020239822 602565.6691407219 0.0
602565.6691407219 -140931.14198984884 0.0
0.0 0.0 0.0

480200.60298817995 567915.4059911789 0.0
567915.4059911789 287123.5009164378 0.0
0.0 0.0 0.0

68851.58420331954 699007.4438566843 0.0
699007.4438566843 -117044.59855113811 0.0
0.0 0.0 0.0

-3003.88384545975 49977.51952059871 0.0
49977.51952059871 -161572.15548657678 0.0
0.0 0.0 0.0

53704.98628314563 513331.87651324173 0.0
513331.87651324173 -304428.857138485 0.0
0.0 0.0 0.0

4642.812767565629 103811.56272640539 0.0
103811.56272640539 665977.7821393227 0.0
0.0 0.0 0.0

10854.128814601281 110208.64363908846 0.0
110208.64363908846 -723078.6691699515 0.0
0.0 0.0 0.0

1418.1083200490102 101131.2107983179 0.0
101131.2107983179 -1.6625961567394664e6 0.0
0.0 0.0 0.0

110933.35195598555 550179.4784830142 0.0
550179.4784830142 326487.269786815 0.0
0.0 0.0 0.0

44832.390412910856 504228.92727675807 0.0
504228.92727675807 -373648.41582271317 0.0
0.0 0.0 0.0

-35018.44708924573 411498.03212362464 0.0
411498.03212362464 369543.4732321108 0.0
0.0 0.0 0.0

18.05442411004333 15402.343082831405 0.0
15402.343082831405 -620951.1366133115 0.0
0.0 0.0 0.0

26952.00959101168 389911.6597016576 0.0
389911.6597016576 -479854.4224857218 0.0
0.0 0.0 0.0

3149.120507189975 448184.2211950919 0.0
448184.2211950919 -480499.1110480408 0.0
0.0 0.0 0.0

-42280.61186075822 440835.76686895784 0.0
440835.76686895784 351304.1641474873 0.0
0.0 0.0 0.0

149875.79429000546 141996.12933992423 0.0
141996.12933992423 48354.04837459369 0.0
0.0 0.0 0.0

5690.707107858732 58810.08817667331 0.0
58810.08817667331 728956.3314862498 0.0
0.0 0.0 0.0

28410.92238702366 480601.7862356557 0.0
480601.7862356557 -399284.769454331 0.0
0.0 0.0 0.0

-302.25263773500046 248866.67445687865 0.0
248866.67445687865 329025.9660071432 0.0
0.0 0.0 0.0

438592.1135174256 506483.20009056176 0.0
506483.20009056176 241655.5695587889 0.0
0.0 0.0 0.0

95201.26667769138 616379.0977716953 0.0
616379.0977716953 -208800.71904423833 0.0
0.0 0.0 0.0

3778.639801391895 48900.37150736146 0.0
48900.37150736146 -121655.3091559218 0.0
0.0 0.0 0.0

26428.09239764168 158105.68507707422 0.0
158105.68507707422 1.1647653013240977e6 0.0
0.0 0.0 0.0

-49736.75368973646 782042.6352493045 0.0
782042.6352493045 27935.04302457177 0.0
0.0 0.0 0.0

-292310.9951937504 774918.1410311664 0.0
774918.1410311664 117255.5010066255 0.0
0.0 0.0 0.0

-13697.630820444203 126310.97495687197 0.0
126310.97495687197 425452.2475978763 0.0
0.0 0.0 0.0

6984.565913605795 89195.00601026304 0.0
89195.00601026304 931959.068927459 0.0
0.0 0.0 0.0

-25796.21167806143 332778.69155764085 0.0
332778.69155764085 -767387.7640832048 0.0
0.0 0.0 0.0

-34997.9527100454 456148.47903238266 0.0
456148.47903238266 372150.8114648095 0.0
0.0 0.0 0.0

26034.851797405863 178879.6707668184 0.0
178879.6707668184 1.1807061162679817e6 0.0
0.0 0.0 0.0

-1.7892992927725269e6 539833.44901194 0.0
539833.44901194 -145000.7325802897 0.0
0.0 0.0 0.0

9028.452763929352 310520.1771401878 0.0
310520.1771401878 -414159.27770540817 0.0
0.0 0.0 0.0

29041.408475320415 468113.698369167 0.0
468113.698369167 7480.056629470261 0.0
0.0 0.0 0.0

1332.7890958213247 15174.684438128612 0.0
15174.684438128612 -1.037524275261607e6 0.0
0.0 0.0 0.0

177860.43222292516 439683.3224407617 0.0
439683.3224407617 328444.98015224247 0.0
0.0 0.0 0.0

4288.231013645825 188487.19665628969 0.0
188487.19665628969 1.1090893781458815e6 0.0
0.0 0.0 0.0

-5486.048004784883 107750.51472407793 0.0
107750.51472407793 -132321.4759305029 0.0
0.0 0.0 0.0

59025.448638608985 604367.1247172726 0.0
604367.1247172726 -142076.63329349086 0.0
0.0 0.0 0.0

-31094.4638253251 675573.6288482109 0.0
675573.6288482109 25371.190354890183 0.0
0.0 0.0 0.0

-49597.27032664529 529522.957389196 0.0
529522.957389196 242635.70048018865 0.0
0.0 0.0 0.0

-212666.86782637812 766850.3862705377 0.0
766850.3862705377 120940.93764616612 0.0
0.0 0.0 0.0

-19720.989518054346 520866.39807962533 0.0
520866.39807962533 43062.42122886462 0.0
0.0 0.0 0.0

-2011.0616056554718 56520.088399361484 0.0
56520.088399361484 1.302029666053732e6 0.0
0.0 0.0 0.0

152703.50114421095 428242.8308479362 0.0
428242.8308479362 669515.8618601669 0.0
0.0 0.0 0.0

42333.18081256197 451996.4078734775 0.0
451996.4078734775 -386977.9717440626 0.0
0.0 0.0 0.0

-495782.7738460165 605582.7282209219 0.0
605582.7282209219 -298716.1022230478 0.0
0.0 0.0 0.0

-2324.6932089476322 48860.66237609167 0.0
48860.66237609167 356003.5164134467 0.0
0.0 0.0 0.0

-42101.686915098144 854344.260469768 0.0
854344.260469768 48965.67510464766 0.0
0.0 0.0 0.0

12480.488489298936 447991.05762162816 0.0
447991.05762162816 -47991.295913143185 0.0
0.0 0.0 0.0

20083.927772016934 358896.0750166371 0.0
358896.0750166371 713277.0011234395 0.0
0.0 0.0 0.0

18538.957976020494 266480.7959260772 0.0
266480.7959260772 -600230.700371675 0.0
0.0 0.0 0.0

-4489.629925516492 347301.2957290895 0.0
347301.2957290895 598555.8038898257 0.0
0.0 0.0 0.0

-2281.443955736242 48989.04810269585 0.0
48989.04810269585 -110333.3496814382 0.0
0.0 0.0 0.0

11270.108049347997 145665.1339621409 0.0
145665.1339621409 -702978.7045780839 0.0
0.0 0.0 0.0

-86978.11986289597 516826.4401110587 0.0
516826.4401110587 -252424.86167971583 0.0
0.0 0.0 0.0

-14222.553387226038 559786.3846431408 0.0
559786.3846431408 88098.64867112534 0.0
0.0 0.0 0.0

-20200.010541390693 673580.4105112616 0.0
673580.4105112616 63090.8379749495 0.0
0.0 0.0 0.0

195693.0949145264 626142.4262672451 0.0
626142.4262672451 -151818.25337321823 0.0
0.0 0.0 0.0

9729.139575833338 86612.20866334955 0.0
86612.20866334955 -640236.3191421874 0.0
0.0 0.0 0.0

765.2565644582246 50914.445480937524 0.0
50914.445480937524 -37343.987639323655 0.0
0.0 0.0 0.0

-9275.483033506025 124152.13243598155 0.0
124152.13243598155 -751799.0244030041 0.0
0.0 0.0 0.0

8463.139262786965 110350.97182477561 0.0
110350.97182477561 -137535.52221112192 0.0
0.0 0.0 0.0

600018.4178038883 516468.46651613666 0.0
516468.46651613666 230029.8260941676 0.0
0.0 0.0 0.0

-102074.82472477178 968732.0264326136 0.0
968732.0264326136 66447.5845669934 0.0
0.0 0.0 0.0

4916.514561762218 40696.27509990525 0.0
40696.27509990525 1.0441102418673318e6 0.0
0.0 0.0 0.0

-13889.248896608246 188123.68224147908 0.0
188123.68224147908 -1.3108021817254387e6 0.0
0.0 0.0 0.0

169842.0391176608 650461.0471251938 0.0
650461.0471251938 -164504.34422632746 0.0
0.0 0.0 0.0

-63126.49432981992 521905.3456634268 0.0
521905.3456634268 -279917.105942684 0.0
0.0 0.0 0.0

-13530.24530826055 158269.73968040774 0.0
158269.73968040774 -964141.6195448991 0.0
0.0 0.0 0.0

-249601.2435292038 934479.6525247366 0.0
934479.6525247366 120015.66971523261 0.0
0.0 0.0 0.0

260305.30182322883 564151.2507026772 0.0
564151.2507026772 288886.96434272337 0.0
0.0 0.0 0.0

-1.231252684832114e6 1.0232886027920371e6 0.0
1.0232886027920371e6 106328.42326967488 0.0
0.0 0.0 0.0

49080.100617161224 434402.1604146733 0.0
434402.1604146733 565970.1825190514 0.0
0.0 0.0 0.0

7182.471103394462 237068.87434985972 0.0
237068.87434985972 -625567.7704946327 0.0
0.0 0.0 0.0

2.3895696936302357e6 724276.0173289044 0.0
724276.0173289044 334062.4365392009 0.0
0.0 0.0 0.0

181590.7253148884 491360.90621842485 0.0
491360.90621842485 390292.5492919623 0.0
0.0 0.0 0.0

3325.0483792200685 118573.1121215437 0.0
118573.1121215437 685984.119801287 0.0
0.0 0.0 0.0

90000.39457740205 454778.00929511845 0.0
454778.00929511845 266939.15395877324 0.0
0.0 0.0 0.0

-102703.0225514796 418522.3499096591 0.0
418522.3499096591 -666728.0985680185 0.0
0.0 0.0 0.0

345232.6481530029 650869.942397319 0.0
650869.942397319 -68653.64835696934 0.0
0.0 0.0 0.0

-48695.66378368113 545454.8894473899 0.0
545454.8894473899 201303.91900157215 0.0
0.0 0.0 0.0

3214.1619967236766 163073.69919350554 0.0
163073.69919350554 1.0833771650997112e6 0.0
0.0 0.0 0.0

-233527.48936942776 966897.6043280939 0.0
966897.6043280939 88231.68760211067 0.0
0.0 0.0 0.0

-187589.29926597863 566759.4086048858 0.0
566759.4086048858 90209.87488707727 0.0
0.0 0.0 0.0

-39237.378702246664 662255.8207806565 0.0
662255.8207806565 44516.18002483325 0.0
0.0 0.0 0.0

162466.920215211 806106.2208630632 0.0
806106.2208630632 -90572.64510228173 0.0
0.0 0.0 0.0

-47789.943560766886 761342.3647610837 0.0
761342.3647610837 27006.332269572384 0.0
0.0 0.0 0.0

7937.962714261912 475727.6814827102 0.0
475727.6814827102 2915.923306060388 0.0
0.0 0.0 0.0

71389.29779997855 464776.9206579409 0.0
464776.9206579409 492842.7990501872 0.0
0.0 0.0 0.0

99053.1732628608 529991.1843785262 0.0
529991.1843785262 49738.60577361677 0.0
0.0 0.0 0.0

-265261.7025192467 403857.3875740278 0.0
403857.3875740278 -1.2384897870150304e6 0.0
0.0 0.0 0.0

10621.001468384971 472519.7351597749 0.0
472519.7351597749 58896.38516769737 0.0
0.0 0.0 0.0

-23709.09901707761 560953.6345451227 0.0
560953.6345451227 53863.48580017785 0.0
0.0 0.0 0.0

208717.55299939477 334985.87987930555 0.0
334985.87987930555 288291.8485064692 0.0
0.0 0.0 0.0

75045.86763388717 554993.9328733982 0.0
554993.9328733982 -260662.02184103898 0.0
0.0 0.0 0.0

11831.556187470822 377529.9131738755 0.0
377529.9131738755 -517608.53168439976 0.0
0.0 0.0 0.0

7302.037626309058 72123.50804024114 0.0
72123.50804024114 -677940.4177452443 0.0
0.0 0.0 0.0

144300.11372846912 472644.8221917098 0.0
472644.8221917098 279936.8647606131 0.0
0.0 0.0 0.0

-339.5220086122863 510649.2933540821 0.0
510649.2933540821 301750.081437602 0.0
0.0 0.0 0.0

-3086.7847249890037 355798.3958676492 0.0
355798.3958676492 603901.6994426578 0.0
0.0 0.0 0.0

-40377.952508269285 522181.81966957985 0.0
522181.81966957985 226204.0713842937 0.0
0.0 0.0 0.0

-116870.45464676578 524504.9345274625 0.0
524504.9345274625 -257374.04537160048 0.0
0.0 0.0 0.0

-10034.678651526221 365665.91017072665 0.0
365665.91017072665 555798.0041706895 0.0
0.0 0.0 0.0

10003.013975898531 346253.0258545355 0.0
346253.0258545355 706362.6748512796 0.0
0.0 0.0 0.0

-17745.27618818148 326118.29454364395 0.0
326118.29454364395 516961.41052929196 0.0
0.0 0.0 0.0

-2030.3712440881063 41505.18026318079 0.0
41505.18026318079 726722.8366696697 0.0
0.0 0.0 0.0

-71607.00035767791 584932.5846157643 0.0
584932.5846157643 229206.43833171658 0.0
0.0 0.0 0.0

-132211.19846717594 387429.09326241637 0.0
387429.09326241637 -1.020560436641671e6 0.0
0.0 0.0 0.0

-34255.9899515415 379621.24451589584 0.0
379621.24451589584 -673763.1432283241 0.0
0.0 0.0 0.0

-904763.0810752059 701428.8539179156 0.0
701428.8539179156 -433435.1969853968 0.0
0.0 0.0 0.0

28302.99706272484 138636.01975611362 0.0
138636.01975611362 1.321024645898123e6 0.0
0.0 0.0 0.0

-16044.925941923313 397420.34402935026 0.0
397420.34402935026 -622767.746239319 0.0
0.0 0.0 0.0

2178.479832806006 797020.3228517721 0.0
797020.3228517721 -22576.776301089936 0.0
0.0 0.0 0.0

135483.8655746464 436362.3761599088 0.0
436362.3761599088 506388.40697463497 0.0
0.0 0.0 0.0

1871.6259348234744 14593.985564572306 0.0
14593.985564572306 622160.6222220486 0.0
0.0 0.0 0.0

-5994.904324105324 469443.3544960231 0.0
469443.3544960231 -57089.232338588525 0.0
0.0 0.0 0.0

32901.70316396064 536393.0530781734 0.0
536393.0530781734 -184884.40428473617 0.0
0.0 0.0 0.0

-17989.495921709895 179441.14139363798 0.0
179441.14139363798 431875.7309860964 0.0
0.0 0.0 0.0

1011.8095618995721 15815.048305775797 0.0
15815.048305775797 -1.324598183227303e6 0.0
0.0 0.0 0.0

-1959.976832731736 218099.38639931375 0.0
218099.38639931375 -157322.60894297453 0.0
0.0 0.0 0.0

-10423.125333542994 108507.27356089636 0.0
108507.27356089636 881586.4073103872 0.0
0.0 0.0 0.0

99289.06438570221 569835.6624530519 0.0
569835.6624530519 -255923.00589323347 0.0
0.0 0.0 0.0

239993.7491646039 391048.4960736697 0.0
391048.4960736697 1.032502069578334e6 0.0
0.0 0.0 0.0

8781.656752341654 199996.3647000424 0.0
199996.3647000424 -39007.23703114008 0.0
0.0 0.0 0.0

271379.09232478205 568436.4084872162 0.0
568436.4084872162 322992.8990446864 0.0
0.0 0.0 0.0

-128125.88932519962 995396.2308374323 0.0
995396.2308374323 71953.54110003711 0.0
0.0 0.0 0.0

-10090.686380984233 125474.45239507327 0.0
125474.45239507327 633728.7464966101 0.0
0.0 0.0 0.0

95718.582411318 437280.0961415264 0.0
437280.0961415264 587566.9413561677 0.0
0.0 0.0 0.0

-5060.04849629238 244110.5412866623 0.0
244110.5412866623 -636502.1874644792 0.0
0.0 0.0 0.0

-538506.7881836554 623330.0475636767 0.0
623330.0475636767 -22019.541230599396 0.0
0.0 0.0 0.0

-3427.3038220480666 47295.47789608387 0.0
47295.47789608387 435033.8476090935 0.0
0.0 0.0 0.0

-346976.0515109066 522297.2552626054 0.0
522297.2552626054 -245307.4249692171 0.0
0.0 0.0 0.0

1.085467931397271e6 616297.1041810026 0.0
616297.1041810026 248700.4526524383 0.0
0.0 0.0 0.0

43826.46197555852 607930.4665730558 0.0
607930.4665730558 -142939.93279707382 0.0
0.0 0.0 0.0

12341.610577738786 253160.58570817078 0.0
253160.58570817078 -581677.0657216832 0.0
0.0 0.0 0.0

-99683.02062022503 583094.0228074113 0.0
583094.0228074113 239805.66644339447 0.0
0.0 0.0 0.0

4876.888161193347 60949.88976281101 0.0
60949.88976281101 1.4670498084178546e6 0.0
0.0 0.0 0.0

-121707.94595780982 523451.7896720245 0.0
523451.7896720245 -351314.66401436785 0.0
0.0 0.0 0.0

-47336.93315915346 876795.6415893909 0.0
876795.6415893909 50736.678353330266 0.0
0.0 0.0 0.0

-92874.83691763002 348714.1936597571 0.0
348714.1936597571 -990609.5483737658 0.0
0.0 0.0 0.0

9282.14987798041 474166.88960669417 0.0
474166.88960669417 -443610.2561027741 0.0
0.0 0.0 0.0

2013.6278803137247 453155.3045602394 0.0
453155.3045602394 -486863.04172196635 0.0
0.0 0.0 0.0

34856.628716809035 279500.30212294066 0.0
279500.30212294066 931403.0303017343 0.0
0.0 0.0 0.0

-57964.60499567316 554573.8611959333 0.0
554573.8611959333 206445.7836719664 0.0
0.0 0.0 0.0

-52381.03049647075 270803.5673840388 0.0
270803.5673840388 2.554283137420803e6 0.0
0.0 0.0 0.0

55253.99085807707 283452.9601452605 0.0
283452.9601452605 -2.5668316720252084e6 0.0
0.0 0.0 0.0

-478072.43463998556 625556.3317340001 0.0
625556.3317340001 -359801.7917940788 0.0
0.0 0.0 0.0

-7866.036563044021 488487.60933715396 0.0
488487.60933715396 328771.39492429444 0.0
0.0 0.0 0.0

-675832.3183404059 608937.4408407226 0.0
608937.4408407226 -152639.4764348972 0.0
0.0 0.0 0.0

4629.159871443961 43794.422596642886 0.0
43794.422596642886 498343.6533124413 0.0
0.0 0.0 0.0

-26035.35735641641 397268.4293232319 0.0
397268.4293232319 470957.85985089256 0.0
0.0 0.0 0.0

-380120.19415818277 553129.9361519073 0.0
553129.9361519073 -191796.31189041928 0.0
0.0 0.0 0.0

10936.325992563856 124030.02058859666 0.0
124030.02058859666 908935.6300926444 0.0
0.0 0.0 0.0

1.0248804633041143e6 557674.2629393964 0.0
557674.2629393964 227634.66266864695 0.0
0.0 0.0 0.0

118312.94875683065 416833.6043642255 0.0
416833.6043642255 729021.3269630885 0.0
0.0 0.0 0.0

-32432.46769460065 449504.44750004483 0.0
449504.44750004483 367077.70507809246 0.0
0.0 0.0 0.0

-800540.8616533569 1.0026424757486022e6 0.0
1.0026424757486022e6 183674.9451469272 0.0
0.0 0.0 0.0

172696.19423308945 537066.9070724164 0.0
537066.9070724164 178660.03351203905 0.0
0.0 0.0 0.0

131065.22990678402 518171.72160252894 0.0
518171.72160252894 11725.520562221911 0.0
0.0 0.0 0.0

-137883.8681252849 621168.1510077195 0.0
621168.1510077195 200593.103064477 0.0
0.0 0.0 0.0

-211157.89123928058 539466.2469674047 0.0
539466.2469674047 -26897.405489342105 0.0
0.0 0.0 0.0

-30699.508982290383 474594.47705110395 0.0
474594.47705110395 -48805.94459197767 0.0
0.0 0.0 0.0

130548.26675982676 542795.9100762301 0.0
542795.9100762301 -33942.2863871172 0.0
0.0 0.0 0.0

131662.24488318097 536062.4240454905 0.0
536062.4240454905 333562.4710375286 0.0
0.0 0.0 0.0

196338.544685938 935854.7420253484 0.0
935854.7420253484 -58381.56762876091 0.0
0.0 0.0 0.0

-82570.12065445184 574094.7978160952 0.0
574094.7978160952 238184.65406380355 0.0
0.0 0.0 0.0

-187183.04442147372 982363.586478603 0.0
982363.586478603 50766.819166509464 0.0
0.0 0.0 0.0

-225312.6510160867 386506.8546048137 0.0
386506.8546048137 -1.3518797805279326e6 0.0
0.0 0.0 0.0

-440938.6951781613 457833.5292820205 0.0
457833.5292820205 -2.4109072621552637e6 0.0
0.0 0.0 0.0

446820.60462957626 464483.6480408372 0.0
464483.6480408372 2.4081751612791037e6 0.0
0.0 0.0 0.0

247894.11876869513 404883.1810424278 0.0
404883.1810424278 976106.3116414424 0.0
0.0 0.0 0.0

-36960.86307895678 225888.30330532906 0.0
225888.30330532906 -1.1178535854448809e6 0.0
0.0 0.0 0.0

116716.018387887 921564.6107618922 0.0
921564.6107618922 -77213.57325106754 0.0
0.0 0.0 0.0

100959.29158724869 610949.8723894374 0.0
610949.8723894374 -200114.1360193988 0.0
0.0 0.0 0.0

-31397.62996016734 495455.21736701916 0.0
495455.21736701916 -189235.82712972653 0.0
0.0 0.0 0.0

98505.62211060633 581852.6120951762 0.0
581852.6120951762 -237048.87888111314 0.0
0.0 0.0 0.0

-980855.852904411 1.1127990187112156e6 0.0
1.1127990187112156e6 245367.99073492177 0.0
0.0 0.0 0.0

-89716.39451570826 865295.0932961074 0.0
865295.0932961074 33489.02600361926 0.0
0.0 0.0 0.0

-188157.5869633287 634470.4478206063 0.0
634470.4478206063 160106.1410926891 0.0
0.0 0.0 0.0

-2586.4830943630077 58980.77616034192 0.0
58980.77616034192 -1.4031053570144975e6 0.0
0.0 0.0 0.0

372463.64111467614 675888.1240138239 0.0
675888.1240138239 -81581.06830305216 0.0
0.0 0.0 0.0

-87396.83342359983 362705.0621256406 0.0
362705.0621256406 -913969.5532771079 0.0
0.0 0.0 0.0

337263.58037461364 692334.1436373527 0.0
692334.1436373527 -97899.0117543785 0.0
0.0 0.0 0.0

-12706.558537384088 455428.5105998152 0.0
455428.5105998152 -22008.079598611286 0.0
0.0 0.0 0.0

117236.63555685744 452712.0728766899 0.0
452712.0728766899 607631.8208139831 0.0
0.0 0.0 0.0

-164416.83912827322 715307.4092804302 0.0
715307.4092804302 132593.69386836747 0.0
0.0 0.0 0.0

-6925.121099542361 46968.06678120816 0.0
46968.06678120816 876431.1285137173 0.0
0.0 0.0 0.0

558618.3417418578 539557.8765792868 0.0
539557.8765792868 158386.1916058775 0.0
0.0 0.0 0.0

-2.017954113227698e6 718208.614074295 0.0
718208.614074295 -279163.6659928252 0.0
0.0 0.0 0.0

19536.813044331444 289968.658767677 0.0
289968.658767677 873036.5532839387 0.0
0.0 0.0 0.0

-152365.67514824806 565008.4089847562 0.0
565008.4089847562 100163.36222059958 0.0
0.0 0.0 0.0

162529.95453334652 544840.4491802099 0.0
544840.4491802099 39596.07707273617 0.0
0.0 0.0 0.0

5629.348803731613 44704.51032585837 0.0
44704.51032585837 -900787.6778478492 0.0
0.0 0.0 0.0

-32943.49786319467 508304.25226701074 0.0
508304.25226701074 249973.85355115822 0.0
0.0 0.0 0.0

16.084887584962416 53915.919671400094 0.0
53915.919671400094 1.317884356493651e6 0.0
0.0 0.0 0.0

-456830.6428702254 560213.5632469499 0.0
560213.5632469499 -2.566137830456614e6 0.0
0.0 0.0 0.0

449588.40250015055 550988.3927390513 0.0
550988.3927390513 2.4978998996064328e6 0.0
0.0 0.0 0.0

-28166.79861411816 314218.4676952444 0.0
314218.4676952444 -805844.1750398753 0.0
0.0 0.0 0.0

-7979.185936331188 53714.81632048521 0.0
53714.81632048521 -38309.41809866517 0.0
0.0 0.0 0.0

391638.12331163813 459184.5746528065 0.0
459184.5746528065 137039.33734018586 0.0
0.0 0.0 0.0

-2634.692116664024 73678.94550047195 0.0
73678.94550047195 1.4819456239524286e6 0.0
0.0 0.0 0.0

2689.0049395627575 149872.66474871326 0.0
149872.66474871326 -112068.86473254781 0.0
0.0 0.0 0.0

246645.67497748573 882228.3062021364 0.0
882228.3062021364 -96809.28233412617 0.0
0.0 0.0 0.0

44427.20511169404 494341.4093400277 0.0
494341.4093400277 -329126.45559143124 0.0
0.0 0.0 0.0

184482.58218884206 427783.5389313544 0.0
427783.5389313544 659887.333520712 0.0
0.0 0.0 0.0

-167961.69461566285 557203.571647095 0.0
557203.571647095 -1478.33183532767 0.0
0.0 0.0 0.0

-803042.9126125235 550163.3719715779 0.0
550163.3719715779 -249442.08545544167 0.0
0.0 0.0 0.0

-105600.15733375777 844298.1354260785 0.0
844298.1354260785 50507.551242546426 0.0
0.0 0.0 0.0

74095.01037729639 470047.36201601697 0.0
470047.36201601697 322202.5457067145 0.0
0.0 0.0 0.0

34161.00799984309 484612.8201785649 0.0
484612.8201785649 390516.8243754027 0.0
0.0 0.0 0.0

24898.741106972215 404522.8817236752 0.0
404522.8817236752 -492278.16176490753 0.0
0.0 0.0 0.0

100822.97990355194 562324.6901599353 0.0
562324.6901599353 -250926.11733500156 0.0
0.0 0.0 0.0

-3956.364940304251 104449.36678244427 0.0
104449.36678244427 1.4357123770994483e6 0.0
0.0 0.0 0.0

-870727.8070932656 1.1520059433737427e6 0.0
1.1520059433737427e6 185136.6102749062 0.0
0.0 0.0 0.0

-422891.01465579175 827180.5226986133 0.0
827180.5226986133 115036.57453652189 0.0
0.0 0.0 0.0

-895540.9039799691 642008.4404512754 0.0
642008.4404512754 -305624.2373486905 0.0
0.0 0.0 0.0

17396.022154527236 489541.1421623485 0.0
489541.1421623485 105473.3463647618 0.0
0.0 0.0 0.0

-247869.42942692686 563339.0474594987 0.0
563339.0474594987 -46841.931201394545 0.0
0.0 0.0 0.0

-515498.3790367866 588202.3154610513 0.0
588202.3154610513 -304912.1336811604 0.0
0.0 0.0 0.0

11181.275183851634 128577.85648935614 0.0
128577.85648935614 -102202.82774292884 0.0
0.0 0.0 0.0

169878.45192896956 427407.87263664126 0.0
427407.87263664126 673997.2979328422 0.0
0.0 0.0 0.0

-12411.51065222855 208094.62460486125 0.0
208094.62460486125 -1.0994668065500464e6 0.0
0.0 0.0 0.0

36136.10306644492 301375.09366663254 0.0
301375.09366663254 887463.7500728106 0.0
0.0 0.0 0.0

6461.889915217063 66336.21101565941 0.0
66336.21101565941 1.5065747459371348e6 0.0
0.0 0.0 0.0

5915.240878827288 66283.24332612801 0.0
66283.24332612801 -1.3789992104231385e6 0.0
0.0 0.0 0.0

-1.0114183828631765e6 633063.7662038686 0.0
633063.7662038686 -339921.34597794316 0.0
0.0 0.0 0.0

410.2108594101155 44891.80026224345 0.0
44891.80026224345 1.206498035377493e6 0.0
0.0 0.0 0.0

-5571.937516719103 43151.516497750636 0.0
43151.516497750636 1.058191808129234e6 0.0
0.0 0.0 0.0

-7439.754399717051 122202.20288224512 0.0
122202.20288224512 -159915.4845489346 0.0
0.0 0.0 0.0

7144.278135401662 66559.25493355072 0.0
66559.25493355072 1.0068748988161569e6 0.0
0.0 0.0 0.0

320414.309342411 1.265699023805788e6 0.0
1.265699023805788e6 -112874.16345894063 0.0
0.0 0.0 0.0

-40170.3045551597 476699.7074407228 0.0
476699.7074407228 348515.697748804 0.0
0.0 0.0 0.0

-12864.550320031005 91028.67974239943 0.0
91028.67974239943 -1.6899596628946678e6 0.0
0.0 0.0 0.0

-9575.840424159542 70692.66050331402 0.0
70692.66050331402 -1.0702766582654496e6 0.0
0.0 0.0 0.0

-56249.38712163165 551316.5360325135 0.0
551316.5360325135 188425.9038809253 0.0
0.0 0.0 0.0

-183834.4180972799 954383.4780188461 0.0
954383.4780188461 87816.56240680063 0.0
0.0 0.0 0.0

276819.01516091777 194826.0350275146 0.0
194826.0350275146 53614.53431477143 0.0
0.0 0.0 0.0

359150.55217333284 556223.0254161912 0.0
556223.0254161912 291180.0302398448 0.0
0.0 0.0 0.0

376098.5069587898 635625.4465453792 0.0
635625.4465453792 -42321.666862777405 0.0
0.0 0.0 0.0

-3343.2583312924253 50102.273065353766 0.0
50102.273065353766 1.187187747812049e6 0.0
0.0 0.0 0.0

-489988.986250537 502682.78097510454 0.0
502682.78097510454 -196533.07960378355 0.0
0.0 0.0 0.0

-100417.19773979821 822318.7612139627 0.0
822318.7612139627 46847.93228993241 0.0
0.0 0.0 0.0

231508.4393479672 386414.81830921565 0.0
386414.81830921565 1.5213712445788416e6 0.0
0.0 0.0 0.0

438098.88317256916 651271.9254322792 0.0
651271.9254322792 -43219.81053002915 0.0
0.0 0.0 0.0

-130964.50028628041 517225.61480583454 0.0
517225.61480583454 -261793.94215140113 0.0
0.0 0.0 0.0

-48776.40373286634 506842.4926580592 0.0
506842.4926580592 352032.7201803258 0.0
0.0 0.0 0.0

-88035.30108160655 515755.3201487249 0.0
515755.3201487249 -251058.44615514803 0.0
0.0 0.0 0.0

-1.990685572376063e6 925163.8603943898 0.0
925163.8603943898 -596234.7650213657 0.0
0.0 0.0 0.0

-47563.66015748042 467738.6420738054 0.0
467738.6420738054 333749.7280073384 0.0
0.0 0.0 0.0

-111620.51838045265 532629.435457086 0.0
532629.435457086 -219998.68821243852 0.0
0.0 0.0 0.0

-55374.11741824719 526881.6563431935 0.0
526881.6563431935 328787.2931908242 0.0
0.0 0.0 0.0

314251.1950385472 624845.2533134435 0.0
624845.2533134435 -65603.60669173978 0.0
0.0 0.0 0.0

-4347.824289800425 43497.55336463794 0.0
43497.55336463794 -870199.1037596682 0.0
0.0 0.0 0.0

170350.30399588647 606897.6333621742 0.0
606897.6333621742 -160506.57778995228 0.0
0.0 0.0 0.0

-857027.702045746 1.1366117623886408e6 0.0
1.1366117623886408e6 150682.53592162585 0.0
0.0 0.0 0.0

-211900.3718743635 741232.8879669735 0.0
741232.8879669735 134618.68186830697 0.0
0.0 0.0 0.0

-5986.607932628394 45119.35090831267 0.0
45119.35090831267 713222.9846845169 0.0
0.0 0.0 0.0

43067.24623282484 496581.6971798692 0.0
496581.6971798692 -373232.3704128519 0.0
0.0 0.0 0.0

469065.90938215447 558357.817462896 0.0
558357.817462896 187836.02170156175 0.0
0.0 0.0 0.0

-1.8188802058203137e6 752825.5761039469 0.0
752825.5761039469 -187741.6339796019 0.0
0.0 0.0 0.0

160862.46385470082 405374.8357143721 0.0
405374.8357143721 468021.8043407581 0.0
0.0 0.0 0.0

-29911.120549951214 200177.06400207037 0.0
200177.06400207037 -1.1595034873535007e6 0.0
0.0 0.0 0.0

15846.925285871926 395879.3825159764 0.0
395879.3825159764 -489724.87667545 0.0
0.0 0.0 0.0

-23303.183142892463 516044.47849562735 0.0
516044.47849562735 287433.2836972398 0.0
0.0 0.0 0.0

-258650.69977431983 963050.2458747482 0.0
963050.2458747482 81092.53949142266 0.0
0.0 0.0 0.0

92726.61278300322 710138.6109478808 0.0
710138.6109478808 -98739.93170479525 0.0
0.0 0.0 0.0

-49.869563433516305 46368.4025396847 0.0
46368.4025396847 -1.0537277227328639e6 0.0
0.0 0.0 0.0

275875.04876651743 395096.72930265166 0.0
395096.72930265166 1.3934846613885085e6 0.0
0.0 0.0 0.0

-20785.660401737758 444300.6470239448 0.0
444300.6470239448 -46726.45734318266 0.0
0.0 0.0 0.0

-1.3690600357033955e6 974188.2717912388 0.0
974188.2717912388 180107.1378591116 0.0
0.0 0.0 0.0

-8506.897610451968 79815.80315240526 0.0
79815.80315240526 916300.5157800408 0.0
0.0 0.0 0.0

6490.345258259738 71823.85334086663 0.0
71823.85334086663 960156.517946242 0.0
0.0 0.0 0.0

453279.8925982637 550337.388006727 0.0
550337.388006727 251640.66549681727 0.0
0.0 0.0 0.0

4680.807996031537 43238.033198405225 0.0
43238.033198405225 1.1751336651540953e6 0.0
0.0 0.0 0.0

128035.31546539883 425282.8129129819 0.0
425282.8129129819 449353.50530225196 0.0
0.0 0.0 0.0

281280.4271854553 405549.887806343 0.0
405549.887806343 1.0509963522871474e6 0.0
0.0 0.0 0.0

53292.70307659834 912694.7761169533 0.0
912694.7761169533 -34752.67526826875 0.0
0.0 0.0 0.0

7251.317121955799 154046.0258935476 0.0
154046.0258935476 1.5660702155990468e6 0.0
0.0 0.0 0.0

-107384.57283833914 362094.47056406003 0.0
362094.47056406003 -955290.6822765489 0.0
0.0 0.0 0.0

-6654.288256519045 143396.48139619164 0.0
143396.48139619164 -126092.13461780653 0.0
0.0 0.0 0.0

-9360.743088585412 502713.70993911976 0.0
502713.70993911976 257811.88030013323 0.0
0.0 0.0 0.0

200257.279663834 405001.69191354973 0.0
405001.69191354973 993781.0368944387 0.0
0.0 0.0 0.0

-8519.424955482304 75900.98004683455 0.0
75900.98004683455 1.153971180102576e6 0.0
0.0 0.0 0.0

25618.47140985828 153025.2349300136 0.0
153025.2349300136 87006.22838803897 0.0
0.0 0.0 0.0

-16354.185656959162 541926.4460359258 0.0
541926.4460359258 56950.048407750466 0.0
0.0 0.0 0.0

178886.97676630606 223622.07294604473 0.0
223622.07294604473 185805.49475342504 0.0
0.0 0.0 0.0

153830.71264797158 525423.4264911812 0.0
525423.4264911812 -3096.0234059640425 0.0
0.0 0.0 0.0

-5846.203111045761 71600.51010647674 0.0
71600.51010647674 963229.8254578774 0.0
0.0 0.0 0.0

14670.527169622132 151047.84390192613 0.0
151047.84390192613 1.6516600867893517e6 0.0
0.0 0.0 0.0

126283.64593923606 538117.2388343336 0.0
538117.2388343336 19934.574418052238 0.0
0.0 0.0 0.0

65731.54472858246 514204.7087378781 0.0
514204.7087378781 -304953.76765568054 0.0
0.0 0.0 0.0

28433.266089248762 147856.1834473362 0.0
147856.1834473362 1.633663071193248e6 0.0
0.0 0.0 0.0

296851.57890908653 627073.2340483096 0.0
627073.2340483096 -63427.070451499254 0.0
0.0 0.0 0.0

171426.97495741613 401292.38009795593 0.0
401292.38009795593 706994.0126689039 0.0
0.0 0.0 0.0

-10563.996038430269 258075.81221052643 0.0
258075.81221052643 303552.95519971254 0.0
0.0 0.0 0.0

-89579.7574556642 181290.8536728267 0.0
181290.8536728267 -48858.28010133587 0.0
0.0 0.0 0.0

-163832.20338661992 142603.8145241568 0.0
142603.8145241568 -62469.80675860235 0.0
0.0 0.0 0.0

