# vtk DataFile Version 2.0
phase field modeling fracture
ASCII
DATASET UNSTRUCTURED_GRID
POINTS 2538 float
0.0 0.0 0.0
10.0 0.0 0.0
0.0 10.0 0.0
10.0 10.0 0.0
0.0 4.9995 0.0
0.0 5.0005 0.0
5.0 5.0 0.0
0.9416964895726688 0.0 0.0
1.803581725054446 0.0 0.0
2.592419885431098 0.0 0.0
3.314401822861676 0.0 0.0
3.975193910351406 0.0 0.0
4.579982132660152 0.0 0.0
5.133512780936812 0.0 0.0
5.640130319506143 0.0 0.0
6.103810708661955 0.0 0.0
6.528192895506818 0.0 0.0
6.916607540127679 0.0 0.0
7.272102969376355 0.0 0.0
7.597469242948583 0.0 0.0
7.895259826292669 0.0 0.0
8.167811885738017 0.0 0.0
8.417264413845215 0.0 0.0
8.645575169389538 0.0 0.0
8.854535961159101 0.0 0.0
9.045786767735546 0.0 0.0
9.220828555767493 0.0 0.0
9.38103509633881 0.0 0.0
9.527663687265145 0.0 0.0
9.661865124984566 0.0 0.0
9.784692609918062 0.0 0.0
9.897110148790482 0.0 0.0
10.0 0.09999999999992584 0.0
10.0 0.199999999999856 0.0
10.0 0.2999999999997771 0.0
10.0 0.3999999999996677 0.0
10.0 0.4999999999995511 0.0
10.0 0.5999999999994683 0.0
10.0 0.6999999999993983 0.0
10.0 0.7999999999993286 0.0
10.0 0.8999999999992587 0.0
10.0 0.9999999999991888 0.0
10.0 1.099999999999119 0.0
10.0 1.199999999999033 0.0
10.0 1.299999999998852 0.0
10.0 1.399999999998576 0.0
10.0 1.499999999998284 0.0
10.0 1.599999999997992 0.0
10.0 1.6999999999977 0.0
10.0 1.799999999997408 0.0
10.0 1.899999999997116 0.0
10.0 1.999999999996825 0.0
10.0 2.099999999996533 0.0
10.0 2.199999999996241 0.0
10.0 2.299999999995949 0.0
10.0 2.399999999995657 0.0
10.0 2.499999999995365 0.0
10.0 2.599999999995073 0.0
10.0 2.699999999994782 0.0
10.0 2.79999999999449 0.0
10.0 2.899999999994198 0.0
10.0 2.999999999993906 0.0
10.0 3.099999999993614 0.0
10.0 3.199999999993322 0.0
10.0 3.299999999993029 0.0
10.0 3.399999999992738 0.0
10.0 3.499999999992446 0.0
10.0 3.599999999992154 0.0
10.0 3.699999999991863 0.0
10.0 3.799999999991571 0.0
10.0 3.899999999991278 0.0
10.0 3.999999999991022 0.0
10.0 4.099999999991035 0.0
10.0 4.199999999991187 0.0
10.0 4.299999999991338 0.0
10.0 4.399999999991491 0.0
10.0 4.499999999991642 0.0
10.0 4.599999999991795 0.0
10.0 4.699999999991947 0.0
10.0 4.799999999992099 0.0
10.0 4.89999999999225 0.0
10.0 4.999999999992403 0.0
10.0 5.099999999992555 0.0
10.0 5.199999999992706 0.0
10.0 5.299999999992858 0.0
10.0 5.39999999999301 0.0
10.0 5.499999999993161 0.0
10.0 5.599999999993313 0.0
10.0 5.699999999993466 0.0
10.0 5.799999999993618 0.0
10.0 5.899999999993771 0.0
10.0 5.999999999993922 0.0
10.0 6.099999999994074 0.0
10.0 6.199999999994227 0.0
10.0 6.299999999994378 0.0
10.0 6.39999999999453 0.0
10.0 6.499999999994682 0.0
10.0 6.599999999994833 0.0
10.0 6.699999999994986 0.0
10.0 6.799999999995138 0.0
10.0 6.899999999995289 0.0
10.0 6.999999999995442 0.0
10.0 7.099999999995594 0.0
10.0 7.199999999995747 0.0
10.0 7.299999999995897 0.0
10.0 7.39999999999605 0.0
10.0 7.499999999996202 0.0
10.0 7.599999999996353 0.0
10.0 7.699999999996505 0.0
10.0 7.799999999996658 0.0
10.0 7.899999999996808 0.0
10.0 7.999999999996962 0.0
10.0 8.099999999997113 0.0
10.0 8.199999999997265 0.0
10.0 8.299999999997418 0.0
10.0 8.399999999997569 0.0
10.0 8.499999999997721 0.0
10.0 8.599999999997873 0.0
10.0 8.699999999998024 0.0
10.0 8.799999999998176 0.0
10.0 8.899999999998329 0.0
10.0 8.99999999999848 0.0
10.0 9.099999999998634 0.0
10.0 9.199999999998786 0.0
10.0 9.299999999998937 0.0
10.0 9.399999999999089 0.0
10.0 9.499999999999241 0.0
10.0 9.599999999999392 0.0
10.0 9.699999999999545 0.0
10.0 9.799999999999697 0.0
10.0 9.899999999999848 0.0
9.897110148790565 10.0 0.0
9.784692609918244 10.0 0.0
9.66186512498486 10.0 0.0
9.527663687265571 10.0 0.0
9.381035096339392 10.0 0.0
9.220828555768257 10.0 0.0
9.045786767736512 10.0 0.0
8.854535961160305 10.0 0.0
8.645575169391027 10.0 0.0
8.417264413847017 10.0 0.0
8.167811885740178 10.0 0.0
7.895259826295246 10.0 0.0
7.597469242951631 10.0 0.0
7.272102969379938 10.0 0.0
6.916607540131873 10.0 0.0
6.528192895511704 10.0 0.0
6.103810708667616 10.0 0.0
5.640130319512691 10.0 0.0
5.13351278094435 10.0 0.0
4.579982132668816 10.0 0.0
3.975193910361222 10.0 0.0
3.314401822869852 10.0 0.0
2.592419885437257 10.0 0.0
1.803581725058137 10.0 0.0
0.9416964895740705 10.0 0.0
0.0 9.00010000000243 0.0
0.0 8.000200000005481 0.0
0.0 7.000300000005135 0.0
0.0 6.000400000002569 0.0
0.901790731451151 5.000409820926855 0.0
1.657200899774397 5.000334279910023 0.0
2.289991063707192 5.000271000893629 0.0
2.820065163538221 5.000217993483646 0.0
3.264096435579811 5.000173590356442 0.0
3.636051481595835 5.00013639485184 0.0
3.947629914072366 5.000105237008593 0.0
4.208632181002628 5.0000791367819 0.0
4.427267949625672 5.000057273205037 0.0
4.610414277633563 5.000038958572237 0.0
4.763831845154243 5.000023616815485 0.0
4.892346298799659 5.00001076537012 0.0
4.892346298799748 4.99998923462988 0.0
4.763831845154455 4.999976383184515 0.0
4.610414277633943 4.999961041427763 0.0
4.427267949626277 4.999942726794963 0.0
4.208632181003523 4.9999208632181 0.0
3.94762991407365 4.999894762991407 0.0
3.636051481597624 4.99986360514816 0.0
3.264096435582253 4.999826409643559 0.0
2.820065163541503 4.999782006516354 0.0
2.289991063711534 4.999728999106371 0.0
1.657200899778495 4.999665720089978 0.0
0.9017907314530094 4.999590179073145 0.0
0.0 3.999600000002013 0.0
0.0 2.999700000005187 0.0
0.0 1.99980000000512 0.0
0.0 0.9999000000025537 0.0
9.897889398521345 2.93573355845387 0.0
9.906568249974548 7.060009441434234 0.0
9.913122631074113 3.64016132281653 0.0
9.922462129543863 6.354535290629151 0.0
9.917693659967533 4.354211663134567 0.0
9.909873057440208 5.637584487339942 0.0
9.914183254994697 4.950672966925282 0.0
9.913885043715895 7.666887930262611 0.0
9.91009668007573 2.351889069770817 0.0
9.905135696074536 8.138152454502785 0.0
9.913397459621809 1.849999999997262 0.0
7.099302372137626 0.297750452375005 0.0
7.095143729410097 9.700359990366296 0.0
4.942912558701401 5.095838627899509 0.0
4.315009232304429 5.165022115481685 0.0
4.946182472483878 4.906763777264103 0.0
4.317967462990024 4.825955043772673 0.0
9.916390871492647 8.64999999999792 0.0
9.921504649680616 1.368376469890358 0.0
8.292538149791614 0.206877570318844 0.0
8.292538149793597 9.793122429681448 0.0
5.884594439766573 9.587645267048616 0.0
5.794826292691579 0.3794853783929359 0.0
9.913397459621425 9.049999999998557 0.0
9.908526577714177 0.9568239351922434 0.0
3.456851160380649 5.315740054130451 0.0
3.457889657868442 4.707121019609468 0.0
8.945214200703926 0.1503383337970344 0.0
8.950161364448409 9.8413906539257 0.0
9.913862335499305 4.055887885208452 0.0
9.916697353372683 4.650158482607802 0.0
9.919076340414442 6.049999999994006 0.0
9.906994308667635 5.25749687748192 0.0
9.917490342358025 6.655979201891897 0.0
9.915757520293784 7.343848891656911 0.0
9.910049507471042 3.363474386285078 0.0
9.914471988502868 2.647400064832979 0.0
9.91474124160965 9.337490423485129 0.0
9.916971008170838 0.6499999999994355 0.0
4.307157269264427 9.509674045029644 0.0
4.331527375865619 0.4401616696422582 0.0
9.45434939180249 9.878397030523757 0.0
9.457696120412969 0.1270877537061785 0.0
2.555070293622606 5.422044496190925 0.0
2.566232917480916 4.608001224030952 0.0
3.026511860837692 9.332320638257093 0.0
2.945561971800619 0.5895662714727601 0.0
7.7395404387124 0.2511088946967771 0.0
7.736379255744154 9.745848826372828 0.0
4.687135269408529 5.122111433928926 0.0
4.688420821504113 4.871895064967488 0.0
9.910554884115975 0.3448356354522978 0.0
9.911230082250466 9.65764729394159 0.0
9.921953841410854 6.851023993342036 0.0
9.912065178606017 5.448170483544033 0.0
9.911660025326261 3.861846960030188 0.0
9.914847467973438 3.14501593945607 0.0
9.913397459621425 5.849999999993703 0.0
9.913397459621425 7.849999999996735 0.0
9.906916878988277 2.15455769998631 0.0
9.913397459621425 8.349999999997479 0.0
9.909472363117661 1.640528221515488 0.0
9.913987325695956 1.152857110636247 0.0
9.913397459621425 8.849999999998241 0.0
0.9100099990995943 2.614215977520411 0.0
0.8395284981715456 7.451196254860987 0.0
9.723278867451556 9.898135916635193 0.0
9.723316350887044 0.09841820909386662 0.0
1.385819164827588 4.454539963646463 0.0
1.338343629665047 5.523111536005823 0.0
1.377179700550677 0.6809168304959698 0.0
1.418060461092743 9.285896715136046 0.0
9.91268220142518 0.1457914080939694 0.0
9.906737126737994 9.845745933882352 0.0
0.7108351382691361 6.537941170074089 0.0
1.527735020267026 6.915620208855231 0.0
1.630993885659103 7.838271825205868 0.0
2.232760943566823 7.370850737296832 0.0
2.243414218068206 6.688299277952821 0.0
2.779655053105118 7.021588754814074 0.0
2.80227799359795 7.632420170547022 0.0
3.282022065908813 7.305859666021318 0.0
3.327597298795347 7.857554136825748 0.0
3.743210251018715 7.549183328204379 0.0
3.716353232200752 7.062036086888612 0.0
4.111978858674101 7.27497101169417 0.0
4.104192177581432 6.879858986267289 0.0
4.436230765617037 7.045693351607117 0.0
4.430360014817357 6.703971783962796 0.0
4.732390145036301 6.849841042423394 0.0
5.056161327708878 5.095276573498806 0.0
5.111586796021131 4.999081142133581 0.0
5.169267363407189 5.09444870412406 0.0
5.223795108752053 4.996986220359468 0.0
5.281480803887719 5.092780870372803 0.0
5.335670761900611 4.994887492556936 0.0
5.393485214772442 5.090486192743301 0.0
5.447323082877892 4.992601527033996 0.0
5.505243219343024 5.087953380710069 0.0
5.558739102026105 4.990287787962959 0.0
5.616491581184779 5.085335255235766 0.0
5.669852346908056 4.9879269227514 0.0
5.727502713908907 5.082679981817038 0.0
5.780766004135139 4.988313988715834 0.0
5.838244881129535 5.080480568766611 0.0
5.891357695677371 4.986433849408193 0.0
5.948696036767613 5.077969900389505 0.0
6.001601341641615 4.981313698556656 0.0
6.058851024265095 5.074871552128682 0.0
6.111614020704875 4.978360695880202 0.0
6.168801161530775 5.072044953270978 0.0
6.221368818778567 4.975825765213497 0.0
6.278268309066882 5.066182320461055 0.0
6.330814273567539 4.972837984645718 0.0
6.387565032421376 5.062889771971895 0.0
6.437476667631405 4.971693683589553 0.0
6.496181111585419 5.060210690175857 0.0
6.539454812256072 4.964658165361536 0.0
6.604198202576491 5.056387520850258 0.0
6.648506025747331 4.939374587506267 0.0
6.714026758992516 5.05873885840664 0.0
6.764418045981209 4.959246676066148 0.0
6.8219334571197 5.055299567406268 0.0
6.873708540948134 4.960426349093742 0.0
6.930181428849307 5.053461390218819 0.0
6.981893615341967 4.96435459462232 0.0
7.037791764774784 5.051219747103022 0.0
7.090993561518408 4.96392420322464 0.0
5.504417457283294 4.900897920552702 0.0
7.145434864123609 5.048960634292441 0.0
6.054532384032612 4.883956083938546 0.0
6.738027949040956 4.850032323068674 0.0
7.198432914526514 4.956325226333323 0.0
7.252637187936749 5.046012229327236 0.0
7.30926729605109 4.948903216650376 0.0
7.248106275544042 4.860306312845646 0.0
7.363100274863074 4.849952416808486 0.0
7.365733472701664 5.039519554615095 0.0
7.308483293090149 5.137557220352172 0.0
6.768399513646964 5.145609705119954 0.0
7.422800035311104 5.132251445551834 0.0
7.358273518796229 5.235980394389298 0.0
7.480824155801127 5.227946127939927 0.0
7.302193400058628 4.761917474298247 0.0
7.413570879789824 4.754555110721153 0.0
7.414392998903179 5.334729114426734 0.0
7.352769630272076 4.660405502266205 0.0
7.467556835255426 4.658352623795039 0.0
7.536246869015014 5.328986926716081 0.0
7.478865844607288 5.432598185493195 0.0
7.406396991826072 4.556956233957538 0.0
7.523581002009154 4.552005631348623 0.0
7.597792398573263 5.429506106314967 0.0
7.540511043402902 5.53619421580439 0.0
7.46214474876342 4.452580994318881 0.0
7.5852185078634 4.446021810672608 0.0
7.663329342323453 5.533453399066901 0.0
7.603478967594521 5.643227430483237 0.0
7.513450346818673 4.347641323140766 0.0
7.640744971722214 4.333388343316237 0.0
7.727671715775243 5.642390483050116 0.0
7.667774597993788 5.753188858425915 0.0
7.570065256728661 4.230515669344811 0.0
7.702881065467917 4.218307808529532 0.0
7.638288257073729 4.107994211855027 0.0
7.493362356301017 4.120843902105771 0.0
7.779018500630071 5.521233457321821 0.0
7.794641287388929 5.752364621610818 0.0
7.73369774483611 5.865894287356292 0.0
7.600834531784728 5.867752110500446 0.0
6.233038857278689 5.15645045634683 0.0
7.669727996028819 5.985665563643058 0.0
7.528582452554481 5.987393423295551 0.0
7.598722674572824 6.11001923494443 0.0
7.778305000222867 4.104318908265786 0.0
7.704329019832056 3.987744174608892 0.0
7.838453459801382 4.213322728668484 0.0
7.864495721576461 5.862306066517277 0.0
7.846552353360407 3.98481756181946 0.0
7.769730409703277 3.86544808681145 0.0
5.785249360396857 5.177248808588045 0.0
7.908837087876153 3.861484036275285 0.0
7.834824606222196 3.740586825753288 0.0
7.97685993406276 3.736209527152902 0.0
7.89665098770825 3.615501862931453 0.0
7.753228010315262 3.617800245018972 0.0
7.826063013090472 3.483173292579822 0.0
7.66789744383048 3.48859328808356 0.0
8.042515855796823 3.595394268381807 0.0
7.75200750488492 3.341279823834038 0.0
7.582870318332553 3.346584916806707 0.0
8.120807847415062 3.732493963388337 0.0
8.189783970303546 3.61159165475499 0.0
7.657801000286734 3.200439907646711 0.0
7.486781956172036 3.201402473247712 0.0
7.452595103886905 6.11418616185016 0.0
7.527098033550077 6.243191052852112 0.0
8.260502906807751 3.728437634721859 0.0
8.327629317451398 3.608173631356984 0.0
7.372763970891452 6.247552889754036 0.0
7.456170570815929 6.384992468962936 0.0
7.621837793616884 6.376077080857113 0.0
7.548039512904141 6.520750676893614 0.0
7.717475944451644 6.514856553988943 0.0
7.636658166268699 6.661648164052906 0.0
7.807468267259438 6.664076174524672 0.0
7.718022764310774 6.817938967122142 0.0
7.887785766941087 6.807440365887151 0.0
7.545993589083432 6.815070675854734 0.0
7.809874785067209 6.967537287475282 0.0
7.975643812145337 6.948729406725126 0.0
8.396477808021062 3.725446935061211 0.0
7.565651643157136 3.044354774611752 0.0
7.384328725505071 3.043048915147076 0.0
8.056405351948353 6.802790889114673 0.0
8.14128318237188 6.940027831915737 0.0
8.064621760266059 7.086348792208953 0.0
8.225003598857908 6.805225152373254 0.0
8.463085452993242 3.606998510553562 0.0
8.230426869720718 7.079551841000411 0.0
8.155262284174286 7.224761758176069 0.0
8.530696760758996 3.721683301125054 0.0
8.596669886994064 3.604516769862316 0.0
8.528531058025589 3.490411531312337 0.0
8.320451770844851 7.218191678954744 0.0
8.245273958732774 7.363444652121271 0.0
8.66324687389452 3.717094013035765 0.0
8.600103125209296 3.831913857228569 0.0
8.662131102573216 3.488322280861316 0.0
8.594166125380536 3.374071873435548 0.0
8.411074336066186 7.353871649576861 0.0
8.339644223432472 7.505172120620427 0.0
8.165883718619623 7.513159193685373 0.0
8.483453820080417 7.2082285366806 0.0
8.261200365730348 7.657400951288149 0.0
8.081570576666843 7.670933304838066 0.0
7.471613195794025 2.872548423100142 0.0
7.268733678357991 2.881209199257603 0.0
7.184255506995786 3.084448584600423 0.0
7.065899603697895 2.883902449336828 0.0
6.960163891183182 3.081014635802978 0.0
6.847612128388715 2.885646860602812 0.0
6.739800729737967 3.078895733381448 0.0
8.729373804596847 3.827689165637365 0.0
8.668550856907444 3.938702277545298 0.0
8.72770789162863 3.371798381178293 0.0
8.659764090070603 3.257493349874974 0.0
8.436453928793245 7.648724489148887 0.0
6.619080287792762 2.90880017416788 0.0
6.511740956842646 3.09340654756684 0.0
8.793527829963288 3.935174834810256 0.0
8.736430500996828 4.042719556852617 0.0
7.631260330584174 4.565300771328012 0.0
8.359058396840432 7.801678182761817 0.0
5.339436215072359 5.184870243702279 0.0
4.994031736761993 5.193306795607908 0.0
6.383387675268097 4.87760645722207 0.0
7.29117392392962 6.382172868329505 0.0
6.378196825372041 2.907113079755629 0.0
6.269817199014261 3.12412150658573 0.0
8.793149127377946 3.255386294257182 0.0
8.725774239201558 3.141596687892195 0.0
8.857434600673502 4.041295940541356 0.0
8.802868937128341 4.1471119953668 0.0
8.532045262478793 7.7905977476835 0.0
7.364542641624493 2.699128473342751 0.0
7.571677611088925 2.695732556686516 0.0
6.723058333614999 2.672341359410618 0.0
8.456744924757372 7.94483904450548 0.0
6.140831279784704 2.921247401137864 0.0
6.02419219050745 3.14358702955763 0.0
8.916255604212301 3.934279868822481 0.0
8.859287250884009 3.140226640574265 0.0
8.791092798057303 3.025929352146465 0.0
7.210445465986021 6.245773134960393 0.0
7.120884161792869 6.385155584680196 0.0
7.036931702064287 6.240721609143972 0.0
6.943722280007011 6.3869279517155 0.0
8.920094519678617 4.144837222494242 0.0
8.864374107136287 4.250930406527029 0.0
7.347569838739255 4.463467417508182 0.0
5.90383431757064 2.935113219563906 0.0
5.783476009580765 3.156456199832474 0.0
8.626013191558314 7.935092223505354 0.0
8.687240186957197 7.796697889991163 0.0
5.642059327424706 2.903018174330269 0.0
5.52647853955939 3.162549070310043 0.0
8.555300051897738 8.086169516016518 0.0
8.405624441178524 8.083972416481254 0.0
5.374124307190728 2.945480555950917 0.0
8.935805220807357 3.249260758206028 0.0
8.981625171409894 4.247375537584228 0.0
8.924725364486765 4.352101286657735 0.0
8.807208588134106 4.356163101450244 0.0
8.868277832430604 4.45657124153171 0.0
8.75099635287701 4.460644845248524 0.0
8.812385950597063 4.560891222623518 0.0
8.693833206943118 4.564602972998703 0.0
8.756474732548273 4.665720853686476 0.0
8.63721608225855 4.669394550615355 0.0
8.700108119351134 4.770682016274914 0.0
8.81920502916846 4.767536120893284 0.0
8.76355311338807 4.871451945248518 0.0
8.881442328033694 4.868382238751069 0.0
8.826433523510634 4.97132552240372 0.0
8.943387824985514 4.967694248194483 0.0
8.888718468126953 5.071044784833541 0.0
8.580377663835254 4.774669738817985 0.0
8.770572242937233 5.073880380431421 0.0
8.832915096600454 5.174518948293615 0.0
8.952224483821848 5.170970838320107 0.0
8.897282771771884 5.275476392171722 0.0
7.463928467290875 2.513944501591933 0.0
7.675935950092034 2.509420347143072 0.0
8.924252417741767 3.024418701372628 0.0
8.857265893102921 2.911213535286156 0.0
8.776981063213334 5.27944309004916 0.0
8.840710910770163 5.380165700477552 0.0
8.960876896785969 5.375521424256389 0.0
8.904555918255223 5.482125846038813 0.0
7.567193097677677 2.32750151280277 0.0
7.780880844888839 2.323064027160363 0.0
6.851602118390116 6.234522818184622 0.0
6.758680682687229 6.389359516748128 0.0
6.66345977321418 6.231254850996584 0.0
8.715764716958308 8.079994249772627 0.0
8.65189989696114 8.227534663647639 0.0
9.042229096541828 4.348551764001607 0.0
6.436774206993324 3.316782326998922 0.0
7.590527613340588 5.22651784724799 0.0
9.024366884701616 5.476726561488805 0.0
8.968734351641839 5.583879050892151 0.0
8.845941080047659 5.586406316932274 0.0
8.909881305857882 5.690482454668167 0.0
7.348726871578975 5.44047403999932 0.0
6.567070253986433 6.398115757512583 0.0
6.697077150072261 6.553426749743366 0.0
5.252377383990728 3.187782967482479 0.0
8.988440431820699 2.908621158637298 0.0
8.922541972760119 2.796420836075996 0.0
6.466806010659505 6.229115583261771 0.0
9.033851153821296 5.686506775615425 0.0
8.978340519963718 5.795772485582058 0.0
8.85111463793018 5.798672910287243 0.0
8.922171984280597 5.907237880910408 0.0
8.795190680908043 5.911854068712683 0.0
8.864373398892472 6.019728357749566 0.0
8.991346995940626 6.014539153309398 0.0
8.93374019140187 6.12698887312768 0.0
5.095192648098848 2.952353430985476 0.0
7.672651464908932 2.141715359830917 0.0
7.886266921042761 2.136211284120189 0.0
9.098474286589756 4.245971410451114 0.0
8.813172564986438 8.216887361735234 0.0
8.74802978243154 8.366104673219047 0.0
9.059985162956899 6.120982589539211 0.0
9.00342813739303 6.233245043891739 0.0
4.961413514304496 3.214209167276753 0.0
9.05248113004685 2.794651022570942 0.0
8.986028039118027 2.681341972594222 0.0
5.671890458441996 3.377122473800023 0.0
4.755829262593116 7.184480462344647 0.0
9.158258644940048 4.34465968221255 0.0
4.799687186662534 2.961354824469195 0.0
6.030554747591715 2.726787502996874 0.0
8.938327180212585 8.34758372042188 0.0
8.847392320655468 8.503370672816716 0.0
8.67342124373679 8.518117686968314 0.0
5.234423106934083 2.694925204361751 0.0
8.964923046453565 8.185313058214797 0.0
7.456650986668838 2.134076476407834 0.0
9.111732084821366 2.897226832609386 0.0
6.368055837513985 6.402805870976705 0.0
6.265629899005033 6.226581076317183 0.0
8.736327196352686 6.026404178766982 0.0
9.117473097358854 2.67987006607594 0.0
9.052137415465204 2.565428515518978 0.0
7.781001557847192 1.955874236406257 0.0
7.992134447300669 1.949184538864554 0.0
8.593074792993455 3.143159483125708 0.0
9.1291360203536 6.226877897052981 0.0
9.072154326613617 6.338696745620542 0.0
8.916532550320525 2.566986282201109 0.0
8.984021113721658 2.449252898983242 0.0
9.178032243215632 6.120533546076094 0.0
9.213703592343162 4.244823670856978 0.0
9.11972142641474 2.449071238668887 0.0
9.052853896812186 2.33190758581705 0.0
8.635035926402708 4.462329956179506 0.0
8.773614475966344 8.657865377672689 0.0
8.596400917257634 8.67759750279447 0.0
8.942023339420883 8.644678093589654 0.0
9.19471670675691 6.33096438039349 0.0
9.138460613363325 6.443043552768813 0.0
8.66620319432524 5.916297234509582 0.0
8.606669825267202 6.032658196729024 0.0
9.27222540210304 4.341341907533128 0.0
9.013782808177437 6.451040569407859 0.0
9.08360982569773 6.55729980456602 0.0
7.885622149776354 1.768093045890686 0.0
8.095672144455353 1.768790621151345 0.0
9.208772072925791 6.549717411809656 0.0
9.154272208194383 6.662613503537815 0.0
9.187669783927937 2.334640996932141 0.0
9.122379015831417 2.215832190697178 0.0
6.164077036161143 6.404611236428829 0.0
6.062367614988677 6.224307160647549 0.0
8.987075041759633 2.211477580983978 0.0
9.056972755801603 2.093573581203428 0.0
9.194557288902232 2.096029761809264 0.0
9.131223008370409 1.972713028695079 0.0
8.87381302587057 8.795793668920256 0.0
9.039169086943392 8.781606667490083 0.0
4.662813350519927 3.228118291851354 0.0
4.474181267994617 2.945703616023359 0.0
6.562627723301209 6.075544382232434 0.0
9.326886053211574 4.243083624343211 0.0
9.280374192897945 6.656072830232892 0.0
9.224718905178564 6.766740750539347 0.0
4.703284910421452 6.528907865005451 0.0
8.955136474970331 6.565989985649191 0.0
8.998148826814893 4.865480736169776 0.0
8.99429836796776 1.965972383552685 0.0
9.065669391141741 1.847195105148808 0.0
9.207236162050343 1.853010386995843 0.0
9.143218073349985 1.725630086781897 0.0
8.998867447699345 1.719378449325465 0.0
9.082595782768397 1.592017827427701 0.0
8.92804562738841 1.585238202229766 0.0
9.01637794607019 1.453847302675876 0.0
8.854253119154375 1.446306868730686 0.0
8.941620273019874 1.320083886766936 0.0
8.775393064215876 1.308487027359826 0.0
9.102170347200483 1.324733726345249 0.0
9.013857060361985 1.178821526410403 0.0
7.991031819452564 1.587689878441685 0.0
7.767218744640202 1.595993197647291 0.0
9.191539171305216 1.194087248761656 0.0
9.123965901037613 1.057102462689568 0.0
4.853921953226772 3.470213116851758 0.0
7.496563223334782 3.470157221608763 0.0
8.536691379028115 5.921845852206257 0.0
8.475496498707471 6.037633662010236 0.0
7.978668526342969 2.307231488316941 0.0
9.384721922092124 4.337357165846226 0.0
9.331039180200886 4.435926256444196 0.0
8.546261775564837 6.150267290476958 0.0
8.411727261785726 6.155319300628062 0.0
8.972203609044218 8.930944433074036 0.0
9.133480321468399 8.90955269607895 0.0
9.197778815538276 8.768743880012563 0.0
6.162231825784922 6.05277753404107 0.0
5.962111081146334 6.046949845237622 0.0
9.268727788642101 4.146883230687689 0.0
9.380694211527906 4.144811697563401 0.0
9.323823335199954 4.049557759546529 0.0
9.283324894520613 1.736313094621396 0.0
5.858151623803662 6.22041808248046 0.0
5.759668475561988 6.038806123495502 0.0
7.836860473863919 3.191674397465999 0.0
9.348591928839294 6.75855034547469 0.0
9.293979592221298 6.870213350675044 0.0
9.170543172728557 6.879819332293818 0.0
9.240028263813034 6.983394994050525 0.0
4.347372565145963 3.312731475520695 0.0
4.114183445909965 2.96879678229065 0.0
8.616264880152233 4.042035981070631 0.0
9.403174760076901 6.650407069150438 0.0
4.173860112179449 7.723461240865885 0.0
9.365302975518428 6.973476802087294 0.0
9.312420275675276 7.088420778208979 0.0
9.184876614539778 7.0978133687822 0.0
9.25921281729617 7.204979813006656 0.0
9.12816413817609 7.21569648263899 0.0
9.203944409919862 7.322703303071253 0.0
9.334311975087337 7.311477957762272 0.0
9.280415785210538 7.428795599957155 0.0
9.274060219641907 1.066603180421249 0.0
9.211820491509728 0.9316562593680151 0.0
9.050684011148748 0.9017681241401576 0.0
9.441953732403995 4.432092590771756 0.0
9.394725873909666 4.526051349391942 0.0
9.43453556160865 4.048003950509361 0.0
9.378043599351757 3.952631412328806 0.0
9.289691247910705 8.890746792319852 0.0
9.228148443138926 9.030109127390128 0.0
4.440757888677695 6.389562448928118 0.0
4.689874463978985 6.239329075084555 0.0
4.291519540095677 2.622920583112654 0.0
3.886073352912894 2.632778677714434 0.0
9.344015622314338 1.202401041544343 0.0
8.193292196814806 3.849649660906171 0.0
6.960946604527747 6.07044529864598 0.0
9.347708267319902 8.756364147482309 0.0
6.826423138602714 3.261415861395883 0.0
6.06309517882478 5.884563187328262 0.0
9.4085057714426 7.414123963607981 0.0
9.356416821537886 7.532359471354527 0.0
5.042074134251055 6.938947182785697 0.0
5.063988238156824 7.311205832605263 0.0
3.946666851334923 3.30681624613374 0.0
8.189857914071878 1.939951128540477 0.0
7.880690277686857 1.38928908049477 0.0
7.63766396748483 1.399736360041063 0.0
9.345004233592562 1.857695941115052 0.0
9.440465164139875 7.085860901905448 0.0
7.918332480761888 5.744468010879592 0.0
9.08007135068879 5.372457017512481 0.0
8.78639561093144 3.718391405525285 0.0
9.356843485085705 0.9414458825132457 0.0
9.29705128845331 0.8103081541678832 0.0
9.251825423225316 2.451701826351773 0.0
8.483895366325516 6.270717564685176 0.0
8.346386886249478 6.275973306650227 0.0
9.493299170161215 4.138582531223591 0.0
5.321115649032961 7.117073603021904 0.0
5.354076009109965 7.436189411362466 0.0
5.597984079819928 7.254284331170681 0.0
5.644042313435943 7.564172740776336 0.0
5.383963016128051 7.753854027984002 0.0
5.681168258142109 7.880444993178456 0.0
5.935548099874979 7.687258900444162 0.0
5.979508404301389 7.994332725561488 0.0
6.21936843555201 7.802335560754011 0.0
6.267092590637372 8.104873033518185 0.0
6.498845418385807 7.917606504106031 0.0
6.544600005636809 8.209910620392591 0.0
6.77336078689533 8.027284686082275 0.0
6.814840179123049 8.311778392637773 0.0
6.721304148677048 7.737863326704131 0.0
7.031320924898797 8.1335673274533 0.0
7.077388928622946 8.403901803728003 0.0
5.417471987089176 8.090112295667405 0.0
8.845427688507666 2.446352368201366 0.0
9.318512319918124 2.339233739859646 0.0
9.380241452597096 2.451895615249572 0.0
7.283805558009199 8.237518806365102 0.0
7.329200330160381 8.497045124353782 0.0
7.233272584416691 7.991590926766813 0.0
9.142592248414191 5.471315142785471 0.0
9.196303265878848 5.36738298742727 0.0
9.25795832955665 5.465260877691205 0.0
9.310581303233182 5.36341558704714 0.0
9.371094700882272 5.459458038195667 0.0
9.422767107822985 5.360687090455724 0.0
9.36402660964156 5.264821436196721 0.0
9.474220736978928 5.262802348886269 0.0
9.41680330511366 5.169477108906666 0.0
5.168675939028436 4.895496152382537 0.0
9.482591449057548 5.454699312257291 0.0
9.431567605310825 5.552723344040521 0.0
7.531449703396948 4.741663470323411 0.0
8.517293123442691 4.672601123164268 0.0
8.459978676626639 4.778466809901586 0.0
8.396595115309985 4.67568709170855 0.0
8.338966609235166 4.782101664607259 0.0
8.275355646032752 4.678829956447008 0.0
8.217675280223542 4.785699596769931 0.0
8.28149024865807 4.888803783902183 0.0
8.16019781596952 4.892696417098926 0.0
8.22433278506531 4.995725219088695 0.0
8.102825704443651 4.999629142625341 0.0
8.166887930010795 5.098242831115916 0.0
8.034904900788316 4.896825406879729 0.0
8.15353539905931 4.682103688185489 0.0
8.211891449058882 4.574219757233394 0.0
8.290305306104333 5.094007100958221 0.0
8.225684228618732 5.201525567655179 0.0
9.444618942559746 2.343141375196729 0.0
6.929446520625337 4.868116916840016 0.0
5.737810725167649 4.893891407574175 0.0
8.720389971487277 5.38508368411851 0.0
8.805734920311323 8.951818172412821 0.0
8.905272694453211 9.083303226359831 0.0
6.006155038818204 5.171375272745409 0.0
6.431496448228514 5.152985998213245 0.0
9.052675024457304 7.106590131831544 0.0
7.740007013494393 6.09727525827826 0.0
9.375852260355511 9.013078430361404 0.0
9.32035844773103 9.14584923943073 0.0
6.989707597683965 5.146377438798643 0.0
9.488190206836386 3.951168069367155 0.0
9.432429152094464 3.855725756072153 0.0
5.568386402814275 5.185723849666124 0.0
9.525561551078322 5.166162126187324 0.0
9.465026391994275 5.072601962964018 0.0
9.320357339516937 3.857795423728873 0.0
9.375955927831914 3.759314274140895 0.0
9.261783786753899 3.761412578759438 0.0
9.31820665563318 3.661845422072752 0.0
9.431798673168924 3.660830894813109 0.0
9.374584413615914 3.563138564686839 0.0
9.48759661134647 3.562294297118573 0.0
9.431339678707085 3.464016717943268 0.0
9.417896212887529 1.746970678437863 0.0
8.731705369070733 9.110902182838881 0.0
5.652297951447118 6.21188565774667 0.0
5.569122518069258 6.024400786163834 0.0
8.257007204149394 3.505875091031567 0.0
8.717428603143034 2.925525757227976 0.0
6.882852832747376 8.57686572931064 0.0
6.337330066435714 8.416819098143066 0.0
9.50188906539997 4.521022403818629 0.0
9.453500859905136 4.617181635748691 0.0
9.46806769570129 6.749352117850711 0.0
8.836822104875719 1.72282859852854 0.0
7.481071063421426 5.64593758994851 0.0
5.668814988976305 5.86611128457842 0.0
5.487644760735084 5.847591822776978 0.0
8.993992818065195 7.228173913870249 0.0
7.98322414937693 7.229980191466666 0.0
9.22810751684646 7.54864871395298 0.0
9.304103360459063 7.654622011545798 0.0
9.432787371848761 7.633691049023619 0.0
9.382619818023882 7.759136995934441 0.0
7.239096822516492 4.679179578301165 0.0
9.47692479956498 1.861231395362419 0.0
8.041243110813022 5.095895152648969 0.0
6.190208781188077 7.509864122823853 0.0
9.283062812782122 4.549418667685757 0.0
9.503847665760087 2.450295046295932 0.0
9.443345385250678 2.557904120404248 0.0
9.52009568463353 6.644015937008899 0.0
9.203119005973903 3.662458522935253 0.0
8.406198651282708 5.92630414760378 0.0
8.467263597743843 5.811987729136874 0.0
9.461423029059445 9.128120577356565 0.0
9.408445330070542 9.26024300250086 0.0
9.266505293379728 9.277952925446408 0.0
4.14874709022218 3.631681332690154 0.0
9.437448107949258 0.8198473430736303 0.0
9.376993771693973 0.6910550697058979 0.0
9.22882356848217 0.6931820370818127 0.0
4.451823867195988 6.103664366188579 0.0
4.200031743909027 6.232039028149317 0.0
4.687154754667774 5.975132870483986 0.0
6.268889397098538 6.592235545990395 0.0
7.509366161722768 8.340075462391164 0.0
7.564775703413765 8.59800936579159 0.0
9.542148732924264 3.854614593058991 0.0
7.036231103929761 6.550562550831048 0.0
4.089373665437328 2.268193930262139 0.0
3.642558884866483 2.250386188148396 0.0
3.442182385618804 2.651948803899947 0.0
3.146832503011753 2.222630466765926 0.0
2.948870467975985 2.805088883766417 0.0
9.352005315330274 5.067356449300542 0.0
9.31729677031493 3.462944187594675 0.0
9.37428383619102 3.365546369736205 0.0
9.4883538239391 3.365384871181599 0.0
9.432147665178338 3.267287636377487 0.0
9.25034519267688 7.775848812012313 0.0
9.332091350002502 7.881724023243533 0.0
9.462101000264603 7.86490055671988 0.0
9.413353271651825 7.98561007219363 0.0
8.273592814723814 6.158623919352561 0.0
8.207135014732339 6.280394934566054 0.0
9.541483811580331 5.548224291759592 0.0
9.491365919893726 5.644847811894615 0.0
8.088095771120983 4.577581369371366 0.0
8.14760102783746 4.468303741922308 0.0
9.556217963323956 4.414867468889523 0.0
9.543667331547693 3.266908751519594 0.0
9.489307652535885 3.169908976697059 0.0
9.26285575842982 8.635341362685686 0.0
9.403220742003983 8.621447866627538 0.0
9.326013417886902 8.506778946171965 0.0
9.455477927154853 8.503896705359047 0.0
9.566646674069602 4.611465258087684 0.0
9.499341049870914 0.9352184973273918 0.0
8.683891958597638 1.444705608998412 0.0
8.599973456173778 1.287265568270043 0.0
7.760988189317371 1.175381292562583 0.0
7.50927661322749 1.171223823957793 0.0
7.380927152434357 1.411062577009695 0.0
7.242417847270241 1.170759311509981 0.0
7.107236746116019 1.421234419770886 0.0
6.960799033544566 1.169618322344823 0.0
6.817786081200392 1.434174581170586 0.0
9.48095050141868 8.738557748483624 0.0
9.319762046171894 3.263060331456388 0.0
8.920653400180534 7.117307656029475 0.0
9.452431221190624 6.544166520883111 0.0
9.571407933653493 6.540336592280795 0.0
9.507586285214174 6.443281357841339 0.0
9.575252974749443 5.070210512157044 0.0
5.755172844377253 6.370710487467459 0.0
9.541351959064952 7.969072511059531 0.0
9.354607289792183 9.3921968735401 0.0
9.495213435762107 9.37218405175897 0.0
3.77688136092967 3.643094492921176 0.0
5.460967180339239 6.159077196937325 0.0
8.656589552918996 5.283032675040985 0.0
8.599307076390474 5.387421722684671 0.0
9.584017606465821 5.263931993965828 0.0
9.51536593891754 4.977534386249715 0.0
7.788544970111893 2.70578432810479 0.0
7.381746833264364 8.755477463411431 0.0
7.615969996822885 8.852710176548548 0.0
7.783643411970649 8.691528137204457 0.0
7.845017394185501 8.938777577473743 0.0
8.570520580943368 7.342304222498308 0.0
9.103648004226827 5.781084627507008 0.0
8.338082930126799 5.815990105349368 0.0
8.930848895071895 4.561111316304916 0.0
7.381089602119859 5.983657236035151 0.0
8.42066837692862 6.393608568217351 0.0
8.888256157021065 6.459558428285236 0.0
8.826495664731354 6.575679897210801 0.0
4.22522220414496 5.921354747981145 0.0
3.943296448343383 6.075578573904587 0.0
9.563175937841836 2.554860696349795 0.0
9.505342423182917 2.656889632284623 0.0
6.660863480070611 1.168750929063519 0.0
6.518316961679488 1.436478598119306 0.0
6.683474168246802 1.694104067636375 0.0
6.376799057174731 1.707382100972048 0.0
6.205091481342603 1.443621641108414 0.0
6.058670988071357 1.728841803855816 0.0
5.877457486049096 1.454297236926778 0.0
5.724979192982589 1.756666409586195 0.0
5.529885788012015 1.462283739157555 0.0
9.514953777019835 0.7018468683209754 0.0
8.398665270372675 5.702731562702358 0.0
9.456442249775696 0.5772068858285652 0.0
9.565795671866349 2.345573662774494 0.0
8.830758563027459 9.247271599108435 0.0
8.523580738257648 4.88015211128435 0.0
5.580123316488715 5.701889892660689 0.0
5.398591029446707 5.685938459654249 0.0
5.367686360823392 1.778740548277203 0.0
9.546603444041448 1.754984055696778 0.0
9.489649223089446 1.641312329051244 0.0
9.617973952467912 3.363804764345866 0.0
9.584322830999731 6.729956156156573 0.0
9.597221861144487 3.948534024289882 0.0
9.49401963819799 8.089507968561776 0.0
9.207321074262563 9.416906871900888 0.0
8.27185428346661 4.464932191097996 0.0
8.207416067213774 4.35878753684812 0.0
8.332747746635944 4.354903699457511 0.0
3.990181919126853 3.930792395858886 0.0
8.267392138262498 4.254008221702929 0.0
7.997788712685495 1.196805377512679 0.0
9.600316638269724 5.639973985281733 0.0
9.550939606739425 5.737313319038155 0.0
9.44084303195315 5.74233753256161 0.0
9.50112296154558 5.834555019909565 0.0
8.897429225733994 6.685415510921676 0.0
8.762930941408914 6.695907295903629 0.0
8.654628175336732 9.278157371342388 0.0
8.544676900803436 9.133790942553834 0.0
5.294904777716057 5.855935872688884 0.0
5.216749389964556 5.66865685845661 0.0
9.508453581298625 2.239460033375932 0.0
9.599691370793206 3.169496930704394 0.0
9.546615051106684 3.073514534194011 0.0
7.484714626923596 5.028675123117963 0.0
9.588496050271255 7.850836295555126 0.0
5.153197381012662 1.471340286561097 0.0
9.433168304679345 3.071871997104804 0.0
9.610464706874994 5.829217654498672 0.0
9.561407772947403 5.926179534044419 0.0
8.273381980676042 5.705233340662362 0.0
8.330794188929296 5.594351887246082 0.0
8.207319603076424 5.596747949305344 0.0
7.251338559467102 5.233758892662348 0.0
8.708518799790543 1.130513882092466 0.0
9.590155250193266 0.5878623138195824 0.0
9.389919385420015 5.841079912164009 0.0
7.991397852194216 5.859910582924319 0.0
9.624951589233206 4.975554514425905 0.0
7.240016788025947 2.531866266726309 0.0
7.635666783493215 3.873554782053258 0.0
9.608476620993713 1.863530872936442 0.0
9.365330459496413 8.10677840682376 0.0
8.775076110585598 2.572737931759856 0.0
8.699389445914996 2.444602334375113 0.0
8.625078713232146 2.580891022578613 0.0
8.54447196848446 2.447624719286678 0.0
8.468898498943965 2.586757328881282 0.0
8.62282309213608 2.307826916202421 0.0
9.622102662978762 6.439307895185218 0.0
9.561995355724862 6.35103962032292 0.0
3.898245450818314 1.856155797593496 0.0
9.681759177700954 5.07069253017652 0.0
9.059254996454502 4.963357716933865 0.0
9.113144532326562 4.861710138088372 0.0
9.62140874877204 2.656009146517733 0.0
7.884510615470827 0.9666888912541309 0.0
8.14902661050739 1.005010215149227 0.0
8.491263206618079 8.527197931363634 0.0
8.408859203395778 8.697060715788105 0.0
6.54422152733529 1.954566069381189 0.0
9.563546573097593 2.755667904356369 0.0
9.453065492925557 2.761122255953964 0.0
9.676889098520615 2.755084315170127 0.0
9.678287124781653 2.556838324720633 0.0
2.60254317790297 2.278874965850319 0.0
9.211706272534968 4.050470567310489 0.0
8.526711683538949 5.698821878547752 0.0
8.296604023060945 8.533761944401608 0.0
9.649704314258118 5.543946557831669 0.0
9.651176136337964 3.85122804518279 0.0
9.44590154800397 9.498503704959054 0.0
9.580491248736612 9.476376347552954 0.0
4.3239388803087 3.921156392977062 0.0
9.65737873521736 3.075324100817917 0.0
8.128000846282253 6.160273991836929 0.0
8.06242981852327 6.292371360998262 0.0
8.500465019503922 1.442700595221201 0.0
9.615253212967009 1.649819368149096 0.0
9.561768620580791 1.538553925606111 0.0
9.435477757657937 1.527391516499924 0.0
9.627993450010088 2.242685831452484 0.0
9.5338252733548 0.4673994795805215 0.0
9.398055066504014 0.4589059948533885 0.0
9.669486082509058 5.920177035588319 0.0
9.621072177439727 6.016493814615133 0.0
9.506185962103057 6.018397021409126 0.0
9.196884440497488 7.898824858961557 0.0
9.112591143666748 7.789491461180181 0.0
9.664357762385308 7.950712034233033 0.0
8.46233617997115 2.308903464128035 0.0
8.547917980328803 2.169381684694277 0.0
8.139931430059324 6.410762600521521 0.0
7.672499127532963 9.099143622036436 0.0
7.91372855627271 9.178704612763656 0.0
8.463425076318451 9.290653726808348 0.0
9.643938029094286 9.335632419679458 0.0
9.647017668702574 0.7068996148634754 0.0
6.241662276606473 5.884018212993202 0.0
6.157742245066693 5.73500474100449 0.0
6.318815619949124 5.730068085823802 0.0
6.247706374231452 5.593094310939028 0.0
6.406948541886973 5.593272398468375 0.0
6.092564106310554 5.587409338401505 0.0
8.535507922245372 5.286142900439676 0.0
8.022959839404006 4.471630490587016 0.0
7.963561162854596 4.581393556789843 0.0
9.683487139413305 1.546750704925431 0.0
9.630761777960082 1.435922217091829 0.0
5.121714348989337 7.950140247572198 0.0
5.136464096196084 8.310254432483559 0.0
5.47349124035624 8.455234262268478 0.0
5.176273618280354 8.687190323573228 0.0
4.796664658962938 8.592678692862421 0.0
9.568705729418735 4.887269869750176 0.0
9.462711651199594 4.88832222094458 0.0
9.674903475028225 4.882285174433025 0.0
5.4996067353406 5.546583260717527 0.0
5.663632234555963 5.557613452957074 0.0
6.829408195405585 1.947174574944512 0.0
5.336529198289861 1.127585641139875 0.0
9.672387559812332 6.34138351957329 0.0
4.463988917379896 2.271060678869338 0.0
8.618048281355405 6.263841736419089 0.0
6.480949808711781 5.74815588680617 0.0
6.562207427719153 5.592185077216444 0.0
6.643040463857446 5.721233693378952 0.0
6.712825900331884 5.588664360236 0.0
6.79240375630333 5.711383948285569 0.0
6.86115931532141 5.584697050428064 0.0
6.939210100691576 5.704407337029545 0.0
7.007668476576536 5.580801046893123 0.0
7.084627386867475 5.702817970154801 0.0
6.633257976075473 5.460881327825488 0.0
6.931430743764456 5.461960451448691 0.0
9.682652370938209 6.533133024505995 0.0
8.761108695241376 9.450742747770144 0.0
9.146031326900015 3.764292700000154 0.0
9.089378801805193 3.661317181076136 0.0
9.514354521818781 8.994988681611192 0.0
8.157650730500988 4.262987189670279 0.0
6.329633198899328 5.4647789391701 0.0
2.340685767996258 2.811285337457589 0.0
7.379572471323651 0.9290892725587991 0.0
4.171878172186605 4.222320767259098 0.0
4.4876601621649 4.16473354200826 0.0
5.336389369563535 6.806464508860387 0.0
9.595468321212476 9.108133206829102 0.0
9.645038675267227 8.982113951305912 0.0
8.393140678816192 4.246338342095281 0.0
8.309440721624494 4.155300532283633 0.0
9.418269339704423 1.9925512363779 0.0
9.662781807969623 0.477809346089035 0.0
8.011297869803792 0.7518828483803571 0.0
8.250149975885678 0.7646904662196189 0.0
9.608674873602773 0.3618049194050078 0.0
8.692696069692623 6.582927327365709 0.0
8.628225948401226 6.705702462696891 0.0
8.701883181418305 6.822086652299242 0.0
8.559276855155542 6.829564723911442 0.0
7.069268463354993 5.459534423493629 0.0
2.654575201159115 3.323490466195074 0.0
3.610801136544596 4.044075244426243 0.0
8.263757217166944 5.48730323490738 0.0
8.138838162809126 5.491254533497952 0.0
7.90196833683664 4.477386962763833 0.0
7.987943097943191 3.978756490171551 0.0
9.704623491880403 3.945605151832784 0.0
9.461009573830147 7.301728818091931 0.0
9.532468631193666 7.399916015174975 0.0
9.582688928417856 7.292330983701011 0.0
9.652579613269625 7.387768793572397 0.0
9.699264016151023 7.282867433965265 0.0
9.633305589700536 7.188543855060478 0.0
9.505576100168666 6.961225778216469 0.0
9.43876966151099 6.342441564206569 0.0
4.908483672172518 6.098703904450545 0.0
9.135448256237908 5.269827196966999 0.0
5.905650502271389 2.025036080946255 0.0
9.709890722072377 9.452748507541063 0.0
9.663337613522643 9.572126259365891 0.0
9.603900123387826 7.495180532331903 0.0
9.720147629525837 7.483400774981126 0.0
9.674588415444239 7.588303295299578 0.0
9.653186673863587 4.039274180923234 0.0
9.053164539680804 4.764545162185531 0.0
9.164908495749003 4.763017269285045 0.0
9.226019227262443 4.858029410614327 0.0
8.809947621994619 3.4964384919072 0.0
9.10538997155458 4.665865142902959 0.0
9.331074106432244 5.748993480915537 0.0
9.055854333858068 7.918554535314415 0.0
9.446431573964945 8.209836764658437 0.0
9.573844810886287 8.191100251691205 0.0
9.309704769895653 8.244395007943949 0.0
7.240329561730736 1.676197957122907 0.0
9.543389817573933 3.660019800390455 0.0
9.598599341122098 3.563130123982772 0.0
9.652615161407017 3.658119804270645 0.0
9.706336063693934 3.564815526226687 0.0
8.632284427755456 6.946688912416058 0.0
9.682863230715835 2.349655023034811 0.0
9.571538455120994 2.142369886250143 0.0
8.090821900439733 9.017409120951333 0.0
6.812258669899192 0.9007667548831626 0.0
6.50135254578461 0.8974046495177885 0.0
9.598335906230732 6.246437748035812 0.0
9.719677442549804 6.253968775436637 0.0
8.593026822691716 5.180101360605356 0.0
5.537586126848265 8.836083861509138 0.0
9.688689404995035 2.143487155934306 0.0
2.821389253975936 6.507820864074362 0.0
9.176571289960709 8.507736431357309 0.0
2.918303740542162 8.256728920338826 0.0
3.428955230180972 8.401446814887457 0.0
8.490587404589881 6.715350139132777 0.0
8.86049054904785 7.243279881821806 0.0
8.93696309213556 7.356650230611625 0.0
3.951931175165697 5.78308550088855 0.0
3.65055612573298 5.91672400098539 0.0
3.668142216548471 6.247526235973777 0.0
9.717269848920886 5.821831227352286 0.0
9.708364917734201 3.164198601626433 0.0
8.45581975650687 4.569560863828342 0.0
8.204448312099833 6.040774355519757 0.0
8.65969449127868 5.485991799508151 0.0
9.707534571012967 5.634423933296901 0.0
9.62102991883279 2.849662850313935 0.0
9.144093558002634 3.560383427867003 0.0
8.29763273805118 1.77155302934031 0.0
5.280452715709455 9.01633391004168 0.0
8.984558945859158 6.99932633710603 0.0
8.4157550875812 1.275784953143711 0.0
2.068078118650995 3.355462780535101 0.0
9.205703884756806 5.568274778556933 0.0
9.745857863753141 7.178456670302003 0.0
9.681628895748586 7.081494416756802 0.0
8.875818787971069 6.240744812097083 0.0
7.993733797566922 6.414830952863579 0.0
8.462810157069566 3.377071044664789 0.0
9.29428363519789 4.759591981903337 0.0
7.933956818298286 5.97437536746848 0.0
9.028281726378319 3.558713145763133 0.0
9.083461773461467 3.455531762175701 0.0
9.73231939683535 2.849247643393067 0.0
6.70072305037728 2.192432536215492 0.0
6.423245125077639 2.212870246546939 0.0
4.931537051605536 1.135086496804522 0.0
4.746426561586179 1.500381091957315 0.0
9.707706579932626 7.836419656220658 0.0
8.590593344701457 1.595639668013959 0.0
8.708946574109854 2.1688179918246 0.0
8.634728854549891 2.028564483452208 0.0
9.230357659411311 8.129337203173913 0.0
9.102841374461482 4.452881308250647 0.0
8.472081531214734 5.388993924853032 0.0
4.925996806199801 5.844046944846857 0.0
4.702806345752284 5.745688656289065 0.0
4.884357002239844 5.633237011762874 0.0
4.709628434300812 5.536404116679045 0.0
4.530800966746534 5.627044171217377 0.0
6.040296145349247 6.603808099703576 0.0
6.162203578696918 6.795213950202512 0.0
5.923135943221574 6.824060069869489 0.0
6.046693245732212 7.010423490915212 0.0
6.297337598588478 6.979895528204233 0.0
7.760448385794147 0.7294020304851334 0.0
8.492228348169641 6.958778476405878 0.0
2.89219822877093 1.704113597264478 0.0
2.26178643438086 1.7814602252425 0.0
9.726968895980871 6.009547057102511 0.0
6.63195110828313 0.6072886418835157 0.0
7.984023036954866 7.515675826210831 0.0
7.893857204140559 7.681876703427663 0.0
7.778465117872411 7.537836322197895 0.0
7.998204230811618 7.844922503023499 0.0
7.798554315988981 7.858161805718108 0.0
7.917846202023782 8.03040048103727 0.0
8.547520504556728 2.721261126162116 0.0
8.39253850806587 2.732073315877738 0.0
8.306047241032278 2.59069854402512 0.0
8.233011054235162 2.739783364361515 0.0
8.318836035587811 2.879838477099622 0.0
8.159530874574331 2.888511553151382 0.0
8.245490421394788 3.024568439743106 0.0
9.759103003747676 3.077839427881478 0.0
8.083610090773394 3.033523757291178 0.0
8.174562583800352 3.166768504406541 0.0
6.046769434852523 1.155662270344939 0.0
6.968371001421964 2.176347877216873 0.0
8.324858098380334 3.152966249334499 0.0
8.145556596142626 2.609897633546475 0.0
8.970652052821418 7.804556541250797 0.0
9.033737629244714 7.681328986528639 0.0
9.62347010002576 4.796939565664328 0.0
9.72520380348743 4.790261082613535 0.0
4.882631186210167 5.455006233451049 0.0
4.618356368594037 3.933076284395493 0.0
4.748083507220199 4.151025177732873 0.0
4.641724290430313 4.358202249373887 0.0
4.87055838101999 4.337900676660481 0.0
4.974114446887331 4.149149057174687 0.0
5.081577844806959 4.3240148266423 0.0
5.179521650033781 4.148725180298481 0.0
5.276261408871418 4.316673822529601 0.0
5.369189110897883 4.148362797753505 0.0
5.463892033849439 4.338819369807593 0.0
5.550828466075906 4.146274465971151 0.0
5.646554822352869 4.303571429647391 0.0
5.728109623160046 4.138582010823754 0.0
5.821689108984419 4.291959598724587 0.0
5.906082534948073 4.141649907302701 0.0
5.99655838673762 4.288752711512514 0.0
6.077312859438928 4.141011188943332 0.0
6.164215275138099 4.281164574562373 0.0
6.241782344986693 4.140701084167517 0.0
6.324316420613108 4.277393447415522 0.0
6.40284165425941 4.140026953305852 0.0
6.483655157361099 4.273418937894759 0.0
6.561170698911611 4.136221843106807 0.0
6.63512300179586 4.269917278694155 0.0
6.720306110251473 4.133393659385058 0.0
6.63777078218551 3.99617001426095 0.0
6.802492763973074 3.994355399489989 0.0
6.798834760478153 4.276914787769972 0.0
6.15377608509923 4.000134206628027 0.0
6.548727135071258 4.400510710520637 0.0
6.251479300130713 4.421887359316258 0.0
5.275876048175579 3.979624500657822 0.0
5.910905077162284 4.431174408784691 0.0
6.717070288412452 3.851239795555301 0.0
6.883499045994213 3.852555480300214 0.0
6.96664848901999 3.994033961856844 0.0
7.048208567116626 3.854750001965969 0.0
5.810004974283072 3.982497501655442 0.0
5.586615391658107 4.471070246359201 0.0
6.547331954052155 3.853872077215347 0.0
5.179081233207816 4.485638492900557 0.0
7.126615227065496 3.995337770596979 0.0
7.209459742762513 3.856893463870469 0.0
7.130226097876905 3.713620439679428 0.0
6.63075064074106 3.699684148676045 0.0
6.446985573861992 3.697358756862005 0.0
7.043151422977365 4.131713936060725 0.0
7.198322215260019 4.129850614748363 0.0
7.119378405252723 4.26005098890218 0.0
4.797146270976422 4.525762781577414 0.0
4.608329098388589 4.573584257851931 0.0
7.294442092743627 3.720853338661503 0.0
7.215753312764997 3.571378507508807 0.0
7.049631633956289 3.568047985538775 0.0
7.133765707749521 3.414282375958479 0.0
9.755079417839903 5.539705890434435 0.0
9.698955703441971 5.450920012703194 0.0
9.717604099406742 9.09084770432896 0.0
9.276716006673976 5.847248422342224 0.0
9.339081208926798 5.941174203394446 0.0
9.031261921742963 3.750271483819014 0.0
9.08721978689863 3.853416037308712 0.0
4.801461566647803 7.510704110489921 0.0
8.206553504932042 5.818005960412773 0.0
7.362361315389098 3.863102442315545 0.0
9.492826845316191 2.963845037486267 0.0
9.376710375304633 2.97229517374228 0.0
9.3192743723601 3.070687802230453 0.0
7.915389082113898 6.293241865913004 0.0
6.735006382384437 5.832450056405368 0.0
8.456481836836168 4.35369289249905 0.0
8.517718268476031 4.246675068616396 0.0
5.583512022030555 5.411069060406398 0.0
5.73625200174779 5.422617752052123 0.0
5.81006929286229 5.548584937688919 0.0
5.903438861894402 5.420604003204523 0.0
5.43801870974416 5.402925156167655 0.0
7.022641548594327 5.825217331839047 0.0
7.165095795605366 5.826005223633447 0.0
7.223078558430726 5.690146755650336 0.0
7.841396000338385 4.586693006493787 0.0
7.904793170875705 4.690826189066096 0.0
7.785999820520073 4.696719777099973 0.0
7.846448506395101 4.798518978096564 0.0
7.728149182067156 4.803800941124008 0.0
7.788983823826226 4.904802634695232 0.0
7.672018889153144 4.910077510508749 0.0
7.731996012352178 5.014717724244488 0.0
7.852072803124419 5.00743796185411 0.0
7.779278698005006 5.118909346425974 0.0
8.088113864063853 5.605434545811022 0.0
8.016457362785575 5.494849890158723 0.0
8.072290383394757 5.385594956317259 0.0
7.95068657972964 5.38825563681957 0.0
8.309366678475389 1.438342408757099 0.0
9.748160780780179 1.447794693754379 0.0
9.696454228162398 1.337889922375316 0.0
9.568813761940916 1.329560834053294 0.0
9.638326779791626 1.226729570935787 0.0
8.472132467407484 5.182856496818138 0.0
8.066211547412054 6.53691730655352 0.0
8.217035586462373 6.522976700918602 0.0
3.544839338670893 3.324491119989469 0.0
6.999740002965287 5.347729916247808 0.0
6.874544698914502 5.347027470386579 0.0
4.880451234715014 5.193043717957879 0.0
9.104510033763066 9.313204713465637 0.0
9.0466357104558 9.45359399494339 0.0
9.146803165140184 9.569652364413551 0.0
8.134107047896672 0.5527712356100052 0.0
8.369770412730738 0.5571215815175228 0.0
8.47386979744655 0.7564607169846485 0.0
8.585193608569258 0.5749174254532757 0.0
8.683868132726584 0.75505070091701 0.0
8.787381435061018 0.5813987798627239 0.0
8.697570280442534 0.3771156480326233 0.0
8.530048434259976 5.077280516000916 0.0
7.995091351438729 2.90367515012593 0.0
9.731083608815164 1.662638626153251 0.0
7.260488865351954 4.255073962371814 0.0
9.760728358076392 8.990038509880067 0.0
9.716710396257366 8.884160310398862 0.0
8.794627466210242 7.369659405098349 0.0
8.868068657550866 7.515048014893154 0.0
8.702594597629135 7.510501129643432 0.0
5.132320689147051 0.7610757801158905 0.0
9.755852887652699 3.853180024615871 0.0
9.787424819067885 2.757921105725315 0.0
9.731193479931608 0.3736343090103709 0.0
9.796526908308536 0.489684029254899 0.0
8.226019692057042 2.453349105940535 0.0
4.560989821496479 5.428206018250252 0.0
4.348810639659689 5.517048281386008 0.0
8.785190163106925 7.119142251269924 0.0
9.015515413043023 7.464769766852701 0.0
9.754861440190705 3.659036930324926 0.0
9.7543610723378 4.033687839160082 0.0
9.707881226943384 4.127219992296752 0.0
9.52841017383273 8.309020665649431 0.0
9.65186044414544 8.289498614805698 0.0
9.714051275521857 8.173576484362068 0.0
8.209758892476394 8.715513071423135 0.0
8.097084883671858 8.548851201381087 0.0
8.177989947800599 8.367872862579052 0.0
7.974142434808908 8.36779470623567 0.0
8.409012054919861 2.142624252464372 0.0
7.707002321497132 8.039129945341395 0.0
7.574653123518228 7.83895791570255 0.0
9.229858094382692 5.951357214361815 0.0
9.75307989876696 1.229893222503321 0.0
9.715811155868643 1.128779429890018 0.0
9.597960915003707 1.117058287635912 0.0
9.672063923518955 1.020806103150243 0.0
8.99090422125785 9.593878510105375 0.0
8.133165456134304 9.257620998029804 0.0
7.976779931497633 9.420725324095141 0.0
9.77231778617502 7.927819487779705 0.0
7.957213679655531 4.364530256281665 0.0
9.609903116082736 8.403725680286847 0.0
9.724891358972584 8.388392708395173 0.0
9.687487059868507 8.495935345161797 0.0
9.810055520269009 8.494090598382963 0.0
9.755967487162335 8.599790818513082 0.0
9.645698986824481 8.606121319182705 0.0
9.721376049217765 8.699989876681524 0.0
9.773009257015609 4.884557953188837 0.0
9.830105798750992 4.796546393900876 0.0
9.775335108731761 4.686093304257503 0.0
7.455611517737074 3.730099283949135 0.0
8.906943567829634 0.4197477661467797 0.0
8.980613334153533 0.5814185917581446 0.0
9.081059111759728 0.4263421860552371 0.0
9.821654809259165 3.576985724143072 0.0
9.761309244784803 3.4792267780002 0.0
9.763329553045937 9.353068233045157 0.0
4.463051839136694 1.164440352584939 0.0
8.0213168204867 5.283436382300235 0.0
7.89385412333227 5.290429544753158 0.0
5.806940001023414 8.583716119232427 0.0
5.88977793877374 8.96065112858812 0.0
9.177759062826041 8.25539130897928 0.0
9.626582559276994 2.05283181283147 0.0
9.747673294325121 2.064954301745188 0.0
8.775905508647185 6.951821187702613 0.0
2.3581644273991 6.029034686663493 0.0
9.777798009058461 9.548066962498762 0.0
9.737129197219856 9.662299853506903 0.0
9.615080366030512 9.683349544763068 0.0
3.315839678697904 6.042943273456425 0.0
8.915083018115329 7.937748428923896 0.0
9.489832173860055 4.712364754630572 0.0
8.118313727862493 8.013944064029838 0.0
8.902248750797776 7.67372145952523 0.0
8.954075939212636 3.463080912810881 0.0
9.45247551997678 2.133243108303608 0.0
8.311151553157742 8.899233004613622 0.0
3.28672004268868 6.826745674539142 0.0
9.86008383798735 3.468233656255824 0.0
8.389990589860254 1.947086063498656 0.0
7.144231739553659 5.329544660076687 0.0
9.654500729007207 7.743301971143119 0.0
9.761920842881946 7.740144345898896 0.0
9.692820773976567 0.2651585113981998 0.0
9.690951720399688 6.100517071814821 0.0
9.775704281989471 6.077882312279847 0.0
9.823117117198079 4.115168542267924 0.0
9.764391943581737 4.214465954230587 0.0
9.659455011849253 4.218716850797838 0.0
9.713462125022623 4.30742830316693 0.0
9.849638067150842 4.208845651573708 0.0
6.376241713254513 3.858766051594979 0.0
6.274931849158213 3.701528298009006 0.0
7.097780104117746 1.926449727602711 0.0
2.457742027508782 3.810157622192786 0.0
2.963634206580268 3.740748099915693 0.0
5.065585416063965 5.544355730437482 0.0
9.783560252464587 7.566507987677117 0.0
9.825819294611026 7.470942204664841 0.0
9.799976114123012 1.01659516618323 0.0
9.745559590633832 0.9150866860898854 0.0
8.20473400632469 9.495828670767946 0.0
8.784586030320169 2.054461500762216 0.0
8.758471587067168 1.888286802854785 0.0
0.9188935087347281 8.510730800272478 0.0
9.674192026048217 9.20389587377276 0.0
9.796314981283475 9.185916994648775 0.0
7.206882433199502 5.452024361489832 0.0
9.773927048949279 6.334665846819535 0.0
9.830288393591173 6.225300227041885 0.0
8.25177349297509 3.282767705830209 0.0
8.099233469407428 3.304040153764131 0.0
9.607860512870598 4.315652630490023 0.0
9.403674738018715 8.367349042046314 0.0
7.611756786273919 5.018691202305147 0.0
7.549513964643336 4.923310232561835 0.0
9.80986724662116 0.2915868356190958 0.0
0.7757562810577034 3.504187313079081 0.0
7.659562100664981 4.698467529240196 0.0
6.539424975891206 3.541729955691742 0.0
6.717348880400739 3.55221857686142 0.0
6.836337579501807 2.417476958454302 0.0
7.096480496160066 5.959124656438389 0.0
7.189742782777612 4.377051328076039 0.0
7.051723187622053 4.38470822973091 0.0
7.125489805519186 4.497018383456762 0.0
6.994915621927777 4.501504591168814 0.0
7.056755276274058 4.607929817497045 0.0
6.932937068803914 4.613249390039674 0.0
6.86629288290367 4.50541343988659 0.0
6.80427099775847 4.617607827251794 0.0
6.739195362053689 4.511124964201849 0.0
6.677260697693361 4.624288827143181 0.0
6.996760608675822 4.711715831373894 0.0
6.316045249462968 0.6456945497683586 0.0
7.321834163850416 5.816449323512759 0.0
7.833101485370825 4.390058096386987 0.0
4.996572652976738 4.498711166259074 0.0
5.112334577457371 4.663858846723513 0.0
5.271923064784868 4.629759173373871 0.0
4.93773508827367 4.668006487116195 0.0
5.348137647919096 4.485934621930562 0.0
5.413454827497575 4.62999925573761 0.0
5.356581113747675 4.770594395332836 0.0
5.013422223730484 4.793321773780133 0.0
8.58674425943957 0.9312335381466886 0.0
8.776450596582496 0.9362399987293505 0.0
4.783496233934828 9.486061758876032 0.0
4.544176394620909 9.034071856445296 0.0
4.082330493623582 9.015765881393772 0.0
9.820867469965414 7.285959215547852 0.0
9.852697883440127 7.166089674802766 0.0
9.260999083164238 2.971390964911171 0.0
9.197701900169713 3.073162109379564 0.0
9.31960210441945 2.867465579641856 0.0
6.660951583415121 3.383363199709994 0.0
5.210469976037585 4.761678854423166 0.0
6.740780285297665 4.733615686805694 0.0
6.611362405615225 4.731958642073806 0.0
6.549091884465382 4.629620704100811 0.0
6.491761716522486 4.733409494449344 0.0
6.425259228542098 4.640546096196947 0.0
9.715556659367534 2.986725573570596 0.0
3.710524324925069 9.463213827486557 0.0
4.768537031214573 4.727001037865238 0.0
5.039413681704655 5.378508462165627 0.0
5.188746429211535 5.440476671296013 0.0
5.172214816037712 5.298914527247826 0.0
4.469063601436893 3.667917323494335 0.0
3.799121596584382 4.741629285988305 0.0
3.661085664896249 4.442847704416992 0.0
3.316563386321876 4.380147387454913 0.0
3.802087298647255 5.26743535640985 0.0
9.738116341343215 8.047178982429934 0.0
9.85106076399546 8.021725551312715 0.0
9.837581050304836 2.844176011307251 0.0
9.664579962075123 4.402853107737106 0.0
9.76433159763034 4.39807801415352 0.0
9.718924973226878 4.487825491046641 0.0
9.826405563645343 4.494594135148365 0.0
4.931068003413168 6.359330991212394 0.0
5.130175746947236 6.201075257041828 0.0
5.143884286052002 6.445382329515047 0.0
4.953395875296406 6.628748468717369 0.0
7.833019185167153 5.400347121613631 0.0
7.766636138801143 5.313240048256084 0.0
9.767038723422333 4.578090619166644 0.0
7.315369355237483 3.441501197259575 0.0
9.556068971301514 0.2347811136726856 0.0
5.733871280791703 4.444861510772459 0.0
5.828809543126846 4.569791247698539 0.0
5.986701526182213 4.562881783985375 0.0
5.912543327921148 4.692966271273211 0.0
6.052130330528581 4.682477327897978 0.0
5.773525984744635 4.697697018456535 0.0
6.121646311546238 4.572302645403103 0.0
6.182349700936326 4.67713231096357 0.0
5.846371383601797 4.808939734754761 0.0
5.117807918383606 5.974361363083184 0.0
6.256132501905665 4.575863546153224 0.0
6.324770064521816 9.645040261272253 0.0
7.345522892050965 4.12581088034536 0.0
9.338523512844539 4.854480276600515 0.0
9.286984287289403 4.959628690044808 0.0
5.676298026114105 4.589279806918992 0.0
5.631257891894775 4.722749088404111 0.0
7.970415275563177 5.621040275419208 0.0
9.565118337557308 7.081391220827488 0.0
9.626201005045262 6.980441083020495 0.0
9.733729506193331 6.979928568877979 0.0
9.684556253529976 6.887102896543928 0.0
9.780785815410074 6.890287441101827 0.0
9.740054813822885 6.794211367612523 0.0
6.462628988057306 7.629921412015864 0.0
6.692564520952154 7.473594130811262 0.0
6.927983108788191 7.570982428592125 0.0
6.899878641134941 7.329306734748538 0.0
7.117542472438434 7.416951094809493 0.0
7.089537168123128 7.186691566729968 0.0
7.296585396514727 7.275888419524222 0.0
6.879678873774065 7.097443005287856 0.0
7.063454637059129 6.967740076426161 0.0
7.329105042924355 7.496317641003757 0.0
6.867084781778411 6.878842928865059 0.0
7.494278796275744 7.351949197351029 0.0
7.462564159480594 7.150140034494138 0.0
7.644835001206406 7.21506678718646 0.0
6.682478929414216 7.008358327294905 0.0
6.449199855715812 7.365660640952548 0.0
7.548139855358765 7.57299228324251 0.0
7.008502809092701 7.844601794812628 0.0
7.371739019901781 7.707688433423657 0.0
5.665345294602155 5.290628720253272 0.0
3.987583013016546 4.486920698115711 0.0
8.893480480320447 0.7785000884179994 0.0
9.715485963651112 0.5955299613117169 0.0
9.761785841543585 0.7048670948649375 0.0
9.670304314877074 4.578896619304786 0.0
8.058509626083154 5.744161686650483 0.0
6.181795443628869 5.462040811515966 0.0
6.256771804808641 5.338464817889848 0.0
6.124070400983443 5.352376180901929 0.0
6.399679261813415 5.349186390888865 0.0
6.477776305607503 5.46505688468465 0.0
6.541624525938461 5.346017118512589 0.0
6.673064575428321 5.339051516933525 0.0
6.599301548842115 5.241958624987057 0.0
9.573774011620444 0.815274945835158 0.0
5.86493292693426 5.877588788523632 0.0
5.552663040119136 6.957487930464628 0.0
5.535080960199246 6.663033131707637 0.0
3.708603689392072 0.5979254716153909 0.0
3.31896983256719 1.188583855309964 0.0
3.895664898001925 1.128137111173669 0.0
6.363360407965353 6.032416442205533 0.0
9.445959758065749 1.070139246426051 0.0
9.50632172780449 1.214052376665338 0.0
9.441030033980638 1.325047485624912 0.0
9.295799464644857 1.341410624832976 0.0
9.184164107767781 1.461677744200096 0.0
6.407191016756832 4.407273313799791 0.0
5.544591888593027 0.7652641669375747 0.0
7.883090151006535 2.497506182548758 0.0
8.073420508370992 2.120510489750234 0.0
5.494822040671399 4.732314720081375 0.0
0.8986976806403217 1.464611451578306 0.0
9.536325549598013 6.83286654168725 0.0
5.972289519322897 5.727532110854501 0.0
9.82203607053145 9.443411729566549 0.0
7.263199949874008 7.064207941227515 0.0
7.233659553805083 6.853135694774254 0.0
9.793310082768443 7.072747972018893 0.0
6.734168931095253 9.67499220075154 0.0
6.941134861034159 9.382328333169653 0.0
7.285822522704258 9.443989747444657 0.0
6.576263515512108 9.333035011158342 0.0
7.160560566479093 9.127732577621245 0.0
6.218711947378506 9.298064908857533 0.0
6.432383355119106 8.980985203293491 0.0
6.795390278360442 9.046043538032663 0.0
8.54677014121837 0.1957422484480979 0.0
8.528696320820908 9.804850950580938 0.0
8.42644965647489 9.604735484095604 0.0
8.010239224104339 9.715048083583248 0.0
8.644359648763341 9.628432815860457 0.0
5.344212921686536 5.526744195650314 0.0
9.760936589662048 7.38409687515441 0.0
9.128187788393989 0.1445485608215519 0.0
9.133307661752394 9.854833215426817 0.0
4.867351616228264 3.944459575003425 0.0
5.905323253270366 7.385600364255367 0.0
5.909045412185362 3.361969954191194 0.0
5.80580919758911 3.569999290452344 0.0
5.578230704221431 3.587842862412673 0.0
6.013352753603037 3.550699073477782 0.0
5.936624955014758 3.721630401607248 0.0
5.735413275357409 3.78528948606432 0.0
5.512538847486775 3.794760621907932 0.0
5.360571639388366 3.618649018042938 0.0
5.134141179590394 3.459385929220745 0.0
6.167399567008798 3.367365990358096 0.0
9.766756262206602 8.291756450136036 0.0
5.486063578307141 9.64505925252771 0.0
9.497624614180321 4.328873442170357 0.0
9.811387324954623 1.570516917365688 0.0
9.389210081887331 4.69150887571586 0.0
9.704395728912932 3.754226393630331 0.0
9.808172776193384 3.748784464356272 0.0
6.549660911932182 4.839747932361234 0.0
6.757415124099031 6.077939876843736 0.0
3.805578542126494 8.040840085419626 0.0
4.232580149691158 8.198659880701744 0.0
4.559765382564095 7.87091698350757 0.0
8.3829075948167 0.9495097054886067 0.0
9.8571301061408 1.456307792614791 0.0
2.005900212453279 4.535525273813588 0.0
1.85904408608185 3.956445706785572 0.0
1.979307922430775 5.474327285927505 0.0
4.387923194305381 4.427191306527721 0.0
9.429258370703248 8.873693567695483 0.0
8.99196583083892 4.664567567015693 0.0
3.050357122593155 5.368999067452741 0.0
2.861107385476722 5.785089447130829 0.0
5.005058958272409 3.711196438448062 0.0
9.8972295764837 2.755337284632969 0.0
9.581048890980513 8.853909321617065 0.0
9.668838904423916 1.762418716497425 0.0
9.716576458425756 1.852218615166234 0.0
9.799043132681442 1.780583141193779 0.0
7.661868217848455 2.880323287492419 0.0
6.780136552904057 5.443858690999834 0.0
6.489544866845868 5.913957888434588 0.0
6.880149522020364 4.134257616716107 0.0
6.970134365280068 4.264072319341612 0.0
2.225481516813409 9.348422240784 0.0
1.843418032490818 8.641605249943353 0.0
2.198000805242772 0.6459947140825729 0.0
8.740020306282506 0.1903932731609072 0.0
6.86957996016679 4.720776242956433 0.0
7.430920333506809 0.2702852342693345 0.0
7.302066064947383 0.6134316505458445 0.0
9.305398039877746 4.64854361125207 0.0
4.078151380865065 5.203425462519088 0.0
4.080704120371218 4.778853303303787 0.0
8.052525541571825 5.965483159581719 0.0
6.367194027835946 4.754896037842673 0.0
8.604191121620719 7.648182513679963 0.0
9.546446695207845 9.234701521982952 0.0
9.018652854946867 3.351011585453845 0.0
9.143853648154607 3.350173119015413 0.0
9.067079866763024 3.245174561579149 0.0
8.991492136849105 3.135578770028028 0.0
9.29603967712795 0.1426516429033488 0.0
9.392428271030795 0.2506306237151588 0.0
9.223973843394301 0.2912279164401488 0.0
8.39375191941536 3.018777714002827 0.0
8.4836475746111 2.88135207267795 0.0
8.741089053946197 9.821127577434911 0.0
9.803966507713174 5.448064463539533 0.0
9.748132240148552 5.359371181503531 0.0
9.850258990973547 5.355211921626304 0.0
9.7965346514158 5.266762244994661 0.0
9.84142096963129 5.171050273734619 0.0
9.738843612428232 5.167483913244169 0.0
9.64168976006725 5.359875132194057 0.0
3.335917453809221 5.671837672982919 0.0
6.962669142802881 1.683222554707996 0.0
7.365210844496719 1.887492842536114 0.0
7.517378971174123 1.677983072937792 0.0
8.00383870208024 6.089394601875145 0.0
1.725435941000569 2.759295503019395 0.0
7.907977929549089 5.102827208603365 0.0
8.052861051278896 0.2683271125209605 0.0
9.80169732768395 3.385443381464333 0.0
9.831597648680848 3.28491948963525 0.0
9.736335895866404 3.316207814499244 0.0
9.597256128490281 3.756160701977744 0.0
8.865819925321706 3.366235906378775 0.0
8.489614436807788 1.757152185195495 0.0
8.88089641144391 1.078983279100314 0.0
7.430923851187758 9.724389499796425 0.0
7.584252919312249 9.509430586267927 0.0
9.744026095940516 2.247117754488748 0.0
9.729961521243718 2.659836747108116 0.0
9.790866569780063 2.558993767350471 0.0
9.736606445116795 2.455104424879619 0.0
9.846806182714698 2.452157456754448 0.0
4.518102112052724 5.141350889745285 0.0
4.519880229178207 4.85678334497067 0.0
9.7302407894617 6.434012603549242 0.0
9.787537474544765 6.523591663056312 0.0
9.744262337067932 6.617499601377625 0.0
9.8406238811518 6.41591236129004 0.0
8.914967252734657 3.579360039684312 0.0
9.154797282599406 5.670753066089419 0.0
4.228839454580575 4.612979739018002 0.0
6.095037541675208 4.42126627187728 0.0
9.304166983880842 9.864854494751789 0.0
9.406445527105628 9.759007358529582 0.0
9.256225114941945 9.700832989525724 0.0
9.796206564635622 2.351215649506205 0.0
9.849373673349081 2.25090453834006 0.0
6.332048155295931 3.511675163099286 0.0
9.069679774213784 3.022879178706259 0.0
9.070599961450037 9.055284879641471 0.0
1.808685691036764 6.331557276533421 0.0
7.120156826652838 4.698481230214924 0.0
7.052894345811342 4.799848851879358 0.0
4.739957520484086 5.369107149361242 0.0
9.389197839958292 7.197139943834638 0.0
9.046688232613976 4.560364044038737 0.0
9.162685461967492 4.562194096410666 0.0
4.227377821420887 1.564128177298305 0.0
9.201090975245227 2.794301402811909 0.0
9.251941624303948 2.677556975242327 0.0
9.186758273070138 2.563916005021366 0.0
9.317609833868786 2.560335260954038 0.0
6.57599191748324 2.437689779955877 0.0
6.305556560534859 2.459112595979303 0.0
6.981058048792093 2.642476994448363 0.0
9.886113463139504 6.510498309609482 0.0
9.250462794607717 6.221362629571698 0.0
9.305373999084068 6.108271307139882 0.0
9.390477915810829 6.228015172491477 0.0
9.44452571968143 6.114582165110393 0.0
9.502105740270528 6.197677857389309 0.0
9.31559697209813 6.331647407124485 0.0
9.370938253597153 6.437386206819511 0.0
9.594764406124872 0.1099001288712305 0.0
9.602872681151728 9.894988341116305 0.0
9.622661196143387 8.076680696281343 0.0
9.769069277144705 5.9102532189237 0.0
2.615076109785583 8.807551523115547 0.0
9.658920005405456 5.730890135691177 0.0
9.76063135061807 5.720703211793342 0.0
8.63963723169499 7.177334225227945 0.0
7.841904391869763 6.41346852896409 0.0
7.764520718520185 6.297267738834625 0.0
9.546492996136271 3.465225175657335 0.0
9.25600964352143 2.219157062786616 0.0
7.625057159226293 7.012987957636062 0.0
9.529121062829038 7.730283486008674 0.0
8.329887090625894 3.845190321147069 0.0
8.265841850823831 3.95687001944245 0.0
8.402006523775544 3.947660780406651 0.0
8.128436391670505 3.968543393650448 0.0
8.46705122470662 3.835767362024195 0.0
8.218867047074696 4.063481375518748 0.0
8.089763413611255 4.08062363292928 0.0
7.939578083855268 4.111915744184436 0.0
3.74991304509639 6.615676756107112 0.0
2.627714335615619 1.170993030860914 0.0
7.046129971268607 6.759930788612616 0.0
8.534603732661887 7.486325780553722 0.0
1.569381386467569 2.042794535871475 0.0
6.228703743210918 1.986421863690014 0.0
6.467030855792859 2.67190498312861 0.0
9.272246093269825 1.975478263632296 0.0
8.05269609263041 3.854522845257449 0.0
8.008595521536957 3.177870309354594 0.0
7.929796740504207 3.350600835935766 0.0
8.048703574664067 3.449582532910417 0.0
9.72947480375618 4.973926800124758 0.0
9.784850360535604 5.072865219810449 0.0
9.896036387646596 5.069261557893528 0.0
9.633140953203334 5.168645132864771 0.0
9.558102991128836 7.602453108835212 0.0
7.278758746505716 3.994295887299482 0.0
8.306681733482405 6.936428510427854 0.0
9.487163072013963 3.757777670075558 0.0
9.532950522284125 5.359403698944497 0.0
9.816036650072329 3.927268437107025 0.0
6.173882586235392 8.734645960664665 0.0
7.972518459433741 5.003005338485466 0.0
8.398453459336153 1.601072016988848 0.0
8.97460527296194 4.040886705742754 0.0
9.037941657530773 4.143578781749325 0.0
8.849604200183613 3.828506169652706 0.0
9.545296177100065 4.042698359132156 0.0
8.595941796785514 5.806754902023664 0.0
8.65588412428292 5.694192853853139 0.0
8.723710665131787 5.801528918332044 0.0
6.861288985046249 6.673713222735126 0.0
8.87477249219366 4.664500928777609 0.0
8.72385765226959 3.608276264790996 0.0
7.145228858696953 5.573648565429618 0.0
7.282945121585866 5.558559688509987 0.0
9.224761401603633 1.602363370249125 0.0
9.609115686587552 2.986868833620756 0.0
9.633989947851914 6.628120633848649 0.0
6.046214325132457 5.45615093027661 0.0
9.017014346798927 5.271996636983457 0.0
9.070824864071271 5.168510834798647 0.0
9.189021391555556 5.166867900487267 0.0
9.123328759137758 5.064718588163964 0.0
9.240587446378079 5.06459430516883 0.0
9.250848280531756 5.267364371053135 0.0
5.773050603406019 5.7192906317521 0.0
8.576466432793914 4.3559007860436 0.0
8.634627802680399 4.253467736542067 0.0
8.461790117175607 5.591735227444779 0.0
8.907610717370224 3.713397213891439 0.0
9.80665594564509 5.628066492225966 0.0
8.985935132601089 4.455263493464225 0.0
9.00640209566022 5.067597672073404 0.0
9.833659276096986 6.976519563917422 0.0
8.0283368553477 4.687271895436317 0.0
8.326580191759327 9.127498457128247 0.0
8.650637373791266 5.07513089931925 0.0
8.701067313435203 2.700069743477523 0.0
4.825307249916392 4.884175191874744 0.0
9.418335984190309 6.858444798015129 0.0
3.91434687300816 8.542956908935874 0.0
5.569239724399552 2.064135034637056 0.0
5.234271567762738 2.128974435011933 0.0
5.757920427527626 2.312422707096966 0.0
5.43365689737979 2.427455772745759 0.0
5.673210219624612 2.602111218343444 0.0
7.214258468265766 6.652783071431555 0.0
9.823626269633962 4.30685540664529 0.0
7.96996639420014 4.794005510174826 0.0
7.616003332725032 0.502676560965646 0.0
3.050634530589821 4.659174799474146 0.0
2.870894249800723 4.246924313393336 0.0
5.285393339952368 6.079037173753393 0.0
9.439954241218905 4.23581687956071 0.0
9.67709722097145 4.710772408106511 0.0
7.40767785509217 4.259947873553335 0.0
8.396202587439676 5.486075637998701 0.0
8.323689688705493 5.372061002264632 0.0
8.191312386254125 5.384662546230823 0.0
5.304380054816289 5.369675374029755 0.0
9.093848379546637 4.047647920840374 0.0
7.916313220758624 3.045043876114836 0.0
8.435854831444637 4.144861908356168 0.0
9.060262453079693 0.7340576053322918 0.0
7.053195520344596 5.238809779682351 0.0
9.621762679347093 2.45205452967588 0.0
8.410730269104743 5.287995309529392 0.0
9.655094569234972 3.472720279371932 0.0
7.982140513923982 6.667914768024983 0.0
8.402690325256646 4.883576657130221 0.0
9.17488654147479 4.962006474835693 0.0
9.013188196102961 8.49700148123058 0.0
9.795977244531603 2.156818021002043 0.0
9.893813711206834 9.545820400859157 0.0
7.965349232662289 4.250048884270795 0.0
8.644264557989125 4.874751532150782 0.0
8.215430976121077 1.26077208565765 0.0
8.379717637669398 8.37324652769609 0.0
9.320026533461409 5.559861899725609 0.0
7.885778178744864 0.4977439426642278 0.0
7.547066983926719 5.125166613071239 0.0
7.657542898944819 5.122996245335209 0.0
7.423918840193691 9.000935553397358 0.0
9.854133000712425 5.541931969512857 0.0
9.328508174398952 2.101486405523264 0.0
9.300749600926641 9.530012105354274 0.0
8.130307182491519 5.277079344947874 0.0
8.346752967392757 4.987627363826086 0.0
9.118404185029991 6.007087846617186 0.0
9.048232213728614 5.89431792713258 0.0
9.088340967655858 5.576242562571367 0.0
8.094762487139027 4.789727191449318 0.0
9.915265904493378 5.749591413470928 0.0
9.92169805280126 6.154216704502091 0.0
9.918022441582268 4.549125436287157 0.0
9.919332362905616 4.849536560132457 0.0
9.914800786693318 6.750595509794719 0.0
9.811792900437824 6.703950687575952 0.0
9.900643083988882 3.749855087409844 0.0
9.912423171222734 3.043228996968949 0.0
9.91892875832665 5.949999999993851 0.0
9.913300070218703 3.960831593817277 0.0
7.709347001661226 4.444236534782706 0.0
7.479443107717332 8.071637285053104 0.0
8.839057072155848 6.807845119358974 0.0
8.972330068019902 6.78765448182788 0.0
8.542093772125282 3.941452413628317 0.0
8.279144752968262 5.930387616620717 0.0
9.393455876855919 4.973162505621418 0.0
9.507123333872533 2.855087674515822 0.0
8.77504684283825 2.317347145885344 0.0
8.394133129040345 4.464046960801843 0.0
5.725509852450801 8.210843960481027 0.0
5.62632390239664 3.967637659758752 0.0
7.910815814627989 4.900765971697654 0.0
8.595808444085467 5.590040244353608 0.0
9.705160502006024 0.8106158419444889 0.0
9.82021247904746 0.808810893177099 0.0
9.218352146075844 4.447736986422823 0.0
9.20781892622228 3.858281726888132 0.0
8.713609974387523 5.178241668554946 0.0
3.55755059259364 8.921522400238844 0.0
9.59122926011489 5.452844834281716 0.0
9.70565100407009 9.77887811062354 0.0
9.826938454219809 9.74303055702321 0.0
7.238962096855633 3.278078153406256 0.0
8.575609105166194 4.567807831727537 0.0
8.936449841121737 4.765835458965493 0.0
5.59323463391086 9.248527978398117 0.0
5.280809113285124 4.886132326418428 0.0
9.328132730893216 6.544753806716806 0.0
9.026944889277736 6.67247283515637 0.0
9.81946239021469 3.007926663525007 0.0
8.677633568960493 6.144049349297466 0.0
8.33427489656924 4.571212803519522 0.0
8.55734024448315 6.382535186588269 0.0
8.692399379422756 6.372347713955898 0.0
8.495817478252626 6.503308565233578 0.0
9.905494734661673 2.544078755559835 0.0
6.177101405266569 7.228490244483556 0.0
9.825373011845263 5.807482724503027 0.0
9.808678508609606 8.118683092442964 0.0
8.397717712407108 7.08010313863416 0.0
7.428555529689225 4.935946611338556 0.0
9.575504958128711 6.125633853639113 0.0
9.154066996197898 4.146562596982661 0.0
8.074381802159323 4.337569667261167 0.0
7.018337246891919 8.843475095716133 0.0
7.970627172560641 2.658650028065857 0.0
7.382546388883145 6.723381543491632 0.0
6.822972334933889 4.884555620881615 0.0
8.343732976791593 6.041576709398377 0.0
7.743680217306919 8.423336160305476 0.0
8.505717922983454 1.115022897794028 0.0
9.113973198216474 6.992972408167606 0.0
5.818882632841168 5.300437503812764 0.0
5.951991891717714 5.279516346785062 0.0
9.450183479138845 5.92934813870612 0.0
8.783346541536119 5.48419035750989 0.0
9.38074895894124 5.65076274999803 0.0
9.513658728876734 7.193620441323493 0.0
6.396040948797887 6.776064256962667 0.0
5.389661780244388 4.89715084345563 0.0
4.473247649068957 5.85935163892416 0.0
9.249586607512612 8.37680799459232 0.0
9.103796366487646 8.379197231055114 0.0
6.274057301184156 4.87985402946409 0.0
9.259628836118232 3.561431822636308 0.0
4.037922477011971 5.489409780163391 0.0
5.62712958624254 4.893925433488392 0.0
8.806426003347967 6.133410188141932 0.0
9.53304466499349 9.59279975429444 0.0
9.542890959420024 1.966631379116419 0.0
7.459736176874619 5.863847835420528 0.0
5.937613117200432 4.89232797168023 0.0
6.171611131472617 4.879541833448487 0.0
6.100695199816815 2.291172318314745 0.0
2.315194906726768 8.081958163666464 0.0
6.878489987598286 5.148099521847569 0.0
9.105264414399338 8.639184652727645 0.0
9.20047261316883 3.457820810661327 0.0
9.895329010385955 7.55944047105717 0.0
9.912742873006831 7.76210330502246 0.0
9.37761459375249 3.168397068877758 0.0
8.946121261512507 6.345629828835438 0.0
9.918632496443566 4.449809517365367 0.0
6.848211525651934 5.945010613369067 0.0
9.915721525903255 2.047407395915179 0.0
6.117255841708726 5.163321965161054 0.0
7.276595248786602 5.347247322210079 0.0
6.32682869954104 5.23674259421017 0.0
8.785886448438022 5.692775375342819 0.0
9.099994401883361 6.776698531382792 0.0
9.913397459621638 0.2499999999998165 0.0
9.910352525643928 0.4481571029410266 0.0
9.907850422008579 0.5479735220323012 0.0
9.911983631350465 9.24778487019403 0.0
9.917634740384067 0.7514684821956668 0.0
9.195214232985496 3.254172408378337 0.0
5.000896927376288 1.846006038077654 0.0
9.917172478547403 8.250155740683276 0.0
9.908120476950126 1.742986232208194 0.0
9.914524635720774 1.949567899316728 0.0
9.907358878377153 9.145625165175748 0.0
9.917695944922635 8.949999999998397 0.0
7.648387553139914 5.325741673607362 0.0
9.605343588986079 4.130627398479715 0.0
6.648113233057817 6.774798386229164 0.0
9.910347203087213 8.446729917003672 0.0
9.913623694530468 8.548470085896316 0.0
9.9201245863254 1.536225488581779 0.0
9.906538426683255 1.059019360781604 0.0
9.912867352010919 8.74999999999809 0.0
9.799662981388353 8.79550485462418 0.0
9.831828680383174 5.99966894118311 0.0
9.91414179906643 1.263025320602998 0.0
9.920690092699912 7.240982963665807 0.0
9.385889285950551 2.235126904097426 0.0
9.28133998925606 8.00415195851526 0.0
9.817074723108401 3.172398890123306 0.0
9.482030285089927 7.512954023388035 0.0
6.682432918504054 7.233889573028878 0.0
8.528699633246763 3.260502457553277 0.0
8.91699963742029 2.327016692708648 0.0
9.267676068834481 3.954520684561369 0.0
8.70811637467455 4.974101624783084 0.0
8.18184214270768 7.816666208279135 0.0
9.690393137288163 5.264344933127836 0.0
6.937111790104696 5.245184991960528 0.0
5.895846026722989 5.174232967273284 0.0
8.281683356622615 6.400073017261236 0.0
9.150883172924027 7.444273543454419 0.0
5.430406600793122 3.390815886517273 0.0
5.049583827974758 5.697634876048387 0.0
8.3966710383105 3.495813899905868 0.0
9.007538428392454 8.046563579784266 0.0
4.645155158868719 2.637132843684674 0.0
4.887444326771336 2.30020425915506 0.0
6.483736782775559 4.522536327482678 0.0
7.843169154548308 8.2116075844056 0.0
5.06295551628385 4.901632590583318 0.0
7.201400991012747 5.138239336380897 0.0
8.519791031104612 8.848807089071627 0.0
8.658623737989732 3.031313729049854 0.0
7.585566208322493 3.629882964874684 0.0
8.411818469596405 6.834326722716643 0.0
9.172363528634236 7.669230647622864 0.0
8.85455683341768 2.682483055215344 0.0
9.359398739738925 1.631421337140716 0.0
9.071793864444992 7.337030604117359 0.0
6.968394563521436 3.712808894519514 0.0
7.899236117684646 7.094583340182754 0.0
9.54362864504834 9.781852543872333 0.0
7.151298729743687 7.644795130415299 0.0
5.452218361466201 5.186873761308322 0.0
5.517642289161902 5.293540933999446 0.0
7.802500357665464 5.978295671754199 0.0
6.594850839687122 8.491429270558893 0.0
6.029132431949566 8.294997405201931 0.0
9.31286590869111 0.5672913838331921 0.0
9.25238720319541 0.4415953739444106 0.0
9.550589523211062 4.228044955453704 0.0
8.748611832783206 6.250900951984038 0.0
7.566980108995873 3.995148257893202 0.0
7.426142759241261 3.996743578498081 0.0
6.478912513785404 4.000296412419969 0.0
9.30435638148753 5.168210982711592 0.0
7.542154188520517 5.752525075248498 0.0
7.219033852073297 2.139582470800704 0.0
7.370913620388047 6.545121498197235 0.0
5.226731036024996 5.187572666585561 0.0
8.515591031124366 4.462223215179979 0.0
6.762864307079274 0.3078036604979366 0.0
8.587432696997471 4.977010533175154 0.0
8.703948448756302 8.815629076400704 0.0
8.081003990931544 7.370949680119862 0.0
7.424404567669909 6.949730915714445 0.0
8.578903262311433 8.377992954045473 0.0
7.301258690263783 6.106184350645308 0.0
5.991600556904204 3.99820087171043 0.0
8.203048538477193 1.601044215405025 0.0
7.289972483120081 4.572350254111052 0.0
7.714697186439165 5.420586967696794 0.0
8.918853780709807 1.841796898567452 0.0
9.919941345877513 4.749808449067644 0.0
7.245589454939737 5.94251251443003 0.0
9.258480524497795 3.358952871140391 0.0
3.705877615124628 5.574038727593425 0.0
8.287096858129765 7.962370605242409 0.0
6.799629860952143 3.705385600481528 0.0
4.146753450763018 6.544154457143895 0.0
7.413973555029582 5.545687501585183 0.0
8.466524978378082 4.980481756569235 0.0
7.336312153537934 2.337983522449311 0.0
7.695505222753409 3.747498713679684 0.0
4.898236813123799 4.795853653580084 0.0
4.59779105899602 1.896916774247134 0.0
8.560170375862322 7.072369101894893 0.0
8.386150468360862 2.449771437140704 0.0
8.41200018115259 5.084601315536367 0.0
5.102189912301071 7.621598618277815 0.0
8.336320418935243 6.71651223072348 0.0
5.081745734883095 3.977838926197614 0.0
7.63590698378166 0.9500570055008507 0.0
7.743369677149255 3.051233984704873 0.0
5.357527459690566 0.3809996753407537 0.0
5.967373112873382 0.7731113464301924 0.0
8.169449265206127 6.666271947462212 0.0
5.95122726745053 5.55758205410881 0.0
9.922289489207834 3.53923011719877 0.0
9.39154684476555 2.659037023454942 0.0
7.701415639167884 7.690060291860976 0.0
9.819179654793023 1.329863870021845 0.0
8.358229579054417 6.506108206863729 0.0
9.269720555169467 5.657096143475924 0.0
4.473187658045934 7.435037860084884 0.0
9.65807158077373 3.255496360750368 0.0
9.605155446454205 8.713645566904637 0.0
7.097383547728313 5.141197376985936 0.0
9.812212483832656 1.89920712759492 0.0
9.83875570675407 6.81603549325055 0.0
8.926246869879279 2.079976511571457 0.0
9.166785856141402 9.169070814302419 0.0
8.763479010228052 1.587152667342957 0.0
5.957377924852992 6.404530806530254 0.0
7.14506854375872 6.10342416684208 0.0
5.672595070581394 5.164323323112049 0.0
4.899782787268781 0.3801727265981219 0.0
4.447133848117348 4.673614099606824 0.0
7.044865074789195 3.253639989243549 0.0
9.818461337102992 7.819456450952447 0.0
9.925334577033155 7.954012377173311 0.0
6.352907898232792 1.173665225954276 0.0
7.351721385581032 5.660361289755705 0.0
9.337367583861807 2.76534436379692 0.0
8.693118347802024 4.360254099729149 0.0
9.476812970101324 0.3524826622168163 0.0
7.109868985890334 0.9024224571333925 0.0
7.899106846231403 5.511805431542581 0.0
8.352799544476607 5.187887629361129 0.0
6.957483547582747 0.6176251309213842 0.0
8.099559500483094 1.412323841044818 0.0
9.913030944540278 0.8542404645334569 0.0
9.143075088381442 8.022165366829135 0.0
8.819861450593166 6.356592599428041 0.0
9.319444417409162 1.49938505915629 0.0
6.490262520326714 7.118204362551877 0.0
6.490874470087819 6.582907761235813 0.0
9.82506653058937 0.6146757679104559 0.0
6.803129818897624 4.419048038171804 0.0
9.840901379354312 0.08198751964190581 0.0
9.839740374244226 9.918356239418472 0.0
8.551927134544655 9.449788917425456 0.0
9.92097857388158 3.249999999993177 0.0
5.797087413057367 7.077351493358238 0.0
9.255412859987286 6.433984412022419 0.0
8.668174522249984 1.740767926084485 0.0
9.920991430240607 6.25262219124529 0.0
7.57275248448898 1.94367954756322 0.0
8.052865444445507 8.19900054463639 0.0
8.748697149245206 4.25201068974208 0.0
9.158270227735827 0.5542256343091421 0.0
5.997487767477439 4.787924707603557 0.0
6.119759900601896 4.78043793682227 0.0
4.353034750397793 8.619182743639561 0.0
8.721093521611476 5.588932824583312 0.0
5.717101151444983 1.123034066822819 0.0
9.825602081347064 8.68753399402474 0.0
8.005502510832988 8.7824052910506 0.0
5.548184234622668 6.408009287230429 0.0
5.77830300433981 6.598697187164234 0.0
9.613093825495433 4.50282172481406 0.0
9.928981132641653 9.74928475696928 0.0
6.613628176297015 4.515513362596662 0.0
1.822126723816303 1.297795131355289 0.0
9.514164594137375 1.43081427463862 0.0
4.735494753432723 3.698541604583975 0.0
9.52844959749262 8.615213629960298 0.0
4.660704511759056 0.7947595073298008 0.0
6.82340845160293 5.239926830264399 0.0
7.885938077030673 7.380147032865134 0.0
7.884599891021201 6.09005968568029 0.0
8.846834820720167 9.653276456345532 0.0
8.457777199486827 0.3851010632068662 0.0
6.66485224572131 8.771510767670392 0.0
9.091499342133352 9.708315832477556 0.0
9.824286725109655 4.976315293637262 0.0
7.848197684391786 5.632217046637356 0.0
3.88430598115417 4.225391362015386 0.0
8.776890759183289 2.809688928468134 0.0
7.393884285023409 3.59397875231041 0.0
6.927568893329758 4.396788356869783 0.0
4.96854327720728 2.662368428358774 0.0
9.1480130720193 3.951479613991279 0.0
7.071049729490975 2.38092990636632 0.0
3.40193058782919 1.686321186206593 0.0
7.612042194200681 4.815904436723407 0.0
9.043395868401339 6.888481825015849 0.0
9.098933057562759 8.152197681006806 0.0
6.058682303253315 3.857501492181965 0.0
3.707092669281355 2.986685502034343 0.0
5.113272509841263 5.189455016444592 0.0
6.960565857079232 3.416349532571279 0.0
8.755151527375476 7.649255597361291 0.0
3.393680865444538 3.679982303262531 0.0
3.117424600120088 3.35605258976247 0.0
8.530814041264104 5.488376426140491 0.0
4.820719767306654 5.106646490188182 0.0
9.918899263509473 4.144927088739744 0.0
9.918194630017027 7.447268230913605 0.0
8.461970084137805 3.144844565847669 0.0
9.924415919486059 6.949999999995354 0.0
7.184050152099684 2.72771667662237 0.0
8.834356715215904 7.801565642745232 0.0
8.689015446783005 4.145232831954543 0.0
8.490778532265319 8.234414357968106 0.0
8.63666290918932 2.83060276219705 0.0
4.61028976098935 4.741894230894578 0.0
6.314735925012879 4.003132559161639 0.0
9.20786580425652 4.67001723737971 0.0
7.141401229301469 4.873205425098625 0.0
6.235177809922153 4.774126344778935 0.0
9.12491895896937 3.145675090615719 0.0
9.255747684068178 3.162525801823036 0.0
8.312852272796098 2.290855459722148 0.0
1.449266720542303 3.363629101350872 0.0
9.525687840398492 4.800807314407045 0.0
4.829905263804087 8.14474456977717 0.0
9.09338914689732 7.563794106183232 0.0
5.389401689694107 5.283808684471545 0.0
8.530979415204587 3.029374286908943 0.0
7.901489077080633 6.535344047486632 0.0
9.218572924671975 5.760893551533255 0.0
8.562382833959296 4.143913974026883 0.0
8.62959127904665 8.974877485888243 0.0
9.408442441596518 9.62276529745719 0.0
7.5034765601713 3.869833107932387 0.0
9.842813436634783 6.600620949014236 0.0
9.826116984327193 8.911617279149695 0.0
7.529907780698261 0.7369111006685982 0.0
7.832164962480427 2.905293639437395 0.0
8.39517908433056 3.267417602291069 0.0
9.823014010107707 9.085319632577246 0.0
9.022314123618541 3.944559746338292 0.0
4.243701230676532 5.332574856090426 0.0
9.816740542566388 1.127839952679595 0.0
8.166775715766304 5.693916696568397 0.0
8.865374421689054 8.068986769641638 0.0
8.761145809863661 6.470583506581853 0.0
8.998345275919851 9.209303502026401 0.0
9.698477487436316 6.706902829754045 0.0
6.439032098063426 0.3109134377713525 0.0
7.562681994382136 4.643158005207056 0.0
9.03999088074715 0.2799354672273258 0.0
5.180741540467516 3.805018725608906 0.0
6.243990330956698 2.718077286244967 0.0
9.79416634023361 0.1815240178579244 0.0
9.926540005061975 2.847049370876555 0.0
9.826476210374608 2.670192168078066 0.0
6.365816673179121 4.536333049275508 0.0
5.546353765219417 4.618331215552614 0.0
9.820703096450293 2.000649418331399 0.0
6.884388790679166 3.561583980715254 0.0
7.431303395649604 5.747824222777201 0.0
8.849816832721245 2.19318290395604 0.0
4.185147517585975 5.697469360586313 0.0
9.165905238119013 5.873664931582344 0.0
7.70479478158537 1.788324620089049 0.0
9.627376046933474 0.9196091445437269 0.0
6.657687963328663 5.144792385996769 0.0
9.83245016645186 0.3925568446109945 0.0
7.483092985762584 9.253837199159435 0.0
5.445348362202234 3.977855663863651 0.0
7.476680532833337 4.837183287808616 0.0
9.572749890969304 8.505160319814301 0.0
9.915853314998252 9.437014513917465 0.0
7.679469018350979 7.390484878021194 0.0
9.418139053434402 4.790576000488359 0.0
8.096967733471567 5.865447162201908 0.0
9.829153508938724 8.378494945652118 0.0
9.926595955569645 5.157718300415699 0.0
8.774484245600224 7.939747459426853 0.0
8.629764448155779 6.481031318922794 0.0
8.961169458302376 3.839036702328818 0.0
4.617199205561317 5.256318959792646 0.0
8.480815774219478 4.031210317621497 0.0
9.708341592512763 3.401018043990571 0.0
7.183974816647467 4.77882314543966 0.0
9.821437962294304 7.659391965474772 0.0
8.150320284869602 2.286501016204562 0.0
9.828114434347311 1.684891358832554 0.0
5.349187766238684 6.538177907133678 0.0
8.076053471314525 2.76180604769483 0.0
4.907713691134565 5.29818629967416 0.0
0.6874399366049438 4.328593906714074 0.0
0.6980011780697519 5.702671170050627 0.0
8.263861466707834 8.182284285231713 0.0
5.838783785156478 4.913981390426639 0.0
7.807619472656604 7.235706382002089 0.0
9.388504256318683 6.022122644748753 0.0
9.929839894767033 6.436189192303577 0.0
8.3205848711706 3.39107920408397 0.0
3.240770542267401 4.019899919523968 0.0
8.059047070496568 2.468855909103855 0.0
9.932479519490421 2.449625056415224 0.0
7.737639000139152 4.580708137963557 0.0
8.26141077223695 0.3940397126348397 0.0
9.69568953371801 1.959951226402445 0.0
6.469120930453264 4.892267070266994 0.0
9.167223997255698 0.8102256463122337 0.0
6.236889648241256 0.9291076084031108 0.0
8.306379082772498 5.268830342852036 0.0
6.716089118890225 5.239344620507032 0.0
9.82511981852641 9.282822358664017 0.0
6.68375719572285 4.404998642130821 0.0
8.913754712375674 6.908138360584365 0.0
6.173250048857013 5.251634416326969 0.0
4.235907497612446 1.924052997345291 0.0
5.151007663981651 2.438629730660893 0.0
8.924254300637541 9.3764975797567 0.0
4.438612423541503 5.287968640901957 0.0
8.571203234299599 1.897009944569934 0.0
6.878800676380218 5.821332862798138 0.0
5.710626178601224 4.792560699857408 0.0
7.149510071621283 5.216310009157644 0.0
2.099966541549645 2.334742113488256 0.0
9.93396330620579 5.350566393301629 0.0
7.143046479323961 8.646955109387985 0.0
7.965747313080266 5.193641450105844 0.0
6.3314394693073 5.135050228240639 0.0
7.665821333021348 6.222698255001823 0.0
6.305321657053551 4.659816230868476 0.0
7.833020917089713 5.208837056143474 0.0
9.41455902676429 2.869725681199307 0.0
8.567151507735133 6.598605357295113 0.0
7.405527786978573 4.377085529441429 0.0
6.552969697053132 5.137148974085434 0.0
9.93630620742063 8.042778076596578 0.0
7.166743296019233 4.593171678848165 0.0
6.595561806063966 5.839366735225723 0.0
6.066152182102007 5.262519562574559 0.0
9.834694151277489 0.9093455747994099 0.0
8.98259191950674 7.579732466796592 0.0
6.465071238839505 5.25485771955322 0.0
9.759759896588413 3.236659507608532 0.0
4.775529448101694 5.224235675150505 0.0
9.935991245222917 7.153416415978829 0.0
0.6530736820718381 9.352299998916202 0.0
0.6449439415299687 0.6468300344151556 0.0
7.804690364869245 4.495816547678174 0.0
9.84503784553893 5.70620404704573 0.0
9.83525329400959 3.826992990746767 0.0
9.922964894244684 4.265000406933376 0.0
8.333767638401964 1.121219971446645 0.0
8.876012546033895 7.019147158538482 0.0
8.172413577824324 3.413096916572049 0.0
7.232233017296214 4.478957103028363 0.0
6.214597295185415 3.852860083673202 0.0
9.85013791746415 4.400709747289421 0.0
3.941627380932058 6.342995010255737 0.0
3.097271569675528 8.77391871286929 0.0
9.292917152323044 6.010976049411984 0.0
8.104342196673183 5.184165973282902 0.0
8.994300084006271 3.652611812846807 0.0
9.937157897030163 5.549999999993244 0.0
8.721368888525245 7.274540720770752 0.0
8.920003648712827 0.9516585309368178 0.0
7.910527456030004 8.536826514867816 0.0
9.846441288756814 4.60515911863952 0.0
9.584942233925151 4.712073182517884 0.0
9.642357858573972 6.805672051759494 0.0
9.797024725252207 9.838837222258014 0.0
9.842451438022124 4.018973836958878 0.0
6.112723137676118 3.704473949316424 0.0
7.574641969193845 3.765362276156904 0.0
7.826594968121701 6.200366572362263 0.0
7.762805366733504 9.34009502796868 0.0
9.56854033867856 1.012566255816665 0.0
7.71256563655353 5.219373702836014 0.0
9.68039392238282 8.786964504862018 0.0
5.910362452777086 9.277662068919813 0.0
7.418090653922814 3.326443419100716 0.0
9.857704179097952 4.697553149694669 0.0
8.452469674653342 8.996585816905599 0.0
9.522351366699843 2.057525484575908 0.0
7.802315574700843 9.548878971475935 0.0
9.938875656926385 3.449999999992592 0.0
8.425189037911712 6.608575180629274 0.0
5.925965231566842 2.523669697740033 0.0
6.654918072256329 5.95749128982984 0.0
9.826748589235729 9.631118448471485 0.0
8.6684585637523 7.39633999085442 0.0
9.844673843931567 3.090088625379724 0.0
9.93613850661301 2.250382721159617 0.0
9.218291993658738 2.892108990205171 0.0
9.83502846611296 8.212781989607324 0.0
7.754136409732265 7.104288507262783 0.0
8.510570542791681 2.036933285735889 0.0
7.757745059307245 4.315798612475442 0.0
7.989231770559189 6.201656630465583 0.0
8.068934521422738 4.198631572122605 0.0
4.957478134450373 9.038766150325067 0.0
7.208661142641733 6.501402463831379 0.0
7.299506095906239 4.363561999234681 0.0
8.250303873550486 2.105322217421675 0.0
8.678637541413377 7.053471135702286 0.0
9.761528395137384 6.163503990672834 0.0
9.84494857233395 8.59999999999775 0.0
9.83825138794677 3.672838954969637 0.0
5.121008544047756 5.808127183024784 0.0
8.343911550360986 4.043535893276861 0.0
9.85324441775315 5.899999999993774 0.0
9.51114465213134 8.41035540646284 0.0
6.505812179224195 6.93390566262983 0.0
6.15572847138365 9.023097246950844 0.0
3.352081892333425 3.024853379890529 0.0
6.433163283162099 8.675072413910678 0.0
8.825744236698243 3.624446391299867 0.0
4.883007294861279 7.819620905924936 0.0
5.876659170760434 5.638247433601083 0.0
6.859400040348503 6.510797998354633 0.0
7.946400945409184 3.500317276373196 0.0
7.496830255505493 6.653194511698024 0.0
9.852183479755313 4.891525833556942 0.0
9.77998778436291 2.922486526124376 0.0
6.774672660492365 5.324728659740495 0.0
5.717254072187427 6.824125962512845 0.0
9.713440940838062 4.63793103997539 0.0
8.859858662536796 0.2721395536350836 0.0
8.37556017530946 9.436653414116012 0.0
7.395237381047616 7.885576562773319 0.0
5.4709157802033 4.511152089197594 0.0
9.489749416979361 9.691840729914848 0.0
4.599216022837964 3.46438688931078 0.0
5.572287492757569 4.807021644849729 0.0
9.926499336309957 9.92730688390086 0.0
9.926499336310107 0.07269311609890093 0.0
9.338127766332573 0.3585313952168247 0.0
6.810761948165162 3.414693294319008 0.0
8.166274345037138 5.943611545564389 0.0
5.2892644736731 6.301081312912763 0.0
9.731911074791544 7.649313380659622 0.0
8.90251102352767 9.50983415326544 0.0
8.997881406541017 1.033666784655452 0.0
5.835124768755703 2.738139962594905 0.0
9.665357480775825 6.185331297099201 0.0
7.656532192558493 8.217157287499347 0.0
9.170463887605525 2.975444721032631 0.0
4.208158615905443 0.8648302238584886 0.0
6.97015686031129 5.933674629077266 0.0
6.181941366523793 3.565885175921835 0.0
3.30313590337911 6.393402837735046 0.0
6.447482061767014 4.816169316820496 0.0
8.185341428749446 4.169172087371246 0.0
4.552595724340015 8.298301336212145 0.0
9.84850676569699 8.999999999998423 0.0
9.846941514449377 7.393642828194986 0.0
7.924592433490734 2.788309934035703 0.0
8.154308714226714 8.853640122009672 0.0
8.876629743004642 1.96110242719995 0.0
7.228849192966834 8.90811350348676 0.0
9.852301635085423 8.296637825215246 0.0
5.219795195341889 5.547413133147649 0.0
9.861497117995457 6.901363010201344 0.0
2.953911258021604 6.136007283255669 0.0
6.93158841067062 4.77708273647784 0.0
9.67540418457871 2.912802891506324 0.0
4.194055958522277 4.437353127730132 0.0
6.133959559341536 0.406856611599261 0.0
8.29952795189331 9.309744645643846 0.0
9.843692337952948 1.209647690818311 0.0
5.164986286280336 6.671544079402435 0.0
9.838533350075606 2.081705440779448 0.0
8.301244777513975 6.604088853319459 0.0
5.471494771710784 2.714598185146428 0.0
8.86534684892311 1.208599471795828 0.0
9.940610684232212 1.451558535868664 0.0
9.40896208432968 1.428353940655538 0.0
2.329177605337097 4.238803555614174 0.0
5.980761651517799 7.182207186682233 0.0
9.66541573964336 0.1719254072074424 0.0
7.220979380229172 7.806128737674462 0.0
1.251721227904697 6.151932667911503 0.0
8.104967286191181 6.057912607875576 0.0
6.650768762224724 4.817922869198292 0.0
6.634976350437587 3.213339182992986 0.0
7.034320437500567 4.898219100342838 0.0
9.502772020064167 6.283064492634301 0.0
8.13187938667684 3.518506862055515 0.0
9.855471943454193 2.599999999994991 0.0
9.056747742708522 8.263936599935574 0.0
4.352645795441222 5.724453640019 0.0
3.744263984699181 1.488951698361357 0.0
5.175860134287045 3.6375726667098 0.0
7.736434712114619 6.400417475661193 0.0
9.857658576695343 6.316607183405179 0.0
7.876525261950537 4.304285002335559 0.0
9.856114384785611 7.914602773442983 0.0
9.848334119947063 0.7059644476295188 0.0
9.59694321995579 6.895814046141667 0.0
5.906465212962551 3.869023950643881 0.0
9.840676994268005 9.364956386459765 0.0
5.355015287544095 3.83518170601625 0.0
6.374090407153147 5.855743754257685 0.0
8.227401290513832 5.297819733684674 0.0
5.451235131977493 4.825706629991923 0.0
6.022070213762754 5.355923882747634 0.0
9.845674433677614 6.108401449483281 0.0
9.835067400944396 7.739582406783081 0.0
8.602026805792988 2.941372356914139 0.0
5.059869081004962 5.269480960018243 0.0
5.284714507903736 5.26496663762182 0.0
9.627110479149561 7.660076105040499 0.0
6.820001127809743 4.792514421153957 0.0
5.120512795059439 4.806607659110254 0.0
9.56933817216883 2.911464407429096 0.0
9.74091654291531 9.267545397628387 0.0
9.93006767325302 6.576784040838644 0.0
9.642486276936268 4.650227701598451 0.0
5.185183328569137 9.410919109238325 0.0
9.37052946854105 4.605636695802024 0.0
1.677077220416309 5.871167715901136 0.0
7.345783833404538 3.184020711886284 0.0
5.419239942654976 5.982692039856376 0.0
6.133318300188262 2.551919945731369 0.0
6.187291396343277 4.499077117404439 0.0
1.231465237822878 3.921479198315213 0.0
8.969849937139944 9.699215363213542 0.0
9.218303154263054 6.037447959776716 0.0
CELLS 4886 19544
3 1113 1356 1450
3 1402 231 1659
3 272 269 1414
3 396 394 1777
3 1451 945 1452
3 194 81 1801
3 1847 1501 2104
3 2024 2121 2479
3 1115 1113 1450
3 1124 1413 1844
3 1061 1955 2409
3 307 305 1645
3 1592 1369 1593
3 238 1501 1847
3 1955 1883 2409
3 1808 243 1910
3 1885 978 2362
3 1440 793 2092
3 189 1488 1608
3 353 350 1864
3 2007 2231 2232
3 307 1645 2493
3 1096 1760 2496
3 2178 874 2179
3 621 625 1595
3 1493 1480 1938
3 1655 1268 2137
3 1341 1410 2212
3 243 1808 2360
3 1902 1446 2516
3 1760 1096 1763
3 856 790 2180
3 2008 2046 2105
3 789 1809 2067
3 694 1543 1575
3 1127 1762 1953
3 1748 807 2228
3 1543 1308 1575
3 820 1872 2170
3 1417 954 1998
3 1369 1592 2386
3 272 1414 1787
3 329 333 1998
3 1544 1095 1545
3 2231 1490 2232
3 1342 1683 1790
3 374 377 1797
3 807 1678 2228
3 1665 198 2128
3 141 142 1620
3 325 322 1952
3 231 1402 1654
3 198 1665 2010
3 1890 1307 2387
3 208 1438 1619
3 2016 1970 2156
3 1436 212 2020
3 954 1417 2333
3 1736 1894 2244
3 1491 1750 2143
3 1677 1064 2146
3 1474 1258 1475
3 1500 233 1930
3 1446 2415 2516
3 1700 973 1800
3 2128 2270 2316
3 1316 1315 1593
3 1307 2341 2387
3 2258 1324 2328
3 1083 1507 1508
3 693 1095 1544
3 621 1595 1596
3 667 1571 1872
3 1932 1766 2061
3 393 391 2240
3 1342 1790 2400
3 252 1707 2234
3 931 978 1885
3 1430 1116 1704
3 1411 1109 1714
3 1478 1227 2440
3 1990 195 2297
3 1792 1167 1985
3 1682 444 1975
3 394 397 1777
3 1711 2028 2162
3 1574 856 2180
3 2008 1851 2046
3 736 1493 1938
3 1069 1060 1662
3 1458 455 1754
3 862 691 1705
3 1161 1642 2286
3 1699 1700 1800
3 447 516 1637
3 955 1482 1483
3 2024 206 2121
3 391 1773 2240
3 1072 1412 1893
3 212 1436 2350
3 1566 1365 1568
3 259 1441 1672
3 872 870 1764
3 330 328 1889
3 1539 1161 2286
3 1897 1898 2275
3 1434 1990 2297
3 1109 1411 1730
3 319 307 2493
3 1762 1761 1953
3 1369 1316 1593
3 1540 834 1832
3 1505 652 2442
3 1732 1655 2137
3 921 1712 2295
3 1872 1388 2170
3 1712 921 2125
3 2028 244 2162
3 1506 1570 1680
3 1569 368 1964
3 1571 667 2375
3 1587 2178 2179
3 196 1723 1737
3 524 2016 2156
3 1528 1250 1733
3 1115 1450 1973
3 1938 1480 1971
3 1809 1396 2067
3 1641 249 2299
3 1223 1258 1474
3 1365 1566 2120
3 1981 962 2316
3 1538 353 1864
3 455 1458 1756
3 152 233 1500
3 1116 1430 1703
3 817 652 1505
3 1347 2003 2004
3 1607 1958 2085
3 194 1801 2195
3 1410 1341 2351
3 223 1415 1710
3 197 1511 2346
3 2198 787 2225
3 81 82 1801
3 1438 208 1620
3 1444 522 1823
3 1511 197 1950
3 726 718 1567
3 1637 516 1739
3 1708 2337 2341
3 1280 1649 2124
3 2337 1395 2341
3 1327 1709 2315
3 1225 1227 1478
3 691 624 1705
3 476 2224 2305
3 830 832 2204
3 1750 1491 2403
3 1366 1897 2275
3 2345 1583 2352
3 2054 405 2110
3 1984 2172 2230
3 1846 2198 2225
3 1177 2042 2418
3 2121 1367 2479
3 1527 1531 1541
3 916 1039 1834
3 1413 1124 2467
3 1622 1503 1868
3 249 1641 2019
3 1805 405 2054
3 1761 1007 1953
3 1415 223 2395
3 960 1756 2203
3 368 1569 2135
3 1402 1659 2473
3 941 1433 2471
3 1267 1477 1501
3 260 2002 2265
3 1704 558 2077
3 2224 1886 2305
3 2053 1386 2199
3 1452 945 1952
3 1717 1611 1718
3 1682 1975 2230
3 1760 1762 2496
3 1481 203 2104
3 1264 1266 1670
3 142 236 1620
3 2133 1182 2179
3 1791 1602 2183
3 350 346 1864
3 1412 1072 2393
3 1281 1575 2255
3 1565 1948 2155
3 849 1449 1513
3 1958 396 2085
3 1339 1069 1662
3 834 1540 1917
3 269 267 1414
3 1268 1267 1501
3 1440 2092 2468
3 1399 1981 2316
3 1635 1636 2041
3 1454 252 2234
3 1451 1305 1890
3 1375 1883 1955
3 362 366 1786
3 1484 2410 2528
3 1449 849 1640
3 1267 1474 1477
3 200 1611 1717
3 1054 1581 1582
3 1350 1977 2253
3 190 1390 2118
3 788 1956 2193
3 1709 1327 1888
3 2233 2298 2413
3 1488 189 2355
3 478 1685 1714
3 230 1525 1690
3 1687 478 1688
3 427 429 1756
3 1570 1065 2476
3 1880 1133 1988
3 1649 656 2124
3 1537 209 1614
3 1134 1769 1986
3 1220 1268 1655
3 396 1777 2085
3 1167 1755 1985
3 2229 1744 2296
3 1575 1281 2287
3 127 240 1882
3 377 647 1797
3 954 329 1998
3 220 1697 1698
3 1342 1341 2212
3 1441 264 1672
3 1512 188 2433
3 763 2345 2352
3 1685 1411 1714
3 1805 1188 1951
3 1347 2004 2157
3 1054 1582 1667
3 1333 1617 1674
3 2217 73 2361
3 1539 1036 1917
3 1039 1292 1834
3 208 141 1620
3 1965 1964 2038
3 693 1544 1969
3 1453 239 2279
3 203 1481 2049
3 945 1451 1889
3 680 1459 2134
3 354 2147 2196
3 1405 1932 2061
3 1723 1722 1737
3 1748 1175 1927
3 1532 1528 1733
3 2057 1824 2154
3 1406 1659 1702
3 1948 1186 2155
3 210 1598 2114
3 1685 478 1687
3 1324 1325 2328
3 1526 1250 1527
3 165 166 1509
3 1493 736 2523
3 1526 1527 1541
3 1390 190 2417
3 522 1444 1998
3 1680 1570 1732
3 1017 1442 2525
3 374 1797 2430
3 1507 1083 2197
3 1756 960 2221
3 2270 1400 2316
3 2205 1452 2282
3 1074 1187 1888
3 2158 1245 2200
3 1442 1017 1684
3 864 1116 1703
3 1750 1751 2143
3 1456 516 1492
3 1677 2146 2149
3 2022 1339 2388
3 1602 258 2183
3 678 1594 1595
3 1245 1670 2200
3 972 830 2204
3 2143 983 2342
3 1268 1501 2226
3 1266 1461 1670
3 1487 222 2465
3 1382 2022 2388
3 58 59 1661
3 2147 1543 2196
3 1484 1485 2410
3 628 2053 2199
3 1906 1549 2259
3 364 362 1786
3 1339 2022 2247
3 1636 525 2041
3 625 678 1595
3 678 1593 1594
3 2212 1410 2222
3 1837 1865 2215
3 1699 1800 1801
3 866 864 1703
3 893 1472 1982
3 1735 1736 2244
3 1633 1255 1922
3 126 127 1882
3 681 867 1656
3 1351 1401 2363
3 11 228 1588
3 1127 1953 2454
3 265 266 267
3 1722 1122 1737
3 1389 1691 2069
3 1613 1610 1616
3 1227 1256 2440
3 429 455 1756
3 1535 1177 2418
3 322 324 1952
3 973 1700 1802
3 1964 368 2038
3 1176 1865 1866
3 1096 872 1764
3 1176 1866 1875
3 193 1839 1892
3 156 157 1441
3 615 617 1596
3 686 1520 2480
3 1409 2097 2305
3 2410 1151 2528
3 1427 2217 2361
3 440 1911 2314
3 1744 1743 2296
3 516 1456 1739
3 1939 589 2164
3 690 931 2150
3 1062 1579 1580
3 1054 1580 1581
3 955 1483 1716
3 1064 1677 2248
3 1956 1616 2193
3 1776 1893 2026
3 1398 1115 1973
3 2002 1453 2265
3 1541 1531 1542
3 216 2191 2536
3 1736 1326 1894
3 1065 994 1066
3 1598 2115 2175
3 2314 1911 2358
3 1433 941 2042
3 2115 1209 2175
3 717 1550 1551
3 188 1941 2433
3 267 1132 1414
3 771 1569 2064
3 1157 1545 1546
3 1231 1250 1526
3 1933 240 2181
3 222 1487 2025
3 1525 230 1765
3 1430 1704 2077
3 757 1744 2495
3 264 263 265
3 883 773 1917
3 739 2205 2282
3 1667 1582 2434
3 1744 757 2474
3 239 1453 2002
3 1441 259 2356
3 2005 1443 2012
3 254 1766 1932
3 1509 166 1679
3 1477 1475 1481
3 793 1440 2165
3 1385 1523 2377
3 1481 1475 2523
3 156 1441 2356
3 1066 1220 1655
3 945 325 1952
3 2094 2087 2134
3 1747 1175 1748
3 253 262 263
3 1327 1074 1888
3 718 715 1567
3 2046 1043 2105
3 240 1933 2399
3 1305 1307 1890
3 224 58 1661
3 1195 1566 2285
3 1590 1393 1749
3 1255 1230 1922
3 353 1538 2073
3 358 1999 2325
3 882 1802 2036
3 1024 1020 1604
3 333 522 1998
3 1401 1351 2414
3 1475 1258 1476
3 2310 786 2364
3 328 945 1889
3 807 1748 1927
3 825 724 1912
3 1742 263 2491
3 267 266 1132
3 2077 2102 2203
3 1431 1432 1860
3 1212 1957 2312
3 2097 476 2305
3 1132 1402 2473
3 717 713 1550
3 1746 693 1969
3 1372 1124 1844
3 1256 1541 2269
3 1977 1350 2274
3 2332 1978 2443
3 874 2133 2179
3 1983 1534 2171
3 1157 1544 1545
3 1230 1228 1922
3 1580 1579 1581
3 1565 806 1948
3 1416 1363 2413
3 1287 1995 2398
3 265 263 266
3 1534 1529 2171
3 1604 1834 2428
3 1255 1633 2509
3 1344 1643 1644
3 1332 1388 1571
3 1423 217 2217
3 2191 1057 2451
3 458 447 1637
3 1250 1233 1733
3 472 2212 2222
3 1175 1747 1840
3 1652 256 1653
3 1073 1347 1572
3 200 145 1609
3 683 640 1585
3 1116 862 1705
3 1221 1223 1474
3 1778 801 1803
3 1503 1622 2471
3 1475 1493 2523
3 464 680 2134
3 14 210 2114
3 579 1880 1988
3 1434 1435 1990
3 1447 2310 2364
3 275 274 276
3 2294 1871 2419
3 814 1068 1684
3 1172 1439 2273
3 273 272 274
3 1363 1416 2406
3 1220 1219 1221
3 1060 1656 1662
3 1099 1792 1985
3 2048 1198 2168
3 1241 1245 2323
3 699 723 1753
3 1640 1862 2070
3 910 1018 1584
3 1586 1067 1587
3 1656 867 1662
3 1067 686 2480
3 654 2242 2294
3 1593 1315 1594
3 1880 553 1974
3 236 1717 1718
3 617 621 1596
3 1723 196 2313
3 402 1877 2116
3 273 274 275
3 2202 1869 2252
3 1510 1358 1767
3 193 1892 2373
3 1188 1805 2054
3 1220 1221 1267
3 1066 1218 1219
3 1517 1097 1518
3 1677 1676 1858
3 686 277 1520
3 268 267 269
3 697 857 1592
3 220 1698 1699
3 1802 1700 2036
3 1612 1537 1614
3 929 817 994
3 228 12 2136
3 2110 2116 2482
3 1659 1658 1702
3 1611 1613 2280
3 1344 991 1643
3 683 1585 1604
3 1638 1358 2404
3 1485 1034 2410
3 2214 833 2424
3 271 272 273
3 1482 955 1962
3 1066 1219 1220
3 931 1885 2150
3 1613 1891 2280
3 1189 1589 2204
3 1566 1195 2120
3 726 1567 2490
3 1122 1722 1874
3 1494 319 2493
3 1671 259 1672
3 1267 1221 1474
3 603 528 1591
3 1664 2128 2316
3 1817 1924 2174
3 1626 1660 2111
3 1474 1475 1477
3 1023 1062 1580
3 1957 1599 2312
3 1764 1939 2164
3 1358 1950 2404
3 200 1609 1610
3 1431 1082 1432
3 1778 1803 2521
3 1830 1832 2075
3 1930 233 2369
3 1329 1482 1650
3 757 1959 2522
3 1239 1247 1597
3 758 1978 2332
3 1569 1290 2064
3 216 1694 2191
3 1453 1420 2265
3 1549 1906 2129
3 24 215 1674
3 19 235 1676
3 1621 1057 2191
3 1691 1389 2262
3 1617 1333 2192
3 929 994 1065
3 1769 1672 1986
3 1893 1412 2026
3 1609 1537 1612
3 271 269 272
3 1373 1438 1620
3 217 1423 2381
3 517 330 1889
3 1322 1055 1667
3 1974 553 2499
3 228 2136 2187
3 1589 1189 1788
3 1999 1577 2325
3 2110 405 2116
3 189 1608 1842
3 1055 1050 1667
3 739 1455 2205
3 1865 1176 2215
3 319 1494 2522
3 2474 757 2522
3 1484 227 1485
3 10 11 1588
3 723 809 1753
3 27 230 1689
3 1550 806 1565
3 1179 1180 1217
3 207 1617 2192
3 1433 1217 1502
3 1562 1556 1606
3 1379 2017 2018
3 1245 2158 2323
3 675 1097 1517
3 884 501 1599
3 1020 683 1604
3 1603 1095 1848
3 1001 2057 2154
3 1604 1585 1834
3 1610 1612 1616
3 1764 870 1939
3 2242 1871 2294
3 1669 1264 1670
3 1658 213 1702
3 1995 1646 2398
3 631 539 1600
3 1491 2143 2342
3 1801 1800 2195
3 1200 1199 1693
3 1535 940 1861
3 1534 758 2332
3 914 2258 2328
3 1588 228 2457
3 216 138 1694
3 151 152 1500
3 1133 1880 1974
3 1677 1858 2248
3 1294 1622 1868
3 875 1010 1767
3 1379 2018 2416
3 1279 2202 2252
3 182 256 1652
3 1592 857 2386
3 672 681 1656
3 615 1596 1824
3 1093 1487 1623
3 1823 522 2100
3 1245 1242 1669
3 1582 1581 1583
3 758 1534 2306
3 1975 1984 2230
3 1358 1510 1950
3 1663 1336 1665
3 2102 960 2203
3 366 1087 1786
3 1740 1490 2231
3 21 207 1709
3 145 146 1609
3 2339 765 2384
3 603 1591 1668
3 2081 199 2149
3 1540 1832 1879
3 1721 1723 1947
3 1754 455 1793
3 1751 1753 2119
3 882 1701 1807
3 1540 1539 1917
3 242 1695 1697
3 1521 354 2091
3 1363 2233 2413
3 1584 1018 1925
3 703 1067 1586
3 1177 1178 1179
3 795 916 1834
3 277 276 607
3 1571 1388 1872
3 22 23 1617
3 1097 823 1177
3 25 26 1624
3 419 418 1790
3 1728 1906 2259
3 440 1455 2261
3 1877 1318 2116
3 1488 1156 1608
3 1439 2130 2273
3 1889 1451 1890
3 1614 209 2389
3 1472 893 2094
3 675 821 823
3 23 24 1674
3 1788 1190 2183
3 917 941 1622
3 1763 1096 1764
3 1068 1442 1684
3 1034 1485 2173
3 2172 1533 2230
3 138 139 1694
3 1065 1570 2197
3 607 674 675
3 1536 1248 2268
3 229 135 1734
3 1437 1925 1926
3 680 510 1646
3 147 209 1537
3 26 27 1689
3 1627 705 2163
3 206 1651 2121
3 2409 1785 2462
3 1492 682 2447
3 1223 1225 1258
3 889 1772 2374
3 253 263 264
3 275 276 277
3 1455 739 2261
3 2022 1382 2176
3 150 227 1484
3 639 1019 1591
3 1449 1640 2070
3 1082 833 2214
3 1503 1502 1504
3 144 200 1717
3 1643 991 1713
3 1190 1791 2183
3 1538 1804 2073
3 1256 2269 2440
3 18 19 1676
3 521 531 2000
3 790 849 2180
3 1075 1329 1650
3 1087 1782 1785
3 1066 994 1218
3 270 269 271
3 682 1492 2494
3 185 252 1454
3 253 158 262
3 1629 1632 1633
3 200 1610 1611
3 1477 1481 2104
3 1623 1487 2465
3 1518 1097 1535
3 1414 1132 2460
3 1179 1217 1433
3 177 1506 1680
3 1392 1017 2525
3 1832 834 2075
3 675 823 1097
3 1459 2094 2134
3 1782 1087 1795
3 1838 1730 2372
3 1639 149 2528
3 1617 23 1674
3 2265 1420 2489
3 180 232 1859
3 1527 1250 1528
3 20 21 1709
3 1083 1508 2311
3 903 866 1703
3 1455 440 2314
3 1187 1858 1888
3 1659 1406 2473
3 1446 1902 2166
3 421 1951 2106
3 1598 210 2115
3 154 259 1671
3 1288 1835 2080
3 1832 1831 1879
3 1258 1225 1478
3 1024 1604 2117
3 1263 1429 1739
3 706 705 1627
3 1583 1581 2352
3 407 1805 1951
3 856 1574 2527
3 1701 882 2036
3 1624 26 1689
3 717 1551 1552
3 1385 2377 2391
3 2302 1745 2354
3 1572 1347 2157
3 1036 883 1917
3 1689 1690 1691
3 1664 1665 2128
3 1476 1479 1480
3 1751 2119 2143
3 815 814 1684
3 1790 889 2400
3 1606 1607 2085
3 265 267 268
3 418 889 1790
3 1522 1521 2091
3 135 136 1734
3 1726 1445 1729
3 647 1796 1797
3 1346 1453 2279
3 1293 1827 2117
3 1242 1244 1669
3 1853 1852 1854
3 889 2374 2400
3 1039 1038 1290
3 1524 628 2199
3 1331 1332 1571
3 1291 1290 1569
3 1475 1476 1493
3 1850 1852 1853
3 1490 1740 2456
3 1689 230 1690
3 1256 1526 1541
3 1704 1705 2167
3 1465 1470 1675
3 956 1073 1572
3 1613 1616 1956
3 916 917 1038
3 2014 1522 2091
3 1221 1222 1223
3 1999 763 2352
3 234 10 1588
3 1697 220 2335
3 1527 1528 1529
3 2298 1600 2413
3 1436 2020 2254
3 1642 1161 1678
3 1523 1385 2436
3 1730 1838 2426
3 795 796 916
3 713 711 1550
3 1456 1263 1739
3 999 1336 1663
3 1785 1784 2462
3 409 415 1783
3 607 675 1517
3 1229 1231 1526
3 1958 1855 2078
3 1589 1588 1590
3 1933 261 2380
3 762 1965 2038
3 1756 1458 2203
3 1776 597 1893
3 1794 1072 1893
3 188 1512 2266
3 1774 2339 2384
3 188 1908 1941
3 1010 1510 1767
3 2189 2285 2307
3 773 834 1917
3 1245 1669 1670
3 1248 1597 2268
3 146 1537 1609
3 818 910 1584
3 1641 1313 1651
3 1217 1745 2302
3 1065 1066 1655
3 1597 1247 2047
3 1360 2177 2376
3 1612 1615 1616
3 2126 867 2186
3 1019 683 1020
3 1747 892 1840
3 1092 1093 1623
3 261 1933 2181
3 400 424 1666
3 1516 1903 2377
3 1100 1392 1605
3 247 1738 1881
3 268 1134 1986
3 1177 823 1178
3 884 1599 1957
3 263 262 2491
3 806 1627 1948
3 1227 1229 1256
3 191 1729 2504
3 1636 1635 2502
3 1480 1479 1601
3 1721 1947 2498
3 1924 1146 2174
3 229 1734 1735
3 175 204 1725
3 1179 1178 1180
3 354 1521 2147
3 665 697 1592
3 640 646 1585
3 627 545 1636
3 1882 240 2399
3 1556 1555 1606
3 1373 1620 2394
3 1871 1071 2419
3 548 1628 1629
3 455 436 1793
3 974 1831 1841
3 1844 1413 2392
3 1612 1614 1615
3 209 1639 1937
3 1329 1330 1331
3 1823 2100 2142
3 1097 1177 1535
3 1021 1020 1022
3 825 1912 2455
3 913 1122 1874
3 400 1666 2113
3 1256 1229 1526
3 1419 1418 2450
3 1552 1551 1553
3 1850 1099 1852
3 1629 1631 1632
3 801 685 2029
3 1618 1619 1621
3 265 268 1986
3 1715 2165 2330
3 1531 1529 1534
3 1022 1024 1576
3 658 693 1746
3 703 686 1067
3 1062 1576 1577
3 1023 1022 1062
3 236 1718 2394
3 1688 502 1740
3 1501 1477 2104
3 213 165 1509
3 646 795 1585
3 196 1737 1738
3 379 679 1795
3 639 640 683
3 924 875 1767
3 1752 699 1753
3 207 2192 2315
3 627 1636 1660
3 1217 1180 1745
3 730 728 1833
3 528 561 1591
3 1444 1417 1998
3 252 186 1602
3 1729 1445 2504
3 460 502 1688
3 1418 946 1778
3 1203 1200 1693
3 548 470 1628
3 849 668 1640
3 646 785 795
3 607 276 674
3 14 15 210
3 147 148 209
3 478 460 1688
3 1709 207 2315
3 1157 1546 1608
3 1155 1731 1899
3 1524 1934 2390
3 1775 921 1876
3 1433 1502 1503
3 470 458 1628
3 1223 1224 1225
3 1291 1569 1964
3 871 1056 1826
3 1781 1783 1915
3 1587 1067 2300
3 916 1038 1039
3 1388 1387 1389
3 1611 1610 1613
3 1075 1328 1329
3 1039 1290 1291
3 1538 1265 1804
3 1184 1185 2163
3 597 598 1794
3 1450 1356 2421
3 1835 576 2080
3 1629 1628 1631
3 1331 1330 1332
3 561 639 1591
3 1476 1480 1493
3 705 703 1586
3 639 683 1019
3 1951 1188 2106
3 436 446 1793
3 1472 1297 2142
3 1332 1387 1388
3 1345 984 1720
3 1329 1328 1330
3 1050 1048 1667
3 150 151 227
3 11 12 228
3 557 541 2256
3 1831 974 1879
3 134 229 1766
3 1357 1358 1638
3 1336 1641 2299
3 1650 1482 1962
3 1591 1019 2512
3 1506 1507 1570
3 1803 801 2029
3 1178 823 1972
3 1552 1553 1554
3 1290 1038 1294
3 1028 1313 1641
3 1237 1239 1597
3 993 1017 1100
3 893 2087 2094
3 149 1484 2528
3 1768 1142 1949
3 9 234 1673
3 1554 1553 1555
3 668 632 1640
3 711 806 1550
3 1628 458 1637
3 1098 1829 1830
3 1482 1331 1483
3 531 1818 2000
3 435 419 1790
3 1156 1157 1608
3 1182 1184 2179
3 510 512 1646
3 1231 1233 1250
3 946 841 1778
3 1483 1331 1571
3 1459 680 2458
3 1166 1040 1210
3 892 1657 1820
3 1042 1445 1726
3 1019 1020 1021
3 749 805 1810
3 234 1588 1589
3 1695 242 1892
3 556 1853 2483
3 1018 1572 1573
3 1529 1528 1530
3 1606 1558 1607
3 1761 1759 2308
3 1396 1032 1921
3 1018 956 1572
3 689 1150 1416
3 1827 1293 2515
3 149 150 1484
3 1647 656 1648
3 1543 694 2196
3 399 409 1783
3 545 525 1636
3 268 269 270
3 715 713 717
3 1100 1017 1392
3 1657 892 1747
3 207 22 1617
3 1666 884 2249
3 1671 1672 1769
3 1554 1555 1556
3 146 147 1537
3 1081 1444 1822
3 711 709 806
3 1443 2005 2322
3 660 658 1746
3 1166 1458 1754
3 916 796 917
3 1056 1728 1826
3 1068 1069 1275
3 184 185 1454
3 158 159 262
3 2007 1687 2231
3 805 1708 1810
3 1672 264 1986
3 1561 1562 1563
3 978 1075 1650
3 1590 1588 2457
3 215 25 1624
3 1551 1550 1565
3 1073 1346 1347
3 857 818 1584
3 1648 656 1649
3 675 674 821
3 561 594 639
3 1731 529 1899
3 2303 1454 2535
3 981 903 1040
3 1630 1629 1633
3 993 877 1017
3 724 718 726
3 512 603 1646
3 1676 235 1858
3 814 1060 1068
3 715 717 1567
3 1796 647 1870
3 1715 1171 2165
3 678 1592 1593
3 644 613 1824
3 1690 1525 2145
3 1297 1822 1823
3 271 656 1647
3 1704 1116 1705
3 1225 1226 1227
3 1275 1069 1338
3 910 956 1018
3 1824 1596 2154
3 1403 1100 1605
3 1221 1219 1222
3 1068 1060 1069
3 1901 245 1949
3 1081 1055 1321
3 1751 563 1752
3 1021 1022 1023
3 672 638 681
3 1095 657 1848
3 1235 1237 1248
3 1561 1556 1562
3 1265 1259 1804
3 524 1819 2016
3 978 1650 2362
3 1492 516 2494
3 229 1735 2061
3 185 186 252
3 157 158 253
3 152 153 233
3 9 10 234
3 1527 1529 1531
3 1808 1344 2360
3 1062 1577 1579
3 1509 1679 1977
3 424 454 1666
3 637 638 672
3 981 1040 1166
3 1555 1558 1606
3 751 749 1810
3 1166 1210 1458
3 1651 1313 2121
3 15 16 2260
3 1633 1632 2509
3 2167 1705 2276
3 551 602 2045
3 697 818 857
3 364 1786 1883
3 832 1189 2204
3 1476 1478 1479
3 678 665 1592
3 213 1509 2096
3 1015 888 1124
3 1062 1022 1576
3 679 1782 1795
3 680 1646 1995
3 1101 1100 1403
3 1109 433 1714
3 1248 1237 1597
3 733 730 1833
3 1702 213 2096
3 499 498 1828
3 1418 1778 2521
3 637 600 638
3 1048 1046 1054
3 1577 1576 1578
3 814 766 1060
3 1279 2252 2292
3 474 470 548
3 199 18 1676
3 157 253 1441
3 1048 1054 1667
3 471 472 2290
3 625 665 678
3 795 785 796
3 1264 1265 1266
3 1437 1926 2350
3 1362 2048 2168
3 1394 2337 2371
3 454 884 1666
3 1022 1020 1024
3 751 1810 1923
3 1046 1023 1580
3 1807 1701 1931
3 1618 208 1619
3 566 588 689
3 1828 498 1829
3 501 509 1599
3 1118 780 1775
3 878 817 929
3 1510 1511 1950
3 1618 1621 1694
3 1052 1081 1822
3 1416 1150 1715
3 1239 1241 1247
3 1396 1921 2067
3 1751 1752 1753
3 1264 1259 1265
3 539 566 1600
3 1762 1127 2496
3 1673 1788 2183
3 1555 1557 1558
3 1052 1050 1055
3 725 724 825
3 1142 1770 1771
3 681 853 867
3 454 501 884
3 1346 1420 1453
3 932 1147 1770
3 1546 1545 1547
3 533 582 1818
3 1266 1337 1460
3 1872 820 2318
3 1117 1119 1713
3 1081 1321 1417
3 1253 1259 1264
3 1569 771 2135
3 1052 1055 1081
3 1181 1178 1972
3 709 706 1627
3 1073 1076 1346
3 1098 1828 1829
3 1382 1380 2176
3 1442 1275 1443
3 919 999 1663
3 1789 828 1855
3 877 815 1684
3 509 539 631
3 992 877 993
3 1266 1265 1337
3 2268 1498 2340
3 1130 1032 1396
3 1095 1603 2508
3 886 826 887
3 531 533 1818
3 1131 1400 1881
3 447 437 516
3 2460 1132 2473
3 940 1535 2418
3 768 1873 2037
3 1813 1869 1954
3 1627 2163 2488
3 1497 1495 1645
3 1198 1409 2168
3 724 726 1912
3 1869 987 1954
3 763 1999 2338
3 1010 1170 1374
3 984 976 1720
3 1470 1743 1744
3 689 588 1150
3 1901 1949 2359
3 1640 632 1862
3 274 272 1787
3 563 564 1752
3 994 817 1505
3 737 1807 1931
3 1770 1147 1771
3 1233 1235 1733
3 2450 1418 2521
3 414 410 1821
3 908 1099 1850
3 1227 1228 1229
3 1692 1203 1693
3 1625 216 2194
3 512 528 603
3 1377 1357 1638
3 1465 1464 1470
3 1360 1359 2177
3 1686 2007 2095
3 1336 1028 1641
3 1857 751 1923
3 1758 572 1759
3 553 541 557
3 1171 1715 1811
3 956 1003 1073
3 1467 1465 1675
3 719 718 724
3 1509 1977 2096
3 1734 1625 1736
3 1503 1504 1868
3 592 597 1776
3 180 181 232
3 162 163 231
3 2308 1759 2370
3 1357 1114 1358
3 875 946 1010
3 509 631 1599
3 17 18 199
3 144 145 200
3 1099 906 1792
3 1469 1467 1494
3 605 589 1939
3 1208 1205 1211
3 354 344 2091
3 692 782 804
3 1010 946 1170
3 1463 1462 1464
3 716 715 718
3 714 713 715
3 271 273 656
3 139 1618 1694
3 549 277 686
3 673 672 766
3 1378 1377 1379
3 2007 868 2095
3 999 1028 1336
3 1208 1211 1447
3 601 545 627
3 1119 1643 1713
3 1332 1333 1387
3 910 912 956
3 520 521 2000
3 828 1789 1819
3 277 607 1520
3 1338 1339 2247
3 818 819 910
3 767 766 814
3 712 711 713
3 1494 1467 1675
3 639 594 640
3 2044 557 2256
3 235 20 1709
3 1620 236 2394
3 804 919 962
3 1862 702 2070
3 681 852 853
3 1559 1556 1561
3 1622 941 2471
3 2165 1440 2330
3 612 644 692
3 697 698 818
3 1903 1516 1994
3 371 379 1795
3 428 426 2138
3 1290 1294 2064
3 1384 1904 2432
3 566 689 1600
3 471 452 472
3 1092 1091 1093
3 1002 1131 1719
3 1090 1089 1091
3 875 841 946
3 1758 1760 1763
3 1562 1606 2085
3 1833 1830 2075
3 178 179 214
3 164 165 213
3 769 923 1815
3 692 644 782
3 804 782 919
3 182 183 256
3 160 161 257
3 1329 1331 1482
3 962 1663 1664
3 1177 1179 2042
3 403 405 1805
3 1461 1460 1462
3 140 208 1618
3 1859 232 1860
3 274 1787 2099
3 1381 2126 2186
3 1558 1560 1789
3 430 428 682
3 452 435 1683
3 1487 1156 1488
3 1470 1464 1743
3 597 1794 1893
3 1244 1253 1669
3 962 919 1663
3 258 8 1673
3 1087 1785 1786
3 970 1042 1726
3 199 1677 2149
3 1664 1663 1665
3 1229 1230 1231
3 991 827 1713
3 792 1603 1848
3 1822 1444 1823
3 665 666 697
3 19 20 235
3 142 143 236
3 728 1098 1833
3 532 530 1898
3 1015 1124 1372
3 1546 1547 1548
3 1851 1850 1853
3 1877 393 2240
3 923 1105 1815
3 1090 1091 1092
3 687 686 703
3 1683 435 1790
3 887 826 1961
3 684 663 1089
3 426 1934 2138
3 464 510 680
3 853 854 855
3 568 572 1758
3 1376 1357 1377
3 1205 1203 1692
3 1607 1789 1855
3 710 709 711
3 780 781 1775
3 1434 1103 1435
3 876 815 877
3 766 672 1656
3 1393 1590 2457
3 684 1089 1090
3 530 890 1898
3 926 1920 1943
3 696 414 1821
3 1563 1562 1777
3 1054 1046 1580
3 1398 1973 1974
3 137 216 1625
3 1210 1040 1430
3 1750 563 1751
3 2010 1665 2299
3 1510 1374 1511
3 1777 1562 2085
3 1707 252 1791
3 1932 1404 1933
3 459 438 1814
3 139 140 1618
3 1093 1156 1487
3 231 163 1658
3 699 722 723
3 1545 1095 2508
3 598 612 1794
3 579 554 1880
3 1941 1908 2401
3 1231 1232 1233
3 1831 1829 1841
3 1037 1383 1799
3 177 178 1506
3 636 600 637
3 1036 1539 2286
3 1356 1114 1357
3 1523 1516 2377
3 704 703 705
3 403 402 405
3 648 792 1848
3 723 756 808
3 1388 1389 2170
3 933 932 1770
3 223 1710 1711
3 1779 399 1783
3 1223 1222 1224
3 1028 1029 1313
3 257 161 1654
3 418 412 421
3 734 882 1807
3 693 657 1095
3 1368 1370 1436
3 136 137 1625
3 688 652 817
3 1075 1327 1328
3 540 479 1813
3 398 395 402
3 548 1629 1630
3 574 591 699
3 1469 1494 1495
3 1041 1598 2175
3 167 168 202
3 175 176 204
3 2045 2046 2201
3 186 187 1602
3 886 887 888
3 1253 1254 1259
3 8 9 1673
3 792 655 810
3 843 1145 1960
3 1180 1349 1745
3 1165 1345 1512
3 708 706 709
3 136 1625 1734
3 21 22 207
3 140 141 208
3 625 626 665
3 1093 1094 1156
3 1585 795 1834
3 1117 1713 1806
3 599 579 600
3 810 871 1826
3 1047 1046 1048
3 1292 1291 1293
3 161 162 1654
3 199 1676 1677
3 1260 1282 1804
3 1005 1142 1768
3 1233 1234 1235
3 792 810 922
3 1122 1719 1737
3 976 985 1720
3 1278 1279 2292
3 2390 1934 2531
3 1436 1437 2350
3 270 271 1647
3 1199 966 1846
3 1683 1342 2212
3 656 273 2124
3 699 591 722
3 1977 1139 2096
3 1738 1719 1881
3 1722 985 1874
3 1797 1448 1798
3 162 231 1654
3 632 604 1862
3 252 1602 1791
3 1051 1050 1052
3 1045 1023 1046
3 648 655 792
3 993 1100 1101
3 1321 1055 1322
3 806 709 1627
3 904 903 981
3 1220 1267 1268
3 648 605 655
3 1737 1719 1738
3 385 399 1779
3 506 499 1828
3 1132 266 1402
3 1170 1418 1419
3 1323 2302 2354
3 24 25 215
3 137 138 216
3 721 965 1919
3 1787 1414 2460
3 778 1117 1806
3 723 722 756
3 407 403 1805
3 564 574 1752
3 1049 1048 1050
3 842 841 875
3 1608 1546 1842
3 809 808 899
3 1517 1519 1520
3 1530 1532 1533
3 889 421 1772
3 913 1002 1122
3 1314 1316 1367
3 1017 877 1684
3 841 802 1778
3 1235 1236 1237
3 751 1857 1900
3 1114 924 1767
3 1344 1644 2360
3 1895 1394 2371
3 1518 1535 1861
3 1758 1759 1760
3 1122 1002 1719
3 546 563 1750
3 1056 1726 1727
3 663 660 1746
3 621 622 625
3 1720 985 1721
3 1857 1843 1900
3 808 756 913
3 1056 970 1726
3 27 28 230
3 134 135 229
3 908 906 1099
3 163 164 1658
3 1727 1726 1729
3 7 8 258
3 154 155 259
3 1101 1403 1404
3 808 913 1874
3 1260 1269 1282
3 1389 1387 2262
3 1297 1053 1822
3 1555 1553 1557
3 1463 1464 1465
3 230 28 1765
3 1237 1238 1239
3 554 553 1880
3 775 778 1806
3 985 899 1874
3 1270 1524 2199
3 489 1820 1936
3 692 1072 1794
3 1472 2142 2272
3 1845 496 1929
3 438 431 1814
3 613 615 1824
3 1241 1242 1245
3 1783 415 1915
3 1192 2081 2149
3 178 214 1506
3 1816 988 1817
3 1760 1759 1761
3 1103 1092 1623
3 1512 1345 1661
3 1876 921 2295
3 1165 984 1345
3 978 1074 1075
3 1239 1240 1241
3 542 541 553
3 813 988 1816
3 1148 984 1165
3 871 970 1056
3 472 452 1683
3 1207 1796 1870
3 1167 1166 1754
3 1296 1053 1297
3 966 964 1846
3 976 899 985
3 982 976 984
3 702 1815 2015
3 900 899 976
3 1143 995 1206
3 1576 1024 1827
3 1235 1248 1733
3 1558 1557 1560
3 943 995 1143
3 1920 1144 1943
3 1471 2115 2477
3 29 30 255
3 132 133 254
3 1630 1633 1634
3 1225 1224 1226
3 1925 1573 1926
3 1211 1205 1692
3 725 825 826
3 1113 924 1114
3 600 579 1988
3 717 1552 1567
3 1820 1657 1936
3 674 276 2099
3 395 393 1877
3 572 543 1897
3 1575 1308 2255
3 999 1000 1028
3 1118 1775 1876
3 1797 1798 2430
3 526 546 559
3 867 853 2186
3 1142 1771 1949
3 1068 1275 1442
3 679 385 1779
3 1607 1558 1789
3 580 568 1758
3 1244 1252 1253
3 1760 1761 1762
3 398 402 403
3 1476 1258 1478
3 418 421 889
3 1771 1147 1839
3 164 213 1658
3 1720 1721 2267
3 1668 1591 2512
3 1042 1128 1445
3 1098 1830 1833
3 1102 1092 1103
3 2249 884 2466
3 1104 1103 1434
3 410 416 1821
3 514 513 541
3 580 1758 1763
3 637 673 1741
3 1913 936 1914
3 1394 1395 2337
3 919 920 999
3 577 554 579
3 2111 1660 2263
3 231 1658 1659
3 612 613 644
3 568 543 572
3 770 775 1806
3 1445 1128 1446
3 1546 1548 1842
3 448 460 478
3 810 870 871
3 1789 1560 1819
3 1154 1082 1431
3 873 973 1802
3 379 385 679
3 837 850 921
3 1461 1462 1463
3 1346 1076 1420
3 1088 1344 1808
3 2125 1143 2353
3 931 977 978
3 882 772 1802
3 29 255 1765
3 849 1513 2180
3 1713 827 1806
3 1130 1396 1397
3 681 638 852
3 1417 1321 1873
3 1654 1402 2530
3 502 526 1740
3 1124 888 2177
3 1266 1460 1461
3 515 1175 1840
3 1253 1264 1669
3 479 466 1813
3 1727 1729 1757
3 379 380 385
3 1971 1480 2514
3 1637 1739 2459
3 1207 1205 1208
3 529 519 1899
3 1129 1845 1929
3 224 1661 2267
3 192 1856 2361
3 732 734 1807
3 1184 2163 2435
3 1119 1120 1353
3 415 414 431
3 719 724 725
3 559 546 1750
3 871 872 970
3 1038 917 1622
3 574 699 1752
3 166 167 1679
3 1117 1118 1119
3 1409 1196 2035
3 617 619 621
3 1172 1173 1439
3 1191 1005 1768
3 664 663 684
3 494 493 1841
3 890 529 1731
3 840 802 841
3 493 974 1841
3 385 386 399
3 679 1779 1780
3 371 376 379
3 416 433 1109
3 670 769 1815
3 902 866 903
3 1780 1779 1781
3 480 515 1840
3 970 971 1042
3 433 448 1714
3 28 29 1765
3 1005 949 1142
3 778 780 1117
3 959 1037 1799
3 1073 1003 1076
3 535 532 1898
3 1119 1118 1120
3 658 657 693
3 1378 1379 1380
3 1397 1396 1809
3 1610 1609 1612
3 1819 1560 2016
3 1837 952 1865
3 1719 1131 1881
3 1131 1399 1400
3 1352 1138 2058
3 399 406 409
3 548 1630 2041
3 1275 1338 2251
3 582 1816 1818
3 1835 1836 2144
3 993 1101 1980
3 1699 1698 1700
3 2407 364 2505
3 1189 1190 1788
3 1117 780 1118
3 1830 1829 1831
3 637 672 673
3 692 804 1072
3 1204 1203 1205
3 1374 1170 2139
3 612 692 1794
3 1642 1408 2286
3 723 808 809
3 450 459 1812
3 409 410 414
3 802 801 1778
3 1853 1854 2483
3 1042 1127 1128
3 1199 1846 2225
3 1147 990 1273
3 1383 1384 2432
3 432 431 438
3 1353 1120 1390
3 1093 1091 1094
3 2020 250 2254
3 148 149 1639
3 606 605 648
3 1970 2016 2422
3 2201 2046 2327
3 475 471 513
3 412 407 1951
3 1991 246 2139
3 727 695 728
3 1673 234 1788
3 1554 1556 1559
3 1089 663 1746
3 1846 964 2056
3 923 991 1088
3 409 406 410
3 729 728 730
3 1424 1427 1856
3 1473 1911 2407
3 1376 1377 1378
3 1010 1374 1510
3 853 852 854
3 366 369 1087
3 772 873 1802
3 1219 1218 1626
3 1766 229 2061
3 1088 991 1344
3 922 810 1826
3 518 506 695
3 405 402 2116
3 962 1664 2316
3 913 942 1002
3 932 990 1147
3 629 813 1816
3 876 877 992
3 399 386 406
3 932 845 990
3 1002 1123 1131
3 843 996 1145
3 781 837 1775
3 262 2304 2491
3 431 696 1814
3 1273 1695 1892
3 731 730 732
3 737 732 1807
3 439 438 450
3 1829 498 1841
3 800 685 801
3 767 814 815
3 1060 766 1656
3 673 766 767
3 1403 1605 1882
3 716 718 719
3 1338 1069 1339
3 847 752 1843
3 864 862 1116
3 2302 443 2519
3 923 827 991
3 526 559 1740
3 1911 1473 2358
3 1085 1310 1867
3 809 899 900
3 1227 1226 1228
3 729 730 731
3 1436 1370 1437
3 731 732 737
3 769 827 923
3 456 452 471
3 1433 1503 2471
3 1435 1103 1623
3 385 380 386
3 1141 1787 2460
3 1354 1088 1808
3 657 649 1848
3 415 431 432
3 484 892 1820
3 727 728 729
3 855 854 1450
3 1721 1722 1723
3 1643 1353 1644
3 1145 1916 1960
3 1421 1191 1422
3 466 1812 1813
3 943 944 995
3 1356 1357 1376
3 714 715 716
3 1156 1094 1157
3 598 611 612
3 631 1600 2298
3 590 589 605
3 965 969 1919
3 416 1109 1821
3 242 1697 2335
3 1548 1547 1549
3 550 573 584
3 584 604 632
3 409 414 415
3 712 713 714
3 642 670 702
3 818 698 819
3 1006 1005 1191
3 1624 1689 1691
3 169 170 237
3 173 174 238
3 956 912 1003
3 937 936 1913
3 1317 1025 1875
3 515 540 550
3 973 1799 1800
3 973 959 1799
3 518 695 727
3 910 819 912
3 584 573 604
3 1170 946 1418
3 173 238 1847
3 550 540 573
3 982 984 1148
3 900 976 982
3 441 435 452
3 448 478 1714
3 1849 1648 2173
3 1631 1628 1637
3 1830 1831 1832
3 1383 1216 1384
3 734 772 882
3 949 933 1770
3 1332 1330 1333
3 574 575 591
3 1105 1088 1354
3 702 670 1815
3 498 494 1841
3 827 770 1806
3 873 959 973
3 1390 1391 1415
3 450 438 459
3 950 949 1005
3 351 362 364
3 1313 1029 1314
3 432 438 439
3 837 838 850
3 1273 1274 1695
3 850 851 943
3 911 952 1837
3 1259 1260 1804
3 566 587 588
3 1037 1216 1383
3 1337 1265 1538
3 1087 369 1795
3 810 655 870
3 1559 1561 1566
3 1147 1273 1839
3 732 733 734
3 1662 867 2126
3 890 1731 2241
3 1854 1852 2397
3 515 479 540
3 451 450 466
3 697 666 698
3 1367 1316 1368
3 662 660 663
3 365 355 694
3 1358 1114 1767
3 379 376 380
3 1796 1448 1797
3 179 180 1859
3 790 668 849
3 569 568 580
3 690 860 931
3 466 450 1812
3 431 414 696
3 1973 1133 1974
3 651 649 657
3 467 466 479
3 1288 1289 1835
3 264 265 1986
3 1302 1303 1304
3 592 596 597
3 1873 1321 2037
3 544 543 568
3 275 277 549
3 209 1937 2389
3 539 565 566
3 1485 227 1486
3 2384 2190 2408
3 1781 1779 1783
3 480 479 515
3 689 1416 2413
3 1108 1161 1539
3 1867 1310 1895
3 1300 1301 1302
3 1695 1696 1697
3 633 632 668
3 1304 1451 1452
3 988 911 1837
3 168 169 1724
3 969 1012 1172
3 582 629 1816
3 1843 752 1900
3 629 812 813
3 710 711 712
3 1782 1780 1784
3 536 535 543
3 1089 1746 1969
3 1108 1107 1161
3 1514 1426 1856
3 486 484 1820
3 369 371 1795
3 1817 988 1924
3 493 609 974
3 1422 1191 2023
3 1426 1424 1856
3 842 875 924
3 922 1826 2259
3 989 1361 1886
3 928 1070 1288
3 669 668 790
3 1113 1114 1356
3 1027 847 1843
3 728 695 1098
3 734 735 772
3 975 1107 1108
3 955 859 1962
3 813 911 988
3 1208 1448 1796
3 1101 1405 1980
3 602 676 2045
3 586 581 589
3 546 547 563
3 493 491 609
3 628 1524 2390
3 348 344 354
3 1298 1299 1300
3 509 538 539
3 974 609 975
3 813 891 911
3 871 870 872
3 1355 1354 1423
3 489 486 1820
3 778 779 780
3 1025 1176 1875
3 772 773 873
3 803 1743 2347
3 167 202 1679
3 873 883 959
3 1483 1571 2375
3 427 1756 2221
3 540 1813 1954
3 1202 1200 1203
3 959 1035 1037
3 837 921 1775
3 1304 1305 1451
3 1799 1383 2195
3 604 642 1862
3 1470 1744 2474
3 1854 2397 2453
3 1282 1269 1386
3 1573 1572 2157
3 472 2222 2290
3 1307 1708 2341
3 769 770 827
3 1037 1215 1216
3 791 790 856
3 1053 1052 1822
3 1056 1727 1728
3 1341 1138 1352
3 1300 1299 1301
3 1814 696 1838
3 1198 1196 1409
3 492 491 493
3 439 450 451
3 1171 858 2132
3 1259 1254 1260
3 665 626 666
3 970 872 971
3 258 1602 2357
3 1296 1297 1472
3 490 489 491
3 516 437 2494
3 1298 1027 1299
3 846 845 932
3 501 508 509
3 460 461 502
3 448 449 460
3 482 480 1840
3 1229 1228 1230
3 604 641 642
3 1424 1423 1427
3 502 503 526
3 1028 1000 1029
3 935 933 949
3 1084 1085 1867
3 2028 1711 2353
3 1513 1426 1514
3 892 482 1840
3 852 638 1988
3 402 395 1877
3 738 737 845
3 413 412 418
3 1119 1353 1643
3 526 527 546
3 280 279 281
3 1731 1155 2123
3 1042 971 1127
3 1208 1447 1448
3 433 434 448
3 262 159 2304
3 184 1454 2303
3 1051 1052 1053
3 1816 1817 1818
3 1081 1417 1444
3 781 836 837
3 911 951 952
3 1090 1092 1102
3 202 168 1724
3 1085 1309 1310
3 408 407 412
3 1337 1538 1864
3 1515 1514 1516
3 530 529 890
3 1517 1518 1519
3 549 686 687
3 923 1088 1105
3 404 403 407
3 1835 1289 1836
3 1314 1367 2121
3 1380 1379 2416
3 670 671 769
3 899 808 1874
3 1040 903 1703
3 1596 1595 2154
3 1496 1495 1497
3 636 637 1741
3 1377 1638 2288
3 1288 1070 1289
3 1072 804 1981
3 1129 1334 1845
3 1865 1084 1866
3 792 922 1603
3 1253 1252 1254
3 981 1167 1792
3 1302 1301 1303
3 1641 1651 2019
3 952 953 1084
3 1813 1812 1869
3 732 730 733
3 975 1106 1107
3 1142 949 1770
3 981 1166 1167
3 840 841 842
3 451 466 467
3 1273 990 1274
3 1049 1050 1051
3 1473 2407 2505
3 968 966 1199
3 642 643 670
3 1310 1309 1311
3 422 419 435
3 1063 833 1082
3 919 782 920
3 911 891 951
3 1084 953 1085
3 1763 1764 2164
3 1498 1497 1682
3 515 550 1175
3 1079 937 1913
3 642 702 1862
3 845 737 1931
3 1394 1311 1395
3 1395 1521 1522
3 467 479 480
3 1755 1754 1793
3 1231 1230 1232
3 1557 1553 2030
3 1624 1691 2262
3 584 632 633
3 1094 1091 1969
3 708 709 710
3 1948 1627 2488
3 952 951 953
3 1102 1103 1104
3 1047 1048 1049
3 1310 1311 1394
3 1852 1099 1985
3 143 144 1717
3 813 812 891
3 1944 1044 1945
3 1105 1354 1355
3 1300 1302 1455
3 1914 936 1940
3 1415 1391 1710
3 1299 1027 1843
3 952 1084 1865
3 1695 1274 1696
3 776 774 1928
3 282 281 283
3 2003 1347 2279
3 1206 995 1499
3 1164 1685 1686
3 1551 1565 2030
3 969 1172 1919
3 633 668 669
3 734 733 735
3 1373 1372 1438
3 599 600 636
3 1431 1860 2487
3 1579 1577 1999
3 484 482 892
3 917 940 941
3 2144 1836 2169
3 1866 1084 1867
3 1110 1747 1748
3 998 1171 1811
3 1390 1120 1391
3 644 1824 2057
3 1362 1961 2048
3 944 1283 1825
3 1086 1027 1298
3 679 1780 1782
3 974 975 1879
3 507 506 518
3 1121 1079 1401
3 775 777 778
3 1965 762 2349
3 1045 1046 1047
3 1772 421 2106
3 16 17 2081
3 416 417 433
3 921 850 2125
3 1607 1855 1958
3 649 648 1848
3 1241 1240 1242
3 2012 1443 2251
3 926 928 1920
3 1487 1488 2025
3 1006 1191 1421
3 1355 1423 1424
3 1133 852 1988
3 591 592 1776
3 1299 1843 1857
3 1085 1308 1309
3 490 491 492
3 958 694 1575
3 1384 1216 1385
3 741 915 1878
3 1233 1232 1234
3 669 790 791
3 481 480 482
3 687 703 704
3 492 493 494
3 1634 1633 1922
3 1697 1696 1698
3 1721 985 1722
3 1839 1273 1892
3 772 735 773
3 488 486 489
3 950 1005 1006
3 1513 1514 1515
3 454 500 501
3 873 773 883
3 284 283 285
3 2185 1505 2442
3 959 883 1035
3 543 535 1897
3 1904 1384 2093
3 800 801 802
3 1037 1035 1215
3 1293 1964 1965
3 1239 1238 1240
3 943 1143 2125
3 1782 1784 1785
3 913 756 942
3 488 490 1884
3 1590 1749 2501
3 1235 1234 1236
3 791 856 1408
3 702 2015 2070
3 1108 1539 1540
3 1021 1023 1045
3 695 506 1828
3 1530 1528 1532
3 488 489 490
3 1621 1619 2161
3 704 705 706
3 1304 1303 1305
3 558 1704 2167
3 625 622 626
3 542 553 554
3 604 573 641
3 664 684 685
3 564 571 574
3 1108 1540 1879
3 1856 1427 2361
3 880 1025 1129
3 1395 1311 1521
3 1466 1465 1467
3 915 495 1884
3 1515 1516 1523
3 1237 1236 1238
3 606 648 649
3 999 920 1000
3 676 829 1043
3 2100 794 2142
3 227 151 1500
3 577 579 599
3 153 154 1671
3 1175 550 1927
3 1014 888 1015
3 286 285 287
3 1649 1280 2427
3 1725 204 2137
3 975 609 1106
3 1129 1317 1334
3 1109 1730 2426
3 1468 1467 1469
3 1131 1123 1399
3 1215 2235 2378
3 1976 1149 1989
3 397 395 398
3 746 743 1878
3 1041 1343 1598
3 975 1108 1879
3 741 495 915
3 1167 1754 1755
3 288 287 289
3 743 741 1878
3 1274 990 1931
3 1506 214 1507
3 857 1584 2277
3 2341 1522 2387
3 846 932 933
3 1107 1106 1110
3 584 633 1927
3 290 289 291
3 722 591 1776
3 1544 1094 1969
3 1135 270 1647
3 935 949 950
3 1920 1288 2080
3 754 1896 2108
3 1693 1199 2225
3 292 291 293
3 394 393 395
3 745 743 746
3 1002 942 1123
3 731 737 738
3 294 293 295
3 1018 1573 1925
3 296 295 297
3 298 297 299
3 321 322 325
3 317 320 321
3 314 315 317
3 312 313 314
3 310 311 312
3 308 309 310
3 1898 890 2275
3 306 307 308
3 304 305 306
3 1401 1079 1913
3 300 299 301
3 302 303 304
3 300 301 302
3 302 301 303
3 491 489 1936
3 298 299 300
3 304 303 305
3 306 305 307
3 308 307 309
3 310 309 311
3 312 311 313
3 314 313 315
3 317 315 320
3 321 320 322
3 1301 1299 1857
3 514 541 542
3 296 297 298
3 850 838 851
3 1310 1394 1895
3 294 295 296
3 590 605 606
3 292 293 294
3 651 657 658
3 290 291 292
3 1207 1208 1796
3 835 1976 1989
3 621 619 622
3 746 1878 1896
3 481 482 483
3 1026 847 1027
3 1335 1207 1870
3 1661 59 2266
3 727 729 1155
3 288 289 290
3 1058 776 1928
3 662 663 664
3 495 488 1884
3 1959 319 2522
3 943 851 944
3 1293 1291 1964
3 534 532 535
3 640 645 646
3 2280 1014 2385
3 286 287 288
3 591 575 592
3 521 519 529
3 13 14 2114
3 780 779 781
3 918 908 1850
3 837 836 838
3 209 148 1639
3 754 748 1896
3 745 746 747
3 769 671 770
3 929 1065 2197
3 1278 1058 1279
3 483 482 484
3 1564 1557 2030
3 633 807 1927
3 392 391 393
3 1057 1621 2161
3 569 580 581
3 284 285 286
3 876 992 1894
3 497 494 498
3 1630 1635 2041
3 982 1148 1918
3 612 611 613
3 700 634 1044
3 822 674 2099
3 880 1129 1929
3 432 439 654
3 1039 1291 1292
3 1164 1686 1989
3 1129 1025 1317
3 738 845 846
3 582 583 629
3 278 6 279
3 544 568 569
3 1701 1274 1931
3 747 749 751
3 1085 953 1308
3 928 930 1070
3 747 748 749
3 1421 1422 2415
3 902 903 904
3 1309 1308 1543
3 642 641 643
3 904 981 1792
3 646 784 785
3 536 543 544
3 1204 1205 1207
3 365 694 958
3 71 72 217
3 88 89 1901
3 87 88 193
3 101 102 189
3 85 86 242
3 99 100 241
3 74 75 192
3 91 92 219
3 94 95 191
3 83 84 220
3 97 98 221
3 77 78 218
3 80 81 194
3 89 90 245
3 62 63 244
3 60 61 188
3 64 65 223
3 67 68 190
3 90 91 1909
3 98 99 1905
3 61 62 1908
3 69 70 243
3 68 69 1907
3 70 71 1910
3 410 411 416
3 586 589 590
3 685 684 2029
3 390 389 391
3 1715 1150 1811
3 1924 1837 2215
3 282 283 284
3 496 497 1929
3 233 1671 1769
3 627 2185 2442
3 1567 1552 2062
3 629 630 812
3 424 453 454
3 583 562 1942
3 749 750 805
3 744 743 745
3 1897 535 1898
3 467 480 481
3 504 759 880
3 670 643 671
3 89 245 1901
3 193 88 1901
3 221 98 1905
3 245 90 1909
3 91 219 1909
3 62 244 1908
3 188 61 1908
3 99 241 1905
3 190 68 1907
3 71 217 1910
3 69 243 1907
3 243 70 1910
3 505 499 506
3 475 513 514
3 1945 1044 2071
3 1712 2125 2353
3 339 343 440
3 989 1360 1361
3 764 869 1152
3 778 777 779
3 1686 1685 1687
3 742 741 743
3 979 989 1886
3 729 731 1887
3 926 927 928
3 1305 1306 1307
3 1838 1278 2292
3 747 746 748
3 181 182 1652
3 1886 1361 2305
3 1595 1594 2486
3 597 596 598
3 928 1288 1920
3 1970 824 2156
3 1425 1424 1426
3 497 504 1929
3 748 746 1896
3 745 747 1900
3 998 858 1171
3 563 547 564
3 1155 729 1887
3 634 583 1942
3 1439 1173 1440
3 1026 1027 1086
3 79 80 1904
3 1533 1532 1536
3 1449 1426 1513
3 1106 609 1936
3 1318 1013 1319
3 1098 695 1828
3 492 494 496
3 750 748 754
3 731 738 1887
3 2415 1422 2516
3 533 562 582
3 988 1837 1924
3 1216 1215 1863
3 534 535 536
3 747 751 1900
3 1753 809 2119
3 1183 824 1970
3 740 495 741
3 80 194 1904
3 893 383 2087
3 655 605 1939
3 1884 2034 2082
3 1301 1857 1923
3 1307 1306 1708
3 752 745 1900
3 750 754 755
3 76 77 1903
3 2090 2347 2365
3 255 30 2159
3 132 254 2160
3 448 434 449
3 753 848 926
3 1075 1074 1327
3 487 488 495
3 377 381 647
3 483 484 485
3 755 754 2148
3 1584 1925 2277
3 1186 1183 1970
3 951 891 1281
3 485 484 486
3 546 527 547
3 133 134 1766
3 1786 1785 2409
3 280 281 282
3 460 449 461
3 744 745 752
3 77 218 1903
3 983 1918 2342
3 1708 1306 1810
3 1389 2069 2170
3 487 486 488
3 641 573 1954
3 507 518 519
3 502 461 503
3 519 518 1899
3 1202 1203 1204
3 821 897 1972
3 92 93 1902
3 521 529 530
3 749 748 750
3 2176 1380 2416
3 885 826 886
3 485 486 487
3 371 372 376
3 1289 1070 1871
3 1110 1657 1747
3 753 926 1943
3 700 1044 1944
3 880 881 1025
3 496 1845 2034
3 1072 1981 2393
3 462 464 2134
3 1949 1771 2359
3 1044 634 1942
3 550 584 1927
3 1390 1415 2118
3 526 503 527
3 990 845 1931
3 1009 1213 1214
3 740 742 1144
3 219 92 1902
3 727 1155 1899
3 369 370 371
3 623 690 2150
3 1279 1058 1928
3 1408 2235 2286
3 487 495 740
3 979 1886 2086
3 1305 1303 1306
3 421 412 1951
3 843 844 996
3 633 669 807
3 518 727 1899
3 826 825 1961
3 1657 1106 1936
3 1172 1012 1173
3 740 741 742
3 433 417 434
3 505 506 507
3 1333 1674 2437
3 742 743 744
3 469 458 470
3 1381 1380 1382
3 1293 1965 2515
3 1554 1559 2062
3 553 557 2499
3 1774 389 2339
3 497 498 499
3 483 485 576
3 740 1144 1935
3 773 735 834
3 366 367 369
3 1120 1118 1876
3 1515 1523 1574
3 1319 1013 2039
3 1303 1301 1923
3 457 447 458
3 561 593 594
3 1355 1424 1425
3 609 491 1936
3 204 1732 2137
3 791 1408 1642
3 995 944 1825
3 456 471 475
3 1692 1693 2239
3 580 1763 2164
3 1292 1293 2117
3 441 452 456
3 388 384 389
3 823 821 1972
3 504 880 1929
3 176 177 1680
3 1070 1071 1871
3 15 2260 2477
3 362 363 366
3 2178 2300 2449
3 1035 883 1036
3 2285 1563 2307
3 978 977 1074
3 1090 1102 2029
3 1810 1306 1923
3 496 494 497
3 1306 1303 1923
3 432 654 1915
3 934 933 935
3 356 355 365
3 398 403 404
3 635 701 843
3 1110 1106 1657
3 574 571 575
3 1025 881 1176
3 386 380 786
3 415 432 1915
3 343 347 1911
3 1070 930 1071
3 1688 1740 2231
3 1385 1216 1863
3 1696 1274 1701
3 1645 305 2317
3 880 759 881
3 926 848 927
3 1427 1423 2217
3 1339 1662 2388
3 770 774 775
3 1263 1257 1428
3 1337 1864 2412
3 349 348 355
3 2267 1721 2498
3 753 752 847
3 1375 1086 1473
3 900 982 983
3 332 335 739
3 429 428 430
3 744 752 753
3 1171 2132 2165
3 1425 1426 1449
3 987 641 1954
3 1883 1786 2409
3 427 426 428
3 928 927 930
3 1815 1105 2015
3 1206 1499 1941
3 410 406 411
3 573 540 1954
3 497 499 504
3 528 560 561
3 1933 1404 2399
3 1091 1089 1969
3 1804 1282 2073
3 504 505 759
3 963 924 1113
3 1711 1710 1712
3 881 759 1146
3 968 1199 1200
3 351 352 362
3 848 847 1026
3 521 530 531
3 1884 490 2034
3 1277 957 1966
3 1349 1350 2329
3 676 1043 2045
3 997 1159 1286
3 517 1889 1890
3 781 835 836
3 944 948 1283
3 722 1776 2026
3 507 519 520
3 2040 1352 2058
3 1276 957 1277
3 446 437 447
3 931 860 977
3 361 359 765
3 1248 1536 2534
3 512 523 528
3 408 412 413
3 1368 1369 1370
3 451 2169 2223
3 192 75 1994
3 942 756 2026
3 345 344 348
3 764 1152 1963
3 413 418 419
3 1286 1773 1774
3 770 671 774
3 275 549 2124
3 1497 1645 2461
3 1982 1472 2272
3 422 435 441
3 281 279 736
3 1134 270 1135
3 582 562 583
3 1421 2415 2454
3 485 487 1935
3 2300 1067 2480
3 1578 1576 1827
3 930 927 1061
3 1026 1086 1375
3 922 2259 2379
3 1391 1120 1876
3 1495 1494 2493
3 404 407 408
3 879 2178 2449
3 1700 1698 2036
3 607 1517 1520
3 753 847 848
3 416 411 417
3 1144 742 1943
3 775 776 777
3 754 2108 2148
3 1006 1421 1953
3 585 581 586
3 531 530 532
3 235 1709 1888
3 520 519 521
3 1180 1181 1349
3 1146 759 1967
3 708 710 1921
3 1350 2253 2329
3 436 430 437
3 504 499 505
3 643 641 987
3 336 330 517
3 811 1059 1149
3 1164 1411 1685
3 846 933 934
3 635 843 1960
3 983 982 1918
3 971 872 1096
3 1149 1163 1164
3 169 237 1724
3 1314 1315 1316
3 629 583 630
3 891 812 1916
3 462 463 464
3 487 740 1935
3 798 2084 2189
3 1814 1838 2292
3 1284 1489 1491
3 340 336 2014
3 1670 1461 2200
3 920 782 2057
3 890 2241 2275
3 510 511 512
3 278 279 280
3 839 802 840
3 1858 235 1888
3 1698 1696 2036
3 104 105 222
3 57 58 224
3 1185 1183 1186
3 588 587 623
3 638 600 1988
3 1282 1386 2245
3 811 776 1058
3 816 815 876
3 2034 1845 2082
3 761 636 1741
3 566 565 587
3 174 175 1725
3 347 350 351
3 1469 1495 1496
3 1059 1058 1278
3 811 1149 1976
3 576 485 1935
3 659 658 660
3 859 1153 1962
3 76 1903 1994
3 1821 1109 2426
3 1294 1038 1622
3 733 1833 2075
3 992 993 1980
3 1566 1561 2285
3 525 474 2041
3 464 465 510
3 343 346 347
3 360 893 1982
3 650 649 651
3 896 608 936
3 950 1006 1007
3 1508 1859 1860
3 539 538 565
3 440 343 1911
3 341 340 344
3 221 1905 1906
3 1297 1823 2142
3 759 505 1967
3 1295 1053 1296
3 473 470 474
3 1463 1465 1466
3 1143 1206 2028
3 799 685 800
3 1210 2077 2203
3 509 508 538
3 492 496 2034
3 1553 1551 2030
3 1260 1261 1269
3 1430 1040 1703
3 586 590 1940
3 838 836 868
3 1705 624 2276
3 1749 972 2501
3 742 744 1943
3 804 962 1981
3 1367 1368 2254
3 531 532 533
3 337 336 340
3 1157 1094 1544
3 536 544 1158
3 812 630 1960
3 781 779 835
3 56 57 1947
3 630 583 634
3 1405 1404 1932
3 1281 891 1916
3 339 342 343
3 1411 1163 1730
3 322 323 324
3 344 340 2091
3 1735 1734 1736
3 75 76 1994
3 430 682 2494
3 1907 243 2360
3 589 581 2164
3 694 355 2196
3 744 753 1943
3 775 774 776
3 1210 1430 2077
3 335 338 339
3 1102 1803 2029
3 1078 937 1079
3 870 655 1939
3 505 507 1967
3 357 360 1982
3 1896 1878 2101
3 326 325 328
3 934 935 957
3 585 608 895
3 333 330 336
3 1270 1272 1524
3 688 817 878
3 507 520 1967
3 1428 1257 2074
3 1818 1817 2000
3 896 937 1077
3 934 957 1111
3 329 328 330
3 1499 995 1825
3 944 851 948
3 387 445 462
3 1678 1161 2228
3 777 776 811
3 313 311 757
3 324 331 332
3 848 1026 1955
3 1312 998 1811
3 1321 1322 2037
3 1080 1079 1121
3 1105 1355 2015
3 1645 2317 2461
3 1559 1568 2062
3 332 334 335
3 501 500 508
3 321 325 326
3 394 395 397
3 322 320 323
3 1529 1530 2171
3 1137 797 1138
3 811 1058 1059
3 661 660 662
3 569 581 585
3 183 4 2303
3 5 160 2304
3 1340 1138 1341
3 1660 1626 2185
3 1743 1464 2347
3 1026 1375 1955
3 1149 1059 1163
3 1736 1625 2194
3 1322 1667 2434
3 311 309 1959
3 309 307 319
3 894 700 1944
3 533 534 562
3 1276 1277 1366
3 2190 1706 2408
3 533 532 534
3 1214 1213 1410
3 1164 1163 1411
3 843 701 844
3 1009 1214 2055
3 234 1589 1788
3 2000 1817 2174
3 317 321 2050
3 328 325 945
3 392 393 394
3 588 623 2089
3 1162 958 1681
3 1078 1080 1136
3 927 848 1955
3 1496 1497 1498
3 390 391 392
3 1061 927 1955
3 1283 948 1284
3 635 634 700
3 1244 1251 1252
3 218 78 2093
3 756 722 2026
3 1071 1784 2419
3 1218 1505 2185
3 1284 948 1285
3 1489 1285 1490
3 918 1850 1851
3 684 1090 2029
3 1759 572 2537
3 1691 1690 2446
3 1979 1158 2071
3 606 649 650
3 2045 1043 2046
3 103 104 2025
3 630 634 635
3 360 383 893
3 406 386 2043
3 1909 219 2023
3 1111 957 1276
3 1925 1437 2277
3 1536 2268 2340
3 854 852 1133
3 233 153 1671
3 651 658 659
3 2099 1787 2368
3 1033 1032 1130
3 1015 1372 1373
3 1412 942 2026
3 253 264 1441
3 1531 1534 2332
3 701 700 894
3 106 107 1990
3 2048 1961 2455
3 276 274 2099
3 738 846 1968
3 1325 925 1326
3 896 936 937
3 585 586 608
3 1450 854 1973
3 1361 1360 1362
3 1045 1668 2512
3 303 301 444
3 996 844 997
3 79 1904 2093
3 1989 1686 2095
3 1928 774 2033
3 1942 562 1979
3 287 285 316
3 935 950 1966
3 1466 1467 1468
3 1242 1243 1244
3 1887 738 1968
3 2115 210 2477
3 878 929 1083
3 1326 1736 2194
3 886 888 1014
3 895 608 896
3 289 287 1978
3 821 822 897
3 936 608 1940
3 613 614 615
3 51 52 1996
3 417 411 1160
3 1149 1164 1989
3 386 786 2043
3 285 283 1971
3 1309 1543 2147
3 375 373 2053
3 371 370 372
3 779 777 1976
3 1286 1159 1773
3 2177 887 2376
3 1560 1557 1564
3 1403 1882 2399
3 1727 1757 2246
3 279 6 2049
3 1619 1438 2438
3 291 289 758
3 1781 1915 2294
3 425 401 426
3 349 355 356
3 66 67 2118
3 474 548 2041
3 1686 1687 2007
3 1262 1456 1457
3 1123 942 1412
3 1916 812 1960
3 1355 1425 2015
3 735 733 2075
3 1861 879 2449
3 1284 1285 1489
3 490 492 2034
3 366 363 367
3 980 578 2051
3 906 904 1792
3 534 536 1979
3 842 924 963
3 2051 578 2083
3 1077 937 1078
3 1102 1104 1803
3 894 1944 1946
3 398 404 2060
3 1007 1006 1953
3 369 367 370
3 348 354 2196
3 1078 1079 1080
3 1378 1380 1381
3 1568 1365 2439
3 608 586 1940
3 598 610 611
3 760 636 761
3 869 1137 1351
3 671 643 2033
3 1661 1345 2267
3 938 914 1057
3 783 761 914
3 576 1835 2144
3 388 389 390
3 297 295 318
3 454 453 500
3 1906 1728 2246
3 1439 1440 2468
3 1159 1013 1318
3 764 797 869
3 236 143 1717
3 782 644 2057
3 592 595 596
3 1542 2332 2443
3 1521 1311 2147
3 345 348 349
3 1304 1452 2205
3 1644 1907 2360
3 2146 1125 2149
3 997 844 1013
3 628 375 2053
3 299 297 1984
3 957 935 1966
3 664 685 799
3 301 299 1975
3 362 352 363
3 777 811 1976
3 1942 1979 2071
3 1001 920 2057
3 312 314 768
3 1552 1554 2062
3 615 616 617
3 357 1982 2076
3 800 802 839
3 774 671 2033
3 1749 1169 2105
3 365 958 1162
3 617 618 619
3 283 281 1938
3 1351 1772 2414
3 1525 1765 2489
3 846 934 1968
3 635 700 701
3 555 554 577
3 536 1158 1979
3 1101 1404 1405
3 630 635 1960
3 1811 1150 2089
3 2113 1666 2249
3 172 173 1847
3 107 108 195
3 54 55 196
3 1191 1768 2023
3 1455 1302 2205
3 115 116 2017
3 1387 1333 2437
3 659 661 764
3 1080 1121 1188
3 50 51 2011
3 411 406 2043
3 295 293 1983
3 643 987 2033
3 707 706 708
3 129 130 261
3 32 33 260
3 2159 260 2265
3 449 434 567
3 1314 1029 1315
3 917 796 940
3 378 375 628
3 108 109 1991
3 2370 1759 2537
3 341 344 345
3 997 1013 1159
3 544 569 1993
3 950 1007 1966
3 477 474 525
3 351 350 352
3 1696 1701 2036
3 334 331 803
3 1137 1138 1340
3 562 534 1979
3 109 110 246
3 52 53 247
3 1368 1316 1369
3 659 660 661
3 33 34 2002
3 123 124 2005
3 835 779 1976
3 851 838 1992
3 1530 1533 2172
3 1668 1045 2348
3 1162 1681 1706
3 342 338 468
3 298 300 358
3 765 359 2065
3 725 826 885
3 35 36 2003
3 46 47 2019
3 38 39 2006
3 336 517 2014
3 934 1111 1968
3 116 117 2018
3 650 651 1963
3 223 1711 2162
3 640 594 645
3 1333 1330 2192
3 104 222 2025
3 1603 922 2379
3 963 1113 1115
3 2084 1193 2189
3 564 570 571
3 36 37 2004
3 57 224 1947
3 1542 1601 2269
3 122 123 2012
3 1000 920 1001
3 127 128 240
3 34 35 239
3 383 387 2087
3 1161 1107 2228
3 1781 2294 2419
3 1201 1200 1202
3 124 125 225
3 37 38 226
3 1340 1341 1342
3 869 797 1137
3 839 840 1008
3 1158 544 1993
3 1326 925 1894
3 352 350 353
3 326 329 954
3 1864 2344 2412
3 836 835 2095
3 1051 1053 1295
3 1031 720 1032
3 503 461 787
3 1407 1112 2044
3 661 662 2058
3 838 868 1992
3 112 113 197
3 49 50 198
3 1359 980 1413
3 121 122 211
3 40 41 212
3 48 49 2010
3 113 114 2009
3 1741 673 2131
3 41 42 2020
3 120 121 2013
3 1409 2035 2097
3 1511 1374 2506
3 114 115 248
3 47 48 249
3 42 43 250
3 119 120 251
3 171 6 201
3 6 172 203
3 585 895 1993
3 43 44 2024
3 118 119 2021
3 905 904 906
3 764 661 797
3 337 340 341
3 1413 980 2051
3 117 118 205
3 44 45 206
3 347 346 350
3 1420 1076 1525
3 324 323 331
3 434 417 2031
3 965 967 969
3 716 719 788
3 1260 1254 1261
3 2053 373 2103
3 2069 2068 2170
3 326 328 329
3 1706 996 2408
3 273 275 2124
3 969 1011 1012
3 590 606 2001
3 1718 1611 2280
3 1914 1940 2001
3 915 1884 2082
3 329 330 333
3 620 859 955
3 2168 1409 2305
3 296 298 1997
3 915 2082 2101
3 339 338 342
3 1218 994 1505
3 333 336 337
3 266 263 1742
3 1873 768 2127
3 244 63 2162
3 64 223 2162
3 343 342 346
3 914 761 2258
3 310 312 1987
3 799 800 2055
3 302 304 763
3 1559 1566 1568
3 1598 1343 2114
3 592 575 595
3 341 345 794
3 189 1842 2220
3 767 815 816
3 1003 912 1004
3 839 1008 1009
3 1263 1428 1429
3 564 547 570
3 1845 1334 2082
3 332 331 334
3 901 866 902
3 651 659 1963
3 1009 1112 1213
3 335 334 338
3 569 585 1993
3 1665 1336 2299
3 1945 2071 2153
3 863 862 864
3 907 906 908
3 1849 1486 1930
3 1935 1144 2080
3 967 966 968
3 809 900 2119
3 865 864 866
3 835 1989 2095
3 190 1907 2417
3 333 337 522
3 1110 1748 2228
3 1193 1194 1195
3 94 191 2166
3 473 1854 2453
3 1769 1134 2369
3 948 851 1992
3 237 170 2216
3 420 419 422
3 1448 1447 2364
3 483 576 2144
3 721 1919 2032
3 885 886 1891
3 613 611 614
3 886 1014 1891
3 1160 411 2043
3 1918 1283 2342
3 1651 206 2485
3 1242 1240 1243
3 598 596 610
3 1295 1296 1459
3 1185 1186 1948
3 1425 1449 2070
3 294 296 762
3 1285 948 1992
3 925 876 1894
3 712 714 789
3 603 1668 2398
3 1940 590 2001
3 721 570 964
3 834 735 2075
3 1144 1920 2080
3 2263 1635 2511
3 1204 1207 1335
3 2235 1408 2378
3 965 964 966
3 1990 1435 2218
3 397 398 2060
3 1138 797 2058
3 1787 1141 2368
3 2068 820 2170
3 360 359 361
3 387 462 2087
3 1524 1272 1934
3 819 698 820
3 1197 1196 1198
3 1662 2126 2388
3 78 79 2093
3 1150 588 2089
3 1269 1261 1270
3 1878 915 2101
3 451 467 2169
3 2262 1387 2437
3 1009 1008 1112
3 757 311 1959
3 897 898 1139
3 1854 473 2483
3 2015 1425 2070
3 2082 1334 2101
3 963 1115 1174
3 1047 1049 1287
3 1194 423 1196
3 321 326 2050
3 417 1160 2031
3 854 1133 1973
3 1201 1212 1348
3 705 1586 2163
3 309 319 1959
3 1353 1390 2417
3 427 428 429
3 357 356 359
3 606 650 2001
3 549 1280 2124
3 1213 1112 1407
3 256 2303 2535
3 356 365 2065
3 662 664 2040
3 701 894 2039
3 1325 1371 2451
3 666 626 667
3 1902 93 2166
3 1236 1234 1246
3 800 839 2055
3 1869 1812 2252
3 1197 1364 1365
3 576 1935 2080
3 404 408 798
3 1678 807 2529
3 1560 1564 2016
3 1319 2039 2122
3 425 426 427
3 349 356 357
3 308 310 327
3 1716 622 2484
3 1801 82 2289
3 1768 1949 2420
3 2006 1926 2507
3 351 364 2407
3 420 423 1193
3 659 764 1963
3 292 294 2038
3 840 842 2027
3 736 279 2049
3 372 373 374
3 461 449 2052
3 2189 1195 2285
3 1174 1115 1398
3 367 363 961
3 909 908 918
3 1738 247 2402
3 1007 1761 2308
3 288 290 2135
3 422 441 2035
3 623 624 690
3 537 525 545
3 1953 1421 2454
3 1887 1968 2123
3 861 691 862
3 654 439 2223
3 1136 1080 2054
3 1312 1811 2089
3 575 571 2032
3 383 361 384
3 968 1200 1201
3 797 661 2058
3 1423 1354 2381
3 1180 1178 1181
3 1513 1515 2180
3 72 73 2217
3 462 445 463
3 12 13 2136
3 457 458 469
3 542 554 555
3 599 636 760
3 254 133 1766
3 1130 1397 1937
3 404 798 2060
3 1044 1942 2071
3 690 691 860
3 357 359 360
3 1008 2027 2152
3 1232 1230 1255
3 372 370 373
3 850 943 2125
3 1457 1456 1492
3 1952 324 2282
3 155 2 2356
3 0 7 2357
3 2017 1379 2288
3 918 1851 2008
3 195 1991 2517
3 2090 803 2347
3 1244 1243 1251
3 290 292 368
3 1432 1082 2214
3 1008 840 2027
3 1743 803 2296
3 1013 844 2039
3 365 1162 2065
3 1594 1315 2184
3 387 384 388
3 1508 1860 2311
3 547 527 2056
3 2005 225 2322
3 314 317 2127
3 1853 556 2327
3 201 6 278
3 1907 1644 2417
3 1896 2101 2108
3 646 645 784
3 538 508 558
3 374 375 377
3 1630 1634 1635
3 1579 1999 2352
3 1647 1648 1849
3 1313 1314 2121
3 1179 1433 2042
3 844 701 2039
3 1252 1251 2098
3 816 876 925
3 1922 1228 2281
3 392 394 396
3 1915 654 2294
3 1652 1653 2487
3 429 430 436
3 456 475 476
3 1605 1392 2510
3 126 1882 2284
3 1784 1780 2419
3 500 453 960
3 377 378 381
3 2178 1587 2300
3 1222 1219 1626
3 413 419 420
3 381 382 400
3 2169 1836 2223
3 1906 1905 2129
3 616 614 793
3 1170 1419 2139
3 101 189 2220
3 241 100 2220
3 1968 1111 2123
3 567 434 2031
3 615 614 616
3 1032 720 1921
3 682 428 2138
3 469 470 473
3 339 440 2261
3 1501 238 2226
3 1154 1431 1653
3 446 447 457
3 1251 1243 1257
3 2229 315 2495
3 1201 1202 1212
3 785 784 879
3 464 463 465
3 66 2118 2395
3 324 332 2282
3 286 288 771
3 17 199 2081
3 571 570 721
3 611 610 2092
3 617 616 618
3 1542 1531 2332
3 400 401 424
3 1325 1326 1371
3 1140 1406 1702
3 1323 443 2302
3 1926 1573 2507
3 436 437 446
3 1262 1457 2098
3 67 190 2118
3 1518 1861 2449
3 989 1359 1360
3 1063 1082 1154
3 1757 96 2526
3 969 967 1011
3 868 836 2095
3 1215 1035 2235
3 96 1757 2309
3 261 2160 2380
3 1381 1382 2126
3 1468 1469 2182
3 1334 1317 2108
3 861 863 1064
3 1270 1261 1271
3 360 361 383
3 287 316 1978
3 1856 192 2367
3 1905 241 2129
3 1615 1809 2425
3 528 523 560
3 979 980 989
3 662 2040 2058
3 721 964 965
3 170 171 2216
3 664 799 2040
3 512 511 523
3 1201 1348 2107
3 620 618 858
3 758 289 1978
3 859 858 998
3 424 425 453
3 1616 1615 2193
3 444 301 1975
3 561 560 593
3 965 966 967
3 1798 376 2430
3 340 2014 2091
3 510 465 511
3 107 195 1990
3 1080 1188 2054
3 1153 998 1312
3 1226 1224 1249
3 1012 1011 1363
3 902 904 905
3 842 963 2027
3 268 270 1134
3 865 901 1125
3 2077 558 2102
3 282 284 442
3 1977 1679 2253
3 1496 1498 2047
3 284 286 2063
3 281 736 1938
3 2132 793 2165
3 1674 215 2437
3 2078 1855 2411
3 839 1009 2055
3 1182 824 1183
3 1168 947 1169
3 1289 1871 2242
3 316 285 1971
3 1270 1271 1272
3 1755 1793 2264
3 51 1996 2011
3 383 384 387
3 1146 1924 2215
3 1279 1928 2202
3 619 618 620
3 1194 1196 1197
3 555 578 979
3 1937 1639 2528
3 1262 1257 1263
3 389 384 2339
3 2251 1338 2464
3 1155 1887 2123
3 1151 1937 2528
3 465 463 828
3 1318 1319 2116
3 1687 1688 2231
3 326 954 2050
3 297 318 1984
3 1308 953 2255
3 1846 2056 2198
3 320 315 2229
3 1254 1252 2059
3 760 761 783
3 951 1281 2255
3 1459 1296 2094
3 2288 1638 2470
3 1975 299 1984
3 52 247 1996
3 468 338 2090
3 2140 1511 2506
3 1125 1126 1192
3 593 824 1182
3 720 708 1921
3 704 706 707
3 623 587 624
3 2044 1112 2152
3 1393 1169 1749
3 900 983 2119
3 783 914 938
3 255 2265 2489
3 2039 894 2122
3 317 2050 2127
3 1866 1867 2513
3 374 373 375
3 429 436 455
3 387 388 445
3 1193 423 1194
3 555 577 578
3 1074 977 1187
3 449 567 2052
3 1197 1198 1364
3 2154 1595 2486
3 1486 1849 2173
3 318 295 1983
3 939 1016 1844
3 131 132 2160
3 30 31 2159
3 881 1146 2215
3 1294 1868 2238
3 1300 1455 2314
3 1365 1364 1912
3 783 938 939
3 2061 1735 2441
3 551 545 601
3 2194 216 2536
3 1251 1257 1262
3 888 887 2177
3 1364 1198 2048
3 1498 1682 2340
3 1589 1590 2501
3 60 188 2266
3 1401 1913 2324
3 195 108 1991
3 420 422 423
3 1675 1470 2474
3 258 1673 2183
3 2161 1619 2438
3 1296 1472 2094
3 1808 1910 2381
3 334 803 2090
3 1490 1285 2232
3 523 511 524
3 1240 1238 2074
3 1184 1183 1185
3 39 40 2151
3 473 474 477
3 1461 1463 2200
3 2072 353 2073
3 861 862 863
3 1206 1941 2401
3 958 1575 2287
3 614 611 2092
3 110 111 2140
3 1136 2054 2110
3 645 594 2133
3 260 33 2002
3 673 767 2131
3 989 980 1359
3 1741 2131 2258
3 1317 1875 2148
3 894 1946 2122
3 863 864 865
3 787 461 2052
3 857 2277 2386
3 109 246 1991
3 2017 116 2018
3 1182 1183 1184
3 377 375 378
3 816 925 1324
3 865 866 901
3 1262 1263 1456
3 359 356 2065
3 2129 241 2472
3 283 1938 1971
3 1458 1210 2203
3 1076 1003 2145
3 196 1738 2402
3 1033 1130 1151
3 1188 1121 2106
3 1140 1702 2096
3 549 687 1280
3 1694 1621 2191
3 861 1064 2112
3 1548 1549 2129
3 1784 1071 2462
3 714 716 2066
3 1961 825 2455
3 1447 1211 2250
3 979 578 980
3 905 907 1209
3 381 378 382
3 457 469 552
3 595 575 2032
3 408 413 2084
3 481 483 2144
3 1745 1349 2293
3 1980 1405 2441
3 198 50 2011
3 248 115 2017
3 912 819 2068
3 620 858 859
3 707 708 720
3 821 674 822
3 514 542 2086
3 400 382 401
3 123 2005 2012
3 1772 1351 2374
3 34 239 2002
3 768 314 2127
3 2003 36 2004
3 280 282 2079
3 124 225 2005
3 596 595 2130
3 593 560 824
3 1504 1502 2519
3 239 35 2003
3 1311 1309 2147
3 1318 1877 2240
3 1860 1432 2311
3 1416 1715 2330
3 859 998 1153
3 352 353 2072
3 312 768 1987
3 2027 1174 2152
3 226 38 2006
3 1827 1024 2117
3 1710 1391 2295
3 690 624 691
3 37 226 2004
3 1153 1312 1885
3 853 855 2186
3 1892 242 2373
3 1967 520 2174
3 939 938 1016
3 47 249 2019
3 388 390 2078
3 1991 2139 2517
3 905 906 907
3 571 721 2032
3 1196 423 2035
3 1324 925 1325
3 1151 1130 1937
3 363 352 2072
3 345 349 2076
3 1031 1032 1033
3 214 179 1859
3 211 122 2012
3 602 601 652
3 117 205 2018
3 710 712 2067
3 1602 187 2357
3 520 2000 2174
3 85 242 2335
3 220 84 2335
3 381 400 2113
3 1586 1587 2435
3 424 401 425
3 963 1174 2027
3 860 691 861
3 610 596 2130
3 1958 2078 2431
3 570 547 2056
3 237 2216 2354
3 1211 1692 2219
3 298 358 1997
3 909 947 1041
3 441 456 2097
3 1135 1647 1849
3 1601 1542 2443
3 197 113 2009
3 49 198 2010
3 1911 347 2407
3 1729 191 2309
3 212 41 2020
3 121 211 2013
3 222 105 2218
3 1125 901 1126
3 114 248 2009
3 249 48 2010
3 42 250 2020
3 251 120 2013
3 233 1769 2369
3 1870 647 2113
3 794 345 2076
3 250 43 2024
3 119 251 2021
3 901 902 2141
3 964 570 2056
3 739 335 2261
3 2108 1317 2148
3 577 599 2083
3 205 118 2021
3 44 206 2024
3 1247 1241 2323
3 1894 992 2244
3 6 203 2049
3 1642 1678 2529
3 1417 1873 2333
3 1422 2023 2516
3 341 794 2100
3 73 74 2361
3 1234 1232 2088
3 1261 1254 2059
3 896 1077 2257
3 1921 710 2067
3 125 126 2284
3 220 1699 2289
3 159 5 2304
3 4 184 2303
3 2059 1252 2098
3 1003 1004 2145
3 2328 1325 2451
3 1486 227 1500
3 63 64 2162
3 2081 1192 2260
3 508 500 2102
3 667 1872 2318
3 338 334 2090
3 423 422 2035
3 1192 1126 1471
3 907 908 909
3 1330 1328 2192
3 1972 897 2500
3 2443 316 2514
3 242 86 2373
3 87 193 2373
3 420 1193 2084
3 1473 1086 2358
3 1987 768 2037
3 522 337 2100
3 627 1660 2185
3 1793 446 2264
3 1405 2061 2441
3 1502 1217 2302
3 171 201 2216
3 1158 1993 2153
3 1197 1365 2120
3 1712 1710 2295
3 1121 1401 2414
3 93 94 2166
3 653 652 688
3 622 1716 2452
3 1345 1720 2267
3 477 537 556
3 128 129 2181
3 2331 1295 2458
3 784 645 874
3 1269 1270 2199
3 189 102 2355
3 1041 1168 1343
3 246 110 2140
3 477 525 537
3 755 1895 2371
3 1947 1723 2313
3 1134 1135 2369
3 223 65 2395
3 968 1201 2107
3 1577 1578 2325
3 210 15 2477
3 961 363 2072
3 1581 1579 2352
3 349 357 2076
3 337 341 2100
3 305 303 2317
3 370 367 2103
3 762 296 1997
3 581 580 2164
3 1278 1838 2372
3 1548 2129 2472
3 594 593 2133
3 2021 251 2022
3 2047 1247 2182
3 967 968 2107
3 1169 947 2008
3 481 2144 2169
3 793 614 2092
3 1910 217 2381
3 1251 1262 2098
3 716 788 2066
3 2101 1334 2108
3 2006 39 2151
3 1603 2379 2508
3 1926 2006 2151
3 96 97 2526
3 750 755 2371
3 789 714 2066
3 909 918 947
3 1993 895 2153
3 106 1990 2218
3 1243 1240 2074
3 832 986 1189
3 1283 1284 2342
3 2297 195 2517
3 1043 829 2326
3 767 816 2131
3 602 653 676
3 1004 912 2068
3 2086 1886 2224
3 1124 2177 2467
3 426 401 2531
3 707 720 1030
3 1000 1001 2184
3 1315 1029 2184
3 467 481 2169
3 541 513 2256
3 647 381 2113
3 225 2284 2510
3 2 156 2356
3 187 0 2357
3 40 212 2151
3 2245 1386 2383
3 676 677 829
3 1004 2068 2069
3 1860 232 2487
3 1031 1033 1034
3 829 830 972
3 996 997 2408
3 1195 1194 2120
3 987 1869 2202
3 1410 1213 2222
3 819 820 2068
3 1485 1486 2173
3 1564 2030 2155
3 807 669 2529
3 129 261 2181
3 1525 1076 2145
3 578 577 2083
3 327 310 1987
3 1083 929 2197
3 2131 1324 2258
3 798 408 2084
3 1838 696 2426
3 1486 1500 1930
3 1946 1944 2291
3 2257 1077 2291
3 1512 1661 2266
3 445 388 2078
3 1192 1471 2260
3 2118 1415 2395
3 1466 1468 2158
3 830 677 831
3 211 2012 2251
3 652 601 2442
3 537 545 551
3 558 508 2102
3 198 2011 2128
3 1718 2280 2385
3 500 960 2102
3 1168 1169 1393
3 1127 971 2496
3 95 96 2309
3 2030 1565 2155
3 1919 1172 2273
3 977 860 2112
3 240 128 2181
3 294 762 2038
3 1800 1799 2195
3 712 789 2067
3 972 1749 2326
3 472 1683 2212
3 874 645 2133
3 551 2045 2201
3 2105 1043 2326
3 1957 1212 2301
3 1514 1856 2367
3 565 538 2167
3 373 370 2103
3 355 348 2196
3 1934 1272 2138
3 1934 426 2531
3 1881 1400 2481
3 2046 1851 2327
3 367 961 2103
3 1963 1152 2206
3 201 278 443
3 3 131 2444
3 31 1 2445
3 2035 441 2097
3 503 787 2198
3 1135 1849 1930
3 1534 1983 2306
3 2089 623 2150
3 687 704 2109
3 869 1351 2363
3 1302 1304 2205
3 955 1716 2484
3 1030 720 1031
3 1159 1318 2240
3 1228 1226 2281
3 947 918 2008
3 413 420 2084
3 785 879 2532
3 1041 947 1168
3 1468 2182 2323
3 1246 1234 2088
3 1730 1163 2372
3 542 555 2086
3 1599 631 2312
3 1146 1967 2174
3 1078 1136 2343
3 1515 1574 2180
3 2336 885 2469
3 1257 1243 2074
3 1347 1346 2279
3 2001 650 2206
3 1480 1601 2514
3 1029 1000 2184
3 1956 788 2336
3 1271 1261 2059
3 130 3 2444
3 1 32 2445
3 1570 1507 2197
3 1232 1255 2088
3 791 1642 2529
3 1601 1479 2269
3 1361 1362 2168
3 1634 1922 2281
3 765 2065 2190
3 2071 1158 2153
3 1699 1801 2289
3 832 831 833
3 1864 346 2344
3 456 476 2097
3 1855 828 2411
3 2065 1162 2190
3 1125 1192 2149
3 599 760 2083
3 361 765 2339
3 1731 2123 2241
3 1349 1181 1350
3 1443 1275 2251
3 1819 524 2429
3 1021 1045 2512
3 858 618 2132
3 1999 358 2338
3 368 292 2038
3 290 368 2135
3 803 331 2296
3 1112 1008 2152
3 56 1947 2313
3 555 979 2086
3 1469 1496 2182
3 1011 967 2107
3 248 2017 2288
3 1809 789 2425
3 960 453 2221
3 538 558 2167
3 1858 1187 2248
3 2246 1757 2526
3 902 905 2141
3 1851 1853 2327
3 1224 1222 2111
3 771 288 2135
3 1945 2153 2257
3 1420 1525 2489
3 1399 1123 2393
3 103 2025 2355
3 897 822 898
3 1861 940 2532
3 865 1125 2146
3 1675 2474 2522
3 1573 2157 2507
3 1632 1631 2382
3 551 601 602
3 527 503 2198
3 1708 805 2337
3 1059 1278 2372
3 2056 527 2198
3 860 861 2112
3 1668 2348 2398
3 255 2159 2265
3 1541 1542 2269
3 1428 2074 2227
3 1582 1583 2321
3 389 1774 2503
3 2004 226 2157
3 1777 397 2405
3 1368 1436 2254
3 1061 2409 2462
3 1071 930 2462
3 1126 901 2141
3 1194 1197 2120
3 1452 1952 2282
3 2116 1319 2482
3 105 106 2218
3 1981 1399 2393
3 2119 983 2143
3 444 1682 2461
3 2173 1648 2463
3 616 793 2132
3 1791 1190 2334
3 1826 1728 2259
3 602 652 653
3 1834 1292 2428
3 556 2201 2327
3 1014 1015 2385
3 1995 1287 2331
3 1193 1195 2189
3 816 1324 2131
3 879 1861 2532
3 593 1182 2133
3 1402 266 1742
3 2216 1323 2354
3 1660 1636 2502
3 620 955 2484
3 1162 1706 2190
3 1870 2113 2249
3 204 1680 1732
3 1909 2023 2420
3 217 72 2217
3 376 372 2430
3 905 1209 2141
3 1378 1381 2283
3 1236 1246 2227
3 286 771 2063
3 1635 2263 2502
3 100 101 2220
3 1139 898 1140
3 2114 1343 2136
3 442 284 2063
3 1772 2106 2414
3 1985 1755 2533
3 2192 1328 2315
3 1064 863 2146
3 1631 1637 2459
3 736 2049 2523
3 221 1906 2246
3 318 1983 2171
3 1496 2047 2182
3 1374 2139 2506
3 196 55 2313
3 2087 462 2134
3 676 653 677
3 2304 257 2491
3 1401 2324 2363
3 829 677 830
3 654 2223 2242
3 1187 977 2112
3 1463 1466 2200
3 2023 219 2516
3 1176 881 2215
3 513 471 2290
3 1812 459 2252
3 1386 1269 2199
3 291 758 2306
3 618 616 2132
3 278 280 2210
3 83 220 2289
3 82 83 2289
3 938 1057 2161
3 1189 986 1190
3 788 719 2336
3 1914 2001 2206
3 232 181 1652
3 1567 2062 2490
3 313 757 2495
3 622 619 2484
3 688 878 1320
3 1222 1626 2111
3 282 442 2079
3 1169 2008 2105
3 1966 1007 2308
3 2040 799 2237
3 1744 2229 2495
3 986 833 1063
3 2284 1605 2510
3 887 1961 2376
3 215 1624 2262
3 830 831 832
3 476 475 2224
3 439 451 2223
3 1932 1933 2380
3 2227 1246 2366
3 1212 1202 2301
3 1107 1110 2228
3 249 2010 2299
3 1983 293 2306
3 2055 1214 2237
3 1438 1372 2478
3 824 560 2156
3 2320 1866 2513
3 1351 1137 2374
3 868 2007 2232
3 2063 771 2064
3 1507 214 1508
3 1728 1727 2246
3 1045 1047 2348
3 1139 1140 2096
3 1648 1649 2463
3 1502 2302 2519
3 704 707 2109
3 2343 1136 2396
3 650 1963 2206
3 2153 895 2257
3 396 1958 2431
3 1379 1377 2288
3 2115 1471 2319
3 2033 987 2202
3 2239 1693 2518
3 2025 1488 2355
3 1209 2115 2319
3 523 524 2156
3 783 939 2243
3 376 1798 2497
3 2066 788 2193
3 1984 318 2172
3 425 427 2221
3 203 172 1847
3 446 457 2264
3 1312 2089 2150
3 2138 1272 2211
3 897 1139 2274
3 828 1819 2429
3 1249 1224 2111
3 666 667 2318
3 1371 1326 2194
3 2433 1499 2475
3 1272 1271 2211
3 1367 2254 2479
3 1386 2053 2383
3 2074 1238 2227
3 755 2148 2320
3 2117 1604 2428
3 475 514 2224
3 228 2187 2457
3 1868 1504 2520
3 1626 1218 2185
3 2123 1111 2241
3 1287 1049 2331
3 1280 687 2109
3 459 1814 2292
3 54 196 2402
3 863 865 2146
3 204 176 1680
3 514 2086 2224
3 1646 603 2398
3 112 197 2346
3 358 300 2338
3 1140 898 1141
3 1204 1335 2301
3 1016 2161 2438
3 909 1041 2175
3 1681 2448 2492
3 2252 459 2292
3 1992 868 2232
3 1035 1036 2235
3 1051 1295 2331
3 1836 1289 2242
3 1508 214 1859
3 247 53 2402
3 1016 938 2161
3 1408 856 2378
3 1466 2158 2200
3 725 885 2336
3 855 1450 2421
3 2023 1768 2420
3 1238 1236 2227
3 1679 202 2253
3 2107 1348 2233
3 1653 1431 2487
3 1946 2291 2343
3 2253 202 2329
3 1885 1312 2150
3 378 628 2390
3 2195 1383 2432
3 1520 1519 2480
3 1532 1733 2534
3 308 327 2278
3 953 951 2255
3 1213 1407 2222
3 1561 1563 2285
3 302 763 2338
3 1928 2033 2202
3 763 304 2345
3 832 833 986
3 1352 2040 2237
3 247 1881 2481
3 560 523 2156
3 335 339 2261
3 346 342 2344
3 201 443 1323
3 2301 1335 2466
3 323 320 2229
3 1136 2110 2396
3 1139 1977 2274
3 1809 1615 2423
3 1707 1791 2334
3 46 2019 2485
3 2064 1294 2238
3 1950 197 2404
3 2021 2022 2176
3 1949 245 2420
3 2044 2152 2207
3 1063 1154 1707
3 1012 1363 2406
3 280 2079 2210
3 2237 1214 2351
3 820 698 2318
3 1140 1141 1406
3 205 2021 2176
3 2043 786 2310
3 2145 1004 2446
3 707 1030 2109
3 1406 2460 2473
3 2137 1268 2226
3 16 2081 2260
3 567 2031 2219
3 2112 1064 2248
3 206 45 2485
3 2347 1462 2365
3 1650 1962 2362
3 453 425 2221
3 1209 907 2175
3 1111 1276 2241
3 2448 1145 2492
3 2051 2083 2243
3 59 60 2266
3 1402 1742 2530
3 831 677 2209
3 624 587 2276
3 238 174 1725
3 1011 2107 2233
3 468 2365 2412
3 2337 805 2371
3 254 1932 2380
3 1174 1398 2207
3 2140 111 2346
3 1381 2186 2283
3 1987 2037 2188
3 1740 559 2456
3 1773 391 2503
3 1335 1870 2249
3 1945 2257 2291
3 828 463 2411
3 1246 2088 2208
3 2060 798 2307
3 1773 1159 2240
3 1187 2112 2248
3 1352 2237 2351
3 2037 1322 2188
3 1941 1499 2433
3 2322 225 2510
3 1031 1034 2236
3 327 2188 2321
3 595 2032 2273
3 1464 1462 2347
3 1285 1992 2232
3 799 2055 2237
3 443 278 2210
3 784 874 2178
3 392 396 2431
3 191 95 2309
3 879 784 2178
3 524 511 2429
3 2128 2011 2270
3 895 896 2257
3 2206 1152 2324
3 318 2171 2172
3 2259 1549 2379
3 1214 1410 2351
3 306 308 2278
3 2022 251 2247
3 1757 1729 2309
3 1283 1918 2524
3 996 1706 2492
3 557 2044 2207
3 1798 1448 2364
3 1447 2250 2310
3 559 1750 2403
3 1363 1011 2233
3 1343 1168 2187
3 1407 2044 2256
3 1462 1460 2365
3 1995 2331 2458
3 327 1987 2188
3 2160 254 2380
3 1681 958 2287
3 2031 1160 2250
3 1600 689 2413
3 2219 1692 2239
3 1494 1675 2522
3 1281 1916 2448
3 907 909 2175
3 565 2167 2276
3 2241 1276 2275
3 1978 316 2443
3 2151 212 2350
3 203 1847 2104
3 2049 1481 2523
3 1961 1362 2376
3 2187 1393 2457
3 940 796 2532
3 2293 1349 2329
3 572 1897 2537
3 332 739 2282
3 2052 567 2239
3 1437 1370 2277
3 567 2219 2239
3 667 626 2452
3 1914 2206 2324
3 2243 939 2392
3 2136 1343 2187
3 257 1654 2530
3 1376 1378 2283
3 2076 1982 2272
3 2083 760 2243
3 1944 1945 2291
3 1771 1839 2359
3 1404 1403 2399
3 1875 1866 2320
3 1460 1337 2412
3 760 783 2243
3 1276 1366 2275
3 1428 2227 2366
3 1882 1605 2284
3 1739 1429 2459
3 2321 2188 2434
3 1328 1327 2315
3 798 2189 2307
3 2152 1174 2207
3 2182 1247 2323
3 1516 1514 2367
3 293 291 2306
3 556 537 2201
3 1298 1300 2314
3 1400 1399 2316
3 1649 2236 2463
3 833 831 2424
3 2127 2050 2333
3 1057 914 2328
3 1839 193 2359
3 761 1741 2258
3 1186 1970 2422
3 1429 2366 2382
3 2211 1271 2271
3 1733 1248 2534
3 13 2114 2136
3 2078 390 2431
3 1533 1536 2340
3 1690 2145 2446
3 1277 2308 2370
3 1168 1393 2187
3 1597 2047 2268
3 587 565 2276
3 1908 244 2401
3 225 125 2284
3 610 2130 2468
3 1749 2105 2326
3 1913 1914 2324
3 2366 2208 2382
3 1391 1876 2295
3 457 552 2264
3 653 688 2209
3 1601 2443 2514
3 682 2138 2211
3 992 1980 2244
3 55 56 2313
3 1645 1495 2493
3 473 477 2483
3 202 1724 2329
3 465 828 2429
3 1277 1966 2308
3 1416 2330 2406
3 1912 1364 2455
3 1716 1483 2375
3 2019 1651 2485
3 1725 2137 2226
3 201 1323 2216
3 878 1083 2213
3 2072 2073 2245
3 1563 1777 2405
3 244 2028 2401
3 2016 1564 2422
3 1682 1497 2461
3 1962 1153 2362
3 1298 2314 2358
3 1384 1385 2391
3 688 1320 2209
3 1587 2179 2435
3 786 380 2497
3 1395 1522 2341
3 2032 1919 2273
3 251 2013 2247
3 2219 2031 2250
3 2397 552 2453
3 1765 255 2489
3 2475 1825 2524
3 1202 1204 2301
3 445 2078 2411
3 323 2229 2296
3 1286 2384 2408
3 537 551 2201
3 1724 237 2293
3 84 85 2335
3 1471 1126 2319
3 1635 1634 2511
3 300 302 2338
3 698 666 2318
3 1030 1031 2236
3 2098 1457 2271
3 696 1821 2426
3 1457 1492 2447
3 1956 2336 2469
3 331 323 2296
3 1284 1491 2342
3 2011 1996 2270
3 256 183 2303
3 160 257 2304
3 2204 1589 2501
3 1891 1014 2280
3 719 725 2336
3 1354 1808 2381
3 437 430 2494
3 2377 218 2391
3 2211 2271 2447
3 1407 2256 2290
3 2365 1460 2412
3 2047 1498 2268
3 1825 1283 2524
3 1499 1825 2475
3 1226 1249 2281
3 2051 2243 2392
3 2250 1160 2310
3 111 112 2346
3 304 306 2345
3 1341 1352 2351
3 2166 191 2504
3 2223 1836 2242
3 1996 247 2481
3 1049 1051 2331
3 1086 1298 2358
3 2130 595 2273
3 1249 2111 2263
3 680 1995 2458
3 1511 2140 2346
3 102 103 2355
3 469 473 2453
3 961 2072 2245
3 2073 1282 2245
3 1442 1443 2525
3 74 192 2361
3 2163 1586 2435
3 1519 1518 2449
3 897 2274 2500
3 303 444 2317
3 1615 1614 2423
3 197 2009 2404
3 1634 2281 2511
3 1780 1781 2419
3 1435 1623 2465
3 1286 1774 2384
3 384 361 2339
3 193 1901 2359
3 1165 2433 2475
3 2277 1370 2386
3 677 653 2209
3 1994 1516 2367
3 1479 1478 2440
3 1165 1512 2433
3 1644 1353 2417
3 1711 1712 2353
3 2193 1615 2425
3 1613 1956 2469
3 1440 1173 2330
3 2269 1479 2440
3 222 2218 2465
3 391 389 2503
3 306 2278 2345
3 468 2090 2365
3 221 2246 2526
3 1445 1446 2504
3 939 1844 2392
3 86 87 2373
3 1429 1428 2366
3 2053 2103 2383
3 1348 1212 2312
3 805 750 2371
3 997 1286 2408
3 1152 869 2363
3 2063 2064 2238
3 192 1994 2367
3 1160 2043 2310
3 1926 2151 2350
3 2059 2098 2271
3 1897 1366 2537
3 215 2262 2437
3 1655 1732 2476
3 2415 1128 2454
3 1320 2213 2214
3 7 258 2357
3 259 155 2356
3 2171 1530 2172
3 347 351 2407
3 1077 1078 2343
3 239 2003 2279
3 1446 1128 2415
3 1034 1033 2410
3 601 627 2442
3 1154 1653 2234
3 397 2060 2405
3 2142 794 2272
3 442 2063 2238
3 1863 1215 2378
3 794 2076 2272
3 1883 1375 2505
3 1320 878 2213
3 342 468 2344
3 1903 218 2377
3 380 376 2497
3 1549 1547 2379
3 1148 1165 2475
3 2157 226 2507
3 829 972 2326
3 884 1957 2466
3 2291 1077 2343
3 65 66 2395
3 787 2052 2518
3 2298 1348 2312
3 1946 2343 2396
3 1653 256 2535
3 1842 1548 2472
3 1957 2301 2466
3 1366 1277 2370
3 2213 1432 2214
3 961 2245 2383
3 218 2093 2391
3 1376 2283 2421
3 1873 2127 2333
3 1019 1021 2512
3 1128 1127 2454
3 1104 1434 2450
3 2130 1439 2468
3 2396 2110 2482
3 2186 855 2283
3 1724 2293 2329
3 1163 1059 2372
3 1614 2389 2423
3 53 54 2402
3 1063 1707 2334
3 2283 855 2421
3 1385 1863 2436
3 364 1883 2505
3 517 1890 2387
3 1145 996 2492
3 1047 1287 2348
3 2148 1875 2320
3 205 2176 2416
3 1372 1844 2478
3 1211 2219 2250
3 1141 898 2368
3 245 1909 2420
3 2278 327 2321
3 2389 1397 2423
3 2256 513 2290
3 559 2403 2456
3 1137 1340 2374
3 2093 1384 2391
3 1918 1148 2524
3 1030 2236 2427
3 1867 1895 2513
3 2014 517 2387
3 2271 1457 2447
3 1143 2028 2353
3 1904 194 2432
3 1148 2475 2524
3 1574 1523 2436
3 2213 1083 2311
3 1997 358 2325
3 2139 246 2506
3 1370 1369 2386
3 1271 2059 2271
3 1034 2173 2463
3 1123 1412 2393
3 1578 1827 2515
3 2209 1320 2424
3 2079 1504 2210
3 1361 2168 2305
3 1491 1489 2403
3 238 1725 2226
3 1190 986 2334
3 1547 1545 2508
3 1891 1613 2469
3 1153 1885 2362
3 2208 1632 2382
3 2287 1281 2448
3 1356 1376 2421
3 1965 2349 2515
3 2155 1186 2422
3 1522 2014 2387
3 2158 1468 2323
3 2050 954 2333
3 1397 1809 2423
3 1362 1360 2376
3 1852 1985 2397
3 2069 1691 2446
3 789 2066 2425
3 1895 755 2513
3 1707 1154 2234
3 372 374 2430
3 2225 787 2518
3 2028 1206 2401
3 986 1063 2334
3 1912 726 2439
3 1340 1342 2400
3 1916 1145 2448
3 2236 1649 2427
3 2374 1340 2400
3 2222 1407 2290
3 2324 1152 2363
3 241 2220 2472
3 765 2190 2384
3 2375 667 2452
3 2330 1173 2406
3 1181 1972 2500
3 2126 1382 2388
3 1173 1012 2406
3 315 313 2495
3 1015 1373 2385
3 97 221 2526
3 1937 1397 2389
3 930 1061 2462
3 971 1096 2496
3 45 46 2485
3 669 791 2529
3 1104 2450 2521
3 382 378 2390
3 2191 1371 2536
3 2235 1036 2286
3 831 2209 2424
3 762 1997 2349
3 2379 1547 2508
3 2177 1359 2467
3 2403 1489 2456
3 796 785 2532
3 219 1902 2516
3 1519 2300 2480
3 1065 1655 2476
3 1375 1473 2505
3 1489 1490 2456
3 390 392 2431
3 2247 2013 2464
3 1135 1930 2369
3 2278 1583 2345
3 626 622 2452
3 631 2298 2312
3 2233 1348 2298
3 1398 1974 2499
3 1706 1681 2492
3 261 130 2444
3 32 260 2445
3 822 2099 2368
3 1365 1912 2439
3 941 940 2418
3 1446 2166 2504
3 2106 1121 2414
3 2300 1519 2449
3 1803 1104 2521
3 1732 1570 2476
3 1413 2051 2392
3 2122 1946 2396
3 2238 1868 2520
3 477 556 2483
3 2397 1985 2533
3 463 445 2411
3 2163 1185 2488
3 1126 2141 2319
3 1755 2264 2533
3 972 2204 2501
3 2230 1533 2340
3 1774 1773 2503
3 1997 2325 2349
3 1004 2069 2446
3 2159 31 2445
3 131 2160 2444
3 1371 2191 2451
3 1001 2154 2486
3 1682 2230 2340
3 2103 961 2383
3 1033 1151 2410
3 382 2390 2531
3 1504 2079 2520
3 1583 2278 2321
3 511 465 2429
3 250 2024 2479
3 2208 2088 2509
3 619 620 2484
3 1246 2208 2366
3 2141 1209 2319
3 1359 1413 2467
3 1295 1459 2458
3 2218 1435 2465
3 2281 1249 2511
3 2293 237 2354
3 2207 1398 2499
3 1564 2155 2422
3 552 469 2453
3 1947 224 2498
3 2062 1568 2490
3 2018 205 2416
3 260 2159 2445
3 2160 261 2444
3 2092 610 2468
3 194 2195 2432
3 1432 2213 2311
3 211 2251 2464
3 2378 856 2527
3 1536 1532 2534
3 2364 786 2497
3 2438 1438 2478
3 1185 1948 2488
3 2042 941 2418
3 1582 2321 2434
3 885 1891 2469
3 1364 2048 2455
3 1693 2225 2518
3 401 382 2531
3 1338 2247 2464
3 442 2238 2520
3 1292 2117 2428
3 2274 1350 2500
3 2066 2193 2425
3 2179 1184 2435
3 898 822 2368
3 2436 1863 2527
3 1844 1016 2478
3 2184 1001 2486
3 557 2207 2499
3 2013 211 2464
3 2254 250 2479
3 1350 1181 2500
3 2009 248 2470
3 246 2140 2506
3 1574 2436 2527
3 2139 1419 2517
3 316 1971 2514
3 1319 2122 2482
3 226 2006 2507
3 1400 2270 2481
3 1681 2287 2448
3 2325 1578 2349
3 232 1652 2487
3 1320 2214 2424
3 1632 2208 2509
3 248 2288 2470
3 1406 1141 2460
3 2188 1322 2434
3 2244 1980 2441
3 2088 1255 2509
3 1280 2109 2427
3 2060 2307 2405
3 2236 1034 2463
3 1745 2293 2354
3 2122 2396 2482
3 2109 1030 2427
3 2307 1563 2405
3 1429 2382 2459
3 224 2267 2498
3 682 2211 2447
3 2079 442 2520
3 2348 1287 2398
3 2220 1842 2472
3 1335 2249 2466
3 1249 2263 2511
3 443 2210 2519
3 2385 1373 2394
3 1594 2184 2486
3 2052 2239 2518
3 1568 2439 2490
3 2349 1578 2515
3 2344 468 2412
3 2270 1996 2481
3 1735 2244 2441
3 2260 1471 2477
3 2210 1504 2519
3 1434 2297 2450
3 2297 1419 2450
3 2263 1660 2502
3 2404 2009 2470
3 1718 2385 2394
3 1371 2194 2536
3 2317 444 2461
3 1443 2322 2525
3 1716 2375 2452
3 1863 2378 2527
3 2439 726 2490
3 1057 2328 2451
3 1638 2404 2470
3 1454 2234 2535
3 755 2320 2513
3 2234 1653 2535
3 2264 552 2533
3 1419 2297 2517
3 1392 2322 2510
3 552 2397 2533
3 1798 2364 2497
3 2322 1392 2525
3 2382 1631 2459
3 1016 2438 2478
3 1366 2370 2537
3 1742 2491 2530
3 2491 257 2530
CELL_TYPES 4886
5
5
5
5
5
5
5
5
5
5
5
5
5
5
5
5
5
5
5
5
5
5
5
5
5
5
5
5
5
5
5
5
5
5
5
5
5
5
5
5
5
5
5
5
5
5
5
5
5
5
5
5
5
5
5
5
5
5
5
5
5
5
5
5
5
5
5
5
5
5
5
5
5
5
5
5
5
5
5
5
5
5
5
5
5
5
5
5
5
5
5
5
5
5
5
5
5
5
5
5
5
5
5
5
5
5
5
5
5
5
5
5
5
5
5
5
5
5
5
5
5
5
5
5
5
5
5
5
5
5
5
5
5
5
5
5
5
5
5
5
5
5
5
5
5
5
5
5
5
5
5
5
5
5
5
5
5
5
5
5
5
5
5
5
5
5
5
5
5
5
5
5
5
5
5
5
5
5
5
5
5
5
5
5
5
5
5
5
5
5
5
5
5
5
5
5
5
5
5
5
5
5
5
5
5
5
5
5
5
5
5
5
5
5
5
5
5
5
5
5
5
5
5
5
5
5
5
5
5
5
5
5
5
5
5
5
5
5
5
5
5
5
5
5
5
5
5
5
5
5
5
5
5
5
5
5
5
5
5
5
5
5
5
5
5
5
5
5
5
5
5
5
5
5
5
5
5
5
5
5
5
5
5
5
5
5
5
5
5
5
5
5
5
5
5
5
5
5
5
5
5
5
5
5
5
5
5
5
5
5
5
5
5
5
5
5
5
5
5
5
5
5
5
5
5
5
5
5
5
5
5
5
5
5
5
5
5
5
5
5
5
5
5
5
5
5
5
5
5
5
5
5
5
5
5
5
5
5
5
5
5
5
5
5
5
5
5
5
5
5
5
5
5
5
5
5
5
5
5
5
5
5
5
5
5
5
5
5
5
5
5
5
5
5
5
5
5
5
5
5
5
5
5
5
5
5
5
5
5
5
5
5
5
5
5
5
5
5
5
5
5
5
5
5
5
5
5
5
5
5
5
5
5
5
5
5
5
5
5
5
5
5
5
5
5
5
5
5
5
5
5
5
5
5
5
5
5
5
5
5
5
5
5
5
5
5
5
5
5
5
5
5
5
5
5
5
5
5
5
5
5
5
5
5
5
5
5
5
5
5
5
5
5
5
5
5
5
5
5
5
5
5
5
5
5
5
5
5
5
5
5
5
5
5
5
5
5
5
5
5
5
5
5
5
5
5
5
5
5
5
5
5
5
5
5
5
5
5
5
5
5
5
5
5
5
5
5
5
5
5
5
5
5
5
5
5
5
5
5
5
5
5
5
5
5
5
5
5
5
5
5
5
5
5
5
5
5
5
5
5
5
5
5
5
5
5
5
5
5
5
5
5
5
5
5
5
5
5
5
5
5
5
5
5
5
5
5
5
5
5
5
5
5
5
5
5
5
5
5
5
5
5
5
5
5
5
5
5
5
5
5
5
5
5
5
5
5
5
5
5
5
5
5
5
5
5
5
5
5
5
5
5
5
5
5
5
5
5
5
5
5
5
5
5
5
5
5
5
5
5
5
5
5
5
5
5
5
5
5
5
5
5
5
5
5
5
5
5
5
5
5
5
5
5
5
5
5
5
5
5
5
5
5
5
5
5
5
5
5
5
5
5
5
5
5
5
5
5
5
5
5
5
5
5
5
5
5
5
5
5
5
5
5
5
5
5
5
5
5
5
5
5
5
5
5
5
5
5
5
5
5
5
5
5
5
5
5
5
5
5
5
5
5
5
5
5
5
5
5
5
5
5
5
5
5
5
5
5
5
5
5
5
5
5
5
5
5
5
5
5
5
5
5
5
5
5
5
5
5
5
5
5
5
5
5
5
5
5
5
5
5
5
5
5
5
5
5
5
5
5
5
5
5
5
5
5
5
5
5
5
5
5
5
5
5
5
5
5
5
5
5
5
5
5
5
5
5
5
5
5
5
5
5
5
5
5
5
5
5
5
5
5
5
5
5
5
5
5
5
5
5
5
5
5
5
5
5
5
5
5
5
5
5
5
5
5
5
5
5
5
5
5
5
5
5
5
5
5
5
5
5
5
5
5
5
5
5
5
5
5
5
5
5
5
5
5
5
5
5
5
5
5
5
5
5
5
5
5
5
5
5
5
5
5
5
5
5
5
5
5
5
5
5
5
5
5
5
5
5
5
5
5
5
5
5
5
5
5
5
5
5
5
5
5
5
5
5
5
5
5
5
5
5
5
5
5
5
5
5
5
5
5
5
5
5
5
5
5
5
5
5
5
5
5
5
5
5
5
5
5
5
5
5
5
5
5
5
5
5
5
5
5
5
5
5
5
5
5
5
5
5
5
5
5
5
5
5
5
5
5
5
5
5
5
5
5
5
5
5
5
5
5
5
5
5
5
5
5
5
5
5
5
5
5
5
5
5
5
5
5
5
5
5
5
5
5
5
5
5
5
5
5
5
5
5
5
5
5
5
5
5
5
5
5
5
5
5
5
5
5
5
5
5
5
5
5
5
5
5
5
5
5
5
5
5
5
5
5
5
5
5
5
5
5
5
5
5
5
5
5
5
5
5
5
5
5
5
5
5
5
5
5
5
5
5
5
5
5
5
5
5
5
5
5
5
5
5
5
5
5
5
5
5
5
5
5
5
5
5
5
5
5
5
5
5
5
5
5
5
5
5
5
5
5
5
5
5
5
5
5
5
5
5
5
5
5
5
5
5
5
5
5
5
5
5
5
5
5
5
5
5
5
5
5
5
5
5
5
5
5
5
5
5
5
5
5
5
5
5
5
5
5
5
5
5
5
5
5
5
5
5
5
5
5
5
5
5
5
5
5
5
5
5
5
5
5
5
5
5
5
5
5
5
5
5
5
5
5
5
5
5
5
5
5
5
5
5
5
5
5
5
5
5
5
5
5
5
5
5
5
5
5
5
5
5
5
5
5
5
5
5
5
5
5
5
5
5
5
5
5
5
5
5
5
5
5
5
5
5
5
5
5
5
5
5
5
5
5
5
5
5
5
5
5
5
5
5
5
5
5
5
5
5
5
5
5
5
5
5
5
5
5
5
5
5
5
5
5
5
5
5
5
5
5
5
5
5
5
5
5
5
5
5
5
5
5
5
5
5
5
5
5
5
5
5
5
5
5
5
5
5
5
5
5
5
5
5
5
5
5
5
5
5
5
5
5
5
5
5
5
5
5
5
5
5
5
5
5
5
5
5
5
5
5
5
5
5
5
5
5
5
5
5
5
5
5
5
5
5
5
5
5
5
5
5
5
5
5
5
5
5
5
5
5
5
5
5
5
5
5
5
5
5
5
5
5
5
5
5
5
5
5
5
5
5
5
5
5
5
5
5
5
5
5
5
5
5
5
5
5
5
5
5
5
5
5
5
5
5
5
5
5
5
5
5
5
5
5
5
5
5
5
5
5
5
5
5
5
5
5
5
5
5
5
5
5
5
5
5
5
5
5
5
5
5
5
5
5
5
5
5
5
5
5
5
5
5
5
5
5
5
5
5
5
5
5
5
5
5
5
5
5
5
5
5
5
5
5
5
5
5
5
5
5
5
5
5
5
5
5
5
5
5
5
5
5
5
5
5
5
5
5
5
5
5
5
5
5
5
5
5
5
5
5
5
5
5
5
5
5
5
5
5
5
5
5
5
5
5
5
5
5
5
5
5
5
5
5
5
5
5
5
5
5
5
5
5
5
5
5
5
5
5
5
5
5
5
5
5
5
5
5
5
5
5
5
5
5
5
5
5
5
5
5
5
5
5
5
5
5
5
5
5
5
5
5
5
5
5
5
5
5
5
5
5
5
5
5
5
5
5
5
5
5
5
5
5
5
5
5
5
5
5
5
5
5
5
5
5
5
5
5
5
5
5
5
5
5
5
5
5
5
5
5
5
5
5
5
5
5
5
5
5
5
5
5
5
5
5
5
5
5
5
5
5
5
5
5
5
5
5
5
5
5
5
5
5
5
5
5
5
5
5
5
5
5
5
5
5
5
5
5
5
5
5
5
5
5
5
5
5
5
5
5
5
5
5
5
5
5
5
5
5
5
5
5
5
5
5
5
5
5
5
5
5
5
5
5
5
5
5
5
5
5
5
5
5
5
5
5
5
5
5
5
5
5
5
5
5
5
5
5
5
5
5
5
5
5
5
5
5
5
5
5
5
5
5
5
5
5
5
5
5
5
5
5
5
5
5
5
5
5
5
5
5
5
5
5
5
5
5
5
5
5
5
5
5
5
5
5
5
5
5
5
5
5
5
5
5
5
5
5
5
5
5
5
5
5
5
5
5
5
5
5
5
5
5
5
5
5
5
5
5
5
5
5
5
5
5
5
5
5
5
5
5
5
5
5
5
5
5
5
5
5
5
5
5
5
5
5
5
5
5
5
5
5
5
5
5
5
5
5
5
5
5
5
5
5
5
5
5
5
5
5
5
5
5
5
5
5
5
5
5
5
5
5
5
5
5
5
5
5
5
5
5
5
5
5
5
5
5
5
5
5
5
5
5
5
5
5
5
5
5
5
5
5
5
5
5
5
5
5
5
5
5
5
5
5
5
5
5
5
5
5
5
5
5
5
5
5
5
5
5
5
5
5
5
5
5
5
5
5
5
5
5
5
5
5
5
5
5
5
5
5
5
5
5
5
5
5
5
5
5
5
5
5
5
5
5
5
5
5
5
5
5
5
5
5
5
5
5
5
5
5
5
5
5
5
5
5
5
5
5
5
5
5
5
5
5
5
5
5
5
5
5
5
5
5
5
5
5
5
5
5
5
5
5
5
5
5
5
5
5
5
5
5
5
5
5
5
5
5
5
5
5
5
5
5
5
5
5
5
5
5
5
5
5
5
5
5
5
5
5
5
5
5
5
5
5
5
5
5
5
5
5
5
5
5
5
5
5
5
5
5
5
5
5
5
5
5
5
5
5
5
5
5
5
5
5
5
5
5
5
5
5
5
5
5
5
5
5
5
5
5
5
5
5
5
5
5
5
5
5
5
5
5
5
5
5
5
5
5
5
5
5
5
5
5
5
5
5
5
5
5
5
5
5
5
5
5
5
5
5
5
5
5
5
5
5
5
5
5
5
5
5
5
5
5
5
5
5
5
5
5
5
5
5
5
5
5
5
5
5
5
5
5
5
5
5
5
5
5
5
5
5
5
5
5
5
5
5
5
5
5
5
5
5
5
5
5
5
5
5
5
5
5
5
5
5
5
5
5
5
5
5
5
5
5
5
5
5
5
5
5
5
5
5
5
5
5
5
5
5
5
5
5
5
5
5
5
5
5
5
5
5
5
5
5
5
5
5
5
5
5
5
5
5
5
5
5
5
5
5
5
5
5
5
5
5
5
5
5
5
5
5
5
5
5
5
5
5
5
5
5
5
5
5
5
5
5
5
5
5
5
5
5
5
5
5
5
5
5
5
5
5
5
5
5
5
5
5
5
5
5
5
5
5
5
5
5
5
5
5
5
5
5
5
5
5
5
5
5
5
5
5
5
5
5
5
5
5
5
5
5
5
5
5
5
5
5
5
5
5
5
5
5
5
5
5
5
5
5
5
5
5
5
5
5
5
5
5
5
5
5
5
5
5
5
5
5
5
5
5
5
5
5
5
5
5
5
5
5
5
5
5
5
5
5
5
5
5
5
5
5
5
5
5
5
5
5
5
5
5
5
5
5
5
5
5
5
5
5
5
5
5
5
5
5
5
5
5
5
5
5
5
5
5
5
5
5
5
5
5
5
5
5
5
5
5
5
5
5
5
5
5
5
5
5
5
5
5
5
5
5
5
5
5
5
5
5
5
5
5
5
5
5
5
5
5
5
5
5
5
5
5
5
5
5
5
5
5
5
5
5
5
5
5
5
5
5
5
5
5
5
5
5
5
5
5
5
5
5
5
5
5
5
5
5
5
5
5
5
5
5
5
5
5
5
5
5
5
5
5
5
5
5
5
5
5
5
5
5
5
5
5
5
5
5
5
5
5
5
5
5
5
5
5
5
5
5
5
5
5
5
5
5
5
5
5
5
5
5
5
5
5
5
5
5
5
5
5
5
5
5
5
5
5
5
5
5
5
5
5
5
5
5
5
5
5
5
5
5
5
5
5
5
5
5
5
5
5
5
5
5
5
5
5
5
5
5
5
5
5
5
5
5
5
5
5
5
5
5
5
5
5
5
5
5
5
5
5
5
5
5
5
5
5
5
5
5
5
5
5
5
5
5
5
5
5
5
5
5
5
5
5
5
5
5
5
5
5
5
5
5
5
5
5
5
5
5
5
5
5
5
5
5
5
5
5
5
5
5
5
5
5
5
5
5
5
5
5
5
5
5
5
5
5
5
5
5
5
5
5
5
5
5
5
5
5
5
5
5
5
5
5
5
5
5
5
5
5
5
5
5
5
5
5
5
5
5
5
5
5
5
5
5
5
5
5
5
5
5
5
5
5
5
5
5
5
5
5
5
5
5
5
5
5
5
5
5
5
5
5
5
5
5
5
5
5
5
5
5
5
5
5
5
5
5
5
5
5
5
5
5
5
5
5
5
5
5
5
5
5
5
5
5
5
5
5
5
5
5
5
5
5
5
5
5
5
5
5
5
5
5
5
5
5
5
5
5
5
5
5
5
5
5
5
5
5
5
5
5
5
5
5
5
5
5
5
5
5
5
5
5
5
5
5
5
5
5
5
5
5
5
5
5
5
5
5
5
5
5
5
5
5
5
5
5
5
5
5
5
5
5
5
5
5
5
5
5
5
5
5
5
5
5
5
5
5
5
5
5
5
5
5
5
5
5
5
5
5
5
5
5
5
5
5
5
5
5
5
5
5
5
5
5
5
5
5
5
5
5
5
5
5
5
5
5
5
5
5
5
5
5
5
5
5
5
5
5
5
5
5
5
5
5
5
5
5
5
5
5
5
5
5
5
5
5
5
5
5
5
5
5
5
5
5
5
5
5
5
5
5
5
5
5
5
5
5
5
5
5
5
5
5
5
5
5
5
5
5
5
5
5
5
5
5
5
5
5
5
5
5
5
5
5
5
5
5
5
5
5
5
5
5
5
5
5
5
5
5
5
5
5
5
5
5
5
5
5
5
5
5
5
5
5
5
5
5
5
5
5
5
5
5
5
5
5
5
5
5
5
5
5
5
5
5
5
5
5
5
5
5
5
5
5
5
5
5
5
5
5
5
5
5
5
5
5
5
5
5
5
5
5
5
5
5
5
5
5
5
5
5
5
5
5
5
5
5
5
5
5
5
5
5
5
5
5
5
5
5
5
5
5
5
5
5
5
5
5
5
5
5
5
5
5
5
5
5
5
5
5
5
5
5
5
5
5
5
5
5
5
5
5
5
5
5
5
5
5
5
5
5
5
5
5
5
5
5
5
5
5
5
5
5
5
5
5
5
5
5
5
5
5
5
5
5
5
5
5
5
5
5
5
5
5
5
5
5
5
5
5
5
5
5
5
5
5
5
5
5
5
5
5
5
5
5
5
5
5
5
5
5
5
5
5
5
5
5
5
5
5
5
5
5
5
5
5
5
5
5
5
5
5
5
5
5
5
5
5
5
5
5
5
5
5
5
5
5
5
5
5
5
5
5
5
5
5
5
5
5
5
5
5
5
5
5
5
5
5
5
5
5
5
5
5
5
5
5
5
5
5
5
5
5
5
5
5
5
5
5
5
5
5
5
5
5
5
5
5
5
5
5
5
5
5
5
5
5
5
5
5
5
5
5
5
5
5
5
5
5
5
5
5
5
5
5
5
5
5
5
5
5
5
5
5
5
5
5
5
5
5
5
5
5
5
5
5
5
5
5
5
5
5
5
5
5
5
5
5
5
5
5
5
5
5
5
5
5
5
5
5
5
5
5
5
5
5
5
5
5
5
5
5
5
5
5
5
5
5
5
5
5
5
5
5
5
5
5
5
5
5
5
5
5
5
5
5
5
5
5
5
5
5
5
5
5
5
5
5
5
5
5
5
5
5
5
5
5
5
5
5
5
5
5
5
5
5
5
5
5
5
5
5
5
5
5
5
5
5
5
5
5
5
5
5
5
5
5
5
5
5
5
5
5
5
5
5
5
5
5
5
5
5
5
5
5
5
5
5
5
5
5
5
5
5
5
5
5
5
5
5
5
5
5
5
5
5
5
5
5
5
5
5
5
5
5
5
5
5
5
5
5
5
5
5
5
5
5
5
5
5
5
5
5
5
5
5
5
5
5
5
5
5
5
5
5
5
5
5
5
5
5
5
5
5
5
5
5
5
5
5
5
5
5
5
5
5
5
5
5
5
5
5
5
5
5
5
5
5
5
5
5
5
5
5
5
5
5
5
5
5
5
5
5
5
5
5
5
5
5
5
5
5
5
5
5
5
5
5
5
5
5
5
5
5
5
5
5
5
5
5
5
5
5
5
5
5
5
5
5
5
5
5
5
5
5
5
5
5
5
5
5
5
5
5
5
5
5
5
5
5
5
5
5
5
5
5
5
5
5
5
5
5
5
5
5
5
5
5
5
5
5
5
5
5
5
5
5
5
5
5
5
5
5
5
5
5
5
5
5
5
5
5
5
5
5
5
5
5
5
5
5
5
5
5
5
5
5
5
5
5
5
5
5
5
5
5
5
5
5
5
5
5
5
5
5
5
5
5
5
5
5
5
5
5
5
5
5
5
5
5
5
5
5
5
5
5
5
5
5
5
5
5
5
5
5
5
5
5
5
5
5
5
5
5
5
5
5
5
5
5
5
5
5
5
5
5
5
5
5
5
5
5
5
5
5
5
5
5
5
5
5
5
5
5
5
5
5
5
5
5
5
5
5
5
5
5
5
5
5
5
5
5
5
5
5
5
5
5
5
5
5
5
5
5
5
5
5
5
5
5
5
5
5
5
5
5
5
5
5
5
5
5
5
5
5
5
5
5
5
5
5
5
5
5
5
5
5
5
5
5
5
5
5
5
5
5
5
5
5
5
5
5
5
5
5
5
5
5
5
5
5
5
5
5
5
5
5
5
5
5
5
5
5
5
5
5
5
5
5
5
5
5
5
5
5
5
5
5
5
5
5
5
5
5
5
5
5
5
5
5
5
5
5
5
5
5
5
5
5
5
5
5
5
5
5
5
5
5
5
5
5
5
5
5
5
5
5
5
5
5
5
5
5
5
5
5
5
5
5
5
5
5
5
5
5
5
5
5
5
5
5
5
5
5
5
5
5
5
5
5
5
5
5
5
5
5
5
5
5
5
5
5
5
5
5
5
5
5
5
5
5
5
5
5
5
5
5
5
5
5
5
5
5
5
5
5
5
5
5
5
5
5
5
5
5
5
5
5
5
5
5
5
5
5
5
5
5
5
5
5
5
5
5
5
5
5
5
5
5
5
5
5
5
5
5
5
5
5
5
5
5
5
5
5
5
5
5
5
5
5
5
5
5
5
5
5
5
5
5
5
5
5
5
5
5
5
5
5
5
5
5
5
5
5
5
5
5
5
5
5
5
5
5
5
5
5
5
5
5
5
5
5
5
5
5
5
5
5
5
5
5
5
5
5
5
5
5
5
5
5
5
5
5
5
5
5
5
5
5
5
5
5
5
5
5
5
5
5
5
5
5
5
5
5
5
5
5
5
5
5
5
5
5
5
5
5
5
5
5
5
5
5
5
5
5
5
5
5
5
5
5
5
5
5
5
5
5
5
5
5
5
5
5
5
5
5
5
5
5
5
5
5
5
5
5
5
5
5
5
5
5
5
5
5
5
5
5
5
5
5
5
5
5
5
5
5
5
5
5
5
5
5
5
5
5
5
5
5
5
5
5
5
5
5
5
5
5
5
5
5
5
5
5
5
5
5
5
5
5
5
5
5
5
5
5
5
5
5
5
5
5
5
5
5
5
5
5
5
5
5
5
5
5
5
5
5
5
5
5
5
5
5
5
5
5
5
5
5
5
5
5
5
5
5
5
5
5
5
5
5
5
5
5
5
5
5
5
5
5
5
5
5
5
5
5
5
5
5
5
5
5
5
5
5
5
5
5
5
5
5
5
5
5
5
5
5
5
5
5
5
5
5
5
5
5
5
5
5
5
5
5
5
5
5
5
5
5
5
5
5
5
5
5
5
5
5
5
5
5
5
5
5
5
5
5
5
5
5
5
5
5
5
5
5
5
5
5
5
5
5
5
5
5
5
5
5
5
5
5
5
5
5
5
5
5
5
5
5
5
5
5
5
5
5
5
5
5
5
5
5
5
5
5
5
5
5
5
5
5
5
5
5
5
5
5
5
5
5
5
5
5
5
5
5
5
5
5
5
5
5
5
5
5
5
5
5
5
5
5
5
5
5
5
5
5
5
5
5
5
5
5
5
5
5
5
5
5
5
5
5
5
5
5
5
5
5
5
5
5
5
5
5
5
5
5
5
5
5
5
5
5
5
5
5
5
5
5
5
5
5
5
5
5
5
5
5
5
5
5
5
5
5
5
5
5
5
5
5
5
5
5
5
5
5
5
5
5
5
5
5
5
5
5
5
5
5
5
5
5
5
5
5
5
5
5
5
5
5
5
5
5
5
5
5
5
5
5
5
5
5
5
5
5
5
5
5
5
5
5
5
5
5
5
5
5
5
5
5
5
5
5
5
5
5
5
5
5
5
5
5
5
5
5
5
5
5
5
5
5
5
5
5
5
5
5
5
5
5
5
5
5
5
5
5
5
5
5
5
5
5
5
5
5
5
5
5
5
5
5
5
5
5
5
5
5
5
5
5
5
5
5
5
5
5
5
5
5
5
5
5
5
5
5
5
5
5
5
5
5
5
5
5
5
5
5
5
5
5
5
5
5
5
5
5
5
5
5
5
5
5
5
5
5
5
5
5
5
5
5
5
5
5
5
5
5
5
5
5
5
5
5
5
5
5
5
5
5
5
5
5
5
5
5
5
5
5
5
5
5
5
5
5
5
5
5
5
5
5
5
5
5
5
5
5
5
5
5
5
5
5
5
5
5
5
5
5
5
5
5
5
5
5
5
5
5
5
5
5
5
5
5
5
5
5
5
5
5
5
5
5
5
5
5
5
POINT_DATA 2538
VECTORS disp float
1.3787751159710104e-11 2.974584864317043e-11 0.0
2.1811489071553676e-11 -5.539537685043512e-11 0.0
0.0026999999962687405 1.1050309075699312e-11 0.0
0.002699999971908428 -7.394518800260831e-11 0.0
0.000989114073305696 0.00039734539023034913 0.0
0.0019900771714643417 9.602966294725319e-5 0.0
0.0013563638609618476 4.664699701543239e-5 0.0
1.4556710534319091e-12 -1.5296159025613926e-12 0.0
4.597232912090952e-12 3.999163746784712e-12 0.0
3.622066330788235e-12 1.232883170273698e-12 0.0
3.2073434125437625e-12 1.19032509605929e-12 0.0
2.5232791576651956e-12 6.943244752695084e-13 0.0
2.2396341795256495e-12 1.769890667722403e-13 0.0
1.9000428121981644e-12 -1.66911240421537e-13 0.0
1.6672366271434907e-12 -6.928802438487182e-13 0.0
1.2915786059565171e-12 -1.2740794012117756e-12 0.0
1.514746123114279e-12 -1.9578386889121085e-12 0.0
1.4849639328531903e-12 -2.73796598438252e-12 0.0
1.624425705945166e-12 -3.576377609498321e-12 0.0
1.8154981686627987e-12 -4.4140113321195254e-12 0.0
1.883878381140398e-12 -5.079692734777713e-12 0.0
2.1813443441287437e-12 -5.949032117596395e-12 0.0
2.2365998152731572e-12 -6.503834594988576e-12 0.0
2.427800864155649e-12 -7.29402526483841e-12 0.0
2.6258069060383207e-12 -8.062633368140577e-12 0.0
2.738463968334785e-12 -8.784192830640454e-12 0.0
2.958210759739843e-12 -9.68539563616365e-12 0.0
3.253318397946421e-12 -1.0698055017926435e-11 0.0
3.688484316591677e-12 -1.202795093886608e-11 0.0
3.727990340281137e-12 -1.3421796379913916e-11 0.0
5.542514700052365e-12 -1.756220606707446e-11 0.0
2.4520333718579616e-12 -1.4259573313835233e-11 0.0
3.669194632940512e-5 -3.8089199758782724e-5 0.0
6.41289142538846e-5 -6.452632584696658e-5 0.0
9.051999203212788e-5 -8.748249059792759e-5 0.0
0.00011539342543198322 -0.00010821132118314047 0.0
0.00013917511506393856 -0.00012744274015481303 0.0
0.00016234857828800758 -0.00014579888880926687 0.0
0.0001853248262660687 -0.0001632550686712827 0.0
0.00020787566790717978 -0.0001800128694453042 0.0
0.00023024221635556608 -0.0001962525452813639 0.0
0.00025251436517103183 -0.0002119332834811186 0.0
0.0002746858718050252 -0.00022722914913033643 0.0
0.00029698227540834446 -0.0002421020553957871 0.0
0.00031924804950223033 -0.0002565557158187557 0.0
0.00034158029342539045 -0.0002707306181748741 0.0
0.00036412165676389096 -0.0002845364821414719 0.0
0.00038665768185766 -0.00029797727642277984 0.0
0.0004093634744740652 -0.00031115490672895614 0.0
0.0004322564784799537 -0.00032396330445589005 0.0
0.0004553013809834109 -0.000336499455433054 0.0
0.00047852430201031457 -0.00034875764156504804 0.0
0.0005019465681691032 -0.00036073240613237393 0.0
0.0005255394130399399 -0.00037242016535318193 0.0
0.0005494509855076558 -0.00038386041391230664 0.0
0.0005734320320935787 -0.00039500635873664883 0.0
0.0005977951419427705 -0.0004058927013448603 0.0
0.000622206643105823 -0.0004164767454417084 0.0
0.000646909693129136 -0.0004268143946373202 0.0
0.0006717918050276651 -0.00043683516139778137 0.0
0.0006970085628825103 -0.0004466144707986747 0.0
0.0007222709825833338 -0.0004561249051982586 0.0
0.0007478967695163064 -0.00046537911784196864 0.0
0.0007737028546950541 -0.00047432788042701203 0.0
0.0007997813313260139 -0.00048305083172078865 0.0
0.0008260283493788784 -0.0004914954682382282 0.0
0.000852579655388856 -0.0004997183338503263 0.0
0.0008791719287219715 -0.0005076207981176253 0.0
0.0009060845924575232 -0.0005152417288833459 0.0
0.0009330598645574961 -0.0005224469805718223 0.0
0.0009601890939066833 -0.0005292523806719005 0.0
0.0009875097600083199 -0.0005358084043525497 0.0
0.0010149068851011227 -0.0005419229712185774 0.0
0.0010426107000293995 -0.0005477495132516913 0.0
0.0010705349889105285 -0.0005531943279548433 0.0
0.0010986222904558723 -0.0005583812700758476 0.0
0.0011269543350635066 -0.0005631492971665328 0.0
0.0011553190853884631 -0.0005676273025082849 0.0
0.0011839536370475488 -0.0005717951718598379 0.0
0.0012126623558841173 -0.0005756140262711003 0.0
0.001241520292226933 -0.0005791999365002003 0.0
0.001270553907013847 -0.0005824273852056435 0.0
0.0012994634465589641 -0.000585230608198359 0.0
0.001328631967001092 -0.0005878049831887625 0.0
0.001357471212140198 -0.0005899290784765034 0.0
0.0013867349200605633 -0.0005917326633745294 0.0
0.001415529480342319 -0.0005930992511960438 0.0
0.0014449205800691242 -0.000594152555980486 0.0
0.0014737980355901813 -0.000594864896770956 0.0
0.0015024017690744547 -0.0005950596643425149 0.0
0.0015306417377992166 -0.0005949695886741898 0.0
0.0015578569603861094 -0.0005939313879496604 0.0
0.001584401734002122 -0.0005923419936730736 0.0
0.0016109947637385222 -0.0005901715511961401 0.0
0.0016382213502650529 -0.0005877381038637506 0.0
0.0016650860030932942 -0.000584552845134731 0.0
0.0016920586599335444 -0.0005812749252986744 0.0
0.0017200875317690408 -0.0005779086889983133 0.0
0.001746688928995852 -0.0005736515198289481 0.0
0.0017729753331621912 -0.000568681845866245 0.0
0.0017996529953752825 -0.0005625607503514408 0.0
0.001826730009855958 -0.0005558000962567007 0.0
0.0018528328701913226 -0.0005482048490714777 0.0
0.0018802455130111089 -0.0005395462749291309 0.0
0.0019068053411133642 -0.0005304847726442522 0.0
0.0019334814904935916 -0.0005209007590036387 0.0
0.0019608950033792706 -0.0005104386049367867 0.0
0.001987762369509506 -0.0004994390910778204 0.0
0.002014867835206853 -0.0004877129439331632 0.0
0.0020418130081956832 -0.0004754252450375015 0.0
0.0020691656616406546 -0.0004625726490900409 0.0
0.0020966498194160514 -0.0004490617398036688 0.0
0.002124231537925576 -0.0004350763452980961 0.0
0.002151623983478651 -0.00042052942611907356 0.0
0.0021791022920389057 -0.00040545497454673267 0.0
0.0022067731856470706 -0.00038973765049713454 0.0
0.0022343812594265073 -0.0003734978956681983 0.0
0.002262115116878829 -0.0003568087843760333 0.0
0.0022902094598585493 -0.00033944572985693353 0.0
0.002318332712846282 -0.0003214737403435324 0.0
0.0023464868023601745 -0.00030294461869114625 0.0
0.002374999953379041 -0.0002837006534519598 0.0
0.0024039098507967335 -0.0002636030275139424 0.0
0.002433012755453876 -0.00024265646623383783 0.0
0.002462354007967238 -0.0002208646607177007 0.0
0.0024921797723370096 -0.00019794776132707332 0.0
0.002522898992915003 -0.00017358923547906236 0.0
0.0025541209596042095 -0.0001476030330390859 0.0
0.002586190254485626 -0.00011938560720584788 0.0
0.002620435588911929 -8.770473235994504e-5 0.0
0.0026558930351020826 -5.103654190090574e-5 0.0
0.0026999999965288336 -1.6026852488713716e-11 0.0
0.0026999999926975654 -1.8294161720677858e-11 0.0
0.002699999995874646 -9.869477203160241e-12 0.0
0.0026999999957082145 -8.46024912850831e-12 0.0
0.0026999999961752714 -6.496397241802945e-12 0.0
0.002699999996284743 -5.225437540535058e-12 0.0
0.002699999996328654 -4.3383975745369634e-12 0.0
0.0026999999964652283 -3.602272878668945e-12 0.0
0.002699999996487135 -2.9429057508811606e-12 0.0
0.00269999999661125 -2.3748046115798898e-12 0.0
0.0026999999967249086 -1.9417059048675103e-12 0.0
0.00269999999684286 -1.3988726071340167e-12 0.0
0.0026999999969283804 -9.975130750945422e-13 0.0
0.0026999999970418738 -4.911964784961172e-13 0.0
0.002699999997113334 9.100154596211496e-15 0.0
0.00269999999715679 5.953602526771789e-13 0.0
0.002699999997214378 1.2065750900550081e-12 0.0
0.0026999999970008072 1.9558536948343573e-12 0.0
0.002699999997272189 2.558267461648137e-12 0.0
0.0026999999968891414 3.3593001062678287e-12 0.0
0.0026999999969728795 3.890852937423567e-12 0.0
0.0026999999968899202 4.377409137107943e-12 0.0
0.0026999999970222406 4.432310415417262e-12 0.0
0.0026999999973888796 5.2390923737939955e-12 0.0
0.0026999999986042763 2.660691417292539e-12 0.0
0.002504689113708622 8.673738029886403e-5 0.0
0.0023387182985459844 0.0001255098632727313 0.0
0.0021925608663041175 0.00012678883627828858 0.0
0.0020716801190929696 0.00010936042679814818 0.0
0.0019855644456516345 1.3540684035536698e-5 0.0
0.001973508895774755 -2.8889115909619746e-5 0.0
0.0019477912929770338 -5.9111552079660176e-5 0.0
0.0019093540585930796 -6.508586875842695e-5 0.0
0.001860257846254931 -5.4592020657309436e-5 0.0
0.0018081631361494392 -3.9006496643090706e-5 0.0
0.0017545292658609304 -2.2242766878268714e-5 0.0
0.0017004725311369328 -4.6483998557309744e-6 0.0
0.001645049851562533 1.0855102738737057e-5 0.0
0.0015879581462491452 2.3727520742770812e-5 0.0
0.0015260813451039952 3.418521074348108e-5 0.0
0.0014535179173996574 4.229526217176356e-5 0.0
0.001280379429178773 8.667882962642496e-5 0.0
0.0012262051246378879 0.00010467797438405276 0.0
0.001181197433218223 0.0001165709816584736 0.0
0.0011417349240800947 0.00012656953630639238 0.0
0.001105747071972312 0.0001359151496007584 0.0
0.0010731716930574716 0.00014537094173475406 0.0
0.001043736831551512 0.00015589519584553445 0.0
0.0010185627141238054 0.00016798910435415323 0.0
0.0009990935633814458 0.00018576715979023463 0.0
0.00098510786191151 0.00020706324290398355 0.0
0.0009860701440682137 0.0002511869617684658 0.0
0.0009849153279853733 0.0003076488177731962 0.0
0.0008912786913255878 0.00041089872979194913 0.0
0.0007535209097158681 0.0004055207529907403 0.0
0.0005434218317037314 0.00033731235262943703 0.0
0.00029319652368930315 0.00021894378098335373 0.0
0.0007006471516522691 -0.00042924049848093215 0.0
0.001847130018392349 -0.0005158619126294865 0.0
0.0008861295412455032 -0.0004917331239479635 0.0
0.0016551912193633477 -0.0005628152943396243 0.0
0.001083162452574797 -0.0005371702525341818 0.0
0.0014555171308762778 -0.0005710008741249679 0.0
0.0012545976299402726 -0.0005602781105890482 0.0
0.0020122175965093104 -0.00045966369014329995 0.0
0.0005566038107867929 -0.0003721142601420832 0.0
0.002142859320714726 -0.0003955973356641512 0.0
0.0004382967936856604 -0.00031393952462162344 0.0
4.2919470787261064e-5 -8.400540325425906e-6 0.0
0.002649314229683255 -3.885188296525384e-6 0.0
0.00145860861545264 6.266371479090796e-5 0.0
0.001666924167634029 2.1701222512292345e-5 0.0
0.0012523676427982095 8.34077474604477e-5 0.0
0.0011026539358866732 0.0001422819917120537 0.0
0.0022841664342850765 -0.00031933403389471196 0.0
0.0003291389272820639 -0.000251813229921263 0.0
3.310578983289493e-5 -1.2711014766762382e-5 0.0
0.0026632669328388306 -7.088506226320243e-6 0.0
0.002629579536456903 3.395872620464973e-6 0.0
5.529787350934023e-5 8.125523196254497e-7 0.0
0.0023984044979527505 -0.00024462076892084494 0.0
0.00023627909650854442 -0.00018848060823236523 0.0
0.0018170638757272338 -2.0195586485128104e-5 0.0
0.0010005902744727338 0.00017167182206651298 0.0
2.6100386998034805e-5 -1.2605600335528195e-5 0.0
0.0026710353174991116 -8.433733338626466e-6 0.0
0.0009997576895327473 -0.0005198903498537257 0.0
0.001167562530922043 -0.0005502967280749844 0.0
0.001572532884568729 -0.0005714306960924958 0.0
0.0013441397135505733 -0.0005660674486922178 0.0
0.001737693671955866 -0.0005469041499373177 0.0
0.0019235140294244191 -0.0004945798852273317 0.0
0.0008121253380629013 -0.0004694097903276854 0.0
0.0006291186498368738 -0.00040432190826294496 0.0
0.0024828752456772145 -0.00018422897510303408 0.0
0.00016746390985727228 -0.0001389631502125398 0.0
0.0026108530377009238 1.4800582773183729e-5 0.0
7.474087799397802e-5 9.18855129849632e-6 0.0
0.0026764272803198696 -1.1140059820439658e-5 0.0
2.4923586566363903e-5 -1.4642563847542444e-5 0.0
0.0019199989554626409 -3.930545659857464e-5 0.0
0.0009514878096652275 0.00020053845945797977 0.0
0.0025744295147000005 2.47807018052608e-5 0.0
0.00011281908592980578 1.87450608818817e-5 0.0
3.818639144655023e-5 -1.155824330708251e-5 0.0
0.0026559386244359826 -6.133525522017905e-6 0.0
0.0015623201470847223 4.6557394571241364e-5 0.0
0.0011775755074611217 0.00012130558439885238 0.0
9.422718045253976e-5 -7.936685528876668e-5 0.0
0.0025835303583277404 -0.00010335694734108387 0.0
0.0017900213209205442 -0.0005366011387042182 0.0
0.001400017406617731 -0.0005701577381842233 0.0
0.0009463939006804056 -0.0005070703318314872 0.0
0.0007552393737590929 -0.00045175272460777437 0.0
0.0015167753301971317 -0.0005720042057236761 0.0
0.002062265627952132 -0.0004373045118728234 0.0
0.000509184445649149 -0.0003492420695931374 0.0
0.0022007897695137594 -0.00036705977833151424 0.0
0.0003899031484637813 -0.00028650899519486303 0.0
0.000280406563423905 -0.00021938458424839712 0.0
0.0023409764959547528 -0.0002829047894252288 0.0
0.0006309186933613303 0.0002114451052502674 0.0
0.0022418066109852353 6.430229016923239e-5 0.0
0.0026762524708930937 -1.6071539012650952e-5 0.0
2.1787547241036747e-5 -1.4931847511534239e-5 0.0
0.0009356792861154256 0.0002700195173471362 0.0
0.0019998754933880586 -8.953662582953588e-7 0.0
0.00013792463882373603 3.0644105628024915e-5 0.0
0.002574997491097369 2.489555186847543e-5 0.0
4.166244149751468e-5 -3.486861592607348e-5 0.0
0.0026487381071456494 -4.5801618769894864e-5 0.0
0.0021165750996399316 5.3583401036209095e-5 0.0
0.002136685392922863 4.347553156854053e-5 0.0
0.002298636394258198 4.981675985149157e-5 0.0
0.0021950811925367936 5.1903713639639435e-5 0.0
0.002067920950437876 3.578749558008843e-5 0.0
0.002104997472737551 5.7115126676335774e-5 0.0
0.0022300999558376895 6.21629413357019e-5 0.0
0.00214706029369343 7.071458136980767e-5 0.0
0.002267943940716153 6.621184868777963e-5 0.0
0.0021926854596367165 7.343026939703675e-5 0.0
0.0020796604133720997 7.79159164723418e-5 0.0
0.0021229993454983985 7.74549494769053e-5 0.0
0.002026253591555971 8.229129347482128e-5 0.0
0.002062731863824928 7.810371985420388e-5 0.0
0.0019760149556987284 8.357839260811594e-5 0.0
0.002009678262835148 7.547787555965144e-5 0.0
0.001425379120077981 3.6007817821566926e-5 0.0
0.0013467923666687 2.2411220733180323e-5 0.0
0.0014033201113535 1.7783331840823214e-5 0.0
0.001339104645540282 7.351564399298943e-6 0.0
0.0013890208867349528 3.371823971331169e-6 0.0
0.001333624957182424 -4.588265711801557e-6 0.0
0.0013788054264608257 -8.010048753874831e-6 0.0
0.0013286052979062648 -1.4900406168530246e-5 0.0
0.001370753796018229 -1.784824779844066e-5 0.0
0.0013241027729072865 -2.415819976406347e-5 0.0
0.0013641703338903527 -2.6656177312160865e-5 0.0
0.0013200650329739856 -3.26948100815717e-5 0.0
0.0013586143637188972 -3.52270040364459e-5 0.0
0.001317499368810353 -4.094562050008338e-5 0.0
0.0013538461959724823 -4.34528956375313e-5 0.0
0.0013141108935704037 -4.909055465017809e-5 0.0
0.0013493924619506316 -5.1517824034163084e-5 0.0
0.001309649775424978 -5.7179851548273744e-5 0.0
0.0013450923596968973 -5.962870287212955e-5 0.0
0.0013062777727262623 -6.521447822798677e-5 0.0
0.0013412394175388738 -6.781422882422506e-5 0.0
0.001303178047644892 -7.334067507614273e-5 0.0
0.0013364478715688643 -7.605840224453297e-5 0.0
0.0012999304603441757 -8.160308756411404e-5 0.0
0.0013327480628857748 -8.441166725496134e-5 0.0
0.0012974555416315424 -8.977093007662436e-5 0.0
0.001329323422565582 -9.291494882700599e-5 0.0
0.0012928424190303371 -9.785835212997482e-5 0.0
0.0013255618113371347 -0.00010157811637692801 0.0
0.0012814720166489544 -0.00010696790518430787 0.0
0.0013241253964870665 -0.00011051756195414396 0.0
0.0012865984848369066 -0.00011619178961091933 0.0
0.001320613950763723 -0.00011965713806751694 0.0
0.0012849512757337122 -0.00012547531636660108 0.0
0.0013176856732279038 -0.00012908889749374235 0.0
0.0012843347557229083 -0.00013486320710860673 0.0
0.0013146530557331224 -0.00013872605291649647 0.0
0.0012820922913666189 -0.00014470561180577593 0.0
0.001284452646001689 -1.9647766645101864e-5 0.0
0.0013116127608370641 -0.00014866736502592957 0.0
0.0012707093198093922 -6.208027010223768e-5 0.0
0.001247303882926547 -0.0001152802349780774 0.0
0.0012773292261970275 -0.0001547638056291086 0.0
0.0013083496845669351 -0.00015889401151194922 0.0
0.0012726064531127532 -0.0001654579184572043 0.0
0.0012422895803631934 -0.00016029883889024076 0.0
0.001236681221127903 -0.0001714671975200303 0.0
0.0013037240215634006 -0.0001700645652499452 0.0
0.0013400008171530803 -0.0001630608856060007 0.0
0.001354949513697709 -0.00011350147094126592 0.0
0.00133557688420309 -0.0001746026682446628 0.0
0.0013742214312662978 -0.00016638298641837948 0.0
0.001368448989633929 -0.00017909751438264658 0.0
0.0012067451805663609 -0.0001659707285149519 0.0
0.001202496421972802 -0.0001768059182658132 0.0
0.0014083874150380088 -0.0001701779048962242 0.0
0.0011706448132773062 -0.00017096690216909596 0.0
0.0011684093517101723 -0.00018219808286648985 0.0
0.0014032622963424202 -0.00018308982590286267 0.0
0.0014419456464748758 -0.00017476148826757872 0.0
0.0011343613586608755 -0.00017590106722058065 0.0
0.0011313347003127335 -0.00018738200167631408 0.0
0.0014376628599518742 -0.00018762771254252777 0.0
0.001477519582315791 -0.00017879422796688533 0.0
0.0010983110321896373 -0.00018065782022077157 0.0
0.0010949677632325519 -0.00019272038974411275 0.0
0.0014730374356071762 -0.00019237868843773322 0.0
0.0015141008234483165 -0.00018271299612865967 0.0
0.0010626886148406823 -0.00018462821672402777 0.0
0.0010570753597700534 -0.00019697741065485434 0.0
0.0015100346712562853 -0.00019667211633934113 0.0
0.0015514447643897686 -0.0001864728940670463 0.0
0.0010236760073232994 -0.00018845657229727883 0.0
0.0010190489710690093 -0.00020135032689402708 0.0
0.0009835945705002661 -0.0001928283139551786 0.0
0.000988229966045007 -0.0001792700624170127 0.0
0.0014653648983783162 -0.00020587412353554224 0.0
0.0015470933242924532 -0.00020104716927257988 0.0
0.0015894531317581155 -0.00019013803598675488 0.0
0.0015945383921845244 -0.00017511240293318066 0.0
0.00137211321585062 -7.077689731424053e-5 0.0
0.0016342162652197437 -0.00017841918559625405 0.0
0.001639705623301795 -0.00016278889154509583 0.0
0.001680802513569689 -0.00016552423952589728 0.0
0.000982090145953233 -0.00020659949269827445 0.0
0.0009451257085618531 -0.00019650541740627591 0.0
0.0010169597957375236 -0.00021516997586171587 0.0
0.0015837898825751707 -0.00020557452967835704 0.0
0.0009442159393516021 -0.00021052812915626557 0.0
0.0009068215288149639 -0.0001995542598641294 0.0
0.0013957732848230984 -3.675237210424585e-5 0.0
0.0009059929119126547 -0.00021315884028439176 0.0
0.0008686114096764943 -0.00020189023012160862 0.0
0.0008680615812065707 -0.0002157101050870199 0.0
0.0008312127794124703 -0.00020332307162598665 0.0
0.0008309709657598958 -0.0001899133570798519 0.0
0.0007912463844444659 -0.00019155807028406192 0.0
0.000791658001535422 -0.0001774355648800093 0.0
0.0008263757698393015 -0.00021678755462579058 0.0
0.0007489247280791048 -0.0001790110840245531 0.0
0.0007490403741399876 -0.00016457896788214864 0.0
0.0008680174748633633 -0.00023030575992479 0.0
0.0008326377536177483 -0.00023253102132853487 0.0
0.0007072877367521403 -0.00016488066150632878 0.0
0.0007058959549707787 -0.00015071134713714012 0.0
0.0016874552415958393 -0.00014964886958458235 0.0
0.001730305075855352 -0.00015209588345154137 0.0
0.0008680907265876201 -0.0002450987691779796 0.0
0.0008333131003995051 -0.0002471340582518705 0.0
0.001737466751396095 -0.00013569784432110603 0.0
0.0017824373169076876 -0.00013819224480512976 0.0
0.0017731304997938065 -0.00015627467686041635 0.0
0.0018257289229462908 -0.00014140396879253075 0.0
0.0018171095488063497 -0.0001599026283841533 0.0
0.001869879198118739 -0.00014364255989475917 0.0
0.0018637217878689127 -0.0001619489445337576 0.0
0.0019183852848027754 -0.00014378218314493115 0.0
0.0019076950703866707 -0.00016268261025746637 0.0
0.0019243368819064654 -0.0001262899771896414 0.0
0.0019629891550027663 -0.0001447863485801342 0.0
0.0019494631171370048 -0.00016377858484331348 0.0
0.0008687604035892405 -0.000260196596403684 0.0
0.0006618259886940185 -0.00015042874400073372 0.0
0.0006594807304784424 -0.00013586346918157508 0.0
0.0018984505127827532 -0.00018221149378241775 0.0
0.0019384474895499586 -0.00018312838755389917 0.0
0.0019885628813261255 -0.0001643902183197287 0.0
0.001890836033546669 -0.00020223031695710273 0.0
0.0008349423665128565 -0.00026224487385755876 0.0
0.0019774613452370297 -0.00018355182431220203 0.0
0.00202646540296118 -0.00016426956866862796 0.0
0.0008695240596985076 -0.0002757422506948589 0.0
0.0008364704599186116 -0.00027783367035532844 0.0
0.0008024270572844145 -0.00026375475293099034 0.0
0.00201473320357266 -0.0001833215858742177 0.0
0.0020631349239887335 -0.00016320290961526417 0.0
0.0008703467735600455 -0.00029180936075016756 0.0
0.0009030490138101998 -0.0002893850666972415 0.0
0.0008044546488277411 -0.00027941439222175835 0.0
0.0007706913184857238 -0.00026482610103105555 0.0
0.0020494703754287856 -0.00018238956305690387 0.0
0.00209893455008217 -0.00016122125242930467 0.0
0.0021121085186682088 -0.00014314023347029956 0.0
0.002001107566919777 -0.00020354548651027135 0.0
0.0021481649314882387 -0.00014035141783374917 0.0
0.0021623810368119486 -0.000123287739004148 0.0
0.0006126449792962566 -0.00013525772210525958 0.0
0.0006125803494872522 -0.00012008170112061226 0.0
0.0006691851672545229 -0.00012165459315933901 0.0
0.0006109433485470503 -0.0001045685121466694 0.0
0.0006659200380055169 -0.00010356393692574526 0.0
0.0006087642998857383 -8.75505771783078e-5 0.0
0.0006628420852307961 -8.534146366392492e-5 0.0
0.0009038016705404173 -0.00030571346601250164 0.0
0.0009357334790862366 -0.0003028735377690336 0.0
0.0007730487721398237 -0.00028057046241111884 0.0
0.0007395647750578579 -0.0002654296877023212 0.0
0.002133831460441345 -0.00015842663210490306 0.0
0.0006123717036798834 -6.973451565902529e-5 0.0
0.0006641299218252382 -6.637081680334442e-5 0.0
0.0009365365217999515 -0.0003193453720422757 0.0
0.0009677280365172754 -0.00031632602570425255 0.0
0.0011347040680934023 -0.00019837918244941706 0.0
0.002182933752930845 -0.000136824206034299 0.0
0.0014299279182529152 2.4493298884232628e-6 0.0
0.0014947895897643522 5.9814647805719745e-5 0.0
0.0012632544564931342 -8.6759958541845e-5 0.0
0.0017875862829476443 -0.00012147715885172411 0.0
0.0006085209687765333 -4.939451637911673e-5 0.0
0.0006696359421648304 -4.554268670793741e-5 0.0
0.0007423265666387272 -0.0002812585364531445 0.0
0.0007092811267815787 -0.00026569097559976136 0.0
0.0009690081383290262 -0.00033300977865712657 0.0
0.0009999684462598723 -0.0003297391275245938 0.0
0.0021672709526884466 -0.00015473249503409679 0.0
0.0005638363288288669 -0.00011932596546645734 0.0
0.0005657806266112956 -0.00013442035434992162 0.0
0.0005480562524641364 -7.03603008163805e-5 0.0
0.002216568875405879 -0.00013259541046152257 0.0
0.000608951114360937 -2.86943348152077e-5 0.0
0.0006712172864586086 -2.2671401933125495e-5 0.0
0.0009383659985801468 -0.00033641814818182147 0.0
0.0007125728598557393 -0.00028174484259065204 0.0
0.0006796653363952031 -0.00026549046442755355 0.0
0.001742725309579366 -0.0001193614031730207 0.0
0.0017949415758458738 -0.00010454328926876186 0.0
0.001747366537382355 -0.00010266803046952469 0.0
0.0018023756419828154 -8.754766737670663e-5 0.0
0.0010008196195022672 -0.0003464523159964565 0.0
0.001032076898146776 -0.00034249383299231686 0.0
0.0011031396129240337 -0.000169809345871147 0.0
0.0006091875688263407 -7.221382588479019e-6 0.0
0.0006705726559967417 9.857984703649642e-7 0.0
0.0022010869940888808 -0.00015026633096204174 0.0
0.002156523401869374 -0.00017128147504640826 0.0
0.000596226023123432 1.7152600900245084e-5 0.0
0.0006679355918387969 2.6605312635522173e-5 0.0
0.00224932656377363 -0.00012827028566910425 0.0
0.002258822134399838 -0.00011569190560693291 0.0
0.0006051094127704789 4.042126265728988e-5 0.0
0.0007445691470802683 -0.00029898547215718145 0.0
0.0010324144569671845 -0.0003597617300261472 0.0
0.001063452741484987 -0.00035502485049750387 0.0
0.0010636712564260267 -0.0003378517188225202 0.0
0.0010949887786716492 -0.0003499248655364748 0.0
0.001095629843748219 -0.0003328852922424434 0.0
0.0011270797225870894 -0.00034444875265943697 0.0
0.0011280471615572859 -0.00032729514757007765 0.0
0.0011599431078433474 -0.0003385078586870619 0.0
0.0011613357756896211 -0.0003213355151514434 0.0
0.0011934638607152396 -0.00033201940944370677 0.0
0.0011920327380531136 -0.00034974256125691334 0.0
0.0012253644262732097 -0.0003427609248505959 0.0
0.00122374669093704 -0.000360881211601466 0.0
0.0012569022942667762 -0.0003533937728136727 0.0
0.00125490416503886 -0.00037196412235121837 0.0
0.0012883076910815338 -0.00036392943031186007 0.0
0.0011954016616718204 -0.00031486439256645004 0.0
0.0012905300086761325 -0.00034527147169848634 0.0
0.0013223666467878127 -0.00035519475975349897 0.0
0.0013196707733045489 -0.00037466268595504764 0.0
0.001354146252658903 -0.00036541607862184246 0.0
0.0005159496057695662 -0.00011771537041379521 0.0
0.0005180536544213659 -0.0001323963126041475 0.0
0.0006832842492549644 -0.00028157341581885203 0.0
0.0006509996639194242 -0.00026499274254635576 0.0
0.001357496602089693 -0.0003459087751288202 0.0
0.0013893048075319936 -0.0003553464412263985 0.0
0.0013854652771410597 -0.0003754888961258626 0.0
0.001421285104574345 -0.0003647131359186122 0.0
0.0004694656497799882 -0.00011528293255881284 0.0
0.0004719497411626254 -0.00012933578632624468 0.0
0.0017522752610829744 -8.53103502127351e-5 0.0
0.001810693494737477 -6.998636944487121e-5 0.0
0.0017588724419452424 -6.778914021044178e-5 0.0
0.0022350385882207056 -0.00014504690114028695 0.0
0.0022817910153755164 -0.0001233215847423522 0.0
0.001063650207399982 -0.0003729152787740184 0.0
0.0007298462690682057 -6.628644733004056e-5 0.0
0.001365382363581822 -0.00019076141345553084 0.0
0.0014169159761498885 -0.0003854919099285464 0.0
0.0014529242052810142 -0.0003740454700939371 0.0
0.001457016838027662 -0.0003529903805847574 0.0
0.0014894628279859617 -0.00036141894233518884 0.0
0.001448279862020985 -0.00016108582703925665 0.0
0.0018220414690820843 -5.171239365062739e-5 0.0
0.0018698542786428451 -5.732751042977231e-5 0.0
0.0006713884675129063 5.275191912507343e-5 0.0
0.0006545985939942549 -0.00028093782396097425 0.0
0.0006228921143860998 -0.00026396933321538575 0.0
0.0017669447616242508 -4.951354669609511e-5 0.0
0.001484488836259376 -0.000383415860429029 0.0
0.001521793371352541 -0.0003704516186608238 0.0
0.001527139987711071 -0.00034814399487202995 0.0
0.0015604645032020721 -0.0003566026145286263 0.0
0.0015668901755981964 -0.0003346688070910438 0.0
0.001599942967905115 -0.0003418925854240783 0.0
0.0015928401304593166 -0.0003645699430920073 0.0
0.0016322755233130184 -0.00034893608380436963 0.0
0.0006055056498756728 6.26099828828185e-5 0.0
0.00042471390660160814 -0.00011200926871577057 0.0
0.00042726421123564704 -0.0001251757132067155 0.0
0.0010336477041935565 -0.0003777911806755596 0.0
0.0022658211604973727 -0.00014149008956140742 0.0
0.0023132099814866837 -0.00011842055109801989 0.0
0.0016245396893850021 -0.00037233785014894255 0.0
0.001663558718615909 -0.0003558933712297491 0.0
0.0006765625841103544 7.776424445573993e-5 0.0
0.0006269742451586756 -0.00027998194282174304 0.0
0.0005951905641288743 -0.000262330792409048 0.0
0.0007340721710091887 9.220551655163344e-6 0.0
0.00209554316815599 6.863263844257409e-5 0.0
0.0010639805885117848 -0.0003913289677692169 0.0
0.0006081596805317007 8.280219320025568e-5 0.0
0.0005531551561937878 -1.5102041465857146e-5 0.0
0.002292203068918711 -0.00014197097260056717 0.0
0.0023439816669009847 -0.00011404757845362356 0.0
0.002360583048952626 -9.681245102511963e-5 0.0
0.0005377726339995529 4.8338944481854214e-5 0.0
0.002243502597674999 -0.00016428725637251113 0.0
0.00041923676248193373 -9.826743557336802e-5 0.0
0.000655967270293359 -0.00029616720705550925 0.0
0.0018329541154415534 -3.284324682361064e-5 0.0
0.0017760566916171121 -3.0506243614784116e-5 0.0
0.0016075845901552682 -0.0003201697845286196 0.0
0.0005997382975451962 -0.00027877536471774503 0.0
0.0005679789145089955 -0.0002605378673416391 0.0
0.0003815820392803042 -0.00010781847950652936 0.0
0.00038408600680863933 -0.00011990641694536712 0.0
0.0007063899946163158 -0.00025064784139926954 0.0
0.0016551926160153665 -0.0003799361710475109 0.0
0.0016938294798973011 -0.0003624634458374702 0.0
0.0005633476326915934 -0.00024455770790751105 0.0
0.0005359614329505407 -0.00024218255027900432 0.0
0.0016190304218193627 -0.0003950236660066242 0.0
0.0010351856029975073 -0.00039635891284537023 0.0
0.0005412775777588752 -0.00025849593488099773 0.0
0.0005093051599021583 -0.00023958327013668887 0.0
0.0010957896404246885 -0.00031659444974086446 0.0
0.002392212709659257 -9.129034115832152e-5 0.0
0.002407754030071725 -7.736867100729524e-5 0.0
0.002376166225875309 -0.00010852585852081201 0.0
0.0016847908928734195 -0.0003869029674695518 0.0
0.001722993342282195 -0.00036852692912824406 0.0
0.001573388668426948 -0.0003135447923343426 0.0
0.0016151210595499973 -0.0002993469944678267 0.0
0.0010647219824547437 -0.00041020055965934637 0.0
0.001732768787953967 -0.00034430265425994385 0.0
0.0017616800349191538 -0.00034980507830921243 0.0
0.0003393642636724949 -0.00010221030063042097 0.0
0.00034379322250139134 -0.000113838258247778 0.0
0.0017513409394899501 -0.00037500414208086944 0.0
0.0017889796451319977 -0.00035525222923367097 0.0
0.0005156305072165935 -0.00025631618995566787 0.0
0.0004835392574681637 -0.00023679470330430634 0.0
0.001843751775701448 -1.3458998908275524e-5 0.0
0.001786474535782055 -1.0785103297025308e-5 0.0
0.0004769121140520913 -0.000220914833795372 0.0
0.000450959148854987 -0.00021736104018873367 0.0
0.00045753481768116486 -0.00023354127078966728 0.0
0.00042503553242514037 -0.0002135252265452592 0.0
0.0024233286916359943 -8.57161358148748e-5 0.0
0.0024070030259133583 -0.00010368628166928433 0.0
0.000680045121866318 9.947033541325324e-5 0.0
0.0006063870588119075 0.00010022620399391052 0.0
0.0017070236759135018 -6.499192979638645e-5 0.0
0.001036778816935016 -0.00041537197771046526 0.0
0.0017780744246301112 -0.0003814307670649668 0.0
0.0018146148698917942 -0.0003604812067194985 0.0
0.0019253442147683189 8.132627438776044e-5 0.0
0.0017723929488684415 -0.0003256945689581372 0.0
0.0012224464784658462 -0.00037952743756018443 0.0
0.00041761203013501854 -0.00019818835209127567 0.0
0.0003923504220311055 -0.00019354700847274767 0.0
0.0004000259375883554 -0.00020957280385282186 0.0
0.0003671305202686867 -0.00018882675455497857 0.0
0.0003594924564123468 -0.00017385654767170506 0.0
0.00033340613020115754 -0.00016838217143419777 0.0
0.0003255310037517787 -0.00015389764356944384 0.0
0.00029893671773265296 -0.00014756033018816712 0.0
0.00029111466553204135 -0.00013423093803393858 0.0
0.0002658927672857992 -0.0001276615460891773 0.0
0.0002576898721875892 -0.00011555771121561421 0.0
0.00027321496565980573 -0.0001406520864779871 0.0
0.00023706562674368086 -0.00011776027871849914 0.0
0.0003002673604168186 -9.602375176066201e-5 0.0
0.0002980267374546816 -8.571882591738991e-5 0.0
0.0002476802459994886 -0.00013320276483498827 0.0
0.0002145144937346177 -0.00011204323631435458 0.0
0.0007481694701006864 9.17705332326824e-5 0.0
0.0007851148995650318 -0.00016177406936635996 0.0
0.0015802831854387584 -0.0002933523860255566 0.0
0.0016222178930608692 -0.0002794190814060222 0.0
0.0004716956151015048 -0.00014201076129898217 0.0
0.0010655155568849814 -0.00042963749210533556 0.0
0.0010936821475608792 -0.00042408279980385926 0.0
0.0016575299129823757 -0.00028464705410085196 0.0
0.0016650734772844665 -0.00026475430868359953 0.0
0.002453870044020454 -8.005227390998097e-5 0.0
0.0024355303421583546 -9.941397957807383e-5 0.0
0.0023894302347895373 -0.00012657128942580387 0.0
0.0017186432542418697 -2.8451068866472897e-5 0.0
0.001728727954971647 -8.935448286797655e-6 0.0
0.0010074837794412502 -0.000401059687255882 0.0
0.0010093312861822789 -0.00042010338260884035 0.0
0.0009804869097820381 -0.00040551585743454335 0.0
0.0003762002558994888 -0.00020554450290604512 0.0
0.0017972196199937383 9.207154889478649e-6 0.0
0.0017395623036762055 1.1564969294664106e-5 0.0
0.0007067622229669898 -0.0001797799972770151 0.0
0.0018027688595252886 -0.0003874550873338436 0.0
0.00183907938692237 -0.00036556552160420697 0.0
0.0018517050361253507 -0.000339599665106686 0.0
0.0018757104173932988 -0.0003437253592967559 0.0
0.0007040098583171594 0.00012108828176734832 0.0
0.0006163515963407268 0.00011683898888417588 0.0
0.0009660936358685648 -0.0003003728570887462 0.0
0.0017675954296940681 -0.0004087672830194734 0.0
0.002229847699213218 6.786579460695833e-5 0.0
0.0018625998907110478 -0.00037150920267481856 0.0
0.0018993720215467165 -0.00034875963967174957 0.0
0.0019128769457743475 -0.0003215726013945669 0.0
0.0019369756317952358 -0.00032577584175526054 0.0
0.0019514543804804547 -0.00029891771341383836 0.0
0.0019752399107490553 -0.0003023856623920686 0.0
0.0019605835970749504 -0.0003309389086355475 0.0
0.0019985642549087816 -0.00030678003764275343 0.0
0.00022302339607932698 -0.00012467244024698664 0.0
0.00019048893911064244 -0.0001033368322160176 0.0
0.00017805818986987358 -8.984105043452152e-5 0.0
0.0010943810304885181 -0.0004439501024695532 0.0
0.0011214286611967415 -0.0004388389004186747 0.0
0.0009828117891305102 -0.00042463741311361223 0.0
0.0009540782982530192 -0.00040958617835770586 0.0
0.002416104652670323 -0.00012418894152926537 0.0
0.0024620108709186394 -9.58701930199223e-5 0.0
0.0018945169491652266 8.655305112695186e-5 0.0
0.0018471126851769815 8.510715545115698e-5 0.0
0.0005275821316278385 9.449935574521748e-5 0.0
0.0005370463112967618 0.00010759602813119852 0.0
0.00025677236359151524 -0.0001482614337143968 0.0
0.0009039503767873694 -0.000242547643754733 0.0
0.001689287653610802 -0.00010239626816612609 0.0
0.0023716573738901195 -0.00015346356893636967 0.0
0.0007176959842849061 -9.865214642886757e-5 0.0
0.0016615116145922053 -2.7109872095296688e-5 0.0
0.0019831063395329535 -0.00033712267597287135 0.0
0.0020210355674844167 -0.0003121911932188992 0.0
0.0020302966428024567 6.349810783139745e-5 0.0
0.0021265916594091576 5.626719827895472e-5 0.0
0.000704949181736169 0.00013863968669658948 0.0
0.0003862055284133369 -0.00013157579490700883 0.0
0.000254507846062171 -7.827658176433607e-5 0.0
0.00025279024675431335 -6.880279691734046e-5 0.0
0.0004077924056682652 -0.00022674009520638272 0.0
0.0018880050902499157 -0.00037828102022934495 0.0
0.0015403028785933664 -0.00021603005460824905 0.0
0.0013824372433315832 -0.00039629257620874263 0.0
0.0008730036451076633 -0.00030769101009602245 0.0
0.00019897268844201344 -0.00011590033516980047 0.0
0.00016727917625617062 -9.433418317124566e-5 0.0
0.0005475417729664216 -0.00027589980139015917 0.0
0.0017010522058640426 -0.0002692817347387354 0.0
0.0017090116465164073 -0.0002495620157735489 0.0
0.0010102749416466294 -0.00043997144841711555 0.0
0.00207511349318669 4.902867216372015e-5 0.0
0.002157494303617769 4.329219050813521e-5 0.0
0.0021092659541023066 3.4604317562433844e-5 0.0
0.0021890258119444906 2.978241863404681e-5 0.0
0.002236565731931436 3.7579752393988496e-5 0.0
0.0022672515499231635 2.5200882685981815e-5 0.0
0.002218893372379209 1.6106564383524888e-5 0.0
0.0022943923262890866 1.2910709232427067e-5 0.0
0.0022462534606655015 2.8361056732518208e-6 0.0
0.002320113754257859 1.3473811436210273e-6 0.0
0.002272937016681127 -9.918551128562503e-6 0.0
0.002343590928647941 -9.256179846517286e-6 0.0
0.0022973175656270527 -2.1678709471042507e-5 0.0
0.0023655817905711084 -1.878733252239891e-5 0.0
0.0022242404635884807 -2.4145565433099478e-5 0.0
0.0023200227407551306 -3.205297341711131e-5 0.0
0.002384316020002742 -2.746467365121022e-5 0.0
0.0023169291620295145 3.1390822755886006e-5 0.0
0.0005301719359351254 -0.00022650446340065922 0.0
0.0005226405043552772 -0.00027405749656748366 0.0
0.0005534074703631978 -0.000293859142725764 0.0
0.00234126212274049 -4.0976164854602234e-5 0.0
0.002402449179459692 -3.4563451431895094e-5 0.0
0.002280483834180322 -4.666433010828881e-5 0.0
0.001412857990567823 -0.00040683782968124586 0.0
0.0013791101319069114 -0.0004174066712574496 0.0
0.001408979320807543 -0.0004285179685682074 0.0
0.0013764757112110556 -0.000438982231954735 0.0
0.001405576611676525 -0.00045062251904410985 0.0
0.0013745844800481704 -0.00046099876950740496 0.0
0.001345480761730184 -0.0004490601625352786 0.0
0.001344337341753089 -0.0004708261103447148 0.0
0.0013159630579568445 -0.00045854257251640916 0.0
0.0012769375260371857 1.8536410815054673e-5 0.0
0.0014028984909156875 -0.0004732715886162945 0.0
0.001433543841238674 -0.00046239713848354345 0.0
0.001196285018579021 -0.00018866023018866557 0.0
0.0011628174871377108 -0.0003046975181552882 0.0
0.0011975123836593371 -0.00029823921292650455 0.0
0.0011644840918826544 -0.00028855722467529974 0.0
0.001199775876741996 -0.00028214495166457024 0.0
0.0011663674212437588 -0.0002729381265867328 0.0
0.0012022110582302276 -0.00026659607889439126 0.0
0.0012357849119531204 -0.00027526697660427914 0.0
0.0012387265227413729 -0.0002597884335247073 0.0
0.001272499259552847 -0.00026793024753088743 0.0
0.0012758330311228876 -0.00025251636346024724 0.0
0.0013082908552785996 -0.0002601011470430156 0.0
0.0012419511200059531 -0.0002443899618991018 0.0
0.0011684760054657428 -0.00025781928571515147 0.0
0.001132544960465553 -0.00026368131350569513 0.0
0.0013045612662025683 -0.00027624113854594575 0.0
0.0013423604833114184 -0.0002668943121241287 0.0
0.0005296035919822514 -0.00029244181442725426 0.0
0.001250586315716592 -0.00013132509367346296 0.0
0.0012790525594597536 -3.84863410224611e-5 0.0
0.001393472071057463 -0.0003359814038615891 0.0
0.0024691141162099337 -6.616869593571018e-5 0.0
0.0024985911843810452 -6.0300985181438655e-5 0.0
0.001384742457193298 -5.333058783731298e-5 0.0
0.0013657180028157636 -8.5987877302573e-5 0.0
0.0019266151465442054 -0.000296190052739936 0.0
0.0016712092574494943 -0.00018190553770076792 0.0
0.0024435369525568624 -0.00012058343901925184 0.0
0.0024874342463550914 -9.232965141089589e-5 0.0
0.0013502543065424567 -0.0001328712031988279 0.0
0.0009567509127456225 -0.00042889801542440664 0.0
0.0009281720770448818 -0.00041343944700204593 0.0
0.0014110198385506316 -1.9227659945112498e-5 0.0
0.001314922372991169 -0.00048018829791728914 0.0
0.0012864316974874738 -0.000466676413848392 0.0
0.0009255397278797859 -0.00039447303163151436 0.0
0.0008993813008477725 -0.00039792318220882036 0.0
0.0008966323777348743 -0.00037925686199688936 0.0
0.0008703353517506556 -0.00038225740267650563 0.0
0.000873667332332667 -0.0004011891671405645 0.0
0.0008447148740046585 -0.00038507318577978337 0.0
0.0008483598442350644 -0.00040422639375431224 0.0
0.0008194314104070769 -0.0003876883323156809 0.0
0.00038553546533592935 -0.00022344232151272228 0.0
0.0025124516317926904 -4.9717521496549284e-5 0.0
0.001806633640765357 2.8789584706321133e-5 0.0
0.0017478893366986285 3.125989447497435e-5 0.0
0.0008025290782843612 -0.0002347492345402766 0.0
0.0006506234109210068 -0.000249884341621375 0.0
0.002425848047422319 -1.6978109319599474e-5 0.0
0.0023922669205157262 -5.159003862342727e-7 0.0
0.0011215826136321324 -0.00045871735071699064 0.0
0.0011493001419243941 -0.0004529881614933526 0.0
0.0017911517172834778 -0.00041556731770535057 0.0
0.00035401607879286586 -0.0001599009166324764 0.0
0.0015187612003459924 -0.0001693759012499537 0.0
0.0016823508752126454 1.2715687608910827e-5 0.0
0.0016905809299469674 3.233453776797354e-5 0.0
0.001966702408228077 -0.00027398127786985724 0.0
0.0020371220940141317 -0.0001458812762953818 0.0
0.002037207120870513 -0.00028284417206779077 0.0
0.002060388218793308 -0.0002868235547645012 0.0
0.002042773561365729 -0.00031877005908552934 0.0
0.002082922601636281 -0.00029221506727409804 0.0
0.0011787291478805003 -0.00016022091205577244 0.0
0.00041546188596415675 -0.0002446865326763308 0.0
0.0013098841574381297 -0.0002443894619989779 0.0
0.002171293274415714 3.460535860411539e-6 0.0
0.0011268913446866172 -0.00041972030380576126 0.0
0.0005589291739610564 -0.0003122710561151594 0.0
0.0005828180553486611 -0.0003135194139500746 0.0
0.0017574502869280393 -0.00043678828184536255 0.0
0.000867095521205854 -0.0003640159450178809 0.0
0.001586804744879608 -0.0002740407155805565 0.0
0.001545286716135843 -0.0002871245579705186 0.0
0.0024690360093412257 -0.000117632533877936 0.0
0.0025131117862105604 -8.795769394594099e-5 0.0
0.0025298149719549493 -6.774818718696503e-5 0.0
0.0007907130837982986 0.0001434462924220004 0.0
0.00017580343241168346 -0.00010643205789048199 0.0
0.00014443079490836474 -8.42349314956065e-5 0.0
0.00013928548418315554 -7.569587973492396e-5 0.0
0.001818856460539126 8.691873618381269e-5 0.0
0.0018632915354721991 8.321362376756788e-5 0.0
0.0017741842225845064 8.696101458948173e-5 0.0
0.0019014098372956102 -1.6673380522680193e-5 0.0
0.0023615600462882124 -4.765603174197262e-5 0.0
0.0024216968146566465 -3.949084443596803e-5 0.0
0.0009312495150353956 -0.0004329909550950994 0.0
0.00185525121294167 -8.91273578787064e-5 0.0
0.0004472491696535608 8.401506016254034e-5 0.0
0.0004526933907254072 9.269425592647742e-5 0.0
0.0005500634302365994 0.0001185852492589718 0.0
0.0004571712419342564 9.827891227986696e-5 0.0
0.0005951028365231087 0.0001352098774642879 0.0
0.0012847039477934235 -0.00044478957246719324 0.0
0.0008152003016250267 -0.0003689361148907332 0.0
0.0007905818285936377 -0.00037117509270166694 0.0
0.0007947774254960154 -0.0003901361648608913 0.0
0.0007662250472445327 -0.0003732699931132488 0.0
0.0020998577926576783 -0.0002616365125379446 0.0
0.002122491276665262 -0.0002663098033430503 0.0
0.0021056611549688767 -0.0002986468130192838 0.0
0.002144532289005265 -0.0002719486550196721 0.0
0.0016720320812442316 -0.00024544736301112624 0.0
0.001716566990276014 -0.00023068763072087574 0.0
0.0014308044135266209 -0.00048550346939638876 0.0
0.0014608592079801334 -0.0004741944914875567 0.0
0.0011344861496163886 -0.0002488272364689481 0.0
0.0010983830770235543 -0.00025426813625603633 0.0
0.001091519726649901 -0.00046480455503848883 0.0
0.0007705314457781081 -0.0003921255367650555 0.0
0.0007425241164691624 -0.0003751176032861772 0.0
0.002344870809586868 -0.00015514747879745783 0.0
0.002327153557083837 -0.00018399257923457294 0.0
0.0023016841715078795 -0.00018456336428621212 0.0
0.0022881932752703005 -0.00021228107586518808 0.0
0.0011492489044903139 -0.00047461443512216724 0.0
0.00020491123796139509 -0.0001284921562973501 0.0
0.00028516458349552 -0.00012262219362432205 0.0
0.00024784929127955654 -0.000103623493976545 0.0
0.00020755783073127772 -6.091634619042957e-5 0.0
0.00020321641619413595 -5.200128020694894e-5 0.0
0.00025147973738035874 -5.871577789338362e-5 0.0
0.0001998511734851915 -4.2741602553351876e-5 0.0
0.00025011023140552154 -4.765417839074802e-5 0.0
0.00019665795140130925 -3.285879601078411e-5 0.0
0.00024960364202277505 -3.56215189067442e-5 0.0
0.0023533063480966334 -0.0001833731735260946 0.0
0.0007608842772556187 -0.0003549149825117206 0.0
0.001940708341908254 -0.0002729433540120859 0.0
0.001733502796402344 -0.0004284222536267198 0.0
0.0017246600497203431 -0.00045718206672266525 0.0
0.0017008988396124325 -0.0004484389930835036 0.0
0.0012861690960568723 -0.000488782035886002 0.0
0.0018525388362029113 2.3073113685574806e-5 0.0
0.002127883829172551 -0.0003059747658135202 0.0
0.0025558482944748424 -6.189562315375759e-5 0.0
0.002538260194576582 -8.270373053028765e-5 0.0
0.0007915342992325777 0.00015823773620802123 0.0
0.0017992701680518235 4.4976828436931296e-5 0.0
0.001360959322478652 -0.0003271592217294776 0.0
0.0013969992169028918 -0.000317298466424925 0.0
0.001344498157080583 -0.0004934409516438328 0.0
0.0012579127697643583 -0.0004748125998861273 0.0
0.0005717284996443167 -0.0001512843876913955 0.0
0.002460293909965995 -2.8300659630219766e-5 0.0
0.0024784029375497793 -3.153498146371476e-5 0.0
0.0024388438107737923 -4.3087716669894866e-5 0.0
0.002493640875005114 -3.411686159117296e-5 0.0
0.0020345006419405873 -0.00020219372318991998 0.0
0.0015129378836451516 -0.0003938023111810091 0.0
0.0015512342042446603 -0.00026848658203307616 0.0
0.0011275903677335304 -0.00036235886166528927 0.0
0.0016434052823574644 -0.00014733240375240406 0.0
0.0017453619509218096 -0.0002535240171370524 0.0
0.0017426995855963567 -0.0003215250237068204 0.0
0.0017832696536099267 -0.0003031865162991322 0.0
0.001787686521137327 7.675779739941712e-5 0.0
0.0018425319218196773 6.872148411339698e-5 0.0
0.0005878245258456132 -0.0003321129891035422 0.0
0.0006106221868898766 -0.000332663997962556 0.0
0.0001939550164433822 -2.2286386138039393e-5 0.0
0.0002473577868752586 -2.2638111353355484e-5 0.0
0.0003047976814797171 -3.683227117035848e-5 0.0
0.00030477877902883836 -2.120642911139046e-5 0.0
0.000246957995393241 -9.389543942858958e-6 0.0
0.00030742107036594907 -5.210821137428083e-6 0.0
0.00024845787843969224 3.5716719411563553e-6 0.0
0.0003128290152234515 1.0794476337789473e-5 0.0
0.00025120992647746155 1.5763074734586668e-5 0.0
0.0001532646007714643 -9.636107964713507e-5 0.0
0.0015100649201269544 -0.0002807216834408056 0.0
0.00012255330461466527 -7.394984905370238e-5 0.0
0.0005362881040860894 -0.0003112983826919366 0.0
0.0025427349499673405 -4.344417751776779e-5 0.0
0.0012301560145001975 -0.0003079013449155444 0.0
0.0016270058442182835 1.2730963884187366e-5 0.0
0.0016388869032444406 3.4034610988053526e-5 0.0
0.00031892914799677697 2.6186127034518094e-5 0.0
0.0003943785247438102 -0.00024210700871568012 0.0
0.00036482231918907583 -0.0002203814737748266 0.0
0.0007994740052987526 -0.00041282922744348904 0.0
0.0017772087004703366 -0.0004459459358292947 0.0
0.0009593199022437193 -0.0004488747339009195 0.0
0.0021664464015140037 -0.0002781946348228864 0.0
0.0025714458450007273 -4.6721302475035425e-5 0.0
0.0010967983116859272 -0.000269244783585874 0.0
0.001062809061654223 -0.0002592705794830677 0.0
0.0010614832840994564 -0.0002744068951219419 0.0
0.0008676851590669417 0.00015962283718481767 0.0
0.001029505550645164 -0.0002639443034325542 0.0
0.00021570626845341168 -7.066431109112764e-5 0.0
0.0014579156328245585 -0.0004979731144351075 0.0
0.0014880031113651822 -0.0004861902023717503 0.0
0.0014916063089422662 -0.0004621983567028847 0.0
0.0015184752956367948 -0.0004736783939441986 0.0
0.001813213429406888 -0.00030679381725680544 0.0
0.001825086909669533 -0.00028420729409898065 0.0
0.0025542435131953012 -3.58742336294942e-5 0.0
0.0025232939980850775 -4.1849040967740226e-5 0.0
0.0017097408651898529 5.4441093132431986e-5 0.0
0.0016505309065529734 5.657708243646204e-5 0.0
0.000507500412523869 -0.0002912210720719862 0.0
0.0007470483733649181 -0.0003940730986777252 0.0
0.0007195608306011092 -0.00037684896559159154 0.0
0.0012974837158837163 -0.0001822295937295173 0.0
0.0020902824710127945 -0.0003334595753427226 0.0
0.00025633255167414626 2.6822200824787452e-5 0.0
0.0007143275970987485 -0.0003578636112152447 0.0
0.001514562214661611 -0.0004983585622450091 0.0
0.0015445881597866968 -0.00048522976984281547 0.0
0.0015150297419232123 -0.0002631303292215622 0.0
0.0014748167719157979 -0.0002741522245063191 0.0
0.0014793723899304207 -0.000257213514765162 0.0
0.0013759813388197657 -0.00015581843122990465 0.0
0.0002167759858996717 -9.506453927453476e-5 0.0
0.00013130957846964244 -8.581828524870013e-5 0.0
0.0015232929077389175 -0.0004493136002468654 0.0
0.0015786566555035042 -0.00022115851253834922 0.0
0.0012581707929649373 -0.0004970969466947968 0.0
0.0005174644474335406 -0.00010289020121558702 0.0
0.0009091784505845608 -0.0001869744031352521 0.0
0.0004232430833303847 -0.0002643059606118157 0.0
0.0021835895064364393 -0.000245785492325448 0.0
0.0005599783272964742 -0.0002294354993369482 0.0
0.0005248421321215433 -0.00021134114967467972 0.0
0.0005574283369102242 -0.00021466275190665937 0.0
0.0005209314381122927 -0.000196828967098429 0.0
0.0005545935348627815 -0.00020018459293630464 0.0
0.00048799758490666287 -0.00019302431320092096 0.0
0.001692945309276978 -0.00047689673950925763 0.0
0.0016708858165978384 -0.0004675621931307244 0.0
0.00035900395282680345 6.769440301125851e-5 0.0
0.0012870285235379803 -0.000511179376306231 0.0
0.0012529583185852797 -0.00039106785873650084 0.0
0.0012211553968863307 -0.0003985950541880436 0.0
0.0006160088589227083 -0.00035168786397051947 0.0
0.00016736594155435818 -5.26017494684594e-5 0.0
0.00017883484380045846 -6.304268958225539e-5 0.0
0.0023736221860131555 -8.36682104395649e-5 0.0
0.0024212668723753404 -6.614973323222478e-5 0.0
0.0003631898548007254 -3.608863321005306e-5 0.0
0.0006383830180409331 -0.00035145375741685677 0.0
0.000634682636005763 -0.0003340545046992028 0.0
0.0006437296574615108 -0.0003708047953376973 0.0
0.0005941160915850835 -0.0003516249078268705 0.0
0.00048152166097479546 0.00010779146336447306 0.0
0.0009782003685234566 -0.00038700916412368096 0.0
0.0015045274012771208 -0.0002995675226547135 0.0
0.002384492517275428 -7.252948840149665e-5 0.0
0.0014285802507092336 -0.0005092183184200288 0.0
0.0009339130888027745 -0.00045322233777533996 0.0
0.0025794662341167454 -5.626718228602386e-5 0.0
0.002561665833990605 -7.774616005092111e-5 0.0
0.0008725408455760421 0.0001432124568713419 0.0
0.000724921103712845 -0.00039640234051143894 0.0
0.0016785394253719245 -0.00022623217889354907 0.0
0.0017267261723738095 -0.00021160407897710744 0.0
0.00027947174123864197 -0.0001115732027561753 0.0
0.00037392363200331727 -0.00023922535017159121 0.0
0.0003451833416351425 -0.00021749824253973422 0.0
0.0003355614028159927 -0.0001993669748077744 0.0
0.0005145435739528899 -0.0003103729589440544 0.0
0.00010117251611291846 -6.316208323733107e-5 0.0
9.431670870364095e-5 -5.46679021723033e-5 0.0
0.0015403092288812752 -0.0005106536339461108 0.0
0.0015697521555456892 -0.0004969254719014984 0.0
0.0015739412683267188 -0.0004697396581797448 0.0
0.002140000448412003 -0.00023668664897216028 0.0
0.0021164855466250954 -0.0002338278368606824 0.0
0.002111561154218668 -0.0003427488854888642 0.0
0.00048357784106071614 -0.00017901509392255556 0.0
0.00045137667956821677 -0.00017530343516852207 0.0
0.001763910515015052 -0.0002152603682602548 0.0
0.002530709767744025 -2.4235448062725886e-5 0.0
0.0025444014049292984 -2.585392104993005e-5 0.0
0.002560477310749967 -3.0884028776694865e-5 0.0
0.002512478653255835 -0.00011560802085602919 0.0
0.00016182599061259514 -0.00011035271299327761 0.0
0.0016513573341016803 -4.381361375097463e-5 0.0
0.0015990468026112785 -4.307444297324298e-5 0.0
0.0015892798358969052 -5.757430483359503e-5 0.0
0.0015400782023362995 -5.7164772745691156e-5 0.0
0.0015335448996387207 -7.070528132850553e-5 0.0
0.0015452603473688092 -4.410532190918757e-5 0.0
0.0013644603343074852 -0.0003090329831516579 0.0
0.0011001070059774819 -0.00023980974222602083 0.0
0.0011367482702776515 -0.00023442578381234147 0.0
0.0003542842758234522 -0.00023638941335048566 0.0
0.00032579139956938504 -0.00021401370747508788 0.0
0.0022834466896556713 4.252509401434344e-5 0.0
0.002366528774242043 3.505061473398298e-5 0.0
0.002400038628538194 2.4122698269288782e-5 0.0
0.0024493693503158643 2.6603467766238513e-5 0.0
0.0024277916317609785 3.5657750688186534e-5 0.0
0.001231234470520011 -0.0004834299044113336 0.0
0.0012306405649071877 -0.00046252250236216536 0.0
0.0012309425253473386 -0.0005052031104727699 0.0
0.001572178324266616 1.1272385320535978e-5 0.0
0.001561438576498601 -6.149503207322436e-6 0.0
0.00036493921408982594 -5.2860743512122975e-5 0.0
0.00018707558204344188 1.5614179870223113e-5 0.0
0.0016624496509417925 -0.0004955161015845711 0.0
0.00044097482356033756 7.362136865237434e-5 0.0
0.0016925147465912665 -0.00028967402066287106 0.0
0.001589200045345511 -7.118427904997987e-5 0.0
0.0015273971441203326 -8.403989014081728e-5 0.0
0.0015729121041670997 -8.653343536382281e-5 0.0
0.0015210596744053664 -9.721127082413847e-5 0.0
0.0015640372470800896 -0.00010017149008254016 0.0
0.0015149441373283282 -0.00011050899183087472 0.0
0.0015566442874072872 -0.00011381395001302917 0.0
0.0015090781112645254 -0.00012409260884677222 0.0
0.0015514528824163265 -0.000127587115180578 0.0
0.0014758541694116776 -9.431055871867075e-5 0.0
0.0014675103246165526 -0.00012044259446605914 0.0
0.0017157333215251191 -0.00048632775944663003 0.0
0.002591367173116038 -2.7870898703895444e-5 0.0
0.0008943113066029518 -0.0003613163196801308 0.0
0.0008636410295917851 -0.0003467694655510584 0.0
0.002424519452192344 -0.00014975435113572167 0.0
0.0010323371058618927 -0.0002513022337245647 0.0
0.0014874233363762976 -6.892064698184242e-5 0.0
0.0006109345792722675 0.00014503204670949368 0.0
0.000153973414890392 -3.664232727558651e-5 0.0
0.0009508497406809536 0.00015752918456874698 0.0
0.0009467244780428755 0.00013848319307607052 0.0
0.001991458856352911 5.189133749599669e-5 0.0
0.002449480189783352 -0.00014769771709033933 0.0
0.002407181712883067 -0.00018155438569506866 0.0
0.001027369189863733 -0.00027903699434253824 0.0
0.0009986502120107872 -0.0002661870664776675 0.0
0.0004434600606751897 -0.000251425746779348 0.0
0.00010986161535950045 -7.462053593257478e-5 0.0
0.00012748816088523383 -4.2788966597003946e-5 0.0
0.00013307090389074898 -4.931659042979026e-5 0.0
8.006616332353127e-5 -5.1756281548124174e-5 0.0
0.0017934508150675044 -0.00028149488349705077 0.0
0.0018364136871595249 -0.00026309003947133804 0.0
0.0018684083029877764 -0.0002651233039171631 0.0
0.0018796595231609444 -0.00024413391070376937 0.0
0.001462793853345916 -0.0001332809388896637 0.0
0.000716522058472814 0.00016827059385739575 0.0
0.0008844167903935226 0.0001731611702206344 0.0
0.0014397280947719263 -0.0002674115597776779 0.0
0.0014445819725457357 -0.0002507134277179866 0.0
0.0011027999484700122 -0.0002263577619285971 0.0
0.0009425575627866087 -0.00022490652140348693 0.0
0.0009620059616705948 -0.0004694634354833635 0.0
0.0019469316296550042 -0.00036169273242324477 0.0
0.0019684586314535437 -0.00036969487186657053 0.0
0.001934191411897676 -0.00039441095800528365 0.0
0.0019550611095282017 -0.00040426873737136796 0.0
0.001922321844339308 -0.0004287658197124038 0.0
0.0019013792148972258 -0.0004187421264525299 0.0
0.0018478699373276177 -0.00040589086428290415 0.0
0.0016755341485121236 -0.00043920314193765167 0.0
0.0018014158193960439 7.991711905303673e-5 0.0
0.0013490508795038752 -0.000406444579081532 0.0
0.0003741107308887441 1.384469924123097e-6 0.0
0.002541318135702194 -0.00010545136456543958 0.0
0.0025831047158761137 -7.232885170546686e-5 0.0
0.0019891022173602496 -0.00037882456235498955 0.0
0.0019763955316503077 -0.0004144913428894758 0.0
0.002009220987151809 -0.00038922900190689527 0.0
0.0009865549472084754 -0.00046486373266672106 0.0
0.0011909695724788504 -0.0003866785375975074 0.0
0.0011908148603906948 -0.00040535696275683606 0.0
0.0012201913761641819 -0.0004180817073707302 0.0
0.0008100289467914883 -0.0002983464902035723 0.0
0.001160697914190741 -0.0003929906409608047 0.0
0.0014962559536716548 -0.00043916763992068184 0.0
0.0021587557984335485 -0.00020917509711140957 0.0
0.0022051866630399338 -0.00025071924690447353 0.0
0.0021877180098250487 -0.00028544639059635167 0.0
0.0022282349263973308 -0.00021630682008492628 0.0
0.00030777293192774075 -6.450056535288092e-5 0.0
0.0008772283495081236 -0.00042075150369313085 0.0
0.0008526242167546385 -0.0004240958391460386 0.0
0.0008806455569891162 -0.00044077858935354325 0.0
0.0008572494773559711 -0.0004443734247300673 0.0
0.001911327112891157 -0.00024515662541228653 0.0
0.0005434294931794215 -0.00033095922388947464 0.0
0.0004873442242340239 -0.00029043592823080225 0.0
0.0025066199316119853 -3.6480108457239564e-5 0.0
0.0001438072755742203 -2.0305117109273315e-5 0.0
0.00014165229380849525 -1.215945514348315e-5 0.0
0.0016390302220190146 -0.0004821505145599129 0.0
0.0016354288096935598 -0.00051240121263235 0.0
0.0013280040645486666 -0.00031829167527100866 0.0
0.002482157103671779 1.69192821585717e-5 0.0
0.0004939936128546616 -0.0003094661774380578 0.0
0.002002775290019776 4.217619835883971e-5 0.0
0.002316237633735441 -0.0001573616004973808 0.0
0.0023582973903878124 5.5478944948627945e-5 0.0
0.0023846729968726153 5.419694776643103e-5 0.0
0.001847445435589297 -0.0002429664748660361 0.0
0.0019825031566719775 -0.0002512492998123751 0.0
0.0020085685722598286 -0.0002515144697762706 0.0
0.0017874488935633818 5.215633993142976e-5 0.0
0.0018399287628997822 4.154434576600955e-5 0.0
0.001897530923364424 6.181421424150765e-5 0.0
0.0015106324347059353 -0.0005235035374125295 0.0
0.000750442257796208 -0.0004132760885571408 0.0
0.0011299026449901918 -0.00029470353602794995 0.0
0.0016341657671514426 -0.0002415334141506602 0.0
0.0014285664439478147 -0.00032494497596563456 0.0
0.0014552440612765926 -0.000522326982079255 0.0
0.0006650531446924807 -0.0003699302712039131 0.0
0.0008368068260073394 -0.00034865111315803243 0.0
0.0003491061472535373 -0.00012596199089498768 0.0
0.0025180663808520545 1.829023155951498e-5 0.0
0.0019012468879648775 -0.0002947426819146267 0.0
0.00024078335376656986 -9.352435115906261e-5 0.0
0.0007334950907486583 0.00018192301284202157 0.0
0.0014423523769212935 -0.00041751096567754645 0.0
0.0018901582306609832 -0.0004530830252707965 0.0
0.0018681348826220072 -0.00044267236161624234 0.0
0.001672368329144014 -0.00033278124091374483 0.0
0.0017715674305245985 -0.00019697685237529057 0.0
0.0007689184055025372 -0.00025017157847248724 0.0
0.0011904205354621748 -0.000427885414332392 0.0
0.0016209468993885116 -0.00020981480807519926 0.0
0.0008331054100667918 -0.000331679487287983 0.0
0.0008058392096696401 -0.00033299623456738294 0.0
0.0006703392246858199 -0.00038961429587652834 0.0
0.00042279443840924244 -5.2897493733325774e-5 0.0
0.0004243412722298318 -3.473968601298168e-5 0.0
0.00019287975241500657 2.3037626597597657e-5 0.0
0.00026768034770171487 3.733704668657979e-5 0.0
0.002075717233831607 -0.00037018223304880295 0.0
0.00031651017874773915 -0.00013012222139691468 0.0
0.00045629680435548686 -0.00018932625707765023 0.0
0.00041967703153131047 -0.00017094754912368607 0.0
0.0022028911531105904 -0.00021517642245816128 0.0
0.0010958504456227535 -0.00038621568050272375 0.0
0.001400551523689652 -0.0002984772512811437 0.0
0.001726215818928967 8.1104561419105e-5 0.0
0.0017095921189218266 8.622557848425131e-5 0.0
0.0016640812712245844 8.225474297056978e-5 0.0
0.0016506477443388602 8.190351884866524e-5 0.0
0.0016928691640625804 7.895766273843378e-5 0.0
0.0019147994713973652 3.7209378633988145e-6 0.0
0.0019698266623024677 -2.2292727107038474e-6 0.0
0.00198559153398123 1.6280055876969054e-5 0.0
0.0020364040435699943 9.207521519309881e-6 0.0
0.0020213661908337404 -9.208229568739382e-6 0.0
0.00012061391893788654 -3.605747012531453e-5 0.0
0.001924125192380423 -0.00022515062934619899 0.0
0.00034646771497533695 7.146221726186051e-5 0.0
0.00037557091474266924 8.131574920696017e-5 0.0
0.001565180908494238 -0.0005228552766968535 0.0
9.150949325470349e-5 -9.889505635709334e-6 0.0
0.002122529177207731 -0.0001260285734624396 0.0
0.0021746739267498702 -0.00010697097932145715 0.0
0.0021383652784048393 -0.00010666553400916685 0.0
0.0022154702897453217 -0.00010388671617663478 0.0
0.0022278646198598266 -8.854015067298752e-5 0.0
0.002269482127024858 -8.575104794384998e-5 0.0
0.0005917802529067243 -0.0002173439899411816 0.0
0.0005906770821656623 -0.00020325258437435962 0.0
0.0005515564720071468 -0.00018596187433899363 0.0
0.0005890975608003506 -0.0001893873341536617 0.0
0.0006284087075227535 -0.00020599546553099748 0.0
0.0006274986353582301 -0.0001920397319823425 0.0
0.0006662844130630646 -0.00020789774956976202 0.0
0.0007302969616702517 -0.0004153487229768985 0.0
0.0006658584067361284 -0.00019352160901295158 0.0
0.0007044806989692382 -0.00020917058244692064 0.0
0.00018901558882799982 -1.8045968106922708e-6 0.0
0.0004224439778691982 -6.977482604253819e-5 0.0
0.0007033278781383224 -0.000223080566869891 0.0
0.0005530233789952477 -0.0001737782836692267 0.0
0.0021338618900112235 -0.00020848792291741297 0.0
0.0020926856515534127 -0.00023243435929186932 0.0
0.0012049889832719835 -0.0004920814219649943 0.0
0.0012044571260012157 -0.0005131807494866258 0.0
0.0016080878394567851 7.979791696393764e-5 0.0
0.0008808765387561549 0.00012254780059205357 0.0
0.0009502002487016673 0.00011501539344887035 0.0
0.0010114515547670704 0.0001292351839895286 0.0
0.0010151520121317653 0.00010252535091584872 0.0
0.0009570651134756669 8.79128211608995e-5 0.0
0.0010212991664237695 7.012796368074805e-5 0.0
0.0009657858528672941 5.8157279604771945e-5 0.0
0.001030209881313194 3.7456768598488106e-5 0.0
0.0009747419147456471 2.9451457653695576e-5 0.0
0.0010484423282384131 8.013539653328913e-6 0.0
0.0009820528620068803 4.126787959443505e-6 0.0
0.001042821441525304 -1.397632031828057e-5 0.0
0.0009856467530893276 -1.7520757850918327e-5 0.0
0.0010437630682096446 -3.318969520449355e-5 0.0
0.0009915203884859058 -3.738973695271851e-5 0.0
0.0010460206191585052 -5.064629377449539e-5 0.0
0.0009944871610534493 -5.461377249611623e-5 0.0
0.0010452517298040408 -6.594228919632303e-5 0.0
0.000996363503673598 -6.998683388476609e-5 0.0
0.0010448530609041902 -7.992935011360355e-5 0.0
0.0009972290714945558 -8.432189208838676e-5 0.0
0.0010436906706613454 -9.341130594292482e-5 0.0
0.0009963470515531236 -9.793668118596199e-5 0.0
0.001042225240427846 -0.00010610881848461912 0.0
0.0009953475116064473 -0.00011146405888528211 0.0
0.0009491522458517805 -0.00010198089630360486 0.0
0.0009487500271132555 -0.00011607925373197739 0.0
0.001043958768239578 -0.00011997875716224865 0.0
0.0009467326578962451 -5.831660554438674e-5 0.0
0.0010881518044439584 -0.00010022443194743964 0.0
0.0010963411387718161 -7.588121479281015e-5 0.0
0.0009131757541225556 4.743776450128318e-5 0.0
0.0010972253346780538 -4.6069822445846706e-5 0.0
0.0009015093287372528 -0.00010575087374163417 0.0
0.0009023643605010469 -0.00012008833884261483 0.0
0.0009485264690302886 -0.00013011478845729652 0.0
0.0009032193451286644 -0.0001342459740309267 0.0
0.0009333733673189447 -2.182316315690247e-5 0.0
0.0011045307509209763 -1.3638843508534078e-5 0.0
0.0009015247456034225 -9.096947794411338e-5 0.0
0.0010874200200330112 4.674394167700998e-5 0.0
0.0009486440048075602 -0.00014393565566880434 0.0
0.0009039009285264101 -0.0001482259278653457 0.0
0.000858443042156413 -0.00013784098162369216 0.0
0.0008519319021202937 -9.452027040878894e-5 0.0
0.0008495427481690831 -7.795482441107506e-5 0.0
0.0009937941606122302 -0.00013899136766370987 0.0
0.0009924948350373967 -0.00015254567114892834 0.0
0.0010362862661600113 -0.0001473233309099503 0.0
0.0010750970165189805 0.00011364846952903689 0.0
0.0010770317043132856 0.0001343064862052147 0.0
0.0008610396762951317 -0.0001521613262054268 0.0
0.0008144801049999797 -0.00014110630070283535 0.0
0.0008127266365703484 -0.00012695247055705377 0.0
0.0007661552460126659 -0.00012927333320089806 0.0
0.0014268319228649897 -0.0005332051570165876 0.0
0.0014005133267883253 -0.0005199430625960761 0.0
0.0024313917112631883 -0.00017992244413237763 0.0
0.0015285936098098226 -0.0004256698107140045 0.0
0.001556028505072419 -0.00043563907024298296 0.0
0.0008874585918271113 -0.00034337321767043507 0.0
0.0009184129082802233 -0.00035733064734464934 0.0
0.0021770648013835054 6.067582767549355e-5 0.0
0.001556497043103798 -0.00025039572095869557 0.0
0.000905845041267632 -0.00016182737503418968 0.0
0.0006885825327825528 -0.00035846026061004055 0.0
0.0006859216636901898 -0.0003406348133291541 0.0
0.000709473820133106 -0.00033989654830506483 0.0
0.0017330279905212892 -0.00019370706256354863 0.0
0.0016107473582521509 -9.063911138399618e-5 0.0
0.001061236428651574 -0.00028998858499053017 0.0
0.0010279901119424804 -0.00029483185651854696 0.0
0.0015072300563345226 -7.594900443633341e-6 0.0
0.0015002749132311639 -2.1368591029007486e-5 0.0
0.0015466264066282666 -2.101026787051505e-5 0.0
0.0014892376042757343 -3.5792111257068735e-5 0.0
0.0015178000274961283 7.850025564952103e-6 0.0
0.0015981610352433185 -0.0001175069671294912 0.0
0.0015937679740281028 -0.00013128198821883805 0.0
0.0015425533429638068 -0.00014153729919146534 0.0
0.0011396572680836125 -0.00022082953576478835 0.0
0.0011739699598674182 -0.00022861542494806504 0.0
0.0011774127906526777 -0.00021538442456613114 0.0
0.0012112407189147482 -0.00022235904827366568 0.0
0.001214754810952172 -0.00020929143268333346 0.0
0.0012485716437374967 -0.00021580214627368272 0.0
0.001252390937627431 -0.00020290667012489764 0.0
0.001287741696697234 -0.000208814863863931 0.0
0.0012829407316573983 -0.00022247006320178295 0.0
0.001323217771896899 -0.00021314404721866828 0.0
0.0014859722626403141 -0.0002413452121706007 0.0
0.0014493034056032549 -0.00023508276180020856 0.0
0.0014095865714704391 -0.0002443919833330047 0.0
0.0014136729525768736 -0.000229259809278395 0.0
0.00027377646647063153 -0.00010116489541611872 0.0
0.000335767248511115 -0.00023343277634117556 0.0
0.0003076316091721328 -0.00021042161168877737 0.0
0.0002979590331030026 -0.00019121430193901008 0.0
0.0002788710006725942 -0.00018663559560157537 0.0
0.0013311357394555359 -0.000300775074755639 0.0
0.0018097930607292377 -0.0001991838974447157 0.0
0.0017982121262050173 -0.00021879162759949042 0.0
0.0007114906017924714 0.00015161166762175056 0.0
0.0014236948381578854 -0.00012958731372225652 0.0
0.0014267183602975216 -0.00011835148031769032 0.0
0.0015194214244655794 6.764316039077307e-5 0.0
0.0025489502573256117 -5.053646730078176e-5 0.0
0.002586228464389684 -3.5603457964636406e-5 0.0
0.0026114624651949092 -2.9716199799413178e-5 0.0
9.211998548122504e-5 -3.28006119108558e-5 0.0
9.544410693990823e-5 -3.717948220737348e-5 0.0
0.0001348088546608466 -5.434558220294978e-5 0.0
0.00010134049436535581 -4.26542592209699e-5 0.0
0.00013824221340947679 -6.025052814755877e-5 0.0
0.00010553869257544775 -4.788416131020681e-5 0.0
6.548409009933641e-5 -2.878911529937985e-5 0.0
0.0012949689671996538 -0.00030943798192533225 0.0
0.0006286849252765083 -0.0001786815352941018 0.0
0.0003838136467672581 -0.00025887308041418314 0.0
0.0010336611189692003 -0.00015983763853972687 0.0
0.00239719605770051 -0.00021051122693321325 0.0
0.0023709901021421054 -0.00021752152983271558 0.0
0.002024655265702348 -0.00022905887471395223 0.0
0.0020600604280802634 -0.00022449126462863192 0.0
0.002072884676911445 -0.00020246635900963015 0.0
0.0001227839491693646 1.1743643996928465e-5 0.0
0.0009381281073448725 -0.0004739737522546785 0.0
0.0006499977511947101 -0.00039106960484240264 0.0
8.89874100993319e-5 -6.307674089851461e-5 0.0
0.000121014022050241 -9.125946882083047e-5 0.0
0.0005141888827706465 -0.0001700468338412919 0.0
0.001644804571638079 6.852476934842248e-5 0.0
0.001694248360888432 5.979399715268334e-5 0.0
0.0019522200640355123 -0.0002519045468583028 0.0
0.0020326660165852243 -0.0002528973516731704 0.0
0.0008848243008100175 -0.0004606477938915296 0.0
0.0009881814617338721 -0.00048475165619024755 0.0
0.0010129733684471746 -0.0004805950800243744 0.0
0.0022256584423739284 -0.0002573746559242327 0.0
0.0022083002250421545 -0.00029355251300930673 0.0
0.0021696427632291885 -0.0003279888838688871 0.0
0.0024329059042990054 -5.668586821938485e-5 0.0
0.002395974040430124 -6.236419039942688e-5 0.0
0.0023469524361060846 -7.820212991482198e-5 0.0
0.002354874530703801 -6.770499565447467e-5 0.0
0.0004408518510247463 -0.00016200468691446014 0.0
0.0022797524822444864 -7.211895434204277e-5 0.0
0.0022309094553033585 -7.424841962153028e-5 0.0
0.0015631194147017141 -0.00041284527837358504 0.0
0.00028682885562647466 -0.00020400803364415727 0.0
0.00026158133638602243 -0.0001838265869799213 0.0
0.00025150429657590153 -0.00016578106862925936 0.0
0.0002344893855132488 -0.00016172460845886914 0.0
0.0026195303043154146 -2.3875481838299435e-5 0.0
0.002558160378062291 -2.633844942657886e-5 0.0
0.0025933584169425586 -1.7786224652146775e-5 0.0
0.002095609717920421 -0.0003791564216431419 0.0
0.001065542631764779 -0.00023071718770651404 0.0
0.0022445197406228924 -0.0002654697792059913 0.0
0.0022292311410190757 -0.0003005797327706323 0.0
0.00226305592548548 -0.00027326600120132277 0.0
0.0022506223509428137 -0.00031042061140739016 0.0
0.0022857759251656657 -0.00027702641691629753 0.0
0.002298559099000817 -0.00024444182403305005 0.0
0.002317859127161999 -0.00025040071953784127 0.0
0.0012329612280065256 -0.000526448834729672 0.0
0.0012081142524902055 -0.0005362584005356559 0.0
0.0011748677465497103 -0.0005204279689325617 0.0
0.0008642360097830978 -0.00016659422610751118 0.0
7.602262579278808e-5 -3.59884527247519e-5 0.0
0.00010924829243548609 -5.3328632027273564e-5 0.0
8.004774908389466e-5 -4.0474187818615646e-5 0.0
0.0008652426782410229 -0.00046801357772673806 0.0
0.0008363832961697724 -0.00044867363234024594 0.0
0.0025046176467802776 -0.00013893429527768258 0.0
0.0002051549284266652 3.039503978673296e-5 0.0
0.0013752704494041047 -0.0002397605734650624 0.0
0.0013807720788276332 -0.00022415911230417215 0.0
0.00242915657311795 1.4099447788736683e-5 0.0
0.0025088846105087593 8.740377805015076e-6 0.0
0.0022439910962939844 -0.00018977237198588727 0.0
0.00046890494824790996 -0.0002891398179063314 0.0
0.0004786767760669276 -0.00031041124485740743 0.0
0.0019031006254692875 -0.0002654973281757126 0.0
0.001973045066511382 1.7715607472414418e-6 0.0
0.0025635423250086184 -9.860002396983512e-5 0.0
0.002604400088199228 -6.50480749973692e-5 0.0
0.0026214324136466325 -4.4825150174107015e-5 0.0
0.001891634416671145 3.231506130481377e-5 0.0
0.0021771063761816503 -0.00018542400506685688 0.0
0.0011781586025679533 -0.00046302478986158703 0.0
0.002255850450816351 -0.0001002564307012132 0.0
0.0021024664395607904 -0.0002125523516027172 0.0
0.0008043043861565847 -0.00031538796737571906 0.0
0.0004789480533616657 -0.00027157323935129486 0.0
0.002474269137818902 -4.882140157781421e-5 0.0
0.002041709077974778 6.596981452447608e-5 0.0
0.0008376796312560426 -0.0004675896745132634 0.0
0.00039288309802143126 -0.00014554403833040572 0.0
0.0014133335332792462 -0.00014352779751604827 0.0
0.002054037284703208 -0.00036540538448502933 0.0
0.0020441686609940115 -0.0003990096413719037 0.0
6.07457413459019e-5 -4.0994329211624244e-5 0.0
0.0015926444656955974 -0.0005116218449522884 0.0
0.0015836975972173609 -0.0005334594209654092 0.0
0.0010131315726794854 -0.0005037082280674414 0.0
0.0010392277477989085 -0.0004968940330875217 0.0
0.00103750938856399 -0.00047574899588843716 0.0
0.0010642206415106387 -0.000491074756074442 0.0
0.0010402034567826512 -0.0005145954146890352 0.0
0.0009017194142078082 -7.567337413760933e-5 0.0
0.0008487185432224855 -6.201141298377986e-5 0.0
0.0003636482599355485 -6.760912631409911e-5 0.0
0.0008162484839099642 0.00019061428188296586 0.0
0.0008051815070566775 0.00017837959850344978 0.0
0.001620207970839141 6.953167889137996e-5 0.0
0.0019944524526791644 -0.0004256286891981516 0.0
0.0019647762426423547 -0.00045014475751862344 0.0
0.00024198729716415698 -0.0001797155717507972 0.0
0.0002155016749951812 -0.000155982903580657 0.0
0.002606613797537772 -1.753236907116035e-5 0.0
0.00043102092714496107 -0.00018615960236496341 0.0
0.0003901909671174558 -0.00016884709970957015 0.0
0.002433081749104628 4.821368562985195e-5 0.0
0.0024694733312838617 -0.00014758468077734577 0.0
0.002450905134477817 -0.00018208847767190665 0.0
0.0014563141079886942 -0.00014665068344533831 0.0
0.0016554182543924902 -0.0005224607215331688 0.0
0.0016228391168200912 -0.0005422902424722638 0.0
0.0007384765762631621 -0.0002229435386038521 0.0
0.000742225204581763 -0.0002090692644365435 0.0
0.0010639495660150185 -0.0004703569060688465 0.0
0.002254146446988508 -0.00021977108703084635 0.0
0.0012914463741393962 -0.00019566500913382494 0.0
0.0012591650725337932 -0.00018985747846546726 0.0
7.362900599165533e-5 -5.524002308598553e-5 0.0
0.0008174500435885165 0.00029489443835614655 0.0
0.00117962968801082 -0.0002018876668991871 0.0
0.0008008552102882169 -8.209680126350106e-5 0.0
0.0008057969429797137 -9.80964465549761e-5 0.0
0.0004818250829723028 -6.986926171633113e-5 0.0
0.001644319977901277 -0.0001197590040545136 0.0
0.0010752732261493812 -0.0001547023341750927 0.0
0.0010790837433762531 -0.00014252474416688344 0.0
0.0011169339934509908 -0.00014966315641473706 0.0
0.0011198619231933423 -0.00013816591856608766 0.0
0.0011562721931549075 -0.0001437566825680035 0.0
0.0011597101484455046 -0.0001329116673134704 0.0
0.001122579074662457 -0.0001271278357573179 0.0
0.0011628183886390202 -0.0001219856588915161 0.0
0.0011258352016466975 -0.00011648504151961703 0.0
0.0011666716240168614 -0.00011147675916961858 0.0
0.0011936836479777945 -0.0001382149100129663 0.0
9.748163528179624e-5 -5.175822302929986e-6 0.0
0.0015852661403231976 -0.0001473173418693636 0.0
0.001074584907903292 -0.00021772133359288534 0.0
0.001078531521683616 8.161973102630586e-5 0.0
0.0011537857149866006 5.029570807442941e-5 0.0
0.001152917523269147 2.1488750655413203e-5 0.0
0.001138660022723792 9.011455415794384e-5 0.0
0.0010988674289621374 1.7865043000682153e-5 0.0
0.0011614652678818213 3.052878917100284e-7 0.0
0.0012216231887368847 -5.938248622920967e-8 0.0
0.0012019400073506133 6.670386614692648e-5 0.0
0.00017193938095765734 -7.215442609039532e-5 0.0
0.00017745599029526444 -8.016610107392384e-5 0.0
0.00260796880717836 1.2546805488318918e-5 0.0
0.0025186077266602007 2.7142088921291515e-5 0.0
0.002513032655254411 3.1973781368495575e-5 0.0
0.0019141642160699253 -0.00046685441881074775 0.0
0.0018793552172016066 -0.0004884868075124176 0.0
0.0006810774830406771 -0.0003231483829621988 0.0
0.0007055408569875883 -0.0003220794507563701 0.0
0.0006562345154751849 -0.00032312040037823174 0.0
0.0007529850750164872 -8.828278404941419e-5 0.0
0.0012090630205072856 2.2275537535299437e-5 0.0
0.0012050923907590163 -0.00011635055306963068 0.0
0.0012062609678594554 -0.00010579505476234846 0.0
0.00116996114047148 -0.0001011164952230703 0.0
0.001208342922126742 -9.628781905622186e-5 0.0
0.0011750700846833116 -9.126861777648102e-5 0.0
0.0007046416462458605 -0.0003991648150116385 0.0
0.002600295085807098 1.8946518074461624e-5 0.0
0.001144366176967112 0.00011840356748165394 0.0
0.0015624764999020108 6.569893297184963e-5 0.0
0.001566223009010463 4.6606396552029224e-5 0.0
0.0015081279023597927 3.7045935426765265e-5 0.0
0.0008022467361533018 0.00012615944638590088 0.0
0.0010312983523853585 0.00016163724976875224 0.0
0.0009707870773639487 0.00017167451495622566 0.0
0.0009403025000176679 0.00018085153397332987 0.0
0.0017659004482567298 -4.82377442243268e-6 0.0
0.00213203733031726 -0.00035253515003660506 0.0
0.0021151657401327936 -0.00039308076109124946 0.0
0.000674352515429066 -0.00040886768037747597 0.0
0.0010903908532245773 -0.0004856251897580525 0.0
0.001091448011130152 -0.0005060135828853214 0.0
0.0011162004989539287 -0.000500491100196409 0.0
0.0011207109676019138 -0.0005236369803213632 0.0
0.0018745169142329475 7.615947107356664e-5 0.0
0.0018244471160383075 6.802092074108356e-5 0.0
0.0018942310032274148 6.518507011890254e-5 0.0
0.0019482291399165706 7.163848001488813e-5 0.0
0.0014210231765129453 -0.0002149495231889937 0.0
0.0013919204171689709 -0.0002089018052498856 0.0
0.0011434099880235445 -0.0005144169711749303 0.0
0.000775474704336852 -0.00014535890860211092 0.0
4.941356625885853e-5 -3.0467596873065297e-5 0.0
0.0010989105347928012 -2.8965914502921294e-5 0.0
0.0011489235951814435 -4.1795151729172706e-5 0.0
0.0011476510287402174 -5.5508096228983025e-5 0.0
0.00119745062486087 -5.1092658855312536e-5 0.0
0.001193229135605639 -6.207251130962754e-5 0.0
0.00119885149305586 -3.958440173982863e-5 0.0
0.0011515039202002564 -6.680946150236863e-5 0.0
0.001190539649288677 -7.222298486455645e-5 0.0
0.0012433919293520035 -4.675133218914653e-5 0.0
0.0017572247668752958 6.967990193410899e-5 0.0
0.0011524389613307487 -7.76405123659534e-5 0.0
0.0026400372582450603 2.3515220783289432e-7 0.0
0.0009904955556725346 -0.00016567642898820297 0.0
0.0012196211310170674 -0.0004382718270928855 0.0
0.001251538361636656 -0.0004310004322863722 0.0
0.0011538942046777905 -2.7853321543132244e-5 0.0
0.0012075242144078083 -2.7503969693754226e-5 0.0
0.0014950476831950355 -0.00022615959112425618 0.0
0.0018768693296335967 -0.0004101183842424145 0.0
0.0018439611767177202 -0.00043595448212618295 0.0
0.0018363094187514367 -0.0004669938858011368 0.0
0.0018140466344361763 -0.0004603767711572415 0.0
0.0018086263491467888 -0.0004885713140345662 0.0
0.0017847069150874432 -0.0004836964212068077 0.0
0.002199633503903771 -1.093942856511055e-5 0.0
0.0021536306216376248 -2.7567073929975987e-5 0.0
0.002175408025579236 -4.088979308311503e-5 0.0
0.00210756839886543 -4.6190463428944765e-5 0.0
0.0021267322245060163 -5.978052295029917e-5 0.0
0.0020592055690373053 -6.659633391991708e-5 0.0
0.0020792270867499396 -8.013593925889457e-5 0.0
0.0020388217669972414 -5.244130264607394e-5 0.0
0.001991915096914644 -7.342750773644597e-5 0.0
0.002143111772412893 -7.276806851139257e-5 0.0
0.0019706124843754747 -5.957115795362971e-5 0.0
0.002094990049660673 -9.317608456946194e-5 0.0
0.002034695423951066 -0.00010082592285367499 0.0
0.0020475994152467417 -0.00011406257863097891 0.0
0.0020178870864203933 -3.909900582696288e-5 0.0
0.0021285480797697334 -1.3479498540220663e-5 0.0
0.002157653318998168 -8.598465787953088e-5 0.0
0.0022471990319135973 -3.836034762548746e-5 0.0
0.002201230679267901 -6.645515242543934e-5 0.0
0.0014498555199549228 -2.235229856248073e-5 0.0
0.0010028905767977773 0.00016371042021474884 0.0
0.00014751295823720799 -6.971704198911626e-5 0.0
0.0001404315852657679 -0.00010002001285190732 0.0
0.00016881042521796168 -0.00012439078943140669 0.0
0.0011415988145411975 -0.0004942498166378048 0.0
0.0015356220668764223 -0.00023350804426524604 0.0
0.001492181034996169 -5.692858641859434e-5 0.0
0.0014414765031400046 -6.737294983743686e-5 0.0
0.0014518364757799805 -5.646275172682004e-5 0.0
0.0014408913168064295 -7.834708726011667e-5 0.0
0.0014823512104310062 -8.113310496421603e-5 0.0
0.0014354267916211027 -8.996828991341882e-5 0.0
0.0014291275371914765 -0.00010108629470271094 0.0
0.0013948440932288451 -9.733918718104437e-5 0.0
0.00018210369641345395 -0.00011894097388396037 0.0
0.0016718550929399896 -7.739398270546515e-6 0.0
0.002030061270501158 3.916998436686274e-5 0.0
0.0019479182872683104 4.15421257162348e-5 0.0
0.00010778175014964077 1.6016159942514708e-5 0.0
0.00022883704679089016 4.1298046488393806e-5 0.0
0.00020810371367196968 3.545868912344834e-5 0.0
0.0017005175188393238 -4.842106679326852e-5 0.0
0.0002322859693314453 -0.00014145548712363388 0.0
0.00026819108693842535 -0.00016772705755166306 0.0
0.0002896475090767896 -0.00017461563007966223 0.0
0.00028581362642990827 -0.0001605470527168075 0.0
0.00030793123702398405 -0.00016372352390388968 0.0
0.0010910231183508183 -8.858890859712309e-5 0.0
0.00012001831743814538 6.6230176447735e-6 0.0
0.0005185175154963052 -0.00014665657633094404 0.0
0.0004272499826077166 -0.0001364308543186101 0.0
0.00120905969789187 -1.4195049512755843e-5 0.0
0.00034954745271099263 0.00010555694847631903 0.0
0.001809558446362322 -0.0004250247867450976 0.0
0.0016066853011874617 -2.6475961967697343e-5 0.0
0.002525876975816378 -0.0001334270231758313 0.0
0.002015233850111241 -8.702403515870299e-5 0.0
0.001948694892749541 -9.413306801080868e-5 0.0
0.001857917281763222 -0.0004773412744630905 0.0
0.0026452680698761913 -2.1480913173509113e-6 0.0
0.0025915837654347552 -6.820507591337565e-6 0.0
0.002602010037668994 -9.685521947617178e-6 0.0
0.002582852408887735 -2.7969025134142567e-6 0.0
0.002541047970169988 -1.4135477157014098e-5 0.0
0.00257607484662301 1.6962781555339118e-6 0.0
0.0025137545529207114 -1.8497534153064743e-6 0.0
0.002526203338476598 -8.520351258394905e-6 0.0
3.226852325484869e-5 -1.354504486097611e-5 0.0
0.0026649144419390804 -7.732533062832324e-6 0.0
0.002626603159909134 -1.5334677735089593e-5 0.0
0.0026497955898303225 -8.219599081476e-6 0.0
0.0026300475067115984 -1.652067232014743e-5 0.0
0.001581171275645242 3.058917484652846e-5 0.0
0.001945533351949086 -0.00043785875895103684 0.0
2.5922228156208793e-5 -1.3420004326971087e-5 0.0
0.0026732171621244006 -9.010671127099883e-6 0.0
0.0008890693656863426 9.905870065406131e-5 0.0
0.0021414169361044224 1.8512424811173738e-5 0.0
0.0007346205545468924 -1.5987927144683677e-5 0.0
0.0007970205903441671 -9.670306103387955e-6 0.0
0.0007967034602692572 1.6185169999062565e-5 0.0
0.0007955490536655647 -3.153679038480218e-5 0.0
0.0008490077055286809 -2.803528452763619e-5 0.0
0.0008646935422754862 -7.155222785637038e-6 0.0
0.000861057243401277 1.9924968643181877e-5 0.0
0.0008005120121761316 4.158685520183698e-5 0.0
0.0007479947418391543 6.614279785960585e-5 0.0
0.0007411656166217738 -4.231004340841228e-5 0.0
0.0021982422854162826 -0.00032766461814592065 0.0
0.0026386315230563233 5.3070948912856955e-6 0.0
0.0010652898398737934 -0.0004499072457333516 0.0
0.00036769598770249306 -0.0002601282549508371 0.0
0.0011707792725699727 -0.00044332809165992205 0.0
0.0009089922891096868 -0.000457260007350342 0.0
0.0009114320885439575 -0.0004775402169239885 0.0
0.001246521055541705 -0.00010015838842902926 0.0
0.001699757327890157 -8.299949940841582e-5 0.0
0.002304277310138729 6.300854738295276e-5 0.0
0.0023389975154387214 5.5029683008489885e-5 0.0
0.00226397639991968 5.82296864634347e-5 0.0
0.0001716775884550654 -6.659357920519172e-5 0.0
0.00034472694624480073 -0.00025265006136655804 0.0
0.0009391098029879227 0.00022063734822637252 0.0
0.000850854676435412 0.00021578911096481763 0.0
0.0019675259476552133 -2.629830064876953e-5 0.0
0.0010179317289553086 0.00014888309673168117 0.0
0.0023976226238800902 -0.00015163999609253613 0.0
0.0011598249456391066 -0.0003745435519366731 0.0
0.0018674917653482219 -3.2126503693707285e-5 0.0
0.0019069316901389828 -3.3435258057161348e-6 0.0
0.0008207257236798261 8.165543676866387e-5 0.0
0.000655086239502282 -0.0004117509607609791 0.0
0.0023763880202912107 -0.00018782645559851344 0.0
0.00040314543772092905 -0.000261372500577091 0.0
0.00042686749789876144 -0.0002800300908995938 0.0
0.0004151692245095913 -0.0002849335691410934 0.0
0.0006172710693392753 -0.00015043667890063945 0.0
0.0014651475829921153 -0.00010746712391952207 0.0
0.0016508044466458126 -6.51582692170055e-5 0.0
0.0009952557190790595 -0.00012506718836908186 0.0
0.0010386093630313717 -0.00013436665769776444 0.0
0.0025798948617160324 2.296983962016121e-5 0.0
0.0024475038643401526 3.916030433622802e-5 0.0
0.000128372928445478 2.2873406333106877e-5 0.0
3.230012083334589e-5 -1.4540813117766767e-5 0.0
0.001198712420526409 -0.0001272071445724665 0.0
3.997061059938065e-5 -1.0153827639207428e-5 0.0
9.574135021665361e-5 -2.18647759932143e-5 0.0
0.0011570045284276496 -0.00042672502657787237 0.0
0.0017170245293517776 7.325768036981768e-6 0.0
0.001065102819555753 0.00015210736479655197 0.0
0.0016135715235246599 -0.00022484634210562536 0.0
0.0012177204528167635 -8.649305563252333e-5 0.0
0.0021207650354438984 -0.00017665813113885087 0.0
0.0024921866466084282 -0.00011531114143485408 0.0
0.0007749891878449573 -0.00031694049545957407 0.0
0.0007785751115391054 -0.0003346644930426777 0.0
0.0007474377486097881 -0.0003163827243626627 0.0
0.0007153176290408454 -0.000298351697316097 0.0
2.671555580865355e-5 -1.4726730517115777e-5 0.0
4.96007661371037e-5 -2.8387264664151165e-5 0.0
5.526078576934041e-5 -2.953655014353391e-5 0.0
0.0006677463131555577 -0.000221946648910035 0.0
0.0006326034382135072 -0.00022206312791016861 0.0
0.00266754596577657 -8.129834832605746e-6 0.0
0.0013996316630096222 -0.0005441021247781539 0.0
0.0013732162870766734 -0.0005303181974025948 0.0
0.0013723799581041624 -0.0005540865064592098 0.0
0.0013459857795778552 -0.0005401735574433458 0.0
0.001318118745495143 -0.0005489005863463623 0.0
0.0013161975092423814 -0.0005254693739573438 0.0
0.0013733197779372242 -0.0005066432285828525 0.0
0.0018460668749319716 4.36013970970321e-6 0.0
0.0003056566085922552 -5.0853160627044884e-5 0.0
0.00035833909347870037 -8.080096557685869e-5 0.0
0.00031223103349322436 -7.817310009938185e-5 0.0
0.0016586794957127184 -0.00021371982156298904 0.0
0.0006210668992814353 0.00015965513628221083 0.0
0.001314952991881191 -0.00022822555819211835 0.0
4.213908454079967e-5 -1.4634826948332979e-5 0.0
0.000813040596926166 -0.0004492992816959419 0.0
0.0007878017346993302 -0.00044704970604058004 0.0
0.0007918230063348707 -0.0004310962666130081 0.0
0.0009056892119537019 -0.0004369556222242003 0.0
0.0007749400787050478 -0.00029754951065782856 0.0
0.0003508367842292429 -0.00013713789126605465 0.0
0.0002107572638094704 -9.922265016476238e-5 0.0
0.002652864537523963 -5.18541588081968e-6 0.0
0.0026129645312894115 -1.1068903275478304e-5 0.0
0.0005219350731233926 -0.0003303418463617077 0.0
0.0006224418294426183 -0.00037102153988358307 0.0
0.0006005572910356826 -0.0003718831279094262 0.0
0.0005720860462503944 -0.0003513720595619493 0.0
0.0005773850535007861 -0.00037107063106347696 0.0
0.0016150392892968655 3.478006165388984e-5 0.0
0.0011405794035609627 0.00013165959919302425 0.0
0.0016855036257282861 -0.0005050854217669364 0.0
0.0017074002118431055 -0.000515462726792195 0.0
0.0017355719828154835 -0.0004975176176712911 0.0
0.0016749623762967126 -0.0005364368913940098 0.0
0.0008359835625521287 -0.0003171663866572168 0.0
0.0014761101805598564 -0.0004061059681957214 0.0
0.0010504614807411567 0.0001532425084690024 0.0
0.0010954455179554338 -6.250938156945341e-5 0.0
0.0026745362628363724 -1.0052594782862866e-5 0.0
0.002650186103694755 -2.177662793359368e-5 0.0
0.0026398763680450664 -2.2016335409551205e-5 0.0
0.000549999058775112 -0.000350936351907197 0.0
0.0005288087984536223 -0.00034958410650196806 0.0
0.0007888149039513271 -6.213659003709732e-5 0.0
0.0006876540215913537 -0.0003003685682314808 0.0
0.00248148072473798 -7.527307862737534e-5 0.0
0.002048529545383631 2.0682176741015042e-5 0.0
0.0011871938594668575 -0.00014926437290280892 0.0
0.0012240937269423463 -0.00014273364075144184 0.0
0.0016015826428482287 7.493245188808769e-5 0.0
0.0019235925247927603 -0.00035515598164640653 0.0
0.0011280379546094112 -0.0003805431813441133 0.0
0.0011295271033818942 -0.0003995632946879092 0.0
0.0002901080056071878 4.967074442708523e-5 0.0
0.0006324881877490114 -0.00029978324389021187 0.0
0.0006045789573467028 -0.0002966725881981751 0.0
0.0005729934435409679 -0.00027759927051148415 0.0
0.0005776827552332243 -0.00029524738981899685 0.0
0.0004835531073183611 -5.172586785390526e-5 0.0
0.00048554021055344015 -3.192442180391789e-5 0.0
0.0005433602403026538 -8.881833889846185e-5 0.0
0.001699158195589329 -0.0005445047588030352 0.0
0.0016474499580196604 -0.0004045787621248266 0.0
0.001609278225263821 -0.0004220215520972051 0.0
0.0016428241241651148 -0.0004346909943838796 0.0
0.0016053119886668985 -0.0004520795816118857 0.0
0.001628733077596973 -0.0004619317037534796 0.0
0.0016787025063632142 -0.0004123084874986276 0.0
0.0017075384723045036 -0.00041771084730911616 0.0
2.2851945289004853e-5 -1.4346058711318631e-5 0.0
0.0026785445441854603 -1.2088069531688072e-5 0.0
0.0021507855390996058 -0.00031437971702309817 0.0
0.0015355992956757397 -0.000535111484515267 0.0
0.0024719456905881666 4.0243057422469903e-5 0.0
0.0014844692669907166 -0.0005106430379460043 0.0
0.0014803896975694795 -0.0005346115889117995 0.0
0.00198063586641699 -0.00022622803873518618 0.0
0.0017773935243737794 -0.0001791585808705898 0.0
0.0017403208415031318 -0.0001758480838453863 0.0
0.0008240125827238314 -0.00040769019193456215 0.0
0.0004902773959077575 -0.0002537244336134998 0.0
0.001985298397007722 -0.00012346627518601533 0.0
0.0020614114388366692 -0.00033177389516424405 0.0
0.0009037748144745264 -0.00025764883633837943 0.0
0.0009371488918251128 -0.0002545627678899412 0.0
0.0009354154084089669 -0.00027008585206594535 0.0
0.0009399326958483879 -0.00023962610856746375 0.0
0.0009024335514698711 -0.000273294624891651 0.0
0.0009697386054243224 -0.00025280224536253964 0.0
0.0009746679603813525 -0.00023882612339529765 0.0
0.00098435743304215 -0.00022345543719806026 0.0
0.001973869571134594 7.608642694588978e-5 0.0
0.00023540386733937604 4.497691347474882e-5 0.0
0.001925146539477948 -8.084758355069406e-5 0.0
0.0020795070416911037 -0.00018442533982017368 0.0
0.0004564893522901401 0.00011447726289637277 0.0
0.00036743110751258747 -1.7653103226055567e-5 0.0
0.0005444190333959387 -5.011879630923958e-5 0.0
0.0004321686053041767 -0.00023046381904899497 0.0
0.000904516966569526 -0.00022768602100505328 0.0
0.0007050542709871654 -0.00019433412146687437 0.0
0.0007534322451609081 -0.00019541207963178517 0.0
0.0007835121005104877 -0.00021112898659494925 0.0
0.0012587911015347216 -0.000519298654382062 0.0
0.0012886413011498298 -0.0005338364940549658 0.0
0.0012889369365217 -0.0005592951166460145 0.0
0.0013159657665772991 -0.0005025567182581161 0.0
0.002022930049238181 -0.00035418667965024585 0.0
0.0009479437338832145 -0.00015728329258304943 0.0
0.001928311594068197 -0.00020317906240549532 0.0
0.0009024442394720205 -0.0004170663620593468 0.0
0.0013735085458903358 -0.0004835088932435672 0.0
0.0009607408160932593 -0.0004909590667809475 0.0
0.0024624030691489957 3.941571756242379e-6 0.0
0.0012792299498006823 -0.00023663497855904805 0.0
0.0003124304181555958 -0.00011873197487592426 0.0
0.0009707877047018783 -0.0003499019490862788 0.0
0.0010022469468987211 -0.0003640371135474293 0.0
0.0009061776533714919 -0.0003218736684462789 0.0
0.0009843262097454376 -0.00044450813957101244 0.0
0.0015389073871850253 -0.0003066241368799469 0.0
0.0014987425540749124 -0.00031947374278451437 0.0
0.0015325942391761038 -0.0003269449530248522 0.0
0.0019035636621339005 -6.742598274833686e-5 0.0
0.0011595656121915789 -0.0003562476779552309 0.0
0.0008400064080908229 -0.0002937848286919171 0.0
0.0015023991582806752 -0.0001373940491057007 0.0
0.0014929343242117822 -0.000151379736772669 0.0
0.0003422184690173171 -0.000183847522318244 0.0
0.0006997230118497725 -0.0003801869736740294 0.0
0.0017452927545378732 -0.00046672288360053934 0.0
0.0014959950708572484 -4.601431981195486e-5 0.0
0.00135123316973473 -0.00038562583925133017 0.0
0.001317618769559411 -0.0003948062611731201 0.0
0.0013161332767859537 -0.0004157187687974586 0.0
0.0012844904736740064 -0.0004032152231122957 0.0
0.0012839947695997337 -0.0004241032873292778 0.0
0.0013471155227451402 -0.0004275473489266715 0.0
0.0016173728329088263 -7.198154773416378e-6 0.0
0.0010622745632515541 -0.0003057845784788909 0.0
0.0010308029377305737 -0.00031046399229072677 0.0
0.0014699605437571565 -0.0002928763472371854 0.0
0.0008740693886178331 -0.00032374980637883227 0.0
0.0014528824082523232 -0.0005456337119508332 0.0
0.001095457015736972 -0.0003677801458811915 0.0
0.00128615819787194 -0.00038324214687300746 0.0
0.0018289199133850595 -0.0004983610820110403 0.0
0.0011714152103383104 -0.0002428583244211509 0.0
0.00252663008373876 -3.652662808529785e-5 0.0
0.001292493910156576 -0.00032705273493422154 0.0
0.0005906371829789533 -0.00023148803180960138 0.0
0.0012118707614963218 0.00010753563862614896 0.0
0.0018258278859343594 -0.00039437615478060255 0.0
0.0024142245214837147 4.8253129843207604e-5 0.0
0.0003823865906752146 2.0468450062184567e-5 0.0
0.00039858415519022916 3.8434668348745235e-5 0.0
0.00044269609983966666 9.773996862157797e-6 0.0
0.00046982308243628866 3.1804285858732304e-5 0.0
0.0005157519088875087 1.548721765167764e-5 0.0
0.0018830709615673933 -0.00010157599590988123 0.0
0.0010670472401537413 -0.0005141216902359937 0.0
0.001208007835127548 -0.00023654183870713282 0.0
7.910983912620475e-5 -2.2127358742493956e-5 0.0
0.0009721103793241397 0.00018373322600812926 0.0
0.0009016533247147631 0.0001899762716193348 0.0
0.0017821718767669942 5.7862579913647724e-5 0.0
0.0010370222710642106 -0.0004350282139897953 0.0
0.0011803572751987504 -0.0005004695959657362 0.0
0.001034316745515886 -0.0001734395687473522 0.0
0.0014356637482416253 -0.00028585725539334166 0.0
0.0013984605750841667 -0.000277803701090743 0.0
0.0014061981772997222 -0.00025971765513774464 0.0
0.0015196792226616516 2.2541443031501445e-5 0.0
0.0009749512633973437 -0.0003682493548118508 0.0
0.0006664854374641808 -0.00017946581393942234 0.0
0.0009960210121015996 -0.00028122384471990984 0.0
0.00014277820372382636 -7.225836547936509e-5 0.0
0.0013824925786338163 -0.00013692541744258493 0.0
0.0005653012767034969 -0.0003314007906918392 0.0
0.0013677873438983645 -0.0002911616773866867 0.0
0.0008302972313813211 -0.0004278914578928098 0.0
0.0018574034397950418 -0.00018159289103014092 0.0
0.0012325744465439843 -0.00029129274418763005 0.0
0.0012522523534536595 -0.0004109470547224779 0.0
0.0023281682250366835 -0.00013435037533789023 0.0
0.0005032498369459037 -0.00032930087257365556 0.0
0.0025495259549474115 -0.00012777672978343024 0.0
0.001028469392743135 -0.00022942062578372923 0.0
0.0012273041073190643 -0.0003251036063338468 0.0
0.00023320901181144053 -8.358184120060415e-5 0.0
0.0023387071610017273 -8.940967320602173e-5 0.0
0.0014375194257618517 -0.00043980140141928125 0.0
8.017300116522238e-5 -2.564739878254315e-5 0.0
0.0013303583848371923 -0.00018759773750232184 0.0
0.0013272207583498166 -0.00019953356728355463 0.0
0.002512808935328921 -2.2121756679038472e-5 0.0
0.0014273882911347525 -0.0005568477138189409 0.0
0.00046513132541983293 -0.0002511092555963484 0.0
0.002596696024697857 -4.049185655572766e-5 0.0
0.0013704869394998622 -0.0002535970080525732 0.0
0.0012678840609467307 -0.0002840443130817977 0.0
0.0015851177195294898 -0.0003887078981485376 0.0
0.0015514379461584605 -0.0003798797497522128 0.0
0.001447497493144446 -0.00039553285221279565 0.0
0.001204975771697793 -0.000251413501979255 0.0
0.0014881208995980175 -0.0005726835447001937 0.0
0.00160066798912045 -0.0005693827123044825 0.0
0.001138662059680883 -0.0005463957455457213 0.0
0.0012252086194638862 -0.0005582983881889956 0.0
0.0017630899446671139 -0.0005406273121708611 0.0
0.0017556702853947952 -0.0005111396423897155 0.0
0.0009154192126736329 -0.0004969807665043534 0.0
0.0007288284669789214 -0.00044210848887038507 0.0
0.0015452012772405068 -0.0005729480319816079 0.0
0.000973482580237705 -0.0005138788181039529 0.0
0.0010933222837189059 -0.00020541578611847064 0.0
0.0022952766568127315 -5.732677053899803e-5 0.0
0.001854811238706826 -0.0002874550853063037 0.0
0.0018394183685328056 -0.0003114018496184562 0.0
0.000934981234089242 -0.0002868966135317635 0.0
0.0015930081662544557 -0.00025616043066722065 0.0
0.0012559884327546038 -0.00045106643016615874 0.0
0.000661133077180824 -0.0003512191738667589 0.0
0.0004953317263313879 -0.0002082805867608177 0.0
0.001096236581067308 -0.0002845963849618511 0.0
0.002345502227650859 2.0223974854004144e-5 0.0
0.0009226319375800825 6.711914852118031e-7 0.0
0.0012452099949191834 -0.0002296924065406065 0.0
0.0014653853019207714 -0.0003129152085888086 0.0
0.0001891429062931562 -0.00013392390404139961 0.0
0.00019656123008880355 -0.00015005530343852746 0.0
0.0010956353414086925 -0.00040513286123791356 0.0
0.0009227003754480429 -0.00037625149253291194 0.0
0.0013253723324643818 -0.00033647870386869567 0.0
0.0024925805324182895 3.7927691931624164e-5 0.0
0.0014015041668069782 -0.0004962258884478087 0.0
0.0026438262993500375 -3.591182910496214e-5 0.0
0.002621855573519809 -6.035173477806116e-5 0.0
0.0007262159624243424 -0.00013326955043918958 0.0
0.0011290935391321966 -0.0003108185703345826 0.0
0.0011913061777385967 -0.0003678882213313686 0.0
0.0025654795091391673 1.0126262219769899e-5 0.0
0.001276289179265405 3.6273909676087365e-6 0.0
0.0017420118220574951 -0.00040048100321971774 0.0
0.0018006883022090299 -0.00033047192185531175 0.0
0.000715131670113513 -0.000420613240713034 0.0
0.0016496119639460107 -0.00030518793904740305 0.0
0.0011309045343703787 -0.00027894394612131836 0.0
0.001735071742105283 -0.0002738384460717275 0.0
0.001724924559825947 -0.0002950178255740678 0.0
0.0017782126275826264 -0.00025768382515457307 0.0
0.000603189009492789 -0.0003918467012776848 0.0
0.002095496824533201 2.69941163238218e-6 0.0
0.001505240509335908 -0.0005499393550816027 0.0
0.0021458655484259156 -0.0003657708829100633 0.0
0.0019677039560704337 -0.00020352384686023154 0.0
0.0012658117119706779 -0.0001773671222550524 0.0
0.0016040346674186855 -0.0004821952776284047 0.0
0.001005140647007669 -0.00038232839777542683 0.0
0.001056318137815623 -0.00024335375034481674 0.0
0.002483054916224716 -1.6380611479578712e-5 0.0
0.0005624104375795294 -0.00016274399127270639 0.0
0.001900367804781246 -0.00011463341692239331 0.0
0.0012583726934062283 -0.00012202289549139377 0.0
0.0016288950008024408 -0.0002604174597638811 0.0
0.002376044888280813 -5.405136150810588e-5 0.0
0.00020850796062302798 -8.441250214925324e-5 0.0
0.001888872985138962 -0.0003182687635750471 0.0
0.0014449254880017767 -3.432966169062805e-5 0.0
0.001430085828268261 -4.5637699135642774e-5 0.0
0.0015488305496084045 -0.00046008162797400086 0.0
0.0014248394845857912 -0.0003446068687594278 0.0
0.0014646151157278766 -0.0004510005363246273 0.0
0.0019122218778573272 -0.00038594393643057536 0.0
0.0019554878336088765 -2.217849648450048e-5 0.0
0.0012831404347776 -8.764801880782713e-6 0.0
0.0017550855290075819 8.356513199314671e-5 0.0
0.0022717275682952232 -0.00018721160221468663 0.0
0.002286175193982674 -0.00016193401999680862 0.0
0.0012658212173404294 -7.847326369317403e-5 0.0
0.0008405583465633887 -0.00036642120855282987 0.0
0.0017376057233021178 3.2962133235068635e-5 0.0
0.0012803420506480377 -2.980229001546951e-5 0.0
0.0016402347594509483 -0.00032667221951889256 0.0
0.002600498109448871 -5.128336552325142e-5 0.0
0.00044394951331097165 -0.00026633629437463794 0.0
0.0015977868198951168 -0.00015999388348389174 0.0
0.0012756616706018228 -5.3522449309465366e-5 0.0
0.0012672720565570395 -7.078054541740804e-5 0.0
0.0004401671986699647 -1.379905045730345e-5 0.0
0.0023319267093168273 5.192246493861334e-5 0.0
0.0013533820497813919 -0.00012294809560318466 0.0
0.0023605980361150265 -0.00012967272864678294 0.0
0.0008100103244864749 -0.00035042467581023986 0.0
0.0019841151713655258 -0.0004649682160163635 0.0
0.002038237674604797 -0.00044801390908775373 0.0
0.0007376722292582912 -0.00035674186498913744 0.0
0.0017028851212647599 -0.00033891935433232593 0.0
0.0011103989188895396 -0.0005420206577266715 0.0
0.001647904616242984 -9.675905747558084e-5 0.0
0.00048442610407249366 -0.00033835127327282497 0.0
0.0013780786660929716 -6.187013563100926e-5 0.0
0.0014163905044665933 -0.00015597744532282225 0.0
0.0014002383231025402 -7.584581162889817e-5 0.0
0.0014940916783309764 -0.00034042373683351425 0.0
0.0018269091503046071 -0.00033535278216769414 0.0
6.997600594206221e-5 -5.9215386187574095e-5 0.0
0.0001196961386848479 -0.00010037984373147291 0.0
0.00014295868909058719 -0.00011891518286169728 0.0
0.002456464210613478 -0.0002032095979217663 0.0
0.0001907319926001707 -0.00015663317169558442 0.0
0.0007541071212959535 -0.0003353369414302591 0.0
0.00033706746602448764 4.087322598469911e-5 0.0
0.002172699600090472 -0.00038356249114918095 0.0
0.0004133254432416185 -0.0002994979183743134 0.0
0.000461468871433795 -0.00032637468966353623 0.0
0.002426983382359912 -0.0002232836228638601 0.0
0.002369035778864865 -0.00026557714788572653 0.0
0.0013992966052048686 -0.0001953634905443641 0.0
0.0010109902644727918 -0.00046062140976827485 0.0
0.00194533156721989 -4.4132696837186177e-5 0.0
0.0022279663702785136 -0.0003508669297061011 0.0
0.002255866060712562 -0.00033552317313970923 0.0
0.0003669886367013474 -0.00027459184334837115 0.0
0.0002588944467477059 -0.00020396150044048826 0.0
0.002312786023935365 -0.0003007293899132158 0.0
0.0023370805247353425 -0.0002568389784826227 0.0
0.0015602830159878569 -0.00054954737972261 0.0
0.00030510441808169497 -0.00023553775569486494 0.0
0.0018956020290289352 -0.0005058389942015931 0.0
0.0005003189780461691 -0.0002728709479901559 0.0
0.002162208247876376 -0.00024073375429800088 0.0
0.0007576185012127311 -0.00043462362793129185 0.0
0.0020045378898790596 -0.0003444271967027719 0.0
0.002085675371899573 -3.2488384960906764e-5 0.0
0.0007374322918570346 -0.0002507535811482943 0.0
0.000502815551383962 -0.00022383691929867152 0.0
0.0009517722681225294 -0.000391157012307468 0.0
0.0012588885165151298 -0.0003353038240549373 0.0
0.0021980519227958544 -0.00012030963106621071 0.0
0.0013447660278277753 -0.0005162743537718966 0.0
0.001387641459194657 -0.0001262299613059779 0.0
0.0013898502381617349 -4.505592790435544e-5 0.0
0.0017539524916470768 -0.00023418092754116948 0.0
0.0020146129350697415 -0.00027922014455348865 0.0
0.0007330686116579071 3.525369860716596e-5 0.0
0.0016730654998009253 7.298323091756152e-5 0.0
0.000801700536101624 -0.0002492137090444044 0.0
0.0021999054252564297 -0.00018664838498910156 0.0
0.0005261675965735411 8.061274369612521e-5 0.0
0.0004415048034169519 5.860523933423277e-5 0.0
0.001131960027295442 -9.567989344524707e-5 0.0
0.0023198981878934507 -7.02368418116612e-5 0.0
0.0012722858760216692 3.875092210128383e-5 0.0
0.0013426195951126716 -0.00015263030181295493 0.0
0.002454931515400601 -6.010733049780534e-5 0.0
0.0006774909421188313 -0.0002506248882980267 0.0
0.0008337945162500128 -0.00017504576935332413 0.0
0.0018899176170932683 -0.00022399832505321673 0.0
0.0020765568695154386 -0.00025849768503166096 0.0
0.000590920994261442 -0.00024697414916954907 0.0
0.0003555905829797618 -0.0002024870930109578 0.0
0.0019910388782427273 -0.00027615620219506565 0.0
0.0008577788943472217 -0.0001239927047418588 0.0
0.0019992127219612466 -0.00014627312675317443 0.0
0.0026520285828602534 -2.459957958944646e-5 0.0
0.002190231340782997 -5.379714889521736e-5 0.0
0.0014201324589881356 -8.883698962546885e-6 0.0
0.0014623692581829746 -8.644795410995475e-6 0.0
0.0016269632727276035 -0.00019395671948041677 0.0
0.002408311279582702 -8.747037162255684e-6 0.0
0.0023650720455982766 9.691737911881217e-6 0.0
0.000115014301581715 -6.451500621879915e-5 0.0
8.665736895928853e-5 -4.6960424698437616e-5 0.0
0.0010373728733723833 -0.0004551390844598276 0.0
0.001681949452064199 -0.0003109592186894995 0.0
0.0009476178173157306 -0.00018356965613527046 0.0
0.0009483765920129525 -0.00017059008801691245 0.0
0.0009499274686001116 -8.821480398707794e-5 0.0
0.0013159055061596585 -0.00043697542366766365 0.0
0.0015552081397060622 -0.00017263952225990764 0.0
0.0004169155541997894 -8.400298817491943e-5 0.0
0.0018407549896096499 -0.00012200741916906114 0.0
0.0014453387248199439 1.7127265919558072e-5 0.0
0.001095598520568496 -0.0003004004094202521 0.0
4.354442851332904e-5 -5.853111163508377e-6 0.0
0.0012611636513214588 -0.00031754403937292415 0.0
0.0024384686248189584 -7.20149915516115e-5 0.0
0.0020747467332454536 -0.00014566226507339405 0.0
0.001972834612522879 -0.00010748148126917007 0.0
0.0023284327376145992 -0.00010264693830990711 0.0
0.0016899498519775031 -0.00013430695453187905 0.0
0.0009432259263566609 -4.206113070432773e-5 0.0
0.00030771566620959077 -0.0001078393363715537 0.0
0.0011410253434976224 -0.00016489937548032216 0.0
0.001431351008407266 -0.00020085313300720797 0.0
0.0003851105352005295 -0.0001786580727777725 0.0
0.0011964219153381191 -0.0005549249781165509 0.0
0.0016332163766005696 -0.00013508029049406572 0.0
0.0007847406852247029 -0.0003524396780324189 0.0
0.0017925424284921452 1.751869183806911e-5 0.0
0.0022324479743457753 -0.00011678641290006587 0.0
0.0008547642055406531 -0.00010935029735125606 0.0
0.0019429219826610042 8.378108511781528e-5 0.0
0.001484530225390348 -0.0001651228815303126 0.0
0.001263821590953726 -0.0003003942624467029 0.0
0.0004685437455795103 -0.00010060095855452366 0.0
0.0008701738447423094 -0.0001889176396472831 0.0
0.0011884993608659825 9.690746727528667e-5 0.0
0.00035407171909063726 5.4997677441738315e-5 0.0
0.0019546782648619753 -0.00022492137368646743 0.0
0.0005171806230424246 -0.00018299193229931546 0.0
0.0012992826989310364 -0.0002927817669924489 0.0
0.0022041787159661763 4.9316499949219265e-5 0.0
0.001856235886668015 -0.00022232579990825505 0.0
0.000905452501343637 7.384543835927704e-5 0.0
0.00016096122714182457 -4.469994994356395e-5 0.0
0.0006658847039263133 -0.0001652312037927338 0.0
5.743929671900856e-5 3.57107389728391e-6 0.0
0.00011917512135681232 2.724574145291822e-7 0.0
0.0018482166738341527 -0.0002042809590646599 0.0
0.0015413732336577442 -3.3053631880313796e-5 0.0
0.0008594670550683288 -0.00048604848626945704 0.0
0.000605945862590807 -0.00031522952698351015 0.0
0.002184988623742273 -9.143027439389312e-5 0.0
0.00031368531473691244 -0.00022872899088534067 0.0
0.0017859411292876375 -0.00023841874389835143 0.0
0.0014689404915229998 -0.0004285489020293352 0.0
0.0021593230687570594 6.980906281651822e-5 0.0
0.0007722696951906323 -0.0004115678341512838 0.0
0.0023334912573656132 -0.0002165651385383719 0.0
0.0013459843504216415 -0.00014277543836516363 0.0
0.0004435484327452825 -0.0003018722853962483 0.0
0.0017849068203191836 -0.0005118308314160548 0.0
0.0004424233336287579 -0.00020218788883901576 0.0
0.0025063302705441402 -7.110387063838838e-5 0.0
0.00032004431216453913 -0.00014126908938694098 0.0
0.0018540882167269776 6.1193207799851045e-6 0.0
0.0016944539477643007 -0.00011881551914337295 0.0
0.0013958595299412983 -2.8309119322857845e-5 0.0
6.0238378510281645e-5 5.741162927560588e-6 0.0
0.001088380477242045 0.00014281884777808698 0.0
0.0007173769127746041 -0.00011652438970006185 0.0
0.0020616089668695015 -0.0004079118030329498 0.0
0.0020901507133117086 -0.00042812464443310567 0.0
0.00019322541774167274 -1.182521844157201e-5 0.0
0.001527839969565094 -0.00015540269439660138 0.0
0.0006306769418053758 -0.00031682972557679366 0.0
0.0010641704053042105 -0.0003218200586736879 0.0
7.335871556871305e-5 -4.3891615357106617e-5 0.0
0.00014632705410986388 -2.8329675454930343e-5 0.0
0.001458595438038921 -0.00022030715105939374 0.0
0.0013351403055799481 -0.00028403470930756517 0.0
9.451036733377414e-5 -1.5897909683762468e-5 0.0
0.0002635518131076508 -8.930642135722052e-5 0.0
0.00021352258281458122 -0.00017287082769656874 0.0
0.002180369029762196 -0.00021206731014973234 0.0
0.0017131627761753831 -0.000316555545934967 0.0
0.0003231168889609428 -0.0001821922895455611 0.0
0.0020568221640521697 -2.071564343325687e-5 0.0
0.0018886001352919092 -3.721836594854617e-5 0.0
0.000152447367417011 -0.00011782742666814475 0.0
0.0010930038249609055 -0.00012141533086721943 0.0
2.0003949628156738e-5 -1.5050471321586694e-5 0.0
0.0026786819515742357 -1.7511050824833202e-5 0.0
0.0025937401891683496 -2.415160265503712e-5 0.0
0.0007828269188809754 -0.0004621333239923295 0.0
0.0020597344013031063 2.5052457998734786e-5 0.0
0.0017133892723630423 -0.00039294657644914284 0.0
0.0003524136237866637 -0.00014836076892374363 0.0
0.0016271633285310499 -0.0005659594592721525 0.0
0.00037499575670448665 -9.519771743072143e-5 0.0
0.0023083334525124425 -8.279193275054033e-5 0.0
0.0010312656164200645 -0.0003260352492624071 0.0
0.00010776780396421055 -5.648730999250373e-5 0.0
0.0012340947842975273 -5.8198712063535354e-5 0.0
0.0012301168152035133 -6.745912039142775e-5 0.0
0.002431552096855212 4.143637070090699e-5 0.0
0.0014613663206086563 -0.00033252452728488 0.0
0.0001834675995376164 6.941402305819262e-6 0.0
0.0023036949797956927 -0.000283558513840963 0.0
0.0024548689284212034 -4.5722245300930434e-5 0.0
0.001872816777755313 4.038118375214761e-5 0.0
0.001922769269496285 2.4942241197922816e-5 0.0
0.0011182689977973326 -0.00047961682856740277 0.0
0.002611689285847622 -8.184008552270143e-5 0.0
0.0011285015691186884 -0.00010620049164959835 0.0
0.00027723891752520606 5.575392393178361e-5 0.0
0.0003177832454408338 -0.00019734215440572284 0.0
0.0008132344431693311 0.00010695031646122479 0.0
0.002312964443331249 -0.00021307128051883178 0.0
0.00013373238718669285 1.689555547714291e-5 0.0
0.0013884691545538756 -0.00011629021012608552 0.0
0.002087176130797556 -0.0001262737779254388 0.0
0.0016633747223341413 -0.00019916447820458885 0.0
0.002633676316362368 -1.774863697851947e-5 0.0
6.49155288240944e-5 -2.6204123300002222e-5 0.0
0.002469469131630069 -8.31593095290513e-6 0.0
0.0026432637488415303 -1.8153038623041167e-5 0.0
0.0012606982633121414 -0.0005403999575670317 0.0
0.0015027486548401517 -0.0002110184244569407 0.0
0.0009372912383311117 0.0001674490323524668 0.0
0.0006216824885662257 -0.00024806652021105394 0.0
0.0008220975609768979 -0.0001570480598935419 0.0
0.0010842674880162289 -0.00013189592126700036 0.0
0.0005299573507163874 6.457728315624086e-5 0.0
0.0009480866650020266 -0.0003718418343126061 0.0
0.00047564393458861845 -8.475411186985453e-5 0.0
0.0003325858772244817 6.593553938642963e-5 0.0
0.0012207033529363937 -0.0001968656508280076 0.0
0.0018642716699197063 -0.0003151564001703803 0.0
0.0022218103597758734 -0.000188877120869833 0.0
0.0008967715287488369 -4.488268808667706e-5 0.0
0.0006264745130800641 0.0001307545675034696 0.0
0.001465454858181488 3.593823860837781e-5 0.0
0.0007656110134645406 -0.00011485297647448973 0.0
0.002108441098965257 -0.00019501789715549347 0.0
0.0007957766301772011 0.00016881485520170366 0.0
0.0007200696120360564 0.00016114600247510145 0.0
0.0014327729796530997 -0.0003053403982274356 0.0
0.0015120832487081628 5.5116366088693064e-5 0.0
0.0010245257157891075 -0.0005261978701083713 0.0
0.0019517178964991117 -0.00048508290959665246 0.0
0.0007038737853932806 -0.00023663851044715338 0.0
0.001816563499095013 -0.0005304710007722418 0.0
0.000569284411396956 -0.00010724035919687805 0.0
0.0021452234598482384 -0.00018924065019789577 0.0
0.0009981514962142913 -0.0003139683451826188 0.0
0.0022948421773771577 -0.0001089702028259729 0.0
0.0006231199111180777 -0.0002342976441987251 0.0
0.001127593549978425 0.0001313732728492399 0.0
0.0009496829277772114 -7.351212441890341e-5 0.0
0.001162614729583687 -0.0004104320149699647 0.0
0.00124871974528471 -0.00015023120309581045 0.0
0.0012264995243859045 -7.621073350961163e-5 0.0
0.0007224339960233419 -0.00031721037766796614 0.0
0.0007315256513045346 -0.00033749383595174307 0.0
0.00047509460459633997 -0.000165584322486049 0.0
0.0007542031137682637 0.00021419325938364366 0.0
0.0012049390305125416 -0.0004725719585412499 0.0
0.0023279876990594983 4.567221889161294e-5 0.0
0.002053747858611286 -0.0002557237085927298 0.0
0.0014706528273601162 4.1132620691335614e-6 0.0
0.0006737968039461965 -0.00023663375815123714 0.0
0.0018164218974422279 -0.00017963296695345816 0.0
0.0015030052897075418 -0.0004163138263243325 0.0
0.000996618797078561 -0.00029719261508378734 0.0
0.002482424950991677 -5.564888086964957e-5 0.0
0.002616068856107416 -3.6460224563957436e-5 0.0
0.0009079632361684936 -0.00017464578628785882 0.0
0.001725641654626213 -0.0005267320736758038 0.0
0.0023675344928773662 -0.0002440140989201125 0.0
0.00011989554016828128 -3.1555565062642156e-5 0.0
0.0006265854588403203 -0.00016523856033970653 0.0
0.0007366741363003303 -0.0002367982815178941 0.0
0.002418331636669735 -0.0002099183345551672 0.0
0.00094340582296411 -0.00035236777127019026 0.0
0.0016902493468625474 3.4526409484851715e-5 0.0
0.0002681018310686691 -0.00019917920139671803 0.0
0.0015145620686172812 -0.0002491130412763003 0.0
0.0022191409257148083 -0.00016411102211512458 0.0
0.0017533787494654807 -0.00029978638970705446 0.0
0.0025270152519635534 -5.418036260244385e-5 0.0
0.0017632432292733504 -0.00047835423416105134 0.0
4.3820368801903036e-5 -3.283912296417119e-6 0.0
0.0011619850022811823 -0.00019173553282314935 0.0
5.0860127665732137e-5 -2.526343241232448e-5 0.0
0.0008539303387069975 6.177418708354815e-5 0.0
0.0005538259601928618 -3.305422105985683e-5 0.0
4.4235026821786267e-5 -3.1912294750004076e-5 0.0
0.0006797160745896998 -0.0004265301161772984 0.0
0.0006300794856347829 -0.00038974119773601656 0.0
0.0011375843869843676 -8.628739718423484e-5 0.0
0.001162027304127514 -1.5256482304831999e-5 0.0
0.0004677389621605572 -0.0003155216991222215 0.0
0.0008098677317519109 -0.00011271949225182919 0.0
0.0015570314673459108 -0.00016096860928116176 0.0
0.0004671976907143954 -0.00020489198005960393 0.0
0.0017460858665339285 6.17053278778674e-5 0.0
0.0015405377517523726 -0.0004028051824644181 0.0
0.0003408341219973711 -9.377952106162286e-5 0.0
0.00020893039046414213 -0.00014083971704176448 0.0
0.001357186072715813 -0.00010427702638604532 0.0
0.00010017523954883988 -7.780867075276758e-5 0.0
0.002564061086029242 -1.6467790194052352e-5 0.0
0.0009194429340405156 2.4001710155312478e-5 0.0
0.0012303124504854876 -0.00018283992523800575 0.0
0.002276966289715183 -0.00024067969083078558 0.0
0.0025129370710100522 -0.0001614101959860705 0.0
0.002099270062707054 -0.0001070632566399395 0.0
0.0012008326424550228 -0.00045155719241547597 0.0
0.0015769667062883485 -0.00023431373952752124 0.0
0.002216538123433855 -0.0003345154000669307 0.0
0.001315244383334388 -0.0005687141031498578 0.0
0.0021900613376942546 -0.00016672216568869565 0.0
0.0017639070143264785 -0.0002786663094939451 0.0
0.0009114975630313956 -0.0003380199590472592 0.0
0.0016016000689210914 5.6611146899015796e-5 0.0
0.0009615006679309681 -0.00028280382651327214 0.0
0.0008131633352870522 -0.0004325029445958665 0.0
0.0012145460362311138 -0.00015476417429695916 0.0
0.0020171104925596397 -0.00042804017728788156 0.0
0.000470135446432493 -0.00015299518384635677 0.0
0.0003949092329889949 -0.0002778556283531739 0.0
0.0019162703953139752 5.329059599233099e-5 0.0
0.0005917894377969887 -0.0001773729986238079 0.0
0.0015523237755940406 7.39921071632768e-5 0.0
0.0009298639103306758 0.00032492467844914114 0.0
0.0020339525596195403 3.923369124904681e-5 0.0
0.0022938415662519967 -9.720724678705553e-5 0.0
0.0012858196807303847 -4.594840280247089e-5 0.0
0.002047087193596612 -0.0001281850881359601 0.0
0.0015792817464701854 -0.00044355619083778184 0.0
0.001676725677997199 -0.0005616687592862351 0.0
0.0007704310958192389 -0.00023566582828096844 0.0
0.0008671994711885858 0.00017966540795670322 0.0
0.0005145227710595332 -0.0001580608885343901 0.0
0.0005816050974668017 -0.00038707196528204566 0.0
0.0011387650155408118 -0.00020960246524969088 0.0
6.517787824351048e-5 -2.443394942442352e-5 0.0
0.00045089535759764674 -0.00028942795973704806 0.0
0.0012672768457352363 -9.328051200069205e-5 0.0
0.0001623384277765387 -8.618260566486935e-5 0.0
0.00014694913270871536 -5.908634505461945e-6 0.0
0.0013635590482487501 -0.0002769075688761012 0.0
0.0013908995371124024 -0.00010710943779056525 0.0
0.0024766567232214283 -0.00016998155111871784 0.0
0.0010889926570425723 -0.00011144353033830616 0.0
0.0018799577116792724 -0.00029115261660229926 0.0
0.0014107455139434428 -6.363090482027971e-5 0.0
0.0003671043877305891 6.48282456738247e-5 0.0
0.0004733666130174334 4.8924114102096486e-5 0.0
0.002570918648618012 -3.7017017830554593e-5 0.0
0.0016466400424315882 4.499374871695551e-5 0.0
0.00038620642428295105 -0.00015463243341160118 0.0
0.0016015938940367744 -0.00010416943684919551 0.0
0.0012370799445247168 -3.578340324765543e-5 0.0
0.0013720515201980444 -0.0001463139738673499 0.0
0.0005074095930586175 0.00012039417281921095 0.0
0.001371625431268773 -0.0005742148342586224 0.0
0.002439072280277721 -2.4044653092078345e-5 0.0
0.0013452927642557788 -0.00023415908051626396 0.0
0.0013614097248642741 -7.863451186732009e-5 0.0
0.001718010104272964 -0.00016809589168848718 0.0
0.0011831338678623114 -8.186593169307758e-5 0.0
0.0013535512145280688 -0.0002182218922781997 0.0
0.0006607883643271732 -0.00033778946506674923 0.0
0.0018055768360818456 -0.00026172938332711255 0.0
0.0010734315187456345 -0.00017455954146298498 0.0
0.0013567930479523665 -9.592266234847233e-5 0.0
0.0021137101296088215 -0.0004200354195456707 0.0
0.0011497412808417816 -0.00015359791526164441 0.0
0.0016186404373744214 -7.780482330841143e-5 0.0
0.0014187830173236161 -5.510831285270223e-5 0.0
0.00022033641997562533 -0.00016858712315390227 0.0
0.0020682935999731325 -0.0002353004039046565 0.0
0.0014032050216216086 -8.617857704372763e-5 0.0
0.0007718078758778796 -0.00042906507790395316 0.0
0.0015558428084905646 6.538445683831606e-5 0.0
0.0018710514473058687 -0.0005189506765537779 0.0
0.00259232736357564 2.4883335690151693e-5 0.0
0.00013954314730735574 5.3579146096474894e-5 0.0
0.0011096997538725657 -0.00021602596015138196 0.0
0.0014756655901852214 -0.0005550434593052952 0.0
0.0009339122286318553 -0.0004884576137853243 0.0
0.001058267845339024 -0.0005337321816979436 0.0
0.0002062391804342527 -7.793862550196867e-5 0.0
0.001915617803801721 -0.00027517346490359194 0.0
0.0007745444831756099 -0.0002216217699189305 0.0
0.0011096077262623375 -0.0001592393358157034 0.0
0.0008978022700642641 -6.028601850042973e-5 0.0
0.0010944799176512857 -0.0005244748867842139 0.0
0.0019025923992431496 7.692054242716962e-5 0.0
0.002462960296267066 4.271020756920586e-5 0.0
0.00157933369925708 -0.00042342885584946904 0.0
0.0013389691600331755 -0.0002514214632984156 0.0
0.000858752928724381 -0.00033251884247762235 0.0
0.0014299027325055083 -0.0005773415511762322 0.0
0.002002960544740572 -0.0002281869818528047 0.0
0.00018483041913887788 -8.845316417349445e-5 0.0
0.002398819995136274 -5.533166683289139e-5 0.0
0.0011530235089210316 -0.0005327562863569815 0.0
0.001179343296745586 -0.00048162856584710724 0.0
0.0017943897640293836 -0.000455342047254785 0.0
0.0026556818659153976 -3.2595403259086966e-5 0.0
0.0009870636386341539 -0.0005021739867559943 0.0
0.0008470404761781555 -4.606112830323259e-5 0.0
0.0008754035951880392 -0.000178259086988244 0.0
0.0017041749684738531 -0.00018746199413340696 0.0
0.002579033838765801 -1.7822166888815172e-5 0.0
0.00022634213577709937 -0.00014742861144148727 0.0
0.00136001939314529 -0.00020431422979309155 0.0
0.00234697784101231 -0.00022445442877177578 0.0
0.002571470045875784 5.733047165335534e-6 0.0
0.0007418590111064974 -0.00014988689312119777 0.0
0.0011798798892203148 -0.0005388437912934008 0.0
0.002493320278770029 -4.758244753580169e-5 0.0
0.0004643792455206369 -0.0002735799844682129 0.0
0.0026192526634289926 -1.189776451962091e-5 0.0
0.0008364373460799082 -0.00048251276181068636 0.0
0.0018164496648024689 -0.00024122030831600616 0.0
0.0004977199863537062 -3.7567552658329044e-6 0.0
0.001659858377836899 -7.841503366992122e-5 0.0
0.0025845875365623555 -8.940499087480086e-5 0.0
0.002042803919011689 -0.00020949917030694903 0.0
0.0007375580986391294 -0.0004328728740718119 0.0
0.0005337594691352425 -0.00036576985864030344 0.0
0.0006587122180616666 -0.000310452686155093 0.0
0.00216966009068766 -0.00036118235964498213 0.0
0.002008628089327886 -0.00013099178555650844 0.0
0.00041792555959061157 -0.0001616012752917016 0.0
0.0010505966980282678 -0.00020865239197234538 0.0
0.0016984116447600487 -0.00020691569094489622 0.0
0.00101186665937235 -0.00023965912365428213 0.0
0.002521414489204362 2.224336535700503e-5 0.0
0.001831815731442267 -0.00010794903750847967 0.0
0.00106978440982734 -0.0001646061609060302 0.0
0.0004276158043466649 -0.00014757738619939828 0.0
0.0019406035865491076 -0.00024273168756274176 0.0
0.0016082585099763387 -0.0005271230616978501 0.0
0.002277041907528998 -0.00030441576452570505 0.0
0.0008919192511831845 -0.0004783973373307383 0.0
0.001704929889964155 6.828814030056604e-5 0.0
0.0009642489118754671 -0.00026667699029647534 0.0
0.0015315771436841886 -0.0005562082675013401 0.0
0.00225585454356567 -0.00023903293782602482 0.0
0.002000690792738923 -2.6708831435801957e-5 0.0
0.002521848573919145 3.4537657491304914e-6 0.0
0.0006406584030588035 0.0001409657845968112 0.0
0.002449208344210173 -2.8415691071648037e-6 0.0
0.0008468064848244092 -0.00030778451561327367 0.0
0.0022519671802817337 5.164473771275114e-5 0.0
0.0015776328596937299 -2.216002361029112e-5 0.0
0.0018485654603501312 -7.423523311419803e-5 0.0
0.0007973779248953567 -0.00020347434897653654 0.0
0.0018724834500488808 -0.0001296000957148915 0.0
0.0012362689304039358 -0.000544268169293591 0.0
0.0006913231476874829 -0.0004052525456196118 0.0
0.0014210868098306398 -0.00011008586218714328 0.0
0.001990030876300467 2.9839814370302527e-5 0.0
0.0011596171380111788 -0.0005055311479419965 0.0
4.775941771066977e-5 -2.2258816326656747e-5 0.0
0.002592771647603153 -2.229127209663303e-5 0.0
0.002248599118655031 -6.0299370440561486e-5 0.0
0.001115457466681096 -1.0608930748400114e-6 0.0
0.0026306551581378574 -3.3342333093230746e-5 0.0
0.0007456675102546648 0.0001109035712245647 0.0
0.0012429001946009123 -2.4024837479066638e-5 0.0
0.002676899622493663 -2.256952244504451e-5 0.0
2.039715430980437e-5 -1.7691569657898043e-5 0.0
7.122238086022082e-5 -3.990174693551616e-5 0.0
0.0007639724910210088 -0.00010210105020362188 0.0
0.0016017493703814182 -0.00024038837146546276 0.0
0.0018490540450828694 5.7909707029152555e-5 0.0
0.0020214106132560705 -0.0003999633248757416 0.0
0.0026021326511871485 -2.732633124036805e-5 0.0
0.00020487877160448777 -0.00010119250402171835 0.0
0.0005537311551492215 1.4538909542832167e-6 0.0
0.001618134739268452 -0.0005020178526110302 0.0
0.0023271814857089334 -6.012668429917869e-5 0.0
0.0006787617503239595 -0.0003105553792696733 0.0
0.0001521378981694718 2.221033216853735e-5 0.0
0.001639437975652368 -0.0001085557235407938 0.0
0.0008036019250367899 -4.911639908885988e-5 0.0
0.0019507205600424154 5.218518266550813e-5 0.0
0.0012393609897140315 -9.234256346079028e-5 0.0
0.0010026603395547758 -0.00025207631039658073 0.0
0.0023619076156736266 4.73378929656168e-5 0.0
0.0023907274121676074 -0.00023418455879180042 0.0
0.001941925723891898 -0.00046528499144132183 0.0
0.0005962251456066738 -0.0001664889459288465 0.0
0.0024676514994777044 -4.688222587328545e-5 0.0
0.00041185588796270785 -0.00018619535407298103 0.0
0.0024950242202364473 -2.0249564621625633e-5 0.0
0.0021915827955494844 -0.0003545529585003846 0.0
0.0016035342368206256 4.8892770829669665e-5 0.0
0.001806873708467488 -0.0005130599509966279 0.0
0.0019369274709351125 2.3605823582466326e-5 0.0
0.0012178991865502177 -0.00013220844367871774 0.0
0.0006837571906026763 -0.00038524100321686035 0.0
0.001006069410210591 0.00015562541453613003 0.0
5.8897111729087735e-5 -1.4150855457175595e-6 0.0
0.0025670104175574667 -2.701534375905685e-5 0.0
0.00028832503175814313 -0.00021566169535752638 0.0
0.0019568015600385674 6.164554322489407e-5 0.0
0.00048791885062712917 -0.00032826757306299493 0.0
0.001821248101264588 -0.00022494283301201953 0.0
0.000543989851016618 3.1258931129558715e-5 0.0
0.00023856167422333055 -0.00011131052235861067 0.0
0.00034919970101527525 -0.0002668242383682461 0.0
0.00031144027712579444 -0.000183894933841664 0.0
0.0008941427739260821 0.00020516854007579372 0.0
0.00208563019011673 1.4007630874663274e-5 0.0
3.796318712524234e-5 -2.483936391687251e-5 0.0
0.002231964088681269 -5.251503857264477e-5 0.0
0.0020568033030661822 2.66487159614321e-5 0.0
0.001643930407240863 -0.00022777052782900224 0.0
0.0012369948906284097 -0.00010839775323345269 0.0
0.0007012739590967457 -8.073839134795903e-5 0.0
0.0012595542999910396 -0.00014026060446288574 0.0
0.0016542815382261464 -0.00045780142219648126 0.0
0.0008046606476334764 -0.00022250352323259772 0.0
0.0006141633941033608 -0.0003881939425847335 0.0
0.0022577828530049734 -0.0001687718147085156 0.0
0.0017330964113415408 7.345761910513529e-5 0.0
0.0002838266287431634 5.214478596230261e-5 0.0
0.0008023844960060318 6.224217921438283e-5 0.0
0.0017769949664560693 -0.00016772986689576603 0.0
0.001646974767523179 -0.0005457644204120337 0.0
0.0010463285464869312 -0.00022094791045882707 0.0
0.0020848992613331243 -0.00040886257913962516 0.0
0.0001751909691970785 -0.00013730857324723592 0.0
0.0018228113288700557 -0.00043559336970488906 0.0
0.0008973862299610237 -2.904875254814352e-5 0.0
0.0024995061374784616 -0.00015639444910684342 0.0
0.000869105082975033 3.934315707660256e-5 0.0
0.001634298953651367 -5.7171503642037755e-5 0.0
0.0013752915043231018 -0.0002659340688974659 0.0
0.0012499547459535903 -1.308724034977993e-5 0.0
0.0014575827793897474 -4.8288308521341296e-5 0.0
0.0015903733888066195 -0.0005504670351321147 0.0
0.002038060497977514 -0.0004233593527807891 0.0
0.0006517264384925413 -0.00023836864538098916 0.0
0.0015145774085545283 5.519048978438352e-5 0.0
0.0014748537340731394 1.5671194987859463e-5 0.0
0.002033294904546972 -0.00036720667149412037 0.0
0.0012251720920838632 -0.00012262279698936997 0.0
0.0012235830401526942 3.61274282843163e-5 0.0
0.0006784921646304941 -0.0003667148406007265 0.0
0.0024814972134152478 -0.0001512840295829009 0.0
0.0017155171082738373 -0.000554936403115443 0.0
0.0011619126897522264 -0.0004912632358542625 0.0
0.0025951572625578546 1.1781904042464275e-5 0.0
0.00114476532465092 -0.00043719777572028993 0.0
0.0020099627255416048 -8.062775650726077e-7 0.0
0.0006995860457179299 -0.00013848985313471226 0.0
0.0017438048309712827 4.534687668927657e-5 0.0
0.0005077311871533674 -2.0465903478070398e-5 0.0
0.0011244982757798918 -7.147892479797208e-5 0.0
0.0008641242173327384 0.0002679814958661826 0.0
0.002642128024153348 -1.701959744129319e-5 0.0
0.0015905101891936166 -0.00040715692927638006 0.0
SCALARS damage float 1
LOOKUP_TABLE damage
0.5222010667336681
0.3198021360337782
0.7576391477109459
0.24413132946951863
0.9805706301810794
0.9944799609160917
0.12983220119783434
0.7206027338885393
0.7206776265220025
0.7342166831524262
0.7621803118388761
0.7829084166503328
0.8081451738152184
0.8326070980641302
0.8447328588353459
0.849442796829641
0.8426662262485681
0.8333458724441775
0.8187775670924488
0.8014503358377567
0.7849752408040973
0.7761423595340043
0.7599672275879251
0.7447022209211912
0.7341810000775505
0.7214874069096578
0.7031077828426697
0.6859820606596548
0.6615585673393765
0.6363510471715167
0.5981879950784333
0.5508955237967492
0.29121400647842
0.43833836963007083
0.4601828487791045
0.4952244565750294
0.5176350095922221
0.5329739947489868
0.549740640155704
0.5603360185797746
0.5713608937082377
0.582293096634699
0.5903272208503135
0.5989989746888366
0.6089728921635434
0.614720675249568
0.6174574498389375
0.6261420953710177
0.6349127416918023
0.6455679912065581
0.6512654245404884
0.6587661002700009
0.6652109085061921
0.6760282799845874
0.6778444965058131
0.6892613964577959
0.6929880438266828
0.7024375953999636
0.7086926917809723
0.720057884560461
0.7215936477820841
0.7327828246340591
0.7393463035397432
0.748825880945532
0.7552074166231355
0.7610773353830259
0.7616501056326275
0.7646396852206703
0.7729849757577949
0.774153255853399
0.7921969587168958
0.7994687255358969
0.8040446896935558
0.8247763287524206
0.8322226115967276
0.8428467101424024
0.8564295018170492
0.8600038546611012
0.8762398478872736
0.8811149714381249
0.891263854660164
0.9001891811680119
0.9046052163112617
0.9037062874059699
0.9187779191615763
0.9244377556169119
0.9453456544207584
0.9456284582654017
0.9632778765837039
0.9711883210223818
0.9764127802508735
0.9815245354448304
0.982408093178283
0.9832152277658677
0.9821119621002969
0.9813049518786228
0.9762822196826411
0.9717886578031188
0.9587082574130951
0.9445227714601881
0.9343220518011917
0.9287841862082519
0.9163848414627276
0.9128044806900121
0.8927572711229126
0.8767551053015489
0.8657647140893358
0.8469469582308073
0.8395666951401288
0.8241225166625685
0.8097410725124511
0.7904520847579529
0.7936793177673337
0.7702382576268934
0.7631762797517442
0.7448572916186118
0.7325798760071637
0.7219432973694656
0.7041804625558029
0.6914094854261318
0.6822931308841099
0.6671042493099612
0.6476800579851989
0.6258445227205846
0.6127443336090342
0.5948486547965527
0.5772975878536986
0.5324635775993303
0.4947560899638312
0.4817178831914648
0.33432572881225303
0.4443476279348731
0.5424360705629129
0.6375908435566263
0.6756892919294556
0.695122423553981
0.7054009887862993
0.7122686629334805
0.7167952349384396
0.7204600178463378
0.727114868048795
0.7320919577013278
0.7364065637141588
0.7404628949416927
0.743664837277649
0.7445299922267472
0.7431449511611682
0.7392749124012186
0.7367597742828129
0.7311909301244353
0.7308499904595999
0.732136562511605
0.7359722093497816
0.7525183834446292
0.7827338187637861
0.8422167140412455
0.8114298501404533
0.9728473159070438
1.000358541707513
0.9942445822327213
0.9917731422137892
0.9921368740230996
0.9369674323708275
0.8644282783556292
0.783768067436127
0.7089230333999088
0.6294539681567052
0.5692531173545359
0.49674856995214295
0.4191282411220677
0.3391836810976107
0.29714203148589297
0.0628112254728817
0.192496161888285
0.3026396387305975
0.4048587689122424
0.5021335657486732
0.6067740686487839
0.6984354065959938
0.7940961259353896
0.8857453874747668
0.9508545517499055
0.9994230058214125
0.9931481117933212
0.9980313468005108
0.977884394232451
0.8855918687778769
0.692781470663917
0.7260495759447299
0.9271998519445181
0.7777475131437351
0.9792373882571649
0.8367654907495892
0.9496522556048832
0.8960968141793232
0.8559341971747486
0.6820965820293522
0.7931562451245824
0.6444476251030917
0.7942021151384407
0.740446821176653
0.5807171903900352
0.5952416838295255
0.15058492137052848
0.46931190901955744
0.7283459498601168
0.6106168863194765
0.7445407691990549
0.7278219362230756
0.7302904299147132
0.8346911685898998
0.674885934777139
0.5701442736811985
0.7809620009749938
0.7083611848002178
0.7096522864162121
0.7058243013723945
0.7981751856416692
0.8710632933088314
0.9778369204902689
0.9085985940598982
0.9658094314736289
0.8922580632354394
0.761269867322804
0.7035059386843783
0.6175506090787735
0.532461872419192
0.7250218006461867
0.8182920646739072
0.6716149455363566
0.6464167384716545
0.9020527091493942
0.8916016460828913
0.749450466384997
0.7473917871453304
0.7704610089758385
0.7386548797868824
0.5170763471107012
0.31685703141515725
0.4695949681736596
0.541616517484205
0.9422215624791722
0.9304141111689209
0.7817969438758404
0.742328326106643
0.9680699272458179
0.8289793449788733
0.667400341279979
0.7676993531097226
0.6283895638006292
0.5905800013977311
0.6990832707183823
0.88301944136323
0.9428418063599052
0.6021324107975393
0.5820574432661104
0.9914102370114408
0.989619214739629
0.6780481757799427
0.8176215479625363
0.4100569641647425
0.4801869869474906
0.9931168880781283
0.9340439532855537
0.8576587638746901
0.8570613116756053
0.906323141811116
0.8340944386006188
0.7995684048241428
0.776353716516447
0.7525520651296352
0.7312150488922905
0.7474572342849964
0.7118713578402653
0.722301851641607
0.6974095122433615
0.7074998233362642
0.6952699570691878
0.6502524006503504
0.38050316296125114
0.5849254364796694
0.4230560034494577
0.5871682275370541
0.4869798519120591
0.5881607512132392
0.5287950743713868
0.5978159298496569
0.5537357492551186
0.6018855586403734
0.577805056662226
0.6159105354740424
0.5922623232245136
0.6232484930561647
0.6075861527338507
0.6317175331442754
0.6152999313740193
0.635146501104787
0.6243111089766505
0.6403741869376041
0.6338723702208408
0.646477693131669
0.6430207781356727
0.6553027728943743
0.6530756050441148
0.662975698355035
0.6600508051959851
0.6697721695939703
0.6648539801465195
0.6740541941184742
0.6739239756306596
0.6811431852619737
0.6827513399926246
0.6881722048484507
0.6885665303174956
0.6944913106400163
0.6966551720433782
0.5014777658007833
0.7024262749209257
0.607106721984996
0.6691460855234889
0.7040973485191153
0.7100481303758824
0.7113608325933317
0.7054357859926793
0.7126359082266828
0.7173290110379348
0.7155586494484875
0.6798597773782623
0.7231417343324691
0.7209361793429981
0.7280738684047906
0.7062056785380174
0.7135505142768225
0.7255164417979145
0.70711508750961
0.7142777340233301
0.7342126359681572
0.7317410091036384
0.7083174090281755
0.7156674643388387
0.7407743862278924
0.7383773614571258
0.7084563714951043
0.7148810389502672
0.7479170933868458
0.7455286553354314
0.7076263012321374
0.7142092212037033
0.7553678003725957
0.7528482554080569
0.7057998834262619
0.7145195459208147
0.7043491624702297
0.6956573481178427
0.757653029883319
0.7628805522043104
0.7595017704746808
0.7486035594317453
0.6522699310852965
0.7560157746465588
0.743689142173373
0.7511149676476285
0.7138592467791688
0.7048748489183326
0.7204577164621216
0.7700387003802737
0.7117215651275416
0.7016306755099766
0.6461468344481205
0.7084652841365364
0.6987517506619657
0.705903217837087
0.6955036040168874
0.6883902434595117
0.6842025439973776
0.6783575145875284
0.7029862728635876
0.677436250620852
0.6696708885086013
0.7131726159103977
0.710116205266844
0.6682465953063166
0.6611056623343593
0.7404252786198551
0.7470284361041896
0.7190126710871467
0.7143977980700447
0.7374305283358921
0.7449431082719495
0.7559474035694337
0.7517983588599592
0.766583075510921
0.7602378212526394
0.7753170717196282
0.7677338845614382
0.7843883370321829
0.7545338077057453
0.7741246269221057
0.7933472555498714
0.7240689054162278
0.6605756607074098
0.6539823879270341
0.801649863767343
0.8121467902189776
0.802191657785295
0.8230293234889613
0.7196901581905987
0.822565687682083
0.8116434932711595
0.7292776526781405
0.7254223063118306
0.716300468504483
0.8331202229581011
0.8221682129494975
0.735727497131501
0.7402966324496905
0.720929496351125
0.7110644660858336
0.8418182252141501
0.8316485845895737
0.8048330948654526
0.8511952005022244
0.8133496233433178
0.7896054186109244
0.6540073856693024
0.6499339002825045
0.6480104484340594
0.64768564425937
0.640342926404226
0.6425658561198223
0.634221611270904
0.7466254454977351
0.7506682006371781
0.7154807499354466
0.7057615569080572
0.8387098102825103
0.6416526013847232
0.6306961055868598
0.7566089668338246
0.760719109997052
0.7216951100505674
0.8196185472827312
0.6656691163227972
0.807469306724917
0.6425468088806526
0.7357892941866966
0.6431865942918227
0.6320846004955102
0.7111017424410453
0.7020153739341645
0.7665814822555069
0.7710428471568714
0.8441813441159252
0.6527637191899779
0.6558630982382307
0.6512185052344438
0.8220501866178629
0.6520604337832524
0.6365999466362147
0.7619696793816065
0.7058074803995247
0.6965047517396767
0.729049718034571
0.7310731002418082
0.7237215745916752
0.7286352970370619
0.7768118155816226
0.7808535464637131
0.7000016083036538
0.6606119762779304
0.6532574867390204
0.8466274631090668
0.8607636943037501
0.6885124632738209
0.6758837854768827
0.8280936897012445
0.8022415539328724
0.7125864658164698
0.7157103769726422
0.7872685857430402
0.7907893777126873
0.7841870211346429
0.7942555282733573
0.7873024065395803
0.7973655863665594
0.7900888786296325
0.799719038827454
0.7920365715926403
0.8014810885534408
0.8092644858302727
0.8112915630693774
0.8191873629904294
0.8212293955362311
0.8291850621359541
0.8312726912339203
0.7937071479027813
0.8226052891669384
0.8329769395308422
0.8421189712941037
0.8440624810495212
0.6538626317291003
0.6558844711093941
0.7007617147784495
0.6920905937098324
0.8342355338602702
0.8453117074691865
0.8557238953218337
0.8569682596510362
0.6556953031849724
0.6560390759795752
0.722452724230314
0.7306907592260248
0.7255968152054003
0.8490819788750253
0.8311178332426769
0.7976615833541326
0.6193779122451027
0.7366869507264744
0.8678420968491553
0.8687657436570122
0.8575359211881693
0.8695178743896219
0.7224598248001595
0.7373591437846111
0.7416464130380886
0.7041610543315558
0.6960561054924557
0.6872232399982928
0.7328674643004798
0.880229249532536
0.8811560268678802
0.8688580876875408
0.8814161009529291
0.867491561176135
0.8791330302219722
0.893110513736871
0.8903001673446117
0.7351752427820892
0.657146418916662
0.655472304623217
0.7944397821511068
0.8510230603235753
0.83541124169182
0.9024703348719494
0.9019402584900134
0.7235925913275737
0.6921346711459633
0.6824960106800009
0.6374662970813494
0.6903569039216159
0.8045944698319383
0.7486485871557593
0.6732105129839595
0.8518228456836316
0.8353726127216988
0.8057521046586524
0.7376550977338259
0.8577327679319882
0.6607454206902988
0.6974577626934126
0.7497979533966045
0.7464815532459292
0.8648481988503565
0.6859512946003402
0.6765222617829746
0.6587149791684446
0.6557961264530473
0.6972953629571145
0.9140810560879894
0.9115995416782291
0.673245574049257
0.6679749568465572
0.9151449429776035
0.8004669636745916
0.6702228719272493
0.6621490518299317
0.7803743710775315
0.8071361968708982
0.7758732057911594
0.8348159638859747
0.9237303670724883
0.9210577669065332
0.8535927467163559
0.8504812756276459
0.8107422349318788
0.9083530639726703
0.9167845848767832
0.6608996605158293
0.6561759274950641
0.9288628692163128
0.9230871758628947
0.6639473632188339
0.6557838684837511
0.7640536218988656
0.7654396390492914
0.6547703604455939
0.6487874142459675
0.6486205274305384
0.6419918140263982
0.8071145989129369
0.8315714262487793
0.7415465030377388
0.7596186999018025
0.7198715115155339
0.8063643685784515
0.9331781844817618
0.9263273639660146
0.7041410149729502
0.903749940002796
0.8266325263271583
0.6429381834481303
0.6367805277696194
0.6359959915369544
0.6299243833670353
0.6315773687542078
0.6253756150169284
0.6295341303366302
0.623734174223543
0.6315290287639866
0.6256824879313583
0.6358247817336993
0.6169879505142032
0.6224036505463061
0.6622338287171996
0.6689238196505013
0.6058975562348345
0.613051706215031
0.7200884450348801
0.6706697267606614
0.8396693807436479
0.8364146622581262
0.6559374814278603
0.8158664635778694
0.8191492816958393
0.8465911963075484
0.8323640654426194
0.8073318647831987
0.8232517098530471
0.8289621120527773
0.7448892104094957
0.7680163757020148
0.795442086656621
0.8000498713166636
0.7901139705686854
0.627638515166124
0.7816171028177069
0.7900431907407813
0.6744471012899139
0.934647367591987
0.9268015484723203
0.9195671727803627
0.9197493980774399
0.7418090808859069
0.7597771943916609
0.754537553257694
0.9406720188899192
0.7076757661298806
0.9249029330541578
0.9173222941637255
0.9114442620866084
0.9096211103933384
0.904285489238766
0.9026867476787153
0.9062048127453168
0.8988160328985464
0.5997534558741338
0.6040022045303117
0.6235828504720189
0.8223883396315858
0.8278344997781464
0.7935662258116785
0.7835771809706531
0.8137282245830354
0.8105757929040078
0.7209974310558879
0.7140510440649771
0.7745424523360038
0.7735282724088689
0.5965690471273286
0.7225822155648643
0.716711592442559
0.8148079467333298
0.6348155452065363
0.7399241448320141
0.9009934425692768
0.8935844724096124
0.6961831534974664
0.6900633231021491
0.7420437462284472
0.6537546706111772
0.6722012269007308
0.6813264138185527
0.6350212838315852
0.9218032890347045
0.7741364707137641
0.8660857208268518
0.7408826873698939
0.5892618509456047
0.5960696736415501
0.6731263876942669
0.8424054400881866
0.8276024739285066
0.8024826098462576
0.6971657684111606
0.6926576368953707
0.7002653559942608
0.6967561555976145
0.6927875069428333
0.695002316000163
0.7013851799027161
0.6982177837311271
0.7077538756002051
0.7064785867444334
0.7149922795657218
0.7128720492161233
0.7232051719343219
0.7193119397618498
0.7263587888753407
0.7281548273575584
0.7262508634629105
0.6938217139200403
0.6652174678412728
0.6667016735563732
0.6756369323936464
0.73535570521654
0.7315961213755489
0.7371685651294371
0.8783392541605056
0.8763162039359557
0.8881655355483845
0.8861687318938594
0.8972086744811198
0.8951875867489895
0.8837474545732262
0.8922240124315497
0.8800638477888546
0.298958142908177
0.9059854473761668
0.907973225437753
0.7213332922550754
0.7844112782028757
0.7858374313860458
0.7766584344883256
0.7775927188510441
0.7686140131927125
0.7692053502514551
0.7779848240309298
0.769393168459265
0.7785040861461959
0.7685585512339634
0.7774077106126909
0.7607170633455503
0.7603548017034568
0.7599202893581183
0.7869328830759866
0.7862750619186037
0.6694422943015106
0.6823885099686883
0.5589024938089558
0.8349800178625899
0.7703521000049566
0.7661460078634935
0.647127958625587
0.6641478869645312
0.9038968600592572
0.7641318905349658
0.7983608297038559
0.7968696075985087
0.6938613816250218
0.7871054499608413
0.7769426136197176
0.6507196003151254
0.887042137745926
0.8745226578876869
0.7730145472732696
0.7676948617877585
0.7629477523091054
0.7587131363026488
0.7634389544832528
0.7545496852238515
0.760464837849431
0.7510809094662517
0.62871140532531
0.740356079721206
0.7951037755863881
0.807180409313783
0.7067537366665106
0.6891205497819495
0.719331368800151
0.7071788934481062
0.8310139497540562
0.8352857078060135
0.9405012304671448
0.6355057445550706
0.7357060120001482
0.7944385443919586
0.8235488490589016
0.8965276176731274
0.7907366409517999
0.8913932719147838
0.8853062673602868
0.8864156655293152
0.8772339876737362
0.6994771316282247
0.6371210006637179
0.7676141379446663
0.7141865748412668
0.8227588649693214
0.6786169840887639
0.6846920873490572
0.9468267702684612
0.7536497066628535
0.8253662192463256
0.8285732370468007
0.7786489309194807
0.7776021837568454
0.7868705325573904
0.721132795140704
0.5759003776243786
0.5854560324784757
0.6106887810711168
0.7435161402787237
0.7604546311400946
0.729915362716767
0.7572185348920388
0.7387890680637593
0.7356502978613549
0.7811579861389839
0.734935230534125
0.780767330540443
0.7764506217183569
0.7613407925749763
0.7534415917099885
0.7603621208161855
0.8665121635476173
0.7458122150070372
0.7413302164212614
0.7469441228001262
0.7375324618314876
0.8796728049989772
0.8719806015614968
0.8697954634988012
0.8615963173217878
0.8175213150605721
0.8121005413003772
0.9160032524372176
0.9179569534365838
0.7515011818410441
0.7515130443981926
0.8236812577753073
0.7416075890859039
0.7324003173634405
0.8296072605999649
0.8198040387526303
0.8342328943915898
0.8215218503054241
0.8418462874127989
0.5727935760543043
0.6396846272937504
0.645749044654384
0.6877616493321078
0.6986986748924893
0.6894763020498531
0.7114039761300827
0.7010861927390393
0.7247576528036539
0.7154482520109374
0.8025349262363828
0.7317735866798317
0.8939324102651708
0.9461306043201028
0.9532627551031874
0.9513100672998943
0.8816757507187766
0.7763500176468406
0.857204814424703
0.7711562760810843
0.7520205436679868
0.7131777061707898
0.7753477362098403
0.8246252508083567
0.8242136932084394
0.8989158032884907
0.8694911767613152
0.6588386606381246
0.728845554301168
0.7326712706886693
0.7358397027080066
0.731764301297727
0.8604751710791757
0.8919147478180163
0.8149240167170678
0.8045430268115887
0.733658192627254
0.8377066399166638
0.8946962922027288
0.8895170365957775
0.7924154226711566
0.8085619306313442
0.6879625817589802
0.6944912144461762
0.7414039890677406
0.7328889870606218
0.7056858966722882
0.7234357652844756
0.7516780221558212
0.7431215541945009
0.7702073812536773
0.7627487760962641
0.786079201580148
0.5641352886280309
0.8183173237840602
0.5762649256426898
0.672610152381406
0.734235641402224
0.7948991313004756
0.7993488269212654
0.8415700312058961
0.7787890189806265
0.6301472754275395
0.621812353655945
0.7514170502956625
0.9470609232586986
0.7908158176245502
0.8477964410285691
0.751459205934061
0.7584994541352655
0.7499684936663216
0.7563791144213206
0.6691696108021103
0.7483519759887228
0.6768399213360724
0.9255034065511935
0.9277421576552211
0.9207097022705956
0.9307746517784983
0.8984005521987322
0.8836347099113759
0.7232886685072262
0.7312344695510561
0.8205928227813395
0.8413543239356598
0.6635314999526177
0.7370314505152044
0.7275347032349878
0.7255099412109463
0.8656262403751994
0.7951276096566321
0.7232080227651865
0.9386254051561173
0.9423494196934825
0.807350412069268
0.808570702159437
0.7968611322249236
0.713852607691911
0.6442029647480495
0.549629031213297
0.9221882246959328
0.7804996261490982
0.8764712575217333
0.653178478158299
0.6951731303091984
0.6374068316461537
0.8556298098292289
0.6709969389708754
0.6639117227002378
0.6694407428264141
0.6626699321613074
0.6670164013046758
0.6577213607326818
0.9589051991654084
0.9557823571563274
0.7787071215459014
0.888339627343668
0.8368047933814502
0.8334692883586612
0.6963003613309824
0.6955798272617045
0.6812404363709895
0.776288906675239
0.7572349564303154
0.6974038333282448
0.7030516655833836
0.7005662252576201
0.7055059303084925
0.6908842428523886
0.748547862215943
0.7849217763447843
0.8309717645249411
0.7613400312287795
0.9222990516383605
0.7867751997129823
0.748272161727628
0.7270649335022629
0.6897440612100908
0.7307128533617572
0.8021689607677563
0.7979790559241569
0.647550536042526
0.6223086574097765
0.6139094083004177
0.6153178358671251
0.6675954454228827
0.5636381582910631
0.5972780901852048
0.9500651555726379
0.9508608903592282
0.941224814022323
0.8728168817167352
0.8771641226132849
0.8498883448786453
0.6569853936110499
0.653507083251394
0.8074254843291273
0.7301766302749593
0.7299853252938422
0.7226425464264535
0.7172783889465644
0.5459193515681214
0.7243139991392799
0.7158921318224309
0.7068435119460399
0.6969611107721455
0.6921145154568341
0.7041658515185404
0.8144238945676758
0.7438741638476858
0.7433919017181269
0.6150923802801554
0.6057783351681604
0.6924364395272239
0.6945495854454491
0.6977601617393389
0.7022656683691624
0.7034137087616052
0.8649684300747781
0.8581280397335513
0.8723385463899406
0.7869765403370406
0.7550525838545296
0.6839505227609414
0.8077998659660592
0.964703132652177
0.7845462916615971
0.8574159800617328
0.7023668966675827
0.6904866451187505
0.6991883039144352
0.6928909611826541
0.7003363880446767
0.6978382045169784
0.7046258784810385
0.7038149655011682
0.710773406476011
0.6855081790725766
0.697425900277578
0.959600194947047
0.7122332830623989
0.7583899278773963
0.7491315213721248
0.7803734761740896
0.7438550665506
0.6828948513926951
0.7977014302013453
0.7220046455611066
0.6291065250719206
0.6608040737705796
0.7066612067312795
0.7519297946724962
0.7508153712538341
0.7547194672678392
0.7456427078380107
0.6442074311937013
0.5313313416207571
0.7058046132871609
0.6918571259084235
0.5501795124404467
0.8753316251489605
0.8681522397094444
0.8767032091629534
0.860396130038826
0.7046810937265318
0.7956466834277615
0.6680279855275357
0.7992293004239883
0.7877747114949453
0.7378220605718859
0.7181218831397315
0.7952424502791179
0.9075618875205377
0.9003860784892048
0.9083554235678558
0.9015658090332089
0.9083860716164416
0.9165940049741441
0.9303164462255197
0.9459004292927783
0.7232657054053496
0.8639562782923351
0.7329387763549257
0.6807130273803197
0.6876776839190611
0.8954906315318615
0.8960417296561592
0.8880504492969744
0.802455477682689
0.8229943474395235
0.8303044697640344
0.838924423699337
0.7267338786786168
0.820653539361286
0.9125047331451319
0.8711451502965708
0.8444440977997045
0.8337886005075462
0.8493073090223378
0.6832418238369474
0.7692430929437044
0.765328812829532
0.7736240022431222
0.7716506827622238
0.8701307641015797
0.6757425735072816
0.6587324357507603
0.7326966778759537
0.7549810235521347
0.7713423813376372
0.958259852123504
0.9673771045899527
0.8144985755884994
0.7066421750253714
0.6605632026598122
0.8853548547142139
0.842507595193115
0.7708035300858347
0.7404906471841155
0.8511250535655428
0.8876021159781703
0.8901843255665147
0.8216524254737023
0.8486561064236602
0.8257088352960864
0.947804476881633
0.739640464930117
0.7750466548045317
0.8097818022260436
0.8347251605001411
0.9317393050423671
0.710306130776927
0.7442337723979883
0.6509027285468777
0.7067693182689909
0.903930214688
0.6556240412074439
0.8573174226754255
0.8899631277996054
0.9183571805222858
0.9263645011218001
0.8875391739054665
0.7917690492890896
0.7067521651563963
0.83500081189491
0.7786762812622237
0.7387284619970506
0.7342385052347835
0.7149341537093774
0.67545977705049
0.6879769888470237
0.8089722714465278
0.8011006664122163
0.8567446584810922
0.6429948407511891
0.6518024133966526
0.64753630233251
0.8596748932516266
0.8076785543075821
0.8126710536541932
0.7508030907608712
0.7545462094442156
0.7672104669143229
0.7703011988052827
0.7864766680205837
0.7593746623579224
0.7497870766783491
0.7410332998738494
0.7297909156891536
0.7444703069101977
0.7194023200718931
0.8532969125023834
0.7600386131349728
0.7686679300588448
0.9582673944876601
0.7853381446002923
0.7830064463858336
0.7737623499367683
0.7674166014227177
0.7775121591531088
0.7651427960209254
0.7651004520801125
0.6730679139293831
0.6714919166967178
0.6647127278056769
0.6688679651518937
0.6757215988958577
0.6715265622350086
0.6797638904914313
0.7335262771799846
0.6766067509951132
0.6842230896614957
0.779937365219425
0.6679431835627458
0.6884018572252889
0.6630086967918151
0.8744781385543463
0.8807743511839377
0.8654443281627849
0.873513644039482
0.7875540652803772
0.697272129400585
0.6742572690955722
0.6291224142569688
0.6392781804679857
0.6485284700441212
0.5820458661565351
0.589536909849608
0.5167008526533178
0.5423938354363317
0.4955781276455136
0.5290785525171858
0.5084261257689747
0.5343902460988363
0.5294572246950483
0.5473530617391281
0.5543706869478677
0.5638336275086753
0.574071728330741
0.5826072231631336
0.5944551715150794
0.601246371516215
0.6135320249287857
0.6187205203801251
0.6306424562936104
0.6348792996028898
0.6222437050452169
0.6374827041791381
0.6488658307488258
0.5756944008299335
0.627703009360174
0.5918954537615423
0.6030774069271292
0.5412746094333888
0.6267591421891527
0.6405514533425432
0.6518616626958381
0.6538652377331887
0.5574064790571559
0.4836124301796031
0.6119554027445775
0.48721366364694835
0.6648258060404476
0.6656748906347467
0.6548254188544822
0.6187641772199297
0.60575778720419
0.6637107546571764
0.6760347102274097
0.6756883574014193
0.6033332184725249
0.5266545476048098
0.6659838204335837
0.6566393678782346
0.6462476394312983
0.6478997278749566
0.9280223197551905
0.9183065450378397
0.7199150915329942
0.9127587991678104
0.9244368368561634
0.7549158158565388
0.7639487508105994
0.6901504960934118
0.8024701665850721
0.6765298553077065
0.7173682106713541
0.7148909011324601
0.7183597715278621
0.7833264827391274
0.7044397270346988
0.7632402613498218
0.7614360513103293
0.7315556629585422
0.7083636345223279
0.7331399361338305
0.6955696997759422
0.7578016938910263
0.7109400038031191
0.7178947854726736
0.7176756621910264
0.737387598830137
0.7453179692695302
0.737365623127035
0.7446408537335062
0.7363618218807433
0.74373301433846
0.7354733855681242
0.7424970629723541
0.7509842795589545
0.7484322654921348
0.7852737021337434
0.776957471614453
0.7783581746487382
0.7686724942738822
0.6546255502781875
0.6081009489692258
0.5996428057933982
0.5971747947723834
0.5901206348152889
0.8052398214253724
0.8003532007411638
0.8163628506988948
0.7325335696882748
0.6986164533230638
0.6923125116816162
0.7468360446513653
0.7548750150948
0.7198566804194692
0.7094823012995
0.7155468452275793
0.7015439871087249
0.6793440323640313
0.688121670605821
0.6646202880517956
0.6702973616405888
0.6989716951221618
0.8044210232517651
0.6689978948501067
0.6258304663234615
0.6856006113652012
0.7197270103823429
0.7423851341223021
0.8825803435783157
0.882565381453741
0.8736222926910491
0.8227449780741737
0.7882016438865437
0.7094537584630504
0.5059090524198739
0.5062731168100604
0.6584775774221295
0.7630780468207499
0.7843879539176604
0.8838660993061894
0.8929227840883218
0.7768405661247003
0.7968777252076773
0.8059463597925544
0.8303521732374112
0.8175298125834592
0.821119004336398
0.7437774768770307
0.7534068299032585
0.7628226311377677
0.7520828319141976
0.6533300830172616
0.7537634271603241
0.753571824577677
0.9165013317828123
0.5908556690469972
0.5797413196488608
0.5836523285985197
0.5732612503403764
0.7032467283114193
0.7276388695358657
0.7291964752522879
0.8412555582912775
0.7358594298506168
0.8099869015904817
0.7980579911883691
0.7902146956285887
0.7748423191870875
0.7732963492995828
0.7861779152776126
0.766148493558808
0.8792020960916052
0.8775978850184113
0.8629772791297413
0.6763440200125022
0.6743311846145488
0.6503285476210876
0.6546945619677492
0.7743234607103056
0.7657939058603679
0.6691291201593877
0.8097282001549189
0.7713937083200252
0.7616227621648526
0.7010996881215807
0.7095965719413061
0.8541284351964392
0.6528634556242777
0.6546580079833704
0.8853618473522096
0.9425378915631999
0.6407358604183029
0.6409907890289955
0.6840417363726582
0.8822636623277741
0.8673626801913478
0.8433894902750264
0.7784252723198345
0.8765322042598754
0.7297881061821464
0.6556174131558181
0.7370855085753453
0.8092622712439321
0.7637645526233529
0.6495569864928994
0.7068303869205119
0.8664717085760827
0.8670003674608149
0.5274849776472893
0.9610210304194611
0.9657796416306477
0.8011824410858397
0.8090468385931865
0.8104828766197144
0.8178935725277958
0.8097230832268788
0.5977921572256193
0.5955223709421809
0.6752529507779889
0.8150351200571893
0.7576466272010784
0.8295183691569374
0.8799450584267463
0.8907378668341779
0.5706824959104826
0.560317836530919
0.7236189836966307
0.6474799219283035
0.6424687649424855
0.8641371917862919
0.7239656162889045
0.6916359991810422
0.7127234060521666
0.9698606550148657
0.9736580936353761
0.6932800914751831
0.6891705388794979
0.8178696728229529
0.8368100897272263
0.7337805640552165
0.7272848616068901
0.4755766285654743
0.9685533068838296
0.7286512978070444
0.6171395944704415
0.6266267792689151
0.660374872278801
0.7177785498887562
0.6848548124206825
0.6748857533204297
0.6841291945669752
0.6758246715374403
0.6839059799007033
0.6747511911552633
0.6663889427874685
0.6635546317680603
0.6530557384189898
0.6535449158137623
0.6844988720410593
0.7963417401150655
0.7268393811523465
0.7298050803153877
0.5637297549084954
0.4149546711325158
0.41013243661877186
0.5351463991671253
0.46588198927522506
0.4386035266692205
0.41689358285639166
0.39564698553290123
0.6585612601539276
0.6460977469634512
0.7238967502679816
0.7107682049261308
0.7154549726895278
0.9117514582599174
0.9247538530835632
0.7116243228095711
0.7151765417238978
0.7067368799812125
0.6250784996947504
0.3481471655290563
0.6633794244030153
0.6515381467840919
0.6406974782742494
0.6414337218516054
0.6270644341558873
0.7245610285920618
0.7309099077780086
0.4566111486614765
0.8459341971400799
0.85836705329055
0.8006742990064645
0.7188473016503122
0.6311271439564813
0.6277067309524256
0.6960168872704172
0.7195865261059109
0.8357169423562315
0.8199256389727448
0.7168293417392975
0.8247190250115511
0.8298578919354117
0.8402935346148399
0.8455537853834694
0.7110230366232178
0.7335435517839364
0.7150060825547364
0.700360266195008
0.7595215938999638
0.751756395472197
0.8518259798396501
0.6600042134735263
0.5908921005264908
0.5109645732699082
0.5300357939026714
0.5573738188539288
0.5586300520454218
0.5807639570099035
0.5319432852980999
0.5853446389295737
0.6020739864750015
0.565220910765464
0.7679436862127237
0.6035934441502713
0.7355722169413459
0.6870438913986645
0.8464088830247638
0.851712339368972
0.499135298910245
0.5002280988110301
0.7759735533000515
0.9247737236493093
0.9316598094962593
0.9350148973922873
0.94007399334762
0.9430826721435284
0.9496033442400127
0.7209146455388773
0.7324249492053169
0.7370137839513434
0.7418086204770834
0.7439926635333439
0.7446323080352244
0.7483242029740853
0.7427153508497223
0.7431142440874375
0.748614712319298
0.7424413521848567
0.7554343969535479
0.7541019530415489
0.7611903777796194
0.7447234573886344
0.7287308657909071
0.7579932743731232
0.7340320596259926
0.7490386538277874
0.6826174361946055
0.5794788484361398
0.6445146209807328
0.5275080778932063
0.5351645088856197
0.8482713539540245
0.7864226861130468
0.687500053113318
0.6744942790899684
0.6766792557700464
0.6737185061550338
0.6828931598469656
0.6772871579472635
0.6823585155887698
0.6759729299779786
0.5606943466916718
0.7650570775909536
0.7095374414935186
0.7262528087736251
0.785278353141233
0.7736916493258341
0.8031643666336192
0.727685345125557
0.5867414421919568
0.5893269639599789
0.6003946631457094
0.6067092817857674
0.6162855762935215
0.6108322088605496
0.81843085962235
0.6563935608037139
0.6540518437293632
0.46064981366535696
0.7694314489265982
0.9403205986049818
0.731850020673814
0.6333938062613415
0.7468255491676435
0.743699837158158
0.9272881287172949
0.738187168815113
0.7286171792047546
0.7309000635920225
0.7239243856594216
0.7266792654477634
0.719471017244728
0.7160758948535763
0.7216539842324787
0.7313057560569692
0.7207956448190908
0.7180913197659388
0.7333207466818282
0.7124313351420547
0.8229629617239528
0.9025613709087049
0.6907504713817384
0.6963915638553027
0.687018941610306
0.7073695260277054
0.6205215475091292
0.6023307429989089
0.6184673512881947
0.59904898932686
0.5818347144231399
0.5789986443799519
0.5944277230314781
0.6433371454411165
0.6948185331258053
0.6142516516445972
0.8003999372679914
0.727613708570917
0.818453147999401
0.6191990497905455
0.8376915844151456
0.7813517484264606
0.787497597377977
0.6513561014583077
0.7163695185850154
0.7236969260547826
0.7073627788089814
0.6977250135998261
0.6721631035750857
0.6115696675674183
0.950500781618135
0.9178695315996145
0.962139139935712
0.5701627103838292
0.7975126558447126
0.8142565597290409
0.8341621073910704
0.8952139948501524
0.6894130399462401
0.7130311256216777
0.776978790380131
0.6318462223640086
0.6380090902459966
0.634420615003914
0.6582041941776312
0.6910318088758868
0.7116751917901332
0.6492900088198441
0.6626827645671862
0.7879178516917545
0.8124185964002515
0.6884769200942382
0.7224482424233961
0.6732760942700496
0.782377507066074
0.7511868729680357
0.82981022021842
0.6625853703059817
0.5387706188864307
0.7889144418755983
0.6318280375888656
0.857336368719523
0.7499455173944656
0.7246483948761111
0.7301433092819839
0.7197953828733349
0.7095635281932352
0.6717565747769461
0.6300107828607021
0.6535591898881895
0.6826820909202344
0.6796493466592064
0.7138730332154828
0.9247159603344853
0.913399239935282
0.9147045480273359
0.9076412076126849
0.8991301002281672
0.898559044989527
0.908174164980515
0.8589198169490517
0.6922547320488098
0.6678737985481298
0.6725415100769699
0.786910121895126
0.847456060787641
0.7580290616729223
0.7515224655529904
0.7595303209481133
0.7530489275319693
0.7520425277743626
0.777256290222591
0.7202408933751475
0.6463486742397447
0.6327412807884916
0.7405018216917072
0.7325015534623632
0.6698772235862324
0.699623104372378
0.6939443405368807
0.6843616578432504
0.6861374642591549
0.5528914163938571
0.3892749755973732
0.9653919283978685
0.9653542323945108
0.958609403979303
0.9716830501773257
0.7376227144235195
0.8912822220822558
0.5226939817529324
0.5684367360635639
0.6917946514787906
0.6864756299548771
0.6976158654377717
0.6786435402916056
0.6711804330303516
0.6041163438055888
0.7069485960745882
0.8041028247669354
0.974472269637421
0.6924394046463458
0.6917311862264146
0.756899663040516
0.9129680049708299
0.8111031039706094
0.8175177980096371
0.8011437256682282
0.6954529671885463
0.6877708960046026
0.6794966470639351
0.6820459510547965
0.6664610422668709
0.6727825669229216
0.6498330412427249
0.9704420609113307
0.9274822312238514
0.9278744908058553
0.9386023906202267
0.9373911232525787
0.9464438980790761
0.9356112369735629
0.9428842950869507
0.6229588072978753
0.6564469143776456
0.8434690183421478
0.9565986576509131
0.7697625187775197
0.935990872193227
0.9437789078520626
0.8687536200924201
0.7778999120927781
0.7695652314929907
0.7557263156411935
0.657383825238403
0.7603838661514769
0.8766192678639132
0.7288194988616802
0.7314207046214088
0.7383653278450932
0.7245373264244797
0.7341831153021071
0.7346408934853967
0.7288400816622521
0.7217004990452207
0.7706548503420741
0.7424218562936347
0.7391019383103675
0.8533646650059111
0.8158151405301921
0.7140899323134875
0.6545025655819822
0.6429185849068425
0.7154164418581297
0.6799337277548725
0.684430623085049
0.6944586278235907
0.8846376970074122
0.8948894147698897
0.8980972344116732
0.893779529980223
0.8880566676141155
0.6765344785925194
0.8337234479196082
0.7720361308746807
0.9030018542012768
0.7881450895789754
0.7051267573305638
0.7597392656697483
0.6493161707828139
0.7733693372846825
0.7839448897403981
0.7507336364693433
0.7972050780443269
0.8420174070252233
0.8440740086016776
0.8554988446469691
0.7387605631771647
0.8071993277067037
0.7293092962415958
0.7112231167068042
0.7197372031268928
0.621477369049734
0.7235429975508223
0.9529921809080641
0.693979738092372
0.8539337744237685
0.8514888399327848
0.861126416378452
0.8483038413631405
0.8573329675156491
0.8739818949718073
0.7632337481853877
0.7705985309751393
0.7678126487157305
0.8208902144776539
0.7468886403302513
0.9401313334543697
0.8009872448951545
0.8397116047285577
0.9376215656978286
0.7523466283834136
0.727478078241135
0.8136179586988226
0.6758052528294217
0.2837968537146712
0.9331407981749813
0.7200511340870065
0.754296021586361
0.7703188316384177
0.7268711173247425
0.7420580200130658
0.7094361189808276
0.7395473233899204
0.8222936419626795
0.7529974035791558
0.7457414065491885
0.8038220954593264
0.778783337661986
0.7674050013322712
0.810106004786591
0.8628396161649692
0.6967111760761366
0.8105528882351591
0.8008800385311167
0.789206335250228
0.7816328937895882
0.7793701303849787
0.6722294411316116
0.7519133669590102
0.6302999633257597
0.6994261668753462
0.6817257506828329
0.8052917822783323
0.7627674990625994
0.7932142410673159
0.7864910561221682
0.8446544926689044
0.8462708234540495
0.6639104807019325
0.5869180231657498
0.7299792307856406
0.8031006017854853
0.6650231609347507
0.7779702105077289
0.8993172683054398
0.7326846409181182
0.7313778315572715
0.7397090554300957
0.7271693588859587
0.9362432035142929
0.6504366366440962
0.7421432918103226
0.780168586242832
0.7870252347981118
0.9050864888423464
0.893270533393268
0.8795968773877013
0.7608343796254151
0.9618494604332924
0.9799853321940651
0.8586880801504865
0.8903739173312291
0.9542437103764517
0.9582586290266999
0.7804206517295046
0.7341680889216852
0.9732358256053075
0.7934522152852329
0.7235793747861184
0.7448547904941272
0.8916382154101405
0.905051468750315
0.7447531489517485
0.8124321992481495
0.8610778885857933
0.7077821163142234
0.6581905342664178
0.7655581819464389
0.6962265881089164
0.5564454978291709
0.7522226076012565
0.8332797617410602
0.5504073601632741
0.5479514973460047
0.8142924478499128
0.7688264913143056
0.8237307238498349
0.7284041010807257
0.9128757817311312
0.6405673479469978
0.5739186688513902
0.6535689818898464
0.7824796613531633
0.8166357356481354
0.715056563835765
0.3838596336035228
0.9383746394194087
0.9116581472217368
0.7285689678212394
0.8611404320292978
0.7677084240065346
0.8527894492807058
0.8688564236360203
0.8479872799825628
0.6947256124821785
0.7260560843206928
0.9552660778612875
0.8130425197443161
0.841621061044549
0.7193750991606558
0.9506842333955269
0.7898916859074013
0.742873858686643
0.7220101800027886
0.6609697326636298
0.7456379212771169
0.6777578025009015
0.8221596426402141
0.7448774486489173
0.6573925678702165
0.9124182612073012
0.6733936281101931
0.6663212839982767
0.9331042354534786
0.8460884006523518
0.910229025351825
0.9160976677287161
0.7512068947860889
0.4584873194998842
0.7616633001615754
0.8457391191763289
0.8505933423868742
0.6307166419553574
0.7497797901492441
0.7902988226172308
0.5360159488139412
0.8758634241433577
0.7216989496024271
0.6455984637998492
0.7380770277651312
0.5943596968590792
0.6202443543957968
0.701726596001166
0.8106996982347247
0.686822389424368
0.8402508424995138
0.7402780274753379
0.8674690166254764
0.841127112797847
0.7274271763021372
0.8986225632100563
0.8476910390726169
0.7092015407292384
0.6586955503373808
0.6486559081248271
0.7164224875142511
0.6661671513951266
0.8572168932406822
0.9165569858378755
0.44588909791699993
0.48867666403048793
0.515931499318972
0.6368691555004518
0.5450501348820077
0.726221783582481
0.7868475885318811
0.7804157041025721
0.6346176585686764
0.6532211574109335
0.6610282646369339
0.6855715708777422
0.7428266361245086
0.8052866114622462
0.7462009197931891
0.7570002632742685
0.7400830305408286
0.6193938438846744
0.5818483994703704
0.7170032126515307
0.7355525914004453
0.9658310098325142
0.599513470715848
0.9122774641158236
0.6602187705365994
0.8657521605077704
0.7416788281627897
0.8940250220874506
0.7388702970900817
0.701180412356768
0.6601614287405392
0.7795180993349958
0.8128822130720597
0.7945037626818513
0.9034185154098271
0.692388351261323
0.6441121325112683
0.8229510878721367
0.8953806896801304
0.6671619602321516
0.7996421029905724
0.7114172662587614
0.864610161716006
0.7675737315773865
0.7762937582168261
0.6264439451232119
0.7568946420475804
0.20901138703666472
0.708154696945636
0.7489339734294796
0.6934720210545369
0.6806317244717802
0.8439813525475233
0.885098849137849
0.6785863675056236
0.6211040560507546
0.8970889398626601
0.6439207871736365
0.7833894593722328
0.6863375703699791
0.7440634184005936
0.6558347123770986
0.699977220886082
0.7675208090798236
0.7129064419470018
0.7020269099178844
0.6039891701193648
0.6262695753023036
0.811666838216046
0.8724220834756603
0.6952822103154607
0.6864447470695341
0.6065708270112615
0.8708283321678099
0.7431531133076276
0.6629930532343108
0.7418700418765072
0.6937077966701534
0.7728080298996011
0.8125793596570153
0.8041278045516541
0.7714983940628495
0.7976211967747114
0.7493644226324192
0.8022983840960312
0.73058433936407
0.5635887143812528
0.6556178923292137
0.7002360112058721
0.7499189257600138
0.6384532459844257
0.87909169661241
0.7243618336030535
0.7358540348397544
0.8269051187686337
0.7967993148507624
0.6312845640247073
0.7369208524003812
0.7290894320468729
0.7955391401613451
0.6555930944416009
0.6931708783722303
0.44717771660953104
0.7903990186376119
0.8596535842093502
0.6602582382415717
0.7956430673606746
0.6908639318447494
0.8371598005141325
0.6532931763082005
0.7067370011316657
0.6657256606621682
0.8389406847908555
0.8055416353329734
0.8132996549784761
0.7150767798151214
0.7679347954362775
0.6899291993876543
0.7618180128306817
0.601493452960425
0.8323462401011675
0.9013623832760305
0.6969573895989682
0.7434738116052716
0.7872870854640744
0.6998099764089075
0.6445556814743499
0.9512119752727598
0.6486385419839799
0.7958993722850882
0.6367395037429905
0.7699433527966157
0.7227835853135841
0.6395313096983697
0.8322690081286058
0.4687764361917101
0.6425077336671926
0.8496365872287152
0.8072868698282752
0.7593714550670762
0.7258333320055432
0.69650105694664
0.7772578812347123
0.5927709726899755
0.7366210499700163
0.7673397506257589
0.7962476592900373
0.7690274614942909
0.664361044921543
0.5600313372695103
0.8673121983954479
0.8840306417986965
0.613430248713358
0.738109419362716
0.7484199946031623
0.5194182148936529
0.6575760075319053
0.5046460257693554
0.5230317144668094
0.7147111280673766
0.7518183421900795
0.7149776996320201
0.9330608326378124
0.6407058641711076
0.9799786231626586
0.6635442197337839
0.7668272299441347
0.7745271255980973
0.6310018878178119
0.5862419704712276
0.6032149752469405
0.7082786093300585
0.8458068245918368
0.7949019405994356
0.7492459749136294
0.7383734152193029
0.7501319828516132
0.7492528293972202
0.8339198521297195
0.49315459313662613
0.6413053541103971
0.7384763418324062
0.6061160758258116
0.7128808362838651
0.8048090278044805
0.8156330491613462
0.6859733024394817
0.7792378705421983
0.7758617321757113
0.7054676909337058
0.7144238527417315
0.713604389700024
0.6930286562895578
0.8894590548539552
0.7658426518662393
0.615843817413327
0.684454021137263
0.6686221293852057
0.6653084121500504
0.7551969973082396
0.7742635409404038
0.6567328648964827
0.7790604847716983
0.7296906395317724
0.9103797382775256
0.8625683466397888
0.5757005092526353
0.7599348453240172
0.7165595418587626
0.6392838471084077
0.8700399829709953
0.7113939152375431
0.7492668198159893
0.8223769963395611
0.4867747018111152
0.8115572728913896
0.8835023895874952
0.6919583193357386
0.9382036278001858
0.6493985547971577
0.8695168641175858
0.7645860550148711
0.8033574521218236
0.6818510338107164
0.41370615126245536
0.5913358554284389
0.8241762979450045
0.6985614874671634
0.6188272861300841
0.7170144327064042
0.7222576143582837
0.6555821199865471
0.9231697574114419
0.8559845704185408
0.6983372230718772
0.8897448176478749
0.7147484541948467
0.6889903697098344
0.7841898722905459
0.9030741225826225
0.7579237247728483
0.7471357819582318
0.7172273870578668
0.6860339964493785
0.9657400464930546
0.71619620165065
0.7256377473990402
0.6655953309921618
0.6974020233925541
0.6962731717175789
0.768542604283552
0.740623739517675
0.5811264240843823
0.7967990467772557
0.8590234685911049
0.8802442385266295
0.7653277026706415
0.9528497265189619
0.8274674738129392
0.7204385125222643
0.6795643016353401
0.6465821302503437
0.6598894359557844
0.4834722979954506
0.7197196290950114
0.7045390235619122
0.6138365121650072
0.4692910913771073
0.6541141046935307
0.6362629465118106
0.7346650414657195
0.6530732013975507
0.8035098297930695
0.9022134679226392
0.662972659463755
0.5631889519566089
0.6746992706163318
0.4822768703094772
0.7297944777667488
0.568150102911413
0.7210944724517075
0.8053844668277415
0.5975676827076392
0.7657125716159875
0.8467324381418494
0.7922408098502242
0.7861568655457192
0.9000086733978625
0.8603733836196847
0.8644258229443528
0.7572681618267495
0.7097218490132103
0.7477968738240478
0.7597388731160595
0.6993016639120279
0.869214981516942
0.6556560004030606
0.6284794271472295
0.7257618233539735
0.6661271959443134
0.7917495391864402
0.9910585118850599
0.9935670800071086
0.7812137409241715
0.5870350961432711
0.7735172442653192
0.933099558650827
0.9769959635376643
0.7025989007378647
0.7052917141133651
0.6572414594507806
0.6898824854504221
0.7315295582560762
0.7220460450854026
0.6467746647717877
0.6483785826374381
0.6147712635655528
0.7829507686704396
0.7954664783568619
0.6806965562829982
0.6602271726322338
0.6408936141848597
0.9003708482770573
0.6634861124646018
0.7857645745496591
0.7573509857928216
0.722602318223619
0.7130502165784369
0.6463303516743735
0.7061346278036221
0.5349143861264447
0.7049462567889401
0.7649984490407233
0.9151092335910044
0.7266373283829434
0.7651506066050879
0.6563925638149648
0.7583011428586943
0.6180379178170246
0.7547131068845898
0.7066679446233628
0.85956035424854
0.7019597693322671
0.6691359428054467
0.7973259920442842
0.6919566487570142
0.7063401655963555
0.6642578484776172
0.5603598334956725
0.8854719963569911
0.670922400569012
0.7443702627603884
0.7089538467842529
0.9223340425150791
0.7919209731384684
0.6199636964096265
0.7333503857937737
0.9487755491787814
0.7861789257641574
0.8255966289704812
0.6642404386458868
0.89612433140907
0.6982985774572831
0.6929572278427978
0.5870740782361471
0.8386117295742989
0.7770030960719576
0.7551055360853136
0.9243645365327182
0.7751005888683441
0.7463664809024995
0.944150977222337
0.877171681193679
0.6325441557218708
0.745032939947471
0.8628702917325447
0.8540558215107177
0.9459597176244001
0.5816257896936102
0.7869233141387431
0.5883565393705489
0.6884820159524456
0.7721664349660118
0.7308409376814261
0.574432118380938
0.7454461249851715
0.7628449925659464
0.7192473270988555
0.6621994255405391
0.86867441327338
0.7374115191117293
0.653585780655194
0.7296093850026469
0.7634732538135796
0.843771906841478
0.6969441342169022
0.7095916117439017
0.6055821453033653
0.8735984789296103
0.7353879046757948
0.6741327952470826
0.7032572394015923
0.7978354692980987
0.7702624036170843
0.6506151649867369
0.7201845739858936
0.7862817028409802
0.7344006185277987
0.7067185951176229
0.7353611792754567
0.6918016767356403
0.6522475125686078
0.8728256300195939
0.967152695243157
0.7536124408245836
0.7831895708187294
0.7863612461520058
0.7411684671640798
0.9617066204898185
0.8204125103756041
0.747011368663301
0.7125150001196944
0.745507675271879
0.7104709566564751
0.735940688580385
0.6922400657365011
0.7318848595099415
0.7354427290205929
0.6931851821360029
0.7513464848260416
0.8890304980291476
0.7218995961618339
0.6866267238525141
0.7234453097931959
0.8529609292625738
0.6948219339203502
0.7196149922168793
0.7451134422532638
0.47181624930819716
0.7115321335185263
0.7250617491085904
0.5014005009222303
0.36941254775625193
0.37362268362531426
0.6217432479125516
0.6336876818695765
0.801860094183659
0.7416641500883182
0.8728622321870486
0.7168346962559873
0.6247546150130616
0.6870506413689109
0.9633512269230737
0.7481694727599695
0.7066272523858488
0.8049412667503415
0.7120762283141417
0.6020772497623006
0.8480239145386943
0.6442887700199053
0.7398247714955452
0.6981685207333191
0.6984513309517925
0.8996273096429361
0.6642221617079638
0.7397866525358372
0.6455302282050207
0.7264241722183542
0.7860963487234947
0.8647649173323662
0.9448273796274493
0.9022753771137607
0.6812135972221007
0.7188803920005843
0.5653285974974478
0.8295842254230913
0.7239888329048809
0.5898384822886545
0.7074122529595669
0.659507128552196
0.8304557698590976
0.7220135142605352
0.6313984051193873
0.6145816493707845
0.6113328939821182
0.8497128520993028
0.720289435030275
0.5720706342023485
0.7420116358770469
0.987493405721258
0.7966135259437271
0.6573637982027234
0.6281924657947494
0.6915034201036085
0.94923928679022
0.7031170036801355
0.6995539480998276
0.8610573612774126
0.7958484551821862
0.7923552520957541
0.6754411186005694
0.7673117875353703
0.9753635624303995
0.7251725772925471
0.8364230984391438
0.5332311702689345
0.9382023724219071
0.5662486402751773
0.6434726387532541
0.6141418330504844
0.7158750304510846
0.790280066347753
0.46675343976989614
0.6806112841092716
0.9728539276511464
0.8623661383838368
0.6873945354489689
0.8287787677901767
0.7258103038530679
0.8763208123708837
0.6740201608148704
0.2976540274356012
0.716443566451442
0.7002947450617021
0.9720035984204178
0.8532080124791176
0.7213941629878389
0.8319121600102517
0.9755445296485692
0.6556325860462899
0.8081103775713603
0.6804472252809314
0.5872905230858053
0.9642009679474068
0.7102041951621987
0.9180646819321361
CELL_DATA 4886
TENSORS stress float
-1.2245130388492484e7 3.457910720120557e6 0.0
3.457910720120557e6 2.2589699687642895e7 0.0
0.0 0.0 0.0

-1.8192757435445845e7 6.152953979627102e6 0.0
6.152953979627102e6 9.821022515769396e6 0.0
0.0 0.0 0.0

-6.347304064902475e6 1.8602837375302687e7 0.0
1.8602837375302687e7 120109.69721640227 0.0
0.0 0.0 0.0

-5.147709383869448e6 1.703005569222181e7 0.0
1.703005569222181e7 9.506620752645835e6 0.0
0.0 0.0 0.0

-3.864906184297486e6 1.8945117095482394e7 0.0
1.8945117095482394e7 386304.55185555504 0.0
0.0 0.0 0.0

2.0465713747414725e6 3.8996748909606077e6 0.0
3.8996748909606077e6 -5.122699316391477e6 0.0
0.0 0.0 0.0

2.977181889393332e7 1.6898168781435408e7 0.0
1.6898168781435408e7 6.634605450476818e6 0.0
0.0 0.0 0.0

5.42037814556987e6 3.9808698833535826e6 0.0
3.9808698833535826e6 -2.717032670636771e7 0.0
0.0 0.0 0.0

-1.2166551896355059e7 5.206980981948704e6 0.0
5.206980981948704e6 2.3870235245706618e7 0.0
0.0 0.0 0.0

-1.378816254270969e6 1.5751049533055954e7 0.0
1.5751049533055954e7 1.0712535120461179e7 0.0
0.0 0.0 0.0

-1.7596827188017229e6 1.575111524183812e7 0.0
1.575111524183812e7 -4.942752284236751e6 0.0
0.0 0.0 0.0

-3.31811136819976e6 2.2193697616565954e7 0.0
2.2193697616565954e7 1.3669412090171585e6 0.0
0.0 0.0 0.0

3.73530571402853e6 8.197831887075736e6 0.0
8.197831887075736e6 -2.5398242057077773e7 0.0
0.0 0.0 0.0

4.5919756044835374e7 1.9445919521705784e7 0.0
1.9445919521705784e7 6.993778913270246e6 0.0
0.0 0.0 0.0

-1.7864255871213726e6 1.6160913998231772e7 0.0
1.6160913998231772e7 -4.992530639846094e6 0.0
0.0 0.0 0.0

3.7807115457765386e6 4.609754085144725e6 0.0
4.609754085144725e6 -1.1916185049769139e7 0.0
0.0 0.0 0.0

-841725.6862411839 1.3236129615340332e7 0.0
1.3236129615340332e7 -1.4444598381920194e7 0.0
0.0 0.0 0.0

1.7291025875478974e6 1.1304722648847587e7 0.0
1.1304722648847587e7 -1.873084792507886e7 0.0
0.0 0.0 0.0

-8.269023671362142e6 -4.542137604158844e6 0.0
-4.542137604158844e6 1.562157232122878e7 0.0
0.0 0.0 0.0

-2.472079641054276e6 1.784361066316963e7 0.0
1.784361066316963e7 -4.1295573530802066e6 0.0
0.0 0.0 0.0

2.8551462426676266e6 9.515720895580614e6 0.0
9.515720895580614e6 -1.3680597296222769e7 0.0
0.0 0.0 0.0

-2.6681158175992426e6 2.2050796145585842e7 0.0
2.2050796145585842e7 1.2587945810870666e6 0.0
0.0 0.0 0.0

-6.617086450833099e6 5.4632931712676e6 0.0
5.4632931712676e6 9.973591517787002e6 0.0
0.0 0.0 0.0

-8.083603054272581e6 1.7816146681851987e7 0.0
1.7816146681851987e7 851386.129735609 0.0
0.0 0.0 0.0

2.0840742841784693e6 1.0324092748149237e7 0.0
1.0324092748149237e7 -2.3418921514031544e7 0.0
0.0 0.0 0.0

7.7323865724267345e6 2.771476395553051e7 0.0
2.771476395553051e7 -1.0822480393428596e7 0.0
0.0 0.0 0.0

1.978155679511536e7 1.5712771308947725e7 0.0
1.5712771308947725e7 3.859736109844812e6 0.0
0.0 0.0 0.0

-1.2489659948379435e7 1.1511274177853737e7 0.0
1.1511274177853737e7 1.7187083942618903e7 0.0
0.0 0.0 0.0

4.0065608215229064e6 4.713600918083462e6 0.0
4.713600918083462e6 -1.1972181066297995e7 0.0
0.0 0.0 0.0

-4.234804946973292e6 326505.7832845242 0.0
326505.7832845242 5.62264801892534e6 0.0
0.0 0.0 0.0

-7.978318613062691e6 6.535820880793048e6 0.0
6.535820880793048e6 8.555003245856933e6 0.0
0.0 0.0 0.0

1.5554565174192213e6 7.610348658141262e6 0.0
7.610348658141262e6 -6.910007333730012e6 0.0
0.0 0.0 0.0

-920565.7539793125 1.5035288746486712e7 0.0
1.5035288746486712e7 5.978748087190763e6 0.0
0.0 0.0 0.0

20079.403748546756 1.453648896060183e7 0.0
1.453648896060183e7 -493921.9619849522 0.0
0.0 0.0 0.0

-5.225546824071357e6 1.7559055114449218e7 0.0
1.7559055114449218e7 4.3288192896736935e6 0.0
0.0 0.0 0.0

-6.746355071292853e6 5.033496245452223e6 0.0
5.033496245452223e6 6.840886334821397e6 0.0
0.0 0.0 0.0

311572.5907161194 1.015589592797104e7 0.0
1.015589592797104e7 -5.772974900682036e6 0.0
0.0 0.0 0.0

-4.742000237022201e6 1.7408728396460406e7 0.0
1.7408728396460406e7 4.538134476525342e6 0.0
0.0 0.0 0.0

-798861.6488059433 1.2562685454770092e7 0.0
1.2562685454770092e7 -2.3011852911963753e7 0.0
0.0 0.0 0.0

-4.228368840418395e6 2.038008016778907e7 0.0
2.038008016778907e7 2.7575195406980566e6 0.0
0.0 0.0 0.0

3.1127732993324716e6 8.372619475515969e6 0.0
8.372619475515969e6 -2.7667010555508282e7 0.0
0.0 0.0 0.0

-8.360689198967237e6 1.9889526596991602e7 0.0
1.9889526596991602e7 -1.3193093852029056e6 0.0
0.0 0.0 0.0

-4.306574364016727e6 1.9928918166366372e7 0.0
1.9928918166366372e7 2.537429948658531e6 0.0
0.0 0.0 0.0

-1.0583318508356433e7 1.1489377143201495e6 0.0
1.1489377143201495e6 1.6001513526205242e7 0.0
0.0 0.0 0.0

2.5196152060266426e6 9.47042165395371e6 0.0
9.47042165395371e6 -1.4912135301326513e7 0.0
0.0 0.0 0.0

-1.121146788913424e7 1.2918836913850771e7 0.0
1.2918836913850771e7 1.6710514077608837e7 0.0
0.0 0.0 0.0

-535045.6572862556 1.561319805000167e7 0.0
1.561319805000167e7 -8.44303289957585e6 0.0
0.0 0.0 0.0

-113817.31167351129 9.830774145553619e6 0.0
9.830774145553619e6 -6.3268930395417875e6 0.0
0.0 0.0 0.0

5.333052080127217e6 4.1087725312283537e6 0.0
4.1087725312283537e6 -2.2983547708757993e7 0.0
0.0 0.0 0.0

1.901904925468854e6 1.355273361057961e7 0.0
1.355273361057961e7 6.339683373406136e6 0.0
0.0 0.0 0.0

-3.344994847557585e6 1.9707392523712937e7 0.0
1.9707392523712937e7 1.1271257609924283e6 0.0
0.0 0.0 0.0

-1.279606362370295e7 3.500678747703472e6 0.0
3.500678747703472e6 8.596442579223027e6 0.0
0.0 0.0 0.0

5.406330746024491e6 4.095197655985896e6 0.0
4.095197655985896e6 -2.362237749540821e7 0.0
0.0 0.0 0.0

-3.7069237803503023e6 1.8538423539105065e7 0.0
1.8538423539105065e7 1.679621223181397e6 0.0
0.0 0.0 0.0

1.59741263053963e6 1.4089530088514999e7 0.0
1.4089530088514999e7 8.012562592148546e6 0.0
0.0 0.0 0.0

-6.173728221249218e6 1.8491912181015972e7 0.0
1.8491912181015972e7 5.185818214592837e6 0.0
0.0 0.0 0.0

5.1874385614400245e6 4.363246699947646e6 0.0
4.363246699947646e6 -2.9386046048248973e7 0.0
0.0 0.0 0.0

-3.8815965855010026e6 2.0514239958857995e7 0.0
2.0514239958857995e7 2.854314681149779e6 0.0
0.0 0.0 0.0

-439777.36305969395 1.532522303678915e7 0.0
1.532522303678915e7 1.912750172182565e7 0.0
0.0 0.0 0.0

3.3957077496699467e6 8.768617614411414e6 0.0
8.768617614411414e6 -1.629340549226907e7 0.0
0.0 0.0 0.0

-374683.547256039 1.1929989640796043e7 0.0
1.1929989640796043e7 -8.157161270202698e6 0.0
0.0 0.0 0.0

1.3523923557422508e7 1.588425657970753e7 0.0
1.588425657970753e7 -6.555096682805626e6 0.0
0.0 0.0 0.0

-2.32960958068196e6 1.5153172602223167e7 0.0
1.5153172602223167e7 -7.598093424100486e6 0.0
0.0 0.0 0.0

-4.966952522443611e6 1.5263620093990446e6 0.0
1.5263620093990446e6 5.827351374400378e6 0.0
0.0 0.0 0.0

865056.1194544174 5.878213530644314e6 0.0
5.878213530644314e6 -3.38972853216131e6 0.0
0.0 0.0 0.0

4.965321622030607e6 4.923815801536527e6 0.0
4.923815801536527e6 -2.2582984821408793e7 0.0
0.0 0.0 0.0

4.266313499591773e6 7.320973409715425e6 0.0
7.320973409715425e6 -2.5267856793864995e7 0.0
0.0 0.0 0.0

-4.267430895144413e6 1.8202413647187363e7 0.0
1.8202413647187363e7 1.1021023087116654e6 0.0
0.0 0.0 0.0

-2.302249146767688e6 1.5452543985586343e7 0.0
1.5452543985586343e7 1.5751486937874377e7 0.0
0.0 0.0 0.0

1.1012082805723136e7 1.4129983478661863e7 0.0
1.4129983478661863e7 3.2280491888767458e6 0.0
0.0 0.0 0.0

-1.150296200265001e7 2.1861585788392043e6 0.0
2.1861585788392043e6 1.4504922048189102e7 0.0
0.0 0.0 0.0

2.582764229381929e6 1.0244603041636022e7 0.0
1.0244603041636022e7 -2.177910820065816e7 0.0
0.0 0.0 0.0

-903068.4225794142 1.2932744364626281e7 0.0
1.2932744364626281e7 -2.1739598771318965e7 0.0
0.0 0.0 0.0

-473882.66464369185 1.4711929425616914e7 0.0
1.4711929425616914e7 2.9007504899318684e7 0.0
0.0 0.0 0.0

-5.473086754134992e6 1.7228473437882923e7 0.0
1.7228473437882923e7 9.281743087638985e6 0.0
0.0 0.0 0.0

-1.130517791787574e7 1.2782595793551957e7 0.0
1.2782595793551957e7 1.6194548559829548e7 0.0
0.0 0.0 0.0

-6.689399282464584e6 9.618878610914625e6 0.0
9.618878610914625e6 9.316696045435421e6 0.0
0.0 0.0 0.0

-364716.24319974147 1.298864273060048e7 0.0
1.298864273060048e7 -1.4160846944216847e7 0.0
0.0 0.0 0.0

123750.05962767964 1.3491027364964468e7 0.0
1.3491027364964468e7 -8.800214714588536e6 0.0
0.0 0.0 0.0

1.3656256691216188e6 1.1341436621314205e7 0.0
1.1341436621314205e7 -1.2216115837757641e7 0.0
0.0 0.0 0.0

9.16231675841012e6 1.8619805934479244e7 0.0
1.8619805934479244e7 -6.604380130913986e6 0.0
0.0 0.0 0.0

-9.272799592499524e6 -5.8814691311565135e6 0.0
-5.8814691311565135e6 1.9214952964558266e7 0.0
0.0 0.0 0.0

1.0984581582795966e6 1.3380798681357747e7 0.0
1.3380798681357747e7 -2.9272707069496205e6 0.0
0.0 0.0 0.0

-2.959140953309597e6 2.2886161516906593e7 0.0
2.2886161516906593e7 673487.4561820085 0.0
0.0 0.0 0.0

-5.375437241273641e6 1.7059774458594967e7 0.0
1.7059774458594967e7 9.528345012353482e6 0.0
0.0 0.0 0.0

4.716993907950402e6 4.65226101834885e6 0.0
4.65226101834885e6 -1.546427286219004e7 0.0
0.0 0.0 0.0

1.3481043487317436e6 6.988030310739868e6 0.0
6.988030310739868e6 -7.667591617428532e6 0.0
0.0 0.0 0.0

-721290.7268787641 1.405153962808026e7 0.0
1.405153962808026e7 5.375922539287449e6 0.0
0.0 0.0 0.0

3.5505387672576616e6 2.9233227617686354e7 0.0
2.9233227617686354e7 -1.3200444307598943e7 0.0
0.0 0.0 0.0

-1.2127392288114795e7 4.9778776835775515e6 0.0
4.9778776835775515e6 2.884000224040586e7 0.0
0.0 0.0 0.0

834938.3837500224 1.4905026420986386e7 0.0
1.4905026420986386e7 -6.56501207763701e6 0.0
0.0 0.0 0.0

-149987.8003029353 1.3727793744265446e7 0.0
1.3727793744265446e7 -1.0374160148989057e7 0.0
0.0 0.0 0.0

-42.99120875936933 9.001474627363587e6 0.0
9.001474627363587e6 -5.880589464042999e6 0.0
0.0 0.0 0.0

391791.7830379277 5.207502772553553e6 0.0
5.207502772553553e6 -4.334762378908023e6 0.0
0.0 0.0 0.0

1.4183324506288331e6 1.5858472881789485e7 0.0
1.5858472881789485e7 -4.827166471650453e6 0.0
0.0 0.0 0.0

-805338.4461378045 1.3136836626362668e7 0.0
1.3136836626362668e7 -1.836537055485529e7 0.0
0.0 0.0 0.0

5.314130655774569e6 3.9603563785227137e6 0.0
3.9603563785227137e6 -2.6899505747485097e7 0.0
0.0 0.0 0.0

-5.771772679069586e6 1.7512426233111683e7 0.0
1.7512426233111683e7 8.532874946851993e6 0.0
0.0 0.0 0.0

3.7308221384386364e6 7.936620295217155e6 0.0
7.936620295217155e6 -2.0863571889343753e7 0.0
0.0 0.0 0.0

5.242608559724582e6 4.396812604336628e6 0.0
4.396812604336628e6 -3.0042694520364776e7 0.0
0.0 0.0 0.0

-4.119540610948963e6 1.5943641189692803e7 0.0
1.5943641189692803e7 9.016410680414192e6 0.0
0.0 0.0 0.0

-4.219697618888317e6 1.4176803067578958e7 0.0
1.4176803067578958e7 -6.497970864053335e6 0.0
0.0 0.0 0.0

-8.565039115842655e6 4.748326360193976e6 0.0
4.748326360193976e6 1.2177027864499234e7 0.0
0.0 0.0 0.0

-3.7130771378166596e6 1.9459713639656566e7 0.0
1.9459713639656566e7 2.063678870236514e6 0.0
0.0 0.0 0.0

243077.80849342048 9.12596765502934e6 0.0
9.12596765502934e6 -4.53474062301719e6 0.0
0.0 0.0 0.0

-5.415047523715017e6 1.0245419018523477e7 0.0
1.0245419018523477e7 6.1189280332795475e6 0.0
0.0 0.0 0.0

-8.954125447466876e6 -5.396140085494679e6 0.0
-5.396140085494679e6 2.023677863146612e7 0.0
0.0 0.0 0.0

1.62485177399293e6 1.1453412726688573e7 0.0
1.1453412726688573e7 -1.1454538735071369e7 0.0
0.0 0.0 0.0

-2.9522505344513627e6 2.1789638363726217e7 0.0
2.1789638363726217e7 1.1609921370426149e6 0.0
0.0 0.0 0.0

-4.973431329119263e6 5.612069771961637e6 0.0
5.612069771961637e6 7.166490849571605e6 0.0
0.0 0.0 0.0

3.5795401546678077e6 7.5576276490643155e6 0.0
7.5576276490643155e6 -2.741995951363875e7 0.0
0.0 0.0 0.0

-1.3496258479783814e6 9.490648732025582e6 0.0
9.490648732025582e6 -3.6411197226746804e6 0.0
0.0 0.0 0.0

2.0215074189459144e6 1.6560402168838352e7 0.0
1.6560402168838352e7 7.695649050696063e6 0.0
0.0 0.0 0.0

2.12786956918409e7 1.675127951461389e7 0.0
1.675127951461389e7 3.5686111061716694e6 0.0
0.0 0.0 0.0

4.127333248821742e6 6.145401317789632e6 0.0
6.145401317789632e6 -1.4334533001842339e7 0.0
0.0 0.0 0.0

-1.8585144606960937e6 1.3338797439119762e7 0.0
1.3338797439119762e7 -2.1807994792265546e7 0.0
0.0 0.0 0.0

4.061707356627438e6 6.166326845660737e6 0.0
6.166326845660737e6 -1.4944266385360472e7 0.0
0.0 0.0 0.0

4.901901206650722e6 4.640565453452423e6 0.0
4.640565453452423e6 -1.5973421410085017e7 0.0
0.0 0.0 0.0

1.9089620767053656e7 1.1742923113766398e7 0.0
1.1742923113766398e7 -318025.0456674956 0.0
0.0 0.0 0.0

-1.01351001162044e7 2.571781151604295e7 0.0
2.571781151604295e7 5.297907705365308e6 0.0
0.0 0.0 0.0

-315424.66815144103 1.2464860674740786e7 0.0
1.2464860674740786e7 -2.023212207195601e7 0.0
0.0 0.0 0.0

-5.612348719030054e6 1.7322326548165023e7 0.0
1.7322326548165023e7 -1.4717099712618697e6 0.0
0.0 0.0 0.0

5.403387951416239e6 4.433426755485484e6 0.0
4.433426755485484e6 -1.96925427322095e7 0.0
0.0 0.0 0.0

-6.979636340763319e6 1.8416659569908936e7 0.0
1.8416659569908936e7 5.761446297114178e6 0.0
0.0 0.0 0.0

1.0342655785683165e6 2.2032117074082088e7 0.0
2.2032117074082088e7 -3.6239696079777153e6 0.0
0.0 0.0 0.0

-1.2840583770551488e7 6.238770160383541e6 0.0
6.238770160383541e6 2.1616545772928696e7 0.0
0.0 0.0 0.0

457896.16867029155 2.8662419363292832e7 0.0
2.8662419363292832e7 -7.880613302302321e6 0.0
0.0 0.0 0.0

-417992.9837939678 1.5058514313827388e7 0.0
1.5058514313827388e7 -1.0425657443828989e6 0.0
0.0 0.0 0.0

5.368912677358022e6 3.9932878501937464e6 0.0
3.9932878501937464e6 -2.421740112116612e7 0.0
0.0 0.0 0.0

1.4575564166194057e7 1.3144972964364981e7 0.0
1.3144972964364981e7 -1.2640625646021897e6 0.0
0.0 0.0 0.0

-4.217474015968197e6 1.568875908117093e7 0.0
1.568875908117093e7 9.05417826854156e6 0.0
0.0 0.0 0.0

4.405909810383815e6 6.153325796145648e6 0.0
6.153325796145648e6 -2.2506579634574473e7 0.0
0.0 0.0 0.0

-1.9324202298262166e6 1.8170793390330307e7 0.0
1.8170793390330307e7 -3.586624823844515e6 0.0
0.0 0.0 0.0

408134.1310813632 1.4598160443847843e7 0.0
1.4598160443847843e7 -6.988452684461885e6 0.0
0.0 0.0 0.0

-1.9656750826277307e6 1.4281296803193068e7 0.0
1.4281296803193068e7 -7.878504807772348e6 0.0
0.0 0.0 0.0

255291.54799484462 1.3904410918964433e7 0.0
1.3904410918964433e7 -8.125528273224742e6 0.0
0.0 0.0 0.0

3.326555950692471e6 1.6697886760285472e7 0.0
1.6697886760285472e7 7.815731389679064e6 0.0
0.0 0.0 0.0

3.8008623206954654e6 6.590310769122769e6 0.0
6.590310769122769e6 -3.674678777169106e7 0.0
0.0 0.0 0.0

-5.38646314410492e6 1.7888283949063204e7 0.0
1.7888283949063204e7 8.212081001803067e6 0.0
0.0 0.0 0.0

1.6246682637702203e6 4.860131453620652e6 0.0
4.860131453620652e6 -4.855384146758302e6 0.0
0.0 0.0 0.0

-1.260777212175268e7 1.006151765964763e7 0.0
1.006151765964763e7 1.798013593097744e7 0.0
0.0 0.0 0.0

4.7850801584634725e6 4.924209628776845e6 0.0
4.924209628776845e6 -1.4318026745210424e7 0.0
0.0 0.0 0.0

-9.494605205865106e6 -5.653842246745866e6 0.0
-5.653842246745866e6 2.544620692540231e7 0.0
0.0 0.0 0.0

1.7094292443656232e6 1.1999464356833518e7 0.0
1.1999464356833518e7 -1.3802351847360654e7 0.0
0.0 0.0 0.0

1.619054214280404e6 3.6858881067177737e6 0.0
3.6858881067177737e6 -5.12072972112977e6 0.0
0.0 0.0 0.0

1.244708612657459e6 1.43037433296495e7 0.0
1.43037433296495e7 7.766586850479978e6 0.0
0.0 0.0 0.0

-4.189433318164546e6 2.0267511396977875e7 0.0
2.0267511396977875e7 4.086336056922027e6 0.0
0.0 0.0 0.0

-1.0325512901320098e7 -4.457830061702244e6 0.0
-4.457830061702244e6 2.382711537790753e7 0.0
0.0 0.0 0.0

-2.1550198630170785e6 1.5338473377258822e7 0.0
1.5338473377258822e7 4.571917249649903e6 0.0
0.0 0.0 0.0

1.6709354859413058e6 1.6681760289966695e7 0.0
1.6681760289966695e7 -5.401413643422763e6 0.0
0.0 0.0 0.0

-4.232170172861186e6 1.7646449369330175e7 0.0
1.7646449369330175e7 789641.2392614046 0.0
0.0 0.0 0.0

-1.7523216315841146e6 1.6740550503342494e7 0.0
1.6740550503342494e7 -4.93545843442886e6 0.0
0.0 0.0 0.0

-3.8471232760837125e6 1.7832029916423716e7 0.0
1.7832029916423716e7 1.9339416668892375e6 0.0
0.0 0.0 0.0

-2.8091931811748105e6 1.2606760669507483e7 0.0
1.2606760669507483e7 -1.3029712978274366e7 0.0
0.0 0.0 0.0

7.996993748838926e6 1.7905753360565588e7 0.0
1.7905753360565588e7 -7.941678222594648e6 0.0
0.0 0.0 0.0

-196623.80300753843 1.3248325653657744e7 0.0
1.3248325653657744e7 -1.0950664563371433e7 0.0
0.0 0.0 0.0

-7.171749273575672e6 1.5458590349024316e7 0.0
1.5458590349024316e7 1.486557176605765e7 0.0
0.0 0.0 0.0

-1.1891714596743835e6 1.5986748800093088e7 0.0
1.5986748800093088e7 1.0347918206305683e7 0.0
0.0 0.0 0.0

3.0842601374139655e6 8.91447738186303e6 0.0
8.91447738186303e6 -1.5779307126882777e7 0.0
0.0 0.0 0.0

-5.811559229600906e6 9.369539973555041e6 0.0
9.369539973555041e6 5.2047130365652805e6 0.0
0.0 0.0 0.0

-4.306758647864661e6 2.258960973852924e7 0.0
2.258960973852924e7 3.166517734096747e6 0.0
0.0 0.0 0.0

-7.644203457647564e6 1.4931113587492855e7 0.0
1.4931113587492855e7 1.114267267180328e7 0.0
0.0 0.0 0.0

-1.9212210305380598e6 2.3455929974554446e7 0.0
2.3455929974554446e7 620849.472316764 0.0
0.0 0.0 0.0

1.3929992299681501e6 1.1823069548992515e7 0.0
1.1823069548992515e7 -1.468772411767645e7 0.0
0.0 0.0 0.0

-1.1005270383193707e7 1.961771623046204e7 0.0
1.961771623046204e7 -3.3031449372899956e6 0.0
0.0 0.0 0.0

5.335119224359909e6 4.950626714678244e6 0.0
4.950626714678244e6 -2.6672024580107085e7 0.0
0.0 0.0 0.0

2.4706458480960536e6 2.33720919902683e7 0.0
2.33720919902683e7 -3.9641351638580468e6 0.0
0.0 0.0 0.0

-1.4537307694719426e7 2.2696201530130524e7 0.0
2.2696201530130524e7 9.148091868379679e6 0.0
0.0 0.0 0.0

-1.8486679211662589e6 1.544949169592454e7 0.0
1.544949169592454e7 1.0000731724935401e7 0.0
0.0 0.0 0.0

-2.503492248868551e7 2.1096022018872797e7 0.0
2.1096022018872797e7 1.0496438116183005e7 0.0
0.0 0.0 0.0

5.546816298582099e6 3.972739383932942e6 0.0
3.972739383932942e6 -2.4754803600205123e7 0.0
0.0 0.0 0.0

-7.257346669200944e6 1.476191751748135e7 0.0
1.476191751748135e7 1.2286939025718998e7 0.0
0.0 0.0 0.0

-5.50637872904345e6 5.435111406410621e6 0.0
5.435111406410621e6 5.21815172510739e6 0.0
0.0 0.0 0.0

4.643288988463152e6 4.412853461822627e6 0.0
4.412853461822627e6 -1.5009634848467227e7 0.0
0.0 0.0 0.0

81920.75439884607 1.4745740256782424e7 0.0
1.4745740256782424e7 -8.00236683384508e6 0.0
0.0 0.0 0.0

-8.069387396035198e6 2.6525309184303824e7 0.0
2.6525309184303824e7 6.09512052712981e6 0.0
0.0 0.0 0.0

-1.2885047075308487e7 1.0044014843203574e7 0.0
1.0044014843203574e7 1.022441185065158e7 0.0
0.0 0.0 0.0

-2.148462437184772e7 1.920674969406802e7 0.0
1.920674969406802e7 5.552015456853476e6 0.0
0.0 0.0 0.0

1.9944942055886436e7 1.4605873178284284e7 0.0
1.4605873178284284e7 5.953979319503382e6 0.0
0.0 0.0 0.0

-2.1554979544673376e6 1.354613968655495e7 0.0
1.354613968655495e7 -4.724297195637571e7 0.0
0.0 0.0 0.0

200372.0249138982 1.385559697294742e7 0.0
1.385559697294742e7 -9.571643905093474e6 0.0
0.0 0.0 0.0

-7.11976215791424e6 1.5288646409382137e7 0.0
1.5288646409382137e7 1.4661934067908462e7 0.0
0.0 0.0 0.0

-1.2557377587513379e6 1.6908324017850585e7 0.0
1.6908324017850585e7 -6.398596159819544e6 0.0
0.0 0.0 0.0

-3.3563634089781228e6 1.9250914710624453e7 0.0
1.9250914710624453e7 892985.7973002275 0.0
0.0 0.0 0.0

612629.1456952108 1.3381054426609395e7 0.0
1.3381054426609395e7 4.345585266088789e6 0.0
0.0 0.0 0.0

-2.1177557924034665e6 2.3025459512635574e7 0.0
2.3025459512635574e7 739413.7568765375 0.0
0.0 0.0 0.0

-6.542830564852858e6 5.320150055469549e6 0.0
5.320150055469549e6 8.071017031691501e6 0.0
0.0 0.0 0.0

2.7613653449079953e7 1.9851406589486655e7 0.0
1.9851406589486655e7 6.627240326647573e6 0.0
0.0 0.0 0.0

-2.304170383256113e6 1.906249885719178e7 0.0
1.906249885719178e7 -3.320714443759227e6 0.0
0.0 0.0 0.0

1.177776511392944e6 1.3115297860822186e7 0.0
1.3115297860822186e7 5.752757178358731e6 0.0
0.0 0.0 0.0

-6.616931227248919e6 1.8345065002386827e7 0.0
1.8345065002386827e7 2.3839927408822966e6 0.0
0.0 0.0 0.0

-3.905626155311023e6 1.4286833076142315e7 0.0
1.4286833076142315e7 1.1723904506345954e7 0.0
0.0 0.0 0.0

-2.1103504156720596e6 1.8114496240624376e7 0.0
1.8114496240624376e7 -3.2667009296543854e6 0.0
0.0 0.0 0.0

4.168766139143198e6 7.247318322269074e6 0.0
7.247318322269074e6 -2.0312574110541128e7 0.0
0.0 0.0 0.0

-5.151398029267645e6 1.68317179032051e7 0.0
1.68317179032051e7 4.699022870547839e6 0.0
0.0 0.0 0.0

-3.821047367954679e6 1.67388095208397e7 0.0
1.67388095208397e7 2.429629660313617e6 0.0
0.0 0.0 0.0

1.6740995271572121e6 7.063487740255362e6 0.0
7.063487740255362e6 -8.84694435896327e6 0.0
0.0 0.0 0.0

-4.785361749389106e6 1.7508090524162896e7 0.0
1.7508090524162896e7 8.558207123287385e6 0.0
0.0 0.0 0.0

-1.1350544021927161e7 2.6184747245422998e6 0.0
2.6184747245422998e6 3.2191873834139846e7 0.0
0.0 0.0 0.0

-383790.6316513759 9.201740216210922e6 0.0
9.201740216210922e6 -3.2018308905321914e6 0.0
0.0 0.0 0.0

-8.22827562488173e6 1.8526089684331622e7 0.0
1.8526089684331622e7 -445973.8849139018 0.0
0.0 0.0 0.0

1.809208447169838e7 1.9098033254033186e7 0.0
1.9098033254033186e7 7.102981699457748e6 0.0
0.0 0.0 0.0

1.924143698062243e6 1.1441375501594517e7 0.0
1.1441375501594517e7 -1.832740078137233e7 0.0
0.0 0.0 0.0

4.800628325963534e6 6.1010344797300445e6 0.0
6.1010344797300445e6 -2.1163234193043612e7 0.0
0.0 0.0 0.0

3.9942025122717833e6 1.5131177074620683e7 0.0
1.5131177074620683e7 302577.31265948934 0.0
0.0 0.0 0.0

-6.230927764054442e6 7.5590057284820555e6 0.0
7.5590057284820555e6 1.376099408504768e7 0.0
0.0 0.0 0.0

-3.509807575587361e6 1.864594720973849e7 0.0
1.864594720973849e7 1.099428128497123e6 0.0
0.0 0.0 0.0

-2.214300032818077e6 1.6249228451558365e7 0.0
1.6249228451558365e7 -4.525389712991662e6 0.0
0.0 0.0 0.0

-1.9080597422236297e6 1.6397168431298181e7 0.0
1.6397168431298181e7 -5.794944550035405e6 0.0
0.0 0.0 0.0

-573917.8954708091 1.4529561526546152e7 0.0
1.4529561526546152e7 -5.007801028629005e6 0.0
0.0 0.0 0.0

2.107371679992663e6 7.610353714783867e6 0.0
7.610353714783867e6 -8.027668503858902e6 0.0
0.0 0.0 0.0

1.4694450784161173e7 1.673968749747227e7 0.0
1.673968749747227e7 3.224627788665873e6 0.0
0.0 0.0 0.0

687004.5375954747 1.3649477576592915e7 0.0
1.3649477576592915e7 3.955493336974519e6 0.0
0.0 0.0 0.0

-4.295423502237001e6 2.240663307981085e7 0.0
2.240663307981085e7 4.40572967630016e6 0.0
0.0 0.0 0.0

-2.663524326922089e7 1.4201800231856218e7 0.0
1.4201800231856218e7 1.050538741290675e7 0.0
0.0 0.0 0.0

4.536230569851503e6 4.667520961207532e6 0.0
4.667520961207532e6 -1.3671017134379476e7 0.0
0.0 0.0 0.0

-269490.3354442888 1.4737781035199232e7 0.0
1.4737781035199232e7 3.005455441626236e6 0.0
0.0 0.0 0.0

-1.7639562527214698e6 1.2097948494377587e7 0.0
1.2097948494377587e7 -1.2408344923715286e7 0.0
0.0 0.0 0.0

526329.5913811205 1.3255261043325754e7 0.0
1.3255261043325754e7 -1.4159890469753608e7 0.0
0.0 0.0 0.0

-7.568059277768198e6 -6.112514247782269e6 0.0
-6.112514247782269e6 1.3406254787828175e7 0.0
0.0 0.0 0.0

1.6580719626382217e6 1.097516646472776e7 0.0
1.097516646472776e7 -1.3035884260542795e7 0.0
0.0 0.0 0.0

-3.981458774383559e6 1.4240445024192423e7 0.0
1.4240445024192423e7 -2.6060969839449372e7 0.0
0.0 0.0 0.0

1.944706177090194e6 1.0570015017695697e7 0.0
1.0570015017695697e7 -1.373336567367637e7 0.0
0.0 0.0 0.0

190050.21908895252 1.5183756030803809e7 0.0
1.5183756030803809e7 -7.490032201356651e6 0.0
0.0 0.0 0.0

1.6213976150997134e7 1.6058246679642074e7 0.0
1.6058246679642074e7 3.924498541290912e6 0.0
0.0 0.0 0.0

-1.1655573927939404e7 1.0634759373629967e7 0.0
1.0634759373629967e7 2.2427694959300287e7 0.0
0.0 0.0 0.0

-2.3273315119462516e6 1.7290064428163525e7 0.0
1.7290064428163525e7 -5.374255861823458e6 0.0
0.0 0.0 0.0

-202225.79500167715 1.3655747643228212e7 0.0
1.3655747643228212e7 -480643.06268921954 0.0
0.0 0.0 0.0

-4.43323212560276e6 1.6207388008037811e7 0.0
1.6207388008037811e7 -5.541001817103133e6 0.0
0.0 0.0 0.0

1.3926696992333185e7 1.8431415427817687e7 0.0
1.8431415427817687e7 6.588065565032722e6 0.0
0.0 0.0 0.0

-5.320670743375446e6 1.7516732949472822e7 0.0
1.7516732949472822e7 8.950212401558628e6 0.0
0.0 0.0 0.0

1.3399867959936801e6 1.4178471803850535e7 0.0
1.4178471803850535e7 -4.031576959406173e6 0.0
0.0 0.0 0.0

-3.0258806914139427e6 2.032821054627487e7 0.0
2.032821054627487e7 521256.59765510494 0.0
0.0 0.0 0.0

-5.266010540000499e6 1.6942564205312837e7 0.0
1.6942564205312837e7 5.435302874873462e6 0.0
0.0 0.0 0.0

-8.98745753260604e6 -66113.57784313244 0.0
-66113.57784313244 5.106614615095283e7 0.0
0.0 0.0 0.0

-763427.414822178 1.5215656796238469e7 0.0
1.5215656796238469e7 -9.393012315958632e6 0.0
0.0 0.0 0.0

-3.9035687701974404e6 2.016721826949985e7 0.0
2.016721826949985e7 2.965125080180847e6 0.0
0.0 0.0 0.0

803991.2071489816 4.460921816348481e6 0.0
4.460921816348481e6 -2.596528372162309e6 0.0
0.0 0.0 0.0

-1.184023802097685e7 1.1740078856927598e7 0.0
1.1740078856927598e7 1.7486242333548997e7 0.0
0.0 0.0 0.0

-3.159090033730046e6 1.3846981799619185e7 0.0
1.3846981799619185e7 -3.1659369604260228e6 0.0
0.0 0.0 0.0

4.809955929400382e6 4.705525436352694e6 0.0
4.705525436352694e6 -1.7671182487913698e7 0.0
0.0 0.0 0.0

-3.7871905761416587e6 2.2876102031954933e7 0.0
2.2876102031954933e7 3.673752337613512e6 0.0
0.0 0.0 0.0

2.005590534098716e6 1.1120554297165638e7 0.0
1.1120554297165638e7 -1.1971239207649898e7 0.0
0.0 0.0 0.0

-8.042186579643562e6 1.4186406628193622e7 0.0
1.4186406628193622e7 1.3313902706020657e7 0.0
0.0 0.0 0.0

4.667262067193363e6 6.058394895449198e6 0.0
6.058394895449198e6 -3.3998759728306636e7 0.0
0.0 0.0 0.0

-4.691660606166614e6 2.2113873995387033e7 0.0
2.2113873995387033e7 4.0696924014883954e6 0.0
0.0 0.0 0.0

-4.0167229302208666e6 1.319770534391431e7 0.0
1.319770534391431e7 -1.6798914973656327e7 0.0
0.0 0.0 0.0

3.608782283340147e6 3.96288257383838e6 0.0
3.96288257383838e6 -9.920311105201116e6 0.0
0.0 0.0 0.0

571.1376289490145 8.755044025514651e6 0.0
8.755044025514651e6 -3.987295552768153e6 0.0
0.0 0.0 0.0

-1.2903774779255802e7 2.3078271695124157e7 0.0
2.3078271695124157e7 8.069461573459861e6 0.0
0.0 0.0 0.0

1.8115943995020054e6 1.324268299997867e7 0.0
1.324268299997867e7 6.831057146647304e6 0.0
0.0 0.0 0.0

-8.006987908002098e6 2.5252341001293354e7 0.0
2.5252341001293354e7 4.93830364777723e6 0.0
0.0 0.0 0.0

-1.0848963627214026e7 2.0613956756416068e6 0.0
2.0613956756416068e6 1.6732393458226133e7 0.0
0.0 0.0 0.0

3.628317500698136e6 8.352953949551161e6 0.0
8.352953949551161e6 -3.745557538036558e7 0.0
0.0 0.0 0.0

3.752176571722105e7 1.3400698326783301e7 0.0
1.3400698326783301e7 -5.053421895384304e6 0.0
0.0 0.0 0.0

-3.542300629669628e6 1.9127223749126125e7 0.0
1.9127223749126125e7 1.3555869879161085e6 0.0
0.0 0.0 0.0

-5.426378653735653e6 2.027142306007761e7 0.0
2.027142306007761e7 6.154533734881682e6 0.0
0.0 0.0 0.0

-4.474751172303941e6 1.8198060443869844e7 0.0
1.8198060443869844e7 4.103824667455619e6 0.0
0.0 0.0 0.0

330374.9620664641 1.6203485211969184e7 0.0
1.6203485211969184e7 3.1453527842850305e7 0.0
0.0 0.0 0.0

4.8542346598895695e6 4.790649662098198e6 0.0
4.790649662098198e6 -2.0225012544240948e7 0.0
0.0 0.0 0.0

455652.51679527527 1.0504483575602492e7 0.0
1.0504483575602492e7 -6.198402947529866e6 0.0
0.0 0.0 0.0

-328171.62901050376 2.2146831548215564e7 0.0
2.2146831548215564e7 -2.875853655840069e6 0.0
0.0 0.0 0.0

2.984972337898736e6 9.103929485980026e6 0.0
9.103929485980026e6 -2.3029692621509768e7 0.0
0.0 0.0 0.0

-1.6930165236391965e7 1.1692851221792884e7 0.0
1.1692851221792884e7 1.0361514419273028e7 0.0
0.0 0.0 0.0

-3.962967816863738e6 1.6741288438534146e7 0.0
1.6741288438534146e7 1.6402637547402119e6 0.0
0.0 0.0 0.0

-225784.14116381493 1.2206908604622861e7 0.0
1.2206908604622861e7 2.131188448963209e6 0.0
0.0 0.0 0.0

2.2701920336964093e6 1.0739764740527308e7 0.0
1.0739764740527308e7 -1.2691155254618218e7 0.0
0.0 0.0 0.0

-1.5423410798398834e6 1.597739604694886e7 0.0
1.597739604694886e7 1.7181217250217184e7 0.0
0.0 0.0 0.0

2.626002859931792e6 2.201502098233162e7 0.0
2.201502098233162e7 -4.741643277488963e6 0.0
0.0 0.0 0.0

-3.1605347245878197e7 202254.0941417222 0.0
202254.0941417222 9.409599232477915e6 0.0
0.0 0.0 0.0

1.7995554482562847e7 2.632728372203852e7 0.0
2.632728372203852e7 -1.2618683236446563e7 0.0
0.0 0.0 0.0

1.7222846108885761e6 2.2475866571523372e7 0.0
2.2475866571523372e7 -5.539671773791477e6 0.0
0.0 0.0 0.0

4.268904363378082e6 4.741580909737393e6 0.0
4.741580909737393e6 -1.3128383299044706e7 0.0
0.0 0.0 0.0

-4.466695904569649e6 2.0237112352900624e7 0.0
2.0237112352900624e7 3.1650565614185045e6 0.0
0.0 0.0 0.0

2.0587026120183554e7 1.1777276900317786e7 0.0
1.1777276900317786e7 -41204.762111351825 0.0
0.0 0.0 0.0

-1.1214333722794779e7 5.101361389985322e6 0.0
5.101361389985322e6 3.436921673613808e7 0.0
0.0 0.0 0.0

-831834.6442615585 1.5359881758622559e7 0.0
1.5359881758622559e7 -8.960814124816557e6 0.0
0.0 0.0 0.0

1.1849442210152565e7 1.4588727679164644e7 0.0
1.4588727679164644e7 3.3159598533171043e6 0.0
0.0 0.0 0.0

424106.45890032407 1.5086513978026431e7 0.0
1.5086513978026431e7 -8.47016122362432e6 0.0
0.0 0.0 0.0

5.148689263096582e6 4.970613386506275e6 0.0
4.970613386506275e6 -2.1463761618721053e7 0.0
0.0 0.0 0.0

-3.1975279616383845e6 1.8916623513899263e7 0.0
1.8916623513899263e7 125440.77575343288 0.0
0.0 0.0 0.0

-1.2739655546125555e6 1.2222017952958189e7 0.0
1.2222017952958189e7 -1.1723350146677908e7 0.0
0.0 0.0 0.0

-2.3497800838381452e6 1.9980823588935934e7 0.0
1.9980823588935934e7 -2.2092318200669615e6 0.0
0.0 0.0 0.0

-1.0159350279084884e7 7.4520270185108315e6 0.0
7.4520270185108315e6 3.6060420694857985e7 0.0
0.0 0.0 0.0

264372.6746756928 1.3009636433924781e7 0.0
1.3009636433924781e7 -7.89859116645867e6 0.0
0.0 0.0 0.0

3.1892229144225046e6 8.690860627500787e6 0.0
8.690860627500787e6 -1.6924091435280904e7 0.0
0.0 0.0 0.0

460131.2262627147 1.702442417834489e7 0.0
1.702442417834489e7 -5.763666570946645e6 0.0
0.0 0.0 0.0

-988989.5550514106 1.239493607742383e7 0.0
1.239493607742383e7 -7.1293946240935e6 0.0
0.0 0.0 0.0

-1.1028828248405086e7 112522.36632250175 0.0
112522.36632250175 3.2197826989735715e7 0.0
0.0 0.0 0.0

-2.649379616281951e6 1.604326568534989e7 0.0
1.604326568534989e7 1.329094891618804e7 0.0
0.0 0.0 0.0

3.0518399735243246e6 8.905221409583967e6 0.0
8.905221409583967e6 -2.447256198636222e7 0.0
0.0 0.0 0.0

-1.7864314208197854e6 1.98161778683729e7 0.0
1.98161778683729e7 -2.241313980573489e6 0.0
0.0 0.0 0.0

-1.5072422824202417e6 1.5990896110387769e7 0.0
1.5990896110387769e7 1.0303347666954527e7 0.0
0.0 0.0 0.0

3.838886300358033e6 7.989533051884997e6 0.0
7.989533051884997e6 -1.6512235688437797e7 0.0
0.0 0.0 0.0

2.839100797876131e7 1.656459072111935e7 0.0
1.656459072111935e7 5.226369489059934e6 0.0
0.0 0.0 0.0

-1.985518442347343e6 1.9445526045405265e7 0.0
1.9445526045405265e7 -2.345858121547272e6 0.0
0.0 0.0 0.0

-8.5485351346926e6 -6.058748946583996e6 0.0
-6.058748946583996e6 1.7457705584674012e7 0.0
0.0 0.0 0.0

-1.1872560783968326e7 208917.70431845903 0.0
208917.70431845903 2.9401744039721105e7 0.0
0.0 0.0 0.0

5.352853572371573e6 3.7146258072974235e6 0.0
3.7146258072974235e6 -1.843567744925602e7 0.0
0.0 0.0 0.0

-5.040636113755394e6 1.7860804899968676e7 0.0
1.7860804899968676e7 3.6395859664403787e6 0.0
0.0 0.0 0.0

-720619.9927610141 1.4133016137339136e7 0.0
1.4133016137339136e7 -5.450750101811708e6 0.0
0.0 0.0 0.0

-1.299455073393841e6 1.6527929404594405e7 0.0
1.6527929404594405e7 -7.261187970125383e6 0.0
0.0 0.0 0.0

-8.129414650982607e6 -1.0075100415848059e6 0.0
-1.0075100415848059e6 1.26922958454383e7 0.0
0.0 0.0 0.0

-1.646252569277335e6 1.6689333286557693e7 0.0
1.6689333286557693e7 -4.796172170355464e6 0.0
0.0 0.0 0.0

-1.1124226766961504e7 -31915.350833287514 0.0
-31915.350833287514 3.179573991595771e7 0.0
0.0 0.0 0.0

3.928597826710927e6 1.4308574701832166e7 0.0
1.4308574701832166e7 2.049359822056183e6 0.0
0.0 0.0 0.0

2.4693285565428054e6 1.0241439425187118e7 0.0
1.0241439425187118e7 -2.3331000778819032e7 0.0
0.0 0.0 0.0

3.5201296364872046e6 8.799028901478905e6 0.0
8.799028901478905e6 -2.4391460076712623e7 0.0
0.0 0.0 0.0

-1.2223871266543074e7 1.1545242061067328e7 0.0
1.1545242061067328e7 1.8208880058033444e7 0.0
0.0 0.0 0.0

-4.4425371165454e6 1.510851431937e7 0.0
1.510851431937e7 3.4000269756235015e6 0.0
0.0 0.0 0.0

1.2814805682371547e6 4.8891194339778405e6 0.0
4.8891194339778405e6 -3.8366475751405684e6 0.0
0.0 0.0 0.0

154090.03281117044 1.3476128409971904e7 0.0
1.3476128409971904e7 -7.1614835963798445e6 0.0
0.0 0.0 0.0

-4.74764095788556e6 1.958883811676236e7 0.0
1.958883811676236e7 5.974112667431802e6 0.0
0.0 0.0 0.0

872891.7148131281 1.616063790688554e7 0.0
1.616063790688554e7 2.170001911079983e7 0.0
0.0 0.0 0.0

4.962197157252388e6 1.6639541563846001e7 0.0
1.6639541563846001e7 -4.299933033887731e6 0.0
0.0 0.0 0.0

-8.367621884270541e6 -544815.9966894643 0.0
-544815.9966894643 4.946211831461525e7 0.0
0.0 0.0 0.0

-1.139894707525475e7 6.660635992777085e6 0.0
6.660635992777085e6 2.7976905573168054e7 0.0
0.0 0.0 0.0

-1.059658879552942e7 1.081372305407362e7 0.0
1.081372305407362e7 1.4812714114376374e7 0.0
0.0 0.0 0.0

-202828.42470251513 1.321828357965761e7 0.0
1.321828357965761e7 4.876549234986737e6 0.0
0.0 0.0 0.0

-5.761597806414756e6 3.446002546431179e6 0.0
3.446002546431179e6 7.892468791003761e6 0.0
0.0 0.0 0.0

-8.571892558583373e6 1.6187398703270024e7 0.0
1.6187398703270024e7 2.228367944115584e6 0.0
0.0 0.0 0.0

5.111627359391213e6 5.316380481144989e6 0.0
5.316380481144989e6 -1.9363240774392456e7 0.0
0.0 0.0 0.0

-2.8226356632123133e6 1.3611049754634535e7 0.0
1.3611049754634535e7 -2.296316521279697e7 0.0
0.0 0.0 0.0

164280.25385675556 1.3654107552076383e7 0.0
1.3654107552076383e7 2.644712808367813e6 0.0
0.0 0.0 0.0

5.593215407505417e6 2.015889433051805e7 0.0
2.015889433051805e7 -7.83288802844594e6 0.0
0.0 0.0 0.0

637809.8608710752 1.5445485641477484e7 0.0
1.5445485641477484e7 -7.080070167281976e6 0.0
0.0 0.0 0.0

-1.0824224096655315e7 1.9168350845214356e7 0.0
1.9168350845214356e7 -1.820825225200087e6 0.0
0.0 0.0 0.0

-3.644295470600414e6 1.9525598731830876e7 0.0
1.9525598731830876e7 270428.02187806414 0.0
0.0 0.0 0.0

-95151.23431429453 6.242572593789076e6 0.0
6.242572593789076e6 -3.962254238353567e6 0.0
0.0 0.0 0.0

-6.681163111052239e6 2.589015427855474e7 0.0
2.589015427855474e7 5.969303168348095e6 0.0
0.0 0.0 0.0

-4.207000131094793e6 1.5434189514530938e7 0.0
1.5434189514530938e7 2.6129563618943756e6 0.0
0.0 0.0 0.0

-9.25708293875083e6 5.0545104362280695e6 0.0
5.0545104362280695e6 9.972304443976913e6 0.0
0.0 0.0 0.0

-4.550129419399057e6 1.52733594542154e7 0.0
1.52733594542154e7 1.255697711565411e6 0.0
0.0 0.0 0.0

-700494.1802810967 3.826990965109426e6 0.0
3.826990965109426e6 -1.213767345135611e6 0.0
0.0 0.0 0.0

-255357.410236781 7.954810284666413e6 0.0
7.954810284666413e6 -7.8318793450803505e6 0.0
0.0 0.0 0.0

2.38421229149177e6 1.058126509224579e7 0.0
1.058126509224579e7 -2.066897850877466e7 0.0
0.0 0.0 0.0

-3.9231165546558276e6 1.723191113953878e7 0.0
1.723191113953878e7 -3.8815533725956464e6 0.0
0.0 0.0 0.0

-6.755536689640794e6 1.5404221382635625e7 0.0
1.5404221382635625e7 1.4235042516666226e7 0.0
0.0 0.0 0.0

-588255.9144802836 1.404191147669703e7 0.0
1.404191147669703e7 -4.1326781554107345e6 0.0
0.0 0.0 0.0

3.37938563022366e6 4.718127786563292e6 0.0
4.718127786563292e6 -1.005540148795407e7 0.0
0.0 0.0 0.0

-2.8764833948034947e6 1.7764883771132838e7 0.0
1.7764883771132838e7 -2.6786872875507e6 0.0
0.0 0.0 0.0

-3.293564393632764e6 2.0164936733835462e7 0.0
2.0164936733835462e7 -198923.86823821056 0.0
0.0 0.0 0.0

1.0359871789877217e6 1.6730266172114754e7 0.0
1.6730266172114754e7 -5.335040828765759e6 0.0
0.0 0.0 0.0

-9.794494621607967e6 6.99637690511986e6 0.0
6.99637690511986e6 1.1099754835038595e7 0.0
0.0 0.0 0.0

-197438.96350351349 1.304835488683957e7 0.0
1.304835488683957e7 -1.325542404180517e7 0.0
0.0 0.0 0.0

-5.601325318251346e6 2.2990386958833005e7 0.0
2.2990386958833005e7 4.631277118364539e6 0.0
0.0 0.0 0.0

-5.033273726667857e6 2.2557170248294067e7 0.0
2.2557170248294067e7 4.32660671615169e6 0.0
0.0 0.0 0.0

12569.378670128994 1.229594967763916e7 0.0
1.229594967763916e7 -1.9008063887747027e7 0.0
0.0 0.0 0.0

-1.2364273027173933e6 1.2536449113366257e7 0.0
1.2536449113366257e7 -8.761832120328795e6 0.0
0.0 0.0 0.0

-147816.09449819534 1.4113897232817449e7 0.0
1.4113897232817449e7 2.1929573870624816e6 0.0
0.0 0.0 0.0

3.4983303980634734e6 8.3410794244106915e6 0.0
8.3410794244106915e6 -1.9968349055917084e7 0.0
0.0 0.0 0.0

-1.2223408389074074e7 7.311792941227865e6 0.0
7.311792941227865e6 2.302844169943042e7 0.0
0.0 0.0 0.0

2.089313952050034e6 1.0808595518292861e7 0.0
1.0808595518292861e7 -3.8429501233789146e7 0.0
0.0 0.0 0.0

463678.6596917114 2.427246747594417e7 0.0
2.427246747594417e7 -5.397298183975775e6 0.0
0.0 0.0 0.0

2.3277547462832327e6 1.4350952506385777e7 0.0
1.4350952506385777e7 1.2338364043469014e7 0.0
0.0 0.0 0.0

-908408.956458929 1.5306847242688853e7 0.0
1.5306847242688853e7 1.9003775537906647e7 0.0
0.0 0.0 0.0

9.55693861803056e6 1.709565547360612e7 0.0
1.709565547360612e7 6.6306065460323095e6 0.0
0.0 0.0 0.0

-631209.6283221324 1.2672712437567787e7 0.0
1.2672712437567787e7 1.4518633609731132e6 0.0
0.0 0.0 0.0

-2.636325374379459e6 1.7560667801525347e7 0.0
1.7560667801525347e7 -2.504643402726095e6 0.0
0.0 0.0 0.0

-1.596892660356801e7 1.8530134954459373e7 0.0
1.8530134954459373e7 -2.2909565948132905e6 0.0
0.0 0.0 0.0

-273082.57812825503 1.2022343427683162e7 0.0
1.2022343427683162e7 -66282.0906129608 0.0
0.0 0.0 0.0

-2.4906188209926276e6 1.6147254632836193e7 0.0
1.6147254632836193e7 3.1285236455713008e6 0.0
0.0 0.0 0.0

5.10895885367394e6 4.775784824934039e6 0.0
4.775784824934039e6 -1.6563242892985262e7 0.0
0.0 0.0 0.0

-8.89536908795935e6 1.726685993092613e7 0.0
1.726685993092613e7 3.627042705797701e6 0.0
0.0 0.0 0.0

-1.3085996269604646e7 2.682744775977941e7 0.0
2.682744775977941e7 7.071712290974234e6 0.0
0.0 0.0 0.0

-9.308454229528483e6 -823244.1475213334 0.0
-823244.1475213334 1.5530162886764131e7 0.0
0.0 0.0 0.0

2.301354553083947e6 2.0987867016801056e7 0.0
2.0987867016801056e7 -5.141587647014668e6 0.0
0.0 0.0 0.0

-7.958798385412179e6 7.910213595407782e6 0.0
7.910213595407782e6 5.3393813273438275e7 0.0
0.0 0.0 0.0

-8.193846786677516e6 -6.19505761931821e6 0.0
-6.19505761931821e6 1.6088000794523284e7 0.0
0.0 0.0 0.0

-6.167217885433987e6 1.5525357974632585e7 0.0
1.5525357974632585e7 -2.8573475751232922e7 0.0
0.0 0.0 0.0

385179.7679512594 1.4256003005278701e7 0.0
1.4256003005278701e7 -8.907700235997513e6 0.0
0.0 0.0 0.0

-3.1776164612264484e6 2.0738241223633993e7 0.0
2.0738241223633993e7 764132.8255463643 0.0
0.0 0.0 0.0

-6.834250838310381e6 1.4408490581070283e7 0.0
1.4408490581070283e7 -857060.6574752503 0.0
0.0 0.0 0.0

-51844.47893523681 8.340896933899791e6 0.0
8.340896933899791e6 -3.461656597195255e6 0.0
0.0 0.0 0.0

-3.5102290157686654e6 1.87257733469949e7 0.0
1.87257733469949e7 -718687.6181820291 0.0
0.0 0.0 0.0

-4.189621652106409e6 2.2012396418953158e7 0.0
2.2012396418953158e7 3.9185542530947137e6 0.0
0.0 0.0 0.0

-3.0685221746472633e6 2.080651043256582e7 0.0
2.080651043256582e7 605114.0856236466 0.0
0.0 0.0 0.0

743598.1974510662 1.0192584368120413e7 0.0
1.0192584368120413e7 -4.30254962813915e7 0.0
0.0 0.0 0.0

-3.2865358695130805e6 1.4211076432322545e7 0.0
1.4211076432322545e7 -6.6857144627316315e6 0.0
0.0 0.0 0.0

-1.0104413322563602e7 -102513.19717247985 0.0
-102513.19717247985 3.893744608296184e7 0.0
0.0 0.0 0.0

5.567110737351277e6 1.8323185300205577e7 0.0
1.8323185300205577e7 3.6053972552095346e7 0.0
0.0 0.0 0.0

-3.532698263853772e7 463528.2170043836 0.0
463528.2170043836 9.800846121192796e6 0.0
0.0 0.0 0.0

1.8179695691319287e7 1.6694891203387186e7 0.0
1.6694891203387186e7 -4.221897536983184e6 0.0
0.0 0.0 0.0

1.5776417173400782e6 1.2065846832649948e7 0.0
1.2065846832649948e7 -1.7738472461116735e7 0.0
0.0 0.0 0.0

2.348310919779957e6 5.527427109915506e6 0.0
5.527427109915506e6 -7.082213999941891e6 0.0
0.0 0.0 0.0

2.5803437801726654e7 1.5817632345039945e7 0.0
1.5817632345039945e7 -8.956758472029507e6 0.0
0.0 0.0 0.0

2.78943361785106e6 9.980614342830123e6 0.0
9.980614342830123e6 -9.013004619391767e6 0.0
0.0 0.0 0.0

1.2568055634761939e7 1.6724765428151228e7 0.0
1.6724765428151228e7 6.046890177179065e6 0.0
0.0 0.0 0.0

-3.8473759790924764e6 1.9412843263442814e7 0.0
1.9412843263442814e7 643329.1877376903 0.0
0.0 0.0 0.0

-5.179469198792156e6 1.9902016536616888e7 0.0
1.9902016536616888e7 6.184634983814098e6 0.0
0.0 0.0 0.0

-382206.3585185122 1.0785769371200396e7 0.0
1.0785769371200396e7 -6.6386052969520055e6 0.0
0.0 0.0 0.0

-8.166323784435966e6 9.533218970335878e6 0.0
9.533218970335878e6 434128.2151658968 0.0
0.0 0.0 0.0

-2.2488907924878e6 1.2831890439057443e7 0.0
1.2831890439057443e7 -1.2627324419797983e7 0.0
0.0 0.0 0.0

-1.8887391468349562e6 1.557242256527099e7 0.0
1.557242256527099e7 4.602165895904875e6 0.0
0.0 0.0 0.0

-773401.4782008394 1.455204292384771e7 0.0
1.455204292384771e7 7.008802018295906e6 0.0
0.0 0.0 0.0

-8.602280184969902e6 6.6468387108391365e6 0.0
6.6468387108391365e6 4.942461802846692e7 0.0
0.0 0.0 0.0

-4.047284715368926e6 1.83521480576532e7 0.0
1.83521480576532e7 595593.8126756544 0.0
0.0 0.0 0.0

5.36426754110262e6 3.7230733765268237e6 0.0
3.7230733765268237e6 -1.8575286576031834e7 0.0
0.0 0.0 0.0

-4.85156287433992e6 1.62004672173759e7 0.0
1.62004672173759e7 9.976841114468385e6 0.0
0.0 0.0 0.0

-1.2511050589840603e6 1.4638043864806728e7 0.0
1.4638043864806728e7 7.9051872808438325e6 0.0
0.0 0.0 0.0

4.296242443517602e6 1.777571309287937e7 0.0
1.777571309287937e7 -5.750458353646931e6 0.0
0.0 0.0 0.0

-2.283060890055963e6 1.7764455389949948e7 0.0
1.7764455389949948e7 -4.640681741060559e6 0.0
0.0 0.0 0.0

-5.037699246549843e6 2.3806934842703797e7 0.0
2.3806934842703797e7 3.837771090872964e6 0.0
0.0 0.0 0.0

-689110.82597363 6.580261406741159e6 0.0
6.580261406741159e6 -3.199082694751491e6 0.0
0.0 0.0 0.0

-9.38000768177889e6 2.293291814551576e7 0.0
2.293291814551576e7 6.656269658892287e6 0.0
0.0 0.0 0.0

-4.0088178264157437e6 2.0049825836643875e7 0.0
2.0049825836643875e7 3.4576148104151078e6 0.0
0.0 0.0 0.0

-1.049191396562574e7 1.2055203853091324e7 0.0
1.2055203853091324e7 1.4664543815377966e7 0.0
0.0 0.0 0.0

1.4292038542005941e7 1.62289457990117e7 0.0
1.62289457990117e7 -6.076627453341314e6 0.0
0.0 0.0 0.0

104211.9190322198 1.4303118203101834e7 0.0
1.4303118203101834e7 -9.668851791228719e6 0.0
0.0 0.0 0.0

-4.0247738080429337e6 1.9296105534796756e7 0.0
1.9296105534796756e7 1.0960598849470618e6 0.0
0.0 0.0 0.0

-70420.33320054132 9.990716600882318e6 0.0
9.990716600882318e6 -6.933629533119363e6 0.0
0.0 0.0 0.0

-2.426821346161951e6 1.5468338779917365e7 0.0
1.5468338779917365e7 7.557299998152382e6 0.0
0.0 0.0 0.0

-1.0154571279871093e7 8.023788761460457e6 0.0
8.023788761460457e6 2.818304081372102e6 0.0
0.0 0.0 0.0

-9.379021728902953e6 1.6569761019392766e7 0.0
1.6569761019392766e7 3.337335995101774e6 0.0
0.0 0.0 0.0

172505.1395342173 1.4234549976124825e7 0.0
1.4234549976124825e7 -8.77275408909764e6 0.0
0.0 0.0 0.0

2.213203666094482e6 1.30622237377951e7 0.0
1.30622237377951e7 4.455135960469594e6 0.0
0.0 0.0 0.0

110847.96475026151 1.391064786095888e7 0.0
1.391064786095888e7 -1.2392291131830977e7 0.0
0.0 0.0 0.0

-7.315807637626613e6 1.5307995387803093e7 0.0
1.5307995387803093e7 1.4046149102621835e7 0.0
0.0 0.0 0.0

-1.5187001364969937e7 1.3242693382448794e7 0.0
1.3242693382448794e7 7.287573558277826e6 0.0
0.0 0.0 0.0

-1.9038041776455287e6 1.5449719246319598e7 0.0
1.5449719246319598e7 1.5345992436565629e6 0.0
0.0 0.0 0.0

-1.2060911594091758e7 2.822889474500545e6 0.0
2.822889474500545e6 1.5398534282390025e7 0.0
0.0 0.0 0.0

-632195.9707309296 1.506202026498942e7 0.0
1.506202026498942e7 9.019242796192193e6 0.0
0.0 0.0 0.0

3.149480751071341e6 2.244350485657941e7 0.0
2.244350485657941e7 -7.041014443946286e6 0.0
0.0 0.0 0.0

-2.8135489923997026e7 1.752302950648225e7 0.0
1.752302950648225e7 8.009618017691759e6 0.0
0.0 0.0 0.0

-183013.95344361942 2.637152127685494e7 0.0
2.637152127685494e7 -2.4642389477773164e6 0.0
0.0 0.0 0.0

-8.685669495179659e6 1.73758508085828e7 0.0
1.73758508085828e7 792924.0990160247 0.0
0.0 0.0 0.0

-1.3737032528389706e6 2.451945460585305e7 0.0
2.451945460585305e7 -119358.33064166742 0.0
0.0 0.0 0.0

-1.0806514303583317e7 76015.79846406175 0.0
76015.79846406175 1.412189968143552e7 0.0
0.0 0.0 0.0

5.603274582396068e6 1.723401219309541e7 0.0
1.723401219309541e7 -4.8917941604551105e6 0.0
0.0 0.0 0.0

-4.583175008713815e6 2.2837240032040894e7 0.0
2.2837240032040894e7 4.760133974846818e6 0.0
0.0 0.0 0.0

-2.855952867367831e6 1.5982876077622894e7 0.0
1.5982876077622894e7 264520.7877606567 0.0
0.0 0.0 0.0

706053.905908131 1.3074682956889147e7 0.0
1.3074682956889147e7 -1.5208401742726985e7 0.0
0.0 0.0 0.0

-5.820942378031453e6 2.1228581521334562e7 0.0
2.1228581521334562e7 5.967904972191812e6 0.0
0.0 0.0 0.0

-6.598587964961998e6 1.4035671686265716e7 0.0
1.4035671686265716e7 2.732596559130825e6 0.0
0.0 0.0 0.0

-1.950579198058114e6 2.427093829384171e7 0.0
2.427093829384171e7 -1.8426949038342256e6 0.0
0.0 0.0 0.0

-1.161643168209048e7 2.3187923061940283e7 0.0
2.3187923061940283e7 8.086735771461219e6 0.0
0.0 0.0 0.0

3.4671477407219526e6 1.7406453234437518e7 0.0
1.7406453234437518e7 -5.333098876621364e6 0.0
0.0 0.0 0.0

4.014695298051321e6 5.835900487756184e6 0.0
5.835900487756184e6 -1.1895067008536175e7 0.0
0.0 0.0 0.0

-2.089134690488536e6 1.3420686903545944e7 0.0
1.3420686903545944e7 -1.9748370128310464e7 0.0
0.0 0.0 0.0

3.4154564749898394e6 4.592226313642016e6 0.0
4.592226313642016e6 -1.0692749747323815e7 0.0
0.0 0.0 0.0

891814.9261155031 1.4918865654261129e7 0.0
1.4918865654261129e7 1.2015087438019065e7 0.0
0.0 0.0 0.0

2.0671009886219862e6 1.5859403267205298e7 0.0
1.5859403267205298e7 -4.742002674638689e6 0.0
0.0 0.0 0.0

729527.1491626292 2.1158861463443168e7 0.0
2.1158861463443168e7 -4.237559776414211e6 0.0
0.0 0.0 0.0

-1.216004901652911e7 1.2375242446887251e7 0.0
1.2375242446887251e7 1.6989635783423983e7 0.0
0.0 0.0 0.0

129848.42656381521 1.1243178609034536e7 0.0
1.1243178609034536e7 -5.946784539102435e6 0.0
0.0 0.0 0.0

-1.31881798275269e6 5.59064335229436e6 0.0
5.59064335229436e6 5.513844340725646e6 0.0
0.0 0.0 0.0

2.817628925084293e6 9.380484877187936e6 0.0
9.380484877187936e6 -3.2492405111985832e7 0.0
0.0 0.0 0.0

495959.5943102058 1.2559542815905733e7 0.0
1.2559542815905733e7 2.0873898193879293e6 0.0
0.0 0.0 0.0

-1.1060282252266532e7 2.106043826562581e7 0.0
2.106043826562581e7 6.68930188431241e6 0.0
0.0 0.0 0.0

71597.7113166023 1.3158253118586939e7 0.0
1.3158253118586939e7 -9.543466524105268e6 0.0
0.0 0.0 0.0

1.0901056096928198e7 1.530433201272978e7 0.0
1.530433201272978e7 1.4265778118606552e6 0.0
0.0 0.0 0.0

-1.1631243529716983e7 2.1377558182969172e6 0.0
2.1377558182969172e6 2.0094757581949286e7 0.0
0.0 0.0 0.0

-2.1501287687294863e7 1.8898850608552974e7 0.0
1.8898850608552974e7 5.7787368609652575e6 0.0
0.0 0.0 0.0

1.1893882798341945e7 2.203447741160541e7 0.0
2.203447741160541e7 -1.4014990571110105e7 0.0
0.0 0.0 0.0

-5.153635397789568e6 2.0038149303555764e7 0.0
2.0038149303555764e7 6.75726761134514e6 0.0
0.0 0.0 0.0

-653699.965262322 1.0862635152786344e7 0.0
1.0862635152786344e7 745095.4915926857 0.0
0.0 0.0 0.0

-1.1326091359744046e7 1.2151201485480318e7 0.0
1.2151201485480318e7 1.946196118457618e7 0.0
0.0 0.0 0.0

-9.628307457976e6 -5.232239681392368e6 0.0
-5.232239681392368e6 1.7870846193755336e7 0.0
0.0 0.0 0.0

-219831.90717143985 1.4087347304100176e7 0.0
1.4087347304100176e7 -1.052713774087717e7 0.0
0.0 0.0 0.0

-4.792945592836639e6 1.918516968708705e7 0.0
1.918516968708705e7 -4.626077625572901e6 0.0
0.0 0.0 0.0

-578416.6395936478 1.4297855755637214e7 0.0
1.4297855755637214e7 -6.954789188081612e6 0.0
0.0 0.0 0.0

-1.0466943097769538e7 7.7373323399938475e6 0.0
7.7373323399938475e6 3.2733940169898286e7 0.0
0.0 0.0 0.0

1.7592515329537485e6 1.1493100938987609e7 0.0
1.1493100938987609e7 -1.755863476246874e7 0.0
0.0 0.0 0.0

-5.754979745377874e6 1.9290816934599962e7 0.0
1.9290816934599962e7 -4.196185050666308e6 0.0
0.0 0.0 0.0

834950.8303916408 1.2827686847675683e7 0.0
1.2827686847675683e7 -1.5108197315051049e7 0.0
0.0 0.0 0.0

1.0365332683393028e7 1.5580111360767975e7 0.0
1.5580111360767975e7 4.935618211768753e6 0.0
0.0 0.0 0.0

-1.1307324883488687e7 5.886389818190366e6 0.0
5.886389818190366e6 3.0104189751978096e7 0.0
0.0 0.0 0.0

976488.3258860008 1.397638771757749e7 0.0
1.397638771757749e7 -2.2563796509894175e6 0.0
0.0 0.0 0.0

-4.53893331501139e6 1.5836221155125236e7 0.0
1.5836221155125236e7 1.1136332776507657e7 0.0
0.0 0.0 0.0

-1.541590855163345e6 2.026341657620949e7 0.0
2.026341657620949e7 -2.288517087101768e6 0.0
0.0 0.0 0.0

3.791505295351754e6 8.485548730524343e6 0.0
8.485548730524343e6 -1.756164601139926e7 0.0
0.0 0.0 0.0

2.176944608715887e6 8.019724338474218e6 0.0
8.019724338474218e6 -8.40061909225623e6 0.0
0.0 0.0 0.0

2.659748323619213e6 9.598346881895905e6 0.0
9.598346881895905e6 -2.8611103346549697e7 0.0
0.0 0.0 0.0

-4.053864013205383e6 1.7267166425591286e7 0.0
1.7267166425591286e7 -2.1644654646839714e6 0.0
0.0 0.0 0.0

-1.250502614366374e7 5.39481228569408e6 0.0
5.39481228569408e6 2.648239426519829e7 0.0
0.0 0.0 0.0

-3.214575619906276e6 1.7252222655937143e7 0.0
1.7252222655937143e7 -3.7885201084985444e6 0.0
0.0 0.0 0.0

-264377.6173419198 1.3679777231935177e7 0.0
1.3679777231935177e7 -7.253185453881943e6 0.0
0.0 0.0 0.0

3.5900847943577785e6 7.827094891072578e6 0.0
7.827094891072578e6 -2.605373423891132e7 0.0
0.0 0.0 0.0

-1.1904774901107864e7 1.0936416998871582e7 0.0
1.0936416998871582e7 2.107746312802014e7 0.0
0.0 0.0 0.0

956587.8960883137 1.375448640285059e7 0.0
1.375448640285059e7 5.07813945781499e6 0.0
0.0 0.0 0.0

1.930282313352801e6 1.0520177843359329e7 0.0
1.0520177843359329e7 -2.2217036458254557e7 0.0
0.0 0.0 0.0

5.182064951787549e6 4.066970863614014e6 0.0
4.066970863614014e6 -2.0350853692313865e7 0.0
0.0 0.0 0.0

-6.068412710941985e6 1.6089253405593498e7 0.0
1.6089253405593498e7 1.0541313649238579e7 0.0
0.0 0.0 0.0

-3.55763414758645e6 1.8349309135296453e7 0.0
1.8349309135296453e7 -3.4895099959415444e6 0.0
0.0 0.0 0.0

1.4685758106398163e6 1.0694619726241106e7 0.0
1.0694619726241106e7 -9.239800702102207e6 0.0
0.0 0.0 0.0

-1.085293233143467e7 -1.1526351781195602e6 0.0
-1.1526351781195602e6 2.434249107056871e7 0.0
0.0 0.0 0.0

109928.08962721104 3.584827964391344e6 0.0
3.584827964391344e6 -840960.7653755735 0.0
0.0 0.0 0.0

-8.459780159204548e6 1.4359404132983867e7 0.0
1.4359404132983867e7 1.2047324931220636e7 0.0
0.0 0.0 0.0

1.1055566489966322e7 1.7048044736519452e7 0.0
1.7048044736519452e7 6.133727328390798e6 0.0
0.0 0.0 0.0

7.631812249915469e6 1.6274392645997029e7 0.0
1.6274392645997029e7 5.9890492434397265e6 0.0
0.0 0.0 0.0

-6.538650721017898e6 1.7987129855147857e7 0.0
1.7987129855147857e7 -3.996583183992738e6 0.0
0.0 0.0 0.0

-1.512746211012648e6 1.150557338403114e7 0.0
1.150557338403114e7 -8.394181894757131e6 0.0
0.0 0.0 0.0

-3.3766659363238825e6 1.797031467600043e7 0.0
1.797031467600043e7 -4.321911401381919e6 0.0
0.0 0.0 0.0

-6.731179817360964e6 1.7607502745136447e7 0.0
1.7607502745136447e7 -536018.6346414653 0.0
0.0 0.0 0.0

2.511287130387727e6 9.926981649991406e6 0.0
9.926981649991406e6 -2.591628449151934e7 0.0
0.0 0.0 0.0

476473.16625791905 4.527818075297037e6 0.0
4.527818075297037e6 -3.761913431019701e6 0.0
0.0 0.0 0.0

305723.2647593026 6.212426529188135e6 0.0
6.212426529188135e6 -2.622645187710344e6 0.0
0.0 0.0 0.0

184636.9633228921 1.3193986539031709e7 0.0
1.3193986539031709e7 -20867.41652255356 0.0
0.0 0.0 0.0

6.781421597880133e6 1.6986239371756893e7 0.0
1.6986239371756893e7 7.724862947653863e6 0.0
0.0 0.0 0.0

-551591.9277471025 1.2395120021139601e7 0.0
1.2395120021139601e7 3.54588131563388e6 0.0
0.0 0.0 0.0

-6.922035812985484e6 1.5372980263569176e7 0.0
1.5372980263569176e7 1.0508883588952215e7 0.0
0.0 0.0 0.0

-2.0366097677926205e7 5.971501525052838e6 0.0
5.971501525052838e6 1.1064162245245188e7 0.0
0.0 0.0 0.0

277088.7787996691 1.381361183962938e7 0.0
1.381361183962938e7 4.0906975725344215e6 0.0
0.0 0.0 0.0

3.3359950264032064e6 6.090335841997636e6 0.0
6.090335841997636e6 -1.2291296271595903e7 0.0
0.0 0.0 0.0

-1.093431014748592e7 2.212084970007973e7 0.0
2.212084970007973e7 7.43558817623044e6 0.0
0.0 0.0 0.0

-1.0469083891347459e7 -2.997111945066774e6 0.0
-2.997111945066774e6 2.6108336101073235e7 0.0
0.0 0.0 0.0

-735363.3329201582 1.5132444501580607e7 0.0
1.5132444501580607e7 -5.4014914880295005e6 0.0
0.0 0.0 0.0

572827.6907701725 1.669707182156694e7 0.0
1.669707182156694e7 1.042242831178085e7 0.0
0.0 0.0 0.0

-4.0936068270555893e6 1.821475902512703e7 0.0
1.821475902512703e7 -3.1127565403010016e6 0.0
0.0 0.0 0.0

-294472.2784424685 1.2614713285928836e7 0.0
1.2614713285928836e7 -1.74734106061757e7 0.0
0.0 0.0 0.0

8.046283333521873e6 1.707668441320648e7 0.0
1.707668441320648e7 7.012920055061022e6 0.0
0.0 0.0 0.0

-604797.321847375 1.3406612304424489e7 0.0
1.3406612304424489e7 -1.3760431911920553e7 0.0
0.0 0.0 0.0

-161922.8901752769 1.4392796194026263e7 0.0
1.4392796194026263e7 5.245401260390531e6 0.0
0.0 0.0 0.0

-997717.8143240204 1.5591259049239429e7 0.0
1.5591259049239429e7 9.902558612378856e6 0.0
0.0 0.0 0.0

-4.90703272756191e6 1.578746528941011e7 0.0
1.578746528941011e7 1.0370113389374806e7 0.0
0.0 0.0 0.0

-2.941067662948868e6 1.5617364978992095e7 0.0
1.5617364978992095e7 6.224845644669292e6 0.0
0.0 0.0 0.0

4.539738128018967e6 5.683704768226467e6 0.0
5.683704768226467e6 -1.991608498961116e7 0.0
0.0 0.0 0.0

-2.8508313254738264e6 2.159107402798427e7 0.0
2.159107402798427e7 597930.2070840988 0.0
0.0 0.0 0.0

-3.4233729038516534e6 1.4725312425491782e7 0.0
1.4725312425491782e7 -5.539282404940974e6 0.0
0.0 0.0 0.0

1.3795019813451396e7 1.4072698670759423e7 0.0
1.4072698670759423e7 3.388456985631191e6 0.0
0.0 0.0 0.0

-7.1890680084324675e6 2.0709706609170113e7 0.0
2.0709706609170113e7 6.46004613240641e6 0.0
0.0 0.0 0.0

5.093994374031565e6 5.009004689199079e6 0.0
5.009004689199079e6 -2.248674923570573e7 0.0
0.0 0.0 0.0

-4.6039672078672275e6 1.3906158821621412e7 0.0
1.3906158821621412e7 4.0530245634961063e6 0.0
0.0 0.0 0.0

6.51227604760446e6 1.47154307968557e7 0.0
1.47154307968557e7 2.9026707158545116e6 0.0
0.0 0.0 0.0

1.913447643088441e7 1.2286908123271968e7 0.0
1.2286908123271968e7 -124619.44825461507 0.0
0.0 0.0 0.0

-5.324095910210664e6 2.2882088778344627e7 0.0
2.2882088778344627e7 5.553624023766153e6 0.0
0.0 0.0 0.0

456461.693706532 1.4392220672355313e7 0.0
1.4392220672355313e7 -1.1737681456440195e7 0.0
0.0 0.0 0.0

-8.166937534909342e6 6.219213193966636e6 0.0
6.219213193966636e6 1.2378426677407298e7 0.0
0.0 0.0 0.0

-1.0665898592994599e7 -3.1601148183625317e6 0.0
-3.1601148183625317e6 2.4426293995769173e7 0.0
0.0 0.0 0.0

436894.66371392476 1.3588226919781316e7 0.0
1.3588226919781316e7 2.524521721219701e6 0.0
0.0 0.0 0.0

3.9739247609375133e6 1.4511747567924468e7 0.0
1.4511747567924468e7 8.842769394748898e6 0.0
0.0 0.0 0.0

-1.1347529996874945e7 405.1830698550119 0.0
405.1830698550119 1.8886741229528382e7 0.0
0.0 0.0 0.0

-1.948436082276497e6 9.787648892520761e6 0.0
9.787648892520761e6 -2.76057247321588e6 0.0
0.0 0.0 0.0

-2.0465369778742804e6 1.535175419955756e7 0.0
1.535175419955756e7 -7.037965750659854e6 0.0
0.0 0.0 0.0

-1.0284982693901444e6 1.2739511209740864e7 0.0
1.2739511209740864e7 -1.6241557475606646e7 0.0
0.0 0.0 0.0

-3.200882076764334e6 2.1180268925600186e7 0.0
2.1180268925600186e7 898079.0088165326 0.0
0.0 0.0 0.0

-1.5074233241264415e6 2.0682611250099514e7 0.0
2.0682611250099514e7 -2.7004949239952066e6 0.0
0.0 0.0 0.0

-2.9032367914324733e6 2.6064883733688045e7 0.0
2.6064883733688045e7 -1.9959786128168888e6 0.0
0.0 0.0 0.0

-1.2806288274733156e7 2.5606095742376033e7 0.0
2.5606095742376033e7 8.214146053909229e6 0.0
0.0 0.0 0.0

2.910206780809566e6 1.4882869680609828e7 0.0
1.4882869680609828e7 1.150203486435772e7 0.0
0.0 0.0 0.0

-1.9548401956692878e6 1.4109122372367669e7 0.0
1.4109122372367669e7 -4.079908177437769e7 0.0
0.0 0.0 0.0

-8.572355371833568e6 -1.8952614913218066e6 0.0
-1.8952614913218066e6 1.0610139674994549e7 0.0
0.0 0.0 0.0

-4.558891709399504e6 1.272474211211982e7 0.0
1.272474211211982e7 -1.7388680429104626e7 0.0
0.0 0.0 0.0

-1.9890807896499787e6 1.0992876006025335e7 0.0
1.0992876006025335e7 -8.992406730042418e6 0.0
0.0 0.0 0.0

1.8670589021874305e6 1.5344311130543806e7 0.0
1.5344311130543806e7 1.1644838056472896e7 0.0
0.0 0.0 0.0

-3.920481543304994e6 1.3760104812711194e7 0.0
1.3760104812711194e7 -2.09931049682676e7 0.0
0.0 0.0 0.0

-3.005975985117821e6 1.2543710685501734e7 0.0
1.2543710685501734e7 -1.5514216371352116e7 0.0
0.0 0.0 0.0

6.43877588552748e6 1.7139853273752853e7 0.0
1.7139853273752853e7 6.541270588446399e6 0.0
0.0 0.0 0.0

-3.5766388210524376e6 1.5597490344371283e7 0.0
1.5597490344371283e7 -4.733594669376527e6 0.0
0.0 0.0 0.0

4.0540606930984575e6 7.958794940683875e6 0.0
7.958794940683875e6 -1.9448568481008686e7 0.0
0.0 0.0 0.0

181697.09318404927 1.3587071832179895e7 0.0
1.3587071832179895e7 1.0036661951717113e6 0.0
0.0 0.0 0.0

-5.962720841334467e6 1.8801234266320065e7 0.0
1.8801234266320065e7 -3.752459007116087e6 0.0
0.0 0.0 0.0

1.0700449000540413e6 1.402905112751255e7 0.0
1.402905112751255e7 7.048438234148829e6 0.0
0.0 0.0 0.0

3.5706806329817865e6 4.659984554746831e6 0.0
4.659984554746831e6 -1.0852623364831567e7 0.0
0.0 0.0 0.0

-4.183560460632509e6 1.918739886335137e7 0.0
1.918739886335137e7 1.604410264223569e6 0.0
0.0 0.0 0.0

-4.572210948615223e6 2.155358474218904e7 0.0
2.155358474218904e7 3.784531363831826e6 0.0
0.0 0.0 0.0

-1.2137851647933215e7 1.0780959253820904e7 0.0
1.0780959253820904e7 1.9909537913282864e7 0.0
0.0 0.0 0.0

50251.944574262016 1.3050389215133348e7 0.0
1.3050389215133348e7 4.999816807451841e6 0.0
0.0 0.0 0.0

199154.6324458304 1.6084173915514441e7 0.0
1.6084173915514441e7 1.0657548451499877e7 0.0
0.0 0.0 0.0

-4.83983188766338e6 2.3642145972336583e7 0.0
2.3642145972336583e7 4.65971215293717e6 0.0
0.0 0.0 0.0

-6.718707344616435e6 1.5297054504039489e7 0.0
1.5297054504039489e7 1.1169795450875264e7 0.0
0.0 0.0 0.0

-8.904526983861748e6 -4.370993051070663e6 0.0
-4.370993051070663e6 1.3244192473417476e7 0.0
0.0 0.0 0.0

-4.334523970286312e6 2.1594788460096605e7 0.0
2.1594788460096605e7 4.657814984860951e6 0.0
0.0 0.0 0.0

-2.999037184916833e6 1.855589958714045e7 0.0
1.855589958714045e7 -671640.9277669922 0.0
0.0 0.0 0.0

-4.900756336658891e6 1.502499094858971e7 0.0
1.502499094858971e7 1.8588902642206645e6 0.0
0.0 0.0 0.0

-3.0054359509148216e6 2.1360897103232525e7 0.0
2.1360897103232525e7 537476.2343471283 0.0
0.0 0.0 0.0

-2.9141457724771695e6 2.1066244432310335e7 0.0
2.1066244432310335e7 667240.8001521253 0.0
0.0 0.0 0.0

-1.1115793339246756e6 1.4584873311834818e7 0.0
1.4584873311834818e7 -6.138308487264714e6 0.0
0.0 0.0 0.0

1.7661237073468415e6 1.3866115429760693e7 0.0
1.3866115429760693e7 5.887079714635201e6 0.0
0.0 0.0 0.0

3.589512551920047e6 7.925467753428911e6 0.0
7.925467753428911e6 -1.8488703385027193e7 0.0
0.0 0.0 0.0

-5.579854949378784e6 1.3975131765499089e7 0.0
1.3975131765499089e7 -2.3511736852215204e7 0.0
0.0 0.0 0.0

-2.434302264364044e6 1.625757525237247e7 0.0
1.625757525237247e7 1.7856918170729142e6 0.0
0.0 0.0 0.0

-2.0570624758635215e7 2.3803809196359616e7 0.0
2.3803809196359616e7 -3.403322866741563e6 0.0
0.0 0.0 0.0

-3.6487563745926856e6 1.2931709206480386e7 0.0
1.2931709206480386e7 -1.5060939887136392e7 0.0
0.0 0.0 0.0

-2.2423905351897094e7 2.252404135625962e7 0.0
2.252404135625962e7 199705.7402447341 0.0
0.0 0.0 0.0

-4.633520707622213e6 1.680876673355495e7 0.0
1.680876673355495e7 7.935646051664181e6 0.0
0.0 0.0 0.0

-1.0231991617762879e7 -3.83161392873165e6 0.0
-3.83161392873165e6 2.919981500110127e7 0.0
0.0 0.0 0.0

-2.0478598324307327e6 2.0202852149061095e7 0.0
2.0202852149061095e7 -2.136355863435647e6 0.0
0.0 0.0 0.0

-6.727565330017034e6 1.935055673937453e7 0.0
1.935055673937453e7 -4.359837283662321e6 0.0
0.0 0.0 0.0

201391.73426631838 1.4721263532190785e7 0.0
1.4721263532190785e7 -1.0919830349816814e7 0.0
0.0 0.0 0.0

-9.212671063445482e6 2.2337482835122056e7 0.0
2.2337482835122056e7 7.007754250828523e6 0.0
0.0 0.0 0.0

-1.0926447635124769e7 3.082901317888818e6 0.0
3.082901317888818e6 1.5041132367411453e7 0.0
0.0 0.0 0.0

3.606657113612283e6 8.51214831087625e6 0.0
8.51214831087625e6 -2.241771053220493e7 0.0
0.0 0.0 0.0

-1.1722278541526496e7 2.196545323605598e7 0.0
2.196545323605598e7 7.291307998697611e6 0.0
0.0 0.0 0.0

143449.19381354912 1.4081263283837896e7 0.0
1.4081263283837896e7 2.132162112888556e6 0.0
0.0 0.0 0.0

-1.0059141385785446e7 5.375673020849158e6 0.0
5.375673020849158e6 1.1179988650152657e7 0.0
0.0 0.0 0.0

-839349.9598361081 1.384905512954323e7 0.0
1.384905512954323e7 -7.478440554177064e6 0.0
0.0 0.0 0.0

-1.6267399652738164e6 1.930195057286009e7 0.0
1.930195057286009e7 -2.94598518191275e6 0.0
0.0 0.0 0.0

-2.0633897056419212e7 6.2554232648062995e6 0.0
6.2554232648062995e6 1.0330031101063214e7 0.0
0.0 0.0 0.0

-5.759379794734651e6 2.0891970216133706e7 0.0
2.0891970216133706e7 6.366765560935522e6 0.0
0.0 0.0 0.0

406948.24830827117 1.408807269076991e7 0.0
1.408807269076991e7 -1.2495272704841468e7 0.0
0.0 0.0 0.0

3.383353984987772e6 8.089179975961037e6 0.0
8.089179975961037e6 -1.6606899097006155e7 0.0
0.0 0.0 0.0

974566.5960285608 4.968199553016031e6 0.0
4.968199553016031e6 -4.885256859293476e6 0.0
0.0 0.0 0.0

1.171433992051877e6 1.3044673069809271e7 0.0
1.3044673069809271e7 -1.3175930026167862e7 0.0
0.0 0.0 0.0

-1.0751604992114257e7 1.8799946113812994e7 0.0
1.8799946113812994e7 -823491.7953215535 0.0
0.0 0.0 0.0

-1.131089480984691e6 2.5769574239337843e7 0.0
2.5769574239337843e7 -1.372432455126308e6 0.0
0.0 0.0 0.0

-2.938758122393055e6 1.5409910043737097e7 0.0
1.5409910043737097e7 1.5629203717190925e7 0.0
0.0 0.0 0.0

322673.4727316478 1.3588141174162837e7 0.0
1.3588141174162837e7 6.029126551705428e6 0.0
0.0 0.0 0.0

3.0481885529569206e6 1.3523021028750248e7 0.0
1.3523021028750248e7 1.079635791111222e7 0.0
0.0 0.0 0.0

-2.3272221821455453e6 1.4288014317399884e7 0.0
1.4288014317399884e7 -7.757407357514844e6 0.0
0.0 0.0 0.0

-1.2279913806948543e7 1.0549445437780598e7 0.0
1.0549445437780598e7 2.0269621544731457e7 0.0
0.0 0.0 0.0

-938168.1441673804 1.2339682619090868e7 0.0
1.2339682619090868e7 -9.601760014662223e6 0.0
0.0 0.0 0.0

-2.0580513789269354e7 2.23635119775509e7 0.0
2.23635119775509e7 1.0714757046776798e7 0.0
0.0 0.0 0.0

-1.1177562064993437e7 170838.26280257892 0.0
170838.26280257892 2.3208982488860928e7 0.0
0.0 0.0 0.0

-1.046593408481209e7 -3.662251074778385e6 0.0
-3.662251074778385e6 2.988312268443449e7 0.0
0.0 0.0 0.0

1.1378147069690302e6 1.0570895053652665e7 0.0
1.0570895053652665e7 -1.0412209313362129e7 0.0
0.0 0.0 0.0

-1.1778458832138875e6 1.197764347710432e6 0.0
1.197764347710432e6 737447.9968016658 0.0
0.0 0.0 0.0

3.292570843818892e6 8.48951383627319e6 0.0
8.48951383627319e6 -2.7350247175220132e7 0.0
0.0 0.0 0.0

-1.209557129938863e7 8.405795374263637e6 0.0
8.405795374263637e6 2.4437793647785835e7 0.0
0.0 0.0 0.0

2.4146118903861893e6 1.0014394174271611e7 0.0
1.0014394174271611e7 -2.2084750718148783e7 0.0
0.0 0.0 0.0

-9.51304153489717e6 -3.1854982545720492e6 0.0
-3.1854982545720492e6 1.7663811973373033e7 0.0
0.0 0.0 0.0

-4.617531871491562e6 1.9986980258068975e7 0.0
1.9986980258068975e7 3.6431850072001154e6 0.0
0.0 0.0 0.0

-1.37411154001706e6 1.961466705978241e7 0.0
1.961466705978241e7 -2.972302008924916e6 0.0
0.0 0.0 0.0

-4.544943536175739e6 2.239655924212361e7 0.0
2.239655924212361e7 3.571514337603004e6 0.0
0.0 0.0 0.0

-2.7415633880857825e6 2.5277654205028523e7 0.0
2.5277654205028523e7 -367862.9039834854 0.0
0.0 0.0 0.0

-2.9552414863972664e6 2.3264340226797592e7 0.0
2.3264340226797592e7 357531.72307606635 0.0
0.0 0.0 0.0

-1.0680264083262619e7 -3.194331337940024e6 0.0
-3.194331337940024e6 2.3366742993235562e7 0.0
0.0 0.0 0.0

4.839743145738777e6 5.228850788692919e6 0.0
5.228850788692919e6 -2.3925961178667422e7 0.0
0.0 0.0 0.0

392188.99580340134 1.4837321959993012e7 0.0
1.4837321959993012e7 -8.90342765979073e6 0.0
0.0 0.0 0.0

-1.358316734318523e6 1.6286135460470736e7 0.0
1.6286135460470736e7 -5.697580425371129e6 0.0
0.0 0.0 0.0

2.7260916896397397e6 9.778967355328403e6 0.0
9.778967355328403e6 -1.3967498673008502e7 0.0
0.0 0.0 0.0

-3.149566960381773e6 1.166082752468525e7 0.0
1.166082752468525e7 -1.2426413015215619e7 0.0
0.0 0.0 0.0

435781.55860416166 1.295399132753793e7 0.0
1.295399132753793e7 1.4526052699345325e6 0.0
0.0 0.0 0.0

-5.4035462018162925e6 1.819340740705976e7 0.0
1.819340740705976e7 6.845962859158104e6 0.0
0.0 0.0 0.0

-7.566782063516392e6 2.1298019764271405e7 0.0
2.1298019764271405e7 6.296717741705384e6 0.0
0.0 0.0 0.0

-1.130762993675008e6 1.1864022913528848e7 0.0
1.1864022913528848e7 -5.770271055652619e6 0.0
0.0 0.0 0.0

-847511.2739106716 1.000895334050138e7 0.0
1.000895334050138e7 -2.952568252681407e6 0.0
0.0 0.0 0.0

5.080594965006161e6 4.438304423414799e6 0.0
4.438304423414799e6 -1.967943002824127e7 0.0
0.0 0.0 0.0

1.0514454101542488e6 1.4404675429277925e7 0.0
1.4404675429277925e7 -5.663534541344717e6 0.0
0.0 0.0 0.0

3.381557244486754e6 8.3426984337185705e6 0.0
8.3426984337185705e6 -1.7701016809179656e7 0.0
0.0 0.0 0.0

-1.3120168219697303e6 6.886613060389197e6 0.0
6.886613060389197e6 -2.3425294229119467e6 0.0
0.0 0.0 0.0

-776914.0231768562 9.180144133834668e6 0.0
9.180144133834668e6 -4.605267953719574e6 0.0
0.0 0.0 0.0

-112408.65163984126 4.162010493195651e6 0.0
4.162010493195651e6 -2.5606860457449546e6 0.0
0.0 0.0 0.0

-4.27967587297343e6 1.8449796948700786e7 0.0
1.8449796948700786e7 3.448750616418932e6 0.0
0.0 0.0 0.0

794717.676543274 1.3341387471441455e7 0.0
1.3341387471441455e7 -1.4186269737359047e7 0.0
0.0 0.0 0.0

2.9986050356819294e6 8.390923851240097e6 0.0
8.390923851240097e6 -3.1131176207575288e7 0.0
0.0 0.0 0.0

-2.8074595994400918e6 1.678640043324118e7 0.0
1.678640043324118e7 -3.183583262133985e6 0.0
0.0 0.0 0.0

-1.3405489216370346e7 2.186395024853454e7 0.0
2.186395024853454e7 -4.224050468628882e6 0.0
0.0 0.0 0.0

-1.4698041992611602e7 2.1079968783462007e7 0.0
2.1079968783462007e7 7.300140772424443e6 0.0
0.0 0.0 0.0

-4.641126654445994e6 1.8876835666877646e7 0.0
1.8876835666877646e7 -4.695159048484376e6 0.0
0.0 0.0 0.0

-901737.7721441519 1.2574444054628167e7 0.0
1.2574444054628167e7 -2.0649868254162654e7 0.0
0.0 0.0 0.0

-4.562527474875168e6 1.2680930579394137e7 0.0
1.2680930579394137e7 -1.5208425474557003e7 0.0
0.0 0.0 0.0

-9.289133237796566e6 2.0337470153983064e7 0.0
2.0337470153983064e7 -4.106389327451281e6 0.0
0.0 0.0 0.0

-6.121367089847438e6 1.3794791613899257e7 0.0
1.3794791613899257e7 -2.0404557803088915e7 0.0
0.0 0.0 0.0

-9.8863431841589e6 1.4055816316726284e7 0.0
1.4055816316726284e7 1.457854835400078e7 0.0
0.0 0.0 0.0

-8.668135818880528e6 -659487.7096369083 0.0
-659487.7096369083 1.081409578773372e7 0.0
0.0 0.0 0.0

-2.9257121774633746e6 1.8288800496286094e7 0.0
1.8288800496286094e7 -1.8053718633336464e6 0.0
0.0 0.0 0.0

-6.38622661279963e6 1.6401522496194303e7 0.0
1.6401522496194303e7 9.457944325101558e6 0.0
0.0 0.0 0.0

-9.641761724593014e6 -3.6675194666376403e6 0.0
-3.6675194666376403e6 1.4138519357839245e7 0.0
0.0 0.0 0.0

2.153877332991829e6 1.12710856225749e7 0.0
1.12710856225749e7 -1.7234573505234137e7 0.0
0.0 0.0 0.0

-4.044667539228797e6 1.8812896353554543e7 0.0
1.8812896353554543e7 836280.120991407 0.0
0.0 0.0 0.0

-12791.360811013728 1.347273169467782e7 0.0
1.347273169467782e7 -1.7199866499355144e6 0.0
0.0 0.0 0.0

-5.1227228186945e6 1.9882953134400178e7 0.0
1.9882953134400178e7 5.624526926711284e6 0.0
0.0 0.0 0.0

-8.997279836615674e6 2.0985114094909877e7 0.0
2.0985114094909877e7 -4.095101082241762e6 0.0
0.0 0.0 0.0

-5.035547587602185e6 1.3049959122663392e7 0.0
1.3049959122663392e7 -1.678515925705735e7 0.0
0.0 0.0 0.0

-82061.50866980711 1.6517634574364303e7 0.0
1.6517634574364303e7 1.1350053879432375e7 0.0
0.0 0.0 0.0

-1.8011663698205844e7 2.0543581492726568e7 0.0
2.0543581492726568e7 7.823535316197063e6 0.0
0.0 0.0 0.0

-7.0636209988603685e6 5.828916826998591e6 0.0
5.828916826998591e6 1.1125891520883543e7 0.0
0.0 0.0 0.0

-1.1884539902616821e7 6.58583514393817e6 0.0
6.58583514393817e6 3.1297078230793253e7 0.0
0.0 0.0 0.0

-957454.5901472076 1.487142552105596e7 0.0
1.487142552105596e7 -5.825250418958675e6 0.0
0.0 0.0 0.0

-2.3500645336488234e6 2.3136986178585898e7 0.0
2.3136986178585898e7 -669045.9026653351 0.0
0.0 0.0 0.0

2.9967327560538957e6 1.3956672699048506e7 0.0
1.3956672699048506e7 9.989109256736016e6 0.0
0.0 0.0 0.0

1.086068629690665e7 1.5133366602210967e7 0.0
1.5133366602210967e7 3.1241364066488314e6 0.0
0.0 0.0 0.0

-6.671719243657913e6 1.9852529381380435e7 0.0
1.9852529381380435e7 -4.489568601328911e6 0.0
0.0 0.0 0.0

-1.486794657804946e6 2.1722516031685457e7 0.0
2.1722516031685457e7 -2.235227591435887e6 0.0
0.0 0.0 0.0

4.4367311746876715e6 1.3565532202614214e7 0.0
1.3565532202614214e7 1.7880205538145207e7 0.0
0.0 0.0 0.0

4.665566849226564e6 6.411215051975963e6 0.0
6.411215051975963e6 -2.9797160786755785e7 0.0
0.0 0.0 0.0

-5.659185947881926e6 2.035661819900176e7 0.0
2.035661819900176e7 6.631169693963872e6 0.0
0.0 0.0 0.0

38952.60130926175 1.2566421834541736e7 0.0
1.2566421834541736e7 -937718.9351868189 0.0
0.0 0.0 0.0

-6.806738944267141e6 1.4406020183946934e7 0.0
1.4406020183946934e7 -2.2689131042253725e7 0.0
0.0 0.0 0.0

-2.4460957853866e6 1.6739290173297372e7 0.0
1.6739290173297372e7 -1.4001874725843603e6 0.0
0.0 0.0 0.0

5.496449942234384e6 3.969639969466594e6 0.0
3.969639969466594e6 -2.573963479388074e7 0.0
0.0 0.0 0.0

-1.6285950522736497e6 1.552468022928726e7 0.0
1.552468022928726e7 -5.907983589718959e6 0.0
0.0 0.0 0.0

134454.9748340533 1.6710198936178202e7 0.0
1.6710198936178202e7 -6.211190551800929e6 0.0
0.0 0.0 0.0

1.0350005944630163e7 1.5660622261407739e7 0.0
1.5660622261407739e7 -5.390210617016589e6 0.0
0.0 0.0 0.0

-1.0927220966326263e7 1.2512199531635318e7 0.0
1.2512199531635318e7 1.4828770091909634e7 0.0
0.0 0.0 0.0

-2.6422863310185084e6 1.1867105722306583e7 0.0
1.1867105722306583e7 1.0948503351069258e6 0.0
0.0 0.0 0.0

-3.494966778515814e6 1.805497889575673e7 0.0
1.805497889575673e7 -4.1865450200994173e6 0.0
0.0 0.0 0.0

-3.212877438012534e6 1.8454575732358035e7 0.0
1.8454575732358035e7 -1.3034840570640664e6 0.0
0.0 0.0 0.0

-1.077825273927852e7 -950236.3669698964 0.0
-950236.3669698964 3.198589293720087e7 0.0
0.0 0.0 0.0

-1.1353424829369138e6 1.339612532433086e7 0.0
1.339612532433086e7 -5.70319912903284e6 0.0
0.0 0.0 0.0

-8.415794159772374e6 2.1502890736043315e7 0.0
2.1502890736043315e7 6.778398222833637e6 0.0
0.0 0.0 0.0

1.731152925552772e6 7.487399298971756e6 0.0
7.487399298971756e6 -9.204965714983612e6 0.0
0.0 0.0 0.0

1.626837237938894e6 1.6176264220722765e7 0.0
1.6176264220722765e7 1.1072491981790679e7 0.0
0.0 0.0 0.0

-2.7825010365905367e7 2.033777879161501e7 0.0
2.033777879161501e7 8.98566253893436e6 0.0
0.0 0.0 0.0

698511.7120710583 1.2699095465319173e7 0.0
1.2699095465319173e7 3.394778801993317e6 0.0
0.0 0.0 0.0

3.7209542687900197e6 6.6088321168779e6 0.0
6.6088321168779e6 -1.1478678985569516e7 0.0
0.0 0.0 0.0

-1.8353965951826358e6 1.6127730781197807e7 0.0
1.6127730781197807e7 1.3802254766565276e7 0.0
0.0 0.0 0.0

-1.7359119723321316e6 1.8062550990541566e7 0.0
1.8062550990541566e7 -4.1482565834473134e6 0.0
0.0 0.0 0.0

6.945215032899249e6 2.1421387936633803e7 0.0
2.1421387936633803e7 -6.909647085805931e6 0.0
0.0 0.0 0.0

-2.4769493798224535e6 1.1375620190480137e7 0.0
1.1375620190480137e7 -8.256498324243804e6 0.0
0.0 0.0 0.0

-4.811627110728094e6 1.250381511911905e7 0.0
1.250381511911905e7 4.764301608355662e6 0.0
0.0 0.0 0.0

1.1755445092796972e6 7.505324911968121e6 0.0
7.505324911968121e6 -8.125790546294355e6 0.0
0.0 0.0 0.0

-1.6589062118510962e6 1.3294179449360918e7 0.0
1.3294179449360918e7 -1.5566220815856691e7 0.0
0.0 0.0 0.0

-1.095188340193675e6 1.5718560850085158e7 0.0
1.5718560850085158e7 -6.280498635870781e6 0.0
0.0 0.0 0.0

5.492418447384426e6 1.70901943846186e7 0.0
1.70901943846186e7 7.355333764208251e6 0.0
0.0 0.0 0.0

-4.428031230173402e6 1.778560105497963e7 0.0
1.778560105497963e7 -3.136846983984407e6 0.0
0.0 0.0 0.0

86567.91353051784 1.668695616710636e7 0.0
1.668695616710636e7 -6.229499823222755e6 0.0
0.0 0.0 0.0

-6.447991977930194e6 1.2918637975431115e6 0.0
1.2918637975431115e6 1.1225440512992648e7 0.0
0.0 0.0 0.0

-1.9787293610300797e6 4.0051440375103853e6 0.0
4.0051440375103853e6 4.215464290447518e6 0.0
0.0 0.0 0.0

3.632199017761033e6 1.6196066787721692e7 0.0
1.6196066787721692e7 -3.8736130452775722e6 0.0
0.0 0.0 0.0

421547.7935930226 1.3215056251024585e7 0.0
1.3215056251024585e7 3.02884296116645e6 0.0
0.0 0.0 0.0

2.586628886331659e7 1.276641442820175e7 0.0
1.276641442820175e7 2.1460182702071313e6 0.0
0.0 0.0 0.0

-9.71711814403712e6 -4.1536326146949325e6 0.0
-4.1536326146949325e6 1.594974979790967e7 0.0
0.0 0.0 0.0

-7.743957466141644e6 1.8982661769787125e7 0.0
1.8982661769787125e7 -3.2239110407511983e6 0.0
0.0 0.0 0.0

-1.0735277914966028e7 1.81794978657428e7 0.0
1.81794978657428e7 3.358014264709997e6 0.0
0.0 0.0 0.0

-1.8302515092198674e7 1.9374342945057016e7 0.0
1.9374342945057016e7 -2.6115645219982397e6 0.0
0.0 0.0 0.0

2.0351865919506118e7 5.626352396061111e6 0.0
5.626352396061111e6 -3.314910089338001e6 0.0
0.0 0.0 0.0

-1.0658751504684536e7 5.68950545186542e6 0.0
5.68950545186542e6 3.7480244242903166e7 0.0
0.0 0.0 0.0

-950611.5650933082 9.48842900008446e6 0.0
9.48842900008446e6 -2.309065385125616e6 0.0
0.0 0.0 0.0

-7.313790010432146e6 1.909936188882762e7 0.0
1.909936188882762e7 -3.539742489827916e6 0.0
0.0 0.0 0.0

-4.960795427561227e6 2.005387627022423e7 0.0
2.005387627022423e7 6.441641508482427e6 0.0
0.0 0.0 0.0

-1.3922273291565243e6 1.5456381696018504e7 0.0
1.5456381696018504e7 -7.118644877849547e6 0.0
0.0 0.0 0.0

1.4069279758699057e6 1.1108441825682268e7 0.0
1.1108441825682268e7 -1.0949169152486268e7 0.0
0.0 0.0 0.0

-118266.03461252502 1.3299522919941258e7 0.0
1.3299522919941258e7 -4.133376534866736e6 0.0
0.0 0.0 0.0

-3.7475985429011704e6 1.2315649686382506e7 0.0
1.2315649686382506e7 -1.5687610075344032e7 0.0
0.0 0.0 0.0

-3.7396894042357e6 1.4787536763211297e7 0.0
1.4787536763211297e7 -3.3251450427838083e7 0.0
0.0 0.0 0.0

5.938028564684862e6 5.220266160117274e6 0.0
5.220266160117274e6 -1.4874816320090988e6 0.0
0.0 0.0 0.0

469652.7790197197 2.2323483696487617e7 0.0
2.2323483696487617e7 -4.0884765364461862e6 0.0
0.0 0.0 0.0

-3.596107763567236e6 1.2080284348328978e7 0.0
1.2080284348328978e7 -1.1987026606163925e7 0.0
0.0 0.0 0.0

7.881729322288877e6 1.3675860421570582e7 0.0
1.3675860421570582e7 3.782143641166866e6 0.0
0.0 0.0 0.0

486767.0989459355 1.2837889687924178e7 0.0
1.2837889687924178e7 -6.10126104326218e6 0.0
0.0 0.0 0.0

-2.6904822291947003e6 1.8060804594742157e7 0.0
1.8060804594742157e7 -1.616889011450503e6 0.0
0.0 0.0 0.0

-1.8792686181279134e6 1.265083062791245e7 0.0
1.265083062791245e7 -1.106695439305288e7 0.0
0.0 0.0 0.0

-1.6881584991792277e7 1.1695752398682488e7 0.0
1.1695752398682488e7 8.1251902612653505e6 0.0
0.0 0.0 0.0

-5.165798033627836e6 -141441.29794447747 0.0
-141441.29794447747 5.018730304545876e6 0.0
0.0 0.0 0.0

-8.813451532904718e6 1.3615542560780965e7 0.0
1.3615542560780965e7 1.4406681886037502e7 0.0
0.0 0.0 0.0

-762851.8606367216 1.1490244819893079e7 0.0
1.1490244819893079e7 822165.574078948 0.0
0.0 0.0 0.0

-4.028312544761598e6 1.3815130668291012e7 0.0
1.3815130668291012e7 -8.216489289425012e6 0.0
0.0 0.0 0.0

-986593.8015582229 1.4142948569540063e7 0.0
1.4142948569540063e7 -5.191778874781898e6 0.0
0.0 0.0 0.0

-1.7893474899551356e6 1.028931172908672e7 0.0
1.028931172908672e7 -3.366596634732783e6 0.0
0.0 0.0 0.0

1.1885854390170718e7 1.5877657858116651e7 0.0
1.5877657858116651e7 -5.082413466607828e6 0.0
0.0 0.0 0.0

-8.819914836259829e6 2.326471995173245e7 0.0
2.326471995173245e7 7.2928237969031725e6 0.0
0.0 0.0 0.0

945637.1991022462 1.738195970453473e7 0.0
1.738195970453473e7 -5.19999429712336e6 0.0
0.0 0.0 0.0

-1.805622654487839e6 1.6109476922411447e7 0.0
1.6109476922411447e7 -2.2027971374106086e6 0.0
0.0 0.0 0.0

-4.03599667588195e6 2.2680026369521365e7 0.0
2.2680026369521365e7 4.0174481166139487e6 0.0
0.0 0.0 0.0

-8.205205210823328e6 1.478142359835141e7 0.0
1.478142359835141e7 1.2218231081095498e7 0.0
0.0 0.0 0.0

1.5214968648456433e6 6.9896173133302415e6 0.0
6.9896173133302415e6 -6.838103452640767e6 0.0
0.0 0.0 0.0

-269065.84780324774 6.536377252203796e6 0.0
6.536377252203796e6 -1.8003452383920988e6 0.0
0.0 0.0 0.0

-5.002389945763687e6 1.3445631219536804e7 0.0
1.3445631219536804e7 -2.120948841694474e7 0.0
0.0 0.0 0.0

-2.8296497798216157e6 1.5721231019414376e7 0.0
1.5721231019414376e7 3.151364723459702e6 0.0
0.0 0.0 0.0

1.9717946969054593e6 5.387082091529281e6 0.0
5.387082091529281e6 -7.268196766126504e6 0.0
0.0 0.0 0.0

-3.452875705599903e7 2.2821722954451572e7 0.0
2.2821722954451572e7 4.042329328812631e6 0.0
0.0 0.0 0.0

2.993670995099237e6 8.098372703555087e6 0.0
8.098372703555087e6 -3.5650477562315606e7 0.0
0.0 0.0 0.0

-452977.610773328 8.372606282449672e6 0.0
8.372606282449672e6 -4.794107890043058e6 0.0
0.0 0.0 0.0

-4.0338472495983536e6 1.3817325790954629e7 0.0
1.3817325790954629e7 -2.303518514979219e7 0.0
0.0 0.0 0.0

5.031891041107892e6 5.015274248570375e6 0.0
5.015274248570375e6 -2.3333134721084718e7 0.0
0.0 0.0 0.0

8.94481404820142e6 2.326426161217917e7 0.0
2.326426161217917e7 -9.935817248294383e6 0.0
0.0 0.0 0.0

3.727544159053794e6 8.473370226037487e6 0.0
8.473370226037487e6 -1.6641922991929267e7 0.0
0.0 0.0 0.0

-1.1003444814923814e7 9.651357601737829e6 0.0
9.651357601737829e6 2.805031906641279e7 0.0
0.0 0.0 0.0

-1.085837572412875e7 1.2913822561556675e7 0.0
1.2913822561556675e7 1.516219633918194e7 0.0
0.0 0.0 0.0

-4.7414892763329595e6 1.7426976956917446e7 0.0
1.7426976956917446e7 7.9357255945820315e6 0.0
0.0 0.0 0.0

-6.773855554965716e6 1.6961443443572227e7 0.0
1.6961443443572227e7 -486530.5600141601 0.0
0.0 0.0 0.0

-9.735579087904003e6 1.3617797790634392e7 0.0
1.3617797790634392e7 1.5899418923400415e7 0.0
0.0 0.0 0.0

-4.613145118505997e6 1.834748140145491e7 0.0
1.834748140145491e7 2.3959402041480886e6 0.0
0.0 0.0 0.0

4.904403128926364e6 1.4493627711465375e7 0.0
1.4493627711465375e7 1.6348010885297557e7 0.0
0.0 0.0 0.0

-7.3046422149762325e6 455385.14149064815 0.0
455385.14149064815 8.585718463797651e6 0.0
0.0 0.0 0.0

-206064.1692357068 1.5194998942076985e7 0.0
1.5194998942076985e7 -9.38407513722564e6 0.0
0.0 0.0 0.0

932200.5756050684 1.079580210679231e7 0.0
1.079580210679231e7 -3.958200563707854e7 0.0
0.0 0.0 0.0

-8.169155089850619e6 2.4221334464456014e7 0.0
2.4221334464456014e7 7.398870512727023e6 0.0
0.0 0.0 0.0

-1.6472860869786986e6 1.913269809527102e7 0.0
1.913269809527102e7 -3.905543860779575e6 0.0
0.0 0.0 0.0

1.4132660077113162e6 1.431424721271669e7 0.0
1.431424721271669e7 391669.3930701531 0.0
0.0 0.0 0.0

-1.0530200473631792e7 1.2702239483603206e7 0.0
1.2702239483603206e7 1.636663750138966e7 0.0
0.0 0.0 0.0

-1.5965291111523006e7 2.386446618043044e7 0.0
2.386446618043044e7 9.315780985724133e6 0.0
0.0 0.0 0.0

-994737.0889611691 1.6740368049551036e7 0.0
1.6740368049551036e7 -6.832939068091236e6 0.0
0.0 0.0 0.0

-1.2940547458122075e6 1.280002915545726e7 0.0
1.280002915545726e7 -1.878810072502506e7 0.0
0.0 0.0 0.0

-1.320662788897351e7 2.531428460246416e7 0.0
2.531428460246416e7 7.690887752420098e6 0.0
0.0 0.0 0.0

1.5147923989822071e7 2.082996143063581e7 0.0
2.082996143063581e7 -1.2807372243083056e7 0.0
0.0 0.0 0.0

879319.7932878964 1.3526857033262515e7 0.0
1.3526857033262515e7 1.611676803049293e6 0.0
0.0 0.0 0.0

2.68561510306134e6 9.660280746633884e6 0.0
9.660280746633884e6 -1.5064057519751072e7 0.0
0.0 0.0 0.0

-5.823183945730503e6 1.4887944331578044e7 0.0
1.4887944331578044e7 -2.513230609348535e7 0.0
0.0 0.0 0.0

4.603197399316339e6 2.1758977227797274e7 0.0
2.1758977227797274e7 -5.893166369705591e6 0.0
0.0 0.0 0.0

330474.9406827069 1.3653398651326807e7 0.0
1.3653398651326807e7 -1.0417952294880329e7 0.0
0.0 0.0 0.0

-3.001566496929214e6 2.060736475995162e7 0.0
2.060736475995162e7 -471738.0689328931 0.0
0.0 0.0 0.0

1.6693490130821299e6 1.0042995029549677e7 0.0
1.0042995029549677e7 -3.3434566153040677e7 0.0
0.0 0.0 0.0

-76678.20619032579 1.4424734740163669e7 0.0
1.4424734740163669e7 3.488349749969411e6 0.0
0.0 0.0 0.0

-1.7362357596427478e7 2.166211429981762e7 0.0
2.166211429981762e7 9.508225167454183e6 0.0
0.0 0.0 0.0

-4.092786664869437e6 1.869269316212536e7 0.0
1.869269316212536e7 2.8998962064807434e6 0.0
0.0 0.0 0.0

1.0793406767364968e7 1.3988961192201653e7 0.0
1.3988961192201653e7 1.8241043324179256e6 0.0
0.0 0.0 0.0

-4.578219611854553e6 2.302608267855148e7 0.0
2.302608267855148e7 3.384419411650095e6 0.0
0.0 0.0 0.0

36925.45362983341 1.4004382430852622e7 0.0
1.4004382430852622e7 5.8822895195133425e6 0.0
0.0 0.0 0.0

436558.1688742612 3.9827789288477683e6 0.0
3.9827789288477683e6 -3.384379791978555e6 0.0
0.0 0.0 0.0

906668.4805571444 2.3104506807186246e7 0.0
2.3104506807186246e7 -2.9213546490321783e6 0.0
0.0 0.0 0.0

649662.7368300436 1.3746834529278325e7 0.0
1.3746834529278325e7 -1.3384273581815748e7 0.0
0.0 0.0 0.0

5.377665680155717e6 4.334325481551034e6 0.0
4.334325481551034e6 -2.8317198329277173e7 0.0
0.0 0.0 0.0

211116.6613426162 9.11841216558278e6 0.0
9.11841216558278e6 -5.696411525905704e6 0.0
0.0 0.0 0.0

2.010421239211185e6 6.133289436381292e6 0.0
6.133289436381292e6 -7.302982443675373e6 0.0
0.0 0.0 0.0

1.3146875551931174e6 1.1671057815092146e7 0.0
1.1671057815092146e7 -1.0896230756379262e7 0.0
0.0 0.0 0.0

-1.4506320102795977e7 2.0620611152203e7 0.0
2.0620611152203e7 8.008770054731557e6 0.0
0.0 0.0 0.0

-1.5832822263193284e6 1.5877000580132775e7 0.0
1.5877000580132775e7 1.4855889439635957e6 0.0
0.0 0.0 0.0

719034.7949166624 1.7509773292119544e7 0.0
1.7509773292119544e7 -5.411121168350849e6 0.0
0.0 0.0 0.0

5.074300121633022e6 5.7675876872277465e6 0.0
5.7675876872277465e6 -2.2960348422894564e7 0.0
0.0 0.0 0.0

-1.1616827306457988e6 1.5421596789319322e7 0.0
1.5421596789319322e7 -6.084193378998514e6 0.0
0.0 0.0 0.0

-183898.72018279647 1.3349188433430824e7 0.0
1.3349188433430824e7 -9.408737097633678e6 0.0
0.0 0.0 0.0

-5.442803647330491e6 1.8447592326339543e7 0.0
1.8447592326339543e7 -3.9540214140813346e6 0.0
0.0 0.0 0.0

4.266786748760395e6 2.0462700898945123e7 0.0
2.0462700898945123e7 -6.077091361416456e6 0.0
0.0 0.0 0.0

-5.328330864045516e6 1.8408904007049177e7 0.0
1.8408904007049177e7 7.948838298264654e6 0.0
0.0 0.0 0.0

-857764.7312209699 1.4510573450091675e7 0.0
1.4510573450091675e7 7.504004013934363e6 0.0
0.0 0.0 0.0

-2.1306662243552264e6 1.4687554782894976e7 0.0
1.4687554782894976e7 4.881415055643131e7 0.0
0.0 0.0 0.0

-5.649540271368988e6 2.5167789053013515e7 0.0
2.5167789053013515e7 5.106702650532449e6 0.0
0.0 0.0 0.0

643608.2341055884 1.4955765476953998e7 0.0
1.4955765476953998e7 -7.701794827082566e6 0.0
0.0 0.0 0.0

3.6655958519280683e6 8.884115225449976e6 0.0
8.884115225449976e6 -1.900169418071397e7 0.0
0.0 0.0 0.0

3.899661660604678e6 8.33272771133215e6 0.0
8.33272771133215e6 -1.987825074541289e7 0.0
0.0 0.0 0.0

5.276293111773226e6 4.410720200638006e6 0.0
4.410720200638006e6 -1.7162521096601803e7 0.0
0.0 0.0 0.0

-5.170819877418506e6 1.807648591751711e7 0.0
1.807648591751711e7 7.820663599744605e6 0.0
0.0 0.0 0.0

4.922762112244233e6 4.579136477027344e6 0.0
4.579136477027344e6 -1.7169406378977094e7 0.0
0.0 0.0 0.0

-1.154194297952747e7 -1.2857209443692823e6 0.0
-1.2857209443692823e6 2.184108642021507e7 0.0
0.0 0.0 0.0

-5.4720311676319875e6 1.6245574136496559e7 0.0
1.6245574136496559e7 1.0758214660389304e7 0.0
0.0 0.0 0.0

-955436.5456359682 8.656796818365077e6 0.0
8.656796818365077e6 -3.9283254069657847e6 0.0
0.0 0.0 0.0

-2.134159425100776e6 1.946894078905301e7 0.0
1.946894078905301e7 -3.1906223275214527e6 0.0
0.0 0.0 0.0

-632723.9891123679 2.1404587006725784e7 0.0
2.1404587006725784e7 -1.9074939791238825e6 0.0
0.0 0.0 0.0

279861.62936269026 1.2511755851042818e7 0.0
1.2511755851042818e7 642089.8358079995 0.0
0.0 0.0 0.0

2.0082993222122993e6 9.968945114735076e6 0.0
9.968945114735076e6 -2.9176649091360595e7 0.0
0.0 0.0 0.0

5.472076283794852e6 4.684628953353933e6 0.0
4.684628953353933e6 -2.47547125736755e7 0.0
0.0 0.0 0.0

-3.122454766847438e7 2.6291145427538335e7 0.0
2.6291145427538335e7 -1.6182656401237044e6 0.0
0.0 0.0 0.0

9.782296521238077e6 1.7625903046310883e7 0.0
1.7625903046310883e7 6.524492276974128e6 0.0
0.0 0.0 0.0

-1.1492083796130982e6 2.1135880115149546e7 0.0
2.1135880115149546e7 -1.6872481310483455e6 0.0
0.0 0.0 0.0

-3.1225540750759635e6 1.529774522338519e7 0.0
1.529774522338519e7 1.0079511354919795e7 0.0
0.0 0.0 0.0

133581.0696691722 1.3642629028613558e7 0.0
1.3642629028613558e7 1.0802064685186585e6 0.0
0.0 0.0 0.0

-1.2522223106160842e7 3.892100806840704e6 0.0
3.892100806840704e6 2.61240248079226e7 0.0
0.0 0.0 0.0

-9.10037389427742e6 2.2231957445386153e7 0.0
2.2231957445386153e7 6.797587817595426e6 0.0
0.0 0.0 0.0

-732420.0004996606 1.1495758038919149e7 0.0
1.1495758038919149e7 -6.335967572882223e6 0.0
0.0 0.0 0.0

-1.0863375685740627e7 -2.273999462510035e6 0.0
-2.273999462510035e6 1.6147213230793124e7 0.0
0.0 0.0 0.0

-5.559753564311564e6 9.680532399321636e6 0.0
9.680532399321636e6 6.243518812927399e7 0.0
0.0 0.0 0.0

-173806.22477223026 1.5482919535325976e7 0.0
1.5482919535325976e7 -9.183214749740943e6 0.0
0.0 0.0 0.0

2.647687652551512e6 4.951211426474585e6 0.0
4.951211426474585e6 -7.604324178343317e6 0.0
0.0 0.0 0.0

-1.0670806873865018e7 5.86756944387301e6 0.0
5.86756944387301e6 3.912132388917336e7 0.0
0.0 0.0 0.0

5.422587662431085e6 4.346217090706046e6 0.0
4.346217090706046e6 -2.0827411790714916e7 0.0
0.0 0.0 0.0

-4.488080710361579e6 1.6765716630754177e7 0.0
1.6765716630754177e7 -3.841213147202921e6 0.0
0.0 0.0 0.0

-1.0473608295044135e7 1.9583525219016615e7 0.0
1.9583525219016615e7 -2.823631325435501e6 0.0
0.0 0.0 0.0

-69044.72845698381 1.4256991108465398e7 0.0
1.4256991108465398e7 -1.1530965671930479e7 0.0
0.0 0.0 0.0

-4.166717137545512e6 6.755128191074758e6 0.0
6.755128191074758e6 5.114636398384423e6 0.0
0.0 0.0 0.0

-2.4854695744043053e6 1.6526559547409488e7 0.0
1.6526559547409488e7 309041.4579449883 0.0
0.0 0.0 0.0

6.610519659980942e6 1.9616792888662055e7 0.0
1.9616792888662055e7 -6.839037056143923e6 0.0
0.0 0.0 0.0

-4.69827535759202e6 -1.0140765083701883e6 0.0
-1.0140765083701883e6 7.458808790188691e6 0.0
0.0 0.0 0.0

4.812419629277768e6 1.4539416483599588e7 0.0
1.4539416483599588e7 2.281817441208422e6 0.0
0.0 0.0 0.0

3.5675421069244784e6 2.4960991799937002e7 0.0
2.4960991799937002e7 -8.830258171431027e6 0.0
0.0 0.0 0.0

5.311092523947956e6 4.450634568411966e6 0.0
4.450634568411966e6 -1.8884023403462004e7 0.0
0.0 0.0 0.0

-5.10383415852974e6 1.3818891909274245e7 0.0
1.3818891909274245e7 2.3930933439795827e6 0.0
0.0 0.0 0.0

4.645148785537573e6 1.5919648194152921e7 0.0
1.5919648194152921e7 2.0483557372033462e7 0.0
0.0 0.0 0.0

3.314827843536409e7 5.768848709239017e6 0.0
5.768848709239017e6 -2.722159294605231e6 0.0
0.0 0.0 0.0

-1.575682491464891e7 2.0757204590280466e7 0.0
2.0757204590280466e7 -657146.5573075572 0.0
0.0 0.0 0.0

-4.818991950572821e6 1.812258168858107e7 0.0
1.812258168858107e7 2.9868856828097487e6 0.0
0.0 0.0 0.0

2.0665701670197546e6 9.988191620265499e6 0.0
9.988191620265499e6 -2.5951758149267975e7 0.0
0.0 0.0 0.0

-1.1634221315070067e7 2.0908415094164208e7 0.0
2.0908415094164208e7 6.959575624735825e6 0.0
0.0 0.0 0.0

3.3682956352831414e6 1.4864711640833434e7 0.0
1.4864711640833434e7 4.326373050256915e6 0.0
0.0 0.0 0.0

-8.035495813628394e6 5.848226719767096e6 0.0
5.848226719767096e6 4.891809229215485e7 0.0
0.0 0.0 0.0

-4.876422569471627e6 1.7137274732790604e7 0.0
1.7137274732790604e7 7.732593579475919e6 0.0
0.0 0.0 0.0

676211.6889485728 1.411016208802196e7 0.0
1.411016208802196e7 6.910870383811702e6 0.0
0.0 0.0 0.0

-1.1439851064390973e6 1.4429016758361356e7 0.0
1.4429016758361356e7 -6.972632320218269e6 0.0
0.0 0.0 0.0

3.350910312157235e6 1.5630235852793075e7 0.0
1.5630235852793075e7 -3.6175111860635076e6 0.0
0.0 0.0 0.0

902008.5738454172 1.530982315479752e7 0.0
1.530982315479752e7 -6.14829113614383e6 0.0
0.0 0.0 0.0

-2.1991867863916755e6 1.1084103951808045e7 0.0
1.1084103951808045e7 -2.9960401237097736e6 0.0
0.0 0.0 0.0

-1.6668608536641435e6 1.5485389286850095e7 0.0
1.5485389286850095e7 1.0674071031220367e7 0.0
0.0 0.0 0.0

112810.30311664884 1.4119987271991393e7 0.0
1.4119987271991393e7 543299.4910796384 0.0
0.0 0.0 0.0

-39175.0340186581 1.3750351139088165e7 0.0
1.3750351139088165e7 -2.8106186379641886e6 0.0
0.0 0.0 0.0

-1.5239544625284122e6 1.280880788592582e7 0.0
1.280880788592582e7 -1.6853183675169602e7 0.0
0.0 0.0 0.0

-4.338906817193093e6 2.0013426602317523e7 0.0
2.0013426602317523e7 4.576762764747214e6 0.0
0.0 0.0 0.0

-8.73199048804893e6 1.837405371352387e7 0.0
1.837405371352387e7 -4.2932169008875545e6 0.0
0.0 0.0 0.0

-7.89732686849523e6 2.275882081802532e7 0.0
2.275882081802532e7 6.242518913201889e6 0.0
0.0 0.0 0.0

-2.75940266538402e6 1.5363010639414238e7 0.0
1.5363010639414238e7 7.491941208785518e6 0.0
0.0 0.0 0.0

4.779468947248146e6 6.194065678865956e6 0.0
6.194065678865956e6 -1.9044674335638713e7 0.0
0.0 0.0 0.0

-498304.15881086094 1.517292524688161e7 0.0
1.517292524688161e7 -9.694454817710215e6 0.0
0.0 0.0 0.0

3.95173076218528e6 2.0623732083622552e7 0.0
2.0623732083622552e7 -6.340167410863997e6 0.0
0.0 0.0 0.0

-1.0958970178321704e7 -2.4085213358011357e6 0.0
-2.4085213358011357e6 1.9264474281803966e7 0.0
0.0 0.0 0.0

-3.477926398834255e6 1.6508231836608151e7 0.0
1.6508231836608151e7 4.947637715228183e6 0.0
0.0 0.0 0.0

735373.1165172819 1.4126339028909301e7 0.0
1.4126339028909301e7 227321.15667232286 0.0
0.0 0.0 0.0

3.199686005489166e6 1.6545509148365315e7 0.0
1.6545509148365315e7 -4.635369447333009e6 0.0
0.0 0.0 0.0

-1.1742561156762097e7 3.2279796160424086e6 0.0
3.2279796160424086e6 1.949505568941484e7 0.0
0.0 0.0 0.0

1.6796486811568341e6 1.41554551657359e7 0.0
1.41554551657359e7 9.137534953046026e6 0.0
0.0 0.0 0.0

-6.387192994494194e6 1.651902623639376e7 0.0
1.651902623639376e7 -2.351720686179136e6 0.0
0.0 0.0 0.0

1.1493558401218532e6 1.266189277588175e7 0.0
1.266189277588175e7 -1.6441083432855735e7 0.0
0.0 0.0 0.0

103874.79928145953 2.423029235611029e7 0.0
2.423029235611029e7 -1.9677147986130514e6 0.0
0.0 0.0 0.0

-7.755009502647448e6 2.3366467433805697e7 0.0
2.3366467433805697e7 5.932337248227717e6 0.0
0.0 0.0 0.0

-1.1513025723410755e7 4.0763622865947136e6 0.0
4.0763622865947136e6 1.7053454252774563e7 0.0
0.0 0.0 0.0

-3.1630032398476973e6 1.7247182355132744e7 0.0
1.7247182355132744e7 -3.2305092654755763e6 0.0
0.0 0.0 0.0

-6.344212290133836e6 2.34368902334075e7 0.0
2.34368902334075e7 5.078797489409276e6 0.0
0.0 0.0 0.0

-6.652050561685112e6 2.298562442227464e7 0.0
2.298562442227464e7 5.464353353537569e6 0.0
0.0 0.0 0.0

733670.269490029 1.3549441179412166e7 0.0
1.3549441179412166e7 5.498862690711754e6 0.0
0.0 0.0 0.0

2.461171046790161e6 1.0636436543905023e7 0.0
1.0636436543905023e7 -1.3721339904066455e7 0.0
0.0 0.0 0.0

2.528243753783935e7 1.989267450528054e7 0.0
1.989267450528054e7 7.916112609305071e6 0.0
0.0 0.0 0.0

-2.83601125379832e7 -257370.1625241318 0.0
-257370.1625241318 9.934029565128075e6 0.0
0.0 0.0 0.0

-1.3252715195069585e7 2.0280692681214795e7 0.0
2.0280692681214795e7 5.972093129121091e6 0.0
0.0 0.0 0.0

5.068018470150239e6 4.302819314045792e6 0.0
4.302819314045792e6 -2.0817253342570096e7 0.0
0.0 0.0 0.0

-1.103147561675042e6 1.5052420809764745e7 0.0
1.5052420809764745e7 -7.985402678604182e6 0.0
0.0 0.0 0.0

-1.0159796364022944e7 2.1292186398325004e7 0.0
2.1292186398325004e7 7.024840840832604e6 0.0
0.0 0.0 0.0

-1.2301427995007005e7 1.1258014164602952e6 0.0
1.1258014164602952e6 2.1312565980992973e7 0.0
0.0 0.0 0.0

3.135176273455684e6 8.778330679633232e6 0.0
8.778330679633232e6 -1.8030408678301126e7 0.0
0.0 0.0 0.0

-2.8293321204555463e6 1.2345144591101168e7 0.0
1.2345144591101168e7 -1.3773532987760503e7 0.0
0.0 0.0 0.0

3.3528260078019914e6 1.5651293331963593e7 0.0
1.5651293331963593e7 4.009856893232054e6 0.0
0.0 0.0 0.0

-2.3109465629297197e7 2.1538497549216203e7 0.0
2.1538497549216203e7 1.6956104230768932e6 0.0
0.0 0.0 0.0

-2.7821660760736326e6 9.568530960365547e6 0.0
9.568530960365547e6 -1.1553790503388369e6 0.0
0.0 0.0 0.0

-8.0329301248638835e6 2.06846666665079e7 0.0
2.06846666665079e7 6.475830295224547e6 0.0
0.0 0.0 0.0

-4.023233958322492e6 2.0515826450147096e7 0.0
2.0515826450147096e7 3.648075563479488e6 0.0
0.0 0.0 0.0

-9.085012741040792e6 3.353457362945186e6 0.0
3.353457362945186e6 1.6093399979350645e7 0.0
0.0 0.0 0.0

-5.979454057079512e6 517579.8009760193 0.0
517579.8009760193 7.798271508655592e6 0.0
0.0 0.0 0.0

1.8090434678902589e6 1.089854183271038e7 0.0
1.089854183271038e7 -1.4136115589493006e7 0.0
0.0 0.0 0.0

-1.1174150534372488e7 135456.59085273228 0.0
135456.59085273228 2.154709745162995e7 0.0
0.0 0.0 0.0

645364.937834546 1.3072637720146962e7 0.0
1.3072637720146962e7 -1.3182949900804872e7 0.0
0.0 0.0 0.0

3.581277906387171e6 1.4707565117692113e7 0.0
1.4707565117692113e7 -2.3220125655371947e6 0.0
0.0 0.0 0.0

1.2508695749321044e6 7.914465817609803e6 0.0
7.914465817609803e6 -8.490142611596469e6 0.0
0.0 0.0 0.0

-1.2458612429561408e7 2.014108599066901e7 0.0
2.014108599066901e7 6.200458779427674e6 0.0
0.0 0.0 0.0

-5.009962791001993e6 1.8763372037229247e7 0.0
1.8763372037229247e7 -3.491980798880728e6 0.0
0.0 0.0 0.0

141177.6900143545 1.1209081204807924e7 0.0
1.1209081204807924e7 470592.8401584216 0.0
0.0 0.0 0.0

-542987.691702113 1.3136646745900087e7 0.0
1.3136646745900087e7 -1.8099592794060924e6 0.0
0.0 0.0 0.0

2.1637486026171194e6 1.1088614779807167e7 0.0
1.1088614779807167e7 -1.3007466957227318e7 0.0
0.0 0.0 0.0

-2.7882188969778894e6 1.2619613059077512e7 0.0
1.2619613059077512e7 -1.3642565951284094e7 0.0
0.0 0.0 0.0

-9.818963630080406e6 -2.0241533213730683e6 0.0
-2.0241533213730683e6 1.3770764454951037e7 0.0
0.0 0.0 0.0

-3.638186225259753e6 1.0183923207220387e7 0.0
1.0183923207220387e7 2.6893293702523615e6 0.0
0.0 0.0 0.0

-814020.2140510471 1.6532818859159958e7 0.0
1.6532818859159958e7 -7.2490852335517295e6 0.0
0.0 0.0 0.0

3.5716685284330985e6 6.83854202244195e6 0.0
6.83854202244195e6 -1.4268502385168886e7 0.0
0.0 0.0 0.0

-2.5017625293941893e7 1.7014071086388804e7 0.0
1.7014071086388804e7 1.758546571539618e6 0.0
0.0 0.0 0.0

2.6765861746773124e6 1.5443052990661604e7 0.0
1.5443052990661604e7 -3.5630729284013333e6 0.0
0.0 0.0 0.0

1.124095158981411e7 1.3910563111201322e7 0.0
1.3910563111201322e7 -1.8328843356078235e6 0.0
0.0 0.0 0.0

-9.491777541641956e6 2.5550842731877256e7 0.0
2.5550842731877256e7 7.375509216197072e6 0.0
0.0 0.0 0.0

-8.738571137615278e6 1.7067118473042157e6 0.0
1.7067118473042157e6 1.230816534464641e7 0.0
0.0 0.0 0.0

-532512.2453225795 1.3756597419804549e7 0.0
1.3756597419804549e7 -8.593280807357946e6 0.0
0.0 0.0 0.0

-4.35588074189445e6 1.7044551823914666e7 0.0
1.7044551823914666e7 -2.9017493757096296e6 0.0
0.0 0.0 0.0

-1.5912780787906073e7 2.232657999117414e7 0.0
2.232657999117414e7 8.583247013076188e6 0.0
0.0 0.0 0.0

-2.9791087934393166e6 1.3563260715538232e7 0.0
1.3563260715538232e7 -2.0332505918522816e7 0.0
0.0 0.0 0.0

230426.85679366614 1.4070107909584954e7 0.0
1.4070107909584954e7 3.806505009391603e6 0.0
0.0 0.0 0.0

-1.569848570596755e6 1.2662336801472226e7 0.0
1.2662336801472226e7 -1.5065786400907064e7 0.0
0.0 0.0 0.0

-1.2782281613397762e7 2.438372170393461e7 0.0
2.438372170393461e7 8.508748189095462e6 0.0
0.0 0.0 0.0

-2.224591251372936e6 1.8169292457438447e7 0.0
1.8169292457438447e7 -4.323346492449606e6 0.0
0.0 0.0 0.0

-3.5679618903725008e6 1.704433399708004e7 0.0
1.704433399708004e7 -367987.1100821571 0.0
0.0 0.0 0.0

3.380314808389453e6 9.374084634645607e6 0.0
9.374084634645607e6 -1.9315768213146895e7 0.0
0.0 0.0 0.0

-1.1977142007981803e7 3.530804265975919e6 0.0
3.530804265975919e6 2.457881902423623e7 0.0
0.0 0.0 0.0

-1.48839811679667e6 1.3740428083488662e7 0.0
1.3740428083488662e7 -5.840862785897179e6 0.0
0.0 0.0 0.0

3.2785689762588823e6 1.5637405307899041e7 0.0
1.5637405307899041e7 -3.6117195075590955e6 0.0
0.0 0.0 0.0

-2.428961621302517e6 1.3369267244655153e7 0.0
1.3369267244655153e7 -1.7730311369228333e7 0.0
0.0 0.0 0.0

-8.811246189567897e6 2.056617233945171e7 0.0
2.056617233945171e7 6.268708045808664e6 0.0
0.0 0.0 0.0

8.63793415671077e6 2.336822209414326e7 0.0
2.336822209414326e7 -1.0096939132440003e7 0.0
0.0 0.0 0.0

-2.646197423896171e6 1.6939998648384407e7 0.0
1.6939998648384407e7 -2.401026861679039e6 0.0
0.0 0.0 0.0

-9.144413417602662e6 2.1467681696911767e7 0.0
2.1467681696911767e7 6.671001027857241e6 0.0
0.0 0.0 0.0

-9.217888275301652e6 1.386031008768605e7 0.0
1.386031008768605e7 1.2947459966121767e7 0.0
0.0 0.0 0.0

1.1910371511950158e6 1.4892123936391354e7 0.0
1.4892123936391354e7 -5.389866027135966e6 0.0
0.0 0.0 0.0

-4.562946207856292e6 2.0140632643208608e7 0.0
2.0140632643208608e7 5.152679397608411e6 0.0
0.0 0.0 0.0

-2.010755244943806e6 1.2969953461665517e7 0.0
1.2969953461665517e7 -1.9487505816782437e7 0.0
0.0 0.0 0.0

4.551853796762486e6 5.438083392841214e6 0.0
5.438083392841214e6 -1.832847599574436e7 0.0
0.0 0.0 0.0

-2.4795084534540647e6 1.325507358403179e7 0.0
1.325507358403179e7 -1.5969334199657308e7 0.0
0.0 0.0 0.0

-4.930558840681046e6 2.174733644150204e7 0.0
2.174733644150204e7 4.424974784539033e6 0.0
0.0 0.0 0.0

-1.9902319429674272e6 1.3985509637693236e7 0.0
1.3985509637693236e7 -6.634106384252299e6 0.0
0.0 0.0 0.0

1.3763998955046572e6 1.3061787278515646e7 0.0
1.3061787278515646e7 4.587999964348088e6 0.0
0.0 0.0 0.0

-1.219847652616787e7 1.2063129006338654e7 0.0
1.2063129006338654e7 1.7909124692780495e7 0.0
0.0 0.0 0.0

-1.2697666541470545e6 1.0814613755200658e7 0.0
1.0814613755200658e7 -2.597963796461707e6 0.0
0.0 0.0 0.0

5.004815096674472e6 1.39089635656235e7 0.0
1.39089635656235e7 2.1971752049698804e7 0.0
0.0 0.0 0.0

-1.1474154607918117e7 -1.2346574505086283e6 0.0
-1.2346574505086283e6 2.3826976813179653e7 0.0
0.0 0.0 0.0

4.973380668424865e6 4.864632470129111e6 0.0
4.864632470129111e6 -2.4661777976320993e7 0.0
0.0 0.0 0.0

-1.0280916668631909e6 1.3316800926118242e7 0.0
1.3316800926118242e7 -1.6701109076052586e7 0.0
0.0 0.0 0.0

-7.964088950268239e6 2.1563611491316933e7 0.0
2.1563611491316933e7 6.405401097800579e6 0.0
0.0 0.0 0.0

1.5069694790194266e7 1.1259272116122711e7 0.0
1.1259272116122711e7 -241009.35520090628 0.0
0.0 0.0 0.0

-1.229030865138639e7 1.9228138218908412e6 0.0
1.9228138218908412e6 1.796128614255404e7 0.0
0.0 0.0 0.0

-1.3099639778870147e7 2.2384774843594275e7 0.0
2.2384774843594275e7 -3.102782156710754e6 0.0
0.0 0.0 0.0

-3.74162674254145e6 1.607576236758637e7 0.0
1.607576236758637e7 5.003077527529186e6 0.0
0.0 0.0 0.0

-1.6446759805639196e7 2.3816314804686613e7 0.0
2.3816314804686613e7 9.273544459744815e6 0.0
0.0 0.0 0.0

4.847591281612584e6 5.185904631663814e6 0.0
5.185904631663814e6 -2.550773198163252e7 0.0
0.0 0.0 0.0

-483116.952374744 2.0736315016125996e7 0.0
2.0736315016125996e7 -2.641966789977312e6 0.0
0.0 0.0 0.0

-9.983343535325123e6 9.522960692226548e6 0.0
9.522960692226548e6 3.459829351904013e7 0.0
0.0 0.0 0.0

-4.758632473852453e6 1.9661182126474034e7 0.0
1.9661182126474034e7 6.485624235032897e6 0.0
0.0 0.0 0.0

-1.0392266627503455e6 1.3258596081492424e7 0.0
1.3258596081492424e7 -4.412557103515108e6 0.0
0.0 0.0 0.0

-1.7958073086749967e6 3.541012855409646e6 0.0
3.541012855409646e6 1.684226095615238e6 0.0
0.0 0.0 0.0

876649.0998654405 1.47705989948634e7 0.0
1.47705989948634e7 6.979806796894998e6 0.0
0.0 0.0 0.0

-4.363968505238745e6 1.6840105590019304e7 0.0
1.6840105590019304e7 6.512743440034699e6 0.0
0.0 0.0 0.0

1.705065921906609e6 8.463350159683654e6 0.0
8.463350159683654e6 -7.642317726221242e6 0.0
0.0 0.0 0.0

-1.8346354064395044e6 1.5609612657941576e7 0.0
1.5609612657941576e7 105448.90105306753 0.0
0.0 0.0 0.0

2.681459271654102e6 1.5305699964648405e7 0.0
1.5305699964648405e7 -3.768387421213435e6 0.0
0.0 0.0 0.0

-1.930406904181904e6 1.0653768334189698e7 0.0
1.0653768334189698e7 -979266.9680189161 0.0
0.0 0.0 0.0

-697936.5563970441 1.265013996343556e7 0.0
1.265013996343556e7 -1.811818166717218e7 0.0
0.0 0.0 0.0

-5.839953316286973e6 1.2930767899100816e7 0.0
1.2930767899100816e7 4.084859372964666e6 0.0
0.0 0.0 0.0

-9.538499124631174e6 1.3949029049965503e7 0.0
1.3949029049965503e7 1.5864292902839221e7 0.0
0.0 0.0 0.0

-9.239779634261245e6 -2.2742880868843687e6 0.0
-2.2742880868843687e6 1.5911365999977902e7 0.0
0.0 0.0 0.0

-7.071556309841035e6 1.6986858812231883e7 0.0
1.6986858812231883e7 636903.814992886 0.0
0.0 0.0 0.0

-6.332705159385685e6 2.0492651639857616e7 0.0
2.0492651639857616e7 6.439223897232691e6 0.0
0.0 0.0 0.0

2.4739508097501285e6 2.0849623518418588e7 0.0
2.0849623518418588e7 -4.90066600583601e6 0.0
0.0 0.0 0.0

-1.2193631991419915e7 1.635779667967038e6 0.0
1.635779667967038e6 1.9411920943717018e7 0.0
0.0 0.0 0.0

-1.4068381331079528e6 1.313216001623373e7 0.0
1.313216001623373e7 -1.884290522440555e7 0.0
0.0 0.0 0.0

-5.001233448852951e6 2.0439521962790463e7 0.0
2.0439521962790463e7 6.207585667872868e6 0.0
0.0 0.0 0.0

657266.6939735282 1.3672777944450574e7 0.0
1.3672777944450574e7 -6.666426672768873e6 0.0
0.0 0.0 0.0

-1.2376178365318405e6 1.1867032543452514e7 0.0
1.1867032543452514e7 -5.482982336530811e6 0.0
0.0 0.0 0.0

-7.187335414106582e6 1.4729264746693769e6 0.0
1.4729264746693769e6 9.834007144729527e6 0.0
0.0 0.0 0.0

-7.8117246673352225e6 2.2308958657424606e7 0.0
2.2308958657424606e7 6.648542961592233e6 0.0
0.0 0.0 0.0

-3.344943189441461e6 1.7001297003501046e7 0.0
1.7001297003501046e7 309352.12452650047 0.0
0.0 0.0 0.0

717063.7315830705 1.5010727520437144e7 0.0
1.5010727520437144e7 8.245827664346422e6 0.0
0.0 0.0 0.0

261511.19714785978 4.070646163992887e6 0.0
4.070646163992887e6 -1.315059513450263e6 0.0
0.0 0.0 0.0

1.570900703862135e6 1.4228564823700774e7 0.0
1.4228564823700774e7 2.0069640732158984e6 0.0
0.0 0.0 0.0

3.081003813409306e6 8.209117427213801e6 0.0
8.209117427213801e6 -3.3040870918266878e7 0.0
0.0 0.0 0.0

-1.0897500214742303e6 2.3263891815183997e7 0.0
2.3263891815183997e7 -2.604317614535785e6 0.0
0.0 0.0 0.0

-5.313709148206342e6 1.7701755938973986e7 0.0
1.7701755938973986e7 7.673741659087376e6 0.0
0.0 0.0 0.0

-6.70342823477156e6 6.879268405805026e6 0.0
6.879268405805026e6 5.946709212997388e6 0.0
0.0 0.0 0.0

-499119.0621583593 1.5248541802722502e7 0.0
1.5248541802722502e7 -2.3030780164032434e6 0.0
0.0 0.0 0.0

2.6049154894295447e6 9.579011785899106e6 0.0
9.579011785899106e6 -3.0529279099927433e7 0.0
0.0 0.0 0.0

453378.88257419784 1.3014982236011988e7 0.0
1.3014982236011988e7 -1.5117016671984753e7 0.0
0.0 0.0 0.0

-8.442328092018358e6 2.4107905989360563e7 0.0
2.4107905989360563e7 5.964002078932427e6 0.0
0.0 0.0 0.0

-1.609651810071228e6 1.3774655537569458e7 0.0
1.3774655537569458e7 -5.365506494909482e6 0.0
0.0 0.0 0.0

-2.531858695221033e6 1.7002951937837586e7 0.0
1.7002951937837586e7 -5.936621327250322e6 0.0
0.0 0.0 0.0

-4.696022534052303e6 1.789702050933117e7 0.0
1.789702050933117e7 4.788747693601148e6 0.0
0.0 0.0 0.0

185360.19365162868 1.3786415589232238e7 0.0
1.3786415589232238e7 -8.713803175498182e6 0.0
0.0 0.0 0.0

2.6082672735479064e6 1.5443309876042627e7 0.0
1.5443309876042627e7 3.256454674701341e6 0.0
0.0 0.0 0.0

-5.583176813485483e6 1.7892499756684106e7 0.0
1.7892499756684106e7 -3.4992096405599387e6 0.0
0.0 0.0 0.0

-1.7044979258973491e6 1.5769736158008229e7 0.0
1.5769736158008229e7 2.9857061115660546e6 0.0
0.0 0.0 0.0

-1.0244672901475444e7 6.310023665487328e6 0.0
6.310023665487328e6 3.98021113607812e7 0.0
0.0 0.0 0.0

-358724.8153730058 1.1613875820968827e7 0.0
1.1613875820968827e7 -5.096764353725891e6 0.0
0.0 0.0 0.0

-3.4561485963863702e6 1.2014867949496597e7 0.0
1.2014867949496597e7 -1.4064882207850974e7 0.0
0.0 0.0 0.0

-205152.7187495106 1.4808461416044096e7 0.0
1.4808461416044096e7 -1.058676453608735e7 0.0
0.0 0.0 0.0

-3.9057550313597084e6 1.536394958428124e7 0.0
1.536394958428124e7 -6.527192795412537e6 0.0
0.0 0.0 0.0

-4.261179667017145e6 1.6507766026978483e7 0.0
1.6507766026978483e7 6.64775275499022e6 0.0
0.0 0.0 0.0

-43679.58249528529 1.299448314097816e7 0.0
1.299448314097816e7 -145598.5178517884 0.0
0.0 0.0 0.0

-4.1477098921109396e6 2.0730733838421572e7 0.0
2.0730733838421572e7 4.280389423849392e6 0.0
0.0 0.0 0.0

-1.5484677683841204e6 1.6096632209641641e7 0.0
1.6096632209641641e7 62078.979482057795 0.0
0.0 0.0 0.0

-1.053475820839325e7 185587.9597746528 0.0
185587.9597746528 3.94580290293901e7 0.0
0.0 0.0 0.0

-1.2497588091923669e7 4.863202666831616e6 0.0
4.863202666831616e6 1.5584608383717295e7 0.0
0.0 0.0 0.0

777227.1309191715 1.401812514461468e7 0.0
1.401812514461468e7 -6.151970190186845e6 0.0
0.0 0.0 0.0

-1.7855207183721486e7 1.9352820818505436e7 0.0
1.9352820818505436e7 6.020799806440049e6 0.0
0.0 0.0 0.0

-9.05817446030562e6 538115.3881933719 0.0
538115.3881933719 1.0605552432924777e7 0.0
0.0 0.0 0.0

-1.1900813590603178e7 4.201104770211955e6 0.0
4.201104770211955e6 3.1349429729514003e7 0.0
0.0 0.0 0.0

-1.2247940608186233e6 -640819.3213413056 0.0
-640819.3213413056 708264.7122926491 0.0
0.0 0.0 0.0

-5.062272327777142e6 2.249621033205683e6 0.0
2.249621033205683e6 1.9673488007358997e6 0.0
0.0 0.0 0.0

2.3443584554054793e6 9.832725246679502e6 0.0
9.832725246679502e6 -1.4221547089567631e7 0.0
0.0 0.0 0.0

-4.019518364979279e6 1.722281403487099e7 0.0
1.722281403487099e7 -819.0735031445511 0.0
0.0 0.0 0.0

-5.233337875165651e6 1.5306852351025058e7 0.0
1.5306852351025058e7 -4.67858650196283e6 0.0
0.0 0.0 0.0

-4.850377486846498e6 1.6420872589692138e7 0.0
1.6420872589692138e7 8.993547761467393e6 0.0
0.0 0.0 0.0

-1.089970502151336e6 1.2717264646641023e7 0.0
1.2717264646641023e7 -1.443682278955391e7 0.0
0.0 0.0 0.0

-707663.7210961105 1.428431049565247e7 0.0
1.428431049565247e7 7.746973164304065e6 0.0
0.0 0.0 0.0

-4.833724678698368e6 1.3034020233003665e7 0.0
1.3034020233003665e7 -1.9190798399191786e7 0.0
0.0 0.0 0.0

-2.8038333688218207e6 1.586605283119541e7 0.0
1.586605283119541e7 1.7274720025830097e6 0.0
0.0 0.0 0.0

1.6285475779915098e6 1.0217071573223459e7 0.0
1.0217071573223459e7 -3.589223660834029e7 0.0
0.0 0.0 0.0

2.6083098943365403e6 9.772900164815139e6 0.0
9.772900164815139e6 -2.711256220948713e7 0.0
0.0 0.0 0.0

-1.5008520429974983e6 1.6479329399952967e7 0.0
1.6479329399952967e7 -5.472707331540376e6 0.0
0.0 0.0 0.0

-7.008588020196207e6 1.9745572040953834e7 0.0
1.9745572040953834e7 -2.4105099094612487e6 0.0
0.0 0.0 0.0

-9.111188434484847e6 2.0438769407093752e7 0.0
2.0438769407093752e7 6.507275523688763e6 0.0
0.0 0.0 0.0

-4.797655305351753e6 1.0519696043357532e7 0.0
1.0519696043357532e7 2.233256810786058e6 0.0
0.0 0.0 0.0

-2.6842020042480906e6 3.8469663426990854e6 0.0
3.8469663426990854e6 4.676927790104561e6 0.0
0.0 0.0 0.0

750697.53982589 1.3161564100713579e7 0.0
1.3161564100713579e7 -5.572622486336265e6 0.0
0.0 0.0 0.0

4.150195284042054e6 1.59547309138608e7 0.0
1.59547309138608e7 -3.9822535765547697e6 0.0
0.0 0.0 0.0

-9.065247262771307e6 1.0052615813079994e7 0.0
1.0052615813079994e7 3.535401479225152e7 0.0
0.0 0.0 0.0

-2.0435600362714212e6 1.5545029675217232e7 0.0
1.5545029675217232e7 6.0269341532965945e6 0.0
0.0 0.0 0.0

-6.386834869710069e6 2.0541441955649614e7 0.0
2.0541441955649614e7 6.531443659440778e6 0.0
0.0 0.0 0.0

-2.028428037957652e6 1.211374696166874e7 0.0
1.211374696166874e7 -9.73658953708982e6 0.0
0.0 0.0 0.0

-1.1774936029461611e7 7.200821642196796e6 0.0
7.200821642196796e6 2.8805200699197073e7 0.0
0.0 0.0 0.0

-2.042675582192614e6 1.5287559033008015e7 0.0
1.5287559033008015e7 3.1220051859189733e6 0.0
0.0 0.0 0.0

-525158.7243897286 1.4828417772815123e7 0.0
1.4828417772815123e7 -1.0208036609744275e7 0.0
0.0 0.0 0.0

818944.8920658249 1.2339868968039e7 0.0
1.2339868968039e7 -1.7307914886546925e7 0.0
0.0 0.0 0.0

2.8933765821322557e6 8.974552290004779e6 0.0
8.974552290004779e6 -2.6402754829120576e7 0.0
0.0 0.0 0.0

2.8300793016981874e6 9.423185389426956e6 0.0
9.423185389426956e6 -2.1870484658930946e7 0.0
0.0 0.0 0.0

-4.284537626298721e6 1.472248886173414e7 0.0
1.472248886173414e7 -2.7518604435060404e7 0.0
0.0 0.0 0.0

-4.356426824562366e6 2.0438355294708144e7 0.0
2.0438355294708144e7 4.712096640042293e6 0.0
0.0 0.0 0.0

-2.6470992168112067e6 1.7164338092018124e7 0.0
1.7164338092018124e7 -4.917414482528514e6 0.0
0.0 0.0 0.0

34430.830140075646 1.3972570729940604e7 0.0
1.3972570729940604e7 -9.621892282917399e6 0.0
0.0 0.0 0.0

9.605358234728247e6 1.593627485954526e7 0.0
1.593627485954526e7 -4.455579010687461e6 0.0
0.0 0.0 0.0

-1.0813173477705464e7 2.3321204513507383e6 0.0
2.3321204513507383e6 3.4910036190797634e7 0.0
0.0 0.0 0.0

1.8737786448398624e6 9.97715452403912e6 0.0
9.97715452403912e6 -3.11164693020505e7 0.0
0.0 0.0 0.0

3.161404953990847e6 9.59242160628975e6 0.0
9.59242160628975e6 -2.159404500913576e7 0.0
0.0 0.0 0.0

-9.003812374795375e6 6.373912184193787e6 0.0
6.373912184193787e6 4.4423574234884694e7 0.0
0.0 0.0 0.0

8.039950240457158e6 1.5852301520455064e7 0.0
1.5852301520455064e7 4.748951501553051e6 0.0
0.0 0.0 0.0

-1.0910215435733326e7 5.329442152227722e6 0.0
5.329442152227722e6 3.2710491703518473e7 0.0
0.0 0.0 0.0

-1.3441816600048193e6 2.583051424564439e6 0.0
2.583051424564439e6 13246.743148910115 0.0
0.0 0.0 0.0

-4.47775602285927e6 2.1097186512835193e7 0.0
2.1097186512835193e7 3.5799129063144843e6 0.0
0.0 0.0 0.0

2.9012165807832563e6 9.240349101078676e6 0.0
9.240349101078676e6 -1.7250010671585403e7 0.0
0.0 0.0 0.0

-6.395608899659239e6 2.274215714280058e7 0.0
2.274215714280058e7 6.316802365117855e6 0.0
0.0 0.0 0.0

-1.1192154317175882e7 9.428018619752401e6 0.0
9.428018619752401e6 2.576191488837013e7 0.0
0.0 0.0 0.0

-1.1760135332092047e7 3.4874864069584487e6 0.0
3.4874864069584487e6 1.4349253501899024e7 0.0
0.0 0.0 0.0

243855.7521601303 2.089227050017006e7 0.0
2.089227050017006e7 -3.169913776770335e6 0.0
0.0 0.0 0.0

-4.849997718284215e6 1.6840903695497643e7 0.0
1.6840903695497643e7 8.820749776319942e6 0.0
0.0 0.0 0.0

-1.6516685998760008e6 1.84160078880658e7 0.0
1.84160078880658e7 -3.9311360962883723e6 0.0
0.0 0.0 0.0

-5.800812075781973e6 1.8614805557420913e7 0.0
1.8614805557420913e7 6.177478177177056e6 0.0
0.0 0.0 0.0

-934445.1329968511 1.3341381660878928e7 0.0
1.3341381660878928e7 -1.5389573725943547e7 0.0
0.0 0.0 0.0

937472.5422252514 1.6392220135073787e7 0.0
1.6392220135073787e7 -5.874530217906537e6 0.0
0.0 0.0 0.0

1.4208007614657963e6 1.4754408480955759e7 0.0
1.4754408480955759e7 2.1289900712386474e7 0.0
0.0 0.0 0.0

-5.550311829598059e6 1.980672515008697e6 0.0
1.980672515008697e6 1.1977950827817993e7 0.0
0.0 0.0 0.0

-4.446461701384011e6 5.571423720166096e6 0.0
5.571423720166096e6 -1.5897586935448823e6 0.0
0.0 0.0 0.0

-2.447120964298848e6 1.4466925914411454e7 0.0
1.4466925914411454e7 -8.157069758813803e6 0.0
0.0 0.0 0.0

2.096351140795947e6 1.4719958348365158e7 0.0
1.4719958348365158e7 6.987837518935053e6 0.0
0.0 0.0 0.0

-522470.87047460116 2.3718000547672648e7 0.0
2.3718000547672648e7 -3.911222430988017e6 0.0
0.0 0.0 0.0

4.0288674945279583e6 5.479460862445969e6 0.0
5.479460862445969e6 -1.15803941239679e7 0.0
0.0 0.0 0.0

-5.001554398102587e6 2.333604445807938e7 0.0
2.333604445807938e7 5.197994733170942e6 0.0
0.0 0.0 0.0

-2.9900297662643097e7 8.894442047385817e6 0.0
8.894442047385817e6 1.0842800593356518e7 0.0
0.0 0.0 0.0

-318347.2817048915 1.4978068729199307e7 0.0
1.4978068729199307e7 -9.847275249355763e6 0.0
0.0 0.0 0.0

-1.135100523650854e7 1.1007352111674463e7 0.0
1.1007352111674463e7 2.208482226421705e7 0.0
0.0 0.0 0.0

656348.9605695563 1.4060364088829482e7 0.0
1.4060364088829482e7 -6.090104667169536e6 0.0
0.0 0.0 0.0

-4.6386741038408745e6 1.7163309170164973e7 0.0
1.7163309170164973e7 6.949946556139799e6 0.0
0.0 0.0 0.0

-3.692198933510046e6 1.6855855711307548e7 0.0
1.6855855711307548e7 -817797.402818138 0.0
0.0 0.0 0.0

684984.3420047369 1.4513294015220793e7 0.0
1.4513294015220793e7 -7.0161144083110625e6 0.0
0.0 0.0 0.0

4.988897276984312e6 4.666657175279531e6 0.0
4.666657175279531e6 -2.6408167061104238e7 0.0
0.0 0.0 0.0

-696404.5551568136 1.0841594602222305e7 0.0
1.0841594602222305e7 -2.321348867765697e6 0.0
0.0 0.0 0.0

4.1016106584916525e6 1.6970003016058654e7 0.0
1.6970003016058654e7 -4.780606672379304e6 0.0
0.0 0.0 0.0

-119569.91295887576 1.3930268236540774e7 0.0
1.3930268236540774e7 -1.0686948912807494e7 0.0
0.0 0.0 0.0

667160.5908369259 1.5465146929653635e7 0.0
1.5465146929653635e7 6.804739031396372e6 0.0
0.0 0.0 0.0

2.0527819241150394e6 1.0012834315331105e7 0.0
1.0012834315331105e7 -2.7486270768497787e7 0.0
0.0 0.0 0.0

-1.9498977010569503e6 1.6475646988009678e7 0.0
1.6475646988009678e7 -5.285255667528396e6 0.0
0.0 0.0 0.0

-576600.8602230884 1.6474313577321356e7 0.0
1.6474313577321356e7 1.1043265576409308e7 0.0
0.0 0.0 0.0

9.556584212436153e6 1.9835558007756818e7 0.0
1.9835558007756818e7 -7.946972764871754e6 0.0
0.0 0.0 0.0

2.609602051547339e6 9.851012303377891e6 0.0
9.851012303377891e6 -2.416381582867431e7 0.0
0.0 0.0 0.0

-2.528314524000694e7 7.652277231999663e6 0.0
7.652277231999663e6 1.0581172485608028e7 0.0
0.0 0.0 0.0

-899749.3864530358 1.4888046892201753e7 0.0
1.4888046892201753e7 7.918822753129441e6 0.0
0.0 0.0 0.0

-6.045953041257443e6 2.3338959454618737e7 0.0
2.3338959454618737e7 6.0582931396752745e6 0.0
0.0 0.0 0.0

-776568.2164728257 1.533547051364976e7 0.0
1.533547051364976e7 -6.9781902448260635e6 0.0
0.0 0.0 0.0

-5.7606413652730705e6 2.0788409529672142e7 0.0
2.0788409529672142e7 6.153164504146785e6 0.0
0.0 0.0 0.0

-9.802779671565084e6 9.400329567650633e6 0.0
9.400329567650633e6 3.8006444659865126e7 0.0
0.0 0.0 0.0

1.5398589403260425e6 1.1912609578143444e7 0.0
1.1912609578143444e7 -1.1520224775297135e7 0.0
0.0 0.0 0.0

-1.0719617103319676e6 2.100424027867224e7 0.0
2.100424027867224e7 -3.076432576440128e6 0.0
0.0 0.0 0.0

-1.6969084492136403e6 9.247787237656495e6 0.0
9.247787237656495e6 -675192.9390830407 0.0
0.0 0.0 0.0

-2.386435293946982e7 7.277155953927517e6 0.0
7.277155953927517e6 1.064659953095751e7 0.0
0.0 0.0 0.0

-3.307763277271447e6 1.1786202206451343e7 0.0
1.1786202206451343e7 -1.0450499614702181e6 0.0
0.0 0.0 0.0

-1.1768324743915984e7 -151180.30506206397 0.0
-151180.30506206397 1.9231776988469265e7 0.0
0.0 0.0 0.0

-1.0532375235482406e7 1.183511777622584e7 0.0
1.183511777622584e7 2.3213059474663936e7 0.0
0.0 0.0 0.0

-5.2599899041416785e6 2.213842317702688e7 0.0
2.213842317702688e7 4.681340822643887e6 0.0
0.0 0.0 0.0

-5.789205859164059e6 2.3789066917031765e7 0.0
2.3789066917031765e7 5.660821011023553e6 0.0
0.0 0.0 0.0

-1.075013634011458e7 8.169121587132901e6 0.0
8.169121587132901e6 3.0008673555498634e7 0.0
0.0 0.0 0.0

1.460869602850445e6 1.0947080944158893e7 0.0
1.0947080944158893e7 -9.669630567381231e6 0.0
0.0 0.0 0.0

2.9264454368364746e6 1.511570277117376e7 0.0
1.511570277117376e7 -1.7722405666771024e6 0.0
0.0 0.0 0.0

-1.4634025321207945e6 1.0614933941473285e7 0.0
1.0614933941473285e7 -7.011265686517368e6 0.0
0.0 0.0 0.0

-62476.302775647375 7.79782831171218e6 0.0
7.79782831171218e6 -1.8726229036871586e6 0.0
0.0 0.0 0.0

-4.503794097017824e6 2.202242520521974e7 0.0
2.202242520521974e7 4.818783790267753e6 0.0
0.0 0.0 0.0

-1.1600201693156581e7 1.316765591544011e7 0.0
1.316765591544011e7 1.680162721343724e7 0.0
0.0 0.0 0.0

2.0871186672482872e6 1.0171584700832848e7 0.0
1.0171584700832848e7 -2.464997835077993e7 0.0
0.0 0.0 0.0

-1.5087058598995779e7 1.9163627682292484e7 0.0
1.9163627682292484e7 4.672055139210226e6 0.0
0.0 0.0 0.0

-1.8133363431879496e6 1.8937299542601645e7 0.0
1.8937299542601645e7 -3.133461704660534e6 0.0
0.0 0.0 0.0

4.417033031380184e6 5.7462863607773045e6 0.0
5.7462863607773045e6 -3.1166130981967516e7 0.0
0.0 0.0 0.0

-4.553165360882838e6 1.5472816768609691e7 0.0
1.5472816768609691e7 1.1280025008784428e7 0.0
0.0 0.0 0.0

-3.878234714340768e6 1.7215048091133617e7 0.0
1.7215048091133617e7 1.6568897174821387e6 0.0
0.0 0.0 0.0

-30222.06941156648 1.5095948772741387e7 0.0
1.5095948772741387e7 -9.9895607975598e6 0.0
0.0 0.0 0.0

-7.485744282667949e6 2.3044876875506874e7 0.0
2.3044876875506874e7 6.730970919188634e6 0.0
0.0 0.0 0.0

-3.15331493067152e6 1.7208489048317995e7 0.0
1.7208489048317995e7 -244047.7498706741 0.0
0.0 0.0 0.0

-5.876535251021722e6 2.255556713263555e7 0.0
2.255556713263555e7 5.040527721788382e6 0.0
0.0 0.0 0.0

-893928.7517381024 6.828402973435992e6 0.0
6.828402973435992e6 -951010.3754649425 0.0
0.0 0.0 0.0

2.0933406823069504e6 1.446455237859688e7 0.0
1.446455237859688e7 8.709505820676994e6 0.0
0.0 0.0 0.0

202464.43110824935 1.3351947886917958e7 0.0
1.3351947886917958e7 -1.3813601700263672e7 0.0
0.0 0.0 0.0

-2.320739596424344e6 1.1494800971323702e7 0.0
1.1494800971323702e7 -616075.3350694801 0.0
0.0 0.0 0.0

-20179.70426490344 1.4220112349934645e7 0.0
1.4220112349934645e7 -1.1413311015923174e7 0.0
0.0 0.0 0.0

3.205375178702063e6 7.26411623692368e6 0.0
7.26411623692368e6 -1.3556781689320734e7 0.0
0.0 0.0 0.0

3.4826941162460707e6 1.705041227635067e7 0.0
1.705041227635067e7 7.75311407094862e6 0.0
0.0 0.0 0.0

-9.89780090291964e6 -3.7694382276546396e6 0.0
-3.7694382276546396e6 2.4706480020335548e7 0.0
0.0 0.0 0.0

2.4735968384932983e6 1.4653970009766508e7 0.0
1.4653970009766508e7 9.994766345288688e6 0.0
0.0 0.0 0.0

-4.675652910485968e6 2.0878712383349508e7 0.0
2.0878712383349508e7 4.0721474357355256e6 0.0
0.0 0.0 0.0

728091.8342824196 1.3177587243812855e7 0.0
1.3177587243812855e7 -1.535267089835426e7 0.0
0.0 0.0 0.0

-1.0411377348459695e6 2.0504935767232645e7 0.0
2.0504935767232645e7 -2.424625847725837e6 0.0
0.0 0.0 0.0

-89540.57855875825 1.4749645213926388e7 0.0
1.4749645213926388e7 -1.910850829260078e6 0.0
0.0 0.0 0.0

3.5269398803574266e6 8.930697597289838e6 0.0
8.930697597289838e6 -1.675778247041411e7 0.0
0.0 0.0 0.0

-2.1165322338152323e6 1.85230920498084e7 0.0
1.85230920498084e7 -4.101429211036344e6 0.0
0.0 0.0 0.0

144723.61140462756 1.3593310657666236e7 0.0
1.3593310657666236e7 -1.3020095494751852e7 0.0
0.0 0.0 0.0

-6.531493270793107e6 4.92372973349788e6 0.0
4.92372973349788e6 8.082460329917567e6 0.0
0.0 0.0 0.0

-764355.1761279777 1.6328888260029579e7 0.0
1.6328888260029579e7 9.170092288790187e6 0.0
0.0 0.0 0.0

-5.046877102214672e6 1.7424342999556098e7 0.0
1.7424342999556098e7 6.751585375211181e6 0.0
0.0 0.0 0.0

-4.77739102377561e6 2.1323247388073076e7 0.0
2.1323247388073076e7 4.223167491414119e6 0.0
0.0 0.0 0.0

-1.9675729226386375e6 1.4973509218490914e7 0.0
1.4973509218490914e7 5.904074417139474e6 0.0
0.0 0.0 0.0

-1.7264133838953762e6 4.597797669678721e6 0.0
4.597797669678721e6 1.320782879554106e6 0.0
0.0 0.0 0.0

-1.2435103424739316e7 6.427118005767639e6 0.0
6.427118005767639e6 2.461168152352991e7 0.0
0.0 0.0 0.0

-162920.60552449385 1.456497403249408e7 0.0
1.456497403249408e7 -1.0649622800729576e7 0.0
0.0 0.0 0.0

747532.5891108997 1.2177958138286626e7 0.0
1.2177958138286626e7 -3.466567072459415e7 0.0
0.0 0.0 0.0

-1.6338217634765361e6 5.491477997368678e6 0.0
5.491477997368678e6 875385.1285857715 0.0
0.0 0.0 0.0

-9.981000316934504e6 -880181.6841227191 0.0
-880181.6841227191 1.3290540253890704e7 0.0
0.0 0.0 0.0

-6.200932375030298e6 1.334258233749305e7 0.0
1.334258233749305e7 5.201291446328111e6 0.0
0.0 0.0 0.0

-2.102775372938611e6 1.9094976839725375e7 0.0
1.9094976839725375e7 -2.5370175666624573e6 0.0
0.0 0.0 0.0

-770260.3326682281 1.2691686751585407e7 0.0
1.2691686751585407e7 -2.3232576921773247e7 0.0
0.0 0.0 0.0

3.6329813620205596e6 7.025091661252953e6 0.0
7.025091661252953e6 -1.1945872002195278e7 0.0
0.0 0.0 0.0

-3.9964237054789765e6 2.094994301829527e7 0.0
2.094994301829527e7 3.802009252674261e6 0.0
0.0 0.0 0.0

-1.5199459207483279e6 1.8739334015962444e7 0.0
1.8739334015962444e7 -3.763890509889956e6 0.0
0.0 0.0 0.0

-1.001681242799796e7 2.6597477837388378e7 0.0
2.6597477837388378e7 5.527518254487401e6 0.0
0.0 0.0 0.0

-4.205262765109765e6 2.114943847429282e7 0.0
2.114943847429282e7 4.481099479688132e6 0.0
0.0 0.0 0.0

-1.4719750205897354e7 2.1054308710075382e7 0.0
2.1054308710075382e7 759934.2110698996 0.0
0.0 0.0 0.0

-1.5994235367661817e6 1.630696880344644e7 0.0
1.630696880344644e7 -1.1637237898953268e6 0.0
0.0 0.0 0.0

417901.5012241658 1.2043693796862926e7 0.0
1.2043693796862926e7 -3.2127453338583108e7 0.0
0.0 0.0 0.0

-2.9476012089375504e6 1.0956784735339876e7 0.0
1.0956784735339876e7 -1.4278600725544104e6 0.0
0.0 0.0 0.0

-1.1659623430694506e7 -1.0508925978517705e6 0.0
-1.0508925978517705e6 2.9023815074619744e7 0.0
0.0 0.0 0.0

-1.1457777501728896e7 3.1026167370028994e6 0.0
3.1026167370028994e6 3.420182069390927e7 0.0
0.0 0.0 0.0

4.398003810725544e6 6.316812865619834e6 0.0
6.316812865619834e6 -2.374280806118952e7 0.0
0.0 0.0 0.0

-5.097228906227566e6 1.848794192918558e7 0.0
1.848794192918558e7 7.280493708671306e6 0.0
0.0 0.0 0.0

-9.586858728210378e6 1.0270095774753235e7 0.0
1.0270095774753235e7 3.220575003399369e7 0.0
0.0 0.0 0.0

77403.15984702203 1.390128631239906e7 0.0
1.390128631239906e7 -1.2210614032701327e7 0.0
0.0 0.0 0.0

-8.109868249178693e6 1.2279949635540798e7 0.0
1.2279949635540798e7 2.897985540077874e7 0.0
0.0 0.0 0.0

-2.4342935082443114e6 1.8691194694748104e7 0.0
1.8691194694748104e7 -3.5223244205405386e6 0.0
0.0 0.0 0.0

-2.0867639481805083e6 2.1983479910019632e7 0.0
2.1983479910019632e7 -1.1905898491387216e6 0.0
0.0 0.0 0.0

20290.505410838872 1.4654234116883894e7 0.0
1.4654234116883894e7 -2.957114092979764e6 0.0
0.0 0.0 0.0

-1.0405389425665554e7 1.3368641102050834e6 0.0
1.3368641102050834e6 1.4063191266531743e7 0.0
0.0 0.0 0.0

-1.544498788647661e6 1.4903875462677017e7 0.0
1.4903875462677017e7 7.093520567608627e6 0.0
0.0 0.0 0.0

-5.308231070606268e6 1.2938073081237407e7 0.0
1.2938073081237407e7 5.858551454921469e6 0.0
0.0 0.0 0.0

4.823442393168898e6 5.168923266325244e6 0.0
5.168923266325244e6 -2.175187617127733e7 0.0
0.0 0.0 0.0

1.3859595368009105e6 1.6110482563999545e7 0.0
1.6110482563999545e7 -5.541252883939697e6 0.0
0.0 0.0 0.0

-1.171399059909464e7 1.4389243430434398e7 0.0
1.4389243430434398e7 9.016678526591387e6 0.0
0.0 0.0 0.0

-1.241131299872238e7 1.7843109346876796e7 0.0
1.7843109346876796e7 -2.3627649635043214e6 0.0
0.0 0.0 0.0

-4.103145392236911e6 2.1103774504975926e7 0.0
2.1103774504975926e7 2.512401135711016e6 0.0
0.0 0.0 0.0

701949.7716320744 1.0641846237037143e7 0.0
1.0641846237037143e7 -9.225451806337908e6 0.0
0.0 0.0 0.0

-2.8366592135458933e6 1.61113648489837e7 0.0
1.61113648489837e7 -876576.2818183508 0.0
0.0 0.0 0.0

-2.3989673987054047e6 2.2052024798361517e7 0.0
2.2052024798361517e7 647869.2750099447 0.0
0.0 0.0 0.0

-5.451275920958882e6 1.5444199716615582e7 0.0
1.5444199716615582e7 1.2532622252521383e7 0.0
0.0 0.0 0.0

-2.510741218189351e6 1.516369353144454e7 0.0
1.516369353144454e7 6.111300450062324e6 0.0
0.0 0.0 0.0

1.4784644568695785e6 1.035551318727935e7 0.0
1.035551318727935e7 -8.777233805742614e6 0.0
0.0 0.0 0.0

-3.958731593437584e6 2.3300540665327147e7 0.0
2.3300540665327147e7 3.591688981472349e6 0.0
0.0 0.0 0.0

-1.1380131351999205e7 -2.40565970673248e6 0.0
-2.40565970673248e6 2.097169670105238e7 0.0
0.0 0.0 0.0

4.804745848996311e6 5.909769877608902e6 0.0
5.909769877608902e6 -1.7577863375119966e7 0.0
0.0 0.0 0.0

-2.8508422315207487e6 2.0413340786895473e7 0.0
2.0413340786895473e7 223286.54162205348 0.0
0.0 0.0 0.0

384900.91228450555 1.3540674522132512e7 0.0
1.3540674522132512e7 -1.4111159329505851e7 0.0
0.0 0.0 0.0

-503580.55360269983 3.0312488743450376e6 0.0
3.0312488743450376e6 139216.11945543607 0.0
0.0 0.0 0.0

1.309900011491092e6 8.3392731212821035e6 0.0
8.3392731212821035e6 -8.900177736247258e6 0.0
0.0 0.0 0.0

-5.670862885403201e6 1.9126367490078416e7 0.0
1.9126367490078416e7 -675659.5954008584 0.0
0.0 0.0 0.0

3.115302253055524e6 9.762234104216745e6 0.0
9.762234104216745e6 -1.6355646259738525e7 0.0
0.0 0.0 0.0

3.2052227819762444e6 1.709402830691944e7 0.0
1.709402830691944e7 7.800579663080189e6 0.0
0.0 0.0 0.0

-1.96036516881762e6 7.154346376452361e6 0.0
7.154346376452361e6 -1.4419461182998102e6 0.0
0.0 0.0 0.0

-2.0966033509808357e6 4.797761242864378e6 0.0
4.797761242864378e6 -131604.40314886428 0.0
0.0 0.0 0.0

1.2286470119656192e6 2.0919619282362822e7 0.0
2.0919619282362822e7 -3.8344185017412077e6 0.0
0.0 0.0 0.0

-1.072561225434199e7 -1.7700631049627918e6 0.0
-1.7700631049627918e6 2.0870133198456105e7 0.0
0.0 0.0 0.0

875525.0147254793 1.2740418852308339e7 0.0
1.2740418852308339e7 -9.91006117233402e6 0.0
0.0 0.0 0.0

586443.0188862261 1.3134331510054974e7 0.0
1.3134331510054974e7 755923.0939658156 0.0
0.0 0.0 0.0

6.142287574405752e6 1.806775135807213e7 0.0
1.806775135807213e7 -5.643377966227325e6 0.0
0.0 0.0 0.0

923154.100241099 1.3371432723108582e7 0.0
1.3371432723108582e7 -1.2232960414247166e7 0.0
0.0 0.0 0.0

3.568578601902521e6 1.5187823362683695e7 0.0
1.5187823362683695e7 1.4000725446778012e7 0.0
0.0 0.0 0.0

-7.084194455575215e6 2.0670674349396978e7 0.0
2.0670674349396978e7 6.377744660688296e6 0.0
0.0 0.0 0.0

-1.053554084191625e7 -1.4989727196189456e6 0.0
-1.4989727196189456e6 2.691428543595736e7 0.0
0.0 0.0 0.0

-2.5805828414959004e6 2.0440133606736027e7 0.0
2.0440133606736027e7 -207133.49001665553 0.0
0.0 0.0 0.0

-2.491760395770088e6 1.5856556577194644e7 0.0
1.5856556577194644e7 1.0773491724779325e7 0.0
0.0 0.0 0.0

2.4235387681150762e6 9.461763298209732e6 0.0
9.461763298209732e6 -1.3866548581185628e7 0.0
0.0 0.0 0.0

5.276948497870043e6 5.179007561974571e6 0.0
5.179007561974571e6 -2.3919698922994938e7 0.0
0.0 0.0 0.0

-3.498155445668544e6 1.703095356957147e7 0.0
1.703095356957147e7 -1.3480183643881474e6 0.0
0.0 0.0 0.0

-6.615304416049702e6 8.326727077439794e6 0.0
8.326727077439794e6 8.777555035796752e6 0.0
0.0 0.0 0.0

-1.1549532042804012e7 1.2296254489103049e7 0.0
1.2296254489103049e7 1.9912962484853245e7 0.0
0.0 0.0 0.0

691811.0024502147 1.2944056822166063e7 0.0
1.2944056822166063e7 -1.6182223686240764e7 0.0
0.0 0.0 0.0

737019.0811480954 1.1591117634659206e7 0.0
1.1591117634659206e7 -3.0233783493249636e7 0.0
0.0 0.0 0.0

-2.4590902711277385e6 2.0828545563869834e7 0.0
2.0828545563869834e7 -122069.98495577322 0.0
0.0 0.0 0.0

-1.63027906694462e6 1.4987203168917095e7 0.0
1.4987203168917095e7 4.456989219508187e6 0.0
0.0 0.0 0.0

-2.796469995398113e7 8.366013447374793e6 0.0
8.366013447374793e6 1.0624329564581966e7 0.0
0.0 0.0 0.0

3.9676134153716112e6 1.5549674039259888e7 0.0
1.5549674039259888e7 1.639545311447309e7 0.0
0.0 0.0 0.0

-2.5369315402204722e7 2.0864185514176082e7 0.0
2.0864185514176082e7 9.531281964716954e6 0.0
0.0 0.0 0.0

3.0265976679462353e6 9.202461985031731e6 0.0
9.202461985031731e6 -1.948331485050878e7 0.0
0.0 0.0 0.0

5.026754760533017e6 4.942243262111343e6 0.0
4.942243262111343e6 -826807.319009918 0.0
0.0 0.0 0.0

-1.2374334391953204e7 -2.4295823614239474e6 0.0
-2.4295823614239474e6 7.095537067624639e6 0.0
0.0 0.0 0.0

-5.356042231071863e6 7.464298489446863e6 0.0
7.464298489446863e6 6.803398899066264e6 0.0
0.0 0.0 0.0

-1.1061502357823862e7 -163604.76886346636 0.0
-163604.76886346636 2.5467646048982706e7 0.0
0.0 0.0 0.0

-1.197738794418662e7 68998.62888281509 0.0
68998.62888281509 2.0490571278817564e7 0.0
0.0 0.0 0.0

327681.48764885543 1.4377471237349702e7 0.0
1.4377471237349702e7 -1.1697347386958204e7 0.0
0.0 0.0 0.0

-1.8602206669167934e6 1.1088136232114578e7 0.0
1.1088136232114578e7 -6.200735817924363e6 0.0
0.0 0.0 0.0

854913.3088675753 1.3011964445259104e7 0.0
1.3011964445259104e7 2.849711163568864e6 0.0
0.0 0.0 0.0

886071.4779421543 1.2970528047674915e7 0.0
1.2970528047674915e7 -1.4773910942406878e6 0.0
0.0 0.0 0.0

-2.3041318684402034e6 2.119614586020042e7 0.0
2.119614586020042e7 -13407.115112377447 0.0
0.0 0.0 0.0

-9.13430198982478e6 6.586528703214686e6 0.0
6.586528703214686e6 1.3460574292710183e7 0.0
0.0 0.0 0.0

106606.22932864958 1.381840122825454e7 0.0
1.381840122825454e7 -1.152004356178175e7 0.0
0.0 0.0 0.0

-4.781439790333425e6 1.862115049062562e7 0.0
1.862115049062562e7 3.1862703016114393e6 0.0
0.0 0.0 0.0

3.660254710815508e6 7.864436982803078e6 0.0
7.864436982803078e6 -2.2356172953036107e7 0.0
0.0 0.0 0.0

-1.0894558224476239e7 -946966.7053872806 0.0
-946966.7053872806 2.2554273154126365e7 0.0
0.0 0.0 0.0

-2.387452289040069e6 2.0007786295259576e7 0.0
2.0007786295259576e7 -984677.6546510599 0.0
0.0 0.0 0.0

-1.411374196027228e6 1.495309000197036e7 0.0
1.495309000197036e7 2.986813158190655e6 0.0
0.0 0.0 0.0

-1.1882044230981562e6 1.510353976793164e7 0.0
1.510353976793164e7 1.557595976003805e6 0.0
0.0 0.0 0.0

-3.724084977078221e6 1.8092144227652524e7 0.0
1.8092144227652524e7 -5.268660984031735e6 0.0
0.0 0.0 0.0

2.495896848764158e6 1.35012812876241e7 0.0
1.35012812876241e7 9.289586996881545e6 0.0
0.0 0.0 0.0

-2.8203838394784126e6 1.7202684406714294e7 0.0
1.7202684406714294e7 -4.468322160878615e6 0.0
0.0 0.0 0.0

-1.1184561671612361e7 1.0559391053087477e7 0.0
1.0559391053087477e7 2.389517581333156e7 0.0
0.0 0.0 0.0

-1.1520455406236174e7 -1.5518871706961242e6 0.0
-1.5518871706961242e6 2.6409787776137844e7 0.0
0.0 0.0 0.0

2.998975960029728e6 9.160823748477727e6 0.0
9.160823748477727e6 -1.3377814536708774e7 0.0
0.0 0.0 0.0

4.577181336897036e6 5.769043625244029e6 0.0
5.769043625244029e6 -2.4680141558224913e7 0.0
0.0 0.0 0.0

435883.4104338237 1.4115683338288773e7 0.0
1.4115683338288773e7 -1.0637011949864674e7 0.0
0.0 0.0 0.0

1.932961590626678e6 1.605781615889215e7 0.0
1.605781615889215e7 5.514151515199822e6 0.0
0.0 0.0 0.0

3.3388139302728483e6 6.531163532487556e6 0.0
6.531163532487556e6 -1.2741574982002914e7 0.0
0.0 0.0 0.0

-3.1615487275539604e6 1.3398904550633183e7 0.0
1.3398904550633183e7 -1.8160528085414115e7 0.0
0.0 0.0 0.0

1.0065290617297646e6 1.128575846296898e7 0.0
1.128575846296898e7 -2.8399672476238534e7 0.0
0.0 0.0 0.0

-5.357549169601397e6 1.2463507961556047e7 0.0
1.2463507961556047e7 2.94913888029013e6 0.0
0.0 0.0 0.0

-5.8562133209674265e6 1.8662403300214984e7 0.0
1.8662403300214984e7 7.032882893642947e6 0.0
0.0 0.0 0.0

-4.0615294222506974e6 1.779976997391154e7 0.0
1.779976997391154e7 -4.271036422692116e6 0.0
0.0 0.0 0.0

-1.0707580216158858e7 161227.18885105647 0.0
161227.18885105647 3.4052112022355266e7 0.0
0.0 0.0 0.0

1.2890562051430363e6 1.1109501993171988e7 0.0
1.1109501993171988e7 -2.6830723041169725e7 0.0
0.0 0.0 0.0

-1.1023696395135459e7 1.0025476330745725e7 0.0
1.0025476330745725e7 2.578720616861668e7 0.0
0.0 0.0 0.0

-1.0658790804992472e6 1.525951272753855e7 0.0
1.525951272753855e7 167619.99890939565 0.0
0.0 0.0 0.0

-2.8999929959186204e6 2.0979045058951125e7 0.0
2.0979045058951125e7 -353141.80704859237 0.0
0.0 0.0 0.0

-1.0383156573918147e7 2.0089568707986396e7 0.0
2.0089568707986396e7 5.9740081518513765e6 0.0
0.0 0.0 0.0

-1.2011177030470733e7 1.1280842362174869e7 0.0
1.1280842362174869e7 2.0036023864023168e7 0.0
0.0 0.0 0.0

-2.417997743985766e6 1.1351945110695552e7 0.0
1.1351945110695552e7 -1.0805483711675765e7 0.0
0.0 0.0 0.0

1.4914549094685216e6 1.394156451056298e7 0.0
1.394156451056298e7 5.999395731210458e6 0.0
0.0 0.0 0.0

4.140442365221901e6 6.731571962512479e6 0.0
6.731571962512479e6 -2.289828429181769e7 0.0
0.0 0.0 0.0

1.7890553240575292e6 7.889815304999701e6 0.0
7.889815304999701e6 -9.632847698862374e6 0.0
0.0 0.0 0.0

-1.1697206105588615e7 7.603826144754092e6 0.0
7.603826144754092e6 2.6039476575755335e7 0.0
0.0 0.0 0.0

-4.386142926122895e6 1.6248004870930605e7 0.0
1.6248004870930605e7 7.8348160140292095e6 0.0
0.0 0.0 0.0

-2.15056186633119e7 1.904261945367982e7 0.0
1.904261945367982e7 5.535006950453199e6 0.0
0.0 0.0 0.0

1.1715827179294126e6 1.2017863100663772e7 0.0
1.2017863100663772e7 -1.7618275771946404e7 0.0
0.0 0.0 0.0

3.16057819981426e6 8.841399413408313e6 0.0
8.841399413408313e6 -2.170297744660718e7 0.0
0.0 0.0 0.0

1.5297932258979883e6 1.1034338104328081e7 0.0
1.1034338104328081e7 -2.5374445645661402e7 0.0
0.0 0.0 0.0

2.8202951786952354e6 4.873695077976402e6 0.0
4.873695077976402e6 -8.236329279277617e6 0.0
0.0 0.0 0.0

-696622.3116718514 1.5460673280408047e7 0.0
1.5460673280408047e7 -7.337033345009511e6 0.0
0.0 0.0 0.0

-141193.33682443434 1.6381363754030976e7 0.0
1.6381363754030976e7 -7.1896377815716555e6 0.0
0.0 0.0 0.0

-1.6673866924889397e7 2.5076211771988776e7 0.0
2.5076211771988776e7 9.126891392310448e6 0.0
0.0 0.0 0.0

1.9034519951890686e6 4.905469861142541e6 0.0
4.905469861142541e6 -5.673972346605204e6 0.0
0.0 0.0 0.0

419343.95997887664 1.3796772248708904e7 0.0
1.3796772248708904e7 -1.3267200876620455e7 0.0
0.0 0.0 0.0

-1.0910609958811298e7 1.3516081713643873e7 0.0
1.3516081713643873e7 1.730380220487529e7 0.0
0.0 0.0 0.0

-1.0436643780204825e7 -715145.869705828 0.0
-715145.869705828 1.8111125930230882e7 0.0
0.0 0.0 0.0

4.608145618605521e6 5.591511466319187e6 0.0
5.591511466319187e6 -2.0983039356786445e7 0.0
0.0 0.0 0.0

-1.1134924811657697e7 1.4756967182904128e6 0.0
1.4756967182904128e6 1.8282909019950695e7 0.0
0.0 0.0 0.0

-1.1382859092067622e7 1.6052897386554861e6 0.0
1.6052897386554861e6 2.225103710935721e7 0.0
0.0 0.0 0.0

-6.653505575832372e6 7.214661318909134e6 0.0
7.214661318909134e6 9.718282774627196e6 0.0
0.0 0.0 0.0

-5.150554199022064e6 1.73083208051867e7 0.0
1.73083208051867e7 8.562759023710843e6 0.0
0.0 0.0 0.0

-1.5184596956576784e6 9.806709255218815e6 0.0
9.806709255218815e6 -1.3248035123026022e6 0.0
0.0 0.0 0.0

1.2623734059809126e7 5.668671360947576e6 0.0
5.668671360947576e6 -3.0341645281208586e6 0.0
0.0 0.0 0.0

-2.5283900543427497e7 -724229.5116619029 0.0
-724229.5116619029 9.094732041857174e6 0.0
0.0 0.0 0.0

3.024656728570589e6 7.519716117963841e6 0.0
7.519716117963841e6 -1.0172587132777384e7 0.0
0.0 0.0 0.0

3.812054843495923e6 8.483670732235279e6 0.0
8.483670732235279e6 -2.1161162005613543e7 0.0
0.0 0.0 0.0

4.336607654507734e6 7.389842656374138e6 0.0
7.389842656374138e6 -2.163887422950212e7 0.0
0.0 0.0 0.0

509529.1418398535 1.3029920894399136e6 0.0
1.3029920894399136e6 685391.1609647272 0.0
0.0 0.0 0.0

-2.2346411850542445e6 -1.189360870123845e6 0.0
-1.189360870123845e6 3.1877795818681386e6 0.0
0.0 0.0 0.0

-1.6073417217026497e6 1.3256972522940276e7 0.0
1.3256972522940276e7 -1.7157262560272038e7 0.0
0.0 0.0 0.0

4.588617719377582e6 5.76692126736581e6 0.0
5.76692126736581e6 -2.3337082136481542e7 0.0
0.0 0.0 0.0

-1.4004165470040184e7 1.916915782773539e7 0.0
1.916915782773539e7 -2.981819137700019e6 0.0
0.0 0.0 0.0

-7.501690110934091e6 1.5360789852363521e7 0.0
1.5360789852363521e7 1.121429826246452e7 0.0
0.0 0.0 0.0

-2.2466153595189876e6 1.954861356544202e7 0.0
1.954861356544202e7 -1.7562961074144752e6 0.0
0.0 0.0 0.0

2.02333846045819e6 1.3395288252342181e7 0.0
1.3395288252342181e7 8.010357000672382e6 0.0
0.0 0.0 0.0

5.64752879881662e6 9.616277744785188e6 0.0
9.616277744785188e6 1.6905168603745522e6 0.0
0.0 0.0 0.0

-7.611429575398584e6 2.022615840584659e7 0.0
2.022615840584659e7 -2.6885925921207108e6 0.0
0.0 0.0 0.0

-1.1355148128897823e7 2.464476220536928e6 0.0
2.464476220536928e6 2.9222430202836066e7 0.0
0.0 0.0 0.0

-5.594292796091186e6 1.802861218226181e7 0.0
1.802861218226181e7 6.9657135208566915e6 0.0
0.0 0.0 0.0

214884.90709951427 1.6375927361158848e7 0.0
1.6375927361158848e7 -6.7027944175025225e6 0.0
0.0 0.0 0.0

-1.0385090249663161e7 1.3783781428888995e7 0.0
1.3783781428888995e7 1.6695741146392696e7 0.0
0.0 0.0 0.0

-9.01526076810313e6 -3.7254193233624534e6 0.0
-3.7254193233624534e6 1.6376498955420222e7 0.0
0.0 0.0 0.0

-3.1495009129585195e6 2.0194124957416963e7 0.0
2.0194124957416963e7 -596473.080075896 0.0
0.0 0.0 0.0

3.239126267994716e6 8.758736991979232e6 0.0
8.758736991979232e6 -2.0474965450452793e7 0.0
0.0 0.0 0.0

-1.2615475197911675e6 1.9021209564732563e7 0.0
1.9021209564732563e7 -3.7317036656608344e6 0.0
0.0 0.0 0.0

4.814503602870122e6 6.364098481259627e6 0.0
6.364098481259627e6 -2.231346507171789e7 0.0
0.0 0.0 0.0

1.9652899056651718e6 1.4835078245998386e7 0.0
1.4835078245998386e7 8.61866004947519e6 0.0
0.0 0.0 0.0

-1.6630936028050657e6 1.5845399993200928e7 0.0
1.5845399993200928e7 -6.184277239948638e6 0.0
0.0 0.0 0.0

-8.269940576383401e6 1.9506311370454323e6 0.0
1.9506311370454323e6 9.06591361134316e6 0.0
0.0 0.0 0.0

-839593.2118185863 1.1235011487222e7 0.0
1.1235011487222e7 -6.508784038558713e6 0.0
0.0 0.0 0.0

5.227371760337577e6 5.243101590025582e6 0.0
5.243101590025582e6 -2.2533868981050696e7 0.0
0.0 0.0 0.0

4.210317681681988e6 1.9159539918304306e7 0.0
1.9159539918304306e7 -5.507909019120449e6 0.0
0.0 0.0 0.0

3.000706880248606e6 6.9657039117131755e6 0.0
6.9657039117131755e6 -1.2043866093844594e7 0.0
0.0 0.0 0.0

-1.1275021579838123e7 3.188468531841118e6 0.0
3.188468531841118e6 1.3447638915345058e7 0.0
0.0 0.0 0.0

-4.612863308611864e6 2.043162213588605e7 0.0
2.043162213588605e7 3.8315450919369888e6 0.0
0.0 0.0 0.0

1.538074812329811e6 1.0968526200350525e7 0.0
1.0968526200350525e7 -2.392750409066248e7 0.0
0.0 0.0 0.0

-3.0348652227759864e6 1.1697771776911378e7 0.0
1.1697771776911378e7 -1.0116217562336732e7 0.0
0.0 0.0 0.0

1.5912111529902946e6 1.333590660935343e7 0.0
1.333590660935343e7 5.304037368089963e6 0.0
0.0 0.0 0.0

-2.100343011255527e6 1.012072309583943e7 0.0
1.012072309583943e7 -293779.82173570414 0.0
0.0 0.0 0.0

-6.185038822006034e6 1.1269275313915879e7 0.0
1.1269275313915879e7 4.723766076374797e6 0.0
0.0 0.0 0.0

-394091.50497897435 1.5285815467074372e7 0.0
1.5285815467074372e7 8.980343657537667e6 0.0
0.0 0.0 0.0

-8.743693452417444e6 -1.6411393275959436e6 0.0
-1.6411393275959436e6 1.4461146753323503e7 0.0
0.0 0.0 0.0

375265.33883067354 1.4511136588919599e7 0.0
1.4511136588919599e7 2.52376752657058e6 0.0
0.0 0.0 0.0

-5.986824099189277e6 1.707434809324914e7 0.0
1.707434809324914e7 9.076076034671925e6 0.0
0.0 0.0 0.0

2.636367532901311e6 7.027158099247363e6 0.0
7.027158099247363e6 -1.0947930499636354e7 0.0
0.0 0.0 0.0

-1.1699593620293397e7 147717.19124231278 0.0
147717.19124231278 1.650884992883484e7 0.0
0.0 0.0 0.0

-2.1531673135890495e6 1.6766078999807587e7 0.0
1.6766078999807587e7 -4.0481766443444486e6 0.0
0.0 0.0 0.0

-1.0679498986602293e7 1.3816155598843733e7 0.0
1.3816155598843733e7 1.5713441010243662e7 0.0
0.0 0.0 0.0

-2.044166082119646e6 1.5492660361878656e7 0.0
1.5492660361878656e7 8.641743891613254e6 0.0
0.0 0.0 0.0

-1.172293608097589e7 3.638882723422521e6 0.0
3.638882723422521e6 1.8310605387487754e7 0.0
0.0 0.0 0.0

-507726.9288305964 1.6187344752501592e7 0.0
1.6187344752501592e7 -7.537178189470828e6 0.0
0.0 0.0 0.0

-5.764119592493858e6 2.024841656906205e7 0.0
2.024841656906205e7 6.432318349291492e6 0.0
0.0 0.0 0.0

-1.1805835253726944e7 5.933389022169079e6 0.0
5.933389022169079e6 2.5843624643223e7 0.0
0.0 0.0 0.0

-7.590036879163098e6 8.960031348004285e6 0.0
8.960031348004285e6 7.627212478677297e6 0.0
0.0 0.0 0.0

-1.1686240860796265e7 -348334.14237420144 0.0
-348334.14237420144 2.4610413992517374e7 0.0
0.0 0.0 0.0

388401.7126944042 1.3452827277379064e7 0.0
1.3452827277379064e7 -1.2363400105792703e7 0.0
0.0 0.0 0.0

-5.545801890409239e6 1.8269598505233333e7 0.0
1.8269598505233333e7 7.5831710404265225e6 0.0
0.0 0.0 0.0

-1.0272289257330415e6 1.547750986646981e7 0.0
1.547750986646981e7 -1.096707107726197e6 0.0
0.0 0.0 0.0

3.54643181434384e6 7.711681110077448e6 0.0
7.711681110077448e6 -1.2789195404985653e7 0.0
0.0 0.0 0.0

-9.539871894045714e6 -3.6716999730767924e6 0.0
-3.6716999730767924e6 1.9786646037532844e7 0.0
0.0 0.0 0.0

-8.831840724006398e6 1.2491681375055961e7 0.0
1.2491681375055961e7 2.6467051266569972e7 0.0
0.0 0.0 0.0

-1.1053746437724216e7 8.813002681134038e6 0.0
8.813002681134038e6 2.7622252133133013e7 0.0
0.0 0.0 0.0

-1.405301349827662e6 1.3886872654205361e7 0.0
1.3886872654205361e7 6.962425442689862e6 0.0
0.0 0.0 0.0

-1.219462663868439e7 2.353121847265928e6 0.0
2.353121847265928e6 1.6598308459078664e7 0.0
0.0 0.0 0.0

-4.963672624177318e6 1.0893015177406406e7 0.0
1.0893015177406406e7 5.248882409079979e6 0.0
0.0 0.0 0.0

-1.647502356703131e6 1.5120235483471675e7 0.0
1.5120235483471675e7 -3.9843098287699074e6 0.0
0.0 0.0 0.0

553625.943874998 1.2364415806835696e7 0.0
1.2364415806835696e7 -1.050682823387076e7 0.0
0.0 0.0 0.0

-5.221929991710117e6 1.691068608454954e7 0.0
1.691068608454954e7 9.549424209778182e6 0.0
0.0 0.0 0.0

-4.803094559075156e6 2.242468079550169e7 0.0
2.242468079550169e7 5.126464270189717e6 0.0
0.0 0.0 0.0

-1.2680756326860474e7 8.687124162458904e6 0.0
8.687124162458904e6 2.069042149881192e7 0.0
0.0 0.0 0.0

3.456495095561905e6 1.3552095444825795e7 0.0
1.3552095444825795e7 1.2561358213076787e7 0.0
0.0 0.0 0.0

508588.6663339068 1.4195647385438826e7 0.0
1.4195647385438826e7 -7.581646567485231e6 0.0
0.0 0.0 0.0

3.260775675956743e6 9.3925457985755e6 0.0
9.3925457985755e6 -1.6073115671078585e7 0.0
0.0 0.0 0.0

5.330430458603667e6 4.0870689949205946e6 0.0
4.0870689949205946e6 -2.3986131784521073e7 0.0
0.0 0.0 0.0

-1.0467078391174434e7 -3.810260513400473e6 0.0
-3.810260513400473e6 2.255295330107371e7 0.0
0.0 0.0 0.0

-4.835600831445004e6 1.691633198173387e7 0.0
1.691633198173387e7 8.842932387086473e6 0.0
0.0 0.0 0.0

-6.832465442244584e6 1.2611510316027813e7 0.0
1.2611510316027813e7 1.394748909051988e7 0.0
0.0 0.0 0.0

-5.381973267599884e6 1.3512804382779246e7 0.0
1.3512804382779246e7 4.088058046267139e7 0.0
0.0 0.0 0.0

475117.2237957474 1.1853715597834831e7 0.0
1.1853715597834831e7 -9.781336663147414e6 0.0
0.0 0.0 0.0

2.6125525496623595e6 1.3829884321540866e7 0.0
1.3829884321540866e7 8.708508861290647e6 0.0
0.0 0.0 0.0

-1.0209216982160687e7 -3.120661691178731e6 0.0
-3.120661691178731e6 1.5352984639799768e7 0.0
0.0 0.0 0.0

-1.9379594235803474e7 -1.6761033035340642e6 0.0
-1.6761033035340642e6 9.24355378526231e6 0.0
0.0 0.0 0.0

3.414889673730081e6 8.351239930151459e6 0.0
8.351239930151459e6 -1.8818796675231103e7 0.0
0.0 0.0 0.0

-1.1081980440371834e7 1.0231819452655807e6 0.0
1.0231819452655807e6 1.4009880209319092e7 0.0
0.0 0.0 0.0

2.9732023032956803e6 9.237741332184438e6 0.0
9.237741332184438e6 -2.06975944457803e7 0.0
0.0 0.0 0.0

-1.0778619937449556e7 1.2799995989650032e7 0.0
1.2799995989650032e7 2.0375612918554295e7 0.0
0.0 0.0 0.0

5.026578095660025e6 4.630147639933123e6 0.0
4.630147639933123e6 -1.6208530681544693e7 0.0
0.0 0.0 0.0

2.4098606278161784e6 1.9858417242603514e7 0.0
1.9858417242603514e7 -4.956802968058106e6 0.0
0.0 0.0 0.0

-1.7851635926198936e6 1.1149774587430215e7 0.0
1.1149774587430215e7 -1.6274620354714864e6 0.0
0.0 0.0 0.0

1.3551236717540987e6 6.133569561992301e6 0.0
6.133569561992301e6 -4.633689062135953e6 0.0
0.0 0.0 0.0

1.788803115516247e7 5.695681658833151e6 0.0
5.695681658833151e6 -3.3461422426462397e6 0.0
0.0 0.0 0.0

-9.525102397541065e6 1.3395102452075716e7 0.0
1.3395102452075716e7 1.9348256319543965e7 0.0
0.0 0.0 0.0

-328802.86866792385 8.765065789275125e6 0.0
8.765065789275125e6 -5.382416660168043e6 0.0
0.0 0.0 0.0

-1.221370564497826e7 995993.6345836959 0.0
995993.6345836959 2.2988287619580552e7 0.0
0.0 0.0 0.0

2.168511635769412e6 5.530940018506862e6 0.0
5.530940018506862e6 -8.009473275048792e6 0.0
0.0 0.0 0.0

-1.9368904468531706e6 1.6394821331445716e7 0.0
1.6394821331445716e7 -3.235990380584373e6 0.0
0.0 0.0 0.0

-6.507550060249807e6 1.5580424113037504e7 0.0
1.5580424113037504e7 1.1518999749608088e7 0.0
0.0 0.0 0.0

-1.0629595438138269e7 4.24053848228938e6 0.0
4.24053848228938e6 1.4840973719184326e7 0.0
0.0 0.0 0.0

3.796947289130158e6 7.456876618260689e6 0.0
7.456876618260689e6 -1.925878859569156e7 0.0
0.0 0.0 0.0

-1.9112162378888773e6 1.3016040749614032e7 0.0
1.3016040749614032e7 -2.1532784167261273e7 0.0
0.0 0.0 0.0

-2.8298376536924406e6 5.809298124416695e6 0.0
5.809298124416695e6 424695.33250514825 0.0
0.0 0.0 0.0

4.486819828661282e6 4.782272760879771e6 0.0
4.782272760879771e6 -1.5166872514152559e7 0.0
0.0 0.0 0.0

-534095.9307496492 1.3945834292377453e7 0.0
1.3945834292377453e7 -8.92647893096799e6 0.0
0.0 0.0 0.0

8.65043812364102e6 1.5070980418798737e7 0.0
1.5070980418798737e7 62025.038664850406 0.0
0.0 0.0 0.0

5.082731175160181e6 5.791813769040817e6 0.0
5.791813769040817e6 -2.4361102291058663e7 0.0
0.0 0.0 0.0

-8.716478200411387e6 -1.2829717502572539e6 0.0
-1.2829717502572539e6 3.5461032884907797e6 0.0
0.0 0.0 0.0

-8.662081148247685e6 1.3909339772986973e7 0.0
1.3909339772986973e7 1.464507425494679e7 0.0
0.0 0.0 0.0

-765832.3203415126 7.467139234036476e6 0.0
7.467139234036476e6 -1.4510774567957274e6 0.0
0.0 0.0 0.0

-1.124744281715842e7 3.337296082216595e6 0.0
3.337296082216595e6 1.6215449454153974e7 0.0
0.0 0.0 0.0

4.893937939505128e6 6.055670365027113e6 0.0
6.055670365027113e6 -2.768524142672612e7 0.0
0.0 0.0 0.0

4.0926019175600936e6 1.4192075435816992e7 0.0
1.4192075435816992e7 1.36420065591082e7 0.0
0.0 0.0 0.0

1.413255580944113e6 1.719148206283843e7 0.0
1.719148206283843e7 8.91029826595716e6 0.0
0.0 0.0 0.0

-2.1736173252819777e6 1.3083960161776725e7 0.0
1.3083960161776725e7 -1.4342599356636772e7 0.0
0.0 0.0 0.0

285123.21205415996 1.103847948732772e7 0.0
1.103847948732772e7 -8.47550256445804e6 0.0
0.0 0.0 0.0

-5.9194191189436e6 1.616007403723398e7 0.0
1.616007403723398e7 1.0859773996773165e7 0.0
0.0 0.0 0.0

4.432270137657061e6 1.4890001829771886e7 0.0
1.4890001829771886e7 -2.2854624208658645e6 0.0
0.0 0.0 0.0

2.991502874255514e6 9.192926323063208e6 0.0
9.192926323063208e6 -1.8330730952391133e7 0.0
0.0 0.0 0.0

-2.80921679585191e6 2.1365546996351812e7 0.0
2.1365546996351812e7 -277029.1959014266 0.0
0.0 0.0 0.0

-829485.9542022333 1.217132809114221e7 0.0
1.217132809114221e7 2.1131735634626755e6 0.0
0.0 0.0 0.0

-4.819650663783705e7 2.3858767929498567e6 0.0
2.3858767929498567e6 8.343101689751333e6 0.0
0.0 0.0 0.0

3.198945613352086e7 6.037222062062784e6 0.0
6.037222062062784e6 -3.094965065170951e6 0.0
0.0 0.0 0.0

209872.53750237008 1.4932981398503015e7 0.0
1.4932981398503015e7 5.679825420276412e6 0.0
0.0 0.0 0.0

-6.854071009021455e6 4.836043102686499e6 0.0
4.836043102686499e6 2.1619860634643197e7 0.0
0.0 0.0 0.0

-1.2185648989817942e6 1.5288048144106809e7 0.0
1.5288048144106809e7 8.254609801244643e6 0.0
0.0 0.0 0.0

-1.792773735766096e6 1.830311709933403e7 0.0
1.830311709933403e7 -4.70432002166398e6 0.0
0.0 0.0 0.0

2.3345954702552655e6 1.5286255357817905e7 0.0
1.5286255357817905e7 7.781985724988315e6 0.0
0.0 0.0 0.0

-1.0018746140066717e7 3.8294495230865544e6 0.0
3.8294495230865544e6 1.4072854639206558e7 0.0
0.0 0.0 0.0

-5.687807405881888e6 1.606395015173886e7 0.0
1.606395015173886e7 7.5921174893565895e6 0.0
0.0 0.0 0.0

-3.044018680051657e7 2.446969050666732e7 0.0
2.446969050666732e7 1.1132020538531635e6 0.0
0.0 0.0 0.0

4.64701415412809e6 5.03853729203179e6 0.0
5.03853729203179e6 -1.8057493356436662e7 0.0
0.0 0.0 0.0

-1.0799446104822592e6 1.5742716236453563e7 0.0
1.5742716236453563e7 -2.213422450071382e6 0.0
0.0 0.0 0.0

3.7874544246537965e6 1.3564555241803886e7 0.0
1.3564555241803886e7 1.4767804595222976e7 0.0
0.0 0.0 0.0

-4.051132579638579e6 1.2309691227888731e7 0.0
1.2309691227888731e7 -1.3503775413133238e7 0.0
0.0 0.0 0.0

2.2591809888406047e6 1.3658417693989297e7 0.0
1.3658417693989297e7 7.530603599890057e6 0.0
0.0 0.0 0.0

1.6962759219502257e6 1.1099143720063986e7 0.0
1.1099143720063986e7 -2.28112634770395e7 0.0
0.0 0.0 0.0

-9.859164032055717e6 -1.6569309983192892e6 0.0
-1.6569309983192892e6 1.7196755680806167e7 0.0
0.0 0.0 0.0

-1.2859659806840377e7 2.1590239803745653e7 0.0
2.1590239803745653e7 7.967924123026579e6 0.0
0.0 0.0 0.0

2.9701028279541368e6 7.3536725306857955e6 0.0
7.3536725306857955e6 -1.2464107705029339e7 0.0
0.0 0.0 0.0

-9.46251580914841e6 1.3748228677427813e7 0.0
1.3748228677427813e7 1.835989564072538e7 0.0
0.0 0.0 0.0

-1.0061621325211555e7 2.318673645473356e6 0.0
2.318673645473356e6 1.1294866949370626e7 0.0
0.0 0.0 0.0

-5.024463618693915e6 2.20730869975345e7 0.0
2.20730869975345e7 5.480992225200705e6 0.0
0.0 0.0 0.0

-9.944234425553823e6 2.4474476384297684e7 0.0
2.4474476384297684e7 7.62192193122421e6 0.0
0.0 0.0 0.0

-6.431697195858991e6 -2.520140890395817e6 0.0
-2.520140890395817e6 5.654407650194593e6 0.0
0.0 0.0 0.0

-1.421245344331327e6 1.1994156913099745e7 0.0
1.1994156913099745e7 -7.880906902609639e6 0.0
0.0 0.0 0.0

-1.4848396945298964e6 1.7893175884873766e7 0.0
1.7893175884873766e7 -4.744237092600442e6 0.0
0.0 0.0 0.0

-3.1934180424391665e6 3.7345173620871613e6 0.0
3.7345173620871613e6 1.4229499630246316e6 0.0
0.0 0.0 0.0

968318.5661283571 2.0214149515693698e7 0.0
2.0214149515693698e7 -4.428984165362674e6 0.0
0.0 0.0 0.0

-1.0739500558825774e7 2.7668211577781257e6 0.0
2.7668211577781257e6 1.2556884993810426e7 0.0
0.0 0.0 0.0

4.73665875729059e6 5.190362408638325e6 0.0
5.190362408638325e6 -2.0628902789737422e7 0.0
0.0 0.0 0.0

4.446753509250495e6 5.780428505394763e6 0.0
5.780428505394763e6 -1.881538002168714e7 0.0
0.0 0.0 0.0

1.1631905355692753e6 1.087135443191014e7 0.0
1.087135443191014e7 -1.0781101335459417e7 0.0
0.0 0.0 0.0

-684995.565071549 1.616298219747158e7 0.0
1.616298219747158e7 -7.836608288173685e6 0.0
0.0 0.0 0.0

5.023953833543727e6 5.604729898833212e6 0.0
5.604729898833212e6 -2.9037119217732396e7 0.0
0.0 0.0 0.0

-3.955912199034529e6 1.7687680749411907e7 0.0
1.7687680749411907e7 -5.464245265717245e6 0.0
0.0 0.0 0.0

1.2684353038570508e6 1.21461266001437e7 0.0
1.21461266001437e7 -1.4774628160122355e7 0.0
0.0 0.0 0.0

-1.1797513684224566e7 1.2740075685500467e7 0.0
1.2740075685500467e7 1.6464120519520886e7 0.0
0.0 0.0 0.0

-2.469865194899541e6 1.742481429302787e7 0.0
1.742481429302787e7 -4.673475360112162e6 0.0
0.0 0.0 0.0

3.6106511411736673e6 8.90367858879841e6 0.0
8.90367858879841e6 -1.7877999950127464e7 0.0
0.0 0.0 0.0

-2.339404643026135e7 1.5332280000550685e7 0.0
1.5332280000550685e7 1.0051083516647369e7 0.0
0.0 0.0 0.0

4.915096027896938e6 4.689364756223251e6 0.0
4.689364756223251e6 -2.1375499813509177e7 0.0
0.0 0.0 0.0

4.908852922950504e6 5.802368135964818e6 0.0
5.802368135964818e6 -1.8655688056755e7 0.0
0.0 0.0 0.0

-201774.17103135027 1.4985029922943674e7 0.0
1.4985029922943674e7 -9.376572548281427e6 0.0
0.0 0.0 0.0

-1.459196932217738e7 -2.353512764675415e6 0.0
-2.353512764675415e6 7.193510763068673e6 0.0
0.0 0.0 0.0

1.7640894253459866e6 8.875646109641152e6 0.0
8.875646109641152e6 -8.065661586253405e6 0.0
0.0 0.0 0.0

-5.309426431239256e6 1.3738183126822159e7 0.0
1.3738183126822159e7 1.6960047706011705e7 0.0
0.0 0.0 0.0

-4.52005351477987e6 2.124685398293485e7 0.0
2.124685398293485e7 5.100451179205249e6 0.0
0.0 0.0 0.0

-5.628960475274683e6 2.241319200209375e7 0.0
2.241319200209375e7 5.874542652072742e6 0.0
0.0 0.0 0.0

-1.113602907177256e7 4.485649358316969e6 0.0
4.485649358316969e6 1.2955057078652795e7 0.0
0.0 0.0 0.0

-8.315655214760497e6 1.0375141593023332e7 0.0
1.0375141593023332e7 3.927256378622467e7 0.0
0.0 0.0 0.0

-4.0274691661748243e6 2.138465311772766e7 0.0
2.138465311772766e7 4.0515202752457373e6 0.0
0.0 0.0 0.0

-1.8297483980484265e6 1.584408034162448e7 0.0
1.584408034162448e7 -1.1097600963471527e6 0.0
0.0 0.0 0.0

551762.2185299429 1.3653833095614385e7 0.0
1.3653833095614385e7 -4.827241171153901e6 0.0
0.0 0.0 0.0

1.5749052344922101e7 1.5969427834995655e7 0.0
1.5969427834995655e7 6.0948970787190115e6 0.0
0.0 0.0 0.0

-1.0106130201515231e7 5.407608825308152e6 0.0
5.407608825308152e6 1.4315511510197217e7 0.0
0.0 0.0 0.0

5.2984403318586135e6 4.80521222625135e6 0.0
4.80521222625135e6 -2.0056409703901853e7 0.0
0.0 0.0 0.0

-174591.3434126759 1.4374665815428322e7 0.0
1.4374665815428322e7 -8.246695486124544e6 0.0
0.0 0.0 0.0

-2.858992613373016e6 1.1842487007137498e7 0.0
1.1842487007137498e7 440478.7680761595 0.0
0.0 0.0 0.0

-1.2020250149134105e7 1.232025249738724e7 0.0
1.232025249738724e7 7.713298177699537e6 0.0
0.0 0.0 0.0

-1.0113979475292206e7 -2.1956170583815295e6 0.0
-2.1956170583815295e6 2.203411809211468e7 0.0
0.0 0.0 0.0

-4.849433931146025e7 3.159649270365804e7 0.0
3.159649270365804e7 -4.372252582833635e6 0.0
0.0 0.0 0.0

-5.52844965782908e6 1.3354689894045882e7 0.0
1.3354689894045882e7 -1.842816591879963e7 0.0
0.0 0.0 0.0

3.5059096901208214e6 1.4047420477388155e7 0.0
1.4047420477388155e7 1.1686366109810114e7 0.0
0.0 0.0 0.0

1.7419893472954528e6 1.1461004536378287e7 0.0
1.1461004536378287e7 -1.6512359165110284e7 0.0
0.0 0.0 0.0

-9.167080462512923e6 1.884507337515108e7 0.0
1.884507337515108e7 3.8920074959315867e6 0.0
0.0 0.0 0.0

3.2766965609137537e6 7.822458875729758e6 0.0
7.822458875729758e6 -1.1696322018328745e7 0.0
0.0 0.0 0.0

4.021755599068477e6 8.020789516562579e6 0.0
8.020789516562579e6 -1.8301590649805654e7 0.0
0.0 0.0 0.0

-7.125368963391887e6 1.4982628827646393e7 0.0
1.4982628827646393e7 1.2541940678802667e7 0.0
0.0 0.0 0.0

2.7606679018915156e6 9.614965060600279e6 0.0
9.614965060600279e6 -1.752386754152147e7 0.0
0.0 0.0 0.0

-4.678969598624708e6 2.167421032799791e7 0.0
2.167421032799791e7 5.282420646549706e6 0.0
0.0 0.0 0.0

-1.2594522574254744e7 2.616508230258582e6 0.0
2.616508230258582e6 2.0239324223906767e7 0.0
0.0 0.0 0.0

-8.388397819726755e6 -2.817857299155854e6 0.0
-2.817857299155854e6 1.509936169200679e7 0.0
0.0 0.0 0.0

3.9610435498862853e6 7.025468903587446e6 0.0
7.025468903587446e6 -1.8866334299834415e7 0.0
0.0 0.0 0.0

-4.945085984518008e6 1.76004985722711e7 0.0
1.76004985722711e7 -4.0716496649580896e6 0.0
0.0 0.0 0.0

-1.5714452691084594e6 2.2861536527536497e7 0.0
2.2861536527536497e7 -1.7419232049294033e6 0.0
0.0 0.0 0.0

-9.833686283644918e6 1.3016006816486519e7 0.0
1.3016006816486519e7 1.5551754309901774e7 0.0
0.0 0.0 0.0

4.407789714399596e6 6.071154140483418e6 0.0
6.071154140483418e6 -2.0325480073452596e7 0.0
0.0 0.0 0.0

4.854603526885536e6 6.007954827190852e6 0.0
6.007954827190852e6 -2.590108125031649e7 0.0
0.0 0.0 0.0

-1.0783250479240851e7 9.108853586054062e6 0.0
9.108853586054062e6 3.083055911693159e7 0.0
0.0 0.0 0.0

-1.1842080776840735e7 2.903882762195754e6 0.0
2.903882762195754e6 2.1205053583169453e7 0.0
0.0 0.0 0.0

-28264.233128138818 2.0262687388568364e7 0.0
2.0262687388568364e7 -3.9497483377277832e6 0.0
0.0 0.0 0.0

-2.860767022399688e6 1.6841811187394977e7 0.0
1.6841811187394977e7 -1.066806564215382e6 0.0
0.0 0.0 0.0

-1.1407561385420496e7 1.1866208339009571e6 0.0
1.1866208339009571e6 2.4330703338154666e7 0.0
0.0 0.0 0.0

3.7033502164521823e6 5.341461014523951e6 0.0
5.341461014523951e6 -1.260828667977864e7 0.0
0.0 0.0 0.0

-4.4300513481660215e6 1.6891230750425626e7 0.0
1.6891230750425626e7 1.044725604277621e6 0.0
0.0 0.0 0.0

-8.505454333168678e6 1.7714530109090902e7 0.0
1.7714530109090902e7 -3.270267654452828e6 0.0
0.0 0.0 0.0

-7.3322615128394365e6 7.450895164509449e6 0.0
7.450895164509449e6 7.538166257853424e6 0.0
0.0 0.0 0.0

4.962190938615267e6 5.697579463434922e6 0.0
5.697579463434922e6 -1.976235722165235e7 0.0
0.0 0.0 0.0

2.613224265164667e6 9.630288908540642e6 0.0
9.630288908540642e6 -1.6430557465079544e7 0.0
0.0 0.0 0.0

-8.030488366368034e6 504366.7039009479 0.0
504366.7039009479 9.27664723363027e6 0.0
0.0 0.0 0.0

-1.1872360843192687e7 4.820154514393466e6 0.0
4.820154514393466e6 1.7714756565224726e7 0.0
0.0 0.0 0.0

1.6619134877011376e6 1.121051908462881e7 0.0
1.121051908462881e7 -2.1502464665017735e7 0.0
0.0 0.0 0.0

5.001259730509001e6 5.434220250512814e6 0.0
5.434220250512814e6 -1.8297924024361324e7 0.0
0.0 0.0 0.0

-3.2118353575531263e6 1.6651789891351618e7 0.0
1.6651789891351618e7 -2.1845424801626853e6 0.0
0.0 0.0 0.0

4.43556567694348e6 7.101003469901258e6 0.0
7.101003469901258e6 -1.8699627928800985e7 0.0
0.0 0.0 0.0

-7.799903386553104e6 1.6175689331321407e6 0.0
1.6175689331321407e6 1.078667857086477e7 0.0
0.0 0.0 0.0

-7.5966637847285615e6 1.5085628271099603e7 0.0
1.5085628271099603e7 -2.5322214594302416e7 0.0
0.0 0.0 0.0

6.040221416181902e6 1.4911524772704387e7 0.0
1.4911524772704387e7 2.0134073510810465e7 0.0
0.0 0.0 0.0

416667.5192488271 1.3719866016471285e7 0.0
1.3719866016471285e7 -400151.43628797826 0.0
0.0 0.0 0.0

-1.9382508028334223e7 -1.6019206191639479e6 0.0
-1.6019206191639479e6 9.107449037965685e6 0.0
0.0 0.0 0.0

-7.0949615684713535e6 174084.86598678824 0.0
174084.86598678824 9.786394207558585e6 0.0
0.0 0.0 0.0

2.9673094460638985e6 1.5581326864859728e7 0.0
1.5581326864859728e7 9.891029056887263e6 0.0
0.0 0.0 0.0

-2.298637949272031e6 1.3465247698756736e7 0.0
1.3465247698756736e7 -7.662125557466359e6 0.0
0.0 0.0 0.0

-7.632170448516203e6 1.0729078891475003e7 0.0
1.0729078891475003e7 4.3540316221246384e7 0.0
0.0 0.0 0.0

4.1908053391325623e6 6.563263750525755e6 0.0
6.563263750525755e6 -1.9610042272959437e7 0.0
0.0 0.0 0.0

-1.7300724768433543e6 1.7470350676922493e7 0.0
1.7470350676922493e7 -5.715419777838345e6 0.0
0.0 0.0 0.0

-2.9840343563049794e6 1.3298751937437003e7 0.0
1.3298751937437003e7 -2.0436235661500935e7 0.0
0.0 0.0 0.0

-4.80585266587933e6 2.055931930164908e7 0.0
2.055931930164908e7 4.545472031597233e6 0.0
0.0 0.0 0.0

-4.362036148149591e6 1.6704937990502574e7 0.0
1.6704937990502574e7 5.511126723406708e6 0.0
0.0 0.0 0.0

-2.907450127933055e6 2.0144000258560386e7 0.0
2.0144000258560386e7 -1.19188314938904e6 0.0
0.0 0.0 0.0

-5.8381939988841005e6 1.4501748595090905e7 0.0
1.4501748595090905e7 -2.6247585913938314e7 0.0
0.0 0.0 0.0

-794778.4360310102 2.0188514775510088e7 0.0
2.0188514775510088e7 -3.564133922716402e6 0.0
0.0 0.0 0.0

-1.1304558755037557e7 1.2678387564956164e7 0.0
1.2678387564956164e7 1.8655284954500318e7 0.0
0.0 0.0 0.0

2.6176162566671884e6 8.143448311325515e6 0.0
8.143448311325515e6 -1.2205526923434148e7 0.0
0.0 0.0 0.0

4.317119208018709e6 6.158628641994728e6 0.0
6.158628641994728e6 -1.9208989242002957e7 0.0
0.0 0.0 0.0

-1.2237787682165867e6 1.6787553473624848e7 0.0
1.6787553473624848e7 -6.910242572778957e6 0.0
0.0 0.0 0.0

-1.7113748822846161e6 1.2242974560676731e7 0.0
1.2242974560676731e7 -4.611867074350091e6 0.0
0.0 0.0 0.0

3.493015122005429e6 8.241047390498087e6 0.0
8.241047390498087e6 -2.1389964892068382e7 0.0
0.0 0.0 0.0

-4.722613933126046e6 1.9781482831072215e7 0.0
1.9781482831072215e7 4.929378003566279e6 0.0
0.0 0.0 0.0

-2.7610992698152913e6 1.345334300784349e7 0.0
1.345334300784349e7 -558688.2434633253 0.0
0.0 0.0 0.0

819164.1620097482 1.2296584935159385e7 0.0
1.2296584935159385e7 -9.112415777652e6 0.0
0.0 0.0 0.0

2.8459569020103132e6 1.0073487664600573e7 0.0
1.0073487664600573e7 -2.0585483828418724e7 0.0
0.0 0.0 0.0

-1.7507490669747663e6 1.9748383552721556e7 0.0
1.9748383552721556e7 -3.1815553381500808e6 0.0
0.0 0.0 0.0

149733.64454684174 1.356887791003793e7 0.0
1.356887791003793e7 -8.349089957091926e6 0.0
0.0 0.0 0.0

-505264.5340353991 1.1089076163542999e7 0.0
1.1089076163542999e7 -4.40177152020959e6 0.0
0.0 0.0 0.0

1.5055880530453801e7 5.6280735633793725e6 0.0
5.6280735633793725e6 -3.154489951844058e6 0.0
0.0 0.0 0.0

-5.012062701598583e6 1.4347682856577396e7 0.0
1.4347682856577396e7 5.039297991820265e6 0.0
0.0 0.0 0.0

-6.107477504924734e6 7.089600118782312e6 0.0
7.089600118782312e6 8.028933515881995e6 0.0
0.0 0.0 0.0

-1.003037285227531e7 -2.1336762490402553e6 0.0
-2.1336762490402553e6 1.889222874447854e7 0.0
0.0 0.0 0.0

5.190300796925194e6 4.720716569749308e6 0.0
4.720716569749308e6 -1.754579905121568e7 0.0
0.0 0.0 0.0

4.018300370171927e6 6.318611250168084e6 0.0
6.318611250168084e6 -1.3706065688004512e7 0.0
0.0 0.0 0.0

4.887947732941766e6 5.545500499038677e6 0.0
5.545500499038677e6 -1.7181975258538518e7 0.0
0.0 0.0 0.0

-1.5953474926913236e6 1.3239581461557956e7 0.0
1.3239581461557956e7 -1.3898943384594267e7 0.0
0.0 0.0 0.0

-1.3385721485427353e6 1.999532244785626e7 0.0
1.999532244785626e7 -3.3153970057598664e6 0.0
0.0 0.0 0.0

-1.1317769761921912e7 1.2908594359992422e7 0.0
1.2908594359992422e7 1.7612550038293783e7 0.0
0.0 0.0 0.0

-5.799643623179229e6 1.4703646214005975e7 0.0
1.4703646214005975e7 4.462182028621264e6 0.0
0.0 0.0 0.0

4.355694471784172e6 5.91097520522076e6 0.0
5.91097520522076e6 -1.7778603211488605e7 0.0
0.0 0.0 0.0

-9.271531626773661e6 1.9313719102703633e6 0.0
1.9313719102703633e6 1.0380846481541174e7 0.0
0.0 0.0 0.0

-1.1228410212676907e7 1.3484148697478915e7 0.0
1.3484148697478915e7 1.6228543349122148e7 0.0
0.0 0.0 0.0

37144.17972432822 1.4773887693240838e7 0.0
1.4773887693240838e7 -1.0212977231295608e7 0.0
0.0 0.0 0.0

941043.8230520072 1.4370015436124895e7 0.0
1.4370015436124895e7 -5.64018360307481e6 0.0
0.0 0.0 0.0

-4.581985956940224e6 2.0467660640204374e7 0.0
2.0467660640204374e7 5.385988989021094e6 0.0
0.0 0.0 0.0

1.8335138515736824e6 1.2017936791477641e7 0.0
1.2017936791477641e7 -1.4601165277058689e7 0.0
0.0 0.0 0.0

4.680905307811699e6 6.292740488120629e6 0.0
6.292740488120629e6 -1.7975293957602873e7 0.0
0.0 0.0 0.0

4.253393336357335e6 6.263157092126542e6 0.0
6.263157092126542e6 -1.8137542786954418e7 0.0
0.0 0.0 0.0

2.2422647261487297e6 7.451972034411894e6 0.0
7.451972034411894e6 -1.0274944746516328e7 0.0
0.0 0.0 0.0

4.1084505964086633e6 6.628807806188603e6 0.0
6.628807806188603e6 -1.851389264568266e7 0.0
0.0 0.0 0.0

4.646985663243405e6 5.874403201295531e6 0.0
5.874403201295531e6 -1.5446756009710157e7 0.0
0.0 0.0 0.0

-7.040996278808454e6 2.37592631341669e7 0.0
2.37592631341669e7 6.615551924984479e6 0.0
0.0 0.0 0.0

-221090.41273675812 2.1152495745269198e7 0.0
2.1152495745269198e7 -3.599753948589322e6 0.0
0.0 0.0 0.0

-4.912587224643432e6 1.7411811164541014e7 0.0
1.7411811164541014e7 6.058938798916025e6 0.0
0.0 0.0 0.0

3.9946566702077948e6 6.232086054365803e6 0.0
6.232086054365803e6 -1.6017643891239207e7 0.0
0.0 0.0 0.0

-2.159174777629925e6 1.4723323711303229e7 0.0
1.4723323711303229e7 -4.613478947310144e6 0.0
0.0 0.0 0.0

-744471.7820399386 1.128665417484305e7 0.0
1.128665417484305e7 -822927.5843935909 0.0
0.0 0.0 0.0

-1.0003393541997109e7 1.702900892038157e7 0.0
1.702900892038157e7 -3.334465498862406e7 0.0
0.0 0.0 0.0

1.0402689253748365e7 1.7933033615961134e7 0.0
1.7933033615961134e7 3.467564808996224e7 0.0
0.0 0.0 0.0

5.209109074114306e6 1.5240617037982538e7 0.0
1.5240617037982538e7 -2.593561144652702e6 0.0
0.0 0.0 0.0

8.151367019313332e6 1.5737371162476864e7 0.0
1.5737371162476864e7 -4.762108948948543e6 0.0
0.0 0.0 0.0

3.9732319305308014e6 6.607332218527715e6 0.0
6.607332218527715e6 -3.2133354854008786e7 0.0
0.0 0.0 0.0

692320.604804384 1.3747656284660747e7 0.0
1.3747656284660747e7 -1.1445934644290777e7 0.0
0.0 0.0 0.0

-1.7850729944159263e6 1.5344468042914722e7 0.0
1.5344468042914722e7 7.427507385450857e6 0.0
0.0 0.0 0.0

-1.2506379313228834e7 2.3484176909170835e6 0.0
2.3484176909170835e6 2.1845733643391684e7 0.0
0.0 0.0 0.0

-1.0650250818105359e7 1.2359540716655726e7 0.0
1.2359540716655726e7 2.1661538007766213e7 0.0
0.0 0.0 0.0

-2.573877633872172e6 1.6057826211142646e7 0.0
1.6057826211142646e7 4.574491046504007e6 0.0
0.0 0.0 0.0

-861999.1814568057 1.1990842745150825e7 0.0
1.1990842745150825e7 -4.230308784873584e6 0.0
0.0 0.0 0.0

-6.953616077034848e6 2.0214481690025166e7 0.0
2.0214481690025166e7 -3.9483271468877844e6 0.0
0.0 0.0 0.0

-5.684700040838655e6 1.671658939809145e7 0.0
1.671658939809145e7 1.0016385865621405e7 0.0
0.0 0.0 0.0

-7.0039732953672465e6 1.0062633106202664e7 0.0
1.0062633106202664e7 6.948161188684044e6 0.0
0.0 0.0 0.0

-5.050823437088792e6 1.6944854787348915e7 0.0
1.6944854787348915e7 4.197523249019293e6 0.0
0.0 0.0 0.0

4.80963276884558e6 6.384243102081904e6 0.0
6.384243102081904e6 -2.3497922935611717e7 0.0
0.0 0.0 0.0

3.90827614387043e6 6.946874024595015e6 0.0
6.946874024595015e6 -1.3064162938691193e7 0.0
0.0 0.0 0.0

-757274.6034714447 1.5095028832561763e7 0.0
1.5095028832561763e7 -8.862630202278927e6 0.0
0.0 0.0 0.0

2.3559270041133687e6 1.0087037752435962e7 0.0
1.0087037752435962e7 -1.5704624070503425e7 0.0
0.0 0.0 0.0

-1.1566125404401217e7 4.957861687024362e6 0.0
4.957861687024362e6 2.7392592317348666e7 0.0
0.0 0.0 0.0

-2.0247129884742026e6 3.8910046358313058e6 0.0
3.8910046358313058e6 450166.9965605973 0.0
0.0 0.0 0.0

-1.0459986410298899e7 4.606479325745442e6 0.0
4.606479325745442e6 3.593207442846962e7 0.0
0.0 0.0 0.0

-828943.1882283958 1.4513665230381249e7 0.0
1.4513665230381249e7 -8.44800390329923e6 0.0
0.0 0.0 0.0

-4.960313699511536e6 1.7834144839621693e7 0.0
1.7834144839621693e7 7.194129376448523e6 0.0
0.0 0.0 0.0

-6.960763420044408e6 8.855498634742524e6 0.0
8.855498634742524e6 9.77949810451768e6 0.0
0.0 0.0 0.0

-1.5166025697925352e6 1.8551257081306793e7 0.0
1.8551257081306793e7 -4.573921657470502e6 0.0
0.0 0.0 0.0

-6.375452752535533e6 6.024924150799596e6 0.0
6.024924150799596e6 6.592599334461596e6 0.0
0.0 0.0 0.0

-6.710021512269247e6 1.6048259844077488e7 0.0
1.6048259844077488e7 1.0688053874779735e7 0.0
0.0 0.0 0.0

1.0420496245369721e7 1.850742976853153e7 0.0
1.850742976853153e7 -9.927063006096553e6 0.0
0.0 0.0 0.0

-1.0199725431107542e7 1.370473412097895e7 0.0
1.370473412097895e7 1.4271486403087594e7 0.0
0.0 0.0 0.0

-938148.2493465191 4.57643611771912e6 0.0
4.57643611771912e6 165032.3950886167 0.0
0.0 0.0 0.0

-2.3334341007305574e7 -1.244256412978428e6 0.0
-1.244256412978428e6 9.864216123942314e6 0.0
0.0 0.0 0.0

4.803207709200035e6 5.052357073432902e6 0.0
5.052357073432902e6 -1.8956839423547663e7 0.0
0.0 0.0 0.0

-6.914827000085364e6 2.159572563257118e7 0.0
2.159572563257118e7 6.721730501088866e6 0.0
0.0 0.0 0.0

-7.730784358644166e6 1.521138684289067e6 0.0
1.521138684289067e6 7.970051227375116e6 0.0
0.0 0.0 0.0

-2.5492195491600535e6 1.011574950195977e7 0.0
1.011574950195977e7 -1.7911839670786592e6 0.0
0.0 0.0 0.0

-1.102094869786122e7 -1.2440655018079085e6 0.0
-1.2440655018079085e6 1.7202235650096886e7 0.0
0.0 0.0 0.0

-96685.07556204777 1.4744667229962748e7 0.0
1.4744667229962748e7 -1.0522219489861617e7 0.0
0.0 0.0 0.0

-1.0642250859313734e7 -2.679526278752838e6 0.0
-2.679526278752838e6 1.777870009217388e7 0.0
0.0 0.0 0.0

549344.4298217893 1.2513347414308045e7 0.0
1.2513347414308045e7 -1.1058559617924683e7 0.0
0.0 0.0 0.0

-1.0986043864718754e7 1.3547102101940054e7 0.0
1.3547102101940054e7 1.6980610562975053e7 0.0
0.0 0.0 0.0

-7.884963943696577e6 7.976797789271827e6 0.0
7.976797789271827e6 8.478330332493853e6 0.0
0.0 0.0 0.0

-9.541877062422723e6 1.3030807050539123e7 0.0
1.3030807050539123e7 2.060405040777921e7 0.0
0.0 0.0 0.0

-1.0029418530076284e7 1.0691481778127447e7 0.0
1.0691481778127447e7 1.257457173721981e7 0.0
0.0 0.0 0.0

-4.429073826833555e6 1.7463566382190894e7 0.0
1.7463566382190894e7 1.2567549400215005e6 0.0
0.0 0.0 0.0

4.564366182181703e6 6.897664097541014e6 0.0
6.897664097541014e6 -2.2636523444155164e7 0.0
0.0 0.0 0.0

-9.431542127009857e6 1.4054414244208636e7 0.0
1.4054414244208636e7 1.762081115185847e7 0.0
0.0 0.0 0.0

5.267393356913275e6 1.5074839188717185e7 0.0
1.5074839188717185e7 2.349701706472204e6 0.0
0.0 0.0 0.0

-1.689595957277605e7 5.536791558749932e6 0.0
5.536791558749932e6 1.0860641374915551e7 0.0
0.0 0.0 0.0

3.239233220359939e6 9.503317209218943e6 0.0
9.503317209218943e6 -2.042811117126761e7 0.0
0.0 0.0 0.0

-6.455827795177968e6 9.782746205360435e6 0.0
9.782746205360435e6 8.784620657037197e6 0.0
0.0 0.0 0.0

2.9730528729667254e6 8.2506972245960105e6 0.0
8.2506972245960105e6 -1.1032903024079915e7 0.0
0.0 0.0 0.0

-6.086231046717132e6 1.4215048102087064e6 0.0
1.4215048102087064e6 7.8824550838832725e6 0.0
0.0 0.0 0.0

-9.092868865572438e6 -2.794473206319088e6 0.0
-2.794473206319088e6 1.273586256454587e7 0.0
0.0 0.0 0.0

1.5032789129324872e6 1.1303005814844266e7 0.0
1.1303005814844266e7 -1.331728942390243e7 0.0
0.0 0.0 0.0

-9.161886246992493e6 3.446271768048134e6 0.0
3.446271768048134e6 1.2914375086808808e7 0.0
0.0 0.0 0.0

-5.254706977648165e6 1.816937114956411e7 0.0
1.816937114956411e7 6.600061745853867e6 0.0
0.0 0.0 0.0

-1.5326393853558088e6 1.35634623321494e7 0.0
1.35634623321494e7 7.004148168020782e6 0.0
0.0 0.0 0.0

400825.4116777843 6.810562419832784e6 0.0
6.810562419832784e6 -3.1420409006991675e6 0.0
0.0 0.0 0.0

-488410.6000452789 1.4920947949948102e7 0.0
1.4920947949948102e7 -7.80397212362458e6 0.0
0.0 0.0 0.0

3.495120094765461e6 7.105309049614831e6 0.0
7.105309049614831e6 -1.4686471923284398e7 0.0
0.0 0.0 0.0

-2.700051327107933e6 1.9672090882761545e7 0.0
1.9672090882761545e7 -1.9300669026039063e6 0.0
0.0 0.0 0.0

-816279.6531758178 1.2890187409360668e7 0.0
1.2890187409360668e7 -3.563040576203124e7 0.0
0.0 0.0 0.0

3.3185531974475943e6 5.683846900212536e6 0.0
5.683846900212536e6 -1.1799898688462771e7 0.0
0.0 0.0 0.0

4.142004853978254e6 5.8231810496289e6 0.0
5.8231810496289e6 -1.5701710110915951e7 0.0
0.0 0.0 0.0

-1.1345583051638682e6 1.3304601013882674e7 0.0
1.3304601013882674e7 -1.305998701617113e7 0.0
0.0 0.0 0.0

-145504.15845108498 7.1688546036586445e6 0.0
7.1688546036586445e6 -2.3215717210785537e6 0.0
0.0 0.0 0.0

-6.904812110840324e6 1.518682978389279e7 0.0
1.518682978389279e7 -3.027325849544131e7 0.0
0.0 0.0 0.0

2.061709231046205e6 7.181437148758232e6 0.0
7.181437148758232e6 -7.622855888063312e6 0.0
0.0 0.0 0.0

3.3312899500410063e6 7.449525696811019e6 0.0
7.449525696811019e6 -1.1271572178040836e7 0.0
0.0 0.0 0.0

-394810.31520152197 1.4733249379118664e7 0.0
1.4733249379118664e7 -2.0948414420486218e6 0.0
0.0 0.0 0.0

-1.2125282496002022e7 9.178652388028925e6 0.0
9.178652388028925e6 2.276826415050797e7 0.0
0.0 0.0 0.0

-4.238308777337248e6 2.0913817580887545e7 0.0
2.0913817580887545e7 2.9964267095020786e6 0.0
0.0 0.0 0.0

-1.0994269329798494e7 3.566609034888813e6 0.0
3.566609034888813e6 8.111572880816479e6 0.0
0.0 0.0 0.0

2.1072348155124495e6 1.045205785115249e7 0.0
1.045205785115249e7 -1.4884606025238566e7 0.0
0.0 0.0 0.0

-1.192894998540353e6 1.5565303184655236e7 0.0
1.5565303184655236e7 9.331021067012798e6 0.0
0.0 0.0 0.0

-2.5786305929346015e6 1.9212461699127268e7 0.0
1.9212461699127268e7 -2.7101555191266276e6 0.0
0.0 0.0 0.0

-240253.34996621055 1.1129152953127407e7 0.0
1.1129152953127407e7 -7.161848279280702e6 0.0
0.0 0.0 0.0

-1.9474203625132698e6 1.886274639521463e7 0.0
1.886274639521463e7 -3.956261553716777e6 0.0
0.0 0.0 0.0

726034.9387372909 1.1484571810368726e7 0.0
1.1484571810368726e7 -7.782536697387683e6 0.0
0.0 0.0 0.0

-6.758371822404582e6 -717706.4757981733 0.0
-717706.4757981733 8.574053450084228e6 0.0
0.0 0.0 0.0

-800326.2772030197 1.4671449670204038e7 0.0
1.4671449670204038e7 -8.783393425502596e6 0.0
0.0 0.0 0.0

1.6723529763621478e6 2.8150620968726713e7 0.0
2.8150620968726713e7 -7.238261301772771e6 0.0
0.0 0.0 0.0

1.433203911033068e6 1.6682122495951584e7 0.0
1.6682122495951584e7 -5.012433397193662e6 0.0
0.0 0.0 0.0

342897.1514815199 1.4288079909470387e7 0.0
1.4288079909470387e7 -1.0848735138241846e7 0.0
0.0 0.0 0.0

-3.998367439201234e6 1.115372047645146e7 0.0
1.115372047645146e7 3.16040469939378e6 0.0
0.0 0.0 0.0

-3.635671965471029e6 1.371381055778205e7 0.0
1.371381055778205e7 -952517.0635889234 0.0
0.0 0.0 0.0

5.228519348754567e6 4.438342256290854e6 0.0
4.438342256290854e6 -1.831346527645948e7 0.0
0.0 0.0 0.0

3.186045868223895e6 4.747582215059341e6 0.0
4.747582215059341e6 -9.341123804893166e6 0.0
0.0 0.0 0.0

-1.8273374890555076e6 7.797531493497476e6 0.0
7.797531493497476e6 -1.9553456181083745e6 0.0
0.0 0.0 0.0

-4.596663387910125e6 1.662852823124884e7 0.0
1.662852823124884e7 -1.0073408100815995e6 0.0
0.0 0.0 0.0

3.6324339044929966e6 6.092291402834164e6 0.0
6.092291402834164e6 -1.350641800326796e7 0.0
0.0 0.0 0.0

139969.63507436542 1.2720443390629485e7 0.0
1.2720443390629485e7 -9.804914185336033e6 0.0
0.0 0.0 0.0

-1.4814943201755541e6 1.5284104539669013e7 0.0
1.5284104539669013e7 5.893679692002501e6 0.0
0.0 0.0 0.0

2.9677522146403464e6 9.80228449857927e6 0.0
9.80228449857927e6 -1.5252284712489292e7 0.0
0.0 0.0 0.0

-8.37165169628679e6 2.922788277315505e6 0.0
2.922788277315505e6 1.1826904817866465e7 0.0
0.0 0.0 0.0

-1.951637960082432e7 2.0529499946846172e7 0.0
2.0529499946846172e7 7.550643369605106e6 0.0
0.0 0.0 0.0

3.35495052369057e6 9.343411075522779e6 0.0
9.343411075522779e6 -1.7091774736642566e7 0.0
0.0 0.0 0.0

-3.8785282476194344e7 1.2245051770063867e6 0.0
1.2245051770063867e6 8.793910082366388e6 0.0
0.0 0.0 0.0

3.2663165742006768e6 6.91560113308158e6 0.0
6.91560113308158e6 -1.315268764545649e7 0.0
0.0 0.0 0.0

-6.455188135439694e6 1.5267705400615621e7 0.0
1.5267705400615621e7 1.3393130395085791e7 0.0
0.0 0.0 0.0

1.6509493696093773e6 1.1332640296900118e7 0.0
1.1332640296900118e7 -2.055352787528666e7 0.0
0.0 0.0 0.0

1.785371814369156e6 1.2037281815376522e7 0.0
1.2037281815376522e7 -1.6485537563389622e7 0.0
0.0 0.0 0.0

-2.711955905809667e6 3.5792922335480726e6 0.0
3.5792922335480726e6 3.216475404509187e6 0.0
0.0 0.0 0.0

-1.2635876135859733e7 4.466008708787142e6 0.0
4.466008708787142e6 1.6708094935830861e7 0.0
0.0 0.0 0.0

-2.571169246277392e6 1.18540202554026e7 0.0
1.18540202554026e7 -2.6130095677183657e6 0.0
0.0 0.0 0.0

-4.312175794048227e6 1.0527666930589706e7 0.0
1.0527666930589706e7 3.9302586978594884e6 0.0
0.0 0.0 0.0

-1.2779341118729774e7 3.903543231914926e6 0.0
3.903543231914926e6 1.915214623786448e7 0.0
0.0 0.0 0.0

-1.664677135171452e6 1.1598043873593677e7 0.0
1.1598043873593677e7 -2.237045233572729e6 0.0
0.0 0.0 0.0

-496201.5788272754 1.4116732598271124e7 0.0
1.4116732598271124e7 -9.271058868780835e6 0.0
0.0 0.0 0.0

-506031.15580961574 1.4772563876683429e7 0.0
1.4772563876683429e7 -7.441651156178492e6 0.0
0.0 0.0 0.0

-1.0127756848394964e6 1.515867715547368e7 0.0
1.515867715547368e7 -8.325304696138059e6 0.0
0.0 0.0 0.0

909206.522890877 1.2097169523378383e7 0.0
1.2097169523378383e7 -1.178621830914276e7 0.0
0.0 0.0 0.0

2.244834769473168e6 7.85503190078642e6 0.0
7.85503190078642e6 -1.0709629820688698e7 0.0
0.0 0.0 0.0

223969.41711538308 1.3347441639766715e7 0.0
1.3347441639766715e7 -5.366502586104339e6 0.0
0.0 0.0 0.0

-878621.7856810803 1.4357107405377358e7 0.0
1.4357107405377358e7 -8.116980482004716e6 0.0
0.0 0.0 0.0

228934.50810626382 1.1580616631489944e7 0.0
1.1580616631489944e7 -6.475107336560278e6 0.0
0.0 0.0 0.0

-7.167506055312442e6 2.866158133361113e6 0.0
2.866158133361113e6 1.043672140276443e7 0.0
0.0 0.0 0.0

1.2060839854342686e6 1.171984166628429e7 0.0
1.171984166628429e7 -1.2570660400943657e7 0.0
0.0 0.0 0.0

-8.60684281782167e6 1.5994900008853555e7 0.0
1.5994900008853555e7 -2.8689476255657926e7 0.0
0.0 0.0 0.0

-2.5115039579578005e6 4.576079956954511e6 0.0
4.576079956954511e6 2.614021035925757e6 0.0
0.0 0.0 0.0

2.922911773147436e6 7.710507931137703e6 0.0
7.710507931137703e6 -1.286874026782944e7 0.0
0.0 0.0 0.0

537774.1944800182 6.520078861998772e6 0.0
6.520078861998772e6 -5.253403041054907e6 0.0
0.0 0.0 0.0

-11399.172158166766 1.2187763141642835e7 0.0
1.2187763141642835e7 -3.2352232011346526e7 0.0
0.0 0.0 0.0

-5.616672274157105e6 1.1229403319152e7 0.0
1.1229403319152e7 6.7175790503342245e6 0.0
0.0 0.0 0.0

3.9331485804905994e6 6.605993980681756e6 0.0
6.605993980681756e6 -1.266301301107238e7 0.0
0.0 0.0 0.0

-1.2160945600878034e7 4.073873940514912e6 0.0
4.073873940514912e6 1.489153116526893e7 0.0
0.0 0.0 0.0

-1.06737428121157e7 -1.3728370130710513e6 0.0
-1.3728370130710513e6 2.921073096688634e7 0.0
0.0 0.0 0.0

281120.2195445524 1.4357045133814018e7 0.0
1.4357045133814018e7 -1.7040852482010545e6 0.0
0.0 0.0 0.0

320688.97274189745 1.3142240446830356e7 0.0
1.3142240446830356e7 1.587114060949611e6 0.0
0.0 0.0 0.0

-6.186337068781301e6 1.8315087378753252e7 0.0
1.8315087378753252e7 6.310542619596217e6 0.0
0.0 0.0 0.0

-5.188190352734001e6 1.5450378343110632e7 0.0
1.5450378343110632e7 2.8481014692055695e6 0.0
0.0 0.0 0.0

5.16830736492794e6 5.249276577152979e6 0.0
5.249276577152979e6 -2.0454346528837737e7 0.0
0.0 0.0 0.0

5.151566281996793e6 5.636049768727903e6 0.0
5.636049768727903e6 -2.0758169397585306e7 0.0
0.0 0.0 0.0

-1.224077279852273e7 9.232725540195407e6 0.0
9.232725540195407e6 1.8031464361979403e7 0.0
0.0 0.0 0.0

-146497.6356711085 1.3549799442553475e7 0.0
1.3549799442553475e7 -9.764987212963877e6 0.0
0.0 0.0 0.0

3.73152313831117e6 1.5241142325443236e7 0.0
1.5241142325443236e7 -1.9304169285315091e6 0.0
0.0 0.0 0.0

-1.1600495498274665e7 1.381713292158997e6 0.0
1.381713292158997e6 3.369409072616641e7 0.0
0.0 0.0 0.0

-5.329537225128744e6 1.3855026868716102e7 0.0
1.3855026868716102e7 5.969388496311761e6 0.0
0.0 0.0 0.0

-1.0598668799605458e6 1.33554416374692e7 0.0
1.33554416374692e7 -6.65751719604046e6 0.0
0.0 0.0 0.0

-7.549740933799004e6 1.2638864517387344e7 0.0
1.2638864517387344e7 3.22619149380793e7 0.0
0.0 0.0 0.0

826829.4612946138 5.17288217398217e6 0.0
5.17288217398217e6 -2.8897722239647238e6 0.0
0.0 0.0 0.0

-2.2589754495384963e6 1.687203408277744e7 0.0
1.687203408277744e7 -4.559119107176283e6 0.0
0.0 0.0 0.0

-699191.3089904152 1.6075056335425608e7 0.0
1.6075056335425608e7 1.061798524969953e7 0.0
0.0 0.0 0.0

3.558493172718183e6 7.396784259318736e6 0.0
7.396784259318736e6 -1.2370859930462925e7 0.0
0.0 0.0 0.0

-2.3631060200032853e6 1.061444165271507e7 0.0
1.061444165271507e7 -2.417702593765768e6 0.0
0.0 0.0 0.0

-1.0387443949128041e7 1.140233038655742e7 0.0
1.140233038655742e7 2.501203911143798e7 0.0
0.0 0.0 0.0

4.0826444837221447e6 7.944073323342636e6 0.0
7.944073323342636e6 -2.0926591061951846e7 0.0
0.0 0.0 0.0

609960.2903854391 1.3944335322014522e7 0.0
1.3944335322014522e7 -1.1651353751263823e7 0.0
0.0 0.0 0.0

-1.016541219910056e7 -3.332045567559195e6 0.0
-3.332045567559195e6 2.2689240991210673e7 0.0
0.0 0.0 0.0

3.6071495544923516e6 8.90888606520039e6 0.0
8.90888606520039e6 -2.0189193940705463e7 0.0
0.0 0.0 0.0

628769.093395768 8.467585101156877e6 0.0
8.467585101156877e6 -5.326031316238225e6 0.0
0.0 0.0 0.0

4.1934511855427725e6 7.594272012359409e6 0.0
7.594272012359409e6 -1.7951864039245784e7 0.0
0.0 0.0 0.0

433867.87810606696 1.1608752627208376e7 0.0
1.1608752627208376e7 -9.366443384397065e6 0.0
0.0 0.0 0.0

191282.11669409228 1.2945090828026107e7 0.0
1.2945090828026107e7 -1.0223632835166002e7 0.0
0.0 0.0 0.0

-1.2570042562479343e7 2.755304454908918e6 0.0
2.755304454908918e6 1.8741875527864136e7 0.0
0.0 0.0 0.0

1.345009895180686e6 1.4151798826586183e7 0.0
1.4151798826586183e7 1.9692236400230206e6 0.0
0.0 0.0 0.0

-6.672027494573445e6 2.3640020088542458e6 0.0
2.3640020088542458e6 9.27820852754082e6 0.0
0.0 0.0 0.0

1.6054742439048635e6 1.238881912152988e7 0.0
1.238881912152988e7 -1.3891820560722094e7 0.0
0.0 0.0 0.0

-974480.0036102312 5.387771542874054e6 0.0
5.387771542874054e6 -172943.98566359596 0.0
0.0 0.0 0.0

1.3652705621145177e6 5.424432294014487e6 0.0
5.424432294014487e6 -6.127338009975475e6 0.0
0.0 0.0 0.0

123955.34144532867 1.250753575677032e7 0.0
1.250753575677032e7 -9.435170437195944e6 0.0
0.0 0.0 0.0

4.2493652720695e6 5.709751056770971e6 0.0
5.709751056770971e6 -1.2926600315274108e7 0.0
0.0 0.0 0.0

-1.119981784997589e7 -735115.5385211634 0.0
-735115.5385211634 1.5529582273687623e7 0.0
0.0 0.0 0.0

5.204346244625859e6 4.217798528639348e6 0.0
4.217798528639348e6 -2.862835963440911e7 0.0
0.0 0.0 0.0

-985849.7445649994 1.3299830603794547e7 0.0
1.3299830603794547e7 -3.2861654581007073e6 0.0
0.0 0.0 0.0

-1.1335471634473512e7 6.1148997335698055e6 0.0
6.1148997335698055e6 1.3106595047075748e7 0.0
0.0 0.0 0.0

-6.415474540400441e6 1.741331432408056e7 0.0
1.741331432408056e7 4.426882996444665e6 0.0
0.0 0.0 0.0

7469.361624514684 1.4974224828306843e7 0.0
1.4974224828306843e7 5.604102135382783e6 0.0
0.0 0.0 0.0

-1.0688258767727004e7 1.3996742058798317e7 0.0
1.3996742058798317e7 1.6479914497037094e7 0.0
0.0 0.0 0.0

-7.8094725942268e6 1.4440323910824623e7 0.0
1.4440323910824623e7 1.3527640922750797e7 0.0
0.0 0.0 0.0

-9.646953491506327e6 -5.820891792088823e6 0.0
-5.820891792088823e6 2.1994832508819275e7 0.0
0.0 0.0 0.0

-2.7220649324080637e6 1.0443437023538556e7 0.0
1.0443437023538556e7 781950.1427734182 0.0
0.0 0.0 0.0

1.773766344247414e6 1.5833634686224628e7 0.0
1.5833634686224628e7 9.313991442486089e6 0.0
0.0 0.0 0.0

-4.317622617628335e6 1.6649916757820688e7 0.0
1.6649916757820688e7 7.698829622049689e6 0.0
0.0 0.0 0.0

-1.2385649927585158e7 3.6232977780173956e6 0.0
3.6232977780173956e6 1.6071687661441518e7 0.0
0.0 0.0 0.0

1.6502989376599295e6 1.1464524390618976e7 0.0
1.1464524390618976e7 -1.5524083330545083e7 0.0
0.0 0.0 0.0

3.045133040074767e6 6.598995037668934e6 0.0
6.598995037668934e6 -1.1598293554831818e7 0.0
0.0 0.0 0.0

515875.4861202426 1.33849663446122e7 0.0
1.33849663446122e7 -9.518087688364876e6 0.0
0.0 0.0 0.0

-2.3306689666389255e6 9.556338372654855e6 0.0
9.556338372654855e6 358819.0810558436 0.0
0.0 0.0 0.0

3.2257350949689373e6 5.448803794946645e6 0.0
5.448803794946645e6 -9.266753564573197e6 0.0
0.0 0.0 0.0

-2.4886387332195896e6 1.724476381817497e7 0.0
1.724476381817497e7 -3.685270664740439e6 0.0
0.0 0.0 0.0

-1.075907424098606e7 -257156.4379753225 0.0
-257156.4379753225 2.7766150688718073e7 0.0
0.0 0.0 0.0

-1.0557315925712055e7 -2.2180764305265825e6 0.0
-2.2180764305265825e6 2.374893998230152e7 0.0
0.0 0.0 0.0

-1.2617361907703381e7 7.362480791707535e6 0.0
7.362480791707535e6 2.309208589846212e7 0.0
0.0 0.0 0.0

-1.673915967619042e6 1.5977775646309718e7 0.0
1.5977775646309718e7 -6.640210520518069e6 0.0
0.0 0.0 0.0

-576121.2209131486 7.198208326856293e6 0.0
7.198208326856293e6 -3.7534033716852204e6 0.0
0.0 0.0 0.0

5.611864281811077e6 1.6268293464794736e7 0.0
1.6268293464794736e7 6.122303270942834e6 0.0
0.0 0.0 0.0

5.19469768489239e6 1.7008099545284923e7 0.0
1.7008099545284923e7 2.576031115779492e7 0.0
0.0 0.0 0.0

3.725167107597402e6 6.20619479514281e6 0.0
6.20619479514281e6 -1.0973940007352019e7 0.0
0.0 0.0 0.0

-9.492938725475363e6 2.2279397858333667e6 0.0
2.2279397858333667e6 1.3427613837771993e7 0.0
0.0 0.0 0.0

-3.075331808456322e6 1.1326716793394342e7 0.0
1.1326716793394342e7 1.174403182290535e6 0.0
0.0 0.0 0.0

-6.8357375787856225e6 1.5924544592346605e7 0.0
1.5924544592346605e7 1.0467439369711367e7 0.0
0.0 0.0 0.0

4.9885878683718415e6 5.884369376036705e6 0.0
5.884369376036705e6 -2.2068436956306368e7 0.0
0.0 0.0 0.0

4.641172148910461e6 6.584064546308585e6 0.0
6.584064546308585e6 -1.943720027435547e7 0.0
0.0 0.0 0.0

-2.0364321279709581e6 5.657755382705228e6 0.0
5.657755382705228e6 -552923.8425970584 0.0
0.0 0.0 0.0

-5.334916424732447e6 1.4702790976057472e7 0.0
1.4702790976057472e7 6.0193895463034995e6 0.0
0.0 0.0 0.0

-7.7270490041923355e6 1.2964392022532148e7 0.0
1.2964392022532148e7 2.9767040688003406e7 0.0
0.0 0.0 0.0

192865.84939985862 1.3981072580266632e7 0.0
1.3981072580266632e7 -9.074429818538627e6 0.0
0.0 0.0 0.0

-1.605458254100207e6 6.314041651151597e6 0.0
6.314041651151597e6 416917.4049863912 0.0
0.0 0.0 0.0

4.855943860564545e6 6.082467169201363e6 0.0
6.082467169201363e6 -2.0123949552554842e7 0.0
0.0 0.0 0.0

-6.066718626778472e6 1.644284048757356e7 0.0
1.644284048757356e7 6.966261880454525e6 0.0
0.0 0.0 0.0

3.1640288265817584e6 7.569336180966416e6 0.0
7.569336180966416e6 -1.407724916794018e7 0.0
0.0 0.0 0.0

-7.506815605416784e6 4.799544371629194e6 0.0
4.799544371629194e6 1.2980004742560992e6 0.0
0.0 0.0 0.0

490150.85942292213 1.2077007811423177e7 0.0
1.2077007811423177e7 -1.0222213921004258e7 0.0
0.0 0.0 0.0

-777397.394401866 4.442994425633319e6 0.0
4.442994425633319e6 -1.8972757847824101e6 0.0
0.0 0.0 0.0

-1.8947126385573351e6 8.66898251727534e6 0.0
8.66898251727534e6 -85393.33883967425 0.0
0.0 0.0 0.0

-1.4004645562473193e6 7.755608000932234e6 0.0
7.755608000932234e6 -527616.0197215679 0.0
0.0 0.0 0.0

100263.73246369231 1.223815470107155e7 0.0
1.223815470107155e7 -9.051909386906896e6 0.0
0.0 0.0 0.0

-2.751545583440727e6 1.1431952067424946e7 0.0
1.1431952067424946e7 -2.0426578573564896e6 0.0
0.0 0.0 0.0

-1.2791566194827013e7 4.034114901074681e6 0.0
4.034114901074681e6 1.792982948683198e7 0.0
0.0 0.0 0.0

-9.881483576889306e6 1.054344914032817e7 0.0
1.054344914032817e7 2.9191601897461828e7 0.0
0.0 0.0 0.0

-1.1949824447569057e7 7.715410224619516e6 0.0
7.715410224619516e6 2.6334853161552075e7 0.0
0.0 0.0 0.0

-1.0181095016743405e7 1.0956335994361874e7 0.0
1.0956335994361874e7 2.6966152821231507e7 0.0
0.0 0.0 0.0

-1.0171893583634032e7 4.9470685402441975e6 0.0
4.9470685402441975e6 4.261687470002972e7 0.0
0.0 0.0 0.0

-1.24192962934943e6 1.5271868030379472e7 0.0
1.5271868030379472e7 4.435906571230763e6 0.0
0.0 0.0 0.0

-1.18059143211466e7 2.2614702624360262e6 0.0
2.2614702624360262e6 3.1510446393335838e7 0.0
0.0 0.0 0.0

-2.874434655367444e6 1.6259864286193334e7 0.0
1.6259864286193334e7 -3.0486984321240447e6 0.0
0.0 0.0 0.0

-18020.280631852802 1.3633682048874885e7 0.0
1.3633682048874885e7 -8.8294186193999e6 0.0
0.0 0.0 0.0

-3.500462665573842e7 2.243181943802075e7 0.0
2.243181943802075e7 -2.5748250959217623e6 0.0
0.0 0.0 0.0

3.37174731179964e6 7.081492915411873e6 0.0
7.081492915411873e6 -1.0834704221827537e7 0.0
0.0 0.0 0.0

2.715637271342218e6 1.0262003066275463e7 0.0
1.0262003066275463e7 -1.4617860908726795e7 0.0
0.0 0.0 0.0

-2.304782468518617e6 1.7342488057646032e7 0.0
1.7342488057646032e7 -3.112537835768441e6 0.0
0.0 0.0 0.0

-4.263077615013433e6 1.6832899218762495e7 0.0
1.6832899218762495e7 2.954362470772024e6 0.0
0.0 0.0 0.0

4.336812131204766e6 7.166437615008623e6 0.0
7.166437615008623e6 -1.7642412274276663e7 0.0
0.0 0.0 0.0

6.933691851308511e6 1.7303862380642988e7 0.0
1.7303862380642988e7 -6.517510394887561e6 0.0
0.0 0.0 0.0

-2.972952030344192e6 8.968205682370665e6 0.0
8.968205682370665e6 -523132.30093291827 0.0
0.0 0.0 0.0

4.2518433256659135e6 6.133972429534145e6 0.0
6.133972429534145e6 -2.9855039866940644e7 0.0
0.0 0.0 0.0

-2.4712152110217926e6 8.0693243600273235e6 0.0
8.0693243600273235e6 -990534.6750054793 0.0
0.0 0.0 0.0

2.6605852146904627e6 7.414637665452217e6 0.0
7.414637665452217e6 -1.136626791342268e7 0.0
0.0 0.0 0.0

-1.0242320933902608e7 1.4154171819238586e7 0.0
1.4154171819238586e7 1.5974035717641426e7 0.0
0.0 0.0 0.0

-2.1435337324832913e7 1.9035985758311827e7 0.0
1.9035985758311827e7 5.687121314298289e6 0.0
0.0 0.0 0.0

-1.0231156574756928e7 -3.5596404375658943e6 0.0
-3.5596404375658943e6 1.726042177875127e7 0.0
0.0 0.0 0.0

-131983.92648461834 1.4539205644635446e7 0.0
1.4539205644635446e7 -8.59938813571189e6 0.0
0.0 0.0 0.0

-1.0694372789890116e7 1.9895307787080362e7 0.0
1.9895307787080362e7 2.836665778408846e6 0.0
0.0 0.0 0.0

3.653267754583692e6 5.776920010813063e6 0.0
5.776920010813063e6 -1.0729346066718206e7 0.0
0.0 0.0 0.0

-1.1195124968669977e7 4.638900574301081e6 0.0
4.638900574301081e6 1.5876199400878446e7 0.0
0.0 0.0 0.0

477963.58424491994 1.2951465745044388e7 0.0
1.2951465745044388e7 -8.740272031500518e6 0.0
0.0 0.0 0.0

-687616.0096120142 1.2319134554145288e7 0.0
1.2319134554145288e7 -4.780209036636493e6 0.0
0.0 0.0 0.0

-3.4356925447761314e6 9.863468014443185e6 0.0
9.863468014443185e6 -90746.9876194431 0.0
0.0 0.0 0.0

-1.2603800136460308e7 5.797159800107402e6 0.0
5.797159800107402e6 2.3206064301292565e7 0.0
0.0 0.0 0.0

5.243873660181292e6 4.923998080448777e6 0.0
4.923998080448777e6 -1.8954371009598386e7 0.0
0.0 0.0 0.0

3.7118689062332436e6 5.760369842636838e6 0.0
5.760369842636838e6 -1.2878342050157022e7 0.0
0.0 0.0 0.0

-6.077497899507303e6 1.6160111539252365e7 0.0
1.6160111539252365e7 6.297819763748473e6 0.0
0.0 0.0 0.0

-4.545788795007621e6 3.0465679814415313e6 0.0
3.0465679814415313e6 3.438046361701996e6 0.0
0.0 0.0 0.0

370858.93655539025 1.1324529895828094e7 0.0
1.1324529895828094e7 -8.952049225680005e6 0.0
0.0 0.0 0.0

4.250592799896862e6 6.6772202603370175e6 0.0
6.6772202603370175e6 -1.5240454613714654e7 0.0
0.0 0.0 0.0

-1.143440513095827e7 919367.2264707865 0.0
919367.2264707865 2.5915490656435937e7 0.0
0.0 0.0 0.0

-1.0425400388552074e6 1.5382745944960263e7 0.0
1.5382745944960263e7 2.9263624679650282e6 0.0
0.0 0.0 0.0

-1.0563502732886598e7 -1.5655471504046912e6 0.0
-1.5655471504046912e6 1.4717251384839322e7 0.0
0.0 0.0 0.0

3.0339401205382794e6 9.859266270160917e6 0.0
9.859266270160917e6 -1.953734074137562e7 0.0
0.0 0.0 0.0

222679.9875109149 1.3588011075865543e7 0.0
1.3588011075865543e7 -1.3218763153557684e7 0.0
0.0 0.0 0.0

-1.0541974265957288e7 7.347167476662375e6 0.0
7.347167476662375e6 1.216928176036286e7 0.0
0.0 0.0 0.0

1.8193610556686623e6 1.2001853391986215e7 0.0
1.2001853391986215e7 -1.5581780518375048e7 0.0
0.0 0.0 0.0

1.1918920730589693e6 1.2307142739916237e7 0.0
1.2307142739916237e7 -1.073429560778076e7 0.0
0.0 0.0 0.0

759952.7990480092 3.9495098848198825e6 0.0
3.9495098848198825e6 -2.280053227610691e6 0.0
0.0 0.0 0.0

-9.478864081910532e6 -1.4410244969896355e6 0.0
-1.4410244969896355e6 1.2060012183291528e7 0.0
0.0 0.0 0.0

542414.6023994032 1.0001217622677924e7 0.0
1.0001217622677924e7 -8.289777176091738e6 0.0
0.0 0.0 0.0

915168.6670718854 9.211918546161463e6 0.0
9.211918546161463e6 -8.597228716482446e6 0.0
0.0 0.0 0.0

538567.9757692097 1.315372379546399e7 0.0
1.315372379546399e7 -9.124641948139142e6 0.0
0.0 0.0 0.0

-1.0314967398853841e6 1.5487067100101909e7 0.0
1.5487067100101909e7 1.443844560410558e6 0.0
0.0 0.0 0.0

1.8470970619991207e6 8.31355576670934e6 0.0
8.31355576670934e6 -1.0030537241217617e7 0.0
0.0 0.0 0.0

1.0430440321746096e6 1.117426075168533e7 0.0
1.117426075168533e7 -2.6936336804198995e7 0.0
0.0 0.0 0.0

-3.9269441634633597e6 3.856470028491287e6 0.0
3.856470028491287e6 2.844991774421227e6 0.0
0.0 0.0 0.0

-5.334449061310607e6 1.4348351082043042e7 0.0
1.4348351082043042e7 -2.240523407279691e7 0.0
0.0 0.0 0.0

-7.913575474006285e7 8.58746299743947e6 0.0
8.58746299743947e6 5.093112719003189e6 0.0
0.0 0.0 0.0

5.892120636265925e7 9.957737755372092e6 0.0
9.957737755372092e6 839645.3860685416 0.0
0.0 0.0 0.0

360246.9804332685 1.1648079639842333e7 0.0
1.1648079639842333e7 -3.0340696844786413e7 0.0
0.0 0.0 0.0

-8.767418006243482e6 1.1350548381373012e7 0.0
1.1350548381373012e7 1.3549799877693605e7 0.0
0.0 0.0 0.0

-4.245867810287763e6 1.4833411767129494e7 0.0
1.4833411767129494e7 297910.18812967674 0.0
0.0 0.0 0.0

182149.12689408753 1.0730860603983536e7 0.0
1.0730860603983536e7 -7.989778691931581e6 0.0
0.0 0.0 0.0

468559.8707338285 5.93681119866839e6 0.0
5.93681119866839e6 -4.702447087184249e6 0.0
0.0 0.0 0.0

936626.3540740446 6.483318216732314e6 0.0
6.483318216732314e6 -3.9179516721306304e6 0.0
0.0 0.0 0.0

-3.841364259548804e6 1.0764813220702263e7 0.0
1.0764813220702263e7 308602.3269416648 0.0
0.0 0.0 0.0

728648.1576343607 1.1380204837518895e7 0.0
1.1380204837518895e7 -2.854680217710142e7 0.0
0.0 0.0 0.0

1.3750327390852165e6 9.701331577906204e6 0.0
9.701331577906204e6 -7.821710976824731e6 0.0
0.0 0.0 0.0

-1.1637617883577676e7 -835891.1918615383 0.0
-835891.1918615383 1.9839511492098406e7 0.0
0.0 0.0 0.0

4.531641768302036e7 1.163124318160412e7 0.0
1.163124318160412e7 -1.3111134738760442e6 0.0
0.0 0.0 0.0

991663.6379426089 1.0457810370679388e7 0.0
1.0457810370679388e7 -7.567434589077989e6 0.0
0.0 0.0 0.0

4.59784661835449e6 6.375971793255212e6 0.0
6.375971793255212e6 -1.6994307503295753e7 0.0
0.0 0.0 0.0

4.47443302738964e6 6.76567266159008e6 0.0
6.76567266159008e6 -1.7302738231198434e7 0.0
0.0 0.0 0.0

-9.840927181475528e6 1.4368341404059783e7 0.0
1.4368341404059783e7 1.5413233625843259e7 0.0
0.0 0.0 0.0

1.8604826788239395e6 1.1472002586143056e7 0.0
1.1472002586143056e7 -1.2183189115086943e7 0.0
0.0 0.0 0.0

-1.643735351681369e6 1.6097973342577383e7 0.0
1.6097973342577383e7 -6.359878301712803e6 0.0
0.0 0.0 0.0

2.394130681448579e6 1.6239079716569139e7 0.0
1.6239079716569139e7 -4.558218006016846e6 0.0
0.0 0.0 0.0

-1.3732143441342432e6 1.0317770772319438e7 0.0
1.0317770772319438e7 -1.9797428430147364e6 0.0
0.0 0.0 0.0

1.8128566392105438e6 5.794822663145076e6 0.0
5.794822663145076e6 -5.4742280411898205e6 0.0
0.0 0.0 0.0

-1.1870896026976118e6 7.511835547341027e6 0.0
7.511835547341027e6 -2.851732583312989e6 0.0
0.0 0.0 0.0

-2.3819569553855257e6 5.618225704601346e6 0.0
5.618225704601346e6 2.0335263607514545e6 0.0
0.0 0.0 0.0

-2.2630918595517613e6 1.2801581623887395e7 0.0
1.2801581623887395e7 -1.7333939095043715e7 0.0
0.0 0.0 0.0

3.159653464075326e6 9.748621116986364e6 0.0
9.748621116986364e6 -1.7381214337907538e7 0.0
0.0 0.0 0.0

2.9228869499743674e6 6.112323125350619e6 0.0
6.112323125350619e6 -1.1258624469392488e7 0.0
0.0 0.0 0.0

2.6273996441101776e6 7.968884918881918e6 0.0
7.968884918881918e6 -9.473099385483643e6 0.0
0.0 0.0 0.0

-2.1590699869254087e6 1.1948159870300764e7 0.0
1.1948159870300764e7 -1.2597267621779884e6 0.0
0.0 0.0 0.0

2.6400117497758176e6 7.776419386219999e6 0.0
7.776419386219999e6 -1.1788696215975065e7 0.0
0.0 0.0 0.0

-8783.973110228078 6.855848460282189e6 0.0
6.855848460282189e6 -4.505713977452729e6 0.0
0.0 0.0 0.0

4.54371910976959e6 5.296379703152587e6 0.0
5.296379703152587e6 -1.3536773178824428e7 0.0
0.0 0.0 0.0

796818.716596392 1.202102121540965e7 0.0
1.202102121540965e7 -8.719400907430118e6 0.0
0.0 0.0 0.0

-3.9520738876822162e6 4.900882239668797e6 0.0
4.900882239668797e6 2.1864086221627817e6 0.0
0.0 0.0 0.0

-2.2317604355405564e6 1.6855721838975925e7 0.0
1.6855721838975925e7 -5.055994844077971e6 0.0
0.0 0.0 0.0

4.527212531076364e6 5.797827766131241e6 0.0
5.797827766131241e6 -2.626684640323153e7 0.0
0.0 0.0 0.0

455599.756467585 1.2685308589158092e7 0.0
1.2685308589158092e7 -8.370612167927423e6 0.0
0.0 0.0 0.0

3.7481353352293437e6 7.621651253848181e6 0.0
7.621651253848181e6 -1.385790006396599e7 0.0
0.0 0.0 0.0

-328041.2922722555 5.112921643463829e6 0.0
5.112921643463829e6 -873779.3553313415 0.0
0.0 0.0 0.0

4.0208584083229527e6 7.1687357460173005e6 0.0
7.1687357460173005e6 -1.4581557982470062e7 0.0
0.0 0.0 0.0

-4.755052241743763e6 1.5520956868507942e7 0.0
1.5520956868507942e7 4.281410280832593e6 0.0
0.0 0.0 0.0

-1.9513059909269079e6 1.7990033492257155e7 0.0
1.7990033492257155e7 -4.904784142176572e6 0.0
0.0 0.0 0.0

157960.01041248627 1.3836366169370625e7 0.0
1.3836366169370625e7 -1.3009986480642201e7 0.0
0.0 0.0 0.0

956043.8004314667 6.114039915916698e6 0.0
6.114039915916698e6 -5.9700529462111965e6 0.0
0.0 0.0 0.0

-1.8959742928391628e6 1.8568888922734756e7 0.0
1.8568888922734756e7 -3.320729290526148e6 0.0
0.0 0.0 0.0

-1.0193484715500233e6 1.5858040724795135e7 0.0
1.5858040724795135e7 -6.514528569200684e6 0.0
0.0 0.0 0.0

-1.0611958064695634e7 4.035064476450877e6 0.0
4.035064476450877e6 1.1978992132126532e7 0.0
0.0 0.0 0.0

-4.487606390759211e6 1.644781474473805e7 0.0
1.644781474473805e7 8.982101976500098e6 0.0
0.0 0.0 0.0

-1.2582430818912054e6 4.787885360809192e6 0.0
4.787885360809192e6 -1.0346201883304394e6 0.0
0.0 0.0 0.0

-1.2747286618734065e6 8.378326446159358e6 0.0
8.378326446159358e6 -1.0755519824992116e6 0.0
0.0 0.0 0.0

-1.1496478020639947e7 4.164370023629002e6 0.0
4.164370023629002e6 2.947844759501677e7 0.0
0.0 0.0 0.0

-5.161370431158973e6 9.83454422750891e6 0.0
9.83454422750891e6 2.959995994383636e6 0.0
0.0 0.0 0.0

1.4892906721099438e6 1.364690411294915e7 0.0
1.364690411294915e7 -112325.28216483624 0.0
0.0 0.0 0.0

652223.5746775451 1.1192149006263403e7 0.0
1.1192149006263403e7 -7.26730987695431e6 0.0
0.0 0.0 0.0

34483.973555575125 1.1993650296408642e7 0.0
1.1993650296408642e7 -8.598003106687889e6 0.0
0.0 0.0 0.0

1.0654238830007631e6 1.1069831548017412e7 0.0
1.1069831548017412e7 -2.5464938850498956e7 0.0
0.0 0.0 0.0

4.291116134304324e6 6.080768113607261e6 0.0
6.080768113607261e6 -2.7766272301388234e7 0.0
0.0 0.0 0.0

-1.2752221358552529e7 5.638888438227751e6 0.0
5.638888438227751e6 1.6154458511472851e7 0.0
0.0 0.0 0.0

-4.827029725112179e6 1.8104367480045013e7 0.0
1.8104367480045013e7 5.429806963677941e6 0.0
0.0 0.0 0.0

-1.1968155504595695e7 -328568.9807097967 0.0
-328568.9807097967 2.2482903320061035e7 0.0
0.0 0.0 0.0

-504489.0037361877 1.5052527246959807e7 0.0
1.5052527246959807e7 -8.165316734479104e6 0.0
0.0 0.0 0.0

-523145.0738009913 1.4738852909669591e7 0.0
1.4738852909669591e7 -9.99221718112816e6 0.0
0.0 0.0 0.0

8.240970859741595e6 5.296838897555041e6 0.0
5.296838897555041e6 -1.753737758176932e6 0.0
0.0 0.0 0.0

1.6268776572242193e6 8.044985980619185e6 0.0
8.044985980619185e6 -7.327802328580543e6 0.0
0.0 0.0 0.0

-8.073664941822112e6 9.410528136070026e6 0.0
9.410528136070026e6 8.869867279813543e6 0.0
0.0 0.0 0.0

-667559.2057544063 1.348328544303691e7 0.0
1.348328544303691e7 -1.2444494286671534e7 0.0
0.0 0.0 0.0

764575.1158525068 1.1776870454602428e7 0.0
1.1776870454602428e7 -8.269134189060815e6 0.0
0.0 0.0 0.0

841397.9292255654 1.2537460581352802e7 0.0
1.2537460581352802e7 -9.531459554449525e6 0.0
0.0 0.0 0.0

-1.2008353667992432e7 8.93128276177388e6 0.0
8.93128276177388e6 2.2898882151125126e7 0.0
0.0 0.0 0.0

-1.2072456476338543e7 5.376420294662032e6 0.0
5.376420294662032e6 1.4511833119114513e7 0.0
0.0 0.0 0.0

-44582.43722820375 1.1724492755810129e7 0.0
1.1724492755810129e7 -8.15028000710327e6 0.0
0.0 0.0 0.0

-1.3238126096803653e6 1.3940094932840714e7 0.0
1.3940094932840714e7 -6.349384974383222e6 0.0
0.0 0.0 0.0

-4.581044474771986e6 1.5234204039924633e7 0.0
1.5234204039924633e7 -1.4432386856638154e6 0.0
0.0 0.0 0.0

-3.631182537207986e6 1.8072493477886543e7 0.0
1.8072493477886543e7 -710824.3848193244 0.0
0.0 0.0 0.0

3.1563534629247645e6 9.797571917251762e6 0.0
9.797571917251762e6 -1.8446364369226288e7 0.0
0.0 0.0 0.0

-3.8248777001935043e6 2.119238767062724e7 0.0
2.119238767062724e7 3.405927254392002e6 0.0
0.0 0.0 0.0

-7.647719415057279e6 1.0277754570728125e7 0.0
1.0277754570728125e7 7.9936817806944195e6 0.0
0.0 0.0 0.0

-3.235765656477822e6 1.813998851024256e7 0.0
1.813998851024256e7 -4.7620250210582325e6 0.0
0.0 0.0 0.0

-204831.58728882333 1.3425924833379686e7 0.0
1.3425924833379686e7 -1.7865260273712282e6 0.0
0.0 0.0 0.0

223782.67419691617 1.4054712397944978e7 0.0
1.4054712397944978e7 -1.2270598456207028e7 0.0
0.0 0.0 0.0

-1.0701311941082822e6 1.4372815221406048e7 0.0
1.4372815221406048e7 -6.43288524548476e6 0.0
0.0 0.0 0.0

-5.562165845725294e6 1.76792642456378e7 0.0
1.76792642456378e7 6.933664753258801e6 0.0
0.0 0.0 0.0

-187280.3072282574 1.4180202898208639e7 0.0
1.4180202898208639e7 -7.895382727480259e6 0.0
0.0 0.0 0.0

-137228.18692207662 1.1449615959514512e7 0.0
1.1449615959514512e7 -7.664637678106522e6 0.0
0.0 0.0 0.0

682132.6769990893 1.3395105838589242e7 0.0
1.3395105838589242e7 -1.4233603155415814e7 0.0
0.0 0.0 0.0

-670864.1333714725 9.641707354125997e6 0.0
9.641707354125997e6 -5.284319581340074e6 0.0
0.0 0.0 0.0

-4.601815145514056e6 1.6762061249103839e7 0.0
1.6762061249103839e7 1.829837593133206e6 0.0
0.0 0.0 0.0

-3.370926356220071e6 1.7716301416939504e7 0.0
1.7716301416939504e7 -1.5803265850740173e6 0.0
0.0 0.0 0.0

272180.7647444268 4.794075251978532e6 0.0
4.794075251978532e6 -1.6539749504631793e6 0.0
0.0 0.0 0.0

855174.7187834857 8.781592927668609e6 0.0
8.781592927668609e6 -8.141646283339068e6 0.0
0.0 0.0 0.0

-3.316024777976782e6 1.8786113502883177e7 0.0
1.8786113502883177e7 616403.6857725347 0.0
0.0 0.0 0.0

-5.473821298130394e6 1.5099257642914603e7 0.0
1.5099257642914603e7 3.6095137109816875e6 0.0
0.0 0.0 0.0

-6.032698957566579e7 4.484709923472017e6 0.0
4.484709923472017e6 6.729016207196981e6 0.0
0.0 0.0 0.0

1.5827760110278372e6 1.2319229897298198e7 0.0
1.2319229897298198e7 -1.567128084625942e7 0.0
0.0 0.0 0.0

-6.139272084189358e6 1.4247157550659169e7 0.0
1.4247157550659169e7 5.326282284470894e6 0.0
0.0 0.0 0.0

-2.5177792847630074e6 1.6469881481010638e7 0.0
1.6469881481010638e7 -1.9292321309050946e6 0.0
0.0 0.0 0.0

-6.032763873111552e6 1.5075822691839276e7 0.0
1.5075822691839276e7 5.401811442070082e6 0.0
0.0 0.0 0.0

-929704.9108193647 1.5698815836807653e7 0.0
1.5698815836807653e7 23834.425312342762 0.0
0.0 0.0 0.0

-845969.188039257 1.514045861762734e7 0.0
1.514045861762734e7 -6.774652640698337e6 0.0
0.0 0.0 0.0

-7.06703607829807e6 1.1081547399211654e7 0.0
1.1081547399211654e7 6.913617794315647e6 0.0
0.0 0.0 0.0

-1.1393010994203549e7 2.7724143428136427e6 0.0
2.7724143428136427e6 1.764268751377131e7 0.0
0.0 0.0 0.0

-311228.39888563333 1.0094923554507064e7 0.0
1.0094923554507064e7 -4.405407684009399e6 0.0
0.0 0.0 0.0

2.848938588427624e6 5.821259158119515e6 0.0
5.821259158119515e6 -8.597430154883929e6 0.0
0.0 0.0 0.0

-1.5361392126835661e6 1.2562687870973771e7 0.0
1.2562687870973771e7 -5.148472174160592e6 0.0
0.0 0.0 0.0

-1.342581908206458e6 1.5579990594959732e7 0.0
1.5579990594959732e7 -7.4821626587412e6 0.0
0.0 0.0 0.0

-5.497587624080312e6 1.42999535947409e7 0.0
1.42999535947409e7 3.429437416941232e6 0.0
0.0 0.0 0.0

-2.0656352676462308e6 1.149541073832058e7 0.0
1.149541073832058e7 -3.5458310729681915e6 0.0
0.0 0.0 0.0

-2.73375369352978e6 2.530855896868523e6 0.0
2.530855896868523e6 4.1203950040880553e6 0.0
0.0 0.0 0.0

2.5239887675694544e6 5.710627508215045e6 0.0
5.710627508215045e6 -9.675698465252275e6 0.0
0.0 0.0 0.0

-1.1771646704406573e7 2.6779307259701933e6 0.0
2.6779307259701933e6 2.3056485589501195e7 0.0
0.0 0.0 0.0

-9.599959294429358e6 942387.2610619302 0.0
942387.2610619302 1.1665014109535187e7 0.0
0.0 0.0 0.0

-5.539649494217396e6 1.5609059430127515e7 0.0
1.5609059430127515e7 1.3409229964731164e7 0.0
0.0 0.0 0.0

-1.578114328678278e6 1.4510142081964547e7 0.0
1.4510142081964547e7 -5.98420902297015e6 0.0
0.0 0.0 0.0

741312.1657245383 8.32285557164776e6 0.0
8.32285557164776e6 -7.733408215285884e6 0.0
0.0 0.0 0.0

-1.1620192207004845e7 2.5582093981601303e6 0.0
2.5582093981601303e6 2.4720365378326386e7 0.0
0.0 0.0 0.0

-2.3321640229970245e6 1.664634151239352e7 0.0
1.664634151239352e7 -2.4458538578416063e6 0.0
0.0 0.0 0.0

-3.1856278105268944e6 1.044027641657851e7 0.0
1.044027641657851e7 -771045.423221734 0.0
0.0 0.0 0.0

-658691.3576138263 8.070634755150396e6 0.0
8.070634755150396e6 -1.9982267414205328e6 0.0
0.0 0.0 0.0

-1.1462145121140713e6 1.037269704960865e7 0.0
1.037269704960865e7 -4.827362466634206e6 0.0
0.0 0.0 0.0

-347535.0856801411 1.3012494942238623e7 0.0
1.3012494942238623e7 -1.7384922570807695e7 0.0
0.0 0.0 0.0

-5.016228096503621e6 1.5137630664499525e7 0.0
1.5137630664499525e7 5.128965291930687e6 0.0
0.0 0.0 0.0

100709.01615338493 1.4670917300853312e7 0.0
1.4670917300853312e7 -1.0001572647833785e7 0.0
0.0 0.0 0.0

-6.055626977011271e6 1.3580550654463882e7 0.0
1.3580550654463882e7 3.624390201207432e7 0.0
0.0 0.0 0.0

-409908.68290172284 1.6248340366294216e7 0.0
1.6248340366294216e7 8.055793935295514e6 0.0
0.0 0.0 0.0

-9.49176333974677e6 8.519699559523258e6 0.0
8.519699559523258e6 1.0996235269335197e7 0.0
0.0 0.0 0.0

2.842194735649257e6 1.0191760061793357e7 0.0
1.0191760061793357e7 -1.5521223006597962e7 0.0
0.0 0.0 0.0

-1.498351890139393e6 1.1978670955998255e7 0.0
1.1978670955998255e7 -2.801194533644079e6 0.0
0.0 0.0 0.0

-1.0515944084627365e6 1.6369121039215093e7 0.0
1.6369121039215093e7 -7.5932803639012035e6 0.0
0.0 0.0 0.0

-4.468653755791736e6 1.8678969155184593e7 0.0
1.8678969155184593e7 4.210565274743412e6 0.0
0.0 0.0 0.0

-3.1407962499795277e6 1.7327731322628062e7 0.0
1.7327731322628062e7 -2.2935273352532694e6 0.0
0.0 0.0 0.0

221370.5421681325 1.4336969276870597e7 0.0
1.4336969276870597e7 -1.1507200561948376e7 0.0
0.0 0.0 0.0

-1.1462607526033116e6 1.1236770351879846e7 0.0
1.1236770351879846e7 -3.1638699580088425e6 0.0
0.0 0.0 0.0

-5.703747571500052e6 1.5482740659508906e7 0.0
1.5482740659508906e7 4.563488953986164e6 0.0
0.0 0.0 0.0

-9.853198781211944e6 3.6962858257475663e6 0.0
3.6962858257475663e6 1.0532739738635384e7 0.0
0.0 0.0 0.0

2.9033336543477923e6 5.665212316372733e6 0.0
5.665212316372733e6 -1.0781031662355963e7 0.0
0.0 0.0 0.0

-1.1632241759635168e6 1.2691987464313747e7 0.0
1.2691987464313747e7 -3.9165809828116107e6 0.0
0.0 0.0 0.0

3.2284935077831065e6 8.1767639081809325e6 0.0
8.1767639081809325e6 -1.2116195114872456e7 0.0
0.0 0.0 0.0

-3.8067171917031994e6 1.4964924014903376e7 0.0
1.4964924014903376e7 1.7457917773008775e6 0.0
0.0 0.0 0.0

-37733.21351966821 7.766228396374859e6 0.0
7.766228396374859e6 -2.9030292120894725e6 0.0
0.0 0.0 0.0

-3.157232098324408e6 1.9783258114307817e7 0.0
1.9783258114307817e7 -861071.2965124156 0.0
0.0 0.0 0.0

-4.1449509723710865e7 1.3661133301524613e6 0.0
1.3661133301524613e6 9.403102842663454e6 0.0
0.0 0.0 0.0

448449.04077864345 7.398053938949133e6 0.0
7.398053938949133e6 -3.6866818306895294e6 0.0
0.0 0.0 0.0

-354046.81858501583 1.2633636255265605e7 0.0
1.2633636255265605e7 -2.0310569491339028e7 0.0
0.0 0.0 0.0

40665.98307026783 1.5493745529594142e7 0.0
1.5493745529594142e7 -7.811545141173771e6 0.0
0.0 0.0 0.0

1.0436798855716186e6 1.0769498461374955e7 0.0
1.0769498461374955e7 -8.055575819681354e6 0.0
0.0 0.0 0.0

826126.2960894909 1.3595074304095788e7 0.0
1.3595074304095788e7 -1.2440788835576018e7 0.0
0.0 0.0 0.0

921096.1419979662 7.0632188998876605e6 0.0
7.0632188998876605e6 -4.420365732625504e6 0.0
0.0 0.0 0.0

3.8499005229482297e6 7.218204934949427e6 0.0
7.218204934949427e6 -1.3515270426876912e7 0.0
0.0 0.0 0.0

-3.835037228865137e6 1.844006903112461e7 0.0
1.844006903112461e7 70904.4170227237 0.0
0.0 0.0 0.0

936110.6216744641 5.642229249191091e6 0.0
5.642229249191091e6 -5.3319768646716075e6 0.0
0.0 0.0 0.0

1.3647687333129053e6 8.748711850100495e6 0.0
8.748711850100495e6 -9.341951625354726e6 0.0
0.0 0.0 0.0

-3.1187472895265184e6 2.0564253508606628e7 0.0
2.0564253508606628e7 -29020.90986458049 0.0
0.0 0.0 0.0

1.8529711188109661e6 1.4378192071458217e7 0.0
1.4378192071458217e7 -1.2754132185903753e6 0.0
0.0 0.0 0.0

-1.3096436273328539e6 1.7388297613424316e7 0.0
1.7388297613424316e7 -5.573575323987453e6 0.0
0.0 0.0 0.0

4.29091472684638e6 7.439583495826952e6 0.0
7.439583495826952e6 -3.1991132166160405e7 0.0
0.0 0.0 0.0

-1.1814169420906223e7 1.2417173290518297e7 0.0
1.2417173290518297e7 1.8158478695281938e7 0.0
0.0 0.0 0.0

-3.6808114045842052e6 1.7998005312808923e7 0.0
1.7998005312808923e7 1.420280756521242e6 0.0
0.0 0.0 0.0

2.998289346365256e6 7.892786015376446e6 0.0
7.892786015376446e6 -1.0604282876695992e7 0.0
0.0 0.0 0.0

1.2911656317519608e6 6.641798574644784e6 0.0
6.641798574644784e6 -5.145726764398693e6 0.0
0.0 0.0 0.0

705766.5582771599 7.884455125274075e6 0.0
7.884455125274075e6 -7.299491770060693e6 0.0
0.0 0.0 0.0

-4.424385122843599e6 2.0834066478944834e7 0.0
2.0834066478944834e7 4.936939215513202e6 0.0
0.0 0.0 0.0

-7.623816723636729e6 239644.50243262795 0.0
239644.50243262795 1.0881841078580974e7 0.0
0.0 0.0 0.0

-1.2618606837133633e7 9.916188998363672e6 0.0
9.916188998363672e6 1.6599789786244884e7 0.0
0.0 0.0 0.0

-2.8199103954970953e6 1.753963531596374e7 0.0
1.753963531596374e7 -1.3077222547610777e6 0.0
0.0 0.0 0.0

1.154969232117943e6 1.1905521563332675e7 0.0
1.1905521563332675e7 -9.959968562470073e6 0.0
0.0 0.0 0.0

-5.507009569606468e6 1.5745512523113126e7 0.0
1.5745512523113126e7 1.2123664230739756e7 0.0
0.0 0.0 0.0

-2.39551655992383e6 1.223548973264209e7 0.0
1.223548973264209e7 -3.1822646025837786e6 0.0
0.0 0.0 0.0

434354.9756745077 1.242363265454299e7 0.0
1.242363265454299e7 -7.956724841432872e6 0.0
0.0 0.0 0.0

855240.7180667864 1.2169176096602544e7 0.0
1.2169176096602544e7 -1.821301550547205e7 0.0
0.0 0.0 0.0

-1.38156027725627e6 1.820941095752262e7 0.0
1.820941095752262e7 -4.5594643477042895e6 0.0
0.0 0.0 0.0

1.277037884014952e6 1.1157278504673604e7 0.0
1.1157278504673604e7 -2.4193614064605534e7 0.0
0.0 0.0 0.0

-8.962069441251043e6 3.3843474114508084e6 0.0
3.3843474114508084e6 9.712272940988077e6 0.0
0.0 0.0 0.0

1.7436150841855747e6 1.7421084189548913e7 0.0
1.7421084189548913e7 1.539360148452811e7 0.0
0.0 0.0 0.0

-4.899517001948077e6 2.0227567442105055e7 0.0
2.0227567442105055e7 5.064585280906128e6 0.0
0.0 0.0 0.0

-2.2087789857948488e6 1.2594940026824296e7 0.0
1.2594940026824296e7 -3.731728694825946e6 0.0
0.0 0.0 0.0

574960.4710415443 1.6142726132857582e7 0.0
1.6142726132857582e7 -5.669402458700789e6 0.0
0.0 0.0 0.0

-2.488502548245639e6 1.7197159197725825e7 0.0
1.7197159197725825e7 -2.1128356781903105e6 0.0
0.0 0.0 0.0

-2.689202680174004e6 6.616708036136018e6 0.0
6.616708036136018e6 -21249.39254467946 0.0
0.0 0.0 0.0

161275.8930955939 1.4620084229635397e7 0.0
1.4620084229635397e7 -1.0769546762882292e7 0.0
0.0 0.0 0.0

2.0517591932672802e6 1.1407690535140023e7 0.0
1.1407690535140023e7 -1.332002765803095e7 0.0
0.0 0.0 0.0

1.7367866485161372e6 1.1787174684153976e7 0.0
1.1787174684153976e7 -1.252265412617282e7 0.0
0.0 0.0 0.0

-579101.5580751775 1.1825116475782407e7 0.0
1.1825116475782407e7 -6.84980838116558e6 0.0
0.0 0.0 0.0

5.310862152281925e6 1.8502994763395157e7 0.0
1.8502994763395157e7 -6.352328703172199e6 0.0
0.0 0.0 0.0

1.814715551139969e6 9.258669891300786e6 0.0
9.258669891300786e6 -8.544122735963736e6 0.0
0.0 0.0 0.0

2.8629035372741753e6 5.319048619457241e6 0.0
5.319048619457241e6 -1.0417141726216227e7 0.0
0.0 0.0 0.0

2.3268532673706478e6 1.0986976106287366e7 0.0
1.0986976106287366e7 -1.4037153124492202e7 0.0
0.0 0.0 0.0

4.323073247161346e6 6.350449145263434e6 0.0
6.350449145263434e6 -2.5162466813022923e7 0.0
0.0 0.0 0.0

-3.7376596340802773e6 5.9642505714399945e6 0.0
5.9642505714399945e6 1.5522616452221032e6 0.0
0.0 0.0 0.0

-4.881585288236152e6 1.6407179874479426e7 0.0
1.6407179874479426e7 2.3282847603399595e6 0.0
0.0 0.0 0.0

4.571480668298979e6 5.33558611116175e6 0.0
5.33558611116175e6 -1.5736171501329407e7 0.0
0.0 0.0 0.0

2.1287577364264443e6 6.152456636238557e6 0.0
6.152456636238557e6 -9.119215882081907e6 0.0
0.0 0.0 0.0

-215378.69602841954 1.1951007719120644e7 0.0
1.1951007719120644e7 -5.649076295486487e6 0.0
0.0 0.0 0.0

-1.1353874607357359e7 1.0035713022796106e7 0.0
1.0035713022796106e7 2.3990410143796824e7 0.0
0.0 0.0 0.0

-6.208648866569517e6 1.6562114748066563e7 0.0
1.6562114748066563e7 9.797124866398377e6 0.0
0.0 0.0 0.0

-2.621208145691791e6 7.3867011748213135e6 0.0
7.3867011748213135e6 -477122.3177978565 0.0
0.0 0.0 0.0

-8.969488164130876e6 1.4498170819445468e7 0.0
1.4498170819445468e7 1.3516383152089577e7 0.0
0.0 0.0 0.0

4.0164301642345153e6 6.194750380943511e6 0.0
6.194750380943511e6 -1.2218150905577157e7 0.0
0.0 0.0 0.0

2.530900572866191e6 1.059564959919948e7 0.0
1.059564959919948e7 -1.4886855911852166e7 0.0
0.0 0.0 0.0

-1.0356103908971341e7 3.7960291693573885e7 0.0
3.7960291693573885e7 3.3497596772360844e6 0.0
0.0 0.0 0.0

-4.4275275307985535e6 9.512496395234328e6 0.0
9.512496395234328e6 1.7074294554883244e6 0.0
0.0 0.0 0.0

-7.782478952822992e6 2.9327590247867606e6 0.0
2.9327590247867606e6 8.286181112526301e6 0.0
0.0 0.0 0.0

-233758.96542237746 1.4212610742467776e7 0.0
1.4212610742467776e7 -1.0719995627427347e7 0.0
0.0 0.0 0.0

1.4711543873027158e6 1.2182930469587334e7 0.0
1.2182930469587334e7 -1.1827613444774248e7 0.0
0.0 0.0 0.0

-1.3627647023576428e6 504971.2135222612 0.0
504971.2135222612 3.3114722274411595e6 0.0
0.0 0.0 0.0

-464156.42266636365 -9277.201832735196 0.0
-9277.201832735196 4.241883931285584e6 0.0
0.0 0.0 0.0

-4.927468650992805e6 2.0991834726816166e7 0.0
2.0991834726816166e7 4.699033106039995e6 0.0
0.0 0.0 0.0

-5.836511424048487e6 1.3850688820819307e7 0.0
1.3850688820819307e7 4.272397072442149e6 0.0
0.0 0.0 0.0

-4.420729288519184e6 2.0688633192807022e7 0.0
2.0688633192807022e7 3.3821327495358996e6 0.0
0.0 0.0 0.0

3.4653770557093723e6 8.086069437632224e6 0.0
8.086069437632224e6 -1.3225546950785704e7 0.0
0.0 0.0 0.0

-5.41351007940095e6 1.5834467105079202e7 0.0
1.5834467105079202e7 3.7716680934143565e6 0.0
0.0 0.0 0.0

-1.0955442070836782e7 199733.54692633223 0.0
199733.54692633223 1.9021827542277046e7 0.0
0.0 0.0 0.0

-4.944891141084678e7 2.5742807683204976e6 0.0
2.5742807683204976e6 8.967422649230916e6 0.0
0.0 0.0 0.0

-4.890829303895449e6 1.7070942598245755e7 0.0
1.7070942598245755e7 2.5807901265654904e6 0.0
0.0 0.0 0.0

-8.0052185592914745e6 1.4973992716000471e7 0.0
1.4973992716000471e7 1.2523437392432332e7 0.0
0.0 0.0 0.0

-2.4284029404693437e6 1.829071737835003e7 0.0
1.829071737835003e7 -3.7862658285083673e6 0.0
0.0 0.0 0.0

2.208906491314775e6 5.800484850664274e6 0.0
5.800484850664274e6 -8.528441556894582e6 0.0
0.0 0.0 0.0

-5.48211434978538e6 1.0884190566219822e7 0.0
1.0884190566219822e7 3.4546600064043878e6 0.0
0.0 0.0 0.0

-5.72939032237404e6 1.838389114752365e7 0.0
1.838389114752365e7 -3.5021135351281525e6 0.0
0.0 0.0 0.0

-2.4192009759909473e6 1.7390824284887016e7 0.0
1.7390824284887016e7 -4.222867869222677e6 0.0
0.0 0.0 0.0

3.415527309622932e6 6.67352578270988e6 0.0
6.67352578270988e6 -1.0378512509095985e7 0.0
0.0 0.0 0.0

-7.335763150415589e6 1.5494805781145243e7 0.0
1.5494805781145243e7 1.1598336014692726e7 0.0
0.0 0.0 0.0

-609133.67536697 1.3741767945684947e7 0.0
1.3741767945684947e7 -6.0373004078667695e6 0.0
0.0 0.0 0.0

4.698192440485299e6 5.2118163862185e6 0.0
5.2118163862185e6 -2.708825480962564e7 0.0
0.0 0.0 0.0

-1.1285531411545655e7 -2.0131982043184373e6 0.0
-2.0131982043184373e6 2.8260800321149923e7 0.0
0.0 0.0 0.0

2.63374599293429e6 8.35569735092162e6 0.0
8.35569735092162e6 -9.918201838417312e6 0.0
0.0 0.0 0.0

4.567006655361979e6 6.693139745465123e6 0.0
6.693139745465123e6 -1.8338382185476772e7 0.0
0.0 0.0 0.0

435388.8973191744 1.3781479751889609e7 0.0
1.3781479751889609e7 -6.593662636239077e6 0.0
0.0 0.0 0.0

2.62817207314601e6 9.71311397240238e6 0.0
9.71311397240238e6 -2.3543319670223188e7 0.0
0.0 0.0 0.0

-2.6854600428766273e6 2.1781649127079774e7 0.0
2.1781649127079774e7 -279093.16685992037 0.0
0.0 0.0 0.0

-8.797502930123536e6 1.37206779383408e7 0.0
1.37206779383408e7 2.1513502711729884e7 0.0
0.0 0.0 0.0

-1.1349902770057054e7 -2.4822961513013635e6 0.0
-2.4822961513013635e6 2.564368501296761e7 0.0
0.0 0.0 0.0

-887218.8512641831 1.433197396159057e7 0.0
1.433197396159057e7 -5.716141649338206e6 0.0
0.0 0.0 0.0

4.0810487757828897e6 7.177559893211526e6 0.0
7.177559893211526e6 -2.187359794797063e7 0.0
0.0 0.0 0.0

-2.9977596328169615e6 1.4172320836284285e7 0.0
1.4172320836284285e7 -234100.26237825898 0.0
0.0 0.0 0.0

-4.868183479952439e6 1.5745154376390645e7 0.0
1.5745154376390645e7 2.1063618193311733e6 0.0
0.0 0.0 0.0

-1.0262940429823672e7 2.587418187376763e6 0.0
2.587418187376763e6 1.4579200237447243e7 0.0
0.0 0.0 0.0

-1.1655906783332687e6 1.846938601764512e7 0.0
1.846938601764512e7 -4.4521378069805335e6 0.0
0.0 0.0 0.0

880582.7346550042 1.393138154998648e7 0.0
1.393138154998648e7 -4.384236654981681e6 0.0
0.0 0.0 0.0

-3.025123428385022e6 1.7930553908524018e7 0.0
1.7930553908524018e7 -504094.78333801316 0.0
0.0 0.0 0.0

5.3561851388499085e6 3.9483330253136014e6 0.0
3.9483330253136014e6 -2.5577210386824086e7 0.0
0.0 0.0 0.0

-5.1359172473055255e6 1.614850422016737e7 0.0
1.614850422016737e7 2.992184398008227e6 0.0
0.0 0.0 0.0

1.0754214772861195e6 1.1059800422661873e7 0.0
1.1059800422661873e7 -8.536788563469024e6 0.0
0.0 0.0 0.0

-2.330058113231503e6 8.6888707009997e6 0.0
8.6888707009997e6 -1.5433542357033673e6 0.0
0.0 0.0 0.0

-648184.9851157045 1.0884260316613618e7 0.0
1.0884260316613618e7 -4.053478914289301e6 0.0
0.0 0.0 0.0

-2.9473415721531133e6 4.86805356201542e6 0.0
4.86805356201542e6 961975.41496659 0.0
0.0 0.0 0.0

964006.1754062381 1.347060368253677e7 0.0
1.347060368253677e7 -4.977650407722371e6 0.0
0.0 0.0 0.0

-1.195755977950743e7 4.028712978181506e6 0.0
4.028712978181506e6 2.1890103031657614e7 0.0
0.0 0.0 0.0

379172.8321145079 1.2169070798610872e7 0.0
1.2169070798610872e7 -7.47726506977486e6 0.0
0.0 0.0 0.0

-1.3515481587581267e6 5.496443550616374e6 0.0
5.496443550616374e6 -1.4741540451925024e6 0.0
0.0 0.0 0.0

-5.097052470747819e6 2.1408634480079524e7 0.0
2.1408634480079524e7 4.868848548751919e6 0.0
0.0 0.0 0.0

-1.9500173754843504e6 1.7098406554397233e7 0.0
1.7098406554397233e7 -3.6952772606016947e6 0.0
0.0 0.0 0.0

1.4019645992757864e6 1.2673293554206088e7 0.0
1.2673293554206088e7 -1.3941741760891922e7 0.0
0.0 0.0 0.0

2.2321889984687194e6 8.804279743495805e6 0.0
8.804279743495805e6 -9.252305221753627e6 0.0
0.0 0.0 0.0

-4.259923367060582e6 1.740830692466611e7 0.0
1.740830692466611e7 3.0937371014515054e6 0.0
0.0 0.0 0.0

-9.154835692896076e6 1.4595587025468692e7 0.0
1.4595587025468692e7 1.448272668138198e7 0.0
0.0 0.0 0.0

-1.6055527375692409e6 1.5778990522042822e7 0.0
1.5778990522042822e7 1.0503076201887809e7 0.0
0.0 0.0 0.0

3.8516736468953425e6 7.342249899093898e6 0.0
7.342249899093898e6 -2.3300593225168753e7 0.0
0.0 0.0 0.0

-4.997067994432522e6 1.5865257738550376e7 0.0
1.5865257738550376e7 5.156153811155556e6 0.0
0.0 0.0 0.0

-4.496141374101839e6 1.6536649585839666e7 0.0
1.6536649585839666e7 3.5813992748685973e6 0.0
0.0 0.0 0.0

-9.00587360379415e6 6.746922057238303e6 0.0
6.746922057238303e6 9.709659001084596e6 0.0
0.0 0.0 0.0

-2.5038899374371246e6 2.2200504682589386e7 0.0
2.2200504682589386e7 -348820.85372121754 0.0
0.0 0.0 0.0

563666.0349939377 1.086600102688077e7 0.0
1.086600102688077e7 -6.753133902449429e6 0.0
0.0 0.0 0.0

-9.657353411235247e6 1.2009216755070414e7 0.0
1.2009216755070414e7 1.2365429850847898e7 0.0
0.0 0.0 0.0

2.2233305238542664e6 8.413064139819106e6 0.0
8.413064139819106e6 -8.812863317324527e6 0.0
0.0 0.0 0.0

-1.5356753495809708e6 7.0729483676478285e6 0.0
7.0729483676478285e6 -13006.970029217424 0.0
0.0 0.0 0.0

-4.0511265586914145e6 1.7603129555350672e7 0.0
1.7603129555350672e7 2.461165081156792e6 0.0
0.0 0.0 0.0

-4.086759164062038e6 1.8171381741308354e7 0.0
1.8171381741308354e7 2.639510054990529e6 0.0
0.0 0.0 0.0

319333.3125622021 1.1891227659334878e7 0.0
1.1891227659334878e7 -6.977780681347205e6 0.0
0.0 0.0 0.0

1.1586589243824095e6 1.4677552945645766e7 0.0
1.4677552945645766e7 -5.300970402632675e6 0.0
0.0 0.0 0.0

3.6111535353775173e6 1.9349248860086687e7 0.0
1.9349248860086687e7 -5.79794830878639e6 0.0
0.0 0.0 0.0

-4.498958141274061e6 1.702633748629343e7 0.0
1.702633748629343e7 5.398031700532127e6 0.0
0.0 0.0 0.0

-3.8397326038190573e6 1.3456023075751642e7 0.0
1.3456023075751642e7 -2.0884637194815733e7 0.0
0.0 0.0 0.0

1.311539245730556e6 9.31937097188304e6 0.0
9.31937097188304e6 -7.304068534847249e6 0.0
0.0 0.0 0.0

-1.0544579323388983e7 610700.7527899765 0.0
610700.7527899765 1.741107021676754e7 0.0
0.0 0.0 0.0

-984970.1600783988 1.5917576148894059e7 0.0
1.5917576148894059e7 -1.2496340715540838e6 0.0
0.0 0.0 0.0

-2.8633289342879513e6 1.6277088868986325e7 0.0
1.6277088868986325e7 -714401.3771612458 0.0
0.0 0.0 0.0

-4.739065007584022e6 1.6186319617904022e7 0.0
1.6186319617904022e7 4.310170350245248e6 0.0
0.0 0.0 0.0

-1.0420959134389602e7 -1.3657214889825736e6 0.0
-1.3657214889825736e6 1.937733057274023e7 0.0
0.0 0.0 0.0

-5.437223636583824e6 2.1823741203938443e7 0.0
2.1823741203938443e7 5.098473320352111e6 0.0
0.0 0.0 0.0

-4.61508872505174e6 1.729178430540715e7 0.0
1.729178430540715e7 1.930261672701269e6 0.0
0.0 0.0 0.0

1.2644263058561506e6 1.3340364477570143e7 0.0
1.3340364477570143e7 -893048.3934543924 0.0
0.0 0.0 0.0

1.240502384770135e6 1.3155538480458545e7 0.0
1.3155538480458545e7 4.135008181778091e6 0.0
0.0 0.0 0.0

-5.267997490758058e6 1.547608874362247e7 0.0
1.547608874362247e7 6.022024072740898e6 0.0
0.0 0.0 0.0

-7.34344185368529e6 1.38709851569062e7 0.0
1.38709851569062e7 8.865886026412986e6 0.0
0.0 0.0 0.0

3.3306565347859017e6 6.24322422896852e6 0.0
6.24322422896852e6 -9.949976875862045e6 0.0
0.0 0.0 0.0

-2.866188928174863e6 1.8080723589493256e7 0.0
1.8080723589493256e7 -1.0148210384243025e6 0.0
0.0 0.0 0.0

-9.099687231793854e6 1.0022744237322567e7 0.0
1.0022744237322567e7 1.3830511367641255e7 0.0
0.0 0.0 0.0

4.174813110003625e6 5.1537392448603e6 0.0
5.1537392448603e6 -1.4671142031324392e7 0.0
0.0 0.0 0.0

-3.022147279861282e6 1.68190430781895e7 0.0
1.68190430781895e7 -2.697568458988676e6 0.0
0.0 0.0 0.0

-4.452136746110532e6 1.5842333324799806e7 0.0
1.5842333324799806e7 3.485737260302446e6 0.0
0.0 0.0 0.0

-750169.7026356049 5.2051323430151325e6 0.0
5.2051323430151325e6 -2.305823149619258e6 0.0
0.0 0.0 0.0

1.9035368736443426e6 9.359516502002943e6 0.0
9.359516502002943e6 -1.1292627465419892e7 0.0
0.0 0.0 0.0

-7.038783757750039e6 3.3701359206867136e7 0.0
3.3701359206867136e7 2.382143127392278e6 0.0
0.0 0.0 0.0

4.1310762607277e6 7.079901368796413e6 0.0
7.079901368796413e6 -3.7629808786919445e7 0.0
0.0 0.0 0.0

4.293124771015403e6 5.795916351068288e6 0.0
5.795916351068288e6 -1.6645338475782324e7 0.0
0.0 0.0 0.0

2.378591676931056e6 1.032679392151127e7 0.0
1.032679392151127e7 -1.2398983630194707e7 0.0
0.0 0.0 0.0

-3.532814737653642e6 1.6630785635560863e7 0.0
1.6630785635560863e7 3.623433751030285e6 0.0
0.0 0.0 0.0

1.5463922909214385e6 1.1799692474135162e7 0.0
1.1799692474135162e7 -1.6613637713852387e7 0.0
0.0 0.0 0.0

1.2435781361522754e6 8.907985395139989e6 0.0
8.907985395139989e6 -6.880270713736353e6 0.0
0.0 0.0 0.0

-1.7026589461747312e6 8.404120196815157e6 0.0
8.404120196815157e6 -2.507541175198281e6 0.0
0.0 0.0 0.0

517871.25714190025 1.4929473017436847e7 0.0
1.4929473017436847e7 8.286986103767448e6 0.0
0.0 0.0 0.0

-8.902166459751807e6 1.3957172028438307e7 0.0
1.3957172028438307e7 2.0111209585606687e7 0.0
0.0 0.0 0.0

4.114022600524219e6 1.204786363474095e7 0.0
1.204786363474095e7 6.319850793478656e6 0.0
0.0 0.0 0.0

-5.3055854524067165e6 2.337225662126257e7 0.0
2.337225662126257e7 4.1909197658494e6 0.0
0.0 0.0 0.0

-1.056878016271905e6 1.21913133337375e7 0.0
1.21913133337375e7 -6.013153468544045e6 0.0
0.0 0.0 0.0

-1.8762088828007214e7 1.76218169771828e7 0.0
1.76218169771828e7 2.7702477846548324e6 0.0
0.0 0.0 0.0

-310985.6905372555 1.316805518797535e7 0.0
1.316805518797535e7 -6.364275129226172e6 0.0
0.0 0.0 0.0

-4.306740939481335e6 1.6158010743213868e7 0.0
1.6158010743213868e7 2.7319486079181572e6 0.0
0.0 0.0 0.0

-15757.958249241114 1.0889264386971086e7 0.0
1.0889264386971086e7 -5.402024864203263e6 0.0
0.0 0.0 0.0

470334.2822481794 1.2632199988626854e7 0.0
1.2632199988626854e7 -1.6845655306411553e7 0.0
0.0 0.0 0.0

3.943034337092392e6 5.62019796117508e6 0.0
5.62019796117508e6 -1.406859779738015e7 0.0
0.0 0.0 0.0

3.429493511396857e6 9.069964104755035e6 0.0
9.069964104755035e6 -2.1375324342781253e7 0.0
0.0 0.0 0.0

-3.313608711425806e6 1.5718197586492475e7 0.0
1.5718197586492475e7 9.968588258345362e6 0.0
0.0 0.0 0.0

4.1533204572918946e6 6.973048061529511e6 0.0
6.973048061529511e6 -1.5597532750514232e7 0.0
0.0 0.0 0.0

-2.8181261569278375e6 1.693779881844287e7 0.0
1.693779881844287e7 -3.119769077471057e6 0.0
0.0 0.0 0.0

-1.144497915258344e6 1.49201895737185e7 0.0
1.49201895737185e7 -7.625892849926767e6 0.0
0.0 0.0 0.0

-1.675627543744975e6 1.0726800578982579e7 0.0
1.0726800578982579e7 -3.9424966066188905e6 0.0
0.0 0.0 0.0

-4.1623840138189034e6 1.165175753747303e7 0.0
1.165175753747303e7 688573.714921548 0.0
0.0 0.0 0.0

-9.749875426015826e6 1.2451345449545432e7 0.0
1.2451345449545432e7 1.29844370049829e7 0.0
0.0 0.0 0.0

2.929712620712675e6 8.610044761575297e6 0.0
8.610044761575297e6 -1.1451636601907108e7 0.0
0.0 0.0 0.0

-6.5796109015528355e6 2.471548490751666e7 0.0
2.471548490751666e7 4.420340133997977e6 0.0
0.0 0.0 0.0

-5.953862556097621e6 2.2137945962654628e7 0.0
2.2137945962654628e7 5.458550616502369e6 0.0
0.0 0.0 0.0

-1.0113319664918806e7 1.3303064209660323e7 0.0
1.3303064209660323e7 1.3926495021433603e7 0.0
0.0 0.0 0.0

-1.25378386264684e6 1.0882168379652645e7 0.0
1.0882168379652645e7 -4.179279491038614e6 0.0
0.0 0.0 0.0

1.1790144217642015e6 1.2560992892337993e7 0.0
1.2560992892337993e7 -1.1041273833897647e7 0.0
0.0 0.0 0.0

4.0806121014761133e6 6.844620438704526e6 0.0
6.844620438704526e6 -1.4260155235587005e7 0.0
0.0 0.0 0.0

-4.862866924788782e6 1.7993663663501125e7 0.0
1.7993663663501125e7 7.85187574063724e6 0.0
0.0 0.0 0.0

-1.174589596215179e7 4.834243335233674e6 0.0
4.834243335233674e6 1.3823741183739206e7 0.0
0.0 0.0 0.0

-960664.4970474186 1.9846210916270137e7 0.0
1.9846210916270137e7 -3.0817584693035125e6 0.0
0.0 0.0 0.0

-1.081769733335238e7 -338374.8968540464 0.0
-338374.8968540464 3.61894848620381e7 0.0
0.0 0.0 0.0

-1.9947628575798634e6 1.4922401098122275e7 0.0
1.4922401098122275e7 -5.129614227560811e6 0.0
0.0 0.0 0.0

-8.009807281113832e6 -5.960404925100961e6 0.0
-5.960404925100961e6 1.5035822052342227e7 0.0
0.0 0.0 0.0

-3.4750861725129103e6 3.794483962200516e6 0.0
3.794483962200516e6 4.406885616122644e6 0.0
0.0 0.0 0.0

3.2466938145434298e6 5.758009481932271e6 0.0
5.758009481932271e6 -9.68438068099623e6 0.0
0.0 0.0 0.0

-1.2178957784356117e7 9.8864481826552e6 0.0
9.8864481826552e6 2.126677253636969e7 0.0
0.0 0.0 0.0

3.4085017975114854e6 9.342825620937392e6 0.0
9.342825620937392e6 -1.8177575605131328e7 0.0
0.0 0.0 0.0

-2.6741419333114605e6 1.7033224993785385e7 0.0
1.7033224993785385e7 -1.5881811740286793e6 0.0
0.0 0.0 0.0

-4.528968286776256e6 1.7150775200776864e7 0.0
1.7150775200776864e7 3.769775450559851e6 0.0
0.0 0.0 0.0

-1.8178705619454049e6 1.2710041301520474e7 0.0
1.2710041301520474e7 -2.452048444988636e6 0.0
0.0 0.0 0.0

-4.898473567873126e6 1.7559161037343107e7 0.0
1.7559161037343107e7 5.4190772637159545e6 0.0
0.0 0.0 0.0

1.4852743005273207e6 5.732525261944262e6 0.0
5.732525261944262e6 -6.610944935749603e6 0.0
0.0 0.0 0.0

-2.945105695557151e6 1.4622571789405279e7 0.0
1.4622571789405279e7 -2.6695052391689126e6 0.0
0.0 0.0 0.0

2.2439306505849836e6 1.9870429823453628e7 0.0
1.9870429823453628e7 -4.963818407793518e6 0.0
0.0 0.0 0.0

1.0881898352092584e6 8.372170184924726e6 0.0
8.372170184924726e6 -6.5895732763511175e6 0.0
0.0 0.0 0.0

-104873.23280473775 1.2260998649637392e7 0.0
1.2260998649637392e7 -6.174498843004399e6 0.0
0.0 0.0 0.0

-2.001835922414423e6 1.6919667475311123e7 0.0
1.6919667475311123e7 -3.396238819456735e6 0.0
0.0 0.0 0.0

-1.9941534268387794e6 1.234112354501154e7 0.0
1.234112354501154e7 -1.8689791370875284e6 0.0
0.0 0.0 0.0

4.710273765237318e6 1.6402799272063026e7 0.0
1.6402799272063026e7 -4.696125151485621e6 0.0
0.0 0.0 0.0

-175155.22026990156 4.822508216353695e6 0.0
4.822508216353695e6 -3.1627303262357246e6 0.0
0.0 0.0 0.0

4.647171431885721e6 5.283997069038134e6 0.0
5.283997069038134e6 -1.9504489644072913e7 0.0
0.0 0.0 0.0

-313908.6272754325 4.36636236443337e6 0.0
4.36636236443337e6 -364893.1531127935 0.0
0.0 0.0 0.0

-1.0734921698762218e6 8.09273509066196e6 0.0
8.09273509066196e6 -3.3906609530206113e6 0.0
0.0 0.0 0.0

-2.0087405900238121e6 1.2931927196500013e7 0.0
1.2931927196500013e7 -4.27438437014046e6 0.0
0.0 0.0 0.0

-3.4652459940814283e6 4.626722921208034e6 0.0
4.626722921208034e6 3.9578419382988913e6 0.0
0.0 0.0 0.0

2.5311319001457673e6 6.284308300140722e6 0.0
6.284308300140722e6 -7.823696564024258e6 0.0
0.0 0.0 0.0

112724.95405955613 1.4966499628706032e7 0.0
1.4966499628706032e7 -1.000885740222538e7 0.0
0.0 0.0 0.0

-457276.6721243734 7.784354106428336e6 0.0
7.784354106428336e6 -4.306920839775691e6 0.0
0.0 0.0 0.0

-6.352805697585841e6 3.0902151268186998e7 0.0
3.0902151268186998e7 2.0575335250883931e6 0.0
0.0 0.0 0.0

3.6735037817818914e6 1.6025723172814207e7 0.0
1.6025723172814207e7 6.4772574502167255e6 0.0
0.0 0.0 0.0

63267.90274876286 7.411595781328154e6 0.0
7.411595781328154e6 -4.974014278562895e6 0.0
0.0 0.0 0.0

-6.026199905214098e6 1.0580057733698314e7 0.0
1.0580057733698314e7 7.736509026859299e6 0.0
0.0 0.0 0.0

2.09306598820765e6 4.820900290971511e6 0.0
4.820900290971511e6 -6.413430511628392e6 0.0
0.0 0.0 0.0

-1.2013152334697828e7 4.235924750941557e6 0.0
4.235924750941557e6 2.0440909988877766e7 0.0
0.0 0.0 0.0

527454.6794657235 6.99552786481852e6 0.0
6.99552786481852e6 -5.713597658349044e6 0.0
0.0 0.0 0.0

-7.766160244474483e6 2.4958004206164733e7 0.0
2.4958004206164733e7 6.243526036121024e6 0.0
0.0 0.0 0.0

-436135.1063593349 2.002047719723145e7 0.0
2.002047719723145e7 -3.293711638324564e6 0.0
0.0 0.0 0.0

4.35821090148018e6 6.362592693149375e6 0.0
6.362592693149375e6 -1.4852573555243023e7 0.0
0.0 0.0 0.0

-1.4040889231572305e6 1.5271393663558543e7 0.0
1.5271393663558543e7 -6.75448525901598e6 0.0
0.0 0.0 0.0

4.0401442451880723e6 6.973132734392783e6 0.0
6.973132734392783e6 -2.004158659160307e7 0.0
0.0 0.0 0.0

-2.48935294918145e6 1.3294288704031e7 0.0
1.3294288704031e7 -3.380834352014638e6 0.0
0.0 0.0 0.0

-1.3257568583444986e6 1.4658641175064635e7 0.0
1.4658641175064635e7 7.881072057560718e6 0.0
0.0 0.0 0.0

1.1480118005448834e6 2.0092693092910852e7 0.0
2.0092693092910852e7 -4.224808121367224e6 0.0
0.0 0.0 0.0

1.1036097486380036e6 8.067353935319577e6 0.0
8.067353935319577e6 -6.043763092170937e6 0.0
0.0 0.0 0.0

2.614006329243833e6 7.539504008172587e6 0.0
7.539504008172587e6 -9.07131634564222e6 0.0
0.0 0.0 0.0

-253579.8965240583 9.671144051299293e6 0.0
9.671144051299293e6 -3.897234138525484e6 0.0
0.0 0.0 0.0

-6.84290297629674e6 2.242394237859321e7 0.0
2.242394237859321e7 5.766741566766238e6 0.0
0.0 0.0 0.0

-3.548528035435851e6 1.130154857376656e7 0.0
1.130154857376656e7 -400466.7729336256 0.0
0.0 0.0 0.0

-177213.012484552 2.283889233495751e7 0.0
2.283889233495751e7 -1.9394543398984545e6 0.0
0.0 0.0 0.0

-1.6267673212687336e6 1.3052571797524035e7 0.0
1.3052571797524035e7 -3.0261222216540654e6 0.0
0.0 0.0 0.0

1.714965344973632e6 1.507698274776466e7 0.0
1.507698274776466e7 1.0163822197278822e7 0.0
0.0 0.0 0.0

-1.7524011109474176e6 1.6587977017872587e7 0.0
1.6587977017872587e7 -2.374049964241686e6 0.0
0.0 0.0 0.0

-3.2990161770366076e6 1.827757703779205e7 0.0
1.827757703779205e7 322570.4158215069 0.0
0.0 0.0 0.0

-33189.772209937684 1.428080065362419e7 0.0
1.428080065362419e7 -1.0038829271526972e7 0.0
0.0 0.0 0.0

1.2530713458394157e6 1.1165853975465626e7 0.0
1.1165853975465626e7 -2.293065254585156e7 0.0
0.0 0.0 0.0

-1.0705049528233156e7 1.3181215763903469e7 0.0
1.3181215763903469e7 1.9478096175643444e7 0.0
0.0 0.0 0.0

1.0000153511283477e6 9.583067301350364e6 0.0
9.583067301350364e6 -9.056895934217216e6 0.0
0.0 0.0 0.0

-1.20324801769138e7 4.447117004494339e6 0.0
4.447117004494339e6 1.8822730616224527e7 0.0
0.0 0.0 0.0

2.918873998691868e6 1.0161119966613816e7 0.0
1.0161119966613816e7 -1.6612785914416548e7 0.0
0.0 0.0 0.0

-1.251645360110141e6 9.932685682915118e6 0.0
9.932685682915118e6 -4.2874814757825555e6 0.0
0.0 0.0 0.0

3.155779854550487e6 4.768557031143446e6 0.0
4.768557031143446e6 -9.762690029353285e6 0.0
0.0 0.0 0.0

-4.067740514175794e6 1.4092408836331379e7 0.0
1.4092408836331379e7 19035.791212384822 0.0
0.0 0.0 0.0

-4.6357739683045065e6 1.7830582819565374e7 0.0
1.7830582819565374e7 2.103294911607448e6 0.0
0.0 0.0 0.0

-2.7641460416108477e6 2.053356030992739e7 0.0
2.053356030992739e7 -1.0555426407198913e6 0.0
0.0 0.0 0.0

-2.7269757383289947e6 1.3964959065408943e7 0.0
1.3964959065408943e7 -3.0189347117662993e6 0.0
0.0 0.0 0.0

2.5322541527588177e6 5.84523007635225e6 0.0
5.84523007635225e6 -7.412727576468136e6 0.0
0.0 0.0 0.0

254357.5610409216 2.011690811801893e7 0.0
2.011690811801893e7 -3.713280140512078e6 0.0
0.0 0.0 0.0

-1.0736145135168783e7 5.851994861746763e6 0.0
5.851994861746763e6 1.5284115538137538e7 0.0
0.0 0.0 0.0

4.0934600730132423e6 6.891451305868432e6 0.0
6.891451305868432e6 -2.42320946157277e7 0.0
0.0 0.0 0.0

-1.0754024882727661e6 1.6072998336321369e7 0.0
1.6072998336321369e7 8.790489038697299e6 0.0
0.0 0.0 0.0

-4.734312439439131e6 1.973304856369314e7 0.0
1.973304856369314e7 4.140345646647941e6 0.0
0.0 0.0 0.0

-1.4465572183804265e6 1.3824537428745057e7 0.0
1.3824537428745057e7 -7.06246184038304e6 0.0
0.0 0.0 0.0

-8.981226827243023e6 1.4238889143358316e7 0.0
1.4238889143358316e7 1.9022558332909603e7 0.0
0.0 0.0 0.0

-2.3243498541254117e6 1.4179207919849854e7 0.0
1.4179207919849854e7 -7.747832537229267e6 0.0
0.0 0.0 0.0

60456.343419393525 1.0380402226729259e7 0.0
1.0380402226729259e7 -7.4754908242071755e6 0.0
0.0 0.0 0.0

-512530.9363414394 1.5056284909507781e7 0.0
1.5056284909507781e7 7.876930024091342e6 0.0
0.0 0.0 0.0

-5.50527842960964e6 2.908273067712069e7 0.0
2.908273067712069e7 2.2112345995154884e6 0.0
0.0 0.0 0.0

-1.2301677044476287e6 1.6778976250473034e7 0.0
1.6778976250473034e7 -4.948638927664559e6 0.0
0.0 0.0 0.0

3.0956612484781295e7 1.368127271636828e7 0.0
1.368127271636828e7 764314.841404805 0.0
0.0 0.0 0.0

-1.5352439798716966e6 1.1140914657247806e7 0.0
1.1140914657247806e7 -4.437386991542201e6 0.0
0.0 0.0 0.0

-3.856163047792168e6 1.4436959994861798e7 0.0
1.4436959994861798e7 -636287.3361612937 0.0
0.0 0.0 0.0

1.1697607334272903e6 1.157567124858374e7 0.0
1.157567124858374e7 -1.108665252876756e7 0.0
0.0 0.0 0.0

-2.6395211777714086e6 2.0897343636351902e7 0.0
2.0897343636351902e7 -1.003354760398282e6 0.0
0.0 0.0 0.0

4.477870482432734e6 6.005314661376982e6 0.0
6.005314661376982e6 -2.139092085101251e7 0.0
0.0 0.0 0.0

580099.161670601 7.372663435007266e6 0.0
7.372663435007266e6 -6.228994271132809e6 0.0
0.0 0.0 0.0

2.170114162980209e6 9.579554683406789e6 0.0
9.579554683406789e6 -1.2733325056051163e7 0.0
0.0 0.0 0.0

-5.955436173288878e6 1.6591692963267725e7 0.0
1.6591692963267725e7 1.007390773677323e7 0.0
0.0 0.0 0.0

-3.1420125100761615e6 1.5258967855991496e7 0.0
1.5258967855991496e7 -2.327857088384363e6 0.0
0.0 0.0 0.0

-717494.720647505 1.2890324827488216e7 0.0
1.2890324827488216e7 3.3008294846875872e6 0.0
0.0 0.0 0.0

-752762.1131346934 1.0455704247683432e7 0.0
1.0455704247683432e7 -3.535151378369458e6 0.0
0.0 0.0 0.0

-2.155739513977442e6 1.4401352720440084e7 0.0
1.4401352720440084e7 -2.3434950908411965e6 0.0
0.0 0.0 0.0

1.204108243243023e6 1.3807733494520776e7 0.0
1.3807733494520776e7 -4.536604499654614e6 0.0
0.0 0.0 0.0

-4.613377200760266e6 2.781375679841593e7 0.0
2.781375679841593e7 2.644114328244787e6 0.0
0.0 0.0 0.0

-2.3695815508098863e6 1.5043877788448472e7 0.0
1.5043877788448472e7 -2.0122098635964938e6 0.0
0.0 0.0 0.0

-929461.641678522 6.11460894259197e6 0.0
6.11460894259197e6 -536030.3726082786 0.0
0.0 0.0 0.0

1.4641918245815279e7 1.0888840126859002e7 0.0
1.0888840126859002e7 194829.3315870287 0.0
0.0 0.0 0.0

3.026841517283229e6 8.611966445334166e6 0.0
8.611966445334166e6 -2.9270640525004927e7 0.0
0.0 0.0 0.0

-3.908298580394495e6 1.838540085189665e7 0.0
1.838540085189665e7 2.185367895249527e6 0.0
0.0 0.0 0.0

-2.2687852259444157e6 6.498046031902062e6 0.0
6.498046031902062e6 1.4350197164174644e6 0.0
0.0 0.0 0.0

-1.0050323325873531e6 1.0828661249767534e7 0.0
1.0828661249767534e7 -5.237052413356887e6 0.0
0.0 0.0 0.0

432662.92315280065 9.634694255706694e6 0.0
9.634694255706694e6 -7.794599517417618e6 0.0
0.0 0.0 0.0

-4.182712233142033e6 2.6719651052651193e7 0.0
2.6719651052651193e7 2.460369195605133e6 0.0
0.0 0.0 0.0

3.243631422261087e6 8.774467679155607e6 0.0
8.774467679155607e6 -1.9145459682730794e7 0.0
0.0 0.0 0.0

-1.1284082199879227e7 664094.6594339836 0.0
664094.6594339836 1.4912765506455421e7 0.0
0.0 0.0 0.0

-2.9670345023992527e6 1.67526148997168e7 0.0
1.67526148997168e7 -5.379235532556147e6 0.0
0.0 0.0 0.0

-3.22487280373236e6 5.71456832295695e6 0.0
5.71456832295695e6 3.3804783503183955e6 0.0
0.0 0.0 0.0

-1.7482270951303614e6 1.4337679011091994e7 0.0
1.4337679011091994e7 -5.497282551230684e6 0.0
0.0 0.0 0.0

-3.7490598628178057e6 1.5361600713214641e7 0.0
1.5361600713214641e7 -868146.9971072557 0.0
0.0 0.0 0.0

1.0594107261022562e6 1.2459427328130635e7 0.0
1.2459427328130635e7 -1.3830044082001785e7 0.0
0.0 0.0 0.0

-3.983504240476089e6 2.5830523176287472e7 0.0
2.5830523176287472e7 2.510981839865187e6 0.0
0.0 0.0 0.0

-5.698402387094081e6 1.7126056281376313e7 0.0
1.7126056281376313e7 9.358165749538464e6 0.0
0.0 0.0 0.0

-2.5561512212855043e6 1.5663780157683408e7 0.0
1.5663780157683408e7 -1.7005357374320158e6 0.0
0.0 0.0 0.0

4.246607660701013e6 6.493118150356262e6 0.0
6.493118150356262e6 -2.0776648919504274e7 0.0
0.0 0.0 0.0

-2.049209897526471e6 8.002899875809694e6 0.0
8.002899875809694e6 448690.2296920599 0.0
0.0 0.0 0.0

-3.5731563354883473e6 2.512885383477231e7 0.0
2.512885383477231e7 2.707324978563928e6 0.0
0.0 0.0 0.0

3.898120542823853e6 7.839368637008158e6 0.0
7.839368637008158e6 -3.0257744300519466e7 0.0
0.0 0.0 0.0

-3.2277672030675206e6 2.4508996320422538e7 0.0
2.4508996320422538e7 2.6749935421280456e6 0.0
0.0 0.0 0.0

-3.118546164901388e6 2.3950425615799826e7 0.0
2.3950425615799826e7 2.5050106472710683e6 0.0
0.0 0.0 0.0

-3.813708759333874e6 1.9843718491353642e7 0.0
1.9843718491353642e7 923978.7629712557 0.0
0.0 0.0 0.0

-3.7713532090843813e6 2.0248690008400932e7 0.0
2.0248690008400932e7 1.1512806495875684e6 0.0
0.0 0.0 0.0

-3.7295167938865446e6 2.0638162005476113e7 0.0
2.0638162005476113e7 1.3553899762594393e6 0.0
0.0 0.0 0.0

-3.6787648798421687e6 2.100153115394814e7 0.0
2.100153115394814e7 1.4936136944243712e6 0.0
0.0 0.0 0.0

-3.6681952739501074e6 2.1355266075259324e7 0.0
2.1355266075259324e7 1.680486270868092e6 0.0
0.0 0.0 0.0

-3.6366420222568978e6 2.172154852454735e7 0.0
2.172154852454735e7 1.78202550318715e6 0.0
0.0 0.0 0.0

-5.93225436682003e6 1.0218490258935718e7 0.0
1.0218490258935718e7 4.261027321222775e6 0.0
0.0 0.0 0.0

-3.613192809972883e6 2.208718859851834e7 0.0
2.208718859851834e7 1.9396951537436508e6 0.0
0.0 0.0 0.0

-3.7272461914694197e6 2.2487237565370608e7 0.0
2.2487237565370608e7 2.0146908469892214e6 0.0
0.0 0.0 0.0

-9.203926078965731e6 1.1682428720495975e7 0.0
1.1682428720495975e7 1.4233109434557064e7 0.0
0.0 0.0 0.0

-3.107620095333374e6 2.3486797902249258e7 0.0
2.3486797902249258e7 2.5011001234802706e6 0.0
0.0 0.0 0.0

-3.8338205254364237e6 2.283922202933915e7 0.0
2.283922202933915e7 2.0773439909789278e6 0.0
0.0 0.0 0.0

-3.8348422242828417e6 2.3280816332019933e7 0.0
2.3280816332019933e7 2.181522744972595e6 0.0
0.0 0.0 0.0

-3.09392578301719e6 2.308560281048143e7 0.0
2.308560281048143e7 2.462930528009064e6 0.0
0.0 0.0 0.0

-1.33236112833582e6 1.2345920292173808e7 0.0
1.2345920292173808e7 -3.3606316056315345e6 0.0
0.0 0.0 0.0

-4.00717668736796e6 2.3726518388905674e7 0.0
2.3726518388905674e7 2.154193422921507e6 0.0
0.0 0.0 0.0

-3.210362853384127e6 2.2675180334329378e7 0.0
2.2675180334329378e7 2.302768597149334e6 0.0
0.0 0.0 0.0

-3.0303398122557327e6 2.230071547662366e7 0.0
2.230071547662366e7 2.2547519468767e6 0.0
0.0 0.0 0.0

-3.1181339161065808e6 2.1957299281343896e7 0.0
2.1957299281343896e7 2.142780562979996e6 0.0
0.0 0.0 0.0

-3.1983837966308407e6 2.157044220745268e7 0.0
2.157044220745268e7 2.0168781272364075e6 0.0
0.0 0.0 0.0

-3.219258692944126e6 2.1232871485510793e7 0.0
2.1232871485510793e7 1.8631047686758533e6 0.0
0.0 0.0 0.0

-3.3107415016829586e6 2.0859656239711683e7 0.0
2.0859656239711683e7 1.7167107337766553e6 0.0
0.0 0.0 0.0

-3.3169426446431894e6 2.0503913070740785e7 0.0
2.0503913070740785e7 1.5584986845268894e6 0.0
0.0 0.0 0.0

-3.331282179996404e6 2.01133933433926e7 0.0
2.01133933433926e7 1.3577891007972087e6 0.0
0.0 0.0 0.0

-3.309730930449216e6 1.7202334372598168e7 0.0
1.7202334372598168e7 -1.832204343829492e6 0.0
0.0 0.0 0.0

-1.0507341704816142e7 1.3615689776973728e7 0.0
1.3615689776973728e7 1.855786960153466e7 0.0
0.0 0.0 0.0

-4.35807479968059e6 2.4190821687509354e7 0.0
2.4190821687509354e7 2.17679995300234e6 0.0
0.0 0.0 0.0

3.382689734906045e6 7.479723223766938e6 0.0
7.479723223766938e6 -1.5071915521821035e7 0.0
0.0 0.0 0.0

-4.0351369154918445e6 1.705849496876758e7 0.0
1.705849496876758e7 2.289325688622452e6 0.0
0.0 0.0 0.0

-4.908246229314543e6 2.483034407669421e7 0.0
2.483034407669421e7 2.239965885465865e6 0.0
0.0 0.0 0.0

-9.903092761995945e6 7.022469119855366e6 0.0
7.022469119855366e6 1.4463703231800668e7 0.0
0.0 0.0 0.0

-5.589688606967893e6 2.55649636319547e7 0.0
2.55649636319547e7 2.1134334629962407e6 0.0
0.0 0.0 0.0

-1.1532499506156366e7 5.240982351352879e6 0.0
5.240982351352879e6 1.6441555552500509e7 0.0
0.0 0.0 0.0

-6.401629669690708e6 2.6319546371271282e7 0.0
2.6319546371271282e7 1.856752171738272e6 0.0
0.0 0.0 0.0

-208989.2480523251 1.43427018984428e7 0.0
1.43427018984428e7 -1.0854967361779004e7 0.0
0.0 0.0 0.0

2.777059605752998e6 9.293032025319656e6 0.0
9.293032025319656e6 -1.227936771040239e7 0.0
0.0 0.0 0.0

1.3549948174426602e6 1.1256915569203405e7 0.0
1.1256915569203405e7 -2.1561620570787948e7 0.0
0.0 0.0 0.0

-2.7629522162725297e6 1.5425995411371518e7 0.0
1.5425995411371518e7 -1.1199698216854266e6 0.0
0.0 0.0 0.0

-902929.2475460104 1.2487165733089639e7 0.0
1.2487165733089639e7 -6.514027052348712e6 0.0
0.0 0.0 0.0

-2.6828300831088983e6 1.6414291223390874e7 0.0
1.6414291223390874e7 -3.556317904336648e6 0.0
0.0 0.0 0.0

-238934.69263433572 1.4470805866989527e7 0.0
1.4470805866989527e7 -1.0962908240159227e7 0.0
0.0 0.0 0.0

5.333990130954325e6 3.801739449717661e6 0.0
3.801739449717661e6 -1.7710089827642687e7 0.0
0.0 0.0 0.0

-2.9718763611462805e6 9.846335273018269e6 0.0
9.846335273018269e6 1.4762065602614358e6 0.0
0.0 0.0 0.0

-7.417843274882569e6 2.7252994173883885e7 0.0
2.7252994173883885e7 1.7666848326775488e6 0.0
0.0 0.0 0.0

2.2626191585321403e6 9.83302350554122e6 0.0
9.83302350554122e6 -1.0540470337373985e7 0.0
0.0 0.0 0.0

-1.2117744457310114e7 5.670848352113005e6 0.0
5.670848352113005e6 1.8293696081437517e7 0.0
0.0 0.0 0.0

-1.898489953202693e6 1.3739233026543232e7 0.0
1.3739233026543232e7 -2.693573931398926e6 0.0
0.0 0.0 0.0

-3.022481304018965e6 2.139467850438065e7 0.0
2.139467850438065e7 933428.7068736283 0.0
0.0 0.0 0.0

3.6645834433296314e6 7.010359265394546e6 0.0
7.010359265394546e6 -1.5764067461842697e7 0.0
0.0 0.0 0.0

-1.0246222605997046e7 2.5079100653978974e7 0.0
2.5079100653978974e7 6.5517047214529365e6 0.0
0.0 0.0 0.0

-6.711571237405831e6 1.170363832945716e7 0.0
1.170363832945716e7 5.954067870038533e6 0.0
0.0 0.0 0.0

-1.2067663047825739e7 1.9325701391187776e7 0.0
1.9325701391187776e7 4.952854681659852e6 0.0
0.0 0.0 0.0

52472.29530914454 1.4563447066377264e7 0.0
1.4563447066377264e7 6.445079387349864e6 0.0
0.0 0.0 0.0

-9.254356857816475e6 2.8645660564970795e7 0.0
2.8645660564970795e7 1.5273231774730426e6 0.0
0.0 0.0 0.0

2.802928589347508e6 9.610088613587461e6 0.0
9.610088613587461e6 -1.8596158051998354e7 0.0
0.0 0.0 0.0

-5.142715124923497e6 1.150860619957613e7 0.0
1.150860619957613e7 2.6280509508869555e6 0.0
0.0 0.0 0.0

617993.727812349 1.1596879360346833e7 0.0
1.1596879360346833e7 2.059979399061463e6 0.0
0.0 0.0 0.0

2.86086323570845e6 8.054448751571953e6 0.0
8.054448751571953e6 -1.3333916066595402e7 0.0
0.0 0.0 0.0

-46198.84456900146 1.4011070798734551e7 0.0
1.4011070798734551e7 1.9770606450891038e6 0.0
0.0 0.0 0.0

3.1150493135351855e6 7.956724077337553e6 0.0
7.956724077337553e6 -1.4391726095923934e7 0.0
0.0 0.0 0.0

-344636.59808500134 1.2727723072819738e7 0.0
1.2727723072819738e7 -2.5259849303619755e6 0.0
0.0 0.0 0.0

-3.15273581055792e6 1.578439959408404e7 0.0
1.578439959408404e7 -219017.95302001492 0.0
0.0 0.0 0.0

-3.3048827252800236e6 1.5864004917241743e7 0.0
1.5864004917241743e7 -1.9942985439164578e6 0.0
0.0 0.0 0.0

2.2641986632725038e6 8.226864612069907e6 0.0
8.226864612069907e6 -1.1135843601527935e7 0.0
0.0 0.0 0.0

1.1896538432998369e7 1.6911596867811747e7 0.0
1.6911596867811747e7 6.413552119327243e6 0.0
0.0 0.0 0.0

1.8582301995015978e6 1.0537194764067153e7 0.0
1.0537194764067153e7 -1.025977774214454e7 0.0
0.0 0.0 0.0

-534266.6352707762 1.263726177136197e7 0.0
1.263726177136197e7 -5.326001454743374e6 0.0
0.0 0.0 0.0

-4.578410052228299e6 1.6897918793100987e7 0.0
1.6897918793100987e7 4.485442470199152e6 0.0
0.0 0.0 0.0

814323.8582211751 9.751186719676763e6 0.0
9.751186719676763e6 -6.588231600858334e6 0.0
0.0 0.0 0.0

-5.589026309248846e6 1.7622972359163795e7 0.0
1.7622972359163795e7 8.59568772836735e6 0.0
0.0 0.0 0.0

727794.9114087718 1.4737320954246463e7 0.0
1.4737320954246463e7 1.0626009359255563e7 0.0
0.0 0.0 0.0

-7.50859082155523e6 9.11761257245843e6 0.0
9.11761257245843e6 1.093880659360998e7 0.0
0.0 0.0 0.0

-1.198011433176063e7 3.0128479467930496e7 0.0
3.0128479467930496e7 856288.437001843 0.0
0.0 0.0 0.0

-4.926046720771173e6 1.4712551306523195e7 0.0
1.4712551306523195e7 2.3181099696196552e7 0.0
0.0 0.0 0.0

-3.1007775181692624e6 1.2219593314175813e7 0.0
1.2219593314175813e7 -1.658744242737304e6 0.0
0.0 0.0 0.0

5.056023435859501e6 1.4304242660453035e7 0.0
1.4304242660453035e7 -150429.21474024747 0.0
0.0 0.0 0.0

4.0778892666061334e6 6.657235420906784e6 0.0
6.657235420906784e6 -1.7454710017047975e7 0.0
0.0 0.0 0.0

2.652094843278787e6 9.77755781605751e6 0.0
9.77755781605751e6 -2.0845963569146924e7 0.0
0.0 0.0 0.0

-6.877554931603536e6 1.445350344223102e7 0.0
1.445350344223102e7 7.975029921610129e6 0.0
0.0 0.0 0.0

-7.113243796437448e6 2.0063236809251077e7 0.0
2.0063236809251077e7 -1.3808703981761266e6 0.0
0.0 0.0 0.0

-3.2200348859597845e6 1.3829118927860273e7 0.0
1.3829118927860273e7 418515.726569697 0.0
0.0 0.0 0.0

-210977.69541292125 1.2869995134050237e7 0.0
1.2869995134050237e7 -8.633685010236837e6 0.0
0.0 0.0 0.0

-1.2678122140595257e7 2.419747992074301e7 0.0
2.419747992074301e7 8.224709022750013e6 0.0
0.0 0.0 0.0

2.1130226866754377e6 9.88532935234008e6 0.0
9.88532935234008e6 -1.3120437966429915e7 0.0
0.0 0.0 0.0

-3.438850314924533e6 1.4552149613481533e7 0.0
1.4552149613481533e7 734159.8126268196 0.0
0.0 0.0 0.0

-2.198334406777473e6 7.285148654365697e6 0.0
7.285148654365697e6 975887.7520320066 0.0
0.0 0.0 0.0

-5.661543532959474e6 1.4213509801653182e7 0.0
1.4213509801653182e7 6.9402018243932575e6 0.0
0.0 0.0 0.0

-1.638284791332302e7 4.262519504844974e7 0.0
4.262519504844974e7 -1.6588774643421336e6 0.0
0.0 0.0 0.0

-7.086653785343584e6 1.0128503183987806e7 0.0
1.0128503183987806e7 9.94466182866572e6 0.0
0.0 0.0 0.0

-1.334778167078817e6 6.214536356279348e6 0.0
6.214536356279348e6 -1.9038857847627555e6 0.0
0.0 0.0 0.0

-3.0608823022291297e6 1.66435869001681e7 0.0
1.66435869001681e7 -497385.186969118 0.0
0.0 0.0 0.0

-5.014313126409218e6 1.6755199410066558e7 0.0
1.6755199410066558e7 3.231159981426852e6 0.0
0.0 0.0 0.0

-1.1508806155968169e6 1.4918014439479908e7 0.0
1.4918014439479908e7 -5.338370735364085e6 0.0
0.0 0.0 0.0

-3.646232091046394e6 1.6250633233055305e7 0.0
1.6250633233055305e7 -1.1051323153132438e6 0.0
0.0 0.0 0.0

-4.495835082155958e6 2.533376479489486e6 0.0
2.533376479489486e6 5.210147952923072e6 0.0
0.0 0.0 0.0

638432.3979877285 1.2692432896404715e7 0.0
1.2692432896404715e7 -4.173664740345795e6 0.0
0.0 0.0 0.0

-5.069841669222811e6 1.7356832714218646e7 0.0
1.7356832714218646e7 3.446772752229653e6 0.0
0.0 0.0 0.0

1.4399878171990868e6 9.133469018522048e6 0.0
9.133469018522048e6 -9.774415312049914e6 0.0
0.0 0.0 0.0

869469.3457215999 1.3024882646674901e7 0.0
1.3024882646674901e7 -3.6013646413253685e6 0.0
0.0 0.0 0.0

-1.3095259907976704e7 1.833424194540354e7 0.0
1.833424194540354e7 2.8339532982771853e6 0.0
0.0 0.0 0.0

-6.4877277811192805e6 1.089973795468732e7 0.0
1.089973795468732e7 8.933539894458508e6 0.0
0.0 0.0 0.0

56882.91546652326 1.3984504019204782e7 0.0
1.3984504019204782e7 -1.1664009404482499e7 0.0
0.0 0.0 0.0

-5.253487952371977e6 1.7802111467982534e7 0.0
1.7802111467982534e7 5.005260710172711e6 0.0
0.0 0.0 0.0

3.7855599237313187e6 3.807757223485139e6 0.0
3.807757223485139e6 -1.1093465754927628e7 0.0
0.0 0.0 0.0

-486015.8798436243 1.7785727446117762e6 0.0
1.7785727446117762e6 -535339.9070710456 0.0
0.0 0.0 0.0

156774.0311416961 2.2250294002773482e6 0.0
2.2250294002773482e6 -1.3776493715997408e6 0.0
0.0 0.0 0.0

-6.132268764510649e6 -9.04976421042233e6 0.0
-9.04976421042233e6 1.3350813741052525e7 0.0
0.0 0.0 0.0

568553.9730004973 2.7006261384953302e6 0.0
2.7006261384953302e6 -2.5626094511227957e6 0.0
0.0 0.0 0.0

-5.634296612892703e6 -8.019503982503568e6 0.0
-8.019503982503568e6 1.055190204571599e7 0.0
0.0 0.0 0.0

3.520418238421067e6 4.0015862161578187e6 0.0
4.0015862161578187e6 -9.31775877047238e6 0.0
0.0 0.0 0.0

-2.7639088620805535e6 -213869.63892174783 0.0
-213869.63892174783 2.3496158945501894e6 0.0
0.0 0.0 0.0

-4.473441313193742e6 -2.336763557757371e6 0.0
-2.336763557757371e6 5.028485064062048e6 0.0
0.0 0.0 0.0

1.13725769806774e6 3.195268772012966e6 0.0
3.195268772012966e6 -3.90701326606399e6 0.0
0.0 0.0 0.0

-4.424703782121038e6 -6.220892240404046e6 0.0
-6.220892240404046e6 7.1869272040715255e6 0.0
0.0 0.0 0.0

2.8431413047152846e6 4.092791677144391e6 0.0
4.092791677144391e6 -7.482796311698444e6 0.0
0.0 0.0 0.0

2.058946204340945e6 3.9067444872624716e6 0.0
3.9067444872624716e6 -5.837213549582045e6 0.0
0.0 0.0 0.0

-584137.4090826598 1.28447958181133e6 0.0
1.28447958181133e6 4910.113924462581 0.0
0.0 0.0 0.0

5.131626647309444e6 3.902293432703421e6 0.0
3.902293432703421e6 -1.6358037175938733e7 0.0
0.0 0.0 0.0

5.327608626272383e6 3.7841469319389034e6 0.0
3.7841469319389034e6 -1.742258621133607e7 0.0
0.0 0.0 0.0

4.977901263213392e6 3.9407142290348425e6 0.0
3.9407142290348425e6 -1.5395902655968983e7 0.0
0.0 0.0 0.0

4.717044270874063e6 3.9247836342136436e6 0.0
3.9247836342136436e6 -1.3826748250214363e7 0.0
0.0 0.0 0.0

-1.8961032727343151e6 532544.4760996263 0.0
532544.4760996263 1.507570467230258e6 0.0
0.0 0.0 0.0

-4.723354089401606e6 -7.325786516687515e6 0.0
-7.325786516687515e6 8.52234169856277e6 0.0
0.0 0.0 0.0

5.242298069647993e6 3.8869887382762358e6 0.0
3.8869887382762358e6 -1.6935735866588674e7 0.0
0.0 0.0 0.0

4.0826312038934063e6 3.814261133920531e6 0.0
3.814261133920531e6 -1.2386010839005128e7 0.0
0.0 0.0 0.0

4.34939998734772e6 3.831293463475889e6 0.0
3.831293463475889e6 -1.3105683380785547e7 0.0
0.0 0.0 0.0

4.10887926542018e6 3.837552625803616e6 0.0
3.837552625803616e6 -1.1879383581718672e7 0.0
0.0 0.0 0.0

832875.5380726927 1.296704409188447e7 0.0
1.296704409188447e7 -1.0329507194375496e7 0.0
0.0 0.0 0.0

-8.847511075867463e6 8.144566168736085e6 0.0
8.144566168736085e6 1.3367341622410413e7 0.0
0.0 0.0 0.0

-1.2366371315641314e7 3.2091643769755834e6 0.0
3.2091643769755834e6 1.7279515719304502e7 0.0
0.0 0.0 0.0

-5.3912066809729e6 1.8169717337302443e7 0.0
1.8169717337302443e7 7.972058662126383e6 0.0
0.0 0.0 0.0

483194.2772605298 1.2803954313532827e7 0.0
1.2803954313532827e7 -1.5935653613006083e7 0.0
0.0 0.0 0.0

-5.179429854266293e6 1.4661877864386098e7 0.0
1.4661877864386098e7 2.628928228869385e6 0.0
0.0 0.0 0.0

-1.602662501722056e7 3.2323371075948045e7 0.0
3.2323371075948045e7 261723.9415514404 0.0
0.0 0.0 0.0

-3.3957095575808384e6 1.2979914036829833e7 0.0
1.2979914036829833e7 -1.2979361017002824e6 0.0
0.0 0.0 0.0

-2.654546026803402e6 1.5320922355951188e7 0.0
1.5320922355951188e7 -6.946931102884363e6 0.0
0.0 0.0 0.0

2.5110470188971884e6 1.6224289168302713e7 0.0
1.6224289168302713e7 6.192909923779569e6 0.0
0.0 0.0 0.0

-3.035693534535177e6 1.5507413355579073e7 0.0
1.5507413355579073e7 4.905673872696796e6 0.0
0.0 0.0 0.0

-5.588093856749196e6 1.503113835683055e7 0.0
1.503113835683055e7 6.902596022387413e6 0.0
0.0 0.0 0.0

-13493.140350676607 1.5327466155503463e7 0.0
1.5327466155503463e7 -9.285360815935295e6 0.0
0.0 0.0 0.0

-6.018979445226971e6 1.3697559977049386e7 0.0
1.3697559977049386e7 7.872094489841534e6 0.0
0.0 0.0 0.0

-3.9011466693558358e6 1.6645730591751186e7 0.0
1.6645730591751186e7 -295553.47758671886 0.0
0.0 0.0 0.0

-2.921931576894698e6 1.5488406480902022e7 0.0
1.5488406480902022e7 -2.877849100600949e6 0.0
0.0 0.0 0.0

-6.633745944784306e6 1.0531918056842407e7 0.0
1.0531918056842407e7 5.71473441067428e6 0.0
0.0 0.0 0.0

-462219.9898274883 1.2121003182154145e7 0.0
1.2121003182154145e7 -7.327884835276111e6 0.0
0.0 0.0 0.0

-3.4495981916287253e6 1.346130474427065e7 0.0
1.346130474427065e7 1.1083492526876377e6 0.0
0.0 0.0 0.0

1.8688902481000898e6 8.689984414913394e6 0.0
8.689984414913394e6 -1.0450113773952816e7 0.0
0.0 0.0 0.0

-147701.19667593096 1.5531883797267727e6 0.0
1.5531883797267727e6 321981.9298491048 0.0
0.0 0.0 0.0

128813.60523876926 2.1439921354009346e6 0.0
2.1439921354009346e6 -431910.4349572286 0.0
0.0 0.0 0.0

-3.6905109914911157e6 -6.672208580143309e6 0.0
-6.672208580143309e6 1.0147166990341268e7 0.0
0.0 0.0 0.0

-552338.8578843734 1.2452109767375614e6 0.0
1.2452109767375614e6 914744.9291436116 0.0
0.0 0.0 0.0

-1.714321497400566e6 377383.1940983702 0.0
377383.1940983702 2.599605804944168e6 0.0
0.0 0.0 0.0

5.135352708057945e6 3.9057147333609983e6 0.0
3.9057147333609983e6 -1.6420822366707604e7 0.0
0.0 0.0 0.0

5.173288431327843e6 3.8327075842659734e6 0.0
3.8327075842659734e6 -1.683460031601394e7 0.0
0.0 0.0 0.0

-4.679201260151376e6 -7.432183521512014e6 0.0
-7.432183521512014e6 1.1852368404262874e7 0.0
0.0 0.0 0.0

4.523339761868653e6 3.958963132159716e6 0.0
3.958963132159716e6 -1.3225123745785471e7 0.0
0.0 0.0 0.0

4.0525324274864686e6 3.9407951765356814e6 0.0
3.9407951765356814e6 -1.116646244106359e7 0.0
0.0 0.0 0.0

4.277546669306768e6 3.907247577068864e6 0.0
3.907247577068864e6 -1.2370205177047882e7 0.0
0.0 0.0 0.0

4.113023883061656e6 3.8495618030411336e6 0.0
3.8495618030411336e6 -1.178382367625196e7 0.0
0.0 0.0 0.0

-3.8810985533341896e6 1.2151203728585359e7 0.0
1.2151203728585359e7 -19088.124584169127 0.0
0.0 0.0 0.0

-1.0336675110109726e7 1.4037891401990011e7 0.0
1.4037891401990011e7 1.7643358498222552e7 0.0
0.0 0.0 0.0

-6.704611853254499e6 1.3414593948605496e7 0.0
1.3414593948605496e7 9.686238122463726e6 0.0
0.0 0.0 0.0

4.464748373953927e6 5.978011238653937e6 0.0
5.978011238653937e6 -1.478012983661804e7 0.0
0.0 0.0 0.0

-2.8264854121122826e6 1.815671954095654e7 0.0
1.815671954095654e7 -2.532165556829923e6 0.0
0.0 0.0 0.0

-4.012499890964416e6 1.5987756704271518e7 0.0
1.5987756704271518e7 1.2196607482190175e7 0.0
0.0 0.0 0.0

-1.2133268091750212e7 9.298694941733697e6 0.0
9.298694941733697e6 1.5060889115442049e7 0.0
0.0 0.0 0.0

2.5738555350649273e6 8.497606723799078e6 0.0
8.497606723799078e6 -1.2629408419115035e7 0.0
0.0 0.0 0.0

2.0659636351127988e6 1.0171539250877917e7 0.0
1.0171539250877917e7 -1.3432206497276785e7 0.0
0.0 0.0 0.0

-2.7419817314980933e6 1.488267509923998e7 0.0
1.488267509923998e7 -3.214860127755326e6 0.0
0.0 0.0 0.0

-5.271025747820315e6 1.5865404564392058e7 0.0
1.5865404564392058e7 1.379383889322796e7 0.0
0.0 0.0 0.0

-2.536110774770112e6 8.924664409396121e6 0.0
8.924664409396121e6 964253.9813867218 0.0
0.0 0.0 0.0

-1.4777915791872335e6 1.5323730344481252e7 0.0
1.5323730344481252e7 -4.4972785092433775e6 0.0
0.0 0.0 0.0

-3.4914145025233915e6 1.814639770485209e7 0.0
1.814639770485209e7 910071.9320950368 0.0
0.0 0.0 0.0

1.4265884925430901e6 1.1184356451088684e7 0.0
1.1184356451088684e7 -1.0095448729084188e7 0.0
0.0 0.0 0.0

-2.932176918330708e6 1.6044567774596483e7 0.0
1.6044567774596483e7 -798445.7013373201 0.0
0.0 0.0 0.0

549267.7865456871 2.3305267710258113e6 0.0
2.3305267710258113e6 2.851359145628733e6 0.0
0.0 0.0 0.0

-5.53335312425673e6 1.5879482389303742e7 0.0
1.5879482389303742e7 1.3492842230105277e7 0.0
0.0 0.0 0.0

3.233682760884539e6 8.940071910334975e6 0.0
8.940071910334975e6 -2.3877581698969506e7 0.0
0.0 0.0 0.0

2.775870970018139e6 9.649424932047678e6 0.0
9.649424932047678e6 -1.9738812201556116e7 0.0
0.0 0.0 0.0

-1.2325507909222327e6 1.4741846362601269e7 0.0
1.4741846362601269e7 -4.851652566109233e6 0.0
0.0 0.0 0.0

-7.50136455115339e6 1.796106893365349e7 0.0
1.796106893365349e7 4.3709999103911575e6 0.0
0.0 0.0 0.0

2.9056496712378943e6 6.203387097360073e6 0.0
6.203387097360073e6 -8.904406753914787e6 0.0
0.0 0.0 0.0

-2.96895964574976e6 1.3084466650948497e7 0.0
1.3084466650948497e7 100412.36875075055 0.0
0.0 0.0 0.0

-3.5338025476145875e6 1.5640238500388466e7 0.0
1.5640238500388466e7 -1.4224806785364354e6 0.0
0.0 0.0 0.0

-2.713597530171279e6 1.6267480801183185e7 0.0
1.6267480801183185e7 -1.3699603862279006e6 0.0
0.0 0.0 0.0

586870.1945924042 1.2772832022998428e7 0.0
1.2772832022998428e7 -1.7092343788901042e7 0.0
0.0 0.0 0.0

2.4731069462407734e6 1.000323001029301e7 0.0
1.000323001029301e7 -1.6733679607735509e7 0.0
0.0 0.0 0.0

-3.6643903629025705e6 9.221700605801167e6 0.0
9.221700605801167e6 551448.2345814733 0.0
0.0 0.0 0.0

-6.712710026227232e6 1.4127543969467556e7 0.0
1.4127543969467556e7 7.144755911670173e6 0.0
0.0 0.0 0.0

1.5290848557918193e6 1.1884492400852863e7 0.0
1.1884492400852863e7 -1.767989997983366e7 0.0
0.0 0.0 0.0

-2.1903531525345733e6 1.6812034686182275e7 0.0
1.6812034686182275e7 -2.938930482183306e6 0.0
0.0 0.0 0.0

2.400746789192228e6 3.9926799103998872e6 0.0
3.9926799103998872e6 -6.451596421437725e6 0.0
0.0 0.0 0.0

-983979.1264452874 2.2590807794199e7 0.0
2.2590807794199e7 -1.3118011233492524e6 0.0
0.0 0.0 0.0

2.4970832113730027e6 6.715884560453016e6 0.0
6.715884560453016e6 -8.289650644372275e6 0.0
0.0 0.0 0.0

-996604.7669477614 1.1613763645766707e7 0.0
1.1613763645766707e7 -3.699999813855408e6 0.0
0.0 0.0 0.0

-6.442039819445059e6 1.6312256499506494e7 0.0
1.6312256499506494e7 8.948142923602238e6 0.0
0.0 0.0 0.0

-2.4964255320932716e6 1.0985079297565423e7 0.0
1.0985079297565423e7 73094.3617082244 0.0
0.0 0.0 0.0

-2.891906053452785e6 1.259795128812427e7 0.0
1.259795128812427e7 -2.2497053695283956e6 0.0
0.0 0.0 0.0

-3.879077368256463e6 1.6003024271405509e7 0.0
1.6003024271405509e7 -533742.6231423061 0.0
0.0 0.0 0.0

-3.1485537611315465e6 8.295770756615626e6 0.0
8.295770756615626e6 35187.03921021498 0.0
0.0 0.0 0.0

-4.0136347172637363e6 1.958707899908318e6 0.0
1.958707899908318e6 5.093253090181958e6 0.0
0.0 0.0 0.0

-5.687020996549074e6 1.3309225566153372e7 0.0
1.3309225566153372e7 6.930517228660011e6 0.0
0.0 0.0 0.0

-4.7126323885774575e6 1.4746668432456864e7 0.0
1.4746668432456864e7 4.1763762355463663e6 0.0
0.0 0.0 0.0

920973.8571206252 6.544205452682131e6 0.0
6.544205452682131e6 -6.339731396383278e6 0.0
0.0 0.0 0.0

-6.138763466094086e6 1.171600483786384e7 0.0
1.171600483786384e7 7.868750092165644e6 0.0
0.0 0.0 0.0

-3.4238508721703086e6 1.646669916458397e7 0.0
1.646669916458397e7 -1.6605765927114682e6 0.0
0.0 0.0 0.0

3.9649051216607476e6 8.076744291950144e6 0.0
8.076744291950144e6 -1.726135552353584e7 0.0
0.0 0.0 0.0

-5.930021809494294e6 1.8114316089194447e7 0.0
1.8114316089194447e7 3.7218617451676936e6 0.0
0.0 0.0 0.0

-2.531388490247826e6 1.4249008596667413e7 0.0
1.4249008596667413e7 -3.5576708236067663e6 0.0
0.0 0.0 0.0

2.256635099675296e6 4.027214764468826e6 0.0
4.027214764468826e6 -5.674044646248393e6 0.0
0.0 0.0 0.0

-5.203686711313125e6 1.9492686633677024e7 0.0
1.9492686633677024e7 6.2220348070492465e6 0.0
0.0 0.0 0.0

-1.0694895684496704e7 5.7000407307059765e6 0.0
5.7000407307059765e6 1.2222428983909726e7 0.0
0.0 0.0 0.0

-2.9469729386215126e6 1.3664613689379266e7 0.0
1.3664613689379266e7 -2.4775194758703867e6 0.0
0.0 0.0 0.0

-2.9786560392383123e6 1.7389211962897018e7 0.0
1.7389211962897018e7 -783578.2213493694 0.0
0.0 0.0 0.0

-4.050507973935881e6 1.7811613254482374e7 0.0
1.7811613254482374e7 339327.4169271842 0.0
0.0 0.0 0.0

-3.0794782917806963e6 1.6079013342213858e7 0.0
1.6079013342213858e7 -2.5398345920172776e6 0.0
0.0 0.0 0.0

-3.512837344057655e6 1.6148923962270359e7 0.0
1.6148923962270359e7 647868.5460272427 0.0
0.0 0.0 0.0

3.0168934681177833e6 4.034254635195256e6 0.0
4.034254635195256e6 -8.05094264306413e6 0.0
0.0 0.0 0.0

-2.997008147609342e6 1.9374478537918046e7 0.0
1.9374478537918046e7 -1.6062361297233058e6 0.0
0.0 0.0 0.0

-7.208069116481772e6 1.5986019319358885e7 0.0
1.5986019319358885e7 -3.55405233283542e7 0.0
0.0 0.0 0.0

7.352536706075705e6 1.5533624567037778e7 0.0
1.5533624567037778e7 3.911449509147073e7 0.0
0.0 0.0 0.0

1.1604311754176049e6 1.198917365381693e7 0.0
1.198917365381693e7 -1.2837593665078953e7 0.0
0.0 0.0 0.0

-1.8845032161785695e6 1.5690377604106998e7 0.0
1.5690377604106998e7 -3.6566323402780816e6 0.0
0.0 0.0 0.0

-1.3313135194632849e6 1.2465194251896113e7 0.0
1.2465194251896113e7 -1.337443554113464e7 0.0
0.0 0.0 0.0

-2.2769790107063735e6 1.3599758962434655e7 0.0
1.3599758962434655e7 -3.9190563454119368e6 0.0
0.0 0.0 0.0

-396745.86945857387 1.5602659845573757e7 0.0
1.5602659845573757e7 -8.770156517797614e6 0.0
0.0 0.0 0.0

-1.3717048610189934e6 1.2862608088737052e7 0.0
1.2862608088737052e7 -5.659496352680889e6 0.0
0.0 0.0 0.0

-4.0678403073181454e6 1.577962156617335e7 0.0
1.577962156617335e7 38746.93653654144 0.0
0.0 0.0 0.0

3.734851826479858e6 8.16794055873983e6 0.0
8.16794055873983e6 -2.8598802034342285e7 0.0
0.0 0.0 0.0

-6.443557007764108e6 1.70936869973371e7 0.0
1.70936869973371e7 2.7154049211091865e6 0.0
0.0 0.0 0.0

-5.534275820741676e6 1.6160952400063567e7 0.0
1.6160952400063567e7 4.6805071758036725e6 0.0
0.0 0.0 0.0

-1.0047492706268039e6 1.3003563481210355e7 0.0
1.3003563481210355e7 -4.471034796024563e6 0.0
0.0 0.0 0.0

2.220581032400932e6 1.0434069536639204e7 0.0
1.0434069536639204e7 -1.5902751653531767e7 0.0
0.0 0.0 0.0

7.589776227934995e6 1.5716533647819063e7 0.0
1.5716533647819063e7 2.5299253266342815e7 0.0
0.0 0.0 0.0

-1.4546183910068485e6 1.597351401611832e7 0.0
1.597351401611832e7 -5.652851437232457e6 0.0
0.0 0.0 0.0

-2.3731784927759483e7 3.5738876757030256e7 0.0
3.5738876757030256e7 -24391.877039466053 0.0
0.0 0.0 0.0

1.4129213906684453e6 1.1582957079930164e7 0.0
1.1582957079930164e7 -1.3584381814370997e7 0.0
0.0 0.0 0.0

-2.36125360714781e6 1.5887417262705976e7 0.0
1.5887417262705976e7 -2.258960996168405e6 0.0
0.0 0.0 0.0

2.8488528486348786e6 4.0961924074134934e6 0.0
4.0961924074134934e6 -7.479061990537099e6 0.0
0.0 0.0 0.0

3.722390141450784e6 7.429929185092152e6 0.0
7.429929185092152e6 -1.706942801197594e7 0.0
0.0 0.0 0.0

-3.416824470185542e6 1.7606980813564584e7 0.0
1.7606980813564584e7 656247.4882601078 0.0
0.0 0.0 0.0

-2.6540792119274894e6 1.3556159579452638e7 0.0
1.3556159579452638e7 -2.2430937063293003e7 0.0
0.0 0.0 0.0

-1.4509940884859625e6 1.3375420282448297e7 0.0
1.3375420282448297e7 -3.5894169383969926e6 0.0
0.0 0.0 0.0

1.428418670751494e6 1.004787231518437e7 0.0
1.004787231518437e7 -8.314333211254532e6 0.0
0.0 0.0 0.0

-3.6656897572591407e6 1.1696570687586673e7 0.0
1.1696570687586673e7 2.3368683050127616e6 0.0
0.0 0.0 0.0

1.7276173973408286e6 1.12066089278523e7 0.0
1.12066089278523e7 -1.4381143393506695e7 0.0
0.0 0.0 0.0

-4.512335848697901e6 1.111141529601407e7 0.0
1.111141529601407e7 1.4494321734498218e6 0.0
0.0 0.0 0.0

324159.39707788546 1.3631590796534417e7 0.0
1.3631590796534417e7 -1.2463636174598176e7 0.0
0.0 0.0 0.0

-1.3785737314154403e7 2.205054532999012e7 0.0
2.205054532999012e7 -836715.3378140111 0.0
0.0 0.0 0.0

-3.757056862606284e6 -942779.2676351661 0.0
-942779.2676351661 3.2137678950783797e6 0.0
0.0 0.0 0.0

-4.607435120711088e6 1.15258579740231e7 0.0
1.15258579740231e7 4.413091716704186e6 0.0
0.0 0.0 0.0

-3.2752231290494506e6 1.6399092747995855e7 0.0
1.6399092747995855e7 93968.29274183116 0.0
0.0 0.0 0.0

-1.0499669222486397e7 -1.966433091381281e6 0.0
-1.966433091381281e6 3.0881337678367812e7 0.0
0.0 0.0 0.0

-1.1760865894300663e6 1.5133696940538907e7 0.0
1.5133696940538907e7 7.068756831924084e6 0.0
0.0 0.0 0.0

-1.8259574889144998e6 1.3229030931546604e7 0.0
1.3229030931546604e7 -4.803698118973046e6 0.0
0.0 0.0 0.0

-697330.455655175 1.5563173147337634e7 0.0
1.5563173147337634e7 -7.77286143806214e6 0.0
0.0 0.0 0.0

-1.1846163442345485e6 1.415106602779118e7 0.0
1.415106602779118e7 -6.711726563566497e6 0.0
0.0 0.0 0.0

-905159.3212223354 1.11478115737191e7 0.0
1.11478115737191e7 -5.804947821462575e6 0.0
0.0 0.0 0.0

-2.3666520823509535e6 1.5304221191534778e7 0.0
1.5304221191534778e7 -4.261639148856689e6 0.0
0.0 0.0 0.0

-6.446454473221557e6 1.4284141739215007e7 0.0
1.4284141739215007e7 9.499477942615189e6 0.0
0.0 0.0 0.0

-3.6452322354566306e6 1.4208210573331637e7 0.0
1.4208210573331637e7 1.4043850161947291e6 0.0
0.0 0.0 0.0

-3.1688316797307497e6 1.3329874371960476e7 0.0
1.3329874371960476e7 -1.9070834292192173e6 0.0
0.0 0.0 0.0

4.302587382700833e6 7.218472696719515e6 0.0
7.218472696719515e6 -2.1108082249361325e7 0.0
0.0 0.0 0.0

-5.461080533749689e6 1.990417466023747e7 0.0
1.990417466023747e7 6.541187748887992e6 0.0
0.0 0.0 0.0

-1.0886184652796122e6 3.7990156917012534e6 0.0
3.7990156917012534e6 376031.35884775413 0.0
0.0 0.0 0.0

-6.257171408814963e6 1.4017419156754158e7 0.0
1.4017419156754158e7 8.719127174333507e6 0.0
0.0 0.0 0.0

914436.7426995584 1.0121863646475337e7 0.0
1.0121863646475337e7 -7.077031914976614e6 0.0
0.0 0.0 0.0

4.441101407432268e6 4.65516487899198e6 0.0
4.65516487899198e6 -1.4167484584200442e7 0.0
0.0 0.0 0.0

1.9702725077649755e6 1.0792349078011742e7 0.0
1.0792349078011742e7 -1.5193786946352443e7 0.0
0.0 0.0 0.0

-2.0131094208129833e6 6.42371775091405e6 0.0
6.42371775091405e6 -986162.7395754838 0.0
0.0 0.0 0.0

-1.303254847818033e7 9.23844470826736e6 0.0
9.23844470826736e6 1.7859363050219677e7 0.0
0.0 0.0 0.0

-2.3388855617784047e6 1.4507182965111552e7 0.0
1.4507182965111552e7 -4.0922529047718807e6 0.0
0.0 0.0 0.0

-2.743952656400377e6 -333789.6070859765 0.0
-333789.6070859765 4.489754770647841e6 0.0
0.0 0.0 0.0

-4.1345071080901697e6 1.016527766916225e7 0.0
1.016527766916225e7 1.0225774331918834e6 0.0
0.0 0.0 0.0

-956620.5986720514 1.5960353045992171e7 0.0
1.5960353045992171e7 -6.890884949183758e6 0.0
0.0 0.0 0.0

-322057.5085375323 1.3618693527289212e7 0.0
1.3618693527289212e7 -1.3145151227697534e7 0.0
0.0 0.0 0.0

1.4980952687329384e6 1.0129920873942418e7 0.0
1.0129920873942418e7 -1.1007431492019061e7 0.0
0.0 0.0 0.0

172894.2347286346 8.176316922533852e6 0.0
8.176316922533852e6 -5.924879356484403e6 0.0
0.0 0.0 0.0

-1.7247492551968805e6 1.4035128883836277e7 0.0
1.4035128883836277e7 -3.2441942688236637e6 0.0
0.0 0.0 0.0

-7.011788852081986e6 1.5406051308891423e7 0.0
1.5406051308891423e7 1.5285776765716054e7 0.0
0.0 0.0 0.0

-3.8563195280958544e6 1.793054080811077e7 0.0
1.793054080811077e7 -205184.20919915976 0.0
0.0 0.0 0.0

-9.036999858234067e6 1.423062064864675e7 0.0
1.423062064864675e7 1.3208665423885472e7 0.0
0.0 0.0 0.0

-5.7049356145532895e6 1.631069804433856e7 0.0
1.631069804433856e7 8.185660447973865e6 0.0
0.0 0.0 0.0

513755.4021124714 9.17793299226201e6 0.0
9.17793299226201e6 -7.292505140294914e6 0.0
0.0 0.0 0.0

-3.3534114963145396e6 1.0775008641891282e7 0.0
1.0775008641891282e7 1.9414479527714502e6 0.0
0.0 0.0 0.0

-2.325291806243657e6 1.5100838994829569e7 0.0
1.5100838994829569e7 7.426431896959332e6 0.0
0.0 0.0 0.0

-1.3728730199509638e6 1.15331857177817e7 0.0
1.15331857177817e7 -4.9469690708316e6 0.0
0.0 0.0 0.0

1.31208024171104e6 1.2084315145290319e7 0.0
1.2084315145290319e7 -1.656650640661868e7 0.0
0.0 0.0 0.0

-1.9715852993332085e6 1.4671173814186122e7 0.0
1.4671173814186122e7 -2.901903179405815e6 0.0
0.0 0.0 0.0

854324.1072609839 1.235868404136639e7 0.0
1.235868404136639e7 -1.2094648530901743e7 0.0
0.0 0.0 0.0

-3.4121710550649716e6 1.2203879643668963e7 0.0
1.2203879643668963e7 1.533388890563911e6 0.0
0.0 0.0 0.0

-3.712568728112748e6 1.2965775996472942e7 0.0
1.2965775996472942e7 -1.68614500481216e7 0.0
0.0 0.0 0.0

-2.1821922244308386e6 1.5288897989494782e7 0.0
1.5288897989494782e7 -2.5835825498113967e6 0.0
0.0 0.0 0.0

2.8512916357893962e6 1.4458018522892516e7 0.0
1.4458018522892516e7 -2.514830517562672e6 0.0
0.0 0.0 0.0

-1.0859534726722263e7 -5776.905408098994 0.0
-5776.905408098994 3.014672073067021e7 0.0
0.0 0.0 0.0

-7.625806062897889e6 2.4632531886958815e7 0.0
2.4632531886958815e7 5.968005965305947e6 0.0
0.0 0.0 0.0

-3.845043006048477e6 1.5962971180521127e7 0.0
1.5962971180521127e7 6.333804661918428e6 0.0
0.0 0.0 0.0

-1.2065006195527717e7 1.0726639628098147e7 0.0
1.0726639628098147e7 1.9096721058145918e7 0.0
0.0 0.0 0.0

-5.257231955925271e6 1.8172344029188745e7 0.0
1.8172344029188745e7 7.389793941967847e6 0.0
0.0 0.0 0.0

-2.6740098094872357e6 1.2305594515224691e7 0.0
1.2305594515224691e7 -254588.80834644497 0.0
0.0 0.0 0.0

-861673.4808525782 1.3288334006951392e7 0.0
1.3288334006951392e7 -4.991461075166883e6 0.0
0.0 0.0 0.0

-1.5467866049688053e6 1.42996809870023e7 0.0
1.42996809870023e7 -3.7815046417971146e6 0.0
0.0 0.0 0.0

-556770.651723111 8.638835172180727e6 0.0
8.638835172180727e6 -2.5979704585744655e6 0.0
0.0 0.0 0.0

-1.236056983345362e6 1.6367543316394983e7 0.0
1.6367543316394983e7 -6.064715276303925e6 0.0
0.0 0.0 0.0

3.5649840214641625e6 6.468217154443591e6 0.0
6.468217154443591e6 -1.3909834828112904e7 0.0
0.0 0.0 0.0

1.8137331647585435e6 6.256414926970076e6 0.0
6.256414926970076e6 -8.0481484211135665e6 0.0
0.0 0.0 0.0

-6.085691001068603e6 1.5950444980508922e7 0.0
1.5950444980508922e7 9.62971993133977e6 0.0
0.0 0.0 0.0

-3.567210194687842e6 1.7572689024604786e7 0.0
1.7572689024604786e7 -1.0600814667645057e6 0.0
0.0 0.0 0.0

2.116090298366829e6 1.4904608083729682e7 0.0
1.4904608083729682e7 -3.905729117746626e6 0.0
0.0 0.0 0.0

-9.47446897628919e6 1.9331605209195696e7 0.0
1.9331605209195696e7 5.188490725576141e6 0.0
0.0 0.0 0.0

2.500420071753503e6 6.08998975659945e6 0.0
6.08998975659945e6 -1.0221902369557597e7 0.0
0.0 0.0 0.0

-1.8906853991568e6 1.1873800217449313e7 0.0
1.1873800217449313e7 -4.088787105114355e6 0.0
0.0 0.0 0.0

2.392173753795257e7 1.2091158076987261e7 0.0
1.2091158076987261e7 52244.24034814257 0.0
0.0 0.0 0.0

304738.77387886075 8.46196694863515e6 0.0
8.46196694863515e6 -6.5821880754026435e6 0.0
0.0 0.0 0.0

3.911929670714697e6 6.591529577575804e6 0.0
6.591529577575804e6 -1.638239012759591e7 0.0
0.0 0.0 0.0

-9.951292584363583e6 1.4267712127055474e7 0.0
1.4267712127055474e7 1.6896701151648518e7 0.0
0.0 0.0 0.0

752174.2966321697 1.2995245155013831e7 0.0
1.2995245155013831e7 -1.2941906030261464e7 0.0
0.0 0.0 0.0

-7.141828607193937e6 7.5200663130206885e6 0.0
7.5200663130206885e6 1.093331930534767e7 0.0
0.0 0.0 0.0

-1.0462775380456675e7 2.4152753836160667e7 0.0
2.4152753836160667e7 7.03902007423665e6 0.0
0.0 0.0 0.0

-9.568693574195351e6 1.4379002108510876e7 0.0
1.4379002108510876e7 1.6326128911475867e7 0.0
0.0 0.0 0.0

-5.275319532705747e6 1.8629979808496665e7 0.0
1.8629979808496665e7 7.348799260081926e6 0.0
0.0 0.0 0.0

-9.958595976804055e6 2.0363971193384998e7 0.0
2.0363971193384998e7 -100833.0595282414 0.0
0.0 0.0 0.0

-3.8826062524943654e6 1.3360032187689668e7 0.0
1.3360032187689668e7 -312667.60014043876 0.0
0.0 0.0 0.0

2.398078111866069e7 5.800970245174716e6 0.0
5.800970245174716e6 -3.262485104607626e6 0.0
0.0 0.0 0.0

-875422.489319626 1.4583599260376e7 0.0
1.4583599260376e7 -6.1716769048192315e6 0.0
0.0 0.0 0.0

-1.0311366051912771e6 1.061446537663966e7 0.0
1.061446537663966e7 -900397.5207446017 0.0
0.0 0.0 0.0

-1.5356252057165995e6 1.676332901068645e7 0.0
1.676332901068645e7 -5.203075260918889e6 0.0
0.0 0.0 0.0

-6.383479335950506e6 1.7233286597596593e7 0.0
1.7233286597596593e7 -2.4447210606135107e6 0.0
0.0 0.0 0.0

488474.4812653675 7.936187643477333e6 0.0
7.936187643477333e6 -4.0970766562600667e6 0.0
0.0 0.0 0.0

-5.271503646150144e6 1.6044999751821173e7 0.0
1.6044999751821173e7 1.0117330420536576e7 0.0
0.0 0.0 0.0

-856641.7054042341 1.264088138715471e7 0.0
1.264088138715471e7 -1.2966217037161028e7 0.0
0.0 0.0 0.0

-1.1949122521749582e7 1.0709283118965544e6 0.0
1.0709283118965544e6 1.7292247700029563e7 0.0
0.0 0.0 0.0

-3.793092619033721e6 1.7401078362321395e7 0.0
1.7401078362321395e7 -537185.4617172234 0.0
0.0 0.0 0.0

-2.4795506925687743e6 1.2711725018102497e7 0.0
1.2711725018102497e7 -896492.3592992229 0.0
0.0 0.0 0.0

-3.2229165832660575e6 1.776607056149894e7 0.0
1.776607056149894e7 35665.56088350853 0.0
0.0 0.0 0.0

93274.84124079999 1.3300241815838631e7 0.0
1.3300241815838631e7 -8.006077805815515e6 0.0
0.0 0.0 0.0

-2.9972243470028136e6 6.659885864767964e6 0.0
6.659885864767964e6 2.5881972059654924e6 0.0
0.0 0.0 0.0

-5.184152011305814e6 1.8307478806717757e7 0.0
1.8307478806717757e7 5.090172176518513e6 0.0
0.0 0.0 0.0

-6.430527843676712e6 1.5627729451432245e7 0.0
1.5627729451432245e7 1.1820811019451229e7 0.0
0.0 0.0 0.0

-5.922081218633115e6 1.5596586028928507e7 0.0
1.5596586028928507e7 8.400007195327386e6 0.0
0.0 0.0 0.0

-534280.2972638493 1.12755199432849e7 0.0
1.12755199432849e7 -4.555525993823654e6 0.0
0.0 0.0 0.0

2.56893281317537e6 9.999759840545237e6 0.0
9.999759840545237e6 -1.7777390769107323e7 0.0
0.0 0.0 0.0

-4.465766492962326e6 1.4496729779804489e7 0.0
1.4496729779804489e7 958161.0527238918 0.0
0.0 0.0 0.0

-436110.6655363585 1.4263630283556184e7 0.0
1.4263630283556184e7 -9.555695925541898e6 0.0
0.0 0.0 0.0

-215420.32359514013 1.3137261511462329e7 0.0
1.3137261511462329e7 -9.005773358784437e6 0.0
0.0 0.0 0.0

-2.7016224866086976e6 1.7675669835768763e7 0.0
1.7675669835768763e7 -3.3535531615240034e6 0.0
0.0 0.0 0.0

-1.4542976798655821e6 1.4746138223949557e7 0.0
1.4746138223949557e7 -6.269320725406596e6 0.0
0.0 0.0 0.0

2.236992808139368e6 1.0215306850643603e7 0.0
1.0215306850643603e7 -1.4561666640691072e7 0.0
0.0 0.0 0.0

1.7548904134186092e6 6.254354323272987e6 0.0
6.254354323272987e6 -5.889426521549472e6 0.0
0.0 0.0 0.0

-309492.4059799163 5.842794813580429e6 0.0
5.842794813580429e6 -1.3253270748103394e6 0.0
0.0 0.0 0.0

-2.8922794326962433e6 2.2457364500253662e7 0.0
2.2457364500253662e7 1.5482242113375461e6 0.0
0.0 0.0 0.0

-4.337391067033363e6 1.3744588555278193e7 0.0
1.3744588555278193e7 678086.3662352464 0.0
0.0 0.0 0.0

-2.227881997084995e6 1.5504306924552465e7 0.0
1.5504306924552465e7 -4.759925788359114e6 0.0
0.0 0.0 0.0

3.4335257883490836e6 4.775556345048554e6 0.0
4.775556345048554e6 -9.87868643610077e6 0.0
0.0 0.0 0.0

-1.1734683022850212e7 2.2758436155265607e6 0.0
2.2758436155265607e6 2.9886194624442264e7 0.0
0.0 0.0 0.0

2.274364469439132e6 8.573350380284715e6 0.0
8.573350380284715e6 -1.1547099129685106e7 0.0
0.0 0.0 0.0

132170.1274369806 1.8210057421216093e7 0.0
1.8210057421216093e7 -5.034034861148162e6 0.0
0.0 0.0 0.0

-2.1769441691506472e6 1.8716155986289807e7 0.0
1.8716155986289807e7 -2.8227308142410745e6 0.0
0.0 0.0 0.0

-5.0477053225485915e6 1.8597634888438366e7 0.0
1.8597634888438366e7 4.496638095502285e6 0.0
0.0 0.0 0.0

5.011328501368442e6 4.587321097994154e6 0.0
4.587321097994154e6 -1.8514957216442026e7 0.0
0.0 0.0 0.0

-2.187487534161676e6 1.6086885234377012e7 0.0
1.6086885234377012e7 -2.801201540259214e6 0.0
0.0 0.0 0.0

-2.1365165730237756e6 1.691030968367646e7 0.0
1.691030968367646e7 -3.4496895161991464e6 0.0
0.0 0.0 0.0

3.8742948553589256e6 7.058430376647872e6 0.0
7.058430376647872e6 -1.7771776987392075e7 0.0
0.0 0.0 0.0

-3.2916131203199164e6 1.8875559210302792e7 0.0
1.8875559210302792e7 -1.0691116352469393e6 0.0
0.0 0.0 0.0

189375.07636582386 1.5671660744894149e7 0.0
1.5671660744894149e7 -6.846558736390881e6 0.0
0.0 0.0 0.0

-2.720268312569502e6 1.5692926687612973e7 0.0
1.5692926687612973e7 -3.41289774794146e6 0.0
0.0 0.0 0.0

1.1189694464992844e6 1.242912584464847e7 0.0
1.242912584464847e7 -1.7438932523541063e7 0.0
0.0 0.0 0.0

2.102676127520759e6 6.602086506692084e6 0.0
6.602086506692084e6 -9.550633425940322e6 0.0
0.0 0.0 0.0

1.0680098228913154e6 9.91552959209817e6 0.0
9.91552959209817e6 -9.51893196801336e6 0.0
0.0 0.0 0.0

-1.8484180400794672e6 1.6120222645382509e7 0.0
1.6120222645382509e7 -5.083833112557754e6 0.0
0.0 0.0 0.0

-254175.52735982183 1.5710831851882992e7 0.0
1.5710831851882992e7 -7.655634498826744e6 0.0
0.0 0.0 0.0

-1.8091881875022205e6 1.5067382311810166e7 0.0
1.5067382311810166e7 -5.536094271321125e6 0.0
0.0 0.0 0.0

3.0027806695138724e6 7.12654386429594e6 0.0
7.12654386429594e6 -9.750238029996889e6 0.0
0.0 0.0 0.0

4.825320637309283e6 5.382079606636943e6 0.0
5.382079606636943e6 -1.6052365372740107e7 0.0
0.0 0.0 0.0

189576.5695875557 1.3126030784432618e7 0.0
1.3126030784432618e7 -1.0565151556931185e7 0.0
0.0 0.0 0.0

632392.7650201074 1.0330391334021846e7 0.0
1.0330391334021846e7 -8.75436169830648e6 0.0
0.0 0.0 0.0

-3.622334541128869e6 1.2585182598519158e7 0.0
1.2585182598519158e7 -667406.4059789458 0.0
0.0 0.0 0.0

-8.16197238881584e6 1.975078780939438e7 0.0
1.975078780939438e7 5.943461220255719e6 0.0
0.0 0.0 0.0

-5.971965928879879e6 1.1680081126939056e7 0.0
1.1680081126939056e7 5.019150355561361e7 0.0
0.0 0.0 0.0

-1.1851032357677631e7 1.4795082703883944e6 0.0
1.4795082703883944e6 1.584921298808927e7 0.0
0.0 0.0 0.0

-2.014233773905408e6 1.7651650561987866e7 0.0
1.7651650561987866e7 -5.135969087114094e6 0.0
0.0 0.0 0.0

-4.1318777240307527e6 1.2967670486491995e7 0.0
1.2967670486491995e7 346317.80788405985 0.0
0.0 0.0 0.0

-1.1926421180458667e7 3.905154669462428e6 0.0
3.905154669462428e6 2.3612644962076124e7 0.0
0.0 0.0 0.0

4.528974451282809e6 5.430330829439842e6 0.0
5.430330829439842e6 -1.4642867417636039e7 0.0
0.0 0.0 0.0

-3.8793472016900964e6 1.3859206324582832e7 0.0
1.3859206324582832e7 2.1874232634508107e6 0.0
0.0 0.0 0.0

861055.0487072747 1.27485487416048e7 0.0
1.27485487416048e7 -1.4044056381315473e7 0.0
0.0 0.0 0.0

-1.7764487912071915e6 1.7220420791918684e7 0.0
1.7220420791918684e7 -4.40595009408229e6 0.0
0.0 0.0 0.0

-2.012984969755418e6 1.624976029718328e7 0.0
1.624976029718328e7 -3.31858749312975e6 0.0
0.0 0.0 0.0

-5.752000902758794e6 1.1907462139290214e7 0.0
1.1907462139290214e7 3.8351947211998496e6 0.0
0.0 0.0 0.0

-2.1006315307468064e6 1.3415274859597882e7 0.0
1.3415274859597882e7 -2.111158959524366e6 0.0
0.0 0.0 0.0

-5.230357205189861e6 7.211697056569872e6 0.0
7.211697056569872e6 3.6907739030963015e6 0.0
0.0 0.0 0.0

-3.202289968611685e7 1.699536775631073e7 0.0
1.699536775631073e7 9.711673599952163e6 0.0
0.0 0.0 0.0

-402120.7505327794 1.5278110501519838e7 0.0
1.5278110501519838e7 7.742116781479021e6 0.0
0.0 0.0 0.0

-5.587718096706368e6 1.7066102188370887e7 0.0
1.7066102188370887e7 8.591219824457135e6 0.0
0.0 0.0 0.0

-3.722024687404167e6 1.9001134438205685e7 0.0
1.9001134438205685e7 1.8809259089348756e6 0.0
0.0 0.0 0.0

2.7885826347658876e6 8.40163676431972e6 0.0
8.40163676431972e6 -1.372730270119091e7 0.0
0.0 0.0 0.0

3.6215428791349838e6 7.353942015029423e6 0.0
7.353942015029423e6 -1.6155095839698706e7 0.0
0.0 0.0 0.0

3.8496104004864134e6 8.438561556365078e6 0.0
8.438561556365078e6 -1.8631472026181422e7 0.0
0.0 0.0 0.0

-4.773137158329439e6 1.204410976758703e7 0.0
1.204410976758703e7 1.8127136643581958e6 0.0
0.0 0.0 0.0

-1.2975215030089581e7 8.261490904384241e6 0.0
8.261490904384241e6 1.6767551075832382e7 0.0
0.0 0.0 0.0

-4.485234159406036e6 8.057489666074664e6 0.0
8.057489666074664e6 4.935319013521919e6 0.0
0.0 0.0 0.0

1.27227920644691e6 1.5310664054447697e7 0.0
1.5310664054447697e7 -5.0097304373197565e6 0.0
0.0 0.0 0.0

-474705.56259257393 1.2806197547866099e7 0.0
1.2806197547866099e7 -1.2331036683453627e7 0.0
0.0 0.0 0.0

-5.297279381154559e6 1.8593338720983393e7 0.0
1.8593338720983393e7 6.316256701821273e6 0.0
0.0 0.0 0.0

-709888.8274735985 2.1915846653767064e7 0.0
2.1915846653767064e7 -2.0179963549061283e6 0.0
0.0 0.0 0.0

-7.069282215424663e6 1.994236128471304e7 0.0
1.994236128471304e7 6.358778253149057e6 0.0
0.0 0.0 0.0

-7.657614333446416e6 1.4658620786654377e7 0.0
1.4658620786654377e7 1.3796992143975865e7 0.0
0.0 0.0 0.0

4.0658957566662617e6 6.693186478329763e6 0.0
6.693186478329763e6 -2.8509917464386426e7 0.0
0.0 0.0 0.0

36376.55403304659 1.277545570741774e7 0.0
1.277545570741774e7 -7.172753507524073e6 0.0
0.0 0.0 0.0

3.286687378914062e6 4.1441778184197065e6 0.0
4.1441778184197065e6 -8.708302465450078e6 0.0
0.0 0.0 0.0

4.274108810590204e6 7.525155888600185e6 0.0
7.525155888600185e6 -1.9065412558606204e7 0.0
0.0 0.0 0.0

-4.894674897490058e6 1.8870553652887717e7 0.0
1.8870553652887717e7 3.905212373138396e6 0.0
0.0 0.0 0.0

-1.1385326987417232e7 8.56156309148451e6 0.0
8.56156309148451e6 1.6357595511735193e7 0.0
0.0 0.0 0.0

-8.575897106745172e6 1.4263762841881746e7 0.0
1.4263762841881746e7 1.49603844761708e7 0.0
0.0 0.0 0.0

-5.338783334412976e6 1.7541840941557832e7 0.0
1.7541840941557832e7 8.2909377250926085e6 0.0
0.0 0.0 0.0

2.634007941487168e6 8.706878887090059e6 0.0
8.706878887090059e6 -1.0368441571006306e7 0.0
0.0 0.0 0.0

-2.433502452854287e6 1.7486873121587966e7 0.0
1.7486873121587966e7 -4.587294673544926e6 0.0
0.0 0.0 0.0

-2.815057353826061e6 2.2238645531082526e7 0.0
2.2238645531082526e7 356272.4579701817 0.0
0.0 0.0 0.0

-4.9588529716489995e6 1.9672887392132357e7 0.0
1.9672887392132357e7 5.26689794459254e6 0.0
0.0 0.0 0.0

-8.832150085674953e6 1.447785895338897e7 0.0
1.447785895338897e7 1.5617337962818768e7 0.0
0.0 0.0 0.0

-1.4854135832980752e7 3.910229097114007e7 0.0
3.910229097114007e7 -1.1844548734187499e7 0.0
0.0 0.0 0.0

-3.6332689175967206e6 1.695240673694634e7 0.0
1.695240673694634e7 -5.655652776190121e6 0.0
0.0 0.0 0.0

-6.506093427016888e6 1.3738580022202594e7 0.0
1.3738580022202594e7 6.219550582872055e6 0.0
0.0 0.0 0.0

-5.696632511077906e6 2.824614351465896e6 0.0
2.824614351465896e6 5.689685721755058e6 0.0
0.0 0.0 0.0

-1.286398380238054e6 1.3666109978032608e7 0.0
1.3666109978032608e7 -4.1260031582130226e6 0.0
0.0 0.0 0.0

-4.402677554658352e6 1.7578188586230714e7 0.0
1.7578188586230714e7 -2.8494587720725e6 0.0
0.0 0.0 0.0

-7.349410781397425e6 2.3804527619618468e7 0.0
2.3804527619618468e7 5.598731046053436e6 0.0
0.0 0.0 0.0

-1.4288271876181336e6 1.545666108355308e7 0.0
1.545666108355308e7 -4.905258473221105e6 0.0
0.0 0.0 0.0

-2.5404217134789852e6 1.6530431713723974e7 0.0
1.6530431713723974e7 -3.9969003824804383e6 0.0
0.0 0.0 0.0

-9.223154141160492e6 781081.731721463 0.0
781081.731721463 1.3427595400060657e7 0.0
0.0 0.0 0.0

4.173427034324904e6 6.058497250023133e6 0.0
6.058497250023133e6 -1.3262861919476302e7 0.0
0.0 0.0 0.0

-2.5365696375972526e6 2.1703180022516046e7 0.0
2.1703180022516046e7 669733.3045987003 0.0
0.0 0.0 0.0

-7.012703312025276e6 1.5143569979584144e7 0.0
1.5143569979584144e7 1.2806211629785214e7 0.0
0.0 0.0 0.0

-7.364420776929396e6 1.8276718562015373e7 0.0
1.8276718562015373e7 -979874.5889115161 0.0
0.0 0.0 0.0

-116228.8743350074 5.579978326413418e6 0.0
5.579978326413418e6 -3.5346328903202955e6 0.0
0.0 0.0 0.0

-4.952538210719433e6 1.8614277907653883e7 0.0
1.8614277907653883e7 -4.292732791199749e6 0.0
0.0 0.0 0.0

-2.5372348627599855e6 1.586568478208299e7 0.0
1.586568478208299e7 -3.9174545766469296e6 0.0
0.0 0.0 0.0

524795.6864932119 1.2749290640955547e7 0.0
1.2749290640955547e7 -1.1327666195199149e7 0.0
0.0 0.0 0.0

-1.8042748532108858e6 1.4911439032599201e7 0.0
1.4911439032599201e7 -3.451987753713092e6 0.0
0.0 0.0 0.0

2.2602981778474553e6 8.92514711266637e6 0.0
8.92514711266637e6 -1.1955988605361503e7 0.0
0.0 0.0 0.0

-3.3363887088320805e6 1.5528871196630424e7 0.0
1.5528871196630424e7 418533.83548340923 0.0
0.0 0.0 0.0

-5.259992099628678e6 4.009835581307868e6 0.0
4.009835581307868e6 4.701443950339863e6 0.0
0.0 0.0 0.0

-8.0529239106046045e6 9.299499085814882e6 0.0
9.299499085814882e6 1.2149337388047364e7 0.0
0.0 0.0 0.0

-5.191154304961549e6 1.192554450357601e7 0.0
1.192554450357601e7 5.704056858880513e6 0.0
0.0 0.0 0.0

-2.7559000271540284e6 1.2410353554444982e7 0.0
1.2410353554444982e7 -1.1433035460117958e7 0.0
0.0 0.0 0.0

-4.255122775809161e6 1.208520232352554e7 0.0
1.208520232352554e7 3.534309927854712e6 0.0
0.0 0.0 0.0

-2.311722408051897e7 2.0746404655420456e7 0.0
2.0746404655420456e7 4.975474574999431e6 0.0
0.0 0.0 0.0

-4.646340027565348e6 1.3366326305390593e7 0.0
1.3366326305390593e7 1.375935506097404e6 0.0
0.0 0.0 0.0

-532196.767678916 1.5338339591199268e7 0.0
1.5338339591199268e7 -2.1695656471523847e6 0.0
0.0 0.0 0.0

-3.6331997291563675e7 1.5937902002799563e7 0.0
1.5937902002799563e7 7.920771571945937e6 0.0
0.0 0.0 0.0

718580.9206724565 1.558136098637206e7 0.0
1.558136098637206e7 -6.045186043759453e6 0.0
0.0 0.0 0.0

-3.1791701207510186e6 1.2672423536819562e7 0.0
1.2672423536819562e7 789676.6179026605 0.0
0.0 0.0 0.0

1.8448891740938313e6 9.601140023417315e6 0.0
9.601140023417315e6 -9.022025985019593e6 0.0
0.0 0.0 0.0

-3.889944429743733e6 1.932687747793893e7 0.0
1.932687747793893e7 2.567886858466004e6 0.0
0.0 0.0 0.0

1.8881187591970335e6 9.984621236804929e6 0.0
9.984621236804929e6 -1.2075659958612643e7 0.0
0.0 0.0 0.0

1.7636731437522583e6 1.0597318425740046e7 0.0
1.0597318425740046e7 -1.2833256649381064e7 0.0
0.0 0.0 0.0

-3.4440187809741884e6 6.785585619969922e6 0.0
6.785585619969922e6 1.0393469529069304e6 0.0
0.0 0.0 0.0

-6.313883153385053e6 1.5736939712017769e7 0.0
1.5736939712017769e7 7.062573363160415e6 0.0
0.0 0.0 0.0

4.224975676394536e6 7.159589038141085e6 0.0
7.159589038141085e6 -1.6637764816330452e7 0.0
0.0 0.0 0.0

-8.2230236126842825e6 4.32348249351468e6 0.0
4.32348249351468e6 1.1280852561301755e7 0.0
0.0 0.0 0.0

1.8465894107901873e6 1.0275993132814663e7 0.0
1.0275993132814663e7 -1.2467345053712124e7 0.0
0.0 0.0 0.0

-6.0060200555926e7 5.524437845830846e6 0.0
5.524437845830846e6 8.71543655048735e6 0.0
0.0 0.0 0.0

4.166163781341225e6 6.577331404445584e6 0.0
6.577331404445584e6 -2.676428962292955e7 0.0
0.0 0.0 0.0

-6.3587780429084e6 1.4617548251685658e7 0.0
1.4617548251685658e7 6.264899077157281e6 0.0
0.0 0.0 0.0

-5.925757488556944e6 1.5858210357861208e7 0.0
1.5858210357861208e7 5.389685473872537e6 0.0
0.0 0.0 0.0

-5.244081878347549e6 1.9491945748400018e7 0.0
1.9491945748400018e7 7.1620758589203395e6 0.0
0.0 0.0 0.0

-2.0947620928982873e6 1.388046698532451e7 0.0
1.388046698532451e7 -4.4443254685334405e6 0.0
0.0 0.0 0.0

-6.38159184663921e6 1.5774481769266756e7 0.0
1.5774481769266756e7 1.1738231673347704e7 0.0
0.0 0.0 0.0

915987.264561988 1.1506823818902621e7 0.0
1.1506823818902621e7 -1.0537339057366036e7 0.0
0.0 0.0 0.0

3.1401518245068695e6 8.54191438501782e6 0.0
8.54191438501782e6 -1.6080101598712156e7 0.0
0.0 0.0 0.0

-4.081353582315147e6 1.9132221169125177e7 0.0
1.9132221169125177e7 3.0731364569476615e6 0.0
0.0 0.0 0.0

-2.479770250270457e6 1.9599253802434817e7 0.0
1.9599253802434817e7 -2.568997658116992e6 0.0
0.0 0.0 0.0

4.0357596915183496e6 7.972483570068089e6 0.0
7.972483570068089e6 -2.2043563740734886e7 0.0
0.0 0.0 0.0

-4.6597790805240115e6 9.85646263346852e6 0.0
9.85646263346852e6 4.769264822307982e6 0.0
0.0 0.0 0.0

-6.241327869365551e6 1.990021927080028e7 0.0
1.990021927080028e7 6.654821131915456e6 0.0
0.0 0.0 0.0

-3.851366258496132e7 4.2060827580177076e7 0.0
4.2060827580177076e7 -1.8118595813607536e6 0.0
0.0 0.0 0.0

-1.215831351770125e7 5.317860855841614e6 0.0
5.317860855841614e6 2.0834381260441605e7 0.0
0.0 0.0 0.0

-1.6878740634011277e6 1.170453456359555e7 0.0
1.170453456359555e7 -1.0278204558795247e7 0.0
0.0 0.0 0.0

307583.8166719134 5.508019476597974e6 0.0
5.508019476597974e6 -2.13392515548804e6 0.0
0.0 0.0 0.0

-6.755353693169363e6 -8.427827315655572e6 0.0
-8.427827315655572e6 1.7141421173272096e7 0.0
0.0 0.0 0.0

5.511411392780873e6 3.6633413046913436e6 0.0
3.6633413046913436e6 -1.902187497346147e7 0.0
0.0 0.0 0.0

-4.281015789907643e6 1.729669545607185e7 0.0
1.729669545607185e7 1.6487979298691305e6 0.0
0.0 0.0 0.0

82025.94515894353 1.33429987151734e7 0.0
1.33429987151734e7 -1.3277309108052596e7 0.0
0.0 0.0 0.0

-1.135452113549518e7 1.1583861820863444e7 0.0
1.1583861820863444e7 2.0597227813900944e7 0.0
0.0 0.0 0.0

-1.7576958138621743e6 1.718088627532008e7 0.0
1.718088627532008e7 -5.916389602080639e6 0.0
0.0 0.0 0.0

1.9143407746513858e6 9.686340064890578e6 0.0
9.686340064890578e6 -1.1671886473322218e7 0.0
0.0 0.0 0.0

-8.207434036981273e6 1.28158007340484e7 0.0
1.28158007340484e7 2.691671667680134e7 0.0
0.0 0.0 0.0

-2.5516187004265655e6 1.3782343520053457e7 0.0
1.3782343520053457e7 -1.1819862564993794e6 0.0
0.0 0.0 0.0

-6.362484100359968e6 1.491582573110171e7 0.0
1.491582573110171e7 1.7507511711091977e7 0.0
0.0 0.0 0.0

101613.11232997105 1.356506164292963e7 0.0
1.356506164292963e7 -1.2544164381927393e7 0.0
0.0 0.0 0.0

4.268015463741432e7 7.14361687748451e6 0.0
7.14361687748451e6 -1.3695445529778786e6 0.0
0.0 0.0 0.0

-2.0330927086286298e6 1.7647779051727884e7 0.0
1.7647779051727884e7 -3.6441514212537897e6 0.0
0.0 0.0 0.0

-2.115478300094907e6 2.1575971553668484e7 0.0
2.1575971553668484e7 41914.334846206475 0.0
0.0 0.0 0.0

1.5893995997970956e6 1.038319515598328e7 0.0
1.038319515598328e7 -1.137016363239368e7 0.0
0.0 0.0 0.0

2.4971904728040723e6 9.705726102909045e6 0.0
9.705726102909045e6 -1.1632873027496919e7 0.0
0.0 0.0 0.0

-1.6560359146041384e6 1.3504210577386644e7 0.0
1.3504210577386644e7 -5.322751653461369e6 0.0
0.0 0.0 0.0

-1.1862981208976299e7 6.021022567803946e6 0.0
6.021022567803946e6 1.711243322924252e7 0.0
0.0 0.0 0.0

-77031.50799439475 1.2706105980740024e7 0.0
1.2706105980740024e7 -1.6905807376530938e7 0.0
0.0 0.0 0.0

3.116153041436923e6 4.086955678908172e6 0.0
4.086955678908172e6 -8.160146983394146e6 0.0
0.0 0.0 0.0

921756.0870708767 1.2033169923082517e7 0.0
1.2033169923082517e7 -1.1305062982371066e7 0.0
0.0 0.0 0.0

-1.931278363410233e7 2.2458963165841527e7 0.0
2.2458963165841527e7 1.052232769280425e7 0.0
0.0 0.0 0.0

-2.140000074391001e6 9.268360305287652e6 0.0
9.268360305287652e6 -2.158443407167507e6 0.0
0.0 0.0 0.0

-6.770607892381858e6 1.2979229865372764e7 0.0
1.2979229865372764e7 3.275128368994267e7 0.0
0.0 0.0 0.0

-4.777864679774543e6 1.5890224006538318e7 0.0
1.5890224006538318e7 9.270651780461725e6 0.0
0.0 0.0 0.0

2.970735345551461e6 1.5055092599904535e7 0.0
1.5055092599904535e7 420940.0879398049 0.0
0.0 0.0 0.0

-5.585973780213224e6 1.975113177170987e7 0.0
1.975113177170987e7 6.883469193958849e6 0.0
0.0 0.0 0.0

-2.195237153368685e6 1.806668286973319e7 0.0
1.806668286973319e7 -2.781838270663484e6 0.0
0.0 0.0 0.0

-5.115352410886559e6 1.9432343283661693e7 0.0
1.9432343283661693e7 5.722646614849246e6 0.0
0.0 0.0 0.0

-1.125036164579694e7 6.354964769120977e6 0.0
6.354964769120977e6 1.5877532743092852e7 0.0
0.0 0.0 0.0

-8.368056011084529e6 1.100872736716795e7 0.0
1.100872736716795e7 1.2790098153362993e7 0.0
0.0 0.0 0.0

-5.174010852609112e6 4.86505328159668e6 0.0
4.86505328159668e6 3.755057815210183e6 0.0
0.0 0.0 0.0

8.53356387212939e6 1.0362095694589376e7 0.0
1.0362095694589376e7 1.1303067138815077e6 0.0
0.0 0.0 0.0

83251.56699539814 1.3810026668762801e7 0.0
1.3810026668762801e7 -1.1850595007126793e7 0.0
0.0 0.0 0.0

-2.3722777654166166e6 1.7999759369504556e7 0.0
1.7999759369504556e7 -2.2954731555416e6 0.0
0.0 0.0 0.0

-4.701068880953107e6 1.9092554937148515e7 0.0
1.9092554937148515e7 3.3289225795001863e6 0.0
0.0 0.0 0.0

-6.9553466026792405e6 -3.4817897100607892e6 0.0
-3.4817897100607892e6 9.405970272237297e6 0.0
0.0 0.0 0.0

-4.75038051270856e6 2.0169424173579775e7 0.0
2.0169424173579775e7 4.333850065111365e6 0.0
0.0 0.0 0.0

-3.6708311068686494e6 1.304592736167262e7 0.0
1.304592736167262e7 1.8630946673104123e6 0.0
0.0 0.0 0.0

-5.0262786625045715e6 2.062177200559158e7 0.0
2.062177200559158e7 5.150380923726477e6 0.0
0.0 0.0 0.0

3.202982875444123e6 1.4153275514819665e7 0.0
1.4153275514819665e7 -650754.9210185267 0.0
0.0 0.0 0.0

-2.3386035513051874e6 2.0381612105733223e7 0.0
2.0381612105733223e7 -819172.3979321279 0.0
0.0 0.0 0.0

4.42046069313659e6 5.441554353156887e6 0.0
5.441554353156887e6 -1.6172922642457688e7 0.0
0.0 0.0 0.0

-1.2151796849611245e7 5.33292166036767e6 0.0
5.33292166036767e6 1.953785078927373e7 0.0
0.0 0.0 0.0

545918.8083495772 1.4588407879325107e7 0.0
1.4588407879325107e7 -8.168885908354338e6 0.0
0.0 0.0 0.0

31568.216248056386 1.4116161503308905e7 0.0
1.4116161503308905e7 -1.1111648587495461e7 0.0
0.0 0.0 0.0

-2.297053512774203e6 1.3068587183736956e7 0.0
1.3068587183736956e7 -1.5159048783281269e6 0.0
0.0 0.0 0.0

-3.7530366423963234e6 1.6241027926741218e7 0.0
1.6241027926741218e7 3.6005805119163347e6 0.0
0.0 0.0 0.0

-1.2253604014366805e6 1.770236026368425e7 0.0
1.770236026368425e7 -5.340209295327766e6 0.0
0.0 0.0 0.0

441088.50348888757 1.3337319315249907e7 0.0
1.3337319315249907e7 -7.224688853739262e6 0.0
0.0 0.0 0.0

-1.007578389250905e7 8.942933648614649e6 0.0
8.942933648614649e6 1.1970385850735176e7 0.0
0.0 0.0 0.0

3.3844256997282403e6 8.40954787203215e6 0.0
8.40954787203215e6 -1.3631958708463477e7 0.0
0.0 0.0 0.0

165676.3309597578 1.3788856731896985e7 0.0
1.3788856731896985e7 -1.1525840004294382e7 0.0
0.0 0.0 0.0

-1.2949679340420058e6 1.5435376241798282e7 0.0
1.5435376241798282e7 9.13138091521426e6 0.0
0.0 0.0 0.0

-2.543608342834829e6 1.5109963483917711e7 0.0
1.5109963483917711e7 -3.750473709837001e6 0.0
0.0 0.0 0.0

4.623172050071244e6 6.821836481736111e6 0.0
6.821836481736111e6 -2.127400438667141e7 0.0
0.0 0.0 0.0

5.228455219640851e6 5.512760430498736e6 0.0
5.512760430498736e6 -2.703841683744179e7 0.0
0.0 0.0 0.0

-6.204371906095788e6 1.2360528012663761e7 0.0
1.2360528012663761e7 5.003938273073752e6 0.0
0.0 0.0 0.0

-4.49665411225857e6 1.930181770150721e7 0.0
1.930181770150721e7 2.8039807489738893e6 0.0
0.0 0.0 0.0

-1.0109647563524032e7 -222656.15671063887 0.0
-222656.15671063887 1.644250165464027e7 0.0
0.0 0.0 0.0

-7.5634670921689775e6 1.146023094273902e7 0.0
1.146023094273902e7 7.9969143471895885e6 0.0
0.0 0.0 0.0

-6.196591117742766e6 1.5403864343643771e7 0.0
1.5403864343643771e7 6.280257329582667e6 0.0
0.0 0.0 0.0

3.1417716310167313e6 8.541584920891933e6 0.0
8.541584920891933e6 -1.2538280019515932e7 0.0
0.0 0.0 0.0

5.501582387595204e6 3.547900775034669e6 0.0
3.547900775034669e6 -1.9517613477473278e7 0.0
0.0 0.0 0.0

-5.9035481807364635e6 1.4562407976056399e7 0.0
1.4562407976056399e7 7.807199767652886e6 0.0
0.0 0.0 0.0

-4.533922253989339e6 1.4354892616267035e7 0.0
1.4354892616267035e7 4.1681876072050415e7 0.0
0.0 0.0 0.0

-5.17276616425483e6 1.61784642785851e7 0.0
1.61784642785851e7 5.884070753921553e6 0.0
0.0 0.0 0.0

-2.4646607924734033e6 1.84179307088061e7 0.0
1.84179307088061e7 -2.1079803761435524e6 0.0
0.0 0.0 0.0

1.5756773726833481e6 1.090138893546996e7 0.0
1.090138893546996e7 -1.1963736823390605e7 0.0
0.0 0.0 0.0

-3.1692286396695147e6 1.980677397047133e7 0.0
1.980677397047133e7 709003.556742968 0.0
0.0 0.0 0.0

-4.265446155229563e6 1.8915974427464556e7 0.0
1.8915974427464556e7 3.6093475608649515e6 0.0
0.0 0.0 0.0

2.11641713598426e6 1.4277829218523746e7 0.0
1.4277829218523746e7 1.6979768521261647e7 0.0
0.0 0.0 0.0

3.1644213930940703e6 4.0817029892267897e6 0.0
4.0817029892267897e6 -8.586727763438558e6 0.0
0.0 0.0 0.0

436944.5914631658 1.6118709825591294e7 0.0
1.6118709825591294e7 -6.344598720622594e6 0.0
0.0 0.0 0.0

3.9932957236219663e6 4.67163151784419e6 0.0
4.67163151784419e6 -1.2649044930757245e7 0.0
0.0 0.0 0.0

-8.042887561744548e6 7.784434791215314e6 0.0
7.784434791215314e6 1.222112655944145e7 0.0
0.0 0.0 0.0

-5.120770586041013e6 1.8113996397825383e7 0.0
1.8113996397825383e7 4.432997998864311e6 0.0
0.0 0.0 0.0

-2.015863745543086e6 1.5504662723682873e7 0.0
1.5504662723682873e7 -3.1329671735233734e6 0.0
0.0 0.0 0.0

2.615769520588545e6 9.044818832256593e6 0.0
9.044818832256593e6 -1.0788951519877719e7 0.0
0.0 0.0 0.0

246317.41626469046 1.380419466589905e7 0.0
1.380419466589905e7 -8.163890302415802e6 0.0
0.0 0.0 0.0

-2.6885450691041816e6 1.8810874372313716e7 0.0
1.8810874372313716e7 -1.3931525788167997e6 0.0
0.0 0.0 0.0

-1.1229700580739629e7 1.027099630271313e6 0.0
1.027099630271313e6 1.9916467306122895e7 0.0
0.0 0.0 0.0

-8.314635925049383e6 1.250779927618918e7 0.0
1.250779927618918e7 1.313517682679378e7 0.0
0.0 0.0 0.0

-9.406320079775646e6 5.029819101555924e6 0.0
5.029819101555924e6 1.337037021501433e7 0.0
0.0 0.0 0.0

-4.432004565768607e6 1.2525782201808142e7 0.0
1.2525782201808142e7 1.0458922950520718e6 0.0
0.0 0.0 0.0

-4.751346484046992e6 1.9188556383084144e7 0.0
1.9188556383084144e7 6.107917803092456e6 0.0
0.0 0.0 0.0

-3.3582598465546956e6 1.5001354615083754e7 0.0
1.5001354615083754e7 -1.7770232127520007e6 0.0
0.0 0.0 0.0

-4.0167219948474187e6 1.9749350388519075e7 0.0
1.9749350388519075e7 1.360536789603234e6 0.0
0.0 0.0 0.0

-4.361756665049577e6 6.910258382069541e6 0.0
6.910258382069541e6 2.2993359708528644e6 0.0
0.0 0.0 0.0

-7.952515127747689e6 1.0667371267555088e7 0.0
1.0667371267555088e7 1.1971883914753467e7 0.0
0.0 0.0 0.0

-4.336299295698671e6 1.948055442594546e7 0.0
1.948055442594546e7 2.3274038077575974e6 0.0
0.0 0.0 0.0

-838437.215793058 1.698599852115109e7 0.0
1.698599852115109e7 -6.5645900168597475e6 0.0
0.0 0.0 0.0

3.8292375860691303e6 1.7062710027667716e7 0.0
1.7062710027667716e7 8.908288559618544e6 0.0
0.0 0.0 0.0

-3.935529490210683e6 1.2597662706023246e7 0.0
1.2597662706023246e7 2.6916459718008586e6 0.0
0.0 0.0 0.0

318343.4727974753 1.8802663266848616e7 0.0
1.8802663266848616e7 -4.559225426648467e6 0.0
0.0 0.0 0.0

-4.948004700148669e6 1.3451717941357467e7 0.0
1.3451717941357467e7 4.916856308986301e6 0.0
0.0 0.0 0.0

-8.056749088953522e6 1.2196828566460542e7 0.0
1.2196828566460542e7 1.2437860200548686e7 0.0
0.0 0.0 0.0

-3.6787642177412733e6 7.714942033068417e6 0.0
7.714942033068417e6 3.4971344882725384e6 0.0
0.0 0.0 0.0

-4.1855377043579514e6 1.9623196340938494e7 0.0
1.9623196340938494e7 1.8099247963957312e6 0.0
0.0 0.0 0.0

4.564253479183957e6 6.23494588359947e6 0.0
6.23494588359947e6 -1.582528061411121e7 0.0
0.0 0.0 0.0

3.970503231941932e6 7.476876994026862e6 0.0
7.476876994026862e6 -1.497571781171776e7 0.0
0.0 0.0 0.0

-5.040663028280313e6 1.9170024478732187e7 0.0
1.9170024478732187e7 7.35637875192151e6 0.0
0.0 0.0 0.0

130315.36913732183 9.895255274485527e6 0.0
9.895255274485527e6 -5.517150569873728e6 0.0
0.0 0.0 0.0

2.5688392814383e6 9.391896979858931e6 0.0
9.391896979858931e6 -1.1202191692529945e7 0.0
0.0 0.0 0.0

-3.42470690720495e6 2.1058435283986285e7 0.0
2.1058435283986285e7 1.1203907821753032e6 0.0
0.0 0.0 0.0

-2.986113267932764e6 1.9495255315401148e7 0.0
1.9495255315401148e7 35643.99915179855 0.0
0.0 0.0 0.0

-2.3383650627008146e6 1.6012747165300192e7 0.0
1.6012747165300192e7 -4.350581067401182e6 0.0
0.0 0.0 0.0

210336.46102818009 1.3181141605717499e7 0.0
1.3181141605717499e7 -1.5761505046252951e7 0.0
0.0 0.0 0.0

-4.300828455628829e6 2.136344278286226e7 0.0
2.136344278286226e7 3.1392041201122175e6 0.0
0.0 0.0 0.0

-8.473572886120684e6 1.2805535659090882e7 0.0
1.2805535659090882e7 1.3535042467891628e7 0.0
0.0 0.0 0.0

2.5846686770846816e6 6.604179601165735e6 0.0
6.604179601165735e6 -1.0537013846538028e7 0.0
0.0 0.0 0.0

-2.763863263850758e6 2.249686060952974e7 0.0
2.249686060952974e7 1.1882783526907614e6 0.0
0.0 0.0 0.0

-3.7584918791795988e6 1.6238714286037652e7 0.0
1.6238714286037652e7 7.6683498424422e6 0.0
0.0 0.0 0.0

-2.8405942053597434e6 1.915815904426843e7 0.0
1.915815904426843e7 -621195.8933842413 0.0
0.0 0.0 0.0

-38989.83980015339 1.4423635561233468e7 0.0
1.4423635561233468e7 -1.0414721358195705e7 0.0
0.0 0.0 0.0

-3.531409648881308e6 2.0015298742670123e7 0.0
2.0015298742670123e7 1.7881712938450335e6 0.0
0.0 0.0 0.0

-5.513462741556292e6 1.6679890746035371e7 0.0
1.6679890746035371e7 1.0224094475598665e7 0.0
0.0 0.0 0.0

-3.6096875909692897e6 1.9941073680100698e7 0.0
1.9941073680100698e7 518481.6626063362 0.0
0.0 0.0 0.0

-532565.7986961331 2.3689730196211938e7 0.0
2.3689730196211938e7 -997257.3965015663 0.0
0.0 0.0 0.0

-1.1962848585841522e7 9.949129205782305e6 0.0
9.949129205782305e6 1.731882557393572e7 0.0
0.0 0.0 0.0

2.2165420482439087e6 1.0126548152008384e7 0.0
1.0126548152008384e7 -1.0968234088876529e7 0.0
0.0 0.0 0.0

-1.215061628760058e7 6.756782051774957e6 0.0
6.756782051774957e6 1.766689145096935e7 0.0
0.0 0.0 0.0

-8.631183573226076e6 9.703706621793592e6 0.0
9.703706621793592e6 9.96959576124067e6 0.0
0.0 0.0 0.0

-627694.2933528856 -1.2254785056720658e6 0.0
-1.2254785056720658e6 1.0172603181423888e6 0.0
0.0 0.0 0.0

-436229.9203203004 -1.8475644366013906e6 0.0
-1.8475644366013906e6 1.8775253678379063e6 0.0
0.0 0.0 0.0

-1.2064805881435212e7 1.0714372727362005e7 0.0
1.0714372727362005e7 1.7621798761942312e7 0.0
0.0 0.0 0.0

4.234134489362465e6 1.5872177382442642e7 0.0
1.5872177382442642e7 5.008921614391256e6 0.0
0.0 0.0 0.0

-2.6140264910909613e6 2.00698580135129e7 0.0
2.00698580135129e7 -450678.35643243534 0.0
0.0 0.0 0.0

-1.9403250982787185e6 1.6424169062945927e7 0.0
1.6424169062945927e7 -3.857669763711349e6 0.0
0.0 0.0 0.0

2.1561173566423287e6 1.0408719000240667e7 0.0
1.0408719000240667e7 -1.1418332354184382e7 0.0
0.0 0.0 0.0

2.05034096311467e6 1.4404463497588512e7 0.0
1.4404463497588512e7 1.425629308970255e7 0.0
0.0 0.0 0.0

-4.098617026107002e6 2.1730072472431753e7 0.0
2.1730072472431753e7 3.97936939168588e6 0.0
0.0 0.0 0.0

-3.423232662958236e6 2.1380516044835933e7 0.0
2.1380516044835933e7 1.249342937612088e6 0.0
0.0 0.0 0.0

-3.253810398326359e6 2.1743911076021064e7 0.0
2.1743911076021064e7 1.2943306439502758e6 0.0
0.0 0.0 0.0

-7.006900456546648e6 1.473554227676045e7 0.0
1.473554227676045e7 8.698597944528177e6 0.0
0.0 0.0 0.0

-6.625403458583143e6 1.2768092630402487e7 0.0
1.2768092630402487e7 6.108706352656143e6 0.0
0.0 0.0 0.0

-5.7870633543218095e6 8.447249846772647e6 0.0
8.447249846772647e6 4.371241829508951e6 0.0
0.0 0.0 0.0

-5.275178271389328e6 1.7479536205515616e7 0.0
1.7479536205515616e7 7.369228647914435e6 0.0
0.0 0.0 0.0

-5.652955603104046e6 1.230446230206813e7 0.0
1.230446230206813e7 6.867135818009145e6 0.0
0.0 0.0 0.0

-1.2517665000841111e7 9.982567434453517e6 0.0
9.982567434453517e6 1.895553935045482e7 0.0
0.0 0.0 0.0

2.104144590628282e6 1.0739113165236857e7 0.0
1.0739113165236857e7 -1.1759021692135094e7 0.0
0.0 0.0 0.0

-6.368182957058625e6 1.6002146534723194e7 0.0
1.6002146534723194e7 7.703308703272229e6 0.0
0.0 0.0 0.0

-1.2375100615692122e7 8.369256418324798e6 0.0
8.369256418324798e6 1.9638348994554155e7 0.0
0.0 0.0 0.0

-477531.1034703334 1.5110639923063226e7 0.0
1.5110639923063226e7 8.182315204233985e6 0.0
0.0 0.0 0.0

-5.456217049572446e6 1.3407692579344304e7 0.0
1.3407692579344304e7 3.226365904027158e6 0.0
0.0 0.0 0.0

-3.5136675910105086e6 2.039969163367448e7 0.0
2.039969163367448e7 1.9761246812181063e6 0.0
0.0 0.0 0.0

-3.5265488906078762e6 1.9598170602175493e7 0.0
1.9598170602175493e7 1.5899061666182382e6 0.0
0.0 0.0 0.0

-5.3117438337780265e6 1.7201396365452953e7 0.0
1.7201396365452953e7 9.46855894073924e6 0.0
0.0 0.0 0.0

32425.609332747757 1.3611407571093623e7 0.0
1.3611407571093623e7 -1.3723550306325587e7 0.0
0.0 0.0 0.0

-5.446775971262117e6 1.7497202957396414e7 0.0
1.7497202957396414e7 5.740220149131188e6 0.0
0.0 0.0 0.0

-7.817228609478982e6 1.3531818749976123e7 0.0
1.3531818749976123e7 1.2567737881378477e7 0.0
0.0 0.0 0.0

-1.80272701604527e6 1.5888812639116013e7 0.0
1.5888812639116013e7 -4.1594486347091314e6 0.0
0.0 0.0 0.0

-1.8139006549838323e6 2.1962352521268155e7 0.0
2.1962352521268155e7 1668.0007904261583 0.0
0.0 0.0 0.0

-5.191129092195313e6 1.773622811889707e7 0.0
1.773622811889707e7 8.772661361302858e6 0.0
0.0 0.0 0.0

-1.9762337688176401e6 1.5629832898966718e7 0.0
1.5629832898966718e7 -5.177709141545253e6 0.0
0.0 0.0 0.0

3.774126477139512e6 7.843244442387471e6 0.0
7.843244442387471e6 -1.5382604257515606e7 0.0
0.0 0.0 0.0

-6.096877804951591e6 1.4844330873584509e7 0.0
1.4844330873584509e7 8.574274858578285e6 0.0
0.0 0.0 0.0

-816264.6206313513 1.866066414770525e7 0.0
1.866066414770525e7 -4.414239777721544e6 0.0
0.0 0.0 0.0

2.7065744181002383e6 4.1512148558152113e6 0.0
4.1512148558152113e6 -6.947909100713524e6 0.0
0.0 0.0 0.0

3.6300139721452137e6 7.896581512219679e6 0.0
7.896581512219679e6 -1.964467489770286e7 0.0
0.0 0.0 0.0

-868445.0396098448 1.4886316878751082e7 0.0
1.4886316878751082e7 -6.537041022844403e6 0.0
0.0 0.0 0.0

3.5829171658155667e6 1.667831590786219e7 0.0
1.667831590786219e7 6.842684646242098e6 0.0
0.0 0.0 0.0

3.2227970107815843e6 8.136438021425955e6 0.0
8.136438021425955e6 -1.5847847579126779e7 0.0
0.0 0.0 0.0

2.9046193659297256e6 8.893772565989215e6 0.0
8.893772565989215e6 -1.5464946795843206e7 0.0
0.0 0.0 0.0

7322.586496702046 1.3465813765360434e7 0.0
1.3465813765360434e7 3.1419122030055784e6 0.0
0.0 0.0 0.0

-1.15102224197674e7 2.3766024494268643e6 0.0
2.3766024494268643e6 1.8950332472745463e7 0.0
0.0 0.0 0.0

-7.042251476953731e6 8.730159374594513e6 0.0
8.730159374594513e6 6.96567120462619e6 0.0
0.0 0.0 0.0

-4.0747237291218727e6 1.4407346487471916e7 0.0
1.4407346487471916e7 -2.4729421986642703e7 0.0
0.0 0.0 0.0

-7.3606485755276065e6 1.2579930211773803e7 0.0
1.2579930211773803e7 8.060040083720808e6 0.0
0.0 0.0 0.0

-1.1778591361180902e7 6.632815865676839e6 0.0
6.632815865676839e6 1.3892496786531499e7 0.0
0.0 0.0 0.0

-857961.9982755515 1.5554918020571457e7 0.0
1.5554918020571457e7 7.330598052180689e6 0.0
0.0 0.0 0.0

-6.41664383791265e6 -8.66031437279123e6 0.0
-8.66031437279123e6 1.6198011418364469e7 0.0
0.0 0.0 0.0

-6.517343190496501e6 1.4964955015321955e7 0.0
1.4964955015321955e7 7.127257876069135e6 0.0
0.0 0.0 0.0

-4.843899705469709e6 1.925712488407666e7 0.0
1.925712488407666e7 6.590704383889943e6 0.0
0.0 0.0 0.0

-119918.27019459894 1.3715245752782121e7 0.0
1.3715245752782121e7 -1.009729020644685e7 0.0
0.0 0.0 0.0

-2.77223957758188e6 1.0422215138330276e6 0.0
1.0422215138330276e6 2.279681402133641e6 0.0
0.0 0.0 0.0

-5.063143083493015e6 8.077297334626235e6 0.0
8.077297334626235e6 2.981984771892447e6 0.0
0.0 0.0 0.0

3.6335025934027955e6 7.170291632877755e6 0.0
7.170291632877755e6 -3.075878133835831e7 0.0
0.0 0.0 0.0

-889448.5478746546 2.2101941324292615e7 0.0
2.2101941324292615e7 -950587.900973478 0.0
0.0 0.0 0.0

-1.1777117208047405e7 8.297037012558008e6 0.0
8.297037012558008e6 2.4432082230188094e7 0.0
0.0 0.0 0.0

-3.0588650616318737e6 1.4430803948654449e7 0.0
1.4430803948654449e7 -8.141038912337856e6 0.0
0.0 0.0 0.0

-1.246529549529932e7 5.972872473199511e6 0.0
5.972872473199511e6 1.5102380143673409e7 0.0
0.0 0.0 0.0

-6.971819954473464e6 1.9854525890884496e7 0.0
1.9854525890884496e7 329986.74760844605 0.0
0.0 0.0 0.0

-573725.8238767933 1.4988622696463937e7 0.0
1.4988622696463937e7 -3.267448489345964e6 0.0
0.0 0.0 0.0

30667.109317251947 1.4577573451005558e7 0.0
1.4577573451005558e7 7.492297486320416e6 0.0
0.0 0.0 0.0

3.867073512965217e6 7.427117329316756e6 0.0
7.427117329316756e6 -2.0457527229479335e7 0.0
0.0 0.0 0.0

-4.706476873111328e6 1.311690961826394e7 0.0
1.311690961826394e7 -4.279732654041982e6 0.0
0.0 0.0 0.0

-1.2569840099876393e6 2.4799169088841047e7 0.0
2.4799169088841047e7 -2.8780901275204513e6 0.0
0.0 0.0 0.0

-6.225588093331207e6 1.5087006589932159e7 0.0
1.5087006589932159e7 9.239258629088176e6 0.0
0.0 0.0 0.0

-7.970740283546614e6 -7.944224599109256e6 0.0
-7.944224599109256e6 1.960780563287956e7 0.0
0.0 0.0 0.0

-3.5309732052122382e6 1.520853395543248e7 0.0
1.520853395543248e7 9.283318767775593e6 0.0
0.0 0.0 0.0

-5.036600931301153e6 1.901164360529159e7 0.0
1.901164360529159e7 -2.356272670614829e6 0.0
0.0 0.0 0.0

-3.3318705249392213e6 7.584375699604822e6 0.0
7.584375699604822e6 555262.1947093124 0.0
0.0 0.0 0.0

-1.6932755987756448e6 1.5372183653814519e7 0.0
1.5372183653814519e7 1.7944504922409855e7 0.0
0.0 0.0 0.0

-9.266835837977046e6 1.1675904624987751e7 0.0
1.1675904624987751e7 1.1629196009525001e7 0.0
0.0 0.0 0.0

-9.157688696557479e6 9.994694764002154e6 0.0
9.994694764002154e6 1.0952094151396109e7 0.0
0.0 0.0 0.0

-1.1997761276241515e7 6.498227672341063e6 0.0
6.498227672341063e6 2.4318683846960183e7 0.0
0.0 0.0 0.0

-4.311123561910003e6 1.5533342852446953e7 0.0
1.5533342852446953e7 1.1602936071940154e7 0.0
0.0 0.0 0.0

-7.312834169861503e6 2.1851205089737743e7 0.0
2.1851205089737743e7 6.006633932435181e6 0.0
0.0 0.0 0.0

-3.428823832199058e6 2.2929601245944116e7 0.0
2.2929601245944116e7 1.3607241220318784e6 0.0
0.0 0.0 0.0

-6.058279702504579e6 1.6622847501213895e7 0.0
1.6622847501213895e7 7.62539820867303e6 0.0
0.0 0.0 0.0

2.4674043435661527e6 4.0363698348054052e6 0.0
4.0363698348054052e6 -6.313597620557597e6 0.0
0.0 0.0 0.0

2.740762408954262e6 9.608028027744947e6 0.0
9.608028027744947e6 -1.269091439529588e7 0.0
0.0 0.0 0.0

2.2538802353894846e6 9.497925367436528e6 0.0
9.497925367436528e6 -1.0129933922364429e7 0.0
0.0 0.0 0.0

-6.890817603067095e6 1.3207432193038624e7 0.0
1.3207432193038624e7 7.136879059771158e6 0.0
0.0 0.0 0.0

-6.769410450314629e6 2.91689740591905e7 0.0
2.91689740591905e7 -2.023603171574457e6 0.0
0.0 0.0 0.0

-5.008475086769383e6 6.070841203244728e6 0.0
6.070841203244728e6 2.952471910382619e6 0.0
0.0 0.0 0.0

-2.1724492517537293e6 2.0731717791648496e7 0.0
2.0731717791648496e7 -745629.7457055198 0.0
0.0 0.0 0.0

-878107.2551796322 1.9238736034311302e7 0.0
1.9238736034311302e7 -3.7659475504046227e6 0.0
0.0 0.0 0.0

-2.725019940619822e6 8.219846030433892e6 0.0
8.219846030433892e6 1.507444984333896e6 0.0
0.0 0.0 0.0

-463020.88348536124 1.2054868955886433e7 0.0
1.2054868955886433e7 173603.6231511061 0.0
0.0 0.0 0.0

7.974279185486238e6 1.6572662775072157e7 0.0
1.6572662775072157e7 7.51298845105398e6 0.0
0.0 0.0 0.0

2.700621680551641e6 1.5784053143421277e7 0.0
1.5784053143421277e7 1.5890661353669256e7 0.0
0.0 0.0 0.0

-858198.6995109515 1.469698202352774e7 0.0
1.469698202352774e7 6.791411348314397e6 0.0
0.0 0.0 0.0

-8.877448726855142e6 1.1325602785489189e7 0.0
1.1325602785489189e7 1.0851485195941769e7 0.0
0.0 0.0 0.0

-5.684949723535054e6 2.7550270461998798e7 0.0
2.7550270461998798e7 -884100.2915432699 0.0
0.0 0.0 0.0

-1.0502968861351117e7 2.0409101236938115e7 0.0
2.0409101236938115e7 1.4330996618552227e6 0.0
0.0 0.0 0.0

-9.600518789660536e6 1.03515772386525e7 0.0
1.03515772386525e7 1.181416190669026e7 0.0
0.0 0.0 0.0

2.2853052793595027e6 1.0303760453347864e7 0.0
1.0303760453347864e7 -2.093126338384546e7 0.0
0.0 0.0 0.0

5.670473361661216e6 3.337503542953419e6 0.0
3.337503542953419e6 -2.2248387126245316e7 0.0
0.0 0.0 0.0

802835.3875504876 1.3173275098273408e7 0.0
1.3173275098273408e7 -1.0645718457006576e7 0.0
0.0 0.0 0.0

2.4268256338510355e6 1.0013820365774266e7 0.0
1.0013820365774266e7 -1.2051399691976467e7 0.0
0.0 0.0 0.0

183251.60548974015 1.4123096542764533e7 0.0
1.4123096542764533e7 -9.388985289530013e6 0.0
0.0 0.0 0.0

-8.195728334825665e6 3.1138050967751384e7 0.0
3.1138050967751384e7 -4.1352807709055613e6 0.0
0.0 0.0 0.0

-4.494901056202579e6 1.7695841256811637e7 0.0
1.7695841256811637e7 3.881683035569842e6 0.0
0.0 0.0 0.0

-1.3251416950761303e6 1.6135867483465523e7 0.0
1.6135867483465523e7 -7.653962167985851e6 0.0
0.0 0.0 0.0

-1.2605302572000246e6 1.5632480743737418e7 0.0
1.5632480743737418e7 -7.81899453682687e6 0.0
0.0 0.0 0.0

2.846187001573616e6 8.965198387107091e6 0.0
8.965198387107091e6 -1.1867609693229528e7 0.0
0.0 0.0 0.0

-5.8799618225840805e6 1.737536918355902e7 0.0
1.737536918355902e7 8.037844532279687e6 0.0
0.0 0.0 0.0

-2.125736406447494e6 1.5757302014820127e7 0.0
1.5757302014820127e7 9.752706233779827e6 0.0
0.0 0.0 0.0

-5.380481527933068e6 1.7653191253072143e7 0.0
1.7653191253072143e7 5.883792224914828e6 0.0
0.0 0.0 0.0

-8.306230726936683e6 5.724075463409513e6 0.0
5.724075463409513e6 4.871226977360188e7 0.0
0.0 0.0 0.0

-6.545672221317121e6 -1.2105615133114285e6 0.0
-1.2105615133114285e6 9.926164856398657e6 0.0
0.0 0.0 0.0

-2.1289717789342247e7 4.510740373713323e7 0.0
4.510740373713323e7 -1.819565911838981e7 0.0
0.0 0.0 0.0

724202.5990278022 1.4780021667251088e7 0.0
1.4780021667251088e7 9.235901625441128e6 0.0
0.0 0.0 0.0

-4.890000537877514e6 2.6457612600018952e7 0.0
2.6457612600018952e7 94728.76749449247 0.0
0.0 0.0 0.0

-204810.32332147798 1.3909931327506151e7 0.0
1.3909931327506151e7 -7.553672205016935e6 0.0
0.0 0.0 0.0

-493269.1124955141 1.5631529652828865e7 0.0
1.5631529652828865e7 -8.300907168944604e6 0.0
0.0 0.0 0.0

-4.752475384657813e6 1.8560897927285675e7 0.0
1.8560897927285675e7 5.482932716519695e6 0.0
0.0 0.0 0.0

4.814902186168169e6 3.8555301876513846e6 0.0
3.8555301876513846e6 -1.4360457878775118e7 0.0
0.0 0.0 0.0

4.0731092858682754e6 1.429735651460702e7 0.0
1.429735651460702e7 -311725.5477113477 0.0
0.0 0.0 0.0

2.6502261606554585e6 9.956956363928154e6 0.0
9.956956363928154e6 -1.3109613543164581e7 0.0
0.0 0.0 0.0

162468.63162238034 1.768092686032879e7 0.0
1.768092686032879e7 -5.471449290205999e6 0.0
0.0 0.0 0.0

4.4586802229862735e6 7.00615707499471e6 0.0
7.00615707499471e6 -1.981391589641119e7 0.0
0.0 0.0 0.0

-5.482991914483951e6 1.5794086438971963e7 0.0
1.5794086438971963e7 6.888134124234319e6 0.0
0.0 0.0 0.0

2.9556190449857535e6 6.684104485488894e6 0.0
6.684104485488894e6 -9.31945887342598e6 0.0
0.0 0.0 0.0

-1.0894973676784362e6 8.940855603057938e6 0.0
8.940855603057938e6 -1.6612027096922903e6 0.0
0.0 0.0 0.0

-8.746974869744793e6 1.7525780207614932e7 0.0
1.7525780207614932e7 -2.323348777981997e6 0.0
0.0 0.0 0.0

3.452395074789419e6 8.624298518553037e6 0.0
8.624298518553037e6 -1.5033517387117805e7 0.0
0.0 0.0 0.0

-2.693930953539449e6 1.295898541582494e7 0.0
1.295898541582494e7 -2.818714648231307e6 0.0
0.0 0.0 0.0

-1.8424461147424574e6 1.6466144684999261e7 0.0
1.6466144684999261e7 -6.174052620286904e6 0.0
0.0 0.0 0.0

-4.895373310890504e6 1.5646221463917086e7 0.0
1.5646221463917086e7 1.4063103622055931e7 0.0
0.0 0.0 0.0

605111.0284200826 1.3618223634572279e7 0.0
1.3618223634572279e7 -2.712329549856716e6 0.0
0.0 0.0 0.0

-7.041770066208329e6 1.2193374848790715e7 0.0
1.2193374848790715e7 7.0730000136093935e6 0.0
0.0 0.0 0.0

-1.2795061404194605e7 3.7924079441285892e6 0.0
3.7924079441285892e6 2.0688400971015148e7 0.0
0.0 0.0 0.0

-4.347282723855624e6 1.5817967236361485e7 0.0
1.5817967236361485e7 1.433386378951573e7 0.0
0.0 0.0 0.0

-8.76638429610514e6 1.2789199401029704e7 0.0
1.2789199401029704e7 1.1424242845397843e7 0.0
0.0 0.0 0.0

-1.1360585977225028e7 -635276.6320045948 0.0
-635276.6320045948 1.7948196865534198e7 0.0
0.0 0.0 0.0

-6.633561971436728e6 1.4526656263186036e7 0.0
1.4526656263186036e7 1.0118352614925057e7 0.0
0.0 0.0 0.0

-6.45875657711907e6 1.609595217810415e7 0.0
1.609595217810415e7 1.0924660292261131e7 0.0
0.0 0.0 0.0

-4.516679424491712e6 4.9956640376551505e6 0.0
4.9956640376551505e6 5.929218988430231e6 0.0
0.0 0.0 0.0

-1.5436939376256852e6 1.6057685469627718e7 0.0
1.6057685469627718e7 -7.015971431103857e6 0.0
0.0 0.0 0.0

-4.941455391584983e6 1.8384875561644647e7 0.0
1.8384875561644647e7 3.8078884661419345e6 0.0
0.0 0.0 0.0

-8.886942048638739e6 1.3158479745897014e7 0.0
1.3158479745897014e7 1.1983660306818534e7 0.0
0.0 0.0 0.0

-1.181138193932459e7 -176013.6111807945 0.0
-176013.6111807945 2.702746642874569e7 0.0
0.0 0.0 0.0

-3.3878505049449736e6 1.5658756782935053e7 0.0
1.5658756782935053e7 7.660794628678946e6 0.0
0.0 0.0 0.0

-8.597735373885214e6 9.656119411491359e6 0.0
9.656119411491359e6 1.3046468334081065e7 0.0
0.0 0.0 0.0

2.525685906118964e6 1.0099099686547337e7 0.0
1.0099099686547337e7 -1.9907109924886078e7 0.0
0.0 0.0 0.0

-6.249288525420066e6 1.5154140042139338e7 0.0
1.5154140042139338e7 1.780929381908218e7 0.0
0.0 0.0 0.0

-1.129846060420517e7 1.0701106084293906e7 0.0
1.0701106084293906e7 1.6345856289466754e7 0.0
0.0 0.0 0.0

2.248756601874182e6 9.155951003544383e6 0.0
9.155951003544383e6 -9.707602060122354e6 0.0
0.0 0.0 0.0

4.883934448261362e6 4.584056971276306e6 0.0
4.584056971276306e6 -1.8540817302869346e7 0.0
0.0 0.0 0.0

-1.141184530949966e6 1.5310441128895514e7 0.0
1.5310441128895514e7 1.281245547391012e7 0.0
0.0 0.0 0.0

-3.4395067254248885e6 1.5612984139425986e7 0.0
1.5612984139425986e7 1.515699173868411e7 0.0
0.0 0.0 0.0

-735048.5074891772 1.3530750329277588e7 0.0
1.3530750329277588e7 -5.513229438000356e6 0.0
0.0 0.0 0.0

-5.079936187935692e6 1.8293894508724857e7 0.0
1.8293894508724857e7 8.164131242669575e6 0.0
0.0 0.0 0.0

-3.730604581617379e6 2.4326283951872826e7 0.0
2.4326283951872826e7 1.0378043005883473e6 0.0
0.0 0.0 0.0

-158743.17003803095 1.4792685117599756e7 0.0
1.4792685117599756e7 -9.693868875957988e6 0.0
0.0 0.0 0.0

-7.511331939146761e6 -830035.9175731438 0.0
-830035.9175731438 1.0798865435466435e7 0.0
0.0 0.0 0.0

1.8507448885120498e6 1.143609791878868e7 0.0
1.143609791878868e7 -1.74061071505813e7 0.0
0.0 0.0 0.0

-5.796789197130794e6 1.654453118194513e7 0.0
1.654453118194513e7 9.311507535669113e6 0.0
0.0 0.0 0.0

-1.1592778098136373e7 9.36162419162727e6 0.0
9.36162419162727e6 1.685407753608107e7 0.0
0.0 0.0 0.0

976859.1780527264 1.2894714195267102e7 0.0
1.2894714195267102e7 4.614498148175371e6 0.0
0.0 0.0 0.0

3.351857592067955e6 8.446112217574703e6 0.0
8.446112217574703e6 -2.2751290259448476e7 0.0
0.0 0.0 0.0

2.5835831693879925e6 1.0021260798281856e7 0.0
1.0021260798281856e7 -1.8795372592450637e7 0.0
0.0 0.0 0.0

-865459.0501072927 2.569965459725556e7 0.0
2.569965459725556e7 -4.1856190415339367e6 0.0
0.0 0.0 0.0

-4.270226124966708e6 1.7950831536852613e7 0.0
1.7950831536852613e7 3.25124209762872e6 0.0
0.0 0.0 0.0

-4.595871931363784e6 1.885830629036707e7 0.0
1.885830629036707e7 4.902074913705615e6 0.0
0.0 0.0 0.0

-3.6691519323044643e6 1.8586788937010996e7 0.0
1.8586788937010996e7 -409883.1557577908 0.0
0.0 0.0 0.0

4.358300119943602e6 4.934327258412518e6 0.0
4.934327258412518e6 -1.2105717720737047e7 0.0
0.0 0.0 0.0

-289374.5163674534 1.1626271004657079e7 0.0
1.1626271004657079e7 -5.949086269792203e6 0.0
0.0 0.0 0.0

-5.749400774694914e6 1.6462227190595469e7 0.0
1.6462227190595469e7 8.794791168434393e6 0.0
0.0 0.0 0.0

-994021.4878748979 1.6449517101326345e7 0.0
1.6449517101326345e7 -7.139452609264173e6 0.0
0.0 0.0 0.0

-3.502675591556233e6 2.3782232490349725e7 0.0
2.3782232490349725e7 1.2562305221577154e6 0.0
0.0 0.0 0.0

-3.8179782801796068e6 6.851514239861723e6 0.0
6.851514239861723e6 4.1612987120868624e6 0.0
0.0 0.0 0.0

-1.2828912598310355e7 5.215499418838603e6 0.0
5.215499418838603e6 1.7300719760890808e7 0.0
0.0 0.0 0.0

-3.4442854352546297e6 2.3344037534654398e7 0.0
2.3344037534654398e7 1.4101994393841312e6 0.0
0.0 0.0 0.0

-2.091321880840494e6 1.6893944635862917e7 0.0
1.6893944635862917e7 -5.383284177669413e6 0.0
0.0 0.0 0.0

2.225385874067786e6 9.26202487132655e6 0.0
9.26202487132655e6 -1.2341138247463811e7 0.0
0.0 0.0 0.0

-6.410743746120868e6 1.310611736419119e7 0.0
1.310611736419119e7 8.845242479622109e6 0.0
0.0 0.0 0.0

3.5640179760272773e6 7.962409843698489e6 0.0
7.962409843698489e6 -2.3650840770863242e7 0.0
0.0 0.0 0.0

-3.444091653588622e6 2.11156714095644e7 0.0
2.11156714095644e7 2.2562526074092267e6 0.0
0.0 0.0 0.0

-3.533924574881726e6 1.6369497921097167e7 0.0
1.6369497921097167e7 6.263251135804409e6 0.0
0.0 0.0 0.0

1.8582476855978696e6 1.0838629754971353e7 0.0
1.0838629754971353e7 -2.105312156803129e7 0.0
0.0 0.0 0.0

-5.023657771882785e6 1.923237773606642e7 0.0
1.923237773606642e7 5.208635733432171e6 0.0
0.0 0.0 0.0

-1.2879767006051894e7 5.205840099665294e6 0.0
5.205840099665294e6 1.8436104495319452e7 0.0
0.0 0.0 0.0

1.8941123664419437e6 9.022080749396442e6 0.0
9.022080749396442e6 -1.087092140396005e7 0.0
0.0 0.0 0.0

-1.3276809755583405e6 1.4786612009891955e7 0.0
1.4786612009891955e7 7.071664881095664e6 0.0
0.0 0.0 0.0

-4.933125279525677e6 1.7724003608557574e7 0.0
1.7724003608557574e7 6.08708531863456e6 0.0
0.0 0.0 0.0

1.3344856826298032e6 1.1433386522867462e7 0.0
1.1433386522867462e7 -2.0710745624279022e7 0.0
0.0 0.0 0.0

-9.928428798832009e6 3.381594090873228e7 0.0
3.381594090873228e7 -7.278952055109399e6 0.0
0.0 0.0 0.0

-1.0736951840381011e7 1.2196098627689723e7 0.0
1.2196098627689723e7 1.4556071288488686e7 0.0
0.0 0.0 0.0

-4.3846078548416095e6 1.4742108149917135e7 0.0
1.4742108149917135e7 -2.8848786380583096e7 0.0
0.0 0.0 0.0

-2.8873851572541995e6 7.49171724659381e6 0.0
7.49171724659381e6 2.0932075964700251e6 0.0
0.0 0.0 0.0

-6.617917985416496e6 1.525619043560567e7 0.0
1.525619043560567e7 7.86935240317816e6 0.0
0.0 0.0 0.0

-8.925160884732857e6 1.4432938607163532e7 0.0
1.4432938607163532e7 1.816441724420023e7 0.0
0.0 0.0 0.0

-6.507454418495249e6 1.2071819156186108e7 0.0
1.2071819156186108e7 8.921501668743234e6 0.0
0.0 0.0 0.0

-6.533403544482391e6 1.3386809113063253e7 0.0
1.3386809113063253e7 3.595567662975773e7 0.0
0.0 0.0 0.0

-5.772103046635192e6 1.5342101546471471e7 0.0
1.5342101546471471e7 7.7151389100334775e6 0.0
0.0 0.0 0.0

326287.96345396247 1.3357498716667563e7 0.0
1.3357498716667563e7 -1.4976024867784083e7 0.0
0.0 0.0 0.0

-129057.87067994522 1.522875106983324e7 0.0
1.522875106983324e7 -9.739968549309198e6 0.0
0.0 0.0 0.0

8.611005539610109e7 1.5961896196265e7 0.0
1.5961896196265e7 6.028352251535267e6 0.0
0.0 0.0 0.0

-8.41081720544253e6 -7.67325288135512e6 0.0
-7.67325288135512e6 2.0929049127630882e7 0.0
0.0 0.0 0.0

5.584862358396673e6 3.4482137029749e6 0.0
3.4482137029749e6 -2.0616430941195745e7 0.0
0.0 0.0 0.0

-3.203224596362384e6 2.819767578484539e6 0.0
2.819767578484539e6 2.2690178348769173e6 0.0
0.0 0.0 0.0

-3.42723053186019e6 1.8186965253837958e7 0.0
1.8186965253837958e7 -1.1411979863548889e6 0.0
0.0 0.0 0.0

-9.619862151772043e6 -5.603228613746181e6 0.0
-5.603228613746181e6 2.9593551012382105e7 0.0
0.0 0.0 0.0

-3.118503975701393e6 1.316038969937931e7 0.0
1.316038969937931e7 -1.8484508640872594e7 0.0
0.0 0.0 0.0

-1.1862157358658858e7 7.788548176374711e6 0.0
7.788548176374711e6 1.706239084047468e7 0.0
0.0 0.0 0.0

-9.16561343353255e6 1.3412112351166204e7 0.0
1.3412112351166204e7 1.249163569050974e7 0.0
0.0 0.0 0.0

5.657577431758783e6 3.283883873349369e6 0.0
3.283883873349369e6 -2.2819099034531824e7 0.0
0.0 0.0 0.0

506242.18844454736 1.3561138871761404e7 0.0
1.3561138871761404e7 -9.869096284802347e6 0.0
0.0 0.0 0.0

-4.0893284136188626e6 2.499322866054709e7 0.0
2.499322866054709e7 1.030398527355128e6 0.0
0.0 0.0 0.0

1.4838588391499524e6 9.477246070461405e6 0.0
9.477246070461405e6 -1.0216958544103269e7 0.0
0.0 0.0 0.0

-1.152390057837034e6 1.6172948500814676e7 0.0
1.6172948500814676e7 -2.3660974298127843e6 0.0
0.0 0.0 0.0

-4.295635235162977e6 6.548673738257233e6 0.0
6.548673738257233e6 7.204769034750736e7 0.0
0.0 0.0 0.0

1.681325406108074e6 7.603384418867354e6 0.0
7.603384418867354e6 -5.236985455457134e7 0.0
0.0 0.0 0.0

-676999.047311835 1.4088881002212763e7 0.0
1.4088881002212763e7 -4.239966235618687e7 0.0
0.0 0.0 0.0

1.365354342164942e6 1.2419604085860152e7 0.0
1.2419604085860152e7 -1.2137006740599148e7 0.0
0.0 0.0 0.0

4.726919440062009e6 6.480843975077455e6 0.0
6.480843975077455e6 -2.4925966405037176e7 0.0
0.0 0.0 0.0

-1.4975517364040667e7 1.9488668367524315e7 0.0
1.9488668367524315e7 5.795697144919543e6 0.0
0.0 0.0 0.0

-1.1379695531738536e6 1.608010938119075e7 0.0
1.608010938119075e7 -7.995131880774989e6 0.0
0.0 0.0 0.0

-8.61273774532489e6 -7.54303287401442e6 0.0
-7.54303287401442e6 2.1991576467686936e7 0.0
0.0 0.0 0.0

-5.861897574457413e6 8.38804919099736e6 0.0
8.38804919099736e6 6.3502060525745675e6 0.0
0.0 0.0 0.0

-4.41020925225884e6 1.9119833642945673e7 0.0
1.9119833642945673e7 4.294637074131435e6 0.0
0.0 0.0 0.0

-6.116775201999029e6 1.680506339407826e7 0.0
1.680506339407826e7 8.17937940090655e6 0.0
0.0 0.0 0.0

-8.1106930169523135e6 1.0667521711959152e7 0.0
1.0667521711959152e7 9.044319711209463e6 0.0
0.0 0.0 0.0

-4.315641684882651e6 5.802430140544641e6 0.0
5.802430140544641e6 5.334067819830739e6 0.0
0.0 0.0 0.0

3.104705210031311e6 1.4235696247500338e7 0.0
1.4235696247500338e7 1.5520882175084366e6 0.0
0.0 0.0 0.0

-2.38153579974583e6 1.7344569744853925e7 0.0
1.7344569744853925e7 -4.587719604473018e6 0.0
0.0 0.0 0.0

-733700.411400483 5.895689226421413e6 0.0
5.895689226421413e6 -2.741620449152632e6 0.0
0.0 0.0 0.0

-2.8137520091738827e6 1.9596145704762552e7 0.0
1.9596145704762552e7 -382590.68567903416 0.0
0.0 0.0 0.0

-1.258291839370532e7 1.0735875733429248e7 0.0
1.0735875733429248e7 1.5832221068631612e7 0.0
0.0 0.0 0.0

-6.090914586880183e6 1.2749429800267158e7 0.0
1.2749429800267158e7 7.91366978060486e6 0.0
0.0 0.0 0.0

-8.722660286339553e6 -7.111483025861645e6 0.0
-7.111483025861645e6 2.3088393808959246e7 0.0
0.0 0.0 0.0

5.595936050004801e6 3.383284784219275e6 0.0
3.383284784219275e6 -2.1696737626703713e7 0.0
0.0 0.0 0.0

4.688135781399364e6 6.695236833617926e6 0.0
6.695236833617926e6 -2.6369599247398715e7 0.0
0.0 0.0 0.0

-1.2731104198912501e7 6.795579691598687e6 0.0
6.795579691598687e6 1.5663662373106997e7 0.0
0.0 0.0 0.0

3.5129813492217306e6 5.388296150551356e6 0.0
5.388296150551356e6 -4.485843509719174e7 0.0
0.0 0.0 0.0

-9.180782239087561e6 -2.8041788867154173e6 0.0
-2.8041788867154173e6 4.082937636037997e7 0.0
0.0 0.0 0.0

2.5043767550166827e6 8.847170909390068e6 0.0
8.847170909390068e6 -1.3022937779280284e7 0.0
0.0 0.0 0.0

3.677507002845768e6 7.945405024259077e6 0.0
7.945405024259077e6 -1.4293925312109172e7 0.0
0.0 0.0 0.0

-1.1860200272430463e6 2.3234583319726035e7 0.0
2.3234583319726035e7 -584024.5148000192 0.0
0.0 0.0 0.0

-6.193853765867537e6 2.178724137399635e7 0.0
2.178724137399635e7 6.348217554127304e6 0.0
0.0 0.0 0.0

-5.187486478784048e6 1.7401432254595052e7 0.0
1.7401432254595052e7 6.6829829608423095e6 0.0
0.0 0.0 0.0

-2.5063789833726287e6 1.884303155228678e7 0.0
1.884303155228678e7 -1.8050169948694669e6 0.0
0.0 0.0 0.0

-3.6990925202516466e6 2.3791838978629794e7 0.0
2.3791838978629794e7 3.1595503142494066e6 0.0
0.0 0.0 0.0

-4.9891108001989685e6 1.836501299481785e7 0.0
1.836501299481785e7 6.706781499719915e6 0.0
0.0 0.0 0.0

-1.3673436400026414e6 1.4823608822543474e7 0.0
1.4823608822543474e7 5.831011514125865e6 0.0
0.0 0.0 0.0

4.848576712630682e6 3.6269522642679363e6 0.0
3.6269522642679363e6 -3.7008264929597095e7 0.0
0.0 0.0 0.0

5.712297713180106e6 3.0693098085466805e6 0.0
3.0693098085466805e6 -2.5167899248741984e7 0.0
0.0 0.0 0.0

5.493161325521855e6 3.107337500934691e6 0.0
3.107337500934691e6 -3.186765315041103e7 0.0
0.0 0.0 0.0

-4.374485793587075e6 1.903461054729972e7 0.0
1.903461054729972e7 2.118089794713108e6 0.0
0.0 0.0 0.0

-4.198917298490028e6 7.791224764223173e6 0.0
7.791224764223173e6 1.7031289772641878e6 0.0
0.0 0.0 0.0

-9.459109734142123e6 -5.281019608847974e6 0.0
-5.281019608847974e6 3.05404896640722e7 0.0
0.0 0.0 0.0

-1.2153270594690062e7 7.0881700436417395e6 0.0
7.0881700436417395e6 1.4555655739836238e7 0.0
0.0 0.0 0.0

4.818631929309421e6 4.717885957580905e6 0.0
4.717885957580905e6 -1.5258501677664712e7 0.0
0.0 0.0 0.0

-1.0074098276136313e7 2.0034015543731738e7 0.0
2.0034015543731738e7 6.057633252690382e6 0.0
0.0 0.0 0.0

-3.238964543615089e6 1.3290455015873803e7 0.0
1.3290455015873803e7 -1.6509785385635056e7 0.0
0.0 0.0 0.0

-6.852092604843681e6 -8.473351508305129e6 0.0
-8.473351508305129e6 1.6203477948276887e7 0.0
0.0 0.0 0.0

-1.034843250625508e7 1.2094434336656004e6 0.0
1.2094434336656004e6 1.2784015687468138e7 0.0
0.0 0.0 0.0

-1.29324780622601e7 5.032233872052233e6 0.0
5.032233872052233e6 2.1174900838588998e7 0.0
0.0 0.0 0.0

-6.226398748286021e6 1.5446612230874259e7 0.0
1.5446612230874259e7 1.2394035102248402e7 0.0
0.0 0.0 0.0

2.3245787255889177e6 1.0384859865145333e7 0.0
1.0384859865145333e7 -1.6964078482091255e7 0.0
0.0 0.0 0.0

5.387844110233232e6 3.356249148561656e6 0.0
3.356249148561656e6 -3.5095944075865306e7 0.0
0.0 0.0 0.0

5.399368486927153e6 3.5925448820981532e6 0.0
3.5925448820981532e6 -1.9063031323805116e7 0.0
0.0 0.0 0.0

1.6429771233775471e6 2.467777475673065e7 0.0
2.467777475673065e7 -6.692603633897059e6 0.0
0.0 0.0 0.0

-9.42724367944976e6 -3.156302432582835e6 0.0
-3.156302432582835e6 3.9064949456309974e7 0.0
0.0 0.0 0.0

4.2735308431822155e6 7.4966755572964e6 0.0
7.4966755572964e6 -2.2976893184048478e7 0.0
0.0 0.0 0.0

-8.437028856136665e6 423205.91376328387 0.0
423205.91376328387 5.390374300944758e7 0.0
0.0 0.0 0.0

4.626068576924233e6 4.161153468772351e6 0.0
4.161153468772351e6 -4.006984059738635e7 0.0
0.0 0.0 0.0

-4.92842182621982e6 1.925356863887496e7 0.0
1.925356863887496e7 7.03683353317098e6 0.0
0.0 0.0 0.0

-618236.0488849883 1.0056153980513977e7 0.0
1.0056153980513977e7 -5.422030798747127e6 0.0
0.0 0.0 0.0

-870623.7411278193 1.4155376434289392e7 0.0
1.4155376434289392e7 -7.839167126207565e6 0.0
0.0 0.0 0.0

541313.2355122343 1.3286576987200212e7 0.0
1.3286576987200212e7 -1.3266712543768505e7 0.0
0.0 0.0 0.0

-8.965166207283217e6 -2.3593033819612013e6 0.0
-2.3593033819612013e6 4.314424891880811e7 0.0
0.0 0.0 0.0

5.35940262264063e6 3.2547653640518435e6 0.0
3.2547653640518435e6 -3.330453893726188e7 0.0
0.0 0.0 0.0

-1.2168043052093346e7 1.1599768961234188e7 0.0
1.1599768961234188e7 1.6357552033427628e7 0.0
0.0 0.0 0.0

-1.244084599777067e7 1.012115994833578e7 0.0
1.012115994833578e7 1.5484641294914294e7 0.0
0.0 0.0 0.0

-1.3005555607512897e7 6.242929788390564e6 0.0
6.242929788390564e6 1.8878441896107085e7 0.0
0.0 0.0 0.0

-6.993305929454199e6 1.1298929973296016e7 0.0
1.1298929973296016e7 1.0000711877010582e7 0.0
0.0 0.0 0.0

-827587.9169259155 1.5646177907970775e7 0.0
1.5646177907970775e7 1.837063492580578e7 0.0
0.0 0.0 0.0

-1.8270415650093774e6 1.771610593591664e7 0.0
1.771610593591664e7 -4.000813088664232e6 0.0
0.0 0.0 0.0

-4.1787125921841804e6 2.0050812096705474e7 0.0
2.0050812096705474e7 2.0257881928222866e6 0.0
0.0 0.0 0.0

-2.5388458922288897e6 1.8563599015293583e7 0.0
1.8563599015293583e7 -3.0132523520689732e6 0.0
0.0 0.0 0.0

3.0940437941246377e6 8.872057585421287e6 0.0
8.872057585421287e6 -1.2944180084289605e7 0.0
0.0 0.0 0.0

-4.688053354235306e6 2.0862440740009222e7 0.0
2.0862440740009222e7 5.509634993376208e6 0.0
0.0 0.0 0.0

-698395.551961578 1.5525021865044504e7 0.0
1.5525021865044504e7 -3.406789958463214e6 0.0
0.0 0.0 0.0

1.9309999168311683e6 1.1686055025989642e7 0.0
1.1686055025989642e7 -1.3589731321037237e7 0.0
0.0 0.0 0.0

-1.2242928156761725e7 1.0342212170316562e7 0.0
1.0342212170316562e7 2.000468593937657e7 0.0
0.0 0.0 0.0

-1.2860541455972629e7 7.497456692743724e6 0.0
7.497456692743724e6 1.6229980241187852e7 0.0
0.0 0.0 0.0

3.0388120160143897e6 8.28654345351654e6 0.0
8.28654345351654e6 -1.4829260216846824e7 0.0
0.0 0.0 0.0

-9.352728536514636e6 -6.441062720816647e6 0.0
-6.441062720816647e6 2.628801979706074e7 0.0
0.0 0.0 0.0

5.646989342126104e6 3.2559141469064606e6 0.0
3.2559141469064606e6 -2.3378205151756935e7 0.0
0.0 0.0 0.0

-3.529423191518439e6 1.5648770188570289e7 0.0
1.5648770188570289e7 1.207723836505583e7 0.0
0.0 0.0 0.0

-9.46113270774971e6 -3.5479204190742024e6 0.0
-3.5479204190742024e6 3.735691206368193e7 0.0
0.0 0.0 0.0

5.564383084771415e6 3.1036734155367017e6 0.0
3.1036734155367017e6 -2.9692161474097405e7 0.0
0.0 0.0 0.0

5.6174438287555035e6 3.2409891193608427e6 0.0
3.2409891193608427e6 -2.393156230531002e7 0.0
0.0 0.0 0.0

-9.414317983286778e6 -6.17281838336882e6 0.0
-6.17281838336882e6 2.732460774968411e7 0.0
0.0 0.0 0.0

-8.623299172276039e6 1.341644955278876e7 0.0
1.341644955278876e7 2.3341439933304213e7 0.0
0.0 0.0 0.0

5.682944166556003e6 3.063812647704101e6 0.0
3.063812647704101e6 -2.8886848048482817e7 0.0
0.0 0.0 0.0

-9.455242587401994e6 -3.9983156292875456e6 0.0
-3.9983156292875456e6 3.5651357702109106e7 0.0
0.0 0.0 0.0

-6.84920765894709e6 1.5481340446764277e7 0.0
1.5481340446764277e7 1.349791340799738e7 0.0
0.0 0.0 0.0

-9.75865233974056e6 -4.2435959318353245e6 0.0
-4.2435959318353245e6 2.3388324835012205e7 0.0
0.0 0.0 0.0

-9.563839182456255e6 -5.838199124400325e6 0.0
-5.838199124400325e6 2.8565496344334383e7 0.0
0.0 0.0 0.0

5.773158076092454e6 3.183113841450541e6 0.0
3.183113841450541e6 -2.462331318961487e7 0.0
0.0 0.0 0.0

5.689853440319732e6 3.104890904217954e6 0.0
3.104890904217954e6 -2.80388564988325e7 0.0
0.0 0.0 0.0

-9.523694265780782e6 -4.372081155633712e6 0.0
-4.372081155633712e6 3.4201135024890535e7 0.0
0.0 0.0 0.0

-1.857256812032388e8 4.3826980167059176e7 0.0
4.3826980167059176e7 -1.7475334809488326e7 0.0
0.0 0.0 0.0

1.4326570189598435e8 2.5861096597733304e7 0.0
2.5861096597733304e7 7.05103970985236e6 0.0
0.0 0.0 0.0

-8.477868645973898e6 1.1009457287719302e7 0.0
1.1009457287719302e7 9.99155061254155e6 0.0
0.0 0.0 0.0

5.60094720974014e6 3.0848964222549545e6 0.0
3.0848964222549545e6 -2.7227036683075536e7 0.0
0.0 0.0 0.0

-9.628105211909823e6 -4.613487665758336e6 0.0
-4.613487665758336e6 3.305554746314803e7 0.0
0.0 0.0 0.0

602352.0275481 1.2624200104344977e7 0.0
1.2624200104344977e7 -2.131578737953257e6 0.0
0.0 0.0 0.0

-1.2678143718304373e7 8.536192995908877e6 0.0
8.536192995908877e6 1.5662186288354374e7 0.0
0.0 0.0 0.0

-4.209416551308736e6 1.9363618201263357e7 0.0
1.9363618201263357e7 3.7494498938845433e6 0.0
0.0 0.0 0.0

-2.8497347625698727e6 1.6025126081309361e7 0.0
1.6025126081309361e7 1.2634338031766456e7 0.0
0.0 0.0 0.0

-9.592034135227252e6 -4.879654789345875e6 0.0
-4.879654789345875e6 3.1848498797580503e7 0.0
0.0 0.0 0.0

5.714989544179937e6 3.0329962709865496e6 0.0
3.0329962709865496e6 -2.66353078490514e7 0.0
0.0 0.0 0.0

-2.5707495149124768e6 1.7762542323910233e7 0.0
1.7762542323910233e7 -3.7752154872629005e6 0.0
0.0 0.0 0.0

-2.772064724266203e6 1.4168624907079522e7 0.0
1.4168624907079522e7 -3.0725006790772066e7 0.0
0.0 0.0 0.0

-3.460495815625437e6 1.9627101227917366e7 0.0
1.9627101227917366e7 -142326.55533160444 0.0
0.0 0.0 0.0

1.1247107575752418e6 1.2803762750093654e7 0.0
1.2803762750093654e7 -1.1380121062793676e7 0.0
0.0 0.0 0.0

1.3164995427309917e6 1.2095513577613823e7 0.0
1.2095513577613823e7 -1.5724823682234744e7 0.0
0.0 0.0 0.0

-923684.0827529968 1.4674304566572594e7 0.0
1.4674304566572594e7 3.086644477316423e6 0.0
0.0 0.0 0.0

-1.6278145314330093e6 1.776216845552373e7 0.0
1.776216845552373e7 -5.4323062591357585e6 0.0
0.0 0.0 0.0

-1.0432363223245975e6 1.6422401500590831e7 0.0
1.6422401500590831e7 -6.881327231116408e6 0.0
0.0 0.0 0.0

-1.510909942525168e6 1.3063712890124943e7 0.0
1.3063712890124943e7 -2.4360305151091892e7 0.0
0.0 0.0 0.0

-3.728948566104955e6 1.9897119650347747e7 0.0
1.9897119650347747e7 2.2662254665303454e6 0.0
0.0 0.0 0.0

-5.695724135928167e6 1.7139352991408154e7 0.0
1.7139352991408154e7 7.133906154737973e6 0.0
0.0 0.0 0.0

-3.4792267011629753e6 1.8213395602531865e7 0.0
1.8213395602531865e7 -5.072202163274419e6 0.0
0.0 0.0 0.0

1.1130751925838972e6 1.2375448067923475e7 0.0
1.2375448067923475e7 -1.5761721109622337e7 0.0
0.0 0.0 0.0

-1.10701584552729e7 7.838066458217396e6 0.0
7.838066458217396e6 1.3014059755114365e7 0.0
0.0 0.0 0.0

394253.1770795323 1.4112289062659243e7 0.0
1.4112289062659243e7 5.146165826962156e6 0.0
0.0 0.0 0.0

-1.0572212401456024e7 9.332931426063064e6 0.0
9.332931426063064e6 1.2799890624208767e7 0.0
0.0 0.0 0.0

-2.344399532654324e6 1.4100720227144679e7 0.0
1.4100720227144679e7 -1.7888885627902574e6 0.0
0.0 0.0 0.0

-3.8691471060523894e6 1.9762852794569694e7 0.0
1.9762852794569694e7 2.798006625453266e6 0.0
0.0 0.0 0.0

324964.35456700996 1.2467242775394069e7 0.0
1.2467242775394069e7 -1.8672552164111555e7 0.0
0.0 0.0 0.0

-5.687056414837244e6 1.5707092762045661e7 0.0
1.5707092762045661e7 1.2740935088999448e7 0.0
0.0 0.0 0.0

-3.956994604567104e6 2.427829536986082e7 0.0
2.427829536986082e7 3.496887647705e6 0.0
0.0 0.0 0.0

-3.1506367509471634e6 1.4338287359390114e7 0.0
1.4338287359390114e7 -2.1323503452698453e6 0.0
0.0 0.0 0.0

-2.9822815568073164e6 1.853737412607303e7 0.0
1.853737412607303e7 -2.2768692168860366e6 0.0
0.0 0.0 0.0

5.414858091638125e6 1.6606288987660963e7 0.0
1.6606288987660963e7 6.924780336652013e6 0.0
0.0 0.0 0.0

-4.052274086073731e6 1.9578906569105104e7 0.0
1.9578906569105104e7 3.240112326240997e6 0.0
0.0 0.0 0.0

-9.853589312457811e6 9.65796595278663e6 0.0
9.65796595278663e6 5.036774600246703e6 0.0
0.0 0.0 0.0

-3.63410800025847e6 2.099270215265759e7 0.0
2.099270215265759e7 2.6496083084902815e6 0.0
0.0 0.0 0.0

5.054441961873718e6 3.904781111809535e6 0.0
3.904781111809535e6 -1.581629650753786e7 0.0
0.0 0.0 0.0

5.033728119418775e6 3.967866658227374e6 0.0
3.967866658227374e6 -1.5384133029806476e7 0.0
0.0 0.0 0.0

-2.730135538358844e6 1.8179902170130912e7 0.0
1.8179902170130912e7 -2.88959988917233e6 0.0
0.0 0.0 0.0

-2.6212026207028804e6 1.5934606278824653e7 0.0
1.5934606278824653e7 1.5643652418894237e7 0.0
0.0 0.0 0.0

-3.4290885241111834e6 2.1459292456765383e7 0.0
2.1459292456765383e7 2.4628822839199174e6 0.0
0.0 0.0 0.0

-1.2924517449973244e7 6.240701205012629e6 0.0
6.240701205012629e6 1.7732283828162413e7 0.0
0.0 0.0 0.0

-3.539844000485649e6 2.30000288369429e7 0.0
2.30000288369429e7 3.024632515922442e6 0.0
0.0 0.0 0.0

-4.0796816507143485e6 1.578995378764678e7 0.0
1.578995378764678e7 7.822280560484109e6 0.0
0.0 0.0 0.0

-920185.7127463197 1.1875538761835113e7 0.0
1.1875538761835113e7 2.5356013570081196e6 0.0
0.0 0.0 0.0

2.9194024048216837e6 1.0167196397571929e7 0.0
1.0167196397571929e7 -1.7631599449768014e7 0.0
0.0 0.0 0.0

-4.829299691867981e6 1.9318073492645066e7 0.0
1.9318073492645066e7 3.977838917794477e6 0.0
0.0 0.0 0.0

-7.461198240260752e6 -4.783126128602678e6 0.0
-4.783126128602678e6 1.3591781945931379e7 0.0
0.0 0.0 0.0

-9.08618113133882e6 1.2454895978124777e7 0.0
1.2454895978124777e7 2.4253290824949622e7 0.0
0.0 0.0 0.0

-922953.8855416914 1.2810602644323418e7 0.0
1.2810602644323418e7 -2.7541261840380717e7 0.0
0.0 0.0 0.0

-1.236544627376813e7 7.409273514374899e6 0.0
7.409273514374899e6 2.0351308996439368e7 0.0
0.0 0.0 0.0

1.0396818609462527e6 1.8118425444049925e7 0.0
1.8118425444049925e7 -5.040934042545413e6 0.0
0.0 0.0 0.0

2.6649715044382494e6 1.054722347933849e7 0.0
1.054722347933849e7 -1.5845153324889343e7 0.0
0.0 0.0 0.0

-3.4064571466725003e6 1.4048322051851343e7 0.0
1.4048322051851343e7 -1.5785627143365135e6 0.0
0.0 0.0 0.0

-3.276030919950196e6 1.929631867910885e7 0.0
1.929631867910885e7 -828092.9157247155 0.0
0.0 0.0 0.0

378460.24151996686 1.236564230805939e7 0.0
1.236564230805939e7 -4.78596287964935e6 0.0
0.0 0.0 0.0

-1.160259888195264e7 6.967494083540191e6 0.0
6.967494083540191e6 1.650502160169567e7 0.0
0.0 0.0 0.0

-1.2425878984907353e7 9.315112604560148e6 0.0
9.315112604560148e6 1.9880117409863025e7 0.0
0.0 0.0 0.0

-3.1300411738378108e6 1.891774162121967e7 0.0
1.891774162121967e7 -1.549652561681501e6 0.0
0.0 0.0 0.0

-7.558199279508718e6 1.0401894799936095e7 0.0
1.0401894799936095e7 1.1030971576543657e7 0.0
0.0 0.0 0.0

5.295996510991226e6 4.874984575852935e6 0.0
4.874984575852935e6 -2.335340278207759e7 0.0
0.0 0.0 0.0

-7.604730565184253e6 1.2924027138868503e7 0.0
1.2924027138868503e7 8.972827512182344e6 0.0
0.0 0.0 0.0

7528.570956918411 1.2733100988960497e7 0.0
1.2733100988960497e7 -8.452477423330728e6 0.0
0.0 0.0 0.0

333857.6994036574 1.274709198556037e7 0.0
1.274709198556037e7 37522.724620270135 0.0
0.0 0.0 0.0

-1.802366032243763e6 1.5609204119718e7 0.0
1.5609204119718e7 -7.035125117320444e6 0.0
0.0 0.0 0.0

-1.9120277451576407e6 1.4121088874892306e7 0.0
1.4121088874892306e7 -4.977099463527152e6 0.0
0.0 0.0 0.0

1.098687766395595e6 1.2422219461630005e7 0.0
1.2422219461630005e7 -1.4874892971669069e7 0.0
0.0 0.0 0.0

3.7273256257184213e6 7.47277748332834e6 0.0
7.47277748332834e6 -1.8144060994286217e7 0.0
0.0 0.0 0.0

185287.2028489411 1.253672463879283e7 0.0
1.253672463879283e7 -6.690443976469271e6 0.0
0.0 0.0 0.0

2.4512117151631583e6 9.172134776995119e6 0.0
9.172134776995119e6 -1.341815209658279e7 0.0
0.0 0.0 0.0

4.342758486801249e6 4.793390305185071e6 0.0
4.793390305185071e6 -1.3029381781050546e7 0.0
0.0 0.0 0.0

-4.481480823386379e6 1.9753517135598123e7 0.0
1.9753517135598123e7 2.9623849511398342e6 0.0
0.0 0.0 0.0

-575429.2842027913 1.040089016378138e7 0.0
1.040089016378138e7 -6.171224221048173e6 0.0
0.0 0.0 0.0

-5.636689742885217e6 1.5532658901818115e7 0.0
1.5532658901818115e7 1.1811257600402106e7 0.0
0.0 0.0 0.0

-3.216143332254973e6 -1.6412431586668217e6 0.0
-1.6412431586668217e6 6.061822697183205e6 0.0
0.0 0.0 0.0

1.7893976189977552e6 1.4181972085394984e7 0.0
1.4181972085394984e7 -95753.22088873759 0.0
0.0 0.0 0.0

-2.673287158856283e6 1.5939225704924105e7 0.0
1.5939225704924105e7 -5.969111333569874e6 0.0
0.0 0.0 0.0

3.324850180278714e6 7.798794840475188e6 0.0
7.798794840475188e6 -1.5487311801640779e7 0.0
0.0 0.0 0.0

-7.09224882612055e7 1.1313564328691524e7 0.0
1.1313564328691524e7 9.261985629761599e6 0.0
0.0 0.0 0.0

-8.083616948583895e6 1.4699976507062271e7 0.0
1.4699976507062271e7 1.4674805455270149e7 0.0
0.0 0.0 0.0

107101.85253944341 1.4478710830542658e7 0.0
1.4478710830542658e7 -9.85602543025359e6 0.0
0.0 0.0 0.0

-1.218899824221029e6 1.3126674053204468e7 0.0
1.3126674053204468e7 -6.162604707243644e6 0.0
0.0 0.0 0.0

2.2554362625158504e6 1.1291972874365682e7 0.0
1.1291972874365682e7 -1.624775473618197e7 0.0
0.0 0.0 0.0

-765974.3390419858 1.4611753606637942e7 0.0
1.4611753606637942e7 5.702391205270163e6 0.0
0.0 0.0 0.0

2.6589929657447664e6 1.0418993827101663e7 0.0
1.0418993827101663e7 -1.963498220140057e7 0.0
0.0 0.0 0.0

-573596.5084264711 1.484800864799471e7 0.0
1.484800864799471e7 6.771426944177439e6 0.0
0.0 0.0 0.0

183036.7352018645 1.331931374615541e7 0.0
1.331931374615541e7 -1.0865614391101433e7 0.0
0.0 0.0 0.0

4.0268580697107157e6 7.640926521498876e6 0.0
7.640926521498876e6 -1.6286024273532737e7 0.0
0.0 0.0 0.0

5.393328579617346e6 3.7057381617421485e6 0.0
3.7057381617421485e6 -2.630921068361812e7 0.0
0.0 0.0 0.0

-1.2377674797607213e6 1.9346001718639866e7 0.0
1.9346001718639866e7 -3.929194749132745e6 0.0
0.0 0.0 0.0

2.8781647551900093e6 1.0255390030925421e7 0.0
1.0255390030925421e7 -1.865624854994288e7 0.0
0.0 0.0 0.0

-4.804542887620851e6 2.0455318432116162e7 0.0
2.0455318432116162e7 5.881589171573222e6 0.0
0.0 0.0 0.0

-4.6632336953495685e6 1.6473597867272003e7 0.0
1.6473597867272003e7 1.228470559432178e6 0.0
0.0 0.0 0.0

2.5523913982259547e6 7.163469300242231e6 0.0
7.163469300242231e6 -8.693388908625102e6 0.0
0.0 0.0 0.0

-4.456007908510182e6 2.4823884428319916e7 0.0
2.4823884428319916e7 3.752632926426191e6 0.0
0.0 0.0 0.0

3.572186574450113e6 8.296848646967521e6 0.0
8.296848646967521e6 -1.466837379034221e7 0.0
0.0 0.0 0.0

-5.094495968943923e6 1.4656250507801378e7 0.0
1.4656250507801378e7 2.3095147163569573e7 0.0
0.0 0.0 0.0

-518644.05836889776 1.4825182650630692e7 0.0
1.4825182650630692e7 419463.1682914761 0.0
0.0 0.0 0.0

-6.400148659005303e6 2.119457961284345e7 0.0
2.119457961284345e7 6.544932613694461e6 0.0
0.0 0.0 0.0

-9.506994484294206e6 8.593851063896287e6 0.0
8.593851063896287e6 1.4140578415727591e7 0.0
0.0 0.0 0.0

1.9335111291325288e6 1.111690980604312e7 0.0
1.111690980604312e7 -1.6342628435903763e7 0.0
0.0 0.0 0.0

-1.5111915213750903e6 8.948001325358968e6 0.0
8.948001325358968e6 -3.066693083781054e6 0.0
0.0 0.0 0.0

-1.389519095195706e6 1.4532514359983483e7 0.0
1.4532514359983483e7 -4.326144621158255e6 0.0
0.0 0.0 0.0

6.158840610122073e6 1.471124911729275e7 0.0
1.471124911729275e7 -873213.0219443412 0.0
0.0 0.0 0.0

312729.25491162715 1.4433267578536445e7 0.0
1.4433267578536445e7 -1.0991189560301924e7 0.0
0.0 0.0 0.0

1.0514169760235026e6 7.822345258908546e6 0.0
7.822345258908546e6 -5.40707239936265e6 0.0
0.0 0.0 0.0

1.4891800483290972e6 1.177630242901329e7 0.0
1.177630242901329e7 -1.5644372934353441e7 0.0
0.0 0.0 0.0

-8.505218594705446e6 -5.865002364912149e6 0.0
-5.865002364912149e6 1.901974422985708e7 0.0
0.0 0.0 0.0

-5.817331603951415e6 1.6143660817116285e7 0.0
1.6143660817116285e7 1.1013341554775093e7 0.0
0.0 0.0 0.0

-1.2798361006423594e7 9.114963754657513e6 0.0
9.114963754657513e6 1.6204184687409185e7 0.0
0.0 0.0 0.0

-1.0942442271637155e7 2.042603911110355e7 0.0
2.042603911110355e7 2.4624513955983045e6 0.0
0.0 0.0 0.0

-1.3448477968302285e6 1.3082417356975207e7 0.0
1.3082417356975207e7 -2.378044411463053e7 0.0
0.0 0.0 0.0

-4.905958328955937e6 1.8820072574764095e7 0.0
1.8820072574764095e7 6.678063173276909e6 0.0
0.0 0.0 0.0

-5.251451214411235e6 1.949045425241314e7 0.0
1.949045425241314e7 6.683956624196226e6 0.0
0.0 0.0 0.0

-857473.5256712514 1.6538792325631356e7 0.0
1.6538792325631356e7 -7.260641774685476e6 0.0
0.0 0.0 0.0

106495.69755937438 1.2118828574640721e7 0.0
1.2118828574640721e7 -2.4871779311999768e7 0.0
0.0 0.0 0.0

-5.301148243061149e6 1.5358464733696809e7 0.0
1.5358464733696809e7 1.1686156686773764e7 0.0
0.0 0.0 0.0

-1.180618322036387e7 2.1160823788956287e6 0.0
2.1160823788956287e6 2.8470471989405014e7 0.0
0.0 0.0 0.0

2.508853638930591e6 4.0465600978120845e6 0.0
4.0465600978120845e6 -6.885052730829939e6 0.0
0.0 0.0 0.0

241541.3861102946 1.3144164501338338e7 0.0
1.3144164501338338e7 -1.463632830817618e7 0.0
0.0 0.0 0.0

-1.4225870405805598e6 1.726310430215385e7 0.0
1.726310430215385e7 -6.1702909545513e6 0.0
0.0 0.0 0.0

-2.5668934397860565e6 1.4769236386540363e7 0.0
1.4769236386540363e7 -1.4418244759528823e6 0.0
0.0 0.0 0.0

-364528.7414066442 1.2369435118244909e7 0.0
1.2369435118244909e7 -7.779839505935805e6 0.0
0.0 0.0 0.0

-3.8735357403333294e6 1.3519651674904374e7 0.0
1.3519651674904374e7 -1.894624556224734e7 0.0
0.0 0.0 0.0

-1.3018831871080857e7 8.253779127287526e6 0.0
8.253779127287526e6 1.852519211735135e7 0.0
0.0 0.0 0.0

-3.021658702829836e6 2.1253799856702697e7 0.0
2.1253799856702697e7 1.4355332358981585e6 0.0
0.0 0.0 0.0

-1.6592421048165083e7 1.8926074295212515e7 0.0
1.8926074295212515e7 6.706120859135613e6 0.0
0.0 0.0 0.0

1.9547478917027747e6 1.451852483718401e7 0.0
1.451852483718401e7 43113.02708652278 0.0
0.0 0.0 0.0

2.1751594703225433e6 7.033444577562036e6 0.0
7.033444577562036e6 -9.880556050847746e6 0.0
0.0 0.0 0.0

-2.771687446165506e6 1.4471706599698432e7 0.0
1.4471706599698432e7 -899307.5928602604 0.0
0.0 0.0 0.0

-1.2261111333133696e7 6.239854248406418e6 0.0
6.239854248406418e6 2.2605897472379122e7 0.0
0.0 0.0 0.0

-5.295331937771019e6 2.1561614473043296e7 0.0
2.1561614473043296e7 5.729791316080829e6 0.0
0.0 0.0 0.0

-6.046172683891696e6 1.529875836975641e7 0.0
1.529875836975641e7 1.2559198643727414e7 0.0
0.0 0.0 0.0

-3.958648079493846e6 2.0149843404317025e7 0.0
2.0149843404317025e7 1.5826487126546036e6 0.0
0.0 0.0 0.0

499625.3978141737 1.2958602643801127e7 0.0
1.2958602643801127e7 -1.1615465964746874e7 0.0
0.0 0.0 0.0

-1.2630549521046106e7 8.112578240812893e6 0.0
8.112578240812893e6 2.1597197581442177e7 0.0
0.0 0.0 0.0

393214.7083125971 1.349129198586493e7 0.0
1.349129198586493e7 -1.327651020281568e7 0.0
0.0 0.0 0.0

-2.717189067312638e6 1.6473012327589992e7 0.0
1.6473012327589992e7 -2.2340974437262733e6 0.0
0.0 0.0 0.0

-3.088188955679768e6 2.1523041948503084e7 0.0
2.1523041948503084e7 1.4762958698781412e6 0.0
0.0 0.0 0.0

3.9767937689124085e6 5.436955462008546e6 0.0
5.436955462008546e6 -1.35238589754754e7 0.0
0.0 0.0 0.0

263595.7308626906 1.5941035847503353e7 0.0
1.5941035847503353e7 -7.2972921158769075e6 0.0
0.0 0.0 0.0

-4.830780966586627e6 1.8722384873200744e7 0.0
1.8722384873200744e7 6.095464467641922e6 0.0
0.0 0.0 0.0

-1.0498827991210964e7 7.522336126004158e6 0.0
7.522336126004158e6 1.5179322157868605e7 0.0
0.0 0.0 0.0

-2.203862068701002e6 1.7497620828415025e7 0.0
1.7497620828415025e7 -4.897529849797714e6 0.0
0.0 0.0 0.0

-1.2876880320451098e7 1.0210116839639138e7 0.0
1.0210116839639138e7 1.793088026416883e7 0.0
0.0 0.0 0.0

-1.8329776037185453e6 4.2622443806483485e6 0.0
4.2622443806483485e6 5.060687639697335e6 0.0
0.0 0.0 0.0

-4.898550824764121e6 1.825267469867005e7 0.0
1.825267469867005e7 6.05741761197827e6 0.0
0.0 0.0 0.0

-1.2959584745180067e7 6.47613832327943e6 0.0
6.47613832327943e6 1.6724810163067367e7 0.0
0.0 0.0 0.0

-6.656371625907382e6 1.5491014931785597e7 0.0
1.5491014931785597e7 8.534152148805387e6 0.0
0.0 0.0 0.0

134922.62613995 1.5361476267527612e7 0.0
1.5361476267527612e7 1.4428045087875858e7 0.0
0.0 0.0 0.0

622930.8131468296 1.1891253251579756e7 0.0
1.1891253251579756e7 -2.2480474626792487e7 0.0
0.0 0.0 0.0

-3.4319063025356866e6 -1.1982285409829442e6 0.0
-1.1982285409829442e6 5.519086068177118e6 0.0
0.0 0.0 0.0

1.0368957150894743e6 1.938531906923374e7 0.0
1.938531906923374e7 -4.583639822082482e6 0.0
0.0 0.0 0.0

-1.222803872011403e7 6.406151637919035e6 0.0
6.406151637919035e6 1.9978373872747205e7 0.0
0.0 0.0 0.0

773076.2527720025 1.0941669777921714e7 0.0
1.0941669777921714e7 -9.613220269320635e6 0.0
0.0 0.0 0.0

-4.351092179459251e6 1.535162307956576e7 0.0
1.535162307956576e7 9.898311679379016e6 0.0
0.0 0.0 0.0

-1.1356661229833409e6 1.3917456719459135e7 0.0
1.3917456719459135e7 -4.66371555240107e6 0.0
0.0 0.0 0.0

-6.977384894475308e6 1.5653840174164303e7 0.0
1.5653840174164303e7 1.1803916532419572e7 0.0
0.0 0.0 0.0

360403.3522446018 9.295924149363047e6 0.0
9.295924149363047e6 -5.8886912985949535e6 0.0
0.0 0.0 0.0

-5.334520855355558e6 1.7609441665654663e7 0.0
1.7609441665654663e7 5.2647990221451325e6 0.0
0.0 0.0 0.0

-6.626740816523479e6 1.5624432374634633e7 0.0
1.5624432374634633e7 9.129744772158802e6 0.0
0.0 0.0 0.0

-19913.78742461931 1.5878616436415594e7 0.0
1.5878616436415594e7 -7.955764131853489e6 0.0
0.0 0.0 0.0

-5.11642449834603e6 1.8775508736568216e7 0.0
1.8775508736568216e7 5.136312231200771e6 0.0
0.0 0.0 0.0

-3.368581203822051e6 2.1826206139599945e7 0.0
2.1826206139599945e7 2.649316426114697e6 0.0
0.0 0.0 0.0

765197.0040735574 1.1915524484774617e7 0.0
1.1915524484774617e7 -1.994965590534932e7 0.0
0.0 0.0 0.0

1.769929358655341e6 3.80740809214705e6 0.0
3.80740809214705e6 -3.9901802426479394e6 0.0
0.0 0.0 0.0

-2.2864358833235977e6 2.981286084051871e6 0.0
2.981286084051871e6 808116.8753114336 0.0
0.0 0.0 0.0

5.172766808223311e6 4.67169842355543e6 0.0
4.67169842355543e6 -3.2391329647397373e7 0.0
0.0 0.0 0.0

-1.888738067972968e6 1.7151198967621863e7 0.0
1.7151198967621863e7 -4.00246481075862e6 0.0
0.0 0.0 0.0

-6.692767506319244e6 1.5163240271124706e7 0.0
1.5163240271124706e7 1.321404748874482e7 0.0
0.0 0.0 0.0

-1.2455672555837367e7 7.740508911951512e6 0.0
7.740508911951512e6 1.5085215089569371e7 0.0
0.0 0.0 0.0

-5.042673304607443e6 2.5444715408505805e7 0.0
2.5444715408505805e7 3.9634106071463767e6 0.0
0.0 0.0 0.0

-1.285015584041861e7 5.0473554762031045e6 0.0
5.0473554762031045e6 1.96935923657309e7 0.0
0.0 0.0 0.0

1.4247133838502213e7 4.049432490306248e7 0.0
4.049432490306248e7 -9.76985381056629e6 0.0
0.0 0.0 0.0

-1.1296638120026651e6 1.5727260424379278e7 0.0
1.5727260424379278e7 -8.079344865570249e6 0.0
0.0 0.0 0.0

1.639855657931218e6 1.2047490975849975e7 0.0
1.2047490975849975e7 -1.2834919136437701e7 0.0
0.0 0.0 0.0

-5.470462259531267e6 1.5759444669802053e7 0.0
1.5759444669802053e7 1.0976211917398024e7 0.0
0.0 0.0 0.0

-1.2968645381733403e7 7.325238128436907e6 0.0
7.325238128436907e6 2.048080126969765e7 0.0
0.0 0.0 0.0

-1.411922031427201e6 1.6811275468096573e7 0.0
1.6811275468096573e7 -5.642539722061185e6 0.0
0.0 0.0 0.0

-135126.42985334806 1.304361705678505e7 0.0
1.304361705678505e7 2.2018491522409283e6 0.0
0.0 0.0 0.0

5.248259601520077e6 3.95219152655444e6 0.0
3.95219152655444e6 -2.1501527992321152e7 0.0
0.0 0.0 0.0

-5.1065484609441385e6 6.3108775463756e6 0.0
6.3108775463756e6 6.832499450233232e6 0.0
0.0 0.0 0.0

-6.543587984764662e6 2.715638639449052e7 0.0
2.715638639449052e7 4.706000991419061e6 0.0
0.0 0.0 0.0

-8.029834502828015e6 1.5112118115936453e7 0.0
1.5112118115936453e7 1.4170784127347097e7 0.0
0.0 0.0 0.0

-126079.90841289004 1.324313265308667e7 0.0
1.324313265308667e7 -1.2548553796142796e7 0.0
0.0 0.0 0.0

2.5465948076712294e6 1.4646253664731633e7 0.0
1.4646253664731633e7 3.6907177265634183e6 0.0
0.0 0.0 0.0

-5.264379629191977e6 3.335292009327385e6 0.0
3.335292009327385e6 6.194465444918454e6 0.0
0.0 0.0 0.0

-3.893431334595184e6 8.511098704477059e6 0.0
8.511098704477059e6 1.1206761606389848e6 0.0
0.0 0.0 0.0

-163057.03855457576 1.2876270630833454e7 0.0
1.2876270630833454e7 -1.009028657160774e7 0.0
0.0 0.0 0.0

85744.11487946939 1.3056113581987636e7 0.0
1.3056113581987636e7 -7.635338337131764e6 0.0
0.0 0.0 0.0

-8.383809048703182e6 1.4110959302553797e7 0.0
1.4110959302553797e7 1.1591145333143786e7 0.0
0.0 0.0 0.0

189838.396947952 1.2970030705868538e7 0.0
1.2970030705868538e7 -1.5431334557520255e7 0.0
0.0 0.0 0.0

2.701000216192173e6 1.0551985297319882e7 0.0
1.0551985297319882e7 -1.6844731534161903e7 0.0
0.0 0.0 0.0

-4.956413184652558e6 1.8863802170696825e7 0.0
1.8863802170696825e7 7.125974076398026e6 0.0
0.0 0.0 0.0

1.0144771207776228e6 1.3265943269165652e7 0.0
1.3265943269165652e7 -1.326933423877082e7 0.0
0.0 0.0 0.0

-1.2158766045128074e7 8.444506463369986e6 0.0
8.444506463369986e6 1.7516299627977774e7 0.0
0.0 0.0 0.0

3.607871903765175e6 5.412388826963593e6 0.0
5.412388826963593e6 -1.0444836438547224e7 0.0
0.0 0.0 0.0

-1.943984945223572e7 2.3534330040329434e7 0.0
2.3534330040329434e7 -1.523047561593919e6 0.0
0.0 0.0 0.0

1.7842695302364524e6 6.6447645676592775e6 0.0
6.6447645676592775e6 -8.414096624167679e6 0.0
0.0 0.0 0.0

3.821258455065029e6 3.9127038420540965e6 0.0
3.9127038420540965e6 -1.050670652971243e7 0.0
0.0 0.0 0.0

-5.313944932784589e6 1.939463331542431e7 0.0
1.939463331542431e7 6.9855177302036565e6 0.0
0.0 0.0 0.0

995700.4768890275 1.218846309669603e7 0.0
1.218846309669603e7 3.319001998630471e6 0.0
0.0 0.0 0.0

2.0983280870125974e6 1.5118400122314833e7 0.0
1.5118400122314833e7 -3.5883644722212693e6 0.0
0.0 0.0 0.0

-9.391275407433156e6 1.4269286940332318e7 0.0
1.4269286940332318e7 1.6699183173401114e7 0.0
0.0 0.0 0.0

-6.535316121570146e6 1.5119784637854159e7 0.0
1.5119784637854159e7 1.6847281536972266e7 0.0
0.0 0.0 0.0

3.5090836233871337e6 1.3967904953788867e7 0.0
1.3967904953788867e7 2.819065304013885e7 0.0
0.0 0.0 0.0

100363.79629516916 1.4086401789317654e7 0.0
1.4086401789317654e7 -2.7709286396860653e6 0.0
0.0 0.0 0.0

-6.22525562862345e6 1.5709494291559573e7 0.0
1.5709494291559573e7 1.1877049639679383e7 0.0
0.0 0.0 0.0

-7.14299205919932e6 1.3569189815780215e7 0.0
1.3569189815780215e7 8.042659858380552e6 0.0
0.0 0.0 0.0

-279002.8202346987 1.2999650438368013e7 0.0
1.2999650438368013e7 -1.1673507821227236e7 0.0
0.0 0.0 0.0

-5.188150714608211e6 1.895221365450124e7 0.0
1.895221365450124e7 5.7229676197687425e6 0.0
0.0 0.0 0.0

-1.3040355149954736e7 7.231492950432914e6 0.0
7.231492950432914e6 1.9234181150726683e7 0.0
0.0 0.0 0.0

3.904556353062611e6 1.8304059930272117e7 0.0
1.8304059930272117e7 -4.975358345507102e6 0.0
0.0 0.0 0.0

-875121.1301661255 1.6011833039896632e7 0.0
1.6011833039896632e7 -7.269764497863228e6 0.0
0.0 0.0 0.0

3.7114037047514822e6 6.680096790221331e6 0.0
6.680096790221331e6 -1.5382155044781813e7 0.0
0.0 0.0 0.0

204393.31657216046 1.7026729314517077e7 0.0
1.7026729314517077e7 -5.668356696773055e6 0.0
0.0 0.0 0.0

-3.1800795803857376e6 1.938624237449665e7 0.0
1.938624237449665e7 447267.6732145734 0.0
0.0 0.0 0.0

-2.533053566909151e6 1.2787571212011065e7 0.0
1.2787571212011065e7 -8.443513543121675e6 0.0
0.0 0.0 0.0

5.46154067190389e6 1.6594909976180773e7 0.0
1.6594909976180773e7 1.8205144303412654e7 0.0
0.0 0.0 0.0

-1.0516545588928016e7 -3.9480049499567226e6 0.0
-3.9480049499567226e6 2.7607428707939077e7 0.0
0.0 0.0 0.0

-431645.7356019395 1.446988074751245e7 0.0
1.446988074751245e7 4.1105334944028514e6 0.0
0.0 0.0 0.0

-9.064777057124838e6 -6.099974303582786e6 0.0
-6.099974303582786e6 2.0907276612093758e7 0.0
0.0 0.0 0.0

-2.643577924713443e6 1.9653780843724765e7 0.0
1.9653780843724765e7 -767398.5939889295 0.0
0.0 0.0 0.0

-1.1201297667918417e6 1.8735371551057976e7 0.0
1.8735371551057976e7 -4.524908697777544e6 0.0
0.0 0.0 0.0

-5.750981167043904e6 2.6191706429226875e7 0.0
2.6191706429226875e7 4.0502124208704126e6 0.0
0.0 0.0 0.0

789448.5951935078 1.5395054291999727e7 0.0
1.5395054291999727e7 7.754284581446267e6 0.0
0.0 0.0 0.0

-1.2302837483717779e7 6.336516307073698e6 0.0
6.336516307073698e6 2.1232537033135585e7 0.0
0.0 0.0 0.0

-2.823852567904598e6 2.0016062216274302e7 0.0
2.0016062216274302e7 -11423.975889047724 0.0
0.0 0.0 0.0

-6.403869465832622e6 1.61979780885483e7 0.0
1.61979780885483e7 8.385573489605011e6 0.0
0.0 0.0 0.0

-5.351514572928148e6 1.798740293851271e7 0.0
1.798740293851271e7 5.647125883719398e6 0.0
0.0 0.0 0.0

4.084731843643738e6 7.785038997085545e6 0.0
7.785038997085545e6 -2.4411572738855116e7 0.0
0.0 0.0 0.0

-5.025289259762711e6 1.8800606046643466e7 0.0
1.8800606046643466e7 7.602168434159696e6 0.0
0.0 0.0 0.0

6.64702535322646e6 1.3398054086915504e7 0.0
1.3398054086915504e7 3.616146257436287e6 0.0
0.0 0.0 0.0

2.4206857426589727e6 1.095275595050075e7 0.0
1.095275595050075e7 -1.5084975628041811e7 0.0
0.0 0.0 0.0

-1.013809083704277e7 332890.40878729 0.0
332890.40878729 4.1080931812100224e7 0.0
0.0 0.0 0.0

-3.4873089267868265e6 2.075908479146298e7 0.0
2.075908479146298e7 2.141803062740485e6 0.0
0.0 0.0 0.0

569947.4697542215 1.4787949372414896e7 0.0
1.4787949372414896e7 3.612704077765775e6 0.0
0.0 0.0 0.0

-6.173200008328518e7 5.072828627636227e7 0.0
5.072828627636227e7 -1.3120051575046884e7 0.0
0.0 0.0 0.0

4.058193353839052e6 4.873259587181935e6 0.0
4.873259587181935e6 -1.3112610996995129e7 0.0
0.0 0.0 0.0

-2.974530356996664e6 1.5140048266902251e7 0.0
1.5140048266902251e7 -556522.3083361593 0.0
0.0 0.0 0.0

-1.0636857226773022e7 1.9490742368820272e7 0.0
1.9490742368820272e7 4.7069706589626055e6 0.0
0.0 0.0 0.0

154802.2346195397 1.4499314225462988e7 0.0
1.4499314225462988e7 -1.0488694781066172e7 0.0
0.0 0.0 0.0

-1.064246173548025e6 1.5666146932148522e7 0.0
1.5666146932148522e7 -8.5371883388379e6 0.0
0.0 0.0 0.0

4.792893312240252e6 1.5408543199180955e7 0.0
1.5408543199180955e7 -2.5361242688110555e6 0.0
0.0 0.0 0.0

-4.337840172788806e6 2.3184304724229235e7 0.0
2.3184304724229235e7 4.420549618814656e6 0.0
0.0 0.0 0.0

-1.7249890644600359e6 1.6182465949663803e7 0.0
1.6182465949663803e7 -6.026287717466067e6 0.0
0.0 0.0 0.0

5.18369580756673e6 5.218450546585826e6 0.0
5.218450546585826e6 -2.5452425646314263e7 0.0
0.0 0.0 0.0

-1.5845730420832021e7 2.1112579008550186e7 0.0
2.1112579008550186e7 -1.551978731022071e6 0.0
0.0 0.0 0.0

-5.983943333287297e6 1.5818854324120369e7 0.0
1.5818854324120369e7 9.03864808960291e6 0.0
0.0 0.0 0.0

-1.0112098528697626e6 1.8153945062289495e7 0.0
1.8153945062289495e7 -5.098904713716254e6 0.0
0.0 0.0 0.0

-5.539452958164249e6 1.465137477885606e7 0.0
1.465137477885606e7 2.1480039374114804e7 0.0
0.0 0.0 0.0

5.822592578716716e6 1.672676482897702e7 0.0
1.672676482897702e7 -5.4525882992250305e6 0.0
0.0 0.0 0.0

-5.356067600432631e6 1.7591309061338715e7 0.0
1.7591309061338715e7 8.892684494686635e6 0.0
0.0 0.0 0.0

-540056.3877473031 1.3512773466766976e7 0.0
1.3512773466766976e7 -8.308504104119137e6 0.0
0.0 0.0 0.0

1.2375009342282421e6 9.204780069666674e6 0.0
9.204780069666674e6 3.6982593733149776e6 0.0
0.0 0.0 0.0

686635.3234456624 1.5835670061104225e7 0.0
1.5835670061104225e7 -6.590325611912958e6 0.0
0.0 0.0 0.0

-8.900262809045156e6 1.4885743135682935e7 0.0
1.4885743135682935e7 1.535554553148184e7 0.0
0.0 0.0 0.0

-9.756620299685877e6 3.687837947332863e6 0.0
3.687837947332863e6 4.3210223949427e7 0.0
0.0 0.0 0.0

-9.424518153732482e6 -1.0591780327454328e6 0.0
-1.0591780327454328e6 4.576454174641706e7 0.0
0.0 0.0 0.0

-1.1478586888403343e6 1.472891679406879e7 0.0
1.472891679406879e7 -7.309208055612111e6 0.0
0.0 0.0 0.0

152178.07979062106 1.5114900651237074e7 0.0
1.5114900651237074e7 -9.197655204624541e6 0.0
0.0 0.0 0.0

-944451.31056665 1.5642286090340592e7 0.0
1.5642286090340592e7 -8.756497993398622e6 0.0
0.0 0.0 0.0

-5.768801380743863e6 1.7620977551320214e7 0.0
1.7620977551320214e7 -1.4783413474959712e6 0.0
0.0 0.0 0.0

7.780652147002168e6 1.5011172596302705e7 0.0
1.5011172596302705e7 3.944965016571733e6 0.0
0.0 0.0 0.0

-8.364908655716975e6 1.490261635127597e7 0.0
1.490261635127597e7 1.3649815842079923e7 0.0
0.0 0.0 0.0

-728395.1614104919 1.5570147853929227e7 0.0
1.5570147853929227e7 -8.924738344276575e6 0.0
0.0 0.0 0.0

-653780.1621419163 1.2976895060037851e7 0.0
1.2976895060037851e7 -7.486315806535501e6 0.0
0.0 0.0 0.0

-6.728032871869519e6 -3.4494485636039157e6 0.0
-3.4494485636039157e6 1.2053836956411498e7 0.0
0.0 0.0 0.0

1.7798412994036032e6 1.1109433023317121e7 0.0
1.1109433023317121e7 -1.990068774883883e7 0.0
0.0 0.0 0.0

-1.0803147167378932e7 -3.269588370054588e6 0.0
-3.269588370054588e6 2.0309427269658744e7 0.0
0.0 0.0 0.0

-5.114622367518149e6 -8.56425927435042e6 0.0
-8.56425927435042e6 1.263145809239046e7 0.0
0.0 0.0 0.0

-5.315824567958988e6 -8.313386672496549e6 0.0
-8.313386672496549e6 1.266985419246282e7 0.0
0.0 0.0 0.0

-3.4224961944803987e6 8.480234163286462e6 0.0
8.480234163286462e6 2.721549800354206e6 0.0
0.0 0.0 0.0

811211.5334101515 1.2579401776833767e7 0.0
1.2579401776833767e7 -1.2382070823015701e7 0.0
0.0 0.0 0.0

2.2625237589162765e6 1.0952306447892973e7 0.0
1.0952306447892973e7 -1.9654121445811793e7 0.0
0.0 0.0 0.0

-177307.8146232838 1.5136350762631942e7 0.0
1.5136350762631942e7 -3.105558569364229e6 0.0
0.0 0.0 0.0

-287273.59318787535 1.620249167995231e7 0.0
1.620249167995231e7 -6.953009975486463e6 0.0
0.0 0.0 0.0

2.3584898403095473e6 1.4898841518232768e7 0.0
1.4898841518232768e7 -1.833273874510887e6 0.0
0.0 0.0 0.0

-2.6483593236145834e6 1.8405517256948594e7 0.0
1.8405517256948594e7 -1.629001006831281e6 0.0
0.0 0.0 0.0

2.7815353910415415e7 1.6856314189369086e7 0.0
1.6856314189369086e7 3.0092169699358847e6 0.0
0.0 0.0 0.0

583802.0835455139 1.2349081937337339e7 0.0
1.2349081937337339e7 9.295364173604796e6 0.0
0.0 0.0 0.0

1.6346278754376366e6 1.5425569825927146e7 0.0
1.5425569825927146e7 -4.828649187111156e6 0.0
0.0 0.0 0.0

-328876.4030407565 1.8774716898624346e7 0.0
1.8774716898624346e7 -4.462873703142565e6 0.0
0.0 0.0 0.0

-3.1563117486595395e6 2.0575427976128202e7 0.0
2.0575427976128202e7 1.1609095908655708e6 0.0
0.0 0.0 0.0

684792.907092087 1.3782270564766597e7 0.0
1.3782270564766597e7 -1.2577068776120216e7 0.0
0.0 0.0 0.0

-1.0190112010242641e7 1.887133425691898e7 0.0
1.887133425691898e7 2.4941437940620473e6 0.0
0.0 0.0 0.0

-5.644856459364705e6 1.9709802087761827e7 0.0
1.9709802087761827e7 6.812587531291602e6 0.0
0.0 0.0 0.0

4.842545325373112e6 3.8801119899703576e6 0.0
3.8801119899703576e6 -1.4509616369380753e7 0.0
0.0 0.0 0.0

-3.4795064131468763e6 1.9206837987240605e7 0.0
1.9206837987240605e7 -408281.0226062031 0.0
0.0 0.0 0.0

-8.308556790014198e6 2.8077556207721457e7 0.0
2.8077556207721457e7 4.80138232779357e6 0.0
0.0 0.0 0.0

-997219.4782866498 1.0338956589661296e7 0.0
1.0338956589661296e7 -4.927789348036443e6 0.0
0.0 0.0 0.0

2.475607743832198e6 1.0934750127560532e7 0.0
1.0934750127560532e7 -1.6059684923370086e7 0.0
0.0 0.0 0.0

2.4704646345074344e6 1.0712242624042995e7 0.0
1.0712242624042995e7 -1.882905886791658e7 0.0
0.0 0.0 0.0

1.658356318512098e6 1.1551735039425254e7 0.0
1.1551735039425254e7 -1.9575990384439107e7 0.0
0.0 0.0 0.0

1.2767347658230965e6 2.4795474963382725e7 0.0
2.4795474963382725e7 -3.2929934492596136e6 0.0
0.0 0.0 0.0

-535756.4183251187 1.5405881875176534e7 0.0
1.5405881875176534e7 -9.062916326700436e6 0.0
0.0 0.0 0.0

1.3478373615887682e6 1.5770131940511554e7 0.0
1.5770131940511554e7 1.5052144815431545e7 0.0
0.0 0.0 0.0

-1.9098899050962977e7 1.338150233419822e7 0.0
1.338150233419822e7 9.95442192435835e6 0.0
0.0 0.0 0.0

-4.26882443608815e7 2.3098302175559655e7 0.0
2.3098302175559655e7 2.854071254374979e6 0.0
0.0 0.0 0.0

4.744555802477198e6 6.152698966332549e6 0.0
6.152698966332549e6 -3.1412950068936024e7 0.0
0.0 0.0 0.0

1.041772094507531e6 1.5712850625690067e7 0.0
1.5712850625690067e7 -5.837664484869331e6 0.0
0.0 0.0 0.0

-428029.598236036 1.7655208885391623e7 0.0
1.7655208885391623e7 -5.485704176817517e6 0.0
0.0 0.0 0.0

4.623191471518012e6 3.852548183446788e6 0.0
3.852548183446788e6 -1.3838507821421048e7 0.0
0.0 0.0 0.0

-7.616758951009139e6 1.8263545213666216e7 0.0
1.8263545213666216e7 -2.0180415360649265e6 0.0
0.0 0.0 0.0

-4.230356655863231e6 1.552396321322138e7 0.0
1.552396321322138e7 1.1767473233212868e7 0.0
0.0 0.0 0.0

40076.736274538096 1.5116025656661145e7 0.0
1.5116025656661145e7 1.1553410066393316e7 0.0
0.0 0.0 0.0

-4.6752677223790465e6 -3.5697160673125577e6 0.0
-3.5697160673125577e6 9.287886569734544e6 0.0
0.0 0.0 0.0

1.3850200911142724e6 1.2627656505781293e7 0.0
1.2627656505781293e7 -1.4869778980870144e7 0.0
0.0 0.0 0.0

2.757179934667784e6 8.74050472904075e6 0.0
8.74050472904075e6 -1.4143846603702132e7 0.0
0.0 0.0 0.0

1.0015449352710024e6 7.497397965766382e6 0.0
7.497397965766382e6 -4.860457074975109e6 0.0
0.0 0.0 0.0

-5.161879501578553e6 -2.958623466308515e6 0.0
-2.958623466308515e6 7.12037786729847e6 0.0
0.0 0.0 0.0

-1.1823505485421605e6 1.520046083599003e7 0.0
1.520046083599003e7 5.229740183434231e7 0.0
0.0 0.0 0.0

-1.1840258331257453e7 1.085838766092934e6 0.0
1.085838766092934e6 2.773067005583183e7 0.0
0.0 0.0 0.0

-1.970411371042131e6 2.10865017333091e7 0.0
2.10865017333091e7 -707270.5975860674 0.0
0.0 0.0 0.0

-3.163011370590075e6 1.4852372177181061e7 0.0
1.4852372177181061e7 14298.421903439914 0.0
0.0 0.0 0.0

-263265.3635834302 1.2475241251871675e7 0.0
1.2475241251871675e7 -9.05622756200697e6 0.0
0.0 0.0 0.0

-895431.2215183895 1.746305817029178e7 0.0
1.746305817029178e7 -5.856054955592796e6 0.0
0.0 0.0 0.0

-5.194350311427706e6 1.9066307158336833e7 0.0
1.9066307158336833e7 6.280706467430926e6 0.0
0.0 0.0 0.0

-1.7730400633949116e6 2.812893788674055e7 0.0
2.812893788674055e7 -564947.6754936409 0.0
0.0 0.0 0.0

3.0333019691859623e6 4.879192756099378e6 0.0
4.879192756099378e6 -8.672369968899947e6 0.0
0.0 0.0 0.0

-7.456921911829021e6 -4.028362039089083e6 0.0
-4.028362039089083e6 1.0400594400189247e7 0.0
0.0 0.0 0.0

-320581.47287513956 1.4273689400727887e7 0.0
1.4273689400727887e7 539288.4129589892 0.0
0.0 0.0 0.0

-7.408168166871762e6 1.9984251027245596e7 0.0
1.9984251027245596e7 6.306228597701035e6 0.0
0.0 0.0 0.0

-5.311623559604223e6 1.5613470699054578e7 0.0
1.5613470699054578e7 1.3731950780028027e7 0.0
0.0 0.0 0.0

-1.228766167908892e7 7.579207580899931e6 0.0
7.579207580899931e6 1.8130494906334285e7 0.0
0.0 0.0 0.0

2.0464387493192554e6 1.1660601602445586e7 0.0
1.1660601602445586e7 -1.5476346264202848e7 0.0
0.0 0.0 0.0

-1.133683378951084e8 1.7929472567601632e7 0.0
1.7929472567601632e7 -1.4841732068834007e6 0.0
0.0 0.0 0.0

-1.2362326799976822e7 6.447370127833267e6 0.0
6.447370127833267e6 1.8837483636556216e7 0.0
0.0 0.0 0.0

-6.669983779556634e6 2.0020326502118677e7 0.0
2.0020326502118677e7 6.473951503293594e6 0.0
0.0 0.0 0.0

896136.7369023841 1.3497121830138793e7 0.0
1.3497121830138793e7 -1.3308455061196355e7 0.0
0.0 0.0 0.0

816895.2940439591 1.2039527412530195e7 0.0
1.2039527412530195e7 -1.915919400476989e7 0.0
0.0 0.0 0.0

-2.2093821399120335e6 2.6873454821478464e7 0.0
2.6873454821478464e7 314716.58644978085 0.0
0.0 0.0 0.0

414644.0235959934 1.2499946359112201e7 0.0
1.2499946359112201e7 -1.7692501055171944e7 0.0
0.0 0.0 0.0

-293771.75820522616 1.51788704519396e7 0.0
1.51788704519396e7 -8.990332066748329e6 0.0
0.0 0.0 0.0

-83088.86602447706 1.4472428378857108e7 0.0
1.4472428378857108e7 1.722593272321565e6 0.0
0.0 0.0 0.0

-2.6382014654381843e6 2.3145920106718235e7 0.0
2.3145920106718235e7 1.6983136487906575e6 0.0
0.0 0.0 0.0

-8.196475380522545e6 1.9781893257889163e7 0.0
1.9781893257889163e7 5.892606241129944e6 0.0
0.0 0.0 0.0

1.6158309016545815e6 1.23396158905746e7 0.0
1.23396158905746e7 -1.4767225156475551e7 0.0
0.0 0.0 0.0

-526732.2022583657 1.5255284343424348e7 0.0
1.5255284343424348e7 -8.735044845078897e6 0.0
0.0 0.0 0.0

-4.5575080293521285e6 1.8853339555865962e7 0.0
1.8853339555865962e7 2.660513272184286e6 0.0
0.0 0.0 0.0

-6.067460231730469e6 1.9903796586355638e7 0.0
1.9903796586355638e7 6.649353987447638e6 0.0
0.0 0.0 0.0

-8.156976243279836e6 -7.660971868340624e6 0.0
-7.660971868340624e6 2.0325382404750388e7 0.0
0.0 0.0 0.0

-7.965456782916412e6 1.3786468139608014e7 0.0
1.3786468139608014e7 1.3081215126258664e7 0.0
0.0 0.0 0.0

82212.74480022304 1.2814424273485532e7 0.0
1.2814424273485532e7 -1.6261867320623705e7 0.0
0.0 0.0 0.0

9.011999360080121e6 1.4384587089295812e7 0.0
1.4384587089295812e7 -1.8709020796485809e6 0.0
0.0 0.0 0.0

1.1228360759780006e6 1.2841066118767943e7 0.0
1.2841066118767943e7 -1.4925497292497516e7 0.0
0.0 0.0 0.0

237294.57235927903 1.3269707204999879e7 0.0
1.3269707204999879e7 -3.3315284846158195e6 0.0
0.0 0.0 0.0

-1.2092537891961971e7 5.143750620635881e6 0.0
5.143750620635881e6 2.2255143846393943e7 0.0
0.0 0.0 0.0

-4.681591584479871e6 1.707125804946035e7 0.0
1.707125804946035e7 -4.042304464229935e6 0.0
0.0 0.0 0.0

61112.24127942487 1.2056688007240111e7 0.0
1.2056688007240111e7 -5.434117165496801e6 0.0
0.0 0.0 0.0

291937.154973214 1.4605877251926115e7 0.0
1.4605877251926115e7 -9.4168713383372e6 0.0
0.0 0.0 0.0

-1.4304442274638262e7 3.036118550356935e7 0.0
3.036118550356935e7 6.358540809751092e6 0.0
0.0 0.0 0.0

-3.645069346003349e7 9.952984384460017e6 0.0
9.952984384460017e6 9.385797446182728e6 0.0
0.0 0.0 0.0

-2.214335482162331e6 2.1609156487799373e7 0.0
2.1609156487799373e7 -1.0882106368502602e6 0.0
0.0 0.0 0.0

-1.0612758233179688e7 2.9168160032883935e7 0.0
2.9168160032883935e7 5.610200835378995e6 0.0
0.0 0.0 0.0

7.1420858504948765e6 3.484456574205972e7 0.0
3.484456574205972e7 -5.12704942590545e6 0.0
0.0 0.0 0.0

1.2543345982877733e6 1.1799754394160375e7 0.0
1.1799754394160375e7 -1.859967890015979e7 0.0
0.0 0.0 0.0

-4.403599622948852e6 1.342135213446817e7 0.0
1.342135213446817e7 -1.815248416385351e7 0.0
0.0 0.0 0.0

-5.005096573201025e6 1.8535376780509517e7 0.0
1.8535376780509517e7 7.650285783314219e6 0.0
0.0 0.0 0.0

-1.3033638989646897e7 7.31933176341217e6 0.0
7.31933176341217e6 1.8135301980480365e7 0.0
0.0 0.0 0.0

-7.728641292044896e6 1.7438145261924647e7 0.0
1.7438145261924647e7 2.6677659173363727e6 0.0
0.0 0.0 0.0

-1.246052566120634e6 1.3374340319335638e7 0.0
1.3374340319335638e7 5.030879404155164e6 0.0
0.0 0.0 0.0

-562920.9252623317 1.3991882885229457e7 0.0
1.3991882885229457e7 -6.566129035302001e6 0.0
0.0 0.0 0.0

-1.3934951847001384e6 2.9557890685088817e7 0.0
2.9557890685088817e7 -1.844262869256373e6 0.0
0.0 0.0 0.0

-1.081419940110324e6 1.6978658684210833e7 0.0
1.6978658684210833e7 -6.561054156760873e6 0.0
0.0 0.0 0.0

1.304949813716766e6 1.4259363266346497e7 0.0
1.4259363266346497e7 -4.352377201511467e6 0.0
0.0 0.0 0.0

5.607718447687926e6 3.2977245776484106e6 0.0
3.2977245776484106e6 -2.2332434719219923e7 0.0
0.0 0.0 0.0

-5.254503677989082e6 1.9086119281476613e7 0.0
1.9086119281476613e7 6.766143908500965e6 0.0
0.0 0.0 0.0

-4.318552098930201e6 1.430458255585449e7 0.0
1.430458255585449e7 3.1991523494465547e6 0.0
0.0 0.0 0.0

1.832264236982687e6 1.0227928091803934e7 0.0
1.0227928091803934e7 -9.853548226254253e6 0.0
0.0 0.0 0.0

979771.3895670073 1.209243574878696e7 0.0
1.209243574878696e7 -1.9251430314179376e7 0.0
0.0 0.0 0.0

-5.282369003988261e6 1.5815842571009042e7 0.0
1.5815842571009042e7 1.148283206002891e7 0.0
0.0 0.0 0.0

-6.9172881021985365e6 1.5380205250990216e7 0.0
1.5380205250990216e7 1.5768644243225876e7 0.0
0.0 0.0 0.0

-809845.968117759 1.3440132686442574e7 0.0
1.3440132686442574e7 -3.212320134283543e6 0.0
0.0 0.0 0.0

263852.30514285667 1.8201292016988922e7 0.0
1.8201292016988922e7 -5.034049168691262e6 0.0
0.0 0.0 0.0

-5.127535434764752e6 1.847545014287867e7 0.0
1.847545014287867e7 7.650460003807571e6 0.0
0.0 0.0 0.0

-1.0471225485534089e7 -33542.80530548861 0.0
-33542.80530548861 3.628828682059881e7 0.0
0.0 0.0 0.0

-3.207742855999762e6 9.181436487743184e6 0.0
9.181436487743184e6 2.125221283848812e6 0.0
0.0 0.0 0.0

-53708.00672479463 1.4227887772730865e7 0.0
1.4227887772730865e7 -3.882350614471631e6 0.0
0.0 0.0 0.0

-5.541214774643249e6 1.9185749399804186e7 0.0
1.9185749399804186e7 7.203616975252803e6 0.0
0.0 0.0 0.0

-6.1452247050454635e6 1.6095461659456547e7 0.0
1.6095461659456547e7 1.0142672954892552e7 0.0
0.0 0.0 0.0

2.561393153278989e6 1.033971179289776e7 0.0
1.033971179289776e7 -1.3378013332527768e7 0.0
0.0 0.0 0.0

-3.7165485417455854e6 2.0273391018052477e7 0.0
2.0273391018052477e7 2.382924921506988e6 0.0
0.0 0.0 0.0

-2.4998233753149253e6 2.3988108252895724e7 0.0
2.3988108252895724e7 1.5442538259795e6 0.0
0.0 0.0 0.0

-4.675974677803155e6 1.6819620119615026e7 0.0
1.6819620119615026e7 4.336030261279257e6 0.0
0.0 0.0 0.0

2.0087800865697796e6 1.1668261667813087e7 0.0
1.1668261667813087e7 -1.4490956475626737e7 0.0
0.0 0.0 0.0

-3.5795270638725013e6 2.0331757581183717e7 0.0
2.0331757581183717e7 777027.197535401 0.0
0.0 0.0 0.0

-1.3829870899343854e6 1.7998254767586675e7 0.0
1.7998254767586675e7 -5.231617197723664e6 0.0
0.0 0.0 0.0

-3.329422390619591e6 1.5843530176592024e7 0.0
1.5843530176592024e7 1.5207718836397354e7 0.0
0.0 0.0 0.0

-4.992563213237403e6 1.6416033811619302e7 0.0
1.6416033811619302e7 5.088820326937303e6 0.0
0.0 0.0 0.0

-5.148204238332795e6 2.0260183009070747e7 0.0
2.0260183009070747e7 5.5846142463372955e6 0.0
0.0 0.0 0.0

-1.0484204342910556e7 -3.4394595479652323e6 0.0
-3.4394595479652323e6 2.754005532450237e7 0.0
0.0 0.0 0.0

-2.5608769231797904e6 2.3516042304711618e7 0.0
2.3516042304711618e7 1.6787651910260408e6 0.0
0.0 0.0 0.0

5.573310240408081e6 3.3665615047913203e6 0.0
3.3665615047913203e6 -2.1815970602217976e7 0.0
0.0 0.0 0.0

-3.0010241395394863e6 1.8951486787149675e7 0.0
1.8951486787149675e7 -1.9525139904450057e6 0.0
0.0 0.0 0.0

-9.57481491284269e6 -5.69552529790107e6 0.0
-5.69552529790107e6 2.3264894456419878e7 0.0
0.0 0.0 0.0

-180058.41877192166 1.1470479074550252e7 0.0
1.1470479074550252e7 -3.9586807376959305e6 0.0
0.0 0.0 0.0

-7.097001027206548e6 1.8697615593304373e7 0.0
1.8697615593304373e7 4.232387618169729e6 0.0
0.0 0.0 0.0

-725290.285867948 1.5754911008674782e7 0.0
1.5754911008674782e7 -2.37045816554178e6 0.0
0.0 0.0 0.0

-1.1928493199325074e6 1.6053577508489328e7 0.0
1.6053577508489328e7 -3.1955273305342095e6 0.0
0.0 0.0 0.0

-69054.60516841058 1.3779808597131634e7 0.0
1.3779808597131634e7 -1.2531023687337613e7 0.0
0.0 0.0 0.0

-1.2902424164185312e7 9.176503131060882e6 0.0
9.176503131060882e6 1.870111167187758e7 0.0
0.0 0.0 0.0

-1.6207204511702433e6 1.4034112533982094e7 0.0
1.4034112533982094e7 6.891171110015133e6 0.0
0.0 0.0 0.0

4.0816638689968595e6 7.609254272115217e6 0.0
7.609254272115217e6 -1.6984002835863866e7 0.0
0.0 0.0 0.0

-630380.0701769684 1.6008434825120268e7 0.0
1.6008434825120268e7 1.3510158809310174e7 0.0
0.0 0.0 0.0

-4.381978522335483e6 1.5514983386077443e7 0.0
1.5514983386077443e7 -3.4950302690931916e7 0.0
0.0 0.0 0.0

-6.299818126894275e6 1.5276772234866029e7 0.0
1.5276772234866029e7 9.817508756754652e6 0.0
0.0 0.0 0.0

-3.8803970734512825e6 2.052465368681861e7 0.0
2.052465368681861e7 1.783883917152258e6 0.0
0.0 0.0 0.0

-4.606533106310799e6 1.6161739919070303e7 0.0
1.6161739919070303e7 1.7011445529689211e6 0.0
0.0 0.0 0.0

-742996.0373603196 1.60508685872393e7 0.0
1.60508685872393e7 -7.577232005620042e6 0.0
0.0 0.0 0.0

524743.602530092 1.5084520211005459e7 0.0
1.5084520211005459e7 -6.464450147244002e6 0.0
0.0 0.0 0.0

-5.285409917576819e6 1.9054913386233218e7 0.0
1.9054913386233218e7 7.171041369914073e6 0.0
0.0 0.0 0.0

-6.115170832741807e6 1.5726518614341803e7 0.0
1.5726518614341803e7 1.2108202727029324e7 0.0
0.0 0.0 0.0

-6.868248247916733e6 1.5319432842382144e7 0.0
1.5319432842382144e7 1.5690113708533535e7 0.0
0.0 0.0 0.0

-1.6051553219124903e6 1.3083288757303443e7 0.0
1.3083288757303443e7 -1.2167604062853187e7 0.0
0.0 0.0 0.0

1.0704922347916206e6 1.222180838287015e7 0.0
1.222180838287015e7 -1.3100096392552912e7 0.0
0.0 0.0 0.0

-4.361706865384797e6 1.5806689208634226e7 0.0
1.5806689208634226e7 1.0546153867696952e7 0.0
0.0 0.0 0.0

3.2766883629954373e6 8.795179031077834e6 0.0
8.795179031077834e6 -2.300243727900336e7 0.0
0.0 0.0 0.0

-1.2852178804235617e6 1.5199191756914562e7 0.0
1.5199191756914562e7 -6.548066830310573e6 0.0
0.0 0.0 0.0

-2.4138038355518575e6 2.4600349599494472e7 0.0
2.4600349599494472e7 1.4692890945340102e6 0.0
0.0 0.0 0.0

-1.0734388203414516e6 1.5362689491095562e7 0.0
1.5362689491095562e7 1.0961576721922074e7 0.0
0.0 0.0 0.0

1.4141610454567391e7 2.0085424489039887e7 0.0
2.0085424489039887e7 4.7138678794760235e7 0.0
0.0 0.0 0.0

-1.2103527696524154e7 1.876828620418231e7 0.0
1.876828620418231e7 -4.034507399435e7 0.0
0.0 0.0 0.0

-4.787208170960501e6 1.4200391826012343e7 0.0
1.4200391826012343e7 1.652068036798632e6 0.0
0.0 0.0 0.0

-2.1934726315715164e7 2.4298882487022214e7 0.0
2.4298882487022214e7 1.0390969550328128e7 0.0
0.0 0.0 0.0

-3.1752980526344394e6 1.7821222512994803e7 0.0
1.7821222512994803e7 -2.014674431314491e6 0.0
0.0 0.0 0.0

-3.4697608143584603e6 1.58581163174494e7 0.0
1.58581163174494e7 8.757069546636153e6 0.0
0.0 0.0 0.0

-1.9515119358714372e6 1.5587698049308794e7 0.0
1.5587698049308794e7 1.2848091136278652e7 0.0
0.0 0.0 0.0

1.640896280004439e6 1.646076151968511e7 0.0
1.646076151968511e7 2.48051204770833e7 0.0
0.0 0.0 0.0

1.9014683140049733e6 1.5265320101718001e7 0.0
1.5265320101718001e7 5.730741725904621e6 0.0
0.0 0.0 0.0

2.5788831904288474e6 1.4524868359778848e7 0.0
1.4524868359778848e7 1.2472275592735998e7 0.0
0.0 0.0 0.0

-516053.48828580696 1.8219285251089383e7 0.0
1.8219285251089383e7 -5.012542030775392e6 0.0
0.0 0.0 0.0

-1.6592112077244744e6 1.5153054080461517e7 0.0
1.5153054080461517e7 8.236353421287485e6 0.0
0.0 0.0 0.0

-4.360165658469025e6 1.5419954731083276e7 0.0
1.5419954731083276e7 1.0690884274327822e7 0.0
0.0 0.0 0.0

-1.6083104804578268e6 2.2375881553080358e7 0.0
2.2375881553080358e7 -56951.381138809724 0.0
0.0 0.0 0.0

-311640.97999060526 1.5247736094090903e7 0.0
1.5247736094090903e7 8.692292014596332e6 0.0
0.0 0.0 0.0

5.278367675548323e6 3.786760071689228e6 0.0
3.786760071689228e6 -1.770314718849715e7 0.0
0.0 0.0 0.0

-1.0296875555481479e7 1.1076246168830333e7 0.0
1.1076246168830333e7 1.3374644615905903e7 0.0
0.0 0.0 0.0

-8.48140515509216e6 -7.58953781026736e6 0.0
-7.58953781026736e6 2.103575223332358e7 0.0
0.0 0.0 0.0

-7.469349016998946e6 1.52949278738066e7 0.0
1.52949278738066e7 1.3401908299085818e7 0.0
0.0 0.0 0.0

-2.713793518644488e6 2.0786175913328975e7 0.0
2.0786175913328975e7 390225.68561946007 0.0
0.0 0.0 0.0

2.608199323874032e6 1.690401423425774e7 0.0
1.690401423425774e7 1.0006027505523823e7 0.0
0.0 0.0 0.0

871333.1091799997 1.4636700948057905e7 0.0
1.4636700948057905e7 9.383431594098868e6 0.0
0.0 0.0 0.0

-4.676615274079071e6 2.0060626319611855e7 0.0
2.0060626319611855e7 5.90538882786846e6 0.0
0.0 0.0 0.0

3.813853816075442e6 4.770885888941625e6 0.0
4.770885888941625e6 -1.0940496289662331e7 0.0
0.0 0.0 0.0

-3.148037525403799e6 1.9349964879542552e7 0.0
1.9349964879542552e7 -1.2106729491841586e6 0.0
0.0 0.0 0.0

3.271035019370958e6 9.08728783161782e6 0.0
9.08728783161782e6 -1.4276205589255165e7 0.0
0.0 0.0 0.0

-6.784957418289641e6 1.9293101376845706e7 0.0
1.9293101376845706e7 6.378298220766673e6 0.0
0.0 0.0 0.0

-695112.993668316 1.9498688095202215e7 0.0
1.9498688095202215e7 -4.0495959346883204e6 0.0
0.0 0.0 0.0

-5.907718365428364e6 1.6693095748267537e7 0.0
1.6693095748267537e7 705565.7971037012 0.0
0.0 0.0 0.0

5.680325483095741e6 3.0969977194324536e6 0.0
3.0969977194324536e6 -3.0775254027214568e7 0.0
0.0 0.0 0.0

2.3547060608916003e6 1.493624665211293e7 0.0
1.493624665211293e7 221501.51075529645 0.0
0.0 0.0 0.0

-2.0940864923205758e6 1.9931958328508638e7 0.0
1.9931958328508638e7 -1.5349618461728527e6 0.0
0.0 0.0 0.0

-1.694485241720916e6 1.7668847133147813e7 0.0
1.7668847133147813e7 -4.4887757240062e6 0.0
0.0 0.0 0.0

-375293.28299766546 1.3320733444306428e7 0.0
1.3320733444306428e7 -9.41690234807326e6 0.0
0.0 0.0 0.0

4.567888422464576e6 5.1077591372208875e6 0.0
5.1077591372208875e6 -1.6697813526581135e7 0.0
0.0 0.0 0.0

-5.36943267380638e6 1.734221715628419e7 0.0
1.734221715628419e7 5.07430085525807e6 0.0
0.0 0.0 0.0

2.1390287630584557e6 1.0631228926938498e7 0.0
1.0631228926938498e7 -1.9964328982671816e7 0.0
0.0 0.0 0.0

-9.16561020422722e6 -6.829727828034015e6 0.0
-6.829727828034015e6 2.4272135511429816e7 0.0
0.0 0.0 0.0

-7.297757781071127e6 1.4430174317840114e7 0.0
1.4430174317840114e7 1.2050854575407542e7 0.0
0.0 0.0 0.0

-1.059258742365937e7 1.8626419952924017e7 0.0
1.8626419952924017e7 4.0948311221872685e6 0.0
0.0 0.0 0.0

4.243832272844356e6 5.819218328748983e6 0.0
5.819218328748983e6 -4.518555325958793e7 0.0
0.0 0.0 0.0

-9.340097051233761e6 1.2638916326863658e7 0.0
1.2638916326863658e7 2.2313338580067415e7 0.0
0.0 0.0 0.0

-3.319131568151545e6 1.6015782528754901e7 0.0
1.6015782528754901e7 1.2493533243879132e7 0.0
0.0 0.0 0.0

-6.247997455290096e6 1.4750688961021319e7 0.0
1.4750688961021319e7 1.835539759158694e7 0.0
0.0 0.0 0.0

-3.607085025750405e6 1.5187481485621244e7 0.0
1.5187481485621244e7 867596.2657589193 0.0
0.0 0.0 0.0

-7.0832477425502995e6 1.4956685396134343e7 0.0
1.4956685396134343e7 9.315521340477802e6 0.0
0.0 0.0 0.0

-228057.44386944314 1.3183561582786795e7 0.0
1.3183561582786795e7 -7.762113457414821e6 0.0
0.0 0.0 0.0

1.33195645056424e6 1.1852085334929457e7 0.0
1.1852085334929457e7 -1.379720538215654e7 0.0
0.0 0.0 0.0

3.4891674354461394e6 8.510347281808013e6 0.0
8.510347281808013e6 -2.7543485346921057e7 0.0
0.0 0.0 0.0

-8.929303222063791e6 -7.254264126911656e6 0.0
-7.254264126911656e6 2.223784591804601e7 0.0
0.0 0.0 0.0

-9.792704153341401e6 -5.498983604634855e6 0.0
-5.498983604634855e6 2.9470841673923783e7 0.0
0.0 0.0 0.0

-5.263035606653647e6 1.773801003714204e7 0.0
1.773801003714204e7 1.8058219337024107e6 0.0
0.0 0.0 0.0

-669620.1507087587 1.6033376773654709e7 0.0
1.6033376773654709e7 -7.9443133635364175e6 0.0
0.0 0.0 0.0

-5.112425166774009e6 1.491905069867228e7 0.0
1.491905069867228e7 2.1847081937474355e7 0.0
0.0 0.0 0.0

-91357.65028438205 1.3039842587745015e7 0.0
1.3039842587745015e7 -5.91772113533519e6 0.0
0.0 0.0 0.0

210205.29344531544 1.7566799067711014e7 0.0
1.7566799067711014e7 -5.282581037043584e6 0.0
0.0 0.0 0.0

-5.272699378357396e6 1.846823639943106e7 0.0
1.846823639943106e7 5.702387146183549e6 0.0
0.0 0.0 0.0

-6.759490750480482e6 -4.384574775785632e6 0.0
-4.384574775785632e6 1.2600801264922747e7 0.0
0.0 0.0 0.0

959079.7407912058 3.155376029486106e7 0.0
3.155376029486106e7 -3.5300419199860217e6 0.0
0.0 0.0 0.0

354526.87179923244 1.415823895105755e7 0.0
1.415823895105755e7 -7.571617540455805e6 0.0
0.0 0.0 0.0

-1.7479134258650271e6 1.3473342729223719e7 0.0
1.3473342729223719e7 -2.914844066082685e7 0.0
0.0 0.0 0.0

5.569785561683658e6 4.065397120945447e6 0.0
4.065397120945447e6 -2.0435558479562107e7 0.0
0.0 0.0 0.0

-74599.94645856787 1.4472043521719497e7 0.0
1.4472043521719497e7 -3.8803163422051296e6 0.0
0.0 0.0 0.0

-8.761568366325047e6 1.3236802001229387e7 0.0
1.3236802001229387e7 1.400415829083426e7 0.0
0.0 0.0 0.0

-1.959823799998282e7 1.3581492690869762e7 0.0
1.3581492690869762e7 9.967152769243125e6 0.0
0.0 0.0 0.0

-1.7824801067922146e6 1.678921710015065e7 0.0
1.678921710015065e7 -4.519502514056266e6 0.0
0.0 0.0 0.0

1.8787003731782408e6 1.4279188777636139e7 0.0
1.4279188777636139e7 1.049301639203995e7 0.0
0.0 0.0 0.0

-770647.9229663108 1.3074607198663775e7 0.0
1.3074607198663775e7 -9.976865523158683e6 0.0
0.0 0.0 0.0

-7.758622324523372e6 -2.183363673347599e6 0.0
-2.183363673347599e6 1.3143580246107832e7 0.0
0.0 0.0 0.0

-1.42545554812882e6 1.5017349276254334e7 0.0
1.5017349276254334e7 -6.482194846861974e6 0.0
0.0 0.0 0.0

-672480.4025737317 1.4797248410211092e7 0.0
1.4797248410211092e7 1.5359965826607877e6 0.0
0.0 0.0 0.0

-2.610677254741547e6 1.5668887193770971e7 0.0
1.5668887193770971e7 8.866744738015503e6 0.0
0.0 0.0 0.0

96763.9569853209 1.3687382060674604e7 0.0
1.3687382060674604e7 -1.1323534120470576e7 0.0
0.0 0.0 0.0

-4.792789937951135e6 1.5910032599538041e7 0.0
1.5910032599538041e7 1.417051930711558e7 0.0
0.0 0.0 0.0

129879.31844478357 1.2341666540577462e7 0.0
1.2341666540577462e7 -862870.3881519107 0.0
0.0 0.0 0.0

-524237.8064969033 1.5971098945434367e7 0.0
1.5971098945434367e7 -8.26370871414261e6 0.0
0.0 0.0 0.0

2.1770778486723946e6 1.4354497393423365e7 0.0
1.4354497393423365e7 -2.9312972359291315e6 0.0
0.0 0.0 0.0

2.37042370458907e6 1.0401558793548252e7 0.0
1.0401558793548252e7 -1.7998142217246443e7 0.0
0.0 0.0 0.0

-7.579260555561329e6 1.5230232768509353e7 0.0
1.5230232768509353e7 1.2681968358788637e7 0.0
0.0 0.0 0.0

-409387.2058812857 1.2919274370331867e7 0.0
1.2919274370331867e7 -5.846403606245521e6 0.0
0.0 0.0 0.0

-3.3064805715521738e7 1.992635338641959e7 0.0
1.992635338641959e7 8.245983879992446e6 0.0
0.0 0.0 0.0

-2.407327686066311e6 1.529730020104363e7 0.0
1.529730020104363e7 2.8358345169710003e7 0.0
0.0 0.0 0.0

5.620191805498332e6 3.26053688345575e6 0.0
3.26053688345575e6 -2.286284884164793e7 0.0
0.0 0.0 0.0

-9.794090223530544e6 -5.694736988968515e6 0.0
-5.694736988968515e6 2.8321698055397056e7 0.0
0.0 0.0 0.0

-340028.4656296596 1.242669322753679e7 0.0
1.242669322753679e7 -2.6089172648545116e7 0.0
0.0 0.0 0.0

493739.7186928801 1.263617534759298e7 0.0
1.263617534759298e7 -1.7897510449258737e7 0.0
0.0 0.0 0.0

-648340.9792341038 1.565630199384557e7 0.0
1.565630199384557e7 -3.1718102656765045e6 0.0
0.0 0.0 0.0

-9.36329679718288e6 2.1334370860158227e7 0.0
2.1334370860158227e7 -2.9537491493645124e6 0.0
0.0 0.0 0.0

-9.231057111048672e6 1.4551876502254523e7 0.0
1.4551876502254523e7 1.6313970571941637e7 0.0
0.0 0.0 0.0

-378603.664825073 1.5850048074870652e7 0.0
1.5850048074870652e7 -8.511263520238984e6 0.0
0.0 0.0 0.0

-9.59671173344783e6 -3.06760770109727e6 0.0
-3.06760770109727e6 3.943802013416315e7 0.0
0.0 0.0 0.0

-1.0684495719940046e7 1.2052178064274572e7 0.0
1.2052178064274572e7 1.5979747380194958e7 0.0
0.0 0.0 0.0

4.947600138287358e6 4.469437107171731e6 0.0
4.469437107171731e6 -4.221386815061013e7 0.0
0.0 0.0 0.0

-3.861456675727659e6 2.0897915992499355e7 0.0
2.0897915992499355e7 1.9262447919230708e6 0.0
0.0 0.0 0.0

5.31451138269482e6 3.3366491103107915e6 0.0
3.3366491103107915e6 -3.650565396822388e7 0.0
0.0 0.0 0.0

-2.1573806961913522e7 3.058941234138533e7 0.0
3.058941234138533e7 7.837498914479062e6 0.0
0.0 0.0 0.0

-9.496007348338872e6 -2.6443406759875175e6 0.0
-2.6443406759875175e6 4.151102955631869e7 0.0
0.0 0.0 0.0

2.6322312943903003e6 1.0570914445073709e7 0.0
1.0570914445073709e7 -1.785109305640448e7 0.0
0.0 0.0 0.0

-8.623047568941902e6 1.8500430923031185e7 0.0
1.8500430923031185e7 4.568683155171512e6 0.0
0.0 0.0 0.0

-3.198466737474332e7 1.772869820488304e7 0.0
1.772869820488304e7 3.0018156050610933e6 0.0
0.0 0.0 0.0

5.138821400879683e6 3.8348018831452737e6 0.0
3.8348018831452737e6 -3.921041832428744e7 0.0
0.0 0.0 0.0

-4.836310184354819e6 1.7608370995330095e7 0.0
1.7608370995330095e7 2.7839208268302046e6 0.0
0.0 0.0 0.0

-5.740619739591117e6 1.663998305580808e7 0.0
1.663998305580808e7 9.82952980424629e6 0.0
0.0 0.0 0.0

7.223795978900475e6 1.3841848827691775e7 0.0
1.3841848827691775e7 6.1788599580000555e6 0.0
0.0 0.0 0.0

812318.145812354 1.2564584724717278e7 0.0
1.2564584724717278e7 -1.6261573583028283e7 0.0
0.0 0.0 0.0

-41191.09368606843 1.3046115703515496e7 0.0
1.3046115703515496e7 -1.6598861193682946e7 0.0
0.0 0.0 0.0

-2.205326404081596e6 1.7350707023022637e7 0.0
1.7350707023022637e7 -5.004304624057859e6 0.0
0.0 0.0 0.0

-3.864829073681918e6 2.122641773139914e7 0.0
2.122641773139914e7 2.0988667162670656e6 0.0
0.0 0.0 0.0

-1.2322496399404285e7 7.372521805663062e6 0.0
7.372521805663062e6 2.1588843984838545e7 0.0
0.0 0.0 0.0

5.59467689207913e6 3.10480795750452e6 0.0
3.10480795750452e6 -3.2903654415887073e7 0.0
0.0 0.0 0.0

-9.275722966518957e6 2.3634792751776155e7 0.0
2.3634792751776155e7 6.327281808097754e6 0.0
0.0 0.0 0.0

4.491101638153111e6 5.762418784189786e6 0.0
5.762418784189786e6 -1.3911089890204329e7 0.0
0.0 0.0 0.0

-248286.61498948187 1.369917399602971e7 0.0
1.369917399602971e7 -1.1832776294318903e7 0.0
0.0 0.0 0.0

5.482618836175872e6 3.2870547827280797e6 0.0
3.2870547827280797e6 -3.425043977610795e7 0.0
0.0 0.0 0.0

-260955.29476927593 1.331601933541935e7 0.0
1.331601933541935e7 -1.5231969436822632e7 0.0
0.0 0.0 0.0

-1.2491652816712815e7 4.785794112789954e6 0.0
4.785794112789954e6 2.4358972379658934e7 0.0
0.0 0.0 0.0

-259097.17556892347 3.62817960893821e6 0.0
3.62817960893821e6 -2.0697280319091736e6 0.0
0.0 0.0 0.0

-4.98389613227172e6 1.2958290056901721e7 0.0
1.2958290056901721e7 2.1332780484162434e6 0.0
0.0 0.0 0.0

-44526.174426390324 1.581424266120024e7 0.0
1.581424266120024e7 1.165840682915125e7 0.0
0.0 0.0 0.0

5.606973705284398e6 3.079044950404425e6 0.0
3.079044950404425e6 -2.4975379060098365e7 0.0
0.0 0.0 0.0

-5.19191781031231e6 1.8545026054813173e7 0.0
1.8545026054813173e7 7.672411945587962e6 0.0
0.0 0.0 0.0

-9.322670845192019e6 -5.672213368971365e6 0.0
-5.672213368971365e6 2.1236401427497536e7 0.0
0.0 0.0 0.0

141299.0963498092 1.3342772347392343e7 0.0
1.3342772347392343e7 -1.1083916336620576e6 0.0
0.0 0.0 0.0

2.152309233099199e6 1.076013459831368e7 0.0
1.076013459831368e7 -1.717049837942784e7 0.0
0.0 0.0 0.0

-6.478649891369543e6 1.5563456585707432e7 0.0
1.5563456585707432e7 1.2880639426259585e7 0.0
0.0 0.0 0.0

-1.945222699225923e6 1.5514477836188745e7 0.0
1.5514477836188745e7 1.6603180804640977e7 0.0
0.0 0.0 0.0

-554409.6301934631 1.4335392046548806e7 0.0
1.4335392046548806e7 -3.044279977049069e6 0.0
0.0 0.0 0.0

-1.6403656081671568e6 1.723400168717269e7 0.0
1.723400168717269e7 -4.850207269210596e6 0.0
0.0 0.0 0.0

-5.003173836691998e6 1.9073288338945195e7 0.0
1.9073288338945195e7 4.556906908381761e6 0.0
0.0 0.0 0.0

-186150.74973239983 1.502802097058931e7 0.0
1.502802097058931e7 -4.033681896462174e6 0.0
0.0 0.0 0.0

1.0815355306103148e7 5.677882960381715e6 0.0
5.677882960381715e6 -2.7278462483666753e6 0.0
0.0 0.0 0.0

-9.794790610828506e6 -3.349885271732236e6 0.0
-3.349885271732236e6 3.744749508817417e7 0.0
0.0 0.0 0.0

1.2893831206325926e6 1.5807082853315314e7 0.0
1.5807082853315314e7 7.696776818869393e6 0.0
0.0 0.0 0.0

-9.850586602130441e6 -5.065933299581459e6 0.0
-5.065933299581459e6 3.0827774985583648e7 0.0
0.0 0.0 0.0

-502098.6443463445 1.513091856430323e7 0.0
1.513091856430323e7 -1.0197385053972651e6 0.0
0.0 0.0 0.0

-1.0281053612790871e7 7.174829427153075e6 0.0
7.174829427153075e6 2.1383335918524202e7 0.0
0.0 0.0 0.0

-4.470321081959044e6 1.3021380856978113e7 0.0
1.3021380856978113e7 3.8362440696583265e6 0.0
0.0 0.0 0.0

1.066297549823896e6 3.018625870736311e6 0.0
3.018625870736311e6 -2.7537329455180652e6 0.0
0.0 0.0 0.0

1.1196786459957357e6 3.3012567099443255e6 0.0
3.3012567099443255e6 -2.7062569589697304e6 0.0
0.0 0.0 0.0

-328670.81157808704 1.559261590401776e7 0.0
1.559261590401776e7 -8.984925344980001e6 0.0
0.0 0.0 0.0

-3.8943585225116904e6 1.689594870452452e7 0.0
1.689594870452452e7 -2.059439506128904e6 0.0
0.0 0.0 0.0

-114349.12146729184 1.5720791555649035e7 0.0
1.5720791555649035e7 -8.590652187326994e6 0.0
0.0 0.0 0.0

-1.3005742784497038e7 6.115064510281645e6 0.0
6.115064510281645e6 2.0091197299045112e7 0.0
0.0 0.0 0.0

-537635.8681295426 1.3436042089468256e7 0.0
1.3436042089468256e7 -1.0987045983848505e7 0.0
0.0 0.0 0.0

2.348477307170205e6 1.0443296291653508e7 0.0
1.0443296291653508e7 -1.8948483492440615e7 0.0
0.0 0.0 0.0

-4.995088185520358e6 1.8103807195953958e7 0.0
1.8103807195953958e7 8.099349730911845e6 0.0
0.0 0.0 0.0

2.0904522902868232e6 1.0755913142702991e7 0.0
1.0755913142702991e7 -1.6171194985000052e7 0.0
0.0 0.0 0.0

-6.886671976311855e7 2.4295903194563642e7 0.0
2.4295903194563642e7 2.77144342824756e6 0.0
0.0 0.0 0.0

435844.4085218613 1.3314315191618245e7 0.0
1.3314315191618245e7 -1.2084197857654314e7 0.0
0.0 0.0 0.0

-4.79039529184466e6 2.3991873036081377e7 0.0
2.3991873036081377e7 3.049275753042551e6 0.0
0.0 0.0 0.0

-817314.75248172 1.2907387125898723e7 0.0
1.2907387125898723e7 3.1882336948098894e6 0.0
0.0 0.0 0.0

-8.496080766853293e6 1.499497291668019e7 0.0
1.499497291668019e7 1.4849416455868883e7 0.0
0.0 0.0 0.0

-2.5748371900265804e6 1.6594205746985137e7 0.0
1.6594205746985137e7 -6.479642150650601e6 0.0
0.0 0.0 0.0

2.330694952504731e6 2.566310026920255e7 0.0
2.566310026920255e7 -4.974144884643273e6 0.0
0.0 0.0 0.0

-9.59456420328814e6 -6.317874273684238e6 0.0
-6.317874273684238e6 2.6305472339972436e7 0.0
0.0 0.0 0.0

5.599362031553107e6 3.2256905807791557e6 0.0
3.2256905807791557e6 -2.3453335321356118e7 0.0
0.0 0.0 0.0

-2.1160025948869837e6 1.759624706547725e7 0.0
1.759624706547725e7 -3.2640903911184007e6 0.0
0.0 0.0 0.0

-6.349446441271702e6 -1.8900693570756228e6 0.0
-1.8900693570756228e6 6.180224708444402e6 0.0
0.0 0.0 0.0

5.682344110964354e6 3.0383497846735935e6 0.0
3.0383497846735935e6 -2.9304767669059567e7 0.0
0.0 0.0 0.0

-9.835752760477787e6 -3.801535889845444e6 0.0
-3.801535889845444e6 3.605050658238469e7 0.0
0.0 0.0 0.0

-7.524451582181462e6 -8.106151265023189e6 0.0
-8.106151265023189e6 1.7897761052819595e7 0.0
0.0 0.0 0.0

-382425.29106425424 1.260953946832886e7 0.0
1.260953946832886e7 -4.526681524640498e6 0.0
0.0 0.0 0.0

-9.759683525809614e6 -5.98062538398016e6 0.0
-5.98062538398016e6 2.7439366148895755e7 0.0
0.0 0.0 0.0

5.594491780578984e6 3.239302498709141e6 0.0
3.239302498709141e6 -2.4170653337254073e7 0.0
0.0 0.0 0.0

5.706970954736982e6 3.1041216261953604e6 0.0
3.1041216261953604e6 -2.8250173132480398e7 0.0
0.0 0.0 0.0

-9.78252871708771e6 -4.226694661444888e6 0.0
-4.226694661444888e6 3.464242854781423e7 0.0
0.0 0.0 0.0

-3.1373838560893326e6 1.5532473739053654e7 0.0
1.5532473739053654e7 -7.2893734207611885e6 0.0
0.0 0.0 0.0

-160775.53077796614 1.523233014801957e7 0.0
1.523233014801957e7 -9.58147567614615e6 0.0
0.0 0.0 0.0

-4.547862122907666e6 1.930341255544029e7 0.0
1.930341255544029e7 4.920179153650425e6 0.0
0.0 0.0 0.0

5.710681856570074e6 3.091455870989066e6 0.0
3.091455870989066e6 -2.7559785145587668e7 0.0
0.0 0.0 0.0

-9.756525829374136e6 -4.536479110638679e6 0.0
-4.536479110638679e6 3.308420136287351e7 0.0
0.0 0.0 0.0

-59375.399711383274 1.2935869081735611e7 0.0
1.2935869081735611e7 -3.9311178240851276e6 0.0
0.0 0.0 0.0

2.2557538275488066e6 1.1305424299088301e7 0.0
1.1305424299088301e7 -1.5329868040519563e7 0.0
0.0 0.0 0.0

-2.7981936540060528e6 1.875896533955615e7 0.0
1.875896533955615e7 -959464.5859732776 0.0
0.0 0.0 0.0

-3.972197168677895e6 1.5073503152911758e7 0.0
1.5073503152911758e7 -314150.46211039484 0.0
0.0 0.0 0.0

-6.70253474400053e6 1.5202940433760596e7 0.0
1.5202940433760596e7 1.6242616615689985e7 0.0
0.0 0.0 0.0

-9.815752838489367e6 -4.750764925985212e6 0.0
-4.750764925985212e6 3.1836547892074414e7 0.0
0.0 0.0 0.0

5.726605043701017e6 3.041987454853613e6 0.0
3.041987454853613e6 -2.661047731982258e7 0.0
0.0 0.0 0.0

-1.8136768533877034e6 2.041360817725853e7 0.0
2.041360817725853e7 -2.4830311756162625e6 0.0
0.0 0.0 0.0

-3.943877211421471e6 1.52022649002203e7 0.0
1.52022649002203e7 2.5917172652878705e7 0.0
0.0 0.0 0.0

3.5907855686579265e7 4.6302472425928436e7 0.0
4.6302472425928436e7 -2.3075873474287745e7 0.0
0.0 0.0 0.0

140213.02448277175 9.149810894283574e6 0.0
9.149810894283574e6 -6.327118686132652e6 0.0
0.0 0.0 0.0

-3.8265248058903515e6 2.082579336810394e7 0.0
2.082579336810394e7 2.9085111173719773e6 0.0
0.0 0.0 0.0

-4.316287386177062e6 2.0531084298510926e6 0.0
2.0531084298510926e6 3.4684712151601305e6 0.0
0.0 0.0 0.0

-4.357029287050253e6 1.957938417063621e7 0.0
1.957938417063621e7 4.384774007513756e6 0.0
0.0 0.0 0.0

3.5246681031910735e6 3.9492705846984973e6 0.0
3.9492705846984973e6 -9.832228975346876e6 0.0
0.0 0.0 0.0

2.2822846888587438e6 1.900588570234869e7 0.0
1.900588570234869e7 -4.808015811493183e6 0.0
0.0 0.0 0.0

-1.0440465956138916e6 1.7944318939970426e7 0.0
1.7944318939970426e7 -5.150560818540466e6 0.0
0.0 0.0 0.0

-8.53672431979518e6 1.2491317973137295e7 0.0
1.2491317973137295e7 1.0683952349911882e7 0.0
0.0 0.0 0.0

-505595.5349662177 1.5535199388898902e7 0.0
1.5535199388898902e7 -1.1956162888076045e6 0.0
0.0 0.0 0.0

-8.456350031329008e6 -1.5286215109353545e6 0.0
-1.5286215109353545e6 4.6180146686594434e7 0.0
0.0 0.0 0.0

1.321976491800846e6 4.324952900368115e6 0.0
4.324952900368115e6 -3.559766563335255e6 0.0
0.0 0.0 0.0

-3.3495436779470486e6 -1.0130835719162175e6 0.0
-1.0130835719162175e6 1.6615563087292498e6 0.0
0.0 0.0 0.0

1.1507399168569567e6 -1.5947646933955136e6 0.0
-1.5947646933955136e6 -2.365717031168993e6 0.0
0.0 0.0 0.0

-770814.6396352677 1.8123844722062226e7 0.0
1.8123844722062226e7 -5.0560866572577935e6 0.0
0.0 0.0 0.0

-1.2795026955609433e6 1.3091685226597507e7 0.0
1.3091685226597507e7 -2.8589644748877794e7 0.0
0.0 0.0 0.0

-1474.6153770228848 1.5365001962865857e7 0.0
1.5365001962865857e7 1.3522716881120067e7 0.0
0.0 0.0 0.0

-1.6425666415555116e6 1.4814135596775973e7 0.0
1.4814135596775973e7 -7.046455163348688e6 0.0
0.0 0.0 0.0

5.137774656499482e6 3.94396641834383e6 0.0
3.94396641834383e6 -1.590457019063864e7 0.0
0.0 0.0 0.0

-970635.1727628184 1.1720187361888897e7 0.0
1.1720187361888897e7 -3.6946457725528805e6 0.0
0.0 0.0 0.0

187541.41314862017 1.478312373380959e7 0.0
1.478312373380959e7 -9.846255953023806e6 0.0
0.0 0.0 0.0

-129093.42512179632 1.221725374111236e7 0.0
1.221725374111236e7 -2.161605581986043e7 0.0
0.0 0.0 0.0

-2.6544936330102854e6 1.9231651981060315e7 0.0
1.9231651981060315e7 -1.073283030063997e6 0.0
0.0 0.0 0.0

-7.305464254517301e6 1.504828679938393e7 0.0
1.504828679938393e7 1.4121913706782809e7 0.0
0.0 0.0 0.0

-524227.31040927715 1.2080726174402338e7 0.0
1.2080726174402338e7 -3.233882271275015e6 0.0
0.0 0.0 0.0

-259348.56445321284 1.3570267846381322e7 0.0
1.3570267846381322e7 1.1765960302345876e6 0.0
0.0 0.0 0.0

-2.1784429061439848e6 1.2644852495256213e7 0.0
1.2644852495256213e7 -1.539157776136332e7 0.0
0.0 0.0 0.0

-1.3575963765233211e7 2.053983000020329e7 0.0
2.053983000020329e7 4.1642168002956538e6 0.0
0.0 0.0 0.0

1.0973522899376634e6 2.7477049730319463e7 0.0
2.7477049730319463e7 -3.880078761623757e6 0.0
0.0 0.0 0.0

397194.9424871799 2.763136931577099e6 0.0
2.763136931577099e6 -1.3452712791489935e6 0.0
0.0 0.0 0.0

529378.730512887 2.5760186599756684e6 0.0
2.5760186599756684e6 -1.594885437163478e6 0.0
0.0 0.0 0.0

-6.865524533795958e6 1.549335867906772e7 0.0
1.549335867906772e7 1.2598239148816042e7 0.0
0.0 0.0 0.0

-2.7267889908905155e6 1.7004059975291375e7 0.0
1.7004059975291375e7 -3.452424249858706e6 0.0
0.0 0.0 0.0

-3.6227797366022123e6 2.1347639057791278e7 0.0
2.1347639057791278e7 2.890004906024265e6 0.0
0.0 0.0 0.0

-4.190513164820131e6 1.981908795012566e7 0.0
1.981908795012566e7 3.908368787841866e6 0.0
0.0 0.0 0.0

4.238829652363852e6 1.5200563622225149e7 0.0
1.5200563622225149e7 4.749401697662329e6 0.0
0.0 0.0 0.0

1.5490163240341845e6 1.5081652823587535e7 0.0
1.5081652823587535e7 -5.136584560014143e6 0.0
0.0 0.0 0.0

-2.5152576737021655e6 1.4523302027600037e7 0.0
1.4523302027600037e7 2.845501973909298e7 0.0
0.0 0.0 0.0

-2.6371817265477337e7 1.9790511161784537e7 0.0
1.9790511161784537e7 -3.0005267177452194e6 0.0
0.0 0.0 0.0

-7.956943830396162e7 2.6796601953833472e7 0.0
2.6796601953833472e7 1.0516229352250163e7 0.0
0.0 0.0 0.0

-7.908452662653401e6 1.1871377311511865e7 0.0
1.1871377311511865e7 9.005572254397279e6 0.0
0.0 0.0 0.0

-4.4518753608480515e6 1.599371114918248e7 0.0
1.599371114918248e7 1.0043967706463993e7 0.0
0.0 0.0 0.0

4.1568211213125037e6 5.576781402313639e6 0.0
5.576781402313639e6 -1.483319547825702e7 0.0
0.0 0.0 0.0

-9.336036870275687e6 1.2235581007352669e7 0.0
1.2235581007352669e7 1.4302156738773352e7 0.0
0.0 0.0 0.0

-3.5176286511993436e6 -1.3827341380533928e6 0.0
-1.3827341380533928e6 3.8116060694252336e6 0.0
0.0 0.0 0.0

1.4450458508778424e6 1.6509442533706265e7 0.0
1.6509442533706265e7 8.929014009419067e6 0.0
0.0 0.0 0.0

413259.2387402132 1.226330112475054e7 0.0
1.226330112475054e7 -2.1414835748463914e7 0.0
0.0 0.0 0.0

5.103613549774418e6 5.134550795795046e6 0.0
5.134550795795046e6 -1.783964437005767e7 0.0
0.0 0.0 0.0

1.9571626871473226e6 1.4357715116126034e7 0.0
1.4357715116126034e7 3.103237087052896e6 0.0
0.0 0.0 0.0

-5.791626003419589e6 2.58757795581958e6 0.0
2.58757795581958e6 6.162426189036139e7 0.0
0.0 0.0 0.0

-4.956117303811576e6 2.0811132650869843e7 0.0
2.0811132650869843e7 5.948259606607247e6 0.0
0.0 0.0 0.0

-1.1297663140198e7 1.778643090213636e7 0.0
1.778643090213636e7 1.876982567552559e6 0.0
0.0 0.0 0.0

-1.132889808836591e6 1.721640657414523e7 0.0
1.721640657414523e7 -6.093353456955805e6 0.0
0.0 0.0 0.0

-6.550265328027319e6 -8.458987467835248e6 0.0
-8.458987467835248e6 1.5597581569454584e7 0.0
0.0 0.0 0.0

-1.055193364807539e6 1.2582974690940157e7 0.0
1.2582974690940157e7 3.795681971103817e6 0.0
0.0 0.0 0.0

-9.082343575392172e6 -6.901680206277917e6 0.0
-6.901680206277917e6 2.33517248918369e7 0.0
0.0 0.0 0.0

1.9127537734110542e6 1.5151411582019074e7 0.0
1.5151411582019074e7 2.7850992916561356e6 0.0
0.0 0.0 0.0

-3.872433087656971e6 1.6605575053713178e7 0.0
1.6605575053713178e7 1.3839636184738055e6 0.0
0.0 0.0 0.0

5.505575519931706e6 4.214044904993032e6 0.0
4.214044904993032e6 -1.9307405713311315e7 0.0
0.0 0.0 0.0

-3.1302784357306696e6 1.6117644354878603e7 0.0
1.6117644354878603e7 -6.221061500290428e6 0.0
0.0 0.0 0.0

4.975607077610664e6 4.0429453076226856e6 0.0
4.0429453076226856e6 -1.4613211382287486e7 0.0
0.0 0.0 0.0

743821.4517333591 1.3000457206191566e7 0.0
1.3000457206191566e7 -1.4117332553928196e7 0.0
0.0 0.0 0.0

-6.02368144276034e6 2.3917502520862564e7 0.0
2.3917502520862564e7 4.731063711961079e6 0.0
0.0 0.0 0.0

-435118.9646078948 1.0655031798825495e7 0.0
1.0655031798825495e7 -732404.0042319968 0.0
0.0 0.0 0.0

-1.9637592960749697e6 1.6915751591737524e7 0.0
1.6915751591737524e7 -5.787642153952958e6 0.0
0.0 0.0 0.0

-4.843511636281885e6 2.287842548708875e7 0.0
2.287842548708875e7 3.883047967279605e6 0.0
0.0 0.0 0.0

-4.710755416726375e6 1.901870484021589e7 0.0
1.901870484021589e7 5.529217651764654e6 0.0
0.0 0.0 0.0

-4.635338525515742e6 1.9542688984108344e7 0.0
1.9542688984108344e7 3.4652504889880307e6 0.0
0.0 0.0 0.0

-3.4454358187277997e6 2.259627520752076e7 0.0
2.259627520752076e7 1.5556359409060632e6 0.0
0.0 0.0 0.0

-1.124237743185024e6 1.6423876645709852e7 0.0
1.6423876645709852e7 -6.462663992405186e6 0.0
0.0 0.0 0.0

-5.311311239135729e6 2.4507071410748973e7 0.0
2.4507071410748973e7 3.2569387965590414e6 0.0
0.0 0.0 0.0

-8.682946559756985e6 8.286309287111256e6 0.0
8.286309287111256e6 9.704178231033748e6 0.0
0.0 0.0 0.0

1.313681094661497e6 1.104668624523665e7 0.0
1.104668624523665e7 -1.1121829888858367e7 0.0
0.0 0.0 0.0

-8.464362674603641e6 -3.050337679274134e6 0.0
-3.050337679274134e6 1.1257251110025572e7 0.0
0.0 0.0 0.0

-8.474498776378429e6 1.9324711352549564e7 0.0
1.9324711352549564e7 5.179539567469522e6 0.0
0.0 0.0 0.0

-1.0351477841856249e7 -2.534403220810423e6 0.0
-2.534403220810423e6 3.2878136533560745e7 0.0
0.0 0.0 0.0

-2.0329367651745582e6 2.1056023200267028e7 0.0
2.1056023200267028e7 -1.8239001829690894e6 0.0
0.0 0.0 0.0

1.2165269571800102e6 1.2948104340478754e7 0.0
1.2948104340478754e7 -1.4059447072115254e7 0.0
0.0 0.0 0.0

-999219.4734987398 1.4337073686379371e7 0.0
1.4337073686379371e7 5.260616078112205e6 0.0
0.0 0.0 0.0

-769614.1030973424 1.2743975442145882e7 0.0
1.2743975442145882e7 -6.997151864882374e6 0.0
0.0 0.0 0.0

2.1390546779078487e6 1.1264335445691634e7 0.0
1.1264335445691634e7 -1.873028736551156e7 0.0
0.0 0.0 0.0

3.6026665752058453e6 4.626887175915626e6 0.0
4.626887175915626e6 -1.1311959530182354e7 0.0
0.0 0.0 0.0

-335850.74292827933 1.8216332917575635e7 0.0
1.8216332917575635e7 -5.012568849488763e6 0.0
0.0 0.0 0.0

-548079.8628503591 1.5079877239251131e7 0.0
1.5079877239251131e7 2.900375525564038e6 0.0
0.0 0.0 0.0

-3.5558340619142237e6 1.4699051849133922e7 0.0
1.4699051849133922e7 -1.2271097561516287e6 0.0
0.0 0.0 0.0

5.623631811832117e6 3.0221034525625827e6 0.0
3.0221034525625827e6 -3.1577394020303123e7 0.0
0.0 0.0 0.0

-1.0015490146509966e7 1.1915248557939883e6 0.0
1.1915248557939883e6 1.4228465437207337e7 0.0
0.0 0.0 0.0

5.0530696687739305e6 4.626827592171504e6 0.0
4.626827592171504e6 -3.156050507154149e7 0.0
0.0 0.0 0.0

-3.8672292080833013e6 -4.567655051630385e6 0.0
-4.567655051630385e6 5.572303838279333e6 0.0
0.0 0.0 0.0

-4.114913285520063e6 1.6401343756690469e7 0.0
1.6401343756690469e7 250078.5750515347 0.0
0.0 0.0 0.0

-475026.93674047716 1.5111432714724105e7 0.0
1.5111432714724105e7 1.4422328994366159e6 0.0
0.0 0.0 0.0

-687041.9618344551 1.3898568026269544e7 0.0
1.3898568026269544e7 3.4163094003992053e6 0.0
0.0 0.0 0.0

-7.413348364703664e6 1.1608533685712432e7 0.0
1.1608533685712432e7 1.0897521861366907e7 0.0
0.0 0.0 0.0

-7.604726880770163e6 -7.741013222617656e6 0.0
-7.741013222617656e6 1.824858677706388e7 0.0
0.0 0.0 0.0

-375128.7172622329 1.938350308199015e7 0.0
1.938350308199015e7 -3.869797508225092e6 0.0
0.0 0.0 0.0

-959148.7841149494 1.635011371117024e7 0.0
1.635011371117024e7 1.118994937907045e7 0.0
0.0 0.0 0.0

3.485055193343511e6 7.74335575533267e6 0.0
7.74335575533267e6 -1.6297800600353256e7 0.0
0.0 0.0 0.0

-8.726095744432524e6 -5.971196586342472e6 0.0
-5.971196586342472e6 2.10099896638349e7 0.0
0.0 0.0 0.0

-1.1718287934214901e6 1.514913181959381e7 0.0
1.514913181959381e7 8.407726469447639e6 0.0
0.0 0.0 0.0

-8.341188238404518e6 1.3163565218589677e7 0.0
1.3163565218589677e7 2.5148752213639274e7 0.0
0.0 0.0 0.0

241506.62842510315 1.594405902091565e7 0.0
1.594405902091565e7 8.536489790470595e6 0.0
0.0 0.0 0.0

-715037.4014780512 1.260758940225319e7 0.0
1.260758940225319e7 -2.724755859562539e7 0.0
0.0 0.0 0.0

-7.0722412281293515e6 1.5465095709056895e7 0.0
1.5465095709056895e7 1.5096138044847928e7 0.0
0.0 0.0 0.0

-1.8275057583200317e6 1.5120622193047827e7 0.0
1.5120622193047827e7 9.65692641901927e6 0.0
0.0 0.0 0.0

-244895.8369432413 1.6010124645056358e7 0.0
1.6010124645056358e7 -8.139546341713093e6 0.0
0.0 0.0 0.0

-990519.6456043953 1.6047252720427938e7 0.0
1.6047252720427938e7 -3.372959026263999e6 0.0
0.0 0.0 0.0

3.800357066618385e6 7.494381092105505e6 0.0
7.494381092105505e6 -2.4594318900952935e7 0.0
0.0 0.0 0.0

4.0358626592624336e6 6.952890866965807e6 0.0
6.952890866965807e6 -2.569160587118544e7 0.0
0.0 0.0 0.0

-30107.94842508901 1.2538573643614752e7 0.0
1.2538573643614752e7 -6.678501956288809e6 0.0
0.0 0.0 0.0

-1.142816583415233e7 1.2789133021393675e7 0.0
1.2789133021393675e7 1.874160460389201e7 0.0
0.0 0.0 0.0

-669798.5250980165 1.5252212272999246e7 0.0
1.5252212272999246e7 -9.537123377362134e6 0.0
0.0 0.0 0.0

-9.299722439751089e6 1.05521300052104e6 0.0
1.05521300052104e6 4.37130447361881e7 0.0
0.0 0.0 0.0

621712.7352996953 1.1338462120640276e7 0.0
1.1338462120640276e7 -1.71626949500403e7 0.0
0.0 0.0 0.0

-2.6437160690960903e6 1.205349637630524e7 0.0
1.205349637630524e7 4.300001473961639e7 0.0
0.0 0.0 0.0

5.657554517755017e6 3.1193485948709464e6 0.0
3.1193485948709464e6 -3.0356522781823292e7 0.0
0.0 0.0 0.0

-1.4923274894135199e6 1.711065862672701e7 0.0
1.711065862672701e7 -5.801320150688073e6 0.0
0.0 0.0 0.0

-747279.7044715821 1.5795243286820265e7 0.0
1.5795243286820265e7 9.237448681052046e6 0.0
0.0 0.0 0.0

-1.9788010800575195e6 1.3379249962984066e7 0.0
1.3379249962984066e7 -2.48189401399588e7 0.0
0.0 0.0 0.0

2.9239135752799255e6 9.208998059429305e6 0.0
9.208998059429305e6 1.9810122180794636e6 0.0
0.0 0.0 0.0

-867334.2050893272 1.5444430889681114e7 0.0
1.5444430889681114e7 -4.34582752220049e6 0.0
0.0 0.0 0.0

-1.3735624604504844e6 1.5581619179867597e7 0.0
1.5581619179867597e7 9.495061623743735e6 0.0
0.0 0.0 0.0

-5.656864486110461e6 1.693107847783248e7 0.0
1.693107847783248e7 8.078187457044841e6 0.0
0.0 0.0 0.0

-5.123838523455709e6 1.59315505913906e7 0.0
1.59315505913906e7 1.056523116135487e7 0.0
0.0 0.0 0.0

1.1253253283378538e6 1.023191075456001e7 0.0
1.023191075456001e7 -9.982120641694734e6 0.0
0.0 0.0 0.0

-1.2707709517017089e7 1.102224368642476e7 0.0
1.102224368642476e7 1.741050942539639e7 0.0
0.0 0.0 0.0

-153745.9199651787 1.2199450392018283e7 0.0
1.2199450392018283e7 -2.5749830942645963e7 0.0
0.0 0.0 0.0

-1.149709282301844e6 1.5292426365017626e7 0.0
1.5292426365017626e7 -6.381851468308642e6 0.0
0.0 0.0 0.0

-4.836424462884039e6 1.70513687763211e7 0.0
1.70513687763211e7 4.408119551137157e6 0.0
0.0 0.0 0.0

706807.0898993057 9.155836083534276e6 0.0
9.155836083534276e6 -6.5019814182871245e6 0.0
0.0 0.0 0.0

-8.444873054682631e6 4.167916616250749e6 0.0
4.167916616250749e6 5.835279423237623e7 0.0
0.0 0.0 0.0

-2.0516193401385564e6 1.3665721538729804e7 0.0
1.3665721538729804e7 -3.0056532714214563e7 0.0
0.0 0.0 0.0

-6.658197556536277e6 1.5332069710399425e7 0.0
1.5332069710399425e7 1.6405029050346382e7 0.0
0.0 0.0 0.0

-3.82728537671186e6 2.1588027364656616e7 0.0
2.1588027364656616e7 2.265321427582546e6 0.0
0.0 0.0 0.0

7.5266031638486e6 1.6602535684321797e7 0.0
1.6602535684321797e7 5.336471412211185e6 0.0
0.0 0.0 0.0

-5.48683948315335e6 1.5117860110032463e7 0.0
1.5117860110032463e7 2.049621810136569e7 0.0
0.0 0.0 0.0

-6.703022294023845e6 1.529564653142906e7 0.0
1.529564653142906e7 1.2815472611594949e7 0.0
0.0 0.0 0.0

879583.9941985691 1.1748754806500148e7 0.0
1.1748754806500148e7 -1.0826376756239071e7 0.0
0.0 0.0 0.0

-1.455986440868088e6 1.4811955431622297e7 0.0
1.4811955431622297e7 -7.14428502562061e6 0.0
0.0 0.0 0.0

-7.492739802292455e6 1.4152794636808192e7 0.0
1.4152794636808192e7 9.543648056298532e6 0.0
0.0 0.0 0.0

-7.462346849342455e6 1.2939211838837143e7 0.0
1.2939211838837143e7 1.1396285156256378e7 0.0
0.0 0.0 0.0

4.954462329594784e6 4.348440426940616e6 0.0
4.348440426940616e6 -1.8256192054389924e7 0.0
0.0 0.0 0.0

-5.072386327715769e6 1.8641447789185602e7 0.0
1.8641447789185602e7 7.820454353812996e6 0.0
0.0 0.0 0.0

-634453.3361729098 1.1090271163770987e7 0.0
1.1090271163770987e7 -2.5209661906091515e6 0.0
0.0 0.0 0.0

4.940209701311281e6 4.549065265886504e6 0.0
4.549065265886504e6 -1.4156735209698964e7 0.0
0.0 0.0 0.0

-2.48984285254807e6 2.044127729027092e7 0.0
2.044127729027092e7 -1.6962504678871292e6 0.0
0.0 0.0 0.0

-722508.083842916 1.618515489306285e7 0.0
1.618515489306285e7 1.0437294548120609e7 0.0
0.0 0.0 0.0

-9.919167038915941e6 -931504.3865348643 0.0
-931504.3865348643 3.7808173855365545e7 0.0
0.0 0.0 0.0

1.7796118018123782e6 1.6726371272463921e7 0.0
1.6726371272463921e7 6.9886727879745215e6 0.0
0.0 0.0 0.0

1.3782483127694663e6 1.5643633587579634e7 0.0
1.5643633587579634e7 5.078670742499016e6 0.0
0.0 0.0 0.0

63059.24013827089 1.4231855334790124e7 0.0
1.4231855334790124e7 -1.0045402150472317e7 0.0
0.0 0.0 0.0

5.292427735790616e6 4.0790073469551574e6 0.0
4.0790073469551574e6 -2.2985231427234907e7 0.0
0.0 0.0 0.0

359869.7848041984 1.3912782278608216e7 0.0
1.3912782278608216e7 5.356417784509294e6 0.0
0.0 0.0 0.0

5212.56343766721 1.4564040610995598e7 0.0
1.4564040610995598e7 -9.306811809866322e6 0.0
0.0 0.0 0.0

-911516.2057580431 1.4160238301740527e7 0.0
1.4160238301740527e7 6.168412491475736e6 0.0
0.0 0.0 0.0

-6.994624926339742e6 4.237723421228721e6 0.0
4.237723421228721e6 9.655793720935324e6 0.0
0.0 0.0 0.0

-3.723197415369752e6 -3.0411636607337045e6 0.0
-3.0411636607337045e6 5.438880447511114e6 0.0
0.0 0.0 0.0

-3.7211554033576027e6 1.6498236730709894e7 0.0
1.6498236730709894e7 2.352415698239901e6 0.0
0.0 0.0 0.0

1.9989704550240235e6 1.1662902560604203e7 0.0
1.1662902560604203e7 -1.639630880756722e7 0.0
0.0 0.0 0.0

-997428.5464682346 1.3223935253517877e7 0.0
1.3223935253517877e7 -1.158327914771072e7 0.0
0.0 0.0 0.0

-8.647548220868412e6 753583.5715262771 0.0
753583.5715262771 5.6856410497237064e7 0.0
0.0 0.0 0.0

-6.160848582721245e6 2.5094395398200102e7 0.0
2.5094395398200102e7 3.415379498824573e6 0.0
0.0 0.0 0.0

1.293625733888721e6 5.58556051892507e6 0.0
5.58556051892507e6 -4.1503595506235184e6 0.0
0.0 0.0 0.0

-661656.653901709 1.5255661464719161e7 0.0
1.5255661464719161e7 127358.92532866247 0.0
0.0 0.0 0.0

-1.3982688946349723e6 1.517992617539482e7 0.0
1.517992617539482e7 8.083864991359577e6 0.0
0.0 0.0 0.0

-1.149289799083938e7 1.270789833964188e7 0.0
1.270789833964188e7 1.7477679170207027e7 0.0
0.0 0.0 0.0

-8.569181209404867e6 1.8913373879972063e7 0.0
1.8913373879972063e7 3.675500403029122e6 0.0
0.0 0.0 0.0

251269.79063392617 1.575445674762068e7 0.0
1.575445674762068e7 6.38749494927871e6 0.0
0.0 0.0 0.0

-1.4854787082346426e6 1.5489233901200423e7 0.0
1.5489233901200423e7 7.787544429191619e6 0.0
0.0 0.0 0.0

428883.01789491065 1.4191792102975829e7 0.0
1.4191792102975829e7 -1.1911454151239123e7 0.0
0.0 0.0 0.0

2.55149296257656e6 5.473673103290482e6 0.0
5.473673103290482e6 -9.228387099729747e6 0.0
0.0 0.0 0.0

142589.09916512342 1.4225531945411067e7 0.0
1.4225531945411067e7 -1.1151859383033706e7 0.0
0.0 0.0 0.0

-1.426686387762079e6 1.6088884339417705e7 0.0
1.6088884339417705e7 -7.333187536481024e6 0.0
0.0 0.0 0.0

-4.640063885070516e6 1.839302324836967e7 0.0
1.839302324836967e7 4.82866185289209e6 0.0
0.0 0.0 0.0

-514376.4669490629 1.6715782376316922e7 0.0
1.6715782376316922e7 -6.951670865926786e6 0.0
0.0 0.0 0.0

-669754.4309035081 1.6217895279821558e7 0.0
1.6217895279821558e7 -7.596720483974253e6 0.0
0.0 0.0 0.0

5.284867446903212e6 4.718449942253704e6 0.0
4.718449942253704e6 -2.1068483701321732e7 0.0
0.0 0.0 0.0

240557.1857445822 1.4794194121102704e7 0.0
1.4794194121102704e7 4.27777777559252e6 0.0
0.0 0.0 0.0

-1.721592228056043e6 1.6486656179004679e7 0.0
1.6486656179004679e7 -6.514143262514956e6 0.0
0.0 0.0 0.0

-1.1945519771995228e7 8.69408897970481e6 0.0
8.69408897970481e6 1.44196735096085e7 0.0
0.0 0.0 0.0

-5.772077840899269e7 2.2217449482713457e7 0.0
2.2217449482713457e7 1.4781158942352273e6 0.0
0.0 0.0 0.0

2.0470912382681485e7 2.4444517659397785e7 0.0
2.4444517659397785e7 6.823653413491173e7 0.0
0.0 0.0 0.0

-1.6046531802385997e7 2.1584011039606817e7 0.0
2.1584011039606817e7 -5.348856477935123e7 0.0
0.0 0.0 0.0

-7.8488579418372875e6 1.4973615176049113e7 0.0
1.4973615176049113e7 1.4891447670373823e7 0.0
0.0 0.0 0.0

1.60417469604534e6 1.149423296206635e7 0.0
1.149423296206635e7 -1.4538710293823682e7 0.0
0.0 0.0 0.0

-1.9147625994448517e6 1.5693202516903738e7 0.0
1.5693202516903738e7 -6.664360567443719e6 0.0
0.0 0.0 0.0

-3.049098042532364e6 2.5130514996504385e7 0.0
2.5130514996504385e7 -486338.1564650008 0.0
0.0 0.0 0.0

22284.064180730842 1.3163019251976678e7 0.0
1.3163019251976678e7 -1.400581834363492e7 0.0
0.0 0.0 0.0

-1.4469008675769288e6 1.6390135284549596e7 0.0
1.6390135284549596e7 -4.0008739383291956e6 0.0
0.0 0.0 0.0

-1.1689254388231792e7 1.0646105108080732e7 0.0
1.0646105108080732e7 1.5048944775194753e7 0.0
0.0 0.0 0.0

-3.0819179506669724e6 1.84233626669801e7 0.0
1.84233626669801e7 -172388.8618388595 0.0
0.0 0.0 0.0

83187.56806673575 1.2631756086598739e7 0.0
1.2631756086598739e7 -1.9920917929843605e7 0.0
0.0 0.0 0.0

-390517.6949509133 1.5551449707961373e7 0.0
1.5551449707961373e7 -4.035899242476825e6 0.0
0.0 0.0 0.0

-6.08234468129427e6 1.69016851457266e7 0.0
1.69016851457266e7 8.711800375235084e6 0.0
0.0 0.0 0.0

7.706530187552598e6 1.5714807712199813e7 0.0
1.5714807712199813e7 -3.781943141359683e6 0.0
0.0 0.0 0.0

-846878.9898294325 1.348351392005041e7 0.0
1.348351392005041e7 4.333043627629747e6 0.0
0.0 0.0 0.0

-7.32638142082651e6 1.489723849823301e7 0.0
1.489723849823301e7 1.3663047917091727e7 0.0
0.0 0.0 0.0

-1.2754660955393374e7 1.7671494584764123e7 0.0
1.7671494584764123e7 484685.3693502527 0.0
0.0 0.0 0.0

-832708.5585698939 1.3681508987276614e7 0.0
1.3681508987276614e7 4.36153717834376e6 0.0
0.0 0.0 0.0

-2.270151549012881e6 2.0750778992425922e7 0.0
2.0750778992425922e7 -1.608019314877899e6 0.0
0.0 0.0 0.0

1.99722871570046e6 1.9120073509609733e7 0.0
1.9120073509609733e7 -4.988546344868476e6 0.0
0.0 0.0 0.0

1.8310455447610389e6 1.1055260709564311e7 0.0
1.1055260709564311e7 -1.1289339986055313e7 0.0
0.0 0.0 0.0

-8.9211614819028e6 1.4674620338623062e7 0.0
1.4674620338623062e7 1.728666969082417e7 0.0
0.0 0.0 0.0

65206.64897638373 1.3896813612248907e7 0.0
1.3896813612248907e7 -1.2390048248187063e7 0.0
0.0 0.0 0.0

-4.169348234467469e6 1.3461693855978416e7 0.0
1.3461693855978416e7 2.9548827374991854e6 0.0
0.0 0.0 0.0

-8.192518792459109e6 1.3798030543367743e7 0.0
1.3798030543367743e7 1.1133404509467352e7 0.0
0.0 0.0 0.0

2.1259801520474944e6 6.733988139007803e6 0.0
6.733988139007803e6 -7.318143182167621e6 0.0
0.0 0.0 0.0

-615525.108966778 1.452310064697272e7 0.0
1.452310064697272e7 4.609367196902055e6 0.0
0.0 0.0 0.0

-622297.5027383589 1.8853193069485843e7 0.0
1.8853193069485843e7 -4.575731175735394e6 0.0
0.0 0.0 0.0

2.6119596459894367e6 9.771247115811419e6 0.0
9.771247115811419e6 -3.518950990295028e7 0.0
0.0 0.0 0.0

-1.1623485481440391e7 8.306827209401263e6 0.0
8.306827209401263e6 1.377582574025543e7 0.0
0.0 0.0 0.0

4.950490891904508e6 2.619287633690175e7 0.0
2.619287633690175e7 -6.751495587726865e6 0.0
0.0 0.0 0.0

4.565180514015035e6 6.9955990775694605e6 0.0
6.9955990775694605e6 -2.390055588385439e7 0.0
0.0 0.0 0.0

-550709.6418516429 1.4347171395120075e7 0.0
1.4347171395120075e7 3.5521631130122463e6 0.0
0.0 0.0 0.0

-1.255678226316537e6 1.7477487611838378e7 0.0
1.7477487611838378e7 -5.87634415085645e6 0.0
0.0 0.0 0.0

6.851356047395442e6 1.8721276143667884e7 0.0
1.8721276143667884e7 1.0412834272532107e8 0.0
0.0 0.0 0.0

-6.349232881811339e6 1.7762410378959898e7 0.0
1.7762410378959898e7 -7.80830585914134e7 0.0
0.0 0.0 0.0

1.4641897641483113e7 1.540079419909139e7 0.0
1.540079419909139e7 3.407526943820452e6 0.0
0.0 0.0 0.0

3.130964109863554e6 1.8635439895230036e7 0.0
1.8635439895230036e7 -5.503366384366222e6 0.0
0.0 0.0 0.0

794764.7434563553 8.778839386396144e6 0.0
8.778839386396144e6 -5.946502510606421e6 0.0
0.0 0.0 0.0

6.263591187002993e6 2.3891332290912777e7 0.0
2.3891332290912777e7 -7.206796015993983e6 0.0
0.0 0.0 0.0

-4.254031755849069e6 1.5848895783465229e7 0.0
1.5848895783465229e7 1.179429071300441e7 0.0
0.0 0.0 0.0

6.309353266097335e6 1.5528680153697014e7 0.0
1.5528680153697014e7 -3.2216443213148806e6 0.0
0.0 0.0 0.0

-5.427452442957538e6 1.809833768263377e7 0.0
1.809833768263377e7 6.298213285532499e6 0.0
0.0 0.0 0.0

-6.868157493845526e6 1.2432712745013772e7 0.0
1.2432712745013772e7 9.838185425650604e6 0.0
0.0 0.0 0.0

1.0361915369251226e6 4.362189919089145e6 0.0
4.362189919089145e6 -4.644479722986877e6 0.0
0.0 0.0 0.0

-540856.1781866155 1.6490828052264249e7 0.0
1.6490828052264249e7 1.1453625419582553e7 0.0
0.0 0.0 0.0

-2.6113084398175385e6 1.8259933483511813e7 0.0
1.8259933483511813e7 -3.049462236530625e6 0.0
0.0 0.0 0.0

-8.233737400062972e6 1.5085578195332976e7 0.0
1.5085578195332976e7 1.5669124534606952e7 0.0
0.0 0.0 0.0

-5.554880825768929e6 1.8760521295537196e7 0.0
1.8760521295537196e7 7.464381529458805e6 0.0
0.0 0.0 0.0

-5.042423680304598e6 1.7868922983437486e7 0.0
1.7868922983437486e7 6.710929724438336e6 0.0
0.0 0.0 0.0

-826026.63875553 1.2176471621152166e7 0.0
1.2176471621152166e7 -5.1740113107683e6 0.0
0.0 0.0 0.0

-6.44614528858756e6 1.5280956600400716e7 0.0
1.5280956600400716e7 1.7051566523724604e7 0.0
0.0 0.0 0.0

-5.057761912510851e6 1.8443060596075896e7 0.0
1.8443060596075896e7 7.255655242710447e6 0.0
0.0 0.0 0.0

-3.943778686268553e6 9.491565385470105e6 0.0
9.491565385470105e6 3.4150325147090433e6 0.0
0.0 0.0 0.0

-2.680257883398207e7 2.2135257784243785e7 0.0
2.2135257784243785e7 4.499777848056523e6 0.0
0.0 0.0 0.0

-1.0381939831228454e7 1.6273943959136691e6 0.0
1.6273943959136691e6 3.767744521344448e7 0.0
0.0 0.0 0.0

-6.484331342016785e6 1.8859793855406433e7 0.0
1.8859793855406433e7 6.629389266650848e6 0.0
0.0 0.0 0.0

-6.567885682755158e6 2.217521009505895e7 0.0
2.217521009505895e7 6.468674309897643e6 0.0
0.0 0.0 0.0

1.05501631964829e6 1.2251696972145211e7 0.0
1.2251696972145211e7 -1.834795610556091e7 0.0
0.0 0.0 0.0

-4.1274212182000782e6 2.3540033939739686e7 0.0
2.3540033939739686e7 3.5696479415695826e6 0.0
0.0 0.0 0.0

-7.430287408276055e6 2.5828174348433834e7 0.0
2.5828174348433834e7 3.481259986800987e6 0.0
0.0 0.0 0.0

-8.73457073716268e6 2.6494690235364493e7 0.0
2.6494690235364493e7 3.7533952546120808e6 0.0
0.0 0.0 0.0

-3.3143465105163585e6 1.9711900196494784e7 0.0
1.9711900196494784e7 -489870.9371370742 0.0
0.0 0.0 0.0

-1.2370611800314328e7 8.3662890379584e6 0.0
8.3662890379584e6 2.067721994042108e7 0.0
0.0 0.0 0.0

5.477988162364904e6 3.550210891242304e6 0.0
3.550210891242304e6 -1.981905613457826e7 0.0
0.0 0.0 0.0

-7.027670572674428e6 1.5452833184898144e7 0.0
1.5452833184898144e7 1.536626761782668e7 0.0
0.0 0.0 0.0

-2.4531587118247757e6 2.1257306605321478e7 0.0
2.1257306605321478e7 -974073.0191319566 0.0
0.0 0.0 0.0

946714.9730749587 1.2675470073083675e7 0.0
1.2675470073083675e7 -1.4927264419149095e7 0.0
0.0 0.0 0.0

-1.0072412806133145e7 -4.247593962217943e6 0.0
-4.247593962217943e6 2.8357136591692798e7 0.0
0.0 0.0 0.0

-3823.2515410568813 1.496558617199889e7 0.0
1.496558617199889e7 128341.68252108265 0.0
0.0 0.0 0.0

-156537.8084502695 1.4944634055026073e7 0.0
1.4944634055026073e7 -8.708184351762203e6 0.0
0.0 0.0 0.0

142955.85996969696 1.3913424701271558e7 0.0
1.3913424701271558e7 -1.0708658713497004e7 0.0
0.0 0.0 0.0

-1.2103330256606375e6 1.2023176075715858e7 0.0
1.2023176075715858e7 -9.963785114094585e6 0.0
0.0 0.0 0.0

-5.865537629150273e6 -2.767765958307938e6 0.0
-2.767765958307938e6 7.8867295071384655e6 0.0
0.0 0.0 0.0

350348.28134718805 1.2280195334948024e7 0.0
1.2280195334948024e7 -2.7581789949431876e6 0.0
0.0 0.0 0.0

508004.9741557039 1.3909490771251379e7 0.0
1.3909490771251379e7 3.7077978086460624e6 0.0
0.0 0.0 0.0

8.89248656921602e6 1.4115551185906453e7 0.0
1.4115551185906453e7 885951.2036276297 0.0
0.0 0.0 0.0

-9.743493643938592e6 2.7730276801191792e7 0.0
2.7730276801191792e7 4.228240453170523e6 0.0
0.0 0.0 0.0

-7.193511964289105e6 1.2691022919409197e7 0.0
1.2691022919409197e7 1.0673492323806686e7 0.0
0.0 0.0 0.0

-3.9053276616048664e6 1.493822042448149e7 0.0
1.493822042448149e7 -3.3405995906255864e7 0.0
0.0 0.0 0.0

4.705934281830371e6 6.542397844643086e6 0.0
6.542397844643086e6 -2.0442733766149223e7 0.0
0.0 0.0 0.0

-6.307781970525706e6 -8.549004709628843e6 0.0
-8.549004709628843e6 1.4699687566423785e7 0.0
0.0 0.0 0.0

-1.2531614569355395e7 2.1527835932377804e7 0.0
2.1527835932377804e7 1.0729720349881845e6 0.0
0.0 0.0 0.0

-1.1235330526505813e7 1.824973091836928e7 0.0
1.824973091836928e7 -1.028831008451771e6 0.0
0.0 0.0 0.0

-477485.4557085866 1.2746718485834952e7 0.0
1.2746718485834952e7 -6.522153139304725e6 0.0
0.0 0.0 0.0

-3.112591920292288e6 2.09846214867753e7 0.0
2.09846214867753e7 69255.65922914073 0.0
0.0 0.0 0.0

3.9590932066152208e6 6.467017643198351e6 0.0
6.467017643198351e6 -3.399787859324876e7 0.0
0.0 0.0 0.0

2.679704858601432e6 1.6680883064980768e7 0.0
1.6680883064980768e7 -4.521727694666367e6 0.0
0.0 0.0 0.0

642190.6477031386 1.6195324441958522e7 0.0
1.6195324441958522e7 7.0275580548643395e6 0.0
0.0 0.0 0.0

2.157786043029462e6 1.132357124127063e7 0.0
1.132357124127063e7 -1.4328866226620374e7 0.0
0.0 0.0 0.0

-3.64033962879798e6 1.739306504625487e7 0.0
1.739306504625487e7 1.1961280681609388e6 0.0
0.0 0.0 0.0

1.8607560780239268e6 1.0739212218604896e7 0.0
1.0739212218604896e7 -1.0716069846235933e7 0.0
0.0 0.0 0.0

1.805670571675649e6 1.1153299435771307e7 0.0
1.1153299435771307e7 -1.5394717146167297e7 0.0
0.0 0.0 0.0

-412687.01067826524 1.2654057776472697e7 0.0
1.2654057776472697e7 -1.068224429058648e7 0.0
0.0 0.0 0.0

-6.73030033803512e6 2.150835978113725e7 0.0
2.150835978113725e7 6.074515165339737e6 0.0
0.0 0.0 0.0

-7.553808233139719e6 1.7422844846932758e7 0.0
1.7422844846932758e7 -3.86271761385229e7 0.0
0.0 0.0 0.0

4.330040942245017e6 2.3657034694638666e7 0.0
2.3657034694638666e7 -5.211298967116521e6 0.0
0.0 0.0 0.0

60655.45296550542 1.887534210736867e7 0.0
1.887534210736867e7 -4.652773080290998e6 0.0
0.0 0.0 0.0

-3.9726990302409213e6 2.2255185349347387e7 0.0
2.2255185349347387e7 3.7174203534909626e6 0.0
0.0 0.0 0.0

-5.474462540771213e6 1.8037404752464578e7 0.0
1.8037404752464578e7 8.091812488367185e6 0.0
0.0 0.0 0.0

4.163754680583777e6 5.666154483970412e6 0.0
5.666154483970412e6 -3.5190776605993405e7 0.0
0.0 0.0 0.0

-5.491016897273765e6 1.6584385605533391e7 0.0
1.6584385605533391e7 1.0323590966615247e7 0.0
0.0 0.0 0.0

4.647964832474522e6 5.474747363097561e6 0.0
5.474747363097561e6 -2.8970826027471706e7 0.0
0.0 0.0 0.0

-1.425680489869945e6 1.5662779841192177e7 0.0
1.5662779841192177e7 -5.449641749948526e6 0.0
0.0 0.0 0.0

-1.1740895003341446e6 1.5157273443266178e7 0.0
1.5157273443266178e7 -5.752613683270775e6 0.0
0.0 0.0 0.0

52146.78836154635 1.1949037131339733e7 0.0
1.1949037131339733e7 -3.4224939850794827e6 0.0
0.0 0.0 0.0

-5.061406432538629e6 1.5466733489261419e7 0.0
1.5466733489261419e7 1.0946834078415213e7 0.0
0.0 0.0 0.0

-3.675181892117046e6 1.9061836687076297e7 0.0
1.9061836687076297e7 -28598.89985903306 0.0
0.0 0.0 0.0

-6.572252742186643e6 1.5690289737112034e7 0.0
1.5690289737112034e7 9.697080691179208e6 0.0
0.0 0.0 0.0

-7.283280915311145e6 -7.942725354884628e6 0.0
-7.942725354884628e6 1.8739323859041527e7 0.0
0.0 0.0 0.0

4.332675119843907e6 6.349625446957024e6 0.0
6.349625446957024e6 -2.161889057658085e7 0.0
0.0 0.0 0.0

3.545793571984713e6 7.905182782042397e6 0.0
7.905182782042397e6 -1.7466379260996863e7 0.0
0.0 0.0 0.0

-2.7909205731229866e6 2.2607851801203966e7 0.0
2.2607851801203966e7 817266.724714377 0.0
0.0 0.0 0.0

-1.102957649596685e6 1.5676341689532595e7 0.0
1.5676341689532595e7 -5.917108444924994e6 0.0
0.0 0.0 0.0

1.6380887908959491e6 1.1774438972503657e7 0.0
1.1774438972503657e7 -1.855740751790673e7 0.0
0.0 0.0 0.0

-2.4564671833781768e6 1.581238064398884e7 0.0
1.581238064398884e7 1.1992823963142717e7 0.0
0.0 0.0 0.0

-8.540208594529156e6 465331.1925994945 0.0
465331.1925994945 1.244493506844293e7 0.0
0.0 0.0 0.0

371265.8466134565 1.6828199127367254e7 0.0
1.6828199127367254e7 8.476120850518629e6 0.0
0.0 0.0 0.0

-1.1779823202054823e7 2.3172133406749777e7 0.0
2.3172133406749777e7 8.411539001783751e6 0.0
0.0 0.0 0.0

893028.0120434738 1.4495762796887156e7 0.0
1.4495762796887156e7 3.9328296388650737e6 0.0
0.0 0.0 0.0

-162754.88321230467 1.4376763749182725e7 0.0
1.4376763749182725e7 6.59915075482293e6 0.0
0.0 0.0 0.0

-5.313401104966555e6 2.111450618073284e7 0.0
2.111450618073284e7 5.8777266130334735e6 0.0
0.0 0.0 0.0

-5.692846120285116e6 1.5884176842401363e7 0.0
1.5884176842401363e7 1.1275536506395942e7 0.0
0.0 0.0 0.0

-6.001380725335814e6 1.4388537365043549e7 0.0
1.4388537365043549e7 1.9566538852657612e7 0.0
0.0 0.0 0.0

-1.0195991067897853e7 1.8880990478705563e7 0.0
1.8880990478705563e7 363114.08521162113 0.0
0.0 0.0 0.0

-9.213083253335517e6 1.7752923174979053e7 0.0
1.7752923174979053e7 2.7122895776539296e6 0.0
0.0 0.0 0.0

-1.0807146358400382e7 9.697992279397547e6 0.0
9.697992279397547e6 6.845887912448035e6 0.0
0.0 0.0 0.0

-5.156563981745385e7 2.48570233868873e7 0.0
2.48570233868873e7 6.115372805974498e6 0.0
0.0 0.0 0.0

5.111869317169901e6 1.4483388611930026e7 0.0
1.4483388611930026e7 2.3911416044955086e6 0.0
0.0 0.0 0.0

428558.5100454679 1.2436975502527313e7 0.0
1.2436975502527313e7 -1.862449497688409e7 0.0
0.0 0.0 0.0

-5.581666835430391e6 1.7611119525948208e7 0.0
1.7611119525948208e7 6.341142220546251e6 0.0
0.0 0.0 0.0

-426125.7810698766 1.486922643432984e7 0.0
1.486922643432984e7 -1.035630953699508e7 0.0
0.0 0.0 0.0

2.38201334852364e7 1.2385546524867669e7 0.0
1.2385546524867669e7 -299225.2470374042 0.0
0.0 0.0 0.0

-1.5489012028549076e6 1.7754536160258185e6 0.0
1.7754536160258185e6 1.6100752988101784e6 0.0
0.0 0.0 0.0

3.7360960624184045e6 3.859101540625554e6 0.0
3.859101540625554e6 -1.0489559856357142e7 0.0
0.0 0.0 0.0

-989625.607459737 1.5319429655165162e7 0.0
1.5319429655165162e7 -8.496243098318135e6 0.0
0.0 0.0 0.0

-132794.10131439677 1.2915539127461903e7 0.0
1.2915539127461903e7 -1.7643730910598983e6 0.0
0.0 0.0 0.0

-1.1145350519374233e7 1.051801948739563e6 0.0
1.051801948739563e6 2.8401455347707e7 0.0
0.0 0.0 0.0

1.0178120829692052e6 1.935976187212486e7 0.0
1.935976187212486e7 -4.534504267486223e6 0.0
0.0 0.0 0.0

-1.3397277333814668e7 2.853458410172892e7 0.0
2.853458410172892e7 4.605299930693785e6 0.0
0.0 0.0 0.0

4.719934916955416e6 1.5033555401084932e7 0.0
1.5033555401084932e7 1.5087126435885108e6 0.0
0.0 0.0 0.0

-5.347375833306195e6 -8.389546551210212e6 0.0
-8.389546551210212e6 1.1917095439487308e7 0.0
0.0 0.0 0.0

-1.6329121560779562e7 1.8979769035040315e7 0.0
1.8979769035040315e7 6.789024252391644e6 0.0
0.0 0.0 0.0

-179483.78087257827 1.256518148090119e7 0.0
1.256518148090119e7 3.6808311615367024e6 0.0
0.0 0.0 0.0

-1.7512564755467936e7 2.9656189403084926e7 0.0
2.9656189403084926e7 5.293719871843431e6 0.0
0.0 0.0 0.0

-9.598270834634367e6 1.2691679465908254e7 0.0
1.2691679465908254e7 1.5209941847750455e7 0.0
0.0 0.0 0.0

1.15463140213802e6 1.4047725506486688e7 0.0
1.4047725506486688e7 -2.884736675360837e6 0.0
0.0 0.0 0.0

-3.1012079041149355e6 1.2984550730340874e7 0.0
1.2984550730340874e7 -1.4939527129959783e7 0.0
0.0 0.0 0.0

-673840.831805825 1.2935686518599723e7 0.0
1.2935686518599723e7 -8.294095262885384e6 0.0
0.0 0.0 0.0

2.5313829226279324e6 1.6247547900329156e7 0.0
1.6247547900329156e7 -4.605450864903768e6 0.0
0.0 0.0 0.0

1.0771338758118287e7 2.7870079306989346e7 0.0
2.7870079306989346e7 -1.505285352227901e7 0.0
0.0 0.0 0.0

-5.950376477166699e6 -2.700985992657157e6 0.0
-2.700985992657157e6 9.634633369530061e6 0.0
0.0 0.0 0.0

-2.9805435109447963e6 2.4374720178564437e7 0.0
2.4374720178564437e7 -307281.3789580611 0.0
0.0 0.0 0.0

-1.6679585418221238e6 2.140002418374576e7 0.0
2.140002418374576e7 -759193.1620662789 0.0
0.0 0.0 0.0

-1.036768407178847e7 -4.395925880634634e6 0.0
-4.395925880634634e6 2.1418230202191696e7 0.0
0.0 0.0 0.0

5.478320787190138e6 3.5247505983957457e6 0.0
3.5247505983957457e6 -1.9948324577576235e7 0.0
0.0 0.0 0.0

-4.9444700285916105e6 1.9638975127031714e7 0.0
1.9638975127031714e7 6.928379796737548e6 0.0
0.0 0.0 0.0

-599631.8945910917 1.6665556541667351e7 0.0
1.6665556541667351e7 9.546735257293839e6 0.0
0.0 0.0 0.0

-3.950392644059798e6 2.625643076219702e6 0.0
2.625643076219702e6 6.131500393425576e6 0.0
0.0 0.0 0.0

-1.0318034469473734e7 1.0660908131060945e7 0.0
1.0660908131060945e7 1.4986414349002942e7 0.0
0.0 0.0 0.0

-1.257017378758024e6 1.636725994713582e7 0.0
1.636725994713582e7 1.015823868026454e7 0.0
0.0 0.0 0.0

-583948.5575054116 1.3252033404682387e7 0.0
1.3252033404682387e7 -7.902334296960327e6 0.0
0.0 0.0 0.0

-762942.3490044703 1.2469831144095382e7 0.0
1.2469831144095382e7 -1.1234745663469397e7 0.0
0.0 0.0 0.0

-2.6299460205129692e6 2.0058898556480303e7 0.0
2.0058898556480303e7 -1.7077841194633637e6 0.0
0.0 0.0 0.0

-2.8928538947047237e6 1.072620131195792e6 0.0
1.072620131195792e6 4.200600105742372e6 0.0
0.0 0.0 0.0

-4.01557134916537e6 1.4656667893247295e7 0.0
1.4656667893247295e7 2.442369053665418e6 0.0
0.0 0.0 0.0

-1.1252947755733628e7 1.320566393551378e7 0.0
1.320566393551378e7 1.7972965707959976e7 0.0
0.0 0.0 0.0

1.1118305881601078e6 1.1371698392071208e7 0.0
1.1371698392071208e7 -8.995470306731513e6 0.0
0.0 0.0 0.0

-1.530676718226782e6 1.6983826306942668e7 0.0
1.6983826306942668e7 -6.5211179611756e6 0.0
0.0 0.0 0.0

-2.832742986367182e6 2.6047673482665e7 0.0
2.6047673482665e7 815788.6287695843 0.0
0.0 0.0 0.0

1.3068032791670188e6 1.1592098040833736e7 0.0
1.1592098040833736e7 -1.964375370945469e7 0.0
0.0 0.0 0.0

-3.562724112865751e7 2.9305747057504434e7 0.0
2.9305747057504434e7 8.620370630631115e6 0.0
0.0 0.0 0.0

1.6192931005951897e6 3.459693962702868e6 0.0
3.459693962702868e6 -3.9282640052863797e6 0.0
0.0 0.0 0.0

1.4603167973636237e6 3.5718878266905937e6 0.0
3.5718878266905937e6 -4.710654941578414e6 0.0
0.0 0.0 0.0

1.0750714309813883e6 1.5745110744574469e7 0.0
1.5745110744574469e7 1.1823499814921144e7 0.0
0.0 0.0 0.0

-172593.81808029907 1.6712871363118313e7 0.0
1.6712871363118313e7 1.1743657522927918e7 0.0
0.0 0.0 0.0

-815145.3325882966 1.4983072074487735e7 0.0
1.4983072074487735e7 4.372993908557631e6 0.0
0.0 0.0 0.0

-1.0016811549361706e7 9.048959486201776e6 0.0
9.048959486201776e6 1.4910148657777593e7 0.0
0.0 0.0 0.0

1.6914247840477736e6 4.467790272146136e6 0.0
4.467790272146136e6 -1.075834450261266e6 0.0
0.0 0.0 0.0

-2.8227627597143357e6 1.6014027275797363e7 0.0
1.6014027275797363e7 5.964380674434689e6 0.0
0.0 0.0 0.0

-3.1897636022579083e6 2.0920699513112757e7 0.0
2.0920699513112757e7 1.3354174452462357e6 0.0
0.0 0.0 0.0

772448.8476778474 1.2122424450694887e7 0.0
1.2122424450694887e7 -2.033726316958739e7 0.0
0.0 0.0 0.0

1.7173527972162187e6 1.7271442525204908e7 0.0
1.7271442525204908e7 9.101900291904759e6 0.0
0.0 0.0 0.0

6.40183011263754e6 1.5338488268862331e7 0.0
1.5338488268862331e7 3.4196767185147055e6 0.0
0.0 0.0 0.0

-2.262590990350285e7 3.0295898730179045e7 0.0
3.0295898730179045e7 7.386989364542495e6 0.0
0.0 0.0 0.0

-1.2103775730825583e6 1.3939874006511107e7 0.0
1.3939874006511107e7 6.22967793559585e6 0.0
0.0 0.0 0.0

-5.821029674229339e6 6.380670382800027e6 0.0
6.380670382800027e6 4.424417125597372e6 0.0
0.0 0.0 0.0

-1.3021629187818455e7 7.250514979044362e6 0.0
7.250514979044362e6 1.718409201992841e7 0.0
0.0 0.0 0.0

-3.38134234703429e6 2.0450932231503244e7 0.0
2.0450932231503244e7 567124.6882468644 0.0
0.0 0.0 0.0

-1.094148499972825e6 1.660857561289528e7 0.0
1.660857561289528e7 1.2135016369715204e7 0.0
0.0 0.0 0.0

-1.0822427909901705e7 1.958083894317329e6 0.0
1.958083894317329e6 4.185920004338346e7 0.0
0.0 0.0 0.0

-2.485996078948179e6 1.5265427769334394e7 0.0
1.5265427769334394e7 8.606808131251695e6 0.0
0.0 0.0 0.0

-4.994956119775685e6 1.3850426702242397e7 0.0
1.3850426702242397e7 -1.995451245494803e7 0.0
0.0 0.0 0.0

-1.0589839661617586e6 1.6694720432088342e7 0.0
1.6694720432088342e7 1.1133215327748545e7 0.0
0.0 0.0 0.0

-8.705612709187541e6 1.4787791663487783e7 0.0
1.4787791663487783e7 1.5992333374657204e7 0.0
0.0 0.0 0.0

-274932.9326496017 1.2615942507363563e7 0.0
1.2615942507363563e7 -8.234148241618398e6 0.0
0.0 0.0 0.0

-2.1197116358362865e6 1.530736064254807e7 0.0
1.530736064254807e7 4.933475205359051e7 0.0
0.0 0.0 0.0

971803.0903398963 1.871411520870576e7 0.0
1.871411520870576e7 -4.792384556277219e6 0.0
0.0 0.0 0.0

246630.05395772355 1.3766975518637815e7 0.0
1.3766975518637815e7 -1.2468304435729356e7 0.0
0.0 0.0 0.0

-171480.11719698017 1.0530316078726407e7 0.0
1.0530316078726407e7 -4.772286289389588e6 0.0
0.0 0.0 0.0

5.461123391924143e6 4.052461801581332e6 0.0
4.052461801581332e6 -2.418274518600821e7 0.0
0.0 0.0 0.0

-2.5708153457650514e6 2.5149517095220093e7 0.0
2.5149517095220093e7 1.3413530296565813e6 0.0
0.0 0.0 0.0

-1.3019888457681213e7 8.171102422985883e6 0.0
8.171102422985883e6 1.759188763131334e7 0.0
0.0 0.0 0.0

224149.6676487797 1.4586463519612908e7 0.0
1.4586463519612908e7 8.499071778514493e6 0.0
0.0 0.0 0.0

-7.0669068426244315e6 1.905020721723171e7 0.0
1.905020721723171e7 5.428012351731988e6 0.0
0.0 0.0 0.0

-4.1549969401210425e6 1.6005090727316177e7 0.0
1.6005090727316177e7 1.5076727155489104e6 0.0
0.0 0.0 0.0

-1.169815298774992e7 1.141082248423459e7 0.0
1.141082248423459e7 1.5118184828837391e7 0.0
0.0 0.0 0.0

2.674601844050606e6 9.069860932870038e6 0.0
9.069860932870038e6 -1.4533281115566477e7 0.0
0.0 0.0 0.0

-1.255403972690466e7 2.7147501570643257e7 0.0
2.7147501570643257e7 7.535962479490056e6 0.0
0.0 0.0 0.0

1.1917499096358476e7 1.0403655616636809e7 0.0
1.0403655616636809e7 -19871.895235374104 0.0
0.0 0.0 0.0

-7.883339161037391e6 -847868.718596458 0.0
-847868.718596458 9.465890289431155e6 0.0
0.0 0.0 0.0

-5.99218268708292e6 2.178359754390816e7 0.0
2.178359754390816e7 5.880776725017588e6 0.0
0.0 0.0 0.0

-2.1324133490205087e7 1.4621173559873855e7 0.0
1.4621173559873855e7 9.930463448841218e6 0.0
0.0 0.0 0.0

-1.644622949612413e6 1.6394459247982295e7 0.0
1.6394459247982295e7 -5.6440806634313185e6 0.0
0.0 0.0 0.0

-3.2635266752766266e7 2.291905804942062e7 0.0
2.291905804942062e7 5.386597969216283e6 0.0
0.0 0.0 0.0

-1.4053174068243029e6 1.6488766614149213e7 0.0
1.6488766614149213e7 -3.364289927711577e6 0.0
0.0 0.0 0.0

-7.283065413849711e6 1.412946128823018e7 0.0
1.412946128823018e7 1.1646410448028864e7 0.0
0.0 0.0 0.0

-1.1088788102385059e7 7.936694432110894e6 0.0
7.936694432110894e6 1.5805620986417234e7 0.0
0.0 0.0 0.0

-8.215158626333389e6 1.2179734366164682e7 0.0
1.2179734366164682e7 9.8910448149489e6 0.0
0.0 0.0 0.0

-5.408205913995908e6 1.78951105348772e7 0.0
1.78951105348772e7 8.528622473834146e6 0.0
0.0 0.0 0.0

-1.0572494594791679e7 -2.4188999745324226e6 0.0
-2.4188999745324226e6 2.8254303961406004e7 0.0
0.0 0.0 0.0

-126962.92163695284 1.2044232739780284e7 0.0
1.2044232739780284e7 -1.5860519799441672e6 0.0
0.0 0.0 0.0

1.8456080935577503e6 9.921462296881607e6 0.0
9.921462296881607e6 -9.4828731673532e6 0.0
0.0 0.0 0.0

1.0817601668859702e6 1.2743420614842458e7 0.0
1.2743420614842458e7 -1.2658679849458655e7 0.0
0.0 0.0 0.0

-7.064169106580028e6 -6.323093987752795e6 0.0
-6.323093987752795e6 1.551460060671067e7 0.0
0.0 0.0 0.0

-704006.6422983663 1.2360699623599261e7 0.0
1.2360699623599261e7 -363419.38872141053 0.0
0.0 0.0 0.0

-6.5270690105189e6 1.932288441742508e7 0.0
1.932288441742508e7 6.165388985875519e6 0.0
0.0 0.0 0.0

-1.6909045063393898e6 1.6029584001030164e7 0.0
1.6029584001030164e7 1.326501331923445e7 0.0
0.0 0.0 0.0

-576910.3990037125 1.487394976130901e7 0.0
1.487394976130901e7 -8.792113143553777e6 0.0
0.0 0.0 0.0

-303941.94289478986 1.4464948273294779e7 0.0
1.4464948273294779e7 1.7843251565779536e6 0.0
0.0 0.0 0.0

-2.9341217753239777e6 2.373921230360063e7 0.0
2.373921230360063e7 172037.31615932263 0.0
0.0 0.0 0.0

-136030.17036081478 1.5274739496685958e7 0.0
1.5274739496685958e7 -8.273492757151597e6 0.0
0.0 0.0 0.0

5.055010851394075e7 1.998074696161186e7 0.0
1.998074696161186e7 690382.5071912631 0.0
0.0 0.0 0.0

1.699342062024257e6 1.4632785379899835e7 0.0
1.4632785379899835e7 -4.196560840335578e6 0.0
0.0 0.0 0.0

-106100.01811905578 1.3449289632806433e7 0.0
1.3449289632806433e7 -1.4454345363825724e7 0.0
0.0 0.0 0.0

-702976.3980335307 1.6636337895169303e7 0.0
1.6636337895169303e7 -6.824496483062368e6 0.0
0.0 0.0 0.0

-1.880273859721567e7 2.0440342099426016e7 0.0
2.0440342099426016e7 5.601238087137928e6 0.0
0.0 0.0 0.0

-5.569226606657511e6 1.8782351874605346e7 0.0
1.8782351874605346e7 6.906143398606278e6 0.0
0.0 0.0 0.0

7.146365148267822e6 1.508802699411992e7 0.0
1.508802699411992e7 -665291.0072306483 0.0
0.0 0.0 0.0

234016.10296223033 1.2046869182892542e7 0.0
1.2046869182892542e7 -2.3647110770801846e7 0.0
0.0 0.0 0.0

1.0362620702629089e6 1.5105046501975913e7 0.0
1.5105046501975913e7 1.4904953202784311e7 0.0
0.0 0.0 0.0

4.826827072268735e6 5.614541792445649e6 0.0
5.614541792445649e6 -1.6330885926760554e7 0.0
0.0 0.0 0.0

-526863.2415852353 1.7151510226191796e7 0.0
1.7151510226191796e7 -6.290512299021405e6 0.0
0.0 0.0 0.0

4.915602534481378e6 4.882011865352707e6 0.0
4.882011865352707e6 -2.8165049609386176e7 0.0
0.0 0.0 0.0

-1.4276870358855685e6 1.680755762311978e7 0.0
1.680755762311978e7 -6.6048004526248835e6 0.0
0.0 0.0 0.0

237219.99629104347 1.9433401295317613e7 0.0
1.9433401295317613e7 -4.1473251483657584e6 0.0
0.0 0.0 0.0

-3.72727324351861e6 1.5829990044925906e7 0.0
1.5829990044925906e7 1.1664864957378104e6 0.0
0.0 0.0 0.0

-1.0367098751411328e7 2.3085341232394718e7 0.0
2.3085341232394718e7 6.908460984851735e6 0.0
0.0 0.0 0.0

-9.061867878314823e6 1.475592400925477e7 0.0
1.475592400925477e7 1.5912334263433985e7 0.0
0.0 0.0 0.0

-984072.1782930845 1.3164557741578309e7 0.0
1.3164557741578309e7 5.4118156814437e6 0.0
0.0 0.0 0.0

-2.8328501724927902e7 2.2818142376051154e7 0.0
2.2818142376051154e7 1.0674223131856807e7 0.0
0.0 0.0 0.0

5.486755215515412e6 1.5602780911174143e7 0.0
1.5602780911174143e7 5.437075893061753e6 0.0
0.0 0.0 0.0

-4.625022354370942e6 8.760340126144681e6 0.0
8.760340126144681e6 2.3625743814496365e6 0.0
0.0 0.0 0.0

-5.381762363788996e6 2.137070887672674e7 0.0
2.137070887672674e7 5.470482275838635e6 0.0
0.0 0.0 0.0

-1.6893104823425093e6 1.6869649221685044e7 0.0
1.6869649221685044e7 -4.224382992378691e6 0.0
0.0 0.0 0.0

1.1841775043722535e6 1.165635748437021e7 0.0
1.165635748437021e7 -9.492404707728855e6 0.0
0.0 0.0 0.0

5.553036168363351e6 3.423386257610359e6 0.0
3.423386257610359e6 -2.087643297236087e7 0.0
0.0 0.0 0.0

-84003.5889979885 1.2254520092089491e7 0.0
1.2254520092089491e7 -7.314533551048327e6 0.0
0.0 0.0 0.0

2.6564805067920703e7 5.68346975555822e6 0.0
5.68346975555822e6 -3.1661324635663982e6 0.0
0.0 0.0 0.0

-8.866413255255202e6 1.4727712101338001e7 0.0
1.4727712101338001e7 1.6577978645578843e7 0.0
0.0 0.0 0.0

-6.4844552789408155e6 2.1068015864149757e7 0.0
2.1068015864149757e7 6.262044877559718e6 0.0
0.0 0.0 0.0

-9.458180752386084e6 -6.346305703174069e6 0.0
-6.346305703174069e6 2.4845584131250262e7 0.0
0.0 0.0 0.0

-4.266615570338894e6 2.3609110495733444e7 0.0
2.3609110495733444e7 2.8720734425501428e6 0.0
0.0 0.0 0.0

-1.5546540250428226e7 1.8474680348957755e7 0.0
1.8474680348957755e7 6.93864928811862e6 0.0
0.0 0.0 0.0

21534.259605304338 1.4117132445845945e7 0.0
1.4117132445845945e7 -1.1727585348862942e7 0.0
0.0 0.0 0.0

1.0032584945222e6 1.5429055465579808e7 0.0
1.5429055465579808e7 1.0351803898177462e7 0.0
0.0 0.0 0.0

-677883.6780929363 1.331659963761486e7 0.0
1.331659963761486e7 2.499967733491042e6 0.0
0.0 0.0 0.0

-5.352592749830343e6 1.6971917592105903e7 0.0
1.6971917592105903e7 6.668639382491583e6 0.0
0.0 0.0 0.0

829400.9960217448 1.1217798880913543e7 0.0
1.1217798880913543e7 -1.0098057435778458e7 0.0
0.0 0.0 0.0

3.2996251877793465e6 8.754371356245106e6 0.0
8.754371356245106e6 -1.4013682113436516e7 0.0
0.0 0.0 0.0

85359.14881491591 7.871880022876525e6 0.0
7.871880022876525e6 -5.435661102703909e6 0.0
0.0 0.0 0.0

-5.174786691841068e6 2.1025681708432462e7 0.0
2.1025681708432462e7 5.268082011124877e6 0.0
0.0 0.0 0.0

-904806.594849399 1.3557265870835142e7 0.0
1.3557265870835142e7 -7.127047349827958e6 0.0
0.0 0.0 0.0

1.01058862029595e7 1.0361401670749927e7 0.0
1.0361401670749927e7 -186782.8460651557 0.0
0.0 0.0 0.0

5.561891825283365e6 3.4411684540100833e6 0.0
3.4411684540100833e6 -2.101794097347521e7 0.0
0.0 0.0 0.0

-402023.587789461 1.5128630317352068e7 0.0
1.5128630317352068e7 1.0845041239777088e7 0.0
0.0 0.0 0.0

687288.0897756671 7.768284449063673e6 0.0
7.768284449063673e6 -6.619433581144531e6 0.0
0.0 0.0 0.0

-2.0045047106599314e6 2.0253014832895987e7 0.0
2.0253014832895987e7 -1.4056257973473174e6 0.0
0.0 0.0 0.0

-1.0894526278175195e6 1.4994140735964626e7 0.0
1.4994140735964626e7 5.812508570833144e6 0.0
0.0 0.0 0.0

-1.2186465715839712e7 3.8208219473267063e6 0.0
3.8208219473267063e6 2.531153536171316e7 0.0
0.0 0.0 0.0

-1.9877609454376874e6 2.7848845008919328e6 0.0
2.7848845008919328e6 2.0689620492052448e6 0.0
0.0 0.0 0.0

70979.98296802118 1.9526295090791356e7 0.0
1.9526295090791356e7 -4.303145330193322e6 0.0
0.0 0.0 0.0

-3.735506416870108e7 1.0104448956411272e7 0.0
1.0104448956411272e7 1.0785807087669782e7 0.0
0.0 0.0 0.0

636122.0789000159 1.3166348513897046e7 0.0
1.3166348513897046e7 -1.411233002892885e7 0.0
0.0 0.0 0.0

-1.6594663691150313e6 1.0843291686706068e7 0.0
1.0843291686706068e7 4.108140345853237e6 0.0
0.0 0.0 0.0

-7.1538431423101695e6 1.3912878923981944e7 0.0
1.3912878923981944e7 1.1158645575495334e7 0.0
0.0 0.0 0.0

-3.946108774661275e7 9.818723574987765e6 0.0
9.818723574987765e6 1.0186736109372579e7 0.0
0.0 0.0 0.0

-78584.29523777962 1.304313333841492e7 0.0
1.304313333841492e7 -1.4818227367433421e7 0.0
0.0 0.0 0.0

-804806.9841569858 1.6331375240499567e7 0.0
1.6331375240499567e7 -7.533928464390317e6 0.0
0.0 0.0 0.0

1.6858817119364366e6 5.441144123450079e6 0.0
5.441144123450079e6 -5.019776462744065e6 0.0
0.0 0.0 0.0

-4.21490311674268e6 1.7940123564439606e7 0.0
1.7940123564439606e7 -3.5564934949563425e6 0.0
0.0 0.0 0.0

-395304.27045734756 2.190614446338482e7 0.0
2.190614446338482e7 -2.782795673752356e6 0.0
0.0 0.0 0.0

-3.8597662071823403e6 2.1978880349003185e7 0.0
2.1978880349003185e7 2.4188443550409386e6 0.0
0.0 0.0 0.0

-5.3679644110352425e6 1.6473760508081611e7 0.0
1.6473760508081611e7 3.8482223792420393e6 0.0
0.0 0.0 0.0

-1.2241992445489172e7 1.1043669818765067e7 0.0
1.1043669818765067e7 1.8969252335947245e7 0.0
0.0 0.0 0.0

-4.989647409218568e6 1.6581427794067418e7 0.0
1.6581427794067418e7 9.91314442081029e6 0.0
0.0 0.0 0.0

-4.1029548455690006e6 2.314536875690127e7 0.0
2.314536875690127e7 2.788481684003644e6 0.0
0.0 0.0 0.0

1.5133135017867777e6 9.80473463121551e6 0.0
9.80473463121551e6 -1.0618461368430385e7 0.0
0.0 0.0 0.0

-4.118442538273167e6 2.276210727123592e7 0.0
2.276210727123592e7 2.6457698824220644e6 0.0
0.0 0.0 0.0

-689615.2394685885 1.6795977385778792e7 0.0
1.6795977385778792e7 1.1704527682264503e7 0.0
0.0 0.0 0.0

-1.253293146232646e7 8.1797360772456145e6 0.0
8.1797360772456145e6 1.8468992235149406e7 0.0
0.0 0.0 0.0

5.108174767314799e6 4.232404090957991e6 0.0
4.232404090957991e6 -2.1856651607734054e7 0.0
0.0 0.0 0.0

-7.666412879477191e6 1.900058696317083e7 0.0
1.900058696317083e7 5.645240852245105e6 0.0
0.0 0.0 0.0

-3.1368651680257097e6 1.8525465875227824e7 0.0
1.8525465875227824e7 -1.830569453260738e6 0.0
0.0 0.0 0.0

-2.34920452866398e6 1.8446363289299704e7 0.0
1.8446363289299704e7 -2.499701679871444e6 0.0
0.0 0.0 0.0

-4.745348568042668e7 3.2045947176114425e7 0.0
3.2045947176114425e7 -1.2850707419696879e7 0.0
0.0 0.0 0.0

281431.03187465854 1.4517408831904627e7 0.0
1.4517408831904627e7 -1.1076751033318233e7 0.0
0.0 0.0 0.0

-3.1641233906248193e6 2.0215617764382895e7 0.0
2.0215617764382895e7 935678.0564920153 0.0
0.0 0.0 0.0

-7.682455542513986e6 1.464549484730132e7 0.0
1.464549484730132e7 1.0754247880175099e7 0.0
0.0 0.0 0.0

-2.2617661609917715e7 1.5748889561170742e7 0.0
1.5748889561170742e7 1.0547366193085764e7 0.0
0.0 0.0 0.0

276044.3213797681 1.435414307936387e7 0.0
1.435414307936387e7 -502317.1005612913 0.0
0.0 0.0 0.0

-3.0538941641158992e6 1.6190379007189246e7 0.0
1.6190379007189246e7 1.2859684660020791e7 0.0
0.0 0.0 0.0

5.637125663837286e6 3.0509901698138975e6 0.0
3.0509901698138975e6 -2.568670924070235e7 0.0
0.0 0.0 0.0

-1.656573775934685e7 2.542644264036053e7 0.0
2.542644264036053e7 9.885470131671347e6 0.0
0.0 0.0 0.0

-9.690779635833614e6 -4.685390596885229e6 0.0
-4.685390596885229e6 2.578482154742684e7 0.0
0.0 0.0 0.0

-1.0708091248362456e7 -2.603978113052151e6 0.0
-2.603978113052151e6 3.095201658994473e7 0.0
0.0 0.0 0.0

-1.0625694427279863e6 2.453277982908077e6 0.0
2.453277982908077e6 1.4965181444499104e6 0.0
0.0 0.0 0.0

-1.2258602878742155e7 9.36698471882061e6 0.0
9.36698471882061e6 2.0750513839566518e7 0.0
0.0 0.0 0.0

-3.950275198700956e6 1.3835496803701278e7 0.0
1.3835496803701278e7 9.538114655752486e6 0.0
0.0 0.0 0.0

971907.7424235903 1.2639076129184373e7 0.0
1.2639076129184373e7 -1.5878020657587245e7 0.0
0.0 0.0 0.0

-3.072608399160222e7 3.005418429689156e7 0.0
3.005418429689156e7 9.64151824821066e6 0.0
0.0 0.0 0.0

-1.238730393436465e7 9.031017794902727e6 0.0
9.031017794902727e6 1.8850703122809615e7 0.0
0.0 0.0 0.0

250163.44556565024 1.1862052408574196e7 0.0
1.1862052408574196e7 -2.444509623900564e7 0.0
0.0 0.0 0.0

-1.5269829960219515e7 1.7572396510746647e7 0.0
1.7572396510746647e7 7.145770578047061e6 0.0
0.0 0.0 0.0

-1.0065450192733763e7 -3.0068632489702785e6 0.0
-3.0068632489702785e6 3.1921741880799748e7 0.0
0.0 0.0 0.0

-137781.4544117013 1.3887332794453407e7 0.0
1.3887332794453407e7 -1.0326450748840576e7 0.0
0.0 0.0 0.0

-2.9005353747104937e6 1.3922020106978491e7 0.0
1.3922020106978491e7 -2.619748361245582e7 0.0
0.0 0.0 0.0

-851064.797765885 1.6023166542440653e7 0.0
1.6023166542440653e7 -3.9989466002181e6 0.0
0.0 0.0 0.0

-1.4313863518584754e7 1.5739169603061894e7 0.0
1.5739169603061894e7 7.328090245916405e6 0.0
0.0 0.0 0.0

2.4214303901966684e7 1.8146272658460047e7 0.0
1.8146272658460047e7 3.925966597226771e6 0.0
0.0 0.0 0.0

-738261.0309867419 1.023288837478041e7 0.0
1.023288837478041e7 -2.7960278931959113e6 0.0
0.0 0.0 0.0

1.0481828678280585e6 1.3030707681275671e7 0.0
1.3030707681275671e7 -1.1674698597286083e7 0.0
0.0 0.0 0.0

-529209.9693782115 1.2245693149591673e7 0.0
1.2245693149591673e7 -9.756403529491862e6 0.0
0.0 0.0 0.0

5.765966417951178e6 3.090914467544554e6 0.0
3.090914467544554e6 -2.5842524361262843e7 0.0
0.0 0.0 0.0

-2.3835173686650144e6 1.965099744221202e7 0.0
1.965099744221202e7 -1.1684736653857979e6 0.0
0.0 0.0 0.0

-578532.668875983 1.2826414700644087e7 0.0
1.2826414700644087e7 -1.5702814718087843e7 0.0
0.0 0.0 0.0

96439.56595052965 1.5458037000807643e7 0.0
1.5458037000807643e7 -8.563967952383913e6 0.0
0.0 0.0 0.0

-412603.24355513835 1.3130619252112294e7 0.0
1.3130619252112294e7 437091.6144300526 0.0
0.0 0.0 0.0

-4.127968578009191e6 8.768330694512982e6 0.0
8.768330694512982e6 4.0702222429453926e6 0.0
0.0 0.0 0.0

-5.7448444373945175e6 1.6701602107692473e7 0.0
1.6701602107692473e7 6.250777599335037e6 0.0
0.0 0.0 0.0

-4.293767543022075e6 1.5801361202407843e7 0.0
1.5801361202407843e7 1.4561015685426207e7 0.0
0.0 0.0 0.0

5.340104149640214e6 3.788645335873376e6 0.0
3.788645335873376e6 -1.7956587556994304e7 0.0
0.0 0.0 0.0

-1.4109151842003193e7 7.5981615902835075e6 0.0
7.5981615902835075e6 5.532823013785859e6 0.0
0.0 0.0 0.0

-570092.6786358221 1.698067408535016e7 0.0
1.698067408535016e7 1.064862570413762e7 0.0
0.0 0.0 0.0

-77393.2933349465 1.3459551325982817e7 0.0
1.3459551325982817e7 -1.1861658409180801e7 0.0
0.0 0.0 0.0

4.0566012157328114e7 7.576120582874205e6 0.0
7.576120582874205e6 -1.937691761812156e6 0.0
0.0 0.0 0.0

1.0114967648983048e6 1.3199207349286774e7 0.0
1.3199207349286774e7 -1.4119433612511544e7 0.0
0.0 0.0 0.0

-2.815736846638612e6 1.8945779715459976e7 0.0
1.8945779715459976e7 -2.346026607107659e6 0.0
0.0 0.0 0.0

-4.251175083983062e6 1.7022941776408546e7 0.0
1.7022941776408546e7 511479.68900287175 0.0
0.0 0.0 0.0

-90450.71730039269 1.5320509064755317e7 0.0
1.5320509064755317e7 3.563151599743024e7 0.0
0.0 0.0 0.0

-1.228282941360955e7 8.371287389153413e6 0.0
8.371287389153413e6 2.176930048067538e7 0.0
0.0 0.0 0.0

-9.204240575474707e6 -6.818140171382562e6 0.0
-6.818140171382562e6 2.4469706743090052e7 0.0
0.0 0.0 0.0

-1.237443077141353e7 2.3456335880669123e6 0.0
2.3456335880669123e6 2.584308262229117e7 0.0
0.0 0.0 0.0

-4.047964872955936e6 2.1478143009755336e7 0.0
2.1478143009755336e7 2.690799578918852e6 0.0
0.0 0.0 0.0

2.681403308048969e6 9.66344332548326e6 0.0
9.66344332548326e6 -1.5163464811049376e7 0.0
0.0 0.0 0.0

-5.26854284180648e6 1.76636276033211e7 0.0
1.76636276033211e7 8.305739439796666e6 0.0
0.0 0.0 0.0

18624.14236071473 1.4851879352226421e7 0.0
1.4851879352226421e7 -1.0357058895279389e7 0.0
0.0 0.0 0.0

-7.893598972983604e6 1.3197629973036392e7 0.0
1.3197629973036392e7 9.748673158698974e6 0.0
0.0 0.0 0.0

-5.342193790601581e6 1.9136113740586653e7 0.0
1.9136113740586653e7 7.1401609421647005e6 0.0
0.0 0.0 0.0

2.0469453857588863e6 1.8357518808955494e7 0.0
1.8357518808955494e7 -4.901575218160693e6 0.0
0.0 0.0 0.0

-6.030988444019225e6 1.617358618433298e7 0.0
1.617358618433298e7 1.1012261321915695e7 0.0
0.0 0.0 0.0

-5.563131634899458e6 1.712663459316226e7 0.0
1.712663459316226e7 9.074854058560593e6 0.0
0.0 0.0 0.0

-1.3399916029235504e6 1.2836593996385124e7 0.0
1.2836593996385124e7 -1.0627808317604465e7 0.0
0.0 0.0 0.0

-1.29783914504399e7 8.82484498905905e6 0.0
8.82484498905905e6 1.702365610844965e7 0.0
0.0 0.0 0.0

-3.8312128490453484e6 2.1559153704582367e7 0.0
2.1559153704582367e7 3.4507279353458714e6 0.0
0.0 0.0 0.0

4.555976307100145e6 5.288971977644798e6 0.0
5.288971977644798e6 -1.7273011056410667e7 0.0
0.0 0.0 0.0

-1.0349402132110992e7 449871.58190346044 0.0
449871.58190346044 4.111137787332308e7 0.0
0.0 0.0 0.0

-433344.2500389167 1.5499153524633525e7 0.0
1.5499153524633525e7 -4.923585108121507e6 0.0
0.0 0.0 0.0

-4.073667481696533e6 2.1854928390627433e7 0.0
2.1854928390627433e7 2.855965445393432e6 0.0
0.0 0.0 0.0

2.453313679972046e6 1.094288898561225e7 0.0
1.094288898561225e7 -1.7044940347995475e7 0.0
0.0 0.0 0.0

-2.983546324893028e6 1.976282950896508e7 0.0
1.976282950896508e7 -1.3741385059074261e6 0.0
0.0 0.0 0.0

2.96520997861962e6 8.620528327242514e6 0.0
8.620528327242514e6 -1.5192629572300734e7 0.0
0.0 0.0 0.0

-1.2388938100612266e7 7.380390317486071e6 0.0
7.380390317486071e6 1.924536483077376e7 0.0
0.0 0.0 0.0

-4.22623661484104e7 2.825080646903988e7 0.0
2.825080646903988e7 1.0995111904077208e7 0.0
0.0 0.0 0.0

-7.957598120569394e6 1.807366547759223e7 0.0
1.807366547759223e7 866810.7955593299 0.0
0.0 0.0 0.0

-5.083722233797062e6 1.757824421708532e7 0.0
1.757824421708532e7 8.8552886605287e6 0.0
0.0 0.0 0.0

-3.530940728555461e6 -2.95522819394771e6 0.0
-2.95522819394771e6 7.255628189865403e6 0.0
0.0 0.0 0.0

-9.66078120509199e6 1.724081383873715e7 0.0
1.724081383873715e7 -422717.5852417457 0.0
0.0 0.0 0.0

-6.105423934426233e6 1.940977945262752e7 0.0
1.940977945262752e7 6.610063887470758e6 0.0
0.0 0.0 0.0

5.369032567781541e6 4.055524697092469e6 0.0
4.055524697092469e6 -2.2275097541237786e7 0.0
0.0 0.0 0.0

-7.746756144480621e6 1.1884235764329866e7 0.0
1.1884235764329866e7 1.1716777494981937e7 0.0
0.0 0.0 0.0

-1.0672786181590777e7 9.37950552377328e6 0.0
9.37950552377328e6 1.5478318359149704e7 0.0
0.0 0.0 0.0

-1.6577862397101482e6 2.3929001013010178e7 0.0
2.3929001013010178e7 384410.8506016304 0.0
0.0 0.0 0.0

-9.817609410169698e6 -318412.98660827236 0.0
-318412.98660827236 1.1644168947139192e7 0.0
0.0 0.0 0.0

-1.2897962757719684e7 9.879713570808508e6 0.0
9.879713570808508e6 1.762270782442925e7 0.0
0.0 0.0 0.0

-3.367012386068402e6 2.220246630841617e7 0.0
2.220246630841617e7 2.7828612810969115e6 0.0
0.0 0.0 0.0

-1.0513583786934592e7 -2.3856650301730717e6 0.0
-2.3856650301730717e6 3.3365955945604466e7 0.0
0.0 0.0 0.0

-5.714537633296918e6 -1.479335363044236e6 0.0
-1.479335363044236e6 9.674487949690137e6 0.0
0.0 0.0 0.0

4.028759701791007e6 6.896567410700915e6 0.0
6.896567410700915e6 -1.6541215088582143e7 0.0
0.0 0.0 0.0

-5.484454796701327e6 1.7013137885161106e7 0.0
1.7013137885161106e7 7.007138172582217e6 0.0
0.0 0.0 0.0

-1.2553430289793123e7 1.0058035389390359e7 0.0
1.0058035389390359e7 1.891632664784654e7 0.0
0.0 0.0 0.0

-466349.09966520825 1.4527340050330631e7 0.0
1.4527340050330631e7 -9.854481788641099e6 0.0
0.0 0.0 0.0

449863.7678960068 1.3960208075525053e7 0.0
1.3960208075525053e7 -1.0367149138809884e7 0.0
0.0 0.0 0.0

2.829728360289053e6 9.48058516459184e6 0.0
9.48058516459184e6 -1.6109713545684837e7 0.0
0.0 0.0 0.0

841527.004327517 1.2904068515310025e7 0.0
1.2904068515310025e7 -1.5036928573850224e7 0.0
0.0 0.0 0.0

-578056.0367455408 1.329328963550148e7 0.0
1.329328963550148e7 4.887123652822861e6 0.0
0.0 0.0 0.0

-1.2640961257310918e7 1.1136619941609131e7 0.0
1.1136619941609131e7 1.797897475639732e7 0.0
0.0 0.0 0.0

-2.824994382900841e6 1.927808592037142e7 0.0
1.927808592037142e7 -2.17680423058311e6 0.0
0.0 0.0 0.0

-5.359296635580611e6 2.0951489807798173e7 0.0
2.0951489807798173e7 5.759772067082545e6 0.0
0.0 0.0 0.0

-3.5928996350810095e6 2.1713946541824613e7 0.0
2.1713946541824613e7 3.072544565236194e6 0.0
0.0 0.0 0.0

7.160739311720897e6 1.9744436726747137e7 0.0
1.9744436726747137e7 4.545409399619326e7 0.0
0.0 0.0 0.0

-5.02883824240333e6 1.723158346057756e7 0.0
1.723158346057756e7 6.168424636500129e6 0.0
0.0 0.0 0.0

779244.7110907268 1.3396655114761103e7 0.0
1.3396655114761103e7 -1.0909474302144792e7 0.0
0.0 0.0 0.0

309250.4418720985 1.3300064963770926e7 0.0
1.3300064963770926e7 -1.420414756484198e7 0.0
0.0 0.0 0.0

1.0033655531572704e6 1.3220643353728415e7 0.0
1.3220643353728415e7 -1.1935247798259411e7 0.0
0.0 0.0 0.0

-2.613321157200847e6 2.1205788839975014e7 0.0
2.1205788839975014e7 429617.32348975784 0.0
0.0 0.0 0.0

-5.657890983097952e6 1.6387763982322168e7 0.0
1.6387763982322168e7 5.547282903458021e6 0.0
0.0 0.0 0.0

-297304.75895663723 1.2530808416613454e7 0.0
1.2530808416613454e7 1.2572380655410711e6 0.0
0.0 0.0 0.0

116981.46650824323 1.3681043793039637e7 0.0
1.3681043793039637e7 -1.1517641398746423e7 0.0
0.0 0.0 0.0

-5.297647653163455e6 9.062499370906256e6 0.0
9.062499370906256e6 3.6817814467016654e6 0.0
0.0 0.0 0.0

-2.820911632880207e6 2.7138714401466537e7 0.0
2.7138714401466537e7 -3.5995021679774653e6 0.0
0.0 0.0 0.0

5.146888939977745e6 4.468148687194461e6 0.0
4.468148687194461e6 -3.0354752251833018e7 0.0
0.0 0.0 0.0

5.183324955648696e7 2.1269065716444615e7 0.0
2.1269065716444615e7 7.841723356176866e6 0.0
0.0 0.0 0.0

1.940249378222388e7 2.4754858112278245e7 0.0
2.4754858112278245e7 -2.121423356473745e7 0.0
0.0 0.0 0.0

-3.3676431192628946e6 1.5549475446356282e7 0.0
1.5549475446356282e7 1.0186134377531458e7 0.0
0.0 0.0 0.0

-403815.7996602282 1.3868515529581001e7 0.0
1.3868515529581001e7 6.472177033483167e6 0.0
0.0 0.0 0.0

-1.592721129329696e7 1.8332544402797192e7 0.0
1.8332544402797192e7 3.0417350570193864e6 0.0
0.0 0.0 0.0

-4.2106490595077895e7 2.0104839333505396e7 0.0
2.0104839333505396e7 6.599303705991404e6 0.0
0.0 0.0 0.0

-6.3952656942645665e6 9.411311208835712e6 0.0
9.411311208835712e6 7.934436333340777e6 0.0
0.0 0.0 0.0

-2.9902694822910307e6 1.9050059591788925e7 0.0
1.9050059591788925e7 -198939.4995876907 0.0
0.0 0.0 0.0

1.237717298395113e6 1.2636489464224957e7 0.0
1.2636489464224957e7 -1.2403732756790914e7 0.0
0.0 0.0 0.0

4.393528542452311e6 6.958041681033676e6 0.0
6.958041681033676e6 -2.8143317174828812e7 0.0
0.0 0.0 0.0

746288.6760834688 1.279732339165242e7 0.0
1.279732339165242e7 -1.2655505585591786e7 0.0
0.0 0.0 0.0

505833.0813210234 1.1732650366674753e7 0.0
1.1732650366674753e7 -2.2281729748180147e7 0.0
0.0 0.0 0.0

-1.1048359150006596e7 9.79709542884854e6 0.0
9.79709542884854e6 1.353758183673477e7 0.0
0.0 0.0 0.0

-2.643908575709264e6 1.5591069570226945e7 0.0
1.5591069570226945e7 1.258362605569786e7 0.0
0.0 0.0 0.0

-1.0021803011739824e6 1.2425695578206252e7 0.0
1.2425695578206252e7 3.9974437443871303e6 0.0
0.0 0.0 0.0

-7.4925439725897815e6 2.7563701923946263e6 0.0
2.7563701923946263e6 4.982065934963677e6 0.0
0.0 0.0 0.0

-1.2094129810717544e7 880654.2995115842 0.0
880654.2995115842 2.5297361905277703e7 0.0
0.0 0.0 0.0

-4.682515303086799e6 1.9406093773627874e7 0.0
1.9406093773627874e7 5.507528562098056e6 0.0
0.0 0.0 0.0

-3.971986030254878e6 1.5933162969721077e7 0.0
1.5933162969721077e7 1.4760447729564216e7 0.0
0.0 0.0 0.0

-6.905299262197714e6 1.3664186571435954e7 0.0
1.3664186571435954e7 1.0489857086265087e7 0.0
0.0 0.0 0.0

-1.284603850532178e6 3.995096471249218e6 0.0
3.995096471249218e6 -665863.1731112332 0.0
0.0 0.0 0.0

-9.417667845495066e6 9.603030712896157e6 0.0
9.603030712896157e6 4.213522845720876e7 0.0
0.0 0.0 0.0

-3.9244191636117743e6 1.5579402803108515e7 0.0
1.5579402803108515e7 1.7580704833087677e6 0.0
0.0 0.0 0.0

-2.638719457902304e6 1.8808977414658055e7 0.0
1.8808977414658055e7 -2.9950156842595506e6 0.0
0.0 0.0 0.0

-4.0299399009748064e6 1.5651030698135879e7 0.0
1.5651030698135879e7 1.4896110254308809e7 0.0
0.0 0.0 0.0

-4.834279661807407e6 9.146348373260802e6 0.0
9.146348373260802e6 5.341108003638366e6 0.0
0.0 0.0 0.0

956269.1638133135 1.8695067989719886e7 0.0
1.8695067989719886e7 -4.7517297000870565e6 0.0
0.0 0.0 0.0

-9.000740677962834e6 2.429173741045428e6 0.0
2.429173741045428e6 4.773570209897585e7 0.0
0.0 0.0 0.0

1.9255421776484493e6 1.72070996199988e7 0.0
1.72070996199988e7 -5.129574406408e6 0.0
0.0 0.0 0.0

-3.8414603821540787e6 2.190676040731346e7 0.0
2.190676040731346e7 3.632495434881471e6 0.0
0.0 0.0 0.0

-2.0166048942616503e6 1.238876860581747e7 0.0
1.238876860581747e7 -1.3930030837787217e7 0.0
0.0 0.0 0.0

-5.903303396369662e6 1.572007329024545e7 0.0
1.572007329024545e7 1.156787727580455e7 0.0
0.0 0.0 0.0

-1.2938914270910319e7 8.235848410993836e6 0.0
8.235848410993836e6 1.9586201896643385e7 0.0
0.0 0.0 0.0

-1.5582054407357334e6 2.0851599460653074e7 0.0
2.0851599460653074e7 -1.5019661254191152e6 0.0
0.0 0.0 0.0

2.862760401985078e6 5.564906379628105e6 0.0
5.564906379628105e6 -8.163531884453014e6 0.0
0.0 0.0 0.0

-4.554588584767724e6 2.5707991745204467e7 0.0
2.5707991745204467e7 623767.9822927227 0.0
0.0 0.0 0.0

803371.2636707134 1.5233430341002913e7 0.0
1.5233430341002913e7 4.443682570704318e6 0.0
0.0 0.0 0.0

-2.7105066558926874e6 1.7672766265891645e7 0.0
1.7672766265891645e7 -1.7830263330875272e6 0.0
0.0 0.0 0.0

4.705935243111411e6 5.581746145239039e6 0.0
5.581746145239039e6 -2.233906875779011e7 0.0
0.0 0.0 0.0

-689836.9240362656 1.6070084539810821e7 0.0
1.6070084539810821e7 -5.372038753592512e6 0.0
0.0 0.0 0.0

-76036.97434617113 1.711574760127498e7 0.0
1.711574760127498e7 1.1193317487493267e7 0.0
0.0 0.0 0.0

-3.6396065364409136e6 2.0624339679311723e7 0.0
2.0624339679311723e7 2.5638580870807655e6 0.0
0.0 0.0 0.0

165701.14102755673 1.5934452988994172e7 0.0
1.5934452988994172e7 1.3635697452486547e7 0.0
0.0 0.0 0.0

-292901.33836527367 3.575735537369846e6 0.0
3.575735537369846e6 -25714.75695818945 0.0
0.0 0.0 0.0

-5.981460602204787e6 1.502028430070978e7 0.0
1.502028430070978e7 1.8730285805463523e7 0.0
0.0 0.0 0.0

-5.162804443094109e6 1.7678277039669655e7 0.0
1.7678277039669655e7 3.597365064749774e6 0.0
0.0 0.0 0.0

1.7476697942483411e6 1.784805242557928e7 0.0
1.784805242557928e7 -5.07676787464916e6 0.0
0.0 0.0 0.0

-810954.113110116 1.711743017770027e7 0.0
1.711743017770027e7 -6.218319652374055e6 0.0
0.0 0.0 0.0

13828.781908906763 2.176181237900603e7 0.0
2.176181237900603e7 -2.7956864091815543e6 0.0
0.0 0.0 0.0

-602660.8443631729 1.1519701309904901e7 0.0
1.1519701309904901e7 2.253857767860513e6 0.0
0.0 0.0 0.0

-5.159426372730484e6 1.8115169196962968e7 0.0
1.8115169196962968e7 8.33446232555569e6 0.0
0.0 0.0 0.0

-2.0414131235336936e6 2.2412708178727765e7 0.0
2.2412708178727765e7 -1.4227556624994383e6 0.0
0.0 0.0 0.0

-2.744536669647515e6 1.3741046736782778e7 0.0
1.3741046736782778e7 -2.560562471096498e7 0.0
0.0 0.0 0.0

-5.8718151317984015e6 7.3238654631098835e6 0.0
7.3238654631098835e6 4.861207539733002e6 0.0
0.0 0.0 0.0

-1.287186055797459e6 1.319390877080937e7 0.0
1.319390877080937e7 5.432770610303323e6 0.0
0.0 0.0 0.0

-1.7802440460812575e6 2.1412172794203524e7 0.0
2.1412172794203524e7 -2.134491383542887e6 0.0
0.0 0.0 0.0

64035.103166512214 1.397339517324667e7 0.0
1.397339517324667e7 -1.1891497558883864e7 0.0
0.0 0.0 0.0

5.00859768562182e6 4.592538781061476e6 0.0
4.592538781061476e6 -1.6501322350322492e7 0.0
0.0 0.0 0.0

-9.529457555030959e6 -2.1850454878905984e6 0.0
-2.1850454878905984e6 4.373829037201329e7 0.0
0.0 0.0 0.0

2.388135983439478e6 1.0987451829156984e7 0.0
1.0987451829156984e7 -1.8005376997498676e7 0.0
0.0 0.0 0.0

-1.5675723125248975e6 1.464857322804817e7 0.0
1.464857322804817e7 8.065905912160376e6 0.0
0.0 0.0 0.0

-9.563953942766e6 1.047116107433377e7 0.0
1.047116107433377e7 1.455633118577284e7 0.0
0.0 0.0 0.0

1.805575704544033e6 1.7783240594540063e7 0.0
1.7783240594540063e7 -4.95357994198139e6 0.0
0.0 0.0 0.0

3.8607403704941887e6 6.026520295963686e6 0.0
6.026520295963686e6 -1.4334356846985718e7 0.0
0.0 0.0 0.0

1.7598219930539553e6 1.4899981830981908e7 0.0
1.4899981830981908e7 -3.811489331047631e6 0.0
0.0 0.0 0.0

206193.0793766803 1.7176807942055628e7 0.0
1.7176807942055628e7 9.78457151960512e6 0.0
0.0 0.0 0.0

52277.71824316215 2.6705750555234145e7 0.0
2.6705750555234145e7 -6.516329103940328e6 0.0
0.0 0.0 0.0

-121626.88153246231 1.6789251165804595e7 0.0
1.6789251165804595e7 -6.580510275738469e6 0.0
0.0 0.0 0.0

-4.0435124755630046e6 1.4618230003046418e7 0.0
1.4618230003046418e7 2.5425168681942895e7 0.0
0.0 0.0 0.0

5.572548955673168e6 3.546891593633296e6 0.0
3.546891593633296e6 -2.0100920529785182e7 0.0
0.0 0.0 0.0

-2.9838887968354854e6 2.1886851941031683e7 0.0
2.1886851941031683e7 393191.9111009296 0.0
0.0 0.0 0.0

2.2882771376563357e6 1.4028686439288154e7 0.0
1.4028686439288154e7 1.3420842879279829e6 0.0
0.0 0.0 0.0

-4.668166569363314e7 1.2279209926696807e7 0.0
1.2279209926696807e7 8.321472597626466e6 0.0
0.0 0.0 0.0

-5.908976013924025e6 1.936241261815639e7 0.0
1.936241261815639e7 6.924380405039652e6 0.0
0.0 0.0 0.0

-4.7990810595328035e6 6.963186747729514e6 0.0
6.963186747729514e6 5.417957689575451e6 0.0
0.0 0.0 0.0

1.082965924150628e6 1.2829109584452948e7 0.0
1.2829109584452948e7 -1.5928930008395325e7 0.0
0.0 0.0 0.0

-3.546351602296701e6 1.5367993981489768e7 0.0
1.5367993981489768e7 9.135895846720653e6 0.0
0.0 0.0 0.0

-254105.16230055038 1.2716081579812555e7 0.0
1.2716081579812555e7 -1.9885492988129985e7 0.0
0.0 0.0 0.0

5.723550704565944e6 3.7484663626068514e6 0.0
3.7484663626068514e6 -2.521884286555054e7 0.0
0.0 0.0 0.0

2.930099250782512e7 1.3365159946278669e7 0.0
1.3365159946278669e7 859703.6467256714 0.0
0.0 0.0 0.0

-8.272718604414253e7 3.3496414208406202e7 0.0
3.3496414208406202e7 -5.539394158415884e6 0.0
0.0 0.0 0.0

4.340707691906517e6 1.626651542210179e7 0.0
1.626651542210179e7 6.673357732018859e6 0.0
0.0 0.0 0.0

-2.0008117660765778e6 1.7300873655040547e7 0.0
1.7300873655040547e7 -5.474122024292187e6 0.0
0.0 0.0 0.0

-5.113583972254796e6 1.6478835191123717e7 0.0
1.6478835191123717e7 9.691189357362712e6 0.0
0.0 0.0 0.0

4.831734422192125e6 4.618973383951202e6 0.0
4.618973383951202e6 -1.6211696888554912e7 0.0
0.0 0.0 0.0

-5.627781413558205e6 1.7805045409791123e7 0.0
1.7805045409791123e7 5.107316777217526e6 0.0
0.0 0.0 0.0

-2.167530632858148e6 2.238179846021328e7 0.0
2.238179846021328e7 583849.9486690712 0.0
0.0 0.0 0.0

-649234.4692717213 1.3224889135531466e7 0.0
1.3224889135531466e7 -1.6064423035347823e7 0.0
0.0 0.0 0.0

-2.961606453091099e6 1.740717804808015e7 0.0
1.740717804808015e7 -2.762826161920932e6 0.0
0.0 0.0 0.0

2.180082440188392e6 5.5515095494714e6 0.0
5.5515095494714e6 -6.318389867992101e6 0.0
0.0 0.0 0.0

1.9448362360949214e6 1.683929595742823e7 0.0
1.683929595742823e7 1.0030467174332067e7 0.0
0.0 0.0 0.0

-5.564001092270722e6 1.7223550547533546e7 0.0
1.7223550547533546e7 -970626.9596745931 0.0
0.0 0.0 0.0

-154589.73003226984 1.4650119516098972e7 0.0
1.4650119516098972e7 -8.861935992078375e6 0.0
0.0 0.0 0.0

-4.423558918342597e6 1.804723315107784e7 0.0
1.804723315107784e7 1.6102983524058901e6 0.0
0.0 0.0 0.0

1.9635680481749158e6 1.1128569928376233e7 0.0
1.1128569928376233e7 -1.7332538706716564e7 0.0
0.0 0.0 0.0

-1.0337871413264506e7 -2.208579696079471e6 0.0
-2.208579696079471e6 3.425108914593439e7 0.0
0.0 0.0 0.0

466009.58069407847 1.3148530368017951e7 0.0
1.3148530368017951e7 -1.184978670246885e7 0.0
0.0 0.0 0.0

1.9710137007710491e6 1.3927922138869837e7 0.0
1.3927922138869837e7 -1.7844323156128458e6 0.0
0.0 0.0 0.0

-7.124736876578167e6 1.6295528203071205e7 0.0
1.6295528203071205e7 -3.190623609366395e7 0.0
0.0 0.0 0.0

4.453527085822129e6 6.424477922427193e6 0.0
6.424477922427193e6 -1.6084838513559068e7 0.0
0.0 0.0 0.0

562433.5835285694 1.4106799188519122e7 0.0
1.4106799188519122e7 -1.1790602191518305e7 0.0
0.0 0.0 0.0

-5.336849262750108e6 1.8922978740059294e7 0.0
1.8922978740059294e7 7.417283801071502e6 0.0
0.0 0.0 0.0

-3.452085814204824e6 2.004299281983492e7 0.0
2.004299281983492e7 121191.83298654296 0.0
0.0 0.0 0.0

-5.263206163299754e6 1.7475816148567367e7 0.0
1.7475816148567367e7 7.916398240894189e6 0.0
0.0 0.0 0.0

1.273659953606849e6 1.487211936742384e7 0.0
1.487211936742384e7 4.933366701515387e6 0.0
0.0 0.0 0.0

-5.7289726552284725e7 1.7037984131186593e7 0.0
1.7037984131186593e7 6.459557996743668e6 0.0
0.0 0.0 0.0

952098.5844739145 3.1433958980266238e6 0.0
3.1433958980266238e6 -3.321540220697123e6 0.0
0.0 0.0 0.0

-423233.6880676305 1.154040571217671e7 0.0
1.154040571217671e7 -2.0280268604506603e6 0.0
0.0 0.0 0.0

5.782990594371861e6 1.4676464826746495e7 0.0
1.4676464826746495e7 -988063.9503915103 0.0
0.0 0.0 0.0

-3.53356321200178e6 2.3382398574391384e7 0.0
2.3382398574391384e7 3.1619572370249825e6 0.0
0.0 0.0 0.0

537816.3233922292 1.193734278252302e7 0.0
1.193734278252302e7 -2.3485837450253733e7 0.0
0.0 0.0 0.0

-1.0426144169141604e6 1.589921345981807e7 0.0
1.589921345981807e7 -4.267585022056376e6 0.0
0.0 0.0 0.0

-337279.15866024885 1.770115035985368e7 0.0
1.770115035985368e7 -5.554818583654499e6 0.0
0.0 0.0 0.0

1.137212323147539e6 1.220760990834824e7 0.0
1.220760990834824e7 -1.0265047369282415e7 0.0
0.0 0.0 0.0

-61454.1840724831 1.7216724583443943e7 0.0
1.7216724583443943e7 -5.890892668592792e6 0.0
0.0 0.0 0.0

-673587.3330055757 1.477719719336314e7 0.0
1.477719719336314e7 4.373523979384696e6 0.0
0.0 0.0 0.0

-3.0207182083742674e6 1.9906312802094948e7 0.0
1.9906312802094948e7 295471.63997168036 0.0
0.0 0.0 0.0

3.6386540355956433e6 8.304918710793248e6 0.0
8.304918710793248e6 -1.5709847406870395e7 0.0
0.0 0.0 0.0

5.375858292836979e6 4.0602988374480843e6 0.0
4.0602988374480843e6 -2.2426216959939167e7 0.0
0.0 0.0 0.0

-1.5528753025294545e6 441546.18863307993 0.0
441546.18863307993 -599978.7394198661 0.0
0.0 0.0 0.0

-6.788801441872381e6 88032.25488931549 0.0
88032.25488931549 1.9694274127886058e6 0.0
0.0 0.0 0.0

-1.0813862275729813e6 1.546991485820451e7 0.0
1.546991485820451e7 9.932618346529797e6 0.0
0.0 0.0 0.0

-181288.80559632182 1.4279324901990648e7 0.0
1.4279324901990648e7 5.310755384400873e6 0.0
0.0 0.0 0.0

-1.1756168437451809e6 1.4736885797087358e7 0.0
1.4736885797087358e7 4.466105897332858e6 0.0
0.0 0.0 0.0

3.283268959425508e6 5.319965643577809e6 0.0
5.319965643577809e6 -1.1480293868390866e7 0.0
0.0 0.0 0.0

776042.8525559618 1.6224252075020092e7 0.0
1.6224252075020092e7 -6.210624805020216e6 0.0
0.0 0.0 0.0

2.4150776891237763e6 4.83787043015963e6 0.0
4.83787043015963e6 -6.966385455615344e6 0.0
0.0 0.0 0.0

-310040.34230305953 1.722140145768379e7 0.0
1.722140145768379e7 -6.050187670725714e6 0.0
0.0 0.0 0.0

-1.1928474151256774e7 1.1963272712096278e7 0.0
1.1963272712096278e7 1.8946214347137153e7 0.0
0.0 0.0 0.0

-2.2306989022519113e6 1.9176873051135212e7 0.0
1.9176873051135212e7 -1.981949022263744e6 0.0
0.0 0.0 0.0

-1.3022507674829322e6 2.1753226279556546e7 0.0
2.1753226279556546e7 -834221.8407761029 0.0
0.0 0.0 0.0

3.932197440259168e6 6.833953264609235e6 0.0
6.833953264609235e6 -1.6709969454446893e7 0.0
0.0 0.0 0.0

4.20274735648462e6 6.0624704701687535e6 0.0
6.0624704701687535e6 -1.70282957826031e7 0.0
0.0 0.0 0.0

6.938653300927972e6 1.5679534377891142e7 0.0
1.5679534377891142e7 -3.9075928691136735e6 0.0
0.0 0.0 0.0

-2.437853284170364e6 1.6016985443292646e7 0.0
1.6016985443292646e7 1.2827167665519064e7 0.0
0.0 0.0 0.0

126434.02867293637 1.353273211657876e7 0.0
1.353273211657876e7 -1.109654685810053e7 0.0
0.0 0.0 0.0

-8.933653254278073e6 -6.613124697748052e6 0.0
-6.613124697748052e6 2.5290693034817383e7 0.0
0.0 0.0 0.0

-3.460333925238934e6 2.2575833589789983e7 0.0
2.2575833589789983e7 2.8805027540778695e6 0.0
0.0 0.0 0.0

-1.2360528772812461e7 9.90914743389734e6 0.0
9.90914743389734e6 1.7989474342291906e7 0.0
0.0 0.0 0.0

-5.270249619202251e6 -619475.4612833722 0.0
-619475.4612833722 5.407640599166634e6 0.0
0.0 0.0 0.0

-283290.454655051 1.3386954962408409e7 0.0
1.3386954962408409e7 -6.887628074804703e6 0.0
0.0 0.0 0.0

5.408117539733664e6 4.1150554570404165e6 0.0
4.1150554570404165e6 -2.1704275088588145e7 0.0
0.0 0.0 0.0

-4.900006516940613e6 2.124494368783967e7 0.0
2.124494368783967e7 5.598131438515984e6 0.0
0.0 0.0 0.0

-2.340335900634569e6 1.7297624044092428e7 0.0
1.7297624044092428e7 -2.552454507244414e6 0.0
0.0 0.0 0.0

2.1769418841102635e6 1.0802798593618045e7 0.0
1.0802798593618045e7 -1.8190959953762796e7 0.0
0.0 0.0 0.0

7.568866715807744e6 1.4098174742808813e7 0.0
1.4098174742808813e7 664481.3384399638 0.0
0.0 0.0 0.0

-5.306201157726875e6 2.068719431383372e7 0.0
2.068719431383372e7 6.160778668227947e6 0.0
0.0 0.0 0.0

-9.87472774633396e6 -5.648146382704493e6 0.0
-5.648146382704493e6 2.390019804014267e7 0.0
0.0 0.0 0.0

-6.568648660264341e6 -8.511553482478775e6 0.0
-8.511553482478775e6 1.534655368661185e7 0.0
0.0 0.0 0.0

2.6464431121152868e6 1.4188385858538978e7 0.0
1.4188385858538978e7 -1.6220930281370976e6 0.0
0.0 0.0 0.0

-1.538652560873385e6 1.720866989734509e7 0.0
1.720866989734509e7 -5.320865062884733e6 0.0
0.0 0.0 0.0

-1.5369563732010582e6 1.7583256816308703e7 0.0
1.7583256816308703e7 -5.007877447091553e6 0.0
0.0 0.0 0.0

-1.0055871122470984e7 3.8122955262583187e6 0.0
3.8122955262583187e6 3.8229993246497385e7 0.0
0.0 0.0 0.0

3.5140987151928055e6 3.995116537698388e6 0.0
3.995116537698388e6 -9.359471128823105e6 0.0
0.0 0.0 0.0

-3.5863826183032347e6 1.7151914920493636e7 0.0
1.7151914920493636e7 -1.2406428083535999e6 0.0
0.0 0.0 0.0

-6.2186233165144175e6 1.7597704024138674e7 0.0
1.7597704024138674e7 -3.532674305594023e6 0.0
0.0 0.0 0.0

-2.0612487053586017e7 2.0516688250207778e7 0.0
2.0516688250207778e7 5.075715319244039e6 0.0
0.0 0.0 0.0

-2.858168779664349e6 2.2687913295129426e7 0.0
2.2687913295129426e7 1.74241826099044e6 0.0
0.0 0.0 0.0

34423.1558932983 1.365973059048161e7 0.0
1.365973059048161e7 -376300.7709235899 0.0
0.0 0.0 0.0

-9.981565257510113e6 -4.762969473504182e6 0.0
-4.762969473504182e6 2.5757475939784236e7 0.0
0.0 0.0 0.0

5.785457243425646e6 1.5504219102956582e7 0.0
1.5504219102956582e7 -3.336229555516351e6 0.0
0.0 0.0 0.0

-560997.8853076771 1.455242475518449e7 0.0
1.455242475518449e7 -7.159574993584463e6 0.0
0.0 0.0 0.0

-8.988777209722396e6 -4.216909855631003e6 0.0
-4.216909855631003e6 1.8408687220014315e7 0.0
0.0 0.0 0.0

-5.629942095369704e6 1.775550132155816e7 0.0
1.775550132155816e7 7.268777045070013e6 0.0
0.0 0.0 0.0

-5.27082932812109e6 1.868530931571179e7 0.0
1.868530931571179e7 6.848960550706191e6 0.0
0.0 0.0 0.0

-760899.6259942766 3.222491564410144e6 0.0
3.222491564410144e6 -832050.3431851747 0.0
0.0 0.0 0.0

4.471510802294957e6 5.554219819510779e6 0.0
5.554219819510779e6 -1.7596810925992172e7 0.0
0.0 0.0 0.0

3.411671908938341e6 7.665271628069044e6 0.0
7.665271628069044e6 -2.9115268621305726e7 0.0
0.0 0.0 0.0

153346.58495204896 1.6427010093469093e7 0.0
1.6427010093469093e7 9.894779335368795e6 0.0
0.0 0.0 0.0

2.8617239021393047e6 4.9223916298638405e6 0.0
4.9223916298638405e6 -8.594317937006593e6 0.0
0.0 0.0 0.0

7.337709719451811e6 2.0708115230768394e7 0.0
2.0708115230768394e7 -9.266470999580828e6 0.0
0.0 0.0 0.0

5.026737737561956e6 5.10905598327898e6 0.0
5.10905598327898e6 -1.6812441770221017e7 0.0
0.0 0.0 0.0

4.25967251487103e6 5.480093129688404e6 0.0
5.480093129688404e6 -1.2426606403681487e7 0.0
0.0 0.0 0.0

4.373061111848597e6 5.3925899091776265e6 0.0
5.3925899091776265e6 -1.5260378605696503e7 0.0
0.0 0.0 0.0

126880.15814726548 1.4311030437139746e7 0.0
1.4311030437139746e7 673771.7796077501 0.0
0.0 0.0 0.0

-170757.20209212764 1.4065843217149554e7 0.0
1.4065843217149554e7 3.9880759216204286e6 0.0
0.0 0.0 0.0

1.4872442876695609e6 1.2222551649871884e7 0.0
1.2222551649871884e7 -1.6642329934916563e7 0.0
0.0 0.0 0.0

5.664862043712424e6 2.193707813292219e7 0.0
2.193707813292219e7 -7.724244907329641e6 0.0
0.0 0.0 0.0

-8.570516517871417e6 -6.068373250640163e6 0.0
-6.068373250640163e6 1.745959516859777e7 0.0
0.0 0.0 0.0

-5.345933269675817e6 1.7955177426348105e7 0.0
1.7955177426348105e7 8.411094193141418e6 0.0
0.0 0.0 0.0

-3.916799594491098e6 2.2364519889473494e7 0.0
2.2364519889473494e7 2.5372940044283373e6 0.0
0.0 0.0 0.0

-2.4524984945546966e6 1.926852444902771e7 0.0
1.926852444902771e7 -1.4644332613767185e6 0.0
0.0 0.0 0.0

-5.630914819877743e6 -2.7291052673649965e6 0.0
-2.7291052673649965e6 8.78264008031734e6 0.0
0.0 0.0 0.0

-6.237710134743875e6 581074.8180871881 0.0
581074.8180871881 6.65320515381092e6 0.0
0.0 0.0 0.0

-928565.3576383684 1.5934296377646282e7 0.0
1.5934296377646282e7 1.1589038477344366e7 0.0
0.0 0.0 0.0

432698.06720503676 2.675365521058059e6 0.0
2.675365521058059e6 -1.9768001487255055e6 0.0
0.0 0.0 0.0

956888.436056731 1.807496877937957e7 0.0
1.807496877937957e7 -4.946890469269911e6 0.0
0.0 0.0 0.0

-1.5849720757665322e6 1.6499989680596368e7 0.0
1.6499989680596368e7 -6.71566068986189e6 0.0
0.0 0.0 0.0

650612.9041447658 1.397811168061085e7 0.0
1.397811168061085e7 -1.255993588486604e7 0.0
0.0 0.0 0.0

-3.546302056935113e6 1.6762531020634275e7 0.0
1.6762531020634275e7 907452.3435008456 0.0
0.0 0.0 0.0

-5.917012299246142e6 1.7201555137557257e7 0.0
1.7201555137557257e7 7.486505133620279e6 0.0
0.0 0.0 0.0

-1.1020525481657427e7 9.920834297992136e6 0.0
9.920834297992136e6 1.6029677067619788e7 0.0
0.0 0.0 0.0

-1.7441893841029573e7 2.7102410164573714e7 0.0
2.7102410164573714e7 8.036819899832919e6 0.0
0.0 0.0 0.0

3.03521845125835e6 4.867507325068319e6 0.0
4.867507325068319e6 -8.802190945634073e6 0.0
0.0 0.0 0.0

449520.5338297421 1.3750968722243138e7 0.0
1.3750968722243138e7 -1.017935527393762e7 0.0
0.0 0.0 0.0

5.275616806831017e6 4.5167147341107195e6 0.0
4.5167147341107195e6 -3.0461484276361246e7 0.0
0.0 0.0 0.0

-896010.6675527131 1.761614710063924e7 0.0
1.761614710063924e7 -5.67066879676775e6 0.0
0.0 0.0 0.0

-6.403975526290059e6 8.916996594863363e6 0.0
8.916996594863363e6 6.012566306008258e6 0.0
0.0 0.0 0.0

-3.7895294398901286e6 1.3187393733261794e7 0.0
1.3187393733261794e7 -1.8790030980328757e7 0.0
0.0 0.0 0.0

1.575572948585802e7 1.5619103124558475e7 0.0
1.5619103124558475e7 3.4044239247644413e6 0.0
0.0 0.0 0.0

-5.386988431394201e6 2.468385912612691e6 0.0
2.468385912612691e6 7.762511761832606e6 0.0
0.0 0.0 0.0

2.0667218411767299e6 1.6663923986517934e7 0.0
1.6663923986517934e7 8.653779798851198e6 0.0
0.0 0.0 0.0

1.7830039246170744e6 1.352211854434117e7 0.0
1.352211854434117e7 1.3941292392666075e7 0.0
0.0 0.0 0.0

-4.1792937541483026e6 1.2813180362887658e7 0.0
1.2813180362887658e7 -8.652618930049362e6 0.0
0.0 0.0 0.0

-2.1692702722612917e6 2.3610682631074425e7 0.0
2.3610682631074425e7 -1.1691130760322518e6 0.0
0.0 0.0 0.0

-2.501958198273789e6 1.7284720214917973e7 0.0
1.7284720214917973e7 -4.20702482459652e6 0.0
0.0 0.0 0.0

-7.695252700655049e6 1.3212156855548274e7 0.0
1.3212156855548274e7 1.20821051368405e7 0.0
0.0 0.0 0.0

2.9554562056545056e6 7.86656575038391e6 0.0
7.86656575038391e6 -3.9844889750413254e7 0.0
0.0 0.0 0.0

-6.157646557663649e6 1.71717078157415e6 0.0
1.71717078157415e6 6.726134868811019e6 0.0
0.0 0.0 0.0

-447360.2003078712 1.4621518464422753e7 0.0
1.4621518464422753e7 -4.852216275370861e6 0.0
0.0 0.0 0.0

2.6039684802474324e6 1.5608807725347498e7 0.0
1.5608807725347498e7 6.380911782753666e6 0.0
0.0 0.0 0.0

-4.288540898435917e6 1.0218811039503716e7 0.0
1.0218811039503716e7 6.39123711926348e6 0.0
0.0 0.0 0.0

-5.689674681946738e6 1.6505338410866495e7 0.0
1.6505338410866495e7 1.0207438700819472e7 0.0
0.0 0.0 0.0

-4.504302875135761e6 1.9728972191841826e7 0.0
1.9728972191841826e7 4.941322358118218e6 0.0
0.0 0.0 0.0

-1.6387824791176213e7 2.7531299523254197e7 0.0
2.7531299523254197e7 8.718955446433406e6 0.0
0.0 0.0 0.0

1.3458401403037182e6 6.955882057083618e6 0.0
6.955882057083618e6 -5.627980728946922e6 0.0
0.0 0.0 0.0

-4.963273747229615e6 1.9503506540521108e7 0.0
1.9503506540521108e7 4.602548943735824e6 0.0
0.0 0.0 0.0

-2.0122202705108933e6 1.666505067356151e7 0.0
1.666505067356151e7 -4.388748865075745e6 0.0
0.0 0.0 0.0

5.213301531616047e6 1.6798862589612495e7 0.0
1.6798862589612495e7 9.2080876114625e6 0.0
0.0 0.0 0.0

-2.8233799840692715e6 1.858315755116152e7 0.0
1.858315755116152e7 -2.6708834679140327e6 0.0
0.0 0.0 0.0

2.4326225943924747e6 4.869089035495549e6 0.0
4.869089035495549e6 -7.5775087559476495e6 0.0
0.0 0.0 0.0

-684854.9941179669 1.4784532620792212e7 0.0
1.4784532620792212e7 -9.05571315120736e6 0.0
0.0 0.0 0.0

-9.162192203415189e6 -342769.2243996524 0.0
-342769.2243996524 1.3950426151940659e7 0.0
0.0 0.0 0.0

4.721582981452861e6 5.946273987541118e6 0.0
5.946273987541118e6 -1.6560064760146031e7 0.0
0.0 0.0 0.0

5.1649967020772435e6 5.077543600473962e6 0.0
5.077543600473962e6 -3.2769726649960246e7 0.0
0.0 0.0 0.0

-1.4570078421245846e6 1.5829273608870592e7 0.0
1.5829273608870592e7 9.168203504266901e6 0.0
0.0 0.0 0.0

233986.27447810117 1.4587883511939023e7 0.0
1.4587883511939023e7 -1.1212349911150739e7 0.0
0.0 0.0 0.0

-8.0672336423123e6 1.3475234026730925e7 0.0
1.3475234026730925e7 1.0479957279146533e7 0.0
0.0 0.0 0.0

4.885751612835951e6 3.94551623394327e6 0.0
3.94551623394327e6 -1.4980005740383506e7 0.0
0.0 0.0 0.0

1.564701477027608e6 1.2318186223627474e7 0.0
1.2318186223627474e7 -1.3057043341022596e7 0.0
0.0 0.0 0.0

344212.6738179792 1.3556877082770031e7 0.0
1.3556877082770031e7 -1.325970368875592e7 0.0
0.0 0.0 0.0

-7.666604486645968e6 1.4399073532295913e7 0.0
1.4399073532295913e7 1.0181658845682394e7 0.0
0.0 0.0 0.0

-4.5239160049268585e6 4.454885364312753e6 0.0
4.454885364312753e6 4.315247979798489e6 0.0
0.0 0.0 0.0

-7.740573830765695e6 -3.2907574266980942e6 0.0
-3.2907574266980942e6 1.351184249859143e7 0.0
0.0 0.0 0.0

7278.31405396061 1.4228860591138426e7 0.0
1.4228860591138426e7 -1.1597777715074994e7 0.0
0.0 0.0 0.0

-5.321826322813708e6 8.079618919952193e6 0.0
8.079618919952193e6 6.270050761813207e6 0.0
0.0 0.0 0.0

4.697099463703755e6 1.6027748244168403e7 0.0
1.6027748244168403e7 9.02039946235901e6 0.0
0.0 0.0 0.0

-1.7823093667873421e6 1.688288588670265e7 0.0
1.688288588670265e7 -6.21471449493952e6 0.0
0.0 0.0 0.0

2.5354593363593896e6 4.868887205007664e6 0.0
4.868887205007664e6 -7.059841712140771e6 0.0
0.0 0.0 0.0

-1.1129907064938841e7 2.0939599475179967e6 0.0
2.0939599475179967e6 2.6667886962130774e7 0.0
0.0 0.0 0.0

-4.004275366141808e6 2.0770368629983056e7 0.0
2.0770368629983056e7 2.3332839244387103e6 0.0
0.0 0.0 0.0

-7.646652918301158e6 2.212864693108322e7 0.0
2.212864693108322e7 6.40316860389531e6 0.0
0.0 0.0 0.0

-7.283428892036741e6 2.8749259665661757e6 0.0
2.8749259665661757e6 7.494478760641978e6 0.0
0.0 0.0 0.0

-1.0026967137727918e7 -2.7252982887165397e6 0.0
-2.7252982887165397e6 2.0208356004733704e7 0.0
0.0 0.0 0.0

1.8973854021801688e6 1.1198067954545626e7 0.0
1.1198067954545626e7 -1.83116790794853e7 0.0
0.0 0.0 0.0

-6.8251089511124175e6 1.4869591091171488e7 0.0
1.4869591091171488e7 1.0949744902203877e7 0.0
0.0 0.0 0.0

-1.1651290069930471e7 3.3468308620557967e6 0.0
3.3468308620557967e6 2.7049330999021493e7 0.0
0.0 0.0 0.0

-4.4379705595898174e7 1.3292244203028876e7 0.0
1.3292244203028876e7 9.902864063010575e6 0.0
0.0 0.0 0.0

1.5844647405053475e6 1.062352580434698e7 0.0
1.062352580434698e7 -1.1755571537905056e7 0.0
0.0 0.0 0.0

193457.04054593312 1.4146745585192014e7 0.0
1.4146745585192014e7 -630985.3673082949 0.0
0.0 0.0 0.0

5.628495261542443e6 3.4402240921105063e6 0.0
3.4402240921105063e6 -2.1191948539863758e7 0.0
0.0 0.0 0.0

-3.607575650852559e6 1.5863588289767653e7 0.0
1.5863588289767653e7 1.2227280782828353e7 0.0
0.0 0.0 0.0

-1.2424917521067392e7 3.3250055615304722e6 0.0
3.3250055615304722e6 2.4467625374825433e7 0.0
0.0 0.0 0.0

1.529108911300193e6 6.256698827698323e6 0.0
6.256698827698323e6 -6.83095405305535e6 0.0
0.0 0.0 0.0

-1.9250725548352948e6 1.671621730573092e7 0.0
1.671621730573092e7 -4.336161554144392e6 0.0
0.0 0.0 0.0

-4.228674339327013e6 1.871641075567722e7 0.0
1.871641075567722e7 1.4017894953188847e6 0.0
0.0 0.0 0.0

-5.513751447859264e6 1.6619989019963184e7 0.0
1.6619989019963184e7 7.233282387604969e6 0.0
0.0 0.0 0.0

-5.905474534202734e6 2.1660159194467306e7 0.0
2.1660159194467306e7 5.757837285565762e6 0.0
0.0 0.0 0.0

-4.1851316182801053e6 1.5419454138225378e7 0.0
1.5419454138225378e7 502006.621778999 0.0
0.0 0.0 0.0

-1.0609330884282967e7 -3.267487143975439e6 0.0
-3.267487143975439e6 3.0094624273327067e7 0.0
0.0 0.0 0.0

-157109.9390951083 1.5365859967729995e7 0.0
1.5365859967729995e7 9.811418349313656e6 0.0
0.0 0.0 0.0

744201.3422586112 1.3577350469391216e7 0.0
1.3577350469391216e7 -1.1181902516344665e7 0.0
0.0 0.0 0.0

-1.1095250438190192e7 2.0666068978077438e7 0.0
2.0666068978077438e7 2.8589473082407503e6 0.0
0.0 0.0 0.0

-1.736222545975643e6 2.0171980460536394e6 0.0
2.0171980460536394e6 451754.61893020466 0.0
0.0 0.0 0.0

-3.616887135674311e6 2.2096019331727084e7 0.0
2.2096019331727084e7 3.2360711521065254e6 0.0
0.0 0.0 0.0

-15335.009113117238 1.3795538402614607e7 0.0
1.3795538402614607e7 -1.6691323605854742e6 0.0
0.0 0.0 0.0

-1.1861126237117153e7 1.2711259594340334e7 0.0
1.2711259594340334e7 1.7324838462834865e7 0.0
0.0 0.0 0.0

3.133140600690662e6 9.591437577575436e6 0.0
9.591437577575436e6 -1.5137706962725544e7 0.0
0.0 0.0 0.0

-1.128719556930093e7 1.137737369055451e7 0.0
1.137737369055451e7 1.6818619268439915e7 0.0
0.0 0.0 0.0

2.233915428492081e6 4.924337103357815e6 0.0
4.924337103357815e6 -6.771601077185054e6 0.0
0.0 0.0 0.0

4.385905198012275e6 6.7656784342075065e6 0.0
6.7656784342075065e6 -1.6465973544562392e7 0.0
0.0 0.0 0.0

-676967.6795600569 1.6044062049831666e7 0.0
1.6044062049831666e7 -4.721544275042019e6 0.0
0.0 0.0 0.0

-4.219936297360007e6 1.6539638032132044e7 0.0
1.6539638032132044e7 2.1836670366308778e6 0.0
0.0 0.0 0.0

-3.9153482114543975e6 1.886759415256129e7 0.0
1.886759415256129e7 2.379603145396944e6 0.0
0.0 0.0 0.0

-377708.9783938278 1.715442526423154e7 0.0
1.715442526423154e7 -5.959357171033394e6 0.0
0.0 0.0 0.0

4.687413208106086e6 5.534613205683227e6 0.0
5.534613205683227e6 -1.5205411759978013e7 0.0
0.0 0.0 0.0

1.8006735019654941e6 4.848155943048476e6 0.0
4.848155943048476e6 -5.701002149134955e6 0.0
0.0 0.0 0.0

4.0616219702433962e6 6.36743813209742e6 0.0
6.36743813209742e6 -1.73980618930433e7 0.0
0.0 0.0 0.0

2.105424748829677e6 6.228563491875439e6 0.0
6.228563491875439e6 -7.073626681318827e6 0.0
0.0 0.0 0.0

8.54147658818391e6 1.5796217410902528e7 0.0
1.5796217410902528e7 7.228107644199006e6 0.0
0.0 0.0 0.0

-4.430780110450683e6 2.4053271085879814e7 0.0
2.4053271085879814e7 4.2289969851496965e6 0.0
0.0 0.0 0.0

-9.589727431476967e6 -5.671605210466506e6 0.0
-5.671605210466506e6 2.2912561529952165e7 0.0
0.0 0.0 0.0

4.1606775702163e6 7.438348833456831e6 0.0
7.438348833456831e6 -2.672948128468352e7 0.0
0.0 0.0 0.0

-696853.4513429394 1.7612893688874155e7 0.0
1.7612893688874155e7 -5.667374183572077e6 0.0
0.0 0.0 0.0

-789216.9606071501 1.5790145651281802e7 0.0
1.5790145651281802e7 -5.739734372244634e6 0.0
0.0 0.0 0.0

4.0763595201630676e6 6.970732000824444e6 0.0
6.970732000824444e6 -2.1135491416756105e7 0.0
0.0 0.0 0.0

-6.627541271431183e6 2.4217970795247197e7 0.0
2.4217970795247197e7 6.340748500949192e6 0.0
0.0 0.0 0.0

343575.64550438756 1.7062351827887114e7 0.0
1.7062351827887114e7 1.0210523507013537e7 0.0
0.0 0.0 0.0

-3.0717233040389862e7 2.437434255971692e7 0.0
2.437434255971692e7 1.0488475341849176e7 0.0
0.0 0.0 0.0

-5.651792608468283e6 1.5505983145705264e7 0.0
1.5505983145705264e7 1.300180376746811e7 0.0
0.0 0.0 0.0

3.173106184327254e6 8.928603227819318e6 0.0
8.928603227819318e6 -1.5454036504532233e7 0.0
0.0 0.0 0.0

4.015954423762222e7 1.6103051807012556e7 0.0
1.6103051807012556e7 3.481959867925035e6 0.0
0.0 0.0 0.0

-1.3706033572862651e6 1.6378221845444052e7 0.0
1.6378221845444052e7 1.2673446352153739e7 0.0
0.0 0.0 0.0

-1.0014233434966976e7 89731.81030505484 0.0
89731.81030505484 1.5080020470061716e7 0.0
0.0 0.0 0.0

-208739.33580766572 1.441125905500631e7 0.0
1.441125905500631e7 4.26771506266697e6 0.0
0.0 0.0 0.0

-295603.73976282496 1.292628107120423e7 0.0
1.292628107120423e7 -1.560743589441383e7 0.0
0.0 0.0 0.0

2.7212884848265825e6 1.74801637649199e7 0.0
1.74801637649199e7 -5.075920539623477e6 0.0
0.0 0.0 0.0

-5.3696977014924325e6 1.680284081076642e7 0.0
1.680284081076642e7 5.963007199307207e6 0.0
0.0 0.0 0.0

-1.2039157312283264e7 1.780939186494438e6 0.0
1.780939186494438e6 2.3779882746846665e7 0.0
0.0 0.0 0.0

-6.383214707576555e6 2.453813280807433e7 0.0
2.453813280807433e7 5.369627198281548e6 0.0
0.0 0.0 0.0

-5.454423711472811e6 1.7199164237814113e7 0.0
1.7199164237814113e7 3.547393515497846e6 0.0
0.0 0.0 0.0

-4.417735936592218e6 1.8571370312519778e7 0.0
1.8571370312519778e7 1.894052583685098e6 0.0
0.0 0.0 0.0

-1.970954880810252e6 2.0626630368878976e7 0.0
2.0626630368878976e7 -1.4155302849084546e6 0.0
0.0 0.0 0.0

-4.014614534145534e6 2.0402465956158567e7 0.0
2.0402465956158567e7 2.183142164304029e6 0.0
0.0 0.0 0.0

-114004.10599365529 1.4377674380176147e7 0.0
1.4377674380176147e7 -614068.8983030996 0.0
0.0 0.0 0.0

-3.0701953187395367e6 1.5908526216961272e7 0.0
1.5908526216961272e7 1.0602254183519654e7 0.0
0.0 0.0 0.0

1.2497445363320052e6 1.4192283841954123e7 0.0
1.4192283841954123e7 -1.4062350026808176e6 0.0
0.0 0.0 0.0

-3.189384801323999e6 1.3841769160580285e7 0.0
1.3841769160580285e7 -2.3175723001169704e7 0.0
0.0 0.0 0.0

-177466.91521492353 1.4480965717910228e7 0.0
1.4480965717910228e7 586661.6457717097 0.0
0.0 0.0 0.0

-4.389603845967952e6 1.6362952840990003e7 0.0
1.6362952840990003e7 1.1400150837660786e6 0.0
0.0 0.0 0.0

-2.351033690324446e6 1.1922066843140466e7 0.0
1.1922066843140466e7 1.265809006634634e7 0.0
0.0 0.0 0.0

-689995.0602694375 1.5691480327951059e7 0.0
1.5691480327951059e7 -8.017661117679132e6 0.0
0.0 0.0 0.0

1.2671499168793187e6 1.2090621602748098e7 0.0
1.2090621602748098e7 -1.3820432805708712e7 0.0
0.0 0.0 0.0

4.820620385514527e6 5.169048536134893e6 0.0
5.169048536134893e6 -1.5717561841767585e7 0.0
0.0 0.0 0.0

-1.675394754641076e6 1.6309743021227518e7 0.0
1.6309743021227518e7 1.1686564512818024e7 0.0
0.0 0.0 0.0

-2.785756349969392e6 1.5799585063027773e7 0.0
1.5799585063027773e7 7.5078927363510765e6 0.0
0.0 0.0 0.0

-1.152111386273545e7 1.1901657248917475e7 0.0
1.1901657248917475e7 1.6851577190109506e7 0.0
0.0 0.0 0.0

-5.341337044222226e6 1.6394570666632775e7 0.0
1.6394570666632775e7 6.64126117082571e6 0.0
0.0 0.0 0.0

-1.4792324229382544e6 1.6146620441446418e7 0.0
1.6146620441446418e7 -4.898688028052655e6 0.0
0.0 0.0 0.0

-1.182045411592209e7 1.2032596912837896e7 0.0
1.2032596912837896e7 1.54127074084706e7 0.0
0.0 0.0 0.0

-1.2368334629617581e7 1.1908924024703017e7 0.0
1.1908924024703017e7 1.748581458092561e7 0.0
0.0 0.0 0.0

-1.146820568110569e7 1.0024173559017621e7 0.0
1.0024173559017621e7 1.4183616079652479e7 0.0
0.0 0.0 0.0

-7.315725123688287e6 -4.726472531409336e6 0.0
-4.726472531409336e6 1.183897892943529e7 0.0
0.0 0.0 0.0

-5.129862770183973e6 1.795729390901645e7 0.0
1.795729390901645e7 7.359245339963291e6 0.0
0.0 0.0 0.0

-333639.7324346481 1.2632129813447585e7 0.0
1.2632129813447585e7 -2.1421451766138464e7 0.0
0.0 0.0 0.0

1.0548289984462159e6 1.2215889269657291e7 0.0
1.2215889269657291e7 -1.6664404706130318e7 0.0
0.0 0.0 0.0

-1.8079751787972085e7 2.2563765676141895e7 0.0
2.2563765676141895e7 933665.9212146895 0.0
0.0 0.0 0.0

-1.089419264211006e7 1.2489458166425882e6 0.0
1.2489458166425882e6 3.0848549183013365e7 0.0
0.0 0.0 0.0

1.3938263770733923e6 1.255609300352199e7 0.0
1.255609300352199e7 -1.572039406960925e7 0.0
0.0 0.0 0.0

-3.5379099223206034e6 2.0719093137681566e7 0.0
2.0719093137681566e7 964252.931033835 0.0
0.0 0.0 0.0

172383.96522935852 1.4709446919056552e7 0.0
1.4709446919056552e7 7.434696292875604e6 0.0
0.0 0.0 0.0

-2.678676874544649e6 -5.243537304745962e6 0.0
-5.243537304745962e6 8.553866300871631e6 0.0
0.0 0.0 0.0

-403097.21851466165 1.4178066905858297e7 0.0
1.4178066905858297e7 -1.8486339616740216e6 0.0
0.0 0.0 0.0

-1.721875797545807e6 1.5307607970487315e7 0.0
1.5307607970487315e7 -5.794269698004829e6 0.0
0.0 0.0 0.0

-8.819996260467235e6 4.669674907582959e6 0.0
4.669674907582959e6 9.473873583585978e6 0.0
0.0 0.0 0.0

5.709492085527645e6 3.060224513604064e6 0.0
3.060224513604064e6 -2.589888030762814e7 0.0
0.0 0.0 0.0

565632.030683713 8.609959304699479e6 0.0
8.609959304699479e6 -6.975932188381118e6 0.0
0.0 0.0 0.0

-1.153778317744004e7 -1.7039272009109356e6 0.0
-1.7039272009109356e6 1.8012123460584074e7 0.0
0.0 0.0 0.0

-883556.2240709877 1.5972392565002587e7 0.0
1.5972392565002587e7 -8.209167197232291e6 0.0
0.0 0.0 0.0

1.7326405745081664e6 1.5023353619957527e7 0.0
1.5023353619957527e7 1.2853181997696098e7 0.0
0.0 0.0 0.0

516267.6016469132 8.267552398891622e6 0.0
8.267552398891622e6 -4.670342076006641e6 0.0
0.0 0.0 0.0

470711.76353833126 1.6662061960313719e7 0.0
1.6662061960313719e7 1.1037689138932187e7 0.0
0.0 0.0 0.0

-4.946377326667309e6 2.457255641808183e7 0.0
2.457255641808183e7 4.451246423775079e6 0.0
0.0 0.0 0.0

-1.057795111103445e7 308251.49019206513 0.0
308251.49019206513 1.2947978011651527e7 0.0
0.0 0.0 0.0

-2.611096683063193e6 1.576050541494315e7 0.0
1.576050541494315e7 1.0598595214342592e7 0.0
0.0 0.0 0.0

2.714169414325308e6 9.167668819089282e6 0.0
9.167668819089282e6 -1.58257277985777e7 0.0
0.0 0.0 0.0

-1.3053037040102936e7 1.934827565484233e7 0.0
1.934827565484233e7 4.626161743885174e6 0.0
0.0 0.0 0.0

-4.353505118667144e6 461219.5781592853 0.0
461219.5781592853 3.9558074673494743e6 0.0
0.0 0.0 0.0

-4.766413346132405e6 1.732964173263093e7 0.0
1.732964173263093e7 -3.569079629278802e6 0.0
0.0 0.0 0.0

1.597261069073791e7 1.6468218747047035e7 0.0
1.6468218747047035e7 3.7441443023309377e6 0.0
0.0 0.0 0.0

-2.3833580879403325e6 1.679280164635331e7 0.0
1.679280164635331e7 -4.15156016016582e6 0.0
0.0 0.0 0.0

3.0608200500649363e6 9.310042955195911e6 0.0
9.310042955195911e6 -1.4718771950282797e7 0.0
0.0 0.0 0.0

-5.343001045403172e6 1.8039678246949397e7 0.0
1.8039678246949397e7 8.22608305205089e6 0.0
0.0 0.0 0.0

-1.0408695215914402e7 -2.0490740340889166e6 0.0
-2.0490740340889166e6 3.5109436713495634e7 0.0
0.0 0.0 0.0

-2.577551011239496e6 1.5975480166027518e7 0.0
1.5975480166027518e7 -7.010495224394886e6 0.0
0.0 0.0 0.0

-3.6837654888993045e6 2.2463018728766877e7 0.0
2.2463018728766877e7 3.390289447551209e6 0.0
0.0 0.0 0.0

854147.685797533 1.1660594976430403e7 0.0
1.1660594976430403e7 -2.1114350645006556e7 0.0
0.0 0.0 0.0

553232.7010030309 1.4042299531742359e7 0.0
1.4042299531742359e7 -1.2565473839286758e7 0.0
0.0 0.0 0.0

738904.2188797127 1.3663899672941543e7 0.0
1.3663899672941543e7 -1.3354652034749411e7 0.0
0.0 0.0 0.0

-1.2289050291925268e7 9.233905456925567e6 0.0
9.233905456925567e6 2.1616593534166925e7 0.0
0.0 0.0 0.0

-5.498476779148458e6 1.71556321567232e7 0.0
1.71556321567232e7 6.3721984796976745e6 0.0
0.0 0.0 0.0

-8.854883378543336e6 9.389623204124128e6 0.0
9.389623204124128e6 6.682614592048899e7 0.0
0.0 0.0 0.0

5.623409961432654e6 1.0249761045745574e7 0.0
1.0249761045745574e7 -5.2029176279826775e7 0.0
0.0 0.0 0.0

-9.66379053408946e6 2.1109056434390537e7 0.0
2.1109056434390537e7 -1.6095565794159407e6 0.0
0.0 0.0 0.0

-3.551871211589789e6 1.527308699679773e7 0.0
1.527308699679773e7 8.090282567438599e6 0.0
0.0 0.0 0.0

-1.3085311428727273e7 1.9821995949391194e7 0.0
1.9821995949391194e7 1.0051442940270156e6 0.0
0.0 0.0 0.0

-4.807184435675358e6 46757.8471059237 0.0
46757.8471059237 7.390120244693166e6 0.0
0.0 0.0 0.0

-1.0005968632051054e7 1.2879352309276665e7 0.0
1.2879352309276665e7 1.3452819580276892e7 0.0
0.0 0.0 0.0

-5.51836547426341e6 1.799713625447041e7 0.0
1.799713625447041e7 -2.748202641115007e6 0.0
0.0 0.0 0.0

-1.0657407342368394e7 -501151.7258033692 0.0
-501151.7258033692 2.0253957839617603e7 0.0
0.0 0.0 0.0

1.5595340182778282e7 1.5222366873271378e7 0.0
1.5222366873271378e7 3.5688282769857366e6 0.0
0.0 0.0 0.0

-2.930754789346192e6 1.5899874126007996e7 0.0
1.5899874126007996e7 1.263064206231455e7 0.0
0.0 0.0 0.0

-6.694598465515856e6 1.4717395341597429e7 0.0
1.4717395341597429e7 1.0654905238430817e7 0.0
0.0 0.0 0.0

-2.0762142896474034e7 2.4952689114794966e7 0.0
2.4952689114794966e7 1.1645192513861272e7 0.0
0.0 0.0 0.0

1.4965443706941437e6 1.4897312761620132e7 0.0
1.4897312761620132e7 2.246065710731722e6 0.0
0.0 0.0 0.0

1.8630728585572683e6 1.3771374155980948e7 0.0
1.3771374155980948e7 -2.592023307870654e6 0.0
0.0 0.0 0.0

-5.1841450790723665e6 1.8969527213939395e7 0.0
1.8969527213939395e7 7.483184686439667e6 0.0
0.0 0.0 0.0

-3.8117826437374074e6 1.669483317884862e7 0.0
1.669483317884862e7 -345660.3309785194 0.0
0.0 0.0 0.0

-257672.1877173466 1.2532656621731507e7 0.0
1.2532656621731507e7 -2.533635017294255e6 0.0
0.0 0.0 0.0

1.812527012338893e6 1.448470204620281e7 0.0
1.448470204620281e7 -4.0849710428886954e6 0.0
0.0 0.0 0.0

-1.1726737155175237e6 1.539902162286464e7 0.0
1.539902162286464e7 9.1892540830135e6 0.0
0.0 0.0 0.0

-1.538890502438404e6 2.2814764480474524e7 0.0
2.2814764480474524e7 -165188.13614448806 0.0
0.0 0.0 0.0

-5.412620991064148e6 1.7746112822822373e7 0.0
1.7746112822822373e7 7.895190311683088e6 0.0
0.0 0.0 0.0

-5.842622255202678e6 2.4272780304489687e7 0.0
2.4272780304489687e7 3.981285435178738e6 0.0
0.0 0.0 0.0

-2.2277993613140434e6 1.3517478924012268e7 0.0
1.3517478924012268e7 -2.5536848558725428e7 0.0
0.0 0.0 0.0

-7.202231337657845e6 1.631861759431007e7 0.0
1.631861759431007e7 -4.6398465933353744e7 0.0
0.0 0.0 0.0

6.908250327290535e6 1.61818408917646e7 0.0
1.61818408917646e7 5.715585396716794e7 0.0
0.0 0.0 0.0

1.9765658718891316e6 1.5274753713723328e7 0.0
1.5274753713723328e7 1.256091120914738e7 0.0
0.0 0.0 0.0

3.1684869581966363e6 8.596522894517053e6 0.0
8.596522894517053e6 -2.397954852362457e7 0.0
0.0 0.0 0.0

-2.5909512514253403e6 2.2628992289544698e7 0.0
2.2628992289544698e7 -408540.98956338584 0.0
0.0 0.0 0.0

-1.2932141430845063e6 1.6791484789643064e7 0.0
1.6791484789643064e7 -6.076340173653374e6 0.0
0.0 0.0 0.0

-491419.75880975346 1.4903265777860828e7 0.0
1.4903265777860828e7 -4.332051462222842e6 0.0
0.0 0.0 0.0

-619760.0048006214 1.6188553837910375e7 0.0
1.6188553837910375e7 -7.870204496635232e6 0.0
0.0 0.0 0.0

-2.57467202319374e7 2.555217763781418e7 0.0
2.555217763781418e7 1.2426850975712875e7 0.0
0.0 0.0 0.0

-4.179551417265822e6 2.2238109828665737e7 0.0
2.2238109828665737e7 3.030180730046047e6 0.0
0.0 0.0 0.0

-6.030056080802268e6 1.9310990231331307e7 0.0
1.9310990231331307e7 6.8416507918034075e6 0.0
0.0 0.0 0.0

5.379479521979071e6 4.0665567568162163e6 0.0
4.0665567568162163e6 -2.766270009689478e7 0.0
0.0 0.0 0.0

2.7571362583567463e6 1.8014647468981065e7 0.0
1.8014647468981065e7 -5.302308351995548e6 0.0
0.0 0.0 0.0

736098.4594429331 1.2020814280841945e7 0.0
1.2020814280841945e7 -2.011988164188049e7 0.0
0.0 0.0 0.0

1.8409153969922455e6 1.842461463610856e7 0.0
1.842461463610856e7 -5.001425951914763e6 0.0
0.0 0.0 0.0

5496.468062261818 1.1979683978011426e7 0.0
1.1979683978011426e7 -1.7810400324674626e6 0.0
0.0 0.0 0.0

-2.1898278037888403e6 1.6221635841184882e7 0.0
1.6221635841184882e7 1.1165815018100547e7 0.0
0.0 0.0 0.0

-5.235401710370029e6 2.0604263921365052e7 0.0
2.0604263921365052e7 5.648539619080567e6 0.0
0.0 0.0 0.0

-8.944620114518905e6 -5.8761111670744885e6 0.0
-5.8761111670744885e6 1.721306656479968e7 0.0
0.0 0.0 0.0

7.570091574803148e6 1.451887621325662e7 0.0
1.451887621325662e7 -1.697075321158919e6 0.0
0.0 0.0 0.0

-4.879052730621507e7 1.8290893745938968e7 0.0
1.8290893745938968e7 8.57089593930095e6 0.0
0.0 0.0 0.0

-1.2851042548832184e7 9.33102217465912e6 0.0
9.33102217465912e6 1.9654031285323e7 0.0
0.0 0.0 0.0

-4.888991577808934e6 1.700626920525274e7 0.0
1.700626920525274e7 3.6709470386829562e6 0.0
0.0 0.0 0.0

1.9516224192122272e6 1.4724489286565954e7 0.0
1.4724489286565954e7 -2.255327809074018e6 0.0
0.0 0.0 0.0

5.377961336631935e6 4.348542489649928e6 0.0
4.348542489649928e6 -1.9240477814990524e7 0.0
0.0 0.0 0.0

-3.5294643959588925e6 1.556702913145391e7 0.0
1.556702913145391e7 6.411158779849306e6 0.0
0.0 0.0 0.0

-1.0264549476146232e7 -3.4809543602440935e6 0.0
-3.4809543602440935e6 3.059152546081157e7 0.0
0.0 0.0 0.0

-8.092177818899808e6 1.8488068876761578e7 0.0
1.8488068876761578e7 -5.160045132363135e7 0.0
0.0 0.0 0.0

7.557288157027008e6 2.0715386920452885e7 0.0
2.0715386920452885e7 6.359432850639782e7 0.0
0.0 0.0 0.0

2.13702718914715e6 1.0779119682529802e7 0.0
1.0779119682529802e7 -1.8921935574207466e7 0.0
0.0 0.0 0.0

1.499252636150444e6 4.896484674834148e6 0.0
4.896484674834148e6 -5.538321125042162e6 0.0
0.0 0.0 0.0

3.3785224330458636e6 1.499543098584452e7 0.0
1.499543098584452e7 5.694287219458377e6 0.0
0.0 0.0 0.0

-1.0733105601208743e7 -1.3186357280953187e6 0.0
-1.3186357280953187e6 3.520577612190236e7 0.0
0.0 0.0 0.0

1.2492859059827533e6 7.19716013923806e6 0.0
7.19716013923806e6 -6.19517680055571e6 0.0
0.0 0.0 0.0

-1.1467683259177988e6 2.2001517537171364e7 0.0
2.2001517537171364e7 -1.9911322374932473e6 0.0
0.0 0.0 0.0

-455566.4119879729 1.4440929506615685e7 0.0
1.4440929506615685e7 -9.707837816760752e6 0.0
0.0 0.0 0.0

993890.1445621087 1.507029566977316e7 0.0
1.507029566977316e7 9.227801187418059e6 0.0
0.0 0.0 0.0

-3.1332843523399383e6 1.70472147878912e7 0.0
1.70472147878912e7 130629.84900362743 0.0
0.0 0.0 0.0

-1.5519759884277549e7 1.8677574785182785e7 0.0
1.8677574785182785e7 -888233.4508541091 0.0
0.0 0.0 0.0

-4.31352537496667e6 2.2048865633558962e7 0.0
2.2048865633558962e7 3.431169021706888e6 0.0
0.0 0.0 0.0

-619191.4057858789 1.480306124406694e7 0.0
1.480306124406694e7 5.656226493643338e6 0.0
0.0 0.0 0.0

-3.4356668235950395e6 1.5762403014640583e7 0.0
1.5762403014640583e7 9.458704082625285e6 0.0
0.0 0.0 0.0

1.2625558261913871e6 1.259267558051925e7 0.0
1.259267558051925e7 -1.3400894382475665e7 0.0
0.0 0.0 0.0

-641787.283838968 1.5801701191328673e7 0.0
1.5801701191328673e7 -8.3825605386831425e6 0.0
0.0 0.0 0.0

-1.1226463699641565e7 -97607.99049734182 0.0
-97607.99049734182 3.360223248622043e7 0.0
0.0 0.0 0.0

-2.234800512703035e7 2.6945569892955113e7 0.0
2.6945569892955113e7 9.261597183828533e6 0.0
0.0 0.0 0.0

-1.017254704538434e7 2.3331376730142638e7 0.0
2.3331376730142638e7 7.558579645972239e6 0.0
0.0 0.0 0.0

-1.9475715474221356e7 1.915624912908796e7 0.0
1.915624912908796e7 7.11216211766968e6 0.0
0.0 0.0 0.0

-296219.1140976333 1.4786968285071386e7 0.0
1.4786968285071386e7 1.572941997134984e6 0.0
0.0 0.0 0.0

-4.461982787123313e6 1.743824821862764e7 0.0
1.743824821862764e7 -560651.3148426623 0.0
0.0 0.0 0.0

-1.0226997633578822e7 2.0143588218419395e7 0.0
2.0143588218419395e7 3.1109135676875147e6 0.0
0.0 0.0 0.0

1.8619802111015026e6 6.698067903929835e6 0.0
6.698067903929835e6 -6.193807627695104e6 0.0
0.0 0.0 0.0

123756.40721231978 1.5508770894615985e7 0.0
1.5508770894615985e7 9.945531033248156e6 0.0
0.0 0.0 0.0

3.980196043127494e6 7.991899476464309e6 0.0
7.991899476464309e6 -2.3360014809675906e7 0.0
0.0 0.0 0.0

-1.190639961127095e7 1.03325757365553e7 0.0
1.03325757365553e7 2.0836457210218884e7 0.0
0.0 0.0 0.0

-1.003905958697601e7 -1.751924269269983e6 0.0
-1.751924269269983e6 3.621904947000219e7 0.0
0.0 0.0 0.0

5.529936212593624e6 4.1665852249162956e6 0.0
4.1665852249162956e6 -2.7410025515278023e7 0.0
0.0 0.0 0.0

-2.2583599586132064e7 1.967590368155825e7 0.0
1.967590368155825e7 6.155778057452699e6 0.0
0.0 0.0 0.0

-1.0162538877779527e7 -4.619237304197636e6 0.0
-4.619237304197636e6 2.745292058505004e7 0.0
0.0 0.0 0.0

-9.57314554333017e6 -5.689732416502541e6 0.0
-5.689732416502541e6 2.2847319664390035e7 0.0
0.0 0.0 0.0

1.4227867195853181e6 6.462723003266845e6 0.0
6.462723003266845e6 -7.413193160394762e6 0.0
0.0 0.0 0.0

-9.682246918859102e6 -4.156229471535341e6 0.0
-4.156229471535341e6 2.1973085762906272e7 0.0
0.0 0.0 0.0

-2.159443891788114e6 2.8246747417535648e7 0.0
2.8246747417535648e7 -4.778075267905589e6 0.0
0.0 0.0 0.0

-6.341969214443617e6 1.547727552240976e7 0.0
1.547727552240976e7 1.0282112928711183e7 0.0
0.0 0.0 0.0

4.853418331934702e6 4.893336641196361e6 0.0
4.893336641196361e6 -3.3156421534883108e7 0.0
0.0 0.0 0.0

4.950981773529937e6 4.734453661388932e6 0.0
4.734453661388932e6 -2.228200598188415e7 0.0
0.0 0.0 0.0

-5.621336396052785e6 1.693140758541281e7 0.0
1.693140758541281e7 5.735239103778193e6 0.0
0.0 0.0 0.0

-5.527018105145498e6 2.4192806780474093e7 0.0
2.4192806780474093e7 5.140396966261396e6 0.0
0.0 0.0 0.0

1.2337408937262488e6 8.967187917963024e6 0.0
8.967187917963024e6 2.658204554505894e6 0.0
0.0 0.0 0.0

2.590737161074117e6 1.6862194878405847e7 0.0
1.6862194878405847e7 1.0300686620823596e7 0.0
0.0 0.0 0.0

2.7590773213059595e6 1.7412632177956387e7 0.0
1.7412632177956387e7 -4.893083610644202e6 0.0
0.0 0.0 0.0

-1.0488069057972582e7 -4.3816150501848105e6 0.0
-4.3816150501848105e6 2.6829440787200168e7 0.0
0.0 0.0 0.0

-1.3613957244684014e7 1.6575024959236776e7 0.0
1.6575024959236776e7 7.616032955450861e6 0.0
0.0 0.0 0.0

-4.248518276079062e6 2.167577062643564e7 0.0
2.167577062643564e7 3.263066584851049e6 0.0
0.0 0.0 0.0

-3.191282759976389e6 1.4996901654455986e7 0.0
1.4996901654455986e7 2.790558704799445e7 0.0
0.0 0.0 0.0

3.5854503379754312e6 1.7649551840251904e7 0.0
1.7649551840251904e7 -4.710927181790294e6 0.0
0.0 0.0 0.0

-1.2244772786643931e6 1.6334256088922163e7 0.0
1.6334256088922163e7 -4.635558689854013e6 0.0
0.0 0.0 0.0

-5.573478699072355e6 1.6112755074111292e7 0.0
1.6112755074111292e7 1.0831112210406072e7 0.0
0.0 0.0 0.0

-1.3249346968253488e6 1.5670542155004947e7 0.0
1.5670542155004947e7 -5.153463926832058e6 0.0
0.0 0.0 0.0

-4.652768452840936e7 2.5380694273116354e7 0.0
2.5380694273116354e7 2.7768498171188254e6 0.0
0.0 0.0 0.0

-7.19162421195516e6 1.5182164290938962e7 0.0
1.5182164290938962e7 9.821635520993682e6 0.0
0.0 0.0 0.0

-1.2646414743575775e6 1.642076190930545e7 0.0
1.642076190930545e7 -4.183187349304552e6 0.0
0.0 0.0 0.0

-5.388475127255426e6 1.6583741829350654e7 0.0
1.6583741829350654e7 1.0332854363637771e7 0.0
0.0 0.0 0.0

1.7559438980983107e6 1.7129996783123262e7 0.0
1.7129996783123262e7 -4.936025422514116e6 0.0
0.0 0.0 0.0

5.085902366473216e6 4.378682953273789e6 0.0
4.378682953273789e6 -1.8740965572428387e7 0.0
0.0 0.0 0.0

-386328.40664932225 1.6762264077172348e7 0.0
1.6762264077172348e7 -6.348587574727946e6 0.0
0.0 0.0 0.0

-2.2446088387327753e7 2.668361825497296e7 0.0
2.668361825497296e7 8.739542648391154e6 0.0
0.0 0.0 0.0

-5.783568412296712e6 2.139626173991945e7 0.0
2.139626173991945e7 6.281631225601837e6 0.0
0.0 0.0 0.0

-7.658712339167295e6 -4.636086944851328e6 0.0
-4.636086944851328e6 1.217452890734701e7 0.0
0.0 0.0 0.0

-196331.73079232778 1.4521957836779088e7 0.0
1.4521957836779088e7 -1.1045379569145188e7 0.0
0.0 0.0 0.0

6.006792621568844e6 1.5064158440695688e7 0.0
1.5064158440695688e7 -843111.35121896 0.0
0.0 0.0 0.0

-4.359889251367992e7 2.0220207406642888e7 0.0
2.0220207406642888e7 8.781929526685387e6 0.0
0.0 0.0 0.0

676797.4165063836 1.4034683661990242e7 0.0
1.4034683661990242e7 6.307112408588084e6 0.0
0.0 0.0 0.0

3.6022292045252025e6 7.938288491351202e6 0.0
7.938288491351202e6 -2.4632884242614955e7 0.0
0.0 0.0 0.0

976318.5191463651 1.2481460260676209e7 0.0
1.2481460260676209e7 -1.329610298864837e7 0.0
0.0 0.0 0.0

-3.2249415680119134e6 1.5815875914671175e7 0.0
1.5815875914671175e7 7.652820277891511e6 0.0
0.0 0.0 0.0

-7.0006703606552165e6 2.4338452266460877e7 0.0
2.4338452266460877e7 5.055937585714351e6 0.0
0.0 0.0 0.0

-2.4026969482037663e6 1.8855619260826223e7 0.0
1.8855619260826223e7 -2.1944087824024265e6 0.0
0.0 0.0 0.0

5.369996128908749e6 4.0927414892342067e6 0.0
4.0927414892342067e6 -2.180260119176113e7 0.0
0.0 0.0 0.0

-183505.6978167519 1.518253313737439e7 0.0
1.518253313737439e7 2.134602993467469e7 0.0
0.0 0.0 0.0

-343248.0927090067 1.1674077767336655e7 0.0
1.1674077767336655e7 -1.889725471265865e6 0.0
0.0 0.0 0.0

-3.337148568590441e7 2.2981211616711374e7 0.0
2.2981211616711374e7 1.259561055531656e7 0.0
0.0 0.0 0.0

-1.0346394626781672e7 -3.802619418472175e6 0.0
-3.802619418472175e6 1.826257599406149e7 0.0
0.0 0.0 0.0

-9.588171981745355e6 -3.864710240239942e6 0.0
-3.864710240239942e6 2.08281788779874e7 0.0
0.0 0.0 0.0

5.527123390527643e6 1.4897509765958972e7 0.0
1.4897509765958972e7 1.76055905481868e6 0.0
0.0 0.0 0.0

-1.0037607790432146e7 -4.634998123326667e6 0.0
-4.634998123326667e6 2.682012533370889e7 0.0
0.0 0.0 0.0

618238.3851842117 1.4196977055051155e7 0.0
1.4196977055051155e7 6.210754461825574e6 0.0
0.0 0.0 0.0

2.6535805771063864e6 1.532530606251994e7 0.0
1.532530606251994e7 1.3254398504144197e7 0.0
0.0 0.0 0.0

-3.008491487242545e6 2.260310529561282e7 0.0
2.260310529561282e7 1.0528351532160079e6 0.0
0.0 0.0 0.0

-1.1247631962409167e7 3.098471674590534e6 0.0
3.098471674590534e6 3.699054844339077e7 0.0
0.0 0.0 0.0

424810.031576314 1.2100494429266231e7 0.0
1.2100494429266231e7 -2.024771229369193e7 0.0
0.0 0.0 0.0

1.0351627656890801e6 7.001841341389521e6 0.0
7.001841341389521e6 -6.669824214959101e6 0.0
0.0 0.0 0.0

-3.050757032065028e6 1.5565280507076938e7 0.0
1.5565280507076938e7 6.201365991283437e6 0.0
0.0 0.0 0.0

61011.0226062024 1.5842951763776384e7 0.0
1.5842951763776384e7 1.3744210821953049e7 0.0
0.0 0.0 0.0

-1.1036243140863216e7 -3.219306296653457e6 0.0
-3.219306296653457e6 2.5791620483907405e7 0.0
0.0 0.0 0.0

-9.066837313040897e6 5.081845652068398e6 0.0
5.081845652068398e6 8.088341749140371e6 0.0
0.0 0.0 0.0

-4.21229153179617e6 1.5999025914235482e7 0.0
1.5999025914235482e7 1.210031348394348e6 0.0
0.0 0.0 0.0

-2.7828602491914523e6 7.547509153422657e6 0.0
7.547509153422657e6 1.1682957027659668e7 0.0
0.0 0.0 0.0

1.8278317766857576e6 1.4087888079437213e7 0.0
1.4087888079437213e7 -3.2948112434081286e6 0.0
0.0 0.0 0.0

-1.0319199699285716e7 -4.378502524538268e6 0.0
-4.378502524538268e6 1.9864331630838145e7 0.0
0.0 0.0 0.0

-1.0500954040766876e7 3.13366376836851e6 0.0
3.13366376836851e6 3.9734842957508095e7 0.0
0.0 0.0 0.0

1.6046577684312868e6 1.448438713484305e7 0.0
1.448438713484305e7 -2.607677227982375e6 0.0
0.0 0.0 0.0

-129052.37620195467 1.4797052270114271e7 0.0
1.4797052270114271e7 -9.283279748455992e6 0.0
0.0 0.0 0.0

-1.055805251028912e7 3.000870335504318e6 0.0
3.000870335504318e6 3.937455974325168e7 0.0
0.0 0.0 0.0

2.213061570820364e6 1.700648748642192e7 0.0
1.700648748642192e7 -5.084408372817712e6 0.0
0.0 0.0 0.0

-165747.92210500408 1.4927718194669917e7 0.0
1.4927718194669917e7 9.553278906952158e6 0.0
0.0 0.0 0.0

-5.970196126317723e6 8.352955949298819e6 0.0
8.352955949298819e6 5.937649253047584e6 0.0
0.0 0.0 0.0

-6.524691854736552e6 5.274846023964917e6 0.0
5.274846023964917e6 9.000170311502779e6 0.0
0.0 0.0 0.0

-9.644083780089721e6 3.3617026108719124e6 0.0
3.3617026108719124e6 4.7874119533434855e6 0.0
0.0 0.0 0.0

