# vtk DataFile Version 2.0
phase field modeling fracture
ASCII
DATASET UNSTRUCTURED_GRID
POINTS 2538 float
0.0 0.0 0.0
10.0 0.0 0.0
0.0 10.0 0.0
10.0 10.0 0.0
0.0 4.9995 0.0
0.0 5.0005 0.0
5.0 5.0 0.0
0.9416964895726688 0.0 0.0
1.803581725054446 0.0 0.0
2.592419885431098 0.0 0.0
3.314401822861676 0.0 0.0
3.975193910351406 0.0 0.0
4.579982132660152 0.0 0.0
5.133512780936812 0.0 0.0
5.640130319506143 0.0 0.0
6.103810708661955 0.0 0.0
6.528192895506818 0.0 0.0
6.916607540127679 0.0 0.0
7.272102969376355 0.0 0.0
7.597469242948583 0.0 0.0
7.895259826292669 0.0 0.0
8.167811885738017 0.0 0.0
8.417264413845215 0.0 0.0
8.645575169389538 0.0 0.0
8.854535961159101 0.0 0.0
9.045786767735546 0.0 0.0
9.220828555767493 0.0 0.0
9.38103509633881 0.0 0.0
9.527663687265145 0.0 0.0
9.661865124984566 0.0 0.0
9.784692609918062 0.0 0.0
9.897110148790482 0.0 0.0
10.0 0.09999999999992584 0.0
10.0 0.199999999999856 0.0
10.0 0.2999999999997771 0.0
10.0 0.3999999999996677 0.0
10.0 0.4999999999995511 0.0
10.0 0.5999999999994683 0.0
10.0 0.6999999999993983 0.0
10.0 0.7999999999993286 0.0
10.0 0.8999999999992587 0.0
10.0 0.9999999999991888 0.0
10.0 1.099999999999119 0.0
10.0 1.199999999999033 0.0
10.0 1.299999999998852 0.0
10.0 1.399999999998576 0.0
10.0 1.499999999998284 0.0
10.0 1.599999999997992 0.0
10.0 1.6999999999977 0.0
10.0 1.799999999997408 0.0
10.0 1.899999999997116 0.0
10.0 1.999999999996825 0.0
10.0 2.099999999996533 0.0
10.0 2.199999999996241 0.0
10.0 2.299999999995949 0.0
10.0 2.399999999995657 0.0
10.0 2.499999999995365 0.0
10.0 2.599999999995073 0.0
10.0 2.699999999994782 0.0
10.0 2.79999999999449 0.0
10.0 2.899999999994198 0.0
10.0 2.999999999993906 0.0
10.0 3.099999999993614 0.0
10.0 3.199999999993322 0.0
10.0 3.299999999993029 0.0
10.0 3.399999999992738 0.0
10.0 3.499999999992446 0.0
10.0 3.599999999992154 0.0
10.0 3.699999999991863 0.0
10.0 3.799999999991571 0.0
10.0 3.899999999991278 0.0
10.0 3.999999999991022 0.0
10.0 4.099999999991035 0.0
10.0 4.199999999991187 0.0
10.0 4.299999999991338 0.0
10.0 4.399999999991491 0.0
10.0 4.499999999991642 0.0
10.0 4.599999999991795 0.0
10.0 4.699999999991947 0.0
10.0 4.799999999992099 0.0
10.0 4.89999999999225 0.0
10.0 4.999999999992403 0.0
10.0 5.099999999992555 0.0
10.0 5.199999999992706 0.0
10.0 5.299999999992858 0.0
10.0 5.39999999999301 0.0
10.0 5.499999999993161 0.0
10.0 5.599999999993313 0.0
10.0 5.699999999993466 0.0
10.0 5.799999999993618 0.0
10.0 5.899999999993771 0.0
10.0 5.999999999993922 0.0
10.0 6.099999999994074 0.0
10.0 6.199999999994227 0.0
10.0 6.299999999994378 0.0
10.0 6.39999999999453 0.0
10.0 6.499999999994682 0.0
10.0 6.599999999994833 0.0
10.0 6.699999999994986 0.0
10.0 6.799999999995138 0.0
10.0 6.899999999995289 0.0
10.0 6.999999999995442 0.0
10.0 7.099999999995594 0.0
10.0 7.199999999995747 0.0
10.0 7.299999999995897 0.0
10.0 7.39999999999605 0.0
10.0 7.499999999996202 0.0
10.0 7.599999999996353 0.0
10.0 7.699999999996505 0.0
10.0 7.799999999996658 0.0
10.0 7.899999999996808 0.0
10.0 7.999999999996962 0.0
10.0 8.099999999997113 0.0
10.0 8.199999999997265 0.0
10.0 8.299999999997418 0.0
10.0 8.399999999997569 0.0
10.0 8.499999999997721 0.0
10.0 8.599999999997873 0.0
10.0 8.699999999998024 0.0
10.0 8.799999999998176 0.0
10.0 8.899999999998329 0.0
10.0 8.99999999999848 0.0
10.0 9.099999999998634 0.0
10.0 9.199999999998786 0.0
10.0 9.299999999998937 0.0
10.0 9.399999999999089 0.0
10.0 9.499999999999241 0.0
10.0 9.599999999999392 0.0
10.0 9.699999999999545 0.0
10.0 9.799999999999697 0.0
10.0 9.899999999999848 0.0
9.897110148790565 10.0 0.0
9.784692609918244 10.0 0.0
9.66186512498486 10.0 0.0
9.527663687265571 10.0 0.0
9.381035096339392 10.0 0.0
9.220828555768257 10.0 0.0
9.045786767736512 10.0 0.0
8.854535961160305 10.0 0.0
8.645575169391027 10.0 0.0
8.417264413847017 10.0 0.0
8.167811885740178 10.0 0.0
7.895259826295246 10.0 0.0
7.597469242951631 10.0 0.0
7.272102969379938 10.0 0.0
6.916607540131873 10.0 0.0
6.528192895511704 10.0 0.0
6.103810708667616 10.0 0.0
5.640130319512691 10.0 0.0
5.13351278094435 10.0 0.0
4.579982132668816 10.0 0.0
3.975193910361222 10.0 0.0
3.314401822869852 10.0 0.0
2.592419885437257 10.0 0.0
1.803581725058137 10.0 0.0
0.9416964895740705 10.0 0.0
0.0 9.00010000000243 0.0
0.0 8.000200000005481 0.0
0.0 7.000300000005135 0.0
0.0 6.000400000002569 0.0
0.901790731451151 5.000409820926855 0.0
1.657200899774397 5.000334279910023 0.0
2.289991063707192 5.000271000893629 0.0
2.820065163538221 5.000217993483646 0.0
3.264096435579811 5.000173590356442 0.0
3.636051481595835 5.00013639485184 0.0
3.947629914072366 5.000105237008593 0.0
4.208632181002628 5.0000791367819 0.0
4.427267949625672 5.000057273205037 0.0
4.610414277633563 5.000038958572237 0.0
4.763831845154243 5.000023616815485 0.0
4.892346298799659 5.00001076537012 0.0
4.892346298799748 4.99998923462988 0.0
4.763831845154455 4.999976383184515 0.0
4.610414277633943 4.999961041427763 0.0
4.427267949626277 4.999942726794963 0.0
4.208632181003523 4.9999208632181 0.0
3.94762991407365 4.999894762991407 0.0
3.636051481597624 4.99986360514816 0.0
3.264096435582253 4.999826409643559 0.0
2.820065163541503 4.999782006516354 0.0
2.289991063711534 4.999728999106371 0.0
1.657200899778495 4.999665720089978 0.0
0.9017907314530094 4.999590179073145 0.0
0.0 3.999600000002013 0.0
0.0 2.999700000005187 0.0
0.0 1.99980000000512 0.0
0.0 0.9999000000025537 0.0
9.897889398521345 2.93573355845387 0.0
9.906568249974548 7.060009441434234 0.0
9.913122631074113 3.64016132281653 0.0
9.922462129543863 6.354535290629151 0.0
9.917693659967533 4.354211663134567 0.0
9.909873057440208 5.637584487339942 0.0
9.914183254994697 4.950672966925282 0.0
9.913885043715895 7.666887930262611 0.0
9.91009668007573 2.351889069770817 0.0
9.905135696074536 8.138152454502785 0.0
9.913397459621809 1.849999999997262 0.0
7.099302372137626 0.297750452375005 0.0
7.095143729410097 9.700359990366296 0.0
4.942912558701401 5.095838627899509 0.0
4.315009232304429 5.165022115481685 0.0
4.946182472483878 4.906763777264103 0.0
4.317967462990024 4.825955043772673 0.0
9.916390871492647 8.64999999999792 0.0
9.921504649680616 1.368376469890358 0.0
8.292538149791614 0.206877570318844 0.0
8.292538149793597 9.793122429681448 0.0
5.884594439766573 9.587645267048616 0.0
5.794826292691579 0.3794853783929359 0.0
9.913397459621425 9.049999999998557 0.0
9.908526577714177 0.9568239351922434 0.0
3.456851160380649 5.315740054130451 0.0
3.457889657868442 4.707121019609468 0.0
8.945214200703926 0.1503383337970344 0.0
8.950161364448409 9.8413906539257 0.0
9.913862335499305 4.055887885208452 0.0
9.916697353372683 4.650158482607802 0.0
9.919076340414442 6.049999999994006 0.0
9.906994308667635 5.25749687748192 0.0
9.917490342358025 6.655979201891897 0.0
9.915757520293784 7.343848891656911 0.0
9.910049507471042 3.363474386285078 0.0
9.914471988502868 2.647400064832979 0.0
9.91474124160965 9.337490423485129 0.0
9.916971008170838 0.6499999999994355 0.0
4.307157269264427 9.509674045029644 0.0
4.331527375865619 0.4401616696422582 0.0
9.45434939180249 9.878397030523757 0.0
9.457696120412969 0.1270877537061785 0.0
2.555070293622606 5.422044496190925 0.0
2.566232917480916 4.608001224030952 0.0
3.026511860837692 9.332320638257093 0.0
2.945561971800619 0.5895662714727601 0.0
7.7395404387124 0.2511088946967771 0.0
7.736379255744154 9.745848826372828 0.0
4.687135269408529 5.122111433928926 0.0
4.688420821504113 4.871895064967488 0.0
9.910554884115975 0.3448356354522978 0.0
9.911230082250466 9.65764729394159 0.0
9.921953841410854 6.851023993342036 0.0
9.912065178606017 5.448170483544033 0.0
9.911660025326261 3.861846960030188 0.0
9.914847467973438 3.14501593945607 0.0
9.913397459621425 5.849999999993703 0.0
9.913397459621425 7.849999999996735 0.0
9.906916878988277 2.15455769998631 0.0
9.913397459621425 8.349999999997479 0.0
9.909472363117661 1.640528221515488 0.0
9.913987325695956 1.152857110636247 0.0
9.913397459621425 8.849999999998241 0.0
0.9100099990995943 2.614215977520411 0.0
0.8395284981715456 7.451196254860987 0.0
9.723278867451556 9.898135916635193 0.0
9.723316350887044 0.09841820909386662 0.0
1.385819164827588 4.454539963646463 0.0
1.338343629665047 5.523111536005823 0.0
1.377179700550677 0.6809168304959698 0.0
1.418060461092743 9.285896715136046 0.0
9.91268220142518 0.1457914080939694 0.0
9.906737126737994 9.845745933882352 0.0
0.7108351382691361 6.537941170074089 0.0
1.527735020267026 6.915620208855231 0.0
1.630993885659103 7.838271825205868 0.0
2.232760943566823 7.370850737296832 0.0
2.243414218068206 6.688299277952821 0.0
2.779655053105118 7.021588754814074 0.0
2.80227799359795 7.632420170547022 0.0
3.282022065908813 7.305859666021318 0.0
3.327597298795347 7.857554136825748 0.0
3.743210251018715 7.549183328204379 0.0
3.716353232200752 7.062036086888612 0.0
4.111978858674101 7.27497101169417 0.0
4.104192177581432 6.879858986267289 0.0
4.436230765617037 7.045693351607117 0.0
4.430360014817357 6.703971783962796 0.0
4.732390145036301 6.849841042423394 0.0
5.056161327708878 5.095276573498806 0.0
5.111586796021131 4.999081142133581 0.0
5.169267363407189 5.09444870412406 0.0
5.223795108752053 4.996986220359468 0.0
5.281480803887719 5.092780870372803 0.0
5.335670761900611 4.994887492556936 0.0
5.393485214772442 5.090486192743301 0.0
5.447323082877892 4.992601527033996 0.0
5.505243219343024 5.087953380710069 0.0
5.558739102026105 4.990287787962959 0.0
5.616491581184779 5.085335255235766 0.0
5.669852346908056 4.9879269227514 0.0
5.727502713908907 5.082679981817038 0.0
5.780766004135139 4.988313988715834 0.0
5.838244881129535 5.080480568766611 0.0
5.891357695677371 4.986433849408193 0.0
5.948696036767613 5.077969900389505 0.0
6.001601341641615 4.981313698556656 0.0
6.058851024265095 5.074871552128682 0.0
6.111614020704875 4.978360695880202 0.0
6.168801161530775 5.072044953270978 0.0
6.221368818778567 4.975825765213497 0.0
6.278268309066882 5.066182320461055 0.0
6.330814273567539 4.972837984645718 0.0
6.387565032421376 5.062889771971895 0.0
6.437476667631405 4.971693683589553 0.0
6.496181111585419 5.060210690175857 0.0
6.539454812256072 4.964658165361536 0.0
6.604198202576491 5.056387520850258 0.0
6.648506025747331 4.939374587506267 0.0
6.714026758992516 5.05873885840664 0.0
6.764418045981209 4.959246676066148 0.0
6.8219334571197 5.055299567406268 0.0
6.873708540948134 4.960426349093742 0.0
6.930181428849307 5.053461390218819 0.0
6.981893615341967 4.96435459462232 0.0
7.037791764774784 5.051219747103022 0.0
7.090993561518408 4.96392420322464 0.0
5.504417457283294 4.900897920552702 0.0
7.145434864123609 5.048960634292441 0.0
6.054532384032612 4.883956083938546 0.0
6.738027949040956 4.850032323068674 0.0
7.198432914526514 4.956325226333323 0.0
7.252637187936749 5.046012229327236 0.0
7.30926729605109 4.948903216650376 0.0
7.248106275544042 4.860306312845646 0.0
7.363100274863074 4.849952416808486 0.0
7.365733472701664 5.039519554615095 0.0
7.308483293090149 5.137557220352172 0.0
6.768399513646964 5.145609705119954 0.0
7.422800035311104 5.132251445551834 0.0
7.358273518796229 5.235980394389298 0.0
7.480824155801127 5.227946127939927 0.0
7.302193400058628 4.761917474298247 0.0
7.413570879789824 4.754555110721153 0.0
7.414392998903179 5.334729114426734 0.0
7.352769630272076 4.660405502266205 0.0
7.467556835255426 4.658352623795039 0.0
7.536246869015014 5.328986926716081 0.0
7.478865844607288 5.432598185493195 0.0
7.406396991826072 4.556956233957538 0.0
7.523581002009154 4.552005631348623 0.0
7.597792398573263 5.429506106314967 0.0
7.540511043402902 5.53619421580439 0.0
7.46214474876342 4.452580994318881 0.0
7.5852185078634 4.446021810672608 0.0
7.663329342323453 5.533453399066901 0.0
7.603478967594521 5.643227430483237 0.0
7.513450346818673 4.347641323140766 0.0
7.640744971722214 4.333388343316237 0.0
7.727671715775243 5.642390483050116 0.0
7.667774597993788 5.753188858425915 0.0
7.570065256728661 4.230515669344811 0.0
7.702881065467917 4.218307808529532 0.0
7.638288257073729 4.107994211855027 0.0
7.493362356301017 4.120843902105771 0.0
7.779018500630071 5.521233457321821 0.0
7.794641287388929 5.752364621610818 0.0
7.73369774483611 5.865894287356292 0.0
7.600834531784728 5.867752110500446 0.0
6.233038857278689 5.15645045634683 0.0
7.669727996028819 5.985665563643058 0.0
7.528582452554481 5.987393423295551 0.0
7.598722674572824 6.11001923494443 0.0
7.778305000222867 4.104318908265786 0.0
7.704329019832056 3.987744174608892 0.0
7.838453459801382 4.213322728668484 0.0
7.864495721576461 5.862306066517277 0.0
7.846552353360407 3.98481756181946 0.0
7.769730409703277 3.86544808681145 0.0
5.785249360396857 5.177248808588045 0.0
7.908837087876153 3.861484036275285 0.0
7.834824606222196 3.740586825753288 0.0
7.97685993406276 3.736209527152902 0.0
7.89665098770825 3.615501862931453 0.0
7.753228010315262 3.617800245018972 0.0
7.826063013090472 3.483173292579822 0.0
7.66789744383048 3.48859328808356 0.0
8.042515855796823 3.595394268381807 0.0
7.75200750488492 3.341279823834038 0.0
7.582870318332553 3.346584916806707 0.0
8.120807847415062 3.732493963388337 0.0
8.189783970303546 3.61159165475499 0.0
7.657801000286734 3.200439907646711 0.0
7.486781956172036 3.201402473247712 0.0
7.452595103886905 6.11418616185016 0.0
7.527098033550077 6.243191052852112 0.0
8.260502906807751 3.728437634721859 0.0
8.327629317451398 3.608173631356984 0.0
7.372763970891452 6.247552889754036 0.0
7.456170570815929 6.384992468962936 0.0
7.621837793616884 6.376077080857113 0.0
7.548039512904141 6.520750676893614 0.0
7.717475944451644 6.514856553988943 0.0
7.636658166268699 6.661648164052906 0.0
7.807468267259438 6.664076174524672 0.0
7.718022764310774 6.817938967122142 0.0
7.887785766941087 6.807440365887151 0.0
7.545993589083432 6.815070675854734 0.0
7.809874785067209 6.967537287475282 0.0
7.975643812145337 6.948729406725126 0.0
8.396477808021062 3.725446935061211 0.0
7.565651643157136 3.044354774611752 0.0
7.384328725505071 3.043048915147076 0.0
8.056405351948353 6.802790889114673 0.0
8.14128318237188 6.940027831915737 0.0
8.064621760266059 7.086348792208953 0.0
8.225003598857908 6.805225152373254 0.0
8.463085452993242 3.606998510553562 0.0
8.230426869720718 7.079551841000411 0.0
8.155262284174286 7.224761758176069 0.0
8.530696760758996 3.721683301125054 0.0
8.596669886994064 3.604516769862316 0.0
8.528531058025589 3.490411531312337 0.0
8.320451770844851 7.218191678954744 0.0
8.245273958732774 7.363444652121271 0.0
8.66324687389452 3.717094013035765 0.0
8.600103125209296 3.831913857228569 0.0
8.662131102573216 3.488322280861316 0.0
8.594166125380536 3.374071873435548 0.0
8.411074336066186 7.353871649576861 0.0
8.339644223432472 7.505172120620427 0.0
8.165883718619623 7.513159193685373 0.0
8.483453820080417 7.2082285366806 0.0
8.261200365730348 7.657400951288149 0.0
8.081570576666843 7.670933304838066 0.0
7.471613195794025 2.872548423100142 0.0
7.268733678357991 2.881209199257603 0.0
7.184255506995786 3.084448584600423 0.0
7.065899603697895 2.883902449336828 0.0
6.960163891183182 3.081014635802978 0.0
6.847612128388715 2.885646860602812 0.0
6.739800729737967 3.078895733381448 0.0
8.729373804596847 3.827689165637365 0.0
8.668550856907444 3.938702277545298 0.0
8.72770789162863 3.371798381178293 0.0
8.659764090070603 3.257493349874974 0.0
8.436453928793245 7.648724489148887 0.0
6.619080287792762 2.90880017416788 0.0
6.511740956842646 3.09340654756684 0.0
8.793527829963288 3.935174834810256 0.0
8.736430500996828 4.042719556852617 0.0
7.631260330584174 4.565300771328012 0.0
8.359058396840432 7.801678182761817 0.0
5.339436215072359 5.184870243702279 0.0
4.994031736761993 5.193306795607908 0.0
6.383387675268097 4.87760645722207 0.0
7.29117392392962 6.382172868329505 0.0
6.378196825372041 2.907113079755629 0.0
6.269817199014261 3.12412150658573 0.0
8.793149127377946 3.255386294257182 0.0
8.725774239201558 3.141596687892195 0.0
8.857434600673502 4.041295940541356 0.0
8.802868937128341 4.1471119953668 0.0
8.532045262478793 7.7905977476835 0.0
7.364542641624493 2.699128473342751 0.0
7.571677611088925 2.695732556686516 0.0
6.723058333614999 2.672341359410618 0.0
8.456744924757372 7.94483904450548 0.0
6.140831279784704 2.921247401137864 0.0
6.02419219050745 3.14358702955763 0.0
8.916255604212301 3.934279868822481 0.0
8.859287250884009 3.140226640574265 0.0
8.791092798057303 3.025929352146465 0.0
7.210445465986021 6.245773134960393 0.0
7.120884161792869 6.385155584680196 0.0
7.036931702064287 6.240721609143972 0.0
6.943722280007011 6.3869279517155 0.0
8.920094519678617 4.144837222494242 0.0
8.864374107136287 4.250930406527029 0.0
7.347569838739255 4.463467417508182 0.0
5.90383431757064 2.935113219563906 0.0
5.783476009580765 3.156456199832474 0.0
8.626013191558314 7.935092223505354 0.0
8.687240186957197 7.796697889991163 0.0
5.642059327424706 2.903018174330269 0.0
5.52647853955939 3.162549070310043 0.0
8.555300051897738 8.086169516016518 0.0
8.405624441178524 8.083972416481254 0.0
5.374124307190728 2.945480555950917 0.0
8.935805220807357 3.249260758206028 0.0
8.981625171409894 4.247375537584228 0.0
8.924725364486765 4.352101286657735 0.0
8.807208588134106 4.356163101450244 0.0
8.868277832430604 4.45657124153171 0.0
8.75099635287701 4.460644845248524 0.0
8.812385950597063 4.560891222623518 0.0
8.693833206943118 4.564602972998703 0.0
8.756474732548273 4.665720853686476 0.0
8.63721608225855 4.669394550615355 0.0
8.700108119351134 4.770682016274914 0.0
8.81920502916846 4.767536120893284 0.0
8.76355311338807 4.871451945248518 0.0
8.881442328033694 4.868382238751069 0.0
8.826433523510634 4.97132552240372 0.0
8.943387824985514 4.967694248194483 0.0
8.888718468126953 5.071044784833541 0.0
8.580377663835254 4.774669738817985 0.0
8.770572242937233 5.073880380431421 0.0
8.832915096600454 5.174518948293615 0.0
8.952224483821848 5.170970838320107 0.0
8.897282771771884 5.275476392171722 0.0
7.463928467290875 2.513944501591933 0.0
7.675935950092034 2.509420347143072 0.0
8.924252417741767 3.024418701372628 0.0
8.857265893102921 2.911213535286156 0.0
8.776981063213334 5.27944309004916 0.0
8.840710910770163 5.380165700477552 0.0
8.960876896785969 5.375521424256389 0.0
8.904555918255223 5.482125846038813 0.0
7.567193097677677 2.32750151280277 0.0
7.780880844888839 2.323064027160363 0.0
6.851602118390116 6.234522818184622 0.0
6.758680682687229 6.389359516748128 0.0
6.66345977321418 6.231254850996584 0.0
8.715764716958308 8.079994249772627 0.0
8.65189989696114 8.227534663647639 0.0
9.042229096541828 4.348551764001607 0.0
6.436774206993324 3.316782326998922 0.0
7.590527613340588 5.22651784724799 0.0
9.024366884701616 5.476726561488805 0.0
8.968734351641839 5.583879050892151 0.0
8.845941080047659 5.586406316932274 0.0
8.909881305857882 5.690482454668167 0.0
7.348726871578975 5.44047403999932 0.0
6.567070253986433 6.398115757512583 0.0
6.697077150072261 6.553426749743366 0.0
5.252377383990728 3.187782967482479 0.0
8.988440431820699 2.908621158637298 0.0
8.922541972760119 2.796420836075996 0.0
6.466806010659505 6.229115583261771 0.0
9.033851153821296 5.686506775615425 0.0
8.978340519963718 5.795772485582058 0.0
8.85111463793018 5.798672910287243 0.0
8.922171984280597 5.907237880910408 0.0
8.795190680908043 5.911854068712683 0.0
8.864373398892472 6.019728357749566 0.0
8.991346995940626 6.014539153309398 0.0
8.93374019140187 6.12698887312768 0.0
5.095192648098848 2.952353430985476 0.0
7.672651464908932 2.141715359830917 0.0
7.886266921042761 2.136211284120189 0.0
9.098474286589756 4.245971410451114 0.0
8.813172564986438 8.216887361735234 0.0
8.74802978243154 8.366104673219047 0.0
9.059985162956899 6.120982589539211 0.0
9.00342813739303 6.233245043891739 0.0
4.961413514304496 3.214209167276753 0.0
9.05248113004685 2.794651022570942 0.0
8.986028039118027 2.681341972594222 0.0
5.671890458441996 3.377122473800023 0.0
4.755829262593116 7.184480462344647 0.0
9.158258644940048 4.34465968221255 0.0
4.799687186662534 2.961354824469195 0.0
6.030554747591715 2.726787502996874 0.0
8.938327180212585 8.34758372042188 0.0
8.847392320655468 8.503370672816716 0.0
8.67342124373679 8.518117686968314 0.0
5.234423106934083 2.694925204361751 0.0
8.964923046453565 8.185313058214797 0.0
7.456650986668838 2.134076476407834 0.0
9.111732084821366 2.897226832609386 0.0
6.368055837513985 6.402805870976705 0.0
6.265629899005033 6.226581076317183 0.0
8.736327196352686 6.026404178766982 0.0
9.117473097358854 2.67987006607594 0.0
9.052137415465204 2.565428515518978 0.0
7.781001557847192 1.955874236406257 0.0
7.992134447300669 1.949184538864554 0.0
8.593074792993455 3.143159483125708 0.0
9.1291360203536 6.226877897052981 0.0
9.072154326613617 6.338696745620542 0.0
8.916532550320525 2.566986282201109 0.0
8.984021113721658 2.449252898983242 0.0
9.178032243215632 6.120533546076094 0.0
9.213703592343162 4.244823670856978 0.0
9.11972142641474 2.449071238668887 0.0
9.052853896812186 2.33190758581705 0.0
8.635035926402708 4.462329956179506 0.0
8.773614475966344 8.657865377672689 0.0
8.596400917257634 8.67759750279447 0.0
8.942023339420883 8.644678093589654 0.0
9.19471670675691 6.33096438039349 0.0
9.138460613363325 6.443043552768813 0.0
8.66620319432524 5.916297234509582 0.0
8.606669825267202 6.032658196729024 0.0
9.27222540210304 4.341341907533128 0.0
9.013782808177437 6.451040569407859 0.0
9.08360982569773 6.55729980456602 0.0
7.885622149776354 1.768093045890686 0.0
8.095672144455353 1.768790621151345 0.0
9.208772072925791 6.549717411809656 0.0
9.154272208194383 6.662613503537815 0.0
9.187669783927937 2.334640996932141 0.0
9.122379015831417 2.215832190697178 0.0
6.164077036161143 6.404611236428829 0.0
6.062367614988677 6.224307160647549 0.0
8.987075041759633 2.211477580983978 0.0
9.056972755801603 2.093573581203428 0.0
9.194557288902232 2.096029761809264 0.0
9.131223008370409 1.972713028695079 0.0
8.87381302587057 8.795793668920256 0.0
9.039169086943392 8.781606667490083 0.0
4.662813350519927 3.228118291851354 0.0
4.474181267994617 2.945703616023359 0.0
6.562627723301209 6.075544382232434 0.0
9.326886053211574 4.243083624343211 0.0
9.280374192897945 6.656072830232892 0.0
9.224718905178564 6.766740750539347 0.0
4.703284910421452 6.528907865005451 0.0
8.955136474970331 6.565989985649191 0.0
8.998148826814893 4.865480736169776 0.0
8.99429836796776 1.965972383552685 0.0
9.065669391141741 1.847195105148808 0.0
9.207236162050343 1.853010386995843 0.0
9.143218073349985 1.725630086781897 0.0
8.998867447699345 1.719378449325465 0.0
9.082595782768397 1.592017827427701 0.0
8.92804562738841 1.585238202229766 0.0
9.01637794607019 1.453847302675876 0.0
8.854253119154375 1.446306868730686 0.0
8.941620273019874 1.320083886766936 0.0
8.775393064215876 1.308487027359826 0.0
9.102170347200483 1.324733726345249 0.0
9.013857060361985 1.178821526410403 0.0
7.991031819452564 1.587689878441685 0.0
7.767218744640202 1.595993197647291 0.0
9.191539171305216 1.194087248761656 0.0
9.123965901037613 1.057102462689568 0.0
4.853921953226772 3.470213116851758 0.0
7.496563223334782 3.470157221608763 0.0
8.536691379028115 5.921845852206257 0.0
8.475496498707471 6.037633662010236 0.0
7.978668526342969 2.307231488316941 0.0
9.384721922092124 4.337357165846226 0.0
9.331039180200886 4.435926256444196 0.0
8.546261775564837 6.150267290476958 0.0
8.411727261785726 6.155319300628062 0.0
8.972203609044218 8.930944433074036 0.0
9.133480321468399 8.90955269607895 0.0
9.197778815538276 8.768743880012563 0.0
6.162231825784922 6.05277753404107 0.0
5.962111081146334 6.046949845237622 0.0
9.268727788642101 4.146883230687689 0.0
9.380694211527906 4.144811697563401 0.0
9.323823335199954 4.049557759546529 0.0
9.283324894520613 1.736313094621396 0.0
5.858151623803662 6.22041808248046 0.0
5.759668475561988 6.038806123495502 0.0
7.836860473863919 3.191674397465999 0.0
9.348591928839294 6.75855034547469 0.0
9.293979592221298 6.870213350675044 0.0
9.170543172728557 6.879819332293818 0.0
9.240028263813034 6.983394994050525 0.0
4.347372565145963 3.312731475520695 0.0
4.114183445909965 2.96879678229065 0.0
8.616264880152233 4.042035981070631 0.0
9.403174760076901 6.650407069150438 0.0
4.173860112179449 7.723461240865885 0.0
9.365302975518428 6.973476802087294 0.0
9.312420275675276 7.088420778208979 0.0
9.184876614539778 7.0978133687822 0.0
9.25921281729617 7.204979813006656 0.0
9.12816413817609 7.21569648263899 0.0
9.203944409919862 7.322703303071253 0.0
9.334311975087337 7.311477957762272 0.0
9.280415785210538 7.428795599957155 0.0
9.274060219641907 1.066603180421249 0.0
9.211820491509728 0.9316562593680151 0.0
9.050684011148748 0.9017681241401576 0.0
9.441953732403995 4.432092590771756 0.0
9.394725873909666 4.526051349391942 0.0
9.43453556160865 4.048003950509361 0.0
9.378043599351757 3.952631412328806 0.0
9.289691247910705 8.890746792319852 0.0
9.228148443138926 9.030109127390128 0.0
4.440757888677695 6.389562448928118 0.0
4.689874463978985 6.239329075084555 0.0
4.291519540095677 2.622920583112654 0.0
3.886073352912894 2.632778677714434 0.0
9.344015622314338 1.202401041544343 0.0
8.193292196814806 3.849649660906171 0.0
6.960946604527747 6.07044529864598 0.0
9.347708267319902 8.756364147482309 0.0
6.826423138602714 3.261415861395883 0.0
6.06309517882478 5.884563187328262 0.0
9.4085057714426 7.414123963607981 0.0
9.356416821537886 7.532359471354527 0.0
5.042074134251055 6.938947182785697 0.0
5.063988238156824 7.311205832605263 0.0
3.946666851334923 3.30681624613374 0.0
8.189857914071878 1.939951128540477 0.0
7.880690277686857 1.38928908049477 0.0
7.63766396748483 1.399736360041063 0.0
9.345004233592562 1.857695941115052 0.0
9.440465164139875 7.085860901905448 0.0
7.918332480761888 5.744468010879592 0.0
9.08007135068879 5.372457017512481 0.0
8.78639561093144 3.718391405525285 0.0
9.356843485085705 0.9414458825132457 0.0
9.29705128845331 0.8103081541678832 0.0
9.251825423225316 2.451701826351773 0.0
8.483895366325516 6.270717564685176 0.0
8.346386886249478 6.275973306650227 0.0
9.493299170161215 4.138582531223591 0.0
5.321115649032961 7.117073603021904 0.0
5.354076009109965 7.436189411362466 0.0
5.597984079819928 7.254284331170681 0.0
5.644042313435943 7.564172740776336 0.0
5.383963016128051 7.753854027984002 0.0
5.681168258142109 7.880444993178456 0.0
5.935548099874979 7.687258900444162 0.0
5.979508404301389 7.994332725561488 0.0
6.21936843555201 7.802335560754011 0.0
6.267092590637372 8.104873033518185 0.0
6.498845418385807 7.917606504106031 0.0
6.544600005636809 8.209910620392591 0.0
6.77336078689533 8.027284686082275 0.0
6.814840179123049 8.311778392637773 0.0
6.721304148677048 7.737863326704131 0.0
7.031320924898797 8.1335673274533 0.0
7.077388928622946 8.403901803728003 0.0
5.417471987089176 8.090112295667405 0.0
8.845427688507666 2.446352368201366 0.0
9.318512319918124 2.339233739859646 0.0
9.380241452597096 2.451895615249572 0.0
7.283805558009199 8.237518806365102 0.0
7.329200330160381 8.497045124353782 0.0
7.233272584416691 7.991590926766813 0.0
9.142592248414191 5.471315142785471 0.0
9.196303265878848 5.36738298742727 0.0
9.25795832955665 5.465260877691205 0.0
9.310581303233182 5.36341558704714 0.0
9.371094700882272 5.459458038195667 0.0
9.422767107822985 5.360687090455724 0.0
9.36402660964156 5.264821436196721 0.0
9.474220736978928 5.262802348886269 0.0
9.41680330511366 5.169477108906666 0.0
5.168675939028436 4.895496152382537 0.0
9.482591449057548 5.454699312257291 0.0
9.431567605310825 5.552723344040521 0.0
7.531449703396948 4.741663470323411 0.0
8.517293123442691 4.672601123164268 0.0
8.459978676626639 4.778466809901586 0.0
8.396595115309985 4.67568709170855 0.0
8.338966609235166 4.782101664607259 0.0
8.275355646032752 4.678829956447008 0.0
8.217675280223542 4.785699596769931 0.0
8.28149024865807 4.888803783902183 0.0
8.16019781596952 4.892696417098926 0.0
8.22433278506531 4.995725219088695 0.0
8.102825704443651 4.999629142625341 0.0
8.166887930010795 5.098242831115916 0.0
8.034904900788316 4.896825406879729 0.0
8.15353539905931 4.682103688185489 0.0
8.211891449058882 4.574219757233394 0.0
8.290305306104333 5.094007100958221 0.0
8.225684228618732 5.201525567655179 0.0
9.444618942559746 2.343141375196729 0.0
6.929446520625337 4.868116916840016 0.0
5.737810725167649 4.893891407574175 0.0
8.720389971487277 5.38508368411851 0.0
8.805734920311323 8.951818172412821 0.0
8.905272694453211 9.083303226359831 0.0
6.006155038818204 5.171375272745409 0.0
6.431496448228514 5.152985998213245 0.0
9.052675024457304 7.106590131831544 0.0
7.740007013494393 6.09727525827826 0.0
9.375852260355511 9.013078430361404 0.0
9.32035844773103 9.14584923943073 0.0
6.989707597683965 5.146377438798643 0.0
9.488190206836386 3.951168069367155 0.0
9.432429152094464 3.855725756072153 0.0
5.568386402814275 5.185723849666124 0.0
9.525561551078322 5.166162126187324 0.0
9.465026391994275 5.072601962964018 0.0
9.320357339516937 3.857795423728873 0.0
9.375955927831914 3.759314274140895 0.0
9.261783786753899 3.761412578759438 0.0
9.31820665563318 3.661845422072752 0.0
9.431798673168924 3.660830894813109 0.0
9.374584413615914 3.563138564686839 0.0
9.48759661134647 3.562294297118573 0.0
9.431339678707085 3.464016717943268 0.0
9.417896212887529 1.746970678437863 0.0
8.731705369070733 9.110902182838881 0.0
5.652297951447118 6.21188565774667 0.0
5.569122518069258 6.024400786163834 0.0
8.257007204149394 3.505875091031567 0.0
8.717428603143034 2.925525757227976 0.0
6.882852832747376 8.57686572931064 0.0
6.337330066435714 8.416819098143066 0.0
9.50188906539997 4.521022403818629 0.0
9.453500859905136 4.617181635748691 0.0
9.46806769570129 6.749352117850711 0.0
8.836822104875719 1.72282859852854 0.0
7.481071063421426 5.64593758994851 0.0
5.668814988976305 5.86611128457842 0.0
5.487644760735084 5.847591822776978 0.0
8.993992818065195 7.228173913870249 0.0
7.98322414937693 7.229980191466666 0.0
9.22810751684646 7.54864871395298 0.0
9.304103360459063 7.654622011545798 0.0
9.432787371848761 7.633691049023619 0.0
9.382619818023882 7.759136995934441 0.0
7.239096822516492 4.679179578301165 0.0
9.47692479956498 1.861231395362419 0.0
8.041243110813022 5.095895152648969 0.0
6.190208781188077 7.509864122823853 0.0
9.283062812782122 4.549418667685757 0.0
9.503847665760087 2.450295046295932 0.0
9.443345385250678 2.557904120404248 0.0
9.52009568463353 6.644015937008899 0.0
9.203119005973903 3.662458522935253 0.0
8.406198651282708 5.92630414760378 0.0
8.467263597743843 5.811987729136874 0.0
9.461423029059445 9.128120577356565 0.0
9.408445330070542 9.26024300250086 0.0
9.266505293379728 9.277952925446408 0.0
4.14874709022218 3.631681332690154 0.0
9.437448107949258 0.8198473430736303 0.0
9.376993771693973 0.6910550697058979 0.0
9.22882356848217 0.6931820370818127 0.0
4.451823867195988 6.103664366188579 0.0
4.200031743909027 6.232039028149317 0.0
4.687154754667774 5.975132870483986 0.0
6.268889397098538 6.592235545990395 0.0
7.509366161722768 8.340075462391164 0.0
7.564775703413765 8.59800936579159 0.0
9.542148732924264 3.854614593058991 0.0
7.036231103929761 6.550562550831048 0.0
4.089373665437328 2.268193930262139 0.0
3.642558884866483 2.250386188148396 0.0
3.442182385618804 2.651948803899947 0.0
3.146832503011753 2.222630466765926 0.0
2.948870467975985 2.805088883766417 0.0
9.352005315330274 5.067356449300542 0.0
9.31729677031493 3.462944187594675 0.0
9.37428383619102 3.365546369736205 0.0
9.4883538239391 3.365384871181599 0.0
9.432147665178338 3.267287636377487 0.0
9.25034519267688 7.775848812012313 0.0
9.332091350002502 7.881724023243533 0.0
9.462101000264603 7.86490055671988 0.0
9.413353271651825 7.98561007219363 0.0
8.273592814723814 6.158623919352561 0.0
8.207135014732339 6.280394934566054 0.0
9.541483811580331 5.548224291759592 0.0
9.491365919893726 5.644847811894615 0.0
8.088095771120983 4.577581369371366 0.0
8.14760102783746 4.468303741922308 0.0
9.556217963323956 4.414867468889523 0.0
9.543667331547693 3.266908751519594 0.0
9.489307652535885 3.169908976697059 0.0
9.26285575842982 8.635341362685686 0.0
9.403220742003983 8.621447866627538 0.0
9.326013417886902 8.506778946171965 0.0
9.455477927154853 8.503896705359047 0.0
9.566646674069602 4.611465258087684 0.0
9.499341049870914 0.9352184973273918 0.0
8.683891958597638 1.444705608998412 0.0
8.599973456173778 1.287265568270043 0.0
7.760988189317371 1.175381292562583 0.0
7.50927661322749 1.171223823957793 0.0
7.380927152434357 1.411062577009695 0.0
7.242417847270241 1.170759311509981 0.0
7.107236746116019 1.421234419770886 0.0
6.960799033544566 1.169618322344823 0.0
6.817786081200392 1.434174581170586 0.0
9.48095050141868 8.738557748483624 0.0
9.319762046171894 3.263060331456388 0.0
8.920653400180534 7.117307656029475 0.0
9.452431221190624 6.544166520883111 0.0
9.571407933653493 6.540336592280795 0.0
9.507586285214174 6.443281357841339 0.0
9.575252974749443 5.070210512157044 0.0
5.755172844377253 6.370710487467459 0.0
9.541351959064952 7.969072511059531 0.0
9.354607289792183 9.3921968735401 0.0
9.495213435762107 9.37218405175897 0.0
3.77688136092967 3.643094492921176 0.0
5.460967180339239 6.159077196937325 0.0
8.656589552918996 5.283032675040985 0.0
8.599307076390474 5.387421722684671 0.0
9.584017606465821 5.263931993965828 0.0
9.51536593891754 4.977534386249715 0.0
7.788544970111893 2.70578432810479 0.0
7.381746833264364 8.755477463411431 0.0
7.615969996822885 8.852710176548548 0.0
7.783643411970649 8.691528137204457 0.0
7.845017394185501 8.938777577473743 0.0
8.570520580943368 7.342304222498308 0.0
9.103648004226827 5.781084627507008 0.0
8.338082930126799 5.815990105349368 0.0
8.930848895071895 4.561111316304916 0.0
7.381089602119859 5.983657236035151 0.0
8.42066837692862 6.393608568217351 0.0
8.888256157021065 6.459558428285236 0.0
8.826495664731354 6.575679897210801 0.0
4.22522220414496 5.921354747981145 0.0
3.943296448343383 6.075578573904587 0.0
9.563175937841836 2.554860696349795 0.0
9.505342423182917 2.656889632284623 0.0
6.660863480070611 1.168750929063519 0.0
6.518316961679488 1.436478598119306 0.0
6.683474168246802 1.694104067636375 0.0
6.376799057174731 1.707382100972048 0.0
6.205091481342603 1.443621641108414 0.0
6.058670988071357 1.728841803855816 0.0
5.877457486049096 1.454297236926778 0.0
5.724979192982589 1.756666409586195 0.0
5.529885788012015 1.462283739157555 0.0
9.514953777019835 0.7018468683209754 0.0
8.398665270372675 5.702731562702358 0.0
9.456442249775696 0.5772068858285652 0.0
9.565795671866349 2.345573662774494 0.0
8.830758563027459 9.247271599108435 0.0
8.523580738257648 4.88015211128435 0.0
5.580123316488715 5.701889892660689 0.0
5.398591029446707 5.685938459654249 0.0
5.367686360823392 1.778740548277203 0.0
9.546603444041448 1.754984055696778 0.0
9.489649223089446 1.641312329051244 0.0
9.617973952467912 3.363804764345866 0.0
9.584322830999731 6.729956156156573 0.0
9.597221861144487 3.948534024289882 0.0
9.49401963819799 8.089507968561776 0.0
9.207321074262563 9.416906871900888 0.0
8.27185428346661 4.464932191097996 0.0
8.207416067213774 4.35878753684812 0.0
8.332747746635944 4.354903699457511 0.0
3.990181919126853 3.930792395858886 0.0
8.267392138262498 4.254008221702929 0.0
7.997788712685495 1.196805377512679 0.0
9.600316638269724 5.639973985281733 0.0
9.550939606739425 5.737313319038155 0.0
9.44084303195315 5.74233753256161 0.0
9.50112296154558 5.834555019909565 0.0
8.897429225733994 6.685415510921676 0.0
8.762930941408914 6.695907295903629 0.0
8.654628175336732 9.278157371342388 0.0
8.544676900803436 9.133790942553834 0.0
5.294904777716057 5.855935872688884 0.0
5.216749389964556 5.66865685845661 0.0
9.508453581298625 2.239460033375932 0.0
9.599691370793206 3.169496930704394 0.0
9.546615051106684 3.073514534194011 0.0
7.484714626923596 5.028675123117963 0.0
9.588496050271255 7.850836295555126 0.0
5.153197381012662 1.471340286561097 0.0
9.433168304679345 3.071871997104804 0.0
9.610464706874994 5.829217654498672 0.0
9.561407772947403 5.926179534044419 0.0
8.273381980676042 5.705233340662362 0.0
8.330794188929296 5.594351887246082 0.0
8.207319603076424 5.596747949305344 0.0
7.251338559467102 5.233758892662348 0.0
8.708518799790543 1.130513882092466 0.0
9.590155250193266 0.5878623138195824 0.0
9.389919385420015 5.841079912164009 0.0
7.991397852194216 5.859910582924319 0.0
9.624951589233206 4.975554514425905 0.0
7.240016788025947 2.531866266726309 0.0
7.635666783493215 3.873554782053258 0.0
9.608476620993713 1.863530872936442 0.0
9.365330459496413 8.10677840682376 0.0
8.775076110585598 2.572737931759856 0.0
8.699389445914996 2.444602334375113 0.0
8.625078713232146 2.580891022578613 0.0
8.54447196848446 2.447624719286678 0.0
8.468898498943965 2.586757328881282 0.0
8.62282309213608 2.307826916202421 0.0
9.622102662978762 6.439307895185218 0.0
9.561995355724862 6.35103962032292 0.0
3.898245450818314 1.856155797593496 0.0
9.681759177700954 5.07069253017652 0.0
9.059254996454502 4.963357716933865 0.0
9.113144532326562 4.861710138088372 0.0
9.62140874877204 2.656009146517733 0.0
7.884510615470827 0.9666888912541309 0.0
8.14902661050739 1.005010215149227 0.0
8.491263206618079 8.527197931363634 0.0
8.408859203395778 8.697060715788105 0.0
6.54422152733529 1.954566069381189 0.0
9.563546573097593 2.755667904356369 0.0
9.453065492925557 2.761122255953964 0.0
9.676889098520615 2.755084315170127 0.0
9.678287124781653 2.556838324720633 0.0
2.60254317790297 2.278874965850319 0.0
9.211706272534968 4.050470567310489 0.0
8.526711683538949 5.698821878547752 0.0
8.296604023060945 8.533761944401608 0.0
9.649704314258118 5.543946557831669 0.0
9.651176136337964 3.85122804518279 0.0
9.44590154800397 9.498503704959054 0.0
9.580491248736612 9.476376347552954 0.0
4.3239388803087 3.921156392977062 0.0
9.65737873521736 3.075324100817917 0.0
8.128000846282253 6.160273991836929 0.0
8.06242981852327 6.292371360998262 0.0
8.500465019503922 1.442700595221201 0.0
9.615253212967009 1.649819368149096 0.0
9.561768620580791 1.538553925606111 0.0
9.435477757657937 1.527391516499924 0.0
9.627993450010088 2.242685831452484 0.0
9.5338252733548 0.4673994795805215 0.0
9.398055066504014 0.4589059948533885 0.0
9.669486082509058 5.920177035588319 0.0
9.621072177439727 6.016493814615133 0.0
9.506185962103057 6.018397021409126 0.0
9.196884440497488 7.898824858961557 0.0
9.112591143666748 7.789491461180181 0.0
9.664357762385308 7.950712034233033 0.0
8.46233617997115 2.308903464128035 0.0
8.547917980328803 2.169381684694277 0.0
8.139931430059324 6.410762600521521 0.0
7.672499127532963 9.099143622036436 0.0
7.91372855627271 9.178704612763656 0.0
8.463425076318451 9.290653726808348 0.0
9.643938029094286 9.335632419679458 0.0
9.647017668702574 0.7068996148634754 0.0
6.241662276606473 5.884018212993202 0.0
6.157742245066693 5.73500474100449 0.0
6.318815619949124 5.730068085823802 0.0
6.247706374231452 5.593094310939028 0.0
6.406948541886973 5.593272398468375 0.0
6.092564106310554 5.587409338401505 0.0
8.535507922245372 5.286142900439676 0.0
8.022959839404006 4.471630490587016 0.0
7.963561162854596 4.581393556789843 0.0
9.683487139413305 1.546750704925431 0.0
9.630761777960082 1.435922217091829 0.0
5.121714348989337 7.950140247572198 0.0
5.136464096196084 8.310254432483559 0.0
5.47349124035624 8.455234262268478 0.0
5.176273618280354 8.687190323573228 0.0
4.796664658962938 8.592678692862421 0.0
9.568705729418735 4.887269869750176 0.0
9.462711651199594 4.88832222094458 0.0
9.674903475028225 4.882285174433025 0.0
5.4996067353406 5.546583260717527 0.0
5.663632234555963 5.557613452957074 0.0
6.829408195405585 1.947174574944512 0.0
5.336529198289861 1.127585641139875 0.0
9.672387559812332 6.34138351957329 0.0
4.463988917379896 2.271060678869338 0.0
8.618048281355405 6.263841736419089 0.0
6.480949808711781 5.74815588680617 0.0
6.562207427719153 5.592185077216444 0.0
6.643040463857446 5.721233693378952 0.0
6.712825900331884 5.588664360236 0.0
6.79240375630333 5.711383948285569 0.0
6.86115931532141 5.584697050428064 0.0
6.939210100691576 5.704407337029545 0.0
7.007668476576536 5.580801046893123 0.0
7.084627386867475 5.702817970154801 0.0
6.633257976075473 5.460881327825488 0.0
6.931430743764456 5.461960451448691 0.0
9.682652370938209 6.533133024505995 0.0
8.761108695241376 9.450742747770144 0.0
9.146031326900015 3.764292700000154 0.0
9.089378801805193 3.661317181076136 0.0
9.514354521818781 8.994988681611192 0.0
8.157650730500988 4.262987189670279 0.0
6.329633198899328 5.4647789391701 0.0
2.340685767996258 2.811285337457589 0.0
7.379572471323651 0.9290892725587991 0.0
4.171878172186605 4.222320767259098 0.0
4.4876601621649 4.16473354200826 0.0
5.336389369563535 6.806464508860387 0.0
9.595468321212476 9.108133206829102 0.0
9.645038675267227 8.982113951305912 0.0
8.393140678816192 4.246338342095281 0.0
8.309440721624494 4.155300532283633 0.0
9.418269339704423 1.9925512363779 0.0
9.662781807969623 0.477809346089035 0.0
8.011297869803792 0.7518828483803571 0.0
8.250149975885678 0.7646904662196189 0.0
9.608674873602773 0.3618049194050078 0.0
8.692696069692623 6.582927327365709 0.0
8.628225948401226 6.705702462696891 0.0
8.701883181418305 6.822086652299242 0.0
8.559276855155542 6.829564723911442 0.0
7.069268463354993 5.459534423493629 0.0
2.654575201159115 3.323490466195074 0.0
3.610801136544596 4.044075244426243 0.0
8.263757217166944 5.48730323490738 0.0
8.138838162809126 5.491254533497952 0.0
7.90196833683664 4.477386962763833 0.0
7.987943097943191 3.978756490171551 0.0
9.704623491880403 3.945605151832784 0.0
9.461009573830147 7.301728818091931 0.0
9.532468631193666 7.399916015174975 0.0
9.582688928417856 7.292330983701011 0.0
9.652579613269625 7.387768793572397 0.0
9.699264016151023 7.282867433965265 0.0
9.633305589700536 7.188543855060478 0.0
9.505576100168666 6.961225778216469 0.0
9.43876966151099 6.342441564206569 0.0
4.908483672172518 6.098703904450545 0.0
9.135448256237908 5.269827196966999 0.0
5.905650502271389 2.025036080946255 0.0
9.709890722072377 9.452748507541063 0.0
9.663337613522643 9.572126259365891 0.0
9.603900123387826 7.495180532331903 0.0
9.720147629525837 7.483400774981126 0.0
9.674588415444239 7.588303295299578 0.0
9.653186673863587 4.039274180923234 0.0
9.053164539680804 4.764545162185531 0.0
9.164908495749003 4.763017269285045 0.0
9.226019227262443 4.858029410614327 0.0
8.809947621994619 3.4964384919072 0.0
9.10538997155458 4.665865142902959 0.0
9.331074106432244 5.748993480915537 0.0
9.055854333858068 7.918554535314415 0.0
9.446431573964945 8.209836764658437 0.0
9.573844810886287 8.191100251691205 0.0
9.309704769895653 8.244395007943949 0.0
7.240329561730736 1.676197957122907 0.0
9.543389817573933 3.660019800390455 0.0
9.598599341122098 3.563130123982772 0.0
9.652615161407017 3.658119804270645 0.0
9.706336063693934 3.564815526226687 0.0
8.632284427755456 6.946688912416058 0.0
9.682863230715835 2.349655023034811 0.0
9.571538455120994 2.142369886250143 0.0
8.090821900439733 9.017409120951333 0.0
6.812258669899192 0.9007667548831626 0.0
6.50135254578461 0.8974046495177885 0.0
9.598335906230732 6.246437748035812 0.0
9.719677442549804 6.253968775436637 0.0
8.593026822691716 5.180101360605356 0.0
5.537586126848265 8.836083861509138 0.0
9.688689404995035 2.143487155934306 0.0
2.821389253975936 6.507820864074362 0.0
9.176571289960709 8.507736431357309 0.0
2.918303740542162 8.256728920338826 0.0
3.428955230180972 8.401446814887457 0.0
8.490587404589881 6.715350139132777 0.0
8.86049054904785 7.243279881821806 0.0
8.93696309213556 7.356650230611625 0.0
3.951931175165697 5.78308550088855 0.0
3.65055612573298 5.91672400098539 0.0
3.668142216548471 6.247526235973777 0.0
9.717269848920886 5.821831227352286 0.0
9.708364917734201 3.164198601626433 0.0
8.45581975650687 4.569560863828342 0.0
8.204448312099833 6.040774355519757 0.0
8.65969449127868 5.485991799508151 0.0
9.707534571012967 5.634423933296901 0.0
9.62102991883279 2.849662850313935 0.0
9.144093558002634 3.560383427867003 0.0
8.29763273805118 1.77155302934031 0.0
5.280452715709455 9.01633391004168 0.0
8.984558945859158 6.99932633710603 0.0
8.4157550875812 1.275784953143711 0.0
2.068078118650995 3.355462780535101 0.0
9.205703884756806 5.568274778556933 0.0
9.745857863753141 7.178456670302003 0.0
9.681628895748586 7.081494416756802 0.0
8.875818787971069 6.240744812097083 0.0
7.993733797566922 6.414830952863579 0.0
8.462810157069566 3.377071044664789 0.0
9.29428363519789 4.759591981903337 0.0
7.933956818298286 5.97437536746848 0.0
9.028281726378319 3.558713145763133 0.0
9.083461773461467 3.455531762175701 0.0
9.73231939683535 2.849247643393067 0.0
6.70072305037728 2.192432536215492 0.0
6.423245125077639 2.212870246546939 0.0
4.931537051605536 1.135086496804522 0.0
4.746426561586179 1.500381091957315 0.0
9.707706579932626 7.836419656220658 0.0
8.590593344701457 1.595639668013959 0.0
8.708946574109854 2.1688179918246 0.0
8.634728854549891 2.028564483452208 0.0
9.230357659411311 8.129337203173913 0.0
9.102841374461482 4.452881308250647 0.0
8.472081531214734 5.388993924853032 0.0
4.925996806199801 5.844046944846857 0.0
4.702806345752284 5.745688656289065 0.0
4.884357002239844 5.633237011762874 0.0
4.709628434300812 5.536404116679045 0.0
4.530800966746534 5.627044171217377 0.0
6.040296145349247 6.603808099703576 0.0
6.162203578696918 6.795213950202512 0.0
5.923135943221574 6.824060069869489 0.0
6.046693245732212 7.010423490915212 0.0
6.297337598588478 6.979895528204233 0.0
7.760448385794147 0.7294020304851334 0.0
8.492228348169641 6.958778476405878 0.0
2.89219822877093 1.704113597264478 0.0
2.26178643438086 1.7814602252425 0.0
9.726968895980871 6.009547057102511 0.0
6.63195110828313 0.6072886418835157 0.0
7.984023036954866 7.515675826210831 0.0
7.893857204140559 7.681876703427663 0.0
7.778465117872411 7.537836322197895 0.0
7.998204230811618 7.844922503023499 0.0
7.798554315988981 7.858161805718108 0.0
7.917846202023782 8.03040048103727 0.0
8.547520504556728 2.721261126162116 0.0
8.39253850806587 2.732073315877738 0.0
8.306047241032278 2.59069854402512 0.0
8.233011054235162 2.739783364361515 0.0
8.318836035587811 2.879838477099622 0.0
8.159530874574331 2.888511553151382 0.0
8.245490421394788 3.024568439743106 0.0
9.759103003747676 3.077839427881478 0.0
8.083610090773394 3.033523757291178 0.0
8.174562583800352 3.166768504406541 0.0
6.046769434852523 1.155662270344939 0.0
6.968371001421964 2.176347877216873 0.0
8.324858098380334 3.152966249334499 0.0
8.145556596142626 2.609897633546475 0.0
8.970652052821418 7.804556541250797 0.0
9.033737629244714 7.681328986528639 0.0
9.62347010002576 4.796939565664328 0.0
9.72520380348743 4.790261082613535 0.0
4.882631186210167 5.455006233451049 0.0
4.618356368594037 3.933076284395493 0.0
4.748083507220199 4.151025177732873 0.0
4.641724290430313 4.358202249373887 0.0
4.87055838101999 4.337900676660481 0.0
4.974114446887331 4.149149057174687 0.0
5.081577844806959 4.3240148266423 0.0
5.179521650033781 4.148725180298481 0.0
5.276261408871418 4.316673822529601 0.0
5.369189110897883 4.148362797753505 0.0
5.463892033849439 4.338819369807593 0.0
5.550828466075906 4.146274465971151 0.0
5.646554822352869 4.303571429647391 0.0
5.728109623160046 4.138582010823754 0.0
5.821689108984419 4.291959598724587 0.0
5.906082534948073 4.141649907302701 0.0
5.99655838673762 4.288752711512514 0.0
6.077312859438928 4.141011188943332 0.0
6.164215275138099 4.281164574562373 0.0
6.241782344986693 4.140701084167517 0.0
6.324316420613108 4.277393447415522 0.0
6.40284165425941 4.140026953305852 0.0
6.483655157361099 4.273418937894759 0.0
6.561170698911611 4.136221843106807 0.0
6.63512300179586 4.269917278694155 0.0
6.720306110251473 4.133393659385058 0.0
6.63777078218551 3.99617001426095 0.0
6.802492763973074 3.994355399489989 0.0
6.798834760478153 4.276914787769972 0.0
6.15377608509923 4.000134206628027 0.0
6.548727135071258 4.400510710520637 0.0
6.251479300130713 4.421887359316258 0.0
5.275876048175579 3.979624500657822 0.0
5.910905077162284 4.431174408784691 0.0
6.717070288412452 3.851239795555301 0.0
6.883499045994213 3.852555480300214 0.0
6.96664848901999 3.994033961856844 0.0
7.048208567116626 3.854750001965969 0.0
5.810004974283072 3.982497501655442 0.0
5.586615391658107 4.471070246359201 0.0
6.547331954052155 3.853872077215347 0.0
5.179081233207816 4.485638492900557 0.0
7.126615227065496 3.995337770596979 0.0
7.209459742762513 3.856893463870469 0.0
7.130226097876905 3.713620439679428 0.0
6.63075064074106 3.699684148676045 0.0
6.446985573861992 3.697358756862005 0.0
7.043151422977365 4.131713936060725 0.0
7.198322215260019 4.129850614748363 0.0
7.119378405252723 4.26005098890218 0.0
4.797146270976422 4.525762781577414 0.0
4.608329098388589 4.573584257851931 0.0
7.294442092743627 3.720853338661503 0.0
7.215753312764997 3.571378507508807 0.0
7.049631633956289 3.568047985538775 0.0
7.133765707749521 3.414282375958479 0.0
9.755079417839903 5.539705890434435 0.0
9.698955703441971 5.450920012703194 0.0
9.717604099406742 9.09084770432896 0.0
9.276716006673976 5.847248422342224 0.0
9.339081208926798 5.941174203394446 0.0
9.031261921742963 3.750271483819014 0.0
9.08721978689863 3.853416037308712 0.0
4.801461566647803 7.510704110489921 0.0
8.206553504932042 5.818005960412773 0.0
7.362361315389098 3.863102442315545 0.0
9.492826845316191 2.963845037486267 0.0
9.376710375304633 2.97229517374228 0.0
9.3192743723601 3.070687802230453 0.0
7.915389082113898 6.293241865913004 0.0
6.735006382384437 5.832450056405368 0.0
8.456481836836168 4.35369289249905 0.0
8.517718268476031 4.246675068616396 0.0
5.583512022030555 5.411069060406398 0.0
5.73625200174779 5.422617752052123 0.0
5.81006929286229 5.548584937688919 0.0
5.903438861894402 5.420604003204523 0.0
5.43801870974416 5.402925156167655 0.0
7.022641548594327 5.825217331839047 0.0
7.165095795605366 5.826005223633447 0.0
7.223078558430726 5.690146755650336 0.0
7.841396000338385 4.586693006493787 0.0
7.904793170875705 4.690826189066096 0.0
7.785999820520073 4.696719777099973 0.0
7.846448506395101 4.798518978096564 0.0
7.728149182067156 4.803800941124008 0.0
7.788983823826226 4.904802634695232 0.0
7.672018889153144 4.910077510508749 0.0
7.731996012352178 5.014717724244488 0.0
7.852072803124419 5.00743796185411 0.0
7.779278698005006 5.118909346425974 0.0
8.088113864063853 5.605434545811022 0.0
8.016457362785575 5.494849890158723 0.0
8.072290383394757 5.385594956317259 0.0
7.95068657972964 5.38825563681957 0.0
8.309366678475389 1.438342408757099 0.0
9.748160780780179 1.447794693754379 0.0
9.696454228162398 1.337889922375316 0.0
9.568813761940916 1.329560834053294 0.0
9.638326779791626 1.226729570935787 0.0
8.472132467407484 5.182856496818138 0.0
8.066211547412054 6.53691730655352 0.0
8.217035586462373 6.522976700918602 0.0
3.544839338670893 3.324491119989469 0.0
6.999740002965287 5.347729916247808 0.0
6.874544698914502 5.347027470386579 0.0
4.880451234715014 5.193043717957879 0.0
9.104510033763066 9.313204713465637 0.0
9.0466357104558 9.45359399494339 0.0
9.146803165140184 9.569652364413551 0.0
8.134107047896672 0.5527712356100052 0.0
8.369770412730738 0.5571215815175228 0.0
8.47386979744655 0.7564607169846485 0.0
8.585193608569258 0.5749174254532757 0.0
8.683868132726584 0.75505070091701 0.0
8.787381435061018 0.5813987798627239 0.0
8.697570280442534 0.3771156480326233 0.0
8.530048434259976 5.077280516000916 0.0
7.995091351438729 2.90367515012593 0.0
9.731083608815164 1.662638626153251 0.0
7.260488865351954 4.255073962371814 0.0
9.760728358076392 8.990038509880067 0.0
9.716710396257366 8.884160310398862 0.0
8.794627466210242 7.369659405098349 0.0
8.868068657550866 7.515048014893154 0.0
8.702594597629135 7.510501129643432 0.0
5.132320689147051 0.7610757801158905 0.0
9.755852887652699 3.853180024615871 0.0
9.787424819067885 2.757921105725315 0.0
9.731193479931608 0.3736343090103709 0.0
9.796526908308536 0.489684029254899 0.0
8.226019692057042 2.453349105940535 0.0
4.560989821496479 5.428206018250252 0.0
4.348810639659689 5.517048281386008 0.0
8.785190163106925 7.119142251269924 0.0
9.015515413043023 7.464769766852701 0.0
9.754861440190705 3.659036930324926 0.0
9.7543610723378 4.033687839160082 0.0
9.707881226943384 4.127219992296752 0.0
9.52841017383273 8.309020665649431 0.0
9.65186044414544 8.289498614805698 0.0
9.714051275521857 8.173576484362068 0.0
8.209758892476394 8.715513071423135 0.0
8.097084883671858 8.548851201381087 0.0
8.177989947800599 8.367872862579052 0.0
7.974142434808908 8.36779470623567 0.0
8.409012054919861 2.142624252464372 0.0
7.707002321497132 8.039129945341395 0.0
7.574653123518228 7.83895791570255 0.0
9.229858094382692 5.951357214361815 0.0
9.75307989876696 1.229893222503321 0.0
9.715811155868643 1.128779429890018 0.0
9.597960915003707 1.117058287635912 0.0
9.672063923518955 1.020806103150243 0.0
8.99090422125785 9.593878510105375 0.0
8.133165456134304 9.257620998029804 0.0
7.976779931497633 9.420725324095141 0.0
9.77231778617502 7.927819487779705 0.0
7.957213679655531 4.364530256281665 0.0
9.609903116082736 8.403725680286847 0.0
9.724891358972584 8.388392708395173 0.0
9.687487059868507 8.495935345161797 0.0
9.810055520269009 8.494090598382963 0.0
9.755967487162335 8.599790818513082 0.0
9.645698986824481 8.606121319182705 0.0
9.721376049217765 8.699989876681524 0.0
9.773009257015609 4.884557953188837 0.0
9.830105798750992 4.796546393900876 0.0
9.775335108731761 4.686093304257503 0.0
7.455611517737074 3.730099283949135 0.0
8.906943567829634 0.4197477661467797 0.0
8.980613334153533 0.5814185917581446 0.0
9.081059111759728 0.4263421860552371 0.0
9.821654809259165 3.576985724143072 0.0
9.761309244784803 3.4792267780002 0.0
9.763329553045937 9.353068233045157 0.0
4.463051839136694 1.164440352584939 0.0
8.0213168204867 5.283436382300235 0.0
7.89385412333227 5.290429544753158 0.0
5.806940001023414 8.583716119232427 0.0
5.88977793877374 8.96065112858812 0.0
9.177759062826041 8.25539130897928 0.0
9.626582559276994 2.05283181283147 0.0
9.747673294325121 2.064954301745188 0.0
8.775905508647185 6.951821187702613 0.0
2.3581644273991 6.029034686663493 0.0
9.777798009058461 9.548066962498762 0.0
9.737129197219856 9.662299853506903 0.0
9.615080366030512 9.683349544763068 0.0
3.315839678697904 6.042943273456425 0.0
8.915083018115329 7.937748428923896 0.0
9.489832173860055 4.712364754630572 0.0
8.118313727862493 8.013944064029838 0.0
8.902248750797776 7.67372145952523 0.0
8.954075939212636 3.463080912810881 0.0
9.45247551997678 2.133243108303608 0.0
8.311151553157742 8.899233004613622 0.0
3.28672004268868 6.826745674539142 0.0
9.86008383798735 3.468233656255824 0.0
8.389990589860254 1.947086063498656 0.0
7.144231739553659 5.329544660076687 0.0
9.654500729007207 7.743301971143119 0.0
9.761920842881946 7.740144345898896 0.0
9.692820773976567 0.2651585113981998 0.0
9.690951720399688 6.100517071814821 0.0
9.775704281989471 6.077882312279847 0.0
9.823117117198079 4.115168542267924 0.0
9.764391943581737 4.214465954230587 0.0
9.659455011849253 4.218716850797838 0.0
9.713462125022623 4.30742830316693 0.0
9.849638067150842 4.208845651573708 0.0
6.376241713254513 3.858766051594979 0.0
6.274931849158213 3.701528298009006 0.0
7.097780104117746 1.926449727602711 0.0
2.457742027508782 3.810157622192786 0.0
2.963634206580268 3.740748099915693 0.0
5.065585416063965 5.544355730437482 0.0
9.783560252464587 7.566507987677117 0.0
9.825819294611026 7.470942204664841 0.0
9.799976114123012 1.01659516618323 0.0
9.745559590633832 0.9150866860898854 0.0
8.20473400632469 9.495828670767946 0.0
8.784586030320169 2.054461500762216 0.0
8.758471587067168 1.888286802854785 0.0
0.9188935087347281 8.510730800272478 0.0
9.674192026048217 9.20389587377276 0.0
9.796314981283475 9.185916994648775 0.0
7.206882433199502 5.452024361489832 0.0
9.773927048949279 6.334665846819535 0.0
9.830288393591173 6.225300227041885 0.0
8.25177349297509 3.282767705830209 0.0
8.099233469407428 3.304040153764131 0.0
9.607860512870598 4.315652630490023 0.0
9.403674738018715 8.367349042046314 0.0
7.611756786273919 5.018691202305147 0.0
7.549513964643336 4.923310232561835 0.0
9.80986724662116 0.2915868356190958 0.0
0.7757562810577034 3.504187313079081 0.0
7.659562100664981 4.698467529240196 0.0
6.539424975891206 3.541729955691742 0.0
6.717348880400739 3.55221857686142 0.0
6.836337579501807 2.417476958454302 0.0
7.096480496160066 5.959124656438389 0.0
7.189742782777612 4.377051328076039 0.0
7.051723187622053 4.38470822973091 0.0
7.125489805519186 4.497018383456762 0.0
6.994915621927777 4.501504591168814 0.0
7.056755276274058 4.607929817497045 0.0
6.932937068803914 4.613249390039674 0.0
6.86629288290367 4.50541343988659 0.0
6.80427099775847 4.617607827251794 0.0
6.739195362053689 4.511124964201849 0.0
6.677260697693361 4.624288827143181 0.0
6.996760608675822 4.711715831373894 0.0
6.316045249462968 0.6456945497683586 0.0
7.321834163850416 5.816449323512759 0.0
7.833101485370825 4.390058096386987 0.0
4.996572652976738 4.498711166259074 0.0
5.112334577457371 4.663858846723513 0.0
5.271923064784868 4.629759173373871 0.0
4.93773508827367 4.668006487116195 0.0
5.348137647919096 4.485934621930562 0.0
5.413454827497575 4.62999925573761 0.0
5.356581113747675 4.770594395332836 0.0
5.013422223730484 4.793321773780133 0.0
8.58674425943957 0.9312335381466886 0.0
8.776450596582496 0.9362399987293505 0.0
4.783496233934828 9.486061758876032 0.0
4.544176394620909 9.034071856445296 0.0
4.082330493623582 9.015765881393772 0.0
9.820867469965414 7.285959215547852 0.0
9.852697883440127 7.166089674802766 0.0
9.260999083164238 2.971390964911171 0.0
9.197701900169713 3.073162109379564 0.0
9.31960210441945 2.867465579641856 0.0
6.660951583415121 3.383363199709994 0.0
5.210469976037585 4.761678854423166 0.0
6.740780285297665 4.733615686805694 0.0
6.611362405615225 4.731958642073806 0.0
6.549091884465382 4.629620704100811 0.0
6.491761716522486 4.733409494449344 0.0
6.425259228542098 4.640546096196947 0.0
9.715556659367534 2.986725573570596 0.0
3.710524324925069 9.463213827486557 0.0
4.768537031214573 4.727001037865238 0.0
5.039413681704655 5.378508462165627 0.0
5.188746429211535 5.440476671296013 0.0
5.172214816037712 5.298914527247826 0.0
4.469063601436893 3.667917323494335 0.0
3.799121596584382 4.741629285988305 0.0
3.661085664896249 4.442847704416992 0.0
3.316563386321876 4.380147387454913 0.0
3.802087298647255 5.26743535640985 0.0
9.738116341343215 8.047178982429934 0.0
9.85106076399546 8.021725551312715 0.0
9.837581050304836 2.844176011307251 0.0
9.664579962075123 4.402853107737106 0.0
9.76433159763034 4.39807801415352 0.0
9.718924973226878 4.487825491046641 0.0
9.826405563645343 4.494594135148365 0.0
4.931068003413168 6.359330991212394 0.0
5.130175746947236 6.201075257041828 0.0
5.143884286052002 6.445382329515047 0.0
4.953395875296406 6.628748468717369 0.0
7.833019185167153 5.400347121613631 0.0
7.766636138801143 5.313240048256084 0.0
9.767038723422333 4.578090619166644 0.0
7.315369355237483 3.441501197259575 0.0
9.556068971301514 0.2347811136726856 0.0
5.733871280791703 4.444861510772459 0.0
5.828809543126846 4.569791247698539 0.0
5.986701526182213 4.562881783985375 0.0
5.912543327921148 4.692966271273211 0.0
6.052130330528581 4.682477327897978 0.0
5.773525984744635 4.697697018456535 0.0
6.121646311546238 4.572302645403103 0.0
6.182349700936326 4.67713231096357 0.0
5.846371383601797 4.808939734754761 0.0
5.117807918383606 5.974361363083184 0.0
6.256132501905665 4.575863546153224 0.0
6.324770064521816 9.645040261272253 0.0
7.345522892050965 4.12581088034536 0.0
9.338523512844539 4.854480276600515 0.0
9.286984287289403 4.959628690044808 0.0
5.676298026114105 4.589279806918992 0.0
5.631257891894775 4.722749088404111 0.0
7.970415275563177 5.621040275419208 0.0
9.565118337557308 7.081391220827488 0.0
9.626201005045262 6.980441083020495 0.0
9.733729506193331 6.979928568877979 0.0
9.684556253529976 6.887102896543928 0.0
9.780785815410074 6.890287441101827 0.0
9.740054813822885 6.794211367612523 0.0
6.462628988057306 7.629921412015864 0.0
6.692564520952154 7.473594130811262 0.0
6.927983108788191 7.570982428592125 0.0
6.899878641134941 7.329306734748538 0.0
7.117542472438434 7.416951094809493 0.0
7.089537168123128 7.186691566729968 0.0
7.296585396514727 7.275888419524222 0.0
6.879678873774065 7.097443005287856 0.0
7.063454637059129 6.967740076426161 0.0
7.329105042924355 7.496317641003757 0.0
6.867084781778411 6.878842928865059 0.0
7.494278796275744 7.351949197351029 0.0
7.462564159480594 7.150140034494138 0.0
7.644835001206406 7.21506678718646 0.0
6.682478929414216 7.008358327294905 0.0
6.449199855715812 7.365660640952548 0.0
7.548139855358765 7.57299228324251 0.0
7.008502809092701 7.844601794812628 0.0
7.371739019901781 7.707688433423657 0.0
5.665345294602155 5.290628720253272 0.0
3.987583013016546 4.486920698115711 0.0
8.893480480320447 0.7785000884179994 0.0
9.715485963651112 0.5955299613117169 0.0
9.761785841543585 0.7048670948649375 0.0
9.670304314877074 4.578896619304786 0.0
8.058509626083154 5.744161686650483 0.0
6.181795443628869 5.462040811515966 0.0
6.256771804808641 5.338464817889848 0.0
6.124070400983443 5.352376180901929 0.0
6.399679261813415 5.349186390888865 0.0
6.477776305607503 5.46505688468465 0.0
6.541624525938461 5.346017118512589 0.0
6.673064575428321 5.339051516933525 0.0
6.599301548842115 5.241958624987057 0.0
9.573774011620444 0.815274945835158 0.0
5.86493292693426 5.877588788523632 0.0
5.552663040119136 6.957487930464628 0.0
5.535080960199246 6.663033131707637 0.0
3.708603689392072 0.5979254716153909 0.0
3.31896983256719 1.188583855309964 0.0
3.895664898001925 1.128137111173669 0.0
6.363360407965353 6.032416442205533 0.0
9.445959758065749 1.070139246426051 0.0
9.50632172780449 1.214052376665338 0.0
9.441030033980638 1.325047485624912 0.0
9.295799464644857 1.341410624832976 0.0
9.184164107767781 1.461677744200096 0.0
6.407191016756832 4.407273313799791 0.0
5.544591888593027 0.7652641669375747 0.0
7.883090151006535 2.497506182548758 0.0
8.073420508370992 2.120510489750234 0.0
5.494822040671399 4.732314720081375 0.0
0.8986976806403217 1.464611451578306 0.0
9.536325549598013 6.83286654168725 0.0
5.972289519322897 5.727532110854501 0.0
9.82203607053145 9.443411729566549 0.0
7.263199949874008 7.064207941227515 0.0
7.233659553805083 6.853135694774254 0.0
9.793310082768443 7.072747972018893 0.0
6.734168931095253 9.67499220075154 0.0
6.941134861034159 9.382328333169653 0.0
7.285822522704258 9.443989747444657 0.0
6.576263515512108 9.333035011158342 0.0
7.160560566479093 9.127732577621245 0.0
6.218711947378506 9.298064908857533 0.0
6.432383355119106 8.980985203293491 0.0
6.795390278360442 9.046043538032663 0.0
8.54677014121837 0.1957422484480979 0.0
8.528696320820908 9.804850950580938 0.0
8.42644965647489 9.604735484095604 0.0
8.010239224104339 9.715048083583248 0.0
8.644359648763341 9.628432815860457 0.0
5.344212921686536 5.526744195650314 0.0
9.760936589662048 7.38409687515441 0.0
9.128187788393989 0.1445485608215519 0.0
9.133307661752394 9.854833215426817 0.0
4.867351616228264 3.944459575003425 0.0
5.905323253270366 7.385600364255367 0.0
5.909045412185362 3.361969954191194 0.0
5.80580919758911 3.569999290452344 0.0
5.578230704221431 3.587842862412673 0.0
6.013352753603037 3.550699073477782 0.0
5.936624955014758 3.721630401607248 0.0
5.735413275357409 3.78528948606432 0.0
5.512538847486775 3.794760621907932 0.0
5.360571639388366 3.618649018042938 0.0
5.134141179590394 3.459385929220745 0.0
6.167399567008798 3.367365990358096 0.0
9.766756262206602 8.291756450136036 0.0
5.486063578307141 9.64505925252771 0.0
9.497624614180321 4.328873442170357 0.0
9.811387324954623 1.570516917365688 0.0
9.389210081887331 4.69150887571586 0.0
9.704395728912932 3.754226393630331 0.0
9.808172776193384 3.748784464356272 0.0
6.549660911932182 4.839747932361234 0.0
6.757415124099031 6.077939876843736 0.0
3.805578542126494 8.040840085419626 0.0
4.232580149691158 8.198659880701744 0.0
4.559765382564095 7.87091698350757 0.0
8.3829075948167 0.9495097054886067 0.0
9.8571301061408 1.456307792614791 0.0
2.005900212453279 4.535525273813588 0.0
1.85904408608185 3.956445706785572 0.0
1.979307922430775 5.474327285927505 0.0
4.387923194305381 4.427191306527721 0.0
9.429258370703248 8.873693567695483 0.0
8.99196583083892 4.664567567015693 0.0
3.050357122593155 5.368999067452741 0.0
2.861107385476722 5.785089447130829 0.0
5.005058958272409 3.711196438448062 0.0
9.8972295764837 2.755337284632969 0.0
9.581048890980513 8.853909321617065 0.0
9.668838904423916 1.762418716497425 0.0
9.716576458425756 1.852218615166234 0.0
9.799043132681442 1.780583141193779 0.0
7.661868217848455 2.880323287492419 0.0
6.780136552904057 5.443858690999834 0.0
6.489544866845868 5.913957888434588 0.0
6.880149522020364 4.134257616716107 0.0
6.970134365280068 4.264072319341612 0.0
2.225481516813409 9.348422240784 0.0
1.843418032490818 8.641605249943353 0.0
2.198000805242772 0.6459947140825729 0.0
8.740020306282506 0.1903932731609072 0.0
6.86957996016679 4.720776242956433 0.0
7.430920333506809 0.2702852342693345 0.0
7.302066064947383 0.6134316505458445 0.0
9.305398039877746 4.64854361125207 0.0
4.078151380865065 5.203425462519088 0.0
4.080704120371218 4.778853303303787 0.0
8.052525541571825 5.965483159581719 0.0
6.367194027835946 4.754896037842673 0.0
8.604191121620719 7.648182513679963 0.0
9.546446695207845 9.234701521982952 0.0
9.018652854946867 3.351011585453845 0.0
9.143853648154607 3.350173119015413 0.0
9.067079866763024 3.245174561579149 0.0
8.991492136849105 3.135578770028028 0.0
9.29603967712795 0.1426516429033488 0.0
9.392428271030795 0.2506306237151588 0.0
9.223973843394301 0.2912279164401488 0.0
8.39375191941536 3.018777714002827 0.0
8.4836475746111 2.88135207267795 0.0
8.741089053946197 9.821127577434911 0.0
9.803966507713174 5.448064463539533 0.0
9.748132240148552 5.359371181503531 0.0
9.850258990973547 5.355211921626304 0.0
9.7965346514158 5.266762244994661 0.0
9.84142096963129 5.171050273734619 0.0
9.738843612428232 5.167483913244169 0.0
9.64168976006725 5.359875132194057 0.0
3.335917453809221 5.671837672982919 0.0
6.962669142802881 1.683222554707996 0.0
7.365210844496719 1.887492842536114 0.0
7.517378971174123 1.677983072937792 0.0
8.00383870208024 6.089394601875145 0.0
1.725435941000569 2.759295503019395 0.0
7.907977929549089 5.102827208603365 0.0
8.052861051278896 0.2683271125209605 0.0
9.80169732768395 3.385443381464333 0.0
9.831597648680848 3.28491948963525 0.0
9.736335895866404 3.316207814499244 0.0
9.597256128490281 3.756160701977744 0.0
8.865819925321706 3.366235906378775 0.0
8.489614436807788 1.757152185195495 0.0
8.88089641144391 1.078983279100314 0.0
7.430923851187758 9.724389499796425 0.0
7.584252919312249 9.509430586267927 0.0
9.744026095940516 2.247117754488748 0.0
9.729961521243718 2.659836747108116 0.0
9.790866569780063 2.558993767350471 0.0
9.736606445116795 2.455104424879619 0.0
9.846806182714698 2.452157456754448 0.0
4.518102112052724 5.141350889745285 0.0
4.519880229178207 4.85678334497067 0.0
9.7302407894617 6.434012603549242 0.0
9.787537474544765 6.523591663056312 0.0
9.744262337067932 6.617499601377625 0.0
9.8406238811518 6.41591236129004 0.0
8.914967252734657 3.579360039684312 0.0
9.154797282599406 5.670753066089419 0.0
4.228839454580575 4.612979739018002 0.0
6.095037541675208 4.42126627187728 0.0
9.304166983880842 9.864854494751789 0.0
9.406445527105628 9.759007358529582 0.0
9.256225114941945 9.700832989525724 0.0
9.796206564635622 2.351215649506205 0.0
9.849373673349081 2.25090453834006 0.0
6.332048155295931 3.511675163099286 0.0
9.069679774213784 3.022879178706259 0.0
9.070599961450037 9.055284879641471 0.0
1.808685691036764 6.331557276533421 0.0
7.120156826652838 4.698481230214924 0.0
7.052894345811342 4.799848851879358 0.0
4.739957520484086 5.369107149361242 0.0
9.389197839958292 7.197139943834638 0.0
9.046688232613976 4.560364044038737 0.0
9.162685461967492 4.562194096410666 0.0
4.227377821420887 1.564128177298305 0.0
9.201090975245227 2.794301402811909 0.0
9.251941624303948 2.677556975242327 0.0
9.186758273070138 2.563916005021366 0.0
9.317609833868786 2.560335260954038 0.0
6.57599191748324 2.437689779955877 0.0
6.305556560534859 2.459112595979303 0.0
6.981058048792093 2.642476994448363 0.0
9.886113463139504 6.510498309609482 0.0
9.250462794607717 6.221362629571698 0.0
9.305373999084068 6.108271307139882 0.0
9.390477915810829 6.228015172491477 0.0
9.44452571968143 6.114582165110393 0.0
9.502105740270528 6.197677857389309 0.0
9.31559697209813 6.331647407124485 0.0
9.370938253597153 6.437386206819511 0.0
9.594764406124872 0.1099001288712305 0.0
9.602872681151728 9.894988341116305 0.0
9.622661196143387 8.076680696281343 0.0
9.769069277144705 5.9102532189237 0.0
2.615076109785583 8.807551523115547 0.0
9.658920005405456 5.730890135691177 0.0
9.76063135061807 5.720703211793342 0.0
8.63963723169499 7.177334225227945 0.0
7.841904391869763 6.41346852896409 0.0
7.764520718520185 6.297267738834625 0.0
9.546492996136271 3.465225175657335 0.0
9.25600964352143 2.219157062786616 0.0
7.625057159226293 7.012987957636062 0.0
9.529121062829038 7.730283486008674 0.0
8.329887090625894 3.845190321147069 0.0
8.265841850823831 3.95687001944245 0.0
8.402006523775544 3.947660780406651 0.0
8.128436391670505 3.968543393650448 0.0
8.46705122470662 3.835767362024195 0.0
8.218867047074696 4.063481375518748 0.0
8.089763413611255 4.08062363292928 0.0
7.939578083855268 4.111915744184436 0.0
3.74991304509639 6.615676756107112 0.0
2.627714335615619 1.170993030860914 0.0
7.046129971268607 6.759930788612616 0.0
8.534603732661887 7.486325780553722 0.0
1.569381386467569 2.042794535871475 0.0
6.228703743210918 1.986421863690014 0.0
6.467030855792859 2.67190498312861 0.0
9.272246093269825 1.975478263632296 0.0
8.05269609263041 3.854522845257449 0.0
8.008595521536957 3.177870309354594 0.0
7.929796740504207 3.350600835935766 0.0
8.048703574664067 3.449582532910417 0.0
9.72947480375618 4.973926800124758 0.0
9.784850360535604 5.072865219810449 0.0
9.896036387646596 5.069261557893528 0.0
9.633140953203334 5.168645132864771 0.0
9.558102991128836 7.602453108835212 0.0
7.278758746505716 3.994295887299482 0.0
8.306681733482405 6.936428510427854 0.0
9.487163072013963 3.757777670075558 0.0
9.532950522284125 5.359403698944497 0.0
9.816036650072329 3.927268437107025 0.0
6.173882586235392 8.734645960664665 0.0
7.972518459433741 5.003005338485466 0.0
8.398453459336153 1.601072016988848 0.0
8.97460527296194 4.040886705742754 0.0
9.037941657530773 4.143578781749325 0.0
8.849604200183613 3.828506169652706 0.0
9.545296177100065 4.042698359132156 0.0
8.595941796785514 5.806754902023664 0.0
8.65588412428292 5.694192853853139 0.0
8.723710665131787 5.801528918332044 0.0
6.861288985046249 6.673713222735126 0.0
8.87477249219366 4.664500928777609 0.0
8.72385765226959 3.608276264790996 0.0
7.145228858696953 5.573648565429618 0.0
7.282945121585866 5.558559688509987 0.0
9.224761401603633 1.602363370249125 0.0
9.609115686587552 2.986868833620756 0.0
9.633989947851914 6.628120633848649 0.0
6.046214325132457 5.45615093027661 0.0
9.017014346798927 5.271996636983457 0.0
9.070824864071271 5.168510834798647 0.0
9.189021391555556 5.166867900487267 0.0
9.123328759137758 5.064718588163964 0.0
9.240587446378079 5.06459430516883 0.0
9.250848280531756 5.267364371053135 0.0
5.773050603406019 5.7192906317521 0.0
8.576466432793914 4.3559007860436 0.0
8.634627802680399 4.253467736542067 0.0
8.461790117175607 5.591735227444779 0.0
8.907610717370224 3.713397213891439 0.0
9.80665594564509 5.628066492225966 0.0
8.985935132601089 4.455263493464225 0.0
9.00640209566022 5.067597672073404 0.0
9.833659276096986 6.976519563917422 0.0
8.0283368553477 4.687271895436317 0.0
8.326580191759327 9.127498457128247 0.0
8.650637373791266 5.07513089931925 0.0
8.701067313435203 2.700069743477523 0.0
4.825307249916392 4.884175191874744 0.0
9.418335984190309 6.858444798015129 0.0
3.91434687300816 8.542956908935874 0.0
5.569239724399552 2.064135034637056 0.0
5.234271567762738 2.128974435011933 0.0
5.757920427527626 2.312422707096966 0.0
5.43365689737979 2.427455772745759 0.0
5.673210219624612 2.602111218343444 0.0
7.214258468265766 6.652783071431555 0.0
9.823626269633962 4.30685540664529 0.0
7.96996639420014 4.794005510174826 0.0
7.616003332725032 0.502676560965646 0.0
3.050634530589821 4.659174799474146 0.0
2.870894249800723 4.246924313393336 0.0
5.285393339952368 6.079037173753393 0.0
9.439954241218905 4.23581687956071 0.0
9.67709722097145 4.710772408106511 0.0
7.40767785509217 4.259947873553335 0.0
8.396202587439676 5.486075637998701 0.0
8.323689688705493 5.372061002264632 0.0
8.191312386254125 5.384662546230823 0.0
5.304380054816289 5.369675374029755 0.0
9.093848379546637 4.047647920840374 0.0
7.916313220758624 3.045043876114836 0.0
8.435854831444637 4.144861908356168 0.0
9.060262453079693 0.7340576053322918 0.0
7.053195520344596 5.238809779682351 0.0
9.621762679347093 2.45205452967588 0.0
8.410730269104743 5.287995309529392 0.0
9.655094569234972 3.472720279371932 0.0
7.982140513923982 6.667914768024983 0.0
8.402690325256646 4.883576657130221 0.0
9.17488654147479 4.962006474835693 0.0
9.013188196102961 8.49700148123058 0.0
9.795977244531603 2.156818021002043 0.0
9.893813711206834 9.545820400859157 0.0
7.965349232662289 4.250048884270795 0.0
8.644264557989125 4.874751532150782 0.0
8.215430976121077 1.26077208565765 0.0
8.379717637669398 8.37324652769609 0.0
9.320026533461409 5.559861899725609 0.0
7.885778178744864 0.4977439426642278 0.0
7.547066983926719 5.125166613071239 0.0
7.657542898944819 5.122996245335209 0.0
7.423918840193691 9.000935553397358 0.0
9.854133000712425 5.541931969512857 0.0
9.328508174398952 2.101486405523264 0.0
9.300749600926641 9.530012105354274 0.0
8.130307182491519 5.277079344947874 0.0
8.346752967392757 4.987627363826086 0.0
9.118404185029991 6.007087846617186 0.0
9.048232213728614 5.89431792713258 0.0
9.088340967655858 5.576242562571367 0.0
8.094762487139027 4.789727191449318 0.0
9.915265904493378 5.749591413470928 0.0
9.92169805280126 6.154216704502091 0.0
9.918022441582268 4.549125436287157 0.0
9.919332362905616 4.849536560132457 0.0
9.914800786693318 6.750595509794719 0.0
9.811792900437824 6.703950687575952 0.0
9.900643083988882 3.749855087409844 0.0
9.912423171222734 3.043228996968949 0.0
9.91892875832665 5.949999999993851 0.0
9.913300070218703 3.960831593817277 0.0
7.709347001661226 4.444236534782706 0.0
7.479443107717332 8.071637285053104 0.0
8.839057072155848 6.807845119358974 0.0
8.972330068019902 6.78765448182788 0.0
8.542093772125282 3.941452413628317 0.0
8.279144752968262 5.930387616620717 0.0
9.393455876855919 4.973162505621418 0.0
9.507123333872533 2.855087674515822 0.0
8.77504684283825 2.317347145885344 0.0
8.394133129040345 4.464046960801843 0.0
5.725509852450801 8.210843960481027 0.0
5.62632390239664 3.967637659758752 0.0
7.910815814627989 4.900765971697654 0.0
8.595808444085467 5.590040244353608 0.0
9.705160502006024 0.8106158419444889 0.0
9.82021247904746 0.808810893177099 0.0
9.218352146075844 4.447736986422823 0.0
9.20781892622228 3.858281726888132 0.0
8.713609974387523 5.178241668554946 0.0
3.55755059259364 8.921522400238844 0.0
9.59122926011489 5.452844834281716 0.0
9.70565100407009 9.77887811062354 0.0
9.826938454219809 9.74303055702321 0.0
7.238962096855633 3.278078153406256 0.0
8.575609105166194 4.567807831727537 0.0
8.936449841121737 4.765835458965493 0.0
5.59323463391086 9.248527978398117 0.0
5.280809113285124 4.886132326418428 0.0
9.328132730893216 6.544753806716806 0.0
9.026944889277736 6.67247283515637 0.0
9.81946239021469 3.007926663525007 0.0
8.677633568960493 6.144049349297466 0.0
8.33427489656924 4.571212803519522 0.0
8.55734024448315 6.382535186588269 0.0
8.692399379422756 6.372347713955898 0.0
8.495817478252626 6.503308565233578 0.0
9.905494734661673 2.544078755559835 0.0
6.177101405266569 7.228490244483556 0.0
9.825373011845263 5.807482724503027 0.0
9.808678508609606 8.118683092442964 0.0
8.397717712407108 7.08010313863416 0.0
7.428555529689225 4.935946611338556 0.0
9.575504958128711 6.125633853639113 0.0
9.154066996197898 4.146562596982661 0.0
8.074381802159323 4.337569667261167 0.0
7.018337246891919 8.843475095716133 0.0
7.970627172560641 2.658650028065857 0.0
7.382546388883145 6.723381543491632 0.0
6.822972334933889 4.884555620881615 0.0
8.343732976791593 6.041576709398377 0.0
7.743680217306919 8.423336160305476 0.0
8.505717922983454 1.115022897794028 0.0
9.113973198216474 6.992972408167606 0.0
5.818882632841168 5.300437503812764 0.0
5.951991891717714 5.279516346785062 0.0
9.450183479138845 5.92934813870612 0.0
8.783346541536119 5.48419035750989 0.0
9.38074895894124 5.65076274999803 0.0
9.513658728876734 7.193620441323493 0.0
6.396040948797887 6.776064256962667 0.0
5.389661780244388 4.89715084345563 0.0
4.473247649068957 5.85935163892416 0.0
9.249586607512612 8.37680799459232 0.0
9.103796366487646 8.379197231055114 0.0
6.274057301184156 4.87985402946409 0.0
9.259628836118232 3.561431822636308 0.0
4.037922477011971 5.489409780163391 0.0
5.62712958624254 4.893925433488392 0.0
8.806426003347967 6.133410188141932 0.0
9.53304466499349 9.59279975429444 0.0
9.542890959420024 1.966631379116419 0.0
7.459736176874619 5.863847835420528 0.0
5.937613117200432 4.89232797168023 0.0
6.171611131472617 4.879541833448487 0.0
6.100695199816815 2.291172318314745 0.0
2.315194906726768 8.081958163666464 0.0
6.878489987598286 5.148099521847569 0.0
9.105264414399338 8.639184652727645 0.0
9.20047261316883 3.457820810661327 0.0
9.895329010385955 7.55944047105717 0.0
9.912742873006831 7.76210330502246 0.0
9.37761459375249 3.168397068877758 0.0
8.946121261512507 6.345629828835438 0.0
9.918632496443566 4.449809517365367 0.0
6.848211525651934 5.945010613369067 0.0
9.915721525903255 2.047407395915179 0.0
6.117255841708726 5.163321965161054 0.0
7.276595248786602 5.347247322210079 0.0
6.32682869954104 5.23674259421017 0.0
8.785886448438022 5.692775375342819 0.0
9.099994401883361 6.776698531382792 0.0
9.913397459621638 0.2499999999998165 0.0
9.910352525643928 0.4481571029410266 0.0
9.907850422008579 0.5479735220323012 0.0
9.911983631350465 9.24778487019403 0.0
9.917634740384067 0.7514684821956668 0.0
9.195214232985496 3.254172408378337 0.0
5.000896927376288 1.846006038077654 0.0
9.917172478547403 8.250155740683276 0.0
9.908120476950126 1.742986232208194 0.0
9.914524635720774 1.949567899316728 0.0
9.907358878377153 9.145625165175748 0.0
9.917695944922635 8.949999999998397 0.0
7.648387553139914 5.325741673607362 0.0
9.605343588986079 4.130627398479715 0.0
6.648113233057817 6.774798386229164 0.0
9.910347203087213 8.446729917003672 0.0
9.913623694530468 8.548470085896316 0.0
9.9201245863254 1.536225488581779 0.0
9.906538426683255 1.059019360781604 0.0
9.912867352010919 8.74999999999809 0.0
9.799662981388353 8.79550485462418 0.0
9.831828680383174 5.99966894118311 0.0
9.91414179906643 1.263025320602998 0.0
9.920690092699912 7.240982963665807 0.0
9.385889285950551 2.235126904097426 0.0
9.28133998925606 8.00415195851526 0.0
9.817074723108401 3.172398890123306 0.0
9.482030285089927 7.512954023388035 0.0
6.682432918504054 7.233889573028878 0.0
8.528699633246763 3.260502457553277 0.0
8.91699963742029 2.327016692708648 0.0
9.267676068834481 3.954520684561369 0.0
8.70811637467455 4.974101624783084 0.0
8.18184214270768 7.816666208279135 0.0
9.690393137288163 5.264344933127836 0.0
6.937111790104696 5.245184991960528 0.0
5.895846026722989 5.174232967273284 0.0
8.281683356622615 6.400073017261236 0.0
9.150883172924027 7.444273543454419 0.0
5.430406600793122 3.390815886517273 0.0
5.049583827974758 5.697634876048387 0.0
8.3966710383105 3.495813899905868 0.0
9.007538428392454 8.046563579784266 0.0
4.645155158868719 2.637132843684674 0.0
4.887444326771336 2.30020425915506 0.0
6.483736782775559 4.522536327482678 0.0
7.843169154548308 8.2116075844056 0.0
5.06295551628385 4.901632590583318 0.0
7.201400991012747 5.138239336380897 0.0
8.519791031104612 8.848807089071627 0.0
8.658623737989732 3.031313729049854 0.0
7.585566208322493 3.629882964874684 0.0
8.411818469596405 6.834326722716643 0.0
9.172363528634236 7.669230647622864 0.0
8.85455683341768 2.682483055215344 0.0
9.359398739738925 1.631421337140716 0.0
9.071793864444992 7.337030604117359 0.0
6.968394563521436 3.712808894519514 0.0
7.899236117684646 7.094583340182754 0.0
9.54362864504834 9.781852543872333 0.0
7.151298729743687 7.644795130415299 0.0
5.452218361466201 5.186873761308322 0.0
5.517642289161902 5.293540933999446 0.0
7.802500357665464 5.978295671754199 0.0
6.594850839687122 8.491429270558893 0.0
6.029132431949566 8.294997405201931 0.0
9.31286590869111 0.5672913838331921 0.0
9.25238720319541 0.4415953739444106 0.0
9.550589523211062 4.228044955453704 0.0
8.748611832783206 6.250900951984038 0.0
7.566980108995873 3.995148257893202 0.0
7.426142759241261 3.996743578498081 0.0
6.478912513785404 4.000296412419969 0.0
9.30435638148753 5.168210982711592 0.0
7.542154188520517 5.752525075248498 0.0
7.219033852073297 2.139582470800704 0.0
7.370913620388047 6.545121498197235 0.0
5.226731036024996 5.187572666585561 0.0
8.515591031124366 4.462223215179979 0.0
6.762864307079274 0.3078036604979366 0.0
8.587432696997471 4.977010533175154 0.0
8.703948448756302 8.815629076400704 0.0
8.081003990931544 7.370949680119862 0.0
7.424404567669909 6.949730915714445 0.0
8.578903262311433 8.377992954045473 0.0
7.301258690263783 6.106184350645308 0.0
5.991600556904204 3.99820087171043 0.0
8.203048538477193 1.601044215405025 0.0
7.289972483120081 4.572350254111052 0.0
7.714697186439165 5.420586967696794 0.0
8.918853780709807 1.841796898567452 0.0
9.919941345877513 4.749808449067644 0.0
7.245589454939737 5.94251251443003 0.0
9.258480524497795 3.358952871140391 0.0
3.705877615124628 5.574038727593425 0.0
8.287096858129765 7.962370605242409 0.0
6.799629860952143 3.705385600481528 0.0
4.146753450763018 6.544154457143895 0.0
7.413973555029582 5.545687501585183 0.0
8.466524978378082 4.980481756569235 0.0
7.336312153537934 2.337983522449311 0.0
7.695505222753409 3.747498713679684 0.0
4.898236813123799 4.795853653580084 0.0
4.59779105899602 1.896916774247134 0.0
8.560170375862322 7.072369101894893 0.0
8.386150468360862 2.449771437140704 0.0
8.41200018115259 5.084601315536367 0.0
5.102189912301071 7.621598618277815 0.0
8.336320418935243 6.71651223072348 0.0
5.081745734883095 3.977838926197614 0.0
7.63590698378166 0.9500570055008507 0.0
7.743369677149255 3.051233984704873 0.0
5.357527459690566 0.3809996753407537 0.0
5.967373112873382 0.7731113464301924 0.0
8.169449265206127 6.666271947462212 0.0
5.95122726745053 5.55758205410881 0.0
9.922289489207834 3.53923011719877 0.0
9.39154684476555 2.659037023454942 0.0
7.701415639167884 7.690060291860976 0.0
9.819179654793023 1.329863870021845 0.0
8.358229579054417 6.506108206863729 0.0
9.269720555169467 5.657096143475924 0.0
4.473187658045934 7.435037860084884 0.0
9.65807158077373 3.255496360750368 0.0
9.605155446454205 8.713645566904637 0.0
7.097383547728313 5.141197376985936 0.0
9.812212483832656 1.89920712759492 0.0
9.83875570675407 6.81603549325055 0.0
8.926246869879279 2.079976511571457 0.0
9.166785856141402 9.169070814302419 0.0
8.763479010228052 1.587152667342957 0.0
5.957377924852992 6.404530806530254 0.0
7.14506854375872 6.10342416684208 0.0
5.672595070581394 5.164323323112049 0.0
4.899782787268781 0.3801727265981219 0.0
4.447133848117348 4.673614099606824 0.0
7.044865074789195 3.253639989243549 0.0
9.818461337102992 7.819456450952447 0.0
9.925334577033155 7.954012377173311 0.0
6.352907898232792 1.173665225954276 0.0
7.351721385581032 5.660361289755705 0.0
9.337367583861807 2.76534436379692 0.0
8.693118347802024 4.360254099729149 0.0
9.476812970101324 0.3524826622168163 0.0
7.109868985890334 0.9024224571333925 0.0
7.899106846231403 5.511805431542581 0.0
8.352799544476607 5.187887629361129 0.0
6.957483547582747 0.6176251309213842 0.0
8.099559500483094 1.412323841044818 0.0
9.913030944540278 0.8542404645334569 0.0
9.143075088381442 8.022165366829135 0.0
8.819861450593166 6.356592599428041 0.0
9.319444417409162 1.49938505915629 0.0
6.490262520326714 7.118204362551877 0.0
6.490874470087819 6.582907761235813 0.0
9.82506653058937 0.6146757679104559 0.0
6.803129818897624 4.419048038171804 0.0
9.840901379354312 0.08198751964190581 0.0
9.839740374244226 9.918356239418472 0.0
8.551927134544655 9.449788917425456 0.0
9.92097857388158 3.249999999993177 0.0
5.797087413057367 7.077351493358238 0.0
9.255412859987286 6.433984412022419 0.0
8.668174522249984 1.740767926084485 0.0
9.920991430240607 6.25262219124529 0.0
7.57275248448898 1.94367954756322 0.0
8.052865444445507 8.19900054463639 0.0
8.748697149245206 4.25201068974208 0.0
9.158270227735827 0.5542256343091421 0.0
5.997487767477439 4.787924707603557 0.0
6.119759900601896 4.78043793682227 0.0
4.353034750397793 8.619182743639561 0.0
8.721093521611476 5.588932824583312 0.0
5.717101151444983 1.123034066822819 0.0
9.825602081347064 8.68753399402474 0.0
8.005502510832988 8.7824052910506 0.0
5.548184234622668 6.408009287230429 0.0
5.77830300433981 6.598697187164234 0.0
9.613093825495433 4.50282172481406 0.0
9.928981132641653 9.74928475696928 0.0
6.613628176297015 4.515513362596662 0.0
1.822126723816303 1.297795131355289 0.0
9.514164594137375 1.43081427463862 0.0
4.735494753432723 3.698541604583975 0.0
9.52844959749262 8.615213629960298 0.0
4.660704511759056 0.7947595073298008 0.0
6.82340845160293 5.239926830264399 0.0
7.885938077030673 7.380147032865134 0.0
7.884599891021201 6.09005968568029 0.0
8.846834820720167 9.653276456345532 0.0
8.457777199486827 0.3851010632068662 0.0
6.66485224572131 8.771510767670392 0.0
9.091499342133352 9.708315832477556 0.0
9.824286725109655 4.976315293637262 0.0
7.848197684391786 5.632217046637356 0.0
3.88430598115417 4.225391362015386 0.0
8.776890759183289 2.809688928468134 0.0
7.393884285023409 3.59397875231041 0.0
6.927568893329758 4.396788356869783 0.0
4.96854327720728 2.662368428358774 0.0
9.1480130720193 3.951479613991279 0.0
7.071049729490975 2.38092990636632 0.0
3.40193058782919 1.686321186206593 0.0
7.612042194200681 4.815904436723407 0.0
9.043395868401339 6.888481825015849 0.0
9.098933057562759 8.152197681006806 0.0
6.058682303253315 3.857501492181965 0.0
3.707092669281355 2.986685502034343 0.0
5.113272509841263 5.189455016444592 0.0
6.960565857079232 3.416349532571279 0.0
8.755151527375476 7.649255597361291 0.0
3.393680865444538 3.679982303262531 0.0
3.117424600120088 3.35605258976247 0.0
8.530814041264104 5.488376426140491 0.0
4.820719767306654 5.106646490188182 0.0
9.918899263509473 4.144927088739744 0.0
9.918194630017027 7.447268230913605 0.0
8.461970084137805 3.144844565847669 0.0
9.924415919486059 6.949999999995354 0.0
7.184050152099684 2.72771667662237 0.0
8.834356715215904 7.801565642745232 0.0
8.689015446783005 4.145232831954543 0.0
8.490778532265319 8.234414357968106 0.0
8.63666290918932 2.83060276219705 0.0
4.61028976098935 4.741894230894578 0.0
6.314735925012879 4.003132559161639 0.0
9.20786580425652 4.67001723737971 0.0
7.141401229301469 4.873205425098625 0.0
6.235177809922153 4.774126344778935 0.0
9.12491895896937 3.145675090615719 0.0
9.255747684068178 3.162525801823036 0.0
8.312852272796098 2.290855459722148 0.0
1.449266720542303 3.363629101350872 0.0
9.525687840398492 4.800807314407045 0.0
4.829905263804087 8.14474456977717 0.0
9.09338914689732 7.563794106183232 0.0
5.389401689694107 5.283808684471545 0.0
8.530979415204587 3.029374286908943 0.0
7.901489077080633 6.535344047486632 0.0
9.218572924671975 5.760893551533255 0.0
8.562382833959296 4.143913974026883 0.0
8.62959127904665 8.974877485888243 0.0
9.408442441596518 9.62276529745719 0.0
7.5034765601713 3.869833107932387 0.0
9.842813436634783 6.600620949014236 0.0
9.826116984327193 8.911617279149695 0.0
7.529907780698261 0.7369111006685982 0.0
7.832164962480427 2.905293639437395 0.0
8.39517908433056 3.267417602291069 0.0
9.823014010107707 9.085319632577246 0.0
9.022314123618541 3.944559746338292 0.0
4.243701230676532 5.332574856090426 0.0
9.816740542566388 1.127839952679595 0.0
8.166775715766304 5.693916696568397 0.0
8.865374421689054 8.068986769641638 0.0
8.761145809863661 6.470583506581853 0.0
8.998345275919851 9.209303502026401 0.0
9.698477487436316 6.706902829754045 0.0
6.439032098063426 0.3109134377713525 0.0
7.562681994382136 4.643158005207056 0.0
9.03999088074715 0.2799354672273258 0.0
5.180741540467516 3.805018725608906 0.0
6.243990330956698 2.718077286244967 0.0
9.79416634023361 0.1815240178579244 0.0
9.926540005061975 2.847049370876555 0.0
9.826476210374608 2.670192168078066 0.0
6.365816673179121 4.536333049275508 0.0
5.546353765219417 4.618331215552614 0.0
9.820703096450293 2.000649418331399 0.0
6.884388790679166 3.561583980715254 0.0
7.431303395649604 5.747824222777201 0.0
8.849816832721245 2.19318290395604 0.0
4.185147517585975 5.697469360586313 0.0
9.165905238119013 5.873664931582344 0.0
7.70479478158537 1.788324620089049 0.0
9.627376046933474 0.9196091445437269 0.0
6.657687963328663 5.144792385996769 0.0
9.83245016645186 0.3925568446109945 0.0
7.483092985762584 9.253837199159435 0.0
5.445348362202234 3.977855663863651 0.0
7.476680532833337 4.837183287808616 0.0
9.572749890969304 8.505160319814301 0.0
9.915853314998252 9.437014513917465 0.0
7.679469018350979 7.390484878021194 0.0
9.418139053434402 4.790576000488359 0.0
8.096967733471567 5.865447162201908 0.0
9.829153508938724 8.378494945652118 0.0
9.926595955569645 5.157718300415699 0.0
8.774484245600224 7.939747459426853 0.0
8.629764448155779 6.481031318922794 0.0
8.961169458302376 3.839036702328818 0.0
4.617199205561317 5.256318959792646 0.0
8.480815774219478 4.031210317621497 0.0
9.708341592512763 3.401018043990571 0.0
7.183974816647467 4.77882314543966 0.0
9.821437962294304 7.659391965474772 0.0
8.150320284869602 2.286501016204562 0.0
9.828114434347311 1.684891358832554 0.0
5.349187766238684 6.538177907133678 0.0
8.076053471314525 2.76180604769483 0.0
4.907713691134565 5.29818629967416 0.0
0.6874399366049438 4.328593906714074 0.0
0.6980011780697519 5.702671170050627 0.0
8.263861466707834 8.182284285231713 0.0
5.838783785156478 4.913981390426639 0.0
7.807619472656604 7.235706382002089 0.0
9.388504256318683 6.022122644748753 0.0
9.929839894767033 6.436189192303577 0.0
8.3205848711706 3.39107920408397 0.0
3.240770542267401 4.019899919523968 0.0
8.059047070496568 2.468855909103855 0.0
9.932479519490421 2.449625056415224 0.0
7.737639000139152 4.580708137963557 0.0
8.26141077223695 0.3940397126348397 0.0
9.69568953371801 1.959951226402445 0.0
6.469120930453264 4.892267070266994 0.0
9.167223997255698 0.8102256463122337 0.0
6.236889648241256 0.9291076084031108 0.0
8.306379082772498 5.268830342852036 0.0
6.716089118890225 5.239344620507032 0.0
9.82511981852641 9.282822358664017 0.0
6.68375719572285 4.404998642130821 0.0
8.913754712375674 6.908138360584365 0.0
6.173250048857013 5.251634416326969 0.0
4.235907497612446 1.924052997345291 0.0
5.151007663981651 2.438629730660893 0.0
8.924254300637541 9.3764975797567 0.0
4.438612423541503 5.287968640901957 0.0
8.571203234299599 1.897009944569934 0.0
6.878800676380218 5.821332862798138 0.0
5.710626178601224 4.792560699857408 0.0
7.149510071621283 5.216310009157644 0.0
2.099966541549645 2.334742113488256 0.0
9.93396330620579 5.350566393301629 0.0
7.143046479323961 8.646955109387985 0.0
7.965747313080266 5.193641450105844 0.0
6.3314394693073 5.135050228240639 0.0
7.665821333021348 6.222698255001823 0.0
6.305321657053551 4.659816230868476 0.0
7.833020917089713 5.208837056143474 0.0
9.41455902676429 2.869725681199307 0.0
8.567151507735133 6.598605357295113 0.0
7.405527786978573 4.377085529441429 0.0
6.552969697053132 5.137148974085434 0.0
9.93630620742063 8.042778076596578 0.0
7.166743296019233 4.593171678848165 0.0
6.595561806063966 5.839366735225723 0.0
6.066152182102007 5.262519562574559 0.0
9.834694151277489 0.9093455747994099 0.0
8.98259191950674 7.579732466796592 0.0
6.465071238839505 5.25485771955322 0.0
9.759759896588413 3.236659507608532 0.0
4.775529448101694 5.224235675150505 0.0
9.935991245222917 7.153416415978829 0.0
0.6530736820718381 9.352299998916202 0.0
0.6449439415299687 0.6468300344151556 0.0
7.804690364869245 4.495816547678174 0.0
9.84503784553893 5.70620404704573 0.0
9.83525329400959 3.826992990746767 0.0
9.922964894244684 4.265000406933376 0.0
8.333767638401964 1.121219971446645 0.0
8.876012546033895 7.019147158538482 0.0
8.172413577824324 3.413096916572049 0.0
7.232233017296214 4.478957103028363 0.0
6.214597295185415 3.852860083673202 0.0
9.85013791746415 4.400709747289421 0.0
3.941627380932058 6.342995010255737 0.0
3.097271569675528 8.77391871286929 0.0
9.292917152323044 6.010976049411984 0.0
8.104342196673183 5.184165973282902 0.0
8.994300084006271 3.652611812846807 0.0
9.937157897030163 5.549999999993244 0.0
8.721368888525245 7.274540720770752 0.0
8.920003648712827 0.9516585309368178 0.0
7.910527456030004 8.536826514867816 0.0
9.846441288756814 4.60515911863952 0.0
9.584942233925151 4.712073182517884 0.0
9.642357858573972 6.805672051759494 0.0
9.797024725252207 9.838837222258014 0.0
9.842451438022124 4.018973836958878 0.0
6.112723137676118 3.704473949316424 0.0
7.574641969193845 3.765362276156904 0.0
7.826594968121701 6.200366572362263 0.0
7.762805366733504 9.34009502796868 0.0
9.56854033867856 1.012566255816665 0.0
7.71256563655353 5.219373702836014 0.0
9.68039392238282 8.786964504862018 0.0
5.910362452777086 9.277662068919813 0.0
7.418090653922814 3.326443419100716 0.0
9.857704179097952 4.697553149694669 0.0
8.452469674653342 8.996585816905599 0.0
9.522351366699843 2.057525484575908 0.0
7.802315574700843 9.548878971475935 0.0
9.938875656926385 3.449999999992592 0.0
8.425189037911712 6.608575180629274 0.0
5.925965231566842 2.523669697740033 0.0
6.654918072256329 5.95749128982984 0.0
9.826748589235729 9.631118448471485 0.0
8.6684585637523 7.39633999085442 0.0
9.844673843931567 3.090088625379724 0.0
9.93613850661301 2.250382721159617 0.0
9.218291993658738 2.892108990205171 0.0
9.83502846611296 8.212781989607324 0.0
7.754136409732265 7.104288507262783 0.0
8.510570542791681 2.036933285735889 0.0
7.757745059307245 4.315798612475442 0.0
7.989231770559189 6.201656630465583 0.0
8.068934521422738 4.198631572122605 0.0
4.957478134450373 9.038766150325067 0.0
7.208661142641733 6.501402463831379 0.0
7.299506095906239 4.363561999234681 0.0
8.250303873550486 2.105322217421675 0.0
8.678637541413377 7.053471135702286 0.0
9.761528395137384 6.163503990672834 0.0
9.84494857233395 8.59999999999775 0.0
9.83825138794677 3.672838954969637 0.0
5.121008544047756 5.808127183024784 0.0
8.343911550360986 4.043535893276861 0.0
9.85324441775315 5.899999999993774 0.0
9.51114465213134 8.41035540646284 0.0
6.505812179224195 6.93390566262983 0.0
6.15572847138365 9.023097246950844 0.0
3.352081892333425 3.024853379890529 0.0
6.433163283162099 8.675072413910678 0.0
8.825744236698243 3.624446391299867 0.0
4.883007294861279 7.819620905924936 0.0
5.876659170760434 5.638247433601083 0.0
6.859400040348503 6.510797998354633 0.0
7.946400945409184 3.500317276373196 0.0
7.496830255505493 6.653194511698024 0.0
9.852183479755313 4.891525833556942 0.0
9.77998778436291 2.922486526124376 0.0
6.774672660492365 5.324728659740495 0.0
5.717254072187427 6.824125962512845 0.0
9.713440940838062 4.63793103997539 0.0
8.859858662536796 0.2721395536350836 0.0
8.37556017530946 9.436653414116012 0.0
7.395237381047616 7.885576562773319 0.0
5.4709157802033 4.511152089197594 0.0
9.489749416979361 9.691840729914848 0.0
4.599216022837964 3.46438688931078 0.0
5.572287492757569 4.807021644849729 0.0
9.926499336309957 9.92730688390086 0.0
9.926499336310107 0.07269311609890093 0.0
9.338127766332573 0.3585313952168247 0.0
6.810761948165162 3.414693294319008 0.0
8.166274345037138 5.943611545564389 0.0
5.2892644736731 6.301081312912763 0.0
9.731911074791544 7.649313380659622 0.0
8.90251102352767 9.50983415326544 0.0
8.997881406541017 1.033666784655452 0.0
5.835124768755703 2.738139962594905 0.0
9.665357480775825 6.185331297099201 0.0
7.656532192558493 8.217157287499347 0.0
9.170463887605525 2.975444721032631 0.0
4.208158615905443 0.8648302238584886 0.0
6.97015686031129 5.933674629077266 0.0
6.181941366523793 3.565885175921835 0.0
3.30313590337911 6.393402837735046 0.0
6.447482061767014 4.816169316820496 0.0
8.185341428749446 4.169172087371246 0.0
4.552595724340015 8.298301336212145 0.0
9.84850676569699 8.999999999998423 0.0
9.846941514449377 7.393642828194986 0.0
7.924592433490734 2.788309934035703 0.0
8.154308714226714 8.853640122009672 0.0
8.876629743004642 1.96110242719995 0.0
7.228849192966834 8.90811350348676 0.0
9.852301635085423 8.296637825215246 0.0
5.219795195341889 5.547413133147649 0.0
9.861497117995457 6.901363010201344 0.0
2.953911258021604 6.136007283255669 0.0
6.93158841067062 4.77708273647784 0.0
9.67540418457871 2.912802891506324 0.0
4.194055958522277 4.437353127730132 0.0
6.133959559341536 0.406856611599261 0.0
8.29952795189331 9.309744645643846 0.0
9.843692337952948 1.209647690818311 0.0
5.164986286280336 6.671544079402435 0.0
9.838533350075606 2.081705440779448 0.0
8.301244777513975 6.604088853319459 0.0
5.471494771710784 2.714598185146428 0.0
8.86534684892311 1.208599471795828 0.0
9.940610684232212 1.451558535868664 0.0
9.40896208432968 1.428353940655538 0.0
2.329177605337097 4.238803555614174 0.0
5.980761651517799 7.182207186682233 0.0
9.66541573964336 0.1719254072074424 0.0
7.220979380229172 7.806128737674462 0.0
1.251721227904697 6.151932667911503 0.0
8.104967286191181 6.057912607875576 0.0
6.650768762224724 4.817922869198292 0.0
6.634976350437587 3.213339182992986 0.0
7.034320437500567 4.898219100342838 0.0
9.502772020064167 6.283064492634301 0.0
8.13187938667684 3.518506862055515 0.0
9.855471943454193 2.599999999994991 0.0
9.056747742708522 8.263936599935574 0.0
4.352645795441222 5.724453640019 0.0
3.744263984699181 1.488951698361357 0.0
5.175860134287045 3.6375726667098 0.0
7.736434712114619 6.400417475661193 0.0
9.857658576695343 6.316607183405179 0.0
7.876525261950537 4.304285002335559 0.0
9.856114384785611 7.914602773442983 0.0
9.848334119947063 0.7059644476295188 0.0
9.59694321995579 6.895814046141667 0.0
5.906465212962551 3.869023950643881 0.0
9.840676994268005 9.364956386459765 0.0
5.355015287544095 3.83518170601625 0.0
6.374090407153147 5.855743754257685 0.0
8.227401290513832 5.297819733684674 0.0
5.451235131977493 4.825706629991923 0.0
6.022070213762754 5.355923882747634 0.0
9.845674433677614 6.108401449483281 0.0
9.835067400944396 7.739582406783081 0.0
8.602026805792988 2.941372356914139 0.0
5.059869081004962 5.269480960018243 0.0
5.284714507903736 5.26496663762182 0.0
9.627110479149561 7.660076105040499 0.0
6.820001127809743 4.792514421153957 0.0
5.120512795059439 4.806607659110254 0.0
9.56933817216883 2.911464407429096 0.0
9.74091654291531 9.267545397628387 0.0
9.93006767325302 6.576784040838644 0.0
9.642486276936268 4.650227701598451 0.0
5.185183328569137 9.410919109238325 0.0
9.37052946854105 4.605636695802024 0.0
1.677077220416309 5.871167715901136 0.0
7.345783833404538 3.184020711886284 0.0
5.419239942654976 5.982692039856376 0.0
6.133318300188262 2.551919945731369 0.0
6.187291396343277 4.499077117404439 0.0
1.231465237822878 3.921479198315213 0.0
8.969849937139944 9.699215363213542 0.0
9.218303154263054 6.037447959776716 0.0
CELLS 4886 19544
3 1113 1356 1450
3 1402 231 1659
3 272 269 1414
3 396 394 1777
3 1451 945 1452
3 194 81 1801
3 1847 1501 2104
3 2024 2121 2479
3 1115 1113 1450
3 1124 1413 1844
3 1061 1955 2409
3 307 305 1645
3 1592 1369 1593
3 238 1501 1847
3 1955 1883 2409
3 1808 243 1910
3 1885 978 2362
3 1440 793 2092
3 189 1488 1608
3 353 350 1864
3 2007 2231 2232
3 307 1645 2493
3 1096 1760 2496
3 2178 874 2179
3 621 625 1595
3 1493 1480 1938
3 1655 1268 2137
3 1341 1410 2212
3 243 1808 2360
3 1902 1446 2516
3 1760 1096 1763
3 856 790 2180
3 2008 2046 2105
3 789 1809 2067
3 694 1543 1575
3 1127 1762 1953
3 1748 807 2228
3 1543 1308 1575
3 820 1872 2170
3 1417 954 1998
3 1369 1592 2386
3 272 1414 1787
3 329 333 1998
3 1544 1095 1545
3 2231 1490 2232
3 1342 1683 1790
3 374 377 1797
3 807 1678 2228
3 1665 198 2128
3 141 142 1620
3 325 322 1952
3 231 1402 1654
3 198 1665 2010
3 1890 1307 2387
3 208 1438 1619
3 2016 1970 2156
3 1436 212 2020
3 954 1417 2333
3 1736 1894 2244
3 1491 1750 2143
3 1677 1064 2146
3 1474 1258 1475
3 1500 233 1930
3 1446 2415 2516
3 1700 973 1800
3 2128 2270 2316
3 1316 1315 1593
3 1307 2341 2387
3 2258 1324 2328
3 1083 1507 1508
3 693 1095 1544
3 621 1595 1596
3 667 1571 1872
3 1932 1766 2061
3 393 391 2240
3 1342 1790 2400
3 252 1707 2234
3 931 978 1885
3 1430 1116 1704
3 1411 1109 1714
3 1478 1227 2440
3 1990 195 2297
3 1792 1167 1985
3 1682 444 1975
3 394 397 1777
3 1711 2028 2162
3 1574 856 2180
3 2008 1851 2046
3 736 1493 1938
3 1069 1060 1662
3 1458 455 1754
3 862 691 1705
3 1161 1642 2286
3 1699 1700 1800
3 447 516 1637
3 955 1482 1483
3 2024 206 2121
3 391 1773 2240
3 1072 1412 1893
3 212 1436 2350
3 1566 1365 1568
3 259 1441 1672
3 872 870 1764
3 330 328 1889
3 1539 1161 2286
3 1897 1898 2275
3 1434 1990 2297
3 1109 1411 1730
3 319 307 2493
3 1762 1761 1953
3 1369 1316 1593
3 1540 834 1832
3 1505 652 2442
3 1732 1655 2137
3 921 1712 2295
3 1872 1388 2170
3 1712 921 2125
3 2028 244 2162
3 1506 1570 1680
3 1569 368 1964
3 1571 667 2375
3 1587 2178 2179
3 196 1723 1737
3 524 2016 2156
3 1528 1250 1733
3 1115 1450 1973
3 1938 1480 1971
3 1809 1396 2067
3 1641 249 2299
3 1223 1258 1474
3 1365 1566 2120
3 1981 962 2316
3 1538 353 1864
3 455 1458 1756
3 152 233 1500
3 1116 1430 1703
3 817 652 1505
3 1347 2003 2004
3 1607 1958 2085
3 194 1801 2195
3 1410 1341 2351
3 223 1415 1710
3 197 1511 2346
3 2198 787 2225
3 81 82 1801
3 1438 208 1620
3 1444 522 1823
3 1511 197 1950
3 726 718 1567
3 1637 516 1739
3 1708 2337 2341
3 1280 1649 2124
3 2337 1395 2341
3 1327 1709 2315
3 1225 1227 1478
3 691 624 1705
3 476 2224 2305
3 830 832 2204
3 1750 1491 2403
3 1366 1897 2275
3 2345 1583 2352
3 2054 405 2110
3 1984 2172 2230
3 1846 2198 2225
3 1177 2042 2418
3 2121 1367 2479
3 1527 1531 1541
3 916 1039 1834
3 1413 1124 2467
3 1622 1503 1868
3 249 1641 2019
3 1805 405 2054
3 1761 1007 1953
3 1415 223 2395
3 960 1756 2203
3 368 1569 2135
3 1402 1659 2473
3 941 1433 2471
3 1267 1477 1501
3 260 2002 2265
3 1704 558 2077
3 2224 1886 2305
3 2053 1386 2199
3 1452 945 1952
3 1717 1611 1718
3 1682 1975 2230
3 1760 1762 2496
3 1481 203 2104
3 1264 1266 1670
3 142 236 1620
3 2133 1182 2179
3 1791 1602 2183
3 350 346 1864
3 1412 1072 2393
3 1281 1575 2255
3 1565 1948 2155
3 849 1449 1513
3 1958 396 2085
3 1339 1069 1662
3 834 1540 1917
3 269 267 1414
3 1268 1267 1501
3 1440 2092 2468
3 1399 1981 2316
3 1635 1636 2041
3 1454 252 2234
3 1451 1305 1890
3 1375 1883 1955
3 362 366 1786
3 1484 2410 2528
3 1449 849 1640
3 1267 1474 1477
3 200 1611 1717
3 1054 1581 1582
3 1350 1977 2253
3 190 1390 2118
3 788 1956 2193
3 1709 1327 1888
3 2233 2298 2413
3 1488 189 2355
3 478 1685 1714
3 230 1525 1690
3 1687 478 1688
3 427 429 1756
3 1570 1065 2476
3 1880 1133 1988
3 1649 656 2124
3 1537 209 1614
3 1134 1769 1986
3 1220 1268 1655
3 396 1777 2085
3 1167 1755 1985
3 2229 1744 2296
3 1575 1281 2287
3 127 240 1882
3 377 647 1797
3 954 329 1998
3 220 1697 1698
3 1342 1341 2212
3 1441 264 1672
3 1512 188 2433
3 763 2345 2352
3 1685 1411 1714
3 1805 1188 1951
3 1347 2004 2157
3 1054 1582 1667
3 1333 1617 1674
3 2217 73 2361
3 1539 1036 1917
3 1039 1292 1834
3 208 141 1620
3 1965 1964 2038
3 693 1544 1969
3 1453 239 2279
3 203 1481 2049
3 945 1451 1889
3 680 1459 2134
3 354 2147 2196
3 1405 1932 2061
3 1723 1722 1737
3 1748 1175 1927
3 1532 1528 1733
3 2057 1824 2154
3 1406 1659 1702
3 1948 1186 2155
3 210 1598 2114
3 1685 478 1687
3 1324 1325 2328
3 1526 1250 1527
3 165 166 1509
3 1493 736 2523
3 1526 1527 1541
3 1390 190 2417
3 522 1444 1998
3 1680 1570 1732
3 1017 1442 2525
3 374 1797 2430
3 1507 1083 2197
3 1756 960 2221
3 2270 1400 2316
3 2205 1452 2282
3 1074 1187 1888
3 2158 1245 2200
3 1442 1017 1684
3 864 1116 1703
3 1750 1751 2143
3 1456 516 1492
3 1677 2146 2149
3 2022 1339 2388
3 1602 258 2183
3 678 1594 1595
3 1245 1670 2200
3 972 830 2204
3 2143 983 2342
3 1268 1501 2226
3 1266 1461 1670
3 1487 222 2465
3 1382 2022 2388
3 58 59 1661
3 2147 1543 2196
3 1484 1485 2410
3 628 2053 2199
3 1906 1549 2259
3 364 362 1786
3 1339 2022 2247
3 1636 525 2041
3 625 678 1595
3 678 1593 1594
3 2212 1410 2222
3 1837 1865 2215
3 1699 1800 1801
3 866 864 1703
3 893 1472 1982
3 1735 1736 2244
3 1633 1255 1922
3 126 127 1882
3 681 867 1656
3 1351 1401 2363
3 11 228 1588
3 1127 1953 2454
3 265 266 267
3 1722 1122 1737
3 1389 1691 2069
3 1613 1610 1616
3 1227 1256 2440
3 429 455 1756
3 1535 1177 2418
3 322 324 1952
3 973 1700 1802
3 1964 368 2038
3 1176 1865 1866
3 1096 872 1764
3 1176 1866 1875
3 193 1839 1892
3 156 157 1441
3 615 617 1596
3 686 1520 2480
3 1409 2097 2305
3 2410 1151 2528
3 1427 2217 2361
3 440 1911 2314
3 1744 1743 2296
3 516 1456 1739
3 1939 589 2164
3 690 931 2150
3 1062 1579 1580
3 1054 1580 1581
3 955 1483 1716
3 1064 1677 2248
3 1956 1616 2193
3 1776 1893 2026
3 1398 1115 1973
3 2002 1453 2265
3 1541 1531 1542
3 216 2191 2536
3 1736 1326 1894
3 1065 994 1066
3 1598 2115 2175
3 2314 1911 2358
3 1433 941 2042
3 2115 1209 2175
3 717 1550 1551
3 188 1941 2433
3 267 1132 1414
3 771 1569 2064
3 1157 1545 1546
3 1231 1250 1526
3 1933 240 2181
3 222 1487 2025
3 1525 230 1765
3 1430 1704 2077
3 757 1744 2495
3 264 263 265
3 883 773 1917
3 739 2205 2282
3 1667 1582 2434
3 1744 757 2474
3 239 1453 2002
3 1441 259 2356
3 2005 1443 2012
3 254 1766 1932
3 1509 166 1679
3 1477 1475 1481
3 793 1440 2165
3 1385 1523 2377
3 1481 1475 2523
3 156 1441 2356
3 1066 1220 1655
3 945 325 1952
3 2094 2087 2134
3 1747 1175 1748
3 253 262 263
3 1327 1074 1888
3 718 715 1567
3 2046 1043 2105
3 240 1933 2399
3 1305 1307 1890
3 224 58 1661
3 1195 1566 2285
3 1590 1393 1749
3 1255 1230 1922
3 353 1538 2073
3 358 1999 2325
3 882 1802 2036
3 1024 1020 1604
3 333 522 1998
3 1401 1351 2414
3 1475 1258 1476
3 2310 786 2364
3 328 945 1889
3 807 1748 1927
3 825 724 1912
3 1742 263 2491
3 267 266 1132
3 2077 2102 2203
3 1431 1432 1860
3 1212 1957 2312
3 2097 476 2305
3 1132 1402 2473
3 717 713 1550
3 1746 693 1969
3 1372 1124 1844
3 1256 1541 2269
3 1977 1350 2274
3 2332 1978 2443
3 874 2133 2179
3 1983 1534 2171
3 1157 1544 1545
3 1230 1228 1922
3 1580 1579 1581
3 1565 806 1948
3 1416 1363 2413
3 1287 1995 2398
3 265 263 266
3 1534 1529 2171
3 1604 1834 2428
3 1255 1633 2509
3 1344 1643 1644
3 1332 1388 1571
3 1423 217 2217
3 2191 1057 2451
3 458 447 1637
3 1250 1233 1733
3 472 2212 2222
3 1175 1747 1840
3 1652 256 1653
3 1073 1347 1572
3 200 145 1609
3 683 640 1585
3 1116 862 1705
3 1221 1223 1474
3 1778 801 1803
3 1503 1622 2471
3 1475 1493 2523
3 464 680 2134
3 14 210 2114
3 579 1880 1988
3 1434 1435 1990
3 1447 2310 2364
3 275 274 276
3 2294 1871 2419
3 814 1068 1684
3 1172 1439 2273
3 273 272 274
3 1363 1416 2406
3 1220 1219 1221
3 1060 1656 1662
3 1099 1792 1985
3 2048 1198 2168
3 1241 1245 2323
3 699 723 1753
3 1640 1862 2070
3 910 1018 1584
3 1586 1067 1587
3 1656 867 1662
3 1067 686 2480
3 654 2242 2294
3 1593 1315 1594
3 1880 553 1974
3 236 1717 1718
3 617 621 1596
3 1723 196 2313
3 402 1877 2116
3 273 274 275
3 2202 1869 2252
3 1510 1358 1767
3 193 1892 2373
3 1188 1805 2054
3 1220 1221 1267
3 1066 1218 1219
3 1517 1097 1518
3 1677 1676 1858
3 686 277 1520
3 268 267 269
3 697 857 1592
3 220 1698 1699
3 1802 1700 2036
3 1612 1537 1614
3 929 817 994
3 228 12 2136
3 2110 2116 2482
3 1659 1658 1702
3 1611 1613 2280
3 1344 991 1643
3 683 1585 1604
3 1638 1358 2404
3 1485 1034 2410
3 2214 833 2424
3 271 272 273
3 1482 955 1962
3 1066 1219 1220
3 931 1885 2150
3 1613 1891 2280
3 1189 1589 2204
3 1566 1195 2120
3 726 1567 2490
3 1122 1722 1874
3 1494 319 2493
3 1671 259 1672
3 1267 1221 1474
3 603 528 1591
3 1664 2128 2316
3 1817 1924 2174
3 1626 1660 2111
3 1474 1475 1477
3 1023 1062 1580
3 1957 1599 2312
3 1764 1939 2164
3 1358 1950 2404
3 200 1609 1610
3 1431 1082 1432
3 1778 1803 2521
3 1830 1832 2075
3 1930 233 2369
3 1329 1482 1650
3 757 1959 2522
3 1239 1247 1597
3 758 1978 2332
3 1569 1290 2064
3 216 1694 2191
3 1453 1420 2265
3 1549 1906 2129
3 24 215 1674
3 19 235 1676
3 1621 1057 2191
3 1691 1389 2262
3 1617 1333 2192
3 929 994 1065
3 1769 1672 1986
3 1893 1412 2026
3 1609 1537 1612
3 271 269 272
3 1373 1438 1620
3 217 1423 2381
3 517 330 1889
3 1322 1055 1667
3 1974 553 2499
3 228 2136 2187
3 1589 1189 1788
3 1999 1577 2325
3 2110 405 2116
3 189 1608 1842
3 1055 1050 1667
3 739 1455 2205
3 1865 1176 2215
3 319 1494 2522
3 2474 757 2522
3 1484 227 1485
3 10 11 1588
3 723 809 1753
3 27 230 1689
3 1550 806 1565
3 1179 1180 1217
3 207 1617 2192
3 1433 1217 1502
3 1562 1556 1606
3 1379 2017 2018
3 1245 2158 2323
3 675 1097 1517
3 884 501 1599
3 1020 683 1604
3 1603 1095 1848
3 1001 2057 2154
3 1604 1585 1834
3 1610 1612 1616
3 1764 870 1939
3 2242 1871 2294
3 1669 1264 1670
3 1658 213 1702
3 1995 1646 2398
3 631 539 1600
3 1491 2143 2342
3 1801 1800 2195
3 1200 1199 1693
3 1535 940 1861
3 1534 758 2332
3 914 2258 2328
3 1588 228 2457
3 216 138 1694
3 151 152 1500
3 1133 1880 1974
3 1677 1858 2248
3 1294 1622 1868
3 875 1010 1767
3 1379 2018 2416
3 1279 2202 2252
3 182 256 1652
3 1592 857 2386
3 672 681 1656
3 615 1596 1824
3 1093 1487 1623
3 1823 522 2100
3 1245 1242 1669
3 1582 1581 1583
3 758 1534 2306
3 1975 1984 2230
3 1358 1510 1950
3 1663 1336 1665
3 2102 960 2203
3 366 1087 1786
3 1740 1490 2231
3 21 207 1709
3 145 146 1609
3 2339 765 2384
3 603 1591 1668
3 2081 199 2149
3 1540 1832 1879
3 1721 1723 1947
3 1754 455 1793
3 1751 1753 2119
3 882 1701 1807
3 1540 1539 1917
3 242 1695 1697
3 1521 354 2091
3 1363 2233 2413
3 1584 1018 1925
3 703 1067 1586
3 1177 1178 1179
3 795 916 1834
3 277 276 607
3 1571 1388 1872
3 22 23 1617
3 1097 823 1177
3 25 26 1624
3 419 418 1790
3 1728 1906 2259
3 440 1455 2261
3 1877 1318 2116
3 1488 1156 1608
3 1439 2130 2273
3 1889 1451 1890
3 1614 209 2389
3 1472 893 2094
3 675 821 823
3 23 24 1674
3 1788 1190 2183
3 917 941 1622
3 1763 1096 1764
3 1068 1442 1684
3 1034 1485 2173
3 2172 1533 2230
3 138 139 1694
3 1065 1570 2197
3 607 674 675
3 1536 1248 2268
3 229 135 1734
3 1437 1925 1926
3 680 510 1646
3 147 209 1537
3 26 27 1689
3 1627 705 2163
3 206 1651 2121
3 2409 1785 2462
3 1492 682 2447
3 1223 1225 1258
3 889 1772 2374
3 253 263 264
3 275 276 277
3 1455 739 2261
3 2022 1382 2176
3 150 227 1484
3 639 1019 1591
3 1449 1640 2070
3 1082 833 2214
3 1503 1502 1504
3 144 200 1717
3 1643 991 1713
3 1190 1791 2183
3 1538 1804 2073
3 1256 2269 2440
3 18 19 1676
3 521 531 2000
3 790 849 2180
3 1075 1329 1650
3 1087 1782 1785
3 1066 994 1218
3 270 269 271
3 682 1492 2494
3 185 252 1454
3 253 158 262
3 1629 1632 1633
3 200 1610 1611
3 1477 1481 2104
3 1623 1487 2465
3 1518 1097 1535
3 1414 1132 2460
3 1179 1217 1433
3 177 1506 1680
3 1392 1017 2525
3 1832 834 2075
3 675 823 1097
3 1459 2094 2134
3 1782 1087 1795
3 1838 1730 2372
3 1639 149 2528
3 1617 23 1674
3 2265 1420 2489
3 180 232 1859
3 1527 1250 1528
3 20 21 1709
3 1083 1508 2311
3 903 866 1703
3 1455 440 2314
3 1187 1858 1888
3 1659 1406 2473
3 1446 1902 2166
3 421 1951 2106
3 1598 210 2115
3 154 259 1671
3 1288 1835 2080
3 1832 1831 1879
3 1258 1225 1478
3 1024 1604 2117
3 1263 1429 1739
3 706 705 1627
3 1583 1581 2352
3 407 1805 1951
3 856 1574 2527
3 1701 882 2036
3 1624 26 1689
3 717 1551 1552
3 1385 2377 2391
3 2302 1745 2354
3 1572 1347 2157
3 1036 883 1917
3 1689 1690 1691
3 1664 1665 2128
3 1476 1479 1480
3 1751 2119 2143
3 815 814 1684
3 1790 889 2400
3 1606 1607 2085
3 265 267 268
3 418 889 1790
3 1522 1521 2091
3 135 136 1734
3 1726 1445 1729
3 647 1796 1797
3 1346 1453 2279
3 1293 1827 2117
3 1242 1244 1669
3 1853 1852 1854
3 889 2374 2400
3 1039 1038 1290
3 1524 628 2199
3 1331 1332 1571
3 1291 1290 1569
3 1475 1476 1493
3 1850 1852 1853
3 1490 1740 2456
3 1689 230 1690
3 1256 1526 1541
3 1704 1705 2167
3 1465 1470 1675
3 956 1073 1572
3 1613 1616 1956
3 916 917 1038
3 2014 1522 2091
3 1221 1222 1223
3 1999 763 2352
3 234 10 1588
3 1697 220 2335
3 1527 1528 1529
3 2298 1600 2413
3 1436 2020 2254
3 1642 1161 1678
3 1523 1385 2436
3 1730 1838 2426
3 795 796 916
3 713 711 1550
3 1456 1263 1739
3 999 1336 1663
3 1785 1784 2462
3 409 415 1783
3 607 675 1517
3 1229 1231 1526
3 1958 1855 2078
3 1589 1588 1590
3 1933 261 2380
3 762 1965 2038
3 1756 1458 2203
3 1776 597 1893
3 1794 1072 1893
3 188 1512 2266
3 1774 2339 2384
3 188 1908 1941
3 1010 1510 1767
3 2189 2285 2307
3 773 834 1917
3 1245 1669 1670
3 1248 1597 2268
3 146 1537 1609
3 818 910 1584
3 1641 1313 1651
3 1217 1745 2302
3 1065 1066 1655
3 1597 1247 2047
3 1360 2177 2376
3 1612 1615 1616
3 2126 867 2186
3 1019 683 1020
3 1747 892 1840
3 1092 1093 1623
3 261 1933 2181
3 400 424 1666
3 1516 1903 2377
3 1100 1392 1605
3 247 1738 1881
3 268 1134 1986
3 1177 823 1178
3 884 1599 1957
3 263 262 2491
3 806 1627 1948
3 1227 1229 1256
3 191 1729 2504
3 1636 1635 2502
3 1480 1479 1601
3 1721 1947 2498
3 1924 1146 2174
3 229 1734 1735
3 175 204 1725
3 1179 1178 1180
3 354 1521 2147
3 665 697 1592
3 640 646 1585
3 627 545 1636
3 1882 240 2399
3 1556 1555 1606
3 1373 1620 2394
3 1871 1071 2419
3 548 1628 1629
3 455 436 1793
3 974 1831 1841
3 1844 1413 2392
3 1612 1614 1615
3 209 1639 1937
3 1329 1330 1331
3 1823 2100 2142
3 1097 1177 1535
3 1021 1020 1022
3 825 1912 2455
3 913 1122 1874
3 400 1666 2113
3 1256 1229 1526
3 1419 1418 2450
3 1552 1551 1553
3 1850 1099 1852
3 1629 1631 1632
3 801 685 2029
3 1618 1619 1621
3 265 268 1986
3 1715 2165 2330
3 1531 1529 1534
3 1022 1024 1576
3 658 693 1746
3 703 686 1067
3 1062 1576 1577
3 1023 1022 1062
3 236 1718 2394
3 1688 502 1740
3 1501 1477 2104
3 213 165 1509
3 646 795 1585
3 196 1737 1738
3 379 679 1795
3 639 640 683
3 924 875 1767
3 1752 699 1753
3 207 2192 2315
3 627 1636 1660
3 1217 1180 1745
3 730 728 1833
3 528 561 1591
3 1444 1417 1998
3 252 186 1602
3 1729 1445 2504
3 460 502 1688
3 1418 946 1778
3 1203 1200 1693
3 548 470 1628
3 849 668 1640
3 646 785 795
3 607 276 674
3 14 15 210
3 147 148 209
3 478 460 1688
3 1709 207 2315
3 1157 1546 1608
3 1155 1731 1899
3 1524 1934 2390
3 1775 921 1876
3 1433 1502 1503
3 470 458 1628
3 1223 1224 1225
3 1291 1569 1964
3 871 1056 1826
3 1781 1783 1915
3 1587 1067 2300
3 916 1038 1039
3 1388 1387 1389
3 1611 1610 1613
3 1075 1328 1329
3 1039 1290 1291
3 1538 1265 1804
3 1184 1185 2163
3 597 598 1794
3 1450 1356 2421
3 1835 576 2080
3 1629 1628 1631
3 1331 1330 1332
3 561 639 1591
3 1476 1480 1493
3 705 703 1586
3 639 683 1019
3 1951 1188 2106
3 436 446 1793
3 1472 1297 2142
3 1332 1387 1388
3 1345 984 1720
3 1329 1328 1330
3 1050 1048 1667
3 150 151 227
3 11 12 228
3 557 541 2256
3 1831 974 1879
3 134 229 1766
3 1357 1358 1638
3 1336 1641 2299
3 1650 1482 1962
3 1591 1019 2512
3 1506 1507 1570
3 1803 801 2029
3 1178 823 1972
3 1552 1553 1554
3 1290 1038 1294
3 1028 1313 1641
3 1237 1239 1597
3 993 1017 1100
3 893 2087 2094
3 149 1484 2528
3 1768 1142 1949
3 9 234 1673
3 1554 1553 1555
3 668 632 1640
3 711 806 1550
3 1628 458 1637
3 1098 1829 1830
3 1482 1331 1483
3 531 1818 2000
3 435 419 1790
3 1156 1157 1608
3 1182 1184 2179
3 510 512 1646
3 1231 1233 1250
3 946 841 1778
3 1483 1331 1571
3 1459 680 2458
3 1166 1040 1210
3 892 1657 1820
3 1042 1445 1726
3 1019 1020 1021
3 749 805 1810
3 234 1588 1589
3 1695 242 1892
3 556 1853 2483
3 1018 1572 1573
3 1529 1528 1530
3 1606 1558 1607
3 1761 1759 2308
3 1396 1032 1921
3 1018 956 1572
3 689 1150 1416
3 1827 1293 2515
3 149 150 1484
3 1647 656 1648
3 1543 694 2196
3 399 409 1783
3 545 525 1636
3 268 269 270
3 715 713 717
3 1100 1017 1392
3 1657 892 1747
3 207 22 1617
3 1666 884 2249
3 1671 1672 1769
3 1554 1555 1556
3 146 147 1537
3 1081 1444 1822
3 711 709 806
3 1443 2005 2322
3 660 658 1746
3 1166 1458 1754
3 916 796 917
3 1056 1728 1826
3 1068 1069 1275
3 184 185 1454
3 158 159 262
3 2007 1687 2231
3 805 1708 1810
3 1672 264 1986
3 1561 1562 1563
3 978 1075 1650
3 1590 1588 2457
3 215 25 1624
3 1551 1550 1565
3 1073 1346 1347
3 857 818 1584
3 1648 656 1649
3 675 674 821
3 561 594 639
3 1731 529 1899
3 2303 1454 2535
3 981 903 1040
3 1630 1629 1633
3 993 877 1017
3 724 718 726
3 512 603 1646
3 1676 235 1858
3 814 1060 1068
3 715 717 1567
3 1796 647 1870
3 1715 1171 2165
3 678 1592 1593
3 644 613 1824
3 1690 1525 2145
3 1297 1822 1823
3 271 656 1647
3 1704 1116 1705
3 1225 1226 1227
3 1275 1069 1338
3 910 956 1018
3 1824 1596 2154
3 1403 1100 1605
3 1221 1219 1222
3 1068 1060 1069
3 1901 245 1949
3 1081 1055 1321
3 1751 563 1752
3 1021 1022 1023
3 672 638 681
3 1095 657 1848
3 1235 1237 1248
3 1561 1556 1562
3 1265 1259 1804
3 524 1819 2016
3 978 1650 2362
3 1492 516 2494
3 229 1735 2061
3 185 186 252
3 157 158 253
3 152 153 233
3 9 10 234
3 1527 1529 1531
3 1808 1344 2360
3 1062 1577 1579
3 1509 1679 1977
3 424 454 1666
3 637 638 672
3 981 1040 1166
3 1555 1558 1606
3 751 749 1810
3 1166 1210 1458
3 1651 1313 2121
3 15 16 2260
3 1633 1632 2509
3 2167 1705 2276
3 551 602 2045
3 697 818 857
3 364 1786 1883
3 832 1189 2204
3 1476 1478 1479
3 678 665 1592
3 213 1509 2096
3 1015 888 1124
3 1062 1022 1576
3 679 1782 1795
3 680 1646 1995
3 1101 1100 1403
3 1109 433 1714
3 1248 1237 1597
3 733 730 1833
3 1702 213 2096
3 499 498 1828
3 1418 1778 2521
3 637 600 638
3 1048 1046 1054
3 1577 1576 1578
3 814 766 1060
3 1279 2252 2292
3 474 470 548
3 199 18 1676
3 157 253 1441
3 1048 1054 1667
3 471 472 2290
3 625 665 678
3 795 785 796
3 1264 1265 1266
3 1437 1926 2350
3 1362 2048 2168
3 1394 2337 2371
3 454 884 1666
3 1022 1020 1024
3 751 1810 1923
3 1046 1023 1580
3 1807 1701 1931
3 1618 208 1619
3 566 588 689
3 1828 498 1829
3 501 509 1599
3 1118 780 1775
3 878 817 929
3 1510 1511 1950
3 1618 1621 1694
3 1052 1081 1822
3 1416 1150 1715
3 1239 1241 1247
3 1396 1921 2067
3 1751 1752 1753
3 1264 1259 1265
3 539 566 1600
3 1762 1127 2496
3 1673 1788 2183
3 1555 1557 1558
3 1052 1050 1055
3 725 724 825
3 1142 1770 1771
3 681 853 867
3 454 501 884
3 1346 1420 1453
3 932 1147 1770
3 1546 1545 1547
3 533 582 1818
3 1266 1337 1460
3 1872 820 2318
3 1117 1119 1713
3 1081 1321 1417
3 1253 1259 1264
3 1569 771 2135
3 1052 1055 1081
3 1181 1178 1972
3 709 706 1627
3 1073 1076 1346
3 1098 1828 1829
3 1382 1380 2176
3 1442 1275 1443
3 919 999 1663
3 1789 828 1855
3 877 815 1684
3 509 539 631
3 992 877 993
3 1266 1265 1337
3 2268 1498 2340
3 1130 1032 1396
3 1095 1603 2508
3 886 826 887
3 531 533 1818
3 1131 1400 1881
3 447 437 516
3 2460 1132 2473
3 940 1535 2418
3 768 1873 2037
3 1813 1869 1954
3 1627 2163 2488
3 1497 1495 1645
3 1198 1409 2168
3 724 726 1912
3 1869 987 1954
3 763 1999 2338
3 1010 1170 1374
3 984 976 1720
3 1470 1743 1744
3 689 588 1150
3 1901 1949 2359
3 1640 632 1862
3 274 272 1787
3 563 564 1752
3 994 817 1505
3 737 1807 1931
3 1770 1147 1771
3 1233 1235 1733
3 2450 1418 2521
3 414 410 1821
3 908 1099 1850
3 1227 1228 1229
3 1692 1203 1693
3 1625 216 2194
3 512 528 603
3 1377 1357 1638
3 1465 1464 1470
3 1360 1359 2177
3 1686 2007 2095
3 1336 1028 1641
3 1857 751 1923
3 1758 572 1759
3 553 541 557
3 1171 1715 1811
3 956 1003 1073
3 1467 1465 1675
3 719 718 724
3 1509 1977 2096
3 1734 1625 1736
3 1503 1504 1868
3 592 597 1776
3 180 181 232
3 162 163 231
3 2308 1759 2370
3 1357 1114 1358
3 875 946 1010
3 509 631 1599
3 17 18 199
3 144 145 200
3 1099 906 1792
3 1469 1467 1494
3 605 589 1939
3 1208 1205 1211
3 354 344 2091
3 692 782 804
3 1010 946 1170
3 1463 1462 1464
3 716 715 718
3 714 713 715
3 271 273 656
3 139 1618 1694
3 549 277 686
3 673 672 766
3 1378 1377 1379
3 2007 868 2095
3 999 1028 1336
3 1208 1211 1447
3 601 545 627
3 1119 1643 1713
3 1332 1333 1387
3 910 912 956
3 520 521 2000
3 828 1789 1819
3 277 607 1520
3 1338 1339 2247
3 818 819 910
3 767 766 814
3 712 711 713
3 1494 1467 1675
3 639 594 640
3 2044 557 2256
3 235 20 1709
3 1620 236 2394
3 804 919 962
3 1862 702 2070
3 681 852 853
3 1559 1556 1561
3 1622 941 2471
3 2165 1440 2330
3 612 644 692
3 697 698 818
3 1903 1516 1994
3 371 379 1795
3 428 426 2138
3 1290 1294 2064
3 1384 1904 2432
3 566 689 1600
3 471 452 472
3 1092 1091 1093
3 1002 1131 1719
3 1090 1089 1091
3 875 841 946
3 1758 1760 1763
3 1562 1606 2085
3 1833 1830 2075
3 178 179 214
3 164 165 213
3 769 923 1815
3 692 644 782
3 804 782 919
3 182 183 256
3 160 161 257
3 1329 1331 1482
3 962 1663 1664
3 1177 1179 2042
3 403 405 1805
3 1461 1460 1462
3 140 208 1618
3 1859 232 1860
3 274 1787 2099
3 1381 2126 2186
3 1558 1560 1789
3 430 428 682
3 452 435 1683
3 1487 1156 1488
3 1470 1464 1743
3 597 1794 1893
3 1244 1253 1669
3 962 919 1663
3 258 8 1673
3 1087 1785 1786
3 970 1042 1726
3 199 1677 2149
3 1664 1663 1665
3 1229 1230 1231
3 991 827 1713
3 792 1603 1848
3 1822 1444 1823
3 665 666 697
3 19 20 235
3 142 143 236
3 728 1098 1833
3 532 530 1898
3 1015 1124 1372
3 1546 1547 1548
3 1851 1850 1853
3 1877 393 2240
3 923 1105 1815
3 1090 1091 1092
3 687 686 703
3 1683 435 1790
3 887 826 1961
3 684 663 1089
3 426 1934 2138
3 464 510 680
3 853 854 855
3 568 572 1758
3 1376 1357 1377
3 1205 1203 1692
3 1607 1789 1855
3 710 709 711
3 780 781 1775
3 1434 1103 1435
3 876 815 877
3 766 672 1656
3 1393 1590 2457
3 684 1089 1090
3 530 890 1898
3 926 1920 1943
3 696 414 1821
3 1563 1562 1777
3 1054 1046 1580
3 1398 1973 1974
3 137 216 1625
3 1210 1040 1430
3 1750 563 1751
3 2010 1665 2299
3 1510 1374 1511
3 1777 1562 2085
3 1707 252 1791
3 1932 1404 1933
3 459 438 1814
3 139 140 1618
3 1093 1156 1487
3 231 163 1658
3 699 722 723
3 1545 1095 2508
3 598 612 1794
3 579 554 1880
3 1941 1908 2401
3 1231 1232 1233
3 1831 1829 1841
3 1037 1383 1799
3 177 178 1506
3 636 600 637
3 1036 1539 2286
3 1356 1114 1357
3 1523 1516 2377
3 704 703 705
3 403 402 405
3 648 792 1848
3 723 756 808
3 1388 1389 2170
3 933 932 1770
3 223 1710 1711
3 1779 399 1783
3 1223 1222 1224
3 1028 1029 1313
3 257 161 1654
3 418 412 421
3 734 882 1807
3 693 657 1095
3 1368 1370 1436
3 136 137 1625
3 688 652 817
3 1075 1327 1328
3 540 479 1813
3 398 395 402
3 548 1629 1630
3 574 591 699
3 1469 1494 1495
3 1041 1598 2175
3 167 168 202
3 175 176 204
3 2045 2046 2201
3 186 187 1602
3 886 887 888
3 1253 1254 1259
3 8 9 1673
3 792 655 810
3 843 1145 1960
3 1180 1349 1745
3 1165 1345 1512
3 708 706 709
3 136 1625 1734
3 21 22 207
3 140 141 208
3 625 626 665
3 1093 1094 1156
3 1585 795 1834
3 1117 1713 1806
3 599 579 600
3 810 871 1826
3 1047 1046 1048
3 1292 1291 1293
3 161 162 1654
3 199 1676 1677
3 1260 1282 1804
3 1005 1142 1768
3 1233 1234 1235
3 792 810 922
3 1122 1719 1737
3 976 985 1720
3 1278 1279 2292
3 2390 1934 2531
3 1436 1437 2350
3 270 271 1647
3 1199 966 1846
3 1683 1342 2212
3 656 273 2124
3 699 591 722
3 1977 1139 2096
3 1738 1719 1881
3 1722 985 1874
3 1797 1448 1798
3 162 231 1654
3 632 604 1862
3 252 1602 1791
3 1051 1050 1052
3 1045 1023 1046
3 648 655 792
3 993 1100 1101
3 1321 1055 1322
3 806 709 1627
3 904 903 981
3 1220 1267 1268
3 648 605 655
3 1737 1719 1738
3 385 399 1779
3 506 499 1828
3 1132 266 1402
3 1170 1418 1419
3 1323 2302 2354
3 24 25 215
3 137 138 216
3 721 965 1919
3 1787 1414 2460
3 778 1117 1806
3 723 722 756
3 407 403 1805
3 564 574 1752
3 1049 1048 1050
3 842 841 875
3 1608 1546 1842
3 809 808 899
3 1517 1519 1520
3 1530 1532 1533
3 889 421 1772
3 913 1002 1122
3 1314 1316 1367
3 1017 877 1684
3 841 802 1778
3 1235 1236 1237
3 751 1857 1900
3 1114 924 1767
3 1344 1644 2360
3 1895 1394 2371
3 1518 1535 1861
3 1758 1759 1760
3 1122 1002 1719
3 546 563 1750
3 1056 1726 1727
3 663 660 1746
3 621 622 625
3 1720 985 1721
3 1857 1843 1900
3 808 756 913
3 1056 970 1726
3 27 28 230
3 134 135 229
3 908 906 1099
3 163 164 1658
3 1727 1726 1729
3 7 8 258
3 154 155 259
3 1101 1403 1404
3 808 913 1874
3 1260 1269 1282
3 1389 1387 2262
3 1297 1053 1822
3 1555 1553 1557
3 1463 1464 1465
3 230 28 1765
3 1237 1238 1239
3 554 553 1880
3 775 778 1806
3 985 899 1874
3 1270 1524 2199
3 489 1820 1936
3 692 1072 1794
3 1472 2142 2272
3 1845 496 1929
3 438 431 1814
3 613 615 1824
3 1241 1242 1245
3 1783 415 1915
3 1192 2081 2149
3 178 214 1506
3 1816 988 1817
3 1760 1759 1761
3 1103 1092 1623
3 1512 1345 1661
3 1876 921 2295
3 1165 984 1345
3 978 1074 1075
3 1239 1240 1241
3 542 541 553
3 813 988 1816
3 1148 984 1165
3 871 970 1056
3 472 452 1683
3 1207 1796 1870
3 1167 1166 1754
3 1296 1053 1297
3 966 964 1846
3 976 899 985
3 982 976 984
3 702 1815 2015
3 900 899 976
3 1143 995 1206
3 1576 1024 1827
3 1235 1248 1733
3 1558 1557 1560
3 943 995 1143
3 1920 1144 1943
3 1471 2115 2477
3 29 30 255
3 132 133 254
3 1630 1633 1634
3 1225 1224 1226
3 1925 1573 1926
3 1211 1205 1692
3 725 825 826
3 1113 924 1114
3 600 579 1988
3 717 1552 1567
3 1820 1657 1936
3 674 276 2099
3 395 393 1877
3 572 543 1897
3 1575 1308 2255
3 999 1000 1028
3 1118 1775 1876
3 1797 1798 2430
3 526 546 559
3 867 853 2186
3 1142 1771 1949
3 1068 1275 1442
3 679 385 1779
3 1607 1558 1789
3 580 568 1758
3 1244 1252 1253
3 1760 1761 1762
3 398 402 403
3 1476 1258 1478
3 418 421 889
3 1771 1147 1839
3 164 213 1658
3 1720 1721 2267
3 1668 1591 2512
3 1042 1128 1445
3 1098 1830 1833
3 1102 1092 1103
3 2249 884 2466
3 1104 1103 1434
3 410 416 1821
3 514 513 541
3 580 1758 1763
3 637 673 1741
3 1913 936 1914
3 1394 1395 2337
3 919 920 999
3 577 554 579
3 2111 1660 2263
3 231 1658 1659
3 612 613 644
3 568 543 572
3 770 775 1806
3 1445 1128 1446
3 1546 1548 1842
3 448 460 478
3 810 870 871
3 1789 1560 1819
3 1154 1082 1431
3 873 973 1802
3 379 385 679
3 837 850 921
3 1461 1462 1463
3 1346 1076 1420
3 1088 1344 1808
3 2125 1143 2353
3 931 977 978
3 882 772 1802
3 29 255 1765
3 849 1513 2180
3 1713 827 1806
3 1130 1396 1397
3 681 638 852
3 1417 1321 1873
3 1654 1402 2530
3 502 526 1740
3 1124 888 2177
3 1266 1460 1461
3 515 1175 1840
3 1253 1264 1669
3 479 466 1813
3 1727 1729 1757
3 379 380 385
3 1971 1480 2514
3 1637 1739 2459
3 1207 1205 1208
3 529 519 1899
3 1129 1845 1929
3 224 1661 2267
3 192 1856 2361
3 732 734 1807
3 1184 2163 2435
3 1119 1120 1353
3 415 414 431
3 719 724 725
3 559 546 1750
3 871 872 970
3 1038 917 1622
3 574 699 1752
3 166 167 1679
3 1117 1118 1119
3 1409 1196 2035
3 617 619 621
3 1172 1173 1439
3 1191 1005 1768
3 664 663 684
3 494 493 1841
3 890 529 1731
3 840 802 841
3 493 974 1841
3 385 386 399
3 679 1779 1780
3 371 376 379
3 416 433 1109
3 670 769 1815
3 902 866 903
3 1780 1779 1781
3 480 515 1840
3 970 971 1042
3 433 448 1714
3 28 29 1765
3 1005 949 1142
3 778 780 1117
3 959 1037 1799
3 1073 1003 1076
3 535 532 1898
3 1119 1118 1120
3 658 657 693
3 1378 1379 1380
3 1397 1396 1809
3 1610 1609 1612
3 1819 1560 2016
3 1837 952 1865
3 1719 1131 1881
3 1131 1399 1400
3 1352 1138 2058
3 399 406 409
3 548 1630 2041
3 1275 1338 2251
3 582 1816 1818
3 1835 1836 2144
3 993 1101 1980
3 1699 1698 1700
3 2407 364 2505
3 1189 1190 1788
3 1117 780 1118
3 1830 1829 1831
3 637 672 673
3 692 804 1072
3 1204 1203 1205
3 1374 1170 2139
3 612 692 1794
3 1642 1408 2286
3 723 808 809
3 450 459 1812
3 409 410 414
3 802 801 1778
3 1853 1854 2483
3 1042 1127 1128
3 1199 1846 2225
3 1147 990 1273
3 1383 1384 2432
3 432 431 438
3 1353 1120 1390
3 1093 1091 1094
3 2020 250 2254
3 148 149 1639
3 606 605 648
3 1970 2016 2422
3 2201 2046 2327
3 475 471 513
3 412 407 1951
3 1991 246 2139
3 727 695 728
3 1673 234 1788
3 1554 1556 1559
3 1089 663 1746
3 1846 964 2056
3 923 991 1088
3 409 406 410
3 729 728 730
3 1424 1427 1856
3 1473 1911 2407
3 1376 1377 1378
3 1010 1374 1510
3 853 852 854
3 366 369 1087
3 772 873 1802
3 1219 1218 1626
3 1766 229 2061
3 1088 991 1344
3 922 810 1826
3 518 506 695
3 405 402 2116
3 962 1664 2316
3 913 942 1002
3 932 990 1147
3 629 813 1816
3 876 877 992
3 399 386 406
3 932 845 990
3 1002 1123 1131
3 843 996 1145
3 781 837 1775
3 262 2304 2491
3 431 696 1814
3 1273 1695 1892
3 731 730 732
3 737 732 1807
3 439 438 450
3 1829 498 1841
3 800 685 801
3 767 814 815
3 1060 766 1656
3 673 766 767
3 1403 1605 1882
3 716 718 719
3 1338 1069 1339
3 847 752 1843
3 864 862 1116
3 2302 443 2519
3 923 827 991
3 526 559 1740
3 1911 1473 2358
3 1085 1310 1867
3 809 899 900
3 1227 1226 1228
3 729 730 731
3 1436 1370 1437
3 731 732 737
3 769 827 923
3 456 452 471
3 1433 1503 2471
3 1435 1103 1623
3 385 380 386
3 1141 1787 2460
3 1354 1088 1808
3 657 649 1848
3 415 431 432
3 484 892 1820
3 727 728 729
3 855 854 1450
3 1721 1722 1723
3 1643 1353 1644
3 1145 1916 1960
3 1421 1191 1422
3 466 1812 1813
3 943 944 995
3 1356 1357 1376
3 714 715 716
3 1156 1094 1157
3 598 611 612
3 631 1600 2298
3 590 589 605
3 965 969 1919
3 416 1109 1821
3 242 1697 2335
3 1548 1547 1549
3 550 573 584
3 584 604 632
3 409 414 415
3 712 713 714
3 642 670 702
3 818 698 819
3 1006 1005 1191
3 1624 1689 1691
3 169 170 237
3 173 174 238
3 956 912 1003
3 937 936 1913
3 1317 1025 1875
3 515 540 550
3 973 1799 1800
3 973 959 1799
3 518 695 727
3 910 819 912
3 584 573 604
3 1170 946 1418
3 173 238 1847
3 550 540 573
3 982 984 1148
3 900 976 982
3 441 435 452
3 448 478 1714
3 1849 1648 2173
3 1631 1628 1637
3 1830 1831 1832
3 1383 1216 1384
3 734 772 882
3 949 933 1770
3 1332 1330 1333
3 574 575 591
3 1105 1088 1354
3 702 670 1815
3 498 494 1841
3 827 770 1806
3 873 959 973
3 1390 1391 1415
3 450 438 459
3 950 949 1005
3 351 362 364
3 1313 1029 1314
3 432 438 439
3 837 838 850
3 1273 1274 1695
3 850 851 943
3 911 952 1837
3 1259 1260 1804
3 566 587 588
3 1037 1216 1383
3 1337 1265 1538
3 1087 369 1795
3 810 655 870
3 1559 1561 1566
3 1147 1273 1839
3 732 733 734
3 1662 867 2126
3 890 1731 2241
3 1854 1852 2397
3 515 479 540
3 451 450 466
3 697 666 698
3 1367 1316 1368
3 662 660 663
3 365 355 694
3 1358 1114 1767
3 379 376 380
3 1796 1448 1797
3 179 180 1859
3 790 668 849
3 569 568 580
3 690 860 931
3 466 450 1812
3 431 414 696
3 1973 1133 1974
3 651 649 657
3 467 466 479
3 1288 1289 1835
3 264 265 1986
3 1302 1303 1304
3 592 596 597
3 1873 1321 2037
3 544 543 568
3 275 277 549
3 209 1937 2389
3 539 565 566
3 1485 227 1486
3 2384 2190 2408
3 1781 1779 1783
3 480 479 515
3 689 1416 2413
3 1108 1161 1539
3 1867 1310 1895
3 1300 1301 1302
3 1695 1696 1697
3 633 632 668
3 1304 1451 1452
3 988 911 1837
3 168 169 1724
3 969 1012 1172
3 582 629 1816
3 1843 752 1900
3 629 812 813
3 710 711 712
3 1782 1780 1784
3 536 535 543
3 1089 1746 1969
3 1108 1107 1161
3 1514 1426 1856
3 486 484 1820
3 369 371 1795
3 1817 988 1924
3 493 609 974
3 1422 1191 2023
3 1426 1424 1856
3 842 875 924
3 922 1826 2259
3 989 1361 1886
3 928 1070 1288
3 669 668 790
3 1113 1114 1356
3 1027 847 1843
3 728 695 1098
3 734 735 772
3 975 1107 1108
3 955 859 1962
3 813 911 988
3 1208 1448 1796
3 1101 1405 1980
3 602 676 2045
3 586 581 589
3 546 547 563
3 493 491 609
3 628 1524 2390
3 348 344 354
3 1298 1299 1300
3 509 538 539
3 974 609 975
3 813 891 911
3 871 870 872
3 1355 1354 1423
3 489 486 1820
3 778 779 780
3 1025 1176 1875
3 772 773 873
3 803 1743 2347
3 167 202 1679
3 873 883 959
3 1483 1571 2375
3 427 1756 2221
3 540 1813 1954
3 1202 1200 1203
3 959 1035 1037
3 837 921 1775
3 1304 1305 1451
3 1799 1383 2195
3 604 642 1862
3 1470 1744 2474
3 1854 2397 2453
3 1282 1269 1386
3 1573 1572 2157
3 472 2222 2290
3 1307 1708 2341
3 769 770 827
3 1037 1215 1216
3 791 790 856
3 1053 1052 1822
3 1056 1727 1728
3 1341 1138 1352
3 1300 1299 1301
3 1814 696 1838
3 1198 1196 1409
3 492 491 493
3 439 450 451
3 1171 858 2132
3 1259 1254 1260
3 665 626 666
3 970 872 971
3 258 1602 2357
3 1296 1297 1472
3 490 489 491
3 516 437 2494
3 1298 1027 1299
3 846 845 932
3 501 508 509
3 460 461 502
3 448 449 460
3 482 480 1840
3 1229 1228 1230
3 604 641 642
3 1424 1423 1427
3 502 503 526
3 1028 1000 1029
3 935 933 949
3 1084 1085 1867
3 2028 1711 2353
3 1513 1426 1514
3 892 482 1840
3 852 638 1988
3 402 395 1877
3 738 737 845
3 413 412 418
3 1119 1353 1643
3 526 527 546
3 280 279 281
3 1731 1155 2123
3 1042 971 1127
3 1208 1447 1448
3 433 434 448
3 262 159 2304
3 184 1454 2303
3 1051 1052 1053
3 1816 1817 1818
3 1081 1417 1444
3 781 836 837
3 911 951 952
3 1090 1092 1102
3 202 168 1724
3 1085 1309 1310
3 408 407 412
3 1337 1538 1864
3 1515 1514 1516
3 530 529 890
3 1517 1518 1519
3 549 686 687
3 923 1088 1105
3 404 403 407
3 1835 1289 1836
3 1314 1367 2121
3 1380 1379 2416
3 670 671 769
3 899 808 1874
3 1040 903 1703
3 1596 1595 2154
3 1496 1495 1497
3 636 637 1741
3 1377 1638 2288
3 1288 1070 1289
3 1072 804 1981
3 1129 1334 1845
3 1865 1084 1866
3 792 922 1603
3 1253 1252 1254
3 981 1167 1792
3 1302 1301 1303
3 1641 1651 2019
3 952 953 1084
3 1813 1812 1869
3 732 730 733
3 975 1106 1107
3 1142 949 1770
3 981 1166 1167
3 840 841 842
3 451 466 467
3 1273 990 1274
3 1049 1050 1051
3 1473 2407 2505
3 968 966 1199
3 642 643 670
3 1310 1309 1311
3 422 419 435
3 1063 833 1082
3 919 782 920
3 911 891 951
3 1084 953 1085
3 1763 1764 2164
3 1498 1497 1682
3 515 550 1175
3 1079 937 1913
3 642 702 1862
3 845 737 1931
3 1394 1311 1395
3 1395 1521 1522
3 467 479 480
3 1755 1754 1793
3 1231 1230 1232
3 1557 1553 2030
3 1624 1691 2262
3 584 632 633
3 1094 1091 1969
3 708 709 710
3 1948 1627 2488
3 952 951 953
3 1102 1103 1104
3 1047 1048 1049
3 1310 1311 1394
3 1852 1099 1985
3 143 144 1717
3 813 812 891
3 1944 1044 1945
3 1105 1354 1355
3 1300 1302 1455
3 1914 936 1940
3 1415 1391 1710
3 1299 1027 1843
3 952 1084 1865
3 1695 1274 1696
3 776 774 1928
3 282 281 283
3 2003 1347 2279
3 1206 995 1499
3 1164 1685 1686
3 1551 1565 2030
3 969 1172 1919
3 633 668 669
3 734 733 735
3 1373 1372 1438
3 599 600 636
3 1431 1860 2487
3 1579 1577 1999
3 484 482 892
3 917 940 941
3 2144 1836 2169
3 1866 1084 1867
3 1110 1747 1748
3 998 1171 1811
3 1390 1120 1391
3 644 1824 2057
3 1362 1961 2048
3 944 1283 1825
3 1086 1027 1298
3 679 1780 1782
3 974 975 1879
3 507 506 518
3 1121 1079 1401
3 775 777 778
3 1965 762 2349
3 1045 1046 1047
3 1772 421 2106
3 16 17 2081
3 416 417 433
3 921 850 2125
3 1607 1855 1958
3 649 648 1848
3 1241 1240 1242
3 2012 1443 2251
3 926 928 1920
3 1487 1488 2025
3 1006 1191 1421
3 1355 1423 1424
3 1133 852 1988
3 591 592 1776
3 1299 1843 1857
3 1085 1308 1309
3 490 491 492
3 958 694 1575
3 1384 1216 1385
3 741 915 1878
3 1233 1232 1234
3 669 790 791
3 481 480 482
3 687 703 704
3 492 493 494
3 1634 1633 1922
3 1697 1696 1698
3 1721 985 1722
3 1839 1273 1892
3 772 735 773
3 488 486 489
3 950 1005 1006
3 1513 1514 1515
3 454 500 501
3 873 773 883
3 284 283 285
3 2185 1505 2442
3 959 883 1035
3 543 535 1897
3 1904 1384 2093
3 800 801 802
3 1037 1035 1215
3 1293 1964 1965
3 1239 1238 1240
3 943 1143 2125
3 1782 1784 1785
3 913 756 942
3 488 490 1884
3 1590 1749 2501
3 1235 1234 1236
3 791 856 1408
3 702 2015 2070
3 1108 1539 1540
3 1021 1023 1045
3 695 506 1828
3 1530 1528 1532
3 488 489 490
3 1621 1619 2161
3 704 705 706
3 1304 1303 1305
3 558 1704 2167
3 625 622 626
3 542 553 554
3 604 573 641
3 664 684 685
3 564 571 574
3 1108 1540 1879
3 1856 1427 2361
3 880 1025 1129
3 1395 1311 1521
3 1466 1465 1467
3 915 495 1884
3 1515 1516 1523
3 1237 1236 1238
3 606 648 649
3 999 920 1000
3 676 829 1043
3 2100 794 2142
3 227 151 1500
3 577 579 599
3 153 154 1671
3 1175 550 1927
3 1014 888 1015
3 286 285 287
3 1649 1280 2427
3 1725 204 2137
3 975 609 1106
3 1129 1317 1334
3 1109 1730 2426
3 1468 1467 1469
3 1131 1123 1399
3 1215 2235 2378
3 1976 1149 1989
3 397 395 398
3 746 743 1878
3 1041 1343 1598
3 975 1108 1879
3 741 495 915
3 1167 1754 1755
3 288 287 289
3 743 741 1878
3 1274 990 1931
3 1506 214 1507
3 857 1584 2277
3 2341 1522 2387
3 846 932 933
3 1107 1106 1110
3 584 633 1927
3 290 289 291
3 722 591 1776
3 1544 1094 1969
3 1135 270 1647
3 935 949 950
3 1920 1288 2080
3 754 1896 2108
3 1693 1199 2225
3 292 291 293
3 394 393 395
3 745 743 746
3 1002 942 1123
3 731 737 738
3 294 293 295
3 1018 1573 1925
3 296 295 297
3 298 297 299
3 321 322 325
3 317 320 321
3 314 315 317
3 312 313 314
3 310 311 312
3 308 309 310
3 1898 890 2275
3 306 307 308
3 304 305 306
3 1401 1079 1913
3 300 299 301
3 302 303 304
3 300 301 302
3 302 301 303
3 491 489 1936
3 298 299 300
3 304 303 305
3 306 305 307
3 308 307 309
3 310 309 311
3 312 311 313
3 314 313 315
3 317 315 320
3 321 320 322
3 1301 1299 1857
3 514 541 542
3 296 297 298
3 850 838 851
3 1310 1394 1895
3 294 295 296
3 590 605 606
3 292 293 294
3 651 657 658
3 290 291 292
3 1207 1208 1796
3 835 1976 1989
3 621 619 622
3 746 1878 1896
3 481 482 483
3 1026 847 1027
3 1335 1207 1870
3 1661 59 2266
3 727 729 1155
3 288 289 290
3 1058 776 1928
3 662 663 664
3 495 488 1884
3 1959 319 2522
3 943 851 944
3 1293 1291 1964
3 534 532 535
3 640 645 646
3 2280 1014 2385
3 286 287 288
3 591 575 592
3 521 519 529
3 13 14 2114
3 780 779 781
3 918 908 1850
3 837 836 838
3 209 148 1639
3 754 748 1896
3 745 746 747
3 769 671 770
3 929 1065 2197
3 1278 1058 1279
3 483 482 484
3 1564 1557 2030
3 633 807 1927
3 392 391 393
3 1057 1621 2161
3 569 580 581
3 284 285 286
3 876 992 1894
3 497 494 498
3 1630 1635 2041
3 982 1148 1918
3 612 611 613
3 700 634 1044
3 822 674 2099
3 880 1129 1929
3 432 439 654
3 1039 1291 1292
3 1164 1686 1989
3 1129 1025 1317
3 738 845 846
3 582 583 629
3 278 6 279
3 544 568 569
3 1701 1274 1931
3 747 749 751
3 1085 953 1308
3 928 930 1070
3 747 748 749
3 1421 1422 2415
3 902 903 904
3 1309 1308 1543
3 642 641 643
3 904 981 1792
3 646 784 785
3 536 543 544
3 1204 1205 1207
3 365 694 958
3 71 72 217
3 88 89 1901
3 87 88 193
3 101 102 189
3 85 86 242
3 99 100 241
3 74 75 192
3 91 92 219
3 94 95 191
3 83 84 220
3 97 98 221
3 77 78 218
3 80 81 194
3 89 90 245
3 62 63 244
3 60 61 188
3 64 65 223
3 67 68 190
3 90 91 1909
3 98 99 1905
3 61 62 1908
3 69 70 243
3 68 69 1907
3 70 71 1910
3 410 411 416
3 586 589 590
3 685 684 2029
3 390 389 391
3 1715 1150 1811
3 1924 1837 2215
3 282 283 284
3 496 497 1929
3 233 1671 1769
3 627 2185 2442
3 1567 1552 2062
3 629 630 812
3 424 453 454
3 583 562 1942
3 749 750 805
3 744 743 745
3 1897 535 1898
3 467 480 481
3 504 759 880
3 670 643 671
3 89 245 1901
3 193 88 1901
3 221 98 1905
3 245 90 1909
3 91 219 1909
3 62 244 1908
3 188 61 1908
3 99 241 1905
3 190 68 1907
3 71 217 1910
3 69 243 1907
3 243 70 1910
3 505 499 506
3 475 513 514
3 1945 1044 2071
3 1712 2125 2353
3 339 343 440
3 989 1360 1361
3 764 869 1152
3 778 777 779
3 1686 1685 1687
3 742 741 743
3 979 989 1886
3 729 731 1887
3 926 927 928
3 1305 1306 1307
3 1838 1278 2292
3 747 746 748
3 181 182 1652
3 1886 1361 2305
3 1595 1594 2486
3 597 596 598
3 928 1288 1920
3 1970 824 2156
3 1425 1424 1426
3 497 504 1929
3 748 746 1896
3 745 747 1900
3 998 858 1171
3 563 547 564
3 1155 729 1887
3 634 583 1942
3 1439 1173 1440
3 1026 1027 1086
3 79 80 1904
3 1533 1532 1536
3 1449 1426 1513
3 1106 609 1936
3 1318 1013 1319
3 1098 695 1828
3 492 494 496
3 750 748 754
3 731 738 1887
3 2415 1422 2516
3 533 562 582
3 988 1837 1924
3 1216 1215 1863
3 534 535 536
3 747 751 1900
3 1753 809 2119
3 1183 824 1970
3 740 495 741
3 80 194 1904
3 893 383 2087
3 655 605 1939
3 1884 2034 2082
3 1301 1857 1923
3 1307 1306 1708
3 752 745 1900
3 750 754 755
3 76 77 1903
3 2090 2347 2365
3 255 30 2159
3 132 254 2160
3 448 434 449
3 753 848 926
3 1075 1074 1327
3 487 488 495
3 377 381 647
3 483 484 485
3 755 754 2148
3 1584 1925 2277
3 1186 1183 1970
3 951 891 1281
3 485 484 486
3 546 527 547
3 133 134 1766
3 1786 1785 2409
3 280 281 282
3 460 449 461
3 744 745 752
3 77 218 1903
3 983 1918 2342
3 1708 1306 1810
3 1389 2069 2170
3 487 486 488
3 641 573 1954
3 507 518 519
3 502 461 503
3 519 518 1899
3 1202 1203 1204
3 821 897 1972
3 92 93 1902
3 521 529 530
3 749 748 750
3 2176 1380 2416
3 885 826 886
3 485 486 487
3 371 372 376
3 1289 1070 1871
3 1110 1657 1747
3 753 926 1943
3 700 1044 1944
3 880 881 1025
3 496 1845 2034
3 1072 1981 2393
3 462 464 2134
3 1949 1771 2359
3 1044 634 1942
3 550 584 1927
3 1390 1415 2118
3 526 503 527
3 990 845 1931
3 1009 1213 1214
3 740 742 1144
3 219 92 1902
3 727 1155 1899
3 369 370 371
3 623 690 2150
3 1279 1058 1928
3 1408 2235 2286
3 487 495 740
3 979 1886 2086
3 1305 1303 1306
3 421 412 1951
3 843 844 996
3 633 669 807
3 518 727 1899
3 826 825 1961
3 1657 1106 1936
3 1172 1012 1173
3 740 741 742
3 433 417 434
3 505 506 507
3 1333 1674 2437
3 742 743 744
3 469 458 470
3 1381 1380 1382
3 1293 1965 2515
3 1554 1559 2062
3 553 557 2499
3 1774 389 2339
3 497 498 499
3 483 485 576
3 740 1144 1935
3 773 735 834
3 366 367 369
3 1120 1118 1876
3 1515 1523 1574
3 1319 1013 2039
3 1303 1301 1923
3 457 447 458
3 561 593 594
3 1355 1424 1425
3 609 491 1936
3 204 1732 2137
3 791 1408 1642
3 995 944 1825
3 456 471 475
3 1692 1693 2239
3 580 1763 2164
3 1292 1293 2117
3 441 452 456
3 388 384 389
3 823 821 1972
3 504 880 1929
3 176 177 1680
3 1070 1071 1871
3 15 2260 2477
3 362 363 366
3 2178 2300 2449
3 1035 883 1036
3 2285 1563 2307
3 978 977 1074
3 1090 1102 2029
3 1810 1306 1923
3 496 494 497
3 1306 1303 1923
3 432 654 1915
3 934 933 935
3 356 355 365
3 398 403 404
3 635 701 843
3 1110 1106 1657
3 574 571 575
3 1025 881 1176
3 386 380 786
3 415 432 1915
3 343 347 1911
3 1070 930 1071
3 1688 1740 2231
3 1385 1216 1863
3 1696 1274 1701
3 1645 305 2317
3 880 759 881
3 926 848 927
3 1427 1423 2217
3 1339 1662 2388
3 770 774 775
3 1263 1257 1428
3 1337 1864 2412
3 349 348 355
3 2267 1721 2498
3 753 752 847
3 1375 1086 1473
3 900 982 983
3 332 335 739
3 429 428 430
3 744 752 753
3 1171 2132 2165
3 1425 1426 1449
3 987 641 1954
3 1883 1786 2409
3 427 426 428
3 928 927 930
3 1815 1105 2015
3 1206 1499 1941
3 410 406 411
3 573 540 1954
3 497 499 504
3 528 560 561
3 1933 1404 2399
3 1091 1089 1969
3 1804 1282 2073
3 504 505 759
3 963 924 1113
3 1711 1710 1712
3 881 759 1146
3 968 1199 1200
3 351 352 362
3 848 847 1026
3 521 530 531
3 1884 490 2034
3 1277 957 1966
3 1349 1350 2329
3 676 1043 2045
3 997 1159 1286
3 517 1889 1890
3 781 835 836
3 944 948 1283
3 722 1776 2026
3 507 519 520
3 2040 1352 2058
3 1276 957 1277
3 446 437 447
3 931 860 977
3 361 359 765
3 1248 1536 2534
3 512 523 528
3 408 412 413
3 1368 1369 1370
3 451 2169 2223
3 192 75 1994
3 942 756 2026
3 345 344 348
3 764 1152 1963
3 413 418 419
3 1286 1773 1774
3 770 671 774
3 275 549 2124
3 1497 1645 2461
3 1982 1472 2272
3 422 435 441
3 281 279 736
3 1134 270 1135
3 582 562 583
3 1421 2415 2454
3 485 487 1935
3 2300 1067 2480
3 1578 1576 1827
3 930 927 1061
3 1026 1086 1375
3 922 2259 2379
3 1391 1120 1876
3 1495 1494 2493
3 404 407 408
3 879 2178 2449
3 1700 1698 2036
3 607 1517 1520
3 753 847 848
3 416 411 417
3 1144 742 1943
3 775 776 777
3 754 2108 2148
3 1006 1421 1953
3 585 581 586
3 531 530 532
3 235 1709 1888
3 520 519 521
3 1180 1181 1349
3 1146 759 1967
3 708 710 1921
3 1350 2253 2329
3 436 430 437
3 504 499 505
3 643 641 987
3 336 330 517
3 811 1059 1149
3 1164 1411 1685
3 846 933 934
3 635 843 1960
3 983 982 1918
3 971 872 1096
3 1149 1163 1164
3 169 237 1724
3 1314 1315 1316
3 629 583 630
3 891 812 1916
3 462 463 464
3 487 740 1935
3 798 2084 2189
3 1814 1838 2292
3 1284 1489 1491
3 340 336 2014
3 1670 1461 2200
3 920 782 2057
3 890 2241 2275
3 510 511 512
3 278 279 280
3 839 802 840
3 1858 235 1888
3 1698 1696 2036
3 104 105 222
3 57 58 224
3 1185 1183 1186
3 588 587 623
3 638 600 1988
3 1282 1386 2245
3 811 776 1058
3 816 815 876
3 2034 1845 2082
3 761 636 1741
3 566 565 587
3 174 175 1725
3 347 350 351
3 1469 1495 1496
3 1059 1058 1278
3 811 1149 1976
3 576 485 1935
3 659 658 660
3 859 1153 1962
3 76 1903 1994
3 1821 1109 2426
3 1294 1038 1622
3 733 1833 2075
3 992 993 1980
3 1566 1561 2285
3 525 474 2041
3 464 465 510
3 343 346 347
3 360 893 1982
3 650 649 651
3 896 608 936
3 950 1006 1007
3 1508 1859 1860
3 539 538 565
3 440 343 1911
3 341 340 344
3 221 1905 1906
3 1297 1823 2142
3 759 505 1967
3 1295 1053 1296
3 473 470 474
3 1463 1465 1466
3 1143 1206 2028
3 799 685 800
3 1210 2077 2203
3 509 508 538
3 492 496 2034
3 1553 1551 2030
3 1260 1261 1269
3 1430 1040 1703
3 586 590 1940
3 838 836 868
3 1705 624 2276
3 1749 972 2501
3 742 744 1943
3 804 962 1981
3 1367 1368 2254
3 531 532 533
3 337 336 340
3 1157 1094 1544
3 536 544 1158
3 812 630 1960
3 781 779 835
3 56 57 1947
3 630 583 634
3 1405 1404 1932
3 1281 891 1916
3 339 342 343
3 1411 1163 1730
3 322 323 324
3 344 340 2091
3 1735 1734 1736
3 75 76 1994
3 430 682 2494
3 1907 243 2360
3 589 581 2164
3 694 355 2196
3 744 753 1943
3 775 774 776
3 1210 1430 2077
3 335 338 339
3 1102 1803 2029
3 1078 937 1079
3 870 655 1939
3 505 507 1967
3 357 360 1982
3 1896 1878 2101
3 326 325 328
3 934 935 957
3 585 608 895
3 333 330 336
3 1270 1272 1524
3 688 817 878
3 507 520 1967
3 1428 1257 2074
3 1818 1817 2000
3 896 937 1077
3 934 957 1111
3 329 328 330
3 1499 995 1825
3 944 851 948
3 387 445 462
3 1678 1161 2228
3 777 776 811
3 313 311 757
3 324 331 332
3 848 1026 1955
3 1312 998 1811
3 1321 1322 2037
3 1080 1079 1121
3 1105 1355 2015
3 1645 2317 2461
3 1559 1568 2062
3 332 334 335
3 501 500 508
3 321 325 326
3 394 395 397
3 322 320 323
3 1529 1530 2171
3 1137 797 1138
3 811 1058 1059
3 661 660 662
3 569 581 585
3 183 4 2303
3 5 160 2304
3 1340 1138 1341
3 1660 1626 2185
3 1743 1464 2347
3 1026 1375 1955
3 1149 1059 1163
3 1736 1625 2194
3 1322 1667 2434
3 311 309 1959
3 309 307 319
3 894 700 1944
3 533 534 562
3 1276 1277 1366
3 2190 1706 2408
3 533 532 534
3 1214 1213 1410
3 1164 1163 1411
3 843 701 844
3 1009 1214 2055
3 234 1589 1788
3 2000 1817 2174
3 317 321 2050
3 328 325 945
3 392 393 394
3 588 623 2089
3 1162 958 1681
3 1078 1080 1136
3 927 848 1955
3 1496 1497 1498
3 390 391 392
3 1061 927 1955
3 1283 948 1284
3 635 634 700
3 1244 1251 1252
3 218 78 2093
3 756 722 2026
3 1071 1784 2419
3 1218 1505 2185
3 1284 948 1285
3 1489 1285 1490
3 918 1850 1851
3 684 1090 2029
3 1759 572 2537
3 1691 1690 2446
3 1979 1158 2071
3 606 649 650
3 2045 1043 2046
3 103 104 2025
3 630 634 635
3 360 383 893
3 406 386 2043
3 1909 219 2023
3 1111 957 1276
3 1925 1437 2277
3 1536 2268 2340
3 854 852 1133
3 233 153 1671
3 651 658 659
3 2099 1787 2368
3 1033 1032 1130
3 1015 1372 1373
3 1412 942 2026
3 253 264 1441
3 1531 1534 2332
3 701 700 894
3 106 107 1990
3 2048 1961 2455
3 276 274 2099
3 738 846 1968
3 1325 925 1326
3 896 936 937
3 585 586 608
3 1450 854 1973
3 1361 1360 1362
3 1045 1668 2512
3 303 301 444
3 996 844 997
3 79 1904 2093
3 1989 1686 2095
3 1928 774 2033
3 1942 562 1979
3 287 285 316
3 935 950 1966
3 1466 1467 1468
3 1242 1243 1244
3 1887 738 1968
3 2115 210 2477
3 878 929 1083
3 1326 1736 2194
3 886 888 1014
3 895 608 896
3 289 287 1978
3 821 822 897
3 936 608 1940
3 613 614 615
3 51 52 1996
3 417 411 1160
3 1149 1164 1989
3 386 786 2043
3 285 283 1971
3 1309 1543 2147
3 375 373 2053
3 371 370 372
3 779 777 1976
3 1286 1159 1773
3 2177 887 2376
3 1560 1557 1564
3 1403 1882 2399
3 1727 1757 2246
3 279 6 2049
3 1619 1438 2438
3 291 289 758
3 1781 1915 2294
3 425 401 426
3 349 355 356
3 66 67 2118
3 474 548 2041
3 1686 1687 2007
3 1262 1456 1457
3 1123 942 1412
3 1916 812 1960
3 1355 1425 2015
3 735 733 2075
3 1861 879 2449
3 1284 1285 1489
3 490 492 2034
3 366 363 367
3 980 578 2051
3 906 904 1792
3 534 536 1979
3 842 924 963
3 2051 578 2083
3 1077 937 1078
3 1102 1104 1803
3 894 1944 1946
3 398 404 2060
3 1007 1006 1953
3 369 367 370
3 348 354 2196
3 1078 1079 1080
3 1378 1380 1381
3 1568 1365 2439
3 608 586 1940
3 598 610 611
3 760 636 761
3 869 1137 1351
3 671 643 2033
3 1661 1345 2267
3 938 914 1057
3 783 761 914
3 576 1835 2144
3 388 389 390
3 297 295 318
3 454 453 500
3 1906 1728 2246
3 1439 1440 2468
3 1159 1013 1318
3 764 797 869
3 236 143 1717
3 782 644 2057
3 592 595 596
3 1542 2332 2443
3 1521 1311 2147
3 345 348 349
3 1304 1452 2205
3 1644 1907 2360
3 2146 1125 2149
3 997 844 1013
3 628 375 2053
3 299 297 1984
3 957 935 1966
3 664 685 799
3 301 299 1975
3 362 352 363
3 777 811 1976
3 1942 1979 2071
3 1001 920 2057
3 312 314 768
3 1552 1554 2062
3 615 616 617
3 357 1982 2076
3 800 802 839
3 774 671 2033
3 1749 1169 2105
3 365 958 1162
3 617 618 619
3 283 281 1938
3 1351 1772 2414
3 1525 1765 2489
3 846 934 1968
3 635 700 701
3 555 554 577
3 536 1158 1979
3 1101 1404 1405
3 630 635 1960
3 1811 1150 2089
3 2113 1666 2249
3 172 173 1847
3 107 108 195
3 54 55 196
3 1191 1768 2023
3 1455 1302 2205
3 115 116 2017
3 1387 1333 2437
3 659 661 764
3 1080 1121 1188
3 50 51 2011
3 411 406 2043
3 295 293 1983
3 643 987 2033
3 707 706 708
3 129 130 261
3 32 33 260
3 2159 260 2265
3 449 434 567
3 1314 1029 1315
3 917 796 940
3 378 375 628
3 108 109 1991
3 2370 1759 2537
3 341 344 345
3 997 1013 1159
3 544 569 1993
3 950 1007 1966
3 477 474 525
3 351 350 352
3 1696 1701 2036
3 334 331 803
3 1137 1138 1340
3 562 534 1979
3 109 110 246
3 52 53 247
3 1368 1316 1369
3 659 660 661
3 33 34 2002
3 123 124 2005
3 835 779 1976
3 851 838 1992
3 1530 1533 2172
3 1668 1045 2348
3 1162 1681 1706
3 342 338 468
3 298 300 358
3 765 359 2065
3 725 826 885
3 35 36 2003
3 46 47 2019
3 38 39 2006
3 336 517 2014
3 934 1111 1968
3 116 117 2018
3 650 651 1963
3 223 1711 2162
3 640 594 645
3 1333 1330 2192
3 104 222 2025
3 1603 922 2379
3 963 1113 1115
3 2084 1193 2189
3 564 570 571
3 36 37 2004
3 57 224 1947
3 1542 1601 2269
3 122 123 2012
3 1000 920 1001
3 127 128 240
3 34 35 239
3 383 387 2087
3 1161 1107 2228
3 1781 2294 2419
3 1201 1200 1202
3 124 125 225
3 37 38 226
3 1340 1341 1342
3 869 797 1137
3 839 840 1008
3 1158 544 1993
3 1326 925 1894
3 352 350 353
3 326 329 954
3 1864 2344 2412
3 836 835 2095
3 1051 1053 1295
3 1031 720 1032
3 503 461 787
3 1407 1112 2044
3 661 662 2058
3 838 868 1992
3 112 113 197
3 49 50 198
3 1359 980 1413
3 121 122 211
3 40 41 212
3 48 49 2010
3 113 114 2009
3 1741 673 2131
3 41 42 2020
3 120 121 2013
3 1409 2035 2097
3 1511 1374 2506
3 114 115 248
3 47 48 249
3 42 43 250
3 119 120 251
3 171 6 201
3 6 172 203
3 585 895 1993
3 43 44 2024
3 118 119 2021
3 905 904 906
3 764 661 797
3 337 340 341
3 1413 980 2051
3 117 118 205
3 44 45 206
3 347 346 350
3 1420 1076 1525
3 324 323 331
3 434 417 2031
3 965 967 969
3 716 719 788
3 1260 1254 1261
3 2053 373 2103
3 2069 2068 2170
3 326 328 329
3 1706 996 2408
3 273 275 2124
3 969 1011 1012
3 590 606 2001
3 1718 1611 2280
3 1914 1940 2001
3 915 1884 2082
3 329 330 333
3 620 859 955
3 2168 1409 2305
3 296 298 1997
3 915 2082 2101
3 339 338 342
3 1218 994 1505
3 333 336 337
3 266 263 1742
3 1873 768 2127
3 244 63 2162
3 64 223 2162
3 343 342 346
3 914 761 2258
3 310 312 1987
3 799 800 2055
3 302 304 763
3 1559 1566 1568
3 1598 1343 2114
3 592 575 595
3 341 345 794
3 189 1842 2220
3 767 815 816
3 1003 912 1004
3 839 1008 1009
3 1263 1428 1429
3 564 547 570
3 1845 1334 2082
3 332 331 334
3 901 866 902
3 651 659 1963
3 1009 1112 1213
3 335 334 338
3 569 585 1993
3 1665 1336 2299
3 1945 2071 2153
3 863 862 864
3 907 906 908
3 1849 1486 1930
3 1935 1144 2080
3 967 966 968
3 809 900 2119
3 865 864 866
3 835 1989 2095
3 190 1907 2417
3 333 337 522
3 1110 1748 2228
3 1193 1194 1195
3 94 191 2166
3 473 1854 2453
3 1769 1134 2369
3 948 851 1992
3 237 170 2216
3 420 419 422
3 1448 1447 2364
3 483 576 2144
3 721 1919 2032
3 885 886 1891
3 613 611 614
3 886 1014 1891
3 1160 411 2043
3 1918 1283 2342
3 1651 206 2485
3 1242 1240 1243
3 598 596 610
3 1295 1296 1459
3 1185 1186 1948
3 1425 1449 2070
3 294 296 762
3 1285 948 1992
3 925 876 1894
3 712 714 789
3 603 1668 2398
3 1940 590 2001
3 721 570 964
3 834 735 2075
3 1144 1920 2080
3 2263 1635 2511
3 1204 1207 1335
3 2235 1408 2378
3 965 964 966
3 1990 1435 2218
3 397 398 2060
3 1138 797 2058
3 1787 1141 2368
3 2068 820 2170
3 360 359 361
3 387 462 2087
3 1524 1272 1934
3 819 698 820
3 1197 1196 1198
3 1662 2126 2388
3 78 79 2093
3 1150 588 2089
3 1269 1261 1270
3 1878 915 2101
3 451 467 2169
3 2262 1387 2437
3 1009 1008 1112
3 757 311 1959
3 897 898 1139
3 1854 473 2483
3 2015 1425 2070
3 2082 1334 2101
3 963 1115 1174
3 1047 1049 1287
3 1194 423 1196
3 321 326 2050
3 417 1160 2031
3 854 1133 1973
3 1201 1212 1348
3 705 1586 2163
3 309 319 1959
3 1353 1390 2417
3 427 428 429
3 357 356 359
3 606 650 2001
3 549 1280 2124
3 1213 1112 1407
3 256 2303 2535
3 356 365 2065
3 662 664 2040
3 701 894 2039
3 1325 1371 2451
3 666 626 667
3 1902 93 2166
3 1236 1234 1246
3 800 839 2055
3 1869 1812 2252
3 1197 1364 1365
3 576 1935 2080
3 404 408 798
3 1678 807 2529
3 1560 1564 2016
3 1319 2039 2122
3 425 426 427
3 349 356 357
3 308 310 327
3 1716 622 2484
3 1801 82 2289
3 1768 1949 2420
3 2006 1926 2507
3 351 364 2407
3 420 423 1193
3 659 764 1963
3 292 294 2038
3 840 842 2027
3 736 279 2049
3 372 373 374
3 461 449 2052
3 2189 1195 2285
3 1174 1115 1398
3 367 363 961
3 909 908 918
3 1738 247 2402
3 1007 1761 2308
3 288 290 2135
3 422 441 2035
3 623 624 690
3 537 525 545
3 1953 1421 2454
3 1887 1968 2123
3 861 691 862
3 654 439 2223
3 1136 1080 2054
3 1312 1811 2089
3 575 571 2032
3 383 361 384
3 968 1200 1201
3 797 661 2058
3 1423 1354 2381
3 1180 1178 1181
3 1513 1515 2180
3 72 73 2217
3 462 445 463
3 12 13 2136
3 457 458 469
3 542 554 555
3 599 636 760
3 254 133 1766
3 1130 1397 1937
3 404 798 2060
3 1044 1942 2071
3 690 691 860
3 357 359 360
3 1008 2027 2152
3 1232 1230 1255
3 372 370 373
3 850 943 2125
3 1457 1456 1492
3 1952 324 2282
3 155 2 2356
3 0 7 2357
3 2017 1379 2288
3 918 1851 2008
3 195 1991 2517
3 2090 803 2347
3 1244 1243 1251
3 290 292 368
3 1432 1082 2214
3 1008 840 2027
3 1743 803 2296
3 1013 844 2039
3 365 1162 2065
3 1594 1315 2184
3 387 384 388
3 1508 1860 2311
3 547 527 2056
3 2005 225 2322
3 314 317 2127
3 1853 556 2327
3 201 6 278
3 1907 1644 2417
3 1896 2101 2108
3 646 645 784
3 538 508 558
3 374 375 377
3 1630 1634 1635
3 1579 1999 2352
3 1647 1648 1849
3 1313 1314 2121
3 1179 1433 2042
3 844 701 2039
3 1252 1251 2098
3 816 876 925
3 1922 1228 2281
3 392 394 396
3 1915 654 2294
3 1652 1653 2487
3 429 430 436
3 456 475 476
3 1605 1392 2510
3 126 1882 2284
3 1784 1780 2419
3 500 453 960
3 377 378 381
3 2178 1587 2300
3 1222 1219 1626
3 413 419 420
3 381 382 400
3 2169 1836 2223
3 1906 1905 2129
3 616 614 793
3 1170 1419 2139
3 101 189 2220
3 241 100 2220
3 1968 1111 2123
3 567 434 2031
3 615 614 616
3 1032 720 1921
3 682 428 2138
3 469 470 473
3 339 440 2261
3 1501 238 2226
3 1154 1431 1653
3 446 447 457
3 1251 1243 1257
3 2229 315 2495
3 1201 1202 1212
3 785 784 879
3 464 463 465
3 66 2118 2395
3 324 332 2282
3 286 288 771
3 17 199 2081
3 571 570 721
3 611 610 2092
3 617 616 618
3 1542 1531 2332
3 400 401 424
3 1325 1326 1371
3 1140 1406 1702
3 1323 443 2302
3 1926 1573 2507
3 436 437 446
3 1262 1457 2098
3 67 190 2118
3 1518 1861 2449
3 989 1359 1360
3 1063 1082 1154
3 1757 96 2526
3 969 967 1011
3 868 836 2095
3 1215 1035 2235
3 96 1757 2309
3 261 2160 2380
3 1381 1382 2126
3 1468 1469 2182
3 1334 1317 2108
3 861 863 1064
3 1270 1261 1271
3 360 361 383
3 287 316 1978
3 1856 192 2367
3 1905 241 2129
3 1615 1809 2425
3 528 523 560
3 979 980 989
3 662 2040 2058
3 721 964 965
3 170 171 2216
3 664 799 2040
3 512 511 523
3 1201 1348 2107
3 620 618 858
3 758 289 1978
3 859 858 998
3 424 425 453
3 1616 1615 2193
3 444 301 1975
3 561 560 593
3 965 966 967
3 1798 376 2430
3 340 2014 2091
3 510 465 511
3 107 195 1990
3 1080 1188 2054
3 1153 998 1312
3 1226 1224 1249
3 1012 1011 1363
3 902 904 905
3 842 963 2027
3 268 270 1134
3 865 901 1125
3 2077 558 2102
3 282 284 442
3 1977 1679 2253
3 1496 1498 2047
3 284 286 2063
3 281 736 1938
3 2132 793 2165
3 1674 215 2437
3 2078 1855 2411
3 839 1009 2055
3 1182 824 1183
3 1168 947 1169
3 1289 1871 2242
3 316 285 1971
3 1270 1271 1272
3 1755 1793 2264
3 51 1996 2011
3 383 384 387
3 1146 1924 2215
3 1279 1928 2202
3 619 618 620
3 1194 1196 1197
3 555 578 979
3 1937 1639 2528
3 1262 1257 1263
3 389 384 2339
3 2251 1338 2464
3 1155 1887 2123
3 1151 1937 2528
3 465 463 828
3 1318 1319 2116
3 1687 1688 2231
3 326 954 2050
3 297 318 1984
3 1308 953 2255
3 1846 2056 2198
3 320 315 2229
3 1254 1252 2059
3 760 761 783
3 951 1281 2255
3 1459 1296 2094
3 2288 1638 2470
3 1975 299 1984
3 52 247 1996
3 468 338 2090
3 2140 1511 2506
3 1125 1126 1192
3 593 824 1182
3 720 708 1921
3 704 706 707
3 623 587 624
3 2044 1112 2152
3 1393 1169 1749
3 900 983 2119
3 783 914 938
3 255 2265 2489
3 2039 894 2122
3 317 2050 2127
3 1866 1867 2513
3 374 373 375
3 429 436 455
3 387 388 445
3 1193 423 1194
3 555 577 578
3 1074 977 1187
3 449 567 2052
3 1197 1198 1364
3 2154 1595 2486
3 1486 1849 2173
3 318 295 1983
3 939 1016 1844
3 131 132 2160
3 30 31 2159
3 881 1146 2215
3 1294 1868 2238
3 1300 1455 2314
3 1365 1364 1912
3 783 938 939
3 2061 1735 2441
3 551 545 601
3 2194 216 2536
3 1251 1257 1262
3 888 887 2177
3 1364 1198 2048
3 1498 1682 2340
3 1589 1590 2501
3 60 188 2266
3 1401 1913 2324
3 195 108 1991
3 420 422 423
3 1675 1470 2474
3 258 1673 2183
3 2161 1619 2438
3 1296 1472 2094
3 1808 1910 2381
3 334 803 2090
3 1490 1285 2232
3 523 511 524
3 1240 1238 2074
3 1184 1183 1185
3 39 40 2151
3 473 474 477
3 1461 1463 2200
3 2072 353 2073
3 861 862 863
3 1206 1941 2401
3 958 1575 2287
3 614 611 2092
3 110 111 2140
3 1136 2054 2110
3 645 594 2133
3 260 33 2002
3 673 767 2131
3 989 980 1359
3 1741 2131 2258
3 1317 1875 2148
3 894 1946 2122
3 863 864 865
3 787 461 2052
3 857 2277 2386
3 109 246 1991
3 2017 116 2018
3 1182 1183 1184
3 377 375 378
3 816 925 1324
3 865 866 901
3 1262 1263 1456
3 359 356 2065
3 2129 241 2472
3 283 1938 1971
3 1458 1210 2203
3 1076 1003 2145
3 196 1738 2402
3 1033 1130 1151
3 1188 1121 2106
3 1140 1702 2096
3 549 687 1280
3 1694 1621 2191
3 861 1064 2112
3 1548 1549 2129
3 1784 1071 2462
3 714 716 2066
3 1961 825 2455
3 1447 1211 2250
3 979 578 980
3 905 907 1209
3 381 378 382
3 457 469 552
3 595 575 2032
3 408 413 2084
3 481 483 2144
3 1745 1349 2293
3 1980 1405 2441
3 198 50 2011
3 248 115 2017
3 912 819 2068
3 620 858 859
3 707 708 720
3 821 674 822
3 514 542 2086
3 400 382 401
3 123 2005 2012
3 1772 1351 2374
3 34 239 2002
3 768 314 2127
3 2003 36 2004
3 280 282 2079
3 124 225 2005
3 596 595 2130
3 593 560 824
3 1504 1502 2519
3 239 35 2003
3 1311 1309 2147
3 1318 1877 2240
3 1860 1432 2311
3 1416 1715 2330
3 859 998 1153
3 352 353 2072
3 312 768 1987
3 2027 1174 2152
3 226 38 2006
3 1827 1024 2117
3 1710 1391 2295
3 690 624 691
3 37 226 2004
3 1153 1312 1885
3 853 855 2186
3 1892 242 2373
3 1967 520 2174
3 939 938 1016
3 47 249 2019
3 388 390 2078
3 1991 2139 2517
3 905 906 907
3 571 721 2032
3 1196 423 2035
3 1324 925 1325
3 1151 1130 1937
3 363 352 2072
3 345 349 2076
3 1031 1032 1033
3 214 179 1859
3 211 122 2012
3 602 601 652
3 117 205 2018
3 710 712 2067
3 1602 187 2357
3 520 2000 2174
3 85 242 2335
3 220 84 2335
3 381 400 2113
3 1586 1587 2435
3 424 401 425
3 963 1174 2027
3 860 691 861
3 610 596 2130
3 1958 2078 2431
3 570 547 2056
3 237 2216 2354
3 1211 1692 2219
3 298 358 1997
3 909 947 1041
3 441 456 2097
3 1135 1647 1849
3 1601 1542 2443
3 197 113 2009
3 49 198 2010
3 1911 347 2407
3 1729 191 2309
3 212 41 2020
3 121 211 2013
3 222 105 2218
3 1125 901 1126
3 114 248 2009
3 249 48 2010
3 42 250 2020
3 251 120 2013
3 233 1769 2369
3 1870 647 2113
3 794 345 2076
3 250 43 2024
3 119 251 2021
3 901 902 2141
3 964 570 2056
3 739 335 2261
3 2108 1317 2148
3 577 599 2083
3 205 118 2021
3 44 206 2024
3 1247 1241 2323
3 1894 992 2244
3 6 203 2049
3 1642 1678 2529
3 1417 1873 2333
3 1422 2023 2516
3 341 794 2100
3 73 74 2361
3 1234 1232 2088
3 1261 1254 2059
3 896 1077 2257
3 1921 710 2067
3 125 126 2284
3 220 1699 2289
3 159 5 2304
3 4 184 2303
3 2059 1252 2098
3 1003 1004 2145
3 2328 1325 2451
3 1486 227 1500
3 63 64 2162
3 2081 1192 2260
3 508 500 2102
3 667 1872 2318
3 338 334 2090
3 423 422 2035
3 1192 1126 1471
3 907 908 909
3 1330 1328 2192
3 1972 897 2500
3 2443 316 2514
3 242 86 2373
3 87 193 2373
3 420 1193 2084
3 1473 1086 2358
3 1987 768 2037
3 522 337 2100
3 627 1660 2185
3 1793 446 2264
3 1405 2061 2441
3 1502 1217 2302
3 171 201 2216
3 1158 1993 2153
3 1197 1365 2120
3 1712 1710 2295
3 1121 1401 2414
3 93 94 2166
3 653 652 688
3 622 1716 2452
3 1345 1720 2267
3 477 537 556
3 128 129 2181
3 2331 1295 2458
3 784 645 874
3 1269 1270 2199
3 189 102 2355
3 1041 1168 1343
3 246 110 2140
3 477 525 537
3 755 1895 2371
3 1947 1723 2313
3 1134 1135 2369
3 223 65 2395
3 968 1201 2107
3 1577 1578 2325
3 210 15 2477
3 961 363 2072
3 1581 1579 2352
3 349 357 2076
3 337 341 2100
3 305 303 2317
3 370 367 2103
3 762 296 1997
3 581 580 2164
3 1278 1838 2372
3 1548 2129 2472
3 594 593 2133
3 2021 251 2022
3 2047 1247 2182
3 967 968 2107
3 1169 947 2008
3 481 2144 2169
3 793 614 2092
3 1910 217 2381
3 1251 1262 2098
3 716 788 2066
3 2101 1334 2108
3 2006 39 2151
3 1603 2379 2508
3 1926 2006 2151
3 96 97 2526
3 750 755 2371
3 789 714 2066
3 909 918 947
3 1993 895 2153
3 106 1990 2218
3 1243 1240 2074
3 832 986 1189
3 1283 1284 2342
3 2297 195 2517
3 1043 829 2326
3 767 816 2131
3 602 653 676
3 1004 912 2068
3 2086 1886 2224
3 1124 2177 2467
3 426 401 2531
3 707 720 1030
3 1000 1001 2184
3 1315 1029 2184
3 467 481 2169
3 541 513 2256
3 647 381 2113
3 225 2284 2510
3 2 156 2356
3 187 0 2357
3 40 212 2151
3 2245 1386 2383
3 676 677 829
3 1004 2068 2069
3 1860 232 2487
3 1031 1033 1034
3 829 830 972
3 996 997 2408
3 1195 1194 2120
3 987 1869 2202
3 1410 1213 2222
3 819 820 2068
3 1485 1486 2173
3 1564 2030 2155
3 807 669 2529
3 129 261 2181
3 1525 1076 2145
3 578 577 2083
3 327 310 1987
3 1083 929 2197
3 2131 1324 2258
3 798 408 2084
3 1838 696 2426
3 1486 1500 1930
3 1946 1944 2291
3 2257 1077 2291
3 1512 1661 2266
3 445 388 2078
3 1192 1471 2260
3 2118 1415 2395
3 1466 1468 2158
3 830 677 831
3 211 2012 2251
3 652 601 2442
3 537 545 551
3 558 508 2102
3 198 2011 2128
3 1718 2280 2385
3 500 960 2102
3 1168 1169 1393
3 1127 971 2496
3 95 96 2309
3 2030 1565 2155
3 1919 1172 2273
3 977 860 2112
3 240 128 2181
3 294 762 2038
3 1800 1799 2195
3 712 789 2067
3 972 1749 2326
3 472 1683 2212
3 874 645 2133
3 551 2045 2201
3 2105 1043 2326
3 1957 1212 2301
3 1514 1856 2367
3 565 538 2167
3 373 370 2103
3 355 348 2196
3 1934 1272 2138
3 1934 426 2531
3 1881 1400 2481
3 2046 1851 2327
3 367 961 2103
3 1963 1152 2206
3 201 278 443
3 3 131 2444
3 31 1 2445
3 2035 441 2097
3 503 787 2198
3 1135 1849 1930
3 1534 1983 2306
3 2089 623 2150
3 687 704 2109
3 869 1351 2363
3 1302 1304 2205
3 955 1716 2484
3 1030 720 1031
3 1159 1318 2240
3 1228 1226 2281
3 947 918 2008
3 413 420 2084
3 785 879 2532
3 1041 947 1168
3 1468 2182 2323
3 1246 1234 2088
3 1730 1163 2372
3 542 555 2086
3 1599 631 2312
3 1146 1967 2174
3 1078 1136 2343
3 1515 1574 2180
3 2336 885 2469
3 1257 1243 2074
3 1347 1346 2279
3 2001 650 2206
3 1480 1601 2514
3 1029 1000 2184
3 1956 788 2336
3 1271 1261 2059
3 130 3 2444
3 1 32 2445
3 1570 1507 2197
3 1232 1255 2088
3 791 1642 2529
3 1601 1479 2269
3 1361 1362 2168
3 1634 1922 2281
3 765 2065 2190
3 2071 1158 2153
3 1699 1801 2289
3 832 831 833
3 1864 346 2344
3 456 476 2097
3 1855 828 2411
3 2065 1162 2190
3 1125 1192 2149
3 599 760 2083
3 361 765 2339
3 1731 2123 2241
3 1349 1181 1350
3 1443 1275 2251
3 1819 524 2429
3 1021 1045 2512
3 858 618 2132
3 1999 358 2338
3 368 292 2038
3 290 368 2135
3 803 331 2296
3 1112 1008 2152
3 56 1947 2313
3 555 979 2086
3 1469 1496 2182
3 1011 967 2107
3 248 2017 2288
3 1809 789 2425
3 960 453 2221
3 538 558 2167
3 1858 1187 2248
3 2246 1757 2526
3 902 905 2141
3 1851 1853 2327
3 1224 1222 2111
3 771 288 2135
3 1945 2153 2257
3 1420 1525 2489
3 1399 1123 2393
3 103 2025 2355
3 897 822 898
3 1861 940 2532
3 865 1125 2146
3 1675 2474 2522
3 1573 2157 2507
3 1632 1631 2382
3 551 601 602
3 527 503 2198
3 1708 805 2337
3 1059 1278 2372
3 2056 527 2198
3 860 861 2112
3 1668 2348 2398
3 255 2159 2265
3 1541 1542 2269
3 1428 2074 2227
3 1582 1583 2321
3 389 1774 2503
3 2004 226 2157
3 1777 397 2405
3 1368 1436 2254
3 1061 2409 2462
3 1071 930 2462
3 1126 901 2141
3 1194 1197 2120
3 1452 1952 2282
3 2116 1319 2482
3 105 106 2218
3 1981 1399 2393
3 2119 983 2143
3 444 1682 2461
3 2173 1648 2463
3 616 793 2132
3 1791 1190 2334
3 1826 1728 2259
3 602 652 653
3 1834 1292 2428
3 556 2201 2327
3 1014 1015 2385
3 1995 1287 2331
3 1193 1195 2189
3 816 1324 2131
3 879 1861 2532
3 593 1182 2133
3 1402 266 1742
3 2216 1323 2354
3 1660 1636 2502
3 620 955 2484
3 1162 1706 2190
3 1870 2113 2249
3 204 1680 1732
3 1909 2023 2420
3 217 72 2217
3 376 372 2430
3 905 1209 2141
3 1378 1381 2283
3 1236 1246 2227
3 286 771 2063
3 1635 2263 2502
3 100 101 2220
3 1139 898 1140
3 2114 1343 2136
3 442 284 2063
3 1772 2106 2414
3 1985 1755 2533
3 2192 1328 2315
3 1064 863 2146
3 1631 1637 2459
3 736 2049 2523
3 221 1906 2246
3 318 1983 2171
3 1496 2047 2182
3 1374 2139 2506
3 196 55 2313
3 2087 462 2134
3 676 653 677
3 2304 257 2491
3 1401 2324 2363
3 829 677 830
3 654 2223 2242
3 1187 977 2112
3 1463 1466 2200
3 2023 219 2516
3 1176 881 2215
3 513 471 2290
3 1812 459 2252
3 1386 1269 2199
3 291 758 2306
3 618 616 2132
3 278 280 2210
3 83 220 2289
3 82 83 2289
3 938 1057 2161
3 1189 986 1190
3 788 719 2336
3 1914 2001 2206
3 232 181 1652
3 1567 2062 2490
3 313 757 2495
3 622 619 2484
3 688 878 1320
3 1222 1626 2111
3 282 442 2079
3 1169 2008 2105
3 1966 1007 2308
3 2040 799 2237
3 1744 2229 2495
3 986 833 1063
3 2284 1605 2510
3 887 1961 2376
3 215 1624 2262
3 830 831 832
3 476 475 2224
3 439 451 2223
3 1932 1933 2380
3 2227 1246 2366
3 1212 1202 2301
3 1107 1110 2228
3 249 2010 2299
3 1983 293 2306
3 2055 1214 2237
3 1438 1372 2478
3 824 560 2156
3 2320 1866 2513
3 1351 1137 2374
3 868 2007 2232
3 2063 771 2064
3 1507 214 1508
3 1728 1727 2246
3 1045 1047 2348
3 1139 1140 2096
3 1648 1649 2463
3 1502 2302 2519
3 704 707 2109
3 2343 1136 2396
3 650 1963 2206
3 2153 895 2257
3 396 1958 2431
3 1379 1377 2288
3 2115 1471 2319
3 2033 987 2202
3 2239 1693 2518
3 2025 1488 2355
3 1209 2115 2319
3 523 524 2156
3 783 939 2243
3 376 1798 2497
3 2066 788 2193
3 1984 318 2172
3 425 427 2221
3 203 172 1847
3 446 457 2264
3 1312 2089 2150
3 2138 1272 2211
3 897 1139 2274
3 828 1819 2429
3 1249 1224 2111
3 666 667 2318
3 1371 1326 2194
3 2433 1499 2475
3 1272 1271 2211
3 1367 2254 2479
3 1386 2053 2383
3 2074 1238 2227
3 755 2148 2320
3 2117 1604 2428
3 475 514 2224
3 228 2187 2457
3 1868 1504 2520
3 1626 1218 2185
3 2123 1111 2241
3 1287 1049 2331
3 1280 687 2109
3 459 1814 2292
3 54 196 2402
3 863 865 2146
3 204 176 1680
3 514 2086 2224
3 1646 603 2398
3 112 197 2346
3 358 300 2338
3 1140 898 1141
3 1204 1335 2301
3 1016 2161 2438
3 909 1041 2175
3 1681 2448 2492
3 2252 459 2292
3 1992 868 2232
3 1035 1036 2235
3 1051 1295 2331
3 1836 1289 2242
3 1508 214 1859
3 247 53 2402
3 1016 938 2161
3 1408 856 2378
3 1466 2158 2200
3 725 885 2336
3 855 1450 2421
3 2023 1768 2420
3 1238 1236 2227
3 1679 202 2253
3 2107 1348 2233
3 1653 1431 2487
3 1946 2291 2343
3 2253 202 2329
3 1885 1312 2150
3 378 628 2390
3 2195 1383 2432
3 1520 1519 2480
3 1532 1733 2534
3 308 327 2278
3 953 951 2255
3 1213 1407 2222
3 1561 1563 2285
3 302 763 2338
3 1928 2033 2202
3 763 304 2345
3 832 833 986
3 1352 2040 2237
3 247 1881 2481
3 560 523 2156
3 335 339 2261
3 346 342 2344
3 201 443 1323
3 2301 1335 2466
3 323 320 2229
3 1136 2110 2396
3 1139 1977 2274
3 1809 1615 2423
3 1707 1791 2334
3 46 2019 2485
3 2064 1294 2238
3 1950 197 2404
3 2021 2022 2176
3 1949 245 2420
3 2044 2152 2207
3 1063 1154 1707
3 1012 1363 2406
3 280 2079 2210
3 2237 1214 2351
3 820 698 2318
3 1140 1141 1406
3 205 2021 2176
3 2043 786 2310
3 2145 1004 2446
3 707 1030 2109
3 1406 2460 2473
3 2137 1268 2226
3 16 2081 2260
3 567 2031 2219
3 2112 1064 2248
3 206 45 2485
3 2347 1462 2365
3 1650 1962 2362
3 453 425 2221
3 1209 907 2175
3 1111 1276 2241
3 2448 1145 2492
3 2051 2083 2243
3 59 60 2266
3 1402 1742 2530
3 831 677 2209
3 624 587 2276
3 238 174 1725
3 1011 2107 2233
3 468 2365 2412
3 2337 805 2371
3 254 1932 2380
3 1174 1398 2207
3 2140 111 2346
3 1381 2186 2283
3 1987 2037 2188
3 1740 559 2456
3 1773 391 2503
3 1335 1870 2249
3 1945 2257 2291
3 828 463 2411
3 1246 2088 2208
3 2060 798 2307
3 1773 1159 2240
3 1187 2112 2248
3 1352 2237 2351
3 2037 1322 2188
3 1941 1499 2433
3 2322 225 2510
3 1031 1034 2236
3 327 2188 2321
3 595 2032 2273
3 1464 1462 2347
3 1285 1992 2232
3 799 2055 2237
3 443 278 2210
3 784 874 2178
3 392 396 2431
3 191 95 2309
3 879 784 2178
3 524 511 2429
3 2128 2011 2270
3 895 896 2257
3 2206 1152 2324
3 318 2171 2172
3 2259 1549 2379
3 1214 1410 2351
3 306 308 2278
3 2022 251 2247
3 1757 1729 2309
3 1283 1918 2524
3 996 1706 2492
3 557 2044 2207
3 1798 1448 2364
3 1447 2250 2310
3 559 1750 2403
3 1363 1011 2233
3 1343 1168 2187
3 1407 2044 2256
3 1462 1460 2365
3 1995 2331 2458
3 327 1987 2188
3 2160 254 2380
3 1681 958 2287
3 2031 1160 2250
3 1600 689 2413
3 2219 1692 2239
3 1494 1675 2522
3 1281 1916 2448
3 907 909 2175
3 565 2167 2276
3 2241 1276 2275
3 1978 316 2443
3 2151 212 2350
3 203 1847 2104
3 2049 1481 2523
3 1961 1362 2376
3 2187 1393 2457
3 940 796 2532
3 2293 1349 2329
3 572 1897 2537
3 332 739 2282
3 2052 567 2239
3 1437 1370 2277
3 567 2219 2239
3 667 626 2452
3 1914 2206 2324
3 2243 939 2392
3 2136 1343 2187
3 257 1654 2530
3 1376 1378 2283
3 2076 1982 2272
3 2083 760 2243
3 1944 1945 2291
3 1771 1839 2359
3 1404 1403 2399
3 1875 1866 2320
3 1460 1337 2412
3 760 783 2243
3 1276 1366 2275
3 1428 2227 2366
3 1882 1605 2284
3 1739 1429 2459
3 2321 2188 2434
3 1328 1327 2315
3 798 2189 2307
3 2152 1174 2207
3 2182 1247 2323
3 1516 1514 2367
3 293 291 2306
3 556 537 2201
3 1298 1300 2314
3 1400 1399 2316
3 1649 2236 2463
3 833 831 2424
3 2127 2050 2333
3 1057 914 2328
3 1839 193 2359
3 761 1741 2258
3 1186 1970 2422
3 1429 2366 2382
3 2211 1271 2271
3 1733 1248 2534
3 13 2114 2136
3 2078 390 2431
3 1533 1536 2340
3 1690 2145 2446
3 1277 2308 2370
3 1168 1393 2187
3 1597 2047 2268
3 587 565 2276
3 1908 244 2401
3 225 125 2284
3 610 2130 2468
3 1749 2105 2326
3 1913 1914 2324
3 2366 2208 2382
3 1391 1876 2295
3 457 552 2264
3 653 688 2209
3 1601 2443 2514
3 682 2138 2211
3 992 1980 2244
3 55 56 2313
3 1645 1495 2493
3 473 477 2483
3 202 1724 2329
3 465 828 2429
3 1277 1966 2308
3 1416 2330 2406
3 1912 1364 2455
3 1716 1483 2375
3 2019 1651 2485
3 1725 2137 2226
3 201 1323 2216
3 878 1083 2213
3 2072 2073 2245
3 1563 1777 2405
3 244 2028 2401
3 2016 1564 2422
3 1682 1497 2461
3 1962 1153 2362
3 1298 2314 2358
3 1384 1385 2391
3 688 1320 2209
3 1587 2179 2435
3 786 380 2497
3 1395 1522 2341
3 2032 1919 2273
3 251 2013 2247
3 2219 2031 2250
3 2397 552 2453
3 1765 255 2489
3 2475 1825 2524
3 1202 1204 2301
3 445 2078 2411
3 323 2229 2296
3 1286 2384 2408
3 537 551 2201
3 1724 237 2293
3 84 85 2335
3 1471 1126 2319
3 1635 1634 2511
3 300 302 2338
3 698 666 2318
3 1030 1031 2236
3 2098 1457 2271
3 696 1821 2426
3 1457 1492 2447
3 1956 2336 2469
3 331 323 2296
3 1284 1491 2342
3 2011 1996 2270
3 256 183 2303
3 160 257 2304
3 2204 1589 2501
3 1891 1014 2280
3 719 725 2336
3 1354 1808 2381
3 437 430 2494
3 2377 218 2391
3 2211 2271 2447
3 1407 2256 2290
3 2365 1460 2412
3 2047 1498 2268
3 1825 1283 2524
3 1499 1825 2475
3 1226 1249 2281
3 2051 2243 2392
3 2250 1160 2310
3 111 112 2346
3 304 306 2345
3 1341 1352 2351
3 2166 191 2504
3 2223 1836 2242
3 1996 247 2481
3 1049 1051 2331
3 1086 1298 2358
3 2130 595 2273
3 1249 2111 2263
3 680 1995 2458
3 1511 2140 2346
3 102 103 2355
3 469 473 2453
3 961 2072 2245
3 2073 1282 2245
3 1442 1443 2525
3 74 192 2361
3 2163 1586 2435
3 1519 1518 2449
3 897 2274 2500
3 303 444 2317
3 1615 1614 2423
3 197 2009 2404
3 1634 2281 2511
3 1780 1781 2419
3 1435 1623 2465
3 1286 1774 2384
3 384 361 2339
3 193 1901 2359
3 1165 2433 2475
3 2277 1370 2386
3 677 653 2209
3 1994 1516 2367
3 1479 1478 2440
3 1165 1512 2433
3 1644 1353 2417
3 1711 1712 2353
3 2193 1615 2425
3 1613 1956 2469
3 1440 1173 2330
3 2269 1479 2440
3 222 2218 2465
3 391 389 2503
3 306 2278 2345
3 468 2090 2365
3 221 2246 2526
3 1445 1446 2504
3 939 1844 2392
3 86 87 2373
3 1429 1428 2366
3 2053 2103 2383
3 1348 1212 2312
3 805 750 2371
3 997 1286 2408
3 1152 869 2363
3 2063 2064 2238
3 192 1994 2367
3 1160 2043 2310
3 1926 2151 2350
3 2059 2098 2271
3 1897 1366 2537
3 215 2262 2437
3 1655 1732 2476
3 2415 1128 2454
3 1320 2213 2214
3 7 258 2357
3 259 155 2356
3 2171 1530 2172
3 347 351 2407
3 1077 1078 2343
3 239 2003 2279
3 1446 1128 2415
3 1034 1033 2410
3 601 627 2442
3 1154 1653 2234
3 397 2060 2405
3 2142 794 2272
3 442 2063 2238
3 1863 1215 2378
3 794 2076 2272
3 1883 1375 2505
3 1320 878 2213
3 342 468 2344
3 1903 218 2377
3 380 376 2497
3 1549 1547 2379
3 1148 1165 2475
3 2157 226 2507
3 829 972 2326
3 884 1957 2466
3 2291 1077 2343
3 65 66 2395
3 787 2052 2518
3 2298 1348 2312
3 1946 2343 2396
3 1653 256 2535
3 1842 1548 2472
3 1957 2301 2466
3 1366 1277 2370
3 2213 1432 2214
3 961 2245 2383
3 218 2093 2391
3 1376 2283 2421
3 1873 2127 2333
3 1019 1021 2512
3 1128 1127 2454
3 1104 1434 2450
3 2130 1439 2468
3 2396 2110 2482
3 2186 855 2283
3 1724 2293 2329
3 1163 1059 2372
3 1614 2389 2423
3 53 54 2402
3 1063 1707 2334
3 2283 855 2421
3 1385 1863 2436
3 364 1883 2505
3 517 1890 2387
3 1145 996 2492
3 1047 1287 2348
3 2148 1875 2320
3 205 2176 2416
3 1372 1844 2478
3 1211 2219 2250
3 1141 898 2368
3 245 1909 2420
3 2278 327 2321
3 2389 1397 2423
3 2256 513 2290
3 559 2403 2456
3 1137 1340 2374
3 2093 1384 2391
3 1918 1148 2524
3 1030 2236 2427
3 1867 1895 2513
3 2014 517 2387
3 2271 1457 2447
3 1143 2028 2353
3 1904 194 2432
3 1148 2475 2524
3 1574 1523 2436
3 2213 1083 2311
3 1997 358 2325
3 2139 246 2506
3 1370 1369 2386
3 1271 2059 2271
3 1034 2173 2463
3 1123 1412 2393
3 1578 1827 2515
3 2209 1320 2424
3 2079 1504 2210
3 1361 2168 2305
3 1491 1489 2403
3 238 1725 2226
3 1190 986 2334
3 1547 1545 2508
3 1891 1613 2469
3 1153 1885 2362
3 2208 1632 2382
3 2287 1281 2448
3 1356 1376 2421
3 1965 2349 2515
3 2155 1186 2422
3 1522 2014 2387
3 2158 1468 2323
3 2050 954 2333
3 1397 1809 2423
3 1362 1360 2376
3 1852 1985 2397
3 2069 1691 2446
3 789 2066 2425
3 1895 755 2513
3 1707 1154 2234
3 372 374 2430
3 2225 787 2518
3 2028 1206 2401
3 986 1063 2334
3 1912 726 2439
3 1340 1342 2400
3 1916 1145 2448
3 2236 1649 2427
3 2374 1340 2400
3 2222 1407 2290
3 2324 1152 2363
3 241 2220 2472
3 765 2190 2384
3 2375 667 2452
3 2330 1173 2406
3 1181 1972 2500
3 2126 1382 2388
3 1173 1012 2406
3 315 313 2495
3 1015 1373 2385
3 97 221 2526
3 1937 1397 2389
3 930 1061 2462
3 971 1096 2496
3 45 46 2485
3 669 791 2529
3 1104 2450 2521
3 382 378 2390
3 2191 1371 2536
3 2235 1036 2286
3 831 2209 2424
3 762 1997 2349
3 2379 1547 2508
3 2177 1359 2467
3 2403 1489 2456
3 796 785 2532
3 219 1902 2516
3 1519 2300 2480
3 1065 1655 2476
3 1375 1473 2505
3 1489 1490 2456
3 390 392 2431
3 2247 2013 2464
3 1135 1930 2369
3 2278 1583 2345
3 626 622 2452
3 631 2298 2312
3 2233 1348 2298
3 1398 1974 2499
3 1706 1681 2492
3 261 130 2444
3 32 260 2445
3 822 2099 2368
3 1365 1912 2439
3 941 940 2418
3 1446 2166 2504
3 2106 1121 2414
3 2300 1519 2449
3 1803 1104 2521
3 1732 1570 2476
3 1413 2051 2392
3 2122 1946 2396
3 2238 1868 2520
3 477 556 2483
3 2397 1985 2533
3 463 445 2411
3 2163 1185 2488
3 1126 2141 2319
3 1755 2264 2533
3 972 2204 2501
3 2230 1533 2340
3 1774 1773 2503
3 1997 2325 2349
3 1004 2069 2446
3 2159 31 2445
3 131 2160 2444
3 1371 2191 2451
3 1001 2154 2486
3 1682 2230 2340
3 2103 961 2383
3 1033 1151 2410
3 382 2390 2531
3 1504 2079 2520
3 1583 2278 2321
3 511 465 2429
3 250 2024 2479
3 2208 2088 2509
3 619 620 2484
3 1246 2208 2366
3 2141 1209 2319
3 1359 1413 2467
3 1295 1459 2458
3 2218 1435 2465
3 2281 1249 2511
3 2293 237 2354
3 2207 1398 2499
3 1564 2155 2422
3 552 469 2453
3 1947 224 2498
3 2062 1568 2490
3 2018 205 2416
3 260 2159 2445
3 2160 261 2444
3 2092 610 2468
3 194 2195 2432
3 1432 2213 2311
3 211 2251 2464
3 2378 856 2527
3 1536 1532 2534
3 2364 786 2497
3 2438 1438 2478
3 1185 1948 2488
3 2042 941 2418
3 1582 2321 2434
3 885 1891 2469
3 1364 2048 2455
3 1693 2225 2518
3 401 382 2531
3 1338 2247 2464
3 442 2238 2520
3 1292 2117 2428
3 2274 1350 2500
3 2066 2193 2425
3 2179 1184 2435
3 898 822 2368
3 2436 1863 2527
3 1844 1016 2478
3 2184 1001 2486
3 557 2207 2499
3 2013 211 2464
3 2254 250 2479
3 1350 1181 2500
3 2009 248 2470
3 246 2140 2506
3 1574 2436 2527
3 2139 1419 2517
3 316 1971 2514
3 1319 2122 2482
3 226 2006 2507
3 1400 2270 2481
3 1681 2287 2448
3 2325 1578 2349
3 232 1652 2487
3 1320 2214 2424
3 1632 2208 2509
3 248 2288 2470
3 1406 1141 2460
3 2188 1322 2434
3 2244 1980 2441
3 2088 1255 2509
3 1280 2109 2427
3 2060 2307 2405
3 2236 1034 2463
3 1745 2293 2354
3 2122 2396 2482
3 2109 1030 2427
3 2307 1563 2405
3 1429 2382 2459
3 224 2267 2498
3 682 2211 2447
3 2079 442 2520
3 2348 1287 2398
3 2220 1842 2472
3 1335 2249 2466
3 1249 2263 2511
3 443 2210 2519
3 2385 1373 2394
3 1594 2184 2486
3 2052 2239 2518
3 1568 2439 2490
3 2349 1578 2515
3 2344 468 2412
3 2270 1996 2481
3 1735 2244 2441
3 2260 1471 2477
3 2210 1504 2519
3 1434 2297 2450
3 2297 1419 2450
3 2263 1660 2502
3 2404 2009 2470
3 1718 2385 2394
3 1371 2194 2536
3 2317 444 2461
3 1443 2322 2525
3 1716 2375 2452
3 1863 2378 2527
3 2439 726 2490
3 1057 2328 2451
3 1638 2404 2470
3 1454 2234 2535
3 755 2320 2513
3 2234 1653 2535
3 2264 552 2533
3 1419 2297 2517
3 1392 2322 2510
3 552 2397 2533
3 1798 2364 2497
3 2322 1392 2525
3 2382 1631 2459
3 1016 2438 2478
3 1366 2370 2537
3 1742 2491 2530
3 2491 257 2530
CELL_TYPES 4886
5
5
5
5
5
5
5
5
5
5
5
5
5
5
5
5
5
5
5
5
5
5
5
5
5
5
5
5
5
5
5
5
5
5
5
5
5
5
5
5
5
5
5
5
5
5
5
5
5
5
5
5
5
5
5
5
5
5
5
5
5
5
5
5
5
5
5
5
5
5
5
5
5
5
5
5
5
5
5
5
5
5
5
5
5
5
5
5
5
5
5
5
5
5
5
5
5
5
5
5
5
5
5
5
5
5
5
5
5
5
5
5
5
5
5
5
5
5
5
5
5
5
5
5
5
5
5
5
5
5
5
5
5
5
5
5
5
5
5
5
5
5
5
5
5
5
5
5
5
5
5
5
5
5
5
5
5
5
5
5
5
5
5
5
5
5
5
5
5
5
5
5
5
5
5
5
5
5
5
5
5
5
5
5
5
5
5
5
5
5
5
5
5
5
5
5
5
5
5
5
5
5
5
5
5
5
5
5
5
5
5
5
5
5
5
5
5
5
5
5
5
5
5
5
5
5
5
5
5
5
5
5
5
5
5
5
5
5
5
5
5
5
5
5
5
5
5
5
5
5
5
5
5
5
5
5
5
5
5
5
5
5
5
5
5
5
5
5
5
5
5
5
5
5
5
5
5
5
5
5
5
5
5
5
5
5
5
5
5
5
5
5
5
5
5
5
5
5
5
5
5
5
5
5
5
5
5
5
5
5
5
5
5
5
5
5
5
5
5
5
5
5
5
5
5
5
5
5
5
5
5
5
5
5
5
5
5
5
5
5
5
5
5
5
5
5
5
5
5
5
5
5
5
5
5
5
5
5
5
5
5
5
5
5
5
5
5
5
5
5
5
5
5
5
5
5
5
5
5
5
5
5
5
5
5
5
5
5
5
5
5
5
5
5
5
5
5
5
5
5
5
5
5
5
5
5
5
5
5
5
5
5
5
5
5
5
5
5
5
5
5
5
5
5
5
5
5
5
5
5
5
5
5
5
5
5
5
5
5
5
5
5
5
5
5
5
5
5
5
5
5
5
5
5
5
5
5
5
5
5
5
5
5
5
5
5
5
5
5
5
5
5
5
5
5
5
5
5
5
5
5
5
5
5
5
5
5
5
5
5
5
5
5
5
5
5
5
5
5
5
5
5
5
5
5
5
5
5
5
5
5
5
5
5
5
5
5
5
5
5
5
5
5
5
5
5
5
5
5
5
5
5
5
5
5
5
5
5
5
5
5
5
5
5
5
5
5
5
5
5
5
5
5
5
5
5
5
5
5
5
5
5
5
5
5
5
5
5
5
5
5
5
5
5
5
5
5
5
5
5
5
5
5
5
5
5
5
5
5
5
5
5
5
5
5
5
5
5
5
5
5
5
5
5
5
5
5
5
5
5
5
5
5
5
5
5
5
5
5
5
5
5
5
5
5
5
5
5
5
5
5
5
5
5
5
5
5
5
5
5
5
5
5
5
5
5
5
5
5
5
5
5
5
5
5
5
5
5
5
5
5
5
5
5
5
5
5
5
5
5
5
5
5
5
5
5
5
5
5
5
5
5
5
5
5
5
5
5
5
5
5
5
5
5
5
5
5
5
5
5
5
5
5
5
5
5
5
5
5
5
5
5
5
5
5
5
5
5
5
5
5
5
5
5
5
5
5
5
5
5
5
5
5
5
5
5
5
5
5
5
5
5
5
5
5
5
5
5
5
5
5
5
5
5
5
5
5
5
5
5
5
5
5
5
5
5
5
5
5
5
5
5
5
5
5
5
5
5
5
5
5
5
5
5
5
5
5
5
5
5
5
5
5
5
5
5
5
5
5
5
5
5
5
5
5
5
5
5
5
5
5
5
5
5
5
5
5
5
5
5
5
5
5
5
5
5
5
5
5
5
5
5
5
5
5
5
5
5
5
5
5
5
5
5
5
5
5
5
5
5
5
5
5
5
5
5
5
5
5
5
5
5
5
5
5
5
5
5
5
5
5
5
5
5
5
5
5
5
5
5
5
5
5
5
5
5
5
5
5
5
5
5
5
5
5
5
5
5
5
5
5
5
5
5
5
5
5
5
5
5
5
5
5
5
5
5
5
5
5
5
5
5
5
5
5
5
5
5
5
5
5
5
5
5
5
5
5
5
5
5
5
5
5
5
5
5
5
5
5
5
5
5
5
5
5
5
5
5
5
5
5
5
5
5
5
5
5
5
5
5
5
5
5
5
5
5
5
5
5
5
5
5
5
5
5
5
5
5
5
5
5
5
5
5
5
5
5
5
5
5
5
5
5
5
5
5
5
5
5
5
5
5
5
5
5
5
5
5
5
5
5
5
5
5
5
5
5
5
5
5
5
5
5
5
5
5
5
5
5
5
5
5
5
5
5
5
5
5
5
5
5
5
5
5
5
5
5
5
5
5
5
5
5
5
5
5
5
5
5
5
5
5
5
5
5
5
5
5
5
5
5
5
5
5
5
5
5
5
5
5
5
5
5
5
5
5
5
5
5
5
5
5
5
5
5
5
5
5
5
5
5
5
5
5
5
5
5
5
5
5
5
5
5
5
5
5
5
5
5
5
5
5
5
5
5
5
5
5
5
5
5
5
5
5
5
5
5
5
5
5
5
5
5
5
5
5
5
5
5
5
5
5
5
5
5
5
5
5
5
5
5
5
5
5
5
5
5
5
5
5
5
5
5
5
5
5
5
5
5
5
5
5
5
5
5
5
5
5
5
5
5
5
5
5
5
5
5
5
5
5
5
5
5
5
5
5
5
5
5
5
5
5
5
5
5
5
5
5
5
5
5
5
5
5
5
5
5
5
5
5
5
5
5
5
5
5
5
5
5
5
5
5
5
5
5
5
5
5
5
5
5
5
5
5
5
5
5
5
5
5
5
5
5
5
5
5
5
5
5
5
5
5
5
5
5
5
5
5
5
5
5
5
5
5
5
5
5
5
5
5
5
5
5
5
5
5
5
5
5
5
5
5
5
5
5
5
5
5
5
5
5
5
5
5
5
5
5
5
5
5
5
5
5
5
5
5
5
5
5
5
5
5
5
5
5
5
5
5
5
5
5
5
5
5
5
5
5
5
5
5
5
5
5
5
5
5
5
5
5
5
5
5
5
5
5
5
5
5
5
5
5
5
5
5
5
5
5
5
5
5
5
5
5
5
5
5
5
5
5
5
5
5
5
5
5
5
5
5
5
5
5
5
5
5
5
5
5
5
5
5
5
5
5
5
5
5
5
5
5
5
5
5
5
5
5
5
5
5
5
5
5
5
5
5
5
5
5
5
5
5
5
5
5
5
5
5
5
5
5
5
5
5
5
5
5
5
5
5
5
5
5
5
5
5
5
5
5
5
5
5
5
5
5
5
5
5
5
5
5
5
5
5
5
5
5
5
5
5
5
5
5
5
5
5
5
5
5
5
5
5
5
5
5
5
5
5
5
5
5
5
5
5
5
5
5
5
5
5
5
5
5
5
5
5
5
5
5
5
5
5
5
5
5
5
5
5
5
5
5
5
5
5
5
5
5
5
5
5
5
5
5
5
5
5
5
5
5
5
5
5
5
5
5
5
5
5
5
5
5
5
5
5
5
5
5
5
5
5
5
5
5
5
5
5
5
5
5
5
5
5
5
5
5
5
5
5
5
5
5
5
5
5
5
5
5
5
5
5
5
5
5
5
5
5
5
5
5
5
5
5
5
5
5
5
5
5
5
5
5
5
5
5
5
5
5
5
5
5
5
5
5
5
5
5
5
5
5
5
5
5
5
5
5
5
5
5
5
5
5
5
5
5
5
5
5
5
5
5
5
5
5
5
5
5
5
5
5
5
5
5
5
5
5
5
5
5
5
5
5
5
5
5
5
5
5
5
5
5
5
5
5
5
5
5
5
5
5
5
5
5
5
5
5
5
5
5
5
5
5
5
5
5
5
5
5
5
5
5
5
5
5
5
5
5
5
5
5
5
5
5
5
5
5
5
5
5
5
5
5
5
5
5
5
5
5
5
5
5
5
5
5
5
5
5
5
5
5
5
5
5
5
5
5
5
5
5
5
5
5
5
5
5
5
5
5
5
5
5
5
5
5
5
5
5
5
5
5
5
5
5
5
5
5
5
5
5
5
5
5
5
5
5
5
5
5
5
5
5
5
5
5
5
5
5
5
5
5
5
5
5
5
5
5
5
5
5
5
5
5
5
5
5
5
5
5
5
5
5
5
5
5
5
5
5
5
5
5
5
5
5
5
5
5
5
5
5
5
5
5
5
5
5
5
5
5
5
5
5
5
5
5
5
5
5
5
5
5
5
5
5
5
5
5
5
5
5
5
5
5
5
5
5
5
5
5
5
5
5
5
5
5
5
5
5
5
5
5
5
5
5
5
5
5
5
5
5
5
5
5
5
5
5
5
5
5
5
5
5
5
5
5
5
5
5
5
5
5
5
5
5
5
5
5
5
5
5
5
5
5
5
5
5
5
5
5
5
5
5
5
5
5
5
5
5
5
5
5
5
5
5
5
5
5
5
5
5
5
5
5
5
5
5
5
5
5
5
5
5
5
5
5
5
5
5
5
5
5
5
5
5
5
5
5
5
5
5
5
5
5
5
5
5
5
5
5
5
5
5
5
5
5
5
5
5
5
5
5
5
5
5
5
5
5
5
5
5
5
5
5
5
5
5
5
5
5
5
5
5
5
5
5
5
5
5
5
5
5
5
5
5
5
5
5
5
5
5
5
5
5
5
5
5
5
5
5
5
5
5
5
5
5
5
5
5
5
5
5
5
5
5
5
5
5
5
5
5
5
5
5
5
5
5
5
5
5
5
5
5
5
5
5
5
5
5
5
5
5
5
5
5
5
5
5
5
5
5
5
5
5
5
5
5
5
5
5
5
5
5
5
5
5
5
5
5
5
5
5
5
5
5
5
5
5
5
5
5
5
5
5
5
5
5
5
5
5
5
5
5
5
5
5
5
5
5
5
5
5
5
5
5
5
5
5
5
5
5
5
5
5
5
5
5
5
5
5
5
5
5
5
5
5
5
5
5
5
5
5
5
5
5
5
5
5
5
5
5
5
5
5
5
5
5
5
5
5
5
5
5
5
5
5
5
5
5
5
5
5
5
5
5
5
5
5
5
5
5
5
5
5
5
5
5
5
5
5
5
5
5
5
5
5
5
5
5
5
5
5
5
5
5
5
5
5
5
5
5
5
5
5
5
5
5
5
5
5
5
5
5
5
5
5
5
5
5
5
5
5
5
5
5
5
5
5
5
5
5
5
5
5
5
5
5
5
5
5
5
5
5
5
5
5
5
5
5
5
5
5
5
5
5
5
5
5
5
5
5
5
5
5
5
5
5
5
5
5
5
5
5
5
5
5
5
5
5
5
5
5
5
5
5
5
5
5
5
5
5
5
5
5
5
5
5
5
5
5
5
5
5
5
5
5
5
5
5
5
5
5
5
5
5
5
5
5
5
5
5
5
5
5
5
5
5
5
5
5
5
5
5
5
5
5
5
5
5
5
5
5
5
5
5
5
5
5
5
5
5
5
5
5
5
5
5
5
5
5
5
5
5
5
5
5
5
5
5
5
5
5
5
5
5
5
5
5
5
5
5
5
5
5
5
5
5
5
5
5
5
5
5
5
5
5
5
5
5
5
5
5
5
5
5
5
5
5
5
5
5
5
5
5
5
5
5
5
5
5
5
5
5
5
5
5
5
5
5
5
5
5
5
5
5
5
5
5
5
5
5
5
5
5
5
5
5
5
5
5
5
5
5
5
5
5
5
5
5
5
5
5
5
5
5
5
5
5
5
5
5
5
5
5
5
5
5
5
5
5
5
5
5
5
5
5
5
5
5
5
5
5
5
5
5
5
5
5
5
5
5
5
5
5
5
5
5
5
5
5
5
5
5
5
5
5
5
5
5
5
5
5
5
5
5
5
5
5
5
5
5
5
5
5
5
5
5
5
5
5
5
5
5
5
5
5
5
5
5
5
5
5
5
5
5
5
5
5
5
5
5
5
5
5
5
5
5
5
5
5
5
5
5
5
5
5
5
5
5
5
5
5
5
5
5
5
5
5
5
5
5
5
5
5
5
5
5
5
5
5
5
5
5
5
5
5
5
5
5
5
5
5
5
5
5
5
5
5
5
5
5
5
5
5
5
5
5
5
5
5
5
5
5
5
5
5
5
5
5
5
5
5
5
5
5
5
5
5
5
5
5
5
5
5
5
5
5
5
5
5
5
5
5
5
5
5
5
5
5
5
5
5
5
5
5
5
5
5
5
5
5
5
5
5
5
5
5
5
5
5
5
5
5
5
5
5
5
5
5
5
5
5
5
5
5
5
5
5
5
5
5
5
5
5
5
5
5
5
5
5
5
5
5
5
5
5
5
5
5
5
5
5
5
5
5
5
5
5
5
5
5
5
5
5
5
5
5
5
5
5
5
5
5
5
5
5
5
5
5
5
5
5
5
5
5
5
5
5
5
5
5
5
5
5
5
5
5
5
5
5
5
5
5
5
5
5
5
5
5
5
5
5
5
5
5
5
5
5
5
5
5
5
5
5
5
5
5
5
5
5
5
5
5
5
5
5
5
5
5
5
5
5
5
5
5
5
5
5
5
5
5
5
5
5
5
5
5
5
5
5
5
5
5
5
5
5
5
5
5
5
5
5
5
5
5
5
5
5
5
5
5
5
5
5
5
5
5
5
5
5
5
5
5
5
5
5
5
5
5
5
5
5
5
5
5
5
5
5
5
5
5
5
5
5
5
5
5
5
5
5
5
5
5
5
5
5
5
5
5
5
5
5
5
5
5
5
5
5
5
5
5
5
5
5
5
5
5
5
5
5
5
5
5
5
5
5
5
5
5
5
5
5
5
5
5
5
5
5
5
5
5
5
5
5
5
5
5
5
5
5
5
5
5
5
5
5
5
5
5
5
5
5
5
5
5
5
5
5
5
5
5
5
5
5
5
5
5
5
5
5
5
5
5
5
5
5
5
5
5
5
5
5
5
5
5
5
5
5
5
5
5
5
5
5
5
5
5
5
5
5
5
5
5
5
5
5
5
5
5
5
5
5
5
5
5
5
5
5
5
5
5
5
5
5
5
5
5
5
5
5
5
5
5
5
5
5
5
5
5
5
5
5
5
5
5
5
5
5
5
5
5
5
5
5
5
5
5
5
5
5
5
5
5
5
5
5
5
5
5
5
5
5
5
5
5
5
5
5
5
5
5
5
5
5
5
5
5
5
5
5
5
5
5
5
5
5
5
5
5
5
5
5
5
5
5
5
5
5
5
5
5
5
5
5
5
5
5
5
5
5
5
5
5
5
5
5
5
5
5
5
5
5
5
5
5
5
5
5
5
5
5
5
5
5
5
5
5
5
5
5
5
5
5
5
5
5
5
5
5
5
5
5
5
5
5
5
5
5
5
5
5
5
5
5
5
5
5
5
5
5
5
5
5
5
5
5
5
5
5
5
5
5
5
5
5
5
5
5
5
5
5
5
5
5
5
5
5
5
5
5
5
5
5
5
5
5
5
5
5
5
5
5
5
5
5
5
5
5
5
5
5
5
5
5
5
5
5
5
5
5
5
5
5
5
5
5
5
5
5
5
5
5
5
5
5
5
5
5
5
5
5
5
5
5
5
5
5
5
5
5
5
5
5
5
5
5
5
5
5
5
5
5
5
5
5
5
5
5
5
5
5
5
5
5
5
5
5
5
5
5
5
5
5
5
5
5
5
5
5
5
5
5
5
5
5
5
5
5
5
5
5
5
5
5
5
5
5
5
5
5
5
5
5
5
5
5
5
5
5
5
5
5
5
5
5
5
5
5
5
5
5
5
5
5
5
5
5
5
5
5
5
5
5
5
5
5
5
5
5
5
5
5
5
5
5
5
5
5
5
5
5
5
5
5
5
5
5
5
5
5
5
5
5
5
5
5
5
5
5
5
5
5
5
5
5
5
5
5
5
5
5
5
5
5
5
5
5
5
5
5
5
5
5
5
5
5
5
5
5
5
5
5
5
5
5
5
5
5
5
5
5
5
5
5
5
5
5
5
5
5
5
5
5
5
5
5
5
5
5
5
5
5
5
5
5
5
5
5
5
5
5
5
5
5
5
5
5
5
5
5
5
5
5
5
5
5
5
5
5
5
5
5
5
5
5
5
5
5
5
5
5
5
5
5
5
5
5
5
5
5
5
5
5
5
5
5
5
5
5
5
5
5
5
5
5
5
5
5
5
5
5
5
5
5
5
5
5
5
5
5
5
5
5
5
5
5
5
5
5
5
5
5
5
5
5
5
5
5
5
5
5
5
5
5
5
5
5
5
5
5
5
5
5
5
5
5
5
5
5
5
5
5
5
5
5
5
5
5
5
5
5
5
5
5
5
5
5
5
5
5
5
5
5
5
5
5
5
5
5
5
5
5
5
5
5
5
5
5
5
5
5
5
5
5
5
5
5
5
5
5
5
5
5
5
5
5
5
5
5
5
5
5
5
5
5
5
5
5
5
5
5
5
5
5
5
5
5
5
5
5
5
5
5
5
5
5
5
5
5
5
5
5
5
5
5
5
5
5
5
5
5
5
5
5
5
5
5
5
5
5
5
5
5
5
5
5
5
5
5
5
5
5
5
5
5
5
5
5
5
5
5
5
5
5
5
5
5
5
5
5
5
5
5
5
5
5
5
5
5
5
5
5
5
5
5
5
5
5
5
5
5
5
5
5
5
5
5
5
5
5
5
5
5
5
5
5
5
5
5
5
5
5
5
5
5
5
5
5
5
5
5
5
5
5
5
5
5
5
5
5
5
5
5
5
5
5
5
5
5
5
5
5
5
5
5
5
5
5
5
5
5
5
5
5
5
5
5
5
5
5
5
5
5
5
5
5
5
5
5
5
5
5
5
5
5
5
5
5
5
5
5
5
5
5
5
5
5
5
5
5
5
5
5
5
5
5
5
5
5
5
5
5
5
5
5
5
5
5
5
5
5
5
5
5
5
5
5
5
5
5
5
5
5
5
5
5
5
5
5
5
5
5
5
5
5
5
5
5
5
5
5
5
5
5
5
5
5
5
5
5
5
5
5
5
5
5
5
5
5
5
5
5
5
5
5
5
5
5
5
5
5
5
5
5
5
5
5
5
5
5
5
5
5
5
5
5
5
5
5
5
5
5
5
5
5
5
5
5
5
5
5
5
5
5
5
5
5
5
5
5
5
5
5
5
5
5
5
5
5
5
5
5
5
5
5
5
5
5
5
5
5
5
5
5
5
5
5
5
5
5
5
5
5
5
5
5
5
5
5
5
5
5
5
5
5
5
5
5
5
5
5
5
5
5
5
5
5
5
5
5
5
5
5
5
5
5
5
5
5
5
5
5
5
5
5
5
5
5
5
5
5
5
5
5
5
5
5
5
5
5
5
5
5
5
5
5
5
5
5
5
5
5
5
5
5
5
5
5
5
5
5
5
5
5
5
5
5
5
5
5
5
5
5
5
5
5
5
5
5
5
5
5
5
5
5
5
5
5
5
5
5
5
5
5
5
5
5
5
5
5
5
5
5
5
5
5
5
5
5
5
5
5
5
5
5
5
5
5
5
5
5
5
5
5
5
5
5
5
5
5
5
5
5
5
5
5
5
5
5
5
5
5
5
5
5
5
5
5
5
5
5
5
5
5
5
5
5
5
5
5
5
5
5
5
5
5
5
5
5
5
5
5
5
5
5
5
5
5
5
5
5
5
5
5
5
5
5
5
5
5
5
5
5
5
5
5
5
5
5
5
5
5
5
5
5
5
5
5
5
5
5
5
5
5
5
5
5
5
5
5
5
5
5
5
5
5
5
5
5
5
5
5
5
5
5
5
5
5
5
5
5
5
5
5
5
5
5
5
5
5
5
5
5
5
5
5
5
5
5
5
5
5
5
5
5
5
5
5
5
5
5
5
5
5
5
5
5
5
5
5
5
5
5
5
5
5
5
5
5
5
5
5
5
5
5
5
5
5
5
5
5
5
5
5
5
5
5
5
5
5
5
5
5
5
5
5
5
5
5
5
5
5
5
5
5
5
5
5
5
5
5
5
5
5
5
5
5
5
5
5
5
5
5
5
5
5
5
5
5
5
5
5
5
5
5
5
5
5
5
5
5
5
5
5
5
5
5
5
5
5
5
5
5
5
5
5
5
5
5
5
5
5
5
5
5
5
5
5
5
5
5
5
5
5
5
5
5
5
5
5
5
5
5
5
5
5
5
5
5
5
5
5
5
5
5
5
5
5
5
5
5
5
5
5
5
5
5
5
5
5
5
5
5
5
5
5
5
5
5
5
5
5
5
5
5
5
5
5
5
5
5
5
5
5
5
5
5
5
5
5
5
5
5
5
5
5
5
5
5
5
5
5
5
5
5
5
5
5
5
5
5
5
5
5
5
5
5
5
5
5
5
5
5
5
5
5
5
5
5
5
5
5
5
5
5
5
5
5
5
5
5
5
5
5
5
5
5
5
5
5
5
5
5
5
5
5
5
5
5
5
5
5
5
5
5
5
5
5
5
5
5
5
5
5
5
5
5
5
5
5
5
5
5
5
5
5
5
5
5
5
5
5
5
5
5
5
5
5
5
5
5
5
5
5
5
5
5
5
5
5
5
5
5
5
5
5
5
5
5
5
5
5
5
5
5
5
5
5
5
5
5
5
5
5
5
5
5
5
5
5
5
5
5
5
5
5
5
5
5
5
5
5
5
5
5
5
5
5
5
5
5
5
5
5
5
5
5
5
5
5
5
5
5
5
5
5
5
5
5
5
5
5
5
5
5
5
5
5
5
5
5
5
5
5
5
5
5
5
5
5
5
5
5
5
5
5
5
5
5
5
5
5
5
5
5
5
5
5
5
5
5
5
5
5
5
5
5
5
5
5
5
5
5
5
5
5
5
5
5
5
5
5
5
5
5
5
5
5
5
5
5
5
5
5
5
5
5
5
5
5
5
5
5
5
5
5
5
5
5
5
5
5
5
5
5
5
5
5
5
5
5
5
5
5
5
5
5
5
5
5
5
POINT_DATA 2538
VECTORS disp float
1.3037677086546713e-11 2.1529341690245382e-11 0.0
6.282596619664236e-12 -1.520018998156635e-11 0.0
0.0016999999997895114 3.3187232202342083e-12 0.0
0.001699999976624126 -5.3627682120882055e-11 0.0
0.0007468598184903953 0.0003561179241526573 0.0
0.0013064791925699584 7.2057732257630025e-6 0.0
0.0009509411872702804 -3.680064512666377e-5 0.0
-1.321057220935837e-12 -3.664299158628291e-12 0.0
1.978910026546257e-12 1.1647692905672708e-12 0.0
1.1620294015565117e-12 -9.699835826859394e-13 0.0
1.101553421217826e-12 -7.264274545380361e-13 0.0
5.775036265016183e-13 -6.843494443261189e-13 0.0
6.188418684003951e-13 -1.004560879990409e-12 0.0
4.576109680374405e-13 -1.0757491884432877e-12 0.0
3.8139170786082684e-13 -1.4084049415390647e-12 0.0
2.1313263959634586e-13 -1.7208386801244065e-12 0.0
3.891362323337889e-13 -2.1504285348173803e-12 0.0
3.7830171989269094e-13 -2.5049166618981828e-12 0.0
4.715156508376807e-13 -2.842162521727581e-12 0.0
5.599291964770509e-13 -3.1478468646721815e-12 0.0
5.636072044193598e-13 -3.270600926630573e-12 0.0
7.355646613118235e-13 -3.566258051991038e-12 0.0
7.184798557053354e-13 -3.5921566733705435e-12 0.0
7.610604359805744e-13 -3.814002917431749e-12 0.0
8.852281946987376e-13 -3.951075868916236e-12 0.0
8.532420312644965e-13 -4.064521196312932e-12 0.0
9.144454973850141e-13 -4.257233369013318e-12 0.0
1.009156069080196e-12 -4.460808684737313e-12 0.0
1.0940704868699894e-12 -4.70024579611854e-12 0.0
1.034967603742835e-12 -5.020308978301459e-12 0.0
1.6101952924405774e-12 -5.8508035402643925e-12 0.0
4.116710677240904e-13 -4.597444473302916e-12 0.0
2.4122137955660313e-5 -1.3428192406681317e-5 0.0
4.2679086922895696e-5 -2.3765006231573194e-5 0.0
6.101682873239301e-5 -3.294858200960775e-5 0.0
7.845963114742881e-5 -4.152494831226487e-5 0.0
9.503308849542545e-5 -4.961195044306538e-5 0.0
0.00011114400780760372 -5.7528396953125395e-5 0.0
0.00012711994371499181 -6.50638839211255e-5 0.0
0.00014264051823566397 -7.239707356707393e-5 0.0
0.00015790177469662104 -7.96127025221145e-5 0.0
0.0001729885941781546 -8.659692587235102e-5 0.0
0.00018782660786867446 -9.349804134745917e-5 0.0
0.0002025847155505747 -0.00010024352839169109 0.0
0.00021722800233225817 -0.00010680468915450106 0.0
0.000231790640618726 -0.00011327417936942455 0.0
0.000246317937940019 -0.00011961027179977995 0.0
0.00026064785346512645 -0.00012573630378095175 0.0
0.0002749770744501834 -0.0001317475900625157 0.0
0.0002893706137061854 -0.00013754611510692288 0.0
0.00030371321525009905 -0.00014320905615451966 0.0
0.0003180609410848778 -0.00014876458503601726 0.0
0.0003324442430982257 -0.00015420759670984094 0.0
0.0003468068647012443 -0.00015956041663015558 0.0
0.00036127387308433135 -0.00016479704124725428 0.0
0.0003756434988238784 -0.00016991867214357292 0.0
0.00039018273352315735 -0.0001749245538340662 0.0
0.00040462237312456325 -0.00017980093347420736 0.0
0.0004191309635434554 -0.00018460705919556952 0.0
0.00043362845845501866 -0.00018919956019647263 0.0
0.00044834683975183585 -0.00019370926316771852 0.0
0.0004628628369530088 -0.0001981164067635077 0.0
0.0004775661904947133 -0.00020235955459265776 0.0
0.0004923187220631262 -0.00020636809101629553 0.0
0.0005071791928779535 -0.00021017199748044844 0.0
0.0005219386518146588 -0.0002136006581297298 0.0
0.0005369975743427568 -0.0002168981812067526 0.0
0.0005518991407284912 -0.00021996456205681077 0.0
0.0005666414848181371 -0.0002230385480137224 0.0
0.0005816558113365423 -0.00022594975195262265 0.0
0.0005966423926255449 -0.00022885104050571493 0.0
0.0006119422512168486 -0.00023174327126141656 0.0
0.000627656728765393 -0.00023461878766791561 0.0
0.0006441057987666933 -0.00023784539480355623 0.0
0.0006609614498689211 -0.00024104115370994915 0.0
0.0006773665607087741 -0.0002448736986404528 0.0
0.0006942192211482462 -0.00024809986310490764 0.0
0.0007104970321166263 -0.00025164636987883417 0.0
0.0007269259314360717 -0.0002552170519613382 0.0
0.0007441865424664856 -0.0002581163179151847 0.0
0.0007609470700667177 -0.00026177412356732547 0.0
0.0007797647939815852 -0.00026455291684727023 0.0
0.0007976686146509799 -0.00026787332461120626 0.0
0.0008156375212465836 -0.0002712245751345929 0.0
0.0008321746600565755 -0.0002748317645708934 0.0
0.0008491591349485542 -0.0002777753160963763 0.0
0.0008644766761842297 -0.00028083419247335875 0.0
0.000880578508760287 -0.0002835344821201957 0.0
0.0008961585676104268 -0.00028592658707187504 0.0
0.0009118740000184123 -0.00028761150859036634 0.0
0.0009277517188957362 -0.00028910042810717794 0.0
0.0009439147674512913 -0.00029022167803833274 0.0
0.0009601843987118142 -0.0002913468565205275 0.0
0.000976813864837583 -0.00029228142382098403 0.0
0.000994196805642016 -0.000293189313419684 0.0
0.0010119402613284066 -0.0002937600730885012 0.0
0.0010303810459200724 -0.0002942963212327484 0.0
0.0010496354325525141 -0.0002947413686111367 0.0
0.0010683447388680513 -0.0002950290026978904 0.0
0.0010862553967934145 -0.00029529669633571426 0.0
0.0011036857499539825 -0.0002952843696792662 0.0
0.0011212203095190255 -0.00029485177808224723 0.0
0.001138117996366704 -0.00029361979503118824 0.0
0.0011554255058751858 -0.00029152072519926075 0.0
0.001171980640106624 -0.0002888447341342295 0.0
0.001188362415505936 -0.00028577201358017106 0.0
0.0012054953024852855 -0.0002823374919743986 0.0
0.0012217363275388124 -0.00027930635813251496 0.0
0.001237930465821871 -0.000276243726875239 0.0
0.0012535920276632627 -0.00027265010360892324 0.0
0.0012697462972998555 -0.00026862194301730793 0.0
0.0012850402922459563 -0.00026390502925237574 0.0
0.001301792931964884 -0.00025933088591984237 0.0
0.0013179434349186638 -0.00025474587811943287 0.0
0.0013350550355929617 -0.00025092255460359606 0.0
0.0013523185751599292 -0.0002463735875638384 0.0
0.001368143972826195 -0.0002411445016279575 0.0
0.0013838598218090799 -0.0002352929871789427 0.0
0.0014003756382183201 -0.0002277913996858232 0.0
0.0014167662565705342 -0.00021896038969570326 0.0
0.0014333554636608878 -0.00020955059044221994 0.0
0.0014507480441695575 -0.00019940728641884271 0.0
0.0014689547403920432 -0.00018784678156331242 0.0
0.001487469941208801 -0.00017501106100933388 0.0
0.0015066655660792663 -0.00016110292048240882 0.0
0.0015270649997264749 -0.00014603273536782592 0.0
0.0015493344700886033 -0.0001294736871270679 0.0
0.0015731418164315924 -0.00011130507769615686 0.0
0.001598827305035232 -9.106948773714309e-5 0.0
0.0016281200783984028 -6.766502998894209e-5 0.0
0.00165996648505842 -3.9839530132767474e-5 0.0
0.0016999999993336577 -3.961792905073121e-12 0.0
0.0016999999958587336 -7.296114952034137e-12 0.0
0.0016999999985453328 -1.5550147417661264e-12 0.0
0.0016999999978473495 -1.5357391025727364e-12 0.0
0.0016999999983016289 -6.222845700530628e-13 0.0
0.0016999999983135397 -1.0863112690017122e-13 0.0
0.0016999999983229458 1.5619005993220015e-13 0.0
0.0016999999984699669 3.414147183334369e-13 0.0
0.0016999999984788187 4.995726559973334e-13 0.0
0.0016999999985707129 5.634774267595276e-13 0.0
0.0016999999986342092 6.181465397855785e-13 0.0
0.001699999998730134 7.399206419005208e-13 0.0
0.0016999999987349587 8.67027729151333e-13 0.0
0.001699999998762288 1.0325081234924197e-12 0.0
0.0016999999987589811 1.1987349500384093e-12 0.0
0.001699999998757612 1.3851639304762523e-12 0.0
0.0016999999987488976 1.5532957148094202e-12 0.0
0.001699999998710561 1.7753760716148512e-12 0.0
0.0016999999988003196 1.9167516526692254e-12 0.0
0.0016999999987526199 2.0383189581196723e-12 0.0
0.0016999999988278592 2.0535450664995615e-12 0.0
0.0016999999988470793 1.9318327600917903e-12 0.0
0.001699999999070368 1.7780491952082722e-12 0.0
0.0016999999994299975 1.9796718385674326e-12 0.0
0.0016999999996185782 1.4338170075870738e-12 0.0
0.0015946159271318686 3.26588988204784e-5 0.0
0.0015052480590304678 4.382365615697584e-5 0.0
0.0014251485624010307 3.4651164806326495e-5 0.0
0.001348562081923106 1.7547845642219762e-5 0.0
0.0012970264267329094 -4.0809464066210435e-5 0.0
0.0012874782283167432 -7.034236789333995e-5 0.0
0.0012803499247832759 -0.00010298819580304843 0.0
0.001265777925553205 -0.00012300551778403137 0.0
0.0012458888651468475 -0.00013396311320545748 0.0
0.001221430306378127 -0.00013751232053922627 0.0
0.0011932445144619325 -0.00013596024026122486 0.0
0.001163096547953077 -0.0001275524046978777 0.0
0.001130601766780553 -0.00011558490732525305 0.0
0.0010965602565870967 -0.00010097432649046338 0.0
0.0010589623675762863 -8.401414716581756e-5 0.0
0.0010144372322541601 -6.488510491163708e-5 0.0
0.0009122184553234911 3.7709009402569748e-6 0.0
0.0008835602849004273 2.6704304428376354e-5 0.0
0.0008588169079759357 4.47912782853752e-5 0.0
0.0008363116159882318 6.193319936829728e-5 0.0
0.000814975721035311 7.874313911378629e-5 0.0
0.0007955394605834931 9.599317950998403e-5 0.0
0.0007774916939394515 0.00011459436544443336 0.0
0.0007616909656713557 0.0001331355955308772 0.0
0.0007501279228536915 0.0001570525884470887 0.0
0.0007403832587206446 0.0001813284561438834 0.0
0.0007403757581876604 0.00022284980651726422 0.0
0.0007374222554040847 0.0002707216516942284 0.0
0.0006700334267050927 0.00035807287496455607 0.0
0.0005760236672408958 0.00034995091806424975 0.0
0.0004496811374246009 0.0003018140240535168 0.0
0.00027404358043454094 0.0002031705547607755 0.0
0.0004509790188559049 -0.0001875225775221161 0.0
0.0011326114578327864 -0.00027792096845333757 0.0
0.0005563534246141074 -0.00021344648763439313 0.0
0.0010038369848180708 -0.00028159495040542767 0.0
0.0006675327960109917 -0.0002360417266636258 0.0
0.0008848215987839454 -0.00027217364384476424 0.0
0.0007689995828339925 -0.0002527673399181223 0.0
0.001235032085770936 -0.0002614464315431047 0.0
0.0003660201776712681 -0.00016109191159761763 0.0
0.001311269337801607 -0.00023659923967748634 0.0
0.00029361304888470506 -0.00013413221417666118 0.0
2.98375440437259e-5 -7.628980991126798e-6 0.0
0.0016603340292313748 6.266986478043231e-7 0.0
0.001002757000753948 -3.6631615391384866e-5 0.0
0.0011302337737384854 -0.00010631121263875555 0.0
0.0008816715773285395 -4.383833020856496e-6 0.0
0.0007974144162292334 7.911904662321798e-5 0.0
0.0013963078954969787 -0.0002076446592221751 0.0
0.00022415463945436032 -0.00010556397760258561 0.0
2.5100178186773483e-5 -6.964678526885254e-6 0.0
0.001671519292871742 -1.251401968786889e-6 0.0
0.0016443276991076243 3.421136533117024e-6 0.0
3.434320859214379e-5 -3.7090960412622636e-6 0.0
0.0014661462845371475 -0.00016724191907613122 0.0
0.0001626348341156259 -7.69072137018577e-5 0.0
0.0012176658173845302 -0.00011964928164567101 0.0
0.0007334884008257576 0.0001296336544987322 0.0
2.0034785094780262e-5 -5.561565356099022e-6 0.0
0.0016768657292592867 -1.7044891383112888e-6 0.0
0.0006190259181422608 -0.0002257573457565622 0.0
0.0007167039102228257 -0.00024553291641731277 0.0
0.0009516023214151142 -0.00027921589542520005 0.0
0.0008226189934154057 -0.0002614722483784251 0.0
0.0010601911724494569 -0.00028149950966997647 0.0
0.001181679155358383 -0.00027272087226363096 0.0
0.0005150179216079451 -0.00020461616844026504 0.0
0.00040909132050558127 -0.00017587686264423647 0.0
0.0015221732860860367 -0.00012938077753951404 0.0
0.0001154028363690272 -5.4810901850414245e-5 0.0
0.001633184366517835 5.417801273677865e-6 0.0
4.8397502166487406e-5 1.4649660405856028e-6 0.0
0.0016810841657164753 -3.213243892169882e-6 0.0
1.8630671108425094e-5 -5.507269204244885e-6 0.0
0.0012727410004400757 -0.00010212556165526844 0.0
0.0007065311612833773 0.00017065611339486006 0.0
0.001614825801493554 4.691791192131026e-6 0.0
7.962313747079521e-5 5.8913667590435335e-6 0.0
2.8071586691866936e-5 -7.76386713185551e-6 0.0
0.0016660181252859717 -5.855831029420462e-7 0.0
0.001067279812373903 -7.747253524996968e-5 0.0
0.0008418108530422781 4.36915906714628e-5 0.0
6.444514533005573e-5 -2.9300604206632555e-5 0.0
0.0015981189959034241 -7.291225478681806e-5 0.0
0.0010953770383112574 -0.00028211237208699706 0.0
0.0008545289263218553 -0.00026816209703523825 0.0
0.0005893548698394566 -0.00021979112194747422 0.0
0.0004823629441706321 -0.00019726562026946021 0.0
0.0009189714643793971 -0.0002762044059355691 0.0
0.0012647554330508567 -0.0002540981951341462 0.0
0.00033732231325492995 -0.0001505530463746024 0.0
0.0013463049985651457 -0.0002267321688207397 0.0
0.00026318146511926415 -0.00012156824906961525 0.0
0.000192137318191804 -9.086961816804788e-5 0.0
0.0014303180425824732 -0.00018872324681763538 0.0
0.0004935445787277467 0.0001912538439516481 0.0
0.0014438379463671983 -1.0059442948752543e-7 0.0
0.0016806908085297495 -6.912001341260985e-6 0.0
1.5668703729955467e-5 -5.079525396925114e-6 0.0
0.000696522066323657 0.00023996608165132097 0.0
0.0013058983099021352 -5.1742015450385566e-5 0.0
0.00010761590663196379 1.5584634559423787e-5 0.0
0.0016256546239084527 5.400257981674873e-6 0.0
2.8177512876746648e-5 -1.180225276018214e-5 0.0
0.0016545254142895883 -3.0198106809311048e-5 0.0
0.001374851799663523 -1.4307553779426589e-5 0.0
0.0013789161322927343 -2.699677784214062e-5 0.0
0.0014628875153013963 -8.323970974314011e-6 0.0
0.0013968332408057069 -2.2225152662674116e-5 0.0
0.0013318693128437388 -4.570638273669932e-5 0.0
0.0013377631480780555 -3.351773086122728e-5 0.0
0.0014052716873206791 -1.4261696333808754e-5 0.0
0.0013483100069922606 -1.8517956071261093e-5 0.0
0.0014177408260149015 -4.7063240671398954e-6 0.0
0.0013642704913803248 -4.794865403681654e-6 0.0
0.0013004608500623701 -1.832624621623338e-5 0.0
0.0013148210189651906 -2.8553760917187833e-6 0.0
0.0012605299111221342 -1.3416460959688119e-5 0.0
0.0012721381081356648 4.347490662733038e-7 0.0
0.0012240892807953777 -7.4740673767130285e-6 0.0
0.0012353340967651406 4.770876272210188e-6 0.0
0.0009851421534514463 -3.7813747435959864e-5 0.0
0.0009384684000239148 -4.7871212480263964e-5 0.0
0.0009668497497925474 -4.278427526786681e-5 0.0
0.0009265661902214973 -5.3024300574477104e-5 0.0
0.0009524190887706315 -4.843134248850064e-5 0.0
0.0009166757019411049 -5.713548974230853e-5 0.0
0.0009396635650561535 -5.210509175051042e-5 0.0
0.0009069824433606754 -6.007227394347611e-5 0.0
0.0009279429175813056 -5.497076626911178e-5 0.0
0.0008975902480789673 -6.25972890494361e-5 0.0
0.0009171903328868796 -5.7478813206205534e-5 0.0
0.0008887479129703533 -6.459843785520178e-5 0.0
0.0009073684893973775 -5.9934312128209156e-5 0.0
0.0008811054273054652 -6.610233571438873e-5 0.0
0.0008982817215800626 -6.154749881102745e-5 0.0
0.0008731274169605914 -6.748556343674555e-5 0.0
0.0008897155588205894 -6.319845424609346e-5 0.0
0.0008648585861840109 -6.903281348338478e-5 0.0
0.0008816557035180844 -6.491100790406305e-5 0.0
0.0008576997070988757 -7.012449977077975e-5 0.0
0.0008742644396416143 -6.632200406029566e-5 0.0
0.0008510085992279308 -7.123330703488325e-5 0.0
0.0008666737820891267 -6.778576303251693e-5 0.0
0.0008444327969194111 -7.255455265073823e-5 0.0
0.0008599510082407398 -6.947893297600633e-5 0.0
0.0008387025612252341 -7.400396712037946e-5 0.0
0.0008536183457644146 -7.124080188831206e-5 0.0
0.0008321090661629612 -7.581134765874807e-5 0.0
0.000847356762975552 -7.329565948504957e-5 0.0
0.0008217634824589149 -7.860045472262717e-5 0.0
0.0008425579336011431 -7.541223568971112e-5 0.0
0.0008205080167898464 -7.9849018346606e-5 0.0
0.0008370388118870187 -7.778114573915901e-5 0.0
0.0008160117293557052 -8.212332590848713e-5 0.0
0.0008320260330700725 -8.045196309620579e-5 0.0
0.0008123441349148201 -8.450308330511747e-5 0.0
0.000827174618010665 -8.32864269938129e-5 0.0
0.0008079798865433453 -8.725547897538669e-5 0.0
0.0008758641491745696 -6.552637256448985e-5 0.0
0.0008225268167023903 -8.637764116676153e-5 0.0
0.0008403005738277811 -7.363225578453734e-5 0.0
0.0008000513234578822 -8.298383752533842e-5 0.0
0.0008024930271191779 -9.045652271626731e-5 0.0
0.0008179791096110056 -8.977100377161962e-5 0.0
0.000797162103612432 -9.396539221976403e-5 0.0
0.0007821868349575261 -9.422377196227169e-5 0.0
0.0007763774937658773 -9.778901222787214e-5 0.0
0.0008127498365583945 -9.363406233778616e-5 0.0
0.0008338425182212001 -8.919611027396637e-5 0.0
0.0008574110995373059 -7.335049474122057e-5 0.0
0.0008287926430394177 -9.337886460814655e-5 0.0
0.0008512707577582796 -8.831619777067878e-5 0.0
0.0008454249124404991 -9.323119990361473e-5 0.0
0.0007615647774915352 -9.785509482650273e-5 0.0
0.0007566665289427708 -0.00010113798167520637 0.0
0.0008685938511808306 -8.77760561462954e-5 0.0
0.0007407293952169222 -0.00010112608842521038 0.0
0.0007369338600848445 -0.00010433603134756651 0.0
0.0008632356350254495 -9.298088558283343e-5 0.0
0.0008854560973593745 -8.776260895105065e-5 0.0
0.0007197649781174973 -0.00010418966601347202 0.0
0.0007156001917703489 -0.00010739059429989417 0.0
0.0008807324872624829 -9.316172602966423e-5 0.0
0.0009035297187481938 -8.763916048462508e-5 0.0
0.000698896534453277 -0.00010695431104879003 0.0
0.0006945231638221086 -0.00011031049282930504 0.0
0.0008987148607299146 -9.35813761590689e-5 0.0
0.0009222029737219988 -8.760975323364922e-5 0.0
0.0006782790921716442 -0.0001093762520255698 0.0
0.0006727175743995877 -0.00011276654625339232 0.0
0.0009176657040241969 -9.392854853497389e-5 0.0
0.0009413648906033876 -8.765618447513402e-5 0.0
0.000655740049822393 -0.00011157335272802143 0.0
0.0006507550634516566 -0.00011499152728943902 0.0
0.0006323260121543198 -0.00011363845109884599 0.0
0.0006374961234252485 -0.00011029432800803341 0.0
0.0008925263736456395 -9.966034549494143e-5 0.0
0.0009367011413218614 -9.45192339043991e-5 0.0
0.0009610910300285045 -8.782582480489061e-5 0.0
0.0009664369244337713 -8.055118343965962e-5 0.0
0.0008878482624970119 -6.292760442511193e-5 0.0
0.0009872646487186151 -8.041529005340048e-5 0.0
0.0009931271490896205 -7.272953232411415e-5 0.0
0.0010150510687387078 -7.219102504536114e-5 0.0
0.0006291157656268407 -0.00011722170193370658 0.0
0.0006098122091785235 -0.00011525145207083076 0.0
0.0006472800274494549 -0.00011885097378565354 0.0
0.0009557034510969895 -9.5392853705404e-5 0.0
0.0006070799230896168 -0.00011889670512099325 0.0
0.0005872847488294963 -0.0001164645768327077 0.0
0.0009234004935980791 -5.4623583096606774e-5 0.0
0.0005848672156280379 -0.00011990360379083765 0.0
0.0005647037863489621 -0.00011711831141488357 0.0
0.0005625923830124381 -0.00012058170684820428 0.0
0.0005425001335689766 -0.00011724381396936596 0.0
0.0005440656184453848 -0.00011407025378614093 0.0
0.000519962671295864 -0.00011395644132523974 0.0
0.0005218662103137585 -0.00011069732727281403 0.0
0.0005380385331497019 -0.00012056505915766855 0.0
0.000495562257096113 -0.00011013160555109216 0.0
0.000497191456371987 -0.00010694846490569362 0.0
0.0005608353114223608 -0.00012446153034309152 0.0
0.0005399368260737651 -0.00012484708315561508 0.0
0.00047125241622866153 -0.00010573704423635053 0.0
0.0004716494686042591 -0.00010254962851452569 0.0
0.001021705275818673 -6.437000044225644e-5 0.0
0.0010449570545094907 -6.359577993384817e-5 0.0
0.0005592599254799365 -0.0001286559146621994 0.0
0.0005388641177579454 -0.00012894747741227258 0.0
0.0010519858296550572 -5.5572190627995406e-5 0.0
0.0010767981222245954 -5.4758752026802586e-5 0.0
0.0010684413054978332 -6.389389326302977e-5 0.0
0.0011011775708927377 -5.461448531332989e-5 0.0
0.0010933887071820437 -6.422817137533417e-5 0.0
0.0011270020750781306 -5.430446053574774e-5 0.0
0.0011209428191116418 -6.402072857001468e-5 0.0
0.0011564799788916045 -5.3151866818829503e-5 0.0
0.0011478013130256238 -6.34857700881316e-5 0.0
0.0011620176289912144 -4.425448729741505e-5 0.0
0.0011841562065051602 -5.286063381281203e-5 0.0
0.0011740292324138118 -6.363007134383568e-5 0.0
0.0005581687206907855 -0.0001331378198288948 0.0
0.00044390973967697346 -0.00010074361991505583 0.0
0.0004433870613437633 -9.725291998054026e-5 0.0
0.0011400692605574943 -7.493541824716237e-5 0.0
0.001165478661841672 -7.5356972937199e-5 0.0
0.0011994775624752422 -6.395031350521588e-5 0.0
0.0011335811794672848 -8.71894101112959e-5 0.0
0.0005384513806122612 -0.00013338996396204607 0.0
0.00119123801946718 -7.6037859635764e-5 0.0
0.0012249537220343355 -6.438125203038974e-5 0.0
0.0005572577542879562 -0.00013793664703229524 0.0
0.0005380831485201577 -0.0001381921768033114 0.0
0.0005193768977685315 -0.00013329747956527003 0.0
0.0012168520061219908 -7.69896105943595e-5 0.0
0.0012503331395949664 -6.492653773964167e-5 0.0
0.000556495185015218 -0.00014311589930401703 0.0
0.0005751169414168068 -0.00014257538361543167 0.0
0.0005193923006962288 -0.00013809654054783562 0.0
0.0005006356241627805 -0.00013289032753182388 0.0
0.0012414614025495101 -7.822021689428006e-5 0.0
0.0012757799474623472 -6.562433512427052e-5 0.0
0.0012839321208709294 -5.36541490601682e-5 0.0
0.0012078018919087958 -9.115411653738112e-5 0.0
0.0013094153814796926 -5.3876233499453724e-5 0.0
0.0013179501823635206 -4.3387661753152164e-5 0.0
0.00041344900823368736 -9.485245477771425e-5 0.0
0.00041396981366998423 -9.11273769882503e-5 0.0
0.00045041092445770585 -9.417112776211917e-5 0.0
0.0004133510330025404 -8.678929392346093e-5 0.0
0.0004490319544679747 -8.912089887559074e-5 0.0
0.00041195571235519803 -8.137818288704373e-5 0.0
0.0004473423251526436 -8.315308515197614e-5 0.0
0.0005743045341724948 -0.00014803267995185205 0.0
0.0005922277701233366 -0.00014719695682343314 0.0
0.0005009322458852899 -0.0001376985435131603 0.0
0.00048213232736790175 -0.00013216719384732769 0.0
0.00130087651561724 -6.652584076298068e-5 0.0
0.0004139644958410262 -7.500862090385325e-5 0.0
0.0004480358575395386 -7.622288624297628e-5 0.0
0.0005914739984885373 -0.0001529122717810878 0.0
0.0006087969737873631 -0.00015189576724714107 0.0
0.0007152763408818883 -0.00011040690469572227 0.0
0.0013342338955325877 -5.4171269811814994e-5 0.0
0.0009685309500427928 -4.220465405937229e-5 0.0
0.0010169210064983388 -2.9773475065025432e-5 0.0
0.0008220079021299944 -7.687890798519408e-5 0.0
0.0010825978602056487 -4.6887290332106996e-5 0.0
0.00041049760723117437 -6.627629604686358e-5 0.0
0.00045120643696224027 -6.743839277541744e-5 0.0
0.00048273760821641203 -0.00013700152269183953 0.0
0.0004639952620571691 -0.00013121524743526326 0.0
0.0006083492611681958 -0.00015789413388995053 0.0
0.0006255295388551853 -0.00015669374857247211 0.0
0.001324933183543012 -6.719374020629352e-5 0.0
0.000382557210571743 -8.820379555398152e-5 0.0
0.00038343093315113983 -9.196010980420873e-5 0.0
0.00037147582512203154 -7.192145148312375e-5 0.0
0.0013582171681611225 -5.430439785214847e-5 0.0
0.00040952905176020924 -5.594037063928439e-5 0.0
0.00045112262809336365 -5.583722413546592e-5 0.0
0.0005913973620021359 -0.0001589899730668732 0.0
0.0004649748256656957 -0.0001361455818982856 0.0
0.0004461381190908336 -0.00013000789952420002 0.0
0.001058089565478234 -4.811559536763402e-5 0.0
0.0010897718778075975 -3.9299634008722e-5 0.0
0.001064019942227312 -4.094211524460736e-5 0.0
0.001096979997546821 -3.205326482002231e-5 0.0
0.0006249017893867412 -0.0001628793798719 0.0
0.0006423817217804217 -0.0001613669823529764 0.0
0.0007040498393873675 -0.00010407530587733576 0.0
0.00040795767230921223 -4.3625296733479974e-5 0.0
0.00044894706353611853 -4.1828665200595636e-5 0.0
0.0013490621048363337 -6.768665624534287e-5 0.0
0.0013190635313898753 -8.065198312785781e-5 0.0
0.000396697579463621 -2.7045810333097626e-5 0.0
0.00044492458055454966 -2.434282865278149e-5 0.0
0.0013813871128942174 -5.453325731386854e-5 0.0
0.0013865453231940456 -4.553334582249188e-5 0.0
0.00040035283726303373 -1.0433244892497069e-5 0.0
0.00048302877351939235 -0.00014258791129683802 0.0
0.0006415230321361137 -0.00016793179968226855 0.0
0.0006590907030680729 -0.00016609592066499387 0.0
0.0006602673501013859 -0.00015948453736230783 0.0
0.0006770793029803543 -0.0001640221328528326 0.0
0.0006784732322614467 -0.0001573967381312173 0.0
0.0006954632801862291 -0.00016172478827361915 0.0
0.0006970125954585066 -0.0001549930456871632 0.0
0.0007143194524861572 -0.00015918563163637444 0.0
0.0007160670559161401 -0.0001523887772052202 0.0
0.0007335781805238317 -0.00015638870097140647 0.0
0.0007319782058618918 -0.00016360159164434377 0.0
0.0007511837540427191 -0.00016064325144298587 0.0
0.0007496705603499245 -0.0001682224782565754 0.0
0.000768821890449481 -0.00016510298122643296 0.0
0.0007672925664192843 -0.00017307533255924153 0.0
0.0007865859122204823 -0.0001697792471021335 0.0
0.0007355794894714708 -0.00014953643122217635 0.0
0.0007881581065847742 -0.00016170118733471668 0.0
0.0008060192511011656 -0.00016616957075564349 0.0
0.0008043778985463183 -0.00017479738016061734 0.0
0.0008237628540248052 -0.0001710150202889018 0.0
0.0003516010833336496 -8.46972428564034e-5 0.0
0.0003527728613616635 -8.829317790226966e-5 0.0
0.000447378112796973 -0.00013494020463346572 0.0
0.00042873739959598445 -0.00012858129265248892 0.0
0.0008257160763284014 -0.0001622999727508337 0.0
0.0008431752143317155 -0.00016683890899296588 0.0
0.0008411089310631874 -0.00017601491766963136 0.0
0.0008606044513801316 -0.00017156512213952968 0.0
0.0003214258424651841 -8.06513544650514e-5 0.0
0.00032300696475144424 -8.404322144712893e-5 0.0
0.0010703241851080004 -3.3913376771570044e-5 0.0
0.0011046981356176795 -2.507603127911394e-5 0.0
0.00107742381133512 -2.712730235701755e-5 0.0
0.001372703174509513 -6.752475641732176e-5 0.0
0.0014037195373474117 -5.416548254807456e-5 0.0
0.0006582312964913135 -0.00017306630371640157 0.0
0.0004917833297080357 -7.906480763824368e-5 0.0
0.0008415670699337139 -9.769434672587763e-5 0.0
0.000858386882071972 -0.00018119450509634512 0.0
0.0008777866178745917 -0.00017648266725778965 0.0
0.0008798405009545343 -0.00016662112505984208 0.0
0.0008973238804745976 -0.00017118213338400689 0.0
0.0008917919329827672 -8.202890044529743e-5 0.0
0.0011139130846681202 -1.786979668395248e-5 0.0
0.0011390254658815756 -1.752584590162137e-5 0.0
0.00044490865482544483 -4.5674023321923e-6 0.0
0.00043001568975676327 -0.000133534976513663 0.0
0.00041156155879776854 -0.0001269258517455557 0.0
0.0010853177734732036 -2.022619826696939e-5 0.0
0.0008949568173176525 -0.00018162696953834558 0.0
0.0009148596753804968 -0.00017626173904551886 0.0
0.0009174450630014138 -0.0001654983625093072 0.0
0.0009355449353720057 -0.00017040939411047424 0.0
0.0009388110579678633 -0.00015960927417149005 0.0
0.0009569027945454117 -0.00016398627369652603 0.0
0.0009534210075226792 -0.00017532940881870735 0.0
0.0009750167427608887 -0.00016853774598424694 0.0
0.0003985110735996014 7.491284808840013e-6 0.0
0.00029227367958574674 -7.614183730094656e-5 0.0
0.0002940173965255885 -7.921886950680897e-5 0.0
0.0006412446918259092 -0.00017485567864843302 0.0
0.0013934296448550455 -6.818260620107329e-5 0.0
0.001424707489139409 -5.348450013457609e-5 0.0
0.0009713345970668085 -0.0001803867576434824 0.0
0.0009931007442862856 -0.00017332625519914723 0.0
0.00044653477232476084 1.611013591656274e-5 0.0
0.00041316463436346366 -0.00013196805910548374 0.0
0.0003945207096642718 -0.00012501180174703474 0.0
0.0004918826544280037 -3.982039843593912e-5 0.0
0.0012851716865044235 9.399962744504457e-6 0.0
0.0006575501713843173 -0.00018028637225367557 0.0
0.00039906123293021036 2.4944616652670882e-5 0.0
0.0003707470247210566 -4.533858335978154e-5 0.0
0.0014104155259927018 -7.135443937288994e-5 0.0
0.001444631437963987 -5.288027521022899e-5 0.0
0.001455824264985677 -4.087140396242534e-5 0.0
0.00035344849151947743 -1.62474192372244e-8 0.0
0.0013785105865188395 -8.54747273336554e-5 0.0
0.00028832852738859495 -7.233702921858917e-5 0.0
0.00043003318851167596 -0.0001383649282411695 0.0
0.0011225828588346865 -1.0843665222213857e-5 0.0
0.0010936399751210713 -1.3325704133092743e-5 0.0
0.0009610014191320595 -0.0001530069090956671 0.0
0.00039642870344158346 -0.00013031189992750462 0.0
0.00037766721465168763 -0.0001229882701202179 0.0
0.00026404025866505335 -7.114293298445532e-5 0.0
0.0002658568133377784 -7.383894776531682e-5 0.0
0.0004632834161769556 -0.000126773685784378 0.0
0.0009892858690808345 -0.0001856570785983525 0.0
0.0010112636142552297 -0.00017825717541523035 0.0
0.0003756645829326503 -0.00011799834527401042 0.0
0.00035855994031528554 -0.00011560623561945293 0.0
0.0009691317373636883 -0.00019180434972431942 0.0
0.0006412300814519575 -0.00018201431160049235 0.0
0.00036103079108871686 -0.00012082261139788371 0.0
0.00034181818811733575 -0.00011309578312533605 0.0
0.0006796751320849748 -0.00015118946098974278 0.0
0.0014765139650066697 -3.913911278025373e-5 0.0
0.0014870838245762657 -3.0499697651146672e-5 0.0
0.0014649364609117374 -5.111267954055961e-5 0.0
0.001007288680090856 -0.00019093255242208257 0.0
0.001029587339154788 -0.00018332567365249059 0.0
0.0009424171287887677 -0.00014912051619787593 0.0
0.000965396398006054 -0.00014234641215307044 0.0
0.0006572035863956654 -0.0001876856927816268 0.0
0.00103402000748794 -0.00017029660691984049 0.0
0.0010528761677454175 -0.00017542183781947592 0.0
0.00023633326510445618 -6.549948646393582e-5 0.0
0.00023944870058504884 -6.822100329704116e-5 0.0
0.0010485892986636597 -0.00018918413250668386 0.0
0.001071715429674557 -0.0001810591954312682 0.0
0.00034495650894712354 -0.0001186151371895641 0.0
0.00032553398926642494 -0.00011051548664237781 0.0
0.001130740107652399 -4.209780568628128e-6 0.0
0.001102120786888311 -6.4368685980403424e-6 0.0
0.00032212370813442215 -0.00010540323594552753 0.0
0.00030559911984202014 -0.00010239897868376825 0.0
0.0003090210870475192 -0.00010768320586621206 0.0
0.00028898991343529216 -9.920095514138678e-5 0.0
0.0014966371630616717 -3.6970155097499236e-5 0.0
0.0014844493935827685 -4.98219858133794e-5 0.0
0.00044818167226156843 3.5820429131795175e-5 0.0
0.00039787987145458977 4.188259016495203e-5 0.0
0.0010512739331569232 -2.9381859101312413e-5 0.0
0.0006413585937292137 -0.00018929739849892274 0.0
0.0010676201897332088 -0.00019552255259587108 0.0
0.00109026394730207 -0.00018698173445752113 0.0
0.0011901548521852292 -1.9862351648155595e-6 0.0
0.0010578813061816136 -0.00016184071048377049 0.0
0.0007484598643236855 -0.00017615918543657037 0.0
0.0002849384045414549 -9.428787059445037e-5 0.0
0.0002686368211740947 -9.071207591934008e-5 0.0
0.00027286569233483 -9.59728511762408e-5 0.0
0.00025219993992207164 -8.706242933605179e-5 0.0
0.00024789050366046946 -8.231046815841065e-5 0.0
0.00023073177218005793 -7.815936185779683e-5 0.0
0.00022617104482199497 -7.371543816748315e-5 0.0
0.00020852182647623308 -6.907383558753784e-5 0.0
0.0002038995605136464 -6.521220896923601e-5 0.0
0.0001870326290826962 -6.0507233910956565e-5 0.0
0.00018200873722165457 -5.711095526934822e-5 0.0
0.00019133966727248632 -6.43283605262397e-5 0.0
0.0001676865979486381 -5.455893266641354e-5 0.0
0.00021045692438010098 -5.9726824419609095e-5 0.0
0.00020846088540368008 -5.7450416116307055e-5 0.0
0.00017410079685682302 -5.9396363255800716e-5 0.0
0.00015221509088782372 -5.026495437146177e-5 0.0
0.0004961565995862777 2.44702395968755e-5 0.0
0.0005197968354909578 -0.00010709114408114271 0.0
0.0009465720162677906 -0.00013900768169533524 0.0
0.0009699219204448124 -0.00013201917043603162 0.0
0.00032258196028494375 -8.667779815635595e-5 0.0
0.0006570068471626018 -0.00019524273637814595 0.0
0.0006731845638740828 -0.00019354652887190873 0.0
0.0009893035585044165 -0.00013499490592953903 0.0
0.0009943702053827202 -0.00012428643897530395 0.0
0.0015166271344806005 -3.471220379719839e-5 0.0
0.0015026443682682382 -4.878500197978595e-5 0.0
0.0014711035974962205 -6.733256932805181e-5 0.0
0.0010657727881026172 -1.6493882834441147e-5 0.0
0.0010749605590120654 -9.662709067425059e-6 0.0
0.0006257751781509249 -0.0001834772846395314 0.0
0.0006260763692396645 -0.0001906010832545649 0.0
0.0006109556840803653 -0.00018470766632871306 0.0
0.0002573772886730654 -9.275843678514638e-5 0.0
0.0011101303871822003 -2.2231816410931702e-7 0.0
0.001083914816103668 -3.211914568961154e-6 0.0
0.0004695247567509999 -0.00010901821720822419 0.0
0.0010858807677673393 -0.00020186915242314293 0.0
0.0011086055972672757 -0.0001930473121657188 0.0
0.001113712080925846 -0.00017807268086283168 0.0
0.0011319917793593246 -0.00018377307822877145 0.0
0.00046578235293635325 5.6435112850254e-5 0.0
0.00040685257199394296 5.90091557337887e-5 0.0
0.0006091428980242755 -0.00014630948204913326 0.0
0.0010641436612137884 -0.00021011375829238548 0.0
0.001377923391143039 5.760404582199169e-6 0.0
0.0011267653638612715 -0.00019967399614283612 0.0
0.0011504256925046997 -0.00019008164231083206 0.0
0.001156245686951405 -0.00017364626728605552 0.0
0.0011750953616849857 -0.00017958230839132305 0.0
0.0011819168548284813 -0.00016246121782133787 0.0
0.0012004236141729572 -0.00016798341511028704 0.0
0.0011934307397361182 -0.00018590601404593738 0.0
0.0012182979466915935 -0.00017384307623643882 0.0
0.00015730899953534565 -5.4166170244091695e-5 0.0
0.0001356633808318381 -4.501923378450076e-5 0.0
0.0001278184577877063 -4.064737987388355e-5 0.0
0.0006731442002007734 -0.00020144323678395457 0.0
0.0006888655209529935 -0.00020001260750521774 0.0
0.0006115601204824203 -0.00019170677644750472 0.0
0.0005966154466081733 -0.000185672741579109 0.0
0.0014875509708087414 -6.752221703517809e-5 0.0
0.0015195392446042252 -4.800695726772365e-5 0.0
0.0011834109944787944 -1.6965306375194838e-5 0.0
0.0011526629383999004 -1.008841331425887e-5 0.0
0.00034556113128840537 4.257808567593013e-5 0.0
0.0003557745623644471 5.659235323054176e-5 0.0
0.00017948117184600428 -6.430413245608705e-5 0.0
0.0005800668766224131 -0.00012797855349655209 0.0
0.0010330186048103204 -4.413635717088242e-5 0.0
0.0014574623373461877 -8.751072174613331e-5 0.0
0.00048289264699459647 -8.971431186744722e-5 0.0
0.0010396688915580005 -2.0592924436767443e-5 0.0
0.001210599111965559 -0.00019243804450569027 0.0
0.0012348042596228932 -0.0001798879869469626 0.0
0.0012422223871729528 1.0885987915035864e-5 0.0
0.001300033534790974 1.3311130642475984e-5 0.0
0.0004710524589893853 7.778025500095194e-5 0.0
0.0002671682188679987 -7.632000493782496e-5 0.0
0.00017944675499145872 -5.068347644777105e-5 0.0
0.00017749433339198106 -4.8573760951213923e-5 0.0
0.0002771280167254526 -0.00010190521018320891 0.0
0.0011464920917797453 -0.00020698231931357 0.0
0.0009309946468848828 -0.00010172179095346222 0.0
0.0008395994382629882 -0.0001856044144318342 0.0
0.0005569081433713182 -0.00014838799859095124 0.0
0.00014070705976748356 -4.908266985812068e-5 0.0
0.00011945457653502004 -3.994472992650512e-5 0.0
0.00036406834396954105 -0.00012670564256675733 0.0
0.0010145517343571745 -0.00012692679447023623 0.0
0.0010201662148502924 -0.00011588192491680043 0.0
0.0006259758548963236 -0.00019789088250386026 0.0
0.0012660877276782386 1.3281206913942156e-5 0.0
0.0013167413354265326 1.4285242062653909e-5 0.0
0.0012850301555892918 1.3340744208189456e-5 0.0
0.0013349595550195626 1.3742697216873348e-5 0.0
0.001367321046413681 1.4628918986181623e-5 0.0
0.0013858750699191295 1.3571741410206313e-5 0.0
0.0013530637034272041 1.2107515551254614e-5 0.0
0.0014030165434626538 1.1624375500735495e-5 0.0
0.001370367449114689 9.60433819341674e-6 0.0
0.0014199166627095908 9.12491888817924e-6 0.0
0.0013878671769677617 6.360065053901485e-6 0.0
0.0014358949521387381 6.219895806318018e-6 0.0
0.0014043703165180182 2.6942231642152613e-6 0.0
0.0014513213447608431 3.0355040537497086e-6 0.0
0.0013555364874916764 2.0195008107407562e-6 0.0
0.0014202541062145412 -1.2575939315737508e-6 0.0
0.0014649352962537187 -4.928189823549074e-7 0.0
0.0014203610837682748 1.4130935766045013e-5 0.0
0.0003557832025273804 -0.00011081566010153749 0.0
0.00034850398592796173 -0.00012475422501501653 0.0
0.0003668640337954478 -0.00013300362878570005 0.0
0.001435586016263453 -5.297367560752585e-6 0.0
0.0014784678151661735 -3.980756691598338e-6 0.0
0.001393904608812847 -6.640543895708276e-6 0.0
0.0008564344862903279 -0.00019116476022902157 0.0
0.0008379988613641725 -0.0001954317322394292 0.0
0.0008546311447731114 -0.00020137662098297957 0.0
0.0008368328342125184 -0.00020557189788154373 0.0
0.0008531231435576158 -0.00021186059871223235 0.0
0.0008361252422310722 -0.00021596142445437684 0.0
0.0008195632663312903 -0.00020958703516801025 0.0
0.0008192312449784539 -0.0002197193518174472 0.0
0.0008028340145207507 -0.00021326495041169946 0.0
0.0008884252468524688 -5.134089018466507e-5 0.0
0.0008520503122167086 -0.00022259416866357064 0.0
0.000868776380692945 -0.0002183142974706455 0.0
0.0007507558067512735 -0.00010494289298726821 0.0
0.0007179772838872314 -0.00014594143686010494 0.0
0.000737803088327259 -0.00014301825536766985 0.0
0.0007201186699159233 -0.00013981897439719766 0.0
0.0007402528870844455 -0.00013683427548667778 0.0
0.0007225173139330353 -0.0001340273217993857 0.0
0.00074294286038292 -0.00013099019266109041 0.0
0.000760779047745187 -0.00013359795991919646 0.0
0.0007637376485636796 -0.00012768642853698174 0.0
0.0007816711716099561 -0.00013009627946799026 0.0
0.0007848552003804269 -0.00012408848255632645 0.0
0.0008020171366870817 -0.00012631463458494293 0.0
0.0007670790194290784 -0.00012191471058975351 0.0
0.0007251864350955595 -0.00012856171144139136 0.0
0.0007047172436205454 -0.0001314075051151751 0.0
0.0007987710366495319 -0.0001328409638159358 0.0
0.0008201673859361202 -0.00012842071441237046 0.0
0.00035203220204072145 -0.00013135543195074396 0.0
0.0007955906874203726 -8.618123259629344e-5 0.0
0.0008605382468078488 -7.001612678857523e-5 0.0
0.0008455594400291082 -0.00015810395332970423 0.0
0.0015280252119428824 -2.602604745851503e-5 0.0
0.0015479035280237228 -2.3376491990358614e-5 0.0
0.0009056514535736712 -5.8766931383114506e-5 0.0
0.0008758231460798748 -6.613529255494598e-5 0.0
0.0011625479703486492 -0.00015723746726328897 0.0
0.001006910298875225 -8.066713614627664e-5 0.0
0.0015047614014307574 -6.67935233435315e-5 0.0
0.001536073815120129 -4.719341431307183e-5 0.0
0.0008479299853751258 -7.89713172635107e-5 0.0
0.0005974386162732671 -0.00019260680862726753 0.0
0.0005825871484002405 -0.00018645948646974904 0.0
0.0009444334077551154 -4.8890845352100184e-5 0.0
0.0008025686704717482 -0.0002230859668807549 0.0
0.0007857483630009106 -0.00021615788272667092 0.0
0.0005817813334538355 -0.00017966226489329377 0.0
0.0005674777541814364 -0.00018028319948626021 0.0
0.0005665848782639781 -0.0001736339544661509 0.0
0.0005519451793897665 -0.0001740564317242524 0.0
0.0005531978092171453 -0.00018080002105600357 0.0
0.0005374504157429391 -0.00017439277621685936 0.0
0.0005388731716000105 -0.00018124697800819974 0.0
0.0005229004037607493 -0.00017467081395484003 0.0
0.00026272222437959196 -9.912671531264653e-5 0.0
0.0015585428585964632 -1.7570976664017418e-5 0.0
0.0011168361277584086 4.2366401966843e-6 0.0
0.001090423924224438 1.73791419391311e-6 0.0
0.0005220003288468685 -0.0001250438950740723 0.0
0.00042942794155208594 -0.0001242412164493086 0.0
0.0014938917263796106 2.7012947755798776e-6 0.0
0.001469811807640516 8.074478051303173e-6 0.0
0.0006887463579341403 -0.00020804353112401788 0.0
0.0007049750277571632 -0.00020647043233740377 0.0
0.0010818415631711072 -0.00021676083527311638 0.0
0.00024493115746220895 -7.835167612890427e-5 0.0
0.000927248134627264 -8.160270672596713e-5 0.0
0.0010593753410692835 -6.952804405114378e-6 0.0
0.0010669466273947885 -2.131497447398562e-6 0.0
0.0011898035325431232 -0.00014522527482503138 0.0
0.0012324700330030658 -5.331858142204734e-5 0.0
0.0012436185764181608 -0.0001606870660513002 0.0
0.0012602350862401695 -0.00016587165086614136 0.0
0.0012501378510950134 -0.00018597531813990516 0.0
0.0012753357491574813 -0.0001711851581682468 0.0
0.0007478922815736771 -9.791552776402161e-5 0.0
0.00028132562675592827 -0.00010829615257520773 0.0
0.0008043107026159629 -0.0001201459120174062 0.0
0.0013216678646369936 9.375259214996646e-6 0.0
0.0006924024762093658 -0.00019226623946089146 0.0
0.00036949251453595444 -0.00013970517934908612 0.0
0.00038424801249772097 -0.0001411600400735355 0.0
0.001060987765446077 -0.0002246721018704863 0.0
0.0005507700755962709 -0.00016761794641501535 0.0
0.0009508902759874291 -0.00012928664452291374 0.0
0.0009279665258959803 -0.00013584027396481657 0.0
0.0015211577903127512 -6.68768713373203e-5 0.0
0.0015533883466400003 -4.6101528459266945e-5 0.0
0.001567364254083636 -3.0505094401803506e-5 0.0
0.0005304494654104928 7.694484533852611e-5 0.0
0.00012449465150426856 -4.388426297986723e-5 0.0
0.00010333317312448711 -3.463365788624394e-5 0.0
0.00010051292344865807 -3.224328898590146e-5 0.0
0.0011513417992871134 -2.860251038633981e-5 0.0
0.0011811074739965092 -3.5777066436019344e-5 0.0
0.0011223766224121381 -1.9718613628551478e-5 0.0
0.0011609051083779453 -2.575307434407486e-6 0.0
0.001450558213126392 -9.022417809534682e-6 0.0
0.0014929960057701607 -7.101781111580795e-6 0.0
0.0005836381774956697 -0.00019338198254751707 0.0
0.0011261306078571539 -3.0166955364429713e-5 0.0
0.0002932410871417086 3.937387680212536e-5 0.0
0.0003016754041968614 4.937109620328174e-5 0.0
0.00037196930973674996 6.972457640504744e-5 0.0
0.0003123566650773819 5.69791534733402e-5 0.0
0.0004149087423362289 8.845169505754468e-5 0.0
0.0007844868929067027 -0.00020617648207339238 0.0
0.0005211455463533289 -0.00016798785549898245 0.0
0.0005067802284709874 -0.00016811058636392008 0.0
0.0005084927574756081 -0.00017492357147431473 0.0
0.0004924213597893026 -0.00016819690643677884 0.0
0.001285482220406169 -0.00015111946308273802 0.0
0.001299939354038751 -0.00015590708911096554 0.0
0.00128927990440863 -0.00017644020919457376 0.0
0.0013133174083107917 -0.00016084432093787393 0.0
0.0009995728128557502 -0.00011385820054649333 0.0
0.0010260460304549945 -0.00010532148366205788 0.0
0.0008677610499753833 -0.00022926321895810482 0.0
0.0008841540490521965 -0.00022487748619935102 0.0
0.0007074545904684162 -0.0001262590765227798 0.0
0.0006868793412448772 -0.00012891763133891822 0.0
0.0006712161896888669 -0.00020944633829882267 0.0
0.0004941758165297865 -0.00017507812664025555 0.0
0.0004783134006998624 -0.0001682629742280146 0.0
0.0014412471308668771 -8.692401378546096e-5 0.0
0.0014279960424008597 -0.00010799831693469857 0.0
0.0014128065696131142 -0.00010681344266271617 0.0
0.0014026360939898938 -0.00012655878980472125 0.0
0.000704960088963339 -0.00021539168926036382 0.0
0.00014391713443488735 -5.31872788997543e-5 0.0
0.00020037010148652717 -6.221951839590614e-5 0.0
0.00017570226060059906 -5.369242226228614e-5 0.0
0.0001471311817791756 -4.126479009050383e-5 0.0
0.0001431404930261118 -3.882774972543308e-5 0.0
0.00017552197158195992 -4.590019956398585e-5 0.0
0.00013952652952590493 -3.584269428871659e-5 0.0
0.00017311455397353085 -4.23034945264969e-5 0.0
0.00013567612769234085 -3.2032133558903873e-5 0.0
0.0001709201420508533 -3.7604545134604356e-5 0.0
0.0014436360462111429 -0.00010924017953730076 0.0
0.0004900337450468344 -0.0001616260369331495 0.0
0.0011698208890719528 -0.0001412193480633725 0.0
0.0010429948361402746 -0.00021740305689002377 0.0
0.0010405645053073401 -0.00023219401183496396 0.0
0.001023162060917689 -0.00022508155635482557 0.0
0.000785956294467474 -0.00022584170752440311 0.0
0.0011386842009741415 5.298411637196353e-6 0.0
0.0013026547001783134 -0.00018219094589368506 0.0
0.0015858740374772686 -2.8133605879541216e-5 0.0
0.001570571799738666 -4.4291647035159745e-5 0.0
0.0005383409766270143 9.859593593623765e-5 0.0
0.0011149200964660991 5.810713631132212e-6 0.0
0.0008278743509670458 -0.00015402454115077691 0.0
0.0008477658350625598 -0.00014974016104374994 0.0
0.0008197163965834918 -0.00022995830350945956 0.0
0.000769045571762325 -0.00021888141153673073 0.0
0.00038657684795333886 -9.613396344311893e-5 0.0
0.00151995831403392 -2.901191956707456e-6 0.0
0.0015338300920182588 -5.306126709611973e-6 0.0
0.001506069367367838 -9.945668007937986e-6 0.0
0.0015455723426779154 -7.610073616254671e-6 0.0
0.001232051987563719 -9.274881696818454e-5 0.0
0.0009105712495562481 -0.0001873885947694119 0.0
0.0009320559775546572 -0.00012672507450919228 0.0
0.0006948395774921773 -0.00016887793935352986 0.0
0.000998256992511944 -6.549254421682809e-5 0.0
0.0010410587657978493 -0.00011825627509579281 0.0
0.0010390137460921315 -0.0001577338760762734 0.0
0.0010635788263811028 -0.00014882047972425782 0.0
0.0011534909535874736 -5.179092423520349e-5 0.0
0.0011870187313298573 -5.535694642139627e-5 0.0
0.00038653580899017815 -0.00014802305177132104 0.0
0.000400523456620338 -0.00014906547360352595 0.0
0.0001318379338309625 -2.7253096002186938e-5 0.0
0.00016726369215853151 -3.136552364004019e-5 0.0
0.00020753031684863323 -4.223612950312101e-5 0.0
0.00020521547067246934 -3.446048475673296e-5 0.0
0.00016464192492218548 -2.4043985936984415e-5 0.0
0.0002044904441273257 -2.5268481170136063e-5 0.0
0.00016325619409724844 -1.5764838024771335e-5 0.0
0.00020553886779250087 -1.4831368682955405e-5 0.0
0.00016286144946404195 -6.99550143351419e-6 0.0
0.0001085619396553614 -3.867372573494735e-5 0.0
0.0009094474404022451 -0.0001328431434841649 0.0
8.776329009797447e-5 -2.9472650237420418e-5 0.0
0.00035544365488071616 -0.00013832651595880295 0.0
0.0015797879702035176 -1.4759453933864824e-5 0.0
0.000755472520614128 -0.0001464427800106775 0.0
0.0010381148564845618 -1.2167854686830845e-5 0.0
0.0010487598111319522 -6.586811184557339e-6 0.0
0.00020728561104156506 -3.6299979460451138e-6 0.0
0.00026773452578000774 -0.000105984112716508 0.0
0.00024922367471231555 -9.654042925078652e-5 0.0
0.0005103306607821795 -0.00018323753438058407 0.0
0.0010763255100598363 -0.00023213699150580509 0.0
0.0005981983357705026 -0.00019958175988687738 0.0
0.0013265178031117003 -0.00016619875077569362 0.0
0.0015988298812336763 -1.7762535039941927e-5 0.0
0.0006843514357077675 -0.00013405261763770607 0.0
0.0006666293841500805 -0.00013131648965442204 0.0
0.0006642477261431571 -0.00013644311032749568 0.0
0.0005937070071903347 9.605984608248447e-5 0.0
0.000647668368836276 -0.00013344331007200777 0.0
0.00015343809360329386 -4.406220517902834e-5 0.0
0.00088317880667919 -0.00023614183381526533 0.0
0.0008995924498500824 -0.00023166754947969673 0.0
0.0009008432218970058 -0.000220096476206491 0.0
0.0009161490372845652 -0.00022672531811391894 0.0
0.0010831020689506892 -0.00015290802278259823 0.0
0.001089581283095061 -0.0001391240574060981 0.0
0.00158897160475949 -1.1058464236502325e-5 0.0
0.0015670290234379948 -1.3626528248057841e-5 0.0
0.001078467453429494 1.0116472915722261e-6 0.0
0.0010583241826116782 -4.50870783343207e-6 0.0
0.0003381998320372663 -0.00012978736877214614 0.0
0.00048015819557571335 -0.0001752878366101447 0.0
0.0004645373810838262 -0.0001683455722634416 0.0
0.0008067317150874489 -9.796753197441566e-5 0.0
0.0012798256181135522 -0.0001970040126627436 0.0
0.00016459912216790034 1.5442334157729148e-6 0.0
0.000462256625639791 -0.0001613275689878982 0.0
0.0009149021978464248 -0.00023870811028236488 0.0
0.0009313017403377807 -0.00023357044579568696 0.0
0.0009130545885800339 -0.00012446326045233825 0.0
0.000891042887344404 -0.0001299875420475135 0.0
0.0008945222209482651 -0.00012215861378397566 0.0
0.000854819671313641 -8.44914754448596e-5 0.0
0.00015475781571268918 -4.763344154003183e-5 0.0
9.289650409166556e-5 -3.353684180627006e-5 0.0
0.0009179469152271694 -0.0002149198626082931 0.0
0.0009509172810384362 -0.0001030820802964515 0.0
0.0007695404333770888 -0.00022823573993375833 0.0
0.00035249631765275533 -8.091177930129367e-5 0.0
0.0005906162696922935 -0.00011333736718778308 0.0
0.00028559298246867406 -0.00011553096754255607 0.0
0.0013379345969167604 -0.00014485648024450663 0.0
0.0003744321480034978 -0.00011359926571921926 0.0
0.0003532835570196054 -0.00010645840762792542 0.0
0.00037372281235646286 -0.00010954264627863201 0.0
0.00035166320571235844 -0.0001025896904125983 0.0
0.0003728379027193171 -0.00010580222028180751 0.0
0.000330790112144443 -9.911156458709461e-5 0.0
0.0010209769798807974 -0.00023952935295738062 0.0
0.0010053366249645561 -0.0002325318524362804 0.0
0.00023558917366085672 3.157565116503717e-5 0.0
0.0007869451392697678 -0.0002349823826078568 0.0
0.0007659100684900288 -0.0001814081490453565 0.0
0.0007473758013325285 -0.00018440125455960937 0.0
0.00040301642614376607 -0.0001561993814260158 0.0
0.00011992824628390593 -3.410821084836953e-5 0.0
0.000128569888845317 -3.741088311331289e-5 0.0
0.0014641164540995612 -3.2476623070418704e-5 0.0
0.0014960440560842186 -2.386728300173285e-5 0.0
0.00024610699532254954 -4.5804772111947075e-5 0.0
0.0004166673976509247 -0.0001568376838229306 0.0
0.0004151923756917864 -0.00015038876971158489 0.0
0.0004191268174224183 -0.0001641821764241337 0.0
0.00038963774928649865 -0.00015539352237184932 0.0
0.00034108246885483797 6.820994039956169e-5 0.0
0.0006104583623975725 -0.00017786704651849707 0.0
0.0009057969104116318 -0.0001417981496138264 0.0
0.0014706637711767267 -2.5546006482578013e-5 0.0
0.000867139732160323 -0.00024016068142499903 0.0
0.0005844071944798894 -0.00020032343946805984 0.0
0.001602887345184205 -2.5763558655265156e-5 0.0
0.001586966710846471 -4.287022146212506e-5 0.0
0.0005900268479475726 7.195013553115984e-5 0.0
0.00046683289069487347 -0.00017574682094312528 0.0
0.001004985782325897 -0.00010347198706815078 0.0
0.001033902495665186 -9.460057187941052e-5 0.0
0.00019683030503334244 -5.954134841802546e-5 0.0
0.00025447920190654763 -0.00010353590056630851 0.0
0.00023631594579914543 -9.405954613611574e-5 0.0
0.0002306566504122743 -8.734388833226236e-5 0.0
0.00034189194043957976 -0.00013694429964886983 0.0
7.24051058068302e-5 -2.439427392131231e-5 0.0
6.843543976184907e-5 -2.1745348907645366e-5 0.0
0.0009299918837389556 -0.0002460297239807558 0.0
0.0009461928973701424 -0.00024066119968228663 0.0
0.0009472190913611015 -0.0002273112457301791 0.0
0.001311077793984353 -0.00013568526250492603 0.0
0.001295396743604532 -0.0001312985706465808 0.0
0.0012928491097863584 -0.00020382489143670597 0.0
0.00032871943546866454 -9.548952779601872e-5 0.0
0.0003080875724582975 -9.18466727333418e-5 0.0
0.001054974960576217 -9.599483293813948e-5 0.0
0.0015721797805216154 -3.7808062654004387e-6 0.0
0.0015827414412872519 -5.480355988833799e-6 0.0
0.0015942056921197543 -8.871460860007685e-6 0.0
0.0015488750060204276 -7.013951118254595e-5 0.0
0.00011351781781332745 -4.377062377335633e-5 0.0
0.0010298763677764552 -2.644265086548097e-5 0.0
0.0010062793490126305 -3.0828695633778476e-5 0.0
0.0009962620433171154 -3.619453287231404e-5 0.0
0.0009735703922387378 -4.0701660857965006e-5 0.0
0.0009647202570112488 -4.521250889378466e-5 0.0
0.000981808966133282 -3.645227172761433e-5 0.0
0.0008302239246085332 -0.00014610793395398972 0.0
0.0006896304088758454 -0.00012413344302114861 0.0
0.0007105284279764398 -0.00012143613700245994 0.0
0.00024162462187673895 -0.00010121057387652298 0.0
0.0002234930558258318 -9.141325228194914e-5 0.0
0.0013999988421438598 1.4688935553203259e-5 0.0
0.00145577111459291 1.406993431380448e-5 0.0
0.0014771910073052114 1.2599638580253608e-5 0.0
0.0015133102735785623 1.230595483835455e-5 0.0
0.0015003027325046258 1.2922569966808087e-5 0.0
0.0007533624393838357 -0.00022168682704143823 0.0
0.0007528109375237659 -0.00021272141429399085 0.0
0.0007534784879364407 -0.00023035757674617284 0.0
0.0010191341183227159 -1.8689807357763523e-5 0.0
0.0010073659256956049 -2.4348094230625142e-5 0.0
0.0002492596334365669 -5.339416284211338e-5 0.0
0.00011924885376320702 -2.3255179517284166e-6 0.0
0.001002480672591308 -0.00024655000108667654 0.0
0.00028700678503890776 2.9113898823000658e-5 0.0
0.0010090287374242106 -0.00013816814810763839 0.0
0.0009912376846124963 -4.03492558734881e-5 0.0
0.000956438802113231 -4.9577080831325096e-5 0.0
0.000977875316498617 -4.6477236980765844e-5 0.0
0.0009483518838065985 -5.41165437328815e-5 0.0
0.000968914100102271 -5.171427827510702e-5 0.0
0.000940652120086261 -5.902456732231868e-5 0.0
0.00096094075968329 -5.713669545692741e-5 0.0
0.000933393018567842 -6.423313959388439e-5 0.0
0.0009543716106714388 -6.265859507179378e-5 0.0
0.0009269049096855831 -5.71661373395166e-5 0.0
0.0009130973181710122 -6.602880619999267e-5 0.0
0.001037923158774928 -0.00024699449391244436 0.0
0.001615938245454869 -7.76581119905981e-6 0.0
0.0005659818894861323 -0.00016728807991644716 0.0
0.000549518242773298 -0.00016159576967673467 0.0
0.0014899049831211275 -8.886887476691596e-5 0.0
0.0006507359676304629 -0.00012933629377224082 0.0
0.0009436843928920184 -4.9263591139560193e-5 0.0
0.00044421512397276915 0.00010927337349728073 0.0
0.00010857976696197039 -2.9094052795087315e-5 0.0
0.0006578684947912984 9.072875591490812e-5 0.0
0.0006453574399083993 6.34873474039386e-5 0.0
0.0012168994556382739 1.1715466027957952e-5 0.0
0.0015056072083468742 -8.992164306414155e-5 0.0
0.001476395790266916 -0.00011306172844660697 0.0
0.0006448940279511663 -0.0001385009838146065 0.0
0.0006303737839390808 -0.0001345952789252295 0.0
0.00029912766522475196 -0.00011246425052495869 0.0
7.747494178902022e-5 -2.8358588923874127e-5 0.0
9.261449303400946e-5 -2.6492712183152668e-5 0.0
9.702967828867933e-5 -2.8244185402864677e-5 0.0
5.7127177370477494e-5 -1.9339308138125014e-5 0.0
0.001069408432723214 -0.00013592530714044975 0.0
0.0010964311336720675 -0.00012589364362724001 0.0
0.0011174122116757127 -0.0001288151657003207 0.0
0.0011245578727029219 -0.00011489218249722691 0.0
0.0009066855921013426 -7.077115979745426e-5 0.0
0.0005109486183146646 0.00012678972343799244 0.0
0.0006181776645237777 0.00011837835217095966 0.0
0.0008727072697704981 -0.0001272784807534568 0.0
0.0008764586284479681 -0.00011978254788026325 0.0
0.0006930049081888867 -0.00011986365578603217 0.0
0.000604089044107924 -0.00012278350073316888 0.0
0.0005989559380606708 -0.0002064697578149296 0.0
0.0011872825363014228 -0.00020413303415804524 0.0
0.0012033868367369509 -0.00021130454580902598 0.0
0.0011820408827382008 -0.00022196221297513972 0.0
0.0011974103877232974 -0.00022955967685998603 0.0
0.0011771875206548425 -0.00023974801836212532 0.0
0.001161495920889812 -0.00023196614619515766 0.0
0.0011212084361109749 -0.00021825978848602034 0.0
0.001005516457269253 -0.00021792283583196433 0.0
0.0011252370307478403 -3.5043346670727094e-6 0.0
0.000821094121194778 -0.00018971960764875407 0.0
0.0002482711252187072 -2.5064042728652775e-5 0.0
0.0015691176360648426 -6.529552545723582e-5 0.0
0.001602323784201158 -4.120487090133839e-5 0.0
0.0012179641048689818 -0.00021835649369918853 0.0
0.0012119792655553778 -0.00023668026002663658 0.0
0.0012315000649849707 -0.000225370187070244 0.0
0.0006123795378436438 -0.00020574553120663252 0.0
0.0007301667714881853 -0.00017904508580717548 0.0
0.0007296800052333655 -0.0001870254324920371 0.0
0.0007466062506620464 -0.0001929147820638771 0.0
0.0005214106447965943 -0.00014419071332161487 0.0
0.0007125639123626612 -0.00018153488319932578 0.0
0.0009027116959632946 -0.00020898570946025085 0.0
0.0013230404830603295 -0.00011524443564535727 0.0
0.001350888489988625 -0.00014950732386603108 0.0
0.0013392298205644518 -0.00017235873291340825 0.0
0.001366519592471442 -0.00012605396336148942 0.0
0.00021296932179030724 -5.306584015125011e-5 0.0
0.0005545431687394474 -0.00018775421247387025 0.0
0.000540558483506382 -0.00018837073718245428 0.0
0.0005556984602981465 -0.00019480975815685468 0.0
0.0005422947781419229 -0.00019569199926670452 0.0
0.0011458649622132031 -0.00011715422095539859 0.0
0.0003591632889874511 -0.00014572299002143458 0.0
0.00032549881455317965 -0.0001284506665918754 0.0
0.0015554763639835623 -9.849194918290737e-6 0.0
9.843333464063361e-5 -2.2185810263712755e-5 0.0
9.501391462024065e-5 -1.8159090661870884e-5 0.0
0.0009862008971236247 -0.00023754762731889695 0.0
0.0009865146914996678 -0.00025298119812365723 0.0
0.0008098556986306411 -0.0001501613712899775 0.0
0.001535322911938977 1.023865425291602e-5 0.0
0.00032902004823753947 -0.00013556303618971724 0.0
0.0012907192856934948 -5.322741075167909e-5 0.0
0.00142377131712972 -8.642880725746864e-5 0.0
0.001479239530260605 -2.1747399657152305e-6 0.0
0.001487650972686777 3.4733000253508227e-6 0.0
0.0011037471354801282 -0.00011311292873360688 0.0
0.0011986225561883355 -0.00012887990174073697 0.0
0.001218537446849106 -0.00013240483229902346 0.0
0.001171562944271815 -7.46570185940012e-5 0.0
0.0012037364863157413 -7.593682280806819e-5 0.0
0.001218639673479923 -5.497577651964632e-5 0.0
0.0009137157970620531 -0.0002509041907713011 0.0
0.00048126885378748643 -0.00018254867126230682 0.0
0.0007003776253123642 -0.00014262395028251965 0.0
0.0009790038168980392 -0.0001122322596193667 0.0
0.0008646947597779154 -0.00015330907070154544 0.0
0.0008824900427858684 -0.0002474585838387791 0.0
0.0004320584734407987 -0.00016448565063414787 0.0
0.0005342856536038051 -0.00016158263940543418 0.0
0.00024289364303755687 -7.105742455004535e-5 0.0
0.001562076593166185 9.578945559523198e-6 0.0
0.0011432527178203108 -0.0001530562283604621 0.0
0.0001710052816378774 -5.1132611933562597e-5 0.0
0.0005385515584368282 0.00015121608670889587 0.0
0.0008727185927079255 -0.00019693832369849175 0.0
0.001157208158374271 -0.000249319369194577 0.0
0.0011404970033674475 -0.00024125951819164507 0.0
0.0009975193546508485 -0.00016126666123044098 0.0
0.001061583953524787 -8.557017781266517e-5 0.0
0.0005007295516477183 -0.0001286039478618405 0.0
0.0007291412271929556 -0.0001967149183088035 0.0
0.0009752496501350507 -9.632772000850037e-5 0.0
0.0005329116186427524 -0.00015576338888377377 0.0
0.0005171962693882573 -0.0001554841232014744 0.0
0.0004344197781768082 -0.00017194043965286602 0.0
0.0002874403836768073 -5.729970811623586e-5 0.0
0.00028653903433845584 -4.8886332999667594e-5 0.0
0.0001223811144859179 3.5155723014046404e-6 0.0
0.00017143060970973876 9.805377333031926e-6 0.0
0.0012713507030892013 -0.00021774554460949843 0.0
0.00022115451603934007 -6.774584242384642e-5 0.0
0.0003105503148226708 -9.551695882336298e-5 0.0
0.00028770542451678904 -8.786642505448757e-5 0.0
0.0013510500229760032 -0.00012364751928466375 0.0
0.0006757582355762561 -0.0001784335928104232 0.0
0.0008502103292446194 -0.00014138942800269875 0.0
0.0010942366485371723 -8.847049287890946e-6 0.0
0.0010994548710582474 -2.856811206539586e-5 0.0
0.0010750227174435617 -1.8582606770218982e-5 0.0
0.0010822031844552615 -3.970168839893846e-5 0.0
0.0011068792876696857 -5.0411875200058404e-5 0.0
0.0011698174583774303 3.5805226537637355e-6 0.0
0.0011998941456719612 3.976486677996037e-6 0.0
0.0012099607393084757 8.633859697330523e-6 0.0
0.0012390908441182469 8.462508754699672e-6 0.0
0.0012292621776792824 3.5633869594180746e-6 0.0
8.701231925874824e-5 -2.4393995113819487e-5 0.0
0.0011542776793789767 -0.00010350427685853869 0.0
0.000241005396077604 3.817144149131361e-5 0.0
0.0002735444045261745 4.9060294678305054e-5 0.0
0.0009447635327392974 -0.0002534664757358751 0.0
6.144746598184829e-5 -1.2806688066119207e-5 0.0
0.0012902673324492427 -4.3484504434449925e-5 0.0
0.0013252711055648202 -3.4200268080047735e-5 0.0
0.0013003209382316007 -3.3104693571955395e-5 0.0
0.001353579056601356 -3.410413507218548e-5 0.0
0.0013607413388111464 -2.578861319945341e-5 0.0
0.0013897571173087826 -2.6018270921307117e-5 0.0
0.00039512529942729304 -0.00011238709171235865 0.0
0.0003953644783332773 -0.00010887173414312185 0.0
0.0003717992414433276 -0.00010231238187385227 0.0
0.0003952942561776161 -0.00010553492838239476 0.0
0.0004187313282739299 -0.00011165956889275056 0.0
0.0004191761520431357 -0.00010834294376299615 0.0
0.00044204767071073277 -0.00011397430257243876 0.0
0.00046917156865078943 -0.00018299673910491092 0.0
0.000442943205970854 -0.00011054496163858856 0.0
0.0004654077695995593 -0.0001158284388978042 0.0
0.00012422250080572293 -1.5449897129721217e-5 0.0
0.00028869724057447346 -6.391378401386987e-5 0.0
0.0004635468961922925 -0.00011930883438714308 0.0
0.0003734671737007427 -9.972561697942102e-5 0.0
0.0013060384952848182 -0.00011182298842116779 0.0
0.0012785984999770868 -0.00012745422466132404 0.0
0.0007378919982650102 -0.00022432820508583393 0.0
0.0007376957686581291 -0.0002324762209918163 0.0
0.0010581694553620001 -2.585967744999503e-5 0.0
0.0005925653090681094 4.77312765165608e-5 0.0
0.0006441702459627135 3.684229057038402e-5 0.0
0.0006943882374965105 5.0514643617710707e-5 0.0
0.000693540875259304 2.176259376792345e-5 0.0
0.0006482908705707065 1.0298931032977512e-5 0.0
0.0006969607926129425 -8.071635305205586e-6 0.0
0.000654900092127972 -1.5661651236813792e-5 0.0
0.0007029578155258161 -3.4442197782384884e-5 0.0
0.0006616825134137913 -3.7854074289279664e-5 0.0
0.0007149016330634289 -5.477821881631737e-5 0.0
0.0006664122089789306 -5.463509087164948e-5 0.0
0.0007084428582643099 -6.634703309097661e-5 0.0
0.0006676519650433778 -6.645920890107711e-5 0.0
0.000706254270467277 -7.486073418270087e-5 0.0
0.0006696414644464787 -7.562084605424733e-5 0.0
0.000704327249575268 -8.107943968017206e-5 0.0
0.000669048986511621 -8.201455769843549e-5 0.0
0.0007001782728535982 -8.53713158933893e-5 0.0
0.0006674372315450644 -8.663645968359782e-5 0.0
0.0006962122480826165 -8.865955707266555e-5 0.0
0.0006649377525767182 -9.024847609488574e-5 0.0
0.0006916637627204217 -9.13638970285078e-5 0.0
0.0006611883401493608 -9.32510330229334e-5 0.0
0.0006870936618148662 -9.37792119861369e-5 0.0
0.0006572743252322509 -9.605702929088708e-5 0.0
0.0006308360328852027 -9.463528314812457e-5 0.0
0.0006277177104277303 -9.769846309164462e-5 0.0
0.0006841112334697187 -9.630759165232914e-5 0.0
0.0006365823831658726 -8.255549360475092e-5 0.0
0.0007164856110990904 -9.105148648120564e-5 0.0
0.0007298667759241417 -8.659626628444502e-5 0.0
0.0006164016315013778 -2.1629370462525767e-5 0.0
0.0007397609688129376 -7.949099511630475e-5 0.0
0.0006001874798705675 -9.552330869819004e-5 0.0
0.0005982941927861015 -9.881435492505566e-5 0.0
0.0006246228842983263 -0.00010058734406186722 0.0
0.0005962833130014604 -0.00010187062427702507 0.0
0.0006307666086191188 -6.69093276284831e-5 0.0
0.0007525644152034476 -6.746745527246478e-5 0.0
0.0006024762321027021 -9.181050803864433e-5 0.0
0.0007471842529978671 -2.9455678223497375e-5 0.0
0.0006217795586788744 -0.00010341816360780282 0.0
0.0005941714196649363 -0.00010484275091576643 0.0
0.0005682138676268297 -0.00010264946578804834 0.0
0.0005700732550925299 -9.208582809181562e-5 0.0
0.0005702198430875391 -8.712412787984532e-5 0.0
0.0006495716280906796 -0.0001014430294779185 0.0
0.0006456520305374097 -0.00010425903535471851 0.0
0.0006721540567798105 -0.00010181093371020668 0.0
0.0007428995506445667 3.1266163337161615e-5 0.0
0.0007519695477871478 5.672775135411863e-5 0.0
0.0005676034910477711 -0.00010574574507159879 0.0
0.0005405558044948881 -0.00010293867016824395 0.0
0.0005412301774410906 -9.971286554304022e-5 0.0
0.0005116352742155204 -9.9282767089797e-5 0.0
0.0008670197285374544 -0.00025102698784015826 0.0
0.0008518167292997129 -0.0002436496519411889 0.0
0.0014911997648996713 -0.0001148576431442807 0.0
0.0009200396498912743 -0.00020347453743115127 0.0
0.0009355619784272506 -0.00020944862289317578 0.0
0.000562984882761466 -0.00016085943713831124 0.0
0.0005794012638470756 -0.00016627497107142173 0.0
0.001334725198359963 1.2474674786687562e-5 0.0
0.0009360981946887412 -0.00011780476767131044 0.0
0.0005929352558213377 -0.00010776291919732205 0.0
0.0004467632301512837 -0.00016085332935267922 0.0
0.00044598364197250673 -0.00015439600033293036 0.0
0.00046016175698310587 -0.00015487846892241628 0.0
0.0010398500754114344 -8.478688208742086e-5 0.0
0.000995410989151725 -4.4958416616972046e-5 0.0
0.000662608234977076 -0.00014186247159632642 0.0
0.0006437424259939778 -0.00014395354071046403 0.0
0.0009879339759524155 -3.175348158051189e-5 0.0
0.000976864125833716 -3.6348696165473655e-5 0.0
0.0009943601174337117 -3.0420814430340876e-5 0.0
0.0009633649568740566 -4.140672548901665e-5 0.0
0.0010001379505032255 -2.6706396090919227e-5 0.0
0.0009813704419179199 -5.574475871168717e-5 0.0
0.0009755286278228126 -6.144849303721396e-5 0.0
0.0009461028879605751 -6.869667306574541e-5 0.0
0.0007141083996099927 -0.00011699149849763498 0.0
0.0007317782716868089 -0.00011840500479712906 0.0
0.0007356407447344027 -0.00011394956289390278 0.0
0.0007530532872391385 -0.00011507550918744043 0.0
0.0007569709242487663 -0.00011062082971857814 0.0
0.0007743596014705806 -0.00011154006766896832 0.0
0.0007784886291721652 -0.00010697844122905841 0.0
0.0007967046232463562 -0.00010759156146031695 0.0
0.000792130139858966 -0.0001126976454282159 0.0
0.0008152904894866752 -0.00010781932856731004 0.0
0.0008993110517124328 -0.00011476192934874054 0.0
0.0008804102536826754 -0.00011283794262240474 0.0
0.0008583011798738714 -0.0001177781402402217 0.0
0.0008619978397626108 -0.0001112847730319783 0.0
0.00019307136489406647 -5.7113348474914655e-5 0.0
0.00022941342584731196 -9.897482678700735e-5 0.0
0.00021134543758303132 -8.888745138844003e-5 0.0
0.00020563580656288817 -8.150863305891091e-5 0.0
0.00019271885738924216 -7.85150849979069e-5 0.0
0.0008121959385829864 -0.00014272252785135065 0.0
0.0010839004217349081 -8.606136631964617e-5 0.0
0.0010749307697346666 -9.765296373638108e-5 0.0
0.00048390200032429943 9.665414148735379e-5 0.0
0.0008874562581938875 -7.235767172718902e-5 0.0
0.0008928063134185561 -6.861410839517722e-5 0.0
0.001031658483815837 -4.0768557913367516e-5 0.0
0.001582688479208972 -1.9111172173038414e-5 0.0
0.0016109344749301948 -1.1508074848126065e-5 0.0
0.0016297505081832155 -9.05301967877985e-6 0.0
6.78253319586766e-5 -1.9445932085450863e-5 0.0
7.064102627010159e-5 -2.0311648910219408e-5 0.0
9.851976378395368e-5 -2.890465497341412e-5 0.0
7.505968392837604e-5 -2.1711936314254837e-5 0.0
0.00010098944383003927 -3.0008176449098606e-5 0.0
7.80038786098746e-5 -2.293697434605516e-5 0.0
4.934914574995906e-5 -1.4009349594428363e-5 0.0
0.0007917307828837965 -0.0001465637698555523 0.0
0.00042090268238298645 -0.00010541330452615801 0.0
0.00026023619083341163 -0.00011107953925142696 0.0
0.0006675402441052319 -0.00010453321106122297 0.0
0.0014678036549049165 -0.00013624409691081983 0.0
0.0014514483153816227 -0.0001383941066481883 0.0
0.0012277399332359738 -0.00011538878548446804 0.0
0.0012538002667568265 -0.00011623526979216906 0.0
0.0012606441808043032 -9.772500064750737e-5 0.0
7.694515029791138e-5 -2.8325513830727624e-7 0.0
0.000585870431317621 -0.0002074006999137415 0.0
0.0004221168150797558 -0.00017187926971313187 0.0
6.238356351575102e-5 -2.3305474067731077e-5 0.0
8.40781416416089e-5 -3.469399268695372e-5 0.0
0.00034884440414483344 -9.606315982627624e-5 0.0
0.0010931727463720532 -6.22788110049405e-5 0.0
0.001121761727939363 -7.307694370374323e-5 0.0
0.0011756937065240526 -0.00012584690706750112 0.0
0.0012370579422831844 -0.00013686784813609864 0.0
0.0005571423121679935 -0.0002019201771415903 0.0
0.0006126941117025089 -0.00021232436317676197 0.0
0.0006264041146782322 -0.00021186425823664447 0.0
0.00136288990815582 -0.00015539045407389726 0.0
0.0013510324320167404 -0.00017880066735282088 0.0
0.001327439314785874 -0.00019861285942712948 0.0
0.0015036328327530807 -1.830716148059445e-5 0.0
0.0014775241981740557 -1.9419447802388816e-5 0.0
0.001444416274103529 -2.63986810171455e-5 0.0
0.0014485185171935868 -2.0017947423876892e-5 0.0
0.0003018872120042814 -8.795206751412659e-5 0.0
0.0013954190735076144 -1.878474446705798e-5 0.0
0.0013616747016520759 -1.8452657948970706e-5 0.0
0.000938593842884354 -0.00019840210262727078 0.0
0.00019734101835509622 -8.534825584915176e-5 0.0
0.0001807805994875441 -7.644485958776348e-5 0.0
0.00017471632993875896 -6.930974243199728e-5 0.0
0.00016288818095785995 -6.67100413071647e-5 0.0
0.001636591878823349 -6.5735596450538816e-6 0.0
0.0015929392938559405 -6.426985748512443e-6 0.0
0.0016189890254380006 -3.388350978854744e-6 0.0
0.0012835729688963151 -0.00022415820515586654 0.0
0.0006718740646454403 -0.00012218318686665758 0.0
0.0013732819277368113 -0.00016197873246862881 0.0
0.001362712787426708 -0.00018467843051365272 0.0
0.0013837879300158931 -0.00016859059855050984 0.0
0.0013755160618713943 -0.00019422923104467043 0.0
0.0013974974286122262 -0.00017411157232690238 0.0
0.0014064113008121083 -0.00015065463375927315 0.0
0.0014181584588830501 -0.00015767286390491465 0.0
0.0007550293492115318 -0.00023846359345168998 0.0
0.0007400920044685305 -0.00024123066246229202 0.0
0.0007206654655989115 -0.0002340118094497217 0.0
0.0005673253941352596 -0.00010892278520315096 0.0
5.6870298036247255e-5 -1.6428799765606435e-5 0.0
8.035554318625722e-5 -2.409596400553834e-5 0.0
5.945810511488874e-5 -1.7533878036187424e-5 0.0
0.0005456622138432982 -0.00020444104547473257 0.0
0.0005301178955684247 -0.00019702584541948318 0.0
0.0015407756891397699 -9.027894905391712e-5 0.0
0.00013123350628751462 9.1342342729003e-6 0.0
0.000840255564621128 -0.00011666499063609675 0.0
0.0008449232959376867 -0.00011015593444066228 0.0
0.00149657950649229 1.061030847242746e-5 0.0
0.0015538889451911038 8.110485019576792e-6 0.0
0.0013777305105532403 -0.00010674762773329846 0.0
0.0003138612224637515 -0.0001269752943997818 0.0
0.00031934770083111525 -0.00013502561029505062 0.0
0.0011412256243911508 -0.00013155013516586523 0.0
0.0012968132468940538 -7.491421490968127e-5 0.0
0.0015846464880660714 -6.294514691923851e-5 0.0
0.0016186044847842972 -3.8210030402577186e-5 0.0
0.0016350054822471317 -2.1269205552239278e-5 0.0
0.0012355189543697483 -7.524287354334513e-5 0.0
0.001334762402007077 -9.671392150071187e-5 0.0
0.0007219532599021486 -0.00021147477393052965 0.0
0.001381992244419069 -3.425476638878673e-5 0.0
0.001283885645189746 -0.00011128370164151244 0.0
0.000517137998788039 -0.00014959688532355386 0.0
0.00032094910132076033 -0.00012141864017466981 0.0
0.0015325484605342116 -1.574768913031825e-5 0.0
0.0012935504628964073 -3.560695788698038e-5 0.0
0.0005299643908020071 -0.0002039875045073485 0.0
0.0002712207657968587 -7.974899829192957e-5 0.0
0.0008778376898684478 -7.77781476489552e-5 0.0
0.0012579529240284396 -0.00021387670390353902 0.0
0.0012524474790832371 -0.0002320409229839706 0.0
4.3094960164754e-5 -1.4684140515219457e-5 0.0
0.00096021921775176 -0.0002493193660701558 0.0
0.0009561356744181641 -0.00025998292500404685 0.0
0.0006264522669976928 -0.00021996554805292607 0.0
0.000641268344458824 -0.0002187149981077038 0.0
0.0006402140786179163 -0.00021126772042214247 0.0
0.0006554470971177603 -0.00021793808254653112 0.0
0.0006421792944640344 -0.00022508034974006106 0.0
0.00060466146893868 -8.746833164395454e-5 0.0
0.0005708354217794603 -8.160154004604145e-5 0.0
0.00024992493321368715 -5.8762642224420316e-5 0.0
0.0005908789820351649 0.00015512777722977142 0.0
0.0005700652222791812 0.0001327830204739376 0.0
0.0010527091079602614 -1.0248745870453675e-5 0.0
0.001223561823717601 -0.00024313466653488796 0.0
0.001206017971250832 -0.00025379245447972005 0.0
0.00016715882003632987 -7.38105255776521e-5 0.0
0.00014960011710662036 -6.348396205409451e-5 0.0
0.0016288221815792196 -3.8098505234441e-6 0.0
0.0002943146804379594 -9.240787770392096e-5 0.0
0.0002684798489828529 -8.432723183404032e-5 0.0
0.0015464976258754788 7.60782204015591e-6 0.0
0.0015177886738177544 -9.2226605448118e-5 0.0
0.00150282288631881 -0.00012010309649234551 0.0
0.0008995873359653897 -7.605557878301775e-5 0.0
0.0010005034663713788 -0.00026016928190073256 0.0
0.000981007068398601 -0.00026768126601528356 0.0
0.000484884612432332 -0.00012043841164889007 0.0
0.000488436183677251 -0.0001169947174867704 0.0
0.0006552608175015514 -0.00021047793908683757 0.0
0.0013818297384049854 -0.00013018839260530224 0.0
0.0008008969011797834 -0.00010282560893343622 0.0
0.0007845356762619424 -0.00010237004223723282 0.0
5.109563390943835e-5 -1.9818929575339103e-5 0.0
0.0006166546070170781 0.0002558193175078973 0.0
0.0007391519191763231 -0.00010967165490271904 0.0
0.0005380114367234294 -8.716575343779288e-5 0.0
0.000539922468230192 -9.213865845613835e-5 0.0
0.00032779486057390853 -6.786104895314863e-5 0.0
0.0010050096688582115 -5.373775704982934e-5 0.0
0.0006923401436902883 -0.00010181897580842386 0.0
0.000697795386233667 -9.910681280289451e-5 0.0
0.0007169575452174387 -9.879436472895682e-5 0.0
0.0007219690864860346 -9.621864017102403e-5 0.0
0.000740432377507335 -9.535984451195842e-5 0.0
0.000745817135842051 -9.27520388695538e-5 0.0
0.0007270872865786041 -9.381785123901787e-5 0.0
0.0007513487693765881 -9.043678921094998e-5 0.0
0.0007326212758522601 -9.175740514435892e-5 0.0
0.0007574739755355721 -8.840559540044445e-5 0.0
0.0007626732134727849 -9.172351629718398e-5 0.0
6.383950919485022e-5 -1.0956814217204498e-5 0.0
0.0009671999098390518 -6.857747761034387e-5 0.0
0.0006788700355703886 -0.00011812212247883533 0.0
0.0007422154528676853 -1.5711288784295745e-7 0.0
0.000799559872252151 -2.8687563914384384e-5 0.0
0.0007952161811873124 -4.90303009909301e-5 0.0
0.0007913311854434922 5.564150325932168e-6 0.0
0.0007534326216719795 -5.012547038533181e-5 0.0
0.0007971029699487364 -6.110630462179976e-5 0.0
0.0008417323357124274 -6.111077507562318e-5 0.0
0.0008399550431357387 -1.669179580368196e-5 0.0
0.00012428398942049488 -3.726865852337659e-5 0.0
0.0001279475172916158 -3.9137947734825604e-5 0.0
0.0016295485039551 5.659926204291645e-6 0.0
0.0015654312779235713 9.719258854635224e-6 0.0
0.0015645207854373222 8.624963394683677e-6 0.0
0.0011747832894135116 -0.00025884933609717045 0.0
0.001152601510737534 -0.0002670125572366952 0.0
0.0004439019765308586 -0.00014820464458932382 0.0
0.0004586274974195509 -0.00014873011042968408 0.0
0.0004288283419674676 -0.00014735568238840774 0.0
0.0005063034031442603 -8.772275124210877e-5 0.0
0.0008388147123241976 -4.923084212548987e-5 0.0
0.0007767567976565368 -8.651083861788516e-5 0.0
0.0007817329888962336 -8.463370277630208e-5 0.0
0.0007635685660060003 -8.66526914360299e-5 0.0
0.0007871541998492317 -8.317393064436478e-5 0.0
0.0007706727118945314 -8.496653269645895e-5 0.0
0.0004545528163150198 -0.00017637866635834511 0.0
0.0016284203046290963 5.189284166458104e-6 0.0
0.0008034162404210858 3.592594422159286e-5 0.0
0.001036167606092884 -1.7722029450258615e-5 0.0
0.00103054107962697 -1.412781778748625e-5 0.0
0.0010117326614310777 -2.279038801022596e-5 0.0
0.0005356924683051077 5.564154604063576e-5 0.0
0.0007514110544693236 0.00011258832628089507 0.0
0.0006954446534105261 0.00012109521068291146 0.0
0.0006787463629134759 0.0001362920384670364 0.0
0.001188012244628977 -0.00011888517839203374 0.0
0.0013053031274398456 -0.0002109593197880325 0.0
0.0012956565013286735 -0.00023374997617381447 0.0
0.0004360813575679395 -0.00017921765338223115 0.0
0.0006706209561056751 -0.00021724670463965374 0.0
0.0006717310513842362 -0.0002247914293008548 0.0
0.0006860312651131514 -0.00022411633552550493 0.0
0.000689166799175324 -0.00023253001273531643 0.0
0.0011590831018407695 2.23854915320839e-6 0.0
0.0011309410168034596 4.530047231460237e-6 0.0
0.0011656037748666818 7.585406369832421e-6 0.0
0.0011971762191470886 6.5085702315485935e-6 0.0
0.0008676468687647508 -0.00010507778117259266 0.0
0.0008529028888655517 -0.00010364266550238769 0.0
0.0007019047770701839 -0.00023045281434153992 0.0
0.0005157830011039656 -0.0001031939459118052 0.0
3.5929479173581606e-5 -1.1272987633901167e-5 0.0
0.0007453329541705806 -7.379188322460466e-5 0.0
0.0007755952446342103 -7.76167415863742e-5 0.0
0.0007696884553179508 -8.085101328100821e-5 0.0
0.0008031218421172233 -7.799304055702652e-5 0.0
0.0007952219376937156 -7.98162467746137e-5 0.0
0.0008093903581982304 -7.558975199025481e-5 0.0
0.0007675636394686177 -8.270947979617063e-5 0.0
0.0007886395002004837 -8.12286259971755e-5 0.0
0.0008337930453294926 -7.444939032458067e-5 0.0
0.0011010979517870403 7.591303391460023e-7 0.0
0.000763371737849315 -8.44077036590451e-5 0.0
0.001652530387850817 2.2843367450542276e-6 0.0
0.0006415871971303214 -0.00010713164795425996 0.0
0.0007462292142383602 -0.00020182412654094585 0.0
0.0007649325500536315 -0.00019921635188880629 0.0
0.0007836518656484867 -7.331428013105522e-5 0.0
0.0008205838216694815 -7.201590450106231e-5 0.0
0.0009056975737289364 -0.00010769508092711765 0.0
0.0011428176789904203 -0.00022422816163402247 0.0
0.0011224772004832131 -0.00023476804114849065 0.0
0.0011205908775549635 -0.0002509178125978417 0.0
0.0011041979391080352 -0.00024468696189790056 0.0
0.0011035356229763707 -0.00025931881446931943 0.0
0.0010864566522605001 -0.00025384944841412815 0.0
0.0013395271052420252 5.925615604983398e-6 0.0
0.001309768555581643 5.344020492681882e-7 0.0
0.0013237279591339604 -3.938688943252833e-6 0.0
0.001280333394398036 -6.48220615599529e-6 0.0
0.0012923217653928935 -1.1540388612311426e-5 0.0
0.0012494697921161886 -1.507551474405637e-5 0.0
0.0012616185337781226 -2.041915426443782e-5 0.0
0.001237525695048789 -1.0001011351943092e-5 0.0
0.0012078827659461292 -1.9194212261381455e-5 0.0
0.0013029361874337137 -1.690649191342231e-5 0.0
0.0011962473917673164 -1.4394850436501675e-5 0.0
0.0012715032671879282 -2.617633908882853e-5 0.0
0.001232556920722611 -3.016750447547024e-5 0.0
0.0012402482641413707 -3.6391749849246116e-5 0.0
0.0012255665334127814 -5.746533511628566e-6 0.0
0.001294166076874986 4.56629831442196e-6 0.0
0.0013126919943915341 -2.29803466523435e-5 0.0
0.0013709735354513477 -3.0071256068084306e-6 0.0
0.0013412049824234702 -1.4344527651761987e-5 0.0
0.000957013559486052 -4.368862768921671e-5 0.0
0.0007126683314170656 0.00010560590872202196 0.0
0.00010723946270141429 -3.269575959402375e-5 0.0
9.823639022536538e-5 -3.883033185097825e-5 0.0
0.00011750176672235295 -4.924391164207864e-5 0.0
0.0007006441944556295 -0.00022291346842885027 0.0
0.0009264643965998478 -0.00011005266072419524 0.0
0.0009519422476500776 -4.567263571639666e-5 0.0
0.0009229106985976009 -5.393504072912354e-5 0.0
0.0009341409044932326 -5.044534734739776e-5 0.0
0.0009168026625547397 -5.641912907556282e-5 0.0
0.0009356631666555971 -5.293173198331667e-5 0.0
0.0009086306091127481 -5.976711284039238e-5 0.0
0.0009006711072914197 -6.330269939134835e-5 0.0
0.0008849210635095425 -6.554555998706262e-5 0.0
0.0001279282272667889 -4.81560606976177e-5 0.0
0.0010499051550919448 -1.37885775699264e-5 0.0
0.0012376176441986873 1.2364384528681094e-5 0.0
0.0011908140799935009 1.065782317564363e-5 0.0
7.19801166036861e-5 4.585636859574988e-6 0.0
0.00015662924752228515 1.7760956580267823e-5 0.0
0.00013723450505141683 1.4324751291368334e-5 0.0
0.0010521016532476638 -2.4205755545712223e-5 0.0
0.00016267476617977384 -5.9763795500165046e-5 0.0
0.00018631581557382334 -7.128176622123424e-5 0.0
0.0002007585717542293 -7.546714979000797e-5 0.0
0.0001988595050569337 -7.088200309142782e-5 0.0
0.0002137789859474499 -7.420473483553527e-5 0.0
0.0007222000171864923 -8.897856625640409e-5 0.0
7.574608836482226e-5 -4.328173525811972e-6 0.0
0.0003526359672410022 -9.1416303716521e-5 0.0
0.00029387960940779195 -8.147703721428088e-5 0.0
0.0008272494502450336 -6.73333281757711e-5 0.0
0.00029636767538232127 8.986167493066431e-5 0.0
0.0010963751536047484 -0.00022441572454380264 0.0
0.001015955464800488 -2.5384619736843434e-5 0.0
0.0015551780787177157 -8.90482043147953e-5 0.0
0.0012211870957906604 -2.432348891242346e-5 0.0
0.001180094780728417 -2.896773963154822e-5 0.0
0.001136777530686937 -0.00025891787491397493 0.0
0.001656839885230186 1.3749521381538868e-6 0.0
0.0016159632498713816 1.7352272209724813e-6 0.0
0.0016245240729118818 2.3741261696462237e-7 0.0
0.0016088518629919994 3.3124148786000536e-6 0.0
0.0015785005341030437 7.056340489433711e-7 0.0
0.0016036042825655435 4.750976455746051e-6 0.0
0.0015570772213768598 5.5113896199191375e-6 0.0
0.0015667099029132226 3.210499265637553e-6 0.0
2.470760941840531e-5 -6.82568581054147e-6 0.0
0.001672529346029568 -1.3839159682270844e-6 0.0
0.0016435786557045284 -3.347463478401337e-6 0.0
0.0016613853737002776 -1.1905091747832839e-6 0.0
0.0016456835485948117 -3.70235716185388e-6 0.0
0.0010293476988594893 -1.3337610099754841e-5 0.0
0.001193508833543681 -0.00024670495909814063 0.0
1.9826376923440172e-5 -5.613567193107216e-6 0.0
0.0016784661084129047 -1.908882837125504e-6 0.0
0.0005975654930581047 2.3803154030921673e-5 0.0
0.0013035659874679765 1.1866175324650922e-5 0.0
0.0004937617899692384 -5.529725477115146e-5 0.0
0.0005363074646184616 -5.464965141404636e-5 0.0
0.0005349236251780028 -3.8435994841541876e-5 0.0
0.0005357820159507564 -6.629541578446534e-5 0.0
0.0005723519654209366 -6.67631643467137e-5 0.0
0.0005832402571789261 -5.634584487705371e-5 0.0
0.0005800487459113438 -3.90632617340906e-5 0.0
0.0005360921054148024 -2.0369123921067568e-5 0.0
0.0004973418626168142 1.9681936278877167e-6 0.0
0.0004991478260381205 -6.925311238376527e-5 0.0
0.0013439760289051046 -0.00019983728691146292 0.0
0.001651789240898171 3.5362775372911672e-6 0.0
0.0006563823754831828 -0.00020299418164102133 0.0
0.0002496062502983853 -0.00011059020962382146 0.0
0.0007175941430084706 -0.00020292386747934368 0.0
0.0005707359740143205 -0.00020110924454394362 0.0
0.0005711563634510664 -0.00020825601952553026 0.0
0.0008062243104421423 -8.05533562732654e-5 0.0
0.0010431900921655784 -3.6192615585383864e-5 0.0
0.0014310519561073491 4.0954390226332165e-6 0.0
0.0014462509865063053 1.0388103436628274e-5 0.0
0.0013930828789995456 1.2191300066979387e-5 0.0
0.00012397415729615955 -3.663776833238346e-5 0.0
0.0002346373236866269 -0.00010661086026783799 0.0
0.0006993571405654645 0.00019459580488565342 0.0
0.0006296044431908567 0.00019162836655385926 0.0
0.0012951707506260659 -8.119088040375133e-5 0.0
0.0007084829832582074 7.74547695559245e-5 0.0
0.001473229100062286 -8.794902965834777e-5 0.0
0.0007126642403129804 -0.0001738518207194621 0.0
0.001245862115993724 -0.00011460730733309224 0.0
0.001262151056538851 -9.018277710770468e-5 0.0
0.0005482115261099327 1.1391220506625749e-5 0.0
0.0004244559774073563 -0.00017960295794759604 0.0
0.0014570003139844079 -0.00011465561211697575 0.0
0.00027271846015573754 -0.00011316522451508893 0.0
0.000287367263341719 -0.00012119884771280535 0.0
0.0002796660835389231 -0.00012224924356119107 0.0
0.0004156384108743862 -9.86043043081328e-5 0.0
0.0009164057392666013 -6.201740768409902e-5 0.0
0.0010229677425244086 -3.3415473658186564e-5 0.0
0.0006538404262541946 -9.870545917266796e-5 0.0
0.0006769204232635305 -9.913344109762432e-5 0.0
0.0016237156811540095 3.089694708458496e-6 0.0
0.0015459808621400906 -1.5752232714603184e-7 0.0
9.476693644145358e-5 7.581962038173298e-6 0.0
2.4764750645686982e-5 -6.888945090094633e-6 0.0
0.0007692014775806243 -8.902958871386683e-5 0.0
2.8688677028566368e-5 -7.778196352169779e-6 0.0
6.764232911260905e-5 -1.7968615415245936e-5 0.0
0.0007097350955347653 -0.00019563849329625154 0.0
0.0011598524575666415 -0.00011583681686530613 0.0
0.0007726156202802516 9.578693923213972e-5 0.0
0.0009694265970361637 -0.00010405714135611602 0.0
0.0007971106919675209 -8.106888514753756e-5 0.0
0.0012933524583323226 -8.052758193395187e-5 0.0
0.0015360873252602753 -6.742712386468926e-5 0.0
0.0004999913812650639 -0.00014928906239197192 0.0
0.0005012720503546981 -0.00015526835846406918 0.0
0.00048382756636793447 -0.00014825879244626295 0.0
0.0004656912035700628 -0.00014138569739436917 0.0
2.0222273627728464e-5 -5.8583383726369545e-6 0.0
3.668372202020425e-5 -1.1062706108329002e-5 0.0
4.1290544157299284e-5 -1.2137559356699736e-5 0.0
0.00044188598515444537 -0.00011756044898958861 0.0
0.00042021797788253717 -0.00011588507764841615 0.0
0.001674339139069673 -1.4808765712576449e-6 0.0
0.0008523760707355326 -0.0002545459462074572 0.0
0.0008370845003107836 -0.00024663241958404426 0.0
0.0008380133082944122 -0.00025758716547272 0.0
0.0008219278614261434 -0.0002492537602500388 0.0
0.0008065004297715867 -0.0002513273274223141 0.0
0.0008043340401912664 -0.000241717449739156 0.0
0.000836335448144857 -0.0002367191496773736 0.0
0.0012246600766052814 -9.77477627355826e-5 0.0
0.00020998271171036783 -4.816727485341294e-5 0.0
0.0002475525308094414 -6.238232916920962e-5 0.0
0.00021719986553436857 -5.7304164149887726e-5 0.0
0.000995418535387188 -9.73315320214005e-5 0.0
0.00046725515589483445 0.00013491439124604351 0.0
0.0008088313207746505 -0.0001137993706273453 0.0
3.155482261230022e-5 -8.74597561168644e-6 0.0
0.0005165969523822029 -0.0001969240330752976 0.0
0.0005018698354457726 -0.0001958634889402799 0.0
0.0005050574637323588 -0.0001898859801211893 0.0
0.0005696918123056292 -0.00019406720999421592 0.0
0.0005009928762282729 -0.00014303807371832627 0.0
0.00024376723927992314 -7.331481669686928e-5 0.0
0.00015039588923683114 -4.737395085385372e-5 0.0
0.001663435521924369 -3.542186035144896e-8 0.0
0.0016333242334100927 -8.729454574136061e-7 0.0
0.0003458292044095328 -0.0001444482534311035 0.0
0.0004061993527412109 -0.00016358147257368325 0.0
0.00039287474327529237 -0.00016306819923387375 0.0
0.00037615136558138366 -0.00015440210980316457 0.0
0.00037878846218210045 -0.00016172389150240544 0.0
0.0010990147977060713 -9.362611149908091e-5 0.0
0.0008209644304179336 6.125045826515301e-5 0.0
0.0010189940291856015 -0.0002539127471505786 0.0
0.0010353608505727816 -0.0002617642604006627 0.0
0.001053464948240563 -0.0002553026814358761 0.0
0.0010150030836659127 -0.00026953720953885304 0.0
0.000535275576658268 -0.0001509178259792691 0.0
0.0008908619677241691 -0.00019233775378449012 0.0
0.0007479458591094493 8.976176665995492e-5 0.0
0.0007336058556047902 -8.38351900891204e-5 0.0
0.0016795024259771587 -2.457514046658833e-6 0.0
0.0016597770348861353 -7.011889365157738e-6 0.0
0.0016517047236808949 -6.129541642948e-6 0.0
0.00036258627737217387 -0.00015321994272295022 0.0
0.00034952980025440355 -0.0001516898625921407 0.0
0.0005309984660379637 -7.97087597721086e-5 0.0
0.00044899946257531144 -0.00014098814431474902 0.0
0.0015348411244474767 -3.295425688298242e-5 0.0
0.0013358269705970784 -5.269347873751133e-5 0.0
0.0007556229003556814 -9.472123676849351e-5 0.0
0.0007775662947530788 -9.072798514692713e-5 0.0
0.0010672052689989413 -4.777272324360012e-5 0.0
0.0011693665044964715 -0.00019721234627429076 0.0
0.0006943052070183485 -0.0001762513552805611 0.0
0.0006944760761093461 -0.00018404663438877734 0.0
0.00018754949346729656 1.9990779486100337e-5 0.0
0.0004154949577424188 -0.0001385535796426543 0.0
0.00039848596547956296 -0.0001363051801547287 0.0
0.00037988915788091636 -0.00012857789336056204 0.0
0.0003819149578036808 -0.00013461495924709798 0.0
0.0003276023740138537 -6.0486990825697534e-5 0.0
0.00032710641944380317 -5.095541357996648e-5 0.0
0.0003690896859243313 -7.827675093634392e-5 0.0
0.0010325086821383008 -0.0002763035991968598 0.0
0.0009860830771091396 -0.0001981201816186411 0.0
0.0009649015285786551 -0.00020501614447472784 0.0
0.0009852003684553273 -0.00021334950348777523 0.0
0.0009643156282372045 -0.00022010983090333454 0.0
0.0009785475230217784 -0.00022641858274112796 0.0
0.0010053310306609143 -0.00020400946178974328 0.0
0.001024168868455715 -0.0002090786645788581 0.0
1.678264822896006e-5 -5.140129825480051e-6 0.0
0.0016828871103955955 -3.894636141456518e-6 0.0
0.0013165244840449063 -0.0001889536267184226 0.0
0.000928370035712249 -0.00025800324793260595 0.0
0.0015531301794118148 2.722084463558346e-6 0.0
0.000898471009953698 -0.0002433044376813384 0.0
0.0008971501659028016 -0.000254858468908244 0.0
0.0011941672301961556 -0.00010783004235952775 0.0
0.0010674201911896307 -7.568791687998987e-5 0.0
0.0010466317312445611 -7.508192835517395e-5 0.0
0.000524811154210424 -0.00018190912352633508 0.0
0.00032898711302887726 -0.0001162261896875039 0.0
0.0011999426332566171 -4.160176853595395e-5 0.0
0.0012623832416059325 -0.00019491214960930774 0.0
0.0005783674472013052 -0.00013249670731658013 0.0
0.0005974793525198919 -0.00013147454377060712 0.0
0.0005949076294206228 -0.0001363441680520356 0.0
0.0006007419604435341 -0.00012699580216224323 0.0
0.0005761250773802 -0.0001373724395750077 0.0
0.0006158654547460395 -0.00013070505397557775 0.0
0.0006203059448359699 -0.00012641902097706328 0.0
0.0006278087071646959 -0.00012181055171528026 0.0
0.001245995231710752 -3.4703035786180744e-5 0.0
0.00017099443591460104 2.0297744113887114e-5 0.0
0.0011675154719868047 -2.4160808931272057e-5 0.0
0.001263687561379324 -8.241483886656363e-5 0.0
0.00035223860166518333 9.149043945579553e-5 0.0
0.0002465137232665315 -3.634198766604595e-5 0.0
0.0003679236771990489 -6.313833220186369e-5 0.0
0.000292787069420728 -0.00010488396877882336 0.0
0.000582132432194807 -0.0001237820119470237 0.0
0.000467094315872012 -0.00011226337680822947 0.0
0.0004966095900806879 -0.00011402406366263204 0.0
0.0005130948766211664 -0.00011851616007744337 0.0
0.0007703652605474241 -0.00023684358919438437 0.0
0.0007884851907964593 -0.00024354577576577436 0.0
0.00078974036291685 -0.00025406991986635203 0.0
0.000803621090905809 -0.00023275693912072672 0.0
0.0012389786424166851 -0.00020605912317639167 0.0
0.0006186361238633734 -0.00010625233036028853 0.0
0.00115774605565468 -8.818382924792259e-5 0.0
0.0005685612596427609 -0.00018710064358358323 0.0
0.0008359359729738008 -0.0002264600141159095 0.0
0.0005975486097896224 -0.00021370465175203385 0.0
0.0015196221950804579 8.024934316580776e-6 0.0
0.0007883694614946453 -0.00011802625561357456 0.0
0.00021870821116241952 -6.520856224335265e-5 0.0
0.0006082924222005978 -0.0001640722489528613 0.0
0.0006246661615771491 -0.00016947728092614854 0.0
0.0005745561262643506 -0.00015359142407640075 0.0
0.0006117858859693973 -0.00019878701025294616 0.0
0.0009239724610520402 -0.00014535569789306472 0.0
0.0009023063913210075 -0.00015124605951256025 0.0
0.0009203356770606855 -0.00015523083441965668 0.0
0.001156569968871142 -1.9678663558463666e-5 0.0
0.0007132530535309714 -0.00016634046237366126 0.0
0.0005389977227089636 -0.00014335174333550836 0.0
0.0009261693994872481 -6.960769328622934e-5 0.0
0.0009176261355804281 -7.55955664771591e-5 0.0
0.00023584952398036712 -8.32765625045553e-5 0.0
0.0004524626745736092 -0.00016916484172192127 0.0
0.0010564831729144573 -0.00023972584331111504 0.0
0.0009596700827943005 -4.254739106042484e-5 0.0
0.0008221742709869806 -0.00018016261642015793 0.0
0.0008032160776557814 -0.00018386193203636593 0.0
0.0008024791113204638 -0.00019341858932692054 0.0
0.0007841548365087667 -0.00018719928074187493 0.0
0.000783924306904545 -0.00019668590036183857 0.0
0.0008202202347471876 -0.0001995245530906679 0.0
0.0010272966473167566 -1.8433685176232664e-5 0.0
0.0006618247765285321 -0.00014751954280802675 0.0
0.0006439744903319301 -0.00014950607541683203 0.0
0.0008876247649670872 -0.00013866100707526604 0.0
0.0005565501115829602 -0.0001538041654991182 0.0
0.0008822051271972944 -0.0002588569187656508 0.0
0.0006763890132593372 -0.0001710735522561071 0.0
0.0007851762489837715 -0.00017827474627949168 0.0
0.0011185428439830995 -0.0002668470507274221 0.0
0.0007285079811191705 -0.00012329188023676549 0.0
0.001569917335352516 -1.0917186623242226e-5 0.0
0.0007897243560351997 -0.00015394243089517489 0.0
0.00039352333640929946 -0.00011601043160526223 0.0
0.0008598441232503039 2.4160172450950823e-5 0.0
0.0011034811924163065 -0.00020876983765255122 0.0
0.001499553489570274 8.678888167134528e-6 0.0
0.0002510531936482149 -1.2185340144795501e-5 0.0
0.00025964928703948217 6.672716458332215e-7 0.0
0.00029330184706627275 -2.3484136479939404e-5 0.0
0.0003088745501501345 -9.02764598237687e-6 0.0
0.00034215979419011615 -2.365053970432064e-5 0.0
0.001140395318199497 -3.430088991867533e-5 0.0
0.0006576022375794356 -0.00022637168446816724 0.0
0.0007493821879587282 -0.00012006761095664212 0.0
5.7089312214210724e-5 -1.5774192083876428e-5 0.0
0.0007167745031148679 0.0001473271582886317 0.0
0.0006555801402232087 0.0001510762438346693 0.0
0.0011090060367330375 4.567173658297204e-6 0.0
0.0006408560406199183 -0.00019671681243658374 0.0
0.0007235925622802394 -0.00022677375970525632 0.0
0.0006648262096452856 -0.00010761375957900732 0.0
0.0008695870130071647 -0.00013559678622412084 0.0
0.0008499799599590879 -0.00013231382798441598 0.0
0.0008552411346582405 -0.0001243664806838484 0.0
0.0010082958039493155 -2.3455365677303798e-5 0.0
0.0006095716077941027 -0.0001708891657860732 0.0
0.0004445271683596713 -0.00010735670668377983 0.0
0.0006273686489477872 -0.0001395915249137055 0.0
0.00010354203153367828 -3.225828536369803e-5 0.0
0.0008635985089562992 -7.778210806906945e-5 0.0
0.00037267752095394244 -0.00014685548036734596 0.0
0.0008326909136471897 -0.00013839995655876852 0.0
0.0005275963770773393 -0.00018929712573504518 0.0
0.0011147113373357724 -7.510717144025657e-5 0.0
0.0007578302404894383 -0.00013984808831764614 0.0
0.0007653581591675473 -0.00019021723027522682 0.0
0.0014331313134956169 -6.824617105808516e-5 0.0
0.00033418991505431973 -0.00014309261455740173 0.0
0.0015713639223051755 -8.898142397557156e-5 0.0
0.0006515499818265267 -0.00012266927468522465 0.0
0.0007530058162753819 -0.00015339275989480628 0.0
0.00016574071237337307 -4.861711564675456e-5 0.0
0.0014402003856582213 -3.364769378602803e-5 0.0
0.000870502198563823 -0.00020752768062090886 0.0
5.868081985421613e-5 -1.6466901965011084e-5 0.0
0.0008233441835878956 -9.818603476593045e-5 0.0
0.0008195391049414979 -0.00010264137959067933 0.0
0.0015583371700334432 -1.8777253646268822e-6 0.0
0.0008686645343081276 -0.00026312963091861154 0.0
0.00031306052558694407 -0.00011378105373383455 0.0
0.0016175344275407512 -1.5158874941401791e-5 0.0
0.0008364429136380773 -0.0001224601923610688 0.0
0.0007779526008084383 -0.00013650285799660084 0.0
0.0009498711289188117 -0.00018722198234813199 0.0
0.0009311383350824619 -0.00018170114412235689 0.0
0.0008751377243986468 -0.00018657004819547858 0.0
0.0007459867866067677 -0.0001254166909242749 0.0
0.0009029849780958541 -0.00027497832311142476 0.0
0.0009689419806140078 -0.0002804147150521105 0.0
0.0007002066704471607 -0.00024248710835404923 0.0
0.000750498559353129 -0.00025124994531962867 0.0
0.0010775147470374908 -0.00028112750466662673 0.0
0.0010694131723192005 -0.0002650458667835844 0.0
0.000572471287909929 -0.00021547594657022595 0.0
0.00046715296001531115 -0.00019307316250192588 0.0
0.0009353845008778083 -0.00027816930509445473 0.0
0.0006043097599236512 -0.0002228839831651213 0.0
0.0006912615654026653 -0.00011394854653236021 0.0
0.0014048405452844327 -1.1762014255632753e-5 0.0
0.0011094863069122916 -0.00014325054532036762 0.0
0.0011012093554164009 -0.00015810440811393154 0.0
0.0005931230896021075 -0.00014182263667644548 0.0
0.0009553652133097692 -0.00012024874782397984 0.0
0.0007676449236116938 -0.00020833793176801803 0.0
0.00043048001418249075 -0.00015742393927890358 0.0
0.0003346324638308526 -0.00010344682103884988 0.0
0.0006825377066840968 -0.00013945832198014 0.0
0.001438456343637181 1.2570344048333244e-5 0.0
0.000623975335978912 -5.4196662288746225e-5 0.0
0.000770613401014905 -0.00011651619873541771 0.0
0.0008846249247983521 -0.00014794410168062055 0.0
0.00013188120185343537 -5.385036596895517e-5 0.0
0.00013616612039458767 -6.028926631081696e-5 0.0
0.0006749049760077421 -0.00018600723961362142 0.0
0.0005809138976579536 -0.00017311205471512786 0.0
0.0008079652387236387 -0.00015799554688219485 0.0
0.0015551240406370722 6.658306654757146e-6 0.0
0.0008517317095171805 -0.00023321365735091236 0.0
0.0016530446704737726 -1.7383528153224676e-5 0.0
0.001631902288829954 -3.74693080440593e-5 0.0
0.00048597690804809044 -9.908817701453414e-5 0.0
0.0006986999181924028 -0.00014866366327331276 0.0
0.0007309017715138142 -0.00017112412305280564 0.0
0.0015961140439214863 6.947630057978807e-6 0.0
0.0008823790402244259 -5.8057558564173176e-5 0.0
0.0010452781483480673 -0.0002027501331049112 0.0
0.0010768538445651604 -0.00016690308846636272 0.0
0.00045989454474695303 -0.00018469417471984266 0.0
0.0009844352375646525 -0.00014588916984203005 0.0
0.0007023021247595137 -0.00013685701162886188 0.0
0.001034180264797027 -0.00012988971419510491 0.0
0.0010278569438626557 -0.00014183650201214697 0.0
0.0010604718992132645 -0.00012103992189262358 0.0
0.00039385006237667897 -0.0001702767148339414 0.0
0.0012742181767604924 8.295604208523154e-6 0.0
0.000911673039435338 -0.0002638955634508457 0.0
0.0013134280603623696 -0.00021991916633209632 0.0
0.0011842383212292034 -8.948502922772437e-5 0.0
0.0007907223347892803 -9.803490327904143e-5 0.0
0.0009651914339786058 -0.0002351948981290545 0.0
0.0006253187872638767 -0.00017640661852050087 0.0
0.0006650198593378694 -0.0001262939115118445 0.0
0.0015354369435560812 1.5899043578565208e-6 0.0
0.0003800588590526084 -9.79892984330305e-5 0.0
0.0011488963638815353 -3.953005360099182e-5 0.0
0.0008032362406823227 -8.347555666369315e-5 0.0
0.0009746270281665204 -0.00012211473100623324 0.0
0.0014617809366950397 -1.3010759470899482e-5 0.0
0.00014925867866981957 -4.484933566197593e-5 0.0
0.0011376592711545587 -0.00016827635169685423 0.0
0.0009461670066433756 -4.7008697854390636e-5 0.0
0.0009319300673850165 -5.1325708172105e-5 0.0
0.0009325534771774382 -0.00022126547022764312 0.0
0.0008625145539440959 -0.000162306212634634 0.0
0.0008856438873589272 -0.00021374588367011063 0.0
0.0011652936799320139 -0.0002145277859401718 0.0
0.001190493555449586 -2.2316642069215e-6 0.0
0.0008812687580142135 -6.229422446089786e-5 0.0
0.0011276677464576975 -4.0903802068544344e-5 0.0
0.0013945867915235504 -0.00010676401180839469 0.0
0.0014052059321343156 -8.765689680316027e-5 0.0
0.0008279659288139115 -7.567395764892069e-5 0.0
0.0005357398652697557 -0.0001677832522526734 0.0
0.0011565372576795186 -9.359030270971098e-5 0.0
0.0008668911876966826 -6.82068151305156e-5 0.0
0.0009791436341451383 -0.00015708729099308811 0.0
0.0016185550820321762 -2.3965921486462644e-5 0.0
0.00029883300894156594 -0.00011753008550503547 0.0
0.0009711445763140276 -7.34816457059549e-5 0.0
0.0008485776510795346 -7.249473284208003e-5 0.0
0.0008331529756518802 -7.471916762844221e-5 0.0
0.00029460587868227644 -3.839262173974829e-5 0.0
0.0014721499676555946 -6.304266001647645e-6 0.0
0.0008530213827100174 -7.593073963866257e-5 0.0
0.0014532494565289867 -6.732162794693688e-5 0.0
0.0005188657992672331 -0.0001614763740324868 0.0
0.0012181689566272637 -0.00026178143201641314 0.0
0.0012505192454331116 -0.0002578387647661143 0.0
0.00047622651795965916 -0.00016158488378574393 0.0
0.001015586560039213 -0.00016577979677664636 0.0
0.0006839725076301885 -0.00023923416284698146 0.0
0.0010127878768302764 -4.4613181590902486e-5 0.0
0.0003221344898333357 -0.0001453444226550355 0.0
0.0008965380206743404 -6.09914317515135e-5 0.0
0.0008761458591733211 -8.199978653853616e-5 0.0
0.0008985189861373265 -6.0393554353569616e-5 0.0
0.0008996922507606723 -0.00016120576473047302 0.0
0.0010954029551888855 -0.00017251175678859745 0.0
4.7594594770984124e-5 -2.1158391749542687e-5 0.0
8.221789679980178e-5 -3.818565762382071e-5 0.0
9.840332165805757e-5 -4.6161770418090435e-5 0.0
0.0015042830095905791 -0.00014163986450448706 0.0
0.00013148259102138202 -6.260094939500543e-5 0.0
0.00048688733718481477 -0.000154735331073652 0.0
0.00021783315430638883 7.149508706818757e-6 0.0
0.0013287092729787865 -0.00023312828777930503 0.0
0.0002779825191134429 -0.00012753826716099624 0.0
0.0003079911717919321 -0.00013984265483100365 0.0
0.0014849149345267207 -0.00015387797711558966 0.0
0.001447317881511893 -0.00017970196123874186 0.0
0.0008589391836596521 -9.796514742831462e-5 0.0
0.0006258165807159231 -0.00020513877131648865 0.0
0.0011828503820588098 -9.700673913607568e-6 0.0
0.0013628023001107162 -0.0002205331212474699 0.0
0.0013790485926039075 -0.0002147633474583681 0.0
0.00024858371962673014 -0.00011596890134976865 0.0
0.00017785551347550908 -8.393941856789925e-5 0.0
0.0014136803738709755 -0.0001980444220917469 0.0
0.0014293488215641375 -0.00016571732950184956 0.0
0.0009431491219963224 -0.0002666948201885548 0.0
0.00020844933449269538 -9.822153082501237e-5 0.0
0.001164208125336232 -0.0002766709332936541 0.0
0.0003344556139694279 -0.00012310938374235665 0.0
0.0013249433157644195 -0.00014010926117670702 0.0
0.0004845428376033881 -0.000190774122851917 0.0
0.001226139509775966 -0.0001989631614764924 0.0
0.0012670353199494924 -1.9930737382562485e-6 0.0
0.00048192002556013956 -0.00012788488211228403 0.0
0.00033854615507588964 -0.0001081429482712859 0.0
0.0005960336114019442 -0.00017898544304197967 0.0
0.0007704701226722483 -0.0001574698217160003 0.0
0.0013430824020440751 -4.3545811807249235e-5 0.0
0.0008203523250449112 -0.00023948253456415228 0.0
0.0008697888101787323 -7.410203309235789e-5 0.0
0.0009141280781849412 -5.6644093871527036e-5 0.0
0.0010473441933484774 -0.00010695295839957803 0.0
0.0012269137558120538 -0.0001553949379915403 0.0
0.000489216347420587 -2.160372511769882e-5 0.0
0.0010710694075928722 -6.850799298882921e-6 0.0
0.0005201684140735825 -0.00012904511379263435 0.0
0.0013499390514303236 -0.00010029404734513577 0.0
0.0003434860385136671 2.8769195422251557e-5 0.0
0.00028708645303718257 1.4825862774455667e-5 0.0
0.0007439758744422482 -8.820304914779183e-5 0.0
0.0014236531854004367 -1.951466637739767e-5 0.0
0.0008908680151085653 -3.9999141702569005e-5 0.0
0.0008379390714129992 -8.556567321466141e-5 0.0
0.001519125090455411 -2.1854422699495582e-5 0.0
0.00044577511555530104 -0.0001256409509142944 0.0
0.0005477513571160633 -0.00011067059129452883 0.0
0.0011316355661638133 -0.00010165532099609001 0.0
0.0012693672416368396 -0.00014655705465574083 0.0
0.0003927572247652057 -0.00012031355581545189 0.0
0.0002438767226529343 -9.001865771012255e-5 0.0
0.0012087386940584032 -0.0001501252236534901 0.0
0.0005698854967470041 -9.954754609852298e-5 0.0
0.0012074388900860105 -5.343024855585509e-5 0.0
0.0016609193279770113 -9.098144464418533e-6 0.0
0.0013336031101267292 -8.957222887362029e-6 0.0
0.0009564331989246901 -4.5556136435820096e-5 0.0
0.0009714810006085022 -3.865384042415767e-5 0.0
0.0009807696223719017 -8.828476698362232e-5 0.0
0.0014811203698224067 5.61858589605011e-6 0.0
0.0014511345862355065 1.0553432721260818e-5 0.0
8.331784842664898e-5 -2.6584831493400437e-5 0.0
6.365838205627405e-5 -1.945515446070309e-5 0.0
0.0006405369811740473 -0.00020410487691931308 0.0
0.0010027803174941004 -0.00014967544941248815 0.0
0.0006134547337762479 -0.00011207046352204617 0.0
0.0006162711076684689 -0.00010913135137850517 0.0
0.0006339716427606444 -9.137196573245919e-5 0.0
0.0008025428260815129 -0.00020326181864549784 0.0
0.0009459142677791534 -8.125159995297556e-5 0.0
0.0002860882495489731 -6.816985232261418e-5 0.0
0.0011128430806418839 -4.4922634102096434e-5 0.0
0.0009828670802643062 -3.6678446314001656e-5 0.0
0.0006808137142007984 -0.0001451745304120883 0.0
2.923860180910432e-5 -6.696302980232746e-6 0.0
0.0007724255299987058 -0.00015010636223882282 0.0
0.0015075643096923487 -2.8593245115734258e-5 0.0
0.0012579546547899672 -5.386083905673737e-5 0.0
0.0011934988767679099 -3.433724867914369e-5 0.0
0.0014343642285907013 -4.248675870799506e-5 0.0
0.0010261903062873288 -5.730173488410402e-5 0.0
0.000636019827279753 -7.642244255705312e-5 0.0
0.00021562950529533414 -6.274558500088131e-5 0.0
0.0007261039762443881 -0.00010108729213522426 0.0
0.0008751743172324695 -9.885201720177352e-5 0.0
0.0002646371314760403 -8.614151917317418e-5 0.0
0.0007341228627273171 -0.00024842373947362947 0.0
0.000995490793800064 -6.071393837885575e-5 0.0
0.0005041197703506351 -0.00016145984691980238 0.0
0.001191101273923 -9.839002481244536e-5 0.0
0.0013675103916957721 -4.380725412140919e-5 0.0
0.0005700450146243774 -9.602341065951357e-5 0.0
0.0012170358721958073 -2.4126836959724182e-5 0.0
0.0009100278033382157 -8.160548512037569e-5 0.0
0.0007747312956676111 -0.00014310193695340248 0.0
0.0003205492509757476 -7.685357697749855e-5 0.0
0.000567432922147913 -0.00011403203610724408 0.0
0.0008338941564518915 1.1128917047924663e-5 0.0
0.00022879547695784172 1.8702874549787703e-5 0.0
0.0011753196121695292 -0.00010485453685568402 0.0
0.00035006871428351947 -9.911658161308673e-5 0.0
0.0007948933745650376 -0.00013965466133784887 0.0
0.0013486519190493808 1.447085414437876e-5 0.0
0.0011102327122822688 -0.00010005311443526153 0.0
0.0006099815689789784 2.6562745496212895e-7 0.0
0.00011456790959562041 -3.1816056190230076e-5 0.0
0.00044532855171153555 -0.00010419907187486481 0.0
3.543771357000064e-5 -1.799343548947517e-6 0.0
7.6742079234252e-5 -9.0212477800372e-6 0.0
0.0011067023425483074 -8.856722163770746e-5 0.0
0.0009853932992827208 -3.411196730518495e-5 0.0
0.0005415828534824557 -0.00021111034974861565 0.0
0.0003984488010008485 -0.00014269383577276507 0.0
0.001331386915113531 -2.61064403029217e-5 0.0
0.00021464760242847965 -9.603864578045102e-5 0.0
0.0010661400560730563 -0.00010953278398245356 0.0
0.0008874725731836138 -0.0002029786973914667 0.0
0.0013288934989513534 7.268522027220474e-6 0.0
0.000494350339689281 -0.00018224619327617895 0.0
0.0014292660872903778 -0.00013268119226548492 0.0
0.00084254537026253 -8.219867883569836e-5 0.0
0.00029735922741515666 -0.00012997753196349304 0.0
0.001089631081655831 -0.0002688571457483244 0.0
0.0003008710846961604 -9.751166155545711e-5 0.0
0.0015514145119682919 -3.140733706236708e-5 0.0
0.0002230925571058048 -7.03395987484894e-5 0.0
0.001138034177659281 1.8048025960443517e-6 0.0
0.0010319987010347798 -5.044601811644392e-5 0.0
0.0009303707474184702 -5.311918449476748e-5 0.0
3.773120826814714e-5 -1.462044867352958e-7 0.0
0.0007721521592660469 7.247953761104892e-5 0.0
0.0004816284954926086 -9.468777912607542e-5 0.0
0.0012635153191357564 -0.00023813269155342618 0.0
0.0012812542425679253 -0.0002513765420280404 0.0
0.00012921293141000947 -2.1795527876663334e-5 0.0
0.0009350574134603912 -7.5194307450534e-5 0.0
0.0004135545512113053 -0.0001442395649064851 0.0
0.0006616471656097638 -0.00015342557109022063 0.0
5.326892357148108e-5 -1.6883234788007135e-5 0.0
0.00010189837349167837 -2.557988814052592e-5 0.0
0.0008870025008407164 -0.00010615130631495819 0.0
0.0008151703540064122 -0.00013566142199497396 0.0
6.51612657769396e-5 -1.5812702845645755e-5 0.0
0.0001860309290737759 -5.380089142603361e-5 0.0
0.00014711595335764992 -6.986993821220162e-5 0.0
0.0013370360046854087 -0.00011963066535466403 0.0
0.001021059370461471 -0.0001536968663868271 0.0
0.00022310444872303042 -8.090630642659857e-5 0.0
0.0012498019761689463 1.2414438846717154e-6 0.0
0.0011518544218661689 -9.657006379559417e-6 0.0
0.0001057041876114908 -4.5989932406399766e-5 0.0
0.0007121779516336831 -9.431396324026055e-5 0.0
1.4011343902456451e-5 -4.774021270038945e-6 0.0
0.0016822640660059543 -8.969136464907613e-6 0.0
0.0016184829979548868 -6.3099558001527e-6 0.0
0.0004981625855313025 -0.00020164105487899744 0.0
0.0012538703204457984 1.16255238833007e-5 0.0
0.0010255410998671391 -0.0001960974050077851 0.0
0.0002444058449227038 -7.571654464628e-5 0.0
0.0009856526031475927 -0.0002808603051082609 0.0
0.00025930255822287243 -6.765656636593427e-5 0.0
0.0014172106445179238 -2.6535873977017577e-5 0.0
0.0006430518047713942 -0.00015520147143553942 0.0
7.88818625750372e-5 -2.4224503918063382e-5 0.0
0.0008216793337595904 -7.65652596727579e-5 0.0
0.000814191751351437 -7.778682924419953e-5 0.0
0.0015065335025538416 1.1305200757417195e-5 0.0
0.0008822103671827045 -0.00015706898718059035 0.0
0.00011847358840390572 -8.85714437840491e-6 0.0
0.0014084631428392842 -0.00018194284506558076 0.0
0.0015182559099212636 -1.2544588976421942e-5 0.0
0.0011504038682813255 8.45787904989897e-6 0.0
0.001175565602651175 8.366433926664848e-6 0.0
0.0006868520875367542 -0.00021623666054830954 0.0
0.00162142078477507 -5.830664457676463e-5 0.0
0.0007379682145612057 -9.002109945860881e-5 0.0
0.00021722157515559234 3.04631916861745e-5 0.0
0.00021880006203974268 -8.520064315736163e-5 0.0
0.0005424962664783975 3.5263471216989546e-5 0.0
0.0014172450670286143 -0.00012856851683693668 0.0
8.444285135845269e-5 3.2479641200405017e-6 0.0
0.0008737859072780504 -7.12042614290098e-5 0.0
0.0012661804891283665 -4.2852051806001894e-5 0.0
0.0009999260976518536 -8.96889922030284e-5 0.0
0.0016479139707273826 -4.158451019067721e-6 0.0
4.8815792327044e-5 -1.3769809778681833e-5 0.0
0.0015249297454562269 4.6556507448394e-6 0.0
0.0016548005072470596 -4.5726022330807926e-6 0.0
0.0007719777331949201 -0.00024478148564125124 0.0
0.0009116813549727904 -0.00010061730668496326 0.0
0.0006560606300359815 0.00010853340175969218 0.0
0.00041177828370356386 -0.00012228362193726327 0.0
0.0005431073920805407 -0.00010654081471357923 0.0
0.0007038457343104594 -9.683111495013643e-5 0.0
0.0003467192817929469 1.3938531403839035e-5 0.0
0.0005948492425231921 -0.0001719158652872786 0.0
0.00032454504530381233 -7.266408655563045e-5 0.0
0.00022358069879316596 3.361317407039667e-5 0.0
0.0007623879680034119 -0.00010636327371647678 0.0
0.0011192006476118035 -0.00016319149132106676 0.0
0.0013639665927068906 -0.0001042875961842268 0.0
0.0006043407884676604 -7.62250687155139e-5 0.0
0.00041945908349465765 7.58849592231656e-5 0.0
0.000998434925449212 -2.978224516561786e-5 0.0
0.0005126293654490888 -9.574074775828722e-5 0.0
0.0012864112550004358 -9.5941243039119e-5 0.0
0.0005510174765182832 0.00011594900756346928 0.0
0.0005010532578286042 0.00011120259897945005 0.0
0.0008673582453202072 -0.0001443994985919388 0.0
0.001037033837495578 -6.077196348102827e-5 0.0
0.0006331171222385111 -0.00022901462872819953 0.0
0.0011990914960782987 -0.0002693680823626461 0.0
0.0004628016703391216 -0.00012287221761062762 0.0
0.0011128737324114703 -0.0002819999127278653 0.0
0.00038617115342631526 -8.533864889996835e-5 0.0
0.0013126357213432633 -9.589064200474749e-5 0.0
0.0006256880717771704 -0.00015096323532226897 0.0
0.0014114785528576133 -4.4050818954450465e-5 0.0
0.0004135375004879961 -0.00011858899616659443 0.0
0.0007992474466049913 5.547291844762411e-5 0.0
0.0006363551156680995 -8.738267542888619e-5 0.0
0.0007132423526258597 -0.0001888778646883027 0.0
0.0007884626952967161 -9.102898137154721e-5 0.0
0.0008073724219186633 -7.895592409286166e-5 0.0
0.0004689686755832838 -0.000147675749657101 0.0
0.00047342176540721603 -0.00015476887909664818 0.0
0.00032391968555560587 -9.186623644318832e-5 0.0
0.0005661441400431107 0.00019304020888080413 0.0
0.000737725791954612 -0.0002163263440772943 0.0
0.001432157934595913 1.4045817234281327e-5 0.0
0.001252727954082503 -0.0001417589513236115 0.0
0.0009829052377025404 -3.504150301889558e-5 0.0
0.00044451133926402147 -0.00012162190494134366 0.0
0.001090255890389726 -7.488434400183316e-5 0.0
0.0009057592426139042 -0.0001980622166478899 0.0
0.0006262223010529575 -0.00014504795578279415 0.0
0.0015379641594368081 -2.0241398037585017e-5 0.0
0.0016320654327987296 -1.380226502425312e-5 0.0
0.000591950243392787 -0.00011049322153891398 0.0
0.0010497638232986918 -0.0002698196025841038 0.0
0.001447613951996446 -0.00016021983234886135 0.0
8.560127290176107e-5 -2.3465409013124574e-5 0.0
0.00042057651032752864 -0.00010230511437026989 0.0
0.0004825861234534316 -0.00012403247450797113 0.0
0.0014805003347994864 -0.00013932644308669507 0.0
0.0005932615711889913 -0.0001647854292788589 0.0
0.0011337526241081116 -9.47685721232173e-5 0.0
0.0001845337655559354 -8.254119128375103e-5 0.0
0.0009138562453588513 -0.00011785594577175323 0.0
0.001362630326909233 -8.27207714521126e-5 0.0
0.0010449474579700257 -0.00014546986890488637 0.0
0.0015675182508485294 -2.0565975682610253e-5 0.0
0.0010707468219322582 -0.00024825392268690066 0.0
2.8523628034661827e-5 -5.4074174603074165e-6 0.0
0.0007314674942814691 -0.00010735430324155046 0.0
3.840289883102153e-5 -1.0961175040166857e-5 0.0
0.0005730088475669918 -7.239521101407596e-6 0.0
0.0003728022861945311 -5.53865955049455e-5 0.0
3.094965761113085e-5 -1.0862517071106605e-5 0.0
0.0004386556337752851 -0.0001857978879104071 0.0
0.00041014156708446645 -0.00017068577327938433 0.0
0.0007509875241452632 -8.66073433906134e-5 0.0
0.0007932748333127797 -6.84212714819942e-5 0.0
0.0003123009164882281 -0.00013623114816480093 0.0
0.0005410714257090508 -9.618016928108748e-5 0.0
0.0009492688444603649 -7.599785491624195e-5 0.0
0.00031674686564972277 -0.00010030516247230461 0.0
0.0011450168719116937 -6.901733378158552e-5 0.0
0.0009258664261985501 -0.00019264850858866472 0.0
0.0002369174564817239 -6.390802539695164e-5 0.0
0.0001458859809983188 -5.7600156718218254e-5 0.0
0.0008624953651327419 -7.084743513161602e-5 0.0
6.927090474468438e-5 -2.8902654343934128e-5 0.0
0.0015964421674643104 -1.2616729821683543e-6 0.0
0.000621570164190686 -3.909809494319366e-5 0.0
0.0007703900190379972 -0.00010155458277611695 0.0
0.0013939229036449463 -0.00014647463158169307 0.0
0.001543482305313863 -0.00011404272859750774 0.0
0.0012742362669155153 -3.290767493324296e-5 0.0
0.0007352137933014227 -0.00020720394913627127 0.0
0.0009486025410364077 -0.00010957470022563723 0.0
0.0013549393934462754 -0.00020625358924294263 0.0
0.0008062656554230211 -0.00026047403205148106 0.0
0.0013426953805501644 -8.125173945599639e-5 0.0
0.0010513004126529962 -0.00013328678288023512 0.0
0.0005765808073709923 -0.00015928903422111518 0.0
0.0010799964374825115 -7.158009197421901e-5 0.0
0.0006081599117955138 -0.00014037996825627287 0.0
0.0005174399403967009 -0.00019075602141437845 0.0
0.0007687909873219507 -9.440096251194748e-5 0.0
0.0012368209711964458 -0.0002454653594450971 0.0
0.0003212357365223081 -8.881695664196889e-5 0.0
0.0002667655661380521 -0.00011855514673465778 0.0
0.0011750006030982261 9.823496058799026e-6 0.0
0.00039778031241581514 -0.00010303812715790607 0.0
0.001040370067585425 -3.0837567452119096e-5 0.0
0.0006952487268209389 0.0002813899217934848 0.0
0.001326282395800797 -2.1049317499302726e-5 0.0
0.0014090325421281505 -3.5187372905037504e-5 0.0
0.0008594258861355997 -7.031972538065391e-5 0.0
0.00123952693693776 -4.360144885944159e-5 0.0
0.000948914983221293 -0.0002144173047224929 0.0
0.001018507152187524 -0.0002829859273472549 0.0
0.0005028901150110861 -0.00012463055964786573 0.0
0.0006147531569730696 0.00013199998022079434 0.0
0.00034961970912896444 -9.353798870655746e-5 0.0
0.0003808664778014591 -0.00016755284844402466 0.0
0.0007154699006775078 -0.00011356353266994324 0.0
4.8719412512879174e-5 -1.3712079614691669e-5 0.0
0.0003024359669739242 -0.00012597746774656104 0.0
0.0008208028311901811 -7.756972597464261e-5 0.0
0.0001166530903914378 -3.76077555236377e-5 0.0
9.702436716483628e-5 -1.5019525966652034e-5 0.0
0.0008311001637780456 -0.00013231504520449716 0.0
0.0008786756929208429 -6.841938844937566e-5 0.0
0.0015199785647540846 -0.00011394811323751632 0.0
0.0007132306941346179 -9.292581851977558e-5 0.0
0.0011273653784979044 -0.00014813017293165744 0.0
0.0009109629888218531 -5.7017973890219154e-5 0.0
0.00023876826430389812 2.7527324148531827e-5 0.0
0.00030951452490762544 4.504785708469559e-6 0.0
0.0015999405512061727 -1.1814050809928067e-5 0.0
0.0011076290561003233 -8.563421727974011e-5 0.0
0.00026648879487441466 -8.08224212045332e-5 0.0
0.0009868126023991003 -5.0471350074004024e-5 0.0
0.0008359353955017753 -7.271772552363003e-5 0.0
0.0008553239166304529 -8.151097314836495e-5 0.0
0.0003739561748405139 8.963408784698806e-5 0.0
0.0008392877316943242 -0.0002677479085319332 0.0
0.0015039624269760252 -3.5446841802015383e-7 0.0
0.0008246260139119502 -0.00011520903616365925 0.0
0.0008778039118399277 -6.532114007225911e-5 0.0
0.0010352663464573114 -7.19295182649702e-5 0.0
0.0007796368710744476 -8.312939289263657e-5 0.0
0.0008309904042507624 -0.00010868100707666854 0.0
0.00043088871294285394 -0.0001526295469051332 0.0
0.0010770540282482412 -0.00012403471010765716 0.0
0.0006864711137795646 -0.00010642066452572396 0.0
0.0008661815258970629 -6.898579738203418e-5 0.0
0.0012945566369031495 -0.00024829341269970955 0.0
0.0007339332578538362 -9.79328451190249e-5 0.0
0.0010032814957830738 -3.999004812270741e-5 0.0
0.0009203632070458552 -5.458114039128468e-5 0.0
0.00015229198987746744 -6.848613828336858e-5 0.0
0.0012610965753801012 -0.00012675649480660956 0.0
0.0008944233490107996 -6.210129043841028e-5 0.0
0.0004932570242749061 -0.00018886211675028274 0.0
0.0010525685135166097 -5.478764351782625e-5 0.0
0.0011486650917908957 -0.0002812423705179282 0.0
0.0016392222734495842 6.675391842781061e-6 0.0
0.0001202268881109589 3.768561563437024e-5 0.0
0.0006984360820430792 -0.000116519746575883 0.0
0.0008952988195950274 -0.00026494635526571036 0.0
0.0005829155745811925 -0.00021241064400268935 0.0
0.0006532671310134051 -0.0002332813663152465 0.0
0.00014760257694698594 -4.364428038190846e-5 0.0
0.0011513131657068464 -0.00014003417861740682 0.0
0.0005066818236943568 -0.00012102871397642325 0.0
0.0007102980759046409 -0.0001013062279011302 0.0
0.0006037829698666173 -8.221968512971082e-5 0.0
0.0006739545303737882 -0.00023143794383023903 0.0
0.001208735945266069 -4.082783429562693e-5 0.0
0.0015416961729803813 3.3638747921649793e-6 0.0
0.0009480707101004035 -0.0002043632462462164 0.0
0.0008195163098167525 -0.00012222085695883384 0.0
0.0005474281425745146 -0.00015661119383830047 0.0
0.0008712411999563666 -0.0002737732558659637 0.0
0.0012111104896245588 -0.0001119150570807173 0.0
0.0001327047785290533 -4.154883323611313e-5 0.0
0.001478556735559169 -1.5059622649876965e-5 0.0
0.0007078903940365864 -0.0002376353635649154 0.0
0.0007228077266953787 -0.0002192448203148453 0.0
0.0010897013475488447 -0.000239467607858512 0.0
0.001662230453302613 -1.7451825774114604e-5 0.0
0.0006119691356432874 -0.0002185722883957422 0.0
0.0005705609142411282 -7.50831782991794e-5 0.0
0.000572115883623131 -0.00011145888696559159 0.0
0.0010244165457134087 -8.233845506926105e-5 0.0
0.001608158332894066 -2.686934883121075e-6 0.0
0.00015800882425606125 -6.118479479035952e-5 0.0
0.0008364456856528019 -0.00010307769608419807 0.0
0.0014370861289197884 -0.00014070249497711857 0.0
0.0016004374492882738 5.787716461879846e-6 0.0
0.0004942531363374109 -0.00010347111142875115 0.0
0.0007239026807529278 -0.00024088811406043056 0.0
0.0015460389823440683 -1.5928307687390835e-5 0.0
0.00031156553971675526 -0.0001212908496804272 0.0
0.001638312955776248 -1.5613963693287482e-6 0.0
0.0005284549789251565 -0.0002097791410301119 0.0
0.001084545144770812 -0.00011147422214954328 0.0
0.00033210384702456473 -3.534825334471632e-5 0.0
0.001023855706480795 -3.719448034161942e-5 0.0
0.0016004788913309557 -5.841668308007698e-5 0.0
0.0012391969246385703 -0.00010020737745464322 0.0
0.0004727061860124705 -0.00018977516446198973 0.0
0.0003521108974701013 -0.00015765976500830967 0.0
0.0004309731676869622 -0.00014312667170976283 0.0
0.0013264494611923883 -0.0002187221107117801 0.0
0.0012143695658183523 -4.5172899685807456e-5 0.0
0.0002869695914324572 -8.564704666398e-5 0.0
0.0006670594030914387 -0.00011615864181389409 0.0
0.0010184827346619019 -9.275530477449202e-5 0.0
0.0006408954737904999 -0.00012608247445798136 0.0
0.0015654636128730765 9.872936498410844e-6 0.0
0.0011099125145679826 -3.9103199912211915e-5 0.0
0.0006868020239855357 -0.00010429858037672427 0.0
0.00029384023672804647 -8.375440495345869e-5 0.0
0.0011662724809100512 -0.00011739138168324405 0.0
0.0009706754677396549 -0.0002584107186752767 0.0
0.0013918841982475715 -0.000194000477674269 0.0
0.00056022061219112 -0.00020845200279255425 0.0
0.001080878673378311 -2.5321607506600693e-6 0.0
0.000611284929574567 -0.0001350953669968355 0.0
0.0009269001151798119 -0.000268560359030158 0.0
0.0013815350744886936 -0.00014414411497460714 0.0
0.0012162053878798601 -2.1207820698807797e-6 0.0
0.0015632509449632727 6.5916860360767095e-6 0.0
0.0004372743966469956 8.959701912033314e-5 0.0
0.0015102059820883106 6.56108723272251e-6 0.0
0.0005420012899313701 -0.00014800157290517077 0.0
0.0013816941181029492 1.3886997568089681e-5 0.0
0.0010053265287420187 -2.6819439370583927e-5 0.0
0.0011247211004689903 -2.474655773260935e-5 0.0
0.0005222580237061741 -0.0001168363220953277 0.0
0.0011304147048134211 -4.7371393336643696e-5 0.0
0.0007573222451925265 -0.00024525474639022847 0.0
0.00044635021805273877 -0.00017834377866112117 0.0
0.0008929870396917405 -6.6585661017608e-5 0.0
0.001213531498668798 1.0695377730460509e-5 0.0
0.0007114010602148641 -0.0002278405881407368 0.0
3.6241543067365993e-5 -1.0185034591300034e-5 0.0
0.001618215786420468 -5.656659106889653e-6 0.0
0.0013729231595759179 -1.2226303377356625e-5 0.0
0.0007627985999213936 -6.12398225242155e-5 0.0
0.0016435421335590577 -1.3030699174487123e-5 0.0
0.0004944450122188522 4.3123005611891994e-5 0.0
0.0008460669553819217 -6.935745503189405e-5 0.0
0.0016798839911854363 -1.4497456584622909e-5 0.0
1.3888998517405693e-5 -5.4155642650127815e-6 0.0
5.239036674950798e-5 -1.5961652488378542e-5 0.0
0.0005125249877828048 -9.216995558732749e-5 0.0
0.0009613963528801435 -0.00011211891803453167 0.0
0.001140793930796999 7.384022468110645e-6 0.0
0.0012388923437412801 -0.0002314118502539154 0.0
0.001623618499518708 -7.708194130850999e-6 0.0
0.0001461114003753448 -4.6733870756136264e-5 0.0
0.0003694216269249093 -3.503616441929302e-5 0.0
0.0009749295747878896 -0.0002461666569852784 0.0
0.001427577884227861 -1.4199935114221141e-5 0.0
0.00044312476090404456 -0.00014396098640271065 0.0
9.792465855521701e-5 6.215905954282726e-6 0.0
0.00100527148636259 -4.9653019571659106e-5 0.0
0.0005411318180980391 -7.481093401799475e-5 0.0
0.0012532002665233508 -5.615248422769189e-5 0.0
0.0008060692179643736 -8.00062862350424e-5 0.0
0.0006342165651925786 -0.00013007370294086494 0.0
0.001457695575352934 1.2895810829966172e-5 0.0
0.0014621036408553527 -0.00015587584737130765 0.0
0.001192492613768379 -0.0002596523537305122 0.0
0.0004012589962288362 -0.00010094932438156096 0.0
0.0015277281675075772 -1.4210698610049438e-5 0.0
0.00028179510213890307 -9.065462183806562e-5 0.0
0.0015447488530152156 -3.940262213544457e-7 0.0
0.001339870508222567 -0.0002165368479602739 0.0
0.0010416484622201305 -9.847700569847853e-6 0.0
0.0011047331901343667 -0.00027199909550466416 0.0
0.0012637607071218364 -7.254016441986384e-5 0.0
0.00077778994489899 -8.872902553535418e-5 0.0
0.0004426572689774704 -0.00017067253311750681 0.0
0.0007066239226066375 9.09724641425604e-5 0.0
3.747578445287055e-5 -5.736402606459003e-6 0.0
0.0015993423605632727 -7.283274091668114e-6 0.0
0.00019779304967592882 -8.98193757250356e-5 0.0
0.0011991349333693026 9.816271132350335e-6 0.0
0.00032461420052405486 -0.00014190509912562527 0.0
0.0010885336385625403 -0.00010147363133762759 0.0
0.0003595940382177401 -1.3788973266273637e-5 0.0
0.0001690765127394788 -5.359846086006851e-5 0.0
0.00023704356195976628 -0.00011219000033644612 0.0
0.00021512372530036673 -8.036494541494227e-5 0.0
0.0006602610456188151 0.00017552487350302838 0.0
0.0012689926125036095 1.0159826815097274e-5 0.0
2.7280457140576715e-5 -8.757932923162888e-6 0.0
0.001361283696127362 -8.627152354453493e-6 0.0
0.0013432457046385483 -3.5239067600435604e-5 0.0
0.000985729037559312 -0.0001049051749244743 0.0
0.0007974157832543431 -8.262564745126449e-5 0.0
0.0004726526626040665 -8.318013540065189e-5 0.0
0.0007973521523669278 -8.765015772249152e-5 0.0
0.0009938120837163576 -0.00022600271955156134 0.0
0.0005245142653694318 -0.00012184330147674092 0.0
0.00040057664441536025 -0.00016949426908329686 0.0
0.0013875170971184882 -9.077858557605702e-5 0.0
0.0011299449518058194 -5.7652819468101e-5 0.0
0.00018715183523895242 2.3489701216618494e-5 0.0
0.0005361942469278622 -4.112190356665947e-6 0.0
0.0010688857658000706 -6.96575624990352e-5 0.0
0.0009970525825429158 -0.0002717921048353727 0.0
0.0006627289782036666 -0.00011981476362311192 0.0
0.001277732787594421 -0.0002403600750962934 0.0
0.00012126835541062326 -5.4428407903639584e-5 0.0
0.0011072459839097935 -0.00023196839769105314 0.0
0.0006055415967409266 -6.912917572483931e-5 0.0
0.0015354533609094312 -0.00010584280929613958 0.0
0.0005849697552552208 -2.5498861845130478e-5 0.0
0.001017541258718537 -3.227395488443033e-5 0.0
0.0008381387454802743 -0.00012748435212271594 0.0
0.0008563273124332291 -6.56349177751086e-5 0.0
0.000941982367153781 -4.815608145020932e-5 0.0
0.0009611817488319849 -0.00026931507916612516 0.0
0.001249495189583202 -0.00024461906495102054 0.0
0.0004308505410955943 -0.00012112587706701257 0.0
0.0010194896032416348 -2.2885377404921705e-5 0.0
0.0009913112525809533 -3.233431287326595e-5 0.0
0.0012458364593673184 -0.00021409470644908916 0.0
0.0007851941853676359 -8.623625235331171e-5 0.0
0.000852860091242053 -4.053379025780514e-5 0.0
0.00044031653878563156 -0.00016365273264224426 0.0
0.0015251044100034654 -9.752635173265553e-5 0.0
0.001045123782179685 -0.0002833151782361483 0.0
0.0007125995880758413 -0.00022251531538870415 0.0
0.0016191232491478743 6.164542141186777e-6 0.0
0.000702488499750543 -0.00019980598042005097 0.0
0.0013169613955232719 -6.243392941056426e-5 0.0
0.00046863869321222136 -9.949654105270727e-5 0.0
0.0010906957093336455 2.9808631138830747e-6 0.0
0.0003407051432925317 -4.598983652520982e-5 0.0
0.0007488313532089615 -8.48895524184464e-5 0.0
0.0006449539608607105 0.00023726861457291275 0.0
0.001654318265345902 -4.262218249143359e-6 0.0
0.0009536446192324166 -0.00019667361342123838 0.0
SCALARS damage float 1
LOOKUP_TABLE damage
0.7270841632166598
0.7645075508763578
0.9393706953301726
0.4340538953102501
0.995014809347799
0.9983830452085165
0.4170645703373637
0.8973527741868417
0.8947614114794666
0.9044278154387955
0.9162524410735812
0.9235213882556765
0.9320077313987294
0.9400964000671197
0.9422200065802673
0.9403569720577022
0.9361881427736062
0.9319608428561887
0.9269762735458765
0.9213854021727931
0.916242889568176
0.9138460342078947
0.9089199856539524
0.9044863251909823
0.9013090086372638
0.8976687668487094
0.8922301444420923
0.8872288141790134
0.8805542853161834
0.8738870094901197
0.8632859141329368
0.8491604917616832
0.7472267796917089
0.8205590346438967
0.8283821015563895
0.8388515655890832
0.8472423978282739
0.8527355396565288
0.8575754885363489
0.8604152152114211
0.8640467753587002
0.8682966857591116
0.8708892237197287
0.872403708491625
0.8779767579093075
0.8795415824329015
0.8685630470196928
0.873545602216085
0.8774290746848242
0.8829535537584541
0.8852988898700178
0.889789373180573
0.8918559615360555
0.8997743611309215
0.8981239549934834
0.9043249401383632
0.9050981447619822
0.9097216244731183
0.9133068391445143
0.9194672397856798
0.9193280818945612
0.925745378378486
0.9291398168878797
0.9347901400438084
0.9385162989963689
0.9384517088145201
0.9301618163250994
0.9211840276035853
0.919381260607854
0.9015027077534389
0.9159602600314988
0.9167250910626351
0.9104936303005969
0.9308421752609686
0.9368092480001384
0.944017729612132
0.9521103675515478
0.9522983828632958
0.9623299277287088
0.9614893569686739
0.9637943642158388
0.9658760134079598
0.9664770854009727
0.9621638481083745
0.9696484293946698
0.972667975037834
0.9843333580158036
0.9861321035650067
0.9913153229464161
0.9917114667355952
0.992012074618062
0.992796973800489
0.9929705599692772
0.9932720765436905
0.992513235353796
0.9938373813176699
0.9927388436876927
0.993879324746369
0.9954913615413331
0.9961641859813506
0.9960723291136354
0.9955386356071089
0.9948949087572092
0.9930775246066341
0.9924209532963526
0.9919989930511492
0.9922083801658176
0.9931375748157103
0.992268473052236
0.9912429321939139
0.988758651128869
0.983552298387986
0.9879656039359466
0.983463118665838
0.9747332314186391
0.956200608307244
0.942671223733917
0.9321313910106894
0.918605342592031
0.9099401988857712
0.9037592473292148
0.8905159390871518
0.8693620489654821
0.8403637265586613
0.823726364162922
0.8043635562976603
0.7821907581976532
0.733182089748262
0.6887217428137745
0.6797617656739714
0.5114539983113817
0.6616822569527391
0.7425073001829836
0.8087521676403959
0.8325833657342411
0.8467788316819437
0.8547993629673971
0.8611452878329543
0.8660137884976394
0.8701311416761932
0.8748034522335775
0.878003780637696
0.8794287910719453
0.8800764383434564
0.8798564653507989
0.8787154108077478
0.8771844838993754
0.8750378535884027
0.8744438522708308
0.8780655249138817
0.8815524473510515
0.890841408532396
0.9011366158255265
0.9144846808319187
0.933586719291713
0.9542186077066788
0.9606783821851769
0.9950524338902916
0.9961257979697974
0.9980918466029368
0.9965019928320618
0.9993960062884291
0.9905738898620978
0.9764171432807784
0.9524158587814657
0.9157183245291676
0.8691228922285863
0.8235887575272757
0.7713675435214492
0.7047594156000307
0.6292545422957656
0.5719431287567318
0.3114705771713011
0.49535876898735853
0.6115615145312251
0.6945931963034903
0.7629837539753103
0.8316025551165854
0.8774550203123197
0.9217726591524656
0.9610119992218288
0.9784015136740849
0.9944750161540435
0.9946084337798643
0.9978893625755404
0.991188150224604
0.9395020371286282
0.7898298442343626
0.9205481709314377
0.9940344931655224
0.9290585437658367
0.9911134196007112
0.9407275547690466
0.9871517774311925
0.9658969370031552
0.993813612563559
0.8986030244085308
0.9812361199553877
0.8786454166190516
0.9158690097817509
0.8766920827102005
0.7829737492051925
0.8119075896740766
0.43657812610162944
0.7550861432659393
0.9335412513897313
0.8746809587723822
0.9019883914835362
0.8771790864559172
0.8743586772044553
0.9333109141654666
0.8924839453906912
0.8612709600731148
0.930044386557997
0.8895660070323617
0.8922803629470838
0.8629034657906974
0.9083338356141152
0.9616363266657887
0.9908706647313272
0.9659621962847086
0.9931380055076715
0.9923516364434938
0.9364787109031675
0.9092553749758837
0.8263224841471329
0.8487553033360001
0.891321309341628
0.9360439773684159
0.8350599874701328
0.8742290855201454
0.9822516215867044
0.9661108484289616
0.9198550338081618
0.8996369889781578
0.9093708047693245
0.8790915596278467
0.7305921751773169
0.6490463944704586
0.8256415592160757
0.7329352971120371
0.9952184081797416
0.9782566793445623
0.9073969659781936
0.9286091934072507
0.9891830027018192
0.9911127130068554
0.891059525412699
0.9697930579947657
0.8725831869653649
0.8669277906514037
0.9140577860530238
0.9559621644014942
0.9896343030854824
0.7960484699693782
0.8555181566929488
0.994223016664069
0.9973892059801699
0.8626074511009254
0.9526327342672755
0.8000641620666715
0.6787275266412865
0.998080508766335
0.9897613510406766
0.9758066246869643
0.9785472515102661
0.9807009080917508
0.9751980293714421
0.9617592592102939
0.9552023684314831
0.9418970508648492
0.9338818210003363
0.9469899027629496
0.9242886798812057
0.9354163981080658
0.9142724509690646
0.9249261744922549
0.9050020873870664
0.9274459204340109
0.7334510916349499
0.8803521567362923
0.7675215463203876
0.8945279859200218
0.8185969218215946
0.9015766474387991
0.8524916526493235
0.9091950560338913
0.8701948234824755
0.9130497156604331
0.8852661539357525
0.9165843523583783
0.8916622033043871
0.9173435486442234
0.8996134773935257
0.9194421703583974
0.900430582818643
0.9164539617701724
0.9020240041996875
0.9156706836492381
0.9054355063290996
0.917401891662615
0.9092183697127604
0.9197233252783944
0.9120450198179652
0.9207923490511054
0.9139205511016831
0.9225788732647079
0.9136078424202358
0.9210143609922641
0.9164849086809247
0.9218468011729427
0.920020398129214
0.9237083761959723
0.9205992555713841
0.9245425368729691
0.9228785920525336
0.8086168343853326
0.9265193593925394
0.8838915492680217
0.9101781516864146
0.9246815278137335
0.9281175259508914
0.9261449909269365
0.9226547273323918
0.9243016093321487
0.9293738631521864
0.9304297215006289
0.9234839362380236
0.9316722361851586
0.9319666569809552
0.9330529811974668
0.9202679852650663
0.922106335109989
0.9329961005572964
0.9175132137110286
0.9195577184740416
0.9346424543549937
0.9345806237423249
0.9146234919707653
0.917751429757458
0.9363115728685781
0.936013218262921
0.9113013985305747
0.9140895949899838
0.9379070853465007
0.9376640643767145
0.9078061243229326
0.9101948161661548
0.9397446925305265
0.9392046359433484
0.903241493796336
0.9076633859496964
0.899627030182574
0.8944140691584548
0.9399179863731563
0.941455670949145
0.9404510682051057
0.9377148819879019
0.9227443595345968
0.9392203458606798
0.9353453981504644
0.9365340313123591
0.9048209016645654
0.8978403058573171
0.9105412801271755
0.9427695577311199
0.9014743109629475
0.8939548462654998
0.9268353122156645
0.8980556169159025
0.8909758254395185
0.8958935007002136
0.8880470267094964
0.8829558883157808
0.8795536201858662
0.8747959565802718
0.8934734423633112
0.874046924984003
0.868188261403957
0.9005347499503914
0.8985377382813916
0.8672736159255265
0.8613130665665097
0.9329543940122142
0.9333515897950363
0.9040396775139394
0.9011876617333109
0.9300911636957548
0.9303545146388185
0.934798485996478
0.929940202062043
0.9363334964584796
0.9304245982858909
0.9372371744422093
0.9306915346674506
0.9386179395478641
0.9238321904926228
0.9297974386244937
0.9396976611628775
0.9069421315069534
0.8609210520302505
0.8548892344191142
0.9460882431111595
0.9485363167462616
0.9416389532240699
0.954554454245362
0.9044493080869094
0.9515466438715693
0.9443251560141738
0.9100098786960817
0.9078009631031383
0.9025800362049661
0.9548116615863285
0.9478057172971097
0.9134466771928451
0.9159980199322498
0.9053453240867996
0.8996112404238624
0.9578639490431933
0.9515804098573604
0.9349660239025694
0.9624185631384181
0.9387052623363694
0.92301773871182
0.8553798842234012
0.8508650224762295
0.8490967381350546
0.8468805039443179
0.8411697780083901
0.8410108867953594
0.8350032848837591
0.9190149406115597
0.921301198577488
0.9024597135754991
0.8968388707252094
0.9552128506238979
0.837470814234409
0.8296572379701352
0.9236811655704452
0.9261285523031344
0.920365736157119
0.9410114619703899
0.9119576811109197
0.9357511849370116
0.9013857889352348
0.9265196697598568
0.8360368526315768
0.8284748817551195
0.8999802870896492
0.8949111593124898
0.9282045249966757
0.9302454228210224
0.9574717142354663
0.8534426688017662
0.8581498571680604
0.844306604128802
0.9424987761792012
0.839570990745194
0.8289911850106055
0.9256751246152687
0.8973182301773797
0.8923834703702848
0.9271763116327837
0.9253835892007741
0.926055860353137
0.9242953246783111
0.9320426882932651
0.9337651595512185
0.9073377239935754
0.842900580458366
0.8377438846185115
0.9592792166000556
0.9677027600225105
0.8602227078354144
0.8534993901992601
0.9470614607087056
0.928238076060128
0.8782298120969579
0.9024625920622368
0.9355437644490471
0.9368915303129377
0.9351323921186827
0.9380121403291597
0.9363766067712971
0.9390720584536681
0.9375775763567314
0.9400072497684773
0.9386224282934734
0.940803572901733
0.9420442399574043
0.9429661138700006
0.9441897401069163
0.9454082543679886
0.9467410022479156
0.9480565243916748
0.9395747108742645
0.9465796870080954
0.9492899706784059
0.9509587277015762
0.9520558866819037
0.855532787560406
0.8599472292356678
0.8951511917711603
0.8909433055881674
0.9503900779048664
0.9527839094039775
0.9545726861412654
0.9550991655142274
0.8580486593314396
0.8617725115428408
0.9260342924770468
0.9250687032025231
0.9275094572852364
0.9617620719551472
0.9500385609559255
0.9385137861996827
0.8225213368766858
0.934648922599915
0.9569858600550369
0.9572777268577055
0.9556845743363652
0.957940617448881
0.9326418033430433
0.9272514222442201
0.9239098426822198
0.8746928481820484
0.8936278423272251
0.8893385677101139
0.9310849080695897
0.9594619132853088
0.9602559370312471
0.9586096652369681
0.961256125392603
0.9591638042571354
0.9616108584551083
0.9636576383766376
0.9638611962857762
0.8966825241120734
0.8610417181165814
0.8629898395344879
0.9372817492519566
0.963522091415902
0.9540308331103177
0.9653843213791597
0.9662382068757152
0.8940627544651325
0.8925630018336844
0.8880129365419528
0.8275962741855816
0.8981257679279412
0.9398057563590028
0.9120377263344429
0.8514150367271982
0.9649147282163444
0.9562661975139825
0.9359280217786226
0.8948744472765874
0.9674954161623885
0.8594483097961683
0.8950263664250195
0.930630674812625
0.9351960770873451
0.9595457703014107
0.8907767090906449
0.8862943423068206
0.8636737927683725
0.8652163773758904
0.8917868950061528
0.9675950196645284
0.9680986510851134
0.8835112792772267
0.8821843111216818
0.967399497218498
0.9382449293817477
0.8842523627360729
0.8806363635930863
0.9347000403706336
0.9392247225327834
0.9172154588816834
0.9567257615891278
0.9694558562587565
0.9702826100469879
0.9571385921581185
0.9575211321827484
0.940524634107068
0.968880380904147
0.9713592654914552
0.8662807652224462
0.8675227834217427
0.9738460473384135
0.9746765136639968
0.8825714202864444
0.8789704540543599
0.9336030719650267
0.9401252059983578
0.8774504594782289
0.8760087443723347
0.8773283752777841
0.8747619457333332
0.9410213541191433
0.9551701954436772
0.9127407172035749
0.9243520575263179
0.9299275898026134
0.9379394048150174
0.9776057808777109
0.9780806328148761
0.9156233042885987
0.9697742339473449
0.9454317220642992
0.873713440324872
0.8723874859669425
0.8738084106940041
0.8706666325044374
0.8693172620939545
0.868181213159974
0.8680171541305632
0.8670511409653564
0.8678267707541448
0.8666972840231908
0.8683099556952254
0.8653202866611736
0.8661570120387068
0.8683482898195709
0.8678630388780184
0.8621292514143634
0.8636448392467932
0.8964544971014708
0.8690673188053125
0.9551867003060783
0.9556782354536314
0.8645697447541869
0.9389502379818226
0.9411270414431717
0.9578141748972404
0.9559390734811927
0.9424245685696956
0.9503393700877314
0.9513418240620493
0.9409874803132406
0.9481393593225623
0.9354098834638699
0.933459198971115
0.9322553224110575
0.8712577214641034
0.9417520084089941
0.9513188509113775
0.8728966301543538
0.9808209420883621
0.9811802441870945
0.9784833060570914
0.9814464346334945
0.9220191290374194
0.9306713911090077
0.9236388969333221
0.9799455040281356
0.9158734396006787
0.9839759718295875
0.9844891736193445
0.9815697512892757
0.985098008256276
0.9823946303789948
0.9854659535724548
0.9884069773628752
0.9882376453957448
0.8605910760944585
0.8610460028929906
0.8656239068621971
0.9378199676035245
0.9421362828853991
0.9296622724603838
0.9278140432876647
0.9426335017196682
0.9428524227759891
0.939496384282235
0.9266832607797015
0.9311225541710287
0.9353059483141449
0.859799680157216
0.9067460139846115
0.9269374865662245
0.9431547992626181
0.8375879760611297
0.94483717061111
0.9910604558553764
0.9893328653586079
0.8947484781985424
0.8896508286318984
0.9293866600167814
0.8672995491958743
0.8710141589587792
0.8721851225938705
0.8747685174091063
0.9870024444583498
0.9438933033469499
0.9566926910436704
0.9160067957877728
0.8576292748603936
0.8591247401264732
0.8867343720821522
0.9580545265289759
0.9559941769282122
0.9298499258552125
0.889502573787307
0.8852716639204091
0.8874259430225082
0.8832320371214494
0.8836005785898686
0.8792040708928562
0.8817160217444374
0.8770614141203343
0.8818553940511613
0.8768780491691449
0.8822223530646957
0.877366371869752
0.8832732122596261
0.8782629352312884
0.8888951964464219
0.8834028281114056
0.8795548944552594
0.8798000116654031
0.8795501812489168
0.8851162720504248
0.8892319123615385
0.8849687665063939
0.8808872630514526
0.8886769410857422
0.9591965366871006
0.9592081225783609
0.9617277181948922
0.9621592680157849
0.9644676182198164
0.9651694377348343
0.962600236311126
0.9652416284081546
0.9619702934150678
0.6037430360691208
0.9675959837508435
0.9667545827637778
0.9239389569778844
0.937238432728733
0.9383872443500111
0.9358480622456987
0.9370561569769433
0.9342859025426876
0.9355336879802296
0.9381306433101059
0.9367675918588223
0.9394204992694289
0.9378430221170196
0.9402017093535713
0.9354997265611839
0.9324818684146011
0.9308965786944436
0.941648951096379
0.9425271517537339
0.887662008138075
0.9158454653704214
0.8508208907510352
0.9512042205711968
0.9192701292247387
0.9181509440777892
0.9257172243929597
0.9241105312311229
0.9785668926720584
0.9408214809872281
0.9342553873816193
0.9350020361696557
0.9260920937168071
0.9260985898286981
0.9231925858135024
0.9277991545036937
0.9636830807220451
0.9602517352748193
0.9247304503095105
0.9218350012426448
0.9225161091972045
0.9203650603753148
0.9208098228660637
0.9186493868374408
0.9211760712166883
0.9183540876757845
0.8735332847756323
0.9004456630306578
0.9397967241755039
0.949045876215125
0.8962020331097176
0.8885601514780656
0.8749457279040096
0.8736215545408798
0.9398241752723204
0.9434186257426775
0.9828940553545069
0.8687922081744717
0.9353975656972034
0.957081464321633
0.9569687212764132
0.9793062089420583
0.9323418617779992
0.9860660460662285
0.9854892636765265
0.9887117156005358
0.9841994792589738
0.9152037207160015
0.8769304478490845
0.9386293011623439
0.888667813292899
0.9425380897776652
0.891973376013648
0.8935408972850218
0.981987930482728
0.9199677087949086
0.953115243652633
0.9527576938081961
0.9233217777770579
0.9237485162363293
0.9310998496417515
0.9196197355256723
0.8538893091659575
0.8559936046757372
0.8626493871395606
0.9458150599505016
0.9571919655735855
0.93177414651057
0.925644750717084
0.8860617163564356
0.8828657899140699
0.9235971147122587
0.9219397379726505
0.9303153922378447
0.9306150462437949
0.9322737057761572
0.9205059604145334
0.9344181784129065
0.9578802956457302
0.915913481414733
0.9144491051886077
0.9177441252374353
0.9135785553231591
0.9814794679901103
0.9792126772796491
0.9820223395023563
0.9758010520813759
0.9536597411296256
0.9530403270606806
0.9696390764863101
0.9691691018469628
0.9285788532289886
0.9273188904294728
0.9348960668390657
0.9163872455843247
0.9125049664241548
0.9512865854449994
0.948673463988695
0.9559545852796816
0.9537560344430841
0.9453779559706864
0.8532626878355926
0.8686652807470172
0.8696914386820563
0.876290993122885
0.8785519648618191
0.8728425893037077
0.8811214697730113
0.8748202134957402
0.8841286186454484
0.8783233278728328
0.9421093126822395
0.9103757748698226
0.975186541011711
0.9786095994115903
0.9812806541484828
0.9780362317712857
0.961357197565249
0.9293318150529416
0.9796036680476021
0.9227111893110417
0.9081043299685642
0.9173065534985022
0.9285985075982921
0.948924024375298
0.9495745791037347
0.9666611997489778
0.9580210325198911
0.8628105526861225
0.8778883182840708
0.8804472162493284
0.88458310813838
0.8819366493994258
0.9665506835176464
0.9618941956548691
0.950788306836098
0.940437645966141
0.9323204235097532
0.9580679772037206
0.9674711019957554
0.96813018706417
0.9453934096296511
0.9522144512013626
0.8968098845641954
0.8984491773702675
0.888926252637195
0.884162749291939
0.8726958674902864
0.8792058187145186
0.891957477991766
0.8879776235731136
0.9012516908036234
0.8986412923144365
0.910653645798719
0.8513336262520254
0.95083601685585
0.854062027978244
0.8905653188877686
0.8965063989565212
0.9405713372075756
0.9611431951949438
0.9637190924450362
0.9092231372087866
0.8751983595753118
0.8717447990109167
0.9213700259367599
0.9848211989027462
0.9266974063450842
0.9727007625786165
0.9094676789513796
0.9291131459213211
0.9253784219094081
0.9270464988774233
0.8955834841647111
0.9231444818469187
0.8745175753668339
0.9719507707077706
0.9716535000805819
0.9693774759594512
0.9716936502574955
0.9703964401928759
0.9683732283676465
0.8878862102021152
0.8923700950026112
0.9472639861438121
0.9537188553808195
0.8863148796431578
0.9161537254068034
0.911813879255063
0.9307751289683357
0.9848260175197673
0.9184712524171896
0.908554704272191
0.9747550350551839
0.9743244585762277
0.9494398825860303
0.9489470874095961
0.9473082951243625
0.9307982830528864
0.8699630407976652
0.8479515519792966
0.9691899617758226
0.9450329591979995
0.9584368294612159
0.8515213785326474
0.8901577380519602
0.8771834704286177
0.9699031505350626
0.8811568130621295
0.8775835479605351
0.8791383706458668
0.8753987169049586
0.876199972080419
0.8743404507526851
0.9809653654163495
0.9783640224873644
0.9258104936752325
0.9617332878588765
0.9482689373177349
0.9467535253239925
0.9009932911918422
0.8808848961658515
0.8779300499811152
0.91498446104253
0.9040288072295122
0.8675036686461751
0.9028677882415879
0.8999810378442784
0.9059016823258446
0.8998808431649712
0.9217558923882841
0.9328692569672161
0.9525295708892789
0.9035885851134288
0.972186968871059
0.9255943423105455
0.9095379743080513
0.8948173487014738
0.9036806890431537
0.9154846706105497
0.9504515033921918
0.9492871277579678
0.8692422603313217
0.8723340517708227
0.8687286495073033
0.8687797142180467
0.8892293180501842
0.8506464817863455
0.8589684486355804
0.978153798132949
0.9767745112360879
0.9722209066171472
0.9772970797300289
0.9786101055901105
0.9830402041284098
0.8722375274454293
0.8722207817969799
0.951770537975992
0.8781838598682065
0.8804414412294851
0.8839511160857657
0.8869283629975493
0.8470649163376921
0.9394185693904378
0.9386142604906795
0.9351610612543487
0.9343504720359938
0.930084995649944
0.9371858352389374
0.9473265846888121
0.9250706877386938
0.926418910794505
0.8697708218957696
0.8657699001784219
0.886193462764299
0.8827234145592648
0.8767383890540774
0.8805869222390957
0.8895121728243924
0.9551240982962222
0.9541909137257573
0.9562612590838906
0.9585111141835551
0.9541176363597074
0.8632406592665092
0.921723043638097
0.9822888210514138
0.9275061596347999
0.9601881460170526
0.9312808908993836
0.927998933638543
0.929109732068323
0.9278562819143543
0.9285580105352096
0.9282402889737928
0.9282385417689226
0.9284141003719268
0.9287116163772055
0.9273322777651377
0.9275148874876464
0.9838084109138711
0.8797967736314924
0.922451213286856
0.9191323501359139
0.9270596173474236
0.9217979030287627
0.9308250426570862
0.9515547922092178
0.887408931858771
0.8798641749417528
0.8907552186008545
0.8965729387118411
0.9113334372661743
0.9156033767368467
0.9254519223993972
0.9211472842120356
0.8785302672563643
0.8424370219165661
0.886521600771879
0.882731934161112
0.8460211604294247
0.9662726817927132
0.9659881403035331
0.9682331088145061
0.9644009571350731
0.9287880338749342
0.9550265245912486
0.8876844557482372
0.946697771320883
0.9451377055832856
0.9235440129617577
0.9050383436605628
0.9255936558838133
0.9911417412711329
0.9935879613094217
0.9934521586589394
0.9955516717059943
0.9946964160342328
0.9924869843918653
0.9864763667643153
0.9747604573229739
0.9176235144131046
0.9563913462531386
0.8838719641964489
0.8622117470476515
0.8691548286945716
0.9944789707111364
0.9957635812117603
0.9939765443607761
0.9301996749874659
0.9442021154354601
0.9456267094465137
0.947966782713648
0.908455353148436
0.9435152918754892
0.9670453761948928
0.9754851668057992
0.967199406327646
0.9697556966655944
0.9654047259231151
0.8676958458389904
0.9234170908175798
0.9245842941142696
0.9263381606477726
0.9295217336334837
0.9677558454421054
0.8933033371301505
0.8851374247734697
0.8854762821699258
0.8959902979403085
0.9008951686864157
0.9787522946939318
0.9836005282734969
0.946424774430887
0.8763693203348968
0.8862331315340743
0.9759290106198178
0.9588009310429402
0.9472390993779936
0.9296692328349057
0.9622794925521815
0.9755580654414843
0.9791963266347808
0.9270182495015674
0.9428294648007498
0.9620085598057869
0.97946204459107
0.9198866802492669
0.9343644074319903
0.9519281858062928
0.9518717346373121
0.9756110632986414
0.9069562333467549
0.9161198271647459
0.8682418562565063
0.8775324470037746
0.9760061193814684
0.87120952371152
0.9661797498726259
0.9614738127161686
0.9932736062861262
0.9912136126853126
0.9644156216046943
0.9470053148157285
0.8966636684562449
0.9463655628264445
0.944716397333697
0.9145939482132823
0.9115369502010291
0.9116264108504663
0.8572777552045712
0.8607307346048032
0.9262502771470383
0.9267073761582921
0.9872099491549552
0.8688301092518352
0.8730033469086513
0.8710137510788678
0.9696437313244313
0.9405122680615575
0.9478696183933745
0.9293505503970803
0.9366052951115454
0.9293809679189746
0.9237890568577027
0.9313029538988002
0.9233988109521597
0.9156938791245117
0.9102763104362199
0.9028818870713677
0.9102627074270313
0.8892442692498682
0.9637194977387312
0.9299180920423432
0.9390724406536693
0.9809888996146234
0.9085743556499353
0.9213221404100651
0.9131199133613361
0.9122420490604495
0.9125060443274438
0.9050648457187327
0.903100775785526
0.8795893588270137
0.8772620976737998
0.8730095735675747
0.8742078877755824
0.878142046830111
0.8743042249771998
0.879530260308553
0.919117939614401
0.8763421700116287
0.8815449154948042
0.9049134891100185
0.8564561860904147
0.8849068490664334
0.8698576454519475
0.9761050251478232
0.9790582811353535
0.9563994724222096
0.9587171560748109
0.9300675499316747
0.8964765429481957
0.8800684650747789
0.8716647193781254
0.8506433525971088
0.8468113466984567
0.7913285200470143
0.7945531481894413
0.7391698835123086
0.7594951544530729
0.7309800790354507
0.7534458202682718
0.7468412545555828
0.7636128117034258
0.7696310527454524
0.7787671814474666
0.7925885684168386
0.7939046095383157
0.8095505298729594
0.8108941694842773
0.82645381851719
0.826441796549287
0.8412665932251367
0.8401565208827678
0.8542862054497307
0.8527119540814393
0.8386181322918338
0.8506263949804669
0.8681137964834709
0.7995748254159832
0.8585272865640641
0.8324168137957205
0.8033456547998181
0.7896007736581966
0.8387244859461431
0.849732614891456
0.8614499818891145
0.8599024834644297
0.779932510373972
0.7355045097963779
0.826602696284005
0.7181274297511611
0.8708870069339432
0.8687669158363969
0.8583223528172711
0.8294104641022915
0.8175454362049547
0.873557527441832
0.8820879668380409
0.8857915665982043
0.8464177470860159
0.8193165719674381
0.8669105747040906
0.8583037986024242
0.8499668289884281
0.8504607453175477
0.9761272231010962
0.9721042276592569
0.8996955838908767
0.9668397670206061
0.969054644649951
0.9223626906505462
0.9251905096085297
0.895142279809214
0.9490729195220441
0.8768758973096442
0.907130526446646
0.9047086728289068
0.90545903414668
0.945221118123233
0.92795338862941
0.9290778881069647
0.9277470379921962
0.9445999352808487
0.94421983357661
0.9502153954759706
0.9415215402124618
0.9450839320969088
0.9279328621286154
0.9295417019408068
0.9305058236106419
0.9252918388314648
0.9295889086396566
0.9275225824262787
0.9311372486845196
0.9294119755293954
0.9324237624413086
0.9309491848061059
0.9338496332315095
0.9351814609346554
0.9359166926914535
0.9455389829105977
0.9433726837404921
0.9428409490431335
0.941285742100736
0.8696705333170887
0.867611092472302
0.8645552648314444
0.8622734062647944
0.8605033976347388
0.9450428533401529
0.9483958037410958
0.9536429796576061
0.9270202725562948
0.9276313363901109
0.9269601753060452
0.8754498361996799
0.9117430727251719
0.8862272837159451
0.8795192318909681
0.890772770435392
0.8866907923900716
0.8793123092814347
0.8834014445631295
0.8758635742961227
0.8784430251740579
0.8875151480420299
0.943789071350502
0.8711532669009605
0.8731362728377503
0.8917834525319036
0.9064581296072681
0.9184998786362322
0.9765123239418647
0.9779055674728544
0.9743393416626835
0.9297748705159391
0.9239792960734323
0.9102587467228204
0.8332449342912442
0.8347286887330694
0.8688154866305469
0.883857726972473
0.8893814707457193
0.972480102946363
0.9825057906863258
0.928157222066548
0.9188014752675926
0.9244119676779808
0.9628009892336183
0.9651221628207621
0.9723968024263338
0.8947301375475959
0.8964682700036514
0.9025646710482387
0.8952520750409934
0.8703663488748129
0.8966726432106711
0.8991616288925599
0.9675010566306855
0.8624267999760276
0.8584419782585723
0.8580652665525312
0.8563331897816339
0.8726486551460012
0.8821037041879068
0.8786136435875579
0.9856640474229557
0.9205698825808227
0.9581468109351716
0.9644720982571924
0.9554757552097677
0.959635101846573
0.9509063634157827
0.9479724931415398
0.941410932268163
0.9579852138516406
0.9615862752677686
0.95540956276746
0.8751612084327698
0.8803360076415324
0.8729413215674835
0.8749247530233613
0.9302607827588305
0.9283651193589363
0.8569698574024942
0.9332078483161097
0.9410675053090292
0.9396498161970606
0.8732892822634083
0.8726542844827417
0.96576118736358
0.8835804393495352
0.8841077257521937
0.9711132631443646
0.9825968145770737
0.8290986092629017
0.8365173563293554
0.8698554803118667
0.9564067538817569
0.9723320139841054
0.9470434173385964
0.911567821225776
0.9765412553319629
0.9100910343246436
0.8829837556207973
0.8922813819839791
0.9688274482118189
0.928575011051867
0.8685424371198054
0.9293348281393101
0.9881485410772212
0.991656430527427
0.8383372643490032
0.9802968623256603
0.9836411002959002
0.9139932963297247
0.9212682411303402
0.92577043488482
0.9280708295861521
0.9195508067147184
0.8151615349558468
0.8090538301421585
0.8618617439782922
0.9492494299739037
0.9330435619006849
0.9413486262317056
0.9946279428246763
0.9940980059436967
0.8571252229457067
0.8531840101368655
0.8777868560005376
0.8730846913898048
0.8705893230729348
0.9710454095741089
0.8968998020664076
0.8869743267738454
0.9304227704072843
0.9845415934947148
0.9870594726356439
0.887442172402712
0.8840928100349286
0.9315454754479192
0.9606905614829833
0.9322124506997286
0.9293503754901533
0.8219089738218575
0.9912833658267544
0.9252096122729987
0.8244718501114505
0.8337722987670445
0.85082626811304
0.9278351392916079
0.895729181389858
0.8900067129970142
0.9001663379511573
0.8962392411908986
0.9049914730245958
0.9011101633078846
0.8916708099151168
0.8947274532051794
0.8828849153161401
0.8896510809557366
0.9108202658831465
0.9119276131670672
0.9319428425304707
0.9191443827998268
0.7856811216095532
0.6561332464442118
0.6630764472347755
0.7820834590323935
0.7096273240712481
0.7024314225670205
0.7029831920281493
0.6553712751715448
0.873352316722142
0.87087648967508
0.8841765755726496
0.8903658647079489
0.8986869130647475
0.993597370125639
0.9933432104333687
0.90245572757751
0.9033152407033546
0.9009632560331295
0.8310526703349252
0.6145898157433168
0.9017313544437545
0.8951848870951015
0.8822884448591785
0.8915492092691458
0.8743426647788443
0.9149333614351197
0.902506727474766
0.7767833072593555
0.946046356632915
0.9591969424824212
0.9449686913506147
0.9100400498119772
0.853286131736572
0.8625598171313895
0.8899703871215975
0.8921465801435223
0.9817701050617319
0.9823993499622657
0.9149165583265133
0.9337198332357083
0.9381261120601462
0.9461263228740839
0.9497028023330302
0.9090047830157676
0.9136890396502092
0.9049049746955999
0.9001195810266844
0.9397891911698596
0.9378851396521075
0.9525639858523071
0.86060582709532
0.8569552639993843
0.761235413497805
0.7901372538681964
0.81300845610361
0.8271942572584889
0.8435805605513448
0.8067100800390821
0.8367562519342161
0.860437235017299
0.8477915748522886
0.9275104517050423
0.8514492063902427
0.8736327201845536
0.8893185189528401
0.9503270114181687
0.9527778573187184
0.7621195108949468
0.7802844414293509
0.9437995461552905
0.9894786611824121
0.9892896543910115
0.9908701166994919
0.9893098406995721
0.9909295703804524
0.9891202294564996
0.8887983072043428
0.8957478987946437
0.8955775413532753
0.9026869200112573
0.9017819946648996
0.90766936441779
0.9074524048050998
0.9085127078051995
0.9130133257114544
0.9028500818857373
0.9143683208332188
0.9096672115297616
0.9139981912379472
0.916532943851657
0.9111163471391421
0.8965342140292827
0.9060127994407469
0.8900313922025055
0.8990285849852179
0.9358315396875959
0.8347663980306543
0.8708571014163666
0.8419359172102507
0.8444271907642368
0.9503438359163996
0.9463441550992281
0.9351325506637704
0.9309372460768857
0.9336795953363798
0.9280027247863631
0.928070785325648
0.9269481455999541
0.9270773565745822
0.9256193550630242
0.8504742614418067
0.9521250094800606
0.8955985681044546
0.9042784522077874
0.9211733089469001
0.9247196551069204
0.9349056387114599
0.934907943429421
0.8575869511997704
0.858383384797661
0.8623670968911189
0.8632012743151971
0.8656412497252445
0.8465629609221297
0.92454955839063
0.8631091122390411
0.8653381983601486
0.7451726579016121
0.8862335296640741
0.9852584692495733
0.9449447642517352
0.8263643382513529
0.9127336464470409
0.9172490866710254
0.9924880190699956
0.8750505551651481
0.8726646750448215
0.8741854901888344
0.8715170434408789
0.873308167788916
0.8717596864262503
0.8703250290135538
0.8712366170833389
0.8983435695960327
0.8737349685288609
0.8754652880078675
0.8785879412723657
0.8731344510093517
0.962987252064588
0.995152108094804
0.886866899272353
0.8535035258079141
0.8775482800636352
0.8881303532126511
0.81743005725275
0.8042051635246656
0.8140784462228892
0.804810468049815
0.7932524903556815
0.7896225359577977
0.7966704785096513
0.8316305502876504
0.8723705706504061
0.8161351475142237
0.9693396425694993
0.8753809631494385
0.9358603746478504
0.8704626827740627
0.9459473038864117
0.9260396375225546
0.9318795313051518
0.9026633640184734
0.9277269644024189
0.9244740607763322
0.9081244824763802
0.9016343877507095
0.8762482518077355
0.869323985007326
0.9820080778479726
0.9765636099414364
0.9941189169151917
0.8455318313839391
0.9351100920701649
0.9424832431666912
0.9596050311487107
0.9658158501938303
0.8740895009294266
0.9145026495535002
0.9306064952667267
0.8759029837529104
0.8768283198569764
0.8736816674936466
0.8605585308879365
0.9278120225425792
0.9303168539780301
0.8633568576878486
0.8774847879074992
0.9393796646057382
0.9542515507180667
0.8610382186860445
0.8959734805597378
0.9056911221811889
0.9126168908384042
0.8986816436911138
0.9443520912276515
0.8588739518992888
0.8010188369509041
0.946918279486788
0.888381038570271
0.9658790741540081
0.9062314521950056
0.9069322667169413
0.9091895186525273
0.9044981807525286
0.899697845079451
0.8813968639494596
0.867876254711449
0.8745594304588531
0.8824667419105663
0.8818067530367941
0.8687823980789466
0.9768682203781164
0.9711269143611336
0.9719278016030379
0.9682265325627074
0.9631965228718553
0.964365214513642
0.9683441176715781
0.9461825132380044
0.8689366321991496
0.8618287033417488
0.8664262280984473
0.9466864641037124
0.9541133850957018
0.9373985670468561
0.9037682080843085
0.9283409329888251
0.9289596249163881
0.9243854497021267
0.924290578714727
0.9049977151085075
0.8687923451615758
0.8677895882637037
0.8781865254442842
0.8761609135997012
0.891099620970562
0.9046061926844797
0.9030105064191143
0.8976191081773893
0.8994602523683591
0.7737761310558974
0.701197073963468
0.9841450951416673
0.9861286125819115
0.9861322505919752
0.9875367885574301
0.9142800877362434
0.9616545026962585
0.7993112180256254
0.8134344473505564
0.8496425001861782
0.8552760685930306
0.8649463280191307
0.8957182904130035
0.8918954912356495
0.8131152097168604
0.8989407105110913
0.9409853499724202
0.9896540819586117
0.9132480578387921
0.9175758149751104
0.8955835293454402
0.9878746048841338
0.9415991567702178
0.9423327840956858
0.934408754664093
0.895160816073757
0.892197742119815
0.8885485919009692
0.8907517310247596
0.8510678282792382
0.8514614353805725
0.8467129076291154
0.9900453733998775
0.9695132038592691
0.9688299215702749
0.9711649470831506
0.9700519929885356
0.972863084928199
0.9714260941382714
0.9751482362709365
0.8676136993608486
0.8287887666969574
0.9771523534134935
0.9820801611289044
0.9393147951435538
0.9752591410450154
0.9804632675450179
0.9692022627250536
0.9426499542911028
0.9408917853602956
0.9214746926317513
0.8810216307759079
0.9216599340309355
0.9871822494547349
0.910075681573284
0.9120714468162245
0.9155352979731026
0.9086059795858894
0.9128811218196226
0.9149151121877556
0.912169243459353
0.9087993706746856
0.9596308257522151
0.9114445219610469
0.9173959966022075
0.9635378642493964
0.9551667011883481
0.8741336054546004
0.8430010338060971
0.8766597555320927
0.9025703126298397
0.8777422648305423
0.8799824166758224
0.8876766202133826
0.9600947554118268
0.9629361139649537
0.9637808322584808
0.9645554648157372
0.9919913308836077
0.8791606174613107
0.9575374909282294
0.9218768122504625
0.967490904431904
0.9133386781079058
0.8710229868542995
0.9365177867955611
0.8689291788239321
0.9304760409861679
0.9340848988805206
0.9208014620976706
0.9285450456683116
0.9546899825030677
0.9543790477509273
0.9566420343231006
0.9190492044582337
0.941321620683433
0.9101101850363932
0.9298687774072091
0.9317854010003156
0.8681808423171014
0.912190570120097
0.9840562654956907
0.9378984232571408
0.9539923209290305
0.9530249269643428
0.9557010946401934
0.951824307417808
0.9546999066737657
0.9593102841629998
0.9542772913883896
0.9312618350327803
0.9297205053357082
0.9506322227764532
0.919088019772954
0.9814438376008195
0.9394391993447477
0.9497047798574005
0.992390759457067
0.9307451784395553
0.8867723483481279
0.9451666906525698
0.8823585053008574
0.6540464433950632
0.9833071171350716
0.9138055423677113
0.8963990741809058
0.9086026393135811
0.880382795357969
0.8924005147824622
0.8718080082740371
0.9208312838341789
0.9300591470466772
0.9328552758051352
0.8984177756819777
0.9333011981765219
0.9277210421457885
0.927014730999396
0.9349739249444274
0.9555269768246653
0.898652845461961
0.948418159157457
0.9463260635746149
0.9444081321813224
0.9445932285945992
0.9321914130092989
0.872132689404082
0.9236343251249833
0.8673966448331121
0.9279549792730384
0.8951027591205034
0.9461978591408743
0.9261553902075346
0.9446551545080789
0.9394128050331922
0.95031329386552
0.9622157777131845
0.8883827648214823
0.7879938019938679
0.9151257953374318
0.9417279817830142
0.8726085253298396
0.9133436073164355
0.9638214594175645
0.8957861099666338
0.9330708090124061
0.934431925648064
0.875729681496979
0.9822530142019347
0.8793952457827239
0.9033982048810858
0.941992240557669
0.9405574598199766
0.9652979512073279
0.962768390561436
0.9592031634796795
0.9340207620728086
0.9893316532425958
0.9917750199264685
0.9551323535667596
0.9666620917795179
0.9949554672035829
0.9902656221108788
0.9193573186396957
0.9245649398215529
0.9895778426623846
0.9134815982601415
0.9175860412190935
0.8910535960323064
0.9703248220282159
0.9723034500374278
0.9185935412328682
0.9512965990354793
0.9558728396442935
0.903618732241741
0.8760925266508246
0.9309207934168708
0.8750771554137832
0.7738460394830295
0.9340852434733533
0.9523160117685574
0.8489803048333183
0.8502636259563688
0.9412144562906454
0.9254793841042511
0.947793028070769
0.9127669365458493
0.9696178369026561
0.8377544304181845
0.7806369095193014
0.8544518764418524
0.9359822131203741
0.9432101114437341
0.8748753412830171
0.6872259960023596
0.976495765093825
0.9721719463131224
0.9191728341852162
0.9597779997972319
0.9327524804810672
0.9603308854505991
0.9628561218647117
0.9604520526613749
0.9049686737428392
0.8980572356659127
0.9845193582305802
0.9765451502103064
0.9594541182868799
0.9278703954092381
0.9751693798086255
0.9352619935044032
0.922930259517478
0.8730401601073081
0.866538246451474
0.921366759483976
0.9150414624789166
0.9537013284650329
0.8890627073402654
0.8722996790486217
0.9786708571432332
0.9350425225265903
0.932845103870667
0.9710842954589546
0.953500103328063
0.9666215741223362
0.9903697894373503
0.9183868638823307
0.7655475398219944
0.9423170897170716
0.961619428804778
0.9636700272486355
0.8967263486549181
0.9175858074731775
0.8988814778664206
0.8350211361571607
0.9618816949429668
0.8924440200269496
0.8806610755411555
0.934568302576711
0.8787331862183588
0.8906995205033742
0.8669392428974794
0.9603694381272794
0.9243605851031709
0.9584221704235742
0.9138244126582084
0.9935627758150666
0.9922929609211679
0.9092311812693583
0.9668026855722855
0.949577223040703
0.9268678425243827
0.885874098930206
0.9228466904884364
0.931110984135445
0.9277304730013002
0.9562779880723405
0.9749387334967358
0.8180017889263131
0.8325054022273706
0.8428848718360105
0.8482397219300152
0.8530055029713963
0.9076762217354923
0.9177976228255071
0.9805204843003589
0.8739781245410583
0.8842012281772823
0.8736895072025052
0.9038870039636115
0.9363329956155484
0.9282492545991438
0.9180746656300277
0.9579789817742056
0.944655304886164
0.8707399490248877
0.8648720204023103
0.9248642653949991
0.9279110189656024
0.9851526125471345
0.8696800912435322
0.9931453203067473
0.8834800091702572
0.9736674517258598
0.9238125662478084
0.9918969865967315
0.9032004536456905
0.8936013972599348
0.8785677191829938
0.9293392544769358
0.9441144963617865
0.9236671232814825
0.9669619094843838
0.9264572151603747
0.9261026574034709
0.9557380960108034
0.9849630651319167
0.8483947057166045
0.9374222684541855
0.8994723333443464
0.9712249959977117
0.9217237596249663
0.9181196804587384
0.8654598736972507
0.8970650735417621
0.4528086826725995
0.9289895699537628
0.9021230743351549
0.890167929913479
0.8772765456820072
0.9608448418956469
0.9824177667620833
0.8849214775074523
0.8698996122507616
0.9824224192909297
0.8497921122134293
0.9313040989332289
0.86072260911677
0.8978262532166192
0.9227161039862128
0.9342889526478872
0.9422150537002296
0.8742511064610026
0.8734055261440433
0.8607702918945261
0.8664413002253794
0.9315629154661684
0.9623200084682193
0.8917949141343092
0.8859417005934099
0.82614189317008
0.9589335456865233
0.9368791130934689
0.8572388656477519
0.9251543857470129
0.9064425235109278
0.9327983316273575
0.9223555693163179
0.9428294398170431
0.9178386805069587
0.9332396767101582
0.9178336126094244
0.9311095958077741
0.9300285449513432
0.7878162809517165
0.8686385265804216
0.9117916085373738
0.9380406466571696
0.871211327700307
0.9648821857136659
0.9297429143555899
0.9118621760111127
0.9242487403245078
0.9241444601891595
0.8398442732443255
0.9472207672052408
0.9339949850020625
0.9416621942886528
0.8543992461280955
0.8874632632059863
0.7693293312848432
0.9243101791142847
0.9657863441414829
0.871991488980213
0.9425821509480469
0.8874864917077943
0.9598595329050921
0.8436014236049585
0.8832688786805117
0.8661678247375364
0.9377088496957235
0.917288600696916
0.9522186677891059
0.9434136577095545
0.9280442033673754
0.8944375851337253
0.9061460842077955
0.866265213973528
0.9575480412742601
0.9639843905056331
0.9076549101830074
0.9190573891492394
0.9441196427943737
0.9269752953533962
0.8787113599276739
0.9924167006677319
0.8748759461598126
0.9361888798626077
0.8686603426761634
0.9326921378918778
0.9274840388640719
0.9262630610812962
0.9384429045234881
0.776101133442944
0.8449594924969626
0.9903428515513738
0.985478430745552
0.8959257564584446
0.9328642185227154
0.8969306992619417
0.9331400811157512
0.8578418747969075
0.8909379688672777
0.9417308485415588
0.9440056757369936
0.9036541352429844
0.8707127615059476
0.8579747937047874
0.9735636218980415
0.9649734587987115
0.8664163441021657
0.9049411303742724
0.9245390420156032
0.8397142673807846
0.880337569667721
0.8308699357913388
0.7347860910373846
0.8784908041958954
0.9336787870224237
0.8950297899241717
0.9725782871771979
0.8688406214323627
0.990741034772009
0.8632806834902622
0.9034813388783446
0.9318184835428196
0.8680911225366191
0.8614791741521459
0.8715682707620427
0.8989648420278403
0.9541124385051537
0.913221951337954
0.942165655472976
0.888206551315293
0.9167937173210983
0.9161111478432244
0.9413890278922816
0.6906191885201661
0.8753772370121865
0.9037288165494319
0.8654388420808893
0.8975786613814504
0.9482435962771546
0.929224142086637
0.9256113037368993
0.9224662491109114
0.9438099477075526
0.8708628670093139
0.8917566199786428
0.871148089534011
0.8608505381495533
0.9613461383533405
0.9419886035802186
0.8631372492370089
0.8869596616352182
0.8677382149284508
0.8850232812108022
0.908797874859938
0.9292925857109127
0.8518234582648675
0.9308224480218588
0.9282750452954939
0.9755885297280641
0.9700881035617591
0.7943650227339196
0.9345694741706934
0.9114516993582096
0.8435680039163577
0.9731527219268834
0.9137938695475258
0.9348215101700206
0.9499741118738017
0.6773668276068305
0.9185674656131969
0.992020862629575
0.8879117906457185
0.9946137719039304
0.8498632862850922
0.973163183381031
0.9279741472155472
0.9295050117043547
0.8845241107270241
0.7387347671858155
0.8135798258378035
0.943517805526058
0.9212961244734639
0.8816595134994389
0.9034891987990551
0.9062283874427163
0.8692880204161918
0.9764638435952965
0.953342850286461
0.8924875803240341
0.9829461895239882
0.9285461207219986
0.8868462980913825
0.9429795575359652
0.9644570864493601
0.9256563069226471
0.9031810429053972
0.8870019359865847
0.8836444462947597
0.9885163879876965
0.9151480261578798
0.8900747794905634
0.8671586552202849
0.8906477657036097
0.8974580681231717
0.9280869692282533
0.8688112356601508
0.859883233309721
0.9481483118491137
0.9676617565329662
0.9656410532499606
0.916982757743358
0.9867177131095478
0.9276093996985497
0.9214739167726186
0.8820951152660166
0.8361333419054146
0.8447589359866342
0.8233855896639608
0.9177253645420452
0.9087453739381561
0.8577332150974416
0.7354452775905678
0.8831939860140231
0.8418511437412802
0.9346563500446494
0.8753727987560878
0.9161324686377623
0.9641760309158998
0.8648174052183747
0.8518661320605078
0.9243798059406729
0.8248900445657926
0.8754143649647973
0.7785464535606402
0.9263535326367507
0.9521925801416031
0.8042996663417056
0.9148528212179993
0.9499824156678325
0.947361407087484
0.9713037674594769
0.9626288545445102
0.9680466172504724
0.9633236693468363
0.9234008513878365
0.8369014916468186
0.9209189399330804
0.9264722503232607
0.9189018944736105
0.9942174308526193
0.8670203972666324
0.8706726248269707
0.9055829312845426
0.8708163203142141
0.9237034193931047
0.996343081477323
0.9979443550332817
0.913467372609546
0.8742466093259978
0.9227424360838059
0.9699452086475389
0.9922684204958226
0.8936397194501822
0.9022665209194097
0.8658214458866149
0.902915865626783
0.923294695256123
0.8934996713564042
0.8807644415151406
0.9042835149166311
0.8636008226508873
0.906042058804055
0.9449595488715011
0.9260417530609101
0.8593855812018121
0.8679276464167464
0.973441983061443
0.929032154377697
0.926151162606159
0.9050521977437032
0.8898452887993632
0.8420282973452631
0.8696916412101414
0.9276621850273702
0.82328669626174
0.9289947595036412
0.9343109800559656
0.96883144286738
0.8769267841257323
0.9394559700584938
0.9239867513909017
0.9377039110250148
0.8701355171192665
0.9378598889497985
0.9016059199702857
0.9639390877082878
0.905045688948247
0.9234824072988136
0.9832249882414723
0.9083936478344325
0.9297939517428712
0.9311230294707267
0.8548508249543828
0.9801086590827779
0.9260022473698019
0.9223391350548394
0.8401051899085008
0.9939002676270735
0.9474892554033605
0.7794572934945624
0.9229757071850172
0.9846739672959153
0.9221261904971081
0.9316116482675606
0.8732320667788798
0.9740036207806764
0.8905034979125005
0.9045097010264334
0.8055186130053128
0.9455816423401819
0.9636673141033641
0.9343055163284647
0.9689532922319848
0.9406306903416128
0.9187304156519445
0.9862627207821546
0.9731088500115772
0.8675220978084679
0.890409077729114
0.957981757333238
0.9521378015053458
0.9871308538152174
0.7918312792682961
0.9032576569341354
0.8014157963629922
0.8843061940092842
0.9423007366565932
0.8778684975966656
0.8552319069771837
0.9361988088459589
0.9312113540918538
0.8724556473219739
0.8621484395414394
0.9606576908248236
0.8947302337730891
0.8835847916934425
0.8764760786764546
0.9343358322333686
0.9606781878549667
0.8639553503260956
0.9275824815494605
0.8046054517922239
0.9735018070336471
0.9220983615995813
0.8949016907599283
0.8983546491382276
0.9743235484386288
0.9238899768456673
0.8706939443997026
0.9127889639532476
0.9460635149143266
0.9170486940201193
0.8839358093987028
0.9234491774863023
0.8993608730709972
0.8673631684306904
0.9692775616403203
0.983586515818703
0.9469413461808076
0.9322335203257905
0.9374866844573093
0.9180018851291598
0.9852205035815025
0.9564261134671789
0.9128316870466312
0.870328531976501
0.9277563968642117
0.8716510278620611
0.9132374852796307
0.8926889140313952
0.9470857405670466
0.9231337084735606
0.8857007739403459
0.9259703258717186
0.9639026959530871
0.9160794688517977
0.9276410796980831
0.9023751372658829
0.9507680238572512
0.8863327789694978
0.8790612004848263
0.893828313855607
0.7259337332132176
0.8827869926142862
0.9071034090502823
0.7967315346897962
0.5686401739720213
0.7832437820584598
0.8649720241129045
0.8380223792479922
0.9496060716316117
0.9151935601763173
0.9922983159641412
0.8813562349217924
0.8662478060810228
0.8579303091484133
0.9811754626947493
0.8917041221343931
0.8996371162258322
0.926950244752285
0.9277313806045135
0.8102497082346766
0.9678045535078132
0.8993636007967423
0.9189134194211925
0.8964573863043366
0.9043459797452852
0.9928705348508299
0.8681276248734962
0.8907401214213715
0.873592877271103
0.8755208795144825
0.9740810076157129
0.9627601047791393
0.9928970797388473
0.9629236119466736
0.9132165040399768
0.9120334391310355
0.841416765617948
0.9285088105338963
0.8827106968955026
0.8630265003020601
0.8983276840875514
0.8856037159180877
0.9582497867817804
0.8821949775947343
0.8675802805225449
0.8725312205722737
0.8668208797084893
0.9536468379968615
0.8961884387552834
0.8508546800724853
0.893942711269668
0.9974856909061155
0.9490570456575222
0.9041122535734569
0.8296586226762006
0.9191412429809026
0.9750299857403774
0.8934893855574388
0.9065981225553996
0.9686489847040655
0.9277939904874493
0.9391713040350722
0.8552089067378847
0.9387107175250645
0.987034604510289
0.9143764148466004
0.9890628972048796
0.8448788956162537
0.987961980297114
0.7861275849559681
0.8414583786644223
0.811768217889418
0.9362424866365117
0.9437946125695073
0.7727961270985364
0.9350970274312234
0.987669518517639
0.9934940717016281
0.8868843894822911
0.9531771943319663
0.9184208894195566
0.9905858245035478
0.9110732876731898
0.564373738815896
0.9088120162243749
0.8809961211977383
0.9918080677294873
0.9510996054373735
0.8795777082049159
0.9445961957634321
0.9962164692012475
0.8570705464915906
0.9445884653466552
0.8557502430302826
0.8344716307027379
0.98721109724315
0.8718675407754071
0.967624152815543
CELL_DATA 4886
TENSORS stress float
-9.979034334154528e6 927693.9844828533 0.0
927693.9844828533 1.2538987626324996e7 0.0
0.0 0.0 0.0

-1.0221078313533742e7 793008.3517946674 0.0
793008.3517946674 5.236418803164396e6 0.0
0.0 0.0 0.0

-7.802090581116011e6 1.0339812605781743e7 0.0
1.0339812605781743e7 4.833313159467691e6 0.0
0.0 0.0 0.0

-5.568043086023565e6 1.1812221951486235e7 0.0
1.1812221951486235e7 5.188115907749884e6 0.0
0.0 0.0 0.0

-5.51795147585715e6 1.1918881806520883e7 0.0
1.1918881806520883e7 2.1833376902776626e6 0.0
0.0 0.0 0.0

3.093705960975743e6 4.4594645765529685e6 0.0
4.4594645765529685e6 -4.954365507116702e6 0.0
0.0 0.0 0.0

1.1600117289479084e7 1.1676639224727564e7 0.0
1.1676639224727564e7 2.0442433944943917e6 0.0
0.0 0.0 0.0

4.229690454417364e6 6.061765029141279e6 0.0
6.061765029141279e6 -1.190618669163258e7 0.0
0.0 0.0 0.0

-9.87469759701347e6 2.0539779377167744e6 0.0
2.0539779377167744e6 1.3376003131146558e7 0.0
0.0 0.0 0.0

-1.986011850882075e6 1.1529758407990828e7 0.0
1.1529758407990828e7 3.837720654835192e6 0.0
0.0 0.0 0.0

-3.406778212156155e6 1.0586666251920583e7 0.0
1.0586666251920583e7 -1.0392924804846931e6 0.0
0.0 0.0 0.0

-8.078604303423606e6 1.4325304265753679e7 0.0
1.4325304265753679e7 4.889674729013246e6 0.0
0.0 0.0 0.0

3.1319088421074403e6 8.213221263198622e6 0.0
8.213221263198622e6 -1.139611811817338e7 0.0
0.0 0.0 0.0

2.101841329701857e7 1.3949224827329008e7 0.0
1.3949224827329008e7 1.4849370818751696e6 0.0
0.0 0.0 0.0

-3.6085520619835546e6 1.0862504683272908e7 0.0
1.0862504683272908e7 -1.1276733716406948e6 0.0
0.0 0.0 0.0

1.8731771194239731e6 5.132217667603399e6 0.0
5.132217667603399e6 -5.408620528021459e6 0.0
0.0 0.0 0.0

285341.74809538946 1.0334399249292461e7 0.0
1.0334399249292461e7 -8.293884654850291e6 0.0
0.0 0.0 0.0

1.2365648515908853e6 9.736225420025734e6 0.0
9.736225420025734e6 -9.243087332682662e6 0.0
0.0 0.0 0.0

-2.4011827993409485e6 1.104887854575052e6 0.0
1.104887854575052e6 3.018325763405584e6 0.0
0.0 0.0 0.0

-4.717548423347895e6 1.2219229226603389e7 0.0
1.2219229226603389e7 -458315.28836813546 0.0
0.0 0.0 0.0

907352.338284194 8.163032255539319e6 0.0
8.163032255539319e6 -6.260941712021984e6 0.0
0.0 0.0 0.0

-7.506712766447561e6 1.4327416798004238e7 0.0
1.4327416798004238e7 4.326537670568039e6 0.0
0.0 0.0 0.0

-2.2371230975674433e6 5.052727012134302e6 0.0
5.052727012134302e6 1.2420769145167174e6 0.0
0.0 0.0 0.0

-4.957211165437099e6 1.1684482263271704e7 0.0
1.1684482263271704e7 1.4600786385339098e6 0.0
0.0 0.0 0.0

1.9096145336554488e6 9.292634210385572e6 0.0
9.292634210385572e6 -1.0930076612933392e7 0.0
0.0 0.0 0.0

-2.0217860343149526e6 2.085614005158183e7 0.0
2.085614005158183e7 -5.778936978813105e6 0.0
0.0 0.0 0.0

6.907433226260423e6 1.1929726991301693e7 0.0
1.1929726991301693e7 2.6448655611442924e6 0.0
0.0 0.0 0.0

-7.431893369942175e6 6.686676648268137e6 0.0
6.686676648268137e6 8.90408556825158e6 0.0
0.0 0.0 0.0

1.6744133601891657e6 5.0487253782515405e6 0.0
5.0487253782515405e6 -5.275724408708846e6 0.0
0.0 0.0 0.0

-346254.7793714672 2.0385961534065676e6 0.0
2.0385961534065676e6 -1.0749175960383238e6 0.0
0.0 0.0 0.0

-2.6798625366146807e6 5.388215093564488e6 0.0
5.388215093564488e6 796158.7510509804 0.0
0.0 0.0 0.0

739417.7839623368 7.194814543390967e6 0.0
7.194814543390967e6 -4.879186215577219e6 0.0
0.0 0.0 0.0

-1.1381606483101882e6 9.464303718876261e6 0.0
9.464303718876261e6 1.6703769766388033e6 0.0
0.0 0.0 0.0

-481082.3917403105 1.150100346252864e7 0.0
1.150100346252864e7 -857765.3227209349 0.0
0.0 0.0 0.0

-5.472095753947185e6 1.0162604123751082e7 0.0
1.0162604123751082e7 3.026062791750899e6 0.0
0.0 0.0 0.0

-1.9142752698077783e6 4.517271453680803e6 0.0
4.517271453680803e6 -47574.204833868775 0.0
0.0 0.0 0.0

-760287.408966227 7.970738486617583e6 0.0
7.970738486617583e6 -3.329235004026223e6 0.0
0.0 0.0 0.0

-4.969042358403475e6 1.0181283057718622e7 0.0
1.0181283057718622e7 2.8590384747324213e6 0.0
0.0 0.0 0.0

480003.40699013555 1.0334309350718942e7 0.0
1.0334309350718942e7 -1.0140229992201459e7 0.0
0.0 0.0 0.0

-6.613990770160416e6 1.2362496899870878e7 0.0
1.2362496899870878e7 4.004753761288079e6 0.0
0.0 0.0 0.0

2.850599744787623e6 8.322316631404716e6 0.0
8.322316631404716e6 -1.230327647717174e7 0.0
0.0 0.0 0.0

-8.195991268077919e6 1.059157429071134e7 0.0
1.059157429071134e7 5.169850857637061e6 0.0
0.0 0.0 0.0

-6.286595662079895e6 1.2080209428459467e7 0.0
1.2080209428459467e7 3.684884463055696e6 0.0
0.0 0.0 0.0

-3.026778077582646e6 3.81440285840164e6 0.0
3.81440285840164e6 3.0318564055801025e6 0.0
0.0 0.0 0.0

721203.033889377 8.220762487336513e6 0.0
8.220762487336513e6 -6.8462769004744645e6 0.0
0.0 0.0 0.0

-6.849954168297764e6 8.056352452605904e6 0.0
8.056352452605904e6 8.784184251059541e6 0.0
0.0 0.0 0.0

-1.7587699876743848e6 1.173715260532986e7 0.0
1.173715260532986e7 -3.7208405598094775e6 0.0
0.0 0.0 0.0

-624491.3989704767 7.779585622865798e6 0.0
7.779585622865798e6 -3.693695906021903e6 0.0
0.0 0.0 0.0

3.6145453698253394e6 5.876603933415408e6 0.0
5.876603933415408e6 -1.0413110352310563e7 0.0
0.0 0.0 0.0

275467.9974420637 1.0424059595647458e7 0.0
1.0424059595647458e7 918226.8927737055 0.0
0.0 0.0 0.0

-5.728039254178172e6 1.2387802958106043e7 0.0
1.2387802958106043e7 2.9486324408679805e6 0.0
0.0 0.0 0.0

-5.76202188086479e6 -417540.2622483855 0.0
-417540.2622483855 5.078904910770511e6 0.0
0.0 0.0 0.0

3.704475607817093e6 5.831257293155076e6 0.0
5.831257293155076e6 -1.0536031644457545e7 0.0
0.0 0.0 0.0

-4.978057668117542e6 1.1522166282296212e7 0.0
1.1522166282296212e7 2.383486441110409e6 0.0
0.0 0.0 0.0

-409528.2624975218 1.0960966040905818e7 0.0
1.0960966040905818e7 1.7462735043512934e6 0.0
0.0 0.0 0.0

-4.879816300008083e6 1.2007789763724413e7 0.0
1.2007789763724413e7 3.3267736231845673e6 0.0
0.0 0.0 0.0

4.337243650286772e6 6.3533599571466455e6 0.0
6.3533599571466455e6 -1.2722316221659433e7 0.0
0.0 0.0 0.0

-6.441127715170446e6 1.2490584112531796e7 0.0
1.2490584112531796e7 4.3377810663327295e6 0.0
0.0 0.0 0.0

-3.681862427805192e6 1.2707107123068918e7 0.0
1.2707107123068918e7 8.065272420679631e6 0.0
0.0 0.0 0.0

1.4172841274728985e6 7.898157364525629e6 0.0
7.898157364525629e6 -7.41926360135829e6 0.0
0.0 0.0 0.0

526257.8805974112 8.992289754550198e6 0.0
8.992289754550198e6 -6.410784780217246e6 0.0
0.0 0.0 0.0

7.120996431803393e6 1.1370695055710632e7 0.0
1.1370695055710632e7 -9.33386664559577e6 0.0
0.0 0.0 0.0

-1.6016255890868043e6 1.0648011447552528e7 0.0
1.0648011447552528e7 -1.0972817452534954e6 0.0
0.0 0.0 0.0

-647144.1404775955 2.887984910312123e6 0.0
2.887984910312123e6 -868230.1281934432 0.0
0.0 0.0 0.0

1.1070327916897032e6 6.951271607125511e6 0.0
6.951271607125511e6 -3.8384419289051183e6 0.0
0.0 0.0 0.0

3.2818030443465295e6 6.226301325306455e6 0.0
6.226301325306455e6 -1.0278763901092894e7 0.0
0.0 0.0 0.0

3.4252993651461108e6 7.685859056370265e6 0.0
7.685859056370265e6 -1.139639772539119e7 0.0
0.0 0.0 0.0

-5.127985489338819e6 1.1279081928602846e7 0.0
1.1279081928602846e7 1.9241672553453913e6 0.0
0.0 0.0 0.0

-4.501819379921852e6 1.1788569261361362e7 0.0
1.1788569261361362e7 6.798803182373133e6 0.0
0.0 0.0 0.0

3.8054321817855183e6 1.1203302999030244e7 0.0
1.1203302999030244e7 3.674809753011777e6 0.0
0.0 0.0 0.0

-3.7495245902606705e6 4.1042715901042386e6 0.0
4.1042715901042386e6 2.586219214385952e6 0.0
0.0 0.0 0.0

2.1243089051713273e6 9.162490234473834e6 0.0
9.162490234473834e6 -1.029752542426698e7 0.0
0.0 0.0 0.0

321696.588567812 1.0371664117400892e7 0.0
1.0371664117400892e7 -1.0031928714308579e7 0.0
0.0 0.0 0.0

-5.051685306700693e6 1.2901334591698356e7 0.0
1.2901334591698356e7 1.2900256642654577e7 0.0
0.0 0.0 0.0

-6.288027321654661e6 1.1285271090163706e7 0.0
1.1285271090163706e7 5.8993380259995805e6 0.0
0.0 0.0 0.0

-6.994027576813713e6 7.959366133901199e6 0.0
7.959366133901199e6 8.141602098526856e6 0.0
0.0 0.0 0.0

-8.53082191352675e6 4.4600930436823685e6 0.0
4.4600930436823685e6 9.390732114701793e6 0.0
0.0 0.0 0.0

546706.7545824111 1.0210418405281797e7 0.0
1.0210418405281797e7 -8.146418541694091e6 0.0
0.0 0.0 0.0

838458.3861424001 1.0549982300688382e7 0.0
1.0549982300688382e7 -6.394793924195402e6 0.0
0.0 0.0 0.0

-203852.68681913917 8.92791882303447e6 0.0
8.92791882303447e6 -5.601093199962462e6 0.0
0.0 0.0 0.0

2.00741899133384e6 1.4894005157859188e7 0.0
1.4894005157859188e7 -6.215941881369669e6 0.0
0.0 0.0 0.0

-4.944934553250469e6 -1.0013480728100978e6 0.0
-1.0013480728100978e6 5.204522282573304e6 0.0
0.0 0.0 0.0

1.7575813210204542e6 9.690958995603254e6 0.0
9.690958995603254e6 -4.0147624009484155e6 0.0
0.0 0.0 0.0

-8.689547459560994e6 1.5325068038869103e7 0.0
1.5325068038869103e7 4.4938061212871e6 0.0
0.0 0.0 0.0

-5.368458034073247e6 1.1829802331670279e7 0.0
1.1829802331670279e7 5.227093579881577e6 0.0
0.0 0.0 0.0

1.5938441166241542e6 5.641116981642161e6 0.0
5.641116981642161e6 -6.54520071951903e6 0.0
0.0 0.0 0.0

954183.676351231 6.9979368539717095e6 0.0
6.9979368539717095e6 -5.084083753519696e6 0.0
0.0 0.0 0.0

-456535.0359760934 8.794917489026776e6 0.0
8.794917489026776e6 1.3924031297717728e6 0.0
0.0 0.0 0.0

-7.515589132929673e6 2.311653156218877e7 0.0
2.311653156218877e7 -9.334502256028589e6 0.0
0.0 0.0 0.0

-1.194429277146723e7 1.3916597262037138e6 0.0
1.3916597262037138e6 1.640049153317348e7 0.0
0.0 0.0 0.0

1.2496005944785713e6 1.1325960950777315e7 0.0
1.1325960950777315e7 -5.533152714726281e6 0.0
0.0 0.0 0.0

720167.2351416214 1.0525524148814214e7 0.0
1.0525524148814214e7 -7.099109560983753e6 0.0
0.0 0.0 0.0

-238419.2338981633 7.440346610944658e6 0.0
7.440346610944658e6 -4.057478261206937e6 0.0
0.0 0.0 0.0

1.60520396269586e6 6.309893953757456e6 0.0
6.309893953757456e6 -4.677085516664602e6 0.0
0.0 0.0 0.0

675836.9817253775 1.2341583606904853e7 0.0
1.2341583606904853e7 -4.748027579416862e6 0.0
0.0 0.0 0.0

330382.35214939015 1.0370129167607589e7 0.0
1.0370129167607589e7 -9.249610814951736e6 0.0
0.0 0.0 0.0

4.0279382296003764e6 5.982352638688762e6 0.0
5.982352638688762e6 -1.177085292358887e7 0.0
0.0 0.0 0.0

-6.372003520859868e6 1.114906955498086e7 0.0
1.114906955498086e7 5.471350103411822e6 0.0
0.0 0.0 0.0

2.180233473045401e6 7.737604723148724e6 0.0
7.737604723148724e6 -9.725670520452555e6 0.0
0.0 0.0 0.0

4.543398225709173e6 6.483714549604884e6 0.0
6.483714549604884e6 -1.2967202584693037e7 0.0
0.0 0.0 0.0

-2.948802095550782e6 1.1746318200599512e7 0.0
1.1746318200599512e7 3.1862515802738154e6 0.0
0.0 0.0 0.0

-3.4450566220085532e6 7.996636966606861e6 0.0
7.996636966606861e6 -469977.3408591375 0.0
0.0 0.0 0.0

-2.62451116455467e6 5.423294984957227e6 0.0
5.423294984957227e6 1.5741011550103202e6 0.0
0.0 0.0 0.0

-5.615943661294755e6 1.202986021173258e7 0.0
1.202986021173258e7 3.147973834147704e6 0.0
0.0 0.0 0.0

-81927.13240837678 7.489567311521424e6 0.0
7.489567311521424e6 -3.275869897371622e6 0.0
0.0 0.0 0.0

-2.569129320619054e6 6.405690155885559e6 0.0
6.405690155885559e6 840002.2861133929 0.0
0.0 0.0 0.0

-5.6437514432536345e6 -449509.37178552506 0.0
-449509.37178552506 6.679277022155264e6 0.0
0.0 0.0 0.0

-175457.21214527544 8.831620536572523e6 0.0
8.831620536572523e6 -5.25257377010971e6 0.0
0.0 0.0 0.0

-7.344379095052754e6 1.41135816140719e7 0.0
1.41135816140719e7 4.364827247282313e6 0.0
0.0 0.0 0.0

-1.5404714639412186e6 4.72816941495634e6 0.0
4.72816941495634e6 363097.10325278924 0.0
0.0 0.0 0.0

3.101164753624348e6 7.939219787417108e6 0.0
7.939219787417108e6 -1.2290468802881934e7 0.0
0.0 0.0 0.0

-760739.9611690608 7.4101315705983285e6 0.0
7.4101315705983285e6 -2.9076234089724673e6 0.0
0.0 0.0 0.0

13485.715601429343 1.0304454835393315e7 0.0
1.0304454835393315e7 4.0045724012495345e6 0.0
0.0 0.0 0.0

9.130545631039431e6 1.3036871104710422e7 0.0
1.3036871104710422e7 2.4890839472739585e6 0.0
0.0 0.0 0.0

1.3990211023646276e6 6.297499993071845e6 0.0
6.297499993071845e6 -6.221760012109339e6 0.0
0.0 0.0 0.0

-198052.8180056531 1.0494412397625344e7 0.0
1.0494412397625344e7 -9.89339039746159e6 0.0
0.0 0.0 0.0

1.496731943784412e6 6.434904025896616e6 0.0
6.434904025896616e6 -6.588310843293445e6 0.0
0.0 0.0 0.0

1.8409829739795998e6 5.580384879879991e6 0.0
5.580384879879991e6 -6.88598741692415e6 0.0
0.0 0.0 0.0

1.0045263869288588e7 1.0127360965806056e7 0.0
1.0127360965806056e7 -35279.25804705219 0.0
0.0 0.0 0.0

-1.3898567839946289e7 1.3976445471467018e7 0.0
1.3976445471467018e7 9.614575256533163e6 0.0
0.0 0.0 0.0

643398.4398762588 1.0186633815086437e7 0.0
1.0186633815086437e7 -9.667109468988344e6 0.0
0.0 0.0 0.0

-4.085581182766689e6 1.154897768928993e7 0.0
1.154897768928993e7 425237.0833715529 0.0
0.0 0.0 0.0

3.157135246766013e6 5.9233539366928805e6 0.0
5.9233539366928805e6 -9.002033682458932e6 0.0
0.0 0.0 0.0

-5.864327418092453e6 1.200279122805954e7 0.0
1.200279122805954e7 3.7980471866470133e6 0.0
0.0 0.0 0.0

-4.311575794074009e6 1.658756317042232e7 0.0
1.658756317042232e7 -662730.0155377422 0.0
0.0 0.0 0.0

-1.057621185109933e7 2.4768748324484574e6 0.0
2.4768748324484574e6 1.2598774722512644e7 0.0
0.0 0.0 0.0

-9.385856459682157e6 2.189415145350892e7 0.0
2.189415145350892e7 -2.646795913923691e6 0.0
0.0 0.0 0.0

-586506.3927203239 1.1603957310617916e7 0.0
1.1603957310617916e7 -969737.0525350049 0.0
0.0 0.0 0.0

3.763032727795158e6 5.8035027496858705e6 0.0
5.8035027496858705e6 -1.0766987169895753e7 0.0
0.0 0.0 0.0

8.183545677222125e6 9.166198620184656e6 0.0
9.166198620184656e6 -4.3436526739017535e6 0.0
0.0 0.0 0.0

-3.0872513756679418e6 1.1541286518144308e7 0.0
1.1541286518144308e7 3.199272736645096e6 0.0
0.0 0.0 0.0

2.8996767147365864e6 6.9064111690635225e6 0.0
6.9064111690635225e6 -1.0353892410761174e7 0.0
0.0 0.0 0.0

-4.318745225632946e6 1.2464225750080846e7 0.0
1.2464225750080846e7 -51289.157656879164 0.0
0.0 0.0 0.0

585324.1006498756 1.141832109808181e7 0.0
1.141832109808181e7 -5.49203634299012e6 0.0
0.0 0.0 0.0

-1.6142880037538842e6 1.0150611890891174e7 0.0
1.0150611890891174e7 -2.0844392370079078e6 0.0
0.0 0.0 0.0

1.0365301816757442e6 1.0581926767564712e7 0.0
1.0581926767564712e7 -6.347751401849872e6 0.0
0.0 0.0 0.0

61186.95978776086 1.0000256396889005e7 0.0
1.0000256396889005e7 4.2944696909245625e6 0.0
0.0 0.0 0.0

4.128262739065677e6 7.911892464039713e6 0.0
7.911892464039713e6 -1.5045797998357318e7 0.0
0.0 0.0 0.0

-5.109837623665283e6 1.2245921617710503e7 0.0
1.2245921617710503e7 4.678172063943813e6 0.0
0.0 0.0 0.0

2.157032976759278e6 6.2626260762402145e6 0.0
6.2626260762402145e6 -4.492782612417928e6 0.0
0.0 0.0 0.0

-7.027070467324181e6 5.814016662865351e6 0.0
5.814016662865351e6 9.50384757553466e6 0.0
0.0 0.0 0.0

1.4591665349887004e6 5.616061618501688e6 0.0
5.616061618501688e6 -5.730579828622899e6 0.0
0.0 0.0 0.0

-7.345948697308551e6 -2.126218356463517e6 0.0
-2.126218356463517e6 1.0168644900376137e7 0.0
0.0 0.0 0.0

250257.11015163315 9.751057912279215e6 0.0
9.751057912279215e6 -6.514266126571929e6 0.0
0.0 0.0 0.0

2.936977355018737e6 4.314154108838791e6 0.0
4.314154108838791e6 -5.759722321345998e6 0.0
0.0 0.0 0.0

-292353.9959512014 1.0924765009266201e7 0.0
1.0924765009266201e7 1.8004204324412327e6 0.0
0.0 0.0 0.0

-6.408579168619585e6 1.2125787568155972e7 0.0
1.2125787568155972e7 4.576454980365251e6 0.0
0.0 0.0 0.0

-7.928848216587022e6 -1.994106738052245e6 0.0
-1.994106738052245e6 9.945543186521944e6 0.0
0.0 0.0 0.0

-1.6933031746120162e6 1.154712673179864e7 0.0
1.154712673179864e7 1.0380320621905515e6 0.0
0.0 0.0 0.0

875625.4516697661 1.2788809306529032e7 0.0
1.2788809306529032e7 -4.826124617211806e6 0.0
0.0 0.0 0.0

-4.775218210458544e6 1.1003609127630427e7 0.0
1.1003609127630427e7 1.5063589995492606e6 0.0
0.0 0.0 0.0

-3.1637726516491617e6 1.2655691917081993e7 0.0
1.2655691917081993e7 757782.8406234593 0.0
0.0 0.0 0.0

-4.621529086140662e6 1.1003757698404834e7 0.0
1.1003757698404834e7 2.0398012420530093e6 0.0
0.0 0.0 0.0

-1.0100926924676981e6 9.558685172524713e6 0.0
9.558685172524713e6 -7.747967455821883e6 0.0
0.0 0.0 0.0

3.3479253301995266e6 1.4068883505046193e7 0.0
1.4068883505046193e7 -8.814277070451401e6 0.0
0.0 0.0 0.0

605021.4571827976 1.0460612364031358e7 0.0
1.0460612364031358e7 -7.190200690493559e6 0.0
0.0 0.0 0.0

-4.473030755482871e6 1.046086128439643e7 0.0
1.046086128439643e7 6.006340496706556e6 0.0
0.0 0.0 0.0

-4.267524752280186e6 1.0302234392152833e7 0.0
1.0302234392152833e7 5.785194620642345e6 0.0
0.0 0.0 0.0

1.158979875864116e6 8.030197739969313e6 0.0
8.030197739969313e6 -7.211875153444489e6 0.0
0.0 0.0 0.0

-2.6023040897727227e6 5.981508378071533e6 0.0
5.981508378071533e6 425863.92857945175 0.0
0.0 0.0 0.0

-8.50870768270676e6 1.3841574676310824e7 0.0
1.3841574676310824e7 5.920755244310158e6 0.0
0.0 0.0 0.0

-6.813680202809805e6 9.658270645596474e6 0.0
9.658270645596474e6 5.959293519158124e6 0.0
0.0 0.0 0.0

-8.064877092915317e6 1.5988916635707341e7 0.0
1.5988916635707341e7 4.629579796986031e6 0.0
0.0 0.0 0.0

117631.42098599253 9.784885475608762e6 0.0
9.784885475608762e6 -7.0357942738773925e6 0.0
0.0 0.0 0.0

-9.171735835719781e6 1.1866898798559617e7 0.0
1.1866898798559617e7 492774.2779803951 0.0
0.0 0.0 0.0

4.093144075975121e6 6.473134549590515e6 0.0
6.473134549590515e6 -1.1721075644601278e7 0.0
0.0 0.0 0.0

-4.1796482255706256e6 1.752162332379338e7 0.0
1.752162332379338e7 -480318.60785779904 0.0
0.0 0.0 0.0

-1.161540549704554e7 1.027708059416333e7 0.0
1.027708059416333e7 8.989081953956157e6 0.0
0.0 0.0 0.0

-2.3050963457539044e6 1.1324450402954172e7 0.0
1.1324450402954172e7 3.4126059925122326e6 0.0
0.0 0.0 0.0

-1.6141945529168902e7 9.427871902384445e6 0.0
9.427871902384445e6 9.850463175252758e6 0.0
0.0 0.0 0.0

3.8860697747914726e6 5.770500941094255e6 0.0
5.770500941094255e6 -1.0972184355843171e7 0.0
0.0 0.0 0.0

-6.551311424249416e6 9.745757273266235e6 0.0
9.745757273266235e6 7.032405380022187e6 0.0
0.0 0.0 0.0

-1.6679175029826309e6 4.418231407575984e6 0.0
4.418231407575984e6 -303278.6130252066 0.0
0.0 0.0 0.0

1.2705049109458593e6 5.31084442657326e6 0.0
5.31084442657326e6 -6.151481328365757e6 0.0
0.0 0.0 0.0

304299.21363288397 1.1625768638078248e7 0.0
1.1625768638078248e7 -5.760909253053314e6 0.0
0.0 0.0 0.0

-1.395334456501163e7 1.417337745436124e7 0.0
1.417337745436124e7 1.0496940696381852e7 0.0
0.0 0.0 0.0

-9.584351374741578e6 1.148131983269093e6 0.0
1.148131983269093e6 7.4598248425653335e6 0.0
0.0 0.0 0.0

-1.3448552220069824e7 1.0568936498864496e7 0.0
1.0568936498864496e7 4.781151632868141e6 0.0
0.0 0.0 0.0

7.566477827140628e6 9.647100345006524e6 0.0
9.647100345006524e6 1.7742779200164434e6 0.0
0.0 0.0 0.0

1.2872932272131722e6 1.1629070600118762e7 0.0
1.1629070600118762e7 -1.7522426587502908e7 0.0
0.0 0.0 0.0

675452.827184 1.0936391521610523e7 0.0
1.0936391521610523e7 -6.51308506195258e6 0.0
0.0 0.0 0.0

-4.389398230281201e6 1.0346926096638964e7 0.0
1.0346926096638964e7 6.063999176736641e6 0.0
0.0 0.0 0.0

-2.7421243768465677e6 1.2497062107400488e7 0.0
1.2497062107400488e7 -2.5119032886811793e6 0.0
0.0 0.0 0.0

-5.453012745561477e6 1.2143964978411896e7 0.0
1.2143964978411896e7 2.583579899100678e6 0.0
0.0 0.0 0.0

-162729.17384634257 1.0412695074613025e7 0.0
1.0412695074613025e7 166030.9585708475 0.0
0.0 0.0 0.0

-7.985422331206858e6 1.5469752693191487e7 0.0
1.5469752693191487e7 4.614348820315445e6 0.0
0.0 0.0 0.0

-2.0349425580580486e6 4.87284546160809e6 0.0
4.87284546160809e6 543853.115937134 0.0
0.0 0.0 0.0

1.1201372946708426e7 1.2452835789704809e7 0.0
1.2452835789704809e7 -3.6640648743756786e6 0.0
0.0 0.0 0.0

-5.377402000104755e6 1.339435821138227e7 0.0
1.339435821138227e7 -79930.7781341367 0.0
0.0 0.0 0.0

-158748.84038714986 1.0229452658700474e7 0.0
1.0229452658700474e7 640951.3522491212 0.0
0.0 0.0 0.0

-4.453266427947923e6 1.164690297665284e7 0.0
1.164690297665284e7 1.993391362720267e6 0.0
0.0 0.0 0.0

-8.180860028372588e6 8.409868773073616e6 0.0
8.409868773073616e6 1.0349134030942103e7 0.0
0.0 0.0 0.0

-4.572879342440573e6 1.2174672016291184e7 0.0
1.2174672016291184e7 156473.50547396718 0.0
0.0 0.0 0.0

2.531280335453219e6 7.3432929875935875e6 0.0
7.3432929875935875e6 -9.385822947303396e6 0.0
0.0 0.0 0.0

-5.015675545143285e6 9.688548416945754e6 0.0
9.688548416945754e6 2.589540346857245e6 0.0
0.0 0.0 0.0

-2.7824321951856273e6 1.2136057904494498e7 0.0
1.2136057904494498e7 1.2253045130387377e6 0.0
0.0 0.0 0.0

983289.2394169937 7.112438336162062e6 0.0
7.112438336162062e6 -5.450824673689992e6 0.0
0.0 0.0 0.0

-5.339856581896646e6 1.2052761392061887e7 0.0
1.2052761392061887e7 4.710235096519132e6 0.0
0.0 0.0 0.0

-1.1061747135888394e7 -523103.5032461746 0.0
-523103.5032461746 1.913455034834575e7 0.0
0.0 0.0 0.0

-349396.377446854 7.388493820445939e6 0.0
7.388493820445939e6 -2.8991935662187072e6 0.0
0.0 0.0 0.0

-7.189086486009058e6 9.499158652889589e6 0.0
9.499158652889589e6 4.995728137168836e6 0.0
0.0 0.0 0.0

6.685310653699957e6 1.3159138363882817e7 0.0
1.3159138363882817e7 2.832312743666931e6 0.0
0.0 0.0 0.0

1.2682229333238318e6 9.690972057188546e6 0.0
9.690972057188546e6 -8.942286118876282e6 0.0
0.0 0.0 0.0

3.04283144337784e6 6.742427401464799e6 0.0
6.742427401464799e6 -9.81139462755955e6 0.0
0.0 0.0 0.0

3.4307273537434647e6 9.855317707389412e6 0.0
9.855317707389412e6 -3.0542273019776586e6 0.0
0.0 0.0 0.0

-6.485718467358341e6 3.8874348309443616e6 0.0
3.8874348309443616e6 1.0131840692578468e7 0.0
0.0 0.0 0.0

-5.028193701165481e6 1.1711178124151632e7 0.0
1.1711178124151632e7 2.2698460375262573e6 0.0
0.0 0.0 0.0

-3.825786928839655e6 1.0890984210350549e7 0.0
1.0890984210350549e7 -791353.2934807499 0.0
0.0 0.0 0.0

-3.737010614082967e6 1.1285291862755653e7 0.0
1.1285291862755653e7 -1.5560920751490532e6 0.0
0.0 0.0 0.0

-434044.4091938856 1.1006320005698076e7 0.0
1.1006320005698076e7 -2.056411982649099e6 0.0
0.0 0.0 0.0

382354.71224603313 7.292065434356373e6 0.0
7.292065434356373e6 -5.205235361024635e6 0.0
0.0 0.0 0.0

6.835024690885046e6 1.0974474239138009e7 0.0
1.0974474239138009e7 -2.350434935908575e6 0.0
0.0 0.0 0.0

-155204.67802859473 1.055146190954804e7 0.0
1.055146190954804e7 -36718.300527838735 0.0
0.0 0.0 0.0

-8.201447663741176e6 1.341035602261666e7 0.0
1.341035602261666e7 6.0023093804579545e6 0.0
0.0 0.0 0.0

-1.9002732500092026e7 4.396847158025681e6 0.0
4.396847158025681e6 1.1150968862970375e7 0.0
0.0 0.0 0.0

1.2783753848025396e6 5.391812948435355e6 0.0
5.391812948435355e6 -5.655232890097494e6 0.0
0.0 0.0 0.0

-472650.5518746688 1.1402644282346189e7 0.0
1.1402644282346189e7 -88533.52608840988 0.0
0.0 0.0 0.0

-396237.0807612741 9.307138724889284e6 0.0
9.307138724889284e6 -7.419032853136672e6 0.0
0.0 0.0 0.0

210869.37010399485 1.0787235487598503e7 0.0
1.0787235487598503e7 -7.484274390543744e6 0.0
0.0 0.0 0.0

-3.278675651179362e6 771069.8189959754 0.0
771069.8189959754 2.500558527327746e6 0.0
0.0 0.0 0.0

58280.1538789717 8.864238457990753e6 0.0
8.864238457990753e6 -6.005257226405692e6 0.0
0.0 0.0 0.0

-961233.0787093216 1.119210478716188e7 0.0
1.119210478716188e7 -9.910011350129036e6 0.0
0.0 0.0 0.0

292653.9463045583 8.745835750983816e6 0.0
8.745835750983816e6 -6.357680156337501e6 0.0
0.0 0.0 0.0

-23506.7778977782 1.1967651248011678e7 0.0
1.1967651248011678e7 -5.301823566535738e6 0.0
0.0 0.0 0.0

5.938725761211225e6 1.1946757595880985e7 0.0
1.1946757595880985e7 3.4294234892946286e6 0.0
0.0 0.0 0.0

-9.873737702236928e6 5.373116695105791e6 0.0
5.373116695105791e6 1.3450538409741772e7 0.0
0.0 0.0 0.0

-3.470440486448883e6 1.263681916664507e7 0.0
1.263681916664507e7 686787.6677848629 0.0
0.0 0.0 0.0

-376992.78342584975 1.0707985307090748e7 0.0
1.0707985307090748e7 -1.4294764839264574e6 0.0
0.0 0.0 0.0

-4.420227453907044e6 9.611891251291782e6 0.0
9.611891251291782e6 857467.7312220384 0.0
0.0 0.0 0.0

4.784653452692187e6 1.2883694048387896e7 0.0
1.2883694048387896e7 4.0221766399162356e6 0.0
0.0 0.0 0.0

-5.012795563389429e6 1.2176723524089726e7 0.0
1.2176723524089726e7 4.872379762124427e6 0.0
0.0 0.0 0.0

1.9389192338848233e6 1.0287375766556242e7 0.0
1.0287375766556242e7 -4.837399497228148e6 0.0
0.0 0.0 0.0

-6.299203395417025e6 1.2930832135698028e7 0.0
1.2930832135698028e7 3.0878577500296943e6 0.0
0.0 0.0 0.0

-5.171381470397167e6 9.828860877307927e6 0.0
9.828860877307927e6 3.329489963742821e6 0.0
0.0 0.0 0.0

-1.2510712047378303e7 -3.919375804152418e6 0.0
-3.919375804152418e6 3.458083171479821e7 0.0
0.0 0.0 0.0

-1.9617914032599998e6 1.1644424766058804e7 0.0
1.1644424766058804e7 -4.445795428592398e6 0.0
0.0 0.0 0.0

-6.208221086844389e6 1.2293607516799113e7 0.0
1.2293607516799113e7 4.1483830634605503e6 0.0
0.0 0.0 0.0

2.802836318945501e6 4.358086391278992e6 0.0
4.358086391278992e6 -4.302848673418118e6 0.0
0.0 0.0 0.0

-6.639277088431558e6 6.9300777285959385e6 0.0
6.9300777285959385e6 9.16962770719552e6 0.0
0.0 0.0 0.0

-2.6223707136271694e6 7.491592740057468e6 0.0
7.491592740057468e6 1.786969443337915e6 0.0
0.0 0.0 0.0

2.1716674280057224e6 5.747987967100948e6 0.0
5.747987967100948e6 -7.864126924401799e6 0.0
0.0 0.0 0.0

-8.717329505024662e6 1.4045748961698405e7 0.0
1.4045748961698405e7 6.461349570284766e6 0.0
0.0 0.0 0.0

185059.73545689392 8.81765345436883e6 0.0
8.81765345436883e6 -5.5279097408014415e6 0.0
0.0 0.0 0.0

-6.644501874896737e6 9.556836094994562e6 0.0
9.556836094994562e6 7.373878326576991e6 0.0
0.0 0.0 0.0

4.500972620167961e6 7.683601154181988e6 0.0
7.683601154181988e6 -1.3835745863501934e7 0.0
0.0 0.0 0.0

-7.915683269339785e6 1.317459503181026e7 0.0
1.317459503181026e7 5.852446895186799e6 0.0
0.0 0.0 0.0

-1.6637519354727129e6 1.0090201590307923e7 0.0
1.0090201590307923e7 -8.189128539718984e6 0.0
0.0 0.0 0.0

2.695524589515999e6 6.1782362217011e6 0.0
6.1782362217011e6 -5.710761179079353e6 0.0
0.0 0.0 0.0

-114544.62107155588 7.317019420889316e6 0.0
7.317019420889316e6 -3.3002808496833853e6 0.0
0.0 0.0 0.0

-1.3042682552046027e7 1.064562948185436e7 0.0
1.064562948185436e7 8.498742849988632e6 0.0
0.0 0.0 0.0

-75570.85927706043 1.0378904999072766e7 0.0
1.0378904999072766e7 991941.4341061455 0.0
0.0 0.0 0.0

-1.2174683075511113e7 1.4310680317992263e7 0.0
1.4310680317992263e7 8.860852716115642e6 0.0
0.0 0.0 0.0

-3.4405316947945757e6 4.027872217196235e6 0.0
4.027872217196235e6 3.644073815776987e6 0.0
0.0 0.0 0.0

4.1666547057565963e6 9.05241839563523e6 0.0
9.05241839563523e6 -1.4379215418015495e7 0.0
0.0 0.0 0.0

1.6524632364495438e7 9.018407429862143e6 0.0
9.018407429862143e6 -9.885736228520617e6 0.0
0.0 0.0 0.0

-5.367921090255777e6 1.1963669748866793e7 0.0
1.1963669748866793e7 2.6618588484325847e6 0.0
0.0 0.0 0.0

-6.720636473842203e6 1.2323642921093414e7 0.0
1.2323642921093414e7 5.294900249109632e6 0.0
0.0 0.0 0.0

-5.222976797879536e6 1.0746156246918295e7 0.0
1.0746156246918295e7 3.213050894124374e6 0.0
0.0 0.0 0.0

-3.9721747778157527e6 1.3951387319147268e7 0.0
1.3951387319147268e7 1.633505223480861e7 0.0
0.0 0.0 0.0

2.8063968990826528e6 6.058829791387269e6 0.0
6.058829791387269e6 -9.211479188440902e6 0.0
0.0 0.0 0.0

-943375.7672134751 8.066596133322809e6 0.0
8.066596133322809e6 -3.300158218935696e6 0.0
0.0 0.0 0.0

-6.336856830091931e6 1.6613055233677264e7 0.0
1.6613055233677264e7 99452.68431129772 0.0
0.0 0.0 0.0

2.2358312711411095e6 8.567206871667422e6 0.0
8.567206871667422e6 -1.085411375720942e7 0.0
0.0 0.0 0.0

-1.2033617076990841e7 1.8329475171594066e6 0.0
1.8329475171594066e6 8.502384853557874e6 0.0
0.0 0.0 0.0

-3.135906674154654e6 1.1803510311865615e7 0.0
1.1803510311865615e7 1.0217069494783718e6 0.0
0.0 0.0 0.0

-762698.2025776214 7.811904812132609e6 0.0
7.811904812132609e6 -1.1183058309703092e6 0.0
0.0 0.0 0.0

443364.71399894194 8.740350048762081e6 0.0
8.740350048762081e6 -5.852345030540235e6 0.0
0.0 0.0 0.0

-3.551955611116133e6 1.2616779774255732e7 0.0
1.2616779774255732e7 7.69649347204843e6 0.0
0.0 0.0 0.0

-3.029019950576443e6 1.6826285469632607e7 0.0
1.6826285469632607e7 -2.0708529405722963e6 0.0
0.0 0.0 0.0

-1.5492688135850169e7 -4.910610282029836e6 0.0
-4.910610282029836e6 8.669831928007267e6 0.0
0.0 0.0 0.0

3.9680803446451863e6 1.9815071166831393e7 0.0
1.9815071166831393e7 -9.701210326644726e6 0.0
0.0 0.0 0.0

-4.933235739230475e6 1.7546558104691327e7 0.0
1.7546558104691327e7 -3.1530617530166307e6 0.0
0.0 0.0 0.0

1.133991544156479e6 5.424997802849693e6 0.0
5.424997802849693e6 -5.293028434240084e6 0.0
0.0 0.0 0.0

-6.5355079483300075e6 1.2172529997275831e7 0.0
1.2172529997275831e7 4.11092409012529e6 0.0
0.0 0.0 0.0

9.26321606114938e6 1.0209691012966404e7 0.0
1.0209691012966404e7 -265632.92929434543 0.0
0.0 0.0 0.0

-1.2733830909180734e7 1.3750297227039728e6 0.0
1.3750297227039728e6 2.0693619774830215e7 0.0
0.0 0.0 0.0

-2.271255960386242e6 1.1562881166374726e7 0.0
1.1562881166374726e7 -3.959120946528899e6 0.0
0.0 0.0 0.0

3.2288391872927668e6 1.1397730079809867e7 0.0
1.1397730079809867e7 3.446165444358061e6 0.0
0.0 0.0 0.0

428561.7728465467 1.1723290505472466e7 0.0
1.1723290505472466e7 -5.6830063802596545e6 0.0
0.0 0.0 0.0

3.3560016418062793e6 6.238102698605052e6 0.0
6.238102698605052e6 -9.857004571756456e6 0.0
0.0 0.0 0.0

-5.262063462248436e6 1.203274973052889e7 0.0
1.203274973052889e7 2.0532667152970175e6 0.0
0.0 0.0 0.0

-52621.7098141741 9.470171725526126e6 0.0
9.470171725526126e6 -7.406504745820093e6 0.0
0.0 0.0 0.0

-5.955465627796776e6 1.3907293142819531e7 0.0
1.3907293142819531e7 1.125167457432673e6 0.0
0.0 0.0 0.0

-1.1497206750574816e7 4.020833774044076e6 0.0
4.020833774044076e6 2.2609519447712928e7 0.0
0.0 0.0 0.0

1.0434576226962502e6 1.0020774696178967e7 0.0
1.0020774696178967e7 -6.201313691885512e6 0.0
0.0 0.0 0.0

1.3295509516902869e6 7.940801450723745e6 0.0
7.940801450723745e6 -7.851300507029743e6 0.0
0.0 0.0 0.0

-452949.3436685301 1.3171631167848276e7 0.0
1.3171631167848276e7 -4.390199150311948e6 0.0
0.0 0.0 0.0

-112287.24457928818 9.053915367209101e6 0.0
9.053915367209101e6 -6.1831477030062955e6 0.0
0.0 0.0 0.0

-1.0121096892593328e7 -3.1164906859080275e6 0.0
-3.1164906859080275e6 1.7948225783902314e7 0.0
0.0 0.0 0.0

-6.311089248476894e6 1.2218135906872889e7 0.0
1.2218135906872889e7 1.058391538878137e7 0.0
0.0 0.0 0.0

2.5849010273582973e6 8.568345742628835e6 0.0
8.568345742628835e6 -1.1352550282392167e7 0.0
0.0 0.0 0.0

-5.213467104013918e6 1.373169709245534e7 0.0
1.373169709245534e7 906749.4069788023 0.0
0.0 0.0 0.0

-3.673565866098707e6 1.030988426299098e7 0.0
1.030988426299098e7 5.850363882858293e6 0.0
0.0 0.0 0.0

1.6893600576287317e6 7.453856960237961e6 0.0
7.453856960237961e6 -7.49211079271983e6 0.0
0.0 0.0 0.0

1.1190989399400609e7 1.2015098968650885e7 0.0
1.2015098968650885e7 2.1553008934944295e6 0.0
0.0 0.0 0.0

-5.087062501326598e6 1.3349509399850616e7 0.0
1.3349509399850616e7 900502.5708599854 0.0
0.0 0.0 0.0

-4.9708791390016135e6 471543.9868707918 0.0
471543.9868707918 5.065148695042877e6 0.0
0.0 0.0 0.0

-1.0963709832862135e7 -2.727287347532298e6 0.0
-2.727287347532298e6 1.5340805261171963e7 0.0
0.0 0.0 0.0

2.7407430884089884e6 5.5041803703659205e6 0.0
5.5041803703659205e6 -8.362779075304143e6 0.0
0.0 0.0 0.0

-5.435361474799999e6 1.0445868617953025e7 0.0
1.0445868617953025e7 2.837041574401927e6 0.0
0.0 0.0 0.0

-947750.8806949509 1.1011440496357312e7 0.0
1.1011440496357312e7 -2.131011242880845e6 0.0
0.0 0.0 0.0

-2.8653002663849564e6 1.2382263088623654e7 0.0
1.2382263088623654e7 -3.1830166451900457e6 0.0
0.0 0.0 0.0

-1.1153398218720811e6 2.7111352987053916e6 0.0
2.7111352987053916e6 945428.051410482 0.0
0.0 0.0 0.0

-3.5489556348921424e6 1.1322068020842604e7 0.0
1.1322068020842604e7 -909865.921258625 0.0
0.0 0.0 0.0

-1.088284528036625e7 -3.759879079262589e6 0.0
-3.759879079262589e6 1.6420020033076163e7 0.0
0.0 0.0 0.0

3.4419246813356075e6 9.1630162890256e6 0.0
9.1630162890256e6 -1.3189804859793354e6 0.0
0.0 0.0 0.0

2.187315425999044e6 9.21308455938674e6 0.0
9.21308455938674e6 -1.0823456631366005e7 0.0
0.0 0.0 0.0

2.924791257487152e6 8.458768714082623e6 0.0
8.458768714082623e6 -1.1211396390912218e7 0.0
0.0 0.0 0.0

-7.081894629179739e6 6.462845842247552e6 0.0
6.462845842247552e6 9.82316971269017e6 0.0
0.0 0.0 0.0

-3.553617847575229e6 9.02619611139367e6 0.0
9.02619611139367e6 1.277119667311761e6 0.0
0.0 0.0 0.0

2.118759731273309e6 6.022613486496671e6 0.0
6.022613486496671e6 -4.217364465828628e6 0.0
0.0 0.0 0.0

1.0073866658135499e6 1.0069430607906573e7 0.0
1.0069430607906573e7 -6.124310601285867e6 0.0
0.0 0.0 0.0

-6.486871408083715e6 1.1710927997947061e7 0.0
1.1710927997947061e7 5.125821859190544e6 0.0
0.0 0.0 0.0

-2.2085256320779677e6 1.369246810117372e7 0.0
1.369246810117372e7 9.232165215501463e6 0.0
0.0 0.0 0.0

2.099500178515039e6 1.2865546556195626e7 0.0
1.2865546556195626e7 -5.020462872731424e6 0.0
0.0 0.0 0.0

-1.1038156682344299e7 -4.989196900417593e6 0.0
-4.989196900417593e6 3.3025771857079275e7 0.0
0.0 0.0 0.0

-1.0643268376031522e7 3.0211437496891883e6 0.0
3.0211437496891883e6 1.6866762239452958e7 0.0
0.0 0.0 0.0

-5.967524105574868e6 7.409954191589078e6 0.0
7.409954191589078e6 6.268136576299693e6 0.0
0.0 0.0 0.0

-1.421784374542078e6 8.709333761135915e6 0.0
8.709333761135915e6 798972.8847241917 0.0
0.0 0.0 0.0

-1.5300261906542813e6 3.893675484801512e6 0.0
3.893675484801512e6 364816.66687045956 0.0
0.0 0.0 0.0

-8.214352871519032e6 7.366803544860563e6 0.0
7.366803544860563e6 4.420288987897057e6 0.0
0.0 0.0 0.0

2.966616122077249e6 6.251518540722066e6 0.0
6.251518540722066e6 -8.897754828274637e6 0.0
0.0 0.0 0.0

-601598.484291005 1.073760262415357e7 0.0
1.073760262415357e7 -9.64891752241941e6 0.0
0.0 0.0 0.0

-219085.8313855522 1.0783267875258053e7 0.0
1.0783267875258053e7 -378912.51065660955 0.0
0.0 0.0 0.0

-598301.5493657235 1.6287187404384123e7 0.0
1.6287187404384123e7 -7.141423450109727e6 0.0
0.0 0.0 0.0

768552.3040729552 1.191826963918221e7 0.0
1.191826963918221e7 -5.380286432518759e6 0.0
0.0 0.0 0.0

-8.815421828281155e6 1.2069063049059598e7 0.0
1.2069063049059598e7 1.4544301949402732e6 0.0
0.0 0.0 0.0

-5.873588996557564e6 1.232541954130367e7 0.0
1.232541954130367e7 2.5065217496469757e6 0.0
0.0 0.0 0.0

620599.4207606541 6.8892235522541385e6 0.0
6.8892235522541385e6 -3.706238381239507e6 0.0
0.0 0.0 0.0

-1.2818751895920506e7 1.4592641805117702e7 0.0
1.4592641805117702e7 9.416180625283359e6 0.0
0.0 0.0 0.0

-3.5641528417038955e6 9.381480167297563e6 0.0
9.381480167297563e6 1.109506162336805e6 0.0
0.0 0.0 0.0

-2.771317251590191e6 5.228307718663801e6 0.0
5.228307718663801e6 1.00860877112441e6 0.0
0.0 0.0 0.0

-3.7726184952547313e6 9.483239643658584e6 0.0
9.483239643658584e6 491130.5012374441 0.0
0.0 0.0 0.0

920357.6542677975 2.7512639158481318e6 0.0
2.7512639158481318e6 -3.817508927013646e6 0.0
0.0 0.0 0.0

-1.7838272331153082e6 4.320619109780026e6 0.0
4.320619109780026e6 -2.768322954719374e6 0.0
0.0 0.0 0.0

1.9110050831349948e6 9.30156079770035e6 0.0
9.30156079770035e6 -9.880615201052934e6 0.0
0.0 0.0 0.0

-4.0171640956155346e6 1.2683285247212363e7 0.0
1.2683285247212363e7 841739.8735155405 0.0
0.0 0.0 0.0

-4.1205586834574942e6 1.0741105389647005e7 0.0
1.0741105389647005e7 5.628841793719444e6 0.0
0.0 0.0 0.0

-694602.7247787237 1.0994406199759072e7 0.0
1.0994406199759072e7 -2.0132312617957434e6 0.0
0.0 0.0 0.0

2.9720910675293957e6 6.164862369887181e6 0.0
6.164862369887181e6 -5.626902102968723e6 0.0
0.0 0.0 0.0

-4.799160604280854e6 1.1652017131695785e7 0.0
1.1652017131695785e7 410369.33560888586 0.0
0.0 0.0 0.0

-6.390700694290244e6 1.2942934256878685e7 0.0
1.2942934256878685e7 2.7384286565049873e6 0.0
0.0 0.0 0.0

-434728.13891934196 1.3124507115550531e7 0.0
1.3124507115550531e7 -4.328779210072599e6 0.0
0.0 0.0 0.0

-3.415427043088403e6 6.008282194152582e6 0.0
6.008282194152582e6 1.8090824431711223e6 0.0
0.0 0.0 0.0

607828.1234266916 1.0323588540069189e7 0.0
1.0323588540069189e7 -7.912208973627336e6 0.0
0.0 0.0 0.0

-8.893586664079359e6 1.343614316295096e7 0.0
1.343614316295096e7 6.701014819936639e6 0.0
0.0 0.0 0.0

-8.337040406420447e6 1.3360395622883132e7 0.0
1.3360395622883132e7 6.186767929086872e6 0.0
0.0 0.0 0.0

733635.5653918106 1.010103779097215e7 0.0
1.010103779097215e7 -9.429169116235675e6 0.0
0.0 0.0 0.0

-65900.83893871587 9.344320013652384e6 0.0
9.344320013652384e6 -6.784222739194452e6 0.0
0.0 0.0 0.0

-389423.83981793583 1.1110225548797626e7 0.0
1.1110225548797626e7 -369294.8359218586 0.0
0.0 0.0 0.0

1.927106839972091e6 7.926316983433105e6 0.0
7.926316983433105e6 -9.35562054153371e6 0.0
0.0 0.0 0.0

-9.942474143153995e6 3.134878904582516e6 0.0
3.134878904582516e6 1.3490124764567431e7 0.0
0.0 0.0 0.0

3.294659148394541e6 1.0348495363780806e7 0.0
1.0348495363780806e7 -1.4055513682743032e7 0.0
0.0 0.0 0.0

-6.911313580027657e6 1.854421029275084e7 0.0
1.854421029275084e7 -1.8074281282546308e6 0.0
0.0 0.0 0.0

-376307.4946123345 1.1573550753128631e7 0.0
1.1573550753128631e7 3.285968599007328e6 0.0
0.0 0.0 0.0

-3.5547676947598383e6 1.2640783560725845e7 0.0
1.2640783560725845e7 8.049497868703213e6 0.0
0.0 0.0 0.0

1.7186477266504597e6 1.1045066084095953e7 0.0
1.1045066084095953e7 4.656172808078441e6 0.0
0.0 0.0 0.0

-455240.66947211383 8.338152726237161e6 0.0
8.338152726237161e6 -1.6110625554192958e6 0.0
0.0 0.0 0.0

-4.503386696959663e6 1.154854192548587e7 0.0
1.154854192548587e7 543885.1955209081 0.0
0.0 0.0 0.0

-1.0831055284892822e7 1.0159037297024079e7 0.0
1.0159037297024079e7 1.5639876474929494e6 0.0
0.0 0.0 0.0

304760.7575454796 8.02335640748542e6 0.0
8.02335640748542e6 -2.492485816685172e6 0.0
0.0 0.0 0.0

-1.8879213193968711e6 1.2007257971293274e7 0.0
1.2007257971293274e7 955033.9586141435 0.0
0.0 0.0 0.0

2.304565131834311e6 5.751256108997244e6 0.0
5.751256108997244e6 -7.400103777351612e6 0.0
0.0 0.0 0.0

-9.210540226864468e6 7.551441452748022e6 0.0
7.551441452748022e6 5.0875506439989135e6 0.0
0.0 0.0 0.0

-1.5380501716541644e7 1.3397433233834352e7 0.0
1.3397433233834352e7 1.1314609686380245e7 0.0
0.0 0.0 0.0

-2.466107535854934e6 2.872877215532636e6 0.0
2.872877215532636e6 2.8790320923002074e6 0.0
0.0 0.0 0.0

-3.4876137698750794e6 1.6570528300357893e7 0.0
1.6570528300357893e7 -3.452924861570093e6 0.0
0.0 0.0 0.0

-1.3038236915889349e7 4.687086745387196e6 0.0
4.687086745387196e6 3.635471076819639e7 0.0
0.0 0.0 0.0

-4.596711428152984e6 277671.0522941772 0.0
277671.0522941772 4.720607161102293e6 0.0
0.0 0.0 0.0

-1.9987176070859057e6 1.165783684563064e7 0.0
1.165783684563064e7 -1.0645891256313607e7 0.0
0.0 0.0 0.0

997421.4145224197 1.0993347081654439e7 0.0
1.0993347081654439e7 -6.430560010808963e6 0.0
0.0 0.0 0.0

-6.74303249861843e6 1.3230688633885117e7 0.0
1.3230688633885117e7 3.411281476639988e6 0.0
0.0 0.0 0.0

-6.516511412139723e6 6.787991763376424e6 0.0
6.787991763376424e6 2.2446751295028e6 0.0
0.0 0.0 0.0

9585.794929438736 7.115985965316065e6 0.0
7.115985965316065e6 -3.362615433763075e6 0.0
0.0 0.0 0.0

-5.3799810112661645e6 1.1980369303167216e7 0.0
1.1980369303167216e7 1.7058691612925476e6 0.0
0.0 0.0 0.0

-7.853741940574395e6 1.323328220694069e7 0.0
1.323328220694069e7 5.558444191519259e6 0.0
0.0 0.0 0.0

-6.621679136407844e6 1.3307741735221783e7 0.0
1.3307741735221783e7 3.509128304525202e6 0.0
0.0 0.0 0.0

2.5989440959518244e6 1.006291223046317e7 0.0
1.006291223046317e7 -1.6679292171985352e7 0.0
0.0 0.0 0.0

-1.9574277907644995e6 8.1318457565157665e6 0.0
8.1318457565157665e6 -923337.1928651436 0.0
0.0 0.0 0.0

-1.1332443743925782e7 -4.82870696012558e6 0.0
-4.82870696012558e6 2.288119876698163e7 0.0
0.0 0.0 0.0

695475.6932253856 1.5997140247665344e7 0.0
1.5997140247665344e7 1.858163177501141e7 0.0
0.0 0.0 0.0

-2.1525487625222933e7 -4.336191632179726e6 0.0
-4.336191632179726e6 9.538481927921414e6 0.0
0.0 0.0 0.0

8.365979669931576e6 1.2069569593268754e7 0.0
1.2069569593268754e7 -9.146221675701514e6 0.0
0.0 0.0 0.0

1.2034393944711634e6 1.007133231899597e7 0.0
1.007133231899597e7 -8.80343942672513e6 0.0
0.0 0.0 0.0

1.887955670192083e6 7.005876572528738e6 0.0
7.005876572528738e6 -4.774313888759861e6 0.0
0.0 0.0 0.0

1.1756869284413692e7 1.1941981759234494e7 0.0
1.1941981759234494e7 -1.0619810291024417e7 0.0
0.0 0.0 0.0

897581.8458271881 6.084064268610883e6 0.0
6.084064268610883e6 -2.0676485360544934e6 0.0
0.0 0.0 0.0

3.3597430839043995e6 1.0957427000198044e7 0.0
1.0957427000198044e7 3.8808570447472036e6 0.0
0.0 0.0 0.0

-5.833860628301438e6 1.2168724241263684e7 0.0
1.2168724241263684e7 2.568353183120107e6 0.0
0.0 0.0 0.0

-6.582312058271138e6 1.2069027050188212e7 0.0
1.2069027050188212e7 5.224010265708994e6 0.0
0.0 0.0 0.0

-1.2405712464056914e6 8.072284697342367e6 0.0
8.072284697342367e6 -3.309150067404753e6 0.0
0.0 0.0 0.0

-5.7892802067902405e6 4.287982108169291e6 0.0
4.287982108169291e6 2.0596175292176018e6 0.0
0.0 0.0 0.0

-696193.603768554 9.681248600645823e6 0.0
9.681248600645823e6 -7.73788851106916e6 0.0
0.0 0.0 0.0

-1.4791612380103157e6 1.175673898742706e7 0.0
1.175673898742706e7 1.0579414229176003e6 0.0
0.0 0.0 0.0

-1.242365151511169e6 9.008731863825547e6 0.0
9.008731863825547e6 2.7034842266665e6 0.0
0.0 0.0 0.0

-1.3164347976354001e7 3.8846637362113637e6 0.0
3.8846637362113637e6 3.356430504695466e7 0.0
0.0 0.0 0.0

-5.1472554190594405e6 1.148743455153481e7 0.0
1.148743455153481e7 1.8277020217567866e6 0.0
0.0 0.0 0.0

2.920111358339699e6 5.6212816296942495e6 0.0
5.6212816296942495e6 -8.3799765337245995e6 0.0
0.0 0.0 0.0

-3.6344732530979826e6 1.1787248949390164e7 0.0
1.1787248949390164e7 4.024123255407461e6 0.0
0.0 0.0 0.0

-2.766243003835601e6 9.175187202417118e6 0.0
9.175187202417118e6 3.365530161885229e6 0.0
0.0 0.0 0.0

1.6499879154575435e6 1.374517433372571e7 0.0
1.374517433372571e7 -5.918754213260358e6 0.0
0.0 0.0 0.0

-4.58931839022106e6 1.2413521247737395e7 0.0
1.2413521247737395e7 -941479.8015189522 0.0
0.0 0.0 0.0

-1.0062439689782502e7 1.4415493905617652e7 0.0
1.4415493905617652e7 7.26358679579958e6 0.0
0.0 0.0 0.0

62808.805604061345 6.321816606520422e6 0.0
6.321816606520422e6 -3.3318424996330915e6 0.0
0.0 0.0 0.0

-9.74185371626033e6 1.2369609005398782e7 0.0
1.2369609005398782e7 7.47540954218859e6 0.0
0.0 0.0 0.0

-6.1444665911035715e6 1.2094887093135146e7 0.0
1.2094887093135146e7 4.158960510459323e6 0.0
0.0 0.0 0.0

-6.143664974504845e6 8.022852283374924e6 0.0
8.022852283374924e6 6.127281223190695e6 0.0
0.0 0.0 0.0

5.386506195176939e6 1.3139019413208406e7 0.0
1.3139019413208406e7 -7.825561937975107e6 0.0
0.0 0.0 0.0

-1.430250482612178e6 1.0683447893139057e7 0.0
1.0683447893139057e7 -4.147825311156288e6 0.0
0.0 0.0 0.0

-5.767562858072317e6 1.1995312415271457e7 0.0
1.1995312415271457e7 2.654796302627212e6 0.0
0.0 0.0 0.0

-904438.7225975648 7.79859104044852e6 0.0
7.79859104044852e6 -3.662282344587805e6 0.0
0.0 0.0 0.0

-1.7233584044521125e6 1.148645841791486e7 0.0
1.148645841791486e7 2.020941312177701e6 0.0
0.0 0.0 0.0

-5.410391365812813e6 1.4543752905986027e6 0.0
1.4543752905986027e6 3.3843988811793225e6 0.0
0.0 0.0 0.0

-7.083545188877739e6 6.688852939656624e6 0.0
6.688852939656624e6 5.530309874931203e6 0.0
0.0 0.0 0.0

547179.7007604651 1.1212896151650293e7 0.0
1.1212896151650293e7 -6.120867551160249e6 0.0
0.0 0.0 0.0

-2.152813993612151e6 9.641948656940265e6 0.0
9.641948656940265e6 5.108307684364577e6 0.0
0.0 0.0 0.0

-355565.33318712935 1.1170559759646002e7 0.0
1.1170559759646002e7 -6.560069191214869e6 0.0
0.0 0.0 0.0

-4.325806066525208e6 1.0479650675180607e7 0.0
1.0479650675180607e7 5.497294612441447e6 0.0
0.0 0.0 0.0

-1.0842628232740786e7 3.42607145936782e6 0.0
3.42607145936782e6 6.777741061462875e6 0.0
0.0 0.0 0.0

-1.6710983522105468e6 1.173242760285691e7 0.0
1.173242760285691e7 218724.49019557284 0.0
0.0 0.0 0.0

-4.409197250116343e6 4.196368641802695e6 0.0
4.196368641802695e6 3.4801143631125744e6 0.0
0.0 0.0 0.0

-1.6905881325231646e6 1.123039555432328e7 0.0
1.123039555432328e7 2.7717564961424703e6 0.0
0.0 0.0 0.0

-4.045180108004044e6 1.7787341449131932e7 0.0
1.7787341449131932e7 -4.786328628354851e6 0.0
0.0 0.0 0.0

-2.0055388791274283e7 6.506624162014013e6 0.0
6.506624162014013e6 9.225245766116552e6 0.0
0.0 0.0 0.0

-8.168412458645086e6 1.8974138693122152e7 0.0
1.8974138693122152e7 2.909698904316938e6 0.0
0.0 0.0 0.0

-5.74785292751077e6 1.1156058074279973e7 0.0
1.1156058074279973e7 1.3701343069289327e6 0.0
0.0 0.0 0.0

-8.369779496225124e6 1.697595261616951e7 0.0
1.697595261616951e7 4.21740670459093e6 0.0
0.0 0.0 0.0

-3.3629042011903906e6 3.318774366919029e6 0.0
3.318774366919029e6 2.180890685672734e6 0.0
0.0 0.0 0.0

1.8154107515911208e6 1.3612039747825041e7 0.0
1.3612039747825041e7 -5.698210065592252e6 0.0
0.0 0.0 0.0

-8.691006457451204e6 1.3539435535056517e7 0.0
1.3539435535056517e7 6.455257704258325e6 0.0
0.0 0.0 0.0

-2.3313921646847166e6 1.1782902343695868e7 0.0
1.1782902343695868e7 217217.0372766828 0.0
0.0 0.0 0.0

456285.5189740327 1.0651990562402537e7 0.0
1.0651990562402537e7 -7.923064712021268e6 0.0
0.0 0.0 0.0

-7.180112528744234e6 1.2552750245622981e7 0.0
1.2552750245622981e7 5.671284067117909e6 0.0
0.0 0.0 0.0

-5.589842613495935e6 6.102308794889482e6 0.0
6.102308794889482e6 5.155742193955192e6 0.0
0.0 0.0 0.0

-8.74039790254169e6 1.7460583699422386e7 0.0
1.7460583699422386e7 2.280207664746571e6 0.0
0.0 0.0 0.0

-1.0536182540757116e7 1.1627574439890584e7 0.0
1.1627574439890584e7 8.022025893835945e6 0.0
0.0 0.0 0.0

1.298497311226195e6 1.3515610190861914e7 0.0
1.3515610190861914e7 -5.819759913319128e6 0.0
0.0 0.0 0.0

800292.7808380742 5.888486668890517e6 0.0
5.888486668890517e6 -5.166151468569397e6 0.0
0.0 0.0 0.0

-380218.20158247836 1.044547590335133e7 0.0
1.044547590335133e7 -9.371147648640327e6 0.0
0.0 0.0 0.0

2.470397941253295e6 5.575867769086473e6 0.0
5.575867769086473e6 -5.618271950202559e6 0.0
0.0 0.0 0.0

-1.700910268410543e6 1.1948283611564929e7 0.0
1.1948283611564929e7 3.7755500179872517e6 0.0
0.0 0.0 0.0

1.7635401874484592e6 1.1890017136234682e7 0.0
1.1890017136234682e7 -5.12915763934803e6 0.0
0.0 0.0 0.0

-4.758559971881477e6 1.635211664627353e7 0.0
1.635211664627353e7 -2.055020014972281e6 0.0
0.0 0.0 0.0

-7.408718716822937e6 7.146497628922385e6 0.0
7.146497628922385e6 8.8066965280899e6 0.0
0.0 0.0 0.0

-1.256402077399118e6 8.334553949474314e6 0.0
8.334553949474314e6 -2.9215932451184792e6 0.0
0.0 0.0 0.0

-921908.8022767887 3.6165043854017565e6 0.0
3.6165043854017565e6 4.621681890959971e6 0.0
0.0 0.0 0.0

3.0644579363140995e6 9.195264018258272e6 0.0
9.195264018258272e6 -1.3190889985820845e7 0.0
0.0 0.0 0.0

-131051.71487688746 1.0057362074285699e7 0.0
1.0057362074285699e7 -677894.5000802506 0.0
0.0 0.0 0.0

-9.789713257802825e6 1.1178512238444177e7 0.0
1.1178512238444177e7 6.0574956289327685e6 0.0
0.0 0.0 0.0

836338.3587111067 1.0288854816776695e7 0.0
1.0288854816776695e7 -6.752908774867543e6 0.0
0.0 0.0 0.0

5.950053420387577e6 1.0214230101147046e7 0.0
1.0214230101147046e7 -3.0684034015588947e6 0.0
0.0 0.0 0.0

-6.557247548273331e6 1.9871517927608218e6 0.0
1.9871517927608218e6 8.815317410794254e6 0.0
0.0 0.0 0.0

-1.4081378146344112e7 8.158329464754987e6 0.0
8.158329464754987e6 4.966109804024363e6 0.0
0.0 0.0 0.0

1.5207395997908246e6 1.826225636425894e7 0.0
1.826225636425894e7 -1.4602419275939764e7 0.0
0.0 0.0 0.0

-6.672740004934538e6 1.2282313951915491e7 0.0
1.2282313951915491e7 5.400114141686499e6 0.0
0.0 0.0 0.0

-1.0068463515141436e6 6.691992786693789e6 0.0
6.691992786693789e6 -1.8985512367447615e6 0.0
0.0 0.0 0.0

-9.806197227318715e6 6.683725766519047e6 0.0
6.683725766519047e6 1.0917017673106993e7 0.0
0.0 0.0 0.0

-5.724244333983021e6 194767.76390990868 0.0
194767.76390990868 6.04982125815706e6 0.0
0.0 0.0 0.0

-1.57965545911821e6 1.0714341170476528e7 0.0
1.0714341170476528e7 -4.724794999326679e6 0.0
0.0 0.0 0.0

-6.326183082565204e6 1.3202826918444995e7 0.0
1.3202826918444995e7 2.6264382061765525e6 0.0
0.0 0.0 0.0

-2.3039952496483386e6 9.731839112240965e6 0.0
9.731839112240965e6 -2.4193903465704657e6 0.0
0.0 0.0 0.0

-1.0906689810183626e7 4.1202676971503226e6 0.0
4.1202676971503226e6 2.0318429210186936e7 0.0
0.0 0.0 0.0

893569.8630525898 9.786627945976585e6 0.0
9.786627945976585e6 -8.646115433345562e6 0.0
0.0 0.0 0.0

-6.6353497724124435e6 1.254926527917525e7 0.0
1.254926527917525e7 3.2567911960380203e6 0.0
0.0 0.0 0.0

614257.9654681948 1.0488776414442707e7 0.0
1.0488776414442707e7 -7.835639302901055e6 0.0
0.0 0.0 0.0

4.20204359493653e6 9.727630875790099e6 0.0
9.727630875790099e6 1.5729008205512525e6 0.0
0.0 0.0 0.0

-1.0922306086897358e7 2.5060631814091657e6 0.0
2.5060631814091657e6 1.7952493277581807e7 0.0
0.0 0.0 0.0

1.6209064417578678e6 9.703211787685674e6 0.0
9.703211787685674e6 -4.018464918944629e6 0.0
0.0 0.0 0.0

-2.8958505317746033e6 1.1285043594325867e7 0.0
1.1285043594325867e7 3.6618796629101825e6 0.0
0.0 0.0 0.0

-5.1170985444470225e6 1.4401304998483356e7 0.0
1.4401304998483356e7 877612.0020139625 0.0
0.0 0.0 0.0

1.8896694451717376e6 7.866087228108286e6 0.0
7.866087228108286e6 -8.062661252922777e6 0.0
0.0 0.0 0.0

213797.55940488027 7.158969456678627e6 0.0
7.158969456678627e6 -4.93283301259456e6 0.0
0.0 0.0 0.0

2.6725422940733638e6 9.094322221598301e6 0.0
9.094322221598301e6 -1.2172459700120395e7 0.0
0.0 0.0 0.0

-3.099167344779136e6 1.2215746298641657e7 0.0
1.2215746298641657e7 242425.83938335755 0.0
0.0 0.0 0.0

-1.1865772346086893e7 1.836312106458818e6 0.0
1.836312106458818e6 1.5437786477797283e7 0.0
0.0 0.0 0.0

-3.3030314098801804e6 1.2240636913420675e7 0.0
1.2240636913420675e7 344580.5048705647 0.0
0.0 0.0 0.0

-1.9764082559581788e6 9.352178401366627e6 0.0
9.352178401366627e6 -2.6596115914389975e6 0.0
0.0 0.0 0.0

2.996262894899523e6 8.035011295871743e6 0.0
8.035011295871743e6 -1.1938242158773974e7 0.0
0.0 0.0 0.0

-9.595452222998006e6 5.555267073163834e6 0.0
5.555267073163834e6 1.2639626112864804e7 0.0
0.0 0.0 0.0

-126139.6285396264 1.055091554904129e7 0.0
1.055091554904129e7 459529.124129443 0.0
0.0 0.0 0.0

1.7052972826623432e6 9.328619452972393e6 0.0
9.328619452972393e6 -1.0559846772431267e7 0.0
0.0 0.0 0.0

2.966239845183862e6 5.834070822088212e6 0.0
5.834070822088212e6 -9.147112183505518e6 0.0
0.0 0.0 0.0

-6.311731246546321e6 1.0694757573251588e7 0.0
1.0694757573251588e7 6.235373661831394e6 0.0
0.0 0.0 0.0

-5.747639431374376e6 1.2824985068179144e7 0.0
1.2824985068179144e7 3.5086611065687e6 0.0
0.0 0.0 0.0

-464528.590559892 7.676557927442123e6 0.0
7.676557927442123e6 -4.266156816256641e6 0.0
0.0 0.0 0.0

-7.860316839774682e6 -728761.7294900344 0.0
-728761.7294900344 1.054798824629936e7 0.0
0.0 0.0 0.0

2.019145877620257e6 2.5945497276266613e6 0.0
2.5945497276266613e6 -3.60155996208759e6 0.0
0.0 0.0 0.0

-6.925829012921896e6 9.445319512429755e6 0.0
9.445319512429755e6 6.270418079311207e6 0.0
0.0 0.0 0.0

4.565563449859061e6 1.1166675444675772e7 0.0
1.1166675444675772e7 1.678072845004803e6 0.0
0.0 0.0 0.0

2.3838416616803114e6 1.003516264069737e7 0.0
1.003516264069737e7 2.836331827664436e6 0.0
0.0 0.0 0.0

-6.540847726674328e6 1.2315930620756919e7 0.0
1.2315930620756919e7 1.9741448259683033e6 0.0
0.0 0.0 0.0

-427617.92339406256 8.637270167983454e6 0.0
8.637270167983454e6 -6.369547621893591e6 0.0
0.0 0.0 0.0

-4.071309969193915e6 1.2953526488980392e7 0.0
1.2953526488980392e7 623711.6620029842 0.0
0.0 0.0 0.0

-7.277530092807969e6 9.566749717835946e6 0.0
9.566749717835946e6 4.030662147854923e6 0.0
0.0 0.0 0.0

2.3619159592000064e6 9.158742121721359e6 0.0
9.158742121721359e6 -1.1531082779915612e7 0.0
0.0 0.0 0.0

2.4511354741071044e6 4.429845057424248e6 0.0
4.429845057424248e6 -5.554224443633504e6 0.0
0.0 0.0 0.0

610554.1581436046 6.515054033660364e6 0.0
6.515054033660364e6 -3.7040960016032574e6 0.0
0.0 0.0 0.0

-199018.99152889475 1.0561373688303435e7 0.0
1.0561373688303435e7 -1.2717759780533412e6 0.0
0.0 0.0 0.0

616654.2196777468 1.0565359033238076e7 0.0
1.0565359033238076e7 5.386908916359814e6 0.0
0.0 0.0 0.0

-1.5528404631020473e6 7.924099414969778e6 0.0
7.924099414969778e6 -98389.34001803928 0.0
0.0 0.0 0.0

-6.481638616723644e6 9.659364358427113e6 0.0
9.659364358427113e6 5.584841634446582e6 0.0
0.0 0.0 0.0

-1.3358289261587773e7 112415.65688524177 0.0
112415.65688524177 7.535443667971173e6 0.0
0.0 0.0 0.0

-257461.1090501421 1.0737605812820895e7 0.0
1.0737605812820895e7 144117.35556145763 0.0
0.0 0.0 0.0

577050.8668640051 6.155915005408657e6 0.0
6.155915005408657e6 -5.566833411681446e6 0.0
0.0 0.0 0.0

-9.391076259746917e6 1.1422528212884003e7 0.0
1.1422528212884003e7 7.466039177310402e6 0.0
0.0 0.0 0.0

-8.837244861668266e6 -1.7344102126238488e6 0.0
-1.7344102126238488e6 1.2257637207970582e7 0.0
0.0 0.0 0.0

-810348.3922584616 1.1315042114307156e7 0.0
1.1315042114307156e7 -1.6429253790119365e6 0.0
0.0 0.0 0.0

-4.647873406283819e6 1.1051823708164042e7 0.0
1.1051823708164042e7 8.3082438565564845e6 0.0
0.0 0.0 0.0

-6.005966975966014e6 1.214023216318305e7 0.0
1.214023216318305e7 3.4790851483127703e6 0.0
0.0 0.0 0.0

541433.7548496635 1.021481019036516e7 0.0
1.021481019036516e7 -8.989158646537624e6 0.0
0.0 0.0 0.0

2.765030135552715e6 1.1164055734907279e7 0.0
1.1164055734907279e7 3.597934084929411e6 0.0
0.0 0.0 0.0

379687.5821362734 1.0440519349270977e7 0.0
1.0440519349270977e7 -8.084893357132625e6 0.0
0.0 0.0 0.0

-513705.85953120183 1.1058039802933874e7 0.0
1.1058039802933874e7 696310.5531535738 0.0
0.0 0.0 0.0

-4.2581091813552845e6 1.0124058964206591e7 0.0
1.0124058964206591e7 5.351809871000925e6 0.0
0.0 0.0 0.0

-3.6784430512776226e6 1.166713230018756e7 0.0
1.166713230018756e7 4.038601971697368e6 0.0
0.0 0.0 0.0

-2.1753197390984627e6 1.1736227801057436e7 0.0
1.1736227801057436e7 1.810815197875375e6 0.0
0.0 0.0 0.0

2.5232740101484265e6 6.406633501545525e6 0.0
6.406633501545525e6 -9.140022080507705e6 0.0
0.0 0.0 0.0

-7.488173449052204e6 1.4150507446535045e7 0.0
1.4150507446535045e7 3.7413193034153786e6 0.0
0.0 0.0 0.0

-2.0818008074804766e6 8.675397991664186e6 0.0
8.675397991664186e6 657313.4090222601 0.0
0.0 0.0 0.0

6.710347585039849e6 8.991396943929343e6 0.0
8.991396943929343e6 -307082.25599641446 0.0
0.0 0.0 0.0

-7.572854148762127e6 1.2213030059991155e7 0.0
1.2213030059991155e7 5.377299264157031e6 0.0
0.0 0.0 0.0

3.433534492533287e6 6.329967283497253e6 0.0
6.329967283497253e6 -1.031938884334034e7 0.0
0.0 0.0 0.0

-3.209948153881467e6 8.247813645148474e6 0.0
8.247813645148474e6 1.0880200064095308e6 0.0
0.0 0.0 0.0

4.325571244066468e6 8.996121670547767e6 0.0
8.996121670547767e6 -827501.296755027 0.0
0.0 0.0 0.0

9.685566203218158e6 8.6194531225414e6 0.0
8.6194531225414e6 -4.0284142829290857e6 0.0
0.0 0.0 0.0

-8.916526462600643e6 1.3204990304862186e7 0.0
1.3204990304862186e7 6.620789334174706e6 0.0
0.0 0.0 0.0

59609.22047031508 1.1363284364117367e7 0.0
1.1363284364117367e7 -6.273526751901061e6 0.0
0.0 0.0 0.0

-2.916176617379929e6 5.912825958089077e6 0.0
5.912825958089077e6 1.9211036082634665e6 0.0
0.0 0.0 0.0

-8.519766187218187e6 -2.510514670408894e6 0.0
-2.510514670408894e6 1.0480688711254522e7 0.0
0.0 0.0 0.0

-197820.14623167453 1.0591320772197299e7 0.0
1.0591320772197299e7 -573191.3285100425 0.0
0.0 0.0 0.0

-1.512308493593404e6 9.074334822309166e6 0.0
9.074334822309166e6 8.093527407380111e6 0.0
0.0 0.0 0.0

-6.517279645676713e6 1.0582540797380467e6 0.0
1.0582540797380467e6 8.269269361398403e6 0.0
0.0 0.0 0.0

-1.0674436341763888e6 7.34036592283326e6 0.0
7.34036592283326e6 -2.5240497070253547e6 0.0
0.0 0.0 0.0

-2.500281668360103e6 1.042660821759379e7 0.0
1.042660821759379e7 -118730.99313831492 0.0
0.0 0.0 0.0

203625.34159129905 1.0110531968101729e7 0.0
1.0110531968101729e7 -8.6084001080169e6 0.0
0.0 0.0 0.0

-7.063314863231867e6 1.3590633662036726e7 0.0
1.3590633662036726e7 4.0133318227342996e6 0.0
0.0 0.0 0.0

-6.01876920253492e6 1.5126109907240815e7 0.0
1.5126109907240815e7 138205.90719223558 0.0
0.0 0.0 0.0

-1.0550762405811492e7 1.860287756863372e7 0.0
1.860287756863372e7 3.043603500663378e6 0.0
0.0 0.0 0.0

-1.561737545719608e7 1.2322213071014665e7 0.0
1.2322213071014665e7 1.0708068072913088e7 0.0
0.0 0.0 0.0

292074.02123051346 1.1775607999396749e7 0.0
1.1775607999396749e7 2.967437994898745e6 0.0
0.0 0.0 0.0

1.0196803443298489e6 1.1747150717025163e7 0.0
1.1747150717025163e7 -1.5217567503838867e7 0.0
0.0 0.0 0.0

-1.613368735939001e6 2.283782430896408e6 0.0
2.283782430896408e6 59656.145936251036 0.0
0.0 0.0 0.0

-1.829802817127516e6 1.0076359176903898e7 0.0
1.0076359176903898e7 -7.866459594172669e6 0.0
0.0 0.0 0.0

-920752.9317624676 8.251984312469663e6 0.0
8.251984312469663e6 -6.254961096723733e6 0.0
0.0 0.0 0.0

-632052.6419394715 1.2071378817621218e7 0.0
1.2071378817621218e7 3.7688909480740908e6 0.0
0.0 0.0 0.0

-1.3555819376563376e6 1.0626960944929823e7 0.0
1.0626960944929823e7 -9.17766180253418e6 0.0
0.0 0.0 0.0

-1.0445691215788464e6 9.857348360752763e6 0.0
9.857348360752763e6 -7.859725518120095e6 0.0
0.0 0.0 0.0

722899.7605018454 1.1651389133048609e7 0.0
1.1651389133048609e7 5.469457155893258e6 0.0
0.0 0.0 0.0

-2.76600614809477e6 9.188417229120795e6 0.0
9.188417229120795e6 1.5623441629580657e6 0.0
0.0 0.0 0.0

2.375193103839411e6 7.695964350742927e6 0.0
7.695964350742927e6 -9.028557468869967e6 0.0
0.0 0.0 0.0

-257609.9154206977 1.0641498145770028e7 0.0
1.0641498145770028e7 -1.0377490092289405e6 0.0
0.0 0.0 0.0

-6.03497372969908e6 1.142297786014697e7 0.0
1.142297786014697e7 3.5733693196801986e6 0.0
0.0 0.0 0.0

-460982.7691868502 1.077542979535902e7 0.0
1.077542979535902e7 1.456987647168173e6 0.0
0.0 0.0 0.0

2.1062123250532225e6 5.386074137884652e6 0.0
5.386074137884652e6 -5.656156717459773e6 0.0
0.0 0.0 0.0

-5.712307485011879e6 1.1800153331887228e7 0.0
1.1800153331887228e7 2.720950495522976e6 0.0
0.0 0.0 0.0

-7.54702379230706e6 1.293233657418801e7 0.0
1.293233657418801e7 5.3076944424697105e6 0.0
0.0 0.0 0.0

-9.681259920377735e6 5.224566108359296e6 0.0
5.224566108359296e6 1.1694116264184043e7 0.0
0.0 0.0 0.0

-1.1491741648990975e6 8.18072144940674e6 0.0
8.18072144940674e6 1.0505606420184444e6 0.0
0.0 0.0 0.0

-3.0092006277340082e6 1.0681750422779309e7 0.0
1.0681750422779309e7 6.257066040056802e6 0.0
0.0 0.0 0.0

-1.0190306979795994e7 1.3861085237868274e7 0.0
1.3861085237868274e7 7.305794422376964e6 0.0
0.0 0.0 0.0

-6.459307930162578e6 9.896073604151042e6 0.0
9.896073604151042e6 6.573669874917637e6 0.0
0.0 0.0 0.0

-2.734931550297591e6 1.2555358246658398e6 0.0
1.2555358246658398e6 1.707949549081431e6 0.0
0.0 0.0 0.0

-7.438233249295697e6 1.286069441340397e7 0.0
1.286069441340397e7 5.608854668069445e6 0.0
0.0 0.0 0.0

-5.062639728739188e6 1.191808554255653e7 0.0
1.191808554255653e7 1.5465917275724958e6 0.0
0.0 0.0 0.0

-3.774110164032845e6 9.127084955969876e6 0.0
9.127084955969876e6 556452.7022924242 0.0
0.0 0.0 0.0

-7.159522941325534e6 1.3875768504463656e7 0.0
1.3875768504463656e7 3.8228563593535605e6 0.0
0.0 0.0 0.0

-6.851684659274885e6 1.354477264369002e7 0.0
1.354477264369002e7 3.454745044427001e6 0.0
0.0 0.0 0.0

-723035.3581406623 1.0940543957999818e7 0.0
1.0940543957999818e7 -2.0196279440600583e6 0.0
0.0 0.0 0.0

505664.4003727351 9.260237691029726e6 0.0
9.260237691029726e6 1.685548529951157e6 0.0
0.0 0.0 0.0

1.7251137619310818e6 7.559088186648353e6 0.0
7.559088186648353e6 -8.568802893702624e6 0.0
0.0 0.0 0.0

-1.8953951575026275e6 1.0944064109316135e7 0.0
1.0944064109316135e7 -9.007397625164457e6 0.0
0.0 0.0 0.0

-1.8782047331803844e6 1.2069627204102391e7 0.0
1.2069627204102391e7 620524.8898844387 0.0
0.0 0.0 0.0

-1.8030987935473293e7 1.4941503326654145e7 0.0
1.4941503326654145e7 2.565320308210089e6 0.0
0.0 0.0 0.0

-1.5466093954720527e6 9.859069538484337e6 0.0
9.859069538484337e6 -7.900017794416426e6 0.0
0.0 0.0 0.0

-1.6449340630147092e7 1.398299046997072e7 0.0
1.398299046997072e7 1.9120963320068605e6 0.0
0.0 0.0 0.0

-4.333516994130798e6 1.1946282741281034e7 0.0
1.1946282741281034e7 3.64998085210343e6 0.0
0.0 0.0 0.0

-6.8871562347670505e6 -5.434787144078624e6 0.0
-5.434787144078624e6 1.0770095280057058e7 0.0
0.0 0.0 0.0

-6.119848918006688e6 1.4239461903697124e7 0.0
1.4239461903697124e7 1.0498840573047046e6 0.0
0.0 0.0 0.0

-7.513274421994123e6 1.3481418680424748e7 0.0
1.3481418680424748e7 1.4258992785696406e6 0.0
0.0 0.0 0.0

-30873.708462293027 1.1553981197604202e7 0.0
1.1553981197604202e7 -6.0662909383635335e6 0.0
0.0 0.0 0.0

-9.904088019835537e6 1.1860769424322188e7 0.0
1.1860769424322188e7 6.753289610713754e6 0.0
0.0 0.0 0.0

-3.112802375911594e6 4.611170823253614e6 0.0
4.611170823253614e6 2.4820208990821736e6 0.0
0.0 0.0 0.0

2.713952219757499e6 8.199185630989713e6 0.0
8.199185630989713e6 -1.0453918892677894e7 0.0
0.0 0.0 0.0

-1.0798191179325791e7 1.1015327206538076e7 0.0
1.1015327206538076e7 6.923358271144134e6 0.0
0.0 0.0 0.0

-245310.55902136385 1.0972147288307136e7 0.0
1.0972147288307136e7 -607574.1482945926 0.0
0.0 0.0 0.0

-3.051339684298498e6 5.524054932999996e6 0.0
5.524054932999996e6 1.4779158830901461e6 0.0
0.0 0.0 0.0

-2.3874316710975715e6 9.440112600393735e6 0.0
9.440112600393735e6 -2.7467959066131017e6 0.0
0.0 0.0 0.0

-4.546576070531332e6 1.3629422508972565e7 0.0
1.3629422508972565e7 287142.1987214559 0.0
0.0 0.0 0.0

-1.1409567932857094e7 -665024.2289159361 0.0
-665024.2289159361 8.569100266933158e6 0.0
0.0 0.0 0.0

-7.20859117816237e6 1.2498039818350783e7 0.0
1.2498039818350783e7 5.606184912267219e6 0.0
0.0 0.0 0.0

451477.91528174933 1.1163053013634613e7 0.0
1.1163053013634613e7 -6.961891808501683e6 0.0
0.0 0.0 0.0

1.3319252051956067e6 7.547725292369584e6 0.0
7.547725292369584e6 -7.602454453589119e6 0.0
0.0 0.0 0.0

2.020472022255907e6 6.341307265076482e6 0.0
6.341307265076482e6 -4.635872242848147e6 0.0
0.0 0.0 0.0

27500.198898982024 1.0438053319795594e7 0.0
1.0438053319795594e7 -6.348646276312613e6 0.0
0.0 0.0 0.0

-7.115602120291976e6 1.1363747908693254e7 0.0
1.1363747908693254e7 1.1587332680590772e6 0.0
0.0 0.0 0.0

-8.1888264941269215e6 1.8368266423281517e7 0.0
1.8368266423281517e7 3.7613336104299994e6 0.0
0.0 0.0 0.0

-4.442116842978854e6 1.1858853967137929e7 0.0
1.1858853967137929e7 6.8914266543139275e6 0.0
0.0 0.0 0.0

-1.2813930398508534e6 8.589766853935415e6 0.0
8.589766853935415e6 1.716572373206308e6 0.0
0.0 0.0 0.0

203276.69046484854 1.0976445165198255e7 0.0
1.0976445165198255e7 1.969774738633111e6 0.0
0.0 0.0 0.0

-637405.5315675533 1.0257586005611219e7 0.0
1.0257586005611219e7 -2.1246850858341497e6 0.0
0.0 0.0 0.0

-1.0274486517707342e7 5.189397424352236e6 0.0
5.189397424352236e6 1.1990817112044722e7 0.0
0.0 0.0 0.0

62757.57121663075 9.260379879218664e6 0.0
9.260379879218664e6 -6.936326896336547e6 0.0
0.0 0.0 0.0

-1.717502647264718e7 8.962149463404039e6 0.0
8.962149463404039e6 9.915311686768765e6 0.0
0.0 0.0 0.0

-7.794115464517316e6 267354.5513112291 0.0
267354.5513112291 1.0251503356898889e7 0.0
0.0 0.0 0.0

-7.120713543382735e6 -5.21707111849244e6 0.0
-5.21707111849244e6 1.4183018531596256e7 0.0
0.0 0.0 0.0

-625362.7784819874 7.656723270907423e6 0.0
7.656723270907423e6 -4.8168093939719815e6 0.0
0.0 0.0 0.0

-1.0405254751322495e6 748949.788607156 0.0
748949.788607156 763126.460371733 0.0
0.0 0.0 0.0

3.032582503717431e6 8.454155515174234e6 0.0
8.454155515174234e6 -1.21906414991961e7 0.0
0.0 0.0 0.0

-1.1506246774828669e7 4.1753475437743003e6 0.0
4.1753475437743003e6 1.4612218451881222e7 0.0
0.0 0.0 0.0

1.8753107107483512e6 9.050694600997984e6 0.0
9.050694600997984e6 -1.0488695192716885e7 0.0
0.0 0.0 0.0

-3.522329392546926e6 1.4020809037373425e6 0.0
1.4020809037373425e6 4.422873764203774e6 0.0
0.0 0.0 0.0

-6.468001674735459e6 1.1877356652685763e7 0.0
1.1877356652685763e7 4.1803725937139955e6 0.0
0.0 0.0 0.0

-4.474239121754683e6 1.4055746053035753e7 0.0
1.4055746053035753e7 126065.86854567146 0.0
0.0 0.0 0.0

-8.218327005303074e6 1.349861495797224e7 0.0
1.349861495797224e7 5.90464193438904e6 0.0
0.0 0.0 0.0

-1.0365193934747528e7 1.7623698756293207e7 0.0
1.7623698756293207e7 4.599124101669475e6 0.0
0.0 0.0 0.0

-8.99575529441334e6 1.570862187060999e7 0.0
1.570862187060999e7 4.202793478858069e6 0.0
0.0 0.0 0.0

-7.419595058779726e6 -1.8640065022068848e6 0.0
-1.8640065022068848e6 1.0097360778396599e7 0.0
0.0 0.0 0.0

3.352194140914185e6 6.4773017750106715e6 0.0
6.4773017750106715e6 -1.084778603447238e7 0.0
0.0 0.0 0.0

712491.5572153695 1.155291199450154e7 0.0
1.155291199450154e7 -6.044588389320906e6 0.0
0.0 0.0 0.0

-3.197181295015108e6 1.1195106769920863e7 0.0
1.1195106769920863e7 -1.5032140347479023e6 0.0
0.0 0.0 0.0

842617.2365769367 8.3814019072654275e6 0.0
8.3814019072654275e6 -6.368575740144028e6 0.0
0.0 0.0 0.0

-1.3834538547244966e6 9.085320485579416e6 0.0
9.085320485579416e6 -7.022922608624247e6 0.0
0.0 0.0 0.0

-278935.1519564819 1.0215166308663405e7 0.0
1.0215166308663405e7 -929783.8422049119 0.0
0.0 0.0 0.0

-6.386312621870615e6 1.0987380910941439e7 0.0
1.0987380910941439e7 4.9198944592610225e6 0.0
0.0 0.0 0.0

-7.565765531854134e6 1.2421888818461912e7 0.0
1.2421888818461912e7 5.869164069873674e6 0.0
0.0 0.0 0.0

-660160.2822006969 8.394477181351721e6 0.0
8.394477181351721e6 -5.632693132192895e6 0.0
0.0 0.0 0.0

-748142.4603276261 7.725278467855754e6 0.0
7.725278467855754e6 -2.5214897687794585e6 0.0
0.0 0.0 0.0

2.8328382283427566e6 5.925297634319024e6 0.0
5.925297634319024e6 -8.91761640696742e6 0.0
0.0 0.0 0.0

1.1851685043800592e6 1.109299825602504e7 0.0
1.109299825602504e7 -5.096042210891895e6 0.0
0.0 0.0 0.0

1.5362717938040565e6 7.773084753067726e6 0.0
7.773084753067726e6 -8.193325709741872e6 0.0
0.0 0.0 0.0

-265257.0620110709 5.936140943781074e6 0.0
5.936140943781074e6 -2.837762788354784e6 0.0
0.0 0.0 0.0

-474295.79189552483 7.352546890664682e6 0.0
7.352546890664682e6 -3.378945964504373e6 0.0
0.0 0.0 0.0

2.3615478897234397e6 2.9693314676671177e6 0.0
2.9693314676671177e6 -5.297696564739058e6 0.0
0.0 0.0 0.0

-5.240009210253833e6 1.1030484845394315e7 0.0
1.1030484845394315e7 3.0425872893612576e6 0.0
0.0 0.0 0.0

514743.8478320446 1.0765163808292238e7 0.0
1.0765163808292238e7 -7.405620574472599e6 0.0
0.0 0.0 0.0

3.1243269939897796e6 8.553144022982037e6 0.0
8.553144022982037e6 -1.3356454611863784e7 0.0
0.0 0.0 0.0

-2.8112120418034187e6 1.2088875963301456e7 0.0
1.2088875963301456e7 159870.6519884956 0.0
0.0 0.0 0.0

-1.3223053585219031e7 1.3798785528356666e7 0.0
1.3798785528356666e7 2.326636569504733e6 0.0
0.0 0.0 0.0

-1.223595623503029e7 1.0059595311299717e7 0.0
1.0059595311299717e7 6.693374208431781e6 0.0
0.0 0.0 0.0

-5.871395301023479e6 1.34966663046464e7 0.0
1.34966663046464e7 1.8733494540728903e6 0.0
0.0 0.0 0.0

358056.96977075934 1.0254575826001257e7 0.0
1.0254575826001257e7 -9.52227507952306e6 0.0
0.0 0.0 0.0

-2.2991713269853042e6 9.709632351673456e6 0.0
9.709632351673456e6 -7.663904547619505e6 0.0
0.0 0.0 0.0

-9.99777278761188e6 1.3642931908433441e7 0.0
1.3642931908433441e7 2.0118884497758746e6 0.0
0.0 0.0 0.0

-2.5605583497482426e6 1.0550819935029421e7 0.0
1.0550819935029421e7 -8.535194732261209e6 0.0
0.0 0.0 0.0

-6.291777537739375e6 9.629136273922382e6 0.0
9.629136273922382e6 7.038098740753019e6 0.0
0.0 0.0 0.0

-1.3025317635763248e6 3.207539146411139e6 0.0
3.207539146411139e6 207831.29523429403 0.0
0.0 0.0 0.0

-4.967067707997168e6 1.1850252274897534e7 0.0
1.1850252274897534e7 923747.2867307174 0.0
0.0 0.0 0.0

-6.507927821851497e6 1.056982989430439e7 0.0
1.056982989430439e7 5.590730920307875e6 0.0
0.0 0.0 0.0

-3.664417788398387e6 1.527342020060876e6 0.0
1.527342020060876e6 2.3735830612713504e6 0.0
0.0 0.0 0.0

1.2391413643951127e6 9.594855723312076e6 0.0
9.594855723312076e6 -8.365800781903962e6 0.0
0.0 0.0 0.0

-5.467285099726774e6 1.1710765738844372e7 0.0
1.1710765738844372e7 2.220335307812916e6 0.0
0.0 0.0 0.0

-321876.55299010605 1.067863312910751e7 0.0
1.067863312910751e7 -1.6707115210359215e6 0.0
0.0 0.0 0.0

-6.57596069516263e6 1.1864056944381153e7 0.0
1.1864056944381153e7 4.963059367426717e6 0.0
0.0 0.0 0.0

-1.0851753337684358e7 1.327627351507267e7 0.0
1.327627351507267e7 3.916613983798563e6 0.0
0.0 0.0 0.0

-2.3856718875790257e6 1.0005504474004146e7 0.0
1.0005504474004146e7 -7.95224002140714e6 0.0
0.0 0.0 0.0

-4.62932416253536e6 1.0904783560556555e7 0.0
1.0904783560556555e7 7.345650692766275e6 0.0
0.0 0.0 0.0

-1.1424290845517132e7 9.89410684674807e6 0.0
9.89410684674807e6 6.145408238311971e6 0.0
0.0 0.0 0.0

-2.4769781588490065e6 5.531356956712444e6 0.0
5.531356956712444e6 1.6001801550119126e6 0.0
0.0 0.0 0.0

-1.3189961194391467e7 2.890407843105759e6 0.0
2.890407843105759e6 1.8662976549963497e7 0.0
0.0 0.0 0.0

-1.543111870698366e6 1.136774757509652e7 0.0
1.136774757509652e7 -1.5338943100989428e6 0.0
0.0 0.0 0.0

-8.50232745970624e6 1.616971139293922e7 0.0
1.616971139293922e7 3.071504321127348e6 0.0
0.0 0.0 0.0

545865.2518725507 1.1035307864741363e7 0.0
1.1035307864741363e7 1.8195508678164668e6 0.0
0.0 0.0 0.0

2.752029582359887e6 1.1638081788296934e7 0.0
1.1638081788296934e7 3.4656256436488563e6 0.0
0.0 0.0 0.0

-7.983428253180108e6 1.3444885880530667e7 0.0
1.3444885880530667e7 2.800040589641391e6 0.0
0.0 0.0 0.0

-6.530837454483673e6 1.5681419934959747e7 0.0
1.5681419934959747e7 972752.9087780803 0.0
0.0 0.0 0.0

734210.0024873797 1.1271012232772151e7 0.0
1.1271012232772151e7 4.657094776780523e6 0.0
0.0 0.0 0.0

4.092252351354912e6 7.477135338630918e6 0.0
7.477135338630918e6 -1.2801497573697418e7 0.0
0.0 0.0 0.0

-6.920162062743636e6 1.2406444103880135e7 0.0
1.2406444103880135e7 5.365715078862056e6 0.0
0.0 0.0 0.0

-247070.53264994567 1.0216098226228023e7 0.0
1.0216098226228023e7 -1.5619807691083006e6 0.0
0.0 0.0 0.0

-2.7077414261152227e6 1.090460222160419e7 0.0
1.090460222160419e7 -9.025805147836031e6 0.0
0.0 0.0 0.0

-2.0255270989647738e6 1.2209519751836125e7 0.0
1.2209519751836125e7 -27549.72388242511 0.0
0.0 0.0 0.0

4.1394069345053635e6 5.94774930447158e6 0.0
5.94774930447158e6 -1.1310648147716861e7 0.0
0.0 0.0 0.0

-3.262276258448781e6 1.0530669425413521e7 0.0
1.0530669425413521e7 -1.6485818376288246e6 0.0
0.0 0.0 0.0

-993461.0055225968 1.2896210395943344e7 0.0
1.2896210395943344e7 -4.029120807014992e6 0.0
0.0 0.0 0.0

5.87592763028078e6 1.1411006154660214e7 0.0
1.1411006154660214e7 -8.13057751770935e6 0.0
0.0 0.0 0.0

-6.55400185841012e6 8.101110656461966e6 0.0
8.101110656461966e6 7.441557618913628e6 0.0
0.0 0.0 0.0

-3.2599551772233318e6 5.536043691406774e6 0.0
5.536043691406774e6 3.5500501491977386e6 0.0
0.0 0.0 0.0

-5.306320426947201e6 1.3134590398610944e7 0.0
1.3134590398610944e7 2.935171302853437e6 0.0
0.0 0.0 0.0

-5.099246372651352e6 1.1923468836525247e7 0.0
1.1923468836525247e7 1.3314859662240986e6 0.0
0.0 0.0 0.0

-9.41407695975862e6 -3.469571086268754e6 0.0
-3.469571086268754e6 1.660034131627253e7 0.0
0.0 0.0 0.0

-914930.286787558 1.0515761127988663e7 0.0
1.0515761127988663e7 -2.480086872422714e6 0.0
0.0 0.0 0.0

-7.884978236828711e6 1.1981686171383318e7 0.0
1.1981686171383318e7 6.224902175667202e6 0.0
0.0 0.0 0.0

300137.80616767704 6.9977883446919825e6 0.0
6.9977883446919825e6 -5.170572455123868e6 0.0
0.0 0.0 0.0

-3.796032159728723e6 9.92997992165684e6 0.0
9.92997992165684e6 9.40725200360577e6 0.0
0.0 0.0 0.0

-1.7391613283804104e7 1.0989377686937924e7 0.0
1.0989377686937924e7 7.053566930768886e6 0.0
0.0 0.0 0.0

-118149.60018205836 1.0047855945185529e7 0.0
1.0047855945185529e7 -229017.67769352702 0.0
0.0 0.0 0.0

866212.6294916985 6.27007774092597e6 0.0
6.27007774092597e6 -5.38813853153078e6 0.0
0.0 0.0 0.0

-6.783665168283173e6 9.908028744544895e6 0.0
9.908028744544895e6 1.1985457036372196e7 0.0
0.0 0.0 0.0

-3.9842956571362796e6 1.2663379888377963e7 0.0
1.2663379888377963e7 -543689.2282694507 0.0
0.0 0.0 0.0

232620.07443264476 1.6671105542426163e7 0.0
1.6671105542426163e7 -4.612323801782623e6 0.0
0.0 0.0 0.0

-1.8974321669590932e6 8.164786569757752e6 0.0
8.164786569757752e6 -6.3247740710206e6 0.0
0.0 0.0 0.0

-2.8887618949163714e6 7.468698576990349e6 0.0
7.468698576990349e6 917673.0081022196 0.0
0.0 0.0 0.0

634733.9724528091 7.128364992150127e6 0.0
7.128364992150127e6 -5.155768478523691e6 0.0
0.0 0.0 0.0

-206603.283846742 1.0220783818723788e7 0.0
1.0220783818723788e7 -8.49796737369887e6 0.0
0.0 0.0 0.0

-2.8617730679016565e6 1.0787894508857626e7 0.0
1.0787894508857626e7 -1.9251127712282313e6 0.0
0.0 0.0 0.0

1.262825418970582e6 1.11107798127463e7 0.0
1.11107798127463e7 4.60336342595727e6 0.0
0.0 0.0 0.0

-5.749120844158545e6 1.1222895924851682e7 0.0
1.1222895924851682e7 2.996394715340301e6 0.0
0.0 0.0 0.0

-609138.3864922815 1.2984693871999359e7 0.0
1.2984693871999359e7 -4.654967377301929e6 0.0
0.0 0.0 0.0

-4.265036289804293e6 -1.5613978354505224e6 0.0
-1.5613978354505224e6 8.599941669088328e6 0.0
0.0 0.0 0.0

-2.827614898764846e6 1.8851560667425597e6 0.0
1.8851560667425597e6 3.7799125055459207e6 0.0
0.0 0.0 0.0

1.8174708332780737e6 1.2529919492680619e7 0.0
1.2529919492680619e7 -4.988735106938856e6 0.0
0.0 0.0 0.0

-129021.09366295856 1.0423580994727077e7 0.0
1.0423580994727077e7 -341166.4766913405 0.0
0.0 0.0 0.0

1.1198755702757955e7 8.411282192304147e6 0.0
8.411282192304147e6 -2.9016390569677963e6 0.0
0.0 0.0 0.0

-4.826657081724901e6 1.3914935837292029e6 0.0
1.3914935837292029e6 4.511056941896765e6 0.0
0.0 0.0 0.0

-6.912261517134424e6 1.2530271594964446e7 0.0
1.2530271594964446e7 933245.1655618008 0.0
0.0 0.0 0.0

-9.228430125337237e6 7.401383552822043e6 0.0
7.401383552822043e6 6.753482789324515e6 0.0
0.0 0.0 0.0

-1.4138095598438494e7 1.2384310356340548e7 0.0
1.2384310356340548e7 3.797237313492912e6 0.0
0.0 0.0 0.0

1.0402543224123644e7 6.359511588659074e6 0.0
6.359511588659074e6 -3.361143736052933e6 0.0
0.0 0.0 0.0

-1.2777779413392285e7 1.5964561551895516e6 0.0
1.5964561551895516e6 2.2982869747689977e7 0.0
0.0 0.0 0.0

-606545.6571340273 7.262516092608953e6 0.0
7.262516092608953e6 -2.424463134780454e6 0.0
0.0 0.0 0.0

-8.923791526905274e6 1.2952159511534438e7 0.0
1.2952159511534438e7 4.5034918260860825e6 0.0
0.0 0.0 0.0

-6.658210892793724e6 1.2180448406294523e7 0.0
1.2180448406294523e7 5.436736093867542e6 0.0
0.0 0.0 0.0

-3.0274586796110887e6 1.0787270760991033e7 0.0
1.0787270760991033e7 -2.4860098013788587e6 0.0
0.0 0.0 0.0

-211692.57629591972 8.437505136466237e6 0.0
8.437505136466237e6 -4.9123186727980515e6 0.0
0.0 0.0 0.0

-337503.7291475732 1.0529312948757727e7 0.0
1.0529312948757727e7 -2.2039047935698605e6 0.0
0.0 0.0 0.0

-1.498145497547604e6 9.75802275423462e6 0.0
9.75802275423462e6 -7.5559322555263415e6 0.0
0.0 0.0 0.0

-398803.55964685 1.1768583152213944e7 0.0
1.1768583152213944e7 -1.2134640283854004e7 0.0
0.0 0.0 0.0

1.9664059554727462e6 4.383545336219455e6 0.0
4.383545336219455e6 -165697.12876677455 0.0
0.0 0.0 0.0

-5.794295874881509e6 1.709415412597165e7 0.0
1.709415412597165e7 -1.4530034685706606e6 0.0
0.0 0.0 0.0

-2.149083866694273e6 9.046025766468158e6 0.0
9.046025766468158e6 -7.163613309591581e6 0.0
0.0 0.0 0.0

790381.4655140878 1.07710647131704e7 0.0
1.07710647131704e7 4.223741733634155e6 0.0
0.0 0.0 0.0

1.2638064082962694e6 9.691105617221244e6 0.0
9.691105617221244e6 -5.498381798627384e6 0.0
0.0 0.0 0.0

-4.671204427187782e6 1.1780384488275114e7 0.0
1.1780384488275114e7 1.0393157725080969e6 0.0
0.0 0.0 0.0

-565351.7913051429 9.501450643296652e6 0.0
9.501450643296652e6 -7.362378222926524e6 0.0
0.0 0.0 0.0

-1.2589334555706901e7 2.209964994610807e6 0.0
2.209964994610807e6 6.00791950316322e6 0.0
0.0 0.0 0.0

-352327.5543400264 2.0146359150880508e6 0.0
2.0146359150880508e6 -1.2175836377833397e6 0.0
0.0 0.0 0.0

-6.615688654081365e6 9.349675436749175e6 0.0
9.349675436749175e6 7.7611114361575935e6 0.0
0.0 0.0 0.0

-494640.4136568676 7.43207924532621e6 0.0
7.43207924532621e6 -1.8884516281955212e6 0.0
0.0 0.0 0.0

-2.8140758457595627e6 8.279242894914176e6 0.0
8.279242894914176e6 -2.1002056987149674e6 0.0
0.0 0.0 0.0

-2.4571696149805784e6 9.69058682869471e6 0.0
9.69058682869471e6 -1.7147145881747047e6 0.0
0.0 0.0 0.0

-1.1303624888879603e6 7.784484301599954e6 0.0
7.784484301599954e6 -2.5858958000789545e6 0.0
0.0 0.0 0.0

5.326296531997555e6 1.2348328361834016e7 0.0
1.2348328361834016e7 -6.55569467209295e6 0.0
0.0 0.0 0.0

-1.0672465689982696e7 1.2288915987694537e7 0.0
1.2288915987694537e7 7.766020411008442e6 0.0
0.0 0.0 0.0

-969857.6251565081 1.366999883049118e7 0.0
1.366999883049118e7 -4.245031737890251e6 0.0
0.0 0.0 0.0

-1.8605374577185956e6 1.2058423696559178e7 0.0
1.2058423696559178e7 -128861.47916467738 0.0
0.0 0.0 0.0

-8.473977165856186e6 1.3673501036327647e7 0.0
1.3673501036327647e7 6.184293301883358e6 0.0
0.0 0.0 0.0

-6.582200921956738e6 1.006335316484535e7 0.0
1.006335316484535e7 6.41797198903099e6 0.0
0.0 0.0 0.0

1.054272057983255e6 7.062000356971117e6 0.0
7.062000356971117e6 -4.861558001508206e6 0.0
0.0 0.0 0.0

68609.58131288551 6.19628297775212e6 0.0
6.19628297775212e6 -3.316729253371263e6 0.0
0.0 0.0 0.0

-1.775992750805695e6 1.0597924511268763e7 0.0
1.0597924511268763e7 -8.544773160929885e6 0.0
0.0 0.0 0.0

-2.311061862657476e6 1.1712538099639159e7 0.0
1.1712538099639159e7 916291.8235915613 0.0
0.0 0.0 0.0

1.717308264560074e6 7.037029537538149e6 0.0
7.037029537538149e6 -4.576916242896793e6 0.0
0.0 0.0 0.0

-2.3368644208200634e7 1.5722580813630695e7 0.0
1.5722580813630695e7 9.327225022515746e6 0.0
0.0 0.0 0.0

3.4983650603965092e6 8.645902016651843e6 0.0
8.645902016651843e6 -1.466856527835628e7 0.0
0.0 0.0 0.0

-98330.24660309753 7.166076856081618e6 0.0
7.166076856081618e6 -3.7081096190353446e6 0.0
0.0 0.0 0.0

-1.225455121782887e6 1.0864784284840232e7 0.0
1.0864784284840232e7 -9.238086295788214e6 0.0
0.0 0.0 0.0

3.419141870088001e6 6.327538002231972e6 0.0
6.327538002231972e6 -1.0600174953809109e7 0.0
0.0 0.0 0.0

533400.0776833654 1.825677703471243e7 0.0
1.825677703471243e7 -6.744644625761897e6 0.0
0.0 0.0 0.0

1.7031009709448712e6 7.777215262095819e6 0.0
7.777215262095819e6 -7.610737666691404e6 0.0
0.0 0.0 0.0

-1.2258038211345697e7 5.670525293875525e6 0.0
5.670525293875525e6 1.690612223837594e7 0.0
0.0 0.0 0.0

-6.261777269701368e6 8.25680303771267e6 0.0
8.25680303771267e6 7.397325307952715e6 0.0
0.0 0.0 0.0

-4.85735980573054e6 1.2050694068605434e7 0.0
1.2050694068605434e7 4.1271513626214718e6 0.0
0.0 0.0 0.0

-5.956431019694583e6 8.566845641386224e6 0.0
8.566845641386224e6 4.521666949611307e6 0.0
0.0 0.0 0.0

-6.349745631202159e6 9.324704988656186e6 0.0
9.324704988656186e6 8.081602294512801e6 0.0
0.0 0.0 0.0

-5.362030155017831e6 1.1045489503368387e7 0.0
1.1045489503368387e7 2.571199909900256e6 0.0
0.0 0.0 0.0

1.1989586031771807e6 1.166695330980468e7 0.0
1.166695330980468e7 3.9965287268217886e6 0.0
0.0 0.0 0.0

-1.282796838171268e6 3.233274411320044e6 0.0
3.233274411320044e6 -226785.80140016452 0.0
0.0 0.0 0.0

-1.3828932390080926e6 1.1554686630678054e7 0.0
1.1554686630678054e7 -4.320827723840705e6 0.0
0.0 0.0 0.0

2.5457805622444153e6 1.01414787581323e7 0.0
1.01414787581323e7 -1.543352282655343e7 0.0
0.0 0.0 0.0

-1.1818872869944587e7 1.2517836157573953e7 0.0
1.2517836157573953e7 8.728950441314701e6 0.0
0.0 0.0 0.0

-4.825988655414262e6 1.4051074990935737e7 0.0
1.4051074990935737e7 -1.0467553203327756e6 0.0
0.0 0.0 0.0

1.8938504739836205e6 9.426066211331068e6 0.0
9.426066211331068e6 -2.4691568199811117e6 0.0
0.0 0.0 0.0

-6.269286812971944e6 8.258816117904062e6 0.0
8.258816117904062e6 8.289630156590322e6 0.0
0.0 0.0 0.0

-1.3654784678045766e7 1.0695719593266986e7 0.0
1.0695719593266986e7 1.0312026865323812e7 0.0
0.0 0.0 0.0

-2.261378723252854e6 1.2541229211863091e7 0.0
1.2541229211863091e7 -3.0461573961435114e6 0.0
0.0 0.0 0.0

103059.78853287874 1.0231067758687332e7 0.0
1.0231067758687332e7 -9.03708084463354e6 0.0
0.0 0.0 0.0

-1.4275420880685821e7 1.2431134420335285e7 0.0
1.2431134420335285e7 1.0679613271000817e7 0.0
0.0 0.0 0.0

6.133367624474906e6 1.623258527400438e7 0.0
1.623258527400438e7 -1.1686450892206343e7 0.0
0.0 0.0 0.0

1.5323072786684262e6 8.841728392420148e6 0.0
8.841728392420148e6 -1.3719868410046855e6 0.0
0.0 0.0 0.0

816751.6660009813 8.325399618735737e6 0.0
8.325399618735737e6 -6.9302701615672065e6 0.0
0.0 0.0 0.0

-2.0661620731906882e6 1.1246555957283206e7 0.0
1.1246555957283206e7 -9.853584047871267e6 0.0
0.0 0.0 0.0

-1.42609721649089e6 1.6840716741838027e7 0.0
1.6840716741838027e7 -3.4017651380350986e6 0.0
0.0 0.0 0.0

842167.7197213871 1.0744522480601203e7 0.0
1.0744522480601203e7 -6.883372397196335e6 0.0
0.0 0.0 0.0

-6.697915743830462e6 1.3530555948806133e7 0.0
1.3530555948806133e7 2.6122172513788394e6 0.0
0.0 0.0 0.0

2.441195971191969e6 9.529708319791775e6 0.0
9.529708319791775e6 -1.3671123864199199e7 0.0
0.0 0.0 0.0

-372512.0502209753 1.1188998181869341e7 0.0
1.1188998181869341e7 -39418.0813801295 0.0
0.0 0.0 0.0

-1.1973760513939101e7 9.524773604112064e6 0.0
9.524773604112064e6 8.547474672950864e6 0.0
0.0 0.0 0.0

-5.25655940937826e6 1.1307441829376968e7 0.0
1.1307441829376968e7 2.9330999015802764e6 0.0
0.0 0.0 0.0

6.140836713055929e6 8.877397858050708e6 0.0
8.877397858050708e6 -1.6504253865674208e6 0.0
0.0 0.0 0.0

-9.291623503555363e6 1.4053607128833234e7 0.0
1.4053607128833234e7 6.3407798765897695e6 0.0
0.0 0.0 0.0

-1.9251351335485836e6 9.70018048578821e6 0.0
9.70018048578821e6 1.1947441316300603e6 0.0
0.0 0.0 0.0

3.350250331458727e6 3.751753576305144e6 0.0
3.751753576305144e6 -5.343770520598429e6 0.0
0.0 0.0 0.0

-5.201288000247954e6 1.7053387897230674e7 0.0
1.7053387897230674e7 550805.7878209394 0.0
0.0 0.0 0.0

518352.682587632 1.0966567212923806e7 0.0
1.0966567212923806e7 -7.202631521024475e6 0.0
0.0 0.0 0.0

4.431129137778254e6 6.321816238733558e6 0.0
6.321816238733558e6 -1.232112198895082e7 0.0
0.0 0.0 0.0

-278796.4249397764 7.476615938722819e6 0.0
7.476615938722819e6 -3.5827662312817196e6 0.0
0.0 0.0 0.0

1.6189794164965532e6 7.211328328285389e6 0.0
7.211328328285389e6 -4.894666054777034e6 0.0
0.0 0.0 0.0

-491423.5079839872 8.78340086740483e6 0.0
8.78340086740483e6 -4.946066790890625e6 0.0
0.0 0.0 0.0

-9.58084605365653e6 9.947183416939756e6 0.0
9.947183416939756e6 6.8905686291661495e6 0.0
0.0 0.0 0.0

-1.3439400246677261e6 1.2001405153098635e7 0.0
1.2001405153098635e7 223671.15659795993 0.0
0.0 0.0 0.0

-506644.3712893757 1.353103600748956e7 0.0
1.353103600748956e7 -4.035862018575875e6 0.0
0.0 0.0 0.0

3.57678996500252e6 6.712677991844488e6 0.0
6.712677991844488e6 -1.0438231810143145e7 0.0
0.0 0.0 0.0

-2.915646310452332e6 1.0464988104235612e7 0.0
1.0464988104235612e7 -1.8261939398618513e6 0.0
0.0 0.0 0.0

-1.7532198893022146e6 9.55378312677712e6 0.0
9.55378312677712e6 -3.9554287309221034e6 0.0
0.0 0.0 0.0

-6.774537629341193e6 1.3025141719716383e7 0.0
1.3025141719716383e7 3.210919419378761e6 0.0
0.0 0.0 0.0

-418106.80386953324 1.6013955200350124e7 0.0
1.6013955200350124e7 -4.477076822591232e6 0.0
0.0 0.0 0.0

-5.5695684053716585e6 1.2273792420737011e7 0.0
1.2273792420737011e7 4.966622694729606e6 0.0
0.0 0.0 0.0

-3.0921940025336277e6 9.71047411585383e6 0.0
9.71047411585383e6 3.0204468847080464e6 0.0
0.0 0.0 0.0

-8.269242135605572e6 1.2469611142501583e7 0.0
1.2469611142501583e7 3.138568679874497e7 0.0
0.0 0.0 0.0

-1.1756403315437315e7 1.4577864017610021e7 0.0
1.4577864017610021e7 8.462975890219752e6 0.0
0.0 0.0 0.0

957501.2108056378 1.1520538508602133e7 0.0
1.1520538508602133e7 -5.735515773255287e6 0.0
0.0 0.0 0.0

2.1428065587329855e6 8.198233010305121e6 0.0
8.198233010305121e6 -8.88343638503621e6 0.0
0.0 0.0 0.0

2.4074219076106665e6 7.941200498519054e6 0.0
7.941200498519054e6 -9.286041452347329e6 0.0
0.0 0.0 0.0

2.489664115102457e6 5.707035959579492e6 0.0
5.707035959579492e6 -7.8324404141269075e6 0.0
0.0 0.0 0.0

-6.180085104197267e6 1.1118944310931932e7 0.0
1.1118944310931932e7 5.481052206609655e6 0.0
0.0 0.0 0.0

2.1098952164435284e6 5.625701799456176e6 0.0
5.625701799456176e6 -7.683854223236177e6 0.0
0.0 0.0 0.0

-7.845470872859262e6 -391433.9329660418 0.0
-391433.9329660418 9.655155578159656e6 0.0
0.0 0.0 0.0

-4.36210494713345e6 1.1816199618181055e7 0.0
1.1816199618181055e7 4.7866402327788565e6 0.0
0.0 0.0 0.0

-411820.4449557166 7.111154988783909e6 0.0
7.111154988783909e6 -3.2431288719227314e6 0.0
0.0 0.0 0.0

-5.475308680345521e6 1.390407719815173e7 0.0
1.390407719815173e7 -95362.55169928772 0.0
0.0 0.0 0.0

-5.497695750238655e6 1.5361906775822224e7 0.0
1.5361906775822224e7 1.1279177758613315e6 0.0
0.0 0.0 0.0

-184966.47583033866 1.0112402470745487e7 0.0
1.0112402470745487e7 -1.133174018241e6 0.0
0.0 0.0 0.0

2.3132932509378176e6 9.340334121688863e6 0.0
9.340334121688863e6 -1.2545407213459823e7 0.0
0.0 0.0 0.0

4.0122796608426254e6 6.1844423865524605e6 0.0
6.1844423865524605e6 -1.0996370231489863e7 0.0
0.0 0.0 0.0

-2.3009590611216657e7 1.6689029247525027e7 0.0
1.6689029247525027e7 3.369587527525979e6 0.0
0.0 0.0 0.0

2.4495294505150444e6 1.2306678447421728e7 0.0
1.2306678447421728e7 5.126292024398091e6 0.0
0.0 0.0 0.0

-5.626112177809817e6 1.5016678340564316e7 0.0
1.5016678340564316e7 1.5018582713522122e6 0.0
0.0 0.0 0.0

-2.2924226705982154e6 1.1026088493629143e7 0.0
1.1026088493629143e7 3.26670984365339e6 0.0
0.0 0.0 0.0

-217756.6683874582 1.0873543765560659e7 0.0
1.0873543765560659e7 -854260.9756171826 0.0
0.0 0.0 0.0

-1.1330830730711788e7 1.0095425329198973e6 0.0
1.0095425329198973e6 1.4812261447353577e7 0.0
0.0 0.0 0.0

-8.774214414001375e6 1.2023141737537734e7 0.0
1.2023141737537734e7 6.927892042914569e6 0.0
0.0 0.0 0.0

-1.5885270804865267e6 8.3660210150945475e6 0.0
8.3660210150945475e6 -2.9615531252283463e6 0.0
0.0 0.0 0.0

-4.789133905224217e6 1.7039618292807187e6 0.0
1.7039618292807187e6 3.986225562141775e6 0.0
0.0 0.0 0.0

-1.0935246026777104e7 7.3911313516864935e6 0.0
7.3911313516864935e6 4.490011781259263e7 0.0
0.0 0.0 0.0

-626388.749082193 1.2013269435564192e7 0.0
1.2013269435564192e7 -4.994578358984444e6 0.0
0.0 0.0 0.0

2.897222467183829e6 5.717498887373755e6 0.0
5.717498887373755e6 -5.067258048380671e6 0.0
0.0 0.0 0.0

-1.3688012579725053e7 2.154296196324817e6 0.0
2.154296196324817e6 2.459205543199022e7 0.0
0.0 0.0 0.0

3.387992881775964e6 5.924317536338169e6 0.0
5.924317536338169e6 -9.504206159915894e6 0.0
0.0 0.0 0.0

-3.9842292732277354e6 9.555511412708221e6 0.0
9.555511412708221e6 2.6282556825038036e6 0.0
0.0 0.0 0.0

-1.15274789167755e7 1.2670554697488679e7 0.0
1.2670554697488679e7 5.2008018561014915e6 0.0
0.0 0.0 0.0

-447208.3395987509 1.1388793999793636e7 0.0
1.1388793999793636e7 -6.315784970049465e6 0.0
0.0 0.0 0.0

-3.086597160041591e6 2.252246273028042e6 0.0
2.252246273028042e6 3.0137041201699376e6 0.0
0.0 0.0 0.0

-1.9613357335278632e6 1.2190666552706257e7 0.0
1.2190666552706257e7 278083.3578396443 0.0
0.0 0.0 0.0

1.5735637361372663e6 1.538019756391428e7 0.0
1.538019756391428e7 -5.834048257487122e6 0.0
0.0 0.0 0.0

-414681.57587348024 2.3879301959304935e6 0.0
2.3879301959304935e6 -713643.835392947 0.0
0.0 0.0 0.0

3.8054908713684734e6 9.515149760783039e6 0.0
9.515149760783039e6 -1.4984719007427918e6 0.0
0.0 0.0 0.0

-5.528997774381587e6 1.992674826050107e7 0.0
1.992674826050107e7 -5.766931069111289e6 0.0
0.0 0.0 0.0

2.855800862273449e6 5.81812924969006e6 0.0
5.81812924969006e6 -8.708829067211261e6 0.0
0.0 0.0 0.0

-3.431064783575557e6 8.30170115632246e6 0.0
8.30170115632246e6 346660.6440721797 0.0
0.0 0.0 0.0

1.0466441456843729e6 1.3275722152909677e7 0.0
1.3275722152909677e7 7.335287735026801e6 0.0
0.0 0.0 0.0

1.6906457647502124e7 6.540986578024061e6 0.0
6.540986578024061e6 -4.480701318950588e6 0.0
0.0 0.0 0.0

-1.503312568717933e7 1.3032121235099044e7 0.0
1.3032121235099044e7 6.714930421562877e6 0.0
0.0 0.0 0.0

-5.384391265560725e6 1.0740368482754393e7 0.0
1.0740368482754393e7 2.668752714092575e6 0.0
0.0 0.0 0.0

2.133450970921971e6 9.225789751218077e6 0.0
9.225789751218077e6 -1.1624175848161139e7 0.0
0.0 0.0 0.0

-8.411472847913329e6 1.106111767897665e7 0.0
1.106111767897665e7 6.2071126889007175e6 0.0
0.0 0.0 0.0

2.5469902093713447e6 9.114678310498744e6 0.0
9.114678310498744e6 548383.3070860228 0.0
0.0 0.0 0.0

-1.200203332848527e7 2.1755111693972684e6 0.0
2.1755111693972684e6 3.223600384721348e7 0.0
0.0 0.0 0.0

-3.974156371200756e6 1.2213986519555982e7 0.0
1.2213986519555982e7 3.638992962271506e6 0.0
0.0 0.0 0.0

-477404.86827419326 1.0766489371310929e7 0.0
1.0766489371310929e7 1.4549077442778265e6 0.0
0.0 0.0 0.0

-2.7025335379261984e6 9.812193708963402e6 0.0
9.812193708963402e6 -2.394145057612371e6 0.0
0.0 0.0 0.0

2.7711596088595856e6 1.1391043477404987e7 0.0
1.1391043477404987e7 -5.214967980752338e6 0.0
0.0 0.0 0.0

1.1256491998957377e6 1.1645512929317899e7 0.0
1.1645512929317899e7 -5.286280052648244e6 0.0
0.0 0.0 0.0

-1.5081861020185384e6 8.164263731934469e6 0.0
8.164263731934469e6 -2.202321393737624e6 0.0
0.0 0.0 0.0

-2.521923340187922e6 1.1408063783817723e7 0.0
1.1408063783817723e7 3.7005937146058795e6 0.0
0.0 0.0 0.0

-249043.69338836742 1.1029775904237034e7 0.0
1.1029775904237034e7 -1.0334106126946369e6 0.0
0.0 0.0 0.0

-251447.8730283109 1.071065595300103e7 0.0
1.071065595300103e7 -1.8819890761207677e6 0.0
0.0 0.0 0.0

-49547.102712557185 1.0112135272422874e7 0.0
1.0112135272422874e7 -8.618729997579144e6 0.0
0.0 0.0 0.0

-6.325217040306587e6 1.1896966839187257e7 0.0
1.1896966839187257e7 4.653466518311221e6 0.0
0.0 0.0 0.0

-8.316128111789747e6 1.1759912481571717e7 0.0
1.1759912481571717e7 2.1719607600659174e6 0.0
0.0 0.0 0.0

-9.097836348180236e6 1.2542422735750653e7 0.0
1.2542422735750653e7 7.153270467894113e6 0.0
0.0 0.0 0.0

-1.9433467003804091e6 1.1333915529276127e7 0.0
1.1333915529276127e7 2.0018177144909608e6 0.0
0.0 0.0 0.0

2.700868070383831e6 6.641734356517541e6 0.0
6.641734356517541e6 -8.742814959744427e6 0.0
0.0 0.0 0.0

-1.294170439370317e6 1.1891337632071573e7 0.0
1.1891337632071573e7 -5.169123909113562e6 0.0
0.0 0.0 0.0

-2.0757020136220176e6 1.6570925617588008e7 0.0
1.6570925617588008e7 -5.334458020320403e6 0.0
0.0 0.0 0.0

-7.004981569003727e6 -238523.53279099838 0.0
-238523.53279099838 7.592721319181396e6 0.0
0.0 0.0 0.0

-2.5774153457743395e6 1.2065600614526736e7 0.0
1.2065600614526736e7 1.9023038566559968e6 0.0
0.0 0.0 0.0

1.3292694496393497e6 9.391519548754508e6 0.0
9.391519548754508e6 -2.6177557524473313e6 0.0
0.0 0.0 0.0

2.061093487817505e6 1.2558214579984242e7 0.0
1.2558214579984242e7 -5.209805171006869e6 0.0
0.0 0.0 0.0

-5.765977758552323e6 2.905695294411417e6 0.0
2.905695294411417e6 8.011246204801356e6 0.0
0.0 0.0 0.0

-670178.7863592209 1.1161632591331864e7 0.0
1.1161632591331864e7 2.0530315171181383e6 0.0
0.0 0.0 0.0

-6.406494946997117e6 8.766518957838703e6 0.0
8.766518957838703e6 2.465216675458128e6 0.0
0.0 0.0 0.0

987461.0028124237 1.0368043537253896e7 0.0
1.0368043537253896e7 -8.404740342249729e6 0.0
0.0 0.0 0.0

-6.698030671515461e6 1.745360316393974e7 0.0
1.745360316393974e7 2.210878661646973e6 0.0
0.0 0.0 0.0

-9.771030077496769e6 1.277074649154882e7 0.0
1.277074649154882e7 7.604113245030193e6 0.0
0.0 0.0 0.0

-4.106964786865607e6 4.749189049066938e6 0.0
4.749189049066938e6 4.215664285357285e6 0.0
0.0 0.0 0.0

-2.967229121785243e6 1.2524711922792789e7 0.0
1.2524711922792789e7 169171.57798948244 0.0
0.0 0.0 0.0

-9.687096940729063e6 1.335078108271211e7 0.0
1.335078108271211e7 7.402772741333182e6 0.0
0.0 0.0 0.0

-9.058414171676865e6 1.2992597884674793e7 0.0
1.2992597884674793e7 7.0034284966778625e6 0.0
0.0 0.0 0.0

-289859.78268819966 1.0463420914336257e7 0.0
1.0463420914336257e7 647988.4398390009 0.0
0.0 0.0 0.0

664856.5332570826 8.851029608099584e6 0.0
8.851029608099584e6 -6.324381509877631e6 0.0
0.0 0.0 0.0

1.011872472553745e7 1.2637065334565053e7 0.0
1.2637065334565053e7 365427.849292709 0.0
0.0 0.0 0.0

-1.6761431121938538e7 -4.22536898741472e6 0.0
-4.22536898741472e6 7.541451749253224e6 0.0
0.0 0.0 0.0

-1.011461201189458e7 1.042705606536998e7 0.0
1.042705606536998e7 5.219551215495914e6 0.0
0.0 0.0 0.0

3.0267763047536104e6 5.913140201290633e6 0.0
5.913140201290633e6 -9.437133042222481e6 0.0
0.0 0.0 0.0

-2.682600775481846e6 1.072046935876228e7 0.0
1.072046935876228e7 -3.066862908794323e6 0.0
0.0 0.0 0.0

-8.292770259376455e6 1.1536067329084573e7 0.0
1.1536067329084573e7 6.564627002194521e6 0.0
0.0 0.0 0.0

-8.908601418259818e6 317400.33018204407 0.0
317400.33018204407 1.0497230181737613e7 0.0
0.0 0.0 0.0

1.4088845675060698e6 8.079848525048797e6 0.0
8.079848525048797e6 -8.404787138261553e6 0.0
0.0 0.0 0.0

-1.0175227983994314e6 9.637827490530955e6 0.0
9.637827490530955e6 -7.580332264026597e6 0.0
0.0 0.0 0.0

2.4468065954116145e6 9.835438187814398e6 0.0
9.835438187814398e6 -29646.301124540856 0.0
0.0 0.0 0.0

-1.8721447770705283e7 1.4058584863755202e7 0.0
1.4058584863755202e7 8.103585892246401e6 0.0
0.0 0.0 0.0

-1.4053329567203885e6 6.654997432862033e6 0.0
6.654997432862033e6 -1.9443309983788684e6 0.0
0.0 0.0 0.0

-7.082971542172186e6 1.2085273064131021e7 0.0
1.2085273064131021e7 5.580306944593003e6 0.0
0.0 0.0 0.0

-6.468411231582617e6 1.2413904581753766e7 0.0
1.2413904581753766e7 4.581382513694193e6 0.0
0.0 0.0 0.0

-9.023722453019371e6 -774314.8676973303 0.0
-774314.8676973303 1.529105043480334e7 0.0
0.0 0.0 0.0

-584194.0411662024 3.1773885251166336e6 0.0
3.1773885251166336e6 -404682.96527039807 0.0
0.0 0.0 0.0

216947.29265446588 9.022939964924311e6 0.0
9.022939964924311e6 -6.594931340008201e6 0.0
0.0 0.0 0.0

-7.693398386989028e6 1.0242822606211029e6 0.0
1.0242822606211029e6 9.73701167867556e6 0.0
0.0 0.0 0.0

-421884.17328659026 1.0503351639233954e7 0.0
1.0503351639233954e7 -6.42862172953547e6 0.0
0.0 0.0 0.0

2.9946773543959623e6 1.0643916269077113e7 0.0
1.0643916269077113e7 -4.0411350287057366e6 0.0
0.0 0.0 0.0

187019.8781656418 7.160236908095083e6 0.0
7.160236908095083e6 -4.896626840870565e6 0.0
0.0 0.0 0.0

-7.851724196911671e6 1.0610796539833063e7 0.0
1.0610796539833063e7 5.002783841443464e6 0.0
0.0 0.0 0.0

-7.205904738695545e6 1.2946868066646334e7 0.0
1.2946868066646334e7 4.1424604341576872e6 0.0
0.0 0.0 0.0

-644440.4116612892 6.961494123481731e6 0.0
6.961494123481731e6 -2.148134463619458e6 0.0
0.0 0.0 0.0

-547027.3696115424 1.0385438140973464e7 0.0
1.0385438140973464e7 -1.8234246204909119e6 0.0
0.0 0.0 0.0

398756.4846628101 9.013346119284498e6 0.0
9.013346119284498e6 -5.983683954031392e6 0.0
0.0 0.0 0.0

-1.1524851457818625e6 9.634416788272124e6 0.0
9.634416788272124e6 -7.618882654452755e6 0.0
0.0 0.0 0.0

-3.150600831600974e6 2.2633481037057275e6 0.0
2.2633481037057275e6 1.9690157179100683e6 0.0
0.0 0.0 0.0

-1.885646112084596e6 6.488899361164274e6 0.0
6.488899361164274e6 -357070.3383104953 0.0
0.0 0.0 0.0

-1.797756011684251e6 1.2598017931362107e7 0.0
1.2598017931362107e7 -3.6714569380333903e6 0.0
0.0 0.0 0.0

1.1187779761491865e6 6.742782289121121e6 0.0
6.742782289121121e6 -6.310742235824642e6 0.0
0.0 0.0 0.0

-1.5683611080365116e7 9.141280176159302e6 0.0
9.141280176159302e6 4.125820255449393e6 0.0
0.0 0.0 0.0

2.4905782718071844e6 1.1236101318579799e7 0.0
1.1236101318579799e7 -5.058909242415712e6 0.0
0.0 0.0 0.0

6.765898006854929e6 9.691955808319684e6 0.0
9.691955808319684e6 -4.586698065034736e6 0.0
0.0 0.0 0.0

-1.3674683729127564e7 1.2997651092234181e7 0.0
1.2997651092234181e7 9.820815783560239e6 0.0
0.0 0.0 0.0

-1.950900579976278e6 4.387120499415661e6 0.0
4.387120499415661e6 1.1447029957703473e6 0.0
0.0 0.0 0.0

-2.1121465787298074e6 9.613485655250369e6 0.0
9.613485655250369e6 -3.414042778532571e6 0.0
0.0 0.0 0.0

-3.757749378155437e6 1.1924230869732816e7 0.0
1.1924230869732816e7 280789.29427032266 0.0
0.0 0.0 0.0

-1.4118864898460258e7 9.730787410010252e6 0.0
9.730787410010252e6 8.17257378802767e6 0.0
0.0 0.0 0.0

-894317.3343354841 1.0484217091086805e7 0.0
1.0484217091086805e7 -9.331192794319404e6 0.0
0.0 0.0 0.0

-265998.9817565278 1.0895697358987344e7 0.0
1.0895697358987344e7 -28007.725145979275 0.0
0.0 0.0 0.0

-143290.7819784484 9.950355777309537e6 0.0
9.950355777309537e6 -8.199449233153492e6 0.0
0.0 0.0 0.0

-1.4307159981151043e7 1.1098757329211378e7 0.0
1.1098757329211378e7 9.681894284705918e6 0.0
0.0 0.0 0.0

-4.73810143025729e6 1.280870617270555e7 0.0
1.280870617270555e7 -786125.5343266573 0.0
0.0 0.0 0.0

-2.809373676428764e6 1.1929054700736828e7 0.0
1.1929054700736828e7 427724.4720955753 0.0
0.0 0.0 0.0

2.0679562619566726e6 8.521062987794416e6 0.0
8.521062987794416e6 -9.094925531219264e6 0.0
0.0 0.0 0.0

-1.0228860882906541e7 666826.8009327343 0.0
666826.8009327343 1.3568379989066716e7 0.0
0.0 0.0 0.0

-2.5755798815884567e6 9.43846586124398e6 0.0
9.43846586124398e6 -2.12731599285416e6 0.0
0.0 0.0 0.0

2.0891878912378722e6 1.1890128348588144e7 0.0
1.1890128348588144e7 -4.559205628013004e6 0.0
0.0 0.0 0.0

-642906.9269713336 1.028744809411315e7 0.0
1.028744809411315e7 -8.893073539478824e6 0.0
0.0 0.0 0.0

-8.173403670230245e6 1.191888263085037e7 0.0
1.191888263085037e7 5.289590065544274e6 0.0
0.0 0.0 0.0

-2.5680301293038274e6 1.9341028195519246e7 0.0
1.9341028195519246e7 -8.43187983374575e6 0.0
0.0 0.0 0.0

-2.3240281857926417e6 1.2307122328717731e7 0.0
1.2307122328717731e7 7484.603947688709 0.0
0.0 0.0 0.0

-9.052617320854189e6 1.1887613164306642e7 0.0
1.1887613164306642e7 6.00344098380189e6 0.0
0.0 0.0 0.0

-6.981595025211457e6 9.192549448573725e6 0.0
9.192549448573725e6 6.598298270252644e6 0.0
0.0 0.0 0.0

1.0992593885749101e6 1.1529757505278245e7 0.0
1.1529757505278245e7 -5.062496744080381e6 0.0
0.0 0.0 0.0

-6.523561443101265e6 1.19764247640077e7 0.0
1.19764247640077e7 4.890580991982627e6 0.0
0.0 0.0 0.0

-275211.22055030335 1.0287179840755856e7 0.0
1.0287179840755856e7 -9.021265026987718e6 0.0
0.0 0.0 0.0

2.1743104752215017e6 6.167551104226254e6 0.0
6.167551104226254e6 -8.242002151992801e6 0.0
0.0 0.0 0.0

-678886.1083158872 1.0145776741871642e7 0.0
1.0145776741871642e7 -8.504345692938544e6 0.0
0.0 0.0 0.0

-7.623019477331139e6 1.284091902527102e7 0.0
1.284091902527102e7 5.648045384385858e6 0.0
0.0 0.0 0.0

-728530.7688370007 1.0482137377435341e7 0.0
1.0482137377435341e7 -2.428435813185917e6 0.0
0.0 0.0 0.0

219444.89569765129 8.457993902194157e6 0.0
8.457993902194157e6 731482.9400911051 0.0
0.0 0.0 0.0

-8.909499795898981e6 6.645316301963889e6 0.0
6.645316301963889e6 9.8632963679344e6 0.0
0.0 0.0 0.0

-1.1699219597715882e6 8.106679992044021e6 0.0
8.106679992044021e6 -2.1330667694479832e6 0.0
0.0 0.0 0.0

829359.2180092453 1.160428926647615e7 0.0
1.160428926647615e7 6.508386180801368e6 0.0
0.0 0.0 0.0

-9.484729092770576e6 -1.2083961674658915e6 0.0
-1.2083961674658915e6 1.1539386823922113e7 0.0
0.0 0.0 0.0

3.4960392665244145e6 6.296842233828422e6 0.0
6.296842233828422e6 -1.103065706402905e7 0.0
0.0 0.0 0.0

210628.48819063464 1.039268306041182e7 0.0
1.039268306041182e7 -8.809756828683209e6 0.0
0.0 0.0 0.0

-8.568625942356508e6 1.2132537116654405e7 0.0
1.2132537116654405e7 6.141009146980271e6 0.0
0.0 0.0 0.0

5.977469253819985e6 9.791094869126705e6 0.0
9.791094869126705e6 395163.181774494 0.0
0.0 0.0 0.0

-6.566449959463847e6 2.482852117340996e6 0.0
2.482852117340996e6 7.426697260477193e6 0.0
0.0 0.0 0.0

-1.3821842157814588e7 1.3084328911969377e7 0.0
1.3084328911969377e7 4.595711416971394e6 0.0
0.0 0.0 0.0

-3.0562436596809374e6 1.1756319843559183e7 0.0
1.1756319843559183e7 1.858465160937144e6 0.0
0.0 0.0 0.0

-1.5780676998599544e7 1.0275752433474729e7 0.0
1.0275752433474729e7 9.74834478584886e6 0.0
0.0 0.0 0.0

3.590024131138569e6 6.519646038066411e6 0.0
6.519646038066411e6 -1.1500090307695381e7 0.0
0.0 0.0 0.0

-4.552359556288933e6 1.5239907338082163e7 0.0
1.5239907338082163e7 282772.4969366188 0.0
0.0 0.0 0.0

-1.2892168429862723e7 5.912776931274001e6 0.0
5.912776931274001e6 2.1331994544938263e7 0.0
0.0 0.0 0.0

-6.540907593418233e6 1.1926110278374417e7 0.0
1.1926110278374417e7 5.36284575869666e6 0.0
0.0 0.0 0.0

-754561.5191838224 1.05043018257355e7 0.0
1.05043018257355e7 -2.3318125678312294e6 0.0
0.0 0.0 0.0

27653.60592746979 3.280930108237694e6 0.0
3.280930108237694e6 -1.8260156154125105e6 0.0
0.0 0.0 0.0

-1.4002288759971475e6 1.0721444426492337e7 0.0
1.0721444426492337e7 1.7512218690630891e6 0.0
0.0 0.0 0.0

-3.3289323685428174e6 1.2131318908688612e7 0.0
1.2131318908688612e7 2.824383156384974e6 0.0
0.0 0.0 0.0

16079.872585327132 7.366273211024153e6 0.0
7.366273211024153e6 -4.581782494247779e6 0.0
0.0 0.0 0.0

-1.6576311628834952e6 1.1824659093320817e7 0.0
1.1824659093320817e7 -69333.57684518246 0.0
0.0 0.0 0.0

1.9492092657095976e6 1.1578019557569342e7 0.0
1.1578019557569342e7 -4.560506653182276e6 0.0
0.0 0.0 0.0

-1.232049355221186e6 7.531456580093235e6 0.0
7.531456580093235e6 -1.607438517388329e6 0.0
0.0 0.0 0.0

396364.30429279525 1.0167300387983281e7 0.0
1.0167300387983281e7 -9.07570386480524e6 0.0
0.0 0.0 0.0

-3.5117644690291686e6 7.596459810866537e6 0.0
7.596459810866537e6 742606.4726848563 0.0
0.0 0.0 0.0

-6.104265576332679e6 9.382490520149892e6 0.0
9.382490520149892e6 7.894705935597629e6 0.0
0.0 0.0 0.0

-2.7837013364937473e6 2.17810795428118e6 0.0
2.17810795428118e6 3.2743059408834297e6 0.0
0.0 0.0 0.0

-4.682759398242865e6 1.1562713777225776e7 0.0
1.1562713777225776e7 1.2132788713240435e6 0.0
0.0 0.0 0.0

-6.634093883455863e6 1.241165448075588e7 0.0
1.241165448075588e7 5.336735963470807e6 0.0
0.0 0.0 0.0

-2.117292905985602e6 1.6085837254705954e7 0.0
1.6085837254705954e7 -2.7048378224802366e6 0.0
0.0 0.0 0.0

-8.306594424260987e6 1.2325682602886336e6 0.0
1.2325682602886336e6 9.411381307658814e6 0.0
0.0 0.0 0.0

5028.596817617305 1.0309601076284353e7 0.0
1.0309601076284353e7 -9.297340380117796e6 0.0
0.0 0.0 0.0

-6.829879026862184e6 1.2315383260296952e7 0.0
1.2315383260296952e7 5.480411030629233e6 0.0
0.0 0.0 0.0

1.2219076434504006e6 1.052185102555764e7 0.0
1.052185102555764e7 -5.599628676707877e6 0.0
0.0 0.0 0.0

-1.799804790920563e6 8.55622064560853e6 0.0
8.55622064560853e6 -2.5833636039996333e6 0.0
0.0 0.0 0.0

-1.3491460145507879e6 3.7710390355000286e6 0.0
3.7710390355000286e6 418398.80672563845 0.0
0.0 0.0 0.0

-9.26409237153471e6 1.2172072412416838e7 0.0
1.2172072412416838e7 6.696181234397145e6 0.0
0.0 0.0 0.0

-4.1064195733803497e6 1.0902833096811155e7 0.0
1.0902833096811155e7 1.0445831007426241e6 0.0
0.0 0.0 0.0

-1.1419294685795903e6 1.0291022556655165e7 0.0
1.0291022556655165e7 3.862499954856135e6 0.0
0.0 0.0 0.0

2.750346181848212e6 2.84854698282576e6 0.0
2.84854698282576e6 -4.0027251491055693e6 0.0
0.0 0.0 0.0

1.908132346932776e6 9.060630165530356e6 0.0
9.060630165530356e6 -1.2325643911724817e6 0.0
0.0 0.0 0.0

3.341770097065036e6 8.560825831089163e6 0.0
8.560825831089163e6 -1.389535854497082e7 0.0
0.0 0.0 0.0

-7.560111252929971e6 1.7145132897202753e7 0.0
1.7145132897202753e7 766790.2645313875 0.0
0.0 0.0 0.0

-4.652428196736847e6 1.2297036419355568e7 0.0
1.2297036419355568e7 4.094787527658264e6 0.0
0.0 0.0 0.0

-2.3770727523267707e6 5.017925068815008e6 0.0
5.017925068815008e6 141163.02324688004 0.0
0.0 0.0 0.0

-744649.7989852714 1.1694934909718545e7 0.0
1.1694934909718545e7 -1.0867894663380042e6 0.0
0.0 0.0 0.0

2.777736975363693e6 9.184178462197982e6 0.0
9.184178462197982e6 -1.2721944959150303e7 0.0
0.0 0.0 0.0

525441.2991534416 1.0610971559820894e7 0.0
1.0610971559820894e7 -8.0972856503394535e6 0.0
0.0 0.0 0.0

-1.226320509247052e7 1.3157510948718984e7 0.0
1.3157510948718984e7 8.636550301398553e6 0.0
0.0 0.0 0.0

-726121.8887667757 1.0544741201724213e7 0.0
1.0544741201724213e7 -2.4204063533383794e6 0.0
0.0 0.0 0.0

-3.4945051434942046e6 1.213309885641575e7 0.0
1.213309885641575e7 610914.2718357369 0.0
0.0 0.0 0.0

-5.264595630773875e6 1.0466132817820352e7 0.0
1.0466132817820352e7 3.404593820338504e6 0.0
0.0 0.0 0.0

-1.484759852453253e6 9.844729865748607e6 0.0
9.844729865748607e6 -3.493276376267624e6 0.0
0.0 0.0 0.0

2.2614108427225193e6 9.749939507664977e6 0.0
9.749939507664977e6 -752923.8082141283 0.0
0.0 0.0 0.0

-5.2721677241563145e6 1.0474673038141545e7 0.0
1.0474673038141545e7 3.297549244873872e6 0.0
0.0 0.0 0.0

-1.391349495850426e6 1.1903974361302651e7 0.0
1.1903974361302651e7 602522.6780734283 0.0
0.0 0.0 0.0

-1.2494369552080268e7 3.0442543778730556e6 0.0
3.0442543778730556e6 2.5966038224942967e7 0.0
0.0 0.0 0.0

-1.4546676991256918e6 8.510238669968372e6 0.0
8.510238669968372e6 -2.523362912195232e6 0.0
0.0 0.0 0.0

-1.4065447744262759e6 9.439250530551195e6 0.0
9.439250530551195e6 -7.27001296935523e6 0.0
0.0 0.0 0.0

-873037.2166741285 1.1672710248667268e7 0.0
1.1672710248667268e7 -5.671398046568165e6 0.0
0.0 0.0 0.0

-3.385430158749036e6 9.3755793286415e6 0.0
9.3755793286415e6 -432436.86378932116 0.0
0.0 0.0 0.0

-3.6993575108066695e6 1.1895900539932078e7 0.0
1.1895900539932078e7 2.793041231634594e6 0.0
0.0 0.0 0.0

-424317.1686417923 1.0287106175030155e7 0.0
1.0287106175030155e7 -1.4143905758291674e6 0.0
0.0 0.0 0.0

-6.688035704611683e6 1.2412976735963983e7 0.0
1.2412976735963983e7 4.894290111663752e6 0.0
0.0 0.0 0.0

-1.3849267308803597e6 1.2128350969252463e7 0.0
1.2128350969252463e7 -68955.56184564094 0.0
0.0 0.0 0.0

-1.2128154306149326e7 -4.28816284179373e6 0.0
-4.28816284179373e6 2.4627753888735183e7 0.0
0.0 0.0 0.0

-5.1661335565748075e6 4.851448105227597e6 0.0
4.851448105227597e6 4.242378660378452e6 0.0
0.0 0.0 0.0

1.1973497103880392e6 1.0795287691957247e7 0.0
1.0795287691957247e7 -5.346178534684255e6 0.0
0.0 0.0 0.0

-1.2743498728829537e7 9.024808661756419e6 0.0
9.024808661756419e6 5.529192397912505e6 0.0
0.0 0.0 0.0

-1.6886874233590588e6 3.8422423937223763e6 0.0
3.8422423937223763e6 367590.2645160856 0.0
0.0 0.0 0.0

-1.2605567501404323e7 588245.9662441178 0.0
588245.9662441178 1.8099148484951064e7 0.0
0.0 0.0 0.0

-1.3910983862066965e6 -2.5080715713378103e6 0.0
-2.5080715713378103e6 1.2072243195879473e6 0.0
0.0 0.0 0.0

-3.4737437525741663e6 1.4496219594259546e6 0.0
1.4496219594259546e6 2.378882807633659e6 0.0
0.0 0.0 0.0

595523.3931734269 8.357615979598761e6 0.0
8.357615979598761e6 -6.593221067571396e6 0.0
0.0 0.0 0.0

-4.501600959990095e6 1.0955410334719988e7 0.0
1.0955410334719988e7 1.0405410129508949e6 0.0
0.0 0.0 0.0

-4.970708013938659e6 8.423066345509663e6 0.0
8.423066345509663e6 580970.7418573801 0.0
0.0 0.0 0.0

-4.424202572375925e6 1.1828417025423294e7 0.0
1.1828417025423294e7 3.9996112028586734e6 0.0
0.0 0.0 0.0

114385.74475635681 1.0017881874076448e7 0.0
1.0017881874076448e7 -8.13164711365706e6 0.0
0.0 0.0 0.0

-2.344129626672593e6 9.308367241460107e6 0.0
9.308367241460107e6 3.540004300157999e6 0.0
0.0 0.0 0.0

-1.8136185299983602e6 1.0298609734985804e7 0.0
1.0298609734985804e7 -8.141664120874531e6 0.0
0.0 0.0 0.0

-2.298289900768687e6 1.1768774178094102e7 0.0
1.1768774178094102e7 535268.6701525185 0.0
0.0 0.0 0.0

2.621959164909617e6 9.756178652855892e6 0.0
9.756178652855892e6 -1.425884836994169e7 0.0
0.0 0.0 0.0

2.5228212868392346e6 9.127787619213555e6 0.0
9.127787619213555e6 -1.1782572269911991e7 0.0
0.0 0.0 0.0

-3.080616559331294e6 1.2261772176028406e7 0.0
1.2261772176028406e7 687772.8483927059 0.0
0.0 0.0 0.0

-9.73287125466636e6 1.2566001648607245e7 0.0
1.2566001648607245e7 5.634315002410838e6 0.0
0.0 0.0 0.0

-7.080069587048674e6 1.16981523305018e7 0.0
1.16981523305018e7 5.60560920434338e6 0.0
0.0 0.0 0.0

-2.378340540536923e6 6.601179992717621e6 0.0
6.601179992717621e6 -485612.60959006695 0.0
0.0 0.0 0.0

-3.442696752084736e6 2.3030899849983845e6 0.0
2.3030899849983845e6 3.8221608491609585e6 0.0
0.0 0.0 0.0

1.4519101310467941e6 9.910540884113567e6 0.0
9.910540884113567e6 -5.228709623516349e6 0.0
0.0 0.0 0.0

3.117471765900148e6 1.1693966177490998e7 0.0
1.1693966177490998e7 -5.4636471977823675e6 0.0
0.0 0.0 0.0

-1.106024688368623e7 6.8082635214982e6 0.0
6.8082635214982e6 2.263851817098281e7 0.0
0.0 0.0 0.0

-1.5440203810498856e6 1.1660294366769416e7 0.0
1.1660294366769416e7 1.4483802395294304e6 0.0
0.0 0.0 0.0

-7.184644995347828e6 1.2380929191556666e7 0.0
1.2380929191556666e7 5.328442589970306e6 0.0
0.0 0.0 0.0

-992471.1656140399 8.920944483368775e6 0.0
8.920944483368775e6 -6.861796238996394e6 0.0
0.0 0.0 0.0

-1.2138342328584243e7 3.380416615905512e6 0.0
3.380416615905512e6 1.694649901492714e7 0.0
0.0 0.0 0.0

-1.7227727697394227e6 1.1597796843737312e7 0.0
1.1597796843737312e7 657534.8064876081 0.0
0.0 0.0 0.0

-1.5901747543340842e6 1.1501277962168505e7 0.0
1.1501277962168505e7 -4.987580458827408e6 0.0
0.0 0.0 0.0

829146.3197937733 1.0251787496256836e7 0.0
1.0251787496256836e7 -8.851202272146147e6 0.0
0.0 0.0 0.0

2.6549513368707644e6 8.673909847887635e6 0.0
8.673909847887635e6 -1.1988979806309681e7 0.0
0.0 0.0 0.0

1.9995774579820745e6 8.697796606057445e6 0.0
8.697796606057445e6 -1.0368235503350522e7 0.0
0.0 0.0 0.0

-1.1520027013841313e6 1.1381668939927883e7 0.0
1.1381668939927883e7 -1.072884846212358e7 0.0
0.0 0.0 0.0

-6.599343301147284e6 1.2180316476739302e7 0.0
1.2180316476739302e7 4.892122473073199e6 0.0
0.0 0.0 0.0

-4.349271913595146e6 1.2081784540142877e7 0.0
1.2081784540142877e7 1.8518994759806856e6 0.0
0.0 0.0 0.0

816334.358217068 1.078211720179941e7 0.0
1.078211720179941e7 -6.792048585496888e6 0.0
0.0 0.0 0.0

4.712911456545136e6 1.2248167150263341e7 0.0
1.2248167150263341e7 -6.015809396069495e6 0.0
0.0 0.0 0.0

-1.1154024540937873e7 -1.091369648126684e6 0.0
-1.091369648126684e6 2.1219433217326622e7 0.0
0.0 0.0 0.0

2.3815157179561947e6 9.40287204511612e6 0.0
9.40287204511612e6 -1.3044064533996569e7 0.0
0.0 0.0 0.0

2.42602973755638e6 8.818658655894745e6 0.0
8.818658655894745e6 -1.0187729106301691e7 0.0
0.0 0.0 0.0

-1.204798389551754e7 3.0295072088805437e6 0.0
3.0295072088805437e6 2.953003224245061e7 0.0
0.0 0.0 0.0

4.219682392661747e6 1.0262626916446121e7 0.0
1.0262626916446121e7 523801.7164703709 0.0
0.0 0.0 0.0

-1.0813599497276053e7 1.928947033013307e6 0.0
1.928947033013307e6 1.9810055420883622e7 0.0
0.0 0.0 0.0

341224.3010535027 2.0447711880204184e6 0.0
2.0447711880204184e6 -2.833847921928321e6 0.0
0.0 0.0 0.0

-7.133694289479996e6 1.2689002579681683e7 0.0
1.2689002579681683e7 4.90001172602372e6 0.0
0.0 0.0 0.0

1.1718394532509395e6 8.312596405687893e6 0.0
8.312596405687893e6 -8.0520071469897255e6 0.0
0.0 0.0 0.0

-9.121470821427181e6 1.2788404364070695e7 0.0
1.2788404364070695e7 6.791259750523154e6 0.0
0.0 0.0 0.0

-1.0325231493774047e7 4.971006478004012e6 0.0
4.971006478004012e6 1.5700364337765329e7 0.0
0.0 0.0 0.0

-3.787807406341841e6 4.693587877187159e6 0.0
4.693587877187159e6 2.612050682397244e6 0.0
0.0 0.0 0.0

-4.027584803933071e6 1.558689988757704e7 0.0
1.558689988757704e7 -413583.21811321646 0.0
0.0 0.0 0.0

-3.963441173195495e6 1.214981036315935e7 0.0
1.214981036315935e7 3.995107543295212e6 0.0
0.0 0.0 0.0

-4.0165177904188684e6 1.301530091871356e7 0.0
1.301530091871356e7 -471785.9816279956 0.0
0.0 0.0 0.0

-5.378886426410491e6 1.2087595546502706e7 0.0
1.2087595546502706e7 3.9712416272643018e6 0.0
0.0 0.0 0.0

246863.9535384276 1.036592910950026e7 0.0
1.036592910950026e7 -8.478403224277902e6 0.0
0.0 0.0 0.0

-59027.17689431622 1.267806197899356e7 0.0
1.267806197899356e7 -4.379043614871046e6 0.0
0.0 0.0 0.0

-2.3593413220112417e6 1.274546062696516e7 0.0
1.274546062696516e7 7.419059680068275e6 0.0
0.0 0.0 0.0

-4.982039297395129e6 -2.126329205818636e6 0.0
-2.126329205818636e6 8.133729847091039e6 0.0
0.0 0.0 0.0

-3.9583677941201264e6 2.598942379407701e6 0.0
2.598942379407701e6 647171.4000670242 0.0
0.0 0.0 0.0

-463319.3859045004 9.812885837256247e6 0.0
9.812885837256247e6 -1.5443977468335752e6 0.0
0.0 0.0 0.0

658860.2984507821 1.0388750091503851e7 0.0
1.0388750091503851e7 2.1962010506785014e6 0.0
0.0 0.0 0.0

-7.492096713853805e6 1.7798784158532936e7 0.0
1.7798784158532936e7 -547539.2010077969 0.0
0.0 0.0 0.0

801204.6963389656 5.866428632245753e6 0.0
5.866428632245753e6 -5.096211243290395e6 0.0
0.0 0.0 0.0

-9.413292294825371e6 1.358464149774506e7 0.0
1.358464149774506e7 7.0031935719113e6 0.0
0.0 0.0 0.0

-1.8377334246701658e7 249513.56656485147 0.0
249513.56656485147 1.0890334471538268e7 0.0
0.0 0.0 0.0

-791675.8107933865 1.1821313261837453e7 0.0
1.1821313261837453e7 -5.616707012981266e6 0.0
0.0 0.0 0.0

-1.083072200709511e7 6.168775270047784e6 0.0
6.168775270047784e6 1.3035804536747243e7 0.0
0.0 0.0 0.0

1.3643245372613596e6 1.048500489011467e7 0.0
1.048500489011467e7 -5.650585511685636e6 0.0
0.0 0.0 0.0

-4.328943161535072e6 1.2017442933737965e7 0.0
1.2017442933737965e7 3.3423262105962625e6 0.0
0.0 0.0 0.0

-4.237652056920328e6 1.0864889186835192e7 0.0
1.0864889186835192e7 614788.112156942 0.0
0.0 0.0 0.0

1.2430634072997062e6 1.105768885811171e7 0.0
1.105768885811171e7 -5.810811215712279e6 0.0
0.0 0.0 0.0

3.784227545271324e6 6.314232038646346e6 0.0
6.314232038646346e6 -1.1681207629246548e7 0.0
0.0 0.0 0.0

-1.1467270689277237e6 7.057029113518309e6 0.0
7.057029113518309e6 -3.8224238395784013e6 0.0
0.0 0.0 0.0

2.146363035071458e6 1.2933650750670325e7 0.0
1.2933650750670325e7 -5.054201756209235e6 0.0
0.0 0.0 0.0

608042.8540627724 1.0893465119202418e7 0.0
1.0893465119202418e7 -7.026005898601618e6 0.0
0.0 0.0 0.0

-159925.61583753303 9.30654920463894e6 0.0
9.30654920463894e6 2.6141030664938306e6 0.0
0.0 0.0 0.0

2.218214253122287e6 9.314999434302028e6 0.0
9.314999434302028e6 -1.2072442533888418e7 0.0
0.0 0.0 0.0

-3.781046974796065e6 1.1164674355296802e7 0.0
1.1164674355296802e7 -1.2617569957111282e6 0.0
0.0 0.0 0.0

-3.71256336737953e6 1.1095743973010438e7 0.0
1.1095743973010438e7 6.881897573956071e6 0.0
0.0 0.0 0.0

342227.7134273383 1.6311907398524264e7 0.0
1.6311907398524264e7 -7.410483965796755e6 0.0
0.0 0.0 0.0

2.3306156262962054e6 9.031529389380854e6 0.0
9.031529389380854e6 -1.1000796838125736e7 0.0
0.0 0.0 0.0

-1.476285089359928e7 -427340.9732032908 0.0
-427340.9732032908 9.699517996227205e6 0.0
0.0 0.0 0.0

-1.408047644124949e6 1.1129645276911544e7 0.0
1.1129645276911544e7 2.106306884474811e6 0.0
0.0 0.0 0.0

-9.73242558208042e6 1.305492022714511e7 0.0
1.305492022714511e7 7.203974874565158e6 0.0
0.0 0.0 0.0

-2.47961003305528e6 1.0688216504092848e7 0.0
1.0688216504092848e7 -2.378023879612993e6 0.0
0.0 0.0 0.0

-6.8868612371657435e6 1.2457768110867351e7 0.0
1.2457768110867351e7 5.460723052908665e6 0.0
0.0 0.0 0.0

-1.3802061494204227e7 5.900188222518756e6 0.0
5.900188222518756e6 2.3687026038609695e7 0.0
0.0 0.0 0.0

-196377.49573120312 9.235488880131422e6 0.0
9.235488880131422e6 -5.23695284278907e6 0.0
0.0 0.0 0.0

-5.861266105556896e6 1.5674992482651377e7 0.0
1.5674992482651377e7 -379709.2029329892 0.0
0.0 0.0 0.0

-914539.4568441516 6.542635981601823e6 0.0
6.542635981601823e6 -1.7869685772460098e6 0.0
0.0 0.0 0.0

-1.623621126442587e7 283819.8050034571 0.0
283819.8050034571 8.513676499439687e6 0.0
0.0 0.0 0.0

-2.0240951818664903e6 8.059121860335821e6 0.0
8.059121860335821e6 -1.414223917707174e6 0.0
0.0 0.0 0.0

-7.903471371677964e6 452812.66617248155 0.0
452812.66617248155 8.479589840359468e6 0.0
0.0 0.0 0.0

-9.490853917975921e6 6.858317752731189e6 0.0
6.858317752731189e6 1.403985101381253e7 0.0
0.0 0.0 0.0

-8.010545997276038e6 1.3017495669907479e7 0.0
1.3017495669907479e7 6.000960584963062e6 0.0
0.0 0.0 0.0

-1.0498012545591906e7 1.3496511978556233e7 0.0
1.3496511978556233e7 7.723289474858495e6 0.0
0.0 0.0 0.0

-1.067712012610623e7 4.405120901680955e6 0.0
4.405120901680955e6 1.8276203873426057e7 0.0
0.0 0.0 0.0

-388110.3683576555 7.876952894644177e6 0.0
7.876952894644177e6 -4.393840047174942e6 0.0
0.0 0.0 0.0

2.819144857322526e6 1.0484468737170013e7 0.0
1.0484468737170013e7 -4.276608129925851e6 0.0
0.0 0.0 0.0

-676428.7466260213 7.727368081014785e6 0.0
7.727368081014785e6 -5.640950664371574e6 0.0
0.0 0.0 0.0

-1.346912330751906e6 4.019126911322968e6 0.0
4.019126911322968e6 1.7302495775296325e6 0.0
0.0 0.0 0.0

-7.933106826810973e6 1.3063859341272943e7 0.0
1.3063859341272943e7 5.908330947493566e6 0.0
0.0 0.0 0.0

-7.305137366239123e6 7.851670686414483e6 0.0
7.851670686414483e6 8.31533340996431e6 0.0
0.0 0.0 0.0

2.0265823986357232e6 9.258452678671068e6 0.0
9.258452678671068e6 -1.1342460090393566e7 0.0
0.0 0.0 0.0

-1.0406668834643088e7 9.944813095225642e6 0.0
9.944813095225642e6 4.045250988073206e6 0.0
0.0 0.0 0.0

-4.533207148969019e6 1.3196876199588485e7 0.0
1.3196876199588485e7 211299.19355469057 0.0
0.0 0.0 0.0

4.027851335363563e6 7.216124150545139e6 0.0
7.216124150545139e6 -1.3346401492376955e7 0.0
0.0 0.0 0.0

-2.8654974387666592e6 1.1079076102286976e7 0.0
1.1079076102286976e7 3.8728063674160223e6 0.0
0.0 0.0 0.0

-4.309840055363181e6 1.0713870222530656e7 0.0
1.0713870222530656e7 1.6034468044111533e6 0.0
0.0 0.0 0.0

-350385.80433036643 1.1791261023379771e7 0.0
1.1791261023379771e7 -5.5464602269594595e6 0.0
0.0 0.0 0.0

-9.856099264654268e6 1.2545913048841385e7 0.0
1.2545913048841385e7 7.247665969635975e6 0.0
0.0 0.0 0.0

-4.209803415049307e6 1.1086517790889587e7 0.0
1.1086517790889587e7 991067.296821746 0.0
0.0 0.0 0.0

-8.461250706444545e6 1.3086902288009426e7 0.0
1.3086902288009426e7 6.431505839152146e6 0.0
0.0 0.0 0.0

-240058.21260497277 5.609063454958471e6 0.0
5.609063454958471e6 -2.766052173963663e6 0.0
0.0 0.0 0.0

27463.41705043998 1.116297033431736e7 0.0
1.116297033431736e7 2.0805794823925646e6 0.0
0.0 0.0 0.0

443850.6234235312 1.076512765105429e7 0.0
1.076512765105429e7 -7.746991593375452e6 0.0
0.0 0.0 0.0

-1.5984806405087493e6 7.963925362134328e6 0.0
7.963925362134328e6 -1.2871820755437627e6 0.0
0.0 0.0 0.0

-196050.49841774907 1.1365461986488078e7 0.0
1.1365461986488078e7 -6.527451148563521e6 0.0
0.0 0.0 0.0

975010.6278481586 6.880123128971001e6 0.0
6.880123128971001e6 -6.101776887249295e6 0.0
0.0 0.0 0.0

-1.076487672794741e6 1.1258073498779261e7 0.0
1.1258073498779261e7 6.394516968796569e6 0.0
0.0 0.0 0.0

-6.77032494556148e6 -2.0207166541761868e6 0.0
-2.0207166541761868e6 1.0047326670880716e7 0.0
0.0 0.0 0.0

149021.30115498265 1.1447481521386765e7 0.0
1.1447481521386765e7 2.4903187567193937e6 0.0
0.0 0.0 0.0

-6.96207009514839e6 1.2427880838884654e7 0.0
1.2427880838884654e7 4.909765278958492e6 0.0
0.0 0.0 0.0

773226.5253908033 1.062014669257133e7 0.0
1.062014669257133e7 -8.104715856576113e6 0.0
0.0 0.0 0.0

-4.880725446682599e6 1.4814309762974499e7 0.0
1.4814309762974499e7 635460.1341129374 0.0
0.0 0.0 0.0

-605787.0941530587 1.1592010010581896e7 0.0
1.1592010010581896e7 -991955.314220492 0.0
0.0 0.0 0.0

1.6228077239693366e6 8.085976365951186e6 0.0
8.085976365951186e6 -7.691543088652122e6 0.0
0.0 0.0 0.0

-4.826646620664236e6 1.3201370263762636e7 0.0
1.3201370263762636e7 -767728.343009539 0.0
0.0 0.0 0.0

280766.91120733414 1.0956775929829845e7 0.0
1.0956775929829845e7 -7.389787766014532e6 0.0
0.0 0.0 0.0

-2.0562693582169577e6 4.636117280096461e6 0.0
4.636117280096461e6 542259.0961145753 0.0
0.0 0.0 0.0

-4.704672136051466e6 1.2494688560904806e7 0.0
1.2494688560904806e7 4.709785108406253e6 0.0
0.0 0.0 0.0

-4.0176009476156626e6 1.2233343641987843e7 0.0
1.2233343641987843e7 3.36453558275415e6 0.0
0.0 0.0 0.0

-7.267391106681449e6 1.2662191084438693e7 0.0
1.2662191084438693e7 5.275867091335174e6 0.0
0.0 0.0 0.0

-1.518594179997294e6 1.1265082893231027e7 0.0
1.1265082893231027e7 1.274355452212172e6 0.0
0.0 0.0 0.0

123617.33563084679 3.9030187188456636e6 0.0
3.9030187188456636e6 -1.9703046564260935e6 0.0
0.0 0.0 0.0

-1.1431889471960586e7 2.679599985192928e6 0.0
2.679599985192928e6 1.4507220941573396e7 0.0
0.0 0.0 0.0

-483346.91870629485 1.1571844107014472e7 0.0
1.1571844107014472e7 -6.081348155482957e6 0.0
0.0 0.0 0.0

2.153966713459151e6 1.0676659698632263e7 0.0
1.0676659698632263e7 -1.325588831396473e7 0.0
0.0 0.0 0.0

-200189.8324744153 4.668446982533124e6 0.0
4.668446982533124e6 -2.1400520149059817e6 0.0
0.0 0.0 0.0

-2.8432807736222325e6 2.714805777543195e6 0.0
2.714805777543195e6 1.6282314349349958e6 0.0
0.0 0.0 0.0

-3.931758202729077e6 7.742067456081404e6 0.0
7.742067456081404e6 1.3633732040625338e6 0.0
0.0 0.0 0.0

-4.982492999048654e6 1.3023718817722386e7 0.0
1.3023718817722386e7 764024.6662650309 0.0
0.0 0.0 0.0

436796.7838019803 1.03533121062675e7 0.0
1.03533121062675e7 -1.0365879123486895e7 0.0
0.0 0.0 0.0

974357.6361338578 6.544098097480747e6 0.0
6.544098097480747e6 -5.545141406100239e6 0.0
0.0 0.0 0.0

-6.862122749856567e6 1.267415902944624e7 0.0
1.267415902944624e7 4.900517485520372e6 0.0
0.0 0.0 0.0

-4.0106917912083566e6 1.3402166614819394e7 0.0
1.3402166614819394e7 -476304.75062722596 0.0
0.0 0.0 0.0

-1.5551973634766512e7 1.3851851234176116e7 0.0
1.3851851234176116e7 9.97411854590854e6 0.0
0.0 0.0 0.0

-7.031863932201575e6 1.2663354986455726e7 0.0
1.2663354986455726e7 5.243681829071308e6 0.0
0.0 0.0 0.0

-1.5611697512997014e7 1.1664793326734472e7 0.0
1.1664793326734472e7 7.681680119066838e6 0.0
0.0 0.0 0.0

-1.5535346008982833e6 1.2202020948083965e7 0.0
1.2202020948083965e7 -181609.24740901735 0.0
0.0 0.0 0.0

1.6505825979800103e6 1.0514202971688889e7 0.0
1.0514202971688889e7 -1.2625810717551762e7 0.0
0.0 0.0 0.0

-1.6926716864119389e6 7.643092146114542e6 0.0
7.643092146114542e6 -1.762256749884178e6 0.0
0.0 0.0 0.0

-9.920974103026405e6 -3.142449084738395e6 0.0
-3.142449084738395e6 1.4478074945601387e7 0.0
0.0 0.0 0.0

-1.2616858902862469e7 -868638.4473396899 0.0
-868638.4473396899 2.006999024292779e7 0.0
0.0 0.0 0.0

3.090073124011565e6 7.052845509066369e6 0.0
7.052845509066369e6 -1.0928207022321505e7 0.0
0.0 0.0 0.0

-5.520058519085843e6 1.219132042826206e7 0.0
1.219132042826206e7 4.467184740703264e6 0.0
0.0 0.0 0.0

-1.0796770114737365e7 6.669439446518316e6 0.0
6.669439446518316e6 2.0539540403493803e7 0.0
0.0 0.0 0.0

62353.52315580193 1.1161425985327475e7 0.0
1.1161425985327475e7 -6.962832636729715e6 0.0
0.0 0.0 0.0

-1.1064763795126304e7 8.767162263721893e6 0.0
8.767162263721893e6 1.742361423178144e7 0.0
0.0 0.0 0.0

-5.252008671546111e6 1.2977109507350957e7 0.0
1.2977109507350957e7 -123458.33926687879 0.0
0.0 0.0 0.0

-7.45855422100129e6 1.5413399457313826e7 0.0
1.5413399457313826e7 2.2477363178734793e6 0.0
0.0 0.0 0.0

-523216.4571750794 1.145632767313195e7 0.0
1.145632767313195e7 -1.2680597411845454e6 0.0
0.0 0.0 0.0

-2.83978442827906e6 3.8210548964141766e6 0.0
3.8210548964141766e6 2.0486738722605545e6 0.0
0.0 0.0 0.0

-1.4119635595736727e6 1.1133891855037564e7 0.0
1.1133891855037564e7 1.6903082674549958e6 0.0
0.0 0.0 0.0

-3.287667186774192e6 7.633971502572377e6 0.0
7.633971502572377e6 1.4834379620414963e6 0.0
0.0 0.0 0.0

3.0187505977361044e6 6.333839058822531e6 0.0
6.333839058822531e6 -9.98857982206078e6 0.0
0.0 0.0 0.0

984046.4068447014 1.2334994556124818e7 0.0
1.2334994556124818e7 -4.908277707075685e6 0.0
0.0 0.0 0.0

-1.0979381223598244e7 4.286889545903297e6 0.0
4.286889545903297e6 7.582470955054439e6 0.0
0.0 0.0 0.0

-9.017777289879447e6 1.042940008044944e7 0.0
1.042940008044944e7 1.3117017250613398e6 0.0
0.0 0.0 0.0

-7.121374345237186e6 1.2983001085335545e7 0.0
1.2983001085335545e7 4.5398369129787395e6 0.0
0.0 0.0 0.0

-961487.2461987488 7.622331569700896e6 0.0
7.622331569700896e6 -4.240768083744888e6 0.0
0.0 0.0 0.0

-2.3721432963750125e6 1.1918710850386918e7 0.0
1.1918710850386918e7 184537.0140234609 0.0
0.0 0.0 0.0

-7.372258039557845e6 1.4680548577500487e7 0.0
1.4680548577500487e7 4.0051224145015744e6 0.0
0.0 0.0 0.0

-3.385559113664827e6 1.1008085480946625e7 0.0
1.1008085480946625e7 4.582895308924662e6 0.0
0.0 0.0 0.0

-1.8290264294911912e6 1.1357095092645014e7 0.0
1.1357095092645014e7 1.538030054044113e6 0.0
0.0 0.0 0.0

-492803.00718577846 7.552356539439611e6 0.0
7.552356539439611e6 -4.1533952696792153e6 0.0
0.0 0.0 0.0

-9.131338883744124e6 1.4191039081043093e7 0.0
1.4191039081043093e7 6.800438754940219e6 0.0
0.0 0.0 0.0

-7.391531095462645e6 -585770.1274333746 0.0
-585770.1274333746 8.73642261737075e6 0.0
0.0 0.0 0.0

2.4304863718722444e6 6.35820944810704e6 0.0
6.35820944810704e6 -7.940379022216408e6 0.0
0.0 0.0 0.0

-6.373598155180849e6 1.3125888008399367e7 0.0
1.3125888008399367e7 3.0993389589257045e6 0.0
0.0 0.0 0.0

656678.1287967181 1.0786328443791837e7 0.0
1.0786328443791837e7 -7.781011483941159e6 0.0
0.0 0.0 0.0

854341.2834520055 2.312393856840478e6 0.0
2.312393856840478e6 -2.843995148992694e6 0.0
0.0 0.0 0.0

-97961.22238351917 7.096548941553776e6 0.0
7.096548941553776e6 -4.789533145674891e6 0.0
0.0 0.0 0.0

-7.825491400460267e6 1.1496344159999907e7 0.0
1.1496344159999907e7 5.456258964921032e6 0.0
0.0 0.0 0.0

1.367100734437998e6 8.581592981767815e6 0.0
8.581592981767815e6 -7.596446428657454e6 0.0
0.0 0.0 0.0

-3675.1694271122105 1.0846485327486167e7 0.0
1.0846485327486167e7 4.936125604670733e6 0.0
0.0 0.0 0.0

-748093.8091423512 5.471652593202348e6 0.0
5.471652593202348e6 -2.4626009205657667e6 0.0
0.0 0.0 0.0

-150295.91982344422 4.0373300618578573e6 0.0
4.0373300618578573e6 -3.032708561197931e6 0.0
0.0 0.0 0.0

-3.2485860775903e6 1.5836451356027048e7 0.0
1.5836451356027048e7 -1.3173736924523397e6 0.0
0.0 0.0 0.0

-7.272621900007195e6 180223.56661340434 0.0
180223.56661340434 8.845660059422432e6 0.0
0.0 0.0 0.0

-797973.8146042057 9.396877425128004e6 0.0
9.396877425128004e6 -4.258809414718583e6 0.0
0.0 0.0 0.0

1.3309040577544095e6 8.70948372988878e6 0.0
8.70948372988878e6 -1.8926851938275504e6 0.0
0.0 0.0 0.0

1.0677353813062548e6 1.4526550807563804e7 0.0
1.4526550807563804e7 -6.107642003835577e6 0.0
0.0 0.0 0.0

-243894.84708710248 1.055542296191459e7 0.0
1.055542296191459e7 -5.83102647179889e6 0.0
0.0 0.0 0.0

546066.8030953994 1.2302031957753843e7 0.0
1.2302031957753843e7 3.9427003126952522e6 0.0
0.0 0.0 0.0

-6.818844054527342e6 1.22929788433797e7 0.0
1.22929788433797e7 5.447895178684093e6 0.0
0.0 0.0 0.0

-9.144618067450136e6 -1.4410117432834248e6 0.0
-1.4410117432834248e6 1.263475212685375e7 0.0
0.0 0.0 0.0

-6.180740038104018e6 1.3378359922596054e7 0.0
1.3378359922596054e7 2.834607402328214e6 0.0
0.0 0.0 0.0

-2.2607680883714445e6 1.1275167715930447e7 0.0
1.1275167715930447e7 3.5377857197673866e6 0.0
0.0 0.0 0.0

640039.9109715819 8.094600014043515e6 0.0
8.094600014043515e6 -6.42677958373302e6 0.0
0.0 0.0 0.0

3.819114269353752e6 6.450591984985063e6 0.0
6.450591984985063e6 -1.0771744143395599e7 0.0
0.0 0.0 0.0

-4.344350384892498e6 1.1012074477554746e7 0.0
1.1012074477554746e7 561758.1190584861 0.0
0.0 0.0 0.0

-2.767540986767429e6 5.91400503795639e6 0.0
5.91400503795639e6 1.3939425418113144e6 0.0
0.0 0.0 0.0

-8.396596704034567e6 6.7419584708537115e6 0.0
6.7419584708537115e6 1.1631689609701242e7 0.0
0.0 0.0 0.0

865719.1879298114 1.0476405462676493e7 0.0
1.0476405462676493e7 -8.441337579172011e6 0.0
0.0 0.0 0.0

1.62774177991087e6 1.0160996131669506e7 0.0
1.0160996131669506e7 -1.2298389398162605e7 0.0
0.0 0.0 0.0

-6.37349078050293e6 1.3760885398079854e7 0.0
1.3760885398079854e7 2.9890144874878093e6 0.0
0.0 0.0 0.0

-1.3372899467114368e6 1.1397192767297545e7 0.0
1.1397192767297545e7 793769.2354087944 0.0
0.0 0.0 0.0

-1.9137613994136553e7 744394.0200605411 0.0
744394.0200605411 9.776084438267652e6 0.0
0.0 0.0 0.0

698343.7548577959 1.2771176062429423e7 0.0
1.2771176062429423e7 4.9560806117982995e6 0.0
0.0 0.0 0.0

-1.842795535563082e7 8.049951593998701e6 0.0
8.049951593998701e6 7.651736048172117e6 0.0
0.0 0.0 0.0

1.6445571086643739e6 8.431774126365349e6 0.0
8.431774126365349e6 -9.238377860969853e6 0.0
0.0 0.0 0.0

3.705135079527506e6 4.121359417424017e6 0.0
4.121359417424017e6 101349.54184440267 0.0
0.0 0.0 0.0

-4.342277974906442e6 -2.963347141744127e6 0.0
-2.963347141744127e6 3.852787403753762e6 0.0
0.0 0.0 0.0

-2.0778373072979124e6 5.26761144887808e6 0.0
5.26761144887808e6 748355.3205486644 0.0
0.0 0.0 0.0

-8.839072446603231e6 -616896.9742092756 0.0
-616896.9742092756 1.2451031818017324e7 0.0
0.0 0.0 0.0

-8.027061144163183e6 336826.03087146085 0.0
336826.03087146085 9.321250304109901e6 0.0
0.0 0.0 0.0

232770.3413374084 1.1345229130670711e7 0.0
1.1345229130670711e7 -6.513791022169626e6 0.0
0.0 0.0 0.0

-1.689366171976652e6 7.708453917871297e6 0.0
7.708453917871297e6 -5.631220748061188e6 0.0
0.0 0.0 0.0

-137901.196405199 1.0182980631593961e7 0.0
1.0182980631593961e7 -459670.66088563314 0.0
0.0 0.0 0.0

1.6453589965507237e6 9.032564669971785e6 0.0
9.032564669971785e6 -3.2037717115536253e6 0.0
0.0 0.0 0.0

-6.602904396042813e6 1.4130948177837212e7 0.0
1.4130948177837212e7 3.185780264666757e6 0.0
0.0 0.0 0.0

-3.2547206745512104e6 6.096913826594696e6 0.0
6.096913826594696e6 2.31546833098265e6 0.0
0.0 0.0 0.0

-1.0761237648878372e6 1.0782044852834508e7 0.0
1.0782044852834508e7 -5.476797334734528e6 0.0
0.0 0.0 0.0

-5.685785578036769e6 1.1039255755529681e7 0.0
1.1039255755529681e7 3.08106092209984e6 0.0
0.0 0.0 0.0

2.426788349062888e6 7.806736623600025e6 0.0
7.806736623600025e6 -1.0471545107131196e7 0.0
0.0 0.0 0.0

-7.27939322289654e6 151178.14201974927 0.0
151178.14201974927 9.514224802286664e6 0.0
0.0 0.0 0.0

-5.723272892021932e6 1.329902096621401e7 0.0
1.329902096621401e7 2.1128762875048956e6 0.0
0.0 0.0 0.0

-1.2606209449799042e6 1.1477328533218687e7 0.0
1.1477328533218687e7 352337.56695292244 0.0
0.0 0.0 0.0

-1.1829576204402565e6 1.163003156111315e7 0.0
1.163003156111315e7 -11244.303274697857 0.0
0.0 0.0 0.0

-4.769027850151365e6 1.247023393775045e7 0.0
1.247023393775045e7 1.9222743715354e6 0.0
0.0 0.0 0.0

-13172.82880748465 1.0857102774381954e7 0.0
1.0857102774381954e7 1.539909118552329e6 0.0
0.0 0.0 0.0

-3.784808963231492e6 1.2807136267061545e7 0.0
1.2807136267061545e7 1.405765850602503e6 0.0
0.0 0.0 0.0

-1.121390070405004e7 6.022494269015832e6 0.0
6.022494269015832e6 1.4308637861086924e7 0.0
0.0 0.0 0.0

-9.165776631397624e6 -2.66234252425098e6 0.0
-2.66234252425098e6 1.2699320091467425e7 0.0
0.0 0.0 0.0

986438.0839808392 7.91510099282231e6 0.0
7.91510099282231e6 -6.135498230613311e6 0.0
0.0 0.0 0.0

3.316573099085793e6 6.808303068554326e6 0.0
6.808303068554326e6 -1.1243595565130433e7 0.0
0.0 0.0 0.0

-882402.3695477676 1.0825915320906572e7 0.0
1.0825915320906572e7 -4.849988772605869e6 0.0
0.0 0.0 0.0

1.1198276079814364e6 9.96636086060531e6 0.0
9.96636086060531e6 1.3436859503895123e6 0.0
0.0 0.0 0.0

768457.1314618709 6.422536277024642e6 0.0
6.422536277024642e6 -5.738193669003554e6 0.0
0.0 0.0 0.0

-1.0200485653818478e6 1.0292079052592937e7 0.0
1.0292079052592937e7 -8.789849270874068e6 0.0
0.0 0.0 0.0

1.6499391574928146e6 9.935990259341327e6 0.0
9.935990259341327e6 -1.1878402421100257e7 0.0
0.0 0.0 0.0

-3.1102096541132e6 7.488215634179321e6 0.0
7.488215634179321e6 175615.8067065801 0.0
0.0 0.0 0.0

-5.401225610620992e6 1.2367847979714356e7 0.0
1.2367847979714356e7 4.480878119801434e6 0.0
0.0 0.0 0.0

-5.183207545049846e6 1.307233223714522e7 0.0
1.307233223714522e7 2.1749446381622097e6 0.0
0.0 0.0 0.0

-1.0512390148340674e7 -3.0526908539927853e6 0.0
-3.0526908539927853e6 1.990034130410187e7 0.0
0.0 0.0 0.0

1.7394424330327632e6 9.810282419614557e6 0.0
9.810282419614557e6 -1.153691549371468e7 0.0
0.0 0.0 0.0

-1.143788407652492e7 5.736778514427579e6 0.0
5.736778514427579e6 1.5419362317254616e7 0.0
0.0 0.0 0.0

-1.1426976292660916e6 1.176109873069264e7 0.0
1.176109873069264e7 -290074.92773110233 0.0
0.0 0.0 0.0

-6.9470489088028725e6 1.3891236827957636e7 0.0
1.3891236827957636e7 2.8108237733714697e6 0.0
0.0 0.0 0.0

-8.742900256915895e6 1.1295649826737734e7 0.0
1.1295649826737734e7 4.999474340061583e6 0.0
0.0 0.0 0.0

-8.347352684154233e6 5.799120503435263e6 0.0
5.799120503435263e6 1.1964737545511944e7 0.0
0.0 0.0 0.0

-1.0382032655581427e6 8.721932311512314e6 0.0
8.721932311512314e6 -6.667286815920379e6 0.0
0.0 0.0 0.0

38240.52564688862 1.0658384741122836e7 0.0
1.0658384741122836e7 887388.2702603025 0.0
0.0 0.0 0.0

2.793075393920395e6 7.192747872207712e6 0.0
7.192747872207712e6 -1.0596618584963033e7 0.0
0.0 0.0 0.0

113842.4278068887 6.842296388147074e6 0.0
6.842296388147074e6 -5.075067135491209e6 0.0
0.0 0.0 0.0

-1.048485798857291e7 3.564566952684957e6 0.0
3.564566952684957e6 1.5635010541047737e7 0.0
0.0 0.0 0.0

-3.738971413350426e6 1.180974738412747e7 0.0
1.180974738412747e7 3.1681743937485474e6 0.0
0.0 0.0 0.0

-1.3908327861288374e7 8.83074521041141e6 0.0
8.83074521041141e6 4.529930709235246e6 0.0
0.0 0.0 0.0

888830.9468313679 1.011545767190124e7 0.0
1.011545767190124e7 -8.856088990264174e6 0.0
0.0 0.0 0.0

2.093812710833494e6 8.336039969798168e6 0.0
8.336039969798168e6 -1.025474321604766e7 0.0
0.0 0.0 0.0

1.7738819350141422e6 9.713914004246572e6 0.0
9.713914004246572e6 -1.1209186797670418e7 0.0
0.0 0.0 0.0

2.886396729917836e6 5.749237258695467e6 0.0
5.749237258695467e6 -5.793952029237293e6 0.0
0.0 0.0 0.0

-2.3512721647191485e6 1.0997124574067578e7 0.0
1.0997124574067578e7 -2.6282018814982944e6 0.0
0.0 0.0 0.0

-685843.9458054058 1.2692867172753856e7 0.0
1.2692867172753856e7 -4.475959117133371e6 0.0
0.0 0.0 0.0

-1.5490258223227233e7 1.1834913125287151e7 0.0
1.1834913125287151e7 1.1490054538133373e7 0.0
0.0 0.0 0.0

1.0235535866372567e6 5.994524527767058e6 0.0
5.994524527767058e6 -3.4672428176463665e6 0.0
0.0 0.0 0.0

576701.181226755 1.0971328522325056e7 0.0
1.0971328522325056e7 -7.385270568853184e6 0.0
0.0 0.0 0.0

-6.425750883308742e6 8.288818104845611e6 0.0
8.288818104845611e6 8.946953109668313e6 0.0
0.0 0.0 0.0

-3.925474314033605e6 2.3596158303147494e6 0.0
2.3596158303147494e6 4.8864032144541e6 0.0
0.0 0.0 0.0

2.776428375432472e6 6.492983352104625e6 0.0
6.492983352104625e6 -9.621548411496792e6 0.0
0.0 0.0 0.0

-4.230319624785563e6 3.146258101458019e6 0.0
3.146258101458019e6 5.093279922853287e6 0.0
0.0 0.0 0.0

-8.093413005007118e6 1.1672922993087906e6 0.0
1.1672922993087906e6 1.0215482658418119e7 0.0
0.0 0.0 0.0

-2.565462132989167e6 5.700028845515362e6 0.0
5.700028845515362e6 1.4606189255888832e6 0.0
0.0 0.0 0.0

-4.562956965779852e6 1.2214055149306905e7 0.0
1.2214055149306905e7 4.380507254062837e6 0.0
0.0 0.0 0.0

-880845.5214333567 7.093725818180148e6 0.0
7.093725818180148e6 -1.9267031444174368e6 0.0
0.0 0.0 0.0

7.946469634794658e6 5.740178426844886e6 0.0
5.740178426844886e6 -1.8236096468433873e6 0.0
0.0 0.0 0.0

-1.1078314720163554e7 -4.523416782831171e6 0.0
-4.523416782831171e6 6.913408904475014e6 0.0
0.0 0.0 0.0

535251.3494895697 6.577672174788717e6 0.0
6.577672174788717e6 -5.279168363819022e6 0.0
0.0 0.0 0.0

2.6195621922511123e6 8.1091890395359285e6 0.0
8.1091890395359285e6 -9.906052875023253e6 0.0
0.0 0.0 0.0

2.949557285145003e6 7.503983368043161e6 0.0
7.503983368043161e6 -1.0010679355095258e7 0.0
0.0 0.0 0.0

867456.6953811691 1.1640309325767085e6 0.0
1.1640309325767085e6 290222.5168716877 0.0
0.0 0.0 0.0

-2.0036076423119027e6 -889742.1565188104 0.0
-889742.1565188104 1.7459751201702226e6 0.0
0.0 0.0 0.0

-128783.27845938783 1.0281871509265058e7 0.0
1.0281871509265058e7 -8.89276541594079e6 0.0
0.0 0.0 0.0

3.12452051912666e6 6.748295002397707e6 0.0
6.748295002397707e6 -1.073124553827288e7 0.0
0.0 0.0 0.0

-1.1858675729927862e7 1.240701936670614e7 0.0
1.240701936670614e7 3.4101554758170154e6 0.0
0.0 0.0 0.0

-6.6210088910610955e6 1.0288831665532906e7 0.0
1.0288831665532906e7 6.044658830934817e6 0.0
0.0 0.0 0.0

-5.376220223231926e6 1.314283838793317e7 0.0
1.314283838793317e7 1.4145668643023951e6 0.0
0.0 0.0 0.0

-145902.5375463321 1.0644031377488438e7 0.0
1.0644031377488438e7 1.2731202575231844e6 0.0
0.0 0.0 0.0

2.081791836556538e6 7.420267344192759e6 0.0
7.420267344192759e6 3.120211242718992e6 0.0
0.0 0.0 0.0

-8.780705604858063e6 1.2021588906895485e7 0.0
1.2021588906895485e7 4.587409570673345e6 0.0
0.0 0.0 0.0

-1.0658333611161299e7 182887.45770629396 0.0
182887.45770629396 1.6607604991015662e7 0.0
0.0 0.0 0.0

-4.774634426280059e6 1.2314928380159521e7 0.0
1.2314928380159521e7 3.9585350429389914e6 0.0
0.0 0.0 0.0

-250361.77359724697 1.270411461304268e7 0.0
1.270411461304268e7 -4.715328147384764e6 0.0
0.0 0.0 0.0

-6.326375897501355e6 8.926583807288282e6 0.0
8.926583807288282e6 8.386809381111151e6 0.0
0.0 0.0 0.0

-3.2787031993757393e6 1.260135480458839e6 0.0
1.260135480458839e6 3.9945861251591593e6 0.0
0.0 0.0 0.0

-6.526314162545541e6 1.3181186320156215e7 0.0
1.3181186320156215e7 2.518364295777596e6 0.0
0.0 0.0 0.0

1.9066921507805386e6 8.209215712405377e6 0.0
8.209215712405377e6 -9.670569172357608e6 0.0
0.0 0.0 0.0

-3.889436217374236e6 1.3798358201739265e7 0.0
1.3798358201739265e7 -653258.606296073 0.0
0.0 0.0 0.0

3.284707029797012e6 7.00302440689309e6 0.0
7.00302440689309e6 -1.0298646190865714e7 0.0
0.0 0.0 0.0

-879473.4279953705 1.1021889258099107e7 0.0
1.1021889258099107e7 3.1845015906897397e6 0.0
0.0 0.0 0.0

-3.327341024186262e6 1.0887172939428357e7 0.0
1.0887172939428357e7 -1.8287730465729851e6 0.0
0.0 0.0 0.0

-1.8193767340550693e6 3.942880769461839e6 0.0
3.942880769461839e6 150340.13856092328 0.0
0.0 0.0 0.0

8106.761763750343 8.279611118220689e6 0.0
8.279611118220689e6 -5.699946915231328e6 0.0
0.0 0.0 0.0

3.5346892030997616e6 6.436943516142941e6 0.0
6.436943516142941e6 -1.0253246295380633e7 0.0
0.0 0.0 0.0

-706509.1628059517 1.5308555705521313e7 0.0
1.5308555705521313e7 -5.040062358746087e6 0.0
0.0 0.0 0.0

637565.6932550063 6.43110896481492e6 0.0
6.43110896481492e6 -5.645480885944666e6 0.0
0.0 0.0 0.0

-3.2642915037281536e6 4.624762681458267e6 0.0
4.624762681458267e6 1.8614227251106666e6 0.0
0.0 0.0 0.0

-6.701110081660522e6 1.2171467238166615e7 0.0
1.2171467238166615e7 4.548785845272124e6 0.0
0.0 0.0 0.0

1.6997644275557334e6 9.600188394358223e6 0.0
9.600188394358223e6 -1.08144008221238e7 0.0
0.0 0.0 0.0

-2.038570222292947e6 8.599268352839302e6 0.0
8.599268352839302e6 -6.795234082543815e6 0.0
0.0 0.0 0.0

151917.17087343405 1.028517877561494e7 0.0
1.028517877561494e7 506390.58037908014 0.0
0.0 0.0 0.0

-1.2015866589737e6 6.968168770459771e6 0.0
6.968168770459771e6 -1.4562031337760088e6 0.0
0.0 0.0 0.0

-3.181151608541018e6 6.794578286692641e6 0.0
6.794578286692641e6 599151.9664329211 0.0
0.0 0.0 0.0

-1.1996531047113594e6 1.1360858814664405e7 0.0
1.1360858814664405e7 2.844668210319664e6 0.0
0.0 0.0 0.0

-1.9461929319912288e6 2.381363782362558e6 0.0
2.381363782362558e6 2.1486861575786993e6 0.0
0.0 0.0 0.0

818514.4359155444 9.359381736234752e6 0.0
9.359381736234752e6 -967567.3613428166 0.0
0.0 0.0 0.0

-6.381933267356742e6 1.1128904154785968e7 0.0
1.1128904154785968e7 5.571933433642341e6 0.0
0.0 0.0 0.0

434931.0744289295 6.506335551015331e6 0.0
6.506335551015331e6 -5.391262424144547e6 0.0
0.0 0.0 0.0

-4.9033304810621e6 2.681704705994951e6 0.0
2.681704705994951e6 4.430911411564188e6 0.0
0.0 0.0 0.0

-2.6960158470142614e6 1.2363738527278705e7 0.0
1.2363738527278705e7 439996.0479891506 0.0
0.0 0.0 0.0

-6.58415922005124e6 9.15092301334281e6 0.0
9.15092301334281e6 7.521222069251333e6 0.0
0.0 0.0 0.0

-1.600643387338472e6 1.1366752632264238e7 0.0
1.1366752632264238e7 2.374546588223272e6 0.0
0.0 0.0 0.0

-4.903471088171766e6 3.9039859309788984e6 0.0
3.9039859309788984e6 6.17357845057163e6 0.0
0.0 0.0 0.0

-1.4630324856479971e6 1.2592333078962203e7 0.0
1.2592333078962203e7 -4.376745488066289e6 0.0
0.0 0.0 0.0

-6.559663485901218e6 1.2391998404751051e7 0.0
1.2391998404751051e7 5.276898375014931e6 0.0
0.0 0.0 0.0

-1.037243362856347e7 2.4715513454180555e6 0.0
2.4715513454180555e6 1.5086815969647985e7 0.0
0.0 0.0 0.0

-3.2797112137470366e6 6.071857106675886e6 0.0
6.071857106675886e6 1.1760281708265601e6 0.0
0.0 0.0 0.0

-1.0056279379842756e7 -1.3548485808318898e6 0.0
-1.3548485808318898e6 1.2704380247051626e7 0.0
0.0 0.0 0.0

-734020.5325790471 1.0652156144784952e7 0.0
1.0652156144784952e7 -5.984571462514296e6 0.0
0.0 0.0 0.0

-5.235037604686975e6 1.2347293299526384e7 0.0
1.2347293299526384e7 4.543962658838054e6 0.0
0.0 0.0 0.0

-1.1859860425959348e6 1.1903557485280685e7 0.0
1.1903557485280685e7 -421779.21144820226 0.0
0.0 0.0 0.0

1.2399223030495488e6 7.032469549604091e6 0.0
7.032469549604091e6 -5.851898365592938e6 0.0
0.0 0.0 0.0

-5.285504460658691e6 798875.9691866478 0.0
798875.9691866478 6.836343995913525e6 0.0
0.0 0.0 0.0

-1.09677641608476e7 8.67699740143888e6 0.0
8.67699740143888e6 1.566682394855427e7 0.0
0.0 0.0 0.0

-1.0667517902520936e7 4.768918933804531e6 0.0
4.768918933804531e6 1.6879740689501036e7 0.0
0.0 0.0 0.0

-2.8898018754632263e6 8.981238983741332e6 0.0
8.981238983741332e6 2.83944564717042e6 0.0
0.0 0.0 0.0

-5.693143551317453e6 3.2513513727623047e6 0.0
3.2513513727623047e6 5.256286061198562e6 0.0
0.0 0.0 0.0

-2.5417720442089895e6 6.689665472300289e6 0.0
6.689665472300289e6 674123.8602348466 0.0
0.0 0.0 0.0

-3.0062822297685714e6 1.0203654510712216e7 0.0
1.0203654510712216e7 -986025.7607634715 0.0
0.0 0.0 0.0

-1.0584242169024772e6 9.163930215901835e6 0.0
9.163930215901835e6 -4.627838638361644e6 0.0
0.0 0.0 0.0

-4.5801862984013865e6 1.211409263381665e7 0.0
1.211409263381665e7 4.6612059720445555e6 0.0
0.0 0.0 0.0

-8.334520259089747e6 1.3173368563616462e7 0.0
1.3173368563616462e7 6.238822053229738e6 0.0
0.0 0.0 0.0

-1.030542795913652e7 3.8746338734287038e6 0.0
3.8746338734287038e6 1.2239093781137649e7 0.0
0.0 0.0 0.0

335379.5113737364 1.116192011090732e7 0.0
1.116192011090732e7 2.490218562182249e6 0.0
0.0 0.0 0.0

1.1833655062016207e6 1.080441881614953e7 0.0
1.080441881614953e7 -6.097409704217674e6 0.0
0.0 0.0 0.0

1.3737208065601913e6 8.328303865221534e6 0.0
8.328303865221534e6 -7.380808708840444e6 0.0
0.0 0.0 0.0

3.6902637641602657e6 5.870866493096158e6 0.0
5.870866493096158e6 -1.0807573163287554e7 0.0
0.0 0.0 0.0

-6.708710245165318e6 -1.5856980064086767e6 0.0
-1.5856980064086767e6 9.267989717568133e6 0.0
0.0 0.0 0.0

-4.914079139224329e6 1.1949042909323143e7 0.0
1.1949042909323143e7 4.419522513413527e6 0.0
0.0 0.0 0.0

-8.7121994537691e6 7.015897944471839e6 0.0
7.015897944471839e6 1.3127084328498509e7 0.0
0.0 0.0 0.0

-1.1182821467796098e7 1.1331494331167955e7 0.0
1.1331494331167955e7 2.5754677447324373e7 0.0
0.0 0.0 0.0

-1.184313031985375e6 8.401317167133663e6 0.0
8.401317167133663e6 -4.303827842022806e6 0.0
0.0 0.0 0.0

467577.0894135199 1.0828272631554471e7 0.0
1.0828272631554471e7 1.5585905663755632e6 0.0
0.0 0.0 0.0

-3.947383357612406e6 1.7585899266335592e6 0.0
1.7585899266335592e6 3.0819697335485816e6 0.0
0.0 0.0 0.0

-9.99116479032648e6 -3.0914726762272064e6 0.0
-3.0914726762272064e6 4.221851515230989e6 0.0
0.0 0.0 0.0

1.6759699000061871e6 7.860684028381337e6 0.0
7.860684028381337e6 -8.775068657734461e6 0.0
0.0 0.0 0.0

-3.228925007137612e6 3.6435794675538237e6 0.0
3.6435794675538237e6 2.0437467549269754e6 0.0
0.0 0.0 0.0

1.8488723219221043e6 8.511779030131478e6 0.0
8.511779030131478e6 -9.827637871148458e6 0.0
0.0 0.0 0.0

-8.885819410886858e6 7.345349212090349e6 0.0
7.345349212090349e6 1.1875113466181204e7 0.0
0.0 0.0 0.0

2.1418050204665866e6 5.687556744986731e6 0.0
5.687556744986731e6 -7.095851878276229e6 0.0
0.0 0.0 0.0

-2.448445823349224e6 1.5694365512317853e7 0.0
1.5694365512317853e7 -3.747519441977223e6 0.0
0.0 0.0 0.0

-1.3687553629485397e6 8.07714022986606e6 0.0
8.07714022986606e6 -1.7180660440387349e6 0.0
0.0 0.0 0.0

1.1292178054009322e6 7.321820080010213e6 0.0
7.321820080010213e6 -4.0363148141065203e6 0.0
0.0 0.0 0.0

1.0754103042856697e7 5.989860596007232e6 0.0
5.989860596007232e6 -2.759599586249529e6 0.0
0.0 0.0 0.0

-9.231601376353938e6 8.403946260131191e6 0.0
8.403946260131191e6 1.0425393183000814e7 0.0
0.0 0.0 0.0

-248672.69129174645 7.334088391538212e6 0.0
7.334088391538212e6 -3.827639657831313e6 0.0
0.0 0.0 0.0

-1.0080608384728767e7 -265495.56329975853 0.0
-265495.56329975853 1.2061102033626797e7 0.0
0.0 0.0 0.0

2.0422647201039486e6 6.63841160706372e6 0.0
6.63841160706372e6 -5.736149513509827e6 0.0
0.0 0.0 0.0

-2.15658208238974e6 1.2186915789046852e7 0.0
1.2186915789046852e7 11551.826410525246 0.0
0.0 0.0 0.0

-6.340507183697796e6 1.0580102364962945e7 0.0
1.0580102364962945e7 6.549345651305446e6 0.0
0.0 0.0 0.0

-3.0994328880310883e6 5.097816475516183e6 0.0
5.097816475516183e6 2.4755992641536905e6 0.0
0.0 0.0 0.0

1.961446605627738e6 7.329569453857662e6 0.0
7.329569453857662e6 -8.93439363350312e6 0.0
0.0 0.0 0.0

-122941.01390629262 1.043300055259431e7 0.0
1.043300055259431e7 -9.535349602972073e6 0.0
0.0 0.0 0.0

-672053.3050349854 4.625765383777979e6 0.0
4.625765383777979e6 -1.9960781602038867e6 0.0
0.0 0.0 0.0

1.3170955215056571e6 5.651434900202402e6 0.0
5.651434900202402e6 -6.344609914723058e6 0.0
0.0 0.0 0.0

-2.0757771833131732e6 9.950390776128225e6 0.0
9.950390776128225e6 -3.6200190028200075e6 0.0
0.0 0.0 0.0

5.385486273459661e6 1.0137204496576862e7 0.0
1.0137204496576862e7 -3.85442256534883e6 0.0
0.0 0.0 0.0

3.8228331188375787e6 6.799412486063693e6 0.0
6.799412486063693e6 -1.0988774111101562e7 0.0
0.0 0.0 0.0

-2.716838050772064e6 -1.4689383047885299e6 0.0
-1.4689383047885299e6 769905.2745137422 0.0
0.0 0.0 0.0

-6.28074174340051e6 9.682390512227628e6 0.0
9.682390512227628e6 7.525678629933778e6 0.0
0.0 0.0 0.0

-284328.3252422669 6.014726007410939e6 0.0
6.014726007410939e6 -2.718501299282283e6 0.0
0.0 0.0 0.0

-3.5736100707701556e6 4.64028761160367e6 0.0
4.64028761160367e6 3.3843893246813496e6 0.0
0.0 0.0 0.0

4.0215375497380216e6 7.113224267555863e6 0.0
7.113224267555863e6 -1.21490788754183e7 0.0
0.0 0.0 0.0

867005.5417090728 1.1410689143662166e7 0.0
1.1410689143662166e7 2.8900185081879287e6 0.0
0.0 0.0 0.0

-1.4821572899288163e6 1.0697163497038623e7 0.0
1.0697163497038623e7 5.72480494982118e6 0.0
0.0 0.0 0.0

-543435.567453196 9.974615816782875e6 0.0
9.974615816782875e6 -8.144804492486347e6 0.0
0.0 0.0 0.0

-1.2407400056831772e6 7.900301169368811e6 0.0
7.900301169368811e6 -3.846900672896476e6 0.0
0.0 0.0 0.0

-6.131281450827293e6 1.1057844261754004e7 0.0
1.1057844261754004e7 6.2621973689074535e6 0.0
0.0 0.0 0.0

3.317087636614684e6 1.0857606940934245e7 0.0
1.0857606940934245e7 -4.205380583547289e6 0.0
0.0 0.0 0.0

1.4066619120778027e6 8.360884594649233e6 0.0
8.360884594649233e6 -8.618063478073994e6 0.0
0.0 0.0 0.0

-7.302985104076324e6 1.4259259218859425e7 0.0
1.4259259218859425e7 2.999374980097187e6 0.0
0.0 0.0 0.0

-420388.8699679185 7.884953281949286e6 0.0
7.884953281949286e6 -997772.6529929156 0.0
0.0 0.0 0.0

-2.650420972189081e7 -3.740834305339898e6 0.0
-3.740834305339898e6 1.0742981570314674e7 0.0
0.0 0.0 0.0

1.811570975049913e7 6.568306036520042e6 0.0
6.568306036520042e6 -4.661135931161615e6 0.0
0.0 0.0 0.0

-112999.97365963878 9.140413006864173e6 0.0
9.140413006864173e6 1.5577831760816749e6 0.0
0.0 0.0 0.0

-7.998630381193155e6 -110704.03572893496 0.0
-110704.03572893496 1.73310778108322e7 0.0
0.0 0.0 0.0

-1.257249295930851e6 1.1320177257406695e7 0.0
1.1320177257406695e7 2.2571786692073466e6 0.0
0.0 0.0 0.0

-4.326060513090884e6 1.3419538397983639e7 0.0
1.3419538397983639e7 -1.5265183258532928e6 0.0
0.0 0.0 0.0

773859.9412519196 1.1284556866260907e7 0.0
1.1284556866260907e7 2.5795338278724467e6 0.0
0.0 0.0 0.0

-2.7305938638793034e6 5.078091154401042e6 0.0
5.078091154401042e6 1.9771912413564562e6 0.0
0.0 0.0 0.0

-5.310078259908729e6 9.42420210387957e6 0.0
9.42420210387957e6 3.9922262580850697e6 0.0
0.0 0.0 0.0

-2.2585191793295458e7 1.3118375223410165e7 0.0
1.3118375223410165e7 6.61358735778297e6 0.0
0.0 0.0 0.0

2.1641178506627013e6 5.947667661762502e6 0.0
5.947667661762502e6 -8.081545319633327e6 0.0
0.0 0.0 0.0

-1.3491317706006914e6 1.2003805564870581e7 0.0
1.2003805564870581e7 -379922.4242384104 0.0
0.0 0.0 0.0

430740.57797027845 1.1219818690183833e7 0.0
1.1219818690183833e7 3.2569215751667237e6 0.0
0.0 0.0 0.0

-2.2197154559376743e6 9.332973491961343e6 0.0
9.332973491961343e6 -7.399051474132776e6 0.0
0.0 0.0 0.0

398835.1524727811 1.0589951877753787e7 0.0
1.0589951877753787e7 1.32945067793788e6 0.0
0.0 0.0 0.0

1.7408360004619183e6 9.627840401381956e6 0.0
9.627840401381956e6 -1.0592508863651775e7 0.0
0.0 0.0 0.0

-3.224834408479118e6 2.2747865107489163e6 0.0
2.2747865107489163e6 3.796452867240372e6 0.0
0.0 0.0 0.0

-9.503949520688156e6 1.0692278560833767e7 0.0
1.0692278560833767e7 7.412559939989066e6 0.0
0.0 0.0 0.0

767390.1396110831 6.681188210983291e6 0.0
6.681188210983291e6 -5.762428556199024e6 0.0
0.0 0.0 0.0

-8.723860746367842e6 8.54762144945367e6 0.0
8.54762144945367e6 9.555314642500278e6 0.0
0.0 0.0 0.0

-2.3415995086786333e6 4.574664849962555e6 0.0
4.574664849962555e6 830534.7209239976 0.0
0.0 0.0 0.0

-8.001273749461778e6 1.2900776624851685e7 0.0
1.2900776624851685e7 6.055607942894297e6 0.0
0.0 0.0 0.0

-1.301445124501887e7 1.1955769711361747e7 0.0
1.1955769711361747e7 8.962398185504891e6 0.0
0.0 0.0 0.0

-1.672827568575014e6 -2.131256787147603e6 0.0
-2.131256787147603e6 1.9322341015042362e6 0.0
0.0 0.0 0.0

-685576.5507174591 8.678249640673742e6 0.0
8.678249640673742e6 -6.370596655298921e6 0.0
0.0 0.0 0.0

-3.478474086142214e6 1.2835746658480605e7 0.0
1.2835746658480605e7 -1.1714620261863284e6 0.0
0.0 0.0 0.0

-565961.1458307403 3.418464221677282e6 0.0
3.418464221677282e6 -2.0309632472557505e6 0.0
0.0 0.0 0.0

-3.659402214860171e6 1.5770490887939857e7 0.0
1.5770490887939857e7 -2.6692771778516043e6 0.0
0.0 0.0 0.0

-2.75078908782859e6 4.594495935236746e6 0.0
4.594495935236746e6 1.3058954742496859e6 0.0
0.0 0.0 0.0

2.799806458024658e6 6.262640949735878e6 0.0
6.262640949735878e6 -9.452778912449496e6 0.0
0.0 0.0 0.0

2.2459803427901003e6 6.333779130089114e6 0.0
6.333779130089114e6 -8.56522490534534e6 0.0
0.0 0.0 0.0

-588436.1045895979 8.001955608173923e6 0.0
8.001955608173923e6 -4.959957394811651e6 0.0
0.0 0.0 0.0

-1.7834068721937893e6 1.243165968681984e7 0.0
1.243165968681984e7 -4.1239019810112794e6 0.0
0.0 0.0 0.0

4.216501023409361e6 6.998077591715835e6 0.0
6.998077591715835e6 -1.258612123107896e7 0.0
0.0 0.0 0.0

-4.5077038244115785e6 1.1625286986536015e7 0.0
1.1625286986536015e7 1.957992917510609e6 0.0
0.0 0.0 0.0

147345.70821458288 1.0018838136150885e7 0.0
1.0018838136150885e7 -7.166061601682327e6 0.0
0.0 0.0 0.0

-7.016982851865545e6 7.784308033655469e6 0.0
7.784308033655469e6 8.2287470143600665e6 0.0
0.0 0.0 0.0

-4.398022776260972e6 1.2686366872874053e7 0.0
1.2686366872874053e7 1.949130762743211e6 0.0
0.0 0.0 0.0

1.8738566349835005e6 8.149961316517538e6 0.0
8.149961316517538e6 -8.287932301517866e6 0.0
0.0 0.0 0.0

-1.6730638643344317e7 4.286924602827182e6 0.0
4.286924602827182e6 9.829476623003805e6 0.0
0.0 0.0 0.0

3.041751922220207e6 6.097378566135284e6 0.0
6.097378566135284e6 -9.778418162379751e6 0.0
0.0 0.0 0.0

2.7068037631474505e6 6.3988901368920375e6 0.0
6.3988901368920375e6 -8.528730803542705e6 0.0
0.0 0.0 0.0

-1.6140024737697458e6 1.1247989395013953e7 0.0
1.1247989395013953e7 -4.1412196529121855e6 0.0
0.0 0.0 0.0

-6.887307014489807e6 -2.163511200764433e6 0.0
-2.163511200764433e6 2.644374545916763e6 0.0
0.0 0.0 0.0

-130954.18815313186 7.3296589089579405e6 0.0
7.3296589089579405e6 -4.427891550946274e6 0.0
0.0 0.0 0.0

-8.446384474752437e6 7.53256735971609e6 0.0
7.53256735971609e6 1.5251667562290601e7 0.0
0.0 0.0 0.0

-7.2059032372871e6 1.260105554077354e7 0.0
1.260105554077354e7 5.49539028238401e6 0.0
0.0 0.0 0.0

-8.475245343645178e6 1.2941479302324012e7 0.0
1.2941479302324012e7 6.39367801058736e6 0.0
0.0 0.0 0.0

-3.277825165417813e6 5.215488114694117e6 0.0
5.215488114694117e6 1.7899550290298546e6 0.0
0.0 0.0 0.0

-1.1093395188070433e7 7.281133798191017e6 0.0
7.281133798191017e6 2.557394913820412e7 0.0
0.0 0.0 0.0

-7.1706995354524e6 1.2933565692418484e7 0.0
1.2933565692418484e7 5.328336963572832e6 0.0
0.0 0.0 0.0

-1.7302030517085255e6 1.1955279529595641e7 0.0
1.1955279529595641e7 -168518.52821737278 0.0
0.0 0.0 0.0

1.3012876060456699e6 9.937442226529544e6 0.0
9.937442226529544e6 -5.190141261674636e6 0.0
0.0 0.0 0.0

5.045575612924727e6 1.0597321803535018e7 0.0
1.0597321803535018e7 3.1662966106061745e6 0.0
0.0 0.0 0.0

-3.1855493117077616e6 5.624119306193744e6 0.0
5.624119306193744e6 2.3750922770002885e6 0.0
0.0 0.0 0.0

3.22270392651487e6 6.08305264025321e6 0.0
6.08305264025321e6 -9.177352794017298e6 0.0
0.0 0.0 0.0

-1.82624247420213e6 1.0231071921484027e7 0.0
1.0231071921484027e7 -3.175228687818748e6 0.0
0.0 0.0 0.0

-1.8671366057682212e6 7.852105359192289e6 0.0
7.852105359192289e6 -837394.0388826554 0.0
0.0 0.0 0.0

-9.756898649493132e6 3.3842176167228916e6 0.0
3.3842176167228916e6 5.963904352206841e6 0.0
0.0 0.0 0.0

-6.592805904077117e6 215448.5106957213 0.0
215448.5106957213 8.854264793641292e6 0.0
0.0 0.0 0.0

-3.197839902527153e7 2.1155668176843714e7 0.0
2.1155668176843714e7 1.5119517745166365e6 0.0
0.0 0.0 0.0

-2.439140763990537e6 1.025112625816421e7 0.0
1.025112625816421e7 -8.130469101803652e6 0.0
0.0 0.0 0.0

708557.7969898821 1.1219762243693056e7 0.0
1.1219762243693056e7 2.361859835788964e6 0.0
0.0 0.0 0.0

641300.2735010795 9.714478653281583e6 0.0
9.714478653281583e6 -8.0299172830598885e6 0.0
0.0 0.0 0.0

-1.0285745328539059e7 8.8278263619477e6 0.0
8.8278263619477e6 6.578224704906011e6 0.0
0.0 0.0 0.0

960300.1208277587 6.802314010555268e6 0.0
6.802314010555268e6 -5.567935954297546e6 0.0
0.0 0.0 0.0

2.1386929760406646e6 7.634155453726633e6 0.0
7.634155453726633e6 -8.42052721283446e6 0.0
0.0 0.0 0.0

-6.358442173542969e6 1.0381486691951975e7 0.0
1.0381486691951975e7 6.903638105543783e6 0.0
0.0 0.0 0.0

1.1709135243184124e6 8.581654774798525e6 0.0
8.581654774798525e6 -8.2506603248632625e6 0.0
0.0 0.0 0.0

-7.58661219566245e6 1.275194926539854e7 0.0
1.275194926539854e7 5.790339232609887e6 0.0
0.0 0.0 0.0

-9.047733690266911e6 1.2509999413438183e6 0.0
1.2509999413438183e6 1.0337055266210355e7 0.0
0.0 0.0 0.0

-2.0874988108267635e6 1.8968931726316374e6 0.0
1.8968931726316374e6 2.5309650908625717e6 0.0
0.0 0.0 0.0

1.9750656821772899e6 7.04206444135632e6 0.0
7.04206444135632e6 -8.684131659112006e6 0.0
0.0 0.0 0.0

-5.093930438621042e6 1.2540793768176375e7 0.0
1.2540793768176375e7 1.320670062971402e6 0.0
0.0 0.0 0.0

-7.765848554403342e6 1.653419624026356e7 0.0
1.653419624026356e7 1.6568758792236345e6 0.0
0.0 0.0 0.0

-6.678255080570821e6 8.755021009036371e6 0.0
8.755021009036371e6 8.177137689915353e6 0.0
0.0 0.0 0.0

2.5168177442844273e6 6.645199425196393e6 0.0
6.645199425196393e6 -9.35753591750484e6 0.0
0.0 0.0 0.0

3.7926822255483293e6 6.987514139696644e6 0.0
6.987514139696644e6 -1.1478488232636929e7 0.0
0.0 0.0 0.0

-1.2867817674490932e7 5.421454726873388e6 0.0
5.421454726873388e6 1.8929591453791134e7 0.0
0.0 0.0 0.0

-7.818323157994786e6 1.7783962786785641e6 0.0
1.7783962786785641e6 1.0202176608728163e7 0.0
0.0 0.0 0.0

-4.449535108443777e6 1.551620060577592e7 0.0
1.551620060577592e7 -1.8079963864808958e6 0.0
0.0 0.0 0.0

-3.9959234628297267e6 1.0979207312809717e7 0.0
1.0979207312809717e7 583927.0010500303 0.0
0.0 0.0 0.0

-8.499140848349217e6 230757.2013299177 0.0
230757.2013299177 1.1982115770359552e7 0.0
0.0 0.0 0.0

590249.6034083536 5.7043755853496855e6 0.0
5.7043755853496855e6 -5.436698012548225e6 0.0
0.0 0.0 0.0

-4.470189751370573e6 1.0492815761840455e7 0.0
1.0492815761840455e7 1.0761687569008598e6 0.0
0.0 0.0 0.0

-6.920018650376036e6 1.1260044573503615e7 0.0
1.1260044573503615e7 1.1112648755727392e6 0.0
0.0 0.0 0.0

-2.73988350149615e6 5.456321163104995e6 0.0
5.456321163104995e6 774088.1466129039 0.0
0.0 0.0 0.0

2.9359744381774273e6 6.474458937363442e6 0.0
6.474458937363442e6 -9.093525286864124e6 0.0
0.0 0.0 0.0

917184.7746418673 8.498885797161385e6 0.0
8.498885797161385e6 -7.639527582870895e6 0.0
0.0 0.0 0.0

-1.4709604958581445e6 3.601367686291448e6 0.0
3.601367686291448e6 16394.95269636257 0.0
0.0 0.0 0.0

-4.808651824153723e6 4.724638344132248e6 0.0
4.724638344132248e6 5.514393957212873e6 0.0
0.0 0.0 0.0

1.6295915179091617e6 9.638350399070816e6 0.0
9.638350399070816e6 -1.016009861747051e7 0.0
0.0 0.0 0.0

2.682049675875276e6 6.191795130419548e6 0.0
6.191795130419548e6 -8.342109620392844e6 0.0
0.0 0.0 0.0

-4.1374610184085127e6 1.0886153325655472e7 0.0
1.0886153325655472e7 138203.03033142677 0.0
0.0 0.0 0.0

2.4546222557668295e6 7.11128593745909e6 0.0
7.11128593745909e6 -8.592036193299359e6 0.0
0.0 0.0 0.0

-1.6215201913650422e6 4.1416410896921237e6 0.0
4.1416410896921237e6 729666.474090949 0.0
0.0 0.0 0.0

-2.857209461112377e6 1.127668408640818e7 0.0
1.127668408640818e7 -9.524031923116112e6 0.0
0.0 0.0 0.0

1.7422443022200207e6 1.1965694386652743e7 0.0
1.1965694386652743e7 5.807483072842794e6 0.0
0.0 0.0 0.0

1.0433215718019423e6 9.24176145183734e6 0.0
9.24176145183734e6 -2.9199804147312944e6 0.0
0.0 0.0 0.0

-7.327556031424195e6 -3.9004097571923765e6 0.0
-3.9004097571923765e6 5.437899522750031e6 0.0
0.0 0.0 0.0

-1.0600662051047382e6 3.475056894916108e6 0.0
3.475056894916108e6 204732.3477352204 0.0
0.0 0.0 0.0

1.5090814770433542e6 1.2157353967589293e7 0.0
1.2157353967589293e7 5.030269037625833e6 0.0
0.0 0.0 0.0

-498612.5862773884 8.008470486851554e6 0.0
8.008470486851554e6 -1.662041808391136e6 0.0
0.0 0.0 0.0

-1.1232055947389659e7 8.136918912874945e6 0.0
8.136918912874945e6 2.882169863786616e7 0.0
0.0 0.0 0.0

2.2435631006705943e6 6.838867541957139e6 0.0
6.838867541957139e6 -9.048393979327839e6 0.0
0.0 0.0 0.0

-3.7730798945476506e6 1.2819161972357418e7 0.0
1.2819161972357418e7 -2.164289477791726e6 0.0
0.0 0.0 0.0

-781512.1348174266 1.049593235265222e7 0.0
1.049593235265222e7 -8.94966762709513e6 0.0
0.0 0.0 0.0

-6.829402368624668e6 1.2186927324798647e7 0.0
1.2186927324798647e7 4.91779175703768e6 0.0
0.0 0.0 0.0

-3.747000781152324e6 1.1905024094463626e7 0.0
1.1905024094463626e7 2.4654471078752284e6 0.0
0.0 0.0 0.0

-6.4207073891895795e6 1.3361902006007073e7 0.0
1.3361902006007073e7 2.036375919476068e6 0.0
0.0 0.0 0.0

-1.8078725492093e6 1.1271914337779714e7 0.0
1.1271914337779714e7 -9.535120831594668e6 0.0
0.0 0.0 0.0

-4.973680271878221e6 1.519122241086802e7 0.0
1.519122241086802e7 -1.1137393966029813e6 0.0
0.0 0.0 0.0

-9.34795367671737e6 7.162183173522817e6 0.0
7.162183173522817e6 1.038902027870505e7 0.0
0.0 0.0 0.0

640773.1560561501 6.922827664297058e6 0.0
6.922827664297058e6 -5.757026128206024e6 0.0
0.0 0.0 0.0

2.2369452300874614e6 6.575832146381633e6 0.0
6.575832146381633e6 -8.805272236082852e6 0.0
0.0 0.0 0.0

-2.7918750959523553e6 1.2706248829671592e7 0.0
1.2706248829671592e7 -3.3062654955728757e6 0.0
0.0 0.0 0.0

-1.9827855582151138e6 8.761522142406076e6 0.0
8.761522142406076e6 -2.2115700842106673e6 0.0
0.0 0.0 0.0

2.1871167151290434e6 7.95023104979594e6 0.0
7.95023104979594e6 -1.0042709079487983e7 0.0
0.0 0.0 0.0

-6.464754643962052e6 1.1657048267836496e7 0.0
1.1657048267836496e7 4.745472723010399e6 0.0
0.0 0.0 0.0

-2.4360244260602645e6 9.155546863495199e6 0.0
9.155546863495199e6 -690966.9082900271 0.0
0.0 0.0 0.0

-956309.7947863903 8.69392686482593e6 0.0
8.69392686482593e6 -3.8618451622829805e6 0.0
0.0 0.0 0.0

2.0945097123860181e6 9.00472251432355e6 0.0
9.00472251432355e6 -9.775598799496185e6 0.0
0.0 0.0 0.0

-5.445745677863132e6 1.4302780996928744e7 0.0
1.4302780996928744e7 -260707.25054072007 0.0
0.0 0.0 0.0

-1.5551098013582765e6 9.488894159603735e6 0.0
9.488894159603735e6 -3.277043510510745e6 0.0
0.0 0.0 0.0

143423.24186324282 7.886545437101034e6 0.0
7.886545437101034e6 -4.777953998529797e6 0.0
0.0 0.0 0.0

7.267146332408378e6 6.03213927614115e6 0.0
6.03213927614115e6 -2.289550615691297e6 0.0
0.0 0.0 0.0

-3.609640874531244e6 8.377139331477296e6 0.0
8.377139331477296e6 1.6451497580785777e6 0.0
0.0 0.0 0.0

-2.191355901238952e6 5.341259111243732e6 0.0
5.341259111243732e6 892073.184928899 0.0
0.0 0.0 0.0

-4.216129205935605e6 1.279402996692504e6 0.0
1.279402996692504e6 6.028087510288454e6 0.0
0.0 0.0 0.0

2.5713671079467083e6 5.855946640203614e6 0.0
5.855946640203614e6 -7.94450144932936e6 0.0
0.0 0.0 0.0

1.3311637047748684e6 6.391077057208593e6 0.0
6.391077057208593e6 -5.947377013325821e6 0.0
0.0 0.0 0.0

2.3345782730016117e6 6.1674524491004525e6 0.0
6.1674524491004525e6 -7.706728482887204e6 0.0
0.0 0.0 0.0

-197998.0392204523 1.0060193406879691e7 0.0
1.0060193406879691e7 -8.123317934856751e6 0.0
0.0 0.0 0.0

-5.258403353838161e6 1.476622920476837e7 0.0
1.476622920476837e7 -615860.3007785853 0.0
0.0 0.0 0.0

-8.596175670108825e6 7.4316744053435195e6 0.0
7.4316744053435195e6 9.432653281513458e6 0.0
0.0 0.0 0.0

-4.251739349513717e6 8.472677210626071e6 0.0
8.472677210626071e6 1.545002132063145e6 0.0
0.0 0.0 0.0

1.9595827880178974e6 6.341909703472409e6 0.0
6.341909703472409e6 -7.985246935969714e6 0.0
0.0 0.0 0.0

-2.1432682774195382e6 4.263414925944241e6 0.0
4.263414925944241e6 565614.1426663519 0.0
0.0 0.0 0.0

-6.8156195427214075e6 8.461728379751883e6 0.0
8.461728379751883e6 7.700476672600519e6 0.0
0.0 0.0 0.0

-1.0232807144520105e6 1.13696220783908e7 0.0
1.13696220783908e7 -4.830593734099675e6 0.0
0.0 0.0 0.0

1.5492273572924351e6 1.0719104594417375e7 0.0
1.0719104594417375e7 -5.439613058546662e6 0.0
0.0 0.0 0.0

-6.7422390826699985e6 1.2197449675471654e7 0.0
1.2197449675471654e7 5.207344224122766e6 0.0
0.0 0.0 0.0

563291.900709419 9.897879617407722e6 0.0
9.897879617407722e6 -6.988156725406873e6 0.0
0.0 0.0 0.0

2.432053858694307e6 6.586728399192089e6 0.0
6.586728399192089e6 -8.152703298165269e6 0.0
0.0 0.0 0.0

2.0271713259436819e6 6.538282621438548e6 0.0
6.538282621438548e6 -8.223736811961047e6 0.0
0.0 0.0 0.0

312181.4549397626 6.655945394410902e6 0.0
6.655945394410902e6 -5.259142470677825e6 0.0
0.0 0.0 0.0

1.9869581083651981e6 6.777472937829268e6 0.0
6.777472937829268e6 -8.454203273593953e6 0.0
0.0 0.0 0.0

1.8459771813410237e6 6.231764952660681e6 0.0
6.231764952660681e6 -6.678061576424642e6 0.0
0.0 0.0 0.0

-1.0703161816739693e7 1.2790469161297921e7 0.0
1.2790469161297921e7 7.874233694742454e6 0.0
0.0 0.0 0.0

-5.302374852497514e6 1.6053218114235453e7 0.0
1.6053218114235453e7 -1.141644975518649e6 0.0
0.0 0.0 0.0

-4.463491933504988e6 1.1995699179292275e7 0.0
1.1995699179292275e7 3.0777422190628992e6 0.0
0.0 0.0 0.0

1.4278425243885322e6 6.437116752408635e6 0.0
6.437116752408635e6 -7.004408719327562e6 0.0
0.0 0.0 0.0

-3.099464286501601e6 9.957689361756587e6 0.0
9.957689361756587e6 -1.3788809220058916e6 0.0
0.0 0.0 0.0

-335983.29552307806 7.523635388801378e6 0.0
7.523635388801378e6 -2.8577741794803636e6 0.0
0.0 0.0 0.0

-3.40296075099714e6 1.224656250567996e7 0.0
1.224656250567996e7 -1.134320562546805e7 0.0
0.0 0.0 0.0

4.473957411041078e6 1.4581408777678795e7 0.0
1.4581408777678795e7 1.4913205952102192e7 0.0
0.0 0.0 0.0

3.406901279923749e6 1.1302934069680937e7 0.0
1.1302934069680937e7 -4.583559765578405e6 0.0
0.0 0.0 0.0

5.044646528210664e6 1.1397219046886861e7 0.0
1.1397219046886861e7 -7.36207396375894e6 0.0
0.0 0.0 0.0

3.8384295811142977e6 7.700964388684144e6 0.0
7.700964388684144e6 -1.367866324193848e7 0.0
0.0 0.0 0.0

-542780.311288202 1.0688540261041349e7 0.0
1.0688540261041349e7 -5.356518131503804e6 0.0
0.0 0.0 0.0

-1.393413014457676e6 1.1424253147644136e7 0.0
1.1424253147644136e7 1.849173197436936e6 0.0
0.0 0.0 0.0

-9.65697184183088e6 604050.6594066267 0.0
604050.6594066267 1.14971663392656e7 0.0
0.0 0.0 0.0

-9.195054414818587e6 7.086206860464019e6 0.0
7.086206860464019e6 1.2843355066768244e7 0.0
0.0 0.0 0.0

-1.9386504281608614e6 1.1926193969323752e7 0.0
1.1926193969323752e7 1.3395363752382104e6 0.0
0.0 0.0 0.0

-1.6669716424932869e6 8.707172869722368e6 0.0
8.707172869722368e6 -2.139842111579381e6 0.0
0.0 0.0 0.0

-8.284880463062538e6 1.2981849983935049e7 0.0
1.2981849983935049e7 3.8228508440556764e6 0.0
0.0 0.0 0.0

-6.231780933718647e6 1.1197789855647817e7 0.0
1.1197789855647817e7 6.08631662333766e6 0.0
0.0 0.0 0.0

-3.264164590684648e6 6.349782123400144e6 0.0
6.349782123400144e6 1.1055078619680812e6 0.0
0.0 0.0 0.0

-4.890654409717908e6 9.780940807615304e6 0.0
9.780940807615304e6 2.6540598842443973e6 0.0
0.0 0.0 0.0

3.530302424835017e6 7.096038619101461e6 0.0
7.096038619101461e6 -1.0707377347452357e7 0.0
0.0 0.0 0.0

1.2794726300780028e6 6.685576058725291e6 0.0
6.685576058725291e6 -5.8019981846029535e6 0.0
0.0 0.0 0.0

-2.0204664114986695e6 1.1338765858295277e7 0.0
1.1338765858295277e7 -3.821838228806141e6 0.0
0.0 0.0 0.0

713531.6855861256 8.721294389605137e6 0.0
8.721294389605137e6 -7.329948565902071e6 0.0
0.0 0.0 0.0

-1.0568544557365008e7 1.9168911683947314e6 0.0
1.9168911683947314e6 1.5884063905752467e7 0.0
0.0 0.0 0.0

-205595.23841526976 3.3213654977932284e6 0.0
3.3213654977932284e6 -2.6970680068279942e6 0.0
0.0 0.0 0.0

-1.1188146320076622e7 1.1442277658936838e6 0.0
1.1442277658936838e6 2.240074782012207e7 0.0
0.0 0.0 0.0

-2.3867563109029513e6 1.0330407956849426e7 0.0
1.0330407956849426e7 -3.313569890295177e6 0.0
0.0 0.0 0.0

-4.965246715682278e6 1.2129344677696852e7 0.0
1.2129344677696852e7 3.942870073175906e6 0.0
0.0 0.0 0.0

-3.060508879872406e6 6.323881712267419e6 0.0
6.323881712267419e6 1.8113358304849204e6 0.0
0.0 0.0 0.0

-4.202916111508985e6 1.3795975197371513e7 0.0
1.3795975197371513e7 -1.6981632989654096e6 0.0
0.0 0.0 0.0

-2.1250943653912116e6 4.845783494803007e6 0.0
4.845783494803007e6 238590.68070661265 0.0
0.0 0.0 0.0

-6.317928932105025e6 1.0886108445445381e7 0.0
1.0886108445445381e7 5.991384692718822e6 0.0
0.0 0.0 0.0

4.2375365533835e6 1.4434626631958196e7 0.0
1.4434626631958196e7 -1.0153255884797689e7 0.0
0.0 0.0 0.0

-6.6553173243476e6 9.345045636153655e6 0.0
9.345045636153655e6 7.033460783444855e6 0.0
0.0 0.0 0.0

745078.9324345336 3.7881020253728204e6 0.0
3.7881020253728204e6 -2.6623371815190664e6 0.0
0.0 0.0 0.0

-1.3268232178229231e7 -3.812383257102376e6 0.0
-3.812383257102376e6 5.822132803073381e6 0.0
0.0 0.0 0.0

2.436585098232099e6 6.049452705436047e6 0.0
6.049452705436047e6 -8.57524291531666e6 0.0
0.0 0.0 0.0

-8.1275713068178e6 1.2356920063192526e7 0.0
1.2356920063192526e7 6.30731451759533e6 0.0
0.0 0.0 0.0

-1.615097915367933e6 3.418627435149066e6 0.0
3.418627435149066e6 -274997.2212057747 0.0
0.0 0.0 0.0

-1.3777445177454487e6 7.207831562447733e6 0.0
7.207831562447733e6 -2.08860412902166e6 0.0
0.0 0.0 0.0

-5.121767326491281e6 1.6902317330042848e6 0.0
1.6902317330042848e6 5.352640653940575e6 0.0
0.0 0.0 0.0

-611222.5727732487 1.1545832143149666e7 0.0
1.1545832143149666e7 -5.5312344174133185e6 0.0
0.0 0.0 0.0

-5.902454298796306e6 1.0945132793562456e6 0.0
1.0945132793562456e6 6.336673854303129e6 0.0
0.0 0.0 0.0

-1.0089557119236022e6 9.410005478381498e6 0.0
9.410005478381498e6 -4.960578807685356e6 0.0
0.0 0.0 0.0

-7.703245559328287e6 8.050570350580597e6 0.0
8.050570350580597e6 8.585203025417905e6 0.0
0.0 0.0 0.0

-3.094693315185314e6 5.88234943250569e6 0.0
5.88234943250569e6 1.176784476973257e6 0.0
0.0 0.0 0.0

-9.819832896829505e6 8.331274204989286e6 0.0
8.331274204989286e6 1.1533194859454632e7 0.0
0.0 0.0 0.0

-5.148543851805064e6 7.162829826543445e6 0.0
7.162829826543445e6 4.0047733399488777e6 0.0
0.0 0.0 0.0

-4.772961387540893e6 1.0770080432091232e7 0.0
1.0770080432091232e7 1.5446793180794097e6 0.0
0.0 0.0 0.0

3.2443256035709665e6 7.310577057032222e6 0.0
7.310577057032222e6 -1.044896558142484e7 0.0
0.0 0.0 0.0

-8.239947877210997e6 8.742580934295144e6 0.0
8.742580934295144e6 8.953287777962264e6 0.0
0.0 0.0 0.0

3.6521124304227107e6 9.751551347640635e6 0.0
9.751551347640635e6 -1.5568145333340203e6 0.0
0.0 0.0 0.0

-8.295345517936305e6 -359826.1587433361 0.0
-359826.1587433361 7.4427575716651995e6 0.0
0.0 0.0 0.0

2.222918928161877e6 8.666255553342015e6 0.0
8.666255553342015e6 -9.631630340507526e6 0.0
0.0 0.0 0.0

-3.0690476457522316e6 6.50651636347362e6 0.0
6.50651636347362e6 1.7507588509075793e6 0.0
0.0 0.0 0.0

754931.5530369356 6.777571510276682e6 0.0
6.777571510276682e6 -5.358871885038781e6 0.0
0.0 0.0 0.0

-895237.6263247227 3.330300614096956e6 0.0
3.330300614096956e6 -222925.63833492063 0.0
0.0 0.0 0.0

-2.459889114652224e6 1.8246553770585752e6 0.0
1.8246553770585752e6 1.3067057299565086e6 0.0
0.0 0.0 0.0

-70454.18984028138 9.14380455607666e6 0.0
9.14380455607666e6 -6.157009928898868e6 0.0
0.0 0.0 0.0

-2.407353472126493e6 5.072555160162028e6 0.0
5.072555160162028e6 1.5181105581709761e6 0.0
0.0 0.0 0.0

-5.138744721023239e6 1.2120463924178867e7 0.0
1.2120463924178867e7 3.817713081044139e6 0.0
0.0 0.0 0.0

-5.774659242865097e6 8.395221983453337e6 0.0
8.395221983453337e6 6.73106223736211e6 0.0
0.0 0.0 0.0

559284.9412532758 6.825253257265953e6 0.0
6.825253257265953e6 -3.7989315000436716e6 0.0
0.0 0.0 0.0

-2.146881369004772e6 1.0596871859326458e7 0.0
1.0596871859326458e7 -2.8923537304978576e6 0.0
0.0 0.0 0.0

1.2423485444409428e6 6.910967057313713e6 0.0
6.910967057313713e6 -6.566445155236327e6 0.0
0.0 0.0 0.0

-5.974466412442426e6 1.325448003066853e7 0.0
1.325448003066853e7 1.285869711862906e6 0.0
0.0 0.0 0.0

1.2121097601063997e6 1.0985983993857434e7 0.0
1.0985983993857434e7 -1.3722603279466983e7 0.0
0.0 0.0 0.0

699799.8343932622 6.035031789047778e6 0.0
6.035031789047778e6 -5.494700897685066e6 0.0
0.0 0.0 0.0

1.4764397571934648e6 6.246143746113819e6 0.0
6.246143746113819e6 -6.801755490520817e6 0.0
0.0 0.0 0.0

104125.68013633182 1.0214628845834814e7 0.0
1.0214628845834814e7 -7.96072846778742e6 0.0
0.0 0.0 0.0

172016.55947494158 6.338692017302265e6 0.0
6.338692017302265e6 -3.3032015022510323e6 0.0
0.0 0.0 0.0

-2.085312060189913e6 1.1692353751563322e7 0.0
1.1692353751563322e7 -1.0458419666751144e7 0.0
0.0 0.0 0.0

1.0296756731346152e6 7.233762866673063e6 0.0
7.233762866673063e6 -5.411752525547018e6 0.0
0.0 0.0 0.0

844713.2737437114 6.53254852676524e6 0.0
6.53254852676524e6 -5.485582071737621e6 0.0
0.0 0.0 0.0

-631742.8889657697 1.1406509428709548e7 0.0
1.1406509428709548e7 -1.339728139729128e6 0.0
0.0 0.0 0.0

-1.1024919433337659e7 4.565824536132658e6 0.0
4.565824536132658e6 1.3615410704310734e7 0.0
0.0 0.0 0.0

-6.929912829728214e6 1.2718068022589669e7 0.0
1.2718068022589669e7 4.612524286664351e6 0.0
0.0 0.0 0.0

-6.036904510706048e6 202749.91753648367 0.0
202749.91753648367 3.8514004873615354e6 0.0
0.0 0.0 0.0

481916.4940530369 8.852089123003421e6 0.0
8.852089123003421e6 -6.934486256120593e6 0.0
0.0 0.0 0.0

-1.477125288638905e6 1.1398908609853558e7 0.0
1.1398908609853558e7 2.9005518512457013e6 0.0
0.0 0.0 0.0

-5.621017852604071e6 1.3149459863982556e7 0.0
1.3149459863982556e7 587661.3805964147 0.0
0.0 0.0 0.0

-1.3973526738257364e6 8.1440132107245745e6 0.0
8.1440132107245745e6 -3.3583250697576604e6 0.0
0.0 0.0 0.0

-4.886359707338725e6 1.3640829206858084e7 0.0
1.3640829206858084e7 -847851.2035504585 0.0
0.0 0.0 0.0

-1.0857021173368262e6 8.161896603465135e6 0.0
8.161896603465135e6 -3.4411732785094953e6 0.0
0.0 0.0 0.0

-936163.318709801 3.03646796716952e6 0.0
3.03646796716952e6 -394062.308969655 0.0
0.0 0.0 0.0

-2.3332427624821784e6 1.0675917022369051e7 0.0
1.0675917022369051e7 -3.535099727198802e6 0.0
0.0 0.0 0.0

-6.937088062382417e6 2.0845219198492195e7 0.0
2.0845219198492195e7 -1.339817101825906e6 0.0
0.0 0.0 0.0

254179.90280546318 1.301651954849945e7 0.0
1.301651954849945e7 -4.913015090763337e6 0.0
0.0 0.0 0.0

-796904.3874032941 1.1044065842071729e7 0.0
1.1044065842071729e7 -5.0941355370998485e6 0.0
0.0 0.0 0.0

-2.2070612513297456e6 6.935892569960898e6 0.0
6.935892569960898e6 -11246.308125972166 0.0
0.0 0.0 0.0

-2.795277295444343e6 9.213614829507655e6 0.0
9.213614829507655e6 -765265.0062755409 0.0
0.0 0.0 0.0

2.6942213913759165e6 5.818245881339877e6 0.0
5.818245881339877e6 -8.360019942783981e6 0.0
0.0 0.0 0.0

2.979724614150662e6 5.895737532757241e6 0.0
5.895737532757241e6 -6.295415409379731e6 0.0
0.0 0.0 0.0

-711132.5319259996 5.948117411368799e6 0.0
5.948117411368799e6 -2.5666646619858933e6 0.0
0.0 0.0 0.0

-3.3499366517812656e6 1.1903101094002167e7 0.0
1.1903101094002167e7 360877.93620227 0.0
0.0 0.0 0.0

799725.4327545774 6.287467152926004e6 0.0
6.287467152926004e6 -5.845463741428721e6 0.0
0.0 0.0 0.0

-1.4629676117596077e6 9.138400231680794e6 0.0
9.138400231680794e6 -4.20837269444096e6 0.0
0.0 0.0 0.0

-1.2050795525573506e6 1.1522674101079231e7 0.0
1.1522674101079231e7 1.241368762795486e6 0.0
0.0 0.0 0.0

1.1057852735922248e6 8.521576238238765e6 0.0
8.521576238238765e6 -7.011311347113246e6 0.0
0.0 0.0 0.0

-2.139196508252072e6 4.748988965876137e6 0.0
4.748988965876137e6 1.2510892578238118e6 0.0
0.0 0.0 0.0

-1.4947169681515248e7 8.407759823064648e6 0.0
8.407759823064648e6 6.844097505588143e6 0.0
0.0 0.0 0.0

1.615197979350545e6 8.374030790322343e6 0.0
8.374030790322343e6 -7.919834290851115e6 0.0
0.0 0.0 0.0

-2.0226509783733018e7 -4.450452466814743e6 0.0
-4.450452466814743e6 9.589937191846479e6 0.0
0.0 0.0 0.0

877800.9683956408 6.672109936653482e6 0.0
6.672109936653482e6 -5.886611022862458e6 0.0
0.0 0.0 0.0

-4.0812154383250694e6 1.0898394830398448e7 0.0
1.0898394830398448e7 5.201945977085164e6 0.0
0.0 0.0 0.0

1.5529520361441285e6 9.672909360331342e6 0.0
9.672909360331342e6 -9.84937433747116e6 0.0
0.0 0.0 0.0

1.064921076752712e6 1.0046893309475454e7 0.0
1.0046893309475454e7 -8.158027822069656e6 0.0
0.0 0.0 0.0

-325939.73531625356 3.4144456367492513e6 0.0
3.4144456367492513e6 -1.202376273723821e6 0.0
0.0 0.0 0.0

-5.796650006521586e6 4.1376265316630662e6 0.0
4.1376265316630662e6 5.888508193846695e6 0.0
0.0 0.0 0.0

-1.8748632574010638e6 8.523399011158312e6 0.0
8.523399011158312e6 -1.841009352101752e6 0.0
0.0 0.0 0.0

-2.2099527244606526e6 6.56778766830944e6 0.0
6.56778766830944e6 146253.03072150354 0.0
0.0 0.0 0.0

-8.85906562468352e6 2.039580014859079e6 0.0
2.039580014859079e6 9.91949396001203e6 0.0
0.0 0.0 0.0

-1.5538216985750846e6 8.467105666013382e6 0.0
8.467105666013382e6 -1.7718495267130039e6 0.0
0.0 0.0 0.0

-2.0219509818949578e6 1.0295995056829594e7 0.0
1.0295995056829594e7 -3.8409447712558424e6 0.0
0.0 0.0 0.0

-2.1948025369155128e6 1.0286301354903013e7 0.0
1.0286301354903013e7 -2.6591242061546594e6 0.0
0.0 0.0 0.0

-2.5607227646041475e6 1.103448883111451e7 0.0
1.103448883111451e7 -3.336161756318081e6 0.0
0.0 0.0 0.0

-645864.5519761296 9.332158268598463e6 0.0
9.332158268598463e6 -5.35772296894739e6 0.0
0.0 0.0 0.0

267866.6218409145 6.596628713835539e6 0.0
6.596628713835539e6 -5.286963737055674e6 0.0
0.0 0.0 0.0

1.0411157805679773e6 9.745277400581228e6 0.0
9.745277400581228e6 -5.427253292695971e6 0.0
0.0 0.0 0.0

-2.451022640481289e6 1.001590387751689e7 0.0
1.001590387751689e7 -3.0982189337956617e6 0.0
0.0 0.0 0.0

-1.331019438035356e6 8.406421447443048e6 0.0
8.406421447443048e6 -2.9640528697309983e6 0.0
0.0 0.0 0.0

-1.703571891257866e6 4.420468661440757e6 0.0
4.420468661440757e6 847317.65474987 0.0
0.0 0.0 0.0

-355846.71342726285 9.258846971461218e6 0.0
9.258846971461218e6 -5.779344068399266e6 0.0
0.0 0.0 0.0

-3.0837939180178726e6 1.174678184548625e7 0.0
1.174678184548625e7 -1.0279312766456746e7 0.0
0.0 0.0 0.0

-326986.61411070084 3.927285196615913e6 0.0
3.927285196615913e6 -1.322748471125738e6 0.0
0.0 0.0 0.0

857798.9608896193 6.9451430139766e6 0.0
6.9451430139766e6 -5.91866009333981e6 0.0
0.0 0.0 0.0

923365.6055682283 7.325518102335973e6 0.0
7.325518102335973e6 -4.030143487619899e6 0.0
0.0 0.0 0.0

1.4003374514700472e6 1.059929223164037e7 0.0
1.059929223164037e7 -1.275827640140852e7 0.0
0.0 0.0 0.0

-2.9508314784660325e6 6.844599133707097e6 0.0
6.844599133707097e6 1.3461924389763582e6 0.0
0.0 0.0 0.0

1.0820520410682806e6 6.467254252480231e6 0.0
6.467254252480231e6 -5.55648051064677e6 0.0
0.0 0.0 0.0

-4.389189264835615e6 4.765890566398128e6 0.0
4.765890566398128e6 3.2708763376684794e6 0.0
0.0 0.0 0.0

-8.720169755566109e6 -2.549499248477689e6 0.0
-2.549499248477689e6 1.4170967365068005e7 0.0
0.0 0.0 0.0

-305789.4606144496 1.13254592740152e7 0.0
1.13254592740152e7 -1.2094861458348846e6 0.0
0.0 0.0 0.0

-133503.69380949344 1.04829151291064e7 0.0
1.04829151291064e7 -822837.8261700287 0.0
0.0 0.0 0.0

-5.08270201681612e6 1.2320859850497209e7 0.0
1.2320859850497209e7 3.819760320978744e6 0.0
0.0 0.0 0.0

-4.1362712330461964e6 9.126983143873662e6 0.0
9.126983143873662e6 1.149406449478927e6 0.0
0.0 0.0 0.0

3.190469815384357e6 6.33938634230177e6 0.0
6.33938634230177e6 -9.381624217765408e6 0.0
0.0 0.0 0.0

3.259549349041798e6 6.53885557462628e6 0.0
6.53885557462628e6 -9.583223509007417e6 0.0
0.0 0.0 0.0

-6.258444365070021e6 6.029022933581927e6 0.0
6.029022933581927e6 7.927362964943078e6 0.0
0.0 0.0 0.0

-1.677531586707978e6 9.92205650780396e6 0.0
9.92205650780396e6 -4.156226912900671e6 0.0
0.0 0.0 0.0

3.2772958479044996e6 1.0582100450990148e7 0.0
1.0582100450990148e7 -4.548156624547215e6 0.0
0.0 0.0 0.0

-1.2472717092947027e7 -2.5449541413166607e6 0.0
-2.5449541413166607e6 1.9345546023937125e7 0.0
0.0 0.0 0.0

-3.643997528222837e6 8.09092555374008e6 0.0
8.09092555374008e6 1.8701106284648783e6 0.0
0.0 0.0 0.0

-2.331267907720495e6 9.193290247021617e6 0.0
9.193290247021617e6 -2.531341933668273e6 0.0
0.0 0.0 0.0

-1.1510995289592568e7 9.37623970096585e6 0.0
9.37623970096585e6 1.973724722553116e7 0.0
0.0 0.0 0.0

1.910459493068908e6 5.801793729987408e6 0.0
5.801793729987408e6 -3.8095405052259834e6 0.0
0.0 0.0 0.0

-4.0781394676317195e6 1.1331845298203535e7 0.0
1.1331845298203535e7 -783767.3918502359 0.0
0.0 0.0 0.0

-4.738913593078537e6 1.0424733433346743e7 0.0
1.0424733433346743e7 6.514388909994967e6 0.0
0.0 0.0 0.0

1.1016623298732638e6 6.798764815833695e6 0.0
6.798764815833695e6 -5.684842223628909e6 0.0
0.0 0.0 0.0

-1.3958088394793747e6 7.7535143671393925e6 0.0
7.7535143671393925e6 -2.180391430189479e6 0.0
0.0 0.0 0.0

-9.95100408306896e6 6.806039566338946e6 0.0
6.806039566338946e6 1.5405008662657734e7 0.0
0.0 0.0 0.0

2.64364094409844e6 7.767032537301515e6 0.0
7.767032537301515e6 -9.756368554409629e6 0.0
0.0 0.0 0.0

-448553.5391894493 1.091636254094662e7 0.0
1.091636254094662e7 -5.594033108920797e6 0.0
0.0 0.0 0.0

-6.400502371047542e6 -769529.6489271038 0.0
-769529.6489271038 8.900895977873765e6 0.0
0.0 0.0 0.0

2.3354736289605903e6 8.276911070684977e6 0.0
8.276911070684977e6 -9.463865636230817e6 0.0
0.0 0.0 0.0

220163.45044934563 7.301919932241516e6 0.0
7.301919932241516e6 -3.848564897567703e6 0.0
0.0 0.0 0.0

2.178424160192967e6 7.336904219930682e6 0.0
7.336904219930682e6 -8.211590651088027e6 0.0
0.0 0.0 0.0

-1.2230735269988154e6 8.126895023188952e6 0.0
8.126895023188952e6 -4.122436806140594e6 0.0
0.0 0.0 0.0

-1.3523114301415663e6 9.525297328384697e6 0.0
9.525297328384697e6 -4.448610285083103e6 0.0
0.0 0.0 0.0

-7.851842435266227e6 2.2354812071841466e6 0.0
2.2354812071841466e6 9.17928713705805e6 0.0
0.0 0.0 0.0

1.8486039820811206e6 9.307520408905104e6 0.0
9.307520408905104e6 -1.3345078756213775e6 0.0
0.0 0.0 0.0

-1.5567414691543034e6 3.89149282155132e6 0.0
3.89149282155132e6 454600.15032207384 0.0
0.0 0.0 0.0

308663.8301829952 1.005837519149248e7 0.0
1.005837519149248e7 -6.645656527449476e6 0.0
0.0 0.0 0.0

270883.1612286845 4.801172998661661e6 0.0
4.801172998661661e6 -2.7945218345666076e6 0.0
0.0 0.0 0.0

1.4058626801844146e6 7.274380628600676e6 0.0
7.274380628600676e6 -4.1578985022701886e6 0.0
0.0 0.0 0.0

-1.5029264083320338e6 8.799817702277156e6 0.0
8.799817702277156e6 -4.011411824880662e6 0.0
0.0 0.0 0.0

1.0370834971110749e6 5.991009175465872e6 0.0
5.991009175465872e6 -5.405213237022852e6 0.0
0.0 0.0 0.0

-4.340815252937583e6 2.6354128619065518e6 0.0
2.6354128619065518e6 3.2752383150112424e6 0.0
0.0 0.0 0.0

4.244597279717474e6 6.230854754303625e6 0.0
6.230854754303625e6 -1.2417129413022066e7 0.0
0.0 0.0 0.0

-656901.3332334025 1.0448278628511596e7 0.0
1.0448278628511596e7 -2.1896709926632885e6 0.0
0.0 0.0 0.0

-3.8273398583307643e6 5.707862525750035e6 0.0
5.707862525750035e6 2.3138766524544703e6 0.0
0.0 0.0 0.0

-5.061574665193114e6 1.1832275758171054e7 0.0
1.1832275758171054e7 2.7285055498543046e6 0.0
0.0 0.0 0.0

127571.80618165078 9.391319574273355e6 0.0
9.391319574273355e6 1.4704969281729232e6 0.0
0.0 0.0 0.0

-6.9678425191907715e6 8.696806174200857e6 0.0
8.696806174200857e6 7.923856578787642e6 0.0
0.0 0.0 0.0

-6.354509110576501e6 1.0141867150720723e7 0.0
1.0141867150720723e7 7.179212177676059e6 0.0
0.0 0.0 0.0

-5.706707400912451e6 -1.5417605770700101e6 0.0
-1.5417605770700101e6 7.070798910888447e6 0.0
0.0 0.0 0.0

-1.533206060741711e6 6.886742158410734e6 0.0
6.886742158410734e6 -999895.9927354406 0.0
0.0 0.0 0.0

-305571.0339441793 1.1688853969390856e7 0.0
1.1688853969390856e7 4.819244637073169e6 0.0
0.0 0.0 0.0

-3.3137213905631844e6 1.210842770942329e7 0.0
1.210842770942329e7 3.1719523892869586e6 0.0
0.0 0.0 0.0

-5.336379170664315e6 4.0669995866208263e6 0.0
4.0669995866208263e6 4.593212425809252e6 0.0
0.0 0.0 0.0

381105.2592105861 9.627837307069924e6 0.0
9.627837307069924e6 -7.434596980000615e6 0.0
0.0 0.0 0.0

566232.4916005838 6.382327081917962e6 0.0
6.382327081917962e6 -5.503600304480685e6 0.0
0.0 0.0 0.0

-1.1403833733466088e6 9.8096996382184e6 0.0
9.8096996382184e6 -3.992477640178115e6 0.0
0.0 0.0 0.0

-1.2382142900625225e6 6.437313970272419e6 0.0
6.437313970272419e6 -1.31946283182915e6 0.0
0.0 0.0 0.0

2.4971170705916737e6 6.628168043404488e6 0.0
6.628168043404488e6 -5.966997424119992e6 0.0
0.0 0.0 0.0

-4.286305171173054e6 1.1470065054605935e7 0.0
1.1470065054605935e7 -208242.42787053785 0.0
0.0 0.0 0.0

-9.565212859053127e6 -1.085742803966868e6 0.0
-1.085742803966868e6 1.4104531017873242e7 0.0
0.0 0.0 0.0

-7.097990462823637e6 -610695.2589849796 0.0
-610695.2589849796 9.925754500545194e6 0.0
0.0 0.0 0.0

-1.114021558488763e7 3.235509439064054e6 0.0
3.235509439064054e6 1.3675180354397416e7 0.0
0.0 0.0 0.0

-3.402966371391604e6 1.118682044484601e7 0.0
1.118682044484601e7 -2.189913932703805e6 0.0
0.0 0.0 0.0

94717.36205340689 6.661917179349682e6 0.0
6.661917179349682e6 -3.4965120010432214e6 0.0
0.0 0.0 0.0

2.581987038107361e6 1.0359428306910703e7 0.0
1.0359428306910703e7 2.2627939632979105e6 0.0
0.0 0.0 0.0

1.1595356970388968e6 1.4550334295725109e7 0.0
1.4550334295725109e7 1.0628415204932831e7 0.0
0.0 0.0 0.0

678186.9979254268 6.207314585386381e6 0.0
6.207314585386381e6 -5.221040471995292e6 0.0
0.0 0.0 0.0

-2.2027281853023954e6 4.439457629560227e6 0.0
4.439457629560227e6 1.4975803704459085e6 0.0
0.0 0.0 0.0

-1.8357510669751698e6 7.335418453319345e6 0.0
7.335418453319345e6 -690084.1869578102 0.0
0.0 0.0 0.0

-6.539538736508567e6 1.0522186255694082e7 0.0
1.0522186255694082e7 5.878235165139673e6 0.0
0.0 0.0 0.0

3.296302409158979e6 6.750801057420862e6 0.0
6.750801057420862e6 -1.0141256939891621e7 0.0
0.0 0.0 0.0

2.690943330259175e6 6.87829835999986e6 0.0
6.87829835999986e6 -8.958848144075492e6 0.0
0.0 0.0 0.0

-340515.42507819657 4.768443135523714e6 0.0
4.768443135523714e6 -2.656904992560806e6 0.0
0.0 0.0 0.0

-4.0244038672725037e6 8.538662627707487e6 0.0
8.538662627707487e6 2.283224698852528e6 0.0
0.0 0.0 0.0

-9.744467214025522e6 9.716715689029833e6 0.0
9.716715689029833e6 1.863777967239584e7 0.0
0.0 0.0 0.0

-1.4349258512123544e6 1.0201461964889431e7 0.0
1.0201461964889431e7 -3.7092486467015203e6 0.0
0.0 0.0 0.0

-475709.0615313023 5.10616476650444e6 0.0
5.10616476650444e6 -2.171589341031245e6 0.0
0.0 0.0 0.0

2.9494694461010946e6 6.697169477997327e6 0.0
6.697169477997327e6 -9.27012067025117e6 0.0
0.0 0.0 0.0

-5.8475753694759905e6 9.540824892362138e6 0.0
9.540824892362138e6 3.820350069983189e6 0.0
0.0 0.0 0.0

1.0766348565850803e6 7.094021359105547e6 0.0
7.094021359105547e6 -6.390771499363895e6 0.0
0.0 0.0 0.0

-3.116627706771152e6 1.9864963342323538e6 0.0
1.9864963342323538e6 779405.4040396097 0.0
0.0 0.0 0.0

-1.149762254211799e6 8.738301754516045e6 0.0
8.738301754516045e6 -4.504163266842336e6 0.0
0.0 0.0 0.0

1.0815303186751902e6 3.466553150045679e6 0.0
3.466553150045679e6 -4.968187584991037e6 0.0
0.0 0.0 0.0

-935196.3874914665 6.014545166262526e6 0.0
6.014545166262526e6 -1.6845706831025404e6 0.0
0.0 0.0 0.0

-593494.9373075292 5.679601562331486e6 0.0
5.679601562331486e6 -2.1472596667067497e6 0.0
0.0 0.0 0.0

-1.5182415105031037e6 8.487799005796919e6 0.0
8.487799005796919e6 -3.849972152661856e6 0.0
0.0 0.0 0.0

-1.7483475969844912e6 8.1567530868966775e6 0.0
8.1567530868966775e6 -1.8221046547763923e6 0.0
0.0 0.0 0.0

-7.156108727277465e6 3.046648996384016e6 0.0
3.046648996384016e6 8.127418299520956e6 0.0
0.0 0.0 0.0

-1.0343822633101873e7 6.624029918811365e6 0.0
6.624029918811365e6 1.823056199638356e7 0.0
0.0 0.0 0.0

-1.1684814439003874e7 3.689483754654219e6 0.0
3.689483754654219e6 1.5591838243296217e7 0.0
0.0 0.0 0.0

-1.0279819845745414e7 6.776658201833853e6 0.0
6.776658201833853e6 1.6765049916399667e7 0.0
0.0 0.0 0.0

-1.3887283248072105e7 1.0540612509399492e6 0.0
1.0540612509399492e6 2.7000208166516975e7 0.0
0.0 0.0 0.0

-1.0765152065052756e6 1.1618847802134484e7 0.0
1.1618847802134484e7 765978.1948148356 0.0
0.0 0.0 0.0

-1.2163000349631093e7 -1.3005153845878572e6 0.0
-1.3005153845878572e6 1.768141981054423e7 0.0
0.0 0.0 0.0

-3.9057267748874333e6 1.074202234795103e7 0.0
1.074202234795103e7 -328925.85148909 0.0
0.0 0.0 0.0

862449.5721911984 1.0338925562551308e7 0.0
1.0338925562551308e7 -6.676977617071939e6 0.0
0.0 0.0 0.0

-2.216465554816835e7 1.4659780809659049e7 0.0
1.4659780809659049e7 1.132541039730276e6 0.0
0.0 0.0 0.0

704831.0529323043 6.434693566760254e6 0.0
6.434693566760254e6 -5.4215727924874695e6 0.0
0.0 0.0 0.0

883459.7047069389 8.722519833345544e6 0.0
8.722519833345544e6 -6.749427229109613e6 0.0
0.0 0.0 0.0

-4.311058197484281e6 1.1421434310972309e7 0.0
1.1421434310972309e7 87348.02755441167 0.0
0.0 0.0 0.0

-4.285597713557829e6 1.0145244558274873e7 0.0
1.0145244558274873e7 1.8773680118788674e6 0.0
0.0 0.0 0.0

2.178510052957172e6 7.0542277924675755e6 0.0
7.0542277924675755e6 -8.007337097833562e6 0.0
0.0 0.0 0.0

3.5784027524726195e6 1.323766177942514e7 0.0
1.323766177942514e7 -7.462186771598179e6 0.0
0.0 0.0 0.0

-1.4385484092955464e6 6.109394622307924e6 0.0
6.109394622307924e6 -1.805539331219731e6 0.0
0.0 0.0 0.0

3.7772710361846434e6 7.27316928305954e6 0.0
7.27316928305954e6 -1.301178653677417e7 0.0
0.0 0.0 0.0

-1.1083459089899182e6 5.709352127432924e6 0.0
5.709352127432924e6 -2.1417908396626287e6 0.0
0.0 0.0 0.0

468810.39797209203 6.475630607953035e6 0.0
6.475630607953035e6 -5.479624554065313e6 0.0
0.0 0.0 0.0

-6.370188222973361e6 9.11305460310502e6 0.0
9.11305460310502e6 7.342967131443496e6 0.0
0.0 0.0 0.0

-1.3705947557349902e7 9.787201479984622e6 0.0
9.787201479984622e6 3.7876429684336316e6 0.0
0.0 0.0 0.0

-5.578744241333775e6 1.0340604673421885e6 0.0
1.0340604673421885e6 5.563677412983099e6 0.0
0.0 0.0 0.0

-1.7451202396572875e6 1.0574206976143396e7 0.0
1.0574206976143396e7 -3.399099080615643e6 0.0
0.0 0.0 0.0

-9.827272741760977e6 8.518266491259525e6 0.0
8.518266491259525e6 7.035649645483042e6 0.0
0.0 0.0 0.0

824187.1024022831 6.1390702207136825e6 0.0
6.1390702207136825e6 -5.205755582140867e6 0.0
0.0 0.0 0.0

-3.6347544491328215e6 5.185376606847035e6 0.0
5.185376606847035e6 3.255989986806569e6 0.0
0.0 0.0 0.0

-1.2730423761247974e6 9.088760313472481e6 0.0
9.088760313472481e6 -3.559120218989412e6 0.0
0.0 0.0 0.0

-1.769238242136963e6 8.82293224674869e6 0.0
8.82293224674869e6 -2.1706493107858226e6 0.0
0.0 0.0 0.0

-1.7461491096279118e6 6.557906006235964e6 0.0
6.557906006235964e6 -1.4878443920048235e6 0.0
0.0 0.0 0.0

-1.0860593547419727e7 2.3077203496958953e6 0.0
2.3077203496958953e6 1.3488828376393331e7 0.0
0.0 0.0 0.0

2.952246496424305e6 6.054120502557047e6 0.0
6.054120502557047e6 -8.723162675034149e6 0.0
0.0 0.0 0.0

710317.7332855011 6.055589530239598e6 0.0
6.055589530239598e6 -5.54523857555996e6 0.0
0.0 0.0 0.0

-5.53311602271174e6 9.310632281598559e6 0.0
9.310632281598559e6 3.243021648702296e6 0.0
0.0 0.0 0.0

-1.0016360061156921e6 3.197950782311344e6 0.0
3.197950782311344e6 -1.2459445330103682e6 0.0
0.0 0.0 0.0

-1.2505876539953619e6 7.957528531109162e6 0.0
7.957528531109162e6 -3.972060922505931e6 0.0
0.0 0.0 0.0

1.6527491761902636e6 6.648367117761528e6 0.0
6.648367117761528e6 -6.644343369991084e6 0.0
0.0 0.0 0.0

-9.791723546181321e6 -558772.9968388092 0.0
-558772.9968388092 1.354223362503241e7 0.0
0.0 0.0 0.0

-988520.1465876993 1.1759777127773732e7 0.0
1.1759777127773732e7 320911.9600276666 0.0
0.0 0.0 0.0

-3.5160217356872708e6 2.610640972074007e6 0.0
2.610640972074007e6 2.5334860053938054e6 0.0
0.0 0.0 0.0

1.9639217532201791e6 8.817542680094711e6 0.0
8.817542680094711e6 -9.266846264060598e6 0.0
0.0 0.0 0.0

109735.91551482119 1.097343211805483e7 0.0
1.097343211805483e7 -7.248755274760888e6 0.0
0.0 0.0 0.0

-3.803100091410927e6 6.170198590966841e6 0.0
6.170198590966841e6 2.264263643399665e6 0.0
0.0 0.0 0.0

825537.3153196676 9.980584557522656e6 0.0
9.980584557522656e6 -7.580801004992318e6 0.0
0.0 0.0 0.0

-474548.7929692562 9.308577608003233e6 0.0
9.308577608003233e6 -4.792730272628682e6 0.0
0.0 0.0 0.0

3.2154947726270473e6 2.9556565055771964e6 0.0
2.9556565055771964e6 -5.410306134342589e6 0.0
0.0 0.0 0.0

-2.3417014773850623e6 2.3807340951782186e6 0.0
2.3807340951782186e6 825747.4530138861 0.0
0.0 0.0 0.0

-872785.8575882595 7.612198684022199e6 0.0
7.612198684022199e6 -4.0732824594236957e6 0.0
0.0 0.0 0.0

-521699.5542865391 7.351859130045726e6 0.0
7.351859130045726e6 -4.434170297159853e6 0.0
0.0 0.0 0.0

-1.1587730821538242e6 9.418379307550332e6 0.0
9.418379307550332e6 -3.768916005657706e6 0.0
0.0 0.0 0.0

-996493.5958652102 1.1856962766877431e7 0.0
1.1856962766877431e7 -52533.77638142457 0.0
0.0 0.0 0.0

6193.239671833115 6.773536834917814e6 0.0
6.773536834917814e6 -5.070924262396205e6 0.0
0.0 0.0 0.0

1.6206203113474227e6 9.874664602758428e6 0.0
9.874664602758428e6 -1.1631186824390907e7 0.0
0.0 0.0 0.0

-903795.1423253473 3.5123479424811364e6 0.0
3.5123479424811364e6 -1.3142834194362992e6 0.0
0.0 0.0 0.0

-1.9734232807920477e6 1.0906646361095594e7 0.0
1.0906646361095594e7 -9.233380079396386e6 0.0
0.0 0.0 0.0

-4.575088672340605e7 1.902185919852637e6 0.0
1.902185919852637e6 1.0882096122922862e7 0.0
0.0 0.0 0.0

3.1273013388102323e7 8.702170706457973e6 0.0
8.702170706457973e6 -3.2620537330690064e6 0.0
0.0 0.0 0.0

1.444963674656869e6 1.0211846393424235e7 0.0
1.0211846393424235e7 -1.2380463604028186e7 0.0
0.0 0.0 0.0

-5.103329266757896e6 7.686355980280847e6 0.0
7.686355980280847e6 4.704776540727763e6 0.0
0.0 0.0 0.0

-3.406729548970518e6 9.48396933601013e6 0.0
9.48396933601013e6 -5911.75806657155 0.0
0.0 0.0 0.0

-1.190732428901038e6 7.893915480984992e6 0.0
7.893915480984992e6 -3.754742052301894e6 0.0
0.0 0.0 0.0

1.0462279828618097e6 7.250434114488359e6 0.0
7.250434114488359e6 -3.9866739738388574e6 0.0
0.0 0.0 0.0

918515.8595564433 7.2229813566833865e6 0.0
7.2229813566833865e6 -4.0324712574974117e6 0.0
0.0 0.0 0.0

-2.0489915882288746e6 7.014785100166568e6 0.0
7.014785100166568e6 -1.18055455212755e6 0.0
0.0 0.0 0.0

1.5572280323945116e6 1.0027285550261322e7 0.0
1.0027285550261322e7 -1.2005626417041387e7 0.0
0.0 0.0 0.0

-488476.007596598 7.587523451409826e6 0.0
7.587523451409826e6 -4.058775875140871e6 0.0
0.0 0.0 0.0

-7.468894946839862e6 394687.9567707261 0.0
394687.9567707261 8.584791777398592e6 0.0
0.0 0.0 0.0

2.0398471409293637e7 9.551472484578643e6 0.0
9.551472484578643e6 -4.1468336524955174e6 0.0
0.0 0.0 0.0

-808157.1839091178 7.846932716168378e6 0.0
7.846932716168378e6 -3.700382405944099e6 0.0
0.0 0.0 0.0

2.195482937899369e6 6.537523772773186e6 0.0
6.537523772773186e6 -7.662619118617838e6 0.0
0.0 0.0 0.0

2.1833797365040793e6 6.794168361179502e6 0.0
6.794168361179502e6 -7.800448063043334e6 0.0
0.0 0.0 0.0

-6.130971518911619e6 9.601679342908656e6 0.0
9.601679342908656e6 6.98286132139612e6 0.0
0.0 0.0 0.0

101976.25040266756 9.116355645223258e6 0.0
9.116355645223258e6 -5.568729371018576e6 0.0
0.0 0.0 0.0

-2.0486976760435535e6 1.1689622047451565e7 0.0
1.1689622047451565e7 -516526.30847956554 0.0
0.0 0.0 0.0

1.7056803129559197e6 1.2321082597228035e7 0.0
1.2321082597228035e7 -5.238645076709019e6 0.0
0.0 0.0 0.0

-973495.9647430227 7.6627477516075205e6 0.0
7.6627477516075205e6 -2.0618873480434415e6 0.0
0.0 0.0 0.0

1.2405133320984296e6 7.345399161561724e6 0.0
7.345399161561724e6 -3.997927771005724e6 0.0
0.0 0.0 0.0

-386200.54470008856 6.208683884317967e6 0.0
6.208683884317967e6 -3.0408836895305943e6 0.0
0.0 0.0 0.0

-533009.7924543179 4.517092690864955e6 0.0
4.517092690864955e6 -1.470872611083495e6 0.0
0.0 0.0 0.0

-500762.7613595482 1.0081292871985829e7 0.0
1.0081292871985829e7 -8.475248497417554e6 0.0
0.0 0.0 0.0

1.5962036163089545e6 8.64562513605707e6 0.0
8.64562513605707e6 -8.137607343596177e6 0.0
0.0 0.0 0.0

595954.2451584926 6.379462980338628e6 0.0
6.379462980338628e6 -5.591258758274554e6 0.0
0.0 0.0 0.0

345572.24119066936 6.761803640949086e6 0.0
6.761803640949086e6 -5.095228478905147e6 0.0
0.0 0.0 0.0

-1.7401427254610106e6 8.458229974330561e6 0.0
8.458229974330561e6 -1.3741776802033782e6 0.0
0.0 0.0 0.0

534065.7063432469 6.616193496715265e6 0.0
6.616193496715265e6 -5.614583253940205e6 0.0
0.0 0.0 0.0

563238.3717581811 7.088068381243955e6 0.0
7.088068381243955e6 -3.7754434862563796e6 0.0
0.0 0.0 0.0

1.3241923882278225e6 5.833373218515147e6 0.0
5.833373218515147e6 -5.655914182578391e6 0.0
0.0 0.0 0.0

-1.0069300262007865e6 8.388608655958632e6 0.0
8.388608655958632e6 -3.711652445481958e6 0.0
0.0 0.0 0.0

-978621.7529120746 4.009972852627213e6 0.0
4.009972852627213e6 -1.3921398638084973e6 0.0
0.0 0.0 0.0

-4.1523260483398223e6 1.1442094380727055e7 0.0
1.1442094380727055e7 -1.0963987115291278e6 0.0
0.0 0.0 0.0

3.544463446778464e6 6.909034006536724e6 0.0
6.909034006536724e6 -1.184700538037392e7 0.0
0.0 0.0 0.0

-1.3238273314487897e6 8.778520533293704e6 0.0
8.778520533293704e6 -3.4077449747774433e6 0.0
0.0 0.0 0.0

1.3871277547507635e6 7.130751393736384e6 0.0
7.130751393736384e6 -6.214393174588224e6 0.0
0.0 0.0 0.0

1.0226106456715676e6 4.676696315332116e6 0.0
4.676696315332116e6 -3.1340420697435215e6 0.0
0.0 0.0 0.0

1.5230945933170943e6 6.928728092449174e6 0.0
6.928728092449174e6 -6.447574852903125e6 0.0
0.0 0.0 0.0

-3.943306571203223e6 9.072516294832e6 0.0
9.072516294832e6 1.8028432555188027e6 0.0
0.0 0.0 0.0

-4.314934842600755e6 1.3014539429228744e7 0.0
1.3014539429228744e7 -1.466605808985382e6 0.0
0.0 0.0 0.0

608068.3728509713 1.090621787887109e7 0.0
1.090621787887109e7 -7.518717777248919e6 0.0
0.0 0.0 0.0

1.126995493725665e6 7.3673566954132e6 0.0
7.3673566954132e6 -4.0345754958513915e6 0.0
0.0 0.0 0.0

-4.459606120558171e6 1.2819750282484695e7 0.0
1.2819750282484695e7 141684.91339365277 0.0
0.0 0.0 0.0

-2.764774822121548e6 1.1068161101592999e7 0.0
1.1068161101592999e7 -2.0634767253777073e6 0.0
0.0 0.0 0.0

-2.896630618136307e6 5.192142731130751e6 0.0
5.192142731130751e6 1.36409469799317e6 0.0
0.0 0.0 0.0

-3.4417562410268644e6 1.2000001280464107e7 0.0
1.2000001280464107e7 3.606273902392708e6 0.0
0.0 0.0 0.0

360326.0584570123 3.9192522107523805e6 0.0
3.9192522107523805e6 -4.0349875684028664e6 0.0
0.0 0.0 0.0

-628787.2048784532 6.195101681845674e6 0.0
6.195101681845674e6 -2.1964732127600913e6 0.0
0.0 0.0 0.0

-1.0747080398453739e7 1.1864812797447988e6 0.0
1.1864812797447988e6 1.6677113206042483e7 0.0
0.0 0.0 0.0

-2.3797779611159386e6 6.216466536691418e6 0.0
6.216466536691418e6 -321841.3662751557 0.0
0.0 0.0 0.0

2.0121168967638903e6 9.353767248760318e6 0.0
9.353767248760318e6 -2.499536992154483e6 0.0
0.0 0.0 0.0

-1.0853913609398203e6 8.149217345401789e6 0.0
8.149217345401789e6 -3.3547804752879906e6 0.0
0.0 0.0 0.0

-1.546073808555637e6 8.317976421348579e6 0.0
8.317976421348579e6 -3.669092751736404e6 0.0
0.0 0.0 0.0

1.5344004887349452e6 9.753237675784575e6 0.0
9.753237675784575e6 -1.1282430399863305e7 0.0
0.0 0.0 0.0

3.537546525338237e6 7.135171712835651e6 0.0
7.135171712835651e6 -1.229553639336873e7 0.0
0.0 0.0 0.0

-5.707384218101557e6 4.887900721968358e6 0.0
4.887900721968358e6 5.370950178481471e6 0.0
0.0 0.0 0.0

-5.572861737601982e6 1.0601950371383859e7 0.0
1.0601950371383859e7 3.9120319902929347e6 0.0
0.0 0.0 0.0

-9.227976778159525e6 -533431.578507117 0.0
-533431.578507117 1.099450588485606e7 0.0
0.0 0.0 0.0

-2.0972555979509405e6 1.0913730989991043e7 0.0
1.0913730989991043e7 -3.1508355659360606e6 0.0
0.0 0.0 0.0

-1.6937140082369973e6 1.130442889694888e7 0.0
1.130442889694888e7 -4.667888692333976e6 0.0
0.0 0.0 0.0

5.199344519792225e6 4.744708288468243e6 0.0
4.744708288468243e6 -21852.080222171266 0.0
0.0 0.0 0.0

293306.66084874957 7.3729734542922815e6 0.0
7.3729734542922815e6 -4.816630070231744e6 0.0
0.0 0.0 0.0

-3.6308148053234587e6 6.41994448204482e6 0.0
6.41994448204482e6 1.6954777646839505e6 0.0
0.0 0.0 0.0

402723.9782049833 1.039866187953178e7 0.0
1.039866187953178e7 -7.7624603763925405e6 0.0
0.0 0.0 0.0

-1.0523409288243325e6 8.233517495731748e6 0.0
8.233517495731748e6 -3.556534630177895e6 0.0
0.0 0.0 0.0

-884956.5499169617 9.032623843263201e6 0.0
9.032623843263201e6 -4.061411675628269e6 0.0
0.0 0.0 0.0

-9.874264227959245e6 4.1743587735602907e6 0.0
4.1743587735602907e6 1.363486978520317e7 0.0
0.0 0.0 0.0

-4.323539373447183e6 5.299808152619086e6 0.0
5.299808152619086e6 3.1584946780144153e6 0.0
0.0 0.0 0.0

-1.535073003234518e6 8.235494156390169e6 0.0
8.235494156390169e6 -3.5396335677844696e6 0.0
0.0 0.0 0.0

-2.6110449796027634e6 9.518423592212263e6 0.0
9.518423592212263e6 -2.2556474227486295e6 0.0
0.0 0.0 0.0

-4.028103985877066e6 7.969279764864985e6 0.0
7.969279764864985e6 3.3907925207355637e6 0.0
0.0 0.0 0.0

-4.968462341919863e6 1.1533959478755197e7 0.0
1.1533959478755197e7 1.311152008462013e6 0.0
0.0 0.0 0.0

1.8214841524842856e6 8.739390675515437e6 0.0
8.739390675515437e6 -8.710134853681749e6 0.0
0.0 0.0 0.0

-7.007271576077551e6 1.2956986142669257e7 0.0
1.2956986142669257e7 4.936202478595407e6 0.0
0.0 0.0 0.0

-3.7177618946881033e6 6.606426873373668e6 0.0
6.606426873373668e6 1.6502879161833725e6 0.0
0.0 0.0 0.0

-4.608667878712774e6 1.333778179204428e7 0.0
1.333778179204428e7 1.065512566782233e6 0.0
0.0 0.0 0.0

-383045.15789181605 1.0669764644940456e7 0.0
1.0669764644940456e7 -1.6905973944780077e6 0.0
0.0 0.0 0.0

576610.4756031698 1.1103715480716094e7 0.0
1.1103715480716094e7 -7.157214872788148e6 0.0
0.0 0.0 0.0

-1.3004938883548952e6 1.1025883430253524e7 0.0
1.1025883430253524e7 -1.9323709384582078e6 0.0
0.0 0.0 0.0

-6.20689711007906e6 1.0590977918227257e7 0.0
1.0590977918227257e7 4.701863308656402e6 0.0
0.0 0.0 0.0

-1.8905434004035422e6 9.890550876605595e6 0.0
9.890550876605595e6 -2.9573952943576137e6 0.0
0.0 0.0 0.0

-1.4873737366214644e6 8.2104888613848975e6 0.0
8.2104888613848975e6 -3.435229125064324e6 0.0
0.0 0.0 0.0

643845.7893590839 1.0783093075898537e7 0.0
1.0783093075898537e7 -7.6476682961262455e6 0.0
0.0 0.0 0.0

-595015.2808919676 7.638272588829695e6 0.0
7.638272588829695e6 -3.514058945858307e6 0.0
0.0 0.0 0.0

-4.428737587802649e6 1.024816713598063e7 0.0
1.024816713598063e7 1.3931569960773923e6 0.0
0.0 0.0 0.0

-4.729386496379949e6 1.1432481865717588e7 0.0
1.1432481865717588e7 782771.577591049 0.0
0.0 0.0 0.0

2.0586743983964827e6 4.1838386608908186e6 0.0
4.1838386608908186e6 -3.6133689391239574e6 0.0
0.0 0.0 0.0

-260072.29565297114 7.316648799041101e6 0.0
7.316648799041101e6 -4.474107241735371e6 0.0
0.0 0.0 0.0

-5.112402296984263e6 1.1900633168002522e7 0.0
1.1900633168002522e7 2.160321725877325e6 0.0
0.0 0.0 0.0

-4.1856113912639334e6 8.772196758771908e6 0.0
8.772196758771908e6 1.3173462604566885e6 0.0
0.0 0.0 0.0

-3.398789364262695e7 -1.8670310204909446e6 0.0
-1.8670310204909446e6 1.0627663715620207e7 0.0
0.0 0.0 0.0

839064.0778063633 1.0190775963122949e7 0.0
1.0190775963122949e7 -7.7616901733116135e6 0.0
0.0 0.0 0.0

-4.310719513456559e6 8.190301716660936e6 0.0
8.190301716660936e6 1.7657848764053492e6 0.0
0.0 0.0 0.0

-3.7507458056468884e6 1.0852023071013812e7 0.0
1.0852023071013812e7 150784.16568633798 0.0
0.0 0.0 0.0

-4.696747802416325e6 8.643580145214139e6 0.0
8.643580145214139e6 2.1632872366109034e6 0.0
0.0 0.0 0.0

-994549.6921789428 1.1990618600951629e7 0.0
1.1990618600951629e7 -343853.85448300565 0.0
0.0 0.0 0.0

-2.565546678269763e6 1.0390089854305498e7 0.0
1.0390089854305498e7 -2.254078888551142e6 0.0
0.0 0.0 0.0

-3.679831307608034e6 6.790294402576744e6 0.0
6.790294402576744e6 1.4206274468521373e6 0.0
0.0 0.0 0.0

-4.1121959426711835e6 3.982168490068182e6 0.0
3.982168490068182e6 4.525162059163466e6 0.0
0.0 0.0 0.0

-776245.2809846747 7.888073791740712e6 0.0
7.888073791740712e6 -2.949402590017858e6 0.0
0.0 0.0 0.0

2.345768860358639e6 7.034082085702664e6 0.0
7.034082085702664e6 -5.80578958471591e6 0.0
0.0 0.0 0.0

-2.115037669641463e6 8.882296947001614e6 0.0
8.882296947001614e6 -2.2506556877580625e6 0.0
0.0 0.0 0.0

-2.973512437783281e6 1.1122074716044394e7 0.0
1.1122074716044394e7 -2.7870372109330865e6 0.0
0.0 0.0 0.0

-3.831317006471174e6 8.371085106079041e6 0.0
8.371085106079041e6 905226.9015430748 0.0
0.0 0.0 0.0

-1.691856256370731e6 8.404555855943788e6 0.0
8.404555855943788e6 -2.21354475354599e6 0.0
0.0 0.0 0.0

-275143.20827451965 3.046195865916573e6 0.0
3.046195865916573e6 -1.0927383556353454e6 0.0
0.0 0.0 0.0

2.2660352544014663e6 6.690423975778998e6 0.0
6.690423975778998e6 -6.056099992395679e6 0.0
0.0 0.0 0.0

-8.689667225084605e6 1.2791924294995486e6 0.0
1.2791924294995486e6 1.1561178571992774e7 0.0
0.0 0.0 0.0

-1.9069353560570106e6 3.8291959680246254e6 0.0
3.8291959680246254e6 684049.6139478843 0.0
0.0 0.0 0.0

-3.5541752969902037e6 1.0750513895868309e7 0.0
1.0750513895868309e7 5.2202926376434155e6 0.0
0.0 0.0 0.0

-2.9011562106545703e6 9.844663052796617e6 0.0
9.844663052796617e6 -1.958092481001744e6 0.0
0.0 0.0 0.0

1643.0759655970614 7.290116734264757e6 0.0
7.290116734264757e6 -4.596455640605801e6 0.0
0.0 0.0 0.0

-9.21659869708324e6 587124.6922245712 0.0
587124.6922245712 1.3092090835626299e7 0.0
0.0 0.0 0.0

-3.804462649698902e6 1.0997859955165274e7 0.0
1.0997859955165274e7 69236.53978173272 0.0
0.0 0.0 0.0

-1.7007728210167857e6 7.096560596620245e6 0.0
7.096560596620245e6 -1.6415910426348392e6 0.0
0.0 0.0 0.0

-251409.25132025615 6.402362291710824e6 0.0
6.402362291710824e6 -2.745999137530501e6 0.0
0.0 0.0 0.0

-1.087178064864691e6 7.917590056784046e6 0.0
7.917590056784046e6 -2.965396914934281e6 0.0
0.0 0.0 0.0

513869.6722966037 1.0346323870160177e7 0.0
1.0346323870160177e7 -8.993907743361916e6 0.0
0.0 0.0 0.0

-3.9658491297519766e6 8.802661990519287e6 0.0
8.802661990519287e6 2.0438782551620554e6 0.0
0.0 0.0 0.0

-1.146586475203517e6 1.119019846498156e7 0.0
1.119019846498156e7 -4.555320488511434e6 0.0
0.0 0.0 0.0

-9.772080205528235e6 1.1228292967995228e7 0.0
1.1228292967995228e7 2.3236704117913842e7 0.0
0.0 0.0 0.0

-1.4391438972831983e6 9.95291502171082e6 0.0
9.95291502171082e6 3.6496056640587733e6 0.0
0.0 0.0 0.0

-3.8448573715623273e6 6.4667105123654995e6 0.0
6.4667105123654995e6 2.2227723633154067e6 0.0
0.0 0.0 0.0

1.0993279323083647e6 8.789830380911233e6 0.0
8.789830380911233e6 -7.169774309770122e6 0.0
0.0 0.0 0.0

-1.708955597323505e6 8.68765771396383e6 0.0
8.68765771396383e6 -1.782283633718618e6 0.0
0.0 0.0 0.0

-2.40339317002274e6 1.2470727228807723e7 0.0
1.2470727228807723e7 -3.664143042632616e6 0.0
0.0 0.0 0.0

-5.536505796496209e6 1.1054465623284912e7 0.0
1.1054465623284912e7 3.581689595947261e6 0.0
0.0 0.0 0.0

-4.547870497981282e6 1.1297311106949486e7 0.0
1.1297311106949486e7 433309.32583780354 0.0
0.0 0.0 0.0

441014.0856636595 1.1293405434147285e7 0.0
1.1293405434147285e7 -6.756456027877451e6 0.0
0.0 0.0 0.0

-1.3451289915599022e6 8.3476764125111e6 0.0
8.3476764125111e6 -2.144238651567284e6 0.0
0.0 0.0 0.0

-4.601445831010924e6 8.901170521621123e6 0.0
8.901170521621123e6 1.9294144481427642e6 0.0
0.0 0.0 0.0

-2.607453494452443e6 4.976190095706289e6 0.0
4.976190095706289e6 875984.263722315 0.0
0.0 0.0 0.0

1.563080555202369e6 6.247853068600291e6 0.0
6.247853068600291e6 -5.863480778050462e6 0.0
0.0 0.0 0.0

-1.9783120827635399e6 9.024535610856319e6 0.0
9.024535610856319e6 -1.8074735366753633e6 0.0
0.0 0.0 0.0

1.0446351469842179e6 7.09822103198657e6 0.0
7.09822103198657e6 -5.673566810042097e6 0.0
0.0 0.0 0.0

-3.227682650356407e6 9.39669893924768e6 0.0
9.39669893924768e6 602547.2117593524 0.0
0.0 0.0 0.0

135448.0453199374 6.7589479270044565e6 0.0
6.7589479270044565e6 -3.353020715053671e6 0.0
0.0 0.0 0.0

-6.153310662733457e6 1.2870157803482182e7 0.0
1.2870157803482182e7 2.16521427611419e6 0.0
0.0 0.0 0.0

-2.5170097862136595e7 -4.003873797643135e6 0.0
-4.003873797643135e6 1.1070210781178262e7 0.0
0.0 0.0 0.0

397424.2377431488 7.058771108239585e6 0.0
7.058771108239585e6 -3.823441097373172e6 0.0
0.0 0.0 0.0

620634.4937815326 1.0220811933369663e7 0.0
1.0220811933369663e7 -9.687157087213691e6 0.0
0.0 0.0 0.0

65377.69548441586 1.2072139265261322e7 0.0
1.2072139265261322e7 -5.384674226400404e6 0.0
0.0 0.0 0.0

-829183.0120670449 7.831844766130855e6 0.0
7.831844766130855e6 -3.7521098131912593e6 0.0
0.0 0.0 0.0

-159207.0595889343 1.0761414847917527e7 0.0
1.0761414847917527e7 -6.052426497385178e6 0.0
0.0 0.0 0.0

649869.261958342 7.276471940461307e6 0.0
7.276471940461307e6 -4.1088097418498714e6 0.0
0.0 0.0 0.0

1.3937591960995998e6 6.889115498309608e6 0.0
6.889115498309608e6 -6.05920562606169e6 0.0
0.0 0.0 0.0

-5.188625994027939e6 1.1643733547682948e7 0.0
1.1643733547682948e7 1.752680625576017e6 0.0
0.0 0.0 0.0

1.2781685019335356e6 7.272895253772264e6 0.0
7.272895253772264e6 -4.09297428965689e6 0.0
0.0 0.0 0.0

-284570.5547369665 7.0408087438090425e6 0.0
7.0408087438090425e6 -4.78331697508849e6 0.0
0.0 0.0 0.0

-6.744782005231319e6 1.3241225969526784e7 0.0
1.3241225969526784e7 2.926531510922751e6 0.0
0.0 0.0 0.0

2.2193258620305927e6 9.858968261357218e6 0.0
9.858968261357218e6 -3.5129864300836017e6 0.0
0.0 0.0 0.0

-3.021701162603977e6 1.2654725898144308e7 0.0
1.2654725898144308e7 -1.8870787944911863e6 0.0
0.0 0.0 0.0

4.056263487972771e6 8.194562731980501e6 0.0
8.194562731980501e6 -1.3378049304886265e7 0.0
0.0 0.0 0.0

-7.057547471180186e6 6.940367969061222e6 0.0
6.940367969061222e6 9.921842600193527e6 0.0
0.0 0.0 0.0

-4.686574060864165e6 1.123158582610214e7 0.0
1.123158582610214e7 1.9785715130949884e6 0.0
0.0 0.0 0.0

631606.3344678653 6.596759696351639e6 0.0
6.596759696351639e6 -5.287640354355113e6 0.0
0.0 0.0 0.0

707445.8026019062 7.330085392711034e6 0.0
7.330085392711034e6 -4.093325357703929e6 0.0
0.0 0.0 0.0

315562.6470794752 7.157454166758277e6 0.0
7.157454166758277e6 -4.690472709169777e6 0.0
0.0 0.0 0.0

-6.8753227637843285e6 1.2412404952459492e7 0.0
1.2412404952459492e7 5.208353129151873e6 0.0
0.0 0.0 0.0

-1.3115915629399884e6 3.77106074295157e6 0.0
3.77106074295157e6 423756.2805911715 0.0
0.0 0.0 0.0

-6.5210347925482085e6 6.151719815670324e6 0.0
6.151719815670324e6 7.723070921715602e6 0.0
0.0 0.0 0.0

-4.411785317498341e6 1.1380159649564138e7 0.0
1.1380159649564138e7 854424.1737048221 0.0
0.0 0.0 0.0

-608077.4951597772 8.66696663418561e6 0.0
8.66696663418561e6 -4.403754672481304e6 0.0
0.0 0.0 0.0

-3.414547023202465e6 1.1227306984538855e7 0.0
1.1227306984538855e7 4.3246997614281485e6 0.0
0.0 0.0 0.0

-2.041952019245562e6 8.747026758370081e6 0.0
8.747026758370081e6 -1.8577121950098763e6 0.0
0.0 0.0 0.0

-1.3389570531279338e6 8.591643437335163e6 0.0
8.591643437335163e6 -3.262699498410087e6 0.0
0.0 0.0 0.0

952769.3290991387 1.014115207199544e7 0.0
1.014115207199544e7 -9.178970003283057e6 0.0
0.0 0.0 0.0

-3.4820923178911754e6 1.320354057121879e7 0.0
1.320354057121879e7 -1.1913533273147747e6 0.0
0.0 0.0 0.0

1.5953137544481233e6 9.749783883647347e6 0.0
9.749783883647347e6 -1.1015756259456323e7 0.0
0.0 0.0 0.0

-2.34925185806816e6 4.6043067494728435e6 0.0
4.6043067494728435e6 592020.6981830413 0.0
0.0 0.0 0.0

-1.1816840548155447e6 1.4640689777414538e7 0.0
1.4640689777414538e7 1.4493483959725471e7 0.0
0.0 0.0 0.0

-6.713360912899861e6 1.1979548505692223e7 0.0
1.1979548505692223e7 4.955174123984383e6 0.0
0.0 0.0 0.0

-2.186973076939103e6 8.924012962693216e6 0.0
8.924012962693216e6 -1.8654260810499731e6 0.0
0.0 0.0 0.0

-57100.91907769954 1.268776052912823e7 0.0
1.268776052912823e7 -4.791594752432125e6 0.0
0.0 0.0 0.0

-4.147772742901703e6 1.1283169647893175e7 0.0
1.1283169647893175e7 426692.02599313576 0.0
0.0 0.0 0.0

-862406.0555795538 5.012982489620328e6 0.0
5.012982489620328e6 -1.9453338684200053e6 0.0
0.0 0.0 0.0

265263.03611639235 1.148398403867493e7 0.0
1.148398403867493e7 -6.34440135329596e6 0.0
0.0 0.0 0.0

371534.5458117181 9.290864797494238e6 0.0
9.290864797494238e6 -6.165924405646269e6 0.0
0.0 0.0 0.0

72375.29455099208 9.398039695584098e6 0.0
9.398039695584098e6 -5.740419579666775e6 0.0
0.0 0.0 0.0

-1.7053375402232613e6 8.459106756317202e6 0.0
8.459106756317202e6 -3.0331439779145783e6 0.0
0.0 0.0 0.0

1.804493495380416e6 1.446585885992505e7 0.0
1.446585885992505e7 -6.0579231807752885e6 0.0
0.0 0.0 0.0

-200750.0038106963 7.273955499859471e6 0.0
7.273955499859471e6 -4.418585349961625e6 0.0
0.0 0.0 0.0

2.5279210968900123e6 6.538724099905646e6 0.0
6.538724099905646e6 -5.811084248140465e6 0.0
0.0 0.0 0.0

619457.4761982132 9.125786958062835e6 0.0
9.125786958062835e6 -6.501077386187338e6 0.0
0.0 0.0 0.0

3.283643642839855e6 7.15648636651065e6 0.0
7.15648636651065e6 -1.1505236348818023e7 0.0
0.0 0.0 0.0

-1.0566669822912263e6 4.521614976800072e6 0.0
4.521614976800072e6 -1.4080005072274914e6 0.0
0.0 0.0 0.0

-4.397018782224737e6 9.816213475753998e6 0.0
9.816213475753998e6 1.4162757953482964e6 0.0
0.0 0.0 0.0

1.599883728285815e6 6.017089790443698e6 0.0
6.017089790443698e6 -6.670283334375074e6 0.0
0.0 0.0 0.0

2.0932461160142547e6 7.051864555049385e6 0.0
7.051864555049385e6 -5.830284599168975e6 0.0
0.0 0.0 0.0

-1.5614792650964358e6 8.631278078249125e6 0.0
8.631278078249125e6 -2.5700285551660364e6 0.0
0.0 0.0 0.0

-9.975555032894365e6 5.126239557471878e6 0.0
5.126239557471878e6 1.445094898976855e7 0.0
0.0 0.0 0.0

-6.29399434971712e6 1.1016610832366168e7 0.0
1.1016610832366168e7 5.728445685994533e6 0.0
0.0 0.0 0.0

-1.0576260243776762e6 5.344617084727009e6 0.0
5.344617084727009e6 -1.990686303363042e6 0.0
0.0 0.0 0.0

-6.283254801647671e6 1.010380683264135e7 0.0
1.010380683264135e7 6.681205945939898e6 0.0
0.0 0.0 0.0

948363.3619946428 6.17635510259066e6 0.0
6.17635510259066e6 -5.358522977382367e6 0.0
0.0 0.0 0.0

816151.2925906228 8.97605881917157e6 0.0
8.97605881917157e6 -6.920587655742881e6 0.0
0.0 0.0 0.0

-1.6556200098234046e7 2.409912683251329e7 0.0
2.409912683251329e7 1.1075279212642958e7 0.0
0.0 0.0 0.0

-2.0516789922189056e6 6.142493004422722e6 0.0
6.142493004422722e6 -849790.5575566757 0.0
0.0 0.0 0.0

-1.9762941515003825e6 4.0587261279975e6 0.0
4.0587261279975e6 198000.05982929817 0.0
0.0 0.0 0.0

-1.4645245394303019e6 1.0930376304773873e7 0.0
1.0930376304773873e7 -4.962446903561556e6 0.0
0.0 0.0 0.0

-199959.9399620155 9.508130359705787e6 0.0
9.508130359705787e6 -5.379591074054957e6 0.0
0.0 0.0 0.0

-969508.3097891441 518500.57715057675 0.0
518500.57715057675 1.4817291936795032e6 0.0
0.0 0.0 0.0

-674170.5512320809 -1.9850773490632062e6 0.0
-1.9850773490632062e6 3.4251937703426434e6 0.0
0.0 0.0 0.0

-7.036966543033896e6 1.2421499137331e7 0.0
1.2421499137331e7 5.209372023402241e6 0.0
0.0 0.0 0.0

-3.873270272094407e6 8.034598399294271e6 0.0
8.034598399294271e6 1.1220471120708426e6 0.0
0.0 0.0 0.0

-6.794491056357106e6 1.2447104054357944e7 0.0
1.2447104054357944e7 4.519898026654479e6 0.0
0.0 0.0 0.0

1.2386227242041342e6 7.316026461021074e6 0.0
7.316026461021074e6 -6.026086995605396e6 0.0
0.0 0.0 0.0

-4.501761296153929e6 9.149613908956219e6 0.0
9.149613908956219e6 1.7189098648255304e6 0.0
0.0 0.0 0.0

-4.5558882682384e6 2.2062650053411783e6 0.0
2.2062650053411783e6 6.057677629533648e6 0.0
0.0 0.0 0.0

-2.968685761577544e7 -3.1601861648303946e6 0.0
-3.1601861648303946e6 1.2538843456175728e7 0.0
0.0 0.0 0.0

-4.792629968761625e6 1.0187073048427526e7 0.0
1.0187073048427526e7 1.8552648955348418e6 0.0
0.0 0.0 0.0

-6.189093613592626e6 1.0498055743450398e7 0.0
1.0498055743450398e7 6.46774213997395e6 0.0
0.0 0.0 0.0

-4.987471734543409e6 1.2576217543599874e7 0.0
1.2576217543599874e7 -256463.30785476067 0.0
0.0 0.0 0.0

2.0263562935638304e6 7.107650548598885e6 0.0
7.107650548598885e6 -5.610582327636666e6 0.0
0.0 0.0 0.0

-2.7284457299652444e6 6.684482603551429e6 0.0
6.684482603551429e6 30218.829135604203 0.0
0.0 0.0 0.0

-5.262360040654175e6 1.2611531248612855e7 0.0
1.2611531248612855e7 692104.1033386779 0.0
0.0 0.0 0.0

-3.1320415843691663e6 1.2807925952374032e7 0.0
1.2807925952374032e7 242508.1823281939 0.0
0.0 0.0 0.0

606048.6732395159 6.501994066377994e6 0.0
6.501994066377994e6 -5.398932232687273e6 0.0
0.0 0.0 0.0

-6.342959764259958e6 1.0739574705857016e7 0.0
1.0739574705857016e7 6.223870071417101e6 0.0
0.0 0.0 0.0

-2.2152991250534565e6 9.440029272543507e6 0.0
9.440029272543507e6 -2.130959499226274e6 0.0
0.0 0.0 0.0

3.730170441872049e6 6.640751428145699e6 0.0
6.640751428145699e6 -1.1995415099016218e7 0.0
0.0 0.0 0.0

-8.953432821586657e6 -3.70990488635526e6 0.0
-3.70990488635526e6 1.2485830812366353e7 0.0
0.0 0.0 0.0

384112.80028107134 6.752824830802177e6 0.0
6.752824830802177e6 -5.040017168900114e6 0.0
0.0 0.0 0.0

2.4463201134387865e6 6.843583944133265e6 0.0
6.843583944133265e6 -8.371470085065454e6 0.0
0.0 0.0 0.0

1.2162496170813595e6 1.0296637675827421e7 0.0
1.0296637675827421e7 -5.863216044429524e6 0.0
0.0 0.0 0.0

2.1429709951779335e6 8.93466008550776e6 0.0
8.93466008550776e6 -1.1053171220771737e7 0.0
0.0 0.0 0.0

-7.642015571668742e6 1.4745722998961482e7 0.0
1.4745722998961482e7 3.0986736818195786e6 0.0
0.0 0.0 0.0

-8.41630681514717e6 9.029983576243963e6 0.0
9.029983576243963e6 1.2532616150798824e7 0.0
0.0 0.0 0.0

-8.247928674847521e6 -2.442789122481604e6 0.0
-2.442789122481604e6 1.1545775646340627e7 0.0
0.0 0.0 0.0

-2.4955012192075117e6 9.767655330707103e6 0.0
9.767655330707103e6 -1.8479799954039566e6 0.0
0.0 0.0 0.0

2.6317438062536223e6 7.3993280116833e6 0.0
7.3993280116833e6 -1.0211847562804865e7 0.0
0.0 0.0 0.0

-2.771815587029313e6 9.485329200175181e6 0.0
9.485329200175181e6 -339057.59158668004 0.0
0.0 0.0 0.0

-4.068305239518746e6 9.473424498107431e6 0.0
9.473424498107431e6 996425.4239773126 0.0
0.0 0.0 0.0

-2.6073858703947165e6 4.416952089472707e6 0.0
4.416952089472707e6 2.1113685413497062e6 0.0
0.0 0.0 0.0

-3.361721205843565e6 1.355874798651536e7 0.0
1.355874798651536e7 -1.3363751411605615e6 0.0
0.0 0.0 0.0

1.550623256665947e6 1.0070766619864164e7 0.0
1.0070766619864164e7 -4.987939684223659e6 0.0
0.0 0.0 0.0

-4.570614755948922e6 1.1539386223956043e7 0.0
1.1539386223956043e7 1.2735881184062473e6 0.0
0.0 0.0 0.0

3.9073883307210477e6 5.885416338689364e6 0.0
5.885416338689364e6 -1.1338884434051821e7 0.0
0.0 0.0 0.0

-4.458987037072606e6 9.502446538097672e6 0.0
9.502446538097672e6 1.5075954049633788e6 0.0
0.0 0.0 0.0

-802903.5764956777 7.863042644995088e6 0.0
7.863042644995088e6 -3.841654601654553e6 0.0
0.0 0.0 0.0

-1.0892015399755572e6 6.24538204362571e6 0.0
6.24538204362571e6 -2.2475969515117714e6 0.0
0.0 0.0 0.0

-1.1433494165346404e6 8.209964086379046e6 0.0
8.209964086379046e6 -2.5323500316417417e6 0.0
0.0 0.0 0.0

-548240.2062370578 4.0356517591030067e6 0.0
4.0356517591030067e6 -2.1371373964335597e6 0.0
0.0 0.0 0.0

1.5793885995497045e6 1.010636857952476e7 0.0
1.010636857952476e7 -4.939049835119071e6 0.0
0.0 0.0 0.0

-8.486349561793584e6 2.0135076698217406e6 0.0
2.0135076698217406e6 1.1259683412670461e7 0.0
0.0 0.0 0.0

-1.3756137200165698e6 8.506495958085569e6 0.0
8.506495958085569e6 -3.131987207098282e6 0.0
0.0 0.0 0.0

81490.60221802606 4.912562237095101e6 0.0
4.912562237095101e6 -3.4680094867711756e6 0.0
0.0 0.0 0.0

-7.312344328675424e6 1.2587371832852637e7 0.0
1.2587371832852637e7 5.537239705183227e6 0.0
0.0 0.0 0.0

-3.922423018004681e6 1.1394424289957374e7 0.0
1.1394424289957374e7 -303711.810559927 0.0
0.0 0.0 0.0

301642.70823869295 1.0281992565514093e7 0.0
1.0281992565514093e7 -6.750806204029695e6 0.0
0.0 0.0 0.0

97989.78986559995 6.97188243724772e6 0.0
6.97188243724772e6 -4.755714682565954e6 0.0
0.0 0.0 0.0

-4.577072310469e6 1.0456831211567057e7 0.0
1.0456831211567057e7 2.2532430935822297e6 0.0
0.0 0.0 0.0

-5.816511697917625e6 1.0063499601881726e7 0.0
1.0063499601881726e7 6.460381159728825e6 0.0
0.0 0.0 0.0

-6.619274523358527e6 9.626742213897439e6 0.0
9.626742213897439e6 8.981398856414095e6 0.0
0.0 0.0 0.0

2.6972309640535726e6 7.560942944045633e6 0.0
7.560942944045633e6 -1.0830649126704885e7 0.0
0.0 0.0 0.0

-4.295034083098138e6 9.206737658023456e6 0.0
9.206737658023456e6 2.398935943885586e6 0.0
0.0 0.0 0.0

-4.239366149507247e6 9.799183428660821e6 0.0
9.799183428660821e6 1.948068907864738e6 0.0
0.0 0.0 0.0

-3.0945679500659625e6 5.735761887101586e6 0.0
5.735761887101586e6 1.2795793604767723e6 0.0
0.0 0.0 0.0

-7.8037833969525155e6 1.5141298982917983e7 0.0
1.5141298982917983e7 3.2493826853708937e6 0.0
0.0 0.0 0.0

-1.0397924828385891e6 8.107733582561402e6 0.0
8.107733582561402e6 -3.3122790599217587e6 0.0
0.0 0.0 0.0

-5.934277562343805e6 7.763786337244424e6 0.0
7.763786337244424e6 4.702592414628668e6 0.0
0.0 0.0 0.0

122497.2412178882 7.018757035180665e6 0.0
7.018757035180665e6 -4.798385856209149e6 0.0
0.0 0.0 0.0

-650452.2869727027 5.392996403393384e6 0.0
5.392996403393384e6 -2.1251933147752644e6 0.0
0.0 0.0 0.0

-4.601884534626212e6 1.0743344471391205e7 0.0
1.0743344471391205e7 2.1330366361340797e6 0.0
0.0 0.0 0.0

-4.952314727351715e6 1.1025159473355604e7 0.0
1.1025159473355604e7 2.4806717229154846e6 0.0
0.0 0.0 0.0

-1.3641401361063365e6 8.471264413477236e6 0.0
8.471264413477236e6 -3.0304051194805363e6 0.0
0.0 0.0 0.0

1.6329906468989789e6 1.0930995356223999e7 0.0
1.0930995356223999e7 -5.265577441098862e6 0.0
0.0 0.0 0.0

-37869.984471870586 1.510717024689739e7 0.0
1.510717024689739e7 -4.734822527619809e6 0.0
0.0 0.0 0.0

-3.3744071267533735e6 1.2156436653658748e7 0.0
1.2156436653658748e7 2.517568594877211e6 0.0
0.0 0.0 0.0

-1.2311476114628653e6 1.0611515761536604e7 0.0
1.0611515761536604e7 -8.766401030197531e6 0.0
0.0 0.0 0.0

-391833.52949601423 7.577480007465197e6 0.0
7.577480007465197e6 -4.0691816329798596e6 0.0
0.0 0.0 0.0

-3.5346726301775197e6 3.205867990416569e6 0.0
3.205867990416569e6 4.1081148675321965e6 0.0
0.0 0.0 0.0

-1.1238930705482427e6 1.2085186753873069e7 0.0
1.2085186753873069e7 -472339.4695082315 0.0
0.0 0.0 0.0

-2.4242519994345894e6 1.191104856764016e7 0.0
1.191104856764016e7 168001.34804705274 0.0
0.0 0.0 0.0

-4.269006206384703e6 9.440001052406875e6 0.0
9.440001052406875e6 2.152104339531229e6 0.0
0.0 0.0 0.0

-4.786402779141784e6 1.36981326590507e6 0.0
1.36981326590507e6 6.797947935169421e6 0.0
0.0 0.0 0.0

-7.641007083934607e6 1.273891568417804e7 0.0
1.273891568417804e7 5.82298594087645e6 0.0
0.0 0.0 0.0

-4.741658385296219e6 1.0514074861086942e7 0.0
1.0514074861086942e7 1.6929526639845031e6 0.0
0.0 0.0 0.0

1.920620356659324e6 9.176540350821171e6 0.0
9.176540350821171e6 -2.9068530737936636e6 0.0
0.0 0.0 0.0

8474.150795639023 1.020517016067232e7 0.0
1.020517016067232e7 28247.225315670552 0.0
0.0 0.0 0.0

-4.3696623325991575e6 8.981978613260992e6 0.0
8.981978613260992e6 2.682514984790477e6 0.0
0.0 0.0 0.0

-5.3684216893657325e6 8.381975615173598e6 0.0
8.381975615173598e6 3.4868998132395097e6 0.0
0.0 0.0 0.0

674424.3174995861 6.59421877508024e6 0.0
6.59421877508024e6 -5.431070237807926e6 0.0
0.0 0.0 0.0

-4.688715830813957e6 1.1686443642411204e7 0.0
1.1686443642411204e7 1.1740945501029862e6 0.0
0.0 0.0 0.0

-4.514183465893441e6 7.118437192119113e6 0.0
7.118437192119113e6 3.926581284154603e6 0.0
0.0 0.0 0.0

1.1680961637769085e6 5.890132585839991e6 0.0
5.890132585839991e6 -6.253732150982149e6 0.0
0.0 0.0 0.0

-4.229600089673895e6 1.1032573279153144e7 0.0
1.1032573279153144e7 42614.022895235335 0.0
0.0 0.0 0.0

-3.881666725437451e6 9.406641312805008e6 0.0
9.406641312805008e6 1.6240821188495262e6 0.0
0.0 0.0 0.0

614571.912624316 4.754503550799324e6 0.0
4.754503550799324e6 -4.515611789402824e6 0.0
0.0 0.0 0.0

51973.84038452641 7.250875047603065e6 0.0
7.250875047603065e6 -5.404921778121586e6 0.0
0.0 0.0 0.0

-1.35438998647189e7 2.1850574486283336e7 0.0
2.1850574486283336e7 9.795221038424244e6 0.0
0.0 0.0 0.0

4.569169356829242e6 8.356728278459685e6 0.0
8.356728278459685e6 -1.5037713290258516e7 0.0
0.0 0.0 0.0

1.65721799875705e6 6.226100704730213e6 0.0
6.226100704730213e6 -7.309644496809391e6 0.0
0.0 0.0 0.0

532660.7799506579 8.435061140600441e6 0.0
8.435061140600441e6 -5.747424038803394e6 0.0
0.0 0.0 0.0

-2.5938715107110357e6 1.2097633607090248e7 0.0
1.2097633607090248e7 1.5136765307543045e6 0.0
0.0 0.0 0.0

652611.4245883329 9.95110299354452e6 0.0
9.95110299354452e6 -8.180340683466099e6 0.0
0.0 0.0 0.0

-167455.24896859517 7.551859060793927e6 0.0
7.551859060793927e6 -4.235000824249487e6 0.0
0.0 0.0 0.0

-775968.1336983521 6.415119037528365e6 0.0
6.415119037528365e6 -2.722554251832801e6 0.0
0.0 0.0 0.0

-739255.0375044161 1.1287120973457528e7 0.0
1.1287120973457528e7 2.340300073407127e6 0.0
0.0 0.0 0.0

-8.073609673674149e6 9.070273215930426e6 0.0
9.070273215930426e6 1.137402845185877e7 0.0
0.0 0.0 0.0

-186585.0082848356 8.686066311642362e6 0.0
8.686066311642362e6 6.723246310943478e6 0.0
0.0 0.0 0.0

-9.461684125406018e6 1.3766040406036548e7 0.0
1.3766040406036548e7 6.959283952052154e6 0.0
0.0 0.0 0.0

-1.9082616037112414e6 8.68228362075878e6 0.0
8.68228362075878e6 -2.6363301045419206e6 0.0
0.0 0.0 0.0

-1.2025376800702598e7 9.233756588108286e6 0.0
9.233756588108286e6 3.5244108190689543e6 0.0
0.0 0.0 0.0

-1.916638640875401e6 9.130585152013337e6 0.0
9.130585152013337e6 -2.4332166943457774e6 0.0
0.0 0.0 0.0

-3.9837512209697473e6 9.765626897584712e6 0.0
9.765626897584712e6 1.4291326574690368e6 0.0
0.0 0.0 0.0

-1.122797431965462e6 8.21322840266107e6 0.0
8.21322840266107e6 -2.8969866181988744e6 0.0
0.0 0.0 0.0

750035.3751912881 1.035213345501243e7 0.0
1.035213345501243e7 -8.797355855537657e6 0.0
0.0 0.0 0.0

873277.983343964 6.016383861718968e6 0.0
6.016383861718968e6 -5.9462862086952e6 0.0
0.0 0.0 0.0

2.4915111964203473e6 8.481053221141256e6 0.0
8.481053221141256e6 -1.0050062831015002e7 0.0
0.0 0.0 0.0

-2.284838965535341e6 1.1280162121193003e7 0.0
1.1280162121193003e7 3.020455927697188e6 0.0
0.0 0.0 0.0

1.690416979914845e6 6.822934833832084e6 0.0
6.822934833832084e6 -6.8607513670488e6 0.0
0.0 0.0 0.0

-4.300005003715332e6 1.1159527772147534e7 0.0
1.1159527772147534e7 -36886.46444610902 0.0
0.0 0.0 0.0

-2.7252772039921572e6 1.040933804852639e7 0.0
1.040933804852639e7 -2.812979388182368e6 0.0
0.0 0.0 0.0

-1.3103430119540817e6 8.047534534334005e6 0.0
8.047534534334005e6 -2.59533814073109e6 0.0
0.0 0.0 0.0

-2.3602991240274524e6 7.455052118131219e6 0.0
7.455052118131219e6 -855695.7187132443 0.0
0.0 0.0 0.0

-6.288433670540212e6 8.049012998583769e6 0.0
8.049012998583769e6 5.485742353537602e6 0.0
0.0 0.0 0.0

838984.8914993436 7.107649455853266e6 0.0
7.107649455853266e6 -5.460181899645663e6 0.0
0.0 0.0 0.0

-1.1585545279076971e7 1.4461820848893264e7 0.0
1.4461820848893264e7 8.308643211470544e6 0.0
0.0 0.0 0.0

-8.0697007033709865e6 1.2815395437266119e7 0.0
1.2815395437266119e7 6.220370275434777e6 0.0
0.0 0.0 0.0

-6.888122876079557e6 8.916553513560278e6 0.0
8.916553513560278e6 7.063639519379202e6 0.0
0.0 0.0 0.0

-1.4344024612250575e6 7.307005905671847e6 0.0
7.307005905671847e6 -4.781341518820731e6 0.0
0.0 0.0 0.0

-484926.6306588657 9.600401128987964e6 0.0
9.600401128987964e6 -4.926989913716247e6 0.0
0.0 0.0 0.0

1.4922678908203393e6 6.75250952233881e6 0.0
6.75250952233881e6 -6.270244069930498e6 0.0
0.0 0.0 0.0

-5.434352873820147e6 1.2108562868286833e7 0.0
1.2108562868286833e7 4.5461484090255685e6 0.0
0.0 0.0 0.0

-3.8708451903345333e6 5.194602956273417e6 0.0
5.194602956273417e6 2.439183878583952e6 0.0
0.0 0.0 0.0

-4.224637557372323e6 1.4447625009450575e7 0.0
1.4447625009450575e7 -118134.64270095318 0.0
0.0 0.0 0.0

-1.1586939209399115e7 -4.74312282718128e6 0.0
-4.74312282718128e6 2.0949523468794495e7 0.0
0.0 0.0 0.0

-3.162562545956936e6 1.0075291415087221e7 0.0
1.0075291415087221e7 -1.498987838342417e6 0.0
0.0 0.0 0.0

-4.083140996931935e6 792416.3637489942 0.0
792416.3637489942 3.476091948105704e6 0.0
0.0 0.0 0.0

-685717.5560020889 3.6820007288966877e6 0.0
3.6820007288966877e6 -675587.2900960301 0.0
0.0 0.0 0.0

1.7165778470512077e6 6.59821467411084e6 0.0
6.59821467411084e6 -5.663777218752732e6 0.0
0.0 0.0 0.0

-1.054104923663191e7 4.840888667744906e6 0.0
4.840888667744906e6 1.2622992437414646e7 0.0
0.0 0.0 0.0

1.8643081340465788e6 8.44139611449793e6 0.0
8.44139611449793e6 -8.502416940003678e6 0.0
0.0 0.0 0.0

-4.0798608395328894e6 1.1129714643616866e7 0.0
1.1129714643616866e7 518713.62448980473 0.0
0.0 0.0 0.0

-4.627678382191479e6 1.0159139849418806e7 0.0
1.0159139849418806e7 2.4136798540651836e6 0.0
0.0 0.0 0.0

-2.0520629262915005e6 9.023769268980877e6 0.0
9.023769268980877e6 -1.4373616501007853e6 0.0
0.0 0.0 0.0

-5.309458845439252e6 1.0260728829653997e7 0.0
1.0260728829653997e7 3.566335263176713e6 0.0
0.0 0.0 0.0

1.1579729883662558e6 6.739925405027111e6 0.0
6.739925405027111e6 -4.594308220158729e6 0.0
0.0 0.0 0.0

-3.120039631398767e6 9.860634608227102e6 0.0
9.860634608227102e6 -848984.9674053122 0.0
0.0 0.0 0.0

-1.496127292073051e6 1.5383377958822815e7 0.0
1.5383377958822815e7 -3.2706454499166408e6 0.0
0.0 0.0 0.0

90594.71249999152 7.408470857570829e6 0.0
7.408470857570829e6 -4.34644646225516e6 0.0
0.0 0.0 0.0

-1.6182082309340953e6 8.717123043408228e6 0.0
8.717123043408228e6 -2.635109101957871e6 0.0
0.0 0.0 0.0

-2.2894383056655414e6 1.2461038359249406e7 0.0
1.2461038359249406e7 -100861.71802090073 0.0
0.0 0.0 0.0

-1.9059931793201887e6 8.805043470670389e6 0.0
8.805043470670389e6 -1.4188485083708197e6 0.0
0.0 0.0 0.0

3.029000115652609e6 1.2227419982334003e7 0.0
1.2227419982334003e7 -6.192716284443258e6 0.0
0.0 0.0 0.0

1.6691079930828728e6 4.896752712316581e6 0.0
4.896752712316581e6 -5.171524184511308e6 0.0
0.0 0.0 0.0

2.5147121859412934e6 6.1679502061708225e6 0.0
6.1679502061708225e6 -8.904483704031302e6 0.0
0.0 0.0 0.0

1.6824181209599334e6 3.2716273636837755e6 0.0
3.2716273636837755e6 -3.000184277171321e6 0.0
0.0 0.0 0.0

-354945.6586595406 6.698725038945641e6 0.0
6.698725038945641e6 -3.170627229066795e6 0.0
0.0 0.0 0.0

-2.307576437390329e6 9.083505766402857e6 0.0
9.083505766402857e6 -1.884499959544758e6 0.0
0.0 0.0 0.0

-777744.0022853578 3.9509999480457334e6 0.0
3.9509999480457334e6 -687536.838268398 0.0
0.0 0.0 0.0

2.147109521006018e6 7.070763009568301e6 0.0
7.070763009568301e6 -5.657383090410161e6 0.0
0.0 0.0 0.0

63755.121575919446 1.1698439055581495e7 0.0
1.1698439055581495e7 -5.885998597261046e6 0.0
0.0 0.0 0.0

74880.16181862494 6.96155219589255e6 0.0
6.96155219589255e6 -3.593357930200894e6 0.0
0.0 0.0 0.0

-1.3315384405711241e7 2.034347680728048e7 0.0
2.034347680728048e7 9.543153163810078e6 0.0
0.0 0.0 0.0

1.2327979847825132e6 9.704744332835186e6 0.0
9.704744332835186e6 2.7166595566880484e6 0.0
0.0 0.0 0.0

410127.9106762991 7.123396009521554e6 0.0
7.123396009521554e6 -3.7911835181629825e6 0.0
0.0 0.0 0.0

-3.0106278493220266e6 6.665006627844423e6 0.0
6.665006627844423e6 1.5720724809621598e6 0.0
0.0 0.0 0.0

2.278675376305084e6 5.323416126832831e6 0.0
5.323416126832831e6 -5.100382287908196e6 0.0
0.0 0.0 0.0

-6.856167204270905e6 2.668927178277405e6 0.0
2.668927178277405e6 9.799178928911243e6 0.0
0.0 0.0 0.0

690858.657491643 7.256739773211261e6 0.0
7.256739773211261e6 -3.9631722424465083e6 0.0
0.0 0.0 0.0

-1.2592133416871542e7 1.3386702334020248e7 0.0
1.3386702334020248e7 8.727274488952748e6 0.0
0.0 0.0 0.0

-3.8836411070069904e6 1.4825586416625256e7 0.0
1.4825586416625256e7 -548649.559960028 0.0
0.0 0.0 0.0

1.6166359099567798e6 6.502486578563275e6 0.0
6.502486578563275e6 -6.398365629765218e6 0.0
0.0 0.0 0.0

-3.019757294980817e6 1.0493890778075341e7 0.0
1.0493890778075341e7 -2.2282847579127625e6 0.0
0.0 0.0 0.0

2.238695950961104e6 7.106086425039113e6 0.0
7.106086425039113e6 -9.313577067220211e6 0.0
0.0 0.0 0.0

-2.5117666586899706e6 9.252590648761328e6 0.0
9.252590648761328e6 -1.530498521964482e6 0.0
0.0 0.0 0.0

-2.8875410500660716e6 9.206308781701198e6 0.0
9.206308781701198e6 3.3319624492644696e6 0.0
0.0 0.0 0.0

-2.489118269869321e6 1.536956980867569e7 0.0
1.536956980867569e7 -2.050405391754651e6 0.0
0.0 0.0 0.0

460538.094426733 7.314417094628785e6 0.0
7.314417094628785e6 -4.2727649452541685e6 0.0
0.0 0.0 0.0

362483.19009167305 6.920246190255951e6 0.0
6.920246190255951e6 -5.254274451911953e6 0.0
0.0 0.0 0.0

-434071.910546993 7.643118715829854e6 0.0
7.643118715829854e6 -2.977285525225502e6 0.0
0.0 0.0 0.0

-8.588842981705287e6 1.2747695630606322e7 0.0
1.2747695630606322e7 6.643356666954066e6 0.0
0.0 0.0 0.0

-2.012749735520861e6 7.536608370562822e6 0.0
7.536608370562822e6 -1.326192177351805e6 0.0
0.0 0.0 0.0

-5.894294257579574e6 1.66143117427071e7 0.0
1.66143117427071e7 1.5976035668149288e6 0.0
0.0 0.0 0.0

-2.171842443697467e6 9.192534707212081e6 0.0
9.192534707212081e6 -1.4561112898905317e6 0.0
0.0 0.0 0.0

-527924.9085120184 1.1741219173004206e7 0.0
1.1741219173004206e7 3.1135881772804842e6 0.0
0.0 0.0 0.0

-1.8376941384766106e6 1.2294106614302155e7 0.0
1.2294106614302155e7 -214154.23234673665 0.0
0.0 0.0 0.0

-4.820950576362349e6 1.1626530769703386e7 0.0
1.1626530769703386e7 1.7694837323021397e6 0.0
0.0 0.0 0.0

626202.134493337 1.1106176814972004e7 0.0
1.1106176814972004e7 -6.692174825876915e6 0.0
0.0 0.0 0.0

1.469694653005764e6 9.676404105373474e6 0.0
9.676404105373474e6 -1.0676273475129435e7 0.0
0.0 0.0 0.0

-8.061390950136995e6 7.619823686773543e6 0.0
7.619823686773543e6 1.110428152737645e7 0.0
0.0 0.0 0.0

-621380.9588741038 7.318469247369007e6 0.0
7.318469247369007e6 -4.466233265398078e6 0.0
0.0 0.0 0.0

-5.554864004182365e6 3.663906984859716e6 0.0
3.663906984859716e6 7.219767438002486e6 0.0
0.0 0.0 0.0

1.3455906141719543e6 8.859782923729103e6 0.0
8.859782923729103e6 -7.790606568465067e6 0.0
0.0 0.0 0.0

-895459.9472639966 7.676267429798588e6 0.0
7.676267429798588e6 -3.0041957970414395e6 0.0
0.0 0.0 0.0

3.259324252760977e6 6.120671008013159e6 0.0
6.120671008013159e6 -6.145998891876347e6 0.0
0.0 0.0 0.0

-3.0407979182274058e6 9.139006250179883e6 0.0
9.139006250179883e6 -352364.7869278975 0.0
0.0 0.0 0.0

-5.048269939832035e6 1.0779143802291278e7 0.0
1.0779143802291278e7 2.091499532648629e6 0.0
0.0 0.0 0.0

-6.632005266022216e6 1.3758033832056278e7 0.0
1.3758033832056278e7 2.1251291004296225e6 0.0
0.0 0.0 0.0

-2.815966334703965e6 9.561905526575008e6 0.0
9.561905526575008e6 -1.1890443368110205e6 0.0
0.0 0.0 0.0

2.1733282026463e6 6.880515741914961e6 0.0
6.880515741914961e6 -5.240331613347443e6 0.0
0.0 0.0 0.0

-3.2918298067718674e6 1.5145648761084145e7 0.0
1.5145648761084145e7 -1.2387741753890298e6 0.0
0.0 0.0 0.0

-3.6023981063332325e6 5.6637317963405745e6 0.0
5.6637317963405745e6 3.0994351300898697e6 0.0
0.0 0.0 0.0

3.013887610888937e6 7.41074096844972e6 0.0
7.41074096844972e6 -1.1168238651355367e7 0.0
0.0 0.0 0.0

-2.2909742576709185e6 1.0006747135634322e7 0.0
1.0006747135634322e7 4.26236237275478e6 0.0
0.0 0.0 0.0

-6.393777603576333e6 1.164200902821942e7 0.0
1.164200902821942e7 4.2583085149312755e6 0.0
0.0 0.0 0.0

-1.2241179770477242e6 1.0443068273598166e7 0.0
1.0443068273598166e7 -2.417176417022273e6 0.0
0.0 0.0 0.0

-7.716963106691151e6 9.168477592787802e6 0.0
9.168477592787802e6 1.0434607712395981e7 0.0
0.0 0.0 0.0

-312650.4451859365 9.005869786320755e6 0.0
9.005869786320755e6 -1.0421678466881401e6 0.0
0.0 0.0 0.0

-1.0863619030085483e6 7.845158062713723e6 0.0
7.845158062713723e6 -3.6936271560003017e6 0.0
0.0 0.0 0.0

-981359.9797480296 1.1247499469215939e7 0.0
1.1247499469215939e7 2.11169686538149e6 0.0
0.0 0.0 0.0

-1.2925520636617932e7 1.8951431838045448e7 0.0
1.8951431838045448e7 9.408390124691917e6 0.0
0.0 0.0 0.0

-2.1407780201815506e6 1.2352979992105156e7 0.0
1.2352979992105156e7 -30446.282295605866 0.0
0.0 0.0 0.0

1.593311643534547e7 1.1548659324566277e7 0.0
1.1548659324566277e7 -789298.5084266774 0.0
0.0 0.0 0.0

-1.4829320904810182e6 8.252231731431378e6 0.0
8.252231731431378e6 -2.5778654934118357e6 0.0
0.0 0.0 0.0

-3.149570747742778e6 9.54402603178552e6 0.0
9.54402603178552e6 -412393.67043832585 0.0
0.0 0.0 0.0

-376258.5084663846 8.864751997743042e6 0.0
8.864751997743042e6 -4.958146699464695e6 0.0
0.0 0.0 0.0

-6.882498401813544e6 1.4160628946462525e7 0.0
1.4160628946462525e7 2.2322482183028697e6 0.0
0.0 0.0 0.0

2.770050570470099e6 6.721938914718006e6 0.0
6.721938914718006e6 -9.866300726017365e6 0.0
0.0 0.0 0.0

411501.9891923475 7.010044285695438e6 0.0
7.010044285695438e6 -4.345836122978792e6 0.0
0.0 0.0 0.0

450737.33453032887 7.930102423246442e6 0.0
7.930102423246442e6 -5.94204751599991e6 0.0
0.0 0.0 0.0

-5.792670049419475e6 1.1391601835729307e7 0.0
1.1391601835729307e7 5.618580041865526e6 0.0
0.0 0.0 0.0

-3.435389486362697e6 1.015928744798699e7 0.0
1.015928744798699e7 -508017.0359598554 0.0
0.0 0.0 0.0

-909043.1883026892 8.299973540760186e6 0.0
8.299973540760186e6 -293957.2752862384 0.0
0.0 0.0 0.0

-956246.7486884756 8.006488060944796e6 0.0
8.006488060944796e6 -2.552759392737645e6 0.0
0.0 0.0 0.0

-2.7874496969980886e6 9.815406639497738e6 0.0
9.815406639497738e6 -800027.4785040234 0.0
0.0 0.0 0.0

1.6698385245336907e6 1.0370422837003723e7 0.0
1.0370422837003723e7 -4.747286308093782e6 0.0
0.0 0.0 0.0

-1.20986379620824e7 1.8051696166210514e7 0.0
1.8051696166210514e7 9.164230493190788e6 0.0
0.0 0.0 0.0

-3.089853722077659e6 1.0112118791460931e7 0.0
1.0112118791460931e7 -457646.01208711695 0.0
0.0 0.0 0.0

-89374.76139265986 5.352903884090406e6 0.0
5.352903884090406e6 -2.8098919564812253e6 0.0
0.0 0.0 0.0

7.368946028951089e6 9.35853467769162e6 0.0
9.35853467769162e6 1.078982153965752e6 0.0
0.0 0.0 0.0

3.0026762900664518e6 8.59372393636003e6 0.0
8.59372393636003e6 -1.2802997336126374e7 0.0
0.0 0.0 0.0

-4.962969914440926e6 1.1304959489250213e7 0.0
1.1304959489250213e7 2.467188628648365e6 0.0
0.0 0.0 0.0

-753822.8809523592 4.938931129477612e6 0.0
4.938931129477612e6 -1.552275883518003e6 0.0
0.0 0.0 0.0

-1.2589211481445248e6 8.136294793908302e6 0.0
8.136294793908302e6 -2.909072434060253e6 0.0
0.0 0.0 0.0

-756631.6645811808 7.5866570015124865e6 0.0
7.5866570015124865e6 -4.0502069571019164e6 0.0
0.0 0.0 0.0

-1.152964294941912e7 1.7322127473412406e7 0.0
1.7322127473412406e7 8.0603233262032755e6 0.0
0.0 0.0 0.0

1.6628370120558273e6 8.14867868682748e6 0.0
8.14867868682748e6 -8.994362549245194e6 0.0
0.0 0.0 0.0

-3.8916831627204427e6 3.423005240643984e6 0.0
3.423005240643984e6 2.8312131773722228e6 0.0
0.0 0.0 0.0

-4.250464729830713e6 1.1266196463972105e7 0.0
1.1266196463972105e7 1.224997884668431e6 0.0
0.0 0.0 0.0

-875471.6368983566 4.445228112101013e6 0.0
4.445228112101013e6 -767041.3493157163 0.0
0.0 0.0 0.0

-2.8646876593567734e6 9.762825042011438e6 0.0
9.762825042011438e6 -1.8285088058888642e6 0.0
0.0 0.0 0.0

-3.5120054954337436e6 1.0063658953601945e7 0.0
1.0063658953601945e7 -70648.95963268261 0.0
0.0 0.0 0.0

-87205.64782846859 1.0142365752690013e7 0.0
1.0142365752690013e7 -6.687721451956963e6 0.0
0.0 0.0 0.0

-1.1266287675243754e7 1.6721415369235525e7 0.0
1.6721415369235525e7 7.944017542068375e6 0.0
0.0 0.0 0.0

-5.987299777793011e6 1.1549331682196185e7 0.0
1.1549331682196185e7 5.517289990007267e6 0.0
0.0 0.0 0.0

-3.3856372318708487e6 1.0407841461126542e7 0.0
1.0407841461126542e7 -126184.90648477373 0.0
0.0 0.0 0.0

2.4958454769188035e6 6.908556776055763e6 0.0
6.908556776055763e6 -9.603520512194868e6 0.0
0.0 0.0 0.0

-960668.3914794461 5.602880621408844e6 0.0
5.602880621408844e6 -1.6071717526016491e6 0.0
0.0 0.0 0.0

-1.0657100773014441e7 1.6171338236955458e7 0.0
1.6171338236955458e7 7.613682737537865e6 0.0
0.0 0.0 0.0

3.6371424874709174e6 8.239968057892241e6 0.0
8.239968057892241e6 -1.2860547901342232e7 0.0
0.0 0.0 0.0

-9.776878969924169e6 1.593941750500066e7 0.0
1.593941750500066e7 6.930611931183251e6 0.0
0.0 0.0 0.0

-9.287478388712406e6 1.5539630950995153e7 0.0
1.5539630950995153e7 6.434809091413025e6 0.0
0.0 0.0 0.0

-6.127976487935144e6 1.2393845585471133e7 0.0
1.2393845585471133e7 2.9775208124743286e6 0.0
0.0 0.0 0.0

-6.407896319464227e6 1.2625745694950081e7 0.0
1.2625745694950081e7 3.3449027708379393e6 0.0
0.0 0.0 0.0

-6.717485780595362e6 1.2919443954541856e7 0.0
1.2919443954541856e7 3.6502705969088795e6 0.0
0.0 0.0 0.0

-6.991945228200547e6 1.3184257146208592e7 0.0
1.3184257146208592e7 4.0117668324949057e6 0.0
0.0 0.0 0.0

-7.288129247836439e6 1.3390690194018466e7 0.0
1.3390690194018466e7 4.33467051130106e6 0.0
0.0 0.0 0.0

-7.604247368210741e6 1.3697065327350648e7 0.0
1.3697065327350648e7 4.52363014367678e6 0.0
0.0 0.0 0.0

-2.7680556998237576e6 6.352789082114954e6 0.0
6.352789082114954e6 197541.39813514834 0.0
0.0 0.0 0.0

-8.058875873497419e6 1.388242735222744e7 0.0
1.388242735222744e7 5.128714468904656e6 0.0
0.0 0.0 0.0

-8.540374931875458e6 1.419062887989547e7 0.0
1.419062887989547e7 5.409160124707529e6 0.0
0.0 0.0 0.0

-5.609375502216732e6 7.922936452604514e6 0.0
7.922936452604514e6 5.6737913344438765e6 0.0
0.0 0.0 0.0

-8.993292140853776e6 1.5137894474410074e7 0.0
1.5137894474410074e7 6.298750382087941e6 0.0
0.0 0.0 0.0

-8.985892724803312e6 1.451056365191687e7 0.0
1.451056365191687e7 5.563921137018744e6 0.0
0.0 0.0 0.0

-9.305341478825696e6 1.4843288153719595e7 0.0
1.4843288153719595e7 5.828087535719313e6 0.0
0.0 0.0 0.0

-8.5267654561347e6 1.4743351290096192e7 0.0
1.4743351290096192e7 5.928112434546848e6 0.0
0.0 0.0 0.0

-1.8523321442895753e6 8.865231796272542e6 0.0
8.865231796272542e6 -1.7894943402627914e6 0.0
0.0 0.0 0.0

-9.797959998503145e6 1.530748552174483e7 0.0
1.530748552174483e7 6.071770599616539e6 0.0
0.0 0.0 0.0

-8.435884323843727e6 1.4403864727080043e7 0.0
1.4403864727080043e7 5.687270339758203e6 0.0
0.0 0.0 0.0

-8.0623400791998e6 1.4144359527535737e7 0.0
1.4144359527535737e7 5.397613143502212e6 0.0
0.0 0.0 0.0

-7.499400490840684e6 1.3994221008137617e7 0.0
1.3994221008137617e7 4.952506285296962e6 0.0
0.0 0.0 0.0

-7.256042098687286e6 1.3602798406068e7 0.0
1.3602798406068e7 4.665234523087145e6 0.0
0.0 0.0 0.0

-6.911930284182264e6 1.3376421433966756e7 0.0
1.3376421433966756e7 4.331034302445949e6 0.0
0.0 0.0 0.0

-6.632954665845904e6 1.3143455229455141e7 0.0
1.3143455229455141e7 4.0429461325301714e6 0.0
0.0 0.0 0.0

-6.339506186208661e6 1.2856198171489159e7 0.0
1.2856198171489159e7 3.7229547834024904e6 0.0
0.0 0.0 0.0

-6.020576768211213e6 1.2611911432904221e7 0.0
1.2611911432904221e7 3.3409274451300707e6 0.0
0.0 0.0 0.0

-4.438703820275451e6 1.1156595514543138e7 0.0
1.1156595514543138e7 508913.3104526845 0.0
0.0 0.0 0.0

-7.196072812229224e6 8.027169057491357e6 0.0
8.027169057491357e6 1.0312047284963323e7 0.0
0.0 0.0 0.0

-1.0419267410118962e7 1.560586120035772e7 0.0
1.560586120035772e7 6.408997466725996e6 0.0
0.0 0.0 0.0

1.2248980842865445e6 7.122678258136185e6 0.0
7.122678258136185e6 -6.754939956848511e6 0.0
0.0 0.0 0.0

-4.26877458921832e6 1.048639315377655e7 0.0
1.048639315377655e7 1.7578442107246788e6 0.0
0.0 0.0 0.0

-1.1245476406484151e7 1.5880715681844084e7 0.0
1.5880715681844084e7 7.158986369926568e6 0.0
0.0 0.0 0.0

-3.6139590495287855e6 6.127926803148918e6 0.0
6.127926803148918e6 2.9190994626771016e6 0.0
0.0 0.0 0.0

-1.2260009877370901e7 1.6375926070429439e7 0.0
1.6375926070429439e7 7.403857982174278e6 0.0
0.0 0.0 0.0

-4.084144988646294e6 5.29492979005595e6 0.0
5.29492979005595e6 3.9753907536329697e6 0.0
0.0 0.0 0.0

-1.3199335573350789e7 1.7015989837088127e7 0.0
1.7015989837088127e7 7.59789208759207e6 0.0
0.0 0.0 0.0

-1.3412253120797633e6 1.1137595144796263e7 0.0
1.1137595144796263e7 -5.1820984888935e6 0.0
0.0 0.0 0.0

824546.7411483456 7.783365592487912e6 0.0
7.783365592487912e6 -5.711375686551504e6 0.0
0.0 0.0 0.0

1.4243448315407224e6 9.709181073849747e6 0.0
9.709181073849747e6 -1.0270028963146059e7 0.0
0.0 0.0 0.0

-3.2987902116600247e6 1.0247442322328491e7 0.0
1.0247442322328491e7 -83256.88034560264 0.0
0.0 0.0 0.0

-2.005875575792756e6 8.783964795095766e6 0.0
8.783964795095766e6 -2.7235143938440033e6 0.0
0.0 0.0 0.0

-3.9711774276995617e6 1.087707256059797e7 0.0
1.087707256059797e7 -455918.68424757477 0.0
0.0 0.0 0.0

-1.2045996320351197e6 1.1345541438562065e7 0.0
1.1345541438562065e7 -5.429221078754588e6 0.0
0.0 0.0 0.0

2.719281694997376e6 5.563543853300231e6 0.0
5.563543853300231e6 -7.941386616676399e6 0.0
0.0 0.0 0.0

-1.5719616428515376e6 6.4325776659436505e6 0.0
6.4325776659436505e6 -844794.6970360547 0.0
0.0 0.0 0.0

-1.4074536540389828e7 1.7393506657722615e7 0.0
1.7393506657722615e7 8.134225915535363e6 0.0
0.0 0.0 0.0

299483.85013817204 7.498921562433816e6 0.0
7.498921562433816e6 -5.011582405486828e6 0.0
0.0 0.0 0.0

-5.374997197458686e6 4.7012486939797895e6 0.0
4.7012486939797895e6 6.6472737270143125e6 0.0
0.0 0.0 0.0

-2.478187161790792e6 9.511378606994621e6 0.0
9.511378606994621e6 -1.1348687239929144e6 0.0
0.0 0.0 0.0

-7.375686680446617e6 1.378330787598951e7 0.0
1.378330787598951e7 3.9037401338773575e6 0.0
0.0 0.0 0.0

1.3552399651650959e6 6.877693482328538e6 0.0
6.877693482328538e6 -7.005462813627175e6 0.0
0.0 0.0 0.0

-1.2781155006499594e7 1.2985401857812397e7 0.0
1.2985401857812397e7 9.632860303289574e6 0.0
0.0 0.0 0.0

-3.6598003803815604e6 6.975187005038768e6 0.0
6.975187005038768e6 1.18976721139198e6 0.0
0.0 0.0 0.0

-8.96829968440355e6 1.0679711799576895e7 0.0
1.0679711799576895e7 4.208169682333184e6 0.0
0.0 0.0 0.0

-553074.172559425 1.105673202172496e7 0.0
1.105673202172496e7 1.2925506586361283e6 0.0
0.0 0.0 0.0

-1.5500490199520053e7 1.8479212844037063e7 0.0
1.8479212844037063e7 8.669438369518433e6 0.0
0.0 0.0 0.0

1.3916375526679493e6 8.644532342600849e6 0.0
8.644532342600849e6 -8.820537952570196e6 0.0
0.0 0.0 0.0

-2.7417331912590563e6 7.053404957588683e6 0.0
7.053404957588683e6 -169351.3173333148 0.0
0.0 0.0 0.0

-311386.00855547027 7.154803774131083e6 0.0
7.154803774131083e6 -1.0379532615533422e6 0.0
0.0 0.0 0.0

907040.1764475084 7.213042475592459e6 0.0
7.213042475592459e6 -6.139729879450368e6 0.0
0.0 0.0 0.0

470657.24319544854 9.110794249887045e6 0.0
9.110794249887045e6 -1.3605874533805302e6 0.0
0.0 0.0 0.0

1.0847920784606724e6 7.332972611442625e6 0.0
7.332972611442625e6 -6.539066865417967e6 0.0
0.0 0.0 0.0

-435620.05960191507 1.0296889874805769e7 0.0
1.0296889874805769e7 -1.9824114582035418e6 0.0
0.0 0.0 0.0

-3.515524029849444e6 1.032594626328414e7 0.0
1.032594626328414e7 324523.3982352498 0.0
0.0 0.0 0.0

-3.7450701708306978e6 1.044933301057716e7 0.0
1.044933301057716e7 -167884.21524484782 0.0
0.0 0.0 0.0

273033.8274364276 6.673717599035057e6 0.0
6.673717599035057e6 -5.401364976752508e6 0.0
0.0 0.0 0.0

3.2153118722796952e6 1.1772387213003336e7 0.0
1.1772387213003336e7 4.99800091541895e6 0.0
0.0 0.0 0.0

8071.772287467727 7.858780987839513e6 0.0
7.858780987839513e6 -4.7347314034549305e6 0.0
0.0 0.0 0.0

-1.8448134270639708e6 8.945897834789407e6 0.0
8.945897834789407e6 -2.2336105398289044e6 0.0
0.0 0.0 0.0

-3.829813901329413e6 1.1905917116784846e7 0.0
1.1905917116784846e7 2.1784185636645174e6 0.0
0.0 0.0 0.0

-602507.8294291131 7.820008781969238e6 0.0
7.820008781969238e6 -3.7387138289898434e6 0.0
0.0 0.0 0.0

-6.071765880769145e6 1.1571910622630736e7 0.0
1.1571910622630736e7 5.379365176604379e6 0.0
0.0 0.0 0.0

-1.630276227414442e6 1.1683675180057608e7 0.0
1.1683675180057608e7 3.159063711920747e6 0.0
0.0 0.0 0.0

-3.4253409471255904e6 6.636144714472411e6 0.0
6.636144714472411e6 2.2689690783282844e6 0.0
0.0 0.0 0.0

-1.7163720605930332e7 1.965997650280616e7 0.0
1.965997650280616e7 8.478807166731037e6 0.0
0.0 0.0 0.0

-7.531707834569858e6 1.1571901089328304e7 0.0
1.1571901089328304e7 1.2075450549179671e7 0.0
0.0 0.0 0.0

-2.100993648907289e6 8.530057069228098e6 0.0
8.530057069228098e6 -1.4665659850583854e6 0.0
0.0 0.0 0.0

4.0767573728201166e6 9.799119214209022e6 0.0
9.799119214209022e6 -2.963340424331191e6 0.0
0.0 0.0 0.0

1.8409466588917421e6 6.682170320209634e6 0.0
6.682170320209634e6 -7.892128871797534e6 0.0
0.0 0.0 0.0

1.7560386174173653e6 8.870526302938528e6 0.0
8.870526302938528e6 -9.944387547798363e6 0.0
0.0 0.0 0.0

-5.271128836092204e6 8.529145513406554e6 0.0
8.529145513406554e6 3.2664603694834206e6 0.0
0.0 0.0 0.0

-9.994982001019055e6 1.1795265468697647e7 0.0
1.1795265468697647e7 6.1165862882977575e6 0.0
0.0 0.0 0.0

-2.65630598958453e6 9.081856677895214e6 0.0
9.081856677895214e6 -284067.86181302054 0.0
0.0 0.0 0.0

-1.816789045921744e6 8.874495449422803e6 0.0
8.874495449422803e6 -3.5233055474558515e6 0.0
0.0 0.0 0.0

-1.2481670649961097e7 1.1312123715202913e7 0.0
1.1312123715202913e7 1.0029917077499911e7 0.0
0.0 0.0 0.0

410936.2821817959 8.2270177927468335e6 0.0
8.2270177927468335e6 -6.087523151346482e6 0.0
0.0 0.0 0.0

-3.009874959212352e6 9.41773879989367e6 0.0
9.41773879989367e6 78980.07623956003 0.0
0.0 0.0 0.0

-937770.4083792068 5.274561041980992e6 0.0
5.274561041980992e6 -1.5641344876018632e6 0.0
0.0 0.0 0.0

-4.0762934153035246e6 8.295598902390865e6 0.0
8.295598902390865e6 2.5122448965699147e6 0.0
0.0 0.0 0.0

-2.0661603920042556e7 2.4921689183477044e7 0.0
2.4921689183477044e7 3.324664624301955e6 0.0
0.0 0.0 0.0

-3.504634565325072e6 6.8178211687593665e6 0.0
6.8178211687593665e6 2.27269241506623e6 0.0
0.0 0.0 0.0

-158485.16498261504 5.4243172445684895e6 0.0
5.4243172445684895e6 -3.051553665290044e6 0.0
0.0 0.0 0.0

-3.911137077531349e6 1.0823616946156504e7 0.0
1.0823616946156504e7 645081.1269642506 0.0
0.0 0.0 0.0

-4.694056288799306e6 9.813978930924246e6 0.0
9.813978930924246e6 1.9826710960052738e6 0.0
0.0 0.0 0.0

-2.778908372150503e6 1.0106789738122964e7 0.0
1.0106789738122964e7 -1.5414459544833414e6 0.0
0.0 0.0 0.0

-3.963666512985528e6 1.0571630360132098e7 0.0
1.0571630360132098e7 259645.33668570593 0.0
0.0 0.0 0.0

-821037.7105563929 3.293414765299929e6 0.0
3.293414765299929e6 -762961.7401435772 0.0
0.0 0.0 0.0

1.397068625882366e6 9.301704746503454e6 0.0
9.301704746503454e6 -4.628991155193904e6 0.0
0.0 0.0 0.0

-5.0896233172273915e6 1.0181312857035216e7 0.0
1.0181312857035216e7 2.4342973292346844e6 0.0
0.0 0.0 0.0

-334383.1817555835 7.027421663582584e6 0.0
7.027421663582584e6 -4.824916622767343e6 0.0
0.0 0.0 0.0

1.5920392301976816e6 9.48072037407052e6 0.0
9.48072037407052e6 -4.311006516135801e6 0.0
0.0 0.0 0.0

-8.494798761484336e6 1.0271148046373134e7 0.0
1.0271148046373134e7 2.5944568080371507e6 0.0
0.0 0.0 0.0

-3.4361631798309283e6 6.96125311831561e6 0.0
6.96125311831561e6 2.167446552384494e6 0.0
0.0 0.0 0.0

-984115.2856723763 1.1009335931305768e7 0.0
1.1009335931305768e7 -5.707201871185597e6 0.0
0.0 0.0 0.0

-5.752791489993514e6 1.0310100127257733e7 0.0
1.0310100127257733e7 3.52467561531443e6 0.0
0.0 0.0 0.0

2.438599470828557e6 5.307329993857961e6 0.0
5.307329993857961e6 -5.019452971745615e6 0.0
0.0 0.0 0.0

1.3974775357491763e6 1.3912201450958217e6 0.0
1.3912201450958217e6 -2.9505997762585534e6 0.0
0.0 0.0 0.0

2.355202853001802e6 1.5208736799527167e6 0.0
1.5208736799527167e6 -4.0776490474656275e6 0.0
0.0 0.0 0.0

-2.1303011368956477e6 -332368.4406049383 0.0
-332368.4406049383 1.8248757610427549e6 0.0
0.0 0.0 0.0

3.0037159200476906e6 2.0843741785024053e6 0.0
2.0843741785024053e6 -5.216637977937501e6 0.0
0.0 0.0 0.0

-633868.7241585508 419560.76099289575 0.0
419560.76099289575 -165507.30435147823 0.0
0.0 0.0 0.0

3.6737827776126624e6 6.005082694857204e6 0.0
6.005082694857204e6 -6.562955027716195e6 0.0
0.0 0.0 0.0

472840.1181123514 1.5186289541999516e6 0.0
1.5186289541999516e6 -2.1085049289564546e6 0.0
0.0 0.0 0.0

-273529.62661034055 1.837582684697493e6 0.0
1.837582684697493e6 -1.2235782256140641e6 0.0
0.0 0.0 0.0

3.5928294759810683e6 2.9395489994185884e6 0.0
2.9395489994185884e6 -6.136530029811109e6 0.0
0.0 0.0 0.0

-409189.0254314944 1.8963844204944978e6 0.0
1.8963844204944978e6 -698024.8811353875 0.0
0.0 0.0 0.0

3.011042940996973e6 5.338508499521901e6 0.0
5.338508499521901e6 -6.23805128271503e6 0.0
0.0 0.0 0.0

1.9658174939662141e6 5.139643782508497e6 0.0
5.139643782508497e6 -4.96784131169782e6 0.0
0.0 0.0 0.0

1.153590097009087e6 1.4202332435693974e6 0.0
1.4202332435693974e6 -2.631762004506198e6 0.0
0.0 0.0 0.0

2.1170178959205872e6 5.11637481656586e6 0.0
5.11637481656586e6 -7.381967478519388e6 0.0
0.0 0.0 0.0

2.5932987471340694e6 5.319162277679482e6 0.0
5.319162277679482e6 -8.036297567461269e6 0.0
0.0 0.0 0.0

1.477047194005129e6 4.741117121538142e6 0.0
4.741117121538142e6 -6.414207140382945e6 0.0
0.0 0.0 0.0

1.6829509117626958e6 4.475922502529572e6 0.0
4.475922502529572e6 -5.643086640308807e6 0.0
0.0 0.0 0.0

477233.01688645047 1.5293635047789752e6 0.0
1.5293635047789752e6 -2.099329957234791e6 0.0
0.0 0.0 0.0

-455148.7769252699 1.1040194557924813e6 0.0
1.1040194557924813e6 -671931.9087240606 0.0
0.0 0.0 0.0

2.387065504633878e6 5.269409492510866e6 0.0
5.269409492510866e6 -7.770176006938904e6 0.0
0.0 0.0 0.0

1.9922711097427204e6 4.602980489277494e6 0.0
4.602980489277494e6 -5.204895773268815e6 0.0
0.0 0.0 0.0

1.742762997832864e6 4.570768554909498e6 0.0
4.570768554909498e6 -5.29957897846555e6 0.0
0.0 0.0 0.0

2.249800739290553e6 4.913959484157943e6 0.0
4.913959484157943e6 -5.109521289636527e6 0.0
0.0 0.0 0.0

-817585.6900359595 9.700018193046268e6 0.0
9.700018193046268e6 -4.494747499987356e6 0.0
0.0 0.0 0.0

-3.661938958391316e6 6.554328010726848e6 0.0
6.554328010726848e6 2.792800527763393e6 0.0
0.0 0.0 0.0

-6.032559659387622e6 3.208552563131105e6 0.0
3.208552563131105e6 6.612218309759488e6 0.0
0.0 0.0 0.0

-6.16177297549095e6 1.1615322057100315e7 0.0
1.1615322057100315e7 5.318144789233273e6 0.0
0.0 0.0 0.0

647045.7345092967 1.0482317456380803e7 0.0
1.0482317456380803e7 -8.441318962860418e6 0.0
0.0 0.0 0.0

-3.7958149748941204e6 8.732680616979519e6 0.0
8.732680616979519e6 729586.1759841142 0.0
0.0 0.0 0.0

-1.8934811650651388e7 2.109348808845788e7 0.0
2.109348808845788e7 8.633438995026901e6 0.0
0.0 0.0 0.0

-2.4494659607066177e6 8.880898155974578e6 0.0
8.880898155974578e6 -1.119012929498359e6 0.0
0.0 0.0 0.0

-1.7481011948192564e6 9.719430181668244e6 0.0
9.719430181668244e6 -94136.92372255767 0.0
0.0 0.0 0.0

1.0563888913239562e6 1.0044164768602993e7 0.0
1.0044164768602993e7 2.1525544783590436e6 0.0
0.0 0.0 0.0

-2.397233701558952e6 1.1593666467665056e7 0.0
1.1593666467665056e7 1.500272825306127e6 0.0
0.0 0.0 0.0

-4.455547489479738e6 8.75336218544743e6 0.0
8.75336218544743e6 2.9375129503791286e6 0.0
0.0 0.0 0.0

-218459.28510183725 1.193803966604412e7 0.0
1.193803966604412e7 -5.439553630458908e6 0.0
0.0 0.0 0.0

-4.153677427378185e6 8.116643197284214e6 0.0
8.116643197284214e6 2.7462962399228206e6 0.0
0.0 0.0 0.0

-4.1626495854922817e6 1.068475867378871e7 0.0
1.068475867378871e7 638109.6380440712 0.0
0.0 0.0 0.0

-3.5254933235774697e6 1.030472557091776e7 0.0
1.030472557091776e7 -567032.3990686854 0.0
0.0 0.0 0.0

-3.2678492821289976e6 6.458863360731249e6 0.0
6.458863360731249e6 811608.4413967244 0.0
0.0 0.0 0.0

-1.7784481251101592e6 8.535865924979977e6 0.0
8.535865924979977e6 -3.116672369427352e6 0.0
0.0 0.0 0.0

-2.5589701981141563e6 8.652162033104867e6 0.0
8.652162033104867e6 -178811.55003044347 0.0
0.0 0.0 0.0

-19127.615165536758 6.816956090104089e6 0.0
6.816956090104089e6 -5.1274827816606155e6 0.0
0.0 0.0 0.0

1.2373330615355596e6 1.471301560922952e6 0.0
1.471301560922952e6 -2.5930461187065393e6 0.0
0.0 0.0 0.0

1.8594477751697868e6 1.6593613855534354e6 0.0
1.6593613855534354e6 -3.1028578769716127e6 0.0
0.0 0.0 0.0

198407.74370355444 1.5025673894650526e6 0.0
1.5025673894650526e6 -84180.07121359935 0.0
0.0 0.0 0.0

726779.4858209281 1.6652040207658797e6 0.0
1.6652040207658797e6 -2.13972314636782e6 0.0
0.0 0.0 0.0

467108.2167738532 1.5255195787383576e6 0.0
1.5255195787383576e6 -1.9110348897246823e6 0.0
0.0 0.0 0.0

2.3301379138068226e6 5.255036145932651e6 0.0
5.255036145932651e6 -7.154825334490752e6 0.0
0.0 0.0 0.0

2.4987049976662844e6 5.336931916731033e6 0.0
5.336931916731033e6 -7.471643867403299e6 0.0
0.0 0.0 0.0

15157.300570831358 797052.6592750747 0.0
797052.6592750747 429830.6218311537 0.0
0.0 0.0 0.0

1.609511061864322e6 4.475552497787549e6 0.0
4.475552497787549e6 -5.278132658623209e6 0.0
0.0 0.0 0.0

2.0286122617665136e6 5.0725732279017735e6 0.0
5.0725732279017735e6 -5.332008762735736e6 0.0
0.0 0.0 0.0

1.8281260919844501e6 4.507979577635168e6 0.0
4.507979577635168e6 -5.378019113129094e6 0.0
0.0 0.0 0.0

1.854820855148338e6 4.699278263765497e6 0.0
4.699278263765497e6 -5.3954708736787e6 0.0
0.0 0.0 0.0

-2.343598823734881e6 7.95985431113628e6 0.0
7.95985431113628e6 -983616.3493052055 0.0
0.0 0.0 0.0

-6.565848380588222e6 8.55170099303439e6 0.0
8.55170099303439e6 9.31852285619094e6 0.0
0.0 0.0 0.0

-4.668265299069836e6 8.271239852136682e6 0.0
8.271239852136682e6 3.5783689871957838e6 0.0
0.0 0.0 0.0

1.6548638687404022e6 6.324362640531779e6 0.0
6.324362640531779e6 -6.278900757275112e6 0.0
0.0 0.0 0.0

-4.959110412071122e6 1.1892750286002455e7 0.0
1.1892750286002455e7 613272.9687051673 0.0
0.0 0.0 0.0

-2.979521990022136e6 1.1128315380832098e7 0.0
1.1128315380832098e7 4.2473092105444195e6 0.0
0.0 0.0 0.0

-6.074845745624028e6 6.611124773520959e6 0.0
6.611124773520959e6 5.417773782855371e6 0.0
0.0 0.0 0.0

704427.6381210797 7.253055547624193e6 0.0
7.253055547624193e6 -5.920072759171088e6 0.0
0.0 0.0 0.0

391470.2458083243 8.455228890880302e6 0.0
8.455228890880302e6 -6.219293909087758e6 0.0
0.0 0.0 0.0

-3.2281107127189348e6 1.000759919008448e7 0.0
1.000759919008448e7 -892476.905072734 0.0
0.0 0.0 0.0

-3.9422069111849423e6 1.0840594730432978e7 0.0
1.0840594730432978e7 5.33871498108249e6 0.0
0.0 0.0 0.0

-1.2737720305265903e6 5.991591253458515e6 0.0
5.991591253458515e6 -1.1990338613953204e6 0.0
0.0 0.0 0.0

-3.044376434975717e6 1.0328338656994227e7 0.0
1.0328338656994227e7 -1.098846886311475e6 0.0
0.0 0.0 0.0

-4.737436536521177e6 1.1455139508610219e7 0.0
1.1455139508610219e7 1.909402262294261e6 0.0
0.0 0.0 0.0

-328323.0063666296 8.213944531048363e6 0.0
8.213944531048363e6 -4.528103350469003e6 0.0
0.0 0.0 0.0

-3.6030492302556275e6 1.0540109316470394e7 0.0
1.0540109316470394e7 281667.6131000614 0.0
0.0 0.0 0.0

763965.009878298 1.750788387384271e6 0.0
1.750788387384271e6 2.5445398051805077e6 0.0
0.0 0.0 0.0

-3.6384513767797584e6 1.0926163495288799e7 0.0
1.0926163495288799e7 4.9794136777580455e6 0.0
0.0 0.0 0.0

2.637344572600908e6 8.465270861687347e6 0.0
8.465270861687347e6 -1.106561245378835e7 0.0
0.0 0.0 0.0

1.6090998397843777e6 8.732660511417706e6 0.0
8.732660511417706e6 -9.419810068509975e6 0.0
0.0 0.0 0.0

-2.7339792346674525e6 1.0018798461823227e7 0.0
1.0018798461823227e7 -1.4154467988087703e6 0.0
0.0 0.0 0.0

-5.729654429907488e6 1.176083679205927e7 0.0
1.176083679205927e7 2.932956822638456e6 0.0
0.0 0.0 0.0

1.5886959826294368e6 6.875277759673972e6 0.0
6.875277759673972e6 -5.766627591302473e6 0.0
0.0 0.0 0.0

-2.3124379538828544e6 8.735020674073197e6 0.0
8.735020674073197e6 -621321.552894101 0.0
0.0 0.0 0.0

-3.649501243956004e6 1.0286245205106027e7 0.0
1.0286245205106027e7 -104985.62682200549 0.0
0.0 0.0 0.0

-3.678152226248153e6 1.0704798269429926e7 0.0
1.0704798269429926e7 223575.61806697887 0.0
0.0 0.0 0.0

895279.1487197252 1.0348058394489264e7 0.0
1.0348058394489264e7 -8.798052422909653e6 0.0
0.0 0.0 0.0

886413.3504841835 8.760461284234619e6 0.0
8.760461284234619e6 -7.876908227419033e6 0.0
0.0 0.0 0.0

-1.7434528617863483e6 6.096169977694352e6 0.0
6.096169977694352e6 -1.3335184839304178e6 0.0
0.0 0.0 0.0

-4.834491490719168e6 8.2209352108949255e6 0.0
8.2209352108949255e6 2.631659623527308e6 0.0
0.0 0.0 0.0

921194.2500536479 1.0013094316973625e7 0.0
1.0013094316973625e7 -8.741531032843277e6 0.0
0.0 0.0 0.0

-3.8776444961611307e6 1.1146864008913498e7 0.0
1.1146864008913498e7 -39027.66879737284 0.0
0.0 0.0 0.0

3.011603942173337e6 4.617234238781912e6 0.0
4.617234238781912e6 -6.412130121624915e6 0.0
0.0 0.0 0.0

-6.709811492669846e6 1.6100433719017493e7 0.0
1.6100433719017493e7 2.341511055964269e6 0.0
0.0 0.0 0.0

1.251062527863038e6 7.197726233218713e6 0.0
7.197726233218713e6 -5.653779313807639e6 0.0
0.0 0.0 0.0

-1.5065823480695998e6 8.532409336630927e6 0.0
8.532409336630927e6 -2.1420368310207548e6 0.0
0.0 0.0 0.0

-6.535275221123064e6 1.0160804126568427e7 0.0
1.0160804126568427e7 5.191568293787349e6 0.0
0.0 0.0 0.0

-1.5206350842781276e6 7.414046393851892e6 0.0
7.414046393851892e6 -1.1518145315103945e6 0.0
0.0 0.0 0.0

-2.2277288150174054e6 8.863522351809755e6 0.0
8.863522351809755e6 -1.493563164072924e6 0.0
0.0 0.0 0.0

-3.8797620169248106e6 1.0361649406518374e7 0.0
1.0361649406518374e7 315895.1076327055 0.0
0.0 0.0 0.0

-1.4094800866191224e6 5.6674326714761695e6 0.0
5.6674326714761695e6 -1.6698567161744472e6 0.0
0.0 0.0 0.0

-628650.505983535 2.8963764531289143e6 0.0
2.8963764531289143e6 -882413.3937076371 0.0
0.0 0.0 0.0

-3.6980622628319887e6 7.832548956965272e6 0.0
7.832548956965272e6 2.118055290356066e6 0.0
0.0 0.0 0.0

-3.583109113868167e6 8.674113455507923e6 0.0
8.674113455507923e6 1.445372930881023e6 0.0
0.0 0.0 0.0

578787.2579315028 6.9389640244468115e6 0.0
6.9389640244468115e6 -4.302108003634375e6 0.0
0.0 0.0 0.0

-3.408283160052044e6 7.1602172131825825e6 0.0
7.1602172131825825e6 1.9665260675969273e6 0.0
0.0 0.0 0.0

-4.050998322796113e6 1.074009101242743e7 0.0
1.074009101242743e7 201277.90275471588 0.0
0.0 0.0 0.0

1.936101211513515e6 7.580704023422412e6 0.0
7.580704023422412e6 -7.86833959753602e6 0.0
0.0 0.0 0.0

-4.3576212013257e6 1.1820249996524977e7 0.0
1.1820249996524977e7 2.522369002559809e6 0.0
0.0 0.0 0.0

-2.9228159064311306e6 9.704713276818955e6 0.0
9.704713276818955e6 -1.22225821881246e6 0.0
0.0 0.0 0.0

1.8306875063962953e6 5.10272295315309e6 0.0
5.10272295315309e6 -3.646302483520457e6 0.0
0.0 0.0 0.0

-6.536303795510327e6 1.178086950805373e7 0.0
1.178086950805373e7 5.080246344640154e6 0.0
0.0 0.0 0.0

-3.3330903839013185e6 5.70776787098564e6 0.0
5.70776787098564e6 1.8464034935682227e6 0.0
0.0 0.0 0.0

-2.708105621605576e6 9.407742643311301e6 0.0
9.407742643311301e6 -1.1715830670847055e6 0.0
0.0 0.0 0.0

-4.305303600850219e6 1.1243025732592128e7 0.0
1.1243025732592128e7 927895.9262420489 0.0
0.0 0.0 0.0

-4.833901611707218e6 1.1223429732479611e7 0.0
1.1223429732479611e7 1.4722599041152105e6 0.0
0.0 0.0 0.0

-3.825380670670047e6 1.060186281695234e7 0.0
1.060186281695234e7 -239452.52612464223 0.0
0.0 0.0 0.0

-3.7416176847489e6 1.034606119011516e7 0.0
1.034606119011516e7 782682.8510102062 0.0
0.0 0.0 0.0

3.047991658869206e6 5.619887305856603e6 0.0
5.619887305856603e6 -6.178616050188482e6 0.0
0.0 0.0 0.0

-5.867823065809134e6 1.2767650735437224e7 0.0
1.2767650735437224e7 1.5299636879317134e6 0.0
0.0 0.0 0.0

-1.6482232824314232e6 1.2286144729409065e7 0.0
1.2286144729409065e7 -1.144717071546389e7 0.0
0.0 0.0 0.0

1.0183780379874343e6 1.3056658311979119e7 0.0
1.3056658311979119e7 1.7842075328064486e7 0.0
0.0 0.0 0.0

-365270.7169484475 9.524528004758243e6 0.0
9.524528004758243e6 -5.933291239390403e6 0.0
0.0 0.0 0.0

-3.308534380319126e6 1.0503922181651069e7 0.0
1.0503922181651069e7 -682247.8611223886 0.0
0.0 0.0 0.0

-35097.9215927585 9.714479377188087e6 0.0
9.714479377188087e6 -7.737750789034812e6 0.0
0.0 0.0 0.0

-2.6148122887015305e6 9.399324315669283e6 0.0
9.399324315669283e6 -1.5593593196759215e6 0.0
0.0 0.0 0.0

-1.4646894863546782e6 1.1858475999384712e7 0.0
1.1858475999384712e7 -4.1083595596424397e6 0.0
0.0 0.0 0.0

-2.2173979007867426e6 9.008171655797934e6 0.0
9.008171655797934e6 -2.3138388894897727e6 0.0
0.0 0.0 0.0

-3.7348253924427e6 1.009921046801994e7 0.0
1.009921046801994e7 349589.5056959004 0.0
0.0 0.0 0.0

3.3919629625574853e6 8.318494366580471e6 0.0
8.318494366580471e6 -1.2388499279447863e7 0.0
0.0 0.0 0.0

-4.566356208392452e6 1.1735514323982373e7 0.0
1.1735514323982373e7 1.8736232137316896e6 0.0
0.0 0.0 0.0

-4.867182668415567e6 9.254053511635566e6 0.0
9.254053511635566e6 2.3451709354013633e6 0.0
0.0 0.0 0.0

-2.0688223302892584e6 9.143449625791911e6 0.0
9.143449625791911e6 -1.853936689387914e6 0.0
0.0 0.0 0.0

651500.3753013187 8.979387328659168e6 0.0
8.979387328659168e6 -7.470126230680342e6 0.0
0.0 0.0 0.0

2.445340040689581e6 1.2535522252986265e7 0.0
1.2535522252986265e7 8.151130001623116e6 0.0
0.0 0.0 0.0

-3.2794512524096575e6 1.0826397780274369e7 0.0
1.0826397780274369e7 -1.5162495372141171e6 0.0
0.0 0.0 0.0

-2.202568487936458e7 2.2697399644330658e7 0.0
2.2697399644330658e7 8.903509676956553e6 0.0
0.0 0.0 0.0

-103108.62958387262 9.400006687200492e6 0.0
9.400006687200492e6 -6.325727887218494e6 0.0
0.0 0.0 0.0

-3.4596413519765767e6 1.0552889786968274e7 0.0
1.0552889786968274e7 -184810.90415980155 0.0
0.0 0.0 0.0

3.206722240970659e6 5.487014527402251e6 0.0
5.487014527402251e6 -5.309342881681216e6 0.0
0.0 0.0 0.0

1.5695827092379811e6 7.163612797041009e6 0.0
7.163612797041009e6 -7.79185450233195e6 0.0
0.0 0.0 0.0

-4.403059195944831e6 1.1198290415390844e7 0.0
1.1198290415390844e7 1.4940815459351758e6 0.0
0.0 0.0 0.0

-620285.717986708 1.061101448621224e7 0.0
1.061101448621224e7 -9.813070802064806e6 0.0
0.0 0.0 0.0

-2.2771143557828134e6 9.342484365737014e6 0.0
9.342484365737014e6 -1.4882629191382867e6 0.0
0.0 0.0 0.0

-520744.6215434113 7.551789569728481e6 0.0
7.551789569728481e6 -4.0915098703807816e6 0.0
0.0 0.0 0.0

-2.1776403563176785e6 7.329054942985087e6 0.0
7.329054942985087e6 -193511.53555561445 0.0
0.0 0.0 0.0

197362.06233757501 9.281928872741783e6 0.0
9.281928872741783e6 -6.745847140096009e6 0.0
0.0 0.0 0.0

-2.394012946609677e6 7.002836052317664e6 0.0
7.002836052317664e6 -679782.995853008 0.0
0.0 0.0 0.0

-632382.6701223026 1.0857218089896837e7 0.0
1.0857218089896837e7 -6.1841759636703655e6 0.0
0.0 0.0 0.0

-1.4298349182883825e7 1.1345078378978265e7 0.0
1.1345078378978265e7 6.793400556166377e6 0.0
0.0 0.0 0.0

108992.8131316423 1.5544978634117867e6 0.0
1.5544978634117867e6 -1.8364367569705285e6 0.0
0.0 0.0 0.0

-2.538625836790745e6 7.0199374724755185e6 0.0
7.0199374724755185e6 519126.43785685615 0.0
0.0 0.0 0.0

-3.8211765315097068e6 1.061579939311448e7 0.0
1.061579939311448e7 723762.8587533254 0.0
0.0 0.0 0.0

-8.133062553341586e6 -3.719959858735681e6 0.0
-3.719959858735681e6 1.522023935122446e7 0.0
0.0 0.0 0.0

-1.101914526917389e6 1.134873540129318e7 0.0
1.134873540129318e7 1.6581309872193825e6 0.0
0.0 0.0 0.0

-2.4215609200471644e6 9.206121133116476e6 0.0
9.206121133116476e6 -1.934621101829762e6 0.0
0.0 0.0 0.0

-2.294894217926631e6 1.1288816811143884e7 0.0
1.1288816811143884e7 -2.982847375857386e6 0.0
0.0 0.0 0.0

-2.63740013408394e6 9.60564448029966e6 0.0
9.60564448029966e6 -2.3247821438486846e6 0.0
0.0 0.0 0.0

-1.455772711570854e6 8.23659219404074e6 0.0
8.23659219404074e6 -2.9307263164004227e6 0.0
0.0 0.0 0.0

-3.3916154150039447e6 1.0260605920341795e7 0.0
1.0260605920341795e7 -1.0637133512472857e6 0.0
0.0 0.0 0.0

-5.0200094898052635e6 8.738779669418758e6 0.0
8.738779669418758e6 4.0163120695773177e6 0.0
0.0 0.0 0.0

-2.8892603291671663e6 9.017496293502074e6 0.0
9.017496293502074e6 180883.9950899391 0.0
0.0 0.0 0.0

-2.5733381067199144e6 9.19481786721055e6 0.0
9.19481786721055e6 -1.1523801543191872e6 0.0
0.0 0.0 0.0

2.675764668192884e6 7.288022793873886e6 0.0
7.288022793873886e6 -9.80817161301491e6 0.0
0.0 0.0 0.0

-6.439203828598922e6 1.2253537881932834e7 0.0
1.2253537881932834e7 5.235799623576001e6 0.0
0.0 0.0 0.0

452295.19350945216 3.1578514316270184e6 0.0
3.1578514316270184e6 -2.5189627965549394e6 0.0
0.0 0.0 0.0

-4.586882586157575e6 8.42859108586411e6 0.0
8.42859108586411e6 3.376851949795575e6 0.0
0.0 0.0 0.0

-742249.0256734497 7.836147547640085e6 0.0
7.836147547640085e6 -3.6937007620401355e6 0.0
0.0 0.0 0.0

1.3534310711609093e6 5.514446932163053e6 0.0
5.514446932163053e6 -5.955009631478995e6 0.0
0.0 0.0 0.0

429739.2653859323 9.111408347988984e6 0.0
9.111408347988984e6 -7.1317556667165775e6 0.0
0.0 0.0 0.0

-544947.7246846246 5.184153667473468e6 0.0
5.184153667473468e6 -2.430341421120459e6 0.0
0.0 0.0 0.0

-7.985165386844069e6 4.925112302100887e6 0.0
4.925112302100887e6 9.575794038797826e6 0.0
0.0 0.0 0.0

-3.0208789994501495e6 9.837609029538125e6 0.0
9.837609029538125e6 -1.2871407218144317e6 0.0
0.0 0.0 0.0

207805.77145163977 1.6341777422502285e6 0.0
1.6341777422502285e6 -1.5084836851788638e6 0.0
0.0 0.0 0.0

-2.067581164183936e6 6.55478308773571e6 0.0
6.55478308773571e6 -1.0115010941744389e6 0.0
0.0 0.0 0.0

-2.622743673598243e6 1.1384291942712925e7 0.0
1.1384291942712925e7 -2.3789380273015243e6 0.0
0.0 0.0 0.0

545091.578188018 1.0631834380760225e7 0.0
1.0631834380760225e7 -7.8366910514544835e6 0.0
0.0 0.0 0.0

-287998.50529574254 7.619921818840436e6 0.0
7.619921818840436e6 -5.159996080838974e6 0.0
0.0 0.0 0.0

57356.126716534374 7.1419743366760155e6 0.0
7.1419743366760155e6 -4.2406410236376515e6 0.0
0.0 0.0 0.0

-2.576214712498933e6 9.655468636465412e6 0.0
9.655468636465412e6 -1.164981005066113e6 0.0
0.0 0.0 0.0

-4.713038896094279e6 1.0333824326773832e7 0.0
1.0333824326773832e7 6.677677634560776e6 0.0
0.0 0.0 0.0

-4.903279036195811e6 1.1372550347672626e7 0.0
1.1372550347672626e7 1.394286822781762e6 0.0
0.0 0.0 0.0

-6.49141380215098e6 9.856025948821478e6 0.0
9.856025948821478e6 6.722239954719858e6 0.0
0.0 0.0 0.0

-5.609137595429328e6 9.796557199740957e6 0.0
9.796557199740957e6 4.590322642542193e6 0.0
0.0 0.0 0.0

-398604.3408447688 7.504661760462524e6 0.0
7.504661760462524e6 -4.0788075855139564e6 0.0
0.0 0.0 0.0

-1.868263996180955e6 6.884667062732645e6 0.0
6.884667062732645e6 -522294.17231133673 0.0
0.0 0.0 0.0

-1.7219394047121217e6 1.1207294917058896e7 0.0
1.1207294917058896e7 1.8874850068319947e6 0.0
0.0 0.0 0.0

-1.6334736534798094e6 8.441265698149236e6 0.0
8.441265698149236e6 -2.5564285797488163e6 0.0
0.0 0.0 0.0

684007.1325589512 1.0120186423671452e7 0.0
1.0120186423671452e7 -8.276424214064553e6 0.0
0.0 0.0 0.0

-2.876864324853456e6 9.956944496052817e6 0.0
9.956944496052817e6 -832638.7199049139 0.0
0.0 0.0 0.0

-669170.1209918577 9.619731275472574e6 0.0
9.619731275472574e6 -5.544530192076834e6 0.0
0.0 0.0 0.0

-2.178048143251802e6 7.777641867481118e6 0.0
7.777641867481118e6 -367929.1957783434 0.0
0.0 0.0 0.0

-1.4002623896584527e6 1.011873026970276e7 0.0
1.011873026970276e7 -8.105540959415945e6 0.0
0.0 0.0 0.0

-3.171163094870655e6 1.0255354629600838e7 0.0
1.0255354629600838e7 -509558.6896035942 0.0
0.0 0.0 0.0

2.689159008111353e6 1.0484645919251235e7 0.0
1.0484645919251235e7 -4.0396528974191044e6 0.0
0.0 0.0 0.0

-9.375583037753353e6 -1.9631036033538522e6 0.0
-1.9631036033538522e6 1.5678169906846054e7 0.0
0.0 0.0 0.0

-1.1781956544911604e7 1.3466112264324043e7 0.0
1.3466112264324043e7 8.9534680351202e6 0.0
0.0 0.0 0.0

-3.088001099350053e6 1.173955483956631e7 0.0
1.173955483956631e7 2.2703236417640746e6 0.0
0.0 0.0 0.0

-9.058532220757563e6 5.425104397160996e6 0.0
5.425104397160996e6 1.0883704457385058e7 0.0
0.0 0.0 0.0

-6.375589596402518e6 1.124100826550044e7 0.0
1.124100826550044e7 5.193947910560352e6 0.0
0.0 0.0 0.0

-1.9621778375872504e6 8.363163657096969e6 0.0
8.363163657096969e6 -959460.0588867108 0.0
0.0 0.0 0.0

-2.141704973390027e6 9.26188500496667e6 0.0
9.26188500496667e6 -1.9151292799252002e6 0.0
0.0 0.0 0.0

-2.6451884649943854e6 9.781424006242482e6 0.0
9.781424006242482e6 -1.2130938213747756e6 0.0
0.0 0.0 0.0

-269369.9491968609 6.933900764984235e6 0.0
6.933900764984235e6 -2.836982511698763e6 0.0
0.0 0.0 0.0

-3.019939086635068e6 1.146004476545556e7 0.0
1.146004476545556e7 -1.7827910699020298e6 0.0
0.0 0.0 0.0

915900.2646768847 6.499976300609621e6 0.0
6.499976300609621e6 -6.106291195857243e6 0.0
0.0 0.0 0.0

1.290985296750117e6 6.921928792405643e6 0.0
6.921928792405643e6 -5.318391773815862e6 0.0
0.0 0.0 0.0

-6.0426675712226955e6 9.975891678242002e6 0.0
9.975891678242002e6 5.477641921580759e6 0.0
0.0 0.0 0.0

-4.644204957124283e6 1.1286758158875398e7 0.0
1.1286758158875398e7 883699.2187793504 0.0
0.0 0.0 0.0

1.8052555969907e6 1.124092923409522e7 0.0
1.124092923409522e7 -4.532058933454994e6 0.0
0.0 0.0 0.0

-7.532858897729195e6 1.1475087277306048e7 0.0
1.1475087277306048e7 4.0741020250721117e6 0.0
0.0 0.0 0.0

1.538099910170514e6 6.724649216674563e6 0.0
6.724649216674563e6 -5.882951979803184e6 0.0
0.0 0.0 0.0

-1.8440530149365547e6 8.588358234990295e6 0.0
8.588358234990295e6 -2.2120145150240683e6 0.0
0.0 0.0 0.0

1.0275546283438481e7 1.0495295891816046e7 0.0
1.0495295891816046e7 -728340.3068668256 0.0
0.0 0.0 0.0

73607.87714189687 7.3303641773991445e6 0.0
7.3303641773991445e6 -4.351748932333774e6 0.0
0.0 0.0 0.0

1.4823920702164504e6 6.639589100045111e6 0.0
6.639589100045111e6 -7.213904517390198e6 0.0
0.0 0.0 0.0

-6.041466770802981e6 9.059693230826205e6 0.0
9.059693230826205e6 8.476776306998193e6 0.0
0.0 0.0 0.0

-524955.7297834235 1.0363463266178802e7 0.0
1.0363463266178802e7 -6.164345307715896e6 0.0
0.0 0.0 0.0

-2.892132758646284e6 6.083147695396988e6 0.0
6.083147695396988e6 1.8618859646919663e6 0.0
0.0 0.0 0.0

-1.2376323882487003e7 1.2071106170083592e7 0.0
1.2071106170083592e7 9.046374900407504e6 0.0
0.0 0.0 0.0

-5.875795075044464e6 9.498254574251514e6 0.0
9.498254574251514e6 7.902392559750745e6 0.0
0.0 0.0 0.0

-6.310030991783988e6 1.1662220487108462e7 0.0
1.1662220487108462e7 5.246897070149399e6 0.0
0.0 0.0 0.0

-1.247897158235728e7 1.222862396150654e7 0.0
1.222862396150654e7 7.528362202613258e6 0.0
0.0 0.0 0.0

-2.7065141309216195e6 8.806425748347059e6 0.0
8.806425748347059e6 -711935.7757287679 0.0
0.0 0.0 0.0

1.3801486381000714e7 6.341829590684194e6 0.0
6.341829590684194e6 -3.630332671620424e6 0.0
0.0 0.0 0.0

-2.5679366807455285e6 9.886890929612886e6 0.0
9.886890929612886e6 -1.9906936709255602e6 0.0
0.0 0.0 0.0

-994408.5620633946 6.835266119223903e6 0.0
6.835266119223903e6 -3.069585313418777e6 0.0
0.0 0.0 0.0

-3.4700239849779587e6 1.1526586954948004e7 0.0
1.1526586954948004e7 -1.1666828719261338e6 0.0
0.0 0.0 0.0

-4.832725179998068e6 1.1576875156618835e7 0.0
1.1576875156618835e7 613708.2474509436 0.0
0.0 0.0 0.0

277943.0451309511 7.160899980635768e6 0.0
7.160899980635768e6 -3.7195554362876937e6 0.0
0.0 0.0 0.0

-4.602165798746395e6 1.1662806158160148e7 0.0
1.1662806158160148e7 4.48744792582912e6 0.0
0.0 0.0 0.0

283749.8005178897 9.856325375790048e6 0.0
9.856325375790048e6 -7.804711081435972e6 0.0
0.0 0.0 0.0

-6.176878845589541e6 2.315413429053608e6 0.0
2.315413429053608e6 6.313039274266119e6 0.0
0.0 0.0 0.0

-4.569412017059933e6 1.1116979194991501e7 0.0
1.1116979194991501e7 963335.5114193871 0.0
0.0 0.0 0.0

-2.092199013787983e6 8.81376821373142e6 0.0
8.81376821373142e6 -1.0306371826595158e6 0.0
0.0 0.0 0.0

-4.493918137123377e6 1.1370399308866417e7 0.0
1.1370399308866417e7 1.3622235764020663e6 0.0
0.0 0.0 0.0

-1.6433155059900405e6 9.162313885639511e6 0.0
9.162313885639511e6 -3.1048923071491867e6 0.0
0.0 0.0 0.0

-1.0118297032231004e6 4.8567913317283075e6 0.0
4.8567913317283075e6 -921572.4085021573 0.0
0.0 0.0 0.0

-6.006261306437312e6 1.0655861080190463e7 0.0
1.0655861080190463e7 3.8618395402466315e6 0.0
0.0 0.0 0.0

-6.137268670574666e6 1.0964075220944516e7 0.0
1.0964075220944516e7 6.562846596088165e6 0.0
0.0 0.0 0.0

-5.325305184417973e6 9.319034812232777e6 0.0
9.319034812232777e6 4.232826336749996e6 0.0
0.0 0.0 0.0

-1.3349410763031123e6 8.402127945958316e6 0.0
8.402127945958316e6 -2.511374706336938e6 0.0
0.0 0.0 0.0

1.1473780688481173e6 8.844049494840123e6 0.0
8.844049494840123e6 -8.451136104827479e6 0.0
0.0 0.0 0.0

-3.3646637308992622e6 9.100481030205585e6 0.0
9.100481030205585e6 78850.30146504729 0.0
0.0 0.0 0.0

-1.9407006202473112e6 1.0552330561204154e7 0.0
1.0552330561204154e7 -4.047541176384028e6 0.0
0.0 0.0 0.0

-1.8222011940256497e6 9.204678618236493e6 0.0
9.204678618236493e6 -3.7100322116986564e6 0.0
0.0 0.0 0.0

-4.711311857049149e6 1.1748609036921399e7 0.0
1.1748609036921399e7 68507.47390270396 0.0
0.0 0.0 0.0

-2.936700248273968e6 9.974782634223655e6 0.0
9.974782634223655e6 -2.002772019507428e6 0.0
0.0 0.0 0.0

519227.70548283635 8.644240724798378e6 0.0
8.644240724798378e6 -6.729476678273895e6 0.0
0.0 0.0 0.0

1.265112471178712e6 6.9279063545669075e6 0.0
6.9279063545669075e6 -4.3336561710738195e6 0.0
0.0 0.0 0.0

565217.072616392 5.531281392697062e6 0.0
5.531281392697062e6 -3.3285585101182344e6 0.0
0.0 0.0 0.0

-8.217779886922882e6 1.463735462431586e7 0.0
1.463735462431586e7 4.915194118194291e6 0.0
0.0 0.0 0.0

-3.0213058615001147e6 8.728623798302323e6 0.0
8.728623798302323e6 -272023.4903065722 0.0
0.0 0.0 0.0

-3.464033753829271e6 1.038931923989981e7 0.0
1.038931923989981e7 -1.17472259750105e6 0.0
0.0 0.0 0.0

2.1849715163837792e6 5.96075214301437e6 0.0
5.96075214301437e6 -5.452419539824611e6 0.0
0.0 0.0 0.0

-1.1301176177835878e7 -1.445201937519616e6 0.0
-1.445201937519616e6 1.6056096720325444e7 0.0
0.0 0.0 0.0

331288.30276059126 6.900166207096752e6 0.0
6.900166207096752e6 -5.546644538918253e6 0.0
0.0 0.0 0.0

-2.3693810113822897e6 1.420460979008371e7 0.0
1.420460979008371e7 -3.395711463252284e6 0.0
0.0 0.0 0.0

-4.762507351199631e6 1.27034571660484e7 0.0
1.27034571660484e7 532570.6488718698 0.0
0.0 0.0 0.0

-5.990600185079943e6 1.0829814083580054e7 0.0
1.0829814083580054e7 3.6953624821799365e6 0.0
0.0 0.0 0.0

2.664789175546433e6 5.900695670184508e6 0.0
5.900695670184508e6 -8.400965665762957e6 0.0
0.0 0.0 0.0

-3.5231549240434635e6 1.0687833933817009e7 0.0
1.0687833933817009e7 -268840.2635214387 0.0
0.0 0.0 0.0

-4.031426188764528e6 1.121789231457806e7 0.0
1.121789231457806e7 -200787.40076679713 0.0
0.0 0.0 0.0

1.736940005160606e6 6.975057421023174e6 0.0
6.975057421023174e6 -8.086272632015689e6 0.0
0.0 0.0 0.0

-5.425579654954666e6 1.2156444627862718e7 0.0
1.2156444627862718e7 1.596043377745868e6 0.0
0.0 0.0 0.0

-301940.38444248354 1.2272503513339566e7 0.0
1.2272503513339566e7 -4.923284202705194e6 0.0
0.0 0.0 0.0

-3.6082042856310266e6 1.043823442183781e7 0.0
1.043823442183781e7 -654340.0630425266 0.0
0.0 0.0 0.0

1.0717189036015752e6 1.023307156834952e7 0.0
1.023307156834952e7 -8.818973319015138e6 0.0
0.0 0.0 0.0

1.1503100259432425e6 6.9137437952321535e6 0.0
6.9137437952321535e6 -5.800293604201317e6 0.0
0.0 0.0 0.0

-655917.2910525693 7.320563070294879e6 0.0
7.320563070294879e6 -4.547700086104179e6 0.0
0.0 0.0 0.0

-3.533163614503939e6 1.0914313616069201e7 0.0
1.0914313616069201e7 -1.0726011254164735e6 0.0
0.0 0.0 0.0

-827412.8474559532 1.2357199498400288e7 0.0
1.2357199498400288e7 -4.992805715413772e6 0.0
0.0 0.0 0.0

-3.2062901751027983e6 1.0165602575989453e7 0.0
1.0165602575989453e7 -1.5962906601521731e6 0.0
0.0 0.0 0.0

453668.1727628808 6.702576214915382e6 0.0
6.702576214915382e6 -5.382773487028198e6 0.0
0.0 0.0 0.0

2.034923907163742e6 6.023210548374307e6 0.0
6.023210548374307e6 -7.009955166483287e6 0.0
0.0 0.0 0.0

-1.3345659439464589e6 9.801937562459147e6 0.0
9.801937562459147e6 -4.6391801027896525e6 0.0
0.0 0.0 0.0

-944447.5819208452 7.593493552613892e6 0.0
7.593493552613892e6 -4.1329353276313203e6 0.0
0.0 0.0 0.0

-2.3641626319843726e6 8.44395851505706e6 0.0
8.44395851505706e6 -1.0632375765856686e6 0.0
0.0 0.0 0.0

-7.357307189007014e6 1.1918358183399525e7 0.0
1.1918358183399525e7 4.647179780915434e6 0.0
0.0 0.0 0.0

-1.06065996569322e7 9.285474151307061e6 0.0
9.285474151307061e6 3.430779962398258e7 0.0
0.0 0.0 0.0

-4.551553832998948e6 3.462365846696036e6 0.0
3.462365846696036e6 3.786847070453377e6 0.0
0.0 0.0 0.0

-4.258278553045196e6 1.2631665447827544e7 0.0
1.2631665447827544e7 -1.4622992577816697e6 0.0
0.0 0.0 0.0

-2.6714394598626564e6 8.356017645057051e6 0.0
8.356017645057051e6 -631741.8552233164 0.0
0.0 0.0 0.0

-9.190507177685067e6 1.6426272139123676e6 0.0
1.6426272139123676e6 1.2687945172283866e7 0.0
0.0 0.0 0.0

1.4352564309195834e6 5.996365732126491e6 0.0
5.996365732126491e6 -6.04490640304234e6 0.0
0.0 0.0 0.0

-2.8395166326041147e6 8.600912022594364e6 0.0
8.600912022594364e6 356025.72424407303 0.0
0.0 0.0 0.0

-146284.09891964262 1.0384611225800442e7 0.0
1.0384611225800442e7 -6.903775261594425e6 0.0
0.0 0.0 0.0

-3.83699872493621e6 1.1710169703195851e7 0.0
1.1710169703195851e7 -615506.7472438341 0.0
0.0 0.0 0.0

-3.572426642631141e6 1.0813389115881851e7 0.0
1.0813389115881851e7 -376165.192898219 0.0
0.0 0.0 0.0

-3.139284994561904e6 7.129699939438222e6 0.0
7.129699939438222e6 391064.330976913 0.0
0.0 0.0 0.0

-2.376254456664117e6 9.348128130471945e6 0.0
9.348128130471945e6 -1.1007014281263838e6 0.0
0.0 0.0 0.0

-1.8945658095384066e6 5.016558187962079e6 0.0
5.016558187962079e6 -432998.45428644103 0.0
0.0 0.0 0.0

-2.273848489322254e7 7.612393484787011e6 0.0
7.612393484787011e6 1.1068122441517666e7 0.0
0.0 0.0 0.0

-1.4695563791551534e6 9.275084525753453e6 0.0
9.275084525753453e6 3.310361904200116e6 0.0
0.0 0.0 0.0

-6.222793515860005e6 1.057747832692267e7 0.0
1.057747832692267e7 5.417761266384898e6 0.0
0.0 0.0 0.0

-5.28883367561721e6 1.1772777668479662e7 0.0
1.1772777668479662e7 2.8052987938570897e6 0.0
0.0 0.0 0.0

894543.8943904713 7.488196027266674e6 0.0
7.488196027266674e6 -6.300838721868611e6 0.0
0.0 0.0 0.0

1.4088716823307592e6 7.076199458081952e6 0.0
7.076199458081952e6 -7.226870784083638e6 0.0
0.0 0.0 0.0

2.134030900896189e6 7.91886620259735e6 0.0
7.91886620259735e6 -8.640924009430641e6 0.0
0.0 0.0 0.0

-2.723604885307232e6 7.449917424341207e6 0.0
7.449917424341207e6 -357931.214012669 0.0
0.0 0.0 0.0

-6.670223535085861e6 5.565868604336004e6 0.0
5.565868604336004e6 7.317718225050956e6 0.0
0.0 0.0 0.0

-1.7866036264204166e6 5.416819030831745e6 0.0
5.416819030831745e6 144820.28669456893 0.0
0.0 0.0 0.0

859835.8555839914 1.1831336945827099e7 0.0
1.1831336945827099e7 -4.758048510753214e6 0.0
0.0 0.0 0.0

512205.97308090096 1.0032224734932916e7 0.0
1.0032224734932916e7 -7.683588084315045e6 0.0
0.0 0.0 0.0

-6.464972723823195e6 1.107165117453218e7 0.0
1.107165117453218e7 4.782778408176323e6 0.0
0.0 0.0 0.0

-6.208233183711647e6 1.610921414046482e7 0.0
1.610921414046482e7 1.0356438523203763e6 0.0
0.0 0.0 0.0

-6.9798147418655455e6 1.2215264530002752e7 0.0
1.2215264530002752e7 4.903803818997221e6 0.0
0.0 0.0 0.0

-6.017003683701366e6 1.0374696920630673e7 0.0
1.0374696920630673e7 7.086889445768182e6 0.0
0.0 0.0 0.0

3.5009414764471706e6 7.477134329695879e6 0.0
7.477134329695879e6 -1.2626672384544248e7 0.0
0.0 0.0 0.0

-1.6735295134169762e6 8.828874343551457e6 0.0
8.828874343551457e6 -2.8355181519737043e6 0.0
0.0 0.0 0.0

3.11751988928942e6 6.347431042153522e6 0.0
6.347431042153522e6 -5.568398941730326e6 0.0
0.0 0.0 0.0

2.41587166981555e6 7.39818903632296e6 0.0
7.39818903632296e6 -8.801796693909174e6 0.0
0.0 0.0 0.0

-5.976763019730849e6 1.1081994668418735e7 0.0
1.1081994668418735e7 3.5584948718044125e6 0.0
0.0 0.0 0.0

-5.04663109223643e6 6.550477672513788e6 0.0
6.550477672513788e6 5.4108941917870715e6 0.0
0.0 0.0 0.0

-6.053548542852146e6 9.978927595363997e6 0.0
9.978927595363997e6 7.517914669988168e6 0.0
0.0 0.0 0.0

-6.238546087728124e6 1.0911453652327675e7 0.0
1.0911453652327675e7 5.521775206318731e6 0.0
0.0 0.0 0.0

463621.68231706345 6.863212647687817e6 0.0
6.863212647687817e6 -5.099155269809625e6 0.0
0.0 0.0 0.0

-4.138524930587448e6 1.3023770043297082e7 0.0
1.3023770043297082e7 1.8643317214189225e6 0.0
0.0 0.0 0.0

-7.942370750780245e6 1.4733197439479977e7 0.0
1.4733197439479977e7 3.9210983796863193e6 0.0
0.0 0.0 0.0

-6.499017387319413e6 1.1635338521616545e7 0.0
1.1635338521616545e7 4.689964579314545e6 0.0
0.0 0.0 0.0

-5.556948886006564e6 9.88249562037212e6 0.0
9.88249562037212e6 7.410379301719844e6 0.0
0.0 0.0 0.0

-2.100672532401224e7 2.9484384948152706e7 0.0
2.9484384948152706e7 -4.6478897090626005e6 0.0
0.0 0.0 0.0

-3.726886857477002e6 1.0741558183012374e7 0.0
1.0741558183012374e7 1.6222279846902706e6 0.0
0.0 0.0 0.0

-4.40007576610289e6 7.94433166501134e6 0.0
7.94433166501134e6 1.9917221928930553e6 0.0
0.0 0.0 0.0

-1.2373075706838663e6 3.4034465110341893e6 0.0
3.4034465110341893e6 -639118.6295909687 0.0
0.0 0.0 0.0

-2.3565091234503123e6 9.46614034623441e6 0.0
9.46614034623441e6 -1.533729361763136e6 0.0
0.0 0.0 0.0

-3.604274022573466e6 1.235494144857814e7 0.0
1.235494144857814e7 379971.77619142877 0.0
0.0 0.0 0.0

-1.0650859432120264e7 1.3177193044096567e7 0.0
1.3177193044096567e7 8.196100692477394e6 0.0
0.0 0.0 0.0

-3.109123644679269e6 1.04265712724537e7 0.0
1.04265712724537e7 -1.168545658121427e6 0.0
0.0 0.0 0.0

-4.050110574749185e6 1.0968620318979297e7 0.0
1.0968620318979297e7 -543836.4879539569 0.0
0.0 0.0 0.0

-1.860219492745504e6 3.5556803939175266e6 0.0
3.5556803939175266e6 1.4160922167804493e6 0.0
0.0 0.0 0.0

1.200852436102568e6 6.202142884170765e6 0.0
6.202142884170765e6 -5.634332785045288e6 0.0
0.0 0.0 0.0

-7.026735387647073e6 1.4334620561295921e7 0.0
1.4334620561295921e7 3.9290326888130945e6 0.0
0.0 0.0 0.0

-6.155805493402168e6 1.07552595680173e7 0.0
1.07552595680173e7 6.845311706386883e6 0.0
0.0 0.0 0.0

-4.881641277870719e6 1.1628374021579888e7 0.0
1.1628374021579888e7 682330.4910958295 0.0
0.0 0.0 0.0

909420.5080888271 6.100874206583794e6 0.0
6.100874206583794e6 -4.270376070433289e6 0.0
0.0 0.0 0.0

-5.559245339702074e6 1.3261931979249438e7 0.0
1.3261931979249438e7 1.0282824674823633e6 0.0
0.0 0.0 0.0

-3.679537327759146e6 1.0565152169543965e7 0.0
1.0565152169543965e7 -762340.7783675664 0.0
0.0 0.0 0.0

-996730.7782845224 9.714958557514422e6 0.0
9.714958557514422e6 -5.094367644903839e6 0.0
0.0 0.0 0.0

-2.949798344581338e6 1.0083470505884327e7 0.0
1.0083470505884327e7 -894539.6734041896 0.0
0.0 0.0 0.0

420815.6874264644 7.252791325308958e6 0.0
7.252791325308958e6 -5.686229859420823e6 0.0
0.0 0.0 0.0

-3.3849851931950976e6 1.0065354611309674e7 0.0
1.0065354611309674e7 359421.17583546205 0.0
0.0 0.0 0.0

-1.3286075569047853e6 3.7772058306564856e6 0.0
3.7772058306564856e6 -617622.2616206016 0.0
0.0 0.0 0.0

-3.80429354722803e6 6.880887541120299e6 0.0
6.880887541120299e6 2.7811664324173974e6 0.0
0.0 0.0 0.0

-2.9189832459097127e6 7.153872533477754e6 0.0
7.153872533477754e6 1.1217789266163523e6 0.0
0.0 0.0 0.0

-1.3021200285338091e6 9.249089485987345e6 0.0
9.249089485987345e6 -7.301528877146204e6 0.0
0.0 0.0 0.0

-2.5207140624532374e6 7.372195208642e6 0.0
7.372195208642e6 333124.87358859857 0.0
0.0 0.0 0.0

-1.9623688836691182e7 1.1510725550987512e7 0.0
1.1510725550987512e7 9.014524968455506e6 0.0
0.0 0.0 0.0

-3.047278432325693e6 8.300136310521712e6 0.0
8.300136310521712e6 -157219.95806203282 0.0
0.0 0.0 0.0

-913135.4336094576 1.184235518435851e7 0.0
1.184235518435851e7 -728185.1660922565 0.0
0.0 0.0 0.0

-2.3649851756756157e7 5.793768060595957e6 0.0
5.793768060595957e6 8.98513934802923e6 0.0
0.0 0.0 0.0

325955.6711994293 1.214052570381531e7 0.0
1.214052570381531e7 -4.937806142438302e6 0.0
0.0 0.0 0.0

-2.2150271362250736e6 8.264701183083097e6 0.0
8.264701183083097e6 -513062.02232644113 0.0
0.0 0.0 0.0

-197346.0406630428 7.254061029240396e6 0.0
7.254061029240396e6 -4.458959125283369e6 0.0
0.0 0.0 0.0

-5.5500753409214e6 1.183168512357073e7 0.0
1.183168512357073e7 3.2584426024223273e6 0.0
0.0 0.0 0.0

184084.83424684568 7.9519343851817055e6 0.0
7.9519343851817055e6 -5.679933898391487e6 0.0
0.0 0.0 0.0

156380.59895813186 8.56471245437898e6 0.0
8.56471245437898e6 -5.947763708347164e6 0.0
0.0 0.0 0.0

-1.165165421138465e6 4.919433785826634e6 0.0
4.919433785826634e6 -1.4608910287491365e6 0.0
0.0 0.0 0.0

-5.568713256164087e6 9.111415957844771e6 0.0
9.111415957844771e6 3.4631836725248466e6 0.0
0.0 0.0 0.0

1.9225907549690544e6 6.95224649598412e6 0.0
6.95224649598412e6 -7.452984215254335e6 0.0
0.0 0.0 0.0

-2.4679603279686766e6 5.038443374719962e6 0.0
5.038443374719962e6 1.3417666880597163e6 0.0
0.0 0.0 0.0

173226.85430213017 8.278035148885389e6 0.0
8.278035148885389e6 -5.818400896081104e6 0.0
0.0 0.0 0.0

-3.595677021402634e7 -315054.70345577167 0.0
-315054.70345577167 1.3936789229346186e7 0.0
0.0 0.0 0.0

3.3844181022362486e6 7.3630390253634835e6 0.0
7.3630390253634835e6 -1.2046481275765108e7 0.0
0.0 0.0 0.0

-4.760749934215154e6 8.39812561384632e6 0.0
8.39812561384632e6 2.39784046357181e6 0.0
0.0 0.0 0.0

-5.069214472516425e6 9.096448569629995e6 0.0
9.096448569629995e6 2.5392027938486263e6 0.0
0.0 0.0 0.0

-6.427047702761704e6 1.2244756016827596e7 0.0
1.2244756016827596e7 5.274202452795979e6 0.0
0.0 0.0 0.0

-2.7201067284610644e6 9.528253785294028e6 0.0
9.528253785294028e6 -1.6161132310222555e6 0.0
0.0 0.0 0.0

-4.906782600420335e6 1.1427300417518204e7 0.0
1.1427300417518204e7 5.364173317038823e6 0.0
0.0 0.0 0.0

-793698.3565716167 8.395062884906868e6 0.0
8.395062884906868e6 -4.798638335400842e6 0.0
0.0 0.0 0.0

1.1716227447943552e6 7.7921510057577e6 0.0
7.7921510057577e6 -7.283122697222314e6 0.0
0.0 0.0 0.0

-5.539520963921183e6 1.1566171173221944e7 0.0
1.1566171173221944e7 3.332546677303583e6 0.0
0.0 0.0 0.0

-5.7966733064071955e6 1.3546401016390063e7 0.0
1.3546401016390063e7 628682.029847357 0.0
0.0 0.0 0.0

2.8853400199806746e6 7.858030407735826e6 0.0
7.858030407735826e6 -1.0257050334360674e7 0.0
0.0 0.0 0.0

-2.1922276593412845e6 6.226669414430206e6 0.0
6.226669414430206e6 351256.3263034959 0.0
0.0 0.0 0.0

-6.734775067324422e6 1.2355448321516847e7 0.0
1.2355448321516847e7 4.992354949155814e6 0.0
0.0 0.0 0.0

-2.966509999273311e7 2.694695233257329e7 0.0
2.694695233257329e7 7.013972536648523e6 0.0
0.0 0.0 0.0

-7.586149703841208e6 2.6888133683174322e6 0.0
2.6888133683174322e6 1.0827137001046099e7 0.0
0.0 0.0 0.0

-426319.8439385928 8.933649898015069e6 0.0
8.933649898015069e6 -6.808392064101874e6 0.0
0.0 0.0 0.0

1.1236882290268485e6 5.98398950815387e6 0.0
5.98398950815387e6 -3.578135151766437e6 0.0
0.0 0.0 0.0

-4.536166494435017e6 -891286.266235402 0.0
-891286.266235402 4.784591159785089e6 0.0
0.0 0.0 0.0

3.019276249654205e6 5.582274908752482e6 0.0
5.582274908752482e6 -8.706468567861576e6 0.0
0.0 0.0 0.0

-3.2742824891882753e6 1.1858141733690662e7 0.0
1.1858141733690662e7 1.2333239372171236e6 0.0
0.0 0.0 0.0

545046.2179684392 1.069096221065792e7 0.0
1.069096221065792e7 -7.734994364633689e6 0.0
0.0 0.0 0.0

-1.02507531036844e7 6.361101063560298e6 0.0
6.361101063560298e6 1.1812486576159008e7 0.0
0.0 0.0 0.0

-3.746690098119068e6 1.2496935577150734e7 0.0
1.2496935577150734e7 -2.0615668597310227e6 0.0
0.0 0.0 0.0

151085.85793193802 7.6104917282390315e6 0.0
7.6104917282390315e6 -5.531282168005838e6 0.0
0.0 0.0 0.0

-9.34272655844814e6 9.1687021551529e6 0.0
9.1687021551529e6 1.6444250356496464e7 0.0
0.0 0.0 0.0

-2.5734634171023783e6 9.451883121482857e6 0.0
9.451883121482857e6 -731221.9797756202 0.0
0.0 0.0 0.0

-7.013193621115331e6 1.0409540869973894e7 0.0
1.0409540869973894e7 8.473942649169454e6 0.0
0.0 0.0 0.0

476238.4124230929 1.085480306077244e7 0.0
1.085480306077244e7 -7.424229503583809e6 0.0
0.0 0.0 0.0

2.3325229908435732e7 7.161099049459325e6 0.0
7.161099049459325e6 -4.157775130424957e6 0.0
0.0 0.0 0.0

-4.245878094291407e6 1.1867438204932883e7 0.0
1.1867438204932883e7 -129321.21319671138 0.0
0.0 0.0 0.0

-6.806234656973663e6 1.4522595759693066e7 0.0
1.4522595759693066e7 3.4297321404211894e6 0.0
0.0 0.0 0.0

-178495.83968024584 7.937539969870093e6 0.0
7.937539969870093e6 -5.298496964375002e6 0.0
0.0 0.0 0.0

595144.6852194893 7.81660777788014e6 0.0
7.81660777788014e6 -5.469497474698369e6 0.0
0.0 0.0 0.0

-2.5103952020838493e6 9.330073198868742e6 0.0
9.330073198868742e6 -2.01578321411186e6 0.0
0.0 0.0 0.0

-4.700599500270044e6 5.459867855230381e6 0.0
5.459867855230381e6 5.058137305898819e6 0.0
0.0 0.0 0.0

638919.9198131007 1.0263619807451995e7 0.0
1.0263619807451995e7 -8.864548280534014e6 0.0
0.0 0.0 0.0

3.3009816483242395e6 5.7841004932754235e6 0.0
5.7841004932754235e6 -5.669033992958806e6 0.0
0.0 0.0 0.0

-737711.2025738186 9.125185728794241e6 0.0
9.125185728794241e6 -5.145493943951901e6 0.0
0.0 0.0 0.0

-1.4284770563003445e7 9.671073073704798e6 0.0
9.671073073704798e6 1.0645661372102652e7 0.0
0.0 0.0 0.0

-1.0868565574520654e6 6.781425829560623e6 0.0
6.781425829560623e6 -2.408816948144418e6 0.0
0.0 0.0 0.0

-9.54264919847427e6 1.0117008124800436e7 0.0
1.0117008124800436e7 2.084073173200375e7 0.0
0.0 0.0 0.0

-3.9409311443962646e6 1.1618741887643764e7 0.0
1.1618741887643764e7 3.729903072926034e6 0.0
0.0 0.0 0.0

2.8377626165012177e6 9.844332928114468e6 0.0
9.844332928114468e6 -2.9697455201312075e6 0.0
0.0 0.0 0.0

-6.578648567383906e6 1.233617991453944e7 0.0
1.233617991453944e7 5.19715813245775e6 0.0
0.0 0.0 0.0

-4.515286665233068e6 1.2038946327949636e7 0.0
1.2038946327949636e7 481961.3654834309 0.0
0.0 0.0 0.0

-6.522488839942075e6 1.1554752719473047e7 0.0
1.1554752719473047e7 4.825056737436232e6 0.0
0.0 0.0 0.0

-4.1211382018537186e6 5.749238154928075e6 0.0
5.749238154928075e6 3.7720576733498108e6 0.0
0.0 0.0 0.0

-4.7020604306308385e6 7.5200983580345e6 0.0
7.5200983580345e6 3.9629480246149786e6 0.0
0.0 0.0 0.0

-1.461920387981432e6 4.0541164395787288e6 0.0
4.0541164395787288e6 -783930.3128765891 0.0
0.0 0.0 0.0

2.329723098575154e6 8.431309804936128e6 0.0
8.431309804936128e6 1.9336829911016999e6 0.0
0.0 0.0 0.0

332075.7617704482 1.1057174302821422e7 0.0
1.1057174302821422e7 -7.067447429806124e6 0.0
0.0 0.0 0.0

-4.507310461198034e6 1.184277188650689e7 0.0
1.184277188650689e7 737193.7720025175 0.0
0.0 0.0 0.0

-5.938955370731683e6 1.1320697447136862e7 0.0
1.1320697447136862e7 3.4382623912592144e6 0.0
0.0 0.0 0.0

-957203.1239168933 2.0830149047217336e6 0.0
2.0830149047217336e6 -387103.6283969047 0.0
0.0 0.0 0.0

-6.613146846462236e6 1.1949223455244105e7 0.0
1.1949223455244105e7 4.599297620355058e6 0.0
0.0 0.0 0.0

-2.508127969076699e6 8.19767500490879e6 0.0
8.19767500490879e6 -28190.59130084503 0.0
0.0 0.0 0.0

-6.874281505353989e6 1.2231953784464402e7 0.0
1.2231953784464402e7 5.159325957001671e6 0.0
0.0 0.0 0.0

3.130092229286846e6 9.718158229409099e6 0.0
9.718158229409099e6 -3.080598230878848e6 0.0
0.0 0.0 0.0

-6.05942933839611e6 1.3584525314122574e7 0.0
1.3584525314122574e7 2.387019189978666e6 0.0
0.0 0.0 0.0

1.6352567084010574e6 6.019360200091995e6 0.0
6.019360200091995e6 -7.029383003490483e6 0.0
0.0 0.0 0.0

-6.299567270947676e6 3.5397254425047315e6 0.0
3.5397254425047315e6 8.81380354538088e6 0.0
0.0 0.0 0.0

1.0271074610311813e6 1.1262877539954312e7 0.0
1.1262877539954312e7 -6.0721483461169265e6 0.0
0.0 0.0 0.0

149653.35870915558 1.1266298461943472e7 0.0
1.1266298461943472e7 -6.691037649043786e6 0.0
0.0 0.0 0.0

-2.2480358842991022e6 9.133734209419534e6 0.0
9.133734209419534e6 -1.0735704115841729e6 0.0
0.0 0.0 0.0

-3.0561707844392797e6 1.178927521816406e7 0.0
1.178927521816406e7 1.4096437226951248e6 0.0
0.0 0.0 0.0

-2.9647753171025906e6 1.301315332316775e7 0.0
1.301315332316775e7 -1.8900410977897504e6 0.0
0.0 0.0 0.0

1.143423057142115e6 1.0287372342614431e7 0.0
1.0287372342614431e7 -5.879942344947923e6 0.0
0.0 0.0 0.0

-4.2168738676605355e6 6.628020988664908e6 0.0
6.628020988664908e6 2.740534305516191e6 0.0
0.0 0.0 0.0

1.2218213524681763e6 7.536443996943989e6 0.0
7.536443996943989e6 -6.198508777050718e6 0.0
0.0 0.0 0.0

847820.175124988 1.0761575390939178e7 0.0
1.0761575390939178e7 -7.303770204648554e6 0.0
0.0 0.0 0.0

-2.865138867412028e6 9.948740017638601e6 0.0
9.948740017638601e6 4.501757785604497e6 0.0
0.0 0.0 0.0

-3.3158151075033536e6 1.0137967035976408e7 0.0
1.0137967035976408e7 -966285.130711316 0.0
0.0 0.0 0.0

3.017319670668139e6 7.181446947808659e6 0.0
7.181446947808659e6 -9.850157917017087e6 0.0
0.0 0.0 0.0

4.155746810522167e6 6.811425439253117e6 0.0
6.811425439253117e6 -1.1866316874238726e7 0.0
0.0 0.0 0.0

-3.548697857635077e6 7.277375773909429e6 0.0
7.277375773909429e6 973386.4553316634 0.0
0.0 0.0 0.0

-5.926272256620418e6 1.1580125419926064e7 0.0
1.1580125419926064e7 3.3401484836603007e6 0.0
0.0 0.0 0.0

-3.04136688452202e6 3.1459811661139047e6 0.0
3.1459811661139047e6 3.2513578836393217e6 0.0
0.0 0.0 0.0

-4.1370760447077733e6 7.091975283489119e6 0.0
7.091975283489119e6 2.0162414961470105e6 0.0
0.0 0.0 0.0

-5.160940856261918e6 8.856047533225948e6 0.0
8.856047533225948e6 2.819273118880954e6 0.0
0.0 0.0 0.0

1.0455050491166287e6 7.419514736166679e6 0.0
7.419514736166679e6 -5.8030994663805645e6 0.0
0.0 0.0 0.0

3.058039823468497e6 5.574726634478325e6 0.0
5.574726634478325e6 -8.83534733326746e6 0.0
0.0 0.0 0.0

-4.5208343224357795e6 8.56667885751659e6 0.0
8.56667885751659e6 3.1453904234376643e6 0.0
0.0 0.0 0.0

-9.469133273631236e6 1.219467394865379e7 0.0
1.219467394865379e7 2.677208509767361e7 0.0
0.0 0.0 0.0

-4.676085159023765e6 9.379508141492223e6 0.0
9.379508141492223e6 2.9659399531789375e6 0.0
0.0 0.0 0.0

-4.860200297680805e6 1.2098281654612742e7 0.0
1.2098281654612742e7 954943.3653462594 0.0
0.0 0.0 0.0

-38202.20207652543 8.533294305627216e6 0.0
8.533294305627216e6 -5.496064115608636e6 0.0
0.0 0.0 0.0

-5.794549512472799e6 1.2540554356527682e7 0.0
1.2540554356527682e7 2.840832019295345e6 0.0
0.0 0.0 0.0

-5.52553447331846e6 1.1301633183110463e7 0.0
1.1301633183110463e7 3.4279748623742145e6 0.0
0.0 0.0 0.0

-1.155778763921393e6 1.2076667731112743e7 0.0
1.2076667731112743e7 5.089461275553149e6 0.0
0.0 0.0 0.0

2.7031529214715976e6 6.112926448996836e6 0.0
6.112926448996836e6 -5.641383052465918e6 0.0
0.0 0.0 0.0

-336857.2602131942 1.2600770580675587e7 0.0
1.2600770580675587e7 -4.585502408090588e6 0.0
0.0 0.0 0.0

1.5642448250632065e6 5.109966365273262e6 0.0
5.109966365273262e6 -5.609270773876447e6 0.0
0.0 0.0 0.0

-3.279006451048054e6 6.402105957570813e6 0.0
6.402105957570813e6 2.26260132575052e6 0.0
0.0 0.0 0.0

-5.746162670646587e6 1.0505682950306347e7 0.0
1.0505682950306347e7 3.3811196641528336e6 0.0
0.0 0.0 0.0

-3.24009479715783e6 1.0382532504219424e7 0.0
1.0382532504219424e7 -583733.2255944893 0.0
0.0 0.0 0.0

559095.3076628852 7.114900640209601e6 0.0
7.114900640209601e6 -5.20283706188865e6 0.0
0.0 0.0 0.0

838780.7761113723 1.080198402488816e7 0.0
1.080198402488816e7 -6.112903965495234e6 0.0
0.0 0.0 0.0

-5.117395250936362e6 1.2255791420406317e7 0.0
1.2255791420406317e7 1.3965717830097387e6 0.0
0.0 0.0 0.0

-5.742915276444811e6 2.0381527798590895e6 0.0
2.0381527798590895e6 8.237216582041718e6 0.0
0.0 0.0 0.0

-5.594137890407395e6 8.266767998073218e6 0.0
8.266767998073218e6 5.407208741856897e6 0.0
0.0 0.0 0.0

-2.9167670740508246e6 5.626784233150669e6 0.0
5.626784233150669e6 1.9223147261482237e6 0.0
0.0 0.0 0.0

-2.697282785502457e6 7.887578347714229e6 0.0
7.887578347714229e6 -516577.82838612347 0.0
0.0 0.0 0.0

-6.269268558017448e6 1.1426280394488255e7 0.0
1.1426280394488255e7 5.027376293099517e6 0.0
0.0 0.0 0.0

-3.314809783524488e6 9.993775171272164e6 0.0
9.993775171272164e6 -471673.7937545929 0.0
0.0 0.0 0.0

-6.103531051960866e6 1.2244518293798834e7 0.0
1.2244518293798834e7 3.0823459963096613e6 0.0
0.0 0.0 0.0

-1.5187506694857243e6 4.901610284324942e6 0.0
4.901610284324942e6 -934932.811563232 0.0
0.0 0.0 0.0

-4.313275637650428e6 7.346309241246347e6 0.0
7.346309241246347e6 3.367752553362898e6 0.0
0.0 0.0 0.0

-5.976058380803024e6 1.1832260344926922e7 0.0
1.1832260344926922e7 3.2579492528096605e6 0.0
0.0 0.0 0.0

-1.9938126561221038e6 1.286191018649588e7 0.0
1.286191018649588e7 -3.2087001165973363e6 0.0
0.0 0.0 0.0

-1.1896371241072621e6 1.0396496332737945e7 0.0
1.0396496332737945e7 6.246167271825248e6 0.0
0.0 0.0 0.0

-2.5018900805582204e6 7.7687267556148e6 0.0
7.7687267556148e6 152866.26293290989 0.0
0.0 0.0 0.0

-2.0669357399641753e6 1.4332718204267472e7 0.0
1.4332718204267472e7 -2.4168973468514537e6 0.0
0.0 0.0 0.0

-3.2502997594625996e6 7.919326457392697e6 0.0
7.919326457392697e6 1.2669236109915841e6 0.0
0.0 0.0 0.0

-5.191752813090255e6 8.016784631477558e6 0.0
8.016784631477558e6 4.55675272451731e6 0.0
0.0 0.0 0.0

-1.4636897435217097e6 5.272257307033561e6 0.0
5.272257307033561e6 -392810.2141148216 0.0
0.0 0.0 0.0

-6.034547435405755e6 1.20387117148641e7 0.0
1.20387117148641e7 3.164121476663185e6 0.0
0.0 0.0 0.0

1.894370479992852e6 6.4468140075825555e6 0.0
6.4468140075825555e6 -6.912572148945954e6 0.0
0.0 0.0 0.0

1.5817461863570074e6 7.092113892819529e6 0.0
7.092113892819529e6 -6.648257420752659e6 0.0
0.0 0.0 0.0

-6.352311095147903e6 1.2070547924533645e7 0.0
1.2070547924533645e7 5.380331284842327e6 0.0
0.0 0.0 0.0

-555940.8852349304 7.842331010019399e6 0.0
7.842331010019399e6 -3.5679208924390743e6 0.0
0.0 0.0 0.0

607542.9976166491 7.4762571197943725e6 0.0
7.4762571197943725e6 -5.326246576542861e6 0.0
0.0 0.0 0.0

-7.039195947118531e6 1.3335349971970342e7 0.0
1.3335349971970342e7 3.8921295194548895e6 0.0
0.0 0.0 0.0

-5.572293019902128e6 1.2450631571717855e7 0.0
1.2450631571717855e7 2.3720028084686673e6 0.0
0.0 0.0 0.0

-3.7203517622118345e6 1.0659730206922106e7 0.0
1.0659730206922106e7 -834688.2068073541 0.0
0.0 0.0 0.0

721101.5597946709 1.053173088266209e7 0.0
1.053173088266209e7 -8.450020309719466e6 0.0
0.0 0.0 0.0

-7.303816649742311e6 1.2997750341013717e7 0.0
1.2997750341013717e7 4.887692302904938e6 0.0
0.0 0.0 0.0

-5.981348360607965e6 8.529471082866667e6 0.0
8.529471082866667e6 6.251488693716202e6 0.0
0.0 0.0 0.0

515604.7581761114 6.632351612814791e6 0.0
6.632351612814791e6 -5.485233090435789e6 0.0
0.0 0.0 0.0

-7.785095296665292e6 1.4854734092458738e7 0.0
1.4854734092458738e7 4.843817607152341e6 0.0
0.0 0.0 0.0

-2.8112592973441915e6 1.1932682642963145e7 0.0
1.1932682642963145e7 2.7748578163923677e6 0.0
0.0 0.0 0.0

-5.35760398030157e6 1.2369578108501963e7 0.0
1.2369578108501963e7 1.9383382846695522e6 0.0
0.0 0.0 0.0

-77312.24233719101 1.1480602890308283e7 0.0
1.1480602890308283e7 -6.316525099251749e6 0.0
0.0 0.0 0.0

-5.9783578160927035e6 1.2463159562568104e7 0.0
1.2463159562568104e7 3.4464214092345866e6 0.0
0.0 0.0 0.0

-5.904279635137683e6 1.1534343493173484e7 0.0
1.1534343493173484e7 5.805412607559266e6 0.0
0.0 0.0 0.0

-6.16508016136539e6 1.2555519629123349e7 0.0
1.2555519629123349e7 2.885822385195215e6 0.0
0.0 0.0 0.0

-6.980029353755452e6 1.6875102779701747e7 0.0
1.6875102779701747e7 2.913376513268651e6 0.0
0.0 0.0 0.0

-6.275745620577268e6 6.737186152052622e6 0.0
6.737186152052622e6 7.685936016781269e6 0.0
0.0 0.0 0.0

344083.9864696723 7.845783272217415e6 0.0
7.845783272217415e6 -5.155675166227251e6 0.0
0.0 0.0 0.0

-5.3257035442189025e6 5.449445122562392e6 0.0
5.449445122562392e6 6.137454897119859e6 0.0
0.0 0.0 0.0

-3.9996431849061213e6 6.694708837797416e6 0.0
6.694708837797416e6 2.226696172084857e6 0.0
0.0 0.0 0.0

-1.355234884941986e6 -2.1923361381044993e6 0.0
-2.1923361381044993e6 2.463869054385701e6 0.0
0.0 0.0 0.0

-1.4664128608685553e6 -1.1249317925664994e6 0.0
-1.1249317925664994e6 2.097526980263369e6 0.0
0.0 0.0 0.0

-6.701761529047408e6 6.751670656652494e6 0.0
6.751670656652494e6 8.421118602879258e6 0.0
0.0 0.0 0.0

2.4695470007005422e6 9.95791128006694e6 0.0
9.95791128006694e6 921696.4697436357 0.0
0.0 0.0 0.0

-5.9368333475733055e6 1.3126849560325123e7 0.0
1.3126849560325123e7 2.5028576892436496e6 0.0
0.0 0.0 0.0

-3.726697363676743e6 1.094806709710599e7 0.0
1.094806709710599e7 -534870.240998891 0.0
0.0 0.0 0.0

322149.4202659661 8.174751987105746e6 0.0
8.174751987105746e6 -5.3345976448059315e6 0.0
0.0 0.0 0.0

-1.1267428962081973e6 1.2017884454224987e7 0.0
1.2017884454224987e7 3.783995710311245e6 0.0
0.0 0.0 0.0

-7.531514876620119e6 1.304059463177553e7 0.0
1.304059463177553e7 5.677487374987472e6 0.0
0.0 0.0 0.0

-7.402137794519808e6 1.3551229190503916e7 0.0
1.3551229190503916e7 4.173250661717539e6 0.0
0.0 0.0 0.0

-7.69265475006722e6 1.3981699140356367e7 0.0
1.3981699140356367e7 4.224028755052724e6 0.0
0.0 0.0 0.0

-5.693216918219701e6 8.861594332149832e6 0.0
8.861594332149832e6 3.8770217153967335e6 0.0
0.0 0.0 0.0

-4.0280435786308544e6 7.471619321705044e6 0.0
7.471619321705044e6 1.5814668720917376e6 0.0
0.0 0.0 0.0

-2.335872846293279e6 5.550674340599852e6 0.0
5.550674340599852e6 -32311.743206768413 0.0
0.0 0.0 0.0

-5.922894027457826e6 1.0520247820355823e7 0.0
1.0520247820355823e7 4.71267852133121e6 0.0
0.0 0.0 0.0

-3.314573757546124e6 7.342595601268284e6 0.0
7.342595601268284e6 1.7363032400413493e6 0.0
0.0 0.0 0.0

-7.2418407508846335e6 5.362179198717705e6 0.0
5.362179198717705e6 1.023778535803793e7 0.0
0.0 0.0 0.0

277879.0787445812 8.487090300702276e6 0.0
8.487090300702276e6 -5.498837324121207e6 0.0
0.0 0.0 0.0

-5.973063087094206e6 9.4519743680299e6 0.0
9.4519743680299e6 4.05253164461157e6 0.0
0.0 0.0 0.0

-6.934920440432461e6 4.552595508626e6 0.0
4.552595508626e6 1.0126599707905876e7 0.0
0.0 0.0 0.0

-3.89070250414337e6 1.0734460993845344e7 0.0
1.0734460993845344e7 3.3245923530015587e6 0.0
0.0 0.0 0.0

-3.4672394289886467e6 7.934520214657715e6 0.0
7.934520214657715e6 542094.1674618546 0.0
0.0 0.0 0.0

-6.263992319357188e6 1.2690438131017206e7 0.0
1.2690438131017206e7 3.81022704726923e6 0.0
0.0 0.0 0.0

-5.673571605010817e6 1.2233685053884927e7 0.0
1.2233685053884927e7 3.0637219785817056e6 0.0
0.0 0.0 0.0

-5.99120242609201e6 1.1631345616128592e7 0.0
1.1631345616128592e7 5.655401691086404e6 0.0
0.0 0.0 0.0

618283.3567937436 1.0753341409703324e7 0.0
1.0753341409703324e7 -7.841891546351931e6 0.0
0.0 0.0 0.0

-5.773428371682509e6 1.0164544311791992e7 0.0
1.0164544311791992e7 3.7325667492555063e6 0.0
0.0 0.0 0.0

-5.968614161953876e6 8.874017535085758e6 0.0
8.874017535085758e6 5.937005432847312e6 0.0
0.0 0.0 0.0

-3.4382714969885224e6 1.0632572088333938e7 0.0
1.0632572088333938e7 -795290.1684596029 0.0
0.0 0.0 0.0

-6.820463387141333e6 1.4951587052906713e7 0.0
1.4951587052906713e7 3.4194923740092153e6 0.0
0.0 0.0 0.0

-6.070964659903936e6 1.1708130506474782e7 0.0
1.1708130506474782e7 5.593861167061726e6 0.0
0.0 0.0 0.0

-3.517526252035822e6 1.049735506818793e7 0.0
1.049735506818793e7 -1.2859675268944902e6 0.0
0.0 0.0 0.0

1.516011446019466e6 7.309058090540239e6 0.0
7.309058090540239e6 -6.859432167980588e6 0.0
0.0 0.0 0.0

-4.944097018238694e6 8.867337964393392e6 0.0
8.867337964393392e6 3.7729092595720007e6 0.0
0.0 0.0 0.0

-3.072819944152784e6 1.3873098242817843e7 0.0
1.3873098242817843e7 -1.604191135500772e6 0.0
0.0 0.0 0.0

2.3658477001210116e6 5.641527269658229e6 0.0
5.641527269658229e6 -4.435524769960199e6 0.0
0.0 0.0 0.0

1.9161585861826083e6 7.630991997818081e6 0.0
7.630991997818081e6 -9.16532819947099e6 0.0
0.0 0.0 0.0

-2.6107250368557763e6 1.0121060035455327e7 0.0
1.0121060035455327e7 -2.1198272896724003e6 0.0
0.0 0.0 0.0

1.1403200041211622e6 1.0449439050338702e7 0.0
1.0449439050338702e7 3.1714937482860726e6 0.0
0.0 0.0 0.0

1.2031942612170377e6 7.512973994626322e6 0.0
7.512973994626322e6 -7.184686448996179e6 0.0
0.0 0.0 0.0

1.0194204921684354e6 7.93607057602111e6 0.0
7.93607057602111e6 -7.111621438179645e6 0.0
0.0 0.0 0.0

610804.5711335861 8.615288207996797e6 0.0
8.615288207996797e6 -323409.0728923065 0.0
0.0 0.0 0.0

-5.264933359050702e6 2.889413602435063e6 0.0
2.889413602435063e6 7.1191208596099075e6 0.0
0.0 0.0 0.0

-2.9450830916526066e6 5.825031799063416e6 0.0
5.825031799063416e6 861579.6903190217 0.0
0.0 0.0 0.0

-1.231525472063907e6 1.1138760911428338e7 0.0
1.1138760911428338e7 -9.972368903168924e6 0.0
0.0 0.0 0.0

-4.534545350198585e6 7.586020055979977e6 0.0
7.586020055979977e6 2.438111242397869e6 0.0
0.0 0.0 0.0

-4.3450244849903695e6 5.781572648110997e6 0.0
5.781572648110997e6 2.9895207017049994e6 0.0
0.0 0.0 0.0

-1.2976449550292236e6 9.597239872878227e6 0.0
9.597239872878227e6 2.8731857662655273e6 0.0
0.0 0.0 0.0

-3.7719245927088168e6 -604473.755103459 0.0
-604473.755103459 4.220404752244204e6 0.0
0.0 0.0 0.0

-5.179352439434946e6 8.653501659599304e6 0.0
8.653501659599304e6 3.0552758178146062e6 0.0
0.0 0.0 0.0

-6.393558886218961e6 1.1654736158825302e7 0.0
1.1654736158825302e7 5.27765876431873e6 0.0
0.0 0.0 0.0

-1.6325656636489811e6 1.018740114391427e7 0.0
1.018740114391427e7 -4.367141017260149e6 0.0
0.0 0.0 0.0

55981.93865582161 1.8909074050638664e6 0.0
1.8909074050638664e6 -2.0357740013689052e6 0.0
0.0 0.0 0.0

-2.0009497706628903e6 5.399861100512692e6 0.0
5.399861100512692e6 -568077.8478045276 0.0
0.0 0.0 0.0

3.4714264267244153e6 7.893919388423635e6 0.0
7.893919388423635e6 -1.333802256145178e7 0.0
0.0 0.0 0.0

-6.349322667189235e6 1.558127458638043e7 0.0
1.558127458638043e7 2.5498681706414935e6 0.0
0.0 0.0 0.0

-1.006354586444406e7 3.839918846010435e6 0.0
3.839918846010435e6 1.457552567054212e7 0.0
0.0 0.0 0.0

-2.282980939641373e6 9.525322856267573e6 0.0
9.525322856267573e6 -1.8453965979639478e6 0.0
0.0 0.0 0.0

-5.03656879929138e6 5.394373109267551e6 0.0
5.394373109267551e6 3.962048257274866e6 0.0
0.0 0.0 0.0

-9.057260146437276e6 1.0220722065486817e7 0.0
1.0220722065486817e7 6.718187478131081e6 0.0
0.0 0.0 0.0

-837718.9219351904 1.1507064582841154e7 0.0
1.1507064582841154e7 -1.376626024024399e6 0.0
0.0 0.0 0.0

-1.0813192366052237e6 1.1054218301516345e7 0.0
1.1054218301516345e7 1.8311105153229847e6 0.0
0.0 0.0 0.0

2.1913556085221367e6 7.41590317821671e6 0.0
7.41590317821671e6 -9.5475825094372e6 0.0
0.0 0.0 0.0

-4.768315724978456e6 6.478905315105483e6 0.0
6.478905315105483e6 241466.8140096108 0.0
0.0 0.0 0.0

-8.750586696738195e6 1.8016225017969705e7 0.0
1.8016225017969705e7 1.4149731996577764e6 0.0
0.0 0.0 0.0

-5.339522559385465e6 9.185541833856324e6 0.0
9.185541833856324e6 4.361304231143769e6 0.0
0.0 0.0 0.0

-4.342433531104401e6 -1.289533763323642e6 0.0
-1.289533763323642e6 4.759537624438876e6 0.0
0.0 0.0 0.0

-2.3342869510490336e6 1.1127357230350967e7 0.0
1.1127357230350967e7 2.81633525126065e6 0.0
0.0 0.0 0.0

-7.453158038558998e6 1.2452849656905865e7 0.0
1.2452849656905865e7 5.109008290116361e6 0.0
0.0 0.0 0.0

-1.342274013598538e6 5.294961601253456e6 0.0
5.294961601253456e6 -1.5473634196041906e6 0.0
0.0 0.0 0.0

-4.01915694757077e6 1.2405332492540233e7 0.0
1.2405332492540233e7 7.94133065033308e6 0.0
0.0 0.0 0.0

-5.355389187349893e6 7.591147691679833e6 0.0
7.591147691679833e6 3.914446342469818e6 0.0
0.0 0.0 0.0

-4.331646810653564e6 6.92902511920166e6 0.0
6.92902511920166e6 2.7665481177672674e6 0.0
0.0 0.0 0.0

-1.0071979525140919e7 2.733936622443488e6 0.0
2.733936622443488e6 1.4160504643003568e7 0.0
0.0 0.0 0.0

-2.8177535436437204e6 1.0969349709250001e7 0.0
1.0969349709250001e7 4.067992373087622e6 0.0
0.0 0.0 0.0

-8.303395726364838e6 1.2477155636552595e7 0.0
1.2477155636552595e7 6.202658436460124e6 0.0
0.0 0.0 0.0

-8.804836793509912e6 1.49127589361417e7 0.0
1.49127589361417e7 4.985126988264991e6 0.0
0.0 0.0 0.0

-6.202233615191042e6 9.900972064186675e6 0.0
9.900972064186675e6 4.476076427036304e6 0.0
0.0 0.0 0.0

3.072957984408583e6 4.725702670547644e6 0.0
4.725702670547644e6 -4.871614295761965e6 0.0
0.0 0.0 0.0

812269.8671829791 8.077273927911367e6 0.0
8.077273927911367e6 -5.853990265661814e6 0.0
0.0 0.0 0.0

205668.37922498863 7.199418404896534e6 0.0
7.199418404896534e6 -4.890650428291505e6 0.0
0.0 0.0 0.0

-4.468713786834644e6 7.761679893459867e6 0.0
7.761679893459867e6 2.2313035423540967e6 0.0
0.0 0.0 0.0

-1.4170452294995949e7 2.068465102056316e7 0.0
2.068465102056316e7 4.940791672962056e6 0.0
0.0 0.0 0.0

-1.5356254128719275e6 4.532170688428269e6 0.0
4.532170688428269e6 -837138.5370118215 0.0
0.0 0.0 0.0

-6.191495256374811e6 1.3987307657664161e7 0.0
1.3987307657664161e7 2.4852109626437477e6 0.0
0.0 0.0 0.0

-3.6158533638324547e6 1.4163214943571884e7 0.0
1.4163214943571884e7 -921021.1774494656 0.0
0.0 0.0 0.0

-1.254889922416567e6 5.593638072803913e6 0.0
5.593638072803913e6 -1.1065677563897935e6 0.0
0.0 0.0 0.0

-619498.0200116067 7.876816626819123e6 0.0
7.876816626819123e6 -2.440621691091902e6 0.0
0.0 0.0 0.0

612281.3760395455 1.1261246887937034e7 0.0
1.1261246887937034e7 5.882275770588574e6 0.0
0.0 0.0 0.0

-453191.4466308933 1.2940115513900409e7 0.0
1.2940115513900409e7 5.677727732381983e6 0.0
0.0 0.0 0.0

-1.1210299924635487e6 1.1067380442825234e7 0.0
1.1067380442825234e7 1.5233819303700123e6 0.0
0.0 0.0 0.0

-4.917234638200076e6 7.417012653910719e6 0.0
7.417012653910719e6 3.301711935128049e6 0.0
0.0 0.0 0.0

-1.3206019295827523e7 1.9160235489651054e7 0.0
1.9160235489651054e7 5.263458473193142e6 0.0
0.0 0.0 0.0

-1.3007913676832743e7 1.0758400517272294e7 0.0
1.0758400517272294e7 7.332902065827682e6 0.0
0.0 0.0 0.0

-4.702711893417159e6 7.0553233962256e6 0.0
7.0553233962256e6 3.3350048119581956e6 0.0
0.0 0.0 0.0

1.6558553197683757e6 9.187934632451354e6 0.0
9.187934632451354e6 -1.004996743067085e7 0.0
0.0 0.0 0.0

3.570095533857859e6 5.587223740328537e6 0.0
5.587223740328537e6 -9.814994687531801e6 0.0
0.0 0.0 0.0

-803718.0167170308 9.972762925252456e6 0.0
9.972762925252456e6 -4.680192492527465e6 0.0
0.0 0.0 0.0

559018.8147966599 8.14306391774875e6 0.0
8.14306391774875e6 -5.607592979132583e6 0.0
0.0 0.0 0.0

-1.4143594073152484e6 1.0442666808249071e7 0.0
1.0442666808249071e7 -3.9263167367988266e6 0.0
0.0 0.0 0.0

-1.5099080848337796e7 2.249192519843097e7 0.0
2.249192519843097e7 3.2081714609237127e6 0.0
0.0 0.0 0.0

-4.926197751287039e6 1.0459257415212998e7 0.0
1.0459257415212998e7 2.7373415690779975e6 0.0
0.0 0.0 0.0

-2.8144860386087717e6 1.205493026156105e7 0.0
1.205493026156105e7 -3.2715480597263374e6 0.0
0.0 0.0 0.0

-2.8365131332057277e6 1.1389484116073621e7 0.0
1.1389484116073621e7 -3.0949534908116353e6 0.0
0.0 0.0 0.0

843437.3718524745 7.45971206138584e6 0.0
7.45971206138584e6 -5.583930901693671e6 0.0
0.0 0.0 0.0

-6.497887194472397e6 1.0714763088407042e7 0.0
1.0714763088407042e7 5.191240256226018e6 0.0
0.0 0.0 0.0

-1.7904731845317117e6 1.1379899156109741e7 0.0
1.1379899156109741e7 2.9732886249001347e6 0.0
0.0 0.0 0.0

-4.1195165946572153e6 1.2216552444393318e7 0.0
1.2216552444393318e7 3.146779693490866e6 0.0
0.0 0.0 0.0

-1.1898936058079613e7 2.642855677137935e6 0.0
2.642855677137935e6 3.3368608951421894e7 0.0
0.0 0.0 0.0

-746083.3576057366 3.2557773752426542e6 0.0
3.2557773752426542e6 7331.357086710021 0.0
0.0 0.0 0.0

-2.5638746043536454e7 3.404263443470298e7 0.0
3.404263443470298e7 -1.3920289153502973e7 0.0
0.0 0.0 0.0

-937712.6902970604 1.1392965895042794e7 0.0
1.1392965895042794e7 2.7980637952578254e6 0.0
0.0 0.0 0.0

-1.219067760110874e7 1.814136515585277e7 0.0
1.814136515585277e7 5.88157184609244e6 0.0
0.0 0.0 0.0

-1.9269044004068389e6 9.553227193056654e6 0.0
9.553227193056654e6 -2.769568809385116e6 0.0
0.0 0.0 0.0

-1.0624964876914122e6 1.2305028630415644e7 0.0
1.2305028630415644e7 -4.996849698395645e6 0.0
0.0 0.0 0.0

-5.820276405496965e6 1.0913882033504542e7 0.0
1.0913882033504542e7 4.258446899786802e6 0.0
0.0 0.0 0.0

1.543493392179322e6 4.5428040438635815e6 0.0
4.5428040438635815e6 -5.669713682473146e6 0.0
0.0 0.0 0.0

3.629304428544343e6 9.765850374725802e6 0.0
9.765850374725802e6 -2.9577372507415893e6 0.0
0.0 0.0 0.0

758148.1689124326 8.337550103470075e6 0.0
8.337550103470075e6 -6.055310626076408e6 0.0
0.0 0.0 0.0

-1.3018950474202468e6 1.3590784727704914e7 0.0
1.3590784727704914e7 -3.4941260689236927e6 0.0
0.0 0.0 0.0

2.6256979508698722e6 7.154397962241162e6 0.0
7.154397962241162e6 -9.146141562489813e6 0.0
0.0 0.0 0.0

-4.809420009393202e6 9.214153306398202e6 0.0
9.214153306398202e6 3.375007904079496e6 0.0
0.0 0.0 0.0

511651.2056495149 6.936823407948183e6 0.0
6.936823407948183e6 -5.586467791039411e6 0.0
0.0 0.0 0.0

-564868.1265950609 6.689216244075757e6 0.0
6.689216244075757e6 -2.289631054962067e6 0.0
0.0 0.0 0.0

-6.161164646202428e6 1.1155776688772997e7 0.0
1.1155776688772997e7 684280.458643171 0.0
0.0 0.0 0.0

1.3176818030030131e6 7.743933365245828e6 0.0
7.743933365245828e6 -6.799435145904603e6 0.0
0.0 0.0 0.0

-2.3818598067919994e6 9.082236110051783e6 0.0
9.082236110051783e6 -1.509905153151177e6 0.0
0.0 0.0 0.0

-3.679364238488189e6 1.1550501528454779e7 0.0
1.1550501528454779e7 -1.8696521882043593e6 0.0
0.0 0.0 0.0

-4.1380653721687263e6 1.0942237864815481e7 0.0
1.0942237864815481e7 6.030420933930158e6 0.0
0.0 0.0 0.0

1.2854293932078618e6 9.562502396563297e6 0.0
9.562502396563297e6 -4.193875545311918e6 0.0
0.0 0.0 0.0

-4.0818381823976315e6 7.282645899551206e6 0.0
7.282645899551206e6 1.8221986416463682e6 0.0
0.0 0.0 0.0

-9.653039424958225e6 1.6141947404834302e6 0.0
1.6141947404834302e6 1.1091743653490607e7 0.0
0.0 0.0 0.0

-4.499828850594284e6 1.100743088976545e7 0.0
1.100743088976545e7 6.072711163106721e6 0.0
0.0 0.0 0.0

-5.896868426053091e6 8.087322820657196e6 0.0
8.087322820657196e6 4.496747395447457e6 0.0
0.0 0.0 0.0

-6.315936329049975e6 1.3494885284681947e6 0.0
1.3494885284681947e6 7.357216216043008e6 0.0
0.0 0.0 0.0

-5.436691560174391e6 9.056375767416323e6 0.0
9.056375767416323e6 4.609680975399213e6 0.0
0.0 0.0 0.0

-5.810955871589823e6 1.1351251767966773e7 0.0
1.1351251767966773e7 5.774626683516683e6 0.0
0.0 0.0 0.0

-1.234387438003197e6 4.258199248614442e6 0.0
4.258199248614442e6 -54182.63700626616 0.0
0.0 0.0 0.0

-3.2396195742521384e6 1.1495015381764626e7 0.0
1.1495015381764626e7 -2.5255281093529994e6 0.0
0.0 0.0 0.0

-5.698555507371588e6 1.0765733447933784e7 0.0
1.0765733447933784e7 3.224799156951762e6 0.0
0.0 0.0 0.0

-6.306768744819934e6 8.415911398671007e6 0.0
8.415911398671007e6 5.209709154987762e6 0.0
0.0 0.0 0.0

-9.97985450626516e6 -2.2582803212853223e6 0.0
-2.2582803212853223e6 1.3792067823592983e7 0.0
0.0 0.0 0.0

-2.4260892394520584e6 1.1525659248074476e7 0.0
1.1525659248074476e7 2.461083889959842e6 0.0
0.0 0.0 0.0

-4.158132444689716e6 7.027108605013865e6 0.0
7.027108605013865e6 3.294690904028287e6 0.0
0.0 0.0 0.0

1.5653918783383882e6 9.012257672775393e6 0.0
9.012257672775393e6 -9.566634401266422e6 0.0
0.0 0.0 0.0

-6.346400861172226e6 1.0774498060582614e7 0.0
1.0774498060582614e7 8.992147261649339e6 0.0
0.0 0.0 0.0

-6.001484788738539e6 7.415343921765397e6 0.0
7.415343921765397e6 7.007874599571019e6 0.0
0.0 0.0 0.0

138267.25386579148 7.027146212848781e6 0.0
7.027146212848781e6 -4.7923484747525025e6 0.0
0.0 0.0 0.0

2.452138336154906e6 5.855582490988392e6 0.0
5.855582490988392e6 -8.342525039887373e6 0.0
0.0 0.0 0.0

-3.0003402725908486e6 1.1852543332939634e7 0.0
1.1852543332939634e7 4.882786819187216e6 0.0
0.0 0.0 0.0

-4.541796367248898e6 1.1732965035096046e7 0.0
1.1732965035096046e7 6.689892407268966e6 0.0
0.0 0.0 0.0

-2.191769145853764e6 9.362725243716849e6 0.0
9.362725243716849e6 -2.0093165861312645e6 0.0
0.0 0.0 0.0

-6.206089544401703e6 1.1773633604135616e7 0.0
1.1773633604135616e7 5.543972623794595e6 0.0
0.0 0.0 0.0

-1.0203418096687008e7 1.6253463372138195e7 0.0
1.6253463372138195e7 5.432466307771018e6 0.0
0.0 0.0 0.0

-364015.66281996714 1.1717169261985e7 0.0
1.1717169261985e7 -5.893726440345178e6 0.0
0.0 0.0 0.0

-1.0179732597584535e6 3.202836312514125e6 0.0
3.202836312514125e6 111479.92023069505 0.0
0.0 0.0 0.0

1.1725764020210588e6 9.7244846404274e6 0.0
9.7244846404274e6 -8.553004389735652e6 0.0
0.0 0.0 0.0

-6.189366019156516e6 1.0458925010083001e7 0.0
1.0458925010083001e7 5.680227121281599e6 0.0
0.0 0.0 0.0

-5.677204404784514e6 6.746922113361111e6 0.0
6.746922113361111e6 6.672649002875038e6 0.0
0.0 0.0 0.0

-114841.1902225282 1.0101765300694818e7 0.0
1.0101765300694818e7 219718.01742656803 0.0
0.0 0.0 0.0

2.367838885598296e6 8.166434345731312e6 0.0
8.166434345731312e6 -1.0721304718180392e7 0.0
0.0 0.0 0.0

1.3651503178549097e6 8.91692143660017e6 0.0
8.91692143660017e6 -8.987151829134725e6 0.0
0.0 0.0 0.0

-8.836033855280304e6 1.9100915571800057e7 0.0
1.9100915571800057e7 488548.2695713807 0.0
0.0 0.0 0.0

-4.903346768212507e6 1.0758625107356437e7 0.0
1.0758625107356437e7 2.6095549327633316e6 0.0
0.0 0.0 0.0

-5.814795655644301e6 1.1090180245288437e7 0.0
1.1090180245288437e7 4.0979823168201284e6 0.0
0.0 0.0 0.0

-5.277846409670563e6 1.1809317978662543e7 0.0
1.1809317978662543e7 1.6774777040196126e6 0.0
0.0 0.0 0.0

1.0267618419766722e6 5.2495117322227415e6 0.0
5.2495117322227415e6 -4.930364777967425e6 0.0
0.0 0.0 0.0

543885.395937019 8.60642804919083e6 0.0
8.60642804919083e6 -5.49228626321866e6 0.0
0.0 0.0 0.0

-5.951151278579872e6 1.0104016404713955e7 0.0
1.0104016404713955e7 5.181768982067581e6 0.0
0.0 0.0 0.0

-2.32833438895877e6 1.2245727589141084e7 0.0
1.2245727589141084e7 -2.971104210504306e6 0.0
0.0 0.0 0.0

-9.61133804097547e6 1.5787433851505214e7 0.0
1.5787433851505214e7 5.303836446064562e6 0.0
0.0 0.0 0.0

-1.3272550093599588e6 4.891618844116633e6 0.0
4.891618844116633e6 -284730.7160665896 0.0
0.0 0.0 0.0

-6.640032845822852e6 3.711181058423521e6 0.0
3.711181058423521e6 7.420930025087589e6 0.0
0.0 0.0 0.0

-9.289906144986633e6 1.5330059935519919e7 0.0
1.5330059935519919e7 5.262218042256393e6 0.0
0.0 0.0 0.0

-4.059718768638897e6 1.1659910350216217e7 0.0
1.1659910350216217e7 -1.348002182279001e6 0.0
0.0 0.0 0.0

464272.2242470614 7.603462040518882e6 0.0
7.603462040518882e6 -5.809730481405225e6 0.0
0.0 0.0 0.0

-4.210140047864931e6 7.95615838835405e6 0.0
7.95615838835405e6 2.968998908447308e6 0.0
0.0 0.0 0.0

2.6448256916763387e6 7.942216369928566e6 0.0
7.942216369928566e6 -1.101657194927892e7 0.0
0.0 0.0 0.0

-6.869779264857639e6 1.3211300023382092e7 0.0
1.3211300023382092e7 4.41463420464336e6 0.0
0.0 0.0 0.0

-2.603475433224405e6 1.2004048584353775e7 0.0
1.2004048584353775e7 2.3033798519377685e6 0.0
0.0 0.0 0.0

1.5413508782720873e6 9.486445409932818e6 0.0
9.486445409932818e6 -1.0155956108012734e7 0.0
0.0 0.0 0.0

-6.42333942141757e6 1.1299653220713502e7 0.0
1.1299653220713502e7 4.482166536449298e6 0.0
0.0 0.0 0.0

-7.932114196554661e6 3.090451075383506e6 0.0
3.090451075383506e6 9.150454088628601e6 0.0
0.0 0.0 0.0

-1543.5063799167983 6.968657349346588e6 0.0
6.968657349346588e6 -5.25011331992844e6 0.0
0.0 0.0 0.0

-2.0188294300845554e6 9.366356169027274e6 0.0
9.366356169027274e6 2.55644068975218e6 0.0
0.0 0.0 0.0

-5.574161712711229e6 1.041953020896957e7 0.0
1.041953020896957e7 4.102828784545997e6 0.0
0.0 0.0 0.0

1.3131088514144928e6 9.783271781312302e6 0.0
9.783271781312302e6 -1.0023053793372795e7 0.0
0.0 0.0 0.0

-1.6195180220403409e7 2.464099806294564e7 0.0
2.464099806294564e7 493969.15240228456 0.0
0.0 0.0 0.0

-6.390600329388585e6 8.124511297691263e6 0.0
8.124511297691263e6 6.8271811635697335e6 0.0
0.0 0.0 0.0

-951665.5929059153 1.156655149962657e7 0.0
1.156655149962657e7 -1.050169452246187e7 0.0
0.0 0.0 0.0

-1.186195136706315e6 5.237409938948789e6 0.0
5.237409938948789e6 -995617.1623155392 0.0
0.0 0.0 0.0

-5.568080997010045e6 8.95701209041068e6 0.0
8.95701209041068e6 3.6721212713167295e6 0.0
0.0 0.0 0.0

-6.883150664492954e6 9.151536769140998e6 0.0
9.151536769140998e6 9.603136233152872e6 0.0
0.0 0.0 0.0

-3.8348938546477985e6 7.468353666144638e6 0.0
7.468353666144638e6 2.569881914406701e6 0.0
0.0 0.0 0.0

-1.1402141358241294e7 1.061291713446625e7 0.0
1.061291713446625e7 2.230789595268303e7 0.0
0.0 0.0 0.0

-4.914687986463565e6 9.00690528218936e6 0.0
9.00690528218936e6 3.603110095984673e6 0.0
0.0 0.0 0.0

704707.0746013047 1.0659402591110671e7 0.0
1.0659402591110671e7 -8.140316763827566e6 0.0
0.0 0.0 0.0

-752973.4293156299 1.1823487493874542e7 0.0
1.1823487493874542e7 -5.036673668221118e6 0.0
0.0 0.0 0.0

4.420557192691758e7 1.113250571024962e7 0.0
1.113250571024962e7 -1.2903485617789254e6 0.0
0.0 0.0 0.0

-4.268812758662826e6 -1.6666637849091769e6 0.0
-1.6666637849091769e6 4.844618686939873e6 0.0
0.0 0.0 0.0

3.2479473262588107e6 5.609508189163513e6 0.0
5.609508189163513e6 -9.268877594773557e6 0.0
0.0 0.0 0.0

-499585.76803414954 2.9424901120200474e6 0.0
2.9424901120200474e6 -1.7743838923725635e6 0.0
0.0 0.0 0.0

-5.054930919650154e6 1.1665010930050913e7 0.0
1.1665010930050913e7 1.2676903671055238e6 0.0
0.0 0.0 0.0

-4.1236572989131603e6 -7.9014285238679275e6 0.0
-7.9014285238679275e6 9.221074682101106e6 0.0
0.0 0.0 0.0

-967948.5515535595 1.0312256920902899e7 0.0
1.0312256920902899e7 -8.549521569182422e6 0.0
0.0 0.0 0.0

-5.145300127500358e6 6.119544415405094e6 0.0
6.119544415405094e6 5.722437481191241e6 0.0
0.0 0.0 0.0

-6.65978092019501e6 8.77645370750753e6 0.0
8.77645370750753e6 5.866396017101837e6 0.0
0.0 0.0 0.0

3.6237603916455377e6 5.528908096436675e6 0.0
5.528908096436675e6 -1.002392964553388e7 0.0
0.0 0.0 0.0

-1.117678043866237e6 1.007447853977467e7 0.0
1.007447853977467e7 -4.203497549570196e6 0.0
0.0 0.0 0.0

-1.1018537003127089e7 1.6723646587628795e7 0.0
1.6723646587628795e7 6.1770332380424235e6 0.0
0.0 0.0 0.0

-335792.7800694497 7.111116564259596e6 0.0
7.111116564259596e6 -4.910452649370692e6 0.0
0.0 0.0 0.0

-1.4294394672465932e6 1.2172564632542107e7 0.0
1.2172564632542107e7 -454723.23878251866 0.0
0.0 0.0 0.0

-9.547965237443335e6 4.093462914416724e6 0.0
4.093462914416724e6 5.278661014109926e7 0.0
0.0 0.0 0.0

4.365384750582404e6 8.67230633611964e6 0.0
8.67230633611964e6 -1.9364012224623125e7 0.0
0.0 0.0 0.0

2.1631448561550006e6 1.1901579436770417e7 0.0
1.1901579436770417e7 -1.4469560047446426e7 0.0
0.0 0.0 0.0

-215923.47840264626 9.756301555110596e6 0.0
9.756301555110596e6 -5.557100944200766e6 0.0
0.0 0.0 0.0

3.6418687249600254e6 7.205077879171164e6 0.0
7.205077879171164e6 -1.1267687698980993e7 0.0
0.0 0.0 0.0

-9.43218856599613e6 9.791071694755914e6 0.0
9.791071694755914e6 4.30903329714216e6 0.0
0.0 0.0 0.0

-2.527125831219362e6 1.2194657451466491e7 0.0
1.2194657451466491e7 -3.7074870070191477e6 0.0
0.0 0.0 0.0

-4.840372558834547e6 -2.2104206198313185e6 0.0
-2.2104206198313185e6 5.735134764969728e6 0.0
0.0 0.0 0.0

-2.39343770829177e6 5.673943993882571e6 0.0
5.673943993882571e6 522477.1224470397 0.0
0.0 0.0 0.0

-5.789565519074997e6 1.1324365291116588e7 0.0
1.1324365291116588e7 3.9362714886731575e6 0.0
0.0 0.0 0.0

-6.428482473179046e6 1.0270590621930294e7 0.0
1.0270590621930294e7 4.926834063235348e6 0.0
0.0 0.0 0.0

-4.1366693105717655e6 6.907737832339003e6 0.0
6.907737832339003e6 2.1884414776163204e6 0.0
0.0 0.0 0.0

-1.3078582222861343e6 4.473934858216877e6 0.0
4.473934858216877e6 -61623.0126260391 0.0
0.0 0.0 0.0

3.0819254164619492e6 9.194262346413419e6 0.0
9.194262346413419e6 -1.6005957540534965e6 0.0
0.0 0.0 0.0

-4.449838195176105e6 1.1837809707099432e7 0.0
1.1837809707099432e7 -802830.0421560097 0.0
0.0 0.0 0.0

498568.2798398938 6.006933076520602e6 0.0
6.006933076520602e6 -3.570254768558575e6 0.0
0.0 0.0 0.0

-5.66841512222372e6 1.2651305209922247e7 0.0
1.2651305209922247e7 2.255137622502206e6 0.0
0.0 0.0 0.0

-6.983500322856441e6 7.019753561385702e6 0.0
7.019753561385702e6 7.239076075970931e6 0.0
0.0 0.0 0.0

-3.773951863532952e6 7.644993869874514e6 0.0
7.644993869874514e6 2.3564316722516343e6 0.0
0.0 0.0 0.0

-5.176417825189925e6 -2.263053434830623e6 0.0
-2.263053434830623e6 6.503395835654855e6 0.0
0.0 0.0 0.0

3.4544908529899316e6 5.61470932565571e6 0.0
5.61470932565571e6 -9.669292584773183e6 0.0
0.0 0.0 0.0

3.795162952410577e6 7.426832131936938e6 0.0
7.426832131936938e6 -1.1660340663736612e7 0.0
0.0 0.0 0.0

-5.636246145951936e6 5.592162999454388e6 0.0
5.592162999454388e6 4.97738211945549e6 0.0
0.0 0.0 0.0

4.739094237450776e6 7.712109781680421e6 0.0
7.712109781680421e6 -1.6945423284848385e7 0.0
0.0 0.0 0.0

-9.90832651541662e6 -8.59098737738224e6 0.0
-8.59098737738224e6 2.484378309911792e7 0.0
0.0 0.0 0.0

697979.9502517928 7.577961380012055e6 0.0
7.577961380012055e6 -6.053886639475722e6 0.0
0.0 0.0 0.0

1.3950262184143686e6 7.329896595183359e6 0.0
7.329896595183359e6 -6.410686086054113e6 0.0
0.0 0.0 0.0

-7.296310701046031e6 1.63482134174412e7 0.0
1.63482134174412e7 3.2965799771850486e6 0.0
0.0 0.0 0.0

-7.9588167483707e6 1.2498615799002811e7 0.0
1.2498615799002811e7 6.302294017240462e6 0.0
0.0 0.0 0.0

-5.611681489166999e6 1.0251851371991051e7 0.0
1.0251851371991051e7 4.223266240661109e6 0.0
0.0 0.0 0.0

-5.107664074368919e6 1.2422974383409908e7 0.0
1.2422974383409908e7 1.2207379446086064e6 0.0
0.0 0.0 0.0

-9.630584260456916e6 1.496619753370661e7 0.0
1.496619753370661e7 6.794529620475063e6 0.0
0.0 0.0 0.0

-6.079466104000181e6 1.095766364132019e7 0.0
1.095766364132019e7 4.952366614617292e6 0.0
0.0 0.0 0.0

-1.2220185887436885e6 1.1204770313886696e7 0.0
1.1204770313886696e7 1.138812177978267e6 0.0
0.0 0.0 0.0

5.02111634695832e6 6.541802810903374e6 0.0
6.541802810903374e6 -1.4667669357530827e7 0.0
0.0 0.0 0.0

4.009932173581845e6 5.37907298571266e6 0.0
5.37907298571266e6 -1.1049084310305554e7 0.0
0.0 0.0 0.0

4.839223168904888e6 6.113803875103051e6 0.0
6.113803875103051e6 -1.3214612341236165e7 0.0
0.0 0.0 0.0

-5.682086278963996e6 1.1566043517530238e7 0.0
1.1566043517530238e7 2.8561504755456895e6 0.0
0.0 0.0 0.0

-1.656146617888933e6 5.306015965046252e6 0.0
5.306015965046252e6 -1.0595373364238488e6 0.0
0.0 0.0 0.0

-4.505808529807057e6 -8.878993368730346e6 0.0
-8.878993368730346e6 1.0351286339082196e7 0.0
0.0 0.0 0.0

-4.876741465277594e6 5.821067000738095e6 0.0
5.821067000738095e6 3.758296428174247e6 0.0
0.0 0.0 0.0

1.557772356648691e6 5.568056857060925e6 0.0
5.568056857060925e6 -6.275179719745012e6 0.0
0.0 0.0 0.0

-7.002951589249697e6 1.1238818296794994e7 0.0
1.1238818296794994e7 5.054251200903337e6 0.0
0.0 0.0 0.0

-1.1872470603924384e6 1.0110456361709988e7 0.0
1.0110456361709988e7 -8.4102452274751e6 0.0
0.0 0.0 0.0

-4.0471656202524053e6 -559220.439320246 0.0
-559220.439320246 4.779909756337562e6 0.0
0.0 0.0 0.0

-2.578086975164273e6 3.735957105724472e6 0.0
3.735957105724472e6 1.2305012849625116e6 0.0
0.0 0.0 0.0

-1.0191707765751567e7 2.0993646140739736e6 0.0
2.0993646140739736e6 1.1932806989251316e7 0.0
0.0 0.0 0.0

-4.874656678654194e6 1.1275814174546318e7 0.0
1.1275814174546318e7 5.534351687075597e6 0.0
0.0 0.0 0.0

887960.9223691663 9.037782797394847e6 0.0
9.037782797394847e6 -8.070823490530854e6 0.0
0.0 0.0 0.0

5.176129666480916e6 6.342669324780689e6 0.0
6.342669324780689e6 -1.4280054120187655e7 0.0
0.0 0.0 0.0

3.027166171391148e6 5.587409665197338e6 0.0
5.587409665197338e6 -8.673441859665217e6 0.0
0.0 0.0 0.0

-6.752317543265152e6 1.9250738057866126e7 0.0
1.9250738057866126e7 -3.2591082057312033e6 0.0
0.0 0.0 0.0

-9.359659431678934e6 -9.10029173619031e6 0.0
-9.10029173619031e6 2.2863543278414033e7 0.0
0.0 0.0 0.0

3.16002842138714e6 7.679070079283107e6 0.0
7.679070079283107e6 -1.0626721575604629e7 0.0
0.0 0.0 0.0

-1.183762908048395e7 -3.402543665953541e6 0.0
-3.402543665953541e6 3.6919891193747915e7 0.0
0.0 0.0 0.0

5.137738307965413e6 6.97332541681664e6 0.0
6.97332541681664e6 -1.56114111129403e7 0.0
0.0 0.0 0.0

-6.4418726409742655e6 1.1864041541512903e7 0.0
1.1864041541512903e7 5.436182925782224e6 0.0
0.0 0.0 0.0

-864999.0679187462 7.8232231525503425e6 0.0
7.8232231525503425e6 -3.230963880601467e6 0.0
0.0 0.0 0.0

-2.454037130241936e6 9.727564342864212e6 0.0
9.727564342864212e6 -2.9287401375772315e6 0.0
0.0 0.0 0.0

-338102.69699319033 1.0703353449508872e7 0.0
1.0703353449508872e7 -6.628492878605312e6 0.0
0.0 0.0 0.0

-1.032484593293313e7 -7.831329762283979e6 0.0
-7.831329762283979e6 2.704291644911378e7 0.0
0.0 0.0 0.0

4.902690339900688e6 6.280864424231698e6 0.0
6.280864424231698e6 -1.3600166834039666e7 0.0
0.0 0.0 0.0

-6.926850799493395e6 6.898533974435688e6 0.0
6.898533974435688e6 8.201316868955579e6 0.0
0.0 0.0 0.0

-6.585452315898467e6 6.971710834723195e6 0.0
6.971710834723195e6 6.3714616291244775e6 0.0
0.0 0.0 0.0

-8.816597691000309e6 3.144710923995017e6 0.0
3.144710923995017e6 1.0156360813622417e7 0.0
0.0 0.0 0.0

-3.892341273379961e6 7.284839607229791e6 0.0
7.284839607229791e6 2.741290934918835e6 0.0
0.0 0.0 0.0

-3.631112769429334e6 1.2507782999113673e7 0.0
1.2507782999113673e7 8.110325565820653e6 0.0
0.0 0.0 0.0

-4.0524772087998125e6 1.2109946416472066e7 0.0
1.2109946416472066e7 -372845.0333595809 0.0
0.0 0.0 0.0

-6.387137841429074e6 1.2276006552688714e7 0.0
1.2276006552688714e7 3.5480385053480305e6 0.0
0.0 0.0 0.0

-5.206595057808384e6 1.254061812455746e7 0.0
1.254061812455746e7 397039.53746042633 0.0
0.0 0.0 0.0

1.0365465147473351e6 7.699653349342243e6 0.0
7.699653349342243e6 -5.9490414007488e6 0.0
0.0 0.0 0.0

-6.980819672300201e6 1.2403038926417418e7 0.0
1.2403038926417418e7 5.398345425881214e6 0.0
0.0 0.0 0.0

-1.0487333008062616e6 1.1805046892007252e7 0.0
1.1805046892007252e7 -1.0693531770644002e6 0.0
0.0 0.0 0.0

346828.83881535474 9.526063756946897e6 0.0
9.526063756946897e6 -6.344528576872679e6 0.0
0.0 0.0 0.0

-7.990631878037724e6 5.108249319710105e6 0.0
5.108249319710105e6 1.175238452260029e7 0.0
0.0 0.0 0.0

-6.315628696551296e6 5.484941616674433e6 0.0
5.484941616674433e6 6.29534238400619e6 0.0
0.0 0.0 0.0

1.0545814561590175e6 7.548703771722373e6 0.0
7.548703771722373e6 -6.754363385751443e6 0.0
0.0 0.0 0.0

-4.656117040796405e6 -4.5905984292416535e6 0.0
-4.5905984292416535e6 7.773180488570624e6 0.0
0.0 0.0 0.0

3.699077721555638e6 5.485436741193125e6 0.0
5.485436741193125e6 -1.0216158778757047e7 0.0
0.0 0.0 0.0

-3.0789186043985095e6 1.1107999232331477e7 0.0
1.1107999232331477e7 4.65945890551527e6 0.0
0.0 0.0 0.0

-8.352887957762511e6 -9.430930903841082e6 0.0
-9.430930903841082e6 2.061514332371571e7 0.0
0.0 0.0 0.0

4.620936704999543e6 5.992687060387385e6 0.0
5.992687060387385e6 -1.2582165688981831e7 0.0
0.0 0.0 0.0

3.7878040115136714e6 5.461018332258462e6 0.0
5.461018332258462e6 -1.0460708885391423e7 0.0
0.0 0.0 0.0

-3.2726786477889414e6 -5.132871571460709e6 0.0
-5.132871571460709e6 6.6648434373340495e6 0.0
0.0 0.0 0.0

-8.818052931968363e6 9.10713008888563e6 0.0
9.10713008888563e6 1.3980718743133012e7 0.0
0.0 0.0 0.0

4.598268022397837e6 5.874351306691016e6 0.0
5.874351306691016e6 -1.2422750543503243e7 0.0
0.0 0.0 0.0

-7.374484595293439e6 -9.778168692950685e6 0.0
-9.778168692950685e6 1.8074262668143686e7 0.0
0.0 0.0 0.0

-4.1131820112278257e6 1.0869370963968834e7 0.0
1.0869370963968834e7 5.170388516846528e6 0.0
0.0 0.0 0.0

-6.095720550815675e6 -1.5177296592191544e6 0.0
-1.5177296592191544e6 8.767016480882186e6 0.0
0.0 0.0 0.0

-3.645140599212884e6 -6.186741980867944e6 0.0
-6.186741980867944e6 8.0043918997152755e6 0.0
0.0 0.0 0.0

3.9844650733425394e6 5.410657944372075e6 0.0
5.410657944372075e6 -1.0827233041166196e7 0.0
0.0 0.0 0.0

4.470097265089158e6 5.813052389421038e6 0.0
5.813052389421038e6 -1.2149944908949351e7 0.0
0.0 0.0 0.0

-7.1374321948853545e6 -9.917606106102519e6 0.0
-9.917606106102519e6 1.6678368848426139e7 0.0
0.0 0.0 0.0

-1.1926334488132603e8 3.463305168983189e7 0.0
3.463305168983189e7 -4.345388669065483e6 0.0
0.0 0.0 0.0

7.046084380127585e7 1.219208714679013e7 0.0
1.219208714679013e7 -4.8929454272766635e6 0.0
0.0 0.0 0.0

-4.527812626922227e6 7.181093846415081e6 0.0
7.181093846415081e6 2.7411619881801317e6 0.0
0.0 0.0 0.0

4.286062939834243e6 5.747645398304084e6 0.0
5.747645398304084e6 -1.1836502643697115e7 0.0
0.0 0.0 0.0

-7.065187418892219e6 -9.755146595432721e6 0.0
-9.755146595432721e6 1.5542463754532268e7 0.0
0.0 0.0 0.0

1.3581488791225902e6 8.900348763661793e6 0.0
8.900348763661793e6 -3.555009593795676e6 0.0
0.0 0.0 0.0

-6.188747285951121e6 6.1632709933868535e6 0.0
6.1632709933868535e6 5.8483267471034555e6 0.0
0.0 0.0 0.0

-5.783231202827482e6 1.1569427690949699e7 0.0
1.1569427690949699e7 3.820347888876914e6 0.0
0.0 0.0 0.0

-3.2084211240003146e6 1.1314224363330914e7 0.0
1.1314224363330914e7 4.928865799591754e6 0.0
0.0 0.0 0.0

-6.068431186187169e6 -9.282022949391866e6 0.0
-9.282022949391866e6 1.3182645630360926e7 0.0
0.0 0.0 0.0

4.22032741456079e6 5.651166043500527e6 0.0
5.651166043500527e6 -1.1672882205510076e7 0.0
0.0 0.0 0.0

-4.7349684788898565e6 1.193707327867879e7 0.0
1.193707327867879e7 -176204.92365825153 0.0
0.0 0.0 0.0

-150982.38322051335 1.1380971608135302e7 0.0
1.1380971608135302e7 -1.1757136828023376e7 0.0
0.0 0.0 0.0

-5.939596221613453e6 1.24748027541786e7 0.0
1.24748027541786e7 2.3978565132840998e6 0.0
0.0 0.0 0.0

-470371.74268843536 9.882698515118713e6 0.0
9.882698515118713e6 -5.123080905996696e6 0.0
0.0 0.0 0.0

379898.46455134545 1.0088240807079382e7 0.0
1.0088240807079382e7 -7.747173403645779e6 0.0
0.0 0.0 0.0

-927163.4311253024 1.1351944438563135e7 0.0
1.1351944438563135e7 202563.66885405406 0.0
0.0 0.0 0.0

-3.77274560982934e6 1.3188504651366817e7 0.0
1.3188504651366817e7 -2.1624504263946568e6 0.0
0.0 0.0 0.0

-2.638060297704923e6 1.193089469107724e7 0.0
1.193089469107724e7 -2.59520062440541e6 0.0
0.0 0.0 0.0

151847.10557042435 1.0594257468323505e7 0.0
1.0594257468323505e7 -1.024813638433037e7 0.0
0.0 0.0 0.0

-5.952745482603962e6 1.2269402263861358e7 0.0
1.2269402263861358e7 3.5781907119775387e6 0.0
0.0 0.0 0.0

-6.123241400758606e6 1.0221538644636668e7 0.0
1.0221538644636668e7 4.554108060150458e6 0.0
0.0 0.0 0.0

-4.857208977177196e6 1.303469842069992e7 0.0
1.303469842069992e7 1.6519306444654628e6 0.0
0.0 0.0 0.0

421167.43463923456 1.0276567086434202e7 0.0
1.0276567086434202e7 -7.897323387510111e6 0.0
0.0 0.0 0.0

-4.274087945654261e6 6.236393339226383e6 0.0
6.236393339226383e6 2.818618097795382e6 0.0
0.0 0.0 0.0

-302364.3480736092 1.0830309070913028e7 0.0
1.0830309070913028e7 564881.2796081075 0.0
0.0 0.0 0.0

-4.690096391699249e6 6.702713511154797e6 0.0
6.702713511154797e6 3.362819177341969e6 0.0
0.0 0.0 0.0

-2.682392597039411e6 9.655322769890783e6 0.0
9.655322769890783e6 -777549.4146788679 0.0
0.0 0.0 0.0

-5.873917185007425e6 1.2072349179185957e7 0.0
1.2072349179185957e7 3.687247838990626e6 0.0
0.0 0.0 0.0

840011.1312775826 1.0199321618863393e7 0.0
1.0199321618863393e7 -9.371425468675371e6 0.0
0.0 0.0 0.0

-3.509116740335466e6 1.09930275030606e7 0.0
1.09930275030606e7 4.546053864916991e6 0.0
0.0 0.0 0.0

-1.017063865022892e7 1.5199737364882756e7 0.0
1.5199737364882756e7 7.330110394127188e6 0.0
0.0 0.0 0.0

-3.0058610948063578e6 9.707251733899308e6 0.0
9.707251733899308e6 -829839.1482561101 0.0
0.0 0.0 0.0

-5.289578177008692e6 1.217926044800676e7 0.0
1.217926044800676e7 847691.3078200421 0.0
0.0 0.0 0.0

1.0982438327143758e6 1.0121404993933208e7 0.0
1.0121404993933208e7 3.7029546680335277e6 0.0
0.0 0.0 0.0

-5.834407214179699e6 1.1829262679792507e7 0.0
1.1829262679792507e7 3.7345574129314837e6 0.0
0.0 0.0 0.0

-8.529044816736475e6 2.722552977254272e6 0.0
2.722552977254272e6 4.858848461573387e6 0.0
0.0 0.0 0.0

-6.769032223274907e6 1.2994287349388286e7 0.0
1.2994287349388286e7 4.445857012262179e6 0.0
0.0 0.0 0.0

2.080606118667448e6 5.090661034320226e6 0.0
5.090661034320226e6 -6.740408664422238e6 0.0
0.0 0.0 0.0

1.8917822387042493e6 4.941940134339895e6 0.0
4.941940134339895e6 -6.335030035502082e6 0.0
0.0 0.0 0.0

-4.996032300660144e6 1.2088578512405023e7 0.0
1.2088578512405023e7 502756.39263915946 0.0
0.0 0.0 0.0

-4.438661734145931e6 1.1871633337386377e7 0.0
1.1871633337386377e7 6.874835326858023e6 0.0
0.0 0.0 0.0

-7.154679134200856e6 1.3408458521753961e7 0.0
1.3408458521753961e7 4.777276207267061e6 0.0
0.0 0.0 0.0

-7.139437679166259e6 3.881554746869151e6 0.0
3.881554746869151e6 8.272971864307984e6 0.0
0.0 0.0 0.0

-8.784775233476518e6 1.438787873698534e7 0.0
1.438787873698534e7 6.261831946164839e6 0.0
0.0 0.0 0.0

-3.198075757208337e6 1.1595138953340482e7 0.0
1.1595138953340482e7 2.852514550610927e6 0.0
0.0 0.0 0.0

-997355.9490283432 7.465296669638623e6 0.0
7.465296669638623e6 -661941.6475637155 0.0
0.0 0.0 0.0

1.5592560560409855e6 8.929292538866121e6 0.0
8.929292538866121e6 -8.334630173680743e6 0.0
0.0 0.0 0.0

-6.207014615275199e6 1.1362901983599927e7 0.0
1.1362901983599927e7 3.891970952187446e6 0.0
0.0 0.0 0.0

-1.6244275259390317e6 1.0624646818242606e6 0.0
1.0624646818242606e6 1.6102508635616552e6 0.0
0.0 0.0 0.0

-1.029272652055692e7 8.315639030331913e6 0.0
8.315639030331913e6 1.4092806073919453e7 0.0
0.0 0.0 0.0

523999.68375561945 1.0598316588785222e7 0.0
1.0598316588785222e7 -1.1335592598442687e7 0.0
0.0 0.0 0.0

-7.458086502604969e6 3.648612627338541e6 0.0
3.648612627338541e6 1.0920023764037704e7 0.0
0.0 0.0 0.0

-725725.3505850253 1.3968791298571909e7 0.0
1.3968791298571909e7 -3.492682706963259e6 0.0
0.0 0.0 0.0

1.0851655335458335e6 9.045565694651613e6 0.0
9.045565694651613e6 -7.413986737047623e6 0.0
0.0 0.0 0.0

-2.91162293752937e6 9.516452082498118e6 0.0
9.516452082498118e6 -810345.0964340285 0.0
0.0 0.0 0.0

-5.715713954346819e6 1.2408167206968833e7 0.0
1.2408167206968833e7 1.912189867953255e6 0.0
0.0 0.0 0.0

1.167842456958516e6 9.104155468209283e6 0.0
9.104155468209283e6 -4.9619977019170625e6 0.0
0.0 0.0 0.0

-4.580978987199932e6 5.916072447134503e6 0.0
5.916072447134503e6 4.697986907431924e6 0.0
0.0 0.0 0.0

-7.6121655641303975e6 4.616994365816705e6 0.0
4.616994365816705e6 1.115775372141855e7 0.0
0.0 0.0 0.0

-5.525110768757782e6 1.2273661214472475e7 0.0
1.2273661214472475e7 1.3943226787334217e6 0.0
0.0 0.0 0.0

-3.9211258292189855e6 7.097931747098158e6 0.0
7.097931747098158e6 2.821982388031173e6 0.0
0.0 0.0 0.0

3.651340025907833e6 6.261171331400882e6 0.0
6.261171331400882e6 -1.0498813225942414e7 0.0
0.0 0.0 0.0

-4.980409471957131e6 7.892012141689892e6 0.0
7.892012141689892e6 3.0620403873217925e6 0.0
0.0 0.0 0.0

877813.0108549758 9.792131893745387e6 0.0
9.792131893745387e6 -6.448613107213164e6 0.0
0.0 0.0 0.0

1.0812282654300586e6 8.610784500732534e6 0.0
8.610784500732534e6 -2.324094397392773e6 0.0
0.0 0.0 0.0

-1.6912203837041773e6 1.1077025704801062e7 0.0
1.1077025704801062e7 -816174.812047456 0.0
0.0 0.0 0.0

-2.799152987624473e6 9.647421269209001e6 0.0
9.647421269209001e6 -1.7096347552136045e6 0.0
0.0 0.0 0.0

124042.05637310259 1.024373938500837e7 0.0
1.024373938500837e7 -7.332842457055722e6 0.0
0.0 0.0 0.0

1.7150159105151668e6 7.260696233462961e6 0.0
7.260696233462961e6 -8.33992782067973e6 0.0
0.0 0.0 0.0

1.0327162244739968e6 9.470563608873932e6 0.0
9.470563608873932e6 -5.805775402840137e6 0.0
0.0 0.0 0.0

666907.4336571638 7.864417928282314e6 0.0
7.864417928282314e6 -6.208920193412174e6 0.0
0.0 0.0 0.0

1.0757718390249778e6 5.364554574412591e6 0.0
5.364554574412591e6 -5.167956448359676e6 0.0
0.0 0.0 0.0

-6.236985685817554e6 1.1859202226549422e7 0.0
1.1859202226549422e7 3.7376091581912576e6 0.0
0.0 0.0 0.0

-1.0879179621785216e6 7.937253206057011e6 0.0
7.937253206057011e6 -3.333756097607815e6 0.0
0.0 0.0 0.0

-4.1232392695122845e6 1.1405861501709502e7 0.0
1.1405861501709502e7 4.810099398284107e6 0.0
0.0 0.0 0.0

-75532.27741882965 1.951179643424104e6 0.0
1.951179643424104e6 -1.0226436908351234e6 0.0
0.0 0.0 0.0

2.1299803393550343e6 9.754394707117978e6 0.0
9.754394707117978e6 -2.7765627829565494e6 0.0
0.0 0.0 0.0

-2.6213048873624112e6 9.842810165184995e6 0.0
9.842810165184995e6 1.2150004048932823e6 0.0
0.0 0.0 0.0

1.2216758631679122e6 7.30676176952976e6 0.0
7.30676176952976e6 -6.991557666351299e6 0.0
0.0 0.0 0.0

-4.240145185927712e7 4.737690494882476e6 0.0
4.737690494882476e6 1.5775820053872982e7 0.0
0.0 0.0 0.0

-5.460600523734912e6 1.0355712543671055e7 0.0
1.0355712543671055e7 6.899098527454909e6 0.0
0.0 0.0 0.0

-1.307093121904494e6 1.091641878763795e7 0.0
1.091641878763795e7 -4.386534158107144e6 0.0
0.0 0.0 0.0

-2.29678771504882e6 9.114195772224324e6 0.0
9.114195772224324e6 -2.4137897282792213e6 0.0
0.0 0.0 0.0

1.0684256986113717e6 9.564661330806322e6 0.0
9.564661330806322e6 -7.795463619952452e6 0.0
0.0 0.0 0.0

-923710.1624889367 1.111441004706398e7 0.0
1.111441004706398e7 1.0007708422993264e6 0.0
0.0 0.0 0.0

1.858861934757006e6 9.179896486298209e6 0.0
9.179896486298209e6 -9.37244054048805e6 0.0
0.0 0.0 0.0

-824343.944793148 1.122867008426001e7 0.0
1.122867008426001e7 1.5002156286661357e6 0.0
0.0 0.0 0.0

-1.3042621915412704e6 1.0073004138054881e7 0.0
1.0073004138054881e7 -4.828102819001658e6 0.0
0.0 0.0 0.0

1.7414752672463642e6 7.255315424632508e6 0.0
7.255315424632508e6 -7.308573649115651e6 0.0
0.0 0.0 0.0

3.9803221567911515e6 5.843979410571875e6 0.0
5.843979410571875e6 -1.1501283133651283e7 0.0
0.0 0.0 0.0

-4.587880970877338e6 1.443357422937665e7 0.0
1.443357422937665e7 -1.3279408370630494e6 0.0
0.0 0.0 0.0

1.764826173096852e6 9.036219768273542e6 0.0
9.036219768273542e6 -8.886619969994903e6 0.0
0.0 0.0 0.0

-6.804236859968971e6 1.2270116271494024e7 0.0
1.2270116271494024e7 5.394659240896295e6 0.0
0.0 0.0 0.0

-3.342615281298683e6 1.1823167385749307e7 0.0
1.1823167385749307e7 1.0336039803300761e6 0.0
0.0 0.0 0.0

523319.65054217377 7.136856324158818e6 0.0
7.136856324158818e6 -5.474305549032903e6 0.0
0.0 0.0 0.0

-1.1075882107885076e7 1.5229397057555255e7 0.0
1.5229397057555255e7 7.884851899094468e6 0.0
0.0 0.0 0.0

1.3789834961096896e6 7.548524215330315e6 0.0
7.548524215330315e6 -6.595325517567291e6 0.0
0.0 0.0 0.0

-6.922825295080813e6 1.1585352374284653e7 0.0
1.1585352374284653e7 1.218375528536008e7 0.0
0.0 0.0 0.0

-784706.1962334432 1.1586697730706606e7 0.0
1.1586697730706606e7 -456308.14809720207 0.0
0.0 0.0 0.0

-7.52326070914387e6 1.251509942178938e7 0.0
1.251509942178938e7 5.756709901890088e6 0.0
0.0 0.0 0.0

-4.032185088736973e6 6.633053056462681e6 0.0
6.633053056462681e6 3.36414282366608e6 0.0
0.0 0.0 0.0

654706.9432429275 9.476932179295976e6 0.0
9.476932179295976e6 -7.85285772794806e6 0.0
0.0 0.0 0.0

-735642.6356098244 6.960572569402379e6 0.0
6.960572569402379e6 -2.8326070210175025e6 0.0
0.0 0.0 0.0

-2.701909685053535e6 9.902381617087023e6 0.0
9.902381617087023e6 -1.3037189019065145e6 0.0
0.0 0.0 0.0

4.737307503856402e6 9.711964487387178e6 0.0
9.711964487387178e6 -3.8312642286664965e6 0.0
0.0 0.0 0.0

-632672.1471566989 1.124955288778627e7 0.0
1.124955288778627e7 -5.340998049282041e6 0.0
0.0 0.0 0.0

660736.3661972638 7.131963349745693e6 0.0
7.131963349745693e6 -4.1434534292228143e6 0.0
0.0 0.0 0.0

377737.25577592244 9.851512422859477e6 0.0
9.851512422859477e6 -7.590210674036006e6 0.0
0.0 0.0 0.0

-4.966380424608279e6 284814.6172906584 0.0
284814.6172906584 5.529453262760816e6 0.0
0.0 0.0 0.0

-5.685719035669107e6 1.145197001862358e7 0.0
1.145197001862358e7 5.927606394988904e6 0.0
0.0 0.0 0.0

-6.507262663425523e6 6.125289572679924e6 0.0
6.125289572679924e6 6.910030667653299e6 0.0
0.0 0.0 0.0

-1.1693203936475448e7 9.577858522959683e6 0.0
9.577858522959683e6 5.939798838443312e6 0.0
0.0 0.0 0.0

126569.45856953133 1.0505285513827229e7 0.0
1.0505285513827229e7 -1.0401024021587122e7 0.0
0.0 0.0 0.0

-6.260600874794278e6 1.1316584336155314e7 0.0
1.1316584336155314e7 5.17992748652507e6 0.0
0.0 0.0 0.0

-6.401022079454051e6 1.2021900905507727e7 0.0
1.2021900905507727e7 5.213277497503958e6 0.0
0.0 0.0 0.0

-2.1301250261139646e6 1.273356644195392e7 0.0
1.273356644195392e7 -3.876750211674523e6 0.0
0.0 0.0 0.0

969595.2039333428 1.018835735258497e7 0.0
1.018835735258497e7 -1.0886839958117304e7 0.0
0.0 0.0 0.0

-3.4564032304461296e6 1.1147263226679849e7 0.0
1.1147263226679849e7 4.224173791784379e6 0.0
0.0 0.0 0.0

-1.0483926451262813e7 -1.0708634753994222e6 0.0
-1.0708634753994222e6 1.5731206869080499e7 0.0
0.0 0.0 0.0

1.9325868456356737e6 5.362626892380662e6 0.0
5.362626892380662e6 -5.218755853990394e6 0.0
0.0 0.0 0.0

572129.0352582345 1.062360118903462e7 0.0
1.062360118903462e7 -8.082303931427741e6 0.0
0.0 0.0 0.0

-3.227142309794401e6 1.2984168495690562e7 0.0
1.2984168495690562e7 -2.780913823610522e6 0.0
0.0 0.0 0.0

-2.9893385462278565e6 9.949220389724514e6 0.0
9.949220389724514e6 -434058.0907411218 0.0
0.0 0.0 0.0

-1.8158901321153892e6 8.570709719536757e6 0.0
8.570709719536757e6 -3.217453279239758e6 0.0
0.0 0.0 0.0

-1.410058692770362e6 1.0408926951333687e7 0.0
1.0408926951333687e7 -8.72262776809915e6 0.0
0.0 0.0 0.0

-8.58449835201091e6 4.045831627423439e6 0.0
4.045831627423439e6 1.0354570699366221e7 0.0
0.0 0.0 0.0

-7.045080882833019e6 1.3508655028191358e7 0.0
1.3508655028191358e7 4.198045987431916e6 0.0
0.0 0.0 0.0

-1.5661808137036797e7 7.668114695051671e6 0.0
7.668114695051671e6 8.790925483270813e6 0.0
0.0 0.0 0.0

2.2713795988337956e6 9.560906800798366e6 0.0
9.560906800798366e6 -2.787773772883758e6 0.0
0.0 0.0 0.0

478225.77324390644 6.83317160823586e6 0.0
6.83317160823586e6 -5.396876034362813e6 0.0
0.0 0.0 0.0

-2.8803013232303904e6 9.752631365062218e6 0.0
9.752631365062218e6 -421579.6191282401 0.0
0.0 0.0 0.0

-9.550705749007154e6 2.816273479253269e6 0.0
2.816273479253269e6 1.2817152771597523e7 0.0
0.0 0.0 0.0

-7.670407911937786e6 1.262838434783091e7 0.0
1.262838434783091e7 5.787771707301516e6 0.0
0.0 0.0 0.0

-4.090230701182572e6 1.109897700785361e7 0.0
1.109897700785361e7 4.925943169960151e6 0.0
0.0 0.0 0.0

-6.362882247376557e6 1.2471528752630297e7 0.0
1.2471528752630297e7 3.4627083208832936e6 0.0
0.0 0.0 0.0

-982985.5048963366 9.989176374375219e6 0.0
9.989176374375219e6 -5.281950928766358e6 0.0
0.0 0.0 0.0

-1.0624604661274176e7 3.5957303294377513e6 0.0
3.5957303294377513e6 1.2718657899987398e7 0.0
0.0 0.0 0.0

-253116.62687374535 1.090324813353733e7 0.0
1.090324813353733e7 -6.826888841846586e6 0.0
0.0 0.0 0.0

-2.5466954263699246e6 1.2053186148020968e7 0.0
1.2053186148020968e7 46970.95068685559 0.0
0.0 0.0 0.0

-7.214258266467375e6 1.3715688810771255e7 0.0
1.3715688810771255e7 4.5117772652244195e6 0.0
0.0 0.0 0.0

744742.4899722692 5.867194644161177e6 0.0
5.867194644161177e6 -5.599961886930063e6 0.0
0.0 0.0 0.0

66404.74127967074 1.2326979844584355e7 0.0
1.2326979844584355e7 -5.026952238757637e6 0.0
0.0 0.0 0.0

-6.065452321177909e6 1.1094569263557855e7 0.0
1.1094569263557855e7 4.755252248495473e6 0.0
0.0 0.0 0.0

-4.041726132424656e6 6.230298329781982e6 0.0
6.230298329781982e6 3.6127670833672383e6 0.0
0.0 0.0 0.0

-3.4260381991002527e6 1.2964318440794325e7 0.0
1.2964318440794325e7 461564.71097149653 0.0
0.0 0.0 0.0

-8.461350032265486e6 5.281097107313786e6 0.0
5.281097107313786e6 9.871251220292907e6 0.0
0.0 0.0 0.0

-2.0759103127654504e6 2.9205772311704536e6 0.0
2.9205772311704536e6 4.0693407921667546e6 0.0
0.0 0.0 0.0

-5.833547846709261e6 1.076708442328934e7 0.0
1.076708442328934e7 4.41235819260025e6 0.0
0.0 0.0 0.0

-6.506692154685436e6 4.773646957303818e6 0.0
4.773646957303818e6 6.780886548265857e6 0.0
0.0 0.0 0.0

-5.895384926951934e6 9.258456904820103e6 0.0
9.258456904820103e6 4.287668997414714e6 0.0
0.0 0.0 0.0

-2.4001739662982663e6 1.2316521778412607e7 0.0
1.2316521778412607e7 5.12646049551559e6 0.0
0.0 0.0 0.0

1.1605623786404063e6 9.984773835438585e6 0.0
9.984773835438585e6 -1.0416952047569256e7 0.0
0.0 0.0 0.0

-96957.27982533578 1.6571036266027521e6 0.0
1.6571036266027521e6 -1.14765972641585e6 0.0
0.0 0.0 0.0

-2.813666434542774e6 1.5172994722759685e7 0.0
1.5172994722759685e7 -3.1290320272529004e6 0.0
0.0 0.0 0.0

-6.7546959434646405e6 3.592537588381875e6 0.0
3.592537588381875e6 9.894955347064588e6 0.0
0.0 0.0 0.0

-939176.2597618205 7.763892827811123e6 0.0
7.763892827811123e6 -4.349625706019515e6 0.0
0.0 0.0 0.0

-2.9418148927887855e6 1.1311549872264868e7 0.0
1.1311549872264868e7 3.358770325549256e6 0.0
0.0 0.0 0.0

-2.4209964745518654e6 9.581194822727755e6 0.0
9.581194822727755e6 -1.6109312968281438e6 0.0
0.0 0.0 0.0

-5.690888715045359e6 1.1183359115601985e7 0.0
1.1183359115601985e7 5.940059268961783e6 0.0
0.0 0.0 0.0

-373386.971621054 7.6042181285121115e6 0.0
7.6042181285121115e6 -3.525818685770215e6 0.0
0.0 0.0 0.0

-4.653793808280069e6 1.1943284687471217e7 0.0
1.1943284687471217e7 2.922628431129624e6 0.0
0.0 0.0 0.0

-6.10222422937559e6 9.57148132247315e6 0.0
9.57148132247315e6 4.872989198784722e6 0.0
0.0 0.0 0.0

-381965.27564360015 1.2297352244673505e7 0.0
1.2297352244673505e7 -4.914283470546732e6 0.0
0.0 0.0 0.0

-6.241813467716268e6 1.0970630801988205e7 0.0
1.0970630801988205e7 4.182062249653143e6 0.0
0.0 0.0 0.0

-7.424487991073567e6 1.3710800838101473e7 0.0
1.3710800838101473e7 5.12087369799255e6 0.0
0.0 0.0 0.0

1.1033723058509883e6 1.0002402409192981e7 0.0
1.0002402409192981e7 -9.66923854970566e6 0.0
0.0 0.0 0.0

3.1982465323634017e6 4.207127315369714e6 0.0
4.207127315369714e6 -4.949951987646614e6 0.0
0.0 0.0 0.0

-255675.04787365114 2.8409029483797755e6 0.0
2.8409029483797755e6 -2.514782495009857e6 0.0
0.0 0.0 0.0

4.752557826575673e6 6.824385267445109e6 0.0
6.824385267445109e6 -1.3704210638007574e7 0.0
0.0 0.0 0.0

-3.933572260775077e6 1.151228683081062e7 0.0
1.151228683081062e7 -386685.4003665183 0.0
0.0 0.0 0.0

-4.715205693904266e6 1.1002682833435668e7 0.0
1.1002682833435668e7 5.6753967672399115e6 0.0
0.0 0.0 0.0

-5.486753683807241e6 6.036817339444385e6 0.0
6.036817339444385e6 4.617123873308249e6 0.0
0.0 0.0 0.0

-1.1979608631419238e7 1.539387100224792e7 0.0
1.539387100224792e7 8.533797105321126e6 0.0
0.0 0.0 0.0

-9.381981687255677e6 2.3509661969890576e6 0.0
2.3509661969890576e6 1.0761184667647546e7 0.0
0.0 0.0 0.0

-625084.354792295 2.9008062108234923e7 0.0
2.9008062108234923e7 -5.4829161362898415e6 0.0
0.0 0.0 0.0

-2.636274181906771e6 1.1716115719890524e7 0.0
1.1716115719890524e7 -3.376609821037397e6 0.0
0.0 0.0 0.0

67289.64337202813 9.647679853221893e6 0.0
9.647679853221893e6 -5.9271731191143235e6 0.0
0.0 0.0 0.0

-4.432645081655123e6 1.1535465089966822e7 0.0
1.1535465089966822e7 4.672551125016801e6 0.0
0.0 0.0 0.0

-1.0342639067373402e7 3.2721036224872037e6 0.0
3.2721036224872037e6 1.2026010214070668e7 0.0
0.0 0.0 0.0

-3.288337245270017e6 1.1780042353870023e7 0.0
1.1780042353870023e7 -1.514547128176134e6 0.0
0.0 0.0 0.0

488873.06527004973 8.514264782864744e6 0.0
8.514264782864744e6 -975633.4284904764 0.0
0.0 0.0 0.0

3.22966702223124e6 5.835898194185769e6 0.0
5.835898194185769e6 -9.647907748912983e6 0.0
0.0 0.0 0.0

-1.6587297892200851e6 4.814007360496313e6 0.0
4.814007360496313e6 447982.04244158836 0.0
0.0 0.0 0.0

-1.3661012732164487e7 1.5801498316832624e7 0.0
1.5801498316832624e7 9.84568579393293e6 0.0
0.0 0.0 0.0

-4.946033267641351e6 1.0603667869093817e7 0.0
1.0603667869093817e7 5.821551923955258e6 0.0
0.0 0.0 0.0

589941.7455388559 1.0512224498662012e7 0.0
1.0512224498662012e7 -7.646504484115926e6 0.0
0.0 0.0 0.0

2.3163452785118897e6 9.072188992374752e6 0.0
9.072188992374752e6 -16535.06310636003 0.0
0.0 0.0 0.0

-1.2371522722551783e6 3.802422958925094e6 0.0
3.802422958925094e6 -317257.285959634 0.0
0.0 0.0 0.0

-1.7055856662985412e6 5.683215147202187e6 0.0
5.683215147202187e6 -1.210099868076483e6 0.0
0.0 0.0 0.0

702369.6843752521 1.0037766239603043e7 0.0
1.0037766239603043e7 -6.97108054768643e6 0.0
0.0 0.0 0.0

-1.6522757003614746e6 8.968587903696435e6 0.0
8.968587903696435e6 -2.9702345121272863e6 0.0
0.0 0.0 0.0

-6.595264482896456e6 9.11555915472577e6 0.0
9.11555915472577e6 5.556710487941708e6 0.0
0.0 0.0 0.0

632859.9029292581 1.0486955288755089e7 0.0
1.0486955288755089e7 -8.380019989600234e6 0.0
0.0 0.0 0.0

1.3161513695463394e6 9.123625435624668e6 0.0
9.123625435624668e6 -7.983966744292647e6 0.0
0.0 0.0 0.0

-6.340393346893655e6 1.1592723096948544e7 0.0
1.1592723096948544e7 5.360568791982525e6 0.0
0.0 0.0 0.0

92268.63356986456 1.0629682376056314e7 0.0
1.0629682376056314e7 -6.532499057732745e6 0.0
0.0 0.0 0.0

-5.886591937720738e6 6.008973630627831e6 0.0
6.008973630627831e6 7.0107672510612905e6 0.0
0.0 0.0 0.0

1.8868354141998647e6 6.014287120629321e6 0.0
6.014287120629321e6 -5.381488442664716e6 0.0
0.0 0.0 0.0

-1.780226650668895e7 1.2889017007384615e7 0.0
1.2889017007384615e7 5.874734299150758e6 0.0
0.0 0.0 0.0

1.6069326054482458e6 7.081762042007815e6 0.0
7.081762042007815e6 -5.611092695691118e6 0.0
0.0 0.0 0.0

3.10197359028953e6 5.962705336797096e6 0.0
5.962705336797096e6 -5.522622194196598e6 0.0
0.0 0.0 0.0

-6.170787578861734e6 1.2197709183776855e7 0.0
1.2197709183776855e7 5.151475287641788e6 0.0
0.0 0.0 0.0

-25356.39982767252 7.634426114108475e6 0.0
7.634426114108475e6 -84521.1385740566 0.0
0.0 0.0 0.0

2.1623097514183456e6 1.1000292757489916e7 0.0
1.1000292757489916e7 -4.880162973216461e6 0.0
0.0 0.0 0.0

-7.397260866495647e6 8.91927729208412e6 0.0
8.91927729208412e6 8.0259833837225605e6 0.0
0.0 0.0 0.0

-6.749832328871336e6 1.0409112081054993e7 0.0
1.0409112081054993e7 7.998727951353285e6 0.0
0.0 0.0 0.0

-1.595104959171549e6 1.1490240037084443e7 0.0
1.1490240037084443e7 9.90709415558057e6 0.0
0.0 0.0 0.0

-361185.76433314575 1.1071370972236488e7 0.0
1.1071370972236488e7 -1.6129627620693536e6 0.0
0.0 0.0 0.0

-5.723982326286275e6 1.1279674053610193e7 0.0
1.1279674053610193e7 6.097880818416018e6 0.0
0.0 0.0 0.0

-4.929773662108869e6 8.070915200661161e6 0.0
8.070915200661161e6 2.8577232059190744e6 0.0
0.0 0.0 0.0

595784.6919613527 1.021600530204913e7 0.0
1.021600530204913e7 -7.471950579133141e6 0.0
0.0 0.0 0.0

-6.433660250048606e6 1.1186518403244045e7 0.0
1.1186518403244045e7 4.616606737904529e6 0.0
0.0 0.0 0.0

-9.408741089849722e6 3.3561828876329544e6 0.0
3.3561828876329544e6 1.1077170867726166e7 0.0
0.0 0.0 0.0

-28904.466826057294 1.4534270830759536e7 0.0
1.4534270830759536e7 -4.79058422973227e6 0.0
0.0 0.0 0.0

-2.4481026368490723e6 1.1630762316197066e7 0.0
1.1630762316197066e7 -2.7370178413347173e6 0.0
0.0 0.0 0.0

1.3326514521570816e6 6.71911127849705e6 0.0
6.71911127849705e6 -6.789045013703969e6 0.0
0.0 0.0 0.0

-1.3544225339783286e6 1.326929440598418e7 0.0
1.326929440598418e7 -3.8372594176058583e6 0.0
0.0 0.0 0.0

-5.51681512394381e6 1.2291423436813401e7 0.0
1.2291423436813401e7 2.4673169215259594e6 0.0
0.0 0.0 0.0

-679536.2333984325 7.218171378397325e6 0.0
7.218171378397325e6 -2.265120656984079e6 0.0
0.0 0.0 0.0

3.8414471875383393e6 1.4297759987524424e7 0.0
1.4297759987524424e7 1.2804834123614814e7 0.0
0.0 0.0 0.0

-5.840627962009794e6 -4.679756936668347e6 0.0
-4.679756936668347e6 1.1412852773118455e7 0.0
0.0 0.0 0.0

-239896.57012751224 9.214294359491274e6 0.0
9.214294359491274e6 159096.19220580667 0.0
0.0 0.0 0.0

-5.085836732953783e6 -1.407783554394789e6 0.0
-1.407783554394789e6 5.618996311101249e6 0.0
0.0 0.0 0.0

-5.694089664221009e6 1.2808803389560843e7 0.0
1.2808803389560843e7 2.097899657623429e6 0.0
0.0 0.0 0.0

-3.939242088489836e6 1.4130126054418724e7 0.0
1.4130126054418724e7 -1.996220163843432e6 0.0
0.0 0.0 0.0

-1.2848732102183219e7 1.566995886920673e7 0.0
1.566995886920673e7 8.999962104592346e6 0.0
0.0 0.0 0.0

-4.533909344204425e6 9.967659942055438e6 0.0
9.967659942055438e6 6.933475613182116e6 0.0
0.0 0.0 0.0

-8.451447277920233e6 2.9908474137269207e6 0.0
2.9908474137269207e6 1.1614075163454417e7 0.0
0.0 0.0 0.0

-5.9967358579895785e6 1.290014686780743e7 0.0
1.290014686780743e7 2.6865981149380086e6 0.0
0.0 0.0 0.0

-6.309161572981018e6 9.783610498221241e6 0.0
9.783610498221241e6 4.701804268659739e6 0.0
0.0 0.0 0.0

-6.023947925576746e6 1.0498689446191054e7 0.0
1.0498689446191054e7 4.0014316317707305e6 0.0
0.0 0.0 0.0

3.231058337475623e6 7.897301868310428e6 0.0
7.897301868310428e6 -1.1194946709011326e7 0.0
0.0 0.0 0.0

-6.309341003482395e6 1.1824061929291578e7 0.0
1.1824061929291578e7 5.474486823415643e6 0.0
0.0 0.0 0.0

1.066683260753962e6 1.066833299144098e7 0.0
1.066833299144098e7 4.352305146120239e6 0.0
0.0 0.0 0.0

837983.947334222 9.24421097013051e6 0.0
9.24421097013051e6 -7.053000743590712e6 0.0
0.0 0.0 0.0

-1.2224275880123477e7 -4.458874529958269e6 0.0
-4.458874529958269e6 2.5265789432056926e7 0.0
0.0 0.0 0.0

-6.559413795966821e6 1.2970603903809005e7 0.0
1.2970603903809005e7 4.168563164392371e6 0.0
0.0 0.0 0.0

845221.3992179243 9.385520506604949e6 0.0
9.385520506604949e6 -152716.9249061427 0.0
0.0 0.0 0.0

-3.3989297512416296e7 3.375959308155054e7 0.0
3.375959308155054e7 -1.1090240128173662e7 0.0
0.0 0.0 0.0

886039.4723123985 5.476302811136527e6 0.0
5.476302811136527e6 -5.376863130217429e6 0.0
0.0 0.0 0.0

-3.191070558794622e6 1.0039616639369989e7 0.0
1.0039616639369989e7 -78690.13195214828 0.0
0.0 0.0 0.0

-6.766631321829232e6 1.0990956141572652e7 0.0
1.0990956141572652e7 3.7412308104285253e6 0.0
0.0 0.0 0.0

524398.8365006866 1.1350877691837443e7 0.0
1.1350877691837443e7 -6.562067260722917e6 0.0
0.0 0.0 0.0

-2.3756906500239125e6 1.184316679120124e7 0.0
1.184316679120124e7 -3.8960491236745254e6 0.0
0.0 0.0 0.0

3.838987607061727e6 1.0707565540052153e7 0.0
1.0707565540052153e7 -5.001567265041081e6 0.0
0.0 0.0 0.0

-9.10939695163715e6 1.3854061895555096e7 0.0
1.3854061895555096e7 6.7413848496748265e6 0.0
0.0 0.0 0.0

-3.117098964862884e6 1.1713006272384822e7 0.0
1.1713006272384822e7 355384.0776661099 0.0
0.0 0.0 0.0

3.912068812180151e6 6.527293678788931e6 0.0
6.527293678788931e6 -1.1315870906407027e7 0.0
0.0 0.0 0.0

-1.303836989040069e7 1.3278905486763341e7 0.0
1.3278905486763341e7 1.773350907616172e6 0.0
0.0 0.0 0.0

-5.709354619915325e6 9.654738481423413e6 0.0
9.654738481423413e6 4.878270387350922e6 0.0
0.0 0.0 0.0

-3.356196570825819e6 1.3816692288188076e7 0.0
1.3816692288188076e7 -2.552824362352083e6 0.0
0.0 0.0 0.0

-7.44626443805507e6 1.109686491509571e7 0.0
1.109686491509571e7 1.1058363652360355e7 0.0
0.0 0.0 0.0

3.4648584675691156e6 1.2577722213400772e7 0.0
1.2577722213400772e7 -6.687507895321128e6 0.0
0.0 0.0 0.0

-5.552569521098543e6 1.1912968452168792e7 0.0
1.1912968452168792e7 5.25430954496384e6 0.0
0.0 0.0 0.0

-2.141660464913721e6 9.294370629620913e6 0.0
9.294370629620913e6 -3.262271153468505e6 0.0
0.0 0.0 0.0

-775789.829781218 6.042380457449702e6 0.0
6.042380457449702e6 3.025785842691368e6 0.0
0.0 0.0 0.0

545515.4234660955 1.2181453836864354e7 0.0
1.2181453836864354e7 -5.079460694092613e6 0.0
0.0 0.0 0.0

-5.501532433967639e6 9.93772654261506e6 0.0
9.93772654261506e6 6.495167965332098e6 0.0
0.0 0.0 0.0

-1.220815042868537e7 69934.79056838012 0.0
69934.79056838012 2.841726320602385e7 0.0
0.0 0.0 0.0

-1.2272521490864107e7 -5.707695023767399e6 0.0
-5.707695023767399e6 2.986835804348577e7 0.0
0.0 0.0 0.0

-2.7418008966105357e6 1.0123833103204781e7 0.0
1.0123833103204781e7 -2.5977797582707605e6 0.0
0.0 0.0 0.0

224808.1843981007 1.1782819551146677e7 0.0
1.1782819551146677e7 -5.785741460340827e6 0.0
0.0 0.0 0.0

-2.1101763954561707e6 1.1998323628374776e7 0.0
1.1998323628374776e7 -4.279370319032194e6 0.0
0.0 0.0 0.0

-3.9733801027306076e6 1.2010273198506488e7 0.0
1.2010273198506488e7 520300.73652090644 0.0
0.0 0.0 0.0

4.1294448543444565e6 9.216066176559484e6 0.0
9.216066176559484e6 298249.50222200004 0.0
0.0 0.0 0.0

-5.625418417566439e6 1.0574175190994963e7 0.0
1.0574175190994963e7 6.2585128252404295e6 0.0
0.0 0.0 0.0

-1.671852805542393e6 1.2092954673236169e7 0.0
1.2092954673236169e7 -4.685317563500545e6 0.0
0.0 0.0 0.0

-2.0834027068210212e6 8.91331370781415e6 0.0
8.91331370781415e6 -2.965306639718972e6 0.0
0.0 0.0 0.0

-484789.57359999267 1.790236574467726e6 0.0
1.790236574467726e6 651890.542769352 0.0
0.0 0.0 0.0

1.3815843484954895e6 9.621053354311526e6 0.0
9.621053354311526e6 -9.707068073373072e6 0.0
0.0 0.0 0.0

-6.548148551403706e6 -406204.4789789588 0.0
-406204.4789789588 7.847569206927877e6 0.0
0.0 0.0 0.0

-1.074291834838322e6 192580.6305470685 0.0
192580.6305470685 1.3921567073309438e6 0.0
0.0 0.0 0.0

-641435.7345765303 362895.99201803806 0.0
362895.99201803806 891390.6296889496 0.0
0.0 0.0 0.0

-1.5238662676128498e6 5.640444599477892e6 0.0
5.640444599477892e6 -576947.8596951419 0.0
0.0 0.0 0.0

-657094.7658830814 9.879794228021454e6 0.0
9.879794228021454e6 -5.74590901041759e6 0.0
0.0 0.0 0.0

1.7411635845769797e6 9.480549469257165e6 0.0
9.480549469257165e6 -9.488256924735907e6 0.0
0.0 0.0 0.0

-768187.8459219856 1.1721069715333767e7 0.0
1.1721069715333767e7 -957504.4368783863 0.0
0.0 0.0 0.0

-1.1639538191005373e6 1.2682479271674551e7 0.0
1.2682479271674551e7 -4.492207615374807e6 0.0
0.0 0.0 0.0

2.557625387710687e6 1.0402235902065728e7 0.0
1.0402235902065728e7 -4.168127547179482e6 0.0
0.0 0.0 0.0

-4.821569883259845e6 1.196473677851706e7 0.0
1.196473677851706e7 1.1752317536665655e6 0.0
0.0 0.0 0.0

1.0866821438690184e7 1.307035252907635e7 0.0
1.307035252907635e7 157923.54940490518 0.0
0.0 0.0 0.0

-3.3270794206149955e6 7.101422940719994e6 0.0
7.101422940719994e6 9.064738828564286e6 0.0
0.0 0.0 0.0

1.6128390269078698e6 1.1556421931303987e7 0.0
1.1556421931303987e7 -5.102737813187705e6 0.0
0.0 0.0 0.0

-2.6503686091179564e6 1.4144216328464044e7 0.0
1.4144216328464044e7 -1.9733196053596472e6 0.0
0.0 0.0 0.0

-6.450878452684018e6 1.3009722821535388e7 0.0
1.3009722821535388e7 3.5951071542171235e6 0.0
0.0 0.0 0.0

-91868.67879347806 1.0933034087814556e7 0.0
1.0933034087814556e7 -6.2973228966386095e6 0.0
0.0 0.0 0.0

-5.95444378768695e6 1.0915689904478194e7 0.0
1.0915689904478194e7 2.0829283597479668e6 0.0
0.0 0.0 0.0

-6.196706840457333e6 1.2324942556437502e7 0.0
1.2324942556437502e7 5.129649811518358e6 0.0
0.0 0.0 0.0

1.609988175484721e6 4.596321495619796e6 0.0
4.596321495619796e6 -5.865336024849368e6 0.0
0.0 0.0 0.0

-5.659050302199132e6 1.2229171440505007e7 0.0
1.2229171440505007e7 2.037545556245146e6 0.0
0.0 0.0 0.0

-1.5080851341244085e7 1.5912477026856054e7 0.0
1.5912477026856054e7 1.0595073366095934e7 0.0
0.0 0.0 0.0

-518336.75923815405 7.21991281603428e6 0.0
7.21991281603428e6 -4.853577337484117e6 0.0
0.0 0.0 0.0

1.0760902602828e6 9.32103806836044e6 0.0
9.32103806836044e6 -7.608459183857932e6 0.0
0.0 0.0 0.0

1.6241751939005074e6 9.301450435266588e6 0.0
9.301450435266588e6 -9.063973434796467e6 0.0
0.0 0.0 0.0

1.4622135163362296e6 9.795071407247504e6 0.0
9.795071407247504e6 -9.517962487996876e6 0.0
0.0 0.0 0.0

-6.300156038843483e6 1.810335132162412e7 0.0
1.810335132162412e7 1.1938242560429587e6 0.0
0.0 0.0 0.0

-1.2179848191181878e6 1.2102689688585302e7 0.0
1.2102689688585302e7 -5.134664678824163e6 0.0
0.0 0.0 0.0

-1.5940223804333154e6 1.2709509689466685e7 0.0
1.2709509689466685e7 5.672867501768406e6 0.0
0.0 0.0 0.0

-1.475377980140145e7 3.527223137126662e6 0.0
3.527223137126662e6 7.932125668073407e6 0.0
0.0 0.0 0.0

-2.4001192972241472e7 1.6400953761387456e7 0.0
1.6400953761387456e7 6.6784128679503e6 0.0
0.0 0.0 0.0

4.308947309985026e6 7.479751997219892e6 0.0
7.479751997219892e6 -1.3329811656081434e7 0.0
0.0 0.0 0.0

1.0513222171086054e6 1.200691098076033e7 0.0
1.200691098076033e7 -5.1933434227386955e6 0.0
0.0 0.0 0.0

-2.385683714644381e6 1.3654941280816624e7 0.0
1.3654941280816624e7 -3.3306426172091896e6 0.0
0.0 0.0 0.0

1.6957970164233637e6 4.493303791122111e6 0.0
4.493303791122111e6 -5.745847245315203e6 0.0
0.0 0.0 0.0

-5.410439145004276e6 1.1825396972427448e7 0.0
1.1825396972427448e7 878934.7346081322 0.0
0.0 0.0 0.0

-2.9914705716723944e6 1.0955303537931727e7 0.0
1.0955303537931727e7 4.322379713841738e6 0.0
0.0 0.0 0.0

-4.688523239089884e6 8.883595022274407e6 0.0
8.883595022274407e6 1.0151435590305995e7 0.0
0.0 0.0 0.0

-298928.29143769474 2.534541205846781e6 0.0
2.534541205846781e6 -281141.5030468201 0.0
0.0 0.0 0.0

583602.5528542874 1.0331499407147339e7 0.0
1.0331499407147339e7 -7.35899310822148e6 0.0
0.0 0.0 0.0

873589.3096467666 7.722518208989979e6 0.0
7.722518208989979e6 -6.48622590418769e6 0.0
0.0 0.0 0.0

532011.1572566121 7.220768464724536e6 0.0
7.220768464724536e6 -4.0148390320496014e6 0.0
0.0 0.0 0.0

-517050.43620930193 2.2554960571502363e6 0.0
2.2554960571502363e6 -798071.3577753766 0.0
0.0 0.0 0.0

-8.045559854657637e6 1.327711048224632e7 0.0
1.327711048224632e7 3.258697838879724e7 0.0
0.0 0.0 0.0

-1.0297208184474e7 -1.5195175631802536e6 0.0
-1.5195175631802536e6 1.4923797551824074e7 0.0
0.0 0.0 0.0

-6.339194285699728e6 1.4392134009732755e7 0.0
1.4392134009732755e7 2.5944770938045536e6 0.0
0.0 0.0 0.0

-3.068419423499035e6 9.784786700643659e6 0.0
9.784786700643659e6 -35005.380061587086 0.0
0.0 0.0 0.0

666968.8851202363 9.575333481419398e6 0.0
9.575333481419398e6 -6.647812415922114e6 0.0
0.0 0.0 0.0

-2.3563535807131603e6 1.3114507748316849e7 0.0
1.3114507748316849e7 -2.6124670877562705e6 0.0
0.0 0.0 0.0

-6.474002166818697e6 1.146204626686655e7 0.0
1.146204626686655e7 4.946487276545387e6 0.0
0.0 0.0 0.0

-9.666143004820867e6 1.9890364831520066e7 0.0
1.9890364831520066e7 6.001128305799637e6 0.0
0.0 0.0 0.0

2.6578120898086643e6 6.168416317720054e6 0.0
6.168416317720054e6 -5.017972851538223e6 0.0
0.0 0.0 0.0

-1.1945733496230254e6 1.4071227614006817e6 0.0
1.4071227614006817e6 -40643.96980727458 0.0
0.0 0.0 0.0

-472012.24018664286 1.1290525836733736e7 0.0
1.1290525836733736e7 -831158.8712551148 0.0
0.0 0.0 0.0

-6.309451548004021e6 1.214345665498134e7 0.0
1.214345665498134e7 4.988687024531934e6 0.0
0.0 0.0 0.0

-3.8594082652013307e6 1.0772330897188628e7 0.0
1.0772330897188628e7 5.635691678157766e6 0.0
0.0 0.0 0.0

-5.981319106737664e6 5.371739381533771e6 0.0
5.371739381533771e6 7.561763038243186e6 0.0
0.0 0.0 0.0

820522.7751815175 9.743562202820254e6 0.0
9.743562202820254e6 -7.429226643185586e6 0.0
0.0 0.0 0.0

-6.700964993487519e7 9.84995783793738e6 0.0
9.84995783793738e6 7.609312885410771e6 0.0
0.0 0.0 0.0

-6.257652043105867e6 4.295542297986611e6 0.0
4.295542297986611e6 8.168630502107864e6 0.0
0.0 0.0 0.0

-6.31443866115639e6 1.2311641499499213e7 0.0
1.2311641499499213e7 5.039743415594015e6 0.0
0.0 0.0 0.0

230655.2628500485 1.0827330599900631e7 0.0
1.0827330599900631e7 -6.72010919207185e6 0.0
0.0 0.0 0.0

1.0176973955903905e6 1.0051581036443388e7 0.0
1.0051581036443388e7 -9.493358844823843e6 0.0
0.0 0.0 0.0

-9.577192905165501e6 1.863328154795596e7 0.0
1.863328154795596e7 6.288755093544444e6 0.0
0.0 0.0 0.0

811749.1655835202 1.024320937362735e7 0.0
1.024320937362735e7 -9.086523389117353e6 0.0
0.0 0.0 0.0

-655982.7767279171 1.1970658755840378e7 0.0
1.1970658755840378e7 -5.458567247179634e6 0.0
0.0 0.0 0.0

-339765.6781351125 1.1282541040309988e7 0.0
1.1282541040309988e7 -593888.2556061967 0.0
0.0 0.0 0.0

-8.415820236299392e6 1.5195932715940172e7 0.0
1.5195932715940172e7 5.4304415021699e6 0.0
0.0 0.0 0.0

-6.262476255541394e6 1.1868497026757807e7 0.0
1.1868497026757807e7 4.68494988381692e6 0.0
0.0 0.0 0.0

557885.3967488431 1.012765585197495e7 0.0
1.012765585197495e7 -7.159870670518354e6 0.0
0.0 0.0 0.0

-2.0556528877589256e6 1.1305440104357436e7 0.0
1.1305440104357436e7 -3.629806253625079e6 0.0
0.0 0.0 0.0

-5.6504681812302e6 1.1321269396870764e7 0.0
1.1321269396870764e7 2.9907900996634224e6 0.0
0.0 0.0 0.0

-6.30444676223493e6 1.2406578615084225e7 0.0
1.2406578615084225e7 5.052778935230559e6 0.0
0.0 0.0 0.0

-4.03324360132425e6 -1.4492672316225693e6 0.0
-1.4492672316225693e6 5.656001236996067e6 0.0
0.0 0.0 0.0

-6.2820500271858405e6 9.245577920241782e6 0.0
9.245577920241782e6 6.567556382130959e6 0.0
0.0 0.0 0.0

658820.0210883892 1.0364557475676619e7 0.0
1.0364557475676619e7 -8.691053067057919e6 0.0
0.0 0.0 0.0

5.892227894813869e6 1.0095782596887397e7 0.0
1.0095782596887397e7 -4.515221084209556e6 0.0
0.0 0.0 0.0

621025.7893544901 1.0473783057417788e7 0.0
1.0473783057417788e7 -7.559957893030432e6 0.0
0.0 0.0 0.0

995246.4931614508 9.406731835011134e6 0.0
9.406731835011134e6 -4.485484553925123e6 0.0
0.0 0.0 0.0

-8.988670508610725e6 2.421443226308e6 0.0
2.421443226308e6 1.2064368298201635e7 0.0
0.0 0.0 0.0

-5.3123453127355855e6 1.0360634026199153e7 0.0
1.0360634026199153e7 1.878891519114203e6 0.0
0.0 0.0 0.0

891537.2974772484 8.908669645087048e6 0.0
8.908669645087048e6 -5.305515917916017e6 0.0
0.0 0.0 0.0

744159.9492757516 1.1349845078687541e7 0.0
1.1349845078687541e7 -6.366866860763502e6 0.0
0.0 0.0 0.0

-1.8187966614097897e7 1.6344332016420232e7 0.0
1.6344332016420232e7 1.1970525481448472e7 0.0
0.0 0.0 0.0

-2.3746753388823073e7 2.274105232619269e6 0.0
2.274105232619269e6 1.0121662136801394e7 0.0
0.0 0.0 0.0

-7.172052730028442e6 1.5010142088211585e7 0.0
1.5010142088211585e7 2.173153054439379e6 0.0
0.0 0.0 0.0

-1.6445776922399044e7 1.622094654572376e7 0.0
1.622094654572376e7 1.1552325985512514e7 0.0
0.0 0.0 0.0

-3.732724968446911e6 2.5299482706614457e7 0.0
2.5299482706614457e7 1.9306692816361259e6 0.0
0.0 0.0 0.0

1.050504865869543e6 9.992418821342908e6 0.0
9.992418821342908e6 -9.255802887246162e6 0.0
0.0 0.0 0.0

-1.8090330985224792e6 1.0333979884479199e7 0.0
1.0333979884479199e7 -8.287311399023739e6 0.0
0.0 0.0 0.0

-5.834252359163009e6 1.2142750938181337e7 0.0
1.2142750938181337e7 4.926159066772308e6 0.0
0.0 0.0 0.0

-7.842737993948368e6 3.9926458684777617e6 0.0
3.9926458684777617e6 9.293147125614166e6 0.0
0.0 0.0 0.0

-5.37968005052314e6 1.1561283859484337e7 0.0
1.1561283859484337e7 2.110035510648934e6 0.0
0.0 0.0 0.0

-1.1698095480511566e6 8.514463836374955e6 0.0
8.514463836374955e6 1.0864508446495384e6 0.0
0.0 0.0 0.0

-2.251465199997036e6 9.531912324012332e6 0.0
9.531912324012332e6 -2.2994588059596485e6 0.0
0.0 0.0 0.0

-9.821218537087832e6 2.110222101303874e7 0.0
2.110222101303874e7 5.274421515356442e6 0.0
0.0 0.0 0.0

-2.5967524381880267e6 1.3002305380469581e7 0.0
1.3002305380469581e7 -3.434296856321628e6 0.0
0.0 0.0 0.0

1.628122093426464e6 1.0757007223380642e7 0.0
1.0757007223380642e7 -4.8489971558613945e6 0.0
0.0 0.0 0.0

3.54898340662371e6 5.572010707805797e6 0.0
5.572010707805797e6 -1.0006350218893893e7 0.0
0.0 0.0 0.0

-6.40985285585308e6 1.1710585967012336e7 0.0
1.1710585967012336e7 5.166502386342252e6 0.0
0.0 0.0 0.0

-3.1984108092883383e6 8.61178260766135e6 0.0
8.61178260766135e6 884604.0924229319 0.0
0.0 0.0 0.0

-118600.05705840653 7.52535867152792e6 0.0
7.52535867152792e6 -4.625777097334141e6 0.0
0.0 0.0 0.0

1.1479371435723556e6 1.003219759101244e7 0.0
1.003219759101244e7 -9.46533948084905e6 0.0
0.0 0.0 0.0

-3.4128396750182267e6 1.1435251729450462e7 0.0
1.1435251729450462e7 4.203379667180999e6 0.0
0.0 0.0 0.0

-5.161142560247272e6 1.0339806212340478e7 0.0
1.0339806212340478e7 7.2182868804604e6 0.0
0.0 0.0 0.0

-723160.8806253208 1.0658830730385635e7 0.0
1.0658830730385635e7 -2.0286783582560017e6 0.0
0.0 0.0 0.0

-1.5942738404283996e6 1.3958139807755113e7 0.0
1.3958139807755113e7 -3.0252537369592013e6 0.0
0.0 0.0 0.0

-6.27813638234524e6 1.1561040754513955e7 0.0
1.1561040754513955e7 5.460354154917559e6 0.0
0.0 0.0 0.0

-1.0897028914413858e7 -3.678747322123937e6 0.0
-3.678747322123937e6 2.1325812231035195e7 0.0
0.0 0.0 0.0

-1.5731265584708976e6 6.022871441510591e6 0.0
6.022871441510591e6 -708659.4789771824 0.0
0.0 0.0 0.0

-318352.0318997709 1.1014894667690454e7 0.0
1.1014894667690454e7 -1.9075800096599583e6 0.0
0.0 0.0 0.0

-6.230484033359641e6 1.2265936208021982e7 0.0
1.2265936208021982e7 5.022142726418676e6 0.0
0.0 0.0 0.0

-6.260834205461162e6 1.039420300661243e7 0.0
1.039420300661243e7 5.9383271460075965e6 0.0
0.0 0.0 0.0

691462.6391384667 8.614640641882095e6 0.0
8.614640641882095e6 -6.164984190509114e6 0.0
0.0 0.0 0.0

-6.229638949186355e6 1.248861689843705e7 0.0
1.248861689843705e7 3.9059638129360867e6 0.0
0.0 0.0 0.0

-8.868086523899052e6 1.6044587886935761e7 0.0
1.6044587886935761e7 5.702899893310705e6 0.0
0.0 0.0 0.0

-4.56891817571539e6 9.789063262590576e6 0.0
9.789063262590576e6 2.422656953086427e6 0.0
0.0 0.0 0.0

557789.0908535328 9.649878386663448e6 0.0
9.649878386663448e6 -6.844012972273774e6 0.0
0.0 0.0 0.0

-6.483542344081688e6 1.2804038211489735e7 0.0
1.2804038211489735e7 3.267940319350139e6 0.0
0.0 0.0 0.0

-3.6462903452946222e6 1.3524769319376834e7 0.0
1.3524769319376834e7 -2.289375892768757e6 0.0
0.0 0.0 0.0

-4.632810408154039e6 1.1489515576989831e7 0.0
1.1489515576989831e7 6.727475681192663e6 0.0
0.0 0.0 0.0

-4.655764160294395e6 9.526446854327196e6 0.0
9.526446854327196e6 2.802189213461558e6 0.0
0.0 0.0 0.0

-6.767266027046742e6 1.2096614073494479e7 0.0
1.2096614073494479e7 5.143381561935885e6 0.0
0.0 0.0 0.0

-8.082857593458518e6 -2.412245865944838e6 0.0
-2.412245865944838e6 1.1435649224341938e7 0.0
0.0 0.0 0.0

-8.560946727474468e6 1.5577066416938914e7 0.0
1.5577066416938914e7 5.648721588454593e6 0.0
0.0 0.0 0.0

3.491620875321958e6 5.631560820747679e6 0.0
5.631560820747679e6 -9.8444018934982e6 0.0
0.0 0.0 0.0

-5.591440556190447e6 1.246648854829434e7 0.0
1.246648854829434e7 1.1926245960876872e6 0.0
0.0 0.0 0.0

-6.02039031239775e6 -1.8400480577111372e6 0.0
-1.8400480577111372e6 8.749901697749771e6 0.0
0.0 0.0 0.0

538747.8095761898 8.259715207920373e6 0.0
8.259715207920373e6 -4.670742298506789e6 0.0
0.0 0.0 0.0

-5.070277398914995e6 1.167482547854674e7 0.0
1.167482547854674e7 3.0992188337128665e6 0.0
0.0 0.0 0.0

-1.0059955909984682e6 1.1966579314295592e7 0.0
1.1966579314295592e7 -798094.7194175785 0.0
0.0 0.0 0.0

-1.6213733692708607e6 1.2115724144449508e7 0.0
1.2115724144449508e7 -223927.67230452772 0.0
0.0 0.0 0.0

641878.1897450509 1.0794691291197147e7 0.0
1.0794691291197147e7 -7.563896385212848e6 0.0
0.0 0.0 0.0

-9.076183049858596e6 4.337370532280363e6 0.0
4.337370532280363e6 1.0783458429049281e7 0.0
0.0 0.0 0.0

-2.14961646079344e6 8.815426023577208e6 0.0
8.815426023577208e6 2.716935365859993e6 0.0
0.0 0.0 0.0

1.9201006651498526e6 7.272272393048912e6 0.0
7.272272393048912e6 -7.657468149295475e6 0.0
0.0 0.0 0.0

-2.740611136534603e6 1.2027054609413337e7 0.0
1.2027054609413337e7 5.543022511971221e6 0.0
0.0 0.0 0.0

-447029.06594001036 1.2191744754318116e7 0.0
1.2191744754318116e7 -1.2019580330051353e7 0.0
0.0 0.0 0.0

-5.670068095878189e6 9.485225055270141e6 0.0
9.485225055270141e6 4.951614652798712e6 0.0
0.0 0.0 0.0

-6.598582393660961e6 1.2717908333178468e7 0.0
1.2717908333178468e7 3.7947333040570663e6 0.0
0.0 0.0 0.0

-4.05276521073821e6 9.915399295891654e6 0.0
9.915399295891654e6 1.065152269250753e6 0.0
0.0 0.0 0.0

-2.126895639513703e6 1.1904489863352153e7 0.0
1.1904489863352153e7 -3.082050577973493e6 0.0
0.0 0.0 0.0

418931.16229371517 1.1804979895073643e7 0.0
1.1804979895073643e7 -5.172737969601771e6 0.0
0.0 0.0 0.0

-6.168313349059081e6 1.1974641197217515e7 0.0
1.1974641197217515e7 5.196561942281344e6 0.0
0.0 0.0 0.0

-4.0692564503217842e6 1.1420106844008833e7 0.0
1.1420106844008833e7 4.832475266403797e6 0.0
0.0 0.0 0.0

-5.893327740011746e6 1.0218265735959752e7 0.0
1.0218265735959752e7 7.001631175693395e6 0.0
0.0 0.0 0.0

-246319.26046529366 9.873710923826672e6 0.0
9.873710923826672e6 -7.746276621417834e6 0.0
0.0 0.0 0.0

-379591.266410823 9.76690775979828e6 0.0
9.76690775979828e6 -6.103972911175588e6 0.0
0.0 0.0 0.0

-2.809683603792297e6 1.1418626004155448e7 0.0
1.1418626004155448e7 3.517631925989871e6 0.0
0.0 0.0 0.0

2.6164838313544625e6 8.423735883726709e6 0.0
8.423735883726709e6 -1.0720660858188502e7 0.0
0.0 0.0 0.0

-2.0231114777262486e6 1.1294211197197467e7 0.0
1.1294211197197467e7 -1.0846391695852606e6 0.0
0.0 0.0 0.0

-9.180544680041352e6 1.660091922590082e7 0.0
1.660091922590082e7 5.976362630456293e6 0.0
0.0 0.0 0.0

-2.398922073610328e6 1.1603073507096663e7 0.0
1.1603073507096663e7 3.9857727176170857e6 0.0
0.0 0.0 0.0

7.243319172009755e6 1.6710433275226768e7 0.0
1.6710433275226768e7 2.414437663278397e7 0.0
0.0 0.0 0.0

-3.839248732320069e6 1.3145850515570508e7 0.0
1.3145850515570508e7 -1.2797488666824687e7 0.0
0.0 0.0 0.0

-3.3999486975454614e6 8.717000078515286e6 0.0
8.717000078515286e6 195221.1717594259 0.0
0.0 0.0 0.0

-1.787392281667496e7 1.0946112014544867e7 0.0
1.0946112014544867e7 1.2424742146243803e7 0.0
0.0 0.0 0.0

-4.836657897957278e6 1.1592070897028605e7 0.0
1.1592070897028605e7 691981.3416473928 0.0
0.0 0.0 0.0

-2.348914802199455e6 1.1586635254191125e7 0.0
1.1586635254191125e7 2.72090899089275e6 0.0
0.0 0.0 0.0

-3.340783811175751e6 1.179566115401836e7 0.0
1.179566115401836e7 5.190735200542217e6 0.0
0.0 0.0 0.0

-1.9492495021655932e6 1.414772780048322e7 0.0
1.414772780048322e7 1.114272376920704e7 0.0
0.0 0.0 0.0

1.1555458457425064e6 9.235737909061093e6 0.0
9.235737909061093e6 1.76063951662145e6 0.0
0.0 0.0 0.0

-567464.2800258328 1.1819163996250192e7 0.0
1.1819163996250192e7 3.320921640128671e6 0.0
0.0 0.0 0.0

-2.934405559998537e6 1.4041765096096713e7 0.0
1.4041765096096713e7 -2.907020019241893e6 0.0
0.0 0.0 0.0

-1.6658378976251883e6 1.1179060547801899e7 0.0
1.1179060547801899e7 2.2507341509068487e6 0.0
0.0 0.0 0.0

-2.8136215572565496e6 1.1204156239155129e7 0.0
1.1204156239155129e7 3.5818354198026257e6 0.0
0.0 0.0 0.0

-7.10760711346063e6 1.5361694514377292e7 0.0
1.5361694514377292e7 3.5965602504871343e6 0.0
0.0 0.0 0.0

-2.8184265860407967e6 9.73093347773887e6 0.0
9.73093347773887e6 3.945280355640823e6 0.0
0.0 0.0 0.0

2.761474326636987e6 5.484389024443646e6 0.0
5.484389024443646e6 -7.970607851930927e6 0.0
0.0 0.0 0.0

-5.650396422274639e6 7.310072558428838e6 0.0
7.310072558428838e6 4.927369451723259e6 0.0
0.0 0.0 0.0

-3.967743226089772e6 -1.7873771505084957e6 0.0
-1.7873771505084957e6 5.94243840570523e6 0.0
0.0 0.0 0.0

-4.834146601593247e6 1.0959189865327876e7 0.0
1.0959189865327876e7 5.607428011709583e6 0.0
0.0 0.0 0.0

-6.493786735895225e6 1.3427885055421729e7 0.0
1.3427885055421729e7 3.367784292209349e6 0.0
0.0 0.0 0.0

266755.09802943864 1.3452217094617112e7 0.0
1.3452217094617112e7 6.124803582107064e6 0.0
0.0 0.0 0.0

-1.1839193165319855e6 1.1467007078806272e7 0.0
1.1467007078806272e7 2.6853877025576113e6 0.0
0.0 0.0 0.0

-6.616482016297078e6 1.202810105069859e7 0.0
1.202810105069859e7 5.255814300145138e6 0.0
0.0 0.0 0.0

1.8260826898117159e6 5.224345207042559e6 0.0
5.224345207042559e6 -5.20276405317898e6 0.0
0.0 0.0 0.0

-5.833919124527311e6 1.2574003264161615e7 0.0
1.2574003264161615e7 1.7749603211268708e6 0.0
0.0 0.0 0.0

1.208617584790748e6 8.002282893318221e6 0.0
8.002282893318221e6 -6.491866201534575e6 0.0
0.0 0.0 0.0

-6.476295630378671e6 1.2183193939915221e7 0.0
1.2183193939915221e7 4.548006912505921e6 0.0
0.0 0.0 0.0

-4.240154130385205e6 1.4805244584367929e7 0.0
1.4805244584367929e7 -1.7348672748687365e6 0.0
0.0 0.0 0.0

-3.9984809273115015e6 1.1726011585593693e7 0.0
1.1726011585593693e7 1.0220455708181956e6 0.0
0.0 0.0 0.0

4.851370553231199e6 6.042506940790342e6 0.0
6.042506940790342e6 -1.2975846744122397e7 0.0
0.0 0.0 0.0

2.517882232416812e6 9.881788516378239e6 0.0
9.881788516378239e6 -2.9453245333558116e6 0.0
0.0 0.0 0.0

-5.502196619167112e6 1.3512305256932024e7 0.0
1.3512305256932024e7 1.6690663450998385e6 0.0
0.0 0.0 0.0

-3.818391161792645e6 1.2300513188226134e7 0.0
1.2300513188226134e7 -761383.0481479452 0.0
0.0 0.0 0.0

585224.2904099701 1.0077249777058069e7 0.0
1.0077249777058069e7 -6.912725023746784e6 0.0
0.0 0.0 0.0

1.7757934215729004e6 5.864909403059157e6 0.0
5.864909403059157e6 -7.318989736797608e6 0.0
0.0 0.0 0.0

-5.468133073596046e6 9.995010796131372e6 0.0
9.995010796131372e6 3.127221567579969e6 0.0
0.0 0.0 0.0

1.4423383463695906e6 9.361471269646468e6 0.0
9.361471269646468e6 -9.653380234816728e6 0.0
0.0 0.0 0.0

-6.448470680523552e6 -3.377485227980846e6 0.0
-3.377485227980846e6 7.499286325691238e6 0.0
0.0 0.0 0.0

-6.22873104340341e6 9.480923708439143e6 0.0
9.480923708439143e6 6.222474474689931e6 0.0
0.0 0.0 0.0

-7.524304384813323e6 1.1040644147381956e7 0.0
1.1040644147381956e7 3.281746684255727e6 0.0
0.0 0.0 0.0

5.241828967560281e6 8.02848177203316e6 0.0
8.02848177203316e6 -1.6271979601855785e7 0.0
0.0 0.0 0.0

-1.0123994740614213e7 8.287332557733939e6 0.0
8.287332557733939e6 1.2835370074032158e7 0.0
0.0 0.0 0.0

-3.0719465218299623e6 1.1183666884543126e7 0.0
1.1183666884543126e7 4.620753705704734e6 0.0
0.0 0.0 0.0

-7.39008121042813e6 1.0582859550591059e7 0.0
1.0582859550591059e7 9.098750187662814e6 0.0
0.0 0.0 0.0

-3.3213487991042417e6 9.695471166686464e6 0.0
9.695471166686464e6 347938.20567929395 0.0
0.0 0.0 0.0

-6.073632869025584e6 9.182460448891561e6 0.0
9.182460448891561e6 4.473804008420302e6 0.0
0.0 0.0 0.0

701772.876835973 9.828494699437212e6 0.0
9.828494699437212e6 -6.394385683376016e6 0.0
0.0 0.0 0.0

-100207.1267854881 9.644633624819672e6 0.0
9.644633624819672e6 -6.487230147028661e6 0.0
0.0 0.0 0.0

3.1350045625478327e6 8.417087036106616e6 0.0
8.417087036106616e6 -1.214461758948466e7 0.0
0.0 0.0 0.0

-4.84681728622617e6 -2.0468952207408256e6 0.0
-2.0468952207408256e6 7.338503524704963e6 0.0
0.0 0.0 0.0

-3.5997067176298453e6 -8.299858320581082e6 0.0
-8.299858320581082e6 1.199319847088975e7 0.0
0.0 0.0 0.0

-3.8379415075211343e6 1.1766697308066817e7 0.0
1.1766697308066817e7 1.5372988077587634e6 0.0
0.0 0.0 0.0

-1.8815047961689176e6 1.207138448026555e7 0.0
1.207138448026555e7 -3.534775366725652e6 0.0
0.0 0.0 0.0

-6.490830022126286e6 1.1511223052221965e7 0.0
1.1511223052221965e7 1.166346127145151e7 0.0
0.0 0.0 0.0

769896.2276292134 9.543874920843543e6 0.0
9.543874920843543e6 -5.695075581686616e6 0.0
0.0 0.0 0.0

-1.777309826398281e6 1.3703093818703732e7 0.0
1.3703093818703732e7 -3.6636558621021165e6 0.0
0.0 0.0 0.0

-6.279253601740982e6 1.0826081841073386e7 0.0
1.0826081841073386e7 4.344076150824018e6 0.0
0.0 0.0 0.0

-910042.3328074652 1.2776085592247632e6 0.0
1.2776085592247632e6 997355.0147669602 0.0
0.0 0.0 0.0

-7.80234426890149e6 2.2756030875697408e7 0.0
2.2756030875697408e7 3.5842775532992184e6 0.0
0.0 0.0 0.0

751788.1911322915 1.1062418710659835e7 0.0
1.1062418710659835e7 -5.8035061432942e6 0.0
0.0 0.0 0.0

148323.90035518399 1.1001277424140733e7 0.0
1.1001277424140733e7 -1.1587466858677432e7 0.0
0.0 0.0 0.0

3.331067308011938e6 5.828360266769464e6 0.0
5.828360266769464e6 -9.309476763383565e6 0.0
0.0 0.0 0.0

-524203.8237717005 1.1196591652809853e7 0.0
1.1196591652809853e7 -1.6463191016923222e6 0.0
0.0 0.0 0.0

-6.301995654108861e6 8.973956345692934e6 0.0
8.973956345692934e6 6.9351397970029805e6 0.0
0.0 0.0 0.0

-1.409376700084844e7 3.0382790819261177e6 0.0
3.0382790819261177e6 9.401749351592055e6 0.0
0.0 0.0 0.0

-2.7852229553949754e6 1.2566761217885045e7 0.0
1.2566761217885045e7 787772.8144545591 0.0
0.0 0.0 0.0

-804047.4008879896 1.1436148581827482e7 0.0
1.1436148581827482e7 2.456817218978454e6 0.0
0.0 0.0 0.0

306140.55719725555 9.886203107197043e6 0.0
9.886203107197043e6 -7.126709776631043e6 0.0
0.0 0.0 0.0

-1.1844039221668993e6 2.0935791783979698e6 0.0
2.0935791783979698e6 1.3074264038380003e6 0.0
0.0 0.0 0.0

-3.0151485944080427e6 1.0211327059749562e7 0.0
1.0211327059749562e7 -2.062364384984988e6 0.0
0.0 0.0 0.0

-820595.6271478273 1.1503249084800908e7 0.0
1.1503249084800908e7 -253167.97252741657 0.0
0.0 0.0 0.0

-1.852352309726064e6 1.1457338784253962e7 0.0
1.1457338784253962e7 2.494946986472501e6 0.0
0.0 0.0 0.0

-1.233924649609602e6 1.0589698552601298e7 0.0
1.0589698552601298e7 -5.225524867982834e6 0.0
0.0 0.0 0.0

-4.214884293959154e6 1.0909109057209162e7 0.0
1.0909109057209162e7 5.796587408769365e6 0.0
0.0 0.0 0.0

867473.5398267616 8.448466115264846e6 0.0
8.448466115264846e6 -2.8739002449825704e6 0.0
0.0 0.0 0.0

-1.4715470259953514e6 1.2159209867987998e7 0.0
1.2159209867987998e7 -4.0207997060774984e6 0.0
0.0 0.0 0.0

2.2938173191161063e6 1.0462250306492558e7 0.0
1.0462250306492558e7 -4.161234658371204e6 0.0
0.0 0.0 0.0

1.1228705367266699e6 9.119486635955764e6 0.0
9.119486635955764e6 -8.632077019560577e6 0.0
0.0 0.0 0.0

-5.570733688230132e6 1.0875512089209246e7 0.0
1.0875512089209246e7 6.0575515345222335e6 0.0
0.0 0.0 0.0

-1.8875748790172203e6 9.047810208310572e6 0.0
9.047810208310572e6 -2.317977614215858e6 0.0
0.0 0.0 0.0

-2.3553742735630844e7 1.104949456744738e7 0.0
1.104949456744738e7 1.1009519753153032e7 0.0
0.0 0.0 0.0

-6.005886172283458e6 1.3021118087159254e7 0.0
1.3021118087159254e7 1.503195372625724e7 0.0
0.0 0.0 0.0

3.6291223292024517e6 5.527426610556672e6 0.0
5.527426610556672e6 -1.021830645080997e7 0.0
0.0 0.0 0.0

-2.5789983635159517e6 -6.879362620644749e6 0.0
-6.879362620644749e6 1.0409559134358006e7 0.0
0.0 0.0 0.0

777247.4300637394 1.0375658882491235e7 0.0
1.0375658882491235e7 -1.1094591388075735e7 0.0
0.0 0.0 0.0

907813.3381858515 1.0243836640990501e7 0.0
1.0243836640990501e7 -9.085804896562211e6 0.0
0.0 0.0 0.0

-1.1695009049291213e6 1.1936548634278484e7 0.0
1.1936548634278484e7 -586133.9646734633 0.0
0.0 0.0 0.0

-1.087034025423667e7 1.2307573854424337e7 0.0
1.2307573854424337e7 5.2686069893356e6 0.0
0.0 0.0 0.0

-6.589366577234179e6 9.270256774960326e6 0.0
9.270256774960326e6 7.563032575522794e6 0.0
0.0 0.0 0.0

-1.0379672620042893e6 1.2179923079723058e7 0.0
1.2179923079723058e7 -4.529690300598545e6 0.0
0.0 0.0 0.0

-1.0083307798743123e7 -8.699770155757377e6 0.0
-8.699770155757377e6 2.3709519099318527e7 0.0
0.0 0.0 0.0

-6.352193338226834e6 8.084799209344353e6 0.0
8.084799209344353e6 7.382581541886421e6 0.0
0.0 0.0 0.0

5.492004673901857e6 7.24045353758352e6 0.0
7.24045353758352e6 -1.6033758028413842e7 0.0
0.0 0.0 0.0

-6.859976175978731e6 1.3012856302637616e7 0.0
1.3012856302637616e7 4.132763556640453e6 0.0
0.0 0.0 0.0

5.253096894888097e6 6.406189481419019e6 0.0
6.406189481419019e6 -1.4807142762455458e7 0.0
0.0 0.0 0.0

-2.1137483833045654e7 1.5397633993685467e7 0.0
1.5397633993685467e7 1.280716345761427e7 0.0
0.0 0.0 0.0

-1.0791521155679144e7 -8.117335405662705e6 0.0
-8.117335405662705e6 2.5986871689075444e7 0.0
0.0 0.0 0.0

1.5105217054182412e6 9.191582981457386e6 0.0
9.191582981457386e6 -8.522259350414513e6 0.0
0.0 0.0 0.0

-6.671167566967949e6 1.1532827469867326e7 0.0
1.1532827469867326e7 3.348076482097023e6 0.0
0.0 0.0 0.0

-1.98730795273674e7 9.418184701055551e6 0.0
9.418184701055551e6 3.096203135921901e6 0.0
0.0 0.0 0.0

5.425529601967772e6 6.813955209467557e6 0.0
6.813955209467557e6 -1.5603913561720245e7 0.0
0.0 0.0 0.0

-5.053228530872118e6 1.0474627268083729e7 0.0
1.0474627268083729e7 2.2644003559888126e6 0.0
0.0 0.0 0.0

-6.292621399778351e6 1.0840359937932732e7 0.0
1.0840359937932732e7 6.078299878032638e6 0.0
0.0 0.0 0.0

327291.4790649668 1.034201638296286e7 0.0
1.034201638296286e7 6.112687569577568e6 0.0
0.0 0.0 0.0

703009.4238850493 1.0396191184404152e7 0.0
1.0396191184404152e7 -8.439514753448928e6 0.0
0.0 0.0 0.0

648432.8575618998 1.0407899948678875e7 0.0
1.0407899948678875e7 -8.753510389272796e6 0.0
0.0 0.0 0.0

-4.295808364481893e6 1.205290121365496e7 0.0
1.205290121365496e7 -1.1587965938915783e6 0.0
0.0 0.0 0.0

-7.201841814245792e6 1.320747639278852e7 0.0
1.320747639278852e7 4.463714465564055e6 0.0
0.0 0.0 0.0

-9.037006884771898e6 3.407452650283651e6 0.0
3.407452650283651e6 1.2322546860277776e7 0.0
0.0 0.0 0.0

5.052936168928356e6 6.200829833285863e6 0.0
6.200829833285863e6 -1.3737266873948827e7 0.0
0.0 0.0 0.0

-1.0750624997624595e7 1.2572575533122785e7 0.0
1.2572575533122785e7 8.07341389397855e6 0.0
0.0 0.0 0.0

1.458861550635009e6 6.135606657191957e6 0.0
6.135606657191957e6 -5.927416006751539e6 0.0
0.0 0.0 0.0

634086.7155994982 1.0610972504444785e7 0.0
1.0610972504444785e7 -7.491620055168004e6 0.0
0.0 0.0 0.0

5.107486129943406e6 6.38139451582809e6 0.0
6.38139451582809e6 -1.4001061054598246e7 0.0
0.0 0.0 0.0

545620.9805231611 1.0496184607886374e7 0.0
1.0496184607886374e7 -8.417382060158176e6 0.0
0.0 0.0 0.0

-1.1158929780292302e7 1.6653261094246402e6 0.0
1.6653261094246402e6 1.4010637683528291e7 0.0
0.0 0.0 0.0

1.8086721524905858e6 2.650334242425545e6 0.0
2.650334242425545e6 -4.275380239459618e6 0.0
0.0 0.0 0.0

-3.0740069514758484e6 7.884052829618353e6 0.0
7.884052829618353e6 -5678.800545090227 0.0
0.0 0.0 0.0

-1.9869932537922338e6 1.191209853245664e7 0.0
1.191209853245664e7 4.452582451009005e6 0.0
0.0 0.0 0.0

3.950664592560594e6 5.402544811230656e6 0.0
5.402544811230656e6 -1.1051431974145297e7 0.0
0.0 0.0 0.0

-5.976379874388076e6 1.1933286863125162e7 0.0
1.1933286863125162e7 5.176277478473384e6 0.0
0.0 0.0 0.0

-4.966724889721997e6 -1.1221631360458399e6 0.0
-1.1221631360458399e6 7.15378519088571e6 0.0
0.0 0.0 0.0

805161.2918442346 9.111902326477673e6 0.0
9.111902326477673e6 -3.2702947516418174e6 0.0
0.0 0.0 0.0

884278.6786799831 9.295697152811717e6 0.0
9.295697152811717e6 -8.253284855123233e6 0.0
0.0 0.0 0.0

-4.0417472834539404e6 1.1143400736646574e7 0.0
1.1143400736646574e7 4.989045703833598e6 0.0
0.0 0.0 0.0

-4.357591469831703e6 1.2192536402943242e7 0.0
1.2192536402943242e7 7.1069418426883165e6 0.0
0.0 0.0 0.0

-646893.6747669678 1.1131956781727726e7 0.0
1.1131956781727726e7 -1.7152864197095993e6 0.0
0.0 0.0 0.0

-3.673401743299859e6 1.1908187679390386e7 0.0
1.1908187679390386e7 -958901.4787622415 0.0
0.0 0.0 0.0

-6.243364753382992e6 1.1146315675475415e7 0.0
1.1146315675475415e7 4.0228921823445037e6 0.0
0.0 0.0 0.0

-777301.508641893 1.1570920096648587e7 0.0
1.1570920096648587e7 -1.117159540663172e6 0.0
0.0 0.0 0.0

5.027222306075147e6 5.613875193083902e6 0.0
5.613875193083902e6 -1.6089349895759095e6 0.0
0.0 0.0 0.0

-9.217869527304823e6 -8.927598305938367e6 0.0
-8.927598305938367e6 2.1302907252289515e7 0.0
0.0 0.0 0.0

-254402.0049442472 9.411613640660506e6 0.0
9.411613640660506e6 3.6864887638427047e6 0.0
0.0 0.0 0.0

-5.079219908279477e6 -8.682005570697056e6 0.0
-8.682005570697056e6 1.4047825924548833e7 0.0
0.0 0.0 0.0

-794923.7639095581 1.1746561210142504e7 0.0
1.1746561210142504e7 -692789.1602304047 0.0
0.0 0.0 0.0

-1.4570478902847622e7 4.453666600643974e6 0.0
4.453666600643974e6 2.0147849706502706e7 0.0
0.0 0.0 0.0

-2.865933095949333e6 7.814957531002656e6 0.0
7.814957531002656e6 700898.329368352 0.0
0.0 0.0 0.0

3.9700284367783004e6 2.7017470710141445e6 0.0
2.7017470710141445e6 -5.369421086604662e6 0.0
0.0 0.0 0.0

3.332060105571683e6 3.2363378804840855e6 0.0
3.2363378804840855e6 -4.949448305201007e6 0.0
0.0 0.0 0.0

-1.1136225065058395e6 1.1986192395180203e7 0.0
1.1986192395180203e7 -4.532567374038354e6 0.0
0.0 0.0 0.0

-3.2761823626815365e6 1.1904330833519194e7 0.0
1.1904330833519194e7 238294.54812448844 0.0
0.0 0.0 0.0

-475186.3087777749 1.2214082314552851e7 0.0
1.2214082314552851e7 -4.943171304634404e6 0.0
0.0 0.0 0.0

-9.920086854393324e6 2.79108863325083e6 0.0
2.79108863325083e6 1.1511065506853335e7 0.0
0.0 0.0 0.0

489840.53535862826 1.0284035687439919e7 0.0
1.0284035687439919e7 -7.364780733710208e6 0.0
0.0 0.0 0.0

1.3353372058124035e6 9.190882279432788e6 0.0
9.190882279432788e6 -9.126742787109701e6 0.0
0.0 0.0 0.0

-5.723738997406457e6 1.2038312505462985e7 0.0
1.2038312505462985e7 4.960974473370846e6 0.0
0.0 0.0 0.0

647291.1878527664 9.218328776025742e6 0.0
9.218328776025742e6 -7.686841187288715e6 0.0
0.0 0.0 0.0

-4.1734353844229445e7 1.4169337945218857e7 0.0
1.4169337945218857e7 8.188509827408811e6 0.0
0.0 0.0 0.0

-858008.3055559337 1.046203937993543e7 0.0
1.046203937993543e7 -5.6972915162768485e6 0.0
0.0 0.0 0.0

-1.0433836383526035e7 1.4993455429780897e7 0.0
1.4993455429780897e7 7.000695591294987e6 0.0
0.0 0.0 0.0

-376519.9173112351 8.342832539325752e6 0.0
8.342832539325752e6 -281799.4211884312 0.0
0.0 0.0 0.0

-5.148931509370942e6 1.0270660183273824e7 0.0
1.0270660183273824e7 6.169640190291286e6 0.0
0.0 0.0 0.0

-3.099056057098975e6 1.1427603844256066e7 0.0
1.1427603844256066e7 523052.3597582327 0.0
0.0 0.0 0.0

-5.86943716609756e6 1.9097997894266654e7 0.0
1.9097997894266654e7 -177207.10217553657 0.0
0.0 0.0 0.0

-3.7099283886468816e6 -5.239916009905045e6 0.0
-5.239916009905045e6 9.973246768335965e6 0.0
0.0 0.0 0.0

3.7265919389615594e6 5.495931640404872e6 0.0
5.495931640404872e6 -1.0486422483724143e7 0.0
0.0 0.0 0.0

-4.227734558097674e6 1.17263258020924e7 0.0
1.17263258020924e7 63661.98222250538 0.0
0.0 0.0 0.0

-579276.9489414857 2.2965756772923497e6 0.0
2.2965756772923497e6 -871053.0445418846 0.0
0.0 0.0 0.0

4.710118301941606e6 5.921712726841265e6 0.0
5.921712726841265e6 -1.2632418084477784e7 0.0
0.0 0.0 0.0

-8.227740097669278e6 -9.373739737778664e6 0.0
-9.373739737778664e6 1.9811659240450352e7 0.0
0.0 0.0 0.0

-4.927622637131337e6 -784280.9437397609 0.0
-784280.9437397609 5.850872819132837e6 0.0
0.0 0.0 0.0

389388.9585942647 9.030802759604469e6 0.0
9.030802759604469e6 -5.09648699047239e6 0.0
0.0 0.0 0.0

-2.720032340925155e6 -5.585047942207888e6 0.0
-5.585047942207888e6 1.0122749711086424e7 0.0
0.0 0.0 0.0

3.806720058562755e6 5.491877911716277e6 0.0
5.491877911716277e6 -1.0705608120993305e7 0.0
0.0 0.0 0.0

4.606855789933084e6 5.884623952256286e6 0.0
5.884623952256286e6 -1.2238939262170088e7 0.0
0.0 0.0 0.0

-7.4171211465631295e6 -9.788074436591396e6 0.0
-9.788074436591396e6 1.8396729289973635e7 0.0
0.0 0.0 0.0

-3.063080928578653e6 1.0046829949270666e7 0.0
1.0046829949270666e7 -405037.39289493347 0.0
0.0 0.0 0.0

-1.0980495439859694e6 1.1712191192552269e7 0.0
1.1712191192552269e7 -4.6582900147155365e6 0.0
0.0 0.0 0.0

-6.057952896163014e6 1.1374444769323293e7 0.0
1.1374444769323293e7 4.387364879208369e6 0.0
0.0 0.0 0.0

4.472921776399326e6 5.811201913439291e6 0.0
5.811201913439291e6 -1.1984507076919438e7 0.0
0.0 0.0 0.0

-6.990941344577357e6 -9.825804904005524e6 0.0
-9.825804904005524e6 1.685722889270911e7 0.0
0.0 0.0 0.0

708579.8397260264 9.223869567651693e6 0.0
9.223869567651693e6 -4.789161941282171e6 0.0
0.0 0.0 0.0

833554.9779386721 9.495952053944483e6 0.0
9.495952053944483e6 -7.260430907512073e6 0.0
0.0 0.0 0.0

-5.061117173109156e6 1.2135399832281122e7 0.0
1.2135399832281122e7 1.5194683384637844e6 0.0
0.0 0.0 0.0

-3.428911425587142e6 9.813310123092212e6 0.0
9.813310123092212e6 -55862.48308877554 0.0
0.0 0.0 0.0

-6.447940916219822e6 1.0292215825427394e7 0.0
1.0292215825427394e7 7.569507627695159e6 0.0
0.0 0.0 0.0

-6.238985999807056e6 -9.261447102651633e6 0.0
-9.261447102651633e6 1.5269511054894041e7 0.0
0.0 0.0 0.0

4.358524703696139e6 5.708341714935997e6 0.0
5.708341714935997e6 -1.1623284804423451e7 0.0
0.0 0.0 0.0

-6.037417272836234e6 1.4642831104076525e7 0.0
1.4642831104076525e7 479230.3115108283 0.0
0.0 0.0 0.0

-6.506440216216528e6 1.2529794079615936e7 0.0
1.2529794079615936e7 1.3934642949349722e7 0.0
0.0 0.0 0.0

1.284138822726626e7 2.8298775807138e7 0.0
2.8298775807138e7 -2.9625632363028206e7 0.0
0.0 0.0 0.0

-402501.6735565992 7.549424609775349e6 0.0
7.549424609775349e6 -4.037276267624796e6 0.0
0.0 0.0 0.0

-6.692043894145256e6 1.2739090640435321e7 0.0
1.2739090640435321e7 4.2931404878991805e6 0.0
0.0 0.0 0.0

-547706.323738289 2.752760986383379e6 0.0
2.752760986383379e6 -1.670941706727073e6 0.0
0.0 0.0 0.0

-6.044483966800142e6 1.1606693283010136e7 0.0
1.1606693283010136e7 4.26959872994707e6 0.0
0.0 0.0 0.0

3.013761366721947e6 6.33425881494944e6 0.0
6.33425881494944e6 -5.487389402769331e6 0.0
0.0 0.0 0.0

-1.6713095783356233e6 1.5033323049177786e7 0.0
1.5033323049177786e7 -3.8432938997714682e6 0.0
0.0 0.0 0.0

-2.851693323110511e6 1.332218275034678e7 0.0
1.332218275034678e7 -1.9763666397244562e6 0.0
0.0 0.0 0.0

-5.433087471006038e6 7.908049195259358e6 0.0
7.908049195259358e6 3.7966228042556e6 0.0
0.0 0.0 0.0

-769301.1909574594 1.18893828113124e7 0.0
1.18893828113124e7 -747535.9667082805 0.0
0.0 0.0 0.0

-1.0432338081320185e7 -6.510366142364576e6 0.0
-6.510366142364576e6 2.9988395057100426e7 0.0
0.0 0.0 0.0

3.0764004168963246e6 4.317503469967182e6 0.0
4.317503469967182e6 -5.494551781749207e6 0.0
0.0 0.0 0.0

-2.3877580077955388e6 -676754.2080408746 0.0
-676754.2080408746 1.3522939430819198e6 0.0
0.0 0.0 0.0

-148938.0550903271 -2.598370800983103e6 0.0
-2.598370800983103e6 -435710.6818341685 0.0
0.0 0.0 0.0

-2.5941426046900526e6 1.3605690849197961e7 0.0
1.3605690849197961e7 -2.22734596450602e6 0.0
0.0 0.0 0.0

480065.35581944324 1.0843853294991469e7 0.0
1.0843853294991469e7 -1.134892024493199e7 0.0
0.0 0.0 0.0

-2.526482527020364e6 1.2230557099974284e7 0.0
1.2230557099974284e7 4.900902331245916e6 0.0
0.0 0.0 0.0

-1.1030738782765395e6 1.0867914734381864e7 0.0
1.0867914734381864e7 -1.713486447990509e6 0.0
0.0 0.0 0.0

1.9040644688968179e6 4.978169405481696e6 0.0
4.978169405481696e6 -7.036593587652155e6 0.0
0.0 0.0 0.0

-750888.3624402285 8.0597243577015195e6 0.0
8.0597243577015195e6 -4.672492925262329e6 0.0
0.0 0.0 0.0

428644.1120188546 1.1561144335118469e7 0.0
1.1561144335118469e7 -6.192556843370973e6 0.0
0.0 0.0 0.0

767713.35121735 1.0153230543976737e7 0.0
1.0153230543976737e7 -9.93191667522921e6 0.0
0.0 0.0 0.0

-5.406048753936328e6 1.2527743564176667e7 0.0
1.2527743564176667e7 1.7708593880957633e6 0.0
0.0 0.0 0.0

-4.762902710629487e6 1.0726598623301733e7 0.0
1.0726598623301733e7 6.003861902406579e6 0.0
0.0 0.0 0.0

39184.97896665451 8.478855924797317e6 0.0
8.478855924797317e6 -4.449438368970427e6 0.0
0.0 0.0 0.0

324227.92059963103 8.969414000481876e6 0.0
8.969414000481876e6 -1.8525068675107025e6 0.0
0.0 0.0 0.0

-501024.9883727827 9.890531509861076e6 0.0
9.890531509861076e6 -8.085911726878291e6 0.0
0.0 0.0 0.0

-1.4884407843294915e7 9.502047111075632e6 0.0
9.502047111075632e6 9.415796708776742e6 0.0
0.0 0.0 0.0

-7.469330170665227e6 2.0059957577793922e7 0.0
2.0059957577793922e7 1.9413947884044065e6 0.0
0.0 0.0 0.0

2.703637589302049e6 2.215134190487637e6 0.0
2.215134190487637e6 -3.773260026290901e6 0.0
0.0 0.0 0.0

2.8492470104979407e6 1.9406529549095135e6 0.0
1.9406529549095135e6 -3.973555175172192e6 0.0
0.0 0.0 0.0

-4.764749362164531e6 1.1257982264340872e7 0.0
1.1257982264340872e7 5.479517228459921e6 0.0
0.0 0.0 0.0

-4.401224054661048e6 1.1225468349580528e7 0.0
1.1225468349580528e7 -73554.21372749191 0.0
0.0 0.0 0.0

-7.076992366079006e6 1.3207478214903029e7 0.0
1.3207478214903029e7 4.880181944222834e6 0.0
0.0 0.0 0.0

-6.098999205144657e6 1.1840194250619736e7 0.0
1.1840194250619736e7 4.212830021836773e6 0.0
0.0 0.0 0.0

2.590877688784762e6 9.249451670575542e6 0.0
9.249451670575542e6 1.0384778505859675e6 0.0
0.0 0.0 0.0

1.8255975428538811e6 1.1284396975338424e7 0.0
1.1284396975338424e7 -5.194802973022426e6 0.0
0.0 0.0 0.0

-6.3623135879540825e6 1.2645005138228081e7 0.0
1.2645005138228081e7 1.4051336001052648e7 0.0
0.0 0.0 0.0

-1.7387711773873463e7 1.3220049551143723e7 0.0
1.3220049551143723e7 3.4705091570154345e6 0.0
0.0 0.0 0.0

-4.916024997134481e7 1.83564231224218e7 0.0
1.83564231224218e7 2.1669809606993437e7 0.0
0.0 0.0 0.0

-4.580513793930009e6 7.40561650600656e6 0.0
7.40561650600656e6 2.6167518686233307e6 0.0
0.0 0.0 0.0

-2.9827455729987444e6 1.166310338095487e7 0.0
1.166310338095487e7 3.487104983053078e6 0.0
0.0 0.0 0.0

1.3275533224118464e6 6.124992557169047e6 0.0
6.124992557169047e6 -6.388925674377294e6 0.0
0.0 0.0 0.0

-5.970631675433988e6 8.202599885292238e6 0.0
8.202599885292238e6 6.596972715652723e6 0.0
0.0 0.0 0.0

259682.1350280285 1.7867027721741037e6 0.0
1.7867027721741037e6 -1.7378745568937417e6 0.0
0.0 0.0 0.0

-1.5743650370316682e6 9.875672673142174e6 0.0
9.875672673142174e6 5.312066524562375e6 0.0
0.0 0.0 0.0

969575.0611917982 1.012640064961457e7 0.0
1.012640064961457e7 -1.016545524461688e7 0.0
0.0 0.0 0.0

2.577717947021342e6 6.059514242794146e6 0.0
6.059514242794146e6 -8.0779875328599755e6 0.0
0.0 0.0 0.0

2.057852746508108e6 8.971679845054196e6 0.0
8.971679845054196e6 -516204.05485453317 0.0
0.0 0.0 0.0

-9.810528207889093e6 -459918.0629067505 0.0
-459918.0629067505 4.386575703372619e7 0.0
0.0 0.0 0.0

-6.998223332781464e6 1.2443970145847673e7 0.0
1.2443970145847673e7 5.486588869945476e6 0.0
0.0 0.0 0.0

-7.2410874698289875e6 1.0807283492088808e7 0.0
1.0807283492088808e7 2.0850612971547637e6 0.0
0.0 0.0 0.0

-2.6080611993923956e6 1.2823530596412374e7 0.0
1.2823530596412374e7 -2.525666415537718e6 0.0
0.0 0.0 0.0

-2.3917977853794596e6 44266.726093994825 0.0
44266.726093994825 3.297595770174966e6 0.0
0.0 0.0 0.0

-1.0566257215261986e6 8.010140426929393e6 0.0
8.010140426929393e6 170724.840914129 0.0
0.0 0.0 0.0

-4.784663246568985e6 -2.537646347920937e6 0.0
-2.537646347920937e6 8.291853011015393e6 0.0
0.0 0.0 0.0

1.938255653544696e6 9.622048865926242e6 0.0
9.622048865926242e6 -1.0547624513515828e6 0.0
0.0 0.0 0.0

-3.934519199783012e6 1.0412534595711289e7 0.0
1.0412534595711289e7 1.2576187948064858e6 0.0
0.0 0.0 0.0

3.066666606109665e6 5.857144938026795e6 0.0
5.857144938026795e6 -8.81739482688271e6 0.0
0.0 0.0 0.0

-3.8225968368826928e6 1.0497720425852757e7 0.0
1.0497720425852757e7 379211.49118317175 0.0
0.0 0.0 0.0

1.5151338224220371e6 4.804619222233131e6 0.0
4.804619222233131e6 -5.650058794289622e6 0.0
0.0 0.0 0.0

-77446.96721952362 1.0595269537744783e7 0.0
1.0595269537744783e7 -7.091992736729401e6 0.0
0.0 0.0 0.0

-1.0374274109286364e7 1.3725627551169772e7 0.0
1.3725627551169772e7 7.933946246308953e6 0.0
0.0 0.0 0.0

-507227.4347727373 6.700543842677823e6 0.0
6.700543842677823e6 -2.8998702939591575e6 0.0
0.0 0.0 0.0

-3.897616439090538e6 1.1920472538445003e7 0.0
1.1920472538445003e7 -1.7187318245184482e6 0.0
0.0 0.0 0.0

-8.730435995564807e6 1.368066881106091e7 0.0
1.368066881106091e7 6.296252090504839e6 0.0
0.0 0.0 0.0

-6.069886351378404e6 1.1225086566455116e7 0.0
1.1225086566455116e7 4.604810151389465e6 0.0
0.0 0.0 0.0

-6.1842662722818395e6 1.159224109901559e7 0.0
1.159224109901559e7 3.805127040055933e6 0.0
0.0 0.0 0.0

-8.533080922945058e6 1.4631109642083198e7 0.0
1.4631109642083198e7 5.220464488826109e6 0.0
0.0 0.0 0.0

-2.8226273489795607e6 1.1745578954767445e7 0.0
1.1745578954767445e7 -2.1429389225629354e6 0.0
0.0 0.0 0.0

-1.1026467960788138e7 1.5093728351447541e7 0.0
1.5093728351447541e7 7.673415493687045e6 0.0
0.0 0.0 0.0

-3.491603760999348e6 6.214031620331933e6 0.0
6.214031620331933e6 1.6696177399051138e6 0.0
0.0 0.0 0.0

-504340.50743275695 8.282001812440836e6 0.0
8.282001812440836e6 -5.089781628955373e6 0.0
0.0 0.0 0.0

-1.8101096542971008e6 1.6752421293601587e6 0.0
1.6752421293601587e6 505241.95793421275 0.0
0.0 0.0 0.0

-5.873875036688064e6 1.1504922341754543e7 0.0
1.1504922341754543e7 3.9923311251898794e6 0.0
0.0 0.0 0.0

-9.455075567500941e6 -6.216383701769853e6 0.0
-6.216383701769853e6 1.6068303297613103e7 0.0
0.0 0.0 0.0

-6.631472031686311e6 1.4883579459508944e7 0.0
1.4883579459508944e7 1.28244938437578e6 0.0
0.0 0.0 0.0

361608.43672025995 1.049352062103885e7 0.0
1.049352062103885e7 -6.944539302633987e6 0.0
0.0 0.0 0.0

-1.0500357360954103e6 9.191058195653088e6 0.0
9.191058195653088e6 1.066102003082409e6 0.0
0.0 0.0 0.0

-2.0582349597731724e6 8.860343922150064e6 0.0
8.860343922150064e6 -2.8305639394844794e6 0.0
0.0 0.0 0.0

1.5593543583908067e6 9.644855107280781e6 0.0
9.644855107280781e6 -9.118083970627386e6 0.0
0.0 0.0 0.0

2.182887394769123e6 5.342533490586803e6 0.0
5.342533490586803e6 -5.289882951386135e6 0.0
0.0 0.0 0.0

-2.172751218764617e6 1.3823167659093786e7 0.0
1.3823167659093786e7 -2.5689950740921297e6 0.0
0.0 0.0 0.0

-688272.0476783566 1.161122361191644e7 0.0
1.161122361191644e7 83189.85851352627 0.0
0.0 0.0 0.0

-3.190203702507135e6 9.790202931140013e6 0.0
9.790202931140013e6 -448699.0607881326 0.0
0.0 0.0 0.0

4.929420991640561e6 6.064965132556308e6 0.0
6.064965132556308e6 -1.334141965535685e7 0.0
0.0 0.0 0.0

-2.4029436208893517e6 3.737034012086334e6 0.0
3.737034012086334e6 1.9604478783484078e6 0.0
0.0 0.0 0.0

4.4973346059831055e6 6.684235300085712e6 0.0
6.684235300085712e6 -1.3398086121407982e7 0.0
0.0 0.0 0.0

-162825.4181733133 2.3563133929763995e6 0.0
2.3563133929763995e6 -938942.3822262146 0.0
0.0 0.0 0.0

-4.1074561554541606e6 1.042623789286901e7 0.0
1.042623789286901e7 660987.893076888 0.0
0.0 0.0 0.0

-639819.5781541802 1.1672231294735065e7 0.0
1.1672231294735065e7 -283408.34970970085 0.0
0.0 0.0 0.0

-341210.4327962778 9.003300934748815e6 0.0
9.003300934748815e6 -301780.99831976974 0.0
0.0 0.0 0.0

-4.342362732496947e6 7.568211549905929e6 0.0
7.568211549905929e6 3.3037032985027563e6 0.0
0.0 0.0 0.0

-4.031401032702437e6 -1.0950831212606446e6 0.0
-1.0950831212606446e6 5.0335776114177e6 0.0
0.0 0.0 0.0

-3.2359650288896756e6 1.4485848854159867e7 0.0
1.4485848854159867e7 -1.2450042158602022e6 0.0
0.0 0.0 0.0

-5.152915122714779e6 1.0735117309339061e7 0.0
1.0735117309339061e7 7.286903814341785e6 0.0
0.0 0.0 0.0

1.3778527485138825e6 7.333956540321635e6 0.0
7.333956540321635e6 -7.343477763422167e6 0.0
0.0 0.0 0.0

-4.498343797381385e6 -965819.9155381818 0.0
-965819.9155381818 6.749037071731659e6 0.0
0.0 0.0 0.0

-2.4151238059231816e6 9.4728924406578e6 0.0
9.4728924406578e6 3.8130439074194673e6 0.0
0.0 0.0 0.0

-9.075788597405028e6 9.218262874192439e6 0.0
9.218262874192439e6 1.5271095946499545e7 0.0
0.0 0.0 0.0

-1.5050559270690582e6 9.536779367067803e6 0.0
9.536779367067803e6 4.328428242452203e6 0.0
0.0 0.0 0.0

696605.218665293 1.0551564646659477e7 0.0
1.0551564646659477e7 -1.1260365225530518e7 0.0
0.0 0.0 0.0

-4.830934094002658e6 1.0362542453971703e7 0.0
1.0362542453971703e7 6.289957573897083e6 0.0
0.0 0.0 0.0

-1.996067462387728e6 1.1040782824165354e7 0.0
1.1040782824165354e7 3.1616455156458463e6 0.0
0.0 0.0 0.0

-950355.3226150793 1.229809636861474e7 0.0
1.229809636861474e7 -4.551912698920274e6 0.0
0.0 0.0 0.0

-1.4280652628391427e6 1.2084497558566296e7 0.0
1.2084497558566296e7 -699807.2637304605 0.0
0.0 0.0 0.0

2.9328194918171773e6 7.754193173743067e6 0.0
7.754193173743067e6 -1.1343427596539158e7 0.0
0.0 0.0 0.0

3.217898492277098e6 7.518492654378024e6 0.0
7.518492654378024e6 -1.177755488284116e7 0.0
0.0 0.0 0.0

-1.6622976103731827e6 8.789478748970471e6 0.0
8.789478748970471e6 -2.7230542112451075e6 0.0
0.0 0.0 0.0

-7.507468757517945e6 7.118792379833289e6 0.0
7.118792379833289e6 1.0570162250533622e7 0.0
0.0 0.0 0.0

-1.6706732974772295e6 1.182292758477639e7 0.0
1.182292758477639e7 -4.784800290824537e6 0.0
0.0 0.0 0.0

-1.1513851329469554e7 -3.4120516488666367e6 0.0
-3.4120516488666367e6 2.7948730390950184e7 0.0
0.0 0.0 0.0

365852.2542935177 6.401745992491609e6 0.0
6.401745992491609e6 -6.422676667313211e6 0.0
0.0 0.0 0.0

-6.044123584153416e6 9.901404699604439e6 0.0
9.901404699604439e6 3.882493338798328e7 0.0
0.0 0.0 0.0

4.8045284914055355e6 6.074671777718298e6 0.0
6.074671777718298e6 -1.2930494320225399e7 0.0
0.0 0.0 0.0

-3.214987585714682e6 1.2367680288926594e7 0.0
1.2367680288926594e7 -1.8415839312619776e6 0.0
0.0 0.0 0.0

-2.814913675540817e6 9.673941705323845e6 0.0
9.673941705323845e6 4.823051118433135e6 0.0
0.0 0.0 0.0

-125754.00130618457 1.0740626559832599e7 0.0
1.0740626559832599e7 -1.0465342244799158e7 0.0
0.0 0.0 0.0

-1.2831951139579995e6 6.675034476981973e6 0.0
6.675034476981973e6 2.8039163074718583e6 0.0
0.0 0.0 0.0

-1.1493865302265303e6 1.1737210830755776e7 0.0
1.1737210830755776e7 -1.2708115161326658e6 0.0
0.0 0.0 0.0

-3.5069456415013233e6 9.839304200781945e6 0.0
9.839304200781945e6 4.919226061910272e6 0.0
0.0 0.0 0.0

-6.019578270871939e6 1.024102593826033e7 0.0
1.024102593826033e7 4.960552355644595e6 0.0
0.0 0.0 0.0

-3.5255612413044237e6 1.1626511441675158e7 0.0
1.1626511441675158e7 3.9879479448102387e6 0.0
0.0 0.0 0.0

-638335.4178663492 7.4279343032846665e6 0.0
7.4279343032846665e6 -4.66522386704617e6 0.0
0.0 0.0 0.0

-7.786338890531573e6 6.055640991087334e6 0.0
6.055640991087334e6 9.195122739009768e6 0.0
0.0 0.0 0.0

949623.6428057598 1.0292187542266691e7 0.0
1.0292187542266691e7 -1.0966379764557512e7 0.0
0.0 0.0 0.0

-1.148364011145727e6 1.1249497262263319e7 0.0
1.1249497262263319e7 -1.3456225502858572e6 0.0
0.0 0.0 0.0

-3.5204853976346655e6 1.2078482086678455e7 0.0
1.2078482086678455e7 2.271308636565849e6 0.0
0.0 0.0 0.0

-329242.85057372425 7.616497199615699e6 0.0
7.616497199615699e6 -4.049138593516202e6 0.0
0.0 0.0 0.0

-1.3670151161952829e7 1.6565335096787293e6 0.0
1.6565335096787293e6 4.072015184796552e7 0.0
0.0 0.0 0.0

164218.28950503143 1.1143604175388606e7 0.0
1.1143604175388606e7 -1.1444986444051897e7 0.0
0.0 0.0 0.0

-5.578600213445948e6 1.04498827549734e7 0.0
1.04498827549734e7 7.858730877039559e6 0.0
0.0 0.0 0.0

-7.465920028468071e6 1.3465481312459337e7 0.0
1.3465481312459337e7 4.700607323618894e6 0.0
0.0 0.0 0.0

1.2453453852327494e6 1.2261079666979466e7 0.0
1.2261079666979466e7 5.122936407856649e6 0.0
0.0 0.0 0.0

-6.501337174641005e6 1.1295248995950501e7 0.0
1.1295248995950501e7 1.0873299634918125e7 0.0
0.0 0.0 0.0

-5.592100541931523e6 1.1049456578864347e7 0.0
1.1049456578864347e7 6.30558444602975e6 0.0
0.0 0.0 0.0

-730086.114902713 8.812654310164211e6 0.0
8.812654310164211e6 -4.8648737258727355e6 0.0
0.0 0.0 0.0

-1.7421736007674192e6 1.0897916243080702e7 0.0
1.0897916243080702e7 -1.3169840188962216e6 0.0
0.0 0.0 0.0

-5.824276923835732e6 8.704412529097991e6 0.0
8.704412529097991e6 4.0871427446295302e6 0.0
0.0 0.0 0.0

-5.197474079274497e6 8.269638884972955e6 0.0
8.269638884972955e6 4.422336996440932e6 0.0
0.0 0.0 0.0

2.390518474163255e6 5.735575264586668e6 0.0
5.735575264586668e6 -8.155958450890948e6 0.0
0.0 0.0 0.0

-6.139649973923301e6 1.20158902556282e7 0.0
1.20158902556282e7 5.298306315730138e6 0.0
0.0 0.0 0.0

-84077.48471230874 7.636183048390535e6 0.0
7.636183048390535e6 -3.9458044214146347e6 0.0
0.0 0.0 0.0

1.450332666433649e6 5.353748360135087e6 0.0
5.353748360135087e6 -5.538269161078962e6 0.0
0.0 0.0 0.0

-6.490723625292104e6 1.4040199233462146e7 0.0
1.4040199233462146e7 1.4608928403831017e6 0.0
0.0 0.0 0.0

-4.076139475754715e6 1.0177042549500333e7 0.0
1.0177042549500333e7 6.120065188923961e6 0.0
0.0 0.0 0.0

-1.0374519315738034e7 -5.363076264172093e6 0.0
-5.363076264172093e6 2.1546060143933736e7 0.0
0.0 0.0 0.0

170833.35118658596 1.0258193057658136e7 0.0
1.0258193057658136e7 2.9218975992415017e6 0.0
0.0 0.0 0.0

1.0150797682566545e6 9.719437543934032e6 0.0
9.719437543934032e6 861200.7493146921 0.0
0.0 0.0 0.0

319185.93251006305 1.1287251048534056e7 0.0
1.1287251048534056e7 -6.451200826920423e6 0.0
0.0 0.0 0.0

3.527002130589172e6 5.804443050368106e6 0.0
5.804443050368106e6 -1.0257084549799018e7 0.0
0.0 0.0 0.0

-388387.3674093823 1.0703044192547519e7 0.0
1.0703044192547519e7 689359.845835558 0.0
0.0 0.0 0.0

89716.01425806759 1.1552160812844988e7 0.0
1.1552160812844988e7 -6.081496687280664e6 0.0
0.0 0.0 0.0

-1.6207583732309602e6 9.039640759996302e6 0.0
9.039640759996302e6 1.8150291674734864e6 0.0
0.0 0.0 0.0

-1.961414609513122e6 4.688842852422225e6 0.0
4.688842852422225e6 791327.9847582054 0.0
0.0 0.0 0.0

-19389.055354551296 2.1597461925134696e6 0.0
2.1597461925134696e6 -1.0783130051022205e6 0.0
0.0 0.0 0.0

-3.0083360393513315e6 1.1836215070245912e7 0.0
1.1836215070245912e7 1.0327988932865371e6 0.0
0.0 0.0 0.0

1.0632916981185083e6 9.81766484872494e6 0.0
9.81766484872494e6 -7.971676194477977e6 0.0
0.0 0.0 0.0

193718.00725671835 1.007679961266351e7 0.0
1.007679961266351e7 -7.589022985953305e6 0.0
0.0 0.0 0.0

-1.2989171412911791e7 -2.3604120052003847e6 0.0
-2.3604120052003847e6 3.995758294517233e7 0.0
0.0 0.0 0.0

-1.1820367754035976e7 1.5133143164385501e7 0.0
1.5133143164385501e7 8.124374723664079e6 0.0
0.0 0.0 0.0

1.3662570191103723e6 7.147601513894599e6 0.0
7.147601513894599e6 -3.826192811753443e6 0.0
0.0 0.0 0.0

-745059.7250421976 1.17867511138377e7 0.0
1.17867511138377e7 -565194.1433343764 0.0
0.0 0.0 0.0

-2.8338429783405876e6 9.729534001991834e6 0.0
9.729534001991834e6 3.414840509556596e6 0.0
0.0 0.0 0.0

-6.69328060779869e6 7.470813207158869e6 0.0
7.470813207158869e6 9.28860350471838e6 0.0
0.0 0.0 0.0

-5.427093870708172e6 1.134341522777667e7 0.0
1.134341522777667e7 2.838907798795823e6 0.0
0.0 0.0 0.0

-82049.69651513768 9.723646578349264e6 0.0
9.723646578349264e6 2.0655109491813753e6 0.0
0.0 0.0 0.0

-2.2943966536914553e6 9.756387599035079e6 0.0
9.756387599035079e6 3.238119201299198e6 0.0
0.0 0.0 0.0

-246933.73822323186 1.118002149964864e7 0.0
1.118002149964864e7 -6.113682209363871e6 0.0
0.0 0.0 0.0

2.425219415821131e6 7.069470907153487e6 0.0
7.069470907153487e6 -5.748446999591615e6 0.0
0.0 0.0 0.0

606977.7208438641 1.115902765022227e7 0.0
1.115902765022227e7 -6.907738715906905e6 0.0
0.0 0.0 0.0

-3.0385182192455586e6 1.1744730163196562e7 0.0
1.1744730163196562e7 -2.8676244636970647e6 0.0
0.0 0.0 0.0

-5.542471251635974e6 1.0782406668359423e7 0.0
1.0782406668359423e7 3.7441039622319e6 0.0
0.0 0.0 0.0

-1.4014784975526389e6 1.2842909160682574e7 0.0
1.2842909160682574e7 -3.8724673056716416e6 0.0
0.0 0.0 0.0

-1.3854035403626678e6 1.2526503492957229e7 0.0
1.2526503492957229e7 -4.309690356844343e6 0.0
0.0 0.0 0.0

3.352503195320891e6 6.095880674419005e6 0.0
6.095880674419005e6 -9.625276394375864e6 0.0
0.0 0.0 0.0

207578.25724775213 9.31844245375422e6 0.0
9.31844245375422e6 388782.9298387517 0.0
0.0 0.0 0.0

-3.484165087382374e6 1.181004274819079e7 0.0
1.181004274819079e7 -2.190552084638739e6 0.0
0.0 0.0 0.0

-5.38532642626222e6 6.391866254050017e6 0.0
6.391866254050017e6 4.341625500775743e6 0.0
0.0 0.0 0.0

-2.8950733700324595e7 1.6634156298187813e7 0.0
1.6634156298187813e7 6.44289972641463e6 0.0
0.0 0.0 0.0

1.3149409280432392e7 2.1286500387272917e7 0.0
2.1286500387272917e7 4.3831511412726216e7 0.0
0.0 0.0 0.0

-4.912002346923254e6 1.4697179344903862e7 0.0
1.4697179344903862e7 -1.637337919660939e7 0.0
0.0 0.0 0.0

-4.82515557167131e6 1.0411170356224686e7 0.0
1.0411170356224686e7 6.37797687940114e6 0.0
0.0 0.0 0.0

187184.77899890766 9.50437485382602e6 0.0
9.50437485382602e6 -6.874261617011915e6 0.0
0.0 0.0 0.0

-2.9038559273606944e6 1.0993472586439539e7 0.0
1.0993472586439539e7 -122735.8209057023 0.0
0.0 0.0 0.0

-1.0045611520889897e7 1.7406451299637742e7 0.0
1.7406451299637742e7 4.652614043425566e6 0.0
0.0 0.0 0.0

601352.805079245 1.0533577646139074e7 0.0
1.0533577646139074e7 -8.020589372602325e6 0.0
0.0 0.0 0.0

-2.0640020478228517e6 1.2289732727100344e7 0.0
1.2289732727100344e7 82619.38558430388 0.0
0.0 0.0 0.0

-6.321467309291211e6 7.233721604339502e6 0.0
7.233721604339502e6 5.962003144086659e6 0.0
0.0 0.0 0.0

-4.902360599648663e6 1.1781835646599932e7 0.0
1.1781835646599932e7 1.6841397626752756e6 0.0
0.0 0.0 0.0

781191.7557355678 1.0231258516751427e7 0.0
1.0231258516751427e7 -9.689962408740483e6 0.0
0.0 0.0 0.0

-1.1074667903900547e6 1.1843483055564262e7 0.0
1.1843483055564262e7 -667055.6123841635 0.0
0.0 0.0 0.0

-6.509684700157762e6 1.0666816553036911e7 0.0
1.0666816553036911e7 5.340185842218856e6 0.0
0.0 0.0 0.0

4.098583242335121e6 1.1952245098794028e7 0.0
1.1952245098794028e7 -5.599418549986364e6 0.0
0.0 0.0 0.0

-426362.15822063223 8.623598721265724e6 0.0
8.623598721265724e6 523507.71075547393 0.0
0.0 0.0 0.0

-5.466883884458386e6 1.0712957818481274e7 0.0
1.0712957818481274e7 6.470739865508047e6 0.0
0.0 0.0 0.0

-8.147244346631508e6 1.0293779573155388e7 0.0
1.0293779573155388e7 1.4106791310490724e6 0.0
0.0 0.0 0.0

-936972.8099383512 8.824648643706117e6 0.0
8.824648643706117e6 439092.7032848613 0.0
0.0 0.0 0.0

-6.63207989554662e6 1.4467675234580567e7 0.0
1.4467675234580567e7 1.5915858115729294e6 0.0
0.0 0.0 0.0

-935579.5516442307 1.4863845729752265e7 0.0
1.4863845729752265e7 -3.5964596153692e6 0.0
0.0 0.0 0.0

-10393.725957941497 8.452821448675113e6 0.0
8.452821448675113e6 -5.249981068625497e6 0.0
0.0 0.0 0.0

-6.235223961011745e6 9.359837290386846e6 0.0
9.359837290386846e6 8.706010593206612e6 0.0
0.0 0.0 0.0

-170366.7703911867 1.1161096697569989e7 0.0
1.1161096697569989e7 -6.79476175324509e6 0.0
0.0 0.0 0.0

-2.8523117249367414e6 8.1884185761508215e6 0.0
8.1884185761508215e6 507203.4070775816 0.0
0.0 0.0 0.0

-6.296162008735616e6 8.666540158923188e6 0.0
8.666540158923188e6 4.956774141354481e6 0.0
0.0 0.0 0.0

1.6686708606065772e6 6.96804914787533e6 0.0
6.96804914787533e6 -5.242201903031722e6 0.0
0.0 0.0 0.0

-771145.5312162514 1.1173445190964894e7 0.0
1.1173445190964894e7 557209.2641451011 0.0
0.0 0.0 0.0

-3.589129151629438e6 1.4437478505031794e7 0.0
1.4437478505031794e7 -2.41371906775676e6 0.0
0.0 0.0 0.0

3.187913050270656e6 9.603525011574985e6 0.0
9.603525011574985e6 -1.4022521618328582e7 0.0
0.0 0.0 0.0

-4.877547047370018e6 6.347928066495545e6 0.0
6.347928066495545e6 3.532751578550727e6 0.0
0.0 0.0 0.0

-4.895706702972644e6 1.9653918145975463e7 0.0
1.9653918145975463e7 -2.116848094628727e6 0.0
0.0 0.0 0.0

3.4789163144459375e6 7.46068027253103e6 0.0
7.46068027253103e6 -1.0924488939984199e7 0.0
0.0 0.0 0.0

-695547.8384690684 1.1188333533150634e7 0.0
1.1188333533150634e7 208316.1988886413 0.0
0.0 0.0 0.0

-3.1135339674320817e6 1.326875879142313e7 0.0
1.326875879142313e7 -2.851557435289725e6 0.0
0.0 0.0 0.0

-600796.4620927982 1.5658391362359019e7 0.0
1.5658391362359019e7 7.949871407128292e7 0.0
0.0 0.0 0.0

2.0488628249395415e6 1.400732039694313e7 0.0
1.400732039694313e7 -2.624169556552134e7 0.0
0.0 0.0 0.0

5.988961032326424e6 1.2162733282740975e7 0.0
1.2162733282740975e7 3.3896993360786624e6 0.0
0.0 0.0 0.0

202213.8679064426 1.4539425351736482e7 0.0
1.4539425351736482e7 -4.816387297030562e6 0.0
0.0 0.0 0.0

-35943.992214131635 7.465905053395512e6 0.0
7.465905053395512e6 -3.8954026409755168e6 0.0
0.0 0.0 0.0

-1.6564276988966465e6 1.849086322604154e7 0.0
1.849086322604154e7 -3.6916234214996593e6 0.0
0.0 0.0 0.0

-2.854513793706026e6 1.1134757033077635e7 0.0
1.1134757033077635e7 3.9460077757974956e6 0.0
0.0 0.0 0.0

3.7821168796722693e6 1.1642200810028136e7 0.0
1.1642200810028136e7 -5.156952546058011e6 0.0
0.0 0.0 0.0

-6.311114757453946e6 1.0674935096177652e7 0.0
1.0674935096177652e7 4.525332327551834e6 0.0
0.0 0.0 0.0

-4.28288398600046e6 7.786203662693691e6 0.0
7.786203662693691e6 3.1520320256121126e6 0.0
0.0 0.0 0.0

3.3143129079346135e6 5.0391034786145175e6 0.0
5.0391034786145175e6 -5.703267502169367e6 0.0
0.0 0.0 0.0

-4.9255110030118115e6 1.0774988565717578e7 0.0
1.0774988565717578e7 7.719004137225116e6 0.0
0.0 0.0 0.0

-4.989418910971217e6 1.2275408999763235e7 0.0
1.2275408999763235e7 449467.89921146655 0.0
0.0 0.0 0.0

-4.945349581749753e6 1.0244029113515249e7 0.0
1.0244029113515249e7 6.895772465035718e6 0.0
0.0 0.0 0.0

-5.775293823717584e6 1.2336271662496062e7 0.0
1.2336271662496062e7 4.925161405455774e6 0.0
0.0 0.0 0.0

-5.8424258241994195e6 1.0590207190870855e7 0.0
1.0590207190870855e7 4.584418651177589e6 0.0
0.0 0.0 0.0

-107330.39668176835 8.692458737436589e6 0.0
8.692458737436589e6 -5.39383810453879e6 0.0
0.0 0.0 0.0

-6.07881646394364e6 1.0697425340387793e7 0.0
1.0697425340387793e7 8.423629607764605e6 0.0
0.0 0.0 0.0

-6.262190039048835e6 1.1237448068879087e7 0.0
1.1237448068879087e7 5.342644486129756e6 0.0
0.0 0.0 0.0

-1.8756895672779803e6 6.10198429729332e6 0.0
6.10198429729332e6 -193007.83600964223 0.0
0.0 0.0 0.0

-2.010307483651115e7 1.0215335524200454e7 0.0
1.0215335524200454e7 8.365921259809294e6 0.0
0.0 0.0 0.0

-1.1371639733535392e7 -2.117774666511825e6 0.0
-2.117774666511825e6 2.2850752721353527e7 0.0
0.0 0.0 0.0

-5.980907700329509e6 1.2285744362940842e7 0.0
1.2285744362940842e7 4.511193107495213e6 0.0
0.0 0.0 0.0

-8.583407480911672e6 1.2444665155780958e7 0.0
1.2444665155780958e7 6.356519833390571e6 0.0
0.0 0.0 0.0

1.118260703954175e6 1.0123083894599736e7 0.0
1.0123083894599736e7 -9.152231637043405e6 0.0
0.0 0.0 0.0

-9.670897226277359e6 1.4394941272990078e7 0.0
1.4394941272990078e7 6.663633081003412e6 0.0
0.0 0.0 0.0

-1.3006917783851698e7 1.5410389604815913e7 0.0
1.5410389604815913e7 8.593804351836737e6 0.0
0.0 0.0 0.0

-1.4660141598447468e7 1.5510660353569798e7 0.0
1.5510660353569798e7 9.433347314842395e6 0.0
0.0 0.0 0.0

-6.062117794057801e6 1.2675512420609936e7 0.0
1.2675512420609936e7 2.331279881250616e6 0.0
0.0 0.0 0.0

-8.262806809377644e6 3.82778866994991e6 0.0
3.82778866994991e6 1.1777790776791923e7 0.0
0.0 0.0 0.0

3.1547134754303256e6 5.657042217302695e6 0.0
5.657042217302695e6 -8.95005227746676e6 0.0
0.0 0.0 0.0

-5.3378018626384735e6 1.0295726748985419e7 0.0
1.0295726748985419e7 6.644149139049577e6 0.0
0.0 0.0 0.0

-7.131015684522089e6 1.4574520761634506e7 0.0
1.4574520761634506e7 2.322583138918453e6 0.0
0.0 0.0 0.0

186545.60430674907 1.0439313836253533e7 0.0
1.0439313836253533e7 -7.522033784473652e6 0.0
0.0 0.0 0.0

-6.19333605195752e6 -4.205764920249517e6 0.0
-4.205764920249517e6 9.547796992291711e6 0.0
0.0 0.0 0.0

-305392.0413420382 1.154611541252699e7 0.0
1.154611541252699e7 -785468.0111249548 0.0
0.0 0.0 0.0

-214247.52264154772 1.1824885821738232e7 0.0
1.1824885821738232e7 -5.749502935422631e6 0.0
0.0 0.0 0.0

489653.0782177779 1.1057076142842196e7 0.0
1.1057076142842196e7 -6.768754178884639e6 0.0
0.0 0.0 0.0

-46594.682032018434 9.25513426735029e6 0.0
9.25513426735029e6 -6.960345438845564e6 0.0
0.0 0.0 0.0

-400356.8800494009 2.73589891865833e6 0.0
2.73589891865833e6 -664724.2935665996 0.0
0.0 0.0 0.0

1.118303338386209e6 8.744441496680843e6 0.0
8.744441496680843e6 -3.9435234657197325e6 0.0
0.0 0.0 0.0

879168.8832668777 8.78870538508461e6 0.0
8.78870538508461e6 166531.56836585567 0.0
0.0 0.0 0.0

5.806700663769018e6 9.056057802238964e6 0.0
9.056057802238964e6 -2.4310204476193497e6 0.0
0.0 0.0 0.0

-1.4476353430758521e7 1.5673412010455169e7 0.0
1.5673412010455169e7 1.0320878374957835e7 0.0
0.0 0.0 0.0

-4.730671355807874e6 8.047962242496628e6 0.0
8.047962242496628e6 3.759124246218005e6 0.0
0.0 0.0 0.0

-505764.9015931166 1.180108372888985e7 0.0
1.180108372888985e7 -1.2183594453575004e7 0.0
0.0 0.0 0.0

2.9105636291773026e6 6.980531243317096e6 0.0
6.980531243317096e6 -9.412470744270379e6 0.0
0.0 0.0 0.0

-3.1817157288917657e6 -178513.90102014612 0.0
-178513.90102014612 3.3299246717447788e6 0.0
0.0 0.0 0.0

-1.2540291916118298e7 9.666605999753572e6 0.0
9.666605999753572e6 7.239770091799711e6 0.0
0.0 0.0 0.0

-7.627750881869577e6 1.0369751083900755e7 0.0
1.0369751083900755e7 895696.1640170179 0.0
0.0 0.0 0.0

391401.20155312866 9.328065358053891e6 0.0
9.328065358053891e6 -5.965816967414469e6 0.0
0.0 0.0 0.0

-6.919410159257854e6 1.3618476576568903e7 0.0
1.3618476576568903e7 3.120653754843444e6 0.0
0.0 0.0 0.0

4.0146458505139397e6 7.769003945525865e6 0.0
7.769003945525865e6 -1.427949354866153e7 0.0
0.0 0.0 0.0

802024.1925210783 1.3020717218405832e7 0.0
1.3020717218405832e7 -4.767300109052063e6 0.0
0.0 0.0 0.0

-215190.84199655906 9.90943587567781e6 0.0
9.90943587567781e6 2.681767919446712e6 0.0
0.0 0.0 0.0

551323.8224805929 9.377514017138582e6 0.0
9.377514017138582e6 -6.69920525568628e6 0.0
0.0 0.0 0.0

-4.349147042707157e6 1.0950793080567386e7 0.0
1.0950793080567386e7 1.5550300503561243e6 0.0
0.0 0.0 0.0

68355.00062892796 8.17024517613392e6 0.0
8.17024517613392e6 -4.881066313001642e6 0.0
0.0 0.0 0.0

383842.6967834234 9.394686051075267e6 0.0
9.394686051075267e6 -7.285870751670541e6 0.0
0.0 0.0 0.0

554410.4197920035 9.838450034278e6 0.0
9.838450034278e6 -7.213211178968052e6 0.0
0.0 0.0 0.0

-7.582307008404426e6 1.2623168727891902e7 0.0
1.2623168727891902e7 5.826702069665372e6 0.0
0.0 0.0 0.0

-1.9524200376603156e6 1.2974698105134659e7 0.0
1.2974698105134659e7 -1.3417308874342019e7 0.0
0.0 0.0 0.0

-3.110552572939557e6 1.7990975188647963e7 0.0
1.7990975188647963e7 -1.5775689128140626e6 0.0
0.0 0.0 0.0

-3.0228922659758497e6 1.4651087385601666e7 0.0
1.4651087385601666e7 -2.873120186472568e6 0.0
0.0 0.0 0.0

-8.062268313244203e6 1.3520310030765254e7 0.0
1.3520310030765254e7 5.800502069504824e6 0.0
0.0 0.0 0.0

-6.29068585666499e6 1.129568137261469e7 0.0
1.129568137261469e7 5.466079011723325e6 0.0
0.0 0.0 0.0

4.240292932790885e6 7.471205807457544e6 0.0
7.471205807457544e6 -1.4508805846904723e7 0.0
0.0 0.0 0.0

-5.292467305022328e6 1.1885847249589738e7 0.0
1.1885847249589738e7 5.388986870329395e6 0.0
0.0 0.0 0.0

3.912349052975226e6 6.871149504018205e6 0.0
6.871149504018205e6 -1.2682675454671128e7 0.0
0.0 0.0 0.0

-3.2044614857197474e6 1.0545570743567282e7 0.0
1.0545570743567282e7 -1.4498184192938716e6 0.0
0.0 0.0 0.0

-2.892897216773702e6 1.024865725460877e7 0.0
1.024865725460877e7 -1.6764793465461764e6 0.0
0.0 0.0 0.0

818826.6398449799 8.568925929117398e6 0.0
8.568925929117398e6 -4.330732171544241e6 0.0
0.0 0.0 0.0

-3.538509372845174e6 1.1337500861729514e7 0.0
1.1337500861729514e7 4.0517102675034082e6 0.0
0.0 0.0 0.0

-5.601175170490136e6 1.2062463989353932e7 0.0
1.2062463989353932e7 2.1493146526469383e6 0.0
0.0 0.0 0.0

-6.249088127469696e6 9.844781171575714e6 0.0
9.844781171575714e6 5.450016649587549e6 0.0
0.0 0.0 0.0

-4.80309439821483e6 -719223.0797366276 0.0
-719223.0797366276 5.428114892057817e6 0.0
0.0 0.0 0.0

2.7140400565125854e6 6.889948895678518e6 0.0
6.889948895678518e6 -1.0036013858034695e7 0.0
0.0 0.0 0.0

1.5347520400534025e6 7.4955794437814085e6 0.0
7.4955794437814085e6 -8.0228162737516165e6 0.0
0.0 0.0 0.0

-8.197656851439515e6 1.4998669690608965e7 0.0
1.4998669690608965e7 4.746116539879883e6 0.0
0.0 0.0 0.0

-2.1454161735679586e6 1.1846111519009005e7 0.0
1.1846111519009005e7 -657623.9628912678 0.0
0.0 0.0 0.0

1.3519326669876752e6 9.910647268820824e6 0.0
9.910647268820824e6 -9.127259803796573e6 0.0
0.0 0.0 0.0

-7.049089936808109e6 9.912883698175607e6 0.0
9.912883698175607e6 1.0342478938037328e7 0.0
0.0 0.0 0.0

-1.572478289540312e6 3.691434491729832e6 0.0
3.691434491729832e6 896104.7585993994 0.0
0.0 0.0 0.0

-1.3694060212136896e6 1.0333982189869039e7 0.0
1.0333982189869039e7 4.33694839022732e6 0.0
0.0 0.0 0.0

-1.1997007643690998e7 1.1204360313537922e7 0.0
1.1204360313537922e7 9.086591813716633e6 0.0
0.0 0.0 0.0

950344.8501535057 9.041615009712374e6 0.0
9.041615009712374e6 168922.53228774166 0.0
0.0 0.0 0.0

-830268.5761923383 1.0916015322743446e7 0.0
1.0916015322743446e7 1.3895383441061913e6 0.0
0.0 0.0 0.0

-7.213456325052844e6 1.259134048369809e7 0.0
1.259134048369809e7 5.560473525261467e6 0.0
0.0 0.0 0.0

-4.1152850805532057e6 1.1568367450576905e7 0.0
1.1568367450576905e7 4.67963339392291e6 0.0
0.0 0.0 0.0

-7.496899246951586e6 1.0556875136674372e7 0.0
1.0556875136674372e7 9.875108058156626e6 0.0
0.0 0.0 0.0

-6.063759399291168e6 1.1134524868054984e7 0.0
1.1134524868054984e7 1.4018496574802487e6 0.0
0.0 0.0 0.0

-6.384523802514788e6 1.1161369313667137e7 0.0
1.1161369313667137e7 2.2890092133867117e6 0.0
0.0 0.0 0.0

-7.424933185932826e6 2.1071970299025746e6 0.0
2.1071970299025746e6 6.015396059969718e6 0.0
0.0 0.0 0.0

-3.209416862779414e7 1.773939302729199e7 0.0
1.773939302729199e7 1.3457433447880074e7 0.0
0.0 0.0 0.0

3.9462435898411404e6 9.016104923820645e6 0.0
9.016104923820645e6 -1.1545171207603829e6 0.0
0.0 0.0 0.0

912559.725949551 1.0152549612095544e7 0.0
1.0152549612095544e7 -9.311678937651401e6 0.0
0.0 0.0 0.0

-6.080591947344437e6 1.028644408484753e7 0.0
1.028644408484753e7 4.1982725299589895e6 0.0
0.0 0.0 0.0

-1.3006719407628393e6 1.1642921939754916e7 0.0
1.1642921939754916e7 -5.3147542428770745e6 0.0
0.0 0.0 0.0

1.2520931988586191e7 1.075529869142137e7 0.0
1.075529869142137e7 -731009.9323555091 0.0
0.0 0.0 0.0

236749.00317673478 1.9995949305694096e6 0.0
1.9995949305694096e6 -2.1146331639282475e6 0.0
0.0 0.0 0.0

2.2459404447695375e6 5.422416552595421e6 0.0
5.422416552595421e6 -5.662363410015459e6 0.0
0.0 0.0 0.0

-2.4242208841996174e6 1.1391165593310049e7 0.0
1.1391165593310049e7 -3.5710115133541403e6 0.0
0.0 0.0 0.0

570604.9896397772 8.937396663249645e6 0.0
8.937396663249645e6 -3.6417827339195986e6 0.0
0.0 0.0 0.0

-1.0183256198427474e7 -622505.1138527234 0.0
-622505.1138527234 1.5444564539117869e7 0.0
0.0 0.0 0.0

-1.9074451092608212e6 1.4860839956242166e7 0.0
1.4860839956242166e7 -2.64764754201324e6 0.0
0.0 0.0 0.0

-1.690507622522384e7 1.5843887334555952e7 0.0
1.5843887334555952e7 1.0970883376964059e7 0.0
0.0 0.0 0.0

3.755443600871817e6 9.966357272558933e6 0.0
9.966357272558933e6 -2.085950876504927e6 0.0
0.0 0.0 0.0

-938076.3677503671 188454.89200332994 0.0
188454.89200332994 583760.2837126743 0.0
0.0 0.0 0.0

-1.4139225191750187e7 6.484586409338288e6 0.0
6.484586409338288e6 9.155627142417379e6 0.0
0.0 0.0 0.0

-1.021548027483575e6 7.885459125642283e6 0.0
7.885459125642283e6 62938.220870900026 0.0
0.0 0.0 0.0

-1.8783942194372475e7 1.6207755880334139e7 0.0
1.6207755880334139e7 1.1763451362120554e7 0.0
0.0 0.0 0.0

-6.31304821683283e6 8.718598911943851e6 0.0
8.718598911943851e6 7.344495506071697e6 0.0
0.0 0.0 0.0

1.7813803580366902e6 1.0243678695170166e7 0.0
1.0243678695170166e7 -4.2489703550736075e6 0.0
0.0 0.0 0.0

-1.167342336315694e6 9.852665920359697e6 0.0
9.852665920359697e6 -8.168236589649439e6 0.0
0.0 0.0 0.0

315465.9977108422 9.603024369967759e6 0.0
9.603024369967759e6 -6.5939873405187195e6 0.0
0.0 0.0 0.0

1.1933160195448818e6 1.2480237800475067e7 0.0
1.2480237800475067e7 -4.533565876179278e6 0.0
0.0 0.0 0.0

-4.0309115638741623e6 2.22458838139393e7 0.0
2.22458838139393e7 -1.351267461542956e7 0.0
0.0 0.0 0.0

-280669.2962059358 2.6066200291607087e6 0.0
2.6066200291607087e6 -207783.9327318286 0.0
0.0 0.0 0.0

-9.69996534274663e6 1.6853771417917557e7 0.0
1.6853771417917557e7 4.0579246114239334e6 0.0
0.0 0.0 0.0

-6.266357353474382e6 1.474266626080362e7 0.0
1.474266626080362e7 2.577076829498153e6 0.0
0.0 0.0 0.0

-6.246378668025266e6 -1.4503662638696895e6 0.0
-1.4503662638696895e6 8.1230931766601745e6 0.0
0.0 0.0 0.0

3.172388345557438e6 5.661868387157275e6 0.0
5.661868387157275e6 -8.991089360592838e6 0.0
0.0 0.0 0.0

-6.529470313957065e6 1.2112518538700245e7 0.0
1.2112518538700245e7 5.406984405694389e6 0.0
0.0 0.0 0.0

-2.6588354285204737e6 1.0194837640566595e7 0.0
1.0194837640566595e7 5.234265277472412e6 0.0
0.0 0.0 0.0

-2.122933374614889e6 1.155007701344316e6 0.0
1.155007701344316e6 3.449258089923729e6 0.0
0.0 0.0 0.0

-5.560171642315809e6 7.274359837787594e6 0.0
7.274359837787594e6 5.513248801221147e6 0.0
0.0 0.0 0.0

-3.2867533564066165e6 1.0289563316784788e7 0.0
1.0289563316784788e7 5.813106889977479e6 0.0
0.0 0.0 0.0

-2.1117889484421746e6 9.071058778607033e6 0.0
9.071058778607033e6 -3.084589601463163e6 0.0
0.0 0.0 0.0

329312.0532284789 9.64213670628284e6 0.0
9.64213670628284e6 -7.386652649947035e6 0.0
0.0 0.0 0.0

-6.289540063274467e6 1.359394959013847e7 0.0
1.359394959013847e7 1.6153381619490804e6 0.0
0.0 0.0 0.0

-125969.13294995436 1.9839118385786077e6 0.0
1.9839118385786077e6 -1.294880478686787e6 0.0
0.0 0.0 0.0

-3.1704654757199325e6 9.002561999391943e6 0.0
9.002561999391943e6 736970.2165153611 0.0
0.0 0.0 0.0

-6.877513527539086e6 7.712296294697241e6 0.0
7.712296294697241e6 9.70701290249763e6 0.0
0.0 0.0 0.0

-722527.9297923151 8.028727228044211e6 0.0
8.028727228044211e6 -3.9687087130813804e6 0.0
0.0 0.0 0.0

-3.2719579656295683e6 1.2635620868166931e7 0.0
1.2635620868166931e7 -2.739292304571256e6 0.0
0.0 0.0 0.0

-1.0030912693433054e7 1.789501438706727e7 0.0
1.789501438706727e7 6.4064983480567e6 0.0
0.0 0.0 0.0

1.1967492658419958e6 9.873167355357155e6 0.0
9.873167355357155e6 -9.64096972802518e6 0.0
0.0 0.0 0.0

-2.781415637585877e7 1.5002422652155465e7 0.0
1.5002422652155465e7 1.3942622562300518e7 0.0
0.0 0.0 0.0

4.271742460124414e6 3.336573212424325e6 0.0
3.336573212424325e6 -5.685323423831204e6 0.0
0.0 0.0 0.0

3.1028643087672517e6 4.041201320131706e6 0.0
4.041201320131706e6 -5.77164175411785e6 0.0
0.0 0.0 0.0

-1.2928768934854956e6 1.208861677357076e7 0.0
1.208861677357076e7 4.299802865262194e6 0.0
0.0 0.0 0.0

-4.0258522759596827e6 1.1253266388739882e7 0.0
1.1253266388739882e7 8.077977500249291e6 0.0
0.0 0.0 0.0

-812123.7323702916 1.146648183259336e7 0.0
1.146648183259336e7 563442.632969683 0.0
0.0 0.0 0.0

-4.443744763934979e6 6.768313264363379e6 0.0
6.768313264363379e6 4.1527794938198887e6 0.0
0.0 0.0 0.0

153123.53359290678 3.4681308414069805e6 0.0
3.4681308414069805e6 -482691.2909783058 0.0
0.0 0.0 0.0

-2.1396096508041564e6 1.178530351565425e7 0.0
1.178530351565425e7 1.8566770948132304e6 0.0
0.0 0.0 0.0

-6.682827419597499e6 1.330591573354513e7 0.0
1.330591573354513e7 3.9390900882026595e6 0.0
0.0 0.0 0.0

1.096260084156409e6 1.0050066221672919e7 0.0
1.0050066221672919e7 -9.791931142284436e6 0.0
0.0 0.0 0.0

-2.6344779750829455e6 1.0990618622530857e7 0.0
1.0990618622530857e7 7.020146017892372e6 0.0
0.0 0.0 0.0

3.99857240658331e6 9.887162218153646e6 0.0
9.887162218153646e6 -696697.3081392962 0.0
0.0 0.0 0.0

-2.023596199890615e7 1.5731826006870005e7 0.0
1.5731826006870005e7 1.333117523502436e7 0.0
0.0 0.0 0.0

-1.2493669247729802e6 8.772568171058353e6 0.0
8.772568171058353e6 2.0804154873549785e6 0.0
0.0 0.0 0.0

-1.9163622265298832e6 4.679073257679858e6 0.0
4.679073257679858e6 -376265.898689953 0.0
0.0 0.0 0.0

-6.827706996480862e6 4.536014359063781e6 0.0
4.536014359063781e6 7.783897944344065e6 0.0
0.0 0.0 0.0

-6.537238803367732e6 1.2973496237617094e7 0.0
1.2973496237617094e7 3.338644304012094e6 0.0
0.0 0.0 0.0

-6.212742354418915e6 1.0557454172640141e7 0.0
1.0557454172640141e7 1.0254722777752806e7 0.0
0.0 0.0 0.0

-1.3916125470915545e7 -2.3478491216832553e6 0.0
-2.3478491216832553e6 2.6474788946634106e7 0.0
0.0 0.0 0.0

-1.9085314681020286e6 1.113653598882175e7 0.0
1.113653598882175e7 2.3782327358079697e6 0.0
0.0 0.0 0.0

-1.9528822536005536e6 1.0598044663246298e7 0.0
1.0598044663246298e7 -8.689682100049727e6 0.0
0.0 0.0 0.0

-3.942496661880035e6 1.0934065249734093e7 0.0
1.0934065249734093e7 7.188864284259739e6 0.0
0.0 0.0 0.0

-5.258773050897263e6 9.693298374703271e6 0.0
9.693298374703271e6 7.273777015052229e6 0.0
0.0 0.0 0.0

-1.8249625829269318e6 8.675565602652775e6 0.0
8.675565602652775e6 -3.3626624046220398e6 0.0
0.0 0.0 0.0

-8.132136670992797e6 1.3412948859445382e7 0.0
1.3412948859445382e7 3.2203160453009617e7 0.0
0.0 0.0 0.0

-2.1723442518618535e6 1.4670169508069653e7 0.0
1.4670169508069653e7 -3.5623930915937307e6 0.0
0.0 0.0 0.0

-494966.79217653326 1.1001431506465174e7 0.0
1.1001431506465174e7 -6.364360759420604e6 0.0
0.0 0.0 0.0

-969734.9012685776 8.105542977629643e6 0.0
8.105542977629643e6 -2.8784191792237074e6 0.0
0.0 0.0 0.0

3.783489150339164e6 5.816521349675354e6 0.0
5.816521349675354e6 -1.0701435978260815e7 0.0
0.0 0.0 0.0

-9.824292109736912e6 1.6946144757509053e7 0.0
1.6946144757509053e7 6.558795409277316e6 0.0
0.0 0.0 0.0

-7.324594491796352e6 4.759541957752594e6 0.0
4.759541957752594e6 8.636289286806626e6 0.0
0.0 0.0 0.0

-1.2004844193127903e6 1.10802413385221e7 0.0
1.10802413385221e7 2.406977096152826e6 0.0
0.0 0.0 0.0

-5.4352521858900655e6 1.1868129228114469e7 0.0
1.1868129228114469e7 3.8802804277377515e6 0.0
0.0 0.0 0.0

-3.9149706728954394e6 9.903729513746629e6 0.0
9.903729513746629e6 760130.2227011092 0.0
0.0 0.0 0.0

-6.459803419718508e6 7.5631014209755445e6 0.0
7.5631014209755445e6 6.780933446401649e6 0.0
0.0 0.0 0.0

823682.4973182492 7.9531008316474315e6 0.0
7.9531008316474315e6 -6.662634475336889e6 0.0
0.0 0.0 0.0

-1.6865906771467045e7 1.3484580004362285e7 0.0
1.3484580004362285e7 1.1303954990999654e7 0.0
0.0 0.0 0.0

4.200601758631765e6 8.855631662255708e6 0.0
8.855631662255708e6 978356.2251643939 0.0
0.0 0.0 0.0

-1.0163583966248287e6 3.337250807767875e6 0.0
3.337250807767875e6 -103742.64015813178 0.0
0.0 0.0 0.0

-8.195657194860842e6 1.2631414504484415e7 0.0
1.2631414504484415e7 6.053479553708907e6 0.0
0.0 0.0 0.0

-1.6699619104898829e7 4.386107817679283e6 0.0
4.386107817679283e6 9.252465015676083e6 0.0
0.0 0.0 0.0

-2.356053244453793e6 1.217521945947862e7 0.0
1.217521945947862e7 -352689.3215510174 0.0
0.0 0.0 0.0

-2.0784676643762484e7 1.5025833386765955e7 0.0
1.5025833386765955e7 5.616863310693631e6 0.0
0.0 0.0 0.0

-1.8785444502986723e6 1.2316445868792303e7 0.0
1.2316445868792303e7 -348232.6657218527 0.0
0.0 0.0 0.0

-6.002345832382774e6 9.041892147727318e6 0.0
9.041892147727318e6 5.647731585757703e6 0.0
0.0 0.0 0.0

-4.625551016518235e6 6.284339282548267e6 0.0
6.284339282548267e6 4.422887376020531e6 0.0
0.0 0.0 0.0

-5.006662622369277e6 7.6730323834580025e6 0.0
7.6730323834580025e6 3.203182584571975e6 0.0
0.0 0.0 0.0

-5.51801027193593e6 1.2159423977712147e7 0.0
1.2159423977712147e7 5.102709447480369e6 0.0
0.0 0.0 0.0

-8.196252048533626e6 -2.4514597839966686e6 0.0
-2.4514597839966686e6 1.1730240370305156e7 0.0
0.0 0.0 0.0

249228.8655869125 8.220996018283801e6 0.0
8.220996018283801e6 -3.463428961607033e6 0.0
0.0 0.0 0.0

-165653.42589802667 7.332415795448937e6 0.0
7.332415795448937e6 -4.544294802052498e6 0.0
0.0 0.0 0.0

-202960.15853593615 1.0170261225896867e7 0.0
1.0170261225896867e7 -5.932947529946146e6 0.0
0.0 0.0 0.0

-3.0586352178940615e6 501413.6386661613 0.0
501413.6386661613 3.675155924956509e6 0.0
0.0 0.0 0.0

-59782.03118480707 8.389979933616905e6 0.0
8.389979933616905e6 -2.7877979923605416e6 0.0
0.0 0.0 0.0

-5.663083983482645e6 1.2086289459032157e7 0.0
1.2086289459032157e7 4.402466436476975e6 0.0
0.0 0.0 0.0

-3.264834906515047e6 1.1741381178104512e7 0.0
1.1741381178104512e7 5.516600491809078e6 0.0
0.0 0.0 0.0

-1.950980910215819e6 1.1037736797019795e7 0.0
1.1037736797019795e7 -3.6281291703953454e6 0.0
0.0 0.0 0.0

-552754.4188617864 1.131790113691536e7 0.0
1.131790113691536e7 -361620.31587084115 0.0
0.0 0.0 0.0

-9.287666589108527e6 1.622994494023832e7 0.0
1.622994494023832e7 4.237384282203078e6 0.0
0.0 0.0 0.0

-505897.7354954807 1.2030055165686369e7 0.0
1.2030055165686369e7 -5.296834944136297e6 0.0
0.0 0.0 0.0

2.0764972910453867e7 1.2459745548545897e7 0.0
1.2459745548545897e7 -2.5972062347096326e6 0.0
0.0 0.0 0.0

1.6757293087449898e6 1.103627245470679e7 0.0
1.103627245470679e7 -4.61917715678188e6 0.0
0.0 0.0 0.0

586067.1259360816 1.0608036590941906e7 0.0
1.0608036590941906e7 -8.137265455504044e6 0.0
0.0 0.0 0.0

-1.898688913472503e6 1.2928214197540905e7 0.0
1.2928214197540905e7 -4.00420027855622e6 0.0
0.0 0.0 0.0

-1.6116037088360203e7 7.986957622228334e6 0.0
7.986957622228334e6 8.79260272563556e6 0.0
0.0 0.0 0.0

-5.850731310801396e6 1.2166557652425725e7 0.0
1.2166557652425725e7 4.553823255998015e6 0.0
0.0 0.0 0.0

4.872156778142925e6 1.0208055066366829e7 0.0
1.0208055066366829e7 -4.303051243655246e6 0.0
0.0 0.0 0.0

1.0202490321174883e6 1.0141806844607271e7 0.0
1.0141806844607271e7 -1.065466245804358e7 0.0
0.0 0.0 0.0

-1.879103388578728e6 1.24868084694583e7 0.0
1.24868084694583e7 4.9730804833851e6 0.0
0.0 0.0 0.0

2.130548910404694e6 6.118151063478835e6 0.0
6.118151063478835e6 -7.226199456229655e6 0.0
0.0 0.0 0.0

-1.6898188120373716e6 1.3073322162382372e7 0.0
1.3073322162382372e7 -3.3226823637150037e6 0.0
0.0 0.0 0.0

3.9690780591113716e6 6.535384712992487e6 0.0
6.535384712992487e6 -1.2354356167952185e7 0.0
0.0 0.0 0.0

-3.2826466513403533e6 1.2283651996986333e7 0.0
1.2283651996986333e7 -2.4569439346819315e6 0.0
0.0 0.0 0.0

-2.716940113398784e6 1.4719163101802973e7 0.0
1.4719163101802973e7 -1.8625577808077638e6 0.0
0.0 0.0 0.0

-3.6519178560071886e6 9.977982046307744e6 0.0
9.977982046307744e6 753201.4851508893 0.0
0.0 0.0 0.0

-1.041461006760939e7 1.1579425491366742e7 0.0
1.1579425491366742e7 8.069428998879166e6 0.0
0.0 0.0 0.0

-5.928380599630219e6 9.583322189405337e6 0.0
9.583322189405337e6 7.063328665052461e6 0.0
0.0 0.0 0.0

-2.0593286697337548e6 8.307918853764299e6 0.0
8.307918853764299e6 1.3260736969287544e6 0.0
0.0 0.0 0.0

-2.128958488904074e7 9.977101029815612e6 0.0
9.977101029815612e6 1.267854284173996e7 0.0
0.0 0.0 0.0

2.55069482985792e6 9.39946665590974e6 0.0
9.39946665590974e6 1.7748028703007605e6 0.0
0.0 0.0 0.0

-1.9934504146861546e6 5.740897573190324e6 0.0
5.740897573190324e6 -699237.5276412149 0.0
0.0 0.0 0.0

-7.206448710834317e6 1.2495616445787432e7 0.0
1.2495616445787432e7 5.649707952076021e6 0.0
0.0 0.0 0.0

-2.434412990229378e6 1.2586254924695529e7 0.0
1.2586254924695529e7 -118693.73251913104 0.0
0.0 0.0 0.0

-593079.1545900787 8.304028573071436e6 0.0
8.304028573071436e6 -4.1880309802187034e6 0.0
0.0 0.0 0.0

3.348367858229928e6 5.666503856087453e6 0.0
5.666503856087453e6 -9.415483139162956e6 0.0
0.0 0.0 0.0

800634.3171851572 9.256808679987062e6 0.0
9.256808679987062e6 -6.084906034694598e6 0.0
0.0 0.0 0.0

1.3792607587941024e7 6.621181241481748e6 0.0
6.621181241481748e6 -4.097234877597538e6 0.0
0.0 0.0 0.0

-5.6803957458218075e6 9.492780619355781e6 0.0
9.492780619355781e6 7.928254638175892e6 0.0
0.0 0.0 0.0

-7.119207560018584e6 1.24975615199109e7 0.0
1.24975615199109e7 5.559104742787214e6 0.0
0.0 0.0 0.0

-4.0814484192115585e6 -4.226749109731847e6 0.0
-4.226749109731847e6 8.976189809330452e6 0.0
0.0 0.0 0.0

-9.514016883620633e6 1.4745898446034953e7 0.0
1.4745898446034953e7 6.490329057153126e6 0.0
0.0 0.0 0.0

-1.4408367184228998e7 6.653794760813645e6 0.0
6.653794760813645e6 7.957125816888683e6 0.0
0.0 0.0 0.0

-821911.7314836783 1.117518462001681e7 0.0
1.117518462001681e7 -5.927373982138723e6 0.0
0.0 0.0 0.0

-1.0088658462302366e6 1.1781225370254347e7 0.0
1.1781225370254347e7 3.485544228241516e6 0.0
0.0 0.0 0.0

-368891.4563518536 8.720639006862428e6 0.0
8.720639006862428e6 -912701.7629421558 0.0
0.0 0.0 0.0

-5.423995159841998e6 9.973055283015404e6 0.0
9.973055283015404e6 3.9695518630463956e6 0.0
0.0 0.0 0.0

-901600.9600177506 8.01121984750506e6 0.0
8.01121984750506e6 -4.59836125609458e6 0.0
0.0 0.0 0.0

1.1962374516051193e6 7.772131688352404e6 0.0
7.772131688352404e6 -6.366269867334813e6 0.0
0.0 0.0 0.0

224023.67214107537 7.123306923105826e6 0.0
7.123306923105826e6 -3.8961046386034177e6 0.0
0.0 0.0 0.0

-7.020900074635732e6 1.2405353060059207e7 0.0
1.2405353060059207e7 5.401771902658038e6 0.0
0.0 0.0 0.0

-2.340656266086148e6 9.246750489200447e6 0.0
9.246750489200447e6 -2.6515773665770693e6 0.0
0.0 0.0 0.0

4.829104552321848e6 8.804432168509556e6 0.0
8.804432168509556e6 1.1146679232312536e6 0.0
0.0 0.0 0.0

3.396912481963186e6 5.666317858700423e6 0.0
5.666317858700423e6 -9.473980394824142e6 0.0
0.0 0.0 0.0

-2.262078617663258e6 1.168272920043605e7 0.0
1.168272920043605e7 3.6553754107287405e6 0.0
0.0 0.0 0.0

548081.2565921454 7.223009430203457e6 0.0
7.223009430203457e6 -4.521400225720349e6 0.0
0.0 0.0 0.0

-5.8144084764221385e6 1.3768055106892345e7 0.0
1.3768055106892345e7 1.8880765557624982e6 0.0
0.0 0.0 0.0

-986669.4697120541 1.1387519933698198e7 0.0
1.1387519933698198e7 1.1026272180475085e6 0.0
0.0 0.0 0.0

-1.0614483358344156e7 1.1717745981366986e6 0.0
1.1717745981366986e6 1.4700013866044082e7 0.0
0.0 0.0 0.0

-16616.43546785519 2.8546484511667453e6 0.0
2.8546484511667453e6 -1.6954563854057996e6 0.0
0.0 0.0 0.0

-3.637504493705068e6 1.5056913262321273e7 0.0
1.5056913262321273e7 -2.3878652772730226e6 0.0
0.0 0.0 0.0

-2.262532422320821e7 1.5838083254245368e6 0.0
1.5838083254245368e6 1.1688331338276273e7 0.0
0.0 0.0 0.0

59473.104262439534 1.0730356102304822e7 0.0
1.0730356102304822e7 -7.272773141777393e6 0.0
0.0 0.0 0.0

-3.875865452933292e6 7.729829478663812e6 0.0
7.729829478663812e6 5.16047583986979e6 0.0
0.0 0.0 0.0

-5.5560654088628935e6 8.79723083850979e6 0.0
8.79723083850979e6 4.916436992949951e6 0.0
0.0 0.0 0.0

-2.4975747122724727e7 2.266173419108e6 0.0
2.266173419108e6 1.2191301855928145e7 0.0
0.0 0.0 0.0

616471.5212031668 1.0398178518168509e7 0.0
1.0398178518168509e7 -8.268670227390007e6 0.0
0.0 0.0 0.0

-1.8825091965254147e6 1.2361936358126348e7 0.0
1.2361936358126348e7 -3.493465392550865e6 0.0
0.0 0.0 0.0

1.4859230590592069e6 7.1848711332796505e6 0.0
7.1848711332796505e6 -3.9546752471510433e6 0.0
0.0 0.0 0.0

-4.078784647513962e6 1.2625619838930065e7 0.0
1.2625619838930065e7 489785.1734900889 0.0
0.0 0.0 0.0

-5.615427455578995e6 1.6085668115997238e7 0.0
1.6085668115997238e7 539156.0625839785 0.0
0.0 0.0 0.0

-7.909177184769312e6 1.3673914595435813e7 0.0
1.3673914595435813e7 5.2392902216315605e6 0.0
0.0 0.0 0.0

-4.8648908623057e6 9.513750899933167e6 0.0
9.513750899933167e6 2.068206669145698e6 0.0
0.0 0.0 0.0

-7.347214549583579e6 5.7990915526319705e6 0.0
5.7990915526319705e6 1.0612142171348836e7 0.0
0.0 0.0 0.0

-3.9991450007300773e6 1.2061647115347126e7 0.0
1.2061647115347126e7 4.439547958290986e6 0.0
0.0 0.0 0.0

-9.404844413551228e6 1.4416399329011632e7 0.0
1.4416399329011632e7 6.181339264527187e6 0.0
0.0 0.0 0.0

-308245.92338637053 7.301718204331633e6 0.0
7.301718204331633e6 -5.027312080814765e6 0.0
0.0 0.0 0.0

-8.840428777937856e6 1.4190543460233208e7 0.0
1.4190543460233208e7 5.855160101586763e6 0.0
0.0 0.0 0.0

-4.664099849087201e6 1.1406773326534819e7 0.0
1.1406773326534819e7 8.347293227350639e6 0.0
0.0 0.0 0.0

-6.58048265582972e6 5.006383073917913e6 0.0
5.006383073917913e6 8.434299008703487e6 0.0
0.0 0.0 0.0

3.2595151543140444e6 5.907584157708357e6 0.0
5.907584157708357e6 -9.930046419675041e6 0.0
0.0 0.0 0.0

-6.604619000849491e6 1.1892425965759251e7 0.0
1.1892425965759251e7 4.054501693060522e6 0.0
0.0 0.0 0.0

-5.236142540573443e6 1.2026629740600662e7 0.0
1.2026629740600662e7 1.0512728234432628e6 0.0
0.0 0.0 0.0

-4.919298444121563e6 1.2273140365552893e7 0.0
1.2273140365552893e7 760525.914552897 0.0
0.0 0.0 0.0

-2.7332679727391507e7 2.3876124897003993e7 0.0
2.3876124897003993e7 -4.2766650056732595e6 0.0
0.0 0.0 0.0

-447055.9210306436 1.1379117502538562e7 0.0
1.1379117502538562e7 -5.602686314654941e6 0.0
0.0 0.0 0.0

-6.125106279142099e6 1.2788776196820715e7 0.0
1.2788776196820715e7 3.228361360946302e6 0.0
0.0 0.0 0.0

-6.505211685224488e6 9.250627316893319e6 0.0
9.250627316893319e6 5.315751624337848e6 0.0
0.0 0.0 0.0

-1.811857601056614e7 5.661206660790931e6 0.0
5.661206660790931e6 1.0598115289885143e7 0.0
0.0 0.0 0.0

-190092.69538072046 1.1276184800949818e7 0.0
1.1276184800949818e7 -1.1100212771126854e6 0.0
0.0 0.0 0.0

-7.2377959871562505e6 1.0030047184944103e7 0.0
1.0030047184944103e7 1.1773338894863185e7 0.0
0.0 0.0 0.0

4.135169581167476e6 5.49594099243504e6 0.0
5.49594099243504e6 -1.126428886447219e7 0.0
0.0 0.0 0.0

-1.7151520222485974e7 1.1712941085802963e7 0.0
1.1712941085802963e7 1.1669640777577758e7 0.0
0.0 0.0 0.0

-7.44680345274992e6 -2.5150799154729526e6 0.0
-2.5150799154729526e6 1.072757431397631e7 0.0
0.0 0.0 0.0

-8.79439722041538e6 -5.5319515061888695e6 0.0
-5.5319515061888695e6 1.5442205588236103e7 0.0
0.0 0.0 0.0

238491.95316079492 2.172040733012387e6 0.0
2.172040733012387e6 -1.8699262686976567e6 0.0
0.0 0.0 0.0

-8.672616311029576e6 4.371996389382268e6 0.0
4.371996389382268e6 1.2216357238212755e7 0.0
0.0 0.0 0.0

-7.430054732502133e6 7.852762510784889e6 0.0
7.852762510784889e6 8.554078579644028e6 0.0
0.0 0.0 0.0

523619.4513369878 1.0398291482390478e7 0.0
1.0398291482390478e7 -8.070168044534875e6 0.0
0.0 0.0 0.0

-2.250287263436418e7 1.4998375001950005e7 0.0
1.4998375001950005e7 1.3654838555298232e7 0.0
0.0 0.0 0.0

-6.631924202912139e6 5.300760346279611e6 0.0
5.300760346279611e6 9.44211048879467e6 0.0
0.0 0.0 0.0

1.0763229322021212e6 1.009538810883322e7 0.0
1.009538810883322e7 -1.0734748914885571e7 0.0
0.0 0.0 0.0

-1.2695470016242467e7 5.423622650299343e6 0.0
5.423622650299343e6 8.636765923300207e6 0.0
0.0 0.0 0.0

-8.085957402741665e6 -5.807509791008453e6 0.0
-5.807509791008453e6 1.5034045384129342e7 0.0
0.0 0.0 0.0

-1.594251232840694e6 1.0439471250344543e7 0.0
1.0439471250344543e7 -4.533531428919896e6 0.0
0.0 0.0 0.0

-597475.3791179913 1.1014080677457873e7 0.0
1.1014080677457873e7 -1.0637654375927148e7 0.0
0.0 0.0 0.0

-1.562566125308979e6 1.2075234822690351e7 0.0
1.2075234822690351e7 -339061.95252037875 0.0
0.0 0.0 0.0

-1.0825725885100462e7 4.205539009784676e6 0.0
4.205539009784676e6 7.694624876918905e6 0.0
0.0 0.0 0.0

1.0301402258489802e7 1.3747631082871575e7 0.0
1.3747631082871575e7 1.8360580522909334e6 0.0
0.0 0.0 0.0

-544614.4303103173 6.805464982141512e6 0.0
6.805464982141512e6 -3.8803011107300427e6 0.0
0.0 0.0 0.0

-447718.40661521326 1.0145183965769732e7 0.0
1.0145183965769732e7 -5.330014495707133e6 0.0
0.0 0.0 0.0

475397.35904235486 9.371116077513818e6 0.0
9.371116077513818e6 -6.924293262218331e6 0.0
0.0 0.0 0.0

4.293260554289285e6 5.634527433117201e6 0.0
5.634527433117201e6 -1.129557244169798e7 0.0
0.0 0.0 0.0

-5.491139649273442e6 1.3002215412201336e7 0.0
1.3002215412201336e7 1.9058964317908846e6 0.0
0.0 0.0 0.0

388100.4366290057 1.0250636400344558e7 0.0
1.0250636400344558e7 -8.534769729648836e6 0.0
0.0 0.0 0.0

-4791.885350197321 1.2047729276942901e7 0.0
1.2047729276942901e7 -5.327153519304188e6 0.0
0.0 0.0 0.0

163204.3933450596 8.791314539675593e6 0.0
8.791314539675593e6 -2.2978719300499735e6 0.0
0.0 0.0 0.0

-1.8027444634711e6 5.736211021045331e6 0.0
5.736211021045331e6 -36677.55116277316 0.0
0.0 0.0 0.0

-5.77453820762777e6 9.648650085086377e6 0.0
9.648650085086377e6 3.4696963526633843e6 0.0
0.0 0.0 0.0

-4.265844874551921e6 1.1291362965897666e7 0.0
1.1291362965897666e7 6.441649177622635e6 0.0
0.0 0.0 0.0

2.7042668773747366e6 5.537983368638325e6 0.0
5.537983368638325e6 -8.208125879325364e6 0.0
0.0 0.0 0.0

-7.334744234792313e6 2.1588888013816527e6 0.0
2.1588888013816527e6 3.453213320597493e6 0.0
0.0 0.0 0.0

-3.785274610434804e6 1.0558783203441976e7 0.0
1.0558783203441976e7 6.95136111083764e6 0.0
0.0 0.0 0.0

545882.6558742234 1.0724027716980103e7 0.0
1.0724027716980103e7 -7.397182048647871e6 0.0
0.0 0.0 0.0

1.9864564629998084e7 7.525855649003186e6 0.0
7.525855649003186e6 -4.446621767810392e6 0.0
0.0 0.0 0.0

444316.20854412206 1.067168011834236e7 0.0
1.067168011834236e7 -7.16174034405982e6 0.0
0.0 0.0 0.0

-5.54349853016622e6 1.2644247107425958e7 0.0
1.2644247107425958e7 926672.1822664756 0.0
0.0 0.0 0.0

-4.461769378749659e6 1.0737985167735696e7 0.0
1.0737985167735696e7 1.0752068513655462e6 0.0
0.0 0.0 0.0

-6.136681096924361e6 1.3509869697378574e7 0.0
1.3509869697378574e7 1.763091987713036e7 0.0
0.0 0.0 0.0

-9.40436129221275e6 3.8702445280109225e6 0.0
3.8702445280109225e6 1.2835324206701469e7 0.0
0.0 0.0 0.0

-5.935869524027472e6 -3.796374363663554e6 0.0
-3.796374363663554e6 1.0228088447682828e7 0.0
0.0 0.0 0.0

-1.1320891323305698e7 -81667.55299184997 0.0
-81667.55299184997 1.453940653671058e7 0.0
0.0 0.0 0.0

-7.432411148437643e6 1.3260892039530965e7 0.0
1.3260892039530965e7 4.811805490495792e6 0.0
0.0 0.0 0.0

920129.6606098213 8.410242834691519e6 0.0
8.410242834691519e6 -7.023468577813044e6 0.0
0.0 0.0 0.0

-6.24541424740907e6 1.1213537889484724e7 0.0
1.1213537889484724e7 5.568081617510259e6 0.0
0.0 0.0 0.0

-806959.0047178704 1.1526445408623789e7 0.0
1.1526445408623789e7 -5.144808843896909e6 0.0
0.0 0.0 0.0

-5.443820011060235e6 8.171542153318692e6 0.0
8.171542153318692e6 3.6541568593286104e6 0.0
0.0 0.0 0.0

-5.861872480994115e6 1.2212136008786691e7 0.0
1.2212136008786691e7 4.959680330204176e6 0.0
0.0 0.0 0.0

-1.1025786837541573e6 1.4456851926892977e7 0.0
1.4456851926892977e7 -4.195432981923198e6 0.0
0.0 0.0 0.0

-5.086774717336085e6 1.1648385020025864e7 0.0
1.1648385020025864e7 5.36454295957393e6 0.0
0.0 0.0 0.0

-6.312607015576828e6 1.0895098730424559e7 0.0
1.0895098730424559e7 5.823020091900481e6 0.0
0.0 0.0 0.0

-130935.28671444394 9.655349969607038e6 0.0
9.655349969607038e6 -7.355765333359081e6 0.0
0.0 0.0 0.0

-7.036930545200862e6 5.192062105059093e6 0.0
5.192062105059093e6 8.146626468940757e6 0.0
0.0 0.0 0.0

-7.295304707952319e6 1.3197122145940445e7 0.0
1.3197122145940445e7 5.2460713304194175e6 0.0
0.0 0.0 0.0

1.9069244560280866e6 5.937282394218182e6 0.0
5.937282394218182e6 -7.675621889801202e6 0.0
0.0 0.0 0.0

-1.268508096872959e7 -4.2288994093045965e6 0.0
-4.2288994093045965e6 2.5884956044355713e7 0.0
0.0 0.0 0.0

-1.2380912178027048e6 1.178031872946776e7 0.0
1.178031872946776e7 -852508.6736035509 0.0
0.0 0.0 0.0

-7.747104082610078e6 1.3436001814051263e7 0.0
1.3436001814051263e7 5.277936411750926e6 0.0
0.0 0.0 0.0

1.2925085484974948e6 9.388340788686857e6 0.0
9.388340788686857e6 -8.168463154461075e6 0.0
0.0 0.0 0.0

-6.1724007279846845e6 1.3071265041752683e7 0.0
1.3071265041752683e7 1.740777580677873e6 0.0
0.0 0.0 0.0

1.023113224845368e6 7.765617028857551e6 0.0
7.765617028857551e6 -6.950186663143968e6 0.0
0.0 0.0 0.0

-6.477947155554115e6 4.458648967640496e6 0.0
4.458648967640496e6 9.075121477324627e6 0.0
0.0 0.0 0.0

-2.6917759118442908e7 1.7943820141947243e7 0.0
1.7943820141947243e7 8.661661179624233e6 0.0
0.0 0.0 0.0

-5.286320949305056e6 1.1033401161066607e7 0.0
1.1033401161066607e7 1.3820916303818717e6 0.0
0.0 0.0 0.0

-5.80211690946744e6 1.190273469069957e7 0.0
1.190273469069957e7 5.250465336396115e6 0.0
0.0 0.0 0.0

-393728.68455480656 1.8938778910172333e6 0.0
1.8938778910172333e6 -721936.1097624527 0.0
0.0 0.0 0.0

-6.1493438036572505e6 1.0889448242049951e7 0.0
1.0889448242049951e7 1.1479062348041404e6 0.0
0.0 0.0 0.0

-5.944743236001896e6 1.2266545375993123e7 0.0
1.2266545375993123e7 4.721230222999347e6 0.0
0.0 0.0 0.0

3.5168553926671282e6 5.817945667186994e6 0.0
5.817945667186994e6 -1.0120697420689698e7 0.0
0.0 0.0 0.0

-4.769416485756591e6 7.813766114760917e6 0.0
7.813766114760917e6 3.904001242065684e6 0.0
0.0 0.0 0.0

-5.054770548866639e6 6.796731363590568e6 0.0
6.796731363590568e6 4.95855594117178e6 0.0
0.0 0.0 0.0

-8.147811683960972e6 1.6489730530130785e7 0.0
1.6489730530130785e7 4.594972126018322e6 0.0
0.0 0.0 0.0

-2.1439587881522896e6 2.9887026561129573e6 0.0
2.9887026561129573e6 495853.91268672154 0.0
0.0 0.0 0.0

-7.620610116295214e6 5.540493034946661e6 0.0
5.540493034946661e6 9.05267635300351e6 0.0
0.0 0.0 0.0

-7.91658213950458e6 1.3857533037347965e7 0.0
1.3857533037347965e7 5.599061267337337e6 0.0
0.0 0.0 0.0

-9.577554239098618e6 -6.009830728758548e6 0.0
-6.009830728758548e6 1.810284107458843e7 0.0
0.0 0.0 0.0

-616706.1671324586 2.737905911701008e6 0.0
2.737905911701008e6 30688.71913687882 0.0
0.0 0.0 0.0

1.772719718592255e6 6.802070082817884e6 0.0
6.802070082817884e6 -7.455410684898641e6 0.0
0.0 0.0 0.0

-5.749554131345869e6 1.0003315701813398e7 0.0
1.0003315701813398e7 4.0418551183260563e6 0.0
0.0 0.0 0.0

-9.16527389842676e6 4.877679705255006e6 0.0
4.877679705255006e6 1.1034362208405554e7 0.0
0.0 0.0 0.0

-1.7438937396029e6 1.0972380649307314e7 0.0
1.0972380649307314e7 -4.423524427516493e6 0.0
0.0 0.0 0.0

-1.043021639158062e6 1.0603226688492551e7 0.0
1.0603226688492551e7 -4.579235633628132e6 0.0
0.0 0.0 0.0

1.0357445006286348e6 8.373018589023771e6 0.0
8.373018589023771e6 -7.403568177325849e6 0.0
0.0 0.0 0.0

310666.5814780048 1.058729369038273e7 0.0
1.058729369038273e7 -7.720753144172189e6 0.0
0.0 0.0 0.0

-1.2295863611187711e6 8.493856061509097e6 0.0
8.493856061509097e6 907550.0049551988 0.0
0.0 0.0 0.0

-8.844461741410187e6 5.868891236790917e6 0.0
5.868891236790917e6 1.0067356235528737e7 0.0
0.0 0.0 0.0

-5.772450725583925e6 1.2901591843265058e7 0.0
1.2901591843265058e7 1.041292675485055e6 0.0
0.0 0.0 0.0

-6.966833058062218e6 1.2428330788799688e7 0.0
1.2428330788799688e7 5.513691113664338e6 0.0
0.0 0.0 0.0

-7.321338541335471e6 1.3479176089175427e7 0.0
1.3479176089175427e7 5.185983469622751e6 0.0
0.0 0.0 0.0

1.1189356439654222e6 1.768760326493554e7 0.0
1.768760326493554e7 2.5958058588278e7 0.0
0.0 0.0 0.0

-5.260581278747452e6 1.0075357478937492e7 0.0
1.0075357478937492e7 3.861743454454729e6 0.0
0.0 0.0 0.0

-764112.01427185 1.0251514383584455e7 0.0
1.0251514383584455e7 -4.860260085417864e6 0.0
0.0 0.0 0.0

330598.17896222277 1.078698867350541e7 0.0
1.078698867350541e7 -7.705824965528656e6 0.0
0.0 0.0 0.0

-347644.52160610864 1.037297870438544e7 0.0
1.037297870438544e7 -5.555903846911181e6 0.0
0.0 0.0 0.0

-6.800266001001481e6 1.377331826228716e7 0.0
1.377331826228716e7 3.420718169886589e6 0.0
0.0 0.0 0.0

-5.294782700702819e6 9.395280976979846e6 0.0
9.395280976979846e6 3.0185693508591726e6 0.0
0.0 0.0 0.0

358711.3112041408 8.286914441450293e6 0.0
8.286914441450293e6 -1.6012234117999212e6 0.0
0.0 0.0 0.0

587278.1128624608 1.0852033704699384e7 0.0
1.0852033704699384e7 -7.131697167799626e6 0.0
0.0 0.0 0.0

-2.3159069170278744e6 5.841829333554908e6 0.0
5.841829333554908e6 -159602.47167334484 0.0
0.0 0.0 0.0

-1.090547538692391e7 1.9655061040608563e7 0.0
1.9655061040608563e7 1.9462571402577204e6 0.0
0.0 0.0 0.0

4.42900932103474e6 6.545106927176517e6 0.0
6.545106927176517e6 -1.2988752933664376e7 0.0
0.0 0.0 0.0

2.1217758117536083e7 1.1942184692342578e7 0.0
1.1942184692342578e7 -1.855644971151134e6 0.0
0.0 0.0 0.0

6.5651999903327795e6 1.786075448600414e7 0.0
1.786075448600414e7 -2.206896800372089e7 0.0
0.0 0.0 0.0

-2.2604644775555907e6 1.1227083900045436e7 0.0
1.1227083900045436e7 3.256934489805011e6 0.0
0.0 0.0 0.0

-1.5499487600988573e6 8.935866482526837e6 0.0
8.935866482526837e6 2.242365512600437e6 0.0
0.0 0.0 0.0

-9.727165239776721e6 1.0291276490376279e7 0.0
1.0291276490376279e7 3.131298558648915e6 0.0
0.0 0.0 0.0

-2.734049131211235e7 9.3368453142279e6 0.0
9.3368453142279e6 8.749792302846055e6 0.0
0.0 0.0 0.0

-2.883201671652977e6 6.187448257341548e6 0.0
6.187448257341548e6 1.3572577206082407e6 0.0
0.0 0.0 0.0

-5.293044204672882e6 1.2179243401494855e7 0.0
1.2179243401494855e7 2.032015263925049e6 0.0
0.0 0.0 0.0

-229151.18767345743 9.988728862496352e6 0.0
9.988728862496352e6 -5.734430153326819e6 0.0
0.0 0.0 0.0

3.770370855674576e6 7.632788227108154e6 0.0
7.632788227108154e6 -1.2250066415232543e7 0.0
0.0 0.0 0.0

-636409.3002443556 1.0131442472590847e7 0.0
1.0131442472590847e7 -5.957767953255299e6 0.0
0.0 0.0 0.0

1.1095178117638733e6 9.926054155244203e6 0.0
9.926054155244203e6 -1.0344008750339953e7 0.0
0.0 0.0 0.0

-5.2608733788420055e6 6.880079071598868e6 0.0
6.880079071598868e6 4.101048543110401e6 0.0
0.0 0.0 0.0

-3.431022876323428e6 1.1465315573995654e7 0.0
1.1465315573995654e7 5.094502958664585e6 0.0
0.0 0.0 0.0

-1.5334954268211331e6 7.749949703103095e6 0.0
7.749949703103095e6 347009.3262669726 0.0
0.0 0.0 0.0

-2.070555875618665e6 -14969.08860934298 0.0
-14969.08860934298 1.9848185387463276e6 0.0
0.0 0.0 0.0

-1.0710393620933168e7 -739295.0402314302 0.0
-739295.0402314302 1.3735398953838851e7 0.0
0.0 0.0 0.0

-6.277825605520684e6 1.1476740600465216e7 0.0
1.1476740600465216e7 4.846918011608478e6 0.0
0.0 0.0 0.0

-4.752314948672304e6 1.1353585542243168e7 0.0
1.1353585542243168e7 6.479802214906735e6 0.0
0.0 0.0 0.0

-5.110480625209762e6 8.540460465522004e6 0.0
8.540460465522004e6 4.256220921018168e6 0.0
0.0 0.0 0.0

219699.797374435 3.223668334323395e6 0.0
3.223668334323395e6 -3.4799203629417648e6 0.0
0.0 0.0 0.0

-1.4535209919925964e7 6.596465968391349e6 0.0
6.596465968391349e6 2.6744527071046934e7 0.0
0.0 0.0 0.0

-3.493971762208918e6 9.684339356228802e6 0.0
9.684339356228802e6 972031.1926991809 0.0
0.0 0.0 0.0

-5.377545348134945e6 1.2771574743046721e7 0.0
1.2771574743046721e7 357107.41160540725 0.0
0.0 0.0 0.0

-4.6695406257477645e6 1.1442730836955652e7 0.0
1.1442730836955652e7 6.663659542976551e6 0.0
0.0 0.0 0.0

-2.135007020347706e6 5.899895799434211e6 0.0
5.899895799434211e6 423633.60787314863 0.0
0.0 0.0 0.0

-1.4193284389860723e6 1.4342847612389117e7 0.0
1.4342847612389117e7 -3.0332713703849013e6 0.0
0.0 0.0 0.0

-1.2097346603599954e7 -1.5375829501203732e6 0.0
-1.5375829501203732e6 3.2137861379577443e7 0.0
0.0 0.0 0.0

575829.3891117454 1.3228964476492655e7 0.0
1.3228964476492655e7 -4.266788054696738e6 0.0
0.0 0.0 0.0

-7.652235068020271e6 1.3342521547894936e7 0.0
1.3342521547894936e7 5.589799114414826e6 0.0
0.0 0.0 0.0

-432012.23930411646 9.622302284612793e6 0.0
9.622302284612793e6 -7.829438612878658e6 0.0
0.0 0.0 0.0

-5.099171380874676e6 1.1425159200443696e7 0.0
1.1425159200443696e7 5.386396404543603e6 0.0
0.0 0.0 0.0

-9.77733873772467e6 3.838957377696883e6 0.0
3.838957377696883e6 1.151762015159717e7 0.0
0.0 0.0 0.0

-5.661302159624511e6 1.4598896964787282e7 0.0
1.4598896964787282e7 1.7244618675027383e6 0.0
0.0 0.0 0.0

2.525343865426168e6 6.982747061278419e6 0.0
6.982747061278419e6 -5.436868269805435e6 0.0
0.0 0.0 0.0

-1.1824738938772487e7 1.744744314685124e7 0.0
1.744744314685124e7 5.973803925889056e6 0.0
0.0 0.0 0.0

846704.0164938801 9.572309498549078e6 0.0
9.572309498549078e6 399729.71797700215 0.0
0.0 0.0 0.0

-4.507861628958304e6 1.154630608277641e7 0.0
1.154630608277641e7 788096.5145846971 0.0
0.0 0.0 0.0

3.054198101291228e6 6.537333546000717e6 0.0
6.537333546000717e6 -1.029062239533729e7 0.0
0.0 0.0 0.0

-1.7437410759052827e6 1.201131794862323e7 0.0
1.201131794862323e7 -176301.9471788893 0.0
0.0 0.0 0.0

-4.619675144792104e6 1.103337737040686e7 0.0
1.103337737040686e7 8.15332770055216e6 0.0
0.0 0.0 0.0

-6.457198752074436e6 1.2729400326381737e7 0.0
1.2729400326381737e7 4.264331334415262e6 0.0
0.0 0.0 0.0

-2.457675737647693e6 1.2294473685648732e7 0.0
1.2294473685648732e7 5.393262710280791e6 0.0
0.0 0.0 0.0

1.2729047331824047e6 2.6822910930446787e6 0.0
2.6822910930446787e6 -2.667886383629766e6 0.0
0.0 0.0 0.0

-6.464936964736472e6 1.0930310585637677e7 0.0
1.0930310585637677e7 9.631670102832431e6 0.0
0.0 0.0 0.0

-3.962523167613645e6 1.196059456245442e7 0.0
1.196059456245442e7 2.2209994742066003e6 0.0
0.0 0.0 0.0

-85420.62260687561 1.3802454262420464e7 0.0
1.3802454262420464e7 -4.076170929116117e6 0.0
0.0 0.0 0.0

-2.362886493249826e6 1.3196839216798525e7 0.0
1.3196839216798525e7 -3.499414701105858e6 0.0
0.0 0.0 0.0

-4.960745481599701e6 1.5953163942334374e7 0.0
1.5953163942334374e7 -6268.745597019559 0.0
0.0 0.0 0.0

-1.3108945351862304e6 7.11181962184863e6 0.0
7.11181962184863e6 -913672.6595598864 0.0
0.0 0.0 0.0

-5.9024111128874235e6 1.203191410360046e7 0.0
1.203191410360046e7 5.312422929462535e6 0.0
0.0 0.0 0.0

-7.845562922223901e6 1.5869394336604588e7 0.0
1.5869394336604588e7 2.1327790135868248e6 0.0
0.0 0.0 0.0

-435990.7866652636 1.102099856671218e7 0.0
1.102099856671218e7 -1.0098878217821872e7 0.0
0.0 0.0 0.0

-2.2602669559915755e6 5.096702673307868e6 0.0
5.096702673307868e6 -66945.20940764574 0.0
0.0 0.0 0.0

-1.8446925716155535e6 8.394448189999476e6 0.0
8.394448189999476e6 1.4145774816014273e6 0.0
0.0 0.0 0.0

-6.656921216714957e6 1.5393625556509467e7 0.0
1.5393625556509467e7 919293.457059701 0.0
0.0 0.0 0.0

654102.6295002392 1.0958968298823137e7 0.0
1.0958968298823137e7 -7.259886141985335e6 0.0
0.0 0.0 0.0

2.0278645741856783e6 5.616240804983079e6 0.0
5.616240804983079e6 -7.267722731849882e6 0.0
0.0 0.0 0.0

-1.1681555659516122e7 -7.355274455597426e6 0.0
-7.355274455597426e6 2.8013001618201412e7 0.0
0.0 0.0 0.0

1.4834458621317917e6 9.458208853087451e6 0.0
9.458208853087451e6 -8.671534637119077e6 0.0
0.0 0.0 0.0

-2.288690525921696e6 9.225339731888562e6 0.0
9.225339731888562e6 3.609179297511993e6 0.0
0.0 0.0 0.0

-4.8960999311843775e6 7.306227961447988e6 0.0
7.306227961447988e6 4.705812973070993e6 0.0
0.0 0.0 0.0

-737051.656441278 1.4056245331963548e7 0.0
1.4056245331963548e7 -4.473759290556122e6 0.0
0.0 0.0 0.0

1.0418107343100696e6 6.273493846815687e6 0.0
6.273493846815687e6 -6.132222403723664e6 0.0
0.0 0.0 0.0

2.023863964424957e6 1.087685007567951e7 0.0
1.087685007567951e7 -4.831359281981327e6 0.0
0.0 0.0 0.0

-2.724106717849387e6 1.0660487652476093e7 0.0
1.0660487652476093e7 6.3362300145985745e6 0.0
0.0 0.0 0.0

-8.419907947585495e6 2.021392196945487e7 0.0
2.021392196945487e7 -1.6996803295227785e6 0.0
0.0 0.0 0.0

-1.004258855591781e6 1.2894135198507309e7 0.0
1.2894135198507309e7 -4.0234106750090756e6 0.0
0.0 0.0 0.0

-7.217084790105021e6 1.1918370037320547e7 0.0
1.1918370037320547e7 1.3289211383673338e7 0.0
0.0 0.0 0.0

3.1838148818603875e6 5.658642990361507e6 0.0
5.658642990361507e6 -9.056618916457927e6 0.0
0.0 0.0 0.0

-7.582393902763058e6 1.4483509408757193e7 0.0
1.4483509408757193e7 3.686345730776128e6 0.0
0.0 0.0 0.0

2.5555891154859858e6 9.156829976217942e6 0.0
9.156829976217942e6 -1.7224788504342576e6 0.0
0.0 0.0 0.0

-2.8236694277420662e7 3.631551767168213e6 0.0
3.631551767168213e6 1.0395408919951363e7 0.0
0.0 0.0 0.0

-5.899929617834335e6 1.23723546675342e7 0.0
1.23723546675342e7 4.841963465439418e6 0.0
0.0 0.0 0.0

-1.7444251199122581e6 4.954630138981582e6 0.0
4.954630138981582e6 144717.0492997527 0.0
0.0 0.0 0.0

804252.6615816834 1.0451896089148892e7 0.0
1.0451896089148892e7 -8.176137113248445e6 0.0
0.0 0.0 0.0

-2.40422016755296e6 1.1361675897433303e7 0.0
1.1361675897433303e7 2.8231527744301925e6 0.0
0.0 0.0 0.0

626220.102418249 1.021999292003053e7 0.0
1.021999292003053e7 -9.668653684782663e6 0.0
0.0 0.0 0.0

4.086403224616005e6 5.764279038323613e6 0.0
5.764279038323613e6 -1.1104445253904106e7 0.0
0.0 0.0 0.0

1.2803649486852294e7 1.1250927890930248e7 0.0
1.1250927890930248e7 -933930.3011101987 0.0
0.0 0.0 0.0

-5.333923375349065e7 2.535400791238102e7 0.0
2.535400791238102e7 1.8927487101482674e6 0.0
0.0 0.0 0.0

-1.085187360932218e6 1.1606334033919673e7 0.0
1.1606334033919673e7 6.0441850609087525e6 0.0
0.0 0.0 0.0

-4.076993670484934e6 1.229293960683433e7 0.0
1.229293960683433e7 -1.6229832310243924e6 0.0
0.0 0.0 0.0

-4.902897312904934e6 1.1786199564415531e7 0.0
1.1786199564415531e7 4.650892208211898e6 0.0
0.0 0.0 0.0

1.8580067443624763e6 5.648664162024714e6 0.0
5.648664162024714e6 -7.035363418123993e6 0.0
0.0 0.0 0.0

-4.2418270088372575e6 1.2091074893489394e7 0.0
1.2091074893489394e7 2.9811408157695923e6 0.0
0.0 0.0 0.0

-7.683949318722749e6 1.4871854053118858e7 0.0
1.4871854053118858e7 4.135987278907986e6 0.0
0.0 0.0 0.0

359927.3419575305 1.0382072110553525e7 0.0
1.0382072110553525e7 -8.670283579822378e6 0.0
0.0 0.0 0.0

-4.640789371378809e6 1.1421364033126267e7 0.0
1.1421364033126267e7 277322.12544029555 0.0
0.0 0.0 0.0

1.804328476011087e6 6.775377878321712e6 0.0
6.775377878321712e6 -4.605896480587564e6 0.0
0.0 0.0 0.0

-2.674053457000154e6 1.0305738326125031e7 0.0
1.0305738326125031e7 7.15022915968406e6 0.0
0.0 0.0 0.0

-3.7430745255132113e6 1.1993771753571512e7 0.0
1.1993771753571512e7 553109.6278777318 0.0
0.0 0.0 0.0

-1.7106921971031814e6 1.0809244898174701e7 0.0
1.0809244898174701e7 -3.591463024200106e6 0.0
0.0 0.0 0.0

-5.055439653152969e6 1.1065920108568802e7 0.0
1.1065920108568802e7 2.0284332051598465e6 0.0
0.0 0.0 0.0

884775.5844197827 9.553622985640356e6 0.0
9.553622985640356e6 -8.423001131628087e6 0.0
0.0 0.0 0.0

-9.99899074381502e6 -6.298759150406534e6 0.0
-6.298759150406534e6 1.7236327671483025e7 0.0
0.0 0.0 0.0

-946612.751292938 1.0238822989598133e7 0.0
1.0238822989598133e7 -5.46784214835103e6 0.0
0.0 0.0 0.0

2.3946397256726697e6 9.79801060612937e6 0.0
9.79801060612937e6 -3.5615891035557054e6 0.0
0.0 0.0 0.0

-2.235783119935747e6 1.2175344830099063e7 0.0
1.2175344830099063e7 -1.1356548013669733e7 0.0
0.0 0.0 0.0

1.8982773783480986e6 6.518575366143012e6 0.0
6.518575366143012e6 -7.119186176916841e6 0.0
0.0 0.0 0.0

-314252.83631540556 1.109133631981858e7 0.0
1.109133631981858e7 -5.840486376693061e6 0.0
0.0 0.0 0.0

-5.840177244158449e6 1.219739707450727e7 0.0
1.219739707450727e7 5.069027236395258e6 0.0
0.0 0.0 0.0

-6.265353336565425e6 1.271439764690386e7 0.0
1.271439764690386e7 2.8210023325418187e6 0.0
0.0 0.0 0.0

-6.055005694993863e6 1.0635726201239992e7 0.0
1.0635726201239992e7 5.211341552218119e6 0.0
0.0 0.0 0.0

1.0079755502768717e6 9.084895654664965e6 0.0
9.084895654664965e6 1.0054890128441751e6 0.0
0.0 0.0 0.0

-3.47764992373122e7 7.971347669173812e6 0.0
7.971347669173812e6 9.489607161960077e6 0.0
0.0 0.0 0.0

2.9694363562885923e6 3.079502114625835e6 0.0
3.079502114625835e6 -4.996272144058276e6 0.0
0.0 0.0 0.0

259043.39224529522 8.0683650701850895e6 0.0
8.0683650701850895e6 -3.574689056837938e6 0.0
0.0 0.0 0.0

4.184240322857258e6 1.0278276899067894e7 0.0
1.0278276899067894e7 -3.959062517176388e6 0.0
0.0 0.0 0.0

-9.088879900697913e6 1.4635900606469363e7 0.0
1.4635900606469363e7 6.605927855154801e6 0.0
0.0 0.0 0.0

1.1325577893570852e6 1.0053571641367974e7 0.0
1.0053571641367974e7 -1.054752948015612e7 0.0
0.0 0.0 0.0

-1.5970333944326562e6 1.2013792756473176e7 0.0
1.2013792756473176e7 -831323.6194333087 0.0
0.0 0.0 0.0

-1.7805868061053818e6 1.3498626760525431e7 0.0
1.3498626760525431e7 -3.0840587085425467e6 0.0
0.0 0.0 0.0

-550663.0729309594 9.091013246400772e6 0.0
9.091013246400772e6 -4.521307923870792e6 0.0
0.0 0.0 0.0

-1.1765708751715675e6 1.3315676452519905e7 0.0
1.3315676452519905e7 -3.8442560962945833e6 0.0
0.0 0.0 0.0

-693239.1384368083 1.1315707291544966e7 0.0
1.1315707291544966e7 447082.1974701922 0.0
0.0 0.0 0.0

-5.93918613105795e6 1.2694466354079578e7 0.0
1.2694466354079578e7 2.743121171385357e6 0.0
0.0 0.0 0.0

1.4989772674243944e6 7.628754715789438e6 0.0
7.628754715789438e6 -7.027909335354449e6 0.0
0.0 0.0 0.0

3.5019973809880363e6 5.808149130880196e6 0.0
5.808149130880196e6 -1.0027950659420919e7 0.0
0.0 0.0 0.0

-2.0049184358999997e6 475278.2799980013 0.0
475278.2799980013 45577.02673809184 0.0
0.0 0.0 0.0

-3.7999056498237667e6 -638033.9907549764 0.0
-638033.9907549764 1.957816300571105e6 0.0
0.0 0.0 0.0

-3.5748474393934305e6 9.897944369112458e6 0.0
9.897944369112458e6 5.638181866271092e6 0.0
0.0 0.0 0.0

-622779.7223040024 1.093578403661799e7 0.0
1.093578403661799e7 744729.4286094904 0.0
0.0 0.0 0.0

-1.06458491218806e6 1.1280299262137303e7 0.0
1.1280299262137303e7 638537.4904041612 0.0
0.0 0.0 0.0

1.7280512838549388e6 5.85863982781454e6 0.0
5.85863982781454e6 -5.711733536396727e6 0.0
0.0 0.0 0.0

409133.26432790724 1.2584998840595182e7 0.0
1.2584998840595182e7 -4.905547442774748e6 0.0
0.0 0.0 0.0

1.9060752105767091e6 5.686299825402425e6 0.0
5.686299825402425e6 -4.0928306943556713e6 0.0
0.0 0.0 0.0

-1.338791629575476e6 1.3184922360499062e7 0.0
1.3184922360499062e7 -3.4893472755515547e6 0.0
0.0 0.0 0.0

-7.493717560501869e6 6.381833267159814e6 0.0
6.381833267159814e6 1.0816165758178998e7 0.0
0.0 0.0 0.0

-5.114462749418405e6 1.2826326550191903e7 0.0
1.2826326550191903e7 1.2149474137673676e6 0.0
0.0 0.0 0.0

-6.247116422313267e6 1.522400292030814e7 0.0
1.522400292030814e7 2.5249653169668145e6 0.0
0.0 0.0 0.0

1.5952055003867988e6 6.719108435991071e6 0.0
6.719108435991071e6 -7.426464492653832e6 0.0
0.0 0.0 0.0

1.6997883529727068e6 6.331976987155817e6 0.0
6.331976987155817e6 -7.55984327163082e6 0.0
0.0 0.0 0.0

4.709821586452378e6 1.1273668053849831e7 0.0
1.1273668053849831e7 -6.372300717648608e6 0.0
0.0 0.0 0.0

-3.390498183515172e6 1.1562369742363546e7 0.0
1.1562369742363546e7 5.127539616061081e6 0.0
0.0 0.0 0.0

-1.2912638006722408e6 1.0354638213193476e7 0.0
1.0354638213193476e7 -4.999086648802448e6 0.0
0.0 0.0 0.0

-5.092545166993739e6 -3.6043778294114545e6 0.0
-3.6043778294114545e6 7.620523114954133e6 0.0
0.0 0.0 0.0

-8.392571415407075e6 1.4100089072794875e7 0.0
1.4100089072794875e7 5.931607991557992e6 0.0
0.0 0.0 0.0

-6.791400318669703e6 5.680925737727421e6 0.0
5.680925737727421e6 8.574687759097863e6 0.0
0.0 0.0 0.0

-276443.73338522896 2.3171312878790833e6 0.0
2.3171312878790833e6 -1.0966105533246254e6 0.0
0.0 0.0 0.0

-1.9636255625322456e6 9.181102841368366e6 0.0
9.181102841368366e6 -2.5806127125313003e6 0.0
0.0 0.0 0.0

3.461680664222949e6 5.823873615663053e6 0.0
5.823873615663053e6 -9.81202963763359e6 0.0
0.0 0.0 0.0

-7.304643543208479e6 1.2537099272319896e7 0.0
1.2537099272319896e7 5.583948582497189e6 0.0
0.0 0.0 0.0

-4.1956520201446805e6 1.1407817765503954e7 0.0
1.1407817765503954e7 356336.092516165 0.0
0.0 0.0 0.0

1.120231166398611e6 9.374257137473566e6 0.0
9.374257137473566e6 -8.79290742551179e6 0.0
0.0 0.0 0.0

5.410950190338472e6 9.159192877485987e6 0.0
9.159192877485987e6 -2.590245179757639e6 0.0
0.0 0.0 0.0

-6.96950971739552e6 1.2473736486329945e7 0.0
1.2473736486329945e7 5.466862061307783e6 0.0
0.0 0.0 0.0

-7.51874183540204e6 -2.2002483519014223e6 0.0
-2.2002483519014223e6 9.260032293279205e6 0.0
0.0 0.0 0.0

-3.0866918077418217e6 -213739.17628445997 0.0
-213739.17628445997 3.2721321215318553e6 0.0
0.0 0.0 0.0

2.886972672366742e6 9.855969695558645e6 0.0
9.855969695558645e6 -3.6286756714368593e6 0.0
0.0 0.0 0.0

-3.439751860412161e6 1.2139023089905007e7 0.0
1.2139023089905007e7 -1.3734340438796256e6 0.0
0.0 0.0 0.0

-3.510771697686082e6 1.2522557158048017e7 0.0
1.2522557158048017e7 -1.2590320611320077e6 0.0
0.0 0.0 0.0

-1.11985378232776e7 191995.9228026402 0.0
191995.9228026402 2.3674101248648517e7 0.0
0.0 0.0 0.0

3.4589496776262745e6 5.928376453147497e6 0.0
5.928376453147497e6 -6.148152559072085e6 0.0
0.0 0.0 0.0

-2.661543134420758e6 1.2148386623067848e7 0.0
1.2148386623067848e7 295981.4304866203 0.0
0.0 0.0 0.0

-5.423436183461546e6 1.1839506958567122e7 0.0
1.1839506958567122e7 756981.0880495338 0.0
0.0 0.0 0.0

-1.7344272926382694e7 8.666016661002928e6 0.0
8.666016661002928e6 8.141195251784535e6 0.0
0.0 0.0 0.0

-8.248681618589995e6 1.4693349997070305e7 0.0
1.4693349997070305e7 5.330346637039771e6 0.0
0.0 0.0 0.0

-364533.48526756355 1.0922578131108973e7 0.0
1.0922578131108973e7 -1.2302462325815777e6 0.0
0.0 0.0 0.0

-6.558662879590777e6 -2.970157715038454e6 0.0
-2.970157715038454e6 8.512256216585802e6 0.0
0.0 0.0 0.0

4.225213887952443e6 1.0967538107658606e7 0.0
1.0967538107658606e7 -5.751422321646784e6 0.0
0.0 0.0 0.0

-2.2750648843551744e6 9.985605489099445e6 0.0
9.985605489099445e6 -2.4853944311465346e6 0.0
0.0 0.0 0.0

-4.444364057318734e6 954763.3292299451 0.0
954763.3292299451 5.396927161470084e6 0.0
0.0 0.0 0.0

-6.424038168694969e6 1.0810325394816445e7 0.0
1.0810325394816445e7 4.925572869296135e6 0.0
0.0 0.0 0.0

-6.4492659149534125e6 1.140253123740486e7 0.0
1.140253123740486e7 5.06805660994939e6 0.0
0.0 0.0 0.0

863389.3437534051 2.339994699617919e6 0.0
2.339994699617919e6 -3.484835974175387e6 0.0
0.0 0.0 0.0

1.9460562843910758e6 6.111387077477459e6 0.0
6.111387077477459e6 -7.863225825949201e6 0.0
0.0 0.0 0.0

3.148999329731413e6 8.051514517317011e6 0.0
8.051514517317011e6 -1.282999128338404e7 0.0
0.0 0.0 0.0

-2.921047053698712e6 9.851776649220545e6 0.0
9.851776649220545e6 5.985875179832801e6 0.0
0.0 0.0 0.0

3.346712331556298e6 6.090240674279646e6 0.0
6.090240674279646e6 -5.837203339852405e6 0.0
0.0 0.0 0.0

840932.4248477216 1.6427902066532163e7 0.0
1.6427902066532163e7 -7.506013307884837e6 0.0
0.0 0.0 0.0

2.3235474427555227e6 5.912777775881572e6 0.0
5.912777775881572e6 -7.531659401123729e6 0.0
0.0 0.0 0.0

938299.1997634629 5.765093965835904e6 0.0
5.765093965835904e6 -5.056947287371352e6 0.0
0.0 0.0 0.0

1.42495303735084e6 6.09009161634805e6 0.0
6.09009161634805e6 -6.513397217610816e6 0.0
0.0 0.0 0.0

-276939.06612270966 1.126372610645675e7 0.0
1.126372610645675e7 -772815.7213870339 0.0
0.0 0.0 0.0

-467704.0506847373 1.0987530191885617e7 0.0
1.0987530191885617e7 238833.31156126753 0.0
0.0 0.0 0.0

1.0301059201452769e6 1.015110282129309e7 0.0
1.015110282129309e7 -8.396545251724733e6 0.0
0.0 0.0 0.0

-2.549912860144786e6 1.7655044476275727e7 0.0
1.7655044476275727e7 -6.088633047330644e6 0.0
0.0 0.0 0.0

-5.238319482324213e6 425223.16689950135 0.0
425223.16689950135 5.683702342295421e6 0.0
0.0 0.0 0.0

-6.340807103492372e6 1.1472003121808585e7 0.0
1.1472003121808585e7 5.654120027958808e6 0.0
0.0 0.0 0.0

-8.3155479200905e6 1.390172547123576e7 0.0
1.390172547123576e7 5.550584229018528e6 0.0
0.0 0.0 0.0

-5.334790527181615e6 1.2716405512929715e7 0.0
1.2716405512929715e7 1.5735021078727755e6 0.0
0.0 0.0 0.0

-389098.1949534583 2.686130144374185e6 0.0
2.686130144374185e6 -459029.5390852595 0.0
0.0 0.0 0.0

-895251.802685472 2.858656145792894e6 0.0
2.858656145792894e6 -909595.136949673 0.0
0.0 0.0 0.0

-2.2680836547179846e6 1.1686302054219712e7 0.0
1.1686302054219712e7 4.443874206141985e6 0.0
0.0 0.0 0.0

2.7185416420937534e6 2.090280114704066e6 0.0
2.090280114704066e6 -4.585016801052976e6 0.0
0.0 0.0 0.0

-1.6526343903648315e6 1.4220771616775133e7 0.0
1.4220771616775133e7 -3.8529494499387178e6 0.0
0.0 0.0 0.0

-3.2088553080739807e6 1.2033058744115243e7 0.0
1.2033058744115243e7 -2.4878831360936323e6 0.0
0.0 0.0 0.0

141568.95848974772 1.1115400006574897e7 0.0
1.1115400006574897e7 -6.503620349430907e6 0.0
0.0 0.0 0.0

-4.008766308739744e6 1.0654027821035838e7 0.0
1.0654027821035838e7 1.14661548936565e6 0.0
0.0 0.0 0.0

-6.428301254272255e6 1.0393206768473303e7 0.0
1.0393206768473303e7 4.742118358005373e6 0.0
0.0 0.0 0.0

-5.496100652690869e6 7.112716972035318e6 0.0
7.112716972035318e6 6.1965407192545645e6 0.0
0.0 0.0 0.0

-1.7333127283214763e7 1.3120963395966446e7 0.0
1.3120963395966446e7 1.1997709844065312e7 0.0
0.0 0.0 0.0

2.9444761989254174e6 6.247605523438838e6 0.0
6.247605523438838e6 -5.617747864254496e6 0.0
0.0 0.0 0.0

-1.127849928462108e6 1.0331471415840767e7 0.0
1.0331471415840767e7 -4.417373401853782e6 0.0
0.0 0.0 0.0

4.602167792546635e6 6.628416052486708e6 0.0
6.628416052486708e6 -1.2963530963872246e7 0.0
0.0 0.0 0.0

-2.8220157555134078e6 1.3495951698735896e7 0.0
1.3495951698735896e7 -3.0335153709836127e6 0.0
0.0 0.0 0.0

-2.7755497221060814e6 5.852120122899308e6 0.0
5.852120122899308e6 585275.8748930658 0.0
0.0 0.0 0.0

-1.2912772497798468e6 1.0362756544480788e7 0.0
1.0362756544480788e7 -8.341852476529985e6 0.0
0.0 0.0 0.0

5.219840828611518e6 1.2432153255731076e7 0.0
1.2432153255731076e7 2.9349429565947396e6 0.0
0.0 0.0 0.0

-1.0217172978942561e6 3.517780786728664e6 0.0
3.517780786728664e6 -56436.17274518125 0.0
0.0 0.0 0.0

-3.232415064332119e6 1.1253604558951825e7 0.0
1.1253604558951825e7 7.248975619038963e6 0.0
0.0 0.0 0.0

-2.700728403450031e6 1.0926224156647895e7 0.0
1.0926224156647895e7 7.886979448270956e6 0.0
0.0 0.0 0.0

-2.636390054120445e6 7.344971189310803e6 0.0
7.344971189310803e6 -2.63239229672463e6 0.0
0.0 0.0 0.0

-8.66571663193493e6 1.6768235474348925e7 0.0
1.6768235474348925e7 2.699078254407117e6 0.0
0.0 0.0 0.0

-4.440652931323995e6 1.1607418958005324e7 0.0
1.1607418958005324e7 -531136.8883120128 0.0
0.0 0.0 0.0

-5.602875698015843e6 8.529469211243851e6 0.0
8.529469211243851e6 5.162614960416714e6 0.0
0.0 0.0 0.0

3.853378530183156e6 8.799482778882878e6 0.0
8.799482778882878e6 -1.6065442710113991e7 0.0
0.0 0.0 0.0

-1.2116952586709654e6 3.0336576847432465e6 0.0
3.0336576847432465e6 -696155.2150552254 0.0
0.0 0.0 0.0

-960326.2917101486 1.1306913823388476e7 0.0
1.1306913823388476e7 -1.6615347766708957e6 0.0
0.0 0.0 0.0

1.2231437839976943e6 9.455435389596699e6 0.0
9.455435389596699e6 2.5923717797072795e6 0.0
0.0 0.0 0.0

-6.506719228074868e6 5.355118404079533e6 0.0
5.355118404079533e6 6.83536386590762e6 0.0
0.0 0.0 0.0

-5.214865182001723e6 1.172900541068811e7 0.0
1.172900541068811e7 5.224991736561116e6 0.0
0.0 0.0 0.0

-6.282807144012267e6 1.1652410712923422e7 0.0
1.1652410712923422e7 4.6322780766349435e6 0.0
0.0 0.0 0.0

-1.8545556300009012e7 1.3075294248873342e7 0.0
1.3075294248873342e7 1.2076054155542986e7 0.0
0.0 0.0 0.0

913407.3439542197 6.980725265985436e6 0.0
6.980725265985436e6 -4.258713702341933e6 0.0
0.0 0.0 0.0

-6.431490805242268e6 1.1426395125057682e7 0.0
1.1426395125057682e7 4.313274739182166e6 0.0
0.0 0.0 0.0

-3.874874182318578e6 1.1180839204636179e7 0.0
1.1180839204636179e7 -752216.4923808977 0.0
0.0 0.0 0.0

-1.0083586758200414e6 1.0801387406265156e7 0.0
1.0801387406265156e7 7.000658836001703e6 0.0
0.0 0.0 0.0

-5.294542965665399e6 1.2387766425717818e7 0.0
1.2387766425717818e7 610112.3949780108 0.0
0.0 0.0 0.0

2.4795979075584067e6 5.479278681365585e6 0.0
5.479278681365585e6 -5.527630163517317e6 0.0
0.0 0.0 0.0

-2.261849360770381e6 1.0910909314448116e7 0.0
1.0910909314448116e7 -3.723261881030781e6 0.0
0.0 0.0 0.0

-1.7965612415248412e6 2.9373201167506133e6 0.0
2.9373201167506133e6 1.7592579239166053e6 0.0
0.0 0.0 0.0

2.136810658384208e6 6.305782576061765e6 0.0
6.305782576061765e6 -7.393294226561517e6 0.0
0.0 0.0 0.0

4.7771652261483995e6 7.090452912897101e6 0.0
7.090452912897101e6 -1.3638107326946735e7 0.0
0.0 0.0 0.0

-2.756861732603027e6 1.015967995472365e7 0.0
1.015967995472365e7 4.574201844260024e6 0.0
0.0 0.0 0.0

-340159.141081674 1.1409976938532026e7 0.0
1.1409976938532026e7 -5.926754841809152e6 0.0
0.0 0.0 0.0

-5.902298272644164e6 8.382473753016805e6 0.0
8.382473753016805e6 4.282552938616023e6 0.0
0.0 0.0 0.0

1.4686595126554212e6 4.699611723827277e6 0.0
4.699611723827277e6 -6.154448300264367e6 0.0
0.0 0.0 0.0

100074.17812715587 9.898879364416659e6 0.0
9.898879364416659e6 -6.0842183668134315e6 0.0
0.0 0.0 0.0

-51968.72163163917 1.0955458869696505e7 0.0
1.0955458869696505e7 -7.033580050634138e6 0.0
0.0 0.0 0.0

-6.28646530627471e6 8.975844395851726e6 0.0
8.975844395851726e6 4.72713297274754e6 0.0
0.0 0.0 0.0

-4.917300215312267e6 2.409297454799298e6 0.0
2.409297454799298e6 3.834169494433718e6 0.0
0.0 0.0 0.0

-1.5203136761212964e6 1.6637086393511638e6 0.0
1.6637086393511638e6 1.5154652473477544e6 0.0
0.0 0.0 0.0

-626533.4435308592 1.128294530986592e7 0.0
1.128294530986592e7 -6.100398973832783e6 0.0
0.0 0.0 0.0

-2.1691626681904844e6 5.451543985460777e6 0.0
5.451543985460777e6 620965.3318921151 0.0
0.0 0.0 0.0

-1.5861495944528668e6 1.063692773231428e7 0.0
1.063692773231428e7 8.098183613212579e6 0.0
0.0 0.0 0.0

-3.678978810108223e6 1.2167077239536908e7 0.0
1.2167077239536908e7 -2.1659162085375367e6 0.0
0.0 0.0 0.0

2.2430783913358105e6 5.752103803610699e6 0.0
5.752103803610699e6 -4.481599311550118e6 0.0
0.0 0.0 0.0

-9.891055744917981e6 201376.4749207031 0.0
201376.4749207031 1.4810365271913245e7 0.0
0.0 0.0 0.0

-6.68780857785387e6 1.2786308572456855e7 0.0
1.2786308572456855e7 4.1932610172309373e6 0.0
0.0 0.0 0.0

-8.40339457305998e6 1.2159173213549307e7 0.0
1.2159173213549307e7 6.723466326624095e6 0.0
0.0 0.0 0.0

-1.72812037816758e6 3.697883636507203e6 0.0
3.697883636507203e6 -228920.44293624023 0.0
0.0 0.0 0.0

-5.989049575890907e6 439258.5239699081 0.0
439258.5239699081 7.318191221650451e6 0.0
0.0 0.0 0.0

1.0897546253950396e6 9.608133490958164e6 0.0
9.608133490958164e6 -8.895459170041643e6 0.0
0.0 0.0 0.0

-6.184859590992476e6 9.484689420911025e6 0.0
9.484689420911025e6 5.792752415358059e6 0.0
0.0 0.0 0.0

-1.0565055726863297e7 798824.6972221425 0.0
798824.6972221425 1.5617612774501408e7 0.0
0.0 0.0 0.0

-2.8001371667509224e7 5.380187999105807e6 0.0
5.380187999105807e6 1.3100235261573026e7 0.0
0.0 0.0 0.0

-121803.04903001338 8.261201873888591e6 0.0
8.261201873888591e6 -5.45725773212128e6 0.0
0.0 0.0 0.0

-271711.26619816816 1.1050945280750938e7 0.0
1.1050945280750938e7 -1.284573920954355e6 0.0
0.0 0.0 0.0

3.378134058053353e6 5.661100118116309e6 0.0
5.661100118116309e6 -9.459809016816633e6 0.0
0.0 0.0 0.0

-7.1692260452636825e6 9.738195828093495e6 0.0
9.738195828093495e6 1.085726354603627e7 0.0
0.0 0.0 0.0

-1.1061001447204886e7 727058.0846375731 0.0
727058.0846375731 1.395717349766389e7 0.0
0.0 0.0 0.0

1.4111079315277764e6 7.255997411501897e6 0.0
7.255997411501897e6 -4.633655308506487e6 0.0
0.0 0.0 0.0

-3.7275704109173906e6 1.1267318617257211e7 0.0
1.1267318617257211e7 -663468.0927515933 0.0
0.0 0.0 0.0

-5.422992097751667e6 1.1537619350962842e7 0.0
1.1537619350962842e7 2.3708534041113807e6 0.0
0.0 0.0 0.0

-5.505487023512369e6 9.782040338015493e6 0.0
9.782040338015493e6 4.235111318663921e6 0.0
0.0 0.0 0.0

-7.533922644963574e6 1.2516742019738998e7 0.0
1.2516742019738998e7 6.023845306069612e6 0.0
0.0 0.0 0.0

-3.684485915188883e6 9.718055454672744e6 0.0
9.718055454672744e6 324242.3374912555 0.0
0.0 0.0 0.0

-7.989140728452081e6 -5.616031575655506e6 0.0
-5.616031575655506e6 1.4151152498307787e7 0.0
0.0 0.0 0.0

-1.3326493228658212e6 1.1450265175882643e7 0.0
1.1450265175882643e7 3.264880318787245e6 0.0
0.0 0.0 0.0

-672804.3406592599 1.0484428648739208e7 0.0
1.0484428648739208e7 -5.084926624184854e6 0.0
0.0 0.0 0.0

-1.0562948254706863e7 8.731061511609176e6 0.0
8.731061511609176e6 7.738210042399443e6 0.0
0.0 0.0 0.0

175101.2192225369 2.0600477295399143e6 0.0
2.0600477295399143e6 -2.3605253780044457e6 0.0
0.0 0.0 0.0

-7.792379243948808e6 1.3653993398569556e7 0.0
1.3653993398569556e7 5.627406255973944e6 0.0
0.0 0.0 0.0

-304057.8583287721 1.097966760339826e7 0.0
1.097966760339826e7 -1.50401165930701e6 0.0
0.0 0.0 0.0

-7.93224248251294e6 7.254654073369926e6 0.0
7.254654073369926e6 9.04234945121789e6 0.0
0.0 0.0 0.0

1.1587496745654116e6 8.362082815592464e6 0.0
8.362082815592464e6 -6.986072656936303e6 0.0
0.0 0.0 0.0

-6.231307730813436e6 7.463267255793038e6 0.0
7.463267255793038e6 7.916603155106753e6 0.0
0.0 0.0 0.0

2.8028585831878902e6 5.681419006025557e6 0.0
5.681419006025557e6 -5.190541698173994e6 0.0
0.0 0.0 0.0

1.9933016824509073e6 6.718321977181337e6 0.0
6.718321977181337e6 -7.395793458447531e6 0.0
0.0 0.0 0.0

-1.5885718244778563e6 1.2063531874833897e7 0.0
1.2063531874833897e7 -286139.17530376604 0.0
0.0 0.0 0.0

-4.0941451682805535e6 1.022882196758789e7 0.0
1.022882196758789e7 1.4167439703151665e6 0.0
0.0 0.0 0.0

-5.274483490425382e6 1.1550282376853865e7 0.0
1.1550282376853865e7 2.8645886325911433e6 0.0
0.0 0.0 0.0

-1.9378836519733395e6 1.3314645497300323e7 0.0
1.3314645497300323e7 -3.7037795479312674e6 0.0
0.0 0.0 0.0

1.7643543689317917e6 6.094554493546722e6 0.0
6.094554493546722e6 -6.541377671210071e6 0.0
0.0 0.0 0.0

1.5674811582909895e6 6.284186669997465e6 0.0
6.284186669997465e6 -3.56812802068173e6 0.0
0.0 0.0 0.0

1.7004180370099205e6 6.52553946401674e6 0.0
6.52553946401674e6 -7.77827402003723e6 0.0
0.0 0.0 0.0

1.4409079794861737e6 7.191398351825492e6 0.0
7.191398351825492e6 -4.8380075341830095e6 0.0
0.0 0.0 0.0

1.3242816121893402e6 1.1341241016832141e7 0.0
1.1341241016832141e7 6.354290103923792e6 0.0
0.0 0.0 0.0

-1.0310773156912336e7 1.4594990452595191e7 0.0
1.4594990452595191e7 7.622726705480652e6 0.0
0.0 0.0 0.0

-5.5581670655816365e6 -1.4439436560085795e6 0.0
-1.4439436560085795e6 8.21970749005408e6 0.0
0.0 0.0 0.0

3.5043622133978065e6 7.82451119508235e6 0.0
7.82451119508235e6 -1.1782162360109035e7 0.0
0.0 0.0 0.0

-2.1590466496869526e6 1.3327802651436646e7 0.0
1.3327802651436646e7 -2.772151050097197e6 0.0
0.0 0.0 0.0

-1.3145417361242909e6 1.1729198880503664e7 0.0
1.1729198880503664e7 -953050.520398568 0.0
0.0 0.0 0.0

2.433399000926357e6 7.202834021695011e6 0.0
7.202834021695011e6 -9.765970288949963e6 0.0
0.0 0.0 0.0

-1.1405303806389567e7 1.3311414434709132e7 0.0
1.3311414434709132e7 8.749713150642566e6 0.0
0.0 0.0 0.0

-3.8917994743926376e6 1.0921811828810222e7 0.0
1.0921811828810222e7 7.886141751151111e6 0.0
0.0 0.0 0.0

-2.3137117268473838e7 1.0342217611964162e7 0.0
1.0342217611964162e7 1.2209026061238186e7 0.0
0.0 0.0 0.0

-3.453981798312212e6 1.0817426541928684e7 0.0
1.0817426541928684e7 4.856558664866589e6 0.0
0.0 0.0 0.0

1.1712129961173385e6 7.967874137072856e6 0.0
7.967874137072856e6 -6.998313982702946e6 0.0
0.0 0.0 0.0

1.9960979348813534e7 1.27660518432034e7 0.0
1.27660518432034e7 66950.6284138225 0.0
0.0 0.0 0.0

-6.128193172650365e6 1.0167196237981927e7 0.0
1.0167196237981927e7 1.0743655887764823e7 0.0
0.0 0.0 0.0

-2.4993630509590833e6 3.2387831825197972e6 0.0
3.2387831825197972e6 2.557709526368163e6 0.0
0.0 0.0 0.0

-512538.11352280586 1.1080140582691705e7 0.0
1.1080140582691705e7 306552.68524485966 0.0
0.0 0.0 0.0

548633.8144864594 1.0297324995671274e7 0.0
1.0297324995671274e7 -8.538789443109453e6 0.0
0.0 0.0 0.0

931219.2488034868 1.3477430888269562e7 0.0
1.3477430888269562e7 -4.722073413336657e6 0.0
0.0 0.0 0.0

-5.2464625701744035e6 9.764270826716134e6 0.0
9.764270826716134e6 3.34584464903171e6 0.0
0.0 0.0 0.0

-1.0483259925153455e7 -263064.1227463215 0.0
-263064.1227463215 1.3083287669295803e7 0.0
0.0 0.0 0.0

-1.1881398429896241e7 1.3681715531153454e7 0.0
1.3681715531153454e7 8.33777708503076e6 0.0
0.0 0.0 0.0

-3.9488447066820674e6 1.205271583121506e7 0.0
1.205271583121506e7 2.0644006505600896e6 0.0
0.0 0.0 0.0

-5.3903786803488135e6 1.131704951595104e7 0.0
1.131704951595104e7 2.4621827583250673e6 0.0
0.0 0.0 0.0

-5.900752314744741e6 1.4293765898858914e7 0.0
1.4293765898858914e7 1.870449544563375e6 0.0
0.0 0.0 0.0

-6.583188627210073e6 1.251466012683927e7 0.0
1.251466012683927e7 3.8571263722740384e6 0.0
0.0 0.0 0.0

-413852.29622612643 1.1288796922003137e7 0.0
1.1288796922003137e7 -1.1742754148954407e6 0.0
0.0 0.0 0.0

-2.3232933400426735e6 1.1292522326486435e7 0.0
1.1292522326486435e7 3.3134168670148337e6 0.0
0.0 0.0 0.0

1.826949207534322e6 9.79971843045162e6 0.0
9.79971843045162e6 -3.5619513150383956e6 0.0
0.0 0.0 0.0

-783636.3774677138 1.0870565694067448e7 0.0
1.0870565694067448e7 -9.763581399211159e6 0.0
0.0 0.0 0.0

-517110.64134722285 1.140103149472639e7 0.0
1.140103149472639e7 -675299.4137282299 0.0
0.0 0.0 0.0

-4.2373166093765395e6 1.0230964653236859e7 0.0
1.0230964653236859e7 866280.4211745844 0.0
0.0 0.0 0.0

-5.050596692347453e6 5.954209630705161e6 0.0
5.954209630705161e6 1.162311208783336e7 0.0
0.0 0.0 0.0

-2.09614985140272e6 1.1633909036419764e7 0.0
1.1633909036419764e7 -3.2428294610924716e6 0.0
0.0 0.0 0.0

-61566.125772528816 9.829970969747508e6 0.0
9.829970969747508e6 -6.568397183997343e6 0.0
0.0 0.0 0.0

1.91087662573438e6 5.885115062906597e6 0.0
5.885115062906597e6 -6.811768149519378e6 0.0
0.0 0.0 0.0

-6.284005155593724e6 1.0373529702217989e7 0.0
1.0373529702217989e7 9.996657941464802e6 0.0
0.0 0.0 0.0

-2.0055693597273878e6 1.1709463302644884e7 0.0
1.1709463302644884e7 2.191566554031493e6 0.0
0.0 0.0 0.0

-6.978847366730416e6 7.1836946918075e6 0.0
7.1836946918075e6 8.76454801950164e6 0.0
0.0 0.0 0.0

-5.0558832098671105e6 9.563257721294051e6 0.0
9.563257721294051e6 3.670907781216453e6 0.0
0.0 0.0 0.0

-2.300958800343459e6 1.2223206188510483e7 0.0
1.2223206188510483e7 -414068.8040882247 0.0
0.0 0.0 0.0

-6.991136381449172e6 7.720775445339873e6 0.0
7.720775445339873e6 7.5603129872669615e6 0.0
0.0 0.0 0.0

-7.926443034773422e6 6.549745086195123e6 0.0
6.549745086195123e6 9.3521579720012e6 0.0
0.0 0.0 0.0

-5.910368877645146e6 6.875413324546934e6 0.0
6.875413324546934e6 5.081020634497755e6 0.0
0.0 0.0 0.0

-1.2867405228105127e6 1.0770475649203875e6 0.0
1.0770475649203875e6 651965.366301324 0.0
0.0 0.0 0.0

-6.110918637266099e6 1.0866032303544722e7 0.0
1.0866032303544722e7 5.114396344519837e6 0.0
0.0 0.0 0.0

659352.6680923793 1.026061428086504e7 0.0
1.026061428086504e7 -1.0044276301085655e7 0.0
0.0 0.0 0.0

707414.3718881505 1.0201044224179886e7 0.0
1.0201044224179886e7 -8.487147710629646e6 0.0
0.0 0.0 0.0

-1.6585463207542202e7 1.0715682786920685e7 0.0
1.0715682786920685e7 6.822130695408112e6 0.0
0.0 0.0 0.0

-9.740404004534548e6 -1.5896665511052e6 0.0
-1.5896665511052e6 1.6936165956719447e7 0.0
0.0 0.0 0.0

893673.0229509245 1.0322383464565674e7 0.0
1.0322383464565674e7 -7.929570370751971e6 0.0
0.0 0.0 0.0

-6.797547161483979e6 1.3112917579344723e7 0.0
1.3112917579344723e7 3.4953226971557913e6 0.0
0.0 0.0 0.0

-723981.4937402081 1.1092711305837387e7 0.0
1.1092711305837387e7 1.8891677273448214e6 0.0
0.0 0.0 0.0

93330.06158496058 2.155724906484678e6 0.0
2.155724906484678e6 -546141.5682080131 0.0
0.0 0.0 0.0

-438540.9856092354 1.1063379381291397e7 0.0
1.1063379381291397e7 -1.5579905894076978e6 0.0
0.0 0.0 0.0

-3.2660542271331954e6 1.0330452785305545e7 0.0
1.0330452785305545e7 -1.632799006865716e6 0.0
0.0 0.0 0.0

-2.601506625345993e6 4.828867709522547e6 0.0
4.828867709522547e6 761105.6642736979 0.0
0.0 0.0 0.0

4.1012737387192366e6 5.539311499630728e6 0.0
5.539311499630728e6 -1.1441802739136703e7 0.0
0.0 0.0 0.0

-83623.91202945495 7.350747049193324e6 0.0
7.350747049193324e6 -4.212764338640117e6 0.0
0.0 0.0 0.0

-7.406161643827773e6 562043.9717546813 0.0
562043.9717546813 8.033549427580183e6 0.0
0.0 0.0 0.0

-2.0498234288746854e6 1.228030000367104e7 0.0
1.228030000367104e7 -4.168794692291623e6 0.0
0.0 0.0 0.0

-869305.1643998798 1.214364350633394e7 0.0
1.214364350633394e7 3.7914943183455784e6 0.0
0.0 0.0 0.0

206747.4831942129 7.2311523588508e6 0.0
7.2311523588508e6 -3.652762228804345e6 0.0
0.0 0.0 0.0

-4.099187822077975e6 1.0275030866958272e7 0.0
1.0275030866958272e7 7.796439120109207e6 0.0
0.0 0.0 0.0

-1.1033292978792608e7 1.458960528416355e7 0.0
1.458960528416355e7 7.97264032433589e6 0.0
0.0 0.0 0.0

-2.8738716014645863e6 3.256187737184464e6 0.0
3.256187737184464e6 1.2551287453306078e6 0.0
0.0 0.0 0.0

-2.268234158464252e6 1.1265999318111587e7 0.0
1.1265999318111587e7 3.540799163087783e6 0.0
0.0 0.0 0.0

911273.5289433072 8.165254802534922e6 0.0
8.165254802534922e6 -7.3039137686127145e6 0.0
0.0 0.0 0.0

-7.828491295422887e6 1.0521218471789418e7 0.0
1.0521218471789418e7 3.548974636946127e6 0.0
0.0 0.0 0.0

-120742.303463521 1.9325891570619072e6 0.0
1.9325891570619072e6 -1.6263806244695561e6 0.0
0.0 0.0 0.0

-4.265312694353158e6 1.2081366333422989e7 0.0
1.2081366333422989e7 567686.0471656851 0.0
0.0 0.0 0.0

5.240115254670288e6 1.1941530913041282e7 0.0
1.1941530913041282e7 3.228030509010217e6 0.0
0.0 0.0 0.0

-4.099731237468962e6 1.1246837206669254e7 0.0
1.1246837206669254e7 -522553.2386035817 0.0
0.0 0.0 0.0

1.0780443493206194e6 8.144312225558502e6 0.0
8.144312225558502e6 -6.736426118679827e6 0.0
0.0 0.0 0.0

-5.819339515760636e6 1.1908212781920532e7 0.0
1.1908212781920532e7 5.1953180304717375e6 0.0
0.0 0.0 0.0

-1.008933405208766e7 -5.901518351682553e6 0.0
-5.901518351682553e6 2.0029520185349192e7 0.0
0.0 0.0 0.0

-2.655591118990087e6 1.0670489650843292e7 0.0
1.0670489650843292e7 149192.96742890694 0.0
0.0 0.0 0.0

-8.186424966248509e6 1.3845447859155253e7 0.0
1.3845447859155253e7 5.951831536421636e6 0.0
0.0 0.0 0.0

1.241738128865832e6 9.841507761913469e6 0.0
9.841507761913469e6 -1.000499654817383e7 0.0
0.0 0.0 0.0

308163.8823098452 1.1145911028439017e7 0.0
1.1145911028439017e7 -6.746325413302848e6 0.0
0.0 0.0 0.0

357033.7002815665 1.0931503898157664e7 0.0
1.0931503898157664e7 -6.962418420604199e6 0.0
0.0 0.0 0.0

-9.773445059817465e6 4.219109397264835e6 0.0
4.219109397264835e6 1.280441470713285e7 0.0
0.0 0.0 0.0

-5.773900538185744e6 1.000196944347962e7 0.0
1.000196944347962e7 3.9308249754396323e6 0.0
0.0 0.0 0.0

-1.4650379282464037e7 7.290360566648194e6 0.0
7.290360566648194e6 4.625426208399297e7 0.0
0.0 0.0 0.0

7.025573413468088e6 1.0438646017860612e7 0.0
1.0438646017860612e7 -1.8070754127737388e7 0.0
0.0 0.0 0.0

-1.0741735791724807e7 1.099306204260129e7 0.0
1.099306204260129e7 5.553360897073422e6 0.0
0.0 0.0 0.0

-2.48996306059243e6 1.141611868507279e7 0.0
1.141611868507279e7 2.5102163822979317e6 0.0
0.0 0.0 0.0

-9.221685004115516e6 1.0915345497671768e7 0.0
1.0915345497671768e7 1.9715233343952429e6 0.0
0.0 0.0 0.0

-521333.42990606 2.4218988454264216e6 0.0
2.4218988454264216e6 -479013.06927349605 0.0
0.0 0.0 0.0

-6.735083544279387e6 8.49515547600539e6 0.0
8.49515547600539e6 6.156603581266763e6 0.0
0.0 0.0 0.0

-4.262733227267713e6 1.2067462367932223e7 0.0
1.2067462367932223e7 422254.0147007096 0.0
0.0 0.0 0.0

-6.143675642201886e6 884919.0034915031 0.0
884919.0034915031 8.472831045117568e6 0.0
0.0 0.0 0.0

6.158249280905623e6 1.237708914450486e7 0.0
1.237708914450486e7 3.211262478476942e6 0.0
0.0 0.0 0.0

-3.035352265899054e6 1.1517000330008207e7 0.0
1.1517000330008207e7 5.105254865551622e6 0.0
0.0 0.0 0.0

-5.819295169745344e6 9.300962702670665e6 0.0
9.300962702670665e6 5.301735878475176e6 0.0
0.0 0.0 0.0

-1.8787904358112626e7 1.0840788711014776e7 0.0
1.0840788711014776e7 1.2921628631856458e7 0.0
0.0 0.0 0.0

1.7589744403601335e6 9.525563630713718e6 0.0
9.525563630713718e6 -1.3981565872129493e6 0.0
0.0 0.0 0.0

2.3655223499183347e6 9.723835537652647e6 0.0
9.723835537652647e6 -3.912187342384757e6 0.0
0.0 0.0 0.0

-6.180501258755103e6 1.2188065387822876e7 0.0
1.2188065387822876e7 5.120531631154212e6 0.0
0.0 0.0 0.0

-2.7029876332900925e6 1.2117668560966661e7 0.0
1.2117668560966661e7 307600.12896647316 0.0
0.0 0.0 0.0

323056.93796783383 8.736470639583215e6 0.0
8.736470639583215e6 -4.080579657663777e6 0.0
0.0 0.0 0.0

2.2528769664476733e6 1.0554863835122924e7 0.0
1.0554863835122924e7 -4.82136303105677e6 0.0
0.0 0.0 0.0

-3.546248609143775e6 9.890086633060679e6 0.0
9.890086633060679e6 4.47999222330215e6 0.0
0.0 0.0 0.0

-7.441959631898275e6 1.5778402147613365e7 0.0
1.5778402147613365e7 3.6836712478834363e6 0.0
0.0 0.0 0.0

-6.269362655179706e6 1.1034217490624646e7 0.0
1.1034217490624646e7 5.281693878362201e6 0.0
0.0 0.0 0.0

-1.101433841417514e7 1.451185170832343e7 0.0
1.451185170832343e7 7.860196909470388e6 0.0
0.0 0.0 0.0

-159059.120319664 1.087943359400549e7 0.0
1.087943359400549e7 -1.0431328509022163e7 0.0
0.0 0.0 0.0

-447158.70712705655 1.2973349178237485e7 0.0
1.2973349178237485e7 -1.3826823147025745e7 0.0
0.0 0.0 0.0

-818692.6497078072 1.3390615843201097e7 0.0
1.3390615843201097e7 3.3098051332052857e7 0.0
0.0 0.0 0.0

-859469.2431774042 1.2116727149755655e7 0.0
1.2116727149755655e7 4.085198453909291e6 0.0
0.0 0.0 0.0

2.478145168761934e6 8.301115420061917e6 0.0
8.301115420061917e6 -1.1147713341301668e7 0.0
0.0 0.0 0.0

-8.297875437162253e6 1.5564241939618874e7 0.0
1.5564241939618874e7 3.372335011974647e6 0.0
0.0 0.0 0.0

-3.0590797922887867e6 1.1999182057419054e7 0.0
1.1999182057419054e7 -1.9061500904284941e6 0.0
0.0 0.0 0.0

-558171.9050807523 1.1289869978500644e7 0.0
1.1289869978500644e7 -1.7324579331978823e6 0.0
0.0 0.0 0.0

-1.3813613741099294e6 1.2373982869814167e7 0.0
1.2373982869814167e7 -4.02297866742164e6 0.0
0.0 0.0 0.0

-2.020086609771701e7 1.11177942747993e7 0.0
1.11177942747993e7 1.3463536763973735e7 0.0
0.0 0.0 0.0

-8.103916925941855e6 1.3666711752558919e7 0.0
1.3666711752558919e7 5.633015211545314e6 0.0
0.0 0.0 0.0

-6.380524497360107e6 1.2312336908626297e7 0.0
1.2312336908626297e7 4.809792529941257e6 0.0
0.0 0.0 0.0

4.203805434724362e6 6.0949143004892925e6 0.0
6.0949143004892925e6 -1.2066275804388832e7 0.0
0.0 0.0 0.0

471127.14531003707 1.393921238101634e7 0.0
1.393921238101634e7 -4.761306020075206e6 0.0
0.0 0.0 0.0

1.0590598653380047e6 1.0039039400474267e7 0.0
1.0039039400474267e7 -9.761838088602794e6 0.0
0.0 0.0 0.0

-533016.6126024919 1.423006461150514e7 0.0
1.423006461150514e7 -3.83678649298807e6 0.0
0.0 0.0 0.0

723249.536362875 8.29191398731414e6 0.0
8.29191398731414e6 -3.4603791209986513e6 0.0
0.0 0.0 0.0

-2.4127173413988873e6 1.1597416755354594e7 0.0
1.1597416755354594e7 3.8832110365437027e6 0.0
0.0 0.0 0.0

-6.871722227382857e6 1.2316070970568227e7 0.0
1.2316070970568227e7 5.32246305774305e6 0.0
0.0 0.0 0.0

-5.014767125720877e6 438424.22881637956 0.0
438424.22881637956 4.8902099138279e6 0.0
0.0 0.0 0.0

5.274820144421505e6 1.0175092113373306e7 0.0
1.0175092113373306e7 -4.388939895743719e6 0.0
0.0 0.0 0.0

-3.05390049031996e7 1.0272207420555696e7 0.0
1.0272207420555696e7 1.3014704374807889e7 0.0
0.0 0.0 0.0

-1.0085789743378982e7 4.489320559893148e6 0.0
4.489320559893148e6 1.1579086198572567e7 0.0
0.0 0.0 0.0

-4.0076385271324283e6 1.177764544293822e7 0.0
1.177764544293822e7 1.986673587509131e6 0.0
0.0 0.0 0.0

2.2794589803598514e6 1.0406482210439978e7 0.0
1.0406482210439978e7 -4.259315468140507e6 0.0
0.0 0.0 0.0

2.9215564027261226e6 5.8167510587844765e6 0.0
5.8167510587844765e6 -8.756324721836707e6 0.0
0.0 0.0 0.0

-2.6786425270243934e6 1.1550804284046542e7 0.0
1.1550804284046542e7 2.0708349145680321e6 0.0
0.0 0.0 0.0

-7.720019390534866e6 -5.626372344897998e6 0.0
-5.626372344897998e6 1.3040793608305592e7 0.0
0.0 0.0 0.0

-1.535056705158717e6 1.399633619236016e7 0.0
1.399633619236016e7 -1.8590201680119134e7 0.0
0.0 0.0 0.0

647638.0164708477 1.846010289461276e7 0.0
1.846010289461276e7 4.2848842237448506e7 0.0
0.0 0.0 0.0

1.3287352034320422e6 9.397596604387686e6 0.0
9.397596604387686e6 -9.211797396252746e6 0.0
0.0 0.0 0.0

2.2024215197280794e6 6.341625797060258e6 0.0
6.341625797060258e6 -4.5582244649715e6 0.0
0.0 0.0 0.0

-2.0922474885819664e6 1.109822996383355e7 0.0
1.109822996383355e7 5.696547187471521e6 0.0
0.0 0.0 0.0

-1.0960565918558573e7 -5.651270589782097e6 0.0
-5.651270589782097e6 1.973751559685665e7 0.0
0.0 0.0 0.0

895818.2962411484 7.185079692168293e6 0.0
7.185079692168293e6 -4.409535225557846e6 0.0
0.0 0.0 0.0

-6.957421650397899e6 1.6114233552303063e7 0.0
1.6114233552303063e7 1.5175586579280468e6 0.0
0.0 0.0 0.0

-1.8937278956831405e6 1.0811050740773555e7 0.0
1.0811050740773555e7 -4.222741351895764e6 0.0
0.0 0.0 0.0

-870766.2337661511 1.1437372486980187e7 0.0
1.1437372486980187e7 2.934402648899018e6 0.0
0.0 0.0 0.0

-2.528742418260029e6 1.2165301083877059e7 0.0
1.2165301083877059e7 385166.24019522103 0.0
0.0 0.0 0.0

-1.0246327264047425e7 1.0987894962299744e7 0.0
1.0987894962299744e7 2.326661986312925e6 0.0
0.0 0.0 0.0

-7.796365514666712e6 1.3341655915748045e7 0.0
1.3341655915748045e7 5.620256139163049e6 0.0
0.0 0.0 0.0

-741698.2698198812 1.129225804259614e7 0.0
1.129225804259614e7 970286.2512367619 0.0
0.0 0.0 0.0

-2.2947299235851346e6 1.140131873250042e7 0.0
1.140131873250042e7 2.8777365341499364e6 0.0
0.0 0.0 0.0

-85636.25397945731 1.0073920028634105e7 0.0
1.0073920028634105e7 -6.369092264994654e6 0.0
0.0 0.0 0.0

-1.5477082209899202e6 1.2298720913902823e7 0.0
1.2298720913902823e7 -4.689093169700639e6 0.0
0.0 0.0 0.0

-1.1721443392568454e7 -3.8678294997664974e6 0.0
-3.8678294997664974e6 1.8271284753820304e7 0.0
0.0 0.0 0.0

-1.9535609040508837e7 1.2433654769738423e7 0.0
1.2433654769738423e7 1.2940155676309949e7 0.0
0.0 0.0 0.0

-1.2329361044967955e7 1.1366954870519426e7 0.0
1.1366954870519426e7 8.81056370525559e6 0.0
0.0 0.0 0.0

-1.6401631092232943e7 7.482827359251783e6 0.0
7.482827359251783e6 9.745691086110318e6 0.0
0.0 0.0 0.0

-483727.0574981775 1.1482239248270558e7 0.0
1.1482239248270558e7 -453741.145649398 0.0
0.0 0.0 0.0

-3.297863372645473e6 1.1824845414925788e7 0.0
1.1824845414925788e7 534672.6508203244 0.0
0.0 0.0 0.0

-1.2277365344747733e7 9.519294576666312e6 0.0
9.519294576666312e6 7.236737114487617e6 0.0
0.0 0.0 0.0

1.2688774518783945e6 7.277683299453354e6 0.0
7.277683299453354e6 -4.611100398307746e6 0.0
0.0 0.0 0.0

-1.5618831375234986e6 1.1697470046285564e7 0.0
1.1697470046285564e7 3.2967777959720017e6 0.0
0.0 0.0 0.0

3.0585072779384446e6 7.985775824771596e6 0.0
7.985775824771596e6 -1.078795938387298e7 0.0
0.0 0.0 0.0

-8.745001595550874e6 5.029302223754981e6 0.0
5.029302223754981e6 1.2353365499316562e7 0.0
0.0 0.0 0.0

-1.013831036184213e7 -5.971686120286969e6 0.0
-5.971686120286969e6 1.9622128873083275e7 0.0
0.0 0.0 0.0

4.386549318497784e6 6.182798080078795e6 0.0
6.182798080078795e6 -1.1959553542060094e7 0.0
0.0 0.0 0.0

-1.8671017684583455e7 9.378623142669065e6 0.0
9.378623142669065e6 8.974427977320654e6 0.0
0.0 0.0 0.0

-6.655047319958718e6 -3.1731023239398305e6 0.0
-3.1731023239398305e6 9.184570993422242e6 0.0
0.0 0.0 0.0

-6.139025919506055e6 -1.7500161892273244e6 0.0
-1.7500161892273244e6 7.665886625920838e6 0.0
0.0 0.0 0.0

1.1900308882144198e6 7.171821116271391e6 0.0
7.171821116271391e6 -4.723840176358367e6 0.0
0.0 0.0 0.0

-5.586009671821684e6 -323399.38153731334 0.0
-323399.38153731334 7.43012108360808e6 0.0
0.0 0.0 0.0

-1.1062362465458872e7 2.08607808532965e7 0.0
2.08607808532965e7 1.05527855219193e6 0.0
0.0 0.0 0.0

-5.895165944082732e6 9.757163952645991e6 0.0
9.757163952645991e6 5.392696762875573e6 0.0
0.0 0.0 0.0

4.532700408063922e6 6.952018590763367e6 0.0
6.952018590763367e6 -1.3906093193367459e7 0.0
0.0 0.0 0.0

3.196147908669526e6 6.121378747145616e6 0.0
6.121378747145616e6 -1.0161114643137725e7 0.0
0.0 0.0 0.0

-5.639889005678855e6 9.80143465750322e6 0.0
9.80143465750322e6 3.48404793421344e6 0.0
0.0 0.0 0.0

-1.113439759513501e7 1.3848831408921741e7 0.0
1.3848831408921741e7 8.0518660247888295e6 0.0
0.0 0.0 0.0

207661.20861370827 6.382958206372293e6 0.0
6.382958206372293e6 3.1693290692601614e6 0.0
0.0 0.0 0.0

-3.1476797921514423e6 1.0951205490902485e7 0.0
1.0951205490902485e7 7.733293791846849e6 0.0
0.0 0.0 0.0

330217.5838768822 1.3730420535237567e7 0.0
1.3730420535237567e7 -5.0996833597086165e6 0.0
0.0 0.0 0.0

-5.628850204237767e6 -3.8694189341033143e6 0.0
-3.8694189341033143e6 1.0891164963098409e7 0.0
0.0 0.0 0.0

-1.2966933330462813e7 5.620934751146295e6 0.0
5.620934751146295e6 7.188273570156796e6 0.0
0.0 0.0 0.0

-7.699257026232207e6 1.315185847475927e7 0.0
1.315185847475927e7 5.275152773999443e6 0.0
0.0 0.0 0.0

-6.22069891335286e6 1.2883269563258592e7 0.0
1.2883269563258592e7 1.4840933331479695e7 0.0
0.0 0.0 0.0

453318.5885792 1.381605048706301e7 0.0
1.381605048706301e7 -4.515888589914337e6 0.0
0.0 0.0 0.0

-2.169609266472641e6 1.2337161217286933e7 0.0
1.2337161217286933e7 -26139.714882779983 0.0
0.0 0.0 0.0

-5.226011289193633e6 1.1589220583090805e7 0.0
1.1589220583090805e7 5.269583402442286e6 0.0
0.0 0.0 0.0

-1.9504465361804413e6 1.1876958452091733e7 0.0
1.1876958452091733e7 -1.0439627566807582e6 0.0
0.0 0.0 0.0

-3.0164696061983585e7 1.411527722406499e7 0.0
1.411527722406499e7 6.62312306030128e6 0.0
0.0 0.0 0.0

-6.426179292072221e6 9.505446282713706e6 0.0
9.505446282713706e6 4.991682571438322e6 0.0
0.0 0.0 0.0

-1.9609054481344952e6 1.2301799600936716e7 0.0
1.2301799600936716e7 -492326.25695667905 0.0
0.0 0.0 0.0

-4.5671206303103585e6 1.1957608983611075e7 0.0
1.1957608983611075e7 4.952571586810231e6 0.0
0.0 0.0 0.0

-235536.52530818316 1.3427389257575708e7 0.0
1.3427389257575708e7 -4.517964354268425e6 0.0
0.0 0.0 0.0

2.6966016092793406e6 5.85303130896034e6 0.0
5.85303130896034e6 -8.450583882561544e6 0.0
0.0 0.0 0.0

-1.5318010620138783e6 1.3041940507863156e7 0.0
1.3041940507863156e7 -4.1466566627138183e6 0.0
0.0 0.0 0.0

-2.088300867286876e7 1.1842497216506638e7 0.0
1.1842497216506638e7 1.1980368517362084e7 0.0
0.0 0.0 0.0

-7.576347353992632e6 1.261477374111952e7 0.0
1.261477374111952e7 5.838875075866817e6 0.0
0.0 0.0 0.0

-1.6663012065218198e6 1.1798271785690205e6 0.0
1.1798271785690205e6 1.0046798228221016e6 0.0
0.0 0.0 0.0

-965013.1872327187 1.1437405330402346e7 0.0
1.1437405330402346e7 -5.664145577738281e6 0.0
0.0 0.0 0.0

4.373201413224554e6 1.0244019622268485e7 0.0
1.0244019622268485e7 -4.280848112520219e6 0.0
0.0 0.0 0.0

-2.711025736214146e7 1.276374560658866e7 0.0
1.276374560658866e7 9.473213260386808e6 0.0
0.0 0.0 0.0

-474306.22688196925 1.0729886919698395e7 0.0
1.0729886919698395e7 1.1522750451744753e6 0.0
0.0 0.0 0.0

2.8779403452869803e6 8.02211076218794e6 0.0
8.02211076218794e6 -1.1383471569206323e7 0.0
0.0 0.0 0.0

-385352.6329361703 1.0017544869547103e7 0.0
1.0017544869547103e7 -6.251669052866792e6 0.0
0.0 0.0 0.0

-2.3637410710612955e6 1.1737486810416626e7 0.0
1.1737486810416626e7 2.4056580066907173e6 0.0
0.0 0.0 0.0

-1.1478068621755188e7 1.3695948696251163e7 0.0
1.3695948696251163e7 8.389887504337728e6 0.0
0.0 0.0 0.0

-5.053650821595907e6 1.2607706267596772e7 0.0
1.2607706267596772e7 1.0118740133991621e6 0.0
0.0 0.0 0.0

3.4667220471518496e6 5.838248671874021e6 0.0
5.838248671874021e6 -9.927715386103107e6 0.0
0.0 0.0 0.0

-3.6152873679092927e6 1.3114808091763446e7 0.0
1.3114808091763446e7 8.788396565814907e6 0.0
0.0 0.0 0.0

-254121.35923937126 7.877385568356663e6 0.0
7.877385568356663e6 -3.7349476733715343e6 0.0
0.0 0.0 0.0

-2.0942966897798494e7 1.2786675025643894e7 0.0
1.2786675025643894e7 8.48467135033362e6 0.0
0.0 0.0 0.0

-6.341833681678893e6 -158490.0973869216 0.0
-158490.0973869216 6.256279839071648e6 0.0
0.0 0.0 0.0

-6.039097632894404e6 54595.74127401996 0.0
54595.74127401996 7.52297340671497e6 0.0
0.0 0.0 0.0

4.2548561901738895e6 9.351051308285568e6 0.0
9.351051308285568e6 -1.8898641132543662e6 0.0
0.0 0.0 0.0

-6.463557710924721e6 -2.7883551387184756e6 0.0
-2.7883551387184756e6 1.1784070171425842e7 0.0
0.0 0.0 0.0

-330871.8306409516 1.0829836067109367e7 0.0
1.0829836067109367e7 1.1408689007172065e6 0.0
0.0 0.0 0.0

-475343.96341267484 1.249639772338527e7 0.0
1.249639772338527e7 4.0807285517273275e6 0.0
0.0 0.0 0.0

-8.517828701939093e6 1.4883582681624228e7 0.0
1.4883582681624228e7 4.657394596570317e6 0.0
0.0 0.0 0.0

-1.3136644208551597e7 -928421.6280761358 0.0
-928421.6280761358 2.1741250501937002e7 0.0
0.0 0.0 0.0

992340.5925828414 1.007965784070739e7 0.0
1.007965784070739e7 -9.70649636239859e6 0.0
0.0 0.0 0.0

869859.8051450613 7.17349433545906e6 0.0
7.17349433545906e6 -4.427557183778308e6 0.0
0.0 0.0 0.0

-2.2148838712139702e6 1.1574761988476763e7 0.0
1.1574761988476763e7 1.8269679014641873e6 0.0
0.0 0.0 0.0

-2.188699650568233e6 1.2529007471072678e7 0.0
1.2529007471072678e7 5.121553192120856e6 0.0
0.0 0.0 0.0

-8.28278739072843e6 -2.0833417216047517e6 0.0
-2.0833417216047517e6 1.0927001819700215e7 0.0
0.0 0.0 0.0

-7.811262549271261e6 2.958598270490177e6 0.0
2.958598270490177e6 6.995780685523844e6 0.0
0.0 0.0 0.0

-3.7933629814424356e6 9.982584792294042e6 0.0
9.982584792294042e6 1.0108544526434715e6 0.0
0.0 0.0 0.0

-3.6701922815719573e6 4.1093156485246993e6 0.0
4.1093156485246993e6 8.86023185649978e6 0.0
0.0 0.0 0.0

2.1297498512891727e6 1.0287588497585548e7 0.0
1.0287588497585548e7 -4.267038069943685e6 0.0
0.0 0.0 0.0

-5.973088636222518e6 -535115.159333817 0.0
-535115.159333817 6.153725764751814e6 0.0
0.0 0.0 0.0

-1.2841890405035589e7 -1.1840855772306258e6 0.0
-1.1840855772306258e6 2.4327290143901117e7 0.0
0.0 0.0 0.0

2.064318084381916e6 1.0280480198706718e7 0.0
1.0280480198706718e7 -4.27584404587268e6 0.0
0.0 0.0 0.0

-1.6378372608363954e6 1.098843356474624e7 0.0
1.098843356474624e7 -3.996425702731647e6 0.0
0.0 0.0 0.0

-1.2313879297943773e7 -905003.0967938179 0.0
-905003.0967938179 2.4832746466901004e7 0.0
0.0 0.0 0.0

935369.8013747428 1.3092782764959192e7 0.0
1.3092782764959192e7 -4.92364556588857e6 0.0
0.0 0.0 0.0

-1.7321652465685261e6 1.145419832022511e7 0.0
1.145419832022511e7 2.961920333779854e6 0.0
0.0 0.0 0.0

-2.493373732744499e6 5.56195804688336e6 0.0
5.56195804688336e6 563470.5253493704 0.0
0.0 0.0 0.0

-4.236938853404711e6 561231.8461590423 0.0
561231.8461590423 5.363694957769503e6 0.0
0.0 0.0 0.0

-4.196805663564496e6 361240.42958173866 0.0
361240.42958173866 2.577190550706382e6 0.0
0.0 0.0 0.0

