# vtk DataFile Version 2.0
phase field modeling fracture
ASCII
DATASET UNSTRUCTURED_GRID
POINTS 2538 float
0.0 0.0 0.0
10.0 0.0 0.0
0.0 10.0 0.0
10.0 10.0 0.0
0.0 4.9995 0.0
0.0 5.0005 0.0
5.0 5.0 0.0
0.9416964895726688 0.0 0.0
1.803581725054446 0.0 0.0
2.592419885431098 0.0 0.0
3.314401822861676 0.0 0.0
3.975193910351406 0.0 0.0
4.579982132660152 0.0 0.0
5.133512780936812 0.0 0.0
5.640130319506143 0.0 0.0
6.103810708661955 0.0 0.0
6.528192895506818 0.0 0.0
6.916607540127679 0.0 0.0
7.272102969376355 0.0 0.0
7.597469242948583 0.0 0.0
7.895259826292669 0.0 0.0
8.167811885738017 0.0 0.0
8.417264413845215 0.0 0.0
8.645575169389538 0.0 0.0
8.854535961159101 0.0 0.0
9.045786767735546 0.0 0.0
9.220828555767493 0.0 0.0
9.38103509633881 0.0 0.0
9.527663687265145 0.0 0.0
9.661865124984566 0.0 0.0
9.784692609918062 0.0 0.0
9.897110148790482 0.0 0.0
10.0 0.09999999999992584 0.0
10.0 0.199999999999856 0.0
10.0 0.2999999999997771 0.0
10.0 0.3999999999996677 0.0
10.0 0.4999999999995511 0.0
10.0 0.5999999999994683 0.0
10.0 0.6999999999993983 0.0
10.0 0.7999999999993286 0.0
10.0 0.8999999999992587 0.0
10.0 0.9999999999991888 0.0
10.0 1.099999999999119 0.0
10.0 1.199999999999033 0.0
10.0 1.299999999998852 0.0
10.0 1.399999999998576 0.0
10.0 1.499999999998284 0.0
10.0 1.599999999997992 0.0
10.0 1.6999999999977 0.0
10.0 1.799999999997408 0.0
10.0 1.899999999997116 0.0
10.0 1.999999999996825 0.0
10.0 2.099999999996533 0.0
10.0 2.199999999996241 0.0
10.0 2.299999999995949 0.0
10.0 2.399999999995657 0.0
10.0 2.499999999995365 0.0
10.0 2.599999999995073 0.0
10.0 2.699999999994782 0.0
10.0 2.79999999999449 0.0
10.0 2.899999999994198 0.0
10.0 2.999999999993906 0.0
10.0 3.099999999993614 0.0
10.0 3.199999999993322 0.0
10.0 3.299999999993029 0.0
10.0 3.399999999992738 0.0
10.0 3.499999999992446 0.0
10.0 3.599999999992154 0.0
10.0 3.699999999991863 0.0
10.0 3.799999999991571 0.0
10.0 3.899999999991278 0.0
10.0 3.999999999991022 0.0
10.0 4.099999999991035 0.0
10.0 4.199999999991187 0.0
10.0 4.299999999991338 0.0
10.0 4.399999999991491 0.0
10.0 4.499999999991642 0.0
10.0 4.599999999991795 0.0
10.0 4.699999999991947 0.0
10.0 4.799999999992099 0.0
10.0 4.89999999999225 0.0
10.0 4.999999999992403 0.0
10.0 5.099999999992555 0.0
10.0 5.199999999992706 0.0
10.0 5.299999999992858 0.0
10.0 5.39999999999301 0.0
10.0 5.499999999993161 0.0
10.0 5.599999999993313 0.0
10.0 5.699999999993466 0.0
10.0 5.799999999993618 0.0
10.0 5.899999999993771 0.0
10.0 5.999999999993922 0.0
10.0 6.099999999994074 0.0
10.0 6.199999999994227 0.0
10.0 6.299999999994378 0.0
10.0 6.39999999999453 0.0
10.0 6.499999999994682 0.0
10.0 6.599999999994833 0.0
10.0 6.699999999994986 0.0
10.0 6.799999999995138 0.0
10.0 6.899999999995289 0.0
10.0 6.999999999995442 0.0
10.0 7.099999999995594 0.0
10.0 7.199999999995747 0.0
10.0 7.299999999995897 0.0
10.0 7.39999999999605 0.0
10.0 7.499999999996202 0.0
10.0 7.599999999996353 0.0
10.0 7.699999999996505 0.0
10.0 7.799999999996658 0.0
10.0 7.899999999996808 0.0
10.0 7.999999999996962 0.0
10.0 8.099999999997113 0.0
10.0 8.199999999997265 0.0
10.0 8.299999999997418 0.0
10.0 8.399999999997569 0.0
10.0 8.499999999997721 0.0
10.0 8.599999999997873 0.0
10.0 8.699999999998024 0.0
10.0 8.799999999998176 0.0
10.0 8.899999999998329 0.0
10.0 8.99999999999848 0.0
10.0 9.099999999998634 0.0
10.0 9.199999999998786 0.0
10.0 9.299999999998937 0.0
10.0 9.399999999999089 0.0
10.0 9.499999999999241 0.0
10.0 9.599999999999392 0.0
10.0 9.699999999999545 0.0
10.0 9.799999999999697 0.0
10.0 9.899999999999848 0.0
9.897110148790565 10.0 0.0
9.784692609918244 10.0 0.0
9.66186512498486 10.0 0.0
9.527663687265571 10.0 0.0
9.381035096339392 10.0 0.0
9.220828555768257 10.0 0.0
9.045786767736512 10.0 0.0
8.854535961160305 10.0 0.0
8.645575169391027 10.0 0.0
8.417264413847017 10.0 0.0
8.167811885740178 10.0 0.0
7.895259826295246 10.0 0.0
7.597469242951631 10.0 0.0
7.272102969379938 10.0 0.0
6.916607540131873 10.0 0.0
6.528192895511704 10.0 0.0
6.103810708667616 10.0 0.0
5.640130319512691 10.0 0.0
5.13351278094435 10.0 0.0
4.579982132668816 10.0 0.0
3.975193910361222 10.0 0.0
3.314401822869852 10.0 0.0
2.592419885437257 10.0 0.0
1.803581725058137 10.0 0.0
0.9416964895740705 10.0 0.0
0.0 9.00010000000243 0.0
0.0 8.000200000005481 0.0
0.0 7.000300000005135 0.0
0.0 6.000400000002569 0.0
0.901790731451151 5.000409820926855 0.0
1.657200899774397 5.000334279910023 0.0
2.289991063707192 5.000271000893629 0.0
2.820065163538221 5.000217993483646 0.0
3.264096435579811 5.000173590356442 0.0
3.636051481595835 5.00013639485184 0.0
3.947629914072366 5.000105237008593 0.0
4.208632181002628 5.0000791367819 0.0
4.427267949625672 5.000057273205037 0.0
4.610414277633563 5.000038958572237 0.0
4.763831845154243 5.000023616815485 0.0
4.892346298799659 5.00001076537012 0.0
4.892346298799748 4.99998923462988 0.0
4.763831845154455 4.999976383184515 0.0
4.610414277633943 4.999961041427763 0.0
4.427267949626277 4.999942726794963 0.0
4.208632181003523 4.9999208632181 0.0
3.94762991407365 4.999894762991407 0.0
3.636051481597624 4.99986360514816 0.0
3.264096435582253 4.999826409643559 0.0
2.820065163541503 4.999782006516354 0.0
2.289991063711534 4.999728999106371 0.0
1.657200899778495 4.999665720089978 0.0
0.9017907314530094 4.999590179073145 0.0
0.0 3.999600000002013 0.0
0.0 2.999700000005187 0.0
0.0 1.99980000000512 0.0
0.0 0.9999000000025537 0.0
9.897889398521345 2.93573355845387 0.0
9.906568249974548 7.060009441434234 0.0
9.913122631074113 3.64016132281653 0.0
9.922462129543863 6.354535290629151 0.0
9.917693659967533 4.354211663134567 0.0
9.909873057440208 5.637584487339942 0.0
9.914183254994697 4.950672966925282 0.0
9.913885043715895 7.666887930262611 0.0
9.91009668007573 2.351889069770817 0.0
9.905135696074536 8.138152454502785 0.0
9.913397459621809 1.849999999997262 0.0
7.099302372137626 0.297750452375005 0.0
7.095143729410097 9.700359990366296 0.0
4.942912558701401 5.095838627899509 0.0
4.315009232304429 5.165022115481685 0.0
4.946182472483878 4.906763777264103 0.0
4.317967462990024 4.825955043772673 0.0
9.916390871492647 8.64999999999792 0.0
9.921504649680616 1.368376469890358 0.0
8.292538149791614 0.206877570318844 0.0
8.292538149793597 9.793122429681448 0.0
5.884594439766573 9.587645267048616 0.0
5.794826292691579 0.3794853783929359 0.0
9.913397459621425 9.049999999998557 0.0
9.908526577714177 0.9568239351922434 0.0
3.456851160380649 5.315740054130451 0.0
3.457889657868442 4.707121019609468 0.0
8.945214200703926 0.1503383337970344 0.0
8.950161364448409 9.8413906539257 0.0
9.913862335499305 4.055887885208452 0.0
9.916697353372683 4.650158482607802 0.0
9.919076340414442 6.049999999994006 0.0
9.906994308667635 5.25749687748192 0.0
9.917490342358025 6.655979201891897 0.0
9.915757520293784 7.343848891656911 0.0
9.910049507471042 3.363474386285078 0.0
9.914471988502868 2.647400064832979 0.0
9.91474124160965 9.337490423485129 0.0
9.916971008170838 0.6499999999994355 0.0
4.307157269264427 9.509674045029644 0.0
4.331527375865619 0.4401616696422582 0.0
9.45434939180249 9.878397030523757 0.0
9.457696120412969 0.1270877537061785 0.0
2.555070293622606 5.422044496190925 0.0
2.566232917480916 4.608001224030952 0.0
3.026511860837692 9.332320638257093 0.0
2.945561971800619 0.5895662714727601 0.0
7.7395404387124 0.2511088946967771 0.0
7.736379255744154 9.745848826372828 0.0
4.687135269408529 5.122111433928926 0.0
4.688420821504113 4.871895064967488 0.0
9.910554884115975 0.3448356354522978 0.0
9.911230082250466 9.65764729394159 0.0
9.921953841410854 6.851023993342036 0.0
9.912065178606017 5.448170483544033 0.0
9.911660025326261 3.861846960030188 0.0
9.914847467973438 3.14501593945607 0.0
9.913397459621425 5.849999999993703 0.0
9.913397459621425 7.849999999996735 0.0
9.906916878988277 2.15455769998631 0.0
9.913397459621425 8.349999999997479 0.0
9.909472363117661 1.640528221515488 0.0
9.913987325695956 1.152857110636247 0.0
9.913397459621425 8.849999999998241 0.0
0.9100099990995943 2.614215977520411 0.0
0.8395284981715456 7.451196254860987 0.0
9.723278867451556 9.898135916635193 0.0
9.723316350887044 0.09841820909386662 0.0
1.385819164827588 4.454539963646463 0.0
1.338343629665047 5.523111536005823 0.0
1.377179700550677 0.6809168304959698 0.0
1.418060461092743 9.285896715136046 0.0
9.91268220142518 0.1457914080939694 0.0
9.906737126737994 9.845745933882352 0.0
0.7108351382691361 6.537941170074089 0.0
1.527735020267026 6.915620208855231 0.0
1.630993885659103 7.838271825205868 0.0
2.232760943566823 7.370850737296832 0.0
2.243414218068206 6.688299277952821 0.0
2.779655053105118 7.021588754814074 0.0
2.80227799359795 7.632420170547022 0.0
3.282022065908813 7.305859666021318 0.0
3.327597298795347 7.857554136825748 0.0
3.743210251018715 7.549183328204379 0.0
3.716353232200752 7.062036086888612 0.0
4.111978858674101 7.27497101169417 0.0
4.104192177581432 6.879858986267289 0.0
4.436230765617037 7.045693351607117 0.0
4.430360014817357 6.703971783962796 0.0
4.732390145036301 6.849841042423394 0.0
5.056161327708878 5.095276573498806 0.0
5.111586796021131 4.999081142133581 0.0
5.169267363407189 5.09444870412406 0.0
5.223795108752053 4.996986220359468 0.0
5.281480803887719 5.092780870372803 0.0
5.335670761900611 4.994887492556936 0.0
5.393485214772442 5.090486192743301 0.0
5.447323082877892 4.992601527033996 0.0
5.505243219343024 5.087953380710069 0.0
5.558739102026105 4.990287787962959 0.0
5.616491581184779 5.085335255235766 0.0
5.669852346908056 4.9879269227514 0.0
5.727502713908907 5.082679981817038 0.0
5.780766004135139 4.988313988715834 0.0
5.838244881129535 5.080480568766611 0.0
5.891357695677371 4.986433849408193 0.0
5.948696036767613 5.077969900389505 0.0
6.001601341641615 4.981313698556656 0.0
6.058851024265095 5.074871552128682 0.0
6.111614020704875 4.978360695880202 0.0
6.168801161530775 5.072044953270978 0.0
6.221368818778567 4.975825765213497 0.0
6.278268309066882 5.066182320461055 0.0
6.330814273567539 4.972837984645718 0.0
6.387565032421376 5.062889771971895 0.0
6.437476667631405 4.971693683589553 0.0
6.496181111585419 5.060210690175857 0.0
6.539454812256072 4.964658165361536 0.0
6.604198202576491 5.056387520850258 0.0
6.648506025747331 4.939374587506267 0.0
6.714026758992516 5.05873885840664 0.0
6.764418045981209 4.959246676066148 0.0
6.8219334571197 5.055299567406268 0.0
6.873708540948134 4.960426349093742 0.0
6.930181428849307 5.053461390218819 0.0
6.981893615341967 4.96435459462232 0.0
7.037791764774784 5.051219747103022 0.0
7.090993561518408 4.96392420322464 0.0
5.504417457283294 4.900897920552702 0.0
7.145434864123609 5.048960634292441 0.0
6.054532384032612 4.883956083938546 0.0
6.738027949040956 4.850032323068674 0.0
7.198432914526514 4.956325226333323 0.0
7.252637187936749 5.046012229327236 0.0
7.30926729605109 4.948903216650376 0.0
7.248106275544042 4.860306312845646 0.0
7.363100274863074 4.849952416808486 0.0
7.365733472701664 5.039519554615095 0.0
7.308483293090149 5.137557220352172 0.0
6.768399513646964 5.145609705119954 0.0
7.422800035311104 5.132251445551834 0.0
7.358273518796229 5.235980394389298 0.0
7.480824155801127 5.227946127939927 0.0
7.302193400058628 4.761917474298247 0.0
7.413570879789824 4.754555110721153 0.0
7.414392998903179 5.334729114426734 0.0
7.352769630272076 4.660405502266205 0.0
7.467556835255426 4.658352623795039 0.0
7.536246869015014 5.328986926716081 0.0
7.478865844607288 5.432598185493195 0.0
7.406396991826072 4.556956233957538 0.0
7.523581002009154 4.552005631348623 0.0
7.597792398573263 5.429506106314967 0.0
7.540511043402902 5.53619421580439 0.0
7.46214474876342 4.452580994318881 0.0
7.5852185078634 4.446021810672608 0.0
7.663329342323453 5.533453399066901 0.0
7.603478967594521 5.643227430483237 0.0
7.513450346818673 4.347641323140766 0.0
7.640744971722214 4.333388343316237 0.0
7.727671715775243 5.642390483050116 0.0
7.667774597993788 5.753188858425915 0.0
7.570065256728661 4.230515669344811 0.0
7.702881065467917 4.218307808529532 0.0
7.638288257073729 4.107994211855027 0.0
7.493362356301017 4.120843902105771 0.0
7.779018500630071 5.521233457321821 0.0
7.794641287388929 5.752364621610818 0.0
7.73369774483611 5.865894287356292 0.0
7.600834531784728 5.867752110500446 0.0
6.233038857278689 5.15645045634683 0.0
7.669727996028819 5.985665563643058 0.0
7.528582452554481 5.987393423295551 0.0
7.598722674572824 6.11001923494443 0.0
7.778305000222867 4.104318908265786 0.0
7.704329019832056 3.987744174608892 0.0
7.838453459801382 4.213322728668484 0.0
7.864495721576461 5.862306066517277 0.0
7.846552353360407 3.98481756181946 0.0
7.769730409703277 3.86544808681145 0.0
5.785249360396857 5.177248808588045 0.0
7.908837087876153 3.861484036275285 0.0
7.834824606222196 3.740586825753288 0.0
7.97685993406276 3.736209527152902 0.0
7.89665098770825 3.615501862931453 0.0
7.753228010315262 3.617800245018972 0.0
7.826063013090472 3.483173292579822 0.0
7.66789744383048 3.48859328808356 0.0
8.042515855796823 3.595394268381807 0.0
7.75200750488492 3.341279823834038 0.0
7.582870318332553 3.346584916806707 0.0
8.120807847415062 3.732493963388337 0.0
8.189783970303546 3.61159165475499 0.0
7.657801000286734 3.200439907646711 0.0
7.486781956172036 3.201402473247712 0.0
7.452595103886905 6.11418616185016 0.0
7.527098033550077 6.243191052852112 0.0
8.260502906807751 3.728437634721859 0.0
8.327629317451398 3.608173631356984 0.0
7.372763970891452 6.247552889754036 0.0
7.456170570815929 6.384992468962936 0.0
7.621837793616884 6.376077080857113 0.0
7.548039512904141 6.520750676893614 0.0
7.717475944451644 6.514856553988943 0.0
7.636658166268699 6.661648164052906 0.0
7.807468267259438 6.664076174524672 0.0
7.718022764310774 6.817938967122142 0.0
7.887785766941087 6.807440365887151 0.0
7.545993589083432 6.815070675854734 0.0
7.809874785067209 6.967537287475282 0.0
7.975643812145337 6.948729406725126 0.0
8.396477808021062 3.725446935061211 0.0
7.565651643157136 3.044354774611752 0.0
7.384328725505071 3.043048915147076 0.0
8.056405351948353 6.802790889114673 0.0
8.14128318237188 6.940027831915737 0.0
8.064621760266059 7.086348792208953 0.0
8.225003598857908 6.805225152373254 0.0
8.463085452993242 3.606998510553562 0.0
8.230426869720718 7.079551841000411 0.0
8.155262284174286 7.224761758176069 0.0
8.530696760758996 3.721683301125054 0.0
8.596669886994064 3.604516769862316 0.0
8.528531058025589 3.490411531312337 0.0
8.320451770844851 7.218191678954744 0.0
8.245273958732774 7.363444652121271 0.0
8.66324687389452 3.717094013035765 0.0
8.600103125209296 3.831913857228569 0.0
8.662131102573216 3.488322280861316 0.0
8.594166125380536 3.374071873435548 0.0
8.411074336066186 7.353871649576861 0.0
8.339644223432472 7.505172120620427 0.0
8.165883718619623 7.513159193685373 0.0
8.483453820080417 7.2082285366806 0.0
8.261200365730348 7.657400951288149 0.0
8.081570576666843 7.670933304838066 0.0
7.471613195794025 2.872548423100142 0.0
7.268733678357991 2.881209199257603 0.0
7.184255506995786 3.084448584600423 0.0
7.065899603697895 2.883902449336828 0.0
6.960163891183182 3.081014635802978 0.0
6.847612128388715 2.885646860602812 0.0
6.739800729737967 3.078895733381448 0.0
8.729373804596847 3.827689165637365 0.0
8.668550856907444 3.938702277545298 0.0
8.72770789162863 3.371798381178293 0.0
8.659764090070603 3.257493349874974 0.0
8.436453928793245 7.648724489148887 0.0
6.619080287792762 2.90880017416788 0.0
6.511740956842646 3.09340654756684 0.0
8.793527829963288 3.935174834810256 0.0
8.736430500996828 4.042719556852617 0.0
7.631260330584174 4.565300771328012 0.0
8.359058396840432 7.801678182761817 0.0
5.339436215072359 5.184870243702279 0.0
4.994031736761993 5.193306795607908 0.0
6.383387675268097 4.87760645722207 0.0
7.29117392392962 6.382172868329505 0.0
6.378196825372041 2.907113079755629 0.0
6.269817199014261 3.12412150658573 0.0
8.793149127377946 3.255386294257182 0.0
8.725774239201558 3.141596687892195 0.0
8.857434600673502 4.041295940541356 0.0
8.802868937128341 4.1471119953668 0.0
8.532045262478793 7.7905977476835 0.0
7.364542641624493 2.699128473342751 0.0
7.571677611088925 2.695732556686516 0.0
6.723058333614999 2.672341359410618 0.0
8.456744924757372 7.94483904450548 0.0
6.140831279784704 2.921247401137864 0.0
6.02419219050745 3.14358702955763 0.0
8.916255604212301 3.934279868822481 0.0
8.859287250884009 3.140226640574265 0.0
8.791092798057303 3.025929352146465 0.0
7.210445465986021 6.245773134960393 0.0
7.120884161792869 6.385155584680196 0.0
7.036931702064287 6.240721609143972 0.0
6.943722280007011 6.3869279517155 0.0
8.920094519678617 4.144837222494242 0.0
8.864374107136287 4.250930406527029 0.0
7.347569838739255 4.463467417508182 0.0
5.90383431757064 2.935113219563906 0.0
5.783476009580765 3.156456199832474 0.0
8.626013191558314 7.935092223505354 0.0
8.687240186957197 7.796697889991163 0.0
5.642059327424706 2.903018174330269 0.0
5.52647853955939 3.162549070310043 0.0
8.555300051897738 8.086169516016518 0.0
8.405624441178524 8.083972416481254 0.0
5.374124307190728 2.945480555950917 0.0
8.935805220807357 3.249260758206028 0.0
8.981625171409894 4.247375537584228 0.0
8.924725364486765 4.352101286657735 0.0
8.807208588134106 4.356163101450244 0.0
8.868277832430604 4.45657124153171 0.0
8.75099635287701 4.460644845248524 0.0
8.812385950597063 4.560891222623518 0.0
8.693833206943118 4.564602972998703 0.0
8.756474732548273 4.665720853686476 0.0
8.63721608225855 4.669394550615355 0.0
8.700108119351134 4.770682016274914 0.0
8.81920502916846 4.767536120893284 0.0
8.76355311338807 4.871451945248518 0.0
8.881442328033694 4.868382238751069 0.0
8.826433523510634 4.97132552240372 0.0
8.943387824985514 4.967694248194483 0.0
8.888718468126953 5.071044784833541 0.0
8.580377663835254 4.774669738817985 0.0
8.770572242937233 5.073880380431421 0.0
8.832915096600454 5.174518948293615 0.0
8.952224483821848 5.170970838320107 0.0
8.897282771771884 5.275476392171722 0.0
7.463928467290875 2.513944501591933 0.0
7.675935950092034 2.509420347143072 0.0
8.924252417741767 3.024418701372628 0.0
8.857265893102921 2.911213535286156 0.0
8.776981063213334 5.27944309004916 0.0
8.840710910770163 5.380165700477552 0.0
8.960876896785969 5.375521424256389 0.0
8.904555918255223 5.482125846038813 0.0
7.567193097677677 2.32750151280277 0.0
7.780880844888839 2.323064027160363 0.0
6.851602118390116 6.234522818184622 0.0
6.758680682687229 6.389359516748128 0.0
6.66345977321418 6.231254850996584 0.0
8.715764716958308 8.079994249772627 0.0
8.65189989696114 8.227534663647639 0.0
9.042229096541828 4.348551764001607 0.0
6.436774206993324 3.316782326998922 0.0
7.590527613340588 5.22651784724799 0.0
9.024366884701616 5.476726561488805 0.0
8.968734351641839 5.583879050892151 0.0
8.845941080047659 5.586406316932274 0.0
8.909881305857882 5.690482454668167 0.0
7.348726871578975 5.44047403999932 0.0
6.567070253986433 6.398115757512583 0.0
6.697077150072261 6.553426749743366 0.0
5.252377383990728 3.187782967482479 0.0
8.988440431820699 2.908621158637298 0.0
8.922541972760119 2.796420836075996 0.0
6.466806010659505 6.229115583261771 0.0
9.033851153821296 5.686506775615425 0.0
8.978340519963718 5.795772485582058 0.0
8.85111463793018 5.798672910287243 0.0
8.922171984280597 5.907237880910408 0.0
8.795190680908043 5.911854068712683 0.0
8.864373398892472 6.019728357749566 0.0
8.991346995940626 6.014539153309398 0.0
8.93374019140187 6.12698887312768 0.0
5.095192648098848 2.952353430985476 0.0
7.672651464908932 2.141715359830917 0.0
7.886266921042761 2.136211284120189 0.0
9.098474286589756 4.245971410451114 0.0
8.813172564986438 8.216887361735234 0.0
8.74802978243154 8.366104673219047 0.0
9.059985162956899 6.120982589539211 0.0
9.00342813739303 6.233245043891739 0.0
4.961413514304496 3.214209167276753 0.0
9.05248113004685 2.794651022570942 0.0
8.986028039118027 2.681341972594222 0.0
5.671890458441996 3.377122473800023 0.0
4.755829262593116 7.184480462344647 0.0
9.158258644940048 4.34465968221255 0.0
4.799687186662534 2.961354824469195 0.0
6.030554747591715 2.726787502996874 0.0
8.938327180212585 8.34758372042188 0.0
8.847392320655468 8.503370672816716 0.0
8.67342124373679 8.518117686968314 0.0
5.234423106934083 2.694925204361751 0.0
8.964923046453565 8.185313058214797 0.0
7.456650986668838 2.134076476407834 0.0
9.111732084821366 2.897226832609386 0.0
6.368055837513985 6.402805870976705 0.0
6.265629899005033 6.226581076317183 0.0
8.736327196352686 6.026404178766982 0.0
9.117473097358854 2.67987006607594 0.0
9.052137415465204 2.565428515518978 0.0
7.781001557847192 1.955874236406257 0.0
7.992134447300669 1.949184538864554 0.0
8.593074792993455 3.143159483125708 0.0
9.1291360203536 6.226877897052981 0.0
9.072154326613617 6.338696745620542 0.0
8.916532550320525 2.566986282201109 0.0
8.984021113721658 2.449252898983242 0.0
9.178032243215632 6.120533546076094 0.0
9.213703592343162 4.244823670856978 0.0
9.11972142641474 2.449071238668887 0.0
9.052853896812186 2.33190758581705 0.0
8.635035926402708 4.462329956179506 0.0
8.773614475966344 8.657865377672689 0.0
8.596400917257634 8.67759750279447 0.0
8.942023339420883 8.644678093589654 0.0
9.19471670675691 6.33096438039349 0.0
9.138460613363325 6.443043552768813 0.0
8.66620319432524 5.916297234509582 0.0
8.606669825267202 6.032658196729024 0.0
9.27222540210304 4.341341907533128 0.0
9.013782808177437 6.451040569407859 0.0
9.08360982569773 6.55729980456602 0.0
7.885622149776354 1.768093045890686 0.0
8.095672144455353 1.768790621151345 0.0
9.208772072925791 6.549717411809656 0.0
9.154272208194383 6.662613503537815 0.0
9.187669783927937 2.334640996932141 0.0
9.122379015831417 2.215832190697178 0.0
6.164077036161143 6.404611236428829 0.0
6.062367614988677 6.224307160647549 0.0
8.987075041759633 2.211477580983978 0.0
9.056972755801603 2.093573581203428 0.0
9.194557288902232 2.096029761809264 0.0
9.131223008370409 1.972713028695079 0.0
8.87381302587057 8.795793668920256 0.0
9.039169086943392 8.781606667490083 0.0
4.662813350519927 3.228118291851354 0.0
4.474181267994617 2.945703616023359 0.0
6.562627723301209 6.075544382232434 0.0
9.326886053211574 4.243083624343211 0.0
9.280374192897945 6.656072830232892 0.0
9.224718905178564 6.766740750539347 0.0
4.703284910421452 6.528907865005451 0.0
8.955136474970331 6.565989985649191 0.0
8.998148826814893 4.865480736169776 0.0
8.99429836796776 1.965972383552685 0.0
9.065669391141741 1.847195105148808 0.0
9.207236162050343 1.853010386995843 0.0
9.143218073349985 1.725630086781897 0.0
8.998867447699345 1.719378449325465 0.0
9.082595782768397 1.592017827427701 0.0
8.92804562738841 1.585238202229766 0.0
9.01637794607019 1.453847302675876 0.0
8.854253119154375 1.446306868730686 0.0
8.941620273019874 1.320083886766936 0.0
8.775393064215876 1.308487027359826 0.0
9.102170347200483 1.324733726345249 0.0
9.013857060361985 1.178821526410403 0.0
7.991031819452564 1.587689878441685 0.0
7.767218744640202 1.595993197647291 0.0
9.191539171305216 1.194087248761656 0.0
9.123965901037613 1.057102462689568 0.0
4.853921953226772 3.470213116851758 0.0
7.496563223334782 3.470157221608763 0.0
8.536691379028115 5.921845852206257 0.0
8.475496498707471 6.037633662010236 0.0
7.978668526342969 2.307231488316941 0.0
9.384721922092124 4.337357165846226 0.0
9.331039180200886 4.435926256444196 0.0
8.546261775564837 6.150267290476958 0.0
8.411727261785726 6.155319300628062 0.0
8.972203609044218 8.930944433074036 0.0
9.133480321468399 8.90955269607895 0.0
9.197778815538276 8.768743880012563 0.0
6.162231825784922 6.05277753404107 0.0
5.962111081146334 6.046949845237622 0.0
9.268727788642101 4.146883230687689 0.0
9.380694211527906 4.144811697563401 0.0
9.323823335199954 4.049557759546529 0.0
9.283324894520613 1.736313094621396 0.0
5.858151623803662 6.22041808248046 0.0
5.759668475561988 6.038806123495502 0.0
7.836860473863919 3.191674397465999 0.0
9.348591928839294 6.75855034547469 0.0
9.293979592221298 6.870213350675044 0.0
9.170543172728557 6.879819332293818 0.0
9.240028263813034 6.983394994050525 0.0
4.347372565145963 3.312731475520695 0.0
4.114183445909965 2.96879678229065 0.0
8.616264880152233 4.042035981070631 0.0
9.403174760076901 6.650407069150438 0.0
4.173860112179449 7.723461240865885 0.0
9.365302975518428 6.973476802087294 0.0
9.312420275675276 7.088420778208979 0.0
9.184876614539778 7.0978133687822 0.0
9.25921281729617 7.204979813006656 0.0
9.12816413817609 7.21569648263899 0.0
9.203944409919862 7.322703303071253 0.0
9.334311975087337 7.311477957762272 0.0
9.280415785210538 7.428795599957155 0.0
9.274060219641907 1.066603180421249 0.0
9.211820491509728 0.9316562593680151 0.0
9.050684011148748 0.9017681241401576 0.0
9.441953732403995 4.432092590771756 0.0
9.394725873909666 4.526051349391942 0.0
9.43453556160865 4.048003950509361 0.0
9.378043599351757 3.952631412328806 0.0
9.289691247910705 8.890746792319852 0.0
9.228148443138926 9.030109127390128 0.0
4.440757888677695 6.389562448928118 0.0
4.689874463978985 6.239329075084555 0.0
4.291519540095677 2.622920583112654 0.0
3.886073352912894 2.632778677714434 0.0
9.344015622314338 1.202401041544343 0.0
8.193292196814806 3.849649660906171 0.0
6.960946604527747 6.07044529864598 0.0
9.347708267319902 8.756364147482309 0.0
6.826423138602714 3.261415861395883 0.0
6.06309517882478 5.884563187328262 0.0
9.4085057714426 7.414123963607981 0.0
9.356416821537886 7.532359471354527 0.0
5.042074134251055 6.938947182785697 0.0
5.063988238156824 7.311205832605263 0.0
3.946666851334923 3.30681624613374 0.0
8.189857914071878 1.939951128540477 0.0
7.880690277686857 1.38928908049477 0.0
7.63766396748483 1.399736360041063 0.0
9.345004233592562 1.857695941115052 0.0
9.440465164139875 7.085860901905448 0.0
7.918332480761888 5.744468010879592 0.0
9.08007135068879 5.372457017512481 0.0
8.78639561093144 3.718391405525285 0.0
9.356843485085705 0.9414458825132457 0.0
9.29705128845331 0.8103081541678832 0.0
9.251825423225316 2.451701826351773 0.0
8.483895366325516 6.270717564685176 0.0
8.346386886249478 6.275973306650227 0.0
9.493299170161215 4.138582531223591 0.0
5.321115649032961 7.117073603021904 0.0
5.354076009109965 7.436189411362466 0.0
5.597984079819928 7.254284331170681 0.0
5.644042313435943 7.564172740776336 0.0
5.383963016128051 7.753854027984002 0.0
5.681168258142109 7.880444993178456 0.0
5.935548099874979 7.687258900444162 0.0
5.979508404301389 7.994332725561488 0.0
6.21936843555201 7.802335560754011 0.0
6.267092590637372 8.104873033518185 0.0
6.498845418385807 7.917606504106031 0.0
6.544600005636809 8.209910620392591 0.0
6.77336078689533 8.027284686082275 0.0
6.814840179123049 8.311778392637773 0.0
6.721304148677048 7.737863326704131 0.0
7.031320924898797 8.1335673274533 0.0
7.077388928622946 8.403901803728003 0.0
5.417471987089176 8.090112295667405 0.0
8.845427688507666 2.446352368201366 0.0
9.318512319918124 2.339233739859646 0.0
9.380241452597096 2.451895615249572 0.0
7.283805558009199 8.237518806365102 0.0
7.329200330160381 8.497045124353782 0.0
7.233272584416691 7.991590926766813 0.0
9.142592248414191 5.471315142785471 0.0
9.196303265878848 5.36738298742727 0.0
9.25795832955665 5.465260877691205 0.0
9.310581303233182 5.36341558704714 0.0
9.371094700882272 5.459458038195667 0.0
9.422767107822985 5.360687090455724 0.0
9.36402660964156 5.264821436196721 0.0
9.474220736978928 5.262802348886269 0.0
9.41680330511366 5.169477108906666 0.0
5.168675939028436 4.895496152382537 0.0
9.482591449057548 5.454699312257291 0.0
9.431567605310825 5.552723344040521 0.0
7.531449703396948 4.741663470323411 0.0
8.517293123442691 4.672601123164268 0.0
8.459978676626639 4.778466809901586 0.0
8.396595115309985 4.67568709170855 0.0
8.338966609235166 4.782101664607259 0.0
8.275355646032752 4.678829956447008 0.0
8.217675280223542 4.785699596769931 0.0
8.28149024865807 4.888803783902183 0.0
8.16019781596952 4.892696417098926 0.0
8.22433278506531 4.995725219088695 0.0
8.102825704443651 4.999629142625341 0.0
8.166887930010795 5.098242831115916 0.0
8.034904900788316 4.896825406879729 0.0
8.15353539905931 4.682103688185489 0.0
8.211891449058882 4.574219757233394 0.0
8.290305306104333 5.094007100958221 0.0
8.225684228618732 5.201525567655179 0.0
9.444618942559746 2.343141375196729 0.0
6.929446520625337 4.868116916840016 0.0
5.737810725167649 4.893891407574175 0.0
8.720389971487277 5.38508368411851 0.0
8.805734920311323 8.951818172412821 0.0
8.905272694453211 9.083303226359831 0.0
6.006155038818204 5.171375272745409 0.0
6.431496448228514 5.152985998213245 0.0
9.052675024457304 7.106590131831544 0.0
7.740007013494393 6.09727525827826 0.0
9.375852260355511 9.013078430361404 0.0
9.32035844773103 9.14584923943073 0.0
6.989707597683965 5.146377438798643 0.0
9.488190206836386 3.951168069367155 0.0
9.432429152094464 3.855725756072153 0.0
5.568386402814275 5.185723849666124 0.0
9.525561551078322 5.166162126187324 0.0
9.465026391994275 5.072601962964018 0.0
9.320357339516937 3.857795423728873 0.0
9.375955927831914 3.759314274140895 0.0
9.261783786753899 3.761412578759438 0.0
9.31820665563318 3.661845422072752 0.0
9.431798673168924 3.660830894813109 0.0
9.374584413615914 3.563138564686839 0.0
9.48759661134647 3.562294297118573 0.0
9.431339678707085 3.464016717943268 0.0
9.417896212887529 1.746970678437863 0.0
8.731705369070733 9.110902182838881 0.0
5.652297951447118 6.21188565774667 0.0
5.569122518069258 6.024400786163834 0.0
8.257007204149394 3.505875091031567 0.0
8.717428603143034 2.925525757227976 0.0
6.882852832747376 8.57686572931064 0.0
6.337330066435714 8.416819098143066 0.0
9.50188906539997 4.521022403818629 0.0
9.453500859905136 4.617181635748691 0.0
9.46806769570129 6.749352117850711 0.0
8.836822104875719 1.72282859852854 0.0
7.481071063421426 5.64593758994851 0.0
5.668814988976305 5.86611128457842 0.0
5.487644760735084 5.847591822776978 0.0
8.993992818065195 7.228173913870249 0.0
7.98322414937693 7.229980191466666 0.0
9.22810751684646 7.54864871395298 0.0
9.304103360459063 7.654622011545798 0.0
9.432787371848761 7.633691049023619 0.0
9.382619818023882 7.759136995934441 0.0
7.239096822516492 4.679179578301165 0.0
9.47692479956498 1.861231395362419 0.0
8.041243110813022 5.095895152648969 0.0
6.190208781188077 7.509864122823853 0.0
9.283062812782122 4.549418667685757 0.0
9.503847665760087 2.450295046295932 0.0
9.443345385250678 2.557904120404248 0.0
9.52009568463353 6.644015937008899 0.0
9.203119005973903 3.662458522935253 0.0
8.406198651282708 5.92630414760378 0.0
8.467263597743843 5.811987729136874 0.0
9.461423029059445 9.128120577356565 0.0
9.408445330070542 9.26024300250086 0.0
9.266505293379728 9.277952925446408 0.0
4.14874709022218 3.631681332690154 0.0
9.437448107949258 0.8198473430736303 0.0
9.376993771693973 0.6910550697058979 0.0
9.22882356848217 0.6931820370818127 0.0
4.451823867195988 6.103664366188579 0.0
4.200031743909027 6.232039028149317 0.0
4.687154754667774 5.975132870483986 0.0
6.268889397098538 6.592235545990395 0.0
7.509366161722768 8.340075462391164 0.0
7.564775703413765 8.59800936579159 0.0
9.542148732924264 3.854614593058991 0.0
7.036231103929761 6.550562550831048 0.0
4.089373665437328 2.268193930262139 0.0
3.642558884866483 2.250386188148396 0.0
3.442182385618804 2.651948803899947 0.0
3.146832503011753 2.222630466765926 0.0
2.948870467975985 2.805088883766417 0.0
9.352005315330274 5.067356449300542 0.0
9.31729677031493 3.462944187594675 0.0
9.37428383619102 3.365546369736205 0.0
9.4883538239391 3.365384871181599 0.0
9.432147665178338 3.267287636377487 0.0
9.25034519267688 7.775848812012313 0.0
9.332091350002502 7.881724023243533 0.0
9.462101000264603 7.86490055671988 0.0
9.413353271651825 7.98561007219363 0.0
8.273592814723814 6.158623919352561 0.0
8.207135014732339 6.280394934566054 0.0
9.541483811580331 5.548224291759592 0.0
9.491365919893726 5.644847811894615 0.0
8.088095771120983 4.577581369371366 0.0
8.14760102783746 4.468303741922308 0.0
9.556217963323956 4.414867468889523 0.0
9.543667331547693 3.266908751519594 0.0
9.489307652535885 3.169908976697059 0.0
9.26285575842982 8.635341362685686 0.0
9.403220742003983 8.621447866627538 0.0
9.326013417886902 8.506778946171965 0.0
9.455477927154853 8.503896705359047 0.0
9.566646674069602 4.611465258087684 0.0
9.499341049870914 0.9352184973273918 0.0
8.683891958597638 1.444705608998412 0.0
8.599973456173778 1.287265568270043 0.0
7.760988189317371 1.175381292562583 0.0
7.50927661322749 1.171223823957793 0.0
7.380927152434357 1.411062577009695 0.0
7.242417847270241 1.170759311509981 0.0
7.107236746116019 1.421234419770886 0.0
6.960799033544566 1.169618322344823 0.0
6.817786081200392 1.434174581170586 0.0
9.48095050141868 8.738557748483624 0.0
9.319762046171894 3.263060331456388 0.0
8.920653400180534 7.117307656029475 0.0
9.452431221190624 6.544166520883111 0.0
9.571407933653493 6.540336592280795 0.0
9.507586285214174 6.443281357841339 0.0
9.575252974749443 5.070210512157044 0.0
5.755172844377253 6.370710487467459 0.0
9.541351959064952 7.969072511059531 0.0
9.354607289792183 9.3921968735401 0.0
9.495213435762107 9.37218405175897 0.0
3.77688136092967 3.643094492921176 0.0
5.460967180339239 6.159077196937325 0.0
8.656589552918996 5.283032675040985 0.0
8.599307076390474 5.387421722684671 0.0
9.584017606465821 5.263931993965828 0.0
9.51536593891754 4.977534386249715 0.0
7.788544970111893 2.70578432810479 0.0
7.381746833264364 8.755477463411431 0.0
7.615969996822885 8.852710176548548 0.0
7.783643411970649 8.691528137204457 0.0
7.845017394185501 8.938777577473743 0.0
8.570520580943368 7.342304222498308 0.0
9.103648004226827 5.781084627507008 0.0
8.338082930126799 5.815990105349368 0.0
8.930848895071895 4.561111316304916 0.0
7.381089602119859 5.983657236035151 0.0
8.42066837692862 6.393608568217351 0.0
8.888256157021065 6.459558428285236 0.0
8.826495664731354 6.575679897210801 0.0
4.22522220414496 5.921354747981145 0.0
3.943296448343383 6.075578573904587 0.0
9.563175937841836 2.554860696349795 0.0
9.505342423182917 2.656889632284623 0.0
6.660863480070611 1.168750929063519 0.0
6.518316961679488 1.436478598119306 0.0
6.683474168246802 1.694104067636375 0.0
6.376799057174731 1.707382100972048 0.0
6.205091481342603 1.443621641108414 0.0
6.058670988071357 1.728841803855816 0.0
5.877457486049096 1.454297236926778 0.0
5.724979192982589 1.756666409586195 0.0
5.529885788012015 1.462283739157555 0.0
9.514953777019835 0.7018468683209754 0.0
8.398665270372675 5.702731562702358 0.0
9.456442249775696 0.5772068858285652 0.0
9.565795671866349 2.345573662774494 0.0
8.830758563027459 9.247271599108435 0.0
8.523580738257648 4.88015211128435 0.0
5.580123316488715 5.701889892660689 0.0
5.398591029446707 5.685938459654249 0.0
5.367686360823392 1.778740548277203 0.0
9.546603444041448 1.754984055696778 0.0
9.489649223089446 1.641312329051244 0.0
9.617973952467912 3.363804764345866 0.0
9.584322830999731 6.729956156156573 0.0
9.597221861144487 3.948534024289882 0.0
9.49401963819799 8.089507968561776 0.0
9.207321074262563 9.416906871900888 0.0
8.27185428346661 4.464932191097996 0.0
8.207416067213774 4.35878753684812 0.0
8.332747746635944 4.354903699457511 0.0
3.990181919126853 3.930792395858886 0.0
8.267392138262498 4.254008221702929 0.0
7.997788712685495 1.196805377512679 0.0
9.600316638269724 5.639973985281733 0.0
9.550939606739425 5.737313319038155 0.0
9.44084303195315 5.74233753256161 0.0
9.50112296154558 5.834555019909565 0.0
8.897429225733994 6.685415510921676 0.0
8.762930941408914 6.695907295903629 0.0
8.654628175336732 9.278157371342388 0.0
8.544676900803436 9.133790942553834 0.0
5.294904777716057 5.855935872688884 0.0
5.216749389964556 5.66865685845661 0.0
9.508453581298625 2.239460033375932 0.0
9.599691370793206 3.169496930704394 0.0
9.546615051106684 3.073514534194011 0.0
7.484714626923596 5.028675123117963 0.0
9.588496050271255 7.850836295555126 0.0
5.153197381012662 1.471340286561097 0.0
9.433168304679345 3.071871997104804 0.0
9.610464706874994 5.829217654498672 0.0
9.561407772947403 5.926179534044419 0.0
8.273381980676042 5.705233340662362 0.0
8.330794188929296 5.594351887246082 0.0
8.207319603076424 5.596747949305344 0.0
7.251338559467102 5.233758892662348 0.0
8.708518799790543 1.130513882092466 0.0
9.590155250193266 0.5878623138195824 0.0
9.389919385420015 5.841079912164009 0.0
7.991397852194216 5.859910582924319 0.0
9.624951589233206 4.975554514425905 0.0
7.240016788025947 2.531866266726309 0.0
7.635666783493215 3.873554782053258 0.0
9.608476620993713 1.863530872936442 0.0
9.365330459496413 8.10677840682376 0.0
8.775076110585598 2.572737931759856 0.0
8.699389445914996 2.444602334375113 0.0
8.625078713232146 2.580891022578613 0.0
8.54447196848446 2.447624719286678 0.0
8.468898498943965 2.586757328881282 0.0
8.62282309213608 2.307826916202421 0.0
9.622102662978762 6.439307895185218 0.0
9.561995355724862 6.35103962032292 0.0
3.898245450818314 1.856155797593496 0.0
9.681759177700954 5.07069253017652 0.0
9.059254996454502 4.963357716933865 0.0
9.113144532326562 4.861710138088372 0.0
9.62140874877204 2.656009146517733 0.0
7.884510615470827 0.9666888912541309 0.0
8.14902661050739 1.005010215149227 0.0
8.491263206618079 8.527197931363634 0.0
8.408859203395778 8.697060715788105 0.0
6.54422152733529 1.954566069381189 0.0
9.563546573097593 2.755667904356369 0.0
9.453065492925557 2.761122255953964 0.0
9.676889098520615 2.755084315170127 0.0
9.678287124781653 2.556838324720633 0.0
2.60254317790297 2.278874965850319 0.0
9.211706272534968 4.050470567310489 0.0
8.526711683538949 5.698821878547752 0.0
8.296604023060945 8.533761944401608 0.0
9.649704314258118 5.543946557831669 0.0
9.651176136337964 3.85122804518279 0.0
9.44590154800397 9.498503704959054 0.0
9.580491248736612 9.476376347552954 0.0
4.3239388803087 3.921156392977062 0.0
9.65737873521736 3.075324100817917 0.0
8.128000846282253 6.160273991836929 0.0
8.06242981852327 6.292371360998262 0.0
8.500465019503922 1.442700595221201 0.0
9.615253212967009 1.649819368149096 0.0
9.561768620580791 1.538553925606111 0.0
9.435477757657937 1.527391516499924 0.0
9.627993450010088 2.242685831452484 0.0
9.5338252733548 0.4673994795805215 0.0
9.398055066504014 0.4589059948533885 0.0
9.669486082509058 5.920177035588319 0.0
9.621072177439727 6.016493814615133 0.0
9.506185962103057 6.018397021409126 0.0
9.196884440497488 7.898824858961557 0.0
9.112591143666748 7.789491461180181 0.0
9.664357762385308 7.950712034233033 0.0
8.46233617997115 2.308903464128035 0.0
8.547917980328803 2.169381684694277 0.0
8.139931430059324 6.410762600521521 0.0
7.672499127532963 9.099143622036436 0.0
7.91372855627271 9.178704612763656 0.0
8.463425076318451 9.290653726808348 0.0
9.643938029094286 9.335632419679458 0.0
9.647017668702574 0.7068996148634754 0.0
6.241662276606473 5.884018212993202 0.0
6.157742245066693 5.73500474100449 0.0
6.318815619949124 5.730068085823802 0.0
6.247706374231452 5.593094310939028 0.0
6.406948541886973 5.593272398468375 0.0
6.092564106310554 5.587409338401505 0.0
8.535507922245372 5.286142900439676 0.0
8.022959839404006 4.471630490587016 0.0
7.963561162854596 4.581393556789843 0.0
9.683487139413305 1.546750704925431 0.0
9.630761777960082 1.435922217091829 0.0
5.121714348989337 7.950140247572198 0.0
5.136464096196084 8.310254432483559 0.0
5.47349124035624 8.455234262268478 0.0
5.176273618280354 8.687190323573228 0.0
4.796664658962938 8.592678692862421 0.0
9.568705729418735 4.887269869750176 0.0
9.462711651199594 4.88832222094458 0.0
9.674903475028225 4.882285174433025 0.0
5.4996067353406 5.546583260717527 0.0
5.663632234555963 5.557613452957074 0.0
6.829408195405585 1.947174574944512 0.0
5.336529198289861 1.127585641139875 0.0
9.672387559812332 6.34138351957329 0.0
4.463988917379896 2.271060678869338 0.0
8.618048281355405 6.263841736419089 0.0
6.480949808711781 5.74815588680617 0.0
6.562207427719153 5.592185077216444 0.0
6.643040463857446 5.721233693378952 0.0
6.712825900331884 5.588664360236 0.0
6.79240375630333 5.711383948285569 0.0
6.86115931532141 5.584697050428064 0.0
6.939210100691576 5.704407337029545 0.0
7.007668476576536 5.580801046893123 0.0
7.084627386867475 5.702817970154801 0.0
6.633257976075473 5.460881327825488 0.0
6.931430743764456 5.461960451448691 0.0
9.682652370938209 6.533133024505995 0.0
8.761108695241376 9.450742747770144 0.0
9.146031326900015 3.764292700000154 0.0
9.089378801805193 3.661317181076136 0.0
9.514354521818781 8.994988681611192 0.0
8.157650730500988 4.262987189670279 0.0
6.329633198899328 5.4647789391701 0.0
2.340685767996258 2.811285337457589 0.0
7.379572471323651 0.9290892725587991 0.0
4.171878172186605 4.222320767259098 0.0
4.4876601621649 4.16473354200826 0.0
5.336389369563535 6.806464508860387 0.0
9.595468321212476 9.108133206829102 0.0
9.645038675267227 8.982113951305912 0.0
8.393140678816192 4.246338342095281 0.0
8.309440721624494 4.155300532283633 0.0
9.418269339704423 1.9925512363779 0.0
9.662781807969623 0.477809346089035 0.0
8.011297869803792 0.7518828483803571 0.0
8.250149975885678 0.7646904662196189 0.0
9.608674873602773 0.3618049194050078 0.0
8.692696069692623 6.582927327365709 0.0
8.628225948401226 6.705702462696891 0.0
8.701883181418305 6.822086652299242 0.0
8.559276855155542 6.829564723911442 0.0
7.069268463354993 5.459534423493629 0.0
2.654575201159115 3.323490466195074 0.0
3.610801136544596 4.044075244426243 0.0
8.263757217166944 5.48730323490738 0.0
8.138838162809126 5.491254533497952 0.0
7.90196833683664 4.477386962763833 0.0
7.987943097943191 3.978756490171551 0.0
9.704623491880403 3.945605151832784 0.0
9.461009573830147 7.301728818091931 0.0
9.532468631193666 7.399916015174975 0.0
9.582688928417856 7.292330983701011 0.0
9.652579613269625 7.387768793572397 0.0
9.699264016151023 7.282867433965265 0.0
9.633305589700536 7.188543855060478 0.0
9.505576100168666 6.961225778216469 0.0
9.43876966151099 6.342441564206569 0.0
4.908483672172518 6.098703904450545 0.0
9.135448256237908 5.269827196966999 0.0
5.905650502271389 2.025036080946255 0.0
9.709890722072377 9.452748507541063 0.0
9.663337613522643 9.572126259365891 0.0
9.603900123387826 7.495180532331903 0.0
9.720147629525837 7.483400774981126 0.0
9.674588415444239 7.588303295299578 0.0
9.653186673863587 4.039274180923234 0.0
9.053164539680804 4.764545162185531 0.0
9.164908495749003 4.763017269285045 0.0
9.226019227262443 4.858029410614327 0.0
8.809947621994619 3.4964384919072 0.0
9.10538997155458 4.665865142902959 0.0
9.331074106432244 5.748993480915537 0.0
9.055854333858068 7.918554535314415 0.0
9.446431573964945 8.209836764658437 0.0
9.573844810886287 8.191100251691205 0.0
9.309704769895653 8.244395007943949 0.0
7.240329561730736 1.676197957122907 0.0
9.543389817573933 3.660019800390455 0.0
9.598599341122098 3.563130123982772 0.0
9.652615161407017 3.658119804270645 0.0
9.706336063693934 3.564815526226687 0.0
8.632284427755456 6.946688912416058 0.0
9.682863230715835 2.349655023034811 0.0
9.571538455120994 2.142369886250143 0.0
8.090821900439733 9.017409120951333 0.0
6.812258669899192 0.9007667548831626 0.0
6.50135254578461 0.8974046495177885 0.0
9.598335906230732 6.246437748035812 0.0
9.719677442549804 6.253968775436637 0.0
8.593026822691716 5.180101360605356 0.0
5.537586126848265 8.836083861509138 0.0
9.688689404995035 2.143487155934306 0.0
2.821389253975936 6.507820864074362 0.0
9.176571289960709 8.507736431357309 0.0
2.918303740542162 8.256728920338826 0.0
3.428955230180972 8.401446814887457 0.0
8.490587404589881 6.715350139132777 0.0
8.86049054904785 7.243279881821806 0.0
8.93696309213556 7.356650230611625 0.0
3.951931175165697 5.78308550088855 0.0
3.65055612573298 5.91672400098539 0.0
3.668142216548471 6.247526235973777 0.0
9.717269848920886 5.821831227352286 0.0
9.708364917734201 3.164198601626433 0.0
8.45581975650687 4.569560863828342 0.0
8.204448312099833 6.040774355519757 0.0
8.65969449127868 5.485991799508151 0.0
9.707534571012967 5.634423933296901 0.0
9.62102991883279 2.849662850313935 0.0
9.144093558002634 3.560383427867003 0.0
8.29763273805118 1.77155302934031 0.0
5.280452715709455 9.01633391004168 0.0
8.984558945859158 6.99932633710603 0.0
8.4157550875812 1.275784953143711 0.0
2.068078118650995 3.355462780535101 0.0
9.205703884756806 5.568274778556933 0.0
9.745857863753141 7.178456670302003 0.0
9.681628895748586 7.081494416756802 0.0
8.875818787971069 6.240744812097083 0.0
7.993733797566922 6.414830952863579 0.0
8.462810157069566 3.377071044664789 0.0
9.29428363519789 4.759591981903337 0.0
7.933956818298286 5.97437536746848 0.0
9.028281726378319 3.558713145763133 0.0
9.083461773461467 3.455531762175701 0.0
9.73231939683535 2.849247643393067 0.0
6.70072305037728 2.192432536215492 0.0
6.423245125077639 2.212870246546939 0.0
4.931537051605536 1.135086496804522 0.0
4.746426561586179 1.500381091957315 0.0
9.707706579932626 7.836419656220658 0.0
8.590593344701457 1.595639668013959 0.0
8.708946574109854 2.1688179918246 0.0
8.634728854549891 2.028564483452208 0.0
9.230357659411311 8.129337203173913 0.0
9.102841374461482 4.452881308250647 0.0
8.472081531214734 5.388993924853032 0.0
4.925996806199801 5.844046944846857 0.0
4.702806345752284 5.745688656289065 0.0
4.884357002239844 5.633237011762874 0.0
4.709628434300812 5.536404116679045 0.0
4.530800966746534 5.627044171217377 0.0
6.040296145349247 6.603808099703576 0.0
6.162203578696918 6.795213950202512 0.0
5.923135943221574 6.824060069869489 0.0
6.046693245732212 7.010423490915212 0.0
6.297337598588478 6.979895528204233 0.0
7.760448385794147 0.7294020304851334 0.0
8.492228348169641 6.958778476405878 0.0
2.89219822877093 1.704113597264478 0.0
2.26178643438086 1.7814602252425 0.0
9.726968895980871 6.009547057102511 0.0
6.63195110828313 0.6072886418835157 0.0
7.984023036954866 7.515675826210831 0.0
7.893857204140559 7.681876703427663 0.0
7.778465117872411 7.537836322197895 0.0
7.998204230811618 7.844922503023499 0.0
7.798554315988981 7.858161805718108 0.0
7.917846202023782 8.03040048103727 0.0
8.547520504556728 2.721261126162116 0.0
8.39253850806587 2.732073315877738 0.0
8.306047241032278 2.59069854402512 0.0
8.233011054235162 2.739783364361515 0.0
8.318836035587811 2.879838477099622 0.0
8.159530874574331 2.888511553151382 0.0
8.245490421394788 3.024568439743106 0.0
9.759103003747676 3.077839427881478 0.0
8.083610090773394 3.033523757291178 0.0
8.174562583800352 3.166768504406541 0.0
6.046769434852523 1.155662270344939 0.0
6.968371001421964 2.176347877216873 0.0
8.324858098380334 3.152966249334499 0.0
8.145556596142626 2.609897633546475 0.0
8.970652052821418 7.804556541250797 0.0
9.033737629244714 7.681328986528639 0.0
9.62347010002576 4.796939565664328 0.0
9.72520380348743 4.790261082613535 0.0
4.882631186210167 5.455006233451049 0.0
4.618356368594037 3.933076284395493 0.0
4.748083507220199 4.151025177732873 0.0
4.641724290430313 4.358202249373887 0.0
4.87055838101999 4.337900676660481 0.0
4.974114446887331 4.149149057174687 0.0
5.081577844806959 4.3240148266423 0.0
5.179521650033781 4.148725180298481 0.0
5.276261408871418 4.316673822529601 0.0
5.369189110897883 4.148362797753505 0.0
5.463892033849439 4.338819369807593 0.0
5.550828466075906 4.146274465971151 0.0
5.646554822352869 4.303571429647391 0.0
5.728109623160046 4.138582010823754 0.0
5.821689108984419 4.291959598724587 0.0
5.906082534948073 4.141649907302701 0.0
5.99655838673762 4.288752711512514 0.0
6.077312859438928 4.141011188943332 0.0
6.164215275138099 4.281164574562373 0.0
6.241782344986693 4.140701084167517 0.0
6.324316420613108 4.277393447415522 0.0
6.40284165425941 4.140026953305852 0.0
6.483655157361099 4.273418937894759 0.0
6.561170698911611 4.136221843106807 0.0
6.63512300179586 4.269917278694155 0.0
6.720306110251473 4.133393659385058 0.0
6.63777078218551 3.99617001426095 0.0
6.802492763973074 3.994355399489989 0.0
6.798834760478153 4.276914787769972 0.0
6.15377608509923 4.000134206628027 0.0
6.548727135071258 4.400510710520637 0.0
6.251479300130713 4.421887359316258 0.0
5.275876048175579 3.979624500657822 0.0
5.910905077162284 4.431174408784691 0.0
6.717070288412452 3.851239795555301 0.0
6.883499045994213 3.852555480300214 0.0
6.96664848901999 3.994033961856844 0.0
7.048208567116626 3.854750001965969 0.0
5.810004974283072 3.982497501655442 0.0
5.586615391658107 4.471070246359201 0.0
6.547331954052155 3.853872077215347 0.0
5.179081233207816 4.485638492900557 0.0
7.126615227065496 3.995337770596979 0.0
7.209459742762513 3.856893463870469 0.0
7.130226097876905 3.713620439679428 0.0
6.63075064074106 3.699684148676045 0.0
6.446985573861992 3.697358756862005 0.0
7.043151422977365 4.131713936060725 0.0
7.198322215260019 4.129850614748363 0.0
7.119378405252723 4.26005098890218 0.0
4.797146270976422 4.525762781577414 0.0
4.608329098388589 4.573584257851931 0.0
7.294442092743627 3.720853338661503 0.0
7.215753312764997 3.571378507508807 0.0
7.049631633956289 3.568047985538775 0.0
7.133765707749521 3.414282375958479 0.0
9.755079417839903 5.539705890434435 0.0
9.698955703441971 5.450920012703194 0.0
9.717604099406742 9.09084770432896 0.0
9.276716006673976 5.847248422342224 0.0
9.339081208926798 5.941174203394446 0.0
9.031261921742963 3.750271483819014 0.0
9.08721978689863 3.853416037308712 0.0
4.801461566647803 7.510704110489921 0.0
8.206553504932042 5.818005960412773 0.0
7.362361315389098 3.863102442315545 0.0
9.492826845316191 2.963845037486267 0.0
9.376710375304633 2.97229517374228 0.0
9.3192743723601 3.070687802230453 0.0
7.915389082113898 6.293241865913004 0.0
6.735006382384437 5.832450056405368 0.0
8.456481836836168 4.35369289249905 0.0
8.517718268476031 4.246675068616396 0.0
5.583512022030555 5.411069060406398 0.0
5.73625200174779 5.422617752052123 0.0
5.81006929286229 5.548584937688919 0.0
5.903438861894402 5.420604003204523 0.0
5.43801870974416 5.402925156167655 0.0
7.022641548594327 5.825217331839047 0.0
7.165095795605366 5.826005223633447 0.0
7.223078558430726 5.690146755650336 0.0
7.841396000338385 4.586693006493787 0.0
7.904793170875705 4.690826189066096 0.0
7.785999820520073 4.696719777099973 0.0
7.846448506395101 4.798518978096564 0.0
7.728149182067156 4.803800941124008 0.0
7.788983823826226 4.904802634695232 0.0
7.672018889153144 4.910077510508749 0.0
7.731996012352178 5.014717724244488 0.0
7.852072803124419 5.00743796185411 0.0
7.779278698005006 5.118909346425974 0.0
8.088113864063853 5.605434545811022 0.0
8.016457362785575 5.494849890158723 0.0
8.072290383394757 5.385594956317259 0.0
7.95068657972964 5.38825563681957 0.0
8.309366678475389 1.438342408757099 0.0
9.748160780780179 1.447794693754379 0.0
9.696454228162398 1.337889922375316 0.0
9.568813761940916 1.329560834053294 0.0
9.638326779791626 1.226729570935787 0.0
8.472132467407484 5.182856496818138 0.0
8.066211547412054 6.53691730655352 0.0
8.217035586462373 6.522976700918602 0.0
3.544839338670893 3.324491119989469 0.0
6.999740002965287 5.347729916247808 0.0
6.874544698914502 5.347027470386579 0.0
4.880451234715014 5.193043717957879 0.0
9.104510033763066 9.313204713465637 0.0
9.0466357104558 9.45359399494339 0.0
9.146803165140184 9.569652364413551 0.0
8.134107047896672 0.5527712356100052 0.0
8.369770412730738 0.5571215815175228 0.0
8.47386979744655 0.7564607169846485 0.0
8.585193608569258 0.5749174254532757 0.0
8.683868132726584 0.75505070091701 0.0
8.787381435061018 0.5813987798627239 0.0
8.697570280442534 0.3771156480326233 0.0
8.530048434259976 5.077280516000916 0.0
7.995091351438729 2.90367515012593 0.0
9.731083608815164 1.662638626153251 0.0
7.260488865351954 4.255073962371814 0.0
9.760728358076392 8.990038509880067 0.0
9.716710396257366 8.884160310398862 0.0
8.794627466210242 7.369659405098349 0.0
8.868068657550866 7.515048014893154 0.0
8.702594597629135 7.510501129643432 0.0
5.132320689147051 0.7610757801158905 0.0
9.755852887652699 3.853180024615871 0.0
9.787424819067885 2.757921105725315 0.0
9.731193479931608 0.3736343090103709 0.0
9.796526908308536 0.489684029254899 0.0
8.226019692057042 2.453349105940535 0.0
4.560989821496479 5.428206018250252 0.0
4.348810639659689 5.517048281386008 0.0
8.785190163106925 7.119142251269924 0.0
9.015515413043023 7.464769766852701 0.0
9.754861440190705 3.659036930324926 0.0
9.7543610723378 4.033687839160082 0.0
9.707881226943384 4.127219992296752 0.0
9.52841017383273 8.309020665649431 0.0
9.65186044414544 8.289498614805698 0.0
9.714051275521857 8.173576484362068 0.0
8.209758892476394 8.715513071423135 0.0
8.097084883671858 8.548851201381087 0.0
8.177989947800599 8.367872862579052 0.0
7.974142434808908 8.36779470623567 0.0
8.409012054919861 2.142624252464372 0.0
7.707002321497132 8.039129945341395 0.0
7.574653123518228 7.83895791570255 0.0
9.229858094382692 5.951357214361815 0.0
9.75307989876696 1.229893222503321 0.0
9.715811155868643 1.128779429890018 0.0
9.597960915003707 1.117058287635912 0.0
9.672063923518955 1.020806103150243 0.0
8.99090422125785 9.593878510105375 0.0
8.133165456134304 9.257620998029804 0.0
7.976779931497633 9.420725324095141 0.0
9.77231778617502 7.927819487779705 0.0
7.957213679655531 4.364530256281665 0.0
9.609903116082736 8.403725680286847 0.0
9.724891358972584 8.388392708395173 0.0
9.687487059868507 8.495935345161797 0.0
9.810055520269009 8.494090598382963 0.0
9.755967487162335 8.599790818513082 0.0
9.645698986824481 8.606121319182705 0.0
9.721376049217765 8.699989876681524 0.0
9.773009257015609 4.884557953188837 0.0
9.830105798750992 4.796546393900876 0.0
9.775335108731761 4.686093304257503 0.0
7.455611517737074 3.730099283949135 0.0
8.906943567829634 0.4197477661467797 0.0
8.980613334153533 0.5814185917581446 0.0
9.081059111759728 0.4263421860552371 0.0
9.821654809259165 3.576985724143072 0.0
9.761309244784803 3.4792267780002 0.0
9.763329553045937 9.353068233045157 0.0
4.463051839136694 1.164440352584939 0.0
8.0213168204867 5.283436382300235 0.0
7.89385412333227 5.290429544753158 0.0
5.806940001023414 8.583716119232427 0.0
5.88977793877374 8.96065112858812 0.0
9.177759062826041 8.25539130897928 0.0
9.626582559276994 2.05283181283147 0.0
9.747673294325121 2.064954301745188 0.0
8.775905508647185 6.951821187702613 0.0
2.3581644273991 6.029034686663493 0.0
9.777798009058461 9.548066962498762 0.0
9.737129197219856 9.662299853506903 0.0
9.615080366030512 9.683349544763068 0.0
3.315839678697904 6.042943273456425 0.0
8.915083018115329 7.937748428923896 0.0
9.489832173860055 4.712364754630572 0.0
8.118313727862493 8.013944064029838 0.0
8.902248750797776 7.67372145952523 0.0
8.954075939212636 3.463080912810881 0.0
9.45247551997678 2.133243108303608 0.0
8.311151553157742 8.899233004613622 0.0
3.28672004268868 6.826745674539142 0.0
9.86008383798735 3.468233656255824 0.0
8.389990589860254 1.947086063498656 0.0
7.144231739553659 5.329544660076687 0.0
9.654500729007207 7.743301971143119 0.0
9.761920842881946 7.740144345898896 0.0
9.692820773976567 0.2651585113981998 0.0
9.690951720399688 6.100517071814821 0.0
9.775704281989471 6.077882312279847 0.0
9.823117117198079 4.115168542267924 0.0
9.764391943581737 4.214465954230587 0.0
9.659455011849253 4.218716850797838 0.0
9.713462125022623 4.30742830316693 0.0
9.849638067150842 4.208845651573708 0.0
6.376241713254513 3.858766051594979 0.0
6.274931849158213 3.701528298009006 0.0
7.097780104117746 1.926449727602711 0.0
2.457742027508782 3.810157622192786 0.0
2.963634206580268 3.740748099915693 0.0
5.065585416063965 5.544355730437482 0.0
9.783560252464587 7.566507987677117 0.0
9.825819294611026 7.470942204664841 0.0
9.799976114123012 1.01659516618323 0.0
9.745559590633832 0.9150866860898854 0.0
8.20473400632469 9.495828670767946 0.0
8.784586030320169 2.054461500762216 0.0
8.758471587067168 1.888286802854785 0.0
0.9188935087347281 8.510730800272478 0.0
9.674192026048217 9.20389587377276 0.0
9.796314981283475 9.185916994648775 0.0
7.206882433199502 5.452024361489832 0.0
9.773927048949279 6.334665846819535 0.0
9.830288393591173 6.225300227041885 0.0
8.25177349297509 3.282767705830209 0.0
8.099233469407428 3.304040153764131 0.0
9.607860512870598 4.315652630490023 0.0
9.403674738018715 8.367349042046314 0.0
7.611756786273919 5.018691202305147 0.0
7.549513964643336 4.923310232561835 0.0
9.80986724662116 0.2915868356190958 0.0
0.7757562810577034 3.504187313079081 0.0
7.659562100664981 4.698467529240196 0.0
6.539424975891206 3.541729955691742 0.0
6.717348880400739 3.55221857686142 0.0
6.836337579501807 2.417476958454302 0.0
7.096480496160066 5.959124656438389 0.0
7.189742782777612 4.377051328076039 0.0
7.051723187622053 4.38470822973091 0.0
7.125489805519186 4.497018383456762 0.0
6.994915621927777 4.501504591168814 0.0
7.056755276274058 4.607929817497045 0.0
6.932937068803914 4.613249390039674 0.0
6.86629288290367 4.50541343988659 0.0
6.80427099775847 4.617607827251794 0.0
6.739195362053689 4.511124964201849 0.0
6.677260697693361 4.624288827143181 0.0
6.996760608675822 4.711715831373894 0.0
6.316045249462968 0.6456945497683586 0.0
7.321834163850416 5.816449323512759 0.0
7.833101485370825 4.390058096386987 0.0
4.996572652976738 4.498711166259074 0.0
5.112334577457371 4.663858846723513 0.0
5.271923064784868 4.629759173373871 0.0
4.93773508827367 4.668006487116195 0.0
5.348137647919096 4.485934621930562 0.0
5.413454827497575 4.62999925573761 0.0
5.356581113747675 4.770594395332836 0.0
5.013422223730484 4.793321773780133 0.0
8.58674425943957 0.9312335381466886 0.0
8.776450596582496 0.9362399987293505 0.0
4.783496233934828 9.486061758876032 0.0
4.544176394620909 9.034071856445296 0.0
4.082330493623582 9.015765881393772 0.0
9.820867469965414 7.285959215547852 0.0
9.852697883440127 7.166089674802766 0.0
9.260999083164238 2.971390964911171 0.0
9.197701900169713 3.073162109379564 0.0
9.31960210441945 2.867465579641856 0.0
6.660951583415121 3.383363199709994 0.0
5.210469976037585 4.761678854423166 0.0
6.740780285297665 4.733615686805694 0.0
6.611362405615225 4.731958642073806 0.0
6.549091884465382 4.629620704100811 0.0
6.491761716522486 4.733409494449344 0.0
6.425259228542098 4.640546096196947 0.0
9.715556659367534 2.986725573570596 0.0
3.710524324925069 9.463213827486557 0.0
4.768537031214573 4.727001037865238 0.0
5.039413681704655 5.378508462165627 0.0
5.188746429211535 5.440476671296013 0.0
5.172214816037712 5.298914527247826 0.0
4.469063601436893 3.667917323494335 0.0
3.799121596584382 4.741629285988305 0.0
3.661085664896249 4.442847704416992 0.0
3.316563386321876 4.380147387454913 0.0
3.802087298647255 5.26743535640985 0.0
9.738116341343215 8.047178982429934 0.0
9.85106076399546 8.021725551312715 0.0
9.837581050304836 2.844176011307251 0.0
9.664579962075123 4.402853107737106 0.0
9.76433159763034 4.39807801415352 0.0
9.718924973226878 4.487825491046641 0.0
9.826405563645343 4.494594135148365 0.0
4.931068003413168 6.359330991212394 0.0
5.130175746947236 6.201075257041828 0.0
5.143884286052002 6.445382329515047 0.0
4.953395875296406 6.628748468717369 0.0
7.833019185167153 5.400347121613631 0.0
7.766636138801143 5.313240048256084 0.0
9.767038723422333 4.578090619166644 0.0
7.315369355237483 3.441501197259575 0.0
9.556068971301514 0.2347811136726856 0.0
5.733871280791703 4.444861510772459 0.0
5.828809543126846 4.569791247698539 0.0
5.986701526182213 4.562881783985375 0.0
5.912543327921148 4.692966271273211 0.0
6.052130330528581 4.682477327897978 0.0
5.773525984744635 4.697697018456535 0.0
6.121646311546238 4.572302645403103 0.0
6.182349700936326 4.67713231096357 0.0
5.846371383601797 4.808939734754761 0.0
5.117807918383606 5.974361363083184 0.0
6.256132501905665 4.575863546153224 0.0
6.324770064521816 9.645040261272253 0.0
7.345522892050965 4.12581088034536 0.0
9.338523512844539 4.854480276600515 0.0
9.286984287289403 4.959628690044808 0.0
5.676298026114105 4.589279806918992 0.0
5.631257891894775 4.722749088404111 0.0
7.970415275563177 5.621040275419208 0.0
9.565118337557308 7.081391220827488 0.0
9.626201005045262 6.980441083020495 0.0
9.733729506193331 6.979928568877979 0.0
9.684556253529976 6.887102896543928 0.0
9.780785815410074 6.890287441101827 0.0
9.740054813822885 6.794211367612523 0.0
6.462628988057306 7.629921412015864 0.0
6.692564520952154 7.473594130811262 0.0
6.927983108788191 7.570982428592125 0.0
6.899878641134941 7.329306734748538 0.0
7.117542472438434 7.416951094809493 0.0
7.089537168123128 7.186691566729968 0.0
7.296585396514727 7.275888419524222 0.0
6.879678873774065 7.097443005287856 0.0
7.063454637059129 6.967740076426161 0.0
7.329105042924355 7.496317641003757 0.0
6.867084781778411 6.878842928865059 0.0
7.494278796275744 7.351949197351029 0.0
7.462564159480594 7.150140034494138 0.0
7.644835001206406 7.21506678718646 0.0
6.682478929414216 7.008358327294905 0.0
6.449199855715812 7.365660640952548 0.0
7.548139855358765 7.57299228324251 0.0
7.008502809092701 7.844601794812628 0.0
7.371739019901781 7.707688433423657 0.0
5.665345294602155 5.290628720253272 0.0
3.987583013016546 4.486920698115711 0.0
8.893480480320447 0.7785000884179994 0.0
9.715485963651112 0.5955299613117169 0.0
9.761785841543585 0.7048670948649375 0.0
9.670304314877074 4.578896619304786 0.0
8.058509626083154 5.744161686650483 0.0
6.181795443628869 5.462040811515966 0.0
6.256771804808641 5.338464817889848 0.0
6.124070400983443 5.352376180901929 0.0
6.399679261813415 5.349186390888865 0.0
6.477776305607503 5.46505688468465 0.0
6.541624525938461 5.346017118512589 0.0
6.673064575428321 5.339051516933525 0.0
6.599301548842115 5.241958624987057 0.0
9.573774011620444 0.815274945835158 0.0
5.86493292693426 5.877588788523632 0.0
5.552663040119136 6.957487930464628 0.0
5.535080960199246 6.663033131707637 0.0
3.708603689392072 0.5979254716153909 0.0
3.31896983256719 1.188583855309964 0.0
3.895664898001925 1.128137111173669 0.0
6.363360407965353 6.032416442205533 0.0
9.445959758065749 1.070139246426051 0.0
9.50632172780449 1.214052376665338 0.0
9.441030033980638 1.325047485624912 0.0
9.295799464644857 1.341410624832976 0.0
9.184164107767781 1.461677744200096 0.0
6.407191016756832 4.407273313799791 0.0
5.544591888593027 0.7652641669375747 0.0
7.883090151006535 2.497506182548758 0.0
8.073420508370992 2.120510489750234 0.0
5.494822040671399 4.732314720081375 0.0
0.8986976806403217 1.464611451578306 0.0
9.536325549598013 6.83286654168725 0.0
5.972289519322897 5.727532110854501 0.0
9.82203607053145 9.443411729566549 0.0
7.263199949874008 7.064207941227515 0.0
7.233659553805083 6.853135694774254 0.0
9.793310082768443 7.072747972018893 0.0
6.734168931095253 9.67499220075154 0.0
6.941134861034159 9.382328333169653 0.0
7.285822522704258 9.443989747444657 0.0
6.576263515512108 9.333035011158342 0.0
7.160560566479093 9.127732577621245 0.0
6.218711947378506 9.298064908857533 0.0
6.432383355119106 8.980985203293491 0.0
6.795390278360442 9.046043538032663 0.0
8.54677014121837 0.1957422484480979 0.0
8.528696320820908 9.804850950580938 0.0
8.42644965647489 9.604735484095604 0.0
8.010239224104339 9.715048083583248 0.0
8.644359648763341 9.628432815860457 0.0
5.344212921686536 5.526744195650314 0.0
9.760936589662048 7.38409687515441 0.0
9.128187788393989 0.1445485608215519 0.0
9.133307661752394 9.854833215426817 0.0
4.867351616228264 3.944459575003425 0.0
5.905323253270366 7.385600364255367 0.0
5.909045412185362 3.361969954191194 0.0
5.80580919758911 3.569999290452344 0.0
5.578230704221431 3.587842862412673 0.0
6.013352753603037 3.550699073477782 0.0
5.936624955014758 3.721630401607248 0.0
5.735413275357409 3.78528948606432 0.0
5.512538847486775 3.794760621907932 0.0
5.360571639388366 3.618649018042938 0.0
5.134141179590394 3.459385929220745 0.0
6.167399567008798 3.367365990358096 0.0
9.766756262206602 8.291756450136036 0.0
5.486063578307141 9.64505925252771 0.0
9.497624614180321 4.328873442170357 0.0
9.811387324954623 1.570516917365688 0.0
9.389210081887331 4.69150887571586 0.0
9.704395728912932 3.754226393630331 0.0
9.808172776193384 3.748784464356272 0.0
6.549660911932182 4.839747932361234 0.0
6.757415124099031 6.077939876843736 0.0
3.805578542126494 8.040840085419626 0.0
4.232580149691158 8.198659880701744 0.0
4.559765382564095 7.87091698350757 0.0
8.3829075948167 0.9495097054886067 0.0
9.8571301061408 1.456307792614791 0.0
2.005900212453279 4.535525273813588 0.0
1.85904408608185 3.956445706785572 0.0
1.979307922430775 5.474327285927505 0.0
4.387923194305381 4.427191306527721 0.0
9.429258370703248 8.873693567695483 0.0
8.99196583083892 4.664567567015693 0.0
3.050357122593155 5.368999067452741 0.0
2.861107385476722 5.785089447130829 0.0
5.005058958272409 3.711196438448062 0.0
9.8972295764837 2.755337284632969 0.0
9.581048890980513 8.853909321617065 0.0
9.668838904423916 1.762418716497425 0.0
9.716576458425756 1.852218615166234 0.0
9.799043132681442 1.780583141193779 0.0
7.661868217848455 2.880323287492419 0.0
6.780136552904057 5.443858690999834 0.0
6.489544866845868 5.913957888434588 0.0
6.880149522020364 4.134257616716107 0.0
6.970134365280068 4.264072319341612 0.0
2.225481516813409 9.348422240784 0.0
1.843418032490818 8.641605249943353 0.0
2.198000805242772 0.6459947140825729 0.0
8.740020306282506 0.1903932731609072 0.0
6.86957996016679 4.720776242956433 0.0
7.430920333506809 0.2702852342693345 0.0
7.302066064947383 0.6134316505458445 0.0
9.305398039877746 4.64854361125207 0.0
4.078151380865065 5.203425462519088 0.0
4.080704120371218 4.778853303303787 0.0
8.052525541571825 5.965483159581719 0.0
6.367194027835946 4.754896037842673 0.0
8.604191121620719 7.648182513679963 0.0
9.546446695207845 9.234701521982952 0.0
9.018652854946867 3.351011585453845 0.0
9.143853648154607 3.350173119015413 0.0
9.067079866763024 3.245174561579149 0.0
8.991492136849105 3.135578770028028 0.0
9.29603967712795 0.1426516429033488 0.0
9.392428271030795 0.2506306237151588 0.0
9.223973843394301 0.2912279164401488 0.0
8.39375191941536 3.018777714002827 0.0
8.4836475746111 2.88135207267795 0.0
8.741089053946197 9.821127577434911 0.0
9.803966507713174 5.448064463539533 0.0
9.748132240148552 5.359371181503531 0.0
9.850258990973547 5.355211921626304 0.0
9.7965346514158 5.266762244994661 0.0
9.84142096963129 5.171050273734619 0.0
9.738843612428232 5.167483913244169 0.0
9.64168976006725 5.359875132194057 0.0
3.335917453809221 5.671837672982919 0.0
6.962669142802881 1.683222554707996 0.0
7.365210844496719 1.887492842536114 0.0
7.517378971174123 1.677983072937792 0.0
8.00383870208024 6.089394601875145 0.0
1.725435941000569 2.759295503019395 0.0
7.907977929549089 5.102827208603365 0.0
8.052861051278896 0.2683271125209605 0.0
9.80169732768395 3.385443381464333 0.0
9.831597648680848 3.28491948963525 0.0
9.736335895866404 3.316207814499244 0.0
9.597256128490281 3.756160701977744 0.0
8.865819925321706 3.366235906378775 0.0
8.489614436807788 1.757152185195495 0.0
8.88089641144391 1.078983279100314 0.0
7.430923851187758 9.724389499796425 0.0
7.584252919312249 9.509430586267927 0.0
9.744026095940516 2.247117754488748 0.0
9.729961521243718 2.659836747108116 0.0
9.790866569780063 2.558993767350471 0.0
9.736606445116795 2.455104424879619 0.0
9.846806182714698 2.452157456754448 0.0
4.518102112052724 5.141350889745285 0.0
4.519880229178207 4.85678334497067 0.0
9.7302407894617 6.434012603549242 0.0
9.787537474544765 6.523591663056312 0.0
9.744262337067932 6.617499601377625 0.0
9.8406238811518 6.41591236129004 0.0
8.914967252734657 3.579360039684312 0.0
9.154797282599406 5.670753066089419 0.0
4.228839454580575 4.612979739018002 0.0
6.095037541675208 4.42126627187728 0.0
9.304166983880842 9.864854494751789 0.0
9.406445527105628 9.759007358529582 0.0
9.256225114941945 9.700832989525724 0.0
9.796206564635622 2.351215649506205 0.0
9.849373673349081 2.25090453834006 0.0
6.332048155295931 3.511675163099286 0.0
9.069679774213784 3.022879178706259 0.0
9.070599961450037 9.055284879641471 0.0
1.808685691036764 6.331557276533421 0.0
7.120156826652838 4.698481230214924 0.0
7.052894345811342 4.799848851879358 0.0
4.739957520484086 5.369107149361242 0.0
9.389197839958292 7.197139943834638 0.0
9.046688232613976 4.560364044038737 0.0
9.162685461967492 4.562194096410666 0.0
4.227377821420887 1.564128177298305 0.0
9.201090975245227 2.794301402811909 0.0
9.251941624303948 2.677556975242327 0.0
9.186758273070138 2.563916005021366 0.0
9.317609833868786 2.560335260954038 0.0
6.57599191748324 2.437689779955877 0.0
6.305556560534859 2.459112595979303 0.0
6.981058048792093 2.642476994448363 0.0
9.886113463139504 6.510498309609482 0.0
9.250462794607717 6.221362629571698 0.0
9.305373999084068 6.108271307139882 0.0
9.390477915810829 6.228015172491477 0.0
9.44452571968143 6.114582165110393 0.0
9.502105740270528 6.197677857389309 0.0
9.31559697209813 6.331647407124485 0.0
9.370938253597153 6.437386206819511 0.0
9.594764406124872 0.1099001288712305 0.0
9.602872681151728 9.894988341116305 0.0
9.622661196143387 8.076680696281343 0.0
9.769069277144705 5.9102532189237 0.0
2.615076109785583 8.807551523115547 0.0
9.658920005405456 5.730890135691177 0.0
9.76063135061807 5.720703211793342 0.0
8.63963723169499 7.177334225227945 0.0
7.841904391869763 6.41346852896409 0.0
7.764520718520185 6.297267738834625 0.0
9.546492996136271 3.465225175657335 0.0
9.25600964352143 2.219157062786616 0.0
7.625057159226293 7.012987957636062 0.0
9.529121062829038 7.730283486008674 0.0
8.329887090625894 3.845190321147069 0.0
8.265841850823831 3.95687001944245 0.0
8.402006523775544 3.947660780406651 0.0
8.128436391670505 3.968543393650448 0.0
8.46705122470662 3.835767362024195 0.0
8.218867047074696 4.063481375518748 0.0
8.089763413611255 4.08062363292928 0.0
7.939578083855268 4.111915744184436 0.0
3.74991304509639 6.615676756107112 0.0
2.627714335615619 1.170993030860914 0.0
7.046129971268607 6.759930788612616 0.0
8.534603732661887 7.486325780553722 0.0
1.569381386467569 2.042794535871475 0.0
6.228703743210918 1.986421863690014 0.0
6.467030855792859 2.67190498312861 0.0
9.272246093269825 1.975478263632296 0.0
8.05269609263041 3.854522845257449 0.0
8.008595521536957 3.177870309354594 0.0
7.929796740504207 3.350600835935766 0.0
8.048703574664067 3.449582532910417 0.0
9.72947480375618 4.973926800124758 0.0
9.784850360535604 5.072865219810449 0.0
9.896036387646596 5.069261557893528 0.0
9.633140953203334 5.168645132864771 0.0
9.558102991128836 7.602453108835212 0.0
7.278758746505716 3.994295887299482 0.0
8.306681733482405 6.936428510427854 0.0
9.487163072013963 3.757777670075558 0.0
9.532950522284125 5.359403698944497 0.0
9.816036650072329 3.927268437107025 0.0
6.173882586235392 8.734645960664665 0.0
7.972518459433741 5.003005338485466 0.0
8.398453459336153 1.601072016988848 0.0
8.97460527296194 4.040886705742754 0.0
9.037941657530773 4.143578781749325 0.0
8.849604200183613 3.828506169652706 0.0
9.545296177100065 4.042698359132156 0.0
8.595941796785514 5.806754902023664 0.0
8.65588412428292 5.694192853853139 0.0
8.723710665131787 5.801528918332044 0.0
6.861288985046249 6.673713222735126 0.0
8.87477249219366 4.664500928777609 0.0
8.72385765226959 3.608276264790996 0.0
7.145228858696953 5.573648565429618 0.0
7.282945121585866 5.558559688509987 0.0
9.224761401603633 1.602363370249125 0.0
9.609115686587552 2.986868833620756 0.0
9.633989947851914 6.628120633848649 0.0
6.046214325132457 5.45615093027661 0.0
9.017014346798927 5.271996636983457 0.0
9.070824864071271 5.168510834798647 0.0
9.189021391555556 5.166867900487267 0.0
9.123328759137758 5.064718588163964 0.0
9.240587446378079 5.06459430516883 0.0
9.250848280531756 5.267364371053135 0.0
5.773050603406019 5.7192906317521 0.0
8.576466432793914 4.3559007860436 0.0
8.634627802680399 4.253467736542067 0.0
8.461790117175607 5.591735227444779 0.0
8.907610717370224 3.713397213891439 0.0
9.80665594564509 5.628066492225966 0.0
8.985935132601089 4.455263493464225 0.0
9.00640209566022 5.067597672073404 0.0
9.833659276096986 6.976519563917422 0.0
8.0283368553477 4.687271895436317 0.0
8.326580191759327 9.127498457128247 0.0
8.650637373791266 5.07513089931925 0.0
8.701067313435203 2.700069743477523 0.0
4.825307249916392 4.884175191874744 0.0
9.418335984190309 6.858444798015129 0.0
3.91434687300816 8.542956908935874 0.0
5.569239724399552 2.064135034637056 0.0
5.234271567762738 2.128974435011933 0.0
5.757920427527626 2.312422707096966 0.0
5.43365689737979 2.427455772745759 0.0
5.673210219624612 2.602111218343444 0.0
7.214258468265766 6.652783071431555 0.0
9.823626269633962 4.30685540664529 0.0
7.96996639420014 4.794005510174826 0.0
7.616003332725032 0.502676560965646 0.0
3.050634530589821 4.659174799474146 0.0
2.870894249800723 4.246924313393336 0.0
5.285393339952368 6.079037173753393 0.0
9.439954241218905 4.23581687956071 0.0
9.67709722097145 4.710772408106511 0.0
7.40767785509217 4.259947873553335 0.0
8.396202587439676 5.486075637998701 0.0
8.323689688705493 5.372061002264632 0.0
8.191312386254125 5.384662546230823 0.0
5.304380054816289 5.369675374029755 0.0
9.093848379546637 4.047647920840374 0.0
7.916313220758624 3.045043876114836 0.0
8.435854831444637 4.144861908356168 0.0
9.060262453079693 0.7340576053322918 0.0
7.053195520344596 5.238809779682351 0.0
9.621762679347093 2.45205452967588 0.0
8.410730269104743 5.287995309529392 0.0
9.655094569234972 3.472720279371932 0.0
7.982140513923982 6.667914768024983 0.0
8.402690325256646 4.883576657130221 0.0
9.17488654147479 4.962006474835693 0.0
9.013188196102961 8.49700148123058 0.0
9.795977244531603 2.156818021002043 0.0
9.893813711206834 9.545820400859157 0.0
7.965349232662289 4.250048884270795 0.0
8.644264557989125 4.874751532150782 0.0
8.215430976121077 1.26077208565765 0.0
8.379717637669398 8.37324652769609 0.0
9.320026533461409 5.559861899725609 0.0
7.885778178744864 0.4977439426642278 0.0
7.547066983926719 5.125166613071239 0.0
7.657542898944819 5.122996245335209 0.0
7.423918840193691 9.000935553397358 0.0
9.854133000712425 5.541931969512857 0.0
9.328508174398952 2.101486405523264 0.0
9.300749600926641 9.530012105354274 0.0
8.130307182491519 5.277079344947874 0.0
8.346752967392757 4.987627363826086 0.0
9.118404185029991 6.007087846617186 0.0
9.048232213728614 5.89431792713258 0.0
9.088340967655858 5.576242562571367 0.0
8.094762487139027 4.789727191449318 0.0
9.915265904493378 5.749591413470928 0.0
9.92169805280126 6.154216704502091 0.0
9.918022441582268 4.549125436287157 0.0
9.919332362905616 4.849536560132457 0.0
9.914800786693318 6.750595509794719 0.0
9.811792900437824 6.703950687575952 0.0
9.900643083988882 3.749855087409844 0.0
9.912423171222734 3.043228996968949 0.0
9.91892875832665 5.949999999993851 0.0
9.913300070218703 3.960831593817277 0.0
7.709347001661226 4.444236534782706 0.0
7.479443107717332 8.071637285053104 0.0
8.839057072155848 6.807845119358974 0.0
8.972330068019902 6.78765448182788 0.0
8.542093772125282 3.941452413628317 0.0
8.279144752968262 5.930387616620717 0.0
9.393455876855919 4.973162505621418 0.0
9.507123333872533 2.855087674515822 0.0
8.77504684283825 2.317347145885344 0.0
8.394133129040345 4.464046960801843 0.0
5.725509852450801 8.210843960481027 0.0
5.62632390239664 3.967637659758752 0.0
7.910815814627989 4.900765971697654 0.0
8.595808444085467 5.590040244353608 0.0
9.705160502006024 0.8106158419444889 0.0
9.82021247904746 0.808810893177099 0.0
9.218352146075844 4.447736986422823 0.0
9.20781892622228 3.858281726888132 0.0
8.713609974387523 5.178241668554946 0.0
3.55755059259364 8.921522400238844 0.0
9.59122926011489 5.452844834281716 0.0
9.70565100407009 9.77887811062354 0.0
9.826938454219809 9.74303055702321 0.0
7.238962096855633 3.278078153406256 0.0
8.575609105166194 4.567807831727537 0.0
8.936449841121737 4.765835458965493 0.0
5.59323463391086 9.248527978398117 0.0
5.280809113285124 4.886132326418428 0.0
9.328132730893216 6.544753806716806 0.0
9.026944889277736 6.67247283515637 0.0
9.81946239021469 3.007926663525007 0.0
8.677633568960493 6.144049349297466 0.0
8.33427489656924 4.571212803519522 0.0
8.55734024448315 6.382535186588269 0.0
8.692399379422756 6.372347713955898 0.0
8.495817478252626 6.503308565233578 0.0
9.905494734661673 2.544078755559835 0.0
6.177101405266569 7.228490244483556 0.0
9.825373011845263 5.807482724503027 0.0
9.808678508609606 8.118683092442964 0.0
8.397717712407108 7.08010313863416 0.0
7.428555529689225 4.935946611338556 0.0
9.575504958128711 6.125633853639113 0.0
9.154066996197898 4.146562596982661 0.0
8.074381802159323 4.337569667261167 0.0
7.018337246891919 8.843475095716133 0.0
7.970627172560641 2.658650028065857 0.0
7.382546388883145 6.723381543491632 0.0
6.822972334933889 4.884555620881615 0.0
8.343732976791593 6.041576709398377 0.0
7.743680217306919 8.423336160305476 0.0
8.505717922983454 1.115022897794028 0.0
9.113973198216474 6.992972408167606 0.0
5.818882632841168 5.300437503812764 0.0
5.951991891717714 5.279516346785062 0.0
9.450183479138845 5.92934813870612 0.0
8.783346541536119 5.48419035750989 0.0
9.38074895894124 5.65076274999803 0.0
9.513658728876734 7.193620441323493 0.0
6.396040948797887 6.776064256962667 0.0
5.389661780244388 4.89715084345563 0.0
4.473247649068957 5.85935163892416 0.0
9.249586607512612 8.37680799459232 0.0
9.103796366487646 8.379197231055114 0.0
6.274057301184156 4.87985402946409 0.0
9.259628836118232 3.561431822636308 0.0
4.037922477011971 5.489409780163391 0.0
5.62712958624254 4.893925433488392 0.0
8.806426003347967 6.133410188141932 0.0
9.53304466499349 9.59279975429444 0.0
9.542890959420024 1.966631379116419 0.0
7.459736176874619 5.863847835420528 0.0
5.937613117200432 4.89232797168023 0.0
6.171611131472617 4.879541833448487 0.0
6.100695199816815 2.291172318314745 0.0
2.315194906726768 8.081958163666464 0.0
6.878489987598286 5.148099521847569 0.0
9.105264414399338 8.639184652727645 0.0
9.20047261316883 3.457820810661327 0.0
9.895329010385955 7.55944047105717 0.0
9.912742873006831 7.76210330502246 0.0
9.37761459375249 3.168397068877758 0.0
8.946121261512507 6.345629828835438 0.0
9.918632496443566 4.449809517365367 0.0
6.848211525651934 5.945010613369067 0.0
9.915721525903255 2.047407395915179 0.0
6.117255841708726 5.163321965161054 0.0
7.276595248786602 5.347247322210079 0.0
6.32682869954104 5.23674259421017 0.0
8.785886448438022 5.692775375342819 0.0
9.099994401883361 6.776698531382792 0.0
9.913397459621638 0.2499999999998165 0.0
9.910352525643928 0.4481571029410266 0.0
9.907850422008579 0.5479735220323012 0.0
9.911983631350465 9.24778487019403 0.0
9.917634740384067 0.7514684821956668 0.0
9.195214232985496 3.254172408378337 0.0
5.000896927376288 1.846006038077654 0.0
9.917172478547403 8.250155740683276 0.0
9.908120476950126 1.742986232208194 0.0
9.914524635720774 1.949567899316728 0.0
9.907358878377153 9.145625165175748 0.0
9.917695944922635 8.949999999998397 0.0
7.648387553139914 5.325741673607362 0.0
9.605343588986079 4.130627398479715 0.0
6.648113233057817 6.774798386229164 0.0
9.910347203087213 8.446729917003672 0.0
9.913623694530468 8.548470085896316 0.0
9.9201245863254 1.536225488581779 0.0
9.906538426683255 1.059019360781604 0.0
9.912867352010919 8.74999999999809 0.0
9.799662981388353 8.79550485462418 0.0
9.831828680383174 5.99966894118311 0.0
9.91414179906643 1.263025320602998 0.0
9.920690092699912 7.240982963665807 0.0
9.385889285950551 2.235126904097426 0.0
9.28133998925606 8.00415195851526 0.0
9.817074723108401 3.172398890123306 0.0
9.482030285089927 7.512954023388035 0.0
6.682432918504054 7.233889573028878 0.0
8.528699633246763 3.260502457553277 0.0
8.91699963742029 2.327016692708648 0.0
9.267676068834481 3.954520684561369 0.0
8.70811637467455 4.974101624783084 0.0
8.18184214270768 7.816666208279135 0.0
9.690393137288163 5.264344933127836 0.0
6.937111790104696 5.245184991960528 0.0
5.895846026722989 5.174232967273284 0.0
8.281683356622615 6.400073017261236 0.0
9.150883172924027 7.444273543454419 0.0
5.430406600793122 3.390815886517273 0.0
5.049583827974758 5.697634876048387 0.0
8.3966710383105 3.495813899905868 0.0
9.007538428392454 8.046563579784266 0.0
4.645155158868719 2.637132843684674 0.0
4.887444326771336 2.30020425915506 0.0
6.483736782775559 4.522536327482678 0.0
7.843169154548308 8.2116075844056 0.0
5.06295551628385 4.901632590583318 0.0
7.201400991012747 5.138239336380897 0.0
8.519791031104612 8.848807089071627 0.0
8.658623737989732 3.031313729049854 0.0
7.585566208322493 3.629882964874684 0.0
8.411818469596405 6.834326722716643 0.0
9.172363528634236 7.669230647622864 0.0
8.85455683341768 2.682483055215344 0.0
9.359398739738925 1.631421337140716 0.0
9.071793864444992 7.337030604117359 0.0
6.968394563521436 3.712808894519514 0.0
7.899236117684646 7.094583340182754 0.0
9.54362864504834 9.781852543872333 0.0
7.151298729743687 7.644795130415299 0.0
5.452218361466201 5.186873761308322 0.0
5.517642289161902 5.293540933999446 0.0
7.802500357665464 5.978295671754199 0.0
6.594850839687122 8.491429270558893 0.0
6.029132431949566 8.294997405201931 0.0
9.31286590869111 0.5672913838331921 0.0
9.25238720319541 0.4415953739444106 0.0
9.550589523211062 4.228044955453704 0.0
8.748611832783206 6.250900951984038 0.0
7.566980108995873 3.995148257893202 0.0
7.426142759241261 3.996743578498081 0.0
6.478912513785404 4.000296412419969 0.0
9.30435638148753 5.168210982711592 0.0
7.542154188520517 5.752525075248498 0.0
7.219033852073297 2.139582470800704 0.0
7.370913620388047 6.545121498197235 0.0
5.226731036024996 5.187572666585561 0.0
8.515591031124366 4.462223215179979 0.0
6.762864307079274 0.3078036604979366 0.0
8.587432696997471 4.977010533175154 0.0
8.703948448756302 8.815629076400704 0.0
8.081003990931544 7.370949680119862 0.0
7.424404567669909 6.949730915714445 0.0
8.578903262311433 8.377992954045473 0.0
7.301258690263783 6.106184350645308 0.0
5.991600556904204 3.99820087171043 0.0
8.203048538477193 1.601044215405025 0.0
7.289972483120081 4.572350254111052 0.0
7.714697186439165 5.420586967696794 0.0
8.918853780709807 1.841796898567452 0.0
9.919941345877513 4.749808449067644 0.0
7.245589454939737 5.94251251443003 0.0
9.258480524497795 3.358952871140391 0.0
3.705877615124628 5.574038727593425 0.0
8.287096858129765 7.962370605242409 0.0
6.799629860952143 3.705385600481528 0.0
4.146753450763018 6.544154457143895 0.0
7.413973555029582 5.545687501585183 0.0
8.466524978378082 4.980481756569235 0.0
7.336312153537934 2.337983522449311 0.0
7.695505222753409 3.747498713679684 0.0
4.898236813123799 4.795853653580084 0.0
4.59779105899602 1.896916774247134 0.0
8.560170375862322 7.072369101894893 0.0
8.386150468360862 2.449771437140704 0.0
8.41200018115259 5.084601315536367 0.0
5.102189912301071 7.621598618277815 0.0
8.336320418935243 6.71651223072348 0.0
5.081745734883095 3.977838926197614 0.0
7.63590698378166 0.9500570055008507 0.0
7.743369677149255 3.051233984704873 0.0
5.357527459690566 0.3809996753407537 0.0
5.967373112873382 0.7731113464301924 0.0
8.169449265206127 6.666271947462212 0.0
5.95122726745053 5.55758205410881 0.0
9.922289489207834 3.53923011719877 0.0
9.39154684476555 2.659037023454942 0.0
7.701415639167884 7.690060291860976 0.0
9.819179654793023 1.329863870021845 0.0
8.358229579054417 6.506108206863729 0.0
9.269720555169467 5.657096143475924 0.0
4.473187658045934 7.435037860084884 0.0
9.65807158077373 3.255496360750368 0.0
9.605155446454205 8.713645566904637 0.0
7.097383547728313 5.141197376985936 0.0
9.812212483832656 1.89920712759492 0.0
9.83875570675407 6.81603549325055 0.0
8.926246869879279 2.079976511571457 0.0
9.166785856141402 9.169070814302419 0.0
8.763479010228052 1.587152667342957 0.0
5.957377924852992 6.404530806530254 0.0
7.14506854375872 6.10342416684208 0.0
5.672595070581394 5.164323323112049 0.0
4.899782787268781 0.3801727265981219 0.0
4.447133848117348 4.673614099606824 0.0
7.044865074789195 3.253639989243549 0.0
9.818461337102992 7.819456450952447 0.0
9.925334577033155 7.954012377173311 0.0
6.352907898232792 1.173665225954276 0.0
7.351721385581032 5.660361289755705 0.0
9.337367583861807 2.76534436379692 0.0
8.693118347802024 4.360254099729149 0.0
9.476812970101324 0.3524826622168163 0.0
7.109868985890334 0.9024224571333925 0.0
7.899106846231403 5.511805431542581 0.0
8.352799544476607 5.187887629361129 0.0
6.957483547582747 0.6176251309213842 0.0
8.099559500483094 1.412323841044818 0.0
9.913030944540278 0.8542404645334569 0.0
9.143075088381442 8.022165366829135 0.0
8.819861450593166 6.356592599428041 0.0
9.319444417409162 1.49938505915629 0.0
6.490262520326714 7.118204362551877 0.0
6.490874470087819 6.582907761235813 0.0
9.82506653058937 0.6146757679104559 0.0
6.803129818897624 4.419048038171804 0.0
9.840901379354312 0.08198751964190581 0.0
9.839740374244226 9.918356239418472 0.0
8.551927134544655 9.449788917425456 0.0
9.92097857388158 3.249999999993177 0.0
5.797087413057367 7.077351493358238 0.0
9.255412859987286 6.433984412022419 0.0
8.668174522249984 1.740767926084485 0.0
9.920991430240607 6.25262219124529 0.0
7.57275248448898 1.94367954756322 0.0
8.052865444445507 8.19900054463639 0.0
8.748697149245206 4.25201068974208 0.0
9.158270227735827 0.5542256343091421 0.0
5.997487767477439 4.787924707603557 0.0
6.119759900601896 4.78043793682227 0.0
4.353034750397793 8.619182743639561 0.0
8.721093521611476 5.588932824583312 0.0
5.717101151444983 1.123034066822819 0.0
9.825602081347064 8.68753399402474 0.0
8.005502510832988 8.7824052910506 0.0
5.548184234622668 6.408009287230429 0.0
5.77830300433981 6.598697187164234 0.0
9.613093825495433 4.50282172481406 0.0
9.928981132641653 9.74928475696928 0.0
6.613628176297015 4.515513362596662 0.0
1.822126723816303 1.297795131355289 0.0
9.514164594137375 1.43081427463862 0.0
4.735494753432723 3.698541604583975 0.0
9.52844959749262 8.615213629960298 0.0
4.660704511759056 0.7947595073298008 0.0
6.82340845160293 5.239926830264399 0.0
7.885938077030673 7.380147032865134 0.0
7.884599891021201 6.09005968568029 0.0
8.846834820720167 9.653276456345532 0.0
8.457777199486827 0.3851010632068662 0.0
6.66485224572131 8.771510767670392 0.0
9.091499342133352 9.708315832477556 0.0
9.824286725109655 4.976315293637262 0.0
7.848197684391786 5.632217046637356 0.0
3.88430598115417 4.225391362015386 0.0
8.776890759183289 2.809688928468134 0.0
7.393884285023409 3.59397875231041 0.0
6.927568893329758 4.396788356869783 0.0
4.96854327720728 2.662368428358774 0.0
9.1480130720193 3.951479613991279 0.0
7.071049729490975 2.38092990636632 0.0
3.40193058782919 1.686321186206593 0.0
7.612042194200681 4.815904436723407 0.0
9.043395868401339 6.888481825015849 0.0
9.098933057562759 8.152197681006806 0.0
6.058682303253315 3.857501492181965 0.0
3.707092669281355 2.986685502034343 0.0
5.113272509841263 5.189455016444592 0.0
6.960565857079232 3.416349532571279 0.0
8.755151527375476 7.649255597361291 0.0
3.393680865444538 3.679982303262531 0.0
3.117424600120088 3.35605258976247 0.0
8.530814041264104 5.488376426140491 0.0
4.820719767306654 5.106646490188182 0.0
9.918899263509473 4.144927088739744 0.0
9.918194630017027 7.447268230913605 0.0
8.461970084137805 3.144844565847669 0.0
9.924415919486059 6.949999999995354 0.0
7.184050152099684 2.72771667662237 0.0
8.834356715215904 7.801565642745232 0.0
8.689015446783005 4.145232831954543 0.0
8.490778532265319 8.234414357968106 0.0
8.63666290918932 2.83060276219705 0.0
4.61028976098935 4.741894230894578 0.0
6.314735925012879 4.003132559161639 0.0
9.20786580425652 4.67001723737971 0.0
7.141401229301469 4.873205425098625 0.0
6.235177809922153 4.774126344778935 0.0
9.12491895896937 3.145675090615719 0.0
9.255747684068178 3.162525801823036 0.0
8.312852272796098 2.290855459722148 0.0
1.449266720542303 3.363629101350872 0.0
9.525687840398492 4.800807314407045 0.0
4.829905263804087 8.14474456977717 0.0
9.09338914689732 7.563794106183232 0.0
5.389401689694107 5.283808684471545 0.0
8.530979415204587 3.029374286908943 0.0
7.901489077080633 6.535344047486632 0.0
9.218572924671975 5.760893551533255 0.0
8.562382833959296 4.143913974026883 0.0
8.62959127904665 8.974877485888243 0.0
9.408442441596518 9.62276529745719 0.0
7.5034765601713 3.869833107932387 0.0
9.842813436634783 6.600620949014236 0.0
9.826116984327193 8.911617279149695 0.0
7.529907780698261 0.7369111006685982 0.0
7.832164962480427 2.905293639437395 0.0
8.39517908433056 3.267417602291069 0.0
9.823014010107707 9.085319632577246 0.0
9.022314123618541 3.944559746338292 0.0
4.243701230676532 5.332574856090426 0.0
9.816740542566388 1.127839952679595 0.0
8.166775715766304 5.693916696568397 0.0
8.865374421689054 8.068986769641638 0.0
8.761145809863661 6.470583506581853 0.0
8.998345275919851 9.209303502026401 0.0
9.698477487436316 6.706902829754045 0.0
6.439032098063426 0.3109134377713525 0.0
7.562681994382136 4.643158005207056 0.0
9.03999088074715 0.2799354672273258 0.0
5.180741540467516 3.805018725608906 0.0
6.243990330956698 2.718077286244967 0.0
9.79416634023361 0.1815240178579244 0.0
9.926540005061975 2.847049370876555 0.0
9.826476210374608 2.670192168078066 0.0
6.365816673179121 4.536333049275508 0.0
5.546353765219417 4.618331215552614 0.0
9.820703096450293 2.000649418331399 0.0
6.884388790679166 3.561583980715254 0.0
7.431303395649604 5.747824222777201 0.0
8.849816832721245 2.19318290395604 0.0
4.185147517585975 5.697469360586313 0.0
9.165905238119013 5.873664931582344 0.0
7.70479478158537 1.788324620089049 0.0
9.627376046933474 0.9196091445437269 0.0
6.657687963328663 5.144792385996769 0.0
9.83245016645186 0.3925568446109945 0.0
7.483092985762584 9.253837199159435 0.0
5.445348362202234 3.977855663863651 0.0
7.476680532833337 4.837183287808616 0.0
9.572749890969304 8.505160319814301 0.0
9.915853314998252 9.437014513917465 0.0
7.679469018350979 7.390484878021194 0.0
9.418139053434402 4.790576000488359 0.0
8.096967733471567 5.865447162201908 0.0
9.829153508938724 8.378494945652118 0.0
9.926595955569645 5.157718300415699 0.0
8.774484245600224 7.939747459426853 0.0
8.629764448155779 6.481031318922794 0.0
8.961169458302376 3.839036702328818 0.0
4.617199205561317 5.256318959792646 0.0
8.480815774219478 4.031210317621497 0.0
9.708341592512763 3.401018043990571 0.0
7.183974816647467 4.77882314543966 0.0
9.821437962294304 7.659391965474772 0.0
8.150320284869602 2.286501016204562 0.0
9.828114434347311 1.684891358832554 0.0
5.349187766238684 6.538177907133678 0.0
8.076053471314525 2.76180604769483 0.0
4.907713691134565 5.29818629967416 0.0
0.6874399366049438 4.328593906714074 0.0
0.6980011780697519 5.702671170050627 0.0
8.263861466707834 8.182284285231713 0.0
5.838783785156478 4.913981390426639 0.0
7.807619472656604 7.235706382002089 0.0
9.388504256318683 6.022122644748753 0.0
9.929839894767033 6.436189192303577 0.0
8.3205848711706 3.39107920408397 0.0
3.240770542267401 4.019899919523968 0.0
8.059047070496568 2.468855909103855 0.0
9.932479519490421 2.449625056415224 0.0
7.737639000139152 4.580708137963557 0.0
8.26141077223695 0.3940397126348397 0.0
9.69568953371801 1.959951226402445 0.0
6.469120930453264 4.892267070266994 0.0
9.167223997255698 0.8102256463122337 0.0
6.236889648241256 0.9291076084031108 0.0
8.306379082772498 5.268830342852036 0.0
6.716089118890225 5.239344620507032 0.0
9.82511981852641 9.282822358664017 0.0
6.68375719572285 4.404998642130821 0.0
8.913754712375674 6.908138360584365 0.0
6.173250048857013 5.251634416326969 0.0
4.235907497612446 1.924052997345291 0.0
5.151007663981651 2.438629730660893 0.0
8.924254300637541 9.3764975797567 0.0
4.438612423541503 5.287968640901957 0.0
8.571203234299599 1.897009944569934 0.0
6.878800676380218 5.821332862798138 0.0
5.710626178601224 4.792560699857408 0.0
7.149510071621283 5.216310009157644 0.0
2.099966541549645 2.334742113488256 0.0
9.93396330620579 5.350566393301629 0.0
7.143046479323961 8.646955109387985 0.0
7.965747313080266 5.193641450105844 0.0
6.3314394693073 5.135050228240639 0.0
7.665821333021348 6.222698255001823 0.0
6.305321657053551 4.659816230868476 0.0
7.833020917089713 5.208837056143474 0.0
9.41455902676429 2.869725681199307 0.0
8.567151507735133 6.598605357295113 0.0
7.405527786978573 4.377085529441429 0.0
6.552969697053132 5.137148974085434 0.0
9.93630620742063 8.042778076596578 0.0
7.166743296019233 4.593171678848165 0.0
6.595561806063966 5.839366735225723 0.0
6.066152182102007 5.262519562574559 0.0
9.834694151277489 0.9093455747994099 0.0
8.98259191950674 7.579732466796592 0.0
6.465071238839505 5.25485771955322 0.0
9.759759896588413 3.236659507608532 0.0
4.775529448101694 5.224235675150505 0.0
9.935991245222917 7.153416415978829 0.0
0.6530736820718381 9.352299998916202 0.0
0.6449439415299687 0.6468300344151556 0.0
7.804690364869245 4.495816547678174 0.0
9.84503784553893 5.70620404704573 0.0
9.83525329400959 3.826992990746767 0.0
9.922964894244684 4.265000406933376 0.0
8.333767638401964 1.121219971446645 0.0
8.876012546033895 7.019147158538482 0.0
8.172413577824324 3.413096916572049 0.0
7.232233017296214 4.478957103028363 0.0
6.214597295185415 3.852860083673202 0.0
9.85013791746415 4.400709747289421 0.0
3.941627380932058 6.342995010255737 0.0
3.097271569675528 8.77391871286929 0.0
9.292917152323044 6.010976049411984 0.0
8.104342196673183 5.184165973282902 0.0
8.994300084006271 3.652611812846807 0.0
9.937157897030163 5.549999999993244 0.0
8.721368888525245 7.274540720770752 0.0
8.920003648712827 0.9516585309368178 0.0
7.910527456030004 8.536826514867816 0.0
9.846441288756814 4.60515911863952 0.0
9.584942233925151 4.712073182517884 0.0
9.642357858573972 6.805672051759494 0.0
9.797024725252207 9.838837222258014 0.0
9.842451438022124 4.018973836958878 0.0
6.112723137676118 3.704473949316424 0.0
7.574641969193845 3.765362276156904 0.0
7.826594968121701 6.200366572362263 0.0
7.762805366733504 9.34009502796868 0.0
9.56854033867856 1.012566255816665 0.0
7.71256563655353 5.219373702836014 0.0
9.68039392238282 8.786964504862018 0.0
5.910362452777086 9.277662068919813 0.0
7.418090653922814 3.326443419100716 0.0
9.857704179097952 4.697553149694669 0.0
8.452469674653342 8.996585816905599 0.0
9.522351366699843 2.057525484575908 0.0
7.802315574700843 9.548878971475935 0.0
9.938875656926385 3.449999999992592 0.0
8.425189037911712 6.608575180629274 0.0
5.925965231566842 2.523669697740033 0.0
6.654918072256329 5.95749128982984 0.0
9.826748589235729 9.631118448471485 0.0
8.6684585637523 7.39633999085442 0.0
9.844673843931567 3.090088625379724 0.0
9.93613850661301 2.250382721159617 0.0
9.218291993658738 2.892108990205171 0.0
9.83502846611296 8.212781989607324 0.0
7.754136409732265 7.104288507262783 0.0
8.510570542791681 2.036933285735889 0.0
7.757745059307245 4.315798612475442 0.0
7.989231770559189 6.201656630465583 0.0
8.068934521422738 4.198631572122605 0.0
4.957478134450373 9.038766150325067 0.0
7.208661142641733 6.501402463831379 0.0
7.299506095906239 4.363561999234681 0.0
8.250303873550486 2.105322217421675 0.0
8.678637541413377 7.053471135702286 0.0
9.761528395137384 6.163503990672834 0.0
9.84494857233395 8.59999999999775 0.0
9.83825138794677 3.672838954969637 0.0
5.121008544047756 5.808127183024784 0.0
8.343911550360986 4.043535893276861 0.0
9.85324441775315 5.899999999993774 0.0
9.51114465213134 8.41035540646284 0.0
6.505812179224195 6.93390566262983 0.0
6.15572847138365 9.023097246950844 0.0
3.352081892333425 3.024853379890529 0.0
6.433163283162099 8.675072413910678 0.0
8.825744236698243 3.624446391299867 0.0
4.883007294861279 7.819620905924936 0.0
5.876659170760434 5.638247433601083 0.0
6.859400040348503 6.510797998354633 0.0
7.946400945409184 3.500317276373196 0.0
7.496830255505493 6.653194511698024 0.0
9.852183479755313 4.891525833556942 0.0
9.77998778436291 2.922486526124376 0.0
6.774672660492365 5.324728659740495 0.0
5.717254072187427 6.824125962512845 0.0
9.713440940838062 4.63793103997539 0.0
8.859858662536796 0.2721395536350836 0.0
8.37556017530946 9.436653414116012 0.0
7.395237381047616 7.885576562773319 0.0
5.4709157802033 4.511152089197594 0.0
9.489749416979361 9.691840729914848 0.0
4.599216022837964 3.46438688931078 0.0
5.572287492757569 4.807021644849729 0.0
9.926499336309957 9.92730688390086 0.0
9.926499336310107 0.07269311609890093 0.0
9.338127766332573 0.3585313952168247 0.0
6.810761948165162 3.414693294319008 0.0
8.166274345037138 5.943611545564389 0.0
5.2892644736731 6.301081312912763 0.0
9.731911074791544 7.649313380659622 0.0
8.90251102352767 9.50983415326544 0.0
8.997881406541017 1.033666784655452 0.0
5.835124768755703 2.738139962594905 0.0
9.665357480775825 6.185331297099201 0.0
7.656532192558493 8.217157287499347 0.0
9.170463887605525 2.975444721032631 0.0
4.208158615905443 0.8648302238584886 0.0
6.97015686031129 5.933674629077266 0.0
6.181941366523793 3.565885175921835 0.0
3.30313590337911 6.393402837735046 0.0
6.447482061767014 4.816169316820496 0.0
8.185341428749446 4.169172087371246 0.0
4.552595724340015 8.298301336212145 0.0
9.84850676569699 8.999999999998423 0.0
9.846941514449377 7.393642828194986 0.0
7.924592433490734 2.788309934035703 0.0
8.154308714226714 8.853640122009672 0.0
8.876629743004642 1.96110242719995 0.0
7.228849192966834 8.90811350348676 0.0
9.852301635085423 8.296637825215246 0.0
5.219795195341889 5.547413133147649 0.0
9.861497117995457 6.901363010201344 0.0
2.953911258021604 6.136007283255669 0.0
6.93158841067062 4.77708273647784 0.0
9.67540418457871 2.912802891506324 0.0
4.194055958522277 4.437353127730132 0.0
6.133959559341536 0.406856611599261 0.0
8.29952795189331 9.309744645643846 0.0
9.843692337952948 1.209647690818311 0.0
5.164986286280336 6.671544079402435 0.0
9.838533350075606 2.081705440779448 0.0
8.301244777513975 6.604088853319459 0.0
5.471494771710784 2.714598185146428 0.0
8.86534684892311 1.208599471795828 0.0
9.940610684232212 1.451558535868664 0.0
9.40896208432968 1.428353940655538 0.0
2.329177605337097 4.238803555614174 0.0
5.980761651517799 7.182207186682233 0.0
9.66541573964336 0.1719254072074424 0.0
7.220979380229172 7.806128737674462 0.0
1.251721227904697 6.151932667911503 0.0
8.104967286191181 6.057912607875576 0.0
6.650768762224724 4.817922869198292 0.0
6.634976350437587 3.213339182992986 0.0
7.034320437500567 4.898219100342838 0.0
9.502772020064167 6.283064492634301 0.0
8.13187938667684 3.518506862055515 0.0
9.855471943454193 2.599999999994991 0.0
9.056747742708522 8.263936599935574 0.0
4.352645795441222 5.724453640019 0.0
3.744263984699181 1.488951698361357 0.0
5.175860134287045 3.6375726667098 0.0
7.736434712114619 6.400417475661193 0.0
9.857658576695343 6.316607183405179 0.0
7.876525261950537 4.304285002335559 0.0
9.856114384785611 7.914602773442983 0.0
9.848334119947063 0.7059644476295188 0.0
9.59694321995579 6.895814046141667 0.0
5.906465212962551 3.869023950643881 0.0
9.840676994268005 9.364956386459765 0.0
5.355015287544095 3.83518170601625 0.0
6.374090407153147 5.855743754257685 0.0
8.227401290513832 5.297819733684674 0.0
5.451235131977493 4.825706629991923 0.0
6.022070213762754 5.355923882747634 0.0
9.845674433677614 6.108401449483281 0.0
9.835067400944396 7.739582406783081 0.0
8.602026805792988 2.941372356914139 0.0
5.059869081004962 5.269480960018243 0.0
5.284714507903736 5.26496663762182 0.0
9.627110479149561 7.660076105040499 0.0
6.820001127809743 4.792514421153957 0.0
5.120512795059439 4.806607659110254 0.0
9.56933817216883 2.911464407429096 0.0
9.74091654291531 9.267545397628387 0.0
9.93006767325302 6.576784040838644 0.0
9.642486276936268 4.650227701598451 0.0
5.185183328569137 9.410919109238325 0.0
9.37052946854105 4.605636695802024 0.0
1.677077220416309 5.871167715901136 0.0
7.345783833404538 3.184020711886284 0.0
5.419239942654976 5.982692039856376 0.0
6.133318300188262 2.551919945731369 0.0
6.187291396343277 4.499077117404439 0.0
1.231465237822878 3.921479198315213 0.0
8.969849937139944 9.699215363213542 0.0
9.218303154263054 6.037447959776716 0.0
CELLS 4886 19544
3 1113 1356 1450
3 1402 231 1659
3 272 269 1414
3 396 394 1777
3 1451 945 1452
3 194 81 1801
3 1847 1501 2104
3 2024 2121 2479
3 1115 1113 1450
3 1124 1413 1844
3 1061 1955 2409
3 307 305 1645
3 1592 1369 1593
3 238 1501 1847
3 1955 1883 2409
3 1808 243 1910
3 1885 978 2362
3 1440 793 2092
3 189 1488 1608
3 353 350 1864
3 2007 2231 2232
3 307 1645 2493
3 1096 1760 2496
3 2178 874 2179
3 621 625 1595
3 1493 1480 1938
3 1655 1268 2137
3 1341 1410 2212
3 243 1808 2360
3 1902 1446 2516
3 1760 1096 1763
3 856 790 2180
3 2008 2046 2105
3 789 1809 2067
3 694 1543 1575
3 1127 1762 1953
3 1748 807 2228
3 1543 1308 1575
3 820 1872 2170
3 1417 954 1998
3 1369 1592 2386
3 272 1414 1787
3 329 333 1998
3 1544 1095 1545
3 2231 1490 2232
3 1342 1683 1790
3 374 377 1797
3 807 1678 2228
3 1665 198 2128
3 141 142 1620
3 325 322 1952
3 231 1402 1654
3 198 1665 2010
3 1890 1307 2387
3 208 1438 1619
3 2016 1970 2156
3 1436 212 2020
3 954 1417 2333
3 1736 1894 2244
3 1491 1750 2143
3 1677 1064 2146
3 1474 1258 1475
3 1500 233 1930
3 1446 2415 2516
3 1700 973 1800
3 2128 2270 2316
3 1316 1315 1593
3 1307 2341 2387
3 2258 1324 2328
3 1083 1507 1508
3 693 1095 1544
3 621 1595 1596
3 667 1571 1872
3 1932 1766 2061
3 393 391 2240
3 1342 1790 2400
3 252 1707 2234
3 931 978 1885
3 1430 1116 1704
3 1411 1109 1714
3 1478 1227 2440
3 1990 195 2297
3 1792 1167 1985
3 1682 444 1975
3 394 397 1777
3 1711 2028 2162
3 1574 856 2180
3 2008 1851 2046
3 736 1493 1938
3 1069 1060 1662
3 1458 455 1754
3 862 691 1705
3 1161 1642 2286
3 1699 1700 1800
3 447 516 1637
3 955 1482 1483
3 2024 206 2121
3 391 1773 2240
3 1072 1412 1893
3 212 1436 2350
3 1566 1365 1568
3 259 1441 1672
3 872 870 1764
3 330 328 1889
3 1539 1161 2286
3 1897 1898 2275
3 1434 1990 2297
3 1109 1411 1730
3 319 307 2493
3 1762 1761 1953
3 1369 1316 1593
3 1540 834 1832
3 1505 652 2442
3 1732 1655 2137
3 921 1712 2295
3 1872 1388 2170
3 1712 921 2125
3 2028 244 2162
3 1506 1570 1680
3 1569 368 1964
3 1571 667 2375
3 1587 2178 2179
3 196 1723 1737
3 524 2016 2156
3 1528 1250 1733
3 1115 1450 1973
3 1938 1480 1971
3 1809 1396 2067
3 1641 249 2299
3 1223 1258 1474
3 1365 1566 2120
3 1981 962 2316
3 1538 353 1864
3 455 1458 1756
3 152 233 1500
3 1116 1430 1703
3 817 652 1505
3 1347 2003 2004
3 1607 1958 2085
3 194 1801 2195
3 1410 1341 2351
3 223 1415 1710
3 197 1511 2346
3 2198 787 2225
3 81 82 1801
3 1438 208 1620
3 1444 522 1823
3 1511 197 1950
3 726 718 1567
3 1637 516 1739
3 1708 2337 2341
3 1280 1649 2124
3 2337 1395 2341
3 1327 1709 2315
3 1225 1227 1478
3 691 624 1705
3 476 2224 2305
3 830 832 2204
3 1750 1491 2403
3 1366 1897 2275
3 2345 1583 2352
3 2054 405 2110
3 1984 2172 2230
3 1846 2198 2225
3 1177 2042 2418
3 2121 1367 2479
3 1527 1531 1541
3 916 1039 1834
3 1413 1124 2467
3 1622 1503 1868
3 249 1641 2019
3 1805 405 2054
3 1761 1007 1953
3 1415 223 2395
3 960 1756 2203
3 368 1569 2135
3 1402 1659 2473
3 941 1433 2471
3 1267 1477 1501
3 260 2002 2265
3 1704 558 2077
3 2224 1886 2305
3 2053 1386 2199
3 1452 945 1952
3 1717 1611 1718
3 1682 1975 2230
3 1760 1762 2496
3 1481 203 2104
3 1264 1266 1670
3 142 236 1620
3 2133 1182 2179
3 1791 1602 2183
3 350 346 1864
3 1412 1072 2393
3 1281 1575 2255
3 1565 1948 2155
3 849 1449 1513
3 1958 396 2085
3 1339 1069 1662
3 834 1540 1917
3 269 267 1414
3 1268 1267 1501
3 1440 2092 2468
3 1399 1981 2316
3 1635 1636 2041
3 1454 252 2234
3 1451 1305 1890
3 1375 1883 1955
3 362 366 1786
3 1484 2410 2528
3 1449 849 1640
3 1267 1474 1477
3 200 1611 1717
3 1054 1581 1582
3 1350 1977 2253
3 190 1390 2118
3 788 1956 2193
3 1709 1327 1888
3 2233 2298 2413
3 1488 189 2355
3 478 1685 1714
3 230 1525 1690
3 1687 478 1688
3 427 429 1756
3 1570 1065 2476
3 1880 1133 1988
3 1649 656 2124
3 1537 209 1614
3 1134 1769 1986
3 1220 1268 1655
3 396 1777 2085
3 1167 1755 1985
3 2229 1744 2296
3 1575 1281 2287
3 127 240 1882
3 377 647 1797
3 954 329 1998
3 220 1697 1698
3 1342 1341 2212
3 1441 264 1672
3 1512 188 2433
3 763 2345 2352
3 1685 1411 1714
3 1805 1188 1951
3 1347 2004 2157
3 1054 1582 1667
3 1333 1617 1674
3 2217 73 2361
3 1539 1036 1917
3 1039 1292 1834
3 208 141 1620
3 1965 1964 2038
3 693 1544 1969
3 1453 239 2279
3 203 1481 2049
3 945 1451 1889
3 680 1459 2134
3 354 2147 2196
3 1405 1932 2061
3 1723 1722 1737
3 1748 1175 1927
3 1532 1528 1733
3 2057 1824 2154
3 1406 1659 1702
3 1948 1186 2155
3 210 1598 2114
3 1685 478 1687
3 1324 1325 2328
3 1526 1250 1527
3 165 166 1509
3 1493 736 2523
3 1526 1527 1541
3 1390 190 2417
3 522 1444 1998
3 1680 1570 1732
3 1017 1442 2525
3 374 1797 2430
3 1507 1083 2197
3 1756 960 2221
3 2270 1400 2316
3 2205 1452 2282
3 1074 1187 1888
3 2158 1245 2200
3 1442 1017 1684
3 864 1116 1703
3 1750 1751 2143
3 1456 516 1492
3 1677 2146 2149
3 2022 1339 2388
3 1602 258 2183
3 678 1594 1595
3 1245 1670 2200
3 972 830 2204
3 2143 983 2342
3 1268 1501 2226
3 1266 1461 1670
3 1487 222 2465
3 1382 2022 2388
3 58 59 1661
3 2147 1543 2196
3 1484 1485 2410
3 628 2053 2199
3 1906 1549 2259
3 364 362 1786
3 1339 2022 2247
3 1636 525 2041
3 625 678 1595
3 678 1593 1594
3 2212 1410 2222
3 1837 1865 2215
3 1699 1800 1801
3 866 864 1703
3 893 1472 1982
3 1735 1736 2244
3 1633 1255 1922
3 126 127 1882
3 681 867 1656
3 1351 1401 2363
3 11 228 1588
3 1127 1953 2454
3 265 266 267
3 1722 1122 1737
3 1389 1691 2069
3 1613 1610 1616
3 1227 1256 2440
3 429 455 1756
3 1535 1177 2418
3 322 324 1952
3 973 1700 1802
3 1964 368 2038
3 1176 1865 1866
3 1096 872 1764
3 1176 1866 1875
3 193 1839 1892
3 156 157 1441
3 615 617 1596
3 686 1520 2480
3 1409 2097 2305
3 2410 1151 2528
3 1427 2217 2361
3 440 1911 2314
3 1744 1743 2296
3 516 1456 1739
3 1939 589 2164
3 690 931 2150
3 1062 1579 1580
3 1054 1580 1581
3 955 1483 1716
3 1064 1677 2248
3 1956 1616 2193
3 1776 1893 2026
3 1398 1115 1973
3 2002 1453 2265
3 1541 1531 1542
3 216 2191 2536
3 1736 1326 1894
3 1065 994 1066
3 1598 2115 2175
3 2314 1911 2358
3 1433 941 2042
3 2115 1209 2175
3 717 1550 1551
3 188 1941 2433
3 267 1132 1414
3 771 1569 2064
3 1157 1545 1546
3 1231 1250 1526
3 1933 240 2181
3 222 1487 2025
3 1525 230 1765
3 1430 1704 2077
3 757 1744 2495
3 264 263 265
3 883 773 1917
3 739 2205 2282
3 1667 1582 2434
3 1744 757 2474
3 239 1453 2002
3 1441 259 2356
3 2005 1443 2012
3 254 1766 1932
3 1509 166 1679
3 1477 1475 1481
3 793 1440 2165
3 1385 1523 2377
3 1481 1475 2523
3 156 1441 2356
3 1066 1220 1655
3 945 325 1952
3 2094 2087 2134
3 1747 1175 1748
3 253 262 263
3 1327 1074 1888
3 718 715 1567
3 2046 1043 2105
3 240 1933 2399
3 1305 1307 1890
3 224 58 1661
3 1195 1566 2285
3 1590 1393 1749
3 1255 1230 1922
3 353 1538 2073
3 358 1999 2325
3 882 1802 2036
3 1024 1020 1604
3 333 522 1998
3 1401 1351 2414
3 1475 1258 1476
3 2310 786 2364
3 328 945 1889
3 807 1748 1927
3 825 724 1912
3 1742 263 2491
3 267 266 1132
3 2077 2102 2203
3 1431 1432 1860
3 1212 1957 2312
3 2097 476 2305
3 1132 1402 2473
3 717 713 1550
3 1746 693 1969
3 1372 1124 1844
3 1256 1541 2269
3 1977 1350 2274
3 2332 1978 2443
3 874 2133 2179
3 1983 1534 2171
3 1157 1544 1545
3 1230 1228 1922
3 1580 1579 1581
3 1565 806 1948
3 1416 1363 2413
3 1287 1995 2398
3 265 263 266
3 1534 1529 2171
3 1604 1834 2428
3 1255 1633 2509
3 1344 1643 1644
3 1332 1388 1571
3 1423 217 2217
3 2191 1057 2451
3 458 447 1637
3 1250 1233 1733
3 472 2212 2222
3 1175 1747 1840
3 1652 256 1653
3 1073 1347 1572
3 200 145 1609
3 683 640 1585
3 1116 862 1705
3 1221 1223 1474
3 1778 801 1803
3 1503 1622 2471
3 1475 1493 2523
3 464 680 2134
3 14 210 2114
3 579 1880 1988
3 1434 1435 1990
3 1447 2310 2364
3 275 274 276
3 2294 1871 2419
3 814 1068 1684
3 1172 1439 2273
3 273 272 274
3 1363 1416 2406
3 1220 1219 1221
3 1060 1656 1662
3 1099 1792 1985
3 2048 1198 2168
3 1241 1245 2323
3 699 723 1753
3 1640 1862 2070
3 910 1018 1584
3 1586 1067 1587
3 1656 867 1662
3 1067 686 2480
3 654 2242 2294
3 1593 1315 1594
3 1880 553 1974
3 236 1717 1718
3 617 621 1596
3 1723 196 2313
3 402 1877 2116
3 273 274 275
3 2202 1869 2252
3 1510 1358 1767
3 193 1892 2373
3 1188 1805 2054
3 1220 1221 1267
3 1066 1218 1219
3 1517 1097 1518
3 1677 1676 1858
3 686 277 1520
3 268 267 269
3 697 857 1592
3 220 1698 1699
3 1802 1700 2036
3 1612 1537 1614
3 929 817 994
3 228 12 2136
3 2110 2116 2482
3 1659 1658 1702
3 1611 1613 2280
3 1344 991 1643
3 683 1585 1604
3 1638 1358 2404
3 1485 1034 2410
3 2214 833 2424
3 271 272 273
3 1482 955 1962
3 1066 1219 1220
3 931 1885 2150
3 1613 1891 2280
3 1189 1589 2204
3 1566 1195 2120
3 726 1567 2490
3 1122 1722 1874
3 1494 319 2493
3 1671 259 1672
3 1267 1221 1474
3 603 528 1591
3 1664 2128 2316
3 1817 1924 2174
3 1626 1660 2111
3 1474 1475 1477
3 1023 1062 1580
3 1957 1599 2312
3 1764 1939 2164
3 1358 1950 2404
3 200 1609 1610
3 1431 1082 1432
3 1778 1803 2521
3 1830 1832 2075
3 1930 233 2369
3 1329 1482 1650
3 757 1959 2522
3 1239 1247 1597
3 758 1978 2332
3 1569 1290 2064
3 216 1694 2191
3 1453 1420 2265
3 1549 1906 2129
3 24 215 1674
3 19 235 1676
3 1621 1057 2191
3 1691 1389 2262
3 1617 1333 2192
3 929 994 1065
3 1769 1672 1986
3 1893 1412 2026
3 1609 1537 1612
3 271 269 272
3 1373 1438 1620
3 217 1423 2381
3 517 330 1889
3 1322 1055 1667
3 1974 553 2499
3 228 2136 2187
3 1589 1189 1788
3 1999 1577 2325
3 2110 405 2116
3 189 1608 1842
3 1055 1050 1667
3 739 1455 2205
3 1865 1176 2215
3 319 1494 2522
3 2474 757 2522
3 1484 227 1485
3 10 11 1588
3 723 809 1753
3 27 230 1689
3 1550 806 1565
3 1179 1180 1217
3 207 1617 2192
3 1433 1217 1502
3 1562 1556 1606
3 1379 2017 2018
3 1245 2158 2323
3 675 1097 1517
3 884 501 1599
3 1020 683 1604
3 1603 1095 1848
3 1001 2057 2154
3 1604 1585 1834
3 1610 1612 1616
3 1764 870 1939
3 2242 1871 2294
3 1669 1264 1670
3 1658 213 1702
3 1995 1646 2398
3 631 539 1600
3 1491 2143 2342
3 1801 1800 2195
3 1200 1199 1693
3 1535 940 1861
3 1534 758 2332
3 914 2258 2328
3 1588 228 2457
3 216 138 1694
3 151 152 1500
3 1133 1880 1974
3 1677 1858 2248
3 1294 1622 1868
3 875 1010 1767
3 1379 2018 2416
3 1279 2202 2252
3 182 256 1652
3 1592 857 2386
3 672 681 1656
3 615 1596 1824
3 1093 1487 1623
3 1823 522 2100
3 1245 1242 1669
3 1582 1581 1583
3 758 1534 2306
3 1975 1984 2230
3 1358 1510 1950
3 1663 1336 1665
3 2102 960 2203
3 366 1087 1786
3 1740 1490 2231
3 21 207 1709
3 145 146 1609
3 2339 765 2384
3 603 1591 1668
3 2081 199 2149
3 1540 1832 1879
3 1721 1723 1947
3 1754 455 1793
3 1751 1753 2119
3 882 1701 1807
3 1540 1539 1917
3 242 1695 1697
3 1521 354 2091
3 1363 2233 2413
3 1584 1018 1925
3 703 1067 1586
3 1177 1178 1179
3 795 916 1834
3 277 276 607
3 1571 1388 1872
3 22 23 1617
3 1097 823 1177
3 25 26 1624
3 419 418 1790
3 1728 1906 2259
3 440 1455 2261
3 1877 1318 2116
3 1488 1156 1608
3 1439 2130 2273
3 1889 1451 1890
3 1614 209 2389
3 1472 893 2094
3 675 821 823
3 23 24 1674
3 1788 1190 2183
3 917 941 1622
3 1763 1096 1764
3 1068 1442 1684
3 1034 1485 2173
3 2172 1533 2230
3 138 139 1694
3 1065 1570 2197
3 607 674 675
3 1536 1248 2268
3 229 135 1734
3 1437 1925 1926
3 680 510 1646
3 147 209 1537
3 26 27 1689
3 1627 705 2163
3 206 1651 2121
3 2409 1785 2462
3 1492 682 2447
3 1223 1225 1258
3 889 1772 2374
3 253 263 264
3 275 276 277
3 1455 739 2261
3 2022 1382 2176
3 150 227 1484
3 639 1019 1591
3 1449 1640 2070
3 1082 833 2214
3 1503 1502 1504
3 144 200 1717
3 1643 991 1713
3 1190 1791 2183
3 1538 1804 2073
3 1256 2269 2440
3 18 19 1676
3 521 531 2000
3 790 849 2180
3 1075 1329 1650
3 1087 1782 1785
3 1066 994 1218
3 270 269 271
3 682 1492 2494
3 185 252 1454
3 253 158 262
3 1629 1632 1633
3 200 1610 1611
3 1477 1481 2104
3 1623 1487 2465
3 1518 1097 1535
3 1414 1132 2460
3 1179 1217 1433
3 177 1506 1680
3 1392 1017 2525
3 1832 834 2075
3 675 823 1097
3 1459 2094 2134
3 1782 1087 1795
3 1838 1730 2372
3 1639 149 2528
3 1617 23 1674
3 2265 1420 2489
3 180 232 1859
3 1527 1250 1528
3 20 21 1709
3 1083 1508 2311
3 903 866 1703
3 1455 440 2314
3 1187 1858 1888
3 1659 1406 2473
3 1446 1902 2166
3 421 1951 2106
3 1598 210 2115
3 154 259 1671
3 1288 1835 2080
3 1832 1831 1879
3 1258 1225 1478
3 1024 1604 2117
3 1263 1429 1739
3 706 705 1627
3 1583 1581 2352
3 407 1805 1951
3 856 1574 2527
3 1701 882 2036
3 1624 26 1689
3 717 1551 1552
3 1385 2377 2391
3 2302 1745 2354
3 1572 1347 2157
3 1036 883 1917
3 1689 1690 1691
3 1664 1665 2128
3 1476 1479 1480
3 1751 2119 2143
3 815 814 1684
3 1790 889 2400
3 1606 1607 2085
3 265 267 268
3 418 889 1790
3 1522 1521 2091
3 135 136 1734
3 1726 1445 1729
3 647 1796 1797
3 1346 1453 2279
3 1293 1827 2117
3 1242 1244 1669
3 1853 1852 1854
3 889 2374 2400
3 1039 1038 1290
3 1524 628 2199
3 1331 1332 1571
3 1291 1290 1569
3 1475 1476 1493
3 1850 1852 1853
3 1490 1740 2456
3 1689 230 1690
3 1256 1526 1541
3 1704 1705 2167
3 1465 1470 1675
3 956 1073 1572
3 1613 1616 1956
3 916 917 1038
3 2014 1522 2091
3 1221 1222 1223
3 1999 763 2352
3 234 10 1588
3 1697 220 2335
3 1527 1528 1529
3 2298 1600 2413
3 1436 2020 2254
3 1642 1161 1678
3 1523 1385 2436
3 1730 1838 2426
3 795 796 916
3 713 711 1550
3 1456 1263 1739
3 999 1336 1663
3 1785 1784 2462
3 409 415 1783
3 607 675 1517
3 1229 1231 1526
3 1958 1855 2078
3 1589 1588 1590
3 1933 261 2380
3 762 1965 2038
3 1756 1458 2203
3 1776 597 1893
3 1794 1072 1893
3 188 1512 2266
3 1774 2339 2384
3 188 1908 1941
3 1010 1510 1767
3 2189 2285 2307
3 773 834 1917
3 1245 1669 1670
3 1248 1597 2268
3 146 1537 1609
3 818 910 1584
3 1641 1313 1651
3 1217 1745 2302
3 1065 1066 1655
3 1597 1247 2047
3 1360 2177 2376
3 1612 1615 1616
3 2126 867 2186
3 1019 683 1020
3 1747 892 1840
3 1092 1093 1623
3 261 1933 2181
3 400 424 1666
3 1516 1903 2377
3 1100 1392 1605
3 247 1738 1881
3 268 1134 1986
3 1177 823 1178
3 884 1599 1957
3 263 262 2491
3 806 1627 1948
3 1227 1229 1256
3 191 1729 2504
3 1636 1635 2502
3 1480 1479 1601
3 1721 1947 2498
3 1924 1146 2174
3 229 1734 1735
3 175 204 1725
3 1179 1178 1180
3 354 1521 2147
3 665 697 1592
3 640 646 1585
3 627 545 1636
3 1882 240 2399
3 1556 1555 1606
3 1373 1620 2394
3 1871 1071 2419
3 548 1628 1629
3 455 436 1793
3 974 1831 1841
3 1844 1413 2392
3 1612 1614 1615
3 209 1639 1937
3 1329 1330 1331
3 1823 2100 2142
3 1097 1177 1535
3 1021 1020 1022
3 825 1912 2455
3 913 1122 1874
3 400 1666 2113
3 1256 1229 1526
3 1419 1418 2450
3 1552 1551 1553
3 1850 1099 1852
3 1629 1631 1632
3 801 685 2029
3 1618 1619 1621
3 265 268 1986
3 1715 2165 2330
3 1531 1529 1534
3 1022 1024 1576
3 658 693 1746
3 703 686 1067
3 1062 1576 1577
3 1023 1022 1062
3 236 1718 2394
3 1688 502 1740
3 1501 1477 2104
3 213 165 1509
3 646 795 1585
3 196 1737 1738
3 379 679 1795
3 639 640 683
3 924 875 1767
3 1752 699 1753
3 207 2192 2315
3 627 1636 1660
3 1217 1180 1745
3 730 728 1833
3 528 561 1591
3 1444 1417 1998
3 252 186 1602
3 1729 1445 2504
3 460 502 1688
3 1418 946 1778
3 1203 1200 1693
3 548 470 1628
3 849 668 1640
3 646 785 795
3 607 276 674
3 14 15 210
3 147 148 209
3 478 460 1688
3 1709 207 2315
3 1157 1546 1608
3 1155 1731 1899
3 1524 1934 2390
3 1775 921 1876
3 1433 1502 1503
3 470 458 1628
3 1223 1224 1225
3 1291 1569 1964
3 871 1056 1826
3 1781 1783 1915
3 1587 1067 2300
3 916 1038 1039
3 1388 1387 1389
3 1611 1610 1613
3 1075 1328 1329
3 1039 1290 1291
3 1538 1265 1804
3 1184 1185 2163
3 597 598 1794
3 1450 1356 2421
3 1835 576 2080
3 1629 1628 1631
3 1331 1330 1332
3 561 639 1591
3 1476 1480 1493
3 705 703 1586
3 639 683 1019
3 1951 1188 2106
3 436 446 1793
3 1472 1297 2142
3 1332 1387 1388
3 1345 984 1720
3 1329 1328 1330
3 1050 1048 1667
3 150 151 227
3 11 12 228
3 557 541 2256
3 1831 974 1879
3 134 229 1766
3 1357 1358 1638
3 1336 1641 2299
3 1650 1482 1962
3 1591 1019 2512
3 1506 1507 1570
3 1803 801 2029
3 1178 823 1972
3 1552 1553 1554
3 1290 1038 1294
3 1028 1313 1641
3 1237 1239 1597
3 993 1017 1100
3 893 2087 2094
3 149 1484 2528
3 1768 1142 1949
3 9 234 1673
3 1554 1553 1555
3 668 632 1640
3 711 806 1550
3 1628 458 1637
3 1098 1829 1830
3 1482 1331 1483
3 531 1818 2000
3 435 419 1790
3 1156 1157 1608
3 1182 1184 2179
3 510 512 1646
3 1231 1233 1250
3 946 841 1778
3 1483 1331 1571
3 1459 680 2458
3 1166 1040 1210
3 892 1657 1820
3 1042 1445 1726
3 1019 1020 1021
3 749 805 1810
3 234 1588 1589
3 1695 242 1892
3 556 1853 2483
3 1018 1572 1573
3 1529 1528 1530
3 1606 1558 1607
3 1761 1759 2308
3 1396 1032 1921
3 1018 956 1572
3 689 1150 1416
3 1827 1293 2515
3 149 150 1484
3 1647 656 1648
3 1543 694 2196
3 399 409 1783
3 545 525 1636
3 268 269 270
3 715 713 717
3 1100 1017 1392
3 1657 892 1747
3 207 22 1617
3 1666 884 2249
3 1671 1672 1769
3 1554 1555 1556
3 146 147 1537
3 1081 1444 1822
3 711 709 806
3 1443 2005 2322
3 660 658 1746
3 1166 1458 1754
3 916 796 917
3 1056 1728 1826
3 1068 1069 1275
3 184 185 1454
3 158 159 262
3 2007 1687 2231
3 805 1708 1810
3 1672 264 1986
3 1561 1562 1563
3 978 1075 1650
3 1590 1588 2457
3 215 25 1624
3 1551 1550 1565
3 1073 1346 1347
3 857 818 1584
3 1648 656 1649
3 675 674 821
3 561 594 639
3 1731 529 1899
3 2303 1454 2535
3 981 903 1040
3 1630 1629 1633
3 993 877 1017
3 724 718 726
3 512 603 1646
3 1676 235 1858
3 814 1060 1068
3 715 717 1567
3 1796 647 1870
3 1715 1171 2165
3 678 1592 1593
3 644 613 1824
3 1690 1525 2145
3 1297 1822 1823
3 271 656 1647
3 1704 1116 1705
3 1225 1226 1227
3 1275 1069 1338
3 910 956 1018
3 1824 1596 2154
3 1403 1100 1605
3 1221 1219 1222
3 1068 1060 1069
3 1901 245 1949
3 1081 1055 1321
3 1751 563 1752
3 1021 1022 1023
3 672 638 681
3 1095 657 1848
3 1235 1237 1248
3 1561 1556 1562
3 1265 1259 1804
3 524 1819 2016
3 978 1650 2362
3 1492 516 2494
3 229 1735 2061
3 185 186 252
3 157 158 253
3 152 153 233
3 9 10 234
3 1527 1529 1531
3 1808 1344 2360
3 1062 1577 1579
3 1509 1679 1977
3 424 454 1666
3 637 638 672
3 981 1040 1166
3 1555 1558 1606
3 751 749 1810
3 1166 1210 1458
3 1651 1313 2121
3 15 16 2260
3 1633 1632 2509
3 2167 1705 2276
3 551 602 2045
3 697 818 857
3 364 1786 1883
3 832 1189 2204
3 1476 1478 1479
3 678 665 1592
3 213 1509 2096
3 1015 888 1124
3 1062 1022 1576
3 679 1782 1795
3 680 1646 1995
3 1101 1100 1403
3 1109 433 1714
3 1248 1237 1597
3 733 730 1833
3 1702 213 2096
3 499 498 1828
3 1418 1778 2521
3 637 600 638
3 1048 1046 1054
3 1577 1576 1578
3 814 766 1060
3 1279 2252 2292
3 474 470 548
3 199 18 1676
3 157 253 1441
3 1048 1054 1667
3 471 472 2290
3 625 665 678
3 795 785 796
3 1264 1265 1266
3 1437 1926 2350
3 1362 2048 2168
3 1394 2337 2371
3 454 884 1666
3 1022 1020 1024
3 751 1810 1923
3 1046 1023 1580
3 1807 1701 1931
3 1618 208 1619
3 566 588 689
3 1828 498 1829
3 501 509 1599
3 1118 780 1775
3 878 817 929
3 1510 1511 1950
3 1618 1621 1694
3 1052 1081 1822
3 1416 1150 1715
3 1239 1241 1247
3 1396 1921 2067
3 1751 1752 1753
3 1264 1259 1265
3 539 566 1600
3 1762 1127 2496
3 1673 1788 2183
3 1555 1557 1558
3 1052 1050 1055
3 725 724 825
3 1142 1770 1771
3 681 853 867
3 454 501 884
3 1346 1420 1453
3 932 1147 1770
3 1546 1545 1547
3 533 582 1818
3 1266 1337 1460
3 1872 820 2318
3 1117 1119 1713
3 1081 1321 1417
3 1253 1259 1264
3 1569 771 2135
3 1052 1055 1081
3 1181 1178 1972
3 709 706 1627
3 1073 1076 1346
3 1098 1828 1829
3 1382 1380 2176
3 1442 1275 1443
3 919 999 1663
3 1789 828 1855
3 877 815 1684
3 509 539 631
3 992 877 993
3 1266 1265 1337
3 2268 1498 2340
3 1130 1032 1396
3 1095 1603 2508
3 886 826 887
3 531 533 1818
3 1131 1400 1881
3 447 437 516
3 2460 1132 2473
3 940 1535 2418
3 768 1873 2037
3 1813 1869 1954
3 1627 2163 2488
3 1497 1495 1645
3 1198 1409 2168
3 724 726 1912
3 1869 987 1954
3 763 1999 2338
3 1010 1170 1374
3 984 976 1720
3 1470 1743 1744
3 689 588 1150
3 1901 1949 2359
3 1640 632 1862
3 274 272 1787
3 563 564 1752
3 994 817 1505
3 737 1807 1931
3 1770 1147 1771
3 1233 1235 1733
3 2450 1418 2521
3 414 410 1821
3 908 1099 1850
3 1227 1228 1229
3 1692 1203 1693
3 1625 216 2194
3 512 528 603
3 1377 1357 1638
3 1465 1464 1470
3 1360 1359 2177
3 1686 2007 2095
3 1336 1028 1641
3 1857 751 1923
3 1758 572 1759
3 553 541 557
3 1171 1715 1811
3 956 1003 1073
3 1467 1465 1675
3 719 718 724
3 1509 1977 2096
3 1734 1625 1736
3 1503 1504 1868
3 592 597 1776
3 180 181 232
3 162 163 231
3 2308 1759 2370
3 1357 1114 1358
3 875 946 1010
3 509 631 1599
3 17 18 199
3 144 145 200
3 1099 906 1792
3 1469 1467 1494
3 605 589 1939
3 1208 1205 1211
3 354 344 2091
3 692 782 804
3 1010 946 1170
3 1463 1462 1464
3 716 715 718
3 714 713 715
3 271 273 656
3 139 1618 1694
3 549 277 686
3 673 672 766
3 1378 1377 1379
3 2007 868 2095
3 999 1028 1336
3 1208 1211 1447
3 601 545 627
3 1119 1643 1713
3 1332 1333 1387
3 910 912 956
3 520 521 2000
3 828 1789 1819
3 277 607 1520
3 1338 1339 2247
3 818 819 910
3 767 766 814
3 712 711 713
3 1494 1467 1675
3 639 594 640
3 2044 557 2256
3 235 20 1709
3 1620 236 2394
3 804 919 962
3 1862 702 2070
3 681 852 853
3 1559 1556 1561
3 1622 941 2471
3 2165 1440 2330
3 612 644 692
3 697 698 818
3 1903 1516 1994
3 371 379 1795
3 428 426 2138
3 1290 1294 2064
3 1384 1904 2432
3 566 689 1600
3 471 452 472
3 1092 1091 1093
3 1002 1131 1719
3 1090 1089 1091
3 875 841 946
3 1758 1760 1763
3 1562 1606 2085
3 1833 1830 2075
3 178 179 214
3 164 165 213
3 769 923 1815
3 692 644 782
3 804 782 919
3 182 183 256
3 160 161 257
3 1329 1331 1482
3 962 1663 1664
3 1177 1179 2042
3 403 405 1805
3 1461 1460 1462
3 140 208 1618
3 1859 232 1860
3 274 1787 2099
3 1381 2126 2186
3 1558 1560 1789
3 430 428 682
3 452 435 1683
3 1487 1156 1488
3 1470 1464 1743
3 597 1794 1893
3 1244 1253 1669
3 962 919 1663
3 258 8 1673
3 1087 1785 1786
3 970 1042 1726
3 199 1677 2149
3 1664 1663 1665
3 1229 1230 1231
3 991 827 1713
3 792 1603 1848
3 1822 1444 1823
3 665 666 697
3 19 20 235
3 142 143 236
3 728 1098 1833
3 532 530 1898
3 1015 1124 1372
3 1546 1547 1548
3 1851 1850 1853
3 1877 393 2240
3 923 1105 1815
3 1090 1091 1092
3 687 686 703
3 1683 435 1790
3 887 826 1961
3 684 663 1089
3 426 1934 2138
3 464 510 680
3 853 854 855
3 568 572 1758
3 1376 1357 1377
3 1205 1203 1692
3 1607 1789 1855
3 710 709 711
3 780 781 1775
3 1434 1103 1435
3 876 815 877
3 766 672 1656
3 1393 1590 2457
3 684 1089 1090
3 530 890 1898
3 926 1920 1943
3 696 414 1821
3 1563 1562 1777
3 1054 1046 1580
3 1398 1973 1974
3 137 216 1625
3 1210 1040 1430
3 1750 563 1751
3 2010 1665 2299
3 1510 1374 1511
3 1777 1562 2085
3 1707 252 1791
3 1932 1404 1933
3 459 438 1814
3 139 140 1618
3 1093 1156 1487
3 231 163 1658
3 699 722 723
3 1545 1095 2508
3 598 612 1794
3 579 554 1880
3 1941 1908 2401
3 1231 1232 1233
3 1831 1829 1841
3 1037 1383 1799
3 177 178 1506
3 636 600 637
3 1036 1539 2286
3 1356 1114 1357
3 1523 1516 2377
3 704 703 705
3 403 402 405
3 648 792 1848
3 723 756 808
3 1388 1389 2170
3 933 932 1770
3 223 1710 1711
3 1779 399 1783
3 1223 1222 1224
3 1028 1029 1313
3 257 161 1654
3 418 412 421
3 734 882 1807
3 693 657 1095
3 1368 1370 1436
3 136 137 1625
3 688 652 817
3 1075 1327 1328
3 540 479 1813
3 398 395 402
3 548 1629 1630
3 574 591 699
3 1469 1494 1495
3 1041 1598 2175
3 167 168 202
3 175 176 204
3 2045 2046 2201
3 186 187 1602
3 886 887 888
3 1253 1254 1259
3 8 9 1673
3 792 655 810
3 843 1145 1960
3 1180 1349 1745
3 1165 1345 1512
3 708 706 709
3 136 1625 1734
3 21 22 207
3 140 141 208
3 625 626 665
3 1093 1094 1156
3 1585 795 1834
3 1117 1713 1806
3 599 579 600
3 810 871 1826
3 1047 1046 1048
3 1292 1291 1293
3 161 162 1654
3 199 1676 1677
3 1260 1282 1804
3 1005 1142 1768
3 1233 1234 1235
3 792 810 922
3 1122 1719 1737
3 976 985 1720
3 1278 1279 2292
3 2390 1934 2531
3 1436 1437 2350
3 270 271 1647
3 1199 966 1846
3 1683 1342 2212
3 656 273 2124
3 699 591 722
3 1977 1139 2096
3 1738 1719 1881
3 1722 985 1874
3 1797 1448 1798
3 162 231 1654
3 632 604 1862
3 252 1602 1791
3 1051 1050 1052
3 1045 1023 1046
3 648 655 792
3 993 1100 1101
3 1321 1055 1322
3 806 709 1627
3 904 903 981
3 1220 1267 1268
3 648 605 655
3 1737 1719 1738
3 385 399 1779
3 506 499 1828
3 1132 266 1402
3 1170 1418 1419
3 1323 2302 2354
3 24 25 215
3 137 138 216
3 721 965 1919
3 1787 1414 2460
3 778 1117 1806
3 723 722 756
3 407 403 1805
3 564 574 1752
3 1049 1048 1050
3 842 841 875
3 1608 1546 1842
3 809 808 899
3 1517 1519 1520
3 1530 1532 1533
3 889 421 1772
3 913 1002 1122
3 1314 1316 1367
3 1017 877 1684
3 841 802 1778
3 1235 1236 1237
3 751 1857 1900
3 1114 924 1767
3 1344 1644 2360
3 1895 1394 2371
3 1518 1535 1861
3 1758 1759 1760
3 1122 1002 1719
3 546 563 1750
3 1056 1726 1727
3 663 660 1746
3 621 622 625
3 1720 985 1721
3 1857 1843 1900
3 808 756 913
3 1056 970 1726
3 27 28 230
3 134 135 229
3 908 906 1099
3 163 164 1658
3 1727 1726 1729
3 7 8 258
3 154 155 259
3 1101 1403 1404
3 808 913 1874
3 1260 1269 1282
3 1389 1387 2262
3 1297 1053 1822
3 1555 1553 1557
3 1463 1464 1465
3 230 28 1765
3 1237 1238 1239
3 554 553 1880
3 775 778 1806
3 985 899 1874
3 1270 1524 2199
3 489 1820 1936
3 692 1072 1794
3 1472 2142 2272
3 1845 496 1929
3 438 431 1814
3 613 615 1824
3 1241 1242 1245
3 1783 415 1915
3 1192 2081 2149
3 178 214 1506
3 1816 988 1817
3 1760 1759 1761
3 1103 1092 1623
3 1512 1345 1661
3 1876 921 2295
3 1165 984 1345
3 978 1074 1075
3 1239 1240 1241
3 542 541 553
3 813 988 1816
3 1148 984 1165
3 871 970 1056
3 472 452 1683
3 1207 1796 1870
3 1167 1166 1754
3 1296 1053 1297
3 966 964 1846
3 976 899 985
3 982 976 984
3 702 1815 2015
3 900 899 976
3 1143 995 1206
3 1576 1024 1827
3 1235 1248 1733
3 1558 1557 1560
3 943 995 1143
3 1920 1144 1943
3 1471 2115 2477
3 29 30 255
3 132 133 254
3 1630 1633 1634
3 1225 1224 1226
3 1925 1573 1926
3 1211 1205 1692
3 725 825 826
3 1113 924 1114
3 600 579 1988
3 717 1552 1567
3 1820 1657 1936
3 674 276 2099
3 395 393 1877
3 572 543 1897
3 1575 1308 2255
3 999 1000 1028
3 1118 1775 1876
3 1797 1798 2430
3 526 546 559
3 867 853 2186
3 1142 1771 1949
3 1068 1275 1442
3 679 385 1779
3 1607 1558 1789
3 580 568 1758
3 1244 1252 1253
3 1760 1761 1762
3 398 402 403
3 1476 1258 1478
3 418 421 889
3 1771 1147 1839
3 164 213 1658
3 1720 1721 2267
3 1668 1591 2512
3 1042 1128 1445
3 1098 1830 1833
3 1102 1092 1103
3 2249 884 2466
3 1104 1103 1434
3 410 416 1821
3 514 513 541
3 580 1758 1763
3 637 673 1741
3 1913 936 1914
3 1394 1395 2337
3 919 920 999
3 577 554 579
3 2111 1660 2263
3 231 1658 1659
3 612 613 644
3 568 543 572
3 770 775 1806
3 1445 1128 1446
3 1546 1548 1842
3 448 460 478
3 810 870 871
3 1789 1560 1819
3 1154 1082 1431
3 873 973 1802
3 379 385 679
3 837 850 921
3 1461 1462 1463
3 1346 1076 1420
3 1088 1344 1808
3 2125 1143 2353
3 931 977 978
3 882 772 1802
3 29 255 1765
3 849 1513 2180
3 1713 827 1806
3 1130 1396 1397
3 681 638 852
3 1417 1321 1873
3 1654 1402 2530
3 502 526 1740
3 1124 888 2177
3 1266 1460 1461
3 515 1175 1840
3 1253 1264 1669
3 479 466 1813
3 1727 1729 1757
3 379 380 385
3 1971 1480 2514
3 1637 1739 2459
3 1207 1205 1208
3 529 519 1899
3 1129 1845 1929
3 224 1661 2267
3 192 1856 2361
3 732 734 1807
3 1184 2163 2435
3 1119 1120 1353
3 415 414 431
3 719 724 725
3 559 546 1750
3 871 872 970
3 1038 917 1622
3 574 699 1752
3 166 167 1679
3 1117 1118 1119
3 1409 1196 2035
3 617 619 621
3 1172 1173 1439
3 1191 1005 1768
3 664 663 684
3 494 493 1841
3 890 529 1731
3 840 802 841
3 493 974 1841
3 385 386 399
3 679 1779 1780
3 371 376 379
3 416 433 1109
3 670 769 1815
3 902 866 903
3 1780 1779 1781
3 480 515 1840
3 970 971 1042
3 433 448 1714
3 28 29 1765
3 1005 949 1142
3 778 780 1117
3 959 1037 1799
3 1073 1003 1076
3 535 532 1898
3 1119 1118 1120
3 658 657 693
3 1378 1379 1380
3 1397 1396 1809
3 1610 1609 1612
3 1819 1560 2016
3 1837 952 1865
3 1719 1131 1881
3 1131 1399 1400
3 1352 1138 2058
3 399 406 409
3 548 1630 2041
3 1275 1338 2251
3 582 1816 1818
3 1835 1836 2144
3 993 1101 1980
3 1699 1698 1700
3 2407 364 2505
3 1189 1190 1788
3 1117 780 1118
3 1830 1829 1831
3 637 672 673
3 692 804 1072
3 1204 1203 1205
3 1374 1170 2139
3 612 692 1794
3 1642 1408 2286
3 723 808 809
3 450 459 1812
3 409 410 414
3 802 801 1778
3 1853 1854 2483
3 1042 1127 1128
3 1199 1846 2225
3 1147 990 1273
3 1383 1384 2432
3 432 431 438
3 1353 1120 1390
3 1093 1091 1094
3 2020 250 2254
3 148 149 1639
3 606 605 648
3 1970 2016 2422
3 2201 2046 2327
3 475 471 513
3 412 407 1951
3 1991 246 2139
3 727 695 728
3 1673 234 1788
3 1554 1556 1559
3 1089 663 1746
3 1846 964 2056
3 923 991 1088
3 409 406 410
3 729 728 730
3 1424 1427 1856
3 1473 1911 2407
3 1376 1377 1378
3 1010 1374 1510
3 853 852 854
3 366 369 1087
3 772 873 1802
3 1219 1218 1626
3 1766 229 2061
3 1088 991 1344
3 922 810 1826
3 518 506 695
3 405 402 2116
3 962 1664 2316
3 913 942 1002
3 932 990 1147
3 629 813 1816
3 876 877 992
3 399 386 406
3 932 845 990
3 1002 1123 1131
3 843 996 1145
3 781 837 1775
3 262 2304 2491
3 431 696 1814
3 1273 1695 1892
3 731 730 732
3 737 732 1807
3 439 438 450
3 1829 498 1841
3 800 685 801
3 767 814 815
3 1060 766 1656
3 673 766 767
3 1403 1605 1882
3 716 718 719
3 1338 1069 1339
3 847 752 1843
3 864 862 1116
3 2302 443 2519
3 923 827 991
3 526 559 1740
3 1911 1473 2358
3 1085 1310 1867
3 809 899 900
3 1227 1226 1228
3 729 730 731
3 1436 1370 1437
3 731 732 737
3 769 827 923
3 456 452 471
3 1433 1503 2471
3 1435 1103 1623
3 385 380 386
3 1141 1787 2460
3 1354 1088 1808
3 657 649 1848
3 415 431 432
3 484 892 1820
3 727 728 729
3 855 854 1450
3 1721 1722 1723
3 1643 1353 1644
3 1145 1916 1960
3 1421 1191 1422
3 466 1812 1813
3 943 944 995
3 1356 1357 1376
3 714 715 716
3 1156 1094 1157
3 598 611 612
3 631 1600 2298
3 590 589 605
3 965 969 1919
3 416 1109 1821
3 242 1697 2335
3 1548 1547 1549
3 550 573 584
3 584 604 632
3 409 414 415
3 712 713 714
3 642 670 702
3 818 698 819
3 1006 1005 1191
3 1624 1689 1691
3 169 170 237
3 173 174 238
3 956 912 1003
3 937 936 1913
3 1317 1025 1875
3 515 540 550
3 973 1799 1800
3 973 959 1799
3 518 695 727
3 910 819 912
3 584 573 604
3 1170 946 1418
3 173 238 1847
3 550 540 573
3 982 984 1148
3 900 976 982
3 441 435 452
3 448 478 1714
3 1849 1648 2173
3 1631 1628 1637
3 1830 1831 1832
3 1383 1216 1384
3 734 772 882
3 949 933 1770
3 1332 1330 1333
3 574 575 591
3 1105 1088 1354
3 702 670 1815
3 498 494 1841
3 827 770 1806
3 873 959 973
3 1390 1391 1415
3 450 438 459
3 950 949 1005
3 351 362 364
3 1313 1029 1314
3 432 438 439
3 837 838 850
3 1273 1274 1695
3 850 851 943
3 911 952 1837
3 1259 1260 1804
3 566 587 588
3 1037 1216 1383
3 1337 1265 1538
3 1087 369 1795
3 810 655 870
3 1559 1561 1566
3 1147 1273 1839
3 732 733 734
3 1662 867 2126
3 890 1731 2241
3 1854 1852 2397
3 515 479 540
3 451 450 466
3 697 666 698
3 1367 1316 1368
3 662 660 663
3 365 355 694
3 1358 1114 1767
3 379 376 380
3 1796 1448 1797
3 179 180 1859
3 790 668 849
3 569 568 580
3 690 860 931
3 466 450 1812
3 431 414 696
3 1973 1133 1974
3 651 649 657
3 467 466 479
3 1288 1289 1835
3 264 265 1986
3 1302 1303 1304
3 592 596 597
3 1873 1321 2037
3 544 543 568
3 275 277 549
3 209 1937 2389
3 539 565 566
3 1485 227 1486
3 2384 2190 2408
3 1781 1779 1783
3 480 479 515
3 689 1416 2413
3 1108 1161 1539
3 1867 1310 1895
3 1300 1301 1302
3 1695 1696 1697
3 633 632 668
3 1304 1451 1452
3 988 911 1837
3 168 169 1724
3 969 1012 1172
3 582 629 1816
3 1843 752 1900
3 629 812 813
3 710 711 712
3 1782 1780 1784
3 536 535 543
3 1089 1746 1969
3 1108 1107 1161
3 1514 1426 1856
3 486 484 1820
3 369 371 1795
3 1817 988 1924
3 493 609 974
3 1422 1191 2023
3 1426 1424 1856
3 842 875 924
3 922 1826 2259
3 989 1361 1886
3 928 1070 1288
3 669 668 790
3 1113 1114 1356
3 1027 847 1843
3 728 695 1098
3 734 735 772
3 975 1107 1108
3 955 859 1962
3 813 911 988
3 1208 1448 1796
3 1101 1405 1980
3 602 676 2045
3 586 581 589
3 546 547 563
3 493 491 609
3 628 1524 2390
3 348 344 354
3 1298 1299 1300
3 509 538 539
3 974 609 975
3 813 891 911
3 871 870 872
3 1355 1354 1423
3 489 486 1820
3 778 779 780
3 1025 1176 1875
3 772 773 873
3 803 1743 2347
3 167 202 1679
3 873 883 959
3 1483 1571 2375
3 427 1756 2221
3 540 1813 1954
3 1202 1200 1203
3 959 1035 1037
3 837 921 1775
3 1304 1305 1451
3 1799 1383 2195
3 604 642 1862
3 1470 1744 2474
3 1854 2397 2453
3 1282 1269 1386
3 1573 1572 2157
3 472 2222 2290
3 1307 1708 2341
3 769 770 827
3 1037 1215 1216
3 791 790 856
3 1053 1052 1822
3 1056 1727 1728
3 1341 1138 1352
3 1300 1299 1301
3 1814 696 1838
3 1198 1196 1409
3 492 491 493
3 439 450 451
3 1171 858 2132
3 1259 1254 1260
3 665 626 666
3 970 872 971
3 258 1602 2357
3 1296 1297 1472
3 490 489 491
3 516 437 2494
3 1298 1027 1299
3 846 845 932
3 501 508 509
3 460 461 502
3 448 449 460
3 482 480 1840
3 1229 1228 1230
3 604 641 642
3 1424 1423 1427
3 502 503 526
3 1028 1000 1029
3 935 933 949
3 1084 1085 1867
3 2028 1711 2353
3 1513 1426 1514
3 892 482 1840
3 852 638 1988
3 402 395 1877
3 738 737 845
3 413 412 418
3 1119 1353 1643
3 526 527 546
3 280 279 281
3 1731 1155 2123
3 1042 971 1127
3 1208 1447 1448
3 433 434 448
3 262 159 2304
3 184 1454 2303
3 1051 1052 1053
3 1816 1817 1818
3 1081 1417 1444
3 781 836 837
3 911 951 952
3 1090 1092 1102
3 202 168 1724
3 1085 1309 1310
3 408 407 412
3 1337 1538 1864
3 1515 1514 1516
3 530 529 890
3 1517 1518 1519
3 549 686 687
3 923 1088 1105
3 404 403 407
3 1835 1289 1836
3 1314 1367 2121
3 1380 1379 2416
3 670 671 769
3 899 808 1874
3 1040 903 1703
3 1596 1595 2154
3 1496 1495 1497
3 636 637 1741
3 1377 1638 2288
3 1288 1070 1289
3 1072 804 1981
3 1129 1334 1845
3 1865 1084 1866
3 792 922 1603
3 1253 1252 1254
3 981 1167 1792
3 1302 1301 1303
3 1641 1651 2019
3 952 953 1084
3 1813 1812 1869
3 732 730 733
3 975 1106 1107
3 1142 949 1770
3 981 1166 1167
3 840 841 842
3 451 466 467
3 1273 990 1274
3 1049 1050 1051
3 1473 2407 2505
3 968 966 1199
3 642 643 670
3 1310 1309 1311
3 422 419 435
3 1063 833 1082
3 919 782 920
3 911 891 951
3 1084 953 1085
3 1763 1764 2164
3 1498 1497 1682
3 515 550 1175
3 1079 937 1913
3 642 702 1862
3 845 737 1931
3 1394 1311 1395
3 1395 1521 1522
3 467 479 480
3 1755 1754 1793
3 1231 1230 1232
3 1557 1553 2030
3 1624 1691 2262
3 584 632 633
3 1094 1091 1969
3 708 709 710
3 1948 1627 2488
3 952 951 953
3 1102 1103 1104
3 1047 1048 1049
3 1310 1311 1394
3 1852 1099 1985
3 143 144 1717
3 813 812 891
3 1944 1044 1945
3 1105 1354 1355
3 1300 1302 1455
3 1914 936 1940
3 1415 1391 1710
3 1299 1027 1843
3 952 1084 1865
3 1695 1274 1696
3 776 774 1928
3 282 281 283
3 2003 1347 2279
3 1206 995 1499
3 1164 1685 1686
3 1551 1565 2030
3 969 1172 1919
3 633 668 669
3 734 733 735
3 1373 1372 1438
3 599 600 636
3 1431 1860 2487
3 1579 1577 1999
3 484 482 892
3 917 940 941
3 2144 1836 2169
3 1866 1084 1867
3 1110 1747 1748
3 998 1171 1811
3 1390 1120 1391
3 644 1824 2057
3 1362 1961 2048
3 944 1283 1825
3 1086 1027 1298
3 679 1780 1782
3 974 975 1879
3 507 506 518
3 1121 1079 1401
3 775 777 778
3 1965 762 2349
3 1045 1046 1047
3 1772 421 2106
3 16 17 2081
3 416 417 433
3 921 850 2125
3 1607 1855 1958
3 649 648 1848
3 1241 1240 1242
3 2012 1443 2251
3 926 928 1920
3 1487 1488 2025
3 1006 1191 1421
3 1355 1423 1424
3 1133 852 1988
3 591 592 1776
3 1299 1843 1857
3 1085 1308 1309
3 490 491 492
3 958 694 1575
3 1384 1216 1385
3 741 915 1878
3 1233 1232 1234
3 669 790 791
3 481 480 482
3 687 703 704
3 492 493 494
3 1634 1633 1922
3 1697 1696 1698
3 1721 985 1722
3 1839 1273 1892
3 772 735 773
3 488 486 489
3 950 1005 1006
3 1513 1514 1515
3 454 500 501
3 873 773 883
3 284 283 285
3 2185 1505 2442
3 959 883 1035
3 543 535 1897
3 1904 1384 2093
3 800 801 802
3 1037 1035 1215
3 1293 1964 1965
3 1239 1238 1240
3 943 1143 2125
3 1782 1784 1785
3 913 756 942
3 488 490 1884
3 1590 1749 2501
3 1235 1234 1236
3 791 856 1408
3 702 2015 2070
3 1108 1539 1540
3 1021 1023 1045
3 695 506 1828
3 1530 1528 1532
3 488 489 490
3 1621 1619 2161
3 704 705 706
3 1304 1303 1305
3 558 1704 2167
3 625 622 626
3 542 553 554
3 604 573 641
3 664 684 685
3 564 571 574
3 1108 1540 1879
3 1856 1427 2361
3 880 1025 1129
3 1395 1311 1521
3 1466 1465 1467
3 915 495 1884
3 1515 1516 1523
3 1237 1236 1238
3 606 648 649
3 999 920 1000
3 676 829 1043
3 2100 794 2142
3 227 151 1500
3 577 579 599
3 153 154 1671
3 1175 550 1927
3 1014 888 1015
3 286 285 287
3 1649 1280 2427
3 1725 204 2137
3 975 609 1106
3 1129 1317 1334
3 1109 1730 2426
3 1468 1467 1469
3 1131 1123 1399
3 1215 2235 2378
3 1976 1149 1989
3 397 395 398
3 746 743 1878
3 1041 1343 1598
3 975 1108 1879
3 741 495 915
3 1167 1754 1755
3 288 287 289
3 743 741 1878
3 1274 990 1931
3 1506 214 1507
3 857 1584 2277
3 2341 1522 2387
3 846 932 933
3 1107 1106 1110
3 584 633 1927
3 290 289 291
3 722 591 1776
3 1544 1094 1969
3 1135 270 1647
3 935 949 950
3 1920 1288 2080
3 754 1896 2108
3 1693 1199 2225
3 292 291 293
3 394 393 395
3 745 743 746
3 1002 942 1123
3 731 737 738
3 294 293 295
3 1018 1573 1925
3 296 295 297
3 298 297 299
3 321 322 325
3 317 320 321
3 314 315 317
3 312 313 314
3 310 311 312
3 308 309 310
3 1898 890 2275
3 306 307 308
3 304 305 306
3 1401 1079 1913
3 300 299 301
3 302 303 304
3 300 301 302
3 302 301 303
3 491 489 1936
3 298 299 300
3 304 303 305
3 306 305 307
3 308 307 309
3 310 309 311
3 312 311 313
3 314 313 315
3 317 315 320
3 321 320 322
3 1301 1299 1857
3 514 541 542
3 296 297 298
3 850 838 851
3 1310 1394 1895
3 294 295 296
3 590 605 606
3 292 293 294
3 651 657 658
3 290 291 292
3 1207 1208 1796
3 835 1976 1989
3 621 619 622
3 746 1878 1896
3 481 482 483
3 1026 847 1027
3 1335 1207 1870
3 1661 59 2266
3 727 729 1155
3 288 289 290
3 1058 776 1928
3 662 663 664
3 495 488 1884
3 1959 319 2522
3 943 851 944
3 1293 1291 1964
3 534 532 535
3 640 645 646
3 2280 1014 2385
3 286 287 288
3 591 575 592
3 521 519 529
3 13 14 2114
3 780 779 781
3 918 908 1850
3 837 836 838
3 209 148 1639
3 754 748 1896
3 745 746 747
3 769 671 770
3 929 1065 2197
3 1278 1058 1279
3 483 482 484
3 1564 1557 2030
3 633 807 1927
3 392 391 393
3 1057 1621 2161
3 569 580 581
3 284 285 286
3 876 992 1894
3 497 494 498
3 1630 1635 2041
3 982 1148 1918
3 612 611 613
3 700 634 1044
3 822 674 2099
3 880 1129 1929
3 432 439 654
3 1039 1291 1292
3 1164 1686 1989
3 1129 1025 1317
3 738 845 846
3 582 583 629
3 278 6 279
3 544 568 569
3 1701 1274 1931
3 747 749 751
3 1085 953 1308
3 928 930 1070
3 747 748 749
3 1421 1422 2415
3 902 903 904
3 1309 1308 1543
3 642 641 643
3 904 981 1792
3 646 784 785
3 536 543 544
3 1204 1205 1207
3 365 694 958
3 71 72 217
3 88 89 1901
3 87 88 193
3 101 102 189
3 85 86 242
3 99 100 241
3 74 75 192
3 91 92 219
3 94 95 191
3 83 84 220
3 97 98 221
3 77 78 218
3 80 81 194
3 89 90 245
3 62 63 244
3 60 61 188
3 64 65 223
3 67 68 190
3 90 91 1909
3 98 99 1905
3 61 62 1908
3 69 70 243
3 68 69 1907
3 70 71 1910
3 410 411 416
3 586 589 590
3 685 684 2029
3 390 389 391
3 1715 1150 1811
3 1924 1837 2215
3 282 283 284
3 496 497 1929
3 233 1671 1769
3 627 2185 2442
3 1567 1552 2062
3 629 630 812
3 424 453 454
3 583 562 1942
3 749 750 805
3 744 743 745
3 1897 535 1898
3 467 480 481
3 504 759 880
3 670 643 671
3 89 245 1901
3 193 88 1901
3 221 98 1905
3 245 90 1909
3 91 219 1909
3 62 244 1908
3 188 61 1908
3 99 241 1905
3 190 68 1907
3 71 217 1910
3 69 243 1907
3 243 70 1910
3 505 499 506
3 475 513 514
3 1945 1044 2071
3 1712 2125 2353
3 339 343 440
3 989 1360 1361
3 764 869 1152
3 778 777 779
3 1686 1685 1687
3 742 741 743
3 979 989 1886
3 729 731 1887
3 926 927 928
3 1305 1306 1307
3 1838 1278 2292
3 747 746 748
3 181 182 1652
3 1886 1361 2305
3 1595 1594 2486
3 597 596 598
3 928 1288 1920
3 1970 824 2156
3 1425 1424 1426
3 497 504 1929
3 748 746 1896
3 745 747 1900
3 998 858 1171
3 563 547 564
3 1155 729 1887
3 634 583 1942
3 1439 1173 1440
3 1026 1027 1086
3 79 80 1904
3 1533 1532 1536
3 1449 1426 1513
3 1106 609 1936
3 1318 1013 1319
3 1098 695 1828
3 492 494 496
3 750 748 754
3 731 738 1887
3 2415 1422 2516
3 533 562 582
3 988 1837 1924
3 1216 1215 1863
3 534 535 536
3 747 751 1900
3 1753 809 2119
3 1183 824 1970
3 740 495 741
3 80 194 1904
3 893 383 2087
3 655 605 1939
3 1884 2034 2082
3 1301 1857 1923
3 1307 1306 1708
3 752 745 1900
3 750 754 755
3 76 77 1903
3 2090 2347 2365
3 255 30 2159
3 132 254 2160
3 448 434 449
3 753 848 926
3 1075 1074 1327
3 487 488 495
3 377 381 647
3 483 484 485
3 755 754 2148
3 1584 1925 2277
3 1186 1183 1970
3 951 891 1281
3 485 484 486
3 546 527 547
3 133 134 1766
3 1786 1785 2409
3 280 281 282
3 460 449 461
3 744 745 752
3 77 218 1903
3 983 1918 2342
3 1708 1306 1810
3 1389 2069 2170
3 487 486 488
3 641 573 1954
3 507 518 519
3 502 461 503
3 519 518 1899
3 1202 1203 1204
3 821 897 1972
3 92 93 1902
3 521 529 530
3 749 748 750
3 2176 1380 2416
3 885 826 886
3 485 486 487
3 371 372 376
3 1289 1070 1871
3 1110 1657 1747
3 753 926 1943
3 700 1044 1944
3 880 881 1025
3 496 1845 2034
3 1072 1981 2393
3 462 464 2134
3 1949 1771 2359
3 1044 634 1942
3 550 584 1927
3 1390 1415 2118
3 526 503 527
3 990 845 1931
3 1009 1213 1214
3 740 742 1144
3 219 92 1902
3 727 1155 1899
3 369 370 371
3 623 690 2150
3 1279 1058 1928
3 1408 2235 2286
3 487 495 740
3 979 1886 2086
3 1305 1303 1306
3 421 412 1951
3 843 844 996
3 633 669 807
3 518 727 1899
3 826 825 1961
3 1657 1106 1936
3 1172 1012 1173
3 740 741 742
3 433 417 434
3 505 506 507
3 1333 1674 2437
3 742 743 744
3 469 458 470
3 1381 1380 1382
3 1293 1965 2515
3 1554 1559 2062
3 553 557 2499
3 1774 389 2339
3 497 498 499
3 483 485 576
3 740 1144 1935
3 773 735 834
3 366 367 369
3 1120 1118 1876
3 1515 1523 1574
3 1319 1013 2039
3 1303 1301 1923
3 457 447 458
3 561 593 594
3 1355 1424 1425
3 609 491 1936
3 204 1732 2137
3 791 1408 1642
3 995 944 1825
3 456 471 475
3 1692 1693 2239
3 580 1763 2164
3 1292 1293 2117
3 441 452 456
3 388 384 389
3 823 821 1972
3 504 880 1929
3 176 177 1680
3 1070 1071 1871
3 15 2260 2477
3 362 363 366
3 2178 2300 2449
3 1035 883 1036
3 2285 1563 2307
3 978 977 1074
3 1090 1102 2029
3 1810 1306 1923
3 496 494 497
3 1306 1303 1923
3 432 654 1915
3 934 933 935
3 356 355 365
3 398 403 404
3 635 701 843
3 1110 1106 1657
3 574 571 575
3 1025 881 1176
3 386 380 786
3 415 432 1915
3 343 347 1911
3 1070 930 1071
3 1688 1740 2231
3 1385 1216 1863
3 1696 1274 1701
3 1645 305 2317
3 880 759 881
3 926 848 927
3 1427 1423 2217
3 1339 1662 2388
3 770 774 775
3 1263 1257 1428
3 1337 1864 2412
3 349 348 355
3 2267 1721 2498
3 753 752 847
3 1375 1086 1473
3 900 982 983
3 332 335 739
3 429 428 430
3 744 752 753
3 1171 2132 2165
3 1425 1426 1449
3 987 641 1954
3 1883 1786 2409
3 427 426 428
3 928 927 930
3 1815 1105 2015
3 1206 1499 1941
3 410 406 411
3 573 540 1954
3 497 499 504
3 528 560 561
3 1933 1404 2399
3 1091 1089 1969
3 1804 1282 2073
3 504 505 759
3 963 924 1113
3 1711 1710 1712
3 881 759 1146
3 968 1199 1200
3 351 352 362
3 848 847 1026
3 521 530 531
3 1884 490 2034
3 1277 957 1966
3 1349 1350 2329
3 676 1043 2045
3 997 1159 1286
3 517 1889 1890
3 781 835 836
3 944 948 1283
3 722 1776 2026
3 507 519 520
3 2040 1352 2058
3 1276 957 1277
3 446 437 447
3 931 860 977
3 361 359 765
3 1248 1536 2534
3 512 523 528
3 408 412 413
3 1368 1369 1370
3 451 2169 2223
3 192 75 1994
3 942 756 2026
3 345 344 348
3 764 1152 1963
3 413 418 419
3 1286 1773 1774
3 770 671 774
3 275 549 2124
3 1497 1645 2461
3 1982 1472 2272
3 422 435 441
3 281 279 736
3 1134 270 1135
3 582 562 583
3 1421 2415 2454
3 485 487 1935
3 2300 1067 2480
3 1578 1576 1827
3 930 927 1061
3 1026 1086 1375
3 922 2259 2379
3 1391 1120 1876
3 1495 1494 2493
3 404 407 408
3 879 2178 2449
3 1700 1698 2036
3 607 1517 1520
3 753 847 848
3 416 411 417
3 1144 742 1943
3 775 776 777
3 754 2108 2148
3 1006 1421 1953
3 585 581 586
3 531 530 532
3 235 1709 1888
3 520 519 521
3 1180 1181 1349
3 1146 759 1967
3 708 710 1921
3 1350 2253 2329
3 436 430 437
3 504 499 505
3 643 641 987
3 336 330 517
3 811 1059 1149
3 1164 1411 1685
3 846 933 934
3 635 843 1960
3 983 982 1918
3 971 872 1096
3 1149 1163 1164
3 169 237 1724
3 1314 1315 1316
3 629 583 630
3 891 812 1916
3 462 463 464
3 487 740 1935
3 798 2084 2189
3 1814 1838 2292
3 1284 1489 1491
3 340 336 2014
3 1670 1461 2200
3 920 782 2057
3 890 2241 2275
3 510 511 512
3 278 279 280
3 839 802 840
3 1858 235 1888
3 1698 1696 2036
3 104 105 222
3 57 58 224
3 1185 1183 1186
3 588 587 623
3 638 600 1988
3 1282 1386 2245
3 811 776 1058
3 816 815 876
3 2034 1845 2082
3 761 636 1741
3 566 565 587
3 174 175 1725
3 347 350 351
3 1469 1495 1496
3 1059 1058 1278
3 811 1149 1976
3 576 485 1935
3 659 658 660
3 859 1153 1962
3 76 1903 1994
3 1821 1109 2426
3 1294 1038 1622
3 733 1833 2075
3 992 993 1980
3 1566 1561 2285
3 525 474 2041
3 464 465 510
3 343 346 347
3 360 893 1982
3 650 649 651
3 896 608 936
3 950 1006 1007
3 1508 1859 1860
3 539 538 565
3 440 343 1911
3 341 340 344
3 221 1905 1906
3 1297 1823 2142
3 759 505 1967
3 1295 1053 1296
3 473 470 474
3 1463 1465 1466
3 1143 1206 2028
3 799 685 800
3 1210 2077 2203
3 509 508 538
3 492 496 2034
3 1553 1551 2030
3 1260 1261 1269
3 1430 1040 1703
3 586 590 1940
3 838 836 868
3 1705 624 2276
3 1749 972 2501
3 742 744 1943
3 804 962 1981
3 1367 1368 2254
3 531 532 533
3 337 336 340
3 1157 1094 1544
3 536 544 1158
3 812 630 1960
3 781 779 835
3 56 57 1947
3 630 583 634
3 1405 1404 1932
3 1281 891 1916
3 339 342 343
3 1411 1163 1730
3 322 323 324
3 344 340 2091
3 1735 1734 1736
3 75 76 1994
3 430 682 2494
3 1907 243 2360
3 589 581 2164
3 694 355 2196
3 744 753 1943
3 775 774 776
3 1210 1430 2077
3 335 338 339
3 1102 1803 2029
3 1078 937 1079
3 870 655 1939
3 505 507 1967
3 357 360 1982
3 1896 1878 2101
3 326 325 328
3 934 935 957
3 585 608 895
3 333 330 336
3 1270 1272 1524
3 688 817 878
3 507 520 1967
3 1428 1257 2074
3 1818 1817 2000
3 896 937 1077
3 934 957 1111
3 329 328 330
3 1499 995 1825
3 944 851 948
3 387 445 462
3 1678 1161 2228
3 777 776 811
3 313 311 757
3 324 331 332
3 848 1026 1955
3 1312 998 1811
3 1321 1322 2037
3 1080 1079 1121
3 1105 1355 2015
3 1645 2317 2461
3 1559 1568 2062
3 332 334 335
3 501 500 508
3 321 325 326
3 394 395 397
3 322 320 323
3 1529 1530 2171
3 1137 797 1138
3 811 1058 1059
3 661 660 662
3 569 581 585
3 183 4 2303
3 5 160 2304
3 1340 1138 1341
3 1660 1626 2185
3 1743 1464 2347
3 1026 1375 1955
3 1149 1059 1163
3 1736 1625 2194
3 1322 1667 2434
3 311 309 1959
3 309 307 319
3 894 700 1944
3 533 534 562
3 1276 1277 1366
3 2190 1706 2408
3 533 532 534
3 1214 1213 1410
3 1164 1163 1411
3 843 701 844
3 1009 1214 2055
3 234 1589 1788
3 2000 1817 2174
3 317 321 2050
3 328 325 945
3 392 393 394
3 588 623 2089
3 1162 958 1681
3 1078 1080 1136
3 927 848 1955
3 1496 1497 1498
3 390 391 392
3 1061 927 1955
3 1283 948 1284
3 635 634 700
3 1244 1251 1252
3 218 78 2093
3 756 722 2026
3 1071 1784 2419
3 1218 1505 2185
3 1284 948 1285
3 1489 1285 1490
3 918 1850 1851
3 684 1090 2029
3 1759 572 2537
3 1691 1690 2446
3 1979 1158 2071
3 606 649 650
3 2045 1043 2046
3 103 104 2025
3 630 634 635
3 360 383 893
3 406 386 2043
3 1909 219 2023
3 1111 957 1276
3 1925 1437 2277
3 1536 2268 2340
3 854 852 1133
3 233 153 1671
3 651 658 659
3 2099 1787 2368
3 1033 1032 1130
3 1015 1372 1373
3 1412 942 2026
3 253 264 1441
3 1531 1534 2332
3 701 700 894
3 106 107 1990
3 2048 1961 2455
3 276 274 2099
3 738 846 1968
3 1325 925 1326
3 896 936 937
3 585 586 608
3 1450 854 1973
3 1361 1360 1362
3 1045 1668 2512
3 303 301 444
3 996 844 997
3 79 1904 2093
3 1989 1686 2095
3 1928 774 2033
3 1942 562 1979
3 287 285 316
3 935 950 1966
3 1466 1467 1468
3 1242 1243 1244
3 1887 738 1968
3 2115 210 2477
3 878 929 1083
3 1326 1736 2194
3 886 888 1014
3 895 608 896
3 289 287 1978
3 821 822 897
3 936 608 1940
3 613 614 615
3 51 52 1996
3 417 411 1160
3 1149 1164 1989
3 386 786 2043
3 285 283 1971
3 1309 1543 2147
3 375 373 2053
3 371 370 372
3 779 777 1976
3 1286 1159 1773
3 2177 887 2376
3 1560 1557 1564
3 1403 1882 2399
3 1727 1757 2246
3 279 6 2049
3 1619 1438 2438
3 291 289 758
3 1781 1915 2294
3 425 401 426
3 349 355 356
3 66 67 2118
3 474 548 2041
3 1686 1687 2007
3 1262 1456 1457
3 1123 942 1412
3 1916 812 1960
3 1355 1425 2015
3 735 733 2075
3 1861 879 2449
3 1284 1285 1489
3 490 492 2034
3 366 363 367
3 980 578 2051
3 906 904 1792
3 534 536 1979
3 842 924 963
3 2051 578 2083
3 1077 937 1078
3 1102 1104 1803
3 894 1944 1946
3 398 404 2060
3 1007 1006 1953
3 369 367 370
3 348 354 2196
3 1078 1079 1080
3 1378 1380 1381
3 1568 1365 2439
3 608 586 1940
3 598 610 611
3 760 636 761
3 869 1137 1351
3 671 643 2033
3 1661 1345 2267
3 938 914 1057
3 783 761 914
3 576 1835 2144
3 388 389 390
3 297 295 318
3 454 453 500
3 1906 1728 2246
3 1439 1440 2468
3 1159 1013 1318
3 764 797 869
3 236 143 1717
3 782 644 2057
3 592 595 596
3 1542 2332 2443
3 1521 1311 2147
3 345 348 349
3 1304 1452 2205
3 1644 1907 2360
3 2146 1125 2149
3 997 844 1013
3 628 375 2053
3 299 297 1984
3 957 935 1966
3 664 685 799
3 301 299 1975
3 362 352 363
3 777 811 1976
3 1942 1979 2071
3 1001 920 2057
3 312 314 768
3 1552 1554 2062
3 615 616 617
3 357 1982 2076
3 800 802 839
3 774 671 2033
3 1749 1169 2105
3 365 958 1162
3 617 618 619
3 283 281 1938
3 1351 1772 2414
3 1525 1765 2489
3 846 934 1968
3 635 700 701
3 555 554 577
3 536 1158 1979
3 1101 1404 1405
3 630 635 1960
3 1811 1150 2089
3 2113 1666 2249
3 172 173 1847
3 107 108 195
3 54 55 196
3 1191 1768 2023
3 1455 1302 2205
3 115 116 2017
3 1387 1333 2437
3 659 661 764
3 1080 1121 1188
3 50 51 2011
3 411 406 2043
3 295 293 1983
3 643 987 2033
3 707 706 708
3 129 130 261
3 32 33 260
3 2159 260 2265
3 449 434 567
3 1314 1029 1315
3 917 796 940
3 378 375 628
3 108 109 1991
3 2370 1759 2537
3 341 344 345
3 997 1013 1159
3 544 569 1993
3 950 1007 1966
3 477 474 525
3 351 350 352
3 1696 1701 2036
3 334 331 803
3 1137 1138 1340
3 562 534 1979
3 109 110 246
3 52 53 247
3 1368 1316 1369
3 659 660 661
3 33 34 2002
3 123 124 2005
3 835 779 1976
3 851 838 1992
3 1530 1533 2172
3 1668 1045 2348
3 1162 1681 1706
3 342 338 468
3 298 300 358
3 765 359 2065
3 725 826 885
3 35 36 2003
3 46 47 2019
3 38 39 2006
3 336 517 2014
3 934 1111 1968
3 116 117 2018
3 650 651 1963
3 223 1711 2162
3 640 594 645
3 1333 1330 2192
3 104 222 2025
3 1603 922 2379
3 963 1113 1115
3 2084 1193 2189
3 564 570 571
3 36 37 2004
3 57 224 1947
3 1542 1601 2269
3 122 123 2012
3 1000 920 1001
3 127 128 240
3 34 35 239
3 383 387 2087
3 1161 1107 2228
3 1781 2294 2419
3 1201 1200 1202
3 124 125 225
3 37 38 226
3 1340 1341 1342
3 869 797 1137
3 839 840 1008
3 1158 544 1993
3 1326 925 1894
3 352 350 353
3 326 329 954
3 1864 2344 2412
3 836 835 2095
3 1051 1053 1295
3 1031 720 1032
3 503 461 787
3 1407 1112 2044
3 661 662 2058
3 838 868 1992
3 112 113 197
3 49 50 198
3 1359 980 1413
3 121 122 211
3 40 41 212
3 48 49 2010
3 113 114 2009
3 1741 673 2131
3 41 42 2020
3 120 121 2013
3 1409 2035 2097
3 1511 1374 2506
3 114 115 248
3 47 48 249
3 42 43 250
3 119 120 251
3 171 6 201
3 6 172 203
3 585 895 1993
3 43 44 2024
3 118 119 2021
3 905 904 906
3 764 661 797
3 337 340 341
3 1413 980 2051
3 117 118 205
3 44 45 206
3 347 346 350
3 1420 1076 1525
3 324 323 331
3 434 417 2031
3 965 967 969
3 716 719 788
3 1260 1254 1261
3 2053 373 2103
3 2069 2068 2170
3 326 328 329
3 1706 996 2408
3 273 275 2124
3 969 1011 1012
3 590 606 2001
3 1718 1611 2280
3 1914 1940 2001
3 915 1884 2082
3 329 330 333
3 620 859 955
3 2168 1409 2305
3 296 298 1997
3 915 2082 2101
3 339 338 342
3 1218 994 1505
3 333 336 337
3 266 263 1742
3 1873 768 2127
3 244 63 2162
3 64 223 2162
3 343 342 346
3 914 761 2258
3 310 312 1987
3 799 800 2055
3 302 304 763
3 1559 1566 1568
3 1598 1343 2114
3 592 575 595
3 341 345 794
3 189 1842 2220
3 767 815 816
3 1003 912 1004
3 839 1008 1009
3 1263 1428 1429
3 564 547 570
3 1845 1334 2082
3 332 331 334
3 901 866 902
3 651 659 1963
3 1009 1112 1213
3 335 334 338
3 569 585 1993
3 1665 1336 2299
3 1945 2071 2153
3 863 862 864
3 907 906 908
3 1849 1486 1930
3 1935 1144 2080
3 967 966 968
3 809 900 2119
3 865 864 866
3 835 1989 2095
3 190 1907 2417
3 333 337 522
3 1110 1748 2228
3 1193 1194 1195
3 94 191 2166
3 473 1854 2453
3 1769 1134 2369
3 948 851 1992
3 237 170 2216
3 420 419 422
3 1448 1447 2364
3 483 576 2144
3 721 1919 2032
3 885 886 1891
3 613 611 614
3 886 1014 1891
3 1160 411 2043
3 1918 1283 2342
3 1651 206 2485
3 1242 1240 1243
3 598 596 610
3 1295 1296 1459
3 1185 1186 1948
3 1425 1449 2070
3 294 296 762
3 1285 948 1992
3 925 876 1894
3 712 714 789
3 603 1668 2398
3 1940 590 2001
3 721 570 964
3 834 735 2075
3 1144 1920 2080
3 2263 1635 2511
3 1204 1207 1335
3 2235 1408 2378
3 965 964 966
3 1990 1435 2218
3 397 398 2060
3 1138 797 2058
3 1787 1141 2368
3 2068 820 2170
3 360 359 361
3 387 462 2087
3 1524 1272 1934
3 819 698 820
3 1197 1196 1198
3 1662 2126 2388
3 78 79 2093
3 1150 588 2089
3 1269 1261 1270
3 1878 915 2101
3 451 467 2169
3 2262 1387 2437
3 1009 1008 1112
3 757 311 1959
3 897 898 1139
3 1854 473 2483
3 2015 1425 2070
3 2082 1334 2101
3 963 1115 1174
3 1047 1049 1287
3 1194 423 1196
3 321 326 2050
3 417 1160 2031
3 854 1133 1973
3 1201 1212 1348
3 705 1586 2163
3 309 319 1959
3 1353 1390 2417
3 427 428 429
3 357 356 359
3 606 650 2001
3 549 1280 2124
3 1213 1112 1407
3 256 2303 2535
3 356 365 2065
3 662 664 2040
3 701 894 2039
3 1325 1371 2451
3 666 626 667
3 1902 93 2166
3 1236 1234 1246
3 800 839 2055
3 1869 1812 2252
3 1197 1364 1365
3 576 1935 2080
3 404 408 798
3 1678 807 2529
3 1560 1564 2016
3 1319 2039 2122
3 425 426 427
3 349 356 357
3 308 310 327
3 1716 622 2484
3 1801 82 2289
3 1768 1949 2420
3 2006 1926 2507
3 351 364 2407
3 420 423 1193
3 659 764 1963
3 292 294 2038
3 840 842 2027
3 736 279 2049
3 372 373 374
3 461 449 2052
3 2189 1195 2285
3 1174 1115 1398
3 367 363 961
3 909 908 918
3 1738 247 2402
3 1007 1761 2308
3 288 290 2135
3 422 441 2035
3 623 624 690
3 537 525 545
3 1953 1421 2454
3 1887 1968 2123
3 861 691 862
3 654 439 2223
3 1136 1080 2054
3 1312 1811 2089
3 575 571 2032
3 383 361 384
3 968 1200 1201
3 797 661 2058
3 1423 1354 2381
3 1180 1178 1181
3 1513 1515 2180
3 72 73 2217
3 462 445 463
3 12 13 2136
3 457 458 469
3 542 554 555
3 599 636 760
3 254 133 1766
3 1130 1397 1937
3 404 798 2060
3 1044 1942 2071
3 690 691 860
3 357 359 360
3 1008 2027 2152
3 1232 1230 1255
3 372 370 373
3 850 943 2125
3 1457 1456 1492
3 1952 324 2282
3 155 2 2356
3 0 7 2357
3 2017 1379 2288
3 918 1851 2008
3 195 1991 2517
3 2090 803 2347
3 1244 1243 1251
3 290 292 368
3 1432 1082 2214
3 1008 840 2027
3 1743 803 2296
3 1013 844 2039
3 365 1162 2065
3 1594 1315 2184
3 387 384 388
3 1508 1860 2311
3 547 527 2056
3 2005 225 2322
3 314 317 2127
3 1853 556 2327
3 201 6 278
3 1907 1644 2417
3 1896 2101 2108
3 646 645 784
3 538 508 558
3 374 375 377
3 1630 1634 1635
3 1579 1999 2352
3 1647 1648 1849
3 1313 1314 2121
3 1179 1433 2042
3 844 701 2039
3 1252 1251 2098
3 816 876 925
3 1922 1228 2281
3 392 394 396
3 1915 654 2294
3 1652 1653 2487
3 429 430 436
3 456 475 476
3 1605 1392 2510
3 126 1882 2284
3 1784 1780 2419
3 500 453 960
3 377 378 381
3 2178 1587 2300
3 1222 1219 1626
3 413 419 420
3 381 382 400
3 2169 1836 2223
3 1906 1905 2129
3 616 614 793
3 1170 1419 2139
3 101 189 2220
3 241 100 2220
3 1968 1111 2123
3 567 434 2031
3 615 614 616
3 1032 720 1921
3 682 428 2138
3 469 470 473
3 339 440 2261
3 1501 238 2226
3 1154 1431 1653
3 446 447 457
3 1251 1243 1257
3 2229 315 2495
3 1201 1202 1212
3 785 784 879
3 464 463 465
3 66 2118 2395
3 324 332 2282
3 286 288 771
3 17 199 2081
3 571 570 721
3 611 610 2092
3 617 616 618
3 1542 1531 2332
3 400 401 424
3 1325 1326 1371
3 1140 1406 1702
3 1323 443 2302
3 1926 1573 2507
3 436 437 446
3 1262 1457 2098
3 67 190 2118
3 1518 1861 2449
3 989 1359 1360
3 1063 1082 1154
3 1757 96 2526
3 969 967 1011
3 868 836 2095
3 1215 1035 2235
3 96 1757 2309
3 261 2160 2380
3 1381 1382 2126
3 1468 1469 2182
3 1334 1317 2108
3 861 863 1064
3 1270 1261 1271
3 360 361 383
3 287 316 1978
3 1856 192 2367
3 1905 241 2129
3 1615 1809 2425
3 528 523 560
3 979 980 989
3 662 2040 2058
3 721 964 965
3 170 171 2216
3 664 799 2040
3 512 511 523
3 1201 1348 2107
3 620 618 858
3 758 289 1978
3 859 858 998
3 424 425 453
3 1616 1615 2193
3 444 301 1975
3 561 560 593
3 965 966 967
3 1798 376 2430
3 340 2014 2091
3 510 465 511
3 107 195 1990
3 1080 1188 2054
3 1153 998 1312
3 1226 1224 1249
3 1012 1011 1363
3 902 904 905
3 842 963 2027
3 268 270 1134
3 865 901 1125
3 2077 558 2102
3 282 284 442
3 1977 1679 2253
3 1496 1498 2047
3 284 286 2063
3 281 736 1938
3 2132 793 2165
3 1674 215 2437
3 2078 1855 2411
3 839 1009 2055
3 1182 824 1183
3 1168 947 1169
3 1289 1871 2242
3 316 285 1971
3 1270 1271 1272
3 1755 1793 2264
3 51 1996 2011
3 383 384 387
3 1146 1924 2215
3 1279 1928 2202
3 619 618 620
3 1194 1196 1197
3 555 578 979
3 1937 1639 2528
3 1262 1257 1263
3 389 384 2339
3 2251 1338 2464
3 1155 1887 2123
3 1151 1937 2528
3 465 463 828
3 1318 1319 2116
3 1687 1688 2231
3 326 954 2050
3 297 318 1984
3 1308 953 2255
3 1846 2056 2198
3 320 315 2229
3 1254 1252 2059
3 760 761 783
3 951 1281 2255
3 1459 1296 2094
3 2288 1638 2470
3 1975 299 1984
3 52 247 1996
3 468 338 2090
3 2140 1511 2506
3 1125 1126 1192
3 593 824 1182
3 720 708 1921
3 704 706 707
3 623 587 624
3 2044 1112 2152
3 1393 1169 1749
3 900 983 2119
3 783 914 938
3 255 2265 2489
3 2039 894 2122
3 317 2050 2127
3 1866 1867 2513
3 374 373 375
3 429 436 455
3 387 388 445
3 1193 423 1194
3 555 577 578
3 1074 977 1187
3 449 567 2052
3 1197 1198 1364
3 2154 1595 2486
3 1486 1849 2173
3 318 295 1983
3 939 1016 1844
3 131 132 2160
3 30 31 2159
3 881 1146 2215
3 1294 1868 2238
3 1300 1455 2314
3 1365 1364 1912
3 783 938 939
3 2061 1735 2441
3 551 545 601
3 2194 216 2536
3 1251 1257 1262
3 888 887 2177
3 1364 1198 2048
3 1498 1682 2340
3 1589 1590 2501
3 60 188 2266
3 1401 1913 2324
3 195 108 1991
3 420 422 423
3 1675 1470 2474
3 258 1673 2183
3 2161 1619 2438
3 1296 1472 2094
3 1808 1910 2381
3 334 803 2090
3 1490 1285 2232
3 523 511 524
3 1240 1238 2074
3 1184 1183 1185
3 39 40 2151
3 473 474 477
3 1461 1463 2200
3 2072 353 2073
3 861 862 863
3 1206 1941 2401
3 958 1575 2287
3 614 611 2092
3 110 111 2140
3 1136 2054 2110
3 645 594 2133
3 260 33 2002
3 673 767 2131
3 989 980 1359
3 1741 2131 2258
3 1317 1875 2148
3 894 1946 2122
3 863 864 865
3 787 461 2052
3 857 2277 2386
3 109 246 1991
3 2017 116 2018
3 1182 1183 1184
3 377 375 378
3 816 925 1324
3 865 866 901
3 1262 1263 1456
3 359 356 2065
3 2129 241 2472
3 283 1938 1971
3 1458 1210 2203
3 1076 1003 2145
3 196 1738 2402
3 1033 1130 1151
3 1188 1121 2106
3 1140 1702 2096
3 549 687 1280
3 1694 1621 2191
3 861 1064 2112
3 1548 1549 2129
3 1784 1071 2462
3 714 716 2066
3 1961 825 2455
3 1447 1211 2250
3 979 578 980
3 905 907 1209
3 381 378 382
3 457 469 552
3 595 575 2032
3 408 413 2084
3 481 483 2144
3 1745 1349 2293
3 1980 1405 2441
3 198 50 2011
3 248 115 2017
3 912 819 2068
3 620 858 859
3 707 708 720
3 821 674 822
3 514 542 2086
3 400 382 401
3 123 2005 2012
3 1772 1351 2374
3 34 239 2002
3 768 314 2127
3 2003 36 2004
3 280 282 2079
3 124 225 2005
3 596 595 2130
3 593 560 824
3 1504 1502 2519
3 239 35 2003
3 1311 1309 2147
3 1318 1877 2240
3 1860 1432 2311
3 1416 1715 2330
3 859 998 1153
3 352 353 2072
3 312 768 1987
3 2027 1174 2152
3 226 38 2006
3 1827 1024 2117
3 1710 1391 2295
3 690 624 691
3 37 226 2004
3 1153 1312 1885
3 853 855 2186
3 1892 242 2373
3 1967 520 2174
3 939 938 1016
3 47 249 2019
3 388 390 2078
3 1991 2139 2517
3 905 906 907
3 571 721 2032
3 1196 423 2035
3 1324 925 1325
3 1151 1130 1937
3 363 352 2072
3 345 349 2076
3 1031 1032 1033
3 214 179 1859
3 211 122 2012
3 602 601 652
3 117 205 2018
3 710 712 2067
3 1602 187 2357
3 520 2000 2174
3 85 242 2335
3 220 84 2335
3 381 400 2113
3 1586 1587 2435
3 424 401 425
3 963 1174 2027
3 860 691 861
3 610 596 2130
3 1958 2078 2431
3 570 547 2056
3 237 2216 2354
3 1211 1692 2219
3 298 358 1997
3 909 947 1041
3 441 456 2097
3 1135 1647 1849
3 1601 1542 2443
3 197 113 2009
3 49 198 2010
3 1911 347 2407
3 1729 191 2309
3 212 41 2020
3 121 211 2013
3 222 105 2218
3 1125 901 1126
3 114 248 2009
3 249 48 2010
3 42 250 2020
3 251 120 2013
3 233 1769 2369
3 1870 647 2113
3 794 345 2076
3 250 43 2024
3 119 251 2021
3 901 902 2141
3 964 570 2056
3 739 335 2261
3 2108 1317 2148
3 577 599 2083
3 205 118 2021
3 44 206 2024
3 1247 1241 2323
3 1894 992 2244
3 6 203 2049
3 1642 1678 2529
3 1417 1873 2333
3 1422 2023 2516
3 341 794 2100
3 73 74 2361
3 1234 1232 2088
3 1261 1254 2059
3 896 1077 2257
3 1921 710 2067
3 125 126 2284
3 220 1699 2289
3 159 5 2304
3 4 184 2303
3 2059 1252 2098
3 1003 1004 2145
3 2328 1325 2451
3 1486 227 1500
3 63 64 2162
3 2081 1192 2260
3 508 500 2102
3 667 1872 2318
3 338 334 2090
3 423 422 2035
3 1192 1126 1471
3 907 908 909
3 1330 1328 2192
3 1972 897 2500
3 2443 316 2514
3 242 86 2373
3 87 193 2373
3 420 1193 2084
3 1473 1086 2358
3 1987 768 2037
3 522 337 2100
3 627 1660 2185
3 1793 446 2264
3 1405 2061 2441
3 1502 1217 2302
3 171 201 2216
3 1158 1993 2153
3 1197 1365 2120
3 1712 1710 2295
3 1121 1401 2414
3 93 94 2166
3 653 652 688
3 622 1716 2452
3 1345 1720 2267
3 477 537 556
3 128 129 2181
3 2331 1295 2458
3 784 645 874
3 1269 1270 2199
3 189 102 2355
3 1041 1168 1343
3 246 110 2140
3 477 525 537
3 755 1895 2371
3 1947 1723 2313
3 1134 1135 2369
3 223 65 2395
3 968 1201 2107
3 1577 1578 2325
3 210 15 2477
3 961 363 2072
3 1581 1579 2352
3 349 357 2076
3 337 341 2100
3 305 303 2317
3 370 367 2103
3 762 296 1997
3 581 580 2164
3 1278 1838 2372
3 1548 2129 2472
3 594 593 2133
3 2021 251 2022
3 2047 1247 2182
3 967 968 2107
3 1169 947 2008
3 481 2144 2169
3 793 614 2092
3 1910 217 2381
3 1251 1262 2098
3 716 788 2066
3 2101 1334 2108
3 2006 39 2151
3 1603 2379 2508
3 1926 2006 2151
3 96 97 2526
3 750 755 2371
3 789 714 2066
3 909 918 947
3 1993 895 2153
3 106 1990 2218
3 1243 1240 2074
3 832 986 1189
3 1283 1284 2342
3 2297 195 2517
3 1043 829 2326
3 767 816 2131
3 602 653 676
3 1004 912 2068
3 2086 1886 2224
3 1124 2177 2467
3 426 401 2531
3 707 720 1030
3 1000 1001 2184
3 1315 1029 2184
3 467 481 2169
3 541 513 2256
3 647 381 2113
3 225 2284 2510
3 2 156 2356
3 187 0 2357
3 40 212 2151
3 2245 1386 2383
3 676 677 829
3 1004 2068 2069
3 1860 232 2487
3 1031 1033 1034
3 829 830 972
3 996 997 2408
3 1195 1194 2120
3 987 1869 2202
3 1410 1213 2222
3 819 820 2068
3 1485 1486 2173
3 1564 2030 2155
3 807 669 2529
3 129 261 2181
3 1525 1076 2145
3 578 577 2083
3 327 310 1987
3 1083 929 2197
3 2131 1324 2258
3 798 408 2084
3 1838 696 2426
3 1486 1500 1930
3 1946 1944 2291
3 2257 1077 2291
3 1512 1661 2266
3 445 388 2078
3 1192 1471 2260
3 2118 1415 2395
3 1466 1468 2158
3 830 677 831
3 211 2012 2251
3 652 601 2442
3 537 545 551
3 558 508 2102
3 198 2011 2128
3 1718 2280 2385
3 500 960 2102
3 1168 1169 1393
3 1127 971 2496
3 95 96 2309
3 2030 1565 2155
3 1919 1172 2273
3 977 860 2112
3 240 128 2181
3 294 762 2038
3 1800 1799 2195
3 712 789 2067
3 972 1749 2326
3 472 1683 2212
3 874 645 2133
3 551 2045 2201
3 2105 1043 2326
3 1957 1212 2301
3 1514 1856 2367
3 565 538 2167
3 373 370 2103
3 355 348 2196
3 1934 1272 2138
3 1934 426 2531
3 1881 1400 2481
3 2046 1851 2327
3 367 961 2103
3 1963 1152 2206
3 201 278 443
3 3 131 2444
3 31 1 2445
3 2035 441 2097
3 503 787 2198
3 1135 1849 1930
3 1534 1983 2306
3 2089 623 2150
3 687 704 2109
3 869 1351 2363
3 1302 1304 2205
3 955 1716 2484
3 1030 720 1031
3 1159 1318 2240
3 1228 1226 2281
3 947 918 2008
3 413 420 2084
3 785 879 2532
3 1041 947 1168
3 1468 2182 2323
3 1246 1234 2088
3 1730 1163 2372
3 542 555 2086
3 1599 631 2312
3 1146 1967 2174
3 1078 1136 2343
3 1515 1574 2180
3 2336 885 2469
3 1257 1243 2074
3 1347 1346 2279
3 2001 650 2206
3 1480 1601 2514
3 1029 1000 2184
3 1956 788 2336
3 1271 1261 2059
3 130 3 2444
3 1 32 2445
3 1570 1507 2197
3 1232 1255 2088
3 791 1642 2529
3 1601 1479 2269
3 1361 1362 2168
3 1634 1922 2281
3 765 2065 2190
3 2071 1158 2153
3 1699 1801 2289
3 832 831 833
3 1864 346 2344
3 456 476 2097
3 1855 828 2411
3 2065 1162 2190
3 1125 1192 2149
3 599 760 2083
3 361 765 2339
3 1731 2123 2241
3 1349 1181 1350
3 1443 1275 2251
3 1819 524 2429
3 1021 1045 2512
3 858 618 2132
3 1999 358 2338
3 368 292 2038
3 290 368 2135
3 803 331 2296
3 1112 1008 2152
3 56 1947 2313
3 555 979 2086
3 1469 1496 2182
3 1011 967 2107
3 248 2017 2288
3 1809 789 2425
3 960 453 2221
3 538 558 2167
3 1858 1187 2248
3 2246 1757 2526
3 902 905 2141
3 1851 1853 2327
3 1224 1222 2111
3 771 288 2135
3 1945 2153 2257
3 1420 1525 2489
3 1399 1123 2393
3 103 2025 2355
3 897 822 898
3 1861 940 2532
3 865 1125 2146
3 1675 2474 2522
3 1573 2157 2507
3 1632 1631 2382
3 551 601 602
3 527 503 2198
3 1708 805 2337
3 1059 1278 2372
3 2056 527 2198
3 860 861 2112
3 1668 2348 2398
3 255 2159 2265
3 1541 1542 2269
3 1428 2074 2227
3 1582 1583 2321
3 389 1774 2503
3 2004 226 2157
3 1777 397 2405
3 1368 1436 2254
3 1061 2409 2462
3 1071 930 2462
3 1126 901 2141
3 1194 1197 2120
3 1452 1952 2282
3 2116 1319 2482
3 105 106 2218
3 1981 1399 2393
3 2119 983 2143
3 444 1682 2461
3 2173 1648 2463
3 616 793 2132
3 1791 1190 2334
3 1826 1728 2259
3 602 652 653
3 1834 1292 2428
3 556 2201 2327
3 1014 1015 2385
3 1995 1287 2331
3 1193 1195 2189
3 816 1324 2131
3 879 1861 2532
3 593 1182 2133
3 1402 266 1742
3 2216 1323 2354
3 1660 1636 2502
3 620 955 2484
3 1162 1706 2190
3 1870 2113 2249
3 204 1680 1732
3 1909 2023 2420
3 217 72 2217
3 376 372 2430
3 905 1209 2141
3 1378 1381 2283
3 1236 1246 2227
3 286 771 2063
3 1635 2263 2502
3 100 101 2220
3 1139 898 1140
3 2114 1343 2136
3 442 284 2063
3 1772 2106 2414
3 1985 1755 2533
3 2192 1328 2315
3 1064 863 2146
3 1631 1637 2459
3 736 2049 2523
3 221 1906 2246
3 318 1983 2171
3 1496 2047 2182
3 1374 2139 2506
3 196 55 2313
3 2087 462 2134
3 676 653 677
3 2304 257 2491
3 1401 2324 2363
3 829 677 830
3 654 2223 2242
3 1187 977 2112
3 1463 1466 2200
3 2023 219 2516
3 1176 881 2215
3 513 471 2290
3 1812 459 2252
3 1386 1269 2199
3 291 758 2306
3 618 616 2132
3 278 280 2210
3 83 220 2289
3 82 83 2289
3 938 1057 2161
3 1189 986 1190
3 788 719 2336
3 1914 2001 2206
3 232 181 1652
3 1567 2062 2490
3 313 757 2495
3 622 619 2484
3 688 878 1320
3 1222 1626 2111
3 282 442 2079
3 1169 2008 2105
3 1966 1007 2308
3 2040 799 2237
3 1744 2229 2495
3 986 833 1063
3 2284 1605 2510
3 887 1961 2376
3 215 1624 2262
3 830 831 832
3 476 475 2224
3 439 451 2223
3 1932 1933 2380
3 2227 1246 2366
3 1212 1202 2301
3 1107 1110 2228
3 249 2010 2299
3 1983 293 2306
3 2055 1214 2237
3 1438 1372 2478
3 824 560 2156
3 2320 1866 2513
3 1351 1137 2374
3 868 2007 2232
3 2063 771 2064
3 1507 214 1508
3 1728 1727 2246
3 1045 1047 2348
3 1139 1140 2096
3 1648 1649 2463
3 1502 2302 2519
3 704 707 2109
3 2343 1136 2396
3 650 1963 2206
3 2153 895 2257
3 396 1958 2431
3 1379 1377 2288
3 2115 1471 2319
3 2033 987 2202
3 2239 1693 2518
3 2025 1488 2355
3 1209 2115 2319
3 523 524 2156
3 783 939 2243
3 376 1798 2497
3 2066 788 2193
3 1984 318 2172
3 425 427 2221
3 203 172 1847
3 446 457 2264
3 1312 2089 2150
3 2138 1272 2211
3 897 1139 2274
3 828 1819 2429
3 1249 1224 2111
3 666 667 2318
3 1371 1326 2194
3 2433 1499 2475
3 1272 1271 2211
3 1367 2254 2479
3 1386 2053 2383
3 2074 1238 2227
3 755 2148 2320
3 2117 1604 2428
3 475 514 2224
3 228 2187 2457
3 1868 1504 2520
3 1626 1218 2185
3 2123 1111 2241
3 1287 1049 2331
3 1280 687 2109
3 459 1814 2292
3 54 196 2402
3 863 865 2146
3 204 176 1680
3 514 2086 2224
3 1646 603 2398
3 112 197 2346
3 358 300 2338
3 1140 898 1141
3 1204 1335 2301
3 1016 2161 2438
3 909 1041 2175
3 1681 2448 2492
3 2252 459 2292
3 1992 868 2232
3 1035 1036 2235
3 1051 1295 2331
3 1836 1289 2242
3 1508 214 1859
3 247 53 2402
3 1016 938 2161
3 1408 856 2378
3 1466 2158 2200
3 725 885 2336
3 855 1450 2421
3 2023 1768 2420
3 1238 1236 2227
3 1679 202 2253
3 2107 1348 2233
3 1653 1431 2487
3 1946 2291 2343
3 2253 202 2329
3 1885 1312 2150
3 378 628 2390
3 2195 1383 2432
3 1520 1519 2480
3 1532 1733 2534
3 308 327 2278
3 953 951 2255
3 1213 1407 2222
3 1561 1563 2285
3 302 763 2338
3 1928 2033 2202
3 763 304 2345
3 832 833 986
3 1352 2040 2237
3 247 1881 2481
3 560 523 2156
3 335 339 2261
3 346 342 2344
3 201 443 1323
3 2301 1335 2466
3 323 320 2229
3 1136 2110 2396
3 1139 1977 2274
3 1809 1615 2423
3 1707 1791 2334
3 46 2019 2485
3 2064 1294 2238
3 1950 197 2404
3 2021 2022 2176
3 1949 245 2420
3 2044 2152 2207
3 1063 1154 1707
3 1012 1363 2406
3 280 2079 2210
3 2237 1214 2351
3 820 698 2318
3 1140 1141 1406
3 205 2021 2176
3 2043 786 2310
3 2145 1004 2446
3 707 1030 2109
3 1406 2460 2473
3 2137 1268 2226
3 16 2081 2260
3 567 2031 2219
3 2112 1064 2248
3 206 45 2485
3 2347 1462 2365
3 1650 1962 2362
3 453 425 2221
3 1209 907 2175
3 1111 1276 2241
3 2448 1145 2492
3 2051 2083 2243
3 59 60 2266
3 1402 1742 2530
3 831 677 2209
3 624 587 2276
3 238 174 1725
3 1011 2107 2233
3 468 2365 2412
3 2337 805 2371
3 254 1932 2380
3 1174 1398 2207
3 2140 111 2346
3 1381 2186 2283
3 1987 2037 2188
3 1740 559 2456
3 1773 391 2503
3 1335 1870 2249
3 1945 2257 2291
3 828 463 2411
3 1246 2088 2208
3 2060 798 2307
3 1773 1159 2240
3 1187 2112 2248
3 1352 2237 2351
3 2037 1322 2188
3 1941 1499 2433
3 2322 225 2510
3 1031 1034 2236
3 327 2188 2321
3 595 2032 2273
3 1464 1462 2347
3 1285 1992 2232
3 799 2055 2237
3 443 278 2210
3 784 874 2178
3 392 396 2431
3 191 95 2309
3 879 784 2178
3 524 511 2429
3 2128 2011 2270
3 895 896 2257
3 2206 1152 2324
3 318 2171 2172
3 2259 1549 2379
3 1214 1410 2351
3 306 308 2278
3 2022 251 2247
3 1757 1729 2309
3 1283 1918 2524
3 996 1706 2492
3 557 2044 2207
3 1798 1448 2364
3 1447 2250 2310
3 559 1750 2403
3 1363 1011 2233
3 1343 1168 2187
3 1407 2044 2256
3 1462 1460 2365
3 1995 2331 2458
3 327 1987 2188
3 2160 254 2380
3 1681 958 2287
3 2031 1160 2250
3 1600 689 2413
3 2219 1692 2239
3 1494 1675 2522
3 1281 1916 2448
3 907 909 2175
3 565 2167 2276
3 2241 1276 2275
3 1978 316 2443
3 2151 212 2350
3 203 1847 2104
3 2049 1481 2523
3 1961 1362 2376
3 2187 1393 2457
3 940 796 2532
3 2293 1349 2329
3 572 1897 2537
3 332 739 2282
3 2052 567 2239
3 1437 1370 2277
3 567 2219 2239
3 667 626 2452
3 1914 2206 2324
3 2243 939 2392
3 2136 1343 2187
3 257 1654 2530
3 1376 1378 2283
3 2076 1982 2272
3 2083 760 2243
3 1944 1945 2291
3 1771 1839 2359
3 1404 1403 2399
3 1875 1866 2320
3 1460 1337 2412
3 760 783 2243
3 1276 1366 2275
3 1428 2227 2366
3 1882 1605 2284
3 1739 1429 2459
3 2321 2188 2434
3 1328 1327 2315
3 798 2189 2307
3 2152 1174 2207
3 2182 1247 2323
3 1516 1514 2367
3 293 291 2306
3 556 537 2201
3 1298 1300 2314
3 1400 1399 2316
3 1649 2236 2463
3 833 831 2424
3 2127 2050 2333
3 1057 914 2328
3 1839 193 2359
3 761 1741 2258
3 1186 1970 2422
3 1429 2366 2382
3 2211 1271 2271
3 1733 1248 2534
3 13 2114 2136
3 2078 390 2431
3 1533 1536 2340
3 1690 2145 2446
3 1277 2308 2370
3 1168 1393 2187
3 1597 2047 2268
3 587 565 2276
3 1908 244 2401
3 225 125 2284
3 610 2130 2468
3 1749 2105 2326
3 1913 1914 2324
3 2366 2208 2382
3 1391 1876 2295
3 457 552 2264
3 653 688 2209
3 1601 2443 2514
3 682 2138 2211
3 992 1980 2244
3 55 56 2313
3 1645 1495 2493
3 473 477 2483
3 202 1724 2329
3 465 828 2429
3 1277 1966 2308
3 1416 2330 2406
3 1912 1364 2455
3 1716 1483 2375
3 2019 1651 2485
3 1725 2137 2226
3 201 1323 2216
3 878 1083 2213
3 2072 2073 2245
3 1563 1777 2405
3 244 2028 2401
3 2016 1564 2422
3 1682 1497 2461
3 1962 1153 2362
3 1298 2314 2358
3 1384 1385 2391
3 688 1320 2209
3 1587 2179 2435
3 786 380 2497
3 1395 1522 2341
3 2032 1919 2273
3 251 2013 2247
3 2219 2031 2250
3 2397 552 2453
3 1765 255 2489
3 2475 1825 2524
3 1202 1204 2301
3 445 2078 2411
3 323 2229 2296
3 1286 2384 2408
3 537 551 2201
3 1724 237 2293
3 84 85 2335
3 1471 1126 2319
3 1635 1634 2511
3 300 302 2338
3 698 666 2318
3 1030 1031 2236
3 2098 1457 2271
3 696 1821 2426
3 1457 1492 2447
3 1956 2336 2469
3 331 323 2296
3 1284 1491 2342
3 2011 1996 2270
3 256 183 2303
3 160 257 2304
3 2204 1589 2501
3 1891 1014 2280
3 719 725 2336
3 1354 1808 2381
3 437 430 2494
3 2377 218 2391
3 2211 2271 2447
3 1407 2256 2290
3 2365 1460 2412
3 2047 1498 2268
3 1825 1283 2524
3 1499 1825 2475
3 1226 1249 2281
3 2051 2243 2392
3 2250 1160 2310
3 111 112 2346
3 304 306 2345
3 1341 1352 2351
3 2166 191 2504
3 2223 1836 2242
3 1996 247 2481
3 1049 1051 2331
3 1086 1298 2358
3 2130 595 2273
3 1249 2111 2263
3 680 1995 2458
3 1511 2140 2346
3 102 103 2355
3 469 473 2453
3 961 2072 2245
3 2073 1282 2245
3 1442 1443 2525
3 74 192 2361
3 2163 1586 2435
3 1519 1518 2449
3 897 2274 2500
3 303 444 2317
3 1615 1614 2423
3 197 2009 2404
3 1634 2281 2511
3 1780 1781 2419
3 1435 1623 2465
3 1286 1774 2384
3 384 361 2339
3 193 1901 2359
3 1165 2433 2475
3 2277 1370 2386
3 677 653 2209
3 1994 1516 2367
3 1479 1478 2440
3 1165 1512 2433
3 1644 1353 2417
3 1711 1712 2353
3 2193 1615 2425
3 1613 1956 2469
3 1440 1173 2330
3 2269 1479 2440
3 222 2218 2465
3 391 389 2503
3 306 2278 2345
3 468 2090 2365
3 221 2246 2526
3 1445 1446 2504
3 939 1844 2392
3 86 87 2373
3 1429 1428 2366
3 2053 2103 2383
3 1348 1212 2312
3 805 750 2371
3 997 1286 2408
3 1152 869 2363
3 2063 2064 2238
3 192 1994 2367
3 1160 2043 2310
3 1926 2151 2350
3 2059 2098 2271
3 1897 1366 2537
3 215 2262 2437
3 1655 1732 2476
3 2415 1128 2454
3 1320 2213 2214
3 7 258 2357
3 259 155 2356
3 2171 1530 2172
3 347 351 2407
3 1077 1078 2343
3 239 2003 2279
3 1446 1128 2415
3 1034 1033 2410
3 601 627 2442
3 1154 1653 2234
3 397 2060 2405
3 2142 794 2272
3 442 2063 2238
3 1863 1215 2378
3 794 2076 2272
3 1883 1375 2505
3 1320 878 2213
3 342 468 2344
3 1903 218 2377
3 380 376 2497
3 1549 1547 2379
3 1148 1165 2475
3 2157 226 2507
3 829 972 2326
3 884 1957 2466
3 2291 1077 2343
3 65 66 2395
3 787 2052 2518
3 2298 1348 2312
3 1946 2343 2396
3 1653 256 2535
3 1842 1548 2472
3 1957 2301 2466
3 1366 1277 2370
3 2213 1432 2214
3 961 2245 2383
3 218 2093 2391
3 1376 2283 2421
3 1873 2127 2333
3 1019 1021 2512
3 1128 1127 2454
3 1104 1434 2450
3 2130 1439 2468
3 2396 2110 2482
3 2186 855 2283
3 1724 2293 2329
3 1163 1059 2372
3 1614 2389 2423
3 53 54 2402
3 1063 1707 2334
3 2283 855 2421
3 1385 1863 2436
3 364 1883 2505
3 517 1890 2387
3 1145 996 2492
3 1047 1287 2348
3 2148 1875 2320
3 205 2176 2416
3 1372 1844 2478
3 1211 2219 2250
3 1141 898 2368
3 245 1909 2420
3 2278 327 2321
3 2389 1397 2423
3 2256 513 2290
3 559 2403 2456
3 1137 1340 2374
3 2093 1384 2391
3 1918 1148 2524
3 1030 2236 2427
3 1867 1895 2513
3 2014 517 2387
3 2271 1457 2447
3 1143 2028 2353
3 1904 194 2432
3 1148 2475 2524
3 1574 1523 2436
3 2213 1083 2311
3 1997 358 2325
3 2139 246 2506
3 1370 1369 2386
3 1271 2059 2271
3 1034 2173 2463
3 1123 1412 2393
3 1578 1827 2515
3 2209 1320 2424
3 2079 1504 2210
3 1361 2168 2305
3 1491 1489 2403
3 238 1725 2226
3 1190 986 2334
3 1547 1545 2508
3 1891 1613 2469
3 1153 1885 2362
3 2208 1632 2382
3 2287 1281 2448
3 1356 1376 2421
3 1965 2349 2515
3 2155 1186 2422
3 1522 2014 2387
3 2158 1468 2323
3 2050 954 2333
3 1397 1809 2423
3 1362 1360 2376
3 1852 1985 2397
3 2069 1691 2446
3 789 2066 2425
3 1895 755 2513
3 1707 1154 2234
3 372 374 2430
3 2225 787 2518
3 2028 1206 2401
3 986 1063 2334
3 1912 726 2439
3 1340 1342 2400
3 1916 1145 2448
3 2236 1649 2427
3 2374 1340 2400
3 2222 1407 2290
3 2324 1152 2363
3 241 2220 2472
3 765 2190 2384
3 2375 667 2452
3 2330 1173 2406
3 1181 1972 2500
3 2126 1382 2388
3 1173 1012 2406
3 315 313 2495
3 1015 1373 2385
3 97 221 2526
3 1937 1397 2389
3 930 1061 2462
3 971 1096 2496
3 45 46 2485
3 669 791 2529
3 1104 2450 2521
3 382 378 2390
3 2191 1371 2536
3 2235 1036 2286
3 831 2209 2424
3 762 1997 2349
3 2379 1547 2508
3 2177 1359 2467
3 2403 1489 2456
3 796 785 2532
3 219 1902 2516
3 1519 2300 2480
3 1065 1655 2476
3 1375 1473 2505
3 1489 1490 2456
3 390 392 2431
3 2247 2013 2464
3 1135 1930 2369
3 2278 1583 2345
3 626 622 2452
3 631 2298 2312
3 2233 1348 2298
3 1398 1974 2499
3 1706 1681 2492
3 261 130 2444
3 32 260 2445
3 822 2099 2368
3 1365 1912 2439
3 941 940 2418
3 1446 2166 2504
3 2106 1121 2414
3 2300 1519 2449
3 1803 1104 2521
3 1732 1570 2476
3 1413 2051 2392
3 2122 1946 2396
3 2238 1868 2520
3 477 556 2483
3 2397 1985 2533
3 463 445 2411
3 2163 1185 2488
3 1126 2141 2319
3 1755 2264 2533
3 972 2204 2501
3 2230 1533 2340
3 1774 1773 2503
3 1997 2325 2349
3 1004 2069 2446
3 2159 31 2445
3 131 2160 2444
3 1371 2191 2451
3 1001 2154 2486
3 1682 2230 2340
3 2103 961 2383
3 1033 1151 2410
3 382 2390 2531
3 1504 2079 2520
3 1583 2278 2321
3 511 465 2429
3 250 2024 2479
3 2208 2088 2509
3 619 620 2484
3 1246 2208 2366
3 2141 1209 2319
3 1359 1413 2467
3 1295 1459 2458
3 2218 1435 2465
3 2281 1249 2511
3 2293 237 2354
3 2207 1398 2499
3 1564 2155 2422
3 552 469 2453
3 1947 224 2498
3 2062 1568 2490
3 2018 205 2416
3 260 2159 2445
3 2160 261 2444
3 2092 610 2468
3 194 2195 2432
3 1432 2213 2311
3 211 2251 2464
3 2378 856 2527
3 1536 1532 2534
3 2364 786 2497
3 2438 1438 2478
3 1185 1948 2488
3 2042 941 2418
3 1582 2321 2434
3 885 1891 2469
3 1364 2048 2455
3 1693 2225 2518
3 401 382 2531
3 1338 2247 2464
3 442 2238 2520
3 1292 2117 2428
3 2274 1350 2500
3 2066 2193 2425
3 2179 1184 2435
3 898 822 2368
3 2436 1863 2527
3 1844 1016 2478
3 2184 1001 2486
3 557 2207 2499
3 2013 211 2464
3 2254 250 2479
3 1350 1181 2500
3 2009 248 2470
3 246 2140 2506
3 1574 2436 2527
3 2139 1419 2517
3 316 1971 2514
3 1319 2122 2482
3 226 2006 2507
3 1400 2270 2481
3 1681 2287 2448
3 2325 1578 2349
3 232 1652 2487
3 1320 2214 2424
3 1632 2208 2509
3 248 2288 2470
3 1406 1141 2460
3 2188 1322 2434
3 2244 1980 2441
3 2088 1255 2509
3 1280 2109 2427
3 2060 2307 2405
3 2236 1034 2463
3 1745 2293 2354
3 2122 2396 2482
3 2109 1030 2427
3 2307 1563 2405
3 1429 2382 2459
3 224 2267 2498
3 682 2211 2447
3 2079 442 2520
3 2348 1287 2398
3 2220 1842 2472
3 1335 2249 2466
3 1249 2263 2511
3 443 2210 2519
3 2385 1373 2394
3 1594 2184 2486
3 2052 2239 2518
3 1568 2439 2490
3 2349 1578 2515
3 2344 468 2412
3 2270 1996 2481
3 1735 2244 2441
3 2260 1471 2477
3 2210 1504 2519
3 1434 2297 2450
3 2297 1419 2450
3 2263 1660 2502
3 2404 2009 2470
3 1718 2385 2394
3 1371 2194 2536
3 2317 444 2461
3 1443 2322 2525
3 1716 2375 2452
3 1863 2378 2527
3 2439 726 2490
3 1057 2328 2451
3 1638 2404 2470
3 1454 2234 2535
3 755 2320 2513
3 2234 1653 2535
3 2264 552 2533
3 1419 2297 2517
3 1392 2322 2510
3 552 2397 2533
3 1798 2364 2497
3 2322 1392 2525
3 2382 1631 2459
3 1016 2438 2478
3 1366 2370 2537
3 1742 2491 2530
3 2491 257 2530
CELL_TYPES 4886
5
5
5
5
5
5
5
5
5
5
5
5
5
5
5
5
5
5
5
5
5
5
5
5
5
5
5
5
5
5
5
5
5
5
5
5
5
5
5
5
5
5
5
5
5
5
5
5
5
5
5
5
5
5
5
5
5
5
5
5
5
5
5
5
5
5
5
5
5
5
5
5
5
5
5
5
5
5
5
5
5
5
5
5
5
5
5
5
5
5
5
5
5
5
5
5
5
5
5
5
5
5
5
5
5
5
5
5
5
5
5
5
5
5
5
5
5
5
5
5
5
5
5
5
5
5
5
5
5
5
5
5
5
5
5
5
5
5
5
5
5
5
5
5
5
5
5
5
5
5
5
5
5
5
5
5
5
5
5
5
5
5
5
5
5
5
5
5
5
5
5
5
5
5
5
5
5
5
5
5
5
5
5
5
5
5
5
5
5
5
5
5
5
5
5
5
5
5
5
5
5
5
5
5
5
5
5
5
5
5
5
5
5
5
5
5
5
5
5
5
5
5
5
5
5
5
5
5
5
5
5
5
5
5
5
5
5
5
5
5
5
5
5
5
5
5
5
5
5
5
5
5
5
5
5
5
5
5
5
5
5
5
5
5
5
5
5
5
5
5
5
5
5
5
5
5
5
5
5
5
5
5
5
5
5
5
5
5
5
5
5
5
5
5
5
5
5
5
5
5
5
5
5
5
5
5
5
5
5
5
5
5
5
5
5
5
5
5
5
5
5
5
5
5
5
5
5
5
5
5
5
5
5
5
5
5
5
5
5
5
5
5
5
5
5
5
5
5
5
5
5
5
5
5
5
5
5
5
5
5
5
5
5
5
5
5
5
5
5
5
5
5
5
5
5
5
5
5
5
5
5
5
5
5
5
5
5
5
5
5
5
5
5
5
5
5
5
5
5
5
5
5
5
5
5
5
5
5
5
5
5
5
5
5
5
5
5
5
5
5
5
5
5
5
5
5
5
5
5
5
5
5
5
5
5
5
5
5
5
5
5
5
5
5
5
5
5
5
5
5
5
5
5
5
5
5
5
5
5
5
5
5
5
5
5
5
5
5
5
5
5
5
5
5
5
5
5
5
5
5
5
5
5
5
5
5
5
5
5
5
5
5
5
5
5
5
5
5
5
5
5
5
5
5
5
5
5
5
5
5
5
5
5
5
5
5
5
5
5
5
5
5
5
5
5
5
5
5
5
5
5
5
5
5
5
5
5
5
5
5
5
5
5
5
5
5
5
5
5
5
5
5
5
5
5
5
5
5
5
5
5
5
5
5
5
5
5
5
5
5
5
5
5
5
5
5
5
5
5
5
5
5
5
5
5
5
5
5
5
5
5
5
5
5
5
5
5
5
5
5
5
5
5
5
5
5
5
5
5
5
5
5
5
5
5
5
5
5
5
5
5
5
5
5
5
5
5
5
5
5
5
5
5
5
5
5
5
5
5
5
5
5
5
5
5
5
5
5
5
5
5
5
5
5
5
5
5
5
5
5
5
5
5
5
5
5
5
5
5
5
5
5
5
5
5
5
5
5
5
5
5
5
5
5
5
5
5
5
5
5
5
5
5
5
5
5
5
5
5
5
5
5
5
5
5
5
5
5
5
5
5
5
5
5
5
5
5
5
5
5
5
5
5
5
5
5
5
5
5
5
5
5
5
5
5
5
5
5
5
5
5
5
5
5
5
5
5
5
5
5
5
5
5
5
5
5
5
5
5
5
5
5
5
5
5
5
5
5
5
5
5
5
5
5
5
5
5
5
5
5
5
5
5
5
5
5
5
5
5
5
5
5
5
5
5
5
5
5
5
5
5
5
5
5
5
5
5
5
5
5
5
5
5
5
5
5
5
5
5
5
5
5
5
5
5
5
5
5
5
5
5
5
5
5
5
5
5
5
5
5
5
5
5
5
5
5
5
5
5
5
5
5
5
5
5
5
5
5
5
5
5
5
5
5
5
5
5
5
5
5
5
5
5
5
5
5
5
5
5
5
5
5
5
5
5
5
5
5
5
5
5
5
5
5
5
5
5
5
5
5
5
5
5
5
5
5
5
5
5
5
5
5
5
5
5
5
5
5
5
5
5
5
5
5
5
5
5
5
5
5
5
5
5
5
5
5
5
5
5
5
5
5
5
5
5
5
5
5
5
5
5
5
5
5
5
5
5
5
5
5
5
5
5
5
5
5
5
5
5
5
5
5
5
5
5
5
5
5
5
5
5
5
5
5
5
5
5
5
5
5
5
5
5
5
5
5
5
5
5
5
5
5
5
5
5
5
5
5
5
5
5
5
5
5
5
5
5
5
5
5
5
5
5
5
5
5
5
5
5
5
5
5
5
5
5
5
5
5
5
5
5
5
5
5
5
5
5
5
5
5
5
5
5
5
5
5
5
5
5
5
5
5
5
5
5
5
5
5
5
5
5
5
5
5
5
5
5
5
5
5
5
5
5
5
5
5
5
5
5
5
5
5
5
5
5
5
5
5
5
5
5
5
5
5
5
5
5
5
5
5
5
5
5
5
5
5
5
5
5
5
5
5
5
5
5
5
5
5
5
5
5
5
5
5
5
5
5
5
5
5
5
5
5
5
5
5
5
5
5
5
5
5
5
5
5
5
5
5
5
5
5
5
5
5
5
5
5
5
5
5
5
5
5
5
5
5
5
5
5
5
5
5
5
5
5
5
5
5
5
5
5
5
5
5
5
5
5
5
5
5
5
5
5
5
5
5
5
5
5
5
5
5
5
5
5
5
5
5
5
5
5
5
5
5
5
5
5
5
5
5
5
5
5
5
5
5
5
5
5
5
5
5
5
5
5
5
5
5
5
5
5
5
5
5
5
5
5
5
5
5
5
5
5
5
5
5
5
5
5
5
5
5
5
5
5
5
5
5
5
5
5
5
5
5
5
5
5
5
5
5
5
5
5
5
5
5
5
5
5
5
5
5
5
5
5
5
5
5
5
5
5
5
5
5
5
5
5
5
5
5
5
5
5
5
5
5
5
5
5
5
5
5
5
5
5
5
5
5
5
5
5
5
5
5
5
5
5
5
5
5
5
5
5
5
5
5
5
5
5
5
5
5
5
5
5
5
5
5
5
5
5
5
5
5
5
5
5
5
5
5
5
5
5
5
5
5
5
5
5
5
5
5
5
5
5
5
5
5
5
5
5
5
5
5
5
5
5
5
5
5
5
5
5
5
5
5
5
5
5
5
5
5
5
5
5
5
5
5
5
5
5
5
5
5
5
5
5
5
5
5
5
5
5
5
5
5
5
5
5
5
5
5
5
5
5
5
5
5
5
5
5
5
5
5
5
5
5
5
5
5
5
5
5
5
5
5
5
5
5
5
5
5
5
5
5
5
5
5
5
5
5
5
5
5
5
5
5
5
5
5
5
5
5
5
5
5
5
5
5
5
5
5
5
5
5
5
5
5
5
5
5
5
5
5
5
5
5
5
5
5
5
5
5
5
5
5
5
5
5
5
5
5
5
5
5
5
5
5
5
5
5
5
5
5
5
5
5
5
5
5
5
5
5
5
5
5
5
5
5
5
5
5
5
5
5
5
5
5
5
5
5
5
5
5
5
5
5
5
5
5
5
5
5
5
5
5
5
5
5
5
5
5
5
5
5
5
5
5
5
5
5
5
5
5
5
5
5
5
5
5
5
5
5
5
5
5
5
5
5
5
5
5
5
5
5
5
5
5
5
5
5
5
5
5
5
5
5
5
5
5
5
5
5
5
5
5
5
5
5
5
5
5
5
5
5
5
5
5
5
5
5
5
5
5
5
5
5
5
5
5
5
5
5
5
5
5
5
5
5
5
5
5
5
5
5
5
5
5
5
5
5
5
5
5
5
5
5
5
5
5
5
5
5
5
5
5
5
5
5
5
5
5
5
5
5
5
5
5
5
5
5
5
5
5
5
5
5
5
5
5
5
5
5
5
5
5
5
5
5
5
5
5
5
5
5
5
5
5
5
5
5
5
5
5
5
5
5
5
5
5
5
5
5
5
5
5
5
5
5
5
5
5
5
5
5
5
5
5
5
5
5
5
5
5
5
5
5
5
5
5
5
5
5
5
5
5
5
5
5
5
5
5
5
5
5
5
5
5
5
5
5
5
5
5
5
5
5
5
5
5
5
5
5
5
5
5
5
5
5
5
5
5
5
5
5
5
5
5
5
5
5
5
5
5
5
5
5
5
5
5
5
5
5
5
5
5
5
5
5
5
5
5
5
5
5
5
5
5
5
5
5
5
5
5
5
5
5
5
5
5
5
5
5
5
5
5
5
5
5
5
5
5
5
5
5
5
5
5
5
5
5
5
5
5
5
5
5
5
5
5
5
5
5
5
5
5
5
5
5
5
5
5
5
5
5
5
5
5
5
5
5
5
5
5
5
5
5
5
5
5
5
5
5
5
5
5
5
5
5
5
5
5
5
5
5
5
5
5
5
5
5
5
5
5
5
5
5
5
5
5
5
5
5
5
5
5
5
5
5
5
5
5
5
5
5
5
5
5
5
5
5
5
5
5
5
5
5
5
5
5
5
5
5
5
5
5
5
5
5
5
5
5
5
5
5
5
5
5
5
5
5
5
5
5
5
5
5
5
5
5
5
5
5
5
5
5
5
5
5
5
5
5
5
5
5
5
5
5
5
5
5
5
5
5
5
5
5
5
5
5
5
5
5
5
5
5
5
5
5
5
5
5
5
5
5
5
5
5
5
5
5
5
5
5
5
5
5
5
5
5
5
5
5
5
5
5
5
5
5
5
5
5
5
5
5
5
5
5
5
5
5
5
5
5
5
5
5
5
5
5
5
5
5
5
5
5
5
5
5
5
5
5
5
5
5
5
5
5
5
5
5
5
5
5
5
5
5
5
5
5
5
5
5
5
5
5
5
5
5
5
5
5
5
5
5
5
5
5
5
5
5
5
5
5
5
5
5
5
5
5
5
5
5
5
5
5
5
5
5
5
5
5
5
5
5
5
5
5
5
5
5
5
5
5
5
5
5
5
5
5
5
5
5
5
5
5
5
5
5
5
5
5
5
5
5
5
5
5
5
5
5
5
5
5
5
5
5
5
5
5
5
5
5
5
5
5
5
5
5
5
5
5
5
5
5
5
5
5
5
5
5
5
5
5
5
5
5
5
5
5
5
5
5
5
5
5
5
5
5
5
5
5
5
5
5
5
5
5
5
5
5
5
5
5
5
5
5
5
5
5
5
5
5
5
5
5
5
5
5
5
5
5
5
5
5
5
5
5
5
5
5
5
5
5
5
5
5
5
5
5
5
5
5
5
5
5
5
5
5
5
5
5
5
5
5
5
5
5
5
5
5
5
5
5
5
5
5
5
5
5
5
5
5
5
5
5
5
5
5
5
5
5
5
5
5
5
5
5
5
5
5
5
5
5
5
5
5
5
5
5
5
5
5
5
5
5
5
5
5
5
5
5
5
5
5
5
5
5
5
5
5
5
5
5
5
5
5
5
5
5
5
5
5
5
5
5
5
5
5
5
5
5
5
5
5
5
5
5
5
5
5
5
5
5
5
5
5
5
5
5
5
5
5
5
5
5
5
5
5
5
5
5
5
5
5
5
5
5
5
5
5
5
5
5
5
5
5
5
5
5
5
5
5
5
5
5
5
5
5
5
5
5
5
5
5
5
5
5
5
5
5
5
5
5
5
5
5
5
5
5
5
5
5
5
5
5
5
5
5
5
5
5
5
5
5
5
5
5
5
5
5
5
5
5
5
5
5
5
5
5
5
5
5
5
5
5
5
5
5
5
5
5
5
5
5
5
5
5
5
5
5
5
5
5
5
5
5
5
5
5
5
5
5
5
5
5
5
5
5
5
5
5
5
5
5
5
5
5
5
5
5
5
5
5
5
5
5
5
5
5
5
5
5
5
5
5
5
5
5
5
5
5
5
5
5
5
5
5
5
5
5
5
5
5
5
5
5
5
5
5
5
5
5
5
5
5
5
5
5
5
5
5
5
5
5
5
5
5
5
5
5
5
5
5
5
5
5
5
5
5
5
5
5
5
5
5
5
5
5
5
5
5
5
5
5
5
5
5
5
5
5
5
5
5
5
5
5
5
5
5
5
5
5
5
5
5
5
5
5
5
5
5
5
5
5
5
5
5
5
5
5
5
5
5
5
5
5
5
5
5
5
5
5
5
5
5
5
5
5
5
5
5
5
5
5
5
5
5
5
5
5
5
5
5
5
5
5
5
5
5
5
5
5
5
5
5
5
5
5
5
5
5
5
5
5
5
5
5
5
5
5
5
5
5
5
5
5
5
5
5
5
5
5
5
5
5
5
5
5
5
5
5
5
5
5
5
5
5
5
5
5
5
5
5
5
5
5
5
5
5
5
5
5
5
5
5
5
5
5
5
5
5
5
5
5
5
5
5
5
5
5
5
5
5
5
5
5
5
5
5
5
5
5
5
5
5
5
5
5
5
5
5
5
5
5
5
5
5
5
5
5
5
5
5
5
5
5
5
5
5
5
5
5
5
5
5
5
5
5
5
5
5
5
5
5
5
5
5
5
5
5
5
5
5
5
5
5
5
5
5
5
5
5
5
5
5
5
5
5
5
5
5
5
5
5
5
5
5
5
5
5
5
5
5
5
5
5
5
5
5
5
5
5
5
5
5
5
5
5
5
5
5
5
5
5
5
5
5
5
5
5
5
5
5
5
5
5
5
5
5
5
5
5
5
5
5
5
5
5
5
5
5
5
5
5
5
5
5
5
5
5
5
5
5
5
5
5
5
5
5
5
5
5
5
5
5
5
5
5
5
5
5
5
5
5
5
5
5
5
5
5
5
5
5
5
5
5
5
5
5
5
5
5
5
5
5
5
5
5
5
5
5
5
5
5
5
5
5
5
5
5
5
5
5
5
5
5
5
5
5
5
5
5
5
5
5
5
5
5
5
5
5
5
5
5
5
5
5
5
5
5
5
5
5
5
5
5
5
5
5
5
5
5
5
5
5
5
5
5
5
5
5
5
5
5
5
5
5
5
5
5
5
5
5
5
5
5
5
5
5
5
5
5
5
5
5
5
5
5
5
5
5
5
5
5
5
5
5
5
5
5
5
5
5
5
5
5
5
5
5
5
5
5
5
5
5
5
5
5
5
5
5
5
5
5
5
5
5
5
5
5
5
5
5
5
5
5
5
5
5
5
5
5
5
5
5
5
5
5
5
5
5
5
5
5
5
5
5
5
5
5
5
5
5
5
5
5
5
5
5
5
5
5
5
5
5
5
5
5
5
5
5
5
5
5
5
5
5
5
5
5
5
5
5
5
5
5
5
5
5
5
5
5
5
5
5
5
5
5
5
5
5
5
5
5
5
5
5
5
5
5
5
5
5
5
5
5
5
5
5
5
5
5
5
5
5
5
5
5
5
5
5
5
5
5
5
5
5
5
5
5
5
5
5
5
5
5
5
5
5
5
5
5
5
5
5
5
5
5
5
5
5
5
5
5
5
5
5
5
5
5
5
5
5
5
5
5
5
5
5
5
5
5
5
5
5
5
5
5
5
5
5
5
5
5
5
5
5
5
5
5
5
5
5
5
5
5
5
5
5
5
5
5
5
5
5
5
5
5
5
5
5
5
5
5
5
5
5
5
5
5
5
5
5
5
5
5
5
5
5
5
5
5
5
5
5
5
5
5
5
5
5
5
5
5
5
5
5
5
5
5
5
5
5
5
5
5
5
5
5
5
5
5
5
5
5
5
5
5
5
5
5
5
5
5
5
5
5
5
5
5
5
5
5
5
5
5
5
5
5
5
5
5
5
5
5
5
5
5
5
5
5
5
5
5
5
5
5
5
5
5
5
5
5
5
5
5
5
5
5
5
5
5
5
5
5
5
5
5
5
5
5
5
5
5
5
5
5
5
5
5
5
5
5
5
5
5
5
5
5
5
5
5
5
5
5
5
5
5
5
5
5
5
5
5
5
5
5
5
5
5
5
5
5
5
5
5
5
5
5
5
5
5
5
5
5
5
5
5
5
5
5
5
5
5
5
5
5
5
5
5
5
5
5
5
5
5
5
5
5
5
5
5
5
5
5
5
5
5
5
5
5
5
5
5
5
5
5
5
5
5
5
5
5
5
5
5
5
5
5
5
5
5
5
5
5
5
5
5
5
5
5
5
5
5
5
5
5
5
5
5
5
5
5
5
5
5
5
5
5
5
5
5
5
5
5
5
5
5
5
5
5
5
5
5
5
5
5
5
5
5
5
5
5
5
5
5
5
5
5
5
5
5
5
5
5
5
5
5
5
5
5
5
5
5
5
5
5
5
5
5
5
5
5
5
5
5
5
5
5
5
5
5
5
5
5
5
5
5
5
5
5
5
5
5
5
5
5
5
5
5
5
5
5
5
5
5
5
5
5
5
5
5
5
5
5
5
5
5
5
5
5
5
5
5
5
5
5
5
5
5
5
5
5
5
5
5
5
5
5
5
5
5
5
5
5
5
5
5
5
5
5
5
5
5
5
5
5
5
5
5
5
5
5
5
5
5
5
5
5
5
5
5
5
5
5
5
5
5
5
5
5
5
5
5
5
5
5
5
5
5
5
5
5
5
5
5
5
5
5
5
5
5
5
5
5
5
5
5
5
5
5
5
5
5
5
5
5
5
5
5
5
5
5
5
5
5
5
5
5
5
5
5
5
5
5
5
5
5
5
5
5
5
5
5
5
5
5
5
5
5
5
5
5
5
5
5
5
5
5
5
5
5
5
5
5
5
5
5
5
5
5
5
5
5
5
5
5
5
5
5
5
5
5
5
5
5
5
5
5
5
5
5
5
5
5
5
5
5
5
5
5
5
5
5
5
5
5
5
5
5
5
5
5
5
5
5
5
5
5
5
5
5
5
5
5
5
5
5
5
5
5
5
5
5
5
5
5
5
5
5
5
5
5
5
5
5
5
5
5
5
5
5
5
5
5
5
5
5
5
5
5
5
5
5
5
5
5
5
5
5
5
5
5
5
5
5
5
5
5
5
5
5
5
5
5
5
5
5
5
5
5
5
5
5
5
5
5
5
5
5
5
5
5
5
5
5
5
5
5
5
5
5
5
5
5
5
5
5
5
5
5
5
5
5
5
5
5
5
5
5
5
5
5
5
5
5
5
5
5
5
5
5
5
5
5
5
5
5
5
5
5
5
5
5
5
5
5
5
5
5
5
5
5
5
5
5
5
5
5
5
5
5
5
5
5
5
5
5
5
5
5
5
5
5
5
5
5
5
5
5
5
5
5
5
5
5
5
5
5
5
5
5
5
5
5
5
5
5
5
5
5
5
5
5
5
5
5
5
5
5
5
5
5
5
5
5
5
5
5
5
5
5
5
5
5
5
5
5
5
5
5
5
5
5
5
5
5
5
5
5
5
5
5
5
5
5
5
5
5
5
5
5
5
5
5
5
5
5
5
5
5
5
5
5
5
5
5
5
5
5
5
5
5
5
5
5
5
5
5
5
5
5
5
5
5
5
5
5
5
5
5
5
5
5
5
5
5
5
5
5
5
5
5
5
5
5
5
5
5
5
5
5
5
5
5
5
5
5
5
5
5
5
5
5
5
5
5
5
5
5
5
5
5
5
5
5
5
5
5
5
5
5
5
5
5
5
5
5
5
5
5
5
5
5
5
5
5
5
5
5
5
5
5
5
5
5
5
5
5
5
5
5
5
5
5
5
5
5
5
5
5
5
5
5
5
5
5
5
5
5
5
5
5
5
5
5
5
5
5
5
5
5
5
5
5
5
5
5
5
5
5
5
5
5
5
5
5
5
5
5
5
5
5
5
5
5
5
5
5
5
5
5
5
5
5
5
5
5
5
5
5
5
5
5
5
5
5
5
5
5
5
5
5
5
5
5
5
5
5
5
5
5
5
5
5
5
5
5
5
5
5
5
5
5
5
5
5
5
5
5
5
5
5
5
5
5
5
5
5
5
5
5
5
5
5
5
5
5
5
5
5
5
5
5
5
5
5
5
5
5
5
5
5
5
5
5
5
5
5
5
5
5
5
5
5
5
5
5
5
5
5
5
5
5
5
5
5
5
5
5
5
5
5
5
5
5
5
5
5
5
5
5
5
5
5
5
5
5
5
5
5
5
5
5
5
5
5
5
5
5
5
5
5
5
5
5
5
5
5
5
5
5
5
5
5
5
5
5
5
5
5
5
5
5
5
5
5
5
5
5
5
5
5
5
5
5
5
5
5
5
5
5
5
5
5
5
5
5
5
5
5
5
5
5
5
5
5
5
5
5
5
5
5
5
5
5
5
5
5
5
5
5
5
5
5
5
5
5
5
5
5
5
5
5
5
5
5
5
5
5
5
5
5
5
5
5
5
5
5
5
5
5
5
5
5
5
5
5
5
5
5
5
5
5
5
5
5
5
5
5
5
5
5
5
5
5
5
5
5
5
5
5
5
5
5
5
5
5
5
5
5
5
5
5
5
5
5
5
5
5
5
5
5
5
5
5
5
5
5
5
5
5
5
5
5
5
5
5
5
5
5
5
5
5
5
5
5
5
5
5
5
5
5
5
5
5
5
5
5
5
5
5
5
5
5
5
5
5
5
5
5
5
5
5
5
5
5
5
5
5
5
5
5
5
5
5
5
5
5
5
5
5
5
5
5
5
5
5
5
5
5
5
5
5
5
5
5
5
5
5
5
5
5
5
5
5
5
5
5
5
5
5
5
5
5
5
5
5
5
5
5
5
5
5
5
5
5
5
5
5
5
5
5
5
5
5
5
5
5
5
5
5
5
5
5
5
5
5
5
5
5
5
5
5
5
5
5
5
5
5
5
5
5
5
5
5
5
5
5
5
5
5
5
5
5
5
5
5
5
5
5
5
5
5
5
5
5
5
5
5
5
5
5
5
5
5
5
5
5
5
5
5
5
5
5
5
5
5
5
5
5
5
5
5
5
5
5
5
5
5
5
5
5
5
5
5
5
5
5
5
5
5
5
5
5
5
5
5
5
5
5
5
5
5
5
5
5
5
5
5
5
5
5
5
5
POINT_DATA 2538
VECTORS disp float
1.3989030336866665e-11 3.065830251799427e-11 0.0
2.304136757095325e-11 -5.918878959818302e-11 0.0
0.002799999995598995 1.245950561965291e-11 0.0
0.0027999999713272518 -7.601909612260971e-11 0.0
0.0010140686309405768 0.0004064933217692845 0.0
0.0020569694442452288 0.00011665369508322218 0.0
0.001400514729005623 5.303610186980042e-5 0.0
1.7274617692709105e-12 -1.1986449851579642e-12 0.0
4.891786034228186e-12 4.424096474289498e-12 0.0
3.9180739623468015e-12 1.566895419601427e-12 0.0
3.495540959175742e-12 1.4822445507701915e-12 0.0
2.8110119282274722e-12 9.010915980010789e-13 0.0
2.4946299172728024e-12 3.414062319417126e-13 0.0
2.1381043039513493e-12 -5.84449905092639e-14 0.0
1.889078699066051e-12 -6.229815858255362e-13 0.0
1.4904067157262114e-12 -1.2497967953127414e-12 0.0
1.71417391908168e-12 -1.9623104337759394e-12 0.0
1.6783529611811458e-12 -2.789306308264442e-12 0.0
1.8152236786434813e-12 -3.68157715717769e-12 0.0
2.0111857233094953e-12 -4.575388563377194e-12 0.0
2.0794184360237253e-12 -5.3058244878041895e-12 0.0
2.3825408453271345e-12 -6.2414368520032e-12 0.0
2.4416259824896326e-12 -6.8672645993307275e-12 0.0
2.64711020650104e-12 -7.72834458347208e-12 0.0
2.844881822744017e-12 -8.586008166360483e-12 0.0
2.9753652440988165e-12 -9.394336948372884e-12 0.0
3.2096811792816847e-12 -1.0398139009879268e-11 0.0
3.522570672068934e-12 -1.152994457427352e-11 0.0
3.99230584531251e-12 -1.3009517557227872e-11 0.0
4.053614829239149e-12 -1.456459979035595e-11 0.0
5.967250462453705e-12 -1.9055981639733582e-11 0.0
2.720484219852677e-12 -1.5772264379910015e-11 0.0
3.768418362046383e-5 -4.04526412456833e-5 0.0
6.583664112818484e-5 -6.860452102963642e-5 0.0
9.292410066474403e-5 -9.302803967256382e-5 0.0
0.00011849693819675252 -0.00011508101417305993 0.0
0.00014298073169954543 -0.0001355388124720146 0.0
0.00016687098643801616 -0.00015504690141761223 0.0
0.0001905878733995873 -0.00017359739171952343 0.0
0.0002139008740182056 -0.00019139502753582282 0.0
0.0002370534712380388 -0.00020862839424807753 0.0
0.00026013365308757394 -0.00022526124137747398 0.0
0.0002831393377508285 -0.00024147225222793643 0.0
0.00030629702662962225 -0.00025722727725455434 0.0
0.0003294419727496342 -0.0002725300915929911 0.0
0.00035267755981900585 -0.0002875242851288842 0.0
0.0003761545870480721 -0.0003021235326324083 0.0
0.0003996426340954997 -0.0003163313246730837 0.0
0.0004233229103729713 -0.00033025083934395093 0.0
0.00044720846968673616 -0.00034377625859878557 0.0
0.0004712657709442265 -0.00035700684874212236 0.0
0.0004955195006521894 -0.0003699354112468157 0.0
0.000519994581659088 -0.000382556833047814 0.0
0.0005446549252290063 -0.00039486703262234544 0.0
0.0005696567659244818 -0.000406909345324161 0.0
0.0005947395292740731 -0.00041863150975845944 0.0
0.0006202254515847857 -0.00043007356295863517 0.0
0.0006457699654900071 -0.00044118769879163995 0.0
0.0006716222923254264 -0.00045203429857818326 0.0
0.0006976623348298405 -0.0004625391745058557 0.0
0.0007240554803050098 -0.00047278272523863254 0.0
0.0007505004265177751 -0.00048273144981657014 0.0
0.0007773246711278397 -0.0004924035441380814 0.0
0.0008043347178516609 -0.0005017438648256458 0.0
0.0008316235354648148 -0.0005108319737431025 0.0
0.0008590794763413273 -0.0005196116631297579 0.0
0.0008868556862926288 -0.0005281376609053998 0.0
0.000914677122916055 -0.0005363146468431005 0.0
0.0009428140124504984 -0.0005441853483516277 0.0
0.0009710273156173433 -0.0005516209218899131 0.0
0.000999409950739122 -0.0005586385273953277 0.0
0.001027981185618981 -0.0005653844964751067 0.0
0.00105664184568658 -0.000571668031221642 0.0
0.0010856039185942637 -0.000577646405675527 0.0
0.0011147798804090805 -0.0005832204831931908 0.0
0.00114410827966665 -0.0005885137605118185 0.0
0.0011736725540425848 -0.0005933631966192209 0.0
0.0012032580463799349 -0.0005979020356895827 0.0
0.0012331033849883482 -0.0006021048491837985 0.0
0.00126300935043426 -0.0006059331885975597 0.0
0.0012930557645065364 -0.0006094975284212427 0.0
0.0013232726504747395 -0.0006126806827349489 0.0
0.0013533417169029247 -0.0006154159336170762 0.0
0.0013836843985529227 -0.0006178989905673589 0.0
0.0014136629615040138 -0.0006199101450855498 0.0
0.0014440729763673288 -0.0006215901472208738 0.0
0.001473951401813817 -0.000622811233644515 0.0
0.001504443532826552 -0.0006237124353946627 0.0
0.0015343355626817727 -0.0006242232978016461 0.0
0.0015638945834231888 -0.0006241496704765759 0.0
0.0015930272258466401 -0.0006237473650905369 0.0
0.0016211071928857064 -0.0006220139906574941 0.0
0.0016489141372467728 -0.0006201861232600557 0.0
0.0016765169980133062 -0.0006177143125493758 0.0
0.0017046039674336322 -0.0006149363120280407 0.0
0.001732326310264253 -0.0006112502394564774 0.0
0.0017602277105686925 -0.0006074113767325366 0.0
0.0017891682301614128 -0.0006034550433202038 0.0
0.0018166955902197055 -0.0005985480162206741 0.0
0.0018441274283161814 -0.0005929266905772607 0.0
0.0018719498097852611 -0.0005861989943564521 0.0
0.0019001144612943444 -0.0005788148567040212 0.0
0.0019273952306041171 -0.0005705774681932126 0.0
0.001955706860752496 -0.000561163245315639 0.0
0.001983342156254511 -0.0005511997605497201 0.0
0.0020111284096884343 -0.0005407034211972615 0.0
0.002039586107662687 -0.0005293245898606817 0.0
0.002067647935426537 -0.0005174267297671705 0.0
0.002095907248133329 -0.0005048532917080269 0.0
0.002124053067554384 -0.0004917525528614622 0.0
0.002152565193418692 -0.0004781064157871431 0.0
0.0021811929825099148 -0.00046384954945599596 0.0
0.0022098606514141714 -0.0004491169866651788 0.0
0.0022383301785359024 -0.0004338554019197588 0.0
0.002266865734005514 -0.00041808779605981305 0.0
0.0022955540949802897 -0.0004017100272330753 0.0
0.0023241515113728607 -0.00038482450785280725 0.0
0.002352840075612942 -0.00036748975151816696 0.0
0.0023818268475115064 -0.0003494898459703703 0.0
0.002410799724233775 -0.0003308782971869061 0.0
0.0024397715775264788 -0.00031170517570799667 0.0
0.002469063992533386 -0.00029181340263381044 0.0
0.002498705582866541 -0.0002710646102500819 0.0
0.002528495683385942 -0.0002494527021799485 0.0
0.002558488936747339 -0.00022697498480595693 0.0
0.0025889306348148 -0.00020335335244851677 0.0
0.0026202309419022856 -0.00017826819716489558 0.0
0.00265199374716323 -0.0001515289849434193 0.0
0.00268457100029517 -0.00012251214964287063 0.0
0.0027193160514238555 -8.997612908614185e-5 0.0
0.002755240070954826 -5.233972413614347e-5 0.0
0.0027999999963318526 -1.7231763114743407e-11 0.0
0.002799999992359166 -1.952700972689205e-11 0.0
0.0027999999955436693 -1.0886399555033788e-11 0.0
0.0027999999954218314 -9.353267790700868e-12 0.0
0.0027999999958959083 -7.291808275137148e-12 0.0
0.002799999996028304 -5.941074442237173e-12 0.0
0.002799999996081864 -4.990712130320122e-12 0.0
0.002799999996227118 -4.189669283644289e-12 0.0
0.002799999996256777 -3.4720207548979436e-12 0.0
0.0027999999963881895 -2.839981631144527e-12 0.0
0.0027999999965140367 -2.353116032526615e-12 0.0
0.0027999999966323167 -1.7412395985425584e-12 0.0
0.0027999999967248963 -1.288612698337239e-12 0.0
0.002799999996843955 -7.250133183288209e-13 0.0
0.002799999996918889 -1.7143808988599708e-13 0.0
0.0027999999969630343 4.700282043763106e-13 0.0
0.002799999997023754 1.1368678625308857e-12 0.0
0.0027999999967872045 1.9487025962819656e-12 0.0
0.002799999997070789 2.6056524945736715e-12 0.0
0.0027999999966456975 3.4794579925194687e-12 0.0
0.002799999996720736 4.061615243422627e-12 0.0
0.0027999999966201255 4.618584711207468e-12 0.0
0.00279999999675559 4.707975294024106e-12 0.0
0.0027999999970805783 5.664835362728172e-12 0.0
0.002799999998456936 2.8035219007296327e-12 0.0
0.0025948855583178975 9.541376577200556e-5 0.0
0.0024213307790981625 0.0001383537912663742 0.0
0.0022672388747494794 0.00014204001410053225 0.0
0.002139502440599144 0.0001285948440101819 0.0
0.0020531720780229004 2.7467773596121132e-5 0.0
0.0020414257094634814 -1.8133983321486578e-5 0.0
0.002013242814230305 -4.822094174688826e-5 0.0
0.001972323023136041 -5.236296190653054e-5 0.0
0.0019211855244388864 -4.0596557033899044e-5 0.0
0.0018672518239368117 -2.468699567471899e-5 0.0
0.0018118748696499558 -8.281582861570992e-6 0.0
0.0017560825934519267 8.510042488846937e-6 0.0
0.001698868447475342 2.297892112010331e-5 0.0
0.001639868704865328 3.4669296633701695e-5 0.0
0.0015759083361597526 4.380450525176168e-5 0.0
0.0015008967770206933 5.058377045019984e-5 0.0
0.0013202184054552136 9.262260094736148e-5 0.0
0.0012630840598563526 0.00010993605820728345 0.0
0.0012157073398613152 0.00012106584596305532 0.0
0.001174245426214921 0.00013029701156726473 0.0
0.0011365044098047684 0.00013890315987690575 0.0
0.0011023722758035648 0.0001476727575835434 0.0
0.001071584311113384 0.00015760342427310756 0.0
0.0010453066235033884 0.0001693364977534298 0.0
0.0010249648069035415 0.00018695484024459273 0.0
0.0010104585779921497 0.00020886750058925343 0.0
0.001010949836304456 0.00025394076553426524 0.0
0.0010099070100100943 0.0003129682694768632 0.0
0.0009122450948652947 0.00042019493321546403 0.0
0.0007685694426354524 0.0004131734698583965 0.0
0.0005512991059698156 0.00034247232161462146 0.0
0.00029640948976373453 0.00022218824530264005 0.0
0.0007280014069662874 -0.0004540583659709223 0.0
0.0019215012253461048 -0.0005374966652573905 0.0
0.0009220605584870874 -0.0005192308538766746 0.0
0.0017222421999740787 -0.0005881384646444368 0.0
0.0011280437712107149 -0.0005660516303104985 0.0
0.0015155400319233144 -0.0005991386962118684 0.0
0.0013067494949758221 -0.0005893418305408369 0.0
0.002093258424863996 -0.00047654212185086777 0.0
0.0005772648270224924 -0.00039420931590623164 0.0
0.0022291418208013982 -0.0004089732432477949 0.0
0.0004536319305294061 -0.0003329801296121563 0.0
4.477830891841379e-5 -8.514305899828158e-6 0.0
0.0027481351202408074 -4.495092451632152e-6 0.0
0.0015074873600253356 7.037840281279516e-5 0.0
0.0017231891993448557 3.445734338060076e-5 0.0
0.001292469462447158 9.010401168949805e-5 0.0
0.0011347612651092867 0.00014588239049572867 0.0
0.002375455236856237 -0.00032943012909244395 0.0
0.0003398314548898795 -0.00026741309036762374 0.0
3.408665529532053e-5 -1.3360035292825819e-5 0.0
0.002762460380248678 -7.986470457953181e-6 0.0
0.002727817305854601 3.273875668090037e-6 0.0
5.811718576331318e-5 1.1840081746351453e-6 0.0
0.002492919894841857 -0.00025215974287303876 0.0
0.000243398916786414 -0.0002004112770533871 0.0
0.0018784000722087079 -5.7615044152832184e-6 0.0
0.001028162914769994 0.0001734751743799914 0.0
2.67425614304139e-5 -1.3442950285556727e-5 0.0
0.0027703346983074845 -9.415199820890907e-6 0.0
0.0010408839228985335 -0.0005482935334573919 0.0
0.0012160952754434696 -0.0005793865418864295 0.0
0.0016366320225226108 -0.0005978791216860464 0.0
0.0013999108029312678 -0.0005948169386192079 0.0
0.0018074454590034715 -0.0005706436714161357 0.0
0.002001004038169745 -0.0005141963493103676 0.0
0.0008446535745191995 -0.0004960368489153586 0.0
0.000653122474789282 -0.0004280433584198025 0.0
0.002579319115966447 -0.00018984903575151193 0.0
0.00017220544915328624 -0.00014793599182338465 0.0
0.002708401497447486 1.5594676961670796e-5 0.0
7.781344307698575e-5 1.0045466850215844e-5 0.0
0.0027757668796133694 -1.2132827865051524e-5 0.0
2.549275608260482e-5 -1.576765341171814e-5 0.0
0.0019840008712050335 -2.6744418877692867e-5 0.0
0.0009762575205940592 0.00020229510794565582 0.0
0.0026706783002840933 2.6740400315158343e-5 0.0
0.00011633439052445167 2.0373077275671762e-5 0.0
3.953498060231496e-5 -1.1975450669142475e-5 0.0
0.002754955965604822 -6.929484197262552e-6 0.0
0.001614901326173205 5.700681539770701e-5 0.0
0.0012134194421993042 0.0001265532622239078 0.0
9.67540473187745e-5 -8.471172014456537e-5 0.0
0.0026817783387522577 -0.00010661110249559688 0.0
0.001861870943379473 -0.0005595197182938889 0.0
0.001457960891466909 -0.0005987105246322028 0.0
0.000985075823043686 -0.0005350711205480858 0.0
0.0007851208784643189 -0.0004776726035896204 0.0
0.0015789332185032945 -0.000599618673603497 0.0
0.0021454043078379566 -0.00045275336379858443 0.0
0.0005276906505563159 -0.00037014506817126605 0.0
0.0022892266452172335 -0.0003790612776512434 0.0
0.0004031480342793715 -0.0003040347145927706 0.0
0.0002891790245944596 -0.00023311780098442806 0.0
0.0024339552247333008 -0.00029172126931202027 0.0
0.0006421771088117021 0.00021545156790529557 0.0
0.0023212656210619574 7.538586989044318e-5 0.0
0.0027756783904870443 -1.7048642584427783e-5 0.0
2.229175548005153e-5 -1.6132705863600386e-5 0.0
0.0009585238828013265 0.0002735089022935614 0.0
0.002067601782428831 1.1085041244158682e-5 0.0
0.00014100944928651236 3.30248446923526e-5 0.0
0.00267013425990202 2.7777732248352477e-5 0.0
4.2741848641835844e-5 -3.7385905478438345e-5 0.0
0.0027479237817517412 -4.74372644831997e-5 0.0
0.002189915731615678 6.67118826842827e-5 0.0
0.002213232433543981 5.5556843901430474e-5 0.0
0.002382472661059484 5.893677893965532e-5 0.0
0.0022758989024181686 6.255281086168409e-5 0.0
0.0021432296302839843 4.846926761598894e-5 0.0
0.0021834092771757995 6.859623373528725e-5 0.0
0.002313818472422447 7.104130213157085e-5 0.0
0.0022285390487452057 8.00669928776744e-5 0.0
0.002354119044116464 7.31011147623767e-5 0.0
0.002276753631190718 8.046104844444801e-5 0.0
0.0021593458720451206 8.70139141926538e-5 0.0
0.0022049367542020326 8.428889300831817e-5 0.0
0.0021044944681411788 9.060928711751581e-5 0.0
0.002142632943841986 8.446696396347178e-5 0.0
0.0020524885398733286 9.101556615726528e-5 0.0
0.0020875197907971673 8.110024615113374e-5 0.0
0.001472978480728663 4.1811982479470965e-5 0.0
0.0013914929240969622 2.796780291684068e-5 0.0
0.0014507466024608247 2.2710181529222963e-5 0.0
0.0013843345156883693 1.2289969505959804e-5 0.0
0.0014365791627316247 7.804592692300454e-6 0.0
0.0013793349468180075 -1.283697033853443e-7 0.0
0.0014266423524171932 -4.083932248910976e-6 0.0
0.001374760542557553 -1.0974255315467295e-5 0.0
0.0014189174837018082 -1.4472039808883252e-5 0.0
0.0013706828205000412 -2.0802559728620036e-5 0.0
0.0014126741686242637 -2.3871276920354712e-5 0.0
0.001367056276278788 -2.9938045271688982e-5 0.0
0.0014074590218459307 -3.305519422798953e-5 0.0
0.0013649279780468381 -3.8812509376743165e-5 0.0
0.001403029046990788 -4.1909737153540054e-5 0.0
0.001361917672654333 -4.7585781594677345e-5 0.0
0.00139890133675465 -5.0605792551507686e-5 0.0
0.0013577673905179866 -5.629821298398829e-5 0.0
0.001394901394223413 -5.933796838493299e-5 0.0
0.001354717618553041 -6.495760669378556e-5 0.0
0.001391333402603541 -6.813942935618794e-5 0.0
0.0013519278054936951 -7.370289360587885e-5 0.0
0.0013867649357733216 -7.69888395365014e-5 0.0
0.0013489705022888753 -8.257957380150223e-5 0.0
0.0013833202009398036 -8.594943460274617e-5 0.0
0.0013467934115786357 -9.134583805867918e-5 0.0
0.0013801452809390025 -9.505114585988864e-5 0.0
0.0013423638566995102 -9.998421341687685e-5 0.0
0.0013766062723340711 -0.00010430098646331189 0.0
0.001330919618822682 -0.00010963825709435816 0.0
0.0013754747236798444 -0.00011385010092333169 0.0
0.001336629944275238 -0.00011956180267076426 0.0
0.001372162561790788 -0.000123575503301037 0.0
0.0013352625167340213 -0.00012945959583794578 0.0
0.0013694478100317476 -0.00013360069440523914 0.0
0.0013349482620068184 -0.0001394652295426492 0.0
0.001366610417755983 -0.000143831696557036 0.0
0.0013329324395351927 -0.00014992575990875487 0.0
0.0013291691067408846 -1.578035338878277e-5 0.0
0.001363755334850846 -0.00015437418797248774 0.0
0.0013174623981599192 -6.123034443653139e-5 0.0
0.0012956854726474593 -0.00011822635943424714 0.0
0.0013282809397981595 -0.0001605851706954618 0.0
0.0013606571420297841 -0.00016520674042251333 0.0
0.001323664989252018 -0.00017191269624002023 0.0
0.0012919920312074013 -0.00016621249721249614 0.0
0.0012864523991340142 -0.00017805089354866303 0.0
0.001356145505876564 -0.00017702342607464955 0.0
0.001393676547906862 -0.0001698640177262507 0.0
0.0014076696368500441 -0.00011733047673699416 0.0
0.00138937736814256 -0.00018205962177436668 0.0
0.001429332281702365 -0.00017363947655468746 0.0
0.0014236541082428597 -0.00018704802711812517 0.0
0.0012551685186105708 -0.00017200368978209437 0.0
0.001251017807932381 -0.0001835118504127733 0.0
0.0014649284978400631 -0.00017790661258644733 0.0
0.0012177342647008813 -0.00017709876732211895 0.0
0.001215671285219647 -0.00018905356112595078 0.0
0.0014599218037239534 -0.0001915101894501297 0.0
0.001499897131419346 -0.0001829929943740852 0.0
0.0011800924466984202 -0.00018215296124341187 0.0
0.00117719447845102 -0.00019438664509999445 0.0
0.0014957590332974355 -0.00019653618031028981 0.0
0.0015369301500641006 -0.0001875032367764962 0.0
0.0011426748927660273 -0.00018704931517449092 0.0
0.0011394422973519986 -0.00019991811668173404 0.0
0.0015326012998624228 -0.0002017861326359908 0.0
0.001574992789827078 -0.00019189363576764236 0.0
0.0011056767306681374 -0.00019113320793404074 0.0
0.0011000685952808592 -0.0002043174858941291 0.0
0.0015711051846338236 -0.0002065589045935446 0.0
0.0016138316764463191 -0.000196116100917352 0.0
0.0010651341263528697 -0.00019508720314731582 0.0
0.0010605420092170091 -0.00020887746202320753 0.0
0.0010234790789890858 -0.00019965984749397095 0.0
0.0010280549830149544 -0.00018513604570471096 0.0
0.001524940698117605 -0.0002159474496540842 0.0
0.0016096600421450467 -0.00021140843359995976 0.0
0.0016533420902599715 -0.00020023162011561485 0.0
0.0016582549104530424 -0.00018447410724564965 0.0
0.00142370741776296 -7.16892819556031e-5 0.0
0.0016994758876692035 -0.00018822741814436496 0.0
0.001704792019787724 -0.00017183496946814034 0.0
0.001747464802705672 -0.00017499620444989952 0.0
0.0010221297527893672 -0.00021441287447208194 0.0
0.0009834804164028969 -0.00020353056713680992 0.0
0.001058569386687556 -0.00022365416345949388 0.0
0.0016478246002822163 -0.0002164027686566837 0.0
0.000982732713958384 -0.00021856509183792032 0.0
0.0009436375888046333 -0.0002067624962351518 0.0
0.0014464231387266045 -3.518075249460233e-5 0.0
0.0009429446108441347 -0.00022136582793923882 0.0
0.0009038736701617744 -0.00020927369614539025 0.0
0.0009034501769200815 -0.00022412233470542624 0.0
0.0008649337459310512 -0.00021085538834572407 0.0
0.000864532655570353 -0.00019643027787211365 0.0
0.0008231922151900417 -0.00019827248139378225 0.0
0.0008234691101360555 -0.00018307279122719463 0.0
0.0008600181093883249 -0.0002253442009143234 0.0
0.0007790141544167923 -0.00018488756172619744 0.0
0.0007789885602559161 -0.00016934664198422458 0.0
0.0009035317427644868 -0.00023979759381734825 0.0
0.0008666640954439206 -0.00024225118742664552 0.0
0.0007355610471838893 -0.00016982671018399577 0.0
0.0007339932644626205 -0.00015458675648956987 0.0
0.0017539902816690964 -0.00015834532209653678 0.0
0.0017984734884272343 -0.00016120684368885711 0.0
0.0009037109760713888 -0.0002556711506760689 0.0
0.000867448303903937 -0.000257934649911776 0.0
0.001805534101171787 -0.0001439984013408327 0.0
0.0018522213490213128 -0.00014690912795800113 0.0
0.00184295221660773 -0.00016586073763028009 0.0
0.001897171285779914 -0.00015052728598704017 0.0
0.0018886018931305935 -0.0001699061886418579 0.0
0.0019429844224393097 -0.00015309374565321984 0.0
0.0019369385501484832 -0.0001722589789568037 0.0
0.0019932661565185343 -0.00015342763952686027 0.0
0.001982506611736673 -0.00017317522426173372 0.0
0.0019991503167741034 -0.0001350876731807096 0.0
0.002039519875338813 -0.0001546018096325315 0.0
0.0020257908627954973 -0.000174403230265135 0.0
0.0009044864942321072 -0.0002718588581655403 0.0
0.0006881730150603398 -0.00015448775901124833 0.0
0.00068564467294665 -0.0001388558912126051 0.0
0.001973248742025392 -0.00019351658445539057 0.0
0.0020146671343280573 -0.00019451196589432437 0.0
0.0020662957992307303 -0.00017506299203687875 0.0
0.0019656683278507585 -0.00021430565971813483 0.0
0.0008692046038900465 -0.0002741489472440166 0.0
0.0020550497209834775 -0.00019491646344478076 0.0
0.0021055510573052085 -0.0001748966241401256 0.0
0.0009053359962669187 -0.00028851557064804887 0.0
0.0008708344075907514 -0.0002908613385288162 0.0
0.0008352640214436663 -0.00027588905679353773 0.0
0.002093621390711124 -0.0001945629271217203 0.0
0.002143537585674243 -0.00017368853271153398 0.0
0.0009062252426714751 -0.00030571609921833796 0.0
0.0009403618523100638 -0.0003030334128893424 0.0
0.0008373978869978253 -0.0002926869189797156 0.0
0.0008021225081863603 -0.00027718558953102084 0.0
0.0021296208079283874 -0.00019343836215956076 0.0
0.002180677419673009 -0.00017150958491511453 0.0
0.002194078071439012 -0.00015282410336040113 0.0
0.0020797130508614717 -0.00021535351063273406 0.0
0.0022315073547129033 -0.00014983876955706647 0.0
0.00224599803905208 -0.00013210362660552897 0.0
0.0006369679700481887 -0.00013846377595479152 0.0
0.0006368543994207481 -0.00012220207260425336 0.0
0.0006956304019935312 -0.00012360001769660454 0.0
0.0006351055390680837 -0.000105671947065011 0.0
0.0006921298572974936 -0.00010435103839946668 0.0
0.0006328203157264805 -8.765386001376831e-5 0.0
0.0006888512174138709 -8.509660617742102e-5 0.0
0.00094117538388364 -0.00032049129012577736 0.0
0.0009745041239330721 -0.0003173809280724439 0.0
0.0008045830003964059 -0.0002940816397529131 0.0
0.0007696031944574381 -0.0002780058070851623 0.0
0.0022169637325958735 -0.000168491484697066 0.0
0.0006365544772639082 -6.890809429243872e-5 0.0
0.0006901255637143607 -6.517560782488847e-5 0.0
0.0009753641823510923 -0.00033496616069659337 0.0
0.00100791808250451 -0.0003316774570805727 0.0
0.0011809137411763076 -0.00020612678771427407 0.0
0.002267661376382585 -0.0001461041376370143 0.0
0.0014795023539143444 6.369171926377612e-6 0.0
0.0015456366062163998 6.661140279913388e-5 0.0
0.0013110169203097387 -8.777263493646766e-5 0.0
0.0018572167795159397 -0.00012933938932488094 0.0
0.0006325979294861896 -4.7696264064936115e-5 0.0
0.0006957717318475786 -4.345809922639361e-5 0.0
0.0007724699302800237 -0.000294997972287137 0.0
0.0007379532499770811 -0.00027847880902462954 0.0
0.0010092701393227424 -0.00034946304609069875 0.0
0.0010415781441799922 -0.000345917214361979 0.0
0.0022518053621748135 -0.00016457956365410327 0.0
0.0005861988622585488 -0.00012169472425559445 0.0
0.0005882234711247516 -0.00013788500992553798 0.0
0.0005699149430188754 -6.986345226629855e-5 0.0
0.0023026686216354036 -0.0001416657638158965 0.0
0.0006330912297665795 -2.6272397825226844e-5 0.0
0.0006973938119056925 -1.9821560054263323e-5 0.0
0.0009772783590831344 -0.00035317662354955094 0.0
0.000741359616006231 -0.00029571172280660096 0.0
0.0007069915414409549 -0.0002784730072397355 0.0
0.0018106264688056023 -0.00012681691660982206 0.0
0.0018645021850275277 -0.00011153094629343144 0.0
0.0018150749698606302 -0.00010922936191839831 0.0
0.0018718827871769754 -9.363055065524293e-5 0.0
0.0010424786137589151 -0.0003637135762745673 0.0
0.0010750926775271795 -0.0003594435895954436 0.0
0.0011474485101082368 -0.00017547808506659308 0.0
0.0006334072566713957 -4.2165612141647095e-6 0.0
0.0006967525076753855 4.423610638890782e-6 0.0
0.002287027559744665 -0.0001598547628426887 0.0
0.002241037697419152 -0.00018153089247119716 0.0
0.0006201303638789569 2.0579044087644343e-5 0.0
0.0006940679317517831 3.047558973807374e-5 0.0
0.0023367353463861758 -0.00013710877069955302 0.0
0.0023462615024749107 -0.00012407643664695894 0.0
0.0006293385264412684 4.4192282283601624e-5 0.0
0.0007747750831861847 -0.0003140106371150813 0.0
0.0010754536397187097 -0.00037780977064633483 0.0
0.0011078360519148041 -0.00037271986526907707 0.0
0.0011080449244885793 -0.00035446693814137736 0.0
0.0011407279776778894 -0.00036726255586541016 0.0
0.0011413672952949347 -0.000349164422091699 0.0
0.001174189488513668 -0.00036142461028659096 0.0
0.0011751575406034529 -0.00034321997329508257 0.0
0.0012084473112350426 -0.0003551123382858315 0.0
0.0012098470997638966 -0.0003369024146787922 0.0
0.001243380818638891 -0.0003482375270360634 0.0
0.0012419357137392613 -0.00036700933126182256 0.0
0.0012766746127637137 -0.0003596132825689706 0.0
0.0012750270411950643 -0.00037878177667287165 0.0
0.0013095830720139937 -0.00037084933109055685 0.0
0.0013075271715940172 -0.0003904680306650835 0.0
0.0013423411846422016 -0.0003819528326247428 0.0
0.0012453364396879073 -0.0003300624411159608 0.0
0.0013446214951632544 -0.00036226274456497556 0.0
0.0013778307090639185 -0.00037271506017856826 0.0
0.0013750404817219361 -0.00039323034514743456 0.0
0.0014109693475205202 -0.0003834445118714658 0.0
0.0005363959362936611 -0.00012032495241545994 0.0
0.0005385414671350057 -0.0001361033428271145 0.0
0.0007107236526460047 -0.0002957425700694125 0.0
0.0006770101055466009 -0.0002781684101645068 0.0
0.0014144269352333492 -0.0003629158180809572 0.0
0.0014476022900044912 -0.00037281367281751703 0.0
0.0014436180657924078 -0.0003939774054719416 0.0
0.0014809503698512787 -0.0003825946564854981 0.0
0.0004880116133205647 -0.0001181246630534739 0.0
0.0004905147653274588 -0.00013325789430021045 0.0
0.0018197972961254904 -9.092292979464133e-5 0.0
0.0018801908879618712 -7.512465950268237e-5 0.0
0.0018262919264852302 -7.244634592906247e-5 0.0
0.0023223441754015098 -0.00015433553971922696 0.0
0.002370480386394625 -0.00013189226078278847 0.0
0.0011080480154519526 -0.00039172796003542206 0.0
0.000758058706814027 -6.485976893366796e-5 0.0
0.0014207385836127752 -0.0001993595000971803 0.0
0.0014763969133011628 -0.0004043918220158301 0.0
0.0015139353127545095 -0.00039229339073643826 0.0
0.0015181617884342646 -0.0003702596073095103 0.0
0.0015519868623629519 -0.0003790093431739706 0.0
0.0015061250693701022 -0.00016860100165975235 0.0
0.001891675259498637 -5.587635195839726e-5 0.0
0.0019414810979394078 -6.210143694943422e-5 0.0
0.0006976074460862406 5.691483955460427e-5 0.0
0.0006807071781558981 -0.0002952916693608281 0.0
0.0006476026800517 -0.0002773165637367606 0.0
0.0018343350729271841 -5.316825101628146e-5 0.0
0.0015468324562711929 -0.0004019817564002424 0.0
0.0015856708791431797 -0.00038833902779859754 0.0
0.001591148050625298 -0.00036511885705680584 0.0
0.0016258294069407184 -0.00037385843737087684 0.0
0.001632364604007241 -0.00035109065511043083 0.0
0.001666702313918045 -0.00035856284382306555 0.0
0.0016594570648863884 -0.00038203800138735054 0.0
0.0017001940716478252 -0.0003657935033272129 0.0
0.000629687309430788 6.656593731025638e-5 0.0
0.0004413960129415985 -0.00011506084451356338 0.0
0.00044393619490868503 -0.0001292738218140301 0.0
0.0010767365798126569 -0.000396975140482887 0.0
0.002354365374547828 -0.0001504772165779525 0.0
0.0024030982380634923 -0.00012668116233441635 0.0
0.0016922635067594712 -0.0003899564799296572 0.0
0.0017324907070723013 -0.000372867265077558 0.0
0.0007027788730002951 8.209013545037816e-5 0.0
0.0006517907741706841 -0.0002945123727240475 0.0
0.0006186135532214422 -0.0002758205311400902 0.0
0.0007621678952419963 1.3072264298078167e-5 0.0
0.0021766873503149646 7.33958081639332e-5 0.0
0.0011083869323944198 -0.0004112830625003409 0.0
0.0006321933045661705 8.686247050399148e-5 0.0
0.0005754918944549855 -1.2531964290998443e-5 0.0
0.0023818702934150257 -0.00015070201053365347 0.0
0.00243499252460806 -0.00012196391600104884 0.0
0.0024517504240003274 -0.00010425986127537454 0.0
0.0005598549101174374 5.1897027074022957e-5 0.0
0.0023316760209104712 -0.00017373196345915593 0.0
0.00043582390068148925 -0.00010033497053070996 0.0
0.0006820616514643387 -0.00031164949888610837 0.0
0.001902758987081343 -3.597078249827686e-5 0.0
0.0018434898153389422 -3.310665458288185e-5 0.0
0.0016744402439383738 -0.0003360671589509514 0.0
0.0006232717819823879 -0.00029347704583533867 0.0
0.0005901251367579404 -0.00027417569254167525 0.0
0.0003964374265824876 -0.00011105056437396091 0.0
0.0003989033827578569 -0.00012413441548487055 0.0
0.000734949551596116 -0.0002623110704565251 0.0
0.0017238611431977361 -0.00039763720282440414 0.0
0.0017636239812269647 -0.000379462852049522 0.0
0.0005853842434609252 -0.0002569981535854381 0.0
0.0005567219330089964 -0.0002547486545169986 0.0
0.0016865584172322712 -0.00041340311405387866 0.0
0.0010783256662203996 -0.0004167039964157621 0.0
0.0005621625856235105 -0.0002722772353069963 0.0
0.0005288154853096521 -0.0002522687670709211 0.0
0.0011414902699237181 -0.00033185539818077886 0.0
0.0024844517323661373 -9.838752547577752e-5 0.0
0.0025001821760239585 -8.391472755175273e-5 0.0
0.0024682772200276273 -0.00011603248362341736 0.0
0.0017542221553286323 -0.0004045805135238674 0.0
0.0017934852891850746 -0.00038543700520947063 0.0
0.0016389108545148989 -0.0003291518182251476 0.0
0.0016820135557476172 -0.00031448026283369194 0.0
0.0011091438826556592 -0.0004313177463638663 0.0
0.0018036424040630918 -0.00036063085107089537 0.0
0.0018332177859434898 -0.000365990422565569 0.0
0.00035240918762632174 -0.00010555203322980025 0.0
0.00035686272512262075 -0.00011814455293955044 0.0
0.0018224051040250891 -0.0003917529313004918 0.0
0.0018611120672720651 -0.0003712473161541764 0.0
0.0005352982171667009 -0.00027023140022908046 0.0
0.0005018370784644518 -0.0002495872024202657 0.0
0.001913804113176178 -1.5470302890079696e-5 0.0
0.0018540781781372605 -1.2261950725353051e-5 0.0
0.0004950409161811618 -0.00023252841345883858 0.0
0.0004678788825425439 -0.00022904340130689088 0.0
0.0004746069775456655 -0.0002464197955562626 0.0
0.000440745933925577 -0.00022526741827646522 0.0
0.002516567348260787 -9.242273388219146e-5 0.0
0.002500114326731249 -0.00011075294923991643 0.0
0.0007059995490791871 0.00010380233714505143 0.0
0.0006298770244399379 0.00010425486576257969 0.0
0.001772332769665034 -6.90866086781771e-5 0.0
0.0010799606086545565 -0.000436900850679949 0.0
0.0018497335211619984 -0.0003980589130347452 0.0
0.0018874155632690444 -0.0003763478467597081 0.0
0.001999755449802053 8.789896144237824e-5 0.0
0.001844341911359339 -0.0003413635186387981 0.0
0.0012736914919613618 -0.0003984990703477805 0.0
0.00043313296049844247 -0.00020879034789976776 0.0
0.00040670763684352916 -0.00020415643726960932 0.0
0.0004145693753367505 -0.00022136046354791816 0.0
0.00038032861212226486 -0.0001994418142845783 0.0
0.00037250646685384767 -0.00018335024857494983 0.0
0.0003452362367654929 -0.0001778548047957936 0.0
0.0003371750535014015 -0.00016226208347724973 0.0
0.00030939406846126725 -0.00015586289411555248 0.0
0.0003013887298768825 -0.00014147772392853156 0.0
0.00027505958746518996 -0.0001348180654748422 0.0
0.0002666543861423296 -0.00012172968653372249 0.0
0.00028254386596416806 -0.00014882773286257735 0.0
0.00024501874788061665 -0.00012459514004367712 0.0
0.00031162283969357726 -9.943402978050509e-5 0.0
0.00030948543343084235 -8.826256703506853e-5 0.0
0.000255912367044793 -0.00014120039266443663 0.0
0.00022150312120035328 -0.00011881220733719114 0.0
0.0007762626157696706 9.63961542107592e-5 0.0
0.0008164657253096706 -0.00016623965413176003 0.0
0.0016458149788368508 -0.00030815982484766366 0.0
0.0016890861642301035 -0.0002937885442029971 0.0
0.0004901763643122875 -0.00014698867275821992 0.0
0.0011099444651353895 -0.0004519464479834965 0.0
0.001139357179672085 -0.0004459609609651795 0.0
0.001725717238138664 -0.0002993236509846827 0.0
0.001733224359379032 -0.0002786852823035445 0.0
0.002548024446222881 -8.631783585501737e-5 0.0
0.0025295219328179542 -0.00010602839898557057 0.0
0.0024823953873617287 -0.00013394719892292195 0.0
0.0017836425820786919 -3.045293206166377e-5 0.0
0.0017937968177155566 -9.810861376897545e-6 0.0
0.0010493894465864676 -0.0004217929988197595 0.0
0.0010512773487733993 -0.00044203398885905295 0.0
0.0010211725050487872 -0.0004266388421555196 0.0
0.0003896372262733352 -0.00021735595389254893 0.0
0.0018651134973038945 8.957979647309169e-6 0.0
0.0018048366287487427 1.1939743676236639e-5 0.0
0.0007351269576682757 -0.0001858884659987425 0.0
0.0018751480307691824 -0.00040407902312429247 0.0
0.0019126914598160349 -0.0003813966890602861 0.0
0.0019257203200803332 -0.0003547523532149256 0.0
0.0019506203565066295 -0.0003588112091159623 0.0
0.0007299820455951779 0.00012529237749097686 0.0
0.000639280632804279 0.0001207540054721298 0.0
0.0010061794241100755 -0.0003146603150191237 0.0
0.0018388209347388771 -0.00042623353963656003 0.0
0.0023156157812238586 7.306825032018442e-5 0.0
0.0019371185067298315 -0.0003873736685586088 0.0
0.001975267422540271 -0.0003638340417937999 0.0
0.0019891363666593976 -0.0003359443735502041 0.0
0.002014270169138791 -0.0003401017188381624 0.0
0.00202910777432826 -0.00031259570507503697 0.0
0.002053957211257734 -0.00031598695920897357 0.0
0.002038945080302894 -0.0003452606020834589 0.0
0.002078362333138073 -0.0003203366647642562 0.0
0.00023022823286793245 -0.00013239024054910263 0.0
0.00019650551426253428 -0.00010980429535154767 0.0
0.00018370197723571803 -9.530035191248709e-5 0.0
0.001140055497231122 -0.00046702095547903824 0.0
0.001168292167318649 -0.00046150943345751004 0.0
0.0010235463045132776 -0.00044697421354840535 0.0
0.0009935545128611153 -0.0004310906140098023 0.0
0.002509919854366776 -0.00013113352606815566 0.0
0.0025567843029188323 -0.00010202775357989062 0.0
0.0019675484845401614 9.503209966604562e-5 0.0
0.0019181323607531885 9.256123623014978e-5 0.0
0.0005482170491506358 9.827145620006744e-5 0.0
0.0005568745818699963 0.00011134753624720379 0.0
0.00026522891979084034 -0.00015734565738332 0.0
0.0009410862161486685 -0.00025288819776895274 0.0
0.0017547715360581762 -0.0001085145592301916 0.0
0.0024644358130560965 -0.00016121157358351345 0.0
0.0007457461847961732 -9.896158777786935e-5 0.0
0.0017240385355728974 -2.8463047096050386e-5 0.0
0.0020625201559162374 -0.00035148065994736503 0.0
0.0021019046745138687 -0.00032573184947527875 0.0
0.00210882654375048 6.755577384257387e-5 0.0
0.0022088019711958076 5.960407592733918e-5 0.0
0.0007297001847657342 0.00014241412752541131 0.0
0.00040098352423167916 -0.00013681022239038214 0.0
0.0002640976287462487 -8.086018974300937e-5 0.0
0.00026254640378670037 -7.06065709041365e-5 0.0
0.0004225193333944296 -0.00023975416799361802 0.0
0.0019635989466981084 -0.0003942136422078876 0.0
0.001602949595148692 -0.00022710320378656906 0.0
0.0014404417355903985 -0.00041583856851427344 0.0
0.0009090113859359589 -0.00032270295752888947 0.0
0.00020521171524870134 -0.00012328151928878175 0.0
0.0001723989624652216 -0.00010043360966460089 0.0
0.0005685853209241649 -0.00029094545196858346 0.0
0.0017704991161440287 -0.00028349549758905387 0.0
0.0017784251946641608 -0.00026304427077926385 0.0
0.001052206762000965 -0.00046315132195968095 0.0
0.0021552424685620944 5.156436184766438e-5 0.0
0.002240739120958233 4.533957252032431e-5 0.0
0.002190567661985212 3.577629093575695e-5 0.0
0.0022733240934813795 3.0600542244927194e-5 0.0
0.00232264626825033 3.918928755874962e-5 0.0
0.002354342971594538 2.5731459338558666e-5 0.0
0.0023041857363054127 1.5766840264848394e-5 0.0
0.0023823642405086044 1.243928530842223e-5 0.0
0.0023324542546817977 1.451837743205827e-6 0.0
0.0024089199948521653 -9.294693954099794e-9 0.0
0.0023600343444024545 -1.22308373692371e-5 0.0
0.002433160654503208 -1.1378017557840986e-5 0.0
0.002385246956580672 -2.480097777300541e-5 0.0
0.002455870633738682 -2.1560830457432202e-5 0.0
0.002309524118150218 -2.7544858019795895e-5 0.0
0.002408735093380097 -3.5830279208912264e-5 0.0
0.0024752188891079487 -3.078993327175941e-5 0.0
0.002405751820395371 3.257766528243492e-5 0.0
0.0005507753730755547 -0.00023788699668433042 0.0
0.0005424894952964231 -0.0002892484954968572 0.0
0.0005745842792966627 -0.00031019671373004517 0.0
0.002430712337344219 -4.528673133853763e-5 0.0
0.0024939584278686725 -3.832175943361222e-5 0.0
0.002367810240135524 -5.144742761719838e-5 0.0
0.001472125393286159 -0.0004267983822389171 0.0
0.0014369244103360874 -0.0004380354237689252 0.0
0.0014680092312761225 -0.0004495733650988396 0.0
0.0014341083364545193 -0.0004607253591323995 0.0
0.0014643691679829675 -0.00047281119276938087 0.0
0.0014320532847667438 -0.0004838881369037366 0.0
0.0014017911689764163 -0.0004714671592429328 0.0
0.0014005225759880643 -0.0004943848494288611 0.0
0.0013710184517565674 -0.00048158246285439564 0.0
0.0013194149170138866 2.4018609814721563e-5 0.0
0.001461472578618685 -0.0004966364389691168 0.0
0.0014934280453329674 -0.0004850085903821333 0.0
0.0012448188944678097 -0.00019608655280180308 0.0
0.0012113221256146692 -0.0003192527686494442 0.0
0.0012474522610731544 -0.0003124439126811631 0.0
0.0012129705565389116 -0.0003021257211505604 0.0
0.0012497061944066845 -0.00029538258306177623 0.0
0.0012148249100534796 -0.0002855463485227352 0.0
0.0012521176636717507 -0.0002788955165459599 0.0
0.0012871721274773616 -0.0002881708398189877 0.0
0.0012900892111626686 -0.0002717797008842748 0.0
0.00132534912704091 -0.00028050291489433143 0.0
0.0013286489439700419 -0.0002642030719940886 0.0
0.0013625365420194004 -0.00027234109429504546 0.0
0.0012932709132534976 -0.00025547293211951506 0.0
0.0012168929025049892 -0.00026949305935924375 0.0
0.001179509333750163 -0.00027564238801824605 0.0
0.001358828853507049 -0.00028938411898998616 0.0
0.0013980914120700707 -0.0002796321087091373 0.0
0.0005496278598489778 -0.0003089369390728116 0.0
0.0012997105144661794 -0.00013540530879535082 0.0
0.001324719068060464 -3.585400618740518e-5 0.0
0.0014518866820322873 -0.0003524681138665552 0.0
0.0025634370137603245 -7.198009088960694e-5 0.0
0.002593739490297745 -6.567077592289003e-5 0.0
0.001435950131127239 -5.300541445063231e-5 0.0
0.0014177631457440078 -8.80020067736071e-5 0.0
0.002003231183742347 -0.0003099877143682221 0.0
0.0017379016919213234 -0.0001921344319810424 0.0
0.0025381574981522773 -0.00012704391232856228 0.0
0.0025829181382139438 -9.800580762244638e-5 0.0
0.0014034475421885134 -0.0001379077623606546 0.0
0.000996280238563315 -0.0004516397532477609 0.0
0.0009664459885212605 -0.0004353261920925913 0.0
0.0014611657859174272 -1.6463319099021893e-5 0.0
0.001369860273767763 -0.0005043954298554832 0.0
0.0013402339152185812 -0.0004902870898408706 0.0
0.0009637615480571818 -0.0004151273359078013 0.0
0.0009363866689798965 -0.0004189398196257817 0.0
0.0009335791041289628 -0.000399043660642139 0.0
0.0009060604163964634 -0.0004023829781551506 0.0
0.0009094697056786415 -0.0004225674871244218 0.0
0.0008792427547937116 -0.000405534201709279 0.0
0.0008829725475689661 -0.0004259637965119571 0.0
0.0008527701790186703 -0.0004084843303195276 0.0
0.00039921736304807847 -0.0002364980670932102 0.0
0.0026078245529223346 -5.456027611408827e-5 0.0
0.0018749047821905568 2.9896367557321872e-5 0.0
0.0018134442448733232 3.2914595364855984e-5 0.0
0.0008352753423954554 -0.00024472079656753164 0.0
0.0006766689621132198 -0.00026189923531099357 0.0
0.00251812870144124 -1.94612521238229e-5 0.0
0.0024834957325185134 -1.841420382378659e-6 0.0
0.0011684164721791396 -0.0004825606271563214 0.0
0.0011973447065391045 -0.0004763879935251914 0.0
0.001863121626906889 -0.0004331477672126112 0.0
0.0003669443206778593 -0.00016827905637352466 0.0
0.0015794985762151768 -0.0001778783853743428 0.0
0.0017450059395200184 1.3720839158930033e-5 0.0
0.0017534137532085547 3.45908490564992e-5 0.0
0.002044721988253596 -0.0002871293114227572 0.0
0.0021163591722139054 -0.00015580484322574536 0.0
0.0021184660796977695 -0.00029566980230678403 0.0
0.002142723602506938 -0.0002995700747174618 0.0
0.0021246758082071535 -0.0003323382860684757 0.0
0.002166295771203404 -0.0003049268451346551 0.0
0.001225863165733227 -0.00016568807675681295 0.0
0.0004303659352782945 -0.0002589585705643372 0.0
0.0013639931324138672 -0.0002557363005559215 0.0
0.00225471114796087 2.01967767107491e-6 0.0
0.0011740173296946653 -0.0004412393486039669 0.0
0.0005802186807011239 -0.00032992009135955673 0.0
0.0006052683285251643 -0.00033100739500695236 0.0
0.0018282855402563512 -0.0004552919378332347 0.0
0.0009027362567969236 -0.00038292435248338415 0.0
0.0016522901240884405 -0.00028805577073969554 0.0
0.0016094021881318875 -0.00030155960486737647 0.0
0.0025643761569834832 -0.00012360420148644944 0.0
0.002609260092069914 -9.310868201941369e-5 0.0
0.0026260604816170405 -7.265208976864091e-5 0.0
0.0008181139797731309 0.00014741316729452396 0.0
0.00018114909838912237 -0.00011340061643953291 0.0
0.0001487067346666391 -8.98608632965139e-5 0.0
0.00014344211926028627 -8.063452614662719e-5 0.0
0.0018883866645302023 9.646671117332612e-5 0.0
0.0019344984019487655 9.379286749726586e-5 0.0
0.001841685288273777 9.525624349769808e-5 0.0
0.0019739022663341514 -1.9173517610801413e-5 0.0
0.002451734792481446 -5.2336637581933946e-5 0.0
0.002513866306745099 -4.354522301765293e-5 0.0
0.0009695850968889295 -0.0004561437273509874 0.0
0.0019268292017834384 -9.562658184113587e-5 0.0
0.000464669360988941 8.755235607641861e-5 0.0
0.0004690256958316222 9.62958924796432e-5 0.0
0.00056873699858692 0.00012230427895570635 0.0
0.00047207208367920644 0.00010201322866556766 0.0
0.0006131307523160113 0.00013901320886979243 0.0
0.0013384988448669295 -0.0004672179906657483 0.0
0.0008484242136979481 -0.00038846985247895045 0.0
0.0008226459004672434 -0.0003910211964742847 0.0
0.0008269446951489504 -0.00041127159923273407 0.0
0.0007971292011781686 -0.00039343556314336465 0.0
0.002183600712906345 -0.00027362426366472057 0.0
0.002207245421932905 -0.0002782195514347396 0.0
0.002190043415056848 -0.0003113294055191887 0.0
0.0022302412946853456 -0.00028378740006173496 0.0
0.0017400901375287854 -0.00025861125768733247 0.0
0.0017859060796275202 -0.00024342019731169487 0.0
0.0014904383306868954 -0.0005093133647916226 0.0
0.0015217837195673554 -0.000497194286254684 0.0
0.0011813965394801718 -0.0002598478617390539 0.0
0.0011438337799380088 -0.00026555818350960475 0.0
0.0011370234089929094 -0.0004891423182440308 0.0
0.0008015360067850126 -0.0004135850305483258 0.0
0.0007722874325603846 -0.00039559842469560013 0.0
0.0024367579421083695 -0.00016329320202687725 0.0
0.002418802696580757 -0.0001925870690026215 0.0
0.002392442888051 -0.00019350451833570657 0.0
0.002378778638126708 -0.00022167005957107017 0.0
0.0011972415804141691 -0.0004992711588867612 0.0
0.000211265669855754 -0.0001367638975656704 0.0
0.00029533052625621775 -0.00012888870664694928 0.0
0.00025655061154912766 -0.00010883197631706868 0.0
0.0002153760152039851 -6.275804959390927e-5 0.0
0.00021112380794854692 -5.318067625651455e-5 0.0
0.0002614450547955896 -5.978178655846284e-5 0.0
0.00020791129448256875 -4.331961583659791e-5 0.0
0.0002603165263666951 -4.803008689584438e-5 0.0
0.0002049017883495823 -3.289963173880181e-5 0.0
0.00026010855499962275 -3.537666948744618e-5 0.0
0.0024458286552911965 -0.00019156773020584687 0.0
0.0007916298896521563 -0.00037382751371184636 0.0
0.0020176914196427514 -0.0002862792529824155 0.0
0.0018036411515360282 -0.0004467447737229242 0.0
0.0017943899601292066 -0.0004766617835949493 0.0
0.0017699899765049993 -0.0004677223097368522 0.0
0.0013398847252718668 -0.0005136057208454563 0.0
0.0019229028932150557 2.352712845386129e-5 0.0
0.002213217279178215 -0.0003185808142806578 0.0
0.002652703727350843 -6.623627733639821e-5 0.0
0.002635034637738987 -8.730334291392123e-5 0.0
0.0008175251418625166 0.00016157869049201998 0.0
0.001867312885571219 4.739492240290392e-5 0.0
0.0014179653225619632 -0.0003431822238770792 0.0
0.0014554611813054749 -0.0003328386028565142 0.0
0.0014006022991191454 -0.0005182019505556216 0.0
0.0013104991027799737 -0.0004990020675766848 0.0
0.0005944196411233324 -0.00015601659386505024 0.0
0.0025536750889111203 -3.14913952821607e-5 0.0
0.0025723829299827174 -3.493404614947357e-5 0.0
0.002531619771310962 -4.7374897841752765e-5 0.0
0.002588140163537335 -3.771113556464614e-5 0.0
0.0021143515569855666 -0.00021376647296538574 0.0
0.001576464359698944 -0.000412691155855057 0.0
0.0016152915166654305 -0.00028211090442371097 0.0
0.001174748529881302 -0.000380424508580549 0.0
0.0017082509821322223 -0.00015558968103944598 0.0
0.0018160551434617679 -0.00026725933475847186 0.0
0.001813867476259181 -0.00033729266326649554 0.0
0.0018555435121114564 -0.00031834223477846126 0.0
0.0018546680271119152 8.867913896723503e-5 0.0
0.001911579664756349 8.136965040283355e-5 0.0
0.0006103681142054001 -0.0003509239582078342 0.0
0.000634280318341552 -0.00035128107604331444 0.0
0.0002024089064354455 -2.1858125387455352e-5 0.0
0.00025809221150273614 -2.187327368385772e-5 0.0
0.00031760330868420446 -3.6257647685915475e-5 0.0
0.0003178993595085573 -2.0048229585273696e-5 0.0
0.0002579720985231934 -8.198538797381184e-6 0.0
0.0003209302260141327 -3.582625936910822e-6 0.0
0.00025976164324170606 5.094240769332188e-6 0.0
0.00032675820256038276 1.2798309419087373e-5 0.0
0.0002627298926934947 1.75525208166118e-5 0.0
0.00015777960569408948 -0.0001028373508118373 0.0
0.0015727235533318853 -0.0002947479354422671 0.0
0.00012605848693338068 -7.904889210238957e-5 0.0
0.0005564718443218886 -0.0003291205599435648 0.0
0.002638904630022312 -4.7777885656386405e-5 0.0
0.001281531472578597 -0.0003227224917533041 0.0
0.0016869003340380185 1.4425527480781312e-5 0.0
0.0016989940247435038 3.6963568457345166e-5 0.0
0.0003331607677937432 2.849949389568948e-5 0.0
0.0004082839857479243 -0.00025643597757833806 0.0
0.00037753616580865363 -0.00023346664081663615 0.0
0.0008317404885334968 -0.00043551486796612347 0.0
0.0018486672752486182 -0.0004647076722184796 0.0
0.0009988858400832702 -0.00047290102795951845 0.0
0.0022530783028355582 -0.0002899278853565796 0.0
0.002668441695231572 -5.073109555662683e-5 0.0
0.0011423031709117172 -0.0002814982990168483 0.0
0.0011068085837695452 -0.0002708260993573936 0.0
0.0011055334289810047 -0.00028695283397223956 0.0
0.0008959180197782784 0.0001630977011526316 0.0
0.0010721321559761683 -0.00027577187157101166 0.0
0.00022361969582302755 -7.325008643149998e-5 0.0
0.0015185419364513281 -0.0005222107691645558 0.0
0.0015499427009302244 -0.0005095444414509444 0.0
0.001553899593739583 -0.0004843297092154717 0.0
0.001581799170308778 -0.0004960893179084098 0.0
0.0018862844264652204 -0.00032180609674205637 0.0
0.0018985121094781659 -0.00029873282057052316 0.0
0.002650663144555855 -3.969969760527475e-5 0.0
0.0026188657199426616 -4.616192781727097e-5 0.0
0.0017734946650439947 5.813091152634565e-5 0.0
0.0017111501080171265 6.0925886194816155e-5 0.0
0.0005264496240108073 -0.0003078742032246207 0.0
0.0007769129028882599 -0.0004158674169440656 0.0
0.0007482074419475024 -0.00039764915795441824 0.0
0.0013499545753089437 -0.00018988135460236053 0.0
0.00217428475528473 -0.0003469830606383627 0.0
0.0002679819977725986 2.886573812600857e-5 0.0
0.0007428429275523269 -0.0003773474421497948 0.0
0.001577476252100635 -0.0005220262572630233 0.0
0.0016088723970182968 -0.0005078740660769796 0.0
0.0015776119693274144 -0.00027635247033220314 0.0
0.0015359954356639579 -0.00028773996863957026 0.0
0.0015404741740921036 -0.0002699943194946225 0.0
0.0014308744497514947 -0.00016246840197393743 0.0
0.0002241446836472712 -0.00010012312106700842 0.0
0.00013505768586305218 -9.172667539981387e-5 0.0
0.0015870212404238266 -0.00047052457555046324 0.0
0.0016428394546133271 -0.00023271622474904183 0.0
0.00131069503603647 -0.0005225262534206465 0.0
0.0005380236696282224 -0.00010445204733699229 0.0
0.0009459046981260047 -0.00019326008633289068 0.0
0.0004383208148649779 -0.000279925801621123 0.0
0.0022705815392236556 -0.00025681848702868384 0.0
0.0005819513174390475 -0.0002407088673211611 0.0
0.0005453004482956906 -0.00022155100012155176 0.0
0.0005793625228033159 -0.00022476976269468916 0.0
0.0005412971573510799 -0.0002058798699160023 0.0
0.0005764623680869477 -0.000209129969794653 0.0
0.000506881227875318 -0.00020217250861130095 0.0
0.001761597045303141 -0.0004973895753771017 0.0
0.0017390321631470071 -0.0004878317520236069 0.0
0.00037284873494044846 7.093377524298875e-5 0.0
0.0013406964109150311 -0.0005372379536694742 0.0
0.0013055046635898973 -0.0004106437503695212 0.0
0.0012723470017544558 -0.0004186553396753591 0.0
0.0006397810061607749 -0.00037164992933951793 0.0
0.0001734688461424217 -5.4411880510025865e-5 0.0
0.00018514374685379897 -6.563775836806394e-5 0.0
0.002464904715536512 -9.055370839444743e-5 0.0
0.0025138885735427395 -7.207918684920703e-5 0.0
0.0003783641278793068 -3.512105072376841e-5 0.0
0.0006632557263881488 -0.0003711735850321652 0.0
0.0006595049856742668 -0.0003525351514069403 0.0
0.000668715943938017 -0.0003918892400947285 0.0
0.0006168094040779641 -0.0003718077176793939 0.0
0.0004952118432383575 0.00011197672406987471 0.0
0.0010188257783172606 -0.0004069507480313933 0.0
0.0015672124876408022 -0.0003144409303475097 0.0
0.002475880501117022 -7.879996092685508e-5 0.0
0.0014879815409614985 -0.0005342710339803298 0.0
0.000972280701692307 -0.000477697244605746 0.0
0.0026768786003918393 -6.0054077920779046e-5 0.0
0.002659000011990315 -8.178923133957338e-5 0.0
0.0009022050664382865 0.00014748704627622755 0.0
0.0007536985090475476 -0.0004185628180045412 0.0
0.0017464555938383045 -0.0002385886153703502 0.0
0.0017960494506092679 -0.0002235539176019724 0.0
0.0002895506228134445 -0.00011688036325061324 0.0
0.00038686819398895235 -0.0002535756577980568 0.0
0.00035698595692869404 -0.00023060196804969039 0.0
0.00034711191958941887 -0.00021125918925725092 0.0
0.000533663286577032 -0.00032836356861431576 0.0
0.00010396838037299424 -6.76544017347215e-5 0.0
9.691291113747246e-5 -5.851836412575152e-5 0.0
0.001604139192233769 -0.000534587192531367 0.0
0.0016348710456935674 -0.0005197664428147337 0.0
0.001639505917620608 -0.0004912889805556819 0.0
0.0022251161234253447 -0.0002479430234310687 0.0
0.002200558323542438 -0.0002452357451469713 0.0
0.0021964655381151573 -0.0003561695003956941 0.0
0.000502356492078044 -0.00018702766641577338 0.0
0.00046871312401971686 -0.0001834409634729971 0.0
0.001834600013477743 -0.00022753745488154615 0.0
0.002626291248037969 -2.698346517774336e-5 0.0
0.0026404223920184237 -2.8742711263689707e-5 0.0
0.00265703061613577 -3.4287695383040306e-5 0.0
0.002609041493196177 -0.00012064313229350568 0.0
0.0001665579042835488 -0.00011772457719543187 0.0
0.001713885021116108 -4.612947276873368e-5 0.0
0.0016593324437002312 -4.477942923768958e-5 0.0
0.0016496187737663577 -6.011258986693425e-5 0.0
0.0015983398210728163 -5.912793682867663e-5 0.0
0.001592018808365251 -7.349676398738437e-5 0.0
0.0016032502847177386 -4.524434824047214e-5 0.0
0.0014215066080344304 -0.000324102380450043 0.0
0.0011454877838765658 -0.0002501617113100633 0.0
0.0011835944634919166 -0.0002445298720957361 0.0
0.0003663162960239594 -0.00025073872158353064 0.0
0.0003367084618896196 -0.00022707452999996475 0.0
0.0023711656244405307 4.469313110866988e-5 0.0
0.0024569673223153914 3.6693117149112306e-5 0.0
0.0024915554600511824 2.4872542857872788e-5 0.0
0.0025423725480754056 2.770731620133391e-5 0.0
0.0025200879110771164 3.753443194363406e-5 0.0
0.001282677771600241 -0.0005082242356762002 0.0
0.0012821195976111636 -0.0004861460889237034 0.0
0.0012823046813615602 -0.0005312307962194764 0.0
0.0016292193282832156 1.3637132009057404e-5 0.0
0.0016185827756849305 -4.801145644764782e-6 0.0
0.00037990551924775253 -5.2610138103700126e-5 0.0
0.00019587344398135328 1.708024498022519e-5 0.0
0.001730081839983028 -0.0005170623835581386 0.0
0.000458976362752448 7.703463978460374e-5 0.0
0.0017619392364641108 -0.0003045951447618891 0.0
0.0016499532061774137 -7.458200431814256e-5 0.0
0.001586063931067565 -8.763251131551371e-5 0.0
0.00163346893949228 -9.072555591561427e-5 0.0
0.0015798903369206973 -0.00010157904650358265 0.0
0.0016246415496250356 -0.00010512002499645496 0.0
0.001573939791674135 -0.0001156418355020251 0.0
0.0016173462385788932 -0.00011950910145606535 0.0
0.0015682406895577135 -0.00012998135415840726 0.0
0.001612333035344833 -0.00013403456840887793 0.0
0.0015327859710350326 -9.805442814743268e-5 0.0
0.0015249532252497146 -0.00012575074008925577 0.0
0.0017850755430653213 -0.0005071447389544886 0.0
0.002688737471051988 -3.0959975092610815e-5 0.0
0.0009312065651973043 -0.00037990822143346253 0.0
0.0008991750003241601 -0.00036451692757886816 0.0
0.0025189395504110995 -0.0001565959663332058 0.0
0.0010749839101498553 -0.0002622831130888903 0.0
0.0015439137244151221 -7.107975785302654e-5 0.0
0.0006266923583716278 0.00014911978168655706 0.0
0.00016006452062140885 -3.734020432196101e-5 0.0
0.0009810830147796358 0.00016125178689702324 0.0
0.0009783628750267416 0.0001431402297595296 0.0
0.002068209731075716 5.46881384655736e-5 0.0
0.0025446267895752406 -0.00015405346900536305 0.0
0.0025014157310935987 -0.0001887975404825743 0.0
0.0010699977348996362 -0.00029186811332024954 0.0
0.0010399813088133947 -0.0002781490752367235 0.0
0.0004596612457008204 -0.0002658562810161548 0.0
0.00011290387070450974 -7.987355865454859e-5 0.0
0.0001319356976831082 -4.4454892867095836e-5 0.0
0.00013753746403572453 -5.153152231280692e-5 0.0
8.220720630071301e-5 -5.555246486170272e-5 0.0
0.0018659521023908845 -0.0002961068370709096 0.0
0.0019101008260739133 -0.0002771002925342976 0.0
0.0019430512800425804 -0.00027900910432955014 0.0
0.0019545632486507314 -0.0002575068693661817 0.0
0.0015204325375251042 -0.00013931306164038332 0.0
0.0007364374332621637 0.00017168286199232055 0.0
0.0009114169291148336 0.0001758886460363301 0.0
0.0014994205390951984 -0.0002805358585210409 0.0
0.0015042145558424968 -0.0002630097726928197 0.0
0.0011481334316818304 -0.00023582994716114157 0.0
0.0009811735341316789 -0.0002339738170114958 0.0
0.001001604795472488 -0.0004948278925304388 0.0
0.0020249536585876544 -0.00037687684151171697 0.0
0.0020475080918129817 -0.0003850153030365627 0.0
0.0020118904777652277 -0.0004106327855766725 0.0
0.0020337849529022405 -0.00042074074529398496 0.0
0.001999721634573736 -0.0004462199591734204 0.0
0.0019777665082345523 -0.0004359076669148233 0.0
0.0019219205383268789 -0.00042286531808608376 0.0
0.0017441616033011076 -0.0004584299553093933 0.0
0.0018701827232386918 8.623855052469695e-5 0.0
0.0014056294047135845 -0.00042661623230832774 0.0
0.000390259129636831 3.5047066365649896e-6 0.0
0.0026385311079660328 -0.00010982632219860756 0.0
0.0026809410811450326 -7.58228854997993e-5 0.0
0.002069142366305746 -0.000394323881974831 0.0
0.00205606243993274 -0.00043113417981942395 0.0
0.002090161601250535 -0.0004048367733892224 0.0
0.0010273124506967744 -0.0004897664914821421 0.0
0.0012408704232287212 -0.0004061082483238525 0.0
0.001240705815477514 -0.00042586897756932305 0.0
0.0012713258866813154 -0.00043924850804910267 0.0
0.0008432159191240486 -0.0003129599320878399 0.0
0.0012093001659600013 -0.0004128421731385871 0.0
0.0015589149748742213 -0.0004601601233586742 0.0
0.002244239353588619 -0.00021990147552525705 0.0
0.002293070285984025 -0.0002616113773168321 0.0
0.0022752218361289274 -0.0002970278547718454 0.0
0.0023166300115333863 -0.00022646196561000584 0.0
0.0003201193717078742 -6.535431183845728e-5 0.0
0.0009131091471622427 -0.0004434218064113808 0.0
0.000887340475553734 -0.00044715860548853384 0.0
0.0009165904112454471 -0.00046478180194465255 0.0
0.0008920770184193128 -0.00046880290798483206 0.0
0.00198722474963697 -0.0002583735210089433 0.0
0.0005637920296305757 -0.0003501555495586642 0.0
0.0005053100853123672 -0.00030725608265200785 0.0
0.0026015764797990538 -4.030480682439183e-5 0.0
0.00015007072124797853 -2.016046361799307e-5 0.0
0.0001481055729331337 -1.1690928932437941e-5 0.0
0.0017062610156884533 -0.0005033477795305219 0.0
0.0017021637061707315 -0.0005349671797036421 0.0
0.001383574166164227 -0.0003338142157192115 0.0
0.00257618624357756 1.7301460572568337e-5 0.0
0.0005121086697955624 -0.00032761183673255 0.0
0.002076367141455517 5.50975908395179e-5 0.0
0.002407138759105492 -0.00016589964897678578 0.0
0.0024470814127456986 6.150387495558823e-5 0.0
0.0024750110757 5.880824168175302e-5 0.0
0.0019213252102086545 -0.0002563992302082207 0.0
0.0020608979110698956 -0.0002639467449063402 0.0
0.0020880802174325645 -0.0002640181445669937 0.0
0.0018523391838698438 6.583734852639623e-5 0.0
0.0019065788352256527 5.5603442683672965e-5 0.0
0.001968650758839338 7.471051101210218e-5 0.0
0.0015731020615096418 -0.0005485077042481656 0.0
0.0007803480227279787 -0.0004364197013080812 0.0
0.0011769625647027396 -0.0003086098429702608 0.0
0.0017007938040702643 -0.00025434399726287035 0.0
0.0014883906472204797 -0.0003408942414419401 0.0
0.0015155825509539963 -0.0005478467289032784 0.0
0.0006910941184322238 -0.000390736982297431 0.0
0.0008711041541913216 -0.00036666546464204366 0.0
0.0003622488444663981 -0.0001312971001417583 0.0
0.0026131132511757965 1.8919868640215647e-5 0.0
0.001976899627345044 -0.0003087240001071662 0.0
0.0002493446731316887 -9.786469908664842e-5 0.0
0.0007515319761814256 0.00018569079831242096 0.0
0.001502833276844897 -0.00043784978183166606 0.0
0.001966239053598184 -0.000471604077342907 0.0
0.0019431474037903717 -0.00046084821999532017 0.0
0.001741500616574371 -0.0003490673577943308 0.0
0.0018421748133583703 -0.0002084892007206022 0.0
0.0008002534942075362 -0.00026144226285472564 0.0
0.0012402732235820449 -0.0004496983216720878 0.0
0.001686440733994968 -0.00022108107577326763 0.0
0.0008672816508433883 -0.0003485344996989378 0.0
0.0008387603989525579 -0.00035009013374042477 0.0
0.0006964926934568413 -0.0004118130404936297 0.0
0.00044005928262912623 -5.227743968472935e-5 0.0
0.0004418948318698379 -3.338192263760349e-5 0.0
0.00020172560347954995 2.4736706323367472e-5 0.0
0.00027947975778648814 3.96762208675528e-5 0.0
0.0021593027347950287 -0.0003845464892571592 0.0
0.0003280580896254488 -0.00013646615261995375 0.0
0.00047373982282633494 -0.00019860057358792117 0.0
0.0004355839950773105 -0.00017918152397495556 0.0
0.0022902765044136237 -0.00022556704586105058 0.0
0.0011416459370517027 -0.0004057850572886883 0.0
0.0014590139974595706 -0.00031305938938259266 0.0
0.0017911938748732192 8.7801129226289e-5 0.0
0.0017734779636776096 9.520010042291019e-5 0.0
0.0017255519523218545 8.984238366599192e-5 0.0
0.0017106946062195876 9.161486180992015e-5 0.0
0.0017548820650499029 8.996045678853313e-5 0.0
0.001987808180040762 2.522344835259235e-6 0.0
0.0020451419653002433 -4.000124529643418e-6 0.0
0.002061655853118804 1.58552901550463e-5 0.0
0.0021145195162033505 8.18702240567253e-6 0.0
0.0020987893256105175 -1.155952487086746e-5 0.0
0.00012501950826056978 -3.722277327947009e-5 0.0
0.00200032215145709 -0.00023786436200705518 0.0
0.0003571751743844603 7.506274014021026e-5 0.0
0.00038539540614907224 8.546227918964992e-5 0.0
0.0016298466328089783 -0.0005470324498412793 0.0
9.57278828882364e-5 -9.680919441409592e-6 0.0
0.002204672599101844 -0.00013503719544094475 0.0
0.002258546960474806 -0.00011507206802301407 0.0
0.0022208858541301656 -0.00011480503169324609 0.0
0.002300861840035053 -0.00011178233274197045 0.0
0.0023135336875747727 -9.569583556677633e-5 0.0
0.0023566891022440122 -9.271047854935386e-5 0.0
0.0006152594104380572 -0.0002273127242460566 0.0
0.0006141441504447694 -0.00021208251980536202 0.0
0.000573338624712445 -0.00019375346519355695 0.0
0.000612517151699819 -0.0001970919920809971 0.0
0.0006535335154342911 -0.00021471433849283984 0.0
0.0006525799577916948 -0.00019963121425601362 0.0
0.0006930591652494411 -0.00021647980329767683 0.0
0.000759207047690058 -0.00043883641612706733 0.0
0.0006925818977578747 -0.0002009547379966415 0.0
0.0007329036351655 -0.00021761075543232065 0.0
0.0001977808843728777 -7.371022757819137e-7 0.0
0.00043948874062261324 -6.999976927272806e-5 0.0
0.0007317365342563211 -0.00023261918988530842 0.0
0.0005748990208877667 -0.00018053419252084732 0.0
0.0022182468294899087 -0.00021942348899833483 0.0
0.0021756909136756942 -0.0002440102050632104 0.0
0.0012553028554177182 -0.0005174915046642204 0.0
0.0012546852409364647 -0.0005398029955039797 0.0
0.0016659430455284014 8.783540480682851e-5 0.0
0.0009117170776251123 0.00012740468694567638 0.0
0.000982886255006624 0.00012025240764287273 0.0
0.0010448635466045156 0.00013438266045552821 0.0
0.0010495701436596728 0.00010814458884338231 0.0
0.0009904930498241492 9.337443110410279e-5 0.0
0.0010564327822989645 7.582408391022768e-5 0.0
0.0009997830026524349 6.356522956356609e-5 0.0
0.0010659788050301254 4.288803772785171e-5 0.0
0.0010092504617343944 3.456045548333541e-5 0.0
0.0010851287401916143 1.2907247216029217e-5 0.0
0.0010170671383027939 8.723003603175181e-6 0.0
0.001079816563593667 -9.79184830160076e-6 0.0
0.0010211088099616019 -1.3574114623281131e-5 0.0
0.0010812612689347612 -2.9776559303476374e-5 0.0
0.0010275600523963267 -3.420669675246969e-5 0.0
0.0010841029208318656 -4.8082995773538426e-5 0.0
0.0010310476737520162 -5.223800676976943e-5 0.0
0.0010838146785101539 -6.423202124235768e-5 0.0
0.0010334157531318052 -6.843874829966106e-5 0.0
0.0010838936491062985 -7.907211723684159e-5 0.0
0.0010347453588213937 -8.362438100393104e-5 0.0
0.0010831788970366491 -9.34307362045011e-5 0.0
0.001034263937420156 -9.810189549245402e-5 0.0
0.001082115986973951 -0.00010698166625376804 0.0
0.0010336566670181896 -0.00011252595709214304 0.0
0.000985485117348429 -0.00010230378904547686 0.0
0.000985456051263995 -0.00011733406452495421 0.0
0.001084400232648394 -0.00012182021614663338 0.0
0.0009818688396612163 -5.61383621741656e-5 0.0
0.001129562506450686 -0.00010090922442016245 0.0
0.0011370579009705156 -7.493414684316634e-5 0.0
0.0009459872010843481 5.2544855556518836e-5 0.0
0.0011367975162281895 -4.331143894732212e-5 0.0
0.0009362239724485527 -0.00010626187792809233 0.0
0.0009374487775063696 -0.0001215436094037969 0.0
0.0009856027915330638 -0.0001323388570507785 0.0
0.0009386673065809961 -0.00013667968719768822 0.0
0.0009674235761356329 -1.8138228652194233e-5 0.0
0.0011432503462979954 -9.344796397743197e-6 0.0
0.000935898808347344 -9.05689127896573e-5 0.0
0.00112437569365354 5.249265894358053e-5 0.0
0.0009860801550153988 -0.00014714188834591936 0.0
0.0009396868460186069 -0.00015165708258464626 0.0
0.0008922576758820573 -0.00014049726536761163 0.0
0.0008846565090315128 -9.434280122062381e-5 0.0
0.0008818907844923682 -7.685151219990043e-5 0.0
0.0010328712010476207 -0.00014197974864952985 0.0
0.0010318833677197326 -0.00015650041881436354 0.0
0.0010772863172755047 -0.0001510785972857857 0.0
0.0011103762634549462 0.00011935731000270981 0.0
0.0011111937067038496 0.00013937671622811385 0.0
0.0008952268624494303 -0.00015584909727310134 0.0
0.0008466702976298895 -0.00014401554650027418 0.0
0.0008446170927220959 -0.00012887279440007055 0.0
0.0007963332579487874 -0.00013142807181133027 0.0
0.0014860188911351574 -0.0005595235907193331 0.0
0.0014587561528228421 -0.0005457602612558446 0.0
0.0025263444611894432 -0.00018667789880228352 0.0
0.0015926808212454449 -0.0004458018348138828 0.0
0.0016211649961403167 -0.00045595892042489376 0.0
0.0009240832527276254 -0.00036078175429917923 0.0
0.0009564084683327916 -0.00037555389422185605 0.0
0.0022611544450266154 6.457235297276647e-5 0.0
0.0016204419166427728 -0.0002632164987967517 0.0
0.0009419868243641205 -0.0001662501237571445 0.0
0.0007158534008349304 -0.00037821077474451656 0.0
0.0007131795180574071 -0.00035911983858808106 0.0
0.0007378640112193185 -0.0003581292658034257 0.0
0.001802201876661941 -0.00020486980616296315 0.0
0.0016729093192727256 -9.542987818023405e-5 0.0
0.0011053611080747423 -0.0003035477662204791 0.0
0.0010707189806703015 -0.0003087039245872265 0.0
0.001561595914077405 -5.498088743671029e-6 0.0
0.0015550495847327008 -2.0160198616899925e-5 0.0
0.0016036770626359363 -2.0494861990588822e-5 0.0
0.001544271269840927 -3.55333607570212e-5 0.0
0.0015719668860274814 1.0782136704694932e-5 0.0
0.0016605498684120667 -0.00012376274309098878 0.0
0.001656347039850981 -0.00013827974589811963 0.0
0.001603468165525474 -0.00014869772071058273 0.0
0.00118644335351577 -0.00023006624966252873 0.0
0.0012222820627365812 -0.00023847736474194516 0.0
0.0012256713967347865 -0.0002244265678937271 0.0
0.0012609957768551828 -0.00023198219422871966 0.0
0.0012644422535911164 -0.00021811880729413904 0.0
0.001299747716962783 -0.00022519350989899355 0.0
0.001303490317900525 -0.00021153696639828457 0.0
0.0013403792598173057 -0.00021799208254514083 0.0
0.0013356237121363336 -0.0002324260659509921 0.0
0.0013773599502563078 -0.00022276710039617623 0.0
0.0015470595816448095 -0.00025337193918302205 0.0
0.0015088464376285281 -0.0002465908159558502 0.0
0.0014677219363484226 -0.0002561881086999522 0.0
0.0014717083644486034 -0.00024026837924064016 0.0
0.00028377623648267916 -0.0001055584413579138 0.0
0.0003469476612259335 -0.00024774657977173927 0.0
0.00031773241624612013 -0.0002234043234564291 0.0
0.00030781964213944744 -0.00020295737759608288 0.0
0.00028789572063122026 -0.000198245302075771 0.0
0.001386722909210195 -0.00031534268832990065 0.0
0.00188178011413958 -0.00021095342590342998 0.0
0.0018701419526594783 -0.00023133344282675643 0.0
0.0007348726875278094 0.0001549732292840196 0.0
0.0014796960097366331 -0.00013506275410235372 0.0
0.0014824842026785565 -0.00012316001698555926 0.0
0.0015713152617462878 7.608749481848945e-5 0.0
0.0026454150607189975 -5.5015359311293244e-5 0.0
0.0026834845179231005 -3.9134199590128437e-5 0.0
0.002709298559568074 -3.265422464813055e-5 0.0
9.516960419734927e-5 -3.4222789522758144e-5 0.0
9.845234950305338e-5 -3.9016071614044915e-5 0.0
0.00013918071122799062 -5.708638585548375e-5 0.0
0.00010443152197034374 -4.4975717976683575e-5 0.0
0.0001426067085228806 -6.357567098109394e-5 0.0
0.00010868277391995282 -5.069273985279498e-5 0.0
6.732737932800549e-5 -3.0474025302983358e-5 0.0
0.0013490937597452656 -0.00032442983166279944 0.0
0.0006537955441413375 -0.00018517719605690177 0.0
0.0003970293453853056 -0.0002745166760165477 0.0
0.0010748943175985023 -0.00016447503943753866 0.0
0.0024913969001629705 -0.00021801047191298675 0.0
0.0024644402388782336 -0.00022555348447540868 0.0
0.0021044972130306013 -0.00024111189536318666 0.0
0.00214142627710973 -0.00023621386932847865 0.0
0.002154374349727552 -0.00021376970233321426 0.0
0.00012860246969884724 1.2798844431939565e-5 0.0
0.000976593581600609 -0.0004998047870805412 0.0
0.0006751379876331306 -0.0004135825872287994 0.0
9.13843595933543e-5 -6.759835312556554e-5 0.0
0.0001243620249834083 -9.748584655237093e-5 0.0
0.0005343843543010234 -0.0001769084158822638 0.0
0.0017032047891984608 7.984980999229923e-5 0.0
0.001754742442553593 7.231867605147059e-5 0.0
0.0020294767986751253 -0.0002648789455234872 0.0
0.00211327467279986 -0.00026524004214430137 0.0
0.0009208632639018427 -0.0004859846551454899 0.0
0.0010289307309414649 -0.0005109424020616721 0.0
0.0010548850284503545 -0.0005063500506131679 0.0
0.0023143607442331596 -0.0002681004138074844 0.0
0.002296611400089215 -0.0003049239172250336 0.0
0.002256723146459052 -0.0003403298842063791 0.0
0.0025257178094331327 -6.198335144204473e-5 0.0
0.0024875436245691824 -6.798595792122038e-5 0.0
0.002437018078359543 -8.475100024152075e-5 0.0
0.0024450284836476962 -7.364013019174766e-5 0.0
0.00045781752349174654 -0.0001691322829768624 0.0
0.002367183941988092 -7.835758170937987e-5 0.0
0.0023165677444964288 -8.066967168403833e-5 0.0
0.0016286249621897347 -0.00043220760448040973 0.0
0.00029603681174691134 -0.00021671780419870194 0.0
0.00026985232934394107 -0.00019537830987049475 0.0
0.00025951456345308543 -0.00017620653752135898 0.0
0.00024178299282381576 -0.00017201100885699575 0.0
0.0027175650831326222 -2.644715906669711e-5 0.0
0.002654611199896681 -2.930010273412604e-5 0.0
0.0026907650194791244 -1.9897436889393087e-5 0.0
0.0021800275318358897 -0.00039332892618771314 0.0
0.0011093733703128245 -0.0002403786424790596 0.0
0.002333986990407495 -0.0002759975467477769 0.0
0.0023183656082762256 -0.00031164973728563613 0.0
0.0023532618404891394 -0.0002835478849646219 0.0
0.0023406341738283027 -0.0003211502627101767 0.0
0.002376822712952175 -0.00028691732542626426 0.0
0.0023898006794881095 -0.00025392703188404373 0.0
0.0024098111982188875 -0.00025957336790965454 0.0
0.0012843381016976144 -0.000553677144617664 0.0
0.0012584219903926993 -0.0005642064127458209 0.0
0.0012238217420425471 -0.0005476411902498177 0.0
0.0008988041068486463 -0.00017134195487388806 0.0
7.813357171532762e-5 -3.824510342864516e-5 0.0
0.00011244423086384212 -5.666112056119947e-5 0.0
8.224179238693971e-5 -4.3147195590839313e-5 0.0
0.0009003188403363924 -0.0004940306563686366 0.0
0.0008701991939822402 -0.00047357816313592344 0.0
0.0026012472686959085 -0.00014408429755407746 0.0
0.00021405984954340888 3.241508352407694e-5 0.0
0.001431958562307969 -0.00025114226111295395 0.0
0.0014374110975490732 -0.00023471318363861915 0.0
0.002521595406958212 1.4076326249759254e-5 0.0
0.002603740632817741 8.540867274044792e-6 0.0
0.0023326321927914003 -0.0001994420019748686 0.0
0.00048597653013748854 -0.00030606824497148884 0.0
0.0004960260861769135 -0.00032879312761693126 0.0
0.0019787764188212557 -0.0002791097877443867 0.0
0.0020412119213189563 1.4840697593989498e-5 0.0
0.0026612633217745433 -0.00010241761256849295 0.0
0.002702688247998378 -6.797540934422255e-5 0.0
0.0027197634308916336 -4.750542694498158e-5 0.0
0.001959773212651274 4.633340835526458e-5 0.0
0.002262913237871568 -0.00019571288312048867 0.0
0.001227414268459547 -0.00048689019413513556 0.0
0.0023427795326417464 -0.00010794367714100532 0.0
0.0021855291236681086 -0.00022379754620041777 0.0
0.0008372029449280905 -0.0003312475507949405 0.0
0.0004966831872941381 -0.0002870907001484124 0.0
0.0025683702836742203 -5.3635335092332426e-5 0.0
0.002118676730782921 7.740245599731974e-5 0.0
0.0008714461174403594 -0.0004938294191924252 0.0
0.0004078111948220144 -0.00015193724233230032 0.0
0.001469343542364792 -0.0001497504742170014 0.0
0.0021367639549198917 -0.00037996795233402115 0.0
0.002126586465698637 -0.0004143410978304794 0.0
6.231838811987923e-5 -4.409401109295903e-5 0.0
0.0016583391637331327 -0.00053481224773517 0.0
0.001648811703224572 -0.0005578685998322392 0.0
0.0010549544247711181 -0.0005309519206588326 0.0
0.0010822796704853639 -0.0005235175219184834 0.0
0.0010805619765989888 -0.0005010453199520385 0.0
0.0011084279129828063 -0.0005171723596389097 0.0
0.001083226833876653 -0.0005423462888066012 0.0
0.0009357669360592459 -7.440686794665432e-5 0.0
0.0008807944078418678 -6.011638963821643e-5 0.0
0.0003783190393260248 -6.815774758953178e-5 0.0
0.0008379253112250934 0.0001935642522071135 0.0
0.0008283376316874775 0.00018118224583958908 0.0
0.0016791572236763133 7.530173837210965e-5 0.0
0.0020748469314112645 -0.0004423206361741621 0.0
0.0020440120377372252 -0.0004678448235397362 0.0
0.0002494296886294375 -0.00019110718729672531 0.0
0.00022202867222408522 -0.00016599918115948255 0.0
0.002704389559440573 -1.9627841315663556e-5 0.0
0.0004473052124661579 -0.0001955454836905435 0.0
0.0004047311993034294 -0.0001773845671206221 0.0
0.002521566274172346 5.5139397664707074e-5 0.0
0.0025652151031030604 -0.00015352250700704348 0.0
0.002546458991950322 -0.000188427676612588 0.0
0.0015140803945348261 -0.00015340901574452677 0.0
0.0017226901953869198 -0.0005454074067966656 0.0
0.0016889187817548989 -0.0005665985274434649 0.0
0.0007684081432510555 -0.0002322769515863215 0.0
0.0007722549973146423 -0.00021731040193148066 0.0
0.0011082125155447349 -0.0004951705070670934 0.0
0.0023435788494061216 -0.00022967648613485595 0.0
0.0013439735923524477 -0.0002040831875679414 0.0
0.0013102715367480958 -0.0001977285556510159 0.0
7.557473262902444e-5 -5.921493198645007e-5 0.0
0.0008348514663067269 0.00030006739941723 0.0
0.0012277472038687396 -0.00021007367665659465 0.0
0.0008316214253824653 -8.128641234343542e-5 0.0
0.0008369676457540819 -9.81816387134559e-5 0.0
0.000501195681498464 -6.971389974295378e-5 0.0
0.0017085170908131136 -0.0001265101387875061 0.0
0.001118051891220268 -0.00015917118208130993 0.0
0.0011216585666650287 -0.00014615411749397336 0.0
0.0011612540302509292 -0.00015401260102857207 0.0
0.0011639387863038207 -0.00014173067285940937 0.0
0.0012020003148883998 -0.00014795189226971423 0.0
0.0012052105778871539 -0.00013638422708980332 0.0
0.0011663787068897497 -0.00012993459085085244 0.0
0.001208041413650039 -0.00012471190927053035 0.0
0.0011693635677896147 -0.00011855533639948319 0.0
0.0012116306867692636 -0.00011348080272933226 0.0
0.0012407410632623646 -0.00014230584761743142 0.0
0.00010215512016323653 -4.741005559434594e-6 0.0
0.001647939301790133 -0.00015513321714008215 0.0
0.0011186234319191333 -0.00022652642672988304 0.0
0.001114715902857127 8.756596889119201e-5 0.0
0.001192172374816123 5.6298101476221904e-5 0.0
0.001191937696030376 2.697847388669737e-5 0.0
0.0011759233713503874 9.630739026845636e-5 0.0
0.0011366383718906295 2.313577092149782e-5 0.0
0.0012013461437345105 5.182522443252253e-6 0.0
0.0012632156761448773 4.851545473812783e-6 0.0
0.0012410800394619436 7.303751407718734e-5 0.0
0.00017764122446046308 -7.58969716994173e-5 0.0
0.00018324244941114403 -8.463898648318149e-5 0.0
0.0027054924588960486 1.3113263724170661e-5 0.0
0.0026135631226864324 2.8596953794395944e-5 0.0
0.002607743066442335 3.393098647415593e-5 0.0
0.001991372410919557 -0.00048580852373705335 0.0
0.0019550940120572754 -0.0005086452856113055 0.0
0.0007082095482752055 -0.0003404032262659897 0.0
0.0007338424268635598 -0.00033905393681254715 0.0
0.0006821802831943324 -0.00034058887045217417 0.0
0.0007821834830632459 -8.790755816794846e-5 0.0
0.0012494641402426582 2.785721680011323e-5 0.0
0.0012518035994204238 -0.00011900811412144702 0.0
0.0012525779676662888 -0.00010770760819434693 0.0
0.0012146073889307636 -0.00010239395568752416 0.0
0.0012543166509199602 -9.751642476510615e-5 0.0
0.0012194763181594334 -9.186181784626142e-5 0.0
0.0007324105683593581 -0.0004217203190933266 0.0
0.0026974705653835295 2.0140126378362633e-5 0.0
0.0011806173405895307 0.00012419759425413808 0.0
0.0016177032633259046 7.181380868703513e-5 0.0
0.0016219893806925705 5.111860682459988e-5 0.0
0.0015605004008723904 4.165472410816073e-5 0.0
0.0008309015594763731 0.0001306495069348616 0.0
0.0010603268879282477 0.0001639123273073437 0.0
0.0009990154394815191 0.00017405641944332308 0.0
0.0009669719850511849 0.00018291601557223283 0.0
0.001825689626621249 9.472653523002902e-6 0.0
0.0022177821901034982 -0.00036577743133915213 0.0
0.002200356827400865 -0.00040700146012921727 0.0
0.0007005592399707637 -0.0004324464477946888 0.0
0.001135785477429214 -0.0005112342849222223 0.0
0.0011368196027479658 -0.0005328693328561333 0.0
0.0011626813597357757 -0.0005268568775602474 0.0
0.0011673075638936594 -0.000551394371211939 0.0
0.0019466164815745955 8.18380792723863e-5 0.0
0.0018940522154365321 7.269483358293638e-5 0.0
0.0019669927695302623 6.9465199239588e-5 0.0
0.002023472675899469 7.668077019453713e-5 0.0
0.0014790714014931694 -0.0002252307494331417 0.0
0.0014487053470814163 -0.00021868011536833117 0.0
0.001191028122781452 -0.0005414650641475434 0.0
0.0008062259250878579 -0.00014863429750646868 0.0
5.0646082376401506e-5 -3.27873167177008e-5 0.0
0.0011379381378353597 -2.53338494913943e-5 0.0
0.0011900275308494622 -3.8874488140675756e-5 0.0
0.0011893154070341647 -5.342854174453506e-5 0.0
0.0012407000949587474 -4.8913996494131295e-5 0.0
0.001236889390507589 -6.0652867041422106e-5 0.0
0.0012415689189007359 -3.6647967414167095e-5 0.0
0.001193832531708891 -6.549992699018011e-5 0.0
0.001234620136049067 -7.153015996770247e-5 0.0
0.0012881460086077918 -4.449799438561028e-5 0.0
0.0018235861574048278 7.46974875236831e-5 0.0
0.0011953251067431648 -7.709685597654883e-5 0.0
0.002738572189423141 -8.784128514387874e-8 0.0
0.001030121991759665 -0.00017057100717410642 0.0
0.0012706944589836525 -0.00046057763282455225 0.0
0.0013039760127604415 -0.0004527920458586582 0.0
0.0011945833130132325 -2.4173469687668574e-5 0.0
0.0012499437121557561 -2.386739340287128e-5 0.0
0.0015561904056421447 -0.00023746450557188273 0.0
0.001952134882046318 -0.0004270982961778833 0.0
0.0019179354099274088 -0.00045398880119836823 0.0
0.0019100200655208027 -0.0004862986028141663 0.0
0.0018868166640169375 -0.0004795121152463008 0.0
0.0018811843806993435 -0.0005089655790051516 0.0
0.0018563210755849508 -0.0005039756560276773 0.0
0.0022840422442337695 -1.3432339287707292e-5 0.0
0.0022362524611166945 -3.125168246139054e-5 0.0
0.002258864406664664 -4.542848770095616e-5 0.0
0.002188450993835254 -5.1045363440006135e-5 0.0
0.00220841578846098 -6.544685012412447e-5 0.0
0.0021383532954348224 -7.258150694888625e-5 0.0
0.0021592613406758144 -8.690557804009869e-5 0.0
0.0021170749500664067 -5.7574582121101026e-5 0.0
0.0020685350176911366 -7.96420898986549e-5 0.0
0.0022254971849279266 -7.917401034389483e-5 0.0
0.0020462556519815706 -6.493717083107244e-5 0.0
0.0021757476780618072 -0.00010065398931177425 0.0
0.002113271640251263 -0.00010862518264910883 0.0
0.0021268230407807008 -0.00012254902651918706 0.0
0.0020952406875729096 -4.338711486577721e-5 0.0
0.0022102309565792543 -1.6204956016967928e-5 0.0
0.0022406929384122887 -9.309713758487343e-5 0.0
0.0023333179488702204 -4.2672996689918776e-5 0.0
0.0022857497596975476 -7.249331126312566e-5 0.0
0.0015021508436458403 -2.041438126122678e-5 0.0
0.001032805406637858 0.00016669169845202615 0.0
0.00015210303277773466 -7.384210242792628e-5 0.0
0.0001444209009450032 -0.00010680011909407859 0.0
0.00017370273989730258 -0.00013259298665774924 0.0
0.0011892043772274371 -0.0005200965496050335 0.0
0.0015984571546710617 -0.0002454136000608083 0.0
0.0015483803719983592 -5.8297497797978065e-5 0.0
0.0014959363163780394 -6.88722888185965e-5 0.0
0.0015062288792049648 -5.7269375800267156e-5 0.0
0.0014957998563413927 -8.06426382915257e-5 0.0
0.0015390875325123217 -8.407129799654691e-5 0.0
0.0014905591442001718 -9.301340282705028e-5 0.0
0.0014844075763570004 -0.00010481212345582435 0.0
0.0014485861437841293 -0.00010047206391368844 0.0
0.00018758417175126558 -0.0001267567237885513 0.0
0.0017343877798428763 -7.960732613319241e-6 0.0
0.0021082379372394586 4.0725977286766053e-5 0.0
0.002022662904499277 4.3339640889705644e-5 0.0
0.00011178553726402213 1.7391109999097328e-5 0.0
0.00023675361888481173 4.400285371643761e-5 0.0
0.0002161971077679021 3.767500903090785e-5 0.0
0.001765189733545195 -5.148030282893373e-5 0.0
0.00023970455611887093 -0.000150356627666069 0.0
0.0002769370098505204 -0.00017812194569484695 0.0
0.000299314357211524 -0.00018525021661255838 0.0
0.0002954734242537071 -0.00017016183373433637 0.0
0.0003186025308186739 -0.00017323396297896576 0.0
0.0011320726900526734 -8.84833638650377e-5 0.0
0.00012585903628213737 7.5230752713032935e-6 0.0
0.0005389849729058927 -0.00015150887104226987 0.0
0.0004438226447613259 -0.00014149551413837827 0.0
0.0012509055208438779 -9.882430779171648e-6 0.0
0.0003549653857021495 0.00010925576624713331 0.0
0.0018821599340943795 -0.0004428462952579997 0.0
0.001666773274925885 -2.7172585490426117e-5 0.0
0.0026230052054221505 -0.0001380828362660732 0.0
0.0020929035583337977 -9.404880700915967e-5 0.0
0.002023926305324959 -0.00010133653222223751 0.0
0.0019326126571807115 -0.0004970436890271752 0.0
0.0027439640091447195 -2.6335729938800548e-6 0.0
0.0026888743304319088 -7.932986545083244e-6 0.0
0.0026996059909618177 -1.0991370204595332e-5 0.0
0.002679882265954168 -3.629475295361077e-6 0.0
0.0026369016728265953 -1.602398730344812e-5 0.0
0.0026728856621482896 1.1926782627688045e-6 0.0
0.0026087933302103225 -2.8851300734186522e-6 0.0
0.0026216141470792372 -1.002988174983482e-5 0.0
3.314653770768673e-5 -1.431727535647816e-5 0.0
0.0027641310574942784 -8.700426009043513e-6 0.0
0.002724884625582356 -1.7194499510266037e-5 0.0
0.002748677905880027 -9.269960742035397e-6 0.0
0.0027283960385396408 -1.84910568861439e-5 0.0
0.0016382043467999723 3.395386177075656e-5 0.0
0.0020240188445650913 -0.0004554875740136454 0.0
2.653480285497925e-5 -1.4361296755044542e-5 0.0
0.002772535804660688 -1.0002036974507432e-5 0.0
0.0009207151415386382 0.00010421377623889289 0.0
0.0022238064391937864 1.828242649638933e-5 0.0
0.0007627727379477545 -1.2715481996097604e-5 0.0
0.000827018352379753 -6.014919049929163e-6 0.0
0.0008265867069592887 2.0408827271798887e-5 0.0
0.000825632093104541 -2.854427540943871e-5 0.0
0.0008806704913443873 -2.477402667207712e-5 0.0
0.0008966203256072064 -3.2068679162679985e-6 0.0
0.000892694105179132 2.4453062383666854e-5 0.0
0.0008304157057088008 4.618260206414595e-5 0.0
0.0007763562225319077 7.071777978657505e-5 0.0
0.0007696138852871941 -3.985454975884115e-5 0.0
0.0022863575631853704 -0.00033949485746028065 0.0
0.002737058565662056 5.392888191557445e-6 0.0
0.0011096672271385373 -0.000473455640969005 0.0
0.00038012449204464057 -0.0002760072004806623 0.0
0.0012197627343842707 -0.0004660919634605593 0.0
0.0009461780173419558 -0.00048217746445757876 0.0
0.0009486258928413666 -0.0005038289370501289 0.0
0.0012942302184543856 -0.00010200826980369469 0.0
0.0017651907155441268 -8.80826929419066e-5 0.0
0.0023922914666876993 6.811881351511176e-5 0.0
0.0024284017755794836 5.875876687249683e-5 0.0
0.0023510358416275407 6.203052328119117e-5 0.0
0.00017752101796640238 -6.973274216187395e-5 0.0
0.00035613797511824545 -0.00026820181539943144 0.0
0.000962761562425053 0.00022318797232803432 0.0
0.0008715110100644245 0.00021886002399378694 0.0
0.002033342368121567 -1.4439038863199512e-5 0.0
0.001050087369887555 0.00015315049598864922 0.0
0.002491231198559298 -0.0001589604592369992 0.0
0.0012083827238360163 -0.00039330355395849215 0.0
0.0019301884006896286 -1.829508958106621e-5 0.0
0.0019725061867637275 1.0188927643525949e-5 0.0
0.0008509072936084409 8.6571995322568e-5 0.0
0.0006803191825234809 -0.0004357488307080456 0.0
0.00246973053586976 -0.0001956589097639975 0.0
0.000417272481875809 -0.00027700012726416813 0.0
0.000441964438184218 -0.0002967525878605596 0.0
0.0004296472793677268 -0.00030212467690733023 0.0
0.0006418272403416867 -0.00015476089301623422 0.0
0.0015220887930020792 -0.0001119521109800913 0.0
0.0017138755645560104 -6.877766216557062e-5 0.0
0.001033981938960051 -0.0001270711355537717 0.0
0.001079315313873006 -0.00013721013484361083 0.0
0.0026758978805289293 2.5348777045648287e-5 0.0
0.0025381155223137197 4.468907405795728e-5 0.0
0.00013176993538111046 2.4955887746288164e-5 0.0
3.3137064212293744e-5 -1.543267345435651e-5 0.0
0.0012455829292946263 -0.0001305771503436406 0.0
4.153159869418065e-5 -1.0423837053195588e-5 0.0
9.959498661092127e-5 -2.226847636206218e-5 0.0
0.001205421245102277 -0.0004485732694183201 0.0
0.0017750488041953975 2.099078622685422e-5 0.0
0.0010956288161099793 0.00015500051009778918 0.0
0.0016791181850378644 -0.00023678578200912737 0.0
0.0012636026089994778 -8.706882733320517e-5 0.0
0.0022037835809116764 -0.00018721931567978523 0.0
0.0025881673088385153 -0.00012080581330637425 0.0
0.0008065406788987702 -0.00033307600500326074 0.0
0.0008102336614725387 -0.00035203365880957614 0.0
0.0007777202940955737 -0.00033264817048982804 0.0
0.0007441772257249515 -0.00031352567674108265 0.0
2.733534763731382e-5 -1.5807887896401445e-5 0.0
5.084000905720306e-5 -3.047476409498611e-5 0.0
5.666941780041145e-5 -3.161030399589175e-5 0.0
0.0006945952756588692 -0.00023163474368509242 0.0
0.0006578980043625049 -0.0002320373004035326 0.0
0.002766797801435422 -9.12462057130604e-6 0.0
0.0014577071775376405 -0.0005712194894217373 0.0
0.0014303217790418345 -0.0005568851459365861 0.0
0.0014293305471317645 -0.0005819649600486401 0.0
0.0014019483947828515 -0.0005674737871103153 0.0
0.0013729146132457752 -0.0005768767584274906 0.0
0.0013710107420546254 -0.0005521490744801328 0.0
0.0014305412486697831 -0.0005319368858360385 0.0
0.0019101982644468692 1.870874871272515e-5 0.0
0.0003182022112042674 -5.0934588037119124e-5 0.0
0.0003725721482533204 -8.223935030501455e-5 0.0
0.00032448940033574894 -7.99271247352204e-5 0.0
0.001725626777713892 -0.00022539379674547602 0.0
0.0006346359061359665 0.00016377722842832445 0.0
0.0013690245425710909 -0.00023867159126309375 0.0
4.348698575907566e-5 -1.5291339948744224e-5 0.0
0.0008457396267665903 -0.0004744568462304317 0.0
0.0008193010254021913 -0.00047228685417751554 0.0
0.0008236154344819435 -0.00045514201270128226 0.0
0.0009428188074926372 -0.0004605308253460237 0.0
0.0008065368825347336 -0.0003122905834479873 0.0
0.00036390976491870286 -0.00014348880251339346 0.0
0.00021776868331257047 -0.00010484092202213668 0.0
0.00275179319972648 -5.896762001480546e-6 0.0
0.002710876821222872 -1.247249158350048e-5 0.0
0.0005412401533284968 -0.0003497225504278046 0.0
0.0006463773411185163 -0.000392338429170055 0.0
0.0006234028201459191 -0.000393492940193779 0.0
0.0005936907967894735 -0.0003717684106109439 0.0
0.0005990866247227719 -0.00039286742451839334 0.0
0.0016694924701425482 4.645086215211628e-5 0.0
0.0011744591536699172 0.00013604377739038188 0.0
0.001753787590856016 -0.0005269862619263194 0.0
0.0017763338191045832 -0.0005377422658516386 0.0
0.0018054804603930903 -0.0005187184576647226 0.0
0.0017427822728394646 -0.0005600097432320392 0.0
0.0008703219434168204 -0.0003329925708288279 0.0
0.00153806454341527 -0.0004257242181001182 0.0
0.001081940433209815 0.00015679997795396447 0.0
0.0011355923033265786 -6.0704946256817355e-5 0.0
0.0027738500411007127 -1.1066486334506369e-5 0.0
0.002748907868042308 -2.3675639923973203e-5 0.0
0.0027383602195552833 -2.4196462246271008e-5 0.0
0.0005705129980142209 -0.0003715349641308658 0.0
0.0005482838693492576 -0.0003703068055810214 0.0
0.000818945334642821 -6.036470267171399e-5 0.0
0.0007152182021656511 -0.00031589770760608103 0.0
0.0025764247264288206 -8.10918681932892e-5 0.0
0.0021201082230738336 3.366907029047203e-5 0.0
0.001234348746327184 -0.0001540548334536535 0.0
0.0012725332644727165 -0.0001473646454010782 0.0
0.001658167636075858 8.480808857334825e-5 0.0
0.002000551190428388 -0.00037027401259692185 0.0
0.0011752276647368461 -0.0003997085159783668 0.0
0.0011767804737733338 -0.0004198700157590182 0.0
0.00030204877053545236 5.235314286101325e-5 0.0
0.0006574474809159931 -0.0003157471726216708 0.0
0.0006282183344791937 -0.0003126797900062189 0.0
0.0005952522808222749 -0.0002924941357265742 0.0
0.0006000308677896309 -0.0003114261266667614 0.0
0.0005031405576894905 -5.071220577903232e-5 0.0
0.0005053795342169131 -3.016250692781474e-5 0.0
0.0005649770183910479 -8.933285978490002e-5 0.0
0.001767694614267709 -0.000568332004230843 0.0
0.001715787174590672 -0.00042305933541308445 0.0
0.0016763904490188874 -0.0004413731540119828 0.0
0.0017107994552267368 -0.00045415804501993426 0.0
0.0016720588411564007 -0.0004725602724970528 0.0
0.0016960276772745638 -0.0004825164591196382 0.0
0.001747753458267753 -0.0004307242312137603 0.0
0.001777135944168432 -0.0004359343034678976 0.0
2.337319098808258e-5 -1.5482254211033058e-5 0.0
0.0027779442766272203 -1.303579515239017e-5 0.0
0.0022370705604485524 -0.0003268401922412484 0.0
0.0015989519144743558 -0.0005603889807048423 0.0
0.0025644901703858283 4.442819280572006e-5 0.0
0.0015460356146775244 -0.0005352825290480806 0.0
0.0015415745819780354 -0.0005605439220711798 0.0
0.0020587196309305535 -0.00023860267495102403 0.0
0.001847845364030343 -0.0001898779617342936 0.0
0.0018093754956539764 -0.00018620582254947214 0.0
0.0008574682389209769 -0.00042982949283146927 0.0
0.0005087397027604159 -0.00026774927526708665 0.0
0.002062328166278766 -0.00013231296239524088 0.0
0.0021442430731614375 -0.0003455350060232455 0.0
0.000940998404665876 -0.0002690668232960973 0.0
0.0009757827727490536 -0.000265731503617685 0.0
0.0009740629785430774 -0.0002823394213890533 0.0
0.0009785754259648272 -0.000249740009728357 0.0
0.0009396712988664201 -0.0002858191917315626 0.0
0.0010097487188061064 -0.00026383972625963314 0.0
0.0010147723154330932 -0.0002488941157605041 0.0
0.0010247105684443086 -0.000232460032062286 0.0
0.0020491619997057256 8.710720388888561e-5 0.0
0.00024222374281266147 4.803096672781099e-5 0.0
0.00199928635668135 -8.722985803427423e-5 0.0
0.002160884137757888 -0.00019536189758894654 0.0
0.00046596961400198673 0.00011888958957409348 0.0
0.0003830626377768675 -1.60436691089637e-5 0.0
0.0005662376674839796 -4.8739332856844466e-5 0.0
0.00044804140611293044 -0.00024344115422119276 0.0
0.0009415556974422043 -0.00023695223979815994 0.0
0.0007334374071219747 -0.00020160093087708252 0.0
0.0007838461313778096 -0.00020254117612184767 0.0
0.0008153056794673703 -0.00021936694427292648 0.0
0.0013112635815409983 -0.0005459734334089711 0.0
0.0013422891313470385 -0.0005611552668936263 0.0
0.001342499839709748 -0.0005880583758199997 0.0
0.001370861643552018 -0.0005279737126232799 0.0
0.002104267128176377 -0.00036879198077816207 0.0
0.000985668518629158 -0.00016145017830321146 0.0
0.002004436376986691 -0.00021526464561829364 0.0
0.0009395125821041438 -0.0004393361293017695 0.0
0.0014308392273861222 -0.000507579048487502 0.0
0.0010001815277284809 -0.0005177575635909526 0.0
0.0025558828097404407 3.1852520119640576e-6 0.0
0.0013319777647055125 -0.0002474051395959102 0.0
0.000323960543128512 -0.0001240638153270674 0.0
0.001011128570073504 -0.00036745995783461365 0.0
0.0010439663426471592 -0.00038242667847544206 0.0
0.0009436639015488885 -0.00033775049430751224 0.0
0.0010250605415222393 -0.0004681080681627333 0.0
0.001603027330029565 -0.0003218853702238017 0.0
0.0015614011805266876 -0.00033523009445686166 0.0
0.0015966706916791674 -0.00034305031004687524 0.0
0.0019766784558236284 -7.296259503451794e-5 0.0
0.0012080904248089781 -0.00037391711126048783 0.0
0.0008745398839118309 -0.0003079378835137564 0.0
0.0015616777482999479 -0.00014399602480703088 0.0
0.0015522298417879677 -0.00015869772811560832 0.0
0.00035427689521998483 -0.00019444569638880682 0.0
0.0007273862343460961 -0.0004014066948478983 0.0
0.0018156531887540265 -0.0004865076370310304 0.0
0.0015518723320818424 -4.6641725695244934e-5 0.0
0.0014079333270627472 -0.00040471075927339667 0.0
0.0013728933012388104 -0.00041445250281667024 0.0
0.0013713120511237196 -0.00043647959021818117 0.0
0.0013383607453827005 -0.00042339298792569543 0.0
0.001337809319307175 -0.00044541408516899137 0.0
0.0014035613623896855 -0.0004488230511576767 0.0
0.0016773650674495103 -6.742004805733053e-6 0.0
0.0011065087251168747 -0.0003203616589685125 0.0
0.0010737053219673281 -0.00032535426333759617 0.0
0.001531187673455638 -0.0003073494212835345 0.0
0.000910117183908686 -0.00033987286112254454 0.0
0.0015129681710540517 -0.0005723916934581484 0.0
0.0011412323598268591 -0.000386219162500161 0.0
0.001340111582255436 -0.0004023280283012791 0.0
0.0019023881689468457 -0.0005191588741272531 0.0
0.0012197995728481796 -0.00025360567675306646 0.0
0.0026222325006508528 -4.0402545178364296e-5 0.0
0.001346605164287357 -0.00034303018737593527 0.0
0.0006140097077299623 -0.00024260464819612852 0.0
0.0012496754958460524 0.00011355690642234024 0.0
0.0018990103595228687 -0.00041109066707537066 0.0
0.002505861053302689 5.160760771938954e-5 0.0
0.00039902418768785657 2.2984254718375436e-5 0.0
0.00041583909539537843 4.129771120373226e-5 0.0
0.00046142214769345487 1.2394157993116554e-5 0.0
0.0004896369896081604 3.488927415307277e-5 0.0
0.0005370309722259229 1.853590498688761e-5 0.0
0.0019559254107384956 -0.0001088991544862627 0.0
0.0011112959920922178 -0.0005416478919539392 0.0
0.0012578287862816582 -0.0002470238426424086 0.0
8.206231978969833e-5 -2.2786360944271343e-5 0.0
0.000998313878743385 0.00018536545818946735 0.0
0.0009263469178824533 0.00019216024255673672 0.0
0.001849566983242733 6.156155784297326e-5 0.0
0.0010801740635521403 -0.0004577783042847173 0.0
0.0012296057918843978 -0.0005264815115299654 0.0
0.0010759013388902988 -0.00017904399493106208 0.0
0.0014954276588284101 -0.0002998900121196804 0.0
0.0014566210684608105 -0.00029131338167057575 0.0
0.0014644345124440875 -0.00027231433933171 0.0
0.0015732928898878951 2.6285679892157242e-5 0.0
0.0010154621272099242 -0.0003869881607093365 0.0
0.0006931803712763579 -0.00018577017106211893 0.0
0.0010373227231748323 -0.0002942004666390772 0.0
0.00014712250157986317 -7.676690371632292e-5 0.0
0.0014370938772160183 -0.00014249040549195642 0.0
0.0005867407458026916 -0.0003503961911186585 0.0
0.0014248255121357173 -0.0003052846301044459 0.0
0.0008639411736909468 -0.00045138784575916743 0.0
0.001930747066020324 -0.00019276789743827175 0.0
0.0012839508552716572 -0.00030513975715322305 0.0
0.0013047542214664075 -0.0004316294410047703 0.0
0.0024190755020329553 -0.00014261049948507132 0.0
0.0005216405052750554 -0.0003488039824919926 0.0
0.002647194536411522 -0.00013185432733331317 0.0
0.0010707346266691355 -0.0002389119117786868 0.0
0.0012786378977020175 -0.0003409285153851577 0.0
0.00024163192316053092 -8.707394874215577e-5 0.0
0.002428751584269142 -9.657752174042736e-5 0.0
0.0014976941303800337 -0.0004612570584321408 0.0
8.29650713269096e-5 -2.661556898540084e-5 0.0
0.0013842612117315556 -0.00019578443349624306 0.0
0.0013812568928327142 -0.00020839334060272207 0.0
0.0026078267574685928 -2.4728806034969683e-5 0.0
0.0014864480987493635 -0.0005844344033943102 0.0
0.0004823941380672011 -0.0002652459183456222 0.0
0.0026942654238525134 -4.390666838933108e-5 0.0
0.0014271918721519923 -0.00026571232224290297 0.0
0.0013206898761019274 -0.00029753985143793994 0.0
0.0016514962565545993 -0.0004070455595198462 0.0
0.0016165230794670568 -0.0003980380345984285 0.0
0.001508262637900815 -0.0004148008527201103 0.0
0.0012548478054103275 -0.0002627948428037391 0.0
0.0015492946200296581 -0.0006006299517017548 0.0
0.001665854819345167 -0.0005955328672518744 0.0
0.0011859567633724067 -0.0005754526403374064 0.0
0.0012761523332977215 -0.0005874549377897781 0.0
0.001833822288403052 -0.0005638708701244866 0.0
0.0018261672528149871 -0.0005328594209150466 0.0
0.0009526929801291418 -0.0005245705146466365 0.0
0.0007574803319576052 -0.0004675887751009587 0.0
0.0016085071788082819 -0.0006001670694316359 0.0
0.0010134084434868548 -0.0005421027669590038 0.0
0.0011379523336984144 -0.00021345688051196585 0.0
0.00238316362891152 -6.271094258257638e-5 0.0
0.0019290614430393462 -0.0003018092298857326 0.0
0.0019131490465043215 -0.0003262202799176491 0.0
0.000973677553238273 -0.0003003118352012557 0.0
0.0016584135304575508 -0.0002694148236352816 0.0
0.0013085651181777974 -0.0004739496684647366 0.0
0.0006871212184474875 -0.0003707007671300343 0.0
0.0005144403992276414 -0.00021861149131200696 0.0
0.0011418166328464303 -0.0002978319833022518 0.0
0.0024352491750759347 2.0488618501257898e-5 0.0
0.0009560911978350665 4.997683676487081e-6 0.0
0.0012964657967803285 -0.00023990713236390245 0.0
0.0015266340754117097 -0.0003283277089055453 0.0
0.00019477165710621145 -0.0001426692590272315 0.0
0.00020235401479621492 -0.00015974578811555137 0.0
0.001141413466353646 -0.00042585491168998314 0.0
0.0009608478972976774 -0.00039571428609037055 0.0
0.0013809135130697955 -0.0003529878689884925 0.0
0.0025865207526763337 4.068150735044954e-5 0.0
0.0014599077870888965 -0.000520791015870886 0.0
0.0027426427523847903 -3.792007436390326e-5 0.0
0.0027205551415571123 -6.276932747340506e-5 0.0
0.000754930738554983 -0.0001358100219247389 0.0
0.0011761926431770695 -0.0003257265653682502 0.0
0.00124120808527423 -0.00038622142623241884 0.0
0.0026619272748429888 1.026079288079328e-5 0.0
0.0013194370777699547 8.618531858364253e-6 0.0
0.0018125978044368912 -0.00041789663121601317 0.0
0.0018733061927112544 -0.00034595473305768057 0.0
0.0007432618982713284 -0.0004446379598193824 0.0
0.0017177796487796786 -0.00032059320654719426 0.0
0.001177913351641561 -0.00029186476232510253 0.0
0.0018056915245739439 -0.00028827200843072916 0.0
0.0017954371650239452 -0.0003101238012911344 0.0
0.0018500282817455593 -0.00027161103902586034 0.0
0.0006260016384030082 -0.00041491458109763275 0.0
0.0021759600883044013 1.1490069977886571e-6 0.0
0.0015672074692645967 -0.0005764384566415311 0.0
0.0022321722371045267 -0.0003788602788151829 0.0
0.0020451661450051695 -0.00021550412540827035 0.0
0.0013168990553618423 -0.00018451273216076662 0.0
0.0016704459760326943 -0.0005038760582340799 0.0
0.0010469719467237246 -0.00040187782643927376 0.0
0.001099901486488691 -0.0002538423430634984 0.0
0.002577147209041385 -1.864069138206386e-5 0.0
0.0005847048543261865 -0.00016849216514339203 0.0
0.001974094466880261 -0.00012273069156459846 0.0
0.0013074710644555378 -0.00012553644189354062 0.0
0.0016956889847692769 -0.0002740239347908268 0.0
0.0024667737309423065 -5.9124250735260054e-5 0.0
0.00021569863191976414 -8.85576846463573e-5 0.0
0.0019641660441923484 -0.0003327364607604549 0.0
0.0014977661710678387 -3.328753082250453e-5 0.0
0.001482904620297481 -4.5295236131635206e-5 0.0
0.0016135254982182032 -0.00048151008369638407 0.0
0.0014846062856528506 -0.0003615109470995628 0.0
0.0015258581735964271 -0.0004728172867379573 0.0
0.0019888957782888653 -0.00040199051831250947 0.0
0.0020302322904778283 -2.5228863865169234e-5 0.0
0.0013271781783019963 -4.309282425356997e-6 0.0
0.0018210680619456952 9.404200352134072e-5 0.0
0.0023614221341989997 -0.00019654406029454921 0.0
0.0023760214907310256 -0.00017087019816527956 0.0
0.0013132637167066951 -7.88697903596705e-5 0.0
0.0008749674670125884 -0.0003856353741294963 0.0
0.0017985778639750072 4.675845671137572e-5 0.0
0.0013255211375844834 -2.656361879888083e-5 0.0
0.0017082847960251865 -0.00034280308200807343 0.0
0.0026983854600828145 -5.453123643088404e-5 0.0
0.0004600194160397134 -0.00028187274966994414 0.0
0.0016612488781805686 -0.00016858627142432434 0.0
0.0013221123671005633 -5.201893023593393e-5 0.0
0.0013143674773613049 -7.059074192213873e-5 0.0
0.00045856158564146167 -1.171251106223081e-5 0.0
0.002418664668578545 5.946242644439791e-5 0.0
0.0014063719726414555 -0.0001273814161458972 0.0
0.0024526131946762102 -0.00013748185028770698 0.0
0.0008430657160929716 -0.000368709774021896 0.0
0.002064042405272705 -0.0004825928885004768 0.0
0.0021203661061411534 -0.0004641207449852465 0.0
0.000767309968755849 -0.0003759563662452125 0.0
0.0017729508689678824 -0.0003552836352753547 0.0
0.0011564713158757187 -0.0005710097481884907 0.0
0.0017116631445495013 -0.00010222293805242453 0.0
0.0005018045641539116 -0.00035870904955299 0.0
0.001429468819436342 -6.214908326519804e-5 0.0
0.0014728691380315535 -0.00016295531425048295 0.0
0.0014533022085699166 -7.748682259307082e-5 0.0
0.001556715686431439 -0.0003570979793226505 0.0
0.0019001689005979055 -0.0003506380006250439 0.0
7.182990251210671e-5 -6.329445925134041e-5 0.0
0.00012296133589899012 -0.0001070159159535011 0.0
0.00014693328962660219 -0.0001266845713433279 0.0
0.002552343509456866 -0.00020943563824972133 0.0
0.00019624275341131013 -0.00016666913479421042 0.0
0.0007846239595118199 -0.00035291315979876835 0.0
0.00035185911949423866 4.352103451561055e-5 0.0
0.0022601215354909245 -0.0003962272797159088 0.0
0.0004275792062302727 -0.00031773845613871634 0.0
0.0004778248447370464 -0.00034609001598785683 0.0
0.0025221816016529784 -0.0002301809958560257 0.0
0.0024628000884833056 -0.0002737688327418977 0.0
0.0014560826491243335 -0.00020444004392321347 0.0
0.0010528855948954375 -0.00048510734476713116 0.0
0.0020198232465641805 -4.8503346585939764e-5 0.0
0.002317361259059003 -0.0003622337238748146 0.0
0.0023462367179421617 -0.0003462480694200678 0.0
0.00037924534393935476 -0.00029147584636583194 0.0
0.00026685483445400613 -0.00021679495617069424 0.0
0.002404941253506654 -0.0003101807853369673 0.0
0.0024297418037185384 -0.00026566911109889707 0.0
0.0016244803887955671 -0.0005752079143365227 0.0
0.0003148417924676566 -0.00025020189588617826 0.0
0.0019719467105353216 -0.0005263533019133131 0.0
0.0005190887166735802 -0.0002882330346293606 0.0
0.0022482917612469083 -0.00025187216038901624 0.0
0.0007877315283553035 -0.0004592513458213359 0.0
0.002084977883808355 -0.0003588705462336125 0.0
0.0021656674127113625 -3.647653486528778e-5 0.0
0.000767376887204099 -0.0002622322893475344 0.0
0.0005221505774642717 -0.00023534455224483983 0.0
0.0009911990532091664 -0.00041147332650926123 0.0
0.0013116040873699382 -0.00035173185045994084 0.0
0.002283040182076948 -0.00012894055484143912 0.0
0.0014007857250686816 -0.0005422674511620331 0.0
0.0014421102780014467 -0.00013117871324807721 0.0
0.0014407822497850553 -4.4111371322119894e-5 0.0
0.0018246364443002536 -0.00024720111578149735 0.0
0.0020947921921871016 -0.0002921291789753014 0.0
0.0007611087203811535 3.950653113581442e-5 0.0
0.0017350865428957104 7.880746829521805e-5 0.0
0.0008344697553556973 -0.0002602732513981865 0.0
0.002286718050850982 -0.00019674163136432115 0.0
0.0005474165803047032 8.435268859875158e-5 0.0
0.00046012766386909626 6.188471079486228e-5 0.0
0.0011748671750430885 -9.629873952198254e-5 0.0
0.0024087834818855877 -7.632199387210392e-5 0.0
0.001313851537411973 4.480027432480966e-5 0.0
0.0013961096675894787 -0.0001588273938933739 0.0
0.0025486261230587806 -6.568326356068916e-5 0.0
0.0007047520270955285 -0.00026248770539479303 0.0
0.0008672758998006547 -0.00018043771574544415 0.0
0.0019649859887203233 -0.00023678704592446485 0.0
0.0021592485081579444 -0.0002706045136716168 0.0
0.0006142320637060746 -0.00025931160084716496 0.0
0.0003680666025515841 -0.00021435191640230449 0.0
0.002070131935200419 -0.00028916720116648343 0.0
0.000891292945633676 -0.00012568975018393226 0.0
0.0020770776320042875 -0.0001562055331360167 0.0
0.002750838021517979 -2.645023102925603e-5 0.0
0.0022742738180160592 -5.910499991565877e-5 0.0
0.001469979053052685 -5.520044454373386e-6 0.0
0.0015144025362520785 -5.908889854140682e-6 0.0
0.0016923208757104226 -0.0002044904055262004 0.0
0.002500040846998873 -1.0662005691994955e-5 0.0
0.0024554386728105632 9.119587627341713e-6 0.0
0.00011830684230555542 -6.889229876365678e-5 0.0
8.903075221455142e-5 -5.018096218771073e-5 0.0
0.0010804858816276077 -0.0004791406133357468 0.0
0.0017512410546321898 -0.000326572798419793 0.0
0.0009858605182650147 -0.00018965583851627754 0.0
0.000986404644226812 -0.00017572769651413335 0.0
0.000985911471936645 -8.768002729086613e-5 0.0
0.0013710231775782705 -0.00045886588111637456 0.0
0.0016173952984429982 -0.00018158557922333868 0.0
0.00043356824499926665 -8.511793059640115e-5 0.0
0.0019123821619076954 -0.00013020672039746464 0.0
0.001494907617597293 2.1566032282302062e-5 0.0
0.0011412303618585453 -0.0003146404461991661 0.0
4.559782081691378e-5 -5.816262910519177e-6 0.0
0.0013139021020276904 -0.0003329576300552177 0.0
0.0025318814215811746 -7.822353368752097e-5 0.0
0.002155356255601635 -0.00015553068268914905 0.0
0.0020491692973194984 -0.00011547262791540624 0.0
0.0024184637357413867 -0.00011041047323416616 0.0
0.0017562169110183243 -0.0001422028242253901 0.0
0.0009779158381193046 -3.9134950920882416e-5 0.0
0.00031920431775977445 -0.0001122165423363105 0.0
0.0011867536723259619 -0.000170444374297875 0.0
0.0014895033077386003 -0.00021043819027321582 0.0
0.0003992941984228666 -0.0001881329611916743 0.0
0.001246165063150668 -0.0005840891419453516 0.0
0.001697376233169111 -0.0001425959946298419 0.0
0.0008166154390608317 -0.00037101823122098613 0.0
0.0018551990810204047 3.193520831944634e-5 0.0
0.0023187946013042797 -0.00012523248169673556 0.0
0.0008878752010480683 -0.00011008382522660227 0.0
0.002017668472498337 9.325345935766163e-5 0.0
0.0015438655288398295 -0.0001731387222370417 0.0
0.0013165762690849566 -0.00031482647010132883 0.0
0.00048715227814681767 -0.00010238526528298003 0.0
0.0009053331825317529 -0.00019532977159977813 0.0
0.001226566833298691 0.00010325137451508026 0.0
0.00036908713637310116 5.793689486215721e-5 0.0
0.0020318720803892045 -0.00023745926136892336 0.0
0.0005374493499578 -0.0001909200017983434 0.0
0.0013534755851541348 -0.00030684535147302525 0.0
0.002289175469713137 5.202574005773361e-5 0.0
0.001930171220204899 -0.00023508538696822548 0.0
0.0009378416137071355 7.90847900153818e-5 0.0
0.0001670600902130292 -4.5925257073766346e-5 0.0
0.0006924823890880381 -0.00017041043735236845 0.0
6.027382309295492e-5 4.052457911094133e-6 0.0
0.00012496430411738815 9.896081915119903e-7 0.0
0.001921617126084161 -0.0002163771587476755 0.0
0.0015987462217117302 -3.336875975891003e-5 0.0
0.0008941630295685017 -0.0005134001146444017 0.0
0.0006295108902967363 -0.00033260545530188927 0.0
0.002269087536424875 -9.878908136679391e-5 0.0
0.0003238804491873059 -0.00024289359660357242 0.0
0.0018577580793451341 -0.0002516777772729053 0.0
0.001530499967787888 -0.00044925239079124016 0.0
0.0022427619889440176 7.49431963696738e-5 0.0
0.0008032414556592837 -0.0004343931829527344 0.0
0.0024256878271409045 -0.00022529174172155 0.0
0.001399317165385834 -0.0001483964756717817 0.0
0.0004592510680101793 -0.00031999816612105256 0.0
0.0018565014969883136 -0.0005334688173764022 0.0
0.0004590876440150369 -0.00021275279013538168 0.0
0.0026019586645080013 -7.647706910941327e-5 0.0
0.0003315991805584771 -0.00014859272161266994 0.0
0.0019244932726827006 5.318650682482492e-6 0.0
0.0017605228344463309 -0.00012589627289649302 0.0
0.0014459385072510525 -2.6057920721189918e-5 0.0
6.300082190844625e-5 6.326511998132627e-6 0.0
0.0011215366412282743 0.00014713681573141058 0.0
0.0007455871402024311 -0.00011795028105215925 0.0
0.0021447132949384286 -0.0004230699240450875 0.0
0.0021743950455980323 -0.0004428669422473312 0.0
0.00020193690673763072 -1.10222072468628e-5 0.0
0.0015885635824602253 -0.00016321709204828217 0.0
0.0006554311640649272 -0.00033407626473383586 0.0
0.001108533768845008 -0.0003374196137427392 0.0
7.529522999613222e-5 -4.7096516370220425e-5 0.0
0.0001523945199682157 -2.8587235843352574e-5 0.0
0.0015182147276492 -0.00023109600390385692 0.0
0.00139075419229575 -0.00029769606504306264 0.0
9.860582852470065e-5 -1.594624646759972e-5 0.0
0.0002733098604710481 -9.274849960486114e-5 0.0
0.000219824932166868 -0.00018387726756262233 0.0
0.0022668021877920055 -0.0002226266021996187 0.0
0.0017834604720706432 -0.00033229776691795054 0.0
0.00033427790112364517 -0.00019294872891425924 0.0
0.0021356704740654125 -2.3916862128100486e-5 0.0
0.0019607287907421325 -4.091488790299962e-5 0.0
0.0001567645699296297 -0.00012562152224945142 0.0
0.0011354190760469154 -0.000123631040160815 0.0
2.047539578248475e-5 -1.627148416303266e-5 0.0
0.002778242832497093 -1.837420130242022e-5 0.0
0.0026911748730733503 -2.6926243647484024e-5 0.0
0.0008139850811972081 -0.0004885331995311664 0.0
0.0021389562615126098 2.5336058069680933e-5 0.0
0.001783422705828523 -0.00041048902031129637 0.0
0.0003654139078707381 -0.0001557215209618952 0.0
0.0016932723711051791 -0.0005917095634401105 0.0
0.00038973109536631455 -9.750392151793246e-5 0.0
0.0023969952869696753 -8.958275939286441e-5 0.0
0.0010742235998503023 -0.0003419319165547368 0.0
0.00011085427055260208 -6.0206174340357674e-5 0.0
0.0012791361305461606 -5.675097320829597e-5 0.0
0.0012755090376070214 -6.669280370577406e-5 0.0
0.002523865402871826 4.394473353018203e-5 0.0
0.001522597158695554 -0.0003488475470687225 0.0
0.00019213283080271538 8.18863120172429e-6 0.0
0.0023954252622800077 -0.00029313776338811803 0.0
0.002548235094665551 -5.023687873089182e-5 0.0
0.0019442171386552787 4.2168284097850334e-5 0.0
0.001996220678504535 2.5298659398482696e-5 0.0
0.0011649064825007356 -0.0005047151749338458 0.0
0.0027103779084638076 -8.437436719322202e-5 0.0
0.0011717187858394226 -0.00010754878677157025 0.0
0.0002834151104839058 5.955911137559649e-5 0.0
0.0003285106836143172 -0.00020930071881981023 0.0
0.0008427953346187089 0.00011175638278572765 0.0
0.0024044200799441546 -0.00022210039050119372 0.0
0.00013971959962992995 1.8223829483151407e-5 0.0
0.001442642390410435 -0.00012061666105481352 0.0
0.002168011172937873 -0.000135340621290425 0.0
0.0017301742510402534 -0.00021018113990017165 0.0
0.002732085475860347 -1.979386266467114e-5 0.0
6.683485207705043e-5 -2.7592600039096314e-5 0.0
0.0025631500837164528 -1.001015914667801e-5 0.0
0.0027418519086105484 -2.0098637019172657e-5 0.0
0.0013131752209353692 -0.0005682637462186761 0.0
0.0015638657898492986 -0.00022159997509135128 0.0
0.0009660656995098201 0.0001704642817597445 0.0
0.0006464087196881414 -0.00026019303986451255 0.0
0.0008548417771270313 -0.0001611092380413125 0.0
0.00112670599683794 -0.00013479696554421954 0.0
0.0005516658701192191 6.823951198296691e-5 0.0
0.000987391706613115 -0.00039091039785903707 0.0
0.0004946595147369957 -8.546694589340678e-5 0.0
0.00034423439731540905 6.914978312708378e-5 0.0
0.0012704005971344392 -0.00020494849634726683 0.0
0.0019386997342611956 -0.00032977478005740335 0.0
0.002309556329583945 -0.00019876734391863581 0.0
0.0009300881377786397 -4.214890237284532e-5 0.0
0.0006483484544513533 0.00013444327983588552 0.0
0.0015153561596139022 4.107206113680245e-5 0.0
0.0007955776799103453 -0.00011604351153688833 0.0
0.0021913643851180697 -0.00020596199415097257 0.0
0.0008203643175436866 0.0001717345513837898 0.0
0.0007419480894174443 0.00016438754440172357 0.0
0.0014926207267965028 -0.0003203327387734223 0.0
0.0015628173011831513 6.432022138291961e-5 0.0
0.001066779781898717 -0.0005548196794168626 0.0
0.002030307604844214 -0.0005038594194601818 0.0
0.0007323222414085499 -0.0002472331470402006 0.0
0.00188957317917516 -0.0005529741141091304 0.0
0.0005918644990049503 -0.00010874873298943037 0.0
0.0022296966088233435 -0.00019984357551865016 0.0
0.0010396558396302486 -0.0003291186381155658 0.0
0.002383637708139002 -0.0001170398616203185 0.0
0.0006479598450166791 -0.0002453282076133051 0.0
0.0011623115585444868 0.00013637248218509218 0.0
0.0009852750213445792 -7.212933171828148e-5 0.0
0.0012112921877027772 -0.00043130519328527965 0.0
0.0012983879644129829 -0.0001555448712333753 0.0
0.0012722139486584156 -7.608798762447406e-5 0.0
0.0007515485977225422 -0.00033370959316302674 0.0
0.0007609739703946006 -0.00035538172093526065 0.0
0.000493579423432244 -0.00017254592883066044 0.0
0.0007709067542977 0.00021780015286773045 0.0
0.0012553070163089707 -0.0004968703043487989 0.0
0.0024171652953646227 4.825745035528238e-5 0.0
0.002135375545146152 -0.0002679545141180368 0.0
0.0015223351165063541 7.547021885498309e-6 0.0
0.0007009083725435006 -0.00024743835997527696 0.0
0.0018882770385966418 -0.00019056394343713734 0.0
0.001566065214841776 -0.0004362275060440169 0.0
0.0010380107756046719 -0.0003112362230404611 0.0
0.0025769454560147127 -6.0918652677255885e-5 0.0
0.002714097541311296 -3.937437860813959e-5 0.0
0.0009444318543887233 -0.00018001984396838467 0.0
0.0017950664652120754 -0.0005494449529138705 0.0
0.002461090744445677 -0.00025218910169335577 0.0
0.00012448373641964645 -3.2353381355032636e-5 0.0
0.0006515695896972104 -0.00017066923473003524 0.0
0.000766567035404425 -0.00024721164022575083 0.0
0.0025131725112267377 -0.00021698011150001078 0.0
0.0009825311576892037 -0.00037016929988240396 0.0
0.0017487060157307995 4.76067095920689e-5 0.0
0.0002765121065739156 -0.00021168491535112458 0.0
0.001576883372439769 -0.0002616656166824321 0.0
0.002306271224544659 -0.0001737837889616076 0.0
0.0018247875593142679 -0.0003149823924022304 0.0
0.0026229042337388413 -5.9060994444974284e-5 0.0
0.0018341266894831595 -0.000498517457192701 0.0
4.6002289719284165e-5 -3.130271270864046e-6 0.0
0.001209184271487581 -0.00019917812142400824 0.0
5.217004666210801e-5 -2.6952529525242402e-5 0.0
0.000885142937203712 6.675321401674408e-5 0.0
0.0005760792192660743 -3.100847775296001e-5 0.0
4.5355861188331546e-5 -3.4370256141184846e-5 0.0
0.0007060550874354395 -0.0004513725790795543 0.0
0.000654244893059401 -0.0004123648023510905 0.0
0.001180294674949109 -8.626394164420658e-5 0.0
0.0012024766494880016 -1.0986064699467925e-5 0.0
0.00048450239280963697 -0.00033438814884813783 0.0
0.0008414165638687808 -0.00011370230864765128 0.0
0.0016189916812783729 -0.00016930605833585092 0.0
0.00048501272453567966 -0.0002153245334253832 0.0
0.0018096083208967364 7.463530377049683e-5 0.0
0.0016051849364198136 -0.00042191888691420735 0.0
0.0003540831118322062 -9.639638272536319e-5 0.0
0.0002153258171856531 -0.000149924844702968 0.0
0.001409647217049613 -0.00010750584913984609 0.0
0.00010288930049029173 -8.317450297810139e-5 0.0
0.0026605989627763223 -1.8481211922030436e-5 0.0
0.0009525956906081006 2.8813925242418584e-5 0.0
0.001280098436255377 -0.00019009856565526347 0.0
0.0023674114536388 -0.0002504815907115031 0.0
0.0026099762058708095 -0.00016633200916868317 0.0
0.0021803321818592678 -0.00011523707852225503 0.0
0.0012510804483606458 -0.0004746807289913989 0.0
0.0016413570907264276 -0.00024649086416048035 0.0
0.002305403503429301 -0.00034604216272016895 0.0
0.0013698389773606915 -0.0005978257793132664 0.0
0.002275981863479026 -0.00017667136488055192 0.0
0.001835488450655927 -0.0002932578355576437 0.0
0.0009492102483726749 -0.0003549753199440589 0.0
0.0016568543738623685 6.763618928881233e-5 0.0
0.001001328061767541 -0.0002959073922708964 0.0
0.000845968165451084 -0.00045646298838023983 0.0
0.0012629727200805408 -0.00016011933716331923 0.0
0.0020984425101894764 -0.0004443763348938758 0.0
0.000488480687589788 -0.00015893035970905274 0.0
0.000408475429001372 -0.000294735408402139 0.0
0.0019898036775446814 5.625699389764772e-5 0.0
0.0006153316489041418 -0.0001840604991738391 0.0
0.001606477460236902 8.201045627538154e-5 0.0
0.0009522054884362104 0.00033111373229717945 0.0
0.002102179228312914 5.4029680387583656e-5 0.0
0.0023822550412051493 -0.00010474084333250079 0.0
0.0013322353761962974 -4.393857283014531e-5 0.0
0.0021264627399722917 -0.00013734166792290462 0.0
0.001645250592482488 -0.00046398021254715876 0.0
0.0017444634733983252 -0.0005867124754362074 0.0
0.0008017918922086737 -0.0002458301388765481 0.0
0.0008925419612054616 0.00018213924338623464 0.0
0.0005347812176421528 -0.00016390372833876012 0.0
0.0006033839740155213 -0.0004100166774052295 0.0
0.0011853373600974621 -0.00021810420819166936 0.0
6.720050289340588e-5 -2.561619077533469e-5 0.0
0.0004670763526790449 -0.000306577159587843 0.0
0.0013155218560275813 -9.48169882188481e-5 0.0
0.0001673436622516929 -9.163263750957e-5 0.0
0.0001538117677592944 -5.202627971951409e-6 0.0
0.0014202778619309129 -0.00029026281234510764 0.0
0.001444846306756055 -0.00011086021681931773 0.0
0.0025728181869177553 -0.0001757515486183502 0.0
0.001130871380393839 -0.00011291914469799554 0.0
0.0019549086203558973 -0.0003052974590886571 0.0
0.0014636712836145233 -6.44554752495089e-5 0.0
0.0003819706930908541 6.794445710521399e-5 0.0
0.0004932579967783731 5.221683020259049e-5 0.0
0.0026678069870747978 -4.080688523770987e-5 0.0
0.0017035022882901346 5.715283278775057e-5 0.0
0.0004007217007839454 -0.00016196694563560028 0.0
0.0016637618169223092 -0.00010968133335679935 0.0
0.0012809759168043687 -3.2738072423328725e-5 0.0
0.0014265207852009365 -0.00015236643716150768 0.0
0.0005198977091694873 0.00012469938949791155 0.0
0.001428446937230688 -0.0006032107643720233 0.0
0.002531769119186438 -2.6987235083796817e-5 0.0
0.0014006847258950321 -0.00024508737302093034 0.0
0.0014129294001026624 -8.004491514292717e-5 0.0
0.0017860882422723455 -0.0001779389253046774 0.0
0.0012274077277530798 -8.18253627565071e-5 0.0
0.001408999995483469 -0.00022829858244326537 0.0
0.0006868560790892694 -0.0003562902464846314 0.0
0.0018783051435826864 -0.00027577842034403086 0.0
0.0011166386991537578 -0.00018041391869292762 0.0
0.0014088972296536428 -9.856477630757458e-5 0.0
0.0021989065108041525 -0.0004342062609254055 0.0
0.0011955081294175067 -0.00015842540323886037 0.0
0.001680764111220225 -8.189194258276619e-5 0.0
0.0014716144462745657 -5.536253293626614e-5 0.0
0.00022695510416862933 -0.00017935263642473667 0.0
0.002150245023337581 -0.000247108033711126 0.0
0.001456849263861743 -8.861935506355465e-5 0.0
0.0008026471869432222 -0.000453149228696308 0.0
0.0016093327926352153 7.504555207176265e-5 0.0
0.0019463725339778663 -0.0005403416349714583 0.0
0.002687465653912899 2.8085771638320192e-5 0.0
0.00014190086658303163 5.5840300444034506e-5 0.0
0.0011551731337668036 -0.00022483532556193974 0.0
0.0015365201432383517 -0.0005821098197358255 0.0
0.0009721034370428373 -0.000515305910367606 0.0
0.0011020372405158008 -0.0005625828632814332 0.0
0.00021347640799524698 -8.146088518555908e-5 0.0
0.001991714487909036 -0.00028877018307784205 0.0
0.0008060194198499879 -0.00023069454222183667 0.0
0.001153903892836301 -0.00016420974125117338 0.0
0.0009314167713526537 -5.82431604189528e-5 0.0
0.0011399152233054237 -0.0005524670927072353 0.0
0.0019749917434982345 8.832874892409577e-5 0.0
0.002555624681751803 4.65016960357432e-5 0.0
0.0016454064967404527 -0.00044307707635072387 0.0
0.0013943641166188482 -0.0002632873525493507 0.0
0.0008940961807212001 -0.00034930710044978226 0.0
0.001488936602327347 -0.0006060566341441066 0.0
0.0020819043825475035 -0.00024040594870553924 0.0
0.0001908112129953998 -9.360235519981669e-5 0.0
0.002490365280295176 -6.048262887929581e-5 0.0
0.001200993147723232 -0.0005608604368166176 0.0
0.0012286014879843315 -0.0005065598453047511 0.0
0.0018664069180834427 -0.00047436879707418543 0.0
0.002754826433550771 -3.417050020156675e-5 0.0
0.00102768052098632 -0.0005295142652290047 0.0
0.0008788443700506523 -4.3474039504650606e-5 0.0
0.0009106165395439182 -0.000183882474957307 0.0
0.0017721832074618698 -0.00019816622691237534 0.0
0.0026760220681976243 -1.994135715251567e-5 0.0
0.00023342931710932622 -0.00015681557628732183 0.0
0.0014154545154209212 -0.00021364497884306382 0.0
0.0024396887046343797 -0.00023297409914192793 0.0
0.0026681102430822475 5.535969649758483e-6 0.0
0.0007713624039752296 -0.0001535750751688239 0.0
0.0012289799594406862 -0.0005671406345581205 0.0
0.0025880346201454223 -5.232571683812673e-5 0.0
0.00048138224376012085 -0.00028941317687085686 0.0
0.0027173392961871577 -1.3377315333828953e-5 0.0
0.0008700500762632369 -0.0005098472597339771 0.0
0.001889305215872046 -0.00025461331209541705 0.0
0.0005182497735019124 -1.1625410521698518e-6 0.0
0.0017236242860648005 -8.290521251635538e-5 0.0
0.0026827325274553617 -9.269943611157205e-5 0.0
0.0021230860124300194 -0.00022112532775303938 0.0
0.0007667025369618082 -0.00045757534615012315 0.0
0.0005533399173200519 -0.000387638046685933 0.0
0.0006848526524643379 -0.0003269698308019352 0.0
0.002256876055427104 -0.0003737687170666705 0.0
0.0020866281987468897 -0.00014024493369832908 0.0
0.0004338442804435141 -0.0001690386548611953 0.0
0.0010935111551991516 -0.00021677321742352414 0.0
0.0017666312549969245 -0.0002185007509870446 0.0
0.001053545174418311 -0.0002498233546707581 0.0
0.002616518111456387 2.3235762774810823e-5 0.0
0.0019028430366536467 -0.00011534206240742799 0.0
0.001112600644626759 -0.00016974059187964456 0.0
0.00044410672048582605 -0.00015361634443844746 0.0
0.002017431695731864 -0.00025567863067590344 0.0
0.001674071172019075 -0.0005507463256604313 0.0
0.0023679743609298694 -0.000314602192730883 0.0
0.0009281964684381799 -0.000504910507018649 0.0
0.0017685647766747814 7.342306097401642e-5 0.0
0.0010041149261179885 -0.0002786747207890318 0.0
0.00159452097756281 -0.0005827043804963595 0.0
0.0023455315567352322 -0.0002491297084955232 0.0
0.002077300585108672 -3.0188669069517783e-5 0.0
0.0026171009222799996 2.8722347317195393e-6 0.0
0.0006615258416235003 0.000144514959387264 0.0
0.0025422585816742434 -4.175760264697747e-6 0.0
0.0008816413125977253 -0.0003229053220000389 0.0
0.0023386252765227036 5.468685340264686e-5 0.0
0.0016362649701751918 -2.2201198058666696e-5 0.0
0.0019196245920181955 -7.985118100853392e-5 0.0
0.0008296909719559633 -0.00021108998646480128 0.0
0.0019454309161729356 -0.0001383473856971825 0.0
0.0012877221534735436 -0.0005725124034622831 0.0
0.0007183936449751139 -0.00042838828658634524 0.0
0.001476355639049866 -0.00011432082222285635 0.0
0.002066419048971775 3.055936516815092e-5 0.0
0.001207966699401241 -0.0005319495612976179 0.0
4.9020174413985026e-5 -2.3668519760227453e-5 0.0
0.0026901791221743817 -2.4868157560651632e-5 0.0
0.0023348270909249146 -6.593184132597428e-5 0.0
0.001154131531451929 3.6914504058874353e-6 0.0
0.0027290148412500367 -3.583871366914226e-5 0.0
0.0007732568529632656 0.00011540054093192005 0.0
0.0012863579980892212 -2.027691506622483e-5 0.0
0.0027765073327695026 -2.339594599244531e-5 0.0
2.090524560229599e-5 -1.9028093520893417e-5 0.0
7.309994104518585e-5 -4.274038718008345e-5 0.0
0.0007937218292658689 -0.00010250496828857304 0.0
0.0016671810467649942 -0.0002529845239505786 0.0
0.0019196161242257914 6.143792857101015e-5 0.0
0.0021029067172190306 -0.0004156696186404582 0.0
0.0026997582590516673 -3.0294444557178855e-5 0.0
0.0002115818953391725 -0.00010715147222648015 0.0
0.0005761866495564034 4.4042688825580235e-6 0.0
0.0016846091786292467 -0.0005243372433149103 0.0
0.002416225619631621 -6.562487427479327e-5 0.0
0.0007058540115045066 -0.0003269041574610966 0.0
0.000158486054435415 2.390507846929515e-5 0.0
0.0017031702193216287 -0.00011463263726821358 0.0
0.000834082517217016 -4.675867939354231e-5 0.0
0.002023333832912366 6.530348288549667e-5 0.0
0.0012864123759972462 -9.354725365416834e-5 0.0
0.001044060794575886 -0.00026307865639844203 0.0
0.002452115471296088 5.0198255749459665e-5 0.0
0.0024849283925921185 -0.0002418622198329714 0.0
0.0020202289450162725 -0.00048377352371579415 0.0
0.0006199499285643509 -0.00017224702265565087 0.0
0.0025614611612798325 -5.149313898498426e-5 0.0
0.00042723311424284143 -0.00019587907967390556 0.0
0.002589483411681503 -2.2754251349913206e-5 0.0
0.0022795934510035343 -0.00036667840968046734 0.0
0.0016616461487408921 5.319729902866084e-5 0.0
0.0018793962916374694 -0.0005346910654522252 0.0
0.0020062472040063306 3.71590666397697e-5 0.0
0.001265728282202144 -0.00013607929559450246 0.0
0.0007106031810600893 -0.0004069838684422612 0.0
0.0010370342556382999 0.00015923255331821767 0.0
6.186922351719164e-5 -1.0959092637551964e-6 0.0
0.0026637171026507402 -3.0041710989288656e-5 0.0
0.0002974872990908001 -0.00022912368812534023 0.0
0.0020322376002847075 6.549881838317434e-5 0.0
0.0005055607091810241 -0.0003478550719086893 0.0
0.001894043994136456 -0.0002377612875135028 0.0
0.0005662566543261101 3.4654852836634637e-5 0.0
0.0002466852012088759 -0.00011749116083069967 0.0
0.0003606888728876097 -0.0002833042437674826 0.0
0.00032202657212194503 -0.00019493988025153728 0.0
0.0009170537767408545 0.00020757519226739495 0.0
0.00216577788674925 1.3387241168191932e-5 0.0
3.888888733585516e-5 -2.6785426646509485e-5 0.0
0.0023175569044566924 -5.771334949055277e-5 0.0
0.0021275141965197784 3.880756144494087e-5 0.0
0.0017106373920006408 -0.00024001512882021445 0.0
0.0012846725185230775 -0.00011076333127979122 0.0
0.000728611736277441 -8.011788361866621e-5 0.0
0.0013093446735920403 -0.0001450118468152988 0.0
0.0017222082353168483 -0.00047790159155246015 0.0
0.0008374265273976501 -0.00023154047682287523 0.0
0.0006375522348670875 -0.0004108693161565039 0.0
0.002346608918677052 -0.00017809250224166124 0.0
0.0017969183016898049 8.537425796049242e-5 0.0
0.0002946040417947588 5.502509877296516e-5 0.0
0.0008322171081391294 6.700750386278863e-5 0.0
0.0018471979053207976 -0.0001778975769380153 0.0
0.0017138433701209866 -0.0005701137539490373 0.0
0.001089234646225429 -0.0002298965403376925 0.0
0.0021689288540577656 -0.00042355703896413153 0.0
0.00018023642303253786 -0.0001462415131639475 0.0
0.001895914367467369 -0.0004537199277796201 0.0
0.000930494907954203 -2.5702948639989088e-5 0.0
0.002596167720214228 -0.00016163961510263445 0.0
0.0009008412317873908 4.4176480893654025e-5 0.0
0.0016964827437507424 -6.0141109306690854e-5 0.0
0.001432360953828943 -0.00027873981881510823 0.0
0.0012930739588804944 -8.769209034955846e-6 0.0
0.0015118066555041177 -4.8536135803002616e-5 0.0
0.0016553185829215988 -0.0005755139491332631 0.0
0.0021202340444576506 -0.0004391924797715524 0.0
0.0006778501210969553 -0.00024947606681378074 0.0
0.0015669148959147274 6.102494716863303e-5 0.0
0.0015261509029540342 1.9681277986943913e-5 0.0
0.0021151492203948115 -0.0003820358000143012 0.0
0.0012729425374656636 -0.00012588778849134203 0.0
0.00126393805986511 4.202865873748112e-5 0.0
0.0007052145836691625 -0.000387156299037875 0.0
0.002577604654769662 -0.0001569550637824119 0.0
0.0017845205615846054 -0.0005792679980638714 0.0
0.0012104029088236944 -0.0005168314302132288 0.0
0.0026923687953020726 1.21918886446988e-5 0.0
0.001192641596307922 -0.00045969286539639207 0.0
0.002078527544586927 1.1587714964393949e-5 0.0
0.000727331191474889 -0.00014149392202707993 0.0
0.0018091750298628688 4.808467415283586e-5 0.0
0.0005284632216370407 -1.824968775048113e-5 0.0
0.00116605435407855 -7.035353589398717e-5 0.0
0.000883993580925718 0.0002718754496277147 0.0
0.0027407101840739682 -1.890945131614275e-5 0.0
0.001657046459252084 -0.00042612808433059184 0.0
SCALARS damage float 1
LOOKUP_TABLE damage
0.5051582080998595
0.2895598669711833
0.7306462905420575
0.2312917673847763
0.9792831899306181
0.9932728908681504
0.1146281604345144
0.7027704126301526
0.7022368517710555
0.7153223640034466
0.7437670556842136
0.7651456007980233
0.7914548162643317
0.817032737090125
0.8301134796812559
0.835873259553422
0.8292259055134971
0.8198570274114928
0.8048348946320353
0.786758887856275
0.7695409490404308
0.7601651278514925
0.7431495298731201
0.7268836957093308
0.715691605902166
0.7020133726537005
0.6822998414029171
0.6639165062169101
0.6376296951295344
0.6103659083336803
0.5697380196533165
0.5194670135363681
0.262187518569735
0.4056809029489073
0.42797639861050607
0.4635293540102149
0.4862914124128395
0.5020209253236287
0.5192887922876918
0.5303505038976607
0.5418310527833572
0.5531845585482313
0.5616120397984927
0.5707871259206986
0.5810991091602115
0.5872115551022409
0.5907861294176968
0.5996675198279151
0.6087963236191046
0.6198157522341978
0.6257631834626739
0.6335844128854651
0.6404465330731154
0.6515995087209308
0.6537660418010574
0.665715281517478
0.6697786217490523
0.6797903078780729
0.6863769847519166
0.6983222192203852
0.7001522061088216
0.7120228548701433
0.71901363968707
0.7290611305300679
0.7358168226231062
0.7425599644294717
0.7439699722305034
0.7479815534739176
0.7571682246870021
0.7600831288154826
0.7784395512659718
0.7864223230871785
0.792153413258808
0.8131993735992533
0.8212768046116602
0.8326350713943819
0.8470478517524332
0.8514430354234901
0.8682791104313865
0.8740794626897513
0.8848942660905781
0.8949112227789858
0.9003567564026486
0.9002046693372975
0.9162648130253519
0.9224373621230064
0.9442003742925696
0.9447023266594413
0.9630099829399802
0.9711575783858002
0.976215369107432
0.980790008689232
0.9810016746083727
0.9808194165866961
0.9787424439590154
0.9763959988755141
0.9698194604513929
0.9634939339345636
0.947011952236344
0.930620195530076
0.9184603265077514
0.9116881064840222
0.8968088030247671
0.8932490117579232
0.8731367389332482
0.8571705361063496
0.8461494941431427
0.8267493591489888
0.8193342240710181
0.8042714008285463
0.790258243666128
0.7713776494843514
0.7742820807741465
0.7509684562154997
0.744056520278357
0.7261472838340947
0.7141938825961467
0.7037817145557873
0.6862889405967512
0.6737205499683019
0.6646373053405544
0.6495729821951367
0.6304069124497768
0.6090114846068193
0.5959833173263775
0.5780810398958731
0.5606975867309292
0.5161781267074484
0.47890466810859983
0.46544796294521723
0.3205517624181879
0.42584958655736116
0.5229058779258978
0.6185679524482878
0.6580271769912789
0.678166301357258
0.6890753212698886
0.6963321036088242
0.7010511675958014
0.7048354838136368
0.7117197935593184
0.7167982953709349
0.7213547450990141
0.7256925864061474
0.7292382327897947
0.7303224589145318
0.7289601460869714
0.7249425670850276
0.7221956281828645
0.7155110933993772
0.714581822900579
0.7146622070174522
0.7172263863823657
0.733094468589446
0.7626043080832233
0.8259281019877913
0.7873802532448545
0.9679314861217283
1.0015566928640844
0.9936084742214076
0.9909441105489791
0.9890194635623595
0.9262908016526278
0.8498537493420023
0.7658890790036335
0.6896971850324822
0.6089303686496172
0.5483241207614148
0.47520515470361774
0.397600139391098
0.31813210016938975
0.27690782002682557
0.054504617360856406
0.17491330089348564
0.2803607509118184
0.38119598541072197
0.4787882813178826
0.584900495140308
0.6798790912673648
0.7800019431918193
0.8767180272404743
0.9481269296931218
1.000318812021126
0.9932081082686941
0.9986093393227642
0.9760302943857009
0.881271410095308
0.6839553965913229
0.7051245325303765
0.9113908492518893
0.7612435548381093
0.9747976085429205
0.8260669114678207
0.9486336092956433
0.8898888965599807
0.8366024045676238
0.658665139704776
0.7744947695865212
0.619280062379856
0.7797746673220389
0.7260432088735933
0.5636917996627993
0.5772725802308305
0.13466058675176873
0.4440382474082618
0.7103406895584049
0.583361162096057
0.727553823001424
0.7121850032711803
0.7151825471777487
0.8203917211383036
0.6573044162241495
0.5412295488650991
0.7675530687641089
0.6885380197668214
0.6900364645584405
0.6895374123026996
0.7858053494538892
0.8624907631546388
0.9767206862874773
0.9052565965088142
0.9569941186715966
0.8734943834383002
0.742407293639792
0.681228412479668
0.6005131322131223
0.5022944773773788
0.7069684871777582
0.8014643171874397
0.6542811016308724
0.6221059175980884
0.8914082660270929
0.8815108042993964
0.7288209497782223
0.7290375172597825
0.7549493223336505
0.7237724990252438
0.4989130597382615
0.2921579918526512
0.43857882989700436
0.5252453451171848
0.9289998436187057
0.9284449385395693
0.7677579750164307
0.7223233872613052
0.9679198865237774
0.8095715709780344
0.6432413372768853
0.7489573248060634
0.6024286646439527
0.5625394579513049
0.681355523244743
0.8745900784511755
0.9336435763471631
0.5824389632949534
0.553714970953919
0.9911654275710569
0.9874944194056116
0.6589950788855208
0.7976161824820616
0.37874408598726667
0.4630306487555556
0.9921236579704408
0.9229449346299697
0.8373569043145428
0.8370679723052709
0.8926779234034322
0.8122228890840776
0.7766757266989769
0.7527254022874851
0.7289043806913748
0.7074399047515447
0.7229279647637828
0.6883382859023216
0.6981585454020784
0.6743706780874517
0.6841122706181737
0.673384832396653
0.6195168800729006
0.34902756106316957
0.5540002606269278
0.3916234574520005
0.5534367927036544
0.45437941727383296
0.5542474091754114
0.49579561053537535
0.563892090285126
0.5207870012961583
0.5680654952499424
0.544949009315015
0.5826771240105212
0.5598494113582843
0.5904571980977653
0.5754049721455415
0.599281909483748
0.5836404580059142
0.6033605043430729
0.5931329185151432
0.6090777460121153
0.6030464148500274
0.6154857477031008
0.6124073952393364
0.6246223343809801
0.6228350620051951
0.6326874221794203
0.6301205341160759
0.6397880642966425
0.6353795628282725
0.6446717418435715
0.6448766913227113
0.6522429495360594
0.6540233671652723
0.6596642570905147
0.6603701745553867
0.6664755756231289
0.6688823994278609
0.47028921583344
0.6748346239715145
0.5763507127402482
0.6402670864320504
0.6768004542084392
0.6829663739776266
0.6846303387280065
0.6784937002882263
0.6862597480747109
0.6908312551083106
0.6887630030434658
0.6507630526774353
0.6969649791861331
0.6944892212046937
0.7022480531473244
0.6796571371959201
0.6875707244267558
0.6994443795151056
0.6810017449374873
0.6887228386804667
0.7088120324177061
0.7061279299377354
0.6827149885444774
0.6905353417825373
0.7158371496349385
0.7132777941563438
0.6833640613506418
0.6902605991169399
0.7235127807786503
0.7209751721561976
0.6829825166202761
0.6901142788070803
0.7315129486266981
0.7288918087043832
0.6817153754083599
0.69091797166431
0.680820066084906
0.6717996505472185
0.7339728632188343
0.7396278765443312
0.736180246969083
0.7245935552877513
0.6210443836951796
0.7326965772707406
0.7197505259209156
0.7279273535394636
0.6907332307205891
0.6818066132932135
0.6972750236254992
0.7474746678722948
0.6890023412690455
0.6789970699609991
0.6131591956605531
0.6861082243532581
0.676481028406874
0.6838004050697734
0.6735384464849451
0.6663071603095129
0.662437686534025
0.6566086497805846
0.6811266628963158
0.6559767009674818
0.6482229129605159
0.6913062913135471
0.6883829484818104
0.6470776293429819
0.6400856640509598
0.7167477488676742
0.7241594679404587
0.6974040270684233
0.6929033650764919
0.7141168295815182
0.7225095037902611
0.7339338252007532
0.7302981056907475
0.7456422595752132
0.7397123824156648
0.7553610244552272
0.7480758634221911
0.765330960288863
0.7345078147579706
0.7554327444363003
0.7752810549622309
0.7027468659860643
0.6398335187259421
0.6334453678249364
0.7834079863361054
0.7948654741247071
0.7849489331005592
0.8058538052893979
0.6984311837816239
0.806107735635534
0.7949931964569252
0.7082396232012664
0.704445144431781
0.6950978342871981
0.8172464177043018
0.805935665545896
0.715042934046076
0.7195727760902554
0.6999798457355068
0.6899051254438516
0.8261768060177141
0.815542938569344
0.7883698082538205
0.8361259966309725
0.7968567664075937
0.772986542495553
0.6337098523987252
0.6298432693789907
0.6276053288931914
0.627910708634245
0.6203014835222994
0.6230892520473432
0.6144141163832298
0.7263161257972773
0.7303466841712182
0.6944981263856114
0.6845940539992069
0.8224618332701701
0.6225216051677687
0.6112791464519637
0.736776719619578
0.7408914817144606
0.6969794152698339
0.80307650442845
0.6347478150823821
0.7972486588911047
0.6125266184867796
0.7129906843568427
0.6243020262962241
0.6128334475833243
0.6901186182594664
0.6808421743343696
0.7472782339429274
0.7518377181262275
0.827903317156248
0.632919013181477
0.635687201318177
0.6323718694329432
0.8053789663291677
0.6333712803383807
0.6175502994167494
0.7426159650562477
0.6847391700931246
0.675239243664417
0.7053220528592042
0.7079217509139886
0.6996408396955526
0.7054488336236904
0.7581591532410209
0.7623208038637822
0.6744706575760334
0.6420280926690325
0.6344010773160849
0.8303585411723681
0.8450714551285826
0.6698743565025459
0.6567147684061821
0.811391875483723
0.7853392825163389
0.6933579014152136
0.6949166130340945
0.7693762612521358
0.7730295922332507
0.7657544266180861
0.7766437356054487
0.7689603920375064
0.7798881765161642
0.7718136228796221
0.7823265847579507
0.7737704446027777
0.7841200246912161
0.7928600183169711
0.7949284346425101
0.8038473482586028
0.805905113969844
0.8149298721822454
0.8170063967777271
0.7754124328242524
0.8071919960229585
0.8186023824160763
0.82896076729859
0.830791559565453
0.6341098776474825
0.6357610155370088
0.679564028565886
0.6706751331860937
0.8196434320392734
0.8318069276626121
0.8436397923795181
0.8446147693968111
0.6360459009842024
0.6359571353334665
0.6982578469243895
0.7075696770861524
0.7014863288276317
0.832919490731434
0.8144478164986156
0.7806345280386136
0.5993861053921359
0.711545010717067
0.8570155647479346
0.8576133362829561
0.8447274745360567
0.8578861998454361
0.6962171046918219
0.7146170094520595
0.7198425705820809
0.6843298286927637
0.6746588653276715
0.6656403037195773
0.708932268979624
0.8702827140840659
0.8707114245006611
0.8565562882539118
0.870352756295369
0.8545374947619674
0.8673137956878193
0.8832126864752093
0.8795970599519742
0.7151442607286377
0.637471956748812
0.6353884951653078
0.7772569342468433
0.835117631946001
0.8189034093421962
0.8934936264808362
0.8923310836543059
0.7025684710571435
0.6705890795400351
0.6607456751830058
0.61818762110844
0.668694569868744
0.7883421311194502
0.7274137278446434
0.6549376795186047
0.8362610143750968
0.8187820614880075
0.7886029759894571
0.7183329820404252
0.8427465523675585
0.6415785245753564
0.6760383549196772
0.7278887778566374
0.7233866190453464
0.8512121378039054
0.6641356680588139
0.6545559227956149
0.6389999453320058
0.6356076934639017
0.6760219333488763
0.9061807545846512
0.9028572726759636
0.651373235320574
0.6459105229590483
0.9078841553792831
0.7839719765706937
0.6480431028597196
0.6398556697143263
0.7613305075990302
0.7899169403985896
0.7584633884254149
0.8183103288671079
0.9166315588446939
0.9131071508364681
0.8388851377797999
0.8351457290514601
0.795242213540066
0.8988882111845475
0.9079232460311261
0.6411731856825484
0.6358376206644357
0.9210317292002925
0.9142297129675576
0.6415016903170018
0.6332270290499484
0.7433555652327564
0.7436200711444365
0.632398716217975
0.6261659799981866
0.6257273454172535
0.6190098300265603
0.7898638949925185
0.8151234269259676
0.7191429528764471
0.7372594353742531
0.6946031794682451
0.7906540340003663
0.9248889165525609
0.9171199916135601
0.6820558765828768
0.8935024949060779
0.812309545972847
0.6202628797489526
0.6137812162209515
0.6126466137606116
0.6065491605001292
0.6086263399736571
0.6020208586215501
0.6066465541400359
0.6004271502299628
0.6088459848893958
0.6025497698489736
0.6134539702904664
0.5932307301260754
0.5989575941830259
0.6424246677718501
0.6497918777994521
0.5814674728367156
0.5889685051109679
0.6981040760590411
0.6489032161768132
0.8233320434838441
0.8195247351642302
0.6354814386706841
0.8012633938227915
0.8047591525969474
0.8306909206715548
0.8149882900697922
0.7900313560146854
0.8068030083581262
0.8134095886092323
0.7204188891808249
0.7449198039930509
0.7787820711402511
0.7841805155884866
0.773329326438923
0.6038862596050645
0.7614856560664378
0.7690400997961739
0.6531393364048822
0.9257783774897913
0.9171303787029155
0.9095932136207749
0.9095242556285972
0.7177864449356615
0.7361357681221645
0.7342100975200696
0.9326443486037944
0.6848656494303335
0.9147695623363221
0.9067778847784703
0.9005750918143809
0.8985587935175142
0.8927655580363519
0.8911044593346339
0.8948520855465399
0.8870441304971096
0.5748305748064896
0.5792098789167949
0.5999391737804144
0.8089892102419333
0.8147216355398121
0.7775367567778974
0.7666814439547439
0.7979641171812822
0.7940269848395284
0.6968716230692659
0.6914002169333908
0.7525488155595362
0.7506712635752076
0.571486287707407
0.7007973753085024
0.6916334227264228
0.7995545111008848
0.614379300038002
0.7138335516590899
0.8892397197884478
0.881536413261816
0.6754745604639555
0.6693156458352189
0.7169321051533797
0.633120925127712
0.6529831136456388
0.6627779948944684
0.6113031622011417
0.9112789971938615
0.7517243832265631
0.8553876748599772
0.7205686723177225
0.5636425560791845
0.570676592881153
0.6508505091007047
0.8260341504521359
0.8098267490891071
0.787439940479769
0.6772012861011873
0.6727677956377529
0.6808781491694074
0.6775959172563331
0.6731188773170951
0.6761671134965688
0.6829349224539448
0.6799996718590428
0.6898928631144589
0.6890769000739262
0.697670826682244
0.6959464608928236
0.7064006657904673
0.7027602620800327
0.7090846549437395
0.7116159608753637
0.7100061100680873
0.6746754967591797
0.6432915414021718
0.6441409619370397
0.6532809527014886
0.7190698123829242
0.715458048321426
0.7206109621283958
0.8689761713648972
0.8669424116929184
0.8801437961196562
0.8780324362577956
0.8904068131965627
0.8881904171587549
0.8754141530052971
0.8849840587349935
0.871501334225573
0.27512933357488006
0.9003085993954406
0.9025041701457028
0.6960038078230975
0.765291094946524
0.7666110864694112
0.7566840437374187
0.7574451091595434
0.7478003655401027
0.7481712552746795
0.757610727804825
0.7480755034453483
0.7578627478625286
0.7468769876482295
0.7563912107476531
0.7384624288433358
0.7387271096923025
0.7385570095063889
0.7669742816833531
0.7659309895273712
0.6467759696975336
0.6540665495278903
0.5277319749698469
0.8200650407191992
0.7526776151128082
0.7483660608906578
0.6148883710147982
0.6336065007123716
0.8924567793905168
0.7415761852696375
0.7822850276325074
0.7800800441684259
0.6656588150904846
0.770887921185096
0.7599220910375684
0.61716275775263
0.8794977713779274
0.8656390004401405
0.7553609979159399
0.7499032813727415
0.7445707872693652
0.7402051045578083
0.745404263767618
0.7358194195821884
0.7421254737386261
0.7320485518370821
0.6045676006063243
0.7226168751604481
0.7769838361532058
0.7885873686571373
0.6851922112995807
0.6677475807007403
0.7031506973822133
0.6902243881682704
0.818859577926708
0.8233381531528539
0.931670199414749
0.613031711115316
0.7105166911220664
0.7722187897749572
0.8047164664792469
0.8843038340946481
0.7735266190505623
0.879223194176302
0.8729160877844442
0.8737631729225129
0.8643475335659103
0.672822140494233
0.61314479097603
0.745589694369521
0.696047508597025
0.8088050440234053
0.6562151915078087
0.662593552065302
0.9389281819789845
0.734643570435022
0.8075379831956316
0.8112723293644496
0.7620896666814359
0.760441888017624
0.7693392029269633
0.6951466298506233
0.5495464323039467
0.559404340343386
0.5858415069175474
0.7195487089310426
0.7351107276386177
0.7075084587914382
0.737181272935311
0.7224055500053518
0.7194311732777425
0.7646898690450166
0.7128046548999374
0.7597530029920834
0.7550381065802826
0.7382857578759913
0.7319723826038991
0.7378339542441263
0.8565880369754966
0.7264694003567593
0.7217017407937265
0.7276018268751149
0.7176580644337177
0.8669846965537223
0.8589759268947029
0.8563040983890378
0.848001236195894
0.7987605414464836
0.7930662922446078
0.9116214877079943
0.9137057796263953
0.7293919439424505
0.7296628495428394
0.8111039434859234
0.7219583771104341
0.7122306143200096
0.8146267842755395
0.8048067655098908
0.8195902598898066
0.8065699021398935
0.8307226024044705
0.5463093466155372
0.6176543463194728
0.6241029411338033
0.6693115319809924
0.6809132989306866
0.6714843099256801
0.694288100255483
0.6837500541955226
0.7082776176359836
0.698691659095349
0.7869755508695926
0.7116445847702831
0.8816831765570519
0.9391275184887475
0.9463785784156147
0.9452199351768589
0.8738545149225659
0.7582066676956869
0.8427475947232411
0.7532414580391261
0.7344523949632726
0.687320763899919
0.757254999907769
0.8087320366911285
0.8078943547429513
0.8927189854434189
0.8603654397176318
0.6383266087457053
0.7128302142963127
0.7165437321742261
0.7192389448356435
0.7152829030333255
0.8455128391915926
0.8832147447282229
0.7961833637580793
0.7879075846751163
0.7091935428148618
0.8209524671044586
0.8836092042956887
0.8777168783734566
0.7706525219978203
0.7865301539866562
0.6658077841070391
0.6726827383998041
0.7254409364115338
0.7165951893945889
0.6886067441658354
0.706727454674069
0.735630780389181
0.7265483255989724
0.7541342581575584
0.7460310376226671
0.769794281574691
0.5370447875936915
0.8000961798533743
0.549474638684694
0.649826297686282
0.7165902369377434
0.776500639153995
0.7756321948777756
0.8226128315806857
0.7616576653299738
0.6056144649620683
0.5971717814593975
0.7323458701211715
0.9383196070231873
0.7751241961617094
0.8334011800754834
0.7335761571491141
0.7373357236520535
0.728312855866866
0.7353791682644654
0.6423377276184806
0.7269371011988556
0.657554732177867
0.9222947697406564
0.9245994825492002
0.9164856512929618
0.92758930958691
0.8873579948837146
0.871147869135824
0.7057848901732023
0.7137017358937188
0.8036510305959478
0.8253140173471966
0.6404905193209152
0.7170447853329716
0.7070892742772809
0.6996954621445882
0.8511304176256895
0.7782714863370221
0.7025861077934782
0.936465684786666
0.9400583870824447
0.7878963974105352
0.7895426422864136
0.7765797759546935
0.6868450149916094
0.6222698867048881
0.5216938856630089
0.9176829814226348
0.7587409207537126
0.8683883830867689
0.6338560770018465
0.6722892845752383
0.6130231245330793
0.8419600585714931
0.6492694608513168
0.6421673713066994
0.6478740728426483
0.6411478086245044
0.6456300394192196
0.6360281996979915
0.9531916473813627
0.9506703745730355
0.7584192416819567
0.8815746414051193
0.8235891966092642
0.8201310760971915
0.6744463267394377
0.6772010431718286
0.6618304943427784
0.7589687629290145
0.7398434344218006
0.6800394742173802
0.6815387556216813
0.6790298140314698
0.6839974887740168
0.6686623177349046
0.7270537241250169
0.7674307635462421
0.8142172430245243
0.7441613993136823
0.9188408152734321
0.7708028318166076
0.7298887869763264
0.7087775919549048
0.662678644506174
0.7103521827570687
0.7822368756779456
0.7779882416287789
0.6262279498915004
0.597269997365225
0.5887593104614325
0.5905920688213552
0.6444307308989724
0.5360401968037068
0.5712144000451904
0.9486612947397857
0.9490200810005938
0.9383216138547695
0.8596991786071294
0.8640089607954506
0.8341183669713677
0.6355709288661209
0.6319134337969222
0.7883027074781259
0.714177509337268
0.7136489511663069
0.7055359580161725
0.6997216248291003
0.5179250715707875
0.6975204719446293
0.6877801525043792
0.6785418872693001
0.6675022535181296
0.6631793465944311
0.6746789028994752
0.7972230217921586
0.7213461537186048
0.7205461691261068
0.5895074608221189
0.5800760284444557
0.6722748510175781
0.6749792942356935
0.6793024793550215
0.6836680568747121
0.6837453065064045
0.8557333831041389
0.8479610713966006
0.8640210520565881
0.7614062068625617
0.7265882815863043
0.6662125470600265
0.7919753600745125
0.9599584113052312
0.7643582079502887
0.8425769003193275
0.6744998455901088
0.6618577374649649
0.671472156922836
0.6646209439134906
0.672876662510997
0.6700295021224275
0.677640925888144
0.6765744572949199
0.6842992438233126
0.6565157315214092
0.6695458241116907
0.9528906139348815
0.6948863209348776
0.7394804677271234
0.7296825028602235
0.7640127513682091
0.7219641065271536
0.6528480523837232
0.7768282639206697
0.7051844545528267
0.6007618157081352
0.6325662482056564
0.6867133464650609
0.7350325900693069
0.7339984645278275
0.7338408332805897
0.7242892356920575
0.6206329732231255
0.5025767520464282
0.6875179616927584
0.672642588987419
0.5218649723838693
0.862030331059426
0.8542219959356856
0.8635199199503685
0.8459872798629458
0.6773170514888234
0.7737937852518648
0.6431902093404274
0.779501489122225
0.7668286523836645
0.7146908260364635
0.6957688266506888
0.7802725281788973
0.8960006329729024
0.8879877487694117
0.8961290596563156
0.8880002239958785
0.8947589193829376
0.9045451912344941
0.9201147735308876
0.9405090159371284
0.7023727574938977
0.8532565912117996
0.7157397103920303
0.6626860962285033
0.6688697268433499
0.8819432036864824
0.8809665338463875
0.8733777616664776
0.7877403526578389
0.8084845111993528
0.8168423824977203
0.8264923028770412
0.7061102030141029
0.806008143609986
0.9069645408816354
0.8574345641483121
0.830158922684777
0.8185494448427859
0.8353728561483483
0.665251773763811
0.7516062817457428
0.7472173524996559
0.7562505306015586
0.7537524971771902
0.8563444885976325
0.6528171865326521
0.6353382431481761
0.7158823813040723
0.7395375726665929
0.756387197748923
0.9543754720538129
0.9634794027446144
0.7976617837876055
0.6890546893850144
0.6370000260999279
0.8686915740837416
0.8277278062853206
0.747500107591472
0.7177106515482347
0.8358232349574225
0.8745928766303058
0.8771604391980086
0.8073691528856304
0.834449096285581
0.8036902075611048
0.9465182170187807
0.719728357682628
0.7552034148955077
0.7902444654221369
0.8192994252393733
0.9293192112069771
0.6890358744165693
0.7246846424970437
0.6299669097758834
0.6889355010483692
0.8926357156820721
0.6347542671612659
0.8405478715723506
0.8819234225277646
0.9048512671003086
0.9146863019749372
0.8760902142834563
0.7717080927138087
0.6854259071520143
0.8224632554449612
0.756839758537178
0.7187332812899426
0.7142084862810821
0.6937243663366219
0.6575210009290237
0.6704078540192548
0.7923039038397424
0.7833388485351577
0.8407098041553137
0.621277850028914
0.6298988984584414
0.625684724925213
0.8460258193211664
0.7916710150949557
0.7948963672523465
0.7305042540338704
0.7326905292277938
0.74828174248657
0.7523717988392019
0.7680207703107549
0.7403257776175292
0.7309461085100457
0.7224512779804418
0.711104852186674
0.7258888413537107
0.7020990611428652
0.8383260124605281
0.7384734683596468
0.7469622107232436
0.9571682928314201
0.7707748237853407
0.7662604919640571
0.7570341606297338
0.7503758463785495
0.7608785458214591
0.7485414427577174
0.7484241034478231
0.6516380285170104
0.6501842854339406
0.6435346836588688
0.6477055760667125
0.6544935873559974
0.6503680066876224
0.6584983112529417
0.7133141395938426
0.6553922449931598
0.6628711019190574
0.7646546114819195
0.6496097308285996
0.6670733782855849
0.642079022118437
0.8605615064115257
0.8675026552065355
0.8560924485181066
0.8648768234162368
0.7714113425267223
0.6719682771591592
0.648679233975035
0.6000096934296391
0.6139525774572497
0.6255207340676876
0.5597038236689699
0.5682443115518074
0.49539115369553033
0.5214891016926476
0.4735724307678843
0.5079122728444815
0.4857823969722055
0.5125161066967787
0.5059749689584788
0.5246921831585438
0.5301342256675454
0.5406426922265893
0.5494104951836221
0.5588866560188306
0.5694367510033975
0.5771157565695403
0.5882624925842123
0.5943328699579945
0.6052123036612768
0.6103084376873931
0.59872798156542
0.6137820684948184
0.6232955254378261
0.5532246947613183
0.6012967521417679
0.5656676771090469
0.5825111672245465
0.5159730814076772
0.6040151940350837
0.6175990807946413
0.6280727231625086
0.6307966186406544
0.5359732567727281
0.4597362235977207
0.5894672979016954
0.4651075034354099
0.6410409673395934
0.6425929921234323
0.6324138071597788
0.5968869225206995
0.5843418504700278
0.6391566011496661
0.6516013687866965
0.6504892078531574
0.5741832349091402
0.4963716586440988
0.6435127306373597
0.6347502371562226
0.6244890667455668
0.6266278583152745
0.9253816238875201
0.9145868253208026
0.7026943211839376
0.9067204883808706
0.9196001609024825
0.7355000200577164
0.7451064619697617
0.6687450693575914
0.7824596643725943
0.6534668664091771
0.6964912400048626
0.6939332011361228
0.6975942882044617
0.7624121779097331
0.6776419856926288
0.7428767373149847
0.7411248507147008
0.7015629739613155
0.6767541322614289
0.7030950388075003
0.6637615350293522
0.7307755136755559
0.6847837800383895
0.6921272285548389
0.6915819308308633
0.7138675699648666
0.7221156418147261
0.7134504626450293
0.7210730497326924
0.7120326466104435
0.7198050154920536
0.7107718191501169
0.7181669127630568
0.7274816747262869
0.7244539470656554
0.7639153952561505
0.7549829136026085
0.7567352274158837
0.7461070185476619
0.6339120176799456
0.5818856514605291
0.5733079826387911
0.571354906793634
0.5637147295116353
0.787219422089186
0.7812493706274046
0.7981444852617225
0.7075701175847506
0.6707606981695342
0.6639477726545162
0.7381359683334588
0.7370096451668624
0.7022855264877089
0.6917615466632008
0.6975664501214771
0.6826045396677688
0.6592949754731089
0.6680631304216199
0.6434513899717687
0.6490129860284344
0.6792037575032002
0.7866838117277487
0.6479742734758929
0.6004598109383009
0.6607004132796898
0.7024311679637009
0.7253255156713616
0.8686703421099549
0.8686218832229907
0.8587181052020487
0.8070319955493868
0.7726668920635207
0.6878819602201454
0.4764015309850275
0.476688751991936
0.6374954489262384
0.7503589379063078
0.7728704333156098
0.8707845322974427
0.880131417331827
0.7597632408266372
0.783052244672888
0.7925508462248922
0.8155380633500009
0.8016016407145131
0.8046898698837377
0.7263877106963146
0.7365287294596788
0.7457505886998689
0.7351631336578524
0.632031327233989
0.7371596063675202
0.7369098711934169
0.9103034247016872
0.5638828239937325
0.5525986268789859
0.5572018677692974
0.5460517860850294
0.6858951151549879
0.7109927805957026
0.7131673304679829
0.8241667192319467
0.7130163490459966
0.7942901186978036
0.7811408996108629
0.7736031221130937
0.7570155805217449
0.7559071295092483
0.7697721150571809
0.7489930470866456
0.8715837645594912
0.869502816198598
0.8537283225046698
0.6537915156117736
0.6529182659392052
0.627715987968662
0.6318734026973033
0.7569048682603222
0.7476110157405463
0.6514996583353427
0.7918845540489172
0.7492778534205935
0.7385213730375034
0.6834404936266391
0.6928079100922047
0.8400923777994381
0.629058484905107
0.6305986269927802
0.872688988014099
0.936017073972582
0.6227815191319768
0.6217786458070927
0.6645014415108904
0.8697749044638372
0.8527438465805516
0.8322880547717563
0.7616432063993817
0.862408448234075
0.7094042912836962
0.6323661254573454
0.7197107468096972
0.7857180443778827
0.7456660216684327
0.6283285462808635
0.6794843076976105
0.8514021095332889
0.8504042496278637
0.49822192361037
0.9592092353336439
0.964380618345622
0.788615708658275
0.7967646664092821
0.7974187575722298
0.8059204872275958
0.797858764826314
0.5755786410765056
0.5743021073361658
0.6570976449945933
0.7971846559060155
0.7355352294086732
0.8145994422436682
0.8634986263906202
0.8737941779806288
0.5427623949911201
0.5323293853849987
0.7072635270698402
0.6252830359384959
0.6203009417762848
0.8464234156294169
0.7065551688269972
0.6740231738833367
0.685905270661034
0.9654786649625727
0.9706837067289706
0.6718535428097439
0.6677012665283764
0.8049734164269876
0.8223811953943404
0.7086780307016565
0.7018577507929883
0.44542335860089716
0.9658061116241248
0.7040049496253398
0.5962247303476806
0.6052768704296256
0.6418037988748395
0.6924725220839214
0.6592043741311409
0.6489412087078753
0.65777168236713
0.6490814054924535
0.6568677897226429
0.6472922213282144
0.6392585951904782
0.6358523851499055
0.6258247390548624
0.6255090855877754
0.6568078085168162
0.7819972787303238
0.7015580032449158
0.7063527978051706
0.5395255631340286
0.39314297157219646
0.3873036354042334
0.5077676627672484
0.4432575825908272
0.4141031576876049
0.39032135719477845
0.37130885428589255
0.6374099094636988
0.6239690908700297
0.7068039760024293
0.6915604479950099
0.6954048803413907
0.8959515283678198
0.9097488327549259
0.6905703280534167
0.6943021657116191
0.6854757391979731
0.6043527665622526
0.32524654313796597
0.6349092901219233
0.6228675919637252
0.6124720150743406
0.6123282834308287
0.598671813582961
0.7038706196908643
0.7116928890079319
0.4256319140530535
0.8340392649648934
0.8428141893602724
0.781488320843975
0.6940015524765808
0.6084075158028622
0.60319045645355
0.6743279937219931
0.7048994313330121
0.8188505830382992
0.8019322118624653
0.6955121320825236
0.8129283315138636
0.8185950393529181
0.8292423156320532
0.8351973580937788
0.6903399336475842
0.7138433237725444
0.6947803953186978
0.6795560502800894
0.7360806516361948
0.727788172609704
0.8415371109245772
0.6384250012796995
0.5637808212213463
0.48647328749508884
0.5034369691171807
0.5303850993271413
0.5300887476397438
0.5521444638270399
0.5034887588712743
0.5578152766430587
0.5731738537687735
0.5349493214255499
0.74935301058821
0.5758272615145403
0.7211369586668098
0.6628320197061867
0.835000752202641
0.8404309817182963
0.4730668401815827
0.4720862672170406
0.7537479306274296
0.9139023495664454
0.9208002940077507
0.9236349438183681
0.9295530041558737
0.9322069657865548
0.939944205035797
0.7032865842609264
0.7147255882336094
0.719650955772274
0.7237934781329878
0.7262596232157321
0.7259993132541495
0.7300964412588479
0.723802643901172
0.7234128242051735
0.7311267171540371
0.7224543365817696
0.7376312752576354
0.7354835375342342
0.7430921297024584
0.7256407673457247
0.7107531597830195
0.7409174285912762
0.7171771288895975
0.7321016501653681
0.649908419183186
0.5539384850047236
0.6219682657320885
0.4986782119148202
0.5064601684923383
0.8374697174812071
0.765000573133157
0.6568425551743902
0.6435708440756652
0.6452191249446355
0.6434557107356881
0.653464422706528
0.6475751868729164
0.6531104007184086
0.6462680258517426
0.5335021315624808
0.7404453225239709
0.6899792529471692
0.7071877639390016
0.767272652448952
0.7537290144788455
0.7842483523227365
0.7023433826257545
0.5609167791290226
0.5635379038012582
0.5751901503168404
0.5821859958325852
0.5923992436169219
0.5844763228407556
0.8034544538512135
0.6359392192472536
0.6335239440138811
0.4332340775213783
0.7567150050653707
0.9308338179892237
0.7040837534831705
0.6159280106492293
0.7275818477704614
0.7233831038533372
0.9140701718316555
0.7237985647652894
0.7135023605924623
0.7156883421402808
0.7085523699453867
0.7112347500025106
0.7035862886409407
0.7002132879299069
0.7061418254202397
0.7133850794900175
0.7049191617506488
0.701702517155886
0.7179297365357202
0.6958095925349743
0.8015652057096352
0.88744100273762
0.6696856300067413
0.6800301429550135
0.6637525871829457
0.6886468100492211
0.6011690067268166
0.5826592428393157
0.5988392133057181
0.579059314846176
0.5614062228711028
0.5587082117348644
0.57448381398902
0.6233452756643474
0.6742223175406782
0.5945983301182952
0.7831842822182746
0.7119727681548996
0.8047079667611275
0.593252616839363
0.8257194449081251
0.7648778007565571
0.7711834838360344
0.6219600878955518
0.6911375785291441
0.7007247826449986
0.685586527679899
0.6760808758952456
0.6520125485371854
0.5850382368958246
0.9460667397283646
0.9090287510454309
0.9559202994613099
0.541099164098162
0.7818407508760791
0.7986861423510587
0.8213995257648667
0.8870607646303663
0.667523617726372
0.6912649224834233
0.7606925361160781
0.6069697841816257
0.6133281724447027
0.6093393555749889
0.6376072881475799
0.662493716212715
0.6853096650711178
0.6247031533435364
0.6372652794731809
0.7674304280951192
0.791388718723245
0.6703050564600428
0.7037737666584305
0.6452224429158218
0.7674225962591009
0.7353480741066285
0.8167609459698303
0.6460261651560555
0.5142121701014503
0.7678961775850638
0.6022944088681171
0.8415896848953307
0.7329011464388481
0.7041964981776717
0.7099939059497149
0.6991877650825101
0.6885754329952376
0.6492704720434965
0.6051987118658646
0.630397858535148
0.6613552873546102
0.6583212436028699
0.6978511463006145
0.9219528717042201
0.9095285821902325
0.9115996581256406
0.9035216294794253
0.8945187206571268
0.8931638166392866
0.903279655513021
0.8502424845225014
0.6747189471012283
0.6491589491425601
0.653838118036358
0.7658155807925505
0.8326606323157338
0.7349802379186442
0.7349908617688184
0.7408753840315789
0.733801414773949
0.7329095890899563
0.7604053188949806
0.6995226606587137
0.6249187739668143
0.609952412586377
0.7258778148793188
0.7171422094853631
0.6465246171295618
0.6776888424778531
0.6715895478897099
0.6617205348900329
0.6632636827036346
0.5344265139475673
0.36387680786566434
0.959818973012978
0.959025808825131
0.9509590652054123
0.9663611597268033
0.7174109133061597
0.8829879212077779
0.4963620141124211
0.5425235314973059
0.6750988278062061
0.6688276108693895
0.6802467082862912
0.6555291483567005
0.6475602546757687
0.5835733011886476
0.6858409399009947
0.7867917122507384
0.9711159625745285
0.6652555008875749
0.6639619939989228
0.7432504996509047
0.901961542321307
0.7953114018627587
0.8026718596879729
0.7820908970450091
0.6738878370462659
0.6659802902621165
0.6574819626393472
0.6599943945605455
0.6482257399238821
0.6548672454532317
0.6306773339951188
0.9636664876246099
0.9213273436056798
0.9224923384480912
0.9338711322336426
0.9336090659522072
0.9429659442363746
0.929874916520673
0.9366802605577396
0.5970436236419224
0.6378895839732713
0.8280159420401072
0.9558141334363336
0.7472578186169759
0.9338330516753546
0.9422822086117782
0.8545343018598478
0.7570223926305828
0.7479037625904149
0.7369381588531141
0.6346331653743934
0.7413887148407872
0.8631099067254197
0.7073714702455961
0.7098327863628884
0.7171806080339359
0.7025530976706232
0.7130824516694768
0.7129015744775546
0.7066846536502517
0.6990585119901485
0.7456148468953306
0.7219142075028002
0.7182277357448448
0.8377820338104034
0.796702415481696
0.6969525548077066
0.6359903450852437
0.6196625008685336
0.6933149722513973
0.6586070542062322
0.6629085541301851
0.6727510089087521
0.877510059598948
0.8891129844239328
0.893012944374336
0.8873221613833476
0.8746379912435206
0.6528448873906801
0.8174818786262432
0.75477145210304
0.8970794272058317
0.7739708815456525
0.6881593725817255
0.7371314035608995
0.6282048313567691
0.7546539165330076
0.7659469370125161
0.7308098025266767
0.7818702438207187
0.8262478509910972
0.8289333384564415
0.8414052727269498
0.7175091214499272
0.7907044018358862
0.7085807464599707
0.6844721402923408
0.6934833376148268
0.5976658845317737
0.7028516485356787
0.9451549211887228
0.663018901752901
0.8419682928812336
0.8395350438535684
0.8503379513867524
0.8362599101929519
0.8463581948698535
0.8644932095788572
0.7367576379268986
0.7508887760729522
0.7480838471553378
0.8032822451088278
0.7269389309725132
0.9383617848567547
0.7841441738389201
0.8265662188290339
0.9252212410408485
0.7299255092465543
0.7102669044621863
0.7970389316618994
0.6542482800574954
0.2571992948932251
0.9236263772046814
0.6982678506761445
0.736836142186855
0.7522115312317074
0.7093248010296272
0.7237930782660917
0.6912386792587388
0.7181400930652316
0.8109113312204634
0.7302283185862615
0.729545758013149
0.7876306019521688
0.760116336189212
0.7488303187525127
0.7952553540688786
0.8532655506260068
0.6721375776161028
0.792118424573933
0.781627991655987
0.7687071147432107
0.7588887298311949
0.761234506704062
0.6511103624106777
0.7310414566275522
0.6066814586674933
0.6715578053169428
0.6592108775841548
0.786861129725854
0.744312415433566
0.7740933465755246
0.7670844305333896
0.8324851710119264
0.8307230262857919
0.6401144107676181
0.5697443163882889
0.7073194206570982
0.7857153430225698
0.6449107445990021
0.7608339652791455
0.8926577840569623
0.7155604511985567
0.705873838721289
0.7149340842581199
0.7112758468655895
0.9343300496943726
0.6273215295778131
0.7240812805799325
0.7590544592958555
0.7673904776942753
0.8970483526395036
0.8840727386030441
0.8700346458682161
0.7389227579798788
0.9614526861932894
0.9778113751718539
0.8494569679472769
0.883413709611005
0.9430414430759003
0.9495917419236317
0.7649845387976586
0.7137251602719223
0.9728110533691495
0.7800801136745256
0.699529598952093
0.7284496791317641
0.8797963890550257
0.894406389808655
0.7239969500857356
0.7932993145917195
0.8508938089827934
0.6865387742753708
0.6362598357910856
0.7450904816091706
0.6779648968326266
0.5356779812987407
0.7290916822290953
0.81720095323654
0.5223922106865447
0.519177540766761
0.7991608209432859
0.7505828115221441
0.8081206540342498
0.7070559707912838
0.9082281801422909
0.6205791854638978
0.5549824143673351
0.6325746565756801
0.7634080253096978
0.801199206602722
0.6983405740999449
0.35642678207543077
0.9310525623068227
0.9018982697626351
0.708002985095799
0.8468510930494183
0.7471036391198962
0.8374560841026021
0.8550901960657864
0.8322427553733188
0.6719631814075833
0.7076665246590929
0.9545264522787245
0.7956504650792213
0.8260677888850865
0.6932671287653158
0.9479542825190599
0.7725378206165358
0.7205898766895593
0.706236469679084
0.6402534458658548
0.7249012129999288
0.6490341472882597
0.8038280410254941
0.7284550860207689
0.6364379377483216
0.9017407780779761
0.6409791892476542
0.6340039837777692
0.9296263863481504
0.8321976530476702
0.9048276795386841
0.9048898793311412
0.7317106404826925
0.4283033805028036
0.7385477377872605
0.8315274620100669
0.8359110008559426
0.6003655868319902
0.7306517634275478
0.7800855962689277
0.5046487088911787
0.8632993271033793
0.7029761134765646
0.6216760528827417
0.7135169997198079
0.5631112490509212
0.5897403952827049
0.6841917677537221
0.7888439642374028
0.6582038471910769
0.8247300141971966
0.7205979509611182
0.8488642606318214
0.8217286793579374
0.7070746732700113
0.8882095278933424
0.8375631205508999
0.6832351965027077
0.6341546189196159
0.6170134464312972
0.6897250685708823
0.6352378596574701
0.8438040019783863
0.9068111224624515
0.4145155896338613
0.45784385074857525
0.48550999682862833
0.6196789231449388
0.5152487785711175
0.7058513882173523
0.7689055944355458
0.7615247288856751
0.6090213626176438
0.6283174066526819
0.6436636256019003
0.66788644147149
0.7180891580772151
0.7910002737060947
0.7259927795646192
0.7385593300490537
0.7218041998794569
0.5929233488095025
0.5534280522690657
0.699226942213345
0.7180365964283886
0.9650127199142856
0.5718378183716567
0.8943003869979438
0.6373371965440752
0.8524928532462722
0.7218653113811558
0.8815375184445196
0.7205994920465668
0.679900294189636
0.638032344039464
0.761948947017696
0.7964707485309118
0.7778922628095266
0.8982703582694553
0.6640741978730493
0.6114395305407238
0.8049055200490495
0.8832582450747879
0.6475773499227323
0.7826022799915858
0.6900050904901939
0.8503254172166037
0.7465660260976219
0.7569573393143139
0.5990392932014424
0.740321114943309
0.19230244619751818
0.6808436846635642
0.7313074992711208
0.6721686351009205
0.658456238621949
0.8282709752227735
0.8724928594925475
0.6569071157735679
0.5968843244954504
0.8848942087032865
0.6216094036100082
0.7655624078213766
0.6675462296419435
0.7269487548695438
0.623024297931275
0.668560387453467
0.744883309811132
0.6963424428447376
0.6845814732640442
0.5785208358554007
0.6018069235674031
0.7976438970186589
0.8592019691398144
0.6719722620259748
0.6629173188914447
0.5832941268622086
0.8611573051540634
0.7185695248150336
0.6442438654391152
0.7200427142963789
0.6668298685582769
0.753040040039404
0.798702804993076
0.7866112543835153
0.7539016660299037
0.7808960713950786
0.7296558603535032
0.7852030424476024
0.7063838671135878
0.541563467504987
0.6351420243229023
0.6740787329479052
0.7256895852063999
0.6158190762362824
0.8712048083150756
0.6993824452925647
0.7159511381048975
0.8174793676535945
0.7800803637926468
0.6091687586286897
0.7120107544100229
0.7033702422514406
0.776949628568515
0.6363485817116438
0.6706989538758813
0.41474198190083866
0.7714907634254687
0.8450990025152341
0.6390023564971844
0.7768051913204459
0.6704989459819609
0.8205781432409408
0.6317324341845342
0.6890772242229953
0.6447759527189603
0.8241533404289982
0.7907966346928214
0.795201821353768
0.6849664025237746
0.7505881135323628
0.6681072767751122
0.74499357016012
0.5746248099104342
0.8152617128693127
0.8946282573545774
0.6745712353648033
0.7239289122386152
0.7708859556069094
0.6720521522917423
0.6198272735231005
0.9409650168973905
0.6262164675894258
0.7784900512643029
0.614437797753008
0.7503617601514656
0.6982104026700575
0.6056074372859079
0.8165104395651112
0.44084721865868914
0.6217748124406957
0.8317168326003246
0.7883989762875259
0.7437506765866264
0.7001225785101916
0.6748607161833419
0.7581755462911041
0.5660934885432942
0.7204013961301843
0.7444656413929817
0.777037849176669
0.75394322524632
0.6444447599889336
0.530733256924482
0.8537340826660904
0.8718971912101019
0.5890510463832372
0.719620211666004
0.7273760907598036
0.4899599178229824
0.6310564931608135
0.4737906905976797
0.5033663768001047
0.697697180425556
0.7323809802037584
0.6960931765478209
0.9262901460363003
0.6187042787620554
0.9770511828549261
0.644340611336168
0.7500513954073419
0.7553992744134589
0.6070241142720019
0.5562008274735569
0.5733853585414986
0.6877235529602139
0.831349171387666
0.7793815306321098
0.7313576907209561
0.7214904674562742
0.731394629534388
0.7306836634264573
0.8222786287825676
0.4766659268789696
0.6139261314045424
0.7188310858580637
0.5808621598160478
0.6895025209758493
0.7892531394630804
0.798990682692633
0.6571988771464098
0.7620956479874123
0.754043837843426
0.6885218697789846
0.6957953960912534
0.6973529667506368
0.6759259535105712
0.8830241005768412
0.7427502658842933
0.5897311824393479
0.6629466915218815
0.6465829352109141
0.6389862046923913
0.7352486939917315
0.7560311848687806
0.637866627319293
0.7582510623278851
0.7046611443128775
0.899806803035708
0.8485109853210784
0.5543038393504108
0.7357903360147071
0.6957072540455974
0.6181465447223314
0.8549734319824399
0.6870792288913278
0.7253484116544253
0.8054182316937271
0.4713337237076064
0.7997236896490134
0.8647207169914201
0.670635950623866
0.9239797496435442
0.6296764065234804
0.8545977627341823
0.744828138048511
0.7864225859130886
0.6604279861423611
0.3855743728765179
0.5683979239257807
0.8103175121023634
0.6710561817553595
0.5890509897212343
0.6962634074478161
0.701709377647452
0.6344793073044058
0.9149107751993005
0.845769500539597
0.6779351915967383
0.8771447092715242
0.6857379683219875
0.6676900768152121
0.7641583828562064
0.8960427822487568
0.7375961769249114
0.7294703175961309
0.6988044310725403
0.6630672197072437
0.9587262197386593
0.698701868248837
0.7087775471432652
0.6447723313271914
0.6760339834804652
0.678678580816752
0.7497154579737202
0.72896399026429
0.5535105784839341
0.7762438169556799
0.8437801537357915
0.8675514363450272
0.7476505587455607
0.9441433708740546
0.8139591089231402
0.6953654376955709
0.6582053476287681
0.6258459028080736
0.64149759727233
0.4529961896992821
0.6983493691876146
0.6825627020096144
0.5862583330218631
0.443635900321297
0.6297812763573922
0.6146851414770171
0.7095904936258606
0.6309056969537733
0.7890156796995518
0.8946014966553769
0.6436222977038415
0.5359193892835578
0.6450336195700483
0.45230250965403795
0.7142607441310757
0.5477035677093199
0.695363625701774
0.7897890151559412
0.5805384952717125
0.7482565419015864
0.8356041899032747
0.771404863300906
0.767966127871904
0.8958144857578668
0.8448178282915152
0.8501301765053026
0.7378378908482952
0.6978869063656298
0.7269376066336741
0.74111106799955
0.6721571580881851
0.8517666333333089
0.6348683399281216
0.6030049134173726
0.7064785051887785
0.6451326795912284
0.7793847974589675
0.9902695091752717
0.9927279537955243
0.7642832520054526
0.5555287128971513
0.7558387548940231
0.9290905470739553
0.971144571510174
0.6811349388797512
0.6823956204652565
0.6365398792005212
0.66674809275431
0.7075197773020916
0.7041031356749707
0.6225097815224672
0.6185325980533445
0.5904260552891609
0.7679915432258042
0.7758558711583384
0.6514110672221022
0.6428023817483763
0.6144777713187328
0.8889472881692553
0.6319645173690828
0.7661205126368847
0.7383598047511428
0.7048423854942163
0.7013717738039983
0.6246721918143773
0.6795541407135748
0.5048374791823117
0.6774243267208299
0.7436678219011849
0.9125231621196065
0.7107295918739881
0.7425837403711547
0.6253276740970851
0.735855454097252
0.5892960376286147
0.7311374802575819
0.6854106225885302
0.8447589007857007
0.6769762365009098
0.6390640706028854
0.7783431348574172
0.6653459924064856
0.6793668507195257
0.6322683857977656
0.5318331576861647
0.8721866878376213
0.6406860628615054
0.7247351518798844
0.697635710816858
0.904618444412504
0.768771276052456
0.6052675559809989
0.7096570471163616
0.9476577962750304
0.7708020035984533
0.8142759465900969
0.6438872368954035
0.8842122818465212
0.6767303332178836
0.6669856036866483
0.5652168353241674
0.8277022441494117
0.7514404368160533
0.7325171634669958
0.9190388098810091
0.7536186463640524
0.7265378824241706
0.9428272494722476
0.8631401895345681
0.609614634712174
0.728349916704324
0.8535638843184473
0.8437508028961392
0.9364338357513928
0.5615481719266637
0.7738936571972312
0.5675186954167097
0.665843726924194
0.7503952195881373
0.7150296393499974
0.5476858735899407
0.721040497651707
0.7461633692179785
0.7033457227572735
0.6408950842924502
0.8599147649541835
0.720017316604303
0.6300464201639937
0.713868312919895
0.7452655733084185
0.8276736841251237
0.6790349338501972
0.683540070694677
0.58728179390061
0.858878624463714
0.7152601845410806
0.6502193561892845
0.68196657186205
0.7799624770008373
0.7521037814335507
0.6291064152502925
0.6965560404541967
0.7654272326321884
0.7120636275028348
0.6880837378710294
0.7130495515059825
0.6664944787808059
0.631282249447236
0.8591064536382352
0.9647346076631133
0.7356694132269644
0.766494401112397
0.7676938262392669
0.7198404622559004
0.9613194879946836
0.8053727359844068
0.7279730087721641
0.6962521213250662
0.7215548610552629
0.6939792585374727
0.7155876480276101
0.6713028215223448
0.7030869594642566
0.7131233960353057
0.6714978263631465
0.7305071794204915
0.8819334120192898
0.7009426587091041
0.6576648476463296
0.7044046676172363
0.8428491997220999
0.6745997949417663
0.7028351723476168
0.7285041036573867
0.4478331405981225
0.6929548630753788
0.7017966983193391
0.47158852823968256
0.35336801261364853
0.34229169265643516
0.5968420720507979
0.6127240870115284
0.7817429705336627
0.7225150235606022
0.8571366169043284
0.699805507515617
0.6013303965499236
0.6688828249761329
0.960328466622263
0.7317437950361366
0.6854328124518999
0.7872315484722208
0.6861934782026027
0.581609340498934
0.8277145408946945
0.6145800931937887
0.7179862082268957
0.6771408059991834
0.6808526736101167
0.8825045132488578
0.6433692855755243
0.7228000424833264
0.6231388376063011
0.7106200018223642
0.7677491899761388
0.8491510340514002
0.9332155405055418
0.891468232125487
0.6530342317168726
0.6979168751137428
0.5372536287154556
0.8158614979881803
0.7070914113906966
0.5624045351688292
0.6873903791093325
0.6353567938637298
0.8131585332231857
0.7033294736364842
0.608626182035978
0.5876728845632699
0.5865822008561407
0.8358053166119773
0.7017682366131032
0.5437973744393682
0.7251975935613914
0.98517804261081
0.7761401000990138
0.6283016980843235
0.608278960909075
0.6636245093187886
0.9447766961838704
0.6814516553095864
0.6772688779451366
0.8466548204972051
0.7777412597356551
0.7719113488358184
0.6550793081527775
0.7459001721221231
0.9717782830240699
0.7020144820973869
0.8180771376907143
0.5039704175692119
0.9280695623216669
0.5450981093297812
0.626061940273748
0.5938593533394572
0.6886474422205318
0.7701173123086898
0.4368981949791297
0.6490366435936487
0.9711396223968007
0.844185852922888
0.6660323492574096
0.8147451570661626
0.7005416694236922
0.861989870260297
0.6454609281586429
0.2763545037248846
0.6954476797181489
0.6828813129797252
0.9647582624979631
0.8429358580275617
0.7047346990472675
0.819137373991577
0.9718972487373623
0.6346692549145486
0.7906677957192142
0.662465649677822
0.5602935474590909
0.9614649520379279
0.6936305564767078
0.9116765945802926
CELL_DATA 4886
TENSORS stress float
-1.2222845221882613e7 3.862892611260856e6 0.0
3.862892611260856e6 2.3622470817767896e7 0.0
0.0 0.0 0.0

-1.858019556434241e7 6.747848183845281e6 0.0
6.747848183845281e6 9.974395289274918e6 0.0
0.0 0.0 0.0

-6.3798985182890175e6 1.9094146559701823e7 0.0
1.9094146559701823e7 -763995.5677007881 0.0
0.0 0.0 0.0

-4.988047181268491e6 1.7503812076220416e7 0.0
1.7503812076220416e7 9.90104638672294e6 0.0
0.0 0.0 0.0

-3.640275522970653e6 1.9539446804000758e7 0.0
1.9539446804000758e7 111418.52671484696 0.0
0.0 0.0 0.0

2.0243834927743047e6 3.729367540970807e6 0.0
3.729367540970807e6 -5.053534643581333e6 0.0
0.0 0.0 0.0

3.2145954554279275e7 1.76879397288972e7 0.0
1.76879397288972e7 7.325680189716577e6 0.0
0.0 0.0 0.0

5.202683859602604e6 3.822333104260634e6 0.0
3.822333104260634e6 -2.885089050152914e7 0.0
0.0 0.0 0.0

-1.2122921752613334e7 5.620795308874563e6 0.0
5.620795308874563e6 2.491432085364882e7 0.0
0.0 0.0 0.0

-1.173292841555885e6 1.6089069162282318e7 0.0
1.6089069162282318e7 1.1625874399321374e7 0.0
0.0 0.0 0.0

-1.6743944699587398e6 1.6207984033446861e7 0.0
1.6207984033446861e7 -5.323455849691734e6 0.0
0.0 0.0 0.0

-2.892120241629379e6 2.2895300886471793e7 0.0
2.2895300886471793e7 961152.3692609732 0.0
0.0 0.0 0.0

3.5317302726025563e6 8.26551731022039e6 0.0
8.26551731022039e6 -2.6877589760275103e7 0.0
0.0 0.0 0.0

4.8931389601341456e7 2.0259368585072353e7 0.0
2.0259368585072353e7 7.774195255825187e6 0.0
0.0 0.0 0.0

-1.674920773267214e6 1.6634516725242067e7 0.0
1.6634516725242067e7 -5.367112518504975e6 0.0
0.0 0.0 0.0

3.7913123379693553e6 4.501964858771643e6 0.0
4.501964858771643e6 -1.231765217016425e7 0.0
0.0 0.0 0.0

-1.0612312822472947e6 1.3617513928375756e7 0.0
1.3617513928375756e7 -1.5037355005326226e7 0.0
0.0 0.0 0.0

1.5970445384016102e6 1.1533489103334257e7 0.0
1.1533489103334257e7 -1.96353256692651e7 0.0
0.0 0.0 0.0

-8.230909971207658e6 -4.873168388460617e6 0.0
-4.873168388460617e6 1.6747115588868653e7 0.0
0.0 0.0 0.0

-2.2469173805560926e6 1.8379685047604572e7 0.0
1.8379685047604572e7 -4.515056954279346e6 0.0
0.0 0.0 0.0

2.848269998379697e6 9.678171818813927e6 0.0
9.678171818813927e6 -1.4348084861953769e7 0.0
0.0 0.0 0.0

-2.2151754274530285e6 2.2740147401489776e7 0.0
2.2740147401489776e7 871683.5246736956 0.0
0.0 0.0 0.0

-7.138954611736592e6 5.387116318635272e6 0.0
5.387116318635272e6 1.0946493177533232e7 0.0
0.0 0.0 0.0

-8.622925694460789e6 1.838514624142365e7 0.0
1.838514624142365e7 733844.7278079065 0.0
0.0 0.0 0.0

1.8872840167173026e6 1.0487462726328446e7 0.0
1.0487462726328446e7 -2.469557290271257e7 0.0
0.0 0.0 0.0

9.135039801152386e6 2.8763321546479903e7 0.0
2.8763321546479903e7 -1.0847140121776287e7 0.0
0.0 0.0 0.0

2.1404335569307726e7 1.6205126205479331e7 0.0
1.6205126205479331e7 4.1871197149371966e6 0.0
0.0 0.0 0.0

-1.2443178773051493e7 1.2144929686314167e7 0.0
1.2144929686314167e7 1.791660427140089e7 0.0
0.0 0.0 0.0

4.010618393042202e6 4.599095197550593e6 0.0
4.599095197550593e6 -1.2411268740678487e7 0.0
0.0 0.0 0.0

-4.509198028743217e6 -257664.68188835707 0.0
-257664.68188835707 6.357236058786595e6 0.0
0.0 0.0 0.0

-8.542964827004753e6 6.566279200170245e6 0.0
6.566279200170245e6 9.398781930916322e6 0.0
0.0 0.0 0.0

1.5667129214710821e6 7.701162147011678e6 0.0
7.701162147011678e6 -7.070098469265869e6 0.0
0.0 0.0 0.0

-722387.2301619938 1.5650796721202632e7 0.0
1.5650796721202632e7 6.288115267992722e6 0.0
0.0 0.0 0.0

48982.840000486525 1.487969191678688e7 0.0
1.487969191678688e7 -396522.60876074946 0.0
0.0 0.0 0.0

-4.965520238161165e6 1.808401013739424e7 0.0
1.808401013739424e7 4.281107040092378e6 0.0
0.0 0.0 0.0

-7.363396495057868e6 4.907236145181976e6 0.0
4.907236145181976e6 7.807114032084709e6 0.0
0.0 0.0 0.0

318602.306962166 1.03784940415331e7 0.0
1.03784940415331e7 -5.968782274435964e6 0.0
0.0 0.0 0.0

-4.500179039126908e6 1.792180309897027e7 0.0
1.792180309897027e7 4.521092623096674e6 0.0
0.0 0.0 0.0

-1.090535726162821e6 1.280832023491466e7 0.0
1.280832023491466e7 -2.4431815902902234e7 0.0
0.0 0.0 0.0

-3.9596937519961875e6 2.1003548376586333e7 0.0
2.1003548376586333e7 2.5042800153788296e6 0.0
0.0 0.0 0.0

2.8795953537473697e6 8.43811443483217e6 0.0
8.43811443483217e6 -2.9295412580391146e7 0.0
0.0 0.0 0.0

-8.461793594072856e6 2.0424618097934e7 0.0
2.0424618097934e7 -2.2555886990458877e6 0.0
0.0 0.0 0.0

-4.042550319061472e6 2.0539161440303605e7 0.0
2.0539161440303605e7 2.296105379712948e6 0.0
0.0 0.0 0.0

-1.0810294223143661e7 1.2863317710791412e6 0.0
1.2863317710791412e6 1.68689191475255e7 0.0
0.0 0.0 0.0

2.4956324425701406e6 9.628038762868289e6 0.0
9.628038762868289e6 -1.5645393614895705e7 0.0
0.0 0.0 0.0

-1.1167408980909016e7 1.3520373367867844e7 0.0
1.3520373367867844e7 1.7418277699192762e7 0.0
0.0 0.0 0.0

-428710.86688538827 1.6039848614405386e7 0.0
1.6039848614405386e7 -8.869318402402157e6 0.0
0.0 0.0 0.0

-140414.72031129408 1.0042947546689853e7 0.0
1.0042947546689853e7 -6.538452214433659e6 0.0
0.0 0.0 0.0

5.19237527493481e6 3.9521604386010147e6 0.0
3.9521604386010147e6 -2.4330607472473927e7 0.0
0.0 0.0 0.0

2.144944492575929e6 1.3854453521105262e7 0.0
1.3854453521105262e7 7.149815264567965e6 0.0
0.0 0.0 0.0

-3.079667635360283e6 2.0319421763903663e7 0.0
2.0319421763903663e7 840682.9639090572 0.0
0.0 0.0 0.0

-1.3284894280808209e7 4.0661172678030757e6 0.0
4.0661172678030757e6 8.70376994683224e6 0.0
0.0 0.0 0.0

5.260712188374797e6 3.944564270669969e6 0.0
3.944564270669969e6 -2.5043035075121835e7 0.0
0.0 0.0 0.0

-3.4985531686561606e6 1.9110864871352352e7 0.0
1.9110864871352352e7 1.4856086862841006e6 0.0
0.0 0.0 0.0

1.8680476806374528e6 1.4375589187242629e7 0.0
1.4375589187242629e7 8.962628282923065e6 0.0
0.0 0.0 0.0

-6.32854553841232e6 1.9095642203490127e7 0.0
1.9095642203490127e7 5.294494023506765e6 0.0
0.0 0.0 0.0

4.938221134774035e6 4.233948675110878e6 0.0
4.233948675110878e6 -3.1266258755502805e7 0.0
0.0 0.0 0.0

-3.5986344513122514e6 2.1139283541373618e7 0.0
2.1139283541373618e7 2.5866764961746233e6 0.0
0.0 0.0 0.0

-47412.211261015385 1.5632325873823317e7 0.0
1.5632325873823317e7 2.062369338917973e7 0.0
0.0 0.0 0.0

3.3572115350076603e6 8.891032867169643e6 0.0
8.891032867169643e6 -1.709631393832039e7 0.0
0.0 0.0 0.0

-548693.5416380255 1.2365667466855815e7 0.0
1.2365667466855815e7 -8.318223508815901e6 0.0
0.0 0.0 0.0

1.4677190779526101e7 1.6566539613022577e7 0.0
1.6566539613022577e7 -5.999891541262426e6 0.0
0.0 0.0 0.0

-2.459091026965155e6 1.5561475326306365e7 0.0
1.5561475326306365e7 -8.179025256521679e6 0.0
0.0 0.0 0.0

-5.622697158492794e6 1.153175532269807e6 0.0
1.153175532269807e6 6.526154711085843e6 0.0
0.0 0.0 0.0

819150.5187705655 5.867233668820882e6 0.0
5.867233668820882e6 -3.2430582529370775e6 0.0
0.0 0.0 0.0

4.83189655034216e6 4.821593284644774e6 0.0
4.821593284644774e6 -2.388760334255635e7 0.0
0.0 0.0 0.0

4.0756103959961925e6 7.355514744835169e6 0.0
7.355514744835169e6 -2.673700452141936e7 0.0
0.0 0.0 0.0

-4.0624850246367105e6 1.87746368515389e7 0.0
1.87746368515389e7 908212.0977368136 0.0
0.0 0.0 0.0

-1.9903954913742784e6 1.5762664678600447e7 0.0
1.5762664678600447e7 1.6989058642394084e7 0.0
0.0 0.0 0.0

1.183748240082415e7 1.4412505628877431e7 0.0
1.4412505628877431e7 3.2744989523776905e6 0.0
0.0 0.0 0.0

-1.1726662502315797e7 2.413837962171194e6 0.0
2.413837962171194e6 1.5246956576674879e7 0.0
0.0 0.0 0.0

2.414894708485135e6 1.0421928883380745e7 0.0
1.0421928883380745e7 -2.2946451539189246e7 0.0
0.0 0.0 0.0

-1.159506442679681e6 1.3233812980774611e7 0.0
1.3233812980774611e7 -2.2994536525610585e7 0.0
0.0 0.0 0.0

110858.85481881909 1.5044786930185793e7 0.0
1.5044786930185793e7 3.086480771970648e7 0.0
0.0 0.0 0.0

-5.242046909912241e6 1.768661508897294e7 0.0
1.768661508897294e7 9.562379937415749e6 0.0
0.0 0.0 0.0

-1.1261068480218474e7 1.3408544140984684e7 0.0
1.3408544140984684e7 1.693519636989689e7 0.0
0.0 0.0 0.0

-6.349062294562137e6 1.0100867785070047e7 0.0
1.0100867785070047e7 9.273101795013146e6 0.0
0.0 0.0 0.0

-558923.9680910325 1.3365413300008103e7 0.0
1.3365413300008103e7 -1.4744419297974195e7 0.0
0.0 0.0 0.0

7137.832460718229 1.3927740947865946e7 0.0
1.3927740947865946e7 -8.982612947095128e6 0.0
0.0 0.0 0.0

1.3672264730174523e6 1.1592113440076282e7 0.0
1.1592113440076282e7 -1.2821826843412433e7 0.0
0.0 0.0 0.0

1.022446562505408e7 1.917680486927395e7 0.0
1.917680486927395e7 -6.416473239648877e6 0.0
0.0 0.0 0.0

-9.630043756429952e6 -5.532027463950584e6 0.0
-5.532027463950584e6 2.072202029734275e7 0.0
0.0 0.0 0.0

1.0443685394105518e6 1.390259211317291e7 0.0
1.390259211317291e7 -2.8061960493569793e6 0.0
0.0 0.0 0.0

-2.433847336254551e6 2.3594091429761343e7 0.0
2.3594091429761343e7 269252.8247005959 0.0
0.0 0.0 0.0

-5.253892992334066e6 1.753863736704853e7 0.0
1.753863736704853e7 9.926582589757025e6 0.0
0.0 0.0 0.0

4.690948862660977e6 4.482953407059127e6 0.0
4.482953407059127e6 -1.6183636305628985e7 0.0
0.0 0.0 0.0

1.3307656345814262e6 7.047932714580926e6 0.0
7.047932714580926e6 -7.867581806007819e6 0.0
0.0 0.0 0.0

-584013.7062794762 1.4660115702085447e7 0.0
1.4660115702085447e7 5.665955326438932e6 0.0
0.0 0.0 0.0

5.049384576932029e6 3.025542146992443e7 0.0
3.025542146992443e7 -1.3184324505085759e7 0.0
0.0 0.0 0.0

-1.1896917865120443e7 5.34774355819855e6 0.0
5.34774355819855e6 3.0077713911802717e7 0.0
0.0 0.0 0.0

809299.645056814 1.539895183392588e7 0.0
1.539895183392588e7 -6.598687559287045e6 0.0
0.0 0.0 0.0

-315115.1212740289 1.4180649505285447e7 0.0
1.4180649505285447e7 -1.0640525770390235e7 0.0
0.0 0.0 0.0

-39089.43904402852 9.180492130941026e6 0.0
9.180492130941026e6 -6.008910941270617e6 0.0
0.0 0.0 0.0

302120.35607105703 5.159145552134487e6 0.0
5.159145552134487e6 -4.241947064405912e6 0.0
0.0 0.0 0.0

1.629477161966459e6 1.6326663913940951e7 0.0
1.6326663913940951e7 -4.781906631039153e6 0.0
0.0 0.0 0.0

-1.0399192157216482e6 1.3482116125348477e7 0.0
1.3482116125348477e7 -1.9299964409514457e7 0.0
0.0 0.0 0.0

5.1060340654969625e6 3.8057633690697667e6 0.0
3.8057633690697667e6 -2.858495303711593e7 0.0
0.0 0.0 0.0

-5.560729423684856e6 1.7976426882420648e7 0.0
1.7976426882420648e7 8.750139310447203e6 0.0
0.0 0.0 0.0

3.61639792790238e6 8.003659198627858e6 0.0
8.003659198627858e6 -2.1968054930668067e7 0.0
0.0 0.0 0.0

4.981514755489245e6 4.259950788821519e6 0.0
4.259950788821519e6 -3.1933082770216897e7 0.0
0.0 0.0 0.0

-4.1005434381484687e6 1.641372305233146e7 0.0
1.641372305233146e7 9.617964300380636e6 0.0
0.0 0.0 0.0

-4.264926623972499e6 1.4712356841502769e7 0.0
1.4712356841502769e7 -7.4453300595704755e6 0.0
0.0 0.0 0.0

-9.11647775272033e6 4.762418754609849e6 0.0
4.762418754609849e6 1.3043908201775063e7 0.0
0.0 0.0 0.0

-3.4621171273666658e6 2.0055464338781092e7 0.0
2.0055464338781092e7 1.8302490733491261e6 0.0
0.0 0.0 0.0

216655.73245615093 9.308326223912273e6 0.0
9.308326223912273e6 -4.6017338604611885e6 0.0
0.0 0.0 0.0

-5.5478482591114715e6 1.0618991805262815e7 0.0
1.0618991805262815e7 6.703249144800904e6 0.0
0.0 0.0 0.0

-9.248111435018592e6 -5.119016253841232e6 0.0
-5.119016253841232e6 2.155893184633132e7 0.0
0.0 0.0 0.0

1.64356881182985e6 1.171449366478574e7 0.0
1.171449366478574e7 -1.2017315442525392e7 0.0
0.0 0.0 0.0

-2.5342920224258318e6 2.2476779075226914e7 0.0
2.2476779075226914e7 763290.4781021448 0.0
0.0 0.0 0.0

-5.344351884963362e6 5.55571006885538e6 0.0
5.55571006885538e6 8.13784270203035e6 0.0
0.0 0.0 0.0

3.351806285144748e6 7.582090086912056e6 0.0
7.582090086912056e6 -2.9024760730139162e7 0.0
0.0 0.0 0.0

-1.4490916794400313e6 9.710942439315403e6 0.0
9.710942439315403e6 -3.6419079411192928e6 0.0
0.0 0.0 0.0

2.5739842717100293e6 1.7144905984643195e7 0.0
1.7144905984643195e7 7.963871588238763e6 0.0
0.0 0.0 0.0

2.277785377539447e7 1.721622365095151e7 0.0
1.721622365095151e7 3.882944003558218e6 0.0
0.0 0.0 0.0

4.1173142877036417e6 6.103761208304947e6 0.0
6.103761208304947e6 -1.4979205708419807e7 0.0
0.0 0.0 0.0

-2.150696748047306e6 1.3658688729974644e7 0.0
1.3658688729974644e7 -2.311244565859898e7 0.0
0.0 0.0 0.0

4.0391563188287225e6 6.121039335450052e6 0.0
6.121039335450052e6 -1.5647587943624157e7 0.0
0.0 0.0 0.0

4.879781451263041e6 4.474233885623513e6 0.0
4.474233885623513e6 -1.6727880500538837e7 0.0
0.0 0.0 0.0

2.0177390519225836e7 1.1954302615974931e7 0.0
1.1954302615974931e7 -200927.59665952902 0.0
0.0 0.0 0.0

-9.776265433873104e6 2.6598937011052355e7 0.0
2.6598937011052355e7 4.854895019301211e6 0.0
0.0 0.0 0.0

-560006.6777184298 1.274069076444446e7 0.0
1.274069076444446e7 -2.1354347954994045e7 0.0
0.0 0.0 0.0

-6.041776635478043e6 1.7862443475232974e7 0.0
1.7862443475232974e7 -1.6539832469991648e6 0.0
0.0 0.0 0.0

5.3233155643225415e6 4.282903003506355e6 0.0
4.282903003506355e6 -2.077642260780943e7 0.0
0.0 0.0 0.0

-7.066707719870163e6 1.9007543746850833e7 0.0
1.9007543746850833e7 5.87288193244331e6 0.0
0.0 0.0 0.0

1.742787442325117e6 2.2676112952686787e7 0.0
2.2676112952686787e7 -3.832877723569684e6 0.0
0.0 0.0 0.0

-1.2782138499833748e7 6.690159372348953e6 0.0
6.690159372348953e6 2.2564999467204314e7 0.0
0.0 0.0 0.0

1.7052490719618262e6 2.9660228203323554e7 0.0
2.9660228203323554e7 -7.981428115941334e6 0.0
0.0 0.0 0.0

-419038.1292197684 1.5442973234275548e7 0.0
1.5442973234275548e7 -987600.672987063 0.0
0.0 0.0 0.0

5.205631933178069e6 3.83753063954625e6 0.0
3.83753063954625e6 -2.567215368769104e7 0.0
0.0 0.0 0.0

1.5697849342467986e7 1.3710168742805362e7 0.0
1.3710168742805362e7 -739816.7409742344 0.0
0.0 0.0 0.0

-4.165438518908831e6 1.615210448150916e7 0.0
1.615210448150916e7 9.667094939571247e6 0.0
0.0 0.0 0.0

4.2648764342428725e6 6.119024966497962e6 0.0
6.119024966497962e6 -2.3763760498216115e7 0.0
0.0 0.0 0.0

-1.6814952783980048e6 1.8718218320888378e7 0.0
1.8718218320888378e7 -3.953920194042028e6 0.0
0.0 0.0 0.0

424735.3377180593 1.505073038190101e7 0.0
1.505073038190101e7 -7.068330134333179e6 0.0
0.0 0.0 0.0

-2.0749029185540522e6 1.4656551297408108e7 0.0
1.4656551297408108e7 -8.445812441602506e6 0.0
0.0 0.0 0.0

123311.58369329106 1.4382745941006955e7 0.0
1.4382745941006955e7 -8.239220148253024e6 0.0
0.0 0.0 0.0

4.0430954593595443e6 1.731838385247812e7 0.0
1.731838385247812e7 8.081775286029061e6 0.0
0.0 0.0 0.0

3.453093689541366e6 6.539636016477291e6 0.0
6.539636016477291e6 -3.916108963671527e7 0.0
0.0 0.0 0.0

-5.309143281002055e6 1.840477133575726e7 0.0
1.840477133575726e7 8.507252464233102e6 0.0
0.0 0.0 0.0

1.6074366957203168e6 4.757176569641251e6 0.0
4.757176569641251e6 -4.757852398112287e6 0.0
0.0 0.0 0.0

-1.260184460259052e7 1.0687759718045693e7 0.0
1.0687759718045693e7 1.8703437420279138e7 0.0
0.0 0.0 0.0

4.782369188976792e6 4.775655811029478e6 0.0
4.775655811029478e6 -1.4932462102029728e7 0.0
0.0 0.0 0.0

-9.603924758679448e6 -5.19720230589885e6 0.0
-5.19720230589885e6 2.677840887515739e7 0.0
0.0 0.0 0.0

1.7030792808447536e6 1.2274474364262749e7 0.0
1.2274474364262749e7 -1.4464456279890288e7 0.0
0.0 0.0 0.0

1.5770837705377936e6 3.5101803438187763e6 0.0
3.5101803438187763e6 -4.997376633076588e6 0.0
0.0 0.0 0.0

1.4706037306437169e6 1.462782702405467e7 0.0
1.462782702405467e7 8.676893784224568e6 0.0
0.0 0.0 0.0

-3.9210532885970715e6 2.086314983926583e7 0.0
2.086314983926583e7 3.8939661153799766e6 0.0
0.0 0.0 0.0

-1.0404391966762038e7 -3.984547981894515e6 0.0
-3.984547981894515e6 2.5140573180187568e7 0.0
0.0 0.0 0.0

-2.129918747009827e6 1.576399602931695e7 0.0
1.576399602931695e7 5.005001967112583e6 0.0
0.0 0.0 0.0

1.88805994342023e6 1.718518713170899e7 0.0
1.718518713170899e7 -5.398787609059719e6 0.0
0.0 0.0 0.0

-4.0543777414803486e6 1.8204844338646706e7 0.0
1.8204844338646706e7 613890.966699631 0.0
0.0 0.0 0.0

-1.8963487046154547e6 1.7131328726003304e7 0.0
1.7131328726003304e7 -5.462839891676797e6 0.0
0.0 0.0 0.0

-3.660441967444128e6 1.8386308819628164e7 0.0
1.8386308819628164e7 1.7933235504834144e6 0.0
0.0 0.0 0.0

-3.064727793608102e6 1.2993337224659644e7 0.0
1.2993337224659644e7 -1.3582743680747855e7 0.0
0.0 0.0 0.0

8.823998004627937e6 1.847250452849265e7 0.0
1.847250452849265e7 -7.637121076619063e6 0.0
0.0 0.0 0.0

-351796.12654026365 1.3652323445570854e7 0.0
1.3652323445570854e7 -1.1274013696398715e7 0.0
0.0 0.0 0.0

-7.009610593664293e6 1.5919998667821437e7 0.0
1.5919998667821437e7 1.5702783664210655e7 0.0
0.0 0.0 0.0

-589580.4147704332 1.651992074818494e7 0.0
1.651992074818494e7 1.0691908382268341e7 0.0
0.0 0.0 0.0

3.0451802329699444e6 9.036047376982205e6 0.0
9.036047376982205e6 -1.6559121851502933e7 0.0
0.0 0.0 0.0

-5.966934874236319e6 9.734756457247961e6 0.0
9.734756457247961e6 5.776927683355629e6 0.0
0.0 0.0 0.0

-3.9885346756886356e6 2.3305281064437855e7 0.0
2.3305281064437855e7 2.8009403351289867e6 0.0
0.0 0.0 0.0

-7.540317396832814e6 1.5360707089221094e7 0.0
1.5360707089221094e7 1.166258350477579e7 0.0
0.0 0.0 0.0

-1.3098228442159565e6 2.419114811875657e7 0.0
2.419114811875657e7 240422.98770628055 0.0
0.0 0.0 0.0

1.3708619310186924e6 1.2082497104570912e7 0.0
1.2082497104570912e7 -1.5384533740969714e7 0.0
0.0 0.0 0.0

-1.1892183924621109e7 2.029831023066106e7 0.0
2.029831023066106e7 -3.759031817155352e6 0.0
0.0 0.0 0.0

5.1403653643494565e6 4.8604851580318315e6 0.0
4.8604851580318315e6 -2.830986724222604e7 0.0
0.0 0.0 0.0

3.336827281821685e6 2.4090880333565276e7 0.0
2.4090880333565276e7 -4.133646338742188e6 0.0
0.0 0.0 0.0

-1.4873061294017997e7 2.3626145981255345e7 0.0
2.3626145981255345e7 8.797256407928986e6 0.0
0.0 0.0 0.0

-1.6289448836898138e6 1.579747472795655e7 0.0
1.579747472795655e7 1.0839363413200662e7 0.0
0.0 0.0 0.0

-2.6082506312927894e7 2.231919032565315e7 0.0
2.231919032565315e7 1.0055409210046161e7 0.0
0.0 0.0 0.0

5.383062573051263e6 3.8240709811769603e6 0.0
3.8240709811769603e6 -2.6270443550598953e7 0.0
0.0 0.0 0.0

-7.15539928657174e6 1.5209802948214864e7 0.0
1.5209802948214864e7 1.282673887226755e7 0.0
0.0 0.0 0.0

-5.9292078530882355e6 5.475157314917747e6 0.0
5.475157314917747e6 6.084859809709435e6 0.0
0.0 0.0 0.0

4.619811220835923e6 4.226996775302057e6 0.0
4.226996775302057e6 -1.5675333427273508e7 0.0
0.0 0.0 0.0

75267.68915619515 1.5180367356360128e7 0.0
1.5180367356360128e7 -8.152852586359671e6 0.0
0.0 0.0 0.0

-7.587680939635586e6 2.7449266124217518e7 0.0
2.7449266124217518e7 5.678010781873494e6 0.0
0.0 0.0 0.0

-1.2891486711131807e7 1.0929354726864535e7 0.0
1.0929354726864535e7 1.0189796315346688e7 0.0
0.0 0.0 0.0

-2.2759144032521095e7 2.005498949212684e7 0.0
2.005498949212684e7 5.194934505152223e6 0.0
0.0 0.0 0.0

2.177031296002138e7 1.526831019611089e7 0.0
1.526831019611089e7 6.661182214729203e6 0.0
0.0 0.0 0.0

-2.7265932558305506e6 1.3731548036128541e7 0.0
1.3731548036128541e7 -5.040484262355527e7 0.0
0.0 0.0 0.0

118850.19373018388 1.4281249967373826e7 0.0
1.4281249967373826e7 -9.807254218755208e6 0.0
0.0 0.0 0.0

-6.934316789278369e6 1.5710239979239514e7 0.0
1.5710239979239514e7 1.5495732914752427e7 0.0
0.0 0.0 0.0

-1.0714287738509225e6 1.7383888433306713e7 0.0
1.7383888433306713e7 -6.757573667110445e6 0.0
0.0 0.0 0.0

-3.1147406533111786e6 1.9848233754388902e7 0.0
1.9848233754388902e7 621992.1824684388 0.0
0.0 0.0 0.0

787326.448996236 1.3677104154647445e7 0.0
1.3677104154647445e7 4.914545348664643e6 0.0
0.0 0.0 0.0

-1.5416511203373536e6 2.374614649364177e7 0.0
2.374614649364177e7 349264.2760174185 0.0
0.0 0.0 0.0

-7.060493202613662e6 5.241849432089684e6 0.0
5.241849432089684e6 9.063948838764172e6 0.0
0.0 0.0 0.0

2.9938684197048083e7 2.0940879833600014e7 0.0
2.0940879833600014e7 7.961788889291208e6 0.0
0.0 0.0 0.0

-1.9428559687232045e6 1.9633606114431217e7 0.0
1.9633606114431217e7 -3.6742929981473973e6 0.0
0.0 0.0 0.0

1.3945315323759166e6 1.3373881483664056e7 0.0
1.3373881483664056e7 6.511519313221996e6 0.0
0.0 0.0 0.0

-7.0163874068048e6 1.895557510682463e7 0.0
1.895557510682463e7 2.3594941082196487e6 0.0
0.0 0.0 0.0

-3.4658097672067126e6 1.4694590656301834e7 0.0
1.4694590656301834e7 1.2037807206150435e7 0.0
0.0 0.0 0.0

-1.8708698507937186e6 1.866767811070987e7 0.0
1.866767811070987e7 -3.629309110302768e6 0.0
0.0 0.0 0.0

4.055459789407514e6 7.281436649438102e6 0.0
7.281436649438102e6 -2.1395597107504286e7 0.0
0.0 0.0 0.0

-4.911712082454018e6 1.734235578586156e7 0.0
1.734235578586156e7 4.728161130112528e6 0.0
0.0 0.0 0.0

-4.009777856108612e6 1.7229378660967447e7 0.0
1.7229378660967447e7 2.595591290185251e6 0.0
0.0 0.0 0.0

1.671036251074127e6 7.127255584820203e6 0.0
7.127255584820203e6 -9.12606991634704e6 0.0
0.0 0.0 0.0

-4.647081056837085e6 1.800109483863187e7 0.0
1.800109483863187e7 8.88115800980313e6 0.0
0.0 0.0 0.0

-1.1142346892854847e7 2.970088525985663e6 0.0
2.970088525985663e6 3.3453959805688955e7 0.0
0.0 0.0 0.0

-434383.31143127533 9.394143669453112e6 0.0
9.394143669453112e6 -3.1570092197508477e6 0.0
0.0 0.0 0.0

-8.345843355874696e6 1.9114740414109394e7 0.0
1.9114740414109394e7 -1.3530819590179638e6 0.0
0.0 0.0 0.0

1.9781831205346506e7 1.982898769333228e7 0.0
1.982898769333228e7 7.797487687176792e6 0.0
0.0 0.0 0.0

1.8092758678335221e6 1.1686962128532829e7 0.0
1.1686962128532829e7 -1.921298659486597e7 0.0
0.0 0.0 0.0

4.687814207603035e6 6.075486335279824e6 0.0
6.075486335279824e6 -2.232913962834526e7 0.0
0.0 0.0 0.0

4.268604315142371e6 1.5719705853586627e7 0.0
1.5719705853586627e7 637156.656429158 0.0
0.0 0.0 0.0

-6.0737919774409775e6 7.931859105945876e6 0.0
7.931859105945876e6 1.4006365395300977e7 0.0
0.0 0.0 0.0

-3.3024879877939336e6 1.922302813346561e7 0.0
1.922302813346561e7 873282.8631059388 0.0
0.0 0.0 0.0

-2.1162698187694196e6 1.6728079132213427e7 0.0
1.6728079132213427e7 -4.900211658620126e6 0.0
0.0 0.0 0.0

-1.7711718206070324e6 1.6875009642580733e7 0.0
1.6875009642580733e7 -6.211055494914134e6 0.0
0.0 0.0 0.0

-596684.0611687144 1.490623447049673e7 0.0
1.490623447049673e7 -5.252708371810313e6 0.0
0.0 0.0 0.0

2.132756096453509e6 7.697575953571313e6 0.0
7.697575953571313e6 -8.271344230144464e6 0.0
0.0 0.0 0.0

1.6070141987741433e7 1.7493587826805964e7 0.0
1.7493587826805964e7 4.0299088966803527e6 0.0
0.0 0.0 0.0

838501.8829705288 1.397962395683008e7 0.0
1.397962395683008e7 4.473758113508685e6 0.0
0.0 0.0 0.0

-4.0069044030177817e6 2.309065571737321e7 0.0
2.309065571737321e7 4.117753427199746e6 0.0
0.0 0.0 0.0

-2.7265866369347513e7 1.4857964660894498e7 0.0
1.4857964660894498e7 1.0172665316262614e7 0.0
0.0 0.0 0.0

4.540174140342649e6 4.515331470290659e6 0.0
4.515331470290659e6 -1.4218937997783065e7 0.0
0.0 0.0 0.0

-201994.89374241699 1.5118100274319159e7 0.0
1.5118100274319159e7 3.393816560904203e6 0.0
0.0 0.0 0.0

-1.984377219496085e6 1.2463763315074293e7 0.0
1.2463763315074293e7 -1.2937708518321976e7 0.0
0.0 0.0 0.0

463714.7678438127 1.3587130839405315e7 0.0
1.3587130839405315e7 -1.4752640325018223e7 0.0
0.0 0.0 0.0

-7.837839143731548e6 -6.307095971948204e6 0.0
-6.307095971948204e6 1.4713012300683679e7 0.0
0.0 0.0 0.0

1.6531451165401293e6 1.1206728607264182e7 0.0
1.1206728607264182e7 -1.368179323139611e7 0.0
0.0 0.0 0.0

-4.462726220744196e6 1.4502183709836347e7 0.0
1.4502183709836347e7 -2.800541624489916e7 0.0
0.0 0.0 0.0

1.9349996385305226e6 1.0782614915966481e7 0.0
1.0782614915966481e7 -1.4410363319768924e7 0.0
0.0 0.0 0.0

260598.96327378182 1.5626438202562764e7 0.0
1.5626438202562764e7 -7.634239868454128e6 0.0
0.0 0.0 0.0

1.742516479063897e7 1.6492114583748901e7 0.0
1.6492114583748901e7 4.1220431035407204e6 0.0
0.0 0.0 0.0

-1.1487440451199833e7 1.1109324281567475e7 0.0
1.1109324281567475e7 2.3370832462893263e7 0.0
0.0 0.0 0.0

-2.453088923638053e6 1.7721114671855066e7 0.0
1.7721114671855066e7 -5.91786708262636e6 0.0
0.0 0.0 0.0

-150673.54010873134 1.3995290726925526e7 0.0
1.3995290726925526e7 -327678.93508354964 0.0
0.0 0.0 0.0

-4.433745020080566e6 1.668174871057934e7 0.0
1.668174871057934e7 -6.355792500839396e6 0.0
0.0 0.0 0.0

1.5292019291094266e7 1.904334898622187e7 0.0
1.904334898622187e7 7.0350383502956815e6 0.0
0.0 0.0 0.0

-5.227506417966684e6 1.801209421682592e7 0.0
1.801209421682592e7 9.311263003506696e6 0.0
0.0 0.0 0.0

1.2940020852281726e6 1.4715877483051503e7 0.0
1.4715877483051503e7 -3.9183525459403573e6 0.0
0.0 0.0 0.0

-2.6950817063363874e6 2.0963074930826277e7 0.0
2.0963074930826277e7 178013.14084679645 0.0
0.0 0.0 0.0

-5.000668660926314e6 1.743427302568826e7 0.0
1.743427302568826e7 5.448664254841805e6 0.0
0.0 0.0 0.0

-8.647995876714893e6 147198.8581906191 0.0
147198.8581906191 5.27195019424562e7 0.0
0.0 0.0 0.0

-659494.2891497221 1.5621775033191305e7 0.0
1.5621775033191305e7 -9.836786271938868e6 0.0
0.0 0.0 0.0

-3.625833741901927e6 2.077818182488982e7 0.0
2.077818182488982e7 2.721533694395896e6 0.0
0.0 0.0 0.0

727161.1844061938 4.355116234196437e6 0.0
4.355116234196437e6 -2.3470749490291392e6 0.0
0.0 0.0 0.0

-1.1833034314536642e7 1.236276065293007e7 0.0
1.236276065293007e7 1.8205625240462434e7 0.0
0.0 0.0 0.0

-3.185210558326994e6 1.4402191156936832e7 0.0
1.4402191156936832e7 -4.0196121075058784e6 0.0
0.0 0.0 0.0

4.752462409306739e6 4.556123612822279e6 0.0
4.556123612822279e6 -1.858171146821954e7 0.0
0.0 0.0 0.0

-3.4105693340962585e6 2.3600457872117314e7 0.0
2.3600457872117314e7 3.310356373616873e6 0.0
0.0 0.0 0.0

2.0201112453333093e6 1.136296396057536e7 0.0
1.136296396057536e7 -1.255999028628669e7 0.0
0.0 0.0 0.0

-8.01098424195256e6 1.4651805344747227e7 0.0
1.4651805344747227e7 1.3946428533629118e7 0.0
0.0 0.0 0.0

4.356531476919437e6 5.986373695460785e6 0.0
5.986373695460785e6 -3.6222210686090514e7 0.0
0.0 0.0 0.0

-4.44122184127588e6 2.279472819318803e7 0.0
2.279472819318803e7 3.771333256821721e6 0.0
0.0 0.0 0.0

-4.321881724447702e6 1.3554149334515367e7 0.0
1.3554149334515367e7 -1.777360944023154e7 0.0
0.0 0.0 0.0

3.6384800908478615e6 3.7962509093235875e6 0.0
3.7962509093235875e6 -1.019261917716883e7 0.0
0.0 0.0 0.0

-42481.432236363646 8.919624274363767e6 0.0
8.919624274363767e6 -3.9896749010713384e6 0.0
0.0 0.0 0.0

-1.2915037435671305e7 2.3965816958790403e7 0.0
2.3965816958790403e7 7.745672648814837e6 0.0
0.0 0.0 0.0

2.0797773452364835e6 1.3499978325232074e7 0.0
1.3499978325232074e7 7.711351283891621e6 0.0
0.0 0.0 0.0

-7.646534523592605e6 2.6093633082494147e7 0.0
2.6093633082494147e7 4.508402500054453e6 0.0
0.0 0.0 0.0

-1.1037691154905066e7 2.3146197648460697e6 0.0
2.3146197648460697e6 1.758348872369984e7 0.0
0.0 0.0 0.0

3.261315051761847e6 8.352769065311199e6 0.0
8.352769065311199e6 -4.0000128874014504e7 0.0
0.0 0.0 0.0

4.042872820859669e7 1.4230703384545079e7 0.0
1.4230703384545079e7 -4.199228017175127e6 0.0
0.0 0.0 0.0

-3.3088300349026276e6 1.9719106548806008e7 0.0
1.9719106548806008e7 1.112432628724778e6 0.0
0.0 0.0 0.0

-5.263442081677974e6 2.0851274754456114e7 0.0
2.0851274754456114e7 6.091857164860919e6 0.0
0.0 0.0 0.0

-4.224807644115665e6 1.873665469533197e7 0.0
1.873665469533197e7 4.013825780619163e6 0.0
0.0 0.0 0.0

875545.2496678289 1.652080913144384e7 0.0
1.652080913144384e7 3.3181265796348114e7 0.0
0.0 0.0 0.0

4.755192029986928e6 4.661568236398795e6 0.0
4.661568236398795e6 -2.1340116597603172e7 0.0
0.0 0.0 0.0

468298.8111791983 1.0740253748446267e7 0.0
1.0740253748446267e7 -6.444951957869376e6 0.0
0.0 0.0 0.0

391079.29329544725 2.277775237258844e7 0.0
2.277775237258844e7 -3.1200182036214718e6 0.0
0.0 0.0 0.0

2.8175118885296956e6 9.22118499759543e6 0.0
9.22118499759543e6 -2.426699901366524e7 0.0
0.0 0.0 0.0

-1.7086633615014747e7 1.26389654723735e7 0.0
1.26389654723735e7 1.0153101542108277e7 0.0
0.0 0.0 0.0

-4.134769055543948e6 1.726032404457964e7 0.0
1.726032404457964e7 1.750730945991943e6 0.0
0.0 0.0 0.0

-147701.3650640822 1.2789969357508212e7 0.0
1.2789969357508212e7 2.3965893892676444e6 0.0
0.0 0.0 0.0

2.2764753315170147e6 1.096191886286764e7 0.0
1.096191886286764e7 -1.3317282067876633e7 0.0
0.0 0.0 0.0

-1.2384019777346617e6 1.6266689359573655e7 0.0
1.6266689359573655e7 1.8483257614222646e7 0.0
0.0 0.0 0.0

3.410226391766429e6 2.266215270503833e7 0.0
2.266215270503833e7 -4.873611396272574e6 0.0
0.0 0.0 0.0

-3.2793339078937586e7 582662.5162172071 0.0
582662.5162172071 9.178797886762563e6 0.0
0.0 0.0 0.0

2.0002161516802683e7 2.7398378683802657e7 0.0
2.7398378683802657e7 -1.2455759060404804e7 0.0
0.0 0.0 0.0

2.577738287910026e6 2.3096199965356264e7 0.0
2.3096199965356264e7 -5.63150373575377e6 0.0
0.0 0.0 0.0

4.263849391909755e6 4.592955077656362e6 0.0
4.592955077656362e6 -1.3668898511845084e7 0.0
0.0 0.0 0.0

-4.206286412876263e6 2.084663914154242e7 0.0
2.084663914154242e7 2.9355488559560077e6 0.0
0.0 0.0 0.0

2.1924238409006633e7 1.2014649652548406e7 0.0
1.2014649652548406e7 104665.599599218 0.0
0.0 0.0 0.0

-1.0877909381690914e7 5.41389485016484e6 0.0
5.41389485016484e6 3.5744996277136706e7 0.0
0.0 0.0 0.0

-716024.5239315424 1.5775718902735475e7 0.0
1.5775718902735475e7 -9.41767299049826e6 0.0
0.0 0.0 0.0

1.2843706035063034e7 1.491513933876789e7 0.0
1.491513933876789e7 3.3961553675268814e6 0.0
0.0 0.0 0.0

438796.73396674637 1.554419729270499e7 0.0
1.554419729270499e7 -8.666838787176747e6 0.0
0.0 0.0 0.0

5.032110747210267e6 4.870222127002873e6 0.0
4.870222127002873e6 -2.267632146299915e7 0.0
0.0 0.0 0.0

-2.971326540658798e6 1.950593150783233e7 0.0
1.950593150783233e7 -153013.19092620024 0.0
0.0 0.0 0.0

-1.4911667886374989e6 1.259883343415431e7 0.0
1.259883343415431e7 -1.2156788372127656e7 0.0
0.0 0.0 0.0

-1.9276692373603475e6 2.0585464813687753e7 0.0
2.0585464813687753e7 -2.573280057602687e6 0.0
0.0 0.0 0.0

-9.822062670220032e6 7.776667075102758e6 0.0
7.776667075102758e6 3.744376223022375e7 0.0
0.0 0.0 0.0

127373.29114659177 1.3460559598932398e7 0.0
1.3460559598932398e7 -8.023023815749072e6 0.0
0.0 0.0 0.0

3.135676849453818e6 8.80254512994712e6 0.0
8.80254512994712e6 -1.776199160942994e7 0.0
0.0 0.0 0.0

675362.1358381051 1.7511086814354483e7 0.0
1.7511086814354483e7 -5.837767904423465e6 0.0
0.0 0.0 0.0

-1.1358081352415779e6 1.2873322201035868e7 0.0
1.2873322201035868e7 -7.209770288700488e6 0.0
0.0 0.0 0.0

-1.083986709371227e7 491824.9519754874 0.0
491824.9519754874 3.348554640518649e7 0.0
0.0 0.0 0.0

-2.183834015544459e6 1.6380234691160658e7 0.0
1.6380234691160658e7 1.3824497243286707e7 0.0
0.0 0.0 0.0

2.856996076190332e6 9.002936519640658e6 0.0
9.002936519640658e6 -2.5832331411588896e7 0.0
0.0 0.0 0.0

-1.374378589821261e6 2.0420540474469427e7 0.0
2.0420540474469427e7 -2.591049910811993e6 0.0
0.0 0.0 0.0

-1.0483236379882405e6 1.6552176171190055e7 0.0
1.6552176171190055e7 1.0596801128932016e7 0.0
0.0 0.0 0.0

3.798159964495888e6 8.067656585161397e6 0.0
8.067656585161397e6 -1.7328327312996004e7 0.0
0.0 0.0 0.0

3.055459405238309e7 1.719263462821684e7 0.0
1.719263462821684e7 5.779455981741479e6 0.0
0.0 0.0 0.0

-1.6243606987930085e6 2.0040390399938885e7 0.0
2.0040390399938885e7 -2.7055212911248747e6 0.0
0.0 0.0 0.0

-8.917231086589614e6 -6.073923952757121e6 0.0
-6.073923952757121e6 1.8758299326728866e7 0.0
0.0 0.0 0.0

-1.1693143061469125e7 609834.4412786005 0.0
609834.4412786005 3.067079526154501e7 0.0
0.0 0.0 0.0

5.2911930774793215e6 3.490139884313891e6 0.0
3.490139884313891e6 -1.942239393214834e7 0.0
0.0 0.0 0.0

-4.786248218998287e6 1.8402253303231116e7 0.0
1.8402253303231116e7 3.553471719018637e6 0.0
0.0 0.0 0.0

-746671.5894077877 1.4473183577282604e7 0.0
1.4473183577282604e7 -5.734842805156435e6 0.0
0.0 0.0 0.0

-1.1110110755347407e6 1.6986538952946257e7 0.0
1.6986538952946257e7 -7.635890159619053e6 0.0
0.0 0.0 0.0

-8.483031457274817e6 -1.2945399014118805e6 0.0
-1.2945399014118805e6 1.3615978063033454e7 0.0
0.0 0.0 0.0

-1.501350380747857e6 1.7181656701499864e7 0.0
1.7181656701499864e7 -5.179431375078089e6 0.0
0.0 0.0 0.0

-1.093364483219268e7 356717.96883993025 0.0
356717.96883993025 3.3112979227949202e7 0.0
0.0 0.0 0.0

4.1862348199913474e6 1.4879987391065605e7 0.0
1.4879987391065605e7 2.358798213279657e6 0.0
0.0 0.0 0.0

2.2780936956084054e6 1.0411164286417803e7 0.0
1.0411164286417803e7 -2.462272576166821e7 0.0
0.0 0.0 0.0

3.3333610250751525e6 8.904239316174932e6 0.0
8.904239316174932e6 -2.577344454715494e7 0.0
0.0 0.0 0.0

-1.2164560928091865e7 1.2156867206547037e7 0.0
1.2156867206547037e7 1.895013516331006e7 0.0
0.0 0.0 0.0

-4.339596648696777e6 1.5606451819171024e7 0.0
1.5606451819171024e7 3.482997729004071e6 0.0
0.0 0.0 0.0

1.2495656283454187e6 4.80787150077923e6 0.0
4.80787150077923e6 -3.6911619064796534e6 0.0
0.0 0.0 0.0

7550.457687558606 1.3970273691616513e7 0.0
1.3970273691616513e7 -7.217623998385132e6 0.0
0.0 0.0 0.0

-4.481975013701988e6 2.0135603291289236e7 0.0
2.0135603291289236e7 5.907068185393142e6 0.0
0.0 0.0 0.0

1.2787758882761477e6 1.647395153980904e7 0.0
1.647395153980904e7 2.330903189806635e7 0.0
0.0 0.0 0.0

5.493118250009999e6 1.7128807690519404e7 0.0
1.7128807690519404e7 -4.143677966260364e6 0.0
0.0 0.0 0.0

-8.054964090390772e6 -314477.4272315363 0.0
-314477.4272315363 5.106193521577717e7 0.0
0.0 0.0 0.0

-1.1235002301584741e7 7.051055918620334e6 0.0
7.051055918620334e6 2.9119223903746527e7 0.0
0.0 0.0 0.0

-1.0826879410420716e7 1.135770351067116e7 0.0
1.135770351067116e7 1.5534058669532277e7 0.0
0.0 0.0 0.0

-9680.047142042778 1.3719528330700913e7 0.0
1.3719528330700913e7 5.369347232040958e6 0.0
0.0 0.0 0.0

-6.314711683182986e6 3.1719154881613706e6 0.0
3.1719154881613706e6 8.949200198992321e6 0.0
0.0 0.0 0.0

-8.600972255961267e6 1.6779612076970708e7 0.0
1.6779612076970708e7 1.6228334883012315e6 0.0
0.0 0.0 0.0

5.034428243367699e6 5.229932465934419e6 0.0
5.229932465934419e6 -2.0408492005997714e7 0.0
0.0 0.0 0.0

-3.187285139144484e6 1.3900640696338918e7 0.0
1.3900640696338918e7 -2.4501125721102063e7 0.0
0.0 0.0 0.0

274176.305838494 1.3974576962631915e7 0.0
1.3974576962631915e7 3.0387885962039144e6 0.0
0.0 0.0 0.0

6.501604413244701e6 2.0710529179960508e7 0.0
2.0710529179960508e7 -7.690307848198347e6 0.0
0.0 0.0 0.0

657865.3788135415 1.5921258965821164e7 0.0
1.5921258965821164e7 -7.1723091975158155e6 0.0
0.0 0.0 0.0

-1.1733952853399932e7 1.9796038051678337e7 0.0
1.9796038051678337e7 -2.266361058346768e6 0.0
0.0 0.0 0.0

-3.3872964297264437e6 2.0138074513791442e7 0.0
2.0138074513791442e7 -45246.99181536888 0.0
0.0 0.0 0.0

-196346.06537392363 6.263813350168274e6 0.0
6.263813350168274e6 -3.8677947488134475e6 0.0
0.0 0.0 0.0

-6.198792141960868e6 2.6753020054001547e7 0.0
2.6753020054001547e7 5.568038212059962e6 0.0
0.0 0.0 0.0

-4.104418999144337e6 1.5937260861240983e7 0.0
1.5937260861240983e7 2.6456014635041445e6 0.0
0.0 0.0 0.0

-9.819565541228332e6 5.006555240668321e6 0.0
5.006555240668321e6 1.0778818651591264e7 0.0
0.0 0.0 0.0

-4.460646126581021e6 1.57823029265444e7 0.0
1.57823029265444e7 1.2489514142963104e6 0.0
0.0 0.0 0.0

-916259.5154416423 3.630798592704444e6 0.0
3.630798592704444e6 -849784.9686917681 0.0
0.0 0.0 0.0

-51854.934116152115 8.220950435761336e6 0.0
8.220950435761336e6 -8.60442046553331e6 0.0
0.0 0.0 0.0

2.228184085968485e6 1.0779581939246448e7 0.0
1.0779581939246448e7 -2.1742398039417863e7 0.0
0.0 0.0 0.0

-4.320442997686068e6 1.7669266652747665e7 0.0
1.7669266652747665e7 -4.333536542719676e6 0.0
0.0 0.0 0.0

-6.63672227265246e6 1.5865723655915696e7 0.0
1.5865723655915696e7 1.503004488842914e7 0.0
0.0 0.0 0.0

-597878.025847471 1.4376886090313409e7 0.0
1.4376886090313409e7 -4.303958806846011e6 0.0
0.0 0.0 0.0

3.399646279532092e6 4.618353377008848e6 0.0
4.618353377008848e6 -1.0336418653655378e7 0.0
0.0 0.0 0.0

-2.7006097813982493e6 1.8314077569733333e7 0.0
1.8314077569733333e7 -3.0188748493243437e6 0.0
0.0 0.0 0.0

-2.9721130091170007e6 2.0796453039479937e7 0.0
2.0796453039479937e7 -570894.9099950223 0.0
0.0 0.0 0.0

1.3262437836287369e6 1.7200957381734952e7 0.0
1.7200957381734952e7 -5.381586778236089e6 0.0
0.0 0.0 0.0

-1.0298320484849855e7 7.152064583668527e6 0.0
7.152064583668527e6 1.1885539742822781e7 0.0
0.0 0.0 0.0

-375129.7291093571 1.3428138247300746e7 0.0
1.3428138247300746e7 -1.3755128223717999e7 0.0
0.0 0.0 0.0

-5.374659848973751e6 2.3714907743055068e7 0.0
2.3714907743055068e7 4.298442021981245e6 0.0
0.0 0.0 0.0

-4.798067984280054e6 2.3258884434963126e7 0.0
2.3258884434963126e7 4.0154436989750257e6 0.0
0.0 0.0 0.0

-204152.672239081 1.2576979712003734e7 0.0
1.2576979712003734e7 -1.999999894794618e7 0.0
0.0 0.0 0.0

-1.4315549487040082e6 1.298648626294097e7 0.0
1.298648626294097e7 -8.937385610548224e6 0.0
0.0 0.0 0.0

-72128.55782181397 1.4455421723459061e7 0.0
1.4455421723459061e7 2.533186545661468e6 0.0
0.0 0.0 0.0

3.3952963094370486e6 8.429686164838858e6 0.0
8.429686164838858e6 -2.1001947085621286e7 0.0
0.0 0.0 0.0

-1.215120079865577e7 7.775928847363803e6 0.0
7.775928847363803e6 2.399431105854904e7 0.0
0.0 0.0 0.0

1.6801966105453204e6 1.0887087105182234e7 0.0
1.0887087105182234e7 -4.113220474636872e7 0.0
0.0 0.0 0.0

1.3473087493051377e6 2.4983405861692265e7 0.0
2.4983405861692265e7 -5.554281600036181e6 0.0
0.0 0.0 0.0

2.639479824793746e6 1.4652029533316912e7 0.0
1.4652029533316912e7 1.368015054153214e7 0.0
0.0 0.0 0.0

-537997.9351897892 1.560911830181989e7 0.0
1.560911830181989e7 2.049142392204892e7 0.0
0.0 0.0 0.0

1.0692875802612362e7 1.7668480698540296e7 0.0
1.7668480698540296e7 6.896764666921064e6 0.0
0.0 0.0 0.0

-612301.3926475589 1.3255071405620543e7 0.0
1.3255071405620543e7 1.6954611772742043e6 0.0
0.0 0.0 0.0

-2.479336409535152e6 1.8094947506960794e7 0.0
1.8094947506960794e7 -2.841604333636922e6 0.0
0.0 0.0 0.0

-1.7106508480552476e7 1.934488983964394e7 0.0
1.934488983964394e7 -2.7479148400204233e6 0.0
0.0 0.0 0.0

-308481.1949936123 1.2578444711532144e7 0.0
1.2578444711532144e7 133206.65612329953 0.0
0.0 0.0 0.0

-2.5786976259385133e6 1.6610594688155793e7 0.0
1.6610594688155793e7 3.4081275742278746e6 0.0
0.0 0.0 0.0

5.078647980518489e6 4.62918075694612e6 0.0
4.62918075694612e6 -1.7376696948791873e7 0.0
0.0 0.0 0.0

-8.914985727479083e6 1.7900279617198598e7 0.0
1.7900279617198598e7 3.0408146435476528e6 0.0
0.0 0.0 0.0

-1.280263507139834e7 2.783154047636138e7 0.0
2.783154047636138e7 6.590164054927349e6 0.0
0.0 0.0 0.0

-9.501017210917804e6 -838741.7018966825 0.0
-838741.7018966825 1.6485673387236994e7 0.0
0.0 0.0 0.0

3.089925049930433e6 2.1546909381514825e7 0.0
2.1546909381514825e7 -5.198573574640625e6 0.0
0.0 0.0 0.0

-7.509246677045554e6 8.159660549822476e6 0.0
8.159660549822476e6 5.516352460737729e7 0.0
0.0 0.0 0.0

-8.472436829136815e6 -6.271929712440315e6 0.0
-6.271929712440315e6 1.7635425784121495e7 0.0
0.0 0.0 0.0

-6.735709950959595e6 1.5870925794169363e7 0.0
1.5870925794169363e7 -3.0721315117337193e7 0.0
0.0 0.0 0.0

281368.84117634734 1.4718873070426637e7 0.0
1.4718873070426637e7 -9.080007408556277e6 0.0
0.0 0.0 0.0

-2.8270652392972508e6 2.138649079622041e7 0.0
2.138649079622041e7 408203.1957502136 0.0
0.0 0.0 0.0

-6.8196500705584325e6 1.5010727331895804e7 0.0
1.5010727331895804e7 -1.4955776220328081e6 0.0
0.0 0.0 0.0

-106871.89471327269 8.484218688462213e6 0.0
8.484218688462213e6 -3.3967824583757403e6 0.0
0.0 0.0 0.0

-3.2966213553727292e6 1.931077375678962e7 0.0
1.931077375678962e7 -1.0361545242382606e6 0.0
0.0 0.0 0.0

-3.90402880159969e6 2.2680137616533633e7 0.0
2.2680137616533633e7 3.632841827465373e6 0.0
0.0 0.0 0.0

-2.7122716032154984e6 2.145826100219579e7 0.0
2.145826100219579e7 224687.14931771986 0.0
0.0 0.0 0.0

287613.05818318017 1.0247246343143137e7 0.0
1.0247246343143137e7 -4.587037213551747e7 0.0
0.0 0.0 0.0

-3.4407920684546465e6 1.4772869890362918e7 0.0
1.4772869890362918e7 -7.668969194686731e6 0.0
0.0 0.0 0.0

-9.832823456351822e6 213041.7331924654 0.0
213041.7331924654 4.035673957637349e7 0.0
0.0 0.0 0.0

6.160306566868334e6 1.86790474106871e7 0.0
1.86790474106871e7 3.797514501598512e7 0.0
0.0 0.0 0.0

-3.640128613975148e7 786062.9179264937 0.0
786062.9179264937 9.4805765940014e6 0.0
0.0 0.0 0.0

1.976662551163184e7 1.745520526446043e7 0.0
1.745520526446043e7 -3.3943731871536737e6 0.0
0.0 0.0 0.0

1.4534229100607373e6 1.2341682756862354e7 0.0
1.2341682756862354e7 -1.8580182096952237e7 0.0
0.0 0.0 0.0

2.3614325058187707e6 5.468174700605003e6 0.0
5.468174700605003e6 -7.182458869462088e6 0.0
0.0 0.0 0.0

2.790442086225614e7 1.6529541460403258e7 0.0
1.6529541460403258e7 -8.422615917478207e6 0.0
0.0 0.0 0.0

3.0113402024361365e6 1.0263283398601633e7 0.0
1.0263283398601633e7 -1.0154917128828222e7 0.0
0.0 0.0 0.0

1.3900355141816998e7 1.731804286087351e7 0.0
1.731804286087351e7 6.409366133200403e6 0.0
0.0 0.0 0.0

-3.598390464126666e6 2.0021377937088016e7 0.0
2.0021377937088016e7 351938.9388406039 0.0
0.0 0.0 0.0

-4.985564757596305e6 2.0464266360394295e7 0.0
2.0464266360394295e7 6.132604947667317e6 0.0
0.0 0.0 0.0

-397531.1933155954 1.1042056826704236e7 0.0
1.1042056826704236e7 -6.917252552878793e6 0.0
0.0 0.0 0.0

-8.116920992307507e6 1.00186741005884e7 0.0
1.00186741005884e7 8558.077768522315 0.0
0.0 0.0 0.0

-2.4855859582227045e6 1.3244936178578062e7 0.0
1.3244936178578062e7 -1.3112140302333275e7 0.0
0.0 0.0 0.0

-1.8993296933532148e6 1.600436981848368e7 0.0
1.600436981848368e7 5.023424520037158e6 0.0
0.0 0.0 0.0

-502233.2183448598 1.5160360272682194e7 0.0
1.5160360272682194e7 7.315415660084211e6 0.0
0.0 0.0 0.0

-8.1595658327219635e6 6.8754150471966015e6 0.0
6.8754150471966015e6 5.1125143548527405e7 0.0
0.0 0.0 0.0

-3.8468629263573005e6 1.8930408497707948e7 0.0
1.8930408497707948e7 373294.7837296522 0.0
0.0 0.0 0.0

5.2994085634290725e6 3.4965646774274143e6 0.0
3.4965646774274143e6 -1.957078761933563e7 0.0
0.0 0.0 0.0

-4.806545234097263e6 1.668803608248557e7 0.0
1.668803608248557e7 1.0576018494418412e7 0.0
0.0 0.0 0.0

-958779.2834417829 1.5230087480089694e7 0.0
1.5230087480089694e7 8.272959355192803e6 0.0
0.0 0.0 0.0

4.810397643320216e6 1.829999926982557e7 0.0
1.829999926982557e7 -5.626122422711408e6 0.0
0.0 0.0 0.0

-2.037713974246617e6 1.8292122817133546e7 0.0
1.8292122817133546e7 -5.020859849456454e6 0.0
0.0 0.0 0.0

-4.679438572257619e6 2.457098373288675e7 0.0
2.457098373288675e7 3.4305642813605973e6 0.0
0.0 0.0 0.0

-813933.4942399893 6.631066006608163e6 0.0
6.631066006608163e6 -3.054240591778802e6 0.0
0.0 0.0 0.0

-9.377970790483274e6 2.3700464397378687e7 0.0
2.3700464397378687e7 6.365002535235302e6 0.0
0.0 0.0 0.0

-3.7376385299134618e6 2.064891191402284e7 0.0
2.064891191402284e7 3.2497878237071815e6 0.0
0.0 0.0 0.0

-1.064037859483926e7 1.258225737911101e7 0.0
1.258225737911101e7 1.5412651052209876e7 0.0
0.0 0.0 0.0

1.5666032461099697e7 1.678144401432871e7 0.0
1.678144401432871e7 -5.616544231127808e6 0.0
0.0 0.0 0.0

176732.6894819215 1.4682418552090425e7 0.0
1.4682418552090425e7 -1.0170332548665104e7 0.0
0.0 0.0 0.0

-3.7820840956065864e6 1.989850533018718e7 0.0
1.989850533018718e7 831466.2489200921 0.0
0.0 0.0 0.0

-86907.06807508646 1.020877797412936e7 0.0
1.020877797412936e7 -7.206272113624074e6 0.0
0.0 0.0 0.0

-2.3855407268115575e6 1.5900411353317242e7 0.0
1.5900411353317242e7 8.160389580009881e6 0.0
0.0 0.0 0.0

-1.0427781983158814e7 8.772471557125952e6 0.0
8.772471557125952e6 2.5917112417878886e6 0.0
0.0 0.0 0.0

-9.57562166704148e6 1.7254790017177377e7 0.0
1.7254790017177377e7 2.709999405333172e6 0.0
0.0 0.0 0.0

125506.35344760586 1.466838327114594e7 0.0
1.466838327114594e7 -8.966847409738362e6 0.0
0.0 0.0 0.0

2.8801207339222236e6 1.330795927451115e7 0.0
1.330795927451115e7 4.393510458421403e6 0.0
0.0 0.0 0.0

95741.16569312476 1.426338253399063e7 0.0
1.426338253399063e7 -1.2899033160572171e7 0.0
0.0 0.0 0.0

-7.14958280899538e6 1.576845730781275e7 0.0
1.576845730781275e7 1.4854604599151906e7 0.0
0.0 0.0 0.0

-1.5300792022938646e7 1.420404690151926e7 0.0
1.420404690151926e7 6.98844629132549e6 0.0
0.0 0.0 0.0

-1.9494598296076008e6 1.586815135468594e7 0.0
1.586815135468594e7 1.7465487223405144e6 0.0
0.0 0.0 0.0

-1.2233765591872292e7 3.1312970197224193e6 0.0
3.1312970197224193e6 1.613354792827812e7 0.0
0.0 0.0 0.0

-410880.5540785105 1.5384132252030872e7 0.0
1.5384132252030872e7 9.877006889725946e6 0.0
0.0 0.0 0.0

4.097606727096619e6 2.3071914409390397e7 0.0
2.3071914409390397e7 -7.055447466163188e6 0.0
0.0 0.0 0.0

-2.8841041965429895e7 1.831316106299017e7 0.0
1.831316106299017e7 7.526995073704664e6 0.0
0.0 0.0 0.0

732700.6148078055 2.7245889181494854e7 0.0
2.7245889181494854e7 -2.687643793136405e6 0.0
0.0 0.0 0.0

-9.133214836197346e6 1.7953954836461004e7 0.0
1.7953954836461004e7 699644.5687758741 0.0
0.0 0.0 0.0

-652129.8586179225 2.5299563722971343e7 0.0
2.5299563722971343e7 -451219.7187955858 0.0
0.0 0.0 0.0

-1.1007046072356472e7 168552.64103193823 0.0
168552.64103193823 1.4908064242784265e7 0.0
0.0 0.0 0.0

6.250742176636279e6 1.771779149913836e7 0.0
1.771779149913836e7 -4.705420966473929e6 0.0
0.0 0.0 0.0

-4.294585177592285e6 2.3542560168561637e7 0.0
2.3542560168561637e7 4.455194245799391e6 0.0
0.0 0.0 0.0

-2.9986886493321774e6 1.6437955599431671e7 0.0
1.6437955599431671e7 342639.5655145813 0.0
0.0 0.0 0.0

619612.3800664824 1.3401597258611731e7 0.0
1.3401597258611731e7 -1.5866484534662252e7 0.0
0.0 0.0 0.0

-5.696384148133355e6 2.1864149183605015e7 0.0
2.1864149183605015e7 5.833668113870878e6 0.0
0.0 0.0 0.0

-6.61099118905025e6 1.4649276133423643e7 0.0
1.4649276133423643e7 2.1329294793469002e6 0.0
0.0 0.0 0.0

-1.2378005089720218e6 2.5007618783029724e7 0.0
2.5007618783029724e7 -2.1497620083751203e6 0.0
0.0 0.0 0.0

-1.1739963640438935e7 2.401768220603349e7 0.0
2.401768220603349e7 7.81026655255592e6 0.0
0.0 0.0 0.0

3.9088461898989845e6 1.7905392687413454e7 0.0
1.7905392687413454e7 -5.2014134713458745e6 0.0
0.0 0.0 0.0

4.0248896284207385e6 5.77559381156302e6 0.0
5.77559381156302e6 -1.235170675092665e7 0.0
0.0 0.0 0.0

-2.374491914520762e6 1.3765414858530566e7 0.0
1.3765414858530566e7 -2.0877980664589457e7 0.0
0.0 0.0 0.0

3.432050548184175e6 4.497237616329999e6 0.0
4.497237616329999e6 -1.102193652833558e7 0.0
0.0 0.0 0.0

1.185417385528626e6 1.5205461403959349e7 0.0
1.5205461403959349e7 1.3267490670509625e7 0.0
0.0 0.0 0.0

2.215223777920504e6 1.6372069911792174e7 0.0
1.6372069911792174e7 -4.65348771944648e6 0.0
0.0 0.0 0.0

1.4471948434776205e6 2.1733673309887253e7 0.0
2.1733673309887253e7 -4.383132880850907e6 0.0
0.0 0.0 0.0

-1.2063779562886735e7 1.2989200943082528e7 0.0
1.2989200943082528e7 1.772864698641306e7 0.0
0.0 0.0 0.0

140726.57058484922 1.1512915410443341e7 0.0
1.1512915410443341e7 -6.2047614654037235e6 0.0
0.0 0.0 0.0

-1.2115822826667195e6 5.864803409589496e6 0.0
5.864803409589496e6 5.439582142682605e6 0.0
0.0 0.0 0.0

2.5103861273928434e6 9.452225801741708e6 0.0
9.452225801741708e6 -3.460776751165168e7 0.0
0.0 0.0 0.0

626458.4113925574 1.282929421638362e7 0.0
1.282929421638362e7 2.4778453619366284e6 0.0
0.0 0.0 0.0

-1.1224378718778236e7 2.1799666867477134e7 0.0
2.1799666867477134e7 6.520720046818842e6 0.0
0.0 0.0 0.0

-71329.50431310432 1.3584299185645279e7 0.0
1.3584299185645279e7 -9.770235527916199e6 0.0
0.0 0.0 0.0

1.1870357903837135e7 1.5949862253420116e7 0.0
1.5949862253420116e7 2.049815125617092e6 0.0
0.0 0.0 0.0

-1.167252227043776e7 2.4671167265420146e6 0.0
2.4671167265420146e6 2.10845545109208e7 0.0
0.0 0.0 0.0

-2.2539555879591454e7 2.011518563203222e7 0.0
2.011518563203222e7 5.515176265725657e6 0.0
0.0 0.0 0.0

1.3442488483680796e7 2.2771347411511905e7 0.0
2.2771347411511905e7 -1.3648631484560974e7 0.0
0.0 0.0 0.0

-4.972931383202534e6 2.061379361835992e7 0.0
2.061379361835992e7 6.752956173339283e6 0.0
0.0 0.0 0.0

-584494.3836745843 1.1415354583789919e7 0.0
1.1415354583789919e7 981815.3261045046 0.0
0.0 0.0 0.0

-1.1113851056709465e7 1.2634951227403618e7 0.0
1.2634951227403618e7 2.0381385420627374e7 0.0
0.0 0.0 0.0

-9.934939671614977e6 -5.026662299526242e6 0.0
-5.026662299526242e6 1.9190065863086365e7 0.0
0.0 0.0 0.0

-160967.0612130724 1.4451315617283104e7 0.0
1.4451315617283104e7 -1.1056115434374234e7 0.0
0.0 0.0 0.0

-4.9973129386546435e6 1.9621736291535936e7 0.0
1.9621736291535936e7 -5.300965149925804e6 0.0
0.0 0.0 0.0

-518650.3998774153 1.4687405320090765e7 0.0
1.4687405320090765e7 -7.367912813481111e6 0.0
0.0 0.0 0.0

-1.017613672996729e7 8.078552107764459e6 0.0
8.078552107764459e6 3.402967507884611e7 0.0
0.0 0.0 0.0

1.6703994383124849e6 1.1733908592651868e7 0.0
1.1733908592651868e7 -1.8386212083088625e7 0.0
0.0 0.0 0.0

-5.851893640360258e6 1.9721721310916167e7 0.0
1.9721721310916167e7 -4.961719492563378e6 0.0
0.0 0.0 0.0

734723.0282229101 1.3139525197161587e7 0.0
1.3139525197161587e7 -1.5766473047082638e7 0.0
0.0 0.0 0.0

1.149261925952131e7 1.6207503700122263e7 0.0
1.6207503700122263e7 5.405017219683815e6 0.0
0.0 0.0 0.0

-1.1103243555931464e7 6.243132858464275e6 0.0
6.243132858464275e6 3.1322448008890755e7 0.0
0.0 0.0 0.0

919591.3945363564 1.4543302905672323e7 0.0
1.4543302905672323e7 -2.0836390433205147e6 0.0
0.0 0.0 0.0

-4.421165480917274e6 1.6289574169703763e7 0.0
1.6289574169703763e7 1.1876713563960604e7 0.0
0.0 0.0 0.0

-1.08728409114946e6 2.087122438748018e7 0.0
2.087122438748018e7 -2.6259289366495544e6 0.0
0.0 0.0 0.0

3.7295068517793277e6 8.588394140388673e6 0.0
8.588394140388673e6 -1.84486667500203e7 0.0
0.0 0.0 0.0

2.198857548403879e6 8.128353297688121e6 0.0
8.128353297688121e6 -8.69468632658844e6 0.0
0.0 0.0 0.0

2.3971944420284685e6 9.702750290673979e6 0.0
9.702750290673979e6 -3.0381916001358174e7 0.0
0.0 0.0 0.0

-4.441418386166813e6 1.7756614243342936e7 0.0
1.7756614243342936e7 -2.380420968794738e6 0.0
0.0 0.0 0.0

-1.2308801017810652e7 5.786487308285549e6 0.0
5.786487308285549e6 2.7631206721781813e7 0.0
0.0 0.0 0.0

-3.54655113760137e6 1.7722785965074204e7 0.0
1.7722785965074204e7 -4.191940814311605e6 0.0
0.0 0.0 0.0

-219207.85021960456 1.4041286529491132e7 0.0
1.4041286529491132e7 -7.6673915220567025e6 0.0
0.0 0.0 0.0

3.38437214317536e6 7.871593048383078e6 0.0
7.871593048383078e6 -2.7538356025086604e7 0.0
0.0 0.0 0.0

-1.175203377971664e7 1.1439592377103273e7 0.0
1.1439592377103273e7 2.19577175680618e7 0.0
0.0 0.0 0.0

1.1376197278259848e6 1.4079144444541171e7 0.0
1.4079144444541171e7 5.708151797808268e6 0.0
0.0 0.0 0.0

1.7463739951321613e6 1.0701794045028076e7 0.0
1.0701794045028076e7 -2.339081241233594e7 0.0
0.0 0.0 0.0

5.084471056302624e6 3.8816984672372895e6 0.0
3.8816984672372895e6 -2.1497544305562425e7 0.0
0.0 0.0 0.0

-5.866964780219441e6 1.6524932533636713e7 0.0
1.6524932533636713e7 1.0948768020395238e7 0.0
0.0 0.0 0.0

-3.7273455990793877e6 1.875685295789131e7 0.0
1.875685295789131e7 -4.275660848574462e6 0.0
0.0 0.0 0.0

1.482409502051291e6 1.0924059889468748e7 0.0
1.0924059889468748e7 -9.671793105645087e6 0.0
0.0 0.0 0.0

-1.090520247063681e7 -770520.752127248 0.0
-770520.752127248 2.5554809494546905e7 0.0
0.0 0.0 0.0

-39966.658353049366 3.358113150513845e6 0.0
3.358113150513845e6 -428390.86095178255 0.0
0.0 0.0 0.0

-8.427934394300058e6 1.4806438843361443e7 0.0
1.4806438843361443e7 1.2661949455872122e7 0.0
0.0 0.0 0.0

1.2236790971150177e7 1.7717869369425368e7 0.0
1.7717869369425368e7 6.753822958719634e6 0.0
0.0 0.0 0.0

8.610807140989043e6 1.6900312573273934e7 0.0
1.6900312573273934e7 6.363910764007786e6 0.0
0.0 0.0 0.0

-7.15005514740798e6 1.8481275220076554e7 0.0
1.8481275220076554e7 -4.559692519302187e6 0.0
0.0 0.0 0.0

-1.6956300958723985e6 1.1918125817778805e7 0.0
1.1918125817778805e7 -8.60926782525674e6 0.0
0.0 0.0 0.0

-3.698633906116384e6 1.84581045376328e7 0.0
1.84581045376328e7 -4.795461125035876e6 0.0
0.0 0.0 0.0

-6.740665886526185e6 1.8128842969690196e7 0.0
1.8128842969690196e7 -1.377245692755856e6 0.0
0.0 0.0 0.0

2.290608979267953e6 1.0064293379785208e7 0.0
1.0064293379785208e7 -2.7435128275682427e7 0.0
0.0 0.0 0.0

376125.3200580466 4.4356667168592205e6 0.0
4.4356667168592205e6 -3.602730475907298e6 0.0
0.0 0.0 0.0

236977.85430020944 6.227631336711484e6 0.0
6.227631336711484e6 -2.419406438561407e6 0.0
0.0 0.0 0.0

267816.31740930706 1.349615466151169e7 0.0
1.349615466151169e7 169377.7901858132 0.0
0.0 0.0 0.0

7.731464137188129e6 1.7564598447432145e7 0.0
1.7564598447432145e7 7.933776979581598e6 0.0
0.0 0.0 0.0

-389331.95623379014 1.2918631441690102e7 0.0
1.2918631441690102e7 3.9512256915678396e6 0.0
0.0 0.0 0.0

-6.756341629573617e6 1.57976485986084e7 0.0
1.57976485986084e7 1.0947955287059423e7 0.0
0.0 0.0 0.0

-2.0703992693687595e7 6.582526735328233e6 0.0
6.582526735328233e6 1.0976996451714275e7 0.0
0.0 0.0 0.0

424297.082023286 1.4137742627305206e7 0.0
1.4137742627305206e7 4.607150788101504e6 0.0
0.0 0.0 0.0

3.323811060747357e6 6.064190263697761e6 0.0
6.064190263697761e6 -1.279892117833713e7 0.0
0.0 0.0 0.0

-1.1122578270648532e7 2.2904798207648754e7 0.0
2.2904798207648754e7 7.199827474580697e6 0.0
0.0 0.0 0.0

-1.0507429893601885e7 -2.5629486810130435e6 0.0
-2.5629486810130435e6 2.7318702542594127e7 0.0
0.0 0.0 0.0

-776524.9119306003 1.5523856768382393e7 0.0
1.5523856768382393e7 -5.7309239973998815e6 0.0
0.0 0.0 0.0

1.3601748565596011e6 1.713647472069941e7 0.0
1.713647472069941e7 1.0460179474623853e7 0.0
0.0 0.0 0.0

-4.1680147496492034e6 1.8630488681188643e7 0.0
1.8630488681188643e7 -3.944706677310618e6 0.0
0.0 0.0 0.0

-505784.65326600336 1.292363008196864e7 0.0
1.292363008196864e7 -1.834486721220466e7 0.0
0.0 0.0 0.0

9.04480789149442e6 1.7691264909295455e7 0.0
1.7691264909295455e7 7.45865401774634e6 0.0
0.0 0.0 0.0

-802999.6629525917 1.380471021684501e7 0.0
1.380471021684501e7 -1.428592686635237e7 0.0
0.0 0.0 0.0

-40329.67031625938 1.4749175537805643e7 0.0
1.4749175537805643e7 5.818552153944932e6 0.0
0.0 0.0 0.0

-461749.3434871938 1.6085921912655208e7 0.0
1.6085921912655208e7 1.0291981581804777e7 0.0
0.0 0.0 0.0

-4.861642714732403e6 1.6250274243260017e7 0.0
1.6250274243260017e7 1.1006138467767967e7 0.0
0.0 0.0 0.0

-2.947362145003159e6 1.6054322643321369e7 0.0
1.6054322643321369e7 6.720010537886218e6 0.0
0.0 0.0 0.0

4.44559984356857e6 5.617435973776873e6 0.0
5.617435973776873e6 -2.0991075157406528e7 0.0
0.0 0.0 0.0

-2.4157547280473104e6 2.2262007780016538e7 0.0
2.2262007780016538e7 205798.8022618062 0.0
0.0 0.0 0.0

-3.5962470370768458e6 1.5268797308462746e7 0.0
1.5268797308462746e7 -6.4510299060475e6 0.0
0.0 0.0 0.0

1.5058268528603563e7 1.4691051177818263e7 0.0
1.4691051177818263e7 3.966406824683677e6 0.0
0.0 0.0 0.0

-7.160062602670782e6 2.1369121204335213e7 0.0
2.1369121204335213e7 6.402269647526169e6 0.0
0.0 0.0 0.0

4.9630914082443835e6 4.9080208236815035e6 0.0
4.9080208236815035e6 -2.3768789234959535e7 0.0
0.0 0.0 0.0

-4.550687090876782e6 1.4390016918302571e7 0.0
1.4390016918302571e7 4.2462159129888285e6 0.0
0.0 0.0 0.0

7.089192958704258e6 1.5318309762800321e7 0.0
1.5318309762800321e7 3.305541536874632e6 0.0
0.0 0.0 0.0

2.0665424585185762e7 1.2872754239341032e7 0.0
1.2872754239341032e7 551966.1539368983 0.0
0.0 0.0 0.0

-5.081178006216245e6 2.358966409340941e7 0.0
2.358966409340941e7 5.274688745477879e6 0.0
0.0 0.0 0.0

437832.671015752 1.4777242882544411e7 0.0
1.4777242882544411e7 -1.220290338066848e7 0.0
0.0 0.0 0.0

-8.708428923823822e6 6.339782474688212e6 0.0
6.339782474688212e6 1.32387228387114e7 0.0
0.0 0.0 0.0

-1.0723104315508157e7 -2.687318566546955e6 0.0
-2.687318566546955e6 2.5709932450445954e7 0.0
0.0 0.0 0.0

557970.3625164069 1.3921770300571531e7 0.0
1.3921770300571531e7 2.922591701537757e6 0.0
0.0 0.0 0.0

4.695368852573914e6 1.4868509778198116e7 0.0
1.4868509778198116e7 8.833115053978814e6 0.0
0.0 0.0 0.0

-1.144120529101862e7 300063.0391092756 0.0
300063.0391092756 1.9845525017870992e7 0.0
0.0 0.0 0.0

-2.0693438369020256e6 1.0033500978454137e7 0.0
1.0033500978454137e7 -2.709518049337237e6 0.0
0.0 0.0 0.0

-2.121814386776442e6 1.5763322566887632e7 0.0
1.5763322566887632e7 -7.7459168813178055e6 0.0
0.0 0.0 0.0

-1.2691314432774475e6 1.3072852490290187e7 0.0
1.3072852490290187e7 -1.7035914533341788e7 0.0
0.0 0.0 0.0

-2.826603211932247e6 2.184469820333212e7 0.0
2.184469820333212e7 507136.8313293286 0.0
0.0 0.0 0.0

-957923.8007875732 2.128226022995004e7 0.0
2.128226022995004e7 -2.9995442765958365e6 0.0
0.0 0.0 0.0

-2.1060732362842904e6 2.68965020203351e7 0.0
2.68965020203351e7 -2.2779965376258898e6 0.0
0.0 0.0 0.0

-1.2492718736229988e7 2.6621246310143597e7 0.0
2.6621246310143597e7 7.831519184070475e6 0.0
0.0 0.0 0.0

3.2479018283509146e6 1.521786294355308e7 0.0
1.521786294355308e7 1.2790516053484216e7 0.0
0.0 0.0 0.0

-2.4816024888135213e6 1.4321696130212367e7 0.0
1.4321696130212367e7 -4.35849233866152e7 0.0
0.0 0.0 0.0

-8.83941623390489e6 -2.227280173195219e6 0.0
-2.227280173195219e6 1.1383695361062322e7 0.0
0.0 0.0 0.0

-4.91958203876259e6 1.3001567748824725e7 0.0
1.3001567748824725e7 -1.8522170123724945e7 0.0
0.0 0.0 0.0

-2.152989404213363e6 1.1377784733659765e7 0.0
1.1377784733659765e7 -9.310449200735625e6 0.0
0.0 0.0 0.0

2.159891273144897e6 1.566890470668183e7 0.0
1.566890470668183e7 1.2852951249210345e7 0.0
0.0 0.0 0.0

-4.294904740080531e6 1.40896308746609e7 0.0
1.40896308746609e7 -2.2353709353972826e7 0.0
0.0 0.0 0.0

-3.292786171746728e6 1.2856727421144476e7 0.0
1.2856727421144476e7 -1.6379527958883371e7 0.0
0.0 0.0 0.0

7.3657566541489065e6 1.7639294941840332e7 0.0
1.7639294941840332e7 6.6929187227311e6 0.0
0.0 0.0 0.0

-3.670075654407067e6 1.61226524599421e7 0.0
1.61226524599421e7 -5.618576009513449e6 0.0
0.0 0.0 0.0

3.956608057796628e6 8.032313188259745e6 0.0
8.032313188259745e6 -2.0463652934556294e7 0.0
0.0 0.0 0.0

271844.0666269158 1.3922992468444578e7 0.0
1.3922992468444578e7 1.2787472539320758e6 0.0
0.0 0.0 0.0

-6.035565315670592e6 1.9268044117813405e7 0.0
1.9268044117813405e7 -4.591273014675763e6 0.0
0.0 0.0 0.0

1.3089902194890138e6 1.4325648689020628e7 0.0
1.4325648689020628e7 7.867417195042695e6 0.0
0.0 0.0 0.0

3.5818004530870565e6 4.560127498934361e6 0.0
4.560127498934361e6 -1.1209386571110597e7 0.0
0.0 0.0 0.0

-3.9418936912318957e6 1.9783588614698496e7 0.0
1.9783588614698496e7 1.3730460363642648e6 0.0
0.0 0.0 0.0

-4.321320597346124e6 2.2210132752817556e7 0.0
2.2210132752817556e7 3.5081660079241395e6 0.0
0.0 0.0 0.0

-1.2008247300356817e7 1.1325975631616957e7 0.0
1.1325975631616957e7 2.078182522358115e7 0.0
0.0 0.0 0.0

221161.44122363697 1.3638076366362393e7 0.0
1.3638076366362393e7 5.374024685478222e6 0.0
0.0 0.0 0.0

596181.8782259724 1.6549566646255884e7 0.0
1.6549566646255884e7 1.103505662468001e7 0.0
0.0 0.0 0.0

-4.47493309871786e6 2.4397285978989806e7 0.0
2.4397285978989806e7 4.283012847537524e6 0.0
0.0 0.0 0.0

-6.562595029659151e6 1.5734505561515614e7 0.0
1.5734505561515614e7 1.1612138410417225e7 0.0
0.0 0.0 0.0

-8.941243423759634e6 -4.712405577833802e6 0.0
-4.712405577833802e6 1.4120874498511983e7 0.0
0.0 0.0 0.0

-4.067886989966578e6 2.2238246542572893e7 0.0
2.2238246542572893e7 4.422078289311585e6 0.0
0.0 0.0 0.0

-2.787981081220168e6 1.9135160928828206e7 0.0
1.9135160928828206e7 -960584.5623337477 0.0
0.0 0.0 0.0

-4.809695056953563e6 1.553108352087196e7 0.0
1.553108352087196e7 1.903437798924817e6 0.0
0.0 0.0 0.0

-2.5939699412298263e6 2.202912953893093e7 0.0
2.202912953893093e7 138107.58815381047 0.0
0.0 0.0 0.0

-2.5250218295163e6 2.1721561341944017e7 0.0
2.1721561341944017e7 296877.51524405065 0.0
0.0 0.0 0.0

-1.1724371206623935e6 1.4969723483086167e7 0.0
1.4969723483086167e7 -6.490308972766028e6 0.0
0.0 0.0 0.0

1.9177413185707375e6 1.4381202360706106e7 0.0
1.4381202360706106e7 6.392471752517095e6 0.0
0.0 0.0 0.0

3.5131767805139134e6 7.994418698631138e6 0.0
7.994418698631138e6 -1.9431748050924353e7 0.0
0.0 0.0 0.0

-6.096787229998393e6 1.4232736834703611e7 0.0
1.4232736834703611e7 -2.530921636275591e7 0.0
0.0 0.0 0.0

-2.5659904032497522e6 1.6720285877277227e7 0.0
1.6720285877277227e7 1.96636471630388e6 0.0
0.0 0.0 0.0

-2.141362807435467e7 2.4534724786407907e7 0.0
2.4534724786407907e7 -4.140073982980918e6 0.0
0.0 0.0 0.0

-3.919906932687721e6 1.3299418656091658e7 0.0
1.3299418656091658e7 -1.5853351689987287e7 0.0
0.0 0.0 0.0

-2.361903017712681e7 2.336780579976155e7 0.0
2.336780579976155e7 -185563.97491620574 0.0
0.0 0.0 0.0

-4.568054775435433e6 1.730800677789415e7 0.0
1.730800677789415e7 8.345399733151231e6 0.0
0.0 0.0 0.0

-1.0160163543166893e7 -3.3455159119007573e6 0.0
-3.3455159119007573e6 3.0504604067190424e7 0.0
0.0 0.0 0.0

-1.5788416495195532e6 2.0809709125567682e7 0.0
2.0809709125567682e7 -2.486545024868561e6 0.0
0.0 0.0 0.0

-7.286451894043256e6 1.9854198712816738e7 0.0
1.9854198712816738e7 -4.909695345212705e6 0.0
0.0 0.0 0.0

186919.33098201873 1.5126971551885972e7 0.0
1.5126971551885972e7 -1.1321144227505725e7 0.0
0.0 0.0 0.0

-9.1836462630869e6 2.3097218700982437e7 0.0
2.3097218700982437e7 6.804149938471671e6 0.0
0.0 0.0 0.0

-1.1197954177911105e7 3.2580222826300412e6 0.0
3.2580222826300412e6 1.5877658470597863e7 0.0
0.0 0.0 0.0

3.446188427943318e6 8.610190703571582e6 0.0
8.610190703571582e6 -2.3637975307807237e7 0.0
0.0 0.0 0.0

-1.1825809220635198e7 2.276627778883085e7 0.0
2.276627778883085e7 7.071425322385066e6 0.0
0.0 0.0 0.0

239935.0217702014 1.4436971724981746e7 0.0
1.4436971724981746e7 2.4825643037701445e6 0.0
0.0 0.0 0.0

-1.0537666704627e7 5.415016939785245e6 0.0
5.415016939785245e6 1.196119919324297e7 0.0
0.0 0.0 0.0

-807413.8388914161 1.4221701650048584e7 0.0
1.4221701650048584e7 -7.913996916567825e6 0.0
0.0 0.0 0.0

-1.25580553904772e6 1.9881696389033284e7 0.0
1.9881696389033284e7 -3.285974223151422e6 0.0
0.0 0.0 0.0

-2.114896312767465e7 6.9126739235501215e6 0.0
6.9126739235501215e6 1.0230660395868856e7 0.0
0.0 0.0 0.0

-5.620904369409293e6 2.1513298575234227e7 0.0
2.1513298575234227e7 6.287594814088216e6 0.0
0.0 0.0 0.0

333435.03784498945 1.4475658338152526e7 0.0
1.4475658338152526e7 -1.2967728808674922e7 0.0
0.0 0.0 0.0

3.3367753071967848e6 8.171280354380462e6 0.0
8.171280354380462e6 -1.74304094655162e7 0.0
0.0 0.0 0.0

914596.6112034933 4.890748896674024e6 0.0
4.890748896674024e6 -4.834657430155441e6 0.0
0.0 0.0 0.0

1.1667829112736257e6 1.3362810344793338e7 0.0
1.3362810344793338e7 -1.3787436348961918e7 0.0
0.0 0.0 0.0

-1.163243693043573e7 1.9451096739127982e7 0.0
1.9451096739127982e7 -1.1450924036598424e6 0.0
0.0 0.0 0.0

-345204.4803325886 2.6599065634997718e7 0.0
2.6599065634997718e7 -1.6555626842278382e6 0.0
0.0 0.0 0.0

-2.644961994108863e6 1.5704870204984125e7 0.0
1.5704870204984125e7 1.6846226051501013e7 0.0
0.0 0.0 0.0

554681.1619473302 1.416496968040651e7 0.0
1.416496968040651e7 6.472491278551392e6 0.0
0.0 0.0 0.0

3.394377418859163e6 1.3815059885795996e7 0.0
1.3815059885795996e7 1.2076738218470518e7 0.0
0.0 0.0 0.0

-2.473834439257731e6 1.4692776564639159e7 0.0
1.4692776564639159e7 -8.246114899030803e6 0.0
0.0 0.0 0.0

-1.213352533815212e7 1.105462481140126e7 0.0
1.105462481140126e7 2.1157000167692073e7 0.0
0.0 0.0 0.0

-1.1084503999635791e6 1.2773282278119164e7 0.0
1.2773282278119164e7 -9.857719227686562e6 0.0
0.0 0.0 0.0

-2.0941679889337994e7 2.3615141692195103e7 0.0
2.3615141692195103e7 1.0419554603621904e7 0.0
0.0 0.0 0.0

-1.1229164092012685e7 520505.4032460777 0.0
520505.4032460777 2.4335960607356895e7 0.0
0.0 0.0 0.0

-1.0350393096844444e7 -3.2061198010768997e6 0.0
-3.2061198010768997e6 3.1154525703602374e7 0.0
0.0 0.0 0.0

1.133989826816348e6 1.0798805718185578e7 0.0
1.0798805718185578e7 -1.0904347441492593e7 0.0
0.0 0.0 0.0

-1.0284822090194729e6 1.3415376839157054e6 0.0
1.3415376839157054e6 654833.5348613076 0.0
0.0 0.0 0.0

3.057980660202183e6 8.552180101236736e6 0.0
8.552180101236736e6 -2.8951755761380598e7 0.0
0.0 0.0 0.0

-1.188514168131575e7 8.821019373062719e6 0.0
8.821019373062719e6 2.5517736284940485e7 0.0
0.0 0.0 0.0

2.2472261428899253e6 1.0174831885235174e7 0.0
1.0174831885235174e7 -2.324774428281852e7 0.0
0.0 0.0 0.0

-9.537925841530384e6 -3.2328438821707875e6 0.0
-3.2328438821707875e6 1.8832426641651466e7 0.0
0.0 0.0 0.0

-4.356874957439572e6 2.0580142146032333e7 0.0
2.0580142146032333e7 3.446947787583133e6 0.0
0.0 0.0 0.0

-962605.8841543142 2.0198335221234567e7 0.0
2.0198335221234567e7 -3.291552919893482e6 0.0
0.0 0.0 0.0

-4.2679019412426185e6 2.309787858300973e7 0.0
2.309787858300973e7 3.236931542164515e6 0.0
0.0 0.0 0.0

-1.995521771490182e6 2.6085336515784863e7 0.0
2.6085336515784863e7 -688925.5863463641 0.0
0.0 0.0 0.0

-2.4060389851779165e6 2.398748961815213e7 0.0
2.398748961815213e7 -39691.80847075209 0.0
0.0 0.0 0.0

-1.0769067158816887e7 -2.741475071597327e6 0.0
-2.741475071597327e6 2.460472344815033e7 0.0
0.0 0.0 0.0

4.6825316546086315e6 5.142873261333117e6 0.0
5.142873261333117e6 -2.532188974208249e7 0.0
0.0 0.0 0.0

353178.33931367425 1.5292836045098802e7 0.0
1.5292836045098802e7 -9.101907888355806e6 0.0
0.0 0.0 0.0

-1.2225662266069693e6 1.6757602217046052e7 0.0
1.6757602217046052e7 -6.098918563787806e6 0.0
0.0 0.0 0.0

2.7139207190947905e6 9.951623906303387e6 0.0
9.951623906303387e6 -1.4656484364209775e7 0.0
0.0 0.0 0.0

-3.389911178506074e6 1.1986720229286477e7 0.0
1.1986720229286477e7 -1.3045222827347476e7 0.0
0.0 0.0 0.0

534270.7967807624 1.3262637291436499e7 0.0
1.3262637291436499e7 1.780902731705705e6 0.0
0.0 0.0 0.0

-5.146782898542559e6 1.8684678116345376e7 0.0
1.8684678116345376e7 6.902974319330619e6 0.0
0.0 0.0 0.0

-7.561629255624406e6 2.196694910224031e7 0.0
2.196694910224031e7 6.167194385004127e6 0.0
0.0 0.0 0.0

-1.212621258797037e6 1.2354695903592726e7 0.0
1.2354695903592726e7 -5.793598954825454e6 0.0
0.0 0.0 0.0

-899108.7341256168 1.0247061468739172e7 0.0
1.0247061468739172e7 -2.9262887489685244e6 0.0
0.0 0.0 0.0

4.99408732234035e6 4.278579627267978e6 0.0
4.278579627267978e6 -2.075918260619152e7 0.0
0.0 0.0 0.0

1.0794743274963105e6 1.4877299967746284e7 0.0
1.4877299967746284e7 -5.663508881733676e6 0.0
0.0 0.0 0.0

3.3150860543521363e6 8.434695995115312e6 0.0
8.434695995115312e6 -1.8591463303618826e7 0.0
0.0 0.0 0.0

-1.4643530635825617e6 6.965419634030985e6 0.0
6.965419634030985e6 -2.1452622847481645e6 0.0
0.0 0.0 0.0

-856371.7960233034 9.378620260409264e6 0.0
9.378620260409264e6 -4.654576683469425e6 0.0
0.0 0.0 0.0

-279430.39432571316 4.025108348776981e6 0.0
4.025108348776981e6 -2.2956514362510815e6 0.0
0.0 0.0 0.0

-4.0394685711698364e6 1.9003993763843592e7 0.0
1.9003993763843592e7 3.324084500944593e6 0.0
0.0 0.0 0.0

715314.4047467047 1.3679556046365317e7 0.0
1.3679556046365317e7 -1.4787974445430724e7 0.0
0.0 0.0 0.0

2.708173396676436e6 8.426329334606891e6 0.0
8.426329334606891e6 -3.303741690785849e7 0.0
0.0 0.0 0.0

-3.0919310912919245e6 1.7236314048295815e7 0.0
1.7236314048295815e7 -3.486022333624347e6 0.0
0.0 0.0 0.0

-1.4152181932190008e7 2.24813423678162e7 0.0
2.24813423678162e7 -4.93240260068383e6 0.0
0.0 0.0 0.0

-1.4981960635838972e7 2.1928697621923286e7 0.0
2.1928697621923286e7 7.061217242224487e6 0.0
0.0 0.0 0.0

-4.95322144351129e6 1.9335314491251282e7 0.0
1.9335314491251282e7 -5.294158555647893e6 0.0
0.0 0.0 0.0

-1.1758012328022728e6 1.2840520581532182e7 0.0
1.2840520581532182e7 -2.1874266467754707e7 0.0
0.0 0.0 0.0

-4.822646419586213e6 1.302597388384726e7 0.0
1.302597388384726e7 -1.6075488665300645e7 0.0
0.0 0.0 0.0

-9.969258609683773e6 2.0869065271570414e7 0.0
2.0869065271570414e7 -4.712278279203034e6 0.0
0.0 0.0 0.0

-6.550725850703169e6 1.4120779677278854e7 0.0
1.4120779677278854e7 -2.1835753728096265e7 0.0
0.0 0.0 0.0

-9.845300220063213e6 1.4603923125590777e7 0.0
1.4603923125590777e7 1.5315215033672698e7 0.0
0.0 0.0 0.0

-9.05912135888146e6 -992810.1140905339 0.0
-992810.1140905339 1.1623434518178232e7 0.0
0.0 0.0 0.0

-2.7254665995777557e6 1.8859440391417585e7 0.0
1.8859440391417585e7 -2.1234354267166504e6 0.0
0.0 0.0 0.0

-6.207451132058749e6 1.684031383725093e7 0.0
1.684031383725093e7 9.78956959673443e6 0.0
0.0 0.0 0.0

-9.733440465102691e6 -3.8592619346422656e6 0.0
-3.8592619346422656e6 1.501728154107758e7 0.0
0.0 0.0 0.0

2.0591978484326983e6 1.1507188800503686e7 0.0
1.1507188800503686e7 -1.80564828690654e7 0.0
0.0 0.0 0.0

-3.821737181412112e6 1.940479181619018e7 0.0
1.940479181619018e7 593967.5747068708 0.0
0.0 0.0 0.0

44079.96814119106 1.3793248249985263e7 0.0
1.3793248249985263e7 -1.6711850469217203e6 0.0
0.0 0.0 0.0

-4.899562628116107e6 2.0445662080400597e7 0.0
2.0445662080400597e7 5.534512996141556e6 0.0
0.0 0.0 0.0

-9.497141735752115e6 2.14704380967367e7 0.0
2.14704380967367e7 -4.867360991011254e6 0.0
0.0 0.0 0.0

-5.344402758885421e6 1.33881025651638e7 0.0
1.33881025651638e7 -1.7814676493920222e7 0.0
0.0 0.0 0.0

389444.3378267051 1.6921090454849746e7 0.0
1.6921090454849746e7 1.1763282006829435e7 0.0
0.0 0.0 0.0

-1.907297985112574e7 2.1555187196216617e7 0.0
2.1555187196216617e7 7.490679068945182e6 0.0
0.0 0.0 0.0

-7.596116154233787e6 5.846967759909125e6 0.0
5.846967759909125e6 1.2069731605530053e7 0.0
0.0 0.0 0.0

-1.1555577759337101e7 6.928373080705147e6 0.0
6.928373080705147e6 3.260019571407425e7 0.0
0.0 0.0 0.0

-1.0051296109841517e6 1.523153456422665e7 0.0
1.523153456422665e7 -6.206110239320321e6 0.0
0.0 0.0 0.0

-1.7395295776494276e6 2.384123240324329e7 0.0
2.384123240324329e7 -1.0375497510204613e6 0.0
0.0 0.0 0.0

3.3634199705692944e6 1.427841643410773e7 0.0
1.427841643410773e7 1.1211399996522188e7 0.0
0.0 0.0 0.0

1.190880432861148e7 1.5502233135595467e7 0.0
1.5502233135595467e7 3.219249150693267e6 0.0
0.0 0.0 0.0

-7.071287577684702e6 2.0311711506711606e7 0.0
2.0311711506711606e7 -5.164569494912819e6 0.0
0.0 0.0 0.0

-892944.133894925 2.2365556806907974e7 0.0
2.2365556806907974e7 -2.5470626323469444e6 0.0
0.0 0.0 0.0

4.886323179790671e6 1.3925859730235688e7 0.0
1.3925859730235688e7 1.9579778141810063e7 0.0
0.0 0.0 0.0

4.417408479935627e6 6.383771199111578e6 0.0
6.383771199111578e6 -3.165849801442268e7 0.0
0.0 0.0 0.0

-5.520984695187293e6 2.0957125645587083e7 0.0
2.0957125645587083e7 6.609674678163152e6 0.0
0.0 0.0 0.0

104943.15358342865 1.284904997598116e7 0.0
1.284904997598116e7 -802177.0922199355 0.0
0.0 0.0 0.0

-7.306453117326341e6 1.4740234816145683e7 0.0
1.4740234816145683e7 -2.43548450264466e7 0.0
0.0 0.0 0.0

-2.6712212153324597e6 1.720841999939223e7 0.0
1.720841999939223e7 -1.482889104743029e6 0.0
0.0 0.0 0.0

5.3015737712268885e6 3.818723822281159e6 0.0
3.818723822281159e6 -2.7322413747152336e7 0.0
0.0 0.0 0.0

-1.545483333928095e6 1.5968470300990628e7 0.0
1.5968470300990628e7 -6.319827152343106e6 0.0
0.0 0.0 0.0

352839.2045639134 1.7191390783948604e7 0.0
1.7191390783948604e7 -6.370428406346293e6 0.0
0.0 0.0 0.0

1.1216496689295279e7 1.6259059557934277e7 0.0
1.6259059557934277e7 -4.906134965615367e6 0.0
0.0 0.0 0.0

-1.1003403334278038e7 1.3089487351839155e7 0.0
1.3089487351839155e7 1.5561280062036132e7 0.0
0.0 0.0 0.0

-2.4592417707888e6 1.2385485792261658e7 0.0
1.2385485792261658e7 529432.0180906125 0.0
0.0 0.0 0.0

-3.7668566188707976e6 1.8478601419770952e7 0.0
1.8478601419770952e7 -4.881092920738158e6 0.0
0.0 0.0 0.0

-3.0150871787363514e6 1.9026824317531146e7 0.0
1.9026824317531146e7 -1.6282041570244557e6 0.0
0.0 0.0 0.0

-1.0619225512596847e7 -551126.9570573906 0.0
-551126.9570573906 3.3269262346681044e7 0.0
0.0 0.0 0.0

-1.1803267546621368e6 1.373078923305427e7 0.0
1.373078923305427e7 -5.980151702946802e6 0.0
0.0 0.0 0.0

-8.491456300276093e6 2.2214619803496353e7 0.0
2.2214619803496353e7 6.62679597044843e6 0.0
0.0 0.0 0.0

1.7324097929169154e6 7.574117015934244e6 0.0
7.574117015934244e6 -9.532201494620914e6 0.0
0.0 0.0 0.0

2.407963177533302e6 1.6600322735653967e7 0.0
1.6600322735653967e7 1.1121479553461337e7 0.0
0.0 0.0 0.0

-2.9248688619004775e7 2.1397064556309205e7 0.0
2.1397064556309205e7 8.678589570272204e6 0.0
0.0 0.0 0.0

859953.055168389 1.296396386145898e7 0.0
1.296396386145898e7 3.905524593353343e6 0.0
0.0 0.0 0.0

3.732172664445361e6 6.61084445286298e6 0.0
6.61084445286298e6 -1.1942175963082705e7 0.0
0.0 0.0 0.0

-1.2363972604401037e6 1.6527131288846685e7 0.0
1.6527131288846685e7 1.413900881176924e7 0.0
0.0 0.0 0.0

-1.4786526781140673e6 1.8599426237309888e7 0.0
1.8599426237309888e7 -4.512714840059213e6 0.0
0.0 0.0 0.0

7.938094596244246e6 2.208731246894651e7 0.0
2.208731246894651e7 -6.886488892868832e6 0.0
0.0 0.0 0.0

-2.5428161258024704e6 1.1819876752133423e7 0.0
1.1819876752133423e7 -8.476054154195815e6 0.0
0.0 0.0 0.0

-4.822685812515149e6 1.2969678660930032e7 0.0
1.2969678660930032e7 5.099591295062236e6 0.0
0.0 0.0 0.0

1.1634516902248445e6 7.597930920777442e6 0.0
7.597930920777442e6 -8.373448495952919e6 0.0
0.0 0.0 0.0

-1.9036371296941368e6 1.3685332044513397e7 0.0
1.3685332044513397e7 -1.6285042512646962e7 0.0
0.0 0.0 0.0

-984676.4972366488 1.6167267264150338e7 0.0
1.6167267264150338e7 -6.690628962241765e6 0.0
0.0 0.0 0.0

6.337276189833013e6 1.7670100622380715e7 0.0
1.7670100622380715e7 7.658287390774237e6 0.0
0.0 0.0 0.0

-4.448998395779215e6 1.821752800299403e7 0.0
1.821752800299403e7 -3.9898056683613276e6 0.0
0.0 0.0 0.0

260944.93434150983 1.715727911253368e7 0.0
1.715727911253368e7 -6.322883227444035e6 0.0
0.0 0.0 0.0

-6.68961135275297e6 1.5238074754878185e6 0.0
1.5238074754878185e6 1.1303852808928313e7 0.0
0.0 0.0 0.0

-1.5900161482240027e6 4.1828565115684443e6 0.0
4.1828565115684443e6 3.9989469741975456e6 0.0
0.0 0.0 0.0

4.0234457695691073e6 1.6671978145913811e7 0.0
1.6671978145913811e7 -3.7017571323372927e6 0.0
0.0 0.0 0.0

561295.2336168863 1.3513117588860177e7 0.0
1.3513117588860177e7 3.476283392763574e6 0.0
0.0 0.0 0.0

2.803399611086468e7 1.3471467214089608e7 0.0
1.3471467214089608e7 3.028736044637693e6 0.0
0.0 0.0 0.0

-9.993741754654245e6 -4.1373438316161674e6 0.0
-4.1373438316161674e6 1.7252802199611604e7 0.0
0.0 0.0 0.0

-8.456197417733751e6 1.956420946319848e7 0.0
1.956420946319848e7 -3.6654176838663737e6 0.0
0.0 0.0 0.0

-1.0914270322205327e7 1.8913506475292936e7 0.0
1.8913506475292936e7 2.5223989336466403e6 0.0
0.0 0.0 0.0

-1.9328922302067332e7 2.0075092332254134e7 0.0
2.0075092332254134e7 -3.402561674601968e6 0.0
0.0 0.0 0.0

2.1513191898680232e7 5.608826276858394e6 0.0
5.608826276858394e6 -3.217302390032242e6 0.0
0.0 0.0 0.0

-1.0299730056678034e7 6.018011761606908e6 0.0
6.018011761606908e6 3.890734826382466e7 0.0
0.0 0.0 0.0

-1.0207921600797123e6 9.706582085100023e6 0.0
9.706582085100023e6 -2.212514657712668e6 0.0
0.0 0.0 0.0

-7.898260741765821e6 1.957276870863491e7 0.0
1.957276870863491e7 -4.3370579137752615e6 0.0
0.0 0.0 0.0

-4.743038069979114e6 2.0622803368034277e7 0.0
2.0622803368034277e7 6.399456778525332e6 0.0
0.0 0.0 0.0

-1.2942540508040923e6 1.5893076098244289e7 0.0
1.5893076098244289e7 -7.563548897139793e6 0.0
0.0 0.0 0.0

1.4125091277416549e6 1.1354911900556846e7 0.0
1.1354911900556846e7 -1.1495793055642206e7 0.0
0.0 0.0 0.0

-93763.06988240406 1.3627307530504363e7 0.0
1.3627307530504363e7 -4.274020459770102e6 0.0
0.0 0.0 0.0

-4.0519955084597426e6 1.2600400904775929e7 0.0
1.2600400904775929e7 -1.6642517154911699e7 0.0
0.0 0.0 0.0

-4.270702699823598e6 1.5058088717821835e7 0.0
1.5058088717821835e7 -3.570192581734256e7 0.0
0.0 0.0 0.0

6.475269437895077e6 5.285539101941729e6 0.0
5.285539101941729e6 -1.602375349274016e6 0.0
0.0 0.0 0.0

1.2453208173130925e6 2.294549613645054e7 0.0
2.294549613645054e7 -4.263187951109145e6 0.0
0.0 0.0 0.0

-3.757427849296176e6 1.2466695873470757e7 0.0
1.2466695873470757e7 -1.2524760239096148e7 0.0
0.0 0.0 0.0

8.74077775769471e6 1.3948902801675636e7 0.0
1.3948902801675636e7 3.7801833874761597e6 0.0
0.0 0.0 0.0

358915.7718860891 1.3314386643311126e7 0.0
1.3314386643311126e7 -6.128490468980923e6 0.0
0.0 0.0 0.0

-2.5093936363436067e6 1.861555714843843e7 0.0
1.861555714843843e7 -1.931001899077457e6 0.0
0.0 0.0 0.0

-2.080945086210475e6 1.3076721746601764e7 0.0
1.3076721746601764e7 -1.142459195969161e7 0.0
0.0 0.0 0.0

-1.7005628162298884e7 1.2620261258366281e7 0.0
1.2620261258366281e7 8.035429251868412e6 0.0
0.0 0.0 0.0

-5.453899432409148e6 -736058.0288677478 0.0
-736058.0288677478 5.720831274541875e6 0.0
0.0 0.0 0.0

-8.84216596057302e6 1.4112053564469518e7 0.0
1.4112053564469518e7 1.510383671738735e7 0.0
0.0 0.0 0.0

-749905.876463177 1.2044710729035921e7 0.0
1.2044710729035921e7 1.0413763705577361e6 0.0
0.0 0.0 0.0

-4.157767728965896e6 1.4290411006241897e7 0.0
1.4290411006241897e7 -9.02752867037528e6 0.0
0.0 0.0 0.0

-950842.7303021556 1.4533159844846694e7 0.0
1.4533159844846694e7 -5.51499513430888e6 0.0
0.0 0.0 0.0

-1.886605643863128e6 1.0553044529801272e7 0.0
1.0553044529801272e7 -3.3832368911320325e6 0.0
0.0 0.0 0.0

1.2958608226152759e7 1.641301217956756e7 0.0
1.641301217956756e7 -4.710117132653759e6 0.0
0.0 0.0 0.0

-8.698711920437908e6 2.406081990691242e7 0.0
2.406081990691242e7 7.016545544767694e6 0.0
0.0 0.0 0.0

1.3019707978169315e6 1.7857514198434226e7 0.0
1.7857514198434226e7 -5.24132727620404e6 0.0
0.0 0.0 0.0

-1.9772646853642894e6 1.6525925383203164e7 0.0
1.6525925383203164e7 -2.353355190904487e6 0.0
0.0 0.0 0.0

-3.7090786069160225e6 2.3386067355067942e7 0.0
2.3386067355067942e7 3.689963851546361e6 0.0
0.0 0.0 0.0

-8.175595444648249e6 1.5251948125729617e7 0.0
1.5251948125729617e7 1.284133989567498e7 0.0
0.0 0.0 0.0

1.5191096471942184e6 7.050316703402984e6 0.0
7.050316703402984e6 -6.969246734392555e6 0.0
0.0 0.0 0.0

-360682.42570020485 6.57970410137017e6 0.0
6.57970410137017e6 -1.545062695388967e6 0.0
0.0 0.0 0.0

-5.450227822342335e6 1.370586572307138e7 0.0
1.370586572307138e7 -2.2763316409694187e7 0.0
0.0 0.0 0.0

-2.870974183609808e6 1.6173281314421546e7 0.0
1.6173281314421546e7 3.4476935749059157e6 0.0
0.0 0.0 0.0

1.955393448869437e6 5.320818672492475e6 0.0
5.320818672492475e6 -7.371153383208785e6 0.0
0.0 0.0 0.0

-3.595912139763466e7 2.3453444402300686e7 0.0
2.3453444402300686e7 3.337037814095812e6 0.0
0.0 0.0 0.0

2.6522456320609525e6 8.099089889565394e6 0.0
8.099089889565394e6 -3.792552579503178e7 0.0
0.0 0.0 0.0

-536439.5516811432 8.520196007361492e6 0.0
8.520196007361492e6 -4.8230546429961445e6 0.0
0.0 0.0 0.0

-4.467406487622953e6 1.4089960864591166e7 0.0
1.4089960864591166e7 -2.4687222745290816e7 0.0
0.0 0.0 0.0

4.889150555688962e6 4.919073106698643e6 0.0
4.919073106698643e6 -2.4698292436839238e7 0.0
0.0 0.0 0.0

1.0176366239527486e7 2.405649489493499e7 0.0
2.405649489493499e7 -9.868333477094099e6 0.0
0.0 0.0 0.0

3.684533329494967e6 8.57832446327763e6 0.0
8.57832446327763e6 -1.7465558382593457e7 0.0
0.0 0.0 0.0

-1.065181786272922e7 1.0007713992249517e7 0.0
1.0007713992249517e7 2.9281963816632442e7 0.0
0.0 0.0 0.0

-1.0889229992119268e7 1.3502940710722432e7 0.0
1.3502940710722432e7 1.5905641284063704e7 0.0
0.0 0.0 0.0

-4.656013257378561e6 1.7938973817106575e7 0.0
1.7938973817106575e7 8.26800798406497e6 0.0
0.0 0.0 0.0

-6.8052481802344695e6 1.753636560317566e7 0.0
1.753636560317566e7 -1.3394639935850482e6 0.0
0.0 0.0 0.0

-9.742373333514027e6 1.4178936887402033e7 0.0
1.4178936887402033e7 1.6630207711284155e7 0.0
0.0 0.0 0.0

-4.377040169084568e6 1.8912435059500914e7 0.0
1.8912435059500914e7 2.2385842121467586e6 0.0
0.0 0.0 0.0

5.399054712952102e6 1.4884216073554078e7 0.0
1.4884216073554078e7 1.7996849594110284e7 0.0
0.0 0.0 0.0

-7.6300514337899e6 33995.0114522823 0.0
33995.0114522823 9.321466123438437e6 0.0
0.0 0.0 0.0

-122051.61832202552 1.5604219247015899e7 0.0
1.5604219247015899e7 -9.832173221689414e6 0.0
0.0 0.0 0.0

504764.5280276481 1.088780124313287e7 0.0
1.088780124313287e7 -4.219631940617778e7 0.0
0.0 0.0 0.0

-7.916593568385922e6 2.5051366972044125e7 0.0
2.5051366972044125e7 7.031286720232317e6 0.0
0.0 0.0 0.0

-1.2270885159156392e6 1.9682586971957784e7 0.0
1.9682586971957784e7 -4.197401648496178e6 0.0
0.0 0.0 0.0

1.4352328080380186e6 1.490844287234651e7 0.0
1.490844287234651e7 634816.4995367618 0.0
0.0 0.0 0.0

-1.0578155530704934e7 1.330222326313797e7 0.0
1.330222326313797e7 1.7099253883671857e7 0.0
0.0 0.0 0.0

-1.6230344076241268e7 2.4883628459418435e7 0.0
2.4883628459418435e7 8.879233537527598e6 0.0
0.0 0.0 0.0

-824690.1034297554 1.7210428734183177e7 0.0
1.7210428734183177e7 -7.167549598010992e6 0.0
0.0 0.0 0.0

-1.558795592325896e6 1.3101901773210196e7 0.0
1.3101901773210196e7 -1.9851790667465635e7 0.0
0.0 0.0 0.0

-1.3083950261113597e7 2.6272272732722215e7 0.0
2.6272272732722215e7 7.226864567060281e6 0.0
0.0 0.0 0.0

1.6604215200212203e7 2.1620477365833532e7 0.0
2.1620477365833532e7 -1.2548041944542034e7 0.0
0.0 0.0 0.0

893514.6282596821 1.4113146790822696e7 0.0
1.4113146790822696e7 1.853753046203762e6 0.0
0.0 0.0 0.0

2.666426370216132e6 9.832627938320281e6 0.0
9.832627938320281e6 -1.5801137082543254e7 0.0
0.0 0.0 0.0

-6.325909117340507e6 1.5231301239600915e7 0.0
1.5231301239600915e7 -2.695488767992521e7 0.0
0.0 0.0 0.0

5.478704516436841e6 2.2413254019949812e7 0.0
2.2413254019949812e7 -5.945083735491045e6 0.0
0.0 0.0 0.0

221996.81489447085 1.407726669105962e7 0.0
1.407726669105962e7 -1.0706285414182939e7 0.0
0.0 0.0 0.0

-2.6204117696431703e6 2.12502788755625e7 0.0
2.12502788755625e7 -855560.3519478235 0.0
0.0 0.0 0.0

1.3247316589260362e6 1.0123795702612702e7 0.0
1.0123795702612702e7 -3.556510819746955e7 0.0
0.0 0.0 0.0

16026.345540626207 1.4793681009382958e7 0.0
1.4793681009382958e7 3.9274805681206617e6 0.0
0.0 0.0 0.0

-1.805841212585911e7 2.267436774438933e7 0.0
2.267436774438933e7 9.133881664810628e6 0.0
0.0 0.0 0.0

-3.8574692086669565e6 1.925929497960855e7 0.0
1.925929497960855e7 2.744714381881207e6 0.0
0.0 0.0 0.0

1.1716014989633992e7 1.4589529626654113e7 0.0
1.4589529626654113e7 2.31563923543987e6 0.0
0.0 0.0 0.0

-4.243604308053287e6 2.3755840308833636e7 0.0
2.3755840308833636e7 3.0079289191443557e6 0.0
0.0 0.0 0.0

329650.1120107577 1.4462865035075504e7 0.0
1.4462865035075504e7 6.477408473721952e6 0.0
0.0 0.0 0.0

317688.12322589033 3.8492335528829093e6 0.0
3.8492335528829093e6 -3.1797783323659524e6 0.0
0.0 0.0 0.0

1.6730988631600456e6 2.3807807791144624e7 0.0
2.3807807791144624e7 -3.1580657682468984e6 0.0
0.0 0.0 0.0

575054.4077636059 1.4111885522565408e7 0.0
1.4111885522565408e7 -1.3924567822663784e7 0.0
0.0 0.0 0.0

5.144891517574666e6 4.205400467887464e6 0.0
4.205400467887464e6 -3.0084003811275654e7 0.0
0.0 0.0 0.0

190332.80251671118 9.302792434403913e6 0.0
9.302792434403913e6 -5.850124124824364e6 0.0
0.0 0.0 0.0

2.0053331635101112e6 6.130583814224285e6 0.0
6.130583814224285e6 -7.419905970061864e6 0.0
0.0 0.0 0.0

1.3340783015946122e6 1.1941869712843196e7 0.0
1.1941869712843196e7 -1.1435272970516574e7 0.0
0.0 0.0 0.0

-1.516697202355075e7 2.150506422536613e7 0.0
2.150506422536613e7 7.711437278718573e6 0.0
0.0 0.0 0.0

-1.6604657291684486e6 1.6312070710001452e7 0.0
1.6312070710001452e7 1.6830650904495525e6 0.0
0.0 0.0 0.0

988427.5732108965 1.8010926836705517e7 0.0
1.8010926836705517e7 -5.490835104688011e6 0.0
0.0 0.0 0.0

4.928012471617896e6 5.725185095759327e6 0.0
5.725185095759327e6 -2.4277362521321014e7 0.0
0.0 0.0 0.0

-1.069482990600263e6 1.5859905366560312e7 0.0
1.5859905366560312e7 -6.484473941303728e6 0.0
0.0 0.0 0.0

-146618.8778425688 1.3695532971350813e7 0.0
1.3695532971350813e7 -9.912175743584909e6 0.0
0.0 0.0 0.0

-5.928881733022156e6 1.8893076160461266e7 0.0
1.8893076160461266e7 -4.653155865857422e6 0.0
0.0 0.0 0.0

4.999389107528618e6 2.1049907749193333e7 0.0
2.1049907749193333e7 -6.085545274555039e6 0.0
0.0 0.0 0.0

-5.214497119674148e6 1.8930839097429562e7 0.0
1.8930839097429562e7 8.16240560787277e6 0.0
0.0 0.0 0.0

-501535.05833479436 1.502421512838907e7 0.0
1.502421512838907e7 7.974563526193314e6 0.0
0.0 0.0 0.0

-1.555467630715385e6 1.4963371585390711e7 0.0
1.4963371585390711e7 5.067774029482086e7 0.0
0.0 0.0 0.0

-5.184331692443224e6 2.598914635351748e7 0.0
2.598914635351748e7 4.708807596835144e6 0.0
0.0 0.0 0.0

616133.2024860089 1.543075780818745e7 0.0
1.543075780818745e7 -7.818761151377453e6 0.0
0.0 0.0 0.0

3.5706339374019075e6 9.007130099279018e6 0.0
9.007130099279018e6 -1.9973815575288028e7 0.0
0.0 0.0 0.0

3.791140138291251e6 8.42613479478639e6 0.0
8.42613479478639e6 -2.091460303160508e7 0.0
0.0 0.0 0.0

5.237954315504803e6 4.236684258003233e6 0.0
4.236684258003233e6 -1.8027496613909677e7 0.0
0.0 0.0 0.0

-4.903397438021494e6 1.8554425020665515e7 0.0
1.8554425020665515e7 7.932579632071646e6 0.0
0.0 0.0 0.0

4.879586490994667e6 4.4165520964555e6 0.0
4.4165520964555e6 -1.803520724148855e7 0.0
0.0 0.0 0.0

-1.1605266214614507e7 -900218.8726986704 0.0
-900218.8726986704 2.2997644959775805e7 0.0
0.0 0.0 0.0

-5.4086826488109995e6 1.6725371741018329e7 0.0
1.6725371741018329e7 1.135483411169048e7 0.0
0.0 0.0 0.0

-1.0562066840020486e6 8.828438108249852e6 0.0
8.828438108249852e6 -3.914389367575193e6 0.0
0.0 0.0 0.0

-1.7239140628557783e6 2.0042650434766274e7 0.0
2.0042650434766274e7 -3.5261908962498023e6 0.0
0.0 0.0 0.0

-35763.129720296594 2.2046115625229e7 0.0
2.2046115625229e7 -2.2168217154935864e6 0.0
0.0 0.0 0.0

379084.089977202 1.2787836768438075e7 0.0
1.2787836768438075e7 909291.381755373 0.0
0.0 0.0 0.0

1.7271303529801164e6 1.007391983176862e7 0.0
1.007391983176862e7 -3.0948929085532475e7 0.0
0.0 0.0 0.0

5.300704692270786e6 4.581679701835309e6 0.0
4.581679701835309e6 -2.624411809512646e7 0.0
0.0 0.0 0.0

-3.2405271459304072e7 2.7138090633176446e7 0.0
2.7138090633176446e7 -2.3261492363492865e6 0.0
0.0 0.0 0.0

1.0892423440742912e7 1.8150741681711603e7 0.0
1.8150741681711603e7 6.780153027456388e6 0.0
0.0 0.0 0.0

-606299.0902408678 2.177239479207166e7 0.0
2.177239479207166e7 -2.02380113603759e6 0.0
0.0 0.0 0.0

-2.959709481978481e6 1.566644496919789e7 0.0
1.566644496919789e7 1.0860030108401624e7 0.0
0.0 0.0 0.0

215211.6769185191 1.3960313312331535e7 0.0
1.3960313312331535e7 1.3442185048270244e6 0.0
0.0 0.0 0.0

-1.236814652091517e7 4.28485677939606e6 0.0
4.28485677939606e6 2.727919447086965e7 0.0
0.0 0.0 0.0

-9.15934541615826e6 2.2972211227267623e7 0.0
2.2972211227267623e7 6.567600833718073e6 0.0
0.0 0.0 0.0

-747264.8667609666 1.1784070898340877e7 0.0
1.1784070898340877e7 -6.623997275411054e6 0.0
0.0 0.0 0.0

-1.0950081787535544e7 -2.17369155785453e6 0.0
-2.17369155785453e6 1.7057587425942358e7 0.0
0.0 0.0 0.0

-5.062903546495218e6 9.939459350838557e6 0.0
9.939459350838557e6 6.4369479204018936e7 0.0
0.0 0.0 0.0

-124382.19009118946 1.5910623716775564e7 0.0
1.5910623716775564e7 -9.525943520870995e6 0.0
0.0 0.0 0.0

2.6621016004062984e6 4.840865642707967e6 0.0
4.840865642707967e6 -7.72686727251169e6 0.0
0.0 0.0 0.0

-1.0288606899968058e7 6.156629908848722e6 0.0
6.156629908848722e6 4.058262928644333e7 0.0
0.0 0.0 0.0

5.321758938858636e6 4.198081954498772e6 0.0
4.198081954498772e6 -2.2004623518819466e7 0.0
0.0 0.0 0.0

-4.53217342695864e6 1.7277568938210398e7 0.0
1.7277568938210398e7 -4.721896063172296e6 0.0
0.0 0.0 0.0

-1.1145104060954584e7 2.0120359037158784e7 0.0
2.0120359037158784e7 -3.7351012396077504e6 0.0
0.0 0.0 0.0

-69530.41456432454 1.4628055289575538e7 0.0
1.4628055289575538e7 -1.1974461110951286e7 0.0
0.0 0.0 0.0

-4.034660443904679e6 7.21584319429889e6 0.0
7.21584319429889e6 5.241124575521467e6 0.0
0.0 0.0 0.0

-2.6636615691103553e6 1.6990787691977464e7 0.0
1.6990787691977464e7 375484.6574232328 0.0
0.0 0.0 0.0

7.426458262550019e6 2.02070686999603e7 0.0
2.02070686999603e7 -6.75221521030662e6 0.0
0.0 0.0 0.0

-4.94193318139019e6 -1.6810821806945794e6 0.0
-1.6810821806945794e6 8.338338174783183e6 0.0
0.0 0.0 0.0

5.159181558480399e6 1.5092112525704836e7 0.0
1.5092112525704836e7 2.6364681046130145e6 0.0
0.0 0.0 0.0

4.743258217411073e6 2.5710631126142032e7 0.0
2.5710631126142032e7 -8.817892583621785e6 0.0
0.0 0.0 0.0

5.247886401235536e6 4.297464064656022e6 0.0
4.297464064656022e6 -1.9889710005649876e7 0.0
0.0 0.0 0.0

-5.062553030897021e6 1.4312457770666357e7 0.0
1.4312457770666357e7 2.545534710079816e6 0.0
0.0 0.0 0.0

5.093353871116661e6 1.628375545061147e7 0.0
1.628375545061147e7 2.2181425885252666e7 0.0
0.0 0.0 0.0

3.507163669959542e7 5.817601873946424e6 0.0
5.817601873946424e6 -2.523033573235072e6 0.0
0.0 0.0 0.0

-1.644592077101326e7 2.139233238338539e7 0.0
2.139233238338539e7 -1.6333471913812873e6 0.0
0.0 0.0 0.0

-4.574898015193237e6 1.867861378489267e7 0.0
1.867861378489267e7 2.8649021451951587e6 0.0
0.0 0.0 0.0

1.830633706445869e6 1.0118014050615354e7 0.0
1.0118014050615354e7 -2.7451653073882166e7 0.0
0.0 0.0 0.0

-1.201957553072282e7 2.165937660033411e7 0.0
2.165937660033411e7 6.778749730687928e6 0.0
0.0 0.0 0.0

3.7188930059483508e6 1.5458808393581152e7 0.0
1.5458808393581152e7 4.654148413323795e6 0.0
0.0 0.0 0.0

-7.624434744421437e6 6.103476401830803e6 0.0
6.103476401830803e6 5.057422958143058e7 0.0
0.0 0.0 0.0

-4.873975068301462e6 1.7647892300562806e7 0.0
1.7647892300562806e7 8.12017835411429e6 0.0
0.0 0.0 0.0

877021.1482940698 1.4428507605879545e7 0.0
1.4428507605879545e7 7.712405680203616e6 0.0
0.0 0.0 0.0

-1.0981494670320726e6 1.482662234170031e7 0.0
1.482662234170031e7 -7.4013141833399115e6 0.0
0.0 0.0 0.0

3.5764137586834463e6 1.6159709552015899e7 0.0
1.6159709552015899e7 -3.420010443900453e6 0.0
0.0 0.0 0.0

924643.6817684858 1.580543467050121e7 0.0
1.580543467050121e7 -6.165905442668467e6 0.0
0.0 0.0 0.0

-2.2856811063179355e6 1.1389083498939604e7 0.0
1.1389083498939604e7 -3.028866733143175e6 0.0
0.0 0.0 0.0

-1.429195030416801e6 1.580429541018435e7 0.0
1.580429541018435e7 1.1600282763923982e7 0.0
0.0 0.0 0.0

191812.8197469359 1.4474856067683319e7 0.0
1.4474856067683319e7 765346.9787966725 0.0
0.0 0.0 0.0

-1438.1280040852726 1.4096443716834275e7 0.0
1.4096443716834275e7 -2.85420053233988e6 0.0
0.0 0.0 0.0

-1.7871351620272896e6 1.3135972703662459e7 0.0
1.3135972703662459e7 -1.773869788806925e7 0.0
0.0 0.0 0.0

-4.0713144348117397e6 2.059181636559114e7 0.0
2.059181636559114e7 4.417338245105656e6 0.0
0.0 0.0 0.0

-9.470807446220204e6 1.8934169817670174e7 0.0
1.8934169817670174e7 -4.911353404647734e6 0.0
0.0 0.0 0.0

-7.823384801802223e6 2.349267842708183e7 0.0
2.349267842708183e7 5.966837527575529e6 0.0
0.0 0.0 0.0

-2.677404628608557e6 1.5786118571702508e7 0.0
1.5786118571702508e7 8.109391776497268e6 0.0
0.0 0.0 0.0

4.703703164336908e6 6.165566157511113e6 0.0
6.165566157511113e6 -2.005521533518683e7 0.0
0.0 0.0 0.0

-420159.19249455445 1.5577519135546742e7 0.0
1.5577519135546742e7 -1.007789708061454e7 0.0
0.0 0.0 0.0

4.805605900430718e6 2.1171291815258574e7 0.0
2.1171291815258574e7 -6.287893298300208e6 0.0
0.0 0.0 0.0

-1.1095998219015716e7 -2.099145988862356e6 0.0
-2.099145988862356e6 2.050920252389785e7 0.0
0.0 0.0 0.0

-3.556796090482888e6 1.699861581672364e7 0.0
1.699861581672364e7 5.287522122901042e6 0.0
0.0 0.0 0.0

718732.299366032 1.4719311373297097e7 0.0
1.4719311373297097e7 463776.6829198977 0.0
0.0 0.0 0.0

3.5005757502137674e6 1.7057556472431377e7 0.0
1.7057556472431377e7 -4.516185554200391e6 0.0
0.0 0.0 0.0

-1.1801198459725833e7 3.6098258999211397e6 0.0
3.6098258999211397e6 2.0398971792244334e7 0.0
0.0 0.0 0.0

1.9622701307564783e6 1.4442457696196374e7 0.0
1.4442457696196374e7 1.0221077938068205e7 0.0
0.0 0.0 0.0

-6.371826705384551e6 1.705801938398719e7 0.0
1.705801938398719e7 -3.1945956755062114e6 0.0
0.0 0.0 0.0

1.0281600556823397e6 1.2972154781208232e7 0.0
1.2972154781208232e7 -1.71862292374433e7 0.0
0.0 0.0 0.0

894790.4446822746 2.4993451722479798e7 0.0
2.4993451722479798e7 -2.2334619068799852e6 0.0
0.0 0.0 0.0

-7.617147977745367e6 2.4127373145620026e7 0.0
2.4127373145620026e7 5.594143874525426e6 0.0
0.0 0.0 0.0

-1.1699376815353904e7 4.435332719218112e6 0.0
4.435332719218112e6 1.7851888441928267e7 0.0
0.0 0.0 0.0

-3.492142095409117e6 1.771256239548047e7 0.0
1.771256239548047e7 -3.544271355504581e6 0.0
0.0 0.0 0.0

-6.115627022576375e6 2.419045490289639e7 0.0
2.419045490289639e7 4.714731588976886e6 0.0
0.0 0.0 0.0

-6.4808607245590575e6 2.3712149383825675e7 0.0
2.3712149383825675e7 5.157153345635713e6 0.0
0.0 0.0 0.0

930724.34398842 1.3840766932432497e7 0.0
1.3840766932432497e7 6.190462835112929e6 0.0
0.0 0.0 0.0

2.4564624310307633e6 1.0851197674903044e7 0.0
1.0851197674903044e7 -1.4394991363963526e7 0.0
0.0 0.0 0.0

2.7437252074609008e7 2.0832964508002985e7 0.0
2.0832964508002985e7 8.990644227604084e6 0.0
0.0 0.0 0.0

-2.918227574255806e7 96014.69886309723 0.0
96014.69886309723 9.717070813991385e6 0.0
0.0 0.0 0.0

-1.3619994464888897e7 2.1031110758844018e7 0.0
2.1031110758844018e7 5.787591241197837e6 0.0
0.0 0.0 0.0

4.9611045888774e6 4.1413448714502812e6 0.0
4.1413448714502812e6 -2.199117558972903e7 0.0
0.0 0.0 0.0

-1.0137618861139414e6 1.5468230874090463e7 0.0
1.5468230874090463e7 -8.451360676691122e6 0.0
0.0 0.0 0.0

-1.0369365176533952e7 2.2026807977464225e7 0.0
2.2026807977464225e7 6.852293695334865e6 0.0
0.0 0.0 0.0

-1.2327472379706804e7 1.5093773200456996e6 0.0
1.5093773200456996e6 2.235080377935145e7 0.0
0.0 0.0 0.0

3.062588223744819e6 8.891730247179152e6 0.0
8.891730247179152e6 -1.893530690156295e7 0.0
0.0 0.0 0.0

-3.090604567617693e6 1.2678331893773532e7 0.0
1.2678331893773532e7 -1.4461257573397832e7 0.0
0.0 0.0 0.0

3.7151724332344355e6 1.6246983284852687e7 0.0
1.6246983284852687e7 4.376437836397331e6 0.0
0.0 0.0 0.0

-2.401124243211843e7 2.2233044958005775e7 0.0
2.2233044958005775e7 826834.3773596706 0.0
0.0 0.0 0.0

-2.9545439402917135e6 9.826342603007168e6 0.0
9.826342603007168e6 -972579.9486925367 0.0
0.0 0.0 0.0

-8.136531949502929e6 2.1360526014740895e7 0.0
2.1360526014740895e7 6.390146542309087e6 0.0
0.0 0.0 0.0

-3.7433954388810215e6 2.1127503839692313e7 0.0
2.1127503839692313e7 3.419661175557711e6 0.0
0.0 0.0 0.0

-9.00329483695092e6 3.631892454962996e6 0.0
3.631892454962996e6 1.6174306503211185e7 0.0
0.0 0.0 0.0

-6.268688315351924e6 13375.122461501707 0.0
13375.122461501707 8.738615331334237e6 0.0
0.0 0.0 0.0

1.7972478597945804e6 1.1124093019780323e7 0.0
1.1124093019780323e7 -1.4828304592034178e7 0.0
0.0 0.0 0.0

-1.1245865920166824e7 421313.6334666019 0.0
421313.6334666019 2.260465771351343e7 0.0
0.0 0.0 0.0

648158.0345397955 1.3387274789769301e7 0.0
1.3387274789769301e7 -1.3788810732881874e7 0.0
0.0 0.0 0.0

3.8049807055438473e6 1.522265935728795e7 0.0
1.522265935728795e7 -2.122517025002228e6 0.0
0.0 0.0 0.0

1.249346838251213e6 8.029179008774759e6 0.0
8.029179008774759e6 -8.785265656597007e6 0.0
0.0 0.0 0.0

-1.306608517154666e7 2.0902162066491764e7 0.0
2.0902162066491764e7 5.993974330941196e6 0.0
0.0 0.0 0.0

-5.360204000651536e6 1.918812982952051e7 0.0
1.918812982952051e7 -4.295572020781109e6 0.0
0.0 0.0 0.0

205716.63798297182 1.1780566079811582e7 0.0
1.1780566079811582e7 685722.6998093091 0.0
0.0 0.0 0.0

-523480.80526658427 1.3465383558082294e7 0.0
1.3465383558082294e7 -1.7449363576593832e6 0.0
0.0 0.0 0.0

2.1678342401691247e6 1.1325652646753477e7 0.0
1.1325652646753477e7 -1.3650033541240776e7 0.0
0.0 0.0 0.0

-3.008020287476654e6 1.2990200914400697e7 0.0
1.2990200914400697e7 -1.4302594024248758e7 0.0
0.0 0.0 0.0

-9.95750747206132e6 -2.13932691870761e6 0.0
-2.13932691870761e6 1.4584101340275483e7 0.0
0.0 0.0 0.0

-3.796509883473967e6 1.0544433759114582e7 0.0
1.0544433759114582e7 3.1590817286970727e6 0.0
0.0 0.0 0.0

-666233.5877796472 1.6991475687105477e7 0.0
1.6991475687105477e7 -7.548410234820606e6 0.0
0.0 0.0 0.0

3.5503819597187396e6 6.844361016016334e6 0.0
6.844361016016334e6 -1.4927216772268377e7 0.0
0.0 0.0 0.0

-2.6385496774215795e7 1.8002295895898897e7 0.0
1.8002295895898897e7 1.265679349055376e6 0.0
0.0 0.0 0.0

2.826756304600483e6 1.5973414375732934e7 0.0
1.5973414375732934e7 -3.384818060213211e6 0.0
0.0 0.0 0.0

1.208800778394107e7 1.4461266414201196e7 0.0
1.4461266414201196e7 -1.3981976310806898e6 0.0
0.0 0.0 0.0

-9.119881744153224e6 2.6458541753018215e7 0.0
2.6458541753018215e7 6.99149596913847e6 0.0
0.0 0.0 0.0

-9.051890392988678e6 1.5170974100907021e6 0.0
1.5170974100907021e6 1.3188200646822657e7 0.0
0.0 0.0 0.0

-490364.16920114914 1.4121140367146943e7 0.0
1.4121140367146943e7 -9.073020438557385e6 0.0
0.0 0.0 0.0

-4.743146758337944e6 1.7524603585684303e7 0.0
1.7524603585684303e7 -3.198563332779908e6 0.0
0.0 0.0 0.0

-1.6126203004825223e7 2.3294216657586996e7 0.0
2.3294216657586996e7 8.290709935209637e6 0.0
0.0 0.0 0.0

-3.3025761106625623e6 1.3904097538855515e7 0.0
1.3904097538855515e7 -2.1562060991960716e7 0.0
0.0 0.0 0.0

353392.74607610924 1.4423407590852816e7 0.0
1.4423407590852816e7 4.287795633033119e6 0.0
0.0 0.0 0.0

-1.8209009994758763e6 1.3005309092186743e7 0.0
1.3005309092186743e7 -1.5790336642468113e7 0.0
0.0 0.0 0.0

-1.262985849331267e7 2.535184397832871e7 0.0
2.535184397832871e7 8.152399248752944e6 0.0
0.0 0.0 0.0

-1.9372911440787194e6 1.870813734320808e7 0.0
1.870813734320808e7 -4.689245529278656e6 0.0
0.0 0.0 0.0

-3.8294381450650007e6 1.7557897118256193e7 0.0
1.7557897118256193e7 -401045.18938750343 0.0
0.0 0.0 0.0

3.2737692133539654e6 9.519671407350322e6 0.0
9.519671407350322e6 -2.03006275843438e7 0.0
0.0 0.0 0.0

-1.193639574647502e7 3.944300549751602e6 0.0
3.944300549751602e6 2.569640308929687e7 0.0
0.0 0.0 0.0

-1.478063727685134e6 1.4119113893543905e7 0.0
1.4119113893543905e7 -6.182323542763446e6 0.0
0.0 0.0 0.0

3.5810203736692644e6 1.6125541388154188e7 0.0
1.6125541388154188e7 -3.4673463741147984e6 0.0
0.0 0.0 0.0

-2.706330885894258e6 1.3736893201633818e7 0.0
1.3736893201633818e7 -1.8679151819495205e7 0.0
0.0 0.0 0.0

-8.874194224720761e6 2.1245626640203066e7 0.0
2.1245626640203066e7 6.190168443889141e6 0.0
0.0 0.0 0.0

1.0151538310852312e7 2.408875840278378e7 0.0
2.408875840278378e7 -9.923180622134093e6 0.0
0.0 0.0 0.0

-2.9184283424037783e6 1.740588296648917e7 0.0
1.740588296648917e7 -2.5999177446764694e6 0.0
0.0 0.0 0.0

-9.178323640903797e6 2.2181205708095912e7 0.0
2.2181205708095912e7 6.525261092257469e6 0.0
0.0 0.0 0.0

-9.250771000753332e6 1.4339379440975131e7 0.0
1.4339379440975131e7 1.3637875465502787e7 0.0
0.0 0.0 0.0

1.2718220487765763e6 1.5363070837365394e7 0.0
1.5363070837365394e7 -5.367944656581778e6 0.0
0.0 0.0 0.0

-4.307516889751308e6 2.0713700810037598e7 0.0
2.0713700810037598e7 5.02361532493932e6 0.0
0.0 0.0 0.0

-2.30923642517066e6 1.3268291465031499e7 0.0
1.3268291465031499e7 -2.0660904096552134e7 0.0
0.0 0.0 0.0

4.482820584365127e6 5.348722529841283e6 0.0
5.348722529841283e6 -1.928791435753995e7 0.0
0.0 0.0 0.0

-2.752609988137092e6 1.363805155321867e7 0.0
1.363805155321867e7 -1.6753698559372166e7 0.0
0.0 0.0 0.0

-4.711378928306445e6 2.2403892993399743e7 0.0
2.2403892993399743e7 4.169117463169345e6 0.0
0.0 0.0 0.0

-2.0970136604616148e6 1.437011093280994e7 0.0
1.437011093280994e7 -6.990045452156386e6 0.0
0.0 0.0 0.0

1.5047616161166923e6 1.3598751656633692e7 0.0
1.3598751656633692e7 5.015872402474702e6 0.0
0.0 0.0 0.0

-1.2052090935487792e7 1.2614937731888134e7 0.0
1.2614937731888134e7 1.872396375302783e7 0.0
0.0 0.0 0.0

-1.3131147108488507e6 1.1094556037725832e7 0.0
1.1094556037725832e7 -2.5889179123528562e6 0.0
0.0 0.0 0.0

5.521493540248819e6 1.4286545123145847e7 0.0
1.4286545123145847e7 2.3838256086448483e7 0.0
0.0 0.0 0.0

-1.1484402681118403e7 -812581.4194271684 0.0
-812581.4194271684 2.505526928373391e7 0.0
0.0 0.0 0.0

4.806193323638232e6 4.7600070290640835e6 0.0
4.7600070290640835e6 -2.6137194234633528e7 0.0
0.0 0.0 0.0

-1.260811086543574e6 1.3688248951535882e7 0.0
1.3688248951535882e7 -1.7498852570041765e7 0.0
0.0 0.0 0.0

-7.926625781750405e6 2.2255841030491114e7 0.0
2.2255841030491114e7 6.253090544135019e6 0.0
0.0 0.0 0.0

1.6110920162684191e7 1.1437772531664498e7 0.0
1.1437772531664498e7 -185811.82964770403 0.0
0.0 0.0 0.0

-1.2370826853033908e7 2.248437742944023e6 0.0
2.248437742944023e6 1.8799373527867574e7 0.0
0.0 0.0 0.0

-1.3635106554969974e7 2.2951848530731108e7 0.0
2.2951848530731108e7 -3.968649367530445e6 0.0
0.0 0.0 0.0

-3.7614116204802017e6 1.6557318806740798e7 0.0
1.6557318806740798e7 5.362637219047533e6 0.0
0.0 0.0 0.0

-1.6491469552535988e7 2.4911864959508788e7 0.0
2.4911864959508788e7 8.95519323146182e6 0.0
0.0 0.0 0.0

4.661072734821456e6 5.099407196444794e6 0.0
5.099407196444794e6 -2.7021650633720554e7 0.0
0.0 0.0 0.0

60346.06799110281 2.1344266246094145e7 0.0
2.1344266246094145e7 -2.9271709295950755e6 0.0
0.0 0.0 0.0

-9.54465591066417e6 9.839844714033497e6 0.0
9.839844714033497e6 3.601407189537951e7 0.0
0.0 0.0 0.0

-4.510151818517796e6 2.0208940803163864e7 0.0
2.0208940803163864e7 6.45729070746861e6 0.0
0.0 0.0 0.0

-1.0639312080048532e6 1.3582815924378973e7 0.0
1.3582815924378973e7 -4.568432816046061e6 0.0
0.0 0.0 0.0

-2.1672404352030987e6 3.431885637274575e6 0.0
3.431885637274575e6 2.5025043615610427e6 0.0
0.0 0.0 0.0

1.2017254828842194e6 1.5173037765679074e7 0.0
1.5173037765679074e7 7.67539337127334e6 0.0
0.0 0.0 0.0

-4.41092418684889e6 1.7348053011023685e7 0.0
1.7348053011023685e7 6.885213430271149e6 0.0
0.0 0.0 0.0

1.7278794261276806e6 8.598829039445953e6 0.0
8.598829039445953e6 -7.905294046022836e6 0.0
0.0 0.0 0.0

-1.9225815074358962e6 1.6028430516948834e7 0.0
1.6028430516948834e7 200087.03759037564 0.0
0.0 0.0 0.0

2.906985707230945e6 1.5796333630104458e7 0.0
1.5796333630104458e7 -3.647743559913722e6 0.0
0.0 0.0 0.0

-2.0137531504746876e6 1.0950010311447697e7 0.0
1.0950010311447697e7 -839950.6512628938 0.0
0.0 0.0 0.0

-936600.6015599556 1.2957154086873299e7 0.0
1.2957154086873299e7 -1.9075187621717066e7 0.0
0.0 0.0 0.0

-5.804034492894752e6 1.3424866265801206e7 0.0
1.3424866265801206e7 4.364914515491758e6 0.0
0.0 0.0 0.0

-9.497400423266549e6 1.451010794141038e7 0.0
1.451010794141038e7 1.6589933533188634e7 0.0
0.0 0.0 0.0

-9.308432105052639e6 -2.3509934195117713e6 0.0
-2.3509934195117713e6 1.6935444038329676e7 0.0
0.0 0.0 0.0

-7.474741520222577e6 1.7517549012441024e7 0.0
1.7517549012441024e7 586448.6054728874 0.0
0.0 0.0 0.0

-6.284853140358985e6 2.1113899952167895e7 0.0
2.1113899952167895e7 6.387607267311389e6 0.0
0.0 0.0 0.0

3.1553488009199947e6 2.144349218150802e7 0.0
2.144349218150802e7 -5.010304142940071e6 0.0
0.0 0.0 0.0

-1.2266845153724218e7 1.9827467127501247e6 0.0
1.9827467127501247e6 2.0384991640111823e7 0.0
0.0 0.0 0.0

-1.667248982023865e6 1.3474050932658345e7 0.0
1.3474050932658345e7 -1.98511016021444e7 0.0
0.0 0.0 0.0

-4.805820537523568e6 2.1029869278848954e7 0.0
2.1029869278848954e7 6.135592432471545e6 0.0
0.0 0.0 0.0

588253.8339693118 1.4139326515378337e7 0.0
1.4139326515378337e7 -6.718138776478635e6 0.0
0.0 0.0 0.0

-1.2575506873848827e6 1.2179483549026523e7 0.0
1.2179483549026523e7 -5.731886243954965e6 0.0
0.0 0.0 0.0

-7.5348442906954335e6 1.1188896976755809e6 0.0
1.1188896976755809e6 1.06490011951839e7 0.0
0.0 0.0 0.0

-7.717474483427669e6 2.3031905739482827e7 0.0
2.3031905739482827e7 6.443655944735592e6 0.0
0.0 0.0 0.0

-3.215343963809485e6 1.753508440372114e7 0.0
1.753508440372114e7 151156.4770915131 0.0
0.0 0.0 0.0

973980.1686606121 1.5521683239763372e7 0.0
1.5521683239763372e7 8.726526423875809e6 0.0
0.0 0.0 0.0

129000.12605942949 3.9063161995311365e6 0.0
3.9063161995311365e6 -935222.1338700871 0.0
0.0 0.0 0.0

1.6645351431377595e6 1.4824776329576131e7 0.0
1.4824776329576131e7 2.27224607299078e6 0.0
0.0 0.0 0.0

2.7671010007338375e6 8.224525354627924e6 0.0
8.224525354627924e6 -3.510879988394735e7 0.0
0.0 0.0 0.0

-364831.52144563175 2.394558609533917e7 0.0
2.394558609533917e7 -2.875364521726743e6 0.0
0.0 0.0 0.0

-5.289938678719951e6 1.8225743958985813e7 0.0
1.8225743958985813e7 7.984229603370805e6 0.0
0.0 0.0 0.0

-7.091293737128078e6 7.031070203447513e6 0.0
7.031070203447513e6 6.715356269358614e6 0.0
0.0 0.0 0.0

-522228.2620001277 1.5634457673076734e7 0.0
1.5634457673076734e7 -2.3679922887944886e6 0.0
0.0 0.0 0.0

2.316805563502902e6 9.66951627427044e6 0.0
9.66951627427044e6 -3.2464087342230137e7 0.0
0.0 0.0 0.0

339811.6356267072 1.3344356040877238e7 0.0
1.3344356040877238e7 -1.5758771228297183e7 0.0
0.0 0.0 0.0

-8.181915566213485e6 2.491061164957826e7 0.0
2.491061164957826e7 5.554469737999767e6 0.0
0.0 0.0 0.0

-1.6823237323865108e6 1.4145299890200408e7 0.0
1.4145299890200408e7 -5.607746286597003e6 0.0
0.0 0.0 0.0

-2.6200396750330366e6 1.7418949864036866e7 0.0
1.7418949864036866e7 -6.529094475325398e6 0.0
0.0 0.0 0.0

-4.435926535138829e6 1.8419219920882873e7 0.0
1.8419219920882873e7 4.737850536771553e6 0.0
0.0 0.0 0.0

243130.41371822497 1.4148847256861242e7 0.0
1.4148847256861242e7 -9.191758292206595e6 0.0
0.0 0.0 0.0

2.8617357518952694e6 1.6041585142646167e7 0.0
1.6041585142646167e7 3.5976419444174794e6 0.0
0.0 0.0 0.0

-5.632711924316396e6 1.839117323359982e7 0.0
1.839117323359982e7 -4.374926486156262e6 0.0
0.0 0.0 0.0

-1.7459228372122615e6 1.6205951580048503e7 0.0
1.6205951580048503e7 3.2938930926307533e6 0.0
0.0 0.0 0.0

-9.8609717291422e6 6.599247788515162e6 0.0
6.599247788515162e6 4.126368709047391e7 0.0
0.0 0.0 0.0

-352467.50787209626 1.1907463240907542e7 0.0
1.1907463240907542e7 -5.314739528336392e6 0.0
0.0 0.0 0.0

-3.7328419682874763e6 1.232105586652212e7 0.0
1.232105586652212e7 -1.4852374472767597e7 0.0
0.0 0.0 0.0

-158904.50962026184 1.5202620072231526e7 0.0
1.5202620072231526e7 -1.1002749763660148e7 0.0
0.0 0.0 0.0

-3.953036420421951e6 1.5841879303671386e7 0.0
1.5841879303671386e7 -7.336881041607122e6 0.0
0.0 0.0 0.0

-4.240073927892987e6 1.7003497271761723e7 0.0
1.7003497271761723e7 7.043601171440024e6 0.0
0.0 0.0 0.0

16316.706822659764 1.3311977129795903e7 0.0
1.3311977129795903e7 54389.11812712602 0.0
0.0 0.0 0.0

-3.87896252336351e6 2.1339678219681963e7 0.0
2.1339678219681963e7 4.0752040832355544e6 0.0
0.0 0.0 0.0

-1.6605002969839456e6 1.653250766452666e7 0.0
1.653250766452666e7 145274.7829824075 0.0
0.0 0.0 0.0

-1.0238211647334287e7 484710.8080063193 0.0
484710.8080063193 4.087467839909943e7 0.0
0.0 0.0 0.0

-1.2671148497162426e7 5.267984110647311e6 0.0
5.267984110647311e6 1.628113995007088e7 0.0
0.0 0.0 0.0

749946.2103533074 1.44885698589387e7 0.0
1.44885698589387e7 -6.175098425695916e6 0.0
0.0 0.0 0.0

-1.8496690214087434e7 2.0247874723684125e7 0.0
2.0247874723684125e7 5.741123243975209e6 0.0
0.0 0.0 0.0

-9.469609902769426e6 281182.0478643092 0.0
281182.0478643092 1.1384257597468449e7 0.0
0.0 0.0 0.0

-1.1629892479010627e7 4.554736072648842e6 0.0
4.554736072648842e6 3.264945531085653e7 0.0
0.0 0.0 0.0

-1.2957287871844184e6 -513665.2315939982 0.0
-513665.2315939982 1.0157144785741067e6 0.0
0.0 0.0 0.0

-4.758276080944872e6 2.348008477523885e6 0.0
2.348008477523885e6 1.2618201240745462e6 0.0
0.0 0.0 0.0

2.3285416978757987e6 1.0010576251682922e7 0.0
1.0010576251682922e7 -1.4917489155310303e7 0.0
0.0 0.0 0.0

-3.87541442444067e6 1.7768230997708276e7 0.0
1.7768230997708276e7 -190074.0572769458 0.0
0.0 0.0 0.0

-5.214131898960501e6 1.586694861703342e7 0.0
1.586694861703342e7 -5.525041394586392e6 0.0
0.0 0.0 0.0

-4.767266316213637e6 1.69027496350401e7 0.0
1.69027496350401e7 9.481364022552203e6 0.0
0.0 0.0 0.0

-1.3192898324986636e6 1.3069944313083328e7 0.0
1.3069944313083328e7 -1.5074571174079292e7 0.0
0.0 0.0 0.0

-442197.1748387343 1.4838819520623567e7 0.0
1.4838819520623567e7 8.162041718522529e6 0.0
0.0 0.0 0.0

-5.2404768300635945e6 1.3302707088075979e7 0.0
1.3302707088075979e7 -2.0528516610800367e7 0.0
0.0 0.0 0.0

-2.8920733403355717e6 1.6321509797497982e7 0.0
1.6321509797497982e7 1.9220363093896825e6 0.0
0.0 0.0 0.0

1.2539075780675188e6 1.0292762992703935e7 0.0
1.0292762992703935e7 -3.8234651376473844e7 0.0
0.0 0.0 0.0

2.369448749162236e6 9.89530131584225e6 0.0
9.89530131584225e6 -2.87484176958236e7 0.0
0.0 0.0 0.0

-1.5868992116911039e6 1.6866139949906662e7 0.0
1.6866139949906662e7 -6.055149631428745e6 0.0
0.0 0.0 0.0

-7.427105383015153e6 2.018388180146919e7 0.0
2.018388180146919e7 -3.334316053604798e6 0.0
0.0 0.0 0.0

-9.341770643408936e6 2.113672951890441e7 0.0
2.113672951890441e7 6.406824270638861e6 0.0
0.0 0.0 0.0

-4.969955389025453e6 1.0918710318003787e7 0.0
1.0918710318003787e7 2.623546444887431e6 0.0
0.0 0.0 0.0

-2.6425810111653754e6 4.031712186062187e6 0.0
4.031712186062187e6 4.8591346731339935e6 0.0
0.0 0.0 0.0

651708.7080793793 1.3647464926732173e7 0.0
1.3647464926732173e7 -5.568938797104611e6 0.0
0.0 0.0 0.0

4.458994412325582e6 1.6486384054366285e7 0.0
1.6486384054366285e7 -3.7778850697464016e6 0.0
0.0 0.0 0.0

-8.659236307675071e6 1.0367772857525747e7 0.0
1.0367772857525747e7 3.6764269746656686e7 0.0
0.0 0.0 0.0

-2.0259126568578365e6 1.5976305769669143e7 0.0
1.5976305769669143e7 6.546844784236436e6 0.0
0.0 0.0 0.0

-6.304086093118688e6 2.117027139528876e7 0.0
2.117027139528876e7 6.490468722358877e6 0.0
0.0 0.0 0.0

-2.1759356479803273e6 1.2550214531464873e7 0.0
1.2550214531464873e7 -1.002744031130165e7 0.0
0.0 0.0 0.0

-1.1493377337842658e7 7.564354325772483e6 0.0
7.564354325772483e6 3.0036722152937077e7 0.0
0.0 0.0 0.0

-2.0498355210304535e6 1.5706519882883333e7 0.0
1.5706519882883333e7 3.4476011674429933e6 0.0
0.0 0.0 0.0

-450052.78445043927 1.521513217173741e7 0.0
1.521513217173741e7 -1.067039472139062e7 0.0
0.0 0.0 0.0

675687.0049294028 1.2627806722059911e7 0.0
1.2627806722059911e7 -1.8110267808241438e7 0.0
0.0 0.0 0.0

2.671986852756519e6 9.065382007714113e6 0.0
9.065382007714113e6 -2.791108177055887e7 0.0
0.0 0.0 0.0

2.6761459528848417e6 9.558272218871498e6 0.0
9.558272218871498e6 -2.301825794831457e7 0.0
0.0 0.0 0.0

-4.755854245066276e6 1.5035687740888117e7 0.0
1.5035687740888117e7 -2.947349788939368e7 0.0
0.0 0.0 0.0

-4.0971673975774185e6 2.102885725646586e7 0.0
2.102885725646586e7 4.544026798137983e6 0.0
0.0 0.0 0.0

-2.7191372687599375e6 1.75584511132467e7 0.0
1.75584511132467e7 -5.649003343562221e6 0.0
0.0 0.0 0.0

-104414.07167381374 1.4426994840950262e7 0.0
1.4426994840950262e7 -9.833466952967506e6 0.0
0.0 0.0 0.0

1.0452547790092722e7 1.6448811850986246e7 0.0
1.6448811850986246e7 -4.1389123038146333e6 0.0
0.0 0.0 0.0

-1.0571528060973259e7 2.6771679050838747e6 0.0
2.6771679050838747e6 3.623216557303279e7 0.0
0.0 0.0 0.0

1.5625527211490516e6 1.0068749735571023e7 0.0
1.0068749735571023e7 -3.3054513852309078e7 0.0
0.0 0.0 0.0

3.005959618654133e6 9.739627925087823e6 0.0
9.739627925087823e6 -2.2744202901884284e7 0.0
0.0 0.0 0.0

-8.593516950372148e6 6.653523650744989e6 0.0
6.653523650744989e6 4.5987526003538124e7 0.0
0.0 0.0 0.0

8.865699299616195e6 1.647416910931432e7 0.0
1.647416910931432e7 5.273991287372214e6 0.0
0.0 0.0 0.0

-1.0672545536429148e7 5.673758920456903e6 0.0
5.673758920456903e6 3.399546177767076e7 0.0
0.0 0.0 0.0

-1.7023436391766e6 2.245630297018315e6 0.0
2.245630297018315e6 514347.354435271 0.0
0.0 0.0 0.0

-4.224625054495441e6 2.1738085781314254e7 0.0
2.1738085781314254e7 3.3170131060536895e6 0.0
0.0 0.0 0.0

2.8426003129160916e6 9.378938795390708e6 0.0
9.378938795390708e6 -1.8103215434368886e7 0.0
0.0 0.0 0.0

-6.205024443898085e6 2.345617151454758e7 0.0
2.345617151454758e7 6.0741300741799e6 0.0
0.0 0.0 0.0

-1.0995283808867972e7 9.841943930525105e6 0.0
9.841943930525105e6 2.683868172936355e7 0.0
0.0 0.0 0.0

-1.2034833005786348e7 3.71267181964532e6 0.0
3.71267181964532e6 1.5046541042548072e7 0.0
0.0 0.0 0.0

830463.741285404 2.1498757627379507e7 0.0
2.1498757627379507e7 -3.4117099215021054e6 0.0
0.0 0.0 0.0

-4.815630927559412e6 1.733533311320262e7 0.0
1.733533311320262e7 9.289879268671287e6 0.0
0.0 0.0 0.0

-1.35890936619363e6 1.8964077015511543e7 0.0
1.8964077015511543e7 -4.281441127822706e6 0.0
0.0 0.0 0.0

-5.834865131917771e6 1.9208379573607445e7 0.0
1.9208379573607445e7 6.303993716156373e6 0.0
0.0 0.0 0.0

-1.1544505272266814e6 1.372858329205731e7 0.0
1.372858329205731e7 -1.6077152241881918e7 0.0
0.0 0.0 0.0

1.151621123650388e6 1.687647000821965e7 0.0
1.687647000821965e7 -5.962403782106161e6 0.0
0.0 0.0 0.0

1.8946790268716644e6 1.5084706444540164e7 0.0
1.5084706444540164e7 2.3028579663757894e7 0.0
0.0 0.0 0.0

-5.633595459800376e6 2.3053795225220863e6 0.0
2.3053795225220863e6 1.2451565175195256e7 0.0
0.0 0.0 0.0

-4.29025864044511e6 5.899429447521114e6 0.0
5.899429447521114e6 -2.0243958907947545e6 0.0
0.0 0.0 0.0

-2.6406433075023293e6 1.4899101818734841e7 0.0
1.4899101818734841e7 -8.802144233255392e6 0.0
0.0 0.0 0.0

2.278420101279018e6 1.5178614200482484e7 0.0
1.5178614200482484e7 7.594734061090332e6 0.0
0.0 0.0 0.0

277570.1141229009 2.440675760473581e7 0.0
2.440675760473581e7 -4.1244162830171427e6 0.0
0.0 0.0 0.0

4.0447906047369735e6 5.409726211335881e6 0.0
5.409726211335881e6 -1.1993766940034732e7 0.0
0.0 0.0 0.0

-4.695777450938034e6 2.4066479780362945e7 0.0
2.4066479780362945e7 4.869656981092204e6 0.0
0.0 0.0 0.0

-3.080039090809346e7 9.469168635525612e6 0.0
9.469168635525612e6 1.0601179187574156e7 0.0
0.0 0.0 0.0

-268502.8554253238 1.5383314521033872e7 0.0
1.5383314521033872e7 -1.0196594135101868e7 0.0
0.0 0.0 0.0

-1.1099542900339985e7 1.1439691192733163e7 0.0
1.1439691192733163e7 2.3100516276017103e7 0.0
0.0 0.0 0.0

560506.0261080894 1.4568370952882119e7 0.0
1.4568370952882119e7 -6.080889916911698e6 0.0
0.0 0.0 0.0

-4.606217283613782e6 1.7682146368008908e7 0.0
1.7682146368008908e7 7.284563675451951e6 0.0
0.0 0.0 0.0

-3.5772508313097116e6 1.7386918233510837e7 0.0
1.7386918233510837e7 -1.024316556608656e6 0.0
0.0 0.0 0.0

619516.6372481813 1.5001116992471129e7 0.0
1.5001116992471129e7 -7.067093762210621e6 0.0
0.0 0.0 0.0

4.785641542954214e6 4.546721683170826e6 0.0
4.546721683170826e6 -2.801760129944195e7 0.0
0.0 0.0 0.0

-663822.5684318617 1.1381423484561656e7 0.0
1.1381423484561656e7 -2.212742246291245e6 0.0
0.0 0.0 0.0

4.513791934738908e6 1.7488816575220834e7 0.0
1.7488816575220834e7 -4.683710533129463e6 0.0
0.0 0.0 0.0

-254502.31953307195 1.4354707193271533e7 0.0
1.4354707193271533e7 -1.0982472344542485e7 0.0
0.0 0.0 0.0

1.0135024339857977e6 1.6082546154146992e7 0.0
1.6082546154146992e7 7.101401147418256e6 0.0
0.0 0.0 0.0

1.7970488149258848e6 1.0130530387605902e7 0.0
1.0130530387605902e7 -2.9115168690649826e7 0.0
0.0 0.0 0.0

-1.8226514916544042e6 1.696042171326156e7 0.0
1.696042171326156e7 -5.678934247564169e6 0.0
0.0 0.0 0.0

-75837.81554636825 1.6960732096391805e7 0.0
1.6960732096391805e7 1.1317405847795919e7 0.0
0.0 0.0 0.0

1.083794530177429e7 2.0417974653763015e7 0.0
2.0417974653763015e7 -7.716542510509171e6 0.0
0.0 0.0 0.0

2.4094711321602e6 9.998734464995911e6 0.0
9.998734464995911e6 -2.5541009903769378e7 0.0
0.0 0.0 0.0

-2.599402919341545e7 8.2639281034520045e6 0.0
8.2639281034520045e6 1.042366689427795e7 0.0
0.0 0.0 0.0

-707635.146932241 1.5220973366914963e7 0.0
1.5220973366914963e7 8.682956016713712e6 0.0
0.0 0.0 0.0

-5.796731403241005e6 2.407543415511484e7 0.0
2.407543415511484e7 5.760340431923941e6 0.0
0.0 0.0 0.0

-675444.3374052488 1.5764805141685903e7 0.0
1.5764805141685903e7 -7.408956774025681e6 0.0
0.0 0.0 0.0

-5.641361714252359e6 2.1403010215328414e7 0.0
2.1403010215328414e7 6.06381889816319e6 0.0
0.0 0.0 0.0

-9.330481547976673e6 9.698064621127784e6 0.0
9.698064621127784e6 3.951561623953408e7 0.0
0.0 0.0 0.0

1.5605768624987416e6 1.218985347765219e7 0.0
1.218985347765219e7 -1.209221711872439e7 0.0
0.0 0.0 0.0

-473238.3554942199 2.1596223457462896e7 0.0
2.1596223457462896e7 -3.338204557784396e6 0.0
0.0 0.0 0.0

-1.8083366709221455e6 9.474989853749081e6 0.0
9.474989853749081e6 -442386.9374671043 0.0
0.0 0.0 0.0

-2.433869396764119e7 7.836262907936588e6 0.0
7.836262907936588e6 1.0465253939194134e7 0.0
0.0 0.0 0.0

-3.411844813436046e6 1.215285223395513e7 0.0
1.215285223395513e7 -970488.341733834 0.0
0.0 0.0 0.0

-1.18442240631955e7 169985.93166501934 0.0
169985.93166501934 2.030787625363837e7 0.0
0.0 0.0 0.0

-1.0298430308956893e7 1.2263096966592545e7 0.0
1.2263096966592545e7 2.4221522290818036e7 0.0
0.0 0.0 0.0

-5.0580952583487015e6 2.281488073722421e7 0.0
2.281488073722421e7 4.411136461601507e6 0.0
0.0 0.0 0.0

-5.472315858503782e6 2.455101417013581e7 0.0
2.455101417013581e7 5.304858721550742e6 0.0
0.0 0.0 0.0

-1.049803869471772e7 8.529122812100941e6 0.0
8.529122812100941e6 3.1231973304911826e7 0.0
0.0 0.0 0.0

1.47495779188208e6 1.118948460110673e7 0.0
1.118948460110673e7 -1.0134495512458565e7 0.0
0.0 0.0 0.0

3.0817437362214583e6 1.5671396395157836e7 0.0
1.5671396395157836e7 -1.518213242635284e6 0.0
0.0 0.0 0.0

-1.5967981713850182e6 1.1036656809637716e7 0.0
1.1036656809637716e7 -7.189008319189528e6 0.0
0.0 0.0 0.0

80862.84987217328 8.101175460956336e6 0.0
8.101175460956336e6 -2.547873458587821e6 0.0
0.0 0.0 0.0

-4.244673225321966e6 2.2683093625935167e7 0.0
2.2683093625935167e7 4.571824964633735e6 0.0
0.0 0.0 0.0

-1.1458817813150901e7 1.3749317537807012e7 0.0
1.3749317537807012e7 1.757413463452258e7 0.0
0.0 0.0 0.0

1.8727489580216482e6 1.0320504909648405e7 0.0
1.0320504909648405e7 -2.60294515511204e7 0.0
0.0 0.0 0.0

-1.569157442020949e7 1.9913537787077565e7 0.0
1.9913537787077565e7 4.444492182871757e6 0.0
0.0 0.0 0.0

-1.485042496253523e6 1.950954303713391e7 0.0
1.950954303713391e7 -3.4870532405011924e6 0.0
0.0 0.0 0.0

4.1367919092911426e6 5.667973810618429e6 0.0
5.667973810618429e6 -3.312923062022245e7 0.0
0.0 0.0 0.0

-4.436530387865948e6 1.5890879710897718e7 0.0
1.5890879710897718e7 1.203519961011366e7 0.0
0.0 0.0 0.0

-3.7201616143810963e6 1.7754602391407087e7 0.0
1.7754602391407087e7 1.5387745766837846e6 0.0
0.0 0.0 0.0

-13572.565486132167 1.5509964562884314e7 0.0
1.5509964562884314e7 -1.0353070970813889e7 0.0
0.0 0.0 0.0

-7.321635586600637e6 2.379619478062413e7 0.0
2.379619478062413e7 6.477567503498462e6 0.0
0.0 0.0 0.0

-3.020448833617959e6 1.77453269329547e7 0.0
1.77453269329547e7 -441628.7890455054 0.0
0.0 0.0 0.0

-5.694435640033342e6 2.325723056950735e7 0.0
2.325723056950735e7 4.752591082411237e6 0.0
0.0 0.0 0.0

-1.012485764931992e6 6.896291790753511e6 0.0
6.896291790753511e6 -641549.6372554428 0.0
0.0 0.0 0.0

2.3748876405320438e6 1.4788579331517141e7 0.0
1.4788579331517141e7 9.739639362169426e6 0.0
0.0 0.0 0.0

91144.9396056626 1.3708036318587897e7 0.0
1.3708036318587897e7 -1.4358187227327991e7 0.0
0.0 0.0 0.0

-2.3892063240572084e6 1.1835165516157508e7 0.0
1.1835165516157508e7 -496036.8030361162 0.0
0.0 0.0 0.0

-41217.068234912585 1.4601725118762555e7 0.0
1.4601725118762555e7 -1.1824585923430353e7 0.0
0.0 0.0 0.0

3.1861009863977013e6 7.303534003411772e6 0.0
7.303534003411772e6 -1.4180576223119924e7 0.0
0.0 0.0 0.0

4.298476440185569e6 1.755276219041709e7 0.0
1.755276219041709e7 7.844836102419214e6 0.0
0.0 0.0 0.0

-1.0025925765181689e7 -3.318182168080851e6 0.0
-3.318182168080851e6 2.5987692415889487e7 0.0
0.0 0.0 0.0

2.780919780354436e6 1.4981163819455912e7 0.0
1.4981163819455912e7 1.115328033194264e7 0.0
0.0 0.0 0.0

-4.436067759134503e6 2.150063850503125e7 0.0
2.150063850503125e7 3.845862882335975e6 0.0
0.0 0.0 0.0

606864.4042918077 1.3519409367634006e7 0.0
1.3519409367634006e7 -1.601319074513762e7 0.0
0.0 0.0 0.0

-541117.6506231102 2.111393385402678e7 0.0
2.111393385402678e7 -2.7392158211220517e6 0.0
0.0 0.0 0.0

-92102.27737236116 1.5096115218969196e7 0.0
1.5096115218969196e7 -1.9477829227237604e6 0.0
0.0 0.0 0.0

3.476438702970639e6 9.05773446192332e6 0.0
9.05773446192332e6 -1.759213248663775e7 0.0
0.0 0.0 0.0

-1.7871466841139891e6 1.9069575316916164e7 0.0
1.9069575316916164e7 -4.448697962502786e6 0.0
0.0 0.0 0.0

59937.02801282983 1.3957501376070239e7 0.0
1.3957501376070239e7 -1.3513532654645186e7 0.0
0.0 0.0 0.0

-7.1265017084596185e6 4.782190671382179e6 0.0
4.782190671382179e6 9.053475690098818e6 0.0
0.0 0.0 0.0

-256315.33878903277 1.6684915889929928e7 0.0
1.6684915889929928e7 9.78560050720255e6 0.0
0.0 0.0 0.0

-5.090371345593372e6 1.7953642601380132e7 0.0
1.7953642601380132e7 7.061147850985579e6 0.0
0.0 0.0 0.0

-4.550183099534716e6 2.19623616587989e7 0.0
2.19623616587989e7 3.981475049542003e6 0.0
0.0 0.0 0.0

-1.8889453312641964e6 1.5371625758973118e7 0.0
1.5371625758973118e7 6.452372231917138e6 0.0
0.0 0.0 0.0

-2.0386513725238123e6 4.541885211863212e6 0.0
4.541885211863212e6 2.0061627402941356e6 0.0
0.0 0.0 0.0

-1.2280477835803904e7 6.839523285343679e6 0.0
6.839523285343679e6 2.569407109240809e7 0.0
0.0 0.0 0.0

-148433.9155949792 1.495702707938849e7 0.0
1.495702707938849e7 -1.102927571327997e7 0.0
0.0 0.0 0.0

349289.0667396039 1.2341277715643039e7 0.0
1.2341277715643039e7 -3.7059419947852865e7 0.0
0.0 0.0 0.0

-1.8811216002117556e6 5.482798033586891e6 0.0
5.482798033586891e6 1.4375607341065323e6 0.0
0.0 0.0 0.0

-1.0216193360406093e7 -910221.7580254709 0.0
-910221.7580254709 1.4104541522649353e7 0.0
0.0 0.0 0.0

-6.107742823204335e6 1.3831322511343159e7 0.0
1.3831322511343159e7 5.468730399433763e6 0.0
0.0 0.0 0.0

-1.7828374508609897e6 1.9678117906962506e7 0.0
1.9678117906962506e7 -2.8991923693781327e6 0.0
0.0 0.0 0.0

-1.0395220311107682e6 1.2960906515331361e7 0.0
1.2960906515331361e7 -2.4622908962606046e7 0.0
0.0 0.0 0.0

3.64167514890695e6 7.047460614012219e6 0.0
7.047460614012219e6 -1.2453273855489315e7 0.0
0.0 0.0 0.0

-3.7160448246439802e6 2.157844761829759e7 0.0
2.157844761829759e7 3.559106999157927e6 0.0
0.0 0.0 0.0

-1.191198128938094e6 1.929471145944567e7 0.0
1.929471145944567e7 -4.0951613871625424e6 0.0
0.0 0.0 0.0

-9.542641196810728e6 2.753756545488806e7 0.0
2.753756545488806e7 5.110580228345104e6 0.0
0.0 0.0 0.0

-3.9400675761923846e6 2.177475352870222e7 0.0
2.177475352870222e7 4.260831226730021e6 0.0
0.0 0.0 0.0

-1.5180269377673032e7 2.168204909158446e7 0.0
2.168204909158446e7 -263926.66131931264 0.0
0.0 0.0 0.0

-1.7469412249749652e6 1.6745759731072892e7 0.0
1.6745759731072892e7 -1.2008305715091396e6 0.0
0.0 0.0 0.0

49574.07634238154 1.221173266028977e7 0.0
1.221173266028977e7 -3.428971320303467e7 0.0
0.0 0.0 0.0

-3.0760320595921827e6 1.1280291104110098e7 0.0
1.1280291104110098e7 -1.3345577833606813e6 0.0
0.0 0.0 0.0

-1.1499558595432123e7 -629206.644099122 0.0
-629206.644099122 3.028624822659815e7 0.0
0.0 0.0 0.0

-1.115961858172185e7 3.442343930880772e6 0.0
3.442343930880772e6 3.555691186320763e7 0.0
0.0 0.0 0.0

4.236777055699458e6 6.293422544768736e6 0.0
6.293422544768736e6 -2.508623991964262e7 0.0
0.0 0.0 0.0

-5.011940467107693e6 1.903732800335736e7 0.0
1.903732800335736e7 7.465898782364568e6 0.0
0.0 0.0 0.0

-9.226041011285169e6 1.060351475454927e7 0.0
1.060351475454927e7 3.351315941047859e7 0.0
0.0 0.0 0.0

23142.70966848824 1.4274135510101788e7 0.0
1.4274135510101788e7 -1.2660211364351144e7 0.0
0.0 0.0 0.0

-7.650364655752895e6 1.260690775397049e7 0.0
1.260690775397049e7 3.0333918782841712e7 0.0
0.0 0.0 0.0

-2.1173381011095904e6 1.925570323529876e7 0.0
1.925570323529876e7 -3.8887593589907535e6 0.0
0.0 0.0 0.0

-1.5134960876093288e6 2.2646518009361796e7 0.0
2.2646518009361796e7 -1.5505052495624998e6 0.0
0.0 0.0 0.0

32211.93216477486 1.4998490447047966e7 0.0
1.4998490447047966e7 -3.076567968388455e6 0.0
0.0 0.0 0.0

-1.072770405732067e7 1.422273481851336e6 0.0
1.422273481851336e6 1.4830319047434932e7 0.0
0.0 0.0 0.0

-1.4075374498413843e6 1.5273157606240233e7 0.0
1.5273157606240233e7 7.744306136231413e6 0.0
0.0 0.0 0.0

-5.262047226331798e6 1.3402869307067767e7 0.0
1.3402869307067767e7 6.178577955853686e6 0.0
0.0 0.0 0.0

4.704612627790555e6 5.07421677343108e6 0.0
5.07421677343108e6 -2.2975632973614056e7 0.0
0.0 0.0 0.0

1.5286092165127397e6 1.6607420674671458e7 0.0
1.6607420674671458e7 -5.539727481323745e6 0.0
0.0 0.0 0.0

-1.1658401977353454e7 1.529441177107213e7 0.0
1.529441177107213e7 8.693879249256508e6 0.0
0.0 0.0 0.0

-1.3304424327668896e7 1.847810677916703e7 0.0
1.847810677916703e7 -2.802955186562498e6 0.0
0.0 0.0 0.0

-3.815821434967536e6 2.1758096656510446e7 0.0
2.1758096656510446e7 2.199511396043086e6 0.0
0.0 0.0 0.0

698887.7639797484 1.0875119810800737e7 0.0
1.0875119810800737e7 -9.655995283890668e6 0.0
0.0 0.0 0.0

-3.058557870965951e6 1.6547747618795833e7 0.0
1.6547747618795833e7 -927641.4047962165 0.0
0.0 0.0 0.0

-1.907819444728165e6 2.273732229139026e7 0.0
2.273732229139026e7 253039.65113023878 0.0
0.0 0.0 0.0

-5.3493228084184555e6 1.589103124722394e7 0.0
1.589103124722394e7 1.3296500449875489e7 0.0
0.0 0.0 0.0

-2.4645839173601093e6 1.558421470376039e7 0.0
1.558421470376039e7 6.644474082682193e6 0.0
0.0 0.0 0.0

1.4912931660845927e6 1.057006467556039e7 0.0
1.057006467556039e7 -9.175698312758774e6 0.0
0.0 0.0 0.0

-3.573448521725595e6 2.4047996602559354e7 0.0
2.4047996602559354e7 3.2031164609204633e6 0.0
0.0 0.0 0.0

-1.1469891127508653e7 -2.0194967144017203e6 0.0
-2.0194967144017203e6 2.216595833887808e7 0.0
0.0 0.0 0.0

4.753394073032751e6 5.857244714642051e6 0.0
5.857244714642051e6 -1.84786597975575e7 0.0
0.0 0.0 0.0

-2.497669545556079e6 2.1050793317438472e7 0.0
2.1050793317438472e7 -142012.26765134092 0.0
0.0 0.0 0.0

260905.97718956415 1.3909792915503437e7 0.0
1.3909792915503437e7 -1.4676210692375187e7 0.0
0.0 0.0 0.0

-756863.5282715473 2.747891035161045e6 0.0
2.747891035161045e6 628936.890713132 0.0
0.0 0.0 0.0

1.3100536699151122e6 8.473827828256158e6 0.0
8.473827828256158e6 -9.239391957158279e6 0.0
0.0 0.0 0.0

-5.770966943551931e6 1.9567109111121893e7 0.0
1.9567109111121893e7 -1.6301190603981733e6 0.0
0.0 0.0 0.0

3.0679557034354033e6 9.93056618111422e6 0.0
9.93056618111422e6 -1.7157821453700773e7 0.0
0.0 0.0 0.0

3.9254099271155233e6 1.76689796412152e7 0.0
1.76689796412152e7 8.032631589656224e6 0.0
0.0 0.0 0.0

-2.1550002875784193e6 7.254991703132548e6 0.0
7.254991703132548e6 -1.1849562331862296e6 0.0
0.0 0.0 0.0

-2.48079590067979e6 4.720098591997738e6 0.0
4.720098591997738e6 325908.98210078897 0.0
0.0 0.0 0.0

1.8640488795000422e6 2.1522550071155872e7 0.0
2.1522550071155872e7 -4.0202368877219227e6 0.0
0.0 0.0 0.0

-1.084346493366117e7 -1.504742481587092e6 0.0
-1.504742481587092e6 2.1987311222522743e7 0.0
0.0 0.0 0.0

911871.4039009102 1.3057304042891636e7 0.0
1.3057304042891636e7 -1.0423492417731171e7 0.0
0.0 0.0 0.0

560865.4885317236 1.3713818569133624e7 0.0
1.3713818569133624e7 975535.2619065467 0.0
0.0 0.0 0.0

6.93761271023459e6 1.8561784244593047e7 0.0
1.8561784244593047e7 -5.450364427932149e6 0.0
0.0 0.0 0.0

935377.9285434373 1.3703965656543436e7 0.0
1.3703965656543436e7 -1.2805952645352252e7 0.0
0.0 0.0 0.0

3.9496791599513604e6 1.553537582909142e7 0.0
1.553537582909142e7 1.5448622392240345e7 0.0
0.0 0.0 0.0

-7.104677675279554e6 2.1321314363118228e7 0.0
2.1321314363118228e7 6.308855801255342e6 0.0
0.0 0.0 0.0

-1.0551052927506665e7 -1.0672685949530648e6 0.0
-1.0672685949530648e6 2.812665249229655e7 0.0
0.0 0.0 0.0

-2.2022952695425022e6 2.1077329053985804e7 0.0
2.1077329053985804e7 -579534.3666586311 0.0
0.0 0.0 0.0

-2.2958626159839616e6 1.624030220066116e7 0.0
1.624030220066116e7 1.157515932285434e7 0.0
0.0 0.0 0.0

2.408525026598527e6 9.623297564532012e6 0.0
9.623297564532012e6 -1.4541160074198492e7 0.0
0.0 0.0 0.0

5.116352395117432e6 5.100433555371161e6 0.0
5.100433555371161e6 -2.532256251310407e7 0.0
0.0 0.0 0.0

-3.379462917261493e6 1.7564039212769076e7 0.0
1.7564039212769076e7 -1.5919534720192687e6 0.0
0.0 0.0 0.0

-6.851258408503842e6 8.516687083040515e6 0.0
8.516687083040515e6 9.545005120749118e6 0.0
0.0 0.0 0.0

-1.1403200124680039e7 1.2830223866759263e7 0.0
1.2830223866759263e7 2.076518901098208e7 0.0
0.0 0.0 0.0

548304.6913540037 1.3275422536971966e7 0.0
1.3275422536971966e7 -1.6904579176822122e7 0.0
0.0 0.0 0.0

411200.84075557627 1.1755910066555314e7 0.0
1.1755910066555314e7 -3.2201484466180883e7 0.0
0.0 0.0 0.0

-2.0445673978372556e6 2.1475618563087203e7 0.0
2.1475618563087203e7 -500537.6157926539 0.0
0.0 0.0 0.0

-1.583971339618668e6 1.538466359752465e7 0.0
1.538466359752465e7 4.907965813824124e6 0.0
0.0 0.0 0.0

-2.8621112167616323e7 8.86704638463866e6 0.0
8.86704638463866e6 1.0385140351250364e7 0.0
0.0 0.0 0.0

4.374455384458624e6 1.5903377483822582e7 0.0
1.5903377483822582e7 1.7972202911885746e7 0.0
0.0 0.0 0.0

-2.6171163776867535e7 2.2234605634872813e7 0.0
2.2234605634872813e7 9.30815213778012e6 0.0
0.0 0.0 0.0

2.923733528127338e6 9.333755644572679e6 0.0
9.333755644572679e6 -2.046748159558038e7 0.0
0.0 0.0 0.0

5.1964619203396635e6 5.020120159509757e6 0.0
5.020120159509757e6 -915631.72164724 0.0
0.0 0.0 0.0

-1.3285784035388568e7 -2.201626455693629e6 0.0
-2.201626455693629e6 7.179680799548812e6 0.0
0.0 0.0 0.0

-5.603018592244914e6 7.647867834551599e6 0.0
7.647867834551599e6 7.559250723816449e6 0.0
0.0 0.0 0.0

-1.1074635299546866e7 217756.5221567575 0.0
217756.5221567575 2.663374118021004e7 0.0
0.0 0.0 0.0

-1.204095120724576e7 429182.8004413581 0.0
429182.8004413581 2.156007122181404e7 0.0
0.0 0.0 0.0

282651.0929619088 1.4773552398209115e7 0.0
1.4773552398209115e7 -1.213203575967741e7 0.0
0.0 0.0 0.0

-1.8854129784337755e6 1.1568362304538568e7 0.0
1.1568362304538568e7 -6.284710184788587e6 0.0
0.0 0.0 0.0

989119.1731445432 1.3314663366898652e7 0.0
1.3314663366898652e7 3.2970640510071334e6 0.0
0.0 0.0 0.0

820112.562238797 1.3519942512493437e7 0.0
1.3519942512493437e7 -1.317195778900194e6 0.0
0.0 0.0 0.0

-1.8522005282128332e6 2.1854378137998313e7 0.0
2.1854378137998313e7 -396753.5456402175 0.0
0.0 0.0 0.0

-9.627081052728102e6 6.792406012116544e6 0.0
6.792406012116544e6 1.4265182789442284e7 0.0
0.0 0.0 0.0

146934.88962135604 1.4167163851861075e7 0.0
1.4167163851861075e7 -1.2062904587464452e7 0.0
0.0 0.0 0.0

-4.525066238981778e6 1.918388755370675e7 0.0
1.918388755370675e7 3.0434344896029853e6 0.0
0.0 0.0 0.0

3.51325436283704e6 7.923098867141027e6 0.0
7.923098867141027e6 -2.356004598518024e7 0.0
0.0 0.0 0.0

-1.0992743675877128e7 -611650.2070153535 0.0
-611650.2070153535 2.369475716695168e7 0.0
0.0 0.0 0.0

-2.0285046477891768e6 2.0627752872100756e7 0.0
2.0627752872100756e7 -1.3538759493925862e6 0.0
0.0 0.0 0.0

-1.388686526876961e6 1.5346457243675664e7 0.0
1.5346457243675664e7 3.333254901356305e6 0.0
0.0 0.0 0.0

-1.1915649253410767e6 1.5495183395215048e7 0.0
1.5495183395215048e7 1.7941232092946644e6 0.0
0.0 0.0 0.0

-3.8229690377451032e6 1.8517695586690888e7 0.0
1.8517695586690888e7 -5.944814944404044e6 0.0
0.0 0.0 0.0

2.811220228893707e6 1.3776067516567722e7 0.0
1.3776067516567722e7 1.0439751321143249e7 0.0
0.0 0.0 0.0

-3.107709722105114e6 1.762659541763739e7 0.0
1.762659541763739e7 -5.006354955957542e6 0.0
0.0 0.0 0.0

-1.091125683646073e7 1.0966186111631121e7 0.0
1.0966186111631121e7 2.49763808861703e7 0.0
0.0 0.0 0.0

-1.1435668756087685e7 -1.0980244025903828e6 0.0
-1.0980244025903828e6 2.7653165846793287e7 0.0
0.0 0.0 0.0

2.995693638762356e6 9.305831675984407e6 0.0
9.305831675984407e6 -1.4024146241001133e7 0.0
0.0 0.0 0.0

4.401178302459348e6 5.714509337675882e6 0.0
5.714509337675882e6 -2.611217528135877e7 0.0
0.0 0.0 0.0

487380.57639953913 1.4481985657129915e7 0.0
1.4481985657129915e7 -1.1156028264931109e7 0.0
0.0 0.0 0.0

2.2842565728116278e6 1.6664580003450884e7 0.0
1.6664580003450884e7 5.856618826875602e6 0.0
0.0 0.0 0.0

3.3231758086271174e6 6.525779394537304e6 0.0
6.525779394537304e6 -1.3293523715411618e7 0.0
0.0 0.0 0.0

-3.4773306719315886e6 1.3753311756529111e7 0.0
1.3753311756529111e7 -1.9199819660074547e7 0.0
0.0 0.0 0.0

711693.5667965412 1.145171377344359e7 0.0
1.145171377344359e7 -3.019355547500153e7 0.0
0.0 0.0 0.0

-5.384763707034964e6 1.2942703782963691e7 0.0
1.2942703782963691e7 3.2283807280151914e6 0.0
0.0 0.0 0.0

-5.840364356329238e6 1.9223876449006163e7 0.0
1.9223876449006163e7 7.1961106450909935e6 0.0
0.0 0.0 0.0

-4.440255181620898e6 1.8234736868491534e7 0.0
1.8234736868491534e7 -4.883967650071597e6 0.0
0.0 0.0 0.0

-1.0495816574942026e7 514799.9666552212 0.0
514799.9666552212 3.5360509712697186e7 0.0
0.0 0.0 0.0

1.0206686778406017e6 1.1280730150983058e7 0.0
1.1280730150983058e7 -2.8474967699808378e7 0.0
0.0 0.0 0.0

-1.0720345929134145e7 1.0409021590848785e7 0.0
1.0409021590848785e7 2.6940347554000154e7 0.0
0.0 0.0 0.0

-1.1034043374438456e6 1.5650141651132561e7 0.0
1.5650141651132561e7 287923.59251459443 0.0
0.0 0.0 0.0

-2.4850389708115747e6 2.163261015845e7 0.0
2.163261015845e7 -743804.1525196445 0.0
0.0 0.0 0.0

-1.0567827656143555e7 2.079019832756494e7 0.0
2.079019832756494e7 5.876064293107215e6 0.0
0.0 0.0 0.0

-1.190906617745127e7 1.1838698674225971e7 0.0
1.1838698674225971e7 2.0858149879597988e7 0.0
0.0 0.0 0.0

-2.6173271877494925e6 1.1701323769086365e7 0.0
1.1701323769086365e7 -1.1278228941663232e7 0.0
0.0 0.0 0.0

1.7166949915230046e6 1.4263009664795209e7 0.0
1.4263009664795209e7 6.723604062734414e6 0.0
0.0 0.0 0.0

3.9885551067459164e6 6.732315470989421e6 0.0
6.732315470989421e6 -2.4166488355281726e7 0.0
0.0 0.0 0.0

1.7879452163519165e6 7.998104877022443e6 0.0
7.998104877022443e6 -1.0004616322297785e7 0.0
0.0 0.0 0.0

-1.155502480849016e7 8.012518189718247e6 0.0
8.012518189718247e6 2.71159676833203e7 0.0
0.0 0.0 0.0

-4.337475970761932e6 1.6729895998356787e7 0.0
1.6729895998356787e7 8.311333191703559e6 0.0
0.0 0.0 0.0

-2.264952741144944e7 2.0044389691809982e7 0.0
2.0044389691809982e7 5.227064066118419e6 0.0
0.0 0.0 0.0

1.0446737782013714e6 1.2284279226453682e7 0.0
1.2284279226453682e7 -1.8442869286532845e7 0.0
0.0 0.0 0.0

3.016366305407335e6 8.949839170010373e6 0.0
8.949839170010373e6 -2.284202167893353e7 0.0
0.0 0.0 0.0

1.2901728543872386e6 1.1214920481844768e7 0.0
1.1214920481844768e7 -2.6881091370830484e7 0.0
0.0 0.0 0.0

2.8341998675936274e6 4.764579555255466e6 0.0
4.764579555255466e6 -8.385565094673326e6 0.0
0.0 0.0 0.0

-586396.6092714358 1.5892096176409373e7 0.0
1.5892096176409373e7 -7.778263106151768e6 0.0
0.0 0.0 0.0

-25223.703016689047 1.684333129741634e7 0.0
1.684333129741634e7 -7.389452578109936e6 0.0
0.0 0.0 0.0

-1.6766714279215232e7 2.615971380564916e7 0.0
2.615971380564916e7 8.640634034288682e6 0.0
0.0 0.0 0.0

1.89684602620141e6 4.790450257000196e6 0.0
4.790450257000196e6 -5.669086439888486e6 0.0
0.0 0.0 0.0

320165.6799229793 1.4174681086765688e7 0.0
1.4174681086765688e7 -1.3779941873933641e7 0.0
0.0 0.0 0.0

-1.0790921515873577e7 1.4080742098133126e7 0.0
1.4080742098133126e7 1.805313039496918e7 0.0
0.0 0.0 0.0

-1.0469749121762998e7 -581992.5425407102 0.0
-581992.5425407102 1.9067715318727765e7 0.0
0.0 0.0 0.0

4.4965877929111e6 5.521252717371353e6 0.0
5.521252717371353e6 -2.214360891843862e7 0.0
0.0 0.0 0.0

-1.1218266770080946e7 1.749547075760102e6 0.0
1.749547075760102e6 1.9170295508467548e7 0.0
0.0 0.0 0.0

-1.1433799550952818e7 1.9490295792941635e6 0.0
1.9490295792941635e6 2.3304504682119578e7 0.0
0.0 0.0 0.0

-6.985330351548774e6 7.287852644329659e6 0.0
7.287852644329659e6 1.0595939424151674e7 0.0
0.0 0.0 0.0

-5.094248661889028e6 1.781292718965044e7 0.0
1.781292718965044e7 8.949433977849271e6 0.0
0.0 0.0 0.0

-1.608317535278599e6 1.005458204487503e7 0.0
1.005458204487503e7 -1.1700027493620077e6 0.0
0.0 0.0 0.0

1.3215473104475379e7 5.676618745032138e6 0.0
5.676618745032138e6 -3.039722203973531e6 0.0
0.0 0.0 0.0

-2.6313870152740773e7 -325342.96638699906 0.0
-325342.96638699906 8.95729241902787e6 0.0
0.0 0.0 0.0

3.0346565090728872e6 7.591525669286846e6 0.0
7.591525669286846e6 -1.0568676879386099e7 0.0
0.0 0.0 0.0

3.678240692730032e6 8.583105692215605e6 0.0
8.583105692215605e6 -2.2286839468767654e7 0.0
0.0 0.0 0.0

4.202795821295565e6 7.435080064054125e6 0.0
7.435080064054125e6 -2.2822671499220554e7 0.0
0.0 0.0 0.0

499376.9015043113 1.3345962524081448e6 0.0
1.3345962524081448e6 750637.7138849035 0.0
0.0 0.0 0.0

-2.159018723962066e6 -1.5211935256298038e6 0.0
-1.5211935256298038e6 3.1670025569859263e6 0.0
0.0 0.0 0.0

-1.8621346736472272e6 1.3625479855798023e7 0.0
1.3625479855798023e7 -1.801721993930523e7 0.0
0.0 0.0 0.0

4.438088642034441e6 5.710807737465905e6 0.0
5.710807737465905e6 -2.466485630460856e7 0.0
0.0 0.0 0.0

-1.4906435571071927e7 1.974873945765725e7 0.0
1.974873945765725e7 -3.7116075418977714e6 0.0
0.0 0.0 0.0

-7.412765169547842e6 1.5813279479719086e7 0.0
1.5813279479719086e7 1.1746955464497063e7 0.0
0.0 0.0 0.0

-1.9043585224424868e6 2.0152101470620677e7 0.0
2.0152101470620677e7 -2.119934920722411e6 0.0
0.0 0.0 0.0

2.3088554966046507e6 1.3659179666572684e7 0.0
1.3659179666572684e7 9.027725862486495e6 0.0
0.0 0.0 0.0

6.155561253573398e6 9.798245318893269e6 0.0
9.798245318893269e6 1.5858089335480612e6 0.0
0.0 0.0 0.0

-7.764306059715206e6 2.0675905826843467e7 0.0
2.0675905826843467e7 -3.539523542047751e6 0.0
0.0 0.0 0.0

-1.1232978106635157e7 2.8488189305911483e6 0.0
2.8488189305911483e6 3.04104315966628e7 0.0
0.0 0.0 0.0

-5.612239548533546e6 1.8574862817080304e7 0.0
1.8574862817080304e7 7.202927359465552e6 0.0
0.0 0.0 0.0

338274.2665854371 1.6847053998585004e7 0.0
1.6847053998585004e7 -6.829406929239354e6 0.0
0.0 0.0 0.0

-1.0294615286738716e7 1.4350687866571441e7 0.0
1.4350687866571441e7 1.742710347024133e7 0.0
0.0 0.0 0.0

-9.012783687515082e6 -3.944039882545833e6 0.0
-3.944039882545833e6 1.7610690312062413e7 0.0
0.0 0.0 0.0

-2.8022778191425954e6 2.082586715708134e7 0.0
2.082586715708134e7 -976803.9154336147 0.0
0.0 0.0 0.0

3.1209168364232695e6 8.866691756534018e6 0.0
8.866691756534018e6 -2.1530317296847127e7 0.0
0.0 0.0 0.0

-896916.3239029085 1.9580058692216028e7 0.0
1.9580058692216028e7 -4.0373132825275534e6 0.0
0.0 0.0 0.0

4.679035301139233e6 6.353378224192958e6 0.0
6.353378224192958e6 -2.356329777119244e7 0.0
0.0 0.0 0.0

2.31611844205721e6 1.5194970284791987e7 0.0
1.5194970284791987e7 9.395568735521168e6 0.0
0.0 0.0 0.0

-1.5605130530308392e6 1.6299923973521158e7 0.0
1.6299923973521158e7 -6.608079472162434e6 0.0
0.0 0.0 0.0

-8.646351504338603e6 1.6485370636830498e6 0.0
1.6485370636830498e6 9.788328535387315e6 0.0
0.0 0.0 0.0

-992617.2635669163 1.1672158070757352e7 0.0
1.1672158070757352e7 -6.605502177602296e6 0.0
0.0 0.0 0.0

5.095955324848843e6 5.165046057571636e6 0.0
5.165046057571636e6 -2.382814312384702e7 0.0
0.0 0.0 0.0

4.952882498814567e6 1.9668777071490984e7 0.0
1.9668777071490984e7 -5.437236017870646e6 0.0
0.0 0.0 0.0

2.983971669951667e6 6.998609789622823e6 0.0
6.998609789622823e6 -1.2557115714073531e7 0.0
0.0 0.0 0.0

-1.1620432863733275e7 3.2916568120526136e6 0.0
3.2916568120526136e6 1.4156425265520204e7 0.0
0.0 0.0 0.0

-4.361479130069193e6 2.1037437451385137e7 0.0
2.1037437451385137e7 3.621081586454161e6 0.0
0.0 0.0 0.0

1.318413601655651e6 1.1160889342137352e7 0.0
1.1160889342137352e7 -2.5306173060063604e7 0.0
0.0 0.0 0.0

-3.144411979778005e6 1.211088979188266e7 0.0
1.211088979188266e7 -1.0481373418679921e7 0.0
0.0 0.0 0.0

1.797705456876795e6 1.3633324561464317e7 0.0
1.3633324561464317e7 5.992351730181629e6 0.0
0.0 0.0 0.0

-2.2076437825972643e6 1.040290752127731e7 0.0
1.040290752127731e7 -72851.58794738457 0.0
0.0 0.0 0.0

-6.239288479944566e6 1.1727350302500086e7 0.0
1.1727350302500086e7 5.141660255419211e6 0.0
0.0 0.0 0.0

-202358.2179727098 1.563496584861284e7 0.0
1.563496584861284e7 9.817568696512679e6 0.0
0.0 0.0 0.0

-8.968891853074227e6 -1.7759565320544853e6 0.0
-1.7759565320544853e6 1.5432936812736508e7 0.0
0.0 0.0 0.0

423402.812214671 1.5118162018285252e7 0.0
1.5118162018285252e7 2.792533720378443e6 0.0
0.0 0.0 0.0

-5.80168727234915e6 1.7532354738662448e7 0.0
1.7532354738662448e7 9.369163992651228e6 0.0
0.0 0.0 0.0

2.6294948512207502e6 7.073717603879966e6 0.0
7.073717603879966e6 -1.1383780367058858e7 0.0
0.0 0.0 0.0

-1.1762025663745597e7 353278.8842189487 0.0
353278.8842189487 1.7309396519552443e7 0.0
0.0 0.0 0.0

-2.3964048880421137e6 1.719217290109471e7 0.0
1.719217290109471e7 -4.456795697807075e6 0.0
0.0 0.0 0.0

-1.058465002503582e7 1.43908477480676e7 0.0
1.43908477480676e7 1.6459165761542682e7 0.0
0.0 0.0 0.0

-1.9418485663833446e6 1.5895597842760084e7 0.0
1.5895597842760084e7 9.332066217452634e6 0.0
0.0 0.0 0.0

-1.1831284984419331e7 4.0290706600746913e6 0.0
4.0290706600746913e6 1.9143289357184645e7 0.0
0.0 0.0 0.0

-350828.7478795857 1.6636487799885182e7 0.0
1.6636487799885182e7 -7.79095280819654e6 0.0
0.0 0.0 0.0

-5.658463081779301e6 2.0840585544487696e7 0.0
2.0840585544487696e7 6.399565612103984e6 0.0
0.0 0.0 0.0

-1.171066185163672e7 6.33316096259334e6 0.0
6.33316096259334e6 2.692680898456626e7 0.0
0.0 0.0 0.0

-7.8629131446411535e6 9.221982008688204e6 0.0
9.221982008688204e6 8.245014400332582e6 0.0
0.0 0.0 0.0

-1.1651218454281894e7 82543.45616055546 0.0
82543.45616055546 2.5809854737080954e7 0.0
0.0 0.0 0.0

409753.2502824012 1.3784834993672019e7 0.0
1.3784834993672019e7 -1.2935493023193449e7 0.0
0.0 0.0 0.0

-5.492504611367429e6 1.8804925864407245e7 0.0
1.8804925864407245e7 7.813780825786643e6 0.0
0.0 0.0 0.0

-1.099074890534675e6 1.5866346022964334e7 0.0
1.5866346022964334e7 -1.097457238227401e6 0.0
0.0 0.0 0.0

3.5483308575713234e6 7.774887819828527e6 0.0
7.774887819828527e6 -1.3372424519486519e7 0.0
0.0 0.0 0.0

-9.728342759055112e6 -3.545159285169286e6 0.0
-3.545159285169286e6 2.1022445572601713e7 0.0
0.0 0.0 0.0

-8.411001145666735e6 1.2831101945543027e7 0.0
1.2831101945543027e7 2.773768056075809e7 0.0
0.0 0.0 0.0

-1.0835157179798689e7 9.196633012437917e6 0.0
9.196633012437917e6 2.8765898072036956e7 0.0
0.0 0.0 0.0

-1.1035368417725484e6 1.4448312616795177e7 0.0
1.4448312616795177e7 7.344850906188611e6 0.0
0.0 0.0 0.0

-1.2288199622622442e7 2.6854051806784053e6 0.0
2.6854051806784053e6 1.735703075752423e7 0.0
0.0 0.0 0.0

-5.062928579945221e6 1.1313967037928075e7 0.0
1.1313967037928075e7 5.758158522609483e6 0.0
0.0 0.0 0.0

-1.5930336566709261e6 1.5557813958054045e7 0.0
1.5557813958054045e7 -4.278969954506493e6 0.0
0.0 0.0 0.0

575244.0223183972 1.26662070755071e7 0.0
1.26662070755071e7 -1.1044195151585652e7 0.0
0.0 0.0 0.0

-5.146730183031917e6 1.739715771992292e7 0.0
1.739715771992292e7 1.0017860518356616e7 0.0
0.0 0.0 0.0

-4.554093731020283e6 2.3107134267084938e7 0.0
2.3107134267084938e7 4.86587942332523e6 0.0
0.0 0.0 0.0

-1.2590001283430204e7 9.191429015256286e6 0.0
9.191429015256286e6 2.1586223741852872e7 0.0
0.0 0.0 0.0

3.835258836652353e6 1.386160878676008e7 0.0
1.386160878676008e7 1.3976696406110872e7 0.0
0.0 0.0 0.0

407480.376971968 1.4680540642514886e7 0.0
1.4680540642514886e7 -7.663424136252401e6 0.0
0.0 0.0 0.0

3.221916361778063e6 9.54342009484534e6 0.0
9.54342009484534e6 -1.6862237969585072e7 0.0
0.0 0.0 0.0

5.177088230249058e6 3.929152517955468e6 0.0
3.929152517955468e6 -2.5411874999043506e7 0.0
0.0 0.0 0.0

-1.0602356780388372e7 -3.3610334938202994e6 0.0
-3.3610334938202994e6 2.3810669085647203e7 0.0
0.0 0.0 0.0

-4.725977354059888e6 1.7404033630248804e7 0.0
1.7404033630248804e7 9.252285211822981e6 0.0
0.0 0.0 0.0

-6.446632228889278e6 1.303589856099711e7 0.0
1.303589856099711e7 1.3972532748011835e7 0.0
0.0 0.0 0.0

-4.792647122571716e6 1.378252806944532e7 0.0
1.378252806944532e7 4.25728340648072e7 0.0
0.0 0.0 0.0

483931.5035578478 1.2138331354732994e7 0.0
1.2138331354732994e7 -1.027519435987609e7 0.0
0.0 0.0 0.0

2.9395696856571026e6 1.4138675578535633e7 0.0
1.4138675578535633e7 9.798566002582468e6 0.0
0.0 0.0 0.0

-1.0314089875619803e7 -3.171266070043331e6 0.0
-3.171266070043331e6 1.625372711605037e7 0.0
0.0 0.0 0.0

-1.9852009052333467e7 -1.402543251776203e6 0.0
-1.402543251776203e6 9.365054831176694e6 0.0
0.0 0.0 0.0

3.3314115347717376e6 8.441484496441355e6 0.0
8.441484496441355e6 -1.97775816958977e7 0.0
0.0 0.0 0.0

-1.1322641283724444e7 1.1496319306496035e6 0.0
1.1496319306496035e6 1.4811327664672334e7 0.0
0.0 0.0 0.0

2.844224712781394e6 9.367983513833985e6 0.0
9.367983513833985e6 -2.1759925449916307e7 0.0
0.0 0.0 0.0

-1.057276135721897e7 1.3268078935250336e7 0.0
1.3268078935250336e7 2.127347288774615e7 0.0
0.0 0.0 0.0

4.999299413691622e6 4.464447981139194e6 0.0
4.464447981139194e6 -1.6996447418492697e7 0.0
0.0 0.0 0.0

3.1113296962273847e6 2.0382830759854283e7 0.0
2.0382830759854283e7 -4.988417875064046e6 0.0
0.0 0.0 0.0

-1.8426926538696773e6 1.1458065674458575e7 0.0
1.1458065674458575e7 -1.564267969034345e6 0.0
0.0 0.0 0.0

1.341144708546043e6 6.129835491225232e6 0.0
6.129835491225232e6 -4.591955899840221e6 0.0
0.0 0.0 0.0

1.8777112507884923e7 5.701380650639197e6 0.0
5.701380650639197e6 -3.2778178013930917e6 0.0
0.0 0.0 0.0

-9.236443767792959e6 1.3810632401774628e7 0.0
1.3810632401774628e7 2.0369317613327265e7 0.0
0.0 0.0 0.0

-391240.11858492624 8.931025296052327e6 0.0
8.931025296052327e6 -5.464425435046425e6 0.0
0.0 0.0 0.0

-1.2211043184906682e7 1.3941140508031712e6 0.0
1.3941140508031712e6 2.4105408612718284e7 0.0
0.0 0.0 0.0

2.1627861113074184e6 5.480544662998212e6 0.0
5.480544662998212e6 -8.165977182913834e6 0.0
0.0 0.0 0.0

-2.1475822262515016e6 1.681310289456148e7 0.0
1.681310289456148e7 -3.5145093204257227e6 0.0
0.0 0.0 0.0

-6.345975965969467e6 1.6020671745515918e7 0.0
1.6020671745515918e7 1.2022260489075158e7 0.0
0.0 0.0 0.0

-1.0921910892237417e7 4.41262499386847e6 0.0
4.41262499386847e6 1.5642071696780993e7 0.0
0.0 0.0 0.0

3.708222938223426e6 7.499210287604891e6 0.0
7.499210287604891e6 -2.0259256374578368e7 0.0
0.0 0.0 0.0

-2.2346425201268243e6 1.3292338615393935e7 0.0
1.3292338615393935e7 -2.2886682040791802e7 0.0
0.0 0.0 0.0

-3.2247585303950296e6 5.839093102147257e6 0.0
5.839093102147257e6 932684.6904025329 0.0
0.0 0.0 0.0

4.456621267478749e6 4.6238187080198545e6 0.0
4.6238187080198545e6 -1.5866013810239432e7 0.0
0.0 0.0 0.0

-481902.9216087386 1.431660604735519e7 0.0
1.431660604735519e7 -9.419552621215614e6 0.0
0.0 0.0 0.0

9.36201137532914e6 1.5669663488736881e7 0.0
1.5669663488736881e7 575442.6626669583 0.0
0.0 0.0 0.0

4.912170886635646e6 5.751077939821884e6 0.0
5.751077939821884e6 -2.578815852797452e7 0.0
0.0 0.0 0.0

-9.25553962098702e6 -1.459832836020496e6 0.0
-1.459832836020496e6 3.8517824940778357e6 0.0
0.0 0.0 0.0

-8.67124248009691e6 1.4431980557213662e7 0.0
1.4431980557213662e7 1.5361201778926129e7 0.0
0.0 0.0 0.0

-865724.1260517407 7.576368459764892e6 0.0
7.576368459764892e6 -1.2067315532035604e6 0.0
0.0 0.0 0.0

-1.1474846679854684e7 3.615866744201599e6 0.0
3.615866744201599e6 1.703266313895668e7 0.0
0.0 0.0 0.0

4.676132173934493e6 6.021860686008659e6 0.0
6.021860686008659e6 -2.9372554716658074e7 0.0
0.0 0.0 0.0

4.542875266825557e6 1.4553122829357477e7 0.0
1.4553122829357477e7 1.5142917760074794e7 0.0
0.0 0.0 0.0

2.0575857506182424e6 1.7760140307987496e7 0.0
1.7760140307987496e7 9.088532427653663e6 0.0
0.0 0.0 0.0

-2.4250325368882627e6 1.3479725236611947e7 0.0
1.3479725236611947e7 -1.4979280552044813e7 0.0
0.0 0.0 0.0

281326.742692932 1.129121478902612e7 0.0
1.129121478902612e7 -8.876063834234187e6 0.0
0.0 0.0 0.0

-5.7388924776222175e6 1.6609003386249708e7 0.0
1.6609003386249708e7 1.131933250322347e7 0.0
0.0 0.0 0.0

4.743074526653094e6 1.5395935936249187e7 0.0
1.5395935936249187e7 -2.056440225645877e6 0.0
0.0 0.0 0.0

2.912091487549154e6 9.326451839434797e6 0.0
9.326451839434797e6 -1.9246591552975085e7 0.0
0.0 0.0 0.0

-2.3550901074070632e6 2.2030249598618954e7 0.0
2.2030249598618954e7 -671342.9444341171 0.0
0.0 0.0 0.0

-803218.0803745628 1.2744897459086597e7 0.0
1.2744897459086597e7 2.3691508611855945e6 0.0
0.0 0.0 0.0

-4.995674653908662e7 2.733772106674625e6 0.0
2.733772106674625e6 7.937578050655786e6 0.0
0.0 0.0 0.0

3.365991720597743e7 6.088146103529228e6 0.0
6.088146103529228e6 -2.872711328865899e6 0.0
0.0 0.0 0.0

453546.8093629072 1.5549842280019403e7 0.0
1.5549842280019403e7 5.979013517858611e6 0.0
0.0 0.0 0.0

-6.718665736933627e6 5.15756216383621e6 0.0
5.15756216383621e6 2.2043621463372897e7 0.0
0.0 0.0 0.0

-1.08468345131707e6 1.5669971130246803e7 0.0
1.5669971130246803e7 8.959587810272546e6 0.0
0.0 0.0 0.0

-1.4587476790942373e6 1.8827999982628994e7 0.0
1.8827999982628994e7 -5.020147678010337e6 0.0
0.0 0.0 0.0

2.547145881352333e6 1.5690760521219568e7 0.0
1.5690760521219568e7 8.490487094082631e6 0.0
0.0 0.0 0.0

-1.0342733787240468e7 3.88712952891253e6 0.0
3.88712952891253e6 1.4876370420558844e7 0.0
0.0 0.0 0.0

-5.41702309360872e6 1.650686087287579e7 0.0
1.650686087287579e7 7.744513751621027e6 0.0
0.0 0.0 0.0

-3.1385709116028775e7 2.5323185644842084e7 0.0
2.5323185644842084e7 308289.9603670668 0.0
0.0 0.0 0.0

4.5789998002919955e6 4.916153631382097e6 0.0
4.916153631382097e6 -1.899863682049286e7 0.0
0.0 0.0 0.0

-1.184402232913656e6 1.6134688714147849e7 0.0
1.6134688714147849e7 -2.3379641365179056e6 0.0
0.0 0.0 0.0

4.1904587610953883e6 1.3897752818085007e7 0.0
1.3897752818085007e7 1.6321082810063595e7 0.0
0.0 0.0 0.0

-4.257982165957284e6 1.2674405339457752e7 0.0
1.2674405339457752e7 -1.4193274044430444e7 0.0
0.0 0.0 0.0

2.5453715200021984e6 1.3958317227416422e7 0.0
1.3958317227416422e7 8.484572069668848e6 0.0
0.0 0.0 0.0

1.49450607769035e6 1.130663891272605e7 0.0
1.130663891272605e7 -2.4079697051922504e7 0.0
0.0 0.0 0.0

-9.890658476941958e6 -1.6337124197125155e6 0.0
-1.6337124197125155e6 1.8196465541583754e7 0.0
0.0 0.0 0.0

-1.3259657928354625e7 2.2418957785542928e7 0.0
2.2418957785542928e7 7.713385860710347e6 0.0
0.0 0.0 0.0

2.951915511421888e6 7.405683814992469e6 0.0
7.405683814992469e6 -1.3018767113553254e7 0.0
0.0 0.0 0.0

-9.196518159269702e6 1.417965034482318e7 0.0
1.417965034482318e7 1.9336681397399113e7 0.0
0.0 0.0 0.0

-1.042208811315918e7 2.2082496589505016e6 0.0
2.2082496589505016e6 1.2013295233676536e7 0.0
0.0 0.0 0.0

-4.807031808556683e6 2.273337643754594e7 0.0
2.273337643754594e7 5.265945783531761e6 0.0
0.0 0.0 0.0

-9.700911812076569e6 2.534631437686316e7 0.0
2.534631437686316e7 7.263414358300245e6 0.0
0.0 0.0 0.0

-7.143994390859274e6 -2.6408588209884176e6 0.0
-2.6408588209884176e6 5.877474759436613e6 0.0
0.0 0.0 0.0

-1.5380145173859773e6 1.2457851724853484e7 0.0
1.2457851724853484e7 -8.032879829189864e6 0.0
0.0 0.0 0.0

-1.2314576243785257e6 1.841692489348865e7 0.0
1.841692489348865e7 -5.093689583582508e6 0.0
0.0 0.0 0.0

-3.682207362816494e6 3.6611486696820892e6 0.0
3.6611486696820892e6 2.186161948513707e6 0.0
0.0 0.0 0.0

1.617235423804886e6 2.0753401103199758e7 0.0
2.0753401103199758e7 -4.544320671234142e6 0.0
0.0 0.0 0.0

-1.1093403545914676e7 2.7584702978300005e6 0.0
2.7584702978300005e6 1.3267098872417804e7 0.0
0.0 0.0 0.0

4.63186820314997e6 5.092161477788549e6 0.0
5.092161477788549e6 -2.1767581785721317e7 0.0
0.0 0.0 0.0

4.369557299659836e6 5.718784032486412e6 0.0
5.718784032486412e6 -1.980544915742124e7 0.0
0.0 0.0 0.0

1.1621179602470752e6 1.1110463690346608e7 0.0
1.1110463690346608e7 -1.1301992194502221e7 0.0
0.0 0.0 0.0

-531135.5640741605 1.6608685727410171e7 0.0
1.6608685727410171e7 -8.149816142241836e6 0.0
0.0 0.0 0.0

4.7895433927672375e6 5.544362440793278e6 0.0
5.544362440793278e6 -3.085565820776762e7 0.0
0.0 0.0 0.0

-4.0160404583481704e6 1.811733301886941e7 0.0
1.811733301886941e7 -6.2042148025694825e6 0.0
0.0 0.0 0.0

1.2401020621554889e6 1.241950223384735e7 0.0
1.241950223384735e7 -1.5464156686770491e7 0.0
0.0 0.0 0.0

-1.1718071416080795e7 1.3358364928052425e7 0.0
1.3358364928052425e7 1.7199839823326904e7 0.0
0.0 0.0 0.0

-2.592674267321697e6 1.7824141803718742e7 0.0
1.7824141803718742e7 -5.346928387377173e6 0.0
0.0 0.0 0.0

3.538724451320137e6 9.027778956889635e6 0.0
9.027778956889635e6 -1.8779103230784908e7 0.0
0.0 0.0 0.0

-2.3858268184280366e7 1.6154271363216965e7 0.0
1.6154271363216965e7 9.708747806260874e6 0.0
0.0 0.0 0.0

4.798309373129508e6 4.558779856223995e6 0.0
4.558779856223995e6 -2.2580987829597734e7 0.0
0.0 0.0 0.0

4.841057672383329e6 5.747102812540055e6 0.0
5.747102812540055e6 -1.96401412901143e7 0.0
0.0 0.0 0.0

-107926.6489840853 1.539103628306364e7 0.0
1.539103628306364e7 -9.847375965656525e6 0.0
0.0 0.0 0.0

-1.5112845527009128e7 -2.3446175392716327e6 0.0
-2.3446175392716327e6 7.641643563964004e6 0.0
0.0 0.0 0.0

1.7831844832885955e6 9.028019415842332e6 0.0
9.028019415842332e6 -8.377135294362121e6 0.0
0.0 0.0 0.0

-4.920544454105002e6 1.4192341761594418e7 0.0
1.4192341761594418e7 1.7128580460222382e7 0.0
0.0 0.0 0.0

-4.2784445472888015e6 2.1868867874986026e7 0.0
2.1868867874986026e7 4.910815791616406e6 0.0
0.0 0.0 0.0

-5.4294695026574815e6 2.309820222035929e7 0.0
2.309820222035929e7 5.645596777810767e6 0.0
0.0 0.0 0.0

-1.1474393403917875e7 4.608319507031972e6 0.0
4.608319507031972e6 1.36334801573947e7 0.0
0.0 0.0 0.0

-7.858824106415745e6 1.0676554740947416e7 0.0
1.0676554740947416e7 4.078324551416192e7 0.0
0.0 0.0 0.0

-3.7443304319111696e6 2.2029424202210415e7 0.0
2.2029424202210415e7 3.793427653826813e6 0.0
0.0 0.0 0.0

-1.9605271927321898e6 1.6259918934088249e7 0.0
1.6259918934088249e7 -1.1360012521593156e6 0.0
0.0 0.0 0.0

442451.15131836245 1.4182009907428997e7 0.0
1.4182009907428997e7 -4.759439489840319e6 0.0
0.0 0.0 0.0

1.731579504079476e7 1.6585226127081186e7 0.0
1.6585226127081186e7 6.599426788623825e6 0.0
0.0 0.0 0.0

-1.0496631939340387e7 5.598217814114189e6 0.0
5.598217814114189e6 1.5087913099977417e7 0.0
0.0 0.0 0.0

5.209348767224842e6 4.686588737056442e6 0.0
4.686588737056442e6 -2.116547492569177e7 0.0
0.0 0.0 0.0

-101561.26561206486 1.4761578330231547e7 0.0
1.4761578330231547e7 -8.714257427063353e6 0.0
0.0 0.0 0.0

-2.9318104544838024e6 1.2219082269368146e7 0.0
1.2219082269368146e7 617008.3941052118 0.0
0.0 0.0 0.0

-1.1960363491871316e7 1.3178198682360101e7 0.0
1.3178198682360101e7 7.6222577141450355e6 0.0
0.0 0.0 0.0

-1.0273570732689813e7 -1.9103469699419597e6 0.0
-1.9103469699419597e6 2.3209596649078242e7 0.0
0.0 0.0 0.0

-5.03586409125988e7 3.2498956983305894e7 0.0
3.2498956983305894e7 -5.125502642031889e6 0.0
0.0 0.0 0.0

-5.895686975950962e6 1.368326883504844e7 0.0
1.368326883504844e7 -1.9652290374678794e7 0.0
0.0 0.0 0.0

3.9139060339920465e6 1.4387209793174071e7 0.0
1.4387209793174071e7 1.304635395296893e7 0.0
0.0 0.0 0.0

1.6808386426665438e6 1.170199756346804e7 0.0
1.170199756346804e7 -1.7289858057604086e7 0.0
0.0 0.0 0.0

-9.215142049565496e6 1.941253031902811e7 0.0
1.941253031902811e7 3.079089117356376e6 0.0
0.0 0.0 0.0

3.281662824119608e6 7.90001309420753e6 0.0
7.90001309420753e6 -1.2209367380688462e7 0.0
0.0 0.0 0.0

3.948298216450764e6 8.098901689349574e6 0.0
8.098901689349574e6 -1.9241383756446045e7 0.0
0.0 0.0 0.0

-7.018244393334987e6 1.5432912296311196e7 0.0
1.5432912296311196e7 1.313576733061681e7 0.0
0.0 0.0 0.0

2.694556345530553e6 9.769919457070127e6 0.0
9.769919457070127e6 -1.838731354683537e7 0.0
0.0 0.0 0.0

-4.445112760249099e6 2.2312915952817358e7 0.0
2.2312915952817358e7 5.0797405172721045e6 0.0
0.0 0.0 0.0

-1.262768790627268e7 2.9991596707902015e6 0.0
2.9991596707902015e6 2.1193656248928305e7 0.0
0.0 0.0 0.0

-8.489881682982188e6 -3.037759718077248e6 0.0
-3.037759718077248e6 1.6107399081515871e7 0.0
0.0 0.0 0.0

3.8806561086466126e6 7.042811636517148e6 0.0
7.042811636517148e6 -1.9846251277318254e7 0.0
0.0 0.0 0.0

-5.434471007268385e6 1.8061749747760043e7 0.0
1.8061749747760043e7 -4.594513599374827e6 0.0
0.0 0.0 0.0

-902126.4904775321 2.3539270257607996e7 0.0
2.3539270257607996e7 -2.0589998611683496e6 0.0
0.0 0.0 0.0

-9.886230602679174e6 1.3573440027793346e7 0.0
1.3573440027793346e7 1.6264539995231237e7 0.0
0.0 0.0 0.0

4.306429285690367e6 6.031207750827083e6 0.0
6.031207750827083e6 -2.1425125108955503e7 0.0
0.0 0.0 0.0

4.660215600078221e6 5.976710451774852e6 0.0
5.976710451774852e6 -2.744861114975608e7 0.0
0.0 0.0 0.0

-1.0390841249487653e7 9.44039388941519e6 0.0
9.44039388941519e6 3.214138074176106e7 0.0
0.0 0.0 0.0

-1.1865006923914982e7 3.2530233767736102e6 0.0
3.2530233767736102e6 2.2183996327355035e7 0.0
0.0 0.0 0.0

573049.9766957008 2.081616957657923e7 0.0
2.081616957657923e7 -4.1316005993630923e6 0.0
0.0 0.0 0.0

-2.748678026981949e6 1.7362235790065423e7 0.0
1.7362235790065423e7 -1.286383130690617e6 0.0
0.0 0.0 0.0

-1.1419769960696075e7 1.557358482716589e6 0.0
1.557358482716589e6 2.5427974016625226e7 0.0
0.0 0.0 0.0

3.6907821124147624e6 5.257070257427044e6 0.0
5.257070257427044e6 -1.310006843313713e7 0.0
0.0 0.0 0.0

-4.270967930259777e6 1.7433778209848117e7 0.0
1.7433778209848117e7 934336.927141913 0.0
0.0 0.0 0.0

-9.209518169657463e6 1.8275934270164806e7 0.0
1.8275934270164806e7 -3.7064839793741875e6 0.0
0.0 0.0 0.0

-7.722157552870422e6 7.613714730157934e6 0.0
7.613714730157934e6 8.258103369995732e6 0.0
0.0 0.0 0.0

4.876076714948576e6 5.638685970018285e6 0.0
5.638685970018285e6 -2.0833957025232047e7 0.0
0.0 0.0 0.0

2.5683298453762177e6 9.790472157170272e6 0.0
9.790472157170272e6 -1.7239057879251022e7 0.0
0.0 0.0 0.0

-8.410284352177203e6 171071.0422843669 0.0
171071.0422843669 1.0049432755596919e7 0.0
0.0 0.0 0.0

-1.201543229716632e7 5.244323710482032e6 0.0
5.244323710482032e6 1.8503794439378735e7 0.0
0.0 0.0 0.0

1.4745158340836875e6 1.1431538176657366e7 0.0
1.1431538176657366e7 -2.2661676652449027e7 0.0
0.0 0.0 0.0

4.940405901662194e6 5.35012982565422e6 0.0
5.35012982565422e6 -1.9255468945887405e7 0.0
0.0 0.0 0.0

-3.1145697927424484e6 1.7166219422027405e7 0.0
1.7166219422027405e7 -2.4519190985202217e6 0.0
0.0 0.0 0.0

4.360979738237439e6 7.127843174918909e6 0.0
7.127843174918909e6 -1.967566787194584e7 0.0
0.0 0.0 0.0

-8.131446489929729e6 1.3464792852878326e6 0.0
1.3464792852878326e6 1.164648556860833e7 0.0
0.0 0.0 0.0

-8.180368042205284e6 1.5430132262413122e7 0.0
1.5430132262413122e7 -2.7267895609731942e7 0.0
0.0 0.0 0.0

6.578507422275339e6 1.5329277945826167e7 0.0
1.5329277945826167e7 2.192836022970519e7 0.0
0.0 0.0 0.0

372604.2728069346 1.430451589259424e7 0.0
1.430451589259424e7 -187720.0056727346 0.0
0.0 0.0 0.0

-2.0312644102285404e7 -1.2174412438254033e6 0.0
-1.2174412438254033e6 9.071631984848764e6 0.0
0.0 0.0 0.0

-7.368804596979582e6 -236632.65945488543 0.0
-236632.65945488543 1.0692768341350984e7 0.0
0.0 0.0 0.0

3.197839487926173e6 1.5929817437881622e7 0.0
1.5929817437881622e7 1.065946251215483e7 0.0
0.0 0.0 0.0

-2.564753348559159e6 1.3989114084919104e7 0.0
1.3989114084919104e7 -8.549176763920324e6 0.0
0.0 0.0 0.0

-7.140004747965442e6 1.1013226150068644e7 0.0
1.1013226150068644e7 4.5155149863150254e7 0.0
0.0 0.0 0.0

4.1001585637238873e6 6.553250875579946e6 0.0
6.553250875579946e6 -2.064851486011853e7 0.0
0.0 0.0 0.0

-1.4727029374685294e6 1.7968786550979145e7 0.0
1.7968786550979145e7 -6.060471624950009e6 0.0
0.0 0.0 0.0

-3.331982793762026e6 1.3591726615712244e7 0.0
1.3591726615712244e7 -2.1763536976075593e7 0.0
0.0 0.0 0.0

-4.571789501688469e6 2.116022109084679e7 0.0
2.116022109084679e7 4.360801815756985e6 0.0
0.0 0.0 0.0

-4.383474835380169e6 1.721610799585737e7 0.0
1.721610799585737e7 5.827508555726514e6 0.0
0.0 0.0 0.0

-2.533117818754409e6 2.0771133228703935e7 0.0
2.0771133228703935e7 -1.573772612142019e6 0.0
0.0 0.0 0.0

-6.418304831000031e6 1.4757474985880336e7 0.0
1.4757474985880336e7 -2.833306802750516e7 0.0
0.0 0.0 0.0

-239292.59593458602 2.0752688324204374e7 0.0
2.0752688324204374e7 -3.7997027027147603e6 0.0
0.0 0.0 0.0

-1.1099443389695443e7 1.3181003050366513e7 0.0
1.3181003050366513e7 1.9539102381946243e7 0.0
0.0 0.0 0.0

2.599888429008019e6 8.245681516179368e6 0.0
8.245681516179368e6 -1.2758532506772175e7 0.0
0.0 0.0 0.0

4.233741698504473e6 6.123030983164724e6 0.0
6.123030983164724e6 -2.0223819358965464e7 0.0
0.0 0.0 0.0

-1.0110231723898903e6 1.725306491092285e7 0.0
1.725306491092285e7 -7.236619177120445e6 0.0
0.0 0.0 0.0

-1.7366966524834898e6 1.257880407058242e7 0.0
1.257880407058242e7 -4.820515821585211e6 0.0
0.0 0.0 0.0

3.3619673488946995e6 8.322088332296816e6 0.0
8.322088332296816e6 -2.251779582118794e7 0.0
0.0 0.0 0.0

-4.462716757153545e6 2.034728405275626e7 0.0
2.034728405275626e7 4.797845560350424e6 0.0
0.0 0.0 0.0

-2.76513452729604e6 1.3870812982808972e7 0.0
1.3870812982808972e7 -558741.4669812398 0.0
0.0 0.0 0.0

847418.7781100608 1.2596318340169063e7 0.0
1.2596318340169063e7 -9.583241077238694e6 0.0
0.0 0.0 0.0

2.7035618411835628e6 1.0249682178482708e7 0.0
1.0249682178482708e7 -2.165369683024302e7 0.0
0.0 0.0 0.0

-1.2847751244353754e6 2.03258976312477e7 0.0
2.03258976312477e7 -3.491150462440341e6 0.0
0.0 0.0 0.0

200349.35744900396 1.392389438459425e7 0.0
1.392389438459425e7 -8.810145102479028e6 0.0
0.0 0.0 0.0

-622024.2229695076 1.1563760743551407e7 0.0
1.1563760743551407e7 -4.391735734032321e6 0.0
0.0 0.0 0.0

1.5950913712233035e7 5.608196090579599e6 0.0
5.608196090579599e6 -3.1345322496036096e6 0.0
0.0 0.0 0.0

-4.902729722032804e6 1.4833529537497604e7 0.0
1.4833529537497604e7 5.226768836486999e6 0.0
0.0 0.0 0.0

-6.450806976126052e6 7.169380637069785e6 0.0
7.169380637069785e6 8.918462957953364e6 0.0
0.0 0.0 0.0

-1.0060102963851213e7 -2.0826562283531132e6 0.0
-2.0826562283531132e6 2.00077179493993e7 0.0
0.0 0.0 0.0

5.144206648355693e6 4.573477304747779e6 0.0
4.573477304747779e6 -1.8446051985054683e7 0.0
0.0 0.0 0.0

4.007571361209872e6 6.280993076923112e6 0.0
6.280993076923112e6 -1.4322888233935554e7 0.0
0.0 0.0 0.0

4.8448475813425975e6 5.463911450273651e6 0.0
5.463911450273651e6 -1.8053064578653265e7 0.0
0.0 0.0 0.0

-1.8309381645345548e6 1.365227214130861e7 0.0
1.365227214130861e7 -1.4468168106468543e7 0.0
0.0 0.0 0.0

-829503.2694840766 2.0567789236870483e7 0.0
2.0567789236870483e7 -3.5924429630462844e6 0.0
0.0 0.0 0.0

-1.1122201492619697e7 1.343094368042364e7 0.0
1.343094368042364e7 1.8462779799849983e7 0.0
0.0 0.0 0.0

-5.642667329933046e6 1.5206302882727291e7 0.0
1.5206302882727291e7 4.611616198417063e6 0.0
0.0 0.0 0.0

4.293392115685211e6 5.853247027141005e6 0.0
5.853247027141005e6 -1.868945198308008e7 0.0
0.0 0.0 0.0

-9.633883844648857e6 1.7367122753958276e6 0.0
1.7367122753958276e6 1.109820176996477e7 0.0
0.0 0.0 0.0

-1.1107237909829933e7 1.4071581268681673e7 0.0
1.4071581268681673e7 1.6990638651761226e7 0.0
0.0 0.0 0.0

95538.47739230003 1.5166281714105736e7 0.0
1.5166281714105736e7 -1.0683762059844447e7 0.0
0.0 0.0 0.0

880045.7501198426 1.488152189379208e7 0.0
1.488152189379208e7 -5.605960576998153e6 0.0
0.0 0.0 0.0

-4.336945579400267e6 2.105335972693298e7 0.0
2.105335972693298e7 5.25127075166375e6 0.0
0.0 0.0 0.0

1.8039148779286928e6 1.2290602391660396e7 0.0
1.2290602391660396e7 -1.5289199661155881e7 0.0
0.0 0.0 0.0

4.622364576956392e6 6.267510543475055e6 0.0
6.267510543475055e6 -1.8905715399153434e7 0.0
0.0 0.0 0.0

4.1852873805362396e6 6.232130314566275e6 0.0
6.232130314566275e6 -1.9072639076357152e7 0.0
0.0 0.0 0.0

2.2374441790263397e6 7.52931119155247e6 0.0
7.52931119155247e6 -1.0680014971151585e7 0.0
0.0 0.0 0.0

4.03445077217485e6 6.621618296271844e6 0.0
6.621618296271844e6 -1.94737598954509e7 0.0
0.0 0.0 0.0

4.628540527851165e6 5.809963939888963e6 0.0
5.809963939888963e6 -1.6177994992832273e7 0.0
0.0 0.0 0.0

-6.798522851003882e6 2.453711428046272e7 0.0
2.453711428046272e7 6.288851832610867e6 0.0
0.0 0.0 0.0

434398.7033026223 2.173756406137537e7 0.0
2.173756406137537e7 -3.809095916099813e6 0.0
0.0 0.0 0.0

-4.920935272548189e6 1.79528342753593e7 0.0
1.79528342753593e7 6.326192737228846e6 0.0
0.0 0.0 0.0

3.9554657176573267e6 6.196396504394601e6 0.0
6.196396504394601e6 -1.6795793217968494e7 0.0
0.0 0.0 0.0

-2.131668690878526e6 1.5149559872696105e7 0.0
1.5149559872696105e7 -4.925955276628523e6 0.0
0.0 0.0 0.0

-790230.2318285141 1.1823915093115875e7 0.0
1.1823915093115875e7 -664355.614177207 0.0
0.0 0.0 0.0

-1.0807892730820758e7 1.7423094517113276e7 0.0
1.7423094517113276e7 -3.602631948931252e7 0.0
0.0 0.0 0.0

1.1035143144034464e7 1.8366552381905336e7 0.0
1.8366552381905336e7 3.678382776453878e7 0.0
0.0 0.0 0.0

5.622291432439804e6 1.5735700603452416e7 0.0
1.5735700603452416e7 -2.3387467499086503e6 0.0
0.0 0.0 0.0

8.816670664852384e6 1.6307550743165342e7 0.0
1.6307550743165342e7 -4.353398880498247e6 0.0
0.0 0.0 0.0

3.6794369199629966e6 6.563275410297101e6 0.0
6.563275410297101e6 -3.414466726702614e7 0.0
0.0 0.0 0.0

723641.5267856228 1.4098033668045163e7 0.0
1.4098033668045163e7 -1.1990891607338006e7 0.0
0.0 0.0 0.0

-1.7130463767941082e6 1.5754032928029861e7 0.0
1.5754032928029861e7 8.043399701075964e6 0.0
0.0 0.0 0.0

-1.2505433223878123e7 2.74382499606615e6 0.0
2.74382499606615e6 2.287602530591163e7 0.0
0.0 0.0 0.0

-1.0431929518711232e7 1.2808580538493983e7 0.0
1.2808580538493983e7 2.261146375365134e7 0.0
0.0 0.0 0.0

-2.6181928224129407e6 1.6523157034185393e7 0.0
1.6523157034185393e7 4.956870177645696e6 0.0
0.0 0.0 0.0

-860316.0155090708 1.2307597376394207e7 0.0
1.2307597376394207e7 -4.40713802390936e6 0.0
0.0 0.0 0.0

-7.200611513388578e6 2.0655514842182938e7 0.0
2.0655514842182938e7 -4.719647532259963e6 0.0
0.0 0.0 0.0

-5.477299380376356e6 1.716776646770657e7 0.0
1.716776646770657e7 1.0382492646131804e7 0.0
0.0 0.0 0.0

-7.160700615376257e6 1.041252555642581e7 0.0
1.041252555642581e7 7.503783980544716e6 0.0
0.0 0.0 0.0

-4.811583787702499e6 1.7458412998161655e7 0.0
1.7458412998161655e7 4.180087378125388e6 0.0
0.0 0.0 0.0

4.652499881500483e6 6.374581700630769e6 0.0
6.374581700630769e6 -2.484403007157438e7 0.0
0.0 0.0 0.0

3.910694679127007e6 6.955499549899705e6 0.0
6.955499549899705e6 -1.364099452399465e7 0.0
0.0 0.0 0.0

-665491.3596624611 1.5499944798665065e7 0.0
1.5499944798665065e7 -9.323266407800365e6 0.0
0.0 0.0 0.0

2.322186725063921e6 1.0270616297812253e7 0.0
1.0270616297812253e7 -1.6472824678849122e7 0.0
0.0 0.0 0.0

-1.1450908396158691e7 5.343650297421882e6 0.0
5.343650297421882e6 2.8534291561403535e7 0.0
0.0 0.0 0.0

-2.4882523377912296e6 3.736013318116752e6 0.0
3.736013318116752e6 1.0000441923840597e6 0.0
0.0 0.0 0.0

-1.018263251965822e7 4.941699381352804e6 0.0
4.941699381352804e6 3.727913685629176e7 0.0
0.0 0.0 0.0

-759044.7953943494 1.4908072515189774e7 0.0
1.4908072515189774e7 -8.928332410214143e6 0.0
0.0 0.0 0.0

-4.905079429647819e6 1.83693345981289e7 0.0
1.83693345981289e7 7.455236237802841e6 0.0
0.0 0.0 0.0

-7.199093601996862e6 9.05243794880587e6 0.0
9.05243794880587e6 1.0538970543363752e7 0.0
0.0 0.0 0.0

-1.1446811733855882e6 1.9076676254085064e7 0.0
1.9076676254085064e7 -4.854662995434458e6 0.0
0.0 0.0 0.0

-6.856509229964101e6 6.05498032287182e6 0.0
6.05498032287182e6 7.4052417292562425e6 0.0
0.0 0.0 0.0

-6.588681933747591e6 1.6506385409669789e7 0.0
1.6506385409669789e7 1.1162589793073436e7 0.0
0.0 0.0 0.0

1.1477661901557326e7 1.9153846592006017e7 0.0
1.9153846592006017e7 -9.605041693932489e6 0.0
0.0 0.0 0.0

-1.0207696672058864e7 1.424468971963897e7 0.0
1.424468971963897e7 1.5011844977528851e7 0.0
0.0 0.0 0.0

-1.1598930318059507e6 4.471368776974651e6 0.0
4.471368776974651e6 657587.5420060088 0.0
0.0 0.0 0.0

-2.395130552833628e7 -887888.8794959462 0.0
-887888.8794959462 9.768816206479551e6 0.0
0.0 0.0 0.0

4.729022927151554e6 4.936527266689634e6 0.0
4.936527266689634e6 -1.996937919090586e7 0.0
0.0 0.0 0.0

-6.844687179319711e6 2.228085503640685e7 0.0
2.228085503640685e7 6.5779907296665795e6 0.0
0.0 0.0 0.0

-8.09722091249759e6 1.148211440551994e6 0.0
1.148211440551994e6 8.73209458184339e6 0.0
0.0 0.0 0.0

-2.690652387744158e6 1.0392040034303356e7 0.0
1.0392040034303356e7 -1.6830949196439127e6 0.0
0.0 0.0 0.0

-1.1156781403789239e7 -1.0924593465543299e6 0.0
-1.0924593465543299e6 1.8125259256702594e7 0.0
0.0 0.0 0.0

-78874.735361394 1.5136222112711165e7 0.0
1.5136222112711165e7 -1.094397937994551e7 0.0
0.0 0.0 0.0

-1.0863548780305576e7 -2.5119254501054175e6 0.0
-2.5119254501054175e6 1.8927028241437204e7 0.0
0.0 0.0 0.0

572738.0926760151 1.282109931765773e7 0.0
1.282109931765773e7 -1.1617627930202022e7 0.0
0.0 0.0 0.0

-1.0795167874083018e7 1.4079897356050018e7 0.0
1.4079897356050018e7 1.780961524729209e7 0.0
0.0 0.0 0.0

-8.309320972916553e6 8.148116256204272e6 0.0
8.148116256204272e6 9.19274074263499e6 0.0
0.0 0.0 0.0

-9.229999399473427e6 1.3426584962669792e7 0.0
1.3426584962669792e7 2.1671081346216537e7 0.0
0.0 0.0 0.0

-1.0343211503301341e7 1.1114647701575167e7 0.0
1.1114647701575167e7 1.3281204019207522e7 0.0
0.0 0.0 0.0

-4.24461201317119e6 1.8016052594259847e7 0.0
1.8016052594259847e7 1.1126575124434486e6 0.0
0.0 0.0 0.0

4.418367054921242e6 6.916077209497116e6 0.0
6.916077209497116e6 -2.3900807484237134e7 0.0
0.0 0.0 0.0

-9.179340888259538e6 1.4499558089010317e7 0.0
1.4499558089010317e7 1.8556870865429733e7 0.0
0.0 0.0 0.0

5.729546850475997e6 1.5647417842706608e7 0.0
1.5647417842706608e7 2.750235603597278e6 0.0
0.0 0.0 0.0

-1.7302630760683343e7 6.200325852347651e6 0.0
6.200325852347651e6 1.0832850022221988e7 0.0
0.0 0.0 0.0

3.107932003541516e6 9.652699009288637e6 0.0
9.652699009288637e6 -2.1489454135554343e7 0.0
0.0 0.0 0.0

-6.586437135990561e6 1.0055638537110072e7 0.0
1.0055638537110072e7 9.429845820197342e6 0.0
0.0 0.0 0.0

2.97757806542311e6 8.360025033381876e6 0.0
8.360025033381876e6 -1.1512539019427001e7 0.0
0.0 0.0 0.0

-6.542440128144817e6 1.0063634832163926e6 0.0
1.0063634832163926e6 8.745635724229634e6 0.0
0.0 0.0 0.0

-9.248085725637548e6 -3.024891963697923e6 0.0
-3.024891963697923e6 1.3567276541763242e7 0.0
0.0 0.0 0.0

1.4996983130157916e6 1.1547824784594126e7 0.0
1.1547824784594126e7 -1.39747834162198e7 0.0
0.0 0.0 0.0

-9.543709208104143e6 3.4102318265414354e6 0.0
3.4102318265414354e6 1.3734840779616129e7 0.0
0.0 0.0 0.0

-5.2358927654002905e6 1.8731085282076336e7 0.0
1.8731085282076336e7 6.8004589988471065e6 0.0
0.0 0.0 0.0

-849067.21770817 1.3898297171169767e7 0.0
1.3898297171169767e7 6.964812544263845e6 0.0
0.0 0.0 0.0

342389.7701958261 6.8635111136086825e6 0.0
6.8635111136086825e6 -3.000920155954565e6 0.0
0.0 0.0 0.0

-397092.7190722651 1.533099516704282e7 0.0
1.533099516704282e7 -8.259637915204703e6 0.0
0.0 0.0 0.0

3.4688471538396515e6 7.129896460717173e6 0.0
7.129896460717173e6 -1.5384460617676789e7 0.0
0.0 0.0 0.0

-2.3439262231893307e6 2.0280379825481553e7 0.0
2.0280379825481553e7 -2.305216545904046e6 0.0
0.0 0.0 0.0

-1.259802987899311e6 1.3065780215948943e7 0.0
1.3065780215948943e7 -3.8044110083997734e7 0.0
0.0 0.0 0.0

3.312047702900078e6 5.636046230106717e6 0.0
5.636046230106717e6 -1.2260967556693353e7 0.0
0.0 0.0 0.0

4.1078372666978976e6 5.756812110045601e6 0.0
5.756812110045601e6 -1.6454369134766344e7 0.0
0.0 0.0 0.0

-1.355604765223389e6 1.3719195950883335e7 0.0
1.3719195950883335e7 -1.353761212866039e7 0.0
0.0 0.0 0.0

-223109.64150593657 7.250482050897507e6 0.0
7.250482050897507e6 -2.1300796439162986e6 0.0
0.0 0.0 0.0

-7.579535511954265e6 1.5450075561443346e7 0.0
1.5450075561443346e7 -3.2727589477532525e7 0.0
0.0 0.0 0.0

2.0831557367376694e6 7.242489918742846e6 0.0
7.242489918742846e6 -7.814385250662539e6 0.0
0.0 0.0 0.0

3.338463762621087e6 7.508946349220429e6 0.0
7.508946349220429e6 -1.174258294941612e7 0.0
0.0 0.0 0.0

-383326.60684166173 1.5101125819443675e7 0.0
1.5101125819443675e7 -2.11416253162723e6 0.0
0.0 0.0 0.0

-1.1944395534835408e7 9.616931544123841e6 0.0
9.616931544123841e6 2.3772791897318177e7 0.0
0.0 0.0 0.0

-3.965657132251816e6 2.1554490091177993e7 0.0
2.1554490091177993e7 2.712448346916399e6 0.0
0.0 0.0 0.0

-1.1285472421592109e7 4.034717316872716e6 0.0
4.034717316872716e6 8.381605798085755e6 0.0
0.0 0.0 0.0

2.0857972626473503e6 1.0655828865941834e7 0.0
1.0655828865941834e7 -1.561303088446849e7 0.0
0.0 0.0 0.0

-1.0242455744833834e6 1.5932181908332432e7 0.0
1.5932181908332432e7 1.0122951117918689e7 0.0
0.0 0.0 0.0

-2.240902157999035e6 1.980000743525644e7 0.0
1.980000743525644e7 -3.0812869415424867e6 0.0
0.0 0.0 0.0

-250103.60114997765 1.1393709613740798e7 0.0
1.1393709613740798e7 -7.48809092198696e6 0.0
0.0 0.0 0.0

-1.572569888767199e6 1.9412571924429525e7 0.0
1.9412571924429525e7 -4.279137588908125e6 0.0
0.0 0.0 0.0

743058.9812381174 1.17518143513197e7 0.0
1.17518143513197e7 -8.160522245854655e6 0.0
0.0 0.0 0.0

-7.081600959802367e6 -1.1909175932864815e6 0.0
-1.1909175932864815e6 9.390988629442995e6 0.0
0.0 0.0 0.0

-720161.061715303 1.5067195199175734e7 0.0
1.5067195199175734e7 -9.272720891449735e6 0.0
0.0 0.0 0.0

2.784799935025275e6 2.91429320635523e7 0.0
2.91429320635523e7 -7.367169944036903e6 0.0
0.0 0.0 0.0

1.7120753396716926e6 1.7156320571257316e7 0.0
1.7156320571257316e7 -4.969033516191001e6 0.0
0.0 0.0 0.0

387006.32366232015 1.4660381564783981e7 0.0
1.4660381564783981e7 -1.1358398128515264e7 0.0
0.0 0.0 0.0

-4.1110633055250845e6 1.156493107099017e7 0.0
1.156493107099017e7 3.5711919285445474e6 0.0
0.0 0.0 0.0

-3.6517550892673694e6 1.4152197283988973e7 0.0
1.4152197283988973e7 -988978.4169052979 0.0
0.0 0.0 0.0

5.170525535416429e6 4.274211025262126e6 0.0
4.274211025262126e6 -1.9280959913183566e7 0.0
0.0 0.0 0.0

3.2055339675172763e6 4.645096786481042e6 0.0
4.645096786481042e6 -9.56743535479248e6 0.0
0.0 0.0 0.0

-1.9908204823012538e6 7.938178593888411e6 0.0
7.938178593888411e6 -1.761876341435451e6 0.0
0.0 0.0 0.0

-4.9395335466439845e6 1.709983551520108e7 0.0
1.709983551520108e7 -1.1040635171145708e6 0.0
0.0 0.0 0.0

3.617260689943916e6 6.047936268244768e6 0.0
6.047936268244768e6 -1.4096211163996084e7 0.0
0.0 0.0 0.0

165215.44137176126 1.3040625153490826e7 0.0
1.3040625153490826e7 -1.0317602877298236e7 0.0
0.0 0.0 0.0

-1.434020325855235e6 1.5695799750591204e7 0.0
1.5695799750591204e7 6.4272743592127785e6 0.0
0.0 0.0 0.0

2.9408989318522727e6 9.973962004668627e6 0.0
9.973962004668627e6 -1.6000881356881412e7 0.0
0.0 0.0 0.0

-8.829796336512506e6 2.807909584474216e6 0.0
2.807909584474216e6 1.2651854732768394e7 0.0
0.0 0.0 0.0

-2.0108342409014516e7 2.1591762297711488e7 0.0
2.1591762297711488e7 7.260329494043171e6 0.0
0.0 0.0 0.0

3.29469683833199e6 9.490052049254948e6 0.0
9.490052049254948e6 -1.7941432968123086e7 0.0
0.0 0.0 0.0

-4.021241500558379e7 1.5730096664782607e6 0.0
1.5730096664782607e6 8.46931220107332e6 0.0
0.0 0.0 0.0

3.2495851815053616e6 6.932737289498909e6 0.0
6.932737289498909e6 -1.3744128281220641e7 0.0
0.0 0.0 0.0

-6.370584741169649e6 1.5742195492959773e7 0.0
1.5742195492959773e7 1.4153756358796937e7 0.0
0.0 0.0 0.0

1.477612700654259e6 1.1565960672952067e7 0.0
1.1565960672952067e7 -2.1626064521383617e7 0.0
0.0 0.0 0.0

1.6935076284027835e6 1.230946041843249e7 0.0
1.230946041843249e7 -1.7250537913274273e7 0.0
0.0 0.0 0.0

-3.1405608153253505e6 3.4829701440947633e6 0.0
3.4829701440947633e6 4.207054923686807e6 0.0
0.0 0.0 0.0

-1.2752606488628957e7 4.901048831957438e6 0.0
4.901048831957438e6 1.744303150847203e7 0.0
0.0 0.0 0.0

-2.642355669980281e6 1.219745233017757e7 0.0
1.219745233017757e7 -2.6600433487084047e6 0.0
0.0 0.0 0.0

-4.450007611684284e6 1.0930207863573916e7 0.0
1.0930207863573916e7 4.437490112517871e6 0.0
0.0 0.0 0.0

-1.2819971841585781e7 4.308881105664868e6 0.0
4.308881105664868e6 2.0004530440486964e7 0.0
0.0 0.0 0.0

-1.6990651365495422e6 1.1918487740023367e7 0.0
1.1918487740023367e7 -2.2453585874347016e6 0.0
0.0 0.0 0.0

-434541.43703080947 1.449126218143694e7 0.0
1.449126218143694e7 -9.774212066138914e6 0.0
0.0 0.0 0.0

-423788.71475269785 1.517874271182384e7 0.0
1.517874271182384e7 -7.884041807626062e6 0.0
0.0 0.0 0.0

-912283.7414751207 1.5574030555452885e7 0.0
1.5574030555452885e7 -8.795443246007878e6 0.0
0.0 0.0 0.0

923664.8400073526 1.2383405105342459e7 0.0
1.2383405105342459e7 -1.2374978879309043e7 0.0
0.0 0.0 0.0

2.234309628147304e6 7.953092633312926e6 0.0
7.953092633312926e6 -1.1151858862888103e7 0.0
0.0 0.0 0.0

94476.32390998467 1.3867098348669408e7 0.0
1.3867098348669408e7 -5.330757424672606e6 0.0
0.0 0.0 0.0

-820662.1624433859 1.4746800759569172e7 0.0
1.4746800759569172e7 -8.5858642356917e6 0.0
0.0 0.0 0.0

241997.40660247207 1.1859527156346634e7 0.0
1.1859527156346634e7 -6.779326304272457e6 0.0
0.0 0.0 0.0

-7.697046077012683e6 2.656393004612346e6 0.0
2.656393004612346e6 1.128695793901528e7 0.0
0.0 0.0 0.0

1.2107416173955956e6 1.198557977818511e7 0.0
1.198557977818511e7 -1.31924139456552e7 0.0
0.0 0.0 0.0

-9.288497296331102e6 1.635973842216044e7 0.0
1.635973842216044e7 -3.096165795899899e7 0.0
0.0 0.0 0.0

-2.9123232392613976e6 4.580072735006074e6 0.0
4.580072735006074e6 3.4884629188475236e6 0.0
0.0 0.0 0.0

2.9045825226615006e6 7.78157015694767e6 0.0
7.78157015694767e6 -1.3459040765008515e7 0.0
0.0 0.0 0.0

473275.3780850661 6.549431937842055e6 0.0
6.549431937842055e6 -5.265908962394578e6 0.0
0.0 0.0 0.0

-390189.26238168404 1.234702542732797e7 0.0
1.234702542732797e7 -3.450402831955055e7 0.0
0.0 0.0 0.0

-5.664552942220162e6 1.164339104311177e7 0.0
1.164339104311177e7 7.197985605979201e6 0.0
0.0 0.0 0.0

3.938589776257771e6 6.591697215153501e6 0.0
6.591697215153501e6 -1.3203561455262166e7 0.0
0.0 0.0 0.0

-1.2378014800971482e7 4.409990979010079e6 0.0
4.409990979010079e6 1.559141231373562e7 0.0
0.0 0.0 0.0

-1.0588792776360374e7 -950552.3477202754 0.0
-950552.3477202754 3.0458776184699327e7 0.0
0.0 0.0 0.0

327119.73691890074 1.4693935100638332e7 0.0
1.4693935100638332e7 -1.6966250804448735e6 0.0
0.0 0.0 0.0

430172.47272891056 1.3440705189708022e7 0.0
1.3440705189708022e7 1.9120304367641509e6 0.0
0.0 0.0 0.0

-6.255381232459638e6 1.8879305066869494e7 0.0
1.8879305066869494e7 6.484462242309134e6 0.0
0.0 0.0 0.0

-5.045999811625485e6 1.5965306408593873e7 0.0
1.5965306408593873e7 2.8962797489218013e6 0.0
0.0 0.0 0.0

5.072634458412134e6 5.161942191015232e6 0.0
5.161942191015232e6 -2.1588733337482642e7 0.0
0.0 0.0 0.0

5.052478561804845e6 5.576605818017071e6 0.0
5.576605818017071e6 -2.1905314776653312e7 0.0
0.0 0.0 0.0

-1.231259404898233e7 9.848810030364834e6 0.0
9.848810030364834e6 1.877370112866173e7 0.0
0.0 0.0 0.0

-101369.11175764166 1.3901306031573404e7 0.0
1.3901306031573404e7 -1.0282520075038012e7 0.0
0.0 0.0 0.0

3.961354601447913e6 1.5795444161476266e7 0.0
1.5795444161476266e7 -1.6507956319637476e6 0.0
0.0 0.0 0.0

-1.1337373976566965e7 1.734680222921156e6 0.0
1.734680222921156e6 3.5028198788000286e7 0.0
0.0 0.0 0.0

-5.220859599780623e6 1.432601588464443e7 0.0
1.432601588464443e7 6.212637011029875e6 0.0
0.0 0.0 0.0

-1.049841622728178e6 1.3713323652296236e7 0.0
1.3713323652296236e7 -7.0304128582210615e6 0.0
0.0 0.0 0.0

-7.037338645725913e6 1.295025876049042e7 0.0
1.295025876049042e7 3.371148726273174e7 0.0
0.0 0.0 0.0

772196.5145054542 5.114321685689745e6 0.0
5.114321685689745e6 -2.682818870148598e6 0.0
0.0 0.0 0.0

-2.120726586756736e6 1.7376089861017834e7 0.0
1.7376089861017834e7 -4.938365499373636e6 0.0
0.0 0.0 0.0

-133259.43323971983 1.6499739400283514e7 0.0
1.6499739400283514e7 1.106201603209184e7 0.0
0.0 0.0 0.0

3.5621080685215406e6 7.441239290942688e6 0.0
7.441239290942688e6 -1.2918015594902053e7 0.0
0.0 0.0 0.0

-2.4774998948861365e6 1.0905798171649257e7 0.0
1.0905798171649257e7 -2.3813501501483954e6 0.0
0.0 0.0 0.0

-1.0129144633106217e7 1.180394784085108e7 0.0
1.180394784085108e7 2.608525674818126e7 0.0
0.0 0.0 0.0

3.9606009527802328e6 8.018106791836085e6 0.0
8.018106791836085e6 -2.2043514171545543e7 0.0
0.0 0.0 0.0

632857.7022566763 1.4301341719056847e7 0.0
1.4301341719056847e7 -1.2187686012429645e7 0.0
0.0 0.0 0.0

-1.0324119602692218e7 -2.9620311479437826e6 0.0
-2.9620311479437826e6 2.393461576228191e7 0.0
0.0 0.0 0.0

3.4876487578275558e6 9.032358139216263e6 0.0
9.032358139216263e6 -2.1241129682097994e7 0.0
0.0 0.0 0.0

612347.4631685996 8.613150252224788e6 0.0
8.613150252224788e6 -5.423302055375773e6 0.0
0.0 0.0 0.0

4.129426306739688e6 7.649200127170908e6 0.0
7.649200127170908e6 -1.8871372536926884e7 0.0
0.0 0.0 0.0

437835.02548634727 1.1883356820124522e7 0.0
1.1883356820124522e7 -9.83221931957855e6 0.0
0.0 0.0 0.0

221912.3413587464 1.327186956886726e7 0.0
1.327186956886726e7 -1.075374209366146e7 0.0
0.0 0.0 0.0

-1.2617341358482748e7 3.1251495563599737e6 0.0
3.1251495563599737e6 1.9588008859154724e7 0.0
0.0 0.0 0.0

1.3982232182982303e6 1.4730084389880942e7 0.0
1.4730084389880942e7 2.229195173245404e6 0.0
0.0 0.0 0.0

-7.3216533280054e6 2.0700384572591283e6 0.0
2.0700384572591283e6 1.0159730914392663e7 0.0
0.0 0.0 0.0

1.5932683754872568e6 1.2678897223526252e7 0.0
1.2678897223526252e7 -1.4545607007834474e7 0.0
0.0 0.0 0.0

-1.1592600051034084e6 5.345707833896547e6 0.0
5.345707833896547e6 262113.83246758167 0.0
0.0 0.0 0.0

1.33432537372562e6 5.367825702915408e6 0.0
5.367825702915408e6 -6.164421696974168e6 0.0
0.0 0.0 0.0

141339.41559922136 1.2819542465832755e7 0.0
1.2819542465832755e7 -9.926636472098477e6 0.0
0.0 0.0 0.0

4.257974046664606e6 5.628094079304352e6 0.0
5.628094079304352e6 -1.3461228678627852e7 0.0
0.0 0.0 0.0

-1.128219895797752e7 -610632.1707649683 0.0
-610632.1707649683 1.6324798752965555e7 0.0
0.0 0.0 0.0

4.962521568244105e6 4.0766464338306356e6 0.0
4.0766464338306356e6 -3.0454005014605638e7 0.0
0.0 0.0 0.0

-1.0017867774756093e6 1.3640723286342204e7 0.0
1.3640723286342204e7 -3.339288885078317e6 0.0
0.0 0.0 0.0

-1.1694406612240948e7 6.349285128428391e6 0.0
6.349285128428391e6 1.3786401199449556e7 0.0
0.0 0.0 0.0

-6.561545754182387e6 1.7970123859005615e7 0.0
1.7970123859005615e7 4.566756994132325e6 0.0
0.0 0.0 0.0

169829.8501878169 1.5579004164504567e7 0.0
1.5579004164504567e7 5.889804687516784e6 0.0
0.0 0.0 0.0

-1.0503351161901537e7 1.4529650831099654e7 0.0
1.4529650831099654e7 1.7278968993097793e7 0.0
0.0 0.0 0.0

-7.765753633952704e6 1.4916902641595516e7 0.0
1.4916902641595516e7 1.419795485109558e7 0.0
0.0 0.0 0.0

-9.885625318056326e6 -5.356695264038346e6 0.0
-5.356695264038346e6 2.3428574666800823e7 0.0
0.0 0.0 0.0

-2.8438542124575297e6 1.076617099261516e7 0.0
1.076617099261516e7 1.0758757600548593e6 0.0
0.0 0.0 0.0

2.054207384228444e6 1.6262666609203994e7 0.0
1.6262666609203994e7 9.840438529220754e6 0.0
0.0 0.0 0.0

-4.325586964065038e6 1.7143537866298687e7 0.0
1.7143537866298687e7 8.154957519658772e6 0.0
0.0 0.0 0.0

-1.2528507996514466e7 3.9996579546813793e6 0.0
3.9996579546813793e6 1.679664066028306e7 0.0
0.0 0.0 0.0

1.6129525179802831e6 1.1707284397098476e7 0.0
1.1707284397098476e7 -1.6262081484078761e7 0.0
0.0 0.0 0.0

3.034570942127455e6 6.610800168435159e6 0.0
6.610800168435159e6 -1.206815503811536e7 0.0
0.0 0.0 0.0

565053.1445163982 1.3728273855477935e7 0.0
1.3728273855477935e7 -1.0021805023588184e7 0.0
0.0 0.0 0.0

-2.464724333842594e6 9.821194053315751e6 0.0
9.821194053315751e6 667700.777924283 0.0
0.0 0.0 0.0

3.2535095321750557e6 5.397113261759814e6 0.0
5.397113261759814e6 -9.50627522682841e6 0.0
0.0 0.0 0.0

-2.342240217217622e6 1.7765655516766783e7 0.0
1.7765655516766783e7 -4.0498453400950064e6 0.0
0.0 0.0 0.0

-1.072659060421856e7 163752.42289496254 0.0
163752.42289496254 2.8968889836363237e7 0.0
0.0 0.0 0.0

-1.0653266754436312e7 -1.8483266614746533e6 0.0
-1.8483266614746533e6 2.4954734929007147e7 0.0
0.0 0.0 0.0

-1.2488411861973722e7 7.795821863251143e6 0.0
7.795821863251143e6 2.4101259175243128e7 0.0
0.0 0.0 0.0

-1.5492145044520895e6 1.6435063937637292e7 0.0
1.6435063937637292e7 -7.073285340637072e6 0.0
0.0 0.0 0.0

-685625.7439292206 7.284984917297122e6 0.0
7.284984917297122e6 -3.667381724571147e6 0.0
0.0 0.0 0.0

6.324945274486321e6 1.6874035364188794e7 0.0
1.6874035364188794e7 6.548257050935647e6 0.0
0.0 0.0 0.0

5.700938634233038e6 1.736900259671583e7 0.0
1.736900259671583e7 2.757380150861434e7 0.0
0.0 0.0 0.0

3.7396116463150876e6 6.185723873498033e6 0.0
6.185723873498033e6 -1.1391791334125955e7 0.0
0.0 0.0 0.0

-9.798584659735322e6 2.137480709805374e6 0.0
2.137480709805374e6 1.4314499336391862e7 0.0
0.0 0.0 0.0

-3.174082839490523e6 1.1699732557972513e7 0.0
1.1699732557972513e7 1.4401469679032853e6 0.0
0.0 0.0 0.0

-6.692877301498196e6 1.6361913791353341e7 0.0
1.6361913791353341e7 1.0907920813833755e7 0.0
0.0 0.0 0.0

4.865021872453456e6 5.843704434104031e6 0.0
5.843704434104031e6 -2.3317777263918914e7 0.0
0.0 0.0 0.0

4.5566701679890035e6 6.581879408705273e6 0.0
6.581879408705273e6 -2.047142500625344e7 0.0
0.0 0.0 0.0

-2.3350849256697963e6 5.646522622328936e6 0.0
5.646522622328936e6 -162173.0565577884 0.0
0.0 0.0 0.0

-5.172199413411705e6 1.5176156977136709e7 0.0
1.5176156977136709e7 6.198436349259832e6 0.0
0.0 0.0 0.0

-7.294850290542709e6 1.3281978506273206e7 0.0
1.3281978506273206e7 3.1106912912985753e7 0.0
0.0 0.0 0.0

255408.7480935189 1.434880793496142e7 0.0
1.434880793496142e7 -9.566060298177158e6 0.0
0.0 0.0 0.0

-1.8008342698143222e6 6.353515770427243e6 0.0
6.353515770427243e6 885298.7665872254 0.0
0.0 0.0 0.0

4.761763132227607e6 6.050158072947325e6 0.0
6.050158072947325e6 -2.121796471737339e7 0.0
0.0 0.0 0.0

-5.807153597860116e6 1.6899990910696153e7 0.0
1.6899990910696153e7 7.094987786435844e6 0.0
0.0 0.0 0.0

3.1421621134861168e6 7.627658491604927e6 0.0
7.627658491604927e6 -1.4740168347946923e7 0.0
0.0 0.0 0.0

-7.742289776267316e6 5.026275227647658e6 0.0
5.026275227647658e6 837864.2232441744 0.0
0.0 0.0 0.0

503955.1842921511 1.2370634621920014e7 0.0
1.2370634621920014e7 -1.074157329548062e7 0.0
0.0 0.0 0.0

-992403.1441026905 4.324704603088142e6 0.0
4.324704603088142e6 -1.5887056830176276e6 0.0
0.0 0.0 0.0

-2.0304252779995832e6 8.871053286692806e6 0.0
8.871053286692806e6 228178.16161577497 0.0
0.0 0.0 0.0

-1.5287667295580981e6 7.8914497940384075e6 0.0
7.8914497940384075e6 -216343.75842591253 0.0
0.0 0.0 0.0

110160.36818670714 1.2540619695294999e7 0.0
1.2540619695294999e7 -9.517830010822598e6 0.0
0.0 0.0 0.0

-2.8502580154736675e6 1.1765595673171831e7 0.0
1.1765595673171831e7 -2.0223601851716565e6 0.0
0.0 0.0 0.0

-1.2859188762024537e7 4.465994247411402e6 0.0
4.465994247411402e6 1.8718468014665004e7 0.0
0.0 0.0 0.0

-9.566443304202188e6 1.0899380227625672e7 0.0
1.0899380227625672e7 3.0417429066201493e7 0.0
0.0 0.0 0.0

-1.1710215927577542e7 8.100829520115191e6 0.0
8.100829520115191e6 2.7483731708549783e7 0.0
0.0 0.0 0.0

-9.89714413118748e6 1.1336197688718105e7 0.0
1.1336197688718105e7 2.8112504547518067e7 0.0
0.0 0.0 0.0

-9.7782320627832e6 5.209754661152889e6 0.0
5.209754661152889e6 4.415903911336345e7 0.0
0.0 0.0 0.0

-1.2174744497786616e6 1.5682265042379105e7 0.0
1.5682265042379105e7 4.875127787214488e6 0.0
0.0 0.0 0.0

-1.1576739448544243e7 2.629747299683392e6 0.0
2.629747299683392e6 3.280441568862655e7 0.0
0.0 0.0 0.0

-2.795162683053832e6 1.6754240348384857e7 0.0
1.6754240348384857e7 -3.339996833031214e6 0.0
0.0 0.0 0.0

-176675.58995042974 1.4106238988423442e7 0.0
1.4106238988423442e7 -8.98647572252627e6 0.0
0.0 0.0 0.0

-3.657557585280259e7 2.3301343512446996e7 0.0
2.3301343512446996e7 -3.085235947897164e6 0.0
0.0 0.0 0.0

3.3811883153798003e6 7.120197689893984e6 0.0
7.120197689893984e6 -1.1262009708803605e7 0.0
0.0 0.0 0.0

2.700907311522113e6 1.045820065021424e7 0.0
1.045820065021424e7 -1.5331407404400423e7 0.0
0.0 0.0 0.0

-2.142852512928518e6 1.7873565934564818e7 0.0
1.7873565934564818e7 -3.4490161625487455e6 0.0
0.0 0.0 0.0

-4.0859371863444857e6 1.7358970766394258e7 0.0
1.7358970766394258e7 2.908409891376729e6 0.0
0.0 0.0 0.0

4.280804213048642e6 7.195547250777651e6 0.0
7.195547250777651e6 -1.85435004631358e7 0.0
0.0 0.0 0.0

7.588787971175406e6 1.7855665442562144e7 0.0
1.7855665442562144e7 -6.2666199951315075e6 0.0
0.0 0.0 0.0

-3.180914630065344e6 9.20250122058589e6 0.0
9.20250122058589e6 -261533.1575798674 0.0
0.0 0.0 0.0

3.989426791455662e6 6.081656875489193e6 0.0
6.081656875489193e6 -3.1686247260070425e7 0.0
0.0 0.0 0.0

-2.676859081579427e6 8.236988264200316e6 0.0
8.236988264200316e6 -729954.2242561432 0.0
0.0 0.0 0.0

2.6464124235785925e6 7.482675861677549e6 0.0
7.482675861677549e6 -1.184228466112694e7 0.0
0.0 0.0 0.0

-1.0082572675034394e7 1.4701780622347655e7 0.0
1.4701780622347655e7 1.6750745283889174e7 0.0
0.0 0.0 0.0

-2.2677562332551837e7 2.0122666579411414e7 0.0
2.0122666579411414e7 5.478842221004407e6 0.0
0.0 0.0 0.0

-1.0446249343575187e7 -3.4475201634464087e6 0.0
-3.4475201634464087e6 1.8419008769090652e7 0.0
0.0 0.0 0.0

-53368.15939767705 1.4929071737023236e7 0.0
1.4929071737023236e7 -9.078206049287532e6 0.0
0.0 0.0 0.0

-1.090626239555823e7 2.057345433081751e7 0.0
2.057345433081751e7 1.8620980199432746e6 0.0
0.0 0.0 0.0

3.6726779685140797e6 5.737996274010988e6 0.0
5.737996274010988e6 -1.1110145487461515e7 0.0
0.0 0.0 0.0

-1.1452716657974869e7 4.929963363011363e6 0.0
4.929963363011363e6 1.6659428358290032e7 0.0
0.0 0.0 0.0

517538.4565289444 1.3279163512568723e7 0.0
1.3279163512568723e7 -9.207178278080478e6 0.0
0.0 0.0 0.0

-679541.5223715951 1.264446061273314e7 0.0
1.264446061273314e7 -5.009020364183214e6 0.0
0.0 0.0 0.0

-3.631652020072559e6 1.0161143635484766e7 0.0
1.0161143635484766e7 163921.2330047409 0.0
0.0 0.0 0.0

-1.252158300656337e7 6.222547133341743e6 0.0
6.222547133341743e6 2.424104551320519e7 0.0
0.0 0.0 0.0

5.175615360788177e6 4.807457944113688e6 0.0
4.807457944113688e6 -1.99695510709156e7 0.0
0.0 0.0 0.0

3.6959915568611026e6 5.689629318374483e6 0.0
5.689629318374483e6 -1.341783326556556e7 0.0
0.0 0.0 0.0

-5.82052677491764e6 1.6630982020926032e7 0.0
1.6630982020926032e7 6.405563466660656e6 0.0
0.0 0.0 0.0

-5.106995640547657e6 2.798441055131089e6 0.0
2.798441055131089e6 4.42229237014587e6 0.0
0.0 0.0 0.0

370451.54781807633 1.1587951074044507e7 0.0
1.1587951074044507e7 -9.387805857916007e6 0.0
0.0 0.0 0.0

4.229226274221206e6 6.671339316723517e6 0.0
6.671339316723517e6 -1.5966617246111866e7 0.0
0.0 0.0 0.0

-1.1417710049575668e7 1.3191270921377216e6 0.0
1.3191270921377216e6 2.7080806660690445e7 0.0
0.0 0.0 0.0

-1.0406740202452964e6 1.5792334000827512e7 0.0
1.5792334000827512e7 3.260774605176415e6 0.0
0.0 0.0 0.0

-1.0648604850234197e7 -1.5322223358288365e6 0.0
-1.5322223358288365e6 1.5525729819647223e7 0.0
0.0 0.0 0.0

2.914719860649081e6 1.002762739717714e7 0.0
1.002762739717714e7 -2.0529220365009848e7 0.0
0.0 0.0 0.0

160659.21953094006 1.3940182156929277e7 0.0
1.3940182156929277e7 -1.3741326974147763e7 0.0
0.0 0.0 0.0

-1.0989880355130238e7 7.582000033951842e6 0.0
7.582000033951842e6 1.2907271859884849e7 0.0
0.0 0.0 0.0

1.758882872449425e6 1.2272976348219456e7 0.0
1.2272976348219456e7 -1.6307220602634653e7 0.0
0.0 0.0 0.0

1.2188600714955418e6 1.2603210495012166e7 0.0
1.2603210495012166e7 -1.1276245765812855e7 0.0
0.0 0.0 0.0

661883.5527829595 3.797689399572513e6 0.0
3.797689399572513e6 -1.9965798319335233e6 0.0
0.0 0.0 0.0

-9.75158421530293e6 -1.6192696807595408e6 0.0
-1.6192696807595408e6 1.2860367199435718e7 0.0
0.0 0.0 0.0

538015.9032103727 1.0209812066470563e7 0.0
1.0209812066470563e7 -8.647140829468641e6 0.0
0.0 0.0 0.0

914787.9388408065 9.38534639866727e6 0.0
9.38534639866727e6 -8.944883902343592e6 0.0
0.0 0.0 0.0

583121.1129069384 1.3490555143554473e7 0.0
1.3490555143554473e7 -9.611200616199337e6 0.0
0.0 0.0 0.0

-1.060777550244387e6 1.5897849429740181e7 0.0
1.5897849429740181e7 1.665331171577881e6 0.0
0.0 0.0 0.0

1.8410925870930823e6 8.439150779164502e6 0.0
8.439150779164502e6 -1.043974877025896e7 0.0
0.0 0.0 0.0

768087.8272985946 1.133860982734503e7 0.0
1.133860982734503e7 -2.85721522149397e7 0.0
0.0 0.0 0.0

-4.359012853896515e6 3.805346901947893e6 0.0
3.805346901947893e6 3.7497232277118717e6 0.0
0.0 0.0 0.0

-5.781397507354023e6 1.469033489088484e7 0.0
1.469033489088484e7 -2.396410634873526e7 0.0
0.0 0.0 0.0

-8.202901671820405e7 9.003481379739704e6 0.0
9.003481379739704e6 4.501986447931759e6 0.0
0.0 0.0 0.0

6.212723264277275e7 1.0262671303748764e7 0.0
1.0262671303748764e7 1.231863318201881e6 0.0
0.0 0.0 0.0

19957.277846990153 1.1803024399882037e7 0.0
1.1803024399882037e7 -3.2296844267565005e7 0.0
0.0 0.0 0.0

-8.947096567094218e6 1.1764115603774527e7 0.0
1.1764115603774527e7 1.4254123221647814e7 0.0
0.0 0.0 0.0

-4.199377098305367e6 1.5323542984905748e7 0.0
1.5323542984905748e7 271411.53131164704 0.0
0.0 0.0 0.0

175267.21570921876 1.0972579348694704e7 0.0
1.0972579348694704e7 -8.353376055529242e6 0.0
0.0 0.0 0.0

391808.2577243026 5.92915174757231e6 0.0
5.92915174757231e6 -4.658128202214764e6 0.0
0.0 0.0 0.0

902258.8852306348 6.50601881289289e6 0.0
6.50601881289289e6 -3.8290472541228225e6 0.0
0.0 0.0 0.0

-4.0074034350836095e6 1.1120214664824158e7 0.0
1.1120214664824158e7 546514.7155160329 0.0
0.0 0.0 0.0

421146.8646041844 1.1539046905619008e7 0.0
1.1539046905619008e7 -3.033246830311124e7 0.0
0.0 0.0 0.0

1.3914715318687889e6 9.88996732183505e6 0.0
9.88996732183505e6 -8.145294323829807e6 0.0
0.0 0.0 0.0

-1.1747178062016679e7 -517473.5964265909 0.0
-517473.5964265909 2.0958930888350483e7 0.0
0.0 0.0 0.0

4.824599389678005e7 1.2060945366966702e7 0.0
1.2060945366966702e7 -1.1176667260523643e6 0.0
0.0 0.0 0.0

1.0063831099017714e6 1.0681562159544574e7 0.0
1.0681562159544574e7 -7.900857931177793e6 0.0
0.0 0.0 0.0

4.555346229990127e6 6.354262739585045e6 0.0
6.354262739585045e6 -1.784446086570447e7 0.0
0.0 0.0 0.0

4.425179896842246e6 6.7690713205504455e6 0.0
6.7690713205504455e6 -1.8180798361209802e7 0.0
0.0 0.0 0.0

-9.706228678846126e6 1.4918108392856171e7 0.0
1.4918108392856171e7 1.617147217562094e7 0.0
0.0 0.0 0.0

1.8740388853951916e6 1.1728137025158025e7 0.0
1.1728137025158025e7 -1.2787475942996021e7 0.0
0.0 0.0 0.0

-1.7280189704877913e6 1.6506899052857e7 0.0
1.6506899052857e7 -6.879864646235423e6 0.0
0.0 0.0 0.0

2.61907620370592e6 1.6742294309188344e7 0.0
1.6742294309188344e7 -4.437232451741905e6 0.0
0.0 0.0 0.0

-1.4412475692241695e6 1.0582712015684824e7 0.0
1.0582712015684824e7 -1.8989774386605406e6 0.0
0.0 0.0 0.0

1.8180891732619663e6 5.758687708958361e6 0.0
5.758687708958361e6 -5.476796445857377e6 0.0
0.0 0.0 0.0

-1.3190521942354718e6 7.626266064605737e6 0.0
7.626266064605737e6 -2.713859689167685e6 0.0
0.0 0.0 0.0

-2.707082512447197e6 5.672747827990606e6 0.0
5.672747827990606e6 2.763793848518978e6 0.0
0.0 0.0 0.0

-2.5471222291842755e6 1.3115179328709442e7 0.0
1.3115179328709442e7 -1.8320114373984076e7 0.0
0.0 0.0 0.0

3.089705365590293e6 9.914770844773319e6 0.0
9.914770844773319e6 -1.824130585945334e7 0.0
0.0 0.0 0.0

2.919061619255055e6 6.101766589151875e6 0.0
6.101766589151875e6 -1.1684991695596136e7 0.0
0.0 0.0 0.0

2.6399304285588926e6 8.07105674165383e6 0.0
8.07105674165383e6 -9.839656167637741e6 0.0
0.0 0.0 0.0

-2.202587310186202e6 1.2296811693269936e7 0.0
1.2296811693269936e7 -1.215618363318387e6 0.0
0.0 0.0 0.0

2.623541589625285e6 7.863309687619613e6 0.0
7.863309687619613e6 -1.2304016970417023e7 0.0
0.0 0.0 0.0

-99135.14930020366 6.911686186591925e6 0.0
6.911686186591925e6 -4.470871634319218e6 0.0
0.0 0.0 0.0

4.548588641848276e6 5.182363804010631e6 0.0
5.182363804010631e6 -1.4103503887211937e7 0.0
0.0 0.0 0.0

820901.9856098108 1.2310002535781432e7 0.0
1.2310002535781432e7 -9.162629713685159e6 0.0
0.0 0.0 0.0

-4.418491665463155e6 4.953276291414342e6 0.0
4.953276291414342e6 2.9764763655165173e6 0.0
0.0 0.0 0.0

-2.078446129358377e6 1.7356559742762946e7 0.0
1.7356559742762946e7 -5.452739177799925e6 0.0
0.0 0.0 0.0

4.324784707953082e6 5.742883913160867e6 0.0
5.742883913160867e6 -2.781643158319918e7 0.0
0.0 0.0 0.0

488218.3297226969 1.3003316722592141e7 0.0
1.3003316722592141e7 -8.812645444092795e6 0.0
0.0 0.0 0.0

3.7420898115384653e6 7.677239180675269e6 0.0
7.677239180675269e6 -1.4506228614969674e7 0.0
0.0 0.0 0.0

-468439.8208027041 5.045337139235328e6 0.0
5.045337139235328e6 -487058.63822435436 0.0
0.0 0.0 0.0

4.007352817205875e6 7.195255796184752e6 0.0
7.195255796184752e6 -1.5268361054481205e7 0.0
0.0 0.0 0.0

-4.603399436611403e6 1.6021195241195817e7 0.0
1.6021195241195817e7 4.363714099060464e6 0.0
0.0 0.0 0.0

-1.6572139599961655e6 1.8511559967125654e7 0.0
1.8511559967125654e7 -5.249070342362283e6 0.0
0.0 0.0 0.0

31685.497023650445 1.4232753882436935e7 0.0
1.4232753882436935e7 -1.3487350998885524e7 0.0
0.0 0.0 0.0

911771.4735745438 6.115374697335239e6 0.0
6.115374697335239e6 -6.028442811408527e6 0.0
0.0 0.0 0.0

-1.606314445041586e6 1.913004054357759e7 0.0
1.913004054357759e7 -3.6840634221881335e6 0.0
0.0 0.0 0.0

-895712.0369812339 1.630986608195736e7 0.0
1.630986608195736e7 -6.936316539595291e6 0.0
0.0 0.0 0.0

-1.0971528258147638e7 4.055057902539471e6 0.0
4.055057902539471e6 1.2680846762616228e7 0.0
0.0 0.0 0.0

-4.46246644570875e6 1.6934863636094496e7 0.0
1.6934863636094496e7 9.52297160349321e6 0.0
0.0 0.0 0.0

-1.512906505058906e6 4.702541189277478e6 0.0
4.702541189277478e6 -664297.8783548414 0.0
0.0 0.0 0.0

-1.3839978215028553e6 8.548374395465266e6 0.0
8.548374395465266e6 -836868.3157626749 0.0
0.0 0.0 0.0

-1.133539598291113e7 4.5399470465482725e6 0.0
4.5399470465482725e6 3.0694746470643762e7 0.0
0.0 0.0 0.0

-5.355928439744861e6 1.0220689425297186e7 0.0
1.0220689425297186e7 3.4409439615977965e6 0.0
0.0 0.0 0.0

1.502990089469691e6 1.4205870726537127e7 0.0
1.4205870726537127e7 101512.47983110667 0.0
0.0 0.0 0.0

666684.8009504299 1.1448878507062009e7 0.0
1.1448878507062009e7 -7.607401662794543e6 0.0
0.0 0.0 0.0

38569.64023362566 1.2286073408171276e7 0.0
1.2286073408171276e7 -9.033998607895475e6 0.0
0.0 0.0 0.0

813119.1961684749 1.1244018260115705e7 0.0
1.1244018260115705e7 -2.696474446708856e7 0.0
0.0 0.0 0.0

4.061408643604407e6 6.034705371446129e6 0.0
6.034705371446129e6 -2.9435355793506607e7 0.0
0.0 0.0 0.0

-1.289434083069306e7 6.104507687068031e6 0.0
6.104507687068031e6 1.6853954747893304e7 0.0
0.0 0.0 0.0

-4.547805022939475e6 1.8615563747707173e7 0.0
1.8615563747707173e7 5.400046313472016e6 0.0
0.0 0.0 0.0

-1.1986137260195818e7 70110.11420486495 0.0
70110.11420486495 2.3612238583178632e7 0.0
0.0 0.0 0.0

-407649.4410895691 1.5464090909804814e7 0.0
1.5464090909804814e7 -8.629112581685819e6 0.0
0.0 0.0 0.0

-446556.88717418304 1.5123937922586517e7 0.0
1.5123937922586517e7 -1.047157624553081e7 0.0
0.0 0.0 0.0

8.602906002094252e6 5.35181500718453e6 0.0
5.35181500718453e6 -1.8574804374663527e6 0.0
0.0 0.0 0.0

1.6481713576536598e6 8.16003403159336e6 0.0
8.16003403159336e6 -7.541671600979583e6 0.0
0.0 0.0 0.0

-8.367028869823856e6 9.682518683755975e6 0.0
9.682518683755975e6 9.495831207499674e6 0.0
0.0 0.0 0.0

-866670.9254625398 1.3906933628126893e7 0.0
1.3906933628126893e7 -1.2864461884490252e7 0.0
0.0 0.0 0.0

784503.752476471 1.2055441714409038e7 0.0
1.2055441714409038e7 -8.681823277460957e6 0.0
0.0 0.0 0.0

875503.6831322792 1.2847159477659035e7 0.0
1.2847159477659035e7 -1.002646459664999e7 0.0
0.0 0.0 0.0

-1.1902822830191307e7 9.398343562176643e6 0.0
9.398343562176643e6 2.3849271748030625e7 0.0
0.0 0.0 0.0

-1.2330346021335702e7 5.718897785062414e6 0.0
5.718897785062414e6 1.5187371819205455e7 0.0
0.0 0.0 0.0

-46300.232632818166 1.2007110199571332e7 0.0
1.2007110199571332e7 -8.553895975071818e6 0.0
0.0 0.0 0.0

-1.3035296140539711e6 1.432279811772406e7 0.0
1.432279811772406e7 -6.725413244102055e6 0.0
0.0 0.0 0.0

-4.570855744918447e6 1.5802405459265543e7 0.0
1.5802405459265543e7 -2.296442400186016e6 0.0
0.0 0.0 0.0

-3.455530159684061e6 1.864053403592131e7 0.0
1.864053403592131e7 -982288.6250998288 0.0
0.0 0.0 0.0

3.0626938044761736e6 9.964340495005047e6 0.0
9.964340495005047e6 -1.9368821640514992e7 0.0
0.0 0.0 0.0

-3.528510125948051e6 2.1836596214520566e7 0.0
2.1836596214520566e7 3.128324115922795e6 0.0
0.0 0.0 0.0

-7.806049965793433e6 1.061029447506133e7 0.0
1.061029447506133e7 8.526798399821417e6 0.0
0.0 0.0 0.0

-3.4763294178837743e6 1.859262597705615e7 0.0
1.859262597705615e7 -5.291477386043189e6 0.0
0.0 0.0 0.0

-165589.7828371509 1.3741687793324905e7 0.0
1.3741687793324905e7 -1.7439317246430656e6 0.0
0.0 0.0 0.0

121169.58347184025 1.4455701663975025e7 0.0
1.4455701663975025e7 -1.270371522398732e7 0.0
0.0 0.0 0.0

-1.127260699404422e6 1.4726136792543e7 0.0
1.4726136792543e7 -6.828818955162504e6 0.0
0.0 0.0 0.0

-5.297762391670718e6 1.8154416519344583e7 0.0
1.8154416519344583e7 7.009878592377705e6 0.0
0.0 0.0 0.0

-121248.69730786327 1.4561468336520214e7 0.0
1.4561468336520214e7 -8.348004481917772e6 0.0
0.0 0.0 0.0

-143486.55585981533 1.1722701851043997e7 0.0
1.1722701851043997e7 -8.031910137520548e6 0.0
0.0 0.0 0.0

583292.9654871626 1.3743281397171678e7 0.0
1.3743281397171678e7 -1.4820241856746666e7 0.0
0.0 0.0 0.0

-731577.955121051 9.856209458539583e6 0.0
9.856209458539583e6 -5.396026567856129e6 0.0
0.0 0.0 0.0

-4.435138713686621e6 1.7297555198196962e7 0.0
1.7297555198196962e7 1.7483586737658053e6 0.0
0.0 0.0 0.0

-3.2180531170029948e6 1.826926025555653e7 0.0
1.826926025555653e7 -1.8682096181115522e6 0.0
0.0 0.0 0.0

163360.7563181491 4.703848799387746e6 0.0
4.703848799387746e6 -1.3203265557120305e6 0.0
0.0 0.0 0.0

852056.8588136449 8.941304984511761e6 0.0
8.941304984511761e6 -8.445474324066546e6 0.0
0.0 0.0 0.0

-3.101753147084109e6 1.936933081536e7 0.0
1.936933081536e7 364628.0005800652 0.0
0.0 0.0 0.0

-5.3218946213875525e6 1.5609757120797442e7 0.0
1.5609757120797442e7 3.7086133791291243e6 0.0
0.0 0.0 0.0

-6.255426765466021e7 4.848869697687002e6 0.0
4.848869697687002e6 6.249412026528113e6 0.0
0.0 0.0 0.0

1.5074848194724936e6 1.2605790935631627e7 0.0
1.2605790935631627e7 -1.6388670551369319e7 0.0
0.0 0.0 0.0

-5.986284525172388e6 1.473673571521855e7 0.0
1.473673571521855e7 5.528534157165825e6 0.0
0.0 0.0 0.0

-2.4231453877756083e6 1.6971582118125845e7 0.0
1.6971582118125845e7 -2.171693336604582e6 0.0
0.0 0.0 0.0

-5.832585154070612e6 1.5563706851183709e7 0.0
1.5563706851183709e7 5.549525105407603e6 0.0
0.0 0.0 0.0

-984931.2525175398 1.611161803910915e7 0.0
1.611161803910915e7 130068.98284057598 0.0
0.0 0.0 0.0

-757637.1052857062 1.5564667806442851e7 0.0
1.5564667806442851e7 -7.195161713418461e6 0.0
0.0 0.0 0.0

-7.132220551646772e6 1.147684369705521e7 0.0
1.147684369705521e7 7.374043429149919e6 0.0
0.0 0.0 0.0

-1.1533852049299277e7 3.0938340182176884e6 0.0
3.0938340182176884e6 1.84814730129499e7 0.0
0.0 0.0 0.0

-327765.22856249334 1.032492778717827e7 0.0
1.032492778717827e7 -4.493790816367564e6 0.0
0.0 0.0 0.0

2.8746717483321917e6 5.792226395972405e6 0.0
5.792226395972405e6 -8.806344936268456e6 0.0
0.0 0.0 0.0

-1.5507759191939014e6 1.2905270286525387e7 0.0
1.2905270286525387e7 -5.406001804672483e6 0.0
0.0 0.0 0.0

-1.2295360950476786e6 1.6016239029946484e7 0.0
1.6016239029946484e7 -7.932921507323988e6 0.0
0.0 0.0 0.0

-5.395816854657681e6 1.4804966285726853e7 0.0
1.4804966285726853e7 3.585624131760144e6 0.0
0.0 0.0 0.0

-2.1264773309708303e6 1.1813047387226395e7 0.0
1.1813047387226395e7 -3.641786231506933e6 0.0
0.0 0.0 0.0

-3.112741870807353e6 2.190702242948825e6 0.0
2.190702242948825e6 5.261148950699773e6 0.0
0.0 0.0 0.0

2.5255093668387886e6 5.687171113630422e6 0.0
5.687171113630422e6 -9.965579753307195e6 0.0
0.0 0.0 0.0

-1.1788729785642434e7 3.0482655454583713e6 0.0
3.0482655454583713e6 2.4081903532478083e7 0.0
0.0 0.0 0.0

-1.0000491545021657e7 778385.5886378986 0.0
778385.5886378986 1.2445127858124316e7 0.0
0.0 0.0 0.0

-5.350524969347778e6 1.59959170956008e7 0.0
1.59959170956008e7 1.4255439152318321e7 0.0
0.0 0.0 0.0

-1.5445339727234577e6 1.4917462495807651e7 0.0
1.4917462495807651e7 -6.361948665105596e6 0.0
0.0 0.0 0.0

728971.9709800216 8.462476588613871e6 0.0
8.462476588613871e6 -7.991124468493095e6 0.0
0.0 0.0 0.0

-1.160496349395363e7 2.9391639638746753e6 0.0
2.9391639638746753e6 2.5821481549292143e7 0.0
0.0 0.0 0.0

-2.2268094020120436e6 1.7149733511608515e7 0.0
1.7149733511608515e7 -2.723041642761006e6 0.0
0.0 0.0 0.0

-3.3452127020423855e6 1.075238721530892e7 0.0
1.075238721530892e7 -599793.2674195399 0.0
0.0 0.0 0.0

-744611.683911827 8.211775341792594e6 0.0
8.211775341792594e6 -1.8191536557614512e6 0.0
0.0 0.0 0.0

-1.2010945112452137e6 1.0627804506129615e7 0.0
1.0627804506129615e7 -4.958696742618556e6 0.0
0.0 0.0 0.0

-555038.8903795741 1.335429906657796e7 0.0
1.335429906657796e7 -1.82212513886192e7 0.0
0.0 0.0 0.0

-4.8572037233432075e6 1.5626277948116867e7 0.0
1.5626277948116867e7 5.25759166541606e6 0.0
0.0 0.0 0.0

167764.8215482412 1.505936037397029e7 0.0
1.505936037397029e7 -1.0485915843544131e7 0.0
0.0 0.0 0.0

-5.521408092593536e6 1.387374960106603e7 0.0
1.387374960106603e7 3.779957172256621e7 0.0
0.0 0.0 0.0

-42238.877187044825 1.685754804655343e7 0.0
1.685754804655343e7 8.339293393853222e6 0.0
0.0 0.0 0.0

-9.93876470638109e6 8.774749509378294e6 0.0
8.774749509378294e6 1.172356934816314e7 0.0
0.0 0.0 0.0

2.808393893787627e6 1.0381481813043667e7 0.0
1.0381481813043667e7 -1.6281862417266838e7 0.0
0.0 0.0 0.0

-1.513916032588091e6 1.231044524006959e7 0.0
1.231044524006959e7 -2.8749584863778437e6 0.0
0.0 0.0 0.0

-876144.4533153339 1.681828452741269e7 0.0
1.681828452741269e7 -7.939638140202806e6 0.0
0.0 0.0 0.0

-4.207193976562444e6 1.9225557413891472e7 0.0
1.9225557413891472e7 4.100633750527583e6 0.0
0.0 0.0 0.0

-3.004993342228712e6 1.786395092552386e7 0.0
1.786395092552386e7 -2.602754467724927e6 0.0
0.0 0.0 0.0

147168.7472285349 1.474517754354574e7 0.0
1.474517754354574e7 -1.1899077498801392e7 0.0
0.0 0.0 0.0

-1.1694103249044837e6 1.1531974492722748e7 0.0
1.1531974492722748e7 -3.2224223026207695e6 0.0
0.0 0.0 0.0

-5.504763301209576e6 1.598524664195927e7 0.0
1.598524664195927e7 4.66218730863349e6 0.0
0.0 0.0 0.0

-1.0264160435282987e7 3.6245445386352185e6 0.0
3.6245445386352185e6 1.1265764758511823e7 0.0
0.0 0.0 0.0

2.903516794857132e6 5.6338179093516385e6 0.0
5.6338179093516385e6 -1.1152446850602236e7 0.0
0.0 0.0 0.0

-1.1570239309732495e6 1.3040664677247489e7 0.0
1.3040664677247489e7 -4.1051766017276733e6 0.0
0.0 0.0 0.0

3.2318791615283694e6 8.271888163937294e6 0.0
8.271888163937294e6 -1.2667794956449391e7 0.0
0.0 0.0 0.0

-3.7429767267690115e6 1.5453611284374155e7 0.0
1.5453611284374155e7 1.777016683791936e6 0.0
0.0 0.0 0.0

-102463.32327100623 7.8803038617943395e6 0.0
7.8803038617943395e6 -2.7754852337091924e6 0.0
0.0 0.0 0.0

-2.84612747081057e6 2.040235949596374e7 0.0
2.040235949596374e7 -1.2342884128920857e6 0.0
0.0 0.0 0.0

-4.2797141232105985e7 1.6814669168421673e6 0.0
1.6814669168421673e6 9.0052685969284e6 0.0
0.0 0.0 0.0

403664.4590721952 7.482758395654931e6 0.0
7.482758395654931e6 -3.6076717649061633e6 0.0
0.0 0.0 0.0

-592412.5804975182 1.2926780838134728e7 0.0
1.2926780838134728e7 -2.143800852401222e7 0.0
0.0 0.0 0.0

67127.77982218936 1.5945292582640454e7 0.0
1.5945292582640454e7 -7.972245125158739e6 0.0
0.0 0.0 0.0

1.0579430796984998e6 1.1005109291512366e7 0.0
1.1005109291512366e7 -8.427731086677985e6 0.0
0.0 0.0 0.0

828335.9994895877 1.3937931422206514e7 0.0
1.3937931422206514e7 -1.3007133646807402e7 0.0
0.0 0.0 0.0

893913.5725306387 7.121423094957196e6 0.0
7.121423094957196e6 -4.388377150686379e6 0.0
0.0 0.0 0.0

3.8489430495427726e6 7.246967994859497e6 0.0
7.246967994859497e6 -1.4129277545576958e7 0.0
0.0 0.0 0.0

-3.6363890264499565e6 1.902047883790836e7 0.0
1.902047883790836e7 -185198.44920970115 0.0
0.0 0.0 0.0

884833.5143814068 5.61074104643206e6 0.0
5.61074104643206e6 -5.330607691331503e6 0.0
0.0 0.0 0.0

1.3636449782446334e6 8.899505070399744e6 0.0
8.899505070399744e6 -9.720785188320208e6 0.0
0.0 0.0 0.0

-2.7572782509051464e6 2.120733295702318e7 0.0
2.120733295702318e7 -405927.14475438686 0.0
0.0 0.0 0.0

1.8762139239792307e6 1.4948602624862274e7 0.0
1.4948602624862274e7 -1.0614108632161052e6 0.0
0.0 0.0 0.0

-1.0910995621100836e6 1.7889088071344353e7 0.0
1.7889088071344353e7 -5.924766488958361e6 0.0
0.0 0.0 0.0

4.0115193381411154e6 7.4404876855760515e6 0.0
7.4404876855760515e6 -3.403778352601782e7 0.0
0.0 0.0 0.0

-1.1710021652024375e7 1.300822328762742e7 0.0
1.300822328762742e7 1.891724516760485e7 0.0
0.0 0.0 0.0

-3.496769620945691e6 1.8558637703560747e7 0.0
1.8558637703560747e7 1.2478994579388557e6 0.0
0.0 0.0 0.0

3.004895014368965e6 7.984228453809698e6 0.0
7.984228453809698e6 -1.1043059943099378e7 0.0
0.0 0.0 0.0

1.279875351815021e6 6.671448873735884e6 0.0
6.671448873735884e6 -5.159869301797767e6 0.0
0.0 0.0 0.0

679604.9413088565 8.001606670017976e6 0.0
8.001606670017976e6 -7.508122033850279e6 0.0
0.0 0.0 0.0

-4.172716675880451e6 2.143897272266813e7 0.0
2.143897272266813e7 4.759004949629348e6 0.0
0.0 0.0 0.0

-7.952589801853582e6 -106690.95130630412 0.0
-106690.95130630412 1.1839665627869412e7 0.0
0.0 0.0 0.0

-1.2673606784911983e7 1.0543754449673684e7 0.0
1.0543754449673684e7 1.7311704914587915e7 0.0
0.0 0.0 0.0

-2.6711524267021855e6 1.808125185596175e7 0.0
1.808125185596175e7 -1.5757804953371366e6 0.0
0.0 0.0 0.0

1.1776995782989408e6 1.218711329214934e7 0.0
1.218711329214934e7 -1.0459687925144028e7 0.0
0.0 0.0 0.0

-5.402273564236199e6 1.622175735792226e7 0.0
1.622175735792226e7 1.2875605810637368e7 0.0
0.0 0.0 0.0

-2.442827721109843e6 1.2588295501868676e7 0.0
1.2588295501868676e7 -3.291442195017104e6 0.0
0.0 0.0 0.0

460004.8052725857 1.273070209047049e7 0.0
1.273070209047049e7 -8.370582463684677e6 0.0
0.0 0.0 0.0

693176.4209423885 1.2445963192940295e7 0.0
1.2445963192940295e7 -1.908992608530359e7 0.0
0.0 0.0 0.0

-1.0949733179765698e6 1.8741084635753937e7 0.0
1.8741084635753937e7 -4.885574858714924e6 0.0
0.0 0.0 0.0

1.0457094821262229e6 1.1347917390296016e7 0.0
1.1347917390296016e7 -2.5571162146057744e7 0.0
0.0 0.0 0.0

-9.442909446075961e6 3.2106605883772867e6 0.0
3.2106605883772867e6 1.0479049936801586e7 0.0
0.0 0.0 0.0

2.0404237667948026e6 1.7695467104636755e7 0.0
1.7695467104636755e7 1.582911453140035e7 0.0
0.0 0.0 0.0

-4.6652767594372295e6 2.0808799206587292e7 0.0
2.0808799206587292e7 4.923276955881905e6 0.0
0.0 0.0 0.0

-2.238339656800151e6 1.2955247197455905e7 0.0
1.2955247197455905e7 -3.897554316172068e6 0.0
0.0 0.0 0.0

752902.2396420813 1.6601222073914815e7 0.0
1.6601222073914815e7 -5.695750232073771e6 0.0
0.0 0.0 0.0

-2.355047267100444e6 1.772135107133552e7 0.0
1.772135107133552e7 -2.400455641706026e6 0.0
0.0 0.0 0.0

-3.002473948245522e6 6.69157096122232e6 0.0
6.69157096122232e6 394781.4226238959 0.0
0.0 0.0 0.0

115809.29191614967 1.5035413140638702e7 0.0
1.5035413140638702e7 -1.1125802790227894e7 0.0
0.0 0.0 0.0

2.0531726381690614e6 1.1656959426545935e7 0.0
1.1656959426545935e7 -1.397423165320788e7 0.0
0.0 0.0 0.0

1.747941385834325e6 1.2055111551782299e7 0.0
1.2055111551782299e7 -1.3142324949620912e7 0.0
0.0 0.0 0.0

-587886.4220792823 1.2120915310173687e7 0.0
1.2120915310173687e7 -7.181885578870224e6 0.0
0.0 0.0 0.0

5.943800929347726e6 1.904845472701333e7 0.0
1.904845472701333e7 -6.238005215830059e6 0.0
0.0 0.0 0.0

1.82877036324073e6 9.42609125830928e6 0.0
9.42609125830928e6 -8.896941469321873e6 0.0
0.0 0.0 0.0

2.864861409254797e6 5.268329792337182e6 0.0
5.268329792337182e6 -1.0744433344762502e7 0.0
0.0 0.0 0.0

2.3180056757234307e6 1.1216967061756985e7 0.0
1.1216967061756985e7 -1.4724053217663396e7 0.0
0.0 0.0 0.0

4.136881974486299e6 6.32765651543995e6 0.0
6.32765651543995e6 -2.6614569537345383e7 0.0
0.0 0.0 0.0

-4.168120297172085e6 6.066409871379909e6 0.0
6.066409871379909e6 2.2051592275784393e6 0.0
0.0 0.0 0.0

-4.711917325076152e6 1.6938226401619535e7 0.0
1.6938226401619535e7 2.2887346346502258e6 0.0
0.0 0.0 0.0

4.549143123689964e6 5.228015239310497e6 0.0
5.228015239310497e6 -1.6475300824118318e7 0.0
0.0 0.0 0.0

2.12423540868301e6 6.158134525263089e6 0.0
6.158134525263089e6 -9.383560057050014e6 0.0
0.0 0.0 0.0

-204501.6107724784 1.2252972598566176e7 0.0
1.2252972598566176e7 -5.916183305775934e6 0.0
0.0 0.0 0.0

-1.1175203713561954e7 1.0478633982806686e7 0.0
1.0478633982806686e7 2.5001129885770526e7 0.0
0.0 0.0 0.0

-6.051688672746451e6 1.70154783642262e7 0.0
1.70154783642262e7 1.0176884557118794e7 0.0
0.0 0.0 0.0

-2.874263845073154e6 7.511776477484982e6 0.0
7.511776477484982e6 -142194.6144904677 0.0
0.0 0.0 0.0

-8.943627829746079e6 1.5016965345811475e7 0.0
1.5016965345811475e7 1.4234314406843517e7 0.0
0.0 0.0 0.0

4.029468504147498e6 6.152806646735839e6 0.0
6.152806646735839e6 -1.2713695087106679e7 0.0
0.0 0.0 0.0

2.5086927793836305e6 1.0805743811462492e7 0.0
1.0805743811462492e7 -1.5612465394631006e7 0.0
0.0 0.0 0.0

-9.428219775069062e6 3.948902001951682e7 0.0
3.948902001951682e7 2.9812049701815853e6 0.0
0.0 0.0 0.0

-4.667005565484276e6 9.844708871948358e6 0.0
9.844708871948358e6 2.133045457390801e6 0.0
0.0 0.0 0.0

-8.334794441412132e6 2.6427979847867712e6 0.0
2.6427979847867712e6 9.121077427589733e6 0.0
0.0 0.0 0.0

-175539.02171628363 1.4578613967647022e7 0.0
1.4578613967647022e7 -1.123952405325405e7 0.0
0.0 0.0 0.0

1.4917564888915746e6 1.2470060119875226e7 0.0
1.2470060119875226e7 -1.2415108756882254e7 0.0
0.0 0.0 0.0

-790422.2235773164 421160.2253590039 0.0
421160.2253590039 3.1059141604237854e6 0.0
0.0 0.0 0.0

-598562.346147815 70987.55347484467 0.0
70987.55347484467 4.343925682477418e6 0.0
0.0 0.0 0.0

-4.71257272205018e6 2.1609130189919364e7 0.0
2.1609130189919364e7 4.502112944205825e6 0.0
0.0 0.0 0.0

-5.73434307977898e6 1.4351939162941912e7 0.0
1.4351939162941912e7 4.483049984836897e6 0.0
0.0 0.0 0.0

-4.1625354115657187e6 2.131343825689268e7 0.0
2.131343825689268e7 3.13387127632191e6 0.0
0.0 0.0 0.0

3.464020434716517e6 8.17093435277856e6 0.0
8.17093435277856e6 -1.3844908360329699e7 0.0
0.0 0.0 0.0

-5.223674273796049e6 1.6349135725022871e7 0.0
1.6349135725022871e7 3.823355035817081e6 0.0
0.0 0.0 0.0

-1.0968902351099035e7 389538.35413605504 0.0
389538.35413605504 2.0005154764364883e7 0.0
0.0 0.0 0.0

-5.11518669885597e7 2.89694022648704e6 0.0
2.89694022648704e6 8.499196192348164e6 0.0
0.0 0.0 0.0

-4.686943799596432e6 1.760936115415522e7 0.0
1.760936115415522e7 2.5089520653191106e6 0.0
0.0 0.0 0.0

-7.969074522835844e6 1.5459033288704043e7 0.0
1.5459033288704043e7 1.3178451360330187e7 0.0
0.0 0.0 0.0

-2.1539315275707603e6 1.8845165651794605e7 0.0
1.8845165651794605e7 -4.160458680207417e6 0.0
0.0 0.0 0.0

2.202744700737611e6 5.771656899911504e6 0.0
5.771656899911504e6 -8.741793128171647e6 0.0
0.0 0.0 0.0

-5.601549411594426e6 1.1321867418727024e7 0.0
1.1321867418727024e7 3.875928932513945e6 0.0
0.0 0.0 0.0

-6.288412964866376e6 1.892121643357172e7 0.0
1.892121643357172e7 -3.9242143964807913e6 0.0
0.0 0.0 0.0

-2.668130292710104e6 1.7852056492211975e7 0.0
1.7852056492211975e7 -4.638560226813069e6 0.0
0.0 0.0 0.0

3.4310926546822386e6 6.690160115465925e6 0.0
6.690160115465925e6 -1.0762229748692978e7 0.0
0.0 0.0 0.0

-7.256322871834636e6 1.5959540148661727e7 0.0
1.5959540148661727e7 1.2168220952662708e7 0.0
0.0 0.0 0.0

-574562.4406476361 1.4110912316301567e7 0.0
1.4110912316301567e7 -6.3923980307113e6 0.0
0.0 0.0 0.0

4.478856350320922e6 5.122182670646904e6 0.0
5.122182670646904e6 -2.8723221221375514e7 0.0
0.0 0.0 0.0

-1.1162000092669267e7 -1.568026649802559e6 0.0
-1.568026649802559e6 2.954348871079741e7 0.0
0.0 0.0 0.0

2.6414538819755963e6 8.474664365043515e6 0.0
8.474664365043515e6 -1.0327398605221244e7 0.0
0.0 0.0 0.0

4.501116446270828e6 6.694642889386688e6 0.0
6.694642889386688e6 -1.9292786743237182e7 0.0
0.0 0.0 0.0

311540.19092242606 1.428367098325883e7 0.0
1.428367098325883e7 -6.616211382486869e6 0.0
0.0 0.0 0.0

2.448537352157714e6 9.854788578578284e6 0.0
9.854788578578284e6 -2.481778527023795e7 0.0
0.0 0.0 0.0

-2.194506068409818e6 2.2452507146290235e7 0.0
2.2452507146290235e7 -673050.8586453664 0.0
0.0 0.0 0.0

-8.514214610468797e6 1.4100966996505635e7 0.0
1.4100966996505635e7 2.2558682934736937e7 0.0
0.0 0.0 0.0

-1.1301525331058279e7 -2.017445526729082e6 0.0
-2.017445526729082e6 2.6903219214455888e7 0.0
0.0 0.0 0.0

-840525.6889017699 1.4726737269907612e7 0.0
1.4726737269907612e7 -6.073076301398419e6 0.0
0.0 0.0 0.0

3.947736533207779e6 7.2014641605919385e6 0.0
7.2014641605919385e6 -2.3053647722768873e7 0.0
0.0 0.0 0.0

-2.977811050920276e6 1.4618228607411075e7 0.0
1.4618228607411075e7 -258811.28637063864 0.0
0.0 0.0 0.0

-4.7365832271627905e6 1.6266576244457688e7 0.0
1.6266576244457688e7 2.101020916838132e6 0.0
0.0 0.0 0.0

-1.0555201814325806e7 2.622256295498113e6 0.0
2.622256295498113e6 1.5445173626735229e7 0.0
0.0 0.0 0.0

-847323.1841678056 1.900542942403495e7 0.0
1.900542942403495e7 -4.748272217799859e6 0.0
0.0 0.0 0.0

799404.411135661 1.4468363116304772e7 0.0
1.4468363116304772e7 -4.291493977939222e6 0.0
0.0 0.0 0.0

-2.860339914773727e6 1.8486250494278345e7 0.0
1.8486250494278345e7 -753101.7041858957 0.0
0.0 0.0 0.0

5.16991790560518e6 3.7836598699248857e6 0.0
3.7836598699248857e6 -2.713632581666062e7 0.0
0.0 0.0 0.0

-4.957636862186163e6 1.6670955145910693e7 0.0
1.6670955145910693e7 2.9988923583668536e6 0.0
0.0 0.0 0.0

1.0907834041268053e6 1.1307010663386637e7 0.0
1.1307010663386637e7 -8.944632074051818e6 0.0
0.0 0.0 0.0

-2.502809079905807e6 8.888858970828123e6 0.0
8.888858970828123e6 -1.3530259631426951e6 0.0
0.0 0.0 0.0

-661297.960649977 1.1156158399578722e7 0.0
1.1156158399578722e7 -4.158722602820838e6 0.0
0.0 0.0 0.0

-3.4247122266403614e6 4.854193787065104e6 0.0
4.854193787065104e6 1.5883577020922746e6 0.0
0.0 0.0 0.0

899715.6281427597 1.3962694504119245e7 0.0
1.3962694504119245e7 -4.941964085763699e6 0.0
0.0 0.0 0.0

-1.197173739430443e7 4.417990603169354e6 0.0
4.417990603169354e6 2.2854483772467453e7 0.0
0.0 0.0 0.0

399968.46838236274 1.2466438135090947e7 0.0
1.2466438135090947e7 -7.858329522673374e6 0.0
0.0 0.0 0.0

-1.570536118395302e6 5.472503180691246e6 0.0
5.472503180691246e6 -1.160041282290234e6 0.0
0.0 0.0 0.0

-4.899202619740399e6 2.2043645543591574e7 0.0
2.2043645543591574e7 4.660234365468934e6 0.0
0.0 0.0 0.0

-1.7991066960114648e6 1.7612879192822494e7 0.0
1.7612879192822494e7 -4.040109714772836e6 0.0
0.0 0.0 0.0

1.3782890305394856e6 1.297469000956057e7 0.0
1.297469000956057e7 -1.4586985180211952e7 0.0
0.0 0.0 0.0

2.2425953504342814e6 8.94816605773401e6 0.0
8.94816605773401e6 -9.632529978028605e6 0.0
0.0 0.0 0.0

-4.0594467286928333e6 1.7943956014343373e7 0.0
1.7943956014343373e7 3.0177628056914657e6 0.0
0.0 0.0 0.0

-9.066837343793467e6 1.5136692555952886e7 0.0
1.5136692555952886e7 1.5240514966518454e7 0.0
0.0 0.0 0.0

-839851.7446333347 1.6187864670836655e7 0.0
1.6187864670836655e7 1.0527633057138236e7 0.0
0.0 0.0 0.0

3.690299374074787e6 7.374128900486301e6 0.0
7.374128900486301e6 -2.458466216156375e7 0.0
0.0 0.0 0.0

-4.799096983808552e6 1.635729646253584e7 0.0
1.635729646253584e7 5.238912589337619e6 0.0
0.0 0.0 0.0

-4.316794230874451e6 1.7052419808470342e7 0.0
1.7052419808470342e7 3.5784130986926425e6 0.0
0.0 0.0 0.0

-9.553833155901918e6 6.840300096447903e6 0.0
6.840300096447903e6 1.0541378393919636e7 0.0
0.0 0.0 0.0

-1.971835140344243e6 2.2880514682845514e7 0.0
2.2880514682845514e7 -739128.0181175186 0.0
0.0 0.0 0.0

576948.1850598534 1.1112996516797053e7 0.0
1.1112996516797053e7 -7.050827256679748e6 0.0
0.0 0.0 0.0

-9.850782489974212e6 1.244478554055649e7 0.0
1.244478554055649e7 1.3027177171068702e7 0.0
0.0 0.0 0.0

2.238663291546766e6 8.542182447200248e6 0.0
8.542182447200248e6 -9.151990269209757e6 0.0
0.0 0.0 0.0

-1.691389975571026e6 7.163548928035572e6 0.0
7.163548928035572e6 375320.16680812335 0.0
0.0 0.0 0.0

-3.858122607465674e6 1.814751416688309e7 0.0
1.814751416688309e7 2.3496953491050852e6 0.0
0.0 0.0 0.0

-3.8710635413774597e6 1.8729282598929346e7 0.0
1.8729282598929346e7 2.5060167020730656e6 0.0
0.0 0.0 0.0

335698.8242665287 1.2178924161356391e7 0.0
1.2178924161356391e7 -7.322289046320761e6 0.0
0.0 0.0 0.0

1.137130608418889e6 1.5192675175001588e7 0.0
1.5192675175001588e7 -5.250400873968384e6 0.0
0.0 0.0 0.0

4.223850620821087e6 1.9898457683895487e7 0.0
1.9898457683895487e7 -5.788091832051397e6 0.0
0.0 0.0 0.0

-4.594101714512733e6 1.754386337182851e7 0.0
1.754386337182851e7 5.691369329530544e6 0.0
0.0 0.0 0.0

-4.229688361041124e6 1.3733288467714276e7 0.0
1.3733288467714276e7 -2.232576902260679e7 0.0
0.0 0.0 0.0

1.3317877441360601e6 9.494835804971155e6 0.0
9.494835804971155e6 -7.583324775600847e6 0.0
0.0 0.0 0.0

-1.0656711859378893e7 807421.1081107595 0.0
807421.1081107595 1.830293095790366e7 0.0
0.0 0.0 0.0

-1.0696397070951676e6 1.6333271305752154e7 0.0
1.6333271305752154e7 -1.264049747270167e6 0.0
0.0 0.0 0.0

-3.0537580878972244e6 1.673186120304337e7 0.0
1.673186120304337e7 -741637.6160123431 0.0
0.0 0.0 0.0

-4.552066280700404e6 1.6692120300195394e7 0.0
1.6692120300195394e7 4.348776432461223e6 0.0
0.0 0.0 0.0

-1.0490375957613792e7 -1.2120100358249033e6 0.0
-1.2120100358249033e6 2.052696606346671e7 0.0
0.0 0.0 0.0

-5.260950121075731e6 2.2478096005643193e7 0.0
2.2478096005643193e7 4.873540145757537e6 0.0
0.0 0.0 0.0

-4.422829357264401e6 1.783899684187626e7 0.0
1.783899684187626e7 1.8246604020413246e6 0.0
0.0 0.0 0.0

1.2349746390427775e6 1.3898375624768311e7 0.0
1.3898375624768311e7 -707839.8062853962 0.0
0.0 0.0 0.0

1.4106770468046013e6 1.345454951443404e7 0.0
1.345454951443404e7 4.702257066630385e6 0.0
0.0 0.0 0.0

-5.062854064754065e6 1.5950235712679494e7 0.0
1.5950235712679494e7 6.148952252473585e6 0.0
0.0 0.0 0.0

-7.244128290958453e6 1.4270692291129459e7 0.0
1.4270692291129459e7 9.220472342422742e6 0.0
0.0 0.0 0.0

3.354310008836875e6 6.236434507130071e6 0.0
6.236434507130071e6 -1.0285713375797473e7 0.0
0.0 0.0 0.0

-2.6880249230460715e6 1.863896058814269e7 0.0
1.863896058814269e7 -1.2943532929834179e6 0.0
0.0 0.0 0.0

-9.404082933480943e6 1.0422107145659914e7 0.0
1.0422107145659914e7 1.4588532950135928e7 0.0
0.0 0.0 0.0

4.1489921856675e6 5.030613107295587e6 0.0
5.030613107295587e6 -1.5335017750233795e7 0.0
0.0 0.0 0.0

-2.915113308916439e6 1.7335210759208396e7 0.0
1.7335210759208396e7 -2.997789117144801e6 0.0
0.0 0.0 0.0

-4.308334650929397e6 1.6350647478114571e7 0.0
1.6350647478114571e7 3.5221329959148318e6 0.0
0.0 0.0 0.0

-927215.465702931 5.158984591595252e6 0.0
5.158984591595252e6 -2.0465990814664483e6 0.0
0.0 0.0 0.0

1.8920208432180625e6 9.528439481884878e6 0.0
9.528439481884878e6 -1.180800932921397e7 0.0
0.0 0.0 0.0

-6.183239238434273e6 3.502074416969507e7 0.0
3.502074416969507e7 2.104300945811161e6 0.0
0.0 0.0 0.0

3.7744668260137793e6 7.028874751853369e6 0.0
7.028874751853369e6 -4.0092966543337785e7 0.0
0.0 0.0 0.0

4.247757299368892e6 5.726403322682245e6 0.0
5.726403322682245e6 -1.7467574885560058e7 0.0
0.0 0.0 0.0

2.384052487691545e6 1.0530531574100956e7 0.0
1.0530531574100956e7 -1.3006754098123562e7 0.0
0.0 0.0 0.0

-3.662178654849224e6 1.7125058535048246e7 0.0
1.7125058535048246e7 3.876678887753632e6 0.0
0.0 0.0 0.0

1.4740797467942396e6 1.2055409387245055e7 0.0
1.2055409387245055e7 -1.738746060888359e7 0.0
0.0 0.0 0.0

1.2634771760816844e6 9.068180806038573e6 0.0
9.068180806038573e6 -7.10724198010851e6 0.0
0.0 0.0 0.0

-1.8445411723026922e6 8.575385363075033e6 0.0
8.575385363075033e6 -2.377872073213533e6 0.0
0.0 0.0 0.0

730467.1442415635 1.5266409376439555e7 0.0
1.5266409376439555e7 9.153305581568468e6 0.0
0.0 0.0 0.0

-8.640342138466174e6 1.4350951492117247e7 0.0
1.4350951492117247e7 2.1102459533920124e7 0.0
0.0 0.0 0.0

4.733266098306327e6 1.2313909120696167e7 0.0
1.2313909120696167e7 6.228706206044679e6 0.0
0.0 0.0 0.0

-5.01779717968138e6 2.411901427585193e7 0.0
2.411901427585193e7 3.8123923389076293e6 0.0
0.0 0.0 0.0

-1.0687273723451786e6 1.2510313691613816e7 0.0
1.2510313691613816e7 -6.308480159501072e6 0.0
0.0 0.0 0.0

-1.9788472703846686e7 1.84579840154208e7 0.0
1.84579840154208e7 2.4081361096142475e6 0.0
0.0 0.0 0.0

-284950.20185983786 1.3512326692330217e7 0.0
1.3512326692330217e7 -6.715871091278323e6 0.0
0.0 0.0 0.0

-4.1634452015768196e6 1.6677317731739687e7 0.0
1.6677317731739687e7 2.7238715735510695e6 0.0
0.0 0.0 0.0

-9371.155695568305 1.1148956349924153e7 0.0
1.1148956349924153e7 -5.607779419349844e6 0.0
0.0 0.0 0.0

310728.3923356356 1.2941783659575786e7 0.0
1.2941783659575786e7 -1.7616454980249275e7 0.0
0.0 0.0 0.0

3.9267532349605747e6 5.537481153992086e6 0.0
5.537481153992086e6 -1.4690110189478422e7 0.0
0.0 0.0 0.0

3.283182407262495e6 9.195881859441876e6 0.0
9.195881859441876e6 -2.2511160625548672e7 0.0
0.0 0.0 0.0

-3.18701124660175e6 1.6147230897323705e7 0.0
1.6147230897323705e7 1.0688358897091655e7 0.0
0.0 0.0 0.0

4.123593641481152e6 6.985873771209116e6 0.0
6.985873771209116e6 -1.6353999486568145e7 0.0
0.0 0.0 0.0

-2.6977770479586716e6 1.7454481055343475e7 0.0
1.7454481055343475e7 -3.448486120040654e6 0.0
0.0 0.0 0.0

-1.0689164414145069e6 1.5333520438611062e7 0.0
1.5333520438611062e7 -8.081650421380038e6 0.0
0.0 0.0 0.0

-1.7466666879747869e6 1.1006257891467799e7 0.0
1.1006257891467799e7 -4.0257434608003935e6 0.0
0.0 0.0 0.0

-4.283548919825764e6 1.205611891405132e7 0.0
1.205611891405132e7 898723.3294055169 0.0
0.0 0.0 0.0

-9.912669548862305e6 1.2923496122539705e7 0.0
1.2923496122539705e7 1.3686589372104377e7 0.0
0.0 0.0 0.0

2.933116091589855e6 8.734170277422862e6 0.0
8.734170277422862e6 -1.1969424813597104e7 0.0
0.0 0.0 0.0

-6.201658606781442e6 2.5525988258595284e7 0.0
2.5525988258595284e7 4.002523513156889e6 0.0
0.0 0.0 0.0

-5.80482137236108e6 2.281602844447723e7 0.0
2.281602844447723e7 5.217819290498019e6 0.0
0.0 0.0 0.0

-1.018457193089048e7 1.3817372149552995e7 0.0
1.3817372149552995e7 1.4653429420248926e7 0.0
0.0 0.0 0.0

-1.245890661349786e6 1.139533068561545e7 0.0
1.139533068561545e7 -4.1529688096836205e6 0.0
0.0 0.0 0.0

1.2091549899453744e6 1.2866763730829911e7 0.0
1.2866763730829911e7 -1.1598738691117067e7 0.0
0.0 0.0 0.0

4.073024348927249e6 6.847633274046446e6 0.0
6.847633274046446e6 -1.4912448283522232e7 0.0
0.0 0.0 0.0

-4.744041586418882e6 1.8515752984688554e7 0.0
1.8515752984688554e7 8.104925559307216e6 0.0
0.0 0.0 0.0

-1.2050550878225766e7 5.06977941565045e6 0.0
5.06977941565045e6 1.4492642866786018e7 0.0
0.0 0.0 0.0

-509154.71287252195 2.0430587612508897e7 0.0
2.0430587612508897e7 -3.3772859539591763e6 0.0
0.0 0.0 0.0

-1.0544431558738045e7 -13457.877240759572 0.0
-13457.877240759572 3.7565874975506835e7 0.0
0.0 0.0 0.0

-1.956260859024873e6 1.5350988247070093e7 0.0
1.5350988247070093e7 -5.476940923475452e6 0.0
0.0 0.0 0.0

-8.348891077753331e6 -6.060148779723557e6 0.0
-6.060148779723557e6 1.627378284896674e7 0.0
0.0 0.0 0.0

-3.877150905296321e6 3.6136678412764715e6 0.0
3.6136678412764715e6 5.48776188946872e6 0.0
0.0 0.0 0.0

3.2714046125828633e6 5.729818882821451e6 0.0
5.729818882821451e6 -9.97423564842288e6 0.0
0.0 0.0 0.0

-1.2020755076446267e7 1.0356801316506831e7 0.0
1.0356801316506831e7 2.220333207516548e7 0.0
0.0 0.0 0.0

3.3259374143371675e6 9.488422198277477e6 0.0
9.488422198277477e6 -1.9090858566582628e7 0.0
0.0 0.0 0.0

-2.553088299488738e6 1.7555610255898993e7 0.0
1.7555610255898993e7 -1.8431065251536188e6 0.0
0.0 0.0 0.0

-4.316082820898078e6 1.7672497798029687e7 0.0
1.7672497798029687e7 3.7322793044609176e6 0.0
0.0 0.0 0.0

-1.8239729988531922e6 1.3075880533273777e7 0.0
1.3075880533273777e7 -2.540770019660824e6 0.0
0.0 0.0 0.0

-4.6260642459308915e6 1.8059092260569e7 0.0
1.8059092260569e7 5.4131153312097415e6 0.0
0.0 0.0 0.0

1.4646606008375483e6 5.704011838230254e6 0.0
5.704011838230254e6 -6.696611404910341e6 0.0
0.0 0.0 0.0

-2.9266622599283042e6 1.5067993054314679e7 0.0
1.5067993054314679e7 -2.8648520016024075e6 0.0
0.0 0.0 0.0

2.8358936198341562e6 2.0429504821923405e7 0.0
2.0429504821923405e7 -5.048286756447978e6 0.0
0.0 0.0 0.0

1.098453808132404e6 8.508016906234045e6 0.0
8.508016906234045e6 -6.76988886483097e6 0.0
0.0 0.0 0.0

-89792.97735843621 1.2570851436799346e7 0.0
1.2570851436799346e7 -6.484726677380136e6 0.0
0.0 0.0 0.0

-2.2230942302691396e6 1.7371282645831153e7 0.0
1.7371282645831153e7 -3.686805121423943e6 0.0
0.0 0.0 0.0

-2.0160307933414087e6 1.269829005829358e7 0.0
1.269829005829358e7 -1.8943059121176908e6 0.0
0.0 0.0 0.0

5.119181872609093e6 1.6929203145223126e7 0.0
1.6929203145223126e7 -4.467241695340008e6 0.0
0.0 0.0 0.0

-321641.41539668024 4.746166553247206e6 0.0
4.746166553247206e6 -2.9601991455846047e6 0.0
0.0 0.0 0.0

4.559569846992337e6 5.189607941897206e6 0.0
5.189607941897206e6 -2.055300398406954e7 0.0
0.0 0.0 0.0

-483744.3897951135 4.228343051723064e6 0.0
4.228343051723064e6 90625.43399831775 0.0
0.0 0.0 0.0

-1.1897990593259349e6 8.236873848152366e6 0.0
8.236873848152366e6 -3.3139572050253786e6 0.0
0.0 0.0 0.0

-2.025711190166499e6 1.329780443523229e7 0.0
1.329780443523229e7 -4.491992356975766e6 0.0
0.0 0.0 0.0

-3.8848046265774444e6 4.624385506734255e6 0.0
4.624385506734255e6 4.932201187440699e6 0.0
0.0 0.0 0.0

2.554039260481444e6 6.284846528383412e6 0.0
6.284846528383412e6 -7.99381929940376e6 0.0
0.0 0.0 0.0

99568.05108820135 1.5391116500743397e7 0.0
1.5391116500743397e7 -1.0335818967966042e7 0.0
0.0 0.0 0.0

-552823.2019904302 7.901167748043082e6 0.0
7.901167748043082e6 -4.282760827315035e6 0.0
0.0 0.0 0.0

-5.563538851711809e6 3.2037488992453285e7 0.0
3.2037488992453285e7 1.762394400154296e6 0.0
0.0 0.0 0.0

4.291054796764913e6 1.6641941851607386e7 0.0
1.6641941851607386e7 6.797504023307206e6 0.0
0.0 0.0 0.0

-10754.589431002038 7.499885265445772e6 0.0
7.499885265445772e6 -4.993122470032448e6 0.0
0.0 0.0 0.0

-6.103882985133862e6 1.0927054407958826e7 0.0
1.0927054407958826e7 8.291106798137247e6 0.0
0.0 0.0 0.0

2.0878858891619314e6 4.705317994769285e6 0.0
4.705317994769285e6 -6.416251799168215e6 0.0
0.0 0.0 0.0

-1.2054667616678506e7 4.655896424518259e6 0.0
4.655896424518259e6 2.134264135437061e7 0.0
0.0 0.0 0.0

472137.8106805135 7.0546156814808855e6 0.0
7.0546156814808855e6 -5.776383554467686e6 0.0
0.0 0.0 0.0

-7.398525624783985e6 2.5794996503881205e7 0.0
2.5794996503881205e7 5.845899589257339e6 0.0
0.0 0.0 0.0

54172.755227669375 2.060216696930441e7 0.0
2.060216696930441e7 -3.5553755532951024e6 0.0
0.0 0.0 0.0

4.345249700824985e6 6.334055495406948e6 0.0
6.334055495406948e6 -1.5545701217795711e7 0.0
0.0 0.0 0.0

-1.3241309417185022e6 1.5701403098862825e7 0.0
1.5701403098862825e7 -7.187743632015786e6 0.0
0.0 0.0 0.0

3.940784594560967e6 6.988111893394096e6 0.0
6.988111893394096e6 -2.1102372658730265e7 0.0
0.0 0.0 0.0

-2.5059364693901357e6 1.368465854830715e7 0.0
1.368465854830715e7 -3.557045357376647e6 0.0
0.0 0.0 0.0

-964508.6853753477 1.5218485036574295e7 0.0
1.5218485036574295e7 8.3026673226401275e6 0.0
0.0 0.0 0.0

1.7030504428002783e6 2.0660662147223603e7 0.0
2.0660662147223603e7 -4.383513865749729e6 0.0
0.0 0.0 0.0

1.1012127482762458e6 8.183818264769792e6 0.0
8.183818264769792e6 -6.172255887900342e6 0.0
0.0 0.0 0.0

2.6341581896580397e6 7.620660353424168e6 0.0
7.620660353424168e6 -9.394239598283386e6 0.0
0.0 0.0 0.0

-288442.6336643398 9.88513128775825e6 0.0
9.88513128775825e6 -3.922368615227458e6 0.0
0.0 0.0 0.0

-6.72714197125368e6 2.3125257117593482e7 0.0
2.3125257117593482e7 5.5096058166485885e6 0.0
0.0 0.0 0.0

-3.681895983123402e6 1.1662992620832775e7 0.0
1.1662992620832775e7 -247760.53577504342 0.0
0.0 0.0 0.0

517075.6658869431 2.353267445722483e7 0.0
2.353267445722483e7 -2.2294148903484656e6 0.0
0.0 0.0 0.0

-1.621855549373976e6 1.342548285890844e7 0.0
1.342548285890844e7 -3.1722482135408185e6 0.0
0.0 0.0 0.0

1.9899620778982898e6 1.5399700112457132e7 0.0
1.5399700112457132e7 1.1256042383568482e7 0.0
0.0 0.0 0.0

-1.9378612754519838e6 1.703207506108651e7 0.0
1.703207506108651e7 -2.539229848016804e6 0.0
0.0 0.0 0.0

-3.112738806155641e6 1.884606611500301e7 0.0
1.884606611500301e7 86566.30632673402 0.0
0.0 0.0 0.0

-146709.33396068309 1.4721903682409177e7 0.0
1.4721903682409177e7 -1.0295399671456153e7 0.0
0.0 0.0 0.0

1.0391616866241721e6 1.1369046460706314e7 0.0
1.1369046460706314e7 -2.419387515732781e7 0.0
0.0 0.0 0.0

-1.0515397266974486e7 1.3669227735898856e7 0.0
1.3669227735898856e7 2.033792853419996e7 0.0
0.0 0.0 0.0

997532.9528289405 9.770259952400574e6 0.0
9.770259952400574e6 -9.443402742819484e6 0.0
0.0 0.0 0.0

-1.2111906749308463e7 4.894489631930298e6 0.0
4.894489631930298e6 1.9674385707440324e7 0.0
0.0 0.0 0.0

2.8620261354859797e6 1.034732090659526e7 0.0
1.034732090659526e7 -1.742411606733015e7 0.0
0.0 0.0 0.0

-1.3307349892215119e6 1.0171522764948241e7 0.0
1.0171522764948241e7 -4.353102003036112e6 0.0
0.0 0.0 0.0

3.172716562792122e6 4.669370934968285e6 0.0
4.669370934968285e6 -1.0038234687729852e7 0.0
0.0 0.0 0.0

-4.062087486865875e6 1.4558466196676333e7 0.0
1.4558466196676333e7 21000.38922497304 0.0
0.0 0.0 0.0

-4.419777461390236e6 1.8387978384430278e7 0.0
1.8387978384430278e7 1.9689987718067414e6 0.0
0.0 0.0 0.0

-2.352240006971415e6 2.116873496279838e7 0.0
2.116873496279838e7 -1.439257077270143e6 0.0
0.0 0.0 0.0

-2.728251286571769e6 1.4383877588422194e7 0.0
1.4383877588422194e7 -3.2048508283145986e6 0.0
0.0 0.0 0.0

2.5518292346589225e6 5.80971079813501e6 0.0
5.80971079813501e6 -7.542944673273765e6 0.0
0.0 0.0 0.0

776650.5530753466 2.0692697248839233e7 0.0
2.0692697248839233e7 -3.9287228872168786e6 0.0
0.0 0.0 0.0

-1.1063186306440182e7 6.148739989372019e6 0.0
6.148739989372019e6 1.6035402327289928e7 0.0
0.0 0.0 0.0

3.9192504686811324e6 6.8967517865221165e6 0.0
6.8967517865221165e6 -2.5599558792431634e7 0.0
0.0 0.0 0.0

-691821.8174984381 1.6678876043830032e7 0.0
1.6678876043830032e7 9.076427784169879e6 0.0
0.0 0.0 0.0

-4.472986192340283e6 2.030953496903235e7 0.0
2.030953496903235e7 3.9779376674441556e6 0.0
0.0 0.0 0.0

-1.527155959477576e6 1.4181090025871135e7 0.0
1.4181090025871135e7 -7.48045333562435e6 0.0
0.0 0.0 0.0

-8.734454296206731e6 1.464576494665686e7 0.0
1.464576494665686e7 1.9966691051885005e7 0.0
0.0 0.0 0.0

-2.5650778171456093e6 1.4651078015827311e7 0.0
1.4651078015827311e7 -8.550259115829777e6 0.0
0.0 0.0 0.0

50292.94011826534 1.0611719042157326e7 0.0
1.0611719042157326e7 -7.796802321204999e6 0.0
0.0 0.0 0.0

-351761.2683368712 1.5418769660264023e7 0.0
1.5418769660264023e7 8.611494106357029e6 0.0
0.0 0.0 0.0

-4.755820380661015e6 3.010880011866668e7 0.0
3.010880011866668e7 1.9112705113485341e6 0.0
0.0 0.0 0.0

-1.3495747549003407e6 1.721132635534167e7 0.0
1.721132635534167e7 -5.396446807965492e6 0.0
0.0 0.0 0.0

3.2786460185097814e7 1.4032630210875766e7 0.0
1.4032630210875766e7 1.0619941927477848e6 0.0
0.0 0.0 0.0

-1.583198436532143e6 1.1434296288036777e7 0.0
1.1434296288036777e7 -4.5783731310685845e6 0.0
0.0 0.0 0.0

-3.838346651024963e6 1.4901746984035915e7 0.0
1.4901746984035915e7 -694696.2112322012 0.0
0.0 0.0 0.0

1.1789780159429023e6 1.1840036585903117e7 0.0
1.1840036585903117e7 -1.1646398001056049e7 0.0
0.0 0.0 0.0

-2.1902530015140674e6 2.1540848713169903e7 0.0
2.1540848713169903e7 -1.3888772057749452e6 0.0
0.0 0.0 0.0

4.358647304494449e6 5.962838700271206e6 0.0
5.962838700271206e6 -2.2569274472853106e7 0.0
0.0 0.0 0.0

535739.4170940802 7.455626806513572e6 0.0
7.455626806513572e6 -6.336664781240843e6 0.0
0.0 0.0 0.0

2.1563573364078524e6 9.750407727647727e6 0.0
9.750407727647727e6 -1.3348157923868341e7 0.0
0.0 0.0 0.0

-5.827457915024759e6 1.705911539780705e7 0.0
1.705911539780705e7 1.0504796131021874e7 0.0
0.0 0.0 0.0

-3.1013782200131034e6 1.5728254457607204e7 0.0
1.5728254457607204e7 -2.533466496463186e6 0.0
0.0 0.0 0.0

-635610.0298118901 1.3486874759344814e7 0.0
1.3486874759344814e7 3.593047868405789e6 0.0
0.0 0.0 0.0

-780813.2179662501 1.0709833463429987e7 0.0
1.0709833463429987e7 -3.576489082069188e6 0.0
0.0 0.0 0.0

-2.1272149851833396e6 1.4831536574831447e7 0.0
1.4831536574831447e7 -2.5118089284356507e6 0.0
0.0 0.0 0.0

1.181182068389221e6 1.4303472776764467e7 0.0
1.4303472776764467e7 -4.477193644301593e6 0.0
0.0 0.0 0.0

-3.8947898857192597e6 2.8761089177410126e7 0.0
2.8761089177410126e7 2.3206761226412533e6 0.0
0.0 0.0 0.0

-2.3240631219668053e6 1.5499077796541525e7 0.0
1.5499077796541525e7 -2.192256184378631e6 0.0
0.0 0.0 0.0

-1.073854337727839e6 6.129127187077393e6 0.0
6.129127187077393e6 -162513.44363563016 0.0
0.0 0.0 0.0

1.5494242287438717e7 1.1060357549815413e7 0.0
1.1060357549815413e7 241518.74419149384 0.0
0.0 0.0 0.0

2.761795784978969e6 8.667620497914732e6 0.0
8.667620497914732e6 -3.1025738462802544e7 0.0
0.0 0.0 0.0

-3.6967568159181424e6 1.8949662938117202e7 0.0
1.8949662938117202e7 2.0201809704674578e6 0.0
0.0 0.0 0.0

-2.5251234413780007e6 6.588383476929644e6 0.0
6.588383476929644e6 2.035947377501104e6 0.0
0.0 0.0 0.0

-1.0413453083918733e6 1.1098746751925636e7 0.0
1.1098746751925636e7 -5.419458392968226e6 0.0
0.0 0.0 0.0

427289.3297178345 9.830760312392706e6 0.0
9.830760312392706e6 -8.109020838856645e6 0.0
0.0 0.0 0.0

-3.5111033425213257e6 2.7610768586718466e7 0.0
2.7610768586718466e7 2.1102093370605623e6 0.0
0.0 0.0 0.0

3.151668807476376e6 8.885533355162261e6 0.0
8.885533355162261e6 -2.0117581667667173e7 0.0
0.0 0.0 0.0

-1.143079734381084e7 856387.3068187617 0.0
856387.3068187617 1.5690355590979204e7 0.0
0.0 0.0 0.0

-2.999193104217527e6 1.7152013620633177e7 0.0
1.7152013620633177e7 -6.1416076399602145e6 0.0
0.0 0.0 0.0

-3.5936747134758807e6 5.8136447992191715e6 0.0
5.8136447992191715e6 4.241717147526523e6 0.0
0.0 0.0 0.0

-1.7255325995722334e6 1.474135732752121e7 0.0
1.474135732752121e7 -5.84147987524835e6 0.0
0.0 0.0 0.0

-3.694464190675819e6 1.5851432276760546e7 0.0
1.5851432276760546e7 -997744.96530407 0.0
0.0 0.0 0.0

1.0475831075105006e6 1.2746608875860099e7 0.0
1.2746608875860099e7 -1.4476333850804243e7 0.0
0.0 0.0 0.0

-3.355916760048858e6 2.6676203836793914e7 0.0
2.6676203836793914e7 2.1337226556194155e6 0.0
0.0 0.0 0.0

-5.54202036675708e6 1.7593237196052372e7 0.0
1.7593237196052372e7 9.699318814501692e6 0.0
0.0 0.0 0.0

-2.491612301979026e6 1.6141953913783932e7 0.0
1.6141953913783932e7 -1.8922540168706644e6 0.0
0.0 0.0 0.0

4.136049345005599e6 6.479510313672269e6 0.0
6.479510313672269e6 -2.1900598356161445e7 0.0
0.0 0.0 0.0

-2.2134125877179527e6 8.170027614207313e6 0.0
8.170027614207313e6 848375.4361885083 0.0
0.0 0.0 0.0

-2.9745933031433406e6 2.5941785328450583e7 0.0
2.5941785328450583e7 2.3165149788422426e6 0.0
0.0 0.0 0.0

3.6358156148119457e6 7.869388797760437e6 0.0
7.869388797760437e6 -3.2155761621405546e7 0.0
0.0 0.0 0.0

-2.673774824036126e6 2.5298940822666954e7 0.0
2.5298940822666954e7 2.282209792007017e6 0.0
0.0 0.0 0.0

-2.5982987122223796e6 2.4720243665584214e7 0.0
2.4720243665584214e7 2.114801287286751e6 0.0
0.0 0.0 0.0

-3.5440448744140035e6 2.0466080599249262e7 0.0
2.0466080599249262e7 618154.5319471739 0.0
0.0 0.0 0.0

-3.482747884083258e6 2.0883081003189586e7 0.0
2.0883081003189586e7 832057.1078894492 0.0
0.0 0.0 0.0

-3.4263868766042273e6 2.128406007638079e7 0.0
2.128406007638079e7 1.0225042952648068e6 0.0
0.0 0.0 0.0

-3.361590559627485e6 2.1659168951989677e7 0.0
2.1659168951989677e7 1.1453973942472984e6 0.0
0.0 0.0 0.0

-3.334346869103724e6 2.202675693096413e7 0.0
2.202675693096413e7 1.3169419869427937e6 0.0
0.0 0.0 0.0

-3.2888105111672347e6 2.24067892717786e7 0.0
2.24067892717786e7 1.4039762238969645e6 0.0
0.0 0.0 0.0

-6.0674583782167565e6 1.0635602566081591e7 0.0
1.0635602566081591e7 4.762696731644532e6 0.0
0.0 0.0 0.0

-3.2385523238356328e6 2.278586779924131e7 0.0
2.278586779924131e7 1.5460321923863902e6 0.0
0.0 0.0 0.0

-3.33142036129676e6 2.3199239272128742e7 0.0
2.3199239272128742e7 1.6114947472887542e6 0.0
0.0 0.0 0.0

-9.374131081116863e6 1.2147147963086907e7 0.0
1.2147147963086907e7 1.4947689189379692e7 0.0
0.0 0.0 0.0

-2.610763845372057e6 2.4234812083337523e7 0.0
2.4234812083337523e7 2.108609661784946e6 0.0
0.0 0.0 0.0

-3.4215520407372424e6 2.3563849063526567e7 0.0
2.3563849063526567e7 1.6722591917727792e6 0.0
0.0 0.0 0.0

-3.397648636974859e6 2.402048769410785e7 0.0
2.402048769410785e7 1.7766521980045568e6 0.0
0.0 0.0 0.0

-2.6211609580678693e6 2.3817311492320545e7 0.0
2.3817311492320545e7 2.0689484609636443e6 0.0
0.0 0.0 0.0

-1.3350586023024044e6 1.2687237605966294e7 0.0
1.2687237605966294e7 -3.4945082340876427e6 0.0
0.0 0.0 0.0

-3.555432667305523e6 2.448529590504683e7 0.0
2.448529590504683e7 1.746644546141908e6 0.0
0.0 0.0 0.0

-2.7628604232730987e6 2.3390973670160126e7 0.0
2.3390973670160126e7 1.909555489079873e6 0.0
0.0 0.0 0.0

-2.600246369714722e6 2.300006994565215e7 0.0
2.300006994565215e7 1.8708590048498032e6 0.0
0.0 0.0 0.0

-2.721375459437739e6 2.2643586598371446e7 0.0
2.2643586598371446e7 1.7685287174350566e6 0.0
0.0 0.0 0.0

-2.8253174221417783e6 2.22442743220419e7 0.0
2.22442743220419e7 1.6570756429256587e6 0.0
0.0 0.0 0.0

-2.867217560185566e6 2.189319666574191e7 0.0
2.189319666574191e7 1.5179720918858876e6 0.0
0.0 0.0 0.0

-2.9834719764271732e6 2.1507645052070055e7 0.0
2.1507645052070055e7 1.3856130660558927e6 0.0
0.0 0.0 0.0

-3.0058629185825344e6 2.1140520400601238e7 0.0
2.1140520400601238e7 1.242250182364942e6 0.0
0.0 0.0 0.0

-3.0421781884529362e6 2.0738263153059684e7 0.0
2.0738263153059684e7 1.0553314819340361e6 0.0
0.0 0.0 0.0

-3.1845812031126064e6 1.7737195453553423e7 0.0
1.7737195453553423e7 -2.110865038693266e6 0.0
0.0 0.0 0.0

-1.0322441414731972e7 1.4118925594882453e7 0.0
1.4118925594882453e7 1.9383850648658082e7 0.0
0.0 0.0 0.0

-3.8804101741538644e6 2.4971862029630736e7 0.0
2.4971862029630736e7 1.7700195258444059e6 0.0
0.0 0.0 0.0

3.3536622097359514e6 7.530002297159374e6 0.0
7.530002297159374e6 -1.5796697102888849e7 0.0
0.0 0.0 0.0

-3.870445352455694e6 1.759084695659569e7 0.0
1.759084695659569e7 2.2030388463403173e6 0.0
0.0 0.0 0.0

-4.395312267808323e6 2.5631448137848727e7 0.0
2.5631448137848727e7 1.8306239182872225e6 0.0
0.0 0.0 0.0

-1.0334471058010709e7 7.319805929167174e6 0.0
7.319805929167174e6 1.522888824061166e7 0.0
0.0 0.0 0.0

-5.046744895433025e6 2.6390482847909223e7 0.0
2.6390482847909223e7 1.7052109058738681e6 0.0
0.0 0.0 0.0

-1.1754022672280947e7 5.629730954777792e6 0.0
5.629730954777792e6 1.7208242926796935e7 0.0
0.0 0.0 0.0

-5.842906083111636e6 2.7180043783756446e7 0.0
2.7180043783756446e7 1.4592275191910393e6 0.0
0.0 0.0 0.0

-151531.92212249665 1.4711641209195232e7 0.0
1.4711641209195232e7 -1.1360268259867163e7 0.0
0.0 0.0 0.0

2.779352095576049e6 9.44664346127591e6 0.0
9.44664346127591e6 -1.2866293990944903e7 0.0
0.0 0.0 0.0

1.1608988935526768e6 1.147114842420331e7 0.0
1.147114842420331e7 -2.2708335754239116e7 0.0
0.0 0.0 0.0

-2.704081581256086e6 1.5902708579573285e7 0.0
1.5902708579573285e7 -1.2672394985798686e6 0.0
0.0 0.0 0.0

-908193.1555796235 1.2812222655772824e7 0.0
1.2812222655772824e7 -6.84969913211219e6 0.0
0.0 0.0 0.0

-2.5919046616240726e6 1.6910128740799394e7 0.0
1.6910128740799394e7 -3.8797296828377014e6 0.0
0.0 0.0 0.0

-188556.39529553428 1.4842623935710508e7 0.0
1.4842623935710508e7 -1.1448326844835963e7 0.0
0.0 0.0 0.0

5.2808314143326245e6 3.5764654763327516e6 0.0
3.5764654763327516e6 -1.8632652815522984e7 0.0
0.0 0.0 0.0

-3.124681043873041e6 1.0155805500461143e7 0.0
1.0155805500461143e7 1.8705228460846709e6 0.0
0.0 0.0 0.0

-6.834234640496789e6 2.8164502050302964e7 0.0
2.8164502050302964e7 1.3871873761183843e6 0.0
0.0 0.0 0.0

2.2695889908428825e6 1.0020555205563555e7 0.0
1.0020555205563555e7 -1.1026342509599669e7 0.0
0.0 0.0 0.0

-1.2227615166091358e7 6.15356703044336e6 0.0
6.15356703044336e6 1.9090083252021708e7 0.0
0.0 0.0 0.0

-1.8835866668665954e6 1.4141855734238777e7 0.0
1.4141855734238777e7 -2.8506582980269887e6 0.0
0.0 0.0 0.0

-2.615131009505353e6 2.2062885790829618e7 0.0
2.2062885790829618e7 552059.3946812222 0.0
0.0 0.0 0.0

3.627541168874503e6 7.0290821858897805e6 0.0
7.0290821858897805e6 -1.6529077201621143e7 0.0
0.0 0.0 0.0

-1.0025616206500426e7 2.594871708744631e7 0.0
2.594871708744631e7 6.117675115175972e6 0.0
0.0 0.0 0.0

-6.716475732053e6 1.2155382398668423e7 0.0
1.2155382398668423e7 6.356497358185153e6 0.0
0.0 0.0 0.0

-1.2431915165925141e7 2.002848970760112e7 0.0
2.002848970760112e7 4.825830234306345e6 0.0
0.0 0.0 0.0

210291.03419200098 1.4915866978151623e7 0.0
1.4915866978151623e7 7.114636320277254e6 0.0
0.0 0.0 0.0

-8.669028092118088e6 2.9625945862285e7 0.0
2.9625945862285e7 1.1557114289733618e6 0.0
0.0 0.0 0.0

2.7145811760495324e6 9.762465148158737e6 0.0
9.762465148158737e6 -1.9520080721713267e7 0.0
0.0 0.0 0.0

-5.244081421775645e6 1.1956353619267648e7 0.0
1.1956353619267648e7 2.968962322651176e6 0.0
0.0 0.0 0.0

701299.8266161262 1.2169164546985622e7 0.0
1.2169164546985622e7 2.337666416417465e6 0.0
0.0 0.0 0.0

2.8418746839670613e6 8.143849107777531e6 0.0
8.143849107777531e6 -1.3959738557811784e7 0.0
0.0 0.0 0.0

-31303.34930419014 1.4615884617696876e7 0.0
1.4615884617696876e7 2.234712942631134e6 0.0
0.0 0.0 0.0

3.0930336694674967e6 8.036723094734323e6 0.0
8.036723094734323e6 -1.507989162879972e7 0.0
0.0 0.0 0.0

-311771.0635489 1.3023210089116737e7 0.0
1.3023210089116737e7 -2.5190230842939685e6 0.0
0.0 0.0 0.0

-3.074540157592521e6 1.6281127370011507e7 0.0
1.6281127370011507e7 -337748.6715309898 0.0
0.0 0.0 0.0

-3.2399209283377617e6 1.635600911673083e7 0.0
1.635600911673083e7 -2.211202902830715e6 0.0
0.0 0.0 0.0

2.250751096196921e6 8.342863477513574e6 0.0
8.342863477513574e6 -1.1615254377828361e7 0.0
0.0 0.0 0.0

1.297532639363452e7 1.7382994252076883e7 0.0
1.7382994252076883e7 6.601441556014856e6 0.0
0.0 0.0 0.0

1.8682404412066587e6 1.075683636411577e7 0.0
1.075683636411577e7 -1.0750480049449492e7 0.0
0.0 0.0 0.0

-520596.30979089905 1.2969659019118885e7 0.0
1.2969659019118885e7 -5.600546062945058e6 0.0
0.0 0.0 0.0

-4.649696218831026e6 1.742194910643497e7 0.0
1.742194910643497e7 4.729859536650283e6 0.0
0.0 0.0 0.0

831174.2314851577 9.949995512416441e6 0.0
9.949995512416441e6 -6.828596818366218e6 0.0
0.0 0.0 0.0

-5.415609174965233e6 1.8101189948832504e7 0.0
1.8101189948832504e7 8.845110441177532e6 0.0
0.0 0.0 0.0

1.0037878349731774e6 1.5026544351379525e7 0.0
1.5026544351379525e7 1.1767257875631426e7 0.0
0.0 0.0 0.0

-7.768590330639218e6 9.34600803960486e6 0.0
9.34600803960486e6 1.1701503177023532e7 0.0
0.0 0.0 0.0

-1.1423465182759527e7 3.1208701700077966e7 0.0
3.1208701700077966e7 475108.630521473 0.0
0.0 0.0 0.0

-4.503959432308672e6 1.5019573197176619e7 0.0
1.5019573197176619e7 2.4556943386396684e7 0.0
0.0 0.0 0.0

-3.177016298312481e6 1.2592102885266751e7 0.0
1.2592102885266751e7 -1.6556247675236003e6 0.0
0.0 0.0 0.0

5.368040321657758e6 1.483932746271873e7 0.0
1.483932746271873e7 148298.05699977558 0.0
0.0 0.0 0.0

4.018335495908872e6 6.654342401798322e6 0.0
6.654342401798322e6 -1.8337141449376855e7 0.0
0.0 0.0 0.0

2.5117886820190763e6 9.93118253879329e6 0.0
9.93118253879329e6 -2.191376729817105e7 0.0
0.0 0.0 0.0

-6.718934809810985e6 1.4871908264122734e7 0.0
1.4871908264122734e7 8.251160500995807e6 0.0
0.0 0.0 0.0

-7.380501011042077e6 2.0494373408542775e7 0.0
2.0494373408542775e7 -2.3669763979354384e6 0.0
0.0 0.0 0.0

-3.2129653585294597e6 1.4274193784928424e7 0.0
1.4274193784928424e7 458390.94743633876 0.0
0.0 0.0 0.0

-191324.484443482 1.3199801433372186e7 0.0
1.3199801433372186e7 -9.09679755997161e6 0.0
0.0 0.0 0.0

-1.271529215110365e7 2.5119187097435497e7 0.0
2.5119187097435497e7 7.795065385871598e6 0.0
0.0 0.0 0.0

2.101215276191064e6 1.0068678457609866e7 0.0
1.0068678457609866e7 -1.376136947097309e7 0.0
0.0 0.0 0.0

-3.4004196990419803e6 1.5022786526387474e7 0.0
1.5022786526387474e7 743416.019650708 0.0
0.0 0.0 0.0

-2.4030657108270563e6 7.412134503636771e6 0.0
7.412134503636771e6 1.4720384380010164e6 0.0
0.0 0.0 0.0

-5.5033124110192135e6 1.4664864546097009e7 0.0
1.4664864546097009e7 7.174309960742652e6 0.0
0.0 0.0 0.0

-1.5354503666991038e7 4.4598654938748054e7 0.0
4.4598654938748054e7 -1.697011964027313e6 0.0
0.0 0.0 0.0

-7.219237406882535e6 1.0407637631625589e7 0.0
1.0407637631625589e7 1.05879207489029e7 0.0
0.0 0.0 0.0

-1.5138929175535173e6 6.24736351393192e6 0.0
6.24736351393192e6 -1.6490594544310872e6 0.0
0.0 0.0 0.0

-2.953978430336792e6 1.7161845280154176e7 0.0
1.7161845280154176e7 -677331.8987319218 0.0
0.0 0.0 0.0

-4.806464084905277e6 1.7283124418909352e7 0.0
1.7283124418909352e7 3.2007292751161736e6 0.0
0.0 0.0 0.0

-1.0893867727109145e6 1.5338639875765577e7 0.0
1.5338639875765577e7 -5.695188363987218e6 0.0
0.0 0.0 0.0

-3.557467773625095e6 1.6762542346474914e7 0.0
1.6762542346474914e7 -1.295014245586349e6 0.0
0.0 0.0 0.0

-5.10108233627235e6 2.1386495654773475e6 0.0
2.1386495654773475e6 6.451081613011029e6 0.0
0.0 0.0 0.0

524146.7054883996 1.3198620375873283e7 0.0
1.3198620375873283e7 -4.114236900750383e6 0.0
0.0 0.0 0.0

-4.833863253185242e6 1.7889184468657997e7 0.0
1.7889184468657997e7 3.3856211853487324e6 0.0
0.0 0.0 0.0

1.4350622292401427e6 9.298347721548935e6 0.0
9.298347721548935e6 -1.0190159642751995e7 0.0
0.0 0.0 0.0

781346.9966480918 1.3541680713185132e7 0.0
1.3541680713185132e7 -3.514227486631248e6 0.0
0.0 0.0 0.0

-1.3675272241660655e7 1.9022303480587296e7 0.0
1.9022303480587296e7 2.6718528361642016e6 0.0
0.0 0.0 0.0

-6.537005094097398e6 1.1232997918198304e7 0.0
1.1232997918198304e7 9.4731300688407e6 0.0
0.0 0.0 0.0

92188.36326180631 1.433727308080041e7 0.0
1.433727308080041e7 -1.2193832044438472e7 0.0
0.0 0.0 0.0

-4.9819421303258855e6 1.8314447327492867e7 0.0
1.8314447327492867e7 4.976196506235296e6 0.0
0.0 0.0 0.0

3.8051853584661777e6 3.647940084256819e6 0.0
3.647940084256819e6 -1.142551388552228e7 0.0
0.0 0.0 0.0

-730416.6091182461 1.3524077320739354e6 0.0
1.3524077320739354e6 -71870.33259509536 0.0
0.0 0.0 0.0

340.6218237298308 1.8563802397061074e6 0.0
1.8563802397061074e6 -1.0216226274212825e6 0.0
0.0 0.0 0.0

-6.367287246632051e6 -8.962593569590492e6 0.0
-8.962593569590492e6 1.4564590847583687e7 0.0
0.0 0.0 0.0

456229.18640062946 2.4543652670773594e6 0.0
2.4543652670773594e6 -2.305304091356823e6 0.0
0.0 0.0 0.0

-5.553806806797676e6 -8.141072880638594e6 0.0
-8.141072880638594e6 1.178925039955075e7 0.0
0.0 0.0 0.0

3.547485147374176e6 3.832497982035503e6 0.0
3.832497982035503e6 -9.522309093033008e6 0.0
0.0 0.0 0.0

-3.1982504626041315e6 -683016.257876042 0.0
-683016.257876042 2.6962596560966335e6 0.0
0.0 0.0 0.0

-4.711888680987792e6 -3.266218075555643e6 0.0
-3.266218075555643e6 5.958578538808597e6 0.0
0.0 0.0 0.0

1.061465906577382e6 3.0133529996928717e6 0.0
3.0133529996928717e6 -3.703869264410996e6 0.0
0.0 0.0 0.0

-4.403083632523324e6 -6.853954541194124e6 0.0
-6.853954541194124e6 8.493129109276636e6 0.0
0.0 0.0 0.0

2.8557947893012813e6 3.9138064619109603e6 0.0
3.9138064619109603e6 -7.548888551648432e6 0.0
0.0 0.0 0.0

2.045140809398185e6 3.7310733079396533e6 0.0
3.7310733079396533e6 -5.7527663845906425e6 0.0
0.0 0.0 0.0

-933383.4335943884 799198.6538831857 0.0
799198.6538831857 524595.7419958285 0.0
0.0 0.0 0.0

5.101544920964131e6 3.671389117356955e6 0.0
3.671389117356955e6 -1.7150177898886558e7 0.0
0.0 0.0 0.0

5.286624602122931e6 3.558510228852551e6 0.0
3.558510228852551e6 -1.8311461775290646e7 0.0
0.0 0.0 0.0

4.955690055540445e6 3.7018442384370225e6 0.0
3.7018442384370225e6 -1.607267175670451e7 0.0
0.0 0.0 0.0

4.718926304231002e6 3.7186089641980217e6 0.0
3.7186089641980217e6 -1.4325725125821771e7 0.0
0.0 0.0 0.0

-2.760803353818682e6 48551.312655605776 0.0
48551.312655605776 2.6385078599262126e6 0.0
0.0 0.0 0.0

-4.670688236746004e6 -7.639378479321257e6 0.0
-7.639378479321257e6 9.8414448157771e6 0.0
0.0 0.0 0.0

5.206837669580799e6 3.6609601964722937e6 0.0
3.6609601964722937e6 -1.778213734221402e7 0.0
0.0 0.0 0.0

4.09378542261286e6 3.6426018906315006e6 0.0
3.6426018906315006e6 -1.2807075384062527e7 0.0
0.0 0.0 0.0

4.358738729142455e6 3.646544605259104e6 0.0
3.646544605259104e6 -1.3563525457866296e7 0.0
0.0 0.0 0.0

4.124924868674796e6 3.665870799704298e6 0.0
3.665870799704298e6 -1.2254460699003141e7 0.0
0.0 0.0 0.0

872552.2904015845 1.3292097536044696e7 0.0
1.3292097536044696e7 -1.0860878550084382e7 0.0
0.0 0.0 0.0

-9.268545124774672e6 8.424953394249164e6 0.0
8.424953394249164e6 1.416874133882088e7 0.0
0.0 0.0 0.0

-1.2458495513152547e7 3.59587190161481e6 0.0
3.59587190161481e6 1.8055958635232337e7 0.0
0.0 0.0 0.0

-5.201193765414407e6 1.866063644532393e7 0.0
1.866063644532393e7 8.140742863223337e6 0.0
0.0 0.0 0.0

345641.62064074725 1.3122035412345825e7 0.0
1.3122035412345825e7 -1.6635808365498962e7 0.0
0.0 0.0 0.0

-5.083427140440055e6 1.5166701547051838e7 0.0
1.5166701547051838e7 2.7268713379639396e6 0.0
0.0 0.0 0.0

-1.5573059399033368e7 3.3547142409328677e7 0.0
3.3547142409328677e7 -164815.96260967106 0.0
0.0 0.0 0.0

-3.443745540385632e6 1.3387411036088565e7 0.0
1.3387411036088565e7 -1.3136319453706997e6 0.0
0.0 0.0 0.0

-2.806098114057028e6 1.579118446927103e7 0.0
1.579118446927103e7 -7.746600542389332e6 0.0
0.0 0.0 0.0

2.9772994397103917e6 1.682798515819004e7 0.0
1.682798515819004e7 6.540771517427184e6 0.0
0.0 0.0 0.0

-3.0454082566975504e6 1.5954018828256343e7 0.0
1.5954018828256343e7 5.31034298829008e6 0.0
0.0 0.0 0.0

-5.381722278452627e6 1.5484512751564467e7 0.0
1.5484512751564467e7 7.081284090138808e6 0.0
0.0 0.0 0.0

9261.135421185289 1.5761184074984575e7 0.0
1.5761184074984575e7 -9.587725137205163e6 0.0
0.0 0.0 0.0

-5.877863631913723e6 1.4116816354245603e7 0.0
1.4116816354245603e7 8.169118290543348e6 0.0
0.0 0.0 0.0

-3.7855835834034635e6 1.7174340338662308e7 0.0
1.7174340338662308e7 -461818.32542412786 0.0
0.0 0.0 0.0

-2.8745599202941135e6 1.5958693269871475e7 0.0
1.5958693269871475e7 -3.124911197168906e6 0.0
0.0 0.0 0.0

-6.719243764117099e6 1.0954903495480873e7 0.0
1.0954903495480873e7 6.20393824379959e6 0.0
0.0 0.0 0.0

-465730.3526427257 1.2424367741895758e7 0.0
1.2424367741895758e7 -7.6983555228706235e6 0.0
0.0 0.0 0.0

-3.4597633470861567e6 1.390584801095488e7 0.0
1.390584801095488e7 1.2164571127909927e6 0.0
0.0 0.0 0.0

1.8595215301305675e6 8.830784238034558e6 0.0
8.830784238034558e6 -1.089591917180509e7 0.0
0.0 0.0 0.0

-397414.4905011825 1.127797384203343e6 0.0
1.127797384203343e6 851326.3798741838 0.0
0.0 0.0 0.0

-29679.253991390447 1.7678523387300516e6 0.0
1.7678523387300516e6 9032.275431745265 0.0
0.0 0.0 0.0

-3.9042309215717865e6 -7.154708304693344e6 0.0
-7.154708304693344e6 1.1037228678935591e7 0.0
0.0 0.0 0.0

-1.140522393233102e6 897095.1570384692 0.0
897095.1570384692 1.7087430012130484e6 0.0
0.0 0.0 0.0

-2.431971382789307e6 -197850.9038636532 0.0
-197850.9038636532 3.9300855848270888e6 0.0
0.0 0.0 0.0

5.1042035079634525e6 3.674236214585003e6 0.0
3.674236214585003e6 -1.7222157003809825e7 0.0
0.0 0.0 0.0

5.133739685522463e6 3.6034989990486717e6 0.0
3.6034989990486717e6 -1.7675824267385118e7 0.0
0.0 0.0 0.0

-4.7485548306902135e6 -7.661220122838779e6 0.0
-7.661220122838779e6 1.2681251768555945e7 0.0
0.0 0.0 0.0

4.51093360845186e6 3.7607507628647583e6 0.0
3.7607507628647583e6 -1.3735592600831758e7 0.0
0.0 0.0 0.0

4.0634618073186213e6 3.774731798633835e6 0.0
3.774731798633835e6 -1.1522807576691663e7 0.0
0.0 0.0 0.0

4.278774830038173e6 3.7287558447789107e6 0.0
3.7287558447789107e6 -1.2812151092636686e7 0.0
0.0 0.0 0.0

4.129568198950573e6 3.675818572140218e6 0.0
3.675818572140218e6 -1.2180667786063425e7 0.0
0.0 0.0 0.0

-3.977485396919348e6 1.2555106234164791e7 0.0
1.2555106234164791e7 108876.33149556885 0.0
0.0 0.0 0.0

-1.0154876842378303e7 1.4545000167614741e7 0.0
1.4545000167614741e7 1.8440649379239257e7 0.0
0.0 0.0 0.0

-6.590328181627359e6 1.3792982822997583e7 0.0
1.3792982822997583e7 1.0082077787641522e7 0.0
0.0 0.0 0.0

4.4573726497979695e6 5.921748753022935e6 0.0
5.921748753022935e6 -1.5451307178727476e7 0.0
0.0 0.0 0.0

-2.625868432890755e6 1.8719063255571228e7 0.0
1.8719063255571228e7 -2.8808053660901287e6 0.0
0.0 0.0 0.0

-3.82618848633035e6 1.6388955603227884e7 0.0
1.6388955603227884e7 1.3012027514968695e7 0.0
0.0 0.0 0.0

-1.2315335692753231e7 9.839104977660913e6 0.0
9.839104977660913e6 1.5754364203191213e7 0.0
0.0 0.0 0.0

2.555895090661931e6 8.615075168799749e6 0.0
8.615075168799749e6 -1.3217911490949161e7 0.0
0.0 0.0 0.0

2.0551915525196278e6 1.0367191020267554e7 0.0
1.0367191020267554e7 -1.409362459368601e7 0.0
0.0 0.0 0.0

-2.7149536193012428e6 1.5329392266537184e7 0.0
1.5329392266537184e7 -3.454495095504462e6 0.0
0.0 0.0 0.0

-5.063691200427481e6 1.6266155713062191e7 0.0
1.6266155713062191e7 1.4661019871642247e7 0.0
0.0 0.0 0.0

-2.7008805804867405e6 9.166066528911207e6 0.0
9.166066528911207e6 1.3678012231719964e6 0.0
0.0 0.0 0.0

-1.4109540235120703e6 1.5763954355439194e7 0.0
1.5763954355439194e7 -4.826362544813695e6 0.0
0.0 0.0 0.0

-3.308960678501241e6 1.870967501929183e7 0.0
1.870967501929183e7 704814.1434819854 0.0
0.0 0.0 0.0

1.4406148915065094e6 1.1434816621507797e7 0.0
1.1434816621507797e7 -1.0593682165991193e7 0.0
0.0 0.0 0.0

-2.8508084514582795e6 1.654259401821469e7 0.0
1.654259401821469e7 -962170.4480160067 0.0
0.0 0.0 0.0

667328.7406933754 2.461610375016298e6 0.0
2.461610375016298e6 2.7488691322334483e6 0.0
0.0 0.0 0.0

-5.354559006743605e6 1.6308343823594596e7 0.0
1.6308343823594596e7 1.4314262603080187e7 0.0
0.0 0.0 0.0

3.052792146879539e6 9.055312159814456e6 0.0
9.055312159814456e6 -2.5206839029163916e7 0.0
0.0 0.0 0.0

2.661827687665591e6 9.800366850012686e6 0.0
9.800366850012686e6 -2.0731731924151786e7 0.0
0.0 0.0 0.0

-1.183242040347566e6 1.5157093420161715e7 0.0
1.5157093420161715e7 -5.177621451610425e6 0.0
0.0 0.0 0.0

-7.694340595898002e6 1.8549274184192892e7 0.0
1.8549274184192892e7 4.4558884474668745e6 0.0
0.0 0.0 0.0

2.9316207984260125e6 6.203903216229137e6 0.0
6.203903216229137e6 -9.156766009565584e6 0.0
0.0 0.0 0.0

-2.9909175155105307e6 1.3499636223948106e7 0.0
1.3499636223948106e7 169819.49201203685 0.0
0.0 0.0 0.0

-3.4733499629252283e6 1.613094977890141e7 0.0
1.613094977890141e7 -1.597651354921243e6 0.0
0.0 0.0 0.0

-2.626908161716508e6 1.6767406266669875e7 0.0
1.6767406266669875e7 -1.5744807796303728e6 0.0
0.0 0.0 0.0

423311.70753666945 1.3095646447246654e7 0.0
1.3095646447246654e7 -1.7885564728932437e7 0.0
0.0 0.0 0.0

2.422157969706121e6 1.018039411714903e7 0.0
1.018039411714903e7 -1.755028200982168e7 0.0
0.0 0.0 0.0

-3.9021939376060786e6 9.498931046013735e6 0.0
9.498931046013735e6 895755.5296543057 0.0
0.0 0.0 0.0

-6.55913050731823e6 1.4566678467712143e7 0.0
1.4566678467712143e7 7.402787083216976e6 0.0
0.0 0.0 0.0

1.424010124816794e6 1.214504648736617e7 0.0
1.214504648736617e7 -1.851270017328116e7 0.0
0.0 0.0 0.0

-2.0723495977160777e6 1.7317213777883884e7 0.0
1.7317213777883884e7 -3.2477203959393273e6 0.0
0.0 0.0 0.0

2.3932047922581397e6 3.808438083225188e6 0.0
3.808438083225188e6 -6.410718209684034e6 0.0
0.0 0.0 0.0

-330533.8577418558 2.3276079652487554e7 0.0
2.3276079652487554e7 -1.640873029497876e6 0.0
0.0 0.0 0.0

2.5220449389034826e6 6.748932956917047e6 0.0
6.748932956917047e6 -8.513222782642774e6 0.0
0.0 0.0 0.0

-1.0046845816159071e6 1.1920807623953624e7 0.0
1.1920807623953624e7 -3.819602399939675e6 0.0
0.0 0.0 0.0

-6.23745524052494e6 1.6744456463421308e7 0.0
1.6744456463421308e7 9.227514608977858e6 0.0
0.0 0.0 0.0

-2.5916385297492268e6 1.1317280743496396e7 0.0
1.1317280743496396e7 275853.7303560283 0.0
0.0 0.0 0.0

-2.943147520581483e6 1.2976819947559781e7 0.0
1.2976819947559781e7 -2.3119499904901716e6 0.0
0.0 0.0 0.0

-3.7920419232694013e6 1.6513559693620693e7 0.0
1.6513559693620693e7 -681877.3140397639 0.0
0.0 0.0 0.0

-3.4017046289229877e6 8.498237370629242e6 0.0
8.498237370629242e6 378955.292423917 0.0
0.0 0.0 0.0

-4.766244702445576e6 1.574238453598393e6 0.0
1.574238453598393e6 6.298136409212213e6 0.0
0.0 0.0 0.0

-5.587495284754074e6 1.3756231743193662e7 0.0
1.3756231743193662e7 7.231661618283417e6 0.0
0.0 0.0 0.0

-4.606400928128052e6 1.5239799830575792e7 0.0
1.5239799830575792e7 4.309714003038868e6 0.0
0.0 0.0 0.0

884170.9481617119 6.574893484113327e6 0.0
6.574893484113327e6 -6.440642923461888e6 0.0
0.0 0.0 0.0

-6.135413321007561e6 1.2104070501840703e7 0.0
1.2104070501840703e7 8.321515920448072e6 0.0
0.0 0.0 0.0

-3.332472142880729e6 1.6980142266658697e7 0.0
1.6980142266658697e7 -1.8910646020434094e6 0.0
0.0 0.0 0.0

3.9112006235425845e6 8.158131954640353e6 0.0
8.158131954640353e6 -1.8130963615219545e7 0.0
0.0 0.0 0.0

-6.179719660860861e6 1.8712894348109182e7 0.0
1.8712894348109182e7 3.796786311665969e6 0.0
0.0 0.0 0.0

-2.522763435558507e6 1.4670684649039133e7 0.0
1.4670684649039133e7 -3.7901839052558034e6 0.0
0.0 0.0 0.0

2.240050485889473e6 3.8483028228069665e6 0.0
3.8483028228069665e6 -5.640698685902612e6 0.0
0.0 0.0 0.0

-4.989466419871734e6 2.0036122184233267e7 0.0
2.0036122184233267e7 6.190197081690169e6 0.0
0.0 0.0 0.0

-1.1107969569063867e7 5.827688656353813e6 0.0
5.827688656353813e6 1.294445642232972e7 0.0
0.0 0.0 0.0

-2.958841307382783e6 1.4079568288097978e7 0.0
1.4079568288097978e7 -2.6127007369323773e6 0.0
0.0 0.0 0.0

-2.8396001406846335e6 1.792888011198221e7 0.0
1.792888011198221e7 -1.017225578428783e6 0.0
0.0 0.0 0.0

-3.8757470241986867e6 1.8373679175199468e7 0.0
1.8373679175199468e7 132826.54302993813 0.0
0.0 0.0 0.0

-3.00881915891679e6 1.6571970032550491e7 0.0
1.6571970032550491e7 -2.7959776032431824e6 0.0
0.0 0.0 0.0

-3.4105473312998246e6 1.66617502479297e7 0.0
1.66617502479297e7 550080.7209465208 0.0
0.0 0.0 0.0

3.0390092113037007e6 3.859577374686276e6 0.0
3.859577374686276e6 -8.165975377327513e6 0.0
0.0 0.0 0.0

-2.6960001856530765e6 1.9978038177666645e7 0.0
1.9978038177666645e7 -1.9781794951653474e6 0.0
0.0 0.0 0.0

-7.991814260016617e6 1.6244967128150852e7 0.0
1.6244967128150852e7 -3.8472335084663756e7 0.0
0.0 0.0 0.0

8.059764512830156e6 1.5898779728026837e7 0.0
1.5898779728026837e7 4.133762494818881e7 0.0
0.0 0.0 0.0

1.1672626348273e6 1.226429513107704e7 0.0
1.226429513107704e7 -1.346938053774866e7 0.0
0.0 0.0 0.0

-1.8120692633340056e6 1.6152057625706336e7 0.0
1.6152057625706336e7 -3.955381740954931e6 0.0
0.0 0.0 0.0

-1.5630731327572362e6 1.2825361339469112e7 0.0
1.2825361339469112e7 -1.3955422580557985e7 0.0
0.0 0.0 0.0

-2.283097613983791e6 1.3994385204743449e7 0.0
1.3994385204743449e7 -4.1441335842468543e6 0.0
0.0 0.0 0.0

-298292.28778622206 1.60300621462144e7 0.0
1.60300621462144e7 -9.179059464258851e6 0.0
0.0 0.0 0.0

-1.378794962181225e6 1.3210511561204465e7 0.0
1.3210511561204465e7 -5.960105016118707e6 0.0
0.0 0.0 0.0

-3.9832713944693455e6 1.6289050733223038e7 0.0
1.6289050733223038e7 -63777.71262561157 0.0
0.0 0.0 0.0

3.4931183540318776e6 8.219527881166528e6 0.0
8.219527881166528e6 -3.0347087813825484e7 0.0
0.0 0.0 0.0

-6.702393557094328e6 1.7635845183498595e7 0.0
1.7635845183498595e7 2.800192587572678e6 0.0
0.0 0.0 0.0

-5.307674852969449e6 1.6668253864784427e7 0.0
1.6668253864784427e7 4.736124360156231e6 0.0
0.0 0.0 0.0

-992329.7788643889 1.3359083068146158e7 0.0
1.3359083068146158e7 -4.708490839549923e6 0.0
0.0 0.0 0.0

2.1834565284122983e6 1.0631677313091625e7 0.0
1.0631677313091625e7 -1.6676636655896056e7 0.0
0.0 0.0 0.0

8.184827606986697e6 1.6156240977824576e7 0.0
1.6156240977824576e7 2.7282758084706012e7 0.0
0.0 0.0 0.0

-1.339782181919445e6 1.6436428486344976e7 0.0
1.6436428486344976e7 -6.047226330954499e6 0.0
0.0 0.0 0.0

-2.3568933646343596e7 3.719640940854708e7 0.0
3.719640940854708e7 -496257.2447379548 0.0
0.0 0.0 0.0

1.4100304189398251e6 1.1838846898922578e7 0.0
1.1838846898922578e7 -1.4249814868404854e7 0.0
0.0 0.0 0.0

-2.2893567604972213e6 1.6367179055083798e7 0.0
1.6367179055083798e7 -2.4912200096401833e6 0.0
0.0 0.0 0.0

2.870246422457548e6 3.920952904056481e6 0.0
3.920952904056481e6 -7.575935862352788e6 0.0
0.0 0.0 0.0

3.669079992248236e6 7.473687736564974e6 0.0
7.473687736564974e6 -1.7920719967352737e7 0.0
0.0 0.0 0.0

-3.261636146275176e6 1.8156121379226323e7 0.0
1.8156121379226323e7 472653.6765596885 0.0
0.0 0.0 0.0

-2.990661198364782e6 1.387147118366537e7 0.0
1.387147118366537e7 -2.3852644572410353e7 0.0
0.0 0.0 0.0

-1.4381348668637965e6 1.3754057836583715e7 0.0
1.3754057836583715e7 -3.7871417361199097e6 0.0
0.0 0.0 0.0

1.442086814361821e6 1.0249996974343328e7 0.0
1.0249996974343328e7 -8.677026194621101e6 0.0
0.0 0.0 0.0

-3.7542384853325067e6 1.2110545650311531e7 0.0
1.2110545650311531e7 2.652632517640432e6 0.0
0.0 0.0 0.0

1.7150422526380848e6 1.1444166581343215e7 0.0
1.1444166581343215e7 -1.5080842284297172e7 0.0
0.0 0.0 0.0

-4.659559387789188e6 1.1514984696502818e7 0.0
1.1514984696502818e7 1.7479708384393954e6 0.0
0.0 0.0 0.0

337852.07041770313 1.3969314038789291e7 0.0
1.3969314038789291e7 -1.3021740145518824e7 0.0
0.0 0.0 0.0

-1.416582111659468e7 2.263202180174383e7 0.0
2.263202180174383e7 -1.8326278167489925e6 0.0
0.0 0.0 0.0

-3.9146230558988736e6 -1.6696158488027928e6 0.0
-1.6696158488027928e6 3.769234504582002e6 0.0
0.0 0.0 0.0

-4.683742232338674e6 1.1966039355947327e7 0.0
1.1966039355947327e7 4.839905311999245e6 0.0
0.0 0.0 0.0

-3.1711873456626846e6 1.691490618098797e7 0.0
1.691490618098797e7 -45939.727093949914 0.0
0.0 0.0 0.0

-1.0377890345686404e7 -1.544109744004173e6 0.0
-1.544109744004173e6 3.215771897712335e7 0.0
0.0 0.0 0.0

-1.0726864134527836e6 1.5522856906147452e7 0.0
1.5522856906147452e7 7.700207552898127e6 0.0
0.0 0.0 0.0

-1.8334193782659993e6 1.3599940722707754e7 0.0
1.3599940722707754e7 -5.067285902541565e6 0.0
0.0 0.0 0.0

-580867.1096089953 1.599629077610821e7 0.0
1.599629077610821e7 -8.218551200723121e6 0.0
0.0 0.0 0.0

-1.1527912097080823e6 1.4539436737882482e7 0.0
1.4539436737882482e7 -7.118372160426538e6 0.0
0.0 0.0 0.0

-928594.7000100544 1.1428187286204599e7 0.0
1.1428187286204599e7 -6.043373141893239e6 0.0
0.0 0.0 0.0

-2.3213758543792632e6 1.5754734061488645e7 0.0
1.5754734061488645e7 -4.577869482502443e6 0.0
0.0 0.0 0.0

-6.272153421700522e6 1.4673003015711514e7 0.0
1.4673003015711514e7 9.841537596129013e6 0.0
0.0 0.0 0.0

-3.6191888762621596e6 1.4676976693269756e7 0.0
1.4676976693269756e7 1.4738493665311055e6 0.0
0.0 0.0 0.0

-3.1966017594242636e6 1.374110460408922e7 0.0
1.374110460408922e7 -1.9857147718679986e6 0.0
0.0 0.0 0.0

4.1874425151589597e6 7.256768962848013e6 0.0
7.256768962848013e6 -2.2248602497266527e7 0.0
0.0 0.0 0.0

-5.314899631919831e6 2.0472140859569345e7 0.0
2.0472140859569345e7 6.531145437058678e6 0.0
0.0 0.0 0.0

-1.345345028457222e6 3.620011133794059e6 0.0
3.620011133794059e6 918121.9057142056 0.0
0.0 0.0 0.0

-6.092446827893067e6 1.4416178008856187e7 0.0
1.4416178008856187e7 9.031249630022043e6 0.0
0.0 0.0 0.0

930379.5879208343 1.0334127883529017e7 0.0
1.0334127883529017e7 -7.367344136787125e6 0.0
0.0 0.0 0.0

4.428094326521967e6 4.496838333621073e6 0.0
4.496838333621073e6 -1.4779762492364028e7 0.0
0.0 0.0 0.0

1.945401773477206e6 1.100994131994099e7 0.0
1.100994131994099e7 -1.5932034483535526e7 0.0
0.0 0.0 0.0

-2.2512310305791437e6 6.471369516736e6 0.0
6.471369516736e6 -663761.6584033086 0.0
0.0 0.0 0.0

-1.3024008069252376e7 9.831758175116915e6 0.0
9.831758175116915e6 1.8600512764808998e7 0.0
0.0 0.0 0.0

-2.3209420590844867e6 1.4931075865084324e7 0.0
1.4931075865084324e7 -4.366712402201038e6 0.0
0.0 0.0 0.0

-2.822747319016046e6 -1.0141456160467674e6 0.0
-1.0141456160467674e6 5.135703801739773e6 0.0
0.0 0.0 0.0

-4.33677167695258e6 1.0511745139312206e7 0.0
1.0511745139312206e7 1.352171976812812e6 0.0
0.0 0.0 0.0

-825719.5143890695 1.6411586584802995e7 0.0
1.6411586584802995e7 -7.318334282364548e6 0.0
0.0 0.0 0.0

-500274.79015175346 1.4026264827373737e7 0.0
1.4026264827373737e7 -1.3620354128198866e7 0.0
0.0 0.0 0.0

1.4912746264590453e6 1.0334639648017643e7 0.0
1.0334639648017643e7 -1.152496199912224e7 0.0
0.0 0.0 0.0

122831.48285380192 8.309604411296533e6 0.0
8.309604411296533e6 -6.036973077827303e6 0.0
0.0 0.0 0.0

-1.701995433860112e6 1.444170801013061e7 0.0
1.444170801013061e7 -3.450615694400258e6 0.0
0.0 0.0 0.0

-6.801292403640166e6 1.5801862938475467e7 0.0
1.5801862938475467e7 1.6163158095269289e7 0.0
0.0 0.0 0.0

-3.683857735694241e6 1.849640750222246e7 0.0
1.849640750222246e7 -445502.11207865644 0.0
0.0 0.0 0.0

-9.055518805337861e6 1.4724973751930865e7 0.0
1.4724973751930865e7 1.3908416779876068e7 0.0
0.0 0.0 0.0

-5.428858208859829e6 1.6739968714907492e7 0.0
1.6739968714907492e7 8.372188699072388e6 0.0
0.0 0.0 0.0

505617.3901966335 9.358600108578257e6 0.0
9.358600108578257e6 -7.55714204338321e6 0.0
0.0 0.0 0.0

-3.4804339951276556e6 1.1143024884488216e7 0.0
1.1143024884488216e7 2.3052088842635313e6 0.0
0.0 0.0 0.0

-2.2175067937152926e6 1.5491312003746744e7 0.0
1.5491312003746744e7 8.062342149508207e6 0.0
0.0 0.0 0.0

-1.40450339988947e6 1.1836553596601497e7 0.0
1.1836553596601497e7 -5.144750300445367e6 0.0
0.0 0.0 0.0

1.2233661238809843e6 1.2354296568236459e7 0.0
1.2354296568236459e7 -1.732813784415847e7 0.0
0.0 0.0 0.0

-1.9353112523161774e6 1.5103929600379497e7 0.0
1.5103929600379497e7 -3.1171076239660643e6 0.0
0.0 0.0 0.0

871325.9069664972 1.2652939288121123e7 0.0
1.2652939288121123e7 -1.2694247097728793e7 0.0
0.0 0.0 0.0

-3.478280833303381e6 1.2617931035982441e7 0.0
1.2617931035982441e7 1.7593200218841392e6 0.0
0.0 0.0 0.0

-4.0376959004660156e6 1.3283406065480663e7 0.0
1.3283406065480663e7 -1.786448498884838e7 0.0
0.0 0.0 0.0

-2.1294315610301495e6 1.574590894160581e7 0.0
1.574590894160581e7 -2.807135624309124e6 0.0
0.0 0.0 0.0

2.997980565627951e6 1.4973801714889728e7 0.0
1.4973801714889728e7 -2.3414616278055655e6 0.0
0.0 0.0 0.0

-1.0742577203825483e7 398961.67662002606 0.0
398961.67662002606 3.1385294409085914e7 0.0
0.0 0.0 0.0

-7.324366875592709e6 2.5461613329278983e7 0.0
2.5461613329278983e7 5.550578568357296e6 0.0
0.0 0.0 0.0

-3.8308723543894812e6 1.6433386180505969e7 0.0
1.6433386180505969e7 6.780927406370388e6 0.0
0.0 0.0 0.0

-1.1947222358018199e7 1.1263282921180679e7 0.0
1.1263282921180679e7 1.9942235393718902e7 0.0
0.0 0.0 0.0

-5.011697791037317e6 1.8660713127861988e7 0.0
1.8660713127861988e7 7.4930391314050425e6 0.0
0.0 0.0 0.0

-2.7217568427381613e6 1.2685881247370342e7 0.0
1.2685881247370342e7 -158251.69009508216 0.0
0.0 0.0 0.0

-843178.9218857393 1.3648927093278768e7 0.0
1.3648927093278768e7 -5.272184483443269e6 0.0
0.0 0.0 0.0

-1.5163834409813408e6 1.4709298325850302e7 0.0
1.4709298325850302e7 -4.0319536568272784e6 0.0
0.0 0.0 0.0

-627691.8929598699 8.806821089514913e6 0.0
8.806821089514913e6 -2.485364242618731e6 0.0
0.0 0.0 0.0

-1.0883256784158337e6 1.6839078279108353e7 0.0
1.6839078279108353e7 -6.476412704756563e6 0.0
0.0 0.0 0.0

3.544983299360104e6 6.448815970037908e6 0.0
6.448815970037908e6 -1.4535945287505878e7 0.0
0.0 0.0 0.0

1.8034846540463273e6 6.260079076591348e6 0.0
6.260079076591348e6 -8.238246284622869e6 0.0
0.0 0.0 0.0

-5.84178435251694e6 1.6364376620084893e7 0.0
1.6364376620084893e7 9.93922804427906e6 0.0
0.0 0.0 0.0

-3.4205270477639446e6 1.8123943447459277e7 0.0
1.8123943447459277e7 -1.316085468473849e6 0.0
0.0 0.0 0.0

2.264465512340977e6 1.5394913812659293e7 0.0
1.5394913812659293e7 -3.8006699674108913e6 0.0
0.0 0.0 0.0

-9.6834040402783e6 1.9994221710825853e7 0.0
1.9994221710825853e7 5.156795861025374e6 0.0
0.0 0.0 0.0

2.4991781349023143e6 6.091721499536667e6 0.0
6.091721499536667e6 -1.0565854972712098e7 0.0
0.0 0.0 0.0

-1.930731524943537e6 1.2201798448676845e7 0.0
1.2201798448676845e7 -4.2434956952096885e6 0.0
0.0 0.0 0.0

2.553492962603258e7 1.2366462565929303e7 0.0
1.2366462565929303e7 251876.63819645066 0.0
0.0 0.0 0.0

269917.8378574336 8.608809877390537e6 0.0
8.608809877390537e6 -6.747438965239339e6 0.0
0.0 0.0 0.0

3.8663949197445875e6 6.579460357586866e6 0.0
6.579460357586866e6 -1.7190055763249263e7 0.0
0.0 0.0 0.0

-9.798014382530414e6 1.4781821701517494e7 0.0
1.4781821701517494e7 1.766852897518174e7 0.0
0.0 0.0 0.0

766419.9611647185 1.3307597910201663e7 0.0
1.3307597910201663e7 -1.3554571431521e7 0.0
0.0 0.0 0.0

-7.518111933308103e6 7.642361980883313e6 0.0
7.642361980883313e6 1.1805589987746757e7 0.0
0.0 0.0 0.0

-1.0338270393553104e7 2.4991775866090707e7 0.0
2.4991775866090707e7 6.639277214410216e6 0.0
0.0 0.0 0.0

-9.4408099174843e6 1.4906846606412271e7 0.0
1.4906846606412271e7 1.7073703285580233e7 0.0
0.0 0.0 0.0

-5.074967634461656e6 1.9136723545020632e7 0.0
1.9136723545020632e7 7.440726111398252e6 0.0
0.0 0.0 0.0

-1.0413840457683172e7 2.0878214478944436e7 0.0
2.0878214478944436e7 -1.134130796093536e6 0.0
0.0 0.0 0.0

-3.917053483315947e6 1.3797995038394315e7 0.0
1.3797995038394315e7 -284013.4391538602 0.0
0.0 0.0 0.0

2.521969649229852e7 5.818196924660655e6 0.0
5.818196924660655e6 -3.1092789214315806e6 0.0
0.0 0.0 0.0

-815340.6152050276 1.498762214954298e7 0.0
1.498762214954298e7 -6.556565633950865e6 0.0
0.0 0.0 0.0

-1.040881671295157e6 1.1155781341387026e7 0.0
1.1155781341387026e7 -742137.0323292384 0.0
0.0 0.0 0.0

-1.3701320254156224e6 1.725512785193891e7 0.0
1.725512785193891e7 -5.597042564094753e6 0.0
0.0 0.0 0.0

-6.908295204898695e6 1.7745810367096175e7 0.0
1.7745810367096175e7 -2.751792564711314e6 0.0
0.0 0.0 0.0

453281.8424013704 8.051098860451447e6 0.0
8.051098860451447e6 -4.072630459093277e6 0.0
0.0 0.0 0.0

-5.185188546104761e6 1.6514738206499726e7 0.0
1.6514738206499726e7 1.067554293715728e7 0.0
0.0 0.0 0.0

-1.0721717663093088e6 1.3016161155397838e7 0.0
1.3016161155397838e7 -1.3477271605314216e7 0.0
0.0 0.0 0.0

-1.2024112379359754e7 1.3428020774371163e6 0.0
1.3428020774371163e6 1.8102525095664848e7 0.0
0.0 0.0 0.0

-3.6491724222787903e6 1.795109215743862e7 0.0
1.795109215743862e7 -758774.4847177233 0.0
0.0 0.0 0.0

-2.5048906609218554e6 1.3096810381615411e7 0.0
1.3096810381615411e7 -873543.1027442198 0.0
0.0 0.0 0.0

-3.0642336831141207e6 1.8319373341538053e7 0.0
1.8319373341538053e7 -180795.92953681096 0.0
0.0 0.0 0.0

135947.70696198428 1.3645126187255152e7 0.0
1.3645126187255152e7 -8.446607168372031e6 0.0
0.0 0.0 0.0

-3.303241783905561e6 6.811507306227472e6 0.0
6.811507306227472e6 3.3176799457220417e6 0.0
0.0 0.0 0.0

-4.9082867566962885e6 1.8830006900690615e7 0.0
1.8830006900690615e7 5.0395082957251975e6 0.0
0.0 0.0 0.0

-6.28862922574489e6 1.6076510670937045e7 0.0
1.6076510670937045e7 1.2368749946529834e7 0.0
0.0 0.0 0.0

-5.669160480779421e6 1.6014690591614434e7 0.0
1.6014690591614434e7 8.620100745111354e6 0.0
0.0 0.0 0.0

-535151.715144603 1.1558030279103898e7 0.0
1.1558030279103898e7 -4.71849650588305e6 0.0
0.0 0.0 0.0

2.4944042460427424e6 1.0172077823449273e7 0.0
1.0172077823449273e7 -1.8647495851699315e7 0.0
0.0 0.0 0.0

-4.422726357412701e6 1.498472440187109e7 0.0
1.498472440187109e7 990008.5942964454 0.0
0.0 0.0 0.0

-367292.63923360873 1.4641259360281046e7 0.0
1.4641259360281046e7 -1.0064598883620527e7 0.0
0.0 0.0 0.0

-186791.84722510492 1.3475849651927913e7 0.0
1.3475849651927913e7 -9.491996039054433e6 0.0
0.0 0.0 0.0

-2.5209317691448648e6 1.8217434475932788e7 0.0
1.8217434475932788e7 -3.719457715276094e6 0.0
0.0 0.0 0.0

-1.4081195107004468e6 1.5159472100826947e7 0.0
1.5159472100826947e7 -6.67387113499601e6 0.0
0.0 0.0 0.0

2.2202072839649217e6 1.0408954709387813e7 0.0
1.0408954709387813e7 -1.5277270214803202e7 0.0
0.0 0.0 0.0

1.757686510716998e6 6.253067091234478e6 0.0
6.253067091234478e6 -5.936761408529764e6 0.0
0.0 0.0 0.0

-420012.3569373151 5.836200360826403e6 0.0
5.836200360826403e6 -1.0047926528925563e6 0.0
0.0 0.0 0.0

-2.416490742774153e6 2.31588120555803e7 0.0
2.31588120555803e7 1.1570383539313439e6 0.0
0.0 0.0 0.0

-4.342059993518909e6 1.4211429795587158e7 0.0
1.4211429795587158e7 744569.3985616781 0.0
0.0 0.0 0.0

-2.171641978105281e6 1.5957218546376178e7 0.0
1.5957218546376178e7 -5.110708722607573e6 0.0
0.0 0.0 0.0

3.4619944721416924e6 4.677305025472234e6 0.0
4.677305025472234e6 -1.0164156028507866e7 0.0
0.0 0.0 0.0

-1.1550681811764246e7 2.6719295044288514e6 0.0
2.6719295044288514e6 3.1156066528189052e7 0.0
0.0 0.0 0.0

2.2597405704638315e6 8.704378059781935e6 0.0
8.704378059781935e6 -1.2062654911324063e7 0.0
0.0 0.0 0.0

543389.3801838907 1.870342028567037e7 0.0
1.870342028567037e7 -5.155189395383399e6 0.0
0.0 0.0 0.0

-1.9014396942920906e6 1.92856260017103e7 0.0
1.92856260017103e7 -3.1891418497518157e6 0.0
0.0 0.0 0.0

-4.775082801859894e6 1.9138113966713477e7 0.0
1.9138113966713477e7 4.405554319665007e6 0.0
0.0 0.0 0.0

4.93555064663044e6 4.439586892466695e6 0.0
4.439586892466695e6 -1.9500414364800237e7 0.0
0.0 0.0 0.0

-2.105442338993334e6 1.65689793028798e7 0.0
1.65689793028798e7 -3.070131852845331e6 0.0
0.0 0.0 0.0

-2.0010179102367205e6 1.7418476431611124e7 0.0
1.7418476431611124e7 -3.7872266617019344e6 0.0
0.0 0.0 0.0

3.80945679457179e6 7.077867325377949e6 0.0
7.077867325377949e6 -1.8676443900945153e7 0.0
0.0 0.0 0.0

-3.063265992561722e6 1.9466426814550083e7 0.0
1.9466426814550083e7 -1.4001210545320567e6 0.0
0.0 0.0 0.0

314026.4992716173 1.6124194871111607e7 0.0
1.6124194871111607e7 -6.970513062364669e6 0.0
0.0 0.0 0.0

-2.664694922955322e6 1.616477432773975e7 0.0
1.616477432773975e7 -3.6978400872271704e6 0.0
0.0 0.0 0.0

977278.901512783 1.2727098798449827e7 0.0
1.2727098798449827e7 -1.825651663227395e7 0.0
0.0 0.0 0.0

2.1021357092584018e6 6.636954450197331e6 0.0
6.636954450197331e6 -9.862062460207738e6 0.0
0.0 0.0 0.0

1.0635783904763572e6 1.0115337986724522e7 0.0
1.0115337986724522e7 -9.942014439116247e6 0.0
0.0 0.0 0.0

-1.7451158536480535e6 1.6588666687789515e7 0.0
1.6588666687789515e7 -5.475923270889225e6 0.0
0.0 0.0 0.0

-136250.47136445716 1.6150151852407848e7 0.0
1.6150151852407848e7 -7.851936678741214e6 0.0
0.0 0.0 0.0

-1.7573092521937296e6 1.5499055596767455e7 0.0
1.5499055596767455e7 -5.912882267456176e6 0.0
0.0 0.0 0.0

3.0210324837279837e6 7.176376062926423e6 0.0
7.176376062926423e6 -1.0102986047363624e7 0.0
0.0 0.0 0.0

4.79604278494139e6 5.28068160718736e6 0.0
5.28068160718736e6 -1.6830829432263006e7 0.0
0.0 0.0 0.0

226105.1231904081 1.3458571764567295e7 0.0
1.3458571764567295e7 -1.110934125347785e7 0.0
0.0 0.0 0.0

628547.0566589022 1.0551542822286522e7 0.0
1.0551542822286522e7 -9.149463061262896e6 0.0
0.0 0.0 0.0

-3.694132262024311e6 1.2990024276633704e7 0.0
1.2990024276633704e7 -614509.9351438289 0.0
0.0 0.0 0.0

-8.24299084382219e6 2.0400109916620556e7 0.0
2.0400109916620556e7 5.930192584346845e6 0.0
0.0 0.0 0.0

-5.427389767611302e6 1.195591494124342e7 0.0
1.195591494124342e7 5.192237889670904e7 0.0
0.0 0.0 0.0

-1.1975203236100804e7 1.7405106483788919e6 0.0
1.7405106483788919e6 1.6606765005495988e7 0.0
0.0 0.0 0.0

-1.7569082800734462e6 1.816610347373714e7 0.0
1.816610347373714e7 -5.503436762205285e6 0.0
0.0 0.0 0.0

-4.1838229493483845e6 1.3406579667174298e7 0.0
1.3406579667174298e7 445243.53445530566 0.0
0.0 0.0 0.0

-1.1915039327069618e7 4.294464734343462e6 0.0
4.294464734343462e6 2.4637930703701828e7 0.0
0.0 0.0 0.0

4.520272882025677e6 5.325725825497129e6 0.0
5.325725825497129e6 -1.5294557551222477e7 0.0
0.0 0.0 0.0

-3.864712888604552e6 1.4327655679306397e7 0.0
1.4327655679306397e7 2.3180538407728113e6 0.0
0.0 0.0 0.0

844005.9111053534 1.3047732874803716e7 0.0
1.3047732874803716e7 -1.4685861264828492e7 0.0
0.0 0.0 0.0

-1.596671158031242e6 1.7732165992541164e7 0.0
1.7732165992541164e7 -4.785291204863485e6 0.0
0.0 0.0 0.0

-1.9176000323507136e6 1.6733925224442912e7 0.0
1.6733925224442912e7 -3.621347675502697e6 0.0
0.0 0.0 0.0

-5.791044345479509e6 1.2383859540152753e7 0.0
1.2383859540152753e7 4.186653403538199e6 0.0
0.0 0.0 0.0

-2.0949448803119576e6 1.3812393075475812e7 0.0
1.3812393075475812e7 -2.214585226727879e6 0.0
0.0 0.0 0.0

-5.538502108464931e6 7.457217919952025e6 0.0
7.457217919952025e6 4.409140658942078e6 0.0
0.0 0.0 0.0

-3.2921157543668576e7 1.7639555911147226e7 0.0
1.7639555911147226e7 9.293735875170844e6 0.0
0.0 0.0 0.0

-29628.298001805786 1.5896950172793228e7 0.0
1.5896950172793228e7 8.045143941453066e6 0.0
0.0 0.0 0.0

-5.312301425551729e6 1.7507887082397394e7 0.0
1.7507887082397394e7 8.788167446454592e6 0.0
0.0 0.0 0.0

-3.4922167753556482e6 1.958471518173125e7 0.0
1.958471518173125e7 1.6629829214615878e6 0.0
0.0 0.0 0.0

2.7698882682693284e6 8.508670245675486e6 0.0
8.508670245675486e6 -1.4383112544520529e7 0.0
0.0 0.0 0.0

3.579812545450935e6 7.393617977275024e6 0.0
7.393617977275024e6 -1.694923388240808e7 0.0
0.0 0.0 0.0

3.765396023726335e6 8.53835905238322e6 0.0
8.53835905238322e6 -1.9586749826895267e7 0.0
0.0 0.0 0.0

-4.857733488865995e6 1.2489835109528681e7 0.0
1.2489835109528681e7 2.0689157575203402e6 0.0
0.0 0.0 0.0

-1.3059768417188453e7 8.844676419530269e6 0.0
8.844676419530269e6 1.7468340579286676e7 0.0
0.0 0.0 0.0

-4.753092500294719e6 8.327437114166991e6 0.0
8.327437114166991e6 5.690483421400869e6 0.0
0.0 0.0 0.0

1.4150676810077257e6 1.5782731639236383e7 0.0
1.5782731639236383e7 -4.97879878647298e6 0.0
0.0 0.0 0.0

-671787.0510158795 1.3195265863264589e7 0.0
1.3195265863264589e7 -1.2771938743088696e7 0.0
0.0 0.0 0.0

-5.036760722213445e6 1.910328890919586e7 0.0
1.910328890919586e7 6.319561873326239e6 0.0
0.0 0.0 0.0

-51140.51116605115 2.2550881811397925e7 0.0
2.2550881811397925e7 -2.309786812172025e6 0.0
0.0 0.0 0.0

-7.067675604199342e6 2.0571187325896725e7 0.0
2.0571187325896725e7 6.3614911940013915e6 0.0
0.0 0.0 0.0

-7.61212208623966e6 1.5153109259169808e7 0.0
1.5153109259169808e7 1.4480043181447979e7 0.0
0.0 0.0 0.0

3.8272703421695475e6 6.674319176595026e6 0.0
6.674319176595026e6 -3.021676155601424e7 0.0
0.0 0.0 0.0

62411.97170247557 1.3100337959595202e7 0.0
1.3100337959595202e7 -7.557422270470671e6 0.0
0.0 0.0 0.0

3.3136626060707625e6 3.9750416119546127e6 0.0
3.9750416119546127e6 -8.896772977463568e6 0.0
0.0 0.0 0.0

4.1900746493601864e6 7.576568669109655e6 0.0
7.576568669109655e6 -2.0061760607545294e7 0.0
0.0 0.0 0.0

-4.627977836126987e6 1.94272419356759e7 0.0
1.94272419356759e7 3.7776719233957333e6 0.0
0.0 0.0 0.0

-1.162163233584486e7 9.089065607726568e6 0.0
9.089065607726568e6 1.7081686990989827e7 0.0
0.0 0.0 0.0

-8.550323610949386e6 1.479361200126376e7 0.0
1.479361200126376e7 1.5671755958442884e7 0.0
0.0 0.0 0.0

-5.070257517940421e6 1.8001271185075592e7 0.0
1.8001271185075592e7 8.458185665661491e6 0.0
0.0 0.0 0.0

2.6397755335425604e6 8.842420154151512e6 0.0
8.842420154151512e6 -1.081667854240939e7 0.0
0.0 0.0 0.0

-2.6308326014432786e6 1.7894588901608102e7 0.0
1.7894588901608102e7 -5.2058813822462335e6 0.0
0.0 0.0 0.0

-2.32484438754119e6 2.29291469344401e7 0.0
2.29291469344401e7 -46646.86662622879 0.0
0.0 0.0 0.0

-4.712526090546802e6 2.0232880036068425e7 0.0
2.0232880036068425e7 5.16228145928642e6 0.0
0.0 0.0 0.0

-8.751771209681436e6 1.501298435988141e7 0.0
1.501298435988141e7 1.6352124643633e7 0.0
0.0 0.0 0.0

-1.3872059614427108e7 4.054531489103285e7 0.0
4.054531489103285e7 -1.2018388316312436e7 0.0
0.0 0.0 0.0

-3.686074639265173e6 1.7399524676862992e7 0.0
1.7399524676862992e7 -6.4469243074735105e6 0.0
0.0 0.0 0.0

-6.3707154808166865e6 1.4206599811940547e7 0.0
1.4206599811940547e7 6.476767918697699e6 0.0
0.0 0.0 0.0

-6.390572690667006e6 2.4852095745871053e6 0.0
2.4852095745871053e6 6.808019289918461e6 0.0
0.0 0.0 0.0

-1.2666842630324066e6 1.4049581262587026e7 0.0
1.4049581262587026e7 -4.370010716649678e6 0.0
0.0 0.0 0.0

-4.836341061449906e6 1.8074399523332894e7 0.0
1.8074399523332894e7 -3.158090220590761e6 0.0
0.0 0.0 0.0

-7.127821218160551e6 2.4590195730192218e7 0.0
2.4590195730192218e7 5.2049787328919545e6 0.0
0.0 0.0 0.0

-1.3499575153129085e6 1.590009873362202e7 0.0
1.590009873362202e7 -5.26345712586531e6 0.0
0.0 0.0 0.0

-2.436983245200585e6 1.7027799965210915e7 0.0
1.7027799965210915e7 -4.351331285833236e6 0.0
0.0 0.0 0.0

-9.561005346260373e6 664840.0567246163 0.0
664840.0567246163 1.4349818041144345e7 0.0
0.0 0.0 0.0

4.1745732888169726e6 6.003886940058141e6 0.0
6.003886940058141e6 -1.3833046240753207e7 0.0
0.0 0.0 0.0

-2.0824674833681283e6 2.2379643078207795e7 0.0
2.2379643078207795e7 276643.4650154073 0.0
0.0 0.0 0.0

-6.916872072506405e6 1.5606889565319115e7 0.0
1.5606889565319115e7 1.3431518652183605e7 0.0
0.0 0.0 0.0

-7.977613340892314e6 1.8877141680019055e7 0.0
1.8877141680019055e7 -1.2056309400000318e6 0.0
0.0 0.0 0.0

-234205.8947722118 5.557935902318569e6 0.0
5.557935902318569e6 -3.386417056158521e6 0.0
0.0 0.0 0.0

-5.38144987670294e6 1.910892321237579e7 0.0
1.910892321237579e7 -4.805043885435547e6 0.0
0.0 0.0 0.0

-2.470886183806015e6 1.6339242282212418e7 0.0
1.6339242282212418e7 -4.236809986438656e6 0.0
0.0 0.0 0.0

552102.2633071421 1.3063041661470804e7 0.0
1.3063041661470804e7 -1.1898769012497483e7 0.0
0.0 0.0 0.0

-1.7598422025512848e6 1.5346416321685908e7 0.0
1.5346416321685908e7 -3.709040824398307e6 0.0
0.0 0.0 0.0

2.244445087728073e6 9.069071192678392e6 0.0
9.069071192678392e6 -1.2506767376223072e7 0.0
0.0 0.0 0.0

-3.2634857628942337e6 1.6023247562860861e7 0.0
1.6023247562860861e7 347982.18921243655 0.0
0.0 0.0 0.0

-5.7627411480162e6 3.881790740835974e6 0.0
3.881790740835974e6 5.688094044066083e6 0.0
0.0 0.0 0.0

-8.334878242946782e6 9.571198231898196e6 0.0
9.571198231898196e6 1.2911325022358052e7 0.0
0.0 0.0 0.0

-5.214812260937367e6 1.2375594793345284e7 0.0
1.2375594793345284e7 6.112096126806002e6 0.0
0.0 0.0 0.0

-2.9508549020381337e6 1.2824859213873236e7 0.0
1.2824859213873236e7 -1.1859730541424755e7 0.0
0.0 0.0 0.0

-4.314605864865657e6 1.2532363266389119e7 0.0
1.2532363266389119e7 3.874074104791265e6 0.0
0.0 0.0 0.0

-2.373631856605728e7 2.1451142618382704e7 0.0
2.1451142618382704e7 4.201020823783088e6 0.0
0.0 0.0 0.0

-4.658815558020637e6 1.3835488538321143e7 0.0
1.3835488538321143e7 1.5096958443484057e6 0.0
0.0 0.0 0.0

-583875.4958542064 1.5710475291853126e7 0.0
1.5710475291853126e7 -2.259722171244507e6 0.0
0.0 0.0 0.0

-3.744963797302639e7 1.6638119121012708e7 0.0
1.6638119121012708e7 7.529046992504878e6 0.0
0.0 0.0 0.0

845565.0174149773 1.6045818615127996e7 0.0
1.6045818615127996e7 -6.095412657246596e6 0.0
0.0 0.0 0.0

-3.2228561189038223e6 1.3086593650692733e7 0.0
1.3086593650692733e7 933913.5467627328 0.0
0.0 0.0 0.0

1.8560384187026764e6 9.781608122131016e6 0.0
9.781608122131016e6 -9.412748453544816e6 0.0
0.0 0.0 0.0

-3.6409325960091935e6 1.9913081550288834e7 0.0
1.9913081550288834e7 2.3621461492042993e6 0.0
0.0 0.0 0.0

1.8769858785912711e6 1.0177979958065785e7 0.0
1.0177979958065785e7 -1.2653646313168254e7 0.0
0.0 0.0 0.0

1.7558810114495708e6 1.0814193172179323e7 0.0
1.0814193172179323e7 -1.346370204023082e7 0.0
0.0 0.0 0.0

-3.8101150698032365e6 6.9175061733704265e6 0.0
6.9175061733704265e6 1.5751391209395821e6 0.0
0.0 0.0 0.0

-6.076097656133505e6 1.6184876403921539e7 0.0
1.6184876403921539e7 7.225931308817267e6 0.0
0.0 0.0 0.0

4.184033370781811e6 7.189677144743116e6 0.0
7.189677144743116e6 -1.746678009624446e7 0.0
0.0 0.0 0.0

-8.837047487581478e6 4.229761747436454e6 0.0
4.229761747436454e6 1.2191686382020622e7 0.0
0.0 0.0 0.0

1.8375683519250862e6 1.0480474614819745e7 0.0
1.0480474614819745e7 -1.3073059185752282e7 0.0
0.0 0.0 0.0

-6.217221450262505e7 5.866809256413821e6 0.0
5.866809256413821e6 8.176639739930667e6 0.0
0.0 0.0 0.0

3.9541429717275407e6 6.560647604873412e6 0.0
6.560647604873412e6 -2.833389500790897e7 0.0
0.0 0.0 0.0

-6.171724651565473e6 1.5085441833222404e7 0.0
1.5085441833222404e7 6.4649270307622515e6 0.0
0.0 0.0 0.0

-5.690371720971195e6 1.634514973299324e7 0.0
1.634514973299324e7 5.490648701994207e6 0.0
0.0 0.0 0.0

-5.076296626185592e6 2.0048332776047777e7 0.0
2.0048332776047777e7 7.221303859471247e6 0.0
0.0 0.0 0.0

-2.0912184381071415e6 1.4278516792913664e7 0.0
1.4278516792913664e7 -4.712938724328961e6 0.0
0.0 0.0 0.0

-6.322988415939558e6 1.6254689513911912e7 0.0
1.6254689513911912e7 1.2383579648844335e7 0.0
0.0 0.0 0.0

922355.8540190551 1.1774846600358246e7 0.0
1.1774846600358246e7 -1.1057118401652042e7 0.0
0.0 0.0 0.0

3.0999020728656547e6 8.647630379975297e6 0.0
8.647630379975297e6 -1.6876611950513706e7 0.0
0.0 0.0 0.0

-3.8308356798242396e6 1.9707381479905173e7 0.0
1.9707381479905173e7 2.89810415283986e6 0.0
0.0 0.0 0.0

-2.1001030754573364e6 2.0194620491595022e7 0.0
2.0194620491595022e7 -2.933061670548802e6 0.0
0.0 0.0 0.0

3.89048359290024e6 8.046492039676265e6 0.0
8.046492039676265e6 -2.324431299118892e7 0.0
0.0 0.0 0.0

-4.8293079677134855e6 1.023422223859664e7 0.0
1.023422223859664e7 5.356583224588856e6 0.0
0.0 0.0 0.0

-6.169939849218713e6 2.0505727453124702e7 0.0
2.0505727453124702e7 6.6793578524625935e6 0.0
0.0 0.0 0.0

-3.89278132860191e7 4.372292710578828e7 0.0
4.372292710578828e7 -2.316790811544463e6 0.0
0.0 0.0 0.0

-1.2178285218350079e7 5.761422158040857e6 0.0
5.761422158040857e6 2.1732760884357564e7 0.0
0.0 0.0 0.0

-1.8952780223578534e6 1.2086424759128397e7 0.0
1.2086424759128397e7 -1.0647972842343071e7 0.0
0.0 0.0 0.0

226270.24847034726 5.47491258341192e6 0.0
5.47491258341192e6 -1.8654928728636778e6 0.0
0.0 0.0 0.0

-7.370677250837886e6 -8.211692914536335e6 0.0
-8.211692914536335e6 1.8781475529661275e7 0.0
0.0 0.0 0.0

5.443743284976311e6 3.4404790968451155e6 0.0
3.4404790968451155e6 -2.006007658766933e7 0.0
0.0 0.0 0.0

-4.512977117580559e6 1.784351520946826e7 0.0
1.784351520946826e7 1.7154829434205764e6 0.0
0.0 0.0 0.0

-50692.99556633923 1.3714575978044562e7 0.0
1.3714575978044562e7 -1.3776869889272626e7 0.0
0.0 0.0 0.0

-1.1127242808557037e7 1.2042817934069868e7 0.0
1.2042817934069868e7 2.1560755522469148e7 0.0
0.0 0.0 0.0

-1.5308144070500943e6 1.7671992651661977e7 0.0
1.7671992651661977e7 -6.290160717879146e6 0.0
0.0 0.0 0.0

1.9026378327387134e6 9.867560397797752e6 0.0
9.867560397797752e6 -1.2218754547678493e7 0.0
0.0 0.0 0.0

-7.833902921566373e6 1.3148501412589818e7 0.0
1.3148501412589818e7 2.8173193477789383e7 0.0
0.0 0.0 0.0

-2.541222534554535e6 1.420416953121532e7 0.0
1.420416953121532e7 -1.2442595653511696e6 0.0
0.0 0.0 0.0

-6.059564076050664e6 1.5269971761314023e7 0.0
1.5269971761314023e7 1.8611038236819558e7 0.0
0.0 0.0 0.0

-7519.487925936468 1.3944258836207785e7 0.0
1.3944258836207785e7 -1.2993075023090927e7 0.0
0.0 0.0 0.0

4.4955820942307055e7 7.273483301912595e6 0.0
7.273483301912595e6 -1.0621426054105833e6 0.0
0.0 0.0 0.0

-1.8352736641501654e6 1.8180157659422893e7 0.0
1.8180157659422893e7 -4.0097105218793964e6 0.0
0.0 0.0 0.0

-1.6239887795127225e6 2.224470734805405e7 0.0
2.224470734805405e7 -348308.69529354654 0.0
0.0 0.0 0.0

1.5857205434475853e6 1.0598713079179054e7 0.0
1.0598713079179054e7 -1.1913265658941641e7 0.0
0.0 0.0 0.0

2.502064258806265e6 9.883280904284202e6 0.0
9.883280904284202e6 -1.2185061144179815e7 0.0
0.0 0.0 0.0

-1.6549378406412988e6 1.3879326737449624e7 0.0
1.3879326737449624e7 -5.626983587261222e6 0.0
0.0 0.0 0.0

-1.2044460490818232e7 6.471935198592326e6 0.0
6.471935198592326e6 1.7866593124828167e7 0.0
0.0 0.0 0.0

-273841.08490358386 1.3026795350083502e7 0.0
1.3026795350083502e7 -1.7709122788780887e7 0.0
0.0 0.0 0.0

3.1408889704648303e6 3.9125651288438407e6 0.0
3.9125651288438407e6 -8.30717629694381e6 0.0
0.0 0.0 0.0

939072.4314346537 1.2318669411558313e7 0.0
1.2318669411558313e7 -1.1869303477434587e7 0.0
0.0 0.0 0.0

-1.997784975489634e7 2.3602661927178506e7 0.0
2.3602661927178506e7 1.0070879899892816e7 0.0
0.0 0.0 0.0

-2.285478205792046e6 9.49362631410939e6 0.0
9.49362631410939e6 -2.03893345755242e6 0.0
0.0 0.0 0.0

-6.295574915926896e6 1.3287102740909176e7 0.0
1.3287102740909176e7 3.419166240511637e7 0.0
0.0 0.0 0.0

-4.716135919033864e6 1.636192924660864e7 0.0
1.636192924660864e7 9.830382339752138e6 0.0
0.0 0.0 0.0

3.1585154189404757e6 1.5640164373304822e7 0.0
1.5640164373304822e7 732475.5052136625 0.0
0.0 0.0 0.0

-5.457524147917975e6 2.033220545393162e7 0.0
2.033220545393162e7 6.923724006782325e6 0.0
0.0 0.0 0.0

-1.980833356653567e6 1.861645942905951e7 0.0
1.861645942905951e7 -3.134594292764028e6 0.0
0.0 0.0 0.0

-4.872079405490886e6 1.997720771738504e7 0.0
1.997720771738504e7 5.655242931999348e6 0.0
0.0 0.0 0.0

-1.152075529283955e7 6.748476882308012e6 0.0
6.748476882308012e6 1.6619972429293122e7 0.0
0.0 0.0 0.0

-8.538360062213708e6 1.1375892264988024e7 0.0
1.1375892264988024e7 1.3480132294093275e7 0.0
0.0 0.0 0.0

-5.641857061537979e6 4.905074911439658e6 0.0
4.905074911439658e6 4.653278695693174e6 0.0
0.0 0.0 0.0

9.28470277297502e6 1.0526751073113477e7 0.0
1.0526751073113477e7 1.0747453822770172e6 0.0
0.0 0.0 0.0

3007.9769615386613 1.4194863337536568e7 0.0
1.4194863337536568e7 -1.2257421273504281e7 0.0
0.0 0.0 0.0

-2.1830294775084634e6 1.8550752683485307e7 0.0
1.8550752683485307e7 -2.633985694746913e6 0.0
0.0 0.0 0.0

-4.441256044850918e6 1.966441410427861e7 0.0
1.966441410427861e7 3.1672586626134925e6 0.0
0.0 0.0 0.0

-7.163968590756202e6 -3.993512960573335e6 0.0
-3.993512960573335e6 1.0295397235625528e7 0.0
0.0 0.0 0.0

-4.497771912511153e6 2.075609460073908e7 0.0
2.075609460073908e7 4.1602882955028657e6 0.0
0.0 0.0 0.0

-3.697859039519567e6 1.3491348261068845e7 0.0
1.3491348261068845e7 2.043181674436374e6 0.0
0.0 0.0 0.0

-4.819012722451484e6 2.121894051081359e7 0.0
2.121894051081359e7 4.9988122252806425e6 0.0
0.0 0.0 0.0

3.3532767974708164e6 1.4699413501886472e7 0.0
1.4699413501886472e7 -411470.28107216675 0.0
0.0 0.0 0.0

-1.9341023307100574e6 2.1012772662598707e7 0.0
2.1012772662598707e7 -1.1949168461270179e6 0.0
0.0 0.0 0.0

4.383818162146913e6 5.345586388944095e6 0.0
5.345586388944095e6 -1.695697003905848e7 0.0
0.0 0.0 0.0

-1.2217468319810767e7 5.816475101307755e6 0.0
5.816475101307755e6 2.038755812946322e7 0.0
0.0 0.0 0.0

477949.7961027669 1.50554176419932e7 0.0
1.50554176419932e7 -8.301569672335182e6 0.0
0.0 0.0 0.0

-18379.488485438284 1.4509294773293104e7 0.0
1.4509294773293104e7 -1.1478860808070458e7 0.0
0.0 0.0 0.0

-2.304242447540896e6 1.3459517238110935e7 0.0
1.3459517238110935e7 -1.5592392246123152e6 0.0
0.0 0.0 0.0

-3.8175771312891664e6 1.6731366244246932e7 0.0
1.6731366244246932e7 3.873599856060394e6 0.0
0.0 0.0 0.0

-981560.791024687 1.8211786137160793e7 0.0
1.8211786137160793e7 -5.663657824610458e6 0.0
0.0 0.0 0.0

334370.6557080699 1.3796301093131276e7 0.0
1.3796301093131276e7 -7.307816356139153e6 0.0
0.0 0.0 0.0

-1.0498584967918033e7 9.25893889826159e6 0.0
9.25893889826159e6 1.2700253333343392e7 0.0
0.0 0.0 0.0

3.3784694801229136e6 8.51217642776007e6 0.0
8.51217642776007e6 -1.4282291085508369e7 0.0
0.0 0.0 0.0

26000.55644615786 1.4217934050388578e7 0.0
1.4217934050388578e7 -1.1882485369401757e7 0.0
0.0 0.0 0.0

-953319.3197263605 1.5993463050347e7 0.0
1.5993463050347e7 9.479846838505693e6 0.0
0.0 0.0 0.0

-2.508283819410475e6 1.5558405835064856e7 0.0
1.5558405835064856e7 -4.0303366089128153e6 0.0
0.0 0.0 0.0

4.501327740801295e6 6.837329292158366e6 0.0
6.837329292158366e6 -2.243973572712255e7 0.0
0.0 0.0 0.0

5.025971567743668e6 5.451364022926686e6 0.0
5.451364022926686e6 -2.8687522957221083e7 0.0
0.0 0.0 0.0

-6.181825470612034e6 1.2841448119104804e7 0.0
1.2841448119104804e7 5.344891367318345e6 0.0
0.0 0.0 0.0

-4.242016489689133e6 1.988704224907905e7 0.0
1.988704224907905e7 2.610549239764168e6 0.0
0.0 0.0 0.0

-1.027262451708544e7 -100474.95768593453 0.0
-100474.95768593453 1.735407678947901e7 0.0
0.0 0.0 0.0

-7.622188939887305e6 1.1838942195620261e7 0.0
1.1838942195620261e7 8.448928941153944e6 0.0
0.0 0.0 0.0

-5.967494890450854e6 1.5870920327061448e7 0.0
1.5870920327061448e7 6.431642342640134e6 0.0
0.0 0.0 0.0

3.1432830164430607e6 8.654290189440586e6 0.0
8.654290189440586e6 -1.3126256856089283e7 0.0
0.0 0.0 0.0

5.424394452501836e6 3.323344352229011e6 0.0
3.323344352229011e6 -2.060095333031757e7 0.0
0.0 0.0 0.0

-5.708558318919888e6 1.4988310699409809e7 0.0
1.4988310699409809e7 8.047668833379122e6 0.0
0.0 0.0 0.0

-3.927295460004607e6 1.4659244819672747e7 0.0
1.4659244819672747e7 4.3403000792921744e7 0.0
0.0 0.0 0.0

-4.937651752645727e6 1.6656444296321463e7 0.0
1.6656444296321463e7 5.971984070681828e6 0.0
0.0 0.0 0.0

-2.2379781953530605e6 1.8984697849246204e7 0.0
1.8984697849246204e7 -2.4502852125634453e6 0.0
0.0 0.0 0.0

1.5745915933524445e6 1.1136909841805661e7 0.0
1.1136909841805661e7 -1.255348091141394e7 0.0
0.0 0.0 0.0

-2.889842649150992e6 2.0423589871898305e7 0.0
2.0423589871898305e7 400164.69766228076 0.0
0.0 0.0 0.0

-4.0113114270811127e6 1.947839138648464e7 0.0
1.947839138648464e7 3.4658861836964134e6 0.0
0.0 0.0 0.0

2.5112792853508354e6 1.4600054872927545e7 0.0
1.4600054872927545e7 1.857843116256772e7 0.0
0.0 0.0 0.0

3.1846464928944535e6 3.9102918900034847e6 0.0
3.9102918900034847e6 -8.743478266932743e6 0.0
0.0 0.0 0.0

609996.8872606801 1.6583468143588133e7 0.0
1.6583468143588133e7 -6.458801631699153e6 0.0
0.0 0.0 0.0

4.0003785369485095e6 4.553446042477215e6 0.0
4.553446042477215e6 -1.3104755538230218e7 0.0
0.0 0.0 0.0

-8.457382329861647e6 7.97898999964873e6 0.0
7.97898999964873e6 1.3062643581469826e7 0.0
0.0 0.0 0.0

-4.84989596425174e6 1.86456670713826e7 0.0
1.86456670713826e7 4.3635705621764455e6 0.0
0.0 0.0 0.0

-1.9540951575210295e6 1.5963874365274075e7 0.0
1.5963874365274075e7 -3.3959781496932604e6 0.0
0.0 0.0 0.0

2.6202118411590694e6 9.195453156665774e6 0.0
9.195453156665774e6 -1.1273079541399837e7 0.0
0.0 0.0 0.0

166923.50284239836 1.424782989927506e7 0.0
1.424782989927506e7 -8.305326034464726e6 0.0
0.0 0.0 0.0

-2.450100113359528e6 1.9392972018546134e7 0.0
1.9392972018546134e7 -1.726916809789106e6 0.0
0.0 0.0 0.0

-1.125952103758498e7 1.2928823731389914e6 0.0
1.2928823731389914e6 2.0896050775399163e7 0.0
0.0 0.0 0.0

-8.377727010924793e6 1.292667635236158e7 0.0
1.292667635236158e7 1.3783582295257045e7 0.0
0.0 0.0 0.0

-9.879838176629145e6 5.130444454190623e6 0.0
5.130444454190623e6 1.4165763071746312e7 0.0
0.0 0.0 0.0

-4.500137624252856e6 1.2967694359843208e7 0.0
1.2967694359843208e7 1.2206288606256407e6 0.0
0.0 0.0 0.0

-4.472442386371978e6 1.97191994518816e7 0.0
1.97191994518816e7 6.062821800093747e6 0.0
0.0 0.0 0.0

-3.325395945966197e6 1.5469377638002958e7 0.0
1.5469377638002958e7 -1.9379056266738216e6 0.0
0.0 0.0 0.0

-3.7547544038395197e6 2.0364889687973145e7 0.0
2.0364889687973145e7 1.0790806059054001e6 0.0
0.0 0.0 0.0

-4.737417583529037e6 7.101735095489696e6 0.0
7.101735095489696e6 2.961291481953467e6 0.0
0.0 0.0 0.0

-8.105615469504139e6 1.0992665486277062e7 0.0
1.0992665486277062e7 1.2642100606642302e7 0.0
0.0 0.0 0.0

-4.0815309429216646e6 2.007786537903868e7 0.0
2.007786537903868e7 2.104245928135234e6 0.0
0.0 0.0 0.0

-656770.7542802675 1.7462526808765154e7 0.0
1.7462526808765154e7 -6.853404916693818e6 0.0
0.0 0.0 0.0

4.671570051323269e6 1.7628793889907897e7 0.0
1.7628793889907897e7 9.071758486800842e6 0.0
0.0 0.0 0.0

-3.978654781116996e6 1.3044599089171415e7 0.0
1.3044599089171415e7 2.9490728162209084e6 0.0
0.0 0.0 0.0

716762.9436030323 1.9336862182422485e7 0.0
1.9336862182422485e7 -4.733303308926019e6 0.0
0.0 0.0 0.0

-4.895450215271763e6 1.3931601473702988e7 0.0
1.3931601473702988e7 5.172989282453941e6 0.0
0.0 0.0 0.0

-8.114028069792146e6 1.2584672859014811e7 0.0
1.2584672859014811e7 1.3057514295889352e7 0.0
0.0 0.0 0.0

-3.9645239948223275e6 7.953555109436695e6 0.0
7.953555109436695e6 4.231099164086733e6 0.0
0.0 0.0 0.0

-3.9288482106364653e6 2.023063470532271e7 0.0
2.023063470532271e7 1.5553494731240326e6 0.0
0.0 0.0 0.0

4.536483767170622e6 6.195770824150908e6 0.0
6.195770824150908e6 -1.659067765602803e7 0.0
0.0 0.0 0.0

3.95174925338006e6 7.524268906688155e6 0.0
7.524268906688155e6 -1.5692250394188268e7 0.0
0.0 0.0 0.0

-4.838323770970682e6 1.970419028512172e7 0.0
1.970419028512172e7 7.437096092399869e6 0.0
0.0 0.0 0.0

123329.63004777441 1.0110472944151897e7 0.0
1.0110472944151897e7 -5.658801071193905e6 0.0
0.0 0.0 0.0

2.5734425475374972e6 9.55601335174066e6 0.0
9.55601335174066e6 -1.172052628776024e7 0.0
0.0 0.0 0.0

-3.0796412637868742e6 2.172073227047814e7 0.0
2.172073227047814e7 752536.3211851649 0.0
0.0 0.0 0.0

-2.7192598322151816e6 2.010178245475877e7 0.0
2.010178245475877e7 -281253.98355100723 0.0
0.0 0.0 0.0

-2.2587485256286664e6 1.6488675339453029e7 0.0
1.6488675339453029e7 -4.704106585804576e6 0.0
0.0 0.0 0.0

44509.24291748926 1.3533874979132552e7 0.0
1.3533874979132552e7 -1.6448950443659628e7 0.0
0.0 0.0 0.0

-4.0293472305676565e6 2.20193164748642e7 0.0
2.20193164748642e7 2.842789366060704e6 0.0
0.0 0.0 0.0

-8.539809622717485e6 1.3259866775972284e7 0.0
1.3259866775972284e7 1.4207365487826884e7 0.0
0.0 0.0 0.0

2.5841066713886657e6 6.628760121227289e6 0.0
6.628760121227289e6 -1.0927756306626944e7 0.0
0.0 0.0 0.0

-2.2819977277891533e6 2.3200462611989245e7 0.0
2.3200462611989245e7 783923.9955414649 0.0
0.0 0.0 0.0

-3.757442819353179e6 1.6716106684452891e7 0.0
1.6716106684452891e7 8.179718167064358e6 0.0
0.0 0.0 0.0

-2.5870984112534286e6 1.9753266909195893e7 0.0
1.9753266909195893e7 -945787.2712315526 0.0
0.0 0.0 0.0

-55315.7169621028 1.482462372233215e7 0.0
1.482462372233215e7 -1.07478841722091e7 0.0
0.0 0.0 0.0

-3.2543523324969606e6 2.0632955948672112e7 0.0
2.0632955948672112e7 1.5096078209418932e6 0.0
0.0 0.0 0.0

-5.333080267799265e6 1.7140757325778235e7 0.0
1.7140757325778235e7 1.0649617132838948e7 0.0
0.0 0.0 0.0

-3.328185443904958e6 2.056727575661924e7 0.0
2.056727575661924e7 189549.72503142687 0.0
0.0 0.0 0.0

190453.76449930033 2.4426483806036167e7 0.0
2.4426483806036167e7 -1.3112890598191381e6 0.0
0.0 0.0 0.0

-1.2064897651197888e7 1.0561296178998005e7 0.0
1.0561296178998005e7 1.802884896446657e7 0.0
0.0 0.0 0.0

2.2232894458418186e6 1.0325988288766626e7 0.0
1.0325988288766626e7 -1.148607224632135e7 0.0
0.0 0.0 0.0

-1.2287715826116322e7 7.265506954086771e6 0.0
7.265506954086771e6 1.8423157419604033e7 0.0
0.0 0.0 0.0

-8.944988521162776e6 1.0000606098337777e7 0.0
1.0000606098337777e7 1.0609867858198e7 0.0
0.0 0.0 0.0

-614762.4019723522 -1.2492434639303647e6 0.0
-1.2492434639303647e6 1.0331841140194486e6 0.0
0.0 0.0 0.0

-322373.81582631695 -2.333306181171858e6 0.0
-2.333306181171858e6 1.7281278498540123e6 0.0
0.0 0.0 0.0

-1.2107032353975942e7 1.1353729032941258e7 0.0
1.1353729032941258e7 1.8349350708331212e7 0.0
0.0 0.0 0.0

4.744644708666515e6 1.6470835648569537e7 0.0
1.6470835648569537e7 5.408155509536566e6 0.0
0.0 0.0 0.0

-2.2721446419558567e6 2.069421737147744e7 0.0
2.069421737147744e7 -814060.2869026108 0.0
0.0 0.0 0.0

-1.8277297329950219e6 1.691121588135152e7 0.0
1.691121588135152e7 -4.1943204179079365e6 0.0
0.0 0.0 0.0

2.163562291626717e6 1.0620152493897831e7 0.0
1.0620152493897831e7 -1.1968255623079024e7 0.0
0.0 0.0 0.0

2.4124518757630996e6 1.4711136479785189e7 0.0
1.4711136479785189e7 1.5731023387804743e7 0.0
0.0 0.0 0.0

-3.8118320203517573e6 2.2393444119394396e7 0.0
2.2393444119394396e7 3.694533722047422e6 0.0
0.0 0.0 0.0

-3.057147273316562e6 2.2056206770722337e7 0.0
2.2056206770722337e7 866436.2124436537 0.0
0.0 0.0 0.0

-2.859371575107272e6 2.2427526210637238e7 0.0
2.2427526210637238e7 907180.8138510204 0.0
0.0 0.0 0.0

-6.854626987845415e6 1.514263013128353e7 0.0
1.514263013128353e7 9.008228914318701e6 0.0
0.0 0.0 0.0

-6.553234037211407e6 1.3232382229964867e7 0.0
1.3232382229964867e7 6.4338611528696995e6 0.0
0.0 0.0 0.0

-6.03357051588284e6 8.77045755660581e6 0.0
8.77045755660581e6 5.016979015629165e6 0.0
0.0 0.0 0.0

-4.983805755503933e6 1.7940380343814746e7 0.0
1.7940380343814746e7 7.47160424656831e6 0.0
0.0 0.0 0.0

-5.622185691453023e6 1.2741428556093931e7 0.0
1.2741428556093931e7 7.249520326401354e6 0.0
0.0 0.0 0.0

-1.2498863208558489e7 1.0592002286830554e7 0.0
1.0592002286830554e7 1.972040090705836e7 0.0
0.0 0.0 0.0

2.1151782316414304e6 1.0965592341741694e7 0.0
1.0965592341741694e7 -1.2330971442246627e7 0.0
0.0 0.0 0.0

-6.133361641752024e6 1.6435864392235814e7 0.0
1.6435864392235814e7 7.89666941675535e6 0.0
0.0 0.0 0.0

-1.2395248791375425e7 8.935105022463994e6 0.0
8.935105022463994e6 2.044933329484087e7 0.0
0.0 0.0 0.0

-23445.424128299113 1.55645721080951e7 0.0
1.55645721080951e7 8.74785952192536e6 0.0
0.0 0.0 0.0

-5.415405689812134e6 1.3903158611718116e7 0.0
1.3903158611718116e7 3.4418679240898327e6 0.0
0.0 0.0 0.0

-3.2179630016781944e6 2.1029297275097433e7 0.0
2.1029297275097433e7 1.6817633129589283e6 0.0
0.0 0.0 0.0

-3.2697196649307897e6 2.0202888502013028e7 0.0
2.0202888502013028e7 1.3284400127277311e6 0.0
0.0 0.0 0.0

-5.111607936681227e6 1.766721330164283e7 0.0
1.766721330164283e7 9.805570105929408e6 0.0
0.0 0.0 0.0

-118509.9665296441 1.3998779455237625e7 0.0
1.3998779455237625e7 -1.4248794767659552e7 0.0
0.0 0.0 0.0

-5.169612256008174e6 1.7992030451231275e7 0.0
1.7992030451231275e7 5.760411580108041e6 0.0
0.0 0.0 0.0

-7.787092368910369e6 1.3948692061199484e7 0.0
1.3948692061199484e7 1.3161510031493165e7 0.0
0.0 0.0 0.0

-1.7161893953465968e6 1.6352489465503443e7 0.0
1.6352489465503443e7 -4.493385506217644e6 0.0
0.0 0.0 0.0

-1.284310257377281e6 2.2639723240265932e7 0.0
2.2639723240265932e7 -382211.51508055755 0.0
0.0 0.0 0.0

-4.978702036794096e6 1.8213502494693656e7 0.0
1.8213502494693656e7 9.020465053038219e6 0.0
0.0 0.0 0.0

-1.8979678442549014e6 1.6085412868784918e7 0.0
1.6085412868784918e7 -5.553771833783311e6 0.0
0.0 0.0 0.0

3.7478839886924447e6 7.912410837420183e6 0.0
7.912410837420183e6 -1.6130218489646122e7 0.0
0.0 0.0 0.0

-5.8827275972291175e6 1.5252231836829836e7 0.0
1.5252231836829836e7 8.83695491034352e6 0.0
0.0 0.0 0.0

-469885.29307049967 1.9198256853390105e7 0.0
1.9198256853390105e7 -4.674191172606533e6 0.0
0.0 0.0 0.0

2.7196740313123018e6 3.9714118700167737e6 0.0
3.9714118700167737e6 -6.998929692627971e6 0.0
0.0 0.0 0.0

3.533881658420936e6 7.962485803416104e6 0.0
7.962485803416104e6 -2.0663560930405907e7 0.0
0.0 0.0 0.0

-793578.7400716208 1.530094056059763e7 0.0
1.530094056059763e7 -6.9455527982904e6 0.0
0.0 0.0 0.0

4.209857488937231e6 1.728326277884279e7 0.0
1.728326277884279e7 7.183795068369706e6 0.0
0.0 0.0 0.0

3.184493443276006e6 8.223461140342302e6 0.0
8.223461140342302e6 -1.6624308246309035e7 0.0
0.0 0.0 0.0

2.8730476257706396e6 9.022425771130115e6 0.0
9.022425771130115e6 -1.6220308258890253e7 0.0
0.0 0.0 0.0

50108.83952522022 1.406353399642791e7 0.0
1.406353399642791e7 3.408362640314854e6 0.0
0.0 0.0 0.0

-1.1566011932772327e7 2.710224471809515e6 0.0
2.710224471809515e6 1.9838857417294268e7 0.0
0.0 0.0 0.0

-7.293355608856294e6 9.004924131439865e6 0.0
9.004924131439865e6 7.6081242567867115e6 0.0
0.0 0.0 0.0

-4.495064446739262e6 1.4726907596320363e7 0.0
1.4726907596320363e7 -2.6449314724315654e7 0.0
0.0 0.0 0.0

-7.330534307877265e6 1.2981525557101494e7 0.0
1.2981525557101494e7 8.444041621640071e6 0.0
0.0 0.0 0.0

-1.2081432398596287e7 6.966078022049234e6 0.0
6.966078022049234e6 1.4566223546513077e7 0.0
0.0 0.0 0.0

-591443.8323764172 1.6173488510344574e7 0.0
1.6173488510344574e7 7.627698883482812e6 0.0
0.0 0.0 0.0

-7.048375980542923e6 -8.543975550723415e6 0.0
-8.543975550723415e6 1.7812456737653904e7 0.0
0.0 0.0 0.0

-6.316108203381151e6 1.5408053409410983e7 0.0
1.5408053409410983e7 7.335193119765512e6 0.0
0.0 0.0 0.0

-4.582330634385218e6 1.9786427497296378e7 0.0
1.9786427497296378e7 6.580982812435112e6 0.0
0.0 0.0 0.0

-68441.91370542627 1.4071536142503573e7 0.0
1.4071536142503573e7 -1.0624956868524767e7 0.0
0.0 0.0 0.0

-3.5170683387156455e6 615553.7524636389 0.0
615553.7524636389 3.601437503806557e6 0.0
0.0 0.0 0.0

-5.365175157582666e6 8.372963784024223e6 0.0
8.372963784024223e6 3.609933272966672e6 0.0
0.0 0.0 0.0

3.3534097915611975e6 7.156888756376402e6 0.0
7.156888756376402e6 -3.263992936560261e7 0.0
0.0 0.0 0.0

-274302.68935833575 2.2773048767894205e7 0.0
2.2773048767894205e7 -1.2967201417898783e6 0.0
0.0 0.0 0.0

-1.165323349860493e7 8.733123656130692e6 0.0
8.733123656130692e6 2.5444715679135494e7 0.0
0.0 0.0 0.0

-3.184208898482939e6 1.4838858904655421e7 0.0
1.4838858904655421e7 -8.842388597269928e6 0.0
0.0 0.0 0.0

-1.2672625424497653e7 6.401089545053693e6 0.0
6.401089545053693e6 1.578367932048592e7 0.0
0.0 0.0 0.0

-7.151197078085883e6 2.0337636969542228e7 0.0
2.0337636969542228e7 -677481.6453948985 0.0
0.0 0.0 0.0

-589708.6537729858 1.536215822679705e7 0.0
1.536215822679705e7 -3.4074696392851314e6 0.0
0.0 0.0 0.0

246409.417604696 1.4893936559034582e7 0.0
1.4893936559034582e7 8.285108113562618e6 0.0
0.0 0.0 0.0

3.7591355953004276e6 7.466532134110323e6 0.0
7.466532134110323e6 -2.1537549391809184e7 0.0
0.0 0.0 0.0

-4.651030950741194e6 1.3719155425398324e7 0.0
1.3719155425398324e7 -5.0392116332003465e6 0.0
0.0 0.0 0.0

-441716.40370414755 2.555715258307802e7 0.0
2.555715258307802e7 -3.1373237504888237e6 0.0
0.0 0.0 0.0

-6.006530051972559e6 1.5486812108003626e7 0.0
1.5486812108003626e7 9.540868136031765e6 0.0
0.0 0.0 0.0

-8.48316463055984e6 -7.559926209106004e6 0.0
-7.559926209106004e6 2.1250770797866255e7 0.0
0.0 0.0 0.0

-3.442083463605521e6 1.56223504678768e7 0.0
1.56223504678768e7 9.979981625775049e6 0.0
0.0 0.0 0.0

-5.258241159668504e6 1.943830017714612e7 0.0
1.943830017714612e7 -3.2344704491350893e6 0.0
0.0 0.0 0.0

-3.64153468894681e6 7.750998539961465e6 0.0
7.750998539961465e6 989414.1433104039 0.0
0.0 0.0 0.0

-1.3580571824537227e6 1.5666506853355944e7 0.0
1.5666506853355944e7 1.932824517357524e7 0.0
0.0 0.0 0.0

-9.470397803357834e6 1.2074968703324292e7 0.0
1.2074968703324292e7 1.2262416094496127e7 0.0
0.0 0.0 0.0

-9.49063943604749e6 1.0320589020134578e7 0.0
1.0320589020134578e7 1.1615428665888928e7 0.0
0.0 0.0 0.0

-1.1921318470668536e7 6.918044138011476e6 0.0
6.918044138011476e6 2.5344834717856925e7 0.0
0.0 0.0 0.0

-4.1580439914382203e6 1.5925865939394742e7 0.0
1.5925865939394742e7 1.2404088445703857e7 0.0
0.0 0.0 0.0

-7.239968824053491e6 2.253270179183647e7 0.0
2.253270179183647e7 5.813845756472108e6 0.0
0.0 0.0 0.0

-2.959893761134861e6 2.3653165856506094e7 0.0
2.3653165856506094e7 954712.5892442402 0.0
0.0 0.0 0.0

-5.804151560783934e6 1.7068216120262068e7 0.0
1.7068216120262068e7 7.783607173779659e6 0.0
0.0 0.0 0.0

2.4655968612811635e6 3.853200240628675e6 0.0
3.853200240628675e6 -6.316480314413672e6 0.0
0.0 0.0 0.0

2.741784346107076e6 9.77515012337433e6 0.0
9.77515012337433e6 -1.3307320164367637e7 0.0
0.0 0.0 0.0

2.261013659565027e6 9.67100123619193e6 0.0
9.67100123619193e6 -1.058330295389759e7 0.0
0.0 0.0 0.0

-6.794663824125024e6 1.364134736949041e7 0.0
1.364134736949041e7 7.451969231724917e6 0.0
0.0 0.0 0.0

-6.018086216894072e6 3.0178649346095283e7 0.0
3.0178649346095283e7 -2.3143836648960905e6 0.0
0.0 0.0 0.0

-5.4400424228421245e6 6.214842282182414e6 0.0
6.214842282182414e6 3.734975294810163e6 0.0
0.0 0.0 0.0

-1.730990799796437e6 2.137102295171858e7 0.0
2.137102295171858e7 -1.122990263217644e6 0.0
0.0 0.0 0.0

-478726.7069378769 1.9798300917289708e7 0.0
1.9798300917289708e7 -4.0400441433683583e6 0.0
0.0 0.0 0.0

-2.9289146674874583e6 8.432038981805755e6 0.0
8.432038981805755e6 2.0119990219750586e6 0.0
0.0 0.0 0.0

-434459.53578453703 1.2622837292679327e7 0.0
1.2622837292679327e7 378271.20974836696 0.0
0.0 0.0 0.0

8.923974306270767e6 1.7044569095549326e7 0.0
1.7044569095549326e7 7.634945574931824e6 0.0
0.0 0.0 0.0

3.05650366110157e6 1.6103101930215953e7 0.0
1.6103101930215953e7 1.733959167340276e7 0.0
0.0 0.0 0.0

-695502.3804153022 1.5044944711489573e7 0.0
1.5044944711489573e7 7.461224240183832e6 0.0
0.0 0.0 0.0

-9.075234560914667e6 1.1693275363463188e7 0.0
1.1693275363463188e7 1.1447968571777847e7 0.0
0.0 0.0 0.0

-4.965044206891693e6 2.8471933761720188e7 0.0
2.8471933761720188e7 -1.1984045361353592e6 0.0
0.0 0.0 0.0

-1.0759856069342248e7 2.0951694371518105e7 0.0
2.0951694371518105e7 385535.5521796639 0.0
0.0 0.0 0.0

-9.932289466042545e6 1.0725094305714102e7 0.0
1.0725094305714102e7 1.2501229410429416e7 0.0
0.0 0.0 0.0

2.133781721495864e6 1.0481238394285701e7 0.0
1.0481238394285701e7 -2.2002005981115494e7 0.0
0.0 0.0 0.0

5.546219686992592e6 3.1191245138193388e6 0.0
3.1191245138193388e6 -2.357897769599567e7 0.0
0.0 0.0 0.0

844084.2637173478 1.3504569461945534e7 0.0
1.3504569461945534e7 -1.118865338057942e7 0.0
0.0 0.0 0.0

2.431858589394328e6 1.0204663270029346e7 0.0
1.0204663270029346e7 -1.263485924850318e7 0.0
0.0 0.0 0.0

251212.05050126184 1.4496089265009707e7 0.0
1.4496089265009707e7 -9.888001340787908e6 0.0
0.0 0.0 0.0

-7.404498665049944e6 3.2268775081417944e7 0.0
3.2268775081417944e7 -4.423049029393853e6 0.0
0.0 0.0 0.0

-4.264305438291987e6 1.8227210433741778e7 0.0
1.8227210433741778e7 3.818624956007544e6 0.0
0.0 0.0 0.0

-1.16942540973153e6 1.657877969049706e7 0.0
1.657877969049706e7 -8.061078549769166e6 0.0
0.0 0.0 0.0

-1.1372917551379453e6 1.6066419892102335e7 0.0
1.6066419892102335e7 -8.267425755702245e6 0.0
0.0 0.0 0.0

2.8492410523686707e6 9.104168031008108e6 0.0
9.104168031008108e6 -1.242132997252622e7 0.0
0.0 0.0 0.0

-5.644391798610069e6 1.7834379268148363e7 0.0
1.7834379268148363e7 8.207071726639135e6 0.0
0.0 0.0 0.0

-1.990095640431018e6 1.6150263366557894e7 0.0
1.6150263366557894e7 1.0503398731085854e7 0.0
0.0 0.0 0.0

-5.479425911094597e6 1.8198937839399707e7 0.0
1.8198937839399707e7 6.123432932726581e6 0.0
0.0 0.0 0.0

-7.886178329535481e6 5.97142981259355e6 0.0
5.97142981259355e6 5.034508021652969e7 0.0
0.0 0.0 0.0

-6.844635341093812e6 -1.7147822638614755e6 0.0
-1.7147822638614755e6 1.0866513086965345e7 0.0
0.0 0.0 0.0

-2.0241064836271588e7 4.680879638149862e7 0.0
4.680879638149862e7 -1.814666342851023e7 0.0
0.0 0.0 0.0

959151.8059018273 1.5094166564862281e7 0.0
1.5094166564862281e7 1.0233073560466023e7 0.0
0.0 0.0 0.0

-4.216527856500687e6 2.732541508498313e7 0.0
2.732541508498313e7 -249923.415469388 0.0
0.0 0.0 0.0

-148207.97661685478 1.4282789311998183e7 0.0
1.4282789311998183e7 -7.988156749439e6 0.0
0.0 0.0 0.0

-394614.20022636047 1.6056003349638443e7 0.0
1.6056003349638443e7 -8.558923636573141e6 0.0
0.0 0.0 0.0

-4.468231408679504e6 1.908293714071438e7 0.0
1.908293714071438e7 5.431630511008995e6 0.0
0.0 0.0 0.0

4.809978149915425e6 3.6375567218047185e6 0.0
3.6375567218047185e6 -1.491097843045536e7 0.0
0.0 0.0 0.0

4.297648952283573e6 1.4840198652566507e7 0.0
1.4840198652566507e7 -44224.646625876194 0.0
0.0 0.0 0.0

2.649914117423498e6 1.0141549599428704e7 0.0
1.0141549599428704e7 -1.3748915427943796e7 0.0
0.0 0.0 0.0

438575.5984891963 1.8181588892020777e7 0.0
1.8181588892020777e7 -5.615700920178246e6 0.0
0.0 0.0 0.0

4.363389187810773e6 7.029184550689677e6 0.0
7.029184550689677e6 -2.086913534294076e7 0.0
0.0 0.0 0.0

-5.240374125983748e6 1.6249755542575182e7 0.0
1.6249755542575182e7 7.022020115365734e6 0.0
0.0 0.0 0.0

2.980749587976523e6 6.711052333506241e6 0.0
6.711052333506241e6 -9.624955882969363e6 0.0
0.0 0.0 0.0

-1.1786424524584413e6 9.136531495847667e6 0.0
9.136531495847667e6 -1.4932173908786878e6 0.0
0.0 0.0 0.0

-9.412947264071764e6 1.8088224569512263e7 0.0
1.8088224569512263e7 -2.6525351425041365e6 0.0
0.0 0.0 0.0

3.431531580522185e6 8.73850199800435e6 0.0
8.73850199800435e6 -1.5764819982266549e7 0.0
0.0 0.0 0.0

-2.725037959420974e6 1.3344228354733963e7 0.0
1.3344228354733963e7 -2.940750690980333e6 0.0
0.0 0.0 0.0

-1.685516274618404e6 1.6941162653930873e7 0.0
1.6941162653930873e7 -6.59360419055017e6 0.0
0.0 0.0 0.0

-4.666238048460353e6 1.598790118137901e7 0.0
1.598790118137901e7 1.5011727508124085e7 0.0
0.0 0.0 0.0

522018.8846639426 1.417524114446716e7 0.0
1.417524114446716e7 -2.5644700786602083e6 0.0
0.0 0.0 0.0

-7.021332163707413e6 1.2616530621721257e7 0.0
1.2616530621721257e7 7.455987863280721e6 0.0
0.0 0.0 0.0

-1.2801896726221735e7 4.1929960801395285e6 0.0
4.1929960801395285e6 2.163547826750729e7 0.0
0.0 0.0 0.0

-4.098391292813722e6 1.6177580258813452e7 0.0
1.6177580258813452e7 1.5306781819947563e7 0.0
0.0 0.0 0.0

-8.851968648277933e6 1.3202584242939236e7 0.0
1.3202584242939236e7 1.1999969941234685e7 0.0
0.0 0.0 0.0

-1.148505112456363e7 -388366.0079507811 0.0
-388366.0079507811 1.8893832918797567e7 0.0
0.0 0.0 0.0

-6.463431804429183e6 1.49165113923822e7 0.0
1.49165113923822e7 1.0501088970068749e7 0.0
0.0 0.0 0.0

-6.3578961466569165e6 1.6560426739963476e7 0.0
1.6560426739963476e7 1.1447973601634096e7 0.0
0.0 0.0 0.0

-4.937823493301777e6 4.930222215374919e6 0.0
4.930222215374919e6 6.998398854597031e6 0.0
0.0 0.0 0.0

-1.4036362180370176e6 1.6511565692288054e7 0.0
1.6511565692288054e7 -7.448938637668914e6 0.0
0.0 0.0 0.0

-4.677698344000288e6 1.893266119029964e7 0.0
1.893266119029964e7 3.6996437716402e6 0.0
0.0 0.0 0.0

-8.970795378071833e6 1.359252422154615e7 0.0
1.359252422154615e7 1.2606071925350804e7 0.0
0.0 0.0 0.0

-1.1693752249613605e7 253741.37939111004 0.0
253741.37939111004 2.825571807670875e7 0.0
0.0 0.0 0.0

-3.3497489084280985e6 1.6121502698835365e7 0.0
1.6121502698835365e7 8.225499979825307e6 0.0
0.0 0.0 0.0

-8.900039883094944e6 9.990061775353048e6 0.0
9.990061775353048e6 1.3808605571490025e7 0.0
0.0 0.0 0.0

2.4016889450617423e6 1.0270840746161383e7 0.0
1.0270840746161383e7 -2.090412985798904e7 0.0
0.0 0.0 0.0

-5.967837429139595e6 1.548691474949295e7 0.0
1.548691474949295e7 1.8884471776738085e7 0.0
0.0 0.0 0.0

-1.1460005708470082e7 1.1292737923116928e7 0.0
1.1292737923116928e7 1.706107398614128e7 0.0
0.0 0.0 0.0

2.256633648165929e6 9.313620856393516e6 0.0
9.313620856393516e6 -1.012657510608376e7 0.0
0.0 0.0 0.0

4.8124542303346135e6 4.4281425952097755e6 0.0
4.4281425952097755e6 -1.9524060421100095e7 0.0
0.0 0.0 0.0

-871275.4929069551 1.5605207731981589e7 0.0
1.5605207731981589e7 1.3984783064737756e7 0.0
0.0 0.0 0.0

-3.1604296036104597e6 1.5912243718753383e7 0.0
1.5912243718753383e7 1.6305429008060899e7 0.0
0.0 0.0 0.0

-709741.1637913818 1.3895464566532291e7 0.0
1.3895464566532291e7 -5.832748559257506e6 0.0
0.0 0.0 0.0

-4.856891514913883e6 1.8787737347498972e7 0.0
1.8787737347498972e7 8.338447243048271e6 0.0
0.0 0.0 0.0

-3.178213598899314e6 2.5102056055816773e7 0.0
2.5102056055816773e7 642975.7873905788 0.0
0.0 0.0 0.0

-137531.50973566948 1.520292804224173e7 0.0
1.520292804224173e7 -9.998040951888612e6 0.0
0.0 0.0 0.0

-7.888805846018782e6 -1.2187876106281048e6 0.0
-1.2187876106281048e6 1.1740874122351531e7 0.0
0.0 0.0 0.0

1.7391898496469054e6 1.1676909410373155e7 0.0
1.1676909410373155e7 -1.8232577847794857e7 0.0
0.0 0.0 0.0

-5.542573095586592e6 1.6974191498530034e7 0.0
1.6974191498530034e7 9.584286672917992e6 0.0
0.0 0.0 0.0

-1.1763545574404297e7 9.933101303359494e6 0.0
9.933101303359494e6 1.756364108729542e7 0.0
0.0 0.0 0.0

1.170059427842589e6 1.3156069705657056e7 0.0
1.3156069705657056e7 5.246501948124988e6 0.0
0.0 0.0 0.0

3.1929316604925403e6 8.533021500928413e6 0.0
8.533021500928413e6 -2.3971081029621515e7 0.0
0.0 0.0 0.0

2.485351712522817e6 1.0192105033307852e7 0.0
1.0192105033307852e7 -1.9724100380840488e7 0.0
0.0 0.0 0.0

32178.21943293116 2.6496107905124657e7 0.0
2.6496107905124657e7 -4.398099225041211e6 0.0
0.0 0.0 0.0

-4.047990124431612e6 1.8495400109486323e7 0.0
1.8495400109486323e7 3.15027505439673e6 0.0
0.0 0.0 0.0

-4.319012578272415e6 1.9397742945047818e7 0.0
1.9397742945047818e7 4.80942118016397e6 0.0
0.0 0.0 0.0

-3.465455504449598e6 1.916978700024072e7 0.0
1.916978700024072e7 -697994.0574496886 0.0
0.0 0.0 0.0

4.365392688193173e6 4.815919248383904e6 0.0
4.815919248383904e6 -1.2562058798101604e7 0.0
0.0 0.0 0.0

-443787.1855480331 1.2083724630719671e7 0.0
1.2083724630719671e7 -5.997718926859747e6 0.0
0.0 0.0 0.0

-5.478913301284074e6 1.6887673452594858e7 0.0
1.6887673452594858e7 9.02331480319935e6 0.0
0.0 0.0 0.0

-841024.3044119568 1.6910021963588923e7 0.0
1.6910021963588923e7 -7.516772389058794e6 0.0
0.0 0.0 0.0

-2.9868481261200383e6 2.4538555669496756e7 0.0
2.4538555669496756e7 853970.042031551 0.0
0.0 0.0 0.0

-4.1399312454924034e6 7.036337320378422e6 0.0
7.036337320378422e6 5.007594803750106e6 0.0
0.0 0.0 0.0

-1.2919854477405032e7 5.709362195066783e6 0.0
5.709362195066783e6 1.8049853592764724e7 0.0
0.0 0.0 0.0

-2.951844255616929e6 2.4083943727010865e7 0.0
2.4083943727010865e7 1.0048818006472071e6 0.0
0.0 0.0 0.0

-1.9197640247466883e6 1.7390337684639204e7 0.0
1.7390337684639204e7 -5.786581416645123e6 0.0
0.0 0.0 0.0

2.2101559164385125e6 9.419491116846269e6 0.0
9.419491116846269e6 -1.2925282217978325e7 0.0
0.0 0.0 0.0

-6.307969997463714e6 1.3494819143236794e7 0.0
1.3494819143236794e7 9.215989558636155e6 0.0
0.0 0.0 0.0

3.391980986301083e6 8.0238183335285755e6 0.0
8.0238183335285755e6 -2.495083888069087e7 0.0
0.0 0.0 0.0

-3.1184733327289457e6 2.1768776630949587e7 0.0
2.1768776630949587e7 1.9370395583742694e6 0.0
0.0 0.0 0.0

-3.5737756620193333e6 1.6854806687291525e7 0.0
1.6854806687291525e7 6.689478408482911e6 0.0
0.0 0.0 0.0

1.6917738811393175e6 1.1039727798965272e7 0.0
1.1039727798965272e7 -2.213105195907494e7 0.0
0.0 0.0 0.0

-4.7590506063493695e6 1.9778663366379797e7 0.0
1.9778663366379797e7 5.119533193703268e6 0.0
0.0 0.0 0.0

-1.2921411249697026e7 5.66937171938105e6 0.0
5.66937171938105e6 1.9235452266793624e7 0.0
0.0 0.0 0.0

1.8831190887389556e6 9.177080565089758e6 0.0
9.177080565089758e6 -1.1352454990451943e7 0.0
0.0 0.0 0.0

-1.0734880225293483e6 1.5394017922831226e7 0.0
1.5394017922831226e7 7.413205507651964e6 0.0
0.0 0.0 0.0

-4.648771294265575e6 1.8216277376678236e7 0.0
1.8216277376678236e7 6.10404720181821e6 0.0
0.0 0.0 0.0

1.154723811884908e6 1.1662605029167814e7 0.0
1.1662605029167814e7 -2.1776618106138445e7 0.0
0.0 0.0 0.0

-9.075981825253887e6 3.5113254738855086e7 0.0
3.5113254738855086e7 -7.56353783946483e6 0.0
0.0 0.0 0.0

-1.0895888556176675e7 1.2730709972110542e7 0.0
1.2730709972110542e7 1.5268711717587246e7 0.0
0.0 0.0 0.0

-4.934783581534548e6 1.5003753571248908e7 0.0
1.5003753571248908e7 -3.1062394396558523e7 0.0
0.0 0.0 0.0

-3.140399413371306e6 7.675990380760831e6 0.0
7.675990380760831e6 2.709587791259849e6 0.0
0.0 0.0 0.0

-6.417269385905244e6 1.5681846347794492e7 0.0
1.5681846347794492e7 8.100718988935611e6 0.0
0.0 0.0 0.0

-8.7009933766798e6 1.4855741465037387e7 0.0
1.4855741465037387e7 1.906853579926522e7 0.0
0.0 0.0 0.0

-6.475809267651819e6 1.2442121969018413e7 0.0
1.2442121969018413e7 9.365438332738638e6 0.0
0.0 0.0 0.0

-5.975779124667434e6 1.3680529101786844e7 0.0
1.3680529101786844e7 3.7514741437418e7 0.0
0.0 0.0 0.0

-5.533864410456238e6 1.577410903436512e7 0.0
1.577410903436512e7 7.906198746363092e6 0.0
0.0 0.0 0.0

180891.3847862156 1.3718934430254746e7 0.0
1.3718934430254746e7 -1.560126676901092e7 0.0
0.0 0.0 0.0

-84104.53555299528 1.5640861773240365e7 0.0
1.5640861773240365e7 -1.013599899235788e7 0.0
0.0 0.0 0.0

9.092433679795454e7 1.6697920183584323e7 0.0
1.6697920183584323e7 6.721073583975602e6 0.0
0.0 0.0 0.0

-8.83086598500631e6 -7.270246658862331e6 0.0
-7.270246658862331e6 2.249761632273078e7 0.0
0.0 0.0 0.0

5.48957707896309e6 3.2237069801367405e6 0.0
3.2237069801367405e6 -2.1797455744939998e7 0.0
0.0 0.0 0.0

-3.5913895672359755e6 2.677824311100155e6 0.0
2.677824311100155e6 3.2115768831812465e6 0.0
0.0 0.0 0.0

-3.242983072397371e6 1.875690592618034e7 0.0
1.875690592618034e7 -1.444295954646282e6 0.0
0.0 0.0 0.0

-9.565872847311707e6 -5.10287441358496e6 0.0
-5.10287441358496e6 3.0901276906385407e7 0.0
0.0 0.0 0.0

-3.4368615892588813e6 1.347214486754933e7 0.0
1.347214486754933e7 -1.9620976290915485e7 0.0
0.0 0.0 0.0

-1.2037796639813246e7 8.311030037103576e6 0.0
8.311030037103576e6 1.779396749273285e7 0.0
0.0 0.0 0.0

-9.235085405800264e6 1.387494478337092e7 0.0
1.387494478337092e7 1.3148687248917442e7 0.0
0.0 0.0 0.0

5.5224954475860335e6 3.0649534993780158e6 0.0
3.0649534993780158e6 -2.4200376375186052e7 0.0
0.0 0.0 0.0

558978.5319652832 1.391099328072125e7 0.0
1.391099328072125e7 -1.0385649370722206e7 0.0
0.0 0.0 0.0

-3.4912084463718543e6 2.579179185071484e7 0.0
2.579179185071484e7 643927.2428416633 0.0
0.0 0.0 0.0

1.4763902962696808e6 9.655007024056923e6 0.0
9.655007024056923e6 -1.0669561726062795e7 0.0
0.0 0.0 0.0

-1.269278026023456e6 1.6593116607621837e7 0.0
1.6593116607621837e7 -2.5028528357391595e6 0.0
0.0 0.0 0.0

-3.873523083847679e6 6.748528558070873e6 0.0
6.748528558070873e6 7.411075297481951e7 0.0
0.0 0.0 0.0

1.1559673344734162e6 7.597559503652701e6 0.0
7.597559503652701e6 -5.59569693676026e7 0.0
0.0 0.0 0.0

-1.2354277393400948e6 1.4278190227189729e7 0.0
1.4278190227189729e7 -4.551723175531565e7 0.0
0.0 0.0 0.0

1.3846185916330712e6 1.2715338100539267e7 0.0
1.2715338100539267e7 -1.273531456938711e7 0.0
0.0 0.0 0.0

4.547310404806213e6 6.475499528538035e6 0.0
6.475499528538035e6 -2.6379611823600307e7 0.0
0.0 0.0 0.0

-1.5848651345763266e7 2.0380934359168958e7 0.0
2.0380934359168958e7 5.521301474083444e6 0.0
0.0 0.0 0.0

-981459.5392734224 1.6518378589552356e7 0.0
1.6518378589552356e7 -8.381882951768014e6 0.0
0.0 0.0 0.0

-8.941554748974346e6 -7.085444168338484e6 0.0
-7.085444168338484e6 2.351901126839556e7 0.0
0.0 0.0 0.0

-6.1053935222849455e6 8.644541996912187e6 0.0
8.644541996912187e6 7.082654985254218e6 0.0
0.0 0.0 0.0

-4.1414821534463773e6 1.9675704021753535e7 0.0
1.9675704021753535e7 4.165829790479941e6 0.0
0.0 0.0 0.0

-5.883478269172503e6 1.7248101808483407e7 0.0
1.7248101808483407e7 8.379028959223097e6 0.0
0.0 0.0 0.0

-8.278211042166944e6 1.1003863640125174e7 0.0
1.1003863640125174e7 9.581478758791909e6 0.0
0.0 0.0 0.0

-4.695469495962795e6 5.886972659317757e6 0.0
5.886972659317757e6 6.304182138587063e6 0.0
0.0 0.0 0.0

3.280815023818212e6 1.4811141559825901e7 0.0
1.4811141559825901e7 1.8315974704842563e6 0.0
0.0 0.0 0.0

-2.1944226626803586e6 1.7862678050637703e7 0.0
1.7862678050637703e7 -4.978208926757151e6 0.0
0.0 0.0 0.0

-879792.7553887584 5.903165522975612e6 0.0
5.903165522975612e6 -2.540246130963104e6 0.0
0.0 0.0 0.0

-2.5272213126495327e6 2.020453784496317e7 0.0
2.020453784496317e7 -719221.5581812147 0.0
0.0 0.0 0.0

-1.2638130893469777e7 1.1345021247390945e7 0.0
1.1345021247390945e7 1.6539973844691105e7 0.0
0.0 0.0 0.0

-6.014101901655806e6 1.315889176256059e7 0.0
1.315889176256059e7 8.27943105053818e6 0.0
0.0 0.0 0.0

-9.008712055546302e6 -6.647429099749038e6 0.0
-6.647429099749038e6 2.458966053191038e7 0.0
0.0 0.0 0.0

5.478813384323294e6 3.162343817000574e6 0.0
3.162343817000574e6 -2.2976755133859906e7 0.0
0.0 0.0 0.0

4.484684701864025e6 6.69148078060494e6 0.0
6.69148078060494e6 -2.7942087979811992e7 0.0
0.0 0.0 0.0

-1.2895659942685233e7 7.279629051790351e6 0.0
7.279629051790351e6 1.6344395792418517e7 0.0
0.0 0.0 0.0

3.058185308917936e6 5.273079445603007e6 0.0
5.273079445603007e6 -4.7929581693218e7 0.0
0.0 0.0 0.0

-8.940314329511259e6 -2.514517780874468e6 0.0
-2.514517780874468e6 4.227334044895651e7 0.0
0.0 0.0 0.0

2.487509876246094e6 8.980203290182542e6 0.0
8.980203290182542e6 -1.3643870121524595e7 0.0
0.0 0.0 0.0

3.6645202492471244e6 8.02127204981118e6 0.0
8.02127204981118e6 -1.4975950558137665e7 0.0
0.0 0.0 0.0

-521760.5294864408 2.3952477125395175e7 0.0
2.3952477125395175e7 -932419.1090533742 0.0
0.0 0.0 0.0

-6.073620800082007e6 2.2461947845560264e7 0.0
2.2461947845560264e7 6.170439675694973e6 0.0
0.0 0.0 0.0

-4.900631480542178e6 1.787394379192867e7 0.0
1.787394379192867e7 6.750822109107112e6 0.0
0.0 0.0 0.0

-2.248265223814673e6 1.9424405418998376e7 0.0
1.9424405418998376e7 -2.1556569270259007e6 0.0
0.0 0.0 0.0

-3.2418797440131507e6 2.4554704662587177e7 0.0
2.4554704662587177e7 2.7684749047038797e6 0.0
0.0 0.0 0.0

-4.702003621792726e6 1.8862986076943755e7 0.0
1.8862986076943755e7 6.729430448387714e6 0.0
0.0 0.0 0.0

-1.262903662979227e6 1.5200741079235306e7 0.0
1.5200741079235306e7 6.399504474633153e6 0.0
0.0 0.0 0.0

4.472507836521415e6 3.4598094239205946e6 0.0
3.4598094239205946e6 -3.9573844246996656e7 0.0
0.0 0.0 0.0

5.539789666765217e6 2.8569938883005185e6 0.0
2.8569938883005185e6 -2.6753647181405947e7 0.0
0.0 0.0 0.0

5.193288632357838e6 2.9076705691883275e6 0.0
2.9076705691883275e6 -3.403728504291749e7 0.0
0.0 0.0 0.0

-4.1318970290217707e6 1.962170843188078e7 0.0
1.962170843188078e7 1.9135573072830476e6 0.0
0.0 0.0 0.0

-4.542301301660826e6 8.01845448248516e6 0.0
8.01845448248516e6 2.248900410053528e6 0.0
0.0 0.0 0.0

-9.38367386252294e6 -4.803797162201705e6 0.0
-4.803797162201705e6 3.185441051050799e7 0.0
0.0 0.0 0.0

-1.240473851425935e7 7.514285520989862e6 0.0
7.514285520989862e6 1.5229067268279802e7 0.0
0.0 0.0 0.0

4.801270472851363e6 4.551265021342152e6 0.0
4.551265021342152e6 -1.5940157297469143e7 0.0
0.0 0.0 0.0

-1.0449844306015115e7 2.0745386307439994e7 0.0
2.0745386307439994e7 5.946358808381351e6 0.0
0.0 0.0 0.0

-3.52641333344719e6 1.366559154991302e7 0.0
1.366559154991302e7 -1.7395227817537475e7 0.0
0.0 0.0 0.0

-7.548271282349342e6 -8.308093521839717e6 0.0
-8.308093521839717e6 1.765670883378217e7 0.0
0.0 0.0 0.0

-1.0725903370008402e7 1.1668158622417753e6 0.0
1.1668158622417753e6 1.3541975112105265e7 0.0
0.0 0.0 0.0

-1.2908925256971259e7 5.452512553960353e6 0.0
5.452512553960353e6 2.211759253631769e7 0.0
0.0 0.0 0.0

-6.158364320376208e6 1.5922794273537576e7 0.0
1.5922794273537576e7 1.3072690626242908e7 0.0
0.0 0.0 0.0

2.2658503345687483e6 1.0577256442577971e7 0.0
1.0577256442577971e7 -1.7785847786243245e7 0.0
0.0 0.0 0.0

5.045433306312915e6 3.1736114664229956e6 0.0
3.1736114664229956e6 -3.750254789933071e7 0.0
0.0 0.0 0.0

5.324501190754834e6 3.3651495609615706e6 0.0
3.3651495609615706e6 -2.0100684294465426e7 0.0
0.0 0.0 0.0

2.664979217830543e6 2.541049676048466e7 0.0
2.541049676048466e7 -6.77222846433957e6 0.0
0.0 0.0 0.0

-9.199584014148245e6 -2.844111959586811e6 0.0
-2.844111959586811e6 4.046394093595605e7 0.0
0.0 0.0 0.0

4.1176520284605213e6 7.544458005390161e6 0.0
7.544458005390161e6 -2.425753813103099e7 0.0
0.0 0.0 0.0

-8.11387746179248e6 631137.8373375831 0.0
631137.8373375831 5.559950736236684e7 0.0
0.0 0.0 0.0

4.221890304627342e6 4.015993785446012e6 0.0
4.015993785446012e6 -4.28393819096443e7 0.0
0.0 0.0 0.0

-4.6932621295841e6 1.9783142554624602e7 0.0
1.9783142554624602e7 7.068979534692962e6 0.0
0.0 0.0 0.0

-657984.6887321568 1.0286614366003292e7 0.0
1.0286614366003292e7 -5.588056441830673e6 0.0
0.0 0.0 0.0

-825464.4096459649 1.4537819216963993e7 0.0
1.4537819216963993e7 -8.296511649345311e6 0.0
0.0 0.0 0.0

533812.5773924049 1.3609880294777507e7 0.0
1.3609880294777507e7 -1.3857401692118417e7 0.0
0.0 0.0 0.0

-8.701641050862692e6 -2.0894629729355867e6 0.0
-2.0894629729355867e6 4.463277239935178e7 0.0
0.0 0.0 0.0

5.038079319835003e6 3.0626349436760684e6 0.0
3.0626349436760684e6 -3.55895568078957e7 0.0
0.0 0.0 0.0

-1.2161481149986636e7 1.2244363896886513e7 0.0
1.2244363896886513e7 1.7080022288274575e7 0.0
0.0 0.0 0.0

-1.255825870234757e7 1.0695460432457186e7 0.0
1.0695460432457186e7 1.6180164006034961e7 0.0
0.0 0.0 0.0

-1.3030691185026687e7 6.724824739618365e6 0.0
6.724824739618365e6 1.968497088625653e7 0.0
0.0 0.0 0.0

-7.032710873647497e6 1.1633328438113187e7 0.0
1.1633328438113187e7 1.0540632313552778e7 0.0
0.0 0.0 0.0

-479810.0117039513 1.5948071197076483e7 0.0
1.5948071197076483e7 1.976444377063001e7 0.0
0.0 0.0 0.0

-1.6124370492393794e6 1.824653475207396e7 0.0
1.824653475207396e7 -4.371940922283177e6 0.0
0.0 0.0 0.0

-3.909467311342169e6 2.0670780551519796e7 0.0
2.0670780551519796e7 1.755484164206981e6 0.0
0.0 0.0 0.0

-2.266298670461364e6 1.9131597842810567e7 0.0
1.9131597842810567e7 -3.382125966029001e6 0.0
0.0 0.0 0.0

3.0935435776353097e6 9.001326738271588e6 0.0
9.001326738271588e6 -1.3563150793697704e7 0.0
0.0 0.0 0.0

-4.457327841970894e6 2.1465021869653817e7 0.0
2.1465021869653817e7 5.366893593097249e6 0.0
0.0 0.0 0.0

-748262.5985647084 1.5916570970160142e7 0.0
1.5916570970160142e7 -3.59101912140497e6 0.0
0.0 0.0 0.0

1.9289918950427724e6 1.1947355076372616e7 0.0
1.1947355076372616e7 -1.4250257140089901e7 0.0
0.0 0.0 0.0

-1.2184803280019877e7 1.0916559589075902e7 0.0
1.0916559589075902e7 2.0817654564405046e7 0.0
0.0 0.0 0.0

-1.2983303150421036e7 8.038022580106596e6 0.0
8.038022580106596e6 1.6913834024910137e7 0.0
0.0 0.0 0.0

3.01373940922781e6 8.38399471492424e6 0.0
8.38399471492424e6 -1.5545284396781819e7 0.0
0.0 0.0 0.0

-9.4432332612994e6 -5.930459211459801e6 0.0
-5.930459211459801e6 2.769019951241873e7 0.0
0.0 0.0 0.0

5.501403561988e6 3.0402465564885605e6 0.0
3.0402465564885605e6 -2.4810759218147747e7 0.0
0.0 0.0 0.0

-3.318209875422404e6 1.5986455923890138e7 0.0
1.5986455923890138e7 1.2974691323026411e7 0.0
0.0 0.0 0.0

-9.24880300206105e6 -3.205531594775759e6 0.0
-3.205531594775759e6 3.87229438668098e7 0.0
0.0 0.0 0.0

5.298438511100097e6 2.895903576116027e6 0.0
2.895903576116027e6 -3.167616270548355e7 0.0
0.0 0.0 0.0

5.461234135078587e6 3.030294891883635e6 0.0
3.030294891883635e6 -2.5412468269218437e7 0.0
0.0 0.0 0.0

-9.449432844676074e6 -5.650731749990801e6 0.0
-5.650731749990801e6 2.8700381866476376e7 0.0
0.0 0.0 0.0

-8.313769404910015e6 1.3782769414871402e7 0.0
1.3782769414871402e7 2.444457413341745e7 0.0
0.0 0.0 0.0

5.435170055396464e6 2.853953381322549e6 0.0
2.853953381322549e6 -3.0791470684320815e7 0.0
0.0 0.0 0.0

-9.268187119488675e6 -3.627834193234458e6 0.0
-3.627834193234458e6 3.700309001248118e7 0.0
0.0 0.0 0.0

-6.713693571622558e6 1.5967017979238635e7 0.0
1.5967017979238635e7 1.4278521636566807e7 0.0
0.0 0.0 0.0

-9.945531908417378e6 -3.814673039441174e6 0.0
-3.814673039441174e6 2.4728504014165472e7 0.0
0.0 0.0 0.0

-9.546357440424047e6 -5.322978155231004e6 0.0
-5.322978155231004e6 2.9891630421218008e7 0.0
0.0 0.0 0.0

5.611770177623918e6 2.9733824272890864e6 0.0
2.9733824272890864e6 -2.61554982885423e7 0.0
0.0 0.0 0.0

5.456397187003009e6 2.89442607877087e6 0.0
2.89442607877087e6 -2.987313089716354e7 0.0
0.0 0.0 0.0

-9.36005527932453e6 -3.9793700220667142e6 0.0
-3.9793700220667142e6 3.5538226373868905e7 0.0
0.0 0.0 0.0

-1.9209605980959862e8 4.4890772430305235e7 0.0
4.4890772430305235e7 -1.8722057154067047e7 0.0
0.0 0.0 0.0

1.516935177254522e8 2.774162243399263e7 0.0
2.774162243399263e7 8.442877335521124e6 0.0
0.0 0.0 0.0

-8.659335775100475e6 1.1357849728236258e7 0.0
1.1357849728236258e7 1.0552074414332708e7 0.0
0.0 0.0 0.0

5.377623047670592e6 2.868598496201971e6 0.0
2.868598496201971e6 -2.8992341762636285e7 0.0
0.0 0.0 0.0

-9.491520667767636e6 -4.200890750439865e6 0.0
-4.200890750439865e6 3.437564136651384e7 0.0
0.0 0.0 0.0

511506.84414881654 1.3161800859375784e7 0.0
1.3161800859375784e7 -1.9983986806160165e6 0.0
0.0 0.0 0.0

-1.2821895633971121e7 9.081724287427302e6 0.0
9.081724287427302e6 1.6338691970330734e7 0.0
0.0 0.0 0.0

-3.9461944361124337e6 1.9935409440716278e7 0.0
1.9935409440716278e7 3.587725965361234e6 0.0
0.0 0.0 0.0

-2.6143564407867547e6 1.6378508969767025e7 0.0
1.6378508969767025e7 1.355472778601309e7 0.0
0.0 0.0 0.0

-9.481340346819894e6 -4.438310257766231e6 0.0
-4.438310257766231e6 3.3155408991494603e7 0.0
0.0 0.0 0.0

5.508182724696584e6 2.8118804326072945e6 0.0
2.8118804326072945e6 -2.833593225444977e7 0.0
0.0 0.0 0.0

-2.3678217265336677e6 1.830271359464447e7 0.0
1.830271359464447e7 -4.158015627545979e6 0.0
0.0 0.0 0.0

-3.2271215919633927e6 1.4422847828421706e7 0.0
1.4422847828421706e7 -3.2901483952587437e7 0.0
0.0 0.0 0.0

-3.1897198071121247e6 2.024309856798115e7 0.0
2.024309856798115e7 -479934.22618778306 0.0
0.0 0.0 0.0

1.1545881355946134e6 1.3116999152165467e7 0.0
1.3116999152165467e7 -1.1949272059586316e7 0.0
0.0 0.0 0.0

1.2621657411499526e6 1.2365316087083416e7 0.0
1.2365316087083416e7 -1.6448233156126771e7 0.0
0.0 0.0 0.0

-877162.5631589533 1.5048606201226912e7 0.0
1.5048606201226912e7 3.4598434390901453e6 0.0
0.0 0.0 0.0

-1.336290781099111e6 1.8264796715946026e7 0.0
1.8264796715946026e7 -5.745300075125406e6 0.0
0.0 0.0 0.0

-881291.0723632174 1.688967970354715e7 0.0
1.688967970354715e7 -7.282833959426443e6 0.0
0.0 0.0 0.0

-1.838770908205633e6 1.331949270868842e7 0.0
1.331949270868842e7 -2.595002155466021e7 0.0
0.0 0.0 0.0

-3.4596285349302506e6 2.0505593133724015e7 0.0
2.0505593133724015e7 2.0123014660286198e6 0.0
0.0 0.0 0.0

-5.4181932865623785e6 1.759763747146244e7 0.0
1.759763747146244e7 7.231473240806937e6 0.0
0.0 0.0 0.0

-3.63588875815548e6 1.864582588227879e7 0.0
1.864582588227879e7 -5.685038711955686e6 0.0
0.0 0.0 0.0

1.0446829581906255e6 1.2658765407608882e7 0.0
1.2658765407608882e7 -1.6474053569159027e7 0.0
0.0 0.0 0.0

-1.1456326052613005e7 8.155150057875655e6 0.0
8.155150057875655e6 1.3730715904533556e7 0.0
0.0 0.0 0.0

547200.3307118313 1.4458244745195575e7 0.0
1.4458244745195575e7 5.742979911123293e6 0.0
0.0 0.0 0.0

-1.0950088014480365e7 9.71387129893845e6 0.0
9.71387129893845e6 1.3527634171265416e7 0.0
0.0 0.0 0.0

-2.324251234762219e6 1.4527261071014589e7 0.0
1.4527261071014589e7 -1.9059311981823398e6 0.0
0.0 0.0 0.0

-3.604362067362546e6 2.0361305961464353e7 0.0
2.0361305961464353e7 2.575952748274699e6 0.0
0.0 0.0 0.0

131094.02883330174 1.2762765277770469e7 0.0
1.2762765277770469e7 -1.960906638087727e7 0.0
0.0 0.0 0.0

-5.541337826896989e6 1.6166942510164015e7 0.0
1.6166942510164015e7 1.3525204586220674e7 0.0
0.0 0.0 0.0

-3.475349735173934e6 2.5064711384916373e7 0.0
2.5064711384916373e7 3.102200997634998e6 0.0
0.0 0.0 0.0

-3.14199575261328e6 1.4781294224687384e7 0.0
1.4781294224687384e7 -2.28006600339182e6 0.0
0.0 0.0 0.0

-2.7521327513273787e6 1.9113336299710255e7 0.0
1.9113336299710255e7 -2.636178031002045e6 0.0
0.0 0.0 0.0

6.256602920564694e6 1.7229359860027507e7 0.0
1.7229359860027507e7 7.232534599964791e6 0.0
0.0 0.0 0.0

-3.7897658581548464e6 2.016477167682607e7 0.0
2.016477167682607e7 3.0476385002204687e6 0.0
0.0 0.0 0.0

-9.69079679641987e6 1.0386214426630814e7 0.0
1.0386214426630814e7 4.814865264974065e6 0.0
0.0 0.0 0.0

-3.3293291130163716e6 2.163605338171367e7 0.0
2.163605338171367e7 2.3560482550263237e6 0.0
0.0 0.0 0.0

5.030677344596086e6 3.667239963350939e6 0.0
3.667239963350939e6 -1.6560420344189689e7 0.0
0.0 0.0 0.0

5.015316409233389e6 3.728219390181487e6 0.0
3.728219390181487e6 -1.6084432681500213e7 0.0
0.0 0.0 0.0

-2.513146169783865e6 1.8737219583186276e7 0.0
1.8737219583186276e7 -3.2600900947976583e6 0.0
0.0 0.0 0.0

-2.3303763393548876e6 1.6246397854685102e7 0.0
1.6246397854685102e7 1.6809045716960948e7 0.0
0.0 0.0 0.0

-3.086720214210651e6 2.2125690871301517e7 0.0
2.2125690871301517e7 2.1285127247357555e6 0.0
0.0 0.0 0.0

-1.298748131818613e7 6.762573288715678e6 0.0
6.762573288715678e6 1.8496825958861087e7 0.0
0.0 0.0 0.0

-3.1224144371188357e6 2.3728816097520594e7 0.0
2.3728816097520594e7 2.635891992244023e6 0.0
0.0 0.0 0.0

-4.0394020617700703e6 1.625818423273153e7 0.0
1.625818423273153e7 8.34881182851721e6 0.0
0.0 0.0 0.0

-841513.7798785614 1.2448344308047812e7 0.0
1.2448344308047812e7 2.8150158458007e6 0.0
0.0 0.0 0.0

2.8383031184461415e6 1.035218902810338e7 0.0
1.035218902810338e7 -1.849907990990436e7 0.0
0.0 0.0 0.0

-4.563484924448714e6 1.988453274555793e7 0.0
1.988453274555793e7 3.8311083108281204e6 0.0
0.0 0.0 0.0

-7.457234789976777e6 -5.180972709754818e6 0.0
-5.180972709754818e6 1.4610206536526427e7 0.0
0.0 0.0 0.0

-8.721391736843083e6 1.2817552867322473e7 0.0
1.2817552867322473e7 2.544501132939571e7 0.0
0.0 0.0 0.0

-1.2577731605834942e6 1.3040036708696015e7 0.0
1.3040036708696015e7 -2.9338295002137385e7 0.0
0.0 0.0 0.0

-1.2377798121431816e7 7.93189387504985e6 0.0
7.93189387504985e6 2.1208140405866403e7 0.0
0.0 0.0 0.0

1.3807409880958158e6 1.863510410433643e7 0.0
1.863510410433643e7 -5.141926955675667e6 0.0
0.0 0.0 0.0

2.622344226474154e6 1.0753234626431312e7 0.0
1.0753234626431312e7 -1.66145868044346e7 0.0
0.0 0.0 0.0

-3.408066378294863e6 1.448847182277169e7 0.0
1.448847182277169e7 -1.674311947181935e6 0.0
0.0 0.0 0.0

-3.017383193660682e6 1.990091874995917e7 0.0
1.990091874995917e7 -1.1715908428896645e6 0.0
0.0 0.0 0.0

245815.8484711293 1.2858690173598154e7 0.0
1.2858690173598154e7 -4.758949349985469e6 0.0
0.0 0.0 0.0

-1.1826180327928463e7 7.438562842619302e6 0.0
7.438562842619302e6 1.7242866233129926e7 0.0
0.0 0.0 0.0

-1.2401392186163798e7 9.895806908643683e6 0.0
9.895806908643683e6 2.0688369722180266e7 0.0
0.0 0.0 0.0

-2.884875838717282e6 1.9509882758480582e7 0.0
1.9509882758480582e7 -1.9015787823700728e6 0.0
0.0 0.0 0.0

-7.697773294757321e6 1.0700945710123766e7 0.0
1.0700945710123766e7 1.1680100835662713e7 0.0
0.0 0.0 0.0

5.150049907887949e6 4.776646579699108e6 0.0
4.776646579699108e6 -2.4729165938902833e7 0.0
0.0 0.0 0.0

-7.577358558833551e6 1.3315532848159881e7 0.0
1.3315532848159881e7 9.377570716424737e6 0.0
0.0 0.0 0.0

-155793.28866253374 1.3172824622239305e7 0.0
1.3172824622239305e7 -8.614530608722452e6 0.0
0.0 0.0 0.0

281654.3903924104 1.331361327821174e7 0.0
1.331361327821174e7 235646.45923035778 0.0
0.0 0.0 0.0

-1.9020644380713722e6 1.601942536559077e7 0.0
1.601942536559077e7 -7.581152446794979e6 0.0
0.0 0.0 0.0

-1.8992585743864416e6 1.4522057691826595e7 0.0
1.4522057691826595e7 -5.285268988129631e6 0.0
0.0 0.0 0.0

1.0627377262176368e6 1.2706595301352432e7 0.0
1.2706595301352432e7 -1.5555660321905235e7 0.0
0.0 0.0 0.0

3.6569032526218407e6 7.515947948710852e6 0.0
7.515947948710852e6 -1.9069592900508683e7 0.0
0.0 0.0 0.0

33616.88567850739 1.3001230774805263e7 0.0
1.3001230774805263e7 -6.752230483812546e6 0.0
0.0 0.0 0.0

2.4357757988836477e6 9.319838242500138e6 0.0
9.319838242500138e6 -1.4066780041864283e7 0.0
0.0 0.0 0.0

4.346954094890242e6 4.647587353891936e6 0.0
4.647587353891936e6 -1.351950355574299e7 0.0
0.0 0.0 0.0

-4.220378754794564e6 2.0349588622453697e7 0.0
2.0349588622453697e7 2.7500297039662316e6 0.0
0.0 0.0 0.0

-603169.0983287315 1.0646861729285456e7 0.0
1.0646861729285456e7 -6.39847846940511e6 0.0
0.0 0.0 0.0

-5.581335321550847e6 1.6004233027649878e7 0.0
1.6004233027649878e7 1.250053726408213e7 0.0
0.0 0.0 0.0

-3.381006861953168e6 -2.5450580144529147e6 0.0
-2.5450580144529147e6 6.910877248769243e6 0.0
0.0 0.0 0.0

1.8487996738195084e6 1.473501602522724e7 0.0
1.473501602522724e7 141490.52569028002 0.0
0.0 0.0 0.0

-2.7674532491391124e6 1.6412357355321553e7 0.0
1.6412357355321553e7 -6.785522894405251e6 0.0
0.0 0.0 0.0

3.2913598128680205e6 7.867487860668273e6 0.0
7.867487860668273e6 -1.6238562564889053e7 0.0
0.0 0.0 0.0

-7.351384981823754e7 1.1756183127311444e7 0.0
1.1756183127311444e7 8.68773084614601e6 0.0
0.0 0.0 0.0

-8.034283974107849e6 1.5219864531398736e7 0.0
1.5219864531398736e7 1.5400258416725714e7 0.0
0.0 0.0 0.0

179009.58854031842 1.4862727137154408e7 0.0
1.4862727137154408e7 -1.0350329675225658e7 0.0
0.0 0.0 0.0

-1.2179629216273348e6 1.3479528277264616e7 0.0
1.3479528277264616e7 -6.500915817294376e6 0.0
0.0 0.0 0.0

2.1907228835048825e6 1.1530260714522567e7 0.0
1.1530260714522567e7 -1.7021049391789727e7 0.0
0.0 0.0 0.0

-636316.6067759129 1.4972221909018787e7 0.0
1.4972221909018787e7 6.2863137868038295e6 0.0
0.0 0.0 0.0

2.5284289071315955e6 1.06119849094705e7 0.0
1.06119849094705e7 -2.0629600439139098e7 0.0
0.0 0.0 0.0

-445109.58964110306 1.521746710402696e7 0.0
1.521746710402696e7 7.4196154096473865e6 0.0
0.0 0.0 0.0

223532.6877214834 1.3656693983101465e7 0.0
1.3656693983101465e7 -1.1418723476523025e7 0.0
0.0 0.0 0.0

3.992255346896544e6 7.695472432682722e6 0.0
7.695472432682722e6 -1.7085926623940524e7 0.0
0.0 0.0 0.0

5.1921824526276775e6 3.526601055055076e6 0.0
3.526601055055076e6 -2.7954236317072656e7 0.0
0.0 0.0 0.0

-776312.566726329 1.9893143169778444e7 0.0
1.9893143169778444e7 -4.1857987848738073e6 0.0
0.0 0.0 0.0

2.772558068814898e6 1.0442393835499082e7 0.0
1.0442393835499082e7 -1.9584948374410912e7 0.0
0.0 0.0 0.0

-4.581322416422954e6 2.1040140624898158e7 0.0
2.1040140624898158e7 5.782615310920906e6 0.0
0.0 0.0 0.0

-4.91466871912892e6 1.6962078528835718e7 0.0
1.6962078528835718e7 1.2919556014430237e6 0.0
0.0 0.0 0.0

2.577655782488381e6 7.22182144097103e6 0.0
7.22182144097103e6 -8.968829379087096e6 0.0
0.0 0.0 0.0

-3.93913688789354e6 2.563252510575688e7 0.0
2.563252510575688e7 3.354604016738683e6 0.0
0.0 0.0 0.0

3.5543258296875954e6 8.392171490575308e6 0.0
8.392171490575308e6 -1.5375921201051297e7 0.0
0.0 0.0 0.0

-4.702224675879557e6 1.4959906990557464e7 0.0
1.4959906990557464e7 2.446280507127207e7 0.0
0.0 0.0 0.0

-511922.48745792126 1.5191094790914169e7 0.0
1.5191094790914169e7 579048.0092713973 0.0
0.0 0.0 0.0

-6.303480972462693e6 2.1845854215945743e7 0.0
2.1845854215945743e7 6.446832665038075e6 0.0
0.0 0.0 0.0

-9.90750061284015e6 8.955321694807671e6 0.0
8.955321694807671e6 1.4915008175149187e7 0.0
0.0 0.0 0.0

1.8821782736738985e6 1.1342897130463056e7 0.0
1.1342897130463056e7 -1.7121057450076595e7 0.0
0.0 0.0 0.0

-1.6314602174652908e6 9.144795899571335e6 0.0
9.144795899571335e6 -3.0023838382660626e6 0.0
0.0 0.0 0.0

-1.350202704259383e6 1.4945104343796073e7 0.0
1.4945104343796073e7 -4.616058288599063e6 0.0
0.0 0.0 0.0

6.566303863041284e6 1.5286681911118489e7 0.0
1.5286681911118489e7 -536778.6017181412 0.0
0.0 0.0 0.0

346682.5377893471 1.481054264601186e7 0.0
1.481054264601186e7 -1.1484703366951134e7 0.0
0.0 0.0 0.0

1.0425404320982026e6 7.9256186504293345e6 0.0
7.9256186504293345e6 -5.480011988536933e6 0.0
0.0 0.0 0.0

1.4442794354127059e6 1.2032765951990964e7 0.0
1.2032765951990964e7 -1.6376166115159933e7 0.0
0.0 0.0 0.0

-8.869379410928838e6 -5.74513968026586e6 0.0
-5.74513968026586e6 2.0576128914104477e7 0.0
0.0 0.0 0.0

-5.670592575223725e6 1.659794791031982e7 0.0
1.659794791031982e7 1.1522812319854962e7 0.0
0.0 0.0 0.0

-1.289494564912692e7 9.707267108389985e6 0.0
9.707267108389985e6 1.6890440715498194e7 0.0
0.0 0.0 0.0

-1.1048156465143591e7 2.0979067596213695e7 0.0
2.0979067596213695e7 1.5882382110217582e6 0.0
0.0 0.0 0.0

-1.6439727622893685e6 1.3364323699574035e7 0.0
1.3364323699574035e7 -2.5252644228394166e7 0.0
0.0 0.0 0.0

-4.6289382002231795e6 1.9332404163545154e7 0.0
1.9332404163545154e7 6.68481083259591e6 0.0
0.0 0.0 0.0

-5.071239848367933e6 2.0035180312658478e7 0.0
2.0035180312658478e7 6.691891323244093e6 0.0
0.0 0.0 0.0

-667189.714873015 1.6992807884489335e7 0.0
1.6992807884489335e7 -7.550226617469658e6 0.0
0.0 0.0 0.0

-163625.39871097915 1.234565596674555e7 0.0
1.234565596674555e7 -2.63825655428043e7 0.0
0.0 0.0 0.0

-5.235174123273032e6 1.5818936888155572e7 0.0
1.5818936888155572e7 1.2414658475218596e7 0.0
0.0 0.0 0.0

-1.1631437330351377e7 2.5036989356390196e6 0.0
2.5036989356390196e6 2.969592744078895e7 0.0
0.0 0.0 0.0

2.5106436078076363e6 3.8623314143501325e6 0.0
3.8623314143501325e6 -6.903485745164398e6 0.0
0.0 0.0 0.0

106916.30908551533 1.3491593798478577e7 0.0
1.3491593798478577e7 -1.523940627804204e7 0.0
0.0 0.0 0.0

-1.1729045321913003e6 1.7744566087874785e7 0.0
1.7744566087874785e7 -6.484757708318059e6 0.0
0.0 0.0 0.0

-2.528962641514269e6 1.5222244647744335e7 0.0
1.5222244647744335e7 -1.5739224769966742e6 0.0
0.0 0.0 0.0

-361415.4916252983 1.2681136901520131e7 0.0
1.2681136901520131e7 -8.184574567985007e6 0.0
0.0 0.0 0.0

-4.218800233048738e6 1.3860510281590072e7 0.0
1.3860510281590072e7 -2.011311272092801e7 0.0
0.0 0.0 0.0

-1.301666731484048e7 8.80825646273617e6 0.0
8.80825646273617e6 1.929910545510612e7 0.0
0.0 0.0 0.0

-2.6397573879622146e6 2.191923312162008e7 0.0
2.191923312162008e7 1.0705355774584394e6 0.0
0.0 0.0 0.0

-1.6734426778081944e7 1.9667879820527717e7 0.0
1.9667879820527717e7 5.930221806150054e6 0.0
0.0 0.0 0.0

2.0227892095894327e6 1.5106000564325577e7 0.0
1.5106000564325577e7 292161.60204391 0.0
0.0 0.0 0.0

2.175694592499349e6 7.091644791849121e6 0.0
7.091644791849121e6 -1.0240193559538875e7 0.0
0.0 0.0 0.0

-2.742419899559318e6 1.4921656497775083e7 0.0
1.4921656497775083e7 -979828.02023645 0.0
0.0 0.0 0.0

-1.2231290164759368e7 6.679095491887587e6 0.0
6.679095491887587e6 2.3570445327443004e7 0.0
0.0 0.0 0.0

-5.105458446473775e6 2.219991887616932e7 0.0
2.219991887616932e7 5.560106276447493e6 0.0
0.0 0.0 0.0

-5.985114688604831e6 1.5777206227312542e7 0.0
1.5777206227312542e7 1.3290365752870424e7 0.0
0.0 0.0 0.0

-3.6833048346657986e6 2.077779392959261e7 0.0
2.077779392959261e7 1.2858463603541811e6 0.0
0.0 0.0 0.0

529405.9006895716 1.327763273284319e7 0.0
1.327763273284319e7 -1.2194258267125983e7 0.0
0.0 0.0 0.0

-1.2525762036709039e7 8.577736964753909e6 0.0
8.577736964753909e6 2.2544554487439487e7 0.0
0.0 0.0 0.0

371868.03041932546 1.3824118330724914e7 0.0
1.3824118330724914e7 -1.384589392587593e7 0.0
0.0 0.0 0.0

-2.963548611215894e6 1.6914129914862204e7 0.0
1.6914129914862204e7 -2.415877539194376e6 0.0
0.0 0.0 0.0

-2.693762972700532e6 2.220247710257187e7 0.0
2.220247710257187e7 1.0918157872631736e6 0.0
0.0 0.0 0.0

3.96848690327511e6 5.340811344525597e6 0.0
5.340811344525597e6 -1.408910081568027e7 0.0
0.0 0.0 0.0

332799.50751342904 1.6410746915541807e7 0.0
1.6410746915541807e7 -7.447856252145122e6 0.0
0.0 0.0 0.0

-4.545128627663458e6 1.9238702482172407e7 0.0
1.9238702482172407e7 6.0683927689591795e6 0.0
0.0 0.0 0.0

-1.0864210790945027e7 7.907867447557667e6 0.0
7.907867447557667e6 1.5918240375871357e7 0.0
0.0 0.0 0.0

-2.371387883176743e6 1.794226279377608e7 0.0
1.794226279377608e7 -5.3878232673265645e6 0.0
0.0 0.0 0.0

-1.2824088462518409e7 1.0803215404612217e7 0.0
1.0803215404612217e7 1.8701381733375743e7 0.0
0.0 0.0 0.0

-1.874294537982583e6 4.395681922098787e6 0.0
4.395681922098787e6 5.124339882344326e6 0.0
0.0 0.0 0.0

-4.611153152219607e6 1.875650735903711e7 0.0
1.875650735903711e7 6.049739218124596e6 0.0
0.0 0.0 0.0

-1.3064414962502476e7 6.997334257083723e6 0.0
6.997334257083723e6 1.7434462105353735e7 0.0
0.0 0.0 0.0

-6.463831359076131e6 1.5908795377231732e7 0.0
1.5908795377231732e7 8.80521492552657e6 0.0
0.0 0.0 0.0

443846.6693614358 1.566156440044413e7 0.0
1.566156440044413e7 1.5771811378549274e7 0.0
0.0 0.0 0.0

397425.91678710934 1.2133494895057635e7 0.0
1.2133494895057635e7 -2.374915002868305e7 0.0
0.0 0.0 0.0

-3.4351474460677635e6 -2.022442905253633e6 0.0
-2.022442905253633e6 6.302345121649667e6 0.0
0.0 0.0 0.0

1.611131247577793e6 1.9901498065761697e7 0.0
1.9901498065761697e7 -4.677508937599402e6 0.0
0.0 0.0 0.0

-1.2270793610250913e7 6.911779330936059e6 0.0
6.911779330936059e6 2.0829178157363378e7 0.0
0.0 0.0 0.0

772481.5406235564 1.1187019310202183e7 0.0
1.1187019310202183e7 -1.0075701178988222e7 0.0
0.0 0.0 0.0

-4.301533107075934e6 1.5797524132488098e7 0.0
1.5797524132488098e7 1.0566447309055146e7 0.0
0.0 0.0 0.0

-1.1085876124068242e6 1.4304400563576037e7 0.0
1.4304400563576037e7 -4.949298478035118e6 0.0
0.0 0.0 0.0

-6.908704155110846e6 1.6126788424938036e7 0.0
1.6126788424938036e7 1.2414423469645947e7 0.0
0.0 0.0 0.0

351855.55352221755 9.481575627352426e6 0.0
9.481575627352426e6 -6.079904423301828e6 0.0
0.0 0.0 0.0

-5.395240645497878e6 1.8169040747004833e7 0.0
1.8169040747004833e7 5.466399149929147e6 0.0
0.0 0.0 0.0

-6.444349468329975e6 1.6043196643661663e7 0.0
1.6043196643661663e7 9.444895867891882e6 0.0
0.0 0.0 0.0

52216.24394583143 1.6335748205765849e7 0.0
1.6335748205765849e7 -8.180116471468035e6 0.0
0.0 0.0 0.0

-4.843487485010682e6 1.930987982865618e7 0.0
1.930987982865618e7 5.064641707280861e6 0.0
0.0 0.0 0.0

-3.012030373150343e6 2.2505924059856664e7 0.0
2.2505924059856664e7 2.3019521717384523e6 0.0
0.0 0.0 0.0

565400.8824970871 1.2165156488234775e7 0.0
1.2165156488234775e7 -2.1007024710906386e7 0.0
0.0 0.0 0.0

1.7261245127103815e6 3.6447407047347566e6 0.0
3.6447407047347566e6 -3.828073945400971e6 0.0
0.0 0.0 0.0

-2.7638868503606683e6 2.799392557339977e6 0.0
2.799392557339977e6 1.512505016234367e6 0.0
0.0 0.0 0.0

4.87979840035668e6 4.542730519852634e6 0.0
4.542730519852634e6 -3.446607483217667e7 0.0
0.0 0.0 0.0

-1.7249341152261104e6 1.7664647454682317e7 0.0
1.7664647454682317e7 -4.368136520178099e6 0.0
0.0 0.0 0.0

-6.638828172858859e6 1.5651004978738781e7 0.0
1.5651004978738781e7 1.3938916217009002e7 0.0
0.0 0.0 0.0

-1.2651288195603475e7 8.238148550351395e6 0.0
8.238148550351395e6 1.5763807041337207e7 0.0
0.0 0.0 0.0

-4.497846890479877e6 2.6278036965329073e7 0.0
2.6278036965329073e7 3.5599338476870987e6 0.0
0.0 0.0 0.0

-1.2869156961384041e7 5.4771668509686645e6 0.0
5.4771668509686645e6 2.0558844700081773e7 0.0
0.0 0.0 0.0

1.6335514395686008e7 4.215452954246908e7 0.0
4.215452954246908e7 -9.605845180696988e6 0.0
0.0 0.0 0.0

-997995.8448342462 1.6157691241748152e7 0.0
1.6157691241748152e7 -8.516635127345677e6 0.0
0.0 0.0 0.0

1.648303331297135e6 1.2325361769718178e7 0.0
1.2325361769718178e7 -1.3464901405922856e7 0.0
0.0 0.0 0.0

-5.398721408780243e6 1.6230012278692642e7 0.0
1.6230012278692642e7 1.1605059325577866e7 0.0
0.0 0.0 0.0

-1.291831803818721e7 7.801888751974113e6 0.0
7.801888751974113e6 2.1362910165267214e7 0.0
0.0 0.0 0.0

-1.235716266976222e6 1.730005556463403e7 0.0
1.730005556463403e7 -6.040864838591873e6 0.0
0.0 0.0 0.0

-124594.45346500573 1.3629150905836532e7 0.0
1.3629150905836532e7 2.45524213479309e6 0.0
0.0 0.0 0.0

5.131552705132953e6 3.7661711509922156e6 0.0
3.7661711509922156e6 -2.2743611542993687e7 0.0
0.0 0.0 0.0

-5.454598557352039e6 6.37986120092661e6 0.0
6.37986120092661e6 7.744758199712288e6 0.0
0.0 0.0 0.0

-5.960754416148697e6 2.8069825555844262e7 0.0
2.8069825555844262e7 4.323514373990824e6 0.0
0.0 0.0 0.0

-7.9222143925506305e6 1.5625575815365622e7 0.0
1.5625575815365622e7 1.4944841636394525e7 0.0
0.0 0.0 0.0

-284357.8115569055 1.3629759144233964e7 0.0
1.3629759144233964e7 -1.2990577251073062e7 0.0
0.0 0.0 0.0

2.7892661431455947e6 1.5238581473135917e7 0.0
1.5238581473135917e7 3.99980232402181e6 0.0
0.0 0.0 0.0

-5.807754805711901e6 3.04535614077352e6 0.0
3.04535614077352e6 7.385044315438239e6 0.0
0.0 0.0 0.0

-4.181738403270794e6 8.763280128035925e6 0.0
8.763280128035925e6 1.5592945869236623e6 0.0
0.0 0.0 0.0

-333153.6160172443 1.3293167414988864e7 0.0
1.3293167414988864e7 -1.0359476506279066e7 0.0
0.0 0.0 0.0

119657.88562164456 1.3390362011152368e7 0.0
1.3390362011152368e7 -8.050691994600239e6 0.0
0.0 0.0 0.0

-8.374136476875658e6 1.4540426923881782e7 0.0
1.4540426923881782e7 1.216424341503619e7 0.0
0.0 0.0 0.0

32347.923353107646 1.3308787186942702e7 0.0
1.3308787186942702e7 -1.6096917409293022e7 0.0
0.0 0.0 0.0

2.6334857370928545e6 1.0755685308861587e7 0.0
1.0755685308861587e7 -1.7661811048686195e7 0.0
0.0 0.0 0.0

-4.699673121212498e6 1.937535443956213e7 0.0
1.937535443956213e7 7.173843442266928e6 0.0
0.0 0.0 0.0

996642.3790227845 1.3594144432724196e7 0.0
1.3594144432724196e7 -1.3867934829687215e7 0.0
0.0 0.0 0.0

-1.2279863126426265e7 9.020038444026615e6 0.0
9.020038444026615e6 1.82454639413803e7 0.0
0.0 0.0 0.0

3.6318801378973452e6 5.360885864327333e6 0.0
5.360885864327333e6 -1.0772633954262303e7 0.0
0.0 0.0 0.0

-2.007080261199392e7 2.4236605652424175e7 0.0
2.4236605652424175e7 -2.4761688516083183e6 0.0
0.0 0.0 0.0

1.7757575227698921e6 6.679473394211204e6 0.0
6.679473394211204e6 -8.645082973963786e6 0.0
0.0 0.0 0.0

3.8463310353310346e6 3.7505047148615317e6 0.0
3.7505047148615317e6 -1.0802849597174972e7 0.0
0.0 0.0 0.0

-5.172592418239029e6 1.9946415489489153e7 0.0
1.9946415489489153e7 7.039370588060269e6 0.0
0.0 0.0 0.0

1.0972186296859346e6 1.274740804284109e7 0.0
1.274740804284109e7 3.657395861682262e6 0.0
0.0 0.0 0.0

2.186848156240697e6 1.5645025799731787e7 0.0
1.5645025799731787e7 -3.4309261791869337e6 0.0
0.0 0.0 0.0

-9.157004246044982e6 1.4729270392795144e7 0.0
1.4729270392795144e7 1.760974772569369e7 0.0
0.0 0.0 0.0

-6.250888152449263e6 1.5485870010629289e7 0.0
1.5485870010629289e7 1.7894680138833582e7 0.0
0.0 0.0 0.0

4.1373573716285564e6 1.4367160668004446e7 0.0
1.4367160668004446e7 3.023884844258608e7 0.0
0.0 0.0 0.0

137393.8767657613 1.441824538287923e7 0.0
1.441824538287923e7 -2.839123305657927e6 0.0
0.0 0.0 0.0

-6.10604574209571e6 1.6168854325675473e7 0.0
1.6168854325675473e7 1.2464216955515072e7 0.0
0.0 0.0 0.0

-7.040553914741343e6 1.3980405385098327e7 0.0
1.3980405385098327e7 8.368645395215735e6 0.0
0.0 0.0 0.0

-457213.7819679952 1.3398307819737809e7 0.0
1.3398307819737809e7 -1.2053648285894396e7 0.0
0.0 0.0 0.0

-4.926746471758163e6 1.948101204772154e7 0.0
1.948101204772154e7 5.675890739907029e6 0.0
0.0 0.0 0.0

-1.3037989966809515e7 7.731147129797398e6 0.0
7.731147129797398e6 2.0045867642882675e7 0.0
0.0 0.0 0.0

4.539953972673675e6 1.879415063735168e7 0.0
1.879415063735168e7 -4.898605915377117e6 0.0
0.0 0.0 0.0

-738832.9888760704 1.6462342073616084e7 0.0
1.6462342073616084e7 -7.694433125956539e6 0.0
0.0 0.0 0.0

3.6768980338795166e6 6.675392424602953e6 0.0
6.675392424602953e6 -1.6120075034126941e7 0.0
0.0 0.0 0.0

489380.1649623194 1.7501328371553067e7 0.0
1.7501328371553067e7 -5.796164684785153e6 0.0
0.0 0.0 0.0

-2.927476166493193e6 1.9990601954350993e7 0.0
1.9990601954350993e7 152520.07980882342 0.0
0.0 0.0 0.0

-2.859052499478043e6 1.3364964411158789e7 0.0
1.3364964411158789e7 -9.530177021517573e6 0.0
0.0 0.0 0.0

5.692029469033481e6 1.687529734478591e7 0.0
1.687529734478591e7 1.897344024392653e7 0.0
0.0 0.0 0.0

-1.0448402642090395e7 -3.4636924848651467e6 0.0
-3.4636924848651467e6 2.8896031958428822e7 0.0
0.0 0.0 0.0

-331730.09202059405 1.5084070264037788e7 0.0
1.5084070264037788e7 4.403289456159893e6 0.0
0.0 0.0 0.0

-9.387653163010981e6 -5.67512175445113e6 0.0
-5.67512175445113e6 2.2417109657795135e7 0.0
0.0 0.0 0.0

-2.333481291942861e6 2.0265289948831882e7 0.0
2.0265289948831882e7 -1.1190121032170795e6 0.0
0.0 0.0 0.0

-711276.4833402772 1.925866750644498e7 0.0
1.925866750644498e7 -4.763953738632865e6 0.0
0.0 0.0 0.0

-5.193147580425268e6 2.7059729276713353e7 0.0
2.7059729276713353e7 3.648420520959086e6 0.0
0.0 0.0 0.0

1.5635428635387039e6 1.5748809981163727e7 0.0
1.5748809981163727e7 7.73589191584226e6 0.0
0.0 0.0 0.0

-1.2305481321006207e7 6.800407605829346e6 0.0
6.800407605829346e6 2.2138727692796253e7 0.0
0.0 0.0 0.0

-2.5044565033885944e6 2.063879621354145e7 0.0
2.063879621354145e7 -360183.3702895598 0.0
0.0 0.0 0.0

-6.17989882337548e6 1.6626921940153314e7 0.0
1.6626921940153314e7 8.617458872189948e6 0.0
0.0 0.0 0.0

-5.073520644587159e6 1.8492534209727496e7 0.0
1.8492534209727496e7 5.6412740201992e6 0.0
0.0 0.0 0.0

3.9059176477774084e6 7.843903214964158e6 0.0
7.843903214964158e6 -2.5801776362555366e7 0.0
0.0 0.0 0.0

-4.797314894766071e6 1.9311571648896575e7 0.0
1.9311571648896575e7 7.701518882701789e6 0.0
0.0 0.0 0.0

7.352597188437289e6 1.3629728495171582e7 0.0
1.3629728495171582e7 3.597341866890247e6 0.0
0.0 0.0 0.0

2.3918327212369284e6 1.1177251477037946e7 0.0
1.1177251477037946e7 -1.5816458576632872e7 0.0
0.0 0.0 0.0

-9.841718009437002e6 626796.9977427409 0.0
626796.9977427409 4.253622102086983e7 0.0
0.0 0.0 0.0

-3.176748802787728e6 2.1399560179748412e7 0.0
2.1399560179748412e7 1.8347056472229753e6 0.0
0.0 0.0 0.0

666769.294560107 1.5391227264454098e7 0.0
1.5391227264454098e7 3.893429951177664e6 0.0
0.0 0.0 0.0

-6.391813932881837e7 5.271885367909003e7 0.0
5.271885367909003e7 -1.3017150213073354e7 0.0
0.0 0.0 0.0

4.04504887888282e6 4.743668730427232e6 0.0
4.743668730427232e6 -1.363755894679968e7 0.0
0.0 0.0 0.0

-2.9222055768778957e6 1.56149026492296e7 0.0
1.56149026492296e7 -655400.9343532434 0.0
0.0 0.0 0.0

-1.117412851790924e7 2.0196852794748716e7 0.0
2.0196852794748716e7 4.573681865282027e6 0.0
0.0 0.0 0.0

78946.50315880822 1.4928103579401998e7 0.0
1.4928103579401998e7 -1.079701625528751e7 0.0
0.0 0.0 0.0

-935810.334957497 1.6091288138689453e7 0.0
1.6091288138689453e7 -8.960578905543381e6 0.0
0.0 0.0 0.0

5.11140768544179e6 1.5967815431658972e7 0.0
1.5967815431658972e7 -2.2461203209677655e6 0.0
0.0 0.0 0.0

-3.9952283615621217e6 2.391249339865833e7 0.0
2.391249339865833e7 4.070296797080229e6 0.0
0.0 0.0 0.0

-1.7846442610601385e6 1.6564331693441238e7 0.0
1.6564331693441238e7 -6.652072003204342e6 0.0
0.0 0.0 0.0

4.99965698673352e6 5.1467373338713525e6 0.0
5.1467373338713525e6 -2.6978489993611656e7 0.0
0.0 0.0 0.0

-1.6840028820669957e7 2.1820531107750043e7 0.0
2.1820531107750043e7 -1.9964618776081866e6 0.0
0.0 0.0 0.0

-5.7303665118484795e6 1.6229521743421119e7 0.0
1.6229521743421119e7 9.301083651588699e6 0.0
0.0 0.0 0.0

-654755.4346464762 1.8656829529157743e7 0.0
1.8656829529157743e7 -5.327644580473731e6 0.0
0.0 0.0 0.0

-5.161711762525868e6 1.496841385399643e7 0.0
1.496841385399643e7 2.277322755622126e7 0.0
0.0 0.0 0.0

6.3399464287604345e6 1.7264361492361158e7 0.0
1.7264361492361158e7 -5.220421083777774e6 0.0
0.0 0.0 0.0

-5.223193421716891e6 1.8076273930953257e7 0.0
1.8076273930953257e7 9.199362496776987e6 0.0
0.0 0.0 0.0

-508370.7750915205 1.38691561554878e7 0.0
1.38691561554878e7 -8.772175563598631e6 0.0
0.0 0.0 0.0

1.6334222676061704e6 9.484563839677254e6 0.0
9.484563839677254e6 3.6895937964525064e6 0.0
0.0 0.0 0.0

763243.4528307468 1.6317655605087213e7 0.0
1.6317655605087213e7 -6.666565091337665e6 0.0
0.0 0.0 0.0

-8.725647214791153e6 1.5379080258553335e7 0.0
1.5379080258553335e7 1.6166814560711e7 0.0
0.0 0.0 0.0

-9.40359715306369e6 3.959545923621707e6 0.0
3.959545923621707e6 4.470918379061725e7 0.0
0.0 0.0 0.0

-9.109121158015275e6 -820834.5336832781 0.0
-820834.5336832781 4.730816559496932e7 0.0
0.0 0.0 0.0

-1.0861751945823107e6 1.5135841320227215e7 0.0
1.5135841320227215e7 -7.75373852664553e6 0.0
0.0 0.0 0.0

143172.36253951397 1.555711389880783e7 0.0
1.555711389880783e7 -9.453392725542104e6 0.0
0.0 0.0 0.0

-821075.7204410182 1.6062204750175262e7 0.0
1.6062204750175262e7 -9.154611716054093e6 0.0
0.0 0.0 0.0

-6.273593338749348e6 1.8151363271250807e7 0.0
1.8151363271250807e7 -1.6843436577556422e6 0.0
0.0 0.0 0.0

8.579059392634382e6 1.5623955989505637e7 0.0
1.5623955989505637e7 4.379500002024595e6 0.0
0.0 0.0 0.0

-8.313172847095521e6 1.5418381750848562e7 0.0
1.5418381750848562e7 1.438498393436217e7 0.0
0.0 0.0 0.0

-618325.232623037 1.5987325087889992e7 0.0
1.5987325087889992e7 -9.287807789848944e6 0.0
0.0 0.0 0.0

-644243.5543029201 1.3315194818530953e7 0.0
1.3315194818530953e7 -7.892273825522864e6 0.0
0.0 0.0 0.0

-6.9409600021940395e6 -3.9569987296787575e6 0.0
-3.9569987296787575e6 1.2952457266305089e7 0.0
0.0 0.0 0.0

1.6302221841311073e6 1.132774490552406e7 0.0
1.132774490552406e7 -2.0891706161707267e7 0.0
0.0 0.0 0.0

-1.096763839590796e7 -2.928377852889467e6 0.0
-2.928377852889467e6 2.1575511580554973e7 0.0
0.0 0.0 0.0

-5.350869342901473e6 -8.481595313605523e6 0.0
-8.481595313605523e6 1.3787920030987173e7 0.0
0.0 0.0 0.0

-5.382141810930992e6 -8.335038598121567e6 0.0
-8.335038598121567e6 1.3549404067723064e7 0.0
0.0 0.0 0.0

-3.6559213391993176e6 8.751547422878012e6 0.0
8.751547422878012e6 3.3353714504459035e6 0.0
0.0 0.0 0.0

829139.7371506812 1.288004226868972e7 0.0
1.288004226868972e7 -1.298860547910318e7 0.0
0.0 0.0 0.0

2.1198863239699164e6 1.117091926390061e7 0.0
1.117091926390061e7 -2.0645428759497292e7 0.0
0.0 0.0 0.0

-203669.18443807377 1.549595773904434e7 0.0
1.549595773904434e7 -3.270410534327241e6 0.0
0.0 0.0 0.0

-117214.01337696938 1.6655048882500647e7 0.0
1.6655048882500647e7 -7.13643095504059e6 0.0
0.0 0.0 0.0

2.4497676199438497e6 1.5451269933627142e7 0.0
1.5451269933627142e7 -1.6033162779328655e6 0.0
0.0 0.0 0.0

-2.4437696671826853e6 1.8973658188481934e7 0.0
1.8973658188481934e7 -1.9572178758019062e6 0.0
0.0 0.0 0.0

2.993112187011401e7 1.7441716312727198e7 0.0
1.7441716312727198e7 3.4343358755194414e6 0.0
0.0 0.0 0.0

1.1604050856503532e6 1.272454006301981e7 0.0
1.272454006301981e7 9.19953612311155e6 0.0
0.0 0.0 0.0

1.7198340217420834e6 1.5933889349859256e7 0.0
1.5933889349859256e7 -4.7499845250719935e6 0.0
0.0 0.0 0.0

45177.20344028552 1.9311046805861756e7 0.0
1.9311046805861756e7 -4.681570572344295e6 0.0
0.0 0.0 0.0

-2.825299868955029e6 2.121832470714425e7 0.0
2.121832470714425e7 826388.5437852938 0.0
0.0 0.0 0.0

674961.3715171758 1.4134809862943731e7 0.0
1.4134809862943731e7 -1.3127780613123313e7 0.0
0.0 0.0 0.0

-1.0883703084610123e7 1.9564790767516e7 0.0
1.9564790767516e7 2.3129749162848718e6 0.0
0.0 0.0 0.0

-5.549781811064692e6 2.0284285041151494e7 0.0
2.0284285041151494e7 6.844446292878826e6 0.0
0.0 0.0 0.0

4.818484577867905e6 3.6508317560653384e6 0.0
3.6508317560653384e6 -1.5122879800122298e7 0.0
0.0 0.0 0.0

-3.23543751562651e6 1.9809735849712465e7 0.0
1.9809735849712465e7 -731128.7973850067 0.0
0.0 0.0 0.0

-7.726838471625498e6 2.905027070431261e7 0.0
2.905027070431261e7 4.419262509325921e6 0.0
0.0 0.0 0.0

-1.0887174912796759e6 1.0802660201235846e7 0.0
1.0802660201235846e7 -4.976331884316085e6 0.0
0.0 0.0 0.0

2.42305497854763e6 1.115718895398811e7 0.0
1.115718895398811e7 -1.683197849742719e7 0.0
0.0 0.0 0.0

2.3516866700069346e6 1.0921301343816377e7 0.0
1.0921301343816377e7 -1.976105299398498e7 0.0
0.0 0.0 0.0

1.499748994099916e6 1.1798006190775294e7 0.0
1.1798006190775294e7 -2.056395802981431e7 0.0
0.0 0.0 0.0

2.1842949949847977e6 2.5587395941376098e7 0.0
2.5587395941376098e7 -3.4996778476420627e6 0.0
0.0 0.0 0.0

-447193.9648182853 1.5821498342774963e7 0.0
1.5821498342774963e7 -9.386726645889036e6 0.0
0.0 0.0 0.0

1.6661877178403889e6 1.607816466787125e7 0.0
1.607816466787125e7 1.6405931818423904e7 0.0
0.0 0.0 0.0

-1.9242635677210804e7 1.4193772657034058e7 0.0
1.4193772657034058e7 9.730950693681302e6 0.0
0.0 0.0 0.0

-4.474517659315551e7 2.382077358269388e7 0.0
2.382077358269388e7 2.1789007472230885e6 0.0
0.0 0.0 0.0

4.476243332957052e6 6.106742814148979e6 0.0
6.106742814148979e6 -3.342164515011348e7 0.0
0.0 0.0 0.0

1.115858816818168e6 1.6206402152043967e7 0.0
1.6206402152043967e7 -5.836701376027899e6 0.0
0.0 0.0 0.0

-101273.04625638737 1.813994395582518e7 0.0
1.813994395582518e7 -5.6596138496672455e6 0.0
0.0 0.0 0.0

4.610760103237025e6 3.640110439858647e6 0.0
3.640110439858647e6 -1.4405480223031646e7 0.0
0.0 0.0 0.0

-8.31529693427867e6 1.884217643089575e7 0.0
1.884217643089575e7 -2.357722363311423e6 0.0
0.0 0.0 0.0

-4.042862788984496e6 1.5887330512837403e7 0.0
1.5887330512837403e7 1.2612182945255285e7 0.0
0.0 0.0 0.0

754922.8540729289 1.5523653550197935e7 0.0
1.5523653550197935e7 1.1584534544981606e7 0.0
0.0 0.0 0.0

-4.846196554262802e6 -4.424612547292737e6 0.0
-4.424612547292737e6 1.0336682089771533e7 0.0
0.0 0.0 0.0

1.3286204396227915e6 1.2928540614821363e7 0.0
1.2928540614821363e7 -1.5543152123475606e7 0.0
0.0 0.0 0.0

2.738249146752759e6 8.86488710886712e6 0.0
8.86488710886712e6 -1.482730101894727e7 0.0
0.0 0.0 0.0

983139.430374638 7.581564338607856e6 0.0
7.581564338607856e6 -4.881615274706033e6 0.0
0.0 0.0 0.0

-5.3718005136447735e6 -3.765316307765895e6 0.0
-3.765316307765895e6 7.996118502745032e6 0.0
0.0 0.0 0.0

-540897.0939180031 1.5512432808729138e7 0.0
1.5512432808729138e7 5.440452910221262e7 0.0
0.0 0.0 0.0

-1.1697162038106099e7 1.494676943779999e6 0.0
1.494676943779999e6 2.8947205710188195e7 0.0
0.0 0.0 0.0

-1.4883665891573788e6 2.1735016591983486e7 0.0
2.1735016591983486e7 -1.0849437230295243e6 0.0
0.0 0.0 0.0

-3.1189715835845666e6 1.5323853799425937e7 0.0
1.5323853799425937e7 -33641.24600626796 0.0
0.0 0.0 0.0

-443614.3156348937 1.2903149387748372e7 0.0
1.2903149387748372e7 -9.266773598757667e6 0.0
0.0 0.0 0.0

-670657.3283803265 1.7958357962257266e7 0.0
1.7958357962257266e7 -6.144537248667181e6 0.0
0.0 0.0 0.0

-4.95516897972905e6 1.9592116522939634e7 0.0
1.9592116522939634e7 6.266368954809005e6 0.0
0.0 0.0 0.0

-886906.7692716654 2.9103578451104797e7 0.0
2.9103578451104797e7 -803981.4190666648 0.0
0.0 0.0 0.0

3.05669387873372e6 4.774822735990304e6 0.0
4.774822735990304e6 -8.87419175527379e6 0.0
0.0 0.0 0.0

-7.52820342240002e6 -4.491946580846989e6 0.0
-4.491946580846989e6 1.127240948026463e7 0.0
0.0 0.0 0.0

-292352.4392549249 1.4619415804924048e7 0.0
1.4619415804924048e7 742093.7915406395 0.0
0.0 0.0 0.0

-7.521722278921055e6 2.062955382455163e7 0.0
2.062955382455163e7 6.287217881600844e6 0.0
0.0 0.0 0.0

-5.098737211098752e6 1.5977215409758758e7 0.0
1.5977215409758758e7 1.4628557916863237e7 0.0
0.0 0.0 0.0

-1.238367972996368e7 8.139171994684876e6 0.0
8.139171994684876e6 1.8887831881011143e7 0.0
0.0 0.0 0.0

1.9988530178197892e6 1.1916520163130036e7 0.0
1.1916520163130036e7 -1.6207058024386285e7 0.0
0.0 0.0 0.0

-1.1744724987634298e8 1.856908227226719e7 0.0
1.856908227226719e7 -2.382148593561001e6 0.0
0.0 0.0 0.0

-1.243446546826657e7 6.985749917764589e6 0.0
6.985749917764589e6 1.9642378197934538e7 0.0
0.0 0.0 0.0

-6.692517757464994e6 2.0645229329998124e7 0.0
2.0645229329998124e7 6.471020489650912e6 0.0
0.0 0.0 0.0

863247.0064504044 1.3836869479517173e7 0.0
1.3836869479517173e7 -1.388900537691591e7 0.0
0.0 0.0 0.0

638682.4060755391 1.2306962965147715e7 0.0
1.2306962965147715e7 -2.0118769988847148e7 0.0
0.0 0.0 0.0

-1.4141682784989658e6 2.7780762676074356e7 0.0
2.7780762676074356e7 25998.018485985813 0.0
0.0 0.0 0.0

236290.21636827383 1.280116580574567e7 0.0
1.280116580574567e7 -1.8537104206536703e7 0.0
0.0 0.0 0.0

-236689.7604689733 1.5598447928759536e7 0.0
1.5598447928759536e7 -9.27021334130847e6 0.0
0.0 0.0 0.0

-14921.706537280115 1.48413285216915e7 0.0
1.48413285216915e7 2.0259196652644514e6 0.0
0.0 0.0 0.0

-2.108449796228581e6 2.3877553079774693e7 0.0
2.3877553079774693e7 1.3047292299829544e6 0.0
0.0 0.0 0.0

-8.423275601389261e6 2.0445021939536802e7 0.0
2.0445021939536802e7 5.862255724813281e6 0.0
0.0 0.0 0.0

1.573991402442366e6 1.2626401671482824e7 0.0
1.2626401671482824e7 -1.5451814050124729e7 0.0
0.0 0.0 0.0

-419636.56264900137 1.5671471852820242e7 0.0
1.5671471852820242e7 -9.202175841721017e6 0.0
0.0 0.0 0.0

-4.310344474392702e6 1.9428277894032057e7 0.0
1.9428277894032057e7 2.48495310473615e6 0.0
0.0 0.0 0.0

-6.018670096329622e6 2.0502735622329775e7 0.0
2.0502735622329775e7 6.66392301049671e6 0.0
0.0 0.0 0.0

-8.663607464737132e6 -7.308629736544368e6 0.0
-7.308629736544368e6 2.179041056403299e7 0.0
0.0 0.0 0.0

-7.938537099132562e6 1.4227067446789408e7 0.0
1.4227067446789408e7 1.3708859678340135e7 0.0
0.0 0.0 0.0

-96368.99450158048 1.314384710357088e7 0.0
1.314384710357088e7 -1.6996510354980122e7 0.0
0.0 0.0 0.0

9.666336974463103e6 1.492173954611946e7 0.0
1.492173954611946e7 -1.4981989598863297e6 0.0
0.0 0.0 0.0

1.0459457617823612e6 1.315276931954857e7 0.0
1.315276931954857e7 -1.5586068749900825e7 0.0
0.0 0.0 0.0

132831.19796691067 1.3815768805066274e7 0.0
1.3815768805066274e7 -3.2128236773739965e6 0.0
0.0 0.0 0.0

-1.2089154777397107e7 5.558645321794991e6 0.0
5.558645321794991e6 2.321922523559858e7 0.0
0.0 0.0 0.0

-4.672272616473237e6 1.7524013203642435e7 0.0
1.7524013203642435e7 -4.879805387820532e6 0.0
0.0 0.0 0.0

-86239.1954939682 1.2533684665969905e7 0.0
1.2533684665969905e7 -5.443432342291371e6 0.0
0.0 0.0 0.0

216343.99721939303 1.5056169532529378e7 0.0
1.5056169532529378e7 -9.637644132140065e6 0.0
0.0 0.0 0.0

-1.3844554317631189e7 3.1552760136761088e7 0.0
3.1552760136761088e7 5.95882700798532e6 0.0
0.0 0.0 0.0

-3.752822599722923e7 1.0423298670971908e7 0.0
1.0423298670971908e7 9.055742898932727e6 0.0
0.0 0.0 0.0

-1.6851043641093648e6 2.226530445262558e7 0.0
2.226530445262558e7 -1.456656859451415e6 0.0
0.0 0.0 0.0

-1.00609884525437e7 3.0231587426616386e7 0.0
3.0231587426616386e7 5.216035513034348e6 0.0
0.0 0.0 0.0

8.68746963925983e6 3.624611793304313e7 0.0
3.624611793304313e7 -5.233526924901759e6 0.0
0.0 0.0 0.0

1.1080678585181572e6 1.205390943225343e7 0.0
1.205390943225343e7 -1.9496732192290112e7 0.0
0.0 0.0 0.0

-4.737569901085118e6 1.3756580212893164e7 0.0
1.3756580212893164e7 -1.9298294124627773e7 0.0
0.0 0.0 0.0

-4.863361893479486e6 1.906678952110235e7 0.0
1.906678952110235e7 7.823158327399277e6 0.0
0.0 0.0 0.0

-1.3066294115534898e7 7.858218677545366e6 0.0
7.858218677545366e6 1.8907940518324003e7 0.0
0.0 0.0 0.0

-8.038956069490139e6 1.800779257860962e7 0.0
1.800779257860962e7 2.698012480419628e6 0.0
0.0 0.0 0.0

-1.1038145613779053e6 1.3956709919336546e7 0.0
1.3956709919336546e7 5.360735317565673e6 0.0
0.0 0.0 0.0

-516154.12258186424 1.4369996955256116e7 0.0
1.4369996955256116e7 -6.95259644663187e6 0.0
0.0 0.0 0.0

-394660.34115984954 3.0630398963374127e7 0.0
3.0630398963374127e7 -2.0444907236022241e6 0.0
0.0 0.0 0.0

-850715.2235233136 1.7445872182313632e7 0.0
1.7445872182313632e7 -6.834629592217763e6 0.0
0.0 0.0 0.0

1.3273208658126947e6 1.4752708432704564e7 0.0
1.4752708432704564e7 -4.2645073464385485e6 0.0
0.0 0.0 0.0

5.476058228345856e6 3.0748791931064175e6 0.0
3.0748791931064175e6 -2.365258869262806e7 0.0
0.0 0.0 0.0

-5.047228215642185e6 1.9611495284697775e7 0.0
1.9611495284697775e7 6.792791290696075e6 0.0
0.0 0.0 0.0

-4.262839263340604e6 1.479086042125291e7 0.0
1.479086042125291e7 3.3372224840956554e6 0.0
0.0 0.0 0.0

1.8428215832289914e6 1.0436355495296814e7 0.0
1.0436355495296814e7 -1.0311560670022126e7 0.0
0.0 0.0 0.0

803793.0722927488 1.2366988285027105e7 0.0
1.2366988285027105e7 -2.02228154942638e7 0.0
0.0 0.0 0.0

-5.21549172003704e6 1.6301423502913442e7 0.0
1.6301423502913442e7 1.219974024370622e7 0.0
0.0 0.0 0.0

-6.689715714771515e6 1.5758323348708516e7 0.0
1.5758323348708516e7 1.6689862535584783e7 0.0
0.0 0.0 0.0

-804158.0917850214 1.3764363438913455e7 0.0
1.3764363438913455e7 -3.279045251446694e6 0.0
0.0 0.0 0.0

597866.8364812285 1.8716981133453246e7 0.0
1.8716981133453246e7 -5.187875494620121e6 0.0
0.0 0.0 0.0

-4.880321213962203e6 1.896957134392699e7 0.0
1.896957134392699e7 7.758477476211369e6 0.0
0.0 0.0 0.0

-1.0230208337991234e7 312319.3290444188 0.0
312319.3290444188 3.763947452455305e7 0.0
0.0 0.0 0.0

-3.39644690147873e6 9.473795767740924e6 0.0
9.473795767740924e6 2.6261054413094893e6 0.0
0.0 0.0 0.0

-30468.664401749615 1.4579982136705903e7 0.0
1.4579982136705903e7 -4.034608889342939e6 0.0
0.0 0.0 0.0

-5.425113390430082e6 1.9748121440097947e7 0.0
1.9748121440097947e7 7.3066365481685e6 0.0
0.0 0.0 0.0

-5.9203053367087655e6 1.6516372912426839e7 0.0
1.6516372912426839e7 1.0500943273358202e7 0.0
0.0 0.0 0.0

2.560491267991445e6 1.0541533053824034e7 0.0
1.0541533053824034e7 -1.4034269552055627e7 0.0
0.0 0.0 0.0

-3.433395122616042e6 2.089380915397732e7 0.0
2.089380915397732e7 2.112575583772788e6 0.0
0.0 0.0 0.0

-1.9119429799780706e6 2.4757061571218327e7 0.0
2.4757061571218327e7 1.1588507014489993e6 0.0
0.0 0.0 0.0

-4.460929175982827e6 1.7331053012849156e7 0.0
1.7331053012849156e7 4.340584306686606e6 0.0
0.0 0.0 0.0

1.9886651136889802e6 1.1926036260564506e7 0.0
1.1926036260564506e7 -1.5184716546511712e7 0.0
0.0 0.0 0.0

-3.275593256741494e6 2.097009722825479e7 0.0
2.097009722825479e7 435511.51630850974 0.0
0.0 0.0 0.0

-1.057302294753475e6 1.8502987218422096e7 0.0
1.8502987218422096e7 -5.5066316013947185e6 0.0
0.0 0.0 0.0

-3.0545383036095165e6 1.6169987869162846e7 0.0
1.6169987869162846e7 1.6300077628377652e7 0.0
0.0 0.0 0.0

-4.7618022249324545e6 1.6913580504988972e7 0.0
1.6913580504988972e7 5.127400117465929e6 0.0
0.0 0.0 0.0

-4.945997652805559e6 2.0840008587518718e7 0.0
2.0840008587518718e7 5.477580588638423e6 0.0
0.0 0.0 0.0

-1.0466347717804672e7 -2.968025592307748e6 0.0
-2.968025592307748e6 2.879287146630565e7 0.0
0.0 0.0 0.0

-2.0099264073332613e6 2.426531645907717e7 0.0
2.426531645907717e7 1.2880585397396546e6 0.0
0.0 0.0 0.0

5.452294503354662e6 3.143432816202572e6 0.0
3.143432816202572e6 -2.3092359570404444e7 0.0
0.0 0.0 0.0

-2.7352270036654947e6 1.9540981445956003e7 0.0
1.9540981445956003e7 -2.319067226070532e6 0.0
0.0 0.0 0.0

-9.770374583136208e6 -5.232162105376444e6 0.0
-5.232162105376444e6 2.4606714380494826e7 0.0
0.0 0.0 0.0

-303801.01860796206 1.195865494091962e7 0.0
1.195865494091962e7 -3.910806802380295e6 0.0
0.0 0.0 0.0

-7.402115379995488e6 1.9329084757088054e7 0.0
1.9329084757088054e7 4.252746750534166e6 0.0
0.0 0.0 0.0

-788040.1040768978 1.615733371652138e7 0.0
1.615733371652138e7 -2.4743792188162776e6 0.0
0.0 0.0 0.0

-1.3306194115161933e6 1.6451164816360405e7 0.0
1.6451164816360405e7 -3.4412417476195465e6 0.0
0.0 0.0 0.0

-221463.53978432948 1.4191640655054308e7 0.0
1.4191640655054308e7 -1.2961543501963645e7 0.0
0.0 0.0 0.0

-1.2863822961688219e7 9.735870924973063e6 0.0
9.735870924973063e6 1.9495510720950395e7 0.0
0.0 0.0 0.0

-1.3741394768374437e6 1.4612723859460395e7 0.0
1.4612723859460395e7 7.23838758150733e6 0.0
0.0 0.0 0.0

4.032971492287458e6 7.663430877413243e6 0.0
7.663430877413243e6 -1.783882522835886e7 0.0
0.0 0.0 0.0

-366403.797688785 1.6325197003772262e7 0.0
1.6325197003772262e7 1.4623409420810929e7 0.0
0.0 0.0 0.0

-4.9824869150982145e6 1.5784374660272872e7 0.0
1.5784374660272872e7 -3.763717166829288e7 0.0
0.0 0.0 0.0

-6.086744492380865e6 1.5677693465583032e7 0.0
1.5677693465583032e7 1.0164313855895313e7 0.0
0.0 0.0 0.0

-3.592104476549881e6 2.116336120687163e7 0.0
2.116336120687163e7 1.4734862987355257e6 0.0
0.0 0.0 0.0

-4.476427424307663e6 1.6684810311032731e7 0.0
1.6684810311032731e7 1.6446528928103023e6 0.0
0.0 0.0 0.0

-609131.2955526232 1.6497855279769765e7 0.0
1.6497855279769765e7 -7.988974860582884e6 0.0
0.0 0.0 0.0

598947.1584425103 1.5540032630495112e7 0.0
1.5540032630495112e7 -6.524895097910057e6 0.0
0.0 0.0 0.0

-5.118543061509911e6 1.9583292291128833e7 0.0
1.9583292291128833e7 7.244194467564322e6 0.0
0.0 0.0 0.0

-6.055904355874166e6 1.621720763699066e7 0.0
1.621720763699066e7 1.2827080077704856e7 0.0
0.0 0.0 0.0

-6.622502945065088e6 1.5718546130843308e7 0.0
1.5718546130843308e7 1.6640982849651502e7 0.0
0.0 0.0 0.0

-1.8302159187532198e6 1.351210507962685e7 0.0
1.351210507962685e7 -1.2586396099937124e7 0.0
0.0 0.0 0.0

1.077200366590281e6 1.2504748057859233e7 0.0
1.2504748057859233e7 -1.3738969080446914e7 0.0
0.0 0.0 0.0

-4.285402703297369e6 1.627741066651899e7 0.0
1.627741066651899e7 1.1250928513269855e7 0.0
0.0 0.0 0.0

3.099281671360351e6 8.898762478834216e6 0.0
8.898762478834216e6 -2.4261356453325443e7 0.0
0.0 0.0 0.0

-1.3479794198351968e6 1.557123363612028e7 0.0
1.557123363612028e7 -7.050766670876606e6 0.0
0.0 0.0 0.0

-1.779030682039457e6 2.5389133038156938e7 0.0
2.5389133038156938e7 1.0950416953878107e6 0.0
0.0 0.0 0.0

-833885.133202727 1.5666904625254897e7 0.0
1.5666904625254897e7 1.1971124149668736e7 0.0
0.0 0.0 0.0

1.4838674899947431e7 2.049915324388574e7 0.0
2.049915324388574e7 4.946222610737381e7 0.0
0.0 0.0 0.0

-1.3085460891750067e7 1.921061036803865e7 0.0
1.921061036803865e7 -4.361818371829087e7 0.0
0.0 0.0 0.0

-4.745383517106503e6 1.4689480048810419e7 0.0
1.4689480048810419e7 1.7433449305647768e6 0.0
0.0 0.0 0.0

-2.2318658579980165e7 2.5509478189806342e7 0.0
2.5509478189806342e7 9.890439474686205e6 0.0
0.0 0.0 0.0

-3.007876720510718e6 1.8374536488680623e7 0.0
1.8374536488680623e7 -2.3294462119298973e6 0.0
0.0 0.0 0.0

-3.4130954599077697e6 1.6318986229475765e7 0.0
1.6318986229475765e7 9.394466911041427e6 0.0
0.0 0.0 0.0

-1.6869329078979632e6 1.5887660530905966e7 0.0
1.5887660530905966e7 1.3939899514379142e7 0.0
0.0 0.0 0.0

2.1037012514740564e6 1.6783035375099134e7 0.0
1.6783035375099134e7 2.6490706648967244e7 0.0
0.0 0.0 0.0

2.2425422353595644e6 1.5870345251360446e7 0.0
1.5870345251360446e7 6.039619990332876e6 0.0
0.0 0.0 0.0

2.920326739544531e6 1.483817985701222e7 0.0
1.483817985701222e7 1.382688652919672e7 0.0
0.0 0.0 0.0

-131547.55219080648 1.8718493349498574e7 0.0
1.8718493349498574e7 -5.191379130116936e6 0.0
0.0 0.0 0.0

-1.4824884279066203e6 1.5507261513480082e7 0.0
1.5507261513480082e7 8.969960647092018e6 0.0
0.0 0.0 0.0

-4.283352610296834e6 1.5858530900642361e7 0.0
1.5858530900642361e7 1.1408964789464932e7 0.0
0.0 0.0 0.0

-1.0296261128754998e6 2.306333976375277e7 0.0
2.306333976375277e7 -434470.2532851223 0.0
0.0 0.0 0.0

40498.00787341921 1.5803991542850802e7 0.0
1.5803991542850802e7 9.108562218567748e6 0.0
0.0 0.0 0.0

5.228260006087248e6 3.556737266831965e6 0.0
3.556737266831965e6 -1.8619046506854568e7 0.0
0.0 0.0 0.0

-1.0573477182310026e7 1.155559759657789e7 0.0
1.155559759657789e7 1.4094783028939985e7 0.0
0.0 0.0 0.0

-8.916401839062609e6 -7.18640180630121e6 0.0
-7.18640180630121e6 2.251128644779506e7 0.0
0.0 0.0 0.0

-7.398541936484962e6 1.579998085203938e7 0.0
1.579998085203938e7 1.415331451629348e7 0.0
0.0 0.0 0.0

-2.3292944282125365e6 2.143552093363591e7 0.0
2.143552093363591e7 13686.971607610234 0.0
0.0 0.0 0.0

2.8992500981039777e6 1.7237762418997824e7 0.0
1.7237762418997824e7 1.0592274723711012e7 0.0
0.0 0.0 0.0

1.1296180091084344e6 1.4928989546188636e7 0.0
1.4928989546188636e7 1.040329419560069e7 0.0
0.0 0.0 0.0

-4.428658967062791e6 2.062624240018281e7 0.0
2.062624240018281e7 5.818677241974153e6 0.0
0.0 0.0 0.0

3.827595548341691e6 4.665986733631752e6 0.0
4.665986733631752e6 -1.1310891182289414e7 0.0
0.0 0.0 0.0

-2.8703044701917833e6 1.9954799253604315e7 0.0
1.9954799253604315e7 -1.5736965673772686e6 0.0
0.0 0.0 0.0

3.258140807205282e6 9.224035853203803e6 0.0
9.224035853203803e6 -1.4970660098155195e7 0.0
0.0 0.0 0.0

-6.790608629328398e6 1.989795893945351e7 0.0
1.989795893945351e7 6.439996668898944e6 0.0
0.0 0.0 0.0

-193348.11778597673 2.003824692667582e7 0.0
2.003824692667582e7 -4.264210578695685e6 0.0
0.0 0.0 0.0

-6.2423011830600975e6 1.7196453787613958e7 0.0
1.7196453787613958e7 704523.371675239 0.0
0.0 0.0 0.0

5.402222759487387e6 2.8926088590279976e6 0.0
2.8926088590279976e6 -3.2846066596688524e7 0.0
0.0 0.0 0.0

2.470480675391074e6 1.551807061720528e7 0.0
1.551807061720528e7 500989.4151854561 0.0
0.0 0.0 0.0

-1.7113025575148715e6 2.0544150054094728e7 0.0
2.0544150054094728e7 -1.9029788009526841e6 0.0
0.0 0.0 0.0

-1.4712852041366124e6 1.8192761702013835e7 0.0
1.8192761702013835e7 -4.863319095266547e6 0.0
0.0 0.0 0.0

-552540.4786130097 1.378336345931498e7 0.0
1.378336345931498e7 -9.616585289508458e6 0.0
0.0 0.0 0.0

4.5227909277555365e6 4.9861323716139635e6 0.0
4.9861323716139635e6 -1.752568872264313e7 0.0
0.0 0.0 0.0

-5.105657246479532e6 1.784676485319865e7 0.0
1.784676485319865e7 5.076426157445734e6 0.0
0.0 0.0 0.0

2.0020231971505247e6 1.0826075178235436e7 0.0
1.0826075178235436e7 -2.09618815365893e7 0.0
0.0 0.0 0.0

-9.342241247823915e6 -6.350320039598507e6 0.0
-6.350320039598507e6 2.5711060287898257e7 0.0
0.0 0.0 0.0

-7.19342409143122e6 1.4849871927320413e7 0.0
1.4849871927320413e7 1.2589513454007607e7 0.0
0.0 0.0 0.0

-1.0949572143675862e7 1.9283216229743794e7 0.0
1.9283216229743794e7 4.0371449723945423e6 0.0
0.0 0.0 0.0

3.8294215309764426e6 5.727353795082215e6 0.0
5.727353795082215e6 -4.8295477088086724e7 0.0
0.0 0.0 0.0

-9.005355632223934e6 1.3019543582326518e7 0.0
1.3019543582326518e7 2.3436731702520385e7 0.0
0.0 0.0 0.0

-3.1071527588481354e6 1.639407322520952e7 0.0
1.639407322520952e7 1.3360030446569022e7 0.0
0.0 0.0 0.0

-5.917756500379645e6 1.5092042758433748e7 0.0
1.5092042758433748e7 1.9517446603667825e7 0.0
0.0 0.0 0.0

-3.5403457814454613e6 1.5680700929020641e7 0.0
1.5680700929020641e7 845394.9892518383 0.0
0.0 0.0 0.0

-6.9375752287518475e6 1.5362305991260042e7 0.0
1.5362305991260042e7 9.670395338238325e6 0.0
0.0 0.0 0.0

-393375.74058467196 1.3667549718220204e7 0.0
1.3667549718220204e7 -7.85612579853564e6 0.0
0.0 0.0 0.0

1.327525372950987e6 1.2117248962147763e7 0.0
1.2117248962147763e7 -1.4465832034577724e7 0.0
0.0 0.0 0.0

3.262211783163443e6 8.585000148620822e6 0.0
8.585000148620822e6 -2.9186714083391093e7 0.0
0.0 0.0 0.0

-9.251461868732415e6 -6.813903557779623e6 0.0
-6.813903557779623e6 2.3647007781951938e7 0.0
0.0 0.0 0.0

-9.708318903513493e6 -5.016258647643682e6 0.0
-5.016258647643682e6 3.077966855752384e7 0.0
0.0 0.0 0.0

-5.569199259767592e6 1.8313403628519133e7 0.0
1.8313403628519133e7 1.8247351633692542e6 0.0
0.0 0.0 0.0

-542963.9173542918 1.6476644585135978e7 0.0
1.6476644585135978e7 -8.337826876265239e6 0.0
0.0 0.0 0.0

-4.769302403449402e6 1.5224260293476323e7 0.0
1.5224260293476323e7 2.3122074483256977e7 0.0
0.0 0.0 0.0

-235027.8097353531 1.3546817668153927e7 0.0
1.3546817668153927e7 -5.914013693927842e6 0.0
0.0 0.0 0.0

556497.0712149716 1.8049267119105965e7 0.0
1.8049267119105965e7 -5.399108598245602e6 0.0
0.0 0.0 0.0

-4.998084701533631e6 1.898402880106183e7 0.0
1.898402880106183e7 5.674339960298359e6 0.0
0.0 0.0 0.0

-6.822387348370699e6 -4.849623198216201e6 0.0
-4.849623198216201e6 1.3524096563330354e7 0.0
0.0 0.0 0.0

2.1331683003370147e6 3.2770377767460216e7 0.0
3.2770377767460216e7 -3.684186441728755e6 0.0
0.0 0.0 0.0

319658.6704453891 1.4609311691619175e7 0.0
1.4609311691619175e7 -7.6800822308818335e6 0.0
0.0 0.0 0.0

-2.128540739885618e6 1.3713808933845848e7 0.0
1.3713808933845848e7 -3.1123578840070933e7 0.0
0.0 0.0 0.0

5.4799572517828e6 3.891378260007041e6 0.0
3.891378260007041e6 -2.1588662537260555e7 0.0
0.0 0.0 0.0

-64938.462541736895 1.4817633700054137e7 0.0
1.4817633700054137e7 -4.063383682722715e6 0.0
0.0 0.0 0.0

-8.818113696681324e6 1.3719218960918218e7 0.0
1.3719218960918218e7 1.469027295128874e7 0.0
0.0 0.0 0.0

-1.9875948953181785e7 1.4458748346123962e7 0.0
1.4458748346123962e7 9.672131863195267e6 0.0
0.0 0.0 0.0

-1.982115785154194e6 1.7198048006258544e7 0.0
1.7198048006258544e7 -5.005752786367312e6 0.0
0.0 0.0 0.0

2.1828842082034815e6 1.4569909346966116e7 0.0
1.4569909346966116e7 1.1702863447956905e7 0.0
0.0 0.0 0.0

-965850.6042647408 1.3524313081395261e7 0.0
1.3524313081395261e7 -1.022084191180241e7 0.0
0.0 0.0 0.0

-7.995800560540446e6 -2.48839780109656e6 0.0
-2.48839780109656e6 1.4096172466402289e7 0.0
0.0 0.0 0.0

-1.3627104944048836e6 1.5438566080132384e7 0.0
1.5438566080132384e7 -6.9030657974025365e6 0.0
0.0 0.0 0.0

-644536.7814361639 1.5169091862649804e7 0.0
1.5169091862649804e7 1.7942456413401924e6 0.0
0.0 0.0 0.0

-2.5350601380395186e6 1.6100153635922154e7 0.0
1.6100153635922154e7 9.54144283819048e6 0.0
0.0 0.0 0.0

140838.98389029317 1.403276010327467e7 0.0
1.403276010327467e7 -1.1876261918722328e7 0.0
0.0 0.0 0.0

-4.562253823660632e6 1.6289074562272882e7 0.0
1.6289074562272882e7 1.5089114714548713e7 0.0
0.0 0.0 0.0

57755.325394788 1.289313536824886e7 0.0
1.289313536824886e7 -690912.1905188444 0.0
0.0 0.0 0.0

-414721.40654873475 1.6413493838775722e7 0.0
1.6413493838775722e7 -8.629853669621943e6 0.0
0.0 0.0 0.0

2.2614652180454377e6 1.4872700164822662e7 0.0
1.4872700164822662e7 -2.7834591264415523e6 0.0
0.0 0.0 0.0

2.2869828857437605e6 1.0591225220391648e7 0.0
1.0591225220391648e7 -1.887291674948671e7 0.0
0.0 0.0 0.0

-7.533979825262837e6 1.5723542632342977e7 0.0
1.5723542632342977e7 1.3367325402056064e7 0.0
0.0 0.0 0.0

-389996.7684640009 1.3257686621254737e7 0.0
1.3257686621254737e7 -6.161332668329484e6 0.0
0.0 0.0 0.0

-3.414148976010232e7 2.0569931530464206e7 0.0
2.0569931530464206e7 7.7205021195572205e6 0.0
0.0 0.0 0.0

-1.9139779827411529e6 1.5591859240959795e7 0.0
1.5591859240959795e7 2.993800174735041e7 0.0
0.0 0.0 0.0

5.481080941527065e6 3.0395392820706083e6 0.0
3.0395392820706083e6 -2.4230197549744885e7 0.0
0.0 0.0 0.0

-9.74527584652328e6 -5.197845418333684e6 0.0
-5.197845418333684e6 2.962728467595497e7 0.0
0.0 0.0 0.0

-639301.6612096261 1.2653915394763192e7 0.0
1.2653915394763192e7 -2.773134451808338e7 0.0
0.0 0.0 0.0

314531.9216508493 1.2950561867779395e7 0.0
1.2950561867779395e7 -1.8762076213314515e7 0.0
0.0 0.0 0.0

-726543.9757968553 1.6035548388193943e7 0.0
1.6035548388193943e7 -3.3822630507670604e6 0.0
0.0 0.0 0.0

-9.718477215869881e6 2.180418867301371e7 0.0
2.180418867301371e7 -3.855468338151956e6 0.0
0.0 0.0 0.0

-9.011620897597264e6 1.5025367922971576e7 0.0
1.5025367922971576e7 1.7195337988220852e7 0.0
0.0 0.0 0.0

-292332.9457788132 1.6291627090612417e7 0.0
1.6291627090612417e7 -8.84109339810297e6 0.0
0.0 0.0 0.0

-9.344558063577538e6 -2.770294718357053e6 0.0
-2.770294718357053e6 4.085366746459716e7 0.0
0.0 0.0 0.0

-1.0787266200151129e7 1.2636231950659297e7 0.0
1.2636231950659297e7 1.6707217271114869e7 0.0
0.0 0.0 0.0

4.537097595514627e6 4.322685928655126e6 0.0
4.322685928655126e6 -4.50608371093147e7 0.0
0.0 0.0 0.0

-3.5650123844988756e6 2.1548301204995614e7 0.0
2.1548301204995614e7 1.6017506847529162e6 0.0
0.0 0.0 0.0

4.96563302460245e6 3.149983403617219e6 0.0
3.149983403617219e6 -3.892915290871011e7 0.0
0.0 0.0 0.0

-2.1408493285493568e7 3.1946220269853216e7 0.0
3.1946220269853216e7 7.38683125752946e6 0.0
0.0 0.0 0.0

-9.230698029786292e6 -2.3692034670113306e6 0.0
-2.3692034670113306e6 4.29585270155442e7 0.0
0.0 0.0 0.0

2.53741740471706e6 1.0774095613684474e7 0.0
1.0774095613684474e7 -1.8724299442185827e7 0.0
0.0 0.0 0.0

-8.833569030796144e6 1.9127145526242025e7 0.0
1.9127145526242025e7 4.5954019922213275e6 0.0
0.0 0.0 0.0

-3.334079852850358e7 1.8826672256071154e7 0.0
1.8826672256071154e7 2.6950826434871666e6 0.0
0.0 0.0 0.0

4.7613909438897e6 3.667183655208779e6 0.0
3.667183655208779e6 -4.182669972302317e7 0.0
0.0 0.0 0.0

-4.6098169387533795e6 1.8154936311891194e7 0.0
1.8154936311891194e7 2.685805432413788e6 0.0
0.0 0.0 0.0

-5.503980276916552e6 1.7078496710631125e7 0.0
1.7078496710631125e7 1.0153240107073586e7 0.0
0.0 0.0 0.0

8.039747906435933e6 1.4135860065528717e7 0.0
1.4135860065528717e7 6.180576728381397e6 0.0
0.0 0.0 0.0

693250.3153506471 1.286292223847993e7 0.0
1.286292223847993e7 -1.6986671795960266e7 0.0
0.0 0.0 0.0

-228844.02244025934 1.3392021377639633e7 0.0
1.3392021377639633e7 -1.735749186559757e7 0.0
0.0 0.0 0.0

-2.0009597972559037e6 1.7863638773832746e7 0.0
1.7863638773832746e7 -5.396587595107189e6 0.0
0.0 0.0 0.0

-3.5569636167696514e6 2.1890562482082516e7 0.0
2.1890562482082516e7 1.760919001674834e6 0.0
0.0 0.0 0.0

-1.2297817716169335e7 7.856607365800544e6 0.0
7.856607365800544e6 2.2497600782176446e7 0.0
0.0 0.0 0.0

5.286867955786111e6 2.9005608613632196e6 0.0
2.9005608613632196e6 -3.507809177750446e7 0.0
0.0 0.0 0.0

-9.176805512548422e6 2.442834506133656e7 0.0
2.442834506133656e7 5.959461732121882e6 0.0
0.0 0.0 0.0

4.492440494097071e6 5.683152828475219e6 0.0
5.683152828475219e6 -1.4519667970263697e7 0.0
0.0 0.0 0.0

-420821.9823060222 1.4129728622462923e7 0.0
1.4129728622462923e7 -1.2205848857391713e7 0.0
0.0 0.0 0.0

5.156813785104634e6 3.0925699431200963e6 0.0
3.0925699431200963e6 -3.6530544044816e7 0.0
0.0 0.0 0.0

-449883.7429877147 1.3689342946047504e7 0.0
1.3689342946047504e7 -1.587937241494587e7 0.0
0.0 0.0 0.0

-1.2386002560100088e7 5.197082723096189e6 0.0
5.197082723096189e6 2.545744709260425e7 0.0
0.0 0.0 0.0

-445175.39046702825 3.4192366539214505e6 0.0
3.4192366539214505e6 -1.7658830374286568e6 0.0
0.0 0.0 0.0

-5.004400626946017e6 1.3433387734794786e7 0.0
1.3433387734794786e7 2.3382717242967323e6 0.0
0.0 0.0 0.0

207053.20696673496 1.6138151877132207e7 0.0
1.6138151877132207e7 1.269721351578324e7 0.0
0.0 0.0 0.0

5.4328765810767785e6 2.859507894870112e6 0.0
2.859507894870112e6 -2.651290055603597e7 0.0
0.0 0.0 0.0

-5.031421511080641e6 1.905822381103329e7 0.0
1.905822381103329e7 7.818702522607084e6 0.0
0.0 0.0 0.0

-9.66344471939384e6 -5.268951984722136e6 0.0
-5.268951984722136e6 2.2590066229020998e7 0.0
0.0 0.0 0.0

75344.49239225534 1.3916359320895234e7 0.0
1.3916359320895234e7 -922070.5537616264 0.0
0.0 0.0 0.0

2.0847533106669746e6 1.0968807344189787e7 0.0
1.0968807344189787e7 -1.7995369546084147e7 0.0
0.0 0.0 0.0

-6.38743501113911e6 1.6058131717510713e7 0.0
1.6058131717510713e7 1.3635798184518302e7 0.0
0.0 0.0 0.0

-1.6237822810964435e6 1.5814165146340592e7 0.0
1.5814165146340592e7 1.7919358688959677e7 0.0
0.0 0.0 0.0

-552084.3829613524 1.4687818648380928e7 0.0
1.4687818648380928e7 -3.1295682206195667e6 0.0
0.0 0.0 0.0

-1.4460472601593698e6 1.7742924490167856e7 0.0
1.7742924490167856e7 -5.233873651810215e6 0.0
0.0 0.0 0.0

-4.732052615573394e6 1.9624065980715685e7 0.0
1.9624065980715685e7 4.445309429088621e6 0.0
0.0 0.0 0.0

-202788.70177156758 1.5385182133053869e7 0.0
1.5385182133053869e7 -4.279473954844802e6 0.0
0.0 0.0 0.0

1.149049694839854e7 5.677748027205988e6 0.0
5.677748027205988e6 -2.762708802147297e6 0.0
0.0 0.0 0.0

-9.552166461806063e6 -3.025933897082246e6 0.0
-3.025933897082246e6 3.882587650967284e7 0.0
0.0 0.0 0.0

1.7600886929231165e6 1.642405209827046e7 0.0
1.642405209827046e7 7.974231106758207e6 0.0
0.0 0.0 0.0

-9.725303193642216e6 -4.616694734610139e6 0.0
-4.616694734610139e6 3.2121666564073853e7 0.0
0.0 0.0 0.0

-527531.5751140324 1.5503512634396782e7 0.0
1.5503512634396782e7 -990415.3564493406 0.0
0.0 0.0 0.0

-1.001957397823926e7 7.410972354616826e6 0.0
7.410972354616826e6 2.1843206192464568e7 0.0
0.0 0.0 0.0

-4.473024352245007e6 1.3492210817757446e7 0.0
1.3492210817757446e7 4.101398488599806e6 0.0
0.0 0.0 0.0

1.0100431143991532e6 2.8081887344946233e6 0.0
2.8081887344946233e6 -2.494376775475113e6 0.0
0.0 0.0 0.0

1.0492308540440141e6 3.1189513705230975e6 0.0
3.1189513705230975e6 -2.4532389298489084e6 0.0
0.0 0.0 0.0

-251248.00789720519 1.6019697858585617e7 0.0
1.6019697858585617e7 -9.363203777191725e6 0.0
0.0 0.0 0.0

-4.225004208546081e6 1.7377122140268613e7 0.0
1.7377122140268613e7 -2.25722128714576e6 0.0
0.0 0.0 0.0

-56784.89476201637 1.6162990457528664e7 0.0
1.6162990457528664e7 -8.877337572341235e6 0.0
0.0 0.0 0.0

-1.2997585473646346e7 6.565050065575393e6 0.0
6.565050065575393e6 2.0959623913065277e7 0.0
0.0 0.0 0.0

-729358.2824999844 1.3878879570025934e7 0.0
1.3878879570025934e7 -1.1297719338379033e7 0.0
0.0 0.0 0.0

2.2403687578759724e6 1.063259295999751e7 0.0
1.063259295999751e7 -1.9880498329620123e7 0.0
0.0 0.0 0.0

-4.847550727000249e6 1.8613117446133137e7 0.0
1.8613117446133137e7 8.325042161125455e6 0.0
0.0 0.0 0.0

2.0470990830119029e6 1.0967248584529711e7 0.0
1.0967248584529711e7 -1.695003277161067e7 0.0
0.0 0.0 0.0

-7.1402068487153e7 2.5040489616703294e7 0.0
2.5040489616703294e7 2.0747017117823288e6 0.0
0.0 0.0 0.0

464556.08345625456 1.3642474004923543e7 0.0
1.3642474004923543e7 -1.2661463554968037e7 0.0
0.0 0.0 0.0

-4.374187877327526e6 2.4768260367045965e7 0.0
2.4768260367045965e7 2.63967437452057e6 0.0
0.0 0.0 0.0

-761265.1755646227 1.3490084490641922e7 0.0
1.3490084490641922e7 3.4725080071803983e6 0.0
0.0 0.0 0.0

-8.346683343572538e6 1.5501478563811872e7 0.0
1.5501478563811872e7 1.5636853887778897e7 0.0
0.0 0.0 0.0

-2.64730799706177e6 1.701007661210314e7 0.0
1.701007661210314e7 -7.128141579666719e6 0.0
0.0 0.0 0.0

3.3533338764737807e6 2.650443087255676e7 0.0
2.650443087255676e7 -5.11870763944237e6 0.0
0.0 0.0 0.0

-9.660369481918067e6 -5.814923464263477e6 0.0
-5.814923464263477e6 2.7639056064145118e7 0.0
0.0 0.0 0.0

5.449556597143913e6 3.007920831741403e6 0.0
3.007920831741403e6 -2.486662590635196e7 0.0
0.0 0.0 0.0

-1.9373805806633371e6 1.812822268212908e7 0.0
1.812822268212908e7 -3.612004559732459e6 0.0
0.0 0.0 0.0

-6.654241188795772e6 -2.5788249366268967e6 0.0
-2.5788249366268967e6 7.091793548386088e6 0.0
0.0 0.0 0.0

5.429417751818333e6 2.8268793823590423e6 0.0
2.8268793823590423e6 -3.119024864839345e7 0.0
0.0 0.0 0.0

-9.610994753640993e6 -3.4521034965542178e6 0.0
-3.4521034965542178e6 3.739816955795696e7 0.0
0.0 0.0 0.0

-8.143588752853728e6 -7.874379156263405e6 0.0
-7.874379156263405e6 1.937289060880121e7 0.0
0.0 0.0 0.0

-504325.1347955051 1.3127581561607262e7 0.0
1.3127581561607262e7 -4.469862723000851e6 0.0
0.0 0.0 0.0

-9.758999951158786e6 -5.476008480425482e6 0.0
-5.476008480425482e6 2.874151445432478e7 0.0
0.0 0.0 0.0

5.433846365164777e6 3.0249354433899918e6 0.0
3.0249354433899918e6 -2.564757394517622e7 0.0
0.0 0.0 0.0

5.471020615489261e6 2.8934743152046734e6 0.0
2.8934743152046734e6 -3.0059719703267552e7 0.0
0.0 0.0 0.0

-9.587710522231009e6 -3.8526117515724446e6 0.0
-3.8526117515724446e6 3.5976572047254905e7 0.0
0.0 0.0 0.0

-3.2080678372620633e6 1.5951979428992862e7 0.0
1.5951979428992862e7 -7.993386220965085e6 0.0
0.0 0.0 0.0

-90591.88366576191 1.564295520702416e7 0.0
1.564295520702416e7 -1.000692853437805e7 0.0
0.0 0.0 0.0

-4.272657825452578e6 1.985379792262911e7 0.0
1.985379792262911e7 4.807882955262104e6 0.0
0.0 0.0 0.0

5.485471317751819e6 2.8757034780481225e6 0.0
2.8757034780481225e6 -2.9314109952337988e7 0.0
0.0 0.0 0.0

-9.589735827830864e6 -4.1421878797870297e6 0.0
-4.1421878797870297e6 3.4407372332713045e7 0.0
0.0 0.0 0.0

-174147.55908695376 1.3469317547657346e7 0.0
1.3469317547657346e7 -3.842655834266853e6 0.0
0.0 0.0 0.0

2.2193077018975504e6 1.1546196083727678e7 0.0
1.1546196083727678e7 -1.6063663137452964e7 0.0
0.0 0.0 0.0

-2.5741286792961736e6 1.934187839052649e7 0.0
1.934187839052649e7 -1.2697159023997271e6 0.0
0.0 0.0 0.0

-3.9229666250212607e6 1.5562187146665098e7 0.0
1.5562187146665098e7 -393363.53681410337 0.0
0.0 0.0 0.0

-6.437201033286302e6 1.5585193239157164e7 0.0
1.5585193239157164e7 1.72369827076841e7 0.0
0.0 0.0 0.0

-9.667390792412153e6 -4.331220881450997e6 0.0
-4.331220881450997e6 3.3148137982437607e7 0.0
0.0 0.0 0.0

5.515513488642888e6 2.8246197247461583e6 0.0
2.8246197247461583e6 -2.8285386201167643e7 0.0
0.0 0.0 0.0

-1.3085508731831878e6 2.1017811628832363e7 0.0
2.1017811628832363e7 -2.8079238961816034e6 0.0
0.0 0.0 0.0

-3.504112578314662e6 1.5498158108042957e7 0.0
1.5498158108042957e7 2.7386769726261176e7 0.0
0.0 0.0 0.0

3.8997633000538446e7 4.859113920312299e7 0.0
4.859113920312299e7 -2.2167800290662438e7 0.0
0.0 0.0 0.0

122001.03678229405 9.33181765461173e6 0.0
9.33181765461173e6 -6.5021862758883685e6 0.0
0.0 0.0 0.0

-3.5407720448531215e6 2.1458086906556845e7 0.0
2.1458086906556845e7 2.6425838426128263e6 0.0
0.0 0.0 0.0

-5.101130120011407e6 1.6954868217886188e6 0.0
1.6954868217886188e6 4.6738442053907905e6 0.0
0.0 0.0 0.0

-4.087551254595622e6 2.014670448867993e7 0.0
2.014670448867993e7 4.239399665257728e6 0.0
0.0 0.0 0.0

3.546186948857427e6 3.7835073704413916e6 0.0
3.7835073704413916e6 -1.0084298950670639e7 0.0
0.0 0.0 0.0

2.892630689639263e6 1.9508140688914455e7 0.0
1.9508140688914455e7 -4.829367831087038e6 0.0
0.0 0.0 0.0

-772519.2762925231 1.8459538210489046e7 0.0
1.8459538210489046e7 -5.44154511626235e6 0.0
0.0 0.0 0.0

-8.617694520835605e6 1.2881608931705384e7 0.0
1.2881608931705384e7 1.1222766038638836e7 0.0
0.0 0.0 0.0

-535681.2469190645 1.5935406676630046e7 0.0
1.5935406676630046e7 -1.1795198186087536e6 0.0
0.0 0.0 0.0

-8.168406127421418e6 -1.278010194543483e6 0.0
-1.278010194543483e6 4.771978872898627e7 0.0
0.0 0.0 0.0

1.2734072426458274e6 4.210953351059372e6 0.0
4.210953351059372e6 -3.3657387241920736e6 0.0
0.0 0.0 0.0

-3.2266614768020767e6 -1.4762696808314703e6 0.0
-1.4762696808314703e6 1.420470189208407e6 0.0
0.0 0.0 0.0

1.1610931844929713e6 -1.6301774166467767e6 0.0
-1.6301774166467767e6 -2.3922683935284237e6 0.0
0.0 0.0 0.0

-477013.6388015379 1.864100753838741e7 0.0
1.864100753838741e7 -5.306547314651e6 0.0
0.0 0.0 0.0

-1.6547784875651086e6 1.3307756448952008e7 0.0
1.3307756448952008e7 -3.0530495632351432e7 0.0
0.0 0.0 0.0

292264.4548756378 1.566176369720338e7 0.0
1.566176369720338e7 1.479123442914149e7 0.0
0.0 0.0 0.0

-1.7422182976817451e6 1.5210915974457083e7 0.0
1.5210915974457083e7 -7.501439678414713e6 0.0
0.0 0.0 0.0

5.116374153613281e6 3.708140440009885e6 0.0
3.708140440009885e6 -1.6641305588866223e7 0.0
0.0 0.0 0.0

-1.0153813658418336e6 1.223777709124498e7 0.0
1.223777709124498e7 -3.624560981183405e6 0.0
0.0 0.0 0.0

143418.3376406976 1.521863094405314e7 0.0
1.521863094405314e7 -1.0124463765614044e7 0.0
0.0 0.0 0.0

-380417.57465575356 1.246385041731129e7 0.0
1.246385041731129e7 -2.2877571268386032e7 0.0
0.0 0.0 0.0

-2.3799130800464996e6 1.9828295403682664e7 0.0
1.9828295403682664e7 -1.4176084201254921e6 0.0
0.0 0.0 0.0

-7.235963840778105e6 1.5546954040421812e7 0.0
1.5546954040421812e7 1.4873137586062273e7 0.0
0.0 0.0 0.0

-601415.0944652376 1.2605420532115135e7 0.0
1.2605420532115135e7 -3.1356741574381813e6 0.0
0.0 0.0 0.0

-272953.9068682887 1.4164686226756215e7 0.0
1.4164686226756215e7 1.4162269020604563e6 0.0
0.0 0.0 0.0

-2.445315524488449e6 1.2976320228799181e7 0.0
1.2976320228799181e7 -1.6192476050384954e7 0.0
0.0 0.0 0.0

-1.3874801147490012e7 2.1239322928534694e7 0.0
2.1239322928534694e7 3.1810051759302774e6 0.0
0.0 0.0 0.0

2.1430497119990117e6 2.842227631047734e7 0.0
2.842227631047734e7 -4.046344903949842e6 0.0
0.0 0.0 0.0

300987.91351298674 2.5043310605015233e6 0.0
2.5043310605015233e6 -986983.7190524737 0.0
0.0 0.0 0.0

444655.60972345603 2.269627607311195e6 0.0
2.269627607311195e6 -1.2351626243541492e6 0.0
0.0 0.0 0.0

-6.815291659953364e6 1.5984621584898805e7 0.0
1.5984621584898805e7 1.3310326018521369e7 0.0
0.0 0.0 0.0

-2.5945650305521693e6 1.7519495683556996e7 0.0
1.7519495683556996e7 -3.806987651548562e6 0.0
0.0 0.0 0.0

-3.30623712045366e6 2.2004799570207067e7 0.0
2.2004799570207067e7 2.58194009860317e6 0.0
0.0 0.0 0.0

-3.921443469959967e6 2.0402116618406598e7 0.0
2.0402116618406598e7 3.72979645889856e6 0.0
0.0 0.0 0.0

4.732654950321216e6 1.5800964561543426e7 0.0
1.5800964561543426e7 5.093358908363612e6 0.0
0.0 0.0 0.0

1.5745540229610796e6 1.5595584509603895e7 0.0
1.5595584509603895e7 -5.079648266324289e6 0.0
0.0 0.0 0.0

-1.9818488627814148e6 1.4830259763443258e7 0.0
1.4830259763443258e7 3.016270150683286e7 0.0
0.0 0.0 0.0

-2.7754430560167458e7 2.051795915013813e7 0.0
2.051795915013813e7 -3.8143188219594723e6 0.0
0.0 0.0 0.0

-8.243906810167709e7 2.7601142007171273e7 0.0
2.7601142007171273e7 9.73995082160521e6 0.0
0.0 0.0 0.0

-7.970176106464035e6 1.2244992423603563e7 0.0
1.2244992423603563e7 9.470352629380247e6 0.0
0.0 0.0 0.0

-4.41068036325721e6 1.6473562752599481e7 0.0
1.6473562752599481e7 1.0709456359650321e7 0.0
0.0 0.0 0.0

4.131498145346787e6 5.487582153492546e6 0.0
5.487582153492546e6 -1.5523085789526984e7 0.0
0.0 0.0 0.0

-9.500998877298519e6 1.2746560806755912e7 0.0
1.2746560806755912e7 1.5009131574492484e7 0.0
0.0 0.0 0.0

-3.663357740531279e6 -2.289714161990633e6 0.0
-2.289714161990633e6 4.456993720517636e6 0.0
0.0 0.0 0.0

2.100179689550362e6 1.7118741768594842e7 0.0
1.7118741768594842e7 9.148487512798833e6 0.0
0.0 0.0 0.0

199595.70609604847 1.2532718563716669e7 0.0
1.2532718563716669e7 -2.2574942971543267e7 0.0
0.0 0.0 0.0

5.053274209670784e6 5.024265189818796e6 0.0
5.024265189818796e6 -1.876445183800082e7 0.0
0.0 0.0 0.0

2.1191376814980535e6 1.4951965526556635e7 0.0
1.4951965526556635e7 3.3924306790525797e6 0.0
0.0 0.0 0.0

-5.418402802080538e6 2.7869711893397174e6 0.0
2.7869711893397174e6 6.344652027240372e7 0.0
0.0 0.0 0.0

-4.751049102867121e6 2.141202314921722e7 0.0
2.141202314921722e7 5.841288700719872e6 0.0
0.0 0.0 0.0

-1.1824308042974174e7 1.841467764287916e7 0.0
1.841467764287916e7 1.7511690782907815e6 0.0
0.0 0.0 0.0

-927069.574699562 1.7704118823694535e7 0.0
1.7704118823694535e7 -6.41824510516367e6 0.0
0.0 0.0 0.0

-6.747752113431478e6 -8.413618562735071e6 0.0
-8.413618562735071e6 1.6716751674336586e7 0.0
0.0 0.0 0.0

-954139.5742955366 1.316469333103537e7 0.0
1.316469333103537e7 4.1113714006614857e6 0.0
0.0 0.0 0.0

-9.330318798738388e6 -6.458311316096351e6 0.0
-6.458311316096351e6 2.4756440739528377e7 0.0
0.0 0.0 0.0

2.0813821585706263e6 1.5749169386912646e7 0.0
1.5749169386912646e7 3.0957612682262235e6 0.0
0.0 0.0 0.0

-3.746788244483358e6 1.712829329957927e7 0.0
1.712829329957927e7 1.2807298638128212e6 0.0
0.0 0.0 0.0

5.436032405028861e6 4.040657548692338e6 0.0
4.040657548692338e6 -2.036339874929395e7 0.0
0.0 0.0 0.0

-3.1524870384965567e6 1.6535995688499011e7 0.0
1.6535995688499011e7 -6.972896517267838e6 0.0
0.0 0.0 0.0

4.956636707568484e6 3.8082835308039794e6 0.0
3.8082835308039794e6 -1.5234297881039869e7 0.0
0.0 0.0 0.0

715871.1820271788 1.331089223834092e7 0.0
1.331089223834092e7 -1.4745977951546527e7 0.0
0.0 0.0 0.0

-5.71720404138351e6 2.469619194902458e7 0.0
2.469619194902458e7 4.323402307074685e6 0.0
0.0 0.0 0.0

-413064.6055240344 1.1200927371740216e7 0.0
1.1200927371740216e7 -565646.6347124977 0.0
0.0 0.0 0.0

-1.7775445127772947e6 1.7406403860077184e7 0.0
1.7406403860077184e7 -6.189941457512385e6 0.0
0.0 0.0 0.0

-4.56677324114456e6 2.360114297867774e7 0.0
2.360114297867774e7 3.535171547232555e6 0.0
0.0 0.0 0.0

-4.427420882373538e6 1.955338919749749e7 0.0
1.955338919749749e7 5.457597604208761e6 0.0
0.0 0.0 0.0

-4.373073603836784e6 2.0124900621862445e7 0.0
2.0124900621862445e7 3.2855465690318183e6 0.0
0.0 0.0 0.0

-3.0028455144471503e6 2.3311351973921113e7 0.0
2.3311351973921113e7 1.1462442260126378e6 0.0
0.0 0.0 0.0

-969299.8076419663 1.6891902850923546e7 0.0
1.6891902850923546e7 -6.874297557471323e6 0.0
0.0 0.0 0.0

-4.874386331121105e6 2.5306262906800143e7 0.0
2.5306262906800143e7 2.844016163446293e6 0.0
0.0 0.0 0.0

-9.128255553794928e6 8.495938743729975e6 0.0
8.495938743729975e6 1.043074740126854e7 0.0
0.0 0.0 0.0

1.3204545253166473e6 1.129411377583781e7 0.0
1.129411377583781e7 -1.1664649687209794e7 0.0
0.0 0.0 0.0

-8.61995139988962e6 -3.397153725657139e6 0.0
-3.397153725657139e6 1.2075147822968738e7 0.0
0.0 0.0 0.0

-8.828378852425266e6 1.999314153829424e7 0.0
1.999314153829424e7 5.141335840382857e6 0.0
0.0 0.0 0.0

-1.0186231658647325e7 -2.1258208690552446e6 0.0
-2.1258208690552446e6 3.420064742408708e7 0.0
0.0 0.0 0.0

-1.5090522249750588e6 2.1685546330972567e7 0.0
2.1685546330972567e7 -2.171375044973421e6 0.0
0.0 0.0 0.0

1.1791026893414622e6 1.3262295548885258e7 0.0
1.3262295548885258e7 -1.469402659034497e7 0.0
0.0 0.0 0.0

-857682.6198969185 1.494115785716626e7 0.0
1.494115785716626e7 5.574430081737652e6 0.0
0.0 0.0 0.0

-767814.3784237776 1.3075151891152645e7 0.0
1.3075151891152645e7 -7.368687991768665e6 0.0
0.0 0.0 0.0

2.0117751090706736e6 1.1499883502756616e7 0.0
1.1499883502756616e7 -1.964992337949661e7 0.0
0.0 0.0 0.0

3.617151034921786e6 4.524739594482486e6 0.0
4.524739594482486e6 -1.1668221239181936e7 0.0
0.0 0.0 0.0

-21326.902689827373 1.8732928124401823e7 0.0
1.8732928124401823e7 -5.218038191354019e6 0.0
0.0 0.0 0.0

-508842.55113992677 1.5473290566339273e7 0.0
1.5473290566339273e7 3.258828602965862e6 0.0
0.0 0.0 0.0

-3.5316326011979193e6 1.5165515448305508e7 0.0
1.5165515448305508e7 -1.3392265948445296e6 0.0
0.0 0.0 0.0

5.335614757934781e6 2.8124076388463294e6 0.0
2.8124076388463294e6 -3.36464993923881e7 0.0
0.0 0.0 0.0

-1.0304081876541827e7 1.232550900785776e6 0.0
1.232550900785776e6 1.512024006397621e7 0.0
0.0 0.0 0.0

4.772749322412614e6 4.505820013236216e6 0.0
4.505820013236216e6 -3.3616979739674985e7 0.0
0.0 0.0 0.0

-3.9005490097510084e6 -5.353271246401416e6 0.0
-5.353271246401416e6 6.742502121719528e6 0.0
0.0 0.0 0.0

-3.997053177572959e6 1.69296141348025e7 0.0
1.69296141348025e7 126554.76035821461 0.0
0.0 0.0 0.0

-460021.1009631037 1.5502679937900757e7 0.0
1.5502679937900757e7 1.6878872114304658e6 0.0
0.0 0.0 0.0

-630245.6945087602 1.4502773693366596e7 0.0
1.4502773693366596e7 3.698586744174259e6 0.0
0.0 0.0 0.0

-7.453980828088635e6 1.195205256220129e7 0.0
1.195205256220129e7 1.1457485905863196e7 0.0
0.0 0.0 0.0

-8.274508030079946e6 -7.4541510941924e6 0.0
-7.4541510941924e6 1.981461348488318e7 0.0
0.0 0.0 0.0

57783.61983916396 1.994077571942253e7 0.0
1.994077571942253e7 -4.110600947923828e6 0.0
0.0 0.0 0.0

-277380.1511576059 1.680349953981204e7 0.0
1.680349953981204e7 1.1521036325489936e7 0.0
0.0 0.0 0.0

3.4390025621665856e6 7.803220420725745e6 0.0
7.803220420725745e6 -1.7106556473031376e7 0.0
0.0 0.0 0.0

-9.1316236181908e6 -5.608110839128636e6 0.0
-5.608110839128636e6 2.236263254332111e7 0.0
0.0 0.0 0.0

-773161.4118288178 1.5742688826914674e7 0.0
1.5742688826914674e7 8.743145895370804e6 0.0
0.0 0.0 0.0

-8.003138519360557e6 1.3515483402270604e7 0.0
1.3515483402270604e7 2.632472749102062e7 0.0
0.0 0.0 0.0

731499.826002371 1.6562383965960719e7 0.0
1.6562383965960719e7 8.80241023792758e6 0.0
0.0 0.0 0.0

-1.0498734502074178e6 1.2818995635193892e7 0.0
1.2818995635193892e7 -2.9019635187814217e7 0.0
0.0 0.0 0.0

-6.867521523963253e6 1.5902631024770694e7 0.0
1.5902631024770694e7 1.5962863421644313e7 0.0
0.0 0.0 0.0

-1.6434429133940032e6 1.5458871375906104e7 0.0
1.5458871375906104e7 1.047969290149134e7 0.0
0.0 0.0 0.0

-137512.03312294604 1.6465248676502496e7 0.0
1.6465248676502496e7 -8.428175533328619e6 0.0
0.0 0.0 0.0

-1.0840461896279e6 1.6455771336029457e7 0.0
1.6455771336029457e7 -3.595476976372269e6 0.0
0.0 0.0 0.0

3.6167064975940287e6 7.529910120474519e6 0.0
7.529910120474519e6 -2.5979425980734266e7 0.0
0.0 0.0 0.0

3.8387884993268047e6 6.9587844748046445e6 0.0
6.9587844748046445e6 -2.7163434684042078e7 0.0
0.0 0.0 0.0

-10177.589918753598 1.2855649247554006e7 0.0
1.2855649247554006e7 -7.02760021841521e6 0.0
0.0 0.0 0.0

-1.1281362814963099e7 1.333562551248823e7 0.0
1.333562551248823e7 1.955145174966219e7 0.0
0.0 0.0 0.0

-576569.0088470797 1.5656468972808613e7 0.0
1.5656468972808613e7 -9.953668652891649e6 0.0
0.0 0.0 0.0

-8.993244668234497e6 1.327466983968307e6 0.0
1.327466983968307e6 4.521363568530755e7 0.0
0.0 0.0 0.0

550577.607689891 1.180787109717797e7 0.0
1.180787109717797e7 -1.891948584615223e7 0.0
0.0 0.0 0.0

-2.3346065596387535e6 1.2320033231409714e7 0.0
1.2320033231409714e7 4.374170516957614e7 0.0
0.0 0.0 0.0

5.38869341483992e6 2.910352775296854e6 0.0
2.910352775296854e6 -3.2333553475472048e7 0.0
0.0 0.0 0.0

-1.296774658003768e6 1.760005863537456e7 0.0
1.760005863537456e7 -6.1794474733073125e6 0.0
0.0 0.0 0.0

-227064.87171248207 1.6401889116580695e7 0.0
1.6401889116580695e7 9.51838058069089e6 0.0
0.0 0.0 0.0

-2.3228679103198433e6 1.3652227027770137e7 0.0
1.3652227027770137e7 -2.6432968678890105e7 0.0
0.0 0.0 0.0

3.537771187991614e6 9.406042524579424e6 0.0
9.406042524579424e6 1.8629310910682771e6 0.0
0.0 0.0 0.0

-911565.7775585196 1.5833680492499083e7 0.0
1.5833680492499083e7 -4.608457555122186e6 0.0
0.0 0.0 0.0

-852752.5610501091 1.6159625662645604e7 0.0
1.6159625662645604e7 9.812248786118777e6 0.0
0.0 0.0 0.0

-5.376832062755228e6 1.737582348842872e7 0.0
1.737582348842872e7 8.237026729617152e6 0.0
0.0 0.0 0.0

-5.074415442455213e6 1.641388055515481e7 0.0
1.641388055515481e7 1.12292763950759e7 0.0
0.0 0.0 0.0

1.120102365987462e6 1.0444323930277178e7 0.0
1.0444323930277178e7 -1.044130696418196e7 0.0
0.0 0.0 0.0

-1.2657952865495447e7 1.1641044793219348e7 0.0
1.1641044793219348e7 1.8162400727578357e7 0.0
0.0 0.0 0.0

-456198.6679785345 1.24090654092631e7 0.0
1.24090654092631e7 -2.7366313908616386e7 0.0
0.0 0.0 0.0

-1.224347857273236e6 1.569491226421288e7 0.0
1.569491226421288e7 -6.819450663672401e6 0.0
0.0 0.0 0.0

-4.9885328463638965e6 1.7574717393615816e7 0.0
1.7574717393615816e7 4.628289593994947e6 0.0
0.0 0.0 0.0

714591.6984503926 9.333280772433072e6 0.0
9.333280772433072e6 -6.6984441861323565e6 0.0
0.0 0.0 0.0

-8.053794635442279e6 4.354481335897105e6 0.0
4.354481335897105e6 6.0216466205923304e7 0.0
0.0 0.0 0.0

-2.4782902280861326e6 1.3891381855019009e7 0.0
1.3891381855019009e7 -3.219674115199567e7 0.0
0.0 0.0 0.0

-6.4180257610218255e6 1.5694994179342072e7 0.0
1.5694994179342072e7 1.737301882362275e7 0.0
0.0 0.0 0.0

-3.5067478643099805e6 2.22645875360955e7 0.0
2.22645875360955e7 1.9145855589185944e6 0.0
0.0 0.0 0.0

8.398798488429165e6 1.699119527662899e7 0.0
1.699119527662899e7 5.407216290588298e6 0.0
0.0 0.0 0.0

-5.163008733910832e6 1.5434568309847033e7 0.0
1.5434568309847033e7 2.1695332200175844e7 0.0
0.0 0.0 0.0

-6.620494608403855e6 1.5767939498273378e7 0.0
1.5767939498273378e7 1.3472438047713345e7 0.0
0.0 0.0 0.0

888679.0014556339 1.2023091982755307e7 0.0
1.2023091982755307e7 -1.136917744887663e7 0.0
0.0 0.0 0.0

-1.534798662849078e6 1.5181246881636823e7 0.0
1.5181246881636823e7 -7.684437661224484e6 0.0
0.0 0.0 0.0

-7.397156125014587e6 1.4551900015604444e7 0.0
1.4551900015604444e7 9.936395856246911e6 0.0
0.0 0.0 0.0

-7.42122938736832e6 1.3322096989378707e7 0.0
1.3322096989378707e7 1.191211017560169e7 0.0
0.0 0.0 0.0

4.88711891165313e6 4.1678891651329147e6 0.0
4.1678891651329147e6 -1.9219986883543633e7 0.0
0.0 0.0 0.0

-4.881559670087403e6 1.9157577318128813e7 0.0
1.9157577318128813e7 7.971728332431836e6 0.0
0.0 0.0 0.0

-717909.7287021492 1.1597470975347947e7 0.0
1.1597470975347947e7 -2.425250626319822e6 0.0
0.0 0.0 0.0

4.946076072661037e6 4.375321273443985e6 0.0
4.375321273443985e6 -1.4734850086501569e7 0.0
0.0 0.0 0.0

-2.048755883448583e6 2.1064371271040346e7 0.0
2.1064371271040346e7 -2.0685004433260513e6 0.0
0.0 0.0 0.0

-59479.57221367536 1.6752316438342562e7 0.0
1.6752316438342562e7 1.070342181575178e7 0.0
0.0 0.0 0.0

-9.670809429404628e6 -595880.6288039892 0.0
-595880.6288039892 3.9190173221369065e7 0.0
0.0 0.0 0.0

2.263338750305331e6 1.7347971731975157e7 0.0
1.7347971731975157e7 7.307830537992282e6 0.0
0.0 0.0 0.0

1.62547080409979e6 1.6246552807181133e7 0.0
1.6246552807181133e7 5.40321175676199e6 0.0
0.0 0.0 0.0

14480.103853398468 1.4645751692143155e7 0.0
1.4645751692143155e7 -1.032999502093989e7 0.0
0.0 0.0 0.0

5.150739078917913e6 3.922805388150088e6 0.0
3.922805388150088e6 -2.4355260425415456e7 0.0
0.0 0.0 0.0

538225.8535973644 1.4230498133446977e7 0.0
1.4230498133446977e7 5.987546850889283e6 0.0
0.0 0.0 0.0

-6661.005496234633 1.4982472404942676e7 0.0
1.4982472404942676e7 -9.555442090310737e6 0.0
0.0 0.0 0.0

-729461.3845103397 1.475180611274491e7 0.0
1.475180611274491e7 6.513263018852545e6 0.0
0.0 0.0 0.0

-7.619162982462637e6 4.072826130365502e6 0.0
4.072826130365502e6 1.0594466548749007e7 0.0
0.0 0.0 0.0

-3.8588871755233444e6 -3.917258828915081e6 0.0
-3.917258828915081e6 6.5200592952347165e6 0.0
0.0 0.0 0.0

-3.8352807321147383e6 1.700108709389092e7 0.0
1.700108709389092e7 2.544216647051807e6 0.0
0.0 0.0 0.0

1.9191621696944283e6 1.1916869424308091e7 0.0
1.1916869424308091e7 -1.716879126793588e7 0.0
0.0 0.0 0.0

-1.2081429595326884e6 1.3659494582163341e7 0.0
1.3659494582163341e7 -1.194346664027467e7 0.0
0.0 0.0 0.0

-8.2904611594595425e6 940759.2949314386 0.0
940759.2949314386 5.863329535722625e7 0.0
0.0 0.0 0.0

-5.701893986985326e6 2.5917611128604885e7 0.0
2.5917611128604885e7 2.9961771083115553e6 0.0
0.0 0.0 0.0

1.2715444220166686e6 5.544710509637725e6 0.0
5.544710509637725e6 -4.0535316126608187e6 0.0
0.0 0.0 0.0

-680254.7239249719 1.5648483390391417e7 0.0
1.5648483390391417e7 264537.36345016025 0.0
0.0 0.0 0.0

-1.0106985876188506e6 1.5755700570873857e7 0.0
1.5755700570873857e7 8.444084919847617e6 0.0
0.0 0.0 0.0

-1.1415077543657202e7 1.3315913747434141e7 0.0
1.3315913747434141e7 1.8207358539477758e7 0.0
0.0 0.0 0.0

-9.045987196802009e6 1.9575022001329083e7 0.0
1.9575022001329083e7 3.609114384371536e6 0.0
0.0 0.0 0.0

498155.4207565503 1.6361175162968308e7 0.0
1.6361175162968308e7 6.690587898667415e6 0.0
0.0 0.0 0.0

-1.183273154845973e6 1.6100588968236947e7 0.0
1.6100588968236947e7 8.1026501360212285e6 0.0
0.0 0.0 0.0

430888.72926161997 1.4565635974268211e7 0.0
1.4565635974268211e7 -1.24118193339512e7 0.0
0.0 0.0 0.0

2.5487430786487465e6 5.422507325140817e6 0.0
5.422507325140817e6 -9.476140260995109e6 0.0
0.0 0.0 0.0

39433.908848690335 1.4646740490770634e7 0.0
1.4646740490770634e7 -1.1496271433092857e7 0.0
0.0 0.0 0.0

-1.2780440828440946e6 1.6538429085863898e7 0.0
1.6538429085863898e7 -7.757952319606559e6 0.0
0.0 0.0 0.0

-4.369580478681248e6 1.8922785515462913e7 0.0
1.8922785515462913e7 4.75684030053477e6 0.0
0.0 0.0 0.0

-360958.7137508835 1.7182103255594246e7 0.0
1.7182103255594246e7 -7.197845816407589e6 0.0
0.0 0.0 0.0

-548438.4942483592 1.6663859104120836e7 0.0
1.6663859104120836e7 -7.856128953036661e6 0.0
0.0 0.0 0.0

5.178121348267506e6 4.601253582614419e6 0.0
4.601253582614419e6 -2.225840296756624e7 0.0
0.0 0.0 0.0

387232.14388615126 1.5409577571947414e7 0.0
1.5409577571947414e7 4.56732325492367e6 0.0
0.0 0.0 0.0

-1.5535778246644475e6 1.6956090341508906e7 0.0
1.6956090341508906e7 -6.929815878628371e6 0.0
0.0 0.0 0.0

-1.219625469653038e7 9.17565373581697e6 0.0
9.17565373581697e6 1.511501728236666e7 0.0
0.0 0.0 0.0

-6.021272092860149e7 2.292346645015549e7 0.0
2.292346645015549e7 616853.3936044686 0.0
0.0 0.0 0.0

2.1220492427124426e7 2.485963346988386e7 0.0
2.485963346988386e7 7.073513677241775e7 0.0
0.0 0.0 0.0

-1.7258780846789256e7 2.212166552393994e7 0.0
2.212166552393994e7 -5.752940115685664e7 0.0
0.0 0.0 0.0

-7.746947490106472e6 1.5468767784035387e7 0.0
1.5468767784035387e7 1.5659794968279071e7 0.0
0.0 0.0 0.0

1.5868702150698826e6 1.1742534146046186e7 0.0
1.1742534146046186e7 -1.523995558146969e7 0.0
0.0 0.0 0.0

-1.9677186598743927e6 1.608421262345184e7 0.0
1.608421262345184e7 -7.312056621054415e6 0.0
0.0 0.0 0.0

-2.3761337503204723e6 2.592878129209924e7 0.0
2.592878129209924e7 -830747.6918097518 0.0
0.0 0.0 0.0

-133819.28345912416 1.3527711665095901e7 0.0
1.3527711665095901e7 -1.4561045186875733e7 0.0
0.0 0.0 0.0

-1.6195956124045693e6 1.679338389803034e7 0.0
1.679338389803034e7 -4.3641973759021945e6 0.0
0.0 0.0 0.0

-1.1850165390738567e7 1.1205438676122379e7 0.0
1.1205438676122379e7 1.5770070608765915e7 0.0
0.0 0.0 0.0

-2.8863570044342875e6 1.899497111806064e7 0.0
1.899497111806064e7 -438048.790309612 0.0
0.0 0.0 0.0

-127946.28019782435 1.2933936066679442e7 0.0
1.2933936066679442e7 -2.0965077499092896e7 0.0
0.0 0.0 0.0

-444158.88528924296 1.5925809121182013e7 0.0
1.5925809121182013e7 -4.321918575707161e6 0.0
0.0 0.0 0.0

-5.868481230182759e6 1.7346885474992488e7 0.0
1.7346885474992488e7 8.960123283983279e6 0.0
0.0 0.0 0.0

8.37359453047246e6 1.6209043636357415e7 0.0
1.6209043636357415e7 -3.485404039108125e6 0.0
0.0 0.0 0.0

-755724.0236018475 1.4077817897619875e7 0.0
1.4077817897619875e7 4.628838293582616e6 0.0
0.0 0.0 0.0

-7.275088431532302e6 1.5392742647024494e7 0.0
1.5392742647024494e7 1.436769867557209e7 0.0
0.0 0.0 0.0

-1.3463965368647765e7 1.834162177854476e7 0.0
1.834162177854476e7 249839.61188119743 0.0
0.0 0.0 0.0

-733473.5947028606 1.4278790842062164e7 0.0
1.4278790842062164e7 4.66865654381109e6 0.0
0.0 0.0 0.0

-1.786404450951654e6 2.1378093442623343e7 0.0
2.1378093442623343e7 -1.9735493454574533e6 0.0
0.0 0.0 0.0

2.49967345498066e6 1.9653194561116368e7 0.0
1.9653194561116368e7 -5.056614795099196e6 0.0
0.0 0.0 0.0

1.8454486823702324e6 1.1299085350136284e7 0.0
1.1299085350136284e7 -1.1836352386816477e7 0.0
0.0 0.0 0.0

-8.711830886083137e6 1.5107815436671559e7 0.0
1.5107815436671559e7 1.815879797216662e7 0.0
0.0 0.0 0.0

32168.594990982674 1.425893999088584e7 0.0
1.425893999088584e7 -1.2872095641276171e7 0.0
0.0 0.0 0.0

-4.163397178118553e6 1.3931968315655902e7 0.0
1.3931968315655902e7 3.149964072985884e6 0.0
0.0 0.0 0.0

-8.1810161237550145e6 1.4210813766679918e7 0.0
1.4210813766679918e7 1.1666649694173176e7 0.0
0.0 0.0 0.0

2.140650919290067e6 6.766545194323444e6 0.0
6.766545194323444e6 -7.463977417150099e6 0.0
0.0 0.0 0.0

-511029.8851391012 1.4885219057683054e7 0.0
1.4885219057683054e7 5.11525817263708e6 0.0
0.0 0.0 0.0

-177370.64128307556 1.9370708970555063e7 0.0
1.9370708970555063e7 -4.767433854230068e6 0.0
0.0 0.0 0.0

2.268435557141302e6 9.843451430202078e6 0.0
9.843451430202078e6 -3.752686675579971e7 0.0
0.0 0.0 0.0

-1.1938321113845123e7 8.70613849130885e6 0.0
8.70613849130885e6 1.4476347229576629e7 0.0
0.0 0.0 0.0

6.2174207299844865e6 2.7092015586948592e7 0.0
2.7092015586948592e7 -6.822048254352807e6 0.0
0.0 0.0 0.0

4.397885857078524e6 7.01700609408521e6 0.0
7.01700609408521e6 -2.526661014401887e7 0.0
0.0 0.0 0.0

-477045.5911513192 1.470287349954705e7 0.0
1.470287349954705e7 3.976060468492226e6 0.0
0.0 0.0 0.0

-978227.8724605779 1.7962499949132144e7 0.0
1.7962499949132144e7 -6.1488964333266895e6 0.0
0.0 0.0 0.0

7.46429332529781e6 1.9097025509031396e7 0.0
1.9097025509031396e7 1.0691858423134252e8 0.0
0.0 0.0 0.0

-7.270045282822359e6 1.812636696008137e7 0.0
1.812636696008137e7 -8.308617769869594e7 0.0
0.0 0.0 0.0

1.564487605959061e7 1.5739943355372507e7 0.0
1.5739943355372507e7 3.5278271195660923e6 0.0
0.0 0.0 0.0

3.6532539637875617e6 1.9160395625418514e7 0.0
1.9160395625418514e7 -5.479872073891233e6 0.0
0.0 0.0 0.0

796330.2105104772 8.936177304564914e6 0.0
8.936177304564914e6 -6.102347112898261e6 0.0
0.0 0.0 0.0

7.372413731027838e6 2.46644748361975e7 0.0
2.46644748361975e7 -7.226961745685651e6 0.0
0.0 0.0 0.0

-4.1083496317797545e6 1.6281519996931532e7 0.0
1.6281519996931532e7 1.2570918171244381e7 0.0
0.0 0.0 0.0

6.832529168783009e6 1.6023901305794112e7 0.0
1.6023901305794112e7 -2.9489224491749965e6 0.0
0.0 0.0 0.0

-5.154237095442984e6 1.859502440120627e7 0.0
1.859502440120627e7 6.318581737174731e6 0.0
0.0 0.0 0.0

-6.8240112048809435e6 1.2796173070465825e7 0.0
1.2796173070465825e7 1.029684446731726e7 0.0
0.0 0.0 0.0

965835.2460811639 4.255034426318717e6 0.0
4.255034426318717e6 -4.5390623502460215e6 0.0
0.0 0.0 0.0

194675.46596533014 1.6979242170966737e7 0.0
1.6979242170966737e7 1.1687791679175982e7 0.0
0.0 0.0 0.0

-2.3736305627015093e6 1.881687783069878e7 0.0
1.881687783069878e7 -3.429313570213075e6 0.0
0.0 0.0 0.0

-8.093717506134397e6 1.5559187903740102e7 0.0
1.5559187903740102e7 1.6454803336738672e7 0.0
0.0 0.0 0.0

-5.458439846968381e6 1.930371661076208e7 0.0
1.930371661076208e7 7.62258914897391e6 0.0
0.0 0.0 0.0

-4.751487301713039e6 1.8353580860321313e7 0.0
1.8353580860321313e7 6.753643336664727e6 0.0
0.0 0.0 0.0

-942310.6633524132 1.2679988552679034e7 0.0
1.2679988552679034e7 -5.154424013819306e6 0.0
0.0 0.0 0.0

-6.185904205913459e6 1.5624601852353416e7 0.0
1.5624601852353416e7 1.8069153819620516e7 0.0
0.0 0.0 0.0

-4.783291979254581e6 1.893828633571061e7 0.0
1.893828633571061e7 7.318475962924523e6 0.0
0.0 0.0 0.0

-4.13789147862646e6 9.836653273642825e6 0.0
9.836653273642825e6 3.984748052696836e6 0.0
0.0 0.0 0.0

-2.750773776906777e7 2.298449170245539e7 0.0
2.298449170245539e7 3.7587594018193036e6 0.0
0.0 0.0 0.0

-1.0106938992208766e7 1.96099872973043e6 0.0
1.96099872973043e6 3.9060366345809095e7 0.0
0.0 0.0 0.0

-6.488590971684325e6 1.944256548535578e7 0.0
1.944256548535578e7 6.737203196187904e6 0.0
0.0 0.0 0.0

-6.43222253781415e6 2.2873948013530433e7 0.0
2.2873948013530433e7 6.277892669060736e6 0.0
0.0 0.0 0.0

896190.6755464589 1.2538707409243701e7 0.0
1.2538707409243701e7 -1.9241295584641367e7 0.0
0.0 0.0 0.0

-3.7287790459850635e6 2.4285574729699418e7 0.0
2.4285574729699418e7 3.1848322380514983e6 0.0
0.0 0.0 0.0

-6.956992634789728e6 2.667898460350089e7 0.0
2.667898460350089e7 3.0525287945817513e6 0.0
0.0 0.0 0.0

-8.243353704990392e6 2.737895641253535e7 0.0
2.737895641253535e7 3.3280324813965526e6 0.0
0.0 0.0 0.0

-3.0249544886780703e6 2.032873959468839e7 0.0
2.032873959468839e7 -847766.6368435802 0.0
0.0 0.0 0.0

-1.234967070270677e7 8.905037959392063e6 0.0
8.905037959392063e6 2.153809731377461e7 0.0
0.0 0.0 0.0

5.391432322581031e6 3.319786264269262e6 0.0
3.319786264269262e6 -2.0922288535967268e7 0.0
0.0 0.0 0.0

-6.799492224334864e6 1.5866900921037087e7 0.0
1.5866900921037087e7 1.6273860546761751e7 0.0
0.0 0.0 0.0

-1.9611441843522228e6 2.190806481352978e7 0.0
2.190806481352978e7 -1.3560175942508308e6 0.0
0.0 0.0 0.0

899186.0398745686 1.2971887794546053e7 0.0
1.2971887794546053e7 -1.5593455048323013e7 0.0
0.0 0.0 0.0

-1.0032721856228227e7 -3.755594929349025e6 0.0
-3.755594929349025e6 2.965959319441897e7 0.0
0.0 0.0 0.0

37089.12513817787 1.5350541587689003e7 0.0
1.5350541587689003e7 286842.39084687026 0.0
0.0 0.0 0.0

-133000.5828611711 1.5367653299380943e7 0.0
1.5367653299380943e7 -8.929283314636588e6 0.0
0.0 0.0 0.0

65151.94249899499 1.4319591148595368e7 0.0
1.4319591148595368e7 -1.1030461778423857e7 0.0
0.0 0.0 0.0

-1.4145771955923396e6 1.2418584899520336e7 0.0
1.2418584899520336e7 -1.0263620344462022e7 0.0
0.0 0.0 0.0

-6.143968710804135e6 -3.4439234547197525e6 0.0
-3.4439234547197525e6 8.597841568251396e6 0.0
0.0 0.0 0.0

241136.8808857177 1.2803098930314219e7 0.0
1.2803098930314219e7 -2.6507410192157268e6 0.0
0.0 0.0 0.0

601186.7831847994 1.451285398064755e7 0.0
1.451285398064755e7 3.9763030902699605e6 0.0
0.0 0.0 0.0

9.579892462549563e6 1.4696804895637993e7 0.0
1.4696804895637993e7 1.3191216452000432e6 0.0
0.0 0.0 0.0

-9.268815258823996e6 2.867590018306668e7 0.0
2.867590018306668e7 3.801780363232797e6 0.0
0.0 0.0 0.0

-7.1500970836342955e6 1.305903557309798e7 0.0
1.305903557309798e7 1.1160840653422728e7 0.0
0.0 0.0 0.0

-4.437502491518534e6 1.5205933861184984e7 0.0
1.5205933861184984e7 -3.585449894600655e7 0.0
0.0 0.0 0.0

4.600287631440551e6 6.5375651482821405e6 0.0
6.5375651482821405e6 -2.1554418889258057e7 0.0
0.0 0.0 0.0

-6.989755002561482e6 -8.463330315113889e6 0.0
-8.463330315113889e6 1.61619736238118e7 0.0
0.0 0.0 0.0

-1.2818599590224177e7 2.2176995382995583e7 0.0
2.2176995382995583e7 39068.57946308423 0.0
0.0 0.0 0.0

-1.2019783941329436e7 1.8926236392179742e7 0.0
1.8926236392179742e7 -1.3188655546557396e6 0.0
0.0 0.0 0.0

-627939.9446004806 1.3239178425695108e7 0.0
1.3239178425695108e7 -6.555902603441748e6 0.0
0.0 0.0 0.0

-2.7301272290711813e6 2.1637900901014943e7 0.0
2.1637900901014943e7 -322072.24667232146 0.0
0.0 0.0 0.0

3.644074863602584e6 6.408479529223552e6 0.0
6.408479529223552e6 -3.616371919327437e7 0.0
0.0 0.0 0.0

3.0607267074431432e6 1.715761548849262e7 0.0
1.715761548849262e7 -4.43800984177998e6 0.0
0.0 0.0 0.0

994919.333047634 1.6803813317990292e7 0.0
1.6803813317990292e7 7.341918175864362e6 0.0
0.0 0.0 0.0

2.1444792906563636e6 1.1568376239490062e7 0.0
1.1568376239490062e7 -1.5022857381987818e7 0.0
0.0 0.0 0.0

-3.4841905097035924e6 1.793850316489643e7 0.0
1.793850316489643e7 1.0473465906398015e6 0.0
0.0 0.0 0.0

1.8709066961075682e6 1.0966710374622548e7 0.0
1.0966710374622548e7 -1.1237844626398034e7 0.0
0.0 0.0 0.0

1.7749989695479972e6 1.13837555940152e7 0.0
1.13837555940152e7 -1.6136439053147705e7 0.0
0.0 0.0 0.0

-604095.3229393479 1.3060952618441587e7 0.0
1.3060952618441587e7 -1.0997019482910989e7 0.0
0.0 0.0 0.0

-6.651349105318472e6 2.2166499782622617e7 0.0
2.2166499782622617e7 5.921586086806631e6 0.0
0.0 0.0 0.0

-8.287493834256544e6 1.7792102532125775e7 0.0
1.7792102532125775e7 -4.152444052147109e7 0.0
0.0 0.0 0.0

5.32517278420721e6 2.440334769106924e7 0.0
2.440334769106924e7 -5.314660200053644e6 0.0
0.0 0.0 0.0

537442.3820811026 1.9384056692718122e7 0.0
1.9384056692718122e7 -4.790828034066454e6 0.0
0.0 0.0 0.0

-3.6526023340407973e6 2.294205545595035e7 0.0
2.294205545595035e7 3.4029228382429043e6 0.0
0.0 0.0 0.0

-5.24587420426297e6 1.8515238906727932e7 0.0
1.8515238906727932e7 8.247407190609617e6 0.0
0.0 0.0 0.0

3.829915959655788e6 5.571536618927467e6 0.0
5.571536618927467e6 -3.749649979574696e7 0.0
0.0 0.0 0.0

-5.360376254799122e6 1.704722699496049e7 0.0
1.704722699496049e7 1.0801885567008656e7 0.0
0.0 0.0 0.0

4.403002734568423e6 5.393879250497534e6 0.0
5.393879250497534e6 -3.0759992924354754e7 0.0
0.0 0.0 0.0

-1.329593743336572e6 1.6114869085951608e7 0.0
1.6114869085951608e7 -5.830695611418221e6 0.0
0.0 0.0 0.0

-1.0982818758581944e6 1.5585820247767895e7 0.0
1.5585820247767895e7 -6.135630270178519e6 0.0
0.0 0.0 0.0

-67333.92094983417 1.2455468451823e7 0.0
1.2455468451823e7 -3.345999622318631e6 0.0
0.0 0.0 0.0

-5.006787876986078e6 1.593319278464311e7 0.0
1.593319278464311e7 1.1634177749318365e7 0.0
0.0 0.0 0.0

-3.44333665357173e6 1.9659609238132562e7 0.0
1.9659609238132562e7 -333730.02414631355 0.0
0.0 0.0 0.0

-6.404922249208517e6 1.6121436673041126e7 0.0
1.6121436673041126e7 1.0053191588654825e7 0.0
0.0 0.0 0.0

-7.8857668525420325e6 -7.69697858225457e6 0.0
-7.69697858225457e6 2.0391932617321838e7 0.0
0.0 0.0 0.0

4.205788924636081e6 6.330948988673605e6 0.0
6.330948988673605e6 -2.2796373034517206e7 0.0
0.0 0.0 0.0

3.4856257360227313e6 7.9729243352371445e6 0.0
7.9729243352371445e6 -1.8344240699534737e7 0.0
0.0 0.0 0.0

-2.2750541974117574e6 2.331655455387593e7 0.0
2.331655455387593e7 410087.5424295323 0.0
0.0 0.0 0.0

-1.1706171968194118e6 1.6046900981534734e7 0.0
1.6046900981534734e7 -6.404085877304723e6 0.0
0.0 0.0 0.0

1.4969251602285895e6 1.2035455469056977e7 0.0
1.2035455469056977e7 -1.9464987733052492e7 0.0
0.0 0.0 0.0

-1.8718081494037108e6 1.6217397834365496e7 0.0
1.6217397834365496e7 1.2207460572017789e7 0.0
0.0 0.0 0.0

-8.896069037772404e6 229276.6233458519 0.0
229276.6233458519 1.3396284947906587e7 0.0
0.0 0.0 0.0

858571.1426881871 1.7429819145040672e7 0.0
1.7429819145040672e7 8.742384498164697e6 0.0
0.0 0.0 0.0

-1.1797046289589744e7 2.403490787692331e7 0.0
2.403490787692331e7 8.072054353380688e6 0.0
0.0 0.0 0.0

1.0550603968915462e6 1.5102424792325458e7 0.0
1.5102424792325458e7 4.2236687681243485e6 0.0
0.0 0.0 0.0

24058.0263943593 1.4702502512421748e7 0.0
1.4702502512421748e7 7.300680090449411e6 0.0
0.0 0.0 0.0

-5.138599367576245e6 2.173295879244528e7 0.0
2.173295879244528e7 5.756419702700546e6 0.0
0.0 0.0 0.0

-5.641298467742116e6 1.6369392161401028e7 0.0
1.6369392161401028e7 1.1938402610126508e7 0.0
0.0 0.0 0.0

-5.654376091868598e6 1.4723467853566123e7 0.0
1.4723467853566123e7 2.0790119748605616e7 0.0
0.0 0.0 0.0

-1.0995322069411993e7 1.955437297737443e7 0.0
1.955437297737443e7 103887.05606604973 0.0
0.0 0.0 0.0

-9.560271167761762e6 1.836219911907139e7 0.0
1.836219911907139e7 2.696193578058195e6 0.0
0.0 0.0 0.0

-1.0907632508508842e7 1.0512886345600963e7 0.0
1.0512886345600963e7 6.691535594535461e6 0.0
0.0 0.0 0.0

-5.365381812592487e7 2.5477943787617214e7 0.0
2.5477943787617214e7 5.360600896739677e6 0.0
0.0 0.0 0.0

5.490850804707721e6 1.5063984793413037e7 0.0
1.5063984793413037e7 2.7365561501179785e6 0.0
0.0 0.0 0.0

233439.83437622152 1.2732046005446605e7 0.0
1.2732046005446605e7 -1.9560755092404306e7 0.0
0.0 0.0 0.0

-5.30765199219105e6 1.8098034751159795e7 0.0
1.8098034751159795e7 6.384393030430345e6 0.0
0.0 0.0 0.0

-361549.5597882471 1.5258813060479885e7 0.0
1.5258813060479885e7 -1.0793972587882282e7 0.0
0.0 0.0 0.0

2.520206012370148e7 1.2645794191792356e7 0.0
1.2645794191792356e7 -112780.0168941915 0.0
0.0 0.0 0.0

-1.9750268243067833e6 1.5357193424563522e6 0.0
1.5357193424563522e6 2.516765506945138e6 0.0
0.0 0.0 0.0

3.7605194582084306e6 3.6963940929237735e6 0.0
3.6963940929237735e6 -1.0806450920890138e7 0.0
0.0 0.0 0.0

-883759.3210875059 1.573392398895227e7 0.0
1.573392398895227e7 -8.955676173328523e6 0.0
0.0 0.0 0.0

-215429.067434975 1.347333850237075e7 0.0
1.347333850237075e7 -1.6023404657113403e6 0.0
0.0 0.0 0.0

-1.106291529444496e7 1.4490239109788875e6 0.0
1.4490239109788875e6 2.9590437010377645e7 0.0
0.0 0.0 0.0

1.4985527158525905e6 1.9904518627509937e7 0.0
1.9904518627509937e7 -4.671346486499157e6 0.0
0.0 0.0 0.0

-1.2982415611032411e7 2.9557996439126756e7 0.0
2.9557996439126756e7 4.148207541008494e6 0.0
0.0 0.0 0.0

5.074930472053628e6 1.5604376943386752e7 0.0
1.5604376943386752e7 1.8750371402360678e6 0.0
0.0 0.0 0.0

-5.427836004592937e6 -8.390878172711246e6 0.0
-8.390878172711246e6 1.31399245034827e7 0.0
0.0 0.0 0.0

-1.6464253406939816e7 1.9854379953635808e7 0.0
1.9854379953635808e7 6.025378048119041e6 0.0
0.0 0.0 0.0

-57451.883785420796 1.315797001631529e7 0.0
1.315797001631529e7 3.992179150945287e6 0.0
0.0 0.0 0.0

-1.7247360494351253e7 3.0787791163188383e7 0.0
3.0787791163188383e7 4.801000433268647e6 0.0
0.0 0.0 0.0

-9.693115791239534e6 1.3214041024761219e7 0.0
1.3214041024761219e7 1.5925514596530085e7 0.0
0.0 0.0 0.0

1.133200137470245e6 1.456976165562789e7 0.0
1.456976165562789e7 -2.7361506902428926e6 0.0
0.0 0.0 0.0

-3.3668689522045786e6 1.3369846379424868e7 0.0
1.3369846379424868e7 -1.5662673151098736e7 0.0
0.0 0.0 0.0

-850124.9969501446 1.3410259721101446e7 0.0
1.3410259721101446e7 -8.42851777153998e6 0.0
0.0 0.0 0.0

2.8346917100070133e6 1.6738765604669454e7 0.0
1.6738765604669454e7 -4.558085967058577e6 0.0
0.0 0.0 0.0

1.2788697784195343e7 2.8881777328732863e7 0.0
2.8881777328732863e7 -1.4798094831907861e7 0.0
0.0 0.0 0.0

-6.2502618716665e6 -3.2787142610317185e6 0.0
-3.2787142610317185e6 1.0441774901945341e7 0.0
0.0 0.0 0.0

-2.3499573080343166e6 2.5131202252831288e7 0.0
2.5131202252831288e7 -675312.3775624562 0.0
0.0 0.0 0.0

-1.1470531529726572e6 2.205794359739814e7 0.0
2.205794359739814e7 -1.1301245812525554e6 0.0
0.0 0.0 0.0

-1.0553379729927886e7 -3.9544190194112393e6 0.0
-3.9544190194112393e6 2.27439235765361e7 0.0
0.0 0.0 0.0

5.3860019474309655e6 3.2988846710364837e6 0.0
3.2988846710364837e6 -2.106913128422506e7 0.0
0.0 0.0 0.0

-4.729413996832967e6 2.0190897678494763e7 0.0
2.0190897678494763e7 6.9453385810621735e6 0.0
0.0 0.0 0.0

-91634.95016826736 1.7266406366024002e7 0.0
1.7266406366024002e7 9.788091448997196e6 0.0
0.0 0.0 0.0

-3.8468486354706413e6 2.651350111672942e6 0.0
2.651350111672942e6 6.0955893296434535e6 0.0
0.0 0.0 0.0

-1.0539818913742354e7 1.119854383770396e7 0.0
1.119854383770396e7 1.573233058893871e7 0.0
0.0 0.0 0.0

-757418.4219789002 1.6953858083127823e7 0.0
1.6953858083127823e7 1.0407363656129386e7 0.0
0.0 0.0 0.0

-565320.2569176015 1.3598292000036811e7 0.0
1.3598292000036811e7 -8.34002029312551e6 0.0
0.0 0.0 0.0

-969863.093263424 1.2866305282716474e7 0.0
1.2866305282716474e7 -1.160511853687398e7 0.0
0.0 0.0 0.0

-2.2276039791765343e6 2.0675587035361875e7 0.0
2.0675587035361875e7 -2.0869226269029935e6 0.0
0.0 0.0 0.0

-3.617625941099301e6 635506.6121751859 0.0
635506.6121751859 5.449550277205227e6 0.0
0.0 0.0 0.0

-3.957754012802882e6 1.5142370366107881e7 0.0
1.5142370366107881e7 2.5237423722717976e6 0.0
0.0 0.0 0.0

-1.110908697509249e7 1.375550818193034e7 0.0
1.375550818193034e7 1.874507971782563e7 0.0
0.0 0.0 0.0

1.1290529497607346e6 1.1631065196057482e7 0.0
1.1631065196057482e7 -9.437414942528864e6 0.0
0.0 0.0 0.0

-1.3103643465205166e6 1.746084683667009e7 0.0
1.746084683667009e7 -6.878304487636048e6 0.0
0.0 0.0 0.0

-2.1169919291004827e6 2.690812063171712e7 0.0
2.690812063171712e7 484606.38534473046 0.0
0.0 0.0 0.0

1.1432005821680622e6 1.1833294024511123e7 0.0
1.1833294024511123e7 -2.0624162274501685e7 0.0
0.0 0.0 0.0

-3.608098718532425e7 3.0650585416303296e7 0.0
3.0650585416303296e7 8.003562448489852e6 0.0
0.0 0.0 0.0

1.569081096052235e6 3.2899055730646555e6 0.0
3.2899055730646555e6 -3.763499884962784e6 0.0
0.0 0.0 0.0

1.4049003565799736e6 3.4052021675707395e6 0.0
3.4052021675707395e6 -4.544643793572466e6 0.0
0.0 0.0 0.0

1.3451385451045823e6 1.6067221752690947e7 0.0
1.6067221752690947e7 1.2946294144562203e7 0.0
0.0 0.0 0.0

345505.8174274885 1.7135467363529757e7 0.0
1.7135467363529757e7 1.2022919000488382e7 0.0
0.0 0.0 0.0

-761407.4905634534 1.5377878714356799e7 0.0
1.5377878714356799e7 4.831605329367524e6 0.0
0.0 0.0 0.0

-1.0374694354498737e7 9.486385582654003e6 0.0
9.486385582654003e6 1.5662991660084698e7 0.0
0.0 0.0 0.0

2.001596214634897e6 4.57053100837564e6 0.0
4.57053100837564e6 -1.1436491621524973e6 0.0
0.0 0.0 0.0

-2.821187438231009e6 1.648729215292911e7 0.0
1.648729215292911e7 6.424740658562413e6 0.0
0.0 0.0 0.0

-2.843327904462712e6 2.157464134423763e7 0.0
2.157464134423763e7 980564.2005930856 0.0
0.0 0.0 0.0

580553.8270692946 1.2391836253592558e7 0.0
1.2391836253592558e7 -2.1404277944791663e7 0.0
0.0 0.0 0.0

2.467600760275321e6 1.777318474356664e7 0.0
1.777318474356664e7 9.16941782816535e6 0.0
0.0 0.0 0.0

6.999688998121423e6 1.592941150472162e7 0.0
1.592941150472162e7 3.8803877671944355e6 0.0
0.0 0.0 0.0

-2.2675173675356347e7 3.1593604037432883e7 0.0
3.1593604037432883e7 6.845707675062156e6 0.0
0.0 0.0 0.0

-1.016157174717952e6 1.453500073073583e7 0.0
1.453500073073583e7 6.548738534276693e6 0.0
0.0 0.0 0.0

-6.193517285855105e6 6.555752812409734e6 0.0
6.555752812409734e6 5.22576074447952e6 0.0
0.0 0.0 0.0

-1.3093522106503312e7 7.821768005010151e6 0.0
7.821768005010151e6 1.791325098547794e7 0.0
0.0 0.0 0.0

-3.058807701303942e6 2.1093013203264676e7 0.0
2.1093013203264676e7 200647.8090114036 0.0
0.0 0.0 0.0

-288295.3551532873 1.701444107042821e7 0.0
1.701444107042821e7 1.2293721647456683e7 0.0
0.0 0.0 0.0

-1.0485674978783257e7 2.2238680987183587e6 0.0
2.2238680987183587e6 4.335040656151968e7 0.0
0.0 0.0 0.0

-2.3389763649414354e6 1.5645760538996058e7 0.0
1.5645760538996058e7 9.318448188029187e6 0.0
0.0 0.0 0.0

-5.391447064030604e6 1.4188355351084834e7 0.0
1.4188355351084834e7 -2.1276974625231188e7 0.0
0.0 0.0 0.0

-501204.7004003362 1.7217593569265697e7 0.0
1.7217593569265697e7 1.1331443361331563e7 0.0
0.0 0.0 0.0

-8.5269328999869e6 1.525835902344782e7 0.0
1.525835902344782e7 1.681425982748509e7 0.0
0.0 0.0 0.0

-264081.29747184133 1.2935734337899491e7 0.0
1.2935734337899491e7 -8.670200291058492e6 0.0
0.0 0.0 0.0

-1.4584526632081307e6 1.5609717179202005e7 0.0
1.5609717179202005e7 5.1238489155321956e7 0.0
0.0 0.0 0.0

1.4742009738009688e6 1.921358076121779e7 0.0
1.921358076121779e7 -4.864280248092104e6 0.0
0.0 0.0 0.0

247494.50114952028 1.4111900539776975e7 0.0
1.4111900539776975e7 -1.300548669676669e7 0.0
0.0 0.0 0.0

-173910.3225091698 1.0776505476190552e7 0.0
1.0776505476190552e7 -4.914675827426777e6 0.0
0.0 0.0 0.0

5.305163245338041e6 3.901442533529817e6 0.0
3.901442533529817e6 -2.5656087645557895e7 0.0
0.0 0.0 0.0

-1.8910184869362505e6 2.5965387552847307e7 0.0
2.5965387552847307e7 983871.1315451852 0.0
0.0 0.0 0.0

-1.3054597626231767e7 8.752899969414655e6 0.0
8.752899969414655e6 1.834080716866879e7 0.0
0.0 0.0 0.0

447657.93327519624 1.4889765378589401e7 0.0
1.4889765378589401e7 9.39474886282885e6 0.0
0.0 0.0 0.0

-7.268118522268773e6 1.968568130532144e7 0.0
1.968568130532144e7 5.467984959784174e6 0.0
0.0 0.0 0.0

-4.03331984101556e6 1.652706958600765e7 0.0
1.652706958600765e7 1.482128191881555e6 0.0
0.0 0.0 0.0

-1.1812594742990356e7 1.1994599889150053e7 0.0
1.1994599889150053e7 1.5843729271614006e7 0.0
0.0 0.0 0.0

2.6534040600404413e6 9.20946343272089e6 0.0
9.20946343272089e6 -1.5243670239713218e7 0.0
0.0 0.0 0.0

-1.2125090655881014e7 2.8195160508940093e7 0.0
2.8195160508940093e7 7.123761115500418e6 0.0
0.0 0.0 0.0

1.2791288064931812e7 1.0560045130255206e7 0.0
1.0560045130255206e7 -17542.507623651996 0.0
0.0 0.0 0.0

-8.31400665369169e6 -1.2868101469625852e6 0.0
-1.2868101469625852e6 1.0295672032492712e7 0.0
0.0 0.0 0.0

-5.83499065481139e6 2.2444915887694947e7 0.0
2.2444915887694947e7 5.696294062878162e6 0.0
0.0 0.0 0.0

-2.1571610182337962e7 1.5366333430850334e7 0.0
1.5366333430850334e7 9.587908446691388e6 0.0
0.0 0.0 0.0

-1.7444176934341218e6 1.680610723863279e7 0.0
1.680610723863279e7 -6.120899701656642e6 0.0
0.0 0.0 0.0

-3.422407612032039e7 2.3747866678060357e7 0.0
2.3747866678060357e7 4.884892991653452e6 0.0
0.0 0.0 0.0

-1.5540827644780031e6 1.691602173186357e7 0.0
1.691602173186357e7 -3.6204906999300863e6 0.0
0.0 0.0 0.0

-7.174593803296185e6 1.453464953848337e7 0.0
1.453464953848337e7 1.2150301222193152e7 0.0
0.0 0.0 0.0

-1.1382596049714744e7 8.404915895719893e6 0.0
8.404915895719893e6 1.6535909255591705e7 0.0
0.0 0.0 0.0

-8.285856999437441e6 1.2557340212566564e7 0.0
1.2557340212566564e7 1.0388051833769437e7 0.0
0.0 0.0 0.0

-5.281122053856462e6 1.8395531591176637e7 0.0
1.8395531591176637e7 8.805433513942396e6 0.0
0.0 0.0 0.0

-1.0525113584373591e7 -1.9683677607856616e6 0.0
-1.9683677607856616e6 2.952256829199747e7 0.0
0.0 0.0 0.0

-165618.3032843981 1.2589968977661846e7 0.0
1.2589968977661846e7 -1.4348942108031604e6 0.0
0.0 0.0 0.0

1.8557497548331874e6 1.0115448329268152e7 0.0
1.0115448329268152e7 -9.90886093536392e6 0.0
0.0 0.0 0.0

1.0858109373505935e6 1.3047030396091765e7 0.0
1.3047030396091765e7 -1.3265926356957683e7 0.0
0.0 0.0 0.0

-7.291903125616402e6 -6.517539286314011e6 0.0
-6.517539286314011e6 1.697198085649246e7 0.0
0.0 0.0 0.0

-764621.3752115935 1.291861275596066e7 0.0
1.291861275596066e7 -171484.61741925686 0.0
0.0 0.0 0.0

-6.618370323621199e6 1.9946911140139885e7 0.0
1.9946911140139885e7 6.217717665475408e6 0.0
0.0 0.0 0.0

-1.4324928229116518e6 1.6354761808243832e7 0.0
1.6354761808243832e7 1.4307131213643659e7 0.0
0.0 0.0 0.0

-490903.9693024475 1.5273750859025372e7 0.0
1.5273750859025372e7 -9.267345288457999e6 0.0
0.0 0.0 0.0

-249106.00209383573 1.4820739068308746e7 0.0
1.4820739068308746e7 2.077535470632974e6 0.0
0.0 0.0 0.0

-2.3496490331496713e6 2.4478364276968416e7 0.0
2.4478364276968416e7 -214989.5674137473 0.0
0.0 0.0 0.0

-63659.25309516257 1.5707361357700393e7 0.0
1.5707361357700393e7 -8.494219533178661e6 0.0
0.0 0.0 0.0

5.413600140830682e7 2.1039391715172593e7 0.0
2.1039391715172593e7 891185.2212193683 0.0
0.0 0.0 0.0

1.785014990426006e6 1.5125642163652029e7 0.0
1.5125642163652029e7 -4.1082479874982326e6 0.0
0.0 0.0 0.0

-277201.6535618659 1.3830435597194748e7 0.0
1.3830435597194748e7 -1.5035345585006269e7 0.0
0.0 0.0 0.0

-500017.9121340865 1.7091258730065346e7 0.0
1.7091258730065346e7 -7.052950299632272e6 0.0
0.0 0.0 0.0

-1.9085646272278886e7 2.1279486998614095e7 0.0
2.1279486998614095e7 4.779072401371155e6 0.0
0.0 0.0 0.0

-5.511886276460874e6 1.93591966457857e7 0.0
1.93591966457857e7 7.032608458661621e6 0.0
0.0 0.0 0.0

7.69914207702384e6 1.5666057249694351e7 0.0
1.5666057249694351e7 -222715.6611107369 0.0
0.0 0.0 0.0

-14941.454266783781 1.227605345352114e7 0.0
1.227605345352114e7 -2.5026885793986235e7 0.0
0.0 0.0 0.0

1.3723290876741428e6 1.5406635356388353e7 0.0
1.5406635356388353e7 1.6331938305354103e7 0.0
0.0 0.0 0.0

4.79511033820804e6 5.535056898962093e6 0.0
5.535056898962093e6 -1.713201596442709e7 0.0
0.0 0.0 0.0

-328491.276145546 1.763587154639607e7 0.0
1.763587154639607e7 -6.537307822646594e6 0.0
0.0 0.0 0.0

4.682901504974157e6 4.770598991707224e6 0.0
4.770598991707224e6 -2.9902948526651166e7 0.0
0.0 0.0 0.0

-1.2257737437276738e6 1.7285924741166685e7 0.0
1.7285924741166685e7 -6.993789067267465e6 0.0
0.0 0.0 0.0

699222.3274972355 1.9986325986601144e7 0.0
1.9986325986601144e7 -4.3413323222747035e6 0.0
0.0 0.0 0.0

-3.626963481797942e6 1.6343337584638787e7 0.0
1.6343337584638787e7 1.11454766648109e6 0.0
0.0 0.0 0.0

-1.0394407573241027e7 2.389696743508428e7 0.0
2.389696743508428e7 6.584688465528527e6 0.0
0.0 0.0 0.0

-8.862473878008071e6 1.5240275690409835e7 0.0
1.5240275690409835e7 1.675322746994133e7 0.0
0.0 0.0 0.0

-772808.6534848984 1.3726549154579898e7 0.0
1.3726549154579898e7 5.839093867752252e6 0.0
0.0 0.0 0.0

-2.902411633652083e7 2.411615380968885e7 0.0
2.411615380968885e7 1.0174170699595729e7 0.0
0.0 0.0 0.0

6.180572837662775e6 1.6223904000121826e7 0.0
1.6223904000121826e7 5.804545481598756e6 0.0
0.0 0.0 0.0

-4.896146616327203e6 9.078068075794438e6 0.0
9.078068075794438e6 2.8897328780162726e6 0.0
0.0 0.0 0.0

-5.218902888878069e6 2.2007238771402124e7 0.0
2.2007238771402124e7 5.29627250900471e6 0.0
0.0 0.0 0.0

-1.8630930959147725e6 1.730506578190234e7 0.0
1.730506578190234e7 -4.598358321207785e6 0.0
0.0 0.0 0.0

1.2037955113385473e6 1.1928152980596932e7 0.0
1.1928152980596932e7 -9.963608570246248e6 0.0
0.0 0.0 0.0

5.448136566975054e6 3.1928001586014214e6 0.0
3.1928001586014214e6 -2.2071630181968886e7 0.0
0.0 0.0 0.0

-250940.58759316942 1.2705080476535365e7 0.0
1.2705080476535365e7 -7.415115657470432e6 0.0
0.0 0.0 0.0

2.807161839766012e7 5.690883570086456e6 0.0
5.690883570086456e6 -3.0068993029359076e6 0.0
0.0 0.0 0.0

-8.669221732924152e6 1.5176766099335369e7 0.0
1.5176766099335369e7 1.7424631416065842e7 0.0
0.0 0.0 0.0

-6.420849049833945e6 2.1712189580318976e7 0.0
2.1712189580318976e7 6.158868419326371e6 0.0
0.0 0.0 0.0

-9.583224192648834e6 -5.860811785137135e6 0.0
-5.860811785137135e6 2.619997789430875e7 0.0
0.0 0.0 0.0

-3.8673205216134433e6 2.436460075651105e7 0.0
2.436460075651105e7 2.467541595326936e6 0.0
0.0 0.0 0.0

-1.557356303036114e7 1.9279766216095697e7 0.0
1.9279766216095697e7 6.259408456134624e6 0.0
0.0 0.0 0.0

46138.82786602713 1.4475560739476591e7 0.0
1.4475560739476591e7 -1.2237587305854328e7 0.0
0.0 0.0 0.0

1.2588300091538825e6 1.5753019082273316e7 0.0
1.5753019082273316e7 1.1383297525469609e7 0.0
0.0 0.0 0.0

-647701.1452498186 1.3910258066002326e7 0.0
1.3910258066002326e7 2.766916297888663e6 0.0
0.0 0.0 0.0

-5.076124842575787e6 1.7437922764618143e7 0.0
1.7437922764618143e7 6.746905000673628e6 0.0
0.0 0.0 0.0

832771.2220682399 1.1475836126845751e7 0.0
1.1475836126845751e7 -1.0588687201128073e7 0.0
0.0 0.0 0.0

3.289301355470606e6 8.874955524722274e6 0.0
8.874955524722274e6 -1.4689531319868589e7 0.0
0.0 0.0 0.0

22826.427307426464 7.986863213889281e6 0.0
7.986863213889281e6 -5.502381967822567e6 0.0
0.0 0.0 0.0

-4.987111742876192e6 2.164149368652595e7 0.0
2.164149368652595e7 5.106505854716731e6 0.0
0.0 0.0 0.0

-884773.605210619 1.3921038655319402e7 0.0
1.3921038655319402e7 -7.53384332271494e6 0.0
0.0 0.0 0.0

1.0740975597663762e7 1.0509173445015237e7 0.0
1.0509173445015237e7 -202814.3413755605 0.0
0.0 0.0 0.0

5.450500595331236e6 3.219351481010247e6 0.0
3.219351481010247e6 -2.2229696205274038e7 0.0
0.0 0.0 0.0

-143984.88822585018 1.5424023152527697e7 0.0
1.5424023152527697e7 1.192204761285349e7 0.0
0.0 0.0 0.0

656054.5545590888 7.872744241234393e6 0.0
7.872744241234393e6 -6.766930121370498e6 0.0
0.0 0.0 0.0

-1.5750766991435513e6 2.087618841330566e7 0.0
2.087618841330566e7 -1.7747943698465372e6 0.0
0.0 0.0 0.0

-1.017749948001618e6 1.5385926235094637e7 0.0
1.5385926235094637e7 6.364583676304749e6 0.0
0.0 0.0 0.0

-1.2125720233367613e7 4.209528306465826e6 0.0
4.209528306465826e6 2.638082846301561e7 0.0
0.0 0.0 0.0

-2.381025671550831e6 2.6330309894009647e6 0.0
2.6330309894009647e6 3.0338954355634227e6 0.0
0.0 0.0 0.0

609727.7284943024 2.0055610740470942e7 0.0
2.0055610740470942e7 -4.462050047812899e6 0.0
0.0 0.0 0.0

-3.858643282854152e7 1.0632887336066138e7 0.0
1.0632887336066138e7 1.0481205617596366e7 0.0
0.0 0.0 0.0

593781.1325865658 1.3487538379264975e7 0.0
1.3487538379264975e7 -1.4720832806863276e7 0.0
0.0 0.0 0.0

-1.1828647102430991e6 1.108224705295962e7 0.0
1.108224705295962e7 3.9644927066705925e6 0.0
0.0 0.0 0.0

-7.04157451121559e6 1.4303737260558924e7 0.0
1.4303737260558924e7 1.1625244733727843e7 0.0
0.0 0.0 0.0

-4.072964812231933e7 1.0271715342720887e7 0.0
1.0271715342720887e7 9.789179145056522e6 0.0
0.0 0.0 0.0

-255551.88992494345 1.3402501308898471e7 0.0
1.3402501308898471e7 -1.5444413243493525e7 0.0
0.0 0.0 0.0

-668606.641093936 1.6783975901060298e7 0.0
1.6783975901060298e7 -7.885724923322917e6 0.0
0.0 0.0 0.0

1.681888898756437e6 5.37870067330149e6 0.0
5.37870067330149e6 -4.969422157985505e6 0.0
0.0 0.0 0.0

-4.6384410956992945e6 1.84499005473422e7 0.0
1.84499005473422e7 -3.9614113226343626e6 0.0
0.0 0.0 0.0

249561.36436209362 2.255281103802153e7 0.0
2.255281103802153e7 -3.054435305408399e6 0.0
0.0 0.0 0.0

-3.5227888199368026e6 2.266950401413865e7 0.0
2.266950401413865e7 2.0534042166963588e6 0.0
0.0 0.0 0.0

-5.150413086514296e6 1.699245597093475e7 0.0
1.699245597093475e7 3.861422325974631e6 0.0
0.0 0.0 0.0

-1.2183264886702377e7 1.1642692607697899e7 0.0
1.1642692607697899e7 1.974732285526656e7 0.0
0.0 0.0 0.0

-4.939096950600522e6 1.7064931603019882e7 0.0
1.7064931603019882e7 1.0454761370254355e7 0.0
0.0 0.0 0.0

-3.71342347998677e6 2.3878902208626464e7 0.0
2.3878902208626464e7 2.391392135917396e6 0.0
0.0 0.0 0.0

1.5053966104596024e6 9.996846316244211e6 0.0
9.996846316244211e6 -1.1105176212040206e7 0.0
0.0 0.0 0.0

-3.751346060923443e6 2.3483540763453003e7 0.0
2.3483540763453003e7 2.2523897427438367e6 0.0
0.0 0.0 0.0

-67741.75078418106 1.7219184850523494e7 0.0
1.7219184850523494e7 1.185728316945876e7 0.0
0.0 0.0 0.0

-1.2589485278294232e7 8.78274999763736e6 0.0
8.78274999763736e6 1.9241968651480675e7 0.0
0.0 0.0 0.0

4.982959838319003e6 4.073930562437207e6 0.0
4.073930562437207e6 -2.311342512678662e7 0.0
0.0 0.0 0.0

-7.761138347745137e6 1.9621879135854773e7 0.0
1.9621879135854773e7 5.694011352152072e6 0.0
0.0 0.0 0.0

-2.922656072417968e6 1.9104141291175228e7 0.0
1.9104141291175228e7 -2.1700409945520936e6 0.0
0.0 0.0 0.0

-2.098856990520441e6 1.9013026688742578e7 0.0
1.9013026688742578e7 -2.8552029665569337e6 0.0
0.0 0.0 0.0

-4.961133681642568e7 3.2857994518064708e7 0.0
3.2857994518064708e7 -1.3860481574427586e7 0.0
0.0 0.0 0.0

301998.37109992607 1.4899200864592494e7 0.0
1.4899200864592494e7 -1.1548217830019346e7 0.0
0.0 0.0 0.0

-2.85716979577714e6 2.0844965175640628e7 0.0
2.0844965175640628e7 612241.9006579675 0.0
0.0 0.0 0.0

-7.594459432863334e6 1.5062530815469818e7 0.0
1.5062530815469818e7 1.1238612583663758e7 0.0
0.0 0.0 0.0

-2.2954502782625336e7 1.6460793093847865e7 0.0
1.6460793093847865e7 1.0147020579285491e7 0.0
0.0 0.0 0.0

345780.46824089915 1.4707407016109671e7 0.0
1.4707407016109671e7 -379881.7397478939 0.0
0.0 0.0 0.0

-2.4494435295041753e6 1.6583041033931842e7 0.0
1.6583041033931842e7 1.295896541639594e7 0.0
0.0 0.0 0.0

5.449354739319161e6 2.8282069514630027e6 0.0
2.8282069514630027e6 -2.7293433720970023e7 0.0
0.0 0.0 0.0

-1.643943117527854e7 2.65869334653438e7 0.0
2.65869334653438e7 9.512562477702897e6 0.0
0.0 0.0 0.0

-9.771823088482572e6 -4.221980866604051e6 0.0
-4.221980866604051e6 2.7070049243456952e7 0.0
0.0 0.0 0.0

-1.0542242014869418e7 -2.191048893401826e6 0.0
-2.191048893401826e6 3.2245852329591446e7 0.0
0.0 0.0 0.0

-1.5194168179179037e6 2.2028979192576706e6 0.0
2.2028979192576706e6 2.2604827311273534e6 0.0
0.0 0.0 0.0

-1.220918609837272e7 9.910451219940677e6 0.0
9.910451219940677e6 2.1612749304163776e7 0.0
0.0 0.0 0.0

-3.3137377474668287e6 1.4275646680289762e7 0.0
1.4275646680289762e7 9.610893677753111e6 0.0
0.0 0.0 0.0

887431.624179747 1.2939954936993267e7 0.0
1.2939954936993267e7 -1.6587747429282118e7 0.0
0.0 0.0 0.0

-3.1375785407607514e7 3.147051113873796e7 0.0
3.147051113873796e7 9.157364490789758e6 0.0
0.0 0.0 0.0

-1.242183503584285e7 9.630133764787229e6 0.0
9.630133764787229e6 1.962439727885503e7 0.0
0.0 0.0 0.0

-18490.058281930164 1.207086283599155e7 0.0
1.207086283599155e7 -2.592556673051168e7 0.0
0.0 0.0 0.0

-1.5357941480226062e7 1.851839861771176e7 0.0
1.851839861771176e7 6.4288662470203545e6 0.0
0.0 0.0 0.0

-9.933149281673415e6 -2.580231582618957e6 0.0
-2.580231582618957e6 3.3229181332650255e7 0.0
0.0 0.0 0.0

-82109.00625200989 1.424714670894369e7 0.0
1.424714670894369e7 -1.0858710092818666e7 0.0
0.0 0.0 0.0

-3.289046090106153e6 1.420879849684336e7 0.0
1.420879849684336e7 -2.7971616399655912e7 0.0
0.0 0.0 0.0

-956722.7489947539 1.6413077627192045e7 0.0
1.6413077627192045e7 -4.321837334779565e6 0.0
0.0 0.0 0.0

-1.447724151019365e7 1.6769844197378064e7 0.0
1.6769844197378064e7 6.770010375125908e6 0.0
0.0 0.0 0.0

2.599199083396307e7 1.8729418875107657e7 0.0
1.8729418875107657e7 4.36469090691904e6 0.0
0.0 0.0 0.0

-785046.254020293 1.073797499751211e7 0.0
1.073797499751211e7 -2.7317008611166263e6 0.0
0.0 0.0 0.0

1.0768290917533133e6 1.3351257746975493e7 0.0
1.3351257746975493e7 -1.2250027473675486e7 0.0
0.0 0.0 0.0

-722614.3037025956 1.2660962768911302e7 0.0
1.2660962768911302e7 -1.00192304015002e7 0.0
0.0 0.0 0.0

5.565325749420701e6 2.8744976327977483e6 0.0
2.8744976327977483e6 -2.7464801817955136e7 0.0
0.0 0.0 0.0

-2.0598453582119716e6 2.025946550777846e7 0.0
2.025946550777846e7 -1.5330223239022377e6 0.0
0.0 0.0 0.0

-791399.4113585548 1.3163473183501242e7 0.0
1.3163473183501242e7 -1.6427046691624023e7 0.0
0.0 0.0 0.0

123828.81150310766 1.5903899778067395e7 0.0
1.5903899778067395e7 -8.805379759749612e6 0.0
0.0 0.0 0.0

-448675.5499367269 1.3711582136757236e7 0.0
1.3711582136757236e7 656310.9736186492 0.0
0.0 0.0 0.0

-4.359152951137844e6 9.087071234694328e6 0.0
9.087071234694328e6 4.734242972936146e6 0.0
0.0 0.0 0.0

-5.46980350722798e6 1.7173881378191184e7 0.0
1.7173881378191184e7 6.3385999880137e6 0.0
0.0 0.0 0.0

-4.051349434854542e6 1.6126246996738087e7 0.0
1.6126246996738087e7 1.5570775054525541e7 0.0
0.0 0.0 0.0

5.288316773601344e6 3.562673524556462e6 0.0
3.562673524556462e6 -1.8900606433577806e7 0.0
0.0 0.0 0.0

-1.4532904405247986e7 8.208290504549502e6 0.0
8.208290504549502e6 5.620843847806942e6 0.0
0.0 0.0 0.0

61013.93036664603 1.754384472098347e7 0.0
1.754384472098347e7 1.0809243956143245e7 0.0
0.0 0.0 0.0

-212276.31439903798 1.3849953810296992e7 0.0
1.3849953810296992e7 -1.225104188736898e7 0.0
0.0 0.0 0.0

4.301694292015403e7 7.746242524644112e6 0.0
7.746242524644112e6 -1.7253724139576722e6 0.0
0.0 0.0 0.0

955334.2976838714 1.3526876238460911e7 0.0
1.3526876238460911e7 -1.4737524131517861e7 0.0
0.0 0.0 0.0

-2.5295384850713545e6 1.9532102223153807e7 0.0
1.9532102223153807e7 -2.717659069977121e6 0.0
0.0 0.0 0.0

-4.1035886500770547e6 1.7564630638225827e7 0.0
1.7564630638225827e7 356620.73885375354 0.0
0.0 0.0 0.0

547493.9403616134 1.5631132341223909e7 0.0
1.5631132341223909e7 3.758271815615863e7 0.0
0.0 0.0 0.0

-1.2228753779320229e7 8.869311460751912e6 0.0
8.869311460751912e6 2.2676373301674295e7 0.0
0.0 0.0 0.0

-9.358808518708872e6 -6.347209333408009e6 0.0
-6.347209333408009e6 2.583330474065108e7 0.0
0.0 0.0 0.0

-1.2255738421076892e7 2.750687302521067e6 0.0
2.750687302521067e6 2.700507199299336e7 0.0
0.0 0.0 0.0

-3.7554329773986368e6 2.21456859805915e7 0.0
2.21456859805915e7 2.3661747641795543e6 0.0
0.0 0.0 0.0

2.653894303871206e6 9.829815575796094e6 0.0
9.829815575796094e6 -1.5906352017446201e7 0.0
0.0 0.0 0.0

-5.023875931298171e6 1.8134741703290712e7 0.0
1.8134741703290712e7 8.490427452977957e6 0.0
0.0 0.0 0.0

63020.02267339872 1.5247641304889968e7 0.0
1.5247641304889968e7 -1.0804152937591743e7 0.0
0.0 0.0 0.0

-7.87224777812963e6 1.3588835278895069e7 0.0
1.3588835278895069e7 1.019146181418055e7 0.0
0.0 0.0 0.0

-5.2460615935777705e6 1.9696342945089664e7 0.0
1.9696342945089664e7 7.239260845292803e6 0.0
0.0 0.0 0.0

2.568374800268418e6 1.8850434287031826e7 0.0
1.8850434287031826e7 -4.910490032480836e6 0.0
0.0 0.0 0.0

-5.950349699419931e6 1.6645425377368039e7 0.0
1.6645425377368039e7 1.1580372679709109e7 0.0
0.0 0.0 0.0

-5.305670713974638e6 1.7575232589796823e7 0.0
1.7575232589796823e7 9.316258778290313e6 0.0
0.0 0.0 0.0

-1.5400699726315406e6 1.3277304358747661e7 0.0
1.3277304358747661e7 -1.0926546119789967e7 0.0
0.0 0.0 0.0

-1.3018178711611923e7 9.442071815693213e6 0.0
9.442071815693213e6 1.7754396598044254e7 0.0
0.0 0.0 0.0

-3.5288207055757744e6 2.2217074237642333e7 0.0
2.2217074237642333e7 3.1553011251092297e6 0.0
0.0 0.0 0.0

4.50378698903001e6 5.18533790899442e6 0.0
5.18533790899442e6 -1.8143636862363547e7 0.0
0.0 0.0 0.0

-1.0036611247599289e7 734044.1441505055 0.0
734044.1441505055 4.257849326893821e7 0.0
0.0 0.0 0.0

-473222.7252783873 1.5872386687002504e7 0.0
1.5872386687002504e7 -5.2836085015105205e6 0.0
0.0 0.0 0.0

-3.768761564340188e6 2.2537120234321922e7 0.0
2.2537120234321922e7 2.5169450931368754e6 0.0
0.0 0.0 0.0

2.372782800131131e6 1.1163500182382122e7 0.0
1.1163500182382122e7 -1.7865086297297068e7 0.0
0.0 0.0 0.0

-2.6469875151145575e6 2.037964049244993e7 0.0
2.037964049244993e7 -1.7469564317866294e6 0.0
0.0 0.0 0.0

2.93685384480917e6 8.734437399445482e6 0.0
8.734437399445482e6 -1.5931821798712138e7 0.0
0.0 0.0 0.0

-1.2441170993121985e7 7.937897370669421e6 0.0
7.937897370669421e6 2.0056662294708267e7 0.0
0.0 0.0 0.0

-4.371518346284711e7 2.9388215454038806e7 0.0
2.9388215454038806e7 1.082197534935435e7 0.0
0.0 0.0 0.0

-8.471966033126798e6 1.8710104718462706e7 0.0
1.8710104718462706e7 723534.8294137609 0.0
0.0 0.0 0.0

-4.905375810129233e6 1.8061681906669457e7 0.0
1.8061681906669457e7 9.156845629868466e6 0.0
0.0 0.0 0.0

-3.759102073216794e6 -3.8925278583478415e6 0.0
-3.8925278583478415e6 8.248147831193449e6 0.0
0.0 0.0 0.0

-1.0285844779877024e7 1.7829757697160676e7 0.0
1.7829757697160676e7 -639801.6193931708 0.0
0.0 0.0 0.0

-6.107092473212826e6 2.0012413906750295e7 0.0
2.0012413906750295e7 6.6701574798625335e6 0.0
0.0 0.0 0.0

5.240304860828452e6 3.893531176527114e6 0.0
3.893531176527114e6 -2.3565302265881836e7 0.0
0.0 0.0 0.0

-7.794202061426403e6 1.2245200563066626e7 0.0
1.2245200563066626e7 1.2305938042903503e7 0.0
0.0 0.0 0.0

-1.0963251735663164e7 9.89203070304847e6 0.0
9.89203070304847e6 1.6219543795486834e7 0.0
0.0 0.0 0.0

-1.0032133247362908e6 2.468355095047585e7 0.0
2.468355095047585e7 18299.174319928163 0.0
0.0 0.0 0.0

-1.0173604094547048e7 -510924.92434895656 0.0
-510924.92434895656 1.2442094043770809e7 0.0
0.0 0.0 0.0

-1.2891768399170686e7 1.050927850643442e7 0.0
1.050927850643442e7 1.8355320713162854e7 0.0
0.0 0.0 0.0

-2.9832652248671334e6 2.2897379250363838e7 0.0
2.2897379250363838e7 2.4188962884172387e6 0.0
0.0 0.0 0.0

-1.0320542199515779e7 -1.9980848838396578e6 0.0
-1.9980848838396578e6 3.4684448859777614e7 0.0
0.0 0.0 0.0

-5.978597603958987e6 -2.1579192011846798e6 0.0
-2.1579192011846798e6 1.0771743182577427e7 0.0
0.0 0.0 0.0

3.982497975593528e6 6.90744416661085e6 0.0
6.90744416661085e6 -1.7359433779950365e7 0.0
0.0 0.0 0.0

-5.20626748915424e6 1.7470691999556947e7 0.0
1.7470691999556947e7 7.123704628529746e6 0.0
0.0 0.0 0.0

-1.2474998450638432e7 1.0612290050870528e7 0.0
1.0612290050870528e7 1.9730480963464446e7 0.0
0.0 0.0 0.0

-392370.8469984331 1.4911503171753658e7 0.0
1.4911503171753658e7 -1.0349441931745304e7 0.0
0.0 0.0 0.0

506804.29653435154 1.432141412257614e7 0.0
1.432141412257614e7 -1.0890708644312376e7 0.0
0.0 0.0 0.0

2.7921771830185736e6 9.634443111762378e6 0.0
9.634443111762378e6 -1.6904015060132183e7 0.0
0.0 0.0 0.0

779559.9180993577 1.3214936174166441e7 0.0
1.3214936174166441e7 -1.5693745286846776e7 0.0
0.0 0.0 0.0

-430958.66074688896 1.388890790449358e7 0.0
1.388890790449358e7 5.224644977751783e6 0.0
0.0 0.0 0.0

-1.2540847963572307e7 1.171098051159724e7 0.0
1.171098051159724e7 1.876929338617511e7 0.0
0.0 0.0 0.0

-2.5073686087270705e6 1.9876940410694562e7 0.0
1.9876940410694562e7 -2.5478570074959267e6 0.0
0.0 0.0 0.0

-5.196552231434818e6 2.156691253181207e7 0.0
2.156691253181207e7 5.633546878977839e6 0.0
0.0 0.0 0.0

-3.26317163192271e6 2.238490122032809e7 0.0
2.238490122032809e7 2.7513906898588506e6 0.0
0.0 0.0 0.0

7.834121718582718e6 2.008690665474309e7 0.0
2.008690665474309e7 4.751498930583647e7 0.0
0.0 0.0 0.0

-4.751572475244677e6 1.771570735048909e7 0.0
1.771570735048909e7 6.206527439560202e6 0.0
0.0 0.0 0.0

821657.7620860497 1.373430088157255e7 0.0
1.373430088157255e7 -1.1458280628775084e7 0.0
0.0 0.0 0.0

217994.22048753034 1.3643224224264963e7 0.0
1.3643224224264963e7 -1.4784505442658886e7 0.0
0.0 0.0 0.0

1.025716891530918e6 1.354747182637735e7 0.0
1.354747182637735e7 -1.2510511621765267e7 0.0
0.0 0.0 0.0

-2.193249961227972e6 2.1867863825448338e7 0.0
2.1867863825448338e7 48940.07949789462 0.0
0.0 0.0 0.0

-5.400032914802026e6 1.687851076708963e7 0.0
1.687851076708963e7 5.607639803173328e6 0.0
0.0 0.0 0.0

-314291.9246795249 1.3102712018354278e7 0.0
1.3102712018354278e7 1.4900696650316925e6 0.0
0.0 0.0 0.0

8628.735140472185 1.4083642866272205e7 0.0
1.4083642866272205e7 -1.1889114463313455e7 0.0
0.0 0.0 0.0

-5.509711526744003e6 9.427464966949178e6 0.0
9.427464966949178e6 4.248749871332996e6 0.0
0.0 0.0 0.0

-1.9494202878906121e6 2.8027682041870676e7 0.0
2.8027682041870676e7 -3.845177939163359e6 0.0
0.0 0.0 0.0

4.880206669907305e6 4.339430749289608e6 0.0
4.339430749289608e6 -3.23219629611672e7 0.0
0.0 0.0 0.0

5.561213743630145e7 2.2534162866558447e7 0.0
2.2534162866558447e7 9.1413860459431e6 0.0
0.0 0.0 0.0

2.134421720623918e7 2.5855317897331763e7 0.0
2.5855317897331763e7 -2.0796716995190594e7 0.0
0.0 0.0 0.0

-3.256809903128166e6 1.5944458567492312e7 0.0
1.5944458567492312e7 1.0930071401272178e7 0.0
0.0 0.0 0.0

-198714.96354542766 1.4451048855309578e7 0.0
1.4451048855309578e7 6.847329494811965e6 0.0
0.0 0.0 0.0

-1.6831836989742003e7 1.904656512220984e7 0.0
1.904656512220984e7 2.7290636613526363e6 0.0
0.0 0.0 0.0

-4.3473516964422524e7 2.086563058849894e7 0.0
2.086563058849894e7 6.118871773138905e6 0.0
0.0 0.0 0.0

-6.555060121801755e6 9.692627389140619e6 0.0
9.692627389140619e6 8.592163860574905e6 0.0
0.0 0.0 0.0

-2.752280256008744e6 1.9645049181922447e7 0.0
1.9645049181922447e7 -500663.24292496644 0.0
0.0 0.0 0.0

1.2535539409696404e6 1.2939828321543556e7 0.0
1.2939828321543556e7 -1.3008393336367182e7 0.0
0.0 0.0 0.0

4.1634579912091456e6 6.961889206589977e6 0.0
6.961889206589977e6 -2.9862729131924987e7 0.0
0.0 0.0 0.0

764093.5625542756 1.3104056795264699e7 0.0
1.3104056795264699e7 -1.3265450454952013e7 0.0
0.0 0.0 0.0

273358.7905943291 1.196302977236081e7 0.0
1.196302977236081e7 -2.3535392202586632e7 0.0
0.0 0.0 0.0

-1.1369374848347329e7 1.024238307225132e7 0.0
1.024238307225132e7 1.4264969756134577e7 0.0
0.0 0.0 0.0

-2.3978376807999136e6 1.5903508610183554e7 0.0
1.5903508610183554e7 1.3606192711486075e7 0.0
0.0 0.0 0.0

-856563.1025105016 1.2996992639159437e7 0.0
1.2996992639159437e7 4.345268472004202e6 0.0
0.0 0.0 0.0

-7.980499336678364e6 3.1295355842663255e6 0.0
3.1295355842663255e6 5.091195473610679e6 0.0
0.0 0.0 0.0

-1.2008743532501932e7 1.2982670559484065e6 0.0
1.2982670559484065e6 2.6481856173630714e7 0.0
0.0 0.0 0.0

-4.406499858433584e6 1.9953741544831987e7 0.0
1.9953741544831987e7 5.418176338367885e6 0.0
0.0 0.0 0.0

-3.7082780493127685e6 1.6271445587496648e7 0.0
1.6271445587496648e7 1.5789476625509104e7 0.0
0.0 0.0 0.0

-6.78868873137247e6 1.4046609914807424e7 0.0
1.4046609914807424e7 1.0914631533218712e7 0.0
0.0 0.0 0.0

-1.5739448865055493e6 3.828256596991309e6 0.0
3.828256596991309e6 -263365.3956140857 0.0
0.0 0.0 0.0

-8.90832601060662e6 9.867430825777639e6 0.0
9.867430825777639e6 4.373415420029475e7 0.0
0.0 0.0 0.0

-3.8299099935301617e6 1.6084989530501552e7 0.0
1.6084989530501552e7 1.7322843018363814e6 0.0
0.0 0.0 0.0

-2.340819755039114e6 1.9386665161484294e7 0.0
1.9386665161484294e7 -3.365445003928713e6 0.0
0.0 0.0 0.0

-3.7632280622753277e6 1.5962349304253899e7 0.0
1.5962349304253899e7 1.5968150171052042e7 0.0
0.0 0.0 0.0

-5.038262260555102e6 9.484293070534695e6 0.0
9.484293070534695e6 6.009617564131068e6 0.0
0.0 0.0 0.0

1.3708552562955797e6 1.9225881238957524e7 0.0
1.9225881238957524e7 -4.871690881480815e6 0.0
0.0 0.0 0.0

-8.64412543321266e6 2.6855177620377047e6 0.0
2.6855177620377047e6 4.9299731437167384e7 0.0
0.0 0.0 0.0

2.2239497152593946e6 1.771425597275338e7 0.0
1.771425597275338e7 -5.157972392118555e6 0.0
0.0 0.0 0.0

-3.5261892814971814e6 2.257868399756304e7 0.0
2.257868399756304e7 3.3275459500032095e6 0.0
0.0 0.0 0.0

-2.2703387669744585e6 1.273734708314081e7 0.0
1.273734708314081e7 -1.4582006713508504e7 0.0
0.0 0.0 0.0

-5.808750130114503e6 1.6187545320274219e7 0.0
1.6187545320274219e7 1.2183759080512583e7 0.0
0.0 0.0 0.0

-1.2899654288644351e7 8.74695687159923e6 0.0
8.74695687159923e6 2.0416910967221715e7 0.0
0.0 0.0 0.0

-1.0644006962688111e6 2.148560967958637e7 0.0
2.148560967958637e7 -1.8561056465693885e6 0.0
0.0 0.0 0.0

2.8865540098522855e6 5.506583649595608e6 0.0
5.506583649595608e6 -8.324461868126956e6 0.0
0.0 0.0 0.0

-3.9268396827819915e6 2.6537643429644853e7 0.0
2.6537643429644853e7 249411.32324768766 0.0
0.0 0.0 0.0

969768.5502488608 1.5834727947544483e7 0.0
1.5834727947544483e7 4.743775598116359e6 0.0
0.0 0.0 0.0

-2.5506156249819067e6 1.8213589583869334e7 0.0
1.8213589583869334e7 -2.08451845565015e6 0.0
0.0 0.0 0.0

4.576561431927589e6 5.514023253109506e6 0.0
5.514023253109506e6 -2.3597774185377043e7 0.0
0.0 0.0 0.0

-756639.3427461002 1.6465582647747785e7 0.0
1.6465582647747785e7 -5.83967300884702e6 0.0
0.0 0.0 0.0

633468.8088935907 1.7605325781517178e7 0.0
1.7605325781517178e7 1.1298756284607086e7 0.0
0.0 0.0 0.0

-3.343909549370299e6 2.1256431639393777e7 0.0
2.1256431639393777e7 2.2798373703532945e6 0.0
0.0 0.0 0.0

458611.3288436439 1.6242220030182421e7 0.0
1.6242220030182421e7 1.4824375395743974e7 0.0
0.0 0.0 0.0

-461020.9782155319 3.344789329727324e6 0.0
3.344789329727324e6 472717.7059463203 0.0
0.0 0.0 0.0

-5.683203769053527e6 1.5343875148499e7 0.0
1.5343875148499e7 1.986640028250136e7 0.0
0.0 0.0 0.0

-5.3497744571879925e6 1.8246317990849536e7 0.0
1.8246317990849536e7 3.722269958302056e6 0.0
0.0 0.0 0.0

2.1116386374395536e6 1.8358440562471688e7 0.0
1.8358440562471688e7 -5.113458742486693e6 0.0
0.0 0.0 0.0

-557348.7685215464 1.7588442080239072e7 0.0
1.7588442080239072e7 -6.445141120463394e6 0.0
0.0 0.0 0.0

654805.0991014536 2.2406875464862116e7 0.0
2.2406875464862116e7 -3.0513423119357848e6 0.0
0.0 0.0 0.0

-478762.420813128 1.2067799729082355e7 0.0
1.2067799729082355e7 2.5707278548563793e6 0.0
0.0 0.0 0.0

-4.981419874867484e6 1.8613575224803142e7 0.0
1.8613575224803142e7 8.561524104879186e6 0.0
0.0 0.0 0.0

-1.4252851267699758e6 2.3084969834594183e7 0.0
2.3084969834594183e7 -1.770895489209305e6 0.0
0.0 0.0 0.0

-3.1499234256542344e6 1.3991555572910208e7 0.0
1.3991555572910208e7 -2.7422540424180295e7 0.0
0.0 0.0 0.0

-6.152464674052457e6 7.570701395445208e6 0.0
7.570701395445208e6 5.566941105554754e6 0.0
0.0 0.0 0.0

-1.1007374081173444e6 1.3771506841009527e7 0.0
1.3771506841009527e7 5.800130485819073e6 0.0
0.0 0.0 0.0

-1.2184463879004926e6 2.204208133603576e7 0.0
2.204208133603576e7 -2.4609685032103867e6 0.0
0.0 0.0 0.0

-63624.686196309514 1.4389264473169962e7 0.0
1.4389264473169962e7 -1.2281618849789068e7 0.0
0.0 0.0 0.0

4.9808174979783865e6 4.4249765770323165e6 0.0
4.4249765770323165e6 -1.7305606724102102e7 0.0
0.0 0.0 0.0

-9.23875987604534e6 -1.9281303697365064e6 0.0
-1.9281303697365064e6 4.523459473037781e7 0.0
0.0 0.0 0.0

2.2822472496719025e6 1.1208224613664554e7 0.0
1.1208224613664554e7 -1.8882834132919524e7 0.0
0.0 0.0 0.0

-1.263363658687233e6 1.5241344651406003e7 0.0
1.5241344651406003e7 8.40011248897184e6 0.0
0.0 0.0 0.0

-9.847418796809774e6 1.0935834163014414e7 0.0
1.0935834163014414e7 1.5312665282786377e7 0.0
0.0 0.0 0.0

2.254911993307276e6 1.826189307923902e7 0.0
1.826189307923902e7 -4.941328818233158e6 0.0
0.0 0.0 0.0

3.837283759625879e6 5.9714372289280575e6 0.0
5.9714372289280575e6 -1.4987750202303402e7 0.0
0.0 0.0 0.0

1.7977869002889819e6 1.5426853868078431e7 0.0
1.5426853868078431e7 -3.6766889840483926e6 0.0
0.0 0.0 0.0

832252.3374157995 1.7743943409256898e7 0.0
1.7743943409256898e7 9.943687608996147e6 0.0
0.0 0.0 0.0

1.0611418571611382e6 2.755456428108768e7 0.0
2.755456428108768e7 -6.674909622191944e6 0.0
0.0 0.0 0.0

47738.95906935213 1.7268474344391793e7 0.0
1.7268474344391793e7 -6.774514183985613e6 0.0
0.0 0.0 0.0

-3.5877642075587213e6 1.4919179998743197e7 0.0
1.4919179998743197e7 2.690227651097265e7 0.0
0.0 0.0 0.0

5.48548187930639e6 3.3212253357446943e6 0.0
3.3212253357446943e6 -2.1238461836626865e7 0.0
0.0 0.0 0.0

-2.5388816274405364e6 2.2568116615774516e7 0.0
2.2568116615774516e7 -6878.100611698697 0.0
0.0 0.0 0.0

2.3964984404067947e6 1.4602368287223045e7 0.0
1.4602368287223045e7 1.6065060106666645e6 0.0
0.0 0.0 0.0

-4.829487754789305e7 1.2824299819999177e7 0.0
1.2824299819999177e7 7.929962545317331e6 0.0
0.0 0.0 0.0

-5.865611231028149e6 1.9941721563650526e7 0.0
1.9941721563650526e7 7.001442020736117e6 0.0
0.0 0.0 0.0

-5.09585894976539e6 7.150530989215575e6 0.0
7.150530989215575e6 6.231342564722078e6 0.0
0.0 0.0 0.0

982540.6082444536 1.3147660744940443e7 0.0
1.3147660744940443e7 -1.6637517943389114e7 0.0
0.0 0.0 0.0

-3.4957998803524105e6 1.5795328015719758e7 0.0
1.5795328015719758e7 9.7961104635511e6 0.0
0.0 0.0 0.0

-478567.25302286167 1.3028451475753197e7 0.0
1.3028451475753197e7 -2.0946288124039613e7 0.0
0.0 0.0 0.0

5.548208703921538e6 3.5847519775070916e6 0.0
3.5847519775070916e6 -2.6784688224051364e7 0.0
0.0 0.0 0.0

3.1285952800307192e7 1.3750116061501829e7 0.0
1.3750116061501829e7 1.1441295930396896e6 0.0
0.0 0.0 0.0

-8.564869867136225e7 3.429065275579438e7 0.0
3.429065275579438e7 -6.484721210590579e6 0.0
0.0 0.0 0.0

5.160557123352774e6 1.6665958165103024e7 0.0
1.6665958165103024e7 6.695462546621982e6 0.0
0.0 0.0 0.0

-1.7815042460639076e6 1.7804522784677662e7 0.0
1.7804522784677662e7 -5.859655181109392e6 0.0
0.0 0.0 0.0

-5.00362874564724e6 1.6950804408436913e7 0.0
1.6950804408436913e7 1.0173449483882634e7 0.0
0.0 0.0 0.0

4.800390844953349e6 4.450195609913143e6 0.0
4.450195609913143e6 -1.6998767605947252e7 0.0
0.0 0.0 0.0

-5.779092133677846e6 1.8371717587505806e7 0.0
1.8371717587505806e7 5.280812476330713e6 0.0
0.0 0.0 0.0

-1.628396217613481e6 2.307872175853978e7 0.0
2.307872175853978e7 191438.4228761131 0.0
0.0 0.0 0.0

-859151.7285518171 1.3594495995466176e7 0.0
1.3594495995466176e7 -1.6788995054605294e7 0.0
0.0 0.0 0.0

-2.8098550499783694e6 1.7942776525135815e7 0.0
1.7942776525135815e7 -3.0943685038236175e6 0.0
0.0 0.0 0.0

2.187055255033017e6 5.481010244590054e6 0.0
5.481010244590054e6 -6.344002526542838e6 0.0
0.0 0.0 0.0

2.721829315473389e6 1.7396117216894127e7 0.0
1.7396117216894127e7 1.0166528514213046e7 0.0
0.0 0.0 0.0

-6.006499074622868e6 1.7728044872468695e7 0.0
1.7728044872468695e7 -1.1020230718268738e6 0.0
0.0 0.0 0.0

-71415.53647235362 1.5043012079670338e7 0.0
1.5043012079670338e7 -9.343825059516307e6 0.0
0.0 0.0 0.0

-4.214701361389476e6 1.8610120325927474e7 0.0
1.8610120325927474e7 1.4428432785722513e6 0.0
0.0 0.0 0.0

1.8860656535942173e6 1.135273311458943e7 0.0
1.135273311458943e7 -1.8157542430659972e7 0.0
0.0 0.0 0.0

-1.0146267177592432e7 -1.820249775391142e6 0.0
-1.820249775391142e6 3.5582680726763204e7 0.0
0.0 0.0 0.0

496959.6622168077 1.3472519921749366e7 0.0
1.3472519921749366e7 -1.2430931671303056e7 0.0
0.0 0.0 0.0

2.008157600992044e6 1.446987321424036e7 0.0
1.446987321424036e7 -1.6017818432117235e6 0.0
0.0 0.0 0.0

-7.78210699445099e6 1.6644803718487984e7 0.0
1.6644803718487984e7 -3.436969827424484e7 0.0
0.0 0.0 0.0

4.421006078637715e6 6.4030000434662765e6 0.0
6.4030000434662765e6 -1.6869472783798568e7 0.0
0.0 0.0 0.0

575236.1857067831 1.4471568379174747e7 0.0
1.4471568379174747e7 -1.2311272965981891e7 0.0
0.0 0.0 0.0

-5.209159067375983e6 1.9457480341041014e7 0.0
1.9457480341041014e7 7.539255739418e6 0.0
0.0 0.0 0.0

-3.1540855981209576e6 2.0671844504069388e7 0.0
2.0671844504069388e7 -232933.63039988477 0.0
0.0 0.0 0.0

-4.981415732159324e6 1.79355620292884e7 0.0
1.79355620292884e7 8.04952039573374e6 0.0
0.0 0.0 0.0

1.514601619839514e6 1.5478478884037068e7 0.0
1.5478478884037068e7 5.236001483411941e6 0.0
0.0 0.0 0.0

-5.931083056315407e7 1.7643862758503407e7 0.0
1.7643862758503407e7 5.964573083436657e6 0.0
0.0 0.0 0.0

866806.2451699933 2.9504239952151002e6 0.0
2.9504239952151002e6 -3.0999623970850985e6 0.0
0.0 0.0 0.0

-516487.3064167967 1.2058415322493935e7 0.0
1.2058415322493935e7 -1.9098966097454322e6 0.0
0.0 0.0 0.0

6.1934963964730725e6 1.5202266109750405e7 0.0
1.5202266109750405e7 -654030.5323345233 0.0
0.0 0.0 0.0

-3.0919491814667312e6 2.412618134163066e7 0.0
2.412618134163066e7 2.7707855141287204e6 0.0
0.0 0.0 0.0

299198.57393889874 1.2168768862316554e7 0.0
1.2168768862316554e7 -2.4866064074201487e7 0.0
0.0 0.0 0.0

-1.124449298483128e6 1.6300102759480683e7 0.0
1.6300102759480683e7 -4.5648460479168715e6 0.0
0.0 0.0 0.0

-76768.01388086588 1.8202034742850102e7 0.0
1.8202034742850102e7 -5.754250206348892e6 0.0
0.0 0.0 0.0

1.164078382263233e6 1.2499132085189156e7 0.0
1.2499132085189156e7 -1.0785757216293477e7 0.0
0.0 0.0 0.0

160155.48996183416 1.7698157648842316e7 0.0
1.7698157648842316e7 -6.037197434984723e6 0.0
0.0 0.0 0.0

-603096.8462813015 1.5162085423718166e7 0.0
1.5162085423718166e7 4.85256413286077e6 0.0
0.0 0.0 0.0

-2.722780259759362e6 2.0526197505693167e7 0.0
2.0526197505693167e7 -36091.649509252515 0.0
0.0 0.0 0.0

3.606120131752548e6 8.396584365067411e6 0.0
8.396584365067411e6 -1.6484484420599796e7 0.0
0.0 0.0 0.0

5.2471111585802045e6 3.8983710219206274e6 0.0
3.8983710219206274e6 -2.3747435055323068e7 0.0
0.0 0.0 0.0

-1.5552827180083531e6 448689.6287564759 0.0
448689.6287564759 -613669.7331902541 0.0
0.0 0.0 0.0

-6.919394812975352e6 -196281.25968426294 0.0
-196281.25968426294 1.9218286641720608e6 0.0
0.0 0.0 0.0

-653489.6799602509 1.5998826494836276e7 0.0
1.5998826494836276e7 1.0277408135038964e7 0.0
0.0 0.0 0.0

-27050.934401636478 1.4617125384924287e7 0.0
1.4617125384924287e7 5.9035373527397895e6 0.0
0.0 0.0 0.0

-1.1049015149905067e6 1.5115344335139167e7 0.0
1.5115344335139167e7 4.940397083607931e6 0.0
0.0 0.0 0.0

3.2821596412555333e6 5.262876834392288e6 0.0
5.262876834392288e6 -1.1890713459753022e7 0.0
0.0 0.0 0.0

903571.0511862254 1.6704972995890118e7 0.0
1.6704972995890118e7 -6.268106013495173e6 0.0
0.0 0.0 0.0

2.43079566981224e6 4.718060672726435e6 0.0
4.718060672726435e6 -7.04309551911593e6 0.0
0.0 0.0 0.0

-106141.78178044688 1.77099543243329e7 0.0
1.77099543243329e7 -6.252284527102579e6 0.0
0.0 0.0 0.0

-1.1824882287895784e7 1.2537814799494132e7 0.0
1.2537814799494132e7 1.9737288785934795e7 0.0
0.0 0.0 0.0

-1.9266523256044062e6 1.9768103801364407e7 0.0
1.9768103801364407e7 -2.3460894765113094e6 0.0
0.0 0.0 0.0

-739710.9723927404 2.241537167525126e7 0.0
2.241537167525126e7 -1.1923687710941697e6 0.0
0.0 0.0 0.0

3.884782371074401e6 6.843081812973697e6 0.0
6.843081812973697e6 -1.7540758933001276e7 0.0
0.0 0.0 0.0

4.149349519000843e6 6.014920243022375e6 0.0
6.014920243022375e6 -1.787902268559571e7 0.0
0.0 0.0 0.0

7.465498552546302e6 1.6230509030788096e7 0.0
1.6230509030788096e7 -3.555954809247519e6 0.0
0.0 0.0 0.0

-2.196819988363319e6 1.6352641223257376e7 0.0
1.6352641223257376e7 1.3806176121278234e7 0.0
0.0 0.0 0.0

169625.7187671438 1.3874627853233336e7 0.0
1.3874627853233336e7 -1.1653117097620057e7 0.0
0.0 0.0 0.0

-9.092032807005567e6 -6.136881041290673e6 0.0
-6.136881041290673e6 2.6737515739485696e7 0.0
0.0 0.0 0.0

-3.0575176886004074e6 2.3286631709410775e7 0.0
2.3286631709410775e7 2.501067672752607e6 0.0
0.0 0.0 0.0

-1.238917577348457e7 1.0556256089878444e7 0.0
1.0556256089878444e7 1.8745515727265492e7 0.0
0.0 0.0 0.0

-5.552486498059418e6 -1.2616235803401393e6 0.0
-1.2616235803401393e6 6.211686941930987e6 0.0
0.0 0.0 0.0

-249167.00124071725 1.3738825119485576e7 0.0
1.3738825119485576e7 -7.273139867739916e6 0.0
0.0 0.0 0.0

5.292175571839698e6 3.955720788415396e6 0.0
3.955720788415396e6 -2.296551625400281e7 0.0
0.0 0.0 0.0

-4.687560161145541e6 2.1865570913115043e7 0.0
2.1865570913115043e7 5.444477200956607e6 0.0
0.0 0.0 0.0

-2.194691168553681e6 1.7820764615577172e7 0.0
1.7820764615577172e7 -2.8711195900808703e6 0.0
0.0 0.0 0.0

2.0840099514945317e6 1.1010841955455475e7 0.0
1.1010841955455475e7 -1.9070242085006587e7 0.0
0.0 0.0 0.0

8.1040087792747645e6 1.4661267514747413e7 0.0
1.4661267514747413e7 1.0470676429737187e6 0.0
0.0 0.0 0.0

-5.133099581289588e6 2.1286125953117494e7 0.0
2.1286125953117494e7 6.083689273679214e6 0.0
0.0 0.0 0.0

-9.99862729169022e6 -5.156725942565159e6 0.0
-5.156725942565159e6 2.52659532554706e7 0.0
0.0 0.0 0.0

-7.026742055024119e6 -8.514665602001064e6 0.0
-8.514665602001064e6 1.6720423138637092e7 0.0
0.0 0.0 0.0

2.7286400551618026e6 1.474220900196135e7 0.0
1.474220900196135e7 -1.4222977132129553e6 0.0
0.0 0.0 0.0

-1.3393325357979457e6 1.771067992737786e7 0.0
1.771067992737786e7 -5.704993971885802e6 0.0
0.0 0.0 0.0

-1.3113000715061692e6 1.8096700843292817e7 0.0
1.8096700843292817e7 -5.376456431581291e6 0.0
0.0 0.0 0.0

-9.751589915664546e6 4.124735380932011e6 0.0
4.124735380932011e6 3.964446531218729e7 0.0
0.0 0.0 0.0

3.5432025673879124e6 3.8247698246122045e6 0.0
3.8247698246122045e6 -9.593364754178947e6 0.0
0.0 0.0 0.0

-3.907616397075636e6 1.7650618707070682e7 0.0
1.7650618707070682e7 -1.356038549621721e6 0.0
0.0 0.0 0.0

-6.781157996099002e6 1.8107613763751097e7 0.0
1.8107613763751097e7 -3.951815243096167e6 0.0
0.0 0.0 0.0

-2.1003547415126003e7 2.1293398197131652e7 0.0
2.1293398197131652e7 4.253626395969234e6 0.0
0.0 0.0 0.0

-2.3643042281377017e6 2.3406271483270146e7 0.0
2.3406271483270146e7 1.3442013133180712e6 0.0
0.0 0.0 0.0

95699.06880318883 1.3975439198812272e7 0.0
1.3975439198812272e7 -230523.2642446682 0.0
0.0 0.0 0.0

-1.0024466536260316e7 -4.27282973663211e6 0.0
-4.27282973663211e6 2.7101281385807946e7 0.0
0.0 0.0 0.0

6.20918209419869e6 1.605691729620304e7 0.0
1.605691729620304e7 -3.023493412845317e6 0.0
0.0 0.0 0.0

-489423.3565238344 1.4952110989503345e7 0.0
1.4952110989503345e7 -7.588384335875454e6 0.0
0.0 0.0 0.0

-9.248541760189377e6 -4.190252999691512e6 0.0
-4.190252999691512e6 1.978052700670384e7 0.0
0.0 0.0 0.0

-5.378218090865845e6 1.823012688851114e7 0.0
1.823012688851114e7 7.376375147256014e6 0.0
0.0 0.0 0.0

-5.036445681722609e6 1.91936066817588e7 0.0
1.91936066817588e7 6.891583091145902e6 0.0
0.0 0.0 0.0

-1.0121670197064192e6 2.9425211582825636e6 0.0
2.9425211582825636e6 -430791.3301237367 0.0
0.0 0.0 0.0

4.412976916018726e6 5.471559181534891e6 0.0
5.471559181534891e6 -1.8492347927879397e7 0.0
0.0 0.0 0.0

3.155950418476859e6 7.685334062719791e6 0.0
7.685334062719791e6 -3.0857314973510265e7 0.0
0.0 0.0 0.0

800003.9861460356 1.7027989161677018e7 0.0
1.7027989161677018e7 1.0109988249270404e7 0.0
0.0 0.0 0.0

2.876809358025602e6 4.816468371344415e6 0.0
4.816468371344415e6 -8.789240288315844e6 0.0
0.0 0.0 0.0

8.331941223736343e6 2.13569695375206e7 0.0
2.13569695375206e7 -9.148403580390899e6 0.0
0.0 0.0 0.0

4.990729488149588e6 4.994565266548331e6 0.0
4.994565266548331e6 -1.764946266875609e7 0.0
0.0 0.0 0.0

4.274136546538219e6 5.379409277073838e6 0.0
5.379409277073838e6 -1.2916170579009924e7 0.0
0.0 0.0 0.0

4.348279410866622e6 5.284220791704128e6 0.0
5.284220791704128e6 -1.597632606084813e7 0.0
0.0 0.0 0.0

194585.98246317141 1.466040888237141e7 0.0
1.466040888237141e7 888444.1703289232 0.0
0.0 0.0 0.0

-65127.1757380527 1.4407680559513792e7 0.0
1.4407680559513792e7 4.466029339064269e6 0.0
0.0 0.0 0.0

1.380942414140677e6 1.2506341695003923e7 0.0
1.2506341695003923e7 -1.740484281760665e7 0.0
0.0 0.0 0.0

6.771609763981076e6 2.2559551872637987e7 0.0
2.2559551872637987e7 -7.633825206159783e6 0.0
0.0 0.0 0.0

-8.909926597787883e6 -6.03826096749135e6 0.0
-6.03826096749135e6 1.90308591914279e7 0.0
0.0 0.0 0.0

-5.109942203516962e6 1.843357581632717e7 0.0
1.843357581632717e7 8.596561574136328e6 0.0
0.0 0.0 0.0

-3.5628897655317495e6 2.3070903699719124e7 0.0
2.3070903699719124e7 2.1552726015723133e6 0.0
0.0 0.0 0.0

-2.158838875400478e6 1.9864113528848495e7 0.0
1.9864113528848495e7 -1.8212226959096068e6 0.0
0.0 0.0 0.0

-5.8350899563589e6 -3.3584894881658587e6 0.0
-3.3584894881658587e6 9.668447569507778e6 0.0
0.0 0.0 0.0

-6.564276030278856e6 92345.38369194635 0.0
92345.38369194635 7.41409673332301e6 0.0
0.0 0.0 0.0

-699073.18760846 1.6267637965560284e7 0.0
1.6267637965560284e7 1.2572265900520397e7 0.0
0.0 0.0 0.0

318134.69836516655 2.395131118914859e6 0.0
2.395131118914859e6 -1.7069630907882615e6 0.0
0.0 0.0 0.0

1.3957655429595627e6 1.8559965987145565e7 0.0
1.8559965987145565e7 -5.000124858202475e6 0.0
0.0 0.0 0.0

-1.4125569266185188e6 1.6964512253799196e7 0.0
1.6964512253799196e7 -7.1162320346240075e6 0.0
0.0 0.0 0.0

623218.7915412486 1.4341630585425202e7 0.0
1.4341630585425202e7 -1.3085008348952677e7 0.0
0.0 0.0 0.0

-3.4179587829981623e6 1.7292101588717353e7 0.0
1.7292101588717353e7 783989.0639743069 0.0
0.0 0.0 0.0

-5.659461730260288e6 1.765859047505132e7 0.0
1.765859047505132e7 7.623110187441755e6 0.0
0.0 0.0 0.0

-1.1256018959103225e7 1.0477103934534244e7 0.0
1.0477103934534244e7 1.674725603216612e7 0.0
0.0 0.0 0.0

-1.734577947266518e7 2.82178887324911e7 0.0
2.82178887324911e7 7.531294045906981e6 0.0
0.0 0.0 0.0

3.05179344651257e6 4.760708305469586e6 0.0
4.760708305469586e6 -8.995372364647903e6 0.0
0.0 0.0 0.0

505884.2637746106 1.410688244481501e7 0.0
1.410688244481501e7 -1.0703049209446486e7 0.0
0.0 0.0 0.0

5.009330734741578e6 4.390942205885744e6 0.0
4.390942205885744e6 -3.2402776453390446e7 0.0
0.0 0.0 0.0

-591601.827181522 1.810242580912428e7 0.0
1.810242580912428e7 -5.897410954509773e6 0.0
0.0 0.0 0.0

-6.604973347716917e6 9.246791974761827e6 0.0
9.246791974761827e6 6.661840044470979e6 0.0
0.0 0.0 0.0

-4.148462912293369e6 1.3480220539122459e7 0.0
1.3480220539122459e7 -2.0020851019092657e7 0.0
0.0 0.0 0.0

1.7062724456855137e7 1.6007507481904028e7 0.0
1.6007507481904028e7 3.6070235940624615e6 0.0
0.0 0.0 0.0

-6.109667795788487e6 2.1336826333576753e6 0.0
2.1336826333576753e6 8.755811116331667e6 0.0
0.0 0.0 0.0

2.8452933986009187e6 1.7067062069086216e7 0.0
1.7067062069086216e7 8.65535261266367e6 0.0
0.0 0.0 0.0

2.1906695753932935e6 1.3830996804392481e7 0.0
1.3830996804392481e7 1.476279370027352e7 0.0
0.0 0.0 0.0

-4.34386535964647e6 1.3306348577312902e7 0.0
1.3306348577312902e7 -9.618108051944632e6 0.0
0.0 0.0 0.0

-1.514392303191511e6 2.4327885188149143e7 0.0
2.4327885188149143e7 -1.5141264916393713e6 0.0
0.0 0.0 0.0

-2.3361355747304847e6 1.7807445164712843e7 0.0
1.7807445164712843e7 -4.587731864787435e6 0.0
0.0 0.0 0.0

-7.657194929672182e6 1.3610378349557117e7 0.0
1.3610378349557117e7 1.263853345562698e7 0.0
0.0 0.0 0.0

2.563880113105595e6 7.849173684155542e6 0.0
7.849173684155542e6 -4.2464649810151525e7 0.0
0.0 0.0 0.0

-6.647463894181828e6 1.2566757333146161e6 0.0
1.2566757333146161e6 7.579144287355819e6 0.0
0.0 0.0 0.0

-466465.3437014646 1.496627715859876e7 0.0
1.496627715859876e7 -5.132243996738586e6 0.0
0.0 0.0 0.0

3.0561183661176185e6 1.6215937111663487e7 0.0
1.6215937111663487e7 6.682372027076848e6 0.0
0.0 0.0 0.0

-3.870951844556673e6 1.0632455367696377e7 0.0
1.0632455367696377e7 6.301703706616702e6 0.0
0.0 0.0 0.0

-5.588433994122082e6 1.6976562831666566e7 0.0
1.6976562831666566e7 1.0690940819324527e7 0.0
0.0 0.0 0.0

-4.236729789070488e6 2.0291533694570113e7 0.0
2.0291533694570113e7 4.814595636647774e6 0.0
0.0 0.0 0.0

-1.6097767087532252e7 2.8714357896196183e7 0.0
2.8714357896196183e7 8.31709075074645e6 0.0
0.0 0.0 0.0

1.340403764647957e6 7.007938029139653e6 0.0
7.007938029139653e6 -5.6928694421755e6 0.0
0.0 0.0 0.0

-4.700642376645524e6 2.0064422217130974e7 0.0
2.0064422217130974e7 4.473244032836789e6 0.0
0.0 0.0 0.0

-1.8838708037409668e6 1.715918945133843e7 0.0
1.715918945133843e7 -4.751785552930016e6 0.0
0.0 0.0 0.0

6.07390692475664e6 1.7274325134183563e7 0.0
1.7274325134183563e7 9.304543154468859e6 0.0
0.0 0.0 0.0

-2.5730182286768574e6 1.9155977860213075e7 0.0
1.9155977860213075e7 -3.040830856257558e6 0.0
0.0 0.0 0.0

2.4355573974606837e6 4.757568124246897e6 0.0
4.757568124246897e6 -7.677744451768934e6 0.0
0.0 0.0 0.0

-592680.2136535267 1.5182990229499295e7 0.0
1.5182990229499295e7 -9.548670533013025e6 0.0
0.0 0.0 0.0

-9.462064971910942e6 -458312.40770726453 0.0
-458312.40770726453 1.4861594453902729e7 0.0
0.0 0.0 0.0

4.686951339612878e6 5.8938014699830655e6 0.0
5.8938014699830655e6 -1.7378843868603766e7 0.0
0.0 0.0 0.0

4.869961379981065e6 4.972636287855126e6 0.0
4.972636287855126e6 -3.4899438168598235e7 0.0
0.0 0.0 0.0

-1.0817647318970114e6 1.6403098292626524e7 0.0
1.6403098292626524e7 9.477581029573843e6 0.0
0.0 0.0 0.0

248421.70768945152 1.4982507066472199e7 0.0
1.4982507066472199e7 -1.166114735555728e7 0.0
0.0 0.0 0.0

-8.048935419059335e6 1.38776810375697e7 0.0
1.38776810375697e7 1.09624098103948e7 0.0
0.0 0.0 0.0

4.86871729128391e6 3.7132676311372104e6 0.0
3.7132676311372104e6 -1.5591380363938196e7 0.0
0.0 0.0 0.0

1.5696238495258726e6 1.2605314329440849e7 0.0
1.2605314329440849e7 -1.3690774683889145e7 0.0
0.0 0.0 0.0

305711.5165731106 1.3899629117355509e7 0.0
1.3899629117355509e7 -1.3805587393801227e7 0.0
0.0 0.0 0.0

-7.576714647194315e6 1.480372017017396e7 0.0
1.480372017017396e7 1.0623003409304187e7 0.0
0.0 0.0 0.0

-4.338677227883181e6 4.763646961937858e6 0.0
4.763646961937858e6 4.293734426653178e6 0.0
0.0 0.0 0.0

-7.854004710271703e6 -3.614741187970048e6 0.0
-3.614741187970048e6 1.4507802225753497e7 0.0
0.0 0.0 0.0

18641.943287541624 1.4594168328846505e7 0.0
1.4594168328846505e7 -1.2075255801686918e7 0.0
0.0 0.0 0.0

-5.5516288525052e6 8.350923064807733e6 0.0
8.350923064807733e6 7.016171641630977e6 0.0
0.0 0.0 0.0

5.509709010840414e6 1.6416063521101272e7 0.0
1.6416063521101272e7 9.045408324347472e6 0.0
0.0 0.0 0.0

-1.5845228101550487e6 1.7364682157021657e7 0.0
1.7364682157021657e7 -6.608912525839748e6 0.0
0.0 0.0 0.0

2.545972072735514e6 4.750330924696246e6 0.0
4.750330924696246e6 -7.116821445890653e6 0.0
0.0 0.0 0.0

-1.1086995075557461e7 2.4866220141988895e6 0.0
2.4866220141988895e6 2.7820284355482582e7 0.0
0.0 0.0 0.0

-3.721688782398769e6 2.1410991446841575e7 0.0
2.1410991446841575e7 2.0340541005321832e6 0.0
0.0 0.0 0.0

-7.614689530679131e6 2.284254965796806e7 0.0
2.284254965796806e7 6.182246347555644e6 0.0
0.0 0.0 0.0

-7.912570018902691e6 2.5490901442659106e6 0.0
2.5490901442659106e6 8.427724823551184e6 0.0
0.0 0.0 0.0

-1.0188070059261195e7 -2.4959658705580076e6 0.0
-2.4959658705580076e6 2.146195780436693e7 0.0
0.0 0.0 0.0

1.7906497222415833e6 1.1424295480404362e7 0.0
1.1424295480404362e7 -1.919549466487416e7 0.0
0.0 0.0 0.0

-6.668296334880318e6 1.528432023576728e7 0.0
1.528432023576728e7 1.1395267628249872e7 0.0
0.0 0.0 0.0

-1.156661273777532e7 3.7377321890693083e6 0.0
3.7377321890693083e6 2.8190819137322936e7 0.0
0.0 0.0 0.0

-4.586906745069817e7 1.378494041446711e7 0.0
1.378494041446711e7 9.431181355688496e6 0.0
0.0 0.0 0.0

1.5814731710499162e6 1.0846947646640765e7 0.0
1.0846947646640765e7 -1.2325627213343624e7 0.0
0.0 0.0 0.0

267465.73892389046 1.4500432938906368e7 0.0
1.4500432938906368e7 -504985.6369787351 0.0
0.0 0.0 0.0

5.521893195669379e6 3.2164779096165244e6 0.0
3.2164779096165244e6 -2.2428057445011247e7 0.0
0.0 0.0 0.0

-2.9534341333889915e6 1.6269120942619145e7 0.0
1.6269120942619145e7 1.2334071933629524e7 0.0
0.0 0.0 0.0

-1.2350400671348834e7 3.7374905430041044e6 0.0
3.7374905430041044e6 2.5577249654463425e7 0.0
0.0 0.0 0.0

1.5155598845334342e6 6.258354578909407e6 0.0
6.258354578909407e6 -6.95409604648133e6 0.0
0.0 0.0 0.0

-1.7984434314960297e6 1.7209165081145335e7 0.0
1.7209165081145335e7 -4.704180352190129e6 0.0
0.0 0.0 0.0

-4.0035598737357957e6 1.930124708578547e7 0.0
1.930124708578547e7 1.186902915340332e6 0.0
0.0 0.0 0.0

-5.239167575112439e6 1.707273752952749e7 0.0
1.707273752952749e7 7.351791333257262e6 0.0
0.0 0.0 0.0

-5.773012669278594e6 2.231723551700847e7 0.0
2.231723551700847e7 5.5650973557143565e6 0.0
0.0 0.0 0.0

-4.1012022216639663e6 1.593126252932041e7 0.0
1.593126252932041e7 448046.74742732965 0.0
0.0 0.0 0.0

-1.0462049758738352e7 -2.8260248687706147e6 0.0
-2.8260248687706147e6 3.1388667395199776e7 0.0
0.0 0.0 0.0

57249.36861880915 1.5692072131271418e7 0.0
1.5692072131271418e7 1.075556864083638e7 0.0
0.0 0.0 0.0

783480.3556936411 1.3921400675259002e7 0.0
1.3921400675259002e7 -1.1731818983925393e7 0.0
0.0 0.0 0.0

-1.1336009364465049e7 2.13369061931882e7 0.0
2.13369061931882e7 1.8545958716018335e6 0.0
0.0 0.0 0.0

-2.1624557025769996e6 1.7890626161462797e6 0.0
1.7890626161462797e6 1.276615809356541e6 0.0
0.0 0.0 0.0

-3.269883839377909e6 2.278276500148874e7 0.0
2.278276500148874e7 2.903808073453174e6 0.0
0.0 0.0 0.0

29079.970622446854 1.4115268274822794e7 0.0
1.4115268274822794e7 -1.6353058726917214e6 0.0
0.0 0.0 0.0

-1.1714754619379567e7 1.3279878599322958e7 0.0
1.3279878599322958e7 1.811885539470066e7 0.0
0.0 0.0 0.0

3.113874252714089e6 9.754010959393555e6 0.0
9.754010959393555e6 -1.5874285117281707e7 0.0
0.0 0.0 0.0

-1.138220590111486e7 1.1996035798566664e7 0.0
1.1996035798566664e7 1.7539180403161965e7 0.0
0.0 0.0 0.0

2.23060234337924e6 4.811253115781805e6 0.0
4.811253115781805e6 -6.83115929763075e6 0.0
0.0 0.0 0.0

4.349941385889537e6 6.770676713049072e6 0.0
6.770676713049072e6 -1.72725086175985e7 0.0
0.0 0.0 0.0

-756474.280701927 1.6438234059873007e7 0.0
1.6438234059873007e7 -5.11321398175305e6 0.0
0.0 0.0 0.0

-4.0746533952633208e6 1.7060455721643478e7 0.0
1.7060455721643478e7 2.1266461129922997e6 0.0
0.0 0.0 0.0

-3.6829030437300215e6 1.9443863039504576e7 0.0
1.9443863039504576e7 2.1938061006954643e6 0.0
0.0 0.0 0.0

-105758.71959360829 1.7626393747051343e7 0.0
1.7626393747051343e7 -6.134490372548772e6 0.0
0.0 0.0 0.0

4.674797053077728e6 5.441824425952445e6 0.0
5.441824425952445e6 -1.5905843614398036e7 0.0
0.0 0.0 0.0

1.7893150015480085e6 4.732707155329032e6 0.0
4.732707155329032e6 -5.657693376643681e6 0.0
0.0 0.0 0.0

4.0007556518348204e6 6.341286567884792e6 0.0
6.341286567884792e6 -1.8277737620815843e7 0.0
0.0 0.0 0.0

2.116835022276599e6 6.22917389580503e6 0.0
6.22917389580503e6 -7.191292824163773e6 0.0
0.0 0.0 0.0

9.402690598690072e6 1.6170367264076835e7 0.0
1.6170367264076835e7 7.291536375044079e6 0.0
0.0 0.0 0.0

-4.011088787125944e6 2.482674072427248e7 0.0
2.482674072427248e7 3.8326527298378395e6 0.0
0.0 0.0 0.0

-9.826797340164077e6 -5.235173505680244e6 0.0
-5.235173505680244e6 2.423600448844321e7 0.0
0.0 0.0 0.0

3.945561687996557e6 7.467890437082975e6 0.0
7.467890437082975e6 -2.832683854748641e7 0.0
0.0 0.0 0.0

-452497.7120885167 1.811284482953207e7 0.0
1.811284482953207e7 -5.915310104371576e6 0.0
0.0 0.0 0.0

-844257.8129847867 1.619345060349437e7 0.0
1.619345060349437e7 -6.168051188989561e6 0.0
0.0 0.0 0.0

3.9569990891609704e6 6.984868849183715e6 0.0
6.984868849183715e6 -2.2278425217397533e7 0.0
0.0 0.0 0.0

-6.303716122657554e6 2.501805730522912e7 0.0
2.501805730522912e7 5.948501471181584e6 0.0
0.0 0.0 0.0

1.0576415375545435e6 1.755836765701337e7 0.0
1.755836765701337e7 1.026031853560995e7 0.0
0.0 0.0 0.0

-3.1371729838790894e7 2.5742758994636044e7 0.0
2.5742758994636044e7 9.995218769687714e6 0.0
0.0 0.0 0.0

-5.507755201647825e6 1.5925814842752934e7 0.0
1.5925814842752934e7 1.3808424747646198e7 0.0
0.0 0.0 0.0

3.14337823409947e6 9.05708482761223e6 0.0
9.05708482761223e6 -1.6213858956823446e7 0.0
0.0 0.0 0.0

4.260498147093862e7 1.6640375111198971e7 0.0
1.6640375111198971e7 3.968707705378456e6 0.0
0.0 0.0 0.0

-690908.9167467989 1.680016817386213e7 0.0
1.680016817386213e7 1.2922213495733436e7 0.0
0.0 0.0 0.0

-1.0281134717052385e7 104817.3862981725 0.0
104817.3862981725 1.5980383278567016e7 0.0
0.0 0.0 0.0

-87154.69684759504 1.477178827851574e7 0.0
1.477178827851574e7 4.764572003197735e6 0.0
0.0 0.0 0.0

-493610.6920509767 1.3275742305191148e7 0.0
1.3275742305191148e7 -1.6301420371032838e7 0.0
0.0 0.0 0.0

3.096022477210909e6 1.7992661646114495e7 0.0
1.7992661646114495e7 -5.044970777013466e6 0.0
0.0 0.0 0.0

-5.106710415055299e6 1.7288231183284372e7 0.0
1.7288231183284372e7 6.019799425708517e6 0.0
0.0 0.0 0.0

-1.2003420060686056e7 2.19407755591625e6 0.0
2.19407755591625e6 2.4895937648928374e7 0.0
0.0 0.0 0.0

-6.002449058436274e6 2.534427389553852e7 0.0
2.534427389553852e7 4.96794718486971e6 0.0
0.0 0.0 0.0

-5.657192245027725e6 1.772723441632553e7 0.0
1.772723441632553e7 3.7015739117285204e6 0.0
0.0 0.0 0.0

-4.1886058642149754e6 1.9147574881642498e7 0.0
1.9147574881642498e7 1.7083806064225663e6 0.0
0.0 0.0 0.0

-1.51298160316487e6 2.1254124910285704e7 0.0
2.1254124910285704e7 -1.7820880355490504e6 0.0
0.0 0.0 0.0

-3.7386064812055714e6 2.1032530876945388e7 0.0
2.1032530876945388e7 1.8983012691751872e6 0.0
0.0 0.0 0.0

-70263.26802419567 1.4730941082617473e7 0.0
1.4730941082617473e7 -499337.8651502232 0.0
0.0 0.0 0.0

-2.9185913887972655e6 1.6318393946620591e7 0.0
1.6318393946620591e7 1.136814528049851e7 0.0
0.0 0.0 0.0

1.2280541421593567e6 1.4759967960108774e7 0.0
1.4759967960108774e7 -1.200114635234389e6 0.0
0.0 0.0 0.0

-3.580922127336313e6 1.4139193183563465e7 0.0
1.4139193183563465e7 -2.4724756780161407e7 0.0
0.0 0.0 0.0

-141544.01753663603 1.4830212062049542e7 0.0
1.4830212062049542e7 780254.8699629862 0.0
0.0 0.0 0.0

-4.254731571734625e6 1.6893676969737943e7 0.0
1.6893676969737943e7 1.0642569495222957e6 0.0
0.0 0.0 0.0

-1.908171974789855e6 1.2418929063882815e7 0.0
1.2418929063882815e7 1.264332005129132e7 0.0
0.0 0.0 0.0

-574719.9305870426 1.6122568173136301e7 0.0
1.6122568173136301e7 -8.456224628764972e6 0.0
0.0 0.0 0.0

1.2599319646926196e6 1.236540403095108e7 0.0
1.236540403095108e7 -1.4481424019184345e7 0.0
0.0 0.0 0.0

4.799365633936576e6 5.048646764254084e6 0.0
5.048646764254084e6 -1.6459028024017777e7 0.0
0.0 0.0 0.0

-1.0399201947851856e6 1.6700392660603385e7 0.0
1.6700392660603385e7 1.1813616276654026e7 0.0
0.0 0.0 0.0

-2.75749055017961e6 1.6251490737347772e7 0.0
1.6251490737347772e7 8.088472754554568e6 0.0
0.0 0.0 0.0

-1.1541758102159176e7 1.254090409076618e7 0.0
1.254090409076618e7 1.7567588940031666e7 0.0
0.0 0.0 0.0

-5.081901586263061e6 1.6858900879555054e7 0.0
1.6858900879555054e7 6.735214701038012e6 0.0
0.0 0.0 0.0

-1.6029782264613253e6 1.653960132453348e7 0.0
1.653960132453348e7 -5.303056805341026e6 0.0
0.0 0.0 0.0

-1.1855753446178246e7 1.2635513585388716e7 0.0
1.2635513585388716e7 1.6150328146705974e7 0.0
0.0 0.0 0.0

-1.2269764594185827e7 1.251074496404094e7 0.0
1.251074496404094e7 1.8256775687266387e7 0.0
0.0 0.0 0.0

-1.1722516899107216e7 1.0539996751427103e7 0.0
1.0539996751427103e7 1.4903344213190846e7 0.0
0.0 0.0 0.0

-7.305812700880388e6 -5.163799558258479e6 0.0
-5.163799558258479e6 1.276824409538021e7 0.0
0.0 0.0 0.0

-4.841479830356697e6 1.8434457468182858e7 0.0
1.8434457468182858e7 7.439071787269794e6 0.0
0.0 0.0 0.0

-575983.7561181067 1.2920852538111903e7 0.0
1.2920852538111903e7 -2.2612769280369323e7 0.0
0.0 0.0 0.0

947690.7958205715 1.2495085810813436e7 0.0
1.2495085810813436e7 -1.7420776764106464e7 0.0
0.0 0.0 0.0

-1.8555479631862838e7 2.329380223111669e7 0.0
2.329380223111669e7 -26762.970049035735 0.0
0.0 0.0 0.0

-1.0747354867850913e7 1.637963618809592e6 0.0
1.637963618809592e6 3.209926095554754e7 0.0
0.0 0.0 0.0

1.304034996093765e6 1.285490553318849e7 0.0
1.285490553318849e7 -1.6429769544711886e7 0.0
0.0 0.0 0.0

-3.2169119762271275e6 2.137006351140259e7 0.0
2.137006351140259e7 612147.0695261233 0.0
0.0 0.0 0.0

357309.9456103714 1.5054251887635838e7 0.0
1.5054251887635838e7 8.200539265819663e6 0.0
0.0 0.0 0.0

-2.807517145578696e6 -5.990884962209604e6 0.0
-5.990884962209604e6 9.4114514497265e6 0.0
0.0 0.0 0.0

-378241.4039880015 1.4529575351542354e7 0.0
1.4529575351542354e7 -1.8259719318492515e6 0.0
0.0 0.0 0.0

-1.6569251460673271e6 1.5743855091440583e7 0.0
1.5743855091440583e7 -6.1946135535557475e6 0.0
0.0 0.0 0.0

-9.443751275591403e6 4.534104587706232e6 0.0
4.534104587706232e6 1.032605878542427e7 0.0
0.0 0.0 0.0

5.521326400758915e6 2.843876213351911e6 0.0
2.843876213351911e6 -2.7542097086916618e7 0.0
0.0 0.0 0.0

549695.0439063055 8.767243615958672e6 0.0
8.767243615958672e6 -7.193850076670804e6 0.0
0.0 0.0 0.0

-1.1659700423099644e7 -1.4387002588866407e6 0.0
-1.4387002588866407e6 1.911539011444915e7 0.0
0.0 0.0 0.0

-740553.4811951483 1.640443601575206e7 0.0
1.640443601575206e7 -8.560126236838013e6 0.0
0.0 0.0 0.0

2.0360027968535358e6 1.5332823354531568e7 0.0
1.5332823354531568e7 1.419581499862955e7 0.0
0.0 0.0 0.0

488412.128464713 8.400212936825577e6 0.0
8.400212936825577e6 -4.706849205921683e6 0.0
0.0 0.0 0.0

1.2287525881104772e6 1.720795758609895e7 0.0
1.720795758609895e7 1.1191073735403117e7 0.0
0.0 0.0 0.0

-4.5057369172701705e6 2.5368108130534276e7 0.0
2.5368108130534276e7 4.0532370394266956e6 0.0
0.0 0.0 0.0

-1.0889731155122884e7 276689.40897239314 0.0
276689.40897239314 1.3735672413270775e7 0.0
0.0 0.0 0.0

-2.4386041817508657e6 1.6108508549030598e7 0.0
1.6108508549030598e7 1.1440635071487136e7 0.0
0.0 0.0 0.0

2.676733397804374e6 9.306348168131802e6 0.0
9.306348168131802e6 -1.6601277568672627e7 0.0
0.0 0.0 0.0

-1.3827932223332647e7 2.0102563340589326e7 0.0
2.0102563340589326e7 4.3770486080775475e6 0.0
0.0 0.0 0.0

-4.831776519741836e6 1970.4368274584633 0.0
1970.4368274584633 4.467678996399538e6 0.0
0.0 0.0 0.0

-5.2193158500808e6 1.780572623307569e7 0.0
1.780572623307569e7 -3.974378616179605e6 0.0
0.0 0.0 0.0

1.7296046875505995e7 1.693846382349443e7 0.0
1.693846382349443e7 3.964487116169351e6 0.0
0.0 0.0 0.0

-2.261809044882062e6 1.729075223034272e7 0.0
1.729075223034272e7 -4.521341726958177e6 0.0
0.0 0.0 0.0

3.041216359401049e6 9.458834982583057e6 0.0
9.458834982583057e6 -1.5438467387529818e7 0.0
0.0 0.0 0.0

-5.190733857915357e6 1.8535372058906198e7 0.0
1.8535372058906198e7 8.446234519238796e6 0.0
0.0 0.0 0.0

-1.0183339361471448e7 -1.6894623376689146e6 0.0
-1.6894623376689146e6 3.6446483087412275e7 0.0
0.0 0.0 0.0

-2.66192792970315e6 1.6404222670816507e7 0.0
1.6404222670816507e7 -7.690547496767104e6 0.0
0.0 0.0 0.0

-3.3189257193565257e6 2.3167220036695547e7 0.0
2.3167220036695547e7 3.0438950226923088e6 0.0
0.0 0.0 0.0

644496.0148803452 1.1900861915984323e7 0.0
1.1900861915984323e7 -2.226492672003443e7 0.0
0.0 0.0 0.0

504614.09537171945 1.4417347427062655e7 0.0
1.4417347427062655e7 -1.3066454582807943e7 0.0
0.0 0.0 0.0

684513.2677642414 1.4016897260037994e7 0.0
1.4016897260037994e7 -1.3915011699855836e7 0.0
0.0 0.0 0.0

-1.2192825882736124e7 9.744381105811937e6 0.0
9.744381105811937e6 2.2522781431803346e7 0.0
0.0 0.0 0.0

-5.21795253145611e6 1.7628391765423756e7 0.0
1.7628391765423756e7 6.439336728256013e6 0.0
0.0 0.0 0.0

-8.48713798685773e6 9.617809237596497e6 0.0
9.617809237596497e6 6.904530501669748e7 0.0
0.0 0.0 0.0

5.221945735338442e6 1.0328137431179293e7 0.0
1.0328137431179293e7 -5.566178211248182e7 0.0
0.0 0.0 0.0

-9.894637836435571e6 2.1592344441149313e7 0.0
2.1592344441149313e7 -2.5623635357313557e6 0.0
0.0 0.0 0.0

-3.524564844022316e6 1.5706973452889556e7 0.0
1.5706973452889556e7 8.693356372041825e6 0.0
0.0 0.0 0.0

-1.4061737579271292e7 2.0613539975941084e7 0.0
2.0613539975941084e7 700752.6331168944 0.0
0.0 0.0 0.0

-5.044964931116035e6 -563516.9788693349 0.0
-563516.9788693349 8.267540368652839e6 0.0
0.0 0.0 0.0

-1.0106456809300669e7 1.3383240383921726e7 0.0
1.3383240383921726e7 1.4175902017535735e7 0.0
0.0 0.0 0.0

-6.047358799373317e6 1.8540249158203132e7 0.0
1.8540249158203132e7 -3.0767732125013787e6 0.0
0.0 0.0 0.0

-1.0731587631270293e7 -234254.5126044994 0.0
-234254.5126044994 2.1352970851844832e7 0.0
0.0 0.0 0.0

1.6754152076067152e7 1.5580961477618955e7 0.0
1.5580961477618955e7 3.747858407220631e6 0.0
0.0 0.0 0.0

-2.7058971005574223e6 1.6221633455024036e7 0.0
1.6221633455024036e7 1.3590503107480783e7 0.0
0.0 0.0 0.0

-6.530483994764856e6 1.5116634358062187e7 0.0
1.5116634358062187e7 1.1072456682310648e7 0.0
0.0 0.0 0.0

-2.0933781668922663e7 2.625709854766083e7 0.0
2.625709854766083e7 1.1282176374979788e7 0.0
0.0 0.0 0.0

1.5971801933227256e6 1.5492528649076182e7 0.0
1.5492528649076182e7 2.534451736343258e6 0.0
0.0 0.0 0.0

1.8567144607777447e6 1.4315449316908853e7 0.0
1.4315449316908853e7 -2.4463342027006065e6 0.0
0.0 0.0 0.0

-5.021752853288136e6 1.950933493133329e7 0.0
1.950933493133329e7 7.609054846650958e6 0.0
0.0 0.0 0.0

-4.0967824762604805e6 1.716891304964627e7 0.0
1.716891304964627e7 -358948.62026024226 0.0
0.0 0.0 0.0

-339775.19201343344 1.3074451433733327e7 0.0
1.3074451433733327e7 -2.4025888069208683e6 0.0
0.0 0.0 0.0

1.807583909073808e6 1.5017775340616077e7 0.0
1.5017775340616077e7 -3.978885876509269e6 0.0
0.0 0.0 0.0

-697016.9122226932 1.595707717578845e7 0.0
1.595707717578845e7 9.555320799070915e6 0.0
0.0 0.0 0.0

-916710.9266957504 2.3519025368415456e7 0.0
2.3519025368415456e7 -533671.9201415366 0.0
0.0 0.0 0.0

-5.177080657066364e6 1.8216138245058946e7 0.0
1.8216138245058946e7 8.0467370720909685e6 0.0
0.0 0.0 0.0

-5.469380851319704e6 2.5058779868544687e7 0.0
2.5058779868544687e7 3.5668409555419036e6 0.0
0.0 0.0 0.0

-2.599388281067556e6 1.3775797875205023e7 0.0
1.3775797875205023e7 -2.7262583748544943e7 0.0
0.0 0.0 0.0

-8.079127230096886e6 1.6574361807176216e7 0.0
1.6574361807176216e7 -5.0079537070018396e7 0.0
0.0 0.0 0.0

7.635069221715502e6 1.6541101849020394e7 0.0
1.6541101849020394e7 5.958944868327701e7 0.0
0.0 0.0 0.0

2.279599017039152e6 1.5590908021396209e7 0.0
1.5590908021396209e7 1.3846031257516101e7 0.0
0.0 0.0 0.0

2.986769023329392e6 8.688112106570173e6 0.0
8.688112106570173e6 -2.530292944120694e7 0.0
0.0 0.0 0.0

-2.0242791338761386e6 2.3321293125609145e7 0.0
2.3321293125609145e7 -793746.6761952764 0.0
0.0 0.0 0.0

-1.1123385962901232e6 1.7274782006866094e7 0.0
1.7274782006866094e7 -6.472632456390566e6 0.0
0.0 0.0 0.0

-506481.2868770852 1.5282725825130742e7 0.0
1.5282725825130742e7 -4.548948535968402e6 0.0
0.0 0.0 0.0

-508165.54908646503 1.6639022608625358e7 0.0
1.6639022608625358e7 -8.192164941316811e6 0.0
0.0 0.0 0.0

-2.6335662108342025e7 2.6963734723568216e7 0.0
2.6963734723568216e7 1.199702666363393e7 0.0
0.0 0.0 0.0

-3.8697923232731083e6 2.2937299739901617e7 0.0
2.2937299739901617e7 2.6787782686809865e6 0.0
0.0 0.0 0.0

-5.962258725597335e6 1.9893881190955535e7 0.0
1.9893881190955535e7 6.921439115512913e6 0.0
0.0 0.0 0.0

5.159347027098294e6 3.9191291854624054e6 0.0
3.9191291854624054e6 -2.9415750585618693e7 0.0
0.0 0.0 0.0

3.1994744048354086e6 1.8532940903711304e7 0.0
1.8532940903711304e7 -5.283631697932023e6 0.0
0.0 0.0 0.0

540793.7146092253 1.228038443938964e7 0.0
1.228038443938964e7 -2.1165863236261882e7 0.0
0.0 0.0 0.0

2.273695669579403e6 1.8947759190846268e7 0.0
1.8947759190846268e7 -5.05602314695535e6 0.0
0.0 0.0 0.0

-80051.67070959578 1.2514299679212404e7 0.0
1.2514299679212404e7 -1.640774548262159e6 0.0
0.0 0.0 0.0

-1.9745292068023202e6 1.6581916314825853e7 0.0
1.6581916314825853e7 1.2027565677132858e7 0.0
0.0 0.0 0.0

-5.0542872911887355e6 2.119987671646137e7 0.0
2.119987671646137e7 5.532730782871412e6 0.0
0.0 0.0 0.0

-9.369418279186329e6 -5.783929417681562e6 0.0
-5.783929417681562e6 1.8594485894264903e7 0.0
0.0 0.0 0.0

8.094908252868285e6 1.504710506554968e7 0.0
1.504710506554968e7 -1.350143149221065e6 0.0
0.0 0.0 0.0

-5.055171858508054e7 1.8838363079006616e7 0.0
1.8838363079006616e7 7.997805911203358e6 0.0
0.0 0.0 0.0

-1.2770528141935404e7 9.849897682409918e6 0.0
9.849897682409918e6 2.0501819401066277e7 0.0
0.0 0.0 0.0

-5.010130540896638e6 1.754771976483544e7 0.0
1.754771976483544e7 3.8520278811408547e6 0.0
0.0 0.0 0.0

1.994528104142374e6 1.5270243565440206e7 0.0
1.5270243565440206e7 -2.0552090451385817e6 0.0
0.0 0.0 0.0

5.313127965855006e6 4.181102272552609e6 0.0
4.181102272552609e6 -2.0288764633070454e7 0.0
0.0 0.0 0.0

-3.5160950661616996e6 1.60205319815994e7 0.0
1.60205319815994e7 6.896443529350683e6 0.0
0.0 0.0 0.0

-1.0151040538595818e7 -3.023213294403208e6 0.0
-3.023213294403208e6 3.1881290016499672e7 0.0
0.0 0.0 0.0

-8.910221471955515e6 1.886450598136152e7 0.0
1.886450598136152e7 -5.5196269122938e7 0.0
0.0 0.0 0.0

8.222637414628176e6 2.106595243024271e7 0.0
2.106595243024271e7 6.5808105279447936e7 0.0
0.0 0.0 0.0

2.0186534224016024e6 1.0984197203549871e7 0.0
1.0984197203549871e7 -1.9846888984603345e7 0.0
0.0 0.0 0.0

1.4643927723524878e6 4.795974147174264e6 0.0
4.795974147174264e6 -5.527741036512144e6 0.0
0.0 0.0 0.0

4.1497058279471807e6 1.5307978494541597e7 0.0
1.5307978494541597e7 5.671650596842672e6 0.0
0.0 0.0 0.0

-1.0478788890389252e7 -973304.6659343073 0.0
-973304.6659343073 3.655941956509677e7 0.0
0.0 0.0 0.0

1.2416142229936253e6 7.261787643341834e6 0.0
7.261787643341834e6 -6.317299116001912e6 0.0
0.0 0.0 0.0

-483574.7308186423 2.2640587632352017e7 0.0
2.2640587632352017e7 -2.298267414891359e6 0.0
0.0 0.0 0.0

-382430.9944443726 1.4821204908139532e7 0.0
1.4821204908139532e7 -1.0212833236690765e7 0.0
0.0 0.0 0.0

1.2352280578518535e6 1.5402973969006237e7 0.0
1.5402973969006237e7 1.0166454514779374e7 0.0
0.0 0.0 0.0

-3.340496424037204e6 1.7552372068930823e7 0.0
1.7552372068930823e7 162214.2282848286 0.0
0.0 0.0 0.0

-1.6708323851375677e7 1.9377536573264763e7 0.0
1.9377536573264763e7 -1.3406883714659084e6 0.0
0.0 0.0 0.0

-4.032470289512831e6 2.2732676334216528e7 0.0
2.2732676334216528e7 3.108330237844694e6 0.0
0.0 0.0 0.0

-515933.2694962546 1.5181660717530861e7 0.0
1.5181660717530861e7 6.22477303431753e6 0.0
0.0 0.0 0.0

-3.347326888009153e6 1.6212042231089575e7 0.0
1.6212042231089575e7 1.0144270316603525e7 0.0
0.0 0.0 0.0

1.2666791822439712e6 1.289532114846147e7 0.0
1.289532114846147e7 -1.403618598010053e7 0.0
0.0 0.0 0.0

-517784.9901669682 1.622807928925479e7 0.0
1.622807928925479e7 -8.688265002966495e6 0.0
0.0 0.0 0.0

-1.0996479370034464e7 268547.2980096462 0.0
268547.2980096462 3.49359972435009e7 0.0
0.0 0.0 0.0

-2.254033738860799e7 2.8200051576779965e7 0.0
2.8200051576779965e7 8.734696135777632e6 0.0
0.0 0.0 0.0

-1.0032295848358186e7 2.4175480733246155e7 0.0
2.4175480733246155e7 7.214825628790791e6 0.0
0.0 0.0 0.0

-1.983791747097762e7 1.9961289814065337e7 0.0
1.9961289814065337e7 6.437860018109232e6 0.0
0.0 0.0 0.0

-253250.30401139148 1.51651417368533e7 0.0
1.51651417368533e7 1.848457074189288e6 0.0
0.0 0.0 0.0

-4.799845898632175e6 1.798013063316458e7 0.0
1.798013063316458e7 -640879.6187305631 0.0
0.0 0.0 0.0

-1.0365870585125865e7 2.070705685838287e7 0.0
2.070705685838287e7 2.1353819375462434e6 0.0
0.0 0.0 0.0

1.8708844367144266e6 6.726424079806562e6 0.0
6.726424079806562e6 -6.278277925794459e6 0.0
0.0 0.0 0.0

362143.2892986983 1.5834497505720608e7 0.0
1.5834497505720608e7 1.0896215979746435e7 0.0
0.0 0.0 0.0

3.8132092015831117e6 8.060979478116557e6 0.0
8.060979478116557e6 -2.4663945252656028e7 0.0
0.0 0.0 0.0

-1.182119882513278e7 1.0875287938460134e7 0.0
1.0875287938460134e7 2.170945928413102e7 0.0
0.0 0.0 0.0

-9.81703069476317e6 -1.3925144786067184e6 0.0
-1.3925144786067184e6 3.756701400101915e7 0.0
0.0 0.0 0.0

5.313919471204188e6 4.027888012595211e6 0.0
4.027888012595211e6 -2.9120464759465817e7 0.0
0.0 0.0 0.0

-2.3069280750847764e7 2.039938061329329e7 0.0
2.039938061329329e7 5.448392365816906e6 0.0
0.0 0.0 0.0

-1.0138338837409735e7 -4.123642713786879e6 0.0
-4.123642713786879e6 2.876120591892624e7 0.0
0.0 0.0 0.0

-9.781977226113642e6 -5.219352945610588e6 0.0
-5.219352945610588e6 2.4255215816645306e7 0.0
0.0 0.0 0.0

1.4078238814221732e6 6.489385413209107e6 0.0
6.489385413209107e6 -7.5824475527464915e6 0.0
0.0 0.0 0.0

-9.93369864640749e6 -3.835304631541256e6 0.0
-3.835304631541256e6 2.330489611879922e7 0.0
0.0 0.0 0.0

-1.1447167951620878e6 2.9201885769280106e7 0.0
2.9201885769280106e7 -4.95848994751963e6 0.0
0.0 0.0 0.0

-6.139577341060648e6 1.5889269883710431e7 0.0
1.5889269883710431e7 1.067432284165245e7 0.0
0.0 0.0 0.0

4.549829527631387e6 4.777461560318891e6 0.0
4.777461560318891e6 -3.533109600888229e7 0.0
0.0 0.0 0.0

4.820120000026016e6 4.614201384713966e6 0.0
4.614201384713966e6 -2.3567164283006705e7 0.0
0.0 0.0 0.0

-5.343792101691855e6 1.7418645419180386e7 0.0
1.7418645419180386e7 5.777195525557306e6 0.0
0.0 0.0 0.0

-5.149133711322241e6 2.4976375313385274e7 0.0
2.4976375313385274e7 4.74414912892697e6 0.0
0.0 0.0 0.0

1.4946982564242065e6 9.18229462736261e6 0.0
9.18229462736261e6 2.5509261839901474e6 0.0
0.0 0.0 0.0

3.408084517951055e6 1.732951712788811e7 0.0
1.732951712788811e7 1.0391853144136485e7 0.0
0.0 0.0 0.0

3.213111469020245e6 1.78901814614418e7 0.0
1.78901814614418e7 -4.807478945258249e6 0.0
0.0 0.0 0.0

-1.0448838361355815e7 -3.8847114775987295e6 0.0
-3.8847114775987295e6 2.810626223536045e7 0.0
0.0 0.0 0.0

-1.3561779857987018e7 1.7432410061117124e7 0.0
1.7432410061117124e7 7.10602336995759e6 0.0
0.0 0.0 0.0

-3.97086763149066e6 2.234357721180812e7 0.0
2.234357721180812e7 2.9525533232209766e6 0.0
0.0 0.0 0.0

-2.7153866519485973e6 1.5290859941027109e7 0.0
1.5290859941027109e7 2.9482502929363538e7 0.0
0.0 0.0 0.0

4.1251645366000696e6 1.814076400195514e7 0.0
1.814076400195514e7 -4.653936016887751e6 0.0
0.0 0.0 0.0

-1.362451163631482e6 1.672540936278968e7 0.0
1.672540936278968e7 -5.058855839486168e6 0.0
0.0 0.0 0.0

-5.453606938746938e6 1.6578025738159731e7 0.0
1.6578025738159731e7 1.138107695540959e7 0.0
0.0 0.0 0.0

-1.4066444264091067e6 1.6057088683356607e7 0.0
1.6057088683356607e7 -5.523253754267997e6 0.0
0.0 0.0 0.0

-4.8147748355906665e7 2.6215556213371005e7 0.0
2.6215556213371005e7 2.157323160431169e6 0.0
0.0 0.0 0.0

-7.049589124886328e6 1.5594470630633473e7 0.0
1.5594470630633473e7 1.021693982375506e7 0.0
0.0 0.0 0.0

-1.3816748353082002e6 1.683900804476661e7 0.0
1.683900804476661e7 -4.51383685099168e6 0.0
0.0 0.0 0.0

-5.3121620187541405e6 1.7060372352273844e7 0.0
1.7060372352273844e7 1.0864011266986176e7 0.0
0.0 0.0 0.0

2.1346099588145e6 1.7607354161034044e7 0.0
1.7607354161034044e7 -4.918472287632191e6 0.0
0.0 0.0 0.0

5.013165379557011e6 4.208110283542117e6 0.0
4.208110283542117e6 -1.975186096020627e7 0.0
0.0 0.0 0.0

-170677.2180225912 1.7222470557217754e7 0.0
1.7222470557217754e7 -6.5142117029376365e6 0.0
0.0 0.0 0.0

-2.245520250163587e7 2.8010321046848882e7 0.0
2.8010321046848882e7 8.326289528586909e6 0.0
0.0 0.0 0.0

-5.633208239001036e6 2.2037905857821036e7 0.0
2.2037905857821036e7 6.155690119010249e6 0.0
0.0 0.0 0.0

-7.692640635926215e6 -5.053492311914314e6 0.0
-5.053492311914314e6 1.3090157499284124e7 0.0
0.0 0.0 0.0

-157887.07367967768 1.4899516032411754e7 0.0
1.4899516032411754e7 -1.1510749220773933e7 0.0
0.0 0.0 0.0

6.437767743527748e6 1.5621065481558828e7 0.0
1.5621065481558828e7 -451264.01165934466 0.0
0.0 0.0 0.0

-4.519667600071131e7 2.112325849829171e7 0.0
2.112325849829171e7 8.189876328746075e6 0.0
0.0 0.0 0.0

887369.1272247073 1.4347264778289862e7 0.0
1.4347264778289862e7 7.028541464210558e6 0.0
0.0 0.0 0.0

3.413070614092905e6 7.993669154604865e6 0.0
7.993669154604865e6 -2.601362506354265e7 0.0
0.0 0.0 0.0

981782.9643337419 1.2772412863909096e7 0.0
1.2772412863909096e7 -1.3936994096182518e7 0.0
0.0 0.0 0.0

-3.2137155903704274e6 1.627374611378181e7 0.0
1.627374611378181e7 8.2115753253521705e6 0.0
0.0 0.0 0.0

-6.684353903555923e6 2.5137060885758236e7 0.0
2.5137060885758236e7 4.639016663222611e6 0.0
0.0 0.0 0.0

-2.131721996314103e6 1.9434069311162375e7 0.0
1.9434069311162375e7 -2.556580732677909e6 0.0
0.0 0.0 0.0

5.248448848046084e6 3.928487452192123e6 0.0
3.928487452192123e6 -2.305984454753391e7 0.0
0.0 0.0 0.0

252176.1692791097 1.5483014287701221e7 0.0
1.5483014287701221e7 2.2963487146419138e7 0.0
0.0 0.0 0.0

-357520.89824999083 1.221437358880964e7 0.0
1.221437358880964e7 -1.7491643576082583e6 0.0
0.0 0.0 0.0

-3.472245546816992e7 2.412355789121235e7 0.0
2.412355789121235e7 1.2441368488220148e7 0.0
0.0 0.0 0.0

-1.056736719019078e7 -3.530562083108142e6 0.0
-3.530562083108142e6 1.9600657800640233e7 0.0
0.0 0.0 0.0

-9.825529772687202e6 -3.6048183891539876e6 0.0
-3.6048183891539876e6 2.2097058115667515e7 0.0
0.0 0.0 0.0

5.939522636455668e6 1.550264600440779e7 0.0
1.550264600440779e7 2.1414586912204744e6 0.0
0.0 0.0 0.0

-1.0060988037681013e7 -4.1677611404801365e6 0.0
-4.1677611404801365e6 2.8069474522010926e7 0.0
0.0 0.0 0.0

797257.0054393373 1.453207036393976e7 0.0
1.453207036393976e7 6.912560215236216e6 0.0
0.0 0.0 0.0

2.9946211687326273e6 1.5648464675800826e7 0.0
1.5648464675800826e7 1.4614148699399427e7 0.0
0.0 0.0 0.0

-2.5096381124735405e6 2.330822617830758e7 0.0
2.330822617830758e7 651145.2218487288 0.0
0.0 0.0 0.0

-1.0929153086836107e7 3.4105662257356676e6 0.0
3.4105662257356676e6 3.840166799981544e7 0.0
0.0 0.0 0.0

206935.8687142795 1.2357678580384899e7 0.0
1.2357678580384899e7 -2.135246681768228e7 0.0
0.0 0.0 0.0

1.0099140197898331e6 7.059443205323367e6 0.0
7.059443205323367e6 -6.801472984026026e6 0.0
0.0 0.0 0.0

-3.027090232022535e6 1.6008966507309463e7 0.0
1.6008966507309463e7 6.704238237125049e6 0.0
0.0 0.0 0.0

346110.4865241125 1.6138487416706031e7 0.0
1.6138487416706031e7 1.5009823218138155e7 0.0
0.0 0.0 0.0

-1.1014358096898025e7 -2.7550637392364964e6 0.0
-2.7550637392364964e6 2.7054403341650687e7 0.0
0.0 0.0 0.0

-9.059587143496446e6 5.337484757068978e6 0.0
5.337484757068978e6 8.004888285874927e6 0.0
0.0 0.0 0.0

-4.105723549466205e6 1.6515866118120398e7 0.0
1.6515866118120398e7 1.1264338607363028e6 0.0
0.0 0.0 0.0

-2.5809750305886967e6 7.910710548185656e6 0.0
7.910710548185656e6 1.1744022140199782e7 0.0
0.0 0.0 0.0

1.8632640164696039e6 1.4605909712617703e7 0.0
1.4605909712617703e7 -3.165348295628894e6 0.0
0.0 0.0 0.0

-1.0544639318472378e7 -4.0518944389585033e6 0.0
-4.0518944389585033e6 2.1282486072124198e7 0.0
0.0 0.0 0.0

-1.0169496060693586e7 3.434604104237596e6 0.0
3.434604104237596e6 4.119859491435471e7 0.0
0.0 0.0 0.0

1.6068585480311569e6 1.502931212726029e7 0.0
1.502931212726029e7 -2.4306755460547274e6 0.0
0.0 0.0 0.0

-39885.10181990685 1.519689758746206e7 0.0
1.519689758746206e7 -9.765248758676697e6 0.0
0.0 0.0 0.0

-1.0222561252786437e7 3.2962204896240095e6 0.0
3.2962204896240095e6 4.081917360883374e7 0.0
0.0 0.0 0.0

2.5138904538147626e6 1.750790865676752e7 0.0
1.750790865676752e7 -5.037331913075982e6 0.0
0.0 0.0 0.0

77427.99018261861 1.5229227938654346e7 0.0
1.5229227938654346e7 1.0546220411265878e7 0.0
0.0 0.0 0.0

-6.193166335387595e6 8.649911889462173e6 0.0
8.649911889462173e6 6.5691712739248695e6 0.0
0.0 0.0 0.0

-6.59594737680928e6 5.8825923582520485e6 0.0
5.8825923582520485e6 9.168884022851847e6 0.0
0.0 0.0 0.0

-1.0080335498410523e7 3.7671420139701846e6 0.0
3.7671420139701846e6 4.735720279044466e6 0.0
0.0 0.0 0.0

