# vtk DataFile Version 2.0
phase field modeling fracture
ASCII
DATASET UNSTRUCTURED_GRID
POINTS 2538 float
0.0 0.0 0.0
10.0 0.0 0.0
0.0 10.0 0.0
10.0 10.0 0.0
0.0 4.9995 0.0
0.0 5.0005 0.0
5.0 5.0 0.0
0.9416964895726688 0.0 0.0
1.803581725054446 0.0 0.0
2.592419885431098 0.0 0.0
3.314401822861676 0.0 0.0
3.975193910351406 0.0 0.0
4.579982132660152 0.0 0.0
5.133512780936812 0.0 0.0
5.640130319506143 0.0 0.0
6.103810708661955 0.0 0.0
6.528192895506818 0.0 0.0
6.916607540127679 0.0 0.0
7.272102969376355 0.0 0.0
7.597469242948583 0.0 0.0
7.895259826292669 0.0 0.0
8.167811885738017 0.0 0.0
8.417264413845215 0.0 0.0
8.645575169389538 0.0 0.0
8.854535961159101 0.0 0.0
9.045786767735546 0.0 0.0
9.220828555767493 0.0 0.0
9.38103509633881 0.0 0.0
9.527663687265145 0.0 0.0
9.661865124984566 0.0 0.0
9.784692609918062 0.0 0.0
9.897110148790482 0.0 0.0
10.0 0.09999999999992584 0.0
10.0 0.199999999999856 0.0
10.0 0.2999999999997771 0.0
10.0 0.3999999999996677 0.0
10.0 0.4999999999995511 0.0
10.0 0.5999999999994683 0.0
10.0 0.6999999999993983 0.0
10.0 0.7999999999993286 0.0
10.0 0.8999999999992587 0.0
10.0 0.9999999999991888 0.0
10.0 1.099999999999119 0.0
10.0 1.199999999999033 0.0
10.0 1.299999999998852 0.0
10.0 1.399999999998576 0.0
10.0 1.499999999998284 0.0
10.0 1.599999999997992 0.0
10.0 1.6999999999977 0.0
10.0 1.799999999997408 0.0
10.0 1.899999999997116 0.0
10.0 1.999999999996825 0.0
10.0 2.099999999996533 0.0
10.0 2.199999999996241 0.0
10.0 2.299999999995949 0.0
10.0 2.399999999995657 0.0
10.0 2.499999999995365 0.0
10.0 2.599999999995073 0.0
10.0 2.699999999994782 0.0
10.0 2.79999999999449 0.0
10.0 2.899999999994198 0.0
10.0 2.999999999993906 0.0
10.0 3.099999999993614 0.0
10.0 3.199999999993322 0.0
10.0 3.299999999993029 0.0
10.0 3.399999999992738 0.0
10.0 3.499999999992446 0.0
10.0 3.599999999992154 0.0
10.0 3.699999999991863 0.0
10.0 3.799999999991571 0.0
10.0 3.899999999991278 0.0
10.0 3.999999999991022 0.0
10.0 4.099999999991035 0.0
10.0 4.199999999991187 0.0
10.0 4.299999999991338 0.0
10.0 4.399999999991491 0.0
10.0 4.499999999991642 0.0
10.0 4.599999999991795 0.0
10.0 4.699999999991947 0.0
10.0 4.799999999992099 0.0
10.0 4.89999999999225 0.0
10.0 4.999999999992403 0.0
10.0 5.099999999992555 0.0
10.0 5.199999999992706 0.0
10.0 5.299999999992858 0.0
10.0 5.39999999999301 0.0
10.0 5.499999999993161 0.0
10.0 5.599999999993313 0.0
10.0 5.699999999993466 0.0
10.0 5.799999999993618 0.0
10.0 5.899999999993771 0.0
10.0 5.999999999993922 0.0
10.0 6.099999999994074 0.0
10.0 6.199999999994227 0.0
10.0 6.299999999994378 0.0
10.0 6.39999999999453 0.0
10.0 6.499999999994682 0.0
10.0 6.599999999994833 0.0
10.0 6.699999999994986 0.0
10.0 6.799999999995138 0.0
10.0 6.899999999995289 0.0
10.0 6.999999999995442 0.0
10.0 7.099999999995594 0.0
10.0 7.199999999995747 0.0
10.0 7.299999999995897 0.0
10.0 7.39999999999605 0.0
10.0 7.499999999996202 0.0
10.0 7.599999999996353 0.0
10.0 7.699999999996505 0.0
10.0 7.799999999996658 0.0
10.0 7.899999999996808 0.0
10.0 7.999999999996962 0.0
10.0 8.099999999997113 0.0
10.0 8.199999999997265 0.0
10.0 8.299999999997418 0.0
10.0 8.399999999997569 0.0
10.0 8.499999999997721 0.0
10.0 8.599999999997873 0.0
10.0 8.699999999998024 0.0
10.0 8.799999999998176 0.0
10.0 8.899999999998329 0.0
10.0 8.99999999999848 0.0
10.0 9.099999999998634 0.0
10.0 9.199999999998786 0.0
10.0 9.299999999998937 0.0
10.0 9.399999999999089 0.0
10.0 9.499999999999241 0.0
10.0 9.599999999999392 0.0
10.0 9.699999999999545 0.0
10.0 9.799999999999697 0.0
10.0 9.899999999999848 0.0
9.897110148790565 10.0 0.0
9.784692609918244 10.0 0.0
9.66186512498486 10.0 0.0
9.527663687265571 10.0 0.0
9.381035096339392 10.0 0.0
9.220828555768257 10.0 0.0
9.045786767736512 10.0 0.0
8.854535961160305 10.0 0.0
8.645575169391027 10.0 0.0
8.417264413847017 10.0 0.0
8.167811885740178 10.0 0.0
7.895259826295246 10.0 0.0
7.597469242951631 10.0 0.0
7.272102969379938 10.0 0.0
6.916607540131873 10.0 0.0
6.528192895511704 10.0 0.0
6.103810708667616 10.0 0.0
5.640130319512691 10.0 0.0
5.13351278094435 10.0 0.0
4.579982132668816 10.0 0.0
3.975193910361222 10.0 0.0
3.314401822869852 10.0 0.0
2.592419885437257 10.0 0.0
1.803581725058137 10.0 0.0
0.9416964895740705 10.0 0.0
0.0 9.00010000000243 0.0
0.0 8.000200000005481 0.0
0.0 7.000300000005135 0.0
0.0 6.000400000002569 0.0
0.901790731451151 5.000409820926855 0.0
1.657200899774397 5.000334279910023 0.0
2.289991063707192 5.000271000893629 0.0
2.820065163538221 5.000217993483646 0.0
3.264096435579811 5.000173590356442 0.0
3.636051481595835 5.00013639485184 0.0
3.947629914072366 5.000105237008593 0.0
4.208632181002628 5.0000791367819 0.0
4.427267949625672 5.000057273205037 0.0
4.610414277633563 5.000038958572237 0.0
4.763831845154243 5.000023616815485 0.0
4.892346298799659 5.00001076537012 0.0
4.892346298799748 4.99998923462988 0.0
4.763831845154455 4.999976383184515 0.0
4.610414277633943 4.999961041427763 0.0
4.427267949626277 4.999942726794963 0.0
4.208632181003523 4.9999208632181 0.0
3.94762991407365 4.999894762991407 0.0
3.636051481597624 4.99986360514816 0.0
3.264096435582253 4.999826409643559 0.0
2.820065163541503 4.999782006516354 0.0
2.289991063711534 4.999728999106371 0.0
1.657200899778495 4.999665720089978 0.0
0.9017907314530094 4.999590179073145 0.0
0.0 3.999600000002013 0.0
0.0 2.999700000005187 0.0
0.0 1.99980000000512 0.0
0.0 0.9999000000025537 0.0
9.897889398521345 2.93573355845387 0.0
9.906568249974548 7.060009441434234 0.0
9.913122631074113 3.64016132281653 0.0
9.922462129543863 6.354535290629151 0.0
9.917693659967533 4.354211663134567 0.0
9.909873057440208 5.637584487339942 0.0
9.914183254994697 4.950672966925282 0.0
9.913885043715895 7.666887930262611 0.0
9.91009668007573 2.351889069770817 0.0
9.905135696074536 8.138152454502785 0.0
9.913397459621809 1.849999999997262 0.0
7.099302372137626 0.297750452375005 0.0
7.095143729410097 9.700359990366296 0.0
4.942912558701401 5.095838627899509 0.0
4.315009232304429 5.165022115481685 0.0
4.946182472483878 4.906763777264103 0.0
4.317967462990024 4.825955043772673 0.0
9.916390871492647 8.64999999999792 0.0
9.921504649680616 1.368376469890358 0.0
8.292538149791614 0.206877570318844 0.0
8.292538149793597 9.793122429681448 0.0
5.884594439766573 9.587645267048616 0.0
5.794826292691579 0.3794853783929359 0.0
9.913397459621425 9.049999999998557 0.0
9.908526577714177 0.9568239351922434 0.0
3.456851160380649 5.315740054130451 0.0
3.457889657868442 4.707121019609468 0.0
8.945214200703926 0.1503383337970344 0.0
8.950161364448409 9.8413906539257 0.0
9.913862335499305 4.055887885208452 0.0
9.916697353372683 4.650158482607802 0.0
9.919076340414442 6.049999999994006 0.0
9.906994308667635 5.25749687748192 0.0
9.917490342358025 6.655979201891897 0.0
9.915757520293784 7.343848891656911 0.0
9.910049507471042 3.363474386285078 0.0
9.914471988502868 2.647400064832979 0.0
9.91474124160965 9.337490423485129 0.0
9.916971008170838 0.6499999999994355 0.0
4.307157269264427 9.509674045029644 0.0
4.331527375865619 0.4401616696422582 0.0
9.45434939180249 9.878397030523757 0.0
9.457696120412969 0.1270877537061785 0.0
2.555070293622606 5.422044496190925 0.0
2.566232917480916 4.608001224030952 0.0
3.026511860837692 9.332320638257093 0.0
2.945561971800619 0.5895662714727601 0.0
7.7395404387124 0.2511088946967771 0.0
7.736379255744154 9.745848826372828 0.0
4.687135269408529 5.122111433928926 0.0
4.688420821504113 4.871895064967488 0.0
9.910554884115975 0.3448356354522978 0.0
9.911230082250466 9.65764729394159 0.0
9.921953841410854 6.851023993342036 0.0
9.912065178606017 5.448170483544033 0.0
9.911660025326261 3.861846960030188 0.0
9.914847467973438 3.14501593945607 0.0
9.913397459621425 5.849999999993703 0.0
9.913397459621425 7.849999999996735 0.0
9.906916878988277 2.15455769998631 0.0
9.913397459621425 8.349999999997479 0.0
9.909472363117661 1.640528221515488 0.0
9.913987325695956 1.152857110636247 0.0
9.913397459621425 8.849999999998241 0.0
0.9100099990995943 2.614215977520411 0.0
0.8395284981715456 7.451196254860987 0.0
9.723278867451556 9.898135916635193 0.0
9.723316350887044 0.09841820909386662 0.0
1.385819164827588 4.454539963646463 0.0
1.338343629665047 5.523111536005823 0.0
1.377179700550677 0.6809168304959698 0.0
1.418060461092743 9.285896715136046 0.0
9.91268220142518 0.1457914080939694 0.0
9.906737126737994 9.845745933882352 0.0
0.7108351382691361 6.537941170074089 0.0
1.527735020267026 6.915620208855231 0.0
1.630993885659103 7.838271825205868 0.0
2.232760943566823 7.370850737296832 0.0
2.243414218068206 6.688299277952821 0.0
2.779655053105118 7.021588754814074 0.0
2.80227799359795 7.632420170547022 0.0
3.282022065908813 7.305859666021318 0.0
3.327597298795347 7.857554136825748 0.0
3.743210251018715 7.549183328204379 0.0
3.716353232200752 7.062036086888612 0.0
4.111978858674101 7.27497101169417 0.0
4.104192177581432 6.879858986267289 0.0
4.436230765617037 7.045693351607117 0.0
4.430360014817357 6.703971783962796 0.0
4.732390145036301 6.849841042423394 0.0
5.056161327708878 5.095276573498806 0.0
5.111586796021131 4.999081142133581 0.0
5.169267363407189 5.09444870412406 0.0
5.223795108752053 4.996986220359468 0.0
5.281480803887719 5.092780870372803 0.0
5.335670761900611 4.994887492556936 0.0
5.393485214772442 5.090486192743301 0.0
5.447323082877892 4.992601527033996 0.0
5.505243219343024 5.087953380710069 0.0
5.558739102026105 4.990287787962959 0.0
5.616491581184779 5.085335255235766 0.0
5.669852346908056 4.9879269227514 0.0
5.727502713908907 5.082679981817038 0.0
5.780766004135139 4.988313988715834 0.0
5.838244881129535 5.080480568766611 0.0
5.891357695677371 4.986433849408193 0.0
5.948696036767613 5.077969900389505 0.0
6.001601341641615 4.981313698556656 0.0
6.058851024265095 5.074871552128682 0.0
6.111614020704875 4.978360695880202 0.0
6.168801161530775 5.072044953270978 0.0
6.221368818778567 4.975825765213497 0.0
6.278268309066882 5.066182320461055 0.0
6.330814273567539 4.972837984645718 0.0
6.387565032421376 5.062889771971895 0.0
6.437476667631405 4.971693683589553 0.0
6.496181111585419 5.060210690175857 0.0
6.539454812256072 4.964658165361536 0.0
6.604198202576491 5.056387520850258 0.0
6.648506025747331 4.939374587506267 0.0
6.714026758992516 5.05873885840664 0.0
6.764418045981209 4.959246676066148 0.0
6.8219334571197 5.055299567406268 0.0
6.873708540948134 4.960426349093742 0.0
6.930181428849307 5.053461390218819 0.0
6.981893615341967 4.96435459462232 0.0
7.037791764774784 5.051219747103022 0.0
7.090993561518408 4.96392420322464 0.0
5.504417457283294 4.900897920552702 0.0
7.145434864123609 5.048960634292441 0.0
6.054532384032612 4.883956083938546 0.0
6.738027949040956 4.850032323068674 0.0
7.198432914526514 4.956325226333323 0.0
7.252637187936749 5.046012229327236 0.0
7.30926729605109 4.948903216650376 0.0
7.248106275544042 4.860306312845646 0.0
7.363100274863074 4.849952416808486 0.0
7.365733472701664 5.039519554615095 0.0
7.308483293090149 5.137557220352172 0.0
6.768399513646964 5.145609705119954 0.0
7.422800035311104 5.132251445551834 0.0
7.358273518796229 5.235980394389298 0.0
7.480824155801127 5.227946127939927 0.0
7.302193400058628 4.761917474298247 0.0
7.413570879789824 4.754555110721153 0.0
7.414392998903179 5.334729114426734 0.0
7.352769630272076 4.660405502266205 0.0
7.467556835255426 4.658352623795039 0.0
7.536246869015014 5.328986926716081 0.0
7.478865844607288 5.432598185493195 0.0
7.406396991826072 4.556956233957538 0.0
7.523581002009154 4.552005631348623 0.0
7.597792398573263 5.429506106314967 0.0
7.540511043402902 5.53619421580439 0.0
7.46214474876342 4.452580994318881 0.0
7.5852185078634 4.446021810672608 0.0
7.663329342323453 5.533453399066901 0.0
7.603478967594521 5.643227430483237 0.0
7.513450346818673 4.347641323140766 0.0
7.640744971722214 4.333388343316237 0.0
7.727671715775243 5.642390483050116 0.0
7.667774597993788 5.753188858425915 0.0
7.570065256728661 4.230515669344811 0.0
7.702881065467917 4.218307808529532 0.0
7.638288257073729 4.107994211855027 0.0
7.493362356301017 4.120843902105771 0.0
7.779018500630071 5.521233457321821 0.0
7.794641287388929 5.752364621610818 0.0
7.73369774483611 5.865894287356292 0.0
7.600834531784728 5.867752110500446 0.0
6.233038857278689 5.15645045634683 0.0
7.669727996028819 5.985665563643058 0.0
7.528582452554481 5.987393423295551 0.0
7.598722674572824 6.11001923494443 0.0
7.778305000222867 4.104318908265786 0.0
7.704329019832056 3.987744174608892 0.0
7.838453459801382 4.213322728668484 0.0
7.864495721576461 5.862306066517277 0.0
7.846552353360407 3.98481756181946 0.0
7.769730409703277 3.86544808681145 0.0
5.785249360396857 5.177248808588045 0.0
7.908837087876153 3.861484036275285 0.0
7.834824606222196 3.740586825753288 0.0
7.97685993406276 3.736209527152902 0.0
7.89665098770825 3.615501862931453 0.0
7.753228010315262 3.617800245018972 0.0
7.826063013090472 3.483173292579822 0.0
7.66789744383048 3.48859328808356 0.0
8.042515855796823 3.595394268381807 0.0
7.75200750488492 3.341279823834038 0.0
7.582870318332553 3.346584916806707 0.0
8.120807847415062 3.732493963388337 0.0
8.189783970303546 3.61159165475499 0.0
7.657801000286734 3.200439907646711 0.0
7.486781956172036 3.201402473247712 0.0
7.452595103886905 6.11418616185016 0.0
7.527098033550077 6.243191052852112 0.0
8.260502906807751 3.728437634721859 0.0
8.327629317451398 3.608173631356984 0.0
7.372763970891452 6.247552889754036 0.0
7.456170570815929 6.384992468962936 0.0
7.621837793616884 6.376077080857113 0.0
7.548039512904141 6.520750676893614 0.0
7.717475944451644 6.514856553988943 0.0
7.636658166268699 6.661648164052906 0.0
7.807468267259438 6.664076174524672 0.0
7.718022764310774 6.817938967122142 0.0
7.887785766941087 6.807440365887151 0.0
7.545993589083432 6.815070675854734 0.0
7.809874785067209 6.967537287475282 0.0
7.975643812145337 6.948729406725126 0.0
8.396477808021062 3.725446935061211 0.0
7.565651643157136 3.044354774611752 0.0
7.384328725505071 3.043048915147076 0.0
8.056405351948353 6.802790889114673 0.0
8.14128318237188 6.940027831915737 0.0
8.064621760266059 7.086348792208953 0.0
8.225003598857908 6.805225152373254 0.0
8.463085452993242 3.606998510553562 0.0
8.230426869720718 7.079551841000411 0.0
8.155262284174286 7.224761758176069 0.0
8.530696760758996 3.721683301125054 0.0
8.596669886994064 3.604516769862316 0.0
8.528531058025589 3.490411531312337 0.0
8.320451770844851 7.218191678954744 0.0
8.245273958732774 7.363444652121271 0.0
8.66324687389452 3.717094013035765 0.0
8.600103125209296 3.831913857228569 0.0
8.662131102573216 3.488322280861316 0.0
8.594166125380536 3.374071873435548 0.0
8.411074336066186 7.353871649576861 0.0
8.339644223432472 7.505172120620427 0.0
8.165883718619623 7.513159193685373 0.0
8.483453820080417 7.2082285366806 0.0
8.261200365730348 7.657400951288149 0.0
8.081570576666843 7.670933304838066 0.0
7.471613195794025 2.872548423100142 0.0
7.268733678357991 2.881209199257603 0.0
7.184255506995786 3.084448584600423 0.0
7.065899603697895 2.883902449336828 0.0
6.960163891183182 3.081014635802978 0.0
6.847612128388715 2.885646860602812 0.0
6.739800729737967 3.078895733381448 0.0
8.729373804596847 3.827689165637365 0.0
8.668550856907444 3.938702277545298 0.0
8.72770789162863 3.371798381178293 0.0
8.659764090070603 3.257493349874974 0.0
8.436453928793245 7.648724489148887 0.0
6.619080287792762 2.90880017416788 0.0
6.511740956842646 3.09340654756684 0.0
8.793527829963288 3.935174834810256 0.0
8.736430500996828 4.042719556852617 0.0
7.631260330584174 4.565300771328012 0.0
8.359058396840432 7.801678182761817 0.0
5.339436215072359 5.184870243702279 0.0
4.994031736761993 5.193306795607908 0.0
6.383387675268097 4.87760645722207 0.0
7.29117392392962 6.382172868329505 0.0
6.378196825372041 2.907113079755629 0.0
6.269817199014261 3.12412150658573 0.0
8.793149127377946 3.255386294257182 0.0
8.725774239201558 3.141596687892195 0.0
8.857434600673502 4.041295940541356 0.0
8.802868937128341 4.1471119953668 0.0
8.532045262478793 7.7905977476835 0.0
7.364542641624493 2.699128473342751 0.0
7.571677611088925 2.695732556686516 0.0
6.723058333614999 2.672341359410618 0.0
8.456744924757372 7.94483904450548 0.0
6.140831279784704 2.921247401137864 0.0
6.02419219050745 3.14358702955763 0.0
8.916255604212301 3.934279868822481 0.0
8.859287250884009 3.140226640574265 0.0
8.791092798057303 3.025929352146465 0.0
7.210445465986021 6.245773134960393 0.0
7.120884161792869 6.385155584680196 0.0
7.036931702064287 6.240721609143972 0.0
6.943722280007011 6.3869279517155 0.0
8.920094519678617 4.144837222494242 0.0
8.864374107136287 4.250930406527029 0.0
7.347569838739255 4.463467417508182 0.0
5.90383431757064 2.935113219563906 0.0
5.783476009580765 3.156456199832474 0.0
8.626013191558314 7.935092223505354 0.0
8.687240186957197 7.796697889991163 0.0
5.642059327424706 2.903018174330269 0.0
5.52647853955939 3.162549070310043 0.0
8.555300051897738 8.086169516016518 0.0
8.405624441178524 8.083972416481254 0.0
5.374124307190728 2.945480555950917 0.0
8.935805220807357 3.249260758206028 0.0
8.981625171409894 4.247375537584228 0.0
8.924725364486765 4.352101286657735 0.0
8.807208588134106 4.356163101450244 0.0
8.868277832430604 4.45657124153171 0.0
8.75099635287701 4.460644845248524 0.0
8.812385950597063 4.560891222623518 0.0
8.693833206943118 4.564602972998703 0.0
8.756474732548273 4.665720853686476 0.0
8.63721608225855 4.669394550615355 0.0
8.700108119351134 4.770682016274914 0.0
8.81920502916846 4.767536120893284 0.0
8.76355311338807 4.871451945248518 0.0
8.881442328033694 4.868382238751069 0.0
8.826433523510634 4.97132552240372 0.0
8.943387824985514 4.967694248194483 0.0
8.888718468126953 5.071044784833541 0.0
8.580377663835254 4.774669738817985 0.0
8.770572242937233 5.073880380431421 0.0
8.832915096600454 5.174518948293615 0.0
8.952224483821848 5.170970838320107 0.0
8.897282771771884 5.275476392171722 0.0
7.463928467290875 2.513944501591933 0.0
7.675935950092034 2.509420347143072 0.0
8.924252417741767 3.024418701372628 0.0
8.857265893102921 2.911213535286156 0.0
8.776981063213334 5.27944309004916 0.0
8.840710910770163 5.380165700477552 0.0
8.960876896785969 5.375521424256389 0.0
8.904555918255223 5.482125846038813 0.0
7.567193097677677 2.32750151280277 0.0
7.780880844888839 2.323064027160363 0.0
6.851602118390116 6.234522818184622 0.0
6.758680682687229 6.389359516748128 0.0
6.66345977321418 6.231254850996584 0.0
8.715764716958308 8.079994249772627 0.0
8.65189989696114 8.227534663647639 0.0
9.042229096541828 4.348551764001607 0.0
6.436774206993324 3.316782326998922 0.0
7.590527613340588 5.22651784724799 0.0
9.024366884701616 5.476726561488805 0.0
8.968734351641839 5.583879050892151 0.0
8.845941080047659 5.586406316932274 0.0
8.909881305857882 5.690482454668167 0.0
7.348726871578975 5.44047403999932 0.0
6.567070253986433 6.398115757512583 0.0
6.697077150072261 6.553426749743366 0.0
5.252377383990728 3.187782967482479 0.0
8.988440431820699 2.908621158637298 0.0
8.922541972760119 2.796420836075996 0.0
6.466806010659505 6.229115583261771 0.0
9.033851153821296 5.686506775615425 0.0
8.978340519963718 5.795772485582058 0.0
8.85111463793018 5.798672910287243 0.0
8.922171984280597 5.907237880910408 0.0
8.795190680908043 5.911854068712683 0.0
8.864373398892472 6.019728357749566 0.0
8.991346995940626 6.014539153309398 0.0
8.93374019140187 6.12698887312768 0.0
5.095192648098848 2.952353430985476 0.0
7.672651464908932 2.141715359830917 0.0
7.886266921042761 2.136211284120189 0.0
9.098474286589756 4.245971410451114 0.0
8.813172564986438 8.216887361735234 0.0
8.74802978243154 8.366104673219047 0.0
9.059985162956899 6.120982589539211 0.0
9.00342813739303 6.233245043891739 0.0
4.961413514304496 3.214209167276753 0.0
9.05248113004685 2.794651022570942 0.0
8.986028039118027 2.681341972594222 0.0
5.671890458441996 3.377122473800023 0.0
4.755829262593116 7.184480462344647 0.0
9.158258644940048 4.34465968221255 0.0
4.799687186662534 2.961354824469195 0.0
6.030554747591715 2.726787502996874 0.0
8.938327180212585 8.34758372042188 0.0
8.847392320655468 8.503370672816716 0.0
8.67342124373679 8.518117686968314 0.0
5.234423106934083 2.694925204361751 0.0
8.964923046453565 8.185313058214797 0.0
7.456650986668838 2.134076476407834 0.0
9.111732084821366 2.897226832609386 0.0
6.368055837513985 6.402805870976705 0.0
6.265629899005033 6.226581076317183 0.0
8.736327196352686 6.026404178766982 0.0
9.117473097358854 2.67987006607594 0.0
9.052137415465204 2.565428515518978 0.0
7.781001557847192 1.955874236406257 0.0
7.992134447300669 1.949184538864554 0.0
8.593074792993455 3.143159483125708 0.0
9.1291360203536 6.226877897052981 0.0
9.072154326613617 6.338696745620542 0.0
8.916532550320525 2.566986282201109 0.0
8.984021113721658 2.449252898983242 0.0
9.178032243215632 6.120533546076094 0.0
9.213703592343162 4.244823670856978 0.0
9.11972142641474 2.449071238668887 0.0
9.052853896812186 2.33190758581705 0.0
8.635035926402708 4.462329956179506 0.0
8.773614475966344 8.657865377672689 0.0
8.596400917257634 8.67759750279447 0.0
8.942023339420883 8.644678093589654 0.0
9.19471670675691 6.33096438039349 0.0
9.138460613363325 6.443043552768813 0.0
8.66620319432524 5.916297234509582 0.0
8.606669825267202 6.032658196729024 0.0
9.27222540210304 4.341341907533128 0.0
9.013782808177437 6.451040569407859 0.0
9.08360982569773 6.55729980456602 0.0
7.885622149776354 1.768093045890686 0.0
8.095672144455353 1.768790621151345 0.0
9.208772072925791 6.549717411809656 0.0
9.154272208194383 6.662613503537815 0.0
9.187669783927937 2.334640996932141 0.0
9.122379015831417 2.215832190697178 0.0
6.164077036161143 6.404611236428829 0.0
6.062367614988677 6.224307160647549 0.0
8.987075041759633 2.211477580983978 0.0
9.056972755801603 2.093573581203428 0.0
9.194557288902232 2.096029761809264 0.0
9.131223008370409 1.972713028695079 0.0
8.87381302587057 8.795793668920256 0.0
9.039169086943392 8.781606667490083 0.0
4.662813350519927 3.228118291851354 0.0
4.474181267994617 2.945703616023359 0.0
6.562627723301209 6.075544382232434 0.0
9.326886053211574 4.243083624343211 0.0
9.280374192897945 6.656072830232892 0.0
9.224718905178564 6.766740750539347 0.0
4.703284910421452 6.528907865005451 0.0
8.955136474970331 6.565989985649191 0.0
8.998148826814893 4.865480736169776 0.0
8.99429836796776 1.965972383552685 0.0
9.065669391141741 1.847195105148808 0.0
9.207236162050343 1.853010386995843 0.0
9.143218073349985 1.725630086781897 0.0
8.998867447699345 1.719378449325465 0.0
9.082595782768397 1.592017827427701 0.0
8.92804562738841 1.585238202229766 0.0
9.01637794607019 1.453847302675876 0.0
8.854253119154375 1.446306868730686 0.0
8.941620273019874 1.320083886766936 0.0
8.775393064215876 1.308487027359826 0.0
9.102170347200483 1.324733726345249 0.0
9.013857060361985 1.178821526410403 0.0
7.991031819452564 1.587689878441685 0.0
7.767218744640202 1.595993197647291 0.0
9.191539171305216 1.194087248761656 0.0
9.123965901037613 1.057102462689568 0.0
4.853921953226772 3.470213116851758 0.0
7.496563223334782 3.470157221608763 0.0
8.536691379028115 5.921845852206257 0.0
8.475496498707471 6.037633662010236 0.0
7.978668526342969 2.307231488316941 0.0
9.384721922092124 4.337357165846226 0.0
9.331039180200886 4.435926256444196 0.0
8.546261775564837 6.150267290476958 0.0
8.411727261785726 6.155319300628062 0.0
8.972203609044218 8.930944433074036 0.0
9.133480321468399 8.90955269607895 0.0
9.197778815538276 8.768743880012563 0.0
6.162231825784922 6.05277753404107 0.0
5.962111081146334 6.046949845237622 0.0
9.268727788642101 4.146883230687689 0.0
9.380694211527906 4.144811697563401 0.0
9.323823335199954 4.049557759546529 0.0
9.283324894520613 1.736313094621396 0.0
5.858151623803662 6.22041808248046 0.0
5.759668475561988 6.038806123495502 0.0
7.836860473863919 3.191674397465999 0.0
9.348591928839294 6.75855034547469 0.0
9.293979592221298 6.870213350675044 0.0
9.170543172728557 6.879819332293818 0.0
9.240028263813034 6.983394994050525 0.0
4.347372565145963 3.312731475520695 0.0
4.114183445909965 2.96879678229065 0.0
8.616264880152233 4.042035981070631 0.0
9.403174760076901 6.650407069150438 0.0
4.173860112179449 7.723461240865885 0.0
9.365302975518428 6.973476802087294 0.0
9.312420275675276 7.088420778208979 0.0
9.184876614539778 7.0978133687822 0.0
9.25921281729617 7.204979813006656 0.0
9.12816413817609 7.21569648263899 0.0
9.203944409919862 7.322703303071253 0.0
9.334311975087337 7.311477957762272 0.0
9.280415785210538 7.428795599957155 0.0
9.274060219641907 1.066603180421249 0.0
9.211820491509728 0.9316562593680151 0.0
9.050684011148748 0.9017681241401576 0.0
9.441953732403995 4.432092590771756 0.0
9.394725873909666 4.526051349391942 0.0
9.43453556160865 4.048003950509361 0.0
9.378043599351757 3.952631412328806 0.0
9.289691247910705 8.890746792319852 0.0
9.228148443138926 9.030109127390128 0.0
4.440757888677695 6.389562448928118 0.0
4.689874463978985 6.239329075084555 0.0
4.291519540095677 2.622920583112654 0.0
3.886073352912894 2.632778677714434 0.0
9.344015622314338 1.202401041544343 0.0
8.193292196814806 3.849649660906171 0.0
6.960946604527747 6.07044529864598 0.0
9.347708267319902 8.756364147482309 0.0
6.826423138602714 3.261415861395883 0.0
6.06309517882478 5.884563187328262 0.0
9.4085057714426 7.414123963607981 0.0
9.356416821537886 7.532359471354527 0.0
5.042074134251055 6.938947182785697 0.0
5.063988238156824 7.311205832605263 0.0
3.946666851334923 3.30681624613374 0.0
8.189857914071878 1.939951128540477 0.0
7.880690277686857 1.38928908049477 0.0
7.63766396748483 1.399736360041063 0.0
9.345004233592562 1.857695941115052 0.0
9.440465164139875 7.085860901905448 0.0
7.918332480761888 5.744468010879592 0.0
9.08007135068879 5.372457017512481 0.0
8.78639561093144 3.718391405525285 0.0
9.356843485085705 0.9414458825132457 0.0
9.29705128845331 0.8103081541678832 0.0
9.251825423225316 2.451701826351773 0.0
8.483895366325516 6.270717564685176 0.0
8.346386886249478 6.275973306650227 0.0
9.493299170161215 4.138582531223591 0.0
5.321115649032961 7.117073603021904 0.0
5.354076009109965 7.436189411362466 0.0
5.597984079819928 7.254284331170681 0.0
5.644042313435943 7.564172740776336 0.0
5.383963016128051 7.753854027984002 0.0
5.681168258142109 7.880444993178456 0.0
5.935548099874979 7.687258900444162 0.0
5.979508404301389 7.994332725561488 0.0
6.21936843555201 7.802335560754011 0.0
6.267092590637372 8.104873033518185 0.0
6.498845418385807 7.917606504106031 0.0
6.544600005636809 8.209910620392591 0.0
6.77336078689533 8.027284686082275 0.0
6.814840179123049 8.311778392637773 0.0
6.721304148677048 7.737863326704131 0.0
7.031320924898797 8.1335673274533 0.0
7.077388928622946 8.403901803728003 0.0
5.417471987089176 8.090112295667405 0.0
8.845427688507666 2.446352368201366 0.0
9.318512319918124 2.339233739859646 0.0
9.380241452597096 2.451895615249572 0.0
7.283805558009199 8.237518806365102 0.0
7.329200330160381 8.497045124353782 0.0
7.233272584416691 7.991590926766813 0.0
9.142592248414191 5.471315142785471 0.0
9.196303265878848 5.36738298742727 0.0
9.25795832955665 5.465260877691205 0.0
9.310581303233182 5.36341558704714 0.0
9.371094700882272 5.459458038195667 0.0
9.422767107822985 5.360687090455724 0.0
9.36402660964156 5.264821436196721 0.0
9.474220736978928 5.262802348886269 0.0
9.41680330511366 5.169477108906666 0.0
5.168675939028436 4.895496152382537 0.0
9.482591449057548 5.454699312257291 0.0
9.431567605310825 5.552723344040521 0.0
7.531449703396948 4.741663470323411 0.0
8.517293123442691 4.672601123164268 0.0
8.459978676626639 4.778466809901586 0.0
8.396595115309985 4.67568709170855 0.0
8.338966609235166 4.782101664607259 0.0
8.275355646032752 4.678829956447008 0.0
8.217675280223542 4.785699596769931 0.0
8.28149024865807 4.888803783902183 0.0
8.16019781596952 4.892696417098926 0.0
8.22433278506531 4.995725219088695 0.0
8.102825704443651 4.999629142625341 0.0
8.166887930010795 5.098242831115916 0.0
8.034904900788316 4.896825406879729 0.0
8.15353539905931 4.682103688185489 0.0
8.211891449058882 4.574219757233394 0.0
8.290305306104333 5.094007100958221 0.0
8.225684228618732 5.201525567655179 0.0
9.444618942559746 2.343141375196729 0.0
6.929446520625337 4.868116916840016 0.0
5.737810725167649 4.893891407574175 0.0
8.720389971487277 5.38508368411851 0.0
8.805734920311323 8.951818172412821 0.0
8.905272694453211 9.083303226359831 0.0
6.006155038818204 5.171375272745409 0.0
6.431496448228514 5.152985998213245 0.0
9.052675024457304 7.106590131831544 0.0
7.740007013494393 6.09727525827826 0.0
9.375852260355511 9.013078430361404 0.0
9.32035844773103 9.14584923943073 0.0
6.989707597683965 5.146377438798643 0.0
9.488190206836386 3.951168069367155 0.0
9.432429152094464 3.855725756072153 0.0
5.568386402814275 5.185723849666124 0.0
9.525561551078322 5.166162126187324 0.0
9.465026391994275 5.072601962964018 0.0
9.320357339516937 3.857795423728873 0.0
9.375955927831914 3.759314274140895 0.0
9.261783786753899 3.761412578759438 0.0
9.31820665563318 3.661845422072752 0.0
9.431798673168924 3.660830894813109 0.0
9.374584413615914 3.563138564686839 0.0
9.48759661134647 3.562294297118573 0.0
9.431339678707085 3.464016717943268 0.0
9.417896212887529 1.746970678437863 0.0
8.731705369070733 9.110902182838881 0.0
5.652297951447118 6.21188565774667 0.0
5.569122518069258 6.024400786163834 0.0
8.257007204149394 3.505875091031567 0.0
8.717428603143034 2.925525757227976 0.0
6.882852832747376 8.57686572931064 0.0
6.337330066435714 8.416819098143066 0.0
9.50188906539997 4.521022403818629 0.0
9.453500859905136 4.617181635748691 0.0
9.46806769570129 6.749352117850711 0.0
8.836822104875719 1.72282859852854 0.0
7.481071063421426 5.64593758994851 0.0
5.668814988976305 5.86611128457842 0.0
5.487644760735084 5.847591822776978 0.0
8.993992818065195 7.228173913870249 0.0
7.98322414937693 7.229980191466666 0.0
9.22810751684646 7.54864871395298 0.0
9.304103360459063 7.654622011545798 0.0
9.432787371848761 7.633691049023619 0.0
9.382619818023882 7.759136995934441 0.0
7.239096822516492 4.679179578301165 0.0
9.47692479956498 1.861231395362419 0.0
8.041243110813022 5.095895152648969 0.0
6.190208781188077 7.509864122823853 0.0
9.283062812782122 4.549418667685757 0.0
9.503847665760087 2.450295046295932 0.0
9.443345385250678 2.557904120404248 0.0
9.52009568463353 6.644015937008899 0.0
9.203119005973903 3.662458522935253 0.0
8.406198651282708 5.92630414760378 0.0
8.467263597743843 5.811987729136874 0.0
9.461423029059445 9.128120577356565 0.0
9.408445330070542 9.26024300250086 0.0
9.266505293379728 9.277952925446408 0.0
4.14874709022218 3.631681332690154 0.0
9.437448107949258 0.8198473430736303 0.0
9.376993771693973 0.6910550697058979 0.0
9.22882356848217 0.6931820370818127 0.0
4.451823867195988 6.103664366188579 0.0
4.200031743909027 6.232039028149317 0.0
4.687154754667774 5.975132870483986 0.0
6.268889397098538 6.592235545990395 0.0
7.509366161722768 8.340075462391164 0.0
7.564775703413765 8.59800936579159 0.0
9.542148732924264 3.854614593058991 0.0
7.036231103929761 6.550562550831048 0.0
4.089373665437328 2.268193930262139 0.0
3.642558884866483 2.250386188148396 0.0
3.442182385618804 2.651948803899947 0.0
3.146832503011753 2.222630466765926 0.0
2.948870467975985 2.805088883766417 0.0
9.352005315330274 5.067356449300542 0.0
9.31729677031493 3.462944187594675 0.0
9.37428383619102 3.365546369736205 0.0
9.4883538239391 3.365384871181599 0.0
9.432147665178338 3.267287636377487 0.0
9.25034519267688 7.775848812012313 0.0
9.332091350002502 7.881724023243533 0.0
9.462101000264603 7.86490055671988 0.0
9.413353271651825 7.98561007219363 0.0
8.273592814723814 6.158623919352561 0.0
8.207135014732339 6.280394934566054 0.0
9.541483811580331 5.548224291759592 0.0
9.491365919893726 5.644847811894615 0.0
8.088095771120983 4.577581369371366 0.0
8.14760102783746 4.468303741922308 0.0
9.556217963323956 4.414867468889523 0.0
9.543667331547693 3.266908751519594 0.0
9.489307652535885 3.169908976697059 0.0
9.26285575842982 8.635341362685686 0.0
9.403220742003983 8.621447866627538 0.0
9.326013417886902 8.506778946171965 0.0
9.455477927154853 8.503896705359047 0.0
9.566646674069602 4.611465258087684 0.0
9.499341049870914 0.9352184973273918 0.0
8.683891958597638 1.444705608998412 0.0
8.599973456173778 1.287265568270043 0.0
7.760988189317371 1.175381292562583 0.0
7.50927661322749 1.171223823957793 0.0
7.380927152434357 1.411062577009695 0.0
7.242417847270241 1.170759311509981 0.0
7.107236746116019 1.421234419770886 0.0
6.960799033544566 1.169618322344823 0.0
6.817786081200392 1.434174581170586 0.0
9.48095050141868 8.738557748483624 0.0
9.319762046171894 3.263060331456388 0.0
8.920653400180534 7.117307656029475 0.0
9.452431221190624 6.544166520883111 0.0
9.571407933653493 6.540336592280795 0.0
9.507586285214174 6.443281357841339 0.0
9.575252974749443 5.070210512157044 0.0
5.755172844377253 6.370710487467459 0.0
9.541351959064952 7.969072511059531 0.0
9.354607289792183 9.3921968735401 0.0
9.495213435762107 9.37218405175897 0.0
3.77688136092967 3.643094492921176 0.0
5.460967180339239 6.159077196937325 0.0
8.656589552918996 5.283032675040985 0.0
8.599307076390474 5.387421722684671 0.0
9.584017606465821 5.263931993965828 0.0
9.51536593891754 4.977534386249715 0.0
7.788544970111893 2.70578432810479 0.0
7.381746833264364 8.755477463411431 0.0
7.615969996822885 8.852710176548548 0.0
7.783643411970649 8.691528137204457 0.0
7.845017394185501 8.938777577473743 0.0
8.570520580943368 7.342304222498308 0.0
9.103648004226827 5.781084627507008 0.0
8.338082930126799 5.815990105349368 0.0
8.930848895071895 4.561111316304916 0.0
7.381089602119859 5.983657236035151 0.0
8.42066837692862 6.393608568217351 0.0
8.888256157021065 6.459558428285236 0.0
8.826495664731354 6.575679897210801 0.0
4.22522220414496 5.921354747981145 0.0
3.943296448343383 6.075578573904587 0.0
9.563175937841836 2.554860696349795 0.0
9.505342423182917 2.656889632284623 0.0
6.660863480070611 1.168750929063519 0.0
6.518316961679488 1.436478598119306 0.0
6.683474168246802 1.694104067636375 0.0
6.376799057174731 1.707382100972048 0.0
6.205091481342603 1.443621641108414 0.0
6.058670988071357 1.728841803855816 0.0
5.877457486049096 1.454297236926778 0.0
5.724979192982589 1.756666409586195 0.0
5.529885788012015 1.462283739157555 0.0
9.514953777019835 0.7018468683209754 0.0
8.398665270372675 5.702731562702358 0.0
9.456442249775696 0.5772068858285652 0.0
9.565795671866349 2.345573662774494 0.0
8.830758563027459 9.247271599108435 0.0
8.523580738257648 4.88015211128435 0.0
5.580123316488715 5.701889892660689 0.0
5.398591029446707 5.685938459654249 0.0
5.367686360823392 1.778740548277203 0.0
9.546603444041448 1.754984055696778 0.0
9.489649223089446 1.641312329051244 0.0
9.617973952467912 3.363804764345866 0.0
9.584322830999731 6.729956156156573 0.0
9.597221861144487 3.948534024289882 0.0
9.49401963819799 8.089507968561776 0.0
9.207321074262563 9.416906871900888 0.0
8.27185428346661 4.464932191097996 0.0
8.207416067213774 4.35878753684812 0.0
8.332747746635944 4.354903699457511 0.0
3.990181919126853 3.930792395858886 0.0
8.267392138262498 4.254008221702929 0.0
7.997788712685495 1.196805377512679 0.0
9.600316638269724 5.639973985281733 0.0
9.550939606739425 5.737313319038155 0.0
9.44084303195315 5.74233753256161 0.0
9.50112296154558 5.834555019909565 0.0
8.897429225733994 6.685415510921676 0.0
8.762930941408914 6.695907295903629 0.0
8.654628175336732 9.278157371342388 0.0
8.544676900803436 9.133790942553834 0.0
5.294904777716057 5.855935872688884 0.0
5.216749389964556 5.66865685845661 0.0
9.508453581298625 2.239460033375932 0.0
9.599691370793206 3.169496930704394 0.0
9.546615051106684 3.073514534194011 0.0
7.484714626923596 5.028675123117963 0.0
9.588496050271255 7.850836295555126 0.0
5.153197381012662 1.471340286561097 0.0
9.433168304679345 3.071871997104804 0.0
9.610464706874994 5.829217654498672 0.0
9.561407772947403 5.926179534044419 0.0
8.273381980676042 5.705233340662362 0.0
8.330794188929296 5.594351887246082 0.0
8.207319603076424 5.596747949305344 0.0
7.251338559467102 5.233758892662348 0.0
8.708518799790543 1.130513882092466 0.0
9.590155250193266 0.5878623138195824 0.0
9.389919385420015 5.841079912164009 0.0
7.991397852194216 5.859910582924319 0.0
9.624951589233206 4.975554514425905 0.0
7.240016788025947 2.531866266726309 0.0
7.635666783493215 3.873554782053258 0.0
9.608476620993713 1.863530872936442 0.0
9.365330459496413 8.10677840682376 0.0
8.775076110585598 2.572737931759856 0.0
8.699389445914996 2.444602334375113 0.0
8.625078713232146 2.580891022578613 0.0
8.54447196848446 2.447624719286678 0.0
8.468898498943965 2.586757328881282 0.0
8.62282309213608 2.307826916202421 0.0
9.622102662978762 6.439307895185218 0.0
9.561995355724862 6.35103962032292 0.0
3.898245450818314 1.856155797593496 0.0
9.681759177700954 5.07069253017652 0.0
9.059254996454502 4.963357716933865 0.0
9.113144532326562 4.861710138088372 0.0
9.62140874877204 2.656009146517733 0.0
7.884510615470827 0.9666888912541309 0.0
8.14902661050739 1.005010215149227 0.0
8.491263206618079 8.527197931363634 0.0
8.408859203395778 8.697060715788105 0.0
6.54422152733529 1.954566069381189 0.0
9.563546573097593 2.755667904356369 0.0
9.453065492925557 2.761122255953964 0.0
9.676889098520615 2.755084315170127 0.0
9.678287124781653 2.556838324720633 0.0
2.60254317790297 2.278874965850319 0.0
9.211706272534968 4.050470567310489 0.0
8.526711683538949 5.698821878547752 0.0
8.296604023060945 8.533761944401608 0.0
9.649704314258118 5.543946557831669 0.0
9.651176136337964 3.85122804518279 0.0
9.44590154800397 9.498503704959054 0.0
9.580491248736612 9.476376347552954 0.0
4.3239388803087 3.921156392977062 0.0
9.65737873521736 3.075324100817917 0.0
8.128000846282253 6.160273991836929 0.0
8.06242981852327 6.292371360998262 0.0
8.500465019503922 1.442700595221201 0.0
9.615253212967009 1.649819368149096 0.0
9.561768620580791 1.538553925606111 0.0
9.435477757657937 1.527391516499924 0.0
9.627993450010088 2.242685831452484 0.0
9.5338252733548 0.4673994795805215 0.0
9.398055066504014 0.4589059948533885 0.0
9.669486082509058 5.920177035588319 0.0
9.621072177439727 6.016493814615133 0.0
9.506185962103057 6.018397021409126 0.0
9.196884440497488 7.898824858961557 0.0
9.112591143666748 7.789491461180181 0.0
9.664357762385308 7.950712034233033 0.0
8.46233617997115 2.308903464128035 0.0
8.547917980328803 2.169381684694277 0.0
8.139931430059324 6.410762600521521 0.0
7.672499127532963 9.099143622036436 0.0
7.91372855627271 9.178704612763656 0.0
8.463425076318451 9.290653726808348 0.0
9.643938029094286 9.335632419679458 0.0
9.647017668702574 0.7068996148634754 0.0
6.241662276606473 5.884018212993202 0.0
6.157742245066693 5.73500474100449 0.0
6.318815619949124 5.730068085823802 0.0
6.247706374231452 5.593094310939028 0.0
6.406948541886973 5.593272398468375 0.0
6.092564106310554 5.587409338401505 0.0
8.535507922245372 5.286142900439676 0.0
8.022959839404006 4.471630490587016 0.0
7.963561162854596 4.581393556789843 0.0
9.683487139413305 1.546750704925431 0.0
9.630761777960082 1.435922217091829 0.0
5.121714348989337 7.950140247572198 0.0
5.136464096196084 8.310254432483559 0.0
5.47349124035624 8.455234262268478 0.0
5.176273618280354 8.687190323573228 0.0
4.796664658962938 8.592678692862421 0.0
9.568705729418735 4.887269869750176 0.0
9.462711651199594 4.88832222094458 0.0
9.674903475028225 4.882285174433025 0.0
5.4996067353406 5.546583260717527 0.0
5.663632234555963 5.557613452957074 0.0
6.829408195405585 1.947174574944512 0.0
5.336529198289861 1.127585641139875 0.0
9.672387559812332 6.34138351957329 0.0
4.463988917379896 2.271060678869338 0.0
8.618048281355405 6.263841736419089 0.0
6.480949808711781 5.74815588680617 0.0
6.562207427719153 5.592185077216444 0.0
6.643040463857446 5.721233693378952 0.0
6.712825900331884 5.588664360236 0.0
6.79240375630333 5.711383948285569 0.0
6.86115931532141 5.584697050428064 0.0
6.939210100691576 5.704407337029545 0.0
7.007668476576536 5.580801046893123 0.0
7.084627386867475 5.702817970154801 0.0
6.633257976075473 5.460881327825488 0.0
6.931430743764456 5.461960451448691 0.0
9.682652370938209 6.533133024505995 0.0
8.761108695241376 9.450742747770144 0.0
9.146031326900015 3.764292700000154 0.0
9.089378801805193 3.661317181076136 0.0
9.514354521818781 8.994988681611192 0.0
8.157650730500988 4.262987189670279 0.0
6.329633198899328 5.4647789391701 0.0
2.340685767996258 2.811285337457589 0.0
7.379572471323651 0.9290892725587991 0.0
4.171878172186605 4.222320767259098 0.0
4.4876601621649 4.16473354200826 0.0
5.336389369563535 6.806464508860387 0.0
9.595468321212476 9.108133206829102 0.0
9.645038675267227 8.982113951305912 0.0
8.393140678816192 4.246338342095281 0.0
8.309440721624494 4.155300532283633 0.0
9.418269339704423 1.9925512363779 0.0
9.662781807969623 0.477809346089035 0.0
8.011297869803792 0.7518828483803571 0.0
8.250149975885678 0.7646904662196189 0.0
9.608674873602773 0.3618049194050078 0.0
8.692696069692623 6.582927327365709 0.0
8.628225948401226 6.705702462696891 0.0
8.701883181418305 6.822086652299242 0.0
8.559276855155542 6.829564723911442 0.0
7.069268463354993 5.459534423493629 0.0
2.654575201159115 3.323490466195074 0.0
3.610801136544596 4.044075244426243 0.0
8.263757217166944 5.48730323490738 0.0
8.138838162809126 5.491254533497952 0.0
7.90196833683664 4.477386962763833 0.0
7.987943097943191 3.978756490171551 0.0
9.704623491880403 3.945605151832784 0.0
9.461009573830147 7.301728818091931 0.0
9.532468631193666 7.399916015174975 0.0
9.582688928417856 7.292330983701011 0.0
9.652579613269625 7.387768793572397 0.0
9.699264016151023 7.282867433965265 0.0
9.633305589700536 7.188543855060478 0.0
9.505576100168666 6.961225778216469 0.0
9.43876966151099 6.342441564206569 0.0
4.908483672172518 6.098703904450545 0.0
9.135448256237908 5.269827196966999 0.0
5.905650502271389 2.025036080946255 0.0
9.709890722072377 9.452748507541063 0.0
9.663337613522643 9.572126259365891 0.0
9.603900123387826 7.495180532331903 0.0
9.720147629525837 7.483400774981126 0.0
9.674588415444239 7.588303295299578 0.0
9.653186673863587 4.039274180923234 0.0
9.053164539680804 4.764545162185531 0.0
9.164908495749003 4.763017269285045 0.0
9.226019227262443 4.858029410614327 0.0
8.809947621994619 3.4964384919072 0.0
9.10538997155458 4.665865142902959 0.0
9.331074106432244 5.748993480915537 0.0
9.055854333858068 7.918554535314415 0.0
9.446431573964945 8.209836764658437 0.0
9.573844810886287 8.191100251691205 0.0
9.309704769895653 8.244395007943949 0.0
7.240329561730736 1.676197957122907 0.0
9.543389817573933 3.660019800390455 0.0
9.598599341122098 3.563130123982772 0.0
9.652615161407017 3.658119804270645 0.0
9.706336063693934 3.564815526226687 0.0
8.632284427755456 6.946688912416058 0.0
9.682863230715835 2.349655023034811 0.0
9.571538455120994 2.142369886250143 0.0
8.090821900439733 9.017409120951333 0.0
6.812258669899192 0.9007667548831626 0.0
6.50135254578461 0.8974046495177885 0.0
9.598335906230732 6.246437748035812 0.0
9.719677442549804 6.253968775436637 0.0
8.593026822691716 5.180101360605356 0.0
5.537586126848265 8.836083861509138 0.0
9.688689404995035 2.143487155934306 0.0
2.821389253975936 6.507820864074362 0.0
9.176571289960709 8.507736431357309 0.0
2.918303740542162 8.256728920338826 0.0
3.428955230180972 8.401446814887457 0.0
8.490587404589881 6.715350139132777 0.0
8.86049054904785 7.243279881821806 0.0
8.93696309213556 7.356650230611625 0.0
3.951931175165697 5.78308550088855 0.0
3.65055612573298 5.91672400098539 0.0
3.668142216548471 6.247526235973777 0.0
9.717269848920886 5.821831227352286 0.0
9.708364917734201 3.164198601626433 0.0
8.45581975650687 4.569560863828342 0.0
8.204448312099833 6.040774355519757 0.0
8.65969449127868 5.485991799508151 0.0
9.707534571012967 5.634423933296901 0.0
9.62102991883279 2.849662850313935 0.0
9.144093558002634 3.560383427867003 0.0
8.29763273805118 1.77155302934031 0.0
5.280452715709455 9.01633391004168 0.0
8.984558945859158 6.99932633710603 0.0
8.4157550875812 1.275784953143711 0.0
2.068078118650995 3.355462780535101 0.0
9.205703884756806 5.568274778556933 0.0
9.745857863753141 7.178456670302003 0.0
9.681628895748586 7.081494416756802 0.0
8.875818787971069 6.240744812097083 0.0
7.993733797566922 6.414830952863579 0.0
8.462810157069566 3.377071044664789 0.0
9.29428363519789 4.759591981903337 0.0
7.933956818298286 5.97437536746848 0.0
9.028281726378319 3.558713145763133 0.0
9.083461773461467 3.455531762175701 0.0
9.73231939683535 2.849247643393067 0.0
6.70072305037728 2.192432536215492 0.0
6.423245125077639 2.212870246546939 0.0
4.931537051605536 1.135086496804522 0.0
4.746426561586179 1.500381091957315 0.0
9.707706579932626 7.836419656220658 0.0
8.590593344701457 1.595639668013959 0.0
8.708946574109854 2.1688179918246 0.0
8.634728854549891 2.028564483452208 0.0
9.230357659411311 8.129337203173913 0.0
9.102841374461482 4.452881308250647 0.0
8.472081531214734 5.388993924853032 0.0
4.925996806199801 5.844046944846857 0.0
4.702806345752284 5.745688656289065 0.0
4.884357002239844 5.633237011762874 0.0
4.709628434300812 5.536404116679045 0.0
4.530800966746534 5.627044171217377 0.0
6.040296145349247 6.603808099703576 0.0
6.162203578696918 6.795213950202512 0.0
5.923135943221574 6.824060069869489 0.0
6.046693245732212 7.010423490915212 0.0
6.297337598588478 6.979895528204233 0.0
7.760448385794147 0.7294020304851334 0.0
8.492228348169641 6.958778476405878 0.0
2.89219822877093 1.704113597264478 0.0
2.26178643438086 1.7814602252425 0.0
9.726968895980871 6.009547057102511 0.0
6.63195110828313 0.6072886418835157 0.0
7.984023036954866 7.515675826210831 0.0
7.893857204140559 7.681876703427663 0.0
7.778465117872411 7.537836322197895 0.0
7.998204230811618 7.844922503023499 0.0
7.798554315988981 7.858161805718108 0.0
7.917846202023782 8.03040048103727 0.0
8.547520504556728 2.721261126162116 0.0
8.39253850806587 2.732073315877738 0.0
8.306047241032278 2.59069854402512 0.0
8.233011054235162 2.739783364361515 0.0
8.318836035587811 2.879838477099622 0.0
8.159530874574331 2.888511553151382 0.0
8.245490421394788 3.024568439743106 0.0
9.759103003747676 3.077839427881478 0.0
8.083610090773394 3.033523757291178 0.0
8.174562583800352 3.166768504406541 0.0
6.046769434852523 1.155662270344939 0.0
6.968371001421964 2.176347877216873 0.0
8.324858098380334 3.152966249334499 0.0
8.145556596142626 2.609897633546475 0.0
8.970652052821418 7.804556541250797 0.0
9.033737629244714 7.681328986528639 0.0
9.62347010002576 4.796939565664328 0.0
9.72520380348743 4.790261082613535 0.0
4.882631186210167 5.455006233451049 0.0
4.618356368594037 3.933076284395493 0.0
4.748083507220199 4.151025177732873 0.0
4.641724290430313 4.358202249373887 0.0
4.87055838101999 4.337900676660481 0.0
4.974114446887331 4.149149057174687 0.0
5.081577844806959 4.3240148266423 0.0
5.179521650033781 4.148725180298481 0.0
5.276261408871418 4.316673822529601 0.0
5.369189110897883 4.148362797753505 0.0
5.463892033849439 4.338819369807593 0.0
5.550828466075906 4.146274465971151 0.0
5.646554822352869 4.303571429647391 0.0
5.728109623160046 4.138582010823754 0.0
5.821689108984419 4.291959598724587 0.0
5.906082534948073 4.141649907302701 0.0
5.99655838673762 4.288752711512514 0.0
6.077312859438928 4.141011188943332 0.0
6.164215275138099 4.281164574562373 0.0
6.241782344986693 4.140701084167517 0.0
6.324316420613108 4.277393447415522 0.0
6.40284165425941 4.140026953305852 0.0
6.483655157361099 4.273418937894759 0.0
6.561170698911611 4.136221843106807 0.0
6.63512300179586 4.269917278694155 0.0
6.720306110251473 4.133393659385058 0.0
6.63777078218551 3.99617001426095 0.0
6.802492763973074 3.994355399489989 0.0
6.798834760478153 4.276914787769972 0.0
6.15377608509923 4.000134206628027 0.0
6.548727135071258 4.400510710520637 0.0
6.251479300130713 4.421887359316258 0.0
5.275876048175579 3.979624500657822 0.0
5.910905077162284 4.431174408784691 0.0
6.717070288412452 3.851239795555301 0.0
6.883499045994213 3.852555480300214 0.0
6.96664848901999 3.994033961856844 0.0
7.048208567116626 3.854750001965969 0.0
5.810004974283072 3.982497501655442 0.0
5.586615391658107 4.471070246359201 0.0
6.547331954052155 3.853872077215347 0.0
5.179081233207816 4.485638492900557 0.0
7.126615227065496 3.995337770596979 0.0
7.209459742762513 3.856893463870469 0.0
7.130226097876905 3.713620439679428 0.0
6.63075064074106 3.699684148676045 0.0
6.446985573861992 3.697358756862005 0.0
7.043151422977365 4.131713936060725 0.0
7.198322215260019 4.129850614748363 0.0
7.119378405252723 4.26005098890218 0.0
4.797146270976422 4.525762781577414 0.0
4.608329098388589 4.573584257851931 0.0
7.294442092743627 3.720853338661503 0.0
7.215753312764997 3.571378507508807 0.0
7.049631633956289 3.568047985538775 0.0
7.133765707749521 3.414282375958479 0.0
9.755079417839903 5.539705890434435 0.0
9.698955703441971 5.450920012703194 0.0
9.717604099406742 9.09084770432896 0.0
9.276716006673976 5.847248422342224 0.0
9.339081208926798 5.941174203394446 0.0
9.031261921742963 3.750271483819014 0.0
9.08721978689863 3.853416037308712 0.0
4.801461566647803 7.510704110489921 0.0
8.206553504932042 5.818005960412773 0.0
7.362361315389098 3.863102442315545 0.0
9.492826845316191 2.963845037486267 0.0
9.376710375304633 2.97229517374228 0.0
9.3192743723601 3.070687802230453 0.0
7.915389082113898 6.293241865913004 0.0
6.735006382384437 5.832450056405368 0.0
8.456481836836168 4.35369289249905 0.0
8.517718268476031 4.246675068616396 0.0
5.583512022030555 5.411069060406398 0.0
5.73625200174779 5.422617752052123 0.0
5.81006929286229 5.548584937688919 0.0
5.903438861894402 5.420604003204523 0.0
5.43801870974416 5.402925156167655 0.0
7.022641548594327 5.825217331839047 0.0
7.165095795605366 5.826005223633447 0.0
7.223078558430726 5.690146755650336 0.0
7.841396000338385 4.586693006493787 0.0
7.904793170875705 4.690826189066096 0.0
7.785999820520073 4.696719777099973 0.0
7.846448506395101 4.798518978096564 0.0
7.728149182067156 4.803800941124008 0.0
7.788983823826226 4.904802634695232 0.0
7.672018889153144 4.910077510508749 0.0
7.731996012352178 5.014717724244488 0.0
7.852072803124419 5.00743796185411 0.0
7.779278698005006 5.118909346425974 0.0
8.088113864063853 5.605434545811022 0.0
8.016457362785575 5.494849890158723 0.0
8.072290383394757 5.385594956317259 0.0
7.95068657972964 5.38825563681957 0.0
8.309366678475389 1.438342408757099 0.0
9.748160780780179 1.447794693754379 0.0
9.696454228162398 1.337889922375316 0.0
9.568813761940916 1.329560834053294 0.0
9.638326779791626 1.226729570935787 0.0
8.472132467407484 5.182856496818138 0.0
8.066211547412054 6.53691730655352 0.0
8.217035586462373 6.522976700918602 0.0
3.544839338670893 3.324491119989469 0.0
6.999740002965287 5.347729916247808 0.0
6.874544698914502 5.347027470386579 0.0
4.880451234715014 5.193043717957879 0.0
9.104510033763066 9.313204713465637 0.0
9.0466357104558 9.45359399494339 0.0
9.146803165140184 9.569652364413551 0.0
8.134107047896672 0.5527712356100052 0.0
8.369770412730738 0.5571215815175228 0.0
8.47386979744655 0.7564607169846485 0.0
8.585193608569258 0.5749174254532757 0.0
8.683868132726584 0.75505070091701 0.0
8.787381435061018 0.5813987798627239 0.0
8.697570280442534 0.3771156480326233 0.0
8.530048434259976 5.077280516000916 0.0
7.995091351438729 2.90367515012593 0.0
9.731083608815164 1.662638626153251 0.0
7.260488865351954 4.255073962371814 0.0
9.760728358076392 8.990038509880067 0.0
9.716710396257366 8.884160310398862 0.0
8.794627466210242 7.369659405098349 0.0
8.868068657550866 7.515048014893154 0.0
8.702594597629135 7.510501129643432 0.0
5.132320689147051 0.7610757801158905 0.0
9.755852887652699 3.853180024615871 0.0
9.787424819067885 2.757921105725315 0.0
9.731193479931608 0.3736343090103709 0.0
9.796526908308536 0.489684029254899 0.0
8.226019692057042 2.453349105940535 0.0
4.560989821496479 5.428206018250252 0.0
4.348810639659689 5.517048281386008 0.0
8.785190163106925 7.119142251269924 0.0
9.015515413043023 7.464769766852701 0.0
9.754861440190705 3.659036930324926 0.0
9.7543610723378 4.033687839160082 0.0
9.707881226943384 4.127219992296752 0.0
9.52841017383273 8.309020665649431 0.0
9.65186044414544 8.289498614805698 0.0
9.714051275521857 8.173576484362068 0.0
8.209758892476394 8.715513071423135 0.0
8.097084883671858 8.548851201381087 0.0
8.177989947800599 8.367872862579052 0.0
7.974142434808908 8.36779470623567 0.0
8.409012054919861 2.142624252464372 0.0
7.707002321497132 8.039129945341395 0.0
7.574653123518228 7.83895791570255 0.0
9.229858094382692 5.951357214361815 0.0
9.75307989876696 1.229893222503321 0.0
9.715811155868643 1.128779429890018 0.0
9.597960915003707 1.117058287635912 0.0
9.672063923518955 1.020806103150243 0.0
8.99090422125785 9.593878510105375 0.0
8.133165456134304 9.257620998029804 0.0
7.976779931497633 9.420725324095141 0.0
9.77231778617502 7.927819487779705 0.0
7.957213679655531 4.364530256281665 0.0
9.609903116082736 8.403725680286847 0.0
9.724891358972584 8.388392708395173 0.0
9.687487059868507 8.495935345161797 0.0
9.810055520269009 8.494090598382963 0.0
9.755967487162335 8.599790818513082 0.0
9.645698986824481 8.606121319182705 0.0
9.721376049217765 8.699989876681524 0.0
9.773009257015609 4.884557953188837 0.0
9.830105798750992 4.796546393900876 0.0
9.775335108731761 4.686093304257503 0.0
7.455611517737074 3.730099283949135 0.0
8.906943567829634 0.4197477661467797 0.0
8.980613334153533 0.5814185917581446 0.0
9.081059111759728 0.4263421860552371 0.0
9.821654809259165 3.576985724143072 0.0
9.761309244784803 3.4792267780002 0.0
9.763329553045937 9.353068233045157 0.0
4.463051839136694 1.164440352584939 0.0
8.0213168204867 5.283436382300235 0.0
7.89385412333227 5.290429544753158 0.0
5.806940001023414 8.583716119232427 0.0
5.88977793877374 8.96065112858812 0.0
9.177759062826041 8.25539130897928 0.0
9.626582559276994 2.05283181283147 0.0
9.747673294325121 2.064954301745188 0.0
8.775905508647185 6.951821187702613 0.0
2.3581644273991 6.029034686663493 0.0
9.777798009058461 9.548066962498762 0.0
9.737129197219856 9.662299853506903 0.0
9.615080366030512 9.683349544763068 0.0
3.315839678697904 6.042943273456425 0.0
8.915083018115329 7.937748428923896 0.0
9.489832173860055 4.712364754630572 0.0
8.118313727862493 8.013944064029838 0.0
8.902248750797776 7.67372145952523 0.0
8.954075939212636 3.463080912810881 0.0
9.45247551997678 2.133243108303608 0.0
8.311151553157742 8.899233004613622 0.0
3.28672004268868 6.826745674539142 0.0
9.86008383798735 3.468233656255824 0.0
8.389990589860254 1.947086063498656 0.0
7.144231739553659 5.329544660076687 0.0
9.654500729007207 7.743301971143119 0.0
9.761920842881946 7.740144345898896 0.0
9.692820773976567 0.2651585113981998 0.0
9.690951720399688 6.100517071814821 0.0
9.775704281989471 6.077882312279847 0.0
9.823117117198079 4.115168542267924 0.0
9.764391943581737 4.214465954230587 0.0
9.659455011849253 4.218716850797838 0.0
9.713462125022623 4.30742830316693 0.0
9.849638067150842 4.208845651573708 0.0
6.376241713254513 3.858766051594979 0.0
6.274931849158213 3.701528298009006 0.0
7.097780104117746 1.926449727602711 0.0
2.457742027508782 3.810157622192786 0.0
2.963634206580268 3.740748099915693 0.0
5.065585416063965 5.544355730437482 0.0
9.783560252464587 7.566507987677117 0.0
9.825819294611026 7.470942204664841 0.0
9.799976114123012 1.01659516618323 0.0
9.745559590633832 0.9150866860898854 0.0
8.20473400632469 9.495828670767946 0.0
8.784586030320169 2.054461500762216 0.0
8.758471587067168 1.888286802854785 0.0
0.9188935087347281 8.510730800272478 0.0
9.674192026048217 9.20389587377276 0.0
9.796314981283475 9.185916994648775 0.0
7.206882433199502 5.452024361489832 0.0
9.773927048949279 6.334665846819535 0.0
9.830288393591173 6.225300227041885 0.0
8.25177349297509 3.282767705830209 0.0
8.099233469407428 3.304040153764131 0.0
9.607860512870598 4.315652630490023 0.0
9.403674738018715 8.367349042046314 0.0
7.611756786273919 5.018691202305147 0.0
7.549513964643336 4.923310232561835 0.0
9.80986724662116 0.2915868356190958 0.0
0.7757562810577034 3.504187313079081 0.0
7.659562100664981 4.698467529240196 0.0
6.539424975891206 3.541729955691742 0.0
6.717348880400739 3.55221857686142 0.0
6.836337579501807 2.417476958454302 0.0
7.096480496160066 5.959124656438389 0.0
7.189742782777612 4.377051328076039 0.0
7.051723187622053 4.38470822973091 0.0
7.125489805519186 4.497018383456762 0.0
6.994915621927777 4.501504591168814 0.0
7.056755276274058 4.607929817497045 0.0
6.932937068803914 4.613249390039674 0.0
6.86629288290367 4.50541343988659 0.0
6.80427099775847 4.617607827251794 0.0
6.739195362053689 4.511124964201849 0.0
6.677260697693361 4.624288827143181 0.0
6.996760608675822 4.711715831373894 0.0
6.316045249462968 0.6456945497683586 0.0
7.321834163850416 5.816449323512759 0.0
7.833101485370825 4.390058096386987 0.0
4.996572652976738 4.498711166259074 0.0
5.112334577457371 4.663858846723513 0.0
5.271923064784868 4.629759173373871 0.0
4.93773508827367 4.668006487116195 0.0
5.348137647919096 4.485934621930562 0.0
5.413454827497575 4.62999925573761 0.0
5.356581113747675 4.770594395332836 0.0
5.013422223730484 4.793321773780133 0.0
8.58674425943957 0.9312335381466886 0.0
8.776450596582496 0.9362399987293505 0.0
4.783496233934828 9.486061758876032 0.0
4.544176394620909 9.034071856445296 0.0
4.082330493623582 9.015765881393772 0.0
9.820867469965414 7.285959215547852 0.0
9.852697883440127 7.166089674802766 0.0
9.260999083164238 2.971390964911171 0.0
9.197701900169713 3.073162109379564 0.0
9.31960210441945 2.867465579641856 0.0
6.660951583415121 3.383363199709994 0.0
5.210469976037585 4.761678854423166 0.0
6.740780285297665 4.733615686805694 0.0
6.611362405615225 4.731958642073806 0.0
6.549091884465382 4.629620704100811 0.0
6.491761716522486 4.733409494449344 0.0
6.425259228542098 4.640546096196947 0.0
9.715556659367534 2.986725573570596 0.0
3.710524324925069 9.463213827486557 0.0
4.768537031214573 4.727001037865238 0.0
5.039413681704655 5.378508462165627 0.0
5.188746429211535 5.440476671296013 0.0
5.172214816037712 5.298914527247826 0.0
4.469063601436893 3.667917323494335 0.0
3.799121596584382 4.741629285988305 0.0
3.661085664896249 4.442847704416992 0.0
3.316563386321876 4.380147387454913 0.0
3.802087298647255 5.26743535640985 0.0
9.738116341343215 8.047178982429934 0.0
9.85106076399546 8.021725551312715 0.0
9.837581050304836 2.844176011307251 0.0
9.664579962075123 4.402853107737106 0.0
9.76433159763034 4.39807801415352 0.0
9.718924973226878 4.487825491046641 0.0
9.826405563645343 4.494594135148365 0.0
4.931068003413168 6.359330991212394 0.0
5.130175746947236 6.201075257041828 0.0
5.143884286052002 6.445382329515047 0.0
4.953395875296406 6.628748468717369 0.0
7.833019185167153 5.400347121613631 0.0
7.766636138801143 5.313240048256084 0.0
9.767038723422333 4.578090619166644 0.0
7.315369355237483 3.441501197259575 0.0
9.556068971301514 0.2347811136726856 0.0
5.733871280791703 4.444861510772459 0.0
5.828809543126846 4.569791247698539 0.0
5.986701526182213 4.562881783985375 0.0
5.912543327921148 4.692966271273211 0.0
6.052130330528581 4.682477327897978 0.0
5.773525984744635 4.697697018456535 0.0
6.121646311546238 4.572302645403103 0.0
6.182349700936326 4.67713231096357 0.0
5.846371383601797 4.808939734754761 0.0
5.117807918383606 5.974361363083184 0.0
6.256132501905665 4.575863546153224 0.0
6.324770064521816 9.645040261272253 0.0
7.345522892050965 4.12581088034536 0.0
9.338523512844539 4.854480276600515 0.0
9.286984287289403 4.959628690044808 0.0
5.676298026114105 4.589279806918992 0.0
5.631257891894775 4.722749088404111 0.0
7.970415275563177 5.621040275419208 0.0
9.565118337557308 7.081391220827488 0.0
9.626201005045262 6.980441083020495 0.0
9.733729506193331 6.979928568877979 0.0
9.684556253529976 6.887102896543928 0.0
9.780785815410074 6.890287441101827 0.0
9.740054813822885 6.794211367612523 0.0
6.462628988057306 7.629921412015864 0.0
6.692564520952154 7.473594130811262 0.0
6.927983108788191 7.570982428592125 0.0
6.899878641134941 7.329306734748538 0.0
7.117542472438434 7.416951094809493 0.0
7.089537168123128 7.186691566729968 0.0
7.296585396514727 7.275888419524222 0.0
6.879678873774065 7.097443005287856 0.0
7.063454637059129 6.967740076426161 0.0
7.329105042924355 7.496317641003757 0.0
6.867084781778411 6.878842928865059 0.0
7.494278796275744 7.351949197351029 0.0
7.462564159480594 7.150140034494138 0.0
7.644835001206406 7.21506678718646 0.0
6.682478929414216 7.008358327294905 0.0
6.449199855715812 7.365660640952548 0.0
7.548139855358765 7.57299228324251 0.0
7.008502809092701 7.844601794812628 0.0
7.371739019901781 7.707688433423657 0.0
5.665345294602155 5.290628720253272 0.0
3.987583013016546 4.486920698115711 0.0
8.893480480320447 0.7785000884179994 0.0
9.715485963651112 0.5955299613117169 0.0
9.761785841543585 0.7048670948649375 0.0
9.670304314877074 4.578896619304786 0.0
8.058509626083154 5.744161686650483 0.0
6.181795443628869 5.462040811515966 0.0
6.256771804808641 5.338464817889848 0.0
6.124070400983443 5.352376180901929 0.0
6.399679261813415 5.349186390888865 0.0
6.477776305607503 5.46505688468465 0.0
6.541624525938461 5.346017118512589 0.0
6.673064575428321 5.339051516933525 0.0
6.599301548842115 5.241958624987057 0.0
9.573774011620444 0.815274945835158 0.0
5.86493292693426 5.877588788523632 0.0
5.552663040119136 6.957487930464628 0.0
5.535080960199246 6.663033131707637 0.0
3.708603689392072 0.5979254716153909 0.0
3.31896983256719 1.188583855309964 0.0
3.895664898001925 1.128137111173669 0.0
6.363360407965353 6.032416442205533 0.0
9.445959758065749 1.070139246426051 0.0
9.50632172780449 1.214052376665338 0.0
9.441030033980638 1.325047485624912 0.0
9.295799464644857 1.341410624832976 0.0
9.184164107767781 1.461677744200096 0.0
6.407191016756832 4.407273313799791 0.0
5.544591888593027 0.7652641669375747 0.0
7.883090151006535 2.497506182548758 0.0
8.073420508370992 2.120510489750234 0.0
5.494822040671399 4.732314720081375 0.0
0.8986976806403217 1.464611451578306 0.0
9.536325549598013 6.83286654168725 0.0
5.972289519322897 5.727532110854501 0.0
9.82203607053145 9.443411729566549 0.0
7.263199949874008 7.064207941227515 0.0
7.233659553805083 6.853135694774254 0.0
9.793310082768443 7.072747972018893 0.0
6.734168931095253 9.67499220075154 0.0
6.941134861034159 9.382328333169653 0.0
7.285822522704258 9.443989747444657 0.0
6.576263515512108 9.333035011158342 0.0
7.160560566479093 9.127732577621245 0.0
6.218711947378506 9.298064908857533 0.0
6.432383355119106 8.980985203293491 0.0
6.795390278360442 9.046043538032663 0.0
8.54677014121837 0.1957422484480979 0.0
8.528696320820908 9.804850950580938 0.0
8.42644965647489 9.604735484095604 0.0
8.010239224104339 9.715048083583248 0.0
8.644359648763341 9.628432815860457 0.0
5.344212921686536 5.526744195650314 0.0
9.760936589662048 7.38409687515441 0.0
9.128187788393989 0.1445485608215519 0.0
9.133307661752394 9.854833215426817 0.0
4.867351616228264 3.944459575003425 0.0
5.905323253270366 7.385600364255367 0.0
5.909045412185362 3.361969954191194 0.0
5.80580919758911 3.569999290452344 0.0
5.578230704221431 3.587842862412673 0.0
6.013352753603037 3.550699073477782 0.0
5.936624955014758 3.721630401607248 0.0
5.735413275357409 3.78528948606432 0.0
5.512538847486775 3.794760621907932 0.0
5.360571639388366 3.618649018042938 0.0
5.134141179590394 3.459385929220745 0.0
6.167399567008798 3.367365990358096 0.0
9.766756262206602 8.291756450136036 0.0
5.486063578307141 9.64505925252771 0.0
9.497624614180321 4.328873442170357 0.0
9.811387324954623 1.570516917365688 0.0
9.389210081887331 4.69150887571586 0.0
9.704395728912932 3.754226393630331 0.0
9.808172776193384 3.748784464356272 0.0
6.549660911932182 4.839747932361234 0.0
6.757415124099031 6.077939876843736 0.0
3.805578542126494 8.040840085419626 0.0
4.232580149691158 8.198659880701744 0.0
4.559765382564095 7.87091698350757 0.0
8.3829075948167 0.9495097054886067 0.0
9.8571301061408 1.456307792614791 0.0
2.005900212453279 4.535525273813588 0.0
1.85904408608185 3.956445706785572 0.0
1.979307922430775 5.474327285927505 0.0
4.387923194305381 4.427191306527721 0.0
9.429258370703248 8.873693567695483 0.0
8.99196583083892 4.664567567015693 0.0
3.050357122593155 5.368999067452741 0.0
2.861107385476722 5.785089447130829 0.0
5.005058958272409 3.711196438448062 0.0
9.8972295764837 2.755337284632969 0.0
9.581048890980513 8.853909321617065 0.0
9.668838904423916 1.762418716497425 0.0
9.716576458425756 1.852218615166234 0.0
9.799043132681442 1.780583141193779 0.0
7.661868217848455 2.880323287492419 0.0
6.780136552904057 5.443858690999834 0.0
6.489544866845868 5.913957888434588 0.0
6.880149522020364 4.134257616716107 0.0
6.970134365280068 4.264072319341612 0.0
2.225481516813409 9.348422240784 0.0
1.843418032490818 8.641605249943353 0.0
2.198000805242772 0.6459947140825729 0.0
8.740020306282506 0.1903932731609072 0.0
6.86957996016679 4.720776242956433 0.0
7.430920333506809 0.2702852342693345 0.0
7.302066064947383 0.6134316505458445 0.0
9.305398039877746 4.64854361125207 0.0
4.078151380865065 5.203425462519088 0.0
4.080704120371218 4.778853303303787 0.0
8.052525541571825 5.965483159581719 0.0
6.367194027835946 4.754896037842673 0.0
8.604191121620719 7.648182513679963 0.0
9.546446695207845 9.234701521982952 0.0
9.018652854946867 3.351011585453845 0.0
9.143853648154607 3.350173119015413 0.0
9.067079866763024 3.245174561579149 0.0
8.991492136849105 3.135578770028028 0.0
9.29603967712795 0.1426516429033488 0.0
9.392428271030795 0.2506306237151588 0.0
9.223973843394301 0.2912279164401488 0.0
8.39375191941536 3.018777714002827 0.0
8.4836475746111 2.88135207267795 0.0
8.741089053946197 9.821127577434911 0.0
9.803966507713174 5.448064463539533 0.0
9.748132240148552 5.359371181503531 0.0
9.850258990973547 5.355211921626304 0.0
9.7965346514158 5.266762244994661 0.0
9.84142096963129 5.171050273734619 0.0
9.738843612428232 5.167483913244169 0.0
9.64168976006725 5.359875132194057 0.0
3.335917453809221 5.671837672982919 0.0
6.962669142802881 1.683222554707996 0.0
7.365210844496719 1.887492842536114 0.0
7.517378971174123 1.677983072937792 0.0
8.00383870208024 6.089394601875145 0.0
1.725435941000569 2.759295503019395 0.0
7.907977929549089 5.102827208603365 0.0
8.052861051278896 0.2683271125209605 0.0
9.80169732768395 3.385443381464333 0.0
9.831597648680848 3.28491948963525 0.0
9.736335895866404 3.316207814499244 0.0
9.597256128490281 3.756160701977744 0.0
8.865819925321706 3.366235906378775 0.0
8.489614436807788 1.757152185195495 0.0
8.88089641144391 1.078983279100314 0.0
7.430923851187758 9.724389499796425 0.0
7.584252919312249 9.509430586267927 0.0
9.744026095940516 2.247117754488748 0.0
9.729961521243718 2.659836747108116 0.0
9.790866569780063 2.558993767350471 0.0
9.736606445116795 2.455104424879619 0.0
9.846806182714698 2.452157456754448 0.0
4.518102112052724 5.141350889745285 0.0
4.519880229178207 4.85678334497067 0.0
9.7302407894617 6.434012603549242 0.0
9.787537474544765 6.523591663056312 0.0
9.744262337067932 6.617499601377625 0.0
9.8406238811518 6.41591236129004 0.0
8.914967252734657 3.579360039684312 0.0
9.154797282599406 5.670753066089419 0.0
4.228839454580575 4.612979739018002 0.0
6.095037541675208 4.42126627187728 0.0
9.304166983880842 9.864854494751789 0.0
9.406445527105628 9.759007358529582 0.0
9.256225114941945 9.700832989525724 0.0
9.796206564635622 2.351215649506205 0.0
9.849373673349081 2.25090453834006 0.0
6.332048155295931 3.511675163099286 0.0
9.069679774213784 3.022879178706259 0.0
9.070599961450037 9.055284879641471 0.0
1.808685691036764 6.331557276533421 0.0
7.120156826652838 4.698481230214924 0.0
7.052894345811342 4.799848851879358 0.0
4.739957520484086 5.369107149361242 0.0
9.389197839958292 7.197139943834638 0.0
9.046688232613976 4.560364044038737 0.0
9.162685461967492 4.562194096410666 0.0
4.227377821420887 1.564128177298305 0.0
9.201090975245227 2.794301402811909 0.0
9.251941624303948 2.677556975242327 0.0
9.186758273070138 2.563916005021366 0.0
9.317609833868786 2.560335260954038 0.0
6.57599191748324 2.437689779955877 0.0
6.305556560534859 2.459112595979303 0.0
6.981058048792093 2.642476994448363 0.0
9.886113463139504 6.510498309609482 0.0
9.250462794607717 6.221362629571698 0.0
9.305373999084068 6.108271307139882 0.0
9.390477915810829 6.228015172491477 0.0
9.44452571968143 6.114582165110393 0.0
9.502105740270528 6.197677857389309 0.0
9.31559697209813 6.331647407124485 0.0
9.370938253597153 6.437386206819511 0.0
9.594764406124872 0.1099001288712305 0.0
9.602872681151728 9.894988341116305 0.0
9.622661196143387 8.076680696281343 0.0
9.769069277144705 5.9102532189237 0.0
2.615076109785583 8.807551523115547 0.0
9.658920005405456 5.730890135691177 0.0
9.76063135061807 5.720703211793342 0.0
8.63963723169499 7.177334225227945 0.0
7.841904391869763 6.41346852896409 0.0
7.764520718520185 6.297267738834625 0.0
9.546492996136271 3.465225175657335 0.0
9.25600964352143 2.219157062786616 0.0
7.625057159226293 7.012987957636062 0.0
9.529121062829038 7.730283486008674 0.0
8.329887090625894 3.845190321147069 0.0
8.265841850823831 3.95687001944245 0.0
8.402006523775544 3.947660780406651 0.0
8.128436391670505 3.968543393650448 0.0
8.46705122470662 3.835767362024195 0.0
8.218867047074696 4.063481375518748 0.0
8.089763413611255 4.08062363292928 0.0
7.939578083855268 4.111915744184436 0.0
3.74991304509639 6.615676756107112 0.0
2.627714335615619 1.170993030860914 0.0
7.046129971268607 6.759930788612616 0.0
8.534603732661887 7.486325780553722 0.0
1.569381386467569 2.042794535871475 0.0
6.228703743210918 1.986421863690014 0.0
6.467030855792859 2.67190498312861 0.0
9.272246093269825 1.975478263632296 0.0
8.05269609263041 3.854522845257449 0.0
8.008595521536957 3.177870309354594 0.0
7.929796740504207 3.350600835935766 0.0
8.048703574664067 3.449582532910417 0.0
9.72947480375618 4.973926800124758 0.0
9.784850360535604 5.072865219810449 0.0
9.896036387646596 5.069261557893528 0.0
9.633140953203334 5.168645132864771 0.0
9.558102991128836 7.602453108835212 0.0
7.278758746505716 3.994295887299482 0.0
8.306681733482405 6.936428510427854 0.0
9.487163072013963 3.757777670075558 0.0
9.532950522284125 5.359403698944497 0.0
9.816036650072329 3.927268437107025 0.0
6.173882586235392 8.734645960664665 0.0
7.972518459433741 5.003005338485466 0.0
8.398453459336153 1.601072016988848 0.0
8.97460527296194 4.040886705742754 0.0
9.037941657530773 4.143578781749325 0.0
8.849604200183613 3.828506169652706 0.0
9.545296177100065 4.042698359132156 0.0
8.595941796785514 5.806754902023664 0.0
8.65588412428292 5.694192853853139 0.0
8.723710665131787 5.801528918332044 0.0
6.861288985046249 6.673713222735126 0.0
8.87477249219366 4.664500928777609 0.0
8.72385765226959 3.608276264790996 0.0
7.145228858696953 5.573648565429618 0.0
7.282945121585866 5.558559688509987 0.0
9.224761401603633 1.602363370249125 0.0
9.609115686587552 2.986868833620756 0.0
9.633989947851914 6.628120633848649 0.0
6.046214325132457 5.45615093027661 0.0
9.017014346798927 5.271996636983457 0.0
9.070824864071271 5.168510834798647 0.0
9.189021391555556 5.166867900487267 0.0
9.123328759137758 5.064718588163964 0.0
9.240587446378079 5.06459430516883 0.0
9.250848280531756 5.267364371053135 0.0
5.773050603406019 5.7192906317521 0.0
8.576466432793914 4.3559007860436 0.0
8.634627802680399 4.253467736542067 0.0
8.461790117175607 5.591735227444779 0.0
8.907610717370224 3.713397213891439 0.0
9.80665594564509 5.628066492225966 0.0
8.985935132601089 4.455263493464225 0.0
9.00640209566022 5.067597672073404 0.0
9.833659276096986 6.976519563917422 0.0
8.0283368553477 4.687271895436317 0.0
8.326580191759327 9.127498457128247 0.0
8.650637373791266 5.07513089931925 0.0
8.701067313435203 2.700069743477523 0.0
4.825307249916392 4.884175191874744 0.0
9.418335984190309 6.858444798015129 0.0
3.91434687300816 8.542956908935874 0.0
5.569239724399552 2.064135034637056 0.0
5.234271567762738 2.128974435011933 0.0
5.757920427527626 2.312422707096966 0.0
5.43365689737979 2.427455772745759 0.0
5.673210219624612 2.602111218343444 0.0
7.214258468265766 6.652783071431555 0.0
9.823626269633962 4.30685540664529 0.0
7.96996639420014 4.794005510174826 0.0
7.616003332725032 0.502676560965646 0.0
3.050634530589821 4.659174799474146 0.0
2.870894249800723 4.246924313393336 0.0
5.285393339952368 6.079037173753393 0.0
9.439954241218905 4.23581687956071 0.0
9.67709722097145 4.710772408106511 0.0
7.40767785509217 4.259947873553335 0.0
8.396202587439676 5.486075637998701 0.0
8.323689688705493 5.372061002264632 0.0
8.191312386254125 5.384662546230823 0.0
5.304380054816289 5.369675374029755 0.0
9.093848379546637 4.047647920840374 0.0
7.916313220758624 3.045043876114836 0.0
8.435854831444637 4.144861908356168 0.0
9.060262453079693 0.7340576053322918 0.0
7.053195520344596 5.238809779682351 0.0
9.621762679347093 2.45205452967588 0.0
8.410730269104743 5.287995309529392 0.0
9.655094569234972 3.472720279371932 0.0
7.982140513923982 6.667914768024983 0.0
8.402690325256646 4.883576657130221 0.0
9.17488654147479 4.962006474835693 0.0
9.013188196102961 8.49700148123058 0.0
9.795977244531603 2.156818021002043 0.0
9.893813711206834 9.545820400859157 0.0
7.965349232662289 4.250048884270795 0.0
8.644264557989125 4.874751532150782 0.0
8.215430976121077 1.26077208565765 0.0
8.379717637669398 8.37324652769609 0.0
9.320026533461409 5.559861899725609 0.0
7.885778178744864 0.4977439426642278 0.0
7.547066983926719 5.125166613071239 0.0
7.657542898944819 5.122996245335209 0.0
7.423918840193691 9.000935553397358 0.0
9.854133000712425 5.541931969512857 0.0
9.328508174398952 2.101486405523264 0.0
9.300749600926641 9.530012105354274 0.0
8.130307182491519 5.277079344947874 0.0
8.346752967392757 4.987627363826086 0.0
9.118404185029991 6.007087846617186 0.0
9.048232213728614 5.89431792713258 0.0
9.088340967655858 5.576242562571367 0.0
8.094762487139027 4.789727191449318 0.0
9.915265904493378 5.749591413470928 0.0
9.92169805280126 6.154216704502091 0.0
9.918022441582268 4.549125436287157 0.0
9.919332362905616 4.849536560132457 0.0
9.914800786693318 6.750595509794719 0.0
9.811792900437824 6.703950687575952 0.0
9.900643083988882 3.749855087409844 0.0
9.912423171222734 3.043228996968949 0.0
9.91892875832665 5.949999999993851 0.0
9.913300070218703 3.960831593817277 0.0
7.709347001661226 4.444236534782706 0.0
7.479443107717332 8.071637285053104 0.0
8.839057072155848 6.807845119358974 0.0
8.972330068019902 6.78765448182788 0.0
8.542093772125282 3.941452413628317 0.0
8.279144752968262 5.930387616620717 0.0
9.393455876855919 4.973162505621418 0.0
9.507123333872533 2.855087674515822 0.0
8.77504684283825 2.317347145885344 0.0
8.394133129040345 4.464046960801843 0.0
5.725509852450801 8.210843960481027 0.0
5.62632390239664 3.967637659758752 0.0
7.910815814627989 4.900765971697654 0.0
8.595808444085467 5.590040244353608 0.0
9.705160502006024 0.8106158419444889 0.0
9.82021247904746 0.808810893177099 0.0
9.218352146075844 4.447736986422823 0.0
9.20781892622228 3.858281726888132 0.0
8.713609974387523 5.178241668554946 0.0
3.55755059259364 8.921522400238844 0.0
9.59122926011489 5.452844834281716 0.0
9.70565100407009 9.77887811062354 0.0
9.826938454219809 9.74303055702321 0.0
7.238962096855633 3.278078153406256 0.0
8.575609105166194 4.567807831727537 0.0
8.936449841121737 4.765835458965493 0.0
5.59323463391086 9.248527978398117 0.0
5.280809113285124 4.886132326418428 0.0
9.328132730893216 6.544753806716806 0.0
9.026944889277736 6.67247283515637 0.0
9.81946239021469 3.007926663525007 0.0
8.677633568960493 6.144049349297466 0.0
8.33427489656924 4.571212803519522 0.0
8.55734024448315 6.382535186588269 0.0
8.692399379422756 6.372347713955898 0.0
8.495817478252626 6.503308565233578 0.0
9.905494734661673 2.544078755559835 0.0
6.177101405266569 7.228490244483556 0.0
9.825373011845263 5.807482724503027 0.0
9.808678508609606 8.118683092442964 0.0
8.397717712407108 7.08010313863416 0.0
7.428555529689225 4.935946611338556 0.0
9.575504958128711 6.125633853639113 0.0
9.154066996197898 4.146562596982661 0.0
8.074381802159323 4.337569667261167 0.0
7.018337246891919 8.843475095716133 0.0
7.970627172560641 2.658650028065857 0.0
7.382546388883145 6.723381543491632 0.0
6.822972334933889 4.884555620881615 0.0
8.343732976791593 6.041576709398377 0.0
7.743680217306919 8.423336160305476 0.0
8.505717922983454 1.115022897794028 0.0
9.113973198216474 6.992972408167606 0.0
5.818882632841168 5.300437503812764 0.0
5.951991891717714 5.279516346785062 0.0
9.450183479138845 5.92934813870612 0.0
8.783346541536119 5.48419035750989 0.0
9.38074895894124 5.65076274999803 0.0
9.513658728876734 7.193620441323493 0.0
6.396040948797887 6.776064256962667 0.0
5.389661780244388 4.89715084345563 0.0
4.473247649068957 5.85935163892416 0.0
9.249586607512612 8.37680799459232 0.0
9.103796366487646 8.379197231055114 0.0
6.274057301184156 4.87985402946409 0.0
9.259628836118232 3.561431822636308 0.0
4.037922477011971 5.489409780163391 0.0
5.62712958624254 4.893925433488392 0.0
8.806426003347967 6.133410188141932 0.0
9.53304466499349 9.59279975429444 0.0
9.542890959420024 1.966631379116419 0.0
7.459736176874619 5.863847835420528 0.0
5.937613117200432 4.89232797168023 0.0
6.171611131472617 4.879541833448487 0.0
6.100695199816815 2.291172318314745 0.0
2.315194906726768 8.081958163666464 0.0
6.878489987598286 5.148099521847569 0.0
9.105264414399338 8.639184652727645 0.0
9.20047261316883 3.457820810661327 0.0
9.895329010385955 7.55944047105717 0.0
9.912742873006831 7.76210330502246 0.0
9.37761459375249 3.168397068877758 0.0
8.946121261512507 6.345629828835438 0.0
9.918632496443566 4.449809517365367 0.0
6.848211525651934 5.945010613369067 0.0
9.915721525903255 2.047407395915179 0.0
6.117255841708726 5.163321965161054 0.0
7.276595248786602 5.347247322210079 0.0
6.32682869954104 5.23674259421017 0.0
8.785886448438022 5.692775375342819 0.0
9.099994401883361 6.776698531382792 0.0
9.913397459621638 0.2499999999998165 0.0
9.910352525643928 0.4481571029410266 0.0
9.907850422008579 0.5479735220323012 0.0
9.911983631350465 9.24778487019403 0.0
9.917634740384067 0.7514684821956668 0.0
9.195214232985496 3.254172408378337 0.0
5.000896927376288 1.846006038077654 0.0
9.917172478547403 8.250155740683276 0.0
9.908120476950126 1.742986232208194 0.0
9.914524635720774 1.949567899316728 0.0
9.907358878377153 9.145625165175748 0.0
9.917695944922635 8.949999999998397 0.0
7.648387553139914 5.325741673607362 0.0
9.605343588986079 4.130627398479715 0.0
6.648113233057817 6.774798386229164 0.0
9.910347203087213 8.446729917003672 0.0
9.913623694530468 8.548470085896316 0.0
9.9201245863254 1.536225488581779 0.0
9.906538426683255 1.059019360781604 0.0
9.912867352010919 8.74999999999809 0.0
9.799662981388353 8.79550485462418 0.0
9.831828680383174 5.99966894118311 0.0
9.91414179906643 1.263025320602998 0.0
9.920690092699912 7.240982963665807 0.0
9.385889285950551 2.235126904097426 0.0
9.28133998925606 8.00415195851526 0.0
9.817074723108401 3.172398890123306 0.0
9.482030285089927 7.512954023388035 0.0
6.682432918504054 7.233889573028878 0.0
8.528699633246763 3.260502457553277 0.0
8.91699963742029 2.327016692708648 0.0
9.267676068834481 3.954520684561369 0.0
8.70811637467455 4.974101624783084 0.0
8.18184214270768 7.816666208279135 0.0
9.690393137288163 5.264344933127836 0.0
6.937111790104696 5.245184991960528 0.0
5.895846026722989 5.174232967273284 0.0
8.281683356622615 6.400073017261236 0.0
9.150883172924027 7.444273543454419 0.0
5.430406600793122 3.390815886517273 0.0
5.049583827974758 5.697634876048387 0.0
8.3966710383105 3.495813899905868 0.0
9.007538428392454 8.046563579784266 0.0
4.645155158868719 2.637132843684674 0.0
4.887444326771336 2.30020425915506 0.0
6.483736782775559 4.522536327482678 0.0
7.843169154548308 8.2116075844056 0.0
5.06295551628385 4.901632590583318 0.0
7.201400991012747 5.138239336380897 0.0
8.519791031104612 8.848807089071627 0.0
8.658623737989732 3.031313729049854 0.0
7.585566208322493 3.629882964874684 0.0
8.411818469596405 6.834326722716643 0.0
9.172363528634236 7.669230647622864 0.0
8.85455683341768 2.682483055215344 0.0
9.359398739738925 1.631421337140716 0.0
9.071793864444992 7.337030604117359 0.0
6.968394563521436 3.712808894519514 0.0
7.899236117684646 7.094583340182754 0.0
9.54362864504834 9.781852543872333 0.0
7.151298729743687 7.644795130415299 0.0
5.452218361466201 5.186873761308322 0.0
5.517642289161902 5.293540933999446 0.0
7.802500357665464 5.978295671754199 0.0
6.594850839687122 8.491429270558893 0.0
6.029132431949566 8.294997405201931 0.0
9.31286590869111 0.5672913838331921 0.0
9.25238720319541 0.4415953739444106 0.0
9.550589523211062 4.228044955453704 0.0
8.748611832783206 6.250900951984038 0.0
7.566980108995873 3.995148257893202 0.0
7.426142759241261 3.996743578498081 0.0
6.478912513785404 4.000296412419969 0.0
9.30435638148753 5.168210982711592 0.0
7.542154188520517 5.752525075248498 0.0
7.219033852073297 2.139582470800704 0.0
7.370913620388047 6.545121498197235 0.0
5.226731036024996 5.187572666585561 0.0
8.515591031124366 4.462223215179979 0.0
6.762864307079274 0.3078036604979366 0.0
8.587432696997471 4.977010533175154 0.0
8.703948448756302 8.815629076400704 0.0
8.081003990931544 7.370949680119862 0.0
7.424404567669909 6.949730915714445 0.0
8.578903262311433 8.377992954045473 0.0
7.301258690263783 6.106184350645308 0.0
5.991600556904204 3.99820087171043 0.0
8.203048538477193 1.601044215405025 0.0
7.289972483120081 4.572350254111052 0.0
7.714697186439165 5.420586967696794 0.0
8.918853780709807 1.841796898567452 0.0
9.919941345877513 4.749808449067644 0.0
7.245589454939737 5.94251251443003 0.0
9.258480524497795 3.358952871140391 0.0
3.705877615124628 5.574038727593425 0.0
8.287096858129765 7.962370605242409 0.0
6.799629860952143 3.705385600481528 0.0
4.146753450763018 6.544154457143895 0.0
7.413973555029582 5.545687501585183 0.0
8.466524978378082 4.980481756569235 0.0
7.336312153537934 2.337983522449311 0.0
7.695505222753409 3.747498713679684 0.0
4.898236813123799 4.795853653580084 0.0
4.59779105899602 1.896916774247134 0.0
8.560170375862322 7.072369101894893 0.0
8.386150468360862 2.449771437140704 0.0
8.41200018115259 5.084601315536367 0.0
5.102189912301071 7.621598618277815 0.0
8.336320418935243 6.71651223072348 0.0
5.081745734883095 3.977838926197614 0.0
7.63590698378166 0.9500570055008507 0.0
7.743369677149255 3.051233984704873 0.0
5.357527459690566 0.3809996753407537 0.0
5.967373112873382 0.7731113464301924 0.0
8.169449265206127 6.666271947462212 0.0
5.95122726745053 5.55758205410881 0.0
9.922289489207834 3.53923011719877 0.0
9.39154684476555 2.659037023454942 0.0
7.701415639167884 7.690060291860976 0.0
9.819179654793023 1.329863870021845 0.0
8.358229579054417 6.506108206863729 0.0
9.269720555169467 5.657096143475924 0.0
4.473187658045934 7.435037860084884 0.0
9.65807158077373 3.255496360750368 0.0
9.605155446454205 8.713645566904637 0.0
7.097383547728313 5.141197376985936 0.0
9.812212483832656 1.89920712759492 0.0
9.83875570675407 6.81603549325055 0.0
8.926246869879279 2.079976511571457 0.0
9.166785856141402 9.169070814302419 0.0
8.763479010228052 1.587152667342957 0.0
5.957377924852992 6.404530806530254 0.0
7.14506854375872 6.10342416684208 0.0
5.672595070581394 5.164323323112049 0.0
4.899782787268781 0.3801727265981219 0.0
4.447133848117348 4.673614099606824 0.0
7.044865074789195 3.253639989243549 0.0
9.818461337102992 7.819456450952447 0.0
9.925334577033155 7.954012377173311 0.0
6.352907898232792 1.173665225954276 0.0
7.351721385581032 5.660361289755705 0.0
9.337367583861807 2.76534436379692 0.0
8.693118347802024 4.360254099729149 0.0
9.476812970101324 0.3524826622168163 0.0
7.109868985890334 0.9024224571333925 0.0
7.899106846231403 5.511805431542581 0.0
8.352799544476607 5.187887629361129 0.0
6.957483547582747 0.6176251309213842 0.0
8.099559500483094 1.412323841044818 0.0
9.913030944540278 0.8542404645334569 0.0
9.143075088381442 8.022165366829135 0.0
8.819861450593166 6.356592599428041 0.0
9.319444417409162 1.49938505915629 0.0
6.490262520326714 7.118204362551877 0.0
6.490874470087819 6.582907761235813 0.0
9.82506653058937 0.6146757679104559 0.0
6.803129818897624 4.419048038171804 0.0
9.840901379354312 0.08198751964190581 0.0
9.839740374244226 9.918356239418472 0.0
8.551927134544655 9.449788917425456 0.0
9.92097857388158 3.249999999993177 0.0
5.797087413057367 7.077351493358238 0.0
9.255412859987286 6.433984412022419 0.0
8.668174522249984 1.740767926084485 0.0
9.920991430240607 6.25262219124529 0.0
7.57275248448898 1.94367954756322 0.0
8.052865444445507 8.19900054463639 0.0
8.748697149245206 4.25201068974208 0.0
9.158270227735827 0.5542256343091421 0.0
5.997487767477439 4.787924707603557 0.0
6.119759900601896 4.78043793682227 0.0
4.353034750397793 8.619182743639561 0.0
8.721093521611476 5.588932824583312 0.0
5.717101151444983 1.123034066822819 0.0
9.825602081347064 8.68753399402474 0.0
8.005502510832988 8.7824052910506 0.0
5.548184234622668 6.408009287230429 0.0
5.77830300433981 6.598697187164234 0.0
9.613093825495433 4.50282172481406 0.0
9.928981132641653 9.74928475696928 0.0
6.613628176297015 4.515513362596662 0.0
1.822126723816303 1.297795131355289 0.0
9.514164594137375 1.43081427463862 0.0
4.735494753432723 3.698541604583975 0.0
9.52844959749262 8.615213629960298 0.0
4.660704511759056 0.7947595073298008 0.0
6.82340845160293 5.239926830264399 0.0
7.885938077030673 7.380147032865134 0.0
7.884599891021201 6.09005968568029 0.0
8.846834820720167 9.653276456345532 0.0
8.457777199486827 0.3851010632068662 0.0
6.66485224572131 8.771510767670392 0.0
9.091499342133352 9.708315832477556 0.0
9.824286725109655 4.976315293637262 0.0
7.848197684391786 5.632217046637356 0.0
3.88430598115417 4.225391362015386 0.0
8.776890759183289 2.809688928468134 0.0
7.393884285023409 3.59397875231041 0.0
6.927568893329758 4.396788356869783 0.0
4.96854327720728 2.662368428358774 0.0
9.1480130720193 3.951479613991279 0.0
7.071049729490975 2.38092990636632 0.0
3.40193058782919 1.686321186206593 0.0
7.612042194200681 4.815904436723407 0.0
9.043395868401339 6.888481825015849 0.0
9.098933057562759 8.152197681006806 0.0
6.058682303253315 3.857501492181965 0.0
3.707092669281355 2.986685502034343 0.0
5.113272509841263 5.189455016444592 0.0
6.960565857079232 3.416349532571279 0.0
8.755151527375476 7.649255597361291 0.0
3.393680865444538 3.679982303262531 0.0
3.117424600120088 3.35605258976247 0.0
8.530814041264104 5.488376426140491 0.0
4.820719767306654 5.106646490188182 0.0
9.918899263509473 4.144927088739744 0.0
9.918194630017027 7.447268230913605 0.0
8.461970084137805 3.144844565847669 0.0
9.924415919486059 6.949999999995354 0.0
7.184050152099684 2.72771667662237 0.0
8.834356715215904 7.801565642745232 0.0
8.689015446783005 4.145232831954543 0.0
8.490778532265319 8.234414357968106 0.0
8.63666290918932 2.83060276219705 0.0
4.61028976098935 4.741894230894578 0.0
6.314735925012879 4.003132559161639 0.0
9.20786580425652 4.67001723737971 0.0
7.141401229301469 4.873205425098625 0.0
6.235177809922153 4.774126344778935 0.0
9.12491895896937 3.145675090615719 0.0
9.255747684068178 3.162525801823036 0.0
8.312852272796098 2.290855459722148 0.0
1.449266720542303 3.363629101350872 0.0
9.525687840398492 4.800807314407045 0.0
4.829905263804087 8.14474456977717 0.0
9.09338914689732 7.563794106183232 0.0
5.389401689694107 5.283808684471545 0.0
8.530979415204587 3.029374286908943 0.0
7.901489077080633 6.535344047486632 0.0
9.218572924671975 5.760893551533255 0.0
8.562382833959296 4.143913974026883 0.0
8.62959127904665 8.974877485888243 0.0
9.408442441596518 9.62276529745719 0.0
7.5034765601713 3.869833107932387 0.0
9.842813436634783 6.600620949014236 0.0
9.826116984327193 8.911617279149695 0.0
7.529907780698261 0.7369111006685982 0.0
7.832164962480427 2.905293639437395 0.0
8.39517908433056 3.267417602291069 0.0
9.823014010107707 9.085319632577246 0.0
9.022314123618541 3.944559746338292 0.0
4.243701230676532 5.332574856090426 0.0
9.816740542566388 1.127839952679595 0.0
8.166775715766304 5.693916696568397 0.0
8.865374421689054 8.068986769641638 0.0
8.761145809863661 6.470583506581853 0.0
8.998345275919851 9.209303502026401 0.0
9.698477487436316 6.706902829754045 0.0
6.439032098063426 0.3109134377713525 0.0
7.562681994382136 4.643158005207056 0.0
9.03999088074715 0.2799354672273258 0.0
5.180741540467516 3.805018725608906 0.0
6.243990330956698 2.718077286244967 0.0
9.79416634023361 0.1815240178579244 0.0
9.926540005061975 2.847049370876555 0.0
9.826476210374608 2.670192168078066 0.0
6.365816673179121 4.536333049275508 0.0
5.546353765219417 4.618331215552614 0.0
9.820703096450293 2.000649418331399 0.0
6.884388790679166 3.561583980715254 0.0
7.431303395649604 5.747824222777201 0.0
8.849816832721245 2.19318290395604 0.0
4.185147517585975 5.697469360586313 0.0
9.165905238119013 5.873664931582344 0.0
7.70479478158537 1.788324620089049 0.0
9.627376046933474 0.9196091445437269 0.0
6.657687963328663 5.144792385996769 0.0
9.83245016645186 0.3925568446109945 0.0
7.483092985762584 9.253837199159435 0.0
5.445348362202234 3.977855663863651 0.0
7.476680532833337 4.837183287808616 0.0
9.572749890969304 8.505160319814301 0.0
9.915853314998252 9.437014513917465 0.0
7.679469018350979 7.390484878021194 0.0
9.418139053434402 4.790576000488359 0.0
8.096967733471567 5.865447162201908 0.0
9.829153508938724 8.378494945652118 0.0
9.926595955569645 5.157718300415699 0.0
8.774484245600224 7.939747459426853 0.0
8.629764448155779 6.481031318922794 0.0
8.961169458302376 3.839036702328818 0.0
4.617199205561317 5.256318959792646 0.0
8.480815774219478 4.031210317621497 0.0
9.708341592512763 3.401018043990571 0.0
7.183974816647467 4.77882314543966 0.0
9.821437962294304 7.659391965474772 0.0
8.150320284869602 2.286501016204562 0.0
9.828114434347311 1.684891358832554 0.0
5.349187766238684 6.538177907133678 0.0
8.076053471314525 2.76180604769483 0.0
4.907713691134565 5.29818629967416 0.0
0.6874399366049438 4.328593906714074 0.0
0.6980011780697519 5.702671170050627 0.0
8.263861466707834 8.182284285231713 0.0
5.838783785156478 4.913981390426639 0.0
7.807619472656604 7.235706382002089 0.0
9.388504256318683 6.022122644748753 0.0
9.929839894767033 6.436189192303577 0.0
8.3205848711706 3.39107920408397 0.0
3.240770542267401 4.019899919523968 0.0
8.059047070496568 2.468855909103855 0.0
9.932479519490421 2.449625056415224 0.0
7.737639000139152 4.580708137963557 0.0
8.26141077223695 0.3940397126348397 0.0
9.69568953371801 1.959951226402445 0.0
6.469120930453264 4.892267070266994 0.0
9.167223997255698 0.8102256463122337 0.0
6.236889648241256 0.9291076084031108 0.0
8.306379082772498 5.268830342852036 0.0
6.716089118890225 5.239344620507032 0.0
9.82511981852641 9.282822358664017 0.0
6.68375719572285 4.404998642130821 0.0
8.913754712375674 6.908138360584365 0.0
6.173250048857013 5.251634416326969 0.0
4.235907497612446 1.924052997345291 0.0
5.151007663981651 2.438629730660893 0.0
8.924254300637541 9.3764975797567 0.0
4.438612423541503 5.287968640901957 0.0
8.571203234299599 1.897009944569934 0.0
6.878800676380218 5.821332862798138 0.0
5.710626178601224 4.792560699857408 0.0
7.149510071621283 5.216310009157644 0.0
2.099966541549645 2.334742113488256 0.0
9.93396330620579 5.350566393301629 0.0
7.143046479323961 8.646955109387985 0.0
7.965747313080266 5.193641450105844 0.0
6.3314394693073 5.135050228240639 0.0
7.665821333021348 6.222698255001823 0.0
6.305321657053551 4.659816230868476 0.0
7.833020917089713 5.208837056143474 0.0
9.41455902676429 2.869725681199307 0.0
8.567151507735133 6.598605357295113 0.0
7.405527786978573 4.377085529441429 0.0
6.552969697053132 5.137148974085434 0.0
9.93630620742063 8.042778076596578 0.0
7.166743296019233 4.593171678848165 0.0
6.595561806063966 5.839366735225723 0.0
6.066152182102007 5.262519562574559 0.0
9.834694151277489 0.9093455747994099 0.0
8.98259191950674 7.579732466796592 0.0
6.465071238839505 5.25485771955322 0.0
9.759759896588413 3.236659507608532 0.0
4.775529448101694 5.224235675150505 0.0
9.935991245222917 7.153416415978829 0.0
0.6530736820718381 9.352299998916202 0.0
0.6449439415299687 0.6468300344151556 0.0
7.804690364869245 4.495816547678174 0.0
9.84503784553893 5.70620404704573 0.0
9.83525329400959 3.826992990746767 0.0
9.922964894244684 4.265000406933376 0.0
8.333767638401964 1.121219971446645 0.0
8.876012546033895 7.019147158538482 0.0
8.172413577824324 3.413096916572049 0.0
7.232233017296214 4.478957103028363 0.0
6.214597295185415 3.852860083673202 0.0
9.85013791746415 4.400709747289421 0.0
3.941627380932058 6.342995010255737 0.0
3.097271569675528 8.77391871286929 0.0
9.292917152323044 6.010976049411984 0.0
8.104342196673183 5.184165973282902 0.0
8.994300084006271 3.652611812846807 0.0
9.937157897030163 5.549999999993244 0.0
8.721368888525245 7.274540720770752 0.0
8.920003648712827 0.9516585309368178 0.0
7.910527456030004 8.536826514867816 0.0
9.846441288756814 4.60515911863952 0.0
9.584942233925151 4.712073182517884 0.0
9.642357858573972 6.805672051759494 0.0
9.797024725252207 9.838837222258014 0.0
9.842451438022124 4.018973836958878 0.0
6.112723137676118 3.704473949316424 0.0
7.574641969193845 3.765362276156904 0.0
7.826594968121701 6.200366572362263 0.0
7.762805366733504 9.34009502796868 0.0
9.56854033867856 1.012566255816665 0.0
7.71256563655353 5.219373702836014 0.0
9.68039392238282 8.786964504862018 0.0
5.910362452777086 9.277662068919813 0.0
7.418090653922814 3.326443419100716 0.0
9.857704179097952 4.697553149694669 0.0
8.452469674653342 8.996585816905599 0.0
9.522351366699843 2.057525484575908 0.0
7.802315574700843 9.548878971475935 0.0
9.938875656926385 3.449999999992592 0.0
8.425189037911712 6.608575180629274 0.0
5.925965231566842 2.523669697740033 0.0
6.654918072256329 5.95749128982984 0.0
9.826748589235729 9.631118448471485 0.0
8.6684585637523 7.39633999085442 0.0
9.844673843931567 3.090088625379724 0.0
9.93613850661301 2.250382721159617 0.0
9.218291993658738 2.892108990205171 0.0
9.83502846611296 8.212781989607324 0.0
7.754136409732265 7.104288507262783 0.0
8.510570542791681 2.036933285735889 0.0
7.757745059307245 4.315798612475442 0.0
7.989231770559189 6.201656630465583 0.0
8.068934521422738 4.198631572122605 0.0
4.957478134450373 9.038766150325067 0.0
7.208661142641733 6.501402463831379 0.0
7.299506095906239 4.363561999234681 0.0
8.250303873550486 2.105322217421675 0.0
8.678637541413377 7.053471135702286 0.0
9.761528395137384 6.163503990672834 0.0
9.84494857233395 8.59999999999775 0.0
9.83825138794677 3.672838954969637 0.0
5.121008544047756 5.808127183024784 0.0
8.343911550360986 4.043535893276861 0.0
9.85324441775315 5.899999999993774 0.0
9.51114465213134 8.41035540646284 0.0
6.505812179224195 6.93390566262983 0.0
6.15572847138365 9.023097246950844 0.0
3.352081892333425 3.024853379890529 0.0
6.433163283162099 8.675072413910678 0.0
8.825744236698243 3.624446391299867 0.0
4.883007294861279 7.819620905924936 0.0
5.876659170760434 5.638247433601083 0.0
6.859400040348503 6.510797998354633 0.0
7.946400945409184 3.500317276373196 0.0
7.496830255505493 6.653194511698024 0.0
9.852183479755313 4.891525833556942 0.0
9.77998778436291 2.922486526124376 0.0
6.774672660492365 5.324728659740495 0.0
5.717254072187427 6.824125962512845 0.0
9.713440940838062 4.63793103997539 0.0
8.859858662536796 0.2721395536350836 0.0
8.37556017530946 9.436653414116012 0.0
7.395237381047616 7.885576562773319 0.0
5.4709157802033 4.511152089197594 0.0
9.489749416979361 9.691840729914848 0.0
4.599216022837964 3.46438688931078 0.0
5.572287492757569 4.807021644849729 0.0
9.926499336309957 9.92730688390086 0.0
9.926499336310107 0.07269311609890093 0.0
9.338127766332573 0.3585313952168247 0.0
6.810761948165162 3.414693294319008 0.0
8.166274345037138 5.943611545564389 0.0
5.2892644736731 6.301081312912763 0.0
9.731911074791544 7.649313380659622 0.0
8.90251102352767 9.50983415326544 0.0
8.997881406541017 1.033666784655452 0.0
5.835124768755703 2.738139962594905 0.0
9.665357480775825 6.185331297099201 0.0
7.656532192558493 8.217157287499347 0.0
9.170463887605525 2.975444721032631 0.0
4.208158615905443 0.8648302238584886 0.0
6.97015686031129 5.933674629077266 0.0
6.181941366523793 3.565885175921835 0.0
3.30313590337911 6.393402837735046 0.0
6.447482061767014 4.816169316820496 0.0
8.185341428749446 4.169172087371246 0.0
4.552595724340015 8.298301336212145 0.0
9.84850676569699 8.999999999998423 0.0
9.846941514449377 7.393642828194986 0.0
7.924592433490734 2.788309934035703 0.0
8.154308714226714 8.853640122009672 0.0
8.876629743004642 1.96110242719995 0.0
7.228849192966834 8.90811350348676 0.0
9.852301635085423 8.296637825215246 0.0
5.219795195341889 5.547413133147649 0.0
9.861497117995457 6.901363010201344 0.0
2.953911258021604 6.136007283255669 0.0
6.93158841067062 4.77708273647784 0.0
9.67540418457871 2.912802891506324 0.0
4.194055958522277 4.437353127730132 0.0
6.133959559341536 0.406856611599261 0.0
8.29952795189331 9.309744645643846 0.0
9.843692337952948 1.209647690818311 0.0
5.164986286280336 6.671544079402435 0.0
9.838533350075606 2.081705440779448 0.0
8.301244777513975 6.604088853319459 0.0
5.471494771710784 2.714598185146428 0.0
8.86534684892311 1.208599471795828 0.0
9.940610684232212 1.451558535868664 0.0
9.40896208432968 1.428353940655538 0.0
2.329177605337097 4.238803555614174 0.0
5.980761651517799 7.182207186682233 0.0
9.66541573964336 0.1719254072074424 0.0
7.220979380229172 7.806128737674462 0.0
1.251721227904697 6.151932667911503 0.0
8.104967286191181 6.057912607875576 0.0
6.650768762224724 4.817922869198292 0.0
6.634976350437587 3.213339182992986 0.0
7.034320437500567 4.898219100342838 0.0
9.502772020064167 6.283064492634301 0.0
8.13187938667684 3.518506862055515 0.0
9.855471943454193 2.599999999994991 0.0
9.056747742708522 8.263936599935574 0.0
4.352645795441222 5.724453640019 0.0
3.744263984699181 1.488951698361357 0.0
5.175860134287045 3.6375726667098 0.0
7.736434712114619 6.400417475661193 0.0
9.857658576695343 6.316607183405179 0.0
7.876525261950537 4.304285002335559 0.0
9.856114384785611 7.914602773442983 0.0
9.848334119947063 0.7059644476295188 0.0
9.59694321995579 6.895814046141667 0.0
5.906465212962551 3.869023950643881 0.0
9.840676994268005 9.364956386459765 0.0
5.355015287544095 3.83518170601625 0.0
6.374090407153147 5.855743754257685 0.0
8.227401290513832 5.297819733684674 0.0
5.451235131977493 4.825706629991923 0.0
6.022070213762754 5.355923882747634 0.0
9.845674433677614 6.108401449483281 0.0
9.835067400944396 7.739582406783081 0.0
8.602026805792988 2.941372356914139 0.0
5.059869081004962 5.269480960018243 0.0
5.284714507903736 5.26496663762182 0.0
9.627110479149561 7.660076105040499 0.0
6.820001127809743 4.792514421153957 0.0
5.120512795059439 4.806607659110254 0.0
9.56933817216883 2.911464407429096 0.0
9.74091654291531 9.267545397628387 0.0
9.93006767325302 6.576784040838644 0.0
9.642486276936268 4.650227701598451 0.0
5.185183328569137 9.410919109238325 0.0
9.37052946854105 4.605636695802024 0.0
1.677077220416309 5.871167715901136 0.0
7.345783833404538 3.184020711886284 0.0
5.419239942654976 5.982692039856376 0.0
6.133318300188262 2.551919945731369 0.0
6.187291396343277 4.499077117404439 0.0
1.231465237822878 3.921479198315213 0.0
8.969849937139944 9.699215363213542 0.0
9.218303154263054 6.037447959776716 0.0
CELLS 4886 19544
3 1113 1356 1450
3 1402 231 1659
3 272 269 1414
3 396 394 1777
3 1451 945 1452
3 194 81 1801
3 1847 1501 2104
3 2024 2121 2479
3 1115 1113 1450
3 1124 1413 1844
3 1061 1955 2409
3 307 305 1645
3 1592 1369 1593
3 238 1501 1847
3 1955 1883 2409
3 1808 243 1910
3 1885 978 2362
3 1440 793 2092
3 189 1488 1608
3 353 350 1864
3 2007 2231 2232
3 307 1645 2493
3 1096 1760 2496
3 2178 874 2179
3 621 625 1595
3 1493 1480 1938
3 1655 1268 2137
3 1341 1410 2212
3 243 1808 2360
3 1902 1446 2516
3 1760 1096 1763
3 856 790 2180
3 2008 2046 2105
3 789 1809 2067
3 694 1543 1575
3 1127 1762 1953
3 1748 807 2228
3 1543 1308 1575
3 820 1872 2170
3 1417 954 1998
3 1369 1592 2386
3 272 1414 1787
3 329 333 1998
3 1544 1095 1545
3 2231 1490 2232
3 1342 1683 1790
3 374 377 1797
3 807 1678 2228
3 1665 198 2128
3 141 142 1620
3 325 322 1952
3 231 1402 1654
3 198 1665 2010
3 1890 1307 2387
3 208 1438 1619
3 2016 1970 2156
3 1436 212 2020
3 954 1417 2333
3 1736 1894 2244
3 1491 1750 2143
3 1677 1064 2146
3 1474 1258 1475
3 1500 233 1930
3 1446 2415 2516
3 1700 973 1800
3 2128 2270 2316
3 1316 1315 1593
3 1307 2341 2387
3 2258 1324 2328
3 1083 1507 1508
3 693 1095 1544
3 621 1595 1596
3 667 1571 1872
3 1932 1766 2061
3 393 391 2240
3 1342 1790 2400
3 252 1707 2234
3 931 978 1885
3 1430 1116 1704
3 1411 1109 1714
3 1478 1227 2440
3 1990 195 2297
3 1792 1167 1985
3 1682 444 1975
3 394 397 1777
3 1711 2028 2162
3 1574 856 2180
3 2008 1851 2046
3 736 1493 1938
3 1069 1060 1662
3 1458 455 1754
3 862 691 1705
3 1161 1642 2286
3 1699 1700 1800
3 447 516 1637
3 955 1482 1483
3 2024 206 2121
3 391 1773 2240
3 1072 1412 1893
3 212 1436 2350
3 1566 1365 1568
3 259 1441 1672
3 872 870 1764
3 330 328 1889
3 1539 1161 2286
3 1897 1898 2275
3 1434 1990 2297
3 1109 1411 1730
3 319 307 2493
3 1762 1761 1953
3 1369 1316 1593
3 1540 834 1832
3 1505 652 2442
3 1732 1655 2137
3 921 1712 2295
3 1872 1388 2170
3 1712 921 2125
3 2028 244 2162
3 1506 1570 1680
3 1569 368 1964
3 1571 667 2375
3 1587 2178 2179
3 196 1723 1737
3 524 2016 2156
3 1528 1250 1733
3 1115 1450 1973
3 1938 1480 1971
3 1809 1396 2067
3 1641 249 2299
3 1223 1258 1474
3 1365 1566 2120
3 1981 962 2316
3 1538 353 1864
3 455 1458 1756
3 152 233 1500
3 1116 1430 1703
3 817 652 1505
3 1347 2003 2004
3 1607 1958 2085
3 194 1801 2195
3 1410 1341 2351
3 223 1415 1710
3 197 1511 2346
3 2198 787 2225
3 81 82 1801
3 1438 208 1620
3 1444 522 1823
3 1511 197 1950
3 726 718 1567
3 1637 516 1739
3 1708 2337 2341
3 1280 1649 2124
3 2337 1395 2341
3 1327 1709 2315
3 1225 1227 1478
3 691 624 1705
3 476 2224 2305
3 830 832 2204
3 1750 1491 2403
3 1366 1897 2275
3 2345 1583 2352
3 2054 405 2110
3 1984 2172 2230
3 1846 2198 2225
3 1177 2042 2418
3 2121 1367 2479
3 1527 1531 1541
3 916 1039 1834
3 1413 1124 2467
3 1622 1503 1868
3 249 1641 2019
3 1805 405 2054
3 1761 1007 1953
3 1415 223 2395
3 960 1756 2203
3 368 1569 2135
3 1402 1659 2473
3 941 1433 2471
3 1267 1477 1501
3 260 2002 2265
3 1704 558 2077
3 2224 1886 2305
3 2053 1386 2199
3 1452 945 1952
3 1717 1611 1718
3 1682 1975 2230
3 1760 1762 2496
3 1481 203 2104
3 1264 1266 1670
3 142 236 1620
3 2133 1182 2179
3 1791 1602 2183
3 350 346 1864
3 1412 1072 2393
3 1281 1575 2255
3 1565 1948 2155
3 849 1449 1513
3 1958 396 2085
3 1339 1069 1662
3 834 1540 1917
3 269 267 1414
3 1268 1267 1501
3 1440 2092 2468
3 1399 1981 2316
3 1635 1636 2041
3 1454 252 2234
3 1451 1305 1890
3 1375 1883 1955
3 362 366 1786
3 1484 2410 2528
3 1449 849 1640
3 1267 1474 1477
3 200 1611 1717
3 1054 1581 1582
3 1350 1977 2253
3 190 1390 2118
3 788 1956 2193
3 1709 1327 1888
3 2233 2298 2413
3 1488 189 2355
3 478 1685 1714
3 230 1525 1690
3 1687 478 1688
3 427 429 1756
3 1570 1065 2476
3 1880 1133 1988
3 1649 656 2124
3 1537 209 1614
3 1134 1769 1986
3 1220 1268 1655
3 396 1777 2085
3 1167 1755 1985
3 2229 1744 2296
3 1575 1281 2287
3 127 240 1882
3 377 647 1797
3 954 329 1998
3 220 1697 1698
3 1342 1341 2212
3 1441 264 1672
3 1512 188 2433
3 763 2345 2352
3 1685 1411 1714
3 1805 1188 1951
3 1347 2004 2157
3 1054 1582 1667
3 1333 1617 1674
3 2217 73 2361
3 1539 1036 1917
3 1039 1292 1834
3 208 141 1620
3 1965 1964 2038
3 693 1544 1969
3 1453 239 2279
3 203 1481 2049
3 945 1451 1889
3 680 1459 2134
3 354 2147 2196
3 1405 1932 2061
3 1723 1722 1737
3 1748 1175 1927
3 1532 1528 1733
3 2057 1824 2154
3 1406 1659 1702
3 1948 1186 2155
3 210 1598 2114
3 1685 478 1687
3 1324 1325 2328
3 1526 1250 1527
3 165 166 1509
3 1493 736 2523
3 1526 1527 1541
3 1390 190 2417
3 522 1444 1998
3 1680 1570 1732
3 1017 1442 2525
3 374 1797 2430
3 1507 1083 2197
3 1756 960 2221
3 2270 1400 2316
3 2205 1452 2282
3 1074 1187 1888
3 2158 1245 2200
3 1442 1017 1684
3 864 1116 1703
3 1750 1751 2143
3 1456 516 1492
3 1677 2146 2149
3 2022 1339 2388
3 1602 258 2183
3 678 1594 1595
3 1245 1670 2200
3 972 830 2204
3 2143 983 2342
3 1268 1501 2226
3 1266 1461 1670
3 1487 222 2465
3 1382 2022 2388
3 58 59 1661
3 2147 1543 2196
3 1484 1485 2410
3 628 2053 2199
3 1906 1549 2259
3 364 362 1786
3 1339 2022 2247
3 1636 525 2041
3 625 678 1595
3 678 1593 1594
3 2212 1410 2222
3 1837 1865 2215
3 1699 1800 1801
3 866 864 1703
3 893 1472 1982
3 1735 1736 2244
3 1633 1255 1922
3 126 127 1882
3 681 867 1656
3 1351 1401 2363
3 11 228 1588
3 1127 1953 2454
3 265 266 267
3 1722 1122 1737
3 1389 1691 2069
3 1613 1610 1616
3 1227 1256 2440
3 429 455 1756
3 1535 1177 2418
3 322 324 1952
3 973 1700 1802
3 1964 368 2038
3 1176 1865 1866
3 1096 872 1764
3 1176 1866 1875
3 193 1839 1892
3 156 157 1441
3 615 617 1596
3 686 1520 2480
3 1409 2097 2305
3 2410 1151 2528
3 1427 2217 2361
3 440 1911 2314
3 1744 1743 2296
3 516 1456 1739
3 1939 589 2164
3 690 931 2150
3 1062 1579 1580
3 1054 1580 1581
3 955 1483 1716
3 1064 1677 2248
3 1956 1616 2193
3 1776 1893 2026
3 1398 1115 1973
3 2002 1453 2265
3 1541 1531 1542
3 216 2191 2536
3 1736 1326 1894
3 1065 994 1066
3 1598 2115 2175
3 2314 1911 2358
3 1433 941 2042
3 2115 1209 2175
3 717 1550 1551
3 188 1941 2433
3 267 1132 1414
3 771 1569 2064
3 1157 1545 1546
3 1231 1250 1526
3 1933 240 2181
3 222 1487 2025
3 1525 230 1765
3 1430 1704 2077
3 757 1744 2495
3 264 263 265
3 883 773 1917
3 739 2205 2282
3 1667 1582 2434
3 1744 757 2474
3 239 1453 2002
3 1441 259 2356
3 2005 1443 2012
3 254 1766 1932
3 1509 166 1679
3 1477 1475 1481
3 793 1440 2165
3 1385 1523 2377
3 1481 1475 2523
3 156 1441 2356
3 1066 1220 1655
3 945 325 1952
3 2094 2087 2134
3 1747 1175 1748
3 253 262 263
3 1327 1074 1888
3 718 715 1567
3 2046 1043 2105
3 240 1933 2399
3 1305 1307 1890
3 224 58 1661
3 1195 1566 2285
3 1590 1393 1749
3 1255 1230 1922
3 353 1538 2073
3 358 1999 2325
3 882 1802 2036
3 1024 1020 1604
3 333 522 1998
3 1401 1351 2414
3 1475 1258 1476
3 2310 786 2364
3 328 945 1889
3 807 1748 1927
3 825 724 1912
3 1742 263 2491
3 267 266 1132
3 2077 2102 2203
3 1431 1432 1860
3 1212 1957 2312
3 2097 476 2305
3 1132 1402 2473
3 717 713 1550
3 1746 693 1969
3 1372 1124 1844
3 1256 1541 2269
3 1977 1350 2274
3 2332 1978 2443
3 874 2133 2179
3 1983 1534 2171
3 1157 1544 1545
3 1230 1228 1922
3 1580 1579 1581
3 1565 806 1948
3 1416 1363 2413
3 1287 1995 2398
3 265 263 266
3 1534 1529 2171
3 1604 1834 2428
3 1255 1633 2509
3 1344 1643 1644
3 1332 1388 1571
3 1423 217 2217
3 2191 1057 2451
3 458 447 1637
3 1250 1233 1733
3 472 2212 2222
3 1175 1747 1840
3 1652 256 1653
3 1073 1347 1572
3 200 145 1609
3 683 640 1585
3 1116 862 1705
3 1221 1223 1474
3 1778 801 1803
3 1503 1622 2471
3 1475 1493 2523
3 464 680 2134
3 14 210 2114
3 579 1880 1988
3 1434 1435 1990
3 1447 2310 2364
3 275 274 276
3 2294 1871 2419
3 814 1068 1684
3 1172 1439 2273
3 273 272 274
3 1363 1416 2406
3 1220 1219 1221
3 1060 1656 1662
3 1099 1792 1985
3 2048 1198 2168
3 1241 1245 2323
3 699 723 1753
3 1640 1862 2070
3 910 1018 1584
3 1586 1067 1587
3 1656 867 1662
3 1067 686 2480
3 654 2242 2294
3 1593 1315 1594
3 1880 553 1974
3 236 1717 1718
3 617 621 1596
3 1723 196 2313
3 402 1877 2116
3 273 274 275
3 2202 1869 2252
3 1510 1358 1767
3 193 1892 2373
3 1188 1805 2054
3 1220 1221 1267
3 1066 1218 1219
3 1517 1097 1518
3 1677 1676 1858
3 686 277 1520
3 268 267 269
3 697 857 1592
3 220 1698 1699
3 1802 1700 2036
3 1612 1537 1614
3 929 817 994
3 228 12 2136
3 2110 2116 2482
3 1659 1658 1702
3 1611 1613 2280
3 1344 991 1643
3 683 1585 1604
3 1638 1358 2404
3 1485 1034 2410
3 2214 833 2424
3 271 272 273
3 1482 955 1962
3 1066 1219 1220
3 931 1885 2150
3 1613 1891 2280
3 1189 1589 2204
3 1566 1195 2120
3 726 1567 2490
3 1122 1722 1874
3 1494 319 2493
3 1671 259 1672
3 1267 1221 1474
3 603 528 1591
3 1664 2128 2316
3 1817 1924 2174
3 1626 1660 2111
3 1474 1475 1477
3 1023 1062 1580
3 1957 1599 2312
3 1764 1939 2164
3 1358 1950 2404
3 200 1609 1610
3 1431 1082 1432
3 1778 1803 2521
3 1830 1832 2075
3 1930 233 2369
3 1329 1482 1650
3 757 1959 2522
3 1239 1247 1597
3 758 1978 2332
3 1569 1290 2064
3 216 1694 2191
3 1453 1420 2265
3 1549 1906 2129
3 24 215 1674
3 19 235 1676
3 1621 1057 2191
3 1691 1389 2262
3 1617 1333 2192
3 929 994 1065
3 1769 1672 1986
3 1893 1412 2026
3 1609 1537 1612
3 271 269 272
3 1373 1438 1620
3 217 1423 2381
3 517 330 1889
3 1322 1055 1667
3 1974 553 2499
3 228 2136 2187
3 1589 1189 1788
3 1999 1577 2325
3 2110 405 2116
3 189 1608 1842
3 1055 1050 1667
3 739 1455 2205
3 1865 1176 2215
3 319 1494 2522
3 2474 757 2522
3 1484 227 1485
3 10 11 1588
3 723 809 1753
3 27 230 1689
3 1550 806 1565
3 1179 1180 1217
3 207 1617 2192
3 1433 1217 1502
3 1562 1556 1606
3 1379 2017 2018
3 1245 2158 2323
3 675 1097 1517
3 884 501 1599
3 1020 683 1604
3 1603 1095 1848
3 1001 2057 2154
3 1604 1585 1834
3 1610 1612 1616
3 1764 870 1939
3 2242 1871 2294
3 1669 1264 1670
3 1658 213 1702
3 1995 1646 2398
3 631 539 1600
3 1491 2143 2342
3 1801 1800 2195
3 1200 1199 1693
3 1535 940 1861
3 1534 758 2332
3 914 2258 2328
3 1588 228 2457
3 216 138 1694
3 151 152 1500
3 1133 1880 1974
3 1677 1858 2248
3 1294 1622 1868
3 875 1010 1767
3 1379 2018 2416
3 1279 2202 2252
3 182 256 1652
3 1592 857 2386
3 672 681 1656
3 615 1596 1824
3 1093 1487 1623
3 1823 522 2100
3 1245 1242 1669
3 1582 1581 1583
3 758 1534 2306
3 1975 1984 2230
3 1358 1510 1950
3 1663 1336 1665
3 2102 960 2203
3 366 1087 1786
3 1740 1490 2231
3 21 207 1709
3 145 146 1609
3 2339 765 2384
3 603 1591 1668
3 2081 199 2149
3 1540 1832 1879
3 1721 1723 1947
3 1754 455 1793
3 1751 1753 2119
3 882 1701 1807
3 1540 1539 1917
3 242 1695 1697
3 1521 354 2091
3 1363 2233 2413
3 1584 1018 1925
3 703 1067 1586
3 1177 1178 1179
3 795 916 1834
3 277 276 607
3 1571 1388 1872
3 22 23 1617
3 1097 823 1177
3 25 26 1624
3 419 418 1790
3 1728 1906 2259
3 440 1455 2261
3 1877 1318 2116
3 1488 1156 1608
3 1439 2130 2273
3 1889 1451 1890
3 1614 209 2389
3 1472 893 2094
3 675 821 823
3 23 24 1674
3 1788 1190 2183
3 917 941 1622
3 1763 1096 1764
3 1068 1442 1684
3 1034 1485 2173
3 2172 1533 2230
3 138 139 1694
3 1065 1570 2197
3 607 674 675
3 1536 1248 2268
3 229 135 1734
3 1437 1925 1926
3 680 510 1646
3 147 209 1537
3 26 27 1689
3 1627 705 2163
3 206 1651 2121
3 2409 1785 2462
3 1492 682 2447
3 1223 1225 1258
3 889 1772 2374
3 253 263 264
3 275 276 277
3 1455 739 2261
3 2022 1382 2176
3 150 227 1484
3 639 1019 1591
3 1449 1640 2070
3 1082 833 2214
3 1503 1502 1504
3 144 200 1717
3 1643 991 1713
3 1190 1791 2183
3 1538 1804 2073
3 1256 2269 2440
3 18 19 1676
3 521 531 2000
3 790 849 2180
3 1075 1329 1650
3 1087 1782 1785
3 1066 994 1218
3 270 269 271
3 682 1492 2494
3 185 252 1454
3 253 158 262
3 1629 1632 1633
3 200 1610 1611
3 1477 1481 2104
3 1623 1487 2465
3 1518 1097 1535
3 1414 1132 2460
3 1179 1217 1433
3 177 1506 1680
3 1392 1017 2525
3 1832 834 2075
3 675 823 1097
3 1459 2094 2134
3 1782 1087 1795
3 1838 1730 2372
3 1639 149 2528
3 1617 23 1674
3 2265 1420 2489
3 180 232 1859
3 1527 1250 1528
3 20 21 1709
3 1083 1508 2311
3 903 866 1703
3 1455 440 2314
3 1187 1858 1888
3 1659 1406 2473
3 1446 1902 2166
3 421 1951 2106
3 1598 210 2115
3 154 259 1671
3 1288 1835 2080
3 1832 1831 1879
3 1258 1225 1478
3 1024 1604 2117
3 1263 1429 1739
3 706 705 1627
3 1583 1581 2352
3 407 1805 1951
3 856 1574 2527
3 1701 882 2036
3 1624 26 1689
3 717 1551 1552
3 1385 2377 2391
3 2302 1745 2354
3 1572 1347 2157
3 1036 883 1917
3 1689 1690 1691
3 1664 1665 2128
3 1476 1479 1480
3 1751 2119 2143
3 815 814 1684
3 1790 889 2400
3 1606 1607 2085
3 265 267 268
3 418 889 1790
3 1522 1521 2091
3 135 136 1734
3 1726 1445 1729
3 647 1796 1797
3 1346 1453 2279
3 1293 1827 2117
3 1242 1244 1669
3 1853 1852 1854
3 889 2374 2400
3 1039 1038 1290
3 1524 628 2199
3 1331 1332 1571
3 1291 1290 1569
3 1475 1476 1493
3 1850 1852 1853
3 1490 1740 2456
3 1689 230 1690
3 1256 1526 1541
3 1704 1705 2167
3 1465 1470 1675
3 956 1073 1572
3 1613 1616 1956
3 916 917 1038
3 2014 1522 2091
3 1221 1222 1223
3 1999 763 2352
3 234 10 1588
3 1697 220 2335
3 1527 1528 1529
3 2298 1600 2413
3 1436 2020 2254
3 1642 1161 1678
3 1523 1385 2436
3 1730 1838 2426
3 795 796 916
3 713 711 1550
3 1456 1263 1739
3 999 1336 1663
3 1785 1784 2462
3 409 415 1783
3 607 675 1517
3 1229 1231 1526
3 1958 1855 2078
3 1589 1588 1590
3 1933 261 2380
3 762 1965 2038
3 1756 1458 2203
3 1776 597 1893
3 1794 1072 1893
3 188 1512 2266
3 1774 2339 2384
3 188 1908 1941
3 1010 1510 1767
3 2189 2285 2307
3 773 834 1917
3 1245 1669 1670
3 1248 1597 2268
3 146 1537 1609
3 818 910 1584
3 1641 1313 1651
3 1217 1745 2302
3 1065 1066 1655
3 1597 1247 2047
3 1360 2177 2376
3 1612 1615 1616
3 2126 867 2186
3 1019 683 1020
3 1747 892 1840
3 1092 1093 1623
3 261 1933 2181
3 400 424 1666
3 1516 1903 2377
3 1100 1392 1605
3 247 1738 1881
3 268 1134 1986
3 1177 823 1178
3 884 1599 1957
3 263 262 2491
3 806 1627 1948
3 1227 1229 1256
3 191 1729 2504
3 1636 1635 2502
3 1480 1479 1601
3 1721 1947 2498
3 1924 1146 2174
3 229 1734 1735
3 175 204 1725
3 1179 1178 1180
3 354 1521 2147
3 665 697 1592
3 640 646 1585
3 627 545 1636
3 1882 240 2399
3 1556 1555 1606
3 1373 1620 2394
3 1871 1071 2419
3 548 1628 1629
3 455 436 1793
3 974 1831 1841
3 1844 1413 2392
3 1612 1614 1615
3 209 1639 1937
3 1329 1330 1331
3 1823 2100 2142
3 1097 1177 1535
3 1021 1020 1022
3 825 1912 2455
3 913 1122 1874
3 400 1666 2113
3 1256 1229 1526
3 1419 1418 2450
3 1552 1551 1553
3 1850 1099 1852
3 1629 1631 1632
3 801 685 2029
3 1618 1619 1621
3 265 268 1986
3 1715 2165 2330
3 1531 1529 1534
3 1022 1024 1576
3 658 693 1746
3 703 686 1067
3 1062 1576 1577
3 1023 1022 1062
3 236 1718 2394
3 1688 502 1740
3 1501 1477 2104
3 213 165 1509
3 646 795 1585
3 196 1737 1738
3 379 679 1795
3 639 640 683
3 924 875 1767
3 1752 699 1753
3 207 2192 2315
3 627 1636 1660
3 1217 1180 1745
3 730 728 1833
3 528 561 1591
3 1444 1417 1998
3 252 186 1602
3 1729 1445 2504
3 460 502 1688
3 1418 946 1778
3 1203 1200 1693
3 548 470 1628
3 849 668 1640
3 646 785 795
3 607 276 674
3 14 15 210
3 147 148 209
3 478 460 1688
3 1709 207 2315
3 1157 1546 1608
3 1155 1731 1899
3 1524 1934 2390
3 1775 921 1876
3 1433 1502 1503
3 470 458 1628
3 1223 1224 1225
3 1291 1569 1964
3 871 1056 1826
3 1781 1783 1915
3 1587 1067 2300
3 916 1038 1039
3 1388 1387 1389
3 1611 1610 1613
3 1075 1328 1329
3 1039 1290 1291
3 1538 1265 1804
3 1184 1185 2163
3 597 598 1794
3 1450 1356 2421
3 1835 576 2080
3 1629 1628 1631
3 1331 1330 1332
3 561 639 1591
3 1476 1480 1493
3 705 703 1586
3 639 683 1019
3 1951 1188 2106
3 436 446 1793
3 1472 1297 2142
3 1332 1387 1388
3 1345 984 1720
3 1329 1328 1330
3 1050 1048 1667
3 150 151 227
3 11 12 228
3 557 541 2256
3 1831 974 1879
3 134 229 1766
3 1357 1358 1638
3 1336 1641 2299
3 1650 1482 1962
3 1591 1019 2512
3 1506 1507 1570
3 1803 801 2029
3 1178 823 1972
3 1552 1553 1554
3 1290 1038 1294
3 1028 1313 1641
3 1237 1239 1597
3 993 1017 1100
3 893 2087 2094
3 149 1484 2528
3 1768 1142 1949
3 9 234 1673
3 1554 1553 1555
3 668 632 1640
3 711 806 1550
3 1628 458 1637
3 1098 1829 1830
3 1482 1331 1483
3 531 1818 2000
3 435 419 1790
3 1156 1157 1608
3 1182 1184 2179
3 510 512 1646
3 1231 1233 1250
3 946 841 1778
3 1483 1331 1571
3 1459 680 2458
3 1166 1040 1210
3 892 1657 1820
3 1042 1445 1726
3 1019 1020 1021
3 749 805 1810
3 234 1588 1589
3 1695 242 1892
3 556 1853 2483
3 1018 1572 1573
3 1529 1528 1530
3 1606 1558 1607
3 1761 1759 2308
3 1396 1032 1921
3 1018 956 1572
3 689 1150 1416
3 1827 1293 2515
3 149 150 1484
3 1647 656 1648
3 1543 694 2196
3 399 409 1783
3 545 525 1636
3 268 269 270
3 715 713 717
3 1100 1017 1392
3 1657 892 1747
3 207 22 1617
3 1666 884 2249
3 1671 1672 1769
3 1554 1555 1556
3 146 147 1537
3 1081 1444 1822
3 711 709 806
3 1443 2005 2322
3 660 658 1746
3 1166 1458 1754
3 916 796 917
3 1056 1728 1826
3 1068 1069 1275
3 184 185 1454
3 158 159 262
3 2007 1687 2231
3 805 1708 1810
3 1672 264 1986
3 1561 1562 1563
3 978 1075 1650
3 1590 1588 2457
3 215 25 1624
3 1551 1550 1565
3 1073 1346 1347
3 857 818 1584
3 1648 656 1649
3 675 674 821
3 561 594 639
3 1731 529 1899
3 2303 1454 2535
3 981 903 1040
3 1630 1629 1633
3 993 877 1017
3 724 718 726
3 512 603 1646
3 1676 235 1858
3 814 1060 1068
3 715 717 1567
3 1796 647 1870
3 1715 1171 2165
3 678 1592 1593
3 644 613 1824
3 1690 1525 2145
3 1297 1822 1823
3 271 656 1647
3 1704 1116 1705
3 1225 1226 1227
3 1275 1069 1338
3 910 956 1018
3 1824 1596 2154
3 1403 1100 1605
3 1221 1219 1222
3 1068 1060 1069
3 1901 245 1949
3 1081 1055 1321
3 1751 563 1752
3 1021 1022 1023
3 672 638 681
3 1095 657 1848
3 1235 1237 1248
3 1561 1556 1562
3 1265 1259 1804
3 524 1819 2016
3 978 1650 2362
3 1492 516 2494
3 229 1735 2061
3 185 186 252
3 157 158 253
3 152 153 233
3 9 10 234
3 1527 1529 1531
3 1808 1344 2360
3 1062 1577 1579
3 1509 1679 1977
3 424 454 1666
3 637 638 672
3 981 1040 1166
3 1555 1558 1606
3 751 749 1810
3 1166 1210 1458
3 1651 1313 2121
3 15 16 2260
3 1633 1632 2509
3 2167 1705 2276
3 551 602 2045
3 697 818 857
3 364 1786 1883
3 832 1189 2204
3 1476 1478 1479
3 678 665 1592
3 213 1509 2096
3 1015 888 1124
3 1062 1022 1576
3 679 1782 1795
3 680 1646 1995
3 1101 1100 1403
3 1109 433 1714
3 1248 1237 1597
3 733 730 1833
3 1702 213 2096
3 499 498 1828
3 1418 1778 2521
3 637 600 638
3 1048 1046 1054
3 1577 1576 1578
3 814 766 1060
3 1279 2252 2292
3 474 470 548
3 199 18 1676
3 157 253 1441
3 1048 1054 1667
3 471 472 2290
3 625 665 678
3 795 785 796
3 1264 1265 1266
3 1437 1926 2350
3 1362 2048 2168
3 1394 2337 2371
3 454 884 1666
3 1022 1020 1024
3 751 1810 1923
3 1046 1023 1580
3 1807 1701 1931
3 1618 208 1619
3 566 588 689
3 1828 498 1829
3 501 509 1599
3 1118 780 1775
3 878 817 929
3 1510 1511 1950
3 1618 1621 1694
3 1052 1081 1822
3 1416 1150 1715
3 1239 1241 1247
3 1396 1921 2067
3 1751 1752 1753
3 1264 1259 1265
3 539 566 1600
3 1762 1127 2496
3 1673 1788 2183
3 1555 1557 1558
3 1052 1050 1055
3 725 724 825
3 1142 1770 1771
3 681 853 867
3 454 501 884
3 1346 1420 1453
3 932 1147 1770
3 1546 1545 1547
3 533 582 1818
3 1266 1337 1460
3 1872 820 2318
3 1117 1119 1713
3 1081 1321 1417
3 1253 1259 1264
3 1569 771 2135
3 1052 1055 1081
3 1181 1178 1972
3 709 706 1627
3 1073 1076 1346
3 1098 1828 1829
3 1382 1380 2176
3 1442 1275 1443
3 919 999 1663
3 1789 828 1855
3 877 815 1684
3 509 539 631
3 992 877 993
3 1266 1265 1337
3 2268 1498 2340
3 1130 1032 1396
3 1095 1603 2508
3 886 826 887
3 531 533 1818
3 1131 1400 1881
3 447 437 516
3 2460 1132 2473
3 940 1535 2418
3 768 1873 2037
3 1813 1869 1954
3 1627 2163 2488
3 1497 1495 1645
3 1198 1409 2168
3 724 726 1912
3 1869 987 1954
3 763 1999 2338
3 1010 1170 1374
3 984 976 1720
3 1470 1743 1744
3 689 588 1150
3 1901 1949 2359
3 1640 632 1862
3 274 272 1787
3 563 564 1752
3 994 817 1505
3 737 1807 1931
3 1770 1147 1771
3 1233 1235 1733
3 2450 1418 2521
3 414 410 1821
3 908 1099 1850
3 1227 1228 1229
3 1692 1203 1693
3 1625 216 2194
3 512 528 603
3 1377 1357 1638
3 1465 1464 1470
3 1360 1359 2177
3 1686 2007 2095
3 1336 1028 1641
3 1857 751 1923
3 1758 572 1759
3 553 541 557
3 1171 1715 1811
3 956 1003 1073
3 1467 1465 1675
3 719 718 724
3 1509 1977 2096
3 1734 1625 1736
3 1503 1504 1868
3 592 597 1776
3 180 181 232
3 162 163 231
3 2308 1759 2370
3 1357 1114 1358
3 875 946 1010
3 509 631 1599
3 17 18 199
3 144 145 200
3 1099 906 1792
3 1469 1467 1494
3 605 589 1939
3 1208 1205 1211
3 354 344 2091
3 692 782 804
3 1010 946 1170
3 1463 1462 1464
3 716 715 718
3 714 713 715
3 271 273 656
3 139 1618 1694
3 549 277 686
3 673 672 766
3 1378 1377 1379
3 2007 868 2095
3 999 1028 1336
3 1208 1211 1447
3 601 545 627
3 1119 1643 1713
3 1332 1333 1387
3 910 912 956
3 520 521 2000
3 828 1789 1819
3 277 607 1520
3 1338 1339 2247
3 818 819 910
3 767 766 814
3 712 711 713
3 1494 1467 1675
3 639 594 640
3 2044 557 2256
3 235 20 1709
3 1620 236 2394
3 804 919 962
3 1862 702 2070
3 681 852 853
3 1559 1556 1561
3 1622 941 2471
3 2165 1440 2330
3 612 644 692
3 697 698 818
3 1903 1516 1994
3 371 379 1795
3 428 426 2138
3 1290 1294 2064
3 1384 1904 2432
3 566 689 1600
3 471 452 472
3 1092 1091 1093
3 1002 1131 1719
3 1090 1089 1091
3 875 841 946
3 1758 1760 1763
3 1562 1606 2085
3 1833 1830 2075
3 178 179 214
3 164 165 213
3 769 923 1815
3 692 644 782
3 804 782 919
3 182 183 256
3 160 161 257
3 1329 1331 1482
3 962 1663 1664
3 1177 1179 2042
3 403 405 1805
3 1461 1460 1462
3 140 208 1618
3 1859 232 1860
3 274 1787 2099
3 1381 2126 2186
3 1558 1560 1789
3 430 428 682
3 452 435 1683
3 1487 1156 1488
3 1470 1464 1743
3 597 1794 1893
3 1244 1253 1669
3 962 919 1663
3 258 8 1673
3 1087 1785 1786
3 970 1042 1726
3 199 1677 2149
3 1664 1663 1665
3 1229 1230 1231
3 991 827 1713
3 792 1603 1848
3 1822 1444 1823
3 665 666 697
3 19 20 235
3 142 143 236
3 728 1098 1833
3 532 530 1898
3 1015 1124 1372
3 1546 1547 1548
3 1851 1850 1853
3 1877 393 2240
3 923 1105 1815
3 1090 1091 1092
3 687 686 703
3 1683 435 1790
3 887 826 1961
3 684 663 1089
3 426 1934 2138
3 464 510 680
3 853 854 855
3 568 572 1758
3 1376 1357 1377
3 1205 1203 1692
3 1607 1789 1855
3 710 709 711
3 780 781 1775
3 1434 1103 1435
3 876 815 877
3 766 672 1656
3 1393 1590 2457
3 684 1089 1090
3 530 890 1898
3 926 1920 1943
3 696 414 1821
3 1563 1562 1777
3 1054 1046 1580
3 1398 1973 1974
3 137 216 1625
3 1210 1040 1430
3 1750 563 1751
3 2010 1665 2299
3 1510 1374 1511
3 1777 1562 2085
3 1707 252 1791
3 1932 1404 1933
3 459 438 1814
3 139 140 1618
3 1093 1156 1487
3 231 163 1658
3 699 722 723
3 1545 1095 2508
3 598 612 1794
3 579 554 1880
3 1941 1908 2401
3 1231 1232 1233
3 1831 1829 1841
3 1037 1383 1799
3 177 178 1506
3 636 600 637
3 1036 1539 2286
3 1356 1114 1357
3 1523 1516 2377
3 704 703 705
3 403 402 405
3 648 792 1848
3 723 756 808
3 1388 1389 2170
3 933 932 1770
3 223 1710 1711
3 1779 399 1783
3 1223 1222 1224
3 1028 1029 1313
3 257 161 1654
3 418 412 421
3 734 882 1807
3 693 657 1095
3 1368 1370 1436
3 136 137 1625
3 688 652 817
3 1075 1327 1328
3 540 479 1813
3 398 395 402
3 548 1629 1630
3 574 591 699
3 1469 1494 1495
3 1041 1598 2175
3 167 168 202
3 175 176 204
3 2045 2046 2201
3 186 187 1602
3 886 887 888
3 1253 1254 1259
3 8 9 1673
3 792 655 810
3 843 1145 1960
3 1180 1349 1745
3 1165 1345 1512
3 708 706 709
3 136 1625 1734
3 21 22 207
3 140 141 208
3 625 626 665
3 1093 1094 1156
3 1585 795 1834
3 1117 1713 1806
3 599 579 600
3 810 871 1826
3 1047 1046 1048
3 1292 1291 1293
3 161 162 1654
3 199 1676 1677
3 1260 1282 1804
3 1005 1142 1768
3 1233 1234 1235
3 792 810 922
3 1122 1719 1737
3 976 985 1720
3 1278 1279 2292
3 2390 1934 2531
3 1436 1437 2350
3 270 271 1647
3 1199 966 1846
3 1683 1342 2212
3 656 273 2124
3 699 591 722
3 1977 1139 2096
3 1738 1719 1881
3 1722 985 1874
3 1797 1448 1798
3 162 231 1654
3 632 604 1862
3 252 1602 1791
3 1051 1050 1052
3 1045 1023 1046
3 648 655 792
3 993 1100 1101
3 1321 1055 1322
3 806 709 1627
3 904 903 981
3 1220 1267 1268
3 648 605 655
3 1737 1719 1738
3 385 399 1779
3 506 499 1828
3 1132 266 1402
3 1170 1418 1419
3 1323 2302 2354
3 24 25 215
3 137 138 216
3 721 965 1919
3 1787 1414 2460
3 778 1117 1806
3 723 722 756
3 407 403 1805
3 564 574 1752
3 1049 1048 1050
3 842 841 875
3 1608 1546 1842
3 809 808 899
3 1517 1519 1520
3 1530 1532 1533
3 889 421 1772
3 913 1002 1122
3 1314 1316 1367
3 1017 877 1684
3 841 802 1778
3 1235 1236 1237
3 751 1857 1900
3 1114 924 1767
3 1344 1644 2360
3 1895 1394 2371
3 1518 1535 1861
3 1758 1759 1760
3 1122 1002 1719
3 546 563 1750
3 1056 1726 1727
3 663 660 1746
3 621 622 625
3 1720 985 1721
3 1857 1843 1900
3 808 756 913
3 1056 970 1726
3 27 28 230
3 134 135 229
3 908 906 1099
3 163 164 1658
3 1727 1726 1729
3 7 8 258
3 154 155 259
3 1101 1403 1404
3 808 913 1874
3 1260 1269 1282
3 1389 1387 2262
3 1297 1053 1822
3 1555 1553 1557
3 1463 1464 1465
3 230 28 1765
3 1237 1238 1239
3 554 553 1880
3 775 778 1806
3 985 899 1874
3 1270 1524 2199
3 489 1820 1936
3 692 1072 1794
3 1472 2142 2272
3 1845 496 1929
3 438 431 1814
3 613 615 1824
3 1241 1242 1245
3 1783 415 1915
3 1192 2081 2149
3 178 214 1506
3 1816 988 1817
3 1760 1759 1761
3 1103 1092 1623
3 1512 1345 1661
3 1876 921 2295
3 1165 984 1345
3 978 1074 1075
3 1239 1240 1241
3 542 541 553
3 813 988 1816
3 1148 984 1165
3 871 970 1056
3 472 452 1683
3 1207 1796 1870
3 1167 1166 1754
3 1296 1053 1297
3 966 964 1846
3 976 899 985
3 982 976 984
3 702 1815 2015
3 900 899 976
3 1143 995 1206
3 1576 1024 1827
3 1235 1248 1733
3 1558 1557 1560
3 943 995 1143
3 1920 1144 1943
3 1471 2115 2477
3 29 30 255
3 132 133 254
3 1630 1633 1634
3 1225 1224 1226
3 1925 1573 1926
3 1211 1205 1692
3 725 825 826
3 1113 924 1114
3 600 579 1988
3 717 1552 1567
3 1820 1657 1936
3 674 276 2099
3 395 393 1877
3 572 543 1897
3 1575 1308 2255
3 999 1000 1028
3 1118 1775 1876
3 1797 1798 2430
3 526 546 559
3 867 853 2186
3 1142 1771 1949
3 1068 1275 1442
3 679 385 1779
3 1607 1558 1789
3 580 568 1758
3 1244 1252 1253
3 1760 1761 1762
3 398 402 403
3 1476 1258 1478
3 418 421 889
3 1771 1147 1839
3 164 213 1658
3 1720 1721 2267
3 1668 1591 2512
3 1042 1128 1445
3 1098 1830 1833
3 1102 1092 1103
3 2249 884 2466
3 1104 1103 1434
3 410 416 1821
3 514 513 541
3 580 1758 1763
3 637 673 1741
3 1913 936 1914
3 1394 1395 2337
3 919 920 999
3 577 554 579
3 2111 1660 2263
3 231 1658 1659
3 612 613 644
3 568 543 572
3 770 775 1806
3 1445 1128 1446
3 1546 1548 1842
3 448 460 478
3 810 870 871
3 1789 1560 1819
3 1154 1082 1431
3 873 973 1802
3 379 385 679
3 837 850 921
3 1461 1462 1463
3 1346 1076 1420
3 1088 1344 1808
3 2125 1143 2353
3 931 977 978
3 882 772 1802
3 29 255 1765
3 849 1513 2180
3 1713 827 1806
3 1130 1396 1397
3 681 638 852
3 1417 1321 1873
3 1654 1402 2530
3 502 526 1740
3 1124 888 2177
3 1266 1460 1461
3 515 1175 1840
3 1253 1264 1669
3 479 466 1813
3 1727 1729 1757
3 379 380 385
3 1971 1480 2514
3 1637 1739 2459
3 1207 1205 1208
3 529 519 1899
3 1129 1845 1929
3 224 1661 2267
3 192 1856 2361
3 732 734 1807
3 1184 2163 2435
3 1119 1120 1353
3 415 414 431
3 719 724 725
3 559 546 1750
3 871 872 970
3 1038 917 1622
3 574 699 1752
3 166 167 1679
3 1117 1118 1119
3 1409 1196 2035
3 617 619 621
3 1172 1173 1439
3 1191 1005 1768
3 664 663 684
3 494 493 1841
3 890 529 1731
3 840 802 841
3 493 974 1841
3 385 386 399
3 679 1779 1780
3 371 376 379
3 416 433 1109
3 670 769 1815
3 902 866 903
3 1780 1779 1781
3 480 515 1840
3 970 971 1042
3 433 448 1714
3 28 29 1765
3 1005 949 1142
3 778 780 1117
3 959 1037 1799
3 1073 1003 1076
3 535 532 1898
3 1119 1118 1120
3 658 657 693
3 1378 1379 1380
3 1397 1396 1809
3 1610 1609 1612
3 1819 1560 2016
3 1837 952 1865
3 1719 1131 1881
3 1131 1399 1400
3 1352 1138 2058
3 399 406 409
3 548 1630 2041
3 1275 1338 2251
3 582 1816 1818
3 1835 1836 2144
3 993 1101 1980
3 1699 1698 1700
3 2407 364 2505
3 1189 1190 1788
3 1117 780 1118
3 1830 1829 1831
3 637 672 673
3 692 804 1072
3 1204 1203 1205
3 1374 1170 2139
3 612 692 1794
3 1642 1408 2286
3 723 808 809
3 450 459 1812
3 409 410 414
3 802 801 1778
3 1853 1854 2483
3 1042 1127 1128
3 1199 1846 2225
3 1147 990 1273
3 1383 1384 2432
3 432 431 438
3 1353 1120 1390
3 1093 1091 1094
3 2020 250 2254
3 148 149 1639
3 606 605 648
3 1970 2016 2422
3 2201 2046 2327
3 475 471 513
3 412 407 1951
3 1991 246 2139
3 727 695 728
3 1673 234 1788
3 1554 1556 1559
3 1089 663 1746
3 1846 964 2056
3 923 991 1088
3 409 406 410
3 729 728 730
3 1424 1427 1856
3 1473 1911 2407
3 1376 1377 1378
3 1010 1374 1510
3 853 852 854
3 366 369 1087
3 772 873 1802
3 1219 1218 1626
3 1766 229 2061
3 1088 991 1344
3 922 810 1826
3 518 506 695
3 405 402 2116
3 962 1664 2316
3 913 942 1002
3 932 990 1147
3 629 813 1816
3 876 877 992
3 399 386 406
3 932 845 990
3 1002 1123 1131
3 843 996 1145
3 781 837 1775
3 262 2304 2491
3 431 696 1814
3 1273 1695 1892
3 731 730 732
3 737 732 1807
3 439 438 450
3 1829 498 1841
3 800 685 801
3 767 814 815
3 1060 766 1656
3 673 766 767
3 1403 1605 1882
3 716 718 719
3 1338 1069 1339
3 847 752 1843
3 864 862 1116
3 2302 443 2519
3 923 827 991
3 526 559 1740
3 1911 1473 2358
3 1085 1310 1867
3 809 899 900
3 1227 1226 1228
3 729 730 731
3 1436 1370 1437
3 731 732 737
3 769 827 923
3 456 452 471
3 1433 1503 2471
3 1435 1103 1623
3 385 380 386
3 1141 1787 2460
3 1354 1088 1808
3 657 649 1848
3 415 431 432
3 484 892 1820
3 727 728 729
3 855 854 1450
3 1721 1722 1723
3 1643 1353 1644
3 1145 1916 1960
3 1421 1191 1422
3 466 1812 1813
3 943 944 995
3 1356 1357 1376
3 714 715 716
3 1156 1094 1157
3 598 611 612
3 631 1600 2298
3 590 589 605
3 965 969 1919
3 416 1109 1821
3 242 1697 2335
3 1548 1547 1549
3 550 573 584
3 584 604 632
3 409 414 415
3 712 713 714
3 642 670 702
3 818 698 819
3 1006 1005 1191
3 1624 1689 1691
3 169 170 237
3 173 174 238
3 956 912 1003
3 937 936 1913
3 1317 1025 1875
3 515 540 550
3 973 1799 1800
3 973 959 1799
3 518 695 727
3 910 819 912
3 584 573 604
3 1170 946 1418
3 173 238 1847
3 550 540 573
3 982 984 1148
3 900 976 982
3 441 435 452
3 448 478 1714
3 1849 1648 2173
3 1631 1628 1637
3 1830 1831 1832
3 1383 1216 1384
3 734 772 882
3 949 933 1770
3 1332 1330 1333
3 574 575 591
3 1105 1088 1354
3 702 670 1815
3 498 494 1841
3 827 770 1806
3 873 959 973
3 1390 1391 1415
3 450 438 459
3 950 949 1005
3 351 362 364
3 1313 1029 1314
3 432 438 439
3 837 838 850
3 1273 1274 1695
3 850 851 943
3 911 952 1837
3 1259 1260 1804
3 566 587 588
3 1037 1216 1383
3 1337 1265 1538
3 1087 369 1795
3 810 655 870
3 1559 1561 1566
3 1147 1273 1839
3 732 733 734
3 1662 867 2126
3 890 1731 2241
3 1854 1852 2397
3 515 479 540
3 451 450 466
3 697 666 698
3 1367 1316 1368
3 662 660 663
3 365 355 694
3 1358 1114 1767
3 379 376 380
3 1796 1448 1797
3 179 180 1859
3 790 668 849
3 569 568 580
3 690 860 931
3 466 450 1812
3 431 414 696
3 1973 1133 1974
3 651 649 657
3 467 466 479
3 1288 1289 1835
3 264 265 1986
3 1302 1303 1304
3 592 596 597
3 1873 1321 2037
3 544 543 568
3 275 277 549
3 209 1937 2389
3 539 565 566
3 1485 227 1486
3 2384 2190 2408
3 1781 1779 1783
3 480 479 515
3 689 1416 2413
3 1108 1161 1539
3 1867 1310 1895
3 1300 1301 1302
3 1695 1696 1697
3 633 632 668
3 1304 1451 1452
3 988 911 1837
3 168 169 1724
3 969 1012 1172
3 582 629 1816
3 1843 752 1900
3 629 812 813
3 710 711 712
3 1782 1780 1784
3 536 535 543
3 1089 1746 1969
3 1108 1107 1161
3 1514 1426 1856
3 486 484 1820
3 369 371 1795
3 1817 988 1924
3 493 609 974
3 1422 1191 2023
3 1426 1424 1856
3 842 875 924
3 922 1826 2259
3 989 1361 1886
3 928 1070 1288
3 669 668 790
3 1113 1114 1356
3 1027 847 1843
3 728 695 1098
3 734 735 772
3 975 1107 1108
3 955 859 1962
3 813 911 988
3 1208 1448 1796
3 1101 1405 1980
3 602 676 2045
3 586 581 589
3 546 547 563
3 493 491 609
3 628 1524 2390
3 348 344 354
3 1298 1299 1300
3 509 538 539
3 974 609 975
3 813 891 911
3 871 870 872
3 1355 1354 1423
3 489 486 1820
3 778 779 780
3 1025 1176 1875
3 772 773 873
3 803 1743 2347
3 167 202 1679
3 873 883 959
3 1483 1571 2375
3 427 1756 2221
3 540 1813 1954
3 1202 1200 1203
3 959 1035 1037
3 837 921 1775
3 1304 1305 1451
3 1799 1383 2195
3 604 642 1862
3 1470 1744 2474
3 1854 2397 2453
3 1282 1269 1386
3 1573 1572 2157
3 472 2222 2290
3 1307 1708 2341
3 769 770 827
3 1037 1215 1216
3 791 790 856
3 1053 1052 1822
3 1056 1727 1728
3 1341 1138 1352
3 1300 1299 1301
3 1814 696 1838
3 1198 1196 1409
3 492 491 493
3 439 450 451
3 1171 858 2132
3 1259 1254 1260
3 665 626 666
3 970 872 971
3 258 1602 2357
3 1296 1297 1472
3 490 489 491
3 516 437 2494
3 1298 1027 1299
3 846 845 932
3 501 508 509
3 460 461 502
3 448 449 460
3 482 480 1840
3 1229 1228 1230
3 604 641 642
3 1424 1423 1427
3 502 503 526
3 1028 1000 1029
3 935 933 949
3 1084 1085 1867
3 2028 1711 2353
3 1513 1426 1514
3 892 482 1840
3 852 638 1988
3 402 395 1877
3 738 737 845
3 413 412 418
3 1119 1353 1643
3 526 527 546
3 280 279 281
3 1731 1155 2123
3 1042 971 1127
3 1208 1447 1448
3 433 434 448
3 262 159 2304
3 184 1454 2303
3 1051 1052 1053
3 1816 1817 1818
3 1081 1417 1444
3 781 836 837
3 911 951 952
3 1090 1092 1102
3 202 168 1724
3 1085 1309 1310
3 408 407 412
3 1337 1538 1864
3 1515 1514 1516
3 530 529 890
3 1517 1518 1519
3 549 686 687
3 923 1088 1105
3 404 403 407
3 1835 1289 1836
3 1314 1367 2121
3 1380 1379 2416
3 670 671 769
3 899 808 1874
3 1040 903 1703
3 1596 1595 2154
3 1496 1495 1497
3 636 637 1741
3 1377 1638 2288
3 1288 1070 1289
3 1072 804 1981
3 1129 1334 1845
3 1865 1084 1866
3 792 922 1603
3 1253 1252 1254
3 981 1167 1792
3 1302 1301 1303
3 1641 1651 2019
3 952 953 1084
3 1813 1812 1869
3 732 730 733
3 975 1106 1107
3 1142 949 1770
3 981 1166 1167
3 840 841 842
3 451 466 467
3 1273 990 1274
3 1049 1050 1051
3 1473 2407 2505
3 968 966 1199
3 642 643 670
3 1310 1309 1311
3 422 419 435
3 1063 833 1082
3 919 782 920
3 911 891 951
3 1084 953 1085
3 1763 1764 2164
3 1498 1497 1682
3 515 550 1175
3 1079 937 1913
3 642 702 1862
3 845 737 1931
3 1394 1311 1395
3 1395 1521 1522
3 467 479 480
3 1755 1754 1793
3 1231 1230 1232
3 1557 1553 2030
3 1624 1691 2262
3 584 632 633
3 1094 1091 1969
3 708 709 710
3 1948 1627 2488
3 952 951 953
3 1102 1103 1104
3 1047 1048 1049
3 1310 1311 1394
3 1852 1099 1985
3 143 144 1717
3 813 812 891
3 1944 1044 1945
3 1105 1354 1355
3 1300 1302 1455
3 1914 936 1940
3 1415 1391 1710
3 1299 1027 1843
3 952 1084 1865
3 1695 1274 1696
3 776 774 1928
3 282 281 283
3 2003 1347 2279
3 1206 995 1499
3 1164 1685 1686
3 1551 1565 2030
3 969 1172 1919
3 633 668 669
3 734 733 735
3 1373 1372 1438
3 599 600 636
3 1431 1860 2487
3 1579 1577 1999
3 484 482 892
3 917 940 941
3 2144 1836 2169
3 1866 1084 1867
3 1110 1747 1748
3 998 1171 1811
3 1390 1120 1391
3 644 1824 2057
3 1362 1961 2048
3 944 1283 1825
3 1086 1027 1298
3 679 1780 1782
3 974 975 1879
3 507 506 518
3 1121 1079 1401
3 775 777 778
3 1965 762 2349
3 1045 1046 1047
3 1772 421 2106
3 16 17 2081
3 416 417 433
3 921 850 2125
3 1607 1855 1958
3 649 648 1848
3 1241 1240 1242
3 2012 1443 2251
3 926 928 1920
3 1487 1488 2025
3 1006 1191 1421
3 1355 1423 1424
3 1133 852 1988
3 591 592 1776
3 1299 1843 1857
3 1085 1308 1309
3 490 491 492
3 958 694 1575
3 1384 1216 1385
3 741 915 1878
3 1233 1232 1234
3 669 790 791
3 481 480 482
3 687 703 704
3 492 493 494
3 1634 1633 1922
3 1697 1696 1698
3 1721 985 1722
3 1839 1273 1892
3 772 735 773
3 488 486 489
3 950 1005 1006
3 1513 1514 1515
3 454 500 501
3 873 773 883
3 284 283 285
3 2185 1505 2442
3 959 883 1035
3 543 535 1897
3 1904 1384 2093
3 800 801 802
3 1037 1035 1215
3 1293 1964 1965
3 1239 1238 1240
3 943 1143 2125
3 1782 1784 1785
3 913 756 942
3 488 490 1884
3 1590 1749 2501
3 1235 1234 1236
3 791 856 1408
3 702 2015 2070
3 1108 1539 1540
3 1021 1023 1045
3 695 506 1828
3 1530 1528 1532
3 488 489 490
3 1621 1619 2161
3 704 705 706
3 1304 1303 1305
3 558 1704 2167
3 625 622 626
3 542 553 554
3 604 573 641
3 664 684 685
3 564 571 574
3 1108 1540 1879
3 1856 1427 2361
3 880 1025 1129
3 1395 1311 1521
3 1466 1465 1467
3 915 495 1884
3 1515 1516 1523
3 1237 1236 1238
3 606 648 649
3 999 920 1000
3 676 829 1043
3 2100 794 2142
3 227 151 1500
3 577 579 599
3 153 154 1671
3 1175 550 1927
3 1014 888 1015
3 286 285 287
3 1649 1280 2427
3 1725 204 2137
3 975 609 1106
3 1129 1317 1334
3 1109 1730 2426
3 1468 1467 1469
3 1131 1123 1399
3 1215 2235 2378
3 1976 1149 1989
3 397 395 398
3 746 743 1878
3 1041 1343 1598
3 975 1108 1879
3 741 495 915
3 1167 1754 1755
3 288 287 289
3 743 741 1878
3 1274 990 1931
3 1506 214 1507
3 857 1584 2277
3 2341 1522 2387
3 846 932 933
3 1107 1106 1110
3 584 633 1927
3 290 289 291
3 722 591 1776
3 1544 1094 1969
3 1135 270 1647
3 935 949 950
3 1920 1288 2080
3 754 1896 2108
3 1693 1199 2225
3 292 291 293
3 394 393 395
3 745 743 746
3 1002 942 1123
3 731 737 738
3 294 293 295
3 1018 1573 1925
3 296 295 297
3 298 297 299
3 321 322 325
3 317 320 321
3 314 315 317
3 312 313 314
3 310 311 312
3 308 309 310
3 1898 890 2275
3 306 307 308
3 304 305 306
3 1401 1079 1913
3 300 299 301
3 302 303 304
3 300 301 302
3 302 301 303
3 491 489 1936
3 298 299 300
3 304 303 305
3 306 305 307
3 308 307 309
3 310 309 311
3 312 311 313
3 314 313 315
3 317 315 320
3 321 320 322
3 1301 1299 1857
3 514 541 542
3 296 297 298
3 850 838 851
3 1310 1394 1895
3 294 295 296
3 590 605 606
3 292 293 294
3 651 657 658
3 290 291 292
3 1207 1208 1796
3 835 1976 1989
3 621 619 622
3 746 1878 1896
3 481 482 483
3 1026 847 1027
3 1335 1207 1870
3 1661 59 2266
3 727 729 1155
3 288 289 290
3 1058 776 1928
3 662 663 664
3 495 488 1884
3 1959 319 2522
3 943 851 944
3 1293 1291 1964
3 534 532 535
3 640 645 646
3 2280 1014 2385
3 286 287 288
3 591 575 592
3 521 519 529
3 13 14 2114
3 780 779 781
3 918 908 1850
3 837 836 838
3 209 148 1639
3 754 748 1896
3 745 746 747
3 769 671 770
3 929 1065 2197
3 1278 1058 1279
3 483 482 484
3 1564 1557 2030
3 633 807 1927
3 392 391 393
3 1057 1621 2161
3 569 580 581
3 284 285 286
3 876 992 1894
3 497 494 498
3 1630 1635 2041
3 982 1148 1918
3 612 611 613
3 700 634 1044
3 822 674 2099
3 880 1129 1929
3 432 439 654
3 1039 1291 1292
3 1164 1686 1989
3 1129 1025 1317
3 738 845 846
3 582 583 629
3 278 6 279
3 544 568 569
3 1701 1274 1931
3 747 749 751
3 1085 953 1308
3 928 930 1070
3 747 748 749
3 1421 1422 2415
3 902 903 904
3 1309 1308 1543
3 642 641 643
3 904 981 1792
3 646 784 785
3 536 543 544
3 1204 1205 1207
3 365 694 958
3 71 72 217
3 88 89 1901
3 87 88 193
3 101 102 189
3 85 86 242
3 99 100 241
3 74 75 192
3 91 92 219
3 94 95 191
3 83 84 220
3 97 98 221
3 77 78 218
3 80 81 194
3 89 90 245
3 62 63 244
3 60 61 188
3 64 65 223
3 67 68 190
3 90 91 1909
3 98 99 1905
3 61 62 1908
3 69 70 243
3 68 69 1907
3 70 71 1910
3 410 411 416
3 586 589 590
3 685 684 2029
3 390 389 391
3 1715 1150 1811
3 1924 1837 2215
3 282 283 284
3 496 497 1929
3 233 1671 1769
3 627 2185 2442
3 1567 1552 2062
3 629 630 812
3 424 453 454
3 583 562 1942
3 749 750 805
3 744 743 745
3 1897 535 1898
3 467 480 481
3 504 759 880
3 670 643 671
3 89 245 1901
3 193 88 1901
3 221 98 1905
3 245 90 1909
3 91 219 1909
3 62 244 1908
3 188 61 1908
3 99 241 1905
3 190 68 1907
3 71 217 1910
3 69 243 1907
3 243 70 1910
3 505 499 506
3 475 513 514
3 1945 1044 2071
3 1712 2125 2353
3 339 343 440
3 989 1360 1361
3 764 869 1152
3 778 777 779
3 1686 1685 1687
3 742 741 743
3 979 989 1886
3 729 731 1887
3 926 927 928
3 1305 1306 1307
3 1838 1278 2292
3 747 746 748
3 181 182 1652
3 1886 1361 2305
3 1595 1594 2486
3 597 596 598
3 928 1288 1920
3 1970 824 2156
3 1425 1424 1426
3 497 504 1929
3 748 746 1896
3 745 747 1900
3 998 858 1171
3 563 547 564
3 1155 729 1887
3 634 583 1942
3 1439 1173 1440
3 1026 1027 1086
3 79 80 1904
3 1533 1532 1536
3 1449 1426 1513
3 1106 609 1936
3 1318 1013 1319
3 1098 695 1828
3 492 494 496
3 750 748 754
3 731 738 1887
3 2415 1422 2516
3 533 562 582
3 988 1837 1924
3 1216 1215 1863
3 534 535 536
3 747 751 1900
3 1753 809 2119
3 1183 824 1970
3 740 495 741
3 80 194 1904
3 893 383 2087
3 655 605 1939
3 1884 2034 2082
3 1301 1857 1923
3 1307 1306 1708
3 752 745 1900
3 750 754 755
3 76 77 1903
3 2090 2347 2365
3 255 30 2159
3 132 254 2160
3 448 434 449
3 753 848 926
3 1075 1074 1327
3 487 488 495
3 377 381 647
3 483 484 485
3 755 754 2148
3 1584 1925 2277
3 1186 1183 1970
3 951 891 1281
3 485 484 486
3 546 527 547
3 133 134 1766
3 1786 1785 2409
3 280 281 282
3 460 449 461
3 744 745 752
3 77 218 1903
3 983 1918 2342
3 1708 1306 1810
3 1389 2069 2170
3 487 486 488
3 641 573 1954
3 507 518 519
3 502 461 503
3 519 518 1899
3 1202 1203 1204
3 821 897 1972
3 92 93 1902
3 521 529 530
3 749 748 750
3 2176 1380 2416
3 885 826 886
3 485 486 487
3 371 372 376
3 1289 1070 1871
3 1110 1657 1747
3 753 926 1943
3 700 1044 1944
3 880 881 1025
3 496 1845 2034
3 1072 1981 2393
3 462 464 2134
3 1949 1771 2359
3 1044 634 1942
3 550 584 1927
3 1390 1415 2118
3 526 503 527
3 990 845 1931
3 1009 1213 1214
3 740 742 1144
3 219 92 1902
3 727 1155 1899
3 369 370 371
3 623 690 2150
3 1279 1058 1928
3 1408 2235 2286
3 487 495 740
3 979 1886 2086
3 1305 1303 1306
3 421 412 1951
3 843 844 996
3 633 669 807
3 518 727 1899
3 826 825 1961
3 1657 1106 1936
3 1172 1012 1173
3 740 741 742
3 433 417 434
3 505 506 507
3 1333 1674 2437
3 742 743 744
3 469 458 470
3 1381 1380 1382
3 1293 1965 2515
3 1554 1559 2062
3 553 557 2499
3 1774 389 2339
3 497 498 499
3 483 485 576
3 740 1144 1935
3 773 735 834
3 366 367 369
3 1120 1118 1876
3 1515 1523 1574
3 1319 1013 2039
3 1303 1301 1923
3 457 447 458
3 561 593 594
3 1355 1424 1425
3 609 491 1936
3 204 1732 2137
3 791 1408 1642
3 995 944 1825
3 456 471 475
3 1692 1693 2239
3 580 1763 2164
3 1292 1293 2117
3 441 452 456
3 388 384 389
3 823 821 1972
3 504 880 1929
3 176 177 1680
3 1070 1071 1871
3 15 2260 2477
3 362 363 366
3 2178 2300 2449
3 1035 883 1036
3 2285 1563 2307
3 978 977 1074
3 1090 1102 2029
3 1810 1306 1923
3 496 494 497
3 1306 1303 1923
3 432 654 1915
3 934 933 935
3 356 355 365
3 398 403 404
3 635 701 843
3 1110 1106 1657
3 574 571 575
3 1025 881 1176
3 386 380 786
3 415 432 1915
3 343 347 1911
3 1070 930 1071
3 1688 1740 2231
3 1385 1216 1863
3 1696 1274 1701
3 1645 305 2317
3 880 759 881
3 926 848 927
3 1427 1423 2217
3 1339 1662 2388
3 770 774 775
3 1263 1257 1428
3 1337 1864 2412
3 349 348 355
3 2267 1721 2498
3 753 752 847
3 1375 1086 1473
3 900 982 983
3 332 335 739
3 429 428 430
3 744 752 753
3 1171 2132 2165
3 1425 1426 1449
3 987 641 1954
3 1883 1786 2409
3 427 426 428
3 928 927 930
3 1815 1105 2015
3 1206 1499 1941
3 410 406 411
3 573 540 1954
3 497 499 504
3 528 560 561
3 1933 1404 2399
3 1091 1089 1969
3 1804 1282 2073
3 504 505 759
3 963 924 1113
3 1711 1710 1712
3 881 759 1146
3 968 1199 1200
3 351 352 362
3 848 847 1026
3 521 530 531
3 1884 490 2034
3 1277 957 1966
3 1349 1350 2329
3 676 1043 2045
3 997 1159 1286
3 517 1889 1890
3 781 835 836
3 944 948 1283
3 722 1776 2026
3 507 519 520
3 2040 1352 2058
3 1276 957 1277
3 446 437 447
3 931 860 977
3 361 359 765
3 1248 1536 2534
3 512 523 528
3 408 412 413
3 1368 1369 1370
3 451 2169 2223
3 192 75 1994
3 942 756 2026
3 345 344 348
3 764 1152 1963
3 413 418 419
3 1286 1773 1774
3 770 671 774
3 275 549 2124
3 1497 1645 2461
3 1982 1472 2272
3 422 435 441
3 281 279 736
3 1134 270 1135
3 582 562 583
3 1421 2415 2454
3 485 487 1935
3 2300 1067 2480
3 1578 1576 1827
3 930 927 1061
3 1026 1086 1375
3 922 2259 2379
3 1391 1120 1876
3 1495 1494 2493
3 404 407 408
3 879 2178 2449
3 1700 1698 2036
3 607 1517 1520
3 753 847 848
3 416 411 417
3 1144 742 1943
3 775 776 777
3 754 2108 2148
3 1006 1421 1953
3 585 581 586
3 531 530 532
3 235 1709 1888
3 520 519 521
3 1180 1181 1349
3 1146 759 1967
3 708 710 1921
3 1350 2253 2329
3 436 430 437
3 504 499 505
3 643 641 987
3 336 330 517
3 811 1059 1149
3 1164 1411 1685
3 846 933 934
3 635 843 1960
3 983 982 1918
3 971 872 1096
3 1149 1163 1164
3 169 237 1724
3 1314 1315 1316
3 629 583 630
3 891 812 1916
3 462 463 464
3 487 740 1935
3 798 2084 2189
3 1814 1838 2292
3 1284 1489 1491
3 340 336 2014
3 1670 1461 2200
3 920 782 2057
3 890 2241 2275
3 510 511 512
3 278 279 280
3 839 802 840
3 1858 235 1888
3 1698 1696 2036
3 104 105 222
3 57 58 224
3 1185 1183 1186
3 588 587 623
3 638 600 1988
3 1282 1386 2245
3 811 776 1058
3 816 815 876
3 2034 1845 2082
3 761 636 1741
3 566 565 587
3 174 175 1725
3 347 350 351
3 1469 1495 1496
3 1059 1058 1278
3 811 1149 1976
3 576 485 1935
3 659 658 660
3 859 1153 1962
3 76 1903 1994
3 1821 1109 2426
3 1294 1038 1622
3 733 1833 2075
3 992 993 1980
3 1566 1561 2285
3 525 474 2041
3 464 465 510
3 343 346 347
3 360 893 1982
3 650 649 651
3 896 608 936
3 950 1006 1007
3 1508 1859 1860
3 539 538 565
3 440 343 1911
3 341 340 344
3 221 1905 1906
3 1297 1823 2142
3 759 505 1967
3 1295 1053 1296
3 473 470 474
3 1463 1465 1466
3 1143 1206 2028
3 799 685 800
3 1210 2077 2203
3 509 508 538
3 492 496 2034
3 1553 1551 2030
3 1260 1261 1269
3 1430 1040 1703
3 586 590 1940
3 838 836 868
3 1705 624 2276
3 1749 972 2501
3 742 744 1943
3 804 962 1981
3 1367 1368 2254
3 531 532 533
3 337 336 340
3 1157 1094 1544
3 536 544 1158
3 812 630 1960
3 781 779 835
3 56 57 1947
3 630 583 634
3 1405 1404 1932
3 1281 891 1916
3 339 342 343
3 1411 1163 1730
3 322 323 324
3 344 340 2091
3 1735 1734 1736
3 75 76 1994
3 430 682 2494
3 1907 243 2360
3 589 581 2164
3 694 355 2196
3 744 753 1943
3 775 774 776
3 1210 1430 2077
3 335 338 339
3 1102 1803 2029
3 1078 937 1079
3 870 655 1939
3 505 507 1967
3 357 360 1982
3 1896 1878 2101
3 326 325 328
3 934 935 957
3 585 608 895
3 333 330 336
3 1270 1272 1524
3 688 817 878
3 507 520 1967
3 1428 1257 2074
3 1818 1817 2000
3 896 937 1077
3 934 957 1111
3 329 328 330
3 1499 995 1825
3 944 851 948
3 387 445 462
3 1678 1161 2228
3 777 776 811
3 313 311 757
3 324 331 332
3 848 1026 1955
3 1312 998 1811
3 1321 1322 2037
3 1080 1079 1121
3 1105 1355 2015
3 1645 2317 2461
3 1559 1568 2062
3 332 334 335
3 501 500 508
3 321 325 326
3 394 395 397
3 322 320 323
3 1529 1530 2171
3 1137 797 1138
3 811 1058 1059
3 661 660 662
3 569 581 585
3 183 4 2303
3 5 160 2304
3 1340 1138 1341
3 1660 1626 2185
3 1743 1464 2347
3 1026 1375 1955
3 1149 1059 1163
3 1736 1625 2194
3 1322 1667 2434
3 311 309 1959
3 309 307 319
3 894 700 1944
3 533 534 562
3 1276 1277 1366
3 2190 1706 2408
3 533 532 534
3 1214 1213 1410
3 1164 1163 1411
3 843 701 844
3 1009 1214 2055
3 234 1589 1788
3 2000 1817 2174
3 317 321 2050
3 328 325 945
3 392 393 394
3 588 623 2089
3 1162 958 1681
3 1078 1080 1136
3 927 848 1955
3 1496 1497 1498
3 390 391 392
3 1061 927 1955
3 1283 948 1284
3 635 634 700
3 1244 1251 1252
3 218 78 2093
3 756 722 2026
3 1071 1784 2419
3 1218 1505 2185
3 1284 948 1285
3 1489 1285 1490
3 918 1850 1851
3 684 1090 2029
3 1759 572 2537
3 1691 1690 2446
3 1979 1158 2071
3 606 649 650
3 2045 1043 2046
3 103 104 2025
3 630 634 635
3 360 383 893
3 406 386 2043
3 1909 219 2023
3 1111 957 1276
3 1925 1437 2277
3 1536 2268 2340
3 854 852 1133
3 233 153 1671
3 651 658 659
3 2099 1787 2368
3 1033 1032 1130
3 1015 1372 1373
3 1412 942 2026
3 253 264 1441
3 1531 1534 2332
3 701 700 894
3 106 107 1990
3 2048 1961 2455
3 276 274 2099
3 738 846 1968
3 1325 925 1326
3 896 936 937
3 585 586 608
3 1450 854 1973
3 1361 1360 1362
3 1045 1668 2512
3 303 301 444
3 996 844 997
3 79 1904 2093
3 1989 1686 2095
3 1928 774 2033
3 1942 562 1979
3 287 285 316
3 935 950 1966
3 1466 1467 1468
3 1242 1243 1244
3 1887 738 1968
3 2115 210 2477
3 878 929 1083
3 1326 1736 2194
3 886 888 1014
3 895 608 896
3 289 287 1978
3 821 822 897
3 936 608 1940
3 613 614 615
3 51 52 1996
3 417 411 1160
3 1149 1164 1989
3 386 786 2043
3 285 283 1971
3 1309 1543 2147
3 375 373 2053
3 371 370 372
3 779 777 1976
3 1286 1159 1773
3 2177 887 2376
3 1560 1557 1564
3 1403 1882 2399
3 1727 1757 2246
3 279 6 2049
3 1619 1438 2438
3 291 289 758
3 1781 1915 2294
3 425 401 426
3 349 355 356
3 66 67 2118
3 474 548 2041
3 1686 1687 2007
3 1262 1456 1457
3 1123 942 1412
3 1916 812 1960
3 1355 1425 2015
3 735 733 2075
3 1861 879 2449
3 1284 1285 1489
3 490 492 2034
3 366 363 367
3 980 578 2051
3 906 904 1792
3 534 536 1979
3 842 924 963
3 2051 578 2083
3 1077 937 1078
3 1102 1104 1803
3 894 1944 1946
3 398 404 2060
3 1007 1006 1953
3 369 367 370
3 348 354 2196
3 1078 1079 1080
3 1378 1380 1381
3 1568 1365 2439
3 608 586 1940
3 598 610 611
3 760 636 761
3 869 1137 1351
3 671 643 2033
3 1661 1345 2267
3 938 914 1057
3 783 761 914
3 576 1835 2144
3 388 389 390
3 297 295 318
3 454 453 500
3 1906 1728 2246
3 1439 1440 2468
3 1159 1013 1318
3 764 797 869
3 236 143 1717
3 782 644 2057
3 592 595 596
3 1542 2332 2443
3 1521 1311 2147
3 345 348 349
3 1304 1452 2205
3 1644 1907 2360
3 2146 1125 2149
3 997 844 1013
3 628 375 2053
3 299 297 1984
3 957 935 1966
3 664 685 799
3 301 299 1975
3 362 352 363
3 777 811 1976
3 1942 1979 2071
3 1001 920 2057
3 312 314 768
3 1552 1554 2062
3 615 616 617
3 357 1982 2076
3 800 802 839
3 774 671 2033
3 1749 1169 2105
3 365 958 1162
3 617 618 619
3 283 281 1938
3 1351 1772 2414
3 1525 1765 2489
3 846 934 1968
3 635 700 701
3 555 554 577
3 536 1158 1979
3 1101 1404 1405
3 630 635 1960
3 1811 1150 2089
3 2113 1666 2249
3 172 173 1847
3 107 108 195
3 54 55 196
3 1191 1768 2023
3 1455 1302 2205
3 115 116 2017
3 1387 1333 2437
3 659 661 764
3 1080 1121 1188
3 50 51 2011
3 411 406 2043
3 295 293 1983
3 643 987 2033
3 707 706 708
3 129 130 261
3 32 33 260
3 2159 260 2265
3 449 434 567
3 1314 1029 1315
3 917 796 940
3 378 375 628
3 108 109 1991
3 2370 1759 2537
3 341 344 345
3 997 1013 1159
3 544 569 1993
3 950 1007 1966
3 477 474 525
3 351 350 352
3 1696 1701 2036
3 334 331 803
3 1137 1138 1340
3 562 534 1979
3 109 110 246
3 52 53 247
3 1368 1316 1369
3 659 660 661
3 33 34 2002
3 123 124 2005
3 835 779 1976
3 851 838 1992
3 1530 1533 2172
3 1668 1045 2348
3 1162 1681 1706
3 342 338 468
3 298 300 358
3 765 359 2065
3 725 826 885
3 35 36 2003
3 46 47 2019
3 38 39 2006
3 336 517 2014
3 934 1111 1968
3 116 117 2018
3 650 651 1963
3 223 1711 2162
3 640 594 645
3 1333 1330 2192
3 104 222 2025
3 1603 922 2379
3 963 1113 1115
3 2084 1193 2189
3 564 570 571
3 36 37 2004
3 57 224 1947
3 1542 1601 2269
3 122 123 2012
3 1000 920 1001
3 127 128 240
3 34 35 239
3 383 387 2087
3 1161 1107 2228
3 1781 2294 2419
3 1201 1200 1202
3 124 125 225
3 37 38 226
3 1340 1341 1342
3 869 797 1137
3 839 840 1008
3 1158 544 1993
3 1326 925 1894
3 352 350 353
3 326 329 954
3 1864 2344 2412
3 836 835 2095
3 1051 1053 1295
3 1031 720 1032
3 503 461 787
3 1407 1112 2044
3 661 662 2058
3 838 868 1992
3 112 113 197
3 49 50 198
3 1359 980 1413
3 121 122 211
3 40 41 212
3 48 49 2010
3 113 114 2009
3 1741 673 2131
3 41 42 2020
3 120 121 2013
3 1409 2035 2097
3 1511 1374 2506
3 114 115 248
3 47 48 249
3 42 43 250
3 119 120 251
3 171 6 201
3 6 172 203
3 585 895 1993
3 43 44 2024
3 118 119 2021
3 905 904 906
3 764 661 797
3 337 340 341
3 1413 980 2051
3 117 118 205
3 44 45 206
3 347 346 350
3 1420 1076 1525
3 324 323 331
3 434 417 2031
3 965 967 969
3 716 719 788
3 1260 1254 1261
3 2053 373 2103
3 2069 2068 2170
3 326 328 329
3 1706 996 2408
3 273 275 2124
3 969 1011 1012
3 590 606 2001
3 1718 1611 2280
3 1914 1940 2001
3 915 1884 2082
3 329 330 333
3 620 859 955
3 2168 1409 2305
3 296 298 1997
3 915 2082 2101
3 339 338 342
3 1218 994 1505
3 333 336 337
3 266 263 1742
3 1873 768 2127
3 244 63 2162
3 64 223 2162
3 343 342 346
3 914 761 2258
3 310 312 1987
3 799 800 2055
3 302 304 763
3 1559 1566 1568
3 1598 1343 2114
3 592 575 595
3 341 345 794
3 189 1842 2220
3 767 815 816
3 1003 912 1004
3 839 1008 1009
3 1263 1428 1429
3 564 547 570
3 1845 1334 2082
3 332 331 334
3 901 866 902
3 651 659 1963
3 1009 1112 1213
3 335 334 338
3 569 585 1993
3 1665 1336 2299
3 1945 2071 2153
3 863 862 864
3 907 906 908
3 1849 1486 1930
3 1935 1144 2080
3 967 966 968
3 809 900 2119
3 865 864 866
3 835 1989 2095
3 190 1907 2417
3 333 337 522
3 1110 1748 2228
3 1193 1194 1195
3 94 191 2166
3 473 1854 2453
3 1769 1134 2369
3 948 851 1992
3 237 170 2216
3 420 419 422
3 1448 1447 2364
3 483 576 2144
3 721 1919 2032
3 885 886 1891
3 613 611 614
3 886 1014 1891
3 1160 411 2043
3 1918 1283 2342
3 1651 206 2485
3 1242 1240 1243
3 598 596 610
3 1295 1296 1459
3 1185 1186 1948
3 1425 1449 2070
3 294 296 762
3 1285 948 1992
3 925 876 1894
3 712 714 789
3 603 1668 2398
3 1940 590 2001
3 721 570 964
3 834 735 2075
3 1144 1920 2080
3 2263 1635 2511
3 1204 1207 1335
3 2235 1408 2378
3 965 964 966
3 1990 1435 2218
3 397 398 2060
3 1138 797 2058
3 1787 1141 2368
3 2068 820 2170
3 360 359 361
3 387 462 2087
3 1524 1272 1934
3 819 698 820
3 1197 1196 1198
3 1662 2126 2388
3 78 79 2093
3 1150 588 2089
3 1269 1261 1270
3 1878 915 2101
3 451 467 2169
3 2262 1387 2437
3 1009 1008 1112
3 757 311 1959
3 897 898 1139
3 1854 473 2483
3 2015 1425 2070
3 2082 1334 2101
3 963 1115 1174
3 1047 1049 1287
3 1194 423 1196
3 321 326 2050
3 417 1160 2031
3 854 1133 1973
3 1201 1212 1348
3 705 1586 2163
3 309 319 1959
3 1353 1390 2417
3 427 428 429
3 357 356 359
3 606 650 2001
3 549 1280 2124
3 1213 1112 1407
3 256 2303 2535
3 356 365 2065
3 662 664 2040
3 701 894 2039
3 1325 1371 2451
3 666 626 667
3 1902 93 2166
3 1236 1234 1246
3 800 839 2055
3 1869 1812 2252
3 1197 1364 1365
3 576 1935 2080
3 404 408 798
3 1678 807 2529
3 1560 1564 2016
3 1319 2039 2122
3 425 426 427
3 349 356 357
3 308 310 327
3 1716 622 2484
3 1801 82 2289
3 1768 1949 2420
3 2006 1926 2507
3 351 364 2407
3 420 423 1193
3 659 764 1963
3 292 294 2038
3 840 842 2027
3 736 279 2049
3 372 373 374
3 461 449 2052
3 2189 1195 2285
3 1174 1115 1398
3 367 363 961
3 909 908 918
3 1738 247 2402
3 1007 1761 2308
3 288 290 2135
3 422 441 2035
3 623 624 690
3 537 525 545
3 1953 1421 2454
3 1887 1968 2123
3 861 691 862
3 654 439 2223
3 1136 1080 2054
3 1312 1811 2089
3 575 571 2032
3 383 361 384
3 968 1200 1201
3 797 661 2058
3 1423 1354 2381
3 1180 1178 1181
3 1513 1515 2180
3 72 73 2217
3 462 445 463
3 12 13 2136
3 457 458 469
3 542 554 555
3 599 636 760
3 254 133 1766
3 1130 1397 1937
3 404 798 2060
3 1044 1942 2071
3 690 691 860
3 357 359 360
3 1008 2027 2152
3 1232 1230 1255
3 372 370 373
3 850 943 2125
3 1457 1456 1492
3 1952 324 2282
3 155 2 2356
3 0 7 2357
3 2017 1379 2288
3 918 1851 2008
3 195 1991 2517
3 2090 803 2347
3 1244 1243 1251
3 290 292 368
3 1432 1082 2214
3 1008 840 2027
3 1743 803 2296
3 1013 844 2039
3 365 1162 2065
3 1594 1315 2184
3 387 384 388
3 1508 1860 2311
3 547 527 2056
3 2005 225 2322
3 314 317 2127
3 1853 556 2327
3 201 6 278
3 1907 1644 2417
3 1896 2101 2108
3 646 645 784
3 538 508 558
3 374 375 377
3 1630 1634 1635
3 1579 1999 2352
3 1647 1648 1849
3 1313 1314 2121
3 1179 1433 2042
3 844 701 2039
3 1252 1251 2098
3 816 876 925
3 1922 1228 2281
3 392 394 396
3 1915 654 2294
3 1652 1653 2487
3 429 430 436
3 456 475 476
3 1605 1392 2510
3 126 1882 2284
3 1784 1780 2419
3 500 453 960
3 377 378 381
3 2178 1587 2300
3 1222 1219 1626
3 413 419 420
3 381 382 400
3 2169 1836 2223
3 1906 1905 2129
3 616 614 793
3 1170 1419 2139
3 101 189 2220
3 241 100 2220
3 1968 1111 2123
3 567 434 2031
3 615 614 616
3 1032 720 1921
3 682 428 2138
3 469 470 473
3 339 440 2261
3 1501 238 2226
3 1154 1431 1653
3 446 447 457
3 1251 1243 1257
3 2229 315 2495
3 1201 1202 1212
3 785 784 879
3 464 463 465
3 66 2118 2395
3 324 332 2282
3 286 288 771
3 17 199 2081
3 571 570 721
3 611 610 2092
3 617 616 618
3 1542 1531 2332
3 400 401 424
3 1325 1326 1371
3 1140 1406 1702
3 1323 443 2302
3 1926 1573 2507
3 436 437 446
3 1262 1457 2098
3 67 190 2118
3 1518 1861 2449
3 989 1359 1360
3 1063 1082 1154
3 1757 96 2526
3 969 967 1011
3 868 836 2095
3 1215 1035 2235
3 96 1757 2309
3 261 2160 2380
3 1381 1382 2126
3 1468 1469 2182
3 1334 1317 2108
3 861 863 1064
3 1270 1261 1271
3 360 361 383
3 287 316 1978
3 1856 192 2367
3 1905 241 2129
3 1615 1809 2425
3 528 523 560
3 979 980 989
3 662 2040 2058
3 721 964 965
3 170 171 2216
3 664 799 2040
3 512 511 523
3 1201 1348 2107
3 620 618 858
3 758 289 1978
3 859 858 998
3 424 425 453
3 1616 1615 2193
3 444 301 1975
3 561 560 593
3 965 966 967
3 1798 376 2430
3 340 2014 2091
3 510 465 511
3 107 195 1990
3 1080 1188 2054
3 1153 998 1312
3 1226 1224 1249
3 1012 1011 1363
3 902 904 905
3 842 963 2027
3 268 270 1134
3 865 901 1125
3 2077 558 2102
3 282 284 442
3 1977 1679 2253
3 1496 1498 2047
3 284 286 2063
3 281 736 1938
3 2132 793 2165
3 1674 215 2437
3 2078 1855 2411
3 839 1009 2055
3 1182 824 1183
3 1168 947 1169
3 1289 1871 2242
3 316 285 1971
3 1270 1271 1272
3 1755 1793 2264
3 51 1996 2011
3 383 384 387
3 1146 1924 2215
3 1279 1928 2202
3 619 618 620
3 1194 1196 1197
3 555 578 979
3 1937 1639 2528
3 1262 1257 1263
3 389 384 2339
3 2251 1338 2464
3 1155 1887 2123
3 1151 1937 2528
3 465 463 828
3 1318 1319 2116
3 1687 1688 2231
3 326 954 2050
3 297 318 1984
3 1308 953 2255
3 1846 2056 2198
3 320 315 2229
3 1254 1252 2059
3 760 761 783
3 951 1281 2255
3 1459 1296 2094
3 2288 1638 2470
3 1975 299 1984
3 52 247 1996
3 468 338 2090
3 2140 1511 2506
3 1125 1126 1192
3 593 824 1182
3 720 708 1921
3 704 706 707
3 623 587 624
3 2044 1112 2152
3 1393 1169 1749
3 900 983 2119
3 783 914 938
3 255 2265 2489
3 2039 894 2122
3 317 2050 2127
3 1866 1867 2513
3 374 373 375
3 429 436 455
3 387 388 445
3 1193 423 1194
3 555 577 578
3 1074 977 1187
3 449 567 2052
3 1197 1198 1364
3 2154 1595 2486
3 1486 1849 2173
3 318 295 1983
3 939 1016 1844
3 131 132 2160
3 30 31 2159
3 881 1146 2215
3 1294 1868 2238
3 1300 1455 2314
3 1365 1364 1912
3 783 938 939
3 2061 1735 2441
3 551 545 601
3 2194 216 2536
3 1251 1257 1262
3 888 887 2177
3 1364 1198 2048
3 1498 1682 2340
3 1589 1590 2501
3 60 188 2266
3 1401 1913 2324
3 195 108 1991
3 420 422 423
3 1675 1470 2474
3 258 1673 2183
3 2161 1619 2438
3 1296 1472 2094
3 1808 1910 2381
3 334 803 2090
3 1490 1285 2232
3 523 511 524
3 1240 1238 2074
3 1184 1183 1185
3 39 40 2151
3 473 474 477
3 1461 1463 2200
3 2072 353 2073
3 861 862 863
3 1206 1941 2401
3 958 1575 2287
3 614 611 2092
3 110 111 2140
3 1136 2054 2110
3 645 594 2133
3 260 33 2002
3 673 767 2131
3 989 980 1359
3 1741 2131 2258
3 1317 1875 2148
3 894 1946 2122
3 863 864 865
3 787 461 2052
3 857 2277 2386
3 109 246 1991
3 2017 116 2018
3 1182 1183 1184
3 377 375 378
3 816 925 1324
3 865 866 901
3 1262 1263 1456
3 359 356 2065
3 2129 241 2472
3 283 1938 1971
3 1458 1210 2203
3 1076 1003 2145
3 196 1738 2402
3 1033 1130 1151
3 1188 1121 2106
3 1140 1702 2096
3 549 687 1280
3 1694 1621 2191
3 861 1064 2112
3 1548 1549 2129
3 1784 1071 2462
3 714 716 2066
3 1961 825 2455
3 1447 1211 2250
3 979 578 980
3 905 907 1209
3 381 378 382
3 457 469 552
3 595 575 2032
3 408 413 2084
3 481 483 2144
3 1745 1349 2293
3 1980 1405 2441
3 198 50 2011
3 248 115 2017
3 912 819 2068
3 620 858 859
3 707 708 720
3 821 674 822
3 514 542 2086
3 400 382 401
3 123 2005 2012
3 1772 1351 2374
3 34 239 2002
3 768 314 2127
3 2003 36 2004
3 280 282 2079
3 124 225 2005
3 596 595 2130
3 593 560 824
3 1504 1502 2519
3 239 35 2003
3 1311 1309 2147
3 1318 1877 2240
3 1860 1432 2311
3 1416 1715 2330
3 859 998 1153
3 352 353 2072
3 312 768 1987
3 2027 1174 2152
3 226 38 2006
3 1827 1024 2117
3 1710 1391 2295
3 690 624 691
3 37 226 2004
3 1153 1312 1885
3 853 855 2186
3 1892 242 2373
3 1967 520 2174
3 939 938 1016
3 47 249 2019
3 388 390 2078
3 1991 2139 2517
3 905 906 907
3 571 721 2032
3 1196 423 2035
3 1324 925 1325
3 1151 1130 1937
3 363 352 2072
3 345 349 2076
3 1031 1032 1033
3 214 179 1859
3 211 122 2012
3 602 601 652
3 117 205 2018
3 710 712 2067
3 1602 187 2357
3 520 2000 2174
3 85 242 2335
3 220 84 2335
3 381 400 2113
3 1586 1587 2435
3 424 401 425
3 963 1174 2027
3 860 691 861
3 610 596 2130
3 1958 2078 2431
3 570 547 2056
3 237 2216 2354
3 1211 1692 2219
3 298 358 1997
3 909 947 1041
3 441 456 2097
3 1135 1647 1849
3 1601 1542 2443
3 197 113 2009
3 49 198 2010
3 1911 347 2407
3 1729 191 2309
3 212 41 2020
3 121 211 2013
3 222 105 2218
3 1125 901 1126
3 114 248 2009
3 249 48 2010
3 42 250 2020
3 251 120 2013
3 233 1769 2369
3 1870 647 2113
3 794 345 2076
3 250 43 2024
3 119 251 2021
3 901 902 2141
3 964 570 2056
3 739 335 2261
3 2108 1317 2148
3 577 599 2083
3 205 118 2021
3 44 206 2024
3 1247 1241 2323
3 1894 992 2244
3 6 203 2049
3 1642 1678 2529
3 1417 1873 2333
3 1422 2023 2516
3 341 794 2100
3 73 74 2361
3 1234 1232 2088
3 1261 1254 2059
3 896 1077 2257
3 1921 710 2067
3 125 126 2284
3 220 1699 2289
3 159 5 2304
3 4 184 2303
3 2059 1252 2098
3 1003 1004 2145
3 2328 1325 2451
3 1486 227 1500
3 63 64 2162
3 2081 1192 2260
3 508 500 2102
3 667 1872 2318
3 338 334 2090
3 423 422 2035
3 1192 1126 1471
3 907 908 909
3 1330 1328 2192
3 1972 897 2500
3 2443 316 2514
3 242 86 2373
3 87 193 2373
3 420 1193 2084
3 1473 1086 2358
3 1987 768 2037
3 522 337 2100
3 627 1660 2185
3 1793 446 2264
3 1405 2061 2441
3 1502 1217 2302
3 171 201 2216
3 1158 1993 2153
3 1197 1365 2120
3 1712 1710 2295
3 1121 1401 2414
3 93 94 2166
3 653 652 688
3 622 1716 2452
3 1345 1720 2267
3 477 537 556
3 128 129 2181
3 2331 1295 2458
3 784 645 874
3 1269 1270 2199
3 189 102 2355
3 1041 1168 1343
3 246 110 2140
3 477 525 537
3 755 1895 2371
3 1947 1723 2313
3 1134 1135 2369
3 223 65 2395
3 968 1201 2107
3 1577 1578 2325
3 210 15 2477
3 961 363 2072
3 1581 1579 2352
3 349 357 2076
3 337 341 2100
3 305 303 2317
3 370 367 2103
3 762 296 1997
3 581 580 2164
3 1278 1838 2372
3 1548 2129 2472
3 594 593 2133
3 2021 251 2022
3 2047 1247 2182
3 967 968 2107
3 1169 947 2008
3 481 2144 2169
3 793 614 2092
3 1910 217 2381
3 1251 1262 2098
3 716 788 2066
3 2101 1334 2108
3 2006 39 2151
3 1603 2379 2508
3 1926 2006 2151
3 96 97 2526
3 750 755 2371
3 789 714 2066
3 909 918 947
3 1993 895 2153
3 106 1990 2218
3 1243 1240 2074
3 832 986 1189
3 1283 1284 2342
3 2297 195 2517
3 1043 829 2326
3 767 816 2131
3 602 653 676
3 1004 912 2068
3 2086 1886 2224
3 1124 2177 2467
3 426 401 2531
3 707 720 1030
3 1000 1001 2184
3 1315 1029 2184
3 467 481 2169
3 541 513 2256
3 647 381 2113
3 225 2284 2510
3 2 156 2356
3 187 0 2357
3 40 212 2151
3 2245 1386 2383
3 676 677 829
3 1004 2068 2069
3 1860 232 2487
3 1031 1033 1034
3 829 830 972
3 996 997 2408
3 1195 1194 2120
3 987 1869 2202
3 1410 1213 2222
3 819 820 2068
3 1485 1486 2173
3 1564 2030 2155
3 807 669 2529
3 129 261 2181
3 1525 1076 2145
3 578 577 2083
3 327 310 1987
3 1083 929 2197
3 2131 1324 2258
3 798 408 2084
3 1838 696 2426
3 1486 1500 1930
3 1946 1944 2291
3 2257 1077 2291
3 1512 1661 2266
3 445 388 2078
3 1192 1471 2260
3 2118 1415 2395
3 1466 1468 2158
3 830 677 831
3 211 2012 2251
3 652 601 2442
3 537 545 551
3 558 508 2102
3 198 2011 2128
3 1718 2280 2385
3 500 960 2102
3 1168 1169 1393
3 1127 971 2496
3 95 96 2309
3 2030 1565 2155
3 1919 1172 2273
3 977 860 2112
3 240 128 2181
3 294 762 2038
3 1800 1799 2195
3 712 789 2067
3 972 1749 2326
3 472 1683 2212
3 874 645 2133
3 551 2045 2201
3 2105 1043 2326
3 1957 1212 2301
3 1514 1856 2367
3 565 538 2167
3 373 370 2103
3 355 348 2196
3 1934 1272 2138
3 1934 426 2531
3 1881 1400 2481
3 2046 1851 2327
3 367 961 2103
3 1963 1152 2206
3 201 278 443
3 3 131 2444
3 31 1 2445
3 2035 441 2097
3 503 787 2198
3 1135 1849 1930
3 1534 1983 2306
3 2089 623 2150
3 687 704 2109
3 869 1351 2363
3 1302 1304 2205
3 955 1716 2484
3 1030 720 1031
3 1159 1318 2240
3 1228 1226 2281
3 947 918 2008
3 413 420 2084
3 785 879 2532
3 1041 947 1168
3 1468 2182 2323
3 1246 1234 2088
3 1730 1163 2372
3 542 555 2086
3 1599 631 2312
3 1146 1967 2174
3 1078 1136 2343
3 1515 1574 2180
3 2336 885 2469
3 1257 1243 2074
3 1347 1346 2279
3 2001 650 2206
3 1480 1601 2514
3 1029 1000 2184
3 1956 788 2336
3 1271 1261 2059
3 130 3 2444
3 1 32 2445
3 1570 1507 2197
3 1232 1255 2088
3 791 1642 2529
3 1601 1479 2269
3 1361 1362 2168
3 1634 1922 2281
3 765 2065 2190
3 2071 1158 2153
3 1699 1801 2289
3 832 831 833
3 1864 346 2344
3 456 476 2097
3 1855 828 2411
3 2065 1162 2190
3 1125 1192 2149
3 599 760 2083
3 361 765 2339
3 1731 2123 2241
3 1349 1181 1350
3 1443 1275 2251
3 1819 524 2429
3 1021 1045 2512
3 858 618 2132
3 1999 358 2338
3 368 292 2038
3 290 368 2135
3 803 331 2296
3 1112 1008 2152
3 56 1947 2313
3 555 979 2086
3 1469 1496 2182
3 1011 967 2107
3 248 2017 2288
3 1809 789 2425
3 960 453 2221
3 538 558 2167
3 1858 1187 2248
3 2246 1757 2526
3 902 905 2141
3 1851 1853 2327
3 1224 1222 2111
3 771 288 2135
3 1945 2153 2257
3 1420 1525 2489
3 1399 1123 2393
3 103 2025 2355
3 897 822 898
3 1861 940 2532
3 865 1125 2146
3 1675 2474 2522
3 1573 2157 2507
3 1632 1631 2382
3 551 601 602
3 527 503 2198
3 1708 805 2337
3 1059 1278 2372
3 2056 527 2198
3 860 861 2112
3 1668 2348 2398
3 255 2159 2265
3 1541 1542 2269
3 1428 2074 2227
3 1582 1583 2321
3 389 1774 2503
3 2004 226 2157
3 1777 397 2405
3 1368 1436 2254
3 1061 2409 2462
3 1071 930 2462
3 1126 901 2141
3 1194 1197 2120
3 1452 1952 2282
3 2116 1319 2482
3 105 106 2218
3 1981 1399 2393
3 2119 983 2143
3 444 1682 2461
3 2173 1648 2463
3 616 793 2132
3 1791 1190 2334
3 1826 1728 2259
3 602 652 653
3 1834 1292 2428
3 556 2201 2327
3 1014 1015 2385
3 1995 1287 2331
3 1193 1195 2189
3 816 1324 2131
3 879 1861 2532
3 593 1182 2133
3 1402 266 1742
3 2216 1323 2354
3 1660 1636 2502
3 620 955 2484
3 1162 1706 2190
3 1870 2113 2249
3 204 1680 1732
3 1909 2023 2420
3 217 72 2217
3 376 372 2430
3 905 1209 2141
3 1378 1381 2283
3 1236 1246 2227
3 286 771 2063
3 1635 2263 2502
3 100 101 2220
3 1139 898 1140
3 2114 1343 2136
3 442 284 2063
3 1772 2106 2414
3 1985 1755 2533
3 2192 1328 2315
3 1064 863 2146
3 1631 1637 2459
3 736 2049 2523
3 221 1906 2246
3 318 1983 2171
3 1496 2047 2182
3 1374 2139 2506
3 196 55 2313
3 2087 462 2134
3 676 653 677
3 2304 257 2491
3 1401 2324 2363
3 829 677 830
3 654 2223 2242
3 1187 977 2112
3 1463 1466 2200
3 2023 219 2516
3 1176 881 2215
3 513 471 2290
3 1812 459 2252
3 1386 1269 2199
3 291 758 2306
3 618 616 2132
3 278 280 2210
3 83 220 2289
3 82 83 2289
3 938 1057 2161
3 1189 986 1190
3 788 719 2336
3 1914 2001 2206
3 232 181 1652
3 1567 2062 2490
3 313 757 2495
3 622 619 2484
3 688 878 1320
3 1222 1626 2111
3 282 442 2079
3 1169 2008 2105
3 1966 1007 2308
3 2040 799 2237
3 1744 2229 2495
3 986 833 1063
3 2284 1605 2510
3 887 1961 2376
3 215 1624 2262
3 830 831 832
3 476 475 2224
3 439 451 2223
3 1932 1933 2380
3 2227 1246 2366
3 1212 1202 2301
3 1107 1110 2228
3 249 2010 2299
3 1983 293 2306
3 2055 1214 2237
3 1438 1372 2478
3 824 560 2156
3 2320 1866 2513
3 1351 1137 2374
3 868 2007 2232
3 2063 771 2064
3 1507 214 1508
3 1728 1727 2246
3 1045 1047 2348
3 1139 1140 2096
3 1648 1649 2463
3 1502 2302 2519
3 704 707 2109
3 2343 1136 2396
3 650 1963 2206
3 2153 895 2257
3 396 1958 2431
3 1379 1377 2288
3 2115 1471 2319
3 2033 987 2202
3 2239 1693 2518
3 2025 1488 2355
3 1209 2115 2319
3 523 524 2156
3 783 939 2243
3 376 1798 2497
3 2066 788 2193
3 1984 318 2172
3 425 427 2221
3 203 172 1847
3 446 457 2264
3 1312 2089 2150
3 2138 1272 2211
3 897 1139 2274
3 828 1819 2429
3 1249 1224 2111
3 666 667 2318
3 1371 1326 2194
3 2433 1499 2475
3 1272 1271 2211
3 1367 2254 2479
3 1386 2053 2383
3 2074 1238 2227
3 755 2148 2320
3 2117 1604 2428
3 475 514 2224
3 228 2187 2457
3 1868 1504 2520
3 1626 1218 2185
3 2123 1111 2241
3 1287 1049 2331
3 1280 687 2109
3 459 1814 2292
3 54 196 2402
3 863 865 2146
3 204 176 1680
3 514 2086 2224
3 1646 603 2398
3 112 197 2346
3 358 300 2338
3 1140 898 1141
3 1204 1335 2301
3 1016 2161 2438
3 909 1041 2175
3 1681 2448 2492
3 2252 459 2292
3 1992 868 2232
3 1035 1036 2235
3 1051 1295 2331
3 1836 1289 2242
3 1508 214 1859
3 247 53 2402
3 1016 938 2161
3 1408 856 2378
3 1466 2158 2200
3 725 885 2336
3 855 1450 2421
3 2023 1768 2420
3 1238 1236 2227
3 1679 202 2253
3 2107 1348 2233
3 1653 1431 2487
3 1946 2291 2343
3 2253 202 2329
3 1885 1312 2150
3 378 628 2390
3 2195 1383 2432
3 1520 1519 2480
3 1532 1733 2534
3 308 327 2278
3 953 951 2255
3 1213 1407 2222
3 1561 1563 2285
3 302 763 2338
3 1928 2033 2202
3 763 304 2345
3 832 833 986
3 1352 2040 2237
3 247 1881 2481
3 560 523 2156
3 335 339 2261
3 346 342 2344
3 201 443 1323
3 2301 1335 2466
3 323 320 2229
3 1136 2110 2396
3 1139 1977 2274
3 1809 1615 2423
3 1707 1791 2334
3 46 2019 2485
3 2064 1294 2238
3 1950 197 2404
3 2021 2022 2176
3 1949 245 2420
3 2044 2152 2207
3 1063 1154 1707
3 1012 1363 2406
3 280 2079 2210
3 2237 1214 2351
3 820 698 2318
3 1140 1141 1406
3 205 2021 2176
3 2043 786 2310
3 2145 1004 2446
3 707 1030 2109
3 1406 2460 2473
3 2137 1268 2226
3 16 2081 2260
3 567 2031 2219
3 2112 1064 2248
3 206 45 2485
3 2347 1462 2365
3 1650 1962 2362
3 453 425 2221
3 1209 907 2175
3 1111 1276 2241
3 2448 1145 2492
3 2051 2083 2243
3 59 60 2266
3 1402 1742 2530
3 831 677 2209
3 624 587 2276
3 238 174 1725
3 1011 2107 2233
3 468 2365 2412
3 2337 805 2371
3 254 1932 2380
3 1174 1398 2207
3 2140 111 2346
3 1381 2186 2283
3 1987 2037 2188
3 1740 559 2456
3 1773 391 2503
3 1335 1870 2249
3 1945 2257 2291
3 828 463 2411
3 1246 2088 2208
3 2060 798 2307
3 1773 1159 2240
3 1187 2112 2248
3 1352 2237 2351
3 2037 1322 2188
3 1941 1499 2433
3 2322 225 2510
3 1031 1034 2236
3 327 2188 2321
3 595 2032 2273
3 1464 1462 2347
3 1285 1992 2232
3 799 2055 2237
3 443 278 2210
3 784 874 2178
3 392 396 2431
3 191 95 2309
3 879 784 2178
3 524 511 2429
3 2128 2011 2270
3 895 896 2257
3 2206 1152 2324
3 318 2171 2172
3 2259 1549 2379
3 1214 1410 2351
3 306 308 2278
3 2022 251 2247
3 1757 1729 2309
3 1283 1918 2524
3 996 1706 2492
3 557 2044 2207
3 1798 1448 2364
3 1447 2250 2310
3 559 1750 2403
3 1363 1011 2233
3 1343 1168 2187
3 1407 2044 2256
3 1462 1460 2365
3 1995 2331 2458
3 327 1987 2188
3 2160 254 2380
3 1681 958 2287
3 2031 1160 2250
3 1600 689 2413
3 2219 1692 2239
3 1494 1675 2522
3 1281 1916 2448
3 907 909 2175
3 565 2167 2276
3 2241 1276 2275
3 1978 316 2443
3 2151 212 2350
3 203 1847 2104
3 2049 1481 2523
3 1961 1362 2376
3 2187 1393 2457
3 940 796 2532
3 2293 1349 2329
3 572 1897 2537
3 332 739 2282
3 2052 567 2239
3 1437 1370 2277
3 567 2219 2239
3 667 626 2452
3 1914 2206 2324
3 2243 939 2392
3 2136 1343 2187
3 257 1654 2530
3 1376 1378 2283
3 2076 1982 2272
3 2083 760 2243
3 1944 1945 2291
3 1771 1839 2359
3 1404 1403 2399
3 1875 1866 2320
3 1460 1337 2412
3 760 783 2243
3 1276 1366 2275
3 1428 2227 2366
3 1882 1605 2284
3 1739 1429 2459
3 2321 2188 2434
3 1328 1327 2315
3 798 2189 2307
3 2152 1174 2207
3 2182 1247 2323
3 1516 1514 2367
3 293 291 2306
3 556 537 2201
3 1298 1300 2314
3 1400 1399 2316
3 1649 2236 2463
3 833 831 2424
3 2127 2050 2333
3 1057 914 2328
3 1839 193 2359
3 761 1741 2258
3 1186 1970 2422
3 1429 2366 2382
3 2211 1271 2271
3 1733 1248 2534
3 13 2114 2136
3 2078 390 2431
3 1533 1536 2340
3 1690 2145 2446
3 1277 2308 2370
3 1168 1393 2187
3 1597 2047 2268
3 587 565 2276
3 1908 244 2401
3 225 125 2284
3 610 2130 2468
3 1749 2105 2326
3 1913 1914 2324
3 2366 2208 2382
3 1391 1876 2295
3 457 552 2264
3 653 688 2209
3 1601 2443 2514
3 682 2138 2211
3 992 1980 2244
3 55 56 2313
3 1645 1495 2493
3 473 477 2483
3 202 1724 2329
3 465 828 2429
3 1277 1966 2308
3 1416 2330 2406
3 1912 1364 2455
3 1716 1483 2375
3 2019 1651 2485
3 1725 2137 2226
3 201 1323 2216
3 878 1083 2213
3 2072 2073 2245
3 1563 1777 2405
3 244 2028 2401
3 2016 1564 2422
3 1682 1497 2461
3 1962 1153 2362
3 1298 2314 2358
3 1384 1385 2391
3 688 1320 2209
3 1587 2179 2435
3 786 380 2497
3 1395 1522 2341
3 2032 1919 2273
3 251 2013 2247
3 2219 2031 2250
3 2397 552 2453
3 1765 255 2489
3 2475 1825 2524
3 1202 1204 2301
3 445 2078 2411
3 323 2229 2296
3 1286 2384 2408
3 537 551 2201
3 1724 237 2293
3 84 85 2335
3 1471 1126 2319
3 1635 1634 2511
3 300 302 2338
3 698 666 2318
3 1030 1031 2236
3 2098 1457 2271
3 696 1821 2426
3 1457 1492 2447
3 1956 2336 2469
3 331 323 2296
3 1284 1491 2342
3 2011 1996 2270
3 256 183 2303
3 160 257 2304
3 2204 1589 2501
3 1891 1014 2280
3 719 725 2336
3 1354 1808 2381
3 437 430 2494
3 2377 218 2391
3 2211 2271 2447
3 1407 2256 2290
3 2365 1460 2412
3 2047 1498 2268
3 1825 1283 2524
3 1499 1825 2475
3 1226 1249 2281
3 2051 2243 2392
3 2250 1160 2310
3 111 112 2346
3 304 306 2345
3 1341 1352 2351
3 2166 191 2504
3 2223 1836 2242
3 1996 247 2481
3 1049 1051 2331
3 1086 1298 2358
3 2130 595 2273
3 1249 2111 2263
3 680 1995 2458
3 1511 2140 2346
3 102 103 2355
3 469 473 2453
3 961 2072 2245
3 2073 1282 2245
3 1442 1443 2525
3 74 192 2361
3 2163 1586 2435
3 1519 1518 2449
3 897 2274 2500
3 303 444 2317
3 1615 1614 2423
3 197 2009 2404
3 1634 2281 2511
3 1780 1781 2419
3 1435 1623 2465
3 1286 1774 2384
3 384 361 2339
3 193 1901 2359
3 1165 2433 2475
3 2277 1370 2386
3 677 653 2209
3 1994 1516 2367
3 1479 1478 2440
3 1165 1512 2433
3 1644 1353 2417
3 1711 1712 2353
3 2193 1615 2425
3 1613 1956 2469
3 1440 1173 2330
3 2269 1479 2440
3 222 2218 2465
3 391 389 2503
3 306 2278 2345
3 468 2090 2365
3 221 2246 2526
3 1445 1446 2504
3 939 1844 2392
3 86 87 2373
3 1429 1428 2366
3 2053 2103 2383
3 1348 1212 2312
3 805 750 2371
3 997 1286 2408
3 1152 869 2363
3 2063 2064 2238
3 192 1994 2367
3 1160 2043 2310
3 1926 2151 2350
3 2059 2098 2271
3 1897 1366 2537
3 215 2262 2437
3 1655 1732 2476
3 2415 1128 2454
3 1320 2213 2214
3 7 258 2357
3 259 155 2356
3 2171 1530 2172
3 347 351 2407
3 1077 1078 2343
3 239 2003 2279
3 1446 1128 2415
3 1034 1033 2410
3 601 627 2442
3 1154 1653 2234
3 397 2060 2405
3 2142 794 2272
3 442 2063 2238
3 1863 1215 2378
3 794 2076 2272
3 1883 1375 2505
3 1320 878 2213
3 342 468 2344
3 1903 218 2377
3 380 376 2497
3 1549 1547 2379
3 1148 1165 2475
3 2157 226 2507
3 829 972 2326
3 884 1957 2466
3 2291 1077 2343
3 65 66 2395
3 787 2052 2518
3 2298 1348 2312
3 1946 2343 2396
3 1653 256 2535
3 1842 1548 2472
3 1957 2301 2466
3 1366 1277 2370
3 2213 1432 2214
3 961 2245 2383
3 218 2093 2391
3 1376 2283 2421
3 1873 2127 2333
3 1019 1021 2512
3 1128 1127 2454
3 1104 1434 2450
3 2130 1439 2468
3 2396 2110 2482
3 2186 855 2283
3 1724 2293 2329
3 1163 1059 2372
3 1614 2389 2423
3 53 54 2402
3 1063 1707 2334
3 2283 855 2421
3 1385 1863 2436
3 364 1883 2505
3 517 1890 2387
3 1145 996 2492
3 1047 1287 2348
3 2148 1875 2320
3 205 2176 2416
3 1372 1844 2478
3 1211 2219 2250
3 1141 898 2368
3 245 1909 2420
3 2278 327 2321
3 2389 1397 2423
3 2256 513 2290
3 559 2403 2456
3 1137 1340 2374
3 2093 1384 2391
3 1918 1148 2524
3 1030 2236 2427
3 1867 1895 2513
3 2014 517 2387
3 2271 1457 2447
3 1143 2028 2353
3 1904 194 2432
3 1148 2475 2524
3 1574 1523 2436
3 2213 1083 2311
3 1997 358 2325
3 2139 246 2506
3 1370 1369 2386
3 1271 2059 2271
3 1034 2173 2463
3 1123 1412 2393
3 1578 1827 2515
3 2209 1320 2424
3 2079 1504 2210
3 1361 2168 2305
3 1491 1489 2403
3 238 1725 2226
3 1190 986 2334
3 1547 1545 2508
3 1891 1613 2469
3 1153 1885 2362
3 2208 1632 2382
3 2287 1281 2448
3 1356 1376 2421
3 1965 2349 2515
3 2155 1186 2422
3 1522 2014 2387
3 2158 1468 2323
3 2050 954 2333
3 1397 1809 2423
3 1362 1360 2376
3 1852 1985 2397
3 2069 1691 2446
3 789 2066 2425
3 1895 755 2513
3 1707 1154 2234
3 372 374 2430
3 2225 787 2518
3 2028 1206 2401
3 986 1063 2334
3 1912 726 2439
3 1340 1342 2400
3 1916 1145 2448
3 2236 1649 2427
3 2374 1340 2400
3 2222 1407 2290
3 2324 1152 2363
3 241 2220 2472
3 765 2190 2384
3 2375 667 2452
3 2330 1173 2406
3 1181 1972 2500
3 2126 1382 2388
3 1173 1012 2406
3 315 313 2495
3 1015 1373 2385
3 97 221 2526
3 1937 1397 2389
3 930 1061 2462
3 971 1096 2496
3 45 46 2485
3 669 791 2529
3 1104 2450 2521
3 382 378 2390
3 2191 1371 2536
3 2235 1036 2286
3 831 2209 2424
3 762 1997 2349
3 2379 1547 2508
3 2177 1359 2467
3 2403 1489 2456
3 796 785 2532
3 219 1902 2516
3 1519 2300 2480
3 1065 1655 2476
3 1375 1473 2505
3 1489 1490 2456
3 390 392 2431
3 2247 2013 2464
3 1135 1930 2369
3 2278 1583 2345
3 626 622 2452
3 631 2298 2312
3 2233 1348 2298
3 1398 1974 2499
3 1706 1681 2492
3 261 130 2444
3 32 260 2445
3 822 2099 2368
3 1365 1912 2439
3 941 940 2418
3 1446 2166 2504
3 2106 1121 2414
3 2300 1519 2449
3 1803 1104 2521
3 1732 1570 2476
3 1413 2051 2392
3 2122 1946 2396
3 2238 1868 2520
3 477 556 2483
3 2397 1985 2533
3 463 445 2411
3 2163 1185 2488
3 1126 2141 2319
3 1755 2264 2533
3 972 2204 2501
3 2230 1533 2340
3 1774 1773 2503
3 1997 2325 2349
3 1004 2069 2446
3 2159 31 2445
3 131 2160 2444
3 1371 2191 2451
3 1001 2154 2486
3 1682 2230 2340
3 2103 961 2383
3 1033 1151 2410
3 382 2390 2531
3 1504 2079 2520
3 1583 2278 2321
3 511 465 2429
3 250 2024 2479
3 2208 2088 2509
3 619 620 2484
3 1246 2208 2366
3 2141 1209 2319
3 1359 1413 2467
3 1295 1459 2458
3 2218 1435 2465
3 2281 1249 2511
3 2293 237 2354
3 2207 1398 2499
3 1564 2155 2422
3 552 469 2453
3 1947 224 2498
3 2062 1568 2490
3 2018 205 2416
3 260 2159 2445
3 2160 261 2444
3 2092 610 2468
3 194 2195 2432
3 1432 2213 2311
3 211 2251 2464
3 2378 856 2527
3 1536 1532 2534
3 2364 786 2497
3 2438 1438 2478
3 1185 1948 2488
3 2042 941 2418
3 1582 2321 2434
3 885 1891 2469
3 1364 2048 2455
3 1693 2225 2518
3 401 382 2531
3 1338 2247 2464
3 442 2238 2520
3 1292 2117 2428
3 2274 1350 2500
3 2066 2193 2425
3 2179 1184 2435
3 898 822 2368
3 2436 1863 2527
3 1844 1016 2478
3 2184 1001 2486
3 557 2207 2499
3 2013 211 2464
3 2254 250 2479
3 1350 1181 2500
3 2009 248 2470
3 246 2140 2506
3 1574 2436 2527
3 2139 1419 2517
3 316 1971 2514
3 1319 2122 2482
3 226 2006 2507
3 1400 2270 2481
3 1681 2287 2448
3 2325 1578 2349
3 232 1652 2487
3 1320 2214 2424
3 1632 2208 2509
3 248 2288 2470
3 1406 1141 2460
3 2188 1322 2434
3 2244 1980 2441
3 2088 1255 2509
3 1280 2109 2427
3 2060 2307 2405
3 2236 1034 2463
3 1745 2293 2354
3 2122 2396 2482
3 2109 1030 2427
3 2307 1563 2405
3 1429 2382 2459
3 224 2267 2498
3 682 2211 2447
3 2079 442 2520
3 2348 1287 2398
3 2220 1842 2472
3 1335 2249 2466
3 1249 2263 2511
3 443 2210 2519
3 2385 1373 2394
3 1594 2184 2486
3 2052 2239 2518
3 1568 2439 2490
3 2349 1578 2515
3 2344 468 2412
3 2270 1996 2481
3 1735 2244 2441
3 2260 1471 2477
3 2210 1504 2519
3 1434 2297 2450
3 2297 1419 2450
3 2263 1660 2502
3 2404 2009 2470
3 1718 2385 2394
3 1371 2194 2536
3 2317 444 2461
3 1443 2322 2525
3 1716 2375 2452
3 1863 2378 2527
3 2439 726 2490
3 1057 2328 2451
3 1638 2404 2470
3 1454 2234 2535
3 755 2320 2513
3 2234 1653 2535
3 2264 552 2533
3 1419 2297 2517
3 1392 2322 2510
3 552 2397 2533
3 1798 2364 2497
3 2322 1392 2525
3 2382 1631 2459
3 1016 2438 2478
3 1366 2370 2537
3 1742 2491 2530
3 2491 257 2530
CELL_TYPES 4886
5
5
5
5
5
5
5
5
5
5
5
5
5
5
5
5
5
5
5
5
5
5
5
5
5
5
5
5
5
5
5
5
5
5
5
5
5
5
5
5
5
5
5
5
5
5
5
5
5
5
5
5
5
5
5
5
5
5
5
5
5
5
5
5
5
5
5
5
5
5
5
5
5
5
5
5
5
5
5
5
5
5
5
5
5
5
5
5
5
5
5
5
5
5
5
5
5
5
5
5
5
5
5
5
5
5
5
5
5
5
5
5
5
5
5
5
5
5
5
5
5
5
5
5
5
5
5
5
5
5
5
5
5
5
5
5
5
5
5
5
5
5
5
5
5
5
5
5
5
5
5
5
5
5
5
5
5
5
5
5
5
5
5
5
5
5
5
5
5
5
5
5
5
5
5
5
5
5
5
5
5
5
5
5
5
5
5
5
5
5
5
5
5
5
5
5
5
5
5
5
5
5
5
5
5
5
5
5
5
5
5
5
5
5
5
5
5
5
5
5
5
5
5
5
5
5
5
5
5
5
5
5
5
5
5
5
5
5
5
5
5
5
5
5
5
5
5
5
5
5
5
5
5
5
5
5
5
5
5
5
5
5
5
5
5
5
5
5
5
5
5
5
5
5
5
5
5
5
5
5
5
5
5
5
5
5
5
5
5
5
5
5
5
5
5
5
5
5
5
5
5
5
5
5
5
5
5
5
5
5
5
5
5
5
5
5
5
5
5
5
5
5
5
5
5
5
5
5
5
5
5
5
5
5
5
5
5
5
5
5
5
5
5
5
5
5
5
5
5
5
5
5
5
5
5
5
5
5
5
5
5
5
5
5
5
5
5
5
5
5
5
5
5
5
5
5
5
5
5
5
5
5
5
5
5
5
5
5
5
5
5
5
5
5
5
5
5
5
5
5
5
5
5
5
5
5
5
5
5
5
5
5
5
5
5
5
5
5
5
5
5
5
5
5
5
5
5
5
5
5
5
5
5
5
5
5
5
5
5
5
5
5
5
5
5
5
5
5
5
5
5
5
5
5
5
5
5
5
5
5
5
5
5
5
5
5
5
5
5
5
5
5
5
5
5
5
5
5
5
5
5
5
5
5
5
5
5
5
5
5
5
5
5
5
5
5
5
5
5
5
5
5
5
5
5
5
5
5
5
5
5
5
5
5
5
5
5
5
5
5
5
5
5
5
5
5
5
5
5
5
5
5
5
5
5
5
5
5
5
5
5
5
5
5
5
5
5
5
5
5
5
5
5
5
5
5
5
5
5
5
5
5
5
5
5
5
5
5
5
5
5
5
5
5
5
5
5
5
5
5
5
5
5
5
5
5
5
5
5
5
5
5
5
5
5
5
5
5
5
5
5
5
5
5
5
5
5
5
5
5
5
5
5
5
5
5
5
5
5
5
5
5
5
5
5
5
5
5
5
5
5
5
5
5
5
5
5
5
5
5
5
5
5
5
5
5
5
5
5
5
5
5
5
5
5
5
5
5
5
5
5
5
5
5
5
5
5
5
5
5
5
5
5
5
5
5
5
5
5
5
5
5
5
5
5
5
5
5
5
5
5
5
5
5
5
5
5
5
5
5
5
5
5
5
5
5
5
5
5
5
5
5
5
5
5
5
5
5
5
5
5
5
5
5
5
5
5
5
5
5
5
5
5
5
5
5
5
5
5
5
5
5
5
5
5
5
5
5
5
5
5
5
5
5
5
5
5
5
5
5
5
5
5
5
5
5
5
5
5
5
5
5
5
5
5
5
5
5
5
5
5
5
5
5
5
5
5
5
5
5
5
5
5
5
5
5
5
5
5
5
5
5
5
5
5
5
5
5
5
5
5
5
5
5
5
5
5
5
5
5
5
5
5
5
5
5
5
5
5
5
5
5
5
5
5
5
5
5
5
5
5
5
5
5
5
5
5
5
5
5
5
5
5
5
5
5
5
5
5
5
5
5
5
5
5
5
5
5
5
5
5
5
5
5
5
5
5
5
5
5
5
5
5
5
5
5
5
5
5
5
5
5
5
5
5
5
5
5
5
5
5
5
5
5
5
5
5
5
5
5
5
5
5
5
5
5
5
5
5
5
5
5
5
5
5
5
5
5
5
5
5
5
5
5
5
5
5
5
5
5
5
5
5
5
5
5
5
5
5
5
5
5
5
5
5
5
5
5
5
5
5
5
5
5
5
5
5
5
5
5
5
5
5
5
5
5
5
5
5
5
5
5
5
5
5
5
5
5
5
5
5
5
5
5
5
5
5
5
5
5
5
5
5
5
5
5
5
5
5
5
5
5
5
5
5
5
5
5
5
5
5
5
5
5
5
5
5
5
5
5
5
5
5
5
5
5
5
5
5
5
5
5
5
5
5
5
5
5
5
5
5
5
5
5
5
5
5
5
5
5
5
5
5
5
5
5
5
5
5
5
5
5
5
5
5
5
5
5
5
5
5
5
5
5
5
5
5
5
5
5
5
5
5
5
5
5
5
5
5
5
5
5
5
5
5
5
5
5
5
5
5
5
5
5
5
5
5
5
5
5
5
5
5
5
5
5
5
5
5
5
5
5
5
5
5
5
5
5
5
5
5
5
5
5
5
5
5
5
5
5
5
5
5
5
5
5
5
5
5
5
5
5
5
5
5
5
5
5
5
5
5
5
5
5
5
5
5
5
5
5
5
5
5
5
5
5
5
5
5
5
5
5
5
5
5
5
5
5
5
5
5
5
5
5
5
5
5
5
5
5
5
5
5
5
5
5
5
5
5
5
5
5
5
5
5
5
5
5
5
5
5
5
5
5
5
5
5
5
5
5
5
5
5
5
5
5
5
5
5
5
5
5
5
5
5
5
5
5
5
5
5
5
5
5
5
5
5
5
5
5
5
5
5
5
5
5
5
5
5
5
5
5
5
5
5
5
5
5
5
5
5
5
5
5
5
5
5
5
5
5
5
5
5
5
5
5
5
5
5
5
5
5
5
5
5
5
5
5
5
5
5
5
5
5
5
5
5
5
5
5
5
5
5
5
5
5
5
5
5
5
5
5
5
5
5
5
5
5
5
5
5
5
5
5
5
5
5
5
5
5
5
5
5
5
5
5
5
5
5
5
5
5
5
5
5
5
5
5
5
5
5
5
5
5
5
5
5
5
5
5
5
5
5
5
5
5
5
5
5
5
5
5
5
5
5
5
5
5
5
5
5
5
5
5
5
5
5
5
5
5
5
5
5
5
5
5
5
5
5
5
5
5
5
5
5
5
5
5
5
5
5
5
5
5
5
5
5
5
5
5
5
5
5
5
5
5
5
5
5
5
5
5
5
5
5
5
5
5
5
5
5
5
5
5
5
5
5
5
5
5
5
5
5
5
5
5
5
5
5
5
5
5
5
5
5
5
5
5
5
5
5
5
5
5
5
5
5
5
5
5
5
5
5
5
5
5
5
5
5
5
5
5
5
5
5
5
5
5
5
5
5
5
5
5
5
5
5
5
5
5
5
5
5
5
5
5
5
5
5
5
5
5
5
5
5
5
5
5
5
5
5
5
5
5
5
5
5
5
5
5
5
5
5
5
5
5
5
5
5
5
5
5
5
5
5
5
5
5
5
5
5
5
5
5
5
5
5
5
5
5
5
5
5
5
5
5
5
5
5
5
5
5
5
5
5
5
5
5
5
5
5
5
5
5
5
5
5
5
5
5
5
5
5
5
5
5
5
5
5
5
5
5
5
5
5
5
5
5
5
5
5
5
5
5
5
5
5
5
5
5
5
5
5
5
5
5
5
5
5
5
5
5
5
5
5
5
5
5
5
5
5
5
5
5
5
5
5
5
5
5
5
5
5
5
5
5
5
5
5
5
5
5
5
5
5
5
5
5
5
5
5
5
5
5
5
5
5
5
5
5
5
5
5
5
5
5
5
5
5
5
5
5
5
5
5
5
5
5
5
5
5
5
5
5
5
5
5
5
5
5
5
5
5
5
5
5
5
5
5
5
5
5
5
5
5
5
5
5
5
5
5
5
5
5
5
5
5
5
5
5
5
5
5
5
5
5
5
5
5
5
5
5
5
5
5
5
5
5
5
5
5
5
5
5
5
5
5
5
5
5
5
5
5
5
5
5
5
5
5
5
5
5
5
5
5
5
5
5
5
5
5
5
5
5
5
5
5
5
5
5
5
5
5
5
5
5
5
5
5
5
5
5
5
5
5
5
5
5
5
5
5
5
5
5
5
5
5
5
5
5
5
5
5
5
5
5
5
5
5
5
5
5
5
5
5
5
5
5
5
5
5
5
5
5
5
5
5
5
5
5
5
5
5
5
5
5
5
5
5
5
5
5
5
5
5
5
5
5
5
5
5
5
5
5
5
5
5
5
5
5
5
5
5
5
5
5
5
5
5
5
5
5
5
5
5
5
5
5
5
5
5
5
5
5
5
5
5
5
5
5
5
5
5
5
5
5
5
5
5
5
5
5
5
5
5
5
5
5
5
5
5
5
5
5
5
5
5
5
5
5
5
5
5
5
5
5
5
5
5
5
5
5
5
5
5
5
5
5
5
5
5
5
5
5
5
5
5
5
5
5
5
5
5
5
5
5
5
5
5
5
5
5
5
5
5
5
5
5
5
5
5
5
5
5
5
5
5
5
5
5
5
5
5
5
5
5
5
5
5
5
5
5
5
5
5
5
5
5
5
5
5
5
5
5
5
5
5
5
5
5
5
5
5
5
5
5
5
5
5
5
5
5
5
5
5
5
5
5
5
5
5
5
5
5
5
5
5
5
5
5
5
5
5
5
5
5
5
5
5
5
5
5
5
5
5
5
5
5
5
5
5
5
5
5
5
5
5
5
5
5
5
5
5
5
5
5
5
5
5
5
5
5
5
5
5
5
5
5
5
5
5
5
5
5
5
5
5
5
5
5
5
5
5
5
5
5
5
5
5
5
5
5
5
5
5
5
5
5
5
5
5
5
5
5
5
5
5
5
5
5
5
5
5
5
5
5
5
5
5
5
5
5
5
5
5
5
5
5
5
5
5
5
5
5
5
5
5
5
5
5
5
5
5
5
5
5
5
5
5
5
5
5
5
5
5
5
5
5
5
5
5
5
5
5
5
5
5
5
5
5
5
5
5
5
5
5
5
5
5
5
5
5
5
5
5
5
5
5
5
5
5
5
5
5
5
5
5
5
5
5
5
5
5
5
5
5
5
5
5
5
5
5
5
5
5
5
5
5
5
5
5
5
5
5
5
5
5
5
5
5
5
5
5
5
5
5
5
5
5
5
5
5
5
5
5
5
5
5
5
5
5
5
5
5
5
5
5
5
5
5
5
5
5
5
5
5
5
5
5
5
5
5
5
5
5
5
5
5
5
5
5
5
5
5
5
5
5
5
5
5
5
5
5
5
5
5
5
5
5
5
5
5
5
5
5
5
5
5
5
5
5
5
5
5
5
5
5
5
5
5
5
5
5
5
5
5
5
5
5
5
5
5
5
5
5
5
5
5
5
5
5
5
5
5
5
5
5
5
5
5
5
5
5
5
5
5
5
5
5
5
5
5
5
5
5
5
5
5
5
5
5
5
5
5
5
5
5
5
5
5
5
5
5
5
5
5
5
5
5
5
5
5
5
5
5
5
5
5
5
5
5
5
5
5
5
5
5
5
5
5
5
5
5
5
5
5
5
5
5
5
5
5
5
5
5
5
5
5
5
5
5
5
5
5
5
5
5
5
5
5
5
5
5
5
5
5
5
5
5
5
5
5
5
5
5
5
5
5
5
5
5
5
5
5
5
5
5
5
5
5
5
5
5
5
5
5
5
5
5
5
5
5
5
5
5
5
5
5
5
5
5
5
5
5
5
5
5
5
5
5
5
5
5
5
5
5
5
5
5
5
5
5
5
5
5
5
5
5
5
5
5
5
5
5
5
5
5
5
5
5
5
5
5
5
5
5
5
5
5
5
5
5
5
5
5
5
5
5
5
5
5
5
5
5
5
5
5
5
5
5
5
5
5
5
5
5
5
5
5
5
5
5
5
5
5
5
5
5
5
5
5
5
5
5
5
5
5
5
5
5
5
5
5
5
5
5
5
5
5
5
5
5
5
5
5
5
5
5
5
5
5
5
5
5
5
5
5
5
5
5
5
5
5
5
5
5
5
5
5
5
5
5
5
5
5
5
5
5
5
5
5
5
5
5
5
5
5
5
5
5
5
5
5
5
5
5
5
5
5
5
5
5
5
5
5
5
5
5
5
5
5
5
5
5
5
5
5
5
5
5
5
5
5
5
5
5
5
5
5
5
5
5
5
5
5
5
5
5
5
5
5
5
5
5
5
5
5
5
5
5
5
5
5
5
5
5
5
5
5
5
5
5
5
5
5
5
5
5
5
5
5
5
5
5
5
5
5
5
5
5
5
5
5
5
5
5
5
5
5
5
5
5
5
5
5
5
5
5
5
5
5
5
5
5
5
5
5
5
5
5
5
5
5
5
5
5
5
5
5
5
5
5
5
5
5
5
5
5
5
5
5
5
5
5
5
5
5
5
5
5
5
5
5
5
5
5
5
5
5
5
5
5
5
5
5
5
5
5
5
5
5
5
5
5
5
5
5
5
5
5
5
5
5
5
5
5
5
5
5
5
5
5
5
5
5
5
5
5
5
5
5
5
5
5
5
5
5
5
5
5
5
5
5
5
5
5
5
5
5
5
5
5
5
5
5
5
5
5
5
5
5
5
5
5
5
5
5
5
5
5
5
5
5
5
5
5
5
5
5
5
5
5
5
5
5
5
5
5
5
5
5
5
5
5
5
5
5
5
5
5
5
5
5
5
5
5
5
5
5
5
5
5
5
5
5
5
5
5
5
5
5
5
5
5
5
5
5
5
5
5
5
5
5
5
5
5
5
5
5
5
5
5
5
5
5
5
5
5
5
5
5
5
5
5
5
5
5
5
5
5
5
5
5
5
5
5
5
5
5
5
5
5
5
5
5
5
5
5
5
5
5
5
5
5
5
5
5
5
5
5
5
5
5
5
5
5
5
5
5
5
5
5
5
5
5
5
5
5
5
5
5
5
5
5
5
5
5
5
5
5
5
5
5
5
5
5
5
5
5
5
5
5
5
5
5
5
5
5
5
5
5
5
5
5
5
5
5
5
5
5
5
5
5
5
5
5
5
5
5
5
5
5
5
5
5
5
5
5
5
5
5
5
5
5
5
5
5
5
5
5
5
5
5
5
5
5
5
5
5
5
5
5
5
5
5
5
5
5
5
5
5
5
5
5
5
5
5
5
5
5
5
5
5
5
5
5
5
5
5
5
5
5
5
5
5
5
5
5
5
5
5
5
5
5
5
5
5
5
5
5
5
5
5
5
5
5
5
5
5
5
5
5
5
5
5
5
5
5
5
5
5
5
5
5
5
5
5
5
5
5
5
5
5
5
5
5
5
5
5
5
5
5
5
5
5
5
5
5
5
5
5
5
5
5
5
5
5
5
5
5
5
5
5
5
5
5
5
5
5
5
5
5
5
5
5
5
5
5
5
5
5
5
5
5
5
5
5
5
5
5
5
5
5
5
5
5
5
5
5
5
5
5
5
5
5
5
5
5
5
5
5
5
5
5
5
5
5
5
5
5
5
5
5
5
5
5
5
5
5
5
5
5
5
5
5
5
5
5
5
5
5
5
5
5
5
5
5
5
5
5
5
5
5
5
5
5
5
5
5
5
5
5
5
5
5
5
5
5
5
5
5
5
5
5
5
5
5
5
5
5
5
5
5
5
5
5
5
5
5
5
5
5
5
5
5
5
5
5
5
5
5
5
5
5
5
5
5
5
5
5
5
5
5
5
5
5
5
5
5
5
5
5
5
5
5
5
5
5
5
5
5
5
5
5
5
5
5
5
5
5
5
5
5
5
5
5
5
5
5
5
5
5
5
5
5
5
5
5
5
5
5
5
5
5
5
5
5
5
5
5
5
5
5
5
5
5
5
5
5
5
5
5
5
5
5
5
5
5
5
5
5
5
5
5
5
5
5
5
5
5
5
5
5
5
5
5
5
5
5
5
5
5
5
5
5
5
5
5
5
5
5
5
5
5
5
5
5
5
5
5
5
5
5
5
5
5
5
5
5
5
5
5
5
5
5
5
5
5
5
5
5
5
5
5
5
5
5
5
5
5
5
5
5
5
5
5
5
5
5
5
5
5
5
5
5
5
5
5
5
5
5
5
5
5
5
5
5
5
5
5
5
5
5
5
5
5
5
5
5
5
5
5
5
5
5
5
5
5
5
5
5
5
5
5
5
5
5
5
5
5
5
5
5
5
5
5
5
5
5
5
5
5
5
5
5
5
5
5
5
5
5
5
5
5
5
5
5
5
5
5
5
5
5
5
5
5
5
5
5
5
5
5
5
5
5
5
5
5
5
5
5
5
5
5
5
5
5
5
5
5
5
5
5
5
5
5
5
5
5
5
5
5
5
5
5
5
5
5
5
5
5
5
5
5
5
5
5
5
5
5
5
5
5
5
5
5
5
5
5
5
5
5
5
5
5
5
5
5
5
5
5
5
5
5
5
5
5
5
5
5
5
5
5
5
5
5
5
5
5
5
5
5
5
5
5
5
5
5
5
5
5
5
5
5
5
5
5
5
5
5
5
5
5
5
5
5
5
5
5
5
5
5
5
5
5
5
5
5
5
5
5
5
5
5
5
5
5
5
5
5
5
5
5
5
5
5
5
5
5
5
5
5
5
5
5
5
5
5
5
5
5
5
5
5
5
5
5
5
5
5
5
5
5
5
5
5
5
5
5
5
5
5
5
5
5
5
5
5
5
5
5
5
5
5
5
5
5
5
5
5
5
5
5
5
5
5
5
5
5
5
5
5
5
5
5
5
5
5
5
5
5
5
5
5
5
5
5
5
5
5
5
5
5
5
5
5
5
5
5
5
5
5
5
5
5
5
5
5
5
5
5
5
5
5
5
5
5
5
5
5
5
5
5
5
5
5
5
5
5
5
5
5
5
5
5
5
5
5
5
5
5
5
5
5
5
5
5
5
5
5
5
5
5
5
5
5
5
5
5
5
5
5
5
5
5
5
5
5
5
5
5
5
5
5
5
5
5
5
5
5
5
5
5
5
5
5
5
5
5
5
5
5
5
5
5
5
5
5
5
5
5
5
5
5
5
5
5
5
5
5
5
5
5
5
5
5
5
5
5
5
5
5
5
5
5
5
5
5
5
5
5
5
5
5
5
5
5
5
5
5
5
5
5
5
5
5
5
5
5
5
5
5
5
5
5
5
5
5
5
5
5
5
5
5
5
5
5
5
5
5
5
5
5
5
5
5
5
5
5
5
5
5
5
5
5
5
5
5
5
5
5
5
5
5
5
5
5
5
5
5
5
5
5
5
5
5
5
5
5
5
5
5
5
5
5
5
5
5
5
5
5
5
5
5
5
5
5
5
5
5
5
5
5
5
5
5
5
5
5
5
5
5
5
5
5
5
5
5
5
5
5
5
5
5
5
5
5
5
5
5
5
5
5
5
5
5
5
5
5
5
5
5
5
5
5
5
5
5
5
5
5
5
5
5
5
5
5
5
5
5
5
5
5
5
5
5
5
5
5
5
5
5
5
5
5
5
5
5
5
5
5
5
5
5
5
5
5
5
5
5
5
5
5
5
5
5
5
5
5
5
5
5
5
5
5
5
5
5
5
5
5
5
5
5
5
5
5
5
5
5
5
5
5
5
5
5
5
5
5
5
5
5
5
5
5
5
5
5
5
5
5
5
5
5
5
5
5
5
5
5
5
5
5
5
5
5
5
5
5
5
5
5
5
5
5
5
5
5
5
5
5
5
5
5
5
5
5
5
5
5
5
5
5
5
5
5
5
5
5
5
5
5
5
5
5
5
5
5
5
5
5
5
5
5
5
5
5
5
5
5
5
5
5
5
5
5
5
5
5
5
5
5
5
5
5
5
5
5
5
5
5
5
5
5
5
5
5
5
5
5
5
5
5
5
5
5
5
5
5
5
5
5
5
5
5
5
5
5
5
5
5
5
5
5
5
5
5
5
5
5
5
5
5
5
5
5
5
5
5
5
5
5
5
5
5
5
5
5
5
5
5
5
5
5
5
5
5
5
5
5
5
5
5
5
5
5
5
5
5
5
5
5
5
5
5
5
5
5
5
5
5
5
5
5
5
5
5
5
5
5
5
5
5
5
5
5
5
5
5
5
5
5
5
5
5
5
5
5
5
5
5
5
5
5
5
5
5
5
5
5
5
5
5
5
5
5
5
5
5
5
5
5
5
5
5
5
5
5
5
5
5
5
5
5
5
5
5
5
5
5
5
5
5
5
5
5
5
5
5
5
5
5
5
5
5
5
5
5
5
5
5
5
5
5
5
5
5
5
5
5
5
5
5
5
5
5
5
5
5
5
5
5
5
5
5
5
5
5
5
5
5
5
5
5
5
5
5
5
5
5
5
5
5
5
5
5
5
5
5
5
5
5
5
5
5
5
5
5
5
5
5
5
5
5
5
5
5
5
5
5
5
5
5
5
5
5
5
5
5
5
5
5
5
5
5
5
5
5
5
5
5
5
5
5
5
5
5
5
5
5
5
5
5
5
5
5
5
5
5
5
5
5
5
5
5
5
5
5
5
5
5
5
5
5
5
5
5
5
5
5
5
5
5
5
5
5
5
5
5
5
5
5
5
5
5
5
5
5
5
5
5
5
5
5
5
5
5
5
5
5
5
5
5
5
5
5
5
5
5
5
5
5
5
5
5
5
5
5
5
5
5
5
5
5
5
5
5
5
5
5
5
5
5
5
5
5
5
5
5
5
5
5
5
5
5
5
5
5
5
5
5
5
5
5
5
5
5
5
5
5
5
5
5
5
5
5
5
5
5
5
5
5
5
5
5
5
5
5
5
5
5
5
5
5
5
5
5
5
5
5
5
5
5
5
5
5
5
5
5
5
5
5
5
5
5
5
5
5
5
5
5
5
5
5
5
5
5
5
5
5
5
5
5
5
5
5
5
5
5
5
5
5
5
5
5
5
POINT_DATA 2538
VECTORS disp float
1.3446579438980394e-11 2.798851591628919e-11 0.0
1.9149212089158393e-11 -4.740181060386411e-11 0.0
0.002499999997433049 8.556293093022103e-12 0.0
0.002499999972974533 -6.992532115853206e-11 0.0
0.0009385428501392885 0.00037974462372228086 0.0
0.0018441213690910524 7.153597960712765e-5 0.0
0.0012701974643798616 3.2386662816929324e-5 0.0
8.998259694468111e-13 -2.1381313112662794e-12 0.0
4.016946159230761e-12 3.2059411493872157e-12 0.0
3.0470104462816957e-12 6.205251953232745e-13 0.0
2.6634947562545617e-12 6.579152426520593e-13 0.0
1.9869693678634908e-12 3.222450943962795e-13 0.0
1.7763574745782002e-12 -1.2904638369200915e-13 0.0
1.4733372747028442e-12 -3.77690677935369e-13 0.0
1.2752638514649897e-12 -8.405975655619911e-13 0.0
9.441489107848735e-13 -1.342155176514919e-12 0.0
1.1651744159684488e-12 -1.974326770509537e-12 0.0
1.1446480454417367e-12 -2.6635669443334557e-12 0.0
1.2857369964113123e-12 -3.395942069168218e-12 0.0
1.4640551051782703e-12 -4.122755785253766e-12 0.0
1.5289995186569563e-12 -4.660491246525544e-12 0.0
1.813376388002674e-12 -5.401753756567472e-12 0.0
1.8581342884712546e-12 -5.819127657671658e-12 0.0
2.019910634419693e-12 -6.474134370865706e-12 0.0
2.2152766827754747e-12 -7.0748235850771645e-12 0.0
2.2918552685510083e-12 -7.632562301804415e-12 0.0
2.4804949591861276e-12 -8.34138373344992e-12 0.0
2.7368331322168842e-12 -9.1299325582589e-12 0.0
3.0996622495596905e-12 -1.0171713217150145e-11 0.0
3.0912702371819003e-12 -1.1262562573487767e-11 0.0
4.693377390166716e-12 -1.467905182005966e-11 0.0
1.8847186018674924e-12 -1.1426676533105096e-11 0.0
3.467170149638851e-5 -3.325721343959e-5 0.0
6.0631397260364066e-5 -5.6281876659194184e-5 0.0
8.562306659057538e-5 -7.632840259202388e-5 0.0
0.0001091061220141271 -9.444467780409519e-5 0.0
0.0001314997261180213 -0.00011125795382760522 0.0
0.00015326513159443728 -0.0001273422261645016 0.0
0.00017479395524654096 -0.0001426372063331383 0.0
0.00019585802323541466 -0.0001573392547403299 0.0
0.0002166918633871375 -0.0001716119884298872 0.0
0.00023738995093236585 -0.00018540486700683188 0.0
0.00025793482241670486 -0.0001988834606262212 0.0
0.0002785492714578116 -0.00021200225668945082 0.0
0.0002990979703125975 -0.00022476413317882473 0.0
0.00031966553385399314 -0.00023730469176688718 0.0
0.0003403734262503284 -0.00024952623201962576 0.0
0.0003610398341439695 -0.00026142983346667364 0.0
0.0003818274577586975 -0.00027311711270120565 0.0
0.00040276501090475564 -0.00028448088312613726 0.0
0.0004238120468013109 -0.00029561302728071096 0.0
0.00044499775295164226 -0.00030651197515817804 0.0
0.00046633470647927585 -0.0003171726124918772 0.0
0.0004878100237141294 -0.00032759174447352044 0.0
0.0005095552791198952 -0.0003378008053536694 0.0
0.0005313432233326428 -0.0003477653692485506 0.0
0.0005534664184782364 -0.0003575076668741562 0.0
0.0005756142095275623 -0.0003669972432592954 0.0
0.0005980167577920138 -0.0003762800905771475 0.0
0.0006205781540246278 -0.0003852933373991134 0.0
0.0006434326106825068 -0.0003940991080762647 0.0
0.0006663200512086124 -0.00040268652712998704 0.0
0.0006895313620611647 -0.00041105418544919566 0.0
0.0007129125252859416 -0.00041916638544664753 0.0
0.0007365503079106562 -0.00042710434877764623 0.0
0.0007603642115852632 -0.00043483107497451916 0.0
0.0007844502277140166 -0.0004424114172521935 0.0
0.0008085672621010449 -0.00044973933998566115 0.0
0.0008330179658430671 -0.00045684449946382217 0.0
0.0008574973016795241 -0.00046357771277574794 0.0
0.0008820907155704811 -0.00046995227592721797 0.0
0.0009068819476329929 -0.0004761248852840872 0.0
0.0009317109553955761 -0.0004819002232705935 0.0
0.00095685014491501 -0.0004874214644863898 0.0
0.0009822239604891708 -0.0004925997198943823 0.0
0.001007779496226766 -0.0004975677053303387 0.0
0.0010336041934486165 -0.000502159448861414 0.0
0.0010594902977769658 -0.0005065023071607462 0.0
0.0010856637590702406 -0.0005105947453824278 0.0
0.0011119518573822552 -0.0005143751022702428 0.0
0.0011383883114391348 -0.0005179960097888074 0.0
0.0011650234560231225 -0.0005212790773707574 0.0
0.0011915787042941 -0.0005241820510355581 0.0
0.0012183744719887635 -0.0005268950130623364 0.0
0.001244904976453841 -0.0005292103803969455 0.0
0.001271859119558611 -0.0005312215535685375 0.0
0.001298440648174067 -0.0005328546928593574 0.0
0.0013255796283064027 -0.0005342283082202215 0.0
0.001352283160098408 -0.0005353810015173136 0.0
0.001378805325734302 -0.0005361341304156562 0.0
0.001405129760432141 -0.0005366834792655747 0.0
0.0014309774620625453 -0.0005366409297481574 0.0
0.0014562837336431662 -0.0005361994892915852 0.0
0.001481358000762526 -0.0005345493242994062 0.0
0.001506925436175937 -0.0005326872259009404 0.0
0.0015317977885646883 -0.0005302432566683009 0.0
0.0015567374213196756 -0.0005276715685623868 0.0
0.0015826274368170956 -0.0005248771624945891 0.0
0.0016072611486872218 -0.000521384313589589 0.0
0.0016313263021362303 -0.0005172003517650984 0.0
0.0016558933522910384 -0.0005119535505994376 0.0
0.0016809999962243297 -0.0005063750214765069 0.0
0.0017052293125867735 -0.0005002450179269442 0.0
0.0017310018499708541 -0.0004936948262585877 0.0
0.0017555630043397407 -0.00048689598393289576 0.0
0.0017800809613432059 -0.00047954616238862926 0.0
0.001805414400219689 -0.00047131928742409737 0.0
0.0018297956321297545 -0.00046242123695770863 0.0
0.0018546298834773327 -0.0004527208704965459 0.0
0.001879156884267893 -0.0004423888651117113 0.0
0.0019041096615831808 -0.0004314421339852749 0.0
0.0019291270443383567 -0.00041966477384413676 0.0
0.001954470465372362 -0.00040741295858278727 0.0
0.0019795765862544936 -0.00039450614216804636 0.0
0.002004755682246041 -0.0003809811941325604 0.0
0.0020301924698131685 -0.0003666691293676369 0.0
0.0020556289932388105 -0.000351754632502736 0.0
0.0020812811802234706 -0.00033637278350281133 0.0
0.0021074576193756463 -0.0003202709344506871 0.0
0.002133749671695977 -0.00030355896739351083 0.0
0.002160132203216756 -0.00028629495505151073 0.0
0.0021869586633908866 -0.0002683126277476516 0.0
0.0022142942707664695 -0.00024946882300715443 0.0
0.0022419276021442766 -0.00022979786735493094 0.0
0.0022698820083102453 -0.00020932087023041432 0.0
0.0022984166676530736 -0.0001877522544681349 0.0
0.002327942370473579 -0.0001647782601471691 0.0
0.002358078405070474 -0.00014022062349058735 0.0
0.002389154132934546 -0.00011351399269580647 0.0
0.0024224580143422793 -8.344046035911186e-5 0.0
0.002457062453936932 -4.858842848727699e-5 0.0
0.0024999999969666222 -1.3650113224846733e-11 0.0
0.00249999999337473 -1.5917011587998435e-11 0.0
0.0024999999965261283 -7.940928271517189e-12 0.0
0.0024999999962532567 -6.785810399568192e-12 0.0
0.00249999999670807 -5.014496031496337e-12 0.0
0.0024999999967757016 -3.8965181731135175e-12 0.0
0.0024999999968027494 -3.1294462359193956e-12 0.0
0.0024999999969272553 -2.5161090995332974e-12 0.0
0.0024999999969361397 -1.965238445685694e-12 0.0
0.0024999999970465904 -1.5162715085743975e-12 0.0
0.0024999999971394462 -1.1823918594360051e-12 0.0
0.0024999999972550252 -7.661259816392581e-13 0.0
0.0024999999973260097 -4.568671897318183e-13 0.0
0.002499999997426275 -5.4338436023946185e-14 0.0
0.0024999999974878295 3.498515599295034e-13 0.0
0.0024999999975267996 8.342027613766015e-13 0.0
0.0024999999975744997 1.3397263594507052e-12 0.0
0.0024999999974045306 1.967564110048145e-12 0.0
0.0024999999976469726 2.4624329188382e-12 0.0
0.0024999999973469703 3.1180034260213586e-12 0.0
0.002499999997445653 3.5477134226639054e-12 0.0
0.0024999999973912396 3.891972299671001e-12 0.0
0.002499999997530965 3.875087271946274e-12 0.0
0.0024999999979686232 4.420178741139128e-12 0.0
0.002499999998883305 2.370937061270427e-12 0.0
0.0023249880606848565 7.067244065891572e-5 0.0
0.002174321782405178 0.00010207359158481997 0.0
0.002040601866316442 0.00010028601662658548 0.0
0.001924236960076051 8.222696296531458e-5 0.0
0.0018409088808057682 -1.2487038321015393e-6 0.0
0.0018320660583020306 -4.1470483958602015e-5 0.0
0.001814158951848313 -7.517013696806e-5 0.0
0.0017822280014201772 -8.655266723051333e-5 0.0
0.0017384557654524626 -8.060691849577218e-5 0.0
0.0016908219515579352 -6.735730592675833e-5 0.0
0.0016412002662344507 -5.1194357609102187e-5 0.0
0.0015910191031348732 -3.28590092431186e-5 0.0
0.0015394737281662248 -1.5749545541593787e-5 0.0
0.0014864075502901467 -6.466353307979642e-7 0.0
0.0014288056882105662 1.2580628305011676e-5 0.0
0.0013611313452332476 2.3705702113526665e-5 0.0
0.0012024446661492746 7.340017143921723e-5 0.0
0.0011539083111516703 9.287028200524505e-5 0.0
0.00111339721888591 0.00010641360671624651 0.0
0.001077719188404442 0.00011812124952795134 0.0
0.001045040633727992 0.0001291601010069987 0.0
0.0010154068464827003 0.00014024304335408691 0.0
0.0009885283564182636 0.00015226152747298513 0.0
0.0009654406808086998 0.00016542133458477356 0.0
0.0009476407832120243 0.00018405751716417797 0.0
0.0009345989649688247 0.0002047725898535812 0.0
0.0009363011977364887 0.0002469708407342856 0.0
0.0009345422606987332 0.0002979040535278173 0.0
0.0008481402201284759 0.0003936912205354902 0.0
0.0007215987663420904 0.00039096416179672277 0.0
0.0005271183078036795 0.00032791799447019104 0.0
0.0002873326800265614 0.00021329318865801627 0.0
0.0006465317623695586 -0.0003794817813945681 0.0
0.0016996330684966817 -0.00047116162178555235 0.0
0.0008147001629383215 -0.00043633434051604594 0.0
0.001522521721506322 -0.0005112442996654417 0.0
0.000993556958716931 -0.000478935068291902 0.0
0.0013351045656320153 -0.0005140257252607441 0.0
0.0011502346546602182 -0.0005015633643112051 0.0
0.0018516589585434741 -0.00042530572435927255 0.0
0.0005158676977095807 -0.0003279886975734341 0.0
0.0019715177883204353 -0.0003692819071997889 0.0
0.00040810999148979904 -0.0002760235792693684 0.0
3.933896822307915e-5 -8.274030267622863e-6 0.0
0.002451622872153831 -2.704289327486816e-6 0.0
0.0013630092576426272 4.553958799005879e-5 0.0
0.0015564527539687289 -6.017929386939688e-6 0.0
0.0011737226062195915 6.864732342021507e-5 0.0
0.0010390632980308713 0.00013423768827182115 0.0
0.0021021164763146954 -0.00029994836325656667 0.0
0.00030806449613217927 -0.0002208064087934059 0.0
3.122935445298433e-5 -1.1471237865227834e-5 0.0
0.002464877086680516 -5.408450289180219e-6 0.0
0.0024329490885860528 3.633597423545123e-6 0.0
4.973134336326374e-5 -6.71701336674204e-8 0.0
0.002209415559057845 -0.00023026766891706628 0.0
0.00022217819446244301 -0.00016478777151133836 0.0
0.0016959384906620498 -4.840068277900323e-5 0.0
0.0009454774260346879 0.00016798749738549198 0.0
2.485325680431992e-5 -1.0988457679860845e-5 0.0
0.0024724073396508958 -6.591528994194626e-6 0.0
0.0009178054529368688 -0.00046263303244930366 0.0
0.0010705286148733712 -0.0004916076619841427 0.0
0.001444190663169514 -0.0005166407979313563 0.0
0.0012324352490946325 -0.0005078954909853066 0.0
0.0015990340697738317 -0.0004985322174881387 0.0
0.0017701422264021162 -0.00045403871180611316 0.0
0.000747574403590428 -0.00041584626546857485 0.0
0.0005817075265544241 -0.00035685200322655607 0.0
0.0022897847817393547 -0.00017356818721614778 0.0
0.00015798715475218763 -0.00012112790403988079 0.0
0.00241567445579512 1.3153261639884672e-5 0.0
6.849707031657837e-5 7.470239029697494e-6 0.0
0.002477708399422996 -9.240984258306041e-6 0.0
2.3769923100402875e-5 -1.2461761261466059e-5 0.0
0.0017920734182438542 -6.07158090785306e-5 0.0
0.000901574153575764 0.00019803761536133136 0.0
0.002382263783605784 2.0683942438083436e-5 0.0
0.00010562852941800152 1.5661560603175245e-5 0.0
3.56027952500229e-5 -1.0795915708929345e-5 0.0
0.0024578987245689496 -4.626912351264844e-6 0.0
0.001459357208806355 2.3227923766541735e-5 0.0
0.001106977439797694 0.00010965542297029608 0.0
8.909399304116232e-5 -6.871623492780763e-5 0.0
0.0023867919135669383 -9.718082583499906e-5 0.0
0.0016472527823196267 -0.0004894340184273918 0.0
0.0012839076553446914 -0.0005123628278149936 0.0
0.0008694022565444942 -0.00045063183529403566 0.0
0.0006960255595935211 -0.00039968894586534973 0.0
0.0013918936950554901 -0.0005159091245317907 0.0
0.001897473277456885 -0.0004062952237287836 0.0
0.00047273069256258403 -0.00030754935582900093 0.0
0.0020248949872738948 -0.00034376727390435805 0.0
0.0003638340265039153 -0.0002516466681329414 0.0
0.0002630837609351142 -0.00019210451180957198 0.0
0.0021552936815704385 -0.00026606124397472746 0.0
0.0006072540133300251 0.00020471493463718052 0.0
0.0020834144694967132 4.462131802802383e-5 0.0
0.0024773786131292554 -1.4171108511348678e-5 0.0
2.072374858896398e-5 -1.2580142984409096e-5 0.0
0.0008893331396137161 0.0002641718805898493 0.0
0.0018595210114525894 -1.719643083074886e-5 0.0
0.00013171612465380853 2.6233590510287127e-5 0.0
0.002385457028791132 1.948913487351677e-5 0.0
3.9419200813785776e-5 -2.983537645355536e-5 0.0
0.0024502484777504515 -4.266173459752952e-5 0.0
0.0019678234730358666 3.1769487725005965e-5 0.0
0.001984363450344766 2.201212598750061e-5 0.0
0.0021324140735752522 3.2781525405549834e-5 0.0
0.00203513165522989 3.1341045344826984e-5 0.0
0.001918737428979405 1.2200166962226168e-5 0.0
0.0019500799726856616 3.409056900267856e-5 0.0
0.002064426301441736 4.388210169215883e-5 0.0
0.0019858656259049536 5.093487773875013e-5 0.0
0.0020969249490346855 5.145659874218937e-5 0.0
0.00202573111471495 5.8216419558950394e-5 0.0
0.001921909779682655 5.828147559777091e-5 0.0
0.0019600835578664167 6.265169964328689e-5 0.0
0.0018710627785232714 6.420535196614405e-5 0.0
0.0019036130652353826 6.432827749043147e-5 0.0
0.0018239596276179795 6.735281480413606e-5 0.0
0.0018543818421130778 6.328516185560389e-5 0.0
0.0013324577765026983 2.3096185010322916e-5 0.0
0.0012595415338181256 9.929907660149985e-6 0.0
0.00131075403265383 6.805620376756202e-6 0.0
0.001250727407273092 -3.821206441409944e-6 0.0
0.0012961489092944349 -6.58449599623414e-6 0.0
0.0012442014578915531 -1.4812203043045742e-5 0.0
0.001285274253950301 -1.6997067753623014e-5 0.0
0.001238180588992173 -2.4098385040796964e-5 0.0
0.0012764283197529756 -2.579644337316474e-5 0.0
0.0012327027907137367 -3.2256842335383435e-5 0.0
0.0012690049104547188 -3.3471847065117584e-5 0.0
0.0012277152896333163 -3.961254969917203e-5 0.0
0.0012626085485984869 -4.084323845091687e-5 0.0
0.001224154535446991 -4.6602580942807144e-5 0.0
0.0012570033785754748 -4.77936184203794e-5 0.0
0.001219880216756357 -5.3454403610677574e-5 0.0
0.0012517389340312493 -5.455954594256399e-5 0.0
0.001214668161053838 -6.024476648332465e-5 0.0
0.0012466892434329986 -6.137429253266604e-5 0.0
0.0012105327605019859 -6.6955678846805e-5 0.0
0.001242127143706121 -6.825686018089281e-5 0.0
0.0012067001211325944 -7.375918339510638e-5 0.0
0.0012367579157131336 -7.520779148144722e-5 0.0
0.0012027604061011876 -8.070386233391917e-5 0.0
0.0012324231882764475 -8.226279816017714e-5 0.0
0.0011995877394030058 -8.758799967803993e-5 0.0
0.0012283814016430716 -8.948641102959854e-5 0.0
0.0011945153897525746 -9.449670821546363e-5 0.0
0.0012240673357871055 -9.689650361573434e-5 0.0
0.0011832152673525026 -0.00010244779460875652 0.0
0.0012219191205536904 -0.00010453237466493254 0.0
0.0011870691070229875 -0.00011016021547333828 0.0
0.0012179256033206254 -0.00011242211705604791 0.0
0.0011847846538746145 -0.00011813336879140796 0.0
0.0012144949111093572 -0.00012059531065005808 0.0
0.001183493934370048 -0.00012620550401486953 0.0
0.0012110072238636928 -0.0001289744560840394 0.0
0.0011807405574586773 -0.0001347359144984477 0.0
0.001196653681438517 -2.8883506502527038e-5 0.0
0.0012075414345725172 -0.0001376471541333315 0.0
0.0011783736516008617 -6.513222156944793e-5 0.0
0.0011511840381327688 -0.00011018728169286273 0.0
0.0011757139523090015 -0.0001435263502409684 0.0
0.001203904839209468 -0.00014660232154372444 0.0
0.0011707457018815311 -0.00015288846568387295 0.0
0.0011432586095163752 -0.0001488849403631217 0.0
0.0011374896595025192 -0.00015864131449337798 0.0
0.001199019269165855 -0.0001564206876180922 0.0
0.0012327004337960416 -0.00014972020507872402 0.0
0.0012498851843712516 -0.00010641827611337061 0.0
0.0012279950295993576 -0.00015990005873731765 0.0
0.0012639292010012085 -0.0001520723730292583 0.0
0.001257939535793433 -0.0001633499954975716 0.0
0.0011103633287312291 -0.0001543179312443078 0.0
0.0011058975362994664 -0.00016373375068891768 0.0
0.001295118026235206 -0.0001548626854641592 0.0
0.0010770259954221927 -0.00015911518565913665 0.0
0.0010744211156731643 -0.00016882044706186076 0.0
0.0012897283898729037 -0.0001663513955882834 0.0
0.0013257448586560543 -0.0001583854164342354 0.0
0.0010435553269707517 -0.00016380370711797546 0.0
0.001040251763433554 -0.00017369900960534628 0.0
0.001321147412078322 -0.0001698690747238285 0.0
0.0013582952037633626 -0.0001614162043228843 0.0
0.0010103319487900237 -0.00016827209272400392 0.0
0.0010067482769262684 -0.00017864157742976953 0.0
0.0013534832848323755 -0.00017358591299060857 0.0
0.0013918149314644742 -0.000164352704679374 0.0
0.0009775471728918539 -0.00017201106510752968 0.0
0.0009719113989500679 -0.00018260952061484458 0.0
0.0013873692266422612 -0.0001768927763052384 0.0
0.0014260771999395948 -0.00016715571512435496 0.0
0.000941684317100839 -0.0001755813472953349 0.0
0.0009369712528151353 -0.0001866009652168415 0.0
0.000904830350731845 -0.0001795387845155793 0.0
0.0009095999470672791 -0.00016800205165280925 0.0
0.0013457886105187138 -0.00018573431572831655 0.0
0.0014213456176709926 -0.00018029939144839627 0.0
0.0014610018970019237 -0.0001698950598561449 0.0
0.001466465845363445 -0.00015631898567578927 0.0
0.0012699051952064376 -6.990413902500941e-5 0.0
0.0015029870345550575 -0.00015870199740948852 0.0
0.0015088684028296813 -0.00014457848986680345 0.0
0.001546750976660037 -0.0001464275034523451 0.0
0.0009029909779454401 -0.00019126550859585597 0.0
0.0008694890201591298 -0.00018282041204683354 0.0
0.000934624475978846 -0.00019842977937322733 0.0
0.001455031413353785 -0.0001838807854274537 0.0
0.0008682292063921089 -0.0001947438420445042 0.0
0.0008343197640251012 -0.00018549894973754773 0.0
0.0012961405047049537 -4.101890621737892e-5 0.0
0.0008331958799237755 -0.0001970362961857474 0.0
0.0007992656895832132 -0.00018748073677969245 0.0
0.0007984387597749209 -0.00019917862305775713 0.0
0.0007649879528250067 -0.00018861526930087833 0.0
0.0007650830286867577 -0.00017730164042212184 0.0
0.000728615721446954 -0.00017854294409513577 0.0
0.0007293053807112217 -0.000166642943412787 0.0
0.0007602886037486035 -0.00019997687446651795 0.0
0.0006900311105347884 -0.00016772180372269266 0.0
0.0006904291293533905 -0.0001555787354485769 0.0
0.0007981120103245109 -0.0002115573476019168 0.0
0.000765740561425141 -0.00021333742093012842 0.0
0.0006520314285930626 -0.00015550239785891816 0.0
0.0006509795400467652 -0.00014354396143917083 0.0
0.0015537070276669424 -0.00013208975625806594 0.0
0.0015932318788842974 -0.00013367312257745592 0.0
0.0007979371426329364 -0.00022414159492418595 0.0
0.0007661612429402105 -0.00022573748020697314 0.0
0.0016006423727393882 -0.00011889090010970187 0.0
0.0016421204447968083 -0.00012052061272910303 0.0
0.001632702297520826 -0.00013687840527490806 0.0
0.0016820478599420528 -0.00012289853835182563 0.0
0.0016733066791834645 -0.00013966091777750108 0.0
0.0017228462106640302 -0.0001244718384096929 0.0
0.001716457313001564 -0.00014109289873386781 0.0
0.0017677946604685868 -0.0001242231031319175 0.0
0.0017572463667045576 -0.0001414652955923517 0.0
0.001773876100280015 -0.00010841955135601615 0.0
0.0018091152097954638 -0.00012489787666024427 0.0
0.001796016516629414 -0.0001423161154012967 0.0
0.0007983552478086282 -0.00023701888580062797 0.0
0.0006104040631195529 -0.0001428647656045394 0.0
0.000608400310379276 -0.00013050155624750063 0.0
0.0017480379617423364 -0.0001594368743472908 0.0
0.0017852464902860566 -0.0001602234039813698 0.0
0.0018323932391987009 -0.0001428684033639867 0.0
0.001740375836200679 -0.00017800931540676185 0.0
0.0007674946326342004 -0.0002386045270623789 0.0
0.0018216426978345495 -0.0001607359492426011 0.0
0.0018677289802070138 -0.00014290564636505987 0.0
0.0007989042261019012 -0.00025030803589386083 0.0
0.0007687741605598756 -0.0002519161846600211 0.0
0.0007378511974365684 -0.00023967620262088177 0.0
0.0018565025769001213 -0.0001608419413019683 0.0
0.0019019622291543321 -0.00014223304688865644 0.0
0.0007995478763664302 -0.0002640808989711055 0.0
0.0008293466638442192 -0.00026214546118552025 0.0
0.0007396193772549695 -0.0002530330930564372 0.0
0.0007089400745873895 -0.00024031981611059708 0.0
0.0018889823989147064 -0.00016044805890772624 0.0
0.001935334498764194 -0.00014082191177056696 0.0
0.0019478475103536911 -0.00012380329498628753 0.0
0.001843586732788379 -0.00018009608128354986 0.0
0.0019813646590389118 -0.00012159011310752044 0.0
0.001994821542608364 -0.00010574361191510571 0.0
0.0005652281465673886 -0.0001294285229444289 0.0
0.0005652249398858161 -0.0001164990085541472 0.0
0.0006175078099980316 -0.00011847441158255773 0.0
0.0005637620120760575 -0.00010310194014652792 0.0
0.0006146483043222287 -0.00010280756171687015 0.0
0.0005617248313402499 -8.818162095430143e-5 0.0
0.0006118897171030532 -8.675963032926929e-5 0.0
0.0008299310105202322 -0.0002761895343692547 0.0
0.0008590303421694714 -0.0002738616374996124 0.0
0.000711043650385185 -0.00025373788721466385 0.0
0.0006806036698934578 -0.00024051260003851415 0.0
0.001967694531429127 -0.00013869450596025047 0.0
0.0005649928735767246 -7.233813360329494e-5 0.0
0.0006131049970458321 -6.981493925444934e-5 0.0
0.000859674166362672 -0.00028808390984045733 0.0
0.0008880999564732313 -0.0002855740629375286 0.0
0.0010428870908931584 -0.00018313633630977222 0.0
0.002013535332035592 -0.00011868459154662117 0.0
0.0013330191512618986 -6.338712260521035e-6 0.0
0.0013952223078214357 4.464800748390027e-5 0.0
0.0011686218055111251 -8.581812687226828e-5 0.0
0.001647616270154489 -0.00010552664390839395 0.0
0.0005612418651464232 -5.3861832008764e-5 0.0
0.0006182113853707927 -5.09022465634839e-5 0.0
0.0006831067252052375 -0.00025399550028564215 0.0
0.0006530487275062617 -0.0002403731098275077 0.0
0.0008891922436383719 -0.0003000334040345004 0.0
0.0009174146454942192 -0.0002972838103273442 0.0
0.0019984894357081683 -0.00013564674512678252 0.0
0.0005202799734688871 -0.00011519419521141026 0.0
0.0005220952106380188 -0.0001280339967822185 0.0
0.0005053179268082282 -7.220056467078265e-5 0.0
0.0020445329863150122 -0.00011506660631555943 0.0
0.000561424537441926 -3.4723635204531396e-5 0.0
0.0006195686991813801 -2.9688971334585716e-5 0.0
0.0008612860049584093 -0.0003028622396316976 0.0
0.0006560621055875913 -0.0002540512314760836 0.0
0.0006261140195272023 -0.00023980468794148778 0.0
0.0016062899176160783 -0.0001042623249025837 0.0
0.0016551542535323772 -9.037558179657428e-5 0.0
0.0016113799634611455 -8.939715720789165e-5 0.0
0.0016627357834674563 -7.524709249181597e-5 0.0
0.0009181261337249581 -0.00031181245274083626 0.0
0.0009466265294885555 -0.0003084479386972775 0.0
0.0010152845337310877 -0.00015894888196771727 0.0
0.0005613655347785048 -1.4518645359440572e-5 0.0
0.0006187600382944144 -7.312799770417208e-6 0.0
0.002029568516160723 -0.00013187146830193587 0.0
0.0019879818910359956 -0.000151571963922812 0.0
0.000548863812444157 8.94945022816392e-6 0.0
0.0006160338697684334 1.7374224013495918e-5 0.0
0.002074717214032749 -0.00011136050167602599 0.0
0.0020840040895862954 -9.955728353465854e-5 0.0
0.0005569042953684787 3.148932609893175e-5 0.0
0.000685168109967067 -0.0002691327539546766 0.0
0.0009468776124905855 -0.0003235023258540969 0.0
0.0009751855937115185 -0.00031944356133185696 0.0
0.0009754587126492738 -0.00030444905706519386 0.0
0.0010039642980735229 -0.0003150333222671137 0.0
0.0010046393786499379 -0.00030013243534546643 0.0
0.0010332651344178107 -0.0003102598834447467 0.0
0.0010342566604054928 -0.00029523325865961906 0.0
0.0010632878277500324 -0.00030504534013326947 0.0
0.0010646851376332036 -0.00028997639785879165 0.0
0.0010939297729204505 -0.0002993186851767234 0.0
0.0010925114434592474 -0.00031491681653265897 0.0
0.0011229836395608048 -0.0003087559069249065 0.0
0.0011214153729670352 -0.0003247521696379119 0.0
0.0011517354915309165 -0.0003181494933203033 0.0
0.0011498475422334084 -0.00033459415235979943 0.0
0.0011804064284219168 -0.00032751731358181616 0.0
0.0010958426058939109 -0.0002842356640810002 0.0
0.0011825073849429583 -0.0003109586120738461 0.0
0.0012115793254624603 -0.0003197950232875859 0.0
0.0012090810094339548 -0.0003371271177997049 0.0
0.0012406339235670925 -0.0003289677672197762 0.0
0.0004761879027518918 -0.00011305385069278071 0.0
0.00047823417517756523 -0.00012548911030874259 0.0
0.0006294576242364183 -0.00025349759435757416 0.0
0.0006000625664357225 -0.00023893983363407995 0.0
0.0012437440616295424 -0.0003115555089265205 0.0
0.0012728159826697982 -0.00032004833317580923 0.0
0.0012692962371999392 -0.0003380818023313207 0.0
0.001302065338426326 -0.0003285574717028955 0.0
0.0004334529949112544 -0.00011011311010845567 0.0
0.0004359179848604177 -0.00012196600446627418 0.0
0.0016167299034072612 -7.400505251619309e-5 0.0
0.0016711096485681708 -5.966558196926757e-5 0.0
0.0016235880819578147 -5.84900551596103e-5 0.0
0.002060792269251857 -0.00012736826839404035 0.0
0.002104610937062201 -0.0001070511807508199 0.0
0.0009753146291713979 -0.0003350820425578426 0.0
0.0006743829611019994 -7.029166362597199e-5 0.0
0.0012545514854208043 -0.00017367337174346793 0.0
0.0012981000872759382 -0.000347211994666296 0.0
0.0013310181730896186 -0.0003371195194887495 0.0
0.0013347690908029355 -0.00031813324932310384 0.0
0.0013644438534146702 -0.0003259075257486841 0.0
0.0013323330087443835 -0.00014617405758158704 0.0
0.001682205667540075 -4.345312998022441e-5 0.0
0.001725901748733538 -4.7775507863627654e-5 0.0
0.0006190933000460316 4.292619412995082e-5 0.0
0.000603416656783284 -0.0002525131485550772 0.0
0.0005745315331851081 -0.00023759089644751692 0.0
0.0016317655056387558 -4.2340750445443036e-5 0.0
0.0013599215277294591 -0.0003458047278817645 0.0
0.0013940547177088635 -0.00033432501388459113 0.0
0.0013990133586027726 -0.00031400173270954544 0.0
0.0014296030983532812 -0.00032190937209636625 0.0
0.0014356721086595213 -0.00030177800073223263 0.0
0.001466141892572905 -0.00030853918505911065 0.0
0.0014594671330350043 -0.0003294597226278827 0.0
0.00149613975280302 -0.00031523366323630967 0.0
0.0005571760973979025 5.334996723786085e-5 0.0
0.0003923667545561041 -0.00010637966453345935 0.0
0.0003949490347175566 -0.00011742420149875042 0.0
0.0009479669199949404 -0.0003392450885044585 0.0
0.00208906306515796 -0.00012447417071903604 0.0
0.0021335997414222555 -0.00010282188391519062 0.0
0.0014889241057155426 -0.0003369223263032892 0.0
0.001525368380080325 -0.0003219617286093991 0.0
0.0006240214449408826 6.768342633434876e-5 0.0
0.0005783540631335327 -0.0002512197027586388 0.0
0.0005493769356620697 -0.00023568105039494162 0.0
0.0006783594940150071 -3.0275339676096574e-8 0.0
0.001933499373751786 5.837768604805088e-5 0.0
0.0009755851424862102 -0.0003511987523318557 0.0
0.000559889796341095 7.344424779156301e-5 0.0
0.0005091566174107594 -2.1399006945374488e-5 0.0
0.002113170100278619 -0.00012548225464002134 0.0
0.00216208812875943 -9.914798174296086e-5 0.0
0.0021782716553056273 -8.27919077971551e-5 0.0
0.0004937874664187174 3.998373695172991e-5 0.0
0.0020676107277127075 -0.00014638734920492045 0.0
0.00038705183250175077 -9.4642781064142e-5 0.0
0.0006047654342185282 -0.0002654689412243073 0.0
0.0016927884249135293 -2.6803345739075353e-5 0.0
0.0016408264061374507 -2.55990525715345e-5 0.0
0.0014734574730328668 -0.0002884555027324175 0.0
0.0005536567311211029 -0.0002496808847842528 0.0
0.0005246858946554611 -0.00023359965438415824 0.0
0.00035281538415194086 -0.00010179074326034353 0.0
0.0003553997560571541 -0.00011186736406269853 0.0
0.000650426892245252 -0.0002275980187147675 0.0
0.0015176433957175394 -0.0003443372561555508 0.0
0.0015538536889914724 -0.0003284636165523383 0.0
0.000520316252159857 -0.00022003225770061055 0.0
0.0004954433627621673 -0.00021741053661994886 0.0
0.0014839284472495213 -0.0003578579428252617 0.0
0.0009493539934173516 -0.0003554783147717584 0.0
0.0005004705290836771 -0.00023127082060399778 0.0
0.00047124549969460884 -0.00021457040900015961 0.0
0.0010049008778230625 -0.00028590390192881533 0.0
0.002207729979010826 -7.797544152318097e-5 0.0
0.002222820864345466 -6.508164556868374e-5 0.0
0.002192031639733631 -9.443195275286983e-5 0.0
0.0015456190091138896 -0.0003513030223135201 0.0
0.0015815465599500651 -0.000334664448231129 0.0
0.0014419461864373353 -0.0002823610493428916 0.0
0.0014808038792774746 -0.00026919717343701593 0.0
0.0009762486397269389 -0.0003677329416707238 0.0
0.001590496466722669 -0.00031178905776243837 0.0
0.00161807702503082 -0.0003175575905453854 0.0
0.00031413610930435107 -9.592833704436314e-5 0.0
0.00031851743194342156 -0.00010561719593247824 0.0
0.001608799328779964 -0.0003414699735764247 0.0
0.0016443622580864445 -0.00032345142687692356 0.0
0.0004772182536645456 -0.00022881729953482191 0.0
0.0004478591745128435 -0.0002115604587772028 0.0
0.001703102294880254 -9.82953531383772e-6 0.0
0.0016509210037328917 -8.314304990406698e-6 0.0
0.00044160170580690545 -0.00019805988258060183 0.0
0.00041801627843015106 -0.00019435941445512014 0.0
0.0004242550581791961 -0.00020812317523754797 0.0
0.0003944547621631271 -0.00019039044300036095 0.0
0.0022368207200095785 -7.31612849677779e-5 0.0
0.0022208365385170893 -9.04470422380271e-5 0.0
0.0006277661321484316 8.953104887527182e-5 0.0
0.0005589509779820864 9.113770957728828e-5 0.0
0.0015761390456902414 -5.689678492547776e-5 0.0
0.0009508129865297646 -0.00037211273077752537 0.0
0.0016346644582568496 -0.00034829777179958406 0.0
0.001669051751334578 -0.0003291231909262174 0.0
0.0017770905524688708 6.696548653338303e-5 0.0
0.0016278930196272296 -0.0002946000429638386 0.0
0.0011201710560007692 -0.00034123119270029935 0.0
0.00038743546258346897 -0.0001773530194342545 0.0
0.00036444227706176164 -0.00017268223835067742 0.0
0.00037171784936927156 -0.0001863321759333164 0.0
0.0003414743311214941 -0.00016793436741543183 0.0
0.0003342275052659104 -0.00015522181976734307 0.0
0.0003104357296197138 -0.00014977050291449114 0.0
0.00030295243439148225 -0.00013751332969272968 0.0
0.00027865279294494706 -0.00013127865597442728 0.0
0.00027121521400661934 -0.00012006858019315975 0.0
0.00024813040646437355 -0.00011365803095978695 0.0
0.00024034621358067838 -0.00010352677059894994 0.0
0.000255106461553487 -0.00012460453983162203 0.0
0.00022164356734619847 -0.00010437784148409036 0.0
0.00027832974797815496 -8.957254791724843e-5 0.0
0.0002758827970616451 -8.101328480920197e-5 0.0
0.00023167806374291852 -0.00011749235864623934 0.0
0.000200934664170391 -9.877311309837048e-5 0.0
0.000691773174141108 8.104269739280788e-5 0.0
0.0007236856121203149 -0.00015340823450090123 0.0
0.0014487088117051759 -0.00026379997157589667 0.0
0.0014878539094662277 -0.0002507909730373132 0.0
0.0004358340019271959 -0.0001325003690639613 0.0
0.000976979401395383 -0.0003847761233586597 0.0
0.001002628953800624 -0.00038005226122851514 0.0
0.0015205178132654497 -0.00025545750749284186 0.0
0.0015280570305478036 -0.0002370150703710647 0.0
0.002265506858339429 -6.834201220032966e-5 0.0
0.0022475690801077594 -8.703547557794378e-5 0.0
0.0022036503039829574 -0.00011272008451683879 0.0
0.0015885166792877251 -2.4830135490897752e-5 0.0
0.0015984954366585077 -7.760464250839954e-6 0.0
0.0009241492974012212 -0.0003594343801854349 0.0
0.0009258643301253182 -0.000376070814876595 0.0
0.0008996186160382831 -0.00036314090274163185 0.0
0.0003500394723647681 -0.00018224182840781707 0.0
0.001661110254158332 9.021251723942365e-6 0.0
0.0016089413886890775 1.0033462358479303e-5 0.0
0.0006513220752319822 -0.0001680129289826721 0.0
0.0016583633865552027 -0.000354540813690699 0.0
0.0016923004462281346 -0.00033443487898461664 0.0
0.0017038614674945542 -0.00030986343613289636 0.0
0.001726432572861362 -0.00031423602368833815 0.0
0.0006514152482509223 0.00011161342036320035 0.0
0.000569767462252635 0.00010825727838432655 0.0
0.0008867166429451684 -0.0002717748854446034 0.0
0.0016254117761996616 -0.00037389128320996536 0.0
0.0020588962071159916 5.6674117268273725e-5 0.0
0.0017142768991551375 -0.0003403639566404835 0.0
0.001748368251196228 -0.00031934083734894375 0.0
0.001760988442356168 -0.00029362523905552347 0.0
0.001783247436399971 -0.0002979736842859745 0.0
0.001796855766453987 -0.0002724436284769775 0.0
0.0018187219689841786 -0.00027612362414722904 0.0
0.0018049099806331658 -0.00030315669211483713 0.0
0.0018400247355232731 -0.0002806084144149294 0.0
0.00020898811212961556 -0.00010950384357597047 0.0
0.0001787671072489757 -9.065145155468643e-5 0.0
0.00016709721991466856 -7.916640726608313e-5 0.0
0.001003283696349869 -0.00039752452555420607 0.0
0.0010279326846924523 -0.0003931862001875722 0.0
0.0009017949188384108 -0.0003798153062676767 0.0
0.000875654371140312 -0.0003664722303968593 0.0
0.002228572114818522 -0.000111139197184613 0.0
0.0022724424100231747 -8.433707088502714e-5 0.0
0.0017495935505669757 6.790699375079484e-5 0.0
0.0017058719508652764 6.867826995271466e-5 0.0
0.0004858507877821463 8.62011040759456e-5 0.0
0.0004966888260492246 9.967081029766687e-5 0.0
0.00024029516402242267 -0.00013037324329191044 0.0
0.0008307225831201126 -0.00022203868259078636 0.0
0.0015578823066153434 -9.007520246918765e-5 0.0
0.00218633224194446 -0.00013883498478419913 0.0
0.0006627243352843697 -9.894867030304185e-5 0.0
0.0015366302206161653 -2.4883784368926762e-5 0.0
0.0018254121454300664 -0.0003091752580565888 0.0
0.0018603758850199252 -0.0002859564752934561 0.0
0.0018732680943089408 5.4663394911977775e-5 0.0
0.0019621044178403163 4.9057523468464005e-5 0.0
0.0006545167944749575 0.0001304122100233878 0.0
0.0003575918183932816 -0.00012151331037681251 0.0
0.0002360012143637795 -7.344800337700208e-5 0.0
0.00023395238487756526 -6.555183819610779e-5 0.0
0.00037908308952058523 -0.00020102357286450308 0.0
0.0017377666622980395 -0.00034702234844487105 0.0
0.0014143971152961272 -0.0001938662260329117 0.0
0.0012665720863947016 -0.000356704924683743 0.0
0.0008018970810322396 -0.00027772864671441193 0.0
0.00018678062927363407 -0.00010138889162463705 0.0
0.0001572655600912778 -8.236842348117932e-5 0.0
0.0005063747573561656 -0.0002461139430394861 0.0
0.0015614418023889391 -0.00024102548937797208 0.0
0.0015694104793458144 -0.000222697638129725 0.0
0.000926787560720616 -0.0003934192482026828 0.0
0.0019146142429720143 4.341746012147106e-5 0.0
0.0019907026138410045 3.8801318956428804e-5 0.0
0.001946203027702186 3.186078996466782e-5 0.0
0.002019935782122125 2.7873696201067657e-5 0.0
0.0020640612616734545 3.408811561216381e-5 0.0
0.002092573647613676 2.3969484001922214e-5 0.0
0.002047673385542161 1.6617014822775145e-5 0.0
0.002117850443323156 1.3762178465829481e-5 0.0
0.0020731261020889512 5.514386606083587e-6 0.0
0.0021418478652995266 4.023285712637656e-6 0.0
0.0020979753504170393 -5.32917844718694e-6 0.0
0.002163786586325508 -5.02244783092245e-6 0.0
0.002120697044964867 -1.5447032758561112e-5 0.0
0.002184365595122763 -1.3252902234677803e-5 0.0
0.0020528140257477638 -1.7369131225337907e-5 0.0
0.0021418853049780797 -2.4519199156733694e-5 0.0
0.0022019279041973743 -2.08568849709172e-5 0.0
0.0021389147887081526 2.8846372154185223e-5 0.0
0.0004900040991246568 -0.00020411505723100538 0.0
0.00048382372304813084 -0.0002439718459357444 0.0
0.000511926737488723 -0.0002614487875454514 0.0
0.0021617305987251183 -3.2423192137557686e-5 0.0
0.002218931699570441 -2.7154242003498744e-5 0.0
0.0021050896897220877 -3.712010609118588e-5 0.0
0.001294474176631103 -0.00036635235568663777 0.0
0.0012636096645831756 -0.0003755932374958829 0.0
0.0012910445216526068 -0.00038576734827001165 0.0
0.0012613025591815068 -0.00039488544114619573 0.0
0.0012880656311489642 -0.00040554311150809265 0.0
0.0012596873996983686 -0.00041456499352857324 0.0
0.0012329337775476175 -0.00040366844269385855 0.0
0.0012319922539516738 -0.0004231015689973182 0.0
0.0012059193480989114 -0.00041191941642530094 0.0
0.0011937178148490749 6.0871856580255255e-6 0.0
0.0012857567813756307 -0.00042579791982066555 0.0
0.0013138311128868337 -0.0004163623142004934 0.0
0.0010996508818515358 -0.00017407443440498461 0.0
0.0010661956722856224 -0.000275394708713846 0.0
0.001097950069557204 -0.0002696333407324606 0.0
0.001067911276111808 -0.0002612662285473177 0.0
0.0011002371631343986 -0.0002555143298356978 0.0
0.001069863151029567 -0.00024761156402020333 0.0
0.0011027225141964985 -0.0002418886291411435 0.0
0.0011332474882038471 -0.0002493090684494098 0.0
0.0011362318855319274 -0.00023570525942898357 0.0
0.0011669434316039899 -0.0002426473492850829 0.0
0.001170330466434683 -0.00022905590805091447 0.0
0.0011998468492758238 -0.00023550297200913156 0.0
0.0011395363383218029 -0.00022217915019795377 0.0
0.0010720620970664924 -0.00023441159597990038 0.0
0.0010391223079356216 -0.00023969994051898998 0.0
0.0011960990948035324 -0.00024978926891305235 0.0
0.0012308695715889872 -0.00024128047954493194 0.0
0.0004903890505928711 -0.00025970601708001135 0.0
0.0011528469374259827 -0.0001238027312160663 0.0
0.0011891674814678236 -4.525624859585659e-5 0.0
0.0012766999556273336 -0.0003027084399525361 0.0
0.002280365205547887 -5.531435641201945e-5 0.0
0.002308175438312675 -5.0279688260893744e-5 0.0
0.0012836401421509314 -5.5052967681786285e-5 0.0
0.0012623528539555723 -8.276462220111589e-5 0.0
0.0017738225234399964 -0.00026938434773330467 0.0
0.001537062289338922 -0.00016132693011063735 0.0
0.0022543250270789924 -0.00010841677443909059 0.0
0.0022963974553252735 -8.166912578123278e-5 0.0
0.0012440752285335407 -0.00012323256277710197 0.0
0.0008781721257331817 -0.00038327913244128275 0.0
0.0008521779294928572 -0.0003695768384919248 0.0
0.0013127461321941157 -2.5806429690896867e-5 0.0
0.0012050686856348064 -0.00043121495135519793 0.0
0.001178894760269553 -0.0004189493487165222 0.0
0.0008496997020023962 -0.0003531016925900277 0.0
0.0008259967006363488 -0.0003558455557232087 0.0
0.0008234163749793598 -0.0003396627417514019 0.0
0.00079958136205814 -0.0003420062228111766 0.0
0.0008027072956245122 -0.0003584003762040565 0.0
0.0007763698988599719 -0.000344166789952463 0.0
0.0007797933204719539 -0.00036072629102611365 0.0
0.0007534744716790033 -0.00034612342750120007 0.0
0.0003588517971533929 -0.00019762969802713712 0.0
0.0023215802494345374 -4.068184860634271e-5 0.0
0.001669827120310648 2.5714811684441866e-5 0.0
0.0016167389224547135 2.7005611228357356e-5 0.0
0.0007382116407279625 -0.00021506193229235395 0.0
0.0005996621473878588 -0.0002261663388707313 0.0
0.002240777318075563 -1.2032746281797717e-5 0.0
0.002209254190456656 2.1312823118994585e-6 0.0
0.0010281078887709435 -0.00041071174593637627 0.0
0.0010533885045249938 -0.00040584263727579107 0.0
0.001647835887879644 -0.0003806028899146264 0.0
0.0003289468477972108 -0.0001435101369982887 0.0
0.0013968204076662564 -0.00015238023107418472 0.0
0.0015572705707218018 9.858463775545426e-6 0.0
0.001565172459064727 2.6828351650788385e-5 0.0
0.0018112047760631275 -0.0002485245047273323 0.0
0.0018779919498791296 -0.00012585151268362422 0.0
0.0018757092736214856 -0.0002581777274824851 0.0
0.0018967303552166659 -0.00026222631952754305 0.0
0.0018800244522979685 -0.00029234212260778505 0.0
0.0019171461752516385 -0.0002675770018938808 0.0
0.0010850333354227245 -0.00014977528271830262 0.0
0.0003863564275458227 -0.00021642687487603534 0.0
0.0012016971809981692 -0.00022162973216369845 0.0
0.002003682654475873 6.183481044579665e-6 0.0
0.0010329028789898857 -0.00037637306255113 0.0
0.0005171720429267108 -0.0002771914222124356 0.0
0.0005387732923653741 -0.00027877130937891586 0.0
0.0016163910381723563 -0.00039973694035024844 0.0
0.0007965631150567248 -0.0003262213285867337 0.0
0.001455233345443658 -0.00024607387329793703 0.0
0.0014165883474308663 -0.0002582671780250248 0.0
0.0022783190715397464 -0.00010634927328344024 0.0
0.002320699517276816 -7.82455046069154e-5 0.0
0.002337190153707458 -5.8544999222465126e-5 0.0
0.0007351171388619127 0.00013458774193479006 0.0
0.00016531198463418483 -9.272782195649139e-5 0.0
0.00013602397931576448 -7.319722339841791e-5 0.0
0.00013115367210610415 -6.603245508966572e-5 0.0
0.0016813518098308666 6.573636381132432e-5 0.0
0.0017227921899260672 5.99491552349851e-5 0.0
0.0016403394345036106 6.84766428181662e-5 0.0
0.0017557277931512605 -1.1977323603464928e-5 0.0
0.002180685748675348 -3.844185988690482e-5 0.0
0.002236962821697559 -3.1586872265816846e-5 0.0
0.0008550846503412215 -0.00038655312276101515 0.0
0.0017113639465463973 -7.595408816157598e-5 0.0
0.0004119408580309219 7.649542697584108e-5 0.0
0.00041934049975132407 8.540198162245248e-5 0.0
0.000511823783935652 0.00011111220315256602 0.0
0.00042653376691198123 9.108587790032855e-5 0.0
0.0005580094489334368 0.00012797150938055133 0.0
0.0011772192318071108 -0.0003994477862143501 0.0
0.0007495274928762713 -0.00032993128520705865 0.0
0.0007272335700306644 -0.00033155962747990857 0.0
0.000731168098844089 -0.0003478984147617977 0.0
0.000705197643917498 -0.00033302400739993756 0.0
0.0019332961841442644 -0.00023858967701944662 0.0
0.001953852110596499 -0.0002433318779092642 0.0
0.0019378334944816483 -0.00027399542079145986 0.0
0.0019739582580421437 -0.0002490619056330117 0.0
0.0015351483817776493 -0.0002191831176452966 0.0
0.0015770810098312263 -0.00020524591823200172 0.0
0.0013115050032161762 -0.0004370404690475116 0.0
0.0013390476426529377 -0.0004272505479205743 0.0
0.001041185804668189 -0.00022678065157556623 0.0
0.0010080874418502267 -0.00023168496909361055 0.0
0.0010007249200040794 -0.00041583652654613877 0.0
0.0007092500164314839 -0.0003492390130247469 0.0
0.0006837766197798542 -0.0003342421603176855 0.0
0.0021613819235066466 -0.00013977690546956671 0.0
0.0021442260560537076 -0.0001676749311966999 0.0
0.002120588678453212 -0.00016759527177461178 0.0
0.0021075225753074377 -0.00019435338247416792 0.0
0.0010534055222463296 -0.00042495020479892576 0.0
0.00019245302176466248 -0.00011219492942054044 0.0
0.00026549888964312064 -0.00011042578671862575 0.0
0.0002310378531321295 -9.351831459869316e-5 0.0
0.00019248748944055 -5.7534510194629825e-5 0.0
0.00018796230296826955 -4.996155985205017e-5 0.0
0.00023221731738888642 -5.697000934551046e-5 0.0
0.00018428243037807394 -4.1932538087446085e-5 0.0
0.00023034921248094774 -4.7332467201725786e-5 0.0
0.00018070316941838752 -3.316224598942092e-5 0.0
0.00022921821228133948 -3.6599756807718226e-5 0.0
0.0021685622985231482 -0.00016779231610145393 0.0
0.0007002283806583327 -0.00031721367998488855 0.0
0.001786964300896876 -0.00024696663657458736 0.0
0.0015933761618476163 -0.0003915021049234303 0.0
0.0015857720914621834 -0.0004179105187646452 0.0
0.0015627812670081737 -0.00040923834010750707 0.0
0.0011787626877326146 -0.0004386205903549531 0.0
0.0017113971666698918 2.142391125304693e-5 0.0
0.0019581493499241276 -0.0002814310983368303 0.0
0.0023619854832276966 -5.3710755485449874e-5 0.0
0.0023445604092777474 -7.398769743110471e-5 0.0
0.0007385739409628208 0.000151050566843501 0.0
0.0016630557070573153 3.9165856195687945e-5 0.0
0.0012470162521715513 -0.00029482566266003386 0.0
0.0012800719033304083 -0.00028597705688503133 0.0
0.0012322581500153848 -0.0004432987367701426 0.0
0.001152808849739893 -0.00042596341842511434 0.0
0.0005275690415738784 -0.00014230888966428854 0.0
0.002273172062225434 -2.2056009650637426e-5 0.0
0.002290176103462914 -2.496632886514619e-5 0.0
0.002252995024873566 -3.4832301524257325e-5 0.0
0.002304453130155939 -2.7258578831999214e-5 0.0
0.001874826274937434 -0.0001794106374447822 0.0
0.0013860149693890314 -0.0003554741326625888 0.0
0.0014225678073208209 -0.00024125922481186066 0.0
0.0010336473732773421 -0.0003259677549495272 0.0
0.0015131114243857114 -0.0001306976739605659 0.0
0.0016032028878765067 -0.00022619629349211469 0.0
0.0015997732282870892 -0.0002902368668231244 0.0
0.0016380586376769455 -0.00027316762551744404 0.0
0.0016561408713200519 5.0588181978340306e-5 0.0
0.0017070437250918775 4.158468440123131e-5 0.0
0.0005435392280596248 -0.00029466708519679003 0.0
0.0005641369776711275 -0.0002956151323610726 0.0
0.00017755036614542082 -2.357614381217852e-5 0.0
0.0002264697485869632 -2.471784280756393e-5 0.0
0.0002798815296106038 -3.857723551624189e-5 0.0
0.0002791725228084365 -2.4198443815880986e-5 0.0
0.00022544979864907278 -1.2379977838772532e-5 0.0
0.0002809590023663972 -9.212043542090282e-6 0.0
0.00022628528752691933 -1.113556601667524e-7 0.0
0.0002854159083152386 6.002429746454025e-6 0.0
0.00022848028035893253 1.1560752363688414e-5 0.0
0.00014435455946634442 -8.36196004144886e-5 0.0
0.001384341682319573 -0.0002526389735878556 0.0
0.00011561584665419819 -6.39438383354025e-5 0.0
0.0004967019957770221 -0.00027586299743391203 0.0
0.002350267481082179 -3.536001948164886e-5 0.0
0.001127650583639157 -0.0002780256916762727 0.0
0.0015078801360553574 8.46966540798818e-6 0.0
0.0015193388968992062 2.7179186653582027e-5 0.0
0.0002907561672196097 2.079011059426253e-5 0.0
0.00036720611899345395 -0.00021372280443675659 0.0
0.0003400081980084692 -0.00019449844833669693 0.0
0.0007356041419420592 -0.00036741901571289666 0.0
0.001635095632268571 -0.0004083842568426545 0.0
0.0008806232065001277 -0.00040063636302420266 0.0
0.0019940188918186872 -0.00025548294274323625 0.0
0.0023773020361311926 -3.91956297548595e-5 0.0
0.001006374893993987 -0.00024468383980516106 0.0
0.0009754947755101546 -0.00023616294091059433 0.0
0.0009740426892640895 -0.000249270921947317 0.0
0.0008104860600136985 0.0001519683882944566 0.0
0.0009450040813292551 -0.00024030149046624192 0.0
0.00020045393473158588 -6.579028676160007e-5 0.0
0.0013365847922475783 -0.00044854506656151185 0.0
0.0013641624082875118 -0.00043837283703918376 0.0
0.001367169970747895 -0.0004168933384355603 0.0
0.001392042907518413 -0.00042761397531612346 0.0
0.0016664617202733056 -0.0002770829420914238 0.0
0.001677554085169212 -0.00025546006437433306 0.0
0.00236129925347499 -2.873456569095825e-5 0.0
0.002332037039890677 -3.379501438081867e-5 0.0
0.0015825101295772032 4.5927401395510074e-5 0.0
0.0015300350295431413 4.667529074836391e-5 0.0
0.0004703921952161393 -0.00025815890272001357 0.0
0.0006880457767625266 -0.00035050836935238665 0.0
0.0006630400561467446 -0.0003353285772439497 0.0
0.0011926620423541893 -0.00016713770292083068 0.0
0.0019233057164737145 -0.00030695874687154245 0.0
0.00023318190544824983 2.2175169276415246e-5 0.0
0.0006581224526609026 -0.0003190317432381112 0.0
0.0013888363241107726 -0.0004497187499574771 0.0
0.0014163513240682865 -0.00043849149412648 0.0
0.0013893828548479212 -0.0002366693741797758 0.0
0.0013521228136563082 -0.0002469114282214816 0.0
0.0013567659136310363 -0.00023160869558046682 0.0
0.0012661718967105645 -0.0001427670369826176 0.0
0.00020253681285348685 -8.522999767957847e-5 0.0
0.00012386139942836033 -7.418783694514485e-5 0.0
0.001396094959603088 -0.00040581125416585374 0.0
0.0014496026404118138 -0.00019802403406113763 0.0
0.0011531515490218842 -0.00044576071517033144 0.0
0.0004774400896106811 -0.00010039114959224657 0.0
0.0008368727244667742 -0.00017483364539995708 0.0
0.000393738683166543 -0.00023331870112689045 0.0
0.002010347442571052 -0.0002245713178902473 0.0
0.0005171143154649 -0.0002072565543887379 0.0
0.0004849980247166419 -0.00019130807743443094 0.0
0.0005146793317088158 -0.00019482620264229001 0.0
0.0004813038049127721 -0.00017912295821369384 0.0
0.0005120071687878174 -0.00018268360583769265 0.0
0.00045127881330765787 -0.00017512756704639434 0.0
0.0015561289145350442 -0.0004353035784495133 0.0
0.0015346081956778125 -0.0004260368359379895 0.0
0.0003308333494115909 6.106188433252308e-5 0.0
0.0011796725176660724 -0.00045854117509360685 0.0
0.0011480442476117046 -0.0003515274691683185 0.0
0.0011189682857597409 -0.0003580992649872112 0.0
0.000569240002559148 -0.00031189206010055596 0.0
0.0001556209889258411 -4.92319370391147e-5 0.0
0.0001666892151522856 -5.810868370953125e-5 0.0
0.0021909927831614525 -7.067386936398277e-5 0.0
0.002235893429600899 -5.499276024598777e-5 0.0
0.000333582980352163 -3.8736501209735705e-5 0.0
0.000589438860151823 -0.00031215258912565354 0.0
0.0005858891859683568 -0.00029728459458886304 0.0
0.0005945011055556404 -0.0003287122893366049 0.0
0.0005494727085549587 -0.0003113802292193623 0.0
0.00045327930538540735 0.00010001177506828317 0.0
0.0008975042408760509 -0.0003470098474263925 0.0
0.0013788476800480408 -0.00026975676681284966 0.0
0.002201568589656842 -6.0643012403344446e-5 0.0
0.0013096549745018472 -0.00045828695516825116 0.0
0.0008576406532765298 -0.0004040744335308655 0.0
0.002384484837286178 -4.9079709148121067e-5 0.0
0.002366827832613513 -7.005006466905524e-5 0.0
0.0008126394237569761 0.00013356832170169987 0.0
0.0006680838896662099 -0.0003520914550593073 0.0
0.0015419075416382394 -0.00020151580561374332 0.0
0.0015872560350335043 -0.0001876491338497475 0.0
0.0002599939739509337 -0.00010129823495022343 0.0
0.0003486055087194734 -0.0002107883560119828 0.0
0.00032212209940539303 -0.00019156691458570733 0.0
0.000313039923659786 -0.00017587662636404453 0.0
0.0004770391104315506 -0.00027459287839157106 0.0
9.559033799232832e-5 -5.434470526798306e-5 0.0
8.916689109962061e-5 -4.713877614232546e-5 0.0
0.0014128841938712959 -0.00046124862449188045 0.0
0.001439933265938361 -0.000449587386172042 0.0
0.0014431775879136576 -0.0004252648060226351 0.0
0.00197058021699118 -0.0002151272331595343 0.0
0.0019492047485066436 -0.00021203069856159246 0.0
0.001942785166521698 -0.00031637993468989383 0.0
0.0004470936824393254 -0.0001633972096317347 0.0
0.00041771525464934407 -0.00015943380397167242 0.0
0.0016217011234654747 -0.00019066972405128898 0.0
0.0023393912331273674 -1.8967370890432685e-5 0.0
0.0023522585982248914 -2.038275876346543e-5 0.0
0.002367288079575491 -2.4524934993251735e-5 0.0
0.002319204442870325 -0.0001060249802841661 0.0
0.00015245734265680275 -9.581047912286518e-5 0.0
0.0015264110797488263 -3.9517225236155825e-5 0.0
0.0014788987059147453 -4.010419009718121e-5 0.0
0.0014689114822881272 -5.284726395878368e-5 0.0
0.0014241360185432276 -5.37100297256309e-5 0.0
0.00141700298739407 -6.551319906333677e-5 0.0
0.0014300362418246863 -4.238099335382568e-5 0.0
0.0012503889417250433 -0.00027865670920894603 0.0
0.0010099702521125411 -0.0002191601825169965 0.0
0.0010435897823910167 -0.00021427361536857723 0.0
0.00033072064101062436 -0.00020794372104009407 0.0
0.00030443041080812364 -0.00018815642441719896 0.0
0.0021077935203519037 3.7913742795207864e-5 0.0
0.00218539550886435 3.159462987165284e-5 0.0
0.002216639321875307 2.253343898908918e-5 0.0
0.0022630961648075487 2.4302798068538177e-5 0.0
0.0022430474129345093 3.173322801890436e-5 0.0
0.0011284188384300213 -0.0004334010945005085 0.0
0.0011277883998735364 -0.0004148425319634265 0.0
0.0011282540771494329 -0.00045269427929571623 0.0
0.0014593465606201283 5.700714635532774e-6 0.0
0.0014483486752943054 -9.625098305599206e-6 0.0
0.0003358135690521952 -5.398971775806328e-5 0.0
0.00016963801436458773 1.225554038743618e-5 0.0
0.0015275859931558027 -0.00045140925286342643 0.0
0.0004047242924785065 6.609867717326847e-5 0.0
0.0015530258875869924 -0.00026004597369156887 0.0
0.0014678423262729997 -6.463798059508451e-5 0.0
0.0014103067567993982 -7.716620816962296e-5 0.0
0.001451835347633482 -7.833406140044224e-5 0.0
0.0014034908949201593 -8.872046308972266e-5 0.0
0.001442749062667485 -9.040581101594316e-5 0.0
0.0013969110363716026 -0.00010043386922119919 0.0
0.0014350504190750492 -0.00010251229995725787 0.0
0.0013905956957864893 -0.00011245847490711992 0.0
0.0014294011410932444 -0.00011474261812298774 0.0
0.0013622679176688503 -8.720832322630181e-5 0.0
0.0013526127140801806 -0.00011007641973823871 0.0
0.001577911947012538 -0.00044431440561464096 0.0
0.002396536387442409 -2.2101356404797968e-5 0.0
0.0008212502074009014 -0.00032412861857808 0.0
0.0007933749717190255 -0.00031131458045103086 0.0
0.0022357529983850874 -0.00013677247630986187 0.0
0.0009478151228290606 -0.0002293951680169547 0.0
0.0013750824655100464 -6.514463001406586e-5 0.0
0.0005784053691158411 0.00013785992581211444 0.0
0.00014223355422033541 -3.5519226724153134e-5 0.0
0.0008900065442600661 0.00014925679800064634 0.0
0.0008831556289501948 0.0001279717336318973 0.0
0.0018377567534714587 4.561920554209357e-5 0.0
0.0022591809228035124 -0.00013560749711366479 0.0
0.002218821987001029 -0.00016772446911679636 0.0
0.0009428374078492561 -0.00025334383401752367 0.0
0.0009168020159335332 -0.0002422914164715707 0.0
0.0004118241537898422 -0.00022285703956043354 0.0
0.00010376385524422286 -6.427169298825606e-5 0.0
0.00011894430595873326 -3.9655773846758e-5 0.0
0.00012448481977567257 -4.508994480636803e-5 0.0
7.574203248156093e-5 -4.4302501634116844e-5 0.0
0.0016477305940895482 -0.00025254765932705665 0.0
0.0016883042979318327 -0.00023531317284195886 0.0
0.0017184830499831607 -0.0002376433651562356 0.0
0.0017291521556026632 -0.00021757308999702154 0.0
0.0013474017438098315 -0.00012141500391998931 0.0
0.0006754118776768263 0.000162177358504638 0.0
0.0008296633622188491 0.0001674071797330462 0.0
0.0013200756024262423 -0.00024107564186289914 0.0
0.0013249890923685704 -0.00022606200204333186 0.0
0.0010127734202097602 -0.00020753010488911027 0.0
0.0008663445788400694 -0.00020699199700364046 0.0
0.0008832031119372361 -0.0004184737780744527 0.0
0.0017920318331520095 -0.00033198944268224317 0.0
0.0018115366683413062 -0.00033953163621883734 0.0
0.0017799880259768014 -0.0003622916387251695 0.0
0.0017988524615933277 -0.00037141869164432145 0.0
0.0017687643098204095 -0.0003937499938537275 0.0
0.0017497828539120611 -0.00038456676078936665 0.0
0.0017006575833591715 -0.0003723458444283336 0.0
0.001538057709205808 -0.00039988939746052994 0.0
0.0016644019661518948 6.59393025225944e-5 0.0
0.0012360288940872568 -0.0003656093474885568 0.0
0.000342366164911538 -3.752168397130561e-6 0.0
0.0023467068002908363 -9.711102237660843e-5 0.0
0.0023872562634563526 -6.565284763569559e-5 0.0
0.0018302115174338388 -0.00034812924381773366 0.0
0.0018183930298245287 -0.0003811635837539708 0.0
0.0018485966868178683 -0.00035822100360061306 0.0
0.0009054043199948263 -0.00041481614109649964 0.0
0.0010914093882308247 -0.0003474801364665052 0.0
0.0010912487532396423 -0.0003639748231057217 0.0
0.0011180961468469379 -0.0003753534296978367 0.0
0.0007446461390669683 -0.00026925536661134337 0.0
0.001063763464738989 -0.0003529668706288619 0.0
0.001371142539901971 -0.0003962646477983985 0.0
0.001988528087429249 -0.0001887367153363013 0.0
0.00203014251089535 -0.00022975727391628793 0.0
0.0020135322926304227 -0.00026299602001114426 0.0
0.0020520538811771042 -0.00019690232761339566 0.0
0.00028385240339806925 -6.325956927431054e-5 0.0
0.000806061405884249 -0.0003753305723284202 0.0
0.0007837991252996212 -0.00037788598596311747 0.0
0.0008093010945558564 -0.00039262253741620255 0.0
0.0007881495184263431 -0.00039534876967056774 0.0
0.0017589881672494688 -0.00021897386095658984 0.0
0.0005034271424232576 -0.0002927276727993483 0.0
0.0004521546517870585 -0.00025703063186831537 0.0
0.002316573960566545 -2.9267029550041307e-5 0.0
0.00013168678498328882 -2.0915425218435013e-5 0.0
0.00012912007371267695 -1.3452128779095063e-5 0.0
0.0015045240823344003 -0.000438330903411834 0.0
0.0015022639105490125 -0.00046578390680069307 0.0
0.0012169561329957571 -0.00028697436510222076 0.0
0.0022937737670762565 1.611767960773002e-5 0.0
0.00045844845739349046 -0.00027336915350276375 0.0
0.0018576582123470845 1.6994313080331903e-5 0.0
0.002134763908528852 -0.00014123753444585577 0.0
0.002182018820644287 4.278652204184907e-5 0.0
0.0022047888329074753 4.428183018833128e-5 0.0
0.0016989133898739853 -0.00021624888050752447 0.0
0.0018260641540606987 -0.00022658757950189286 0.0
0.001850170098157218 -0.00022737815119244564 0.0
0.0016603840094994652 2.3151124439960326e-5 0.0
0.0017093999308020016 1.2723027164055744e-5 0.0
0.001757838980891331 3.48245712248531e-5 0.0
0.0013855947651269704 -0.00047223702007503275 0.0
0.0006913033086402823 -0.0003669378370615794 0.0
0.0010362552320517973 -0.0002667431191277915 0.0
0.0015001662904710687 -0.0002159442102645776 0.0
0.0013088930667632713 -0.00029280969021181825 0.0
0.0013343686671174972 -0.0004703966393422384 0.0
0.0006137380409081171 -0.0003284040302100193 0.0
0.0007690314690671035 -0.00031268842807257943 0.0
0.00032367907987727315 -0.00011567887989480304 0.0
0.002327710430071453 1.6982714985386154e-5 0.0
0.001750011712856525 -0.00026741976877831306 0.0
0.00022425960770035164 -8.51547480105337e-5 0.0
0.0006960373053134757 0.00017571889045931525 0.0
0.001321553169875954 -0.0003761779190576834 0.0
0.0017392171161332787 -0.000415683868204042 0.0
0.0017192461893682184 -0.0004062768011420257 0.0
0.0015336651686496902 -0.00030036261923679995 0.0
0.0016295181211040013 -0.0001738395156374036 0.0
0.000707401563970992 -0.0002278691562060602 0.0
0.00109089843688447 -0.00038388355156908013 0.0
0.001489212345650676 -0.0001872392084161105 0.0
0.0007656259096742546 -0.0002980539181336719 0.0
0.0007408835568286791 -0.00029891911822766445 0.0
0.0006187391424516916 -0.0003452350820391971 0.0
0.00038911322287769873 -5.4870123383027904e-5 0.0
0.0003900012606198774 -3.828690624579815e-5 0.0
0.00017520234949346244 1.930298971892591e-5 0.0
0.00024403511958960659 3.2212230840215814e-5 0.0
0.0019096708195773973 -0.00034176799934608785 0.0
0.0002941656797907404 -0.0001177950614406988 0.0
0.00042239857900674515 -0.0001711755074086121 0.0
0.0003888089057860298 -0.00015487848262615804 0.0
0.002028766498863112 -0.00019532373095267327 0.0
0.0010046378045833792 -0.00034682426888674064 0.0
0.0012835556116201083 -0.00026912564886515117 0.0
0.0015970631208231784 6.61458155780684e-5 0.0
0.001583385149969701 6.608735777713292e-5 0.0
0.0015425107442448183 6.519517881170106e-5 0.0
0.0015325333653012745 6.0094191199839216e-5 0.0
0.0015710592642716767 5.440849330938206e-5 0.0
0.0017681316097241152 5.642313164331519e-6 0.0
0.0018184351828717585 9.570970417304993e-7 0.0
0.0018328088960831664 1.665730378130858e-5 0.0
0.0018794339120229763 1.089768977118619e-5 0.0
0.0018656769446824299 -4.749886068658889e-6 0.0
0.00011214840434413945 -3.392374861310598e-5 0.0
0.0017711108258824846 -0.00019984747558737668 0.0
0.0003244399939428966 6.464086154610257e-5 0.0
0.0003553678645584802 7.366621338763584e-5 0.0
0.0014361866814234377 -0.00047272159949788455 0.0
8.333191619124676e-5 -1.0536943844753526e-5 0.0
0.0019577463146233623 -0.00010794998907964865 0.0
0.002006425855851411 -9.077685604861852e-5 0.0
0.00197268469659077 -9.028768492824388e-5 0.0
0.0020443312994861116 -8.825949154079563e-5 0.0
0.0020560030070799185 -7.43068018715715e-5 0.0
0.002094677618973452 -7.206252867027591e-5 0.0
0.0005459824901856046 -0.00019777258624742807 0.0
0.0005449351185179343 -0.00018597479676509866 0.0
0.0005091682556660205 -0.000170784552252706 0.0
0.000543474204140659 -0.00017438087819202672 0.0
0.0005793820046862407 -0.00018893078460866522 0.0
0.0005785814543086294 -0.00017725730740313585 0.0
0.000613978587552851 -0.0001910986143103531 0.0
0.0006731390654095092 -0.0003683070489240995 0.0
0.0006136773340746157 -0.0001790547295109364 0.0
0.000648888809948602 -0.00019264669238990126 0.0
0.00017187458646629117 -4.4403721938694015e-6 0.0
0.0003892679785531587 -6.996796102372657e-5 0.0
0.0006477371343129381 -0.00020432891165164896 0.0
0.0005104678887151266 -0.00016069131471332834 0.0
0.001965863357605972 -0.0001876397878981175 0.0
0.0019275401820257753 -0.0002103160675074699 0.0
0.0011044347884812148 -0.0004408454562385518 0.0
0.0011040411074922213 -0.0004594993300429945 0.0
0.0014941633981998363 6.172600192074798e-5 0.0
0.0008188570365960698 0.00011145798832776904 0.0
0.0008847351521983125 0.00010307258687680966 0.0
0.0009446480714340168 0.00011765663341690573 0.0
0.0009465113746022245 8.97454912229548e-5 0.0
0.0008903271942904035 7.532573210994583e-5 0.0
0.0009514045172293434 5.7025622016275133e-5 0.0
0.000898093781837241 4.557264432739946e-5 0.0
0.0009591991904710708 2.4811711268937526e-5 0.0
0.0009061848545454714 1.743638113973537e-5 0.0
0.0009757589586144276 -3.56958139748738e-6 0.0
0.0009126214454551134 -6.846976515172391e-6 0.0
0.0009696050891223093 -2.4109214315858235e-5 0.0
0.000915437091432606 -2.714105298179668e-5 0.0
0.000969625446123602 -4.171522987814632e-5 0.0
0.0009202627313293466 -4.54035390341061e-5 0.0
0.000970783465094451 -5.737831432671194e-5 0.0
0.000922270283676654 -6.091209680649549e-5 0.0
0.0009690983490322219 -7.085347074690945e-5 0.0
0.0009232255621008964 -7.451406671400495e-5 0.0
0.0009677722634605153 -8.301077888148644e-5 0.0
0.0009232083416915157 -8.702309963168601e-5 0.0
0.0009657284204351802 -9.460550080079487e-5 0.0
0.0009215548981525852 -9.878342529575783e-5 0.0
0.0009634606268014166 -0.00010546675531252411 0.0
0.0009197887182159941 -0.00011038812993804531 0.0
0.0008775596153322348 -0.00010245269881442858 0.0
0.0008764408717794832 -0.00011455892140165129 0.0
0.0009640816797146111 -0.00011726045826573268 0.0
0.000877363720000113 -6.415178498829514e-5 0.0
0.0010063138309961686 -0.00010001126751026213 0.0
0.0010159158389044611 -7.91860342932704e-5 0.0
0.0008478417549540344 3.544932374188431e-5 0.0
0.0010190610617641159 -5.32337169195527e-5 0.0
0.0008331861454312749 -0.00010578094872081444 0.0
0.0008333387897282137 -0.00011810788711885992 0.0
0.0008754931907855223 -0.0001265292216809045 0.0
0.000833489378176943 -0.00013019032460387278 0.0
0.0008659714836261628 -3.086287352234194e-5 0.0
0.0010279968592379616 -2.399291932253193e-5 0.0
0.000833830083271903 -9.294835891347279e-5 0.0
0.0010141760935240111 3.3532021439657934e-5 0.0
0.0008748954032932575 -0.0001382664825461749 0.0
0.0008335055041346257 -0.00014206401002518675 0.0
0.0007920189329222078 -0.00013329044233284835 0.0
0.0007875636665442183 -9.597542647790123e-5 0.0
0.0007858510158586925 -8.138928021461407e-5 0.0
0.0009167021867985151 -0.0001338021929899037 0.0
0.0009147699054530311 -0.00014530607757064955 0.0
0.0009552633877017084 -0.0001405174019804129 0.0
0.0010049240735954391 0.0001008527082175437 0.0
0.001009054182209243 0.0001230381991816404 0.0
0.0007938844303546834 -0.00014544260481783874 0.0
0.0007513360389091697 -0.00013599946781012723 0.0
0.0007501522089169194 -0.00012392502337141208 0.0
0.000707027670699188 -0.0001257206131410954 0.0
0.0013082556136756324 -0.00047979907963597375 0.0
0.0012838883283301289 -0.0004675772153385205 0.0
0.002241501061727699 -0.0001670214033157066 0.0
0.0014006415172810064 -0.00038455059754621834 0.0
0.0014260060999779485 -0.00039402504971081565 0.0
0.000814997545806354 -0.00030857136272252714 0.0
0.0008431349371079391 -0.00032085503076180347 0.0
0.0020089872806867384 5.233917120477004e-5 0.0
0.0014279920313267018 -0.00022476319386940006 0.0
0.0008347363932035732 -0.00015358106969395234 0.0
0.0006348562341103445 -0.00031909302203151507 0.0
0.0006322721134148313 -0.0003038455515116559 0.0
0.0006535705362747077 -0.00030360713307591987 0.0
0.0015938618914695991 -0.0001712644304769183 0.0
0.001486289831652205 -8.114421990525963e-5 0.0
0.0009736186408294375 -0.0002627844218841866 0.0
0.0009432234316430355 -0.0002670184764560118 0.0
0.0014002148094794332 -1.2606775163750557e-5 0.0
0.0013922800041679616 -2.4608037954767573e-5 0.0
0.0014336674877906577 -2.2772393866375727e-5 0.0
0.0013805065770439741 -3.7104992170030876e-5 0.0
0.0014112429307085888 1.1618009490589653e-6 0.0
0.001473058078696378 -0.000104997099288225 0.0
0.0014681950421393157 -0.00011725600754960289 0.0
0.0014203531400933168 -0.00012724330640250873 0.0
0.0010466315420853897 -0.00020247657208710852 0.0
0.001077781494399474 -0.00020895139710385062 0.0
0.0010813388457386784 -0.00019742377600956128 0.0
0.0011120616799224984 -0.0002031795694176096 0.0
0.0011157160460609022 -0.00019176832202043163 0.0
0.001146440947064641 -0.00019709604954443711 0.0
0.0011504172895625518 -0.00018578489830500583 0.0
0.0011825700658854809 -0.00019054602564758395 0.0
0.0011776833775458057 -0.00020258593532381544 0.0
0.0012149207935063819 -0.00019394486508423391 0.0
0.001363339689436222 -0.00021726144990967468 0.0
0.0013298478660421313 -0.00021203357228990007 0.0
0.0012930695415643418 -0.00022073951926720152 0.0
0.0012973235280036698 -0.0002072163263451172 0.0
0.0002544659080330273 -9.271854789449753e-5 0.0
0.0003138368153425939 -0.00020504622384382007 0.0
0.0002878322633581864 -0.0001847084123282564 0.0
0.00027868187077093124 -0.00016799981756596981 0.0
0.00026119106465219145 -0.00016367527718288286 0.0
0.0012200185649987245 -0.00027141216933166805 0.0
0.0016649812473803279 -0.00017554057132299357 0.0
0.0016535231495572438 -0.00019369399508703625 0.0
0.0006636144023224668 0.00014465201423674936 0.0
0.0013117167949050154 -0.00011893499280914057 0.0
0.001315311410661775 -0.00010909433243127237 0.0
0.0014177500896641706 4.877227761552265e-5 0.0
0.0023558748650850405 -4.2162178406478644e-5 0.0
0.002391586384509243 -2.8998359663285647e-5 0.0
0.002415667714790963 -2.4197140526095062e-5 0.0
8.626822778661517e-5 -3.010759470345981e-5 0.0
8.966769267465122e-5 -3.3658484657674984e-5 0.0
0.000126393181721978 -4.90656870501859e-5 0.0
9.53913843845642e-5 -3.817222326136313e-5 0.0
0.00012982089043504655 -5.3806291489482026e-5 0.0
9.946430957746964e-5 -4.243808485826477e-5 0.0
6.193507976791159e-5 -2.553458037924935e-5 0.0
0.0011868486969764608 -0.00027920214307814345 0.0
0.0005797244096546593 -0.00016612480744776376 0.0
0.0003579074649365179 -0.00022782227733940505 0.0
0.0009521533742477673 -0.00015115965072026808 0.0
0.002208905003790379 -0.00019616746619019506 0.0
0.002184297212545963 -0.00020213506151942398 0.0
0.001865406870387934 -0.00020567950385095055 0.0
0.001897998529816458 -0.00020193193122474247 0.0
0.0019103424741954182 -0.00018053186033491133 0.0
0.00011116362379727263 9.406841484469239e-6 0.0
0.0008616176376648054 -0.0004220248036557886 0.0
0.0006003967686991619 -0.00034605353633746584 0.0
8.413362026881025e-5 -5.415605555156925e-5 0.0
0.00011428847496362521 -7.893842976836538e-5 0.0
0.00047494258249606896 -0.00015674457991849414 0.0
0.001530250074261812 4.332623139221991e-5 0.0
0.0015756525519702686 3.2332933657201e-5 0.0
0.00179767562768366 -0.000226491824212029 0.0
0.001872262626410846 -0.0002291851839650944 0.0
0.0008132436120944376 -0.00040973482224967474 0.0
0.0009070173888154703 -0.000432052944979862 0.0
0.00092945078488649 -0.00042878976203961615 0.0
0.002048955959100044 -0.00023670781418976003 0.0
0.0020324824350040995 -0.0002714861998315173 0.0
0.0019964220863482244 -0.0003038674381616576 0.0
0.0022471093078948938 -4.667035364787453e-5 0.0
0.0022126031959949547 -5.163622841357135e-5 0.0
0.0021666275439424848 -6.565528903674314e-5 0.0
0.0021742579917423343 -5.62388664336827e-5 0.0
0.00040793736075930755 -0.0001481593417441048 0.0
0.002104353050194947 -5.977720148946452e-5 0.0
0.002058922610423346 -6.1418019082269e-5 0.0
0.0014322608223068163 -0.00037340829917604883 0.0
0.0002687413640413738 -0.00017882736598629162 0.0
0.0002453328886333269 -0.00016096483512746082 0.0
0.00023580908643512112 -0.00014518810767570609 0.0
0.0002201555403519356 -0.00014139231033417058 0.0
0.0024233687892295758 -1.906031777766844e-5 0.0
0.0023651851704700787 -2.077378147873583e-5 0.0
0.002398504728235862 -1.3807235473986637e-5 0.0
0.001927916141076478 -0.0003510730255647937 0.0
0.0009786137902910617 -0.00021151311815834601 0.0
0.0020662589586815023 -0.0002451583132261191 0.0
0.002051726877444999 -0.0002791154611949333 0.0
0.0020832644118024225 -0.00025341544962094383 0.0
0.0020712827328035377 -0.00028966102816618664 0.0
0.00210421513233045 -0.00025795674363029454 0.0
0.0021165614154609286 -0.00022620251264674997 0.0
0.0021343698474324867 -0.0002327626751355991 0.0
0.0011302123104874459 -0.00047150757889331655 0.0
0.0011075039390718593 -0.0004798825810703473 0.0
0.0010770140637421932 -0.0004655774655452944 0.0
0.000796319875346215 -0.0001576580122695069 0.0
7.193138234378864e-5 -3.1613784895168286e-5 0.0
0.00010304037067654191 -4.684564104849053e-5 0.0
7.576385260282305e-5 -3.528029723755673e-5 0.0
0.0007955833935644663 -0.00041569750497799673 0.0
0.0007693080695264409 -0.0003986743630574075 0.0
0.0023111859832650756 -0.00012912582318454628 0.0
0.00018720190123187617 2.6166931370101685e-5 0.0
0.001261734676819349 -0.0002169432880291029 0.0
0.001267306099920814 -0.00020304045042325458 0.0
0.002243856345341397 1.4112598657458197e-5 0.0
0.002318835030556508 9.135271151444566e-6 0.0
0.002067230403831292 -0.00017138716715899997 0.0
0.00043545783909464597 -0.00025551064701090424 0.0
0.0004446146549380776 -0.00027383301208818166 0.0
0.001751345557594394 -0.0002386696813989194 0.0
0.0018378524728346122 -2.1619376433156735e-5 0.0
0.0023678899822337247 -9.131751783835184e-5 0.0
0.0024076612457661524 -5.943877312968746e-5 0.0
0.002424652779702714 -3.96712172251701e-5 0.0
0.0017579395147980432 4.480323428539045e-6 0.0
0.002006133671994623 -0.00016585072182185217 0.0
0.0010797860353591185 -0.00041491677820421015 0.0
0.0020817775991122376 -8.523818818140937e-5 0.0
0.0019370868936981732 -0.00019103084977149933 0.0
0.0007394487358485229 -0.00028379559142513997 0.0
0.0004442686543693903 -0.00024081125958466386 0.0
0.002285922284366868 -3.9779306201161174e-5 0.0
0.0018898580945036227 4.220691982886287e-5 0.0
0.0007706540882958757 -0.0004148189890056882 0.0
0.0003639625216061635 -0.0001331591000291227 0.0
0.0013012555506154379 -0.00013132785155617265 0.0
0.0018897076140402833 -0.00033665269473818544 0.0
0.0018805462194807052 -0.00036841938450871045 0.0
5.75245447101738e-5 -3.4898060549205146e-5 0.0
0.0014616011005587136 -0.0004633604336982792 0.0
0.0014537442544289613 -0.0004826895815182976 0.0
0.0009297694683655014 -0.00044884395124498907 0.0
0.0009533695464297482 -0.00044330446688970273 0.0
0.0009516720532877013 -0.0004248754219192266 0.0
0.0009760179741931864 -0.00043855754986820225 0.0
0.0009543932808930232 -0.0004586887059439403 0.0
0.0008346105893926539 -7.950993369166703e-5 0.0
0.0007854843916060011 -6.714570573466252e-5 0.0
0.0003351586015702093 -6.70633813725191e-5 0.0
0.0007717086024302095 0.00018576394498910498 0.0
0.0007577398477332158 0.0001731448137951206 0.0
0.001503577410959594 5.652231434748499e-5 0.0
0.0018350766286499105 -0.00039205821679954797 0.0
0.0018077769744545339 -0.0004142702293570896 0.0
0.00022731183525593528 -0.00015714624732883752 0.0
0.000202625477900486 -0.0001361662699688482 0.0
0.0024110346916641017 -1.3606560152009637e-5 0.0
0.00039938688123551924 -0.00016777878872093046 0.0
0.0003619824613104411 -0.00015215695638388837 0.0
0.0022574590914477377 3.5804129769342487e-5 0.0
0.0022779101379796817 -0.00013626736192741762 0.0
0.0022597271130972083 -0.00016999863301214618 0.0
0.0013405865420296824 -0.00013328916563005877 0.0
0.0015217906522411132 -0.0004756534168946462 0.0
0.001491611006159035 -0.000492284034671563 0.0
0.0006798425303586978 -0.00020459086637571153 0.0
0.0006834208646012102 -0.0001929369862750874 0.0
0.000975660464585444 -0.00042045107379679644 0.0
0.002075857521123943 -0.00020083572186921383 0.0
0.0011865019043197946 -0.00017897516730076062 0.0
0.0011571789419579433 -0.00017432042272971275 0.0
6.965381961068883e-5 -4.736958072607188e-5 0.0
0.0007808122033975649 0.00028532438021924936 0.0
0.001083853531021805 -0.00018571382637414175 0.0
0.0007403573838667326 -8.485493050546729e-5 0.0
0.000744563578384228 -9.894914999141461e-5 0.0
0.0004440361297299502 -7.092196601097123e-5 0.0
0.0015154775954316795 -0.00010617948361528942 0.0
0.0009905908352519286 -0.00014638570939598378 0.0
0.0009948312045653589 -0.00013599555721786622 0.0
0.0010290786054305775 -0.00014160241168613918 0.0
0.0010325234780424893 -0.0001317791312878358 0.0
0.0010655189400568103 -0.00013602250482471477 0.0
0.0010694513480660173 -0.00012671824599182798 0.0
0.0010358306705083764 -0.00012236026926463063 0.0
0.0010731598567836613 -0.00011739109593099663 0.0
0.0010396646367597927 -0.00011329876431886975 0.0
0.001077588989345562 -0.0001084363584385342 0.0
0.0011001978844480292 -0.00013069324572964906 0.0
8.8374038178921e-5 -6.31456889076333e-6 0.0
0.0014594216951259156 -0.00013163714471030894 0.0
0.0009872427448371867 -0.00020029133424424284 0.0
0.001006691393021855 6.812850809018675e-5 0.0
0.001077972773912492 3.6682270213970135e-5 0.0
0.0010758857420379083 8.819405566027786e-6 0.0
0.001064934502343252 7.626854535034756e-5 0.0
0.0010241205697503761 5.56061568971224e-6 0.0
0.0010827761485464238 -1.116508659692071e-5 0.0
0.0011398146099441326 -1.1496531357537495e-5 0.0
0.0011248930272329 5.2565888780131864e-5 0.0
0.00016094150095128683 -6.4912022718218e-5 0.0
0.00016627033264322467 -7.146630738592533e-5 0.0
0.0024127798370110077 1.1378529701232072e-5 0.0
0.0023285695123351964 2.410916914729307e-5 0.0
0.002323624574828061 2.7850729746015168e-5 0.0
0.0017611434344786585 -0.00042828185819172534 0.0
0.0017292079916206042 -0.00044719087088258456 0.0
0.0006277306226191242 -0.0002888547269821618 0.0
0.0006498681994500069 -0.00028833674867587464 0.0
0.0006052449542778954 -0.0002884061778306392 0.0
0.0006956622926094948 -9.006633887182362e-5 0.0
0.0011295747697604702 9.514038960046763e-6 0.0
0.0011123982962623002 -0.00011189709065997184 0.0
0.0011144261685706387 -0.00010294596927286378 0.0
0.0010815577034640291 -9.96445406543184e-5 0.0
0.0011172639605678402 -9.491709864243581e-5 0.0
0.001087195636951136 -9.127526150627377e-5 0.0
0.0006498056203580767 -0.00035404599511673797 0.0
0.002405991446915119 1.6446489178287387e-5 0.0
0.0010726586879369329 0.00010559568734533369 0.0
0.0014537965661842302 5.1959238763486875e-5 0.0
0.0014562267936846112 3.649247926239148e-5 0.0
0.001405392838144783 2.681413636280981e-5 0.0
0.0007444023298643483 0.00011593971338408674 0.0
0.0009734378113391232 0.0001566973643811493 0.0
0.0009140841001157761 0.00016661441156259047 0.0
0.0008865434964763177 0.00017676385261156916 0.0
0.001648142989603327 -3.4093011720297645e-5 0.0
0.001961608584355002 -0.00032647473886500476 0.0
0.0019460160957681244 -0.00036554847713778847 0.0
0.0006225817011881904 -0.00036166110307625293 0.0
0.0009997841818661923 -0.0004340914842534468 0.0
0.0010008675831323797 -0.0004519402084148701 0.0
0.0010233755211505999 -0.00044740763119320136 0.0
0.0010276280957708685 -0.000467706393443724 0.0
0.0017306446767884594 6.369496213176227e-5 0.0
0.0016853852455806406 5.7615733645130035e-5 0.0
0.001748759255791033 5.570493716377863e-5 0.0
0.0017979470919537944 6.0625780793182574e-5 0.0
0.0013046200357860857 -0.00019439189673556374 0.0
0.0012781298698914879 -0.00018937556134491105 0.0
0.0010482632025634489 -0.00045992669663859684 0.0
0.0007152321908327553 -0.00013946616115690914 0.0
4.6904985420516884e-5 -2.593960112140736e-5 0.0
0.0010217950001499081 -3.795933158292402e-5 0.0
0.0010677874535870056 -4.9302529382547296e-5 0.0
0.001065386917175235 -6.124234565723819e-5 0.0
0.0011121105902200416 -5.702608914872987e-5 0.0
0.0011070146430459255 -6.639510787682716e-5 0.0
0.0011146173092326365 -4.7099603064387366e-5 0.0
0.0010678974891784165 -7.090079152122386e-5 0.0
0.001103427654813103 -7.498886088496123e-5 0.0
0.0011551648598629508 -5.280216129320929e-5 0.0
0.0016248144528064644 5.8444353251831823e-5 0.0
0.0010676785125608651 -8.0093139702101e-5 0.0
0.0024428474296247435 8.74643481857845e-7 0.0
0.0009122806872726522 -0.00015645132293565003 0.0
0.00111762211900798 -0.00039325074548950015 0.0
0.0011468022028771946 -0.000386982234766684 0.0
0.0010735918102344657 -3.6931359432130614e-5 0.0
0.0011239447770051156 -3.6442831613765455e-5 0.0
0.0013722614561903121 -0.00020353379198732833 0.0
0.001727413347286912 -0.00037653224884137454 0.0
0.0016970592878654393 -0.00040002990945284196 0.0
0.0016899859392661579 -0.0004280958266918417 0.0
0.0016695465702498702 -0.0004219939364222953 0.0
0.0016645945177537341 -0.0004472747140830229 0.0
0.0016424912569023013 -0.000442786090528924 0.0
0.0020299746890521885 -6.028245294212209e-6 0.0
0.0019874678105885986 -2.0236561494499233e-5 0.0
0.0020075837298818883 -3.1799449040375465e-5 0.0
0.0019448595209142893 -3.645461489482566e-5 0.0
0.0019624492751887197 -4.8368187046302114e-5 0.0
0.001899986095654347 -5.4512421770182245e-5 0.0
0.0019182691797346302 -6.643935529939222e-5 0.0
0.0018813841520165513 -4.2131751708839645e-5 0.0
0.0018377849498631199 -6.0856049251931595e-5 0.0
0.0019774848211653877 -5.9850978572183814e-5 0.0
0.0018184527119182023 -4.877341026686358e-5 0.0
0.0019326499598530458 -7.804866671455509e-5 0.0
0.0018766880632883566 -8.500597106458514e-5 0.0
0.001888354360296129 -9.686601393237659e-5 0.0
0.0018622669010967183 -3.056716228086485e-5 0.0
0.0019642956098051318 -8.14551853482446e-6 0.0
0.0019908192037252003 -7.166297123895473e-5 0.0
0.0020741304653745323 -2.9731988709262676e-5 0.0
0.002031397863841478 -5.433575130351776e-5 0.0
0.0013471137443615677 -2.7171456554208692e-5 0.0
0.0009429814545901145 0.00015717079810759007 0.0
0.00013862385312476603 -6.168519543614172e-5 0.0
0.0001324808412801103 -8.663139907855002e-5 0.0
0.00015909581393306016 -0.00010816809068231067 0.0
0.0010465065490792534 -0.0004421975462175045 0.0
0.0014093554054820468 -0.000209684033028655 0.0
0.0013806281374020893 -5.4808972713179034e-5 0.0
0.001333409847276502 -6.509190898087159e-5 0.0
0.0013441016071326437 -5.562393102328652e-5 0.0
0.0013317164136910696 -7.437660366577838e-5 0.0
0.0013693318534453857 -7.571818764081282e-5 0.0
0.0013256280456070669 -8.441723742239617e-5 0.0
0.0013188918525814943 -9.410589096098103e-5 0.0
0.0012878321767841815 -9.167587348240777e-5 0.0
0.00017131058316967004 -0.00010353476704578607 0.0
0.0015470081689897446 -7.964743569039457e-6 0.0
0.0018733070951554474 3.551495553834921e-5 0.0
0.0017980807158281245 3.7250390652430784e-5 0.0
9.960136624027178e-5 1.3371154111187561e-5 0.0
0.00021264277714512804 3.612249748209154e-5 0.0
0.00019162770819567922 3.1062473773094874e-5 0.0
0.0015710240125885468 -4.252598704484915e-5 0.0
0.00021778813704332434 -0.0001239168162264321 0.0
0.0002511022878500909 -0.00014720928411464395 0.0
0.000270792745222016 -0.0001536312300807334 0.0
0.0002670158893039532 -0.00014161322485508685 0.0
0.0002871954876476731 -0.00014501635901925647 0.0
0.0010099228286233335 -9.008011647421369e-5 0.0
0.00010846419088725428 4.5370570220509316e-6 0.0
0.0004787475897661889 -0.00013741820230706175 0.0
0.00039512962734713624 -0.0001267276288009455 0.0
0.001126661401776094 -2.4484411514974042e-5 0.0
0.00033882908058923815 9.921933527206898e-5 0.0
0.001665159227757453 -0.00038957134300877266 0.0
0.0014870583624761364 -2.5660091310315972e-5 0.0
0.0023314067451921253 -0.00012456369730521377 0.0
0.0018590083705206178 -7.278015939270332e-5 0.0
0.001797381994247742 -7.95079140795204e-5 0.0
0.001709695314820127 -0.0004373094523435167 0.0
0.0024477917161124076 -1.1962273520047798e-6 0.0
0.0023968496198722915 -4.6334123341281786e-6 0.0
0.0024067268126946994 -7.155862401813952e-6 0.0
0.0023885869124501435 -1.1405631733911984e-6 0.0
0.0023491202470467105 -1.043130675665606e-5 0.0
0.0023822161930355367 2.706242766496412e-6 0.0
0.0023233317814039976 2.2704624864252442e-7 0.0
0.002335083920355264 -5.519212236870123e-6 0.0
3.0585506665143095e-5 -1.2059624386389777e-5 0.0
0.002466470107904363 -5.920318506999266e-6 0.0
0.002430015240560282 -1.185667347308755e-5 0.0
0.002452029936303976 -6.245586171172003e-6 0.0
0.002433310563436917 -1.2835050657170556e-5 0.0
0.0014683933691159751 2.2919387015160084e-5 0.0
0.0017899167102717896 -0.00040231778190532067 0.0
2.4719431179332454e-5 -1.1601136448270827e-5 0.0
0.002474541373553287 -7.1401690955233334e-6 0.0
0.0008256753891443951 8.716432866782423e-5 0.0
0.0019759851973158893 1.8707627010526215e-5 0.0
0.0006789625219719894 -2.398321616461513e-5 0.0
0.0007376227660599586 -1.8546958892205217e-5 0.0
0.0007373662145776652 6.087596661482135e-6 0.0
0.0007361212661746698 -3.8980113580890186e-5 0.0
0.0007863975313281931 -3.610473922032185e-5 0.0
0.0008014268974291358 -1.6710309069981116e-5 0.0
0.000798203359687741 9.143020205737247e-6 0.0
0.0007409633025906298 3.070671885022738e-5 0.0
0.0006913150440071814 5.5396197835873324e-5 0.0
0.0006850835028926838 -4.85412979676179e-5 0.0
0.0020229166438430575 -0.00030460999166627813 0.0
0.00244164641868476 5.125933949302081e-6 0.0
0.0009768095549857973 -0.00040255511981151355 0.0
0.00034328977291756473 -0.00022859253672107487 0.0
0.0010729874221389033 -0.0003974353279528609 0.0
0.000835106562922028 -0.0004072077291181495 0.0
0.0008374906022483976 -0.00042464731688856736 0.0
0.001151879635174931 -9.743119529819456e-5 0.0
0.0015685429350712583 -7.282336977564235e-5 0.0
0.002128988007780233 5.1986744869783956e-5 0.0
0.0021604542109256793 4.708611964676613e-5 0.0
0.002090019989271335 5.014414839489301e-5 0.0
0.00016042149699803341 -6.055975350463186e-5 0.0
0.00032228639167456905 -0.000221759590942852 0.0
0.0008911672832149406 0.00021704701302363366 0.0
0.0008083204489287912 0.0002111659809105388 0.0
0.0018343819124210267 -4.5058425970043806e-5 0.0
0.0009535978962771274 0.00013937899913449292 0.0
0.0022105632216415736 -0.0001377919214566693 0.0
0.001063010473273578 -0.0003367228041494732 0.0
0.0017431927319202993 -5.765273011742367e-5 0.0
0.0017775305489363216 -2.841421324096194e-5 0.0
0.0007603195365560259 7.019270544131949e-5 0.0
0.0006052268519601633 -0.00036370034004906394 0.0
0.0021899155545004574 -0.00017287931832814804 0.0
0.00037548108283455176 -0.00023036220408156793 0.0
0.000397269046084611 -0.0002468082728072364 0.0
0.0003867430280617683 -0.00025075861237237217 0.0
0.0005694123468078125 -0.000142311311314518 0.0
0.0013514023225607353 -9.882546563646239e-5 0.0
0.0015245996690691863 -5.809359219163964e-5 0.0
0.0009188680937158733 -0.0001219769528313346 0.0
0.0009581920578172556 -0.00012950303546794013 0.0
0.0023884943368245363 1.8182600070899522e-5 0.0
0.002267675868860748 2.8470723401527767e-5 0.0
0.00012143791494729163 1.894031650994774e-5 0.0
3.068751351664052e-5 -1.282050795325264e-5 0.0
0.0011056480371964346 -0.00012122597088044762 0.0
3.6973649704395684e-5 -9.697839024037896e-6 0.0
8.83224231815353e-5 -2.1247354453990375e-5 0.0
0.0010603869077488645 -0.0003826862450012668 0.0
0.0016029128872913471 -2.162921138619469e-5 0.0
0.0010044401784403815 0.00014567963903041288 0.0
0.0014817400646036799 -0.00020095252852909629 0.0
0.0011268929773835092 -8.65260583392941e-5 0.0
0.0019551035088559397 -0.00015614684937665383 0.0
0.0023001268457083406 -0.00010489069805658669 0.0
0.0007128349953565833 -0.00028482355618785903 0.0
0.000716151136299786 -0.0003000609113432885 0.0
0.0006878281504548566 -0.00028403138140448977 0.0
0.0006586089438609539 -0.0002682268749890084 0.0
2.5480793503385002e-5 -1.2635333536695001e-5 0.0
4.711959788631315e-5 -2.4328949279784826e-5 0.0
5.2481020173927485e-5 -2.5511615197718472e-5 0.0
0.0006152645427857538 -0.00020290901458748026 0.0
0.0005832064578333112 -0.00020246366332372473 0.0
0.0024690227685861834 -6.2653547768964095e-6 0.0
0.0012832825841822464 -0.0004891815444645193 0.0
0.0012588569198912602 -0.0004765259781229491 0.0
0.0012582919069443921 -0.0004976710894475712 0.0
0.0012339199811518106 -0.00048495390856977767 0.0
0.0012084086114935663 -0.0004923360009565636 0.0
0.0012064908974899894 -0.0004715396764353466 0.0
0.0012587894047300491 -0.0004553745627534481 0.0
0.0017199801551389033 -2.3589297969584076e-5 0.0
0.0002813040165632737 -5.121590212885651e-5 0.0
0.00033074906836225935 -7.841015811112576e-5 0.0
0.0002885132700440127 -7.508788246714512e-5 0.0
0.0015239952387471882 -0.00019033111063200846 0.0
0.0005928477931164594 0.00015281973921092004 0.0
0.0012068194430082532 -0.00020732562759735986 0.0
3.9560242918868005e-5 -1.3396982477103325e-5 0.0
0.000748206433704581 -0.00039878327470479466 0.0
0.0007253759626295868 -0.00039637816123851204 0.0
0.0007288555989473362 -0.0003828862028154797 0.0
0.000831960105758069 -0.00038966702387998263 0.0
0.0007127560479049926 -0.0002682381818619597 0.0
0.00032552982219448 -0.00012481856814101756 0.0
0.00019718382838090676 -8.825865201603443e-5 0.0
0.002454986170925425 -3.825253133932853e-6 0.0
0.0024170958035130098 -8.388888004232736e-6 0.0
0.00048399884728131474 -0.0002917363809222021 0.0
0.0005752876230540314 -0.00032845792278071056 0.0
0.0005555445785694435 -0.0003287286570866273 0.0
0.0005295807686513914 -0.0003106955031160179 0.0
0.0005346190564313748 -0.00032754349266226425 0.0
0.0015082838708127273 8.967767469092061e-6 0.0
0.0010736811223203393 0.00012186754812848141 0.0
0.0015498774232700024 -0.00046068850210047763 0.0
0.0015705304007730592 -0.00047036292173305744 0.0
0.0015966510984764173 -0.0004546923465834267 0.0
0.0015405358403871954 -0.0004885281977182837 0.0
0.0007682217705093098 -0.00028560597715362237 0.0
0.0013523756889604601 -0.00036623512604958426 0.0
0.0009877251980407319 0.00014535647238163839 0.0
0.00101615222767235 -6.764880563588107e-5 0.0
0.0024758651890862656 -8.129736796600005e-6 0.0
0.002452659563973395 -1.8158695516937854e-5 0.0
0.002442811563598254 -1.789602169341446e-5 0.0
0.0005096295637690795 -0.00030985257140373943 0.0
0.0004904707775349912 -0.0003082527332970422 0.0
0.0007294811924997084 -6.694488388772857e-5 0.0
0.000633519518024928 -0.0002695532659399535 0.0
0.002291512789084319 -6.440339870488238e-5 0.0
0.0019058689958621146 -2.147331451220057e-6 0.0
0.0010934763139961695 -0.00014025442968591237 0.0
0.0011277302271317927 -0.0001340487026229131 0.0
0.0014905194291506766 5.279264173212308e-5 0.0
0.0017706865264883794 -0.00032566762749845963 0.0
0.0010339977451032031 -0.00034193325053756047 0.0
0.0010353205094236174 -0.0003586523967787241 0.0
0.00026591817181540394 4.406979251212257e-5 0.0
0.0005835245008756449 -0.00026812602462138576 0.0
0.0005582350726914752 -0.00026493530993483154 0.0
0.0005294294798983412 -0.0002481197059600646 0.0
0.0005338921054663128 -0.00026316280183527 0.0
0.00044524954098788165 -5.4598122013859114e-5 0.0
0.0004466334337424972 -3.640379981034902e-5 0.0
0.0005011850862812263 -8.852373644572318e-5 0.0
0.0015631376404430463 -0.0004960351454207341 0.0
0.0015106567689468814 -0.0003671416966683713 0.0
0.001475149366266585 -0.00038256926579605794 0.0
0.001506819520641122 -0.00039491103899937997 0.0
0.0014720227319979752 -0.00040999005040340334 0.0
0.0014941894941412747 -0.00041955737833362304 0.0
0.0015403426145312192 -0.00037493889830659275 0.0
0.0015680668956757195 -0.0003807411036189045 0.0
2.1774069394310267e-5 -1.2135153560117284e-5 0.0
0.002479719479756537 -1.0254309497693455e-5 0.0
0.00197914811587681 -0.0002900733186760257 0.0
0.0014089447005747055 -0.00048306900635385904 0.0
0.002287890290175351 3.159897128244099e-5 0.0
0.001361219196119891 -0.00046028309917369196 0.0
0.0013577268629646208 -0.0004817889239369217 0.0
0.0018243111967201193 -0.00020184018643760145 0.0
0.001635666604712393 -0.00015754555936808184 0.0
0.0016014113401039511 -0.00015496169426234378 0.0
0.0007577668479423114 -0.0003633858410129033 0.0
0.00045423150820539024 -0.0002259963424461345 0.0
0.0018304072713209475 -0.00010550836578728494 0.0
0.001896797442157894 -0.00030483103057746237 0.0
0.0008303341006847757 -0.00023493955732361817 0.0
0.0008608412574081231 -0.0002323360066963091 0.0
0.0008590444784131549 -0.00024564745697397883 0.0
0.0008636378348116698 -0.00021955891786354668 0.0
0.0008289256398589356 -0.0002483347672705312 0.0
0.0008906221949175261 -0.0002308207950839769 0.0
0.0008953850831322936 -0.00021883240698960496 0.0
0.000904590760430509 -0.0002056500577515157 0.0
0.0018253333029604377 5.242999837208822e-5 0.0
0.00022149339246445196 3.921421989774019e-5 0.0
0.0017760422697358862 -6.791918031617799e-5 0.0
0.0019169111600197443 -0.00016296192463811666 0.0
0.0004370220779858047 0.00010689837562306158 0.0
0.00033682848989014544 -2.1684104757321803e-5 0.0
0.0005016595648280383 -5.3834515223042974e-5 0.0
0.0004012291226485806 -0.00020483384719688355 0.0
0.000831517107969239 -0.00020938089093573453 0.0
0.0006495642165165057 -0.00018019833918401146 0.0
0.0006938770860195568 -0.00018154957789686397 0.0
0.0007211618629091584 -0.00019498897578111625 0.0
0.001153839015273918 -0.0004654531359018723 0.0
0.001181283641592959 -0.00047864890634581153 0.0
0.0011817155875583551 -0.000501150081746643 0.0
0.0012061441629880115 -0.00045115797513152234 0.0
0.001861391468196925 -0.00032544631047663736 0.0
0.0008736140372321786 -0.0001495850833435183 0.0
0.0017753450188290032 -0.00017897617791365965 0.0
0.0008288847428953315 -0.00037244574842753024 0.0
0.0012588261242265572 -0.0004346874671661775 0.0
0.0008822279791639944 -0.0004370062610830152 0.0
0.0022750119357827342 5.456804473270731e-6 0.0
0.0011738515340836558 -0.00021506564379542435 0.0
0.0002901379098549058 -0.00010843296712288275 0.0
0.0008907684247006219 -0.00031469944371088747 0.0
0.000919387526585402 -0.00032712524757039896 0.0
0.0008320333630485666 -0.0002901303898917347 0.0
0.0009032636873364525 -0.00039712464755681085 0.0
0.0014103062185829363 -0.00027608208844873247 0.0
0.0013732284755252472 -0.0002878390310899804 0.0
0.0014042020638480295 -0.00029464881978685147 0.0
0.0017565524057585402 -5.6265031847345335e-5 0.0
0.0010628451030091268 -0.00032063034939294234 0.0
0.0007719218604528878 -0.0002655908501109825 0.0
0.0013835945049699302 -0.000124297330133099 0.0
0.0013740263728208126 -0.00013682363574014713 0.0
0.00031876900278404437 -0.000162972359508524 0.0
0.0006451534752687194 -0.0003378108072396907 0.0
0.001605396885055869 -0.00042692095584779725 0.0
0.0013852921666553085 -4.54475974328736e-5 0.0
0.0012379758921515441 -0.00034701338545621677 0.0
0.0012072159667683656 -0.00035507389872309184 0.0
0.001205906654904172 -0.0003737191374040089 0.0
0.0011769021107947263 -0.000362430526718881 0.0
0.001176498131872676 -0.00038102276352135195 0.0
0.001234335252585422 -0.00038445836590941086 0.0
0.0014980031009986653 -8.841337607283542e-6 0.0
0.0009744061849987391 -0.0002765094910673397 0.0
0.0009456507204586675 -0.00028058185909629564 0.0
0.0013472572083311105 -0.00026383000309529014 0.0
0.0008028344523290618 -0.00029154771413933444 0.0
0.0013324239878844096 -0.0004913172378238917 0.0
0.0010043240208697185 -0.00033066638412549755 0.0
0.0011784145925702563 -0.0003446723950459624 0.0
0.0016830756192768588 -0.00045590681996217775 0.0
0.0010750733821487358 -0.00022136117609637983 0.0
0.0023353227077211112 -2.927016126779493e-5 0.0
0.0011844194059174606 -0.0002948053995288738 0.0
0.0005450133443660233 -0.00020961021486779835 0.0
0.0011375614808075431 9.423977506534585e-5 0.0
0.0016801166321179272 -0.0003613532655204114 0.0
0.00223125170328386 4.109233123328481e-5 0.0
0.0003495176875694059 1.449772019522417e-5 0.0
0.0003643014899374605 3.176803781557186e-5 0.0
0.00040575249821365886 3.4825837399854084e-6 0.0
0.00043052799589236607 2.4510681796824548e-5 0.0
0.000473665352401056 8.189978732860413e-6 0.0
0.001736571192677768 -8.670206381529747e-5 0.0
0.0009787424357921401 -0.00045867899530916865 0.0
0.0011086937921683739 -0.00021558193711365613 0.0
7.343844844326058e-5 -2.0952768946759055e-5 0.0
0.0009195380306870229 0.00018082001042801505 0.0
0.0008515766953351875 0.00018616890849424954 0.0
0.0016474345611963562 4.9401988967440306e-5 0.0
0.0009510667900159452 -0.0003893148196826199 0.0
0.0010819381917702097 -0.00044804652451439786 0.0
0.0009520782971429899 -0.00016271959091488996 0.0
0.0013159423590326205 -0.0002576659111479712 0.0
0.00128200666997833 -0.00025064429131026335 0.0
0.001289521131993114 -0.0002344294349604298 0.0
0.0014143002378200105 1.4186624389138066e-5 0.0
0.0008945383843369455 -0.0003306688882516365 0.0
0.0006143759490784273 -0.00016729788439097276 0.0
0.0009142026147478964 -0.0002552600746411296 0.0
0.00013432807696935758 -6.34570560421433e-5 0.0
0.0012733707791396172 -0.00012613748405383132 0.0
0.0005231883758364171 -0.0002935780473385718 0.0
0.0012536795150123712 -0.0002627260257605284 0.0
0.0007636206510431411 -0.00038080222293689384 0.0
0.0017098813675794358 -0.00015906874918379538 0.0
0.0011300647171026842 -0.0002634046616022239 0.0
0.0011474099208364163 -0.00036916838480343853 0.0
0.0021465862770044452 -0.00011878709113852979 0.0
0.00046709632002867106 -0.0002904476803625272 0.0
0.0023539339807705385 -0.00012003295376052916 0.0
0.0009447663658650004 -0.00021058676004756093 0.0
0.0011248817502484832 -0.0002931849209662754 0.0
0.0002169640196522567 -7.690678048293507e-5 0.0
0.0021585494470988623 -7.577391983227761e-5 0.0
0.0013172945958475279 -0.0003961439204228966 0.0
7.481563280765944e-5 -2.3847691800257044e-5 0.0
0.001222551848553468 -0.00017137684651107724 0.0
0.0012191358411171754 -0.00018191544406122144 0.0
0.0023225384609289234 -1.705529970233029e-5 0.0
0.0013090075505478953 -0.0005009726358857972 0.0
0.0004314331238391014 -0.00022314489859383033 0.0
0.002401410224695701 -3.4049232468022614e-5 0.0
0.0012569521603820707 -0.00022927275980188198 0.0
0.0011624354107158982 -0.0002568689746612499 0.0
0.0014523678718861314 -0.00035162177151858067 0.0
0.001421283046160314 -0.00034317759622558915 0.0
0.0013261270124514126 -0.0003564511486157417 0.0
0.0011055577822878286 -0.0002285955945262285 0.0
0.0013652759467921328 -0.0005160613748882768 0.0
0.001471276696930692 -0.0005159593555819454 0.0
0.0010441468978262861 -0.00048778268882534103 0.0
0.0011232875046996973 -0.0004994339048638678 0.0
0.0016225120690276586 -0.0004931383134810618 0.0
0.0016156003344710555 -0.00046715391106368184 0.0
0.0008412828341620884 -0.00044138945994144147 0.0
0.0006720939513639669 -0.00039097067086867217 0.0
0.0014183972514373428 -0.0005171450659629743 0.0
0.0008939686662117186 -0.00045698369669861845 0.0
0.0010047701198501048 -0.0001895708313678387 0.0
0.0021188616752446914 -4.663391642883408e-5 0.0
0.001705762056532968 -0.0002591092889158086 0.0
0.0016915296707288802 -0.0002821471599943008 0.0
0.0008584701391198737 -0.00026009796059408175 0.0
0.0014615327115636775 -0.00022969627580056342 0.0
0.0011509442609074147 -0.00040484415670040636 0.0
0.0006099773319188569 -0.0003124046336505391 0.0
0.0004581370850748947 -0.00018800875196532636 0.0
0.0010056400300791151 -0.0002580268030033363 0.0
0.0021655339130722253 1.9601898773885737e-5 0.0
0.0008562774396832175 -9.717880419998047e-6 0.0
0.0011429199126534544 -0.00020927736879603194 0.0
0.0013427389480180334 -0.0002819353807984452 0.0
0.00017802121479214218 -0.00011664327254143597 0.0
0.0001850793991356656 -0.00013085690129739603 0.0
0.0010044165152626966 -0.00036342213953204213 0.0
0.0008470608248419846 -0.00033728063056200227 0.0
0.0012144107538082927 -0.0003031438971842226 0.0
0.0023049992784147603 3.2070028090184167e-5 0.0
0.001284629087400419 -0.00044633933505682584 0.0
0.0024461121405788926 -3.2025695930944524e-5 0.0
0.0024243019718132373 -5.571064592354055e-5 0.0
0.0006700313162209821 -0.00012888437094713378 0.0
0.0010353475354269314 -0.0002808195294605215 0.0
0.0010917674503436278 -0.00033090516031293317 0.0
0.0023723358378449346 9.843551010187993e-6 0.0
0.0011916999217522403 -7.832812394729063e-6 0.0
0.0016006285972930167 -0.00036545245803889815 0.0
0.0016549394056675044 -0.00029977093984086956 0.0
0.0006595089152852555 -0.0003724722424869682 0.0
0.0015127358661666675 -0.00027454705990326284 0.0
0.0010373775157478198 -0.00025299588815409844 0.0
0.0015931155623389527 -0.0002451877324672541 0.0
0.0015832548991954014 -0.0002650610537287972 0.0
0.0016338143823683262 -0.00023001211333422566 0.0
0.0005581662290991426 -0.00034572239931774653 0.0
0.0019337685146235 5.56398712808727e-6 0.0
0.001380918767389876 -0.0004959102825265239 0.0
0.0019743546282732253 -0.00034003540941755995 0.0
0.0018122279563254277 -0.00017960562404566752 0.0
0.0011638747175662422 -0.00016334845489066293 0.0
0.001471469134897653 -0.0004373222670541082 0.0
0.0009220069008826849 -0.00034308284724244296 0.0
0.0009698825973409552 -0.00022244460853039928 0.0
0.002294501764590325 -1.1905860764962978e-5 0.0
0.000519036204851157 -0.00015169930252491054 0.0
0.001752094615520161 -9.818085078845072e-5 0.0
0.0011607343615743625 -0.00011570656718219676 0.0
0.001494609858674094 -0.00023328500741899138 0.0
0.002194180391731443 -4.4178974421933295e-5 0.0
0.00019463559004759438 -7.64022457334347e-5 0.0
0.0017386133255661636 -0.00029003777323251105 0.0
0.0013408507323242 -3.736285877997752e-5 0.0
0.001325848147683597 -4.7271366809364596e-5 0.0
0.0014197565238933947 -0.0004159729425952595 0.0
0.0013053569717661848 -0.0003104887808875431 0.0
0.001342256391608756 -0.0004064887173136179 0.0
0.001760002396226369 -0.00035437917072777555 0.0
0.0018051883650192942 -1.6286233998757365e-5 0.0
0.0011967650053314482 -1.915231871097414e-5 0.0
0.0016250669988012118 6.0222876022450076e-5 0.0
0.002092809792346583 -0.00016948582450789705 0.0
0.0021068612218074177 -0.0001450297665301748 0.0
0.001171919700412183 -7.885785294953966e-5 0.0
0.0007725051328463644 -0.00032803757720167767 0.0
0.001618019274674756 3.7042423178163747e-6 0.0
0.0011915164023562827 -3.779799411403022e-5 0.0
0.0015037099788722935 -0.0002945337426789344 0.0
0.002404577310676897 -4.507788786883926e-5 0.0
0.00041252036516214834 -0.00023552489123503649 0.0
0.0014702778139177523 -0.00014273472596974468 0.0
0.0011840361987891694 -5.795761986472601e-5 0.0
0.0011741511794008265 -7.242297266048245e-5 0.0
0.0004040393724135139 -1.8936438306891178e-5 0.0
0.0021600672427316146 3.683711709709888e-5 0.0
0.0012476875519867032 -0.00011458242903849613 0.0
0.002176757159782808 -0.00011499114431033375 0.0
0.0007447314069145429 -0.0003139444527929201 0.0
0.0018257987473864956 -0.0004289720854774966 0.0
0.0018755030158721375 -0.000415461805025467 0.0
0.0006792283256219224 -0.00031844526727207583 0.0
0.0015622809166015203 -0.00030634963961681766 0.0
0.0010183699921722856 -0.0004835565663358503 0.0
0.0015200953649117802 -8.582718678273906e-5 0.0
0.00045020054111639523 -0.00029776788529255985 0.0
0.0012764437270654243 -6.233520159129466e-5 0.0
0.0013032895170706172 -0.00014220565239243994 0.0
0.0012949258808347061 -7.33558893293837e-5 0.0
0.0013687639690158381 -0.00030686490377190726 0.0
0.0016801576767854843 -0.00030516754940641914 0.0
6.617833999034996e-5 -5.1073132193441676e-5 0.0
0.00011310822668497437 -8.717478770372023e-5 0.0
0.00013498111668507173 -0.00010347057557776223 0.0
0.0022645649824362384 -0.000191388515385731 0.0
0.0001797572835639147 -0.00013669220995993404 0.0
0.000693969198739413 -0.0003003394849114337 0.0
0.0003075876221505642 3.4854823358523046e-5 0.0
0.001998977894264943 -0.0003588534047920769 0.0
0.00038527204272966327 -0.0002631968109834712 0.0
0.0004292664478126667 -0.00028709385591146696 0.0
0.002236535863435565 -0.00021016613941853972 0.0
0.0021816587958515686 -0.00024996215820312703 0.0
0.0012854956799344508 -0.00017727687532705073 0.0
0.0009275330260913196 -0.0004114147872050641 0.0
0.0017955181033047511 -3.543741067181255e-5 0.0
0.002050002025262171 -0.00032889759934427823 0.0
0.002075782816931407 -0.00031487508190724596 0.0
0.0003428537660089494 -0.00024101497480703222 0.0
0.00024315889378607124 -0.00017847588720936691 0.0
0.0021288783620754814 -0.00028262683771366847 0.0
0.0021520810734411773 -0.0002398847795473546 0.0
0.0014320757768745158 -0.0004964595462524947 0.0
0.00028589904999621766 -0.00020640225809395943 0.0
0.0017444198211133979 -0.00046327366617294926 0.0
0.0004636178788539328 -0.00024243125224228612 0.0
0.0019908043794809476 -0.00021934633851944103 0.0
0.0006980020025615364 -0.00038522430408362057 0.0
0.001844779422978181 -0.0003161453131364305 0.0
0.0019247518279085045 -2.4561697808177555e-5 0.0
0.0006787014815661694 -0.00022805395438907684 0.0
0.00046513956118373224 -0.00020119845436277137 0.0
0.0008734974393403543 -0.00035043706908364244 0.0
0.0011536520310004412 -0.0003021466513846505 0.0
0.0020279115124788214 -0.00010331568546290343 0.0
0.0012326361476876651 -0.00046367269204331126 0.0
0.0012788610827821894 -0.0001167320471463417 0.0
0.0012894730808106552 -4.8050198736146994e-5 0.0
0.001611772572468199 -0.00020819192617984136 0.0
0.0018552020661531548 -0.0002543974801466986 0.0
0.0006772802422483797 2.5146708463640424e-5 0.0
0.0015499021081100907 5.989708209031607e-5 0.0
0.0007373008162028374 -0.00022731435349509227 0.0
0.002026882239024179 -0.000167465668236569 0.0
0.0004834404134190946 7.214122977744101e-5 0.0
0.00040427035698707643 5.111363437040195e-5 0.0
0.0010471035506335528 -9.562477770369976e-5 0.0
0.00214171130084863 -5.8339730517081314e-5 0.0
0.0011908648850358472 2.515675824973078e-5 0.0
0.001235735228952863 -0.00014055444838882302 0.0
0.002267419084469079 -4.9665119434168494e-5 0.0
0.0006241135460455917 -0.00022719433434209232 0.0
0.0007680760888354188 -0.00016476438340536886 0.0
0.0017390339652959062 -0.00019848845395788558 0.0
0.0019121327365010175 -0.0002352906765556447 0.0
0.0005453740469209393 -0.00022264390668033505 0.0
0.00033128684423245437 -0.00017906378041080518 0.0
0.001833629799025054 -0.00025107034597142576 0.0
0.0007919290003555859 -0.00012146810202365097 0.0
0.0018427312034098647 -0.00012617830519943954 0.0
0.002454336125259 -2.104127267008277e-5 0.0
0.002021274751531569 -4.3137951051192095e-5 0.0
0.0013225994350892375 -1.659539215909231e-5 0.0
0.0013603115761697635 -1.4999018715550754e-5 0.0
0.0014955116713126035 -0.00017281661109403178 0.0
0.0022243034830849245 -4.916040551015463e-6 0.0
0.002183797730857199 1.079606455974065e-5 0.0
0.00010853420285595073 -5.595395758844318e-5 0.0
8.198385337050348e-5 -4.068509089763658e-5 0.0
0.0009514493610673526 -0.0004068991233258782 0.0
0.001542821488628895 -0.0002799448200737121 0.0
0.0008722226598099721 -0.00017184160250242927 0.0
0.0008734268576192925 -0.00016084982076936563 0.0
0.0008789912853519673 -9.052582626709315e-5 0.0
0.0012057743529693143 -0.0003926807385197939 0.0
0.001430277004529175 -0.000154715438831211 0.0
0.0003845640056401424 -8.233793341406268e-5 0.0
0.0016967258735686738 -0.00010535411424682535 0.0
0.0013484429458644003 7.289745015519101e-6 0.0
0.001004874566278002 -0.00027178383422444885 0.0
3.957269395691178e-5 -6.0398538663445575e-6 0.0
0.0011558760597409575 -0.0002864516546670845 0.0
0.002251554557245116 -6.03995402560649e-5 0.0
0.001913021692400828 -0.00012582946958000478 0.0
0.001819310858639097 -9.125159746052615e-5 0.0
0.0021484196721710445 -8.795548825129135e-5 0.0
0.001556801169613196 -0.00011835527966013816 0.0
0.0008746626388722416 -4.949416322273316e-5 0.0
0.00028551525195212157 -9.945161776653127e-5 0.0
0.0010502375284416215 -0.00015429612425903825 0.0
0.0013147186312774228 -0.00018171507797825085 0.0
0.0003575725215629844 -0.000160078052663176 0.0
0.0010969412334287415 -0.0004960617590081005 0.0
0.0015043774792541163 -0.00011995477213375994 0.0
0.0007218282893747198 -0.00031539203597693135 0.0
0.0016695376379402141 -1.1850337164951323e-5 0.0
0.002059718462505379 -0.00010035366733737416 0.0
0.0007896792867992394 -0.00010886741168359265 0.0
0.0017949554379148545 6.307738059510427e-5 0.0
0.0013654912993014128 -0.00014914942517821507 0.0
0.0011584916124908987 -0.0002713042364850575 0.0
0.0004323742056191347 -9.760029909556917e-5 0.0
0.000801050404168938 -0.00017651986757062082 0.0
0.0011134778205198165 8.288003742057542e-5 0.0
0.000323912720449865 4.853877474710443e-5 0.0
0.0017998582447631283 -0.00020005311874605938 0.0
0.00047777123214839566 -0.00016754274624966936 0.0
0.001191001261625964 -0.0002644447340029266 0.0
0.0020340359059403445 4.350299854698729e-5 0.0
0.00170756218060667 -0.00019684035902530007 0.0
0.0008407904057146057 6.164683756605075e-5 0.0
0.00014921797984048215 -4.250665340495622e-5 0.0
0.0006139726713229261 -0.00015536536315109806 0.0
5.1786508973974575e-5 2.4971386343436675e-6 0.0
0.00010783045955819376 -1.4872036674495028e-6 0.0
0.0017005869605795619 -0.00018001160362427166 0.0
0.0014275852031115507 -3.308758584708685e-5 0.0
0.0007905286207631388 -0.0004309593154229183 0.0
0.0005596958488163574 -0.0002807114685383945 0.0
0.002016150338013944 -7.66781800712067e-5 0.0
0.0002936407327936229 -0.00020062460783328058 0.0
0.0016415043412762187 -0.0002119904908785473 0.0
0.0013459992512011615 -0.00038637164950859436 0.0
0.00199288186227043 5.877830075552277e-5 0.0
0.0007110022439711549 -0.0003658787636407777 0.0
0.0021494634595187055 -0.00019984615971734934 0.0
0.0012394653360824496 -0.00013190603989529632 0.0
0.00041270094997061666 -0.0002658094611939065 0.0
0.0016427371198148204 -0.0004678318876671724 0.0
0.0004100134814293312 -0.0001814374572153263 0.0
0.0023149672669539813 -6.10541470578213e-5 0.0
0.0002976650558704869 -0.00012697581919989115 0.0
0.0017127657883714291 7.1407413850268295e-6 0.0
0.0015617736835631753 -0.00010451562652183438 0.0
0.0012975496192803788 -3.394618615371776e-5 0.0
5.4674301847905624e-5 4.506452125009548e-6 0.0
0.0010225126522483438 0.00013323530927140237 0.0
0.0006621539008430983 -0.00011446759847784427 0.0
0.0018966680848332815 -0.0003776065538806339 0.0
0.0019231125653660786 -0.00039877864926467097 0.0
0.00017626304948390153 -1.3911062999809623e-5 0.0
0.0014059722770404805 -0.000139792384897908 0.0
0.0005820689240561173 -0.0002825732391130958 0.0
0.0009760093128569911 -0.0002904705400642661 0.0
6.947777587038278e-5 -3.762852088636926e-5 0.0
0.0001346146581833909 -2.8103137929598493e-5 0.0
0.0013389481569509698 -0.00019871888311330808 0.0
0.00122393111206902 -0.0002565302364051557 0.0
8.660242500998613e-5 -1.6015231074994166e-5 0.0
0.0002447186478383293 -8.275965725883237e-5 0.0
0.00020100951140246423 -0.0001510095843961352 0.0
0.0020081908080189417 -0.00019191863807245654 0.0
0.0015720070520456083 -0.0002853120293313994 0.0
0.00030139171555048944 -0.00016098444810662174 0.0
0.001898219378428041 -1.4451090522683544e-5 0.0
0.0017436337992574322 -2.99590913657727e-5 0.0
0.00014382869147105482 -0.00010238506999648013 0.0
0.0010091000264426824 -0.00011790889929255668 0.0
1.8993954665600454e-5 -1.2631057543366012e-5 0.0
0.0024795353148440147 -1.5825374027984733e-5 0.0
0.0023988071912002364 -1.896828872010144e-5 0.0
0.0007210345069859388 -0.000409059444666774 0.0
0.0019007020399098283 2.4073354291345784e-5 0.0
0.0015729324712627922 -0.00035757629563514475 0.0
0.000327228192431746 -0.00013401518261859142 0.0
0.001496373677459305 -0.0005134991374344159 0.0
0.00034644798591830815 -9.104691015253069e-5 0.0
0.002130737620021462 -6.961253008742064e-5 0.0
0.0009459681924219884 -0.0002941160969398759 0.0
0.00010173195067060839 -4.9235743210576895e-5 0.0
0.0011451895223534394 -6.25604547701549e-5 0.0
0.0011404301556048489 -7.036677346913603e-5 0.0
0.0022469466380331316 3.61483243770461e-5 0.0
0.0013388534053542355 -0.00029965307992199007 0.0
0.00016642397362635257 3.974974396951717e-6 0.0
0.002120687939823269 -0.00026512871844740855 0.0
0.0022679243876397334 -3.7137599800525335e-5 0.0
0.0017297098079754496 3.5979194986445605e-5 0.0
0.001775344396731117 2.3588116008633186e-5 0.0
0.0010251556680088473 -0.0004290943322114685 0.0
0.0024141034242965206 -7.702844644539683e-5 0.0
0.0010429906244542439 -0.00010457146201844146 0.0
0.0002647856029059128 4.876218884438413e-5 0.0
0.0002968386875827356 -0.00017370690257918048 0.0
0.0007538189004935095 9.588214622581907e-5 0.0
0.002130488086384981 -0.0001958114299588935 0.0
0.0001216581149246657 1.4106500336218732e-5 0.0
0.0012803767433027082 -0.00010810601549249887 0.0
0.0019248727745699522 -0.00010798456663084113 0.0
0.0015289907635271808 -0.00017705253151310225 0.0
0.0024368005399520555 -1.3919778394305927e-5 0.0
6.123534437058735e-5 -2.3535792560521573e-5 0.0
0.002281680661440488 -4.92919905049381e-6 0.0
0.0024460128891779357 -1.4495413441773782e-5 0.0
0.0011557048156582718 -0.0004841320864123874 0.0
0.001379992343966466 -0.0001898456273545309 0.0
0.0008792790023010742 0.00016088173909487241 0.0
0.0005733397011515263 -0.00022414244159344268 0.0
0.0007578590102340571 -0.00014953373474832675 0.0
0.0010003040748417886 -0.0001269243223366971 0.0
0.0004865354550315372 5.609341278136023e-5 0.0
0.0008701120590718514 -0.0003336325081405477 0.0
0.00043861794149815627 -8.398195901790408e-5 0.0
0.0003087019440482728 5.9707435177126854e-5 0.0
0.0011216468886319666 -0.00018089634791024458 0.0
0.0017153299389840706 -0.0002864563693449225 0.0
0.002046876346579288 -0.0001700733703441409 0.0
0.0008309604796120739 -5.186273350588984e-5 0.0
0.0005817622902118883 0.0001230152265708928 0.0
0.0013678449684844845 2.454961762201021e-5 0.0
0.0007068618270553585 -0.00011333027843311799 0.0
0.001943171834494855 -0.00017393789353663751 0.0
0.0007455217382908787 0.00016287655134150262 0.0
0.000675100250042438 0.00015483634949649174 0.0
0.001312967065643412 -0.0002751807096349386 0.0
0.0014128149583532627 3.451732164791859e-5 0.0
0.0009402757148311385 -0.0004684955199224304 0.0
0.0017961673006012156 -0.00044642368944869935 0.0
0.0006481708026994668 -0.00021574893519142653 0.0
0.0016715953529678911 -0.0004838887300520344 0.0
0.0005252599149127066 -0.00010489711682846191 0.0
0.001976929307847311 -0.0001689753583116015 0.0
0.0009158482435124327 -0.0002835913566707597 0.0
0.002117314111810017 -9.35888446986762e-5 0.0
0.0005745915205884799 -0.00021257624882755054 0.0
0.0010588625468480719 0.00012029459192018036 0.0
0.0008794740239240336 -7.764311662232047e-5 0.0
0.001065498184285955 -0.00036834738993098555 0.0
0.0011497839712436607 -0.00014008436183055243 0.0
0.001136092951510775 -7.773834007245187e-5 0.0
0.0006651557673774468 -0.0002844114707007956 0.0
0.0006735175910811352 -0.000301887096166714 0.0
0.0004392074702558508 -0.0001520771565319349 0.0
0.0007192473483131124 0.00020837031806751656 0.0
0.0011043088304986117 -0.00042356820990290857 0.0
0.00214954206580645 4.021189138965102e-5 0.0
0.0018914143375724334 -0.00023228566410647016 0.0
0.0013693744107269642 -3.610812100253109e-6 0.0
0.0006207564012090167 -0.00021533761622018275 0.0
0.001671877145918594 -0.0001575911514034809 0.0
0.001377083908765516 -0.00037574824827995564 0.0
0.0009145817446934079 -0.00026905960312708824 0.0
0.002293263700870233 -4.58057293183306e-5 0.0
0.0024198788402458754 -3.0922027673838874e-5 0.0
0.0008361891721287247 -0.00016440575559560608 0.0
0.0015877031899458373 -0.0004806758383523747 0.0
0.0021806159485098773 -0.0002283664926724425 0.0
0.00011107022785849094 -3.017082889593649e-5 0.0
0.000577882435124376 -0.00015485106638285073 0.0
0.0006780844604727319 -0.0002162553932448631 0.0
0.002228665419198319 -0.00019643953277440244 0.0
0.000865850000769264 -0.00031670859413374043 0.0
0.0015755335185646197 6.2570550071398914e-6 0.0
0.00025153608172298776 -0.00017438553820081507 0.0
0.0013894033041037693 -0.0002239910872624883 0.0
0.002045376101082251 -0.0001457492633243117 0.0
0.001609905299886448 -0.00026967388667761697 0.0
0.0023351034205318357 -4.507110027562983e-5 0.0
0.001622379811191073 -0.00043772702717936705 0.0
3.9579528532003965e-5 -3.709345419350264e-6 0.0
0.0010681199499966729 -0.00017712462312083842 0.0
4.830401385365469e-5 -2.199262696219909e-5 0.0
0.0007916498006212781 5.009451422207955e-5 0.0
0.0005101016069999639 -3.821712466157305e-5 0.0
4.190102726333241e-5 -2.705617081609861e-5 0.0
0.0006276180041997918 -0.00037673785306051685 0.0
0.0005824054536871711 -0.000344508404117607 0.0
0.0010531495500119982 -8.762152758632046e-5 0.0
0.0010822204429182854 -2.5524808214430916e-5 0.0
0.0004347918411798535 -0.00027796046360725594 0.0
0.0007479344453129029 -0.00011167135826868772 0.0
0.001432600588941493 -0.0001442662149393024 0.0
0.0004325382097727751 -0.00018441411062421952 0.0
0.0016216122464869337 3.369566292115747e-5 0.0
0.0014113889928627959 -0.00036396079656464945 0.0
0.00031519905226765944 -8.896633664989468e-5 0.0
0.00019635213758234624 -0.00012290472719774767 0.0
0.00125274305787979 -9.847007308325558e-5 0.0
9.46830306837255e-5 -6.717080221445755e-5 0.0
0.0023708579024838603 -1.2586124962049676e-5 0.0
0.0008535656229189111 1.2601921325854675e-5 0.0
0.0011310788617560992 -0.00016859638224541457 0.0
0.002096635148374039 -0.00022185351494682272 0.0
0.002318611549363193 -0.00015208010843364788 0.0
0.0019364057899893044 -9.05464378515354e-5 0.0
0.0011004780354756003 -0.0004049126433162504 0.0
0.0014475095964828185 -0.00020995713860660095 0.0
0.0020396622588353466 -0.00031211592604812074 0.0
0.0012059270267846351 -0.000509826565800731 0.0
0.002018738783541753 -0.00014774397889972705 0.0
0.0016200285028120885 -0.00024973547993941477 0.0
0.0008368481232506554 -0.00030409974689239857 0.0
0.001493272149240032 3.2060493825569034e-5 0.0
0.0008826923327422822 -0.00025661283144041795 0.0
0.0007481618626850948 -0.0003844629307321213 0.0
0.0011181779197519319 -0.00014454487760100907 0.0
0.0018557906735405594 -0.00039509753515092614 0.0
0.00043453525498388475 -0.0001415525254815065 0.0
0.0003682586676218131 -0.00024430486173830906 0.0
0.0017690380003155524 4.6547148277148684e-5 0.0
0.0005459383758977491 -0.00016442595993536674 0.0
0.001446038789057099 5.6024682089942976e-5 0.0
0.0008845244754122648 0.00031350872501318295 0.0
0.0018896372484002123 2.084382939450884e-5 0.0
0.0021169124313418952 -8.269807814025121e-5 0.0
0.0011943702449410873 -5.1419547589385426e-5 0.0
0.0018876048366958664 -0.00010965548587872261 0.0
0.0014476036966159845 -0.0004016431645032639 0.0
0.0015424917337339727 -0.0005106393054746847 0.0
0.0007089004869222433 -0.00021560658171913938 0.0
0.0008156669842705456 0.0001748014770851108 0.0
0.0004751628782624965 -0.00014681464970774498 0.0
0.0005386259663079132 -0.0003412091304915541 0.0
0.0010461886579335139 -0.0001927807724086155 0.0
6.130312100983452e-5 -2.2178360199420807e-5 0.0
0.0004191713221105063 -0.0002553466219365439 0.0
0.0011716012846815483 -9.121200335342303e-5 0.0
0.00015258294933467902 -7.551363950831849e-5 0.0
0.00013357261604227276 -7.710547555269427e-6 0.0
0.0012500649653042848 -0.0002500414815840602 0.0
0.001283359111200912 -0.00010014011798066476 0.0
0.002284191018496861 -0.00015899397754583872 0.0
0.0010061957007473448 -0.00010952871075392146 0.0
0.001729764374108379 -0.000263342373091478 0.0
0.0013059348002101604 -6.28571732198378e-5 0.0
0.0003370452800156239 5.820638091712694e-5 0.0
0.00043374232252827257 4.125190499026328e-5 0.0
0.0023770149624251966 -2.994032816682394e-5 0.0
0.0015351136094575984 1.82440418805209e-5 0.0
0.00035807296657857876 -0.00014035664172357433 0.0
0.0014770318738019429 -9.318839935238499e-5 0.0
0.0011506208278633774 -4.3474953033791855e-5 0.0
0.001263158871683493 -0.00013451268113314768 0.0
0.0004816553162258993 0.00011281625010313998 0.0
0.0012577946369132626 -0.0005155121185142496 0.0
0.0022532267747572845 -1.8225123304790487e-5 0.0
0.0012344304652904179 -0.00021226708216610157 0.0
0.0012592292244088385 -7.671078512611263e-5 0.0
0.0015810847577805702 -0.00014823437247120843 0.0
0.0010955751487396724 -8.32368325698213e-5 0.0
0.0012425453907049504 -0.0001980835845812156 0.0
0.0006095134565689705 -0.0003009756391786344 0.0
0.0016593602727427571 -0.00023384752570209852 0.0
0.0009878477578058775 -0.00016330929699341965 0.0
0.0012531776666691013 -9.13687918151712e-5 0.0
0.001944677103317068 -0.0003919672140632233 0.0
0.0010588899407255885 -0.00014451697333760742 0.0
0.001494348992126289 -6.97737777615499e-5 0.0
0.001314332106013955 -5.5522607821814996e-5 0.0
0.00020724480460123154 -0.00014724649410163604 0.0
0.0019052069561271217 -0.00021267950633558703 0.0
0.0012965356196440296 -8.197308280896195e-5 0.0
0.0007107567572938514 -0.0003807820700183048 0.0
0.00145101099801466 4.376161629334112e-5 0.0
0.0017217822987278639 -0.0004743493125966076 0.0
0.0024024991218437536 1.918214255352528e-5 0.0
0.00013500091991545694 4.942914043353281e-5 0.0
0.0010193932010966534 -0.00019857336725981708 0.0
0.0013535558617516934 -0.0005000711828995174 0.0
0.0008579341794806461 -0.00043440151381946533 0.0
0.0009709313205535664 -0.00047556017191485717 0.0
0.00019228818920489227 -7.11747567116892e-5 0.0
0.0017633307255080198 -0.00024853042283305444 0.0
0.000712816383303823 -0.00020378170138425628 0.0
0.0010217903663262739 -0.00014985842038598915 0.0
0.0008314818031446014 -6.57847110922061e-5 0.0
0.001003755985441723 -0.0004680677814788269 0.0
0.0017599860646611712 5.224337587767704e-5 0.0
0.0022783732279435596 3.465688964386083e-5 0.0
0.0014473742919525994 -0.0003833200747560011 0.0
0.0012281362850766803 -0.0002275981689271864 0.0
0.0007889154073752248 -0.0002989981082701108 0.0
0.0013115503458980778 -0.0005191873171561365 0.0
0.0018452353962411085 -0.00020430515605845403 0.0
0.00017324288787686016 -7.840603799620644e-5 0.0
0.0022154236242670666 -4.5419701256555286e-5 0.0
0.0010571453072195187 -0.0004761004995044781 0.0
0.0010809351687774934 -0.00043138298345790535 0.0
0.0016512807155102769 -0.0004172126699246775 0.0
0.0024573229077356107 -2.9540336800390615e-5 0.0
0.0009061547605787309 -0.0004471066119314958 0.0
0.0007842579244887982 -5.267965636149935e-5 0.0
0.0008061774108151661 -0.00016749773564837497 0.0
0.0015673623110881993 -0.00016592765593625823 0.0
0.002384987891481868 -1.3794130859310876e-5 0.0
0.00021244532183236595 -0.00012890573133302855 0.0
0.0012490278801768348 -0.0001857142793300512 0.0
0.002161866167338026 -0.00020811512049819766 0.0
0.0023779453197348265 6.123933212016565e-6 0.0
0.0006841258220698593 -0.00014312184851688272 0.0
0.00108171073400897 -0.00048177080607985436 0.0
0.0023037694315259302 -3.870829803098949e-5 0.0
0.00043111681495682397 -0.00024217312604044033 0.0
0.0024230537926121327 -9.096852664493559e-6 0.0
0.0007696780094844374 -0.00042746766756577854 0.0
0.0016699460104444446 -0.00021455458088749164 0.0
0.0004572638384857819 -1.0050356069864322e-5 0.0
0.0015321349955079457 -6.950635312745666e-5 0.0
0.00238808559238517 -8.311790108087455e-5 0.0
0.0018825054603907325 -0.00018680090606887898 0.0
0.0006798776961970123 -0.00038332798006756685 0.0
0.0004951530632856054 -0.0003221126338022511 0.0
0.0006073746956142369 -0.00027766378435300457 0.0
0.001996258504441186 -0.00033654128638462564 0.0
0.0018518397599803778 -0.0001122363517671482 0.0
0.0003870514133112781 -0.00014712990293648548 0.0
0.0009655829720102456 -0.00019265539269230802 0.0
0.001561162377979401 -0.00018367800382616933 0.0
0.0009293535858714422 -0.00021944512668413434 0.0
0.0023309930521521124 2.0184387016102554e-5 0.0
0.0016890262199408615 -9.29405300925937e-5 0.0
0.0009850166994034419 -0.0001548785584859058 0.0
0.00039564731091464353 -0.00013591469408022472 0.0
0.0017866160943210772 -0.0002171729705399446 0.0
0.0014768447407435027 -0.000477829486116959 0.0
0.00209574536151451 -0.00028477915346406755 0.0
0.000819819749870142 -0.0004250445745917948 0.0
0.001578210937531338 5.67360022505371e-5 0.0
0.0008853980704348421 -0.00024273559228917913 0.0
0.0014055003150974048 -0.0005019248792771039 0.0
0.0020771090317260313 -0.00021965135714451444 0.0
0.0018465950725818814 -1.9888913750204234e-5 0.0
0.002331016470543377 4.620424731668913e-6 0.0
0.0005978444347136014 0.0001338539571307973 0.0
0.0022626415962905344 -1.6813071805957095e-7 0.0
0.0007780711868510034 -0.0002776315895591393 0.0
0.002078607685342811 4.516850905031434e-5 0.0
0.0014611863390957191 -2.272725690831618e-5 0.0
0.001705760568915249 -6.290805391434033e-5 0.0
0.0007339932744742616 -0.00018860417613387527 0.0
0.0017257763022353874 -0.00011183565741633716 0.0
0.0011333397542625673 -0.0004872526091094275 0.0
0.0006378540122111872 -0.00035894618232766985 0.0
0.0013107830838628486 -0.00010204390151183159 0.0
0.0018367422884066134 2.7847270368497233e-5 0.0
0.0010630041708727064 -0.00045230445794702806 0.0
4.531923693859412e-5 -1.9533207959218572e-5 0.0
0.002397906528193763 -1.7473362159712745e-5 0.0
0.002075414504015399 -4.904810635064341e-5 0.0
0.0010390114848584315 -1.2327918933342223e-5 0.0
0.0024338264350497593 -2.85682309318172e-5 0.0
0.0006900529502392586 0.00010060411259049898 0.0
0.0011574024004887083 -3.312627689358337e-5 0.0
0.0024776347642487544 -2.097221595424686e-5 0.0
1.932317178814528e-5 -1.4997263469336658e-5 0.0
6.749701887859956e-5 -3.4371901725715594e-5 0.0
0.0007056071844123901 -0.00010224001471356454 0.0
0.0014701767589045112 -0.000215210270438185 0.0
0.0017078795247094521 4.990201450397586e-5 0.0
0.0018596870670865972 -0.0003686446159016893 0.0
0.002406784162178484 -2.1777659646080077e-5 0.0
0.0001918787155492403 -8.954024335751483e-5 0.0
0.0005093860431158363 -5.668798888316962e-6 0.0
0.0014852790804509629 -0.00045563484278549684 0.0
0.002148580490830926 -4.931021125236322e-5 0.0
0.0006255334674795472 -0.0002780946530100462 0.0
0.00013925166564624322 1.879670171378857e-5 0.0
0.0015116149799775226 -9.636828325317596e-5 0.0
0.0007434868830654335 -5.519992905553927e-5 0.0
0.001807894919553597 2.5511245597210497e-5 0.0
0.0011461183159664967 -9.100933676679676e-5 0.0
0.0009206965323997399 -0.00023014454557652948 0.0
0.0021815162772044734 4.130011666934437e-5 0.0
0.002202426090183397 -0.00021952087130171728 0.0
0.0017868106700960084 -0.0004276071345800159 0.0
0.0005500185454206539 -0.00015543059935118643 0.0
0.002279862258373366 -3.818044758558134e-5 0.0
0.00038198513250063616 -0.00016720821730680202 0.0
0.002305795006996501 -1.5332379137733376e-5 0.0
0.0020165455666082193 -0.0003309125251240163 0.0
0.0014885130117785685 3.917254056379913e-5 0.0
0.0016628795183735114 -0.0004688127568605504 0.0
0.001800448764083191 -2.434259528730618e-6 0.0
0.0011228365804577072 -0.00012514824654326267 0.0
0.000630797480425418 -0.0003417938926812148 0.0
0.0009440585809567991 0.00014762958957052451 0.0
5.308126151514277e-5 -2.228402794757551e-6 0.0
0.0023735292033471795 -2.135229716326808e-5 0.0
0.00027028051633626717 -0.00018895159920657975 0.0
0.0018059093550548155 5.314010780924843e-5 0.0
0.0004532223954034523 -0.0002892442730714729 0.0
0.0016748419802122218 -0.00019933667176539233 0.0
0.0004997963072166547 2.3194691426039966e-5 0.0
0.00022283622475895924 -9.924379356307025e-5 0.0
0.0003265553440295736 -0.00023405036837283823 0.0
0.00029080682515230993 -0.00016209840684228364 0.0
0.0008474804571628448 0.000201618348472246 0.0
0.0019246370488572029 1.4938130395943832e-5 0.0
3.6046895359952304e-5 -2.102887091819874e-5 0.0
0.002059972207969385 -4.2104855260943476e-5 0.0
0.001914469221464557 7.122375383125216e-6 0.0
0.0015097473530620415 -0.0002032755299524977 0.0
0.0011423628414023981 -0.00010456001997062426 0.0
0.0006476407314244376 -8.299297977717982e-5 0.0
0.0011603977435193028 -0.00013130072904425917 0.0
0.0015182893509760598 -0.00041649424953092864 0.0
0.0007403304751830928 -0.00020472191579746257 0.0
0.000568023266688191 -0.00034286344361195967 0.0
0.002080574380455891 -0.00015110809064422767 0.0
0.0016078674592089766 4.717335007590643e-5 0.0
0.00026181798114230864 4.641597147890028e-5 0.0
0.0007428206658304584 5.1044099228960465e-5 0.0
0.00163578126311553 -0.0001471918099650545 0.0
0.0015145527997716414 -0.000496121461031707 0.0
0.0009613174773346255 -0.00020323149976281827 0.0
0.0019181452190826236 -0.00037959248657138084 0.0
0.0001651490399276934 -0.00011959641265414509 0.0
0.0016775488490823297 -0.00039947709047646586 0.0
0.0008318974425403544 -3.734012135808642e-5 0.0
0.0023059873577083085 -0.00014641653088417176 0.0
0.0008059357538590259 2.7927484801292022e-5 0.0
0.0015100101260237429 -5.149650287852568e-5 0.0
0.0012610427088723696 -0.0002401966385217424 0.0
0.001165213657279298 -2.3303328028796065e-5 0.0
0.0013503500008498392 -4.861378110099396e-5 0.0
0.001460568686137246 -0.0004982664997979418 0.0
0.0018750417215209465 -0.00039150299783171554 0.0
0.0006006423529455529 -0.00021647636064333036 0.0
0.001411920134847352 4.2165799963407264e-5 0.0
0.0013743823163252815 6.759558446687758e-6 0.0
0.0018707501403178901 -0.00033792234949846255 0.0
0.001130270580166005 -0.00011685912142808112 0.0
0.0011442701573704597 2.277657704208277e-5 0.0
0.0006258329137069502 -0.00032593543529669 0.0
0.0022891640004096742 -0.00014047894014625973 0.0
0.001578443658086148 -0.0005053019260374939 0.0
0.0010650384700572491 -0.0004397529779925519 0.0
0.0024005469584760493 1.0930774009680239e-5 0.0
0.001049223295039466 -0.0003918716211917618 0.0
0.0018719213271787098 -2.1256902092660283e-5 0.0
0.000645352221707682 -0.00013312626293170588 0.0
0.0016131205194305322 3.8823770193122194e-5 0.0
0.00046697368007093726 -2.595315576082181e-5 0.0
0.0010424063339352632 -7.517823537387731e-5 0.0
0.0008230703895515124 0.0002611914009182433 0.0
0.0024449029108486457 -1.3477225918616835e-5 0.0
0.0014575301056252484 -0.00036860593557884523 0.0
SCALARS damage float 1
LOOKUP_TABLE damage
0.5577745369854922
0.3898471599637561
0.8072494108517324
0.27242363647356127
0.9831168501908156
0.9957411549431329
0.16584324899714095
0.756358755490084
0.7574301000763185
0.7714834286821353
0.7977945484876401
0.8167393332934076
0.8393351568591929
0.8610813358271706
0.87112182219022
0.8738196556516861
0.8670007728815053
0.8580757790982114
0.8447782104872306
0.8292682554144813
0.814571362035946
0.8069216198048788
0.7926408777247308
0.779475683695015
0.7703679940106026
0.7596508335059479
0.7440118061481122
0.7294810459865793
0.708946122311314
0.6880377582985214
0.655469314757501
0.6150895996989406
0.35910360639454153
0.5089522169150632
0.5292696547246494
0.5620966656892702
0.5832084099856474
0.5973841211359562
0.6127143106549661
0.6221390454222225
0.6320247505060312
0.6419210686012218
0.6490212559732853
0.6565190304207208
0.6657125080900813
0.6706359704382694
0.6714146302191761
0.6796614513495124
0.6876451245732531
0.6974926365971647
0.7026582571113676
0.7095072925487291
0.7150718223889367
0.725219583485673
0.7263075400254148
0.736638272061995
0.7396827491661608
0.7479926325427766
0.7536001147808323
0.7638204757982385
0.7647662249670015
0.7746292096870596
0.7803832793380823
0.7888109845592698
0.7945620063542889
0.7988505217515112
0.7977141110439593
0.7985877965808594
0.8052138063852072
0.8026932752880054
0.8201162988051598
0.8260352795117797
0.8282316272990766
0.8484606283274331
0.854739893247865
0.8640205524234332
0.8760270745577644
0.8780618960562818
0.893262541175848
0.8964011519684711
0.9052737297267441
0.9119803672194273
0.914369739212963
0.9119141030753278
0.9250103193541843
0.9296387037930871
0.9488194528468115
0.948752561852175
0.9648582034102944
0.9718954097048
0.9767538116540151
0.9818625919533157
0.9839010716690434
0.9859424237914614
0.9858611273954117
0.9871826893962699
0.984850496450092
0.9837803782323266
0.9779324895225698
0.9700311843057112
0.9646949013445325
0.9616282912513074
0.9535692718669723
0.9479671575007346
0.9289014900727842
0.9134611695958806
0.9029048158104416
0.8866049485377852
0.8798657373407962
0.8642758792339985
0.8494501932848165
0.8298652830719163
0.8339503080373002
0.8107891966365515
0.8037014996349308
0.7846752075008743
0.7716966650932241
0.7604909806840516
0.7420738082091587
0.728815581918417
0.7195941390237343
0.704104211901781
0.6840473646545847
0.6611671835717801
0.6478350699099513
0.6299433373773531
0.6120017431226902
0.5665741682110007
0.5279580656894979
0.515825543019845
0.3636279583304514
0.48320675268421065
0.5821347552218227
0.6748676523807797
0.7099298295327056
0.7279687913528187
0.7371881297345886
0.7434778494548211
0.7478087977985286
0.7513881100750637
0.7576658188658911
0.7624902636605775
0.7663117374508239
0.769767892191255
0.7722426404112658
0.7726257604029694
0.7711544364452668
0.767560549921904
0.7654827366030136
0.7620956895752027
0.7628611929270438
0.7665243017832802
0.7728391122217055
0.790466431003963
0.8211312120833947
0.8724791000180133
0.8543065860402369
0.980301082107066
0.9985011743101831
0.9957513317496359
0.9928613247180312
0.9963222671581815
0.9552244258858601
0.8932185680520556
0.8205429163710444
0.7490604282336585
0.6727752284822893
0.6137493541523993
0.543042665006091
0.4659421389186527
0.3855497412100744
0.34172728208460235
0.08469046227653133
0.233124656199899
0.3515391787755489
0.45502420786518144
0.5503287811979114
0.6508769997441459
0.7350938114924059
0.821389058513071
0.902585139682352
0.9559137022635859
0.9978022315625025
0.9930901949431417
0.9969547738349344
0.9811992013505912
0.8945676466002834
0.710390369219319
0.7682685761750164
0.9564256444836651
0.8113210685626346
0.9847548294406396
0.858789274088256
0.9528569984572162
0.9096135182929602
0.8938599919867942
0.7293248212412676
0.8319136731156804
0.6952867567627081
0.8216796386183528
0.7689211136925611
0.6159946792227933
0.6331167977915209
0.18819727326496843
0.5219385266940749
0.7663315058530961
0.6661571170036794
0.7779567401973829
0.7589461067724985
0.7601789675241232
0.8605899994969328
0.711759213775151
0.6297383020800015
0.8092606997248742
0.7472730167924533
0.7484456714590362
0.7380866384859901
0.8232536253243892
0.8891375548133771
0.9787430189677274
0.916400869242801
0.9793397747981899
0.9268310897862417
0.799592504914593
0.7483913559519595
0.6530791249223945
0.5954038839240913
0.7607694677920744
0.8493321223056141
0.7056203313286568
0.6949897085280371
0.923242678309728
0.9098496914599491
0.7899380196070638
0.7827869474742428
0.8006095840801689
0.7681884609208489
0.5552610637087995
0.3710353019287334
0.5359238646851585
0.5755759741538158
0.9662780387485742
0.9355726109412317
0.8102259142816036
0.7827493906119074
0.9688739818031052
0.8682811209524604
0.7161280235974837
0.8073067927481123
0.6809610549384588
0.6479972863458251
0.7363682344673209
0.8991175055459868
0.9581989755101092
0.6415911741266888
0.6396325002395351
0.9918252665750866
0.993206178394351
0.7163212978969347
0.8547223453114313
0.47866180735848485
0.5158641374265286
0.9950177951740797
0.9528955090682285
0.8939057956365771
0.8938677230762453
0.9302780481741714
0.8755636079207845
0.8433179886484259
0.8224950707576825
0.7991182813813612
0.7787824902934894
0.7964082049040146
0.759540720292176
0.7713913176423451
0.7445153175454919
0.7554504581230289
0.7400671739686173
0.7102762897908746
0.4471588707662353
0.6465057128789524
0.48900874925219046
0.6546509636024618
0.5543018674945678
0.6567394297384292
0.5965110998792621
0.666644009182993
0.6211770094743196
0.6707889554454703
0.6447504537893013
0.6833481477053392
0.6581111887377468
0.6896548176849913
0.6727828563117555
0.6972618230872446
0.6792848913379399
0.6992639902166009
0.6871304401850262
0.7033959551668597
0.6958404469471668
0.7088252016876937
0.7044183044375911
0.7168745781717214
0.7135358603764742
0.7235894593743475
0.7197751818669789
0.7296677398993272
0.7235557680364054
0.7326389837180448
0.7316492317514744
0.7386219962802412
0.7397105600642115
0.7447408884743592
0.7443696453621418
0.7499574574833996
0.751477214657026
0.5656927949955027
0.7568918473620971
0.6691211707349537
0.7264193815032152
0.7578437233794525
0.7633493047416361
0.7638625647322504
0.7583814161985766
0.7643599139299155
0.7693360927771725
0.7682734624687945
0.7379096583607555
0.7744777539876975
0.7729261578406896
0.7786823828872014
0.7583036669557668
0.7644351407339359
0.7767498745408418
0.7582788329281327
0.7642754245872411
0.7839196037592945
0.7820198854088442
0.7584019345052074
0.7648020901160139
0.7895005089460942
0.7875723326947914
0.7575022822156446
0.7630120498918104
0.7955060264217589
0.7935732027011861
0.755775539933975
0.7612870797987531
0.8018043060885913
0.7996358560254063
0.7528575633701945
0.7606357182951691
0.7503714633390227
0.7423220365382981
0.8035874588661746
0.8080674072218302
0.8049941126561923
0.7956810868487786
0.7151910228054446
0.801675925776141
0.7908068160537425
0.7966721695867175
0.759077275514216
0.7500138511386977
0.7657952603759987
0.8138255899773478
0.7561923927474081
0.7460068995224988
0.7126403934879072
0.7523192349205149
0.7425197464001249
0.7493591399106406
0.7387825380196688
0.7318877785198602
0.727212863602351
0.7213262194182237
0.7460664233889709
0.7199516912791374
0.712191187121339
0.7561848625127858
0.7529682664943753
0.7103435386013018
0.7029497777329139
0.7871420604659469
0.7920686098517222
0.7615552462447424
0.7568401821236294
0.7834981239582792
0.7891451553313076
0.7991777003528091
0.7940247328521718
0.8075297305218093
0.8003864435966345
0.8141725179253777
0.8060136428373134
0.821297808835528
0.7936809714800688
0.8103429926053126
0.8281218981302972
0.7660968803549856
0.7019786059690363
0.69500840089455
0.8367812688173946
0.8451659212885525
0.8351523389693384
0.8558207619821205
0.7617078291198938
0.853717242191039
0.843179774795183
0.7707969320956422
0.7669201824974887
0.7583066134840314
0.8627990655953389
0.8525612958775189
0.7765780740486915
0.7811273102007746
0.7624866776703283
0.7531134907040865
0.870736924367159
0.8615279376303722
0.8358240863555809
0.8790458190580299
0.844170936327322
0.8210475377916346
0.6946762706418271
0.6901855176330508
0.6887679402069581
0.6872812519376195
0.6804260517378226
0.6815879314117773
0.6738641244572257
0.7866724981227309
0.7906630021635488
0.7572262075103229
0.7479530924771487
0.8687251628106221
0.6799425252250763
0.6695745915131741
0.7956812209710574
0.7997115068043552
0.7700060552884815
0.8504466009861107
0.7258432331612129
0.8296288575813217
0.7025363447761535
0.7808089774749408
0.6809041274516439
0.6705438665681821
0.7529514491362749
0.7443115793343575
0.8045800220624734
0.808767167432307
0.8742312521940591
0.6926206077292452
0.6964017986218367
0.6889529017554328
0.8531825451314154
0.689204686879883
0.6745215919895273
0.8001442496965626
0.7479327131219172
0.739106597412901
0.7760427903864591
0.7768365268088245
0.7715054308714178
0.7744785676368541
0.813488113428223
0.8172107743980128
0.7499534595851537
0.6973278533172036
0.6904981659529806
0.876731689860219
0.8895962079723959
0.7248404807112874
0.7133330627706358
0.8592744016961431
0.8341039207251658
0.7496341945752902
0.7572151452744454
0.8224016679591002
0.825571949285465
0.8202573586678434
0.828638257610622
0.8230915089303996
0.8313714224256
0.8256364310666471
0.8334504345876229
0.8274583003233975
0.8350412024106163
0.840994146392298
0.8428272930268118
0.8487959766283667
0.8507013665426754
0.8566849209303475
0.858678827575219
0.8290653527470425
0.852125496287427
0.8604366180510262
0.8673663517815189
0.8693280451167232
0.6936379601667735
0.6964420927845343
0.743266517867091
0.7351105354671598
0.8619187633131405
0.8707812948827637
0.878616417334427
0.8800824321560737
0.6953541852063392
0.6966247093261585
0.7704493609303146
0.7763274575442871
0.7733474103610797
0.8790411013361087
0.86225021003333
0.8310347135614212
0.6593678948172766
0.7857659183807598
0.888216164213244
0.889426098217117
0.8812254303958793
0.890789437422163
0.774220697540775
0.7821286197973322
0.7843963095582261
0.7423941301770115
0.7390764254926858
0.7307073450467213
0.7801414242145456
0.8984572834116229
0.9000758761738449
0.8912547438433714
0.901445814674951
0.8911695911972337
0.9007549713513149
0.9110600371660603
0.9099834807354507
0.7733693154191302
0.6969438438161806
0.6961628581623708
0.8282006996487029
0.880539979775389
0.8662670377508674
0.9189051867999655
0.9196548808684135
0.7638205817055138
0.7355711758310532
0.7264486446039577
0.6756374501296718
0.7345325972163791
0.8364754949521169
0.7889582986443072
0.7092660726379193
0.880853951988354
0.8664859956229001
0.8383104678062415
0.7744959795880506
0.8856638116625547
0.699425818813487
0.7406040437862164
0.7927262081092351
0.7918689237960626
0.8900420627557866
0.7300644267053753
0.721046282159406
0.6986565968316857
0.6967758672165151
0.7397662434874277
0.9285776719413764
0.9276684470188681
0.7175508359520554
0.7127963207519397
0.9283608925336875
0.8329265592170413
0.7152899281703816
0.707541204551724
0.8175203230546976
0.839880636611074
0.8094824439401198
0.8658502281298915
0.936650742630596
0.9354468043334729
0.8807551252571685
0.8790972863427707
0.8411957940827757
0.9257439393129074
0.9327732832542507
0.7009113061725515
0.6975200582875679
0.942697737442356
0.9388315793905098
0.7096375555166882
0.7017992581180275
0.8044818440576595
0.8080718581224914
0.7004149060804377
0.6950250448423126
0.695403485586068
0.6890460800251919
0.8399713200336809
0.862596900284023
0.7840715186771442
0.8018386298448972
0.7700728286343215
0.8373276496771346
0.9478119123213394
0.9428234665034936
0.74963655399717
0.9225358339902905
0.8543566710053994
0.6893635125532661
0.6839320063181897
0.6838559896658852
0.6778987824944126
0.6786776547599691
0.6733502704910883
0.6765115136335847
0.6716098145402344
0.6780242862301984
0.6731230698165532
0.6815917628016178
0.6658219050123922
0.6704730331693962
0.7024449436135931
0.7076492487534195
0.6562011224566353
0.6624882742831218
0.762117339386813
0.7136905099947526
0.8701510594083405
0.8682218673894543
0.6973332626889281
0.8446169869122582
0.8474012470643459
0.8765736262193474
0.8653805038465789
0.8403046120923255
0.8544467404482718
0.8585333194937042
0.7930814374414242
0.8131904376456144
0.8283300006029911
0.8314399202398773
0.823357515932932
0.6763917361959936
0.8208654857430017
0.8309602241539952
0.7168204133214814
0.950594000297098
0.9444424720302906
0.9376016990933163
0.9385331337910369
0.7874437086980391
0.8044035239155296
0.7944726629250605
0.9548111697910884
0.7537116484275359
0.9436294166005403
0.9369687968255526
0.9314931684369079
0.9303218480702385
0.9255777711550458
0.9243640104030588
0.92774883221613
0.9211592859426845
0.6510929879802771
0.6549227816349494
0.6718589727128818
0.8487996277175489
0.8536266037678566
0.8254003228127976
0.8171436588775775
0.8439525579697696
0.8421635589087463
0.7708913443440195
0.7610898248385767
0.8157223412678462
0.8163759573127496
0.6483140570971498
0.765377307621414
0.7666421425318577
0.844240288364482
0.675608093812041
0.7914779550639942
0.9236197574538046
0.9167413668736653
0.7384196976234554
0.7322660121009233
0.7899479991235235
0.695718462525718
0.7111057888012096
0.7187350374651762
0.6836000774260281
0.9414848175453233
0.8174313328006594
0.8865112791457261
0.7810546865292513
0.6421283198201891
0.6482858015165598
0.7183700321253296
0.8735157412438749
0.8616107081049306
0.8323453409734278
0.7377861274527617
0.733025929316518
0.7395558918874934
0.7355225326655888
0.7325914775640122
0.7330211225180752
0.738574974002903
0.7348805777037176
0.7435843360393046
0.7413368839973872
0.7495375520300116
0.7466292939330152
0.7565140780772569
0.7521642657816596
0.7605408971888055
0.7607719072621096
0.7583301425841856
0.7324260643401878
0.7097338413260188
0.7125909643569243
0.7210164767702321
0.7672919795099336
0.7633259034100164
0.769591554016647
0.8961527616748689
0.8944100996617985
0.9036695075916464
0.9020982766912828
0.9106269037994524
0.9091303312102126
0.9002117246718181
0.9067603967042267
0.8971017695561143
0.35075746010482867
0.9174731525962663
0.9189022280885292
0.770850515143033
0.8214919171050182
0.823006050370507
0.8154110212622938
0.8165770976022358
0.8090256795163525
0.8099503806374518
0.817301759519461
0.8105906583339129
0.818223798947936
0.8103934806762
0.8177817209108195
0.803808488987465
0.8023841779780732
0.8015026568248272
0.8251804752951973
0.8251779801129927
0.715488801427729
0.7384116813864048
0.6223320792077095
0.86306474878651
0.8046968880460031
0.800774629571188
0.7122016867138203
0.7254479462723209
0.9247558070176359
0.8082184099485358
0.8294375973120882
0.8291234358341987
0.7498312874155912
0.8194289681483586
0.8108436772735367
0.7178721871587244
0.9023009709679412
0.8923096669464762
0.8080969686988412
0.803138112866082
0.7994972144694763
0.7955968970016438
0.7994579097578449
0.791948229998062
0.7971837821130368
0.7891716814075901
0.6781995427923527
0.7753834434489028
0.8304786425277432
0.8433141767044137
0.7493803944000479
0.7320183166051224
0.7514300387273962
0.7410903216577202
0.8550845479411715
0.8589185030849961
0.9562582261775174
0.6815803846287266
0.7852487556420752
0.8375173212023399
0.8596185794103821
0.9188892281126275
0.8236586947128578
0.914418578048531
0.9090401734134343
0.9109614895088517
0.9021988076504618
0.7517871272662285
0.6861516206160468
0.810058865327084
0.7505424742565384
0.8501090091481058
0.7240404515437635
0.7294724253918283
0.960592895904059
0.7914714303853283
0.8589652540942116
0.8609503048219804
0.8109622927934094
0.8108549737990293
0.8205406752012917
0.7708939653034024
0.6304518140350552
0.6391317152007248
0.661453607729035
0.7926947385437018
0.8118437965757678
0.7762966024720038
0.7964275906805751
0.7707978078538156
0.7674646999631646
0.8140969841247527
0.7785051495142178
0.819964331035026
0.816577887712302
0.8050893047638407
0.7945149412946345
0.8036116723392591
0.8861289194647515
0.7844385307939499
0.7806240365263253
0.7857663463955066
0.7774240339961394
0.9038264858268513
0.8970049355001907
0.8959924510137162
0.8879613755615462
0.8534201378482159
0.8487477057560784
0.9250993820537381
0.9265831760655179
0.7945674006246262
0.7941248177667772
0.8486656525791674
0.7811424378562661
0.7729891334088368
0.8582794294641409
0.8489092870343241
0.8624048946479269
0.8507476361082207
0.8640512496049554
0.6276987862778514
0.6847382083594902
0.6899022278838275
0.7249428173489826
0.7343660518771956
0.7255915136771004
0.7454753840820101
0.7356470098433153
0.757266766068219
0.7485175194778451
0.8330791972842185
0.7720983286181683
0.9161038625209049
0.9580750103031896
0.9648630897548124
0.9613015691144529
0.8976014015025754
0.8120523301218607
0.8855455379236864
0.8057694571723529
0.7863985437376716
0.7631487742261432
0.8113582895547836
0.854730238131227
0.8549736855350413
0.9116315245711636
0.8878474642054894
0.7000797983610759
0.760398998837265
0.7644020473947551
0.7684194307559318
0.7642624321836654
0.887826608995882
0.9076881947834702
0.8503219939459584
0.8369325099120583
0.782004334747457
0.8697010860402987
0.9152688816723857
0.9114052910767204
0.8347272253268696
0.8505557904052954
0.7328120376039221
0.7386186882818913
0.7724599239029573
0.7646155636509768
0.7394262803916363
0.7560125329692556
0.782434747552827
0.7749229395505332
0.8005176892487744
0.7943148734777258
0.8163771379885001
0.620364147185741
0.852565820888209
0.6315307029268353
0.7188250671153293
0.7691683267719973
0.8303366507891595
0.844757016194382
0.8770660914719516
0.8107317567511357
0.680327543869928
0.6723475353478215
0.7898393090420575
0.962203664847461
0.8222517098762573
0.8760186623275287
0.7863295149933405
0.7997735912096294
0.792263622808932
0.7974150314272693
0.7218099184723603
0.7902360745504301
0.7158359016129697
0.9323943576429156
0.934195967998116
0.9289242791926857
0.9368941319873695
0.9185736866016234
0.906755015689253
0.7581363904735138
0.7660203472127499
0.8536826687201062
0.8722932456192267
0.7103639021260293
0.7773179121861566
0.7687604989836296
0.7760209238169695
0.8939398550986115
0.8262804487526423
0.7647281019054282
0.9430288968583972
0.9465303038981927
0.844167837293569
0.844517329485728
0.8354387321912885
0.7671164536329536
0.6889031563093814
0.6078235454893273
0.9305074755031764
0.822504445275704
0.8930009475011935
0.6920273145544348
0.7400307604104235
0.6871400994497934
0.8820232942151666
0.7149714542774435
0.7080164817626095
0.7130433037889573
0.7062795912585136
0.7102138922237053
0.7018112066575083
0.9681249610332172
0.963829305102572
0.8166801562427899
0.9024178014565184
0.8624180146272776
0.8594004497482822
0.7404988009099631
0.732538211636812
0.7204293949570011
0.8096380587552935
0.7911498322891594
0.731713426082647
0.746544178429382
0.7441042388093138
0.7489743338893852
0.7358242978383337
0.7902175114028135
0.8194971852702954
0.8622075863599368
0.7946435914744817
0.9298273614323515
0.8188639991144188
0.7840717569605725
0.7631509158822374
0.74195704424153
0.7718251956609058
0.8405807539008326
0.8366699351230493
0.6910699038873497
0.673548750249843
0.6655108236349382
0.6661163797862345
0.7145724410289692
0.6207148088055834
0.65052702966783
0.9527402006108505
0.9540348854313881
0.9462919104047117
0.8976936517005533
0.9018563100882102
0.8811605055430202
0.7004709724156759
0.6974721619880807
0.8443575995156012
0.7617560740106583
0.7622953238546448
0.7567242101721039
0.7523442040997429
0.6043497374272447
0.7775884142502844
0.7719011727286299
0.7634729318418181
0.7560734082704322
0.7502740715945705
0.763108939108295
0.8470229083732927
0.7878185965808417
0.7879233425697192
0.6674625009211775
0.6585558447530502
0.7331531782901554
0.7339153189666898
0.7348101751350679
0.7394973938240649
0.7428219180538664
0.8836149109867419
0.8784057944636514
0.8893803916933655
0.8356331072102131
0.810361385373973
0.7193209558749932
0.8368299312617951
0.9718710297167942
0.822066691885627
0.8854064321816678
0.7582091806635115
0.7480553230285307
0.7548052853601729
0.7496784409898566
0.7553985110100523
0.7535365848185657
0.7585822400240598
0.7581875697642635
0.7635235810020023
0.743779433132828
0.7530962965310731
0.9705027961999102
0.7468935664769828
0.7959348817131341
0.7877824281648959
0.8125456373185556
0.7866300008387832
0.743412502891138
0.8373152293038164
0.7554470848849212
0.6854372113218926
0.7156568155373918
0.7472743791593645
0.7855480211186697
0.7846097385722594
0.7955804000001013
0.7874640543657065
0.6923613472554954
0.5915380879678189
0.7424289990577124
0.7304702538396394
0.6089033157979545
0.900221053029703
0.8942357169817498
0.9010614218008913
0.8873487436946677
0.7591266849300132
0.837176830389066
0.7170348325819963
0.8366568072494582
0.8277616465793824
0.7829438688693894
0.7619215444304543
0.8253511248882376
0.9297730417951878
0.924538671855086
0.9320294576918484
0.9279073992908424
0.934637777837047
0.9396443336093256
0.9490709386586443
0.9549230161126775
0.7664451543924868
0.884611579860983
0.7660194576820775
0.7170518824018798
0.7252299348249931
0.9217637422498469
0.9248062589334936
0.9163009482260848
0.83196118031426
0.8511800552856809
0.8565609370840059
0.863260845031376
0.7676919576995024
0.8491851776617924
0.9228625280352746
0.8967865811883361
0.8722427227231304
0.8639559640035128
0.8761039299503088
0.7193522511823666
0.8045811191791986
0.801742240774229
0.808594887485692
0.8077802411179521
0.89552992747642
0.7221627204906855
0.7062825864541693
0.7659254685841039
0.7849381149372934
0.799896803444765
0.9641527479347416
0.9727834716352771
0.8465478958460907
0.7417820637817472
0.7083580715447244
0.9148846695377861
0.8705602057053045
0.8159853126588716
0.7855168950812847
0.8800668499399972
0.9111914344851396
0.913990230406161
0.8485153930691183
0.8745000067335257
0.8670995689717397
0.9507462107973721
0.7798496611622686
0.8136488885268899
0.8471380317647877
0.8635849371385828
0.9373150727001454
0.7532924825974998
0.7831495705847875
0.6935629763298217
0.7423392680921055
0.9242714508891984
0.6980912939067591
0.8877475494901469
0.9052001581762326
0.9437862921740793
0.9481632066444465
0.9087896641107598
0.830714491106521
0.7490816003413083
0.8596245306332673
0.820976428120417
0.7784993174688124
0.7741432689000797
0.7577762251645722
0.7112317591697982
0.7226997798296914
0.8395520719586139
0.8338415028328512
0.8883809253647088
0.6873926555752473
0.6964614711387945
0.6921539846943899
0.8856968913140466
0.8389867745377066
0.8462657107612859
0.7924872524422127
0.7988101967129647
0.8055340922702242
0.8059794194136256
0.8226848132137543
0.7968836195697335
0.7869631205565116
0.7781252252899703
0.7671154143630124
0.7811312631695516
0.7538945418829495
0.8812696814612057
0.8016560190867035
0.8108508142111219
0.960150343110886
0.8130070617753952
0.8149014814664002
0.8057050600947027
0.800153928621723
0.8091443980258072
0.7969713500391503
0.7970507685134631
0.716267155644214
0.7143829417893417
0.7074509962571792
0.7114334057877271
0.7183119584300887
0.7139521955237184
0.7222819826506075
0.774368619142464
0.7189744754189193
0.7267609877175516
0.8087145403143099
0.704698836888729
0.7309287483280383
0.7051994343010065
0.9002631428893431
0.9054480065692431
0.8843768803533992
0.8912295680371721
0.8198076602491178
0.7456678710103524
0.7232811376586049
0.6859363652271807
0.6880479697079916
0.6929942812989134
0.6259285784262949
0.631571999147043
0.559659958661725
0.5844352063469196
0.5403986294702059
0.5719452674067744
0.5544806536601656
0.5786847302013776
0.5770190045362384
0.5930852844436381
0.6031253682263121
0.6104074642511371
0.6234227902266094
0.6300031582260576
0.6442603800037983
0.6492077560069605
0.6635867146160217
0.6669709931906355
0.6808199535245468
0.6833154538574921
0.6687817271346052
0.6842275528565475
0.6991361031942055
0.6207484528254346
0.679906075519053
0.6442067474209976
0.6437539332051282
0.5923558121897496
0.6717993275102889
0.6858588896121478
0.6986425515403509
0.6992761458549568
0.6006374169591107
0.5324613227683613
0.6566502450713556
0.5318732708167868
0.711497577003707
0.7110331576773443
0.6990331330745582
0.6622658945165151
0.6485073332946514
0.7118585965608847
0.7238701012553269
0.7250220103665775
0.6600488614811844
0.5882177447218454
0.7102324186107805
0.699911660535122
0.6893402440928992
0.6901538836026471
0.9341779052116604
0.926448660251956
0.7549131809319882
0.9237015351219842
0.9331019189324956
0.7933823689513593
0.8012400275789934
0.7336399783879051
0.8405643439072858
0.7217972707943748
0.759488388055879
0.7571097427125026
0.7601214612006096
0.8240153804597006
0.7580875095168239
0.8030484025252522
0.8012063632081876
0.7896390955012551
0.7708924939287956
0.7922256552370954
0.7591165983516464
0.8089282903714478
0.7631169261331892
0.7691205885948295
0.7694847970296212
0.7832353424859514
0.7904734046412082
0.7839605749887263
0.7904863779110346
0.7837807078434652
0.790261224387185
0.7836202660327047
0.7898200636010051
0.7965682739934926
0.7949740625196781
0.8261916123850145
0.8191460800025435
0.8198074783920888
0.8121305941303433
0.6967997519600192
0.6617562864198747
0.6537314058625942
0.650348849098503
0.644542764411539
0.8395549559463774
0.837328036799058
0.8514239292228286
0.7807215660954786
0.7540508990366604
0.7489316027314187
0.7663638784377239
0.7897461929505406
0.7546935635911287
0.744632511759085
0.7514309019809418
0.739439187649594
0.7197436827561116
0.7283046933082944
0.707368344968246
0.7130811379544203
0.7383512318633948
0.8383429780607062
0.7111079401023729
0.6775496331972063
0.7343067693000112
0.7551711578281236
0.7771190708389581
0.9078166355253736
0.9080293216105482
0.9007600030569426
0.8512568013023151
0.8195674171850812
0.7530080265018326
0.5681905944954205
0.5687352850987984
0.7009266700253288
0.7886566371098632
0.8072562430191479
0.9075211121513105
0.9164463603799439
0.8113879484580327
0.8247143380137504
0.8328643639374798
0.8594869714095611
0.8493531524736815
0.8541832098352591
0.7778795864585116
0.7862167174323456
0.7957695914076117
0.784883688798996
0.6966579459984316
0.7858303586752176
0.7857882760462089
0.9275596817670603
0.6463133279898013
0.6357816717755916
0.6382927530357071
0.6295858414929199
0.7378420821850548
0.7606836404141022
0.7609828148784904
0.8755036133214746
0.7804640049789665
0.8413201470136035
0.8325294650738945
0.8239399967836509
0.8118574566153107
0.8090273309888636
0.8192845736608579
0.8012139161641032
0.8950681868846339
0.8945642664242228
0.8820405164913109
0.7207030938800496
0.7172123444783164
0.6959779166205781
0.7005586448266439
0.8095865261598905
0.8025616935283508
0.7050718605362395
0.8425373087065235
0.8139150299630302
0.8062347093838483
0.7364683636002605
0.7430875906259389
0.8807754615737453
0.701265551721872
0.7034383829350114
0.9083568678538205
0.9540543711848243
0.6772454210018828
0.6798328397175271
0.7228068857738095
0.9038368618824838
0.8944100936538628
0.8654775976579021
0.8103251171632684
0.9025521353239992
0.7703490502170072
0.7029765331784328
0.7713621949931075
0.8547416246657416
0.8004725004461771
0.6928209719521651
0.7610391823939859
0.8959223684183252
0.8993559560845135
0.5885607000508819
0.9635916163868
0.9675090935649925
0.8265682203280402
0.8338299770094993
0.8366322403095042
0.8419990379078026
0.8338007116430239
0.6421266919172631
0.6380017352964501
0.7116781756002211
0.8485490273474453
0.800187513824845
0.8584591743230536
0.9116124286807396
0.922528932809861
0.628387567599083
0.6184074320346753
0.756148496608664
0.6928388400130029
0.6878291597154268
0.8955798497415552
0.7589890064216162
0.7278216688216818
0.7658736802610213
0.9762936441694712
0.9775177309023066
0.7358528041623359
0.7317794646978676
0.8435903307960817
0.8647915151586455
0.782751819877648
0.7769660680550691
0.5398876596198995
0.9739284015645981
0.7767518464768828
0.6588689511596652
0.6691116700061015
0.6975658551087762
0.7681200860559546
0.7350702148051486
0.7257524388727661
0.7358161277209565
0.7283376930552574
0.7370210861945381
0.7287977158173172
0.7197530223786172
0.7182058321179645
0.7067554455679297
0.7089626690414979
0.7390248428498966
0.8232157535411707
0.7768886914969431
0.7756026489107125
0.6111646176728108
0.4596909804280877
0.45731220907761416
0.5890961308965286
0.5121518101394441
0.48919718963186176
0.4722090273883196
0.4456169929393215
0.7014485584590949
0.6910626010375308
0.7577432852426564
0.7490634827471798
0.7554145847959053
0.9407737397654801
0.9516960356230967
0.7539811223654147
0.7570708891733604
0.7496023708119897
0.6664597244059596
0.3963084478184608
0.7197286070669359
0.7084314860601303
0.6966615215278783
0.6993709327406866
0.6835620313436989
0.7663737412829783
0.7689744398325061
0.5208691032004832
0.869285914748873
0.8866604717052662
0.8367327964325303
0.7662226397904123
0.676592357613078
0.6769007467072192
0.7386222508167538
0.7505339451887911
0.8695794442500056
0.8566106001842818
0.759864295089509
0.8484006768398311
0.8527397917905241
0.8627072532449344
0.8668518410773219
0.7536470727822148
0.773823926326181
0.7563591472165025
0.742969806871646
0.8048676455688876
0.798263766065607
0.8728726803980345
0.7027438844997168
0.6460925008325666
0.5607658550991503
0.583958288813832
0.6117234177928452
0.616328578106158
0.6383124575228353
0.5898322633914513
0.6404439040752012
0.6599283308564824
0.6266345297422875
0.8057007746308145
0.6589621436601022
0.7641207492319219
0.7343981474473776
0.8689295369415628
0.8738924236583498
0.5523221304370162
0.5578667890584601
0.8187479407530763
0.945122726928009
0.9515666675914096
0.9556085885398168
0.9587811286793719
0.962169493168341
0.966066981662372
0.756009828162591
0.7673406278773784
0.7710798377875929
0.7770481133488792
0.7785758467602796
0.7809745119668831
0.783780897514385
0.7796969312272655
0.7816133573655631
0.7825961182155851
0.7815450111907692
0.7899285756698933
0.7902728085825587
0.7962532900788991
0.7820674248620002
0.764419722973286
0.7909798862993616
0.7671592525823406
0.7819209751062729
0.7475248928805217
0.6312352750755904
0.690230079439974
0.5879995670845019
0.5952026548585971
0.8700702590070748
0.8275327525816375
0.7491359808845053
0.7367628790654521
0.7399363815110145
0.7346940994507389
0.7421322973799138
0.7370523139899542
0.7410401037523517
0.7355140785398719
0.6172251141847708
0.8132815805468359
0.7491998371486968
0.7648524056041273
0.8192079967603005
0.8115786211993857
0.8382068017176002
0.777903216674315
0.6400994573272243
0.6425817798495366
0.6523323307649681
0.6572224370173959
0.6654172369842862
0.6631503526850171
0.8457329799667354
0.6976797830596436
0.6957079211924496
0.517287463888409
0.7942913148151616
0.957214424167879
0.7867924203301153
0.6692288665997013
0.7843526244579344
0.7834659150619911
0.9514814609270915
0.7666283152474132
0.7585049703384659
0.7609473664773075
0.7543789051231061
0.757207055986001
0.7509706537177692
0.7476186864811928
0.7524083532943695
0.7666695243945337
0.752391592919243
0.7507842249036418
0.7638917151613681
0.7455842011490437
0.8628696353123179
0.9311344454022681
0.7325101402374672
0.7286747088007579
0.7316434272982448
0.7451236176851216
0.6591217435762387
0.6416729087630042
0.6574476942772006
0.6391077765227727
0.6228709265011206
0.619759286452256
0.6342235890354155
0.6825767836937235
0.7346065729460527
0.6535922996096114
0.8356167042389313
0.7585147715888028
0.8456485238016912
0.6720607861109263
0.8613095344319528
0.8145840653546669
0.8205900651108317
0.7099253851901992
0.766592959814562
0.7696533697983357
0.7511536683856394
0.7414705567306176
0.7129127809776246
0.6656726015719913
0.9582910966502385
0.9334982837174186
0.9730474192641501
0.6288110750160775
0.8280764591341416
0.844514586763241
0.8609606289015754
0.9112552146781857
0.7316001325981664
0.756913729338233
0.809416373161234
0.6825909588208879
0.6882142155815786
0.6853297704156572
0.6994820722067493
0.748213592552528
0.7642882948149987
0.6976312662322267
0.7125454632922832
0.8270673478427171
0.8514541305603586
0.7247361081483503
0.759310943681683
0.7286689653095627
0.8111690841627991
0.7821973377972085
0.8554226647590731
0.6974012752416299
0.5890943918404623
0.8294280410166393
0.6907867902366054
0.8862352328276669
0.783579532685215
0.7654296198022966
0.770364279695028
0.7609817365432521
0.7515781320494023
0.7164685629977412
0.6799739183455682
0.6999974534982573
0.7253668159834086
0.7224663109484364
0.745711774499325
0.9312914585981957
0.9219749644379446
0.9220275600413547
0.9168086412897597
0.9093000527726932
0.9100725273524825
0.9184628675739593
0.8763888506584464
0.7272228977336874
0.7055916970764075
0.7102885059646519
0.8277470164785706
0.8747898379790328
0.802601085725489
0.7839599556664136
0.7972949208871872
0.7920218765918821
0.7906880005940233
0.8110626825866919
0.7615131900129345
0.6901146053591969
0.679291470053297
0.7694472928411719
0.7628720266747778
0.7171425505466319
0.743939517583391
0.7390934927161322
0.7301399391969092
0.7323100738625177
0.5917965759518458
0.44343415148071313
0.9741549049754525
0.9751166340269951
0.9707900991319358
0.9794137411566187
0.7777344308444339
0.9066151145406371
0.5767338782689221
0.6204079719752984
0.7245580115754447
0.721246466474444
0.7319673687392793
0.7253505476300128
0.7188831578500208
0.6452671198584709
0.7492973733803431
0.8371439668998859
0.9794074893216079
0.745865839471539
0.7464402800984412
0.784790716517275
0.9337827563062031
0.8418901234134856
0.8465205340994154
0.8363910345130149
0.7389838828181001
0.7318814365647617
0.7241304239858315
0.7267484353651202
0.7028067209833199
0.7082993026974689
0.6882920526664913
0.9801980358042991
0.9386538736017969
0.9375540286585481
0.946966782817483
0.9441441888157797
0.952407384880245
0.9457710965826115
0.953391458195717
0.6750187612332753
0.6928790295630627
0.8740921933705333
0.9582373929087646
0.8131608161110181
0.9408045482562256
0.9475396835114984
0.8947208517481804
0.8186150281417703
0.8119203986597034
0.7934699653132236
0.7037656623322116
0.7973259832254673
0.9029304982269118
0.7709851596701432
0.7737913750232197
0.7799695984331156
0.7676605350713528
0.7757157672857263
0.777257018468053
0.7722271625304674
0.7660084953658729
0.8206848254869845
0.7823722781567423
0.7800420091801367
0.8819522287635958
0.851983407594462
0.7475333758480007
0.6914401718121309
0.6904955366838696
0.7588060244706095
0.722384854789403
0.7270813604237955
0.7373879469115426
0.8994991397494967
0.9072267540498475
0.9093265638176455
0.9071383096140085
0.9141651057789619
0.7229530790785269
0.8644445335628854
0.80653003992972
0.9150647624477327
0.8167731529722773
0.7390220057010791
0.8034701532726157
0.692385674887657
0.8102387108499572
0.8193568966039212
0.7900888678847072
0.8277865634500453
0.8712470163084188
0.8720733883373016
0.8813756265621203
0.7804376303028503
0.8392088322110215
0.7703745431733424
0.764415478686887
0.7717049226906745
0.6704136625409194
0.7653335522095178
0.9661681056043178
0.7559478258188816
0.8768482333260046
0.8745680904099082
0.8821211305298241
0.8716980552533146
0.878819479389549
0.8924883266532434
0.8148390320142009
0.8091336831092352
0.8064648253052774
0.8539247078540724
0.7863826809737046
0.9446160010726529
0.8338989650597977
0.8650828712452967
0.9595786893797018
0.795954587375635
0.76168472601054
0.8453255171052431
0.7193002905786074
0.34354926566852056
0.9504440317451456
0.7635403555179071
0.7873606824434781
0.8042218112568323
0.7606184697918212
0.7768267744092759
0.7446602204200757
0.7816006711642476
0.8454503611882724
0.7972130983812611
0.7776258437884137
0.8344293098236087
0.8142107906457855
0.804880623926877
0.839454962143811
0.8822783851297047
0.7447393113537181
0.845352035876598
0.8374073891960986
0.8282969534755921
0.8240363992272292
0.8151523725155908
0.7143782958389217
0.7928164790485809
0.6782948956122828
0.7547407917262795
0.727318708654919
0.8402606555118644
0.7999784489837288
0.8302412509367244
0.8238972395669556
0.8683944821209287
0.875466243175745
0.7120528006220729
0.6225413651665538
0.7742768236257872
0.8365865219898172
0.7058578395431542
0.8108261657468628
0.9122317879306038
0.7665850976082191
0.7812205182845522
0.787961947738638
0.7585298422463238
0.9412311621162058
0.6976200849303198
0.7773679860309749
0.8206100262938792
0.8247526415462872
0.9195884326376162
0.909824133776374
0.8974463205225023
0.8033304111121937
0.9635359629424375
0.9825690605171771
0.8779636560087117
0.9054188074785403
0.9731684319880926
0.9721962265135937
0.8117813569255987
0.7754272618504839
0.9735801510480595
0.8205999636274117
0.7705518329591392
0.7767740578962785
0.9132062132164868
0.9241892962880126
0.7855552937313783
0.8487845143361937
0.8812958295723451
0.7507162001298812
0.7028100628313996
0.8054794865909192
0.7329647147449516
0.598306432028339
0.7970989627226679
0.8632525481066975
0.6087753658081789
0.6078247592628199
0.8439297070225045
0.8050059155415962
0.8534737662703347
0.7707235888271673
0.9225877994988445
0.6806103190646209
0.6128217098680852
0.6953173306767673
0.8195790421800588
0.846538518030729
0.7482649426580583
0.44156806974826085
0.9510464908884847
0.9292219752738488
0.7701128871564953
0.8878627247299588
0.8077961726347771
0.881867986299723
0.8947549616309342
0.8779280100178959
0.7405993286121703
0.7627408822133634
0.9573733017756734
0.8485632914305902
0.8707472129898467
0.7705153384305127
0.9551852499670647
0.824089459233152
0.7863760138907934
0.7532407198560704
0.70268446537739
0.7862899478077424
0.7346426756170331
0.8569758089084183
0.7768755234384525
0.6999677519392986
0.9318197450719342
0.7383806571128807
0.731366924202346
0.9393626844893818
0.8720353511189429
0.9207388040245208
0.9374250822399657
0.7893907199900113
0.5209878286514588
0.8079996081824559
0.8729074746984579
0.8782854639203178
0.6915715409139892
0.7879012159930433
0.8111960498963778
0.6001453175460116
0.8991523666181299
0.7584526448405788
0.6943697310478391
0.786465665227907
0.6575917082403995
0.6815419189030779
0.7360211257906328
0.8517364239324235
0.7437623379758762
0.8695452588462469
0.7795195319281497
0.9032180222639029
0.87995699582077
0.7683183321022375
0.9179105399318422
0.868660955604992
0.7610681600561457
0.7082122903524727
0.7124479990631861
0.7691151730199589
0.7284342066333472
0.8818449788049413
0.9339758963545075
0.5137304985249086
0.5540884965172439
0.5798143677031262
0.6727480481419356
0.6069621676294533
0.7669678585439865
0.8201269475088805
0.8200747240870854
0.6863807821282099
0.7034974441017724
0.6973002593380501
0.7227519830837472
0.791035132886995
0.833801506349046
0.7857181853536515
0.7959804472186748
0.7787447746575317
0.6730961554882043
0.6402179424885158
0.7543793053997209
0.7718081744611586
0.9668029572723873
0.6560506111680412
0.9445906956272675
0.7068103686817946
0.89112937806597
0.7817412577772053
0.9183014230466444
0.7747628786728628
0.7435565321551169
0.705212890763796
0.8143417158023605
0.8443924725168372
0.8257988707287911
0.9143398070716072
0.748755003155166
0.7101165641053224
0.8576150966802283
0.9180480288116659
0.7054293149067907
0.8339209539525714
0.7537941970129503
0.8912596925084781
0.8070386239646361
0.8123821868050425
0.680791828483256
0.7888609696364426
0.24604891282456431
0.7620505535541178
0.7835179841968898
0.736108293825349
0.7243040400815446
0.8736716784427084
0.9088143978974128
0.7223653592197591
0.6708491999249547
0.9196250464671082
0.6880163642515339
0.8177143634253276
0.7232227725603009
0.7774483089137251
0.7207536484478815
0.7611908855017322
0.8116058685225475
0.7459196966245779
0.7370160201658995
0.6560144569776528
0.6758015072552429
0.8395341512415987
0.897161028722694
0.7409192365397083
0.7325139760317558
0.6528193971134215
0.889834345968228
0.7914001322628488
0.7007351849309305
0.7848292423027434
0.7449839428444781
0.8113685388845945
0.8385285107341856
0.8377448671229432
0.8056244754329417
0.8293657653136763
0.7878522846311032
0.8347082398146507
0.7785057037528537
0.6079006572747736
0.6972902234399625
0.7514736106324167
0.7970336261121548
0.6848328125509673
0.8959015371947875
0.7739126739979226
0.7756302393902788
0.8459835538343706
0.8283271243181657
0.6751320968292128
0.7877663514704574
0.7797457361137876
0.8312270414635173
0.6943651494910137
0.7373102837013641
0.5141911036528114
0.8253620562383365
0.8865482900995614
0.7032958352175924
0.8316927939443411
0.7321756635725679
0.868713301260899
0.695104004377418
0.742083990457193
0.7075454923395186
0.8656266648591494
0.8328030608886512
0.8481056536126488
0.7748935379685689
0.8031632860678612
0.7341100415332182
0.7941945830649582
0.6564830295893689
0.8650488885885331
0.9140592737600566
0.7424309991185667
0.7829026883216311
0.8201165805684308
0.7547670617491861
0.694652235423282
0.9685154341204341
0.694461659048684
0.8292159926159561
0.6824205466159842
0.8083254452368464
0.7715756520727848
0.707984976643863
0.8609314200505799
0.5270733526355924
0.683832963190015
0.8853535717524754
0.8460730964039539
0.7892956656147411
0.7766666243817997
0.7402421610511127
0.814581594831225
0.6472033408254437
0.7685179207263705
0.8114761784126522
0.8328723416464517
0.7981551836577262
0.7047936679962608
0.6205977502357533
0.8929443182218386
0.9066772704846344
0.6635881501238922
0.7745769314552627
0.7896084361061999
0.581304994205372
0.7096936275379291
0.5692533238840436
0.5634475040119347
0.7487061495054746
0.791211745294204
0.7530935249545754
0.9449806776455851
0.6857269306358883
0.9835720941815929
0.7023663016267029
0.798999777835126
0.8120206612046461
0.6795984279994569
0.6468867547418793
0.6631740576966012
0.7494270992932636
0.8726160833781793
0.823683866377367
0.7864616513510047
0.7715494867211926
0.7877173069805908
0.7863301052315032
0.8572281064921884
0.5275942204218367
0.6954108638305849
0.7769109271600871
0.658064549171986
0.7575209739404266
0.8355513343445047
0.8460116381865227
0.7434129391581876
0.8120722848724224
0.8182934338817942
0.7392874853782505
0.751430134997139
0.7459094354982228
0.7270732845196053
0.9031665229475561
0.8105387931698076
0.6682954314145871
0.7277405203443235
0.7120957027717755
0.7169865788026857
0.7929011577773684
0.8103267513182976
0.69466547934328
0.8182174052037966
0.7785272152331676
0.9293577871122215
0.888987415001596
0.618693546529994
0.8056522354963743
0.7578850442074202
0.6813469841890849
0.8976509895927157
0.7588429808486185
0.7953968035678003
0.8542368649240348
0.5195117287296438
0.8356135626302916
0.9182882672530502
0.7345119608642604
0.9644661196030471
0.688996081330757
0.8969658171126865
0.8033666840542185
0.8353509091681215
0.7249201429296229
0.47332503639537443
0.6371169187779572
0.8512916495291036
0.7527228966359336
0.6784691443104661
0.7585657541742221
0.7634660686706903
0.6984043418674216
0.9378833486709985
0.8764391224766633
0.7394645094279048
0.9132107858560964
0.770276425265548
0.7316092124052361
0.8231462382899241
0.9159303686919443
0.7977949900176687
0.7818879266638779
0.7533580117271339
0.7310827060809394
0.9763143342386023
0.7524619939012023
0.7591164360430663
0.7072796212939593
0.7399003971107783
0.732657798746713
0.8057194722931105
0.764727386225598
0.637979422201886
0.835964060850804
0.887271778512491
0.9039852804035221
0.7997121944203289
0.9673246730237703
0.8522716836992672
0.7694483967850634
0.7221691102917608
0.6870748817199607
0.6964364833065189
0.5481255826958944
0.7628115672205589
0.7488781412983523
0.6686908860283772
0.5219536388335677
0.7033442377437512
0.6790926941798621
0.7840856013436429
0.6982970924816582
0.8313518767474504
0.9159401959503539
0.7021583047015952
0.6198276245835783
0.7340132844256352
0.5460814502263127
0.7604882082400735
0.6091331148063184
0.7714262450941878
0.8363871820546428
0.6330612073936427
0.7993640252882422
0.868796564216588
0.8322105865254235
0.824034154506135
0.909535962129075
0.8890688561736739
0.8913860627551999
0.7956843263232669
0.7342651387412038
0.788739706265623
0.7973576658773603
0.7526637993275376
0.9031844723483834
0.6977864049946082
0.6801770566224625
0.7649787684442125
0.7083213284367075
0.8172399208652664
0.9923973067083552
0.9950464209608882
0.8134673016111278
0.6508403630081838
0.8075812251295177
0.9402187799469983
0.9847142633207615
0.7451447889174976
0.7500047461366824
0.6990816354805734
0.7364908667962294
0.7783437602857467
0.7576678713306354
0.6960791161827091
0.7079551067296626
0.6645404780633515
0.8111388321240803
0.8328105459165585
0.739292150476514
0.6961623421510416
0.6929777828574105
0.920867657957897
0.7269864112360156
0.8223010001181182
0.7931816397999247
0.7578799867844778
0.7373348418463377
0.6905647761823346
0.7592923351168411
0.596288865245529
0.7594351477021086
0.8063382378529758
0.9214600677937238
0.7580513899947352
0.8086581977634455
0.7189144478101223
0.802316474638105
0.6753561858680256
0.8003691690739947
0.7495867475218371
0.8875099502296321
0.7507740744617717
0.7293516343907824
0.836604197896556
0.7441615987318488
0.7602950659272804
0.7286916899575288
0.6194644715823944
0.9099748162423602
0.7316800616878023
0.7840480381245468
0.7328076135406895
0.954391763608323
0.8344420840496976
0.6498417301719107
0.7795600945732837
0.9519852914983171
0.8173370798903283
0.8487346793191956
0.7055414295525385
0.9175093035589387
0.7410076098994797
0.7438186344454375
0.63084369824732
0.8609821863731906
0.8283671020742778
0.7993416116665281
0.9339182087295986
0.8163502081660178
0.7857012748336161
0.9480399748922652
0.9025858344167036
0.6793125926968228
0.7776106272467588
0.8821932716802893
0.8747384124320983
0.9625049314270436
0.6225366608811932
0.8132613668329268
0.6301632509374356
0.7329151706743586
0.814642606195154
0.7621132037927717
0.6298322527597285
0.7928972529271149
0.7966911067978223
0.7508265432913626
0.7044849653272588
0.8870370680308423
0.7718118479399059
0.7015225243527563
0.7607825575591759
0.8005488142770506
0.8744052497154515
0.7319107018496162
0.761600091184133
0.6431073329564732
0.9002892082387033
0.7760632515240349
0.7223429562010821
0.7461541607182439
0.8346748864670532
0.8053940911949842
0.6944580467177339
0.7663845696395576
0.8267506832542681
0.7780865878565683
0.743922680428505
0.7793519391974949
0.7413282738656527
0.6948651701225468
0.8978917813900636
0.970171392286815
0.791124674673329
0.8170659258713316
0.8239371362775397
0.7830010622335756
0.9627344214007784
0.8500025656620048
0.784318528560982
0.7448805482236941
0.7914269685158521
0.7433534332825922
0.77626804977151
0.7346257037151548
0.7887826999525092
0.7793502892184165
0.735998385019182
0.7921825098617399
0.9041031847434832
0.7642335572698714
0.7446004773496352
0.7618969495951243
0.8735178194272362
0.7350520143749125
0.7530576700251356
0.777435147481707
0.5209666802877652
0.7479250310043273
0.7694948322381501
0.5626737145288669
0.4034294702107602
0.44342013303030786
0.6721377208481276
0.6754220223742878
0.8403266207601808
0.780531006255104
0.9034066500729645
0.7507695748884492
0.672650365910163
0.7225824984762702
0.9675292170195703
0.7800513596004021
0.7492427229086033
0.8374909683237494
0.7636989368039196
0.6430457152062483
0.885495333462512
0.7035345955174903
0.7825639960764913
0.7404786448013024
0.7350346755336653
0.9310181159832304
0.7060959581693055
0.7732432787102425
0.6913335631655484
0.7576305846184662
0.824387878162927
0.8934486054195944
0.9650425024415396
0.9201677562918925
0.7368740449867656
0.7612404772167498
0.622438522375771
0.8546189820675152
0.7576467120126277
0.6461426479068533
0.7483110305928866
0.7083141875892188
0.8635375303085445
0.7579265726288632
0.6779878815650205
0.6692548354216772
0.6622336401154082
0.875211439842947
0.7575226839353191
0.6298326893282464
0.7748302319753386
0.991476845882363
0.8360492003845468
0.7151498636366002
0.6680081478477652
0.7465274351006753
0.9565867909924575
0.7459031713862277
0.7445140551635407
0.887998036157961
0.8306749952215252
0.8306955190832386
0.7148864930459089
0.8092031932058482
0.9801415970080816
0.7704706356768902
0.8734546744521571
0.5943743147616579
0.956456576363288
0.6088729248996149
0.6793478698420345
0.6542593995678669
0.7701529019265706
0.8287118725898501
0.5286537281245404
0.7439316567355742
0.9746861337536857
0.8980043829486339
0.7302181393887262
0.8566211843196588
0.7736172968895202
0.9043353478276644
0.7305520628141552
0.3432348605390882
0.7588524856996809
0.735624504360833
0.982276354741314
0.8739111020979792
0.7544361530176946
0.8570314203784417
0.9825294069638527
0.6973929962924009
0.8423472711319883
0.7159011335118103
0.6412501188773021
0.9694803007357968
0.7431853242920095
0.9295608824352771
CELL_DATA 4886
TENSORS stress float
-1.2155511314050656e7 2.6400120903216e6 0.0
2.6400120903216e6 2.0532367909023944e7 0.0
0.0 0.0 0.0

-1.704405354934676e7 4.951687963729454e6 0.0
4.951687963729454e6 9.13403929152658e6 0.0
0.0 0.0 0.0

-6.462970794013407e6 1.748725783730425e7 0.0
1.748725783730425e7 1.7580046609322377e6 0.0
0.0 0.0 0.0

-5.463069209804809e6 1.6079525322083816e7 0.0
1.6079525322083816e7 8.711488809055327e6 0.0
0.0 0.0 0.0

-4.333333178111545e6 1.771165551259504e7 0.0
1.771165551259504e7 983543.5484319844 0.0
0.0 0.0 0.0

2.068942719222699e6 4.248526978740925e6 0.0
4.248526978740925e6 -5.201415110418612e6 0.0
0.0 0.0 0.0

2.5237133927953195e7 1.5463062466397721e7 0.0
1.5463062466397721e7 5.346335392616002e6 0.0
0.0 0.0 0.0

5.746521797269672e6 4.35684363688826e6 0.0
4.35684363688826e6 -2.3847153154233836e7 0.0
0.0 0.0 0.0

-1.2125010472125009e7 4.364250757770208e6 0.0
4.364250757770208e6 2.178385522220318e7 0.0
0.0 0.0 0.0

-1.7520557276285212e6 1.5054356944555432e7 0.0
1.5054356944555432e7 8.982486245313898e6 0.0
0.0 0.0 0.0

-1.9605852523597367e6 1.4809782706698108e7 0.0
1.4809782706698108e7 -4.127101313021182e6 0.0
0.0 0.0 0.0

-4.306585039528586e6 2.0809582274112713e7 0.0
2.0809582274112713e7 2.282815845281142e6 0.0
0.0 0.0 0.0

4.0790824587873854e6 8.109859950664331e6 0.0
8.109859950664331e6 -2.2475528368345343e7 0.0
0.0 0.0 0.0

4.018326384223007e7 1.797479781173454e7 0.0
1.797479781173454e7 5.528655414148313e6 0.0
0.0 0.0 0.0

-2.041170762670027e6 1.5189433752770733e7 0.0
1.5189433752770733e7 -4.1898825265466576e6 0.0
0.0 0.0 0.0

3.7219422379794233e6 4.86879223522816e6 0.0
4.86879223522816e6 -1.1106713089680754e7 0.0
0.0 0.0 0.0

-426530.0834876783 1.2512768533770515e7 0.0
1.2512768533770515e7 -1.3307548846903414e7 0.0
0.0 0.0 0.0

1.9577668534320816e6 1.088695401500368e7 0.0
1.088695401500368e7 -1.6949266436399963e7 0.0
0.0 0.0 0.0

-8.21226141838795e6 -3.246820450137934e6 0.0
-3.246820450137934e6 1.327143729283437e7 0.0
0.0 0.0 0.0

-2.944957336922431e6 1.6765880213860115e7 0.0
1.6765880213860115e7 -3.317831624273233e6 0.0
0.0 0.0 0.0

2.78892393016564e6 9.189161323755495e6 0.0
9.189161323755495e6 -1.2312980864221849e7 0.0
0.0 0.0 0.0

-3.6837706565666636e6 2.0687889625642385e7 0.0
2.0687889625642385e7 2.1234290848593945e6 0.0
0.0 0.0 0.0

-5.654958207475999e6 5.724009905301158e6 0.0
5.724009905301158e6 7.787400139562337e6 0.0
0.0 0.0 0.0

-7.109741187362023e6 1.6683744863146897e7 0.0
1.6683744863146897e7 1.1327451996118603e6 0.0
0.0 0.0 0.0

2.429063832212858e6 1.0042728186287923e7 0.0
1.0042728186287923e7 -2.0902168515347756e7 0.0
0.0 0.0 0.0

5.050991456559507e6 2.5835664029935963e7 0.0
2.5835664029935963e7 -1.0522148548404362e7 0.0
0.0 0.0 0.0

1.6665115337049289e7 1.4793532646127982e7 0.0
1.4793532646127982e7 3.3057853053401993e6 0.0
0.0 0.0 0.0

-1.2359333937683087e7 1.018228389377428e7 0.0
1.018228389377428e7 1.5735324402568836e7 0.0
0.0 0.0 0.0

3.9557939135353663e6 4.984522383212686e6 0.0
4.984522383212686e6 -1.1077867595435265e7 0.0
0.0 0.0 0.0

-2.650627741050255e6 1.462294966263638e6 0.0
1.462294966263638e6 3.011858718899019e6 0.0
0.0 0.0 0.0

-6.819189529285308e6 6.55589244727417e6 0.0
6.55589244727417e6 6.673142055884069e6 0.0
0.0 0.0 0.0

1.477455496244751e6 7.411911682365588e6 0.0
7.411911682365588e6 -6.551446320219237e6 0.0
0.0 0.0 0.0

-1.2298027337257979e6 1.3766873489251679e7 0.0
1.3766873489251679e7 5.272510950318372e6 0.0
0.0 0.0 0.0

-69680.80527367702 1.3880395104292868e7 0.0
1.3880395104292868e7 -684916.414792487 0.0
0.0 0.0 0.0

-5.721255336440231e6 1.6440692526392378e7 0.0
1.6440692526392378e7 4.431286856479237e6 0.0
0.0 0.0 0.0

-5.516180361291507e6 5.3142076105892295e6 0.0
5.3142076105892295e6 4.653444952630173e6 0.0
0.0 0.0 0.0

241990.79738717922 9.688011965154245e6 0.0
9.688011965154245e6 -5.333332897493768e6 0.0
0.0 0.0 0.0

-5.180006337692728e6 1.6317993027859662e7 0.0
1.6317993027859662e7 4.565431297197811e6 0.0
0.0 0.0 0.0

-278584.6760160746 1.2102511085414337e7 0.0
1.2102511085414337e7 -2.0227372791933477e7 0.0
0.0 0.0 0.0

-4.84864992595849e6 1.909117274351226e7 0.0
1.909117274351226e7 3.335158205184225e6 0.0
0.0 0.0 0.0

3.5174212037342563e6 8.28718081933148e6 0.0
8.28718081933148e6 -2.444552544101156e7 0.0
0.0 0.0 0.0

-8.256508308846868e6 1.8633455133408096e7 0.0
1.8633455133408096e7 581586.5802862626 0.0
0.0 0.0 0.0

-4.895628691340222e6 1.8661326456712566e7 0.0
1.8661326456712566e7 3.0849154963608026e6 0.0
0.0 0.0 0.0

-9.934687799394878e6 1.126044988639348e6 0.0
1.126044988639348e6 1.4147924262897857e7 0.0
0.0 0.0 0.0

2.486766773539298e6 9.156889965799788e6 0.0
9.156889965799788e6 -1.3411953070769964e7 0.0
0.0 0.0 0.0

-1.0996221215629324e7 1.1653873259421995e7 0.0
1.1653873259421995e7 1.5263954085325256e7 0.0
0.0 0.0 0.0

-751384.9621412309 1.477809971834247e7 0.0
1.477809971834247e7 -7.56017198166993e6 0.0
0.0 0.0 0.0

-110813.99059875612 9.38340781267168e6 0.0
9.38340781267168e6 -5.856892191297978e6 0.0
0.0 0.0 0.0

5.493120222966976e6 4.467653618408581e6 0.0
4.467653618408581e6 -2.030143455896068e7 0.0
0.0 0.0 0.0

1.445144875442452e6 1.294956951936711e7 0.0
1.294956951936711e7 4.817149867516058e6 0.0
0.0 0.0 0.0

-3.9135725861277417e6 1.844296336820104e7 0.0
1.844296336820104e7 1.7595044182052992e6 0.0
0.0 0.0 0.0

-1.1312894925866403e7 2.3965107665012046e6 0.0
2.3965107665012046e6 8.061290865526709e6 0.0
0.0 0.0 0.0

5.575949494748664e6 4.44230394466064e6 0.0
4.44230394466064e6 -2.079295369299672e7 0.0
0.0 0.0 0.0

-4.121545253376404e6 1.7343305337644916e7 0.0
1.7343305337644916e7 2.099319165238508e6 0.0
0.0 0.0 0.0

1.0849956355369217e6 1.3511900925513517e7 0.0
1.3511900925513517e7 6.231219050533241e6 0.0
0.0 0.0 0.0

-5.886411293194128e6 1.7290531590628956e7 0.0
1.7290531590628956e7 4.9476719020885145e6 0.0
0.0 0.0 0.0

5.589256633935874e6 4.683389989356965e6 0.0
4.683389989356965e6 -2.5678276488755405e7 0.0
0.0 0.0 0.0

-4.525934728754697e6 1.9226312148771565e7 0.0
1.9226312148771565e7 3.4730974204081954e6 0.0
0.0 0.0 0.0

-1.186755999123725e6 1.4741489587262364e7 0.0
1.4741489587262364e7 1.632535888941657e7 0.0
0.0 0.0 0.0

3.3944893522358257e6 8.541704598962907e6 0.0
8.541704598962907e6 -1.4673810689956345e7 0.0
0.0 0.0 0.0

-39659.09194779629 1.1102373322718356e7 0.0
1.1102373322718356e7 -7.895593768187765e6 0.0
0.0 0.0 0.0

1.143985914579259e7 1.4625369762569603e7 0.0
1.4625369762569603e7 -7.525533472038029e6 0.0
0.0 0.0 0.0

-2.117949929713892e6 1.430916897709548e7 0.0
1.430916897709548e7 -6.363466518293024e6 0.0
0.0 0.0 0.0

-3.3119108991316445e6 2.5865754069232987e6 0.0
2.5865754069232987e6 3.2107006801416166e6 0.0
0.0 0.0 0.0

892501.0845025408 5.891642119116148e6 0.0
5.891642119116148e6 -3.6329262057523355e6 0.0
0.0 0.0 0.0

5.120525172078651e6 5.172788803086353e6 0.0
5.172788803086353e6 -1.9978481611431208e7 0.0
0.0 0.0 0.0

4.577430996207374e6 7.299763561689378e6 0.0
7.299763561689378e6 -2.2361195173661277e7 0.0
0.0 0.0 0.0

-4.666455139278403e6 1.700597422716451e7 0.0
1.700597422716451e7 1.5166376239212467e6 0.0
0.0 0.0 0.0

-2.8951962359652007e6 1.4819674452338578e7 0.0
1.4819674452338578e7 1.3449744646939237e7 0.0
0.0 0.0 0.0

9.431511321372457e6 1.3582767457951907e7 0.0
1.3582767457951907e7 3.1829183582050162e6 0.0
0.0 0.0 0.0

-1.0869253133721372e7 1.9520385974181734e6 0.0
1.9520385974181734e6 1.2944218116047101e7 0.0
0.0 0.0 0.0

2.8704979220148697e6 9.934776305876523e6 0.0
9.934776305876523e6 -1.9479395431755975e7 0.0
0.0 0.0 0.0

-440489.4895562818 1.2367925721527485e7 0.0
1.2367925721527485e7 -1.9278778330688506e7 0.0
0.0 0.0 0.0

-1.6077146922672242e6 1.4087364538077708e7 0.0
1.4087364538077708e7 2.5437863709869333e7 0.0
0.0 0.0 0.0

-5.940441895298189e6 1.6284925873382326e7 0.0
1.6284925873382326e7 8.759334355501192e6 0.0
0.0 0.0 0.0

-1.1100934446993807e7 1.1497872357194763e7 0.0
1.1497872357194763e7 1.4682364325574355e7 0.0
0.0 0.0 0.0

-7.322968504061699e6 8.613913746744098e6 0.0
8.613913746744098e6 9.425588859408215e6 0.0
0.0 0.0 0.0

3477.1553772930056 1.2275003095299058e7 0.0
1.2275003095299058e7 -1.3041653202477114e7 0.0
0.0 0.0 0.0

375360.6425763457 1.266499161188135e7 0.0
1.266499161188135e7 -8.473537279855277e6 0.0
0.0 0.0 0.0

1.2919978689059997e6 1.0825994409068273e7 0.0
1.0825994409068273e7 -1.0960104644404665e7 0.0
0.0 0.0 0.0

7.188067684371658e6 1.7596104506980058e7 0.0
1.7596104506980058e7 -6.896170807512601e6 0.0
0.0 0.0 0.0

-8.256655552604354e6 -6.3296041899255505e6 0.0
-6.3296041899255505e6 1.5890954597943727e7 0.0
0.0 0.0 0.0

1.2633024890950152e6 1.237403007119214e7 0.0
1.237403007119214e7 -3.2251675985755734e6 0.0
0.0 0.0 0.0

-4.1475476793714906e6 2.151823088570507e7 0.0
2.151823088570507e7 1.582161069075828e6 0.0
0.0 0.0 0.0

-5.596405980895583e6 1.6101435461028283e7 0.0
1.6101435461028283e7 8.730205615255656e6 0.0
0.0 0.0 0.0

4.65072654538152e6 5.0486874496497745e6 0.0
5.0486874496497745e6 -1.399189805551947e7 0.0
0.0 0.0 0.0

1.33176991625047e6 6.856963736918857e6 0.0
6.856963736918857e6 -7.222152400954932e6 0.0
0.0 0.0 0.0

-900058.0355281925 1.2808212851007847e7 0.0
1.2808212851007847e7 4.71788159248797e6 0.0
0.0 0.0 0.0

613354.8887529513 2.7441547728107937e7 0.0
2.7441547728107937e7 -1.3036691982605837e7 0.0
0.0 0.0 0.0

-1.253041822783733e7 4.197528186875234e6 0.0
4.197528186875234e6 2.644048286936982e7 0.0
0.0 0.0 0.0

942797.7287289728 1.3965529169325417e7 0.0
1.3965529169325417e7 -6.529284094361878e6 0.0
0.0 0.0 0.0

177488.1742701251 1.2866234592857376e7 0.0
1.2866234592857376e7 -9.880619960567094e6 0.0
0.0 0.0 0.0

37232.85951938201 8.630728354186714e6 0.0
8.630728354186714e6 -5.576405336632792e6 0.0
0.0 0.0 0.0

518750.3678682081 5.306361965280592e6 0.0
5.306361965280592e6 -4.45490331877474e6 0.0
0.0 0.0 0.0

1.101014850822243e6 1.4973951997182112e7 0.0
1.4973951997182112e7 -4.944988576812891e6 0.0
0.0 0.0 0.0

-373468.6942358883 1.248626371648999e7 0.0
1.248626371648999e7 -1.6545951872494198e7 0.0
0.0 0.0 0.0

5.618168692684838e6 4.327045949988422e6 0.0
4.327045949988422e6 -2.356696511118145e7 0.0
0.0 0.0 0.0

-6.198704531600355e6 1.6555839131892137e7 0.0
1.6555839131892137e7 8.137370978195688e6 0.0
0.0 0.0 0.0

3.8848804029088644e6 7.84359281894394e6 0.0
7.84359281894394e6 -1.866267360036318e7 0.0
0.0 0.0 0.0

5.671454932367705e6 4.734172836042731e6 0.0
4.734172836042731e6 -2.6310314432373255e7 0.0
0.0 0.0 0.0

-4.0887980197127806e6 1.5024013926421948e7 0.0
1.5024013926421948e7 7.752240942958762e6 0.0
0.0 0.0 0.0

-4.1365353941519395e6 1.2954283811538657e7 0.0
1.2954283811538657e7 -4.748549397561409e6 0.0
0.0 0.0 0.0

-7.134168689846428e6 4.959049245850045e6 0.0
4.959049245850045e6 9.93345607315394e6 0.0
0.0 0.0 0.0

-4.243952825459358e6 1.8221266610758398e7 0.0
1.8221266610758398e7 2.5831369274608977e6 0.0
0.0 0.0 0.0

254647.74203788047 8.749798540509295e6 0.0
8.749798540509295e6 -4.351652521631732e6 0.0
0.0 0.0 0.0

-4.992089200289981e6 9.584595367166206e6 0.0
9.584595367166206e6 4.817190137503913e6 0.0
0.0 0.0 0.0

-8.210182170986748e6 -5.660066595072685e6 0.0
-5.660066595072685e6 1.741654511358504e7 0.0
0.0 0.0 0.0

1.5156279277198468e6 1.091354776627326e7 0.0
1.091354776627326e7 -1.0281014387983799e7 0.0
0.0 0.0 0.0

-3.8913353700297335e6 2.0426295254674014e7 0.0
2.0426295254674014e7 2.0485523029436318e6 0.0
0.0 0.0 0.0

-4.17753088909321e6 5.778601712547796e6 0.0
5.778601712547796e6 5.0052371357725235e6 0.0
0.0 0.0 0.0

3.9651439344670856e6 7.556159754412148e6 0.0
7.556159754412148e6 -2.424089129826842e7 0.0
0.0 0.0 0.0

-1.182162922559423e6 9.05429179222639e6 0.0
9.05429179222639e6 -3.5834069431982874e6 0.0
0.0 0.0 0.0

1.0845829266070954e6 1.5331139620236509e7 0.0
1.5331139620236509e7 7.168797883508934e6 0.0
0.0 0.0 0.0

1.8416792090584252e7 1.5888730473795226e7 0.0
1.5888730473795226e7 3.041372926282588e6 0.0
0.0 0.0 0.0

4.0565949447341915e6 6.267953186455351e6 0.0
6.267953186455351e6 -1.3017518716240473e7 0.0
0.0 0.0 0.0

-1.3294883821246903e6 1.2730175563147204e7 0.0
1.2730175563147204e7 -1.925441171774584e7 0.0
0.0 0.0 0.0

4.0144730030591357e6 6.294174907744909e6 0.0
6.294174907744909e6 -1.3505578768605247e7 0.0
0.0 0.0 0.0

4.825915125793861e6 5.029877798857851e6 0.0
5.029877798857851e6 -1.4416068507923756e7 0.0
0.0 0.0 0.0

1.702694574613896e7 1.1362143730098573e7 0.0
1.1362143730098573e7 -504863.22225051094 0.0
0.0 0.0 0.0

-1.1103063943038072e7 2.3941013434797157e7 0.0
2.3941013434797157e7 6.398978318409306e6 0.0
0.0 0.0 0.0

123948.60145164002 1.1950855140709383e7 0.0
1.1950855140709383e7 -1.804021291112885e7 0.0
0.0 0.0 0.0

-4.887217469939488e6 1.6254731045603052e7 0.0
1.6254731045603052e7 -1.0406899405467237e6 0.0
0.0 0.0 0.0

5.440109766284547e6 4.775758762935059e6 0.0
4.775758762935059e6 -1.7511588302237567e7 0.0
0.0 0.0 0.0

-6.8189287175512295e6 1.723922776471166e7 0.0
1.723922776471166e7 5.518298556773702e6 0.0
0.0 0.0 0.0

-340384.6463761291 2.0836749070680186e7 0.0
2.0836749070680186e7 -3.1580850180334398e6 0.0
0.0 0.0 0.0

-1.2822901747992057e7 5.309523645114265e6 0.0
5.309523645114265e6 1.974682686823358e7 0.0
0.0 0.0 0.0

-2.034643338012522e6 2.686238011913151e7 0.0
2.686238011913151e7 -7.453711315150431e6 0.0
0.0 0.0 0.0

-443279.3762028178 1.4317572620436445e7 0.0
1.4317572620436445e7 -1.1457184594050632e6 0.0
0.0 0.0 0.0

5.577514196877689e6 4.353745323587846e6 0.0
4.353745323587846e6 -2.1328169578859277e7 0.0
0.0 0.0 0.0

1.2541194034587683e7 1.206836321045086e7 0.0
1.206836321045086e7 -2.181350556196035e6 0.0
0.0 0.0 0.0

-4.228080360220903e6 1.4774568448557306e7 0.0
1.4774568448557306e7 7.776565580177037e6 0.0
0.0 0.0 0.0

4.592698021179835e6 6.266424189576874e6 0.0
6.266424189576874e6 -2.00008631123084e7 0.0
0.0 0.0 0.0

-2.4503991666028076e6 1.7072352446441274e7 0.0
1.7072352446441274e7 -2.8082858269367246e6 0.0
0.0 0.0 0.0

433914.6353449803 1.3744029232885463e7 0.0
1.3744029232885463e7 -6.856797714417008e6 0.0
0.0 0.0 0.0

-1.8079117745216843e6 1.3507805672904968e7 0.0
1.3507805672904968e7 -6.713061313596404e6 0.0
0.0 0.0 0.0

533528.509161863 1.2993894127318932e7 0.0
1.2993894127318932e7 -7.938183645184019e6 0.0
0.0 0.0 0.0

2.059921429334425e6 1.5386465572616378e7 0.0
1.5386465572616378e7 7.302329495481458e6 0.0
0.0 0.0 0.0

4.448405415995052e6 6.750244968395406e6 0.0
6.750244968395406e6 -3.1984472460335094e7 0.0
0.0 0.0 0.0

-5.533277886496024e6 1.6857766286770478e7 0.0
1.6857766286770478e7 7.607638877030339e6 0.0
0.0 0.0 0.0

1.6123353993829002e6 5.086825279853236e6 0.0
5.086825279853236e6 -4.992712396246656e6 0.0
0.0 0.0 0.0

-1.239141527930583e7 8.769793224614149e6 0.0
8.769793224614149e6 1.6529335491705239e7 0.0
0.0 0.0 0.0

4.68252937054532e6 5.283274677692307e6 0.0
5.283274677692307e6 -1.3054261483713165e7 0.0
0.0 0.0 0.0

-8.996613900800638e6 -6.574324502164031e6 0.0
-6.574324502164031e6 2.2574786593941506e7 0.0
0.0 0.0 0.0

1.670761290556415e6 1.1459438021469777e7 0.0
1.1459438021469777e7 -1.245289972338747e7 0.0
0.0 0.0 0.0

1.6807153445845183e6 4.045908902665734e6 0.0
4.045908902665734e6 -5.301732726208219e6 0.0
0.0 0.0 0.0

821032.4455971348 1.3654269547469778e7 0.0
1.3654269547469778e7 6.06128391609971e6 0.0
0.0 0.0 0.0

-4.802972533877009e6 1.903844446896157e7 0.0
1.903844446896157e7 4.546785903258245e6 0.0
0.0 0.0 0.0

-9.94165666261294e6 -5.435631050467172e6 0.0
-5.435631050467172e6 2.1019416145253126e7 0.0
0.0 0.0 0.0

-2.1800730513039296e6 1.4513357036479427e7 0.0
1.4513357036479427e7 3.697705996457996e6 0.0
0.0 0.0 0.0

1.344351764931287e6 1.5729111404436506e7 0.0
1.5729111404436506e7 -5.4282241633792985e6 0.0
0.0 0.0 0.0

-4.560562295653082e6 1.6479730239608964e7 0.0
1.6479730239608964e7 1.1607434941019623e6 0.0
0.0 0.0 0.0

-1.6308081172243548e6 1.5966497453974683e7 0.0
1.5966497453974683e7 -3.8244354333779756e6 0.0
0.0 0.0 0.0

-4.195703616549599e6 1.6671865592724053e7 0.0
1.6671865592724053e7 2.2281510068968907e6 0.0
0.0 0.0 0.0

-2.3210577255651243e6 1.1869408666442921e7 0.0
1.1869408666442921e7 -1.198406145488687e7 0.0
0.0 0.0 0.0

6.509992173806418e6 1.686387085609581e7 0.0
1.686387085609581e7 -8.47009020654618e6 0.0
0.0 0.0 0.0

112318.23924784455 1.248415452776307e7 0.0
1.248415452776307e7 -1.0343382900764693e7 0.0
0.0 0.0 0.0

-7.337445314338527e6 1.443946713328268e7 0.0
1.443946713328268e7 1.3164622375068747e7 0.0
0.0 0.0 0.0

-2.3325491439504707e6 1.4840539945900278e7 0.0
1.4840539945900278e7 9.635848292447213e6 0.0
0.0 0.0 0.0

3.0841296933906525e6 8.689061008930305e6 0.0
8.689061008930305e6 -1.4201197261640605e7 0.0
0.0 0.0 0.0

-5.337650916312088e6 8.766337900532536e6 0.0
8.766337900532536e6 3.967596822385908e6 0.0
0.0 0.0 0.0

-5.135419710026426e6 2.115804517915551e7 0.0
2.115804517915551e7 4.0276415173032377e6 0.0
0.0 0.0 0.0

-7.7928411047702525e6 1.4039114575333074e7 0.0
1.4039114575333074e7 1.0161866977900485e7 0.0
0.0 0.0 0.0

-3.241509523903281e6 2.205492438349301e7 0.0
2.205492438349301e7 1.4906980338123054e6 0.0
0.0 0.0 0.0

1.3860052620421909e6 1.1319120048301913e7 0.0
1.1319120048301913e7 -1.3275363851416424e7 0.0
0.0 0.0 0.0

-9.565652440522073e6 1.822777646990033e7 0.0
1.822777646990033e7 -2.4081529507518336e6 0.0
0.0 0.0 0.0

5.627327648473111e6 5.186739727852896e6 0.0
5.186739727852896e6 -2.3432815567702144e7 0.0
0.0 0.0 0.0

785288.6236921963 2.2045489629109543e7 0.0
2.2045489629109543e7 -3.5403896242191195e6 0.0
0.0 0.0 0.0

-1.3862415496438678e7 2.061226490460471e7 0.0
2.061226490460471e7 9.808442836938014e6 0.0
0.0 0.0 0.0

-2.2484992357148975e6 1.4734251233834704e7 0.0
1.4734251233834704e7 8.398051928323172e6 0.0
0.0 0.0 0.0

-2.2896971563758153e7 1.8475978819423385e7 0.0
1.8475978819423385e7 1.1224968263352564e7 0.0
0.0 0.0 0.0

5.755651583973325e6 4.319941545093718e6 0.0
4.319941545093718e6 -2.1749087900999844e7 0.0
0.0 0.0 0.0

-7.408438033818676e6 1.3844383364139013e7 0.0
1.3844383364139013e7 1.1259790943600643e7 0.0
0.0 0.0 0.0

-4.591421728234045e6 5.480977449219902e6 0.0
5.480977449219902e6 3.372147576934321e6 0.0
0.0 0.0 0.0

4.586971135741868e6 4.854201528754871e6 0.0
4.854201528754871e6 -1.3632759589758415e7 0.0
0.0 0.0 0.0

140490.8501980165 1.3925433050919477e7 0.0
1.3925433050919477e7 -7.72615408860301e6 0.0
0.0 0.0 0.0

-9.28438435151821e6 2.4665276994556535e7 0.0
2.4665276994556535e7 7.15602379613919e6 0.0
0.0 0.0 0.0

-1.2657369028222311e7 8.142281893918909e6 0.0
8.142281893918909e6 9.959604025605153e6 0.0
0.0 0.0 0.0

-1.9058855981161073e7 1.739739787449703e7 0.0
1.739739787449703e7 6.087505896198811e6 0.0
0.0 0.0 0.0

1.6507383209847458e7 1.3353184656437244e7 0.0
1.3353184656437244e7 4.726486411641136e6 0.0
0.0 0.0 0.0

-1.011546752580097e6 1.3205908497304942e7 0.0
1.3205908497304942e7 -4.0947250046840794e7 0.0
0.0 0.0 0.0

386268.3182399785 1.30523858572019e7 0.0
1.30523858572019e7 -9.130071625661287e6 0.0
0.0 0.0 0.0

-7.330976364458702e6 1.4358087396207096e7 0.0
1.4358087396207096e7 1.2993757343938757e7 0.0
0.0 0.0 0.0

-1.6136062922534808e6 1.5980515195601597e7 0.0
1.5980515195601597e7 -5.653643491146962e6 0.0
0.0 0.0 0.0

-3.865825995941148e6 1.8013745826130904e7 0.0
1.8013745826130904e7 1.4871589250448686e6 0.0
0.0 0.0 0.0

299788.684429351 1.2789160906946182e7 0.0
1.2789160906946182e7 3.251978662890706e6 0.0
0.0 0.0 0.0

-3.371290867206199e6 2.163914180322232e7 0.0
2.163914180322232e7 1.6253001677999618e6 0.0
0.0 0.0 0.0

-5.517780697329722e6 5.533337530450044e6 0.0
5.533337530450044e6 5.848049615611237e6 0.0
0.0 0.0 0.0

2.3224480490547787e7 1.7856969125526678e7 0.0
1.7856969125526678e7 4.0833458533962443e6 0.0
0.0 0.0 0.0

-3.044536925023444e6 1.7936992636612378e7 0.0
1.7936992636612378e7 -2.584608545641263e6 0.0
0.0 0.0 0.0

774386.0292861398 1.2590764322412143e7 0.0
1.2590764322412143e7 4.324649585136537e6 0.0
0.0 0.0 0.0

-5.906349352318895e6 1.7134295941383857e7 0.0
1.7134295941383857e7 2.4588400999119007e6 0.0
0.0 0.0 0.0

-4.8159419856694e6 1.339339713036636e7 0.0
1.339339713036636e7 1.1231692891971517e7 0.0
0.0 0.0 0.0

-2.614023224342334e6 1.6994474889124896e7 0.0
1.6994474889124896e7 -2.494512535356062e6 0.0
0.0 0.0 0.0

4.315086041274994e6 7.220458705363045e6 0.0
7.220458705363045e6 -1.8156155615096204e7 0.0
0.0 0.0 0.0

-5.572344897875866e6 1.573698031249481e7 0.0
1.573698031249481e7 4.620019140929526e6 0.0
0.0 0.0 0.0

-3.505351890931244e6 1.5787666721586939e7 0.0
1.5787666721586939e7 2.1082291870059576e6 0.0
0.0 0.0 0.0

1.6268945291111101e6 6.922853635701739e6 0.0
6.922853635701739e6 -8.251554416000503e6 0.0
0.0 0.0 0.0

-5.066823974016128e6 1.6521510445807926e7 0.0
1.6521510445807926e7 7.896259799119671e6 0.0
0.0 0.0 0.0

-1.1707028922290567e7 1.863001608896828e6 0.0
1.863001608896828e6 2.976002348888952e7 0.0
0.0 0.0 0.0

-315284.948991264 8.816114031052794e6 0.0
8.816114031052794e6 -3.226353705908297e6 0.0
0.0 0.0 0.0

-7.998040993406403e6 1.7159075350069866e7 0.0
1.7159075350069866e7 1.289250848803191e6 0.0
0.0 0.0 0.0

1.4918103405352745e7 1.771089794124584e7 0.0
1.771089794124584e7 5.899685838713451e6 0.0
0.0 0.0 0.0

2.1170551402225383e6 1.0987045520739485e7 0.0
1.0987045520739485e7 -1.657960431195753e7 0.0
0.0 0.0 0.0

4.931336280739071e6 6.196448604481199e6 0.0
6.196448604481199e6 -1.883879914267548e7 0.0
0.0 0.0 0.0

3.608374558192819e6 1.3954704550321545e7 0.0
1.3954704550321545e7 -401236.47909546434 0.0
0.0 0.0 0.0

-6.514627942500325e6 6.820153893920932e6 0.0
6.820153893920932e6 1.3190252437276453e7 0.0
0.0 0.0 0.0

-3.9308790902214753e6 1.7443940338966146e7 0.0
1.7443940338966146e7 1.5911719443445138e6 0.0
0.0 0.0 0.0

-2.4362044055845803e6 1.5265293328779068e7 0.0
1.5265293328779068e7 -3.724190801639634e6 0.0
0.0 0.0 0.0

-2.2113385179277156e6 1.5430319469361091e7 0.0
1.5430319469361091e7 -4.915332096333364e6 0.0
0.0 0.0 0.0

-541626.0108010503 1.3788220170167008e7 0.0
1.3788220170167008e7 -4.502359803557735e6 0.0
0.0 0.0 0.0

1.987150824462464e6 7.419975960839416e6 0.0
7.419975960839416e6 -7.507864177476454e6 0.0
0.0 0.0 0.0

1.2188887478189658e7 1.530160548426117e7 0.0
1.530160548426117e7 1.7786977948464546e6 0.0
0.0 0.0 0.0

406567.10487034766 1.2999675698790839e7 0.0
1.2999675698790839e7 2.9477404094035146e6 0.0
0.0 0.0 0.0

-5.059366052797739e6 2.102418413283074e7 0.0
2.102418413283074e7 5.103224606398886e6 0.0
0.0 0.0 0.0

-2.5389070290565003e7 1.2787205751721565e7 0.0
1.2787205751721565e7 1.1108549669183707e7 0.0
0.0 0.0 0.0

4.439517805578471e6 5.040053692210359e6 0.0
5.040053692210359e6 -1.2546674463987935e7 0.0
0.0 0.0 0.0

-392761.11584496114 1.400631913096728e7 0.0
1.400631913096728e7 2.2257704610644295e6 0.0
0.0 0.0 0.0

-1.3450609659406426e6 1.1402053840743486e7 0.0
1.1402053840743486e7 -1.1409756269331107e7 0.0
0.0 0.0 0.0

636815.4370428044 1.2627284220626298e7 0.0
1.2627284220626298e7 -1.2984584057922877e7 0.0
0.0 0.0 0.0

-6.815687413139439e6 -4.847787616100275e6 0.0
-4.847787616100275e6 1.104409269399231e7 0.0
0.0 0.0 0.0

1.5953748159131133e6 1.0502521747469388e7 0.0
1.0502521747469388e7 -1.1703180677682316e7 0.0
0.0 0.0 0.0

-3.099907554502166e6 1.371415661818571e7 0.0
1.371415661818571e7 -2.2273520474683147e7 0.0
0.0 0.0 0.0

1.8895964786930615e6 1.014020248409329e7 0.0
1.014020248409329e7 -1.2342437663472403e7 0.0
0.0 0.0 0.0

108435.57662972994 1.4350762203630518e7 0.0
1.4350762203630518e7 -7.219856185882686e6 0.0
0.0 0.0 0.0

1.3880841521676982e7 1.5223215417062232e7 0.0
1.5223215417062232e7 3.6175358880975824e6 0.0
0.0 0.0 0.0

-1.1844010632323997e7 9.63236579722965e6 0.0
9.63236579722965e6 2.06115158363839e7 0.0
0.0 0.0 0.0

-2.2443701144001707e6 1.6438700385742286e7 0.0
1.6438700385742286e7 -4.232993692181731e6 0.0
0.0 0.0 0.0

-299050.293381266 1.3001983184160752e7 0.0
1.3001983184160752e7 -790213.977285183 0.0
0.0 0.0 0.0

-4.504450909785832e6 1.5125092117014734e7 0.0
1.5125092117014734e7 -3.917934464078909e6 0.0
0.0 0.0 0.0

1.1365937332253426e7 1.7247544260626834e7 0.0
1.7247544260626834e7 5.856004288232509e6 0.0
0.0 0.0 0.0

-5.485908634033505e6 1.653195344376683e7 0.0
1.653195344376683e7 8.214581395053074e6 0.0
0.0 0.0 0.0

1.4920940723660332e6 1.3144184429648917e7 0.0
1.3144184429648917e7 -4.309324819176978e6 0.0
0.0 0.0 0.0

-3.7473691334727933e6 1.9031427448344897e7 0.0
1.9031427448344897e7 1.2776762104163887e6 0.0
0.0 0.0 0.0

-5.747203928978624e6 1.589308910168396e7 0.0
1.589308910168396e7 5.413923875499031e6 0.0
0.0 0.0 0.0

-9.717773490006695e6 -554269.3435219441 0.0
-554269.3435219441 4.791645733995771e7 0.0
0.0 0.0 0.0

-978162.3537537674 1.4427298100379067e7 0.0
1.4427298100379067e7 -8.483325045396859e6 0.0
0.0 0.0 0.0

-4.520512672157365e6 1.890330507702174e7 0.0
1.890330507702174e7 3.528931775396334e6 0.0
0.0 0.0 0.0

916685.2897540552 4.681326629478642e6 0.0
4.681326629478642e6 -3.0794122079623435e6 0.0
0.0 0.0 0.0

-1.1581264453706525e7 1.0433553211233497e7 0.0
1.0433553211233497e7 1.603025278257899e7 0.0
0.0 0.0 0.0

-3.142872857334199e6 1.2648941559898878e7 0.0
1.2648941559898878e7 -1.6220191328482945e6 0.0
0.0 0.0 0.0

4.803314545548792e6 5.050483734759013e6 0.0
5.050483734759013e6 -1.5818497117727775e7 0.0
0.0 0.0 0.0

-4.7310768674747795e6 2.143454665942399e7 0.0
2.143454665942399e7 4.547230669695381e6 0.0
0.0 0.0 0.0

1.9037404281888655e6 1.062261616068205e7 0.0
1.062261616068205e7 -1.0750524816178735e7 0.0
0.0 0.0 0.0

-8.012513279875489e6 1.3259152167747393e7 0.0
1.3259152167747393e7 1.208024437057527e7 0.0
0.0 0.0 0.0

5.229781378036765e6 6.268505763953366e6 0.0
6.268505763953366e6 -2.9612691995442495e7 0.0
0.0 0.0 0.0

-5.363839135312401e6 2.0734011298448972e7 0.0
2.0734011298448972e7 4.787776433037783e6 0.0
0.0 0.0 0.0

-3.436105564430869e6 1.2513028479035566e7 0.0
1.2513028479035566e7 -1.4915381777261509e7 0.0
0.0 0.0 0.0

3.535576833487058e6 4.328596331339167e6 0.0
4.328596331339167e6 -9.36597994319098e6 0.0
0.0 0.0 0.0

47231.2127811166 8.41823534854943e6 0.0
8.41823534854943e6 -3.9249317461377354e6 0.0
0.0 0.0 0.0

-1.3004170555800488e7 2.1081046945689574e7 0.0
2.1081046945689574e7 8.694954113188678e6 0.0
0.0 0.0 0.0

1.3061575932369852e6 1.2721079441643093e7 0.0
1.2721079441643093e7 5.179726528811606e6 0.0
0.0 0.0 0.0

-8.978791922693323e6 2.3586586183568016e7 0.0
2.3586586183568016e7 5.996847928577941e6 0.0
0.0 0.0 0.0

-1.0277118286686407e7 1.7704681341249775e6 0.0
1.7704681341249775e6 1.4982399582300939e7 0.0
0.0 0.0 0.0

4.32989874816912e6 8.410948073249375e6 0.0
8.410948073249375e6 -3.2428879794463135e7 0.0
0.0 0.0 0.0

3.204700625265074e7 1.1945012407535853e7 0.0
1.1945012407535853e7 -6.606963123672906e6 0.0
0.0 0.0 0.0

-4.028765993958166e6 1.78965135431993e7 0.0
1.78965135431993e7 1.8896346520851573e6 0.0
0.0 0.0 0.0

-5.835318360742446e6 1.9091662343050525e7 0.0
1.9091662343050525e7 6.324157427579508e6 0.0
0.0 0.0 0.0

-4.957486124702432e6 1.706194716980023e7 0.0
1.706194716980023e7 4.300157044940992e6 0.0
0.0 0.0 0.0

-721742.4248948116 1.5608004733654328e7 0.0
1.5608004733654328e7 2.8151914905493602e7 0.0
0.0 0.0 0.0

4.934672853629804e6 5.0911790627988465e6 0.0
5.0911790627988465e6 -1.7982830617460962e7 0.0
0.0 0.0 0.0

369641.91415263433 1.0004237431123795e7 0.0
1.0004237431123795e7 -5.656428803910471e6 0.0
0.0 0.0 0.0

-1.7779135757247284e6 2.096972096482672e7 0.0
2.096972096482672e7 -2.3399424123829585e6 0.0
0.0 0.0 0.0

3.2637389728735415e6 8.914269315869108e6 0.0
8.914269315869108e6 -2.0581169924824793e7 0.0
0.0 0.0 0.0

-1.6465968147841496e7 9.657901873970859e6 0.0
9.657901873970859e6 1.0496934917965747e7 0.0
0.0 0.0 0.0

-3.6775706423495975e6 1.573380391301256e7 0.0
1.573380391301256e7 1.4462543520090242e6 0.0
0.0 0.0 0.0

-381760.97799998685 1.1053582311901927e7 0.0
1.1053582311901927e7 1.5153803983318734e6 0.0
0.0 0.0 0.0

2.1835002151388894e6 1.0286783025929527e7 0.0
1.0286783025929527e7 -1.1399540822109502e7 0.0
0.0 0.0 0.0

-2.1112069068838907e6 1.5393529724603955e7 0.0
1.5393529724603955e7 1.475754512798582e7 0.0
0.0 0.0 0.0

1.131473539330003e6 2.0821513479732484e7 0.0
2.0821513479732484e7 -4.426535364697878e6 0.0
0.0 0.0 0.0

-2.8923022048912268e7 -681117.2618493747 0.0
-681117.2618493747 9.766676071092702e6 0.0
0.0 0.0 0.0

1.4203495459951617e7 2.4433707082143757e7 0.0
2.4433707082143757e7 -1.2718460463685416e7 0.0
0.0 0.0 0.0

47824.580970748095 2.1339316370263614e7 0.0
2.1339316370263614e7 -5.300290741597829e6 0.0
0.0 0.0 0.0

4.200323683671243e6 5.102035377591632e6 0.0
5.102035377591632e6 -1.2017686719100088e7 0.0
0.0 0.0 0.0

-5.066317448371818e6 1.8977606091826715e7 0.0
1.8977606091826715e7 3.69482008811875e6 0.0
0.0 0.0 0.0

1.8023292548316482e7 1.135041828577885e7 0.0
1.135041828577885e7 -291086.6857997738 0.0
0.0 0.0 0.0

-1.186858672534098e7 4.422585807600532e6 0.0
4.422585807600532e6 3.1723903509925805e7 0.0
0.0 0.0 0.0

-1.080888815335854e6 1.4544930839118807e7 0.0
1.4544930839118807e7 -8.015228445039395e6 0.0
0.0 0.0 0.0

9.921345771174572e6 1.3958036206817133e7 0.0
1.3958036206817133e7 3.199123293315878e6 0.0
0.0 0.0 0.0

442291.8802878624 1.4221017142867178e7 0.0
1.4221017142867178e7 -8.091772047728776e6 0.0
0.0 0.0 0.0

5.2704915204878e6 5.215602649188252e6 0.0
5.215602649188252e6 -1.904332088734425e7 0.0
0.0 0.0 0.0

-3.6716965651555336e6 1.769749776350831e7 0.0
1.769749776350831e7 731201.2374006123 0.0
0.0 0.0 0.0

-861159.0451617166 1.1508109864364205e7 0.0
1.1508109864364205e7 -1.0913294778941326e7 0.0
0.0 0.0 0.0

-3.2220032523127133e6 1.8791102204472423e7 0.0
1.8791102204472423e7 -1.4386329824093517e6 0.0
0.0 0.0 0.0

-1.0789947491135051e7 6.780266572842026e6 0.0
6.780266572842026e6 3.3425306704368345e7 0.0
0.0 0.0 0.0

550809.505932006 1.2154824640283005e7 0.0
1.2154824640283005e7 -7.696100454544797e6 0.0
0.0 0.0 0.0

3.2202777792763216e6 8.489455400909236e6 0.0
8.489455400909236e6 -1.523487150499761e7 0.0
0.0 0.0 0.0

119181.32343638828 1.6105052414423127e7 0.0
1.6105052414423127e7 -5.629616595668915e6 0.0
0.0 0.0 0.0

-710249.317888919 1.148005977853315e7 0.0
1.148005977853315e7 -7.032563473621313e6 0.0
0.0 0.0 0.0

-1.1347928071630733e7 -738117.8199135417 0.0
-738117.8199135417 2.9691683851484273e7 0.0
0.0 0.0 0.0

-3.5845727301565055e6 1.5346900072049871e7 0.0
1.5346900072049871e7 1.2360405373710293e7 0.0
0.0 0.0 0.0

3.384014260431133e6 8.756115413901513e6 0.0
8.756115413901513e6 -2.1788002087567583e7 0.0
0.0 0.0 0.0

-2.6213937233063383e6 1.8622383529134322e7 0.0
1.8622383529134322e7 -1.5019410462377525e6 0.0
0.0 0.0 0.0

-2.3704707574476674e6 1.4795490866745967e7 0.0
1.4795490866745967e7 9.683966241671307e6 0.0
0.0 0.0 0.0

3.83788764726831e6 7.85874186986683e6 0.0
7.85874186986683e6 -1.486991296573002e7 0.0
0.0 0.0 0.0

2.425175311772976e7 1.5405952277699389e7 0.0
1.5405952277699389e7 4.2350826849901825e6 0.0
0.0 0.0 0.0

-2.7221650366290594e6 1.8262375847538546e7 0.0
1.8262375847538546e7 -1.5838313237295772e6 0.0
0.0 0.0 0.0

-7.474224822319976e6 -5.40327244409077e6 0.0
-5.40327244409077e6 1.4651439645831708e7 0.0
0.0 0.0 0.0

-1.2186008284168316e7 -682955.9133626014 0.0
-682955.9133626014 2.688870638910836e7 0.0
0.0 0.0 0.0

5.337586263773691e6 4.20579391360144e6 0.0
4.20579391360144e6 -1.6425217764840188e7 0.0
0.0 0.0 0.0

-5.5283294135841355e6 1.6712530978453703e7 0.0
1.6712530978453703e7 3.8211578885259302e6 0.0
0.0 0.0 0.0

-706133.0901344948 1.3467850364354566e7 0.0
1.3467850364354566e7 -4.867382842542642e6 0.0
0.0 0.0 0.0

-1.6689988253248811e6 1.5637979306477092e7 0.0
1.5637979306477092e7 -6.490244885549025e6 0.0
0.0 0.0 0.0

-7.404922882512173e6 -179279.67869339007 0.0
-179279.67869339007 1.07619871254604e7 0.0
0.0 0.0 0.0

-1.9637583660961743e6 1.5687292540191995e7 0.0
1.5687292540191995e7 -3.9787786868889085e6 0.0
0.0 0.0 0.0

-1.1463082475581251e7 -916907.5384978552 0.0
-916907.5384978552 2.9191678229330752e7 0.0
0.0 0.0 0.0

3.5710419938578466e6 1.3157242309653563e7 0.0
1.3157242309653563e7 1.397038277310701e6 0.0
0.0 0.0 0.0

2.8010090901632654e6 9.946908100759862e6 0.0
9.946908100759862e6 -2.078259149488021e7 0.0
0.0 0.0 0.0

3.8352301445904793e6 8.634639935260983e6 0.0
8.634639935260983e6 -2.166135969727227e7 0.0
0.0 0.0 0.0

-1.2108257513746092e7 1.0233381926282784e7 0.0
1.0233381926282784e7 1.6730747464910373e7 0.0
0.0 0.0 0.0

-4.540491894521483e6 1.40707094353283e7 0.0
1.40707094353283e7 3.1715789051616704e6 0.0
0.0 0.0 0.0

1.2942403796933175e6 5.069420491625934e6 0.0
5.069420491625934e6 -4.0882303356533484e6 0.0
0.0 0.0 0.0

454562.7743353285 1.2532763432613261e7 0.0
1.2532763432613261e7 -7.098882333261957e6 0.0
0.0 0.0 0.0

-5.355559085126682e6 1.8463740214794118e7 0.0
1.8463740214794118e7 6.167742859125342e6 0.0
0.0 0.0 0.0

104115.87269758899 1.5568535054523649e7 0.0
1.5568535054523649e7 1.8656647154053025e7 0.0
0.0 0.0 0.0

4.042769395298521e6 1.5712931618864441e7 0.0
1.5712931618864441e7 -4.609857193459238e6 0.0
0.0 0.0 0.0

-9.024375616710998e6 -1.081236293480257e6 0.0
-1.081236293480257e6 4.6407960628096834e7 0.0
0.0 0.0 0.0

-1.1620195655335473e7 5.847371580919143e6 0.0
5.847371580919143e6 2.5784091220185626e7 0.0
0.0 0.0 0.0

-9.822393782761581e6 9.812296366449645e6 0.0
9.812296366449645e6 1.3309399445364006e7 0.0
0.0 0.0 0.0

-570555.0218200758 1.2183960240594937e7 0.0
1.2183960240594937e7 3.9184263962213886e6 0.0
0.0 0.0 0.0

-4.787610594531754e6 4.0745305337424832e6 0.0
4.0745305337424832e6 5.46382740054567e6 0.0
0.0 0.0 0.0

-8.475046941356128e6 1.4843142110421704e7 0.0
1.4843142110421704e7 3.1384316557437037e6 0.0
0.0 0.0 0.0

5.154999959681224e6 5.5302151540359985e6 0.0
5.5302151540359985e6 -1.7263341643601976e7 0.0
0.0 0.0 0.0

-2.1566822243210142e6 1.304892207454594e7 0.0
1.304892207454594e7 -1.9961592653449953e7 0.0
0.0 0.0 0.0

-26881.535629678052 1.3030327002457175e7 0.0
1.3030327002457175e7 1.8664555223073054e6 0.0
0.0 0.0 0.0

3.8876741041769385e6 1.9151856952973295e7 0.0
1.9151856952973295e7 -8.0462394964604005e6 0.0
0.0 0.0 0.0

658378.654165607 1.4544250356931582e7 0.0
1.4544250356931582e7 -6.917062789556077e6 0.0
0.0 0.0 0.0

-9.314247388866667e6 1.791952180381175e7 0.0
1.791952180381175e7 -918073.9565394646 0.0
0.0 0.0 0.0

-4.196409573780741e6 1.8262068390003454e7 0.0
1.8262068390003454e7 958848.9977567154 0.0
0.0 0.0 0.0

33156.00023993733 6.178663601367079e6 0.0
6.178663601367079e6 -4.078432396992661e6 0.0
0.0 0.0 0.0

-7.914294233673379e6 2.4176445797232278e7 0.0
2.4176445797232278e7 6.963412918841344e6 0.0
0.0 0.0 0.0

-4.322109919467048e6 1.4389507877389917e7 0.0
1.4389507877389917e7 2.504093032385066e6 0.0
0.0 0.0 0.0

-7.784245047770343e6 5.312438875236071e6 0.0
5.312438875236071e6 7.887178747749122e6 0.0
0.0 0.0 0.0

-4.635380322949379e6 1.4228768055866979e7 0.0
1.4228768055866979e7 1.2505667735479819e6 0.0
0.0 0.0 0.0

-386895.376496779 4.0868754087945656e6 0.0
4.0868754087945656e6 -1.8614323688243264e6 0.0
0.0 0.0 0.0

-585347.8557330088 7.38542994718036e6 0.0
7.38542994718036e6 -6.4564626277470235e6 0.0
0.0 0.0 0.0

2.652884012291261e6 1.02284674063714e7 0.0
1.02284674063714e7 -1.8555866494090155e7 0.0
0.0 0.0 0.0

-3.315376752635682e6 1.637505344992864e7 0.0
1.637505344992864e7 -2.9278824672231968e6 0.0
0.0 0.0 0.0

-6.808833776995017e6 1.4406796854601327e7 0.0
1.4406796854601327e7 1.2594299724167058e7 0.0
0.0 0.0 0.0

-595091.158171132 1.3390537672949443e7 0.0
1.3390537672949443e7 -3.7851903940294064e6 0.0
0.0 0.0 0.0

3.3183393620225037e6 4.946926394031796e6 0.0
4.946926394031796e6 -9.485377805763258e6 0.0
0.0 0.0 0.0

-3.248892796497207e6 1.6638575843298167e7 0.0
1.6638575843298167e7 -1.9491039068642561e6 0.0
0.0 0.0 0.0

-3.995497196866154e6 1.8879269780311227e7 0.0
1.8879269780311227e7 611342.9847927652 0.0
0.0 0.0 0.0

551141.8702033488 1.5845892731738651e7 0.0
1.5845892731738651e7 -5.259365865922342e6 0.0
0.0 0.0 0.0

-8.518170049928518e6 6.820917276069533e6 0.0
6.820917276069533e6 9.281862910473444e6 0.0
0.0 0.0 0.0

143240.8799554617 1.2329795625410264e7 0.0
1.2329795625410264e7 -1.2299921808897752e7 0.0
0.0 0.0 0.0

-6.26476782782197e6 2.1522959796094812e7 0.0
2.1522959796094812e7 5.435406880726628e6 0.0
0.0 0.0 0.0

-5.695451019698655e6 2.113756576936378e7 0.0
2.113756576936378e7 5.077040408373839e6 0.0
0.0 0.0 0.0

406026.8577856468 1.1774624607518978e7 0.0
1.1774624607518978e7 -1.7073753194581714e7 0.0
0.0 0.0 0.0

-861606.0474684113 1.1678115127819775e7 0.0
1.1678115127819775e7 -8.470577729561938e6 0.0
0.0 0.0 0.0

-282517.5648041399 1.3454647783161929e7 0.0
1.3454647783161929e7 1.5174485262345925e6 0.0
0.0 0.0 0.0

3.6341940579123283e6 8.202731954513465e6 0.0
8.202731954513465e6 -1.790942665916474e7 0.0
0.0 0.0 0.0

-1.2241810877929557e7 6.352006255084124e6 0.0
6.352006255084124e6 2.111668484048477e7 0.0
0.0 0.0 0.0

2.8851970486699343e6 1.0697324864637844e7 0.0
1.0697324864637844e7 -3.308099174938636e7 0.0
0.0 0.0 0.0

-1.3121358748983059e6 2.2970866539896354e7 0.0
2.2970866539896354e7 -4.990268436486946e6 0.0
0.0 0.0 0.0

1.734434701878135e6 1.3756788656701293e7 0.0
1.3756788656701293e7 9.824990559516266e6 0.0
0.0 0.0 0.0

-1.6116565028009275e6 1.4725185722347911e7 0.0
1.4725185722347911e7 1.621342548975484e7 0.0
0.0 0.0 0.0

7.400272429225838e6 1.5931109062936727e7 0.0
1.5931109062936727e7 6.198321903519604e6 0.0
0.0 0.0 0.0

-646667.2877923319 1.1526680349339958e7 0.0
1.1526680349339958e7 875483.1185621603 0.0
0.0 0.0 0.0

-2.970468454605901e6 1.6461803380014556e7 0.0
1.6461803380014556e7 -1.7800817197922596e6 0.0
0.0 0.0 0.0

-1.3951001708130136e7 1.6807237748276286e7 0.0
1.6807237748276286e7 -1.3825573166427496e6 0.0
0.0 0.0 0.0

-171044.90902579486 1.0933762737515934e7 0.0
1.0933762737515934e7 -545820.7314302026 0.0
0.0 0.0 0.0

-2.3493099028531993e6 1.525371735248143e7 0.0
1.525371735248143e7 2.567361510047278e6 0.0
0.0 0.0 0.0

5.047306621335248e6 5.116170141274654e6 0.0
5.116170141274654e6 -1.4905905805599941e7 0.0
0.0 0.0 0.0

-8.908552753287245e6 1.5803734668077571e7 0.0
1.5803734668077571e7 4.465533592958383e6 0.0
0.0 0.0 0.0

-1.3802824762858657e7 2.474333021699025e7 0.0
2.474333021699025e7 8.264546103363502e6 0.0
0.0 0.0 0.0

-8.840811389241721e6 -434735.5633226024 0.0
-434735.5633226024 1.3574549586685436e7 0.0
0.0 0.0 0.0

790973.1992732752 1.9959060646310102e7 0.0
1.9959060646310102e7 -4.992898971375206e6 0.0
0.0 0.0 0.0

-8.918208970625162e6 7.396243608428626e6 0.0
7.396243608428626e6 5.0026678013840444e7 0.0
0.0 0.0 0.0

-7.407650492578764e6 -5.3514524627591595e6 0.0
-5.3514524627591595e6 1.2693504000356574e7 0.0
0.0 0.0 0.0

-5.0917928366992865e6 1.4825953426510276e7 0.0
1.4825953426510276e7 -2.437579647487116e7 0.0
0.0 0.0 0.0

612997.8343016035 1.3377342410908934e7 0.0
1.3377342410908934e7 -8.5943296685795e6 0.0
0.0 0.0 0.0

-3.959099910160806e6 1.942189133639889e7 0.0
1.942189133639889e7 1.5509471859997367e6 0.0
0.0 0.0 0.0

-6.761795056457313e6 1.3108700064019188e7 0.0
1.3108700064019188e7 168498.1110264142 0.0
0.0 0.0 0.0

14942.681901864707 8.0479359294273835e6 0.0
8.0479359294273835e6 -3.5188431553267334e6 0.0
0.0 0.0 0.0

-3.9574249068502593e6 1.751870739925538e7 0.0
1.751870739925538e7 -33578.78780184197 0.0
0.0 0.0 0.0

-4.926710143087531e6 2.0659526399433717e7 0.0
2.0659526399433717e7 4.602535624731767e6 0.0
0.0 0.0 0.0

-3.8536432535165586e6 1.9488070432292406e7 0.0
1.9488070432292406e7 1.4432301443427063e6 0.0
0.0 0.0 0.0

1.6370815484366398e6 1.0131762428508252e7 0.0
1.0131762428508252e7 -3.738712972985864e7 0.0
0.0 0.0 0.0

-2.9839874234717283e6 1.2970620632812206e7 0.0
1.2970620632812206e7 -4.930726985904656e6 0.0
0.0 0.0 0.0

-1.0647206409035591e7 -848577.552827286 0.0
-848577.552827286 3.619520015015563e7 0.0
0.0 0.0 0.0

4.426276441059903e6 1.7653256374994636e7 0.0
1.7653256374994636e7 3.2352271085275788e7 0.0
0.0 0.0 0.0

-3.3014168633898556e7 -285897.967809694 0.0
-285897.967809694 1.0364571703696227e7 0.0
0.0 0.0 0.0

1.5249122175764687e7 1.5329303142349986e7 0.0
1.5329303142349986e7 -5.7190787308399705e6 0.0
0.0 0.0 0.0

1.7943525519668916e6 1.1553301476733092e7 0.0
1.1553301476733092e7 -1.6082966481377577e7 0.0
0.0 0.0 0.0

2.2816720299651455e6 5.668023714997185e6 0.0
5.668023714997185e6 -6.847457300976893e6 0.0
0.0 0.0 0.0

2.1887373089109e7 1.4563790159481604e7 0.0
1.4563790159481604e7 -9.845865735545516e6 0.0
0.0 0.0 0.0

2.31834158459839e6 9.309698714698425e6 0.0
9.309698714698425e6 -6.935542131491342e6 0.0
0.0 0.0 0.0

1.0042741247724663e7 1.5545859806183336e7 0.0
1.5545859806183336e7 5.452593441794563e6 0.0
0.0 0.0 0.0

-4.379976813492836e6 1.8152510410810616e7 0.0
1.8152510410810616e7 1.2802233110123524e6 0.0
0.0 0.0 0.0

-5.643466456401762e6 1.8754692515441924e7 0.0
1.8754692515441924e7 6.337318188449353e6 0.0
0.0 0.0 0.0

-402169.0931992384 1.0243663829296343e7 0.0
1.0243663829296343e7 -6.0311413878067555e6 0.0
0.0 0.0 0.0

-7.885987004929464e6 8.66174605535333e6 0.0
8.66174605535333e6 1.0049544021620359e6 0.0
0.0 0.0 0.0

-1.7976043193971864e6 1.2044095027972808e7 0.0
1.2044095027972808e7 -1.1712567561085995e7 0.0
0.0 0.0 0.0

-1.8680904806344032e6 1.4740054341280539e7 0.0
1.4740054341280539e7 3.742897053213568e6 0.0
0.0 0.0 0.0

-1.2127232270737523e6 1.3287541854617013e7 0.0
1.3287541854617013e7 6.327137746595303e6 0.0
0.0 0.0 0.0

-9.539101237748161e6 6.178331235843888e6 0.0
6.178331235843888e6 4.620085387336397e7 0.0
0.0 0.0 0.0

-4.445267969787266e6 1.7146043319672503e7 0.0
1.7146043319672503e7 1.0741514625228355e6 0.0
0.0 0.0 0.0

5.355323252997434e6 4.218300913409185e6 0.0
4.218300913409185e6 -1.6555895185108505e7 0.0
0.0 0.0 0.0

-4.849820332927954e6 1.524503164041318e7 0.0
1.524503164041318e7 8.71832489224614e6 0.0
0.0 0.0 0.0

-1.7981203030530396e6 1.3405831454547293e7 0.0
1.3405831454547293e7 7.112769777963748e6 0.0
0.0 0.0 0.0

3.4093892758333194e6 1.6791818837492477e7 0.0
1.6791818837492477e7 -5.990656633344047e6 0.0
0.0 0.0 0.0

-2.7917684336588057e6 1.6714131435640953e7 0.0
1.6714131435640953e7 -3.8453952604594897e6 0.0
0.0 0.0 0.0

-6.003012512795808e6 2.2306131097509697e7 0.0
2.2306131097509697e7 4.821509046037514e6 0.0
0.0 0.0 0.0

-523828.4565210504 6.451678718559185e6 0.0
6.451678718559185e6 -3.402491247327492e6 0.0
0.0 0.0 0.0

-9.485732440222818e6 2.1300510475430794e7 0.0
2.1300510475430794e7 7.298844334658034e6 0.0
0.0 0.0 0.0

-4.6098074690340385e6 1.8808664262056917e7 0.0
1.8808664262056917e7 3.942894214597445e6 0.0
0.0 0.0 0.0

-9.915365007639475e6 1.1056509040218905e7 0.0
1.1056509040218905e7 1.3102095147429701e7 0.0
0.0 0.0 0.0

1.1728986948421706e7 1.5238890291702589e7 0.0
1.5238890291702589e7 -6.853664615230792e6 0.0
0.0 0.0 0.0

-77344.65966679063 1.3545159368567195e7 0.0
1.3545159368567195e7 -8.621707191104438e6 0.0
0.0 0.0 0.0

-4.539881103817771e6 1.8043736579235278e7 0.0
1.8043736579235278e7 1.6755575201587488e6 0.0
0.0 0.0 0.0

-93983.62045089807 9.526369492752986e6 0.0
9.526369492752986e6 -6.3385273526782775e6 0.0
0.0 0.0 0.0

-2.4616710430237376e6 1.4616506229738431e7 0.0
1.4616506229738431e7 6.317492596751671e6 0.0
0.0 0.0 0.0

-9.280405900079621e6 6.458293691672661e6 0.0
6.458293691672661e6 2.99158573060528e6 0.0
0.0 0.0 0.0

-8.866773047360078e6 1.4995068893575791e7 0.0
1.4995068893575791e7 4.306685354622178e6 0.0
0.0 0.0 0.0

301447.48590410966 1.3415875360084826e7 0.0
1.3415875360084826e7 -8.411760682736492e6 0.0
0.0 0.0 0.0

940337.8089884555 1.2539105204902794e7 0.0
1.2539105204902794e7 4.623256554363517e6 0.0
0.0 0.0 0.0

135801.88327827258 1.3239541950474907e7 0.0
1.3239541950474907e7 -1.1378770333716765e7 0.0
0.0 0.0 0.0

-7.461046081761413e6 1.430170359363616e7 0.0
1.430170359363616e7 1.2376316950506093e7 0.0
0.0 0.0 0.0

-1.4726395524825592e7 1.1155955355460744e7 0.0
1.1155955355460744e7 7.561699371750988e6 0.0
0.0 0.0 0.0

-1.8456950009118891e6 1.4646362325204397e7 0.0
1.4646362325204397e7 1.1242855204987386e6 0.0
0.0 0.0 0.0

-1.1532880554693542e7 2.417820914451884e6 0.0
2.417820914451884e6 1.3890699269866968e7 0.0
0.0 0.0 0.0

-1.045220318885358e6 1.4402939551493261e7 0.0
1.4402939551493261e7 7.39269555895679e6 0.0
0.0 0.0 0.0

1.3103917941855583e6 2.1298266623858597e7 0.0
2.1298266623858597e7 -6.9352164780611005e6 0.0
0.0 0.0 0.0

-2.67640254913373e7 1.5840429287208349e7 0.0
1.5840429287208349e7 8.82862099972949e6 0.0
0.0 0.0 0.0

-2.0518949107427902e6 2.4756043069282893e7 0.0
2.4756043069282893e7 -1.8443593870600471e6 0.0
0.0 0.0 0.0

-7.858022041047042e6 1.6242949532050788e7 0.0
1.6242949532050788e7 1.031924766886998e6 0.0
0.0 0.0 0.0

-2.9019947699829335e6 2.305253838906847e7 0.0
2.305253838906847e7 662442.0225052758 0.0
0.0 0.0 0.0

-1.0297073393142588e7 212799.58269622957 0.0
212799.58269622957 1.2560847916097559e7 0.0
0.0 0.0 0.0

4.449983228153239e6 1.6326044640689116e7 0.0
1.6326044640689116e7 -5.247265659431942e6 0.0
0.0 0.0 0.0

-5.372936645912127e6 2.14122775522343e7 0.0
2.14122775522343e7 5.500670001802961e6 0.0
0.0 0.0 0.0

-2.634375912631933e6 1.5105000702024208e7 0.0
1.5105000702024208e7 141316.16590013367 0.0
0.0 0.0 0.0

858843.3754709661 1.2456850637396608e7 0.0
1.2456850637396608e7 -1.3907707749527864e7 0.0
0.0 0.0 0.0

-6.170771016131695e6 1.992557652721035e7 0.0
1.992557652721035e7 6.283525591107901e6 0.0
0.0 0.0 0.0

-6.446023790066502e6 1.270098520228294e7 0.0
1.270098520228294e7 3.659751876644894e6 0.0
0.0 0.0 0.0

-3.464119960107851e6 2.289916853298935e7 0.0
2.289916853298935e7 -1.131217421170913e6 0.0
0.0 0.0 0.0

-1.1417745777378606e7 2.137394415969755e7 0.0
2.137394415969755e7 8.621705984250218e6 0.0
0.0 0.0 0.0

2.7171857454840178e6 1.646747019310358e7 0.0
1.646747019310358e7 -5.602521587669531e6 0.0
0.0 0.0 0.0

3.9187929791754745e6 5.995538080022537e6 0.0
5.995538080022537e6 -1.0963370512748968e7 0.0
0.0 0.0 0.0

-1.5661380300868782e6 1.2763438488600792e7 0.0
1.2763438488600792e7 -1.7545278461484633e7 0.0
0.0 0.0 0.0

3.358267136060515e6 4.811136484378684e6 0.0
4.811136484378684e6 -1.0033625342111532e7 0.0
0.0 0.0 0.0

326298.45354883 1.4348325907700164e7 0.0
1.4348325907700164e7 9.677849684883412e6 0.0
0.0 0.0 0.0

1.8788894091929942e6 1.4880792642902136e7 0.0
1.4880792642902136e7 -4.951879357684903e6 0.0
0.0 0.0 0.0

-670393.9143892351 2.009293878881688e7 0.0
2.009293878881688e7 -3.917613764662372e6 0.0
0.0 0.0 0.0

-1.2127751758930117e7 1.1061905057832807e7 0.0
1.1061905057832807e7 1.5510995431581775e7 0.0
0.0 0.0 0.0

53205.66101293708 1.0673376859306755e7 0.0
1.0673376859306755e7 -5.381967163045628e6 0.0
0.0 0.0 0.0

-1.5680828872838835e6 5.170641856501463e6 0.0
5.170641856501463e6 5.617021672476674e6 0.0
0.0 0.0 0.0

3.382878385349579e6 9.28549963005718e6 0.0
9.28549963005718e6 -2.8319690893364273e7 0.0
0.0 0.0 0.0

259051.80098745698 1.2031783187572708e7 0.0
1.2031783187572708e7 1.3323556912029854e6 0.0
0.0 0.0 0.0

-1.076952023663048e7 1.9520112887578193e7 0.0
1.9520112887578193e7 7.01535558395866e6 0.0
0.0 0.0 0.0

363546.2775037284 1.2352408729021268e7 0.0
1.2352408729021268e7 -9.131769271149956e6 0.0
0.0 0.0 0.0

9.183116481437568e6 1.4056479979699219e7 0.0
1.4056479979699219e7 297619.61072940985 0.0
0.0 0.0 0.0

-1.1468353219891625e7 1.5734965452145734e6 0.0
1.5734965452145734e6 1.8049689765600756e7 0.0
0.0 0.0 0.0

-1.942701926350588e7 1.6320606923870891e7 0.0
1.6320606923870891e7 6.190469582586031e6 0.0
0.0 0.0 0.0

8.954744163609069e6 2.0767927014870774e7 0.0
2.0767927014870774e7 -1.4612045984292407e7 0.0
0.0 0.0 0.0

-5.600490419469181e6 1.8862115126422383e7 0.0
1.8862115126422383e7 6.793212541126678e6 0.0
0.0 0.0 0.0

-786110.1500518809 9.763191391776823e6 0.0
9.763191391776823e6 206228.655725691 0.0
0.0 0.0 0.0

-1.1604671939801829e7 1.1122750010033675e7 0.0
1.1122750010033675e7 1.7708280084347513e7 0.0
0.0 0.0 0.0

-8.82515898798569e6 -5.271725084003391e6 0.0
-5.271725084003391e6 1.5125728946315732e7 0.0
0.0 0.0 0.0

-374208.0338044381 1.3365405823933009e7 0.0
1.3365405823933009e7 -9.432910814613687e6 0.0
0.0 0.0 0.0

-4.664859626824114e6 1.832656511367347e7 0.0
1.832656511367347e7 -3.186237638361439e6 0.0
0.0 0.0 0.0

-743327.2765400223 1.3491420665818125e7 0.0
1.3491420665818125e7 -6.070774237525839e6 0.0
0.0 0.0 0.0

-1.0983941464086374e7 7.0311631852175e6 0.0
7.0311631852175e6 3.0273493667561933e7 0.0
0.0 0.0 0.0

1.8963160623624288e6 1.104400779778754e7 0.0
1.104400779778754e7 -1.591758353261408e7 0.0
0.0 0.0 0.0

-5.779945294492247e6 1.8392501333087444e7 0.0
1.8392501333087444e7 -2.572857225006322e6 0.0
0.0 0.0 0.0

1.0135086908542998e6 1.2237942828581527e7 0.0
1.2237942828581527e7 -1.3807119694150783e7 0.0
0.0 0.0 0.0

8.319976919677258e6 1.4316776202302413e7 0.0
1.4316776202302413e7 4.125696840210448e6 0.0
0.0 0.0 0.0

-1.163633640338349e7 5.1480264694657335e6 0.0
5.1480264694657335e6 2.7766055696409196e7 0.0
0.0 0.0 0.0

1.1407586905762013e6 1.2870319418011433e7 0.0
1.2870319418011433e7 -2.668859005628377e6 0.0
0.0 0.0 0.0

-4.654624790535023e6 1.4890986777008971e7 0.0
1.4890986777008971e7 9.591012668764044e6 0.0
0.0 0.0 0.0

-2.44842056561046e6 1.908176171142836e7 0.0
1.908176171142836e7 -1.5741721447238754e6 0.0
0.0 0.0 0.0

3.841825193232282e6 8.311053911116118e6 0.0
8.311053911116118e6 -1.578809227056354e7 0.0
0.0 0.0 0.0

2.0548240435975986e6 7.781110214835362e6 0.0
7.781110214835362e6 -7.774653290623691e6 0.0
0.0 0.0 0.0

3.128180018844627e6 9.436362259406619e6 0.0
9.436362259406619e6 -2.511974589301815e7 0.0
0.0 0.0 0.0

-3.429471146280774e6 1.6299435821173621e7 0.0
1.6299435821173621e7 -1.6766645213374805e6 0.0
0.0 0.0 0.0

-1.2824762012744345e7 4.578332773057848e6 0.0
4.578332773057848e6 2.4270405242628813e7 0.0
0.0 0.0 0.0

-2.714708999184562e6 1.6321091556686874e7 0.0
1.6321091556686874e7 -2.939838020527265e6 0.0
0.0 0.0 0.0

-403777.90692044445 1.2927309466135927e7 0.0
1.2927309466135927e7 -6.367294471228605e6 0.0
0.0 0.0 0.0

3.9340116426375173e6 7.785555818981722e6 0.0
7.785555818981722e6 -2.3115461324641448e7 0.0
0.0 0.0 0.0

-1.2068706901909059e7 9.871904465972174e6 0.0
9.871904465972174e6 1.938016655934433e7 0.0
0.0 0.0 0.0

619325.7004164862 1.3108742067908112e7 0.0
1.3108742067908112e7 3.8726907124343007e6 0.0
0.0 0.0 0.0

2.254112871590839e6 1.0201819081760513e7 0.0
1.0201819081760513e7 -1.990480680697822e7 0.0
0.0 0.0 0.0

5.246106569685644e6 4.480188234509925e6 0.0
4.480188234509925e6 -1.8040827125285823e7 0.0
0.0 0.0 0.0

-6.44999407934735e6 1.518740871033538e7 0.0
1.518740871033538e7 9.77535378154347e6 0.0
0.0 0.0 0.0

-3.479812196420691e6 1.7534691582858797e7 0.0
1.7534691582858797e7 -1.8396714047234925e6 0.0
0.0 0.0 0.0

1.3684667278104452e6 1.0203466904043168e7 0.0
1.0203466904043168e7 -8.321735437992049e6 0.0
0.0 0.0 0.0

-1.0601050467244681e7 -1.8660325723355275e6 0.0
-1.8660325723355275e6 2.180119435841762e7 0.0
0.0 0.0 0.0

356140.6420372847 3.983817873266579e6 0.0
3.983817873266579e6 -1.7203227028320266e6 0.0
0.0 0.0 0.0

-8.422364124425337e6 1.3456483704842571e7 0.0
1.3456483704842571e7 1.0867363694334578e7 0.0
0.0 0.0 0.0

8.917080198391235e6 1.5729164858417232e7 0.0
1.5729164858417232e7 5.049617757077197e6 0.0
0.0 0.0 0.0

5.8617197181486245e6 1.4993195492260939e7 0.0
1.4993195492260939e7 5.333468260518443e6 0.0
0.0 0.0 0.0

-5.568766873189915e6 1.7019136369023394e7 0.0
1.7019136369023394e7 -2.7868627861818504e6 0.0
0.0 0.0 0.0

-1.16787248902225e6 1.0720357315172631e7 0.0
1.0720357315172631e7 -8.028619130066394e6 0.0
0.0 0.0 0.0

-2.935761894956551e6 1.70209190305301e7 0.0
1.70209190305301e7 -3.335061828140999e6 0.0
0.0 0.0 0.0

-6.792429404941099e6 1.64225438680192e7 0.0
1.64225438680192e7 983186.2232161267 0.0
0.0 0.0 0.0

2.8958318936409885e6 9.698257896996802e6 0.0
9.698257896996802e6 -2.29191801689993e7 0.0
0.0 0.0 0.0

648399.3148743445 4.725669629274601e6 0.0
4.725669629274601e6 -4.026252959343351e6 0.0
0.0 0.0 0.0

370455.6332012747 6.159802139855311e6 0.0
6.159802139855311e6 -2.9518920108745797e6 0.0
0.0 0.0 0.0

29455.924151692947 1.2611924148944048e7 0.0
1.2611924148944048e7 -401467.5435930811 0.0
0.0 0.0 0.0

4.997673879385198e6 1.5775617433611756e7 0.0
1.5775617433611756e7 7.365486706319898e6 0.0
0.0 0.0 0.0

-862037.1962707295 1.1325935781148396e7 0.0
1.1325935781148396e7 2.7246735631834874e6 0.0
0.0 0.0 0.0

-7.210175593481931e6 1.4472447841361899e7 0.0
1.4472447841361899e7 9.6835348215245e6 0.0
0.0 0.0 0.0

-1.9489223497427166e7 4.686833648498964e6 0.0
4.686833648498964e6 1.0954197415136134e7 0.0
0.0 0.0 0.0

20755.92212808272 1.3172716581016041e7 0.0
1.3172716581016041e7 3.083360948321402e6 0.0
0.0 0.0 0.0

3.290789730812076e6 6.172601891255788e6 0.0
6.172601891255788e6 -1.1244122970627628e7 0.0
0.0 0.0 0.0

-1.0586171195019294e7 2.0447886398371194e7 0.0
2.0447886398371194e7 7.912994083420921e6 0.0
0.0 0.0 0.0

-1.0213701469791697e7 -3.889459777685985e6 0.0
-3.889459777685985e6 2.3626682572488643e7 0.0
0.0 0.0 0.0

-687457.4576632762 1.4353606201014534e7 0.0
1.4353606201014534e7 -4.717878356428081e6 0.0
0.0 0.0 0.0

-988479.9557140432 1.5722266358017717e7 0.0
1.5722266358017717e7 1.033557623410001e7 0.0
0.0 0.0 0.0

-4.176642815328654e6 1.735494902590493e7 0.0
1.735494902590493e7 -1.406043149177289e6 0.0
0.0 0.0 0.0

94430.20310896914 1.2037147705627833e7 0.0
1.2037147705627833e7 -1.5781065933490098e7 0.0
0.0 0.0 0.0

6.252651753528421e6 1.584320762901984e7 0.0
1.584320762901984e7 6.256236847659999e6 0.0
0.0 0.0 0.0

-227501.74546636315 1.2650330511093738e7 0.0
1.2650330511093738e7 -1.2752273196177047e7 0.0
0.0 0.0 0.0

-371091.97548918705 1.3690978918731961e7 0.0
1.3690978918731961e7 4.122999849985943e6 0.0
0.0 0.0 0.0

-2.0626002998933713e6 1.4539512766018083e7 0.0
1.4539512766018083e7 9.124031541109608e6 0.0
0.0 0.0 0.0

-4.908557954305196e6 1.4877821576672424e7 0.0
1.4877821576672424e7 9.034194052780125e6 0.0
0.0 0.0 0.0

-2.9023855531614814e6 1.4770594458340146e7 0.0
1.4770594458340146e7 5.203833092521074e6 0.0
0.0 0.0 0.0

4.622230628653308e6 5.858319032835017e6 0.0
5.858319032835017e6 -1.7758114663038496e7 0.0
0.0 0.0 0.0

-3.825208425857961e6 2.02591132783216e7 0.0
2.02591132783216e7 1.4621978349014933e6 0.0
0.0 0.0 0.0

-3.114855330270101e6 1.3520472516656917e7 0.0
1.3520472516656917e7 -3.7901707577067716e6 0.0
0.0 0.0 0.0

1.1497279286173936e7 1.2860586563442737e7 0.0
1.2860586563442737e7 2.393450342203152e6 0.0
0.0 0.0 0.0

-7.317592745635261e6 1.9355619368849825e7 0.0
1.9355619368849825e7 6.577070160666851e6 0.0
0.0 0.0 0.0

5.245498161956311e6 5.256522269139084e6 0.0
5.256522269139084e6 -1.9932722207232468e7 0.0
0.0 0.0 0.0

-4.583116411732147e6 1.2911681917493025e7 0.0
1.2911681917493025e7 3.5775041721237027e6 0.0
0.0 0.0 0.0

5.560796200078967e6 1.3487419677755816e7 0.0
1.3487419677755816e7 2.1248496427985267e6 0.0
0.0 0.0 0.0

1.6317848427018402e7 1.1200281954701245e7 0.0
1.1200281954701245e7 -1.2988712847982626e6 0.0
0.0 0.0 0.0

-6.030263135749455e6 2.142686608347684e7 0.0
2.142686608347684e7 6.215534996986151e6 0.0
0.0 0.0 0.0

495139.11486873776 1.3657470546693275e7 0.0
1.3657470546693275e7 -1.0805402115618402e7 0.0
0.0 0.0 0.0

-7.018996283119382e6 6.217148685870708e6 0.0
6.217148685870708e6 1.0239931452547286e7 0.0
0.0 0.0 0.0

-1.0384042920125514e7 -4.1422624329362074e6 0.0
-4.1422624329362074e6 2.1688069099010147e7 0.0
0.0 0.0 0.0

213128.8710370061 1.2938960664456036e7 0.0
1.2938960664456036e7 1.7387183814349486e6 0.0
0.0 0.0 0.0

2.5710419214491723e6 1.371550266604859e7 0.0
1.371550266604859e7 8.897610122618873e6 0.0
0.0 0.0 0.0

-1.1010024238381797e7 -500205.0703199329 0.0
-500205.0703199329 1.6923869469911873e7 0.0
0.0 0.0 0.0

-1.7347651960268074e6 9.309417898326267e6 0.0
9.309417898326267e6 -2.8029669148962493e6 0.0
0.0 0.0 0.0

-2.0139765429910305e6 1.4472239733407687e7 0.0
1.4472239733407687e7 -5.550259115086202e6 0.0
0.0 0.0 0.0

-579353.5048498511 1.2110051269727543e7 0.0
1.2110051269727543e7 -1.4707889056984201e7 0.0
0.0 0.0 0.0

-4.0424424842694327e6 1.9844614061764475e7 0.0
1.9844614061764475e7 1.767769277068856e6 0.0
0.0 0.0 0.0

-2.622273058399983e6 1.953710857480649e7 0.0
1.953710857480649e7 -2.0767920256272666e6 0.0
0.0 0.0 0.0

-4.605301430125925e6 2.4513936720876925e7 0.0
2.4513936720876925e7 -1.2818528477390837e6 0.0
0.0 0.0 0.0

-1.3628896128460309e7 2.3402139816872645e7 0.0
2.3402139816872645e7 9.074469981072437e6 0.0
0.0 0.0 0.0

2.272030436750531e6 1.4222948096092986e7 0.0
1.4222948096092986e7 9.09200089159102e6 0.0
0.0 0.0 0.0

-934600.4297364764 1.3710241887617443e7 0.0
1.3710241887617443e7 -3.5280115704020776e7 0.0
0.0 0.0 0.0

-8.018746079327254e6 -886123.1926338008 0.0
-886123.1926338008 9.211009036120433e6 0.0
0.0 0.0 0.0

-3.8746648769789413e6 1.2189817297643576e7 0.0
1.2189817297643576e7 -1.5204432909104692e7 0.0
0.0 0.0 0.0

-1.6828416119985774e6 1.0259778622723535e7 0.0
1.0259778622723535e7 -8.422490542259725e6 0.0
0.0 0.0 0.0

1.3080917373336125e6 1.470140892226962e7 0.0
1.470140892226962e7 9.39259466503192e6 0.0
0.0 0.0 0.0

-3.2262528513715714e6 1.3120824182201982e7 0.0
1.3120824182201982e7 -1.8345753176057108e7 0.0
0.0 0.0 0.0

-2.466868448046181e6 1.1946888613604179e7 0.0
1.1946888613604179e7 -1.3849801241663564e7 0.0
0.0 0.0 0.0

4.716188210769289e6 1.61215335059033e7 0.0
1.61215335059033e7 6.3380265149506545e6 0.0
0.0 0.0 0.0

-3.4630722061984334e6 1.4432200949931193e7 0.0
1.4432200949931193e7 -2.991367484950316e6 0.0
0.0 0.0 0.0

4.175296116307172e6 7.850846003354395e6 0.0
7.850846003354395e6 -1.7427359241797924e7 0.0
0.0 0.0 0.0

14134.77309325969 1.2938010033061853e7 0.0
1.2938010033061853e7 454035.5267560301 0.0
0.0 0.0 0.0

-5.95415696479607e6 1.7763982375230875e7 0.0
1.7763982375230875e7 -1.9930613044351651e6 0.0
0.0 0.0 0.0

622898.2868475302 1.342800705706516e7 0.0
1.342800705706516e7 5.504356172462923e6 0.0
0.0 0.0 0.0

3.5284881892869296e6 4.891252448751463e6 0.0
4.891252448751463e6 -1.0131074904125247e7 0.0
0.0 0.0 0.0

-4.691414117928673e6 1.794411623882743e7 0.0
1.794411623882743e7 2.1115766576210093e6 0.0
0.0 0.0 0.0

-5.221778303982051e6 2.021611167529426e7 0.0
2.021611167529426e7 4.441652003509987e6 0.0
0.0 0.0 0.0

-1.2255239046269123e7 9.6293029234153e6 0.0
9.6293029234153e6 1.8222666933132663e7 0.0
0.0 0.0 0.0

-286523.25934360945 1.1857966036708253e7 0.0
1.1857966036708253e7 4.204864245997199e6 0.0
0.0 0.0 0.0

-610745.5836333595 1.5095777363705624e7 0.0
1.5095777363705624e7 9.926988738773968e6 0.0
0.0 0.0 0.0

-5.828856914064536e6 2.2129579792237263e7 0.0
2.2129579792237263e7 5.572288336446988e6 0.0
0.0 0.0 0.0

-6.994023759359759e6 1.438089838011536e7 0.0
1.438089838011536e7 1.0345615074954394e7 0.0
0.0 0.0 0.0

-8.614972133038793e6 -3.0499327234990243e6 0.0
-3.0499327234990243e6 1.1674921341106296e7 0.0
0.0 0.0 0.0

-5.016113640331724e6 2.028273220116422e7 0.0
2.028273220116422e7 5.231003490648444e6 0.0
0.0 0.0 0.0

-3.4415508295571604e6 1.736102253542377e7 0.0
1.736102253542377e7 -46109.8771169798 0.0
0.0 0.0 0.0

-4.9668670534999035e6 1.3982142137744272e7 0.0
1.3982142137744272e7 1.7359353268947853e6 0.0
0.0 0.0 0.0

-3.9170781049156645e6 2.0028118947396614e7 0.0
2.0028118947396614e7 1.4204821769603342e6 0.0
0.0 0.0 0.0

-3.775179515331096e6 1.9745252879146606e7 0.0
1.9745252879146606e7 1.4824651937438317e6 0.0
0.0 0.0 0.0

-1.0063890777129119e6 1.3822273132273948e7 0.0
1.3822273132273948e7 -5.406545017854655e6 0.0
0.0 0.0 0.0

1.4744553191266123e6 1.2813709606720032e7 0.0
1.2813709606720032e7 4.914851746295215e6 0.0
0.0 0.0 0.0

3.6642743022924922e6 7.82097074639132e6 0.0
7.82097074639132e6 -1.6599257884325063e7 0.0
0.0 0.0 0.0

-4.608663517321836e6 1.345349254228851e7 0.0
1.345349254228851e7 -2.003985302240331e7 0.0
0.0 0.0 0.0

-2.233051630574486e6 1.5365392843147524e7 0.0
1.5365392843147524e7 1.4352422860961128e6 0.0
0.0 0.0 0.0

-1.9328871095274862e7 2.2359712177067958e7 0.0
2.2359712177067958e7 -1.9415958922028337e6 0.0
0.0 0.0 0.0

-3.1305856789759025e6 1.2228808076248389e7 0.0
1.2228808076248389e7 -1.353711765729243e7 0.0
0.0 0.0 0.0

-2.036832649328568e7 2.0850047866644416e7 0.0
2.0850047866644416e7 824386.6349039581 0.0
0.0 0.0 0.0

-4.7399142822253695e6 1.5824394565434163e7 0.0
1.5824394565434163e7 7.081365474240337e6 0.0
0.0 0.0 0.0

-1.0261140625537144e7 -4.993820500952849e6 0.0
-4.993820500952849e6 2.655616848340271e7 0.0
0.0 0.0 0.0

-3.017286388281007e6 1.9016339196748033e7 0.0
1.9016339196748033e7 -1.3950893960089167e6 0.0
0.0 0.0 0.0

-5.924396415699923e6 1.8400207302091505e7 0.0
1.8400207302091505e7 -3.202973794544508e6 0.0
0.0 0.0 0.0

242225.2213749406 1.3948312524231458e7 0.0
1.3948312524231458e7 -1.0117727449726429e7 0.0
0.0 0.0 0.0

-9.388875568245912e6 2.071654583913953e7 0.0
2.071654583913953e7 7.418260638733339e6 0.0
0.0 0.0 0.0

-1.0140821873786893e7 2.9307200520377397e6 0.0
2.9307200520377397e6 1.3181398648324812e7 0.0
0.0 0.0 0.0

3.8672212488990203e6 8.360175185925953e6 0.0
8.360175185925953e6 -2.000357728231496e7 0.0
0.0 0.0 0.0

-1.1569568163428184e7 2.0241017436144177e7 0.0
2.0241017436144177e7 7.704511379573987e6 0.0
0.0 0.0 0.0

-31076.091534066014 1.3394051590023024e7 0.0
1.3394051590023024e7 1.4316266445725318e6 0.0
0.0 0.0 0.0

-8.645153679577444e6 5.480375297906281e6 0.0
5.480375297906281e6 9.197112120997101e6 0.0
0.0 0.0 0.0

-947720.0162979611 1.3074508514526164e7 0.0
1.3074508514526164e7 -6.55149714255718e6 0.0
0.0 0.0 0.0

-2.362739211150513e6 1.816376074586073e7 0.0
1.816376074586073e7 -2.22992028184501e6 0.0
0.0 0.0 0.0

-1.9362861672914878e7 4.824267473790206e6 0.0
4.824267473790206e6 1.0393156814648705e7 0.0
0.0 0.0 0.0

-6.140821883617675e6 1.9618918325996403e7 0.0
1.9618918325996403e7 6.558658793832415e6 0.0
0.0 0.0 0.0

553357.2256443952 1.3351595925048277e7 0.0
1.3351595925048277e7 -1.1561636955472354e7 0.0
0.0 0.0 0.0

3.3940141323334556e6 7.948295106124942e6 0.0
7.948295106124942e6 -1.4944803125629645e7 0.0
0.0 0.0 0.0

1.0491868443588428e6 5.143619125439405e6 0.0
5.143619125439405e6 -4.928602794014085e6 0.0
0.0 0.0 0.0

1.147801135944082e6 1.2426346338577785e7 0.0
1.2426346338577785e7 -1.1932231254948804e7 0.0
0.0 0.0 0.0

-9.164479211300217e6 1.7464081611940384e7 0.0
1.7464081611940384e7 -163461.68575427262 0.0
0.0 0.0 0.0

-2.7638835817348124e6 2.423319889705705e7 0.0
2.423319889705705e7 -652550.7484600378 0.0
0.0 0.0 0.0

-3.4805006242172867e6 1.4804379696090879e7 0.0
1.4804379696090879e7 1.3366570972545289e7 0.0
0.0 0.0 0.0

-132943.06033611274 1.2403962347210636e7 0.0
1.2403962347210636e7 5.123912289922379e6 0.0
0.0 0.0 0.0

2.3906795126760053e6 1.2946454721484281e7 0.0
1.2946454721484281e7 8.392264704454495e6 0.0
0.0 0.0 0.0

-2.0201408021860735e6 1.3471708682134151e7 0.0
1.3471708682134151e7 -6.733802728850927e6 0.0
0.0 0.0 0.0

-1.2425438732088063e7 9.483148765403608e6 0.0
9.483148765403608e6 1.8561462120409314e7 0.0
0.0 0.0 0.0

-614665.1071648174 1.1515281536163075e7 0.0
1.1515281536163075e7 -9.148635667710211e6 0.0
0.0 0.0 0.0

-1.981480132093614e7 1.9614290787674252e7 0.0
1.9614290787674252e7 1.1200357468445934e7 0.0
0.0 0.0 0.0

-1.0954888492186204e7 -455585.8632018687 0.0
-455585.8632018687 2.0864294778060973e7 0.0
0.0 0.0 0.0

-1.0612861057680437e7 -4.7431613357245885e6 0.0
-4.7431613357245885e6 2.736061422835296e7 0.0
0.0 0.0 0.0

1.0724847827555472e6 1.0083574875802483e7 0.0
1.0083574875802483e7 -9.375289654137975e6 0.0
0.0 0.0 0.0

-1.506985536660145e6 1.0539669549020992e6 0.0
1.0539669549020992e6 891254.0331199698 0.0
0.0 0.0 0.0

3.7018859070676723e6 8.411419907353373e6 0.0
8.411419907353373e6 -2.4186827762399703e7 0.0
0.0 0.0 0.0

-1.242059461195186e7 7.538651993584565e6 0.0
7.538651993584565e6 2.2381070494558726e7 0.0
0.0 0.0 0.0

2.701664955225354e6 9.738075687568363e6 0.0
9.738075687568363e6 -1.978907653614613e7 0.0
0.0 0.0 0.0

-9.258179299270175e6 -2.709931710765208e6 0.0
-2.709931710765208e6 1.5174207655111462e7 0.0
0.0 0.0 0.0

-5.212475542620909e6 1.8757265329420816e7 0.0
1.8757265329420816e7 4.102388251881813e6 0.0
0.0 0.0 0.0

-2.1804894265768365e6 1.8479682755837906e7 0.0
1.8479682755837906e7 -2.301864933707355e6 0.0
0.0 0.0 0.0

-5.282862699124444e6 2.098537366549285e7 0.0
2.098537366549285e7 4.369822890329123e6 0.0
0.0 0.0 0.0

-4.356786282439082e6 2.375858773979666e7 0.0
2.375858773979666e7 418844.2132241074 0.0
0.0 0.0 0.0

-4.1940994348368887e6 2.187748771815233e7 0.0
2.187748771815233e7 1.2464717292156355e6 0.0
0.0 0.0 0.0

-1.0278299338431068e7 -4.1014953867985005e6 0.0
-4.1014953867985005e6 2.076849324343798e7 0.0
0.0 0.0 0.0

5.048783967257945e6 5.447617351775873e6 0.0
5.447617351775873e6 -2.114828797739819e7 0.0
0.0 0.0 0.0

508190.0392649686 1.3976038340463754e7 0.0
1.3976038340463754e7 -8.523819615875669e6 0.0
0.0 0.0 0.0

-1.6593618511549346e6 1.5329897896455195e7 0.0
1.5329897896455195e7 -4.842655451087955e6 0.0
0.0 0.0 0.0

2.6729104968420602e6 9.43563534059812e6 0.0
9.43563534059812e6 -1.2558156424186053e7 0.0
0.0 0.0 0.0

-2.6924191647344744e6 1.10417101223875e7 0.0
1.10417101223875e7 -1.1252013221346729e7 0.0
0.0 0.0 0.0

242677.75783228636 1.2356693051006366e7 0.0
1.2356693051006366e7 808925.9263290007 0.0
0.0 0.0 0.0

-5.941109011873875e6 1.7177075052312817e7 0.0
1.7177075052312817e7 6.779899337091284e6 0.0
0.0 0.0 0.0

-7.6393358492693305e6 1.9921429523919705e7 0.0
1.9921429523919705e7 6.581706363079663e6 0.0
0.0 0.0 0.0

-985147.309319035 1.0920392812856065e7 0.0
1.0920392812856065e7 -5.797418319077038e6 0.0
0.0 0.0 0.0

-767752.0734063647 9.535982294430677e6 0.0
9.535982294430677e6 -2.949301003726038e6 0.0
0.0 0.0 0.0

5.1275567267040135e6 4.799778738655901e6 0.0
4.799778738655901e6 -1.750249867619565e7 0.0
0.0 0.0 0.0

1.0639586821885044e6 1.350884309158671e7 0.0
1.350884309158671e7 -5.698434066452248e6 0.0
0.0 0.0 0.0

3.4389331993979625e6 8.186578680628426e6 0.0
8.186578680628426e6 -1.5913043904398166e7 0.0
0.0 0.0 0.0

-1.0992549074060218e6 6.712469950507126e6 0.0
6.712469950507126e6 -2.63712664318938e6 0.0
0.0 0.0 0.0

-653055.9070201595 8.779287699849846e6 0.0
8.779287699849846e6 -4.453458271708152e6 0.0
0.0 0.0 0.0

191867.0361014693 4.42024767558067e6 0.0
4.42024767558067e6 -3.0376083646213855e6 0.0
0.0 0.0 0.0

-4.751264646075838e6 1.728566894120281e7 0.0
1.728566894120281e7 3.71937941349098e6 0.0
0.0 0.0 0.0

936762.6648793137 1.269848775443301e7 0.0
1.269848775443301e7 -1.2991332708818708e7 0.0
0.0 0.0 0.0

3.5203843220117837e6 8.368479602677534e6 0.0
8.368479602677534e6 -2.7365380370853186e7 0.0
0.0 0.0 0.0

-2.3855041273949463e6 1.589677953932703e7 0.0
1.589677953932703e7 -2.530502955464974e6 0.0
0.0 0.0 0.0

-1.2378384114093997e7 2.0638419960461743e7 0.0
2.0638419960461743e7 -2.736966881389603e6 0.0
0.0 0.0 0.0

-1.4150082552487357e7 1.9238166767680407e7 0.0
1.9238166767680407e7 7.721196917753932e6 0.0
0.0 0.0 0.0

-4.289278694559678e6 1.8001449331062537e7 0.0
1.8001449331062537e7 -3.4298897826146977e6 0.0
0.0 0.0 0.0

-409337.21034113877 1.2074551055115769e7 0.0
1.2074551055115769e7 -1.8258026366163034e7 0.0
0.0 0.0 0.0

-4.062176852861654e6 1.2019536443446781e7 0.0
1.2019536443446781e7 -1.3540589981925255e7 0.0
0.0 0.0 0.0

-8.338333727207882e6 1.9326774031458918e7 0.0
1.9326774031458918e7 -2.809542529824712e6 0.0
0.0 0.0 0.0

-5.291713259955732e6 1.3154710549461713e7 0.0
1.3154710549461713e7 -1.7639044918308277e7 0.0
0.0 0.0 0.0

-9.684260846249634e6 1.2954431943488171e7 0.0
1.2954431943488171e7 1.3043135085597118e7 0.0
0.0 0.0 0.0

-7.863113796164618e6 186913.00198882478 0.0
186913.00198882478 9.148663212122958e6 0.0
0.0 0.0 0.0

-3.346955269929517e6 1.7115935344174482e7 0.0
1.7115935344174482e7 -1.1208463197973855e6 0.0
0.0 0.0 0.0

-6.7233573482725285e6 1.5487467187039914e7 0.0
1.5487467187039914e7 8.841116211527083e6 0.0
0.0 0.0 0.0

-9.202813378726203e6 -2.7585352153110467e6 0.0
-2.7585352153110467e6 1.2470214199599471e7 0.0
0.0 0.0 0.0

2.3044455792135643e6 1.0831585631482719e7 0.0
1.0831585631482719e7 -1.5604943173574625e7 0.0
0.0 0.0 0.0

-4.503774188149677e6 1.757892608433495e7 0.0
1.757892608433495e7 1.3624100933500102e6 0.0
0.0 0.0 0.0

-126052.95095352485 1.2855464383305497e7 0.0
1.2855464383305497e7 -1.8190470632853138e6 0.0
0.0 0.0 0.0

-5.64707805245304e6 1.8727874610915374e7 0.0
1.8727874610915374e7 5.862007653236659e6 0.0
0.0 0.0 0.0

-8.437577129312588e6 2.0033524678442482e7 0.0
2.0033524678442482e7 -2.4033321601937735e6 0.0
0.0 0.0 0.0

-4.439798312067401e6 1.2398430466355463e7 0.0
1.2398430466355463e7 -1.479932833018545e7 0.0
0.0 0.0 0.0

-1.073201008160823e6 1.5638290013652617e7 0.0
1.5638290013652617e7 1.0572104178488465e7 0.0
0.0 0.0 0.0

-1.5950880523470413e7 1.8314199183398183e7 0.0
1.8314199183398183e7 8.316304368628261e6 0.0
0.0 0.0 0.0

-6.031423936506834e6 5.977900652925596e6 0.0
5.977900652925596e6 8.911289023156557e6 0.0
0.0 0.0 0.0

-1.2516989092137339e7 5.859140717232357e6 0.0
5.859140717232357e6 2.8796856163731053e7 0.0
0.0 0.0 0.0

-933765.6517313551 1.415633265421248e7 0.0
1.415633265421248e7 -5.0357804441938335e6 0.0
0.0 0.0 0.0

-3.6772808475330016e6 2.17988053845454e7 0.0
2.17988053845454e7 147423.75375878531 0.0
0.0 0.0 0.0

2.3094681739469366e6 1.3321582211905455e7 0.0
1.3321582211905455e7 7.698227274834014e6 0.0
0.0 0.0 0.0

8.849908542197565e6 1.44214687257188e7 0.0
1.44214687257188e7 3.0082986644047964e6 0.0
0.0 0.0 0.0

-6.201993515425973e6 1.8977339913769756e7 0.0
1.8977339913769756e7 -3.0393029502807693e6 0.0
0.0 0.0 0.0

-2.706580755837823e6 2.0501029377791625e7 0.0
2.0501029377791625e7 -1.567145001931761e6 0.0
0.0 0.0 0.0

3.5858337094146856e6 1.2874100346031222e7 0.0
1.2874100346031222e7 1.4644475804858275e7 0.0
0.0 0.0 0.0

5.09263938776955e6 6.523289902188125e6 0.0
6.523289902188125e6 -2.612476031809005e7 0.0
0.0 0.0 0.0

-6.023648857314825e6 1.9130637713020224e7 0.0
1.9130637713020224e7 6.692487970219126e6 0.0
0.0 0.0 0.0

-84753.13097735075 1.2028521039251039e7 0.0
1.2028521039251039e7 -1.2029940916999278e6 0.0
0.0 0.0 0.0

-5.840088995801382e6 1.3740190752479712e7 0.0
1.3740190752479712e7 -1.9466964386036687e7 0.0
0.0 0.0 0.0

-2.1103617905541444e6 1.5823427751594907e7 0.0
1.5823427751594907e7 -1.1930781312184886e6 0.0
0.0 0.0 0.0

5.774856221650805e6 4.328970416523821e6 0.0
4.328970416523821e6 -2.260757163510397e7 0.0
0.0 0.0 0.0

-1.8281509554055617e6 1.461393026227499e7 0.0
1.461393026227499e7 -5.031786468133415e6 0.0
0.0 0.0 0.0

-227863.16268161265 1.5799744700932497e7 0.0
1.5799744700932497e7 -5.898960601750357e6 0.0
0.0 0.0 0.0

8.815143062335955e6 1.4536872027635086e7 0.0
1.4536872027635086e7 -6.260348603518362e6 0.0
0.0 0.0 0.0

-1.0440541492148092e7 1.1377276640368914e7 0.0
1.1377276640368914e7 1.3330023424015116e7 0.0
0.0 0.0 0.0

-2.9207428379463824e6 1.0812226640675478e7 0.0
1.0812226640675478e7 1.9476170415490055e6 0.0
0.0 0.0 0.0

-3.1993029942777473e6 1.7233066936230708e7 0.0
1.7233066936230708e7 -2.698115824146308e6 0.0
0.0 0.0 0.0

-3.6259551928993966e6 1.72764926544291e7 0.0
1.72764926544291e7 -604370.2504854263 0.0
0.0 0.0 0.0

-1.103415796524535e7 -1.851375092004828e6 0.0
-1.851375092004828e6 2.9470789400642585e7 0.0
0.0 0.0 0.0

-1.0645944242868281e6 1.27486954809092e7 0.0
1.27486954809092e7 -5.136992672762856e6 0.0
0.0 0.0 0.0

-8.315207314750198e6 2.0023696040251665e7 0.0
2.0023696040251665e7 7.08565450800014e6 0.0
0.0 0.0 0.0

1.6612976722661434e6 7.295557185578235e6 0.0
7.295557185578235e6 -8.507983518008592e6 0.0
0.0 0.0 0.0

103140.33806453878 1.5206917367847897e7 0.0
1.5206917367847897e7 1.0989160128386347e7 0.0
0.0 0.0 0.0

-2.508342691884893e7 1.820929575360583e7 0.0
1.820929575360583e7 9.38720365923491e6 0.0
0.0 0.0 0.0

404212.34150990547 1.217222039984127e7 0.0
1.217222039984127e7 2.417654272013975e6 0.0
0.0 0.0 0.0

3.619440186323935e6 6.625920315131715e6 0.0
6.625920315131715e6 -1.0533647360483933e7 0.0
0.0 0.0 0.0

-3.0611017268679244e6 1.5230126015455972e7 0.0
1.5230126015455972e7 1.3245831638900856e7 0.0
0.0 0.0 0.0

-2.25533290587986e6 1.6996374097137973e7 0.0
1.6996374097137973e7 -3.381035066911226e6 0.0
0.0 0.0 0.0

5.0910106331455e6 2.0202820519155037e7 0.0
2.0202820519155037e7 -6.860653649572958e6 0.0
0.0 0.0 0.0

-2.3657144257303625e6 1.0522686361259943e7 0.0
1.0522686361259943e7 -7.885715117803509e6 0.0
0.0 0.0 0.0

-4.649937498346977e6 1.1582391443593917e7 0.0
1.1582391443593917e7 3.9841942754149167e6 0.0
0.0 0.0 0.0

1.1450993586678286e6 7.301058622362728e6 0.0
7.301058622362728e6 -7.585487295786683e6 0.0
0.0 0.0 0.0

-1.198715747424367e6 1.2550286285654815e7 0.0
1.2550286285654815e7 -1.4181823889171518e7 0.0
0.0 0.0 0.0

-1.3502435084637399e6 1.4804387549961211e7 0.0
1.4804387549961211e7 -5.406917440363504e6 0.0
0.0 0.0 0.0

3.9871372848805944e6 1.5905090336249884e7 0.0
1.5905090336249884e7 6.850232107561536e6 0.0
0.0 0.0 0.0

-4.567436830061892e6 1.684614020873531e7 0.0
1.684614020873531e7 -1.445224360449245e6 0.0
0.0 0.0 0.0

-182961.85877473303 1.5799034958100485e7 0.0
1.5799034958100485e7 -6.059147947791938e6 0.0
0.0 0.0 0.0

-5.900699907141119e6 802141.5520644417 0.0
802141.5520644417 1.0985053806457054e7 0.0
0.0 0.0 0.0

-2.3677553991528233e6 3.788354965958598e6 0.0
3.788354965958598e6 4.356346128883408e6 0.0
0.0 0.0 0.0

2.98406821225378e6 1.529371757131736e7 0.0
1.529371757131736e7 -4.232461871908645e6 0.0
0.0 0.0 0.0

175365.4716957815 1.2628281869885676e7 0.0
1.2628281869885676e7 2.156824666326781e6 0.0
0.0 0.0 0.0

2.181201741306597e7 1.148379636731514e7 0.0
1.148379636731514e7 584279.6961957337 0.0
0.0 0.0 0.0

-8.882986879114302e6 -3.7656928157969113e6 0.0
-3.7656928157969113e6 1.3255917827930361e7 0.0
0.0 0.0 0.0

-6.583996752444813e6 1.784547384513511e7 0.0
1.784547384513511e7 -2.30484347311576e6 0.0
0.0 0.0 0.0

-1.0338299174442317e7 1.6460279076682761e7 0.0
1.6460279076682761e7 4.809155792451108e6 0.0
0.0 0.0 0.0

-1.6583738666255914e7 1.7994007109541688e7 0.0
1.7994007109541688e7 -1.0083767115872772e6 0.0
0.0 0.0 0.0

1.813805811542269e7 5.701703563504647e6 0.0
5.701703563504647e6 -3.478968862944035e6 0.0
0.0 0.0 0.0

-1.1364327014525296e7 4.976979096696632e6 0.0
4.976979096696632e6 3.4742270846380435e7 0.0
0.0 0.0 0.0

-837779.3137652418 9.059843216713164e6 0.0
9.059843216713164e6 -2.4321219407113153e6 0.0
0.0 0.0 0.0

-6.521912534101466e6 1.818416616449406e7 0.0
1.818416616449406e7 -1.7793176401376915e6 0.0
0.0 0.0 0.0

-5.488140498804901e6 1.8891326985072743e7 0.0
1.8891326985072743e7 6.572791570443373e6 0.0
0.0 0.0 0.0

-1.6230137859721582e6 1.4571013188995916e7 0.0
1.4571013188995916e7 -6.181320977241602e6 0.0
0.0 0.0 0.0

1.324059049058354e6 1.0591698847695256e7 0.0
1.0591698847695256e7 -9.804584702165373e6 0.0
0.0 0.0 0.0

-176064.69760615705 1.26702235493253e7 0.0
1.26702235493253e7 -3.843644842321919e6 0.0
0.0 0.0 0.0

-3.1709692505894615e6 1.1770438026535101e7 0.0
1.1770438026535101e7 -1.3850942674898641e7 0.0
0.0 0.0 0.0

-2.742452071115326e6 1.42567574195826e7 0.0
1.42567574195826e7 -2.842720148186817e7 0.0
0.0 0.0 0.0

4.922999703402187e6 5.1015940638191225e6 0.0
5.1015940638191225e6 -1.2399984722161498e6 0.0
0.0 0.0 0.0

-1.0714384807706298e6 2.1174564041737635e7 0.0
2.1174564041737635e7 -3.6939945811900417e6 0.0
0.0 0.0 0.0

-3.2919413941662833e6 1.1340991203433452e7 0.0
1.1340991203433452e7 -1.0973138676144617e7 0.0
0.0 0.0 0.0

6.209851201339459e6 1.313805951689463e7 0.0
1.313805951689463e7 3.8201641312860446e6 0.0
0.0 0.0 0.0

760789.8313535191 1.193102736570064e7 0.0
1.193102736570064e7 -6.098979353491375e6 0.0
0.0 0.0 0.0

-3.0717356769533204e6 1.6919149321408857e7 0.0
1.6919149321408857e7 -939515.5552437648 0.0
0.0 0.0 0.0

-1.4958411261439037e6 1.1839445615109378e7 0.0
1.1839445615109378e7 -1.04074470911689e7 0.0
0.0 0.0 0.0

-1.6455566443451962e7 9.68828235577533e6 0.0
9.68828235577533e6 7.981253392544364e6 0.0
0.0 0.0 0.0

-3.7980247447904926e6 1.0735476634990254e6 0.0
1.0735476634990254e6 3.5147812211143374e6 0.0
0.0 0.0 0.0

-8.599078337419158e6 1.2647324223997122e7 0.0
1.2647324223997122e7 1.3003286073951889e7 0.0
0.0 0.0 0.0

-763789.5495664966 1.039804010405376e7 0.0
1.039804010405376e7 302904.5336088675 0.0
0.0 0.0 0.0

-3.8040774237068715e6 1.2753612383239215e7 0.0
1.2753612383239215e7 -6.655383760961072e6 0.0
0.0 0.0 0.0

-1.092660566406954e6 1.3330005489776468e7 0.0
1.3330005489776468e7 -4.493549299701192e6 0.0
0.0 0.0 0.0

-1.6136191732398295e6 9.768059759834643e6 0.0
9.768059759834643e6 -3.2837100417110673e6 0.0
0.0 0.0 0.0

9.921409722097877e6 1.4882009164569126e7 0.0
1.4882009164569126e7 -5.725196299834766e6 0.0
0.0 0.0 0.0

-9.242515054398455e6 2.1549688597004116e7 0.0
2.1549688597004116e7 7.876356906259298e6 0.0
0.0 0.0 0.0

329971.7304208919 1.6490340656155875e7 0.0
1.6490340656155875e7 -5.131822271097713e6 0.0
0.0 0.0 0.0

-1.5746065198898208e6 1.5296882774585038e7 0.0
1.5296882774585038e7 -1.8616860261130028e6 0.0
0.0 0.0 0.0

-4.881705971725388e6 2.1263109269297265e7 0.0
2.1263109269297265e7 4.807515672854539e6 0.0
0.0 0.0 0.0

-8.148202850606785e6 1.3843473666913679e7 0.0
1.3843473666913679e7 1.1001452419686928e7 0.0
0.0 0.0 0.0

1.4746210349601335e6 6.857661564784862e6 0.0
6.857661564784862e6 -6.536296241039082e6 0.0
0.0 0.0 0.0

-163143.50395495724 6.426923080449766e6 0.0
6.426923080449766e6 -2.2009860123379333e6 0.0
0.0 0.0 0.0

-4.1605512003103253e6 1.2928247401607217e7 0.0
1.2928247401607217e7 -1.821232555235118e7 0.0
0.0 0.0 0.0

-2.75851192591698e6 1.4850723867556803e7 0.0
1.4850723867556803e7 2.5633741339161512e6 0.0
0.0 0.0 0.0

1.96903347275917e6 5.545552750960884e6 0.0
5.545552750960884e6 -7.019533124375129e6 0.0
0.0 0.0 0.0

-3.1816345486394767e7 2.1735384718688954e7 0.0
2.1735384718688954e7 5.4225735486772675e6 0.0
0.0 0.0 0.0

3.6251938572309837e6 8.148404763958025e6 0.0
8.148404763958025e6 -3.1150491618885417e7 0.0
0.0 0.0 0.0

-333642.4794931868 8.068220164635152e6 0.0
8.068220164635152e6 -4.679014515027527e6 0.0
0.0 0.0 0.0

-3.237591439599775e6 1.3276882392277695e7 0.0
1.3276882392277695e7 -1.9827265596463032e7 0.0
0.0 0.0 0.0

5.207040165849174e6 5.253303817762232e6 0.0
5.253303817762232e6 -2.0611654308481436e7 0.0
0.0 0.0 0.0

6.622579442594157e6 2.1845735565136213e7 0.0
2.1845735565136213e7 -9.900354499724997e6 0.0
0.0 0.0 0.0

3.736314362951738e6 8.288085678978059e6 0.0
8.288085678978059e6 -1.4989536391517073e7 0.0
0.0 0.0 0.0

-1.1661209897568535e7 8.913858395067183e6 0.0
8.913858395067183e6 2.5728713706917472e7 0.0
0.0 0.0 0.0

-1.0470809100554567e7 1.1717982942111615e7 0.0
1.1717982942111615e7 1.3629549497402292e7 0.0
0.0 0.0 0.0

-4.906924295937408e6 1.6406620110604234e7 0.0
1.6406620110604234e7 7.243811007095197e6 0.0
0.0 0.0 0.0

-6.701864506966265e6 1.5647009141598444e7 0.0
1.5647009141598444e7 1.0849529954203763e6 0.0
0.0 0.0 0.0

-9.449734834790733e6 1.248974902864027e7 0.0
1.248974902864027e7 1.4386913280122837e7 0.0
0.0 0.0 0.0

-5.076662284330592e6 1.7160219249232322e7 0.0
1.7160219249232322e7 2.7341234229934867e6 0.0
0.0 0.0 0.0

3.9662902084110267e6 1.3737220411121823e7 0.0
1.3737220411121823e7 1.3220967642804686e7 0.0
0.0 0.0 0.0

-6.241689726297299e6 1.491451936990801e6 0.0
1.491451936990801e6 6.6904662554632835e6 0.0
0.0 0.0 0.0

-381569.85735022416 1.4396385646052038e7 0.0
1.4396385646052038e7 -8.458848603506338e6 0.0
0.0 0.0 0.0

1.755031355999941e6 1.0653098813917575e7 0.0
1.0653098813917575e7 -3.4406052014572345e7 0.0
0.0 0.0 0.0

-8.938457056352392e6 2.2430402749708414e7 0.0
2.2430402749708414e7 8.2071011049091555e6 0.0
0.0 0.0 0.0

-2.476094754639241e6 1.8073137885040518e7 0.0
1.8073137885040518e7 -3.3063492071965057e6 0.0
0.0 0.0 0.0

1.458195939183465e6 1.3132082848067816e7 0.0
1.3132082848067816e7 -167969.84681469906 0.0
0.0 0.0 0.0

-1.0130171114764346e7 1.1498430923429161e7 0.0
1.1498430923429161e7 1.485823150327752e7 0.0
0.0 0.0 0.0

-1.5448987014188053e7 2.1587022995962635e7 0.0
2.1587022995962635e7 1.0196712116655203e7 0.0
0.0 0.0 0.0

-1.311287542002862e6 1.5830267951914659e7 0.0
1.5830267951914659e7 -6.142614843039192e6 0.0
0.0 0.0 0.0

-807971.3932072679 1.222928303642389e7 0.0
1.222928303642389e7 -1.6718015233302636e7 0.0
0.0 0.0 0.0

-1.3592475952415165e7 2.3257282640767314e7 0.0
2.3257282640767314e7 8.770596715202305e6 0.0
0.0 0.0 0.0

1.246334608805064e7 1.9427931410720464e7 0.0
1.9427931410720464e7 -1.315581653500331e7 0.0
0.0 0.0 0.0

937795.1580477528 1.2358120627085384e7 0.0
1.2358120627085384e7 1.055762433030379e6 0.0
0.0 0.0 0.0

2.644606968178454e6 9.318893249100901e6 0.0
9.318893249100901e6 -1.3561425775474802e7 0.0
0.0 0.0 0.0

-4.870559806112803e6 1.4201972818608576e7 0.0
1.4201972818608576e7 -2.1582617341684245e7 0.0
0.0 0.0 0.0

2.959528443083272e6 2.0557936180402804e7 0.0
2.0557936180402804e7 -5.719415838812772e6 0.0
0.0 0.0 0.0

558659.8960551405 1.2852645964202821e7 0.0
1.2852645964202821e7 -9.874030705389477e6 0.0
0.0 0.0 0.0

-3.8327444178833645e6 1.9316874230393264e7 0.0
1.9316874230393264e7 356775.2414324102 0.0
0.0 0.0 0.0

2.305567444233032e6 9.92461247075449e6 0.0
9.92461247075449e6 -2.9225356457944646e7 0.0
0.0 0.0 0.0

-240028.44064449368 1.371166193566105e7 0.0
1.371166193566105e7 2.611914214596017e6 0.0
0.0 0.0 0.0

-1.5935605317395601e7 1.9390700881359763e7 0.0
1.9390700881359763e7 1.0151828688108694e7 0.0
0.0 0.0 0.0

-4.562708286868982e6 1.7505942042556867e7 0.0
1.7505942042556867e7 3.2383169465888916e6 0.0
0.0 0.0 0.0

9.159954344635805e6 1.2796981642294474e7 0.0
1.2796981642294474e7 948192.6938832738 0.0
0.0 0.0 0.0

-5.474034377369252e6 2.157463292224429e7 0.0
2.157463292224429e7 4.2761715960492175e6 0.0
0.0 0.0 0.0

-536022.405939935 1.3058867413307885e7 0.0
1.3058867413307885e7 4.742916532075975e6 0.0
0.0 0.0 0.0

683310.0192184646 4.278421712813762e6 0.0
4.278421712813762e6 -3.7464400467945463e6 0.0
0.0 0.0 0.0

-607464.9535397807 2.179844999565808e7 0.0
2.179844999565808e7 -2.37650933625106e6 0.0
0.0 0.0 0.0

789707.727058833 1.3052584255175881e7 0.0
1.3052584255175881e7 -1.2313765784830933e7 0.0
0.0 0.0 0.0

5.746617014141368e6 4.654591264089675e6 0.0
4.654591264089675e6 -2.482975679585814e7 0.0
0.0 0.0 0.0

203229.5129863189 8.733092804972926e6 0.0
8.733092804972926e6 -5.340838775861638e6 0.0
0.0 0.0 0.0

1.976046436247678e6 6.142824292388598e6 0.0
6.142824292388598e6 -7.032497631309208e6 0.0
0.0 0.0 0.0

1.2046171865232494e6 1.1107828216822164e7 0.0
1.1107828216822164e7 -9.766371708831564e6 0.0
0.0 0.0 0.0

-1.3177149827414263e7 1.8708069921118066e7 0.0
1.8708069921118066e7 8.545806234795777e6 0.0
0.0 0.0 0.0

-1.4800152011671416e6 1.5040724595774626e7 0.0
1.5040724595774626e7 1.0989944787689475e6 0.0
0.0 0.0 0.0

277624.23078177194 1.6564891459427688e7 0.0
1.6564891459427688e7 -5.262467857340521e6 0.0
0.0 0.0 0.0

5.274648708404872e6 5.898777755114025e6 0.0
5.898777755114025e6 -2.0342615389051963e7 0.0
0.0 0.0 0.0

-1.3827886164379937e6 1.4522350291773671e7 0.0
1.4522350291773671e7 -5.228967064580132e6 0.0
0.0 0.0 0.0

-312186.78814403154 1.263638079952609e7 0.0
1.263638079952609e7 -8.3492924137258325e6 0.0
0.0 0.0 0.0

-4.756001882276499e6 1.7594931792743925e7 0.0
1.7594931792743925e7 -2.4417712496839752e6 0.0
0.0 0.0 0.0

2.9214224140942353e6 1.9381351614507213e7 0.0
1.9381351614507213e7 -6.020951622278133e6 0.0
0.0 0.0 0.0

-5.570489215126238e6 1.7359587185816173e7 0.0
1.7359587185816173e7 7.518755516631208e6 0.0
0.0 0.0 0.0

-1.549197221431552e6 1.3437314159928884e7 0.0
1.3437314159928884e7 6.567606529993047e6 0.0
0.0 0.0 0.0

-3.328133722183937e6 1.4162312967172999e7 0.0
1.4162312967172999e7 4.5255216387567736e7 0.0
0.0 0.0 0.0

-6.840015968663131e6 2.3551871922452766e7 0.0
2.3551871922452766e7 6.085968062631923e6 0.0
0.0 0.0 0.0

745759.4331366401 1.405534819073794e7 0.0
1.405534819073794e7 -7.491680740532633e6 0.0
0.0 0.0 0.0

3.794242692851997e6 8.675109715936378e6 0.0
8.675109715936378e6 -1.7069856462323688e7 0.0
0.0 0.0 0.0

4.0509527933769757e6 8.186265240340078e6 0.0
8.186265240340078e6 -1.7819794717144303e7 0.0
0.0 0.0 0.0

5.223997718581057e6 4.8022185768276425e6 0.0
4.8022185768276425e6 -1.5394440833129406e7 0.0
0.0 0.0 0.0

-5.728388455019012e6 1.708740294239556e7 0.0
1.708740294239556e7 7.64868545522221e6 0.0
0.0 0.0 0.0

4.884420672337986e6 4.953544760911376e6 0.0
4.953544760911376e6 -1.539506216592339e7 0.0
0.0 0.0 0.0

-1.1239197159220558e7 -1.9782912722538812e6 0.0
-1.9782912722538812e6 1.9453303975048073e7 0.0
0.0 0.0 0.0

-5.505589883823235e6 1.5309256182641014e7 0.0
1.5309256182641014e7 9.517776502454631e6 0.0
0.0 0.0 0.0

-799852.2441297276 8.311952199183846e6 0.0
8.311952199183846e6 -3.8934782361849477e6 0.0
0.0 0.0 0.0

-2.967127441437794e6 1.834959054587085e7 0.0
1.834959054587085e7 -2.493779626040417e6 0.0
0.0 0.0 0.0

-1.827910310380484e6 2.0178032237125598e7 0.0
2.0178032237125598e7 -1.2451334235093037e6 0.0
0.0 0.0 0.0

98104.79091781139 1.1980161394393986e7 0.0
1.1980161394393986e7 120196.31099424505 0.0
0.0 0.0 0.0

2.5129126577298995e6 9.804010925115447e6 0.0
9.804010925115447e6 -2.5679742351452123e7 0.0
0.0 0.0 0.0

5.7105755524826795e6 4.9420211049169265e6 0.0
4.9420211049169265e6 -2.1802716362873103e7 0.0
0.0 0.0 0.0

-2.9130900315160364e7 2.4676664906736422e7 0.0
2.4676664906736422e7 -279777.0895459708 0.0
0.0 0.0 0.0

7.699527911139212e6 1.6585713137990016e7 0.0
1.6585713137990016e7 6.145431662095855e6 0.0
0.0 0.0 0.0

-2.244873301606374e6 1.9909878314228617e7 0.0
1.9909878314228617e7 -965559.8203424014 0.0
0.0 0.0 0.0

-3.361665882236378e6 1.4526302073204672e7 0.0
1.4526302073204672e7 8.552203460225536e6 0.0
0.0 0.0 0.0

-16618.860209700943 1.3030851120738404e7 0.0
1.3030851120738404e7 552819.644515127 0.0
0.0 0.0 0.0

-1.2747521570847038e7 3.0808749938069666e6 0.0
3.0808749938069666e6 2.3870916278608155e7 0.0
0.0 0.0 0.0

-9.045628846993405e6 2.066743078078189e7 0.0
2.066743078078189e7 7.287208424373006e6 0.0
0.0 0.0 0.0

-747444.678000137 1.0888024043259801e7 0.0
1.0888024043259801e7 -5.71012749454816e6 0.0
0.0 0.0 0.0

-1.0477585811757552e7 -2.1729919987875056e6 0.0
-2.1729919987875056e6 1.4314772736721862e7 0.0
0.0 0.0 0.0

-6.6055295024624765e6 9.171680359747833e6 0.0
9.171680359747833e6 5.877959945395143e7 0.0
0.0 0.0 0.0

-246321.83010769263 1.4665865866073161e7 0.0
1.4665865866073161e7 -8.490720096587492e6 0.0
0.0 0.0 0.0

2.5961403827531454e6 5.203495315606204e6 0.0
5.203495315606204e6 -7.338826386006892e6 0.0
0.0 0.0 0.0

-1.1451948824167993e7 5.245754056364767e6 0.0
5.245754056364767e6 3.6327061350646056e7 0.0
0.0 0.0 0.0

5.501822962630028e6 4.684589222508149e6 0.0
4.684589222508149e6 -1.8467953029982172e7 0.0
0.0 0.0 0.0

-4.474274377078441e6 1.5607069802063055e7 0.0
1.5607069802063055e7 -2.1007635422627637e6 0.0
0.0 0.0 0.0

-9.596893529093653e6 1.852618128959546e7 0.0
1.852618128959546e7 -853709.0094644916 0.0
0.0 0.0 0.0

-62623.296796280425 1.3552655849861298e7 0.0
1.3552655849861298e7 -1.0645989641901538e7 0.0
0.0 0.0 0.0

-3.9375265395958014e6 5.841078852424376e6 0.0
5.841078852424376e6 4.53709044817279e6 0.0
0.0 0.0 0.0

-2.2172642080017114e6 1.5626973393714078e7 0.0
1.5626973393714078e7 202364.48019944574 0.0
0.0 0.0 0.0

5.127060812697342e6 1.852890589733407e7 0.0
1.852890589733407e7 -6.957395642355332e6 0.0
0.0 0.0 0.0

-3.842126180123727e6 323351.1253650181 0.0
323351.1253650181 5.469124982797092e6 0.0
0.0 0.0 0.0

4.2849791363182925e6 1.343187050060267e7 0.0
1.343187050060267e7 1.5499928975567978e6 0.0
0.0 0.0 0.0

1.25802531656451e6 2.3614389598677564e7 0.0
2.3614389598677564e7 -8.713420102867723e6 0.0
0.0 0.0 0.0

5.31271695326817e6 4.799039336501913e6 0.0
4.799039336501913e6 -1.6850822004684944e7 0.0
0.0 0.0 0.0

-5.045898026273761e6 1.2819724575693566e7 0.0
1.2819724575693566e7 2.0415794550573279e6 0.0
0.0 0.0 0.0

3.7973739106778638e6 1.5223749200153945e7 0.0
1.5223749200153945e7 1.7254911794414412e7 0.0
0.0 0.0 0.0

2.948389322615044e7 5.730247444194539e6 0.0
5.730247444194539e6 -3.1321954899767004e6 0.0
0.0 0.0 0.0

-1.4826259193265673e7 1.9506406492850527e7 0.0
1.9506406492850527e7 1.3647344769749632e6 0.0
0.0 0.0 0.0

-5.291029731998526e6 1.6948894915294517e7 0.0
1.6948894915294517e7 3.245657683073316e6 0.0
0.0 0.0 0.0

2.483576188454763e6 9.77361048967506e6 0.0
9.77361048967506e6 -2.2991201285887096e7 0.0
0.0 0.0 0.0

-1.0874507256170802e7 1.934433026051211e7 0.0
1.934433026051211e7 7.309745860576141e6 0.0
0.0 0.0 0.0

2.841092519185421e6 1.364115029928999e7 0.0
1.364115029928999e7 3.6486854872701867e6 0.0
0.0 0.0 0.0

-8.896101807109557e6 5.3041074369007675e6 0.0
5.3041074369007675e6 4.5755041133661516e7 0.0
0.0 0.0 0.0

-4.855017640318872e6 1.6136216460624592e7 0.0
1.6136216460624592e7 6.920631777751548e6 0.0
0.0 0.0 0.0

304785.35322075454 1.3469671114865264e7 0.0
1.3469671114865264e7 5.400315288565827e6 0.0
0.0 0.0 0.0

-1.276564332481971e6 1.360655755579828e7 0.0
1.360655755579828e7 -6.060883469306109e6 0.0
0.0 0.0 0.0

3.032906860725386e6 1.4610247320550794e7 0.0
1.4610247320550794e7 -4.04534388151022e6 0.0
0.0 0.0 0.0

927018.7744107656 1.4367608149620486e7 0.0
1.4367608149620486e7 -6.14221901718682e6 0.0
0.0 0.0 0.0

-2.0328790823075268e6 1.0479828565060783e7 0.0
1.0479828565060783e7 -2.88678033029567e6 0.0
0.0 0.0 0.0

-2.1066220380908228e6 1.4824356096929591e7 0.0
1.4824356096929591e7 8.918067335053125e6 0.0
0.0 0.0 0.0

-36049.63561624858 1.3436861150556128e7 0.0
1.3436861150556128e7 95914.31117484967 0.0
0.0 0.0 0.0

-117767.61643178528 1.3081292284237133e7 0.0
1.3081292284237133e7 -2.721785136386683e6 0.0
0.0 0.0 0.0

-1.0339558241716735e6 1.2188631333863983e7 0.0
1.2188631333863983e7 -1.5140774965080734e7 0.0
0.0 0.0 0.0

-4.945155733111955e6 1.8818587457431298e7 0.0
1.8818587457431298e7 4.966461397162547e6 0.0
0.0 0.0 0.0

-7.567692810085008e6 1.725379517715032e7 0.0
1.725379517715032e7 -2.95285905817587e6 0.0
0.0 0.0 0.0

-8.172049450531541e6 2.1213208394456632e7 0.0
2.1213208394456632e7 6.874030075012516e6 0.0
0.0 0.0 0.0

-2.8487590644844584e6 1.4515238700581703e7 0.0
1.4515238700581703e7 6.2352191668220665e6 0.0
0.0 0.0 0.0

4.831331677880107e6 6.291405137704783e6 0.0
6.291405137704783e6 -1.7019001726382144e7 0.0
0.0 0.0 0.0

-641086.5238810922 1.4401554016499367e7 0.0
1.4401554016499367e7 -8.92081813951603e6 0.0
0.0 0.0 0.0

2.336971955615377e6 1.9620223199173294e7 0.0
1.9620223199173294e7 -6.400361455279388e6 0.0
0.0 0.0 0.0

-1.0552425732537448e7 -2.8816509825616437e6 0.0
-2.8816509825616437e6 1.6678405879112855e7 0.0
0.0 0.0 0.0

-3.3309629570718585e6 1.5557456249760905e7 0.0
1.5557456249760905e7 4.247891147361797e6 0.0
0.0 0.0 0.0

832722.9449214353 1.2951507947839467e7 0.0
1.2951507947839467e7 -327075.65149585356 0.0
0.0 0.0 0.0

2.730743339514157e6 1.5572812878799282e7 0.0
1.5572812878799282e7 -4.893560300896635e6 0.0
0.0 0.0 0.0

-1.1570059848895751e7 2.5778999028616315e6 0.0
2.5778999028616315e6 1.7688022160917975e7 0.0
0.0 0.0 0.0

1.140147678842999e6 1.3579670527158977e7 0.0
1.3579670527158977e7 7.1098208820135575e6 0.0
0.0 0.0 0.0

-6.430636273966684e6 1.5291003329352228e7 0.0
1.5291003329352228e7 -835733.5849648295 0.0
0.0 0.0 0.0

1.365671264068677e6 1.2079567955719689e7 0.0
1.2079567955719689e7 -1.4977265824954135e7 0.0
0.0 0.0 0.0

-1.5004501690670424e6 2.2811280953876067e7 0.0
2.2811280953876067e7 -1.3313346508397963e6 0.0
0.0 0.0 0.0

-8.2090481160201095e6 2.1769021285865974e7 0.0
2.1769021285865974e7 6.728937857859103e6 0.0
0.0 0.0 0.0

-1.091161322278152e7 3.519907482639152e6 0.0
3.519907482639152e6 1.5358826765774917e7 0.0
0.0 0.0 0.0

-2.664361578236727e6 1.6329738605406692e7 0.0
1.6329738605406692e7 -2.558151726481975e6 0.0
0.0 0.0 0.0

-7.031004040720458e6 2.189903665887509e7 0.0
2.189903665887509e7 5.958863546259895e6 0.0
0.0 0.0 0.0

-7.178297696788998e6 2.1482246513425343e7 0.0
2.1482246513425343e7 6.198255265253737e6 0.0
0.0 0.0 0.0

373346.75429426087 1.2961185969163047e7 0.0
1.2961185969163047e7 4.1865962950565717e6 0.0
0.0 0.0 0.0

2.400014143286946e6 1.0207342661831258e7 0.0
1.0207342661831258e7 -1.2340987174319007e7 0.0
0.0 0.0 0.0

2.1229101829624146e7 1.8129472147464696e7 0.0
1.8129472147464696e7 5.957153168445057e6 0.0
0.0 0.0 0.0

-2.6523851198056877e7 -1.0486127995440024e6 0.0
-1.0486127995440024e6 1.0204974127274398e7 0.0
0.0 0.0 0.0

-1.2515152073649526e7 1.871409909822462e7 0.0
1.871409909822462e7 6.320588411393416e6 0.0
0.0 0.0 0.0

5.157184572814394e6 4.668192212790028e6 0.0
4.668192212790028e6 -1.8460285208196722e7 0.0
0.0 0.0 0.0

-1.3194587694734223e6 1.4212025600498375e7 0.0
1.4212025600498375e7 -7.006804172129716e6 0.0
0.0 0.0 0.0

-9.765314745724998e6 1.976500452967549e7 0.0
1.976500452967549e7 7.364759110522479e6 0.0
0.0 0.0 0.0

-1.2116074950724125e7 399872.08493660245 0.0
399872.08493660245 1.9215968164862067e7 0.0
0.0 0.0 0.0

3.2082792375434916e6 8.580463512565188e6 0.0
8.580463512565188e6 -1.6217214915480897e7 0.0
0.0 0.0 0.0

-2.3337222507951586e6 1.1712415308190659e7 0.0
1.1712415308190659e7 -1.2460632924173467e7 0.0
0.0 0.0 0.0

2.8042386279471284e6 1.4435358270572338e7 0.0
1.4435358270572338e7 3.25799749344294e6 0.0
0.0 0.0 0.0

-2.1630334931296602e7 2.0258188324255925e7 0.0
2.0258188324255925e7 3.4276020216257963e6 0.0
0.0 0.0 0.0

-2.4768234803131064e6 9.09048358066035e6 0.0
9.09048358066035e6 -1.442274804956371e6 0.0
0.0 0.0 0.0

-7.858198535325598e6 1.9301714911029026e7 0.0
1.9301714911029026e7 6.643638870556679e6 0.0
0.0 0.0 0.0

-4.665111392030109e6 1.925765968755447e7 0.0
1.925765968755447e7 4.1874636795017505e6 0.0
0.0 0.0 0.0

-9.217026817666233e6 2.732118977075844e6 0.0
2.732118977075844e6 1.597924439403976e7 0.0
0.0 0.0 0.0

-4.484853225216363e6 1.5067549681069376e6 0.0
1.5067549681069376e6 5.826170659306231e6 0.0
0.0 0.0 0.0

1.762574826550684e6 1.04478384863137e7 0.0
1.04478384863137e7 -1.271867398553772e7 0.0
0.0 0.0 0.0

-1.0926330998787565e7 -342913.16443862696 0.0
-342913.16443862696 1.935004688137338e7 0.0
0.0 0.0 0.0

607336.6570293047 1.2463358092606531e7 0.0
1.2463358092606531e7 -1.1954238751983194e7 0.0
0.0 0.0 0.0

3.26552420943061e6 1.3710819134488598e7 0.0
1.3710819134488598e7 -2.7552997820013585e6 0.0
0.0 0.0 0.0

1.1869429257824738e6 7.660855163896572e6 0.0
7.660855163896572e6 -7.850934603412869e6 0.0
0.0 0.0 0.0

-1.125649423737645e7 1.8552023604743764e7 0.0
1.8552023604743764e7 6.59423780761786e6 0.0
0.0 0.0 0.0

-4.61552634237224e6 1.7941930342204466e7 0.0
1.7941930342204466e7 -1.7544088564886432e6 0.0
0.0 0.0 0.0

-11670.523755956137 1.0080725233855564e7 0.0
1.0080725233855564e7 -38901.2697854065 0.0
0.0 0.0 0.0

-580999.0569569784 1.2508070766725963e7 0.0
1.2508070766725963e7 -1.936663767566785e6 0.0
0.0 0.0 0.0

2.0865091270548198e6 1.061030123365051e7 0.0
1.061030123365051e7 -1.1684533577710714e7 0.0
0.0 0.0 0.0

-2.3699754667501254e6 1.191334571456882e7 0.0
1.191334571456882e7 -1.238297700190526e7 0.0
0.0 0.0 0.0

-9.450130749589708e6 -1.348116767513968e6 0.0
-1.348116767513968e6 1.2227550237739716e7 0.0
0.0 0.0 0.0

-3.296733732462177e6 9.54619012873297e6 0.0
9.54619012873297e6 1.8108216477684646e6 0.0
0.0 0.0 0.0

-1.0747574537153638e6 1.5653018425425101e7 0.0
1.5653018425425101e7 -6.637584383361863e6 0.0
0.0 0.0 0.0

3.5298301258917972e6 6.851275757539058e6 0.0
6.851275757539058e6 -1.2913664034474943e7 0.0
0.0 0.0 0.0

-2.237171836184722e7 1.5030650556417758e7 0.0
1.5030650556417758e7 2.6747598013689937e6 0.0
0.0 0.0 0.0

2.4953344458510005e6 1.4420535479492875e7 0.0
1.4420535479492875e7 -3.961361838648326e6 0.0
0.0 0.0 0.0

9.737023455168512e6 1.284731678890793e7 0.0
1.284731678890793e7 -2.6193263114823457e6 0.0
0.0 0.0 0.0

-1.049848440676509e7 2.3617705952156857e7 0.0
2.3617705952156857e7 8.258061170480342e6 0.0
0.0 0.0 0.0

-7.6071601528664455e6 2.2008991227476876e6 0.0
2.2008991227476876e6 1.0443543509091975e7 0.0
0.0 0.0 0.0

-666596.5976668482 1.3004396035611976e7 0.0
1.3004396035611976e7 -7.579588086697627e6 0.0
0.0 0.0 0.0

-3.738690203910764e6 1.609240061277993e7 0.0
1.609240061277993e7 -2.2542219162664027e6 0.0
0.0 0.0 0.0

-1.5526762909466173e7 2.01349061048325e7 0.0
2.01349061048325e7 9.074594255279582e6 0.0
0.0 0.0 0.0

-2.3845728463448784e6 1.290754571043606e7 0.0
1.290754571043606e7 -1.7936502125428542e7 0.0
0.0 0.0 0.0

11115.12170423218 1.3381228526853234e7 0.0
1.3381228526853234e7 2.8565830511495634e6 0.0
0.0 0.0 0.0

-1.098854439836129e6 1.2012863725342419e7 0.0
1.2012863725342419e7 -1.367546738726234e7 0.0
0.0 0.0 0.0

-1.3249503444192838e7 2.2206455120471798e7 0.0
2.2206455120471798e7 9.23207722702358e6 0.0
0.0 0.0 0.0

-2.8120839882187983e6 1.710376012795225e7 0.0
1.710376012795225e7 -3.560166787754169e6 0.0
0.0 0.0 0.0

-3.1530271471154355e6 1.6040863650204722e7 0.0
1.6040863650204722e7 -251156.21154793946 0.0
0.0 0.0 0.0

3.53885855935413e6 9.12155352427745e6 0.0
9.12155352427745e6 -1.73632942068684e7 0.0
0.0 0.0 0.0

-1.1930507112637224e7 2.6913081257473174e6 0.0
2.6913081257473174e6 2.235051320292777e7 0.0
0.0 0.0 0.0

-1.5392277111527582e6 1.295015990801707e7 0.0
1.295015990801707e7 -5.10690091097783e6 0.0
0.0 0.0 0.0

2.8041510334232915e6 1.4707030945894105e7 0.0
1.4707030945894105e7 -3.923775760106836e6 0.0
0.0 0.0 0.0

-1.9133769659486027e6 1.2667239872062944e7 0.0
1.2667239872062944e7 -1.5889796672749225e7 0.0
0.0 0.0 0.0

-8.733083984941825e6 1.9174506425808214e7 0.0
1.9174506425808214e7 6.41929894233532e6 0.0
0.0 0.0 0.0

5.712901145376535e6 2.2103248555399433e7 0.0
2.2103248555399433e7 -1.0289170940711677e7 0.0
0.0 0.0 0.0

-2.2368796885951553e6 1.6024016399711281e7 0.0
1.6024016399711281e7 -1.9559369160343553e6 0.0
0.0 0.0 0.0

-9.148939357605971e6 1.9982031357809696e7 0.0
1.9982031357809696e7 6.9609597463120185e6 0.0
0.0 0.0 0.0

-8.986408250437154e6 1.2914503820637006e7 0.0
1.2914503820637006e7 1.1592164276537526e7 0.0
0.0 0.0 0.0

1.1118121411317543e6 1.4001209141183801e7 0.0
1.4001209141183801e7 -5.468159470625275e6 0.0
0.0 0.0 0.0

-5.159075037790615e6 1.896169669423385e7 0.0
1.896169669423385e7 5.477572941966175e6 0.0
0.0 0.0 0.0

-1.463709649674328e6 1.2399713005934095e7 0.0
1.2399713005934095e7 -1.7204173717147306e7 0.0
0.0 0.0 0.0

4.5793737856575465e6 5.659539793363325e6 0.0
5.659539793363325e6 -1.6389557271885365e7 0.0
0.0 0.0 0.0

-1.9649446748073432e6 1.2524386690285213e7 0.0
1.2524386690285213e7 -1.4457624500976142e7 0.0
0.0 0.0 0.0

-5.522434614698904e6 2.0407087089865163e7 0.0
2.0407087089865163e7 5.041898148832461e6 0.0
0.0 0.0 0.0

-1.7687169333808278e6 1.3229118365538409e7 0.0
1.3229118365538409e7 -5.895723002490121e6 0.0
0.0 0.0 0.0

1.1190051958041717e6 1.1970613535445591e7 0.0
1.1970613535445591e7 3.7300175515077272e6 0.0
0.0 0.0 0.0

-1.2344543997843355e7 1.087663184345717e7 0.0
1.087663184345717e7 1.6344935746521715e7 0.0
0.0 0.0 0.0

-1.199264549855947e6 1.025909868337655e7 0.0
1.025909868337655e7 -2.5689183065628996e6 0.0
0.0 0.0 0.0

4.0283686734252158e6 1.3183204292044096e7 0.0
1.3183204292044096e7 1.8386725658992507e7 0.0
0.0 0.0 0.0

-1.130243537521799e7 -2.0838377977365805e6 0.0
-2.0838377977365805e6 2.128309744957435e7 0.0
0.0 0.0 0.0

5.197059391900703e6 5.121184158733327e6 0.0
5.121184158733327e6 -2.172855365601521e7 0.0
0.0 0.0 0.0

-592864.9044924863 1.2613786896948218e7 0.0
1.2613786896948218e7 -1.5156266694761511e7 0.0
0.0 0.0 0.0

-8.13377016288442e6 2.0123264895509336e7 0.0
2.0123264895509336e7 6.73501952345601e6 0.0
0.0 0.0 0.0

1.3066042342703689e7 1.093740191052089e7 0.0
1.093740191052089e7 -309725.88905036915 0.0
0.0 0.0 0.0

-1.201223968388355e7 1.3914969026844897e6 0.0
1.3914969026844897e6 1.6301656364269756e7 0.0
0.0 0.0 0.0

-1.2515145337116154e7 2.1220101176279522e7 0.0
2.1220101176279522e7 -1.238349367384958e6 0.0
0.0 0.0 0.0

-3.6906196895064116e6 1.5143831006515633e7 0.0
1.5143831006515633e7 4.270008881060362e6 0.0
0.0 0.0 0.0

-1.6413946065058002e7 2.1354074527950455e7 0.0
2.1354074527950455e7 9.86386743790187e6 0.0
0.0 0.0 0.0

5.121029882871317e6 5.408062050090642e6 0.0
5.408062050090642e6 -2.250314231179578e7 0.0
0.0 0.0 0.0

-1.5427444577955375e6 1.9580227688959178e7 0.0
1.9580227688959178e7 -2.037302249256291e6 0.0
0.0 0.0 0.0

-1.0851722342949875e7 8.8699340720521e6 0.0
8.8699340720521e6 3.190502264729739e7 0.0
0.0 0.0 0.0

-5.3380899506846145e6 1.8539631449966744e7 0.0
1.8539631449966744e7 6.592649811888048e6 0.0
0.0 0.0 0.0

-998274.5146046241 1.263582722351407e7 0.0
1.263582722351407e7 -4.0924003815313666e6 0.0
0.0 0.0 0.0

-1.3192344090127074e6 3.866008401315773e6 0.0
3.866008401315773e6 677609.549847791 0.0
0.0 0.0 0.0

238320.52200413705 1.3942656323329855e7 0.0
1.3942656323329855e7 5.657275703809355e6 0.0
0.0 0.0 0.0

-4.256064216082628e6 1.5850554340334665e7 0.0
1.5850554340334665e7 5.734751740796229e6 0.0
0.0 0.0 0.0

1.5828149693649067e6 8.166647251546852e6 0.0
8.166647251546852e6 -7.069897552356023e6 0.0
0.0 0.0 0.0

-1.717802539788919e6 1.4803983573554873e7 0.0
1.4803983573554873e7 -58979.83028156555 0.0
0.0 0.0 0.0

2.350797664183123e6 1.4369569179646794e7 0.0
1.4369569179646794e7 -4.041056323693256e6 0.0
0.0 0.0 0.0

-1.772178726550498e6 1.0084296563285228e7 0.0
1.0084296563285228e7 -1.1993716130324851e6 0.0
0.0 0.0 0.0

-259107.60680416878 1.207336124939658e7 0.0
1.207336124939658e7 -1.6258599175486663e7 0.0
0.0 0.0 0.0

-5.738717724858505e6 1.1936768220837021e7 0.0
1.1936768220837021e7 3.441326503587088e6 0.0
0.0 0.0 0.0

-9.343778292394288e6 1.27836880394676e7 0.0
1.27836880394676e7 1.4358928228621429e7 0.0
0.0 0.0 0.0

-9.041916023567231e6 -1.6711067409313624e6 0.0
-1.6711067409313624e6 1.3837911988493485e7 0.0
0.0 0.0 0.0

-6.348744524058165e6 1.595246623849079e7 0.0
1.595246623849079e7 782422.1019564355 0.0
0.0 0.0 0.0

-6.480989882307371e6 1.9226594268851135e7 0.0
1.9226594268851135e7 6.555860343109492e6 0.0
0.0 0.0 0.0

1.2019240975745008e6 1.975032551103019e7 0.0
1.975032551103019e7 -4.648109522356151e6 0.0
0.0 0.0 0.0

-1.192500824627437e7 1.0019838069555793e6 0.0
1.0019838069555793e6 1.743081210634714e7 0.0
0.0 0.0 0.0

-929284.7350900145 1.2484776839744072e7 0.0
1.2484776839744072e7 -1.687991674103028e7 0.0
0.0 0.0 0.0

-5.494977827345096e6 1.923185288661833e7 0.0
1.923185288661833e7 6.39867949377273e6 0.0
0.0 0.0 0.0

835623.983722562 1.2787773885717958e7 0.0
1.2787773885717958e7 -6.60287782477076e6 0.0
0.0 0.0 0.0

-1.231566323375056e6 1.1213881489334151e7 0.0
1.1213881489334151e7 -4.938636582753262e6 0.0
0.0 0.0 0.0

-5.586486304998063e6 2.283073850198485e6 0.0
2.283073850198485e6 7.7254419270511465e6 0.0
0.0 0.0 0.0

-8.141673002029377e6 2.077770544179319e7 0.0
2.077770544179319e7 7.091616042153636e6 0.0
0.0 0.0 0.0

-3.5849093273429438e6 1.5892875421472747e7 0.0
1.5892875421472747e7 645111.9331861832 0.0
0.0 0.0 0.0

210802.69645358995 1.395666520448521e7 0.0
1.395666520448521e7 7.318514983892143e6 0.0
0.0 0.0 0.0

486369.01884125033 4.359469580101552e6 0.0
4.359469580101552e6 -2.0564488407084714e6 0.0
0.0 0.0 0.0

1.5004640448435512e6 1.302358417642364e7 0.0
1.302358417642364e7 1.410432775430962e6 0.0
0.0 0.0 0.0

3.6516487468520515e6 8.227856254748519e6 0.0
8.227856254748519e6 -2.8954994766069673e7 0.0
0.0 0.0 0.0

-2.5884887854487887e6 2.199476066417308e7 0.0
2.199476066417308e7 -1.9992547501666828e6 0.0
0.0 0.0 0.0

-5.347416445726579e6 1.6665470880884074e7 0.0
1.6665470880884074e7 7.024813780745242e6 0.0
0.0 0.0 0.0

-5.810369733573042e6 6.703974324445106e6 0.0
6.703974324445106e6 4.245671534113733e6 0.0
0.0 0.0 0.0

-497858.9325048976 1.4500567159174215e7 0.0
1.4500567159174215e7 -2.1598526994777233e6 0.0
0.0 0.0 0.0

3.1267887583287414e6 9.44540206923116e6 0.0
9.44540206923116e6 -2.6713777765608553e7 0.0
0.0 0.0 0.0

663175.1261294372 1.2394274503283491e7 0.0
1.2394274503283491e7 -1.3858012074768003e7 0.0
0.0 0.0 0.0

-9.254062438390268e6 2.2442877802691434e7 0.0
2.2442877802691434e7 6.939689918430289e6 0.0
0.0 0.0 0.0

-1.4597716546719403e6 1.3054570622641608e7 0.0
1.3054570622641608e7 -4.865905876892905e6 0.0
0.0 0.0 0.0

-2.5163100569315213e6 1.616855435042924e7 0.0
1.616855435042924e7 -4.686166196450771e6 0.0
0.0 0.0 0.0

-5.192992157280379e6 1.679038462599875e7 0.0
1.679038462599875e7 4.904644458301414e6 0.0
0.0 0.0 0.0

19477.38384327432 1.3043083960024538e7 0.0
1.3043083960024538e7 -7.702727285735583e6 0.0
0.0 0.0 0.0

2.2596578740690043e6 1.4225437319537075e7 0.0
1.4225437319537075e7 2.5253277377133323e6 0.0
0.0 0.0 0.0

-5.578125726088347e6 1.67633933118472e7 0.0
1.67633933118472e7 -1.724332386307935e6 0.0
0.0 0.0 0.0

-1.6476953389201143e6 1.4930589329871366e7 0.0
1.4930589329871366e7 2.365281419981287e6 0.0
0.0 0.0 0.0

-1.099990307409488e7 5.703474709924079e6 0.0
5.703474709924079e6 3.703149318193107e7 0.0
0.0 0.0 0.0

-417241.5932204793 1.0999582940295579e7 0.0
1.0999582940295579e7 -4.615549500105526e6 0.0
0.0 0.0 0.0

-2.9287897009842577e6 1.1431550298990995e7 0.0
1.1431550298990995e7 -1.2555939149403898e7 0.0
0.0 0.0 0.0

-288397.21696172515 1.4057935982489709e7 0.0
1.4057935982489709e7 -9.749475062169274e6 0.0
0.0 0.0 0.0

-3.87641842381744e6 1.4271017976566477e7 0.0
1.4271017976566477e7 -4.952860034912132e6 0.0
0.0 0.0 0.0

-4.280193596305963e6 1.5539838499029018e7 0.0
1.5539838499029018e7 5.82653324972242e6 0.0
0.0 0.0 0.0

-162465.57707522326 1.2385492963434735e7 0.0
1.2385492963434735e7 -541551.8486515406 0.0
0.0 0.0 0.0

-4.784846313785171e6 1.9481836782243002e7 0.0
1.9481836782243002e7 4.774604708706282e6 0.0
0.0 0.0 0.0

-1.3988389410910576e6 1.5255514787028184e7 0.0
1.5255514787028184e7 -83581.62954267662 0.0
0.0 0.0 0.0

-1.11444179869538e7 -516334.7207295836 0.0
-516334.7207295836 3.673436808638209e7 0.0
0.0 0.0 0.0

-1.1925546474735104e7 4.202657877274817e6 0.0
4.202657877274817e6 1.412159210989451e7 0.0
0.0 0.0 0.0

886898.4424476712 1.3126177205119874e7 0.0
1.3126177205119874e7 -6.142739967366854e6 0.0
0.0 0.0 0.0

-1.654932145272976e7 1.7414525476944525e7 0.0
1.7414525476944525e7 6.512216926227277e6 0.0
0.0 0.0 0.0

-8.14094146197138e6 1.174487519777506e6 0.0
1.174487519777506e6 8.93777646249232e6 0.0
0.0 0.0 0.0

-1.2410672469974106e7 3.436222096128171e6 0.0
3.436222096128171e6 2.8825765097963493e7 0.0
0.0 0.0 0.0

-1.1323319822991872e6 -876617.5681806996 0.0
-876617.5681806996 205766.69969489647 0.0
0.0 0.0 0.0

-4.674638425147474e6 2.4411811852023085e6 0.0
2.4411811852023085e6 2.209780421895612e6 0.0
0.0 0.0 0.0

2.2966492717206916e6 9.47347875449641e6 0.0
9.47347875449641e6 -1.279347204603592e7 0.0
0.0 0.0 0.0

-4.279121950036264e6 1.608828002093096e7 0.0
1.608828002093096e7 400852.50581972464 0.0
0.0 0.0 0.0

-5.248673666899395e6 1.405669869817455e7 0.0
1.405669869817455e7 -3.105487493123444e6 0.0
0.0 0.0 0.0

-4.973380891473663e6 1.5473422674438806e7 0.0
1.5473422674438806e7 7.978167190754341e6 0.0
0.0 0.0 0.0

-658985.7761279079 1.2049822995575868e7 0.0
1.2049822995575868e7 -1.3213893455231076e7 0.0
0.0 0.0 0.0

-1.219192272931872e6 1.313768280620875e7 0.0
1.313768280620875e7 6.913289762769638e6 0.0
0.0 0.0 0.0

-4.0640101693035653e6 1.2508232857106242e7 0.0
1.2508232857106242e7 -1.6611326569317179e7 0.0
0.0 0.0 0.0

-2.6647334879075577e6 1.49888973037092e7 0.0
1.49888973037092e7 1.356536432010218e6 0.0
0.0 0.0 0.0

2.331341375997126e6 1.0108415053270765e7 0.0
1.0108415053270765e7 -3.1260586034374923e7 0.0
0.0 0.0 0.0

3.0290243506243695e6 9.57478737287659e6 0.0
9.57478737287659e6 -2.388659558227803e7 0.0
0.0 0.0 0.0

-1.4846950628482564e6 1.5706153544853227e7 0.0
1.5706153544853227e7 -4.241838060604356e6 0.0
0.0 0.0 0.0

-6.581298922288816e6 1.8869225720002867e7 0.0
1.8869225720002867e7 -395094.1268594649 0.0
0.0 0.0 0.0

-8.66874431874271e6 1.901333995004049e7 0.0
1.901333995004049e7 6.694318558556414e6 0.0
0.0 0.0 0.0

-4.356436260596495e6 9.809095631591367e6 0.0
9.809095631591367e6 1.4883919168287567e6 0.0
0.0 0.0 0.0

-2.784446922905172e6 3.605816485041352e6 0.0
3.605816485041352e6 4.358072490708522e6 0.0
0.0 0.0 0.0

981350.1605468392 1.2235581769442562e7 0.0
1.2235581769442562e7 -5.628984343853438e6 0.0
0.0 0.0 0.0

3.677802398999323e6 1.4933191902556539e7 0.0
1.4933191902556539e7 -4.410733248490053e6 0.0
0.0 0.0 0.0

-9.832168702441331e6 9.422296599312535e6 0.0
9.422296599312535e6 3.269954334020155e7 0.0
0.0 0.0 0.0

-2.056289400265365e6 1.4705310057449006e7 0.0
1.4705310057449006e7 4.961262164279215e6 0.0
0.0 0.0 0.0

-6.63082422463759e6 1.9256495087018803e7 0.0
1.9256495087018803e7 6.62231016672257e6 0.0
0.0 0.0 0.0

-1.7530829435373324e6 1.1278885238987697e7 0.0
1.1278885238987697e7 -9.215359828691322e6 0.0
0.0 0.0 0.0

-1.2283850522704648e7 6.440816324470745e6 0.0
6.440816324470745e6 2.6448803293342687e7 0.0
0.0 0.0 0.0

-2.0333710994838402e6 1.4482163080426272e7 0.0
1.4482163080426272e7 2.4728048856673026e6 0.0
0.0 0.0 0.0

-684731.1141399811 1.4080535721248193e7 0.0
1.4080535721248193e7 -9.264753961088993e6 0.0
0.0 0.0 0.0

1.0780878683430525e6 1.1803471364659151e7 0.0
1.1803471364659151e7 -1.5735165031621668e7 0.0
0.0 0.0 0.0

3.277654784459741e6 8.839102693220915e6 0.0
8.839102693220915e6 -2.3420075406296052e7 0.0
0.0 0.0 0.0

3.085233663441674e6 9.196765991051015e6 0.0
9.196765991051015e6 -1.96005738567363e7 0.0
0.0 0.0 0.0

-3.4133362461458133e6 1.4107415938142858e7 0.0
1.4107415938142858e7 -2.3689735210363723e7 0.0
0.0 0.0 0.0

-4.967678040158659e6 1.922542915364623e7 0.0
1.922542915364623e7 5.124267200710176e6 0.0
0.0 0.0 0.0

-2.697749865643826e6 1.6362715854088746e7 0.0
1.6362715854088746e7 -3.3848358681012327e6 0.0
0.0 0.0 0.0

320357.63743788004 1.3109462578053273e7 0.0
1.3109462578053273e7 -9.233468255524978e6 0.0
0.0 0.0 0.0

8.082696728165737e6 1.4968677306369161e7 0.0
1.4968677306369161e7 -5.028438216558384e6 0.0
0.0 0.0 0.0

-1.1249385202993402e7 1.5704580872557785e6 0.0
1.5704580872557785e6 3.2367564045624733e7 0.0
0.0 0.0 0.0

2.439936998552082e6 9.83808059112538e6 0.0
9.83808059112538e6 -2.729026869142635e7 0.0
0.0 0.0 0.0

3.420844356446597e6 9.342396038390774e6 0.0
9.342396038390774e6 -1.9324741201367166e7 0.0
0.0 0.0 0.0

-9.828961875144346e6 5.787300073874421e6 0.0
5.787300073874421e6 4.145346082123811e7 0.0
0.0 0.0 0.0

6.606963103067233e6 1.4613667824158613e7 0.0
1.4613667824158613e7 3.7996629018982262e6 0.0
0.0 0.0 0.0

-1.1317127883596387e7 4.606232406511318e6 0.0
4.606232406511318e6 3.024720480946499e7 0.0
0.0 0.0 0.0

-910056.472045655 3.010296546710203e6 0.0
3.010296546710203e6 -810477.7876237351 0.0
0.0 0.0 0.0

-5.107887317071075e6 1.97858963777111e7 0.0
1.97858963777111e7 4.199699805610079e6 0.0
0.0 0.0 0.0

2.94618103507274e6 8.985329854911096e6 0.0
8.985329854911096e6 -1.5534528582937207e7 0.0
0.0 0.0 0.0

-6.976734027272592e6 2.1244428809460152e7 0.0
2.1244428809460152e7 6.86783169883981e6 0.0
0.0 0.0 0.0

-1.1460171011153776e7 8.55841956970309e6 0.0
8.55841956970309e6 2.370913205993849e7 0.0
0.0 0.0 0.0

-1.0980600533800207e7 3.217228639193252e6 0.0
3.217228639193252e6 1.2825216659605261e7 0.0
0.0 0.0 0.0

-884573.2785001113 1.974993679779685e7 0.0
1.974993679779685e7 -2.655308310931563e6 0.0
0.0 0.0 0.0

-4.8738773404830545e6 1.5873752136457397e7 0.0
1.5873752136457397e7 7.840972075690646e6 0.0
0.0 0.0 0.0

-2.2324463532538833e6 1.7334677638292026e7 0.0
1.7334677638292026e7 -3.195599484931236e6 0.0
0.0 0.0 0.0

-5.752398563897718e6 1.74257189490135e7 0.0
1.74257189490135e7 5.898913672994386e6 0.0
0.0 0.0 0.0

-519862.13366349554 1.2607329849106895e7 0.0
1.2607329849106895e7 -1.4064165207775041e7 0.0
0.0 0.0 0.0

598401.5553069883 1.547800664256236e7 0.0
1.547800664256236e7 -5.713036030865401e6 0.0
0.0 0.0 0.0

522746.1556850411 1.4132979087067062e7 0.0
1.4132979087067062e7 1.7972280205752026e7 0.0
0.0 0.0 0.0

-5.350655310557602e6 1.2724589836528064e6 0.0
1.2724589836528064e6 1.1005297921589693e7 0.0
0.0 0.0 0.0

-4.4601108136856975e6 5.1129539864165755e6 0.0
5.1129539864165755e6 -980482.4973842608 0.0
0.0 0.0 0.0

-2.0425615570302822e6 1.356434293774784e7 0.0
1.356434293774784e7 -6.808538394413927e6 0.0
0.0 0.0 0.0

1.7515083688741976e6 1.3781777671555554e7 0.0
1.3781777671555554e7 5.838361583712962e6 0.0
0.0 0.0 0.0

-2.1557229990538387e6 2.24467362889942e7 0.0
2.24467362889942e7 -3.415349478720909e6 0.0
0.0 0.0 0.0

3.931550858060737e6 5.660547961564224e6 0.0
5.660547961564224e6 -1.0743732095946562e7 0.0
0.0 0.0 0.0

-5.85415893755944e6 2.1854168435513437e7 0.0
2.1854168435513437e7 5.9908279136995375e6 0.0
0.0 0.0 0.0

-2.7969653826680362e7 7.590906762702744e6 0.0
7.590906762702744e6 1.123611936127714e7 0.0
0.0 0.0 0.0

-394930.4302736763 1.420967284505524e7 0.0
1.420967284505524e7 -9.151078664307937e6 0.0
0.0 0.0 0.0

-1.1739265495100021e7 1.009567244162805e7 0.0
1.009567244162805e7 2.0170152352155227e7 0.0
0.0 0.0 0.0

881919.4748051222 1.3089279618396195e7 0.0
1.3089279618396195e7 -6.153287740609075e6 0.0
0.0 0.0 0.0

-4.69264299693943e6 1.613929564230032e7 0.0
1.613929564230032e7 6.249566574589772e6 0.0
0.0 0.0 0.0

-3.8998039843818573e6 1.5753304609985165e7 0.0
1.5753304609985165e7 -375268.3239621159 0.0
0.0 0.0 0.0

857852.6396059892 1.3585641808696702e7 0.0
1.3585641808696702e7 -6.94858177663914e6 0.0
0.0 0.0 0.0

5.290542243805808e6 4.95912573219795e6 0.0
4.95912573219795e6 -2.321746496549153e7 0.0
0.0 0.0 0.0

-786624.3099613504 9.79236863477779e6 0.0
9.79236863477779e6 -2.6220813804159095e6 0.0
0.0 0.0 0.0

3.41666172822613e6 1.5986697392802846e7 0.0
1.5986697392802846e7 -4.9849769461598005e6 0.0
0.0 0.0 0.0

155805.55159836262 1.3124661079918396e7 0.0
1.3124661079918396e7 -1.0128094823167467e7 0.0
0.0 0.0 0.0

118001.02983252518 1.4160571045182534e7 0.0
1.4160571045182534e7 6.161120471138977e6 0.0
0.0 0.0 0.0

2.5065085009997264e6 9.8225968190783e6 0.0
9.8225968190783e6 -2.427188588473105e7 0.0
0.0 0.0 0.0

-2.233432775909707e6 1.548835721732036e7 0.0
1.548835721732036e7 -4.446976025264237e6 0.0
0.0 0.0 0.0

-1.5722027555260384e6 1.5439932479510635e7 0.0
1.5439932479510635e7 1.0491256146985162e7 0.0
0.0 0.0 0.0

7.119763536062468e6 1.8789077917812552e7 0.0
1.8789077917812552e7 -8.287997273738164e6 0.0
0.0 0.0 0.0

2.9553217190150497e6 9.600648137570756e6 0.0
9.600648137570756e6 -2.1447573912236348e7 0.0
0.0 0.0 0.0

-2.368023971925894e7 6.269962034179201e6 0.0
6.269962034179201e6 1.0791632942297434e7 0.0
0.0 0.0 0.0

-1.2408814622743689e6 1.420858933843482e7 0.0
1.420858933843482e7 6.452572888623338e6 0.0
0.0 0.0 0.0

-6.7877757524131555e6 2.1801857201863356e7 0.0
2.1801857201863356e7 6.754852308415856e6 0.0
0.0 0.0 0.0

-1.0151167153550535e6 1.4462429119782533e7 0.0
1.4462429119782533e7 -6.064141093326643e6 0.0
0.0 0.0 0.0

-6.082484294238176e6 1.9531584887458693e7 0.0
1.9531584887458693e7 6.367024332704886e6 0.0
0.0 0.0 0.0

-1.0766998023126887e7 8.786420229785074e6 0.0
8.786420229785074e6 3.5130023905691214e7 0.0
0.0 0.0 0.0

1.4321147620351743e6 1.1345557802097458e7 0.0
1.1345557802097458e7 -1.0329345457174713e7 0.0
0.0 0.0 0.0

-2.2738042438038876e6 1.9887619150720693e7 0.0
1.9887619150720693e7 -2.528994475261339e6 0.0
0.0 0.0 0.0

-1.5119527684993977e6 8.822000455957096e6 0.0
8.822000455957096e6 -1.045866570327552e6 0.0
0.0 0.0 0.0

-2.2784599582037993e7 6.030567073389966e6 0.0
6.030567073389966e6 1.0841945955695637e7 0.0
0.0 0.0 0.0

-3.074072260097424e6 1.1077438004134659e7 0.0
1.1077438004134659e7 -1.1579940481269595e6 0.0
0.0 0.0 0.0

-1.1505942204937853e7 -716246.413799319 0.0
-716246.413799319 1.700399177147039e7 0.0
0.0 0.0 0.0

-1.0858350392804433e7 1.0926994510699397e7 0.0
1.0926994510699397e7 2.1308971920370456e7 0.0
0.0 0.0 0.0

-5.834125989030069e6 2.075865960287565e7 0.0
2.075865960287565e7 5.333341822660888e6 0.0
0.0 0.0 0.0

-6.697858394204409e6 2.222849598149326e7 0.0
2.222849598149326e7 6.517589555595916e6 0.0
0.0 0.0 0.0

-1.1172694995331055e7 7.426519019075328e6 0.0
7.426519019075328e6 2.7684027582267337e7 0.0
0.0 0.0 0.0

1.3609339319536705e6 1.0431430930951195e7 0.0
1.0431430930951195e7 -8.686122531424649e6 0.0
0.0 0.0 0.0

2.744831794906649e6 1.4027846050750181e7 0.0
1.4027846050750181e7 -2.328833974234502e6 0.0
0.0 0.0 0.0

-1.2177069033207959e6 9.808866237602182e6 0.0
9.808866237602182e6 -6.727144250567104e6 0.0
0.0 0.0 0.0

-381829.2366555285 7.2231283288152e6 0.0
7.2231283288152e6 -723837.8063267758 0.0
0.0 0.0 0.0

-5.199217672860865e6 2.0677060960859686e7 0.0
2.0677060960859686e7 5.419803919557633e6 0.0
0.0 0.0 0.0

-1.1672662093247678e7 1.190059882255743e7 0.0
1.190059882255743e7 1.5248901866382562e7 0.0
0.0 0.0 0.0

2.463821146679975e6 9.919398072615938e6 0.0
9.919398072615938e6 -2.192991869607767e7 0.0
0.0 0.0 0.0

-1.3879898347321697e7 1.759653804659779e7 0.0
1.759653804659779e7 5.10612149481829e6 0.0
0.0 0.0 0.0

-2.4728401266709035e6 1.78037307776185e7 0.0
1.78037307776185e7 -2.3882049234434753e6 0.0
0.0 0.0 0.0

4.897308156678656e6 5.960152236681661e6 0.0
5.960152236681661e6 -2.7287601738214955e7 0.0
0.0 0.0 0.0

-4.654178545570521e6 1.4596200821095597e7 0.0
1.4596200821095597e7 9.747986272679985e6 0.0
0.0 0.0 0.0

-4.1563496597824683e6 1.608847009857289e7 0.0
1.608847009857289e7 1.8959872477905988e6 0.0
0.0 0.0 0.0

-44092.16530437488 1.4305882801259957e7 0.0
1.4305882801259957e7 -9.259572879453126e6 0.0
0.0 0.0 0.0

-8.010998258051836e6 2.144412298186321e7 0.0
2.144412298186321e7 7.2881605796897e6 0.0
0.0 0.0 0.0

-3.4115022740408313e6 1.6093682752199437e7 0.0
1.6093682752199437e7 180148.45312246587 0.0
0.0 0.0 0.0

-6.4174199843245875e6 2.1118745932172723e7 0.0
2.1118745932172723e7 5.730593024562249e6 0.0
0.0 0.0 0.0

-737746.0742795435 6.683272134091552e6 0.0
6.683272134091552e6 -1.4331256344813237e6 0.0
0.0 0.0 0.0

1.5627266236601616e6 1.3818481072921459e7 0.0
1.3818481072921459e7 6.78347281968865e6 0.0
0.0 0.0 0.0

415519.30757615995 1.2679420092767645e7 0.0
1.2679420092767645e7 -1.2749953769782458e7 0.0
0.0 0.0 0.0

-2.176962684094577e6 1.083651920550369e7 0.0
1.083651920550369e7 -813628.4814036968 0.0
0.0 0.0 0.0

31319.254194737878 1.349827953542835e7 0.0
1.349827953542835e7 -1.0601059812321713e7 0.0
0.0 0.0 0.0

3.1634881761851646e6 7.199180998849856e6 0.0
7.199180998849856e6 -1.227001868866466e7 0.0
0.0 0.0 0.0

1.972610463683457e6 1.599571534001e7 0.0
1.599571534001e7 7.634108801257726e6 0.0
0.0 0.0 0.0

-9.413617462351438e6 -4.669474703679023e6 0.0
-4.669474703679023e6 2.2004128348058388e7 0.0
0.0 0.0 0.0

1.8945639470594851e6 1.4004914757389514e7 0.0
1.4004914757389514e7 7.829556728796186e6 0.0
0.0 0.0 0.0

-5.267260652153573e6 1.9603447334804464e7 0.0
1.9603447334804464e7 4.611480255607301e6 0.0
0.0 0.0 0.0

950252.9534453377 1.2531769517509311e7 0.0
1.2531769517509311e7 -1.4055892058645215e7 0.0
0.0 0.0 0.0

-2.0277705453072165e6 1.9333863087756697e7 0.0
1.9333863087756697e7 -1.758711109680212e6 0.0
0.0 0.0 0.0

-136211.5983953813 1.408262725575573e7 0.0
1.408262725575573e7 -1.8265292267714222e6 0.0
0.0 0.0 0.0

3.555626114003878e6 8.70222713430154e6 0.0
8.70222713430154e6 -1.5085705499179814e7 0.0
0.0 0.0 0.0

-2.7814748077288093e6 1.7450549902888965e7 0.0
1.7450549902888965e7 -3.380663822136716e6 0.0
0.0 0.0 0.0

311516.60972549394 1.290569008737767e7 0.0
1.290569008737767e7 -1.2053402778276477e7 0.0
0.0 0.0 0.0

-5.383906703301117e6 5.262258596018799e6 0.0
5.262258596018799e6 5.89370415663561e6 0.0
0.0 0.0 0.0

-1.800197100853098e6 1.559095878390475e7 0.0
1.559095878390475e7 8.0206488847970255e6 0.0
0.0 0.0 0.0

-4.948648993990036e6 1.63847049035609e7 0.0
1.63847049035609e7 6.099750687580388e6 0.0
0.0 0.0 0.0

-5.364309985134454e6 2.0016867622854274e7 0.0
2.0016867622854274e7 4.802808709206239e6 0.0
0.0 0.0 0.0

-2.0740285509172007e6 1.4189450376069892e7 0.0
1.4189450376069892e7 4.803151564435125e6 0.0
0.0 0.0 0.0

-1.2855496923657286e6 4.731528395964075e6 0.0
4.731528395964075e6 406930.6803236675 0.0
0.0 0.0 0.0

-1.2641494942923069e7 5.572186085057247e6 0.0
5.572186085057247e6 2.2522557848890547e7 0.0
0.0 0.0 0.0

-175458.24311281228 1.3822345650299245e7 0.0
1.3822345650299245e7 -9.895971139197337e6 0.0
0.0 0.0 0.0

1.5020983714388758e6 1.1885963042541245e7 0.0
1.1885963042541245e7 -2.9945292072191264e7 0.0
0.0 0.0 0.0

-1.2686369483840186e6 5.493039360989872e6 0.0
5.493039360989872e6 57172.1737311639 0.0
0.0 0.0 0.0

-9.420660583927594e6 -482224.9888865956 0.0
-482224.9888865956 1.164354757812626e7 0.0
0.0 0.0 0.0

-6.22196049619014e6 1.2340226791623116e7 0.0
1.2340226791623116e7 4.5720104714798685e6 0.0
0.0 0.0 0.0

-2.7611756299954713e6 1.79282408821693e7 0.0
1.79282408821693e7 -1.7683707096670745e6 0.0
0.0 0.0 0.0

-289242.0257360963 1.2190793925034419e7 0.0
1.2190793925034419e7 -2.0501553150963046e7 0.0
0.0 0.0 0.0

3.530687447384214e6 6.997630964371868e6 0.0
6.997630964371868e6 -1.09077354693213e7 0.0
0.0 0.0 0.0

-4.664290010723806e6 1.9663766953217573e7 0.0
1.9663766953217573e7 4.379562663232004e6 0.0
0.0 0.0 0.0

-2.162084017923856e6 1.7652554388356145e7 0.0
1.7652554388356145e7 -3.070563698488635e6 0.0
0.0 0.0 0.0

-1.1230007357930182e7 2.4671555283821207e7 0.0
2.4671555283821207e7 6.579113725208185e6 0.0
0.0 0.0 0.0

-4.8597753843071945e6 1.9871943299244635e7 0.0
1.9871943299244635e7 5.014378483511927e6 0.0
0.0 0.0 0.0

-1.429286462540035e7 1.976614701242192e7 0.0
1.976614701242192e7 2.860620896104715e6 0.0
0.0 0.0 0.0

-1.402212913196093e6 1.5455695923340144e7 0.0
1.5455695923340144e7 -1.0599662464803802e6 0.0
0.0 0.0 0.0

1.1002201412162893e6 1.1744882060458824e7 0.0
1.1744882060458824e7 -2.786563760370239e7 0.0
0.0 0.0 0.0

-2.689631281022665e6 1.0337008023454182e7 0.0
1.0337008023454182e7 -1.5650800496366867e6 0.0
0.0 0.0 0.0

-1.1928487683695108e7 -1.9944583113873263e6 0.0
-1.9944583113873263e6 2.6509689727941208e7 0.0
0.0 0.0 0.0

-1.2039723601408051e7 2.3426990319559798e6 0.0
2.3426990319559798e6 3.157244268865151e7 0.0
0.0 0.0 0.0

4.631488444824889e6 6.409667825413231e6 0.0
6.409667825413231e6 -2.1071570237595864e7 0.0
0.0 0.0 0.0

-5.290080772494171e6 1.7380993795010027e7 0.0
1.7380993795010027e7 6.889349571113084e6 0.0
0.0 0.0 0.0

-1.024762098555287e7 9.597624927706882e6 0.0
9.597624927706882e6 2.9755228663340196e7 0.0
0.0 0.0 0.0

189356.10358464066 1.3196706118120313e7 0.0
1.3196706118120313e7 -1.1326391461398486e7 0.0
0.0 0.0 0.0

-9.000019090786736e6 1.1627273185476743e7 0.0
1.1627273185476743e7 2.6441971280187406e7 0.0
0.0 0.0 0.0

-3.089071118708411e6 1.7569983897031553e7 0.0
1.7569983897031553e7 -2.755530260830899e6 0.0
0.0 0.0 0.0

-3.306890572628686e6 2.070927713202469e7 0.0
2.070927713202469e7 -411544.4858870432 0.0
0.0 0.0 0.0

-45641.571603237186 1.3986428288285315e7 0.0
1.3986428288285315e7 -2.707546319685107e6 0.0
0.0 0.0 0.0

-9.553053706444096e6 1.4013152333652857e6 0.0
1.4013152333652857e6 1.2357218916698467e7 0.0
0.0 0.0 0.0

-1.7617316152429478e6 1.4159661770723222e7 0.0
1.4159661770723222e7 5.81068415685072e6 0.0
0.0 0.0 0.0

-5.240934976942509e6 1.2001412696204366e7 0.0
1.2001412696204366e7 5.090555608477443e6 0.0
0.0 0.0 0.0

4.949324822043763e6 5.401645128868659e6 0.0
5.401645128868659e6 -1.930545852824008e7 0.0
0.0 0.0 0.0

1.1960696145865596e6 1.5169095405778268e7 0.0
1.5169095405778268e7 -5.5678658057722e6 0.0
0.0 0.0 0.0

-1.1810084658942375e7 1.2365067720541472e7 0.0
1.2365067720541472e7 9.250973180694634e6 0.0
0.0 0.0 0.0

-1.084993100920885e7 1.6515941217347449e7 0.0
1.6515941217347449e7 -1.4485315178058655e6 0.0
0.0 0.0 0.0

-4.791324221149764e6 1.9767961480999112e7 0.0
1.9767961480999112e7 3.2312324378715227e6 0.0
0.0 0.0 0.0

640368.1674878136 1.0141299150281005e7 0.0
1.0141299150281005e7 -8.309495756800581e6 0.0
0.0 0.0 0.0

-2.5001855057432735e6 1.5265681401865236e7 0.0
1.5265681401865236e7 -735861.3190495198 0.0
0.0 0.0 0.0

-3.472817083606962e6 2.0711294506340303e7 0.0
2.0711294506340303e7 1.522996099876284e6 0.0
0.0 0.0 0.0

-5.494338768172512e6 1.4499137284831421e7 0.0
1.4499137284831421e7 1.0956163428533752e7 0.0
0.0 0.0 0.0

-2.551543285755385e6 1.433981335047551e7 0.0
1.433981335047551e7 5.029728385947199e6 0.0
0.0 0.0 0.0

1.3797011461016485e6 9.89309359787571e6 0.0
9.89309359787571e6 -7.926223483525211e6 0.0
0.0 0.0 0.0

-4.933666665987404e6 2.1824446778834697e7 0.0
2.1824446778834697e7 4.520602501444199e6 0.0
0.0 0.0 0.0

-1.1045471902852122e7 -3.074358260332904e6 0.0
-3.074358260332904e6 1.8490016031169727e7 0.0
0.0 0.0 0.0

4.803961056752514e6 6.054263674820421e6 0.0
6.054263674820421e6 -1.5761567879818512e7 0.0
0.0 0.0 0.0

-3.6172239724243707e6 1.9118759286262862e7 0.0
1.9118759286262862e7 1.0262513151590796e6 0.0
0.0 0.0 0.0

619571.0645908043 1.2841061743993312e7 0.0
1.2841061743993312e7 -1.300495508692122e7 0.0
0.0 0.0 0.0

-189807.16109226499 3.400313389806317e6 0.0
3.400313389806317e6 -615140.4663644806 0.0
0.0 0.0 0.0

1.2337792798083555e6 8.041284013523601e6 0.0
8.041284013523601e6 -8.170452368918055e6 0.0
0.0 0.0 0.0

-5.739943333138047e6 1.817571780775342e7 0.0
1.817571780775342e7 1.233956848283102e6 0.0
0.0 0.0 0.0

3.1443085985335093e6 9.446720628389586e6 0.0
9.446720628389586e6 -1.474440007996191e7 0.0
0.0 0.0 0.0

1.9360106089000937e6 1.5891081259852327e7 0.0
1.5891081259852327e7 7.389326440298741e6 0.0
0.0 0.0 0.0

-1.6738187459584964e6 6.957103721925156e6 0.0
6.957103721925156e6 -1.8415265761543638e6 0.0
0.0 0.0 0.0

-1.6140187523055212e6 4.868677239442764e6 0.0
4.868677239442764e6 -845598.8499843916 0.0
0.0 0.0 0.0

23875.554728189018 1.9792644592597026e7 0.0
1.9792644592597026e7 -3.4320913395588e6 0.0
0.0 0.0 0.0

-1.0342819927250942e7 -2.1621537412331495e6 0.0
-2.1621537412331495e6 1.851322184005153e7 0.0
0.0 0.0 0.0

744106.1929214154 1.2088148250353009e7 0.0
1.2088148250353009e7 -8.829624547324777e6 0.0
0.0 0.0 0.0

704738.535955661 1.1988612041614257e7 0.0
1.1988612041614257e7 243634.97490349656 0.0
0.0 0.0 0.0

4.685482162957851e6 1.715111055551747e7 0.0
1.715111055551747e7 -5.988408230965095e6 0.0
0.0 0.0 0.0

868795.7252640501 1.2721554028650174e7 0.0
1.2721554028650174e7 -1.106192914896776e7 0.0
0.0 0.0 0.0

2.845822906043034e6 1.4512049720572388e7 0.0
1.4512049720572388e7 1.1283238337462176e7 0.0
0.0 0.0 0.0

-7.085966853233215e6 1.9339643893016256e7 0.0
1.9339643893016256e7 6.524300958060407e6 0.0
0.0 0.0 0.0

-1.0337824094229966e7 -2.3962312453485862e6 0.0
-2.3962312453485862e6 2.4448967348029844e7 0.0
0.0 0.0 0.0

-3.3876216233411976e6 1.9155853799270064e7 0.0
1.9155853799270064e7 606085.6155481876 0.0
0.0 0.0 0.0

-2.8246040211095894e6 1.5053623253367899e7 0.0
1.5053623253367899e7 9.198156213778166e6 0.0
0.0 0.0 0.0

2.3716628633020474e6 9.13246028512192e6 0.0
9.13246028512192e6 -1.247873532111693e7 0.0
0.0 0.0 0.0

5.4995167672837805e6 5.385066394204415e6 0.0
5.385066394204415e6 -2.113404448292941e7 0.0
0.0 0.0 0.0

-3.725411525424096e6 1.5925108475780074e7 0.0
1.5925108475780074e7 -822876.1000778689 0.0
0.0 0.0 0.0

-6.0059559482566845e6 8.035539372059822e6 0.0
8.035539372059822e6 7.050909489991364e6 0.0
0.0 0.0 0.0

-1.169558921157537e7 1.1148994314568134e7 0.0
1.1148994314568134e7 1.826612690691992e7 0.0
0.0 0.0 0.0

954947.7193567343 1.2320970094966756e7 0.0
1.2320970094966756e7 -1.4769521572922295e7 0.0
0.0 0.0 0.0

1.3290355888567977e6 1.1300937029206108e7 0.0
1.1300937029206108e7 -2.635675525373754e7 0.0
0.0 0.0 0.0

-3.34372670009725e6 1.953493516838918e7 0.0
1.953493516838918e7 703923.5894610076 0.0
0.0 0.0 0.0

-1.696873062976492e6 1.421486738692753e7 0.0
1.421486738692753e7 3.552293170312268e6 0.0
0.0 0.0 0.0

-2.656322919798209e7 7.226225153396995e6 0.0
7.226225153396995e6 1.0996848911197975e7 0.0
0.0 0.0 0.0

3.197465269948823e6 1.4868074122711854e7 0.0
1.4868074122711854e7 1.3419973703777263e7 0.0
0.0 0.0 0.0

-2.3679078374854177e7 1.797582961408171e7 0.0
1.797582961408171e7 9.862186432222236e6 0.0
0.0 0.0 0.0

3.1724910110408077e6 8.976275463859621e6 0.0
8.976275463859621e6 -1.752643275152864e7 0.0
0.0 0.0 0.0

4.721797585370567e6 4.813083890725542e6 0.0
4.813083890725542e6 -656407.7102575994 0.0
0.0 0.0 0.0

-1.0090364440335207e7 -2.76708109184712e6 0.0
-2.76708109184712e6 6.52552159151529e6 0.0
0.0 0.0 0.0

-4.732578842448088e6 7.229076741129899e6 0.0
7.229076741129899e6 5.129840579746041e6 0.0
0.0 0.0 0.0

-1.0900715204460314e7 -906366.2487036776 0.0
-906366.2487036776 2.3086089803556908e7 0.0
0.0 0.0 0.0

-1.1715672409485066e7 -572950.1085262749 0.0
-572950.1085262749 1.830721855697891e7 0.0
0.0 0.0 0.0

423414.64291860815 1.3624107322669122e7 0.0
1.3624107322669122e7 -1.083368219230795e7 0.0
0.0 0.0 0.0

-1.8322062198283954e6 1.0163122553628512e7 0.0
1.0163122553628512e7 -6.107354330681177e6 0.0
0.0 0.0 0.0

595063.3539275462 1.2419293769711439e7 0.0
1.2419293769711439e7 1.9835446285261032e6 0.0
0.0 0.0 0.0

1.0696129404590894e6 1.1901095314530982e7 0.0
1.1901095314530982e7 -1.8625595639428324e6 0.0
0.0 0.0 0.0

-3.269614381238795e6 1.989119877285526e7 0.0
1.989119877285526e7 825579.5553959019 0.0
0.0 0.0 0.0

-7.914569313276692e6 6.411777914712585e6 0.0
6.411777914712585e6 1.1452790510128925e7 0.0
0.0 0.0 0.0

-3315.9120727414265 1.313638200776978e7 0.0
1.313638200776978e7 -1.0409078081804473e7 0.0
0.0 0.0 0.0

-5.301776267042381e6 1.7437019744369555e7 0.0
1.7437019744369555e7 3.5008005026417114e6 0.0
0.0 0.0 0.0

3.883626624544955e6 7.791102846106678e6 0.0
7.791102846106678e6 -1.9965574731538143e7 0.0
0.0 0.0 0.0

-1.057812483303893e7 -1.5142085717486835e6 0.0
-1.5142085717486835e6 2.0174179945527647e7 0.0
0.0 0.0 0.0

-3.1412036163475295e6 1.8761054711246636e7 0.0
1.8761054711246636e7 -188954.35200746532 0.0
0.0 0.0 0.0

-1.4536672160254214e6 1.4196971856882503e7 0.0
1.4196971856882503e7 2.296033903468945e6 0.0
0.0 0.0 0.0

-1.2045237916198212e6 1.4352517632078988e7 0.0
1.4352517632078988e7 1.0933454958366463e6 0.0
0.0 0.0 0.0

-3.7244559621435003e6 1.7232152882054277e7 0.0
1.7232152882054277e7 -3.8359553711726493e6 0.0
0.0 0.0 0.0

1.8991656128122276e6 1.2953721442290433e7 0.0
1.2953721442290433e7 7.133066774518977e6 0.0
0.0 0.0 0.0

-2.4351020623985017e6 1.6370985744188925e7 0.0
1.6370985744188925e7 -3.3258220353535223e6 0.0
0.0 0.0 0.0

-1.1640090068052486e7 9.707685225794867e6 0.0
9.707685225794867e6 2.1864386321779214e7 0.0
0.0 0.0 0.0

-1.1600209255172886e7 -2.5413204310729695e6 0.0
-2.5413204310729695e6 2.388761098565525e7 0.0
0.0 0.0 0.0

2.9227858178439103e6 8.867025205261432e6 0.0
8.867025205261432e6 -1.2050820806105504e7 0.0
0.0 0.0 0.0

4.835906997512705e6 5.926121257249965e6 0.0
5.926121257249965e6 -2.183439348450541e7 0.0
0.0 0.0 0.0

305192.8142853137 1.3393637103805106e7 0.0
1.3393637103805106e7 -9.564318054365577e6 0.0
0.0 0.0 0.0

1.395569863887298e6 1.480097944747906e7 0.0
1.480097944747906e7 4.796778101860244e6 0.0
0.0 0.0 0.0

3.2975721070227907e6 6.569011969446873e6 0.0
6.569011969446873e6 -1.159868883265368e7 0.0
0.0 0.0 0.0

-2.5725280896304385e6 1.2718113864314782e7 0.0
1.2718113864314782e7 -1.614393494888153e7 0.0
0.0 0.0 0.0

1.5350457536924519e6 1.099540181542487e7 0.0
1.099540181542487e7 -2.4866094500456046e7 0.0
0.0 0.0 0.0

-5.144336083258832e6 1.1528509381446576e7 0.0
1.1528509381446576e7 2.34313286784341e6 0.0
0.0 0.0 0.0

-5.898259137645742e6 1.753956960729887e7 0.0
1.753956960729887e7 6.688627675418615e6 0.0
0.0 0.0 0.0

-3.5342006253891597e6 1.6960188214492165e7 0.0
1.6960188214492165e7 -2.962902844959341e6 0.0
0.0 0.0 0.0

-1.1082171080706159e7 -644234.3812656963 0.0
-644234.3812656963 3.1519074592416745e7 0.0
0.0 0.0 0.0

1.7660598586379774e6 1.0810552509385318e7 0.0
1.0810552509385318e7 -2.3592536942545198e7 0.0
0.0 0.0 0.0

-1.1559438548262991e7 9.22919396502275e6 0.0
9.22919396502275e6 2.3621404494940855e7 0.0
0.0 0.0 0.0

-1.0385893876225076e6 1.4510133908298425e7 0.0
1.4510133908298425e7 -56623.5947772346 0.0
0.0 0.0 0.0

-3.806783038630238e6 1.967722000581818e7 0.0
1.967722000581818e7 490756.1282092207 0.0
0.0 0.0 0.0

-1.004300238780091e7 1.8658995338688526e7 0.0
1.8658995338688526e7 6.156819080580832e6 0.0
0.0 0.0 0.0

-1.2077197628616795e7 1.008793376396369e7 0.0
1.008793376396369e7 1.8445765007777303e7 0.0
0.0 0.0 0.0

-2.0410247208707954e6 1.0687771460687429e7 0.0
1.0687771460687429e7 -9.92320641054887e6 0.0
0.0 0.0 0.0

1.0690172941566692e6 1.3298598956854329e7 0.0
1.3298598956854329e7 4.625775381792618e6 0.0
0.0 0.0 0.0

4.360574521823421e6 6.77506041118183e6 0.0
6.77506041118183e6 -2.0375314139385823e7 0.0
0.0 0.0 0.0

1.7151073116816944e6 7.650309031155671e6 0.0
7.650309031155671e6 -8.843310647407776e6 0.0
0.0 0.0 0.0

-1.1853573541060688e7 6.752413587595221e6 0.0
6.752413587595221e6 2.3961207420848455e7 0.0
0.0 0.0 0.0

-4.4381774726181105e6 1.5305919065052174e7 0.0
1.5305919065052174e7 6.842992316601869e6 0.0
0.0 0.0 0.0

-1.9253527427157257e7 1.684347118362199e7 0.0
1.684347118362199e7 5.993029433102984e6 0.0
0.0 0.0 0.0

1.3949267369053643e6 1.1523145535795815e7 0.0
1.1523145535795815e7 -1.5995293262498178e7 0.0
0.0 0.0 0.0

3.3904865066333413e6 8.667562911814947e6 0.0
8.667562911814947e6 -1.944533334867573e7 0.0
0.0 0.0 0.0

1.9505613181054164e6 1.071709129765875e7 0.0
1.071709129765875e7 -2.240690250477385e7 0.0
0.0 0.0 0.0

2.7700855328861964e6 5.123306706567101e6 0.0
5.123306706567101e6 -7.916663284687726e6 0.0
0.0 0.0 0.0

-948373.8530307931 1.4590702445654416e7 0.0
1.4590702445654416e7 -6.405329324803896e6 0.0
0.0 0.0 0.0

-316468.4225281507 1.5505510454191094e7 0.0
1.5505510454191094e7 -6.793633433179088e6 0.0
0.0 0.0 0.0

-1.6514728500164455e7 2.273074130138211e7 0.0
2.273074130138211e7 1.0199585030299596e7 0.0
0.0 0.0 0.0

1.8739402909170457e6 5.163543255988341e6 0.0
5.163543255988341e6 -5.62429057518618e6 0.0
0.0 0.0 0.0

610336.9782298068 1.3079503372856993e7 0.0
1.3079503372856993e7 -1.2259342238703668e7 0.0
0.0 0.0 0.0

-1.0894269051374659e7 1.2273536177052153e7 0.0
1.2273536177052153e7 1.579086772170667e7 0.0
0.0 0.0 0.0

-1.0297071241881177e7 -686112.0181411663 0.0
-686112.0181411663 1.616345865836569e7 0.0
0.0 0.0 0.0

4.725083046424715e6 5.7752054124298515e6 0.0
5.7752054124298515e6 -1.8660660397887375e7 0.0
0.0 0.0 0.0

-1.0884642338850703e7 1.1448435325514325e6 0.0
1.1448435325514325e6 1.65086862594911e7 0.0
0.0 0.0 0.0

-1.1170997069159802e7 973467.195358121 0.0
973467.195358121 2.0071325670704514e7 0.0
0.0 0.0 0.0

-5.93922243081859e6 7.153710321442284e6 0.0
7.153710321442284e6 7.773086939419681e6 0.0
0.0 0.0 0.0

-5.236727522041714e6 1.6312494633279745e7 0.0
1.6312494633279745e7 7.763262098279124e6 0.0
0.0 0.0 0.0

-1.3628580259311944e6 9.330468340919299e6 0.0
9.330468340919299e6 -1.560640728855694e6 0.0
0.0 0.0 0.0

1.1517240709013658e7 5.685711680285748e6 0.0
5.685711680285748e6 -2.9826749209933174e6 0.0
0.0 0.0 0.0

-2.285284787953196e7 -1.6058714548950342e6 0.0
-1.6058714548950342e6 9.203182466794793e6 0.0
0.0 0.0 0.0

2.927209574553716e6 7.37041312786058e6 0.0
7.37041312786058e6 -9.356622012387889e6 0.0
0.0 0.0 0.0

4.018117230356436e6 8.327790017952546e6 0.0
8.327790017952546e6 -1.8930312588497266e7 0.0
0.0 0.0 0.0

4.529771827398208e6 7.343197679016051e6 0.0
7.343197679016051e6 -1.9288332095348306e7 0.0
0.0 0.0 0.0

642541.5427301365 1.3523316999403383e6 0.0
1.3523316999403383e6 595170.179418052 0.0
0.0 0.0 0.0

-1.6514355077941108e6 -604855.4695120383 0.0
-604855.4695120383 2.2961817335304334e6 0.0
0.0 0.0 0.0

-1.1328478606696404e6 1.2557134251127472e7 0.0
1.2557134251127472e7 -1.5491907170350831e7 0.0
0.0 0.0 0.0

4.790073721391515e6 5.92527081304454e6 0.0
5.92527081304454e6 -2.0692709912585355e7 0.0
0.0 0.0 0.0

-1.2589217736897424e7 1.8010872949990615e7 0.0
1.8010872949990615e7 -1.4272593189146966e6 0.0
0.0 0.0 0.0

-7.611266693979522e6 1.4439332663171953e7 0.0
1.4439332663171953e7 1.01902227608191e7 0.0
0.0 0.0 0.0

-2.9580277319850936e6 1.833686493332175e7 0.0
1.833686493332175e7 -979646.3201180906 0.0
0.0 0.0 0.0

1.4837290223587584e6 1.2865495994757943e7 0.0
1.2865495994757943e7 6.104576919718733e6 0.0
0.0 0.0 0.0

4.7059095326368855e6 9.233952273972102e6 0.0
9.233952273972102e6 1.9405819186516819e6 0.0
0.0 0.0 0.0

-7.571054791076794e6 1.9242786294472884e7 0.0
1.9242786294472884e7 -887369.2372283288 0.0
0.0 0.0 0.0

-1.1508754476348039e7 1.6654221022610497e6 0.0
1.6654221022610497e6 2.6912230106004253e7 0.0
0.0 0.0 0.0

-5.554680589757668e6 1.6946347732897952e7 0.0
1.6946347732897952e7 6.46408102459544e6 0.0
0.0 0.0 0.0

38495.13123839628 1.5485377520740908e7 0.0
1.5485377520740908e7 -6.461960822524419e6 0.0
0.0 0.0 0.0

-1.028240274932898e7 1.2561845242715972e7 0.0
1.2561845242715972e7 1.5192729675500251e7 0.0
0.0 0.0 0.0

-8.846227605609132e6 -2.7854520895956676e6 0.0
-2.7854520895956676e6 1.3737665411938565e7 0.0
0.0 0.0 0.0

-3.905101350998883e6 1.891704364523977e7 0.0
1.891704364523977e7 226817.87252026796 0.0
0.0 0.0 0.0

3.41361380161706e6 8.582912695922311e6 0.0
8.582912695922311e6 -1.837777232152055e7 0.0
0.0 0.0 0.0

-1.9633944336242215e6 1.793770958741272e7 0.0
1.793770958741272e7 -3.095575054986665e6 0.0
0.0 0.0 0.0

4.997221647623149e6 6.430685085683939e6 0.0
6.430685085683939e6 -1.9827391496521328e7 0.0
0.0 0.0 0.0

1.2637560849417504e6 1.4094890961925799e7 0.0
1.4094890961925799e7 7.152118195815821e6 0.0
0.0 0.0 0.0

-1.9002489509738672e6 1.492020196052062e7 0.0
1.492020196052062e7 -5.287651255536922e6 0.0
0.0 0.0 0.0

-6.844417018946659e6 2.76977340609313e6 0.0
2.76977340609313e6 6.958693596769648e6 0.0
0.0 0.0 0.0

-550243.0464863584 1.0401563647165604e7 0.0
1.0401563647165604e7 -6.385163155772543e6 0.0
0.0 0.0 0.0

5.385353942677286e6 5.446018471591908e6 0.0
5.446018471591908e6 -1.995762856502189e7 0.0
0.0 0.0 0.0

2.837935624140064e6 1.821696575620983e7 0.0
1.821696575620983e7 -5.623976120755916e6 0.0
0.0 0.0 0.0

2.9618848585888925e6 6.910595166362036e6 0.0
6.910595166362036e6 -1.098250133604303e7 0.0
0.0 0.0 0.0

-1.033902238388309e7 3.1759298179252716e6 0.0
3.1759298179252716e6 1.1862783342904754e7 0.0
0.0 0.0 0.0

-5.209443042329971e6 1.9183719843881626e7 0.0
1.9183719843881626e7 4.329072058270083e6 0.0
0.0 0.0 0.0

1.9221233365848335e6 1.0627240014653716e7 0.0
1.0627240014653716e7 -2.1212548767110456e7 0.0
0.0 0.0 0.0

-2.8346997355454667e6 1.090632974637602e7 0.0
1.090632974637602e7 -9.448999263876578e6 0.0
0.0 0.0 0.0

1.200352871623444e6 1.2742649871647429e7 0.0
1.2742649871647429e7 4.001176397658205e6 0.0
0.0 0.0 0.0

-1.9039016310050953e6 9.591728062729796e6 0.0
9.591728062729796e6 -660301.5152747512 0.0
0.0 0.0 0.0

-5.887351141124994e6 1.0411668411254598e7 0.0
1.0411668411254598e7 3.7947003151514195e6 0.0
0.0 0.0 0.0

-743517.0553379711 1.4576898062486006e7 0.0
1.4576898062486006e7 7.39411672153691e6 0.0
0.0 0.0 0.0

-8.21375236312623e6 -1.0245920932772955e6 0.0
-1.0245920932772955e6 1.2484766325060407e7 0.0
0.0 0.0 0.0

360371.9149632951 1.3289041487760387e7 0.0
1.3289041487760387e7 1.9015167249215262e6 0.0
0.0 0.0 0.0

-6.350514415845361e6 1.613164748933314e7 0.0
1.613164748933314e7 8.526773879070245e6 0.0
0.0 0.0 0.0

2.5798510660526985e6 6.935534351681473e6 0.0
6.935534351681473e6 -1.0041151182426937e7 0.0
0.0 0.0 0.0

-1.145478038070152e7 -11029.061804993822 0.0
-11029.061804993822 1.4957637329504082e7 0.0
0.0 0.0 0.0

-1.8202493884367174e6 1.592375673699322e7 0.0
1.592375673699322e7 -3.182461953685539e6 0.0
0.0 0.0 0.0

-1.0589707712440124e7 1.2622973762081712e7 0.0
1.2622973762081712e7 1.4166635525432235e7 0.0
0.0 0.0 0.0

-2.191150729815953e6 1.4678086276873939e7 0.0
1.4678086276873939e7 7.258713531777795e6 0.0
0.0 0.0 0.0

-1.1350716188154178e7 2.9966738038387476e6 0.0
2.9966738038387476e6 1.6650735974161211e7 0.0
0.0 0.0 0.0

-775121.1753767321 1.53366475588099e7 0.0
1.53366475588099e7 -7.029699380848407e6 0.0
0.0 0.0 0.0

-6.037932353946455e6 1.9044054855479646e7 0.0
1.9044054855479646e7 6.521781025549842e6 0.0
0.0 0.0 0.0

-1.1865039492014186e7 5.107315566887446e6 0.0
5.107315566887446e6 2.3724764469659727e7 0.0
0.0 0.0 0.0

-6.949154127498617e6 8.51482804096959e6 0.0
8.51482804096959e6 6.232851353985142e6 0.0
0.0 0.0 0.0

-1.16346697004677e7 -1.2375541008954614e6 0.0
-1.2375541008954614e6 2.21695125715926e7 0.0
0.0 0.0 0.0

315164.90443263063 1.2806842675579194e7 0.0
1.2806842675579194e7 -1.1198541301873164e7 0.0
0.0 0.0 0.0

-5.654997636683324e6 1.7201438383232165e7 0.0
1.7201438383232165e7 7.105425246283801e6 0.0
0.0 0.0 0.0

-954493.642345035 1.4727747075520722e7 0.0
1.4727747075520722e7 -1.0712576041467162e6 0.0
0.0 0.0 0.0

3.456380061261657e6 7.592914594224182e6 0.0
7.592914594224182e6 -1.1594207320291055e7 0.0
0.0 0.0 0.0

-8.954115475068368e6 -3.6239666167824836e6 0.0
-3.6239666167824836e6 1.7123930544380594e7 0.0
0.0 0.0 0.0

-9.628706798159247e6 1.180654753039064e7 0.0
1.180654753039064e7 2.409760556540427e7 0.0
0.0 0.0 0.0

-1.1390000615449555e7 8.014220859919126e6 0.0
8.014220859919126e6 2.54501259026879e7 0.0
0.0 0.0 0.0

-1.9660020743713514e6 1.2729535844222602e7 0.0
1.2729535844222602e7 6.165909883450346e6 0.0
0.0 0.0 0.0

-1.191637502107447e7 1.8762095626680476e6 0.0
1.8762095626680476e6 1.514504062137711e7 0.0
0.0 0.0 0.0

-4.628908205461935e6 1.0120171949475171e7 0.0
1.0120171949475171e7 4.126868319712837e6 0.0
0.0 0.0 0.0

-1.7801644841827052e6 1.4212618971484335e7 0.0
1.4212618971484335e7 -3.3462467907295786e6 0.0
0.0 0.0 0.0

447043.6753044822 1.1741102772133827e7 0.0
1.1741102772133827e7 -9.380432598084847e6 0.0
0.0 0.0 0.0

-5.328420070311572e6 1.5955341952349905e7 0.0
1.5955341952349905e7 8.583568920917582e6 0.0
0.0 0.0 0.0

-5.49964822070683e6 2.1030986730462234e7 0.0
2.1030986730462234e7 5.75601362877522e6 0.0
0.0 0.0 0.0

-1.2724936000344254e7 7.633671973286388e6 0.0
7.633671973286388e6 1.8941070980753064e7 0.0
0.0 0.0 0.0

2.7347781708126487e6 1.2949593234176738e7 0.0
1.2949593234176738e7 9.89485267466362e6 0.0
0.0 0.0 0.0

738450.3463708209 1.3273072459330529e7 0.0
1.3273072459330529e7 -7.455439711063691e6 0.0
0.0 0.0 0.0

3.26645673989834e6 9.109786069273574e6 0.0
9.109786069273574e6 -1.4484556184276758e7 0.0
0.0 0.0 0.0

5.515848179392904e6 4.449913616752616e6 0.0
4.449913616752616e6 -2.1150462589660157e7 0.0
0.0 0.0 0.0

-9.951021355099492e6 -4.670261206497558e6 0.0
-4.670261206497558e6 1.988241912111348e7 0.0
0.0 0.0 0.0

-5.038366311153394e6 1.5949214437648138e7 0.0
1.5949214437648138e7 7.997977933156021e6 0.0
0.0 0.0 0.0

-7.539508159657387e6 1.1706289374220222e7 0.0
1.1706289374220222e7 1.3957124024783744e7 0.0
0.0 0.0 0.0

-6.59506550778304e6 1.2998451872528287e7 0.0
1.2998451872528287e7 3.766932061538223e7 0.0
0.0 0.0 0.0

394422.43621607963 1.1255177528315177e7 0.0
1.1255177528315177e7 -8.739187302584624e6 0.0
0.0 0.0 0.0

2.0002687011921844e6 1.321667830677165e7 0.0
1.321667830677165e7 6.6675626598224435e6 0.0
0.0 0.0 0.0

-9.748760825891457e6 -2.608028729752015e6 0.0
-2.608028729752015e6 1.355822535214506e7 0.0
0.0 0.0 0.0

-1.806168207467443e7 -2.137226289053747e6 0.0
-2.137226289053747e6 8.548213057118934e6 0.0
0.0 0.0 0.0

3.5080689898134666e6 8.204912281535608e6 0.0
8.204912281535608e6 -1.690200882979095e7 0.0
0.0 0.0 0.0

-1.0399531804107573e7 1.0089959710372054e6 0.0
1.0089959710372054e6 1.2291627173468284e7 0.0
0.0 0.0 0.0

3.1759674700652957e6 9.018129162132572e6 0.0
9.018129162132572e6 -1.8591942182192367e7 0.0
0.0 0.0 0.0

-1.1045303633533804e7 1.1800033123771599e7 0.0
1.1800033123771599e7 1.8661165724129505e7 0.0
0.0 0.0 0.0

4.9543116407886e6 5.011038590606816e6 0.0
5.011038590606816e6 -1.4601444901844589e7 0.0
0.0 0.0 0.0

1.092360034933784e6 1.8887134481122635e7 0.0
1.8887134481122635e7 -4.876349957945893e6 0.0
0.0 0.0 0.0

-1.6754259048677767e6 1.0546016265159491e7 0.0
1.0546016265159491e7 -1.7072270201662038e6 0.0
0.0 0.0 0.0

1.3333620037421572e6 6.143089049853883e6 0.0
6.143089049853883e6 -4.676396087075448e6 0.0
0.0 0.0 0.0

1.6218543941910498e7 5.718201236981648e6 0.0
5.718201236981648e6 -3.4410376689642165e6 0.0
0.0 0.0 0.0

-9.986165484062998e6 1.2511252167270744e7 0.0
1.2511252167270744e7 1.742786437845212e7 0.0
0.0 0.0 0.0

-242966.98053061822 8.422913939464357e6 0.0
8.422913939464357e6 -5.167145834863773e6 0.0
0.0 0.0 0.0

-1.2081661195880264e7 206571.30419491493 0.0
206571.30419491493 2.073691536346239e7 0.0
0.0 0.0 0.0

2.1432937943062093e6 5.6476567499702955e6 0.0
5.6476567499702955e6 -7.672363073470733e6 0.0
0.0 0.0 0.0

-1.6485519124482572e6 1.557239564259894e7 0.0
1.557239564259894e7 -2.634958188113371e6 0.0
0.0 0.0 0.0

-6.794954235369896e6 1.46817406876538e7 0.0
1.46817406876538e7 1.0553747288935177e7 0.0
0.0 0.0 0.0

-9.618887885318968e6 4.0802440578920073e6 0.0
4.0802440578920073e6 1.3076690989447791e7 0.0
0.0 0.0 0.0

3.892469599342292e6 7.409968020259991e6 0.0
7.409968020259991e6 -1.7256846248804677e7 0.0
0.0 0.0 0.0

-1.324735223721901e6 1.248824860783087e7 0.0
1.248824860783087e7 -1.8889229742352452e7 0.0
0.0 0.0 0.0

-2.250778765099331e6 5.773788656202092e6 0.0
5.773788656202092e6 -350760.9497226277 0.0
0.0 0.0 0.0

4.440480553285051e6 5.1614019923144905e6 0.0
5.1614019923144905e6 -1.372951575742717e7 0.0
0.0 0.0 0.0

-686659.7875220068 1.3187333966950823e7 0.0
1.3187333966950823e7 -7.888301228951641e6 0.0
0.0 0.0 0.0

7.428121093536412e6 1.390386380228805e7 0.0
1.390386380228805e7 -894702.2214828907 0.0
0.0 0.0 0.0

5.334648968677543e6 5.922366837946823e6 0.0
5.922366837946823e6 -2.1531911559017554e7 0.0
0.0 0.0 0.0

-6.740980244836543e6 -914711.0915914555 0.0
-914711.0915914555 2.155641026364208e6 0.0
0.0 0.0 0.0

-8.460295832213424e6 1.2886571425056325e7 0.0
1.2886571425056325e7 1.3179911953767627e7 0.0
0.0 0.0 0.0

-633949.4214405381 7.244607141169871e6 0.0
7.244607141169871e6 -1.820517622756548e6 0.0
0.0 0.0 0.0

-1.0562316451048687e7 2.963515741501913e6 0.0
2.963515741501913e6 1.4449649245399334e7 0.0
0.0 0.0 0.0

5.251318119312139e6 6.177877780995164e6 0.0
6.177877780995164e6 -2.4352888790123872e7 0.0
0.0 0.0 0.0

3.2430293524392783e6 1.3490383425929444e7 0.0
1.3490383425929444e7 1.0810097944479078e7 0.0
0.0 0.0 0.0

267957.854285656 1.5978637957229836e7 0.0
1.5978637957229836e7 8.565463671117313e6 0.0
0.0 0.0 0.0

-1.6958681389874849e6 1.2330347207822304e7 0.0
1.2330347207822304e7 -1.3125827615781007e7 0.0
0.0 0.0 0.0

231528.72897499846 1.0498870231553162e7 0.0
1.0498870231553162e7 -7.619532774730984e6 0.0
0.0 0.0 0.0

-6.259310414935656e6 1.5247411060728874e7 0.0
1.5247411060728874e7 9.969745217529409e6 0.0
0.0 0.0 0.0

3.9529314272737354e6 1.39121241234859e7 0.0
1.39121241234859e7 -2.7678250619670404e6 0.0
0.0 0.0 0.0

3.084298554746868e6 8.95618193362023e6 0.0
8.95618193362023e6 -1.6500636629459288e7 0.0
0.0 0.0 0.0

-3.8056409682570375e6 2.0052353756751224e7 0.0
2.0052353756751224e7 577111.3056608501 0.0
0.0 0.0 0.0

-837298.244327567 1.1036210511005325e7 0.0
1.1036210511005325e7 1.522639004837553e6 0.0
0.0 0.0 0.0

-4.441517857317463e7 1.5964388956546714e6 0.0
1.5964388956546714e6 9.125981229456952e6 0.0
0.0 0.0 0.0

2.883038079947832e7 5.984991222985913e6 0.0
5.984991222985913e6 -3.533997844241863e6 0.0
0.0 0.0 0.0

-155727.19716459583 1.3646813474851435e7 0.0
1.3646813474851435e7 5.014177164362948e6 0.0
0.0 0.0 0.0

-7.101574293621077e6 4.1230343764794157e6 0.0
4.1230343764794157e6 2.079678159967856e7 0.0
0.0 0.0 0.0

-1.439180487521993e6 1.45181416558925e7 0.0
1.45181416558925e7 6.872793933825665e6 0.0
0.0 0.0 0.0

-2.4495844949812153e6 1.7286269857070852e7 0.0
1.7286269857070852e7 -4.0549709873261303e6 0.0
0.0 0.0 0.0

1.933160983575632e6 1.4460455224589922e7 0.0
1.4460455224589922e7 6.443870764968801e6 0.0
0.0 0.0 0.0

-8.830832465739679e6 3.896615452065407e6 0.0
3.896615452065407e6 1.2245803522404764e7 0.0
0.0 0.0 0.0

-6.16012605433022e6 1.5120483007183405e7 0.0
1.5120483007183405e7 7.295350093852285e6 0.0
0.0 0.0 0.0

-2.8777570301343326e7 2.2762262599382233e7 0.0
2.2762262599382233e7 2.691369450138403e6 0.0
0.0 0.0 0.0

4.668181512324008e6 5.328195611991906e6 0.0
5.328195611991906e6 -1.614907630078903e7 0.0
0.0 0.0 0.0

-963484.0166266297 1.498066865330133e7 0.0
1.498066865330133e7 -1.9328258466471266e6 0.0
0.0 0.0 0.0

3.02229666044305e6 1.2920514815231843e7 0.0
1.2920514815231843e7 1.1828449064651536e7 0.0
0.0 0.0 0.0

-3.6560027967672953e6 1.1611978346925177e7 0.0
1.1611978346925177e7 -1.2186676108840665e7 0.0
0.0 0.0 0.0

1.723729699295649e6 1.3059716014469363e7 0.0
1.3059716014469363e7 5.745765912477962e6 0.0
0.0 0.0 0.0

2.0495782871162463e6 1.072868563130188e7 0.0
1.072868563130188e7 -2.0315686855803095e7 0.0
0.0 0.0 0.0

-9.73038717997591e6 -1.3255298314633623e6 0.0
-1.3255298314633623e6 1.5142781499595178e7 0.0
0.0 0.0 0.0

-1.2048559180814957e7 1.9806930954385046e7 0.0
1.9806930954385046e7 8.452932338886673e6 0.0
0.0 0.0 0.0

2.9314140313388156e6 7.256954867555306e6 0.0
7.256954867555306e6 -1.1315569913356347e7 0.0
0.0 0.0 0.0

-9.868864190324435e6 1.2827292228534482e7 0.0
1.2827292228534482e7 1.6507698264638685e7 0.0
0.0 0.0 0.0

-9.010267932347897e6 2.7545244418355557e6 0.0
2.7545244418355557e6 9.577498525856897e6 0.0
0.0 0.0 0.0

-5.638321731657021e6 2.071419416260333e7 0.0
2.071419416260333e7 5.996130823468115e6 0.0
0.0 0.0 0.0

-1.0682999757178135e7 2.2552479519933444e7 0.0
2.2552479519933444e7 8.388327668916699e6 0.0
0.0 0.0 0.0

-4.331993130157443e6 -2.241379949556941e6 0.0
-2.241379949556941e6 4.424180941347141e6 0.0
0.0 0.0 0.0

-1.206783296907553e6 1.1105500818570767e7 0.0
1.1105500818570767e7 -7.642446104101364e6 0.0
0.0 0.0 0.0

-1.9807549141099905e6 1.686422291774354e7 0.0
1.686422291774354e7 -4.013897978217177e6 0.0
0.0 0.0 0.0

-2.385136686320572e6 4.0645469076340348e6 0.0
4.0645469076340348e6 391816.7235253651 0.0
0.0 0.0 0.0

-268860.88223860436 1.9212256100508943e7 0.0
1.9212256100508943e7 -4.1847602721569827e6 0.0
0.0 0.0 0.0

-9.748240466615075e6 2.9950901019622437e6 0.0
2.9950901019622437e6 1.0941169233939776e7 0.0
0.0 0.0 0.0

4.8341833374974765e6 5.429365103155779e6 0.0
5.429365103155779e6 -1.8345387951558255e7 0.0
0.0 0.0 0.0

4.497393756699849e6 5.945441372679846e6 0.0
5.945441372679846e6 -1.6820722074678466e7 0.0
0.0 0.0 0.0

1.092389738557084e6 1.036431848962892e7 0.0
1.036431848962892e7 -9.687567105951114e6 0.0
0.0 0.0 0.0

-960653.1923368848 1.53114554306352e7 0.0
1.53114554306352e7 -7.201970892225096e6 0.0
0.0 0.0 0.0

5.412130545510614e6 5.78427330428535e6 0.0
5.78427330428535e6 -2.5450074089677833e7 0.0
0.0 0.0 0.0

-3.9958091112003312e6 1.6775774808443522e7 0.0
1.6775774808443522e7 -3.892048700492653e6 0.0
0.0 0.0 0.0

1.2823117756577628e6 1.1618728911950128e7 0.0
1.1618728911950128e7 -1.3382516427823612e7 0.0
0.0 0.0 0.0

-1.1695578239072476e7 1.1442199463837136e7 0.0
1.1442199463837136e7 1.4973543222735215e7 0.0
0.0 0.0 0.0

-2.4316301408240567e6 1.663047540982553e7 0.0
1.663047540982553e7 -3.2535480282073296e6 0.0
0.0 0.0 0.0

3.687912597847119e6 8.687673351768585e6 0.0
8.687673351768585e6 -1.6080378094967157e7 0.0
0.0 0.0 0.0

-2.2422167212161936e7 1.3512093640872711e7 0.0
1.3512093640872711e7 1.0549784830360599e7 0.0
0.0 0.0 0.0

5.031073682660536e6 4.993656035947465e6 0.0
4.993656035947465e6 -1.8961271906737495e7 0.0
0.0 0.0 0.0

4.939484650587776e6 5.9529246838421235e6 0.0
5.9529246838421235e6 -1.6676507835667567e7 0.0
0.0 0.0 0.0

-408897.73165822774 1.4184479601761634e7 0.0
1.4184479601761634e7 -8.398685729956297e6 0.0
0.0 0.0 0.0

-1.3063061672762413e7 -2.2022299627536605e6 0.0
-2.2022299627536605e6 5.79879574529655e6 0.0
0.0 0.0 0.0

1.6462838209780124e6 8.540885932096237e6 0.0
8.540885932096237e6 -7.393194240418294e6 0.0
0.0 0.0 0.0

-6.070472900549612e6 1.2753712426092936e7 0.0
1.2753712426092936e7 1.6666528650857866e7 0.0
0.0 0.0 0.0

-5.139084471870845e6 1.9974164642869376e7 0.0
1.9974164642869376e7 5.565039427835566e6 0.0
0.0 0.0 0.0

-6.215970037231483e6 2.099385901191128e7 0.0
2.099385901191128e7 6.409774026633342e6 0.0
0.0 0.0 0.0

-1.006250693524323e7 4.471329629870824e6 0.0
4.471329629870824e6 1.1304634664215293e7 0.0
0.0 0.0 0.0

-9.20080372138803e6 9.774948545525832e6 0.0
9.774948545525832e6 3.642297062002724e7 0.0
0.0 0.0 0.0

-4.721952916496618e6 2.007149352108889e7 0.0
2.007149352108889e7 4.672203245242029e6 0.0
0.0 0.0 0.0

-1.6532069052370598e6 1.5039311831360357e7 0.0
1.5039311831360357e7 -1.0241652749751769e6 0.0
0.0 0.0 0.0

795375.1005336815 1.2638807160200585e7 0.0
1.2638807160200585e7 -5.018787290356423e6 0.0
0.0 0.0 0.0

1.278612249063692e7 1.4770129333889639e7 0.0
1.4770129333889639e7 5.244782550586464e6 0.0
0.0 0.0 0.0

-8.813280509856075e6 5.238438859292613e6 0.0
5.238438859292613e6 1.2455811353047969e7 0.0
0.0 0.0 0.0

5.360520923532393e6 5.083816411057492e6 0.0
5.083816411057492e6 -1.7830582736550927e7 0.0
0.0 0.0 0.0

-365235.6700443381 1.3585399375236725e7 0.0
1.3585399375236725e7 -7.257162778320765e6 0.0
0.0 0.0 0.0

-2.6892395808422174e6 1.1120763058878783e7 0.0
1.1120763058878783e7 117133.97280566208 0.0
0.0 0.0 0.0

-1.1979471474048454e7 1.046159384308245e7 0.0
1.046159384308245e7 7.560968041434269e6 0.0
0.0 0.0 0.0

-9.677544087563746e6 -2.5889048500317903e6 0.0
-2.5889048500317903e6 1.952754899603134e7 0.0
0.0 0.0 0.0

-4.4900020581592165e7 2.9960508937198922e7 0.0
2.9960508937198922e7 -2.9612339714734573e6 0.0
0.0 0.0 0.0

-4.819217944892662e6 1.2716575538243664e7 0.0
1.2716575538243664e7 -1.6064060083248353e7 0.0
0.0 0.0 0.0

2.7401039677388975e6 1.3382011254689572e7 0.0
1.3382011254689572e7 9.133680326468833e6 0.0
0.0 0.0 0.0

1.8178710057747979e6 1.100422048733831e7 0.0
1.100422048733831e7 -1.4957198975631915e7 0.0
0.0 0.0 0.0

-9.23785861178372e6 1.7493652544976756e7 0.0
1.7493652544976756e7 5.239674185382473e6 0.0
0.0 0.0 0.0

3.1844236455902844e6 7.666973455358579e6 0.0
7.666973455358579e6 -1.06435167719011e7 0.0
0.0 0.0 0.0

4.092069325088856e6 7.900156743291077e6 0.0
7.900156743291077e6 -1.6425024896111779e7 0.0
0.0 0.0 0.0

-7.274207222721126e6 1.4084833852916548e7 0.0
1.4084833852916548e7 1.138233488837116e7 0.0
0.0 0.0 0.0

2.8263850705555854e6 9.32973071211414e6 0.0
9.32973071211414e6 -1.579315468320243e7 0.0
0.0 0.0 0.0

-5.305924414457038e6 2.036463674680787e7 0.0
2.036463674680787e7 5.775031971374121e6 0.0
0.0 0.0 0.0

-1.2408527284977973e7 1.882272106463622e6 0.0
1.882272106463622e6 1.8313476960840408e7 0.0
0.0 0.0 0.0

-8.192916999206771e6 -1.8790225223023023e6 0.0
-1.8790225223023023e6 1.3077853779839637e7 0.0
0.0 0.0 0.0

4.0337128322686525e6 7.029206509347492e6 0.0
7.029206509347492e6 -1.6901360159417868e7 0.0
0.0 0.0 0.0

-4.1782973985055317e6 1.6699208943791315e7 0.0
1.6699208943791315e7 -2.966999280509612e6 0.0
0.0 0.0 0.0

-2.977246738734736e6 2.158601382143637e7 0.0
2.158601382143637e7 -1.0459560455252522e6 0.0
0.0 0.0 0.0

-9.479214698155096e6 1.1924659273546241e7 0.0
1.1924659273546241e7 1.408574277615152e7 0.0
0.0 0.0 0.0

4.510337301565113e6 6.193217502703639e6 0.0
6.193217502703639e6 -1.812273183529659e7 0.0
0.0 0.0 0.0

5.159702319644564e6 6.121679928315064e6 0.0
6.121679928315064e6 -2.2837281138240527e7 0.0
0.0 0.0 0.0

-1.1542365852009501e7 8.424689235358087e6 0.0
8.424689235358087e6 2.8351678857673492e7 0.0
0.0 0.0 0.0

-1.1726102172431847e7 2.2606099629477276e6 0.0
2.2606099629477276e6 1.9202094083562862e7 0.0
0.0 0.0 0.0

-1.1917567115641627e6 1.9225949180130746e7 0.0
1.9225949180130746e7 -3.573814336806273e6 0.0
0.0 0.0 0.0

-3.0840443249588823e6 1.5763202279335877e7 0.0
1.5763202279335877e7 -592915.1735481308 0.0
0.0 0.0 0.0

-1.1260354366181847e7 473827.29161839007 0.0
473827.29161839007 2.209124491882593e7 0.0
0.0 0.0 0.0

3.6683141934787245e6 5.554208113738211e6 0.0
5.554208113738211e6 -1.1598532526445376e7 0.0
0.0 0.0 0.0

-4.695762301741964e6 1.5760331391633363e7 0.0
1.5760331391633363e7 1.2656593034103925e6 0.0
0.0 0.0 0.0

-7.306855522594783e6 1.6574871472401125e7 0.0
1.6574871472401125e7 -2.33936263802436e6 0.0
0.0 0.0 0.0

-6.50666959402254e6 7.206934552554286e6 0.0
7.206934552554286e6 5.890628629068977e6 0.0
0.0 0.0 0.0

5.029231510997208e6 5.8569958035930935e6 0.0
5.8569958035930935e6 -1.7615116570416663e7 0.0
0.0 0.0 0.0

2.6302226137661664e6 9.325863332826067e6 0.0
9.325863332826067e6 -1.4796136710623395e7 0.0
0.0 0.0 0.0

-7.092360815663194e6 1.2643784890965205e6 0.0
1.2643784890965205e6 7.483670489031872e6 0.0
0.0 0.0 0.0

-1.136153652438705e7 4.0995226512197754e6 0.0
4.0995226512197754e6 1.6077197459125295e7 0.0
0.0 0.0 0.0

1.9905312014717115e6 1.0812704648116816e7 0.0
1.0812704648116816e7 -1.9223444642112724e7 0.0
0.0 0.0 0.0

5.012407506529308e6 5.642691623014348e6 0.0
5.642691623014348e6 -1.6366647670989987e7 0.0
0.0 0.0 0.0

-3.4033412677969686e6 1.558668420562881e7 0.0
1.558668420562881e7 -1.6083951953484137e6 0.0
0.0 0.0 0.0

4.497306261865575e6 7.085874666321033e6 0.0
7.085874666321033e6 -1.6747760608744068e7 0.0
0.0 0.0 0.0

-6.349990625265834e6 2.238921307942089e6 0.0
2.238921307942089e6 8.845967968491457e6 0.0
0.0 0.0 0.0

-6.465248284790555e6 1.438734476934956e7 0.0
1.438734476934956e7 -2.1550829265620038e7 0.0
0.0 0.0 0.0

5.010528904727636e6 1.4101120470873732e7 0.0
1.4101120470873732e7 1.6701765083627813e7 0.0
0.0 0.0 0.0

549932.0803206038 1.2569391275536777e7 0.0
1.2569391275536777e7 -905460.7998745659 0.0
0.0 0.0 0.0

-1.705134973754952e7 -2.3761350569406385e6 0.0
-2.3761350569406385e6 8.884569260184938e6 0.0
0.0 0.0 0.0

-6.132011320241049e6 1.028106674751704e6 0.0
1.028106674751704e6 7.812116913865354e6 0.0
0.0 0.0 0.0

2.540233569068923e6 1.4879951955032386e7 0.0
1.4879951955032386e7 8.46744281914293e6 0.0
0.0 0.0 0.0

-1.7994565583737325e6 1.2338548187457193e7 0.0
1.2338548187457193e7 -5.9981878204077855e6 0.0
0.0 0.0 0.0

-8.609520118598757e6 1.0173559165120263e7 0.0
1.0173559165120263e7 4.048850450916187e7 0.0
0.0 0.0 0.0

4.278272861935576e6 6.624104276430451e6 0.0
6.624104276430451e6 -1.7529062087615047e7 0.0
0.0 0.0 0.0

-2.238179300332575e6 1.6500094142077468e7 0.0
1.6500094142077468e7 -5.005152339778383e6 0.0
0.0 0.0 0.0

-2.3431336147351135e6 1.2732481416218746e7 0.0
1.2732481416218746e7 -1.7855506577952698e7 0.0
0.0 0.0 0.0

-5.376561033068847e6 1.9325523592171278e7 0.0
1.9325523592171278e7 4.992650425501099e6 0.0
0.0 0.0 0.0

-4.313099701283582e6 1.5707419318210782e7 0.0
1.5707419318210782e7 4.858918451812786e6 0.0
0.0 0.0 0.0

-3.7100372812601645e6 1.888478706117204e7 0.0
1.888478706117204e7 -373132.8683715658 0.0
0.0 0.0 0.0

-4.752509529362113e6 1.397277560692488e7 0.0
1.397277560692488e7 -2.2209448995284893e7 0.0
0.0 0.0 0.0

-1.8843321306640063e6 1.912224390791582e7 0.0
1.912224390791582e7 -3.078868823885548e6 0.0
0.0 0.0 0.0

-1.1571023678752333e7 1.1603997190521115e7 0.0
1.1603997190521115e7 1.696647248927999e7 0.0
0.0 0.0 0.0

2.5756729987158226e6 7.9307481226679245e6 0.0
7.9307481226679245e6 -1.1060013366479816e7 0.0
0.0 0.0 0.0

4.384444011068603e6 6.270828882586093e6 0.0
6.270828882586093e6 -1.7170505157089707e7 0.0
0.0 0.0 0.0

-1.6274211111666663e6 1.5892335336216884e7 0.0
1.5892335336216884e7 -6.244861721602853e6 0.0
0.0 0.0 0.0

-1.6827537945402875e6 1.1547198604187155e7 0.0
1.1547198604187155e7 -4.151622881773251e6 0.0
0.0 0.0 0.0

3.688500838464993e6 8.121257068179566e6 0.0
8.121257068179566e6 -1.9149476030181624e7 0.0
0.0 0.0 0.0

-5.3190479220422935e6 1.8611274079809953e7 0.0
1.8611274079809953e7 5.258583357017312e6 0.0
0.0 0.0 0.0

-2.7285103797382205e6 1.2617748129176287e7 0.0
1.2617748129176287e7 -543217.9705715736 0.0
0.0 0.0 0.0

699461.9640213954 1.1668979436015531e7 0.0
1.1668979436015531e7 -8.114593882491233e6 0.0
0.0 0.0 0.0

3.083870370905933e6 9.763794264382903e6 0.0
9.763794264382903e6 -1.8477713953096133e7 0.0
0.0 0.0 0.0

-2.686481027191467e6 1.8631732557701454e7 0.0
1.8631732557701454e7 -2.539860943254473e6 0.0
0.0 0.0 0.0

-4163.518739218358 1.2834706702918703e7 0.0
1.2834706702918703e7 -7.369849279221106e6 0.0
0.0 0.0 0.0

-282797.6250737824 1.0178316618414221e7 0.0
1.0178316618414221e7 -4.498058069272529e6 0.0
0.0 0.0 0.0

1.3347311361752471e7 5.699953363717433e6 0.0
5.699953363717433e6 -3.1529460931330696e6 0.0
0.0 0.0 0.0

-5.092009617355743e6 1.3330553475357657e7 0.0
1.3330553475357657e7 4.569249686702669e6 0.0
0.0 0.0 0.0

-5.307139911714208e6 7.0002027000967525e6 0.0
7.0002027000967525e6 6.050879602320319e6 0.0
0.0 0.0 0.0

-9.802304001918804e6 -1.9544926805930957e6 0.0
-1.9544926805930957e6 1.6509165448876023e7 0.0
0.0 0.0 0.0

5.158316617046473e6 5.058089892383359e6 0.0
5.058089892383359e6 -1.571540924866129e7 0.0
0.0 0.0 0.0

3.9515481901992895e6 6.4305624790343465e6 0.0
6.4305624790343465e6 -1.24470671764396e7 0.0
0.0 0.0 0.0

4.863740743406596e6 5.750434682416209e6 0.0
5.750434682416209e6 -1.5419508016864548e7 0.0
0.0 0.0 0.0

-1.1486459261932997e6 1.2452270488235433e7 0.0
1.2452270488235433e7 -1.281247282072847e7 0.0
0.0 0.0 0.0

-2.3487626059692837e6 1.890145586342809e7 0.0
1.890145586342809e7 -2.7436317117212163e6 0.0
0.0 0.0 0.0

-1.1561897627786566e7 1.1780914957723197e7 0.0
1.1780914957723197e7 1.5981934245471999e7 0.0
0.0 0.0 0.0

-5.9778447307711635e6 1.3640297874660993e7 0.0
1.3640297874660993e7 4.0925538396958425e6 0.0
0.0 0.0 0.0

4.378387773671918e6 6.068191562195758e6 0.0
6.068191562195758e6 -1.5937064854885798e7 0.0
0.0 0.0 0.0

-8.118401497994393e6 2.524881957777385e6 0.0
2.524881957777385e6 8.533025119523235e6 0.0
0.0 0.0 0.0

-1.1225067415376235e7 1.222373720018235e7 0.0
1.222373720018235e7 1.4665960099306684e7 0.0
0.0 0.0 0.0

-88712.45413019788 1.4011014896070175e7 0.0
1.4011014896070175e7 -9.245233028547453e6 0.0
0.0 0.0 0.0

1.112617621922192e6 1.3392234585419757e7 0.0
1.3392234585419757e7 -5.751221448435038e6 0.0
0.0 0.0 0.0

-5.175659303532245e6 1.926738208983336e7 0.0
1.926738208983336e7 5.727267788507096e6 0.0
0.0 0.0 0.0

1.8491004367623562e6 1.149112142531574e7 0.0
1.149112142531574e7 -1.3210360482790304e7 0.0
0.0 0.0 0.0

4.698970304978669e6 6.382229948350848e6 0.0
6.382229948350848e6 -1.6104541225159885e7 0.0
0.0 0.0 0.0

4.292874268230208e6 6.364812858981436e6 0.0
6.364812858981436e6 -1.6253003972870314e7 0.0
0.0 0.0 0.0

2.179801684760643e6 7.286499877668049e6 0.0
7.286499877668049e6 -9.424720236888481e6 0.0
0.0 0.0 0.0

4.163576222251769e6 6.682156931229171e6 0.0
6.682156931229171e6 -1.6584363961037273e7 0.0
0.0 0.0 0.0

4.58260101596536e6 6.045348460642081e6 0.0
6.045348460642081e6 -1.3962559644415624e7 0.0
0.0 0.0 0.0

-7.786601755453275e6 2.210615203181599e7 0.0
2.210615203181599e7 7.361710569495593e6 0.0
0.0 0.0 0.0

-1.5149505963341466e6 2.0058410025858767e7 0.0
2.0058410025858767e7 -3.157273302447397e6 0.0
0.0 0.0 0.0

-4.896818813910834e6 1.6343784178209273e7 0.0
1.6343784178209273e7 5.4981863988063205e6 0.0
0.0 0.0 0.0

3.980474097748652e6 6.340952921733419e6 0.0
6.340952921733419e6 -1.4432330084425762e7 0.0
0.0 0.0 0.0

-2.231759778926971e6 1.3838084483022131e7 0.0
1.3838084483022131e7 -3.9403572793283286e6 0.0
0.0 0.0 0.0

-647636.5903459084 1.024038535522489e7 0.0
1.024038535522489e7 -1.2193735744264591e6 0.0
0.0 0.0 0.0

-8.427900153914554e6 1.619755136263544e7 0.0
1.619755136263544e7 -2.809300920875238e7 0.0
0.0 0.0 0.0

9.172589701390326e6 1.7082623507934645e7 0.0
1.7082623507934645e7 3.0575316109375652e7 0.0
0.0 0.0 0.0

4.531357206367823e6 1.4287829060217125e7 0.0
1.4287829060217125e7 -3.1131220953080994e6 0.0
0.0 0.0 0.0

7.004244092391575e6 1.4651599405512877e7 0.0
1.4651599405512877e7 -5.523682164351055e6 0.0
0.0 0.0 0.0

4.49186808873718e6 6.750353031049751e6 0.0
6.750353031049751e6 -2.81597252564927e7 0.0
0.0 0.0 0.0

601377.6701880917 1.3059794230797209e7 0.0
1.3059794230797209e7 -1.0326122860250605e7 0.0
0.0 0.0 0.0

-1.8843029035885874e6 1.453304707582234e7 0.0
1.453304707582234e7 6.179414920633973e6 0.0
0.0 0.0 0.0

-1.2374944097393865e7 1.5694292003591568e6 0.0
1.5694292003591568e6 1.9778391020678744e7 0.0
0.0 0.0 0.0

-1.0937647208798505e7 1.1403473934884233e7 0.0
1.1403473934884233e7 1.9857178302884325e7 0.0
0.0 0.0 0.0

-2.4925210396404103e6 1.5158899377340855e7 0.0
1.5158899377340855e7 3.793629541168687e6 0.0
0.0 0.0 0.0

-900650.9072242132 1.1334529339125413e7 0.0
1.1334529339125413e7 -3.8349895578119834e6 0.0
0.0 0.0 0.0

-6.774167043132506e6 1.933029159859779e7 0.0
1.933029159859779e7 -2.2804345776151014e6 0.0
0.0 0.0 0.0

-6.0931818091863915e6 1.579056697788308e7 0.0
1.579056697788308e7 9.32074142070091e6 0.0
0.0 0.0 0.0

-6.533561003129691e6 9.433781496906782e6 0.0
9.433781496906782e6 5.673875300535166e6 0.0
0.0 0.0 0.0

-5.469995607406373e6 1.5844092763052749e7 0.0
1.5844092763052749e7 4.224038728683466e6 0.0
0.0 0.0 0.0

5.040271087143413e6 6.451098417548016e6 0.0
6.451098417548016e6 -2.0826509307436414e7 0.0
0.0 0.0 0.0

3.815999258380954e6 6.952128250790436e6 0.0
6.952128250790436e6 -1.188446701692134e7 0.0
0.0 0.0 0.0

-958829.531348472 1.4296687377096595e7 0.0
1.4296687377096595e7 -7.908135466578564e6 0.0
0.0 0.0 0.0

2.351599228801853e6 9.729948248410936e6 0.0
9.729948248410936e6 -1.4144828563524775e7 0.0
0.0 0.0 0.0

-1.1684250870334575e7 4.1617080820635906e6 0.0
4.1617080820635906e6 2.5172292819144323e7 0.0
0.0 0.0 0.0

-1.517491045564783e6 4.124979138981547e6 0.0
4.124979138981547e6 -337250.0511493894 0.0
0.0 0.0 0.0

-1.0968098626764115e7 3.8862423428201773e6 0.0
3.8862423428201773e6 3.3355932379312962e7 0.0
0.0 0.0 0.0

-1.0117059598505518e6 1.3711533939713791e7 0.0
1.3711533939713791e7 -7.436706293905475e6 0.0
0.0 0.0 0.0

-5.074671266866651e6 1.6766718152955428e7 0.0
1.6766718152955428e7 6.644058888432899e6 0.0
0.0 0.0 0.0

-6.392006227582963e6 8.529090576463038e6 0.0
8.529090576463038e6 8.096074763343677e6 0.0
0.0 0.0 0.0

-2.236936133824408e6 1.754229298912718e7 0.0
1.754229298912718e7 -4.0006808528337283e6 0.0
0.0 0.0 0.0

-5.41691009589709e6 6.025465205333571e6 0.0
6.025465205333571e6 4.746495550416324e6 0.0
0.0 0.0 0.0

-6.904903666091627e6 1.5118702201417668e7 0.0
1.5118702201417668e7 9.770260146656644e6 0.0
0.0 0.0 0.0

8.49478953314636e6 1.7337328543142326e7 0.0
1.7337328543142326e7 -1.0443366515340682e7 0.0
0.0 0.0 0.0

-9.902041417280238e6 1.2642611460781856e7 0.0
1.2642611460781856e7 1.2756897049200173e7 0.0
0.0 0.0 0.0

-613327.9847875116 4.682289722515986e6 0.0
4.682289722515986e6 -598017.836997605 0.0
0.0 0.0 0.0

-2.1866373339041233e7 -1.9653229444650796e6 0.0
-1.9653229444650796e6 9.764787026460685e6 0.0
0.0 0.0 0.0

4.833266453873942e6 5.326548207503339e6 0.0
5.326548207503339e6 -1.6911058260565184e7 0.0
0.0 0.0 0.0

-7.159612421931125e6 2.0173223005196907e7 0.0
2.0173223005196907e7 7.031890862901026e6 0.0
0.0 0.0 0.0

-6.229114711303247e6 2.466295916531376e6 0.0
2.466295916531376e6 5.44787668660516e6 0.0
0.0 0.0 0.0

-2.2889719972529425e6 9.588995890442273e6 0.0
9.588995890442273e6 -1.945139336416557e6 0.0
0.0 0.0 0.0

-1.0520831327789335e7 -1.3162041931542428e6 0.0
-1.3162041931542428e6 1.5298435923913881e7 0.0
0.0 0.0 0.0

-125531.25705076102 1.3993757452744495e7 0.0
1.3993757452744495e7 -9.670789598454587e6 0.0
0.0 0.0 0.0

-9.947184521057708e6 -2.757437327763679e6 0.0
-2.757437327763679e6 1.538061880124467e7 0.0
0.0 0.0 0.0

441870.81008578604 1.1883390024802543e7 0.0
1.1883390024802543e7 -9.892360721313266e6 0.0
0.0 0.0 0.0

-1.1203083961255115e7 1.2378373769768061e7 0.0
1.2378373769768061e7 1.5362373072946966e7 0.0
0.0 0.0 0.0

-6.998446915486494e6 7.704340513356131e6 0.0
7.704340513356131e6 6.886483945409615e6 0.0
0.0 0.0 0.0

-1.0067267110468484e7 1.2194782438455466e7 0.0
1.2194782438455466e7 1.861271423634501e7 0.0
0.0 0.0 0.0

-9.201460423743993e6 9.905189429747218e6 0.0
9.905189429747218e6 1.1120301352364007e7 0.0
0.0 0.0 0.0

-4.76148560097766e6 1.6307252618915629e7 0.0
1.6307252618915629e7 1.554998161538632e6 0.0
0.0 0.0 0.0

4.777577459099759e6 6.90620517366218e6 0.0
6.90620517366218e6 -2.012642956014911e7 0.0
0.0 0.0 0.0

-9.810450648920782e6 1.3099521295151332e7 0.0
1.3099521295151332e7 1.5834942722604819e7 0.0
0.0 0.0 0.0

4.523094719427215e6 1.392484746900132e7 0.0
1.392484746900132e7 1.558218988530055e6 0.0
0.0 0.0 0.0

-1.569381710634402e7 4.1520629114833027e6 0.0
4.1520629114833027e6 1.0656816883734956e7 0.0
0.0 0.0 0.0

3.4500841478090556e6 9.246461819294425e6 0.0
9.246461819294425e6 -1.8329044679614414e7 0.0
0.0 0.0 0.0

-6.040058703627454e6 9.301771968588432e6 0.0
9.301771968588432e6 7.323307397994131e6 0.0
0.0 0.0 0.0

2.883496385711628e6 8.020055329771756e6 0.0
8.020055329771756e6 -1.0044042288191449e7 0.0
0.0 0.0 0.0

-4.1114004398855395e6 2.321805313446911e6 0.0
2.321805313446911e6 5.367815953774535e6 0.0
0.0 0.0 0.0

-8.757122316847762e6 -1.8838002228874858e6 0.0
-1.8838002228874858e6 1.119192260127869e7 0.0
0.0 0.0 0.0

1.441482511303301e6 1.0809188076224161e7 0.0
1.0809188076224161e7 -1.196465041168645e7 0.0
0.0 0.0 0.0

-7.76667970497932e6 3.7030086620120127e6 0.0
3.7030086620120127e6 1.0968682977554752e7 0.0
0.0 0.0 0.0

-5.3055762417220585e6 1.704758706643553e7 0.0
1.704758706643553e7 6.171195913826276e6 0.0
0.0 0.0 0.0

-2.8411697698277994e6 1.2836846065160817e7 0.0
1.2836846065160817e7 7.149522886963498e6 0.0
0.0 0.0 0.0

456467.517629131 6.68587232315815e6 0.0
6.68587232315815e6 -3.3471255575448684e6 0.0
0.0 0.0 0.0

-709947.7145825417 1.4088845351211214e7 0.0
1.4088845351211214e7 -6.8399551433613505e6 0.0
0.0 0.0 0.0

3.4618470687638847e6 7.076383648779002e6 0.0
7.076383648779002e6 -1.325470518993768e7 0.0
0.0 0.0 0.0

-3.451490352592416e6 1.845414150870474e7 0.0
1.845414150870474e7 -1.1352124200660104e6 0.0
0.0 0.0 0.0

18979.409137349576 1.2566671854141545e7 0.0
1.2566671854141545e7 -3.086524506185393e7 0.0
0.0 0.0 0.0

3.2773717948339498e6 5.813189081901857e6 0.0
5.813189081901857e6 -1.085216223271554e7 0.0
0.0 0.0 0.0

4.115364517661048e6 5.998760500645478e6 0.0
5.998760500645478e6 -1.4163650970415771e7 0.0
0.0 0.0 0.0

-713045.5275933347 1.2515255106149707e7 0.0
1.2515255106149707e7 -1.2152691114874877e7 0.0
0.0 0.0 0.0

-55408.98824654089 6.988161880631468e6 0.0
6.988161880631468e6 -2.603675565234709e6 0.0
0.0 0.0 0.0

-5.633426890589727e6 1.4629611323423473e7 0.0
1.4629611323423473e7 -2.5494835216213662e7 0.0
0.0 0.0 0.0

1.9637585920718778e6 7.048876876802089e6 0.0
7.048876876802089e6 -7.211284470746947e6 0.0
0.0 0.0 0.0

3.2366597317914767e6 7.333539626546798e6 0.0
7.333539626546798e6 -1.0307173458604382e7 0.0
0.0 0.0 0.0

-441217.24426204595 1.40225359601364e7 0.0
1.40225359601364e7 -2.051048883048338e6 0.0
0.0 0.0 0.0

-1.2364051533233888e7 8.260948513083832e6 0.0
8.260948513083832e6 2.0850261442149665e7 0.0
0.0 0.0 0.0

-4.891529060403045e6 1.960131548834842e7 0.0
1.960131548834842e7 3.655592652209275e6 0.0
0.0 0.0 0.0

-1.010155851894125e7 2.75031799131692e6 0.0
2.75031799131692e6 7.096328874612691e6 0.0
0.0 0.0 0.0

2.0784784462999674e6 1.0049166943045897e7 0.0
1.0049166943045897e7 -1.3398619730600689e7 0.0
0.0 0.0 0.0

-1.4857791451766174e6 1.4815156516549207e7 0.0
1.4815156516549207e7 7.803925314514051e6 0.0
0.0 0.0 0.0

-3.283171959867287e6 1.8040944698009804e7 0.0
1.8040944698009804e7 -1.9299302118931063e6 0.0
0.0 0.0 0.0

-274643.3966124479 1.0567050220031846e7 0.0
1.0567050220031846e7 -6.457372399319816e6 0.0
0.0 0.0 0.0

-2.6955381212225887e6 1.7793585846951168e7 0.0
1.7793585846951168e7 -3.289965026268053e6 0.0
0.0 0.0 0.0

630709.6942549045 1.0916146068011021e7 0.0
1.0916146068011021e7 -6.971412547457457e6 0.0
0.0 0.0 0.0

-6.09241330966816e6 292861.8748790517 0.0
292861.8748790517 6.7979790395473e6 0.0
0.0 0.0 0.0

-1.0008235138270964e6 1.3874339590291742e7 0.0
1.3874339590291742e7 -7.757894478141597e6 0.0
0.0 0.0 0.0

-529602.249504661 2.6343598966539614e7 0.0
2.6343598966539614e7 -6.737784523942297e6 0.0
0.0 0.0 0.0

984646.4055203267 1.578792572775675e7 0.0
1.578792572775675e7 -5.123263831551567e6 0.0
0.0 0.0 0.0

235795.72886671824 1.3560865827507915e7 0.0
1.3560865827507915e7 -9.800951987654971e6 0.0
0.0 0.0 0.0

-3.7038994764383053e6 1.0390602349499818e7 0.0
1.0390602349499818e7 2.3338931008938877e6 0.0
0.0 0.0 0.0

-3.5523173592988835e6 1.2834151684091765e7 0.0
1.2834151684091765e7 -862434.3614963064 0.0
0.0 0.0 0.0

5.215934972658392e6 4.808379351845585e6 0.0
4.808379351845585e6 -1.6347478023820689e7 0.0
0.0 0.0 0.0

3.125324138431258e6 4.977577429884916e6 0.0
4.977577429884916e6 -8.881124006792434e6 0.0
0.0 0.0 0.0

-1.5828084528041496e6 7.52423191502972e6 0.0
7.52423191502972e6 -2.2433497097075125e6 0.0
0.0 0.0 0.0

-4.033599223234678e6 1.5709738238775367e7 0.0
1.5709738238775367e7 -763773.8768347976 0.0
0.0 0.0 0.0

3.5821351544231195e6 6.219409268586651e6 0.0
6.219409268586651e6 -1.2284861040612262e7 0.0
0.0 0.0 0.0

30235.60657322593 1.2056878006000042e7 0.0
1.2056878006000042e7 -8.725791192029929e6 0.0
0.0 0.0 0.0

-1.5503602335488044e6 1.4481292858298458e7 0.0
1.4481292858298458e7 4.811584858904444e6 0.0
0.0 0.0 0.0

2.9492761944312006e6 9.47132780845267e6 0.0
9.47132780845267e6 -1.3735572880787404e7 0.0
0.0 0.0 0.0

-6.827845989346534e6 3.3370550728147896e6 0.0
3.3370550728147896e6 9.746501729955241e6 0.0
0.0 0.0 0.0

-1.8313618503784858e7 1.8151965316513326e7 0.0
1.8151965316513326e7 8.0167628175476175e6 0.0
0.0 0.0 0.0

3.4100497188836886e6 9.077114392109264e6 0.0
9.077114392109264e6 -1.539259356942005e7 0.0
0.0 0.0 0.0

-3.56433581288171e7 413594.1434801306 0.0
413594.1434801306 9.36868031203408e6 0.0
0.0 0.0 0.0

3.2201930415876918e6 6.900299062457546e6 0.0
6.900299062457546e6 -1.1928979341465212e7 0.0
0.0 0.0 0.0

-6.43549702229139e6 1.4273769899947623e7 0.0
1.4273769899947623e7 1.179597409219811e7 0.0
0.0 0.0 0.0

1.9558296289090049e6 1.0909810152990235e7 0.0
1.0909810152990235e7 -1.844625151584912e7 0.0
0.0 0.0 0.0

1.9368601344923899e6 1.152603414948157e7 0.0
1.152603414948157e7 -1.4969806945537724e7 0.0
0.0 0.0 0.0

-2.0257539977009024e6 3.923607787575304e6 0.0
3.923607787575304e6 1.752972071418677e6 0.0
0.0 0.0 0.0

-1.2266195780665163e7 3.726674335693691e6 0.0
3.726674335693691e6 1.5265351179252077e7 0.0
0.0 0.0 0.0

-2.42326826718977e6 1.1170130252402596e7 0.0
1.1170130252402596e7 -2.4812368545313003e6 0.0
0.0 0.0 0.0

-3.9553374118364686e6 9.8036454279468e6 0.0
9.8036454279468e6 2.904840886044424e6 0.0
0.0 0.0 0.0

-1.2605469583732586e7 3.118561630890036e6 0.0
3.118561630890036e6 1.7464097759535976e7 0.0
0.0 0.0 0.0

-1.6041412807386625e6 1.096000002275533e7 0.0
1.096000002275533e7 -2.180941009745408e6 0.0
0.0 0.0 0.0

-665466.802125315 1.3358032467459565e7 0.0
1.3358032467459565e7 -8.215993671374497e6 0.0
0.0 0.0 0.0

-712465.7550932604 1.3941815591231722e7 0.0
1.3941815591231722e7 -6.501389998854982e6 0.0
0.0 0.0 0.0

-1.2468440306465826e6 1.4327580899000753e7 0.0
1.4327580899000753e7 -7.343253010451422e6 0.0
0.0 0.0 0.0

815975.3452885682 1.1513082592839906e7 0.0
1.1513082592839906e7 -1.0563984012118246e7 0.0
0.0 0.0 0.0

2.190050442728591e6 7.643685963901953e6 0.0
7.643685963901953e6 -9.784026681684768e6 0.0
0.0 0.0 0.0

495263.30740662874 1.2350564166076591e7 0.0
1.2350564166076591e7 -5.495783102249475e6 0.0
0.0 0.0 0.0

-1.0393280840546126e6 1.3557849005590001e7 0.0
1.3557849005590001e7 -7.126092289796402e6 0.0
0.0 0.0 0.0

147664.08201214136 1.0989606690828295e7 0.0
1.0989606690828295e7 -5.815002299770302e6 0.0
0.0 0.0 0.0

-5.564555733122332e6 3.4923931235048748e6 0.0
3.4923931235048748e6 8.05681839837487e6 0.0
0.0 0.0 0.0

1.129271314226782e6 1.1180258908045867e7 0.0
1.1180258908045867e7 -1.1285806198262163e7 0.0
0.0 0.0 0.0

-7.280421943601393e6 1.5240456269891564e7 0.0
1.5240456269891564e7 -2.426807310364934e7 0.0
0.0 0.0 0.0

-1.904008262973889e6 4.746420702726045e6 0.0
4.746420702726045e6 1.3519672819105864e6 0.0
0.0 0.0 0.0

2.881131663070969e6 7.571037600719933e6 0.0
7.571037600719933e6 -1.1648607713617349e7 0.0
0.0 0.0 0.0

612882.5572559997 6.455335955833827e6 0.0
6.455335955833827e6 -5.1733638490069285e6 0.0
0.0 0.0 0.0

687740.0367556568 1.1902940544530278e7 0.0
1.1902940544530278e7 -2.810708162287746e7 0.0
0.0 0.0 0.0

-5.350887814572042e6 1.0458376162993964e7 0.0
1.0458376162993964e7 5.598962966567657e6 0.0
0.0 0.0 0.0

3.834048784757729e6 6.662990789834085e6 0.0
6.662990789834085e6 -1.1556310712028585e7 0.0
0.0 0.0 0.0

-1.1498113179019177e7 3.5689301192446123e6 0.0
3.5689301192446123e6 1.339294837612453e7 0.0
0.0 0.0 0.0

-1.0737350197781127e7 -2.2993103053793595e6 0.0
-2.2993103053793595e6 2.673419403933028e7 0.0
0.0 0.0 0.0

164737.38479009818 1.3708352849032857e7 0.0
1.3708352849032857e7 -1.7141243164915983e6 0.0
0.0 0.0 0.0

124856.15570754424 1.2562736120201468e7 0.0
1.2562736120201468e7 945644.7799456611 0.0
0.0 0.0 0.0

-6.053111472233472e6 1.7195966823646262e7 0.0
1.7195966823646262e7 5.936575763717221e6 0.0
0.0 0.0 0.0

-5.356320116534981e6 1.436894970005422e7 0.0
1.436894970005422e7 2.706031859297009e6 0.0
0.0 0.0 0.0

5.249028095937684e6 5.466512865893695e6 0.0
5.466512865893695e6 -1.8183480871497203e7 0.0
0.0 0.0 0.0

5.245770667249325e6 5.798358998993094e6 0.0
5.798358998993094e6 -1.846719190453206e7 0.0
0.0 0.0 0.0

-1.1857577410009224e7 8.022010821829701e6 0.0
8.022010821829701e6 1.6511372267804865e7 0.0
0.0 0.0 0.0

-288320.55519308336 1.2833515932108855e7 0.0
1.2833515932108855e7 -8.680110464053014e6 0.0
0.0 0.0 0.0

3.417074901040692e6 1.4156579202190543e7 0.0
1.4156579202190543e7 -2.525880026150004e6 0.0
0.0 0.0 0.0

-1.211602168868727e7 577029.5267201475 0.0
577029.5267201475 3.1091170246609747e7 0.0
0.0 0.0 0.0

-5.395820470835451e6 1.2879165191483583e7 0.0
1.2879165191483583e7 5.375040747716041e6 0.0
0.0 0.0 0.0

-1.1176423209022367e6 1.260691958629504e7 0.0
1.260691958629504e7 -5.857969555378705e6 0.0
0.0 0.0 0.0

-8.56481974777397e6 1.2022513936138459e7 0.0
1.2022513936138459e7 2.9534372815117948e7 0.0
0.0 0.0 0.0

874343.881422918 5.2899934070389895e6 0.0
5.2899934070389895e6 -3.2701800228750277e6 0.0
0.0 0.0 0.0

-2.560367419310554e6 1.5843785799378518e7 0.0
1.5843785799378518e7 -3.7512986194942617e6 0.0
0.0 0.0 0.0

-1.8497663852890832e6 1.5152741732988916e7 0.0
1.5152741732988916e7 9.775574069345042e6 0.0
0.0 0.0 0.0

3.467219124585246e6 7.318294601798032e6 0.0
7.318294601798032e6 -1.1249633436524928e7 0.0
0.0 0.0 0.0

-2.1455247592172795e6 1.0047314867744265e7 0.0
1.0047314867744265e7 -2.440130278037665e6 0.0
0.0 0.0 0.0

-1.0784302876743324e7 1.055660085558161e7 0.0
1.055660085558161e7 2.2995080071103413e7 0.0
0.0 0.0 0.0

4.256984856829852e6 7.837965179572738e6 0.0
7.837965179572738e6 -1.870741877868388e7 0.0
0.0 0.0 0.0

543654.4476045338 1.324988172032539e7 0.0
1.324988172032539e7 -1.055536546528165e7 0.0
0.0 0.0 0.0

-9.666698589066982e6 -3.9260556985333753e6 0.0
-3.9260556985333753e6 2.000753458293479e7 0.0
0.0 0.0 0.0

3.7883229644445144e6 8.702661852356963e6 0.0
8.702661852356963e6 -1.8104155153712824e7 0.0
0.0 0.0 0.0

614383.3130401443 8.161278664148766e6 0.0
8.161278664148766e6 -5.083441098007184e6 0.0
0.0 0.0 0.0

4.239241200458166e6 7.519819265165759e6 0.0
7.519819265165759e6 -1.6112687525960393e7 0.0
0.0 0.0 0.0

364088.9299916695 1.102769274316604e7 0.0
1.102769274316604e7 -8.379970038397631e6 0.0
0.0 0.0 0.0

72832.43363075377 1.2274564931831302e7 0.0
1.2274564931831302e7 -9.112557007034754e6 0.0
0.0 0.0 0.0

-1.2381868964282835e7 2.0842077198689363e6 0.0
2.0842077198689363e6 1.7066631537457973e7 0.0
0.0 0.0 0.0

1.340243603515957e6 1.299596516844642e7 0.0
1.299596516844642e7 1.374423793646956e6 0.0
0.0 0.0 0.0

-5.101504383727741e6 3.211336186344547e6 0.0
3.211336186344547e6 6.605750974978152e6 0.0
0.0 0.0 0.0

1.5879289849104127e6 1.1824460816968873e7 0.0
1.1824460816968873e7 -1.2563703646451488e7 0.0
0.0 0.0 0.0

-705913.6181058363 5.407178668127576e6 0.0
5.407178668127576e6 -866371.80337566 0.0
0.0 0.0 0.0

1.379987199307309e6 5.559606489829444e6 0.0
5.559606489829444e6 -5.991098798654855e6 0.0
0.0 0.0 0.0

30362.348329882137 1.1855673076082533e7 0.0
1.1855673076082533e7 -8.396845035733486e6 0.0
0.0 0.0 0.0

4.1403368705524923e6 5.92092714021163e6 0.0
5.92092714021163e6 -1.1829549060616706e7 0.0
0.0 0.0 0.0

-1.0926743985248482e7 -669318.494018435 0.0
-669318.494018435 1.4009568932161395e7 0.0
0.0 0.0 0.0

5.584542212049009e6 4.559522988908824e6 0.0
4.559522988908824e6 -2.5024354103798334e7 0.0
0.0 0.0 0.0

-952197.1401504372 1.2646439822887283e7 0.0
1.2646439822887283e7 -3.173990148134552e6 0.0
0.0 0.0 0.0

-1.0166306839067884e7 5.856040560732387e6 0.0
5.856040560732387e6 1.1446346312276274e7 0.0
0.0 0.0 0.0

-6.141621532799001e6 1.6321552312799359e7 0.0
1.6321552312799359e7 4.1390822122051152e6 0.0
0.0 0.0 0.0

-209314.41488053417 1.372757189113236e7 0.0
1.372757189113236e7 4.952846742877495e6 0.0
0.0 0.0 0.0

-1.0867563630835716e7 1.2822760580013974e7 0.0
1.2822760580013974e7 1.4880833989906281e7 0.0
0.0 0.0 0.0

-7.788692345811326e6 1.350524280103268e7 0.0
1.350524280103268e7 1.2190199849109873e7 0.0
0.0 0.0 0.0

-8.806711680766797e6 -6.619645423687762e6 0.0
-6.619645423687762e6 1.871688069631543e7 0.0
0.0 0.0 0.0

-2.4832171734968303e6 9.85088500007184e6 0.0
9.85088500007184e6 264120.11540029454 0.0
0.0 0.0 0.0

1.221241378343049e6 1.4954604442735437e7 0.0
1.4954604442735437e7 8.316579255020456e6 0.0
0.0 0.0 0.0

-4.266960721115436e6 1.5688620981990667e7 0.0
1.5688620981990667e7 6.743184380584537e6 0.0
0.0 0.0 0.0

-1.1940174345060267e7 3.0434744439719394e6 0.0
3.0434744439719394e6 1.4618036275878068e7 0.0
0.0 0.0 0.0

1.6724523784072157e6 1.0996733677070182e7 0.0
1.0996733677070182e7 -1.4034297854249096e7 0.0
0.0 0.0 0.0

2.9981082408126253e6 6.59119092590633e6 0.0
6.59119092590633e6 -1.0626113001834784e7 0.0
0.0 0.0 0.0

364360.3917219816 1.2683017744297061e7 0.0
1.2683017744297061e7 -8.457226677493677e6 0.0
0.0 0.0 0.0

-2.0946434853000236e6 9.077412837854676e6 0.0
9.077412837854676e6 -159716.5882831745 0.0
0.0 0.0 0.0

3.1427815415796894e6 5.571435466248018e6 0.0
5.571435466248018e6 -8.78686985454832e6 0.0
0.0 0.0 0.0

-2.8020652066166913e6 1.6178408260621462e7 0.0
1.6178408260621462e7 -2.9068738570745536e6 0.0
0.0 0.0 0.0

-1.0692801539284691e7 -1.1408721354017262e6 0.0
-1.1408721354017262e6 2.5370302250442766e7 0.0
0.0 0.0 0.0

-1.0218622659922846e7 -2.853291293928658e6 0.0
-2.853291293928658e6 2.121047972247981e7 0.0
0.0 0.0 0.0

-1.2750572787433699e7 6.462202975387647e6 0.0
6.462202975387647e6 2.113671023315738e7 0.0
0.0 0.0 0.0

-1.954502632450283e6 1.5056149553655671e7 0.0
1.5056149553655671e7 -5.729646292015379e6 0.0
0.0 0.0 0.0

-429534.56127207226 7.006657281390545e6 0.0
7.006657281390545e6 -3.8490733081619525e6 0.0
0.0 0.0 0.0

4.393101794868336e6 1.503663723863908e7 0.0
1.503663723863908e7 5.34744855616501e6 0.0
0.0 0.0 0.0

4.237502239241084e6 1.6323953188760271e7 0.0
1.6323953188760271e7 2.2284024741238344e7 0.0
0.0 0.0 0.0

3.62170349493713e6 6.27392145622117e6 0.0
6.27392145622117e6 -1.0123518655873675e7 0.0
0.0 0.0 0.0

-8.523683002792533e6 2.5820136577627263e6 0.0
2.5820136577627263e6 1.1525075596674908e7 0.0
0.0 0.0 0.0

-2.854414510270205e6 1.0627467971963095e7 0.0
1.0627467971963095e7 679263.9870372203 0.0
0.0 0.0 0.0

-7.083730843928091e6 1.502139470127975e7 0.0
1.502139470127975e7 9.63308045265521e6 0.0
0.0 0.0 0.0

5.1368824889932545e6 6.010567043890645e6 0.0
6.010567043890645e6 -1.957711424786131e7 0.0
0.0 0.0 0.0

4.716760211983822e6 6.6287834606850585e6 0.0
6.6287834606850585e6 -1.7369005585279934e7 0.0
0.0 0.0 0.0

-1.617467039084035e6 5.631038600127233e6 0.0
5.631038600127233e6 -1.177598450346193e6 0.0
0.0 0.0 0.0

-5.52634990742796e6 1.3704803837896552e7 0.0
1.3704803837896552e7 5.582267456679551e6 0.0
0.0 0.0 0.0

-8.535118995314995e6 1.2342303487499142e7 0.0
1.2342303487499142e7 2.7274386035200667e7 0.0
0.0 0.0 0.0

20994.833866680507 1.3233915160935462e7 0.0
1.3233915160935462e7 -8.038885467068028e6 0.0
0.0 0.0 0.0

-1.3161433851315156e6 6.229010259915203e6 0.0
6.229010259915203e6 -297454.2844807096 0.0
0.0 0.0 0.0

4.946001765615554e6 6.189422588948137e6 0.0
6.189422588948137e6 -1.7936843159973186e7 0.0
0.0 0.0 0.0

-6.538285719974993e6 1.5467595844381891e7 0.0
1.5467595844381891e7 6.723515632639848e6 0.0
0.0 0.0 0.0

3.124878999905511e6 7.4630327408274645e6 0.0
7.4630327408274645e6 -1.2711397348200956e7 0.0
0.0 0.0 0.0

-6.023049563544555e6 4.480750623224618e6 0.0
4.480750623224618e6 919300.2478381449 0.0
0.0 0.0 0.0

398532.3448229255 1.1464519899720121e7 0.0
1.1464519899720121e7 -9.12987618003098e6 0.0
0.0 0.0 0.0

-440396.1648750278 4.598576396220172e6 0.0
4.598576396220172e6 -2.4344059785357504e6 0.0
0.0 0.0 0.0

-1.6781236548108517e6 8.3044224757055715e6 0.0
8.3044224757055715e6 -590509.7084208878 0.0
0.0 0.0 0.0

-1.214671879592686e6 7.502328441427543e6 0.0
7.502328441427543e6 -1.0135104692409676e6 0.0
0.0 0.0 0.0

23295.71305314917 1.1602351154352738e7 0.0
1.1602351154352738e7 -8.06423404045481e6 0.0
0.0 0.0 0.0

-2.5479473418453536e6 1.0779355972800672e7 0.0
1.0779355972800672e7 -2.0415695154931278e6 0.0
0.0 0.0 0.0

-1.2583357360809091e7 3.2525710205907165e6 0.0
3.2525710205907165e6 1.6421784452324945e7 0.0
0.0 0.0 0.0

-1.0432662388822189e7 9.814221091227673e6 0.0
9.814221091227673e6 2.689464740519802e7 0.0
0.0 0.0 0.0

-1.2353086029872503e7 6.91372830128168e6 0.0
6.91372830128168e6 2.4148966829085916e7 0.0
0.0 0.0 0.0

-1.0651285351877665e7 1.0168015533233922e7 0.0
1.0168015533233922e7 2.4818150168726172e7 0.0
0.0 0.0 0.0

-1.0997485034844773e7 4.373766801221034e6 0.0
4.373766801221034e6 3.966216163927273e7 0.0
0.0 0.0 0.0

-1.2847200313589696e6 1.4480468696802463e7 0.0
1.4480468696802463e7 3.5462377293827576e6 0.0
0.0 0.0 0.0

-1.2231414003918348e7 1.4518774655556805e6 0.0
1.4518774655556805e6 2.897529119605739e7 0.0
0.0 0.0 0.0

-3.038326449688784e6 1.5237787141183373e7 0.0
1.5237787141183373e7 -2.4217278936204347e6 0.0
0.0 0.0 0.0

301555.1734519405 1.2733610387723962e7 0.0
1.2733610387723962e7 -8.55903902602922e6 0.0
0.0 0.0 0.0

-3.1942966450973414e7 2.0885369681801062e7 0.0
2.0885369681801062e7 -1.649016290096864e6 0.0
0.0 0.0 0.0

3.2756170509053394e6 7.011487396607592e6 0.0
7.011487396607592e6 -9.960904655756311e6 0.0
0.0 0.0 0.0

2.6731194489126094e6 9.87569140419258e6 0.0
9.87569140419258e6 -1.3164668807491526e7 0.0
0.0 0.0 0.0

-2.652841866245132e6 1.625264509672709e7 0.0
1.625264509672709e7 -2.3886636424437435e6 0.0
0.0 0.0 0.0

-4.55458553837925e6 1.5727062123456854e7 0.0
1.5727062123456854e7 3.025836860623898e6 0.0
0.0 0.0 0.0

4.360467733325009e6 7.144207890376782e6 0.0
7.144207890376782e6 -1.5835409349508002e7 0.0
0.0 0.0 0.0

5.789121333131608e6 1.6270320466223823e7 0.0
1.6270320466223823e7 -6.97674196497413e6 0.0
0.0 0.0 0.0

-2.616105059443349e6 8.551424160032222e6 0.0
8.551424160032222e6 -946576.9282956109 0.0
0.0 0.0 0.0

4.698576591999931e6 6.291798284168284e6 0.0
6.291798284168284e6 -2.6234060110999215e7 0.0
0.0 0.0 0.0

-2.1477266489679418e6 7.766955531479891e6 0.0
7.766955531479891e6 -1.4004275003772997e6 0.0
0.0 0.0 0.0

2.6155681595205152e6 7.275441717480031e6 0.0
7.275441717480031e6 -1.0377346069913095e7 0.0
0.0 0.0 0.0

-1.0341164166243644e7 1.2961277236189969e7 0.0
1.2961277236189969e7 1.438116601050236e7 0.0
0.0 0.0 0.0

-1.9089025389954094e7 1.681050444892812e7 0.0
1.681050444892812e7 5.885844363093434e6 0.0
0.0 0.0 0.0

-9.550994627850793e6 -3.450761811728745e6 0.0
-3.450761811728745e6 1.4860791217041332e7 0.0
0.0 0.0 0.0

-329530.930955146 1.3751399345830057e7 0.0
1.3751399345830057e7 -7.590556913706446e6 0.0
0.0 0.0 0.0

-1.0339507948318215e7 1.825781503603471e7 0.0
1.825781503603471e7 4.641568596330312e6 0.0
0.0 0.0 0.0

3.5540372622031984e6 5.883384464383203e6 0.0
5.883384464383203e6 -9.956712022539191e6 0.0
0.0 0.0 0.0

-1.0357534948332705e7 4.230739416831015e6 0.0
4.230739416831015e6 1.4181026144914212e7 0.0
0.0 0.0 0.0

340324.7942174976 1.2269406386846632e7 0.0
1.2269406386846632e7 -7.749210476150717e6 0.0
0.0 0.0 0.0

-743469.2514227028 1.1639169947486626e7 0.0
1.1639169947486626e7 -4.277730887730609e6 0.0
0.0 0.0 0.0

-3.063602480123595e6 9.32839471034936e6 0.0
9.32839471034936e6 -519849.0989476244 0.0
0.0 0.0 0.0

-1.2639684890063085e7 4.924544046023277e6 0.0
4.924544046023277e6 2.117404772479255e7 0.0
0.0 0.0 0.0

5.263610453531393e6 5.197507831597474e6 0.0
5.197507831597474e6 -1.69086898950846e7 0.0
0.0 0.0 0.0

3.674304030647083e6 5.950113255038186e6 0.0
5.950113255038186e6 -1.176435912524366e7 0.0
0.0 0.0 0.0

-6.5258283900750475e6 1.5154215411648916e7 0.0
1.5154215411648916e7 6.077903856128416e6 0.0
0.0 0.0 0.0

-3.5168811612876775e6 3.6200661748092743e6 0.0
3.6200661748092743e6 1.7645346660255531e6 0.0
0.0 0.0 0.0

310392.21446685167 1.0764262573783107e7 0.0
1.0764262573783107e7 -8.0254451246976415e6 0.0
0.0 0.0 0.0

4.200884934465504e6 6.721313065959104e6 0.0
6.721313065959104e6 -1.3768379744627167e7 0.0
0.0 0.0 0.0

-1.1335318782530837e7 115117.78607421431 0.0
115117.78607421431 2.3567335518899493e7 0.0
0.0 0.0 0.0

-1.0613703317202844e6 1.4596847031040259e7 0.0
1.4596847031040259e7 2.2535270493232054e6 0.0
0.0 0.0 0.0

-1.0285956521235488e7 -1.2354043619929461e6 0.0
-1.2354043619929461e6 1.317259389473043e7 0.0
0.0 0.0 0.0

3.2238624593224684e6 9.562308985461233e6 0.0
9.562308985461233e6 -1.7575454536902357e7 0.0
0.0 0.0 0.0

341389.12532220595 1.2921665433338713e7 0.0
1.2921665433338713e7 -1.2186127130383756e7 0.0
0.0 0.0 0.0

-9.291960328409407e6 7.031863530737658e6 0.0
7.031863530737658e6 1.0440870279408865e7 0.0
0.0 0.0 0.0

1.9032731638278458e6 1.1485756639232019e7 0.0
1.1485756639232019e7 -1.4129660943035906e7 0.0
0.0 0.0 0.0

1.0757583857860258e6 1.1699278658677226e7 0.0
1.1699278658677226e7 -9.600537776518553e6 0.0
0.0 0.0 0.0

943892.8043430152 4.272788348033364e6 0.0
4.272788348033364e6 -2.8668932806494143e6 0.0
0.0 0.0 0.0

-8.844364399046883e6 -724826.7991016961 0.0
-724826.7991016961 1.0462007693416614e7 0.0
0.0 0.0 0.0

482343.7044385555 9.550127301548405e6 0.0
9.550127301548405e6 -7.520263026792515e6 0.0
0.0 0.0 0.0

841601.269274896 8.832351464262959e6 0.0
8.832351464262959e6 -7.8480026115030125e6 0.0
0.0 0.0 0.0

393358.75031445036 1.2458263998420794e7 0.0
1.2458263998420794e7 -8.095578400387422e6 0.0
0.0 0.0 0.0

-1.0085265518534657e6 1.4700028421839103e7 0.0
1.4700028421839103e7 1.0052649869646126e6 0.0
0.0 0.0 0.0

1.7802630224294518e6 8.036971881005922e6 0.0
8.036971881005922e6 -9.165560698202502e6 0.0
0.0 0.0 0.0

1.5342820154435495e6 1.0887214540149791e7 0.0
1.0887214540149791e7 -2.3712491641377784e7 0.0
0.0 0.0 0.0

-3.086024903958489e6 4.17878131837543e6 0.0
4.17878131837543e6 1.4034156929723944e6 0.0
0.0 0.0 0.0

-4.487513003711335e6 1.3673854344498472e7 0.0
1.3673854344498472e7 -1.9375678882662207e7 0.0
0.0 0.0 0.0

-7.319608134570336e7 7.739135177045768e6 0.0
7.739135177045768e6 6.317476200218115e6 0.0
0.0 0.0 0.0

5.28159770099767e7 9.437459579746282e6 0.0
9.437459579746282e6 28844.043862186372 0.0
0.0 0.0 0.0

980333.5074014533 1.137510623066062e7 0.0
1.137510623066062e7 -2.64836142451885e7 0.0
0.0 0.0 0.0

-8.30548938814473e6 1.0575433525538499e7 0.0
1.0575433525538499e7 1.2081849697976716e7 0.0
0.0 0.0 0.0

-4.257218587279781e6 1.3836106073881758e7 0.0
1.3836106073881758e7 347682.37580397143 0.0
0.0 0.0 0.0

134567.33453702275 1.0213683017606217e7 0.0
1.0213683017606217e7 -7.208368508928225e6 0.0
0.0 0.0 0.0

560522.177493687 5.9476066627557585e6 0.0
5.9476066627557585e6 -4.730778435418431e6 0.0
0.0 0.0 0.0

950805.7290657519 6.428035019608837e6 0.0
6.428035019608837e6 -4.0424363797761817e6 0.0
0.0 0.0 0.0

-3.4838898172342805e6 1.0113096392670916e7 0.0
1.0113096392670916e7 -112152.70346627722 0.0
0.0 0.0 0.0

1.2842614319317127e6 1.1102233476110553e7 0.0
1.1102233476110553e7 -2.502710108797778e7 0.0
0.0 0.0 0.0

1.2668867622932177e6 9.291122706910817e6 0.0
9.291122706910817e6 -7.12097908927777e6 0.0
0.0 0.0 0.0

-1.1281383346236924e7 -1.3600111373148246e6 0.0
-1.3600111373148246e6 1.7550763841168705e7 0.0
0.0 0.0 0.0

3.970874689334037e7 1.0883075937994666e7 0.0
1.0883075937994666e7 -1.7584765453029405e6 0.0
0.0 0.0 0.0

893509.9191521257 9.976485765800796e6 0.0
9.976485765800796e6 -6.845674547955193e6 0.0
0.0 0.0 0.0

4.585645895945447e6 6.45722730056223e6 0.0
6.45722730056223e6 -1.5281144307684708e7 0.0
0.0 0.0 0.0

4.479714568037137e6 6.79525831952537e6 0.0
6.79525831952537e6 -1.553782285731418e7 0.0
0.0 0.0 0.0

-9.862029221787266e6 1.319839214218036e7 0.0
1.319839214218036e7 1.3826857271817343e7 0.0
0.0 0.0 0.0

1.7653093140280955e6 1.0951187371006493e7 0.0
1.0951187371006493e7 -1.0932323769485636e7 0.0
0.0 0.0 0.0

-1.571846470460561e6 1.5274042694856415e7 0.0
1.5274042694856415e7 -5.266571648277485e6 0.0
0.0 0.0 0.0

2.0652798322828882e6 1.5281851368813824e7 0.0
1.5281851368813824e7 -4.828667558539058e6 0.0
0.0 0.0 0.0

-1.2533939769455567e6 9.79975699347362e6 0.0
9.79975699347362e6 -2.0832464624014485e6 0.0
0.0 0.0 0.0

1.7520721361873352e6 5.880777525642736e6 0.0
5.880777525642736e6 -5.42256085215311e6 0.0
0.0 0.0 0.0

-1.0001923877580055e6 7.273196836695529e6 0.0
7.273196836695529e6 -3.039169479242597e6 0.0
0.0 0.0 0.0

-1.8827140524290134e6 5.619983523167932e6 0.0
5.619983523167932e6 969685.2219170473 0.0
0.0 0.0 0.0

-1.7356107776579168e6 1.2203492882838523e7 0.0
1.2203492882838523e7 -1.5424670175819298e7 0.0
0.0 0.0 0.0

3.2413321225204635e6 9.445174297790429e6 0.0
9.445174297790429e6 -1.5665627846874103e7 0.0
0.0 0.0 0.0

2.8736368807817353e6 6.152824941029936e6 0.0
6.152824941029936e6 -1.0379946573584145e7 0.0
0.0 0.0 0.0

2.523087263583114e6 7.747531127542443e6 0.0
7.747531127542443e6 -8.709560947045399e6 0.0
0.0 0.0 0.0

-2.0665380961679327e6 1.1261496960984774e7 0.0
1.1261496960984774e7 -1.312293445917008e6 0.0
0.0 0.0 0.0

2.596995963962315e6 7.595903436632593e6 0.0
7.595903436632593e6 -1.072010992995108e7 0.0
0.0 0.0 0.0

106753.13028545515 6.728446484783756e6 0.0
6.728446484783756e6 -4.511242613045846e6 0.0
0.0 0.0 0.0

4.435735051612103e6 5.5808464656421915e6 0.0
5.5808464656421915e6 -1.2375336808864724e7 0.0
0.0 0.0 0.0

686127.1397195826 1.1412110003201433e7 0.0
1.1412110003201433e7 -7.776601279281728e6 0.0
0.0 0.0 0.0

-3.06229724423858e6 5.018727272486487e6 0.0
5.018727272486487e6 986616.226820583 0.0
0.0 0.0 0.0

-2.5661828722525556e6 1.583935015454738e7 0.0
1.583935015454738e7 -4.215890607779591e6 0.0
0.0 0.0 0.0

4.842649356882953e6 5.957421994872884e6 0.0
5.957421994872884e6 -2.319277381764741e7 0.0
0.0 0.0 0.0

331948.3319909428 1.201938696153653e7 0.0
1.201938696153653e7 -7.429276121536412e6 0.0
0.0 0.0 0.0

3.672230680549238e6 7.524290762151074e6 0.0
7.524290762151074e6 -1.253579503198729e7 0.0
0.0 0.0 0.0

-126841.15607124893 5.189167940498308e6 0.0
5.189167940498308e6 -1.5335087500219927e6 0.0
0.0 0.0 0.0

3.9584208128458513e6 7.138991053819821e6 0.0
7.138991053819821e6 -1.3187340614094673e7 0.0
0.0 0.0 0.0

-4.948002521557642e6 1.445981626968304e7 0.0
1.445981626968304e7 4.0529884507749574e6 0.0
0.0 0.0 0.0

-2.5380785605558716e6 1.6970937820531033e7 0.0
1.6970937820531033e7 -4.1929272686891626e6 0.0
0.0 0.0 0.0

404274.51748093916 1.3083890078931037e7 0.0
1.3083890078931037e7 -1.207981313367017e7 0.0
0.0 0.0 0.0

999178.489884733 6.118470536346333e6 0.0
6.118470536346333e6 -5.797109545259233e6 0.0
0.0 0.0 0.0

-2.485808450142024e6 1.744933614353312e7 0.0
1.744933614353312e7 -2.552491332736518e6 0.0
0.0 0.0 0.0

-1.2971936338298395e6 1.4944312758993024e7 0.0
1.4944312758993024e7 -5.620498224227436e6 0.0
0.0 0.0 0.0

-9.400148148328032e6 4.244230672107953e6 0.0
4.244230672107953e6 1.0164376778942699e7 0.0
0.0 0.0 0.0

-4.47717647674688e6 1.549757698212407e7 0.0
1.549757698212407e7 7.846567539341356e6 0.0
0.0 0.0 0.0

-894695.2990658004 4.860389051613402e6 0.0
4.860389051613402e6 -1.6481497849841563e6 0.0
0.0 0.0 0.0

-1.1111842187631852e6 8.053675379118135e6 0.0
8.053675379118135e6 -1.4421735036423365e6 0.0
0.0 0.0 0.0

-1.173464899955991e7 3.382939722844903e6 0.0
3.382939722844903e6 2.711656906004209e7 0.0
0.0 0.0 0.0

-4.6468180891303755e6 9.177438558840621e6 0.0
9.177438558840621e6 2.0351369301588044e6 0.0
0.0 0.0 0.0

1.549130956456478e6 1.2549304107219027e7 0.0
1.2549304107219027e7 -602696.2495552816 0.0
0.0 0.0 0.0

561829.1067059706 1.064473515023338e7 0.0
1.064473515023338e7 -6.5332472668484105e6 0.0
0.0 0.0 0.0

-29463.168144157622 1.137602262286169e7 0.0
1.137602262286169e7 -7.6706256206562435e6 0.0
0.0 0.0 0.0

1.5144732722904254e6 1.0764086547170868e7 0.0
1.0764086547170868e7 -2.2509159422645815e7 0.0
0.0 0.0 0.0

4.666458881034939e6 6.223592228141739e6 0.0
6.223592228141739e6 -2.4460814100083474e7 0.0
0.0 0.0 0.0

-1.2258964022355732e7 4.827419860045752e6 0.0
4.827419860045752e6 1.471671679046181e7 0.0
0.0 0.0 0.0

-5.381896303967662e6 1.702687013367436e7 0.0
1.702687013367436e7 5.519032905792725e6 0.0
0.0 0.0 0.0

-1.179205827192796e7 -1.095922077376094e6 0.0
-1.095922077376094e6 2.0183032798151925e7 0.0
0.0 0.0 0.0

-731758.6309287064 1.4224917070550889e7 0.0
1.4224917070550889e7 -7.189199057357935e6 0.0
0.0 0.0 0.0

-693308.8178236498 1.3986753454458298e7 0.0
1.3986753454458298e7 -9.007622841927849e6 0.0
0.0 0.0 0.0

7.561449665706608e6 5.205247096087128e6 0.0
5.205247096087128e6 -1.5125493448780738e6 0.0
0.0 0.0 0.0

1.516932760086535e6 7.794389847075097e6 0.0
7.794389847075097e6 -6.857690150232307e6 0.0
0.0 0.0 0.0

-7.416094384967435e6 8.917355650607334e6 0.0
8.917355650607334e6 7.486785677963948e6 0.0
0.0 0.0 0.0

-284198.4863629062 1.267751145360422e7 0.0
1.267751145360422e7 -1.1647536338610101e7 0.0
0.0 0.0 0.0

663168.9471589196 1.1186877702664388e7 0.0
1.1186877702664388e7 -7.387818408002151e6 0.0
0.0 0.0 0.0

711085.0280504241 1.1894006766876195e7 0.0
1.1894006766876195e7 -8.486032298472324e6 0.0
0.0 0.0 0.0

-1.2081473034946797e7 7.955307912926054e6 0.0
7.955307912926054e6 2.1041973295188334e7 0.0
0.0 0.0 0.0

-1.1292729873656807e7 4.8667795047920495e6 0.0
4.8667795047920495e6 1.3041290997043418e7 0.0
0.0 0.0 0.0

-96048.59286756348 1.112539948904853e7 0.0
1.112539948904853e7 -7.288468433698751e6 0.0
0.0 0.0 0.0

-1.398455828549806e6 1.3142963415547434e7 0.0
1.3142963415547434e7 -5.543778068888055e6 0.0
0.0 0.0 0.0

-4.595308723218032e6 1.3975560834231991e7 0.0
1.3975560834231991e7 90410.19400206744 0.0
0.0 0.0 0.0

-3.9857402810562863e6 1.6894458769917022e7 0.0
1.6894458769917022e7 -125183.45225215517 0.0
0.0 0.0 0.0

3.2918601841997867e6 9.499243439288178e6 0.0
9.499243439288178e6 -1.6615563781907393e7 0.0
0.0 0.0 0.0

-4.5292877943263315e6 1.9878332020691603e7 0.0
1.9878332020691603e7 4.059693392246694e6 0.0
0.0 0.0 0.0

-7.201711315485047e6 9.664238715269947e6 0.0
9.664238715269947e6 6.786028769077992e6 0.0
0.0 0.0 0.0

-2.9842596901568472e6 1.7265599019033775e7 0.0
1.7265599019033775e7 -3.6512735679819705e6 0.0
0.0 0.0 0.0

-286931.7012156769 1.2819064187441804e7 0.0
1.2819064187441804e7 -1.874180484275127e6 0.0
0.0 0.0 0.0

430239.7758976696 1.3294141735150974e7 0.0
1.3294141735150974e7 -1.1423583645927284e7 0.0
0.0 0.0 0.0

-1.007432315913797e6 1.3675575031032791e7 0.0
1.3675575031032791e7 -5.611986238462973e6 0.0
0.0 0.0 0.0

-6.093709506336855e6 1.6689970225191139e7 0.0
1.6689970225191139e7 6.828182018339069e6 0.0
0.0 0.0 0.0

-366841.48683665413 1.3396278635964248e7 0.0
1.3396278635964248e7 -6.933125981153598e6 0.0
0.0 0.0 0.0

-179380.6179408878 1.0869471327675195e7 0.0
1.0869471327675195e7 -6.876630523658488e6 0.0
0.0 0.0 0.0

864810.9467390785 1.273524962890218e7 0.0
1.273524962890218e7 -1.3077489171214273e7 0.0
0.0 0.0 0.0

-583439.1091894185 9.203259973713059e6 0.0
9.203259973713059e6 -5.013766173169197e6 0.0
0.0 0.0 0.0

-4.869440634337058e6 1.5641506686531939e7 0.0
1.5641506686531939e7 1.9819343538836355e6 0.0
0.0 0.0 0.0

-3.681382120738617e6 1.657262654853256e7 0.0
1.657262654853256e7 -960612.7935888455 0.0
0.0 0.0 0.0

424051.7149376342 4.951409574200377e6 0.0
4.951409574200377e6 -2.280703285335945e6 0.0
0.0 0.0 0.0

792191.9119566535 8.43269350570124e6 0.0
8.43269350570124e6 -7.481483498234545e6 0.0
0.0 0.0 0.0

-3.7584719919500593e6 1.7575950128226604e7 0.0
1.7575950128226604e7 1.1645748373025663e6 0.0
0.0 0.0 0.0

-5.6511587228179695e6 1.4020246824603094e7 0.0
1.4020246824603094e7 3.3514235473035974e6 0.0
0.0 0.0 0.0

-5.5643215834559694e7 3.692652720781122e6 0.0
3.692652720781122e6 7.689865386496954e6 0.0
0.0 0.0 0.0

1.702423099332909e6 1.1776363653416842e7 0.0
1.1776363653416842e7 -1.4242505442220593e7 0.0
0.0 0.0 0.0

-6.301675146066137e6 1.3218180884311073e7 0.0
1.3218180884311073e7 4.845200038877115e6 0.0
0.0 0.0 0.0

-2.7138339684802694e6 1.543159870671139e7 0.0
1.543159870671139e7 -1.4041976906255186e6 0.0
0.0 0.0 0.0

-6.31736453878909e6 1.4036866484426932e7 0.0
1.4036866484426932e7 5.051692098987425e6 0.0
0.0 0.0 0.0

-875620.3312996866 1.4905146953974916e7 0.0
1.4905146953974916e7 -174680.2536106831 0.0
0.0 0.0 0.0

-1.0615028753859764e6 1.4272139056942511e7 0.0
1.4272139056942511e7 -5.878527998303588e6 0.0
0.0 0.0 0.0

-6.778414411655171e6 1.0333779893936714e7 0.0
1.0333779893936714e7 5.858831584634813e6 0.0
0.0 0.0 0.0

-1.0927994327002397e7 2.3114321381990556e6 0.0
2.3114321381990556e6 1.5938033448252644e7 0.0
0.0 0.0 0.0

-315843.954791056 9.624959467752855e6 0.0
9.624959467752855e6 -4.1818023283065506e6 0.0
0.0 0.0 0.0

2.7647581962563074e6 5.892978186682158e6 0.0
5.892978186682158e6 -8.171066318264833e6 0.0
0.0 0.0 0.0

-1.535028154329415e6 1.184732392988728e7 0.0
1.184732392988728e7 -4.587810176455607e6 0.0
0.0 0.0 0.0

-1.6007621925985832e6 1.4703905740503574e7 0.0
1.4703905740503574e7 -6.538024108942979e6 0.0
0.0 0.0 0.0

-5.553884278108293e6 1.325027502006779e7 0.0
1.325027502006779e7 3.048684281650833e6 0.0
0.0 0.0 0.0

-1.9526024718699502e6 1.0855049003359014e7 0.0
1.0855049003359014e7 -3.3132346614274606e6 0.0
0.0 0.0 0.0

-2.1265935215201047e6 3.227257409143557e6 0.0
3.227257409143557e6 2.281782827503639e6 0.0
0.0 0.0 0.0

2.489976882734444e6 5.769894819496764e6 0.0
5.769894819496764e6 -9.081531301179862e6 0.0
0.0 0.0 0.0

-1.162511114668573e7 1.964512562820044e6 0.0
1.964512562820044e6 2.096736904175386e7 0.0
0.0 0.0 0.0

-8.654122740868766e6 1.4524971683398273e6 0.0
1.4524971683398273e6 9.973978360281758e6 0.0
0.0 0.0 0.0

-5.787454367824327e6 1.4765617886978144e7 0.0
1.4765617886978144e7 1.1736362903788973e7 0.0
0.0 0.0 0.0

-1.6763356575720983e6 1.3665138893409071e7 0.0
1.3665138893409071e7 -5.1759427575282995e6 0.0
0.0 0.0 0.0

706075.2507034815 8.018859349671211e6 0.0
8.018859349671211e6 -7.1682999281122135e6 0.0
0.0 0.0 0.0

-1.1524276596431822e7 1.8007128345037494e6 0.0
1.8007128345037494e6 2.2496736097552598e7 0.0
0.0 0.0 0.0

-2.556645073054452e6 1.5606711560464403e7 0.0
1.5606711560464403e7 -1.8463892111895336e6 0.0
0.0 0.0 0.0

-2.874743708248901e6 9.85799454055608e6 0.0
9.85799454055608e6 -1.0512678053659224e6 0.0
0.0 0.0 0.0

-540562.8150608921 7.7862988686201675e6 0.0
7.7862988686201675e6 -2.2559572230357444e6 0.0
0.0 0.0 0.0

-1.0644065655807348e6 9.852678454777833e6 0.0
9.852678454777833e6 -4.519408805868916e6 0.0
0.0 0.0 0.0

34762.33061234746 1.236967392563522e7 0.0
1.236967392563522e7 -1.5759048455156429e7 0.0
0.0 0.0 0.0

-5.211707593142529e6 1.4101177028296873e7 0.0
1.4101177028296873e7 4.7989333241231125e6 0.0
0.0 0.0 0.0

-51242.32112351898 1.3909056174766244e7 0.0
1.3909056174766244e7 -9.000061676604763e6 0.0
0.0 0.0 0.0

-7.096170777557904e6 1.302777821856837e7 0.0
1.302777821856837e7 3.3328962895441934e7 0.0
0.0 0.0 0.0

-1.0299457339523677e6 1.4951808654988391e7 0.0
1.4951808654988391e7 7.425486671756806e6 0.0
0.0 0.0 0.0

-8.455694334342591e6 8.093696224183789e6 0.0
8.093696224183789e6 9.412005861568915e6 0.0
0.0 0.0 0.0

2.8432844425557936e6 9.827549147279978e6 0.0
9.827549147279978e6 -1.3983821217554817e7 0.0
0.0 0.0 0.0

-1.4831076762041545e6 1.1307521176022675e7 0.0
1.1307521176022675e7 -2.6169131579676582e6 0.0
0.0 0.0 0.0

-1.3827255269799477e6 1.550572812865852e7 0.0
1.550572812865852e7 -6.885739353528195e6 0.0
0.0 0.0 0.0

-4.9970860539106615e6 1.7531531316095937e7 0.0
1.7531531316095937e7 4.462273290872292e6 0.0
0.0 0.0 0.0

-3.420840687067857e6 1.6221041941688126e7 0.0
1.6221041941688126e7 -1.6280679196438945e6 0.0
0.0 0.0 0.0

378608.31245810864 1.356222343703188e7 0.0
1.356222343703188e7 -1.0737631234460028e7 0.0
0.0 0.0 0.0

-1.1214995441670679e6 1.0641698564687869e7 0.0
1.0641698564687869e7 -3.005550247208667e6 0.0
0.0 0.0 0.0

-5.992810021501927e6 1.44084433303869e7 0.0
1.44084433303869e7 4.313520920690326e6 0.0
0.0 0.0 0.0

-8.459433674582768e6 4.0731779958330872e6 0.0
4.0731779958330872e6 8.548589985392602e6 0.0
0.0 0.0 0.0

2.8679555627699126e6 5.748159299407196e6 0.0
5.748159299407196e6 -1.0023812980638273e7 0.0
0.0 0.0 0.0

-1.2050952348695858e6 1.1969178047897767e7 0.0
1.1969178047897767e7 -3.498573278483595e6 0.0
0.0 0.0 0.0

3.1383032077262118e6 7.983333969655017e6 0.0
7.983333969655017e6 -1.0982856130044416e7 0.0
0.0 0.0 0.0

-3.8603093179768473e6 1.3967352564373542e7 0.0
1.3967352564373542e7 1.6546994844101646e6 0.0
0.0 0.0 0.0

39485.72679410654 7.526964497308362e6 0.0
7.526964497308362e6 -3.0709642966458257e6 0.0
0.0 0.0 0.0

-3.8283525908753583e6 1.8525681204588067e7 0.0
1.8525681204588067e7 -57120.25876854337 0.0
0.0 0.0 0.0

-3.8613624829620145e7 643037.8415159361 0.0
643037.8415159361 1.0184079292936219e7 0.0
0.0 0.0 0.0

485835.71862517716 7.216107612147485e6 0.0
7.216107612147485e6 -3.775455582097678e6 0.0
0.0 0.0 0.0

78234.05713488255 1.2084666952581909e7 0.0
1.2084666952581909e7 -1.8106612550061982e7 0.0
0.0 0.0 0.0

37900.21570845507 1.4638224100651274e7 0.0
1.4638224100651274e7 -7.505541326394498e6 0.0
0.0 0.0 0.0

947635.0944330469 1.0264000985908415e7 0.0
1.0264000985908415e7 -7.255832453301886e6 0.0
0.0 0.0 0.0

799093.073984669 1.2930427163726205e7 0.0
1.2930427163726205e7 -1.1289062602906028e7 0.0
0.0 0.0 0.0

922241.9507606067 6.93808916163174e6 0.0
6.93808916163174e6 -4.4333960710592875e6 0.0
0.0 0.0 0.0

3.763068225032286e6 7.179373940871376e6 0.0
7.179373940871376e6 -1.2261068078532672e7 0.0
0.0 0.0 0.0

-4.238105092391771e6 1.7233352464695763e7 0.0
1.7233352464695763e7 624213.7225805398 0.0
0.0 0.0 0.0

988277.5863832291 5.717677093673965e6 0.0
5.717677093673965e6 -5.279791945298578e6 0.0
0.0 0.0 0.0

1.2877445098494226e6 8.415544256619705e6 0.0
8.415544256619705e6 -8.532718834864065e6 0.0
0.0 0.0 0.0

-3.9164199273439916e6 1.9262040732030254e7 0.0
1.9262040732030254e7 792096.878270857 0.0
0.0 0.0 0.0

1.895460088972922e6 1.3259650309683846e7 0.0
1.3259650309683846e7 -1.7655488269452206e6 0.0
0.0 0.0 0.0

-1.7335271707078223e6 1.6407963675839847e7 0.0
1.6407963675839847e7 -4.843367681996034e6 0.0
0.0 0.0 0.0

4.79372879073712e6 7.494558141018612e6 0.0
7.494558141018612e6 -2.79560710539032e7 0.0
0.0 0.0 0.0

-1.1791803021693867e7 1.112026472442295e7 0.0
1.112026472442295e7 1.6651353539462712e7 0.0
0.0 0.0 0.0

-4.0347161278074197e6 1.682688520363819e7 0.0
1.682688520363819e7 1.78786619249845e6 0.0
0.0 0.0 0.0

2.905747413367604e6 7.700516745260271e6 0.0
7.700516745260271e6 -9.699803184145428e6 0.0
0.0 0.0 0.0

1.2583856138636651e6 6.581947441512959e6 0.0
6.581947441512959e6 -5.073234839175687e6 0.0
0.0 0.0 0.0

705795.5111370822 7.6295051272726245e6 0.0
7.6295051272726245e6 -6.836214105206235e6 0.0
0.0 0.0 0.0

-5.041391167946013e6 1.95956681880308e7 0.0
1.95956681880308e7 5.374146274735538e6 0.0
0.0 0.0 0.0

-6.732041634337425e6 1.0074546720937626e6 0.0
1.0074546720937626e6 8.924044911712393e6 0.0
0.0 0.0 0.0

-1.225858268547922e7 8.668720911962809e6 0.0
8.668720911962809e6 1.5168459612651348e7 0.0
0.0 0.0 0.0

-3.127295853642475e6 1.6419055953226581e7 0.0
1.6419055953226581e7 -728063.940898007 0.0
0.0 0.0 0.0

1.0421206376228649e6 1.131672906910443e7 0.0
1.131672906910443e7 -8.90617959907643e6 0.0
0.0 0.0 0.0

-5.563108267987197e6 1.4755993896322723e7 0.0
1.4755993896322723e7 1.0535199004149593e7 0.0
0.0 0.0 0.0

-2.3011748677973705e6 1.152116160427655e7 0.0
1.152116160427655e7 -2.926681331203598e6 0.0
0.0 0.0 0.0

326012.9474828937 1.1777437561877564e7 0.0
1.1777437561877564e7 -7.072613405585173e6 0.0
0.0 0.0 0.0

1.1491013246686896e6 1.1656891508451834e7 0.0
1.1656891508451834e7 -1.6496238749867937e7 0.0
0.0 0.0 0.0

-1.9327254264757386e6 1.7172997776373804e7 0.0
1.7172997776373804e7 -3.880110106017905e6 0.0
0.0 0.0 0.0

1.6892953928692462e6 1.0819721844713628e7 0.0
1.0819721844713628e7 -2.1480806014226984e7 0.0
0.0 0.0 0.0

-7.4348618507294785e6 3.9162241517630317e6 0.0
3.9162241517630317e6 7.5408304744959865e6 0.0
0.0 0.0 0.0

1.142974289378744e6 1.6868685762473002e7 0.0
1.6868685762473002e7 1.4692960064239554e7 0.0
0.0 0.0 0.0

-5.460560213230805e6 1.9032557898341194e7 0.0
1.9032557898341194e7 5.416116596738201e6 0.0
0.0 0.0 0.0

-2.157869313221671e6 1.1855302833266027e7 0.0
1.1855302833266027e7 -3.3612957500846907e6 0.0
0.0 0.0 0.0

308254.0579469914 1.5280165641380738e7 0.0
1.5280165641380738e7 -5.639723486438541e6 0.0
0.0 0.0 0.0

-2.7705221053441428e6 1.6115221734255461e7 0.0
1.6115221734255461e7 -1.4913007432489335e6 0.0
0.0 0.0 0.0

-2.2210370684996983e6 6.489619971614525e6 0.0
6.489619971614525e6 -678320.1253660885 0.0
0.0 0.0 0.0

268721.46382076247 1.383148952758152e7 0.0
1.383148952758152e7 -1.0066382712230125e7 0.0
0.0 0.0 0.0

1.9854177019325448e6 1.0910220381423239e7 0.0
1.0910220381423239e7 -1.197758541316413e7 0.0
0.0 0.0 0.0

1.6523116259579207e6 1.1248133070187908e7 0.0
1.1248133070187908e7 -1.1244209420272768e7 0.0
0.0 0.0 0.0

-608905.6705512735 1.1199973250952516e7 0.0
1.1199973250952516e7 -6.133823897113374e6 0.0
0.0 0.0 0.0

4.1922429224339807e6 1.7489432912431236e7 0.0
1.7489432912431236e7 -6.551601883630245e6 0.0
0.0 0.0 0.0

1.7075325605633785e6 8.891742179429345e6 0.0
8.891742179429345e6 -7.78770769988143e6 0.0
0.0 0.0 0.0

2.8348894631135087e6 5.441598257683303e6 0.0
5.441598257683303e6 -9.751628708761752e6 0.0
0.0 0.0 0.0

2.2790974088646825e6 1.0531830951393818e7 0.0
1.0531830951393818e7 -1.2633971098911572e7 0.0
0.0 0.0 0.0

4.611247501252776e6 6.443719159126154e6 0.0
6.443719159126154e6 -2.2280934949636962e7 0.0
0.0 0.0 0.0

-2.9774812278526286e6 5.911533752920404e6 0.0
5.911533752920404e6 557691.6620439047 0.0
0.0 0.0 0.0

-5.136812087041232e6 1.529022366024424e7 0.0
1.529022366024424e7 2.386666912778994e6 0.0
0.0 0.0 0.0

4.509263233023478e6 5.60144210003244e6 0.0
5.60144210003244e6 -1.4218606575551914e7 0.0
0.0 0.0 0.0

2.1012190837153536e6 6.145254268003289e6 0.0
6.145254268003289e6 -8.56662256097962e6 0.0
0.0 0.0 0.0

-285392.6351674525 1.1315315087821474e7 0.0
1.1315315087821474e7 -5.066158182152234e6 0.0
0.0 0.0 0.0

-1.1567903434129465e7 9.10229275368469e6 0.0
9.10229275368469e6 2.205259371462864e7 0.0
0.0 0.0 0.0

-6.499826149485026e6 1.5633001351547552e7 0.0
1.5633001351547552e7 9.073792764865749e6 0.0
0.0 0.0 0.0

-2.2320659472257034e6 7.16813783868328e6 0.0
7.16813783868328e6 -1.0101259634320757e6 0.0
0.0 0.0 0.0

-8.799126363958258e6 1.3478690707469579e7 0.0
1.3478690707469579e7 1.2049928943691365e7 0.0
0.0 0.0 0.0

3.9032912945397785e6 6.317589410491375e6 0.0
6.317589410491375e6 -1.1206444860594362e7 0.0
0.0 0.0 0.0

2.508747309146438e6 1.0185212408000404e7 0.0
1.0185212408000404e7 -1.3412844295092756e7 0.0
0.0 0.0 0.0

-1.2195801893084701e7 3.509216323280293e7 0.0
3.509216323280293e7 4.52101172245717e6 0.0
0.0 0.0 0.0

-3.9115865991021735e6 8.953282961526318e6 0.0
8.953282961526318e6 948474.0155263548 0.0
0.0 0.0 0.0

-6.153979043677159e6 3.6452304209166253e6 0.0
3.6452304209166253e6 5.926386597253553e6 0.0
0.0 0.0 0.0

-378138.63549160725 1.349365122570858e7 0.0
1.349365122570858e7 -9.651204145879485e6 0.0
0.0 0.0 0.0

1.3689405256706895e6 1.1601839191391896e7 0.0
1.1601839191391896e7 -1.0609332494958214e7 0.0
0.0 0.0 0.0

-1.1601088320226334e6 917497.6204393643 0.0
917497.6204393643 2.519496537207992e6 0.0
0.0 0.0 0.0

-161279.28162993537 -111833.42151775074 0.0
-111833.42151775074 4.0784766900942614e6 0.0
0.0 0.0 0.0

-5.473172544927748e6 1.97275842800241e7 0.0
1.97275842800241e7 5.176460448436044e6 0.0
0.0 0.0 0.0

-5.88256025690273e6 1.2810880565812726e7 0.0
1.2810880565812726e7 3.768636637146022e6 0.0
0.0 0.0 0.0

-5.037880169923553e6 1.940410485472337e7 0.0
1.940410485472337e7 3.9605958597371443e6 0.0
0.0 0.0 0.0

3.3812712324886145e6 7.920857205580224e6 0.0
7.920857205580224e6 -1.195638887830265e7 0.0
0.0 0.0 0.0

-5.688974995989998e6 1.4735201635488583e7 0.0
1.4735201635488583e7 3.6222179614654086e6 0.0
0.0 0.0 0.0

-1.0854839807167973e7 43518.6620537952 0.0
43518.6620537952 1.697217454989691e7 0.0
0.0 0.0 0.0

-4.593306203972796e7 1.8539180195069443e6 0.0
1.8539180195069443e6 9.942514653428696e6 0.0
0.0 0.0 0.0

-5.239301014368988e6 1.593547984394093e7 0.0
1.593547984394093e7 2.7135834911632705e6 0.0
0.0 0.0 0.0

-7.935231541979599e6 1.4019569417011268e7 0.0
1.4019569417011268e7 1.1216527800277013e7 0.0
0.0 0.0 0.0

-2.998991886868356e6 1.7182054245333087e7 0.0
1.7182054245333087e7 -2.9995596366235344e6 0.0
0.0 0.0 0.0

2.184881185604489e6 5.872097631234009e6 0.0
5.872097631234009e6 -8.07586122008944e6 0.0
0.0 0.0 0.0

-5.082568729034476e6 1.008751384737671e7 0.0
1.008751384737671e7 2.5833880446265726e6 0.0
0.0 0.0 0.0

-4.831489513161279e6 1.7335251563125096e7 0.0
1.7335251563125096e7 -2.6189023383044447e6 0.0
0.0 0.0 0.0

-2.0936237619464733e6 1.6485637355678428e7 0.0
1.6485637355678428e7 -3.349700348303298e6 0.0
0.0 0.0 0.0

3.3108824548080605e6 6.652844841489121e6 0.0
6.652844841489121e6 -9.595782243846944e6 0.0
0.0 0.0 0.0

-7.408524991225846e6 1.4570156598733854e7 0.0
1.4570156598733854e7 1.048018407707113e7 0.0
0.0 0.0 0.0

-719927.919968433 1.2971096951352904e7 0.0
1.2971096951352904e7 -5.272637348531285e6 0.0
0.0 0.0 0.0

5.041667492098733e6 5.443432963673434e6 0.0
5.443432963673434e6 -2.3848243185943536e7 0.0
0.0 0.0 0.0

-1.146095317578302e7 -3.0185467580889217e6 0.0
-3.0185467580889217e6 2.5665747993937634e7 0.0
0.0 0.0 0.0

2.538839800953651e6 8.0981113668035185e6 0.0
8.0981113668035185e6 -9.065660334571887e6 0.0
0.0 0.0 0.0

4.605287532317169e6 6.728815588429574e6 0.0
6.728815588429574e6 -1.6424725034161411e7 0.0
0.0 0.0 0.0

702782.858321107 1.282211427489912e7 0.0
1.282211427489912e7 -6.595754417157817e6 0.0
0.0 0.0 0.0

2.935449966642809e6 9.475223623368686e6 0.0
9.475223623368686e6 -2.1024280139840286e7 0.0
0.0 0.0 0.0

-3.7644853568923827e6 2.0471302437976442e7 0.0
2.0471302437976442e7 575577.9503291163 0.0
0.0 0.0 0.0

-9.241353345141571e6 1.2910942057620272e7 0.0
1.2910942057620272e7 1.956323342919188e7 0.0
0.0 0.0 0.0

-1.1323419783153107e7 -3.487166457620325e6 0.0
-3.487166457620325e6 2.3029543384776004e7 0.0
0.0 0.0 0.0

-1.0188351660714345e6 1.3511266380549734e7 0.0
1.3511266380549734e7 -4.947697909210814e6 0.0
0.0 0.0 0.0

4.267308751484987e6 7.173932297396677e6 0.0
7.173932297396677e6 -1.9526562382333342e7 0.0
0.0 0.0 0.0

-3.0059630031769644e6 1.327155729129237e7 0.0
1.327155729129237e7 -177002.65857555473 0.0
0.0 0.0 0.0

-5.030621543419386e6 1.4656591386890624e7 0.0
1.4656591386890624e7 2.085709912775887e6 0.0
0.0 0.0 0.0

-9.400288751544166e6 2.7153251603138275e6 0.0
2.7153251603138275e6 1.2654850831001334e7 0.0
0.0 0.0 0.0

-1.7674481787819085e6 1.7433123862548314e7 0.0
1.7433123862548314e7 -3.8383638247444807e6 0.0
0.0 0.0 0.0

1.0829564400518907e6 1.289679347734081e7 0.0
1.289679347734081e7 -4.623438155952532e6 0.0
0.0 0.0 0.0

-3.3608873152455795e6 1.6778907922826674e7 0.0
1.6778907922826674e7 33850.18419689243 0.0
0.0 0.0 0.0

5.612295939130188e6 4.330573225895759e6 0.0
4.330573225895759e6 -2.2486048574525937e7 0.0
0.0 0.0 0.0

-5.399336653313337e6 1.5042348336391082e7 0.0
1.5042348336391082e7 2.9439325007562796e6 0.0
0.0 0.0 0.0

977755.0850202325 1.0531897529472472e7 0.0
1.0531897529472472e7 -7.665392984811457e6 0.0
0.0 0.0 0.0

-2.049327730689391e6 8.315468043701343e6 0.0
8.315468043701343e6 -1.8324139943731066e6 0.0
0.0 0.0 0.0

-656028.6739361715 1.032909173652492e7 0.0
1.032909173652492e7 -3.8002041819859017e6 0.0
0.0 0.0 0.0

-2.244246100364393e6 4.977929196979135e6 0.0
4.977929196979135e6 60113.717909689294 0.0
0.0 0.0 0.0

1.1409599922818155e6 1.2530980856992645e7 0.0
1.2530980856992645e7 -5.095260913480396e6 0.0
0.0 0.0 0.0

-1.1848209649334496e7 3.277859522797735e6 0.0
3.277859522797735e6 1.993487673711562e7 0.0
0.0 0.0 0.0

281651.15839019883 1.1540779106831321e7 0.0
1.1540779106831321e7 -6.6601349820883125e6 0.0
0.0 0.0 0.0

-1.0325300358855631e6 5.487832564217821e6 0.0
5.487832564217821e6 -1.9887536308131993e6 0.0
0.0 0.0 0.0

-5.623276773014343e6 2.0107578189746458e7 0.0
2.0107578189746458e7 5.375246032692565e6 0.0
0.0 0.0 0.0

-2.277104871995837e6 1.6045650171553535e7 0.0
1.6045650171553535e7 -2.954374200521941e6 0.0
0.0 0.0 0.0

1.4142992195055345e6 1.2091097779558286e7 0.0
1.2091097779558286e7 -1.2636278908754686e7 0.0
0.0 0.0 0.0

2.131199258920868e6 8.489057624221513e6 0.0
8.489057624221513e6 -8.448565086032258e6 0.0
0.0 0.0 0.0

-4.6143887600260405e6 1.6281108805100214e7 0.0
1.6281108805100214e7 3.238192459136484e6 0.0
0.0 0.0 0.0

-9.070819171229832e6 1.3485324535485404e7 0.0
1.3485324535485404e7 1.2885372867812157e7 0.0
0.0 0.0 0.0

-3.1395673650962524e6 1.4843179565760192e7 0.0
1.4843179565760192e7 1.0474796316641804e7 0.0
0.0 0.0 0.0

4.099448675458842e6 7.323692215494978e6 0.0
7.323692215494978e6 -2.0750492400352836e7 0.0
0.0 0.0 0.0

-5.289589927112155e6 1.4814161950478949e7 0.0
1.4814161950478949e7 4.941430543199191e6 0.0
0.0 0.0 0.0

-4.775168385555288e6 1.544473469497367e7 0.0
1.544473469497367e7 3.5533181553623313e6 0.0
0.0 0.0 0.0

-7.771578528064044e6 6.667193335563368e6 0.0
6.667193335563368e6 7.839891676910015e6 0.0
0.0 0.0 0.0

-3.6663262092562905e6 2.0883570688835382e7 0.0
2.0883570688835382e7 506200.95983037516 0.0
0.0 0.0 0.0

475104.2329795265 1.0339384044578692e7 0.0
1.0339384044578692e7 -6.106037241606796e6 0.0
0.0 0.0 0.0

-9.120225582999729e6 1.1150610061315134e7 0.0
1.1150610061315134e7 1.10547045735467e7 0.0
0.0 0.0 0.0

2.1120939237358416e6 8.12875273218415e6 0.0
8.12875273218415e6 -8.093540377244199e6 0.0
0.0 0.0 0.0

-1.3099219133857188e6 6.903585384097509e6 0.0
6.903585384097509e6 -619538.6032518462 0.0
0.0 0.0 0.0

-4.402817441734929e6 1.6461665802269487e7 0.0
1.6461665802269487e7 2.6874192731431676e6 0.0
0.0 0.0 0.0

-4.499806027143087e6 1.7000800909698058e7 0.0
1.7000800909698058e7 2.9205058596852617e6 0.0
0.0 0.0 0.0

231425.44571776572 1.1281989017233633e7 0.0
1.1281989017233633e7 -6.235107226717903e6 0.0
0.0 0.0 0.0

1.2664723106793284e6 1.3692825184892582e7 0.0
1.3692825184892582e7 -5.442343490500012e6 0.0
0.0 0.0 0.0

2.509910985739338e6 1.8329800968212016e7 0.0
1.8329800968212016e7 -5.798791473797956e6 0.0
0.0 0.0 0.0

-4.314819946881526e6 1.6017524535297522e7 0.0
1.6017524535297522e7 4.788012131268331e6 0.0
0.0 0.0 0.0

-3.117767917625005e6 1.2912586508169243e7 0.0
1.2912586508169243e7 -1.8092130518927168e7 0.0
0.0 0.0 0.0

1.196142288120307e6 8.938172271147002e6 0.0
8.938172271147002e6 -6.694304188334681e6 0.0
0.0 0.0 0.0

-1.0232295786010716e7 484994.109538526 0.0
484994.109538526 1.5632193820877044e7 0.0
0.0 0.0 0.0

-891654.0947902515 1.5113724678443948e7 0.0
1.5113724678443948e7 -1.1981394951906651e6 0.0
0.0 0.0 0.0

-2.5780659147098525e6 1.5392246688405303e7 0.0
1.5392246688405303e7 -621750.6268738948 0.0
0.0 0.0 0.0

-5.022600877185055e6 1.510738440955465e7 0.0
1.510738440955465e7 4.190203176575479e6 0.0
0.0 0.0 0.0

-1.0093499179945096e7 -1.467919542564343e6 0.0
-1.467919542564343e6 1.6906778976238173e7 0.0
0.0 0.0 0.0

-5.929925537184056e6 2.0479777877914988e7 0.0
2.0479777877914988e7 5.6389234386252565e6 0.0
0.0 0.0 0.0

-4.950939058884055e6 1.6143953115996629e7 0.0
1.6143953115996629e7 2.140776295681577e6 0.0
0.0 0.0 0.0

1.3943048038060535e6 1.2247876206727527e7 0.0
1.2247876206727527e7 -1.32665370281574e6 0.0
0.0 0.0 0.0

915111.9313540737 1.2563389297485564e7 0.0
1.2563389297485564e7 3.0503733099545673e6 0.0
0.0 0.0 0.0

-5.56770638289849e6 1.446804622119953e7 0.0
1.446804622119953e7 5.718616554260604e6 0.0
0.0 0.0 0.0

-7.442417250714976e6 1.3018630986838022e7 0.0
1.3018630986838022e7 8.1521942539637e6 0.0
0.0 0.0 0.0

3.221224543277668e6 6.274385585943939e6 0.0
6.274385585943939e6 -9.269264006146004e6 0.0
0.0 0.0 0.0

-3.2367185894531696e6 1.692714259346526e7 0.0
1.692714259346526e7 -410892.4412397081 0.0
0.0 0.0 0.0

-8.359847640955555e6 9.335051524933496e6 0.0
9.335051524933496e6 1.217724920303046e7 0.0
0.0 0.0 0.0

4.132217600771196e6 5.457952032478337e6 0.0
5.457952032478337e6 -1.3303068162204795e7 0.0
0.0 0.0 0.0

-3.2421726605741424e6 1.5752940786509078e7 0.0
1.5752940786509078e7 -2.0510417722827718e6 0.0
0.0 0.0 0.0

-4.644316987448563e6 1.4771709410361078e7 0.0
1.4771709410361078e7 3.3644774818284824e6 0.0
0.0 0.0 0.0

-482322.2423244396 5.249490395547526e6 0.0
5.249490395547526e6 -2.7353615319192335e6 0.0
0.0 0.0 0.0

1.8473922090801694e6 8.996435614687115e6 0.0
8.996435614687115e6 -1.0217066090773126e7 0.0
0.0 0.0 0.0

-8.767562312898511e6 3.1223990394041512e7 0.0
3.1223990394041512e7 3.364818793117603e6 0.0
0.0 0.0 0.0

4.801066834791025e6 7.2433207874681875e6 0.0
7.2433207874681875e6 -3.2758174896111265e7 0.0
0.0 0.0 0.0

4.2841788031753395e6 5.978587811853779e6 0.0
5.978587811853779e6 -1.4973485027056694e7 0.0
0.0 0.0 0.0

2.2904655606488474e6 9.906989590030877e6 0.0
9.906989590030877e6 -1.1142972781155743e7 0.0
0.0 0.0 0.0

-3.3102007739427546e6 1.567294736602947e7 0.0
1.567294736602947e7 3.1126151255006474e6 0.0
0.0 0.0 0.0

1.6510588814810207e6 1.13175806220586e7 0.0
1.13175806220586e7 -1.5072840970412187e7 0.0
0.0 0.0 0.0

1.1335588021851205e6 8.562014830327557e6 0.0
8.562014830327557e6 -6.3783476677174e6 0.0
0.0 0.0 0.0

-1.4824139842768104e6 8.06938239308525e6 0.0
8.06938239308525e6 -2.6833647123693544e6 0.0
0.0 0.0 0.0

121789.08508995548 1.4251460301459655e7 0.0
1.4251460301459655e7 6.656559008042549e6 0.0
0.0 0.0 0.0

-9.293399196384443e6 1.311531484085128e7 0.0
1.311531484085128e7 1.8250270873825394e7 0.0
0.0 0.0 0.0

2.940986712743816e6 1.1484083921654955e7 0.0
1.1484083921654955e7 6.5435036220505005e6 0.0
0.0 0.0 0.0

-6.120014518427853e6 2.1877142729911897e7 0.0
2.1877142729911897e7 5.104446703007506e6 0.0
0.0 0.0 0.0

-1.0715772537172497e6 1.152091897250904e7 0.0
1.152091897250904e7 -5.373339767804136e6 0.0
0.0 0.0 0.0

-1.6758110295458939e7 1.5852529826602489e7 0.0
1.5852529826602489e7 3.4590400606072145e6 0.0
0.0 0.0 0.0

-408079.7425636281 1.2446481360193182e7 0.0
1.2446481360193182e7 -5.60689986871264e6 0.0
0.0 0.0 0.0

-4.513663946155519e6 1.5071638420364264e7 0.0
1.5071638420364264e7 2.7130901827917546e6 0.0
0.0 0.0 0.0

-80583.19906311948 1.0345243105487408e7 0.0
1.0345243105487408e7 -4.9444778002953045e6 0.0
0.0 0.0 0.0

764080.6022157781 1.2053394886589156e7 0.0
1.2053394886589156e7 -1.5341552512651335e7 0.0
0.0 0.0 0.0

3.887436153648302e6 5.8342892479179185e6 0.0
5.8342892479179185e6 -1.278442763273989e7 0.0
0.0 0.0 0.0

3.666826792171971e6 8.861654219681999e6 0.0
8.861654219681999e6 -1.9129309373239934e7 0.0
0.0 0.0 0.0

-3.478433995809654e6 1.4832149047830047e7 0.0
1.4832149047830047e7 8.49522100476188e6 0.0
0.0 0.0 0.0

4.1232534615130704e6 6.978417851001695e6 0.0
6.978417851001695e6 -1.4068680522847634e7 0.0
0.0 0.0 0.0

-3.072917543408987e6 1.5873640576116238e7 0.0
1.5873640576116238e7 -2.413678611799187e6 0.0
0.0 0.0 0.0

-1.335139298932119e6 1.4077577829460587e7 0.0
1.4077577829460587e7 -6.664327347273538e6 0.0
0.0 0.0 0.0

-1.5506789875463115e6 1.0165479276254214e7 0.0
1.0165479276254214e7 -3.731299430081631e6 0.0
0.0 0.0 0.0

-3.8540000638056914e6 1.0892502208579136e7 0.0
1.0892502208579136e7 295134.53298588656 0.0
0.0 0.0 0.0

-9.235549866590185e6 1.1528368847268332e7 0.0
1.1528368847268332e7 1.1589172329631628e7 0.0
0.0 0.0 0.0

2.8413559626082317e6 8.349312493527291e6 0.0
8.349312493527291e6 -1.038338930535478e7 0.0
0.0 0.0 0.0

-7.608764176495444e6 2.3125751378299963e7 0.0
2.3125751378299963e7 5.445050428920623e6 0.0
0.0 0.0 0.0

-6.398168768290661e6 2.073947863934209e7 0.0
2.073947863934209e7 6.028990930594439e6 0.0
0.0 0.0 0.0

-9.714677426052168e6 1.2297519187195428e7 0.0
1.2297519187195428e7 1.2458658379082832e7 0.0
0.0 0.0 0.0

-1.2937856825828627e6 9.889594053841269e6 0.0
9.889594053841269e6 -4.312618906711848e6 0.0
0.0 0.0 0.0

1.0602062018500143e6 1.193934178944044e7 0.0
1.193934178944044e7 -9.879302352477716e6 0.0
0.0 0.0 0.0

4.0061334717179798e6 6.865186004276547e6 0.0
6.865186004276547e6 -1.293379167839746e7 0.0
0.0 0.0 0.0

-5.116012153849648e6 1.6943191272749376e7 0.0
1.6943191272749376e7 7.327711085825747e6 0.0
0.0 0.0 0.0

-1.082070788507964e7 4.563895800332546e6 0.0
4.563895800332546e6 1.2312228331769459e7 0.0
0.0 0.0 0.0

-1.8333514132812782e6 1.872126302728857e7 0.0
1.872126302728857e7 -2.461678449822669e6 0.0
0.0 0.0 0.0

-1.137212861188388e7 -1.107674702782884e6 0.0
-1.107674702782884e6 3.3511047984054953e7 0.0
0.0 0.0 0.0

-2.0946523875699132e6 1.4033896431703007e7 0.0
1.4033896431703007e7 -4.383491149332679e6 0.0
0.0 0.0 0.0

-7.014225946995607e6 -5.027165658954432e6 0.0
-5.027165658954432e6 1.2586024657175915e7 0.0
0.0 0.0 0.0

-2.7370037604088937e6 4.237286015066482e6 0.0
4.237286015066482e6 2.548481133358144e6 0.0
0.0 0.0 0.0

3.158191853810698e6 5.830875968027619e6 0.0
5.830875968027619e6 -9.100856307065306e6 0.0
0.0 0.0 0.0

-1.235407459953827e7 8.897033725839794e6 0.0
8.897033725839794e6 1.947075572565484e7 0.0
0.0 0.0 0.0

3.514656533302716e6 9.085144686662147e6 0.0
9.085144686662147e6 -1.6360210155788444e7 0.0
0.0 0.0 0.0

-2.9238321212331676e6 1.5952147222226163e7 0.0
1.5952147222226163e7 -1.0370418691116425e6 0.0
0.0 0.0 0.0

-4.896620975037005e6 1.6046023590344917e7 0.0
1.6046023590344917e7 3.8306223289719867e6 0.0
0.0 0.0 0.0

-1.8151306214076313e6 1.1966886071163964e7 0.0
1.1966886071163964e7 -2.241716537717728e6 0.0
0.0 0.0 0.0

-5.416554882939115e6 1.6500638883880315e7 0.0
1.6500638883880315e7 5.445834407349314e6 0.0
0.0 0.0 0.0

1.4773798828194886e6 5.797411848746573e6 0.0
5.797411848746573e6 -6.3921070682809735e6 0.0
0.0 0.0 0.0

-2.9717118522808785e6 1.370265637576976e7 0.0
1.370265637576976e7 -2.244401646376866e6 0.0
0.0 0.0 0.0

1.1612796148302234e6 1.8830049876140904e7 0.0
1.8830049876140904e7 -4.779464392050401e6 0.0
0.0 0.0 0.0

1.0072274315067809e6 8.080187239559647e6 0.0
8.080187239559647e6 -6.182831017895857e6 0.0
0.0 0.0 0.0

-183823.6358509534 1.160772554438327e7 0.0
1.160772554438327e7 -5.502259415087851e6 0.0
0.0 0.0 0.0

-1.6994904227454008e6 1.6031037439463405e7 0.0
1.6031037439463405e7 -2.773305028094559e6 0.0
0.0 0.0 0.0

-1.9513942735154743e6 1.1626445409915304e7 0.0
1.1626445409915304e7 -1.7857475869888174e6 0.0
0.0 0.0 0.0

4.0437193945881524e6 1.5397912920063723e7 0.0
1.5397912920063723e7 -5.158851730288885e6 0.0
0.0 0.0 0.0

60944.05433152872 4.954574016536616e6 0.0
4.954574016536616e6 -3.498308729153722e6 0.0
0.0 0.0 0.0

4.710914041751959e6 5.514587481876647e6 0.0
5.514587481876647e6 -1.7394027260394417e7 0.0
0.0 0.0 0.0

-51296.55426348542 4.541082436874901e6 0.0
4.541082436874901e6 -1.1466339073131296e6 0.0
0.0 0.0 0.0

-902329.4135478552 7.800250277550268e6 0.0
7.800250277550268e6 -3.468951658677588e6 0.0
0.0 0.0 0.0

-1.9908663718074053e6 1.2173584979523227e7 0.0
1.2173584979523227e7 -3.7975082470177035e6 0.0
0.0 0.0 0.0

-2.6934283217085423e6 4.816942464875941e6 0.0
4.816942464875941e6 2.325937728408646e6 0.0
0.0 0.0 0.0

2.445824435590796e6 6.288676779314607e6 0.0
6.288676779314607e6 -7.469852113012617e6 0.0
0.0 0.0 0.0

162607.18989622453 1.4159208415734256e7 0.0
1.4159208415734256e7 -9.359945478390051e6 0.0
0.0 0.0 0.0

-324707.55977436644 7.540296181914121e6 0.0
7.540296181914121e6 -4.289188667881593e6 0.0
0.0 0.0 0.0

-8.009753030062811e6 2.8767727314899534e7 0.0
2.8767727314899534e7 3.0187082851611115e6 0.0
0.0 0.0 0.0

2.6230091192892976e6 1.473904581787259e7 0.0
1.473904581787259e7 5.855698901708847e6 0.0
0.0 0.0 0.0

156004.20505956677 7.222237061892122e6 0.0
7.222237061892122e6 -4.87694451280749e6 0.0
0.0 0.0 0.0

-5.704096417850025e6 9.949192813974738e6 0.0
9.949192813974738e6 6.453364671359746e6 0.0
0.0 0.0 0.0

2.0705163790028607e6 5.075623801217496e6 0.0
5.075623801217496e6 -6.383728786493104e6 0.0
0.0 0.0 0.0

-1.1880797716312695e7 3.462317503777559e6 0.0
3.462317503777559e6 1.8645493776674576e7 0.0
0.0 0.0 0.0

586453.0820517996 6.870149821117751e6 0.0
6.870149821117751e6 -5.53238597722759e6 0.0
0.0 0.0 0.0

-8.802903552452963e6 2.3217914164297868e7 0.0
2.3217914164297868e7 7.178273012661633e6 0.0
0.0 0.0 0.0

-1.3723758841257896e6 1.8912579314463057e7 0.0
1.8912579314463057e7 -2.74631274983395e6 0.0
0.0 0.0 0.0

4.288922323297629e6 6.455068281767022e6 0.0
6.455068281767022e6 -1.3445300163081963e7 0.0
0.0 0.0 0.0

-1.600643982061435e6 1.4392243520663125e7 0.0
1.4392243520663125e7 -5.837342954737859e6 0.0
0.0 0.0 0.0

4.151290103107975e6 6.983622312449237e6 0.0
6.983622312449237e6 -1.7920370944463406e7 0.0
0.0 0.0 0.0

-2.457687157249494e6 1.2491267223494157e7 0.0
1.2491267223494157e7 -2.991614731975067e6 0.0
0.0 0.0 0.0

-1.986662036745898e6 1.3475230559418758e7 0.0
1.3475230559418758e7 7.010263090683332e6 0.0
0.0 0.0 0.0

119085.67818930256 1.9030280397495296e7 0.0
1.9030280397495296e7 -3.890182062912987e6 0.0
0.0 0.0 0.0

1.0565031782091297e6 7.817302197144685e6 0.0
7.817302197144685e6 -5.740993930404702e6 0.0
0.0 0.0 0.0

2.497112600401321e6 7.364918895123809e6 0.0
7.364918895123809e6 -8.399645873406036e6 0.0
0.0 0.0 0.0

-215748.7512134154 9.238824207151735e6 0.0
9.238824207151735e6 -3.794175229959647e6 0.0
0.0 0.0 0.0

-7.218683803795528e6 2.0966868877332527e7 0.0
2.0966868877332527e7 6.3685657631714465e6 0.0
0.0 0.0 0.0

-3.256665204842795e6 1.0619035703918226e7 0.0
1.0619035703918226e7 -662382.9134622258 0.0
0.0 0.0 0.0

-1.5707207023098054e6 2.1540173086258847e7 0.0
2.1540173086258847e7 -1.2880722363964322e6 0.0
0.0 0.0 0.0

-1.6539965701165316e6 1.2285903292462697e7 0.0
1.2285903292462697e7 -2.697999377097508e6 0.0
0.0 0.0 0.0

1.191271233806795e6 1.4434715243994107e7 0.0
1.4434715243994107e7 8.125534930426187e6 0.0
0.0 0.0 0.0

-1.5009004214707818e6 1.5719033821157122e7 0.0
1.5719033821157122e7 -2.0052875637827574e6 0.0
0.0 0.0 0.0

-3.676406728467017e6 1.709638377244341e7 0.0
1.709638377244341e7 832872.1906596911 0.0
0.0 0.0 0.0

208127.56799986912 1.344304915353868e7 0.0
1.344304915353868e7 -9.553129149411548e6 0.0
0.0 0.0 0.0

1.6339854396403683e6 1.080426338405741e7 0.0
1.080426338405741e7 -2.0445656776005853e7 0.0
0.0 0.0 0.0

-1.0936841208574021e7 1.2128569182541516e7 0.0
1.2128569182541516e7 1.782446771129169e7 0.0
0.0 0.0 0.0

929773.982123151 9.174657171344467e6 0.0
9.174657171344467e6 -8.22996455080133e6 0.0
0.0 0.0 0.0

-1.1751655810997479e7 3.6394912374751023e6 0.0
3.6394912374751023e6 1.7142366717045814e7 0.0
0.0 0.0 0.0

2.974329193520019e6 9.812553155068425e6 0.0
9.812553155068425e6 -1.498805871475847e7 0.0
0.0 0.0 0.0

-1.1194603428787135e6 9.45303613588216e6 0.0
9.45303613588216e6 -4.107993057200496e6 0.0
0.0 0.0 0.0

3.1038845529912394e6 4.994964110898673e6 0.0
4.994964110898673e6 -9.20236752885957e6 0.0
0.0 0.0 0.0

-4.001854760208083e6 1.3156278210291088e7 0.0
1.3156278210291088e7 17297.126659587957 0.0
0.0 0.0 0.0

-5.037517671574281e6 1.6658887681281101e7 0.0
1.6658887681281101e7 2.3824463368429113e6 0.0
0.0 0.0 0.0

-3.647888038053413e6 1.9268086029364023e7 0.0
1.9268086029364023e7 -234848.977847685 0.0
0.0 0.0 0.0

-2.719954664563533e6 1.3101662728370117e7 0.0
1.3101662728370117e7 -2.6118798117837766e6 0.0
0.0 0.0 0.0

2.454953991312783e6 5.929997992402664e6 0.0
5.929997992402664e6 -7.132618923855302e6 0.0
0.0 0.0 0.0

-728307.0215651925 1.903092998092167e7 0.0
1.903092998092167e7 -3.263662959141955e6 0.0
0.0 0.0 0.0

-9.602482917001233e6 5.440394431282893e6 0.0
5.440394431282893e6 1.3592752678938754e7 0.0
0.0 0.0 0.0

4.36262569054043e6 6.927497959372309e6 0.0
6.927497959372309e6 -2.151645461988642e7 0.0
0.0 0.0 0.0

-1.7450702140892507e6 1.4785456155468743e7 0.0
1.4785456155468743e7 8.149604125832029e6 0.0
0.0 0.0 0.0

-5.324225860910568e6 1.853616021727236e7 0.0
1.853616021727236e7 4.526966402551518e6 0.0
0.0 0.0 0.0

-1.3218324829168324e6 1.3118795167422289e7 0.0
1.3118795167422289e7 -6.202936417342912e6 0.0
0.0 0.0 0.0

-9.34384385105063e6 1.3366159775173958e7 0.0
1.3366159775173958e7 1.7235102676518396e7 0.0
0.0 0.0 0.0

-1.8399224685066137e6 1.316398292542361e7 0.0
1.316398292542361e7 -6.133074525146041e6 0.0
0.0 0.0 0.0

20786.383222071454 9.88570215045017e6 0.0
9.88570215045017e6 -6.780267235810877e6 0.0
0.0 0.0 0.0

-794446.4190278919 1.432665617732455e7 0.0
1.432665617732455e7 6.462213746347034e6 0.0
0.0 0.0 0.0

-7.126352007325952e6 2.7149205595192794e7 0.0
2.7149205595192794e7 3.1298953399297767e6 0.0
0.0 0.0 0.0

-1.115050011317118e6 1.5918744774932813e7 0.0
1.5918744774932813e7 -4.010324816714546e6 0.0
0.0 0.0 0.0

2.7486220955623563e7 1.3058766908911396e7 0.0
1.3058766908911396e7 212760.6795103997 0.0
0.0 0.0 0.0

-1.4609158367639726e6 1.0541900908674046e7 0.0
1.0541900908674046e7 -4.1121791791659594e6 0.0
0.0 0.0 0.0

-3.83260405151625e6 1.3494855476807961e7 0.0
1.3494855476807961e7 -507694.2015872322 0.0
0.0 0.0 0.0

1.083105788368769e6 1.1027564722205821e7 0.0
1.1027564722205821e7 -9.917545078443795e6 0.0
0.0 0.0 0.0

-3.604778769813196e6 1.962643870963014e7 0.0
1.962643870963014e7 -179275.75933568203 0.0
0.0 0.0 0.0

4.617216439992279e6 6.133325142637352e6 0.0
6.133325142637352e6 -1.903773479397744e7 0.0
0.0 0.0 0.0

616566.3779529138 7.195050852709634e6 0.0
7.195050852709634e6 -5.961423554952349e6 0.0
0.0 0.0 0.0

2.1171206764294608e6 9.222666843059974e6 0.0
9.222666843059974e6 -1.1461144258995662e7 0.0
0.0 0.0 0.0

-6.177197148409295e6 1.5648308510773601e7 0.0
1.5648308510773601e7 9.228483612017438e6 0.0
0.0 0.0 0.0

-3.2098273979840195e6 1.428819494843989e7 0.0
1.428819494843989e7 -1.8826100706519554e6 0.0
0.0 0.0 0.0

-853713.69835848 1.1704791384246524e7 0.0
1.1704791384246524e7 2.6309986118505844e6 0.0
0.0 0.0 0.0

-723608.9774381475 9.944406488493884e6 0.0
9.944406488493884e6 -3.4057552623525625e6 0.0
0.0 0.0 0.0

-2.218713394805581e6 1.3513842866467979e7 0.0
1.3513842866467979e7 -1.9743398013246376e6 0.0
0.0 0.0 0.0

1.3132532713710568e6 1.2861372112130184e7 0.0
1.2861372112130184e7 -4.70035522985772e6 0.0
0.0 0.0 0.0

-6.192392633443808e6 2.6028498581419595e7 0.0
2.6028498581419595e7 3.5605671268972303e6 0.0
0.0 0.0 0.0

-2.4627680006183702e6 1.4103095350383256e7 0.0
1.4103095350383256e7 -1.6197845472125888e6 0.0
0.0 0.0 0.0

-727770.9602867381 6.055677345111492e6 0.0
6.055677345111492e6 -1.1287807132186075e6 0.0
0.0 0.0 0.0

1.3021187171966143e7 1.0576206997582156e7 0.0
1.0576206997582156e7 149671.332776309 0.0
0.0 0.0 0.0

3.4976236304864287e6 8.54813745021417e6 0.0
8.54813745021417e6 -2.58045271346201e7 0.0
0.0 0.0 0.0

-4.321280342937591e6 1.7205139144016393e7 0.0
1.7205139144016393e7 2.5396846645419765e6 0.0
0.0 0.0 0.0

-1.871984191950728e6 6.381051728403626e6 0.0
6.381051728403626e6 534673.7834090351 0.0
0.0 0.0 0.0

-965909.3939994951 1.0270107772513527e7 0.0
1.0270107772513527e7 -4.826732055927069e6 0.0
0.0 0.0 0.0

376550.16394295916 9.210683814602578e6 0.0
9.210683814602578e6 -7.112349943914587e6 0.0
0.0 0.0 0.0

-5.678461513319892e6 2.5038595228197455e7 0.0
2.5038595228197455e7 3.3784734124925947e6 0.0
0.0 0.0 0.0

3.360311274300781e6 8.587523342669819e6 0.0
8.587523342669819e6 -1.720707296896357e7 0.0
0.0 0.0 0.0

-1.0889308520994365e7 571468.1719010449 0.0
571468.1719010449 1.339812904927779e7 0.0
0.0 0.0 0.0

-3.0737464459038842e6 1.5904623453094115e7 0.0
1.5904623453094115e7 -3.8079898108142572e6 0.0
0.0 0.0 0.0

-2.573861190723697e6 5.712137853793282e6 0.0
5.712137853793282e6 1.9979238795791124e6 0.0
0.0 0.0 0.0

-1.8197729393849222e6 1.349838579112188e7 0.0
1.349838579112188e7 -4.7579673590310095e6 0.0
0.0 0.0 0.0

-3.8129124604862533e6 1.4352953993227491e7 0.0
1.4352953993227491e7 -591358.8982433337 0.0
0.0 0.0 0.0

1.0422858723739367e6 1.1901617823233504e7 0.0
1.1901617823233504e7 -1.2519457358319176e7 0.0
0.0 0.0 0.0

-5.409821133412301e6 2.4230410829053618e7 0.0
2.4230410829053618e7 3.4662313836893295e6 0.0
0.0 0.0 0.0

-6.000740450473853e6 1.6177732198953742e7 0.0
1.6177732198953742e7 8.69675843457028e6 0.0
0.0 0.0 0.0

-2.6848858706608317e6 1.4674309691985507e7 0.0
1.4674309691985507e7 -1.2846286494605206e6 0.0
0.0 0.0 0.0

4.374089182089173e6 6.562406769188065e6 0.0
6.562406769188065e6 -1.8529332896381035e7 0.0
0.0 0.0 0.0

-1.7924625388975244e6 7.715187189210065e6 0.0
7.715187189210065e6 -190364.4404637809 0.0
0.0 0.0 0.0

-4.946250471762213e6 2.3583545698701e7 0.0
2.3583545698701e7 3.6681154891419997e6 0.0
0.0 0.0 0.0

4.364813088351475e6 7.831555765294789e6 0.0
7.831555765294789e6 -2.6514626560357727e7 0.0
0.0 0.0 0.0

-4.503336042734325e6 2.300191477823185e7 0.0
2.300191477823185e7 3.6183194222890446e6 0.0
0.0 0.0 0.0

-4.322771965472551e6 2.2471664292925622e7 0.0
2.2471664292925622e7 3.4265957809331873e6 0.0
0.0 0.0 0.0

-4.403147382780815e6 1.8557700668386865e7 0.0
1.8557700668386865e7 1.598030731150612e6 0.0
0.0 0.0 0.0

-4.414731171564661e6 1.8942722477106344e7 0.0
1.8942722477106344e7 1.8605523275225568e6 0.0
0.0 0.0 0.0

-4.419467648265768e6 1.9316974317540232e7 0.0
1.9316974317540232e7 2.097365749968451e6 0.0
0.0 0.0 0.0

-4.41190101273676e6 1.9664264130130995e7 0.0
1.9664264130130995e7 2.2742932067675237e6 0.0
0.0 0.0 0.0

-4.450676572438892e6 1.99961084223311e7 0.0
1.99961084223311e7 2.499099123592305e6 0.0
0.0 0.0 0.0

-4.464288220925924e6 2.0345438012097016e7 0.0
2.0345438012097016e7 2.631481884976582e6 0.0
0.0 0.0 0.0

-5.474094687226017e6 9.488594763303049e6 0.0
9.488594763303049e6 3.20593398193794e6 0.0
0.0 0.0 0.0

-4.512770054050718e6 2.0692016419465553e7 0.0
2.0692016419465553e7 2.835285976782187e6 0.0
0.0 0.0 0.0

-4.687028017132218e6 2.1075545832422737e7 0.0
2.1075545832422737e7 2.9369119116404303e6 0.0
0.0 0.0 0.0

-8.719764091964707e6 1.081401284514617e7 0.0
1.081401284514617e7 1.274899876435614e7 0.0
0.0 0.0 0.0

-4.264710046414323e6 2.203918212080342e7 0.0
2.203918212080342e7 3.424878821500262e6 0.0
0.0 0.0 0.0

-4.841733549842203e6 2.1413819656672638e7 0.0
2.1413819656672638e7 3.0065080103734145e6 0.0
0.0 0.0 0.0

-4.901867623333154e6 2.184075946143551e7 0.0
2.184075946143551e7 3.115846373102543e6 0.0
0.0 0.0 0.0

-4.191951686994486e6 2.1654757380308934e7 0.0
2.1654757380308934e7 3.3835386616165214e6 0.0
0.0 0.0 0.0

-1.3503263351023593e6 1.1645639546170995e7 0.0
1.1645639546170995e7 -3.0552075351345823e6 0.0
0.0 0.0 0.0

-5.112578380403904e6 2.226362463105501e7 0.0
2.226362463105501e7 3.100699701571932e6 0.0
0.0 0.0 0.0

-4.256421170217245e6 2.1261815439196784e7 0.0
2.1261815439196784e7 3.2141658347567376e6 0.0
0.0 0.0 0.0

-4.0302009784186585e6 2.0910796619654108e7 0.0
2.0910796619654108e7 3.1393348994799843e6 0.0
0.0 0.0 0.0

-4.0331984822171396e6 2.0587987312717356e7 0.0
2.0587987312717356e7 2.9978189140527407e6 0.0
0.0 0.0 0.0

-4.054656320416054e6 2.0212291021781947e7 0.0
2.0212291021781947e7 2.836882543174986e6 0.0
0.0 0.0 0.0

-4.017691192648484e6 1.9894922953960586e7 0.0
1.9894922953960586e7 2.645312921528099e6 0.0
0.0 0.0 0.0

-4.0460232844389295e6 1.9539719574613612e7 0.0
1.9539719574613612e7 2.464561063758391e6 0.0
0.0 0.0 0.0

-4.005564079779331e6 1.9198588412715904e7 0.0
1.9198588412715904e7 2.2702011441881405e6 0.0
0.0 0.0 0.0

-3.96077675373362e6 1.882656708169707e7 0.0
1.882656708169707e7 2.032263691493637e6 0.0
0.0 0.0 0.0

-3.5596810058851913e6 1.6094890758751065e7 0.0
1.6094890758751065e7 -1.231847933678885e6 0.0
0.0 0.0 0.0

-1.0708587844867209e7 1.2508700210481092e7 0.0
1.2508700210481092e7 1.6957138602067e7 0.0
0.0 0.0 0.0

-5.523441283639311e6 2.26913713086227e7 0.0
2.26913713086227e7 3.132176227283918e6 0.0
0.0 0.0 0.0

3.3547120455908086e6 7.395397325895259e6 0.0
7.395397325895259e6 -1.3590432159956753e7 0.0
0.0 0.0 0.0

-4.314929754747177e6 1.5945966321103912e7 0.0
1.5945966321103912e7 2.4534369672987284e6 0.0
0.0 0.0 0.0

-6.153409688253011e6 2.32994708364665e7 0.0
2.32994708364665e7 3.223384246402723e6 0.0
0.0 0.0 0.0

-8.696219440765202e6 6.634803992732053e6 0.0
6.634803992732053e6 1.2623127978111764e7 0.0
0.0 0.0 0.0

-6.904366021130823e6 2.3994516558087576e7 0.0
2.3994516558087576e7 3.1145123793777763e6 0.0
0.0 0.0 0.0

-1.0826784535073115e7 4.61936476859438e6 0.0
4.61936476859438e6 1.479799004669844e7 0.0
0.0 0.0 0.0

-7.743789447346544e6 2.469065922027481e7 0.0
2.469065922027481e7 2.856349606114468e6 0.0
0.0 0.0 0.0

-343739.6762659834 1.3624893089522682e7 0.0
1.3624893089522682e7 -9.821255042911835e6 0.0
0.0 0.0 0.0

2.689671605282516e6 8.973777889035331e6 0.0
8.973777889035331e6 -1.1068117677423343e7 0.0
0.0 0.0 0.0

1.700632955648941e6 1.0872951307660779e7 0.0
1.0872951307660779e7 -1.9308355152859785e7 0.0
0.0 0.0 0.0

-2.870093951589562e6 1.444225253209599e7 0.0
1.444225253209599e7 -801678.4108972595 0.0
0.0 0.0 0.0

-933398.7191727993 1.1803295153738655e7 0.0
1.1803295153738655e7 -5.7911754586722795e6 0.0
0.0 0.0 0.0

-2.877631970961108e6 1.5391753813784178e7 0.0
1.5391753813784178e7 -2.862189483434176e6 0.0
0.0 0.0 0.0

-350816.8631154122 1.3753994175882606e7 0.0
1.3753994175882606e7 -9.975831985679671e6 0.0
0.0 0.0 0.0

5.300994864575619e6 4.294795821234138e6 0.0
4.294795821234138e6 -1.5830912227030292e7 0.0
0.0 0.0 0.0

-2.680048932912573e6 9.299510635836104e6 0.0
9.299510635836104e6 782700.822106497 0.0
0.0 0.0 0.0

-8.792276699729735e6 2.552081202084049e7 0.0
2.552081202084049e7 2.76619218390973e6 0.0
0.0 0.0 0.0

2.169797598590379e6 9.432469103551066e6 0.0
9.432469103551066e6 -9.524340696088308e6 0.0
0.0 0.0 0.0

-1.1691747061511992e7 4.791876135088608e6 0.0
4.791876135088608e6 1.667823547637441e7 0.0
0.0 0.0 0.0

-1.9397442761026232e6 1.2910095899368765e7 0.0
1.2910095899368765e7 -2.345197360709087e6 0.0
0.0 0.0 0.0

-3.9421393787932214e6 2.005433082286895e7 0.0
2.005433082286895e7 1.7801577551155752e6 0.0
0.0 0.0 0.0

3.6515341024242863e6 6.99987888582735e6 0.0
6.99987888582735e6 -1.4205838875578698e7 0.0
0.0 0.0 0.0

-1.090164040957016e7 2.3251936994377427e7 0.0
2.3251936994377427e7 7.586153530640494e6 0.0
0.0 0.0 0.0

-6.517851918248869e6 1.083532571387558e7 0.0
1.083532571387558e7 5.031264998568159e6 0.0
0.0 0.0 0.0

-1.1352704494979132e7 1.7895266027280476e7 0.0
1.7895266027280476e7 5.199951441386461e6 0.0
0.0 0.0 0.0

-227108.88888638397 1.3860705060949482e7 0.0
1.3860705060949482e7 5.153057634568982e6 0.0
0.0 0.0 0.0

-1.0617015295412013e7 2.678526572461778e7 0.0
2.678526572461778e7 2.5604256207886618e6 0.0
0.0 0.0 0.0

2.920536157274237e6 9.337404889099564e6 0.0
9.337404889099564e6 -1.6755245942945685e7 0.0
0.0 0.0 0.0

-4.800090377335226e6 1.0672418865719885e7 0.0
1.0672418865719885e7 1.933020229349196e6 0.0
0.0 0.0 0.0

432143.4365424316 1.0455592846488422e7 0.0
1.0455592846488422e7 1.440478382456304e6 0.0
0.0 0.0 0.0

2.818689517637224e6 7.875733339785467e6 0.0
7.875733339785467e6 -1.204144757849692e7 0.0
0.0 0.0 0.0

-15047.882229287527 1.2803002342970902e7 0.0
1.2803002342970902e7 1.371713794264169e6 0.0
0.0 0.0 0.0

3.074161917006233e6 7.803649212943824e6 0.0
7.803649212943824e6 -1.297865465334852e7 0.0
0.0 0.0 0.0

-410316.8400331802 1.2166238017211128e7 0.0
1.2166238017211128e7 -2.535493597136179e6 0.0
0.0 0.0 0.0

-3.284341158722013e6 1.475960633013154e7 0.0
1.475960633013154e7 32074.287480670027 0.0
0.0 0.0 0.0

-3.419805361429196e6 1.4845242109091498e7 0.0
1.4845242109091498e7 -1.5264289352221107e6 0.0
0.0 0.0 0.0

2.2137577529680547e6 7.977038894810807e6 0.0
7.977038894810807e6 -1.0135899136089372e7 0.0
0.0 0.0 0.0

9.821320406208241e6 1.597044865235802e7 0.0
1.597044865235802e7 6.104061960549185e6 0.0
0.0 0.0 0.0

1.7624188170080986e6 1.00702223511623e7 0.0
1.00702223511623e7 -9.228383845153317e6 0.0
0.0 0.0 0.0

-603400.0262643263 1.1939702420181254e7 0.0
1.1939702420181254e7 -4.728365839240126e6 0.0
0.0 0.0 0.0

-4.4460625624968065e6 1.5875709607091967e7 0.0
1.5875709607091967e7 3.988914244428649e6 0.0
0.0 0.0 0.0

713979.2887886916 9.325683005303588e6 0.0
9.325683005303588e6 -6.057113067466599e6 0.0
0.0 0.0 0.0

-5.938287946672449e6 1.6647486655376295e7 0.0
1.6647486655376295e7 8.12104680499864e6 0.0
0.0 0.0 0.0

195673.60047920374 1.415825440652832e7 0.0
1.415825440652832e7 8.494978954034604e6 0.0
0.0 0.0 0.0

-6.9198622776772315e6 8.726179859599601e6 0.0
8.726179859599601e6 9.267067270331327e6 0.0
0.0 0.0 0.0

-1.3236718983047895e7 2.8079791495212417e7 0.0
2.8079791495212417e7 1.9511990122812549e6 0.0
0.0 0.0 0.0

-5.7269931085864585e6 1.4114219840632778e7 0.0
1.4114219840632778e7 2.061632665430381e7 0.0
0.0 0.0 0.0

-2.924878675490176e6 1.1485673981228547e7 0.0
1.1485673981228547e7 -1.632315272926698e6 0.0
0.0 0.0 0.0

4.584608975944272e6 1.3251499765429275e7 0.0
1.3251499765429275e7 -770923.4391463061 0.0
0.0 0.0 0.0

4.1064323120224904e6 6.6994784881885415e6 0.0
6.6994784881885415e6 -1.5675071665004253e7 0.0
0.0 0.0 0.0

2.883282027511349e6 9.51258026114784e6 0.0
9.51258026114784e6 -1.8734370370451324e7 0.0
0.0 0.0 0.0

-7.088822140717264e6 1.3562634321477838e7 0.0
1.3562634321477838e7 7.407505996253718e6 0.0
0.0 0.0 0.0

-6.970643940300902e6 1.914675755334611e7 0.0
1.914675755334611e7 727121.3033809108 0.0
0.0 0.0 0.0

-3.1885355438356865e6 1.2938699467790443e7 0.0
1.2938699467790443e7 337062.1576632678 0.0
0.0 0.0 0.0

-303686.0003215368 1.2180807072140612e7 0.0
1.2180807072140612e7 -7.651555412840273e6 0.0
0.0 0.0 0.0

-1.2693794259448133e7 2.2155325095638175e7 0.0
2.2155325095638175e7 9.160227949639738e6 0.0
0.0 0.0 0.0

2.056504591211928e6 9.506690642774312e6 0.0
9.506690642774312e6 -1.1797369910149857e7 0.0
0.0 0.0 0.0

-3.4630244198948164e6 1.3599029862402303e7 0.0
1.3599029862402303e7 705570.9025817695 0.0
0.0 0.0 0.0

-1.880097129666e6 7.080706456172394e6 0.0
7.080706456172394e6 200289.00277324836 0.0
0.0 0.0 0.0

-5.83509690347385e6 1.3272210026401255e7 0.0
1.3272210026401255e7 6.388988647409352e6 0.0
0.0 0.0 0.0

-1.8323917139007457e7 3.88657292116804e7 0.0
3.88657292116804e7 -1.2941969205807913e6 0.0
0.0 0.0 0.0

-6.6944838493356295e6 9.610262630502455e6 0.0
9.610262630502455e6 8.513955988669243e6 0.0
0.0 0.0 0.0

-1.0776916171919713e6 6.120468443985341e6 0.0
6.120468443985341e6 -2.306357453383262e6 0.0
0.0 0.0 0.0

-3.263597537976975e6 1.5569273329234978e7 0.0
1.5569273329234978e7 -111439.01237335068 0.0
0.0 0.0 0.0

-5.357728383259966e6 1.5632148073660636e7 0.0
1.5632148073660636e7 3.272183989156748e6 0.0
0.0 0.0 0.0

-1.3087384797330098e6 1.4047302978249064e7 0.0
1.4047302978249064e7 -4.570471080402904e6 0.0
0.0 0.0 0.0

-3.7971888954983824e6 1.5189824279829876e7 0.0
1.5189824279829876e7 -697879.2673438729 0.0
0.0 0.0 0.0

-3.4372785497664176e6 3.3434236132907486e6 0.0
3.3434236132907486e6 2.9452270997542576e6 0.0
0.0 0.0 0.0

891001.8846576521 1.1722768871927606e7 0.0
1.1722768871927606e7 -4.352313240012239e6 0.0
0.0 0.0 0.0

-5.495901583891795e6 1.6227148808186727e7 0.0
1.6227148808186727e7 3.5636884171012756e6 0.0
0.0 0.0 0.0

1.3708175511473748e6 8.771832079010226e6 0.0
8.771832079010226e6 -8.892008799678456e6 0.0
0.0 0.0 0.0

1.085212898486235e6 1.2031429447895393e7 0.0
1.2031429447895393e7 -3.8318332696409132e6 0.0
0.0 0.0 0.0

-1.1947951782220362e7 1.69344146984214e7 0.0
1.69344146984214e7 3.1681985724793347e6 0.0
0.0 0.0 0.0

-6.236703059420023e6 1.027566675854437e7 0.0
1.027566675854437e7 7.701172204301143e6 0.0
0.0 0.0 0.0

-34945.026185553055 1.3301311503526015e7 0.0
1.3301311503526015e7 -1.0586160616579784e7 0.0
0.0 0.0 0.0

-5.791447541682165e6 1.6716215164965792e7 0.0
1.6716215164965792e7 5.085489527729776e6 0.0
0.0 0.0 0.0

3.726413368307998e6 4.1682474504714115e6 0.0
4.1682474504714115e6 -1.0432751962512184e7 0.0
0.0 0.0 0.0

-81747.54130340193 2.5239165929417727e6 0.0
2.5239165929417727e6 -1.5307820590763118e6 0.0
0.0 0.0 0.0

487181.05949950905 2.928570129289664e6 0.0
2.928570129289664e6 -2.1592322763382485e6 0.0
0.0 0.0 0.0

-5.586692972820476e6 -7.324922697918063e6 0.0
-7.324922697918063e6 1.0583999207246576e7 0.0
0.0 0.0 0.0

812504.011035773 3.262033966353971e6 0.0
3.262033966353971e6 -3.022527378322063e6 0.0
0.0 0.0 0.0

-6.0908225278686695e6 -5.830442121081803e6 0.0
-5.830442121081803e6 8.666355572939994e6 0.0
0.0 0.0 0.0

3.4563788828247157e6 4.370115732750374e6 0.0
4.370115732750374e6 -8.899057207055923e6 0.0
0.0 0.0 0.0

-1.2300193482620572e6 664776.087198359 0.0
664776.087198359 513875.1086660356 0.0
0.0 0.0 0.0

-4.14848728815159e6 -818069.86409433 0.0
-818069.86409433 3.6433922788189976e6 0.0
0.0 0.0 0.0

1.2935697200037416e6 3.592909235004039e6 0.0
3.592909235004039e6 -4.242663753220081e6 0.0
0.0 0.0 0.0

-4.667575753097536e6 -3.7892857763071014e6 0.0
-3.7892857763071014e6 5.5854250840523895e6 0.0
0.0 0.0 0.0

2.815527686977972e6 4.483961219682212e6 0.0
4.483961219682212e6 -7.340218137276888e6 0.0
0.0 0.0 0.0

2.0622739869676153e6 4.267717288222114e6 0.0
4.267717288222114e6 -5.947452967807535e6 0.0
0.0 0.0 0.0

-174796.25844533206 2.0411098527872253e6 0.0
2.0411098527872253e6 -1.1511365773654338e6 0.0
0.0 0.0 0.0

5.055516501816604e6 4.419788062842978e6 0.0
4.419788062842978e6 -1.4707745044399403e7 0.0
0.0 0.0 0.0

5.270616916821108e6 4.282374671400726e6 0.0
4.282374671400726e6 -1.5593653032443337e7 0.0
0.0 0.0 0.0

4.902733659624168e6 4.496617361304306e6 0.0
4.496617361304306e6 -1.398263229590774e7 0.0
0.0 0.0 0.0

4.64211875980892e6 4.412588112834052e6 0.0
4.412588112834052e6 -1.2817683328412492e7 0.0
0.0 0.0 0.0

-903537.3276164628 1.3643404930366362e6 0.0
1.3643404930366362e6 -185962.16345059685 0.0
0.0 0.0 0.0

-5.173711551492398e6 -5.079301029349064e6 0.0
-5.079301029349064e6 6.815810183514206e6 0.0
0.0 0.0 0.0

5.173925569396815e6 4.387021798307343e6 0.0
4.387021798307343e6 -1.5183138967655264e7 0.0
0.0 0.0 0.0

4.0202768463058313e6 4.212279464779075e6 0.0
4.212279464779075e6 -1.1543043249063939e7 0.0
0.0 0.0 0.0

4.274415627708748e6 4.265913593520104e6 0.0
4.265913593520104e6 -1.2184101935573593e7 0.0
0.0 0.0 0.0

4.049476790982686e6 4.232551479714105e6 0.0
4.232551479714105e6 -1.1130375676487241e7 0.0
0.0 0.0 0.0

697365.781900438 1.2304053559816612e7 0.0
1.2304053559816612e7 -9.216247672598884e6 0.0
0.0 0.0 0.0

-7.885527518545402e6 7.752889914931301e6 0.0
7.752889914931301e6 1.1515131534244467e7 0.0
0.0 0.0 0.0

-1.2105038868246088e7 2.5603197237821803e6 0.0
2.5603197237821803e6 1.579007790476228e7 0.0
0.0 0.0 0.0

-5.7895174406483285e6 1.7165931426307485e7 0.0
1.7165931426307485e7 7.663127341821886e6 0.0
0.0 0.0 0.0

736212.7642960986 1.2206907766069693e7 0.0
1.2206907766069693e7 -1.4566539957908778e7 0.0
0.0 0.0 0.0

-5.239389348412843e6 1.3617833666245501e7 0.0
1.3617833666245501e7 2.3815708025161307e6 0.0
0.0 0.0 0.0

-1.699360006714624e7 3.000673745371724e7 0.0
3.000673745371724e7 1.4937647481691055e6 0.0
0.0 0.0 0.0

-3.260565023428426e6 1.2170076205366585e7 0.0
1.2170076205366585e7 -1.242091231604011e6 0.0
0.0 0.0 0.0

-2.409847224593751e6 1.4285706215408232e7 0.0
1.4285706215408232e7 -5.300402102556439e6 0.0
0.0 0.0 0.0

1.756144188297778e6 1.4972760570364349e7 0.0
1.4972760570364349e7 5.499405488560347e6 0.0
0.0 0.0 0.0

-3.002110114101068e6 1.4647557596110154e7 0.0
1.4647557596110154e7 4.083654233302477e6 0.0
0.0 0.0 0.0

-5.88224514030071e6 1.4073339678088738e7 0.0
1.4073339678088738e7 6.496403728367778e6 0.0
0.0 0.0 0.0

-28226.66544633638 1.4502655770818394e7 0.0
1.4502655770818394e7 -8.682383007575976e6 0.0
0.0 0.0 0.0

-6.152404764305156e6 1.2829804113529893e7 0.0
1.2829804113529893e7 7.195910477185942e6 0.0
0.0 0.0 0.0

-4.0966694864528426e6 1.5549152427661955e7 0.0
1.5549152427661955e7 57127.716385651845 0.0
0.0 0.0 0.0

-3.0140827126550456e6 1.4514059769828303e7 0.0
1.4514059769828303e7 -2.3435700402395166e6 0.0
0.0 0.0 0.0

-6.27891537290588e6 9.76662637390573e6 0.0
9.76662637390573e6 4.610947622682426e6 0.0
0.0 0.0 0.0

-503516.4744500632 1.148027456592923e7 0.0
1.148027456592923e7 -6.533448448531616e6 0.0
0.0 0.0 0.0

-3.3695168168979e6 1.2580745293261517e7 0.0
1.2580745293261517e7 880489.0944888457 0.0
0.0 0.0 0.0

1.8082374614553456e6 8.3819660275477655e6 0.0
8.3819660275477655e6 -9.51271353325193e6 0.0
0.0 0.0 0.0

238158.3366464776 2.303145126135575e6 0.0
2.303145126135575e6 -500592.0680619736 0.0
0.0 0.0 0.0

461013.3246159658 2.8514749736085497e6 0.0
2.8514749736085497e6 -1.2615612864374262e6 0.0
0.0 0.0 0.0

-3.8832607430204554e6 -4.273986021217283e6 0.0
-4.273986021217283e6 8.515265542295223e6 0.0
0.0 0.0 0.0

20730.119627927314 1.8940099602619295e6 0.0
1.8940099602619295e6 194047.8936832074 0.0
0.0 0.0 0.0

-502576.1588978733 1.0869052656153098e6 0.0
1.0869052656153098e6 929727.2273339246 0.0
0.0 0.0 0.0

5.054183088946311e6 4.419878433950476e6 0.0
4.419878433950476e6 -1.4773304193678504e7 0.0
0.0 0.0 0.0

5.1122716424346855e6 4.339433792675364e6 0.0
4.339433792675364e6 -1.51134495581572e7 0.0
0.0 0.0 0.0

-5.1116496834435e6 -5.201472782686348e6 0.0
-5.201472782686348e6 1.0357716446801407e7 0.0
0.0 0.0 0.0

4.494060289746348e6 4.421409809444571e6 0.0
4.421409809444571e6 -1.2180158152689844e7 0.0
0.0 0.0 0.0

4.014362713231194e6 4.316007402004626e6 0.0
4.316007402004626e6 -1.0451954593233803e7 0.0
0.0 0.0 0.0

4.233367304059903e6 4.319293645960936e6 0.0
4.319293645960936e6 -1.1474478691567102e7 0.0
0.0 0.0 0.0

4.046599247770257e6 4.246783793128508e6 0.0
4.246783793128508e6 -1.0982599654698761e7 0.0
0.0 0.0 0.0

-3.6316057121403767e6 1.1375960567422379e7 0.0
1.1375960567422379e7 -251222.8337884806 0.0
0.0 0.0 0.0

-1.0502974723697383e7 1.2905092357492935e7 0.0
1.2905092357492935e7 1.607402102219547e7 0.0
0.0 0.0 0.0

-6.807886333605126e6 1.2616921197817963e7 0.0
1.2616921197817963e7 8.860002517529555e6 0.0
0.0 0.0 0.0

4.381838090941634e6 6.130617094877625e6 0.0
6.130617094877625e6 -1.3410036010172948e7 0.0
0.0 0.0 0.0

-3.2517751647499925e6 1.700588647059894e7 0.0
1.700588647059894e7 -1.7845894992941548e6 0.0
0.0 0.0 0.0

-4.301213710743383e6 1.5129296972938305e7 0.0
1.5129296972938305e7 1.0566925829614164e7 0.0
0.0 0.0 0.0

-1.1425780795983963e7 8.332472200178581e6 0.0
8.332472200178581e6 1.3597645890483502e7 0.0
0.0 0.0 0.0

2.5306878641285584e6 8.253176501514658e6 0.0
8.253176501514658e6 -1.1411756901031395e7 0.0
0.0 0.0 0.0

2.009986229469459e6 9.771689032402346e6 0.0
9.771689032402346e6 -1.2070177017199567e7 0.0
0.0 0.0 0.0

-2.7960560202830858e6 1.3956812738565682e7 0.0
1.3956812738565682e7 -2.6955987997920774e6 0.0
0.0 0.0 0.0

-5.596125872751627e6 1.499434465435141e7 0.0
1.499434465435141e7 1.2077857497411035e7 0.0
0.0 0.0 0.0

-2.2535811302311895e6 8.508700765117962e6 0.0
8.508700765117962e6 290723.8528676559 0.0
0.0 0.0 0.0

-1.640750777139754e6 1.4412290268545415e7 0.0
1.4412290268545415e7 -3.7870603739291774e6 0.0
0.0 0.0 0.0

-3.8518482842394835e6 1.697263676611431e7 0.0
1.697263676611431e7 1.3517188881718158e6 0.0
0.0 0.0 0.0

1.3264562568084635e6 1.0655331832011027e7 0.0
1.0655331832011027e7 -9.045773158340419e6 0.0
0.0 0.0 0.0

-3.082876555705107e6 1.5014200002615055e7 0.0
1.5014200002615055e7 -446967.71667559317 0.0
0.0 0.0 0.0

354198.9899517223 2.194335318909692e6 0.0
2.194335318909692e6 2.980372904487079e6 0.0
0.0 0.0 0.0

-5.773609230843723e6 1.4949849302908529e7 0.0
1.4949849302908529e7 1.1825246268713895e7 0.0
0.0 0.0 0.0

3.5390208514639614e6 8.754001437412394e6 0.0
8.754001437412394e6 -2.1248382876540165e7 0.0
0.0 0.0 0.0

2.951267958114205e6 9.385770171233788e6 0.0
9.385770171233788e6 -1.7769545001653127e7 0.0
0.0 0.0 0.0

-1.3625469193564751e6 1.3879900459484914e7 0.0
1.3879900459484914e7 -4.147895734462968e6 0.0
0.0 0.0 0.0

-7.132994915319594e6 1.6800348656261954e7 0.0
1.6800348656261954e7 4.193953674921419e6 0.0
0.0 0.0 0.0

2.809628984182109e6 6.210183359558255e6 0.0
6.210183359558255e6 -8.392366486139238e6 0.0
0.0 0.0 0.0

-2.88968196750621e6 1.2264269204280773e7 0.0
1.2264269204280773e7 -27706.732875975664 0.0
0.0 0.0 0.0

-3.62646195756599e6 1.4625818597757202e7 0.0
1.4625818597757202e7 -1.0458549945734795e6 0.0
0.0 0.0 0.0

-2.8853089058273467e6 1.5232205419009099e7 0.0
1.5232205419009099e7 -928050.0704346439 0.0
0.0 0.0 0.0

886365.6650119452 1.21680165246449e7 0.0
1.21680165246449e7 -1.5544056237698069e7 0.0
0.0 0.0 0.0

2.5071199529084573e6 9.667461573357722e6 0.0
9.667461573357722e6 -1.5089253175730871e7 0.0
0.0 0.0 0.0

-3.220625854454211e6 8.747226580332842e6 0.0
8.747226580332842e6 -31625.848787773284 0.0
0.0 0.0 0.0

-6.892122210261485e6 1.3203431357411955e7 0.0
1.3203431357411955e7 6.580404223359486e6 0.0
0.0 0.0 0.0

1.7044599531534621e6 1.1398782658057224e7 0.0
1.1398782658057224e7 -1.6034060191827692e7 0.0
0.0 0.0 0.0

-2.4465391442737505e6 1.5771387505003672e7 0.0
1.5771387505003672e7 -2.2732180264355373e6 0.0
0.0 0.0 0.0

2.4079062367942845e6 4.377689594970723e6 0.0
4.377689594970723e6 -6.51944316608633e6 0.0
0.0 0.0 0.0

-2.3274580833861073e6 2.1292322108220115e7 0.0
2.1292322108220115e7 -579842.0053412312 0.0
0.0 0.0 0.0

2.397443644007413e6 6.64798228320668e6 0.0
6.64798228320668e6 -7.8277519121969715e6 0.0
0.0 0.0 0.0

-1.0096331070912385e6 1.0985446469890554e7 0.0
1.0985446469890554e7 -3.4206619687884985e6 0.0
0.0 0.0 0.0

-6.826459371905185e6 1.540115727346971e7 0.0
1.540115727346971e7 8.436504737643333e6 0.0
0.0 0.0 0.0

-2.3032054712889143e6 1.0356887386016957e7 0.0
1.0356887386016957e7 -278840.98746290477 0.0
0.0 0.0 0.0

-2.772160735737712e6 1.1839035357080111e7 0.0
1.1839035357080111e7 -2.0929688169973735e6 0.0
0.0 0.0 0.0

-4.0119513711878476e6 1.4946985613526614e7 0.0
1.4946985613526614e7 -219374.20988392993 0.0
0.0 0.0 0.0

-2.724900577879615e6 7.954913825114591e6 0.0
7.954913825114591e6 -524343.9346794535 0.0
0.0 0.0 0.0

-2.905294653717052e6 2.7667109946929747e6 0.0
2.7667109946929747e6 2.841127988421632e6 0.0
0.0 0.0 0.0

-5.726400929956981e6 1.2399204851929666e7 0.0
1.2399204851929666e7 6.212167746169474e6 0.0
0.0 0.0 0.0

-4.801793712497489e6 1.371346313170059e7 0.0
1.371346313170059e7 3.830443428336962e6 0.0
0.0 0.0 0.0

940817.6084646177 6.480044065864953e6 0.0
6.480044065864953e6 -6.087012465536615e6 0.0
0.0 0.0 0.0

-5.9731162619667305e6 1.0968243582880182e7 0.0
1.0968243582880182e7 6.80895932573898e6 0.0
0.0 0.0 0.0

-3.592764066808809e6 1.5402414844219303e7 0.0
1.5402414844219303e7 -1.164459260937195e6 0.0
0.0 0.0 0.0

3.993741844842918e6 7.944581377613031e6 0.0
7.944581377613031e6 -1.552052542047809e7 0.0
0.0 0.0 0.0

-5.4799296348054055e6 1.6931788674672052e7 0.0
1.6931788674672052e7 3.573579971027292e6 0.0
0.0 0.0 0.0

-2.5526470151284663e6 1.3375052321088932e7 0.0
1.3375052321088932e7 -3.0527602807702236e6 0.0
0.0 0.0 0.0

2.2762725492738276e6 4.401356266142953e6 0.0
4.401356266142953e6 -5.668934743318841e6 0.0
0.0 0.0 0.0

-5.697858034384575e6 1.8379923610139016e7 0.0
1.8379923610139016e7 6.333951361715613e6 0.0
0.0 0.0 0.0

-9.379940332633238e6 5.659693049552715e6 0.0
5.659693049552715e6 1.0385014317290934e7 0.0
0.0 0.0 0.0

-2.907644429292815e6 1.2817128983146448e7 0.0
1.2817128983146448e7 -2.17621349430279e6 0.0
0.0 0.0 0.0

-3.2583442302586855e6 1.6270122472700637e7 0.0
1.6270122472700637e7 -279047.5405806339 0.0
0.0 0.0 0.0

-4.383627996465815e6 1.6639684375425838e7 0.0
1.6639684375425838e7 780580.8859213428 0.0
0.0 0.0 0.0

-3.2169115895166663e6 1.5058217433534002e7 0.0
1.5058217433534002e7 -1.9874173085945575e6 0.0
0.0 0.0 0.0

-3.6798248761430383e6 1.5088140053748285e7 0.0
1.5088140053748285e7 849534.3163777108 0.0
0.0 0.0 0.0

2.964913692549589e6 4.420147946516254e6 0.0
4.420147946516254e6 -7.796242490894818e6 0.0
0.0 0.0 0.0

-3.6384414022907247e6 1.8151486003280524e7 0.0
1.8151486003280524e7 -811643.5450648139 0.0
0.0 0.0 0.0

-5.709715613565836e6 1.5429119728565186e7 0.0
1.5429119728565186e7 -2.977713580437463e7 0.0
0.0 0.0 0.0

5.956711638550679e6 1.4824983912303215e7 0.0
1.4824983912303215e7 3.477654424383014e7 0.0
0.0 0.0 0.0

1.0841580517457817e6 1.1436823281656608e7 0.0
1.1436823281656608e7 -1.1536716147356955e7 0.0
0.0 0.0 0.0

-2.0504946381916385e6 1.4735049767242905e7 0.0
1.4735049767242905e7 -3.010026263266426e6 0.0
0.0 0.0 0.0

-893382.8977263914 1.1782378317288544e7 0.0
1.1782378317288544e7 -1.2268428058530161e7 0.0
0.0 0.0 0.0

-2.2747364660460735e6 1.278199306193567e7 0.0
1.278199306193567e7 -3.428495035598797e6 0.0
0.0 0.0 0.0

-587724.3459101976 1.4773351863010593e7 0.0
1.4773351863010593e7 -7.927876268212554e6 0.0
0.0 0.0 0.0

-1.3897856884617938e6 1.2133684589352863e7 0.0
1.2133684589352863e7 -5.009907358361263e6 0.0
0.0 0.0 0.0

-4.176501899532075e6 1.4727115568100197e7 0.0
1.4727115568100197e7 250915.18238766468 0.0
0.0 0.0 0.0

4.1589449771970436e6 8.115131475538401e6 0.0
8.115131475538401e6 -2.5150502636436872e7 0.0
0.0 0.0 0.0

-5.968657701240082e6 1.6037544253539534e7 0.0
1.6037544253539534e7 2.559782718439725e6 0.0
0.0 0.0 0.0

-5.903255208188051e6 1.5069612998611039e7 0.0
1.5069612998611039e7 4.537393261821392e6 0.0
0.0 0.0 0.0

-1.0627613816296982e6 1.2261771840533849e7 0.0
1.2261771840533849e7 -3.9514440194405876e6 0.0
0.0 0.0 0.0

2.227146447241837e6 1.0052666417135129e7 0.0
1.0052666417135129e7 -1.43363865901512e7 0.0
0.0 0.0 0.0

6.438407721076411e6 1.485587114172798e7 0.0
1.485587114172798e7 2.1461357714723278e7 0.0
0.0 0.0 0.0

-1.7171105644141373e6 1.502762949453648e7 0.0
1.502762949453648e7 -4.810009869860367e6 0.0
0.0 0.0 0.0

-2.4005864397968154e7 3.299512360933945e7 0.0
3.299512360933945e7 1.3240483026881656e6 0.0
0.0 0.0 0.0

1.3549191647927682e6 1.107268325476419e7 0.0
1.107268325476419e7 -1.2220225568364657e7 0.0
0.0 0.0 0.0

-2.512827694259477e6 1.4893869005694557e7 0.0
1.4893869005694557e7 -1.754773716328469e6 0.0
0.0 0.0 0.0

2.8038113286841977e6 4.480352697282119e6 0.0
4.480352697282119e6 -7.26359796689369e6 0.0
0.0 0.0 0.0

3.7443817797922557e6 7.371736205424621e6 0.0
7.371736205424621e6 -1.5353393261855297e7 0.0
0.0 0.0 0.0

-3.713731517915746e6 1.6463958308619037e7 0.0
1.6463958308619037e7 1.0466378714081247e6 0.0
0.0 0.0 0.0

-2.0433790200119335e6 1.2950772614076803e7 0.0
1.2950772614076803e7 -1.9652374345774643e7 0.0
0.0 0.0 0.0

-1.500086409078857e6 1.2590549214221867e7 0.0
1.2590549214221867e7 -3.1539410969616054e6 0.0
0.0 0.0 0.0

1.3269477669759616e6 9.609796376809783e6 0.0
9.609796376809783e6 -7.534728175276396e6 0.0
0.0 0.0 0.0

-3.431158023631623e6 1.0914582546853926e7 0.0
1.0914582546853926e7 1.7046673568631439e6 0.0
0.0 0.0 0.0

1.6877827286923993e6 1.0736697696858725e7 0.0
1.0736697696858725e7 -1.2953021331689509e7 0.0
0.0 0.0 0.0

-4.1366047132758996e6 1.037173600856473e7 0.0
1.037173600856473e7 884045.1144215737 0.0
0.0 0.0 0.0

274083.3175383569 1.2980069400781771e7 0.0
1.2980069400781771e7 -1.1333516723530926e7 0.0
0.0 0.0 0.0

-1.3460092284437468e7 2.0753488058026977e7 0.0
2.0753488058026977e7 1.2731416966566863e6 0.0
0.0 0.0 0.0

-2.837391944302755e6 283096.18049555307 0.0
283096.18049555307 2.449112401062041e6 0.0
0.0 0.0 0.0

-4.3352973445614595e6 1.0691368856733257e7 0.0
1.0691368856733257e7 3.4818952899375036e6 0.0
0.0 0.0 0.0

-3.4600738145498172e6 1.5331090354694985e7 0.0
1.5331090354694985e7 389896.6975232463 0.0
0.0 0.0 0.0

-1.0652985968201198e7 -2.925988782330095e6 0.0
-2.925988782330095e6 2.836090298530803e7 0.0
0.0 0.0 0.0

-1.339386942454928e6 1.4361112148754286e7 0.0
1.4361112148754286e7 5.815101533643344e6 0.0
0.0 0.0 0.0

-1.8333013421034482e6 1.2455864035451518e7 0.0
1.2455864035451518e7 -4.231793489493406e6 0.0
0.0 0.0 0.0

-954693.8391508681 1.4697934799262317e7 0.0
1.4697934799262317e7 -6.837145234654749e6 0.0
0.0 0.0 0.0

-1.2865094561724311e6 1.3343810229880312e7 0.0
1.3343810229880312e7 -5.843888161936332e6 0.0
0.0 0.0 0.0

-897572.2221542866 1.0561374725063356e7 0.0
1.0561374725063356e7 -5.280522779170714e6 0.0
0.0 0.0 0.0

-2.4720064755295864e6 1.4370725678272609e7 0.0
1.4370725678272609e7 -3.5808656139465105e6 0.0
0.0 0.0 0.0

-6.685830637826982e6 1.3453101688223222e7 0.0
1.3453101688223222e7 8.810693549318641e6 0.0
0.0 0.0 0.0

-3.6278882099656654e6 1.3264898360749584e7 0.0
1.3264898360749584e7 1.2421183226110665e6 0.0
0.0 0.0 0.0

-3.0853836246663136e6 1.2500585901351698e7 0.0
1.2500585901351698e7 -1.722596760927387e6 0.0
0.0 0.0 0.0

4.452350235932812e6 7.183285937157447e6 0.0
7.183285937157447e6 -1.88348846688208e7 0.0
0.0 0.0 0.0

-5.814394369750628e6 1.8748815756316718e7 0.0
1.8748815756316718e7 6.592336651198127e6 0.0
0.0 0.0 0.0

-749689.9078189263 4.0615485499492357e6 0.0
4.0615485499492357e6 -426047.20573587634 0.0
0.0 0.0 0.0

-6.456370848497242e6 1.3178557319218861e7 0.0
1.3178557319218861e7 8.053133353733998e6 0.0
0.0 0.0 0.0

813292.4222878795 9.665264426298613e6 0.0
9.665264426298613e6 -6.44338828993366e6 0.0
0.0 0.0 0.0

4.376295817175846e6 5.036581298500217e6 0.0
5.036581298500217e6 -1.2905653361070005e7 0.0
0.0 0.0 0.0

1.9533037972275335e6 1.0365912344032079e7 0.0
1.0365912344032079e7 -1.3692782875030775e7 0.0
0.0 0.0 0.0

-1.6667009987767625e6 6.314074398794335e6 0.0
6.314074398794335e6 -1.500840290799929e6 0.0
0.0 0.0 0.0

-1.2908469106739983e7 8.020569559927409e6 0.0
8.020569559927409e6 1.6440559827562682e7 0.0
0.0 0.0 0.0

-2.3862732038332066e6 1.3626541997721832e7 0.0
1.3626541997721832e7 -3.4989961436233735e6 0.0
0.0 0.0 0.0

-1.6432235305655706e6 813302.9981721077 0.0
813302.9981721077 2.0706444968670877e6 0.0
0.0 0.0 0.0

-3.7024044322345178e6 9.553581038664049e6 0.0
9.553581038664049e6 434969.0711430919 0.0
0.0 0.0 0.0

-1.2421569298637896e6 1.5056136129386812e7 0.0
1.5056136129386812e7 -5.990471267664585e6 0.0
0.0 0.0 0.0

21540.53644034639 1.284462357748167e7 0.0
1.284462357748167e7 -1.2232155687660022e7 0.0
0.0 0.0 0.0

1.434819933488628e6 9.692346881994497e6 0.0
9.692346881994497e6 -9.923088421087792e6 0.0
0.0 0.0 0.0

226915.5386363 7.895079815789678e6 0.0
7.895079815789678e6 -5.651817785043318e6 0.0
0.0 0.0 0.0

-1.787884622784169e6 1.3192567137403557e7 0.0
1.3192567137403557e7 -2.7923848997552227e6 0.0
0.0 0.0 0.0

-7.30099574292601e6 1.4530799880484007e7 0.0
1.4530799880484007e7 1.3569583014583573e7 0.0
0.0 0.0 0.0

-4.194935268427134e6 1.675311644640513e7 0.0
1.675311644640513e7 311959.1677106598 0.0
0.0 0.0 0.0

-8.807493286413904e6 1.3258995067220895e7 0.0
1.3258995067220895e7 1.1809534140656695e7 0.0
0.0 0.0 0.0

-6.204185717377992e6 1.5400513711256508e7 0.0
1.5400513711256508e7 7.844208309866529e6 0.0
0.0 0.0 0.0

468034.95441950625 8.788728392332252e6 0.0
8.788728392332252e6 -6.712229267354288e6 0.0
0.0 0.0 0.0

-3.0760920565538416e6 1.0102844582616398e7 0.0
1.0102844582616398e7 1.2599679482218458e6 0.0
0.0 0.0 0.0

-2.471299205975102e6 1.431450888684854e7 0.0
1.431450888684854e7 6.152087332046349e6 0.0
0.0 0.0 0.0

-1.3377588242177397e6 1.0905312438748907e7 0.0
1.0905312438748907e7 -4.50713913789821e6 0.0
0.0 0.0 0.0

1.456354213723842e6 1.157691647526312e7 0.0
1.157691647526312e7 -1.5056714409601234e7 0.0
0.0 0.0 0.0

-2.0571451741856942e6 1.3774477148732368e7 0.0
1.3774477148732368e7 -2.4325745554221314e6 0.0
0.0 0.0 0.0

759993.447133183 1.176504750511141e7 0.0
1.176504750511141e7 -1.0855150825233238e7 0.0
0.0 0.0 0.0

-3.2292814811177417e6 1.1409631488735253e7 0.0
1.1409631488735253e7 1.0846300312632625e6 0.0
0.0 0.0 0.0

-3.1026508230436724e6 1.2355993152867947e7 0.0
1.2355993152867947e7 -1.4925560024529034e7 0.0
0.0 0.0 0.0

-2.297476668346989e6 1.434212325032126e7 0.0
1.434212325032126e7 -2.0970583417190972e6 0.0
0.0 0.0 0.0

2.6766590080597103e6 1.3461467934461113e7 0.0
1.3461467934461113e7 -2.9030098052588208e6 0.0
0.0 0.0 0.0

-1.1005129845858444e7 -882275.183180322 0.0
-882275.183180322 2.7718142487767644e7 0.0
0.0 0.0 0.0

-8.48971158803753e6 2.2933924499907937e7 0.0
2.2933924499907937e7 6.97377525951898e6 0.0
0.0 0.0 0.0

-3.836987243082603e6 1.5049211751170568e7 0.0
1.5049211751170568e7 5.413060045756472e6 0.0
0.0 0.0 0.0

-1.2161249769950463e7 9.59114298816551e6 0.0
9.59114298816551e6 1.746865555615369e7 0.0
0.0 0.0 0.0

-5.774801840409389e6 1.7165343248477258e7 0.0
1.7165343248477258e7 7.225377369900023e6 0.0
0.0 0.0 0.0

-2.5564665963207833e6 1.1562992542706894e7 0.0
1.1562992542706894e7 -420957.53087031835 0.0
0.0 0.0 0.0

-934492.4475893566 1.253395852756735e7 0.0
1.253395852756735e7 -4.381747739281595e6 0.0
0.0 0.0 0.0

-1.6302453199291192e6 1.3448167205219528e7 0.0
1.3448167205219528e7 -3.2365709913740424e6 0.0
0.0 0.0 0.0

-455364.525412912 8.302548443276299e6 0.0
8.302548443276299e6 -2.741438550150555e6 0.0
0.0 0.0 0.0

-1.5551352609204706e6 1.5419148289133532e7 0.0
1.5419148289133532e7 -5.194085561860843e6 0.0
0.0 0.0 0.0

3.5215165441030767e6 6.538336022450759e6 0.0
6.538336022450759e6 -1.2615773170176545e7 0.0
0.0 0.0 0.0

1.784736490403777e6 6.249618652369956e6 0.0
6.249618652369956e6 -7.628481197971011e6 0.0
0.0 0.0 0.0

-6.532118266033255e6 1.5070337194256665e7 0.0
1.5070337194256665e7 9.06601396570177e6 0.0
0.0 0.0 0.0

-3.8557573214324787e6 1.642917446664642e7 0.0
1.642917446664642e7 -509209.81401839864 0.0
0.0 0.0 0.0

1.9261605731386496e6 1.3968549494571025e7 0.0
1.3968549494571025e7 -4.1512950726286434e6 0.0
0.0 0.0 0.0

-9.075055558088379e6 1.7996595273961622e7 0.0
1.7996595273961622e7 5.240813899478067e6 0.0
0.0 0.0 0.0

2.462438722915824e6 6.09515260075845e6 0.0
6.09515260075845e6 -9.514852733823549e6 0.0
0.0 0.0 0.0

-1.8256898765959693e6 1.1202321370734997e7 0.0
1.1202321370734997e7 -3.7382854152312586e6 0.0
0.0 0.0 0.0

2.0818631951586522e7 1.160565570546854e7 0.0
1.160565570546854e7 -310401.29337830935 0.0
0.0 0.0 0.0

328656.2126860609 8.150212084552948e6 0.0
8.150212084552948e6 -6.203924491477346e6 0.0
0.0 0.0 0.0

3.9118929445854584e6 6.650382199591558e6 0.0
6.650382199591558e6 -1.4742518940282106e7 0.0
0.0 0.0 0.0

-1.0030763038104948e7 1.3123197756023796e7 0.0
1.3123197756023796e7 1.534465038981603e7 0.0
0.0 0.0 0.0

682252.8874801556 1.2384842205682114e7 0.0
1.2384842205682114e7 -1.1691564213275693e7 0.0
0.0 0.0 0.0

-6.363095683064435e6 7.38284835305496e6 0.0
7.38284835305496e6 8.988781212060982e6 0.0
0.0 0.0 0.0

-1.091253386433412e7 2.2325864283347335e7 0.0
2.2325864283347335e7 7.940232319745695e6 0.0
0.0 0.0 0.0

-9.571532338290177e6 1.3224802785280941e7 0.0
1.3224802785280941e7 1.4792533775498856e7 0.0
0.0 0.0 0.0

-5.711229682945206e6 1.759554273584157e7 0.0
1.759554273584157e7 7.199538345066793e6 0.0
0.0 0.0 0.0

-9.54997475017177e6 1.931491582784436e7 0.0
1.931491582784436e7 2.0900085492835985e6 0.0
0.0 0.0 0.0

-3.7471329628611323e6 1.2492153888909392e7 0.0
1.2492153888909392e7 -358675.27132755227 0.0
0.0 0.0 0.0

2.1643888110565998e7 5.807875672384398e6 0.0
5.807875672384398e6 -3.5381279985492835e6 0.0
0.0 0.0 0.0

-1.0362598873036169e6 1.3746809454245595e7 0.0
1.3746809454245595e7 -5.345621297507448e6 0.0
0.0 0.0 0.0

-1.0227138255921581e6 9.559482541029034e6 0.0
9.559482541029034e6 -1.3069851396071275e6 0.0
0.0 0.0 0.0

-1.8911703909078105e6 1.5769505027104083e7 0.0
1.5769505027104083e7 -4.366345889356229e6 0.0
0.0 0.0 0.0

-5.492227636907659e6 1.6207784250824925e7 0.0
1.6207784250824925e7 -1.7725829021058816e6 0.0
0.0 0.0 0.0

510782.9797539613 7.695012123236847e6 0.0
7.695012123236847e6 -4.085064636170269e6 0.0
0.0 0.0 0.0

-5.381818226715805e6 1.5124743736644192e7 0.0
1.5124743736644192e7 8.957672421370912e6 0.0
0.0 0.0 0.0

-447302.1088549867 1.1929233982059697e7 0.0
1.1929233982059697e7 -1.1997381704788793e7 0.0
0.0 0.0 0.0

-1.1686143848263636e7 697382.7434319907 0.0
697382.7434319907 1.5701033706482656e7 0.0
0.0 0.0 0.0

-4.064630409740349e6 1.6257751581795754e7 0.0
1.6257751581795754e7 -61784.411362564424 0.0
0.0 0.0 0.0

-2.413343391112189e6 1.194767087478094e7 0.0
1.194767087478094e7 -917457.4484428735 0.0
0.0 0.0 0.0

-3.5375918857768113e6 1.6616237503237909e7 0.0
1.6616237503237909e7 500973.2473004542 0.0
0.0 0.0 0.0

-45914.57188401744 1.2582380855192967e7 0.0
1.2582380855192967e7 -7.067021953710623e6 0.0
0.0 0.0 0.0

-2.4812136448345296e6 6.511528059898869e6 0.0
6.511528059898869e6 1.4453962635643287e6 0.0
0.0 0.0 0.0

-5.752947312738654e6 1.720629031163095e7 0.0
1.720629031163095e7 5.225572241780007e6 0.0
0.0 0.0 0.0

-6.667861245697926e6 1.4733932798951676e7 0.0
1.4733932798951676e7 1.0743884846899113e7 0.0
0.0 0.0 0.0

-6.348260859366644e6 1.4705150018040998e7 0.0
1.4705150018040998e7 7.974633735663928e6 0.0
0.0 0.0 0.0

-573338.43044031 1.0690612426269984e7 0.0
1.0690612426269984e7 -4.1864951161474213e6 0.0
0.0 0.0 0.0

2.658638032994152e6 9.68222003751509e6 0.0
9.68222003751509e6 -1.6038856175081618e7 0.0
0.0 0.0 0.0

-4.451727248649982e6 1.3509023435607444e7 0.0
1.3509023435607444e7 878793.260313112 0.0
0.0 0.0 0.0

-615838.5182786365 1.3504615355916983e7 0.0
1.3504615355916983e7 -8.493556478449212e6 0.0
0.0 0.0 0.0

-327332.75720806373 1.2434441749838367e7 0.0
1.2434441749838367e7 -7.978503021256596e6 0.0
0.0 0.0 0.0

-3.0858707690926585e6 1.6571079140851537e7 0.0
1.6571079140851537e7 -2.5729143398363474e6 0.0
0.0 0.0 0.0

-1.581846221313821e6 1.3890530925946746e7 0.0
1.3890530925946746e7 -5.407320078873401e6 0.0
0.0 0.0 0.0

2.193776957522899e6 9.82814560784321e6 0.0
9.82814560784321e6 -1.3096712708130613e7 0.0
0.0 0.0 0.0

1.6990165635532418e6 6.259776134709097e6 0.0
6.259776134709097e6 -5.754077211486923e6 0.0
0.0 0.0 0.0

-169402.63115074037 5.823481703209791e6 0.0
5.823481703209791e6 -1.8538194009120646e6 0.0
0.0 0.0 0.0

-3.977856786427193e6 2.1078802095104024e7 0.0
2.1078802095104024e7 2.436740887299197e6 0.0
0.0 0.0 0.0

-4.232042633572844e6 1.2815196843084188e7 0.0
1.2815196843084188e7 537544.7173311675 0.0
0.0 0.0 0.0

-2.3607719570705444e6 1.456755982309712e7 0.0
1.456755982309712e7 -4.0071147729625674e6 0.0
0.0 0.0 0.0

3.354266957227804e6 5.000285685585427e6 0.0
5.000285685585427e6 -9.301783282876652e6 0.0
0.0 0.0 0.0

-1.2046640218082074e7 1.4168260400142453e6 0.0
1.4168260400142453e6 2.7389741321752775e7 0.0
0.0 0.0 0.0

2.22499996552968e6 8.292533595687956e6 0.0
8.292533595687956e6 -1.0474987633609693e7 0.0
0.0 0.0 0.0

-613309.7499653319 1.7284236704794675e7 0.0
1.7284236704794675e7 -4.798378223091689e6 0.0
0.0 0.0 0.0

-2.7471907311916123e6 1.7570919169993863e7 0.0
1.7570919169993863e7 -2.0454140165428142e6 0.0
0.0 0.0 0.0

-5.61616355682016e6 1.745838275721579e7 0.0
1.745838275721579e7 4.712413355979428e6 0.0
0.0 0.0 0.0

5.0420050816675285e6 4.922735396391905e6 0.0
4.922735396391905e6 -1.65216433369485e7 0.0
0.0 0.0 0.0

-2.3659308971310994e6 1.508942352314789e7 0.0
1.508942352314789e7 -2.2181234135733955e6 0.0
0.0 0.0 0.0

-2.4338865460754577e6 1.5865950335279876e7 0.0
1.5865950335279876e7 -2.724526197691216e6 0.0
0.0 0.0 0.0

3.916438347194271e6 7.054476050289194e6 0.0
7.054476050289194e6 -1.5951445326475594e7 0.0
0.0 0.0 0.0

-3.7734256663599643e6 1.7661713040184468e7 0.0
1.7661713040184468e7 -354856.51045103895 0.0
0.0 0.0 0.0

9038.456537393387 1.4818594161756895e7 0.0
1.4818594161756895e7 -6.615760372931857e6 0.0
0.0 0.0 0.0

-2.8375906594520826e6 1.4715716239896799e7 0.0
1.4715716239896799e7 -2.7981016008352893e6 0.0
0.0 0.0 0.0

1.3730866666391362e6 1.1873491900714256e7 0.0
1.1873491900714256e7 -1.5837017681628346e7 0.0
0.0 0.0 0.0

2.0573339151460691e6 6.529379941396496e6 0.0
6.529379941396496e6 -8.901035204177061e6 0.0
0.0 0.0 0.0

1.0025817245649626e6 9.482334891506646e6 0.0
9.482334891506646e6 -8.619063096605811e6 0.0
0.0 0.0 0.0

-2.0836702524697634e6 1.5161289796251545e7 0.0
1.5161289796251545e7 -4.2465144932748545e6 0.0
0.0 0.0 0.0

-435623.6571691537 1.4882926709348798e7 0.0
1.4882926709348798e7 -7.273848802848086e6 0.0
0.0 0.0 0.0

-1.9418460898207347e6 1.4174892705280233e7 0.0
1.4174892705280233e7 -4.729682470174152e6 0.0
0.0 0.0 0.0

2.89101093579264e6 7.026685334004678e6 0.0
7.026685334004678e6 -9.025928220191106e6 0.0
0.0 0.0 0.0

4.773912698613305e6 5.630559633797094e6 0.0
5.630559633797094e6 -1.4471566421333771e7 0.0
0.0 0.0 0.0

61812.56389775127 1.2449685563017325e7 0.0
1.2449685563017325e7 -9.429164414705774e6 0.0
0.0 0.0 0.0

571390.5711011728 9.853560511597311e6 0.0
9.853560511597311e6 -7.909114011054164e6 0.0
0.0 0.0 0.0

-3.430400838184029e6 1.1793568762829894e7 0.0
1.1793568762829894e7 -750267.5037933617 0.0
0.0 0.0 0.0

-8.0355302991090845e6 1.8435548345075015e7 0.0
1.8435548345075015e7 5.957624443496768e6 0.0
0.0 0.0 0.0

-7.07953931723747e6 1.1145314768106142e7 0.0
1.1145314768106142e7 4.691680641800528e7 0.0
0.0 0.0 0.0

-1.1498470022784535e7 1.2013748419446964e6 0.0
1.2013748419446964e6 1.4386212525111794e7 0.0
0.0 0.0 0.0

-2.5369988871054826e6 1.6638676394654704e7 0.0
1.6638676394654704e7 -4.372239532038327e6 0.0
0.0 0.0 0.0

-3.946906388106766e6 1.2109731257880235e7 0.0
1.2109731257880235e7 154426.67973765032 0.0
0.0 0.0 0.0

-1.1826717285181096e7 3.1287737946751816e6 0.0
3.1287737946751816e6 2.1543334937669665e7 0.0
0.0 0.0 0.0

4.445734076672392e6 5.691520007296179e6 0.0
5.691520007296179e6 -1.3307225688331278e7 0.0
0.0 0.0 0.0

-3.823172695958852e6 1.2918997691242905e7 0.0
1.2918997691242905e7 1.8845953522771057e6 0.0
0.0 0.0 0.0

860418.5051189642 1.217262640794004e7 0.0
1.217262640794004e7 -1.2748614368793527e7 0.0
0.0 0.0 0.0

-2.160766824006545e6 1.6183474659766428e7 0.0
1.6183474659766428e7 -3.5986771029777187e6 0.0
0.0 0.0 0.0

-2.224278321337552e6 1.525000693450109e7 0.0
1.525000693450109e7 -2.6640848969491054e6 0.0
0.0 0.0 0.0

-5.498367410451565e6 1.0991582144021949e7 0.0
1.0991582144021949e7 3.0641768901839675e6 0.0
0.0 0.0 0.0

-2.1151912936440427e6 1.260546090711756e7 0.0
1.260546090711756e7 -1.8747505536914952e6 0.0
0.0 0.0 0.0

-4.464990911571301e6 6.932219763166357e6 0.0
6.932219763166357e6 2.3428726398207857e6 0.0
0.0 0.0 0.0

-3.0327549687471516e7 1.5704174430865383e7 0.0
1.5704174430865383e7 1.0477461300225003e7 0.0
0.0 0.0 0.0

-1.0321903251318606e6 1.3968647549124192e7 0.0
1.3968647549124192e7 7.073674653216471e6 0.0
0.0 0.0 0.0

-6.131171309459303e6 1.614181185968161e7 0.0
1.614181185968161e7 8.246180402058542e6 0.0
0.0 0.0 0.0

-4.1941572687602905e6 1.778490380605109e7 0.0
1.778490380605109e7 2.3605609314202224e6 0.0
0.0 0.0 0.0

2.7432293522109166e6 8.186132865042856e6 0.0
8.186132865042856e6 -1.23754345760221e7 0.0
0.0 0.0 0.0

3.6192689789021676e6 7.299550029493179e6 0.0
7.299550029493179e6 -1.4542327978878949e7 0.0
0.0 0.0 0.0

3.9488311799302455e6 8.275309771538444e6 0.0
8.275309771538444e6 -1.6728538934662202e7 0.0
0.0 0.0 0.0

-4.486180177528945e6 1.1197314366857648e7 0.0
1.1197314366857648e7 1.2953688669143207e6 0.0
0.0 0.0 0.0

-1.2588788819781233e7 7.137658996583273e6 0.0
7.137658996583273e6 1.5353499413547818e7 0.0
0.0 0.0 0.0

-3.881202566244649e6 7.676911107889318e6 0.0
7.676911107889318e6 3.435359342912076e6 0.0
0.0 0.0 0.0

1.0797130556781641e6 1.4416898872891534e7 0.0
1.4416898872891534e7 -5.101100371822593e6 0.0
0.0 0.0 0.0

-97269.30372110242 1.206927132698969e7 0.0
1.206927132698969e7 -1.1498833214242931e7 0.0
0.0 0.0 0.0

-5.858673656483337e6 1.7535553918256227e7 0.0
1.7535553918256227e7 6.358595051306937e6 0.0
0.0 0.0 0.0

-2.043396301842585e6 2.071800785762819e7 0.0
2.071800785762819e7 -1.3857942271108003e6 0.0
0.0 0.0 0.0

-7.1202725573377535e6 1.8665350541106198e7 0.0
1.8665350541106198e7 6.346310756543187e6 0.0
0.0 0.0 0.0

-7.615697660498096e6 1.3690282922554336e7 0.0
1.3690282922554336e7 1.2400885146092625e7 0.0
0.0 0.0 0.0

4.4683030810086075e6 6.7806612729048235e6 0.0
6.7806612729048235e6 -2.5132647739805646e7 0.0
0.0 0.0 0.0

-66967.46719367616 1.2092610767818805e7 0.0
1.2092610767818805e7 -6.347915264963199e6 0.0
0.0 0.0 0.0

3.219496353489092e6 4.514809909145826e6 0.0
4.514809909145826e6 -8.308800812274693e6 0.0
0.0 0.0 0.0

4.361067221545196e6 7.460980009962069e6 0.0
7.460980009962069e6 -1.707689741775745e7 0.0
0.0 0.0 0.0

-5.454286215353509e6 1.7700735143623494e7 0.0
1.7700735143623494e7 4.197008065560275e6 0.0
0.0 0.0 0.0

-1.052389564825421e7 7.627117548294316e6 0.0
7.627117548294316e6 1.4816578975092392e7 0.0
0.0 0.0 0.0

-8.414494854497556e6 1.3208273311968138e7 0.0
1.3208273311968138e7 1.3481981201762376e7 0.0
0.0 0.0 0.0

-5.885691697147487e6 1.6587162142027166e7 0.0
1.6587162142027166e7 8.005784015008448e6 0.0
0.0 0.0 0.0

2.5422234962791232e6 8.414704286739063e6 0.0
8.414704286739063e6 -9.43605643326296e6 0.0
0.0 0.0 0.0

-2.24642672938745e6 1.6685838338600919e7 0.0
1.6685838338600919e7 -3.278767259634136e6 0.0
0.0 0.0 0.0

-3.911018492940698e6 2.0888306105876245e7 0.0
2.0888306105876245e7 1.2462444378980703e6 0.0
0.0 0.0 0.0

-5.523810078025516e6 1.8516092437961068e7 0.0
1.8516092437961068e7 5.532628571697105e6 0.0
0.0 0.0 0.0

-8.73143741122567e6 1.334296090062755e7 0.0
1.334296090062755e7 1.4086712626053944e7 0.0
0.0 0.0 0.0

-1.6837147677994955e7 3.655354975124285e7 0.0
3.655354975124285e7 -1.1203254157178894e7 0.0
0.0 0.0 0.0

-3.650872940768255e6 1.5972428014138134e7 0.0
1.5972428014138134e7 -3.9958957353488985e6 0.0
0.0 0.0 0.0

-6.627641311585207e6 1.2767106162341537e7 0.0
1.2767106162341537e7 5.626936387834316e6 0.0
0.0 0.0 0.0

-4.224612881442023e6 3.517822975476652e6 0.0
3.517822975476652e6 3.3370365495067113e6 0.0
0.0 0.0 0.0

-1.353316639809469e6 1.2867482161315054e7 0.0
1.2867482161315054e7 -3.593825575350256e6 0.0
0.0 0.0 0.0

-3.7032042543912404e6 1.6595826675388208e7 0.0
1.6595826675388208e7 -2.181166618403581e6 0.0
0.0 0.0 0.0

-8.0380672475173045e6 2.2185248563379835e7 0.0
2.2185248563379835e7 6.54863151677071e6 0.0
0.0 0.0 0.0

-1.6192285274264957e6 1.4541544673295274e7 0.0
1.4541544673295274e7 -4.134421405106045e6 0.0
0.0 0.0 0.0

-2.766828051567859e6 1.550701908624788e7 0.0
1.550701908624788e7 -3.2383961397532867e6 0.0
0.0 0.0 0.0

-8.3924307118455e6 1.2356064683601116e6 0.0
1.2356064683601116e6 1.141050501894575e7 0.0
0.0 0.0 0.0

4.080172334364621e6 6.2085939540334605e6 0.0
6.2085939540334605e6 -1.2095818478366002e7 0.0
0.0 0.0 0.0

-3.5264871835431326e6 2.0368700246691067e7 0.0
2.0368700246691067e7 1.543209967504444e6 0.0
0.0 0.0 0.0

-7.123743747614865e6 1.4231688277947022e7 0.0
1.4231688277947022e7 1.1555248744942447e7 0.0
0.0 0.0 0.0

-6.283793794127013e6 1.706393749703325e7 0.0
1.706393749703325e7 -473074.1525399287 0.0
0.0 0.0 0.0

49264.51636435138 5.599853233351722e6 0.0
5.599853233351722e6 -3.7565155438000355e6 0.0
0.0 0.0 0.0

-4.345417738299464e6 1.766885206758142e7 0.0
1.766885206758142e7 -3.225453001507763e6 0.0
0.0 0.0 0.0

-2.683255790381886e6 1.4886705090402076e7 0.0
1.4886705090402076e7 -3.2304196010208735e6 0.0
0.0 0.0 0.0

412343.9728918327 1.2113229020182319e7 0.0
1.2113229020182319e7 -1.0141142127555957e7 0.0
0.0 0.0 0.0

-1.9118296530740173e6 1.4008644820618156e7 0.0
1.4008644820618156e7 -2.8934283537835777e6 0.0
0.0 0.0 0.0

2.213014014517986e6 8.61942756721458e6 0.0
8.61942756721458e6 -1.0812625444148414e7 0.0
0.0 0.0 0.0

-3.442232192330135e6 1.4512548354064258e7 0.0
1.4512548354064258e7 558010.776909108 0.0
0.0 0.0 0.0

-4.1455451132035307e6 4.413847457699621e6 0.0
4.413847457699621e6 2.762869588616944e6 0.0
0.0 0.0 0.0

-7.434176484021552e6 8.840693684083141e6 0.0
8.840693684083141e6 1.0489950556363564e7 0.0
0.0 0.0 0.0

-4.988632250898998e6 1.1055946083484324e7 0.0
1.1055946083484324e7 4.753238428932797e6 0.0
0.0 0.0 0.0

-2.3867076223328705e6 1.1617683965202138e7 0.0
1.1617683965202138e7 -1.0638754360325031e7 0.0
0.0 0.0 0.0

-4.034703556248689e6 1.1222326700469395e7 0.0
1.1222326700469395e7 2.797759535413469e6 0.0
0.0 0.0 0.0

-2.2200965019440882e7 1.9381774933033414e7 0.0
1.9381774933033414e7 6.4619861120502055e6 0.0
0.0 0.0 0.0

-4.505343844297625e6 1.2438814142158102e7 0.0
1.2438814142158102e7 1.0895012861506967e6 0.0
0.0 0.0 0.0

-500508.4254034477 1.4617066355635751e7 0.0
1.4617066355635751e7 -1.9688135169952738e6 0.0
0.0 0.0 0.0

-3.4089922386910066e7 1.447096436990518e7 0.0
1.447096436990518e7 8.58264568815e6 0.0
0.0 0.0 0.0

546309.6854017307 1.4704944216525394e7 0.0
1.4704944216525394e7 -5.969698618721214e6 0.0
0.0 0.0 0.0

-3.047950207642192e6 1.1865738279400814e7 0.0
1.1865738279400814e7 508088.9242840349 0.0
0.0 0.0 0.0

1.7446127730562645e6 9.208353273961032e6 0.0
9.208353273961032e6 -8.189639630376464e6 0.0
0.0 0.0 0.0

-4.41112882979356e6 1.810646491200523e7 0.0
1.810646491200523e7 3.0280125712857638e6 0.0
0.0 0.0 0.0

1.8317084319858379e6 9.577246122738572e6 0.0
9.577246122738572e6 -1.087517787490204e7 0.0
0.0 0.0 0.0

1.7036774736972516e6 1.0150003579115137e7 0.0
1.0150003579115137e7 -1.152979805650336e7 0.0
0.0 0.0 0.0

-2.8394198683426054e6 6.622690984980303e6 0.0
6.622690984980303e6 199507.95172824687 0.0
0.0 0.0 0.0

-6.714744903373742e6 1.4778873375247536e7 0.0
1.4778873375247536e7 6.735580828855622e6 0.0
0.0 0.0 0.0

4.218212427875651e6 7.1319279242566945e6 0.0
7.1319279242566945e6 -1.497144434742152e7 0.0
0.0 0.0 0.0

-6.801169803977424e6 4.729654302183739e6 0.0
4.729654302183739e6 8.89979701660894e6 0.0
0.0 0.0 0.0

1.786157884928471e6 9.849812484272912e6 0.0
9.849812484272912e6 -1.1212114779408371e7 0.0
0.0 0.0 0.0

-5.576988255527088e7 4.805972365043271e6 0.0
4.805972365043271e6 9.87681514761604e6 0.0
0.0 0.0 0.0

4.510116197781589e6 6.659617024744137e6 0.0
6.659617024744137e6 -2.365280111157776e7 0.0
0.0 0.0 0.0

-6.608290973410292e6 1.3628029608331982e7 0.0
1.3628029608331982e7 5.812140621236481e6 0.0
0.0 0.0 0.0

-6.309646107201092e6 1.481544004410027e7 0.0
1.481544004410027e7 5.156956408730894e6 0.0
0.0 0.0 0.0

-5.645384915495292e6 1.8360828444814134e7 0.0
1.8360828444814134e7 7.058982145240807e6 0.0
0.0 0.0 0.0

-2.118116292781187e6 1.305220480811562e7 0.0
1.305220480811562e7 -3.862945563860306e6 0.0
0.0 0.0 0.0

-6.374992570601899e6 1.483470547125636e7 0.0
1.483470547125636e7 1.0406628344949374e7 0.0
0.0 0.0 0.0

834571.0817508367 1.0943788468910491e7 0.0
1.0943788468910491e7 -9.445452758606534e6 0.0
0.0 0.0 0.0

3.1392429839701056e6 8.345965231371339e6 0.0
8.345965231371339e6 -1.4464492898148146e7 0.0
0.0 0.0 0.0

-4.600280028539728e6 1.793137972872577e7 0.0
1.793137972872577e7 3.4654354724634453e6 0.0
0.0 0.0 0.0

-3.2686442702415856e6 1.8420812546640508e7 0.0
1.8420812546640508e7 -1.8070394004022297e6 0.0
0.0 0.0 0.0

4.259948997129813e6 7.868592460394747e6 0.0
7.868592460394747e6 -1.9663914848208297e7 0.0
0.0 0.0 0.0

-4.220299050054662e6 9.20602533343085e6 0.0
9.20602533343085e6 3.556729706479695e6 0.0
0.0 0.0 0.0

-6.441857177027884e6 1.867140944016555e7 0.0
1.867140944016555e7 6.60276220300521e6 0.0
0.0 0.0 0.0

-3.7559529477765225e7 3.8965273226974875e7 0.0
3.8965273226974875e7 -445416.90782449767 0.0
0.0 0.0 0.0

-1.2063170946395472e7 4.458717551931254e6 0.0
4.458717551931254e6 1.905179370282083e7 0.0
0.0 0.0 0.0

-1.2947635754071905e6 1.0978364170045301e7 0.0
1.0978364170045301e7 -9.599906273307951e6 0.0
0.0 0.0 0.0

396873.6585066377 5.551005675488731e6 0.0
5.551005675488731e6 -2.605650401696194e6 0.0
0.0 0.0 0.0

-5.14179807670475e6 -8.199701914412344e6 0.0
-8.199701914412344e6 1.3157103665518535e7 0.0
0.0 0.0 0.0

5.5085736881236425e6 4.1508113894501263e6 0.0
4.1508113894501263e6 -1.691312252933194e7 0.0
0.0 0.0 0.0

-3.894004636306314e6 1.6228265377301138e7 0.0
1.6228265377301138e7 1.5456733704173353e6 0.0
0.0 0.0 0.0

338794.2243085564 1.2641458200214483e7 0.0
1.2641458200214483e7 -1.2310822608332047e7 0.0
0.0 0.0 0.0

-1.1671526069668768e7 1.0611820113980046e7 0.0
1.0611820113980046e7 1.8769582336963154e7 0.0
0.0 0.0 0.0

-2.2160006376513867e6 1.6218189433404094e7 0.0
1.6218189433404094e7 -5.140735887776095e6 0.0
0.0 0.0 0.0

1.8591281263656002e6 9.300916499497034e6 0.0
9.300916499497034e6 -1.053342746816124e7 0.0
0.0 0.0 0.0

-8.880738596525613e6 1.2147958905578617e7 0.0
1.2147958905578617e7 2.4583945444547758e7 0.0
0.0 0.0 0.0

-2.5594500311429137e6 1.292769227194141e7 0.0
1.292769227194141e7 -1.0366573352369412e6 0.0
0.0 0.0 0.0

-6.890551593154387e6 1.4165410069590207e7 0.0
1.4165410069590207e7 1.5440786724663489e7 0.0
0.0 0.0 0.0

318599.1071894341 1.2848711236815736e7 0.0
1.2848711236815736e7 -1.1674129740049908e7 0.0
0.0 0.0 0.0

3.835937287047291e7 6.946303920873439e6 0.0
6.946303920873439e6 -1.9959070258595068e6 0.0
0.0 0.0 0.0

-2.454327799102428e6 1.6566280439859077e7 0.0
1.6566280439859077e7 -2.864749893793992e6 0.0
0.0 0.0 0.0

-3.1638711266897274e6 2.0262444838035587e7 0.0
2.0262444838035587e7 899824.310952405 0.0
0.0 0.0 0.0

1.5198637815230014e6 9.926830433220698e6 0.0
9.926830433220698e6 -1.0235192290738096e7 0.0
0.0 0.0 0.0

2.4064186581267226e6 9.33238139296687e6 0.0
9.33238139296687e6 -1.0487946032137316e7 0.0
0.0 0.0 0.0

-1.6846698310440572e6 1.2720730169332234e7 0.0
1.2720730169332234e7 -4.66624188634895e6 0.0
0.0 0.0 0.0

-1.1263853023261018e7 5.249556358118135e6 0.0
5.249556358118135e6 1.5511637234371567e7 0.0
0.0 0.0 0.0

287905.5347866891 1.2105180351151649e7 0.0
1.2105180351151649e7 -1.5345435354248311e7 0.0
0.0 0.0 0.0

3.0529207601807374e6 4.468801377328538e6 0.0
4.468801377328538e6 -7.842275440538078e6 0.0
0.0 0.0 0.0

820013.7935477071 1.1445409697096445e7 0.0
1.1445409697096445e7 -1.0127490460113924e7 0.0
0.0 0.0 0.0

-1.795845995461149e7 1.9934681430533957e7 0.0
1.9934681430533957e7 1.1348369310572758e7 0.0
0.0 0.0 0.0

-1.8937467276675564e6 8.837587593630057e6 0.0
8.837587593630057e6 -2.3235055442439034e6 0.0
0.0 0.0 0.0

-7.675790318439914e6 1.2386252282224406e7 0.0
1.2386252282224406e7 3.0065294586678628e7 0.0
0.0 0.0 0.0

-4.833863183922535e6 1.4968064968422387e7 0.0
1.4968064968422387e7 8.100731566397011e6 0.0
0.0 0.0 0.0

2.739962712052181e6 1.3886227100269925e7 0.0
1.3886227100269925e7 -256691.43258786912 0.0
0.0 0.0 0.0

-5.910369984862789e6 1.8570377031409837e7 0.0
1.8570377031409837e7 6.810614814259282e6 0.0
0.0 0.0 0.0

-2.6489129625165937e6 1.694726254685144e7 0.0
1.694726254685144e7 -2.0259684233355974e6 0.0
0.0 0.0 0.0

-5.667693393643316e6 1.83089281050765e7 0.0
1.83089281050765e7 5.911219915676569e6 0.0
0.0 0.0 0.0

-1.0298179167586643e7 5.731905634693044e6 0.0
5.731905634693044e6 1.4269609804165183e7 0.0
0.0 0.0 0.0

-7.947526703417537e6 1.0314597260161515e7 0.0
1.0314597260161515e7 1.1350147271668224e7 0.0
0.0 0.0 0.0

-4.089921933847963e6 5.023497761021069e6 0.0
5.023497761021069e6 2.1369315177581664e6 0.0
0.0 0.0 0.0

7.088035058031518e6 1.0032282140737519e7 0.0
1.0032282140737519e7 1.2585124872504186e6 0.0
0.0 0.0 0.0

250149.1196041517 1.308364831439441e7 0.0
1.308364831439441e7 -1.1059586207692958e7 0.0
0.0 0.0 0.0

-2.7730981504637934e6 1.6870865680522617e7 0.0
1.6870865680522617e7 -1.5670779466592618e6 0.0
0.0 0.0 0.0

-5.249739654425854e6 1.7894096891548607e7 0.0
1.7894096891548607e7 3.694088705706576e6 0.0
0.0 0.0 0.0

-6.577720881745363e6 -2.1283677481366424e6 0.0
-2.1283677481366424e6 7.867524749212953e6 0.0
0.0 0.0 0.0

-5.342209875364575e6 1.89594707917292e7 0.0
1.89594707917292e7 4.751695983179014e6 0.0
0.0 0.0 0.0

-3.5450213999285297e6 1.2171388737125345e7 0.0
1.2171388737125345e7 1.4789062368483748e6 0.0
0.0 0.0 0.0

-5.544498125443565e6 1.9398951780237354e7 0.0
1.9398951780237354e7 5.524600896714607e6 0.0
0.0 0.0 0.0

3.031629562587737e6 1.3080230018535385e7 0.0
1.3080230018535385e7 -1.176137763716966e6 0.0
0.0 0.0 0.0

-3.1894311709788796e6 1.9118617274486225e7 0.0
1.9118617274486225e7 -6024.489319875953 0.0
0.0 0.0 0.0

4.390368774659159e6 5.681092684880973e6 0.0
5.681092684880973e6 -1.4573570594097348e7 0.0
0.0 0.0 0.0

-1.1926327136559054e7 4.421479142906619e6 0.0
4.421479142906619e6 1.787903284016873e7 0.0
0.0 0.0 0.0

715459.22133409 1.3702511376504345e7 0.0
1.3702511376504345e7 -7.932158081094851e6 0.0
0.0 0.0 0.0

145356.1964848172 1.3373825439192742e7 0.0
1.3373825439192742e7 -1.0395652807551388e7 0.0
0.0 0.0 0.0

-2.2762493691192833e6 1.2281674175560232e7 0.0
1.2281674175560232e7 -1.4030510916713108e6 0.0
0.0 0.0 0.0

-3.6345724580953037e6 1.5292769561429087e7 0.0
1.5292769561429087e7 3.057633020002207e6 0.0
0.0 0.0 0.0

-1.6866783364348244e6 1.6712998158508461e7 0.0
1.6712998158508461e7 -4.669868938269142e6 0.0
0.0 0.0 0.0

680676.963894316 1.2467204218270529e7 0.0
1.2467204218270529e7 -7.101283284284895e6 0.0
0.0 0.0 0.0

-9.004070340068556e6 8.410203507930154e6 0.0
8.410203507930154e6 1.0383616482048301e7 0.0
0.0 0.0 0.0

3.310869224154466e6 8.207657649864847e6 0.0
8.207657649864847e6 -1.2300602214541154e7 0.0
0.0 0.0 0.0

446560.6404235116 1.2976312786911886e7 0.0
1.2976312786911886e7 -1.0845120286038151e7 0.0
0.0 0.0 0.0

-1.923975809793977e6 1.426353576241853e7 0.0
1.426353576241853e7 8.39236487880242e6 0.0
0.0 0.0 0.0

-2.622479831701276e6 1.4179719927141253e7 0.0
1.4179719927141253e7 -3.14604732068496e6 0.0
0.0 0.0 0.0

4.783786196018948e6 6.834471248806236e6 0.0
6.834471248806236e6 -1.8954290455105744e7 0.0
0.0 0.0 0.0

5.546153885920567e6 5.691039187402297e6 0.0
5.691039187402297e6 -2.3778243021515433e7 0.0
0.0 0.0 0.0

-6.06946892978345e6 1.1410095438411472e7 0.0
1.1410095438411472e7 4.220925808913579e6 0.0
0.0 0.0 0.0

-5.039138703700444e6 1.8078811833489887e7 0.0
1.8078811833489887e7 3.238022402380867e6 0.0
0.0 0.0 0.0

-9.684565774209432e6 -143017.27096636588 0.0
-143017.27096636588 1.4599813489786766e7 0.0
0.0 0.0 0.0

-7.310236524570027e6 1.0720424520786567e7 0.0
1.0720424520786567e7 6.990809173247615e6 0.0
0.0 0.0 0.0

-6.560525617450412e6 1.4408354706515703e7 0.0
1.4408354706515703e7 5.950028426933508e6 0.0
0.0 0.0 0.0

3.0539291265915935e6 8.311466820201847e6 0.0
8.311466820201847e6 -1.1329272149936426e7 0.0
0.0 0.0 0.0

5.516793042829586e6 4.039395578571988e6 0.0
4.039395578571988e6 -1.73241148574795e7 0.0
0.0 0.0 0.0

-6.166756290877489e6 1.3664933395255355e7 0.0
1.3664933395255355e7 7.278187012268868e6 0.0
0.0 0.0 0.0

-5.742011609305376e6 1.3782528702472137e7 0.0
1.3782528702472137e7 3.843014033290509e7 0.0
0.0 0.0 0.0

-5.55616204278988e6 1.51577613744703e7 0.0
1.51577613744703e7 5.68347777131293e6 0.0
0.0 0.0 0.0

-2.9440215837488375e6 1.725923354214266e7 0.0
1.725923354214266e7 -1.3713379023193936e6 0.0
0.0 0.0 0.0

1.5039762043425776e6 1.0411359666545779e7 0.0
1.0411359666545779e7 -1.0737843249083254e7 0.0
0.0 0.0 0.0

-3.7697921967718164e6 1.8537746741452154e7 0.0
1.8537746741452154e7 1.3886776250104895e6 0.0
0.0 0.0 0.0

-4.7850104434128795e6 1.7738462790360834e7 0.0
1.7738462790360834e7 3.932305667683037e6 0.0
0.0 0.0 0.0

1.371128120634655e6 1.3666244570305431e7 0.0
1.3666244570305431e7 1.3955155336001875e7 0.0
0.0 0.0 0.0

3.1111185732182944e6 4.45712537652985e6 0.0
4.45712537652985e6 -8.250151490181832e6 0.0
0.0 0.0 0.0

169035.8797088368 1.5243770333001167e7 0.0
1.5243770333001167e7 -6.131761299715319e6 0.0
0.0 0.0 0.0

3.9273646865559844e6 4.95668373384045e6 0.0
4.95668373384045e6 -1.1727076177746775e7 0.0
0.0 0.0 0.0

-7.165236055585656e6 7.551067203057094e6 0.0
7.551067203057094e6 1.028178812179022e7 0.0
0.0 0.0 0.0

-5.663159269432529e6 1.6986143318236634e7 0.0
1.6986143318236634e7 4.592583354815972e6 0.0
0.0 0.0 0.0

-2.1552343974224096e6 1.4553082749044143e7 0.0
1.4553082749044143e7 -2.5619305577559536e6 0.0
0.0 0.0 0.0

2.5264211163992304e6 8.722540712423557e6 0.0
8.722540712423557e6 -9.783305896514293e6 0.0
0.0 0.0 0.0

437347.26527981786 1.2965880661529025e7 0.0
1.2965880661529025e7 -7.915653136990077e6 0.0
0.0 0.0 0.0

-3.192067976587962e6 1.76186431722973e7 0.0
1.76186431722973e7 -673439.6639620776 0.0
0.0 0.0 0.0

-1.1091492723569494e7 658108.728573756 0.0
658108.728573756 1.787427416917905e7 0.0
0.0 0.0 0.0

-8.101881916955825e6 1.1677319748433126e7 0.0
1.1677319748433126e7 1.1839507742150256e7 0.0
0.0 0.0 0.0

-8.004911029543582e6 5.064702199845749e6 0.0
5.064702199845749e6 1.1348421181862306e7 0.0
0.0 0.0 0.0

-4.197835615913168e6 1.1674239202106684e7 0.0
1.1674239202106684e7 697495.6048901412 0.0
0.0 0.0 0.0

-5.36665744805079e6 1.809063671090387e7 0.0
1.809063671090387e7 6.256488222570045e6 0.0
0.0 0.0 0.0

-3.3971003499745736e6 1.4036962679927884e7 0.0
1.4036962679927884e7 -1.4282943622878974e6 0.0
0.0 0.0 0.0

-4.588638988635302e6 1.847294148135623e7 0.0
1.847294148135623e7 1.9833821249981215e6 0.0
0.0 0.0 0.0

-3.606826672705561e6 6.715983521096782e6 0.0
6.715983521096782e6 1.2111647803714375e6 0.0
0.0 0.0 0.0

-7.568679221883305e6 1.004616710474297e7 0.0
1.004616710474297e7 1.0561318758476347e7 0.0
0.0 0.0 0.0

-4.885009368684522e6 1.823576994753194e7 0.0
1.823576994753194e7 2.8257624284253567e6 0.0
0.0 0.0 0.0

-1.1619907495520546e6 1.607134985720632e7 0.0
1.607134985720632e7 -5.974298798958382e6 0.0
0.0 0.0 0.0

2.2507320648217024e6 1.5851981859583698e7 0.0
1.5851981859583698e7 8.602190763412109e6 0.0
0.0 0.0 0.0

-3.7641928496559532e6 1.1726230475466266e7 0.0
1.1726230475466266e7 2.136562573171661e6 0.0
0.0 0.0 0.0

-398006.9671378061 1.7793416116938304e7 0.0
1.7793416116938304e7 -4.205490463943194e6 0.0
0.0 0.0 0.0

-4.907827350176143e6 1.2469873664126748e7 0.0
1.2469873664126748e7 4.29517423300292e6 0.0
0.0 0.0 0.0

-7.862858973960343e6 1.1415757387963505e7 0.0
1.1415757387963505e7 1.1190132887573075e7 0.0
0.0 0.0 0.0

-3.1385668517669616e6 7.396429730153463e6 0.0
7.396429730153463e6 2.2199902699126024e6 0.0
0.0 0.0 0.0

-4.7425665224081045e6 1.835976413862268e7 0.0
1.835976413862268e7 2.3756438422422763e6 0.0
0.0 0.0 0.0

4.521616568337819e6 6.352239540737339e6 0.0
6.352239540737339e6 -1.4276552677758045e7 0.0
0.0 0.0 0.0

3.920768489655383e6 7.403756260846023e6 0.0
7.403756260846023e6 -1.3523605154508345e7 0.0
0.0 0.0 0.0

-5.506948088496147e6 1.8082807372893162e7 0.0
1.8082807372893162e7 7.219498653968163e6 0.0
0.0 0.0 0.0

98582.23095700215 9.448465948220486e6 0.0
9.448465948220486e6 -5.184557765357584e6 0.0
0.0 0.0 0.0

2.478886246710822e6 9.044060652853617e6 0.0
9.044060652853617e6 -1.012650007890034e7 0.0
0.0 0.0 0.0

-4.211925541500153e6 1.9716734427912332e7 0.0
1.9716734427912332e7 1.93894260530971e6 0.0
0.0 0.0 0.0

-3.554792092595635e6 1.8248940082221825e7 0.0
1.8248940082221825e7 727298.1611779372 0.0
0.0 0.0 0.0

-2.517636942922064e6 1.5030716683396133e7 0.0
1.5030716683396133e7 -3.593218422212518e6 0.0
0.0 0.0 0.0

518985.220652326 1.2516209316458456e7 0.0
1.2516209316458456e7 -1.442410419702378e7 0.0
0.0 0.0 0.0

-4.9737292338668415e6 2.0026838554933734e7 0.0
2.0026838554933734e7 3.8306970409094803e6 0.0
0.0 0.0 0.0

-8.241946775812737e6 1.1918643177815678e7 0.0
1.1918643177815678e7 1.2201335277770858e7 0.0
0.0 0.0 0.0

2.5273731719423733e6 6.5614971328258375e6 0.0
6.5614971328258375e6 -9.726342356609965e6 0.0
0.0 0.0 0.0

-3.8403974202600424e6 2.1124897935342968e7 0.0
2.1124897935342968e7 2.1031471563585075e6 0.0
0.0 0.0 0.0

-3.7190386610360034e6 1.530860892697852e7 0.0
1.530860892697852e7 6.595788535701698e6 0.0
0.0 0.0 0.0

-3.3774597337902375e6 1.793772913277271e7 0.0
1.793772913277271e7 83357.67590396642 0.0
0.0 0.0 0.0

14505.793466800824 1.366661646988037e7 0.0
1.366661646988037e7 -9.763059734032132e6 0.0
0.0 0.0 0.0

-4.1343191549133854e6 1.8738707563875794e7 0.0
1.8738707563875794e7 2.4121242151692184e6 0.0
0.0 0.0 0.0

-5.864947297951032e6 1.574932040068248e7 0.0
1.574932040068248e7 9.387302130646072e6 0.0
0.0 0.0 0.0

-4.225129661310425e6 1.8652953101908837e7 0.0
1.8652953101908837e7 1.2412073280234933e6 0.0
0.0 0.0 0.0

-2.0188910773557357e6 2.2308896681364305e7 0.0
2.2308896681364305e7 -275953.8490667117 0.0
0.0 0.0 0.0

-1.1452318096482739e7 8.76209544451317e6 0.0
8.76209544451317e6 1.5864386254590508e7 0.0
0.0 0.0 0.0

2.1245469681409686e6 9.704798155703358e6 0.0
9.704798155703358e6 -9.88765464838247e6 0.0
0.0 0.0 0.0

-1.1646278898461875e7 5.835660116721943e6 0.0
5.835660116721943e6 1.6086769972888373e7 0.0
0.0 0.0 0.0

-7.942792415267497e6 9.144195660368308e6 0.0
9.144195660368308e6 8.602051923616784e6 0.0
0.0 0.0 0.0

-598508.175219245 -1.1378307302180186e6 0.0
-1.1378307302180186e6 967551.9070534664 0.0
0.0 0.0 0.0

-251470.5984797451 -950342.5643263606 0.0
-950342.5643263606 1.5321032220208885e6 0.0
0.0 0.0 0.0

-1.170671128485501e7 9.422819563346123e6 0.0
9.422819563346123e6 1.6137388267455654e7 0.0
0.0 0.0 0.0

3.4026642021487188e6 1.4648024823020726e7 0.0
1.4648024823020726e7 4.231212496446325e6 0.0
0.0 0.0 0.0

-3.3432429532397604e6 1.8805804687954836e7 0.0
1.8805804687954836e7 338921.51431000605 0.0
0.0 0.0 0.0

-2.1931651778341057e6 1.542128974756372e7 0.0
1.542128974756372e7 -3.133825386208643e6 0.0
0.0 0.0 0.0

2.0631717248498783e6 9.965371730067868e6 0.0
9.965371730067868e6 -1.0273698075462405e7 0.0
0.0 0.0 0.0

1.3534509603268802e6 1.3812683906467982e7 0.0
1.3812683906467982e7 1.1480725492648792e7 0.0
0.0 0.0 0.0

-4.821062269435624e6 2.038252199232144e7 0.0
2.038252199232144e7 4.667080939209428e6 0.0
0.0 0.0 0.0

-4.269117431421836e6 2.0018328066936716e7 0.0
2.0018328066936716e7 2.103607668680953e6 0.0
0.0 0.0 0.0

-4.1695619617922427e6 2.0379751918901466e7 0.0
2.0379751918901466e7 2.1553404029497067e6 0.0
0.0 0.0 0.0

-7.229007178149384e6 1.3860001501905125e7 0.0
1.3860001501905125e7 8.094500935254997e6 0.0
0.0 0.0 0.0

-6.599564493740251e6 1.1833715523756253e7 0.0
1.1833715523756253e7 5.357561490811607e6 0.0
0.0 0.0 0.0

-5.122526383851365e6 7.96175698561252e6 0.0
7.96175698561252e6 3.070185576341641e6 0.0
0.0 0.0 0.0

-5.8539545571041275e6 1.6519147854245368e7 0.0
1.6519147854245368e7 7.205190480504449e6 0.0
0.0 0.0 0.0

-5.546901588653438e6 1.1447851470297746e7 0.0
1.1447851470297746e7 5.957882507267162e6 0.0
0.0 0.0 0.0

-1.236299511550444e7 8.70454678125249e6 0.0
8.70454678125249e6 1.7451106300460618e7 0.0
0.0 0.0 0.0

2.006163160721317e6 1.0268675848135445e7 0.0
1.0268675848135445e7 -1.0571678368147703e7 0.0
0.0 0.0 0.0

-6.78405935548094e6 1.5076903476728745e7 0.0
1.5076903476728745e7 7.338588296447568e6 0.0
0.0 0.0 0.0

-1.2194889667689752e7 7.216388703428479e6 0.0
7.216388703428479e6 1.805749413596852e7 0.0
0.0 0.0 0.0

-1.3993903001602055e6 1.41701020342735e7 0.0
1.41701020342735e7 7.088402103304089e6 0.0
0.0 0.0 0.0

-5.379071369111368e6 1.2404669499193577e7 0.0
1.2404669499193577e7 2.7299581766292443e6 0.0
0.0 0.0 0.0

-4.169200504386277e6 1.9103682371820923e7 0.0
1.9103682371820923e7 2.6424069942466076e6 0.0
0.0 0.0 0.0

-4.0743311055972828e6 1.834459234860873e7 0.0
1.834459234860873e7 2.1693966866818443e6 0.0
0.0 0.0 0.0

-5.716315258453462e6 1.6253918179529063e7 0.0
1.6253918179529063e7 8.812891664615944e6 0.0
0.0 0.0 0.0

322104.8897607196 1.2877123504019491e7 0.0
1.2877123504019491e7 -1.2703636813526005e7 0.0
0.0 0.0 0.0

-5.986786855644436e6 1.6451973052332811e7 0.0
1.6451973052332811e7 5.722982252640942e6 0.0
0.0 0.0 0.0

-7.804959261065373e6 1.2679902029800028e7 0.0
1.2679902029800028e7 1.1419751755956355e7 0.0
0.0 0.0 0.0

-2.0033761485517537e6 1.4930660988340689e7 0.0
1.4930660988340689e7 -3.4401467676353487e6 0.0
0.0 0.0 0.0

-2.936786109534835e6 2.0645568870292842e7 0.0
2.0645568870292842e7 846410.0937789357 0.0
0.0 0.0 0.0

-5.634929088504376e6 1.6763208183927929e7 0.0
1.6763208183927929e7 8.302227391932672e6 0.0
0.0 0.0 0.0

-2.161343543661538e6 1.4691409340597045e7 0.0
1.4691409340597045e7 -4.372446517336457e6 0.0
0.0 0.0 0.0

3.7422246775712073e6 7.725386570567049e6 0.0
7.725386570567049e6 -1.386997986838904e7 0.0
0.0 0.0 0.0

-6.416890933753625e6 1.3976250004432566e7 0.0
1.3976250004432566e7 8.036338925971923e6 0.0
0.0 0.0 0.0

-1.459597724518707e6 1.7629829324012615e7 0.0
1.7629829324012615e7 -3.8792586034044605e6 0.0
0.0 0.0 0.0

2.671529425456439e6 4.546529213082448e6 0.0
4.546529213082448e6 -6.802132035416642e6 0.0
0.0 0.0 0.0

3.745406380825988e6 7.802841775704625e6 0.0
7.802841775704625e6 -1.7610162452280127e7 0.0
0.0 0.0 0.0

-1.059484011082456e6 1.4032407228141125e7 0.0
1.4032407228141125e7 -5.66358194716381e6 0.0
0.0 0.0 0.0

2.5175656565908054e6 1.5425488275953675e7 0.0
1.5425488275953675e7 6.204800641438369e6 0.0
0.0 0.0 0.0

3.216903103348282e6 7.977645009011303e6 0.0
7.977645009011303e6 -1.4269056009890977e7 0.0
0.0 0.0 0.0

2.887344911048988e6 8.644840703141877e6 0.0
8.644840703141877e6 -1.3927573411991531e7 0.0
0.0 0.0 0.0

5639.020017189323 1.2264829201394767e7 0.0
1.2264829201394767e7 2.5289436523237247e6 0.0
0.0 0.0 0.0

-1.1335767563072171e7 1.8621022067349732e6 0.0
1.8621022067349732e6 1.7175704226946034e7 0.0
0.0 0.0 0.0

-6.39866157680629e6 8.287653002872646e6 0.0
8.287653002872646e6 5.4867867704773955e6 0.0
0.0 0.0 0.0

-3.2956433701044545e6 1.378108325177941e7 0.0
1.378108325177941e7 -2.1368979767700188e7 0.0
0.0 0.0 0.0

-7.285184314428607e6 1.1760170953390548e7 0.0
1.1760170953390548e7 7.221772015551478e6 0.0
0.0 0.0 0.0

-1.0779469600909598e7 6.165046293265979e6 0.0
6.165046293265979e6 1.2337078540486433e7 0.0
0.0 0.0 0.0

-1.2889874223539233e6 1.4257609555386692e7 0.0
1.4257609555386692e7 6.657109414027835e6 0.0
0.0 0.0 0.0

-4.806393423722153e6 -7.909928688596098e6 0.0
-7.909928688596098e6 1.2155766624252897e7 0.0
0.0 0.0 0.0

-6.815165178884963e6 1.402078411686746e7 0.0
1.402078411686746e7 6.688490661069009e6 0.0
0.0 0.0 0.0

-5.4333457032581875e6 1.8169531989140943e7 0.0
1.8169531989140943e7 6.66323425683325e6 0.0
0.0 0.0 0.0

-271424.212648673 1.2995219147189064e7 0.0
1.2995219147189064e7 -8.995887141260281e6 0.0
0.0 0.0 0.0

-1.831104254255786e6 1.8100211930127486e6 0.0
1.8100211930127486e6 528396.737173485 0.0
0.0 0.0 0.0

-4.352677289486879e6 7.669396913515621e6 0.0
7.669396913515621e6 1.8530648486374267e6 0.0
0.0 0.0 0.0

4.125494619821489e6 7.248439059520724e6 0.0
7.248439059520724e6 -2.7040440539925914e7 0.0
0.0 0.0 0.0

-2.1544381620817734e6 2.0817122029923722e7 0.0
2.0817122029923722e7 -189014.87210302765 0.0
0.0 0.0 0.0

-1.1883772310194118e7 7.386093738403842e6 0.0
7.386093738403842e6 2.2463699960435484e7 0.0
0.0 0.0 0.0

-2.8767628395691575e6 1.3544659619828291e7 0.0
1.3544659619828291e7 -6.729426032602127e6 0.0
0.0 0.0 0.0

-1.1808641594398774e7 5.260759453149927e6 0.0
5.260759453149927e6 1.3657970484603725e7 0.0
0.0 0.0 0.0

-6.9193151634722985e6 1.874271150921881e7 0.0
1.874271150921881e7 2.401096819296026e6 0.0
0.0 0.0 0.0

-582320.6013460078 1.4260672135608435e7 0.0
1.4260672135608435e7 -2.975627198841452e6 0.0
0.0 0.0 0.0

-368986.63395907125 1.3935121872894296e7 0.0
1.3935121872894296e7 5.987334787780062e6 0.0
0.0 0.0 0.0

4.001557883784841e6 7.389108942635568e6 0.0
7.389108942635568e6 -1.830193779970947e7 0.0
0.0 0.0 0.0

-4.696493939126182e6 1.1876483646815646e7 0.0
1.1876483646815646e7 -2.9039594956735745e6 0.0
0.0 0.0 0.0

-2.9557002666154797e6 2.3390443194152318e7 0.0
2.3390443194152318e7 -2.247853914124891e6 0.0
0.0 0.0 0.0

-6.576267396034731e6 1.4228549772075564e7 0.0
1.4228549772075564e7 8.655056832142677e6 0.0
0.0 0.0 0.0

-6.50478801671077e6 -8.479376962621178e6 0.0
-8.479376962621178e6 1.584466452777299e7 0.0
0.0 0.0 0.0

-3.6090624169813115e6 1.4364341171864947e7 0.0
1.4364341171864947e7 7.872071809137204e6 0.0
0.0 0.0 0.0

-4.903360376537465e6 1.815357555421825e7 0.0
1.815357555421825e7 -487050.0177625262 0.0
0.0 0.0 0.0

-2.820568832925779e6 7.325753978401281e6 0.0
7.325753978401281e6 -142484.4312674246 0.0
0.0 0.0 0.0

-2.328053480374464e6 1.4792837923413998e7 0.0
1.4792837923413998e7 1.5364488021447875e7 0.0
0.0 0.0 0.0

-8.747748408486769e6 1.0881475618302198e7 0.0
1.0881475618302198e7 1.036869265400056e7 0.0
0.0 0.0 0.0

-8.397254855341537e6 9.38297540708118e6 0.0
9.38297540708118e6 9.571395095288787e6 0.0
0.0 0.0 0.0

-1.2014975615116548e7 5.6323215300978245e6 0.0
5.6323215300978245e6 2.229717034663609e7 0.0
0.0 0.0 0.0

-4.501619534330279e6 1.4696142612030298e7 0.0
1.4696142612030298e7 1.0010004683319706e7 0.0
0.0 0.0 0.0

-7.561938870247451e6 2.0436250833033174e7 0.0
2.0436250833033174e7 6.445840802549027e6 0.0
0.0 0.0 0.0

-4.527302070529206e6 2.1519284736691914e7 0.0
2.1519284736691914e7 2.2779144734754963e6 0.0
0.0 0.0 0.0

-6.536608948804043e6 1.5680837229972737e7 0.0
1.5680837229972737e7 7.343396031691926e6 0.0
0.0 0.0 0.0

2.475801500287584e6 4.427330131638463e6 0.0
4.427330131638463e6 -6.272449897658208e6 0.0
0.0 0.0 0.0

2.6574015795840826e6 9.263899136431381e6 0.0
9.263899136431381e6 -1.141999373186772e7 0.0
0.0 0.0 0.0

2.160194991730039e6 9.124631237498747e6 0.0
9.124631237498747e6 -9.179132384089872e6 0.0
0.0 0.0 0.0

-6.936507619922642e6 1.2314354299034135e7 0.0
1.2314354299034135e7 6.430042538001249e6 0.0
0.0 0.0 0.0

-8.4129855299766e6 2.728248256932798e7 0.0
2.728248256932798e7 -1.1885228823112263e6 0.0
0.0 0.0 0.0

-4.03643121221682e6 6.010839331391584e6 0.0
6.010839331391584e6 1.6340685179872005e6 0.0
0.0 0.0 0.0

-3.0990521559769884e6 1.9463338329522196e7 0.0
1.9463338329522196e7 70730.906388578 0.0
0.0 0.0 0.0

-1.6350391461428283e6 1.816367313155426e7 0.0
1.816367313155426e7 -3.1973358312460785e6 0.0
0.0 0.0 0.0

-2.3799815299890093e6 7.878532605487249e6 0.0
7.878532605487249e6 682820.6327025037 0.0
0.0 0.0 0.0

-519253.52443381905 1.0939982990148926e7 0.0
1.0939982990148926e7 -324554.13558396837 0.0
0.0 0.0 0.0

6.135451085254351e6 1.5599729788898613e7 0.0
1.5599729788898613e7 7.303536955076805e6 0.0
0.0 0.0 0.0

2.0204546445553708e6 1.5168946195696011e7 0.0
1.5168946195696011e7 1.3180435726633009e7 0.0
0.0 0.0 0.0

-1.1351020993604853e6 1.3995281550822806e7 0.0
1.3995281550822806e7 5.489774028067982e6 0.0
0.0 0.0 0.0

-8.396490612968413e6 1.0588649995792843e7 0.0
1.0588649995792843e7 9.64499166781113e6 0.0
0.0 0.0 0.0

-7.2855533946008e6 2.5818275745965958e7 0.0
2.5818275745965958e7 -49529.91261575557 0.0
0.0 0.0 0.0

-1.0455611054812066e7 1.9220072845470853e7 0.0
1.9220072845470853e7 3.5379853763359822e6 0.0
0.0 0.0 0.0

-8.794337981421813e6 9.654305202806637e6 0.0
9.654305202806637e6 1.0397548478210783e7 0.0
0.0 0.0 0.0

2.543629098962971e6 9.992192330340456e6 0.0
9.992192330340456e6 -1.881908848521911e7 0.0
0.0 0.0 0.0

5.781772091238038e6 3.8192419036868764e6 0.0
3.8192419036868764e6 -1.958674304010877e7 0.0
0.0 0.0 0.0

668764.2236279235 1.25037312364389e7 0.0
1.25037312364389e7 -9.513054927434662e6 0.0
0.0 0.0 0.0

2.336916708671645e6 9.616317120902073e6 0.0
9.616317120902073e6 -1.0842966216251615e7 0.0
0.0 0.0 0.0

4710.501900446601 1.3371363886605546e7 0.0
1.3371363886605546e7 -8.34234208136378e6 0.0
0.0 0.0 0.0

-9.880898139554298e6 2.9043824363307547e7 0.0
2.9043824363307547e7 -3.2754433426910695e6 0.0
0.0 0.0 0.0

-4.917984920680915e6 1.6572502055695983e7 0.0
1.6572502055695983e7 4.00538521580037e6 0.0
0.0 0.0 0.0

-1.6425477782547036e6 1.5270855739755418e7 0.0
1.5270855739755418e7 -6.813748314366237e6 0.0
0.0 0.0 0.0

-1.5328077184644213e6 1.4769479589735992e7 0.0
1.4769479589735992e7 -6.885300277894047e6 0.0
0.0 0.0 0.0

2.7575467250390872e6 8.674489258903705e6 0.0
8.674489258903705e6 -1.0724817198984131e7 0.0
0.0 0.0 0.0

-6.352409392462316e6 1.641936621425052e7 0.0
1.641936621425052e7 7.744149888880977e6 0.0
0.0 0.0 0.0

-2.3384119479257776e6 1.494928308304453e7 0.0
1.494928308304453e7 8.268067586233951e6 0.0
0.0 0.0 0.0

-5.1853020733618215e6 1.657993276555035e7 0.0
1.657993276555035e7 5.377105112604331e6 0.0
0.0 0.0 0.0

-9.170309019427253e6 5.207458367334868e6 0.0
5.207458367334868e6 4.5619596199504964e7 0.0
0.0 0.0 0.0

-5.915984652048688e6 -102451.25013230075 0.0
-102451.25013230075 7.903011581487324e6 0.0
0.0 0.0 0.0

-2.3297261051859822e7 4.2124434222489245e7 0.0
4.2124434222489245e7 -1.8108031770280454e7 0.0
0.0 0.0 0.0

279257.6311259591 1.414964467656843e7 0.0
1.414964467656843e7 7.373205808659466e6 0.0
0.0 0.0 0.0

-6.399912631419306e6 2.4821659705193173e7 0.0
2.4821659705193173e7 966986.0510803969 0.0
0.0 0.0 0.0

-366867.40670469776 1.3138247543899385e7 0.0
1.3138247543899385e7 -6.626248820302114e6 0.0
0.0 0.0 0.0

-649818.8852644407 1.482944365842983e7 0.0
1.482944365842983e7 -7.789411622137428e6 0.0
0.0 0.0 0.0

-5.341134387935737e6 1.7466744749910817e7 0.0
1.7466744749910817e7 5.62882374807309e6 0.0
0.0 0.0 0.0

4.735461785709058e6 4.369883181446239e6 0.0
4.369883181446239e6 -1.3235206931248184e7 0.0
0.0 0.0 0.0

3.767899718157021e6 1.3228224303131217e7 0.0
1.3228224303131217e7 -883755.07675413 0.0
0.0 0.0 0.0

2.572411769706967e6 9.58036572053447e6 0.0
9.58036572053447e6 -1.1794147179006068e7 0.0
0.0 0.0 0.0

-309067.5340130986 1.6734019108260065e7 0.0
1.6734019108260065e7 -5.186947493983668e6 0.0
0.0 0.0 0.0

4.56278054735358e6 7.000756084090463e6 0.0
7.000756084090463e6 -1.7707805449628945e7 0.0
0.0 0.0 0.0

-5.876790527454764e6 1.4826726810793275e7 0.0
1.4826726810793275e7 6.601190136373295e6 0.0
0.0 0.0 0.0

2.8417729742315854e6 6.634730473912547e6 0.0
6.634730473912547e6 -8.695988734418662e6 0.0
0.0 0.0 0.0

-950310.9048603844 8.560768854607923e6 0.0
8.560768854607923e6 -1.9083273523505777e6 0.0
0.0 0.0 0.0

-7.564855811980369e6 1.6387299084210774e7 0.0
1.6387299084210774e7 -1.6105511700828082e6 0.0
0.0 0.0 0.0

3.4121425995874815e6 8.40795390659508e6 0.0
8.40795390659508e6 -1.3550459983322412e7 0.0
0.0 0.0 0.0

-2.623522303221872e6 1.2175546808481993e7 0.0
1.2175546808481993e7 -2.5409436911523165e6 0.0
0.0 0.0 0.0

-2.182233727912072e6 1.5513200636670057e7 0.0
1.5513200636670057e7 -5.2920312430562535e6 0.0
0.0 0.0 0.0

-5.27325421970068e6 1.4911556241961075e7 0.0
1.4911556241961075e7 1.2255261550997486e7 0.0
0.0 0.0 0.0

803504.920923745 1.2536684605076645e7 0.0
1.2536684605076645e7 -3.075914728816977e6 0.0
0.0 0.0 0.0

-6.924588234081484e6 1.1352019844605656e7 0.0
1.1352019844605656e7 6.199714369562791e6 0.0
0.0 0.0 0.0

-1.2651824695231445e7 3.0021933494846057e6 0.0
3.0021933494846057e6 1.878975169291591e7 0.0
0.0 0.0 0.0

-4.787678551861602e6 1.5049771238914497e7 0.0
1.5049771238914497e7 1.2477882804765355e7 0.0
0.0 0.0 0.0

-8.505837964852788e6 1.1933311664955357e7 0.0
1.1933311664955357e7 1.0306782084256256e7 0.0
0.0 0.0 0.0

-1.0925603370567873e7 -966246.3957022665 0.0
-966246.3957022665 1.5987610659988863e7 0.0
0.0 0.0 0.0

-6.887178714387809e6 1.368894589839895e7 0.0
1.368894589839895e7 9.379925631547894e6 0.0
0.0 0.0 0.0

-6.59580569934272e6 1.5175115174137138e7 0.0
1.5175115174137138e7 9.886174167675614e6 0.0
0.0 0.0 0.0

-3.597683840766829e6 5.213744938218655e6 0.0
5.213744938218655e6 3.7517530825351584e6 0.0
0.0 0.0 0.0

-1.8492547497951868e6 1.5151684151110737e7 0.0
1.5151684151110737e7 -6.110670578988459e6 0.0
0.0 0.0 0.0

-5.472249779733366e6 1.7227606908315536e7 0.0
1.7227606908315536e7 4.0478465176295717e6 0.0
0.0 0.0 0.0

-8.615782308010828e6 1.2274407211636357e7 0.0
1.2274407211636357e7 1.0781547798554143e7 0.0
0.0 0.0 0.0

-1.1972588151875986e7 -1.1061703362516977e6 0.0
-1.1061703362516977e6 2.4573319636794515e7 0.0
0.0 0.0 0.0

-3.394819083307335e6 1.475213990120369e7 0.0
1.475213990120369e7 6.490231273468373e6 0.0
0.0 0.0 0.0

-7.91174640989488e6 9.088699114124276e6 0.0
9.088699114124276e6 1.1387750698533792e7 0.0
0.0 0.0 0.0

2.7265779288576944e6 9.795303600570675e6 0.0
9.795303600570675e6 -1.793478434586207e7 0.0
0.0 0.0 0.0

-6.719165955681859e6 1.4445703582678713e7 0.0
1.4445703582678713e7 1.5800072952151023e7 0.0
0.0 0.0 0.0

-1.0616304077807916e7 9.574639074923897e6 0.0
9.574639074923897e6 1.4849426591703434e7 0.0
0.0 0.0 0.0

2.153402030975777e6 8.813144113296427e6 0.0
8.813144113296427e6 -8.825546396452792e6 0.0
0.0 0.0 0.0

4.901534002263857e6 4.93895821810009e6 0.0
4.93895821810009e6 -1.6548451453529244e7 0.0
0.0 0.0 0.0

-1.6536499464564035e6 1.4711348034371005e7 0.0
1.4711348034371005e7 1.0628864313982021e7 0.0
0.0 0.0 0.0

-3.945191065253174e6 1.4989476258735148e7 0.0
1.4989476258735148e7 1.3014749739720453e7 0.0
0.0 0.0 0.0

-823958.912206797 1.2768038324744027e7 0.0
1.2768038324744027e7 -4.822516348407945e6 0.0
0.0 0.0 0.0

-5.562679174648169e6 1.7285597381211836e7 0.0
1.7285597381211836e7 7.845065697407062e6 0.0
0.0 0.0 0.0

-5.012191402078758e6 2.284923138889936e7 0.0
2.284923138889936e7 1.9540237172614043e6 0.0
0.0 0.0 0.0

-173096.1026698118 1.4017563122554278e7 0.0
1.4017563122554278e7 -9.096687818090996e6 0.0
0.0 0.0 0.0

-6.728895036496842e6 120165.26777898388 0.0
120165.26777898388 8.883954662547307e6 0.0
0.0 0.0 0.0

2.0384279670927906e6 1.0990385075394332e7 0.0
1.0990385075394332e7 -1.5773318009601476e7 0.0
0.0 0.0 0.0

-6.283626712131763e6 1.564240515964769e7 0.0
1.564240515964769e7 8.81979165219215e6 0.0
0.0 0.0 0.0

-1.0910846319188189e7 8.289511647651596e6 0.0
8.289511647651596e6 1.5380081347189065e7 0.0
0.0 0.0 0.0

619842.9102529762 1.2368351473403648e7 0.0
1.2368351473403648e7 3.4161032201675163e6 0.0
0.0 0.0 0.0

3.607436658704673e6 8.316633312775251e6 0.0
8.316633312775251e6 -2.0333669581768308e7 0.0
0.0 0.0 0.0

2.727722102383999e6 9.713659542937895e6 0.0
9.713659542937895e6 -1.6950332265595004e7 0.0
0.0 0.0 0.0

-2.707419008688722e6 2.4235936394914854e7 0.0
2.4235936394914854e7 -3.6156003679516884e6 0.0
0.0 0.0 0.0

-4.685908710030924e6 1.6805306336898632e7 0.0
1.6805306336898632e7 3.4582311913129855e6 0.0
0.0 0.0 0.0

-5.173533204798318e6 1.772789596623213e7 0.0
1.772789596623213e7 5.131393792954972e6 0.0
0.0 0.0 0.0

-4.0895511748707094e6 1.73788213657866e7 0.0
1.73788213657866e7 212348.80661211582 0.0
0.0 0.0 0.0

4.275438155943163e6 5.219991735382468e6 0.0
5.219991735382468e6 -1.1172993732581165e7 0.0
0.0 0.0 0.0

9626.924072694965 1.0755448305163223e7 0.0
1.0755448305163223e7 -5.918995885258397e6 0.0
0.0 0.0 0.0

-6.256300696329476e6 1.5561287653172456e7 0.0
1.5561287653172456e7 8.38538032189184e6 0.0
0.0 0.0 0.0

-1.2908374926987956e6 1.5551304613497153e7 0.0
1.5551304613497153e7 -6.35615150258721e6 0.0
0.0 0.0 0.0

-4.705445838526581e6 2.233259004554585e7 0.0
2.233259004554585e7 2.1768363155436385e6 0.0
0.0 0.0 0.0

-3.188467508299037e6 6.6657315853401e6 0.0
6.6657315853401e6 2.6462783086232236e6 0.0
0.0 0.0 0.0

-1.2542362527627353e7 4.303122903064701e6 0.0
4.303122903064701e6 1.5857107827106342e7 0.0
0.0 0.0 0.0

-4.600033062640434e6 2.191594916843044e7 0.0
2.191594916843044e7 2.333831121941283e6 0.0
0.0 0.0 0.0

-2.4605594726630594e6 1.589436714238454e7 0.0
1.589436714238454e7 -4.534158367904557e6 0.0
0.0 0.0 0.0

2.176161042893352e6 8.930048568249457e6 0.0
8.930048568249457e6 -1.1130406586153522e7 0.0
0.0 0.0 0.0

-6.46942935683923e6 1.2306173035248244e7 0.0
1.2306173035248244e7 8.025940923810582e6 0.0
0.0 0.0 0.0

3.841441766852794e6 7.884838142447275e6 0.0
7.884838142447275e6 -2.1072917712250374e7 0.0
0.0 0.0 0.0

-4.192041537384771e6 1.978685659057318e7 0.0
1.978685659057318e7 2.9859597192857238e6 0.0
0.0 0.0 0.0

-3.440162413353951e6 1.5427733256313989e7 0.0
1.5427733256313989e7 5.377354370152252e6 0.0
0.0 0.0 0.0

2.151110248232525e6 1.0480639715465974e7 0.0
1.0480639715465974e7 -1.8931233830766074e7 0.0
0.0 0.0 0.0

-5.611607985328419e6 1.809606421283153e7 0.0
1.809606421283153e7 5.439390157573625e6 0.0
0.0 0.0 0.0

-1.2722996599907625e7 4.317065062877838e6 0.0
4.317065062877838e6 1.6903717518242285e7 0.0
0.0 0.0 0.0

1.8368865170424911e6 8.685697325702118e6 0.0
8.685697325702118e6 -9.862610814910002e6 0.0
0.0 0.0 0.0

-1.759508251174556e6 1.3534406711087635e7 0.0
1.3534406711087635e7 6.3088626153396815e6 0.0
0.0 0.0 0.0

-5.493725215707855e6 1.6689140486697882e7 0.0
1.6689140486697882e7 6.083405822603177e6 0.0
0.0 0.0 0.0

1.6555670157343876e6 1.1019113681218134e7 0.0
1.1019113681218134e7 -1.86174101163416e7 0.0
0.0 0.0 0.0

-1.1683063800243486e7 3.1450733370720893e7 0.0
3.1450733370720893e7 -6.400813483663892e6 0.0
0.0 0.0 0.0

-1.0104289175542125e7 1.1161559423443116e7 0.0
1.1161559423443116e7 1.3090289790363029e7 0.0
0.0 0.0 0.0

-3.3718155706839887e6 1.421103220064414e7 0.0
1.421103220064414e7 -2.4524629472974353e7 0.0
0.0 0.0 0.0

-2.4620333445021994e6 7.232836366972885e6 0.0
7.232836366972885e6 1.1065738631634268e6 0.0
0.0 0.0 0.0

-6.9358793010388035e6 1.4343919098500293e7 0.0
1.4343919098500293e7 7.412609523571292e6 0.0
0.0 0.0 0.0

-9.239432050339404e6 1.3516718098705374e7 0.0
1.3516718098705374e7 1.643508357787035e7 0.0
0.0 0.0 0.0

-6.415432614236758e6 1.1337690666513449e7 0.0
1.1337690666513449e7 7.916425038402561e6 0.0
0.0 0.0 0.0

-7.656934206084026e6 1.2816739347136693e7 0.0
1.2816739347136693e7 3.301022787242569e7 0.0
0.0 0.0 0.0

-6.150433963722262e6 1.4424317039565934e7 0.0
1.4424317039565934e7 7.3165727159116445e6 0.0
0.0 0.0 0.0

598504.3963142419 1.2674164359266827e7 0.0
1.2674164359266827e7 -1.3756208043055251e7 0.0
0.0 0.0 0.0

-206011.7276127534 1.4437957706754168e7 0.0
1.4437957706754168e7 -8.935359274587508e6 0.0
0.0 0.0 0.0

7.691505781593907e7 1.4626742158721719e7 0.0
1.4626742158721719e7 4.62473910273096e6 0.0
0.0 0.0 0.0

-7.008698904633103e6 -8.254738291934939e6 0.0
-8.254738291934939e6 1.7298123250893496e7 0.0
0.0 0.0 0.0

5.636337609754998e6 3.9405218012234103e6 0.0
3.9405218012234103e6 -1.8238226506863058e7 0.0
0.0 0.0 0.0

-2.493136034967535e6 3.2989822272271733e6 0.0
3.2989822272271733e6 965739.6316545313 0.0
0.0 0.0 0.0

-3.807519334420911e6 1.7008820515734863e7 0.0
1.7008820515734863e7 -488236.94914715097 0.0
0.0 0.0 0.0

-9.58939968813788e6 -6.86189354376799e6 0.0
-6.86189354376799e6 2.6952173823398173e7 0.0
0.0 0.0 0.0

-2.524456730903327e6 1.256114571833742e7 0.0
1.256114571833742e7 -1.6281733681223247e7 0.0
0.0 0.0 0.0

-1.122426541098595e7 6.843467223053015e6 0.0
6.843467223053015e6 1.553006261358269e7 0.0
0.0 0.0 0.0

-8.88826002278895e6 1.2489292112088267e7 0.0
1.2489292112088267e7 1.1219255027877325e7 0.0
0.0 0.0 0.0

5.7908437079123e6 3.76807504030081e6 0.0
3.76807504030081e6 -2.0060642642623883e7 0.0
0.0 0.0 0.0

351142.46473113913 1.2851734782833591e7 0.0
1.2851734782833591e7 -8.785939726633526e6 0.0
0.0 0.0 0.0

-5.468638161567251e6 2.348068003864439e7 0.0
2.348068003864439e7 1.9570521186324263e6 0.0
0.0 0.0 0.0

1.420661015045999e6 9.090561656972593e6 0.0
9.090561656972593e6 -9.261382754014641e6 0.0
0.0 0.0 0.0

-1.0165437588333844e6 1.5353783670840293e7 0.0
1.5353783670840293e7 -2.0624244515650119e6 0.0
0.0 0.0 0.0

-5.205980673327189e6 6.134650186780659e6 0.0
6.134650186780659e6 6.814226954165035e7 0.0
0.0 0.0 0.0

2.789915428456908e6 7.666319966715948e6 0.0
7.666319966715948e6 -4.521235181070268e7 0.0
0.0 0.0 0.0

426462.4701588545 1.372446352261608e7 0.0
1.372446352261608e7 -3.6201626160563685e7 0.0
0.0 0.0 0.0

1.2716116610192382e6 1.1827222982539345e7 0.0
1.1827222982539345e7 -1.0901327887786703e7 0.0
0.0 0.0 0.0

5.005892980350715e6 6.540464049926131e6 0.0
6.540464049926131e6 -2.2046914818466455e7 0.0
0.0 0.0 0.0

-1.3298980466163699e7 1.7573089799766075e7 0.0
1.7573089799766075e7 6.249897002701938e6 0.0
0.0 0.0 0.0

-1.446141583101388e6 1.5232126182317838e7 0.0
1.5232126182317838e7 -7.202344832330591e6 0.0
0.0 0.0 0.0

-7.3961802834628215e6 -8.322875294039348e6 0.0
-8.322875294039348e6 1.8445156684597477e7 0.0
0.0 0.0 0.0

-5.243309560325082e6 7.978576143677269e6 0.0
7.978576143677269e6 4.733549913131464e6 0.0
0.0 0.0 0.0

-4.974926552191569e6 1.795816803086694e7 0.0
1.795816803086694e7 4.599106149749263e6 0.0
0.0 0.0 0.0

-6.565784870404189e6 1.5873541333045812e7 0.0
1.5873541333045812e7 7.821161198472643e6 0.0
0.0 0.0 0.0

-7.679959714575086e6 1.0014149206678225e7 0.0
1.0014149206678225e7 7.870520952331492e6 0.0
0.0 0.0 0.0

-3.5039141062520356e6 5.806298098661834e6 0.0
5.806298098661834e6 3.4641454214159744e6 0.0
0.0 0.0 0.0

2.897728424150625e6 1.3080016012263263e7 0.0
1.3080016012263263e7 945048.8086692726 0.0
0.0 0.0 0.0

-2.7813963530348195e6 1.6298510754155308e7 0.0
1.6298510754155308e7 -3.7642402016350566e6 0.0
0.0 0.0 0.0

-529345.6974054286 5.844259703055977e6 0.0
5.844259703055977e6 -3.0545638383800113e6 0.0
0.0 0.0 0.0

-3.4261420122080995e6 1.8352638941572383e7 0.0
1.8352638941572383e7 349737.2587019205 0.0
0.0 0.0 0.0

-1.2184397244297616e7 9.546352621777497e6 0.0
9.546352621777497e6 1.440294370852027e7 0.0
0.0 0.0 0.0

-6.0799493499093205e6 1.192622326464046e7 0.0
1.192622326464046e7 7.061842077548221e6 0.0
0.0 0.0 0.0

-7.603158326473259e6 -8.0034397377131395e6 0.0
-8.0034397377131395e6 1.961251475487972e7 0.0
0.0 0.0 0.0

5.692459422716448e6 3.869329201987279e6 0.0
3.869329201987279e6 -1.9130526136551093e7 0.0
0.0 0.0 0.0

5.020190331932342e6 6.7539535814280305e6 0.0
6.7539535814280305e6 -2.325974899320968e7 0.0
0.0 0.0 0.0

-1.2164818072393939e7 5.940215758413757e6 0.0
5.940215758413757e6 1.4246653890213601e7 0.0
0.0 0.0 0.0

4.417431821485696e6 5.694817036687653e6 0.0
5.694817036687653e6 -3.876782231924534e7 0.0
0.0 0.0 0.0

-9.669706878833426e6 -3.513325768709978e6 0.0
-3.513325768709978e6 3.80530821852253e7 0.0
0.0 0.0 0.0

2.4572181625944115e6 8.571377308137277e6 0.0
8.571377308137277e6 -1.1739859833636137e7 0.0
0.0 0.0 0.0

3.6176399925337303e6 7.805584698690357e6 0.0
7.805584698690357e6 -1.290531475460751e7 0.0
0.0 0.0 0.0

-2.5730540270186123e6 2.1877738391362883e7 0.0
2.1877738391362883e7 203914.8659924972 0.0
0.0 0.0 0.0

-6.559589395951949e6 2.0387922900012236e7 0.0
2.0387922900012236e7 6.750611466165593e6 0.0
0.0 0.0 0.0

-5.743727009257505e6 1.6408163860060476e7 0.0
1.6408163860060476e7 6.576287071110053e6 0.0
0.0 0.0 0.0

-3.0508246523957695e6 1.765888554009033e7 0.0
1.765888554009033e7 -1.0523736071575673e6 0.0
0.0 0.0 0.0

-4.810620909174904e6 2.2312727579074737e7 0.0
2.2312727579074737e7 4.093055003953908e6 0.0
0.0 0.0 0.0

-5.591142287558032e6 1.7328747749487676e7 0.0
1.7328747749487676e7 6.713582893815094e6 0.0
0.0 0.0 0.0

-1.527807690282043e6 1.4076544267520761e7 0.0
1.4076544267520761e7 4.702027661816406e6 0.0
0.0 0.0 0.0

5.541125851128979e6 4.0402903685046574e6 0.0
4.0402903685046574e6 -3.196421429171735e7 0.0
0.0 0.0 0.0

5.926130595105386e6 3.5478172351980954e6 0.0
3.5478172351980954e6 -2.202936371563504e7 0.0
0.0 0.0 0.0

5.991039847504837e6 3.583994927424029e6 0.0
3.583994927424029e6 -2.7606784860153325e7 0.0
0.0 0.0 0.0

-4.87836228611036e6 1.7806805659070257e7 0.0
1.7806805659070257e7 2.5674646375674647e6 0.0
0.0 0.0 0.0

-3.547257142664021e6 7.471072739418735e6 0.0
7.471072739418735e6 802594.90618979 0.0
0.0 0.0 0.0

-9.50175302109895e6 -6.471275928581113e6 0.0
-6.471275928581113e6 2.7913172093505733e7 0.0
0.0 0.0 0.0

-1.1314174919963092e7 6.409572291467109e6 0.0
6.409572291467109e6 1.3079345138471082e7 0.0
0.0 0.0 0.0

4.740950329756726e6 5.112433543451765e6 0.0
5.112433543451765e6 -1.3847083891994182e7 0.0
0.0 0.0 0.0

-9.34562984063954e6 1.8582225121353876e7 0.0
1.8582225121353876e7 6.266540965260039e6 0.0
0.0 0.0 0.0

-2.696542023463784e6 1.2571326749402666e7 0.0
1.2571326749402666e7 -1.4798853115574518e7 0.0
0.0 0.0 0.0

-4.865031680942323e6 -8.0110000079720635e6 0.0
-8.0110000079720635e6 1.3119160955865627e7 0.0
0.0 0.0 0.0

-9.385946106010173e6 1.5102619913264427e6 0.0
1.5102619913264427e6 1.1092792251888614e7 0.0
0.0 0.0 0.0

-1.2845957019315707e7 4.18165298538425e6 0.0
4.18165298538425e6 1.929721836633356e7 0.0
0.0 0.0 0.0

-6.243868077495888e6 1.4509303032023842e7 0.0
1.4509303032023842e7 1.0980642366463922e7 0.0
0.0 0.0 0.0

2.3814049387292042e6 1.0022090812032795e7 0.0
1.0022090812032795e7 -1.531527816865342e7 0.0
0.0 0.0 0.0

5.995422685928995e6 3.8008096858158913e6 0.0
3.8008096858158913e6 -3.036991786803828e7 0.0
0.0 0.0 0.0

5.411097639335985e6 4.089144467000851e6 0.0
4.089144467000851e6 -1.6964025193604242e7 0.0
0.0 0.0 0.0

-391611.8077978457 2.334605914152522e7 0.0
2.334605914152522e7 -6.416789684972335e6 0.0
0.0 0.0 0.0

-9.885296149459934e6 -3.925777374887227e6 0.0
-3.925777374887227e6 3.63763224595486e7 0.0
0.0 0.0 0.0

4.514060909506708e6 7.446837159913569e6 0.0
7.446837159913569e6 -2.0438677499531746e7 0.0
0.0 0.0 0.0

-9.128317702459738e6 -50475.89561168325 0.0
-50475.89561168325 5.067476627864642e7 0.0
0.0 0.0 0.0

5.39741303149049e6 4.531985305488e6 0.0
4.531985305488e6 -3.4613326514728576e7 0.0
0.0 0.0 0.0

-5.4666803733841935e6 1.8171137358679906e7 0.0
1.8171137358679906e7 7.014564803156353e6 0.0
0.0 0.0 0.0

-577589.668505159 9.57852967013528e6 0.0
9.57852967013528e6 -5.0454689820276555e6 0.0
0.0 0.0 0.0

-1.0069277601351626e6 1.3365133392734917e7 0.0
1.3365133392734917e7 -6.870372131795641e6 0.0
0.0 0.0 0.0

531506.2257117238 1.2665585332971906e7 0.0
1.2665585332971906e7 -1.2075584797905788e7 0.0
0.0 0.0 0.0

-9.507627122579826e6 -3.011846092753297e6 0.0
-3.011846092753297e6 4.028494338753862e7 0.0
0.0 0.0 0.0

5.909780860790623e6 3.718212836705285e6 0.0
3.718212836705285e6 -2.8817026079055797e7 0.0
0.0 0.0 0.0

-1.1907276146569058e7 1.0282500336629711e7 0.0
1.0282500336629711e7 1.4904989191428568e7 0.0
0.0 0.0 0.0

-1.1894325748177003e7 9.043583869756341e6 0.0
9.043583869756341e6 1.4042910238529818e7 0.0
0.0 0.0 0.0

-1.287148803543261e7 5.284669871885557e6 0.0
5.284669871885557e6 1.732412352806654e7 0.0
0.0 0.0 0.0

-6.78155257041478e6 1.0641937551327107e7 0.0
1.0641937551327107e7 8.812211164628103e6 0.0
0.0 0.0 0.0

-1.4896604418871952e6 1.5056647808079751e7 0.0
1.5056647808079751e7 1.5775511668952031e7 0.0
0.0 0.0 0.0

-2.276933671931479e6 1.6647269504603738e7 0.0
1.6647269504603738e7 -3.2131368656226946e6 0.0
0.0 0.0 0.0

-4.7815260900428165e6 1.8764756631788112e7 0.0
1.8764756631788112e7 2.632765654300886e6 0.0
0.0 0.0 0.0

-3.1126827005771454e6 1.7418901641310938e7 0.0
1.7418901641310938e7 -2.229546205902579e6 0.0
0.0 0.0 0.0

3.0103268033035323e6 8.608694486327047e6 0.0
8.608694486327047e6 -1.1671640676573193e7 0.0
0.0 0.0 0.0

-5.26916089363516e6 1.962922914546533e7 0.0
1.962922914546533e7 5.866066107980061e6 0.0
0.0 0.0 0.0

-662959.9047296447 1.475881341926717e7 0.0
1.475881341926717e7 -3.0179384338637674e6 0.0
0.0 0.0 0.0

1.8772386950916257e6 1.116946207192265e7 0.0
1.116946207192265e7 -1.223887961441311e7 0.0
0.0 0.0 0.0

-1.2227231761407856e7 9.12311567027094e6 0.0
9.12311567027094e6 1.843019272758612e7 0.0
0.0 0.0 0.0

-1.2388368017510602e7 6.495426708620419e6 0.0
6.495426708620419e6 1.4832845815894492e7 0.0
0.0 0.0 0.0

3.004014746658013e6 8.097939883382105e6 0.0
8.097939883382105e6 -1.3363797423803093e7 0.0
0.0 0.0 0.0

-8.793435171204431e6 -7.614144963023627e6 0.0
-7.614144963023627e6 2.3175602278094057e7 0.0
0.0 0.0 0.0

5.802234362590249e6 3.7340278120149393e6 0.0
3.7340278120149393e6 -2.052361800042978e7 0.0
0.0 0.0 0.0

-3.8848450410384564e6 1.4930718137311975e7 0.0
1.4930718137311975e7 1.036048668762673e7 0.0
0.0 0.0 0.0

-9.88050069902557e6 -4.396501022480508e6 0.0
-4.396501022480508e6 3.472345927126042e7 0.0
0.0 0.0 0.0

5.982861602941286e6 3.591943485833968e6 0.0
3.591943485833968e6 -2.5790898673024096e7 0.0
0.0 0.0 0.0

5.796857351997262e6 3.710683262475329e6 0.0
3.710683262475329e6 -2.098848364432512e7 0.0
0.0 0.0 0.0

-9.053189157624647e6 -7.442693737271153e6 0.0
-7.442693737271153e6 2.4333939323674046e7 0.0
0.0 0.0 0.0

-9.137057011378396e6 1.2647658196244014e7 0.0
1.2647658196244014e7 2.1290386036489367e7 0.0
0.0 0.0 0.0

6.060708551334476e6 3.5535793587618764e6 0.0
3.5535793587618764e6 -2.5138974673390605e7 0.0
0.0 0.0 0.0

-9.808997357143572e6 -4.918318875913978e6 0.0
-4.918318875913978e6 3.3021955400534853e7 0.0
0.0 0.0 0.0

-6.928856923288644e6 1.4453249897132909e7 0.0
1.4453249897132909e7 1.1851115415131632e7 0.0
0.0 0.0 0.0

-9.090264425643967e6 -5.036515846373024e6 0.0
-5.036515846373024e6 2.0454620461769715e7 0.0
0.0 0.0 0.0

-9.39628742759607e6 -7.131593623736602e6 0.0
-7.131593623736602e6 2.580524330145431e7 0.0
0.0 0.0 0.0

5.9640495625367155e6 3.652715958626942e6 0.0
3.652715958626942e6 -2.1585343600382883e7 0.0
0.0 0.0 0.0

6.035694741626492e6 3.5932750428217365e6 0.0
3.5932750428217365e6 -2.44268837039951e7 0.0
0.0 0.0 0.0

-9.814756973294552e6 -5.345175173780511e6 0.0
-5.345175173780511e6 3.158359759187439e7 0.0
0.0 0.0 0.0

-1.734191290998027e8 4.1996330566089265e7 0.0
4.1996330566089265e7 -1.496888470706974e7 0.0
0.0 0.0 0.0

1.2716196519202898e8 2.2349126062702645e7 0.0
2.2349126062702645e7 4.345487493911505e6 0.0
0.0 0.0 0.0

-8.0362481640719e6 1.0313383769324988e7 0.0
1.0313383769324988e7 8.82104947739134e6 0.0
0.0 0.0 0.0

5.923309895713951e6 3.583306267691274e6 0.0
3.583306267691274e6 -2.3746760010086954e7 0.0
0.0 0.0 0.0

-9.85296443312476e6 -5.631689117602022e6 0.0
-5.631689117602022e6 3.046804478433952e7 0.0
0.0 0.0 0.0

817250.4010563571 1.1584001925694777e7 0.0
1.1584001925694777e7 -2.463918858828598e6 0.0
0.0 0.0 0.0

-1.2125655247260882e7 7.532392649847463e6 0.0
7.532392649847463e6 1.427102364661471e7 0.0
0.0 0.0 0.0

-4.767481130979989e6 1.817166677201639e7 0.0
1.817166677201639e7 4.1244381443512286e6 0.0
0.0 0.0 0.0

-3.2778801823591124e6 1.5276790875103619e7 0.0
1.5276790875103619e7 1.0871471574734285e7 0.0
0.0 0.0 0.0

-9.747849364461584e6 -5.968802677088483e6 0.0
-5.968802677088483e6 2.9279343294862717e7 0.0
0.0 0.0 0.0

6.002235424115004e6 3.539715200857591e6 0.0
3.539715200857591e6 -2.3280446548951156e7 0.0
0.0 0.0 0.0

-3.001673868941017e6 1.666703115017431e7 0.0
1.666703115017431e7 -2.9647107849837486e6 0.0
0.0 0.0 0.0

-1.937206541874093e6 1.367867596921552e7 0.0
1.367867596921552e7 -2.644726464318623e7 0.0
0.0 0.0 0.0

-4.044163402066201e6 1.8361977458305925e7 0.0
1.8361977458305925e7 591960.2451532017 0.0
0.0 0.0 0.0

1.0116653595674983e6 1.2173753136188217e7 0.0
1.2173753136188217e7 -1.019907866447668e7 0.0
0.0 0.0 0.0

1.386059981518492e6 1.1582511604113339e7 0.0
1.1582511604113339e7 -1.4277464047797892e7 0.0
0.0 0.0 0.0

-1.0065072860279155e6 1.3953451788151536e7 0.0
1.3953451788151536e7 2.3428624482811103e6 0.0
0.0 0.0 0.0

-2.1927152253984762e6 1.6791670034015693e7 0.0
1.6791670034015693e7 -4.791163646923398e6 0.0
0.0 0.0 0.0

-1.3720078632632012e6 1.5499239582461055e7 0.0
1.5499239582461055e7 -6.042646771660865e6 0.0
0.0 0.0 0.0

-921261.606169777 1.25780792275461e7 0.0
1.25780792275461e7 -2.1242010336097103e7 0.0
0.0 0.0 0.0

-4.314045662028804e6 1.8635872819431197e7 0.0
1.8635872819431197e7 2.8387049916696874e6 0.0
0.0 0.0 0.0

-6.233589051125357e6 1.6177813924156535e7 0.0
1.6177813924156535e7 6.981116622802464e6 0.0
0.0 0.0 0.0

-3.389390179833785e6 1.736538342382056e7 0.0
1.736538342382056e7 -3.780421912991451e6 0.0
0.0 0.0 0.0

1.2177025675983066e6 1.1839347537950542e7 0.0
1.1839347537950542e7 -1.4343499139753684e7 0.0
0.0 0.0 0.0

-9.898594994554471e6 7.3662454847325375e6 0.0
7.3662454847325375e6 1.135153323599691e7 0.0
0.0 0.0 0.0

118613.55313946772 1.3428516086130586e7 0.0
1.3428516086130586e7 3.9901584610695653e6 0.0
0.0 0.0 0.0

-9.522122990387801e6 8.680022905757377e6 0.0
8.680022905757377e6 1.1217621022608764e7 0.0
0.0 0.0 0.0

-2.382065879220054e6 1.322749337596562e7 0.0
1.322749337596562e7 -1.5278253904245407e6 0.0
0.0 0.0 0.0

-4.440401735372714e6 1.8520705032608785e7 0.0
1.8520705032608785e7 3.303410025760485e6 0.0
0.0 0.0 0.0

679796.8151112953 1.1917766754806725e7 0.0
1.1917766754806725e7 -1.684462176893168e7 0.0
0.0 0.0 0.0

-5.836472230629481e6 1.4725375447390445e7 0.0
1.4725375447390445e7 1.1110128277551655e7 0.0
0.0 0.0 0.0

-5.122579875226408e6 2.276122270891876e7 0.0
2.276122270891876e7 4.455468128912011e6 0.0
0.0 0.0 0.0

-3.1464864255429283e6 1.3429834700104872e7 0.0
1.3429834700104872e7 -1.8083300293441853e6 0.0
0.0 0.0 0.0

-3.4697479128678287e6 1.7362230417595193e7 0.0
1.7362230417595193e7 -1.5096367547334295e6 0.0
0.0 0.0 0.0

3.9053575678391336e6 1.5309611473350327e7 0.0
1.5309611473350327e7 6.366179655846449e6 0.0
0.0 0.0 0.0

-4.614732351759452e6 1.836044206560766e7 0.0
1.836044206560766e7 3.6815033003113894e6 0.0
0.0 0.0 0.0

-1.0008064969623279e7 8.1455780648010885e6 0.0
8.1455780648010885e6 5.205588745206701e6 0.0
0.0 0.0 0.0

-4.339105191787439e6 1.9679205390292525e7 0.0
1.9679205390292525e7 3.325381353527791e6 0.0
0.0 0.0 0.0

4.961928089133308e6 4.439176190825596e6 0.0
4.439176190825596e6 -1.4285902651602792e7 0.0
0.0 0.0 0.0

4.934544970194043e6 4.515918424602269e6 0.0
4.515918424602269e6 -1.3940436837106137e7 0.0
0.0 0.0 0.0

-3.1901048480500556e6 1.704600747828975e7 0.0
1.704600747828975e7 -2.099322376334931e6 0.0
0.0 0.0 0.0

-3.1674864729128117e6 1.5285814104057502e7 0.0
1.5285814104057502e7 1.3465516626770785e7 0.0
0.0 0.0 0.0

-4.225693217117107e6 2.010929045384259e7 0.0
2.010929045384259e7 3.2330272018678705e6 0.0
0.0 0.0 0.0

-1.2702587979357816e7 5.237877054615849e6 0.0
5.237877054615849e6 1.6275827413412698e7 0.0
0.0 0.0 0.0

-4.5518933510842305e6 2.15635739698533e7 0.0
2.15635739698533e7 3.9423507625578046e6 0.0
0.0 0.0 0.0

-4.0952993407576866e6 1.4875157860593785e7 0.0
1.4875157860593785e7 6.727134157627548e6 0.0
0.0 0.0 0.0

-1.0443971077723252e6 1.0731382882844305e7 0.0
1.0731382882844305e7 1.9094527302734104e6 0.0
0.0 0.0 0.0

3.0304988062091004e6 9.828300790615292e6 0.0
9.828300790615292e6 -1.5905807238822896e7 0.0
0.0 0.0 0.0

-5.407900684446769e6 1.813399747664045e7 0.0
1.813399747664045e7 4.321272362645684e6 0.0
0.0 0.0 0.0

-7.456952639735048e6 -3.2436406853063526e6 0.0
-3.2436406853063526e6 1.1550596633985115e7 0.0
0.0 0.0 0.0

-9.751536623038538e6 1.1709195869995274e7 0.0
1.1709195869995274e7 2.2037135789659936e7 0.0
0.0 0.0 0.0

-324918.16822022665 1.2385114243002785e7 0.0
1.2385114243002785e7 -2.4007454796527892e7 0.0
0.0 0.0 0.0

-1.2256751193029933e7 6.356111197720065e6 0.0
6.356111197720065e6 1.868029079919085e7 0.0
0.0 0.0 0.0

457480.73190948274 1.7145245775324263e7 0.0
1.7145245775324263e7 -4.843851536047664e6 0.0
0.0 0.0 0.0

2.691184136388126e6 1.0153721066832053e7 0.0
1.0153721066832053e7 -1.4295378027792117e7 0.0
0.0 0.0 0.0

-3.3671352381091984e6 1.315420143591789e7 0.0
1.315420143591789e7 -1.3639220219232594e6 0.0
0.0 0.0 0.0

-3.8284995036385674e6 1.8057407015063487e7 0.0
1.8057407015063487e7 -85981.9702854508 0.0
0.0 0.0 0.0

654713.517066275 1.1423550261491688e7 0.0
1.1423550261491688e7 -4.902362872956671e6 0.0
0.0 0.0 0.0

-1.0814222953280734e7 6.160726878048516e6 0.0
6.160726878048516e6 1.4942679053827705e7 0.0
0.0 0.0 0.0

-1.2343672706516495e7 8.101437254455607e6 0.0
8.101437254455607e6 1.831276767473268e7 0.0
0.0 0.0 0.0

-3.6512575295611913e6 1.7705941772867694e7 0.0
1.7705941772867694e7 -794223.4772132919 0.0
0.0 0.0 0.0

-7.182287385883114e6 9.829225690442357e6 0.0
9.829225690442357e6 9.633872614916483e6 0.0
0.0 0.0 0.0

5.4786483588954955e6 5.11821532866896e6 0.0
5.11821532866896e6 -2.0615496028591257e7 0.0
0.0 0.0 0.0

-7.550090128268667e6 1.2104564784084512e7 0.0
1.2104564784084512e7 8.1330422022976205e6 0.0
0.0 0.0 0.0

334626.02253494225 1.1899202427484408e7 0.0
1.1899202427484408e7 -8.17833198171627e6 0.0
0.0 0.0 0.0

485986.2477719039 1.163653232808787e7 0.0
1.163653232808787e7 -433078.571769754 0.0
0.0 0.0 0.0

-1.675988726624753e6 1.476928094700524e7 0.0
1.476928094700524e7 -5.875539761698172e6 0.0
0.0 0.0 0.0

-1.9591147461520438e6 1.3286172821392119e7 0.0
1.3286172821392119e7 -4.312954552524522e6 0.0
0.0 0.0 0.0

1.133385809949641e6 1.1877861663855532e7 0.0
1.1877861663855532e7 -1.3506940440892084e7 0.0
0.0 0.0 0.0

3.784263064534351e6 7.420965407443193e6 0.0
7.420965407443193e6 -1.6285940447687285e7 0.0
0.0 0.0 0.0

494216.24960468896 1.1653513887616428e7 0.0
1.1653513887616428e7 -6.622946148114273e6 0.0
0.0 0.0 0.0

2.399807791418013e6 8.86823098752186e6 0.0
8.86823098752186e6 -1.2080378838899765e7 0.0
0.0 0.0 0.0

4.25924921502869e6 5.152260622524217e6 0.0
5.152260622524217e6 -1.2030800666474903e7 0.0
0.0 0.0 0.0

-5.059698531698184e6 1.851378852570405e7 0.0
1.851378852570405e7 3.448075742832587e6 0.0
0.0 0.0 0.0

-563312.6802821679 9.886462175961647e6 0.0
9.886462175961647e6 -5.667324802628463e6 0.0
0.0 0.0 0.0

-5.621618909741605e6 1.4598904462385343e7 0.0
1.4598904462385343e7 1.0360706787384197e7 0.0
0.0 0.0 0.0

-2.7963735856402e6 -115117.1680981914 0.0
-115117.1680981914 4.331794295919491e6 0.0
0.0 0.0 0.0

1.7713560031827725e6 1.3094318878387578e7 0.0
1.3094318878387578e7 -634574.2599671965 0.0
0.0 0.0 0.0

-2.600180747314045e6 1.4900274555819836e7 0.0
1.4900274555819836e7 -4.278284513130755e6 0.0
0.0 0.0 0.0

3.3071303222683994e6 7.6771140153034795e6 0.0
7.6771140153034795e6 -1.3956003279517986e7 0.0
0.0 0.0 0.0

-6.573690119731577e7 1.0450436544347133e7 0.0
1.0450436544347133e7 1.0539884998208996e7 0.0
0.0 0.0 0.0

-7.958767278939483e6 1.3640831818892604e7 0.0
1.3640831818892604e7 1.315339556850733e7 0.0
0.0 0.0 0.0

-64671.627077186946 1.3717715784223389e7 0.0
1.3717715784223389e7 -8.829980455534173e6 0.0
0.0 0.0 0.0

-1.2557265266703996e6 1.238746481551866e7 0.0
1.238746481551866e7 -5.434751665802312e6 0.0
0.0 0.0 0.0

2.340967688007852e6 1.0841116963226346e7 0.0
1.0841116963226346e7 -1.4701802927372731e7 0.0
0.0 0.0 0.0

-979884.7219165349 1.3896004265690384e7 0.0
1.3896004265690384e7 4.553310992484179e6 0.0
0.0 0.0 0.0

2.8764861842460996e6 1.0074381539564822e7 0.0
1.0074381539564822e7 -1.7672169420322157e7 0.0
0.0 0.0 0.0

-790807.2377694119 1.4113564200089652e7 0.0
1.4113564200089652e7 5.504635388201774e6 0.0
0.0 0.0 0.0

50950.76593124913 1.2639581613923408e7 0.0
1.2639581613923408e7 -9.71594765084153e6 0.0
0.0 0.0 0.0

4.0103824307115627e6 7.558562247272268e6 0.0
7.558562247272268e6 -1.4672684799685892e7 0.0
0.0 0.0 0.0

5.676075772456169e6 4.1200808531140527e6 0.0
4.1200808531140527e6 -2.3053591482432105e7 0.0
0.0 0.0 0.0

-2.135338438312934e6 1.8301559511028267e7 0.0
1.8301559511028267e7 -3.4045540947008445e6 0.0
0.0 0.0 0.0

3.0434333304908946e6 9.918667558213403e6 0.0
9.918667558213403e6 -1.681771028253073e7 0.0
0.0 0.0 0.0

-5.357629635599409e6 1.9258773011382297e7 0.0
1.9258773011382297e7 6.140833659269337e6 0.0
0.0 0.0 0.0

-4.235688776506014e6 1.5528889446364146e7 0.0
1.5528889446364146e7 1.1294624375563122e6 0.0
0.0 0.0 0.0

2.4354534760765713e6 7.039722941196907e6 0.0
7.039722941196907e6 -8.122290273069415e6 0.0
0.0 0.0 0.0

-5.70416482747677e6 2.3268262187207207e7 0.0
2.3268262187207207e7 4.732098065168103e6 0.0
0.0 0.0 0.0

3.524444571755099e6 8.118050166963933e6 0.0
8.118050166963933e6 -1.3230924980500458e7 0.0
0.0 0.0 0.0

-5.821803113142883e6 1.4061480982832663e7 0.0
1.4061480982832663e7 2.0545533302376162e7 0.0
0.0 0.0 0.0

-564532.596748647 1.412554731652428e7 0.0
1.412554731652428e7 109222.96335812248 0.0
0.0 0.0 0.0

-6.689218441627642e6 1.9855377204451613e7 0.0
1.9855377204451613e7 6.761065732516431e6 0.0
0.0 0.0 0.0

-8.497797155957054e6 8.039829668897702e6 0.0
8.039829668897702e6 1.2356133951553116e7 0.0
0.0 0.0 0.0

1.982971944404387e6 1.0686312434098227e7 0.0
1.0686312434098227e7 -1.4779045902871933e7 0.0
0.0 0.0 0.0

-1.3158849830345297e6 8.561706144838661e6 0.0
8.561706144838661e6 -3.1272849405145925e6 0.0
0.0 0.0 0.0

-1.4950925041318107e6 1.3674689608742684e7 0.0
1.3674689608742684e7 -3.6979188802537494e6 0.0
0.0 0.0 0.0

5.516362588469596e6 1.3569486532531945e7 0.0
1.3569486532531945e7 -1.5506759340793365e6 0.0
0.0 0.0 0.0

234463.4444393809 1.3702984428143388e7 0.0
1.3702984428143388e7 -9.982802287998425e6 0.0
0.0 0.0 0.0

1.0190986661993351e6 7.6019109212363865e6 0.0
7.6019109212363865e6 -5.213743919113765e6 0.0
0.0 0.0 0.0

1.533698318059885e6 1.1285250279639661e7 0.0
1.1285250279639661e7 -1.4173271069482122e7 0.0
0.0 0.0 0.0

-7.558038793042468e6 -5.65391045181166e6 0.0
-5.65391045181166e6 1.5590691970506178e7 0.0
0.0 0.0 0.0

-6.075227762041884e6 1.5241894634024685e7 0.0
1.5241894634024685e7 9.999794454950396e6 0.0
0.0 0.0 0.0

-1.235029284081709e7 7.982211221811136e6 0.0
7.982211221811136e6 1.4809493275155533e7 0.0
0.0 0.0 0.0

-1.0970437571001794e7 1.9061657661564685e7 0.0
1.9061657661564685e7 4.0098533961508367e6 0.0
0.0 0.0 0.0

-812540.0901391516 1.2550265881954843e7 0.0
1.2550265881954843e7 -2.0892430915797662e7 0.0
0.0 0.0 0.0

-5.508704501897351e6 1.7761339629620854e7 0.0
1.7761339629620854e7 6.72003464595918e6 0.0
0.0 0.0 0.0

-5.66980674347521e6 1.838174310880233e7 0.0
1.838174310880233e7 6.704856595911674e6 0.0
0.0 0.0 0.0

-1.2019801522865556e6 1.5673767896706928e7 0.0
1.5673767896706928e7 -6.675661109025732e6 0.0
0.0 0.0 0.0

583732.0985343186 1.1704742994568964e7 0.0
1.1704742994568964e7 -2.190144037709181e7 0.0
0.0 0.0 0.0

-5.282903747099431e6 1.44155312589264e7 0.0
1.44155312589264e7 1.0162144997226587e7 0.0
0.0 0.0 0.0

-1.208315835435304e7 1.2831745424150696e6 0.0
1.2831745424150696e6 2.6074796105036125e7 0.0
0.0 0.0 0.0

2.4934159753906457e6 4.448636626807873e6 0.0
4.448636626807873e6 -6.812688982997147e6 0.0
0.0 0.0 0.0

495224.4135595998 1.2489190401616324e7 0.0
1.2489190401616324e7 -1.3461416953826135e7 0.0
0.0 0.0 0.0

-1.8996758850584934e6 1.633677590959406e7 0.0
1.633677590959406e7 -5.528613594298217e6 0.0
0.0 0.0 0.0

-2.6352807098676693e6 1.3837833846187862e7 0.0
1.3837833846187862e7 -1.15350344186191e6 0.0
0.0 0.0 0.0

-420063.05803197995 1.171239517366028e7 0.0
1.171239517366028e7 -6.915608880376326e6 0.0
0.0 0.0 0.0

-3.226712462461504e6 1.2861566898837656e7 0.0
1.2861566898837656e7 -1.668234148804357e7 0.0
0.0 0.0 0.0

-1.2920180576255977e7 7.11939681136756e6 0.0
7.11939681136756e6 1.7055913450804204e7 0.0
0.0 0.0 0.0

-3.880442736480266e6 1.9909864925848067e7 0.0
1.9909864925848067e7 2.255337459689618e6 0.0
0.0 0.0 0.0

-1.6552804832341038e7 1.7248173991712485e7 0.0
1.7248173991712485e7 8.037143431016236e6 0.0
0.0 0.0 0.0

1.9275093831952992e6 1.3348873868379187e7 0.0
1.3348873868379187e7 -520518.85891703435 0.0
0.0 0.0 0.0

2.1115631502628587e6 6.909764819292088e6 0.0
6.909764819292088e6 -9.127643652865278e6 0.0
0.0 0.0 0.0

-2.811876511058645e6 1.3554006566245267e7 0.0
1.3554006566245267e7 -721148.5431231826 0.0
0.0 0.0 0.0

-1.2202715077186476e7 5.3469180794861885e6 0.0
5.3469180794861885e6 2.0677367543193735e7 0.0
0.0 0.0 0.0

-5.821991232978201e6 2.025057472456585e7 0.0
2.025057472456585e7 6.136441701861117e6 0.0
0.0 0.0 0.0

-6.001534785284113e6 1.4328111703846376e7 0.0
1.4328111703846376e7 1.1014791157723438e7 0.0
0.0 0.0 0.0

-4.573355205330979e6 1.8851964798898377e7 0.0
1.8851964798898377e7 2.2455671844242574e6 0.0
0.0 0.0 0.0

386656.8976001763 1.231888212585728e7 0.0
1.231888212585728e7 -1.0418260533396183e7 0.0
0.0 0.0 0.0

-1.2700969604555953e7 7.144441326245374e6 0.0
7.144441326245374e6 1.9752790025493085e7 0.0
0.0 0.0 0.0

418814.72786077857 1.2856698644563934e7 0.0
1.2856698644563934e7 -1.2135272568783462e7 0.0
0.0 0.0 0.0

-2.355362248271946e6 1.5608998147928715e7 0.0
1.5608998147928715e7 -1.8230177801314553e6 0.0
0.0 0.0 0.0

-3.978718754477467e6 2.0159091249856055e7 0.0
2.0159091249856055e7 2.3433748596254177e6 0.0
0.0 0.0 0.0

3.9127423283857964e6 5.681417109932833e6 0.0
5.681417109932833e6 -1.2359236887588661e7 0.0
0.0 0.0 0.0

186290.24029864604 1.5051096030897977e7 0.0
1.5051096030897977e7 -7.008804652519033e6 0.0
0.0 0.0 0.0

-5.438258513518555e6 1.76476124707048e7 0.0
1.76476124707048e7 6.202818918317744e6 0.0
0.0 0.0 0.0

-9.363855540406743e6 6.934925833404839e6 0.0
6.934925833404839e6 1.3474132215486541e7 0.0
0.0 0.0 0.0

-2.045276230877054e6 1.6627493957071211e7 0.0
1.6627493957071211e7 -3.8719560488976375e6 0.0
0.0 0.0 0.0

-1.284302215506754e7 8.963701962213568e6 0.0
8.963701962213568e6 1.6454980046280656e7 0.0
0.0 0.0 0.0

-1.7896749290521087e6 4.111575379503309e6 0.0
4.111575379503309e6 4.959576133013105e6 0.0
0.0 0.0 0.0

-5.487252571893655e6 1.7197706816910334e7 0.0
1.7197706816910334e7 6.115294166066553e6 0.0
0.0 0.0 0.0

-1.256653915801483e7 5.513551481066868e6 0.0
5.513551481066868e6 1.5303554826119965e7 0.0
0.0 0.0 0.0

-6.977561653749479e6 1.4592503172574356e7 0.0
1.4592503172574356e7 8.021340005945437e6 0.0
0.0 0.0 0.0

-457932.719942112 1.4766750273454065e7 0.0
1.4766750273454065e7 1.1919397693966106e7 0.0
0.0 0.0 0.0

1.0208064236403713e6 1.1448456443686735e7 0.0
1.1448456443686735e7 -1.9989145138396177e7 0.0
0.0 0.0 0.0

-2.9288831651214194e6 300967.33913623006 0.0
300967.33913623006 3.7610587071023863e6 0.0
0.0 0.0 0.0

-34787.98361869785 1.8423328246927086e7 0.0
1.8423328246927086e7 -4.3931815554665215e6 0.0
0.0 0.0 0.0

-1.2059877062512254e7 5.415998006173763e6 0.0
5.415998006173763e6 1.832302319914224e7 0.0
0.0 0.0 0.0

706823.6877905219 1.041808083338541e7 0.0
1.041808083338541e7 -8.633936809849512e6 0.0
0.0 0.0 0.0

-4.34029711437798e6 1.4459266294558372e7 0.0
1.4459266294558372e7 8.505581123771248e6 0.0
0.0 0.0 0.0

-1.2208024908647097e6 1.3110430065325703e7 0.0
1.3110430065325703e7 -4.044239659321615e6 0.0
0.0 0.0 0.0

-7.007486295456841e6 1.4724407290767565e7 0.0
1.4724407290767565e7 1.0575281338431766e7 0.0
0.0 0.0 0.0

321724.8567736712 8.901876778852107e6 0.0
8.901876778852107e6 -5.460959083537882e6 0.0
0.0 0.0 0.0

-5.224826060608139e6 1.6505230538757613e7 0.0
1.6505230538757613e7 4.843439222700778e6 0.0
0.0 0.0 0.0

-6.941346248370883e6 1.472829156171999e7 0.0
1.472829156171999e7 8.545479515341485e6 0.0
0.0 0.0 0.0

-115776.97502791183 1.5011093366833149e7 0.0
1.5011093366833149e7 -7.510709944363667e6 0.0
0.0 0.0 0.0

-5.701300910749579e6 1.765633231601042e7 0.0
1.765633231601042e7 5.324433153260229e6 0.0
0.0 0.0 0.0

-4.208766184652506e6 2.0459741764364723e7 0.0
2.0459741764364723e7 3.4541740189615283e6 0.0
0.0 0.0 0.0

1.122124794204872e6 1.1458954702089334e7 0.0
1.1458954702089334e7 -1.7881302496361613e7 0.0
0.0 0.0 0.0

1.8307574628457255e6 4.146305233462181e6 0.0
4.146305233462181e6 -4.251385564592928e6 0.0
0.0 0.0 0.0

-1.656421109986297e6 3.420453529583185e6 0.0
3.420453529583185e6 -19801.50165580318 0.0
0.0 0.0 0.0

5.677077631524732e6 4.997224178337476e6 0.0
4.997224178337476e6 -2.829866406699964e7 0.0
0.0 0.0 0.0

-2.2434669536207323e6 1.6104308211069338e7 0.0
1.6104308211069338e7 -3.2205577960439883e6 0.0
0.0 0.0 0.0

-6.630645807326265e6 1.4185947997893685e7 0.0
1.4185947997893685e7 1.168815775492392e7 0.0
0.0 0.0 0.0

-1.177337991026971e7 6.878787574551741e6 0.0
6.878787574551741e6 1.3654219338508172e7 0.0
0.0 0.0 0.0

-6.355359087728258e6 2.3843866808458496e7 0.0
2.3843866808458496e7 4.977138218849178e6 0.0
0.0 0.0 0.0

-1.2703310211282719e7 4.19432444301729e6 0.0
4.19432444301729e6 1.79785709779161e7 0.0
0.0 0.0 0.0

1.0256824589833936e7 3.751588037890344e7 0.0
3.751588037890344e7 -9.797758225753509e6 0.0
0.0 0.0 0.0

-1.4098007114158398e6 1.4881549818692619e7 0.0
1.4881549818692619e7 -7.172745529632213e6 0.0
0.0 0.0 0.0

1.5667222954765223e6 1.149437714109898e7 0.0
1.149437714109898e7 -1.1540000600342147e7 0.0
0.0 0.0 0.0

-5.524336955258321e6 1.48365677399774e7 0.0
1.48365677399774e7 9.661652797451347e6 0.0
0.0 0.0 0.0

-1.2940230066164572e7 6.343081749773484e6 0.0
6.343081749773484e6 1.8745009567374032e7 0.0
0.0 0.0 0.0

-1.782039203415475e6 1.5832067730868936e7 0.0
1.5832067730868936e7 -4.800928021083293e6 0.0
0.0 0.0 0.0

-91466.59768712206 1.1879567620058686e7 0.0
1.1879567620058686e7 1.6148141907521705e6 0.0
0.0 0.0 0.0

5.351277889418135e6 4.367472121152215e6 0.0
4.367472121152215e6 -1.900984036069141e7 0.0
0.0 0.0 0.0

-4.2797961859316155e6 6.287909872037341e6 0.0
6.287909872037341e6 4.8667961490772255e6 0.0
0.0 0.0 0.0

-7.91554327694165e6 2.539620854234703e7 0.0
2.539620854234703e7 5.719597684673868e6 0.0
0.0 0.0 0.0

-8.018249105912648e6 1.4039240611551527e7 0.0
1.4039240611551527e7 1.2529822757362615e7 0.0
0.0 0.0 0.0

182395.8424113309 1.2511850249191053e7 0.0
1.2511850249191053e7 -1.1703397160838764e7 0.0
0.0 0.0 0.0

2.2190010550557356e6 1.3431447882470807e7 0.0
1.3431447882470807e7 3.028963097893622e6 0.0
0.0 0.0 0.0

-4.194318295090018e6 3.9233586663492518e6 0.0
3.9233586663492518e6 3.6706628478178745e6 0.0
0.0 0.0 0.0

-3.361347463795214e6 8.109714604275327e6 0.0
8.109714604275327e6 384929.3959725213 0.0
0.0 0.0 0.0

172318.12795972778 1.2086955865727033e7 0.0
1.2086955865727033e7 -9.598061509244401e6 0.0
0.0 0.0 0.0

-35068.48276175093 1.235669816073965e7 0.0
1.235669816073965e7 -6.747403188883834e6 0.0
0.0 0.0 0.0

-8.320077440119025e6 1.3224579376161078e7 0.0
1.3224579376161078e7 1.05000457508826e7 0.0
0.0 0.0 0.0

484445.8473257404 1.2332519307775298e7 0.0
1.2332519307775298e7 -1.4136824500437694e7 0.0
0.0 0.0 0.0

2.7849345725922408e6 1.0171151468241319e7 0.0
1.0171151468241319e7 -1.5213555252715733e7 0.0
0.0 0.0 0.0

-5.524071660540776e6 1.7814775569546163e7 0.0
1.7814775569546163e7 7.077224909320665e6 0.0
0.0 0.0 0.0

1.024775731582555e6 1.2633022664154416e7 0.0
1.2633022664154416e7 -1.205851410335118e7 0.0
0.0 0.0 0.0

-1.1660120216581482e7 7.35659038846424e6 0.0
7.35659038846424e6 1.6010620465331398e7 0.0
0.0 0.0 0.0

3.5226170401684865e6 5.541007555340501e6 0.0
5.541007555340501e6 -9.788904503509374e6 0.0
0.0 0.0 0.0

-1.8632787113020774e7 2.2077496903769877e7 0.0
2.2077496903769877e7 444434.32262471505 0.0
0.0 0.0 0.0

1.7548434822622365e6 6.569597188574172e6 0.0
6.569597188574172e6 -7.916441277598846e6 0.0
0.0 0.0 0.0

3.7565988949086745e6 4.270881786726364e6 0.0
4.270881786726364e6 -9.915502763123974e6 0.0
0.0 0.0 0.0

-5.643044058899364e6 1.8275454797000095e7 0.0
1.8275454797000095e7 6.895886665818758e6 0.0
0.0 0.0 0.0

781562.3346728045 1.1062643625394592e7 0.0
1.1062643625394592e7 2.6052081471971194e6 0.0
0.0 0.0 0.0

2.023628479439616e6 1.4102990067726064e7 0.0
1.4102990067726064e7 -3.9487878924398413e6 0.0
0.0 0.0 0.0

-9.729486669447515e6 1.3272628233681092e7 0.0
1.3272628233681092e7 1.4948811042561136e7 0.0
0.0 0.0 0.0

-7.019040260892036e6 1.434047656195867e7 0.0
1.434047656195867e7 1.4870859660857469e7 0.0
0.0 0.0 0.0

2.2945890463387202e6 1.3191053578257887e7 0.0
1.3191053578257887e7 2.421862773300401e7 0.0
0.0 0.0 0.0

5985.794309884543 1.3444126432423167e7 0.0
1.3444126432423167e7 -2.6312839607767574e6 0.0
0.0 0.0 0.0

-6.403923796802303e6 1.4804570714322895e7 0.0
1.4804570714322895e7 1.0691857381798536e7 0.0
0.0 0.0 0.0

-7.223819827468278e6 1.2707019858079012e7 0.0
1.2707019858079012e7 7.350830140604413e6 0.0
0.0 0.0 0.0

66870.71042257501 1.2245128614406105e7 0.0
1.2245128614406105e7 -1.0958307020498447e7 0.0
0.0 0.0 0.0

-5.761190316119045e6 1.7854132751543038e7 0.0
1.7854132751543038e7 5.8681827255596295e6 0.0
0.0 0.0 0.0

-1.294049403932905e7 6.216217828759564e6 0.0
6.216217828759564e6 1.7667554467867654e7 0.0
0.0 0.0 0.0

2.7559378264130973e6 1.7390193465556215e7 0.0
1.7390193465556215e7 -5.118474837284216e6 0.0
0.0 0.0 0.0

-1.1624748798730313e6 1.511746363429986e7 0.0
1.511746363429986e7 -6.380476313759771e6 0.0
0.0 0.0 0.0

3.6942652119587027e6 6.719171369436619e6 0.0
6.719171369436619e6 -1.387524124729367e7 0.0
0.0 0.0 0.0

-286144.3007302019 1.6132635513296133e7 0.0
1.6132635513296133e7 -5.420569667697759e6 0.0
0.0 0.0 0.0

-3.716227119972622e6 1.8138889131889183e7 0.0
1.8138889131889183e7 1.0915400693982728e6 0.0
0.0 0.0 0.0

-1.952688203204282e6 1.157953850638536e7 0.0
1.157953850638536e7 -6.508961704044852e6 0.0
0.0 0.0 0.0

5.0385134454847295e6 1.6054734056347717e7 0.0
1.6054734056347717e7 1.6795053700658444e7 0.0
0.0 0.0 0.0

-1.0518983241929702e7 -5.089775496287433e6 0.0
-5.089775496287433e6 2.4961614385359563e7 0.0
0.0 0.0 0.0

-557028.5715713308 1.3224758889666071e7 0.0
1.3224758889666071e7 3.431828840819765e6 0.0
0.0 0.0 0.0

-8.051540148164319e6 -6.740341158609246e6 0.0
-6.740341158609246e6 1.7452594940662567e7 0.0
0.0 0.0 0.0

-3.303631861209586e6 1.8409731084686324e7 0.0
1.8409731084686324e7 -6736.906753734918 0.0
0.0 0.0 0.0

-1.9001269472841786e6 1.7738710224814504e7 0.0
1.7738710224814504e7 -4.040697929805143e6 0.0
0.0 0.0 0.0

-7.086027329527818e6 2.4524530929344285e7 0.0
2.4524530929344285e7 5.080149402100334e6 0.0
0.0 0.0 0.0

-729076.2013990097 1.4615140852679854e7 0.0
1.4615140852679854e7 7.805893618189797e6 0.0
0.0 0.0 0.0

-1.2226773431299673e7 5.415999251838393e6 0.0
5.415999251838393e6 1.943126103405626e7 0.0
0.0 0.0 0.0

-3.5114302008576365e6 1.8747108226494852e7 0.0
1.8747108226494852e7 750406.9719019269 0.0
0.0 0.0 0.0

-6.815547542950164e6 1.5284744176075753e7 0.0
1.5284744176075753e7 7.961802963009353e6 0.0
0.0 0.0 0.0

-5.915636612375813e6 1.692495690612928e7 0.0
1.692495690612928e7 5.694021057935809e6 0.0
0.0 0.0 0.0

4.37556898973956e6 7.713600492236968e6 0.0
7.713600492236968e6 -2.166012864633206e7 0.0
0.0 0.0 0.0

-5.53285584792837e6 1.775807746071979e7 0.0
1.775807746071979e7 7.437671736877121e6 0.0
0.0 0.0 0.0

5.303422108705016e6 1.2928914275665183e7 0.0
1.2928914275665183e7 3.701183910221605e6 0.0
0.0 0.0 0.0

2.418941139222772e6 1.0517665449540691e7 0.0
1.0517665449540691e7 -1.3603314942662228e7 0.0
0.0 0.0 0.0

-1.0746762598951349e7 -358654.3134955948 0.0
-358654.3134955948 3.828484556181115e7 0.0
0.0 0.0 0.0

-4.189131129285559e6 1.944897556922333e7 0.0
1.944897556922333e7 2.8421367274512406e6 0.0
0.0 0.0 0.0

474863.30873544654 1.356066545850389e7 0.0
1.356066545850389e7 2.9718880993762272e6 0.0
0.0 0.0 0.0

-5.7137914109789334e7 4.707971442988746e7 0.0
4.707971442988746e7 -1.3291339725040417e7 0.0
0.0 0.0 0.0

4.019660000175559e6 5.192003256638832e6 0.0
5.192003256638832e6 -1.2028744120646816e7 0.0
0.0 0.0 0.0

-3.055863678888233e6 1.4165499388671985e7 0.0
1.4165499388671985e7 -345669.065928102 0.0
0.0 0.0 0.0

-9.607337576797592e6 1.804826332656102e7 0.0
1.804826332656102e7 4.974740321455427e6 0.0
0.0 0.0 0.0

323920.8337435918 1.3685925581470335e7 0.0
1.3685925581470335e7 -9.890142787506556e6 0.0
0.0 0.0 0.0

-1.3258666446489391e6 1.4838567442154752e7 0.0
1.4838567442154752e7 -7.6667996569497e6 0.0
0.0 0.0 0.0

4.313393919755532e6 1.4316419113961462e7 0.0
1.4316419113961462e7 -3.1335606032277606e6 0.0
0.0 0.0 0.0

-5.244843162717232e6 2.1729554561338734e7 0.0
2.1729554561338734e7 5.268971568018325e6 0.0
0.0 0.0 0.0

-1.755215528898449e6 1.5406113998519685e7 0.0
1.5406113998519685e7 -4.703123555026459e6 0.0
0.0 0.0 0.0

5.456821873920357e6 5.414315304773303e6 0.0
5.414315304773303e6 -2.242944014847553e7 0.0
0.0 0.0 0.0

-1.4246215005784236e7 1.967984296024622e7 0.0
1.967984296024622e7 -685923.1441430012 0.0
0.0 0.0 0.0

-6.43204894788358e6 1.4941369842257934e7 0.0
1.4941369842257934e7 8.552980277681725e6 0.0
0.0 0.0 0.0

-1.6782275755881108e6 1.719801085229661e7 0.0
1.719801085229661e7 -4.637754472736867e6 0.0
0.0 0.0 0.0

-6.243853198454103e6 1.4016071047974637e7 0.0
1.4016071047974637e7 1.9079014372133728e7 0.0
0.0 0.0 0.0

4.948302715546746e6 1.5707146538368365e7 0.0
1.5707146538368365e7 -5.901902476870431e6 0.0
0.0 0.0 0.0

-5.6138778740741275e6 1.6613953366153507e7 0.0
1.6613953366153507e7 8.285666403645955e6 0.0
0.0 0.0 0.0

-653468.8469454686 1.277251054151595e7 0.0
1.277251054151595e7 -7.325634051851316e6 0.0
0.0 0.0 0.0

508937.4147222332 8.669240366222955e6 0.0
8.669240366222955e6 3.7639313188990448e6 0.0
0.0 0.0 0.0

606564.4145351667 1.4922462677605808e7 0.0
1.4922462677605808e7 -6.456989368458407e6 0.0
0.0 0.0 0.0

-9.063654684730683e6 1.3802509733207157e7 0.0
1.3802509733207157e7 1.3691713302173406e7 0.0
0.0 0.0 0.0

-1.0470806500856599e7 3.092602672359078e6 0.0
3.092602672359078e6 4.035516654676268e7 0.0
0.0 0.0 0.0

-1.0099388529266698e7 -1.621262920063386e6 0.0
-1.621262920063386e6 4.281310068476384e7 0.0
0.0 0.0 0.0

-1.3126234578093798e6 1.3892999740325637e7 0.0
1.3892999740325637e7 -6.367960637717793e6 0.0
0.0 0.0 0.0

204919.70071780495 1.4276341678641291e7 0.0
1.4276341678641291e7 -8.69648673462859e6 0.0
0.0 0.0 0.0

-1.1865551115949624e6 1.4832365387943806e7 0.0
1.4832365387943806e7 -7.944456640484332e6 0.0
0.0 0.0 0.0

-4.909478714754427e6 1.6564091723549357e7 0.0
1.6564091723549357e7 -1.0059546900301508e6 0.0
0.0 0.0 0.0

6.394119258831238e6 1.3764414133770723e7 0.0
1.3764414133770723e7 3.1511408774912795e6 0.0
0.0 0.0 0.0

-8.239603974057296e6 1.3877782865261545e7 0.0
1.3877782865261545e7 1.2116166883725412e7 0.0
0.0 0.0 0.0

-931738.2993489662 1.4772834017058209e7 0.0
1.4772834017058209e7 -8.190091726464287e6 0.0
0.0 0.0 0.0

-717656.4384872757 1.2267543072676271e7 0.0
1.2267543072676271e7 -6.619513519594505e6 0.0
0.0 0.0 0.0

-6.4485481024473915e6 -2.032920728190907e6 0.0
-2.032920728190907e6 1.0327856454835445e7 0.0
0.0 0.0 0.0

2.041826194793935e6 1.0715086853963891e7 0.0
1.0715086853963891e7 -1.795004619964837e7 0.0
0.0 0.0 0.0

-1.0266928917208761e7 -3.7700120939505356e6 0.0
-3.7700120939505356e6 1.7627623536666352e7 0.0
0.0 0.0 0.0

-4.7524060342606045e6 -6.87581302642123e6 0.0
-6.87581302642123e6 1.0752356015944038e7 0.0
0.0 0.0 0.0

-5.506642976375036e6 -6.291220431141972e6 0.0
-6.291220431141972e6 1.118930010459038e7 0.0
0.0 0.0 0.0

-2.9872101295888964e6 8.060638168447078e6 0.0
8.060638168447078e6 1.669026245711931e6 0.0
0.0 0.0 0.0

720084.2390604047 1.197953029586735e7 0.0
1.197953029586735e7 -1.1133858434501708e7 0.0
0.0 0.0 0.0

2.508546095823749e6 1.0557612557824057e7 0.0
1.0557612557824057e7 -1.7703329162128255e7 0.0
0.0 0.0 0.0

-192550.6494681309 1.4435781660289371e7 0.0
1.4435781660289371e7 -2.7571875640589027e6 0.0
0.0 0.0 0.0

-566215.7863108593 1.534943941673771e7 0.0
1.534943941673771e7 -6.594978226605622e6 0.0
0.0 0.0 0.0

2.2886894548627073e6 1.3819355466884559e7 0.0
1.3819355466884559e7 -2.3496222655808413e6 0.0
0.0 0.0 0.0

-3.0797021780976434e6 1.723846015752141e7 0.0
1.723846015752141e7 -920875.2468538095 0.0
0.0 0.0 0.0

2.375713073414454e7 1.5808029304968074e7 0.0
1.5808029304968074e7 2.202765367769179e6 0.0
0.0 0.0 0.0

-536550.227835536 1.1563147310103375e7 0.0
1.1563147310103375e7 9.505410537161944e6 0.0
0.0 0.0 0.0

1.5570577762130948e6 1.4454668158185195e7 0.0
1.4454668158185195e7 -5.021996367138719e6 0.0
0.0 0.0 0.0

-1.0121398969110401e6 1.7754455653952837e7 0.0
1.7754455653952837e7 -4.015483377502227e6 0.0
0.0 0.0 0.0

-3.8880291647910844e6 1.9262115510148313e7 0.0
1.9262115510148313e7 1.9081928125136457e6 0.0
0.0 0.0 0.0

688705.217161539 1.310392086762246e7 0.0
1.310392086762246e7 -1.146378108238525e7 0.0
0.0 0.0 0.0

-8.883717629679428e6 1.744857930478847e7 0.0
1.744857930478847e7 2.8739401260446645e6 0.0
0.0 0.0 0.0

-5.878793200406844e6 1.854505858355169e7 0.0
1.854505858355169e7 6.758993243423045e6 0.0
0.0 0.0 0.0

4.799321066841026e6 4.415075719019731e6 0.0
4.415075719019731e6 -1.3242739680833792e7 0.0
0.0 0.0 0.0

-3.9980174782253588e6 1.7965129199069973e7 0.0
1.7965129199069973e7 291391.10789656127 0.0
0.0 0.0 0.0

-9.666164665240608e6 2.6183520178448394e7 0.0
2.6183520178448394e7 5.858222524595392e6 0.0
0.0 0.0 0.0

-833277.4248408899 9.447991313244456e6 0.0
9.447991313244456e6 -4.907362159863353e6 0.0
0.0 0.0 0.0

2.5294290917100906e6 1.0512060358491573e7 0.0
1.0512060358491573e7 -1.4509861762610199e7 0.0
0.0 0.0 0.0

2.6665882439758815e6 1.0332793111847864e7 0.0
1.0332793111847864e7 -1.6988956921888847e7 0.0
0.0 0.0 0.0

1.9378834237100016e6 1.1102492248499453e7 0.0
1.1102492248499453e7 -1.7636282767494e7 0.0
0.0 0.0 0.0

-539596.564300587 2.3330072414704934e7 0.0
2.3330072414704934e7 -2.756390020368944e6 0.0
0.0 0.0 0.0

-685912.778306111 1.4617461651260376e7 0.0
1.4617461651260376e7 -8.415229079914158e6 0.0
0.0 0.0 0.0

734076.0758537934 1.516638614023779e7 0.0
1.516638614023779e7 1.2530597701183997e7 0.0
0.0 0.0 0.0

-1.8701133744003452e7 1.1589511798684178e7 0.0
1.1589511798684178e7 1.0104296256978113e7 0.0
0.0 0.0 0.0

-3.858307224077812e7 2.1859882558376547e7 0.0
2.1859882558376547e7 4.1129112742957138e6 0.0
0.0 0.0 0.0

5.213835938958913e6 6.305383444398948e6 0.0
6.305383444398948e6 -2.7454052425660964e7 0.0
0.0 0.0 0.0

977863.0993861554 1.477646767609463e7 0.0
1.477646767609463e7 -5.867657289197572e6 0.0
0.0 0.0 0.0

-1.0163518492826317e6 1.6739771985649807e7 0.0
1.6739771985649807e7 -5.141763841183427e6 0.0
0.0 0.0 0.0

4.573391482495372e6 4.348555801724262e6 0.0
4.348555801724262e6 -1.267121472337331e7 0.0
0.0 0.0 0.0

-6.399587141961477e6 1.7099158077547766e7 0.0
1.7099158077547766e7 -1.2935634088579393e6 0.0
0.0 0.0 0.0

-4.506545122279735e6 1.4749261167077279e7 0.0
1.4749261167077279e7 1.012431575055269e7 0.0
0.0 0.0 0.0

-1.3515854838808859e6 1.41756871398563e7 0.0
1.41756871398563e7 1.1521140093616774e7 0.0
0.0 0.0 0.0

-4.472103344349757e6 -1.6311582637533995e6 0.0
-1.6311582637533995e6 7.027198696525011e6 0.0
0.0 0.0 0.0

1.468130843621838e6 1.2053463962692983e7 0.0
1.2053463962692983e7 -1.3521074023973983e7 0.0
0.0 0.0 0.0

2.710993533341555e6 8.490023227639517e6 0.0
8.490023227639517e6 -1.2738535676414737e7 0.0
0.0 0.0 0.0

985768.4235549383 7.318956580041688e6 0.0
7.318956580041688e6 -4.767577316537368e6 0.0
0.0 0.0 0.0

-4.802326401344568e6 -1.2121581800242683e6 0.0
-1.2121581800242683e6 5.552753016161212e6 0.0
0.0 0.0 0.0

-2.514927999482842e6 1.4610645459460288e7 0.0
1.4610645459460288e7 4.8246898421204835e7 0.0
0.0 0.0 0.0

-1.2054619206341641e7 209571.57905926983 0.0
209571.57905926983 2.5331384613250937e7 0.0
0.0 0.0 0.0

-2.9793691219975553e6 1.981200109404125e7 0.0
1.981200109404125e7 111164.40624784713 0.0
0.0 0.0 0.0

-3.21499394094017e6 1.389160632584822e7 0.0
1.389160632584822e7 113711.07316097338 0.0
0.0 0.0 0.0

88459.49724302441 1.16637038964541e7 0.0
1.16637038964541e7 -8.687411416617502e6 0.0
0.0 0.0 0.0

-1.3041497425787752e6 1.6511014218855528e7 0.0
1.6511014218855528e7 -5.264189436935527e6 0.0
0.0 0.0 0.0

-5.726425302866785e6 1.798422393549488e7 0.0
1.798422393549488e7 6.359053951056657e6 0.0
0.0 0.0 0.0

-3.617406357303942e6 2.6316738627820082e7 0.0
2.6316738627820082e7 153772.527860292 0.0
0.0 0.0 0.0

2.9604971261495952e6 5.116252792626296e6 0.0
5.116252792626296e6 -8.253546833103887e6 0.0
0.0 0.0 0.0

-7.411500935810672e6 -2.5909003904616055e6 0.0
-2.5909003904616055e6 9.194216306441221e6 0.0
0.0 0.0 0.0

-386193.3197494459 1.3613456642921519e7 0.0
1.3613456642921519e7 131584.16987770997 0.0
0.0 0.0 0.0

-7.201806365054801e6 1.867686507573339e7 0.0
1.867686507573339e7 6.331190843468539e6 0.0
0.0 0.0 0.0

-5.635258587238094e6 1.4824104751906421e7 0.0
1.4824104751906421e7 1.1996904488265773e7 0.0
0.0 0.0 0.0

-1.1877740404229634e7 6.510447727892457e6 0.0
6.510447727892457e6 1.658340989182254e7 0.0
0.0 0.0 0.0

2.097474893379762e6 1.117064929139684e7 0.0
1.117064929139684e7 -1.4007486923869824e7 0.0
0.0 0.0 0.0

-1.0521157045134108e8 1.6735326616447123e7 0.0
1.6735326616447123e7 345601.9585223496 0.0
0.0 0.0 0.0

-1.204386076125215e7 5.405849172452567e6 0.0
5.405849172452567e6 1.72421528803624e7 0.0
0.0 0.0 0.0

-6.655661025992697e6 1.875278011326974e7 0.0
1.875278011326974e7 6.4748345074849045e6 0.0
0.0 0.0 0.0

944389.1581312856 1.2846397262142971e7 0.0
1.2846397262142971e7 -1.2141004983260235e7 0.0
0.0 0.0 0.0

1.1396901986397486e6 1.1547281560335033e7 0.0
1.1547281560335033e7 -1.7280341680816136e7 0.0
0.0 0.0 0.0

-3.8911742336187838e6 2.5176700490236077e7 0.0
2.5176700490236077e7 1.096806000030913e6 0.0
0.0 0.0 0.0

742575.7175213238 1.193875136305439e7 0.0
1.193875136305439e7 -1.6045257728910692e7 0.0
0.0 0.0 0.0

-372498.4249298265 1.4385699674264878e7 0.0
1.4385699674264878e7 -8.438835554676583e6 0.0
0.0 0.0 0.0

-210226.68563602923 1.3764182987425936e7 0.0
1.3764182987425936e7 1.1126641620336873e6 0.0
0.0 0.0 0.0

-3.8297552944348203e6 2.1728808792276245e7 0.0
2.1728808792276245e7 2.6052581401444394e6 0.0
0.0 0.0 0.0

-7.760985518927244e6 1.8441799197569486e7 0.0
1.8441799197569486e7 5.93555859553661e6 0.0
0.0 0.0 0.0

1.662772874933092e6 1.178891000601923e7 0.0
1.178891000601923e7 -1.338896435484033e7 0.0
0.0 0.0 0.0

-764858.7589460206 1.4429776787836041e7 0.0
1.4429776787836041e7 -7.759181821415026e6 0.0
0.0 0.0 0.0

-5.063887278362296e6 1.7647737325440526e7 0.0
1.7647737325440526e7 3.0471542988675274e6 0.0
0.0 0.0 0.0

-6.20629197839017e6 1.8690512613022033e7 0.0
1.8690512613022033e7 6.620294272594143e6 0.0
0.0 0.0 0.0

-6.661872039557621e6 -8.137131948987068e6 0.0
-8.137131948987068e6 1.714465276959593e7 0.0
0.0 0.0 0.0

-7.939810878268598e6 1.29051565498583e7 0.0
1.29051565498583e7 1.1861336715680266e7 0.0
0.0 0.0 0.0

414916.39930323604 1.2196116882327309e7 0.0
1.2196116882327309e7 -1.4834925261721026e7 0.0
0.0 0.0 0.0

7.882951031512018e6 1.3341358208530592e7 0.0
1.3341358208530592e7 -2.5729304305021944e6 0.0
0.0 0.0 0.0

1.2526262667469615e6 1.224879869169428e7 0.0
1.224879869169428e7 -1.361041196307008e7 0.0
0.0 0.0 0.0

465978.8106278104 1.2214707526528984e7 0.0
1.2214707526528984e7 -3.637121743474952e6 0.0
0.0 0.0 0.0

-1.1998841821400667e7 4.320277230301314e6 0.0
4.320277230301314e6 2.03130971992542e7 0.0
0.0 0.0 0.0

-4.821117447197168e6 1.6049867556250047e7 0.0
1.6049867556250047e7 -2.4100016314835176e6 0.0
0.0 0.0 0.0

355755.66276298324 1.114713259752015e7 0.0
1.114713259752015e7 -5.481034817481415e6 0.0
0.0 0.0 0.0

468070.8082546238 1.3751773457645833e7 0.0
1.3751773457645833e7 -8.997655621814778e6 0.0
0.0 0.0 0.0

-1.5305062630602611e7 2.799040042381714e7 0.0
2.799040042381714e7 7.4879160670565525e6 0.0
0.0 0.0 0.0

-3.42440705468193e7 8.93477452532781e6 0.0
8.93477452532781e6 9.96188813927925e6 0.0
0.0 0.0 0.0

-3.3428109080936615e6 2.0338480109937735e7 0.0
2.0338480109937735e7 -298747.80030864803 0.0
0.0 0.0 0.0

-1.1865380592839036e7 2.707458285362867e7 0.0
2.707458285362867e7 6.727238503623129e6 0.0
0.0 0.0 0.0

4.1731917960021314e6 3.231950334024582e7 0.0
3.231950334024582e7 -4.527891353707608e6 0.0
0.0 0.0 0.0

1.5143869224162614e6 1.1332220486823792e7 0.0
1.1332220486823792e7 -1.6837670305726197e7 0.0
0.0 0.0 0.0

-3.7687125934820436e6 1.2773216688733952e7 0.0
1.2773216688733952e7 -1.5935084214758195e7 0.0
0.0 0.0 0.0

-5.319221052210499e6 1.7459258234387383e7 0.0
1.7459258234387383e7 7.30074202166131e6 0.0
0.0 0.0 0.0

-1.2870907386672735e7 6.247483726868213e6 0.0
6.247483726868213e6 1.6666525839524057e7 0.0
0.0 0.0 0.0

-7.148099662597481e6 1.6323875266600227e7 0.0
1.6323875266600227e7 2.6245686591912247e6 0.0
0.0 0.0 0.0

-1.4543835643629278e6 1.2191708384650534e7 0.0
1.2191708384650534e7 4.302192987811648e6 0.0
0.0 0.0 0.0

-700675.2133974694 1.3205251287274215e7 0.0
1.3205251287274215e7 -5.736364920199011e6 0.0
0.0 0.0 0.0

-3.4337301143268365e6 2.7572643508891083e7 0.0
2.7572643508891083e7 -1.1507478289231353e6 0.0
0.0 0.0 0.0

-1.5052914908950482e6 1.608790910774538e7 0.0
1.608790910774538e7 -6.009095892385168e6 0.0
0.0 0.0 0.0

1.338669412837297e6 1.331822119171346e7 0.0
1.331822119171346e7 -4.572995856470228e6 0.0
0.0 0.0 0.0

5.735197935765855e6 3.7891744938888582e6 0.0
3.7891744938888582e6 -1.969768008464464e7 0.0
0.0 0.0 0.0

-5.718611385332231e6 1.8012550492197175e7 0.0
1.8012550492197175e7 6.754485357490673e6 0.0
0.0 0.0 0.0

-4.320376384110118e6 1.3307241210555198e7 0.0
1.3307241210555198e7 2.856113538341712e6 0.0
0.0 0.0 0.0

1.734676279883977e6 9.781134737791141e6 0.0
9.781134737791141e6 -8.88738966480091e6 0.0
0.0 0.0 0.0

1.2950931337531162e6 1.1586439345277075e7 0.0
1.1586439345277075e7 -1.7349665810393088e7 0.0
0.0 0.0 0.0

-5.269684934927305e6 1.4834705779501442e7 0.0
1.4834705779501442e7 9.962317114007374e6 0.0
0.0 0.0 0.0

-7.259239752853494e6 1.4552221643734556e7 0.0
1.4552221643734556e7 1.3996033845804304e7 0.0
0.0 0.0 0.0

-827413.2358780475 1.2817704304462044e7 0.0
1.2817704304462044e7 -3.0758247758804695e6 0.0
0.0 0.0 0.0

-320975.2810860798 1.7227059413035907e7 0.0
1.7227059413035907e7 -4.726691557999468e6 0.0
0.0 0.0 0.0

-5.661283353357822e6 1.746262365477833e7 0.0
1.746262365477833e7 7.477977852030215e6 0.0
0.0 0.0 0.0

-1.092636323699461e7 -837932.9191591853 0.0
-837932.9191591853 3.367597395484434e7 0.0
0.0 0.0 0.0

-2.851973178589397e6 8.691598445892641e6 0.0
8.691598445892641e6 1.2539032163332559e6 0.0
0.0 0.0 0.0

-114177.03498500446 1.354191959078966e7 0.0
1.354191959078966e7 -3.570160323572782e6 0.0
0.0 0.0 0.0

-5.820850149515131e6 1.8046530602425173e7 0.0
1.8046530602425173e7 6.995433833000915e6 0.0
0.0 0.0 0.0

-6.566021228456787e6 1.5211115861955596e7 0.0
1.5211115861955596e7 9.484484593861867e6 0.0
0.0 0.0 0.0

2.4877177644531056e6 9.932224360821344e6 0.0
9.932224360821344e6 -1.2029978255594632e7 0.0
0.0 0.0 0.0

-4.344948429054569e6 1.8991895378771245e7 0.0
1.8991895378771245e7 2.9992906627729875e6 0.0
0.0 0.0 0.0

-3.80776586040249e6 2.2521813693426844e7 0.0
2.2521813693426844e7 2.443419171128992e6 0.0
0.0 0.0 0.0

-5.036090687675333e6 1.5726586133473048e7 0.0
1.5726586133473048e7 4.301173330944821e6 0.0
0.0 0.0 0.0

1.9972816246750318e6 1.1166958064469324e7 0.0
1.1166958064469324e7 -1.3083213570076456e7 0.0
0.0 0.0 0.0

-4.255624917297209e6 1.9024007707411196e7 0.0
1.9024007707411196e7 1.5326309287631016e6 0.0
0.0 0.0 0.0

-2.0034155185110918e6 1.7031347159873515e7 0.0
1.7031347159873515e7 -4.67176647528775e6 0.0
0.0 0.0 0.0

-3.835728374738911e6 1.5157421083364107e7 0.0
1.5157421083364107e7 1.3157441172523148e7 0.0
0.0 0.0 0.0

-5.377001367329603e6 1.5350926083609415e7 0.0
1.5350926083609415e7 4.991766207980883e6 0.0
0.0 0.0 0.0

-5.641535073313069e6 1.907246775783499e7 0.0
1.907246775783499e7 5.858945786926571e6 0.0
0.0 0.0 0.0

-1.033581128577908e7 -4.483773509360567e6 0.0
-4.483773509360567e6 2.4981858165226556e7 0.0
0.0 0.0 0.0

-3.7944231874739127e6 2.2076161412303675e7 0.0
2.2076161412303675e7 2.584010737383323e6 0.0
0.0 0.0 0.0

5.6787270717716105e6 3.8574719265887253e6 0.0
3.8574719265887253e6 -1.926265829792316e7 0.0
0.0 0.0 0.0

-3.5657955060210894e6 1.7752500282533634e7 0.0
1.7752500282533634e7 -1.170105280063499e6 0.0
0.0 0.0 0.0

-8.766518776066065e6 -6.611246646446172e6 0.0
-6.611246646446172e6 2.0357806426024515e7 0.0
0.0 0.0 0.0

63981.23376927711 1.053694275156077e7 0.0
1.053694275156077e7 -4.1314843660054514e6 0.0
0.0 0.0 0.0

-6.535760979507989e6 1.744041606418415e7 0.0
1.744041606418415e7 4.1875980624082466e6 0.0
0.0 0.0 0.0

-670868.1097853571 1.4971957841385575e7 0.0
1.4971957841385575e7 -2.141621239945793e6 0.0
0.0 0.0 0.0

-1.0315101936198646e6 1.5273384798212733e7 0.0
1.5273384798212733e7 -2.665578561674091e6 0.0
0.0 0.0 0.0

229943.54151802417 1.2998531225309022e7 0.0
1.2998531225309022e7 -1.1701442714070113e7 0.0
0.0 0.0 0.0

-1.2862966901266964e7 8.010847365513362e6 0.0
8.010847365513362e6 1.7185314204332173e7 0.0
0.0 0.0 0.0

-2.03189502030691e6 1.2832474861051157e7 0.0
1.2832474861051157e7 6.143854153093854e6 0.0
0.0 0.0 0.0

4.0946824553390574e6 7.532198293713245e6 0.0
7.532198293713245e6 -1.5268303358616684e7 0.0
0.0 0.0 0.0

-1.1386390991497347e6 1.53580783591049e7 0.0
1.53580783591049e7 1.1428852068242319e7 0.0
0.0 0.0 0.0

-3.2416721440670295e6 1.4969255895522244e7 0.0
1.4969255895522244e7 -2.965080560014095e7 0.0
0.0 0.0 0.0

-6.657727649589949e6 1.44158582239086e7 0.0
1.44158582239086e7 9.166223430474544e6 0.0
0.0 0.0 0.0

-4.537355738778995e6 1.921176143503523e7 0.0
1.921176143503523e7 2.4815109326062156e6 0.0
0.0 0.0 0.0

-4.781748120884776e6 1.5071048354768688e7 0.0
1.5071048354768688e7 1.7946496414423636e6 0.0
0.0 0.0 0.0

-1.0129043335662577e6 1.517330725221681e7 0.0
1.517330725221681e7 -6.7196658522274755e6 0.0
0.0 0.0 0.0

448113.86244687997 1.4225675333176654e7 0.0
1.4225675333176654e7 -6.368697489495233e6 0.0
0.0 0.0 0.0

-5.658430252053483e6 1.7981345082035776e7 0.0
1.7981345082035776e7 7.051275596506079e6 0.0
0.0 0.0 0.0

-6.064854378725876e6 1.474718795059144e7 0.0
1.474718795059144e7 1.0587359032167803e7 0.0
0.0 0.0 0.0

-7.265270715118954e6 1.4455912659706112e7 0.0
1.4455912659706112e7 1.3865570940950803e7 0.0
0.0 0.0 0.0

-1.1753196997316508e6 1.2264961973218882e7 0.0
1.2264961973218882e7 -1.1382696576368146e7 0.0
0.0 0.0 0.0

1.0001547157650818e6 1.165974752359344e7 0.0
1.165974752359344e7 -1.1789463620325228e7 0.0
0.0 0.0 0.0

-4.396304373256011e6 1.4850727817519205e7 0.0
1.4850727817519205e7 9.060637053658115e6 0.0
0.0 0.0 0.0

3.574226496635312e6 8.633038604070472e6 0.0
8.633038604070472e6 -2.0515797856742818e7 0.0
0.0 0.0 0.0

-1.2580965059920256e6 1.4450195989996754e7 0.0
1.4450195989996754e7 -5.49370822743133e6 0.0
0.0 0.0 0.0

-3.815770507323052e6 2.3106902219676875e7 0.0
2.3106902219676875e7 2.359495145597007e6 0.0
0.0 0.0 0.0

-1.5253057914104275e6 1.473894677336989e7 0.0
1.473894677336989e7 9.07006132269785e6 0.0
0.0 0.0 0.0

1.2780288955386179e7 1.928140364375864e7 0.0
1.928140364375864e7 4.2600941883719735e7 0.0
0.0 0.0 0.0

-1.015784565853366e7 1.782068016759851e7 0.0
1.782068016759851e7 -3.385946887233288e7 0.0
0.0 0.0 0.0

-4.749688700227038e6 1.3211042768291198e7 0.0
1.3211042768291198e7 1.4390283470056704e6 0.0
0.0 0.0 0.0

-2.1129434813603427e7 2.169526398521616e7 0.0
2.169526398521616e7 1.1435304394142285e7 0.0
0.0 0.0 0.0

-3.5236199408292323e6 1.6681699578133631e7 0.0
1.6681699578133631e7 -1.3383622143922013e6 0.0
0.0 0.0 0.0

-3.4983172743841507e6 1.49372700530607e7 0.0
1.49372700530607e7 7.42691850782815e6 0.0
0.0 0.0 0.0

-2.4476961623846265e6 1.4969599258528976e7 0.0
1.4969599258528976e7 1.0809194805283273e7 0.0
0.0 0.0 0.0

765616.292281176 1.5857800907045009e7 0.0
1.5857800907045009e7 2.1599822361062765e7 0.0
0.0 0.0 0.0

1.382535679258113e6 1.4000108686003162e7 0.0
1.4000108686003162e7 5.078712068330926e6 0.0
0.0 0.0 0.0

1.9216030308151322e6 1.3911648250577146e7 0.0
1.3911648250577146e7 9.933935786106348e6 0.0
0.0 0.0 0.0

-1.2237435889637528e6 1.727686934033099e7 0.0
1.727686934033099e7 -4.657104106069694e6 0.0
0.0 0.0 0.0

-1.9559925427831537e6 1.4426927020667335e7 0.0
1.4426927020667335e7 6.807252022322662e6 0.0
0.0 0.0 0.0

-4.388621655567045e6 1.4518043107469605e7 0.0
1.4518043107469605e7 9.206440537876753e6 0.0
0.0 0.0 0.0

-2.833064358107577e6 2.1050563155754622e7 0.0
2.1050563155754622e7 783225.7525579457 0.0
0.0 0.0 0.0

-1.009046219735492e6 1.4075044995700428e7 0.0
1.4075044995700428e7 7.829054379663211e6 0.0
0.0 0.0 0.0

5.235127674957862e6 4.29184527863036e6 0.0
4.29184527863036e6 -1.583474533605761e7 0.0
0.0 0.0 0.0

-9.49324210422993e6 1.0179435633797448e7 0.0
1.0179435633797448e7 1.1892651773436066e7 0.0
0.0 0.0 0.0

-6.98324371661421e6 -8.213800796172132e6 0.0
-8.213800796172132e6 1.7726986699972145e7 0.0
0.0 0.0 0.0

-7.394011345509375e6 1.4274803095791006e7 0.0
1.4274803095791006e7 1.1811138549146093e7 0.0
0.0 0.0 0.0

-3.5481567451465437e6 1.947648655287102e7 0.0
1.947648655287102e7 1.2200127205050844e6 0.0
0.0 0.0 0.0

2.033112677094222e6 1.6226258567444323e7 0.0
1.6226258567444323e7 8.940144619686572e6 0.0
0.0 0.0 0.0

376393.9673634451 1.4049012865539515e7 0.0
1.4049012865539515e7 7.475471250292115e6 0.0
0.0 0.0 0.0

-5.2666129438696895e6 1.890129757754312e7 0.0
1.890129757754312e7 6.140213805224974e6 0.0
0.0 0.0 0.0

3.754220160575502e6 5.018075936716112e6 0.0
5.018075936716112e6 -1.019438553569849e7 0.0
0.0 0.0 0.0

-3.742925082287666e6 1.811661187199022e7 0.0
1.811661187199022e7 -430680.9449995159 0.0
0.0 0.0 0.0

3.2161046820617393e6 8.819380309251826e6 0.0
8.819380309251826e6 -1.286115802744913e7 0.0
0.0 0.0 0.0

-6.80635845558205e6 1.8073022696007192e7 0.0
1.8073022696007192e7 6.240410922441661e6 0.0
0.0 0.0 0.0

-1.65883654262532e6 1.847904895401645e7 0.0
1.847904895401645e7 -3.612385556358901e6 0.0
0.0 0.0 0.0

-5.320764223330107e6 1.5715376359508742e7 0.0
1.5715376359508742e7 743612.1240652851 0.0
0.0 0.0 0.0

6.128300766750773e6 3.580165183177472e6 0.0
3.580165183177472e6 -2.6706977149110384e7 0.0
0.0 0.0 0.0

2.248082524298677e6 1.3777719636591727e7 0.0
1.3777719636591727e7 -402124.6340016868 0.0
0.0 0.0 0.0

-2.886467633897741e6 1.8710542657233156e7 0.0
1.8710542657233156e7 -747621.1582624258 0.0
0.0 0.0 0.0

-2.1529732732650633e6 1.6622258022271808e7 0.0
1.6622258022271808e7 -3.6988927067356436e6 0.0
0.0 0.0 0.0

-28190.073679910507 1.2439416839035759e7 0.0
1.2439416839035759e7 -9.064544534846704e6 0.0
0.0 0.0 0.0

4.547656455512542e6 5.400391239857641e6 0.0
5.400391239857641e6 -1.5007244720347442e7 0.0
0.0 0.0 0.0

-5.866168301762989e6 1.6266762221419418e7 0.0
1.6266762221419418e7 5.071810089629714e6 0.0
0.0 0.0 0.0

2.3706126935882894e6 1.0282885726773854e7 0.0
1.0282885726773854e7 -1.7995581796087105e7 0.0
0.0 0.0 0.0

-8.395948091658717e6 -7.853411605542892e6 0.0
-7.853411605542892e6 2.1035935854738437e7 0.0
0.0 0.0 0.0

-7.450058776938332e6 1.3560711083897026e7 0.0
1.3560711083897026e7 1.1027687884267207e7 0.0
0.0 0.0 0.0

-9.898675607158925e6 1.7313170818373304e7 0.0
1.7313170818373304e7 4.211316804724531e6 0.0
0.0 0.0 0.0

5.076076720975339e6 6.084686025994676e6 0.0
6.084686025994676e6 -3.8994139263304785e7 0.0
0.0 0.0 0.0

-9.92983069817265e6 1.1846563609391848e7 0.0
1.1846563609391848e7 2.0225079262233034e7 0.0
0.0 0.0 0.0

-3.6884325936889406e6 1.5210028594715348e7 0.0
1.5210028594715348e7 1.0801796560807033e7 0.0
0.0 0.0 0.0

-6.841911524844419e6 1.4036911645996263e7 0.0
1.4036911645996263e7 1.6192736751396077e7 0.0
0.0 0.0 0.0

-3.6849144092411324e6 1.4178578783128168e7 0.0
1.4178578783128168e7 900793.4474004188 0.0
0.0 0.0 0.0

-7.311240260806997e6 1.4084048669248864e7 0.0
1.4084048669248864e7 8.644446430696134e6 0.0
0.0 0.0 0.0

99686.20325144473 1.2259491820208991e7 0.0
1.2259491820208991e7 -7.626606699442584e6 0.0
0.0 0.0 0.0

1.2830791462417142e6 1.1328318354656957e7 0.0
1.1328318354656957e7 -1.2431421085366867e7 0.0
0.0 0.0 0.0

3.884343939207878e6 8.409032600576771e6 0.0
8.409032600576771e6 -2.4299673455627736e7 0.0
0.0 0.0 0.0

-7.65281896509546e6 -8.044803913853007e6 0.0
-8.044803913853007e6 1.9090585776427705e7 0.0
0.0 0.0 0.0

-9.85664639323492e6 -6.702696627016212e6 0.0
-6.702696627016212e6 2.6820266521758527e7 0.0
0.0 0.0 0.0

-4.736693548902527e6 1.6606718950763846e7 0.0
1.6606718950763846e7 1.8012356807315098e6 0.0
0.0 0.0 0.0

-915618.8820737994 1.517133526804365e7 0.0
1.517133526804365e7 -7.131079089236713e6 0.0
0.0 0.0 0.0

-5.733833278697059e6 1.430377615112157e7 0.0
1.430377615112157e7 1.9479922270944644e7 0.0
0.0 0.0 0.0

197512.33167005563 1.2068984027889252e7 0.0
1.2068984027889252e7 -5.985420582938078e6 0.0
0.0 0.0 0.0

-401920.9770435076 1.6659510414169794e7 0.0
1.6659510414169794e7 -5.058917642176295e6 0.0
0.0 0.0 0.0

-5.852998236154631e6 1.7388900579249788e7 0.0
1.7388900579249788e7 5.803249549065793e6 0.0
0.0 0.0 0.0

-6.852922395806766e6 -2.8778058522817604e6 0.0
-2.8778058522817604e6 1.0942070346919464e7 0.0
0.0 0.0 0.0

-1.3548328556275861e6 2.9327035800370812e7 0.0
2.9327035800370812e7 -2.8761138848510874e6 0.0
0.0 0.0 0.0

469740.5549160992 1.3306300295761753e7 0.0
1.3306300295761753e7 -7.385651469322373e6 0.0
0.0 0.0 0.0

-1.0623741780609991e6 1.3020678909283709e7 0.0
1.3020678909283709e7 -2.526427949294032e7 0.0
0.0 0.0 0.0

5.619954678821988e6 4.455192897769169e6 0.0
4.455192897769169e6 -1.8118725583620988e7 0.0
0.0 0.0 0.0

-129528.3190106448 1.3795299126883058e7 0.0
1.3795299126883058e7 -3.5048345647524637e6 0.0
0.0 0.0 0.0

-8.516045276651055e6 1.229828078683108e7 0.0
1.229828078683108e7 1.2635262528180417e7 0.0
0.0 0.0 0.0

-1.895083251027183e7 1.1650957072610734e7 0.0
1.1650957072610734e7 1.0365869130098227e7 0.0
0.0 0.0 0.0

-1.54316100592436e6 1.5979357658269286e7 0.0
1.5979357658269286e7 -3.49320275126518e6 0.0
0.0 0.0 0.0

1.2955095226861946e6 1.3700580555822069e7 0.0
1.3700580555822069e7 8.2281275249545e6 0.0
0.0 0.0 0.0

-393983.80038189003 1.2218542130188644e7 0.0
1.2218542130188644e7 -9.539836169564718e6 0.0
0.0 0.0 0.0

-7.304716893444797e6 -1.2239863152739613e6 0.0
-1.2239863152739613e6 1.1239294594942382e7 0.0
0.0 0.0 0.0

-1.5883471593406256e6 1.4150237811382532e7 0.0
1.4150237811382532e7 -5.587672721259685e6 0.0
0.0 0.0 0.0

-739151.0018835459 1.4084158931803692e7 0.0
1.4084158931803692e7 1.0250156129780932e6 0.0
0.0 0.0 0.0

-2.6963798115451457e6 1.4799360211233072e7 0.0
1.4799360211233072e7 7.483940000794027e6 0.0
0.0 0.0 0.0

-30126.907872823067 1.3005701503260106e7 0.0
1.3005701503260106e7 -1.0185608453217978e7 0.0
0.0 0.0 0.0

-5.185527058259457e6 1.5090905200131653e7 0.0
1.5090905200131653e7 1.2390275411068778e7 0.0
0.0 0.0 0.0

305960.82619345066 1.1268043147602562e7 0.0
1.1268043147602562e7 -1.2803951906862317e6 0.0
0.0 0.0 0.0

-723540.2888379255 1.5117705140573623e7 0.0
1.5117705140573623e7 -7.512856104392248e6 0.0
0.0 0.0 0.0

2.1106954406562187e6 1.3355408791104116e7 0.0
1.3355408791104116e7 -3.272076861627709e6 0.0
0.0 0.0 0.0

2.4846187584034884e6 1.0052098994946465e7 0.0
1.0052098994946465e7 -1.6255867213356873e7 0.0
0.0 0.0 0.0

-7.502503619421454e6 1.426220978041212e7 0.0
1.426220978041212e7 1.1280417187889362e7 0.0
0.0 0.0 0.0

-491310.1659829221 1.2208839801400593e7 0.0
1.2208839801400593e7 -5.164838144651897e6 0.0
0.0 0.0 0.0

-3.107113722029634e7 1.871912673814199e7 0.0
1.871912673814199e7 9.252087967494903e6 0.0
0.0 0.0 0.0

-3.351252891940063e6 1.4746806800546553e7 0.0
1.4746806800546553e7 2.5369528622476477e7 0.0
0.0 0.0 0.0

5.762506404476043e6 3.749298771315987e6 0.0
3.749298771315987e6 -2.0138665143413685e7 0.0
0.0 0.0 0.0

-9.728492780785987e6 -6.9287144252495235e6 0.0
-6.9287144252495235e6 2.5638463766160518e7 0.0
0.0 0.0 0.0

190744.3805499887 1.200904981898313e7 0.0
1.200904981898313e7 -2.2860811265572228e7 0.0
0.0 0.0 0.0

819951.8629512489 1.2049018766358638e7 0.0
1.2049018766358638e7 -1.6210965860948984e7 0.0
0.0 0.0 0.0

-583114.632554496 1.4913062081184221e7 0.0
1.4913062081184221e7 -2.7221911506686355e6 0.0
0.0 0.0 0.0

-9.044688655696657e6 2.033806040601292e7 0.0
2.033806040601292e7 -982867.5188712408 0.0
0.0 0.0 0.0

-9.52897170811424e6 1.3512823916341381e7 0.0
1.3512823916341381e7 1.4590503833017796e7 0.0
0.0 0.0 0.0

-521178.6214597183 1.5004310099590864e7 0.0
1.5004310099590864e7 -7.8418791149647795e6 0.0
0.0 0.0 0.0

-1.011856351454079e7 -3.798161698709546e6 0.0
-3.798161698709546e6 3.670019079858845e7 0.0
0.0 0.0 0.0

-1.0169152660455678e7 1.0916253310930029e7 0.0
1.0916253310930029e7 1.446897586976625e7 0.0
0.0 0.0 0.0

5.743709295840802e6 4.8508385881532775e6 0.0
4.8508385881532775e6 -3.657016173957041e7 0.0
0.0 0.0 0.0

-4.550990534612172e6 1.9569961717434518e7 0.0
1.9569961717434518e7 2.66000165357297e6 0.0
0.0 0.0 0.0

5.943096888336811e6 3.7943966723925555e6 0.0
3.7943966723925555e6 -3.1729601642091e7 0.0
0.0 0.0 0.0

-2.18850077019651e7 2.788135748611019e7 0.0
2.788135748611019e7 9.057516755431497e6 0.0
0.0 0.0 0.0

-1.0051395297235368e7 -3.3147605254244087e6 0.0
-3.3147605254244087e6 3.872919371519678e7 0.0
0.0 0.0 0.0

2.777292010883175e6 1.019796405675073e7 0.0
1.019796405675073e7 -1.6118705217098683e7 0.0
0.0 0.0 0.0

-8.216404349340597e6 1.7254278370454423e7 0.0
1.7254278370454423e7 4.508249375308754e6 0.0
0.0 0.0 0.0

-2.921702796181547e7 1.5617707268358551e7 0.0
1.5617707268358551e7 3.4710729855235405e6 0.0
0.0 0.0 0.0

5.845178880041247e6 4.256186972570797e6 0.0
4.256186972570797e6 -3.404621017749359e7 0.0
0.0 0.0 0.0

-5.250042179374172e6 1.6454660365283303e7 0.0
1.6454660365283303e7 2.9817935723889824e6 0.0
0.0 0.0 0.0

-6.202590419246523e6 1.5728200844269343e7 0.0
1.5728200844269343e7 9.232965082003787e6 0.0
0.0 0.0 0.0

5.628527906170099e6 1.3230615575801196e7 0.0
1.3230615575801196e7 6.217806922369567e6 0.0
0.0 0.0 0.0

1.0260821370541006e6 1.2005248263635831e7 0.0
1.2005248263635831e7 -1.4836473910350844e7 0.0
0.0 0.0 0.0

306369.73351217434 1.2395123932991855e7 0.0
1.2395123932991855e7 -1.5124497237179266e7 0.0
0.0 0.0 0.0

-2.635342370610744e6 1.6324016781003388e7 0.0
1.6324016781003388e7 -4.18200967423028e6 0.0
0.0 0.0 0.0

-4.5955537513112705e6 1.987569852901574e7 0.0
1.987569852901574e7 2.868013439843105e6 0.0
0.0 0.0 0.0

-1.227940421120607e7 6.390312042239818e6 0.0
6.390312042239818e6 1.9783087240866933e7 0.0
0.0 0.0 0.0

6.114155569282452e6 3.5941971404760787e6 0.0
3.5941971404760787e6 -2.8624932676191427e7 0.0
0.0 0.0 0.0

-9.647035858062303e6 2.1949349339596853e7 0.0
2.1949349339596853e7 7.17244476277324e6 0.0
0.0 0.0 0.0

4.391439894548424e6 5.967834561372284e6 0.0
5.967834561372284e6 -1.2667077636692848e7 0.0
0.0 0.0 0.0

88674.65772425104 1.2881215354220565e7 0.0
1.2881215354220565e7 -1.1123669754771817e7 0.0
0.0 0.0 0.0

6.049257802595621e6 3.7598547630335707e6 0.0
3.7598547630335707e6 -2.9760504987704046e7 0.0
0.0 0.0 0.0

94310.97756830975 1.2609838152305853e7 0.0
1.2609838152305853e7 -1.3979923756389285e7 0.0
0.0 0.0 0.0

-1.2594757910916992e7 3.9397666621253565e6 0.0
3.9397666621253565e6 2.2210817650336243e7 0.0
0.0 0.0 0.0

81114.64233240928 4.0223088669927055e6 0.0
4.0223088669927055e6 -2.6307188854166763e6 0.0
0.0 0.0 0.0

-4.805098179146062e6 1.2023541216449622e7 0.0
1.2023541216449622e7 1.691154295637172e6 0.0
0.0 0.0 0.0

-529297.20149191 1.5155133469268892e7 0.0
1.5155133469268892e7 9.71395807428733e6 0.0
0.0 0.0 0.0

5.825844977672583e6 3.5704631486034854e6 0.0
3.5704631486034854e6 -2.192833385437384e7 0.0
0.0 0.0 0.0

-5.538719529790327e6 1.750291057611461e7 0.0
1.750291057611461e7 7.397434785678973e6 0.0
0.0 0.0 0.0

-8.210030746017879e6 -6.304575754896996e6 0.0
-6.304575754896996e6 1.825838783176164e7 0.0
0.0 0.0 0.0

303196.8347867185 1.2221781453256406e7 0.0
1.2221781453256406e7 -1.559924672815648e6 0.0
0.0 0.0 0.0

2.234140196687445e6 1.036801243699636e7 0.0
1.036801243699636e7 -1.5521633179776207e7 0.0
0.0 0.0 0.0

-6.469919703123778e6 1.4548607498079529e7 0.0
1.4548607498079529e7 1.1274376566047363e7 0.0
0.0 0.0 0.0

-2.5563940388969146e6 1.4917566852757683e7 0.0
1.4917566852757683e7 1.4158978221129889e7 0.0
0.0 0.0 0.0

-578787.929972223 1.3651786023184247e7 0.0
1.3651786023184247e7 -2.870222883783948e6 0.0
0.0 0.0 0.0

-2.0479749785241745e6 1.6211134822265014e7 0.0
1.6211134822265014e7 -4.0375768166202614e6 0.0
0.0 0.0 0.0

-5.589773234642215e6 1.7919732449907202e7 0.0
1.7919732449907202e7 4.825851416695266e6 0.0
0.0 0.0 0.0

-212339.3037112658 1.4326483943268407e7 0.0
1.4326483943268407e7 -3.521922099444689e6 0.0
0.0 0.0 0.0

9.536869078342939e6 5.70134685254947e6 0.0
5.70134685254947e6 -2.6362277324623736e6 0.0
0.0 0.0 0.0

-1.0293905498354001e7 -4.14975453513526e6 0.0
-4.14975453513526e6 3.477357508395165e7 0.0
0.0 0.0 0.0

505070.92565497407 1.449605423662565e7 0.0
1.449605423662565e7 7.117311499184742e6 0.0
0.0 0.0 0.0

-1.0039360416662782e7 -6.174069743152042e6 0.0
-6.174069743152042e6 2.825685071281213e7 0.0
0.0 0.0 0.0

-503641.95753045555 1.441391415872119e7 0.0
1.441391415872119e7 -1.0642069977093234e6 0.0
0.0 0.0 0.0

-1.0864263632703945e7 6.693124070206389e6 0.0
6.693124070206389e6 2.062762177390034e7 0.0
0.0 0.0 0.0

-4.343554647407807e6 1.2079977265787534e7 0.0
1.2079977265787534e7 3.2216349165664613e6 0.0
0.0 0.0 0.0

1.1993044787030064e6 3.5091492594175567e6 0.0
3.5091492594175567e6 -3.2544297966681514e6 0.0
0.0 0.0 0.0

1.247722792344662e6 3.7104218222104255e6 0.0
3.7104218222104255e6 -3.1823634552174276e6 0.0
0.0 0.0 0.0

-466725.1387482886 1.4771115969255993e7 0.0
1.4771115969255993e7 -8.212357853343857e6 0.0
0.0 0.0 0.0

-3.372188094718079e6 1.5949872737524062e7 0.0
1.5949872737524062e7 -1.605338711797808e6 0.0
0.0 0.0 0.0

-191111.08233284857 1.4880415651333824e7 0.0
1.4880415651333824e7 -8.014998844262075e6 0.0
0.0 0.0 0.0

-1.2897024408606188e7 5.204388418591467e6 0.0
5.204388418591467e6 1.837441536584866e7 0.0
0.0 0.0 0.0

-164820.17760486202 1.2593708212052692e7 0.0
1.2593708212052692e7 -1.0409917726733914e7 0.0
0.0 0.0 0.0

2.518282138352991e6 1.0101067601913422e7 0.0
1.0101067601913422e7 -1.710207757559795e7 0.0
0.0 0.0 0.0

-5.3080979849166665e6 1.707466234406144e7 0.0
1.707466234406144e7 7.644859497627245e6 0.0
0.0 0.0 0.0

2.1159767218022207e6 1.0350880882006008e7 0.0
1.0350880882006008e7 -1.4600878316833414e7 0.0
0.0 0.0 0.0

-6.3823685795009226e7 2.290700334507598e7 0.0
2.290700334507598e7 4.1061372450441867e6 0.0
0.0 0.0 0.0

338667.1562454924 1.2669894547808731e7 0.0
1.2669894547808731e7 -1.0901664702324297e7 0.0
0.0 0.0 0.0

-5.860564730632363e6 2.2488202302018482e7 0.0
2.2488202302018482e7 4.027621141288822e6 0.0
0.0 0.0 0.0

-865727.8844586863 1.1743765379115093e7 0.0
1.1743765379115093e7 2.541934404203259e6 0.0
0.0 0.0 0.0

-8.581857267662417e6 1.3903254040538277e7 0.0
1.3903254040538277e7 1.3202941114628252e7 0.0
0.0 0.0 0.0

-2.5663814857899845e6 1.5732790243530873e7 0.0
1.5732790243530873e7 -5.097955915041898e6 0.0
0.0 0.0 0.0

307500.2274381572 2.4121431369130395e7 0.0
2.4121431369130395e7 -4.530076047098587e6 0.0
0.0 0.0 0.0

-9.07210343216932e6 -7.490871720025177e6 0.0
-7.490871720025177e6 2.3448891209646598e7 0.0
0.0 0.0 0.0

5.765730558228668e6 3.709503660754106e6 0.0
3.709503660754106e6 -2.0642419258575395e7 0.0
0.0 0.0 0.0

-2.497819239571185e6 1.6510108312356241e7 0.0
1.6510108312356241e7 -2.5172251014048494e6 0.0
0.0 0.0 0.0

-5.547163913835588e6 -544543.5674131943 0.0
-544543.5674131943 4.421302627347393e6 0.0
0.0 0.0 0.0

6.075316184161503e6 3.534233713666391e6 0.0
3.534233713666391e6 -2.5590758636781514e7 0.0
0.0 0.0 0.0

-1.0285527976147825e7 -4.667995048805237e6 0.0
-4.667995048805237e6 3.343291811739404e7 0.0
0.0 0.0 0.0

-5.699310158951405e6 -8.049455055057294e6 0.0
-8.049455055057294e6 1.4701529914356269e7 0.0
0.0 0.0 0.0

-140274.51963547594 1.1614366242612317e7 0.0
1.1614366242612317e7 -4.711562545432014e6 0.0
0.0 0.0 0.0

-9.487979905761652e6 -7.2105468010200765e6 0.0
-7.2105468010200765e6 2.4725416435724042e7 0.0
0.0 0.0 0.0

5.7842133091349965e6 3.7175810685079163e6 0.0
3.7175810685079163e6 -2.12375751563703e7 0.0
0.0 0.0 0.0

6.06207843316273e6 3.5953994727631453e6 0.0
3.5953994727631453e6 -2.4684474740537494e7 0.0
0.0 0.0 0.0

-1.0150476148974853e7 -5.153852908088968e6 0.0
-5.153852908088968e6 3.2032138329432525e7 0.0
0.0 0.0 0.0

-3.1101129608509345e6 1.4601754963850653e7 0.0
1.4601754963850653e7 -5.820127793308228e6 0.0
0.0 0.0 0.0

-297732.0326977018 1.4438477588982414e7 0.0
1.4438477588982414e7 -8.709054692442646e6 0.0
0.0 0.0 0.0

-5.143370542377101e6 1.8156531261503078e7 0.0
1.8156531261503078e7 5.200021839241104e6 0.0
0.0 0.0 0.0

6.0399844251031075e6 3.5904429428841574e6 0.0
3.5904429428841574e6 -2.4099254666573513e7 0.0
0.0 0.0 0.0

-1.0051546439055823e7 -5.511821171527121e6 0.0
-5.511821171527121e6 3.0472290458085284e7 0.0
0.0 0.0 0.0

178140.67666878318 1.190838207541014e7 0.0
1.190838207541014e7 -4.177419088714773e6 0.0
0.0 0.0 0.0

2.276996836519543e6 1.084178192295235e7 0.0
1.084178192295235e7 -1.3849109962239519e7 0.0
0.0 0.0 0.0

-3.2701348410136322e6 1.7561685604622293e7 0.0
1.7561685604622293e7 -288774.55614803114 0.0
0.0 0.0 0.0

-4.0092009017742374e6 1.407472313183433e7 0.0
1.407472313183433e7 -147850.44458489143 0.0
0.0 0.0 0.0

-7.144652062322056e6 1.4385143814397795e7 0.0
1.4385143814397795e7 1.4353399095345378e7 0.0
0.0 0.0 0.0

-1.006573094209897e7 -5.784495992743802e6 0.0
-5.784495992743802e6 2.9230868892941743e7 0.0
0.0 0.0 0.0

6.025103622793435e6 3.5427481912380727e6 0.0
3.5427481912380727e6 -2.3303971754130933e7 0.0
0.0 0.0 0.0

-2.8467774512879113e6 1.9245370899457812e7 0.0
1.9245370899457812e7 -1.804138273276734e6 0.0
0.0 0.0 0.0

-4.77447184214149e6 1.4638956057756243e7 0.0
1.4638956057756243e7 2.3158649708656095e7 0.0
0.0 0.0 0.0

3.0026835056189317e7 4.204693899155863e7 0.0
4.204693899155863e7 -2.4918437875857607e7 0.0
0.0 0.0 0.0

129455.94025049102 8.767682682092017e6 0.0
8.767682682092017e6 -5.928277209489429e6 0.0
0.0 0.0 0.0

-4.49067002212636e6 1.9528925815613367e7 0.0
1.9528925815613367e7 3.5203067513245265e6 0.0
0.0 0.0 0.0

-3.082197714591479e6 2.789743799275146e6 0.0
2.789743799275146e6 1.559280030096288e6 0.0
0.0 0.0 0.0

-4.944461526429409e6 1.840011059705663e7 0.0
1.840011059705663e7 4.735558727449468e6 0.0
0.0 0.0 0.0

3.46690911640295e6 4.313284243901566e6 0.0
4.313284243901566e6 -9.316438081064193e6 0.0
0.0 0.0 0.0

1.16005457653905e6 1.807158085979467e7 0.0
1.807158085979467e7 -4.759026990161366e6 0.0
0.0 0.0 0.0

-1.548107159934969e6 1.6951063940759197e7 0.0
1.6951063940759197e7 -4.550234620470364e6 0.0
0.0 0.0 0.0

-8.292454001615943e6 1.1677328926531045e7 0.0
1.1677328926531045e7 9.621274012947133e6 0.0
0.0 0.0 0.0

-498246.28452237765 1.4763187843424143e7 0.0
1.4763187843424143e7 -1.2138398813516167e6 0.0
0.0 0.0 0.0

-9.054126280666249e6 -2.124068832007501e6 0.0
-2.124068832007501e6 4.323175075770453e7 0.0
0.0 0.0 0.0

1.3951139836439695e6 4.573521296153249e6 0.0
4.573521296153249e6 -3.9121174424682134e6 0.0
0.0 0.0 0.0

-2.6781923420425663e6 -250543.08002854834 0.0
-250543.08002854834 1.3349528100703936e6 0.0
0.0 0.0 0.0

1.2030124112660433e6 -1.5040304504844893e6 0.0
-1.5040304504844893e6 -2.428694599099924e6 0.0
0.0 0.0 0.0

-1.305223022978393e6 1.7134218998942055e7 0.0
1.7134218998942055e7 -4.5432657211044775e6 0.0
0.0 0.0 0.0

-599596.7911873078 1.2684731059176939e7 0.0
1.2684731059176939e7 -2.4769473214940045e7 0.0
0.0 0.0 0.0

-566273.5898021958 1.4775293108147787e7 0.0
1.4775293108147787e7 1.1160854777348466e7 0.0
0.0 0.0 0.0

-1.4712384896222462e6 1.401847489925244e7 0.0
1.401847489925244e7 -6.090604705152491e6 0.0
0.0 0.0 0.0

5.048295760712471e6 4.480761848254437e6 0.0
4.480761848254437e6 -1.4361437933815751e7 0.0
0.0 0.0 0.0

-897511.9459420508 1.0719214665412799e7 0.0
1.0719214665412799e7 -3.91695291326594e6 0.0
0.0 0.0 0.0

302474.23915389506 1.3957711138714243e7 0.0
1.3957711138714243e7 -9.303525550987221e6 0.0
0.0 0.0 0.0

315972.98666481674 1.1761811632643344e7 0.0
1.1761811632643344e7 -1.9144179470647074e7 0.0
0.0 0.0 0.0

-3.2368667889029984e6 1.8013394400483508e7 0.0
1.8013394400483508e7 -329401.0370741575 0.0
0.0 0.0 0.0

-7.229999265736855e6 1.4015191049917573e7 0.0
1.4015191049917573e7 1.2540207848440884e7 0.0
0.0 0.0 0.0

-370316.91357091954 1.10716643834468e7 0.0
1.10716643834468e7 -3.510146403766898e6 0.0
0.0 0.0 0.0

-185935.1695836929 1.2394060458300099e7 0.0
1.2394060458300099e7 608919.0599640579 0.0
0.0 0.0 0.0

-1.677262441189655e6 1.2014244727887815e7 0.0
1.2014244727887815e7 -1.385210533706329e7 0.0
0.0 0.0 0.0

-1.3438254571924517e7 1.902095807615547e7 0.0
1.902095807615547e7 6.104645049252112e6 0.0
0.0 0.0 0.0

-997217.5527432251 2.5741444172884367e7 0.0
2.5741444172884367e7 -3.3318442792641358e6 0.0
0.0 0.0 0.0

614682.9571620828 3.347912641205362e6 0.0
3.347912641205362e6 -2.060583544891442e6 0.0
0.0 0.0 0.0

807309.4089734784 3.2204704358396814e6 0.0
3.2204704358396814e6 -2.2628389553803597e6 0.0
0.0 0.0 0.0

-6.791903108594496e6 1.4526402727103015e7 0.0
1.4526402727103015e7 1.1109463674430083e7 0.0
0.0 0.0 0.0

-3.011250714324676e6 1.5943902028671408e7 0.0
1.5943902028671408e7 -2.692546968525908e6 0.0
0.0 0.0 0.0

-4.368301423719399e6 2.0011824666810732e7 0.0
2.0011824666810732e7 3.6077906319237873e6 0.0
0.0 0.0 0.0

-4.782765570375688e6 1.8609409894274596e7 0.0
1.8609409894274596e7 4.33079489266874e6 0.0
0.0 0.0 0.0

3.438722705022516e6 1.3959769126472833e7 0.0
1.3959769126472833e7 4.070120041203036e6 0.0
0.0 0.0 0.0

1.5787549701338354e6 1.4100756425905658e7 0.0
1.4100756425905658e7 -5.28927533536237e6 0.0
0.0 0.0 0.0

-3.540658184696581e6 1.3952990172513327e7 0.0
1.3952990172513327e7 2.5202596320868097e7 0.0
0.0 0.0 0.0

-2.379542187048901e7 1.8450756005199797e7 0.0
1.8450756005199797e7 -1.4134092069999324e6 0.0
0.0 0.0 0.0

-7.386927460682969e7 2.5357610995053854e7 0.0
2.5357610995053854e7 1.228097486003168e7 0.0
0.0 0.0 0.0

-7.6769955110552935e6 1.1113623257414123e7 0.0
1.1113623257414123e7 8.016627469115947e6 0.0
0.0 0.0 0.0

-4.431091734574193e6 1.504048770713638e7 0.0
1.504048770713638e7 8.638912303777736e6 0.0
0.0 0.0 0.0

4.113967909433583e6 5.80434861593541e6 0.0
5.80434861593541e6 -1.341750297252396e7 0.0
0.0 0.0 0.0

-8.827239279203437e6 1.1258567903583502e7 0.0
1.1258567903583502e7 1.2871587076091653e7 0.0
0.0 0.0 0.0

-3.1159973339628987e6 126719.61281284697 0.0
126719.61281284697 2.7893975967472577e6 0.0
0.0 0.0 0.0

272000.15086446796 1.5196942140452448e7 0.0
1.5196942140452448e7 8.478865933216473e6 0.0
0.0 0.0 0.0

796773.0104998108 1.176718407302225e7 0.0
1.176718407302225e7 -1.913756222759423e7 0.0
0.0 0.0 0.0

5.087411816411969e6 5.395795936357473e6 0.0
5.395795936357473e6 -1.5966182909317274e7 0.0
0.0 0.0 0.0

1.7715442946361352e6 1.314577748857512e7 0.0
1.314577748857512e7 2.4640457035528617e6 0.0
0.0 0.0 0.0

-6.586052769563913e6 2.153447722326725e6 0.0
2.153447722326725e6 5.8171248842122875e7 0.0
0.0 0.0 0.0

-5.4837745591203505e6 1.9581789845806498e7 0.0
1.9581789845806498e7 6.218473213841606e6 0.0
0.0 0.0 0.0

-1.0285036489324637e7 1.6535365394120356e7 0.0
1.6535365394120356e7 2.157303563306147e6 0.0
0.0 0.0 0.0

-1.518879510138544e6 1.627231318070326e7 0.0
1.627231318070326e7 -5.4228836936418265e6 0.0
0.0 0.0 0.0

-5.695401050677831e6 -6.971807760698987e6 0.0
-6.971807760698987e6 1.306885146430189e7 0.0
0.0 0.0 0.0

-1.2060233061293925e6 1.1416155573491542e7 0.0
1.1416155573491542e7 3.0961247729651676e6 0.0
0.0 0.0 0.0

-8.005263912934426e6 -7.7757385039707795e6 0.0
-7.7757385039707795e6 2.0215222837637592e7 0.0
0.0 0.0 0.0

1.7126654681326582e6 1.3938668062341072e7 0.0
1.3938668062341072e7 2.0977583027872485e6 0.0
0.0 0.0 0.0

-4.074430763742158e6 1.5517492127647808e7 0.0
1.5517492127647808e7 1.5875189590188349e6 0.0
0.0 0.0 0.0

5.514397256860506e6 4.601733256452662e6 0.0
4.601733256452662e6 -1.7175375640515618e7 0.0
0.0 0.0 0.0

-3.223293992287784e6 1.5202969200525742e7 0.0
1.5202969200525742e7 -4.677272640788059e6 0.0
0.0 0.0 0.0

4.894201201915479e6 4.587360737460677e6 0.0
4.587360737460677e6 -1.3333592720283272e7 0.0
0.0 0.0 0.0

771912.8571747681 1.2407141158960192e7 0.0
1.2407141158960192e7 -1.285542062394296e7 0.0
0.0 0.0 0.0

-6.894079170180889e6 2.235192711932647e7 0.0
2.235192711932647e7 5.7244804211779535e6 0.0
0.0 0.0 0.0

-476138.28052048985 9.580685874372e6 0.0
9.580685874372e6 -1.149840042839185e6 0.0
0.0 0.0 0.0

-2.3563432260778383e6 1.5937011067886647e7 0.0
1.5937011067886647e7 -4.945298347781537e6 0.0
0.0 0.0 0.0

-5.6069004381236285e6 2.143073319717101e7 0.0
2.143073319717101e7 4.716032237981815e6 0.0
0.0 0.0 0.0

-5.319213546961058e6 1.790465453546423e7 0.0
1.790465453546423e7 5.72710287445522e6 0.0
0.0 0.0 0.0

-5.210806199375929e6 1.8328535898988992e7 0.0
1.8328535898988992e7 3.879723441608214e6 0.0
0.0 0.0 0.0

-4.483575966436875e6 2.1193323011582237e7 0.0
2.1193323011582237e7 2.487487983112488e6 0.0
0.0 0.0 0.0

-1.4495993520126746e6 1.5491351939254154e7 0.0
1.5491351939254154e7 -5.597114433920691e6 0.0
0.0 0.0 0.0

-6.431580394265181e6 2.296500446074333e7 0.0
2.296500446074333e7 4.257796177613666e6 0.0
0.0 0.0 0.0

-7.726345893292661e6 7.937610938341377e6 0.0
7.937610938341377e6 8.111895172239149e6 0.0
0.0 0.0 0.0

1.2253635451356997e6 1.0526595466413641e7 0.0
1.0526595466413641e7 -9.98485447726366e6 0.0
0.0 0.0 0.0

-8.156310946746075e6 -1.8805029507422624e6 0.0
-1.8805029507422624e6 9.9310105648298e6 0.0
0.0 0.0 0.0

-7.801985185017096e6 1.7979452160401367e7 0.0
1.7979452160401367e7 5.242983909784183e6 0.0
0.0 0.0 0.0

-1.0633149563893255e7 -3.510739617187312e6 0.0
-3.510739617187312e6 3.027024365854408e7 0.0
0.0 0.0 0.0

-3.1256190266277827e6 1.9838419174271703e7 0.0
1.9838419174271703e7 -1.0894481551901423e6 0.0
0.0 0.0 0.0

1.2638974565722616e6 1.2345232474379033e7 0.0
1.2345232474379033e7 -1.2782087126349617e7 0.0
0.0 0.0 0.0

-1.2131213108288834e6 1.3110285495968467e7 0.0
1.3110285495968467e7 4.540861766158175e6 0.0
0.0 0.0 0.0

-815811.5240835091 1.2048062872563671e7 0.0
1.2048062872563671e7 -6.200567185986232e6 0.0
0.0 0.0 0.0

2.3570481604895545e6 1.0833784898494845e7 0.0
1.0833784898494845e7 -1.6919795105597664e7 0.0
0.0 0.0 0.0

3.5448769505365556e6 4.868564539942124e6 0.0
4.868564539942124e6 -1.06012833498705e7 0.0
0.0 0.0 0.0

-896680.2032991728 1.723436169761465e7 0.0
1.723436169761465e7 -4.596209436034879e6 0.0
0.0 0.0 0.0

-629359.4667830127 1.4325108370085737e7 0.0
1.4325108370085737e7 2.1800425846808283e6 0.0
0.0 0.0 0.0

-3.563848396453381e6 1.3745359321525494e7 0.0
1.3745359321525494e7 -983255.3934643964 0.0
0.0 0.0 0.0

6.096620615640176e6 3.519121077830625e6 0.0
3.519121077830625e6 -2.750502417921551e7 0.0
0.0 0.0 0.0

-9.219094953214519e6 1.3461312975805397e6 0.0
1.3461312975805397e6 1.2258382646356467e7 0.0
0.0 0.0 0.0

5.527732910226807e6 4.933720516036741e6 0.0
4.933720516036741e6 -2.7509793151879683e7 0.0
0.0 0.0 0.0

-3.898835922460968e6 -2.33026863202365e6 0.0
-2.33026863202365e6 4.419161358842317e6 0.0
0.0 0.0 0.0

-4.299745381800744e6 1.530730574516896e7 0.0
1.530730574516896e7 506740.7247934977 0.0
0.0 0.0 0.0

-524481.3330793662 1.4362696928964527e7 0.0
1.4362696928964527e7 952615.8281842135 0.0
0.0 0.0 0.0

-741783.6381184726 1.2688413073822966e7 0.0
1.2688413073822966e7 2.7585926850800635e6 0.0
0.0 0.0 0.0

-7.223844936781973e6 1.0913506156167608e7 0.0
1.0913506156167608e7 9.717032340663005e6 0.0
0.0 0.0 0.0

-5.6677830737676015e6 -7.982699796108342e6 0.0
-7.982699796108342e6 1.4835566723656042e7 0.0
0.0 0.0 0.0

-1.1842376506994572e6 1.832249145856405e7 0.0
1.832249145856405e7 -3.370959240169858e6 0.0
0.0 0.0 0.0

-2.3166627966226386e6 1.5366209867710289e7 0.0
1.5366209867710289e7 1.0545508270123553e7 0.0
0.0 0.0 0.0

3.4941211899713613e6 7.647613364202092e6 0.0
7.647613364202092e6 -1.46605826073973e7 0.0
0.0 0.0 0.0

-7.5879806216803985e6 -6.453069373324941e6 0.0
-6.453069373324941e6 1.807661182867403e7 0.0
0.0 0.0 0.0

-1.8689202991856313e6 1.389842155193326e7 0.0
1.389842155193326e7 7.677855950903785e6 0.0
0.0 0.0 0.0

-8.930633730262531e6 1.2438407240875602e7 0.0
1.2438407240875602e7 2.2966203350355104e7 0.0
0.0 0.0 0.0

-605914.3883668426 1.4615430254771972e7 0.0
1.4615430254771972e7 7.963518167302145e6 0.0
0.0 0.0 0.0

-112268.96739987656 1.2215721431832291e7 0.0
1.2215721431832291e7 -2.376000739479114e7 0.0
0.0 0.0 0.0

-7.3574709271342e6 1.4501873382823959e7 0.0
1.4501873382823959e7 1.337502232862544e7 0.0
0.0 0.0 0.0

-2.145513774746388e6 1.4417180478272893e7 0.0
1.4417180478272893e7 8.079529149493504e6 0.0
0.0 0.0 0.0

-418922.50715398556 1.5142079727585217e7 0.0
1.5142079727585217e7 -7.557154157545129e6 0.0
0.0 0.0 0.0

-896537.5688503172 1.5245198152812144e7 0.0
1.5245198152812144e7 -2.8996896273138705e6 0.0
0.0 0.0 0.0

4.0962845161302174e6 7.469304408154732e6 0.0
7.469304408154732e6 -2.1847477428885482e7 0.0
0.0 0.0 0.0

4.35411424398823e6 6.988967511793511e6 0.0
6.988967511793511e6 -2.277457797577513e7 0.0
0.0 0.0 0.0

-119534.84554235335 1.1870692890209513e7 0.0
1.1870692890209513e7 -5.926398825790636e6 0.0
0.0 0.0 0.0

-1.154484505886483e7 1.1588261951798936e7 0.0
1.1588261951798936e7 1.7169068537756924e7 0.0
0.0 0.0 0.0

-852735.9450703613 1.4474869392933877e7 0.0
1.4474869392933877e7 -8.690067436875492e6 0.0
0.0 0.0 0.0

-9.92593028198025e6 426077.3831269683 0.0
426077.3831269683 4.084157083787869e7 0.0
0.0 0.0 0.0

679127.1412231522 1.033104566149235e7 0.0
1.033104566149235e7 -1.393216186819298e7 0.0
0.0 0.0 0.0

-3.271538359471984e6 1.1543387029276691e7 0.0
1.1543387029276691e7 4.1681436915791884e7 0.0
0.0 0.0 0.0

6.085998910605693e6 3.612642507917005e6 0.0
3.612642507917005e6 -2.6463385059767507e7 0.0
0.0 0.0 0.0

-1.8844843102198946e6 1.6145828013546543e7 0.0
1.6145828013546543e7 -5.011173072000724e6 0.0
0.0 0.0 0.0

-1.6859157885024124e6 1.4494085059513815e7 0.0
1.4494085059513815e7 8.626289456997234e6 0.0
0.0 0.0 0.0

-1.3607962855568994e6 1.2860907899223434e7 0.0
1.2860907899223434e7 -2.1654586260374222e7 0.0
0.0 0.0 0.0

1.7640391686417684e6 8.799133926952284e6 0.0
8.799133926952284e6 2.268578302171285e6 0.0
0.0 0.0 0.0

-833203.1664174339 1.4678437266565569e7 0.0
1.4678437266565569e7 -3.7988272742789867e6 0.0
0.0 0.0 0.0

-2.327694069775049e6 1.4349929671474282e7 0.0
1.4349929671474282e7 8.818209080783902e6 0.0
0.0 0.0 0.0

-6.198814879315585e6 1.5997419701614507e7 0.0
1.5997419701614507e7 7.804141552086646e6 0.0
0.0 0.0 0.0

-5.097178970367583e6 1.4976198186867837e7 0.0
1.4976198186867837e7 9.165487752890455e6 0.0
0.0 0.0 0.0

1.0624339932299368e6 9.774406624701645e6 0.0
9.774406624701645e6 -9.010306405452203e6 0.0
0.0 0.0 0.0

-1.2620222066936996e7 9.717880516826417e6 0.0
9.717880516826417e6 1.594313236125037e7 0.0
0.0 0.0 0.0

387751.269575621 1.1814335188019933e7 0.0
1.1814335188019933e7 -2.2568762053060997e7 0.0
0.0 0.0 0.0

-1.046941627193755e6 1.4483738939871527e7 0.0
1.4483738939871527e7 -5.465235553852596e6 0.0
0.0 0.0 0.0

-4.556276664049179e6 1.6032043487953393e7 0.0
1.6032043487953393e7 3.9559329422030393e6 0.0
0.0 0.0 0.0

632335.9470913552 8.779585296014804e6 0.0
8.779585296014804e6 -6.059956897792988e6 0.0
0.0 0.0 0.0

-9.304880648003321e6 3.773460739550329e6 0.0
3.773460739550329e6 5.4813500317361474e7 0.0
0.0 0.0 0.0

-1.273322098076811e6 1.3229911690234508e7 0.0
1.3229911690234508e7 -2.5847909649302248e7 0.0
0.0 0.0 0.0

-7.036692741969306e6 1.454829459008781e7 0.0
1.454829459008781e7 1.456439489416246e7 0.0
0.0 0.0 0.0

-4.599744087391742e6 2.022059140727813e7 0.0
2.022059140727813e7 3.064614797901395e6 0.0
0.0 0.0 0.0

5.876153958923082e6 1.5828346920400642e7 0.0
1.5828346920400642e7 5.264771499594814e6 0.0
0.0 0.0 0.0

-6.061032173352913e6 1.4460318755394202e7 0.0
1.4460318755394202e7 1.8269593906603023e7 0.0
0.0 0.0 0.0

-6.768173836361331e6 1.4370324345264515e7 0.0
1.4370324345264515e7 1.146859256409524e7 0.0
0.0 0.0 0.0

793307.4924852513 1.1178072382540442e7 0.0
1.1178072382540442e7 -9.690058943485301e6 0.0
0.0 0.0 0.0

-1.3802709358163765e6 1.4063645904929524e7 0.0
1.4063645904929524e7 -6.01231845209429e6 0.0
0.0 0.0 0.0

-7.607530263129457e6 1.3296250463754551e7 0.0
1.3296250463754551e7 8.784268504684638e6 0.0
0.0 0.0 0.0

-7.45657009233759e6 1.2134758110567428e7 0.0
1.2134758110567428e7 1.0369722732368201e7 0.0
0.0 0.0 0.0

4.958908217050768e6 4.754047607145899e6 0.0
4.754047607145899e6 -1.6294410265391631e7 0.0
0.0 0.0 0.0

-5.496596807153886e6 1.7592361625612367e7 0.0
1.7592361625612367e7 7.533532883320572e6 0.0
0.0 0.0 0.0

-471381.491062323 1.011120444166231e7 0.0
1.011120444166231e7 -2.798493839315331e6 0.0
0.0 0.0 0.0

4.821949837599137e6 4.966022515975407e6 0.0
4.966022515975407e6 -1.296761393858101e7 0.0
0.0 0.0 0.0

-3.42090800279502e6 1.921138217936229e7 0.0
1.921138217936229e7 -909945.5364137816 0.0
0.0 0.0 0.0

-1.9768291463560192e6 1.4959655342327794e7 0.0
1.4959655342327794e7 9.865081988567514e6 0.0
0.0 0.0 0.0

-1.0405977253303345e7 -1.7325074820478363e6 0.0
-1.7325074820478363e6 3.513771416572207e7 0.0
0.0 0.0 0.0

983077.5364114975 1.542224120797231e7 0.0
1.542224120797231e7 6.335672950755447e6 0.0
0.0 0.0 0.0

1.0251894940705944e6 1.4397248099624272e7 0.0
1.4397248099624272e7 4.370327514722448e6 0.0
0.0 0.0 0.0

184484.13763818098 1.3450610740160655e7 0.0
1.3450610740160655e7 -9.498394162401335e6 0.0
0.0 0.0 0.0

5.45307953887035e6 4.435732941762386e6 0.0
4.435732941762386e6 -2.0251662232142407e7 0.0
0.0 0.0 0.0

42078.234456206905 1.327639895002816e7 0.0
1.327639895002816e7 4.142899244759622e6 0.0
0.0 0.0 0.0

61176.87727297889 1.3775060991975484e7 0.0
1.3775060991975484e7 -8.829830134391012e6 0.0
0.0 0.0 0.0

-1.2331248583795857e6 1.2950758994800381e7 0.0
1.2950758994800381e7 5.39609794847005e6 0.0
0.0 0.0 0.0

-5.67123388882892e6 4.801334346078792e6 0.0
4.801334346078792e6 7.09972216088439e6 0.0
0.0 0.0 0.0

-3.53102514606372e6 -1.2889260706374394e6 0.0
-1.2889260706374394e6 4.084068668015994e6 0.0
0.0 0.0 0.0

-3.5273370117724338e6 1.5524582582083335e7 0.0
1.5524582582083335e7 1.9877382475862247e6 0.0
0.0 0.0 0.0

2.121198768596814e6 1.118461234291324e7 0.0
1.118461234291324e7 -1.4858309900389524e7 0.0
0.0 0.0 0.0

-592202.7704201494 1.2394485939055571e7 0.0
1.2394485939055571e7 -1.0911745065073801e7 0.0
0.0 0.0 0.0

-9.424634926733095e6 336235.9309754302 0.0
336235.9309754302 5.348845845641789e7 0.0
0.0 0.0 0.0

-7.333547110413796e6 2.3505664404554863e7 0.0
2.3505664404554863e7 4.447905504438031e6 0.0
0.0 0.0 0.0

1.283762907260372e6 5.674322211113543e6 0.0
5.674322211113543e6 -4.3024265081081e6 0.0
0.0 0.0 0.0

-659621.8142184345 1.45037936331768e7 0.0
1.45037936331768e7 -139699.45771544563 0.0
0.0 0.0 0.0

-2.0972127086022557e6 1.3976306522119397e7 0.0
1.3976306522119397e7 7.304023051202405e6 0.0
0.0 0.0 0.0

-1.1385942997223781e7 1.1391965279732365e7 0.0
1.1391965279732365e7 1.6002723670584504e7 0.0
0.0 0.0 0.0

-7.681780627968725e6 1.7584169288371824e7 0.0
1.7584169288371824e7 3.818500000964494e6 0.0
0.0 0.0 0.0

-120568.38759145024 1.4484423796427425e7 0.0
1.4484423796427425e7 5.711798033171759e6 0.0
0.0 0.0 0.0

-2.005255453309923e6 1.4213258116526399e7 0.0
1.4213258116526399e7 7.080385774760503e6 0.0
0.0 0.0 0.0

418900.54049730534 1.3474579491003657e7 0.0
1.3474579491003657e7 -1.0901139339102043e7 0.0
0.0 0.0 0.0

2.528435650475583e6 5.596240659108833e6 0.0
5.596240659108833e6 -8.712190555707915e6 0.0
0.0 0.0 0.0

357422.8464307408 1.3426586677626178e7 0.0
1.3426586677626178e7 -1.0485474436495794e7 0.0
0.0 0.0 0.0

-1.7413355682528235e6 1.5200136210921083e7 0.0
1.5200136210921083e7 -6.450639361673025e6 0.0
0.0 0.0 0.0

-5.1814588878801055e6 1.72763247750938e7 0.0
1.72763247750938e7 5.002101494721526e6 0.0
0.0 0.0 0.0

-772367.0102190063 1.5827703002451114e7 0.0
1.5827703002451114e7 -6.454321928496048e6 0.0
0.0 0.0 0.0

-870980.6306898964 1.5367907099133657e7 0.0
1.5367907099133657e7 -7.074849258622239e6 0.0
0.0 0.0 0.0

5.382252771966308e6 4.99522978115013e6 0.0
4.99522978115013e6 -1.8688477987928763e7 0.0
0.0 0.0 0.0

40851.55460932548 1.353589169604164e7 0.0
1.353589169604164e7 3.616464818727865e6 0.0
0.0 0.0 0.0

-2.0761100843577085e6 1.5553603621982872e7 0.0
1.5553603621982872e7 -5.644436757098367e6 0.0
0.0 0.0 0.0

-1.1062669825729107e7 7.881952764453517e6 0.0
7.881952764453517e6 1.2898112882015867e7 0.0
0.0 0.0 0.0

-5.254358400699718e7 2.1004015291062433e7 0.0
2.1004015291062433e7 3.1459172352851294e6 0.0
0.0 0.0 0.0

1.9022128344852686e7 2.3666600409043707e7 0.0
2.3666600409043707e7 6.3407249937690355e7 0.0
0.0 0.0 0.0

-1.3602752224084962e7 2.0447539329179436e7 0.0
2.0447539329179436e7 -4.534261927753889e7 0.0
0.0 0.0 0.0

-7.8224401536994735e6 1.3911211077159755e7 0.0
1.3911211077159755e7 1.3293162219322305e7 0.0
0.0 0.0 0.0

1.5802530071954476e6 1.1007025788745781e7 0.0
1.1007025788745781e7 -1.3112127638676574e7 0.0
0.0 0.0 0.0

-1.945292841784798e6 1.4878586502976613e7 0.0
1.4878586502976613e7 -5.294385269701021e6 0.0
0.0 0.0 0.0

-4.527391147491009e6 2.363655424320097e7 0.0
2.363655424320097e7 345519.17921737744 0.0
0.0 0.0 0.0

320082.8629642073 1.2474351058433574e7 0.0
1.2474351058433574e7 -1.2933274788434265e7 0.0
0.0 0.0 0.0

-1.2357618961447529e6 1.5593376722511737e7 0.0
1.5593376722511737e7 -3.231159285143529e6 0.0
0.0 0.0 0.0

-1.1011429050135328e7 9.617195540918086e6 0.0
9.617195540918086e6 1.3526612059845358e7 0.0
0.0 0.0 0.0

-3.4863424749453324e6 1.723923552124529e7 0.0
1.723923552124529e7 402976.1035489249 0.0
0.0 0.0 0.0

467726.36834015045 1.2069743329735039e7 0.0
1.2069743329735039e7 -1.7877675955245543e7 0.0
0.0 0.0 0.0

-369213.7669813052 1.4812465998021886e7 0.0
1.4812465998021886e7 -3.433536601965283e6 0.0
0.0 0.0 0.0

-6.500842029626256e6 1.5974731268707043e7 0.0
1.5974731268707043e7 8.258930649574954e6 0.0
0.0 0.0 0.0

6.533746393552739e6 1.4773428854900619e7 0.0
1.4773428854900619e7 -4.344444031205902e6 0.0
0.0 0.0 0.0

-948084.8098780194 1.228501652815485e7 0.0
1.228501652815485e7 3.6607282158904956e6 0.0
0.0 0.0 0.0

-7.270278797971702e6 1.391802627035313e7 0.0
1.391802627035313e7 1.2196671551267356e7 0.0
0.0 0.0 0.0

-1.1401438220648471e7 1.630432387181809e7 0.0
1.630432387181809e7 988355.9592345515 0.0
0.0 0.0 0.0

-986196.7048411458 1.2481593677135589e7 0.0
1.2481593677135589e7 3.658428591786526e6 0.0
0.0 0.0 0.0

-3.287497050069673e6 1.9525148706043143e7 0.0
1.9525148706043143e7 -832510.24018233 0.0
0.0 0.0 0.0

1.1000128817486377e6 1.8124949495361645e7 0.0
1.8124949495361645e7 -4.848343857006667e6 0.0
0.0 0.0 0.0

1.727340583068089e6 1.0545555294402633e7 0.0
1.0545555294402633e7 -1.01472680194354e7 0.0
0.0 0.0 0.0

-9.192471135233745e6 1.3721281475581016e7 0.0
1.3721281475581016e7 1.56001463555459e7 0.0
0.0 0.0 0.0

131395.35314968135 1.3210572155788645e7 0.0
1.3210572155788645e7 -1.1433063962462923e7 0.0
0.0 0.0 0.0

-4.0783130606937613e6 1.2518714077837816e7 0.0
1.2518714077837816e7 2.503758872681292e6 0.0
0.0 0.0 0.0

-8.145776403166186e6 1.2925391751942085e7 0.0
1.2925391751942085e7 1.0114867506858587e7 0.0
0.0 0.0 0.0

2.0488819519867278e6 6.663504651603727e6 0.0
6.663504651603727e6 -6.995932297434218e6 0.0
0.0 0.0 0.0

-788273.0954249864 1.3813404785507401e7 0.0
1.3813404785507401e7 3.607589193551179e6 0.0
0.0 0.0 0.0

-1.4599039945349842e6 1.7875953271096304e7 0.0
1.7875953271096304e7 -4.190980815503507e6 0.0
0.0 0.0 0.0

3.259222000597017e6 9.677000164523246e6 0.0
9.677000164523246e6 -3.0580127639301002e7 0.0
0.0 0.0 0.0

-1.0586851296054984e7 7.67134344740429e6 0.0
7.67134344740429e6 1.2189339467777627e7 0.0
0.0 0.0 0.0

2.47336455876233e6 2.4553605366314176e7 0.0
2.4553605366314176e7 -6.4244057295661755e6 0.0
0.0 0.0 0.0

4.824358768005958e6 6.99995130762656e6 0.0
6.99995130762656e6 -2.1193715255431462e7 0.0
0.0 0.0 0.0

-678258.1951668041 1.3659717884233896e7 0.0
1.3659717884233896e7 2.7092550398537596e6 0.0
0.0 0.0 0.0

-1.7749319685258185e6 1.655073324322314e7 0.0
1.655073324322314e7 -5.323775303632364e6 0.0
0.0 0.0 0.0

5.580925810663961e6 1.8012517197278343e7 0.0
1.8012517197278343e7 9.88509948667938e7 0.0
0.0 0.0 0.0

-4.343229572768856e6 1.7064694037113428e7 0.0
1.7064694037113428e7 -6.78173009474403e7 0.0
0.0 0.0 0.0

1.2721468516719187e7 1.4757177034662727e7 0.0
1.4757177034662727e7 3.2317966509258985e6 0.0
0.0 0.0 0.0

2.2105982974561793e6 1.765536120387871e7 0.0
1.765536120387871e7 -5.546313255353996e6 0.0
0.0 0.0 0.0

735683.1763829391 8.444010500599401e6 0.0
8.444010500599401e6 -5.587185279738026e6 0.0
0.0 0.0 0.0

4.1499935887808213e6 2.248882463044118e7 0.0
2.248882463044118e7 -7.027677916798371e6 0.0
0.0 0.0 0.0

-4.444256963333153e6 1.493189995687139e7 0.0
1.493189995687139e7 1.0201996725575078e7 0.0
0.0 0.0 0.0

5.419136271741823e6 1.4579302689998107e7 0.0
1.4579302689998107e7 -3.7593076265004785e6 0.0
0.0 0.0 0.0

-5.994923910976972e6 1.705989659736135e7 0.0
1.705989659736135e7 6.302683906013883e6 0.0
0.0 0.0 0.0

-6.821118453332463e6 1.1686353290814674e7 0.0
1.1686353290814674e7 8.851403792167515e6 0.0
0.0 0.0 0.0

1.1600655060788528e6 4.602878496034383e6 0.0
4.602878496034383e6 -4.802382866943133e6 0.0
0.0 0.0 0.0

-1.9748472350320965e6 1.5426751044480212e7 0.0
1.5426751044480212e7 1.0969874607735911e7 0.0
0.0 0.0 0.0

-3.111689328613731e6 1.7132525806015413e7 0.0
1.7132525806015413e7 -2.242916635292689e6 0.0
0.0 0.0 0.0

-8.295838570667429e6 1.4040606390111154e7 0.0
1.4040606390111154e7 1.4060804766159132e7 0.0
0.0 0.0 0.0

-5.773688025084965e6 1.766781437122529e7 0.0
1.766781437122529e7 7.144909702946404e6 0.0
0.0 0.0 0.0

-5.630144121591629e6 1.6854477640183054e7 0.0
1.6854477640183054e7 6.666507673941655e6 0.0
0.0 0.0 0.0

-603511.2229083388 1.1209958141661577e7 0.0
1.1209958141661577e7 -5.285530273809439e6 0.0
0.0 0.0 0.0

-6.87045722841528e6 1.4546454928836418e7 0.0
1.4546454928836418e7 1.5135961709028037e7 0.0
0.0 0.0 0.0

-5.644599043511749e6 1.7420933776913658e7 0.0
1.7420933776913658e7 7.182380251580523e6 0.0
0.0 0.0 0.0

-3.523749621346901e6 8.912593954991436e6 0.0
8.912593954991436e6 2.3433534241647036e6 0.0
0.0 0.0 0.0

-2.557422674666187e7 2.0363675369550686e7 0.0
2.0363675369550686e7 5.911562523374539e6 0.0
0.0 0.0 0.0

-1.090899341577095e7 870225.6610358352 0.0
870225.6610358352 3.501398063707881e7 0.0
0.0 0.0 0.0

-6.4963046603017e6 1.769156657983363e7 0.0
1.769156657983363e7 6.397066500630499e6 0.0
0.0 0.0 0.0

-6.993064565344687e6 2.070846284900741e7 0.0
2.070846284900741e7 6.889595016724281e6 0.0
0.0 0.0 0.0

1.3397561054523261e6 1.1719560039872428e7 0.0
1.1719560039872428e7 -1.659923865718725e7 0.0
0.0 0.0 0.0

-5.149086944629075e6 2.207216450225902e7 0.0
2.207216450225902e7 4.485599877075855e6 0.0
0.0 0.0 0.0

-8.634368695650376e6 2.4188856938668035e7 0.0
2.4188856938668035e7 4.554796961662856e6 0.0
0.0 0.0 0.0

-9.984639095502961e6 2.4786234357561868e7 0.0
2.4786234357561868e7 4.850152918214591e6 0.0
0.0 0.0 0.0

-3.939730594667676e6 1.845209463931061e7 0.0
1.845209463931061e7 286035.97353216214 0.0
0.0 0.0 0.0

-1.2322302676496122e7 7.2591716933669e6 0.0
7.2591716933669e6 1.8994112576628517e7 0.0
0.0 0.0 0.0

5.511773684363653e6 4.0538210008007195e6 0.0
4.0538210008007195e6 -1.759316932463578e7 0.0
0.0 0.0 0.0

-7.378129075045233e6 1.4546039633949064e7 0.0
1.4546039633949064e7 1.3599417165879237e7 0.0
0.0 0.0 0.0

-3.5088524235484735e6 1.998381197362068e7 0.0
1.998381197362068e7 -155144.61068864062 0.0
0.0 0.0 0.0

1.0116966604545517e6 1.211188726053669e7 0.0
1.211188726053669e7 -1.3595787574012058e7 0.0
0.0 0.0 0.0

-9.982333249556145e6 -5.418106212115814e6 0.0
-5.418106212115814e6 2.568642969625118e7 0.0
0.0 0.0 0.0

-94800.79903876374 1.4224803702076359e7 0.0
1.4224803702076359e7 -185694.64887205465 0.0
0.0 0.0 0.0

-163561.0993731832 1.4146982014821192e7 0.0
1.4146982014821192e7 -8.283764142232785e6 0.0
0.0 0.0 0.0

313682.7005084851 1.3146794362347106e7 0.0
1.3146794362347106e7 -1.0090334181077212e7 0.0
0.0 0.0 0.0

-821170.470567096 1.1274745352727937e7 0.0
1.1274745352727937e7 -9.423707563938923e6 0.0
0.0 0.0 0.0

-5.365313297383584e6 -1.2469415151518525e6 0.0
-1.2469415151518525e6 6.407873179347621e6 0.0
0.0 0.0 0.0

588095.5398489584 1.127347644905078e7 0.0
1.127347644905078e7 -3.0430733086026222e6 0.0
0.0 0.0 0.0

422832.63949014246 1.2686805654494898e7 0.0
1.2686805654494898e7 3.098594814159027e6 0.0
0.0 0.0 0.0

7.715520959405596e6 1.295800729437879e7 0.0
1.295800729437879e7 80226.09162709024 0.0
0.0 0.0 0.0

-1.0888942868032224e7 2.588672976755662e7 0.0
2.588672976755662e7 5.368674180151019e6 0.0
0.0 0.0 0.0

-7.1695173652931005e6 1.1919849535237622e7 0.0
1.1919849535237622e7 9.672060254553763e6 0.0
0.0 0.0 0.0

-2.907944216103771e6 1.440802942357051e7 0.0
1.440802942357051e7 -2.8582176524307486e7 0.0
0.0 0.0 0.0

4.8266188021000065e6 6.594500086533339e6 0.0
6.594500086533339e6 -1.8224751829983138e7 0.0
0.0 0.0 0.0

-4.290462359204924e6 -7.547575795479247e6 0.0
-7.547575795479247e6 1.1784789643555094e7 0.0
0.0 0.0 0.0

-1.2276836815837234e7 1.9987230954202734e7 0.0
1.9987230954202734e7 3.1645782692565145e6 0.0
0.0 0.0 0.0

-9.802762122789364e6 1.6844387721124887e7 0.0
1.6844387721124887e7 -422617.92895133933 0.0
0.0 0.0 0.0

-184955.19053706923 1.1804297476609325e7 0.0
1.1804297476609325e7 -6.517087866248703e6 0.0
0.0 0.0 0.0

-3.959645993313637e6 1.96742347802481e7 0.0
1.96742347802481e7 920390.5881280398 0.0
0.0 0.0 0.0

4.523347267595688e6 6.642013683522376e6 0.0
6.642013683522376e6 -2.971979371415212e7 0.0
0.0 0.0 0.0

2.0402889348620907e6 1.5781964042053418e7 0.0
1.5781964042053418e7 -4.706147134886887e6 0.0
0.0 0.0 0.0

80202.13937881053 1.4914161659399161e7 0.0
1.4914161659399161e7 6.350706521563803e6 0.0
0.0 0.0 0.0

2.124669197841853e6 1.0843161425581532e7 0.0
1.0843161425581532e7 -1.291581467960364e7 0.0
0.0 0.0 0.0

-3.927522665480798e6 1.6256168785827344e7 0.0
1.6256168785827344e7 1.5061813733227875e6 0.0
0.0 0.0 0.0

1.7647210710099833e6 1.0259785893704088e7 0.0
1.0259785893704088e7 -9.62217066350312e6 0.0
0.0 0.0 0.0

1.8066715715480214e6 1.0705844687026797e7 0.0
1.0705844687026797e7 -1.3891753189981235e7 0.0
0.0 0.0 0.0

-42600.51433769381 1.1883434302981898e7 0.0
1.1883434302981898e7 -1.010394651343726e7 0.0
0.0 0.0 0.0

-6.98022253716314e6 2.0156943651466202e7 0.0
2.0156943651466202e7 6.420574111928901e6 0.0
0.0 0.0 0.0

-6.136854813284742e6 1.6674496899181677e7 0.0
1.6674496899181677e7 -3.290432067875371e7 0.0
0.0 0.0 0.0

2.4134689096328523e6 2.2288681322636746e7 0.0
2.2288681322636746e7 -4.892033494221394e6 0.0
0.0 0.0 0.0

-824056.337157647 1.7921339518440675e7 0.0
1.7921339518440675e7 -4.377537145026233e6 0.0
0.0 0.0 0.0

-4.782596419712517e6 2.0872652942843925e7 0.0
2.0872652942843925e7 4.47140715579797e6 0.0
0.0 0.0 0.0

-5.954192266118584e6 1.7053970459227182e7 0.0
1.7053970459227182e7 7.822341894943152e6 0.0
0.0 0.0 0.0

4.765153368384857e6 5.918771297583783e6 0.0
5.918771297583783e6 -3.06393681855253e7 0.0
0.0 0.0 0.0

-5.721998913131465e6 1.5673026540439686e7 0.0
1.5673026540439686e7 9.358993693598082e6 0.0
0.0 0.0 0.0

5.049855295349771e6 5.690518376002397e6 0.0
5.690518376002397e6 -2.54329645451295e7 0.0
0.0 0.0 0.0

-1.652437569796869e6 1.4732888575505316e7 0.0
1.4732888575505316e7 -4.633133163334616e6 0.0
0.0 0.0 0.0

-1.3630970835175565e6 1.427330054437532e7 0.0
1.427330054437532e7 -4.931543213230642e6 0.0
0.0 0.0 0.0

298327.69498218084 1.0977340938467124e7 0.0
1.0977340938467124e7 -3.6476126348878443e6 0.0
0.0 0.0 0.0

-5.044810208107311e6 1.4536117375681045e7 0.0
1.4536117375681045e7 9.50418926037096e6 0.0
0.0 0.0 0.0

-4.164681658129178e6 1.7825403593049362e7 0.0
1.7825403593049362e7 633711.6921182305 0.0
0.0 0.0 0.0

-6.864720902790652e6 1.4776016269906526e7 0.0
1.4776016269906526e7 9.037347299227882e6 0.0
0.0 0.0 0.0

-5.622197936980221e6 -8.001789241081278e6 0.0
-8.001789241081278e6 1.4767090547915407e7 0.0
0.0 0.0 0.0

4.494906582882507e6 6.430928399569139e6 0.0
6.430928399569139e6 -1.92730349423949e7 0.0
0.0 0.0 0.0

3.584121889173854e6 7.798302256164574e6 0.0
7.798302256164574e6 -1.5700030643499592e7 0.0
0.0 0.0 0.0

-3.9412129684069166e6 2.1231910014836214e7 0.0
2.1231910014836214e7 1.7395306017861431e6 0.0
0.0 0.0 0.0

-1.0796922226504069e6 1.493545466062753e7 0.0
1.493545466062753e7 -4.898073786581351e6 0.0
0.0 0.0 0.0

1.8860890439263005e6 1.1293957311239371e7 0.0
1.1293957311239371e7 -1.6775554992572857e7 0.0
0.0 0.0 0.0

-3.6471617520440277e6 1.4913350524252564e7 0.0
1.4913350524252564e7 1.1658005412465418e7 0.0
0.0 0.0 0.0

-7.711348168754357e6 1.1004402306512177e6 0.0
1.1004402306512177e6 1.0475118080250457e7 0.0
0.0 0.0 0.0

-467060.6544033135 1.554217497326038e7 0.0
1.554217497326038e7 7.909832495534049e6 0.0
0.0 0.0 0.0

-1.1853118592848418e7 2.1272469078979015e7 0.0
2.1272469078979015e7 9.099779730783701e6 0.0
0.0 0.0 0.0

691191.2611690897 1.3252739580560043e7 0.0
1.3252739580560043e7 3.284371913515824e6 0.0
0.0 0.0 0.0

-494351.9509414113 1.3718515477178339e7 0.0
1.3718515477178339e7 5.253201126233342e6 0.0
0.0 0.0 0.0

-5.78595164476599e6 1.9849484017425966e7 0.0
1.9849484017425966e7 6.176110982459242e6 0.0
0.0 0.0 0.0

-5.665872246828338e6 1.493161307103926e7 0.0
1.493161307103926e7 9.88439991667161e6 0.0
0.0 0.0 0.0

-6.638886235500625e6 1.3701518724790996e7 0.0
1.3701518724790996e7 1.7297235866045572e7 0.0
0.0 0.0 0.0

-8.713000982596241e6 1.749180810471024e7 0.0
1.749180810471024e7 912763.3408198771 0.0
0.0 0.0 0.0

-8.543541997699825e6 1.65555796591495e7 0.0
1.65555796591495e7 2.766324951470157e6 0.0
0.0 0.0 0.0

-1.0378314427135486e7 7.992887607895196e6 0.0
7.992887607895196e6 6.8693055138898855e6 0.0
0.0 0.0 0.0

-4.7479313522198185e7 2.380648256645756e7 0.0
2.380648256645756e7 7.651358353445752e6 0.0
0.0 0.0 0.0

4.5301127858762825e6 1.3303720273563981e7 0.0
1.3303720273563981e7 1.6904148211089629e6 0.0
0.0 0.0 0.0

781657.9246172281 1.1888717212437505e7 0.0
1.1888717212437505e7 -1.6798094274836913e7 0.0
0.0 0.0 0.0

-6.1275919476733245e6 1.6586275882782089e7 0.0
1.6586275882782089e7 6.28973442172694e6 0.0
0.0 0.0 0.0

-554500.7677732022 1.4122197084193543e7 0.0
1.4122197084193543e7 -9.469758857630325e6 0.0
0.0 0.0 0.0

2.120462779081246e7 1.1923048114981238e7 0.0
1.1923048114981238e7 -624027.7498381305 0.0
0.0 0.0 0.0

-964771.6653040473 2.338171560298252e6 0.0
2.338171560298252e6 577923.4331325043 0.0
0.0 0.0 0.0

3.6753994678776106e6 4.219997212231611e6 0.0
4.219997212231611e6 -9.85238090229681e6 0.0
0.0 0.0 0.0

-1.2257009384268993e6 1.4499234547912024e7 0.0
1.4499234547912024e7 -7.542652527890194e6 0.0
0.0 0.0 0.0

51082.342161757755 1.1832995672239032e7 0.0
1.1832995672239032e7 -2.167894609172515e6 0.0
0.0 0.0 0.0

-1.120831013254131e7 219798.72020331174 0.0
219798.72020331174 2.6064492392089047e7 0.0
0.0 0.0 0.0

146954.16541911894 1.8337737159887232e7 0.0
1.8337737159887232e7 -4.254232137275513e6 0.0
0.0 0.0 0.0

-1.4371982776872829e7 2.651872091964531e7 0.0
2.651872091964531e7 5.84471612060889e6 0.0
0.0 0.0 0.0

4.181277978656291e6 1.3898474618670788e7 0.0
1.3898474618670788e7 763600.8933419673 0.0
0.0 0.0 0.0

-5.477444846997564e6 -6.410517601731803e6 0.0
-6.410517601731803e6 9.51382479176113e6 0.0
0.0 0.0 0.0

-1.6187764506686362e7 1.6934796622057028e7 0.0
1.6934796622057028e7 8.122306400071995e6 0.0
0.0 0.0 0.0

-420939.88035884965 1.1377337792087702e7 0.0
1.1377337792087702e7 2.986149929155637e6 0.0
0.0 0.0 0.0

-1.8084191936305728e7 2.7413683328607675e7 0.0
2.7413683328607675e7 6.621640088764442e6 0.0
0.0 0.0 0.0

-9.197441747082928e6 1.1692577666597895e7 0.0
1.1692577666597895e7 1.3726067219809726e7 0.0
0.0 0.0 0.0

1.2690782843302717e6 1.3040897928490179e7 0.0
1.3040897928490179e7 -3.238984880814856e6 0.0
0.0 0.0 0.0

-2.595857950266602e6 1.2248055230127564e7 0.0
1.2248055230127564e7 -1.3552733226382446e7 0.0
0.0 0.0 0.0

-332379.76217962336 1.2028989106119905e7 0.0
1.2028989106119905e7 -8.08046299483482e6 0.0
0.0 0.0 0.0

2.044524476014538e6 1.5316967087114075e7 0.0
1.5316967087114075e7 -4.720643620402049e6 0.0
0.0 0.0 0.0

6.875727061569848e6 2.6131333566861648e7 0.0
2.6131333566861648e7 -1.5392548189009376e7 0.0
0.0 0.0 0.0

-5.515992078675609e6 -1.2955578050521303e6 0.0
-1.2955578050521303e6 8.00984412493256e6 0.0
0.0 0.0 0.0

-4.38215369533205e6 2.295020871923215e7 0.0
2.295020871923215e7 540608.5043195873 0.0
0.0 0.0 0.0

-2.7485086587189287e6 2.0118065462778885e7 0.0
2.0118065462778885e7 46514.13801703032 0.0
0.0 0.0 0.0

-9.69303834115309e6 -5.195839143112808e6 0.0
-5.195839143112808e6 1.8517525438508756e7 0.0
0.0 0.0 0.0

5.525155522614461e6 4.018917873841299e6 0.0
4.018917873841299e6 -1.7691596600536004e7 0.0
0.0 0.0 0.0

-5.45535642941381e6 1.8512437906992827e7 0.0
1.8512437906992827e7 6.927804601163777e6 0.0
0.0 0.0 0.0

-1.5158957291458608e6 1.5364120865436932e7 0.0
1.5364120865436932e7 9.010342772261396e6 0.0
0.0 0.0 0.0

-3.0590846031703167e6 2.5878529528930197e6 0.0
2.5878529528930197e6 5.425340474088872e6 0.0
0.0 0.0 0.0

-9.597523623315506e6 9.694215792053826e6 0.0
9.694215792053826e6 1.3388969168093547e7 0.0
0.0 0.0 0.0

-2.169327213814896e6 1.5106512129499389e7 0.0
1.5106512129499389e7 9.611376887254637e6 0.0
0.0 0.0 0.0

-668701.9113832638 1.2528775349451607e7 0.0
1.2528775349451607e7 -6.971387767169555e6 0.0
0.0 0.0 0.0

-367065.14119479107 1.1717916031378236e7 0.0
1.1717916031378236e7 -1.0549166949006513e7 0.0
0.0 0.0 0.0

-3.47958538432347e6 1.8830572370220926e7 0.0
1.8830572370220926e7 -899823.4607184997 0.0
0.0 0.0 0.0

-2.0069416282378798e6 1.879696726725495e6 0.0
1.879696726725495e6 2.1686828131392905e6 0.0
0.0 0.0 0.0

-4.0408542954746094e6 1.3663155468583282e7 0.0
1.3663155468583282e7 2.232488688547467e6 0.0
0.0 0.0 0.0

-1.1320869745080503e7 1.1985119959385654e7 0.0
1.1985119959385654e7 1.6448094642443277e7 0.0
0.0 0.0 0.0

1.0104689822897515e6 1.08208163938671e7 0.0
1.08208163938671e7 -8.056197704629643e6 0.0
0.0 0.0 0.0

-1.961481363695837e6 1.6058466764430143e7 0.0
1.6058466764430143e7 -5.786577735219631e6 0.0
0.0 0.0 0.0

-4.384623361343243e6 2.4434269556573104e7 0.0
2.4434269556573104e7 1.6554459529809027e6 0.0
0.0 0.0 0.0

1.5990223764091227e6 1.1152656015985275e7 0.0
1.1152656015985275e7 -1.771858409023985e7 0.0
0.0 0.0 0.0

-3.4638777800330475e7 2.6665794245755002e7 0.0
2.6665794245755002e7 1.0072359782660965e7 0.0
0.0 0.0 0.0

1.7071808323387457e6 3.821995938756818e6 0.0
3.821995938756818e6 -4.2179413075247565e6 0.0
0.0 0.0 0.0

1.5578746127652025e6 3.9274889103763835e6 0.0
3.9274889103763835e6 -4.958561669706433e6 0.0
0.0 0.0 0.0

554509.5686859102 1.509761546423297e7 0.0
1.509761546423297e7 9.728298951031843e6 0.0
0.0 0.0 0.0

-1.2320857382404273e6 1.5797662096327236e7 0.0
1.5797662096327236e7 1.1211498219071034e7 0.0
0.0 0.0 0.0

-907849.9298855078 1.42209080773379e7 0.0
1.42209080773379e7 3.4498893825371647e6 0.0
0.0 0.0 0.0

-9.017875945653861e6 8.33045237193562e6 0.0
8.33045237193562e6 1.3203478740026493e7 0.0
0.0 0.0 0.0

1.1377631605727568e6 4.317972841504745e6 0.0
4.317972841504745e6 -892281.883118622 0.0
0.0 0.0 0.0

-2.8001182003804683e6 1.5093990168600233e7 0.0
1.5093990168600233e7 5.0130228939104285e6 0.0
0.0 0.0 0.0

-3.9622025428186515e6 1.959468388181501e7 0.0
1.959468388181501e7 2.129619139411187e6 0.0
0.0 0.0 0.0

1.1150782099223249e6 1.1626888899369933e7 0.0
1.1626888899369933e7 -1.8245090966590934e7 0.0
0.0 0.0 0.0

314348.00943177426 1.6189851842333002e7 0.0
1.6189851842333002e7 8.987929763378639e6 0.0
0.0 0.0 0.0

5.405625222673838e6 1.4154355139224865e7 0.0
1.4154355139224865e7 2.545256910755736e6 0.0
0.0 0.0 0.0

-2.2435049934729073e7 2.7708244476873327e7 0.0
2.7708244476873327e7 8.789176815843046e6 0.0
0.0 0.0 0.0

-1.504810267026994e6 1.2718410343726657e7 0.0
1.2718410343726657e7 5.521032569797948e6 0.0
0.0 0.0 0.0

-4.895373530093217e6 6.232723385875618e6 0.0
6.232723385875618e6 2.8238049885377986e6 0.0
0.0 0.0 0.0

-1.272086493606278e7 6.140216420671012e6 0.0
6.140216420671012e6 1.575230376781039e7 0.0
0.0 0.0 0.0

-4.095102732281826e6 1.9141939290796615e7 0.0
1.9141939290796615e7 1.3756858142424999e6 0.0
0.0 0.0 0.0

-2.6978658806991135e6 1.5693212000170548e7 0.0
1.5693212000170548e7 1.1872514668403253e7 0.0
0.0 0.0 0.0

-1.1535488411954029e7 1.3517753669315807e6 0.0
1.3517753669315807e6 3.899746308773758e7 0.0
0.0 0.0 0.0

-2.7049949021125557e6 1.448221866456471e7 0.0
1.448221866456471e7 7.1914052934694765e6 0.0
0.0 0.0 0.0

-4.241229328847045e6 1.3190967548194071e7 0.0
1.3190967548194071e7 -1.739171498548268e7 0.0
0.0 0.0 0.0

-2.119745232383535e6 1.5566425104416622e7 0.0
1.5566425104416622e7 1.0707964101840336e7 0.0
0.0 0.0 0.0

-8.86579802152441e6 1.3736711848351669e7 0.0
1.3736711848351669e7 1.4343290157140736e7 0.0
0.0 0.0 0.0

-347849.8196997021 1.1944230169817077e7 0.0
1.1944230169817077e7 -7.306208430542831e6 0.0
0.0 0.0 0.0

-3.4620439488759115e6 1.4742883323470738e7 0.0
1.4742883323470738e7 4.5712786211401835e7 0.0
0.0 0.0 0.0

54338.043430194026 1.7780970078511536e7 0.0
1.7780970078511536e7 -4.653267699649545e6 0.0
0.0 0.0 0.0

230523.76946533704 1.310616179300535e7 0.0
1.310616179300535e7 -1.1386994970902873e7 0.0
0.0 0.0 0.0

-212268.80734748626 1.0021118235530088e7 0.0
1.0021118235530088e7 -4.44377418264536e6 0.0
0.0 0.0 0.0

5.652160874977308e6 4.401560718254877e6 0.0
4.401560718254877e6 -2.1253704270097725e7 0.0
0.0 0.0 0.0

-4.066780800000393e6 2.3605484714709803e7 0.0
2.3605484714709803e7 2.21728194531344e6 0.0
0.0 0.0 0.0

-1.280309887071208e7 7.011282478120364e6 0.0
7.011282478120364e6 1.6141247399366535e7 0.0
0.0 0.0 0.0

-196546.87278825464 1.3969082404681597e7 0.0
1.3969082404681597e7 6.814657298235166e6 0.0
0.0 0.0 0.0

-6.688101493596602e6 1.7777258296331376e7 0.0
1.7777258296331376e7 5.327051764451243e6 0.0
0.0 0.0 0.0

-4.327817004584597e6 1.4922453016975706e7 0.0
1.4922453016975706e7 1.5396702729674727e6 0.0
0.0 0.0 0.0

-1.1121702889422502e7 1.0285503163037645e7 0.0
1.0285503163037645e7 1.3627794351397857e7 0.0
0.0 0.0 0.0

2.634074035387858e6 8.790477878823292e6 0.0
8.790477878823292e6 -1.307647550710306e7 0.0
0.0 0.0 0.0

-1.3596604115544043e7 2.495853217801173e7 0.0
2.495853217801173e7 8.563970334664557e6 0.0
0.0 0.0 0.0

1.023445456086182e7 1.0111926348200219e7 0.0
1.0111926348200219e7 7825.09334793454 0.0
0.0 0.0 0.0

-7.0496162553883195e6 103266.31879130087 0.0
103266.31879130087 7.737255660146585e6 0.0
0.0 0.0 0.0

-6.459477495308751e6 2.0419129245571394e7 0.0
2.0419129245571394e7 6.313629690847963e6 0.0
0.0 0.0 0.0

-2.0801499041437924e7 1.2963916691599414e7 0.0
1.2963916691599414e7 1.0410338484344484e7 0.0
0.0 0.0 0.0

-1.561402697318076e6 1.5576425699928483e7 0.0
1.5576425699928483e7 -4.64594056586103e6 0.0
0.0 0.0 0.0

-2.9609094080218766e7 2.1362495945852958e7 0.0
2.1362495945852958e7 6.198384585123371e6 0.0
0.0 0.0 0.0

-1.2281212226172183e6 1.5649282207722584e7 0.0
1.5649282207722584e7 -2.815169726893886e6 0.0
0.0 0.0 0.0

-7.439031102803384e6 1.3271382900432577e7 0.0
1.3271382900432577e7 1.0686659874170817e7 0.0
0.0 0.0 0.0

-1.0084540274769215e7 7.156969853465049e6 0.0
7.156969853465049e6 1.4196142688479928e7 0.0
0.0 0.0 0.0

-7.986676119976637e6 1.1396505673624156e7 0.0
1.1396505673624156e7 8.879776954941655e6 0.0
0.0 0.0 0.0

-5.665194531329012e6 1.6892251620479316e7 0.0
1.6892251620479316e7 7.974238963752653e6 0.0
0.0 0.0 0.0

-1.052953004952181e7 -3.410983373560898e6 0.0
-3.410983373560898e6 2.5685803079690274e7 0.0
0.0 0.0 0.0

-39138.376195243676 1.098668891145744e7 0.0
1.098668891145744e7 -1.9701040548108981e6 0.0
0.0 0.0 0.0

1.7483338296941384e6 9.502523505133148e6 0.0
9.502523505133148e6 -8.580248821986625e6 0.0
0.0 0.0 0.0

1.0315913181624115e6 1.2146670147857083e7 0.0
1.2146670147857083e7 -1.1416017897791764e7 0.0
0.0 0.0 0.0

-6.539713698031767e6 -5.047520122848114e6 0.0
-5.047520122848114e6 1.2319406585537475e7 0.0
0.0 0.0 0.0

-565702.0884670092 1.1275021619574524e7 0.0
1.1275021619574524e7 -835105.003926647 0.0
0.0 0.0 0.0

-6.363797121109925e6 1.8064758217383035e7 0.0
1.8064758217383035e7 6.038655342987581e6 0.0
0.0 0.0 0.0

-2.182035052251571e6 1.5353419878419027e7 0.0
1.5353419878419027e7 1.1308590514109895e7 0.0
0.0 0.0 0.0

-775606.126488432 1.4077822184552304e7 0.0
1.4077822184552304e7 -7.801242145703742e6 0.0
0.0 0.0 0.0

-411317.9208765484 1.3780659328178687e7 0.0
1.3780659328178687e7 1.2005668886624153e6 0.0
0.0 0.0 0.0

-4.242996247815499e6 2.233436290868473e7 0.0
2.233436290868473e7 1.0479090662625537e6 0.0
0.0 0.0 0.0

-234346.3633704381 1.445861441056814e7 0.0
1.445861441056814e7 -7.842537824484632e6 0.0
0.0 0.0 0.0

4.368161882820806e7 1.8024071606513817e7 0.0
1.8024071606513817e7 235996.6893434059 0.0
0.0 0.0 0.0

1.620304179449365e6 1.3692150105085656e7 0.0
1.3692150105085656e7 -4.410660310274355e6 0.0
0.0 0.0 0.0

217981.57655503973 1.272705531399706e7 0.0
1.272705531399706e7 -1.332921936037345e7 0.0
0.0 0.0 0.0

-1.0582196406822e6 1.5775479537132215e7 0.0
1.5775479537132215e7 -6.369607079484301e6 0.0
0.0 0.0 0.0

-1.844159281194618e7 1.8542686633957352e7 0.0
1.8542686633957352e7 7.108574895556381e6 0.0
0.0 0.0 0.0

-5.71406409096892e6 1.7619390599723205e7 0.0
1.7619390599723205e7 6.633818881881265e6 0.0
0.0 0.0 0.0

6.226902512119254e6 1.3955353352210896e7 0.0
1.3955353352210896e7 -1.5198612921839114e6 0.0
0.0 0.0 0.0

679416.9319091747 1.1629131808479758e7 0.0
1.1629131808479758e7 -2.0933188331944566e7 0.0
0.0 0.0 0.0

388125.87678337423 1.4520041197552284e7 0.0
1.4520041197552284e7 1.2232246665928582e7 0.0
0.0 0.0 0.0

4.782515403880959e6 5.817771992674022e6 0.0
5.817771992674022e6 -1.4709065477355337e7 0.0
0.0 0.0 0.0

-870455.0538927477 1.6227651779024215e7 0.0
1.6227651779024215e7 -5.7902483382873405e6 0.0
0.0 0.0 0.0

5.283085874745097e6 5.16004625445384e6 0.0
5.16004625445384e6 -2.4726724756674044e7 0.0
0.0 0.0 0.0

-1.835930637862757e6 1.5868821491268585e7 0.0
1.5868821491268585e7 -5.793751165998324e6 0.0
0.0 0.0 0.0

-614397.4343576684 1.8389007852121294e7 0.0
1.8389007852121294e7 -3.74812824847865e6 0.0
0.0 0.0 0.0

-3.8723385650433246e6 1.4770147262835426e7 0.0
1.4770147262835426e7 1.2599971907123125e6 0.0
0.0 0.0 0.0

-1.0421323896897078e7 2.1307250722931586e7 0.0
2.1307250722931586e7 7.6177472529176045e6 0.0
0.0 0.0 0.0

-9.297782477960648e6 1.3684408401289335e7 0.0
1.3684408401289335e7 1.4229894362870757e7 0.0
0.0 0.0 0.0

-1.3764492625336552e6 1.2008061058828797e7 0.0
1.2008061058828797e7 4.542042292313131e6 0.0
0.0 0.0 0.0

-2.6890773914494775e7 2.0102198824474186e7 0.0
2.0102198824474186e7 1.1694908021280829e7 0.0
0.0 0.0 0.0

4.299719137391133e6 1.4317762464715164e7 0.0
1.4317762464715164e7 4.747359895921235e6 0.0
0.0 0.0 0.0

-4.0318743624322345e6 8.270355273805025e6 0.0
8.270355273805025e6 1.4245384856230249e6 0.0
0.0 0.0 0.0

-5.827021476699611e6 2.0064297833106194e7 0.0
2.0064297833106194e7 5.88981732808992e6 0.0
0.0 0.0 0.0

-1.4841882604686967e6 1.6011955315735575e7 0.0
1.6011955315735575e7 -3.4368019886937733e6 0.0
0.0 0.0 0.0

1.0776863591223983e6 1.1083327755409624e7 0.0
1.1083327755409624e7 -8.494855587162353e6 0.0
0.0 0.0 0.0

5.624825071085033e6 3.9283677033413304e6 0.0
3.9283677033413304e6 -1.8476054059475645e7 0.0
0.0 0.0 0.0

245196.7128173979 1.1398439149478804e7 0.0
1.1398439149478804e7 -7.171783591524474e6 0.0
0.0 0.0 0.0

2.3693714468482975e7 5.720296399118581e6 0.0
5.720296399118581e6 -3.4711116135080177e6 0.0
0.0 0.0 0.0

-9.088456323192675e6 1.372922466140912e7 0.0
1.372922466140912e7 1.4914844669105308e7 0.0
0.0 0.0 0.0

-6.685907295425851e6 1.9747362040165987e7 0.0
1.9747362040165987e7 6.490959933622507e6 0.0
0.0 0.0 0.0

-8.74829720590641e6 -7.403902597491783e6 0.0
-7.403902597491783e6 2.18960850018535e7 0.0
0.0 0.0 0.0

-5.279880524590595e6 2.213964499943255e7 0.0
2.213964499943255e7 3.82436879993749e6 0.0
0.0 0.0 0.0

-1.5623642398594081e7 1.6569773490122177e7 0.0
1.6569773490122177e7 7.992829266368854e6 0.0
0.0 0.0 0.0

-40103.12885708874 1.3428101108369764e7 0.0
1.3428101108369764e7 -1.0696228219379611e7 0.0
0.0 0.0 0.0

514670.15654059686 1.4777321806420526e7 0.0
1.4777321806420526e7 8.42325700245284e6 0.0
0.0 0.0 0.0

-697266.7521831976 1.2139420667753084e7 0.0
1.2139420667753084e7 1.8752089720294718e6 0.0
0.0 0.0 0.0

-5.865216934131818e6 1.59876094179208e7 0.0
1.59876094179208e7 6.532582076186758e6 0.0
0.0 0.0 0.0

754807.5258169034 1.067100734475864e7 0.0
1.067100734475864e7 -9.063385582346717e6 0.0
0.0 0.0 0.0

3.237617091963413e6 8.516933385282872e6 0.0
8.516933385282872e6 -1.2633354943811636e7 0.0
0.0 0.0 0.0

160324.34011501726 7.629253246092281e6 0.0
7.629253246092281e6 -5.247949357949479e6 0.0
0.0 0.0 0.0

-5.662564859567826e6 1.9764414221769836e7 0.0
1.9764414221769836e7 5.664030635604149e6 0.0
0.0 0.0 0.0

-986300.4835082777 1.2797968429289106e7 0.0
1.2797968429289106e7 -6.257912602197982e6 0.0
0.0 0.0 0.0

8.916798106167128e6 1.0079119888630267e7 0.0
1.0079119888630267e7 -111107.18063445995 0.0
0.0 0.0 0.0

5.647389864176461e6 3.928616107375318e6 0.0
3.928616107375318e6 -1.858884501200741e7 0.0
0.0 0.0 0.0

-896711.9594940706 1.45295765773041e7 0.0
1.45295765773041e7 8.832592063894918e6 0.0
0.0 0.0 0.0

699450.1867054417 7.542866364158037e6 0.0
7.542866364158037e6 -6.277700435265543e6 0.0
0.0 0.0 0.0

-2.893368886545629e6 1.901496108610829e7 0.0
1.901496108610829e7 -612648.1681071703 0.0
0.0 0.0 0.0

-1.2024703601966333e6 1.4228761495502882e7 0.0
1.4228761495502882e7 4.705754895405434e6 0.0
0.0 0.0 0.0

-1.2174763058590442e7 3.029457311226293e6 0.0
3.029457311226293e6 2.3203519624790676e7 0.0
0.0 0.0 0.0

-1.4511401427020668e6 3.2004402635061513e6 0.0
3.2004402635061513e6 941213.4771052802 0.0
0.0 0.0 0.0

-949004.2813794701 1.8533890076571006e7 0.0
1.8533890076571006e7 -3.981328286242201e6 0.0
0.0 0.0 0.0

-3.477183624836913e7 8.938958266820597e6 0.0
8.938958266820597e6 1.1332369414173663e7 0.0
0.0 0.0 0.0

700784.4174842602 1.2556166682981357e7 0.0
1.2556166682981357e7 -1.2897960725008985e7 0.0
0.0 0.0 0.0

-2.5331896886963374e6 1.0378901404597655e7 0.0
1.0378901404597655e7 4.476060612275456e6 0.0
0.0 0.0 0.0

-7.298982222165553e6 1.3077071884771867e7 0.0
1.3077071884771867e7 1.0255828034203412e7 0.0
0.0 0.0 0.0

-3.688578940381026e7 8.853761901626864e6 0.0
8.853761901626864e6 1.0966940979106482e7 0.0
0.0 0.0 0.0

255698.6093351934 1.2364510029178414e7 0.0
1.2364510029178414e7 -1.3608020618766237e7 0.0
0.0 0.0 0.0

-1.0557155623376737e6 1.5457211631027643e7 0.0
1.5457211631027643e7 -6.809431605286834e6 0.0
0.0 0.0 0.0

1.644524153211269e6 5.581718106251241e6 0.0
5.581718106251241e6 -5.07073123072744e6 0.0
0.0 0.0 0.0

-3.5596613708177763e6 1.6942828023060597e7 0.0
1.6942828023060597e7 -2.7067731018061377e6 0.0
0.0 0.0 0.0

-1.6843124981753821e6 2.0690503026746616e7 0.0
2.0690503026746616e7 -2.1854316749859494e6 0.0
0.0 0.0 0.0

-4.6859622377122305e6 2.059145912232572e7 0.0
2.059145912232572e7 3.260893488951956e6 0.0
0.0 0.0 0.0

-5.727641493482628e6 1.5362277124642478e7 0.0
1.5362277124642478e7 3.792305828174857e6 0.0
0.0 0.0 0.0

-1.2171701189146597e7 9.752514063235246e6 0.0
9.752514063235246e6 1.7446986633282147e7 0.0
0.0 0.0 0.0

-5.022687353590528e6 1.5637717391732793e7 0.0
1.5637717391732793e7 8.786077661848886e6 0.0
0.0 0.0 0.0

-5.093545389784075e6 2.1702201017242294e7 0.0
2.1702201017242294e7 3.716802187897017e6 0.0
0.0 0.0 0.0

1.4517962625095048e6 9.390232524973914e6 0.0
9.390232524973914e6 -9.595433639226772e6 0.0
0.0 0.0 0.0

-5.046239415663387e6 2.1333053264867593e7 0.0
2.1333053264867593e7 3.5608370136715653e6 0.0
0.0 0.0 0.0

-1.933127463970595e6 1.5878388632483117e7 0.0
1.5878388632483117e7 1.1391273332714172e7 0.0
0.0 0.0 0.0

-1.22157681916244e7 6.978667839436695e6 0.0
6.978667839436695e6 1.6916418395231966e7 0.0
0.0 0.0 0.0

5.2347912315528765e6 4.591735669704411e6 0.0
4.591735669704411e6 -1.9342762582953352e7 0.0
0.0 0.0 0.0

-7.497884266722831e6 1.775338229867538e7 0.0
1.775338229867538e7 5.531565107695537e6 0.0
0.0 0.0 0.0

-3.588306533203912e6 1.733861341164835e7 0.0
1.733861341164835e7 -1.1015433345509372e6 0.0
0.0 0.0 0.0

-2.8774331867553033e6 1.7294846278004866e7 0.0
1.7294846278004866e7 -1.7380386230792399e6 0.0
0.0 0.0 0.0

-4.315977678966581e7 3.0670522722968876e7 0.0
3.0670522722968876e7 -1.0966151544000639e7 0.0
0.0 0.0 0.0

237865.25145619828 1.3783353527494723e7 0.0
1.3783353527494723e7 -1.0119947403528975e7 0.0
0.0 0.0 0.0

-3.8332470445414977e6 1.8925407663870506e7 0.0
1.8925407663870506e7 1.6534584328314287e6 0.0
0.0 0.0 0.0

-7.802058610216549e6 1.3759696452093452e7 0.0
1.3759696452093452e7 9.841159704994125e6 0.0
0.0 0.0 0.0

-2.2027732923074126e7 1.4229668444277411e7 0.0
1.4229668444277411e7 1.1197245446709089e7 0.0
0.0 0.0 0.0

134762.4366342403 1.3676097994901715e7 0.0
1.3676097994901715e7 -746915.5098419946 0.0
0.0 0.0 0.0

-4.256734007521168e6 1.5298662730143989e7 0.0
1.5298662730143989e7 1.2734534091058228e7 0.0
0.0 0.0 0.0

5.885073972943968e6 3.5532891211170275e6 0.0
3.5532891211170275e6 -2.250622719169901e7 0.0
0.0 0.0 0.0

-1.688611821443939e7 2.2901049634606306e7 0.0
2.2901049634606306e7 1.0684343762786735e7 0.0
0.0 0.0 0.0

-9.267416217862096e6 -5.682029471755341e6 0.0
-5.682029471755341e6 2.3089512968751654e7 0.0
0.0 0.0 0.0

-1.0985940048091765e7 -3.581939378993492e6 0.0
-3.581939378993492e6 2.838267176327686e7 0.0
0.0 0.0 0.0

-675272.6974535838 2.9113958994683293e6 0.0
2.9113958994683293e6 601132.1333565584 0.0
0.0 0.0 0.0

-1.224874470669274e7 8.2353909857110875e6 0.0
8.2353909857110875e6 1.906560515904554e7 0.0
0.0 0.0 0.0

-5.1708539574327115e6 1.2856630334135082e7 0.0
1.2856630334135082e7 9.460651242630873e6 0.0
0.0 0.0 0.0

1.1138607832526956e6 1.2070621035759686e7 0.0
1.2070621035759686e7 -1.4471820301623754e7 0.0
0.0 0.0 0.0

-2.9276091081374243e7 2.727467293617327e7 0.0
2.727467293617327e7 1.0830364858220221e7 0.0
0.0 0.0 0.0

-1.2124115049869142e7 7.809972800451886e6 0.0
7.809972800451886e6 1.7314640397894055e7 0.0
0.0 0.0 0.0

728012.2506405097 1.1482516487369608e7 0.0
1.1482516487369608e7 -2.1533041338483147e7 0.0
0.0 0.0 0.0

-1.5114323577270899e7 1.5380790117438031e7 0.0
1.5380790117438031e7 8.308795918545163e6 0.0
0.0 0.0 0.0

-1.0260901443578912e7 -4.0202182819627956e6 0.0
-4.0202182819627956e6 2.933422668572708e7 0.0
0.0 0.0 0.0

-293087.7654349352 1.3166443102506695e7 0.0
1.3166443102506695e7 -9.220712894462042e6 0.0
0.0 0.0 0.0

-2.196299355877472e6 1.3369802761902945e7 0.0
1.3369802761902945e7 -2.2718975706989016e7 0.0
0.0 0.0 0.0

-751199.3192214471 1.5251539997064603e7 0.0
1.5251539997064603e7 -3.3169277792826206e6 0.0
0.0 0.0 0.0

-1.3885237465442818e7 1.3418950260452535e7 0.0
1.3418950260452535e7 8.089068695595708e6 0.0
0.0 0.0 0.0

2.08340359486484e7 1.7071212029035002e7 0.0
1.7071212029035002e7 3.1597506520967316e6 0.0
0.0 0.0 0.0

-660479.6842422297 9.25498843796764e6 0.0
9.25498843796764e6 -3.004724476968183e6 0.0
0.0 0.0 0.0

944004.8627460795 1.2392667106114749e7 0.0
1.2392667106114749e7 -1.0486319504237855e7 0.0
0.0 0.0 0.0

-157666.39079631958 1.1458391251145536e7 0.0
1.1458391251145536e7 -9.286937447872974e6 0.0
0.0 0.0 0.0

6.043863819837947e6 3.586441839224663e6 0.0
3.586441839224663e6 -2.263738607188884e7 0.0
0.0 0.0 0.0

-3.064749706232155e6 1.8421201766076904e7 0.0
1.8421201766076904e7 -383862.48270458996 0.0
0.0 0.0 0.0

-181160.3436095426 1.219203737325014e7 0.0
1.219203737325014e7 -1.4305221867187742e7 0.0
0.0 0.0 0.0

84089.07027734444 1.461312882949032e7 0.0
1.461312882949032e7 -8.08799090890291e6 0.0
0.0 0.0 0.0

-310480.13191186136 1.1989568008260228e7 0.0
1.1989568008260228e7 -88680.03891182081 0.0
0.0 0.0 0.0

-3.6312511781374416e6 8.273100367472193e6 0.0
8.273100367472193e6 2.8044140705345618e6 0.0
0.0 0.0 0.0

-6.256325093807876e6 1.5694804148751317e7 0.0
1.5694804148751317e7 6.080410101764359e6 0.0
0.0 0.0 0.0

-4.71117079782558e6 1.5110285845525738e7 0.0
1.5110285845525738e7 1.2655113229866741e7 0.0
0.0 0.0 0.0

5.302765996410477e6 4.283167126411092e6 0.0
4.283167126411092e6 -1.6020711555469353e7 0.0
0.0 0.0 0.0

-1.2854979888125036e7 6.416129843484161e6 0.0
6.416129843484161e6 5.066653619398748e6 0.0
0.0 0.0 0.0

-1.7608162114360593e6 1.574494653040553e7 0.0
1.574494653040553e7 1.0293463859122913e7 0.0
0.0 0.0 0.0

191314.27665333217 1.272231051858517e7 0.0
1.272231051858517e7 -1.111776668964052e7 0.0
0.0 0.0 0.0

3.589195996932632e7 7.313972678942509e6 0.0
7.313972678942509e6 -2.402862665079098e6 0.0
0.0 0.0 0.0

1.1032952724888818e6 1.257380077378571e7 0.0
1.257380077378571e7 -1.2883032487766223e7 0.0
0.0 0.0 0.0

-3.4199774299602136e6 1.776119001812565e7 0.0
1.776119001812565e7 -1.5564547983024924e6 0.0
0.0 0.0 0.0

-4.504861746242914e6 1.5895873561287086e7 0.0
1.5895873561287086e7 833472.6837316819 0.0
0.0 0.0 0.0

-1.3724956816487405e6 1.4736947416875623e7 0.0
1.4736947416875623e7 3.185686629914244e7 0.0
0.0 0.0 0.0

-1.2276326251640856e7 7.343956606202704e6 0.0
7.343956606202704e6 1.997888744320635e7 0.0
0.0 0.0 0.0

-8.488829091774654e6 -7.827475669526785e6 0.0
-7.827475669526785e6 2.1549811592829134e7 0.0
0.0 0.0 0.0

-1.253096395754144e7 1.5040415536610815e6 0.0
1.5040415536610815e6 2.355211811512609e7 0.0
0.0 0.0 0.0

-4.765779184148832e6 2.0123615122048344e7 0.0
2.0123615122048344e7 3.439562548328098e6 0.0
0.0 0.0 0.0

2.6619582343282895e6 9.337880837329712e6 0.0
9.337880837329712e6 -1.3651085667225117e7 0.0
0.0 0.0 0.0

-5.771781337229941e6 1.668986841189183e7 0.0
1.668986841189183e7 7.978177863698046e6 0.0
0.0 0.0 0.0

-69988.36949216295 1.4088522352479687e7 0.0
1.4088522352479687e7 -9.444618199748816e6 0.0
0.0 0.0 0.0

-7.849831438193488e6 1.2366999472404044e7 0.0
1.2366999472404044e7 8.869657604166714e6 0.0
0.0 0.0 0.0

-5.566047237674374e6 1.800134999863317e7 0.0
1.800134999863317e7 6.940716429396773e6 0.0
0.0 0.0 0.0

1.109155394709902e6 1.7436703952950433e7 0.0
1.7436703952950433e7 -4.888997176643523e6 0.0
0.0 0.0 0.0

-6.1098506319437055e6 1.5247778641194072e7 0.0
1.5247778641194072e7 9.855580016853489e6 0.0
0.0 0.0 0.0

-6.0781206515569035e6 1.6193743745605517e7 0.0
1.6193743745605517e7 8.64111784476507e6 0.0
0.0 0.0 0.0

-957590.6334732054 1.1996842476560043e7 0.0
1.1996842476560043e7 -1.008447201794634e7 0.0
0.0 0.0 0.0

-1.2697431465098266e7 7.590621349275878e6 0.0
7.590621349275878e6 1.5568471421174001e7 0.0
0.0 0.0 0.0

-4.565865203014705e6 2.022442401523883e7 0.0
2.022442401523883e7 4.1509892043663203e6 0.0
0.0 0.0 0.0

4.55159712200599e6 5.54345721106276e6 0.0
5.54345721106276e6 -1.5500131946980312e7 0.0
0.0 0.0 0.0

-1.1003132858713353e7 -215361.75872499673 0.0
-215361.75872499673 3.82917106179445e7 0.0
0.0 0.0 0.0

-433609.0516176135 1.4757712024800088e7 0.0
1.4757712024800088e7 -4.1710517296193712e6 0.0
0.0 0.0 0.0

-4.833852860261397e6 2.0477596050044306e7 0.0
2.0477596050044306e7 3.6453422914316906e6 0.0
0.0 0.0 0.0

2.5703557232272048e6 1.0531349016254688e7 0.0
1.0531349016254688e7 -1.5412921419859549e7 0.0
0.0 0.0 0.0

-3.703748823211759e6 1.851852637047607e7 0.0
1.851852637047607e7 -577180.0373845808 0.0
0.0 0.0 0.0

2.939276906785247e6 8.40002913121629e6 0.0
8.40002913121629e6 -1.368407131952195e7 0.0
0.0 0.0 0.0

-1.2131967330256086e7 6.2734138836571295e6 0.0
6.2734138836571295e6 1.7658376461730223e7 0.0
0.0 0.0 0.0

-3.926725513952297e7 2.6173658093093168e7 0.0
2.6173658093093168e7 1.1296922566737577e7 0.0
0.0 0.0 0.0

-7.035614762676856e6 1.6797363105517827e7 0.0
1.6797363105517827e7 1.2081490036622272e6 0.0
0.0 0.0 0.0

-5.452762816153767e6 1.660162623274845e7 0.0
1.660162623274845e7 8.255651922132237e6 0.0
0.0 0.0 0.0

-3.4595328978843912e6 -1.2681773197430724e6 0.0
-1.2681773197430724e6 5.202458499435168e6 0.0
0.0 0.0 0.0

-8.506867189161157e6 1.6060056514736833e7 0.0
1.6060056514736833e7 67281.86625372758 0.0
0.0 0.0 0.0

-6.1289707773594195e6 1.8192243451316405e7 0.0
1.8192243451316405e7 6.474412193332602e6 0.0
0.0 0.0 0.0

5.503445649332545e6 4.423991706185982e6 0.0
4.423991706185982e6 -1.9702757377356973e7 0.0
0.0 0.0 0.0

-7.563770212131034e6 1.1151627656875435e7 0.0
1.1151627656875435e7 1.0511273532762034e7 0.0
0.0 0.0 0.0

-9.744680982731566e6 8.493898342794359e6 0.0
8.493898342794359e6 1.3846900644917082e7 0.0
0.0 0.0 0.0

-3.0585749487270787e6 2.2504046914684456e7 0.0
2.2504046914684456e7 1.233016740843358e6 0.0
0.0 0.0 0.0

-8.93632665023923e6 337464.5247907887 0.0
337464.5247907887 9.955155626362417e6 0.0
0.0 0.0 0.0

-1.2720697492269378e7 8.585401128257269e6 0.0
8.585401128257269e6 1.6186104800312135e7 0.0
0.0 0.0 0.0

-4.280514081555866e6 2.0812564701219406e7 0.0
2.0812564701219406e7 3.6329520655702846e6 0.0
0.0 0.0 0.0

-1.0858617234567534e7 -3.3130717849241393e6 0.0
-3.3130717849241393e6 3.0785859505456463e7 0.0
0.0 0.0 0.0

-5.043096629888701e6 -119877.0650531435 0.0
-119877.0650531435 7.430027528081488e6 0.0
0.0 0.0 0.0

4.032971263978701e6 6.907871767253277e6 0.0
6.907871767253277e6 -1.4889815751974352e7 0.0
0.0 0.0 0.0

-6.0145900518530775e6 1.604798344493293e7 0.0
1.604798344493293e7 6.79222686507321e6 0.0
0.0 0.0 0.0

-1.258045643997565e7 8.890996480494186e6 0.0
8.890996480494186e6 1.7355581390871882e7 0.0
0.0 0.0 0.0

-639992.0489553981 1.3768106787003841e7 0.0
1.3768106787003841e7 -8.831665787862219e6 0.0
0.0 0.0 0.0

298157.52896020515 1.3241394006468717e7 0.0
1.3241394006468717e7 -9.279114541694593e6 0.0
0.0 0.0 0.0

2.829084368432207e6 9.185273806702934e6 0.0
9.185273806702934e6 -1.4499484263020966e7 0.0
0.0 0.0 0.0

941574.8540228521 1.2315581877748013e7 0.0
1.2315581877748013e7 -1.3731146613588218e7 0.0
0.0 0.0 0.0

-843377.1958161897 1.2094542920554353e7 0.0
1.2094542920554353e7 4.1373055756996907e6 0.0
0.0 0.0 0.0

-1.2699904318836167e7 9.911049358015805e6 0.0
9.911049358015805e6 1.6462934343699165e7 0.0
0.0 0.0 0.0

-3.494853160551584e6 1.8072588478552464e7 0.0
1.8072588478552464e7 -1.3900321647826172e6 0.0
0.0 0.0 0.0

-5.7886662125291545e6 1.968984845230356e7 0.0
1.968984845230356e7 6.070876753932767e6 0.0
0.0 0.0 0.0

-4.3800419901185725e6 2.0359029012333777e7 0.0
2.0359029012333777e7 3.825274264745557e6 0.0
0.0 0.0 0.0

5.829671036709924e6 1.9108052754484057e7 0.0
1.9108052754484057e7 4.14748137333592e7 0.0
0.0 0.0 0.0

-5.5482686653073765e6 1.6208331310117355e7 0.0
1.6208331310117355e7 6.113594360191562e6 0.0
0.0 0.0 0.0

648379.8283774913 1.2721390790858967e7 0.0
1.2721390790858967e7 -9.76965674708382e6 0.0
0.0 0.0 0.0

480755.424249121 1.265182597776208e7 0.0
1.265182597776208e7 -1.3061471762294138e7 0.0
0.0 0.0 0.0

920217.9619627027 1.2576415962863766e7 0.0
1.2576415962863766e7 -1.0752902261191886e7 0.0
0.0 0.0 0.0

-3.528713932478969e6 1.98809164850029e7 0.0
1.98809164850029e7 1.2645391298292843e6 0.0
0.0 0.0 0.0

-6.112275274515428e6 1.5334640171983793e7 0.0
1.5334640171983793e7 5.418441881161511e6 0.0
0.0 0.0 0.0

-214490.92886181752 1.1403765808005724e7 0.0
1.1403765808005724e7 711138.0857181282 0.0
0.0 0.0 0.0

340129.0745826205 1.2920477958926074e7 0.0
1.2920477958926074e7 -1.080354905807848e7 0.0
0.0 0.0 0.0

-4.735210759736016e6 8.483860790969988e6 0.0
8.483860790969988e6 2.573307314617607e6 0.0
0.0 0.0 0.0

-4.653753982862819e6 2.5491215108452767e7 0.0
2.5491215108452767e7 -2.923975521418097e6 0.0
0.0 0.0 0.0

5.587116245838016e6 4.789724579790917e6 0.0
4.789724579790917e6 -2.6477715726876296e7 0.0
0.0 0.0 0.0

4.46183757972921e7 1.8922112555169385e7 0.0
1.8922112555169385e7 5.378938940808911e6 0.0
0.0 0.0 0.0

1.5755859757390048e7 2.2799270134983987e7 0.0
2.2799270134983987e7 -2.1956365662853632e7 0.0
0.0 0.0 0.0

-3.4947654204289997e6 1.4728206323205758e7 0.0
1.4728206323205758e7 8.69811431260889e6 0.0
0.0 0.0 0.0

-790673.0139859619 1.2680508946712319e7 0.0
1.2680508946712319e7 5.668213777624088e6 0.0
0.0 0.0 0.0

-1.4157432242081089e7 1.683934093678848e7 0.0
1.683934093678848e7 3.6490508208561875e6 0.0
0.0 0.0 0.0

-3.940777921781429e7 1.857606168712751e7 0.0
1.857606168712751e7 7.463580997787058e6 0.0
0.0 0.0 0.0

-5.899684507567607e6 8.946998331507e6 0.0
8.946998331507e6 6.415625987171745e6 0.0
0.0 0.0 0.0

-3.492392947086471e6 1.7824228209426135e7 0.0
1.7824228209426135e7 456885.80125413113 0.0
0.0 0.0 0.0

1.1571000403209166e6 1.2034733238885183e7 0.0
1.2034733238885183e7 -1.116003703981983e7 0.0
0.0 0.0 0.0

4.78531323277293e6 7.002889953132398e6 0.0
7.002889953132398e6 -2.474939419476356e7 0.0
0.0 0.0 0.0

661573.7527791676 1.2191724702788102e7 0.0
1.2191724702788102e7 -1.1405832791623373e7 0.0
0.0 0.0 0.0

923096.2800581604 1.1314073179598982e7 0.0
1.1314073179598982e7 -1.9820624842018403e7 0.0
0.0 0.0 0.0

-1.0061658505673865e7 9.017402347676996e6 0.0
9.017402347676996e6 1.1965504760197561e7 0.0
0.0 0.0 0.0

-3.0948151876247986e6 1.4939027357573543e7 0.0
1.4939027357573543e7 1.0664492017528776e7 0.0
0.0 0.0 0.0

-1.2584124458116805e6 1.1265878878636518e7 0.0
1.1265878878636518e7 3.2538851672721603e6 0.0
0.0 0.0 0.0

-5.589817629652711e6 2.1084947395285894e6 0.0
2.1084947395285894e6 4.0281527064870787e6 0.0
0.0 0.0 0.0

-1.2173316864500646e7 13788.425328592479 0.0
13788.425328592479 2.2930051023553178e7 0.0
0.0 0.0 0.0

-5.295134718354166e6 1.8270699851267602e7 0.0
1.8270699851267602e7 5.747727025811363e6 0.0
0.0 0.0 0.0

-4.449761211115043e6 1.5217544848689863e7 0.0
1.5217544848689863e7 1.2817369353568193e7 0.0
0.0 0.0 0.0

-7.036630571620783e6 1.284850922911267e7 0.0
1.284850922911267e7 9.641974849044211e6 0.0
0.0 0.0 0.0

-942568.0428171192 4.1764765372871608e6 0.0
4.1764765372871608e6 -1.3225609455491786e6 0.0
0.0 0.0 0.0

-1.0484375656432856e7 9.067153585616203e6 0.0
9.067153585616203e6 3.908622404191658e7 0.0
0.0 0.0 0.0

-4.042323950868004e6 1.4534424824638149e7 0.0
1.4534424824638149e7 1.7885664873369418e6 0.0
0.0 0.0 0.0

-3.2606045690008337e6 1.7650503409795016e7 0.0
1.7650503409795016e7 -2.2139895277685076e6 0.0
0.0 0.0 0.0

-4.505945489739827e6 1.4995038494013151e7 0.0
1.4995038494013151e7 1.288750718796811e7 0.0
0.0 0.0 0.0

-4.325105080116504e6 8.59655172910875e6 0.0
8.59655172910875e6 3.943817683721436e6 0.0
0.0 0.0 0.0

222605.2149740518 1.769567493035137e7 0.0
1.769567493035137e7 -4.510739920928699e6 0.0
0.0 0.0 0.0

-9.741226411829067e6 1.8561802057158675e6 0.0
1.8561802057158675e6 4.476124019692587e7 0.0
0.0 0.0 0.0

1.4415940146367403e6 1.6248904158515358e7 0.0
1.6248904158515358e7 -5.086567706863745e6 0.0
0.0 0.0 0.0

-4.619996160293019e6 2.054923174722242e7 0.0
2.054923174722242e7 4.361630019307796e6 0.0
0.0 0.0 0.0

-1.5354448563644574e6 1.1726568146072729e7 0.0
1.1726568146072729e7 -1.2687236413715243e7 0.0
0.0 0.0 0.0

-6.015616470881613e6 1.4803246437774632e7 0.0
1.4803246437774632e7 1.0296785070737043e7 0.0
0.0 0.0 0.0

-1.2896434031548101e7 7.179606816187228e6 0.0
7.179606816187228e6 1.7976425336636316e7 0.0
0.0 0.0 0.0

-2.5617702601730744e6 1.9617895708121605e7 0.0
1.9617895708121605e7 -743216.8234415749 0.0
0.0 0.0 0.0

2.7838258774915305e6 5.7026510597044695e6 0.0
5.7026510597044695e6 -7.830078904570105e6 0.0
0.0 0.0 0.0

-5.992476845011449e6 2.4140993344598833e7 0.0
2.4140993344598833e7 1.5355287512315814e6 0.0
0.0 0.0 0.0

591475.4647306808 1.3999199627327338e7 0.0
1.3999199627327338e7 3.769911184837128e6 0.0
0.0 0.0 0.0

-3.0465687455752133e6 1.655739082486917e7 0.0
1.655739082486917e7 -1.132692977122109e6 0.0
0.0 0.0 0.0

4.860149052800646e6 5.761516037145333e6 0.0
5.761516037145333e6 -1.9826095677797385e7 0.0
0.0 0.0 0.0

-661688.0229506128 1.5277853205150599e7 0.0
1.5277853205150599e7 -4.389280453290554e6 0.0
0.0 0.0 0.0

-1.4720608334518508e6 1.6034395367279053e7 0.0
1.6034395367279053e7 1.0959099658631038e7 0.0
0.0 0.0 0.0

-4.308566490460885e6 1.9325958876970936e7 0.0
1.9325958876970936e7 3.2177962180349776e6 0.0
0.0 0.0 0.0

-405231.8579104771 1.531171049058846e7 0.0
1.531171049058846e7 1.141921265415918e7 0.0
0.0 0.0 0.0

-36190.179463342036 3.8684215702974545e6 0.0
3.8684215702974545e6 -841059.861226828 0.0
0.0 0.0 0.0

-6.491713483629391e6 1.4338712829613669e7 0.0
1.4338712829613669e7 1.6616843233541839e7 0.0
0.0 0.0 0.0

-4.831676353021023e6 1.6561694214844536e7 0.0
1.6561694214844536e7 3.3497578156793676e6 0.0
0.0 0.0 0.0

1.131697419407866e6 1.688741165629444e7 0.0
1.688741165629444e7 -5.01172508130323e6 0.0
0.0 0.0 0.0

-1.2670536035109658e6 1.6223997586630661e7 0.0
1.6223997586630661e7 -5.764247623767066e6 0.0
0.0 0.0 0.0

-1.2474864321639684e6 2.0545729001230393e7 0.0
2.0545729001230393e7 -2.248915190037548e6 0.0
0.0 0.0 0.0

-839081.1319208783 1.0413414633731574e7 0.0
1.0413414633731574e7 1.5772396900352163e6 0.0
0.0 0.0 0.0

-5.54109238670674e6 1.7107603562275123e7 0.0
1.7107603562275123e7 7.892173945801487e6 0.0
0.0 0.0 0.0

-3.3519125742451753e6 2.113043814770503e7 0.0
2.113043814770503e7 -663315.3530453416 0.0
0.0 0.0 0.0

-2.0108871233946085e6 1.325235981114917e7 0.0
1.325235981114917e7 -2.2052669807832975e7 0.0
0.0 0.0 0.0

-5.166816309613366e6 7.008691699005085e6 0.0
7.008691699005085e6 3.3865380092486315e6 0.0
0.0 0.0 0.0

-1.6071148123242715e6 1.2017717247950682e7 0.0
1.2017717247950682e7 4.647807438986339e6 0.0
0.0 0.0 0.0

-2.944900567333677e6 2.0208575611796733e7 0.0
2.0208575611796733e7 -1.4461737237791396e6 0.0
0.0 0.0 0.0

320332.84662472457 1.3184288220676469e7 0.0
1.3184288220676469e7 -1.1138128833209176e7 0.0
0.0 0.0 0.0

4.938407223012998e6 4.979536916014894e6 0.0
4.979536916014894e6 -1.4842640011969598e7 0.0
0.0 0.0 0.0

-1.0146350460496679e7 -2.803632295607372e6 0.0
-2.803632295607372e6 4.08693034190475e7 0.0
0.0 0.0 0.0

2.5599623564553848e6 1.0581837534175584e7 0.0
1.0581837534175584e7 -1.6269246990343198e7 0.0
0.0 0.0 0.0

-2.0837899183507855e6 1.3415166494388208e7 0.0
1.3415166494388208e7 7.3426241048318865e6 0.0
0.0 0.0 0.0

-8.802902496658847e6 9.64979161541404e6 0.0
9.64979161541404e6 1.2912096598582525e7 0.0
0.0 0.0 0.0

1.0151609067682326e6 1.6888164930205267e7 0.0
1.6888164930205267e7 -4.990034249310527e6 0.0
0.0 0.0 0.0

3.8194592722828174e6 6.178143386037931e6 0.0
6.178143386037931e6 -1.2991250458395505e7 0.0
0.0 0.0 0.0

1.771253607700098e6 1.3884880577425245e7 0.0
1.3884880577425245e7 -4.1279978929802272e6 0.0
0.0 0.0 0.0

-937795.6914086286 1.5943274040035054e7 0.0
1.5943274040035054e7 9.445972599494707e6 0.0
0.0 0.0 0.0

-1.9842139459118005e6 2.5157779284325913e7 0.0
2.5157779284325913e7 -6.031962486313317e6 0.0
0.0 0.0 0.0

-397581.1636237623 1.5879281932418942e7 0.0
1.5879281932418942e7 -6.194846607022768e6 0.0
0.0 0.0 0.0

-4.914564257748365e6 1.4045002013184147e7 0.0
1.4045002013184147e7 2.2649955674222566e7 0.0
0.0 0.0 0.0

5.606735940224698e6 4.040743455083046e6 0.0
4.040743455083046e6 -1.7802574469201174e7 0.0
0.0 0.0 0.0

-3.9821632055383404e6 2.0548796861640014e7 0.0
2.0548796861640014e7 1.2704149819327954e6 0.0
0.0 0.0 0.0

2.1961955241646874e6 1.288091113460193e7 0.0
1.288091113460193e7 754844.8596450051 0.0
0.0 0.0 0.0

-4.337060610751933e7 1.113155380556467e7 0.0
1.113155380556467e7 9.036563202426016e6 0.0
0.0 0.0 0.0

-6.023453645512208e6 1.819423437495583e7 0.0
1.819423437495583e7 6.759696721091595e6 0.0
0.0 0.0 0.0

-4.1068389187915497e6 6.759657001053066e6 0.0
6.759657001053066e6 3.7447913425292065e6 0.0
0.0 0.0 0.0

1.2594232178760534e6 1.2227521643263511e7 0.0
1.2227521643263511e7 -1.453108496962376e7 0.0
0.0 0.0 0.0

-3.5601481764657376e6 1.4510477738759907e7 0.0
1.4510477738759907e7 7.774083656186176e6 0.0
0.0 0.0 0.0

150332.41633035056 1.2131904186017435e7 0.0
1.2131904186017435e7 -1.7811809008164175e7 0.0
0.0 0.0 0.0

5.955329978544076e6 4.131068108711212e6 0.0
4.131068108711212e6 -2.211898224070871e7 0.0
0.0 0.0 0.0

2.5493670004643057e7 1.2687658011105413e7 0.0
1.2687658011105413e7 317443.52564677224 0.0
0.0 0.0 0.0

-7.699669479523098e7 3.2165109744531434e7 0.0
3.2165109744531434e7 -3.7558520926333666e6 0.0
0.0 0.0 0.0

2.7787982215234027e6 1.5440431913164632e7 0.0
1.5440431913164632e7 6.66812620193101e6 0.0
0.0 0.0 0.0

-2.453905804679706e6 1.6303166443031996e7 0.0
1.6303166443031996e7 -4.671052856883375e6 0.0
0.0 0.0 0.0

-5.29538215012205e6 1.5547951806816325e7 0.0
1.5547951806816325e7 8.697157585738791e6 0.0
0.0 0.0 0.0

4.769048609181842e6 5.010787098669231e6 0.0
5.010787098669231e6 -1.4603947955012646e7 0.0
0.0 0.0 0.0

-5.344081807362618e6 1.6689151581000758e7 0.0
1.6689151581000758e7 4.739206446767838e6 0.0
0.0 0.0 0.0

-3.343207849337303e6 2.1023011149944704e7 0.0
2.1023011149944704e7 1.4597683222478332e6 0.0
0.0 0.0 0.0

-256633.0482503604 1.2525586732309885e7 0.0
1.2525586732309885e7 -1.4662428862661587e7 0.0
0.0 0.0 0.0

-3.281372355203415e6 1.630570169678359e7 0.0
1.630570169678359e7 -2.0505916290413253e6 0.0
0.0 0.0 0.0

2.126092867235496e6 5.7169540198525945e6 0.0
5.7169540198525945e6 -6.242216336995151e6 0.0
0.0 0.0 0.0

477437.8535757023 1.5623190234664157e7 0.0
1.5623190234664157e7 9.75219529580303e6 0.0
0.0 0.0 0.0

-4.813308317970407e6 1.6229561096583541e7 0.0
1.6229561096583541e7 -650882.16158874 0.0
0.0 0.0 0.0

-355946.3487184476 1.3862703609003028e7 0.0
1.3862703609003028e7 -7.8506653836956555e6 0.0
0.0 0.0 0.0

-4.821015940154679e6 1.6867803419547506e7 0.0
1.6867803419547506e7 1.9643375519141417e6 0.0
0.0 0.0 0.0

2.072080837601183e6 1.0709249530766414e7 0.0
1.0709249530766414e7 -1.5689977548161669e7 0.0
0.0 0.0 0.0

-1.0692924326802695e7 -3.143384251144514e6 0.0
-3.143384251144514e6 3.1645500620228086e7 0.0
0.0 0.0 0.0

356384.2350805099 1.2505743267805537e7 0.0
1.2505743267805537e7 -1.0653298507176142e7 0.0
0.0 0.0 0.0

1.9929174365729466e6 1.2872638867968637e7 0.0
1.2872638867968637e7 -2.203565770458645e6 0.0
0.0 0.0 0.0

-5.875027705267539e6 1.5580340135975631e7 0.0
1.5580340135975631e7 -2.707624026741396e7 0.0
0.0 0.0 0.0

4.42240914408834e6 6.5053715475725215e6 0.0
6.5053715475725215e6 -1.4501963819430595e7 0.0
0.0 0.0 0.0

523751.7877072701 1.3402569514992122e7 0.0
1.3402569514992122e7 -1.0732851399596091e7 0.0
0.0 0.0 0.0

-5.620947027206566e6 1.784228804794242e7 0.0
1.784228804794242e7 7.1828236093107e6 0.0
0.0 0.0 0.0

-4.1039512552593704e6 1.8755421102252133e7 0.0
1.8755421102252133e7 896274.4748643888 0.0
0.0 0.0 0.0

-5.828722309139059e6 1.6516429251694359e7 0.0
1.6516429251694359e7 7.6997086746359505e6 0.0
0.0 0.0 0.0

934478.3577678611 1.3613040977867493e7 0.0
1.3613040977867493e7 4.274772744359289e6 0.0
0.0 0.0 0.0

-5.321209462103742e7 1.5841566921700701e7 0.0
1.5841566921700701e7 7.375617815284561e6 0.0
0.0 0.0 0.0

1.1370430842237398e6 3.592857186300484e6 0.0
3.592857186300484e6 -3.681233417902527e6 0.0
0.0 0.0 0.0

-230811.5135409009 1.0543502863866951e7 0.0
1.0543502863866951e7 -2.343211869301274e6 0.0
0.0 0.0 0.0

5.119476682952997e6 1.3648069896714604e7 0.0
1.3648069896714604e7 -1.6642599238099698e6 0.0
0.0 0.0 0.0

-4.602154090069735e6 2.1929175767261446e7 0.0
2.1929175767261446e7 4.0944960138551127e6 0.0
0.0 0.0 0.0

956177.539060968 1.1515325254744172e7 0.0
1.1515325254744172e7 -2.0772308739600956e7 0.0
0.0 0.0 0.0

-968218.7947677888 1.5108454682964938e7 0.0
1.5108454682964938e7 -3.6438595490045543e6 0.0
0.0 0.0 0.0

-790094.8143195438 1.6749049392201863e7 0.0
1.6749049392201863e7 -5.153121473388151e6 0.0
0.0 0.0 0.0

1.0189848925774535e6 1.160407501194857e7 0.0
1.160407501194857e7 -9.17069465347051e6 0.0
0.0 0.0 0.0

-430473.60235022963 1.6306189423198199e7 0.0
1.6306189423198199e7 -5.604641234717886e6 0.0
0.0 0.0 0.0

-790152.0454219112 1.402956115545057e7 0.0
1.402956115545057e7 3.4163914264447745e6 0.0
0.0 0.0 0.0

-3.663612069128341e6 1.8636467444556512e7 0.0
1.8636467444556512e7 1.0224804464034098e6 0.0
0.0 0.0 0.0

3.6216417418681392e6 8.141462200647584e6 0.0
8.141462200647584e6 -1.4144816559905484e7 0.0
0.0 0.0 0.0

5.508113427521735e6 4.427205991136531e6 0.0
4.427205991136531e6 -1.9786068856784694e7 0.0
0.0 0.0 0.0

-1.5774945076935478e6 480955.0535665149 0.0
480955.0535665149 -619342.9869497241 0.0
0.0 0.0 0.0

-5.57647211976986e6 431673.56608847756 0.0
431673.56608847756 1.4229919488272418e6 0.0
0.0 0.0 0.0

-1.9108063957200497e6 1.433841653530599e7 0.0
1.433841653530599e7 9.253578895594968e6 0.0
0.0 0.0 0.0

-446983.6306563893 1.3605684008440834e7 0.0
1.3605684008440834e7 4.1568320406920975e6 0.0
0.0 0.0 0.0

-1.286514210600715e6 1.3999255435465096e7 0.0
1.3999255435465096e7 3.521161703346089e6 0.0
0.0 0.0 0.0

3.252948609402363e6 5.463599336714694e6 0.0
5.463599336714694e6 -1.0648125512641266e7 0.0
0.0 0.0 0.0

605120.9300259668 1.5317355567845467e7 0.0
1.5317355567845467e7 -6.1135461377660055e6 0.0
0.0 0.0 0.0

2.3501977582073584e6 5.109762558773274e6 0.0
5.109762558773274e6 -6.771622628055727e6 0.0
0.0 0.0 0.0

-649834.0202255459 1.6292972370744035e7 0.0
1.6292972370744035e7 -5.644979640678876e6 0.0
0.0 0.0 0.0

-1.1951168057557065e7 1.0707944915727418e7 0.0
1.0707944915727418e7 1.740548084294928e7 0.0
0.0 0.0 0.0

-2.864749867519144e6 1.7984065162464835e7 0.0
1.7984065162464835e7 -1.2049248605690426e6 0.0
0.0 0.0 0.0

-2.4625808247915753e6 2.0477270115576256e7 0.0
2.0477270115576256e7 -53974.701905484195 0.0
0.0 0.0 0.0

3.937725094340966e6 6.848842277911016e6 0.0
6.848842277911016e6 -1.5027451009681853e7 0.0
0.0 0.0 0.0

4.213236773426669e6 6.19891613074391e6 0.0
6.19891613074391e6 -1.5302702514924739e7 0.0
0.0 0.0 0.0

6.058268653876063e6 1.461978396075112e7 0.0
1.461978396075112e7 -4.5850586464221915e6 0.0
0.0 0.0 0.0

-2.886312415233804e6 1.5314589375710607e7 0.0
1.5314589375710607e7 1.0972888445087533e7 0.0
0.0 0.0 0.0

-5517.583681382239 1.2850922090479907e7 0.0
1.2850922090479907e7 -9.944781721673468e6 0.0
0.0 0.0 0.0

-8.169365016392787e6 -7.625767673232827e6 0.0
-7.625767673232827e6 2.2052821017742313e7 0.0
0.0 0.0 0.0

-4.429558142324364e6 2.116249751495743e7 0.0
2.116249751495743e7 3.7716355911957305e6 0.0
0.0 0.0 0.0

-1.208935010820971e7 8.584641940623837e6 0.0
8.584641940623837e6 1.6463184193738258e7 0.0
0.0 0.0 0.0

-4.33279407986363e6 658151.3421362744 0.0
658151.3421362744 3.8421441900341413e6 0.0
0.0 0.0 0.0

-398794.85678134835 1.2651543262883572e7 0.0
1.2651543262883572e7 -6.060316185268293e6 0.0
0.0 0.0 0.0

5.514095796697131e6 4.475769265813154e6 0.0
4.475769265813154e6 -1.917867007291793e7 0.0
0.0 0.0 0.0

-5.460932494954494e6 1.9973062038691144e7 0.0
1.9973062038691144e7 5.975951182023755e6 0.0
0.0 0.0 0.0

-2.6528331347251656e6 1.622065851019584e7 0.0
1.622065851019584e7 -1.8662388470512903e6 0.0
0.0 0.0 0.0

2.3164110489497017e6 1.041927653927241e7 0.0
1.041927653927241e7 -1.6445499741623104e7 0.0
0.0 0.0 0.0

6.6836147684934465e6 1.297693121286311e7 0.0
1.297693121286311e7 -75112.64369732933 0.0
0.0 0.0 0.0

-5.758800475597335e6 1.9463147578008853e7 0.0
1.9463147578008853e7 6.361174579724662e6 0.0
0.0 0.0 0.0

-9.33823531421467e6 -6.663823248415986e6 0.0
-6.663823248415986e6 2.093117333253195e7 0.0
0.0 0.0 0.0

-5.247948069614027e6 -7.0905534330617925e6 0.0
-7.0905534330617925e6 1.1525998915826868e7 0.0
0.0 0.0 0.0

2.595843257667021e6 1.31059546957444e7 0.0
1.31059546957444e7 -2.0746618911964216e6 0.0
0.0 0.0 0.0

-1.9471329777669825e6 1.6208761798582276e7 0.0
1.6208761798582276e7 -4.512565713671196e6 0.0
0.0 0.0 0.0

-1.9898425931134494e6 1.6568136201759197e7 0.0
1.6568136201759197e7 -4.235871988086336e6 0.0
0.0 0.0 0.0

-1.0632920553386046e7 3.128375644570416e6 0.0
3.128375644570416e6 3.551357748343436e7 0.0
0.0 0.0 0.0

3.44456401599016e6 4.36556570908551e6 0.0
4.36556570908551e6 -8.880487125602534e6 0.0
0.0 0.0 0.0

-3.0747962908422337e6 1.6172973886709452e7 0.0
1.6172973886709452e7 -956899.4787557628 0.0
0.0 0.0 0.0

-5.285583656555982e6 1.6576939259887919e7 0.0
1.6576939259887919e7 -2.6430927579087443e6 0.0
0.0 0.0 0.0

-2.0048575018761866e7 1.878968627077681e7 0.0
1.878968627077681e7 6.557721399585031e6 0.0
0.0 0.0 0.0

-3.977898369112799e6 2.1279842944078036e7 0.0
2.1279842944078036e7 2.656601030792882e6 0.0
0.0 0.0 0.0

-91496.51996394557 1.3054466664180912e7 0.0
1.3054466664180912e7 -669842.931163898 0.0
0.0 0.0 0.0

-9.648259569856627e6 -5.853109415358625e6 0.0
-5.853109415358625e6 2.2822910907034554e7 0.0
0.0 0.0 0.0

5.10509094748095e6 1.4432460324149577e7 0.0
1.4432460324149577e7 -3.959419877990936e6 0.0
0.0 0.0 0.0

-748185.5820344498 1.3729790102955936e7 0.0
1.3729790102955936e7 -6.244287644344576e6 0.0
0.0 0.0 0.0

-8.226058399313955e6 -3.8694871679668524e6 0.0
-3.8694871679668524e6 1.5426893335996605e7 0.0
0.0 0.0 0.0

-6.144648592920274e6 1.6770062423951777e7 0.0
1.6770062423951777e7 7.098326011342144e6 0.0
0.0 0.0 0.0

-5.779581112644107e6 1.7641373831962846e7 0.0
1.7641373831962846e7 6.808699462570088e6 0.0
0.0 0.0 0.0

-384272.8729054072 3.5576916180694913e6 0.0
3.5576916180694913e6 -1.601830830774055e6 0.0
0.0 0.0 0.0

4.482660647794352e6 5.763229579965991e6 0.0
5.763229579965991e6 -1.5780395252337858e7 0.0
0.0 0.0 0.0

3.8559973586430587e6 7.673939027210431e6 0.0
7.673939027210431e6 -2.567136434244599e7 0.0
0.0 0.0 0.0

-1.0369177310686461e6 1.5115054872880735e7 0.0
1.5115054872880735e7 9.431078532507947e6 0.0
0.0 0.0 0.0

2.8084337892413405e6 5.165142978760726e6 0.0
5.165142978760726e6 -8.184329041736664e6 0.0
0.0 0.0 0.0

5.488356568092136e6 1.953504659422962e7 0.0
1.953504659422962e7 -9.389338429542022e6 0.0
0.0 0.0 0.0

4.983626231779948e6 5.382322145795706e6 0.0
5.382322145795706e6 -1.5112909869385704e7 0.0
0.0 0.0 0.0

4.146754662576498e6 5.735772641235614e6 0.0
5.735772641235614e6 -1.1422059481392683e7 0.0
0.0 0.0 0.0

4.319806372405028e6 5.658505933764966e6 0.0
5.658505933764966e6 -1.3794723125718435e7 0.0
0.0 0.0 0.0

-6859.813231187625 1.3640362548817415e7 0.0
1.3640362548817415e7 245560.33036941243 0.0
0.0 0.0 0.0

-351240.7239480106 1.3399594203326643e7 0.0
1.3399594203326643e7 3.0448630201937603e6 0.0
0.0 0.0 0.0

1.6705299466489349e6 1.1690941441792727e7 0.0
1.1690941441792727e7 -1.5138758404008226e7 0.0
0.0 0.0 0.0

3.5374279911633795e6 2.0808730403350614e7 0.0
2.0808730403350614e7 -7.806465226557005e6 0.0
0.0 0.0 0.0

-7.633822594428658e6 -5.555838960092739e6 0.0
-5.555838960092739e6 1.3969345052435862e7 0.0
0.0 0.0 0.0

-5.840748489832235e6 1.6970823017805047e7 0.0
1.6970823017805047e7 8.081245870454989e6 0.0
0.0 0.0 0.0

-4.795669832017137e6 2.0953467505571883e7 0.0
2.0953467505571883e7 3.422191902378676e6 0.0
0.0 0.0 0.0

-3.071719568578364e6 1.805981066350216e7 0.0
1.805981066350216e7 -697828.2818111081 0.0
0.0 0.0 0.0

-5.260241317672067e6 -1.265594367133262e6 0.0
-1.265594367133262e6 6.922447427336615e6 0.0
0.0 0.0 0.0

-4.7225173294140985e6 1.7094065105929945e6 0.0
1.7094065105929945e6 4.453368856194726e6 0.0
0.0 0.0 0.0

-1.363491498730035e6 1.5247068500737684e7 0.0
1.5247068500737684e7 9.738216921511803e6 0.0
0.0 0.0 0.0

702369.8340103087 3.305626113742771e6 0.0
3.305626113742771e6 -2.5365197715287236e6 0.0
0.0 0.0 0.0

171737.82051121723 1.7167556802313413e7 0.0
1.7167556802313413e7 -4.848964777052544e6 0.0
0.0 0.0 0.0

-1.9378213639360135e6 1.5584474257921372e7 0.0
1.5584474257921372e7 -5.883443800986055e6 0.0
0.0 0.0 0.0

697530.8814264457 1.3283170921274522e7 0.0
1.3283170921274522e7 -1.1505455835238913e7 0.0
0.0 0.0 0.0

-3.7710172597038373e6 1.5662803266221987e7 0.0
1.5662803266221987e7 1.162211783634295e6 0.0
0.0 0.0 0.0

-6.426737464710562e6 1.6245991539082345e7 0.0
1.6245991539082345e7 7.255509247866652e6 0.0
0.0 0.0 0.0

-1.0190640002581116e7 8.910440140037458e6 0.0
8.910440140037458e6 1.4499109604522953e7 0.0
0.0 0.0 0.0

-1.767357232089486e7 2.47647257249229e7 0.0
2.47647257249229e7 9.262509206357032e6 0.0
0.0 0.0 0.0

2.979769686236083e6 5.111667044658242e6 0.0
5.111667044658242e6 -8.395938233451806e6 0.0
0.0 0.0 0.0

292022.7456245003 1.3035832268753847e7 0.0
1.3035832268753847e7 -9.085935326405495e6 0.0
0.0 0.0 0.0

5.72004168746092e6 4.83513360117894e6 0.0
4.83513360117894e6 -2.663243150605255e7 0.0
0.0 0.0 0.0

-1.4548771070843444e6 1.6692604855483983e7 0.0
1.6692604855483983e7 -5.214500915012982e6 0.0
0.0 0.0 0.0

-5.836483569746918e6 8.387758382037648e6 0.0
8.387758382037648e6 4.583414957004775e6 0.0
0.0 0.0 0.0

-3.118282036018878e6 1.2618994373300467e7 0.0
1.2618994373300467e7 -1.6410396836147076e7 0.0
0.0 0.0 0.0

1.3243530592912363e7 1.4895488297796573e7 0.0
1.4895488297796573e7 3.079507263669105e6 0.0
0.0 0.0 0.0

-3.932050018988864e6 3.4249087356826584e6 0.0
3.4249087356826584e6 4.71686817236794e6 0.0
0.0 0.0 0.0

562989.3739170628 1.5798938004578233e7 0.0
1.5798938004578233e7 8.66237818278088e6 0.0
0.0 0.0 0.0

938952.0416743085 1.2910308374176562e7 0.0
1.2910308374176562e7 1.239976446239434e7 0.0
0.0 0.0 0.0

-3.8402868918903302e6 1.1722842352375252e7 0.0
1.1722842352375252e7 -6.889096485504137e6 0.0
0.0 0.0 0.0

-3.5801266214336185e6 2.226333542781266e7 0.0
2.226333542781266e7 -396156.7889423077 0.0
0.0 0.0 0.0

-2.857593620752503e6 1.6221561985346636e7 0.0
1.6221561985346636e7 -3.3988000143137192e6 0.0
0.0 0.0 0.0

-7.695149930235228e6 1.2381686931638317e7 0.0
1.2381686931638317e7 1.0995587471857745e7 0.0
0.0 0.0 0.0

3.7060742051885705e6 7.958852531195795e6 0.0
7.958852531195795e6 -3.466907943340469e7 0.0
0.0 0.0 0.0

-4.192334783713142e6 2.7410003915714053e6 0.0
2.7410003915714053e6 3.8138969373428356e6 0.0
0.0 0.0 0.0

-463583.1189768759 1.3942226315756094e7 0.0
1.3942226315756094e7 -4.27703935815594e6 0.0
0.0 0.0 0.0

1.8745309740595846e6 1.4340400197678136e7 0.0
1.4340400197678136e7 5.769074725490682e6 0.0
0.0 0.0 0.0

-5.045821759929713e6 9.4124557898308e6 0.0
9.4124557898308e6 6.649566246628115e6 0.0
0.0 0.0 0.0

-5.840573604946101e6 1.5574333794270838e7 0.0
1.5574333794270838e7 9.232213486504465e6 0.0
0.0 0.0 0.0

-5.105041434247809e6 1.856344260554585e7 0.0
1.856344260554585e7 5.25882351138258e6 0.0
0.0 0.0 0.0

-1.7046535313633736e7 2.5046122132293448e7 0.0
2.5046122132293448e7 9.71891893625133e6 0.0
0.0 0.0 0.0

1.3037081063453977e6 6.845791295338796e6 0.0
6.845791295338796e6 -5.453229191645349e6 0.0
0.0 0.0 0.0

-5.550020701545313e6 1.833531632949178e7 0.0
1.833531632949178e7 4.917335998887483e6 0.0
0.0 0.0 0.0

-2.297285591686834e6 1.5653782242246592e7 0.0
1.5653782242246592e7 -3.6112655032623685e6 0.0
0.0 0.0 0.0

3.5500302345251543e6 1.578218530541089e7 0.0
1.578218530541089e7 9.019259117672466e6 0.0
0.0 0.0 0.0

-3.352670410011734e6 1.7421693617053986e7 0.0
1.7421693617053986e7 -1.885553796722775e6 0.0
0.0 0.0 0.0

2.4015281172880637e6 5.1218396730467295e6 0.0
5.1218396730467295e6 -7.362344106329992e6 0.0
0.0 0.0 0.0

-905731.8510811594 1.398827022732199e7 0.0
1.398827022732199e7 -8.026334955889326e6 0.0
0.0 0.0 0.0

-8.406151504331678e6 165506.74300688526 0.0
165506.74300688526 1.1982952143774245e7 0.0
0.0 0.0 0.0

4.687814269125312e6 6.092522009142252e6 0.0
6.092522009142252e6 -1.4906386395295203e7 0.0
0.0 0.0 0.0

5.682534312712418e6 5.356318416732348e6 0.0
5.356318416732348e6 -2.8572979788715996e7 0.0
0.0 0.0 0.0

-2.1259688583842143e6 1.46191611751782e7 0.0
1.46191611751782e7 8.489393875690203e6 0.0
0.0 0.0 0.0

209721.48116740538 1.3832101401371486e7 0.0
1.3832101401371486e7 -1.0307816777284313e7 0.0
0.0 0.0 0.0

-8.032066077459564e6 1.2617534661518607e7 0.0
1.2617534661518607e7 9.547240848123947e6 0.0
0.0 0.0 0.0

4.815188590775427e6 4.491274424345324e6 0.0
4.491274424345324e6 -1.3716127978151279e7 0.0
0.0 0.0 0.0

1.5054952305250936e6 1.1751853129671324e7 0.0
1.1751853129671324e7 -1.175896181335172e7 0.0
0.0 0.0 0.0

411373.49652481545 1.2906367054878958e7 0.0
1.2906367054878958e7 -1.2172749705144517e7 0.0
0.0 0.0 0.0

-7.787687134372952e6 1.3531384333349854e7 0.0
1.3531384333349854e7 9.345901093645465e6 0.0
0.0 0.0 0.0

-4.875810224154381e6 3.99432155705846e6 0.0
3.99432155705846e6 4.365836327454389e6 0.0
0.0 0.0 0.0

-7.583747995900046e6 -2.1643865913903224e6 0.0
-2.1643865913903224e6 1.1595641657130327e7 0.0
0.0 0.0 0.0

-19754.73840394756 1.3529821912208669e7 0.0
1.3529821912208669e7 -1.0639305921105348e7 0.0
0.0 0.0 0.0

-4.723637993690877e6 7.688976123197314e6 0.0
7.688976123197314e6 4.662901187445877e6 0.0
0.0 0.0 0.0

3.1113121818083115e6 1.51893971384714e7 0.0
1.51893971384714e7 8.998305261371383e6 0.0
0.0 0.0 0.0

-2.1907222692944957e6 1.5931217451927869e7 0.0
1.5931217451927869e7 -5.394387860927003e6 0.0
0.0 0.0 0.0

2.487086122040885e6 5.140128676623075e6 0.0
5.140128676623075e6 -6.907545377857362e6 0.0
0.0 0.0 0.0

-1.1089387337693918e7 1.2911250780625765e6 0.0
1.2911250780625765e6 2.438479611736475e7 0.0
0.0 0.0 0.0

-4.660809581176422e6 1.9457614801382046e7 0.0
1.9457614801382046e7 3.0148980112803844e6 0.0
0.0 0.0 0.0

-7.808737207734158e6 2.062676732550677e7 0.0
2.062676732550677e7 6.896501359500852e6 0.0
0.0 0.0 0.0

-5.692528287612863e6 3.650834202346697e6 0.0
3.650834202346697e6 4.851830853516619e6 0.0
0.0 0.0 0.0

-9.517640863135032e6 -3.0003915972344046e6 0.0
-3.0003915972344046e6 1.7498840609595142e7 0.0
0.0 0.0 0.0

2.0699301900524022e6 1.0780692906390116e7 0.0
1.0780692906390116e7 -1.656198687651801e7 0.0
0.0 0.0 0.0

-7.087216702831266e6 1.3987558179280201e7 0.0
1.3987558179280201e7 1.0114372420733444e7 0.0
0.0 0.0 0.0

-1.1703591590493659e7 2.54170009397278e6 0.0
2.54170009397278e6 2.4813591404218145e7 0.0
0.0 0.0 0.0

-4.14065881986288e7 1.2300845188449554e7 0.0
1.2300845188449554e7 1.0857267906071786e7 0.0
0.0 0.0 0.0

1.5133581767531666e6 1.0154551216158787e7 0.0
1.0154551216158787e7 -1.0567871747492768e7 0.0
0.0 0.0 0.0

45373.089619140956 1.3466165199684499e7 0.0
1.3466165199684499e7 -884529.6000568874 0.0
0.0 0.0 0.0

5.702293332848273e6 3.9317439158402733e6 0.0
3.9317439158402733e6 -1.870743376051215e7 0.0
0.0 0.0 0.0

-4.862390051709301e6 1.4955810990180481e7 0.0
1.4955810990180481e7 1.2086498097338328e7 0.0
0.0 0.0 0.0

-1.2463735842509082e7 2.48202295506036e6 0.0
2.48202295506036e6 2.2273309486810174e7 0.0
0.0 0.0 0.0

1.5078312199270125e6 6.257984270692891e6 0.0
6.257984270692891e6 -6.540921391105593e6 0.0
0.0 0.0 0.0

-2.2043221437584152e6 1.5708638887827886e7 0.0
1.5708638887827886e7 -3.5491649259769055e6 0.0
0.0 0.0 0.0

-4.685373306355692e6 1.7494048978460286e7 0.0
1.7494048978460286e7 1.8675191788958886e6 0.0
0.0 0.0 0.0

-6.01514825208874e6 1.5659759835085208e7 0.0
1.5659759835085208e7 7.022721983736165e6 0.0
0.0 0.0 0.0

-6.287270589446612e6 2.0305137792548046e7 0.0
2.0305137792548046e7 6.213506537226897e6 0.0
0.0 0.0 0.0

-4.279656442321083e6 1.436777421761874e7 0.0
1.436777421761874e7 607400.856762958 0.0
0.0 0.0 0.0

-1.084509803848559e7 -4.315745482966952e6 0.0
-4.315745482966952e6 2.750144353737743e7 0.0
0.0 0.0 0.0

-556346.8587299781 1.4700732410673078e7 0.0
1.4700732410673078e7 8.037488196511493e6 0.0
0.0 0.0 0.0

627652.931778634 1.2895982085917143e7 0.0
1.2895982085917143e7 -1.0045443257839276e7 0.0
0.0 0.0 0.0

-1.0785902528227996e7 1.902043291422597e7 0.0
1.902043291422597e7 4.797837212447144e6 0.0
0.0 0.0 0.0

-1.2079977417912039e6 2.558982998826295e6 0.0
2.558982998826295e6 -266866.4703513755 0.0
0.0 0.0 0.0

-4.459897286939149e6 2.071622459482052e7 0.0
2.071622459482052e7 4.022551988562799e6 0.0
0.0 0.0 0.0

-111017.20564263134 1.3181070779397305e7 0.0
1.3181070779397305e7 -1.7386738950865513e6 0.0
0.0 0.0 0.0

-1.1979459171912577e7 1.1471887850535022e7 0.0
1.1471887850535022e7 1.5771698806989223e7 0.0
0.0 0.0 0.0

3.0955268715312826e6 9.27588977004253e6 0.0
9.27588977004253e6 -1.3643090551846625e7 0.0
0.0 0.0 0.0

-1.0768898000587575e7 1.0150116006163713e7 0.0
1.0150116006163713e7 1.5337379292125322e7 0.0
0.0 0.0 0.0

2.220518870806104e6 5.18257668572329e6 0.0
5.18257668572329e6 -6.617320417235794e6 0.0
0.0 0.0 0.0

4.366088364054194e6 6.790614841471647e6 0.0
6.790614841471647e6 -1.484145453307077e7 0.0
0.0 0.0 0.0

-623488.7631303425 1.5259569272016918e7 0.0
1.5259569272016918e7 -3.897525841583331e6 0.0
0.0 0.0 0.0

-4.445667019748247e6 1.5454592405245533e7 0.0
1.5454592405245533e7 2.276823427079005e6 0.0
0.0 0.0 0.0

-4.386445369355314e6 1.7663521595105473e7 0.0
1.7663521595105473e7 2.787447944551099e6 0.0
0.0 0.0 0.0

-855979.9576791492 1.6262961345744522e7 0.0
1.6262961345744522e7 -5.613552459407555e6 0.0
0.0 0.0 0.0

4.607934068616542e6 5.767088090941598e6 0.0
5.767088090941598e6 -1.377828714420902e7 0.0
0.0 0.0 0.0

1.7759192044406147e6 5.1047050931088645e6 0.0
5.1047050931088645e6 -5.724683087092834e6 0.0
0.0 0.0 0.0

4.089345938415028e6 6.457647400793275e6 0.0
6.457647400793275e6 -1.5617933331618907e7 0.0
0.0 0.0 0.0

2.032270015040968e6 6.230175133730666e6 0.0
6.230175133730666e6 -6.8017912822165815e6 0.0
0.0 0.0 0.0

6.868582131485805e6 1.5027569501225464e7 0.0
1.5027569501225464e7 7.130098574159753e6 0.0
0.0 0.0 0.0

-5.505382413727477e6 2.253833165610425e7 0.0
2.253833165610425e7 5.198271333363617e6 0.0
0.0 0.0 0.0

-8.695365982626773e6 -6.443717986618283e6 0.0
-6.443717986618283e6 2.001490059914768e7 0.0
0.0 0.0 0.0

4.523812744515673e6 7.4288481970573235e6 0.0
7.4288481970573235e6 -2.357432708839389e7 0.0
0.0 0.0 0.0

-1.131354627545305e6 1.6657706872237459e7 0.0
1.6657706872237459e7 -5.162015418822147e6 0.0
0.0 0.0 0.0

-748815.5784382826 1.498209709201991e7 0.0
1.498209709201991e7 -4.845235904334432e6 0.0
0.0 0.0 0.0

4.228453734064853e6 6.984072693577062e6 0.0
6.984072693577062e6 -1.8853793247610018e7 0.0
0.0 0.0 0.0

-7.560615185781213e6 2.2561646536702648e7 0.0
2.2561646536702648e7 7.281007538878698e6 0.0
0.0 0.0 0.0

-1.0275102511710199e6 1.5971078054422807e7 0.0
1.5971078054422807e7 1.01069065386918e7 0.0
0.0 0.0 0.0

-2.9305830201098528e7 2.160177490484912e7 0.0
2.160177490484912e7 1.1547581562710403e7 0.0
0.0 0.0 0.0

-5.785731366683412e6 1.4598040164396796e7 0.0
1.4598040164396796e7 1.1371852923765747e7 0.0
0.0 0.0 0.0

3.152220611524812e6 8.68557630408728e6 0.0
8.68557630408728e6 -1.3914331369578185e7 0.0
0.0 0.0 0.0

3.5514695715068385e7 1.514371667225791e7 0.0
1.514371667225791e7 2.5598909801055975e6 0.0
0.0 0.0 0.0

-2.7477625011947863e6 1.543459894546963e7 0.0
1.543459894546963e7 1.2262782670989614e7 0.0
0.0 0.0 0.0

-9.289015210917957e6 332474.8304068878 0.0
332474.8304068878 1.3130233433605235e7 0.0
0.0 0.0 0.0

-414882.8709373197 1.3704078277713304e7 0.0
1.3704078277713304e7 3.285049575924065e6 0.0
0.0 0.0 0.0

76654.22919997294 1.2267269990615435e7 0.0
1.2267269990615435e7 -1.4266546148952188e7 0.0
0.0 0.0 0.0

2.09699524849202e6 1.6514073021549001e7 0.0
1.6514073021549001e7 -5.149862423754445e6 0.0
0.0 0.0 0.0

-5.841816620322303e6 1.5770312001143424e7 0.0
1.5770312001143424e7 5.848276278922983e6 0.0
0.0 0.0 0.0

-1.1987781732789755e7 943623.4472009602 0.0
943623.4472009602 2.1553847179063447e7 0.0
0.0 0.0 0.0

-7.448035334030524e6 2.2896491411102463e7 0.0
2.2896491411102463e7 6.3391369598038215e6 0.0
0.0 0.0 0.0

-5.089032671292521e6 1.6168661778710388e7 0.0
1.6168661778710388e7 3.237678172641064e6 0.0
0.0 0.0 0.0

-4.875210922224898e6 1.7363976630275257e7 0.0
1.7363976630275257e7 2.2950693173907227e6 0.0
0.0 0.0 0.0

-2.9137888008496e6 1.9395400405833263e7 0.0
1.9395400405833263e7 -629536.7464886603 0.0
0.0 0.0 0.0

-4.646490073286669e6 1.9102181655829273e7 0.0
1.9102181655829273e7 2.827227047664489e6 0.0
0.0 0.0 0.0

-211270.90022956877 1.3700857427879e7 0.0
1.3700857427879e7 -845420.4177656522 0.0
0.0 0.0 0.0

-3.2992901076088576e6 1.5050305439994102e7 0.0
1.5050305439994102e7 9.059606943425734e6 0.0
0.0 0.0 0.0

1.3633752800242524e6 1.3081318942086056e7 0.0
1.3081318942086056e7 -1.8845829201001893e6 0.0
0.0 0.0 0.0

-2.476001143911517e6 1.3264411442902282e7 0.0
1.3264411442902282e7 -2.0153915719858896e7 0.0
0.0 0.0 0.0

-265665.3405839399 1.3812103556154635e7 0.0
1.3812103556154635e7 200716.0384893886 0.0
0.0 0.0 0.0

-4.594513693893323e6 1.5264269664209908e7 0.0
1.5264269664209908e7 1.2841275590558813e6 0.0
0.0 0.0 0.0

-3.1851245381059004e6 1.0870430071569258e7 0.0
1.0870430071569258e7 1.2688320238789205e7 0.0
0.0 0.0 0.0

-933929.0180146997 1.4840195579665983e7 0.0
1.4840195579665983e7 -7.101997723992362e6 0.0
0.0 0.0 0.0

1.231092992782821e6 1.1551552422173178e7 0.0
1.1551552422173178e7 -1.2475099664017662e7 0.0
0.0 0.0 0.0

4.752050156599379e6 5.458024651305421e6 0.0
5.458024651305421e6 -1.4203738000393804e7 0.0
0.0 0.0 0.0

-2.9686457626755945e6 1.5434076188907998e7 0.0
1.5434076188907998e7 1.1498247306085348e7 0.0
0.0 0.0 0.0

-2.7948383417153927e6 1.4911758506397845e7 0.0
1.4911758506397845e7 6.306133330352985e6 0.0
0.0 0.0 0.0

-1.1174848298388802e7 1.0587869620504282e7 0.0
1.0587869620504282e7 1.5393344162276108e7 0.0
0.0 0.0 0.0

-5.790805624998173e6 1.5407270105042633e7 0.0
1.5407270105042633e7 6.459479876613636e6 0.0
0.0 0.0 0.0

-1.356161314033562e6 1.5367378718762184e7 0.0
1.5367378718762184e7 -4.053247069990358e6 0.0
0.0 0.0 0.0

-1.142276913824736e7 1.0832459326142574e7 0.0
1.0832459326142574e7 1.3908419857328273e7 0.0
0.0 0.0 0.0

-1.2383264166726504e7 1.0613422122433556e7 0.0
1.0613422122433556e7 1.5975931879610833e7 0.0
0.0 0.0 0.0

-1.0593868043413838e7 9.10373863038364e6 0.0
9.10373863038364e6 1.2657916004950896e7 0.0
0.0 0.0 0.0

-7.394175579628313e6 -3.1702642883054386e6 0.0
-3.1702642883054386e6 1.042221398114517e7 0.0
0.0 0.0 0.0

-5.724760532100124e6 1.6966974821661495e7 0.0
1.6966974821661495e7 7.250612134193055e6 0.0
0.0 0.0 0.0

105533.91473402362 1.209563579888594e7 0.0
1.209563579888594e7 -1.908606316321436e7 0.0
0.0 0.0 0.0

1.240564885469542e6 1.1692633408676682e7 0.0
1.1692633408676682e7 -1.5171934922380237e7 0.0
0.0 0.0 0.0

-1.753223426608829e7 2.0962141337720644e7 0.0
2.0962141337720644e7 2.8579763626228245e6 0.0
0.0 0.0 0.0

-1.1108248112171253e7 408825.18294049334 0.0
408825.18294049334 2.841174220839403e7 0.0
0.0 0.0 0.0

1.5466487602686891e6 1.199158046135187e7 0.0
1.199158046135187e7 -1.4314699659211606e7 0.0
0.0 0.0 0.0

-4.264194437941701e6 1.939405933311858e7 0.0
1.939405933311858e7 1.7422698443451365e6 0.0
0.0 0.0 0.0

-165360.31800111895 1.401653844185321e7 0.0
1.401653844185321e7 5.979290782675085e6 0.0
0.0 0.0 0.0

-2.960132595023615e6 -2.834967404085961e6 0.0
-2.834967404085961e6 6.906323234609041e6 0.0
0.0 0.0 0.0

-456087.0390057419 1.3500255223525897e7 0.0
1.3500255223525897e7 -1.8948241171344053e6 0.0
0.0 0.0 0.0

-1.8846140815112137e6 1.4407569158927053e7 0.0
1.4407569158927053e7 -4.940242815439303e6 0.0
0.0 0.0 0.0

-7.347282987747781e6 5.083159626028217e6 0.0
5.083159626028217e6 7.269389686736258e6 0.0
0.0 0.0 0.0

5.955817314196859e6 3.5524454959612503e6 0.0
3.5524454959612503e6 -2.2656335311298493e7 0.0
0.0 0.0 0.0

542789.8605449307 8.273081877848132e6 0.0
8.273081877848132e6 -6.490874080689966e6 0.0
0.0 0.0 0.0

-1.1128509306629451e7 -2.0859048966850548e6 0.0
-2.0859048966850548e6 1.5737081866857298e7 0.0
0.0 0.0 0.0

-1.152304983816816e6 1.5143720919247089e7 0.0
1.5143720919247089e7 -7.496256068279355e6 0.0
0.0 0.0 0.0

1.1531114983072532e6 1.4416261883005934e7 0.0
1.4416261883005934e7 1.0343930155599734e7 0.0
0.0 0.0 0.0

526668.6397726578 7.989764210153038e6 0.0
7.989764210153038e6 -4.543865074799394e6 0.0
0.0 0.0 0.0

-996721.6022719638 1.5459901078473698e7 0.0
1.5459901078473698e7 1.0708664016275778e7 0.0
0.0 0.0 0.0

-6.076306390043834e6 2.30141064642549e7 0.0
2.30141064642549e7 5.429857304256788e6 0.0
0.0 0.0 0.0

-9.759556844977897e6 643870.9000459474 0.0
643870.9000459474 1.1235649487594076e7 0.0
0.0 0.0 0.0

-2.892990026556789e6 1.5027211336926047e7 0.0
1.5027211336926047e7 8.971454992929727e6 0.0
0.0 0.0 0.0

2.70937987392319e6 8.901522505908126e6 0.0
8.901522505908126e6 -1.4250381999571143e7 0.0
0.0 0.0 0.0

-1.1550761235899353e7 1.7770982347696863e7 0.0
1.7770982347696863e7 5.100909643550295e6 0.0
0.0 0.0 0.0

-2.6911262635385436e6 1.5378412394249812e6 0.0
1.5378412394249812e6 1.7094787391241817e6 0.0
0.0 0.0 0.0

-4.037441246548535e6 1.6383186652095512e7 0.0
1.6383186652095512e7 -2.710191595755506e6 0.0
0.0 0.0 0.0

1.3428013944747355e7 1.555724272613017e7 0.0
1.555724272613017e7 3.396226744328717e6 0.0
0.0 0.0 0.0

-2.650888693214598e6 1.5772374767895304e7 0.0
1.5772374767895304e7 -3.3617383863152536e6 0.0
0.0 0.0 0.0

3.0202264003367247e6 9.020066499438675e6 0.0
9.020066499438675e6 -1.3254194258602599e7 0.0
0.0 0.0 0.0

-5.656721600944128e6 1.7035943171602298e7 0.0
1.7035943171602298e7 7.798532433020668e6 0.0
0.0 0.0 0.0

-1.0841780300255239e7 -2.915488064807021e6 0.0
-2.915488064807021e6 3.25087244252034e7 0.0
0.0 0.0 0.0

-2.52322492339531e6 1.5062882519916918e7 0.0
1.5062882519916918e7 -5.555704635307587e6 0.0
0.0 0.0 0.0

-4.580703775663918e6 2.1054547805740055e7 0.0
2.1054547805740055e7 4.215632143427689e6 0.0
0.0 0.0 0.0

1.2255490742701227e6 1.122369408124909e7 0.0
1.122369408124909e7 -1.8857583616611395e7 0.0
0.0 0.0 0.0

646838.5712381983 1.3327687034542782e7 0.0
1.3327687034542782e7 -1.1567305128811775e7 0.0
0.0 0.0 0.0

835627.8631964405 1.299045896122632e7 0.0
1.299045896122632e7 -1.2235901382034475e7 0.0
0.0 0.0 0.0

-1.2352388187999606e7 8.166149427474156e6 0.0
8.166149427474156e6 1.9843582096699405e7 0.0
0.0 0.0 0.0

-6.035478693089091e6 1.615604840703073e7 0.0
1.615604840703073e7 6.261675127344418e6 0.0
0.0 0.0 0.0

-9.68925773667495e6 8.938845398378974e6 0.0
8.938845398378974e6 6.259096143363878e7 0.0
0.0 0.0 0.0

6.509917791938083e6 1.0161145516937852e7 0.0
1.0161145516937852e7 -4.4756368097678274e7 0.0
0.0 0.0 0.0

-9.516211710279424e6 1.998491668636587e7 0.0
1.998491668636587e7 406818.6491346932 0.0
0.0 0.0 0.0

-3.538235845287974e6 1.442225434347995e7 0.0
1.442225434347995e7 6.844446886810925e6 0.0
0.0 0.0 0.0

-1.1352470267671475e7 1.8145108423036434e7 0.0
1.8145108423036434e7 1.5521511416742941e6 0.0
0.0 0.0 0.0

-3.5639505920050107e6 1.207802079653627e6 0.0
1.207802079653627e6 5.105348466645975e6 0.0
0.0 0.0 0.0

-9.58407998483571e6 1.1901458283537513e7 0.0
1.1901458283537513e7 1.2013026706617907e7 0.0
0.0 0.0 0.0

-4.634633091635768e6 1.6914806367277656e7 0.0
1.6914806367277656e7 -2.0398026588241993e6 0.0
0.0 0.0 0.0

-1.0356978755021665e7 -920684.2007231951 0.0
-920684.2007231951 1.7921803588158064e7 0.0
0.0 0.0 0.0

1.3378932063648308e7 1.4560209132831044e7 0.0
1.4560209132831044e7 3.289941351957377e6 0.0
0.0 0.0 0.0

-3.326052745103627e6 1.522342425803239e7 0.0
1.522342425803239e7 1.0814377173166137e7 0.0
0.0 0.0 0.0

-6.956344332335072e6 1.386189463969075e7 0.0
1.386189463969075e7 9.86815155929655e6 0.0
0.0 0.0 0.0

-2.0379278935741313e7 2.2163468554788306e7 0.0
2.2163468554788306e7 1.2419804815168127e7 0.0
0.0 0.0 0.0

1.4096305224658137e6 1.369281652491827e7 0.0
1.369281652491827e7 1.5937927997914106e6 0.0
0.0 0.0 0.0

1.9563508441399974e6 1.271474801899571e7 0.0
1.271474801899571e7 -2.9360435322889662e6 0.0
0.0 0.0 0.0

-5.5587262152458215e6 1.787477900784673e7 0.0
1.787477900784673e7 7.23809334120978e6 0.0
0.0 0.0 0.0

-3.3494482408989086e6 1.5773916458966449e7 0.0
1.5773916458966449e7 -277820.2632118026 0.0
0.0 0.0 0.0

-88721.36326751369 1.1485242505484473e7 0.0
1.1485242505484473e7 -2.875521848076462e6 0.0
0.0 0.0 0.0

1.899918562564905e6 1.3459595500213763e7 0.0
1.3459595500213763e7 -4.345091890855362e6 0.0
0.0 0.0 0.0

-2.07862269144283e6 1.4219667323025942e7 0.0
1.4219667323025942e7 8.422586940688223e6 0.0
0.0 0.0 0.0

-2.8533160162602467e6 2.1468285623998858e7 0.0
2.1468285623998858e7 664227.3844374879 0.0
0.0 0.0 0.0

-5.897884655590947e6 1.6774740220913125e7 0.0
1.6774740220913125e7 7.633174550834526e6 0.0
0.0 0.0 0.0

-6.857714215381771e6 2.2732651505888835e7 0.0
2.2732651505888835e7 4.990876404771201e6 0.0
0.0 0.0 0.0

-1.5534759903049236e6 1.3020774793250354e7 0.0
1.3020774793250354e7 -2.2152941054423384e7 0.0
0.0 0.0 0.0

-5.4383517222393975e6 1.5785406645072136e7 0.0
1.5785406645072136e7 -3.901696662179494e7 0.0
0.0 0.0 0.0

5.4240375927249715e6 1.5486570234491754e7 0.0
1.5486570234491754e7 5.241283672181786e7 0.0
0.0 0.0 0.0

1.3926317866567713e6 1.4650175259521505e7 0.0
1.4650175259521505e7 1.0163676824830644e7 0.0
0.0 0.0 0.0

3.4714634106266676e6 8.458095679629734e6 0.0
8.458095679629734e6 -2.1357873025797512e7 0.0
0.0 0.0 0.0

-3.8325800686661103e6 2.129868835687683e7 0.0
2.129868835687683e7 443685.50747501943 0.0
0.0 0.0 0.0

-1.6630402685856153e6 1.5831569603428246e7 0.0
1.5831569603428246e7 -5.243417437360699e6 0.0
0.0 0.0 0.0

-485933.8573980181 1.4155690889096905e7 0.0
1.4155690889096905e7 -3.884028334016366e6 0.0
0.0 0.0 0.0

-809349.1367422619 1.5324270725773966e7 0.0
1.5324270725773966e7 -7.213376531919028e6 0.0
0.0 0.0 0.0

-2.446838828183308e7 2.2670535614325203e7 0.0
2.2670535614325203e7 1.3327700339083692e7 0.0
0.0 0.0 0.0

-4.969237136309018e6 2.0834008299503602e7 0.0
2.0834008299503602e7 3.8558333434236916e6 0.0
0.0 0.0 0.0

-6.209894932532254e6 1.8134201310304876e7 0.0
1.8134201310304876e7 6.671670436424231e6 0.0
0.0 0.0 0.0

5.711133444748344e6 4.420933898587975e6 0.0
4.420933898587975e6 -2.4200937023527473e7 0.0
0.0 0.0 0.0

1.9975204636322418e6 1.704109601649279e7 0.0
1.704109601649279e7 -5.345988733128562e6 0.0
0.0 0.0 0.0

1.0896764235616978e6 1.1544802861279378e7 0.0
1.1544802861279378e7 -1.8070253835582104e7 0.0
0.0 0.0 0.0

1.0861899456952857e6 1.744210467361275e7 0.0
1.744210467361275e7 -4.895970451258726e6 0.0
0.0 0.0 0.0

195818.9569912525 1.0945066553795096e7 0.0
1.0945066553795096e7 -2.138136021660189e6 0.0
0.0 0.0 0.0

-2.5743353279438894e6 1.546949878225434e7 0.0
1.546949878225434e7 9.503037122263338e6 0.0
0.0 0.0 0.0

-5.697795314770672e6 1.9387117582690362e7 0.0
1.9387117582690362e7 5.939878594654018e6 0.0
0.0 0.0 0.0

-7.784727637234193e6 -5.538935481428609e6 0.0
-5.538935481428609e6 1.4315372929324418e7 0.0
0.0 0.0 0.0

6.6901124526593685e6 1.3489080408378014e7 0.0
1.3489080408378014e7 -2.375899483820289e6 0.0
0.0 0.0 0.0

-4.531549523257919e7 1.727425694221011e7 0.0
1.727425694221011e7 9.733472913445871e6 0.0
0.0 0.0 0.0

-1.2878721641147938e7 8.247007582010028e6 0.0
8.247007582010028e6 1.801182928806872e7 0.0
0.0 0.0 0.0

-4.672858167714142e6 1.594974408867757e7 0.0
1.594974408867757e7 3.311702623792009e6 0.0
0.0 0.0 0.0

1.9602316767470844e6 1.3661666419097055e7 0.0
1.3661666419097055e7 -2.7153960034275968e6 0.0
0.0 0.0 0.0

5.375715098903271e6 4.725155232490285e6 0.0
4.725155232490285e6 -1.7118400849840283e7 0.0
0.0 0.0 0.0

-3.511543712584053e6 1.4686828201890614e7 0.0
1.4686828201890614e7 5.411847371542685e6 0.0
0.0 0.0 0.0

-1.041920712951225e7 -4.5704863129649395e6 0.0
-4.5704863129649395e6 2.8029494315803442e7 0.0
0.0 0.0 0.0

-6.454868389532231e6 1.77458154104421e7 0.0
1.77458154104421e7 -4.44517927152547e7 0.0
0.0 0.0 0.0

6.208862541377408e6 2.006512494830911e7 0.0
2.006512494830911e7 5.936080849673254e7 0.0
0.0 0.0 0.0

2.3323373772496404e6 1.0407113725592349e7 0.0
1.0407113725592349e7 -1.7094993005500525e7 0.0
0.0 0.0 0.0

1.5259260881355966e6 5.122723345824643e6 0.0
5.122723345824643e6 -5.500053133971097e6 0.0
0.0 0.0 0.0

1.8892806104622444e6 1.4347262044031397e7 0.0
1.4347262044031397e7 5.76538813891834e6 0.0
0.0 0.0 0.0

-1.124501116489806e7 -2.147072112399805e6 0.0
-2.147072112399805e6 3.2561977120906964e7 0.0
0.0 0.0 0.0

1.211179095760504e6 7.058680990274945e6 0.0
7.058680990274945e6 -5.908513922676013e6 0.0
0.0 0.0 0.0

-2.51266171058532e6 2.079564204123655e7 0.0
2.079564204123655e7 -1.3127456898079305e6 0.0
0.0 0.0 0.0

-638412.2786156237 1.3682876652775515e7 0.0
1.3682876652775515e7 -8.65948357893212e6 0.0
0.0 0.0 0.0

532630.5765963586 1.4401842333714554e7 0.0
1.4401842333714554e7 7.468250566847671e6 0.0
0.0 0.0 0.0

-2.8140890507576424e6 1.6062248731866213e7 0.0
1.6062248731866213e7 108733.39577346249 0.0
0.0 0.0 0.0

-1.3375438437803145e7 1.7222292779586863e7 0.0
1.7222292779586863e7 37357.129406512715 0.0
0.0 0.0 0.0

-5.0376316987661505e6 2.066814734621068e7 0.0
2.066814734621068e7 4.197652111500511e6 0.0
0.0 0.0 0.0

-789956.241885327 1.4060742441097483e7 0.0
1.4060742441097483e7 4.5308953619237635e6 0.0
0.0 0.0 0.0

-3.5229568034583214e6 1.4845501806630012e7 0.0
1.4845501806630012e7 8.035498168067848e6 0.0
0.0 0.0 0.0

1.210572774791082e6 1.1998939828219965e7 0.0
1.1998939828219965e7 -1.2104665277694616e7 0.0
0.0 0.0 0.0

-860910.0705378065 1.499049512965574e7 0.0
1.499049512965574e7 -7.769225119977799e6 0.0
0.0 0.0 0.0

-1.16695782344986e7 -945652.240642431 0.0
-945652.240642431 3.0986771770246763e7 0.0
0.0 0.0 0.0

-2.1925444501616284e7 2.4334046009696305e7 0.0
2.4334046009696305e7 1.0493844281580815e7 0.0
0.0 0.0 0.0

-1.0662598077648979e7 2.146281927431706e7 0.0
2.146281927431706e7 8.300472467543002e6 0.0
0.0 0.0 0.0

-1.8971396346338473e7 1.7419440412729144e7 0.0
1.7419440412729144e7 8.363416577185055e6 0.0
0.0 0.0 0.0

-384820.3210373129 1.4062213096513674e7 0.0
1.4062213096513674e7 1.0205266675864987e6 0.0
0.0 0.0 0.0

-3.904858035805124e6 1.637382264416721e7 0.0
1.637382264416721e7 -336478.47208779 0.0
0.0 0.0 0.0

-1.0338536302587485e7 1.8820745986039687e7 0.0
1.8820745986039687e7 4.928790707401656e6 0.0
0.0 0.0 0.0

1.7888574117011544e6 6.640849713589085e6 0.0
6.640849713589085e6 -5.9886550789038995e6 0.0
0.0 0.0 0.0

-332872.64660566347 1.4848496494155748e7 0.0
1.4848496494155748e7 8.1574271370245945e6 0.0
0.0 0.0 0.0

4.249053551285993e6 7.899472792306904e6 0.0
7.899472792306904e6 -2.0779025531024873e7 0.0
0.0 0.0 0.0

-1.1949838987550689e7 9.192930516184686e6 0.0
9.192930516184686e6 1.913461688624659e7 0.0
0.0 0.0 0.0

-1.0469502793219192e7 -2.618467585024857e6 0.0
-2.618467585024857e6 3.360721867423917e7 0.0
0.0 0.0 0.0

5.85797418241098e6 4.505309468533198e6 0.0
4.505309468533198e6 -2.40332423751391e7 0.0
0.0 0.0 0.0

-2.1854031090617042e7 1.8191309166182905e7 0.0
1.8191309166182905e7 7.462410315261813e6 0.0
0.0 0.0 0.0

-1.00237231930181e7 -5.780741358379301e6 0.0
-5.780741358379301e6 2.4706005993253343e7 0.0
0.0 0.0 0.0

-8.78461250604185e6 -6.588424261212513e6 0.0
-6.588424261212513e6 1.963510545430581e7 0.0
0.0 0.0 0.0

1.3999748988230987e6 6.407296226515479e6 0.0
6.407296226515479e6 -7.0263493246454345e6 0.0
0.0 0.0 0.0

-8.951033211299166e6 -4.555987150513946e6 0.0
-4.555987150513946e6 1.9023230082610067e7 0.0
0.0 0.0 0.0

-4.2506578538217675e6 2.6492149396744464e7 0.0
2.6492149396744464e7 -4.189537748217059e6 0.0
0.0 0.0 0.0

-6.693412860401716e6 1.4597801399513531e7 0.0
1.4597801399513531e7 9.55135275293056e6 0.0
0.0 0.0 0.0

5.382325929085592e6 5.19155850450976e6 0.0
5.19155850450976e6 -2.887162020684222e7 0.0
0.0 0.0 0.0

5.09595145061834e6 5.0181700807152e6 0.0
5.0181700807152e6 -1.9712443460886095e7 0.0
0.0 0.0 0.0

-6.143098165373813e6 1.589495140785428e7 0.0
1.589495140785428e7 5.6639428759251665e6 0.0
0.0 0.0 0.0

-6.565651451247677e6 2.26138705569104e7 0.0
2.26138705569104e7 6.104372937701967e6 0.0
0.0 0.0 0.0

778196.9820432779 8.550165989612643e6 0.0
8.550165989612643e6 2.8691710361162024e6 0.0
0.0 0.0 0.0

995597.0717649753 1.5833911156391274e7 0.0
1.5833911156391274e7 1.0105900373546125e7 0.0
0.0 0.0 0.0

1.9736485961992412e6 1.651703163922751e7 0.0
1.651703163922751e7 -5.076466892318999e6 0.0
0.0 0.0 0.0

-1.0390965676214421e7 -5.546543180243809e6 0.0
-5.546543180243809e6 2.416881998725427e7 0.0
0.0 0.0 0.0

-1.3801926692140272e7 1.4601543313436344e7 0.0
1.4601543313436344e7 8.225462251521899e6 0.0
0.0 0.0 0.0

-4.955514624370471e6 2.0320264627320543e7 0.0
2.0320264627320543e7 3.9931512220205e6 0.0
0.0 0.0 0.0

-4.0944492414016575e6 1.4451656694358608e7 0.0
1.4451656694358608e7 2.492780728411911e7 0.0
0.0 0.0 0.0

2.6314481016577138e6 1.6726754369451681e7 0.0
1.6726754369451681e7 -4.8245771743537495e6 0.0
0.0 0.0 0.0

-1.08331968092462e6 1.5557393774303138e7 0.0
1.5557393774303138e7 -3.7495594985444313e6 0.0
0.0 0.0 0.0

-5.765865740533769e6 1.51958399907111e7 0.0
1.51958399907111e7 9.70739708839902e6 0.0
0.0 0.0 0.0

-1.2550333200778938e6 1.4903656722132642e7 0.0
1.4903656722132642e7 -4.385150243235747e6 0.0
0.0 0.0 0.0

-4.336904956731332e7 2.3776023885965113e7 0.0
2.3776023885965113e7 3.9290258610988837e6 0.0
0.0 0.0 0.0

-7.425155619821055e6 1.4300385852812251e7 0.0
1.4300385852812251e7 9.081977918425318e6 0.0
0.0 0.0 0.0

-1.1464446101116461e6 1.5594734653195467e7 0.0
1.5594734653195467e7 -3.487313625422815e6 0.0
0.0 0.0 0.0

-5.475125790398022e6 1.5651030486858303e7 0.0
1.5651030486858303e7 9.241678806173159e6 0.0
0.0 0.0 0.0

1.1081607618481247e6 1.623277381676838e7 0.0
1.623277381676838e7 -4.987116586533367e6 0.0
0.0 0.0 0.0

5.100801854887571e6 4.761460146735647e6 0.0
4.761460146735647e6 -1.6696188545059921e7 0.0
0.0 0.0 0.0

-752809.6902693189 1.5892357166500024e7 0.0
1.5892357166500024e7 -6.026761404372594e6 0.0
0.0 0.0 0.0

-2.2387135307093147e7 2.39242966877e7 0.0
2.39242966877e7 9.737014472629417e6 0.0
0.0 0.0 0.0

-6.209371550221644e6 2.0076175209027722e7 0.0
2.0076175209027722e7 6.574364391177858e6 0.0
0.0 0.0 0.0

-7.570455772898659e6 -3.128914795060961e6 0.0
-3.128914795060961e6 1.0629152139095983e7 0.0
0.0 0.0 0.0

-275405.88237494044 1.3798482137094432e7 0.0
1.3798482137094432e7 -1.0104569470595729e7 0.0
0.0 0.0 0.0

5.314873020983648e6 1.3969542987559222e7 0.0
1.3969542987559222e7 -1.6234497220227045e6 0.0
0.0 0.0 0.0

-4.032213146442218e7 1.8561857923355225e7 0.0
1.8561857923355225e7 9.907901380169317e6 0.0
0.0 0.0 0.0

288802.607363099 1.3404199888351444e7 0.0
1.3404199888351444e7 4.934298130743442e6 0.0
0.0 0.0 0.0

3.9145734224170465e6 7.874028207561749e6 0.0
7.874028207561749e6 -2.1900979025307238e7 0.0
0.0 0.0 0.0

914527.9155496215 1.1908689711119324e7 0.0
1.1908689711119324e7 -1.198578793648499e7 0.0
0.0 0.0 0.0

-3.2037659408874195e6 1.4924796515075093e7 0.0
1.4924796515075093e7 6.484886495821967e6 0.0
0.0 0.0 0.0

-7.90718206070062e6 2.2722815455249257e7 0.0
2.2722815455249257e7 6.072749150793891e6 0.0
0.0 0.0 0.0

-2.9707864058572883e6 1.7684956881389145e7 0.0
1.7684956881389145e7 -1.420894626598599e6 0.0
0.0 0.0 0.0

5.487791954280848e6 4.464318749845525e6 0.0
4.464318749845525e6 -1.9290967410978734e7 0.0
0.0 0.0 0.0

-1.0064511684151283e6 1.4624213375596253e7 0.0
1.4624213375596253e7 1.8287705185172662e7 0.0
0.0 0.0 0.0

-320428.50562134344 1.0627017963805826e7 0.0
1.0627017963805826e7 -2.259061336595121e6 0.0
0.0 0.0 0.0

-3.0626099432580885e7 2.07996960199858e7 0.0
2.07996960199858e7 1.2763024718587086e7 0.0
0.0 0.0 0.0

-9.74313976314727e6 -4.1144966069635246e6 0.0
-4.1144966069635246e6 1.5476054602479894e7 0.0
0.0 0.0 0.0

-8.981154552896898e6 -4.132663895952009e6 0.0
-4.132663895952009e6 1.8099447396549426e7 0.0
0.0 0.0 0.0

4.889401741925866e6 1.3677576110594193e7 0.0
1.3677576110594193e7 992237.6288740737 0.0
0.0 0.0 0.0

-9.711079330178231e6 -5.691344889681427e6 0.0
-5.691344889681427e6 2.4247076524740815e7 0.0
0.0 0.0 0.0

289791.98570431373 1.3527317010092279e7 0.0
1.3527317010092279e7 4.873328002254043e6 0.0
0.0 0.0 0.0

1.9986698890436788e6 1.4697154689349417e7 0.0
1.4697154689349417e7 1.0714228937856263e7 0.0
0.0 0.0 0.0

-4.14505801339991e6 2.122678829937902e7 0.0
2.122678829937902e7 1.9575206118106865e6 0.0
0.0 0.0 0.0

-1.1890731951537099e7 2.4000814338923735e6 0.0
2.4000814338923735e6 3.425681301357282e7 0.0
0.0 0.0 0.0

814433.3285505818 1.1627360613319218e7 0.0
1.1627360613319218e7 -1.808590396557688e7 0.0
0.0 0.0 0.0

1.0333573805880002e6 6.879233662019988e6 0.0
6.879233662019988e6 -6.359037003095751e6 0.0
0.0 0.0 0.0

-3.0456840019529434e6 1.469786155949023e7 0.0
1.469786155949023e7 5.173968488955247e6 0.0
0.0 0.0 0.0

-483706.82929772325 1.5252009212107092e7 0.0
1.5252009212107092e7 1.1387355935549587e7 0.0
0.0 0.0 0.0

-1.0929173286052603e7 -4.205596681211298e6 0.0
-4.205596681211298e6 2.312331352687587e7 0.0
0.0 0.0 0.0

-8.983642357506176e6 4.683668743512724e6 0.0
4.683668743512724e6 8.208772612298762e6 0.0
0.0 0.0 0.0

-4.353777301641312e6 1.4925388084487656e7 0.0
1.4925388084487656e7 1.3719914384746177e6 0.0
0.0 0.0 0.0

-3.184137508148071e6 6.9224254244082e6 0.0
6.9224254244082e6 1.14870955355003e7 0.0
0.0 0.0 0.0

1.8449160376828827e6 1.3090516895604867e7 0.0
1.3090516895604867e7 -3.598687764179175e6 0.0
0.0 0.0 0.0

-9.629204345715879e6 -4.792133102109052e6 0.0
-4.792133102109052e6 1.6777980682688244e7 0.0
0.0 0.0 0.0

-1.117281847488362e7 2.4579936840880513e6 0.0
2.4579936840880513e6 3.6915529780020416e7 0.0
0.0 0.0 0.0

1.6795895285318496e6 1.3425428825147051e7 0.0
1.3425428825147051e7 -3.019457260036357e6 0.0
0.0 0.0 0.0

-335409.609993143 1.4001200591120033e7 0.0
1.4001200591120033e7 -8.278213888878386e6 0.0
0.0 0.0 0.0

-1.122943881140957e7 2.3426380108634206e6 0.0
2.3426380108634206e6 3.660688800744675e7 0.0
0.0 0.0 0.0

1.730950288241256e6 1.6059094629647292e7 0.0
1.6059094629647292e7 -5.196866544579387e6 0.0
0.0 0.0 0.0

-627956.980998368 1.4316460911750734e7 0.0
1.4316460911750734e7 7.693946380305276e6 0.0
0.0 0.0 0.0

-5.349448551989676e6 7.902286647393123e6 0.0
7.902286647393123e6 4.551163767863317e6 0.0
0.0 0.0 0.0

-6.135378117295605e6 4.0775560475388425e6 0.0
4.0775560475388425e6 8.352098983720417e6 0.0
0.0 0.0 0.0

-8.100311627384964e6 2.74260795192813e6 0.0
2.74260795192813e6 4.0562681108725625e6 0.0
0.0 0.0 0.0

