# vtk DataFile Version 2.0
phase field modeling fracture
ASCII
DATASET UNSTRUCTURED_GRID
POINTS 2538 float
0.0 0.0 0.0
10.0 0.0 0.0
0.0 10.0 0.0
10.0 10.0 0.0
0.0 4.9995 0.0
0.0 5.0005 0.0
5.0 5.0 0.0
0.9416964895726688 0.0 0.0
1.803581725054446 0.0 0.0
2.592419885431098 0.0 0.0
3.314401822861676 0.0 0.0
3.975193910351406 0.0 0.0
4.579982132660152 0.0 0.0
5.133512780936812 0.0 0.0
5.640130319506143 0.0 0.0
6.103810708661955 0.0 0.0
6.528192895506818 0.0 0.0
6.916607540127679 0.0 0.0
7.272102969376355 0.0 0.0
7.597469242948583 0.0 0.0
7.895259826292669 0.0 0.0
8.167811885738017 0.0 0.0
8.417264413845215 0.0 0.0
8.645575169389538 0.0 0.0
8.854535961159101 0.0 0.0
9.045786767735546 0.0 0.0
9.220828555767493 0.0 0.0
9.38103509633881 0.0 0.0
9.527663687265145 0.0 0.0
9.661865124984566 0.0 0.0
9.784692609918062 0.0 0.0
9.897110148790482 0.0 0.0
10.0 0.09999999999992584 0.0
10.0 0.199999999999856 0.0
10.0 0.2999999999997771 0.0
10.0 0.3999999999996677 0.0
10.0 0.4999999999995511 0.0
10.0 0.5999999999994683 0.0
10.0 0.6999999999993983 0.0
10.0 0.7999999999993286 0.0
10.0 0.8999999999992587 0.0
10.0 0.9999999999991888 0.0
10.0 1.099999999999119 0.0
10.0 1.199999999999033 0.0
10.0 1.299999999998852 0.0
10.0 1.399999999998576 0.0
10.0 1.499999999998284 0.0
10.0 1.599999999997992 0.0
10.0 1.6999999999977 0.0
10.0 1.799999999997408 0.0
10.0 1.899999999997116 0.0
10.0 1.999999999996825 0.0
10.0 2.099999999996533 0.0
10.0 2.199999999996241 0.0
10.0 2.299999999995949 0.0
10.0 2.399999999995657 0.0
10.0 2.499999999995365 0.0
10.0 2.599999999995073 0.0
10.0 2.699999999994782 0.0
10.0 2.79999999999449 0.0
10.0 2.899999999994198 0.0
10.0 2.999999999993906 0.0
10.0 3.099999999993614 0.0
10.0 3.199999999993322 0.0
10.0 3.299999999993029 0.0
10.0 3.399999999992738 0.0
10.0 3.499999999992446 0.0
10.0 3.599999999992154 0.0
10.0 3.699999999991863 0.0
10.0 3.799999999991571 0.0
10.0 3.899999999991278 0.0
10.0 3.999999999991022 0.0
10.0 4.099999999991035 0.0
10.0 4.199999999991187 0.0
10.0 4.299999999991338 0.0
10.0 4.399999999991491 0.0
10.0 4.499999999991642 0.0
10.0 4.599999999991795 0.0
10.0 4.699999999991947 0.0
10.0 4.799999999992099 0.0
10.0 4.89999999999225 0.0
10.0 4.999999999992403 0.0
10.0 5.099999999992555 0.0
10.0 5.199999999992706 0.0
10.0 5.299999999992858 0.0
10.0 5.39999999999301 0.0
10.0 5.499999999993161 0.0
10.0 5.599999999993313 0.0
10.0 5.699999999993466 0.0
10.0 5.799999999993618 0.0
10.0 5.899999999993771 0.0
10.0 5.999999999993922 0.0
10.0 6.099999999994074 0.0
10.0 6.199999999994227 0.0
10.0 6.299999999994378 0.0
10.0 6.39999999999453 0.0
10.0 6.499999999994682 0.0
10.0 6.599999999994833 0.0
10.0 6.699999999994986 0.0
10.0 6.799999999995138 0.0
10.0 6.899999999995289 0.0
10.0 6.999999999995442 0.0
10.0 7.099999999995594 0.0
10.0 7.199999999995747 0.0
10.0 7.299999999995897 0.0
10.0 7.39999999999605 0.0
10.0 7.499999999996202 0.0
10.0 7.599999999996353 0.0
10.0 7.699999999996505 0.0
10.0 7.799999999996658 0.0
10.0 7.899999999996808 0.0
10.0 7.999999999996962 0.0
10.0 8.099999999997113 0.0
10.0 8.199999999997265 0.0
10.0 8.299999999997418 0.0
10.0 8.399999999997569 0.0
10.0 8.499999999997721 0.0
10.0 8.599999999997873 0.0
10.0 8.699999999998024 0.0
10.0 8.799999999998176 0.0
10.0 8.899999999998329 0.0
10.0 8.99999999999848 0.0
10.0 9.099999999998634 0.0
10.0 9.199999999998786 0.0
10.0 9.299999999998937 0.0
10.0 9.399999999999089 0.0
10.0 9.499999999999241 0.0
10.0 9.599999999999392 0.0
10.0 9.699999999999545 0.0
10.0 9.799999999999697 0.0
10.0 9.899999999999848 0.0
9.897110148790565 10.0 0.0
9.784692609918244 10.0 0.0
9.66186512498486 10.0 0.0
9.527663687265571 10.0 0.0
9.381035096339392 10.0 0.0
9.220828555768257 10.0 0.0
9.045786767736512 10.0 0.0
8.854535961160305 10.0 0.0
8.645575169391027 10.0 0.0
8.417264413847017 10.0 0.0
8.167811885740178 10.0 0.0
7.895259826295246 10.0 0.0
7.597469242951631 10.0 0.0
7.272102969379938 10.0 0.0
6.916607540131873 10.0 0.0
6.528192895511704 10.0 0.0
6.103810708667616 10.0 0.0
5.640130319512691 10.0 0.0
5.13351278094435 10.0 0.0
4.579982132668816 10.0 0.0
3.975193910361222 10.0 0.0
3.314401822869852 10.0 0.0
2.592419885437257 10.0 0.0
1.803581725058137 10.0 0.0
0.9416964895740705 10.0 0.0
0.0 9.00010000000243 0.0
0.0 8.000200000005481 0.0
0.0 7.000300000005135 0.0
0.0 6.000400000002569 0.0
0.901790731451151 5.000409820926855 0.0
1.657200899774397 5.000334279910023 0.0
2.289991063707192 5.000271000893629 0.0
2.820065163538221 5.000217993483646 0.0
3.264096435579811 5.000173590356442 0.0
3.636051481595835 5.00013639485184 0.0
3.947629914072366 5.000105237008593 0.0
4.208632181002628 5.0000791367819 0.0
4.427267949625672 5.000057273205037 0.0
4.610414277633563 5.000038958572237 0.0
4.763831845154243 5.000023616815485 0.0
4.892346298799659 5.00001076537012 0.0
4.892346298799748 4.99998923462988 0.0
4.763831845154455 4.999976383184515 0.0
4.610414277633943 4.999961041427763 0.0
4.427267949626277 4.999942726794963 0.0
4.208632181003523 4.9999208632181 0.0
3.94762991407365 4.999894762991407 0.0
3.636051481597624 4.99986360514816 0.0
3.264096435582253 4.999826409643559 0.0
2.820065163541503 4.999782006516354 0.0
2.289991063711534 4.999728999106371 0.0
1.657200899778495 4.999665720089978 0.0
0.9017907314530094 4.999590179073145 0.0
0.0 3.999600000002013 0.0
0.0 2.999700000005187 0.0
0.0 1.99980000000512 0.0
0.0 0.9999000000025537 0.0
9.897889398521345 2.93573355845387 0.0
9.906568249974548 7.060009441434234 0.0
9.913122631074113 3.64016132281653 0.0
9.922462129543863 6.354535290629151 0.0
9.917693659967533 4.354211663134567 0.0
9.909873057440208 5.637584487339942 0.0
9.914183254994697 4.950672966925282 0.0
9.913885043715895 7.666887930262611 0.0
9.91009668007573 2.351889069770817 0.0
9.905135696074536 8.138152454502785 0.0
9.913397459621809 1.849999999997262 0.0
7.099302372137626 0.297750452375005 0.0
7.095143729410097 9.700359990366296 0.0
4.942912558701401 5.095838627899509 0.0
4.315009232304429 5.165022115481685 0.0
4.946182472483878 4.906763777264103 0.0
4.317967462990024 4.825955043772673 0.0
9.916390871492647 8.64999999999792 0.0
9.921504649680616 1.368376469890358 0.0
8.292538149791614 0.206877570318844 0.0
8.292538149793597 9.793122429681448 0.0
5.884594439766573 9.587645267048616 0.0
5.794826292691579 0.3794853783929359 0.0
9.913397459621425 9.049999999998557 0.0
9.908526577714177 0.9568239351922434 0.0
3.456851160380649 5.315740054130451 0.0
3.457889657868442 4.707121019609468 0.0
8.945214200703926 0.1503383337970344 0.0
8.950161364448409 9.8413906539257 0.0
9.913862335499305 4.055887885208452 0.0
9.916697353372683 4.650158482607802 0.0
9.919076340414442 6.049999999994006 0.0
9.906994308667635 5.25749687748192 0.0
9.917490342358025 6.655979201891897 0.0
9.915757520293784 7.343848891656911 0.0
9.910049507471042 3.363474386285078 0.0
9.914471988502868 2.647400064832979 0.0
9.91474124160965 9.337490423485129 0.0
9.916971008170838 0.6499999999994355 0.0
4.307157269264427 9.509674045029644 0.0
4.331527375865619 0.4401616696422582 0.0
9.45434939180249 9.878397030523757 0.0
9.457696120412969 0.1270877537061785 0.0
2.555070293622606 5.422044496190925 0.0
2.566232917480916 4.608001224030952 0.0
3.026511860837692 9.332320638257093 0.0
2.945561971800619 0.5895662714727601 0.0
7.7395404387124 0.2511088946967771 0.0
7.736379255744154 9.745848826372828 0.0
4.687135269408529 5.122111433928926 0.0
4.688420821504113 4.871895064967488 0.0
9.910554884115975 0.3448356354522978 0.0
9.911230082250466 9.65764729394159 0.0
9.921953841410854 6.851023993342036 0.0
9.912065178606017 5.448170483544033 0.0
9.911660025326261 3.861846960030188 0.0
9.914847467973438 3.14501593945607 0.0
9.913397459621425 5.849999999993703 0.0
9.913397459621425 7.849999999996735 0.0
9.906916878988277 2.15455769998631 0.0
9.913397459621425 8.349999999997479 0.0
9.909472363117661 1.640528221515488 0.0
9.913987325695956 1.152857110636247 0.0
9.913397459621425 8.849999999998241 0.0
0.9100099990995943 2.614215977520411 0.0
0.8395284981715456 7.451196254860987 0.0
9.723278867451556 9.898135916635193 0.0
9.723316350887044 0.09841820909386662 0.0
1.385819164827588 4.454539963646463 0.0
1.338343629665047 5.523111536005823 0.0
1.377179700550677 0.6809168304959698 0.0
1.418060461092743 9.285896715136046 0.0
9.91268220142518 0.1457914080939694 0.0
9.906737126737994 9.845745933882352 0.0
0.7108351382691361 6.537941170074089 0.0
1.527735020267026 6.915620208855231 0.0
1.630993885659103 7.838271825205868 0.0
2.232760943566823 7.370850737296832 0.0
2.243414218068206 6.688299277952821 0.0
2.779655053105118 7.021588754814074 0.0
2.80227799359795 7.632420170547022 0.0
3.282022065908813 7.305859666021318 0.0
3.327597298795347 7.857554136825748 0.0
3.743210251018715 7.549183328204379 0.0
3.716353232200752 7.062036086888612 0.0
4.111978858674101 7.27497101169417 0.0
4.104192177581432 6.879858986267289 0.0
4.436230765617037 7.045693351607117 0.0
4.430360014817357 6.703971783962796 0.0
4.732390145036301 6.849841042423394 0.0
5.056161327708878 5.095276573498806 0.0
5.111586796021131 4.999081142133581 0.0
5.169267363407189 5.09444870412406 0.0
5.223795108752053 4.996986220359468 0.0
5.281480803887719 5.092780870372803 0.0
5.335670761900611 4.994887492556936 0.0
5.393485214772442 5.090486192743301 0.0
5.447323082877892 4.992601527033996 0.0
5.505243219343024 5.087953380710069 0.0
5.558739102026105 4.990287787962959 0.0
5.616491581184779 5.085335255235766 0.0
5.669852346908056 4.9879269227514 0.0
5.727502713908907 5.082679981817038 0.0
5.780766004135139 4.988313988715834 0.0
5.838244881129535 5.080480568766611 0.0
5.891357695677371 4.986433849408193 0.0
5.948696036767613 5.077969900389505 0.0
6.001601341641615 4.981313698556656 0.0
6.058851024265095 5.074871552128682 0.0
6.111614020704875 4.978360695880202 0.0
6.168801161530775 5.072044953270978 0.0
6.221368818778567 4.975825765213497 0.0
6.278268309066882 5.066182320461055 0.0
6.330814273567539 4.972837984645718 0.0
6.387565032421376 5.062889771971895 0.0
6.437476667631405 4.971693683589553 0.0
6.496181111585419 5.060210690175857 0.0
6.539454812256072 4.964658165361536 0.0
6.604198202576491 5.056387520850258 0.0
6.648506025747331 4.939374587506267 0.0
6.714026758992516 5.05873885840664 0.0
6.764418045981209 4.959246676066148 0.0
6.8219334571197 5.055299567406268 0.0
6.873708540948134 4.960426349093742 0.0
6.930181428849307 5.053461390218819 0.0
6.981893615341967 4.96435459462232 0.0
7.037791764774784 5.051219747103022 0.0
7.090993561518408 4.96392420322464 0.0
5.504417457283294 4.900897920552702 0.0
7.145434864123609 5.048960634292441 0.0
6.054532384032612 4.883956083938546 0.0
6.738027949040956 4.850032323068674 0.0
7.198432914526514 4.956325226333323 0.0
7.252637187936749 5.046012229327236 0.0
7.30926729605109 4.948903216650376 0.0
7.248106275544042 4.860306312845646 0.0
7.363100274863074 4.849952416808486 0.0
7.365733472701664 5.039519554615095 0.0
7.308483293090149 5.137557220352172 0.0
6.768399513646964 5.145609705119954 0.0
7.422800035311104 5.132251445551834 0.0
7.358273518796229 5.235980394389298 0.0
7.480824155801127 5.227946127939927 0.0
7.302193400058628 4.761917474298247 0.0
7.413570879789824 4.754555110721153 0.0
7.414392998903179 5.334729114426734 0.0
7.352769630272076 4.660405502266205 0.0
7.467556835255426 4.658352623795039 0.0
7.536246869015014 5.328986926716081 0.0
7.478865844607288 5.432598185493195 0.0
7.406396991826072 4.556956233957538 0.0
7.523581002009154 4.552005631348623 0.0
7.597792398573263 5.429506106314967 0.0
7.540511043402902 5.53619421580439 0.0
7.46214474876342 4.452580994318881 0.0
7.5852185078634 4.446021810672608 0.0
7.663329342323453 5.533453399066901 0.0
7.603478967594521 5.643227430483237 0.0
7.513450346818673 4.347641323140766 0.0
7.640744971722214 4.333388343316237 0.0
7.727671715775243 5.642390483050116 0.0
7.667774597993788 5.753188858425915 0.0
7.570065256728661 4.230515669344811 0.0
7.702881065467917 4.218307808529532 0.0
7.638288257073729 4.107994211855027 0.0
7.493362356301017 4.120843902105771 0.0
7.779018500630071 5.521233457321821 0.0
7.794641287388929 5.752364621610818 0.0
7.73369774483611 5.865894287356292 0.0
7.600834531784728 5.867752110500446 0.0
6.233038857278689 5.15645045634683 0.0
7.669727996028819 5.985665563643058 0.0
7.528582452554481 5.987393423295551 0.0
7.598722674572824 6.11001923494443 0.0
7.778305000222867 4.104318908265786 0.0
7.704329019832056 3.987744174608892 0.0
7.838453459801382 4.213322728668484 0.0
7.864495721576461 5.862306066517277 0.0
7.846552353360407 3.98481756181946 0.0
7.769730409703277 3.86544808681145 0.0
5.785249360396857 5.177248808588045 0.0
7.908837087876153 3.861484036275285 0.0
7.834824606222196 3.740586825753288 0.0
7.97685993406276 3.736209527152902 0.0
7.89665098770825 3.615501862931453 0.0
7.753228010315262 3.617800245018972 0.0
7.826063013090472 3.483173292579822 0.0
7.66789744383048 3.48859328808356 0.0
8.042515855796823 3.595394268381807 0.0
7.75200750488492 3.341279823834038 0.0
7.582870318332553 3.346584916806707 0.0
8.120807847415062 3.732493963388337 0.0
8.189783970303546 3.61159165475499 0.0
7.657801000286734 3.200439907646711 0.0
7.486781956172036 3.201402473247712 0.0
7.452595103886905 6.11418616185016 0.0
7.527098033550077 6.243191052852112 0.0
8.260502906807751 3.728437634721859 0.0
8.327629317451398 3.608173631356984 0.0
7.372763970891452 6.247552889754036 0.0
7.456170570815929 6.384992468962936 0.0
7.621837793616884 6.376077080857113 0.0
7.548039512904141 6.520750676893614 0.0
7.717475944451644 6.514856553988943 0.0
7.636658166268699 6.661648164052906 0.0
7.807468267259438 6.664076174524672 0.0
7.718022764310774 6.817938967122142 0.0
7.887785766941087 6.807440365887151 0.0
7.545993589083432 6.815070675854734 0.0
7.809874785067209 6.967537287475282 0.0
7.975643812145337 6.948729406725126 0.0
8.396477808021062 3.725446935061211 0.0
7.565651643157136 3.044354774611752 0.0
7.384328725505071 3.043048915147076 0.0
8.056405351948353 6.802790889114673 0.0
8.14128318237188 6.940027831915737 0.0
8.064621760266059 7.086348792208953 0.0
8.225003598857908 6.805225152373254 0.0
8.463085452993242 3.606998510553562 0.0
8.230426869720718 7.079551841000411 0.0
8.155262284174286 7.224761758176069 0.0
8.530696760758996 3.721683301125054 0.0
8.596669886994064 3.604516769862316 0.0
8.528531058025589 3.490411531312337 0.0
8.320451770844851 7.218191678954744 0.0
8.245273958732774 7.363444652121271 0.0
8.66324687389452 3.717094013035765 0.0
8.600103125209296 3.831913857228569 0.0
8.662131102573216 3.488322280861316 0.0
8.594166125380536 3.374071873435548 0.0
8.411074336066186 7.353871649576861 0.0
8.339644223432472 7.505172120620427 0.0
8.165883718619623 7.513159193685373 0.0
8.483453820080417 7.2082285366806 0.0
8.261200365730348 7.657400951288149 0.0
8.081570576666843 7.670933304838066 0.0
7.471613195794025 2.872548423100142 0.0
7.268733678357991 2.881209199257603 0.0
7.184255506995786 3.084448584600423 0.0
7.065899603697895 2.883902449336828 0.0
6.960163891183182 3.081014635802978 0.0
6.847612128388715 2.885646860602812 0.0
6.739800729737967 3.078895733381448 0.0
8.729373804596847 3.827689165637365 0.0
8.668550856907444 3.938702277545298 0.0
8.72770789162863 3.371798381178293 0.0
8.659764090070603 3.257493349874974 0.0
8.436453928793245 7.648724489148887 0.0
6.619080287792762 2.90880017416788 0.0
6.511740956842646 3.09340654756684 0.0
8.793527829963288 3.935174834810256 0.0
8.736430500996828 4.042719556852617 0.0
7.631260330584174 4.565300771328012 0.0
8.359058396840432 7.801678182761817 0.0
5.339436215072359 5.184870243702279 0.0
4.994031736761993 5.193306795607908 0.0
6.383387675268097 4.87760645722207 0.0
7.29117392392962 6.382172868329505 0.0
6.378196825372041 2.907113079755629 0.0
6.269817199014261 3.12412150658573 0.0
8.793149127377946 3.255386294257182 0.0
8.725774239201558 3.141596687892195 0.0
8.857434600673502 4.041295940541356 0.0
8.802868937128341 4.1471119953668 0.0
8.532045262478793 7.7905977476835 0.0
7.364542641624493 2.699128473342751 0.0
7.571677611088925 2.695732556686516 0.0
6.723058333614999 2.672341359410618 0.0
8.456744924757372 7.94483904450548 0.0
6.140831279784704 2.921247401137864 0.0
6.02419219050745 3.14358702955763 0.0
8.916255604212301 3.934279868822481 0.0
8.859287250884009 3.140226640574265 0.0
8.791092798057303 3.025929352146465 0.0
7.210445465986021 6.245773134960393 0.0
7.120884161792869 6.385155584680196 0.0
7.036931702064287 6.240721609143972 0.0
6.943722280007011 6.3869279517155 0.0
8.920094519678617 4.144837222494242 0.0
8.864374107136287 4.250930406527029 0.0
7.347569838739255 4.463467417508182 0.0
5.90383431757064 2.935113219563906 0.0
5.783476009580765 3.156456199832474 0.0
8.626013191558314 7.935092223505354 0.0
8.687240186957197 7.796697889991163 0.0
5.642059327424706 2.903018174330269 0.0
5.52647853955939 3.162549070310043 0.0
8.555300051897738 8.086169516016518 0.0
8.405624441178524 8.083972416481254 0.0
5.374124307190728 2.945480555950917 0.0
8.935805220807357 3.249260758206028 0.0
8.981625171409894 4.247375537584228 0.0
8.924725364486765 4.352101286657735 0.0
8.807208588134106 4.356163101450244 0.0
8.868277832430604 4.45657124153171 0.0
8.75099635287701 4.460644845248524 0.0
8.812385950597063 4.560891222623518 0.0
8.693833206943118 4.564602972998703 0.0
8.756474732548273 4.665720853686476 0.0
8.63721608225855 4.669394550615355 0.0
8.700108119351134 4.770682016274914 0.0
8.81920502916846 4.767536120893284 0.0
8.76355311338807 4.871451945248518 0.0
8.881442328033694 4.868382238751069 0.0
8.826433523510634 4.97132552240372 0.0
8.943387824985514 4.967694248194483 0.0
8.888718468126953 5.071044784833541 0.0
8.580377663835254 4.774669738817985 0.0
8.770572242937233 5.073880380431421 0.0
8.832915096600454 5.174518948293615 0.0
8.952224483821848 5.170970838320107 0.0
8.897282771771884 5.275476392171722 0.0
7.463928467290875 2.513944501591933 0.0
7.675935950092034 2.509420347143072 0.0
8.924252417741767 3.024418701372628 0.0
8.857265893102921 2.911213535286156 0.0
8.776981063213334 5.27944309004916 0.0
8.840710910770163 5.380165700477552 0.0
8.960876896785969 5.375521424256389 0.0
8.904555918255223 5.482125846038813 0.0
7.567193097677677 2.32750151280277 0.0
7.780880844888839 2.323064027160363 0.0
6.851602118390116 6.234522818184622 0.0
6.758680682687229 6.389359516748128 0.0
6.66345977321418 6.231254850996584 0.0
8.715764716958308 8.079994249772627 0.0
8.65189989696114 8.227534663647639 0.0
9.042229096541828 4.348551764001607 0.0
6.436774206993324 3.316782326998922 0.0
7.590527613340588 5.22651784724799 0.0
9.024366884701616 5.476726561488805 0.0
8.968734351641839 5.583879050892151 0.0
8.845941080047659 5.586406316932274 0.0
8.909881305857882 5.690482454668167 0.0
7.348726871578975 5.44047403999932 0.0
6.567070253986433 6.398115757512583 0.0
6.697077150072261 6.553426749743366 0.0
5.252377383990728 3.187782967482479 0.0
8.988440431820699 2.908621158637298 0.0
8.922541972760119 2.796420836075996 0.0
6.466806010659505 6.229115583261771 0.0
9.033851153821296 5.686506775615425 0.0
8.978340519963718 5.795772485582058 0.0
8.85111463793018 5.798672910287243 0.0
8.922171984280597 5.907237880910408 0.0
8.795190680908043 5.911854068712683 0.0
8.864373398892472 6.019728357749566 0.0
8.991346995940626 6.014539153309398 0.0
8.93374019140187 6.12698887312768 0.0
5.095192648098848 2.952353430985476 0.0
7.672651464908932 2.141715359830917 0.0
7.886266921042761 2.136211284120189 0.0
9.098474286589756 4.245971410451114 0.0
8.813172564986438 8.216887361735234 0.0
8.74802978243154 8.366104673219047 0.0
9.059985162956899 6.120982589539211 0.0
9.00342813739303 6.233245043891739 0.0
4.961413514304496 3.214209167276753 0.0
9.05248113004685 2.794651022570942 0.0
8.986028039118027 2.681341972594222 0.0
5.671890458441996 3.377122473800023 0.0
4.755829262593116 7.184480462344647 0.0
9.158258644940048 4.34465968221255 0.0
4.799687186662534 2.961354824469195 0.0
6.030554747591715 2.726787502996874 0.0
8.938327180212585 8.34758372042188 0.0
8.847392320655468 8.503370672816716 0.0
8.67342124373679 8.518117686968314 0.0
5.234423106934083 2.694925204361751 0.0
8.964923046453565 8.185313058214797 0.0
7.456650986668838 2.134076476407834 0.0
9.111732084821366 2.897226832609386 0.0
6.368055837513985 6.402805870976705 0.0
6.265629899005033 6.226581076317183 0.0
8.736327196352686 6.026404178766982 0.0
9.117473097358854 2.67987006607594 0.0
9.052137415465204 2.565428515518978 0.0
7.781001557847192 1.955874236406257 0.0
7.992134447300669 1.949184538864554 0.0
8.593074792993455 3.143159483125708 0.0
9.1291360203536 6.226877897052981 0.0
9.072154326613617 6.338696745620542 0.0
8.916532550320525 2.566986282201109 0.0
8.984021113721658 2.449252898983242 0.0
9.178032243215632 6.120533546076094 0.0
9.213703592343162 4.244823670856978 0.0
9.11972142641474 2.449071238668887 0.0
9.052853896812186 2.33190758581705 0.0
8.635035926402708 4.462329956179506 0.0
8.773614475966344 8.657865377672689 0.0
8.596400917257634 8.67759750279447 0.0
8.942023339420883 8.644678093589654 0.0
9.19471670675691 6.33096438039349 0.0
9.138460613363325 6.443043552768813 0.0
8.66620319432524 5.916297234509582 0.0
8.606669825267202 6.032658196729024 0.0
9.27222540210304 4.341341907533128 0.0
9.013782808177437 6.451040569407859 0.0
9.08360982569773 6.55729980456602 0.0
7.885622149776354 1.768093045890686 0.0
8.095672144455353 1.768790621151345 0.0
9.208772072925791 6.549717411809656 0.0
9.154272208194383 6.662613503537815 0.0
9.187669783927937 2.334640996932141 0.0
9.122379015831417 2.215832190697178 0.0
6.164077036161143 6.404611236428829 0.0
6.062367614988677 6.224307160647549 0.0
8.987075041759633 2.211477580983978 0.0
9.056972755801603 2.093573581203428 0.0
9.194557288902232 2.096029761809264 0.0
9.131223008370409 1.972713028695079 0.0
8.87381302587057 8.795793668920256 0.0
9.039169086943392 8.781606667490083 0.0
4.662813350519927 3.228118291851354 0.0
4.474181267994617 2.945703616023359 0.0
6.562627723301209 6.075544382232434 0.0
9.326886053211574 4.243083624343211 0.0
9.280374192897945 6.656072830232892 0.0
9.224718905178564 6.766740750539347 0.0
4.703284910421452 6.528907865005451 0.0
8.955136474970331 6.565989985649191 0.0
8.998148826814893 4.865480736169776 0.0
8.99429836796776 1.965972383552685 0.0
9.065669391141741 1.847195105148808 0.0
9.207236162050343 1.853010386995843 0.0
9.143218073349985 1.725630086781897 0.0
8.998867447699345 1.719378449325465 0.0
9.082595782768397 1.592017827427701 0.0
8.92804562738841 1.585238202229766 0.0
9.01637794607019 1.453847302675876 0.0
8.854253119154375 1.446306868730686 0.0
8.941620273019874 1.320083886766936 0.0
8.775393064215876 1.308487027359826 0.0
9.102170347200483 1.324733726345249 0.0
9.013857060361985 1.178821526410403 0.0
7.991031819452564 1.587689878441685 0.0
7.767218744640202 1.595993197647291 0.0
9.191539171305216 1.194087248761656 0.0
9.123965901037613 1.057102462689568 0.0
4.853921953226772 3.470213116851758 0.0
7.496563223334782 3.470157221608763 0.0
8.536691379028115 5.921845852206257 0.0
8.475496498707471 6.037633662010236 0.0
7.978668526342969 2.307231488316941 0.0
9.384721922092124 4.337357165846226 0.0
9.331039180200886 4.435926256444196 0.0
8.546261775564837 6.150267290476958 0.0
8.411727261785726 6.155319300628062 0.0
8.972203609044218 8.930944433074036 0.0
9.133480321468399 8.90955269607895 0.0
9.197778815538276 8.768743880012563 0.0
6.162231825784922 6.05277753404107 0.0
5.962111081146334 6.046949845237622 0.0
9.268727788642101 4.146883230687689 0.0
9.380694211527906 4.144811697563401 0.0
9.323823335199954 4.049557759546529 0.0
9.283324894520613 1.736313094621396 0.0
5.858151623803662 6.22041808248046 0.0
5.759668475561988 6.038806123495502 0.0
7.836860473863919 3.191674397465999 0.0
9.348591928839294 6.75855034547469 0.0
9.293979592221298 6.870213350675044 0.0
9.170543172728557 6.879819332293818 0.0
9.240028263813034 6.983394994050525 0.0
4.347372565145963 3.312731475520695 0.0
4.114183445909965 2.96879678229065 0.0
8.616264880152233 4.042035981070631 0.0
9.403174760076901 6.650407069150438 0.0
4.173860112179449 7.723461240865885 0.0
9.365302975518428 6.973476802087294 0.0
9.312420275675276 7.088420778208979 0.0
9.184876614539778 7.0978133687822 0.0
9.25921281729617 7.204979813006656 0.0
9.12816413817609 7.21569648263899 0.0
9.203944409919862 7.322703303071253 0.0
9.334311975087337 7.311477957762272 0.0
9.280415785210538 7.428795599957155 0.0
9.274060219641907 1.066603180421249 0.0
9.211820491509728 0.9316562593680151 0.0
9.050684011148748 0.9017681241401576 0.0
9.441953732403995 4.432092590771756 0.0
9.394725873909666 4.526051349391942 0.0
9.43453556160865 4.048003950509361 0.0
9.378043599351757 3.952631412328806 0.0
9.289691247910705 8.890746792319852 0.0
9.228148443138926 9.030109127390128 0.0
4.440757888677695 6.389562448928118 0.0
4.689874463978985 6.239329075084555 0.0
4.291519540095677 2.622920583112654 0.0
3.886073352912894 2.632778677714434 0.0
9.344015622314338 1.202401041544343 0.0
8.193292196814806 3.849649660906171 0.0
6.960946604527747 6.07044529864598 0.0
9.347708267319902 8.756364147482309 0.0
6.826423138602714 3.261415861395883 0.0
6.06309517882478 5.884563187328262 0.0
9.4085057714426 7.414123963607981 0.0
9.356416821537886 7.532359471354527 0.0
5.042074134251055 6.938947182785697 0.0
5.063988238156824 7.311205832605263 0.0
3.946666851334923 3.30681624613374 0.0
8.189857914071878 1.939951128540477 0.0
7.880690277686857 1.38928908049477 0.0
7.63766396748483 1.399736360041063 0.0
9.345004233592562 1.857695941115052 0.0
9.440465164139875 7.085860901905448 0.0
7.918332480761888 5.744468010879592 0.0
9.08007135068879 5.372457017512481 0.0
8.78639561093144 3.718391405525285 0.0
9.356843485085705 0.9414458825132457 0.0
9.29705128845331 0.8103081541678832 0.0
9.251825423225316 2.451701826351773 0.0
8.483895366325516 6.270717564685176 0.0
8.346386886249478 6.275973306650227 0.0
9.493299170161215 4.138582531223591 0.0
5.321115649032961 7.117073603021904 0.0
5.354076009109965 7.436189411362466 0.0
5.597984079819928 7.254284331170681 0.0
5.644042313435943 7.564172740776336 0.0
5.383963016128051 7.753854027984002 0.0
5.681168258142109 7.880444993178456 0.0
5.935548099874979 7.687258900444162 0.0
5.979508404301389 7.994332725561488 0.0
6.21936843555201 7.802335560754011 0.0
6.267092590637372 8.104873033518185 0.0
6.498845418385807 7.917606504106031 0.0
6.544600005636809 8.209910620392591 0.0
6.77336078689533 8.027284686082275 0.0
6.814840179123049 8.311778392637773 0.0
6.721304148677048 7.737863326704131 0.0
7.031320924898797 8.1335673274533 0.0
7.077388928622946 8.403901803728003 0.0
5.417471987089176 8.090112295667405 0.0
8.845427688507666 2.446352368201366 0.0
9.318512319918124 2.339233739859646 0.0
9.380241452597096 2.451895615249572 0.0
7.283805558009199 8.237518806365102 0.0
7.329200330160381 8.497045124353782 0.0
7.233272584416691 7.991590926766813 0.0
9.142592248414191 5.471315142785471 0.0
9.196303265878848 5.36738298742727 0.0
9.25795832955665 5.465260877691205 0.0
9.310581303233182 5.36341558704714 0.0
9.371094700882272 5.459458038195667 0.0
9.422767107822985 5.360687090455724 0.0
9.36402660964156 5.264821436196721 0.0
9.474220736978928 5.262802348886269 0.0
9.41680330511366 5.169477108906666 0.0
5.168675939028436 4.895496152382537 0.0
9.482591449057548 5.454699312257291 0.0
9.431567605310825 5.552723344040521 0.0
7.531449703396948 4.741663470323411 0.0
8.517293123442691 4.672601123164268 0.0
8.459978676626639 4.778466809901586 0.0
8.396595115309985 4.67568709170855 0.0
8.338966609235166 4.782101664607259 0.0
8.275355646032752 4.678829956447008 0.0
8.217675280223542 4.785699596769931 0.0
8.28149024865807 4.888803783902183 0.0
8.16019781596952 4.892696417098926 0.0
8.22433278506531 4.995725219088695 0.0
8.102825704443651 4.999629142625341 0.0
8.166887930010795 5.098242831115916 0.0
8.034904900788316 4.896825406879729 0.0
8.15353539905931 4.682103688185489 0.0
8.211891449058882 4.574219757233394 0.0
8.290305306104333 5.094007100958221 0.0
8.225684228618732 5.201525567655179 0.0
9.444618942559746 2.343141375196729 0.0
6.929446520625337 4.868116916840016 0.0
5.737810725167649 4.893891407574175 0.0
8.720389971487277 5.38508368411851 0.0
8.805734920311323 8.951818172412821 0.0
8.905272694453211 9.083303226359831 0.0
6.006155038818204 5.171375272745409 0.0
6.431496448228514 5.152985998213245 0.0
9.052675024457304 7.106590131831544 0.0
7.740007013494393 6.09727525827826 0.0
9.375852260355511 9.013078430361404 0.0
9.32035844773103 9.14584923943073 0.0
6.989707597683965 5.146377438798643 0.0
9.488190206836386 3.951168069367155 0.0
9.432429152094464 3.855725756072153 0.0
5.568386402814275 5.185723849666124 0.0
9.525561551078322 5.166162126187324 0.0
9.465026391994275 5.072601962964018 0.0
9.320357339516937 3.857795423728873 0.0
9.375955927831914 3.759314274140895 0.0
9.261783786753899 3.761412578759438 0.0
9.31820665563318 3.661845422072752 0.0
9.431798673168924 3.660830894813109 0.0
9.374584413615914 3.563138564686839 0.0
9.48759661134647 3.562294297118573 0.0
9.431339678707085 3.464016717943268 0.0
9.417896212887529 1.746970678437863 0.0
8.731705369070733 9.110902182838881 0.0
5.652297951447118 6.21188565774667 0.0
5.569122518069258 6.024400786163834 0.0
8.257007204149394 3.505875091031567 0.0
8.717428603143034 2.925525757227976 0.0
6.882852832747376 8.57686572931064 0.0
6.337330066435714 8.416819098143066 0.0
9.50188906539997 4.521022403818629 0.0
9.453500859905136 4.617181635748691 0.0
9.46806769570129 6.749352117850711 0.0
8.836822104875719 1.72282859852854 0.0
7.481071063421426 5.64593758994851 0.0
5.668814988976305 5.86611128457842 0.0
5.487644760735084 5.847591822776978 0.0
8.993992818065195 7.228173913870249 0.0
7.98322414937693 7.229980191466666 0.0
9.22810751684646 7.54864871395298 0.0
9.304103360459063 7.654622011545798 0.0
9.432787371848761 7.633691049023619 0.0
9.382619818023882 7.759136995934441 0.0
7.239096822516492 4.679179578301165 0.0
9.47692479956498 1.861231395362419 0.0
8.041243110813022 5.095895152648969 0.0
6.190208781188077 7.509864122823853 0.0
9.283062812782122 4.549418667685757 0.0
9.503847665760087 2.450295046295932 0.0
9.443345385250678 2.557904120404248 0.0
9.52009568463353 6.644015937008899 0.0
9.203119005973903 3.662458522935253 0.0
8.406198651282708 5.92630414760378 0.0
8.467263597743843 5.811987729136874 0.0
9.461423029059445 9.128120577356565 0.0
9.408445330070542 9.26024300250086 0.0
9.266505293379728 9.277952925446408 0.0
4.14874709022218 3.631681332690154 0.0
9.437448107949258 0.8198473430736303 0.0
9.376993771693973 0.6910550697058979 0.0
9.22882356848217 0.6931820370818127 0.0
4.451823867195988 6.103664366188579 0.0
4.200031743909027 6.232039028149317 0.0
4.687154754667774 5.975132870483986 0.0
6.268889397098538 6.592235545990395 0.0
7.509366161722768 8.340075462391164 0.0
7.564775703413765 8.59800936579159 0.0
9.542148732924264 3.854614593058991 0.0
7.036231103929761 6.550562550831048 0.0
4.089373665437328 2.268193930262139 0.0
3.642558884866483 2.250386188148396 0.0
3.442182385618804 2.651948803899947 0.0
3.146832503011753 2.222630466765926 0.0
2.948870467975985 2.805088883766417 0.0
9.352005315330274 5.067356449300542 0.0
9.31729677031493 3.462944187594675 0.0
9.37428383619102 3.365546369736205 0.0
9.4883538239391 3.365384871181599 0.0
9.432147665178338 3.267287636377487 0.0
9.25034519267688 7.775848812012313 0.0
9.332091350002502 7.881724023243533 0.0
9.462101000264603 7.86490055671988 0.0
9.413353271651825 7.98561007219363 0.0
8.273592814723814 6.158623919352561 0.0
8.207135014732339 6.280394934566054 0.0
9.541483811580331 5.548224291759592 0.0
9.491365919893726 5.644847811894615 0.0
8.088095771120983 4.577581369371366 0.0
8.14760102783746 4.468303741922308 0.0
9.556217963323956 4.414867468889523 0.0
9.543667331547693 3.266908751519594 0.0
9.489307652535885 3.169908976697059 0.0
9.26285575842982 8.635341362685686 0.0
9.403220742003983 8.621447866627538 0.0
9.326013417886902 8.506778946171965 0.0
9.455477927154853 8.503896705359047 0.0
9.566646674069602 4.611465258087684 0.0
9.499341049870914 0.9352184973273918 0.0
8.683891958597638 1.444705608998412 0.0
8.599973456173778 1.287265568270043 0.0
7.760988189317371 1.175381292562583 0.0
7.50927661322749 1.171223823957793 0.0
7.380927152434357 1.411062577009695 0.0
7.242417847270241 1.170759311509981 0.0
7.107236746116019 1.421234419770886 0.0
6.960799033544566 1.169618322344823 0.0
6.817786081200392 1.434174581170586 0.0
9.48095050141868 8.738557748483624 0.0
9.319762046171894 3.263060331456388 0.0
8.920653400180534 7.117307656029475 0.0
9.452431221190624 6.544166520883111 0.0
9.571407933653493 6.540336592280795 0.0
9.507586285214174 6.443281357841339 0.0
9.575252974749443 5.070210512157044 0.0
5.755172844377253 6.370710487467459 0.0
9.541351959064952 7.969072511059531 0.0
9.354607289792183 9.3921968735401 0.0
9.495213435762107 9.37218405175897 0.0
3.77688136092967 3.643094492921176 0.0
5.460967180339239 6.159077196937325 0.0
8.656589552918996 5.283032675040985 0.0
8.599307076390474 5.387421722684671 0.0
9.584017606465821 5.263931993965828 0.0
9.51536593891754 4.977534386249715 0.0
7.788544970111893 2.70578432810479 0.0
7.381746833264364 8.755477463411431 0.0
7.615969996822885 8.852710176548548 0.0
7.783643411970649 8.691528137204457 0.0
7.845017394185501 8.938777577473743 0.0
8.570520580943368 7.342304222498308 0.0
9.103648004226827 5.781084627507008 0.0
8.338082930126799 5.815990105349368 0.0
8.930848895071895 4.561111316304916 0.0
7.381089602119859 5.983657236035151 0.0
8.42066837692862 6.393608568217351 0.0
8.888256157021065 6.459558428285236 0.0
8.826495664731354 6.575679897210801 0.0
4.22522220414496 5.921354747981145 0.0
3.943296448343383 6.075578573904587 0.0
9.563175937841836 2.554860696349795 0.0
9.505342423182917 2.656889632284623 0.0
6.660863480070611 1.168750929063519 0.0
6.518316961679488 1.436478598119306 0.0
6.683474168246802 1.694104067636375 0.0
6.376799057174731 1.707382100972048 0.0
6.205091481342603 1.443621641108414 0.0
6.058670988071357 1.728841803855816 0.0
5.877457486049096 1.454297236926778 0.0
5.724979192982589 1.756666409586195 0.0
5.529885788012015 1.462283739157555 0.0
9.514953777019835 0.7018468683209754 0.0
8.398665270372675 5.702731562702358 0.0
9.456442249775696 0.5772068858285652 0.0
9.565795671866349 2.345573662774494 0.0
8.830758563027459 9.247271599108435 0.0
8.523580738257648 4.88015211128435 0.0
5.580123316488715 5.701889892660689 0.0
5.398591029446707 5.685938459654249 0.0
5.367686360823392 1.778740548277203 0.0
9.546603444041448 1.754984055696778 0.0
9.489649223089446 1.641312329051244 0.0
9.617973952467912 3.363804764345866 0.0
9.584322830999731 6.729956156156573 0.0
9.597221861144487 3.948534024289882 0.0
9.49401963819799 8.089507968561776 0.0
9.207321074262563 9.416906871900888 0.0
8.27185428346661 4.464932191097996 0.0
8.207416067213774 4.35878753684812 0.0
8.332747746635944 4.354903699457511 0.0
3.990181919126853 3.930792395858886 0.0
8.267392138262498 4.254008221702929 0.0
7.997788712685495 1.196805377512679 0.0
9.600316638269724 5.639973985281733 0.0
9.550939606739425 5.737313319038155 0.0
9.44084303195315 5.74233753256161 0.0
9.50112296154558 5.834555019909565 0.0
8.897429225733994 6.685415510921676 0.0
8.762930941408914 6.695907295903629 0.0
8.654628175336732 9.278157371342388 0.0
8.544676900803436 9.133790942553834 0.0
5.294904777716057 5.855935872688884 0.0
5.216749389964556 5.66865685845661 0.0
9.508453581298625 2.239460033375932 0.0
9.599691370793206 3.169496930704394 0.0
9.546615051106684 3.073514534194011 0.0
7.484714626923596 5.028675123117963 0.0
9.588496050271255 7.850836295555126 0.0
5.153197381012662 1.471340286561097 0.0
9.433168304679345 3.071871997104804 0.0
9.610464706874994 5.829217654498672 0.0
9.561407772947403 5.926179534044419 0.0
8.273381980676042 5.705233340662362 0.0
8.330794188929296 5.594351887246082 0.0
8.207319603076424 5.596747949305344 0.0
7.251338559467102 5.233758892662348 0.0
8.708518799790543 1.130513882092466 0.0
9.590155250193266 0.5878623138195824 0.0
9.389919385420015 5.841079912164009 0.0
7.991397852194216 5.859910582924319 0.0
9.624951589233206 4.975554514425905 0.0
7.240016788025947 2.531866266726309 0.0
7.635666783493215 3.873554782053258 0.0
9.608476620993713 1.863530872936442 0.0
9.365330459496413 8.10677840682376 0.0
8.775076110585598 2.572737931759856 0.0
8.699389445914996 2.444602334375113 0.0
8.625078713232146 2.580891022578613 0.0
8.54447196848446 2.447624719286678 0.0
8.468898498943965 2.586757328881282 0.0
8.62282309213608 2.307826916202421 0.0
9.622102662978762 6.439307895185218 0.0
9.561995355724862 6.35103962032292 0.0
3.898245450818314 1.856155797593496 0.0
9.681759177700954 5.07069253017652 0.0
9.059254996454502 4.963357716933865 0.0
9.113144532326562 4.861710138088372 0.0
9.62140874877204 2.656009146517733 0.0
7.884510615470827 0.9666888912541309 0.0
8.14902661050739 1.005010215149227 0.0
8.491263206618079 8.527197931363634 0.0
8.408859203395778 8.697060715788105 0.0
6.54422152733529 1.954566069381189 0.0
9.563546573097593 2.755667904356369 0.0
9.453065492925557 2.761122255953964 0.0
9.676889098520615 2.755084315170127 0.0
9.678287124781653 2.556838324720633 0.0
2.60254317790297 2.278874965850319 0.0
9.211706272534968 4.050470567310489 0.0
8.526711683538949 5.698821878547752 0.0
8.296604023060945 8.533761944401608 0.0
9.649704314258118 5.543946557831669 0.0
9.651176136337964 3.85122804518279 0.0
9.44590154800397 9.498503704959054 0.0
9.580491248736612 9.476376347552954 0.0
4.3239388803087 3.921156392977062 0.0
9.65737873521736 3.075324100817917 0.0
8.128000846282253 6.160273991836929 0.0
8.06242981852327 6.292371360998262 0.0
8.500465019503922 1.442700595221201 0.0
9.615253212967009 1.649819368149096 0.0
9.561768620580791 1.538553925606111 0.0
9.435477757657937 1.527391516499924 0.0
9.627993450010088 2.242685831452484 0.0
9.5338252733548 0.4673994795805215 0.0
9.398055066504014 0.4589059948533885 0.0
9.669486082509058 5.920177035588319 0.0
9.621072177439727 6.016493814615133 0.0
9.506185962103057 6.018397021409126 0.0
9.196884440497488 7.898824858961557 0.0
9.112591143666748 7.789491461180181 0.0
9.664357762385308 7.950712034233033 0.0
8.46233617997115 2.308903464128035 0.0
8.547917980328803 2.169381684694277 0.0
8.139931430059324 6.410762600521521 0.0
7.672499127532963 9.099143622036436 0.0
7.91372855627271 9.178704612763656 0.0
8.463425076318451 9.290653726808348 0.0
9.643938029094286 9.335632419679458 0.0
9.647017668702574 0.7068996148634754 0.0
6.241662276606473 5.884018212993202 0.0
6.157742245066693 5.73500474100449 0.0
6.318815619949124 5.730068085823802 0.0
6.247706374231452 5.593094310939028 0.0
6.406948541886973 5.593272398468375 0.0
6.092564106310554 5.587409338401505 0.0
8.535507922245372 5.286142900439676 0.0
8.022959839404006 4.471630490587016 0.0
7.963561162854596 4.581393556789843 0.0
9.683487139413305 1.546750704925431 0.0
9.630761777960082 1.435922217091829 0.0
5.121714348989337 7.950140247572198 0.0
5.136464096196084 8.310254432483559 0.0
5.47349124035624 8.455234262268478 0.0
5.176273618280354 8.687190323573228 0.0
4.796664658962938 8.592678692862421 0.0
9.568705729418735 4.887269869750176 0.0
9.462711651199594 4.88832222094458 0.0
9.674903475028225 4.882285174433025 0.0
5.4996067353406 5.546583260717527 0.0
5.663632234555963 5.557613452957074 0.0
6.829408195405585 1.947174574944512 0.0
5.336529198289861 1.127585641139875 0.0
9.672387559812332 6.34138351957329 0.0
4.463988917379896 2.271060678869338 0.0
8.618048281355405 6.263841736419089 0.0
6.480949808711781 5.74815588680617 0.0
6.562207427719153 5.592185077216444 0.0
6.643040463857446 5.721233693378952 0.0
6.712825900331884 5.588664360236 0.0
6.79240375630333 5.711383948285569 0.0
6.86115931532141 5.584697050428064 0.0
6.939210100691576 5.704407337029545 0.0
7.007668476576536 5.580801046893123 0.0
7.084627386867475 5.702817970154801 0.0
6.633257976075473 5.460881327825488 0.0
6.931430743764456 5.461960451448691 0.0
9.682652370938209 6.533133024505995 0.0
8.761108695241376 9.450742747770144 0.0
9.146031326900015 3.764292700000154 0.0
9.089378801805193 3.661317181076136 0.0
9.514354521818781 8.994988681611192 0.0
8.157650730500988 4.262987189670279 0.0
6.329633198899328 5.4647789391701 0.0
2.340685767996258 2.811285337457589 0.0
7.379572471323651 0.9290892725587991 0.0
4.171878172186605 4.222320767259098 0.0
4.4876601621649 4.16473354200826 0.0
5.336389369563535 6.806464508860387 0.0
9.595468321212476 9.108133206829102 0.0
9.645038675267227 8.982113951305912 0.0
8.393140678816192 4.246338342095281 0.0
8.309440721624494 4.155300532283633 0.0
9.418269339704423 1.9925512363779 0.0
9.662781807969623 0.477809346089035 0.0
8.011297869803792 0.7518828483803571 0.0
8.250149975885678 0.7646904662196189 0.0
9.608674873602773 0.3618049194050078 0.0
8.692696069692623 6.582927327365709 0.0
8.628225948401226 6.705702462696891 0.0
8.701883181418305 6.822086652299242 0.0
8.559276855155542 6.829564723911442 0.0
7.069268463354993 5.459534423493629 0.0
2.654575201159115 3.323490466195074 0.0
3.610801136544596 4.044075244426243 0.0
8.263757217166944 5.48730323490738 0.0
8.138838162809126 5.491254533497952 0.0
7.90196833683664 4.477386962763833 0.0
7.987943097943191 3.978756490171551 0.0
9.704623491880403 3.945605151832784 0.0
9.461009573830147 7.301728818091931 0.0
9.532468631193666 7.399916015174975 0.0
9.582688928417856 7.292330983701011 0.0
9.652579613269625 7.387768793572397 0.0
9.699264016151023 7.282867433965265 0.0
9.633305589700536 7.188543855060478 0.0
9.505576100168666 6.961225778216469 0.0
9.43876966151099 6.342441564206569 0.0
4.908483672172518 6.098703904450545 0.0
9.135448256237908 5.269827196966999 0.0
5.905650502271389 2.025036080946255 0.0
9.709890722072377 9.452748507541063 0.0
9.663337613522643 9.572126259365891 0.0
9.603900123387826 7.495180532331903 0.0
9.720147629525837 7.483400774981126 0.0
9.674588415444239 7.588303295299578 0.0
9.653186673863587 4.039274180923234 0.0
9.053164539680804 4.764545162185531 0.0
9.164908495749003 4.763017269285045 0.0
9.226019227262443 4.858029410614327 0.0
8.809947621994619 3.4964384919072 0.0
9.10538997155458 4.665865142902959 0.0
9.331074106432244 5.748993480915537 0.0
9.055854333858068 7.918554535314415 0.0
9.446431573964945 8.209836764658437 0.0
9.573844810886287 8.191100251691205 0.0
9.309704769895653 8.244395007943949 0.0
7.240329561730736 1.676197957122907 0.0
9.543389817573933 3.660019800390455 0.0
9.598599341122098 3.563130123982772 0.0
9.652615161407017 3.658119804270645 0.0
9.706336063693934 3.564815526226687 0.0
8.632284427755456 6.946688912416058 0.0
9.682863230715835 2.349655023034811 0.0
9.571538455120994 2.142369886250143 0.0
8.090821900439733 9.017409120951333 0.0
6.812258669899192 0.9007667548831626 0.0
6.50135254578461 0.8974046495177885 0.0
9.598335906230732 6.246437748035812 0.0
9.719677442549804 6.253968775436637 0.0
8.593026822691716 5.180101360605356 0.0
5.537586126848265 8.836083861509138 0.0
9.688689404995035 2.143487155934306 0.0
2.821389253975936 6.507820864074362 0.0
9.176571289960709 8.507736431357309 0.0
2.918303740542162 8.256728920338826 0.0
3.428955230180972 8.401446814887457 0.0
8.490587404589881 6.715350139132777 0.0
8.86049054904785 7.243279881821806 0.0
8.93696309213556 7.356650230611625 0.0
3.951931175165697 5.78308550088855 0.0
3.65055612573298 5.91672400098539 0.0
3.668142216548471 6.247526235973777 0.0
9.717269848920886 5.821831227352286 0.0
9.708364917734201 3.164198601626433 0.0
8.45581975650687 4.569560863828342 0.0
8.204448312099833 6.040774355519757 0.0
8.65969449127868 5.485991799508151 0.0
9.707534571012967 5.634423933296901 0.0
9.62102991883279 2.849662850313935 0.0
9.144093558002634 3.560383427867003 0.0
8.29763273805118 1.77155302934031 0.0
5.280452715709455 9.01633391004168 0.0
8.984558945859158 6.99932633710603 0.0
8.4157550875812 1.275784953143711 0.0
2.068078118650995 3.355462780535101 0.0
9.205703884756806 5.568274778556933 0.0
9.745857863753141 7.178456670302003 0.0
9.681628895748586 7.081494416756802 0.0
8.875818787971069 6.240744812097083 0.0
7.993733797566922 6.414830952863579 0.0
8.462810157069566 3.377071044664789 0.0
9.29428363519789 4.759591981903337 0.0
7.933956818298286 5.97437536746848 0.0
9.028281726378319 3.558713145763133 0.0
9.083461773461467 3.455531762175701 0.0
9.73231939683535 2.849247643393067 0.0
6.70072305037728 2.192432536215492 0.0
6.423245125077639 2.212870246546939 0.0
4.931537051605536 1.135086496804522 0.0
4.746426561586179 1.500381091957315 0.0
9.707706579932626 7.836419656220658 0.0
8.590593344701457 1.595639668013959 0.0
8.708946574109854 2.1688179918246 0.0
8.634728854549891 2.028564483452208 0.0
9.230357659411311 8.129337203173913 0.0
9.102841374461482 4.452881308250647 0.0
8.472081531214734 5.388993924853032 0.0
4.925996806199801 5.844046944846857 0.0
4.702806345752284 5.745688656289065 0.0
4.884357002239844 5.633237011762874 0.0
4.709628434300812 5.536404116679045 0.0
4.530800966746534 5.627044171217377 0.0
6.040296145349247 6.603808099703576 0.0
6.162203578696918 6.795213950202512 0.0
5.923135943221574 6.824060069869489 0.0
6.046693245732212 7.010423490915212 0.0
6.297337598588478 6.979895528204233 0.0
7.760448385794147 0.7294020304851334 0.0
8.492228348169641 6.958778476405878 0.0
2.89219822877093 1.704113597264478 0.0
2.26178643438086 1.7814602252425 0.0
9.726968895980871 6.009547057102511 0.0
6.63195110828313 0.6072886418835157 0.0
7.984023036954866 7.515675826210831 0.0
7.893857204140559 7.681876703427663 0.0
7.778465117872411 7.537836322197895 0.0
7.998204230811618 7.844922503023499 0.0
7.798554315988981 7.858161805718108 0.0
7.917846202023782 8.03040048103727 0.0
8.547520504556728 2.721261126162116 0.0
8.39253850806587 2.732073315877738 0.0
8.306047241032278 2.59069854402512 0.0
8.233011054235162 2.739783364361515 0.0
8.318836035587811 2.879838477099622 0.0
8.159530874574331 2.888511553151382 0.0
8.245490421394788 3.024568439743106 0.0
9.759103003747676 3.077839427881478 0.0
8.083610090773394 3.033523757291178 0.0
8.174562583800352 3.166768504406541 0.0
6.046769434852523 1.155662270344939 0.0
6.968371001421964 2.176347877216873 0.0
8.324858098380334 3.152966249334499 0.0
8.145556596142626 2.609897633546475 0.0
8.970652052821418 7.804556541250797 0.0
9.033737629244714 7.681328986528639 0.0
9.62347010002576 4.796939565664328 0.0
9.72520380348743 4.790261082613535 0.0
4.882631186210167 5.455006233451049 0.0
4.618356368594037 3.933076284395493 0.0
4.748083507220199 4.151025177732873 0.0
4.641724290430313 4.358202249373887 0.0
4.87055838101999 4.337900676660481 0.0
4.974114446887331 4.149149057174687 0.0
5.081577844806959 4.3240148266423 0.0
5.179521650033781 4.148725180298481 0.0
5.276261408871418 4.316673822529601 0.0
5.369189110897883 4.148362797753505 0.0
5.463892033849439 4.338819369807593 0.0
5.550828466075906 4.146274465971151 0.0
5.646554822352869 4.303571429647391 0.0
5.728109623160046 4.138582010823754 0.0
5.821689108984419 4.291959598724587 0.0
5.906082534948073 4.141649907302701 0.0
5.99655838673762 4.288752711512514 0.0
6.077312859438928 4.141011188943332 0.0
6.164215275138099 4.281164574562373 0.0
6.241782344986693 4.140701084167517 0.0
6.324316420613108 4.277393447415522 0.0
6.40284165425941 4.140026953305852 0.0
6.483655157361099 4.273418937894759 0.0
6.561170698911611 4.136221843106807 0.0
6.63512300179586 4.269917278694155 0.0
6.720306110251473 4.133393659385058 0.0
6.63777078218551 3.99617001426095 0.0
6.802492763973074 3.994355399489989 0.0
6.798834760478153 4.276914787769972 0.0
6.15377608509923 4.000134206628027 0.0
6.548727135071258 4.400510710520637 0.0
6.251479300130713 4.421887359316258 0.0
5.275876048175579 3.979624500657822 0.0
5.910905077162284 4.431174408784691 0.0
6.717070288412452 3.851239795555301 0.0
6.883499045994213 3.852555480300214 0.0
6.96664848901999 3.994033961856844 0.0
7.048208567116626 3.854750001965969 0.0
5.810004974283072 3.982497501655442 0.0
5.586615391658107 4.471070246359201 0.0
6.547331954052155 3.853872077215347 0.0
5.179081233207816 4.485638492900557 0.0
7.126615227065496 3.995337770596979 0.0
7.209459742762513 3.856893463870469 0.0
7.130226097876905 3.713620439679428 0.0
6.63075064074106 3.699684148676045 0.0
6.446985573861992 3.697358756862005 0.0
7.043151422977365 4.131713936060725 0.0
7.198322215260019 4.129850614748363 0.0
7.119378405252723 4.26005098890218 0.0
4.797146270976422 4.525762781577414 0.0
4.608329098388589 4.573584257851931 0.0
7.294442092743627 3.720853338661503 0.0
7.215753312764997 3.571378507508807 0.0
7.049631633956289 3.568047985538775 0.0
7.133765707749521 3.414282375958479 0.0
9.755079417839903 5.539705890434435 0.0
9.698955703441971 5.450920012703194 0.0
9.717604099406742 9.09084770432896 0.0
9.276716006673976 5.847248422342224 0.0
9.339081208926798 5.941174203394446 0.0
9.031261921742963 3.750271483819014 0.0
9.08721978689863 3.853416037308712 0.0
4.801461566647803 7.510704110489921 0.0
8.206553504932042 5.818005960412773 0.0
7.362361315389098 3.863102442315545 0.0
9.492826845316191 2.963845037486267 0.0
9.376710375304633 2.97229517374228 0.0
9.3192743723601 3.070687802230453 0.0
7.915389082113898 6.293241865913004 0.0
6.735006382384437 5.832450056405368 0.0
8.456481836836168 4.35369289249905 0.0
8.517718268476031 4.246675068616396 0.0
5.583512022030555 5.411069060406398 0.0
5.73625200174779 5.422617752052123 0.0
5.81006929286229 5.548584937688919 0.0
5.903438861894402 5.420604003204523 0.0
5.43801870974416 5.402925156167655 0.0
7.022641548594327 5.825217331839047 0.0
7.165095795605366 5.826005223633447 0.0
7.223078558430726 5.690146755650336 0.0
7.841396000338385 4.586693006493787 0.0
7.904793170875705 4.690826189066096 0.0
7.785999820520073 4.696719777099973 0.0
7.846448506395101 4.798518978096564 0.0
7.728149182067156 4.803800941124008 0.0
7.788983823826226 4.904802634695232 0.0
7.672018889153144 4.910077510508749 0.0
7.731996012352178 5.014717724244488 0.0
7.852072803124419 5.00743796185411 0.0
7.779278698005006 5.118909346425974 0.0
8.088113864063853 5.605434545811022 0.0
8.016457362785575 5.494849890158723 0.0
8.072290383394757 5.385594956317259 0.0
7.95068657972964 5.38825563681957 0.0
8.309366678475389 1.438342408757099 0.0
9.748160780780179 1.447794693754379 0.0
9.696454228162398 1.337889922375316 0.0
9.568813761940916 1.329560834053294 0.0
9.638326779791626 1.226729570935787 0.0
8.472132467407484 5.182856496818138 0.0
8.066211547412054 6.53691730655352 0.0
8.217035586462373 6.522976700918602 0.0
3.544839338670893 3.324491119989469 0.0
6.999740002965287 5.347729916247808 0.0
6.874544698914502 5.347027470386579 0.0
4.880451234715014 5.193043717957879 0.0
9.104510033763066 9.313204713465637 0.0
9.0466357104558 9.45359399494339 0.0
9.146803165140184 9.569652364413551 0.0
8.134107047896672 0.5527712356100052 0.0
8.369770412730738 0.5571215815175228 0.0
8.47386979744655 0.7564607169846485 0.0
8.585193608569258 0.5749174254532757 0.0
8.683868132726584 0.75505070091701 0.0
8.787381435061018 0.5813987798627239 0.0
8.697570280442534 0.3771156480326233 0.0
8.530048434259976 5.077280516000916 0.0
7.995091351438729 2.90367515012593 0.0
9.731083608815164 1.662638626153251 0.0
7.260488865351954 4.255073962371814 0.0
9.760728358076392 8.990038509880067 0.0
9.716710396257366 8.884160310398862 0.0
8.794627466210242 7.369659405098349 0.0
8.868068657550866 7.515048014893154 0.0
8.702594597629135 7.510501129643432 0.0
5.132320689147051 0.7610757801158905 0.0
9.755852887652699 3.853180024615871 0.0
9.787424819067885 2.757921105725315 0.0
9.731193479931608 0.3736343090103709 0.0
9.796526908308536 0.489684029254899 0.0
8.226019692057042 2.453349105940535 0.0
4.560989821496479 5.428206018250252 0.0
4.348810639659689 5.517048281386008 0.0
8.785190163106925 7.119142251269924 0.0
9.015515413043023 7.464769766852701 0.0
9.754861440190705 3.659036930324926 0.0
9.7543610723378 4.033687839160082 0.0
9.707881226943384 4.127219992296752 0.0
9.52841017383273 8.309020665649431 0.0
9.65186044414544 8.289498614805698 0.0
9.714051275521857 8.173576484362068 0.0
8.209758892476394 8.715513071423135 0.0
8.097084883671858 8.548851201381087 0.0
8.177989947800599 8.367872862579052 0.0
7.974142434808908 8.36779470623567 0.0
8.409012054919861 2.142624252464372 0.0
7.707002321497132 8.039129945341395 0.0
7.574653123518228 7.83895791570255 0.0
9.229858094382692 5.951357214361815 0.0
9.75307989876696 1.229893222503321 0.0
9.715811155868643 1.128779429890018 0.0
9.597960915003707 1.117058287635912 0.0
9.672063923518955 1.020806103150243 0.0
8.99090422125785 9.593878510105375 0.0
8.133165456134304 9.257620998029804 0.0
7.976779931497633 9.420725324095141 0.0
9.77231778617502 7.927819487779705 0.0
7.957213679655531 4.364530256281665 0.0
9.609903116082736 8.403725680286847 0.0
9.724891358972584 8.388392708395173 0.0
9.687487059868507 8.495935345161797 0.0
9.810055520269009 8.494090598382963 0.0
9.755967487162335 8.599790818513082 0.0
9.645698986824481 8.606121319182705 0.0
9.721376049217765 8.699989876681524 0.0
9.773009257015609 4.884557953188837 0.0
9.830105798750992 4.796546393900876 0.0
9.775335108731761 4.686093304257503 0.0
7.455611517737074 3.730099283949135 0.0
8.906943567829634 0.4197477661467797 0.0
8.980613334153533 0.5814185917581446 0.0
9.081059111759728 0.4263421860552371 0.0
9.821654809259165 3.576985724143072 0.0
9.761309244784803 3.4792267780002 0.0
9.763329553045937 9.353068233045157 0.0
4.463051839136694 1.164440352584939 0.0
8.0213168204867 5.283436382300235 0.0
7.89385412333227 5.290429544753158 0.0
5.806940001023414 8.583716119232427 0.0
5.88977793877374 8.96065112858812 0.0
9.177759062826041 8.25539130897928 0.0
9.626582559276994 2.05283181283147 0.0
9.747673294325121 2.064954301745188 0.0
8.775905508647185 6.951821187702613 0.0
2.3581644273991 6.029034686663493 0.0
9.777798009058461 9.548066962498762 0.0
9.737129197219856 9.662299853506903 0.0
9.615080366030512 9.683349544763068 0.0
3.315839678697904 6.042943273456425 0.0
8.915083018115329 7.937748428923896 0.0
9.489832173860055 4.712364754630572 0.0
8.118313727862493 8.013944064029838 0.0
8.902248750797776 7.67372145952523 0.0
8.954075939212636 3.463080912810881 0.0
9.45247551997678 2.133243108303608 0.0
8.311151553157742 8.899233004613622 0.0
3.28672004268868 6.826745674539142 0.0
9.86008383798735 3.468233656255824 0.0
8.389990589860254 1.947086063498656 0.0
7.144231739553659 5.329544660076687 0.0
9.654500729007207 7.743301971143119 0.0
9.761920842881946 7.740144345898896 0.0
9.692820773976567 0.2651585113981998 0.0
9.690951720399688 6.100517071814821 0.0
9.775704281989471 6.077882312279847 0.0
9.823117117198079 4.115168542267924 0.0
9.764391943581737 4.214465954230587 0.0
9.659455011849253 4.218716850797838 0.0
9.713462125022623 4.30742830316693 0.0
9.849638067150842 4.208845651573708 0.0
6.376241713254513 3.858766051594979 0.0
6.274931849158213 3.701528298009006 0.0
7.097780104117746 1.926449727602711 0.0
2.457742027508782 3.810157622192786 0.0
2.963634206580268 3.740748099915693 0.0
5.065585416063965 5.544355730437482 0.0
9.783560252464587 7.566507987677117 0.0
9.825819294611026 7.470942204664841 0.0
9.799976114123012 1.01659516618323 0.0
9.745559590633832 0.9150866860898854 0.0
8.20473400632469 9.495828670767946 0.0
8.784586030320169 2.054461500762216 0.0
8.758471587067168 1.888286802854785 0.0
0.9188935087347281 8.510730800272478 0.0
9.674192026048217 9.20389587377276 0.0
9.796314981283475 9.185916994648775 0.0
7.206882433199502 5.452024361489832 0.0
9.773927048949279 6.334665846819535 0.0
9.830288393591173 6.225300227041885 0.0
8.25177349297509 3.282767705830209 0.0
8.099233469407428 3.304040153764131 0.0
9.607860512870598 4.315652630490023 0.0
9.403674738018715 8.367349042046314 0.0
7.611756786273919 5.018691202305147 0.0
7.549513964643336 4.923310232561835 0.0
9.80986724662116 0.2915868356190958 0.0
0.7757562810577034 3.504187313079081 0.0
7.659562100664981 4.698467529240196 0.0
6.539424975891206 3.541729955691742 0.0
6.717348880400739 3.55221857686142 0.0
6.836337579501807 2.417476958454302 0.0
7.096480496160066 5.959124656438389 0.0
7.189742782777612 4.377051328076039 0.0
7.051723187622053 4.38470822973091 0.0
7.125489805519186 4.497018383456762 0.0
6.994915621927777 4.501504591168814 0.0
7.056755276274058 4.607929817497045 0.0
6.932937068803914 4.613249390039674 0.0
6.86629288290367 4.50541343988659 0.0
6.80427099775847 4.617607827251794 0.0
6.739195362053689 4.511124964201849 0.0
6.677260697693361 4.624288827143181 0.0
6.996760608675822 4.711715831373894 0.0
6.316045249462968 0.6456945497683586 0.0
7.321834163850416 5.816449323512759 0.0
7.833101485370825 4.390058096386987 0.0
4.996572652976738 4.498711166259074 0.0
5.112334577457371 4.663858846723513 0.0
5.271923064784868 4.629759173373871 0.0
4.93773508827367 4.668006487116195 0.0
5.348137647919096 4.485934621930562 0.0
5.413454827497575 4.62999925573761 0.0
5.356581113747675 4.770594395332836 0.0
5.013422223730484 4.793321773780133 0.0
8.58674425943957 0.9312335381466886 0.0
8.776450596582496 0.9362399987293505 0.0
4.783496233934828 9.486061758876032 0.0
4.544176394620909 9.034071856445296 0.0
4.082330493623582 9.015765881393772 0.0
9.820867469965414 7.285959215547852 0.0
9.852697883440127 7.166089674802766 0.0
9.260999083164238 2.971390964911171 0.0
9.197701900169713 3.073162109379564 0.0
9.31960210441945 2.867465579641856 0.0
6.660951583415121 3.383363199709994 0.0
5.210469976037585 4.761678854423166 0.0
6.740780285297665 4.733615686805694 0.0
6.611362405615225 4.731958642073806 0.0
6.549091884465382 4.629620704100811 0.0
6.491761716522486 4.733409494449344 0.0
6.425259228542098 4.640546096196947 0.0
9.715556659367534 2.986725573570596 0.0
3.710524324925069 9.463213827486557 0.0
4.768537031214573 4.727001037865238 0.0
5.039413681704655 5.378508462165627 0.0
5.188746429211535 5.440476671296013 0.0
5.172214816037712 5.298914527247826 0.0
4.469063601436893 3.667917323494335 0.0
3.799121596584382 4.741629285988305 0.0
3.661085664896249 4.442847704416992 0.0
3.316563386321876 4.380147387454913 0.0
3.802087298647255 5.26743535640985 0.0
9.738116341343215 8.047178982429934 0.0
9.85106076399546 8.021725551312715 0.0
9.837581050304836 2.844176011307251 0.0
9.664579962075123 4.402853107737106 0.0
9.76433159763034 4.39807801415352 0.0
9.718924973226878 4.487825491046641 0.0
9.826405563645343 4.494594135148365 0.0
4.931068003413168 6.359330991212394 0.0
5.130175746947236 6.201075257041828 0.0
5.143884286052002 6.445382329515047 0.0
4.953395875296406 6.628748468717369 0.0
7.833019185167153 5.400347121613631 0.0
7.766636138801143 5.313240048256084 0.0
9.767038723422333 4.578090619166644 0.0
7.315369355237483 3.441501197259575 0.0
9.556068971301514 0.2347811136726856 0.0
5.733871280791703 4.444861510772459 0.0
5.828809543126846 4.569791247698539 0.0
5.986701526182213 4.562881783985375 0.0
5.912543327921148 4.692966271273211 0.0
6.052130330528581 4.682477327897978 0.0
5.773525984744635 4.697697018456535 0.0
6.121646311546238 4.572302645403103 0.0
6.182349700936326 4.67713231096357 0.0
5.846371383601797 4.808939734754761 0.0
5.117807918383606 5.974361363083184 0.0
6.256132501905665 4.575863546153224 0.0
6.324770064521816 9.645040261272253 0.0
7.345522892050965 4.12581088034536 0.0
9.338523512844539 4.854480276600515 0.0
9.286984287289403 4.959628690044808 0.0
5.676298026114105 4.589279806918992 0.0
5.631257891894775 4.722749088404111 0.0
7.970415275563177 5.621040275419208 0.0
9.565118337557308 7.081391220827488 0.0
9.626201005045262 6.980441083020495 0.0
9.733729506193331 6.979928568877979 0.0
9.684556253529976 6.887102896543928 0.0
9.780785815410074 6.890287441101827 0.0
9.740054813822885 6.794211367612523 0.0
6.462628988057306 7.629921412015864 0.0
6.692564520952154 7.473594130811262 0.0
6.927983108788191 7.570982428592125 0.0
6.899878641134941 7.329306734748538 0.0
7.117542472438434 7.416951094809493 0.0
7.089537168123128 7.186691566729968 0.0
7.296585396514727 7.275888419524222 0.0
6.879678873774065 7.097443005287856 0.0
7.063454637059129 6.967740076426161 0.0
7.329105042924355 7.496317641003757 0.0
6.867084781778411 6.878842928865059 0.0
7.494278796275744 7.351949197351029 0.0
7.462564159480594 7.150140034494138 0.0
7.644835001206406 7.21506678718646 0.0
6.682478929414216 7.008358327294905 0.0
6.449199855715812 7.365660640952548 0.0
7.548139855358765 7.57299228324251 0.0
7.008502809092701 7.844601794812628 0.0
7.371739019901781 7.707688433423657 0.0
5.665345294602155 5.290628720253272 0.0
3.987583013016546 4.486920698115711 0.0
8.893480480320447 0.7785000884179994 0.0
9.715485963651112 0.5955299613117169 0.0
9.761785841543585 0.7048670948649375 0.0
9.670304314877074 4.578896619304786 0.0
8.058509626083154 5.744161686650483 0.0
6.181795443628869 5.462040811515966 0.0
6.256771804808641 5.338464817889848 0.0
6.124070400983443 5.352376180901929 0.0
6.399679261813415 5.349186390888865 0.0
6.477776305607503 5.46505688468465 0.0
6.541624525938461 5.346017118512589 0.0
6.673064575428321 5.339051516933525 0.0
6.599301548842115 5.241958624987057 0.0
9.573774011620444 0.815274945835158 0.0
5.86493292693426 5.877588788523632 0.0
5.552663040119136 6.957487930464628 0.0
5.535080960199246 6.663033131707637 0.0
3.708603689392072 0.5979254716153909 0.0
3.31896983256719 1.188583855309964 0.0
3.895664898001925 1.128137111173669 0.0
6.363360407965353 6.032416442205533 0.0
9.445959758065749 1.070139246426051 0.0
9.50632172780449 1.214052376665338 0.0
9.441030033980638 1.325047485624912 0.0
9.295799464644857 1.341410624832976 0.0
9.184164107767781 1.461677744200096 0.0
6.407191016756832 4.407273313799791 0.0
5.544591888593027 0.7652641669375747 0.0
7.883090151006535 2.497506182548758 0.0
8.073420508370992 2.120510489750234 0.0
5.494822040671399 4.732314720081375 0.0
0.8986976806403217 1.464611451578306 0.0
9.536325549598013 6.83286654168725 0.0
5.972289519322897 5.727532110854501 0.0
9.82203607053145 9.443411729566549 0.0
7.263199949874008 7.064207941227515 0.0
7.233659553805083 6.853135694774254 0.0
9.793310082768443 7.072747972018893 0.0
6.734168931095253 9.67499220075154 0.0
6.941134861034159 9.382328333169653 0.0
7.285822522704258 9.443989747444657 0.0
6.576263515512108 9.333035011158342 0.0
7.160560566479093 9.127732577621245 0.0
6.218711947378506 9.298064908857533 0.0
6.432383355119106 8.980985203293491 0.0
6.795390278360442 9.046043538032663 0.0
8.54677014121837 0.1957422484480979 0.0
8.528696320820908 9.804850950580938 0.0
8.42644965647489 9.604735484095604 0.0
8.010239224104339 9.715048083583248 0.0
8.644359648763341 9.628432815860457 0.0
5.344212921686536 5.526744195650314 0.0
9.760936589662048 7.38409687515441 0.0
9.128187788393989 0.1445485608215519 0.0
9.133307661752394 9.854833215426817 0.0
4.867351616228264 3.944459575003425 0.0
5.905323253270366 7.385600364255367 0.0
5.909045412185362 3.361969954191194 0.0
5.80580919758911 3.569999290452344 0.0
5.578230704221431 3.587842862412673 0.0
6.013352753603037 3.550699073477782 0.0
5.936624955014758 3.721630401607248 0.0
5.735413275357409 3.78528948606432 0.0
5.512538847486775 3.794760621907932 0.0
5.360571639388366 3.618649018042938 0.0
5.134141179590394 3.459385929220745 0.0
6.167399567008798 3.367365990358096 0.0
9.766756262206602 8.291756450136036 0.0
5.486063578307141 9.64505925252771 0.0
9.497624614180321 4.328873442170357 0.0
9.811387324954623 1.570516917365688 0.0
9.389210081887331 4.69150887571586 0.0
9.704395728912932 3.754226393630331 0.0
9.808172776193384 3.748784464356272 0.0
6.549660911932182 4.839747932361234 0.0
6.757415124099031 6.077939876843736 0.0
3.805578542126494 8.040840085419626 0.0
4.232580149691158 8.198659880701744 0.0
4.559765382564095 7.87091698350757 0.0
8.3829075948167 0.9495097054886067 0.0
9.8571301061408 1.456307792614791 0.0
2.005900212453279 4.535525273813588 0.0
1.85904408608185 3.956445706785572 0.0
1.979307922430775 5.474327285927505 0.0
4.387923194305381 4.427191306527721 0.0
9.429258370703248 8.873693567695483 0.0
8.99196583083892 4.664567567015693 0.0
3.050357122593155 5.368999067452741 0.0
2.861107385476722 5.785089447130829 0.0
5.005058958272409 3.711196438448062 0.0
9.8972295764837 2.755337284632969 0.0
9.581048890980513 8.853909321617065 0.0
9.668838904423916 1.762418716497425 0.0
9.716576458425756 1.852218615166234 0.0
9.799043132681442 1.780583141193779 0.0
7.661868217848455 2.880323287492419 0.0
6.780136552904057 5.443858690999834 0.0
6.489544866845868 5.913957888434588 0.0
6.880149522020364 4.134257616716107 0.0
6.970134365280068 4.264072319341612 0.0
2.225481516813409 9.348422240784 0.0
1.843418032490818 8.641605249943353 0.0
2.198000805242772 0.6459947140825729 0.0
8.740020306282506 0.1903932731609072 0.0
6.86957996016679 4.720776242956433 0.0
7.430920333506809 0.2702852342693345 0.0
7.302066064947383 0.6134316505458445 0.0
9.305398039877746 4.64854361125207 0.0
4.078151380865065 5.203425462519088 0.0
4.080704120371218 4.778853303303787 0.0
8.052525541571825 5.965483159581719 0.0
6.367194027835946 4.754896037842673 0.0
8.604191121620719 7.648182513679963 0.0
9.546446695207845 9.234701521982952 0.0
9.018652854946867 3.351011585453845 0.0
9.143853648154607 3.350173119015413 0.0
9.067079866763024 3.245174561579149 0.0
8.991492136849105 3.135578770028028 0.0
9.29603967712795 0.1426516429033488 0.0
9.392428271030795 0.2506306237151588 0.0
9.223973843394301 0.2912279164401488 0.0
8.39375191941536 3.018777714002827 0.0
8.4836475746111 2.88135207267795 0.0
8.741089053946197 9.821127577434911 0.0
9.803966507713174 5.448064463539533 0.0
9.748132240148552 5.359371181503531 0.0
9.850258990973547 5.355211921626304 0.0
9.7965346514158 5.266762244994661 0.0
9.84142096963129 5.171050273734619 0.0
9.738843612428232 5.167483913244169 0.0
9.64168976006725 5.359875132194057 0.0
3.335917453809221 5.671837672982919 0.0
6.962669142802881 1.683222554707996 0.0
7.365210844496719 1.887492842536114 0.0
7.517378971174123 1.677983072937792 0.0
8.00383870208024 6.089394601875145 0.0
1.725435941000569 2.759295503019395 0.0
7.907977929549089 5.102827208603365 0.0
8.052861051278896 0.2683271125209605 0.0
9.80169732768395 3.385443381464333 0.0
9.831597648680848 3.28491948963525 0.0
9.736335895866404 3.316207814499244 0.0
9.597256128490281 3.756160701977744 0.0
8.865819925321706 3.366235906378775 0.0
8.489614436807788 1.757152185195495 0.0
8.88089641144391 1.078983279100314 0.0
7.430923851187758 9.724389499796425 0.0
7.584252919312249 9.509430586267927 0.0
9.744026095940516 2.247117754488748 0.0
9.729961521243718 2.659836747108116 0.0
9.790866569780063 2.558993767350471 0.0
9.736606445116795 2.455104424879619 0.0
9.846806182714698 2.452157456754448 0.0
4.518102112052724 5.141350889745285 0.0
4.519880229178207 4.85678334497067 0.0
9.7302407894617 6.434012603549242 0.0
9.787537474544765 6.523591663056312 0.0
9.744262337067932 6.617499601377625 0.0
9.8406238811518 6.41591236129004 0.0
8.914967252734657 3.579360039684312 0.0
9.154797282599406 5.670753066089419 0.0
4.228839454580575 4.612979739018002 0.0
6.095037541675208 4.42126627187728 0.0
9.304166983880842 9.864854494751789 0.0
9.406445527105628 9.759007358529582 0.0
9.256225114941945 9.700832989525724 0.0
9.796206564635622 2.351215649506205 0.0
9.849373673349081 2.25090453834006 0.0
6.332048155295931 3.511675163099286 0.0
9.069679774213784 3.022879178706259 0.0
9.070599961450037 9.055284879641471 0.0
1.808685691036764 6.331557276533421 0.0
7.120156826652838 4.698481230214924 0.0
7.052894345811342 4.799848851879358 0.0
4.739957520484086 5.369107149361242 0.0
9.389197839958292 7.197139943834638 0.0
9.046688232613976 4.560364044038737 0.0
9.162685461967492 4.562194096410666 0.0
4.227377821420887 1.564128177298305 0.0
9.201090975245227 2.794301402811909 0.0
9.251941624303948 2.677556975242327 0.0
9.186758273070138 2.563916005021366 0.0
9.317609833868786 2.560335260954038 0.0
6.57599191748324 2.437689779955877 0.0
6.305556560534859 2.459112595979303 0.0
6.981058048792093 2.642476994448363 0.0
9.886113463139504 6.510498309609482 0.0
9.250462794607717 6.221362629571698 0.0
9.305373999084068 6.108271307139882 0.0
9.390477915810829 6.228015172491477 0.0
9.44452571968143 6.114582165110393 0.0
9.502105740270528 6.197677857389309 0.0
9.31559697209813 6.331647407124485 0.0
9.370938253597153 6.437386206819511 0.0
9.594764406124872 0.1099001288712305 0.0
9.602872681151728 9.894988341116305 0.0
9.622661196143387 8.076680696281343 0.0
9.769069277144705 5.9102532189237 0.0
2.615076109785583 8.807551523115547 0.0
9.658920005405456 5.730890135691177 0.0
9.76063135061807 5.720703211793342 0.0
8.63963723169499 7.177334225227945 0.0
7.841904391869763 6.41346852896409 0.0
7.764520718520185 6.297267738834625 0.0
9.546492996136271 3.465225175657335 0.0
9.25600964352143 2.219157062786616 0.0
7.625057159226293 7.012987957636062 0.0
9.529121062829038 7.730283486008674 0.0
8.329887090625894 3.845190321147069 0.0
8.265841850823831 3.95687001944245 0.0
8.402006523775544 3.947660780406651 0.0
8.128436391670505 3.968543393650448 0.0
8.46705122470662 3.835767362024195 0.0
8.218867047074696 4.063481375518748 0.0
8.089763413611255 4.08062363292928 0.0
7.939578083855268 4.111915744184436 0.0
3.74991304509639 6.615676756107112 0.0
2.627714335615619 1.170993030860914 0.0
7.046129971268607 6.759930788612616 0.0
8.534603732661887 7.486325780553722 0.0
1.569381386467569 2.042794535871475 0.0
6.228703743210918 1.986421863690014 0.0
6.467030855792859 2.67190498312861 0.0
9.272246093269825 1.975478263632296 0.0
8.05269609263041 3.854522845257449 0.0
8.008595521536957 3.177870309354594 0.0
7.929796740504207 3.350600835935766 0.0
8.048703574664067 3.449582532910417 0.0
9.72947480375618 4.973926800124758 0.0
9.784850360535604 5.072865219810449 0.0
9.896036387646596 5.069261557893528 0.0
9.633140953203334 5.168645132864771 0.0
9.558102991128836 7.602453108835212 0.0
7.278758746505716 3.994295887299482 0.0
8.306681733482405 6.936428510427854 0.0
9.487163072013963 3.757777670075558 0.0
9.532950522284125 5.359403698944497 0.0
9.816036650072329 3.927268437107025 0.0
6.173882586235392 8.734645960664665 0.0
7.972518459433741 5.003005338485466 0.0
8.398453459336153 1.601072016988848 0.0
8.97460527296194 4.040886705742754 0.0
9.037941657530773 4.143578781749325 0.0
8.849604200183613 3.828506169652706 0.0
9.545296177100065 4.042698359132156 0.0
8.595941796785514 5.806754902023664 0.0
8.65588412428292 5.694192853853139 0.0
8.723710665131787 5.801528918332044 0.0
6.861288985046249 6.673713222735126 0.0
8.87477249219366 4.664500928777609 0.0
8.72385765226959 3.608276264790996 0.0
7.145228858696953 5.573648565429618 0.0
7.282945121585866 5.558559688509987 0.0
9.224761401603633 1.602363370249125 0.0
9.609115686587552 2.986868833620756 0.0
9.633989947851914 6.628120633848649 0.0
6.046214325132457 5.45615093027661 0.0
9.017014346798927 5.271996636983457 0.0
9.070824864071271 5.168510834798647 0.0
9.189021391555556 5.166867900487267 0.0
9.123328759137758 5.064718588163964 0.0
9.240587446378079 5.06459430516883 0.0
9.250848280531756 5.267364371053135 0.0
5.773050603406019 5.7192906317521 0.0
8.576466432793914 4.3559007860436 0.0
8.634627802680399 4.253467736542067 0.0
8.461790117175607 5.591735227444779 0.0
8.907610717370224 3.713397213891439 0.0
9.80665594564509 5.628066492225966 0.0
8.985935132601089 4.455263493464225 0.0
9.00640209566022 5.067597672073404 0.0
9.833659276096986 6.976519563917422 0.0
8.0283368553477 4.687271895436317 0.0
8.326580191759327 9.127498457128247 0.0
8.650637373791266 5.07513089931925 0.0
8.701067313435203 2.700069743477523 0.0
4.825307249916392 4.884175191874744 0.0
9.418335984190309 6.858444798015129 0.0
3.91434687300816 8.542956908935874 0.0
5.569239724399552 2.064135034637056 0.0
5.234271567762738 2.128974435011933 0.0
5.757920427527626 2.312422707096966 0.0
5.43365689737979 2.427455772745759 0.0
5.673210219624612 2.602111218343444 0.0
7.214258468265766 6.652783071431555 0.0
9.823626269633962 4.30685540664529 0.0
7.96996639420014 4.794005510174826 0.0
7.616003332725032 0.502676560965646 0.0
3.050634530589821 4.659174799474146 0.0
2.870894249800723 4.246924313393336 0.0
5.285393339952368 6.079037173753393 0.0
9.439954241218905 4.23581687956071 0.0
9.67709722097145 4.710772408106511 0.0
7.40767785509217 4.259947873553335 0.0
8.396202587439676 5.486075637998701 0.0
8.323689688705493 5.372061002264632 0.0
8.191312386254125 5.384662546230823 0.0
5.304380054816289 5.369675374029755 0.0
9.093848379546637 4.047647920840374 0.0
7.916313220758624 3.045043876114836 0.0
8.435854831444637 4.144861908356168 0.0
9.060262453079693 0.7340576053322918 0.0
7.053195520344596 5.238809779682351 0.0
9.621762679347093 2.45205452967588 0.0
8.410730269104743 5.287995309529392 0.0
9.655094569234972 3.472720279371932 0.0
7.982140513923982 6.667914768024983 0.0
8.402690325256646 4.883576657130221 0.0
9.17488654147479 4.962006474835693 0.0
9.013188196102961 8.49700148123058 0.0
9.795977244531603 2.156818021002043 0.0
9.893813711206834 9.545820400859157 0.0
7.965349232662289 4.250048884270795 0.0
8.644264557989125 4.874751532150782 0.0
8.215430976121077 1.26077208565765 0.0
8.379717637669398 8.37324652769609 0.0
9.320026533461409 5.559861899725609 0.0
7.885778178744864 0.4977439426642278 0.0
7.547066983926719 5.125166613071239 0.0
7.657542898944819 5.122996245335209 0.0
7.423918840193691 9.000935553397358 0.0
9.854133000712425 5.541931969512857 0.0
9.328508174398952 2.101486405523264 0.0
9.300749600926641 9.530012105354274 0.0
8.130307182491519 5.277079344947874 0.0
8.346752967392757 4.987627363826086 0.0
9.118404185029991 6.007087846617186 0.0
9.048232213728614 5.89431792713258 0.0
9.088340967655858 5.576242562571367 0.0
8.094762487139027 4.789727191449318 0.0
9.915265904493378 5.749591413470928 0.0
9.92169805280126 6.154216704502091 0.0
9.918022441582268 4.549125436287157 0.0
9.919332362905616 4.849536560132457 0.0
9.914800786693318 6.750595509794719 0.0
9.811792900437824 6.703950687575952 0.0
9.900643083988882 3.749855087409844 0.0
9.912423171222734 3.043228996968949 0.0
9.91892875832665 5.949999999993851 0.0
9.913300070218703 3.960831593817277 0.0
7.709347001661226 4.444236534782706 0.0
7.479443107717332 8.071637285053104 0.0
8.839057072155848 6.807845119358974 0.0
8.972330068019902 6.78765448182788 0.0
8.542093772125282 3.941452413628317 0.0
8.279144752968262 5.930387616620717 0.0
9.393455876855919 4.973162505621418 0.0
9.507123333872533 2.855087674515822 0.0
8.77504684283825 2.317347145885344 0.0
8.394133129040345 4.464046960801843 0.0
5.725509852450801 8.210843960481027 0.0
5.62632390239664 3.967637659758752 0.0
7.910815814627989 4.900765971697654 0.0
8.595808444085467 5.590040244353608 0.0
9.705160502006024 0.8106158419444889 0.0
9.82021247904746 0.808810893177099 0.0
9.218352146075844 4.447736986422823 0.0
9.20781892622228 3.858281726888132 0.0
8.713609974387523 5.178241668554946 0.0
3.55755059259364 8.921522400238844 0.0
9.59122926011489 5.452844834281716 0.0
9.70565100407009 9.77887811062354 0.0
9.826938454219809 9.74303055702321 0.0
7.238962096855633 3.278078153406256 0.0
8.575609105166194 4.567807831727537 0.0
8.936449841121737 4.765835458965493 0.0
5.59323463391086 9.248527978398117 0.0
5.280809113285124 4.886132326418428 0.0
9.328132730893216 6.544753806716806 0.0
9.026944889277736 6.67247283515637 0.0
9.81946239021469 3.007926663525007 0.0
8.677633568960493 6.144049349297466 0.0
8.33427489656924 4.571212803519522 0.0
8.55734024448315 6.382535186588269 0.0
8.692399379422756 6.372347713955898 0.0
8.495817478252626 6.503308565233578 0.0
9.905494734661673 2.544078755559835 0.0
6.177101405266569 7.228490244483556 0.0
9.825373011845263 5.807482724503027 0.0
9.808678508609606 8.118683092442964 0.0
8.397717712407108 7.08010313863416 0.0
7.428555529689225 4.935946611338556 0.0
9.575504958128711 6.125633853639113 0.0
9.154066996197898 4.146562596982661 0.0
8.074381802159323 4.337569667261167 0.0
7.018337246891919 8.843475095716133 0.0
7.970627172560641 2.658650028065857 0.0
7.382546388883145 6.723381543491632 0.0
6.822972334933889 4.884555620881615 0.0
8.343732976791593 6.041576709398377 0.0
7.743680217306919 8.423336160305476 0.0
8.505717922983454 1.115022897794028 0.0
9.113973198216474 6.992972408167606 0.0
5.818882632841168 5.300437503812764 0.0
5.951991891717714 5.279516346785062 0.0
9.450183479138845 5.92934813870612 0.0
8.783346541536119 5.48419035750989 0.0
9.38074895894124 5.65076274999803 0.0
9.513658728876734 7.193620441323493 0.0
6.396040948797887 6.776064256962667 0.0
5.389661780244388 4.89715084345563 0.0
4.473247649068957 5.85935163892416 0.0
9.249586607512612 8.37680799459232 0.0
9.103796366487646 8.379197231055114 0.0
6.274057301184156 4.87985402946409 0.0
9.259628836118232 3.561431822636308 0.0
4.037922477011971 5.489409780163391 0.0
5.62712958624254 4.893925433488392 0.0
8.806426003347967 6.133410188141932 0.0
9.53304466499349 9.59279975429444 0.0
9.542890959420024 1.966631379116419 0.0
7.459736176874619 5.863847835420528 0.0
5.937613117200432 4.89232797168023 0.0
6.171611131472617 4.879541833448487 0.0
6.100695199816815 2.291172318314745 0.0
2.315194906726768 8.081958163666464 0.0
6.878489987598286 5.148099521847569 0.0
9.105264414399338 8.639184652727645 0.0
9.20047261316883 3.457820810661327 0.0
9.895329010385955 7.55944047105717 0.0
9.912742873006831 7.76210330502246 0.0
9.37761459375249 3.168397068877758 0.0
8.946121261512507 6.345629828835438 0.0
9.918632496443566 4.449809517365367 0.0
6.848211525651934 5.945010613369067 0.0
9.915721525903255 2.047407395915179 0.0
6.117255841708726 5.163321965161054 0.0
7.276595248786602 5.347247322210079 0.0
6.32682869954104 5.23674259421017 0.0
8.785886448438022 5.692775375342819 0.0
9.099994401883361 6.776698531382792 0.0
9.913397459621638 0.2499999999998165 0.0
9.910352525643928 0.4481571029410266 0.0
9.907850422008579 0.5479735220323012 0.0
9.911983631350465 9.24778487019403 0.0
9.917634740384067 0.7514684821956668 0.0
9.195214232985496 3.254172408378337 0.0
5.000896927376288 1.846006038077654 0.0
9.917172478547403 8.250155740683276 0.0
9.908120476950126 1.742986232208194 0.0
9.914524635720774 1.949567899316728 0.0
9.907358878377153 9.145625165175748 0.0
9.917695944922635 8.949999999998397 0.0
7.648387553139914 5.325741673607362 0.0
9.605343588986079 4.130627398479715 0.0
6.648113233057817 6.774798386229164 0.0
9.910347203087213 8.446729917003672 0.0
9.913623694530468 8.548470085896316 0.0
9.9201245863254 1.536225488581779 0.0
9.906538426683255 1.059019360781604 0.0
9.912867352010919 8.74999999999809 0.0
9.799662981388353 8.79550485462418 0.0
9.831828680383174 5.99966894118311 0.0
9.91414179906643 1.263025320602998 0.0
9.920690092699912 7.240982963665807 0.0
9.385889285950551 2.235126904097426 0.0
9.28133998925606 8.00415195851526 0.0
9.817074723108401 3.172398890123306 0.0
9.482030285089927 7.512954023388035 0.0
6.682432918504054 7.233889573028878 0.0
8.528699633246763 3.260502457553277 0.0
8.91699963742029 2.327016692708648 0.0
9.267676068834481 3.954520684561369 0.0
8.70811637467455 4.974101624783084 0.0
8.18184214270768 7.816666208279135 0.0
9.690393137288163 5.264344933127836 0.0
6.937111790104696 5.245184991960528 0.0
5.895846026722989 5.174232967273284 0.0
8.281683356622615 6.400073017261236 0.0
9.150883172924027 7.444273543454419 0.0
5.430406600793122 3.390815886517273 0.0
5.049583827974758 5.697634876048387 0.0
8.3966710383105 3.495813899905868 0.0
9.007538428392454 8.046563579784266 0.0
4.645155158868719 2.637132843684674 0.0
4.887444326771336 2.30020425915506 0.0
6.483736782775559 4.522536327482678 0.0
7.843169154548308 8.2116075844056 0.0
5.06295551628385 4.901632590583318 0.0
7.201400991012747 5.138239336380897 0.0
8.519791031104612 8.848807089071627 0.0
8.658623737989732 3.031313729049854 0.0
7.585566208322493 3.629882964874684 0.0
8.411818469596405 6.834326722716643 0.0
9.172363528634236 7.669230647622864 0.0
8.85455683341768 2.682483055215344 0.0
9.359398739738925 1.631421337140716 0.0
9.071793864444992 7.337030604117359 0.0
6.968394563521436 3.712808894519514 0.0
7.899236117684646 7.094583340182754 0.0
9.54362864504834 9.781852543872333 0.0
7.151298729743687 7.644795130415299 0.0
5.452218361466201 5.186873761308322 0.0
5.517642289161902 5.293540933999446 0.0
7.802500357665464 5.978295671754199 0.0
6.594850839687122 8.491429270558893 0.0
6.029132431949566 8.294997405201931 0.0
9.31286590869111 0.5672913838331921 0.0
9.25238720319541 0.4415953739444106 0.0
9.550589523211062 4.228044955453704 0.0
8.748611832783206 6.250900951984038 0.0
7.566980108995873 3.995148257893202 0.0
7.426142759241261 3.996743578498081 0.0
6.478912513785404 4.000296412419969 0.0
9.30435638148753 5.168210982711592 0.0
7.542154188520517 5.752525075248498 0.0
7.219033852073297 2.139582470800704 0.0
7.370913620388047 6.545121498197235 0.0
5.226731036024996 5.187572666585561 0.0
8.515591031124366 4.462223215179979 0.0
6.762864307079274 0.3078036604979366 0.0
8.587432696997471 4.977010533175154 0.0
8.703948448756302 8.815629076400704 0.0
8.081003990931544 7.370949680119862 0.0
7.424404567669909 6.949730915714445 0.0
8.578903262311433 8.377992954045473 0.0
7.301258690263783 6.106184350645308 0.0
5.991600556904204 3.99820087171043 0.0
8.203048538477193 1.601044215405025 0.0
7.289972483120081 4.572350254111052 0.0
7.714697186439165 5.420586967696794 0.0
8.918853780709807 1.841796898567452 0.0
9.919941345877513 4.749808449067644 0.0
7.245589454939737 5.94251251443003 0.0
9.258480524497795 3.358952871140391 0.0
3.705877615124628 5.574038727593425 0.0
8.287096858129765 7.962370605242409 0.0
6.799629860952143 3.705385600481528 0.0
4.146753450763018 6.544154457143895 0.0
7.413973555029582 5.545687501585183 0.0
8.466524978378082 4.980481756569235 0.0
7.336312153537934 2.337983522449311 0.0
7.695505222753409 3.747498713679684 0.0
4.898236813123799 4.795853653580084 0.0
4.59779105899602 1.896916774247134 0.0
8.560170375862322 7.072369101894893 0.0
8.386150468360862 2.449771437140704 0.0
8.41200018115259 5.084601315536367 0.0
5.102189912301071 7.621598618277815 0.0
8.336320418935243 6.71651223072348 0.0
5.081745734883095 3.977838926197614 0.0
7.63590698378166 0.9500570055008507 0.0
7.743369677149255 3.051233984704873 0.0
5.357527459690566 0.3809996753407537 0.0
5.967373112873382 0.7731113464301924 0.0
8.169449265206127 6.666271947462212 0.0
5.95122726745053 5.55758205410881 0.0
9.922289489207834 3.53923011719877 0.0
9.39154684476555 2.659037023454942 0.0
7.701415639167884 7.690060291860976 0.0
9.819179654793023 1.329863870021845 0.0
8.358229579054417 6.506108206863729 0.0
9.269720555169467 5.657096143475924 0.0
4.473187658045934 7.435037860084884 0.0
9.65807158077373 3.255496360750368 0.0
9.605155446454205 8.713645566904637 0.0
7.097383547728313 5.141197376985936 0.0
9.812212483832656 1.89920712759492 0.0
9.83875570675407 6.81603549325055 0.0
8.926246869879279 2.079976511571457 0.0
9.166785856141402 9.169070814302419 0.0
8.763479010228052 1.587152667342957 0.0
5.957377924852992 6.404530806530254 0.0
7.14506854375872 6.10342416684208 0.0
5.672595070581394 5.164323323112049 0.0
4.899782787268781 0.3801727265981219 0.0
4.447133848117348 4.673614099606824 0.0
7.044865074789195 3.253639989243549 0.0
9.818461337102992 7.819456450952447 0.0
9.925334577033155 7.954012377173311 0.0
6.352907898232792 1.173665225954276 0.0
7.351721385581032 5.660361289755705 0.0
9.337367583861807 2.76534436379692 0.0
8.693118347802024 4.360254099729149 0.0
9.476812970101324 0.3524826622168163 0.0
7.109868985890334 0.9024224571333925 0.0
7.899106846231403 5.511805431542581 0.0
8.352799544476607 5.187887629361129 0.0
6.957483547582747 0.6176251309213842 0.0
8.099559500483094 1.412323841044818 0.0
9.913030944540278 0.8542404645334569 0.0
9.143075088381442 8.022165366829135 0.0
8.819861450593166 6.356592599428041 0.0
9.319444417409162 1.49938505915629 0.0
6.490262520326714 7.118204362551877 0.0
6.490874470087819 6.582907761235813 0.0
9.82506653058937 0.6146757679104559 0.0
6.803129818897624 4.419048038171804 0.0
9.840901379354312 0.08198751964190581 0.0
9.839740374244226 9.918356239418472 0.0
8.551927134544655 9.449788917425456 0.0
9.92097857388158 3.249999999993177 0.0
5.797087413057367 7.077351493358238 0.0
9.255412859987286 6.433984412022419 0.0
8.668174522249984 1.740767926084485 0.0
9.920991430240607 6.25262219124529 0.0
7.57275248448898 1.94367954756322 0.0
8.052865444445507 8.19900054463639 0.0
8.748697149245206 4.25201068974208 0.0
9.158270227735827 0.5542256343091421 0.0
5.997487767477439 4.787924707603557 0.0
6.119759900601896 4.78043793682227 0.0
4.353034750397793 8.619182743639561 0.0
8.721093521611476 5.588932824583312 0.0
5.717101151444983 1.123034066822819 0.0
9.825602081347064 8.68753399402474 0.0
8.005502510832988 8.7824052910506 0.0
5.548184234622668 6.408009287230429 0.0
5.77830300433981 6.598697187164234 0.0
9.613093825495433 4.50282172481406 0.0
9.928981132641653 9.74928475696928 0.0
6.613628176297015 4.515513362596662 0.0
1.822126723816303 1.297795131355289 0.0
9.514164594137375 1.43081427463862 0.0
4.735494753432723 3.698541604583975 0.0
9.52844959749262 8.615213629960298 0.0
4.660704511759056 0.7947595073298008 0.0
6.82340845160293 5.239926830264399 0.0
7.885938077030673 7.380147032865134 0.0
7.884599891021201 6.09005968568029 0.0
8.846834820720167 9.653276456345532 0.0
8.457777199486827 0.3851010632068662 0.0
6.66485224572131 8.771510767670392 0.0
9.091499342133352 9.708315832477556 0.0
9.824286725109655 4.976315293637262 0.0
7.848197684391786 5.632217046637356 0.0
3.88430598115417 4.225391362015386 0.0
8.776890759183289 2.809688928468134 0.0
7.393884285023409 3.59397875231041 0.0
6.927568893329758 4.396788356869783 0.0
4.96854327720728 2.662368428358774 0.0
9.1480130720193 3.951479613991279 0.0
7.071049729490975 2.38092990636632 0.0
3.40193058782919 1.686321186206593 0.0
7.612042194200681 4.815904436723407 0.0
9.043395868401339 6.888481825015849 0.0
9.098933057562759 8.152197681006806 0.0
6.058682303253315 3.857501492181965 0.0
3.707092669281355 2.986685502034343 0.0
5.113272509841263 5.189455016444592 0.0
6.960565857079232 3.416349532571279 0.0
8.755151527375476 7.649255597361291 0.0
3.393680865444538 3.679982303262531 0.0
3.117424600120088 3.35605258976247 0.0
8.530814041264104 5.488376426140491 0.0
4.820719767306654 5.106646490188182 0.0
9.918899263509473 4.144927088739744 0.0
9.918194630017027 7.447268230913605 0.0
8.461970084137805 3.144844565847669 0.0
9.924415919486059 6.949999999995354 0.0
7.184050152099684 2.72771667662237 0.0
8.834356715215904 7.801565642745232 0.0
8.689015446783005 4.145232831954543 0.0
8.490778532265319 8.234414357968106 0.0
8.63666290918932 2.83060276219705 0.0
4.61028976098935 4.741894230894578 0.0
6.314735925012879 4.003132559161639 0.0
9.20786580425652 4.67001723737971 0.0
7.141401229301469 4.873205425098625 0.0
6.235177809922153 4.774126344778935 0.0
9.12491895896937 3.145675090615719 0.0
9.255747684068178 3.162525801823036 0.0
8.312852272796098 2.290855459722148 0.0
1.449266720542303 3.363629101350872 0.0
9.525687840398492 4.800807314407045 0.0
4.829905263804087 8.14474456977717 0.0
9.09338914689732 7.563794106183232 0.0
5.389401689694107 5.283808684471545 0.0
8.530979415204587 3.029374286908943 0.0
7.901489077080633 6.535344047486632 0.0
9.218572924671975 5.760893551533255 0.0
8.562382833959296 4.143913974026883 0.0
8.62959127904665 8.974877485888243 0.0
9.408442441596518 9.62276529745719 0.0
7.5034765601713 3.869833107932387 0.0
9.842813436634783 6.600620949014236 0.0
9.826116984327193 8.911617279149695 0.0
7.529907780698261 0.7369111006685982 0.0
7.832164962480427 2.905293639437395 0.0
8.39517908433056 3.267417602291069 0.0
9.823014010107707 9.085319632577246 0.0
9.022314123618541 3.944559746338292 0.0
4.243701230676532 5.332574856090426 0.0
9.816740542566388 1.127839952679595 0.0
8.166775715766304 5.693916696568397 0.0
8.865374421689054 8.068986769641638 0.0
8.761145809863661 6.470583506581853 0.0
8.998345275919851 9.209303502026401 0.0
9.698477487436316 6.706902829754045 0.0
6.439032098063426 0.3109134377713525 0.0
7.562681994382136 4.643158005207056 0.0
9.03999088074715 0.2799354672273258 0.0
5.180741540467516 3.805018725608906 0.0
6.243990330956698 2.718077286244967 0.0
9.79416634023361 0.1815240178579244 0.0
9.926540005061975 2.847049370876555 0.0
9.826476210374608 2.670192168078066 0.0
6.365816673179121 4.536333049275508 0.0
5.546353765219417 4.618331215552614 0.0
9.820703096450293 2.000649418331399 0.0
6.884388790679166 3.561583980715254 0.0
7.431303395649604 5.747824222777201 0.0
8.849816832721245 2.19318290395604 0.0
4.185147517585975 5.697469360586313 0.0
9.165905238119013 5.873664931582344 0.0
7.70479478158537 1.788324620089049 0.0
9.627376046933474 0.9196091445437269 0.0
6.657687963328663 5.144792385996769 0.0
9.83245016645186 0.3925568446109945 0.0
7.483092985762584 9.253837199159435 0.0
5.445348362202234 3.977855663863651 0.0
7.476680532833337 4.837183287808616 0.0
9.572749890969304 8.505160319814301 0.0
9.915853314998252 9.437014513917465 0.0
7.679469018350979 7.390484878021194 0.0
9.418139053434402 4.790576000488359 0.0
8.096967733471567 5.865447162201908 0.0
9.829153508938724 8.378494945652118 0.0
9.926595955569645 5.157718300415699 0.0
8.774484245600224 7.939747459426853 0.0
8.629764448155779 6.481031318922794 0.0
8.961169458302376 3.839036702328818 0.0
4.617199205561317 5.256318959792646 0.0
8.480815774219478 4.031210317621497 0.0
9.708341592512763 3.401018043990571 0.0
7.183974816647467 4.77882314543966 0.0
9.821437962294304 7.659391965474772 0.0
8.150320284869602 2.286501016204562 0.0
9.828114434347311 1.684891358832554 0.0
5.349187766238684 6.538177907133678 0.0
8.076053471314525 2.76180604769483 0.0
4.907713691134565 5.29818629967416 0.0
0.6874399366049438 4.328593906714074 0.0
0.6980011780697519 5.702671170050627 0.0
8.263861466707834 8.182284285231713 0.0
5.838783785156478 4.913981390426639 0.0
7.807619472656604 7.235706382002089 0.0
9.388504256318683 6.022122644748753 0.0
9.929839894767033 6.436189192303577 0.0
8.3205848711706 3.39107920408397 0.0
3.240770542267401 4.019899919523968 0.0
8.059047070496568 2.468855909103855 0.0
9.932479519490421 2.449625056415224 0.0
7.737639000139152 4.580708137963557 0.0
8.26141077223695 0.3940397126348397 0.0
9.69568953371801 1.959951226402445 0.0
6.469120930453264 4.892267070266994 0.0
9.167223997255698 0.8102256463122337 0.0
6.236889648241256 0.9291076084031108 0.0
8.306379082772498 5.268830342852036 0.0
6.716089118890225 5.239344620507032 0.0
9.82511981852641 9.282822358664017 0.0
6.68375719572285 4.404998642130821 0.0
8.913754712375674 6.908138360584365 0.0
6.173250048857013 5.251634416326969 0.0
4.235907497612446 1.924052997345291 0.0
5.151007663981651 2.438629730660893 0.0
8.924254300637541 9.3764975797567 0.0
4.438612423541503 5.287968640901957 0.0
8.571203234299599 1.897009944569934 0.0
6.878800676380218 5.821332862798138 0.0
5.710626178601224 4.792560699857408 0.0
7.149510071621283 5.216310009157644 0.0
2.099966541549645 2.334742113488256 0.0
9.93396330620579 5.350566393301629 0.0
7.143046479323961 8.646955109387985 0.0
7.965747313080266 5.193641450105844 0.0
6.3314394693073 5.135050228240639 0.0
7.665821333021348 6.222698255001823 0.0
6.305321657053551 4.659816230868476 0.0
7.833020917089713 5.208837056143474 0.0
9.41455902676429 2.869725681199307 0.0
8.567151507735133 6.598605357295113 0.0
7.405527786978573 4.377085529441429 0.0
6.552969697053132 5.137148974085434 0.0
9.93630620742063 8.042778076596578 0.0
7.166743296019233 4.593171678848165 0.0
6.595561806063966 5.839366735225723 0.0
6.066152182102007 5.262519562574559 0.0
9.834694151277489 0.9093455747994099 0.0
8.98259191950674 7.579732466796592 0.0
6.465071238839505 5.25485771955322 0.0
9.759759896588413 3.236659507608532 0.0
4.775529448101694 5.224235675150505 0.0
9.935991245222917 7.153416415978829 0.0
0.6530736820718381 9.352299998916202 0.0
0.6449439415299687 0.6468300344151556 0.0
7.804690364869245 4.495816547678174 0.0
9.84503784553893 5.70620404704573 0.0
9.83525329400959 3.826992990746767 0.0
9.922964894244684 4.265000406933376 0.0
8.333767638401964 1.121219971446645 0.0
8.876012546033895 7.019147158538482 0.0
8.172413577824324 3.413096916572049 0.0
7.232233017296214 4.478957103028363 0.0
6.214597295185415 3.852860083673202 0.0
9.85013791746415 4.400709747289421 0.0
3.941627380932058 6.342995010255737 0.0
3.097271569675528 8.77391871286929 0.0
9.292917152323044 6.010976049411984 0.0
8.104342196673183 5.184165973282902 0.0
8.994300084006271 3.652611812846807 0.0
9.937157897030163 5.549999999993244 0.0
8.721368888525245 7.274540720770752 0.0
8.920003648712827 0.9516585309368178 0.0
7.910527456030004 8.536826514867816 0.0
9.846441288756814 4.60515911863952 0.0
9.584942233925151 4.712073182517884 0.0
9.642357858573972 6.805672051759494 0.0
9.797024725252207 9.838837222258014 0.0
9.842451438022124 4.018973836958878 0.0
6.112723137676118 3.704473949316424 0.0
7.574641969193845 3.765362276156904 0.0
7.826594968121701 6.200366572362263 0.0
7.762805366733504 9.34009502796868 0.0
9.56854033867856 1.012566255816665 0.0
7.71256563655353 5.219373702836014 0.0
9.68039392238282 8.786964504862018 0.0
5.910362452777086 9.277662068919813 0.0
7.418090653922814 3.326443419100716 0.0
9.857704179097952 4.697553149694669 0.0
8.452469674653342 8.996585816905599 0.0
9.522351366699843 2.057525484575908 0.0
7.802315574700843 9.548878971475935 0.0
9.938875656926385 3.449999999992592 0.0
8.425189037911712 6.608575180629274 0.0
5.925965231566842 2.523669697740033 0.0
6.654918072256329 5.95749128982984 0.0
9.826748589235729 9.631118448471485 0.0
8.6684585637523 7.39633999085442 0.0
9.844673843931567 3.090088625379724 0.0
9.93613850661301 2.250382721159617 0.0
9.218291993658738 2.892108990205171 0.0
9.83502846611296 8.212781989607324 0.0
7.754136409732265 7.104288507262783 0.0
8.510570542791681 2.036933285735889 0.0
7.757745059307245 4.315798612475442 0.0
7.989231770559189 6.201656630465583 0.0
8.068934521422738 4.198631572122605 0.0
4.957478134450373 9.038766150325067 0.0
7.208661142641733 6.501402463831379 0.0
7.299506095906239 4.363561999234681 0.0
8.250303873550486 2.105322217421675 0.0
8.678637541413377 7.053471135702286 0.0
9.761528395137384 6.163503990672834 0.0
9.84494857233395 8.59999999999775 0.0
9.83825138794677 3.672838954969637 0.0
5.121008544047756 5.808127183024784 0.0
8.343911550360986 4.043535893276861 0.0
9.85324441775315 5.899999999993774 0.0
9.51114465213134 8.41035540646284 0.0
6.505812179224195 6.93390566262983 0.0
6.15572847138365 9.023097246950844 0.0
3.352081892333425 3.024853379890529 0.0
6.433163283162099 8.675072413910678 0.0
8.825744236698243 3.624446391299867 0.0
4.883007294861279 7.819620905924936 0.0
5.876659170760434 5.638247433601083 0.0
6.859400040348503 6.510797998354633 0.0
7.946400945409184 3.500317276373196 0.0
7.496830255505493 6.653194511698024 0.0
9.852183479755313 4.891525833556942 0.0
9.77998778436291 2.922486526124376 0.0
6.774672660492365 5.324728659740495 0.0
5.717254072187427 6.824125962512845 0.0
9.713440940838062 4.63793103997539 0.0
8.859858662536796 0.2721395536350836 0.0
8.37556017530946 9.436653414116012 0.0
7.395237381047616 7.885576562773319 0.0
5.4709157802033 4.511152089197594 0.0
9.489749416979361 9.691840729914848 0.0
4.599216022837964 3.46438688931078 0.0
5.572287492757569 4.807021644849729 0.0
9.926499336309957 9.92730688390086 0.0
9.926499336310107 0.07269311609890093 0.0
9.338127766332573 0.3585313952168247 0.0
6.810761948165162 3.414693294319008 0.0
8.166274345037138 5.943611545564389 0.0
5.2892644736731 6.301081312912763 0.0
9.731911074791544 7.649313380659622 0.0
8.90251102352767 9.50983415326544 0.0
8.997881406541017 1.033666784655452 0.0
5.835124768755703 2.738139962594905 0.0
9.665357480775825 6.185331297099201 0.0
7.656532192558493 8.217157287499347 0.0
9.170463887605525 2.975444721032631 0.0
4.208158615905443 0.8648302238584886 0.0
6.97015686031129 5.933674629077266 0.0
6.181941366523793 3.565885175921835 0.0
3.30313590337911 6.393402837735046 0.0
6.447482061767014 4.816169316820496 0.0
8.185341428749446 4.169172087371246 0.0
4.552595724340015 8.298301336212145 0.0
9.84850676569699 8.999999999998423 0.0
9.846941514449377 7.393642828194986 0.0
7.924592433490734 2.788309934035703 0.0
8.154308714226714 8.853640122009672 0.0
8.876629743004642 1.96110242719995 0.0
7.228849192966834 8.90811350348676 0.0
9.852301635085423 8.296637825215246 0.0
5.219795195341889 5.547413133147649 0.0
9.861497117995457 6.901363010201344 0.0
2.953911258021604 6.136007283255669 0.0
6.93158841067062 4.77708273647784 0.0
9.67540418457871 2.912802891506324 0.0
4.194055958522277 4.437353127730132 0.0
6.133959559341536 0.406856611599261 0.0
8.29952795189331 9.309744645643846 0.0
9.843692337952948 1.209647690818311 0.0
5.164986286280336 6.671544079402435 0.0
9.838533350075606 2.081705440779448 0.0
8.301244777513975 6.604088853319459 0.0
5.471494771710784 2.714598185146428 0.0
8.86534684892311 1.208599471795828 0.0
9.940610684232212 1.451558535868664 0.0
9.40896208432968 1.428353940655538 0.0
2.329177605337097 4.238803555614174 0.0
5.980761651517799 7.182207186682233 0.0
9.66541573964336 0.1719254072074424 0.0
7.220979380229172 7.806128737674462 0.0
1.251721227904697 6.151932667911503 0.0
8.104967286191181 6.057912607875576 0.0
6.650768762224724 4.817922869198292 0.0
6.634976350437587 3.213339182992986 0.0
7.034320437500567 4.898219100342838 0.0
9.502772020064167 6.283064492634301 0.0
8.13187938667684 3.518506862055515 0.0
9.855471943454193 2.599999999994991 0.0
9.056747742708522 8.263936599935574 0.0
4.352645795441222 5.724453640019 0.0
3.744263984699181 1.488951698361357 0.0
5.175860134287045 3.6375726667098 0.0
7.736434712114619 6.400417475661193 0.0
9.857658576695343 6.316607183405179 0.0
7.876525261950537 4.304285002335559 0.0
9.856114384785611 7.914602773442983 0.0
9.848334119947063 0.7059644476295188 0.0
9.59694321995579 6.895814046141667 0.0
5.906465212962551 3.869023950643881 0.0
9.840676994268005 9.364956386459765 0.0
5.355015287544095 3.83518170601625 0.0
6.374090407153147 5.855743754257685 0.0
8.227401290513832 5.297819733684674 0.0
5.451235131977493 4.825706629991923 0.0
6.022070213762754 5.355923882747634 0.0
9.845674433677614 6.108401449483281 0.0
9.835067400944396 7.739582406783081 0.0
8.602026805792988 2.941372356914139 0.0
5.059869081004962 5.269480960018243 0.0
5.284714507903736 5.26496663762182 0.0
9.627110479149561 7.660076105040499 0.0
6.820001127809743 4.792514421153957 0.0
5.120512795059439 4.806607659110254 0.0
9.56933817216883 2.911464407429096 0.0
9.74091654291531 9.267545397628387 0.0
9.93006767325302 6.576784040838644 0.0
9.642486276936268 4.650227701598451 0.0
5.185183328569137 9.410919109238325 0.0
9.37052946854105 4.605636695802024 0.0
1.677077220416309 5.871167715901136 0.0
7.345783833404538 3.184020711886284 0.0
5.419239942654976 5.982692039856376 0.0
6.133318300188262 2.551919945731369 0.0
6.187291396343277 4.499077117404439 0.0
1.231465237822878 3.921479198315213 0.0
8.969849937139944 9.699215363213542 0.0
9.218303154263054 6.037447959776716 0.0
CELLS 4886 19544
3 1113 1356 1450
3 1402 231 1659
3 272 269 1414
3 396 394 1777
3 1451 945 1452
3 194 81 1801
3 1847 1501 2104
3 2024 2121 2479
3 1115 1113 1450
3 1124 1413 1844
3 1061 1955 2409
3 307 305 1645
3 1592 1369 1593
3 238 1501 1847
3 1955 1883 2409
3 1808 243 1910
3 1885 978 2362
3 1440 793 2092
3 189 1488 1608
3 353 350 1864
3 2007 2231 2232
3 307 1645 2493
3 1096 1760 2496
3 2178 874 2179
3 621 625 1595
3 1493 1480 1938
3 1655 1268 2137
3 1341 1410 2212
3 243 1808 2360
3 1902 1446 2516
3 1760 1096 1763
3 856 790 2180
3 2008 2046 2105
3 789 1809 2067
3 694 1543 1575
3 1127 1762 1953
3 1748 807 2228
3 1543 1308 1575
3 820 1872 2170
3 1417 954 1998
3 1369 1592 2386
3 272 1414 1787
3 329 333 1998
3 1544 1095 1545
3 2231 1490 2232
3 1342 1683 1790
3 374 377 1797
3 807 1678 2228
3 1665 198 2128
3 141 142 1620
3 325 322 1952
3 231 1402 1654
3 198 1665 2010
3 1890 1307 2387
3 208 1438 1619
3 2016 1970 2156
3 1436 212 2020
3 954 1417 2333
3 1736 1894 2244
3 1491 1750 2143
3 1677 1064 2146
3 1474 1258 1475
3 1500 233 1930
3 1446 2415 2516
3 1700 973 1800
3 2128 2270 2316
3 1316 1315 1593
3 1307 2341 2387
3 2258 1324 2328
3 1083 1507 1508
3 693 1095 1544
3 621 1595 1596
3 667 1571 1872
3 1932 1766 2061
3 393 391 2240
3 1342 1790 2400
3 252 1707 2234
3 931 978 1885
3 1430 1116 1704
3 1411 1109 1714
3 1478 1227 2440
3 1990 195 2297
3 1792 1167 1985
3 1682 444 1975
3 394 397 1777
3 1711 2028 2162
3 1574 856 2180
3 2008 1851 2046
3 736 1493 1938
3 1069 1060 1662
3 1458 455 1754
3 862 691 1705
3 1161 1642 2286
3 1699 1700 1800
3 447 516 1637
3 955 1482 1483
3 2024 206 2121
3 391 1773 2240
3 1072 1412 1893
3 212 1436 2350
3 1566 1365 1568
3 259 1441 1672
3 872 870 1764
3 330 328 1889
3 1539 1161 2286
3 1897 1898 2275
3 1434 1990 2297
3 1109 1411 1730
3 319 307 2493
3 1762 1761 1953
3 1369 1316 1593
3 1540 834 1832
3 1505 652 2442
3 1732 1655 2137
3 921 1712 2295
3 1872 1388 2170
3 1712 921 2125
3 2028 244 2162
3 1506 1570 1680
3 1569 368 1964
3 1571 667 2375
3 1587 2178 2179
3 196 1723 1737
3 524 2016 2156
3 1528 1250 1733
3 1115 1450 1973
3 1938 1480 1971
3 1809 1396 2067
3 1641 249 2299
3 1223 1258 1474
3 1365 1566 2120
3 1981 962 2316
3 1538 353 1864
3 455 1458 1756
3 152 233 1500
3 1116 1430 1703
3 817 652 1505
3 1347 2003 2004
3 1607 1958 2085
3 194 1801 2195
3 1410 1341 2351
3 223 1415 1710
3 197 1511 2346
3 2198 787 2225
3 81 82 1801
3 1438 208 1620
3 1444 522 1823
3 1511 197 1950
3 726 718 1567
3 1637 516 1739
3 1708 2337 2341
3 1280 1649 2124
3 2337 1395 2341
3 1327 1709 2315
3 1225 1227 1478
3 691 624 1705
3 476 2224 2305
3 830 832 2204
3 1750 1491 2403
3 1366 1897 2275
3 2345 1583 2352
3 2054 405 2110
3 1984 2172 2230
3 1846 2198 2225
3 1177 2042 2418
3 2121 1367 2479
3 1527 1531 1541
3 916 1039 1834
3 1413 1124 2467
3 1622 1503 1868
3 249 1641 2019
3 1805 405 2054
3 1761 1007 1953
3 1415 223 2395
3 960 1756 2203
3 368 1569 2135
3 1402 1659 2473
3 941 1433 2471
3 1267 1477 1501
3 260 2002 2265
3 1704 558 2077
3 2224 1886 2305
3 2053 1386 2199
3 1452 945 1952
3 1717 1611 1718
3 1682 1975 2230
3 1760 1762 2496
3 1481 203 2104
3 1264 1266 1670
3 142 236 1620
3 2133 1182 2179
3 1791 1602 2183
3 350 346 1864
3 1412 1072 2393
3 1281 1575 2255
3 1565 1948 2155
3 849 1449 1513
3 1958 396 2085
3 1339 1069 1662
3 834 1540 1917
3 269 267 1414
3 1268 1267 1501
3 1440 2092 2468
3 1399 1981 2316
3 1635 1636 2041
3 1454 252 2234
3 1451 1305 1890
3 1375 1883 1955
3 362 366 1786
3 1484 2410 2528
3 1449 849 1640
3 1267 1474 1477
3 200 1611 1717
3 1054 1581 1582
3 1350 1977 2253
3 190 1390 2118
3 788 1956 2193
3 1709 1327 1888
3 2233 2298 2413
3 1488 189 2355
3 478 1685 1714
3 230 1525 1690
3 1687 478 1688
3 427 429 1756
3 1570 1065 2476
3 1880 1133 1988
3 1649 656 2124
3 1537 209 1614
3 1134 1769 1986
3 1220 1268 1655
3 396 1777 2085
3 1167 1755 1985
3 2229 1744 2296
3 1575 1281 2287
3 127 240 1882
3 377 647 1797
3 954 329 1998
3 220 1697 1698
3 1342 1341 2212
3 1441 264 1672
3 1512 188 2433
3 763 2345 2352
3 1685 1411 1714
3 1805 1188 1951
3 1347 2004 2157
3 1054 1582 1667
3 1333 1617 1674
3 2217 73 2361
3 1539 1036 1917
3 1039 1292 1834
3 208 141 1620
3 1965 1964 2038
3 693 1544 1969
3 1453 239 2279
3 203 1481 2049
3 945 1451 1889
3 680 1459 2134
3 354 2147 2196
3 1405 1932 2061
3 1723 1722 1737
3 1748 1175 1927
3 1532 1528 1733
3 2057 1824 2154
3 1406 1659 1702
3 1948 1186 2155
3 210 1598 2114
3 1685 478 1687
3 1324 1325 2328
3 1526 1250 1527
3 165 166 1509
3 1493 736 2523
3 1526 1527 1541
3 1390 190 2417
3 522 1444 1998
3 1680 1570 1732
3 1017 1442 2525
3 374 1797 2430
3 1507 1083 2197
3 1756 960 2221
3 2270 1400 2316
3 2205 1452 2282
3 1074 1187 1888
3 2158 1245 2200
3 1442 1017 1684
3 864 1116 1703
3 1750 1751 2143
3 1456 516 1492
3 1677 2146 2149
3 2022 1339 2388
3 1602 258 2183
3 678 1594 1595
3 1245 1670 2200
3 972 830 2204
3 2143 983 2342
3 1268 1501 2226
3 1266 1461 1670
3 1487 222 2465
3 1382 2022 2388
3 58 59 1661
3 2147 1543 2196
3 1484 1485 2410
3 628 2053 2199
3 1906 1549 2259
3 364 362 1786
3 1339 2022 2247
3 1636 525 2041
3 625 678 1595
3 678 1593 1594
3 2212 1410 2222
3 1837 1865 2215
3 1699 1800 1801
3 866 864 1703
3 893 1472 1982
3 1735 1736 2244
3 1633 1255 1922
3 126 127 1882
3 681 867 1656
3 1351 1401 2363
3 11 228 1588
3 1127 1953 2454
3 265 266 267
3 1722 1122 1737
3 1389 1691 2069
3 1613 1610 1616
3 1227 1256 2440
3 429 455 1756
3 1535 1177 2418
3 322 324 1952
3 973 1700 1802
3 1964 368 2038
3 1176 1865 1866
3 1096 872 1764
3 1176 1866 1875
3 193 1839 1892
3 156 157 1441
3 615 617 1596
3 686 1520 2480
3 1409 2097 2305
3 2410 1151 2528
3 1427 2217 2361
3 440 1911 2314
3 1744 1743 2296
3 516 1456 1739
3 1939 589 2164
3 690 931 2150
3 1062 1579 1580
3 1054 1580 1581
3 955 1483 1716
3 1064 1677 2248
3 1956 1616 2193
3 1776 1893 2026
3 1398 1115 1973
3 2002 1453 2265
3 1541 1531 1542
3 216 2191 2536
3 1736 1326 1894
3 1065 994 1066
3 1598 2115 2175
3 2314 1911 2358
3 1433 941 2042
3 2115 1209 2175
3 717 1550 1551
3 188 1941 2433
3 267 1132 1414
3 771 1569 2064
3 1157 1545 1546
3 1231 1250 1526
3 1933 240 2181
3 222 1487 2025
3 1525 230 1765
3 1430 1704 2077
3 757 1744 2495
3 264 263 265
3 883 773 1917
3 739 2205 2282
3 1667 1582 2434
3 1744 757 2474
3 239 1453 2002
3 1441 259 2356
3 2005 1443 2012
3 254 1766 1932
3 1509 166 1679
3 1477 1475 1481
3 793 1440 2165
3 1385 1523 2377
3 1481 1475 2523
3 156 1441 2356
3 1066 1220 1655
3 945 325 1952
3 2094 2087 2134
3 1747 1175 1748
3 253 262 263
3 1327 1074 1888
3 718 715 1567
3 2046 1043 2105
3 240 1933 2399
3 1305 1307 1890
3 224 58 1661
3 1195 1566 2285
3 1590 1393 1749
3 1255 1230 1922
3 353 1538 2073
3 358 1999 2325
3 882 1802 2036
3 1024 1020 1604
3 333 522 1998
3 1401 1351 2414
3 1475 1258 1476
3 2310 786 2364
3 328 945 1889
3 807 1748 1927
3 825 724 1912
3 1742 263 2491
3 267 266 1132
3 2077 2102 2203
3 1431 1432 1860
3 1212 1957 2312
3 2097 476 2305
3 1132 1402 2473
3 717 713 1550
3 1746 693 1969
3 1372 1124 1844
3 1256 1541 2269
3 1977 1350 2274
3 2332 1978 2443
3 874 2133 2179
3 1983 1534 2171
3 1157 1544 1545
3 1230 1228 1922
3 1580 1579 1581
3 1565 806 1948
3 1416 1363 2413
3 1287 1995 2398
3 265 263 266
3 1534 1529 2171
3 1604 1834 2428
3 1255 1633 2509
3 1344 1643 1644
3 1332 1388 1571
3 1423 217 2217
3 2191 1057 2451
3 458 447 1637
3 1250 1233 1733
3 472 2212 2222
3 1175 1747 1840
3 1652 256 1653
3 1073 1347 1572
3 200 145 1609
3 683 640 1585
3 1116 862 1705
3 1221 1223 1474
3 1778 801 1803
3 1503 1622 2471
3 1475 1493 2523
3 464 680 2134
3 14 210 2114
3 579 1880 1988
3 1434 1435 1990
3 1447 2310 2364
3 275 274 276
3 2294 1871 2419
3 814 1068 1684
3 1172 1439 2273
3 273 272 274
3 1363 1416 2406
3 1220 1219 1221
3 1060 1656 1662
3 1099 1792 1985
3 2048 1198 2168
3 1241 1245 2323
3 699 723 1753
3 1640 1862 2070
3 910 1018 1584
3 1586 1067 1587
3 1656 867 1662
3 1067 686 2480
3 654 2242 2294
3 1593 1315 1594
3 1880 553 1974
3 236 1717 1718
3 617 621 1596
3 1723 196 2313
3 402 1877 2116
3 273 274 275
3 2202 1869 2252
3 1510 1358 1767
3 193 1892 2373
3 1188 1805 2054
3 1220 1221 1267
3 1066 1218 1219
3 1517 1097 1518
3 1677 1676 1858
3 686 277 1520
3 268 267 269
3 697 857 1592
3 220 1698 1699
3 1802 1700 2036
3 1612 1537 1614
3 929 817 994
3 228 12 2136
3 2110 2116 2482
3 1659 1658 1702
3 1611 1613 2280
3 1344 991 1643
3 683 1585 1604
3 1638 1358 2404
3 1485 1034 2410
3 2214 833 2424
3 271 272 273
3 1482 955 1962
3 1066 1219 1220
3 931 1885 2150
3 1613 1891 2280
3 1189 1589 2204
3 1566 1195 2120
3 726 1567 2490
3 1122 1722 1874
3 1494 319 2493
3 1671 259 1672
3 1267 1221 1474
3 603 528 1591
3 1664 2128 2316
3 1817 1924 2174
3 1626 1660 2111
3 1474 1475 1477
3 1023 1062 1580
3 1957 1599 2312
3 1764 1939 2164
3 1358 1950 2404
3 200 1609 1610
3 1431 1082 1432
3 1778 1803 2521
3 1830 1832 2075
3 1930 233 2369
3 1329 1482 1650
3 757 1959 2522
3 1239 1247 1597
3 758 1978 2332
3 1569 1290 2064
3 216 1694 2191
3 1453 1420 2265
3 1549 1906 2129
3 24 215 1674
3 19 235 1676
3 1621 1057 2191
3 1691 1389 2262
3 1617 1333 2192
3 929 994 1065
3 1769 1672 1986
3 1893 1412 2026
3 1609 1537 1612
3 271 269 272
3 1373 1438 1620
3 217 1423 2381
3 517 330 1889
3 1322 1055 1667
3 1974 553 2499
3 228 2136 2187
3 1589 1189 1788
3 1999 1577 2325
3 2110 405 2116
3 189 1608 1842
3 1055 1050 1667
3 739 1455 2205
3 1865 1176 2215
3 319 1494 2522
3 2474 757 2522
3 1484 227 1485
3 10 11 1588
3 723 809 1753
3 27 230 1689
3 1550 806 1565
3 1179 1180 1217
3 207 1617 2192
3 1433 1217 1502
3 1562 1556 1606
3 1379 2017 2018
3 1245 2158 2323
3 675 1097 1517
3 884 501 1599
3 1020 683 1604
3 1603 1095 1848
3 1001 2057 2154
3 1604 1585 1834
3 1610 1612 1616
3 1764 870 1939
3 2242 1871 2294
3 1669 1264 1670
3 1658 213 1702
3 1995 1646 2398
3 631 539 1600
3 1491 2143 2342
3 1801 1800 2195
3 1200 1199 1693
3 1535 940 1861
3 1534 758 2332
3 914 2258 2328
3 1588 228 2457
3 216 138 1694
3 151 152 1500
3 1133 1880 1974
3 1677 1858 2248
3 1294 1622 1868
3 875 1010 1767
3 1379 2018 2416
3 1279 2202 2252
3 182 256 1652
3 1592 857 2386
3 672 681 1656
3 615 1596 1824
3 1093 1487 1623
3 1823 522 2100
3 1245 1242 1669
3 1582 1581 1583
3 758 1534 2306
3 1975 1984 2230
3 1358 1510 1950
3 1663 1336 1665
3 2102 960 2203
3 366 1087 1786
3 1740 1490 2231
3 21 207 1709
3 145 146 1609
3 2339 765 2384
3 603 1591 1668
3 2081 199 2149
3 1540 1832 1879
3 1721 1723 1947
3 1754 455 1793
3 1751 1753 2119
3 882 1701 1807
3 1540 1539 1917
3 242 1695 1697
3 1521 354 2091
3 1363 2233 2413
3 1584 1018 1925
3 703 1067 1586
3 1177 1178 1179
3 795 916 1834
3 277 276 607
3 1571 1388 1872
3 22 23 1617
3 1097 823 1177
3 25 26 1624
3 419 418 1790
3 1728 1906 2259
3 440 1455 2261
3 1877 1318 2116
3 1488 1156 1608
3 1439 2130 2273
3 1889 1451 1890
3 1614 209 2389
3 1472 893 2094
3 675 821 823
3 23 24 1674
3 1788 1190 2183
3 917 941 1622
3 1763 1096 1764
3 1068 1442 1684
3 1034 1485 2173
3 2172 1533 2230
3 138 139 1694
3 1065 1570 2197
3 607 674 675
3 1536 1248 2268
3 229 135 1734
3 1437 1925 1926
3 680 510 1646
3 147 209 1537
3 26 27 1689
3 1627 705 2163
3 206 1651 2121
3 2409 1785 2462
3 1492 682 2447
3 1223 1225 1258
3 889 1772 2374
3 253 263 264
3 275 276 277
3 1455 739 2261
3 2022 1382 2176
3 150 227 1484
3 639 1019 1591
3 1449 1640 2070
3 1082 833 2214
3 1503 1502 1504
3 144 200 1717
3 1643 991 1713
3 1190 1791 2183
3 1538 1804 2073
3 1256 2269 2440
3 18 19 1676
3 521 531 2000
3 790 849 2180
3 1075 1329 1650
3 1087 1782 1785
3 1066 994 1218
3 270 269 271
3 682 1492 2494
3 185 252 1454
3 253 158 262
3 1629 1632 1633
3 200 1610 1611
3 1477 1481 2104
3 1623 1487 2465
3 1518 1097 1535
3 1414 1132 2460
3 1179 1217 1433
3 177 1506 1680
3 1392 1017 2525
3 1832 834 2075
3 675 823 1097
3 1459 2094 2134
3 1782 1087 1795
3 1838 1730 2372
3 1639 149 2528
3 1617 23 1674
3 2265 1420 2489
3 180 232 1859
3 1527 1250 1528
3 20 21 1709
3 1083 1508 2311
3 903 866 1703
3 1455 440 2314
3 1187 1858 1888
3 1659 1406 2473
3 1446 1902 2166
3 421 1951 2106
3 1598 210 2115
3 154 259 1671
3 1288 1835 2080
3 1832 1831 1879
3 1258 1225 1478
3 1024 1604 2117
3 1263 1429 1739
3 706 705 1627
3 1583 1581 2352
3 407 1805 1951
3 856 1574 2527
3 1701 882 2036
3 1624 26 1689
3 717 1551 1552
3 1385 2377 2391
3 2302 1745 2354
3 1572 1347 2157
3 1036 883 1917
3 1689 1690 1691
3 1664 1665 2128
3 1476 1479 1480
3 1751 2119 2143
3 815 814 1684
3 1790 889 2400
3 1606 1607 2085
3 265 267 268
3 418 889 1790
3 1522 1521 2091
3 135 136 1734
3 1726 1445 1729
3 647 1796 1797
3 1346 1453 2279
3 1293 1827 2117
3 1242 1244 1669
3 1853 1852 1854
3 889 2374 2400
3 1039 1038 1290
3 1524 628 2199
3 1331 1332 1571
3 1291 1290 1569
3 1475 1476 1493
3 1850 1852 1853
3 1490 1740 2456
3 1689 230 1690
3 1256 1526 1541
3 1704 1705 2167
3 1465 1470 1675
3 956 1073 1572
3 1613 1616 1956
3 916 917 1038
3 2014 1522 2091
3 1221 1222 1223
3 1999 763 2352
3 234 10 1588
3 1697 220 2335
3 1527 1528 1529
3 2298 1600 2413
3 1436 2020 2254
3 1642 1161 1678
3 1523 1385 2436
3 1730 1838 2426
3 795 796 916
3 713 711 1550
3 1456 1263 1739
3 999 1336 1663
3 1785 1784 2462
3 409 415 1783
3 607 675 1517
3 1229 1231 1526
3 1958 1855 2078
3 1589 1588 1590
3 1933 261 2380
3 762 1965 2038
3 1756 1458 2203
3 1776 597 1893
3 1794 1072 1893
3 188 1512 2266
3 1774 2339 2384
3 188 1908 1941
3 1010 1510 1767
3 2189 2285 2307
3 773 834 1917
3 1245 1669 1670
3 1248 1597 2268
3 146 1537 1609
3 818 910 1584
3 1641 1313 1651
3 1217 1745 2302
3 1065 1066 1655
3 1597 1247 2047
3 1360 2177 2376
3 1612 1615 1616
3 2126 867 2186
3 1019 683 1020
3 1747 892 1840
3 1092 1093 1623
3 261 1933 2181
3 400 424 1666
3 1516 1903 2377
3 1100 1392 1605
3 247 1738 1881
3 268 1134 1986
3 1177 823 1178
3 884 1599 1957
3 263 262 2491
3 806 1627 1948
3 1227 1229 1256
3 191 1729 2504
3 1636 1635 2502
3 1480 1479 1601
3 1721 1947 2498
3 1924 1146 2174
3 229 1734 1735
3 175 204 1725
3 1179 1178 1180
3 354 1521 2147
3 665 697 1592
3 640 646 1585
3 627 545 1636
3 1882 240 2399
3 1556 1555 1606
3 1373 1620 2394
3 1871 1071 2419
3 548 1628 1629
3 455 436 1793
3 974 1831 1841
3 1844 1413 2392
3 1612 1614 1615
3 209 1639 1937
3 1329 1330 1331
3 1823 2100 2142
3 1097 1177 1535
3 1021 1020 1022
3 825 1912 2455
3 913 1122 1874
3 400 1666 2113
3 1256 1229 1526
3 1419 1418 2450
3 1552 1551 1553
3 1850 1099 1852
3 1629 1631 1632
3 801 685 2029
3 1618 1619 1621
3 265 268 1986
3 1715 2165 2330
3 1531 1529 1534
3 1022 1024 1576
3 658 693 1746
3 703 686 1067
3 1062 1576 1577
3 1023 1022 1062
3 236 1718 2394
3 1688 502 1740
3 1501 1477 2104
3 213 165 1509
3 646 795 1585
3 196 1737 1738
3 379 679 1795
3 639 640 683
3 924 875 1767
3 1752 699 1753
3 207 2192 2315
3 627 1636 1660
3 1217 1180 1745
3 730 728 1833
3 528 561 1591
3 1444 1417 1998
3 252 186 1602
3 1729 1445 2504
3 460 502 1688
3 1418 946 1778
3 1203 1200 1693
3 548 470 1628
3 849 668 1640
3 646 785 795
3 607 276 674
3 14 15 210
3 147 148 209
3 478 460 1688
3 1709 207 2315
3 1157 1546 1608
3 1155 1731 1899
3 1524 1934 2390
3 1775 921 1876
3 1433 1502 1503
3 470 458 1628
3 1223 1224 1225
3 1291 1569 1964
3 871 1056 1826
3 1781 1783 1915
3 1587 1067 2300
3 916 1038 1039
3 1388 1387 1389
3 1611 1610 1613
3 1075 1328 1329
3 1039 1290 1291
3 1538 1265 1804
3 1184 1185 2163
3 597 598 1794
3 1450 1356 2421
3 1835 576 2080
3 1629 1628 1631
3 1331 1330 1332
3 561 639 1591
3 1476 1480 1493
3 705 703 1586
3 639 683 1019
3 1951 1188 2106
3 436 446 1793
3 1472 1297 2142
3 1332 1387 1388
3 1345 984 1720
3 1329 1328 1330
3 1050 1048 1667
3 150 151 227
3 11 12 228
3 557 541 2256
3 1831 974 1879
3 134 229 1766
3 1357 1358 1638
3 1336 1641 2299
3 1650 1482 1962
3 1591 1019 2512
3 1506 1507 1570
3 1803 801 2029
3 1178 823 1972
3 1552 1553 1554
3 1290 1038 1294
3 1028 1313 1641
3 1237 1239 1597
3 993 1017 1100
3 893 2087 2094
3 149 1484 2528
3 1768 1142 1949
3 9 234 1673
3 1554 1553 1555
3 668 632 1640
3 711 806 1550
3 1628 458 1637
3 1098 1829 1830
3 1482 1331 1483
3 531 1818 2000
3 435 419 1790
3 1156 1157 1608
3 1182 1184 2179
3 510 512 1646
3 1231 1233 1250
3 946 841 1778
3 1483 1331 1571
3 1459 680 2458
3 1166 1040 1210
3 892 1657 1820
3 1042 1445 1726
3 1019 1020 1021
3 749 805 1810
3 234 1588 1589
3 1695 242 1892
3 556 1853 2483
3 1018 1572 1573
3 1529 1528 1530
3 1606 1558 1607
3 1761 1759 2308
3 1396 1032 1921
3 1018 956 1572
3 689 1150 1416
3 1827 1293 2515
3 149 150 1484
3 1647 656 1648
3 1543 694 2196
3 399 409 1783
3 545 525 1636
3 268 269 270
3 715 713 717
3 1100 1017 1392
3 1657 892 1747
3 207 22 1617
3 1666 884 2249
3 1671 1672 1769
3 1554 1555 1556
3 146 147 1537
3 1081 1444 1822
3 711 709 806
3 1443 2005 2322
3 660 658 1746
3 1166 1458 1754
3 916 796 917
3 1056 1728 1826
3 1068 1069 1275
3 184 185 1454
3 158 159 262
3 2007 1687 2231
3 805 1708 1810
3 1672 264 1986
3 1561 1562 1563
3 978 1075 1650
3 1590 1588 2457
3 215 25 1624
3 1551 1550 1565
3 1073 1346 1347
3 857 818 1584
3 1648 656 1649
3 675 674 821
3 561 594 639
3 1731 529 1899
3 2303 1454 2535
3 981 903 1040
3 1630 1629 1633
3 993 877 1017
3 724 718 726
3 512 603 1646
3 1676 235 1858
3 814 1060 1068
3 715 717 1567
3 1796 647 1870
3 1715 1171 2165
3 678 1592 1593
3 644 613 1824
3 1690 1525 2145
3 1297 1822 1823
3 271 656 1647
3 1704 1116 1705
3 1225 1226 1227
3 1275 1069 1338
3 910 956 1018
3 1824 1596 2154
3 1403 1100 1605
3 1221 1219 1222
3 1068 1060 1069
3 1901 245 1949
3 1081 1055 1321
3 1751 563 1752
3 1021 1022 1023
3 672 638 681
3 1095 657 1848
3 1235 1237 1248
3 1561 1556 1562
3 1265 1259 1804
3 524 1819 2016
3 978 1650 2362
3 1492 516 2494
3 229 1735 2061
3 185 186 252
3 157 158 253
3 152 153 233
3 9 10 234
3 1527 1529 1531
3 1808 1344 2360
3 1062 1577 1579
3 1509 1679 1977
3 424 454 1666
3 637 638 672
3 981 1040 1166
3 1555 1558 1606
3 751 749 1810
3 1166 1210 1458
3 1651 1313 2121
3 15 16 2260
3 1633 1632 2509
3 2167 1705 2276
3 551 602 2045
3 697 818 857
3 364 1786 1883
3 832 1189 2204
3 1476 1478 1479
3 678 665 1592
3 213 1509 2096
3 1015 888 1124
3 1062 1022 1576
3 679 1782 1795
3 680 1646 1995
3 1101 1100 1403
3 1109 433 1714
3 1248 1237 1597
3 733 730 1833
3 1702 213 2096
3 499 498 1828
3 1418 1778 2521
3 637 600 638
3 1048 1046 1054
3 1577 1576 1578
3 814 766 1060
3 1279 2252 2292
3 474 470 548
3 199 18 1676
3 157 253 1441
3 1048 1054 1667
3 471 472 2290
3 625 665 678
3 795 785 796
3 1264 1265 1266
3 1437 1926 2350
3 1362 2048 2168
3 1394 2337 2371
3 454 884 1666
3 1022 1020 1024
3 751 1810 1923
3 1046 1023 1580
3 1807 1701 1931
3 1618 208 1619
3 566 588 689
3 1828 498 1829
3 501 509 1599
3 1118 780 1775
3 878 817 929
3 1510 1511 1950
3 1618 1621 1694
3 1052 1081 1822
3 1416 1150 1715
3 1239 1241 1247
3 1396 1921 2067
3 1751 1752 1753
3 1264 1259 1265
3 539 566 1600
3 1762 1127 2496
3 1673 1788 2183
3 1555 1557 1558
3 1052 1050 1055
3 725 724 825
3 1142 1770 1771
3 681 853 867
3 454 501 884
3 1346 1420 1453
3 932 1147 1770
3 1546 1545 1547
3 533 582 1818
3 1266 1337 1460
3 1872 820 2318
3 1117 1119 1713
3 1081 1321 1417
3 1253 1259 1264
3 1569 771 2135
3 1052 1055 1081
3 1181 1178 1972
3 709 706 1627
3 1073 1076 1346
3 1098 1828 1829
3 1382 1380 2176
3 1442 1275 1443
3 919 999 1663
3 1789 828 1855
3 877 815 1684
3 509 539 631
3 992 877 993
3 1266 1265 1337
3 2268 1498 2340
3 1130 1032 1396
3 1095 1603 2508
3 886 826 887
3 531 533 1818
3 1131 1400 1881
3 447 437 516
3 2460 1132 2473
3 940 1535 2418
3 768 1873 2037
3 1813 1869 1954
3 1627 2163 2488
3 1497 1495 1645
3 1198 1409 2168
3 724 726 1912
3 1869 987 1954
3 763 1999 2338
3 1010 1170 1374
3 984 976 1720
3 1470 1743 1744
3 689 588 1150
3 1901 1949 2359
3 1640 632 1862
3 274 272 1787
3 563 564 1752
3 994 817 1505
3 737 1807 1931
3 1770 1147 1771
3 1233 1235 1733
3 2450 1418 2521
3 414 410 1821
3 908 1099 1850
3 1227 1228 1229
3 1692 1203 1693
3 1625 216 2194
3 512 528 603
3 1377 1357 1638
3 1465 1464 1470
3 1360 1359 2177
3 1686 2007 2095
3 1336 1028 1641
3 1857 751 1923
3 1758 572 1759
3 553 541 557
3 1171 1715 1811
3 956 1003 1073
3 1467 1465 1675
3 719 718 724
3 1509 1977 2096
3 1734 1625 1736
3 1503 1504 1868
3 592 597 1776
3 180 181 232
3 162 163 231
3 2308 1759 2370
3 1357 1114 1358
3 875 946 1010
3 509 631 1599
3 17 18 199
3 144 145 200
3 1099 906 1792
3 1469 1467 1494
3 605 589 1939
3 1208 1205 1211
3 354 344 2091
3 692 782 804
3 1010 946 1170
3 1463 1462 1464
3 716 715 718
3 714 713 715
3 271 273 656
3 139 1618 1694
3 549 277 686
3 673 672 766
3 1378 1377 1379
3 2007 868 2095
3 999 1028 1336
3 1208 1211 1447
3 601 545 627
3 1119 1643 1713
3 1332 1333 1387
3 910 912 956
3 520 521 2000
3 828 1789 1819
3 277 607 1520
3 1338 1339 2247
3 818 819 910
3 767 766 814
3 712 711 713
3 1494 1467 1675
3 639 594 640
3 2044 557 2256
3 235 20 1709
3 1620 236 2394
3 804 919 962
3 1862 702 2070
3 681 852 853
3 1559 1556 1561
3 1622 941 2471
3 2165 1440 2330
3 612 644 692
3 697 698 818
3 1903 1516 1994
3 371 379 1795
3 428 426 2138
3 1290 1294 2064
3 1384 1904 2432
3 566 689 1600
3 471 452 472
3 1092 1091 1093
3 1002 1131 1719
3 1090 1089 1091
3 875 841 946
3 1758 1760 1763
3 1562 1606 2085
3 1833 1830 2075
3 178 179 214
3 164 165 213
3 769 923 1815
3 692 644 782
3 804 782 919
3 182 183 256
3 160 161 257
3 1329 1331 1482
3 962 1663 1664
3 1177 1179 2042
3 403 405 1805
3 1461 1460 1462
3 140 208 1618
3 1859 232 1860
3 274 1787 2099
3 1381 2126 2186
3 1558 1560 1789
3 430 428 682
3 452 435 1683
3 1487 1156 1488
3 1470 1464 1743
3 597 1794 1893
3 1244 1253 1669
3 962 919 1663
3 258 8 1673
3 1087 1785 1786
3 970 1042 1726
3 199 1677 2149
3 1664 1663 1665
3 1229 1230 1231
3 991 827 1713
3 792 1603 1848
3 1822 1444 1823
3 665 666 697
3 19 20 235
3 142 143 236
3 728 1098 1833
3 532 530 1898
3 1015 1124 1372
3 1546 1547 1548
3 1851 1850 1853
3 1877 393 2240
3 923 1105 1815
3 1090 1091 1092
3 687 686 703
3 1683 435 1790
3 887 826 1961
3 684 663 1089
3 426 1934 2138
3 464 510 680
3 853 854 855
3 568 572 1758
3 1376 1357 1377
3 1205 1203 1692
3 1607 1789 1855
3 710 709 711
3 780 781 1775
3 1434 1103 1435
3 876 815 877
3 766 672 1656
3 1393 1590 2457
3 684 1089 1090
3 530 890 1898
3 926 1920 1943
3 696 414 1821
3 1563 1562 1777
3 1054 1046 1580
3 1398 1973 1974
3 137 216 1625
3 1210 1040 1430
3 1750 563 1751
3 2010 1665 2299
3 1510 1374 1511
3 1777 1562 2085
3 1707 252 1791
3 1932 1404 1933
3 459 438 1814
3 139 140 1618
3 1093 1156 1487
3 231 163 1658
3 699 722 723
3 1545 1095 2508
3 598 612 1794
3 579 554 1880
3 1941 1908 2401
3 1231 1232 1233
3 1831 1829 1841
3 1037 1383 1799
3 177 178 1506
3 636 600 637
3 1036 1539 2286
3 1356 1114 1357
3 1523 1516 2377
3 704 703 705
3 403 402 405
3 648 792 1848
3 723 756 808
3 1388 1389 2170
3 933 932 1770
3 223 1710 1711
3 1779 399 1783
3 1223 1222 1224
3 1028 1029 1313
3 257 161 1654
3 418 412 421
3 734 882 1807
3 693 657 1095
3 1368 1370 1436
3 136 137 1625
3 688 652 817
3 1075 1327 1328
3 540 479 1813
3 398 395 402
3 548 1629 1630
3 574 591 699
3 1469 1494 1495
3 1041 1598 2175
3 167 168 202
3 175 176 204
3 2045 2046 2201
3 186 187 1602
3 886 887 888
3 1253 1254 1259
3 8 9 1673
3 792 655 810
3 843 1145 1960
3 1180 1349 1745
3 1165 1345 1512
3 708 706 709
3 136 1625 1734
3 21 22 207
3 140 141 208
3 625 626 665
3 1093 1094 1156
3 1585 795 1834
3 1117 1713 1806
3 599 579 600
3 810 871 1826
3 1047 1046 1048
3 1292 1291 1293
3 161 162 1654
3 199 1676 1677
3 1260 1282 1804
3 1005 1142 1768
3 1233 1234 1235
3 792 810 922
3 1122 1719 1737
3 976 985 1720
3 1278 1279 2292
3 2390 1934 2531
3 1436 1437 2350
3 270 271 1647
3 1199 966 1846
3 1683 1342 2212
3 656 273 2124
3 699 591 722
3 1977 1139 2096
3 1738 1719 1881
3 1722 985 1874
3 1797 1448 1798
3 162 231 1654
3 632 604 1862
3 252 1602 1791
3 1051 1050 1052
3 1045 1023 1046
3 648 655 792
3 993 1100 1101
3 1321 1055 1322
3 806 709 1627
3 904 903 981
3 1220 1267 1268
3 648 605 655
3 1737 1719 1738
3 385 399 1779
3 506 499 1828
3 1132 266 1402
3 1170 1418 1419
3 1323 2302 2354
3 24 25 215
3 137 138 216
3 721 965 1919
3 1787 1414 2460
3 778 1117 1806
3 723 722 756
3 407 403 1805
3 564 574 1752
3 1049 1048 1050
3 842 841 875
3 1608 1546 1842
3 809 808 899
3 1517 1519 1520
3 1530 1532 1533
3 889 421 1772
3 913 1002 1122
3 1314 1316 1367
3 1017 877 1684
3 841 802 1778
3 1235 1236 1237
3 751 1857 1900
3 1114 924 1767
3 1344 1644 2360
3 1895 1394 2371
3 1518 1535 1861
3 1758 1759 1760
3 1122 1002 1719
3 546 563 1750
3 1056 1726 1727
3 663 660 1746
3 621 622 625
3 1720 985 1721
3 1857 1843 1900
3 808 756 913
3 1056 970 1726
3 27 28 230
3 134 135 229
3 908 906 1099
3 163 164 1658
3 1727 1726 1729
3 7 8 258
3 154 155 259
3 1101 1403 1404
3 808 913 1874
3 1260 1269 1282
3 1389 1387 2262
3 1297 1053 1822
3 1555 1553 1557
3 1463 1464 1465
3 230 28 1765
3 1237 1238 1239
3 554 553 1880
3 775 778 1806
3 985 899 1874
3 1270 1524 2199
3 489 1820 1936
3 692 1072 1794
3 1472 2142 2272
3 1845 496 1929
3 438 431 1814
3 613 615 1824
3 1241 1242 1245
3 1783 415 1915
3 1192 2081 2149
3 178 214 1506
3 1816 988 1817
3 1760 1759 1761
3 1103 1092 1623
3 1512 1345 1661
3 1876 921 2295
3 1165 984 1345
3 978 1074 1075
3 1239 1240 1241
3 542 541 553
3 813 988 1816
3 1148 984 1165
3 871 970 1056
3 472 452 1683
3 1207 1796 1870
3 1167 1166 1754
3 1296 1053 1297
3 966 964 1846
3 976 899 985
3 982 976 984
3 702 1815 2015
3 900 899 976
3 1143 995 1206
3 1576 1024 1827
3 1235 1248 1733
3 1558 1557 1560
3 943 995 1143
3 1920 1144 1943
3 1471 2115 2477
3 29 30 255
3 132 133 254
3 1630 1633 1634
3 1225 1224 1226
3 1925 1573 1926
3 1211 1205 1692
3 725 825 826
3 1113 924 1114
3 600 579 1988
3 717 1552 1567
3 1820 1657 1936
3 674 276 2099
3 395 393 1877
3 572 543 1897
3 1575 1308 2255
3 999 1000 1028
3 1118 1775 1876
3 1797 1798 2430
3 526 546 559
3 867 853 2186
3 1142 1771 1949
3 1068 1275 1442
3 679 385 1779
3 1607 1558 1789
3 580 568 1758
3 1244 1252 1253
3 1760 1761 1762
3 398 402 403
3 1476 1258 1478
3 418 421 889
3 1771 1147 1839
3 164 213 1658
3 1720 1721 2267
3 1668 1591 2512
3 1042 1128 1445
3 1098 1830 1833
3 1102 1092 1103
3 2249 884 2466
3 1104 1103 1434
3 410 416 1821
3 514 513 541
3 580 1758 1763
3 637 673 1741
3 1913 936 1914
3 1394 1395 2337
3 919 920 999
3 577 554 579
3 2111 1660 2263
3 231 1658 1659
3 612 613 644
3 568 543 572
3 770 775 1806
3 1445 1128 1446
3 1546 1548 1842
3 448 460 478
3 810 870 871
3 1789 1560 1819
3 1154 1082 1431
3 873 973 1802
3 379 385 679
3 837 850 921
3 1461 1462 1463
3 1346 1076 1420
3 1088 1344 1808
3 2125 1143 2353
3 931 977 978
3 882 772 1802
3 29 255 1765
3 849 1513 2180
3 1713 827 1806
3 1130 1396 1397
3 681 638 852
3 1417 1321 1873
3 1654 1402 2530
3 502 526 1740
3 1124 888 2177
3 1266 1460 1461
3 515 1175 1840
3 1253 1264 1669
3 479 466 1813
3 1727 1729 1757
3 379 380 385
3 1971 1480 2514
3 1637 1739 2459
3 1207 1205 1208
3 529 519 1899
3 1129 1845 1929
3 224 1661 2267
3 192 1856 2361
3 732 734 1807
3 1184 2163 2435
3 1119 1120 1353
3 415 414 431
3 719 724 725
3 559 546 1750
3 871 872 970
3 1038 917 1622
3 574 699 1752
3 166 167 1679
3 1117 1118 1119
3 1409 1196 2035
3 617 619 621
3 1172 1173 1439
3 1191 1005 1768
3 664 663 684
3 494 493 1841
3 890 529 1731
3 840 802 841
3 493 974 1841
3 385 386 399
3 679 1779 1780
3 371 376 379
3 416 433 1109
3 670 769 1815
3 902 866 903
3 1780 1779 1781
3 480 515 1840
3 970 971 1042
3 433 448 1714
3 28 29 1765
3 1005 949 1142
3 778 780 1117
3 959 1037 1799
3 1073 1003 1076
3 535 532 1898
3 1119 1118 1120
3 658 657 693
3 1378 1379 1380
3 1397 1396 1809
3 1610 1609 1612
3 1819 1560 2016
3 1837 952 1865
3 1719 1131 1881
3 1131 1399 1400
3 1352 1138 2058
3 399 406 409
3 548 1630 2041
3 1275 1338 2251
3 582 1816 1818
3 1835 1836 2144
3 993 1101 1980
3 1699 1698 1700
3 2407 364 2505
3 1189 1190 1788
3 1117 780 1118
3 1830 1829 1831
3 637 672 673
3 692 804 1072
3 1204 1203 1205
3 1374 1170 2139
3 612 692 1794
3 1642 1408 2286
3 723 808 809
3 450 459 1812
3 409 410 414
3 802 801 1778
3 1853 1854 2483
3 1042 1127 1128
3 1199 1846 2225
3 1147 990 1273
3 1383 1384 2432
3 432 431 438
3 1353 1120 1390
3 1093 1091 1094
3 2020 250 2254
3 148 149 1639
3 606 605 648
3 1970 2016 2422
3 2201 2046 2327
3 475 471 513
3 412 407 1951
3 1991 246 2139
3 727 695 728
3 1673 234 1788
3 1554 1556 1559
3 1089 663 1746
3 1846 964 2056
3 923 991 1088
3 409 406 410
3 729 728 730
3 1424 1427 1856
3 1473 1911 2407
3 1376 1377 1378
3 1010 1374 1510
3 853 852 854
3 366 369 1087
3 772 873 1802
3 1219 1218 1626
3 1766 229 2061
3 1088 991 1344
3 922 810 1826
3 518 506 695
3 405 402 2116
3 962 1664 2316
3 913 942 1002
3 932 990 1147
3 629 813 1816
3 876 877 992
3 399 386 406
3 932 845 990
3 1002 1123 1131
3 843 996 1145
3 781 837 1775
3 262 2304 2491
3 431 696 1814
3 1273 1695 1892
3 731 730 732
3 737 732 1807
3 439 438 450
3 1829 498 1841
3 800 685 801
3 767 814 815
3 1060 766 1656
3 673 766 767
3 1403 1605 1882
3 716 718 719
3 1338 1069 1339
3 847 752 1843
3 864 862 1116
3 2302 443 2519
3 923 827 991
3 526 559 1740
3 1911 1473 2358
3 1085 1310 1867
3 809 899 900
3 1227 1226 1228
3 729 730 731
3 1436 1370 1437
3 731 732 737
3 769 827 923
3 456 452 471
3 1433 1503 2471
3 1435 1103 1623
3 385 380 386
3 1141 1787 2460
3 1354 1088 1808
3 657 649 1848
3 415 431 432
3 484 892 1820
3 727 728 729
3 855 854 1450
3 1721 1722 1723
3 1643 1353 1644
3 1145 1916 1960
3 1421 1191 1422
3 466 1812 1813
3 943 944 995
3 1356 1357 1376
3 714 715 716
3 1156 1094 1157
3 598 611 612
3 631 1600 2298
3 590 589 605
3 965 969 1919
3 416 1109 1821
3 242 1697 2335
3 1548 1547 1549
3 550 573 584
3 584 604 632
3 409 414 415
3 712 713 714
3 642 670 702
3 818 698 819
3 1006 1005 1191
3 1624 1689 1691
3 169 170 237
3 173 174 238
3 956 912 1003
3 937 936 1913
3 1317 1025 1875
3 515 540 550
3 973 1799 1800
3 973 959 1799
3 518 695 727
3 910 819 912
3 584 573 604
3 1170 946 1418
3 173 238 1847
3 550 540 573
3 982 984 1148
3 900 976 982
3 441 435 452
3 448 478 1714
3 1849 1648 2173
3 1631 1628 1637
3 1830 1831 1832
3 1383 1216 1384
3 734 772 882
3 949 933 1770
3 1332 1330 1333
3 574 575 591
3 1105 1088 1354
3 702 670 1815
3 498 494 1841
3 827 770 1806
3 873 959 973
3 1390 1391 1415
3 450 438 459
3 950 949 1005
3 351 362 364
3 1313 1029 1314
3 432 438 439
3 837 838 850
3 1273 1274 1695
3 850 851 943
3 911 952 1837
3 1259 1260 1804
3 566 587 588
3 1037 1216 1383
3 1337 1265 1538
3 1087 369 1795
3 810 655 870
3 1559 1561 1566
3 1147 1273 1839
3 732 733 734
3 1662 867 2126
3 890 1731 2241
3 1854 1852 2397
3 515 479 540
3 451 450 466
3 697 666 698
3 1367 1316 1368
3 662 660 663
3 365 355 694
3 1358 1114 1767
3 379 376 380
3 1796 1448 1797
3 179 180 1859
3 790 668 849
3 569 568 580
3 690 860 931
3 466 450 1812
3 431 414 696
3 1973 1133 1974
3 651 649 657
3 467 466 479
3 1288 1289 1835
3 264 265 1986
3 1302 1303 1304
3 592 596 597
3 1873 1321 2037
3 544 543 568
3 275 277 549
3 209 1937 2389
3 539 565 566
3 1485 227 1486
3 2384 2190 2408
3 1781 1779 1783
3 480 479 515
3 689 1416 2413
3 1108 1161 1539
3 1867 1310 1895
3 1300 1301 1302
3 1695 1696 1697
3 633 632 668
3 1304 1451 1452
3 988 911 1837
3 168 169 1724
3 969 1012 1172
3 582 629 1816
3 1843 752 1900
3 629 812 813
3 710 711 712
3 1782 1780 1784
3 536 535 543
3 1089 1746 1969
3 1108 1107 1161
3 1514 1426 1856
3 486 484 1820
3 369 371 1795
3 1817 988 1924
3 493 609 974
3 1422 1191 2023
3 1426 1424 1856
3 842 875 924
3 922 1826 2259
3 989 1361 1886
3 928 1070 1288
3 669 668 790
3 1113 1114 1356
3 1027 847 1843
3 728 695 1098
3 734 735 772
3 975 1107 1108
3 955 859 1962
3 813 911 988
3 1208 1448 1796
3 1101 1405 1980
3 602 676 2045
3 586 581 589
3 546 547 563
3 493 491 609
3 628 1524 2390
3 348 344 354
3 1298 1299 1300
3 509 538 539
3 974 609 975
3 813 891 911
3 871 870 872
3 1355 1354 1423
3 489 486 1820
3 778 779 780
3 1025 1176 1875
3 772 773 873
3 803 1743 2347
3 167 202 1679
3 873 883 959
3 1483 1571 2375
3 427 1756 2221
3 540 1813 1954
3 1202 1200 1203
3 959 1035 1037
3 837 921 1775
3 1304 1305 1451
3 1799 1383 2195
3 604 642 1862
3 1470 1744 2474
3 1854 2397 2453
3 1282 1269 1386
3 1573 1572 2157
3 472 2222 2290
3 1307 1708 2341
3 769 770 827
3 1037 1215 1216
3 791 790 856
3 1053 1052 1822
3 1056 1727 1728
3 1341 1138 1352
3 1300 1299 1301
3 1814 696 1838
3 1198 1196 1409
3 492 491 493
3 439 450 451
3 1171 858 2132
3 1259 1254 1260
3 665 626 666
3 970 872 971
3 258 1602 2357
3 1296 1297 1472
3 490 489 491
3 516 437 2494
3 1298 1027 1299
3 846 845 932
3 501 508 509
3 460 461 502
3 448 449 460
3 482 480 1840
3 1229 1228 1230
3 604 641 642
3 1424 1423 1427
3 502 503 526
3 1028 1000 1029
3 935 933 949
3 1084 1085 1867
3 2028 1711 2353
3 1513 1426 1514
3 892 482 1840
3 852 638 1988
3 402 395 1877
3 738 737 845
3 413 412 418
3 1119 1353 1643
3 526 527 546
3 280 279 281
3 1731 1155 2123
3 1042 971 1127
3 1208 1447 1448
3 433 434 448
3 262 159 2304
3 184 1454 2303
3 1051 1052 1053
3 1816 1817 1818
3 1081 1417 1444
3 781 836 837
3 911 951 952
3 1090 1092 1102
3 202 168 1724
3 1085 1309 1310
3 408 407 412
3 1337 1538 1864
3 1515 1514 1516
3 530 529 890
3 1517 1518 1519
3 549 686 687
3 923 1088 1105
3 404 403 407
3 1835 1289 1836
3 1314 1367 2121
3 1380 1379 2416
3 670 671 769
3 899 808 1874
3 1040 903 1703
3 1596 1595 2154
3 1496 1495 1497
3 636 637 1741
3 1377 1638 2288
3 1288 1070 1289
3 1072 804 1981
3 1129 1334 1845
3 1865 1084 1866
3 792 922 1603
3 1253 1252 1254
3 981 1167 1792
3 1302 1301 1303
3 1641 1651 2019
3 952 953 1084
3 1813 1812 1869
3 732 730 733
3 975 1106 1107
3 1142 949 1770
3 981 1166 1167
3 840 841 842
3 451 466 467
3 1273 990 1274
3 1049 1050 1051
3 1473 2407 2505
3 968 966 1199
3 642 643 670
3 1310 1309 1311
3 422 419 435
3 1063 833 1082
3 919 782 920
3 911 891 951
3 1084 953 1085
3 1763 1764 2164
3 1498 1497 1682
3 515 550 1175
3 1079 937 1913
3 642 702 1862
3 845 737 1931
3 1394 1311 1395
3 1395 1521 1522
3 467 479 480
3 1755 1754 1793
3 1231 1230 1232
3 1557 1553 2030
3 1624 1691 2262
3 584 632 633
3 1094 1091 1969
3 708 709 710
3 1948 1627 2488
3 952 951 953
3 1102 1103 1104
3 1047 1048 1049
3 1310 1311 1394
3 1852 1099 1985
3 143 144 1717
3 813 812 891
3 1944 1044 1945
3 1105 1354 1355
3 1300 1302 1455
3 1914 936 1940
3 1415 1391 1710
3 1299 1027 1843
3 952 1084 1865
3 1695 1274 1696
3 776 774 1928
3 282 281 283
3 2003 1347 2279
3 1206 995 1499
3 1164 1685 1686
3 1551 1565 2030
3 969 1172 1919
3 633 668 669
3 734 733 735
3 1373 1372 1438
3 599 600 636
3 1431 1860 2487
3 1579 1577 1999
3 484 482 892
3 917 940 941
3 2144 1836 2169
3 1866 1084 1867
3 1110 1747 1748
3 998 1171 1811
3 1390 1120 1391
3 644 1824 2057
3 1362 1961 2048
3 944 1283 1825
3 1086 1027 1298
3 679 1780 1782
3 974 975 1879
3 507 506 518
3 1121 1079 1401
3 775 777 778
3 1965 762 2349
3 1045 1046 1047
3 1772 421 2106
3 16 17 2081
3 416 417 433
3 921 850 2125
3 1607 1855 1958
3 649 648 1848
3 1241 1240 1242
3 2012 1443 2251
3 926 928 1920
3 1487 1488 2025
3 1006 1191 1421
3 1355 1423 1424
3 1133 852 1988
3 591 592 1776
3 1299 1843 1857
3 1085 1308 1309
3 490 491 492
3 958 694 1575
3 1384 1216 1385
3 741 915 1878
3 1233 1232 1234
3 669 790 791
3 481 480 482
3 687 703 704
3 492 493 494
3 1634 1633 1922
3 1697 1696 1698
3 1721 985 1722
3 1839 1273 1892
3 772 735 773
3 488 486 489
3 950 1005 1006
3 1513 1514 1515
3 454 500 501
3 873 773 883
3 284 283 285
3 2185 1505 2442
3 959 883 1035
3 543 535 1897
3 1904 1384 2093
3 800 801 802
3 1037 1035 1215
3 1293 1964 1965
3 1239 1238 1240
3 943 1143 2125
3 1782 1784 1785
3 913 756 942
3 488 490 1884
3 1590 1749 2501
3 1235 1234 1236
3 791 856 1408
3 702 2015 2070
3 1108 1539 1540
3 1021 1023 1045
3 695 506 1828
3 1530 1528 1532
3 488 489 490
3 1621 1619 2161
3 704 705 706
3 1304 1303 1305
3 558 1704 2167
3 625 622 626
3 542 553 554
3 604 573 641
3 664 684 685
3 564 571 574
3 1108 1540 1879
3 1856 1427 2361
3 880 1025 1129
3 1395 1311 1521
3 1466 1465 1467
3 915 495 1884
3 1515 1516 1523
3 1237 1236 1238
3 606 648 649
3 999 920 1000
3 676 829 1043
3 2100 794 2142
3 227 151 1500
3 577 579 599
3 153 154 1671
3 1175 550 1927
3 1014 888 1015
3 286 285 287
3 1649 1280 2427
3 1725 204 2137
3 975 609 1106
3 1129 1317 1334
3 1109 1730 2426
3 1468 1467 1469
3 1131 1123 1399
3 1215 2235 2378
3 1976 1149 1989
3 397 395 398
3 746 743 1878
3 1041 1343 1598
3 975 1108 1879
3 741 495 915
3 1167 1754 1755
3 288 287 289
3 743 741 1878
3 1274 990 1931
3 1506 214 1507
3 857 1584 2277
3 2341 1522 2387
3 846 932 933
3 1107 1106 1110
3 584 633 1927
3 290 289 291
3 722 591 1776
3 1544 1094 1969
3 1135 270 1647
3 935 949 950
3 1920 1288 2080
3 754 1896 2108
3 1693 1199 2225
3 292 291 293
3 394 393 395
3 745 743 746
3 1002 942 1123
3 731 737 738
3 294 293 295
3 1018 1573 1925
3 296 295 297
3 298 297 299
3 321 322 325
3 317 320 321
3 314 315 317
3 312 313 314
3 310 311 312
3 308 309 310
3 1898 890 2275
3 306 307 308
3 304 305 306
3 1401 1079 1913
3 300 299 301
3 302 303 304
3 300 301 302
3 302 301 303
3 491 489 1936
3 298 299 300
3 304 303 305
3 306 305 307
3 308 307 309
3 310 309 311
3 312 311 313
3 314 313 315
3 317 315 320
3 321 320 322
3 1301 1299 1857
3 514 541 542
3 296 297 298
3 850 838 851
3 1310 1394 1895
3 294 295 296
3 590 605 606
3 292 293 294
3 651 657 658
3 290 291 292
3 1207 1208 1796
3 835 1976 1989
3 621 619 622
3 746 1878 1896
3 481 482 483
3 1026 847 1027
3 1335 1207 1870
3 1661 59 2266
3 727 729 1155
3 288 289 290
3 1058 776 1928
3 662 663 664
3 495 488 1884
3 1959 319 2522
3 943 851 944
3 1293 1291 1964
3 534 532 535
3 640 645 646
3 2280 1014 2385
3 286 287 288
3 591 575 592
3 521 519 529
3 13 14 2114
3 780 779 781
3 918 908 1850
3 837 836 838
3 209 148 1639
3 754 748 1896
3 745 746 747
3 769 671 770
3 929 1065 2197
3 1278 1058 1279
3 483 482 484
3 1564 1557 2030
3 633 807 1927
3 392 391 393
3 1057 1621 2161
3 569 580 581
3 284 285 286
3 876 992 1894
3 497 494 498
3 1630 1635 2041
3 982 1148 1918
3 612 611 613
3 700 634 1044
3 822 674 2099
3 880 1129 1929
3 432 439 654
3 1039 1291 1292
3 1164 1686 1989
3 1129 1025 1317
3 738 845 846
3 582 583 629
3 278 6 279
3 544 568 569
3 1701 1274 1931
3 747 749 751
3 1085 953 1308
3 928 930 1070
3 747 748 749
3 1421 1422 2415
3 902 903 904
3 1309 1308 1543
3 642 641 643
3 904 981 1792
3 646 784 785
3 536 543 544
3 1204 1205 1207
3 365 694 958
3 71 72 217
3 88 89 1901
3 87 88 193
3 101 102 189
3 85 86 242
3 99 100 241
3 74 75 192
3 91 92 219
3 94 95 191
3 83 84 220
3 97 98 221
3 77 78 218
3 80 81 194
3 89 90 245
3 62 63 244
3 60 61 188
3 64 65 223
3 67 68 190
3 90 91 1909
3 98 99 1905
3 61 62 1908
3 69 70 243
3 68 69 1907
3 70 71 1910
3 410 411 416
3 586 589 590
3 685 684 2029
3 390 389 391
3 1715 1150 1811
3 1924 1837 2215
3 282 283 284
3 496 497 1929
3 233 1671 1769
3 627 2185 2442
3 1567 1552 2062
3 629 630 812
3 424 453 454
3 583 562 1942
3 749 750 805
3 744 743 745
3 1897 535 1898
3 467 480 481
3 504 759 880
3 670 643 671
3 89 245 1901
3 193 88 1901
3 221 98 1905
3 245 90 1909
3 91 219 1909
3 62 244 1908
3 188 61 1908
3 99 241 1905
3 190 68 1907
3 71 217 1910
3 69 243 1907
3 243 70 1910
3 505 499 506
3 475 513 514
3 1945 1044 2071
3 1712 2125 2353
3 339 343 440
3 989 1360 1361
3 764 869 1152
3 778 777 779
3 1686 1685 1687
3 742 741 743
3 979 989 1886
3 729 731 1887
3 926 927 928
3 1305 1306 1307
3 1838 1278 2292
3 747 746 748
3 181 182 1652
3 1886 1361 2305
3 1595 1594 2486
3 597 596 598
3 928 1288 1920
3 1970 824 2156
3 1425 1424 1426
3 497 504 1929
3 748 746 1896
3 745 747 1900
3 998 858 1171
3 563 547 564
3 1155 729 1887
3 634 583 1942
3 1439 1173 1440
3 1026 1027 1086
3 79 80 1904
3 1533 1532 1536
3 1449 1426 1513
3 1106 609 1936
3 1318 1013 1319
3 1098 695 1828
3 492 494 496
3 750 748 754
3 731 738 1887
3 2415 1422 2516
3 533 562 582
3 988 1837 1924
3 1216 1215 1863
3 534 535 536
3 747 751 1900
3 1753 809 2119
3 1183 824 1970
3 740 495 741
3 80 194 1904
3 893 383 2087
3 655 605 1939
3 1884 2034 2082
3 1301 1857 1923
3 1307 1306 1708
3 752 745 1900
3 750 754 755
3 76 77 1903
3 2090 2347 2365
3 255 30 2159
3 132 254 2160
3 448 434 449
3 753 848 926
3 1075 1074 1327
3 487 488 495
3 377 381 647
3 483 484 485
3 755 754 2148
3 1584 1925 2277
3 1186 1183 1970
3 951 891 1281
3 485 484 486
3 546 527 547
3 133 134 1766
3 1786 1785 2409
3 280 281 282
3 460 449 461
3 744 745 752
3 77 218 1903
3 983 1918 2342
3 1708 1306 1810
3 1389 2069 2170
3 487 486 488
3 641 573 1954
3 507 518 519
3 502 461 503
3 519 518 1899
3 1202 1203 1204
3 821 897 1972
3 92 93 1902
3 521 529 530
3 749 748 750
3 2176 1380 2416
3 885 826 886
3 485 486 487
3 371 372 376
3 1289 1070 1871
3 1110 1657 1747
3 753 926 1943
3 700 1044 1944
3 880 881 1025
3 496 1845 2034
3 1072 1981 2393
3 462 464 2134
3 1949 1771 2359
3 1044 634 1942
3 550 584 1927
3 1390 1415 2118
3 526 503 527
3 990 845 1931
3 1009 1213 1214
3 740 742 1144
3 219 92 1902
3 727 1155 1899
3 369 370 371
3 623 690 2150
3 1279 1058 1928
3 1408 2235 2286
3 487 495 740
3 979 1886 2086
3 1305 1303 1306
3 421 412 1951
3 843 844 996
3 633 669 807
3 518 727 1899
3 826 825 1961
3 1657 1106 1936
3 1172 1012 1173
3 740 741 742
3 433 417 434
3 505 506 507
3 1333 1674 2437
3 742 743 744
3 469 458 470
3 1381 1380 1382
3 1293 1965 2515
3 1554 1559 2062
3 553 557 2499
3 1774 389 2339
3 497 498 499
3 483 485 576
3 740 1144 1935
3 773 735 834
3 366 367 369
3 1120 1118 1876
3 1515 1523 1574
3 1319 1013 2039
3 1303 1301 1923
3 457 447 458
3 561 593 594
3 1355 1424 1425
3 609 491 1936
3 204 1732 2137
3 791 1408 1642
3 995 944 1825
3 456 471 475
3 1692 1693 2239
3 580 1763 2164
3 1292 1293 2117
3 441 452 456
3 388 384 389
3 823 821 1972
3 504 880 1929
3 176 177 1680
3 1070 1071 1871
3 15 2260 2477
3 362 363 366
3 2178 2300 2449
3 1035 883 1036
3 2285 1563 2307
3 978 977 1074
3 1090 1102 2029
3 1810 1306 1923
3 496 494 497
3 1306 1303 1923
3 432 654 1915
3 934 933 935
3 356 355 365
3 398 403 404
3 635 701 843
3 1110 1106 1657
3 574 571 575
3 1025 881 1176
3 386 380 786
3 415 432 1915
3 343 347 1911
3 1070 930 1071
3 1688 1740 2231
3 1385 1216 1863
3 1696 1274 1701
3 1645 305 2317
3 880 759 881
3 926 848 927
3 1427 1423 2217
3 1339 1662 2388
3 770 774 775
3 1263 1257 1428
3 1337 1864 2412
3 349 348 355
3 2267 1721 2498
3 753 752 847
3 1375 1086 1473
3 900 982 983
3 332 335 739
3 429 428 430
3 744 752 753
3 1171 2132 2165
3 1425 1426 1449
3 987 641 1954
3 1883 1786 2409
3 427 426 428
3 928 927 930
3 1815 1105 2015
3 1206 1499 1941
3 410 406 411
3 573 540 1954
3 497 499 504
3 528 560 561
3 1933 1404 2399
3 1091 1089 1969
3 1804 1282 2073
3 504 505 759
3 963 924 1113
3 1711 1710 1712
3 881 759 1146
3 968 1199 1200
3 351 352 362
3 848 847 1026
3 521 530 531
3 1884 490 2034
3 1277 957 1966
3 1349 1350 2329
3 676 1043 2045
3 997 1159 1286
3 517 1889 1890
3 781 835 836
3 944 948 1283
3 722 1776 2026
3 507 519 520
3 2040 1352 2058
3 1276 957 1277
3 446 437 447
3 931 860 977
3 361 359 765
3 1248 1536 2534
3 512 523 528
3 408 412 413
3 1368 1369 1370
3 451 2169 2223
3 192 75 1994
3 942 756 2026
3 345 344 348
3 764 1152 1963
3 413 418 419
3 1286 1773 1774
3 770 671 774
3 275 549 2124
3 1497 1645 2461
3 1982 1472 2272
3 422 435 441
3 281 279 736
3 1134 270 1135
3 582 562 583
3 1421 2415 2454
3 485 487 1935
3 2300 1067 2480
3 1578 1576 1827
3 930 927 1061
3 1026 1086 1375
3 922 2259 2379
3 1391 1120 1876
3 1495 1494 2493
3 404 407 408
3 879 2178 2449
3 1700 1698 2036
3 607 1517 1520
3 753 847 848
3 416 411 417
3 1144 742 1943
3 775 776 777
3 754 2108 2148
3 1006 1421 1953
3 585 581 586
3 531 530 532
3 235 1709 1888
3 520 519 521
3 1180 1181 1349
3 1146 759 1967
3 708 710 1921
3 1350 2253 2329
3 436 430 437
3 504 499 505
3 643 641 987
3 336 330 517
3 811 1059 1149
3 1164 1411 1685
3 846 933 934
3 635 843 1960
3 983 982 1918
3 971 872 1096
3 1149 1163 1164
3 169 237 1724
3 1314 1315 1316
3 629 583 630
3 891 812 1916
3 462 463 464
3 487 740 1935
3 798 2084 2189
3 1814 1838 2292
3 1284 1489 1491
3 340 336 2014
3 1670 1461 2200
3 920 782 2057
3 890 2241 2275
3 510 511 512
3 278 279 280
3 839 802 840
3 1858 235 1888
3 1698 1696 2036
3 104 105 222
3 57 58 224
3 1185 1183 1186
3 588 587 623
3 638 600 1988
3 1282 1386 2245
3 811 776 1058
3 816 815 876
3 2034 1845 2082
3 761 636 1741
3 566 565 587
3 174 175 1725
3 347 350 351
3 1469 1495 1496
3 1059 1058 1278
3 811 1149 1976
3 576 485 1935
3 659 658 660
3 859 1153 1962
3 76 1903 1994
3 1821 1109 2426
3 1294 1038 1622
3 733 1833 2075
3 992 993 1980
3 1566 1561 2285
3 525 474 2041
3 464 465 510
3 343 346 347
3 360 893 1982
3 650 649 651
3 896 608 936
3 950 1006 1007
3 1508 1859 1860
3 539 538 565
3 440 343 1911
3 341 340 344
3 221 1905 1906
3 1297 1823 2142
3 759 505 1967
3 1295 1053 1296
3 473 470 474
3 1463 1465 1466
3 1143 1206 2028
3 799 685 800
3 1210 2077 2203
3 509 508 538
3 492 496 2034
3 1553 1551 2030
3 1260 1261 1269
3 1430 1040 1703
3 586 590 1940
3 838 836 868
3 1705 624 2276
3 1749 972 2501
3 742 744 1943
3 804 962 1981
3 1367 1368 2254
3 531 532 533
3 337 336 340
3 1157 1094 1544
3 536 544 1158
3 812 630 1960
3 781 779 835
3 56 57 1947
3 630 583 634
3 1405 1404 1932
3 1281 891 1916
3 339 342 343
3 1411 1163 1730
3 322 323 324
3 344 340 2091
3 1735 1734 1736
3 75 76 1994
3 430 682 2494
3 1907 243 2360
3 589 581 2164
3 694 355 2196
3 744 753 1943
3 775 774 776
3 1210 1430 2077
3 335 338 339
3 1102 1803 2029
3 1078 937 1079
3 870 655 1939
3 505 507 1967
3 357 360 1982
3 1896 1878 2101
3 326 325 328
3 934 935 957
3 585 608 895
3 333 330 336
3 1270 1272 1524
3 688 817 878
3 507 520 1967
3 1428 1257 2074
3 1818 1817 2000
3 896 937 1077
3 934 957 1111
3 329 328 330
3 1499 995 1825
3 944 851 948
3 387 445 462
3 1678 1161 2228
3 777 776 811
3 313 311 757
3 324 331 332
3 848 1026 1955
3 1312 998 1811
3 1321 1322 2037
3 1080 1079 1121
3 1105 1355 2015
3 1645 2317 2461
3 1559 1568 2062
3 332 334 335
3 501 500 508
3 321 325 326
3 394 395 397
3 322 320 323
3 1529 1530 2171
3 1137 797 1138
3 811 1058 1059
3 661 660 662
3 569 581 585
3 183 4 2303
3 5 160 2304
3 1340 1138 1341
3 1660 1626 2185
3 1743 1464 2347
3 1026 1375 1955
3 1149 1059 1163
3 1736 1625 2194
3 1322 1667 2434
3 311 309 1959
3 309 307 319
3 894 700 1944
3 533 534 562
3 1276 1277 1366
3 2190 1706 2408
3 533 532 534
3 1214 1213 1410
3 1164 1163 1411
3 843 701 844
3 1009 1214 2055
3 234 1589 1788
3 2000 1817 2174
3 317 321 2050
3 328 325 945
3 392 393 394
3 588 623 2089
3 1162 958 1681
3 1078 1080 1136
3 927 848 1955
3 1496 1497 1498
3 390 391 392
3 1061 927 1955
3 1283 948 1284
3 635 634 700
3 1244 1251 1252
3 218 78 2093
3 756 722 2026
3 1071 1784 2419
3 1218 1505 2185
3 1284 948 1285
3 1489 1285 1490
3 918 1850 1851
3 684 1090 2029
3 1759 572 2537
3 1691 1690 2446
3 1979 1158 2071
3 606 649 650
3 2045 1043 2046
3 103 104 2025
3 630 634 635
3 360 383 893
3 406 386 2043
3 1909 219 2023
3 1111 957 1276
3 1925 1437 2277
3 1536 2268 2340
3 854 852 1133
3 233 153 1671
3 651 658 659
3 2099 1787 2368
3 1033 1032 1130
3 1015 1372 1373
3 1412 942 2026
3 253 264 1441
3 1531 1534 2332
3 701 700 894
3 106 107 1990
3 2048 1961 2455
3 276 274 2099
3 738 846 1968
3 1325 925 1326
3 896 936 937
3 585 586 608
3 1450 854 1973
3 1361 1360 1362
3 1045 1668 2512
3 303 301 444
3 996 844 997
3 79 1904 2093
3 1989 1686 2095
3 1928 774 2033
3 1942 562 1979
3 287 285 316
3 935 950 1966
3 1466 1467 1468
3 1242 1243 1244
3 1887 738 1968
3 2115 210 2477
3 878 929 1083
3 1326 1736 2194
3 886 888 1014
3 895 608 896
3 289 287 1978
3 821 822 897
3 936 608 1940
3 613 614 615
3 51 52 1996
3 417 411 1160
3 1149 1164 1989
3 386 786 2043
3 285 283 1971
3 1309 1543 2147
3 375 373 2053
3 371 370 372
3 779 777 1976
3 1286 1159 1773
3 2177 887 2376
3 1560 1557 1564
3 1403 1882 2399
3 1727 1757 2246
3 279 6 2049
3 1619 1438 2438
3 291 289 758
3 1781 1915 2294
3 425 401 426
3 349 355 356
3 66 67 2118
3 474 548 2041
3 1686 1687 2007
3 1262 1456 1457
3 1123 942 1412
3 1916 812 1960
3 1355 1425 2015
3 735 733 2075
3 1861 879 2449
3 1284 1285 1489
3 490 492 2034
3 366 363 367
3 980 578 2051
3 906 904 1792
3 534 536 1979
3 842 924 963
3 2051 578 2083
3 1077 937 1078
3 1102 1104 1803
3 894 1944 1946
3 398 404 2060
3 1007 1006 1953
3 369 367 370
3 348 354 2196
3 1078 1079 1080
3 1378 1380 1381
3 1568 1365 2439
3 608 586 1940
3 598 610 611
3 760 636 761
3 869 1137 1351
3 671 643 2033
3 1661 1345 2267
3 938 914 1057
3 783 761 914
3 576 1835 2144
3 388 389 390
3 297 295 318
3 454 453 500
3 1906 1728 2246
3 1439 1440 2468
3 1159 1013 1318
3 764 797 869
3 236 143 1717
3 782 644 2057
3 592 595 596
3 1542 2332 2443
3 1521 1311 2147
3 345 348 349
3 1304 1452 2205
3 1644 1907 2360
3 2146 1125 2149
3 997 844 1013
3 628 375 2053
3 299 297 1984
3 957 935 1966
3 664 685 799
3 301 299 1975
3 362 352 363
3 777 811 1976
3 1942 1979 2071
3 1001 920 2057
3 312 314 768
3 1552 1554 2062
3 615 616 617
3 357 1982 2076
3 800 802 839
3 774 671 2033
3 1749 1169 2105
3 365 958 1162
3 617 618 619
3 283 281 1938
3 1351 1772 2414
3 1525 1765 2489
3 846 934 1968
3 635 700 701
3 555 554 577
3 536 1158 1979
3 1101 1404 1405
3 630 635 1960
3 1811 1150 2089
3 2113 1666 2249
3 172 173 1847
3 107 108 195
3 54 55 196
3 1191 1768 2023
3 1455 1302 2205
3 115 116 2017
3 1387 1333 2437
3 659 661 764
3 1080 1121 1188
3 50 51 2011
3 411 406 2043
3 295 293 1983
3 643 987 2033
3 707 706 708
3 129 130 261
3 32 33 260
3 2159 260 2265
3 449 434 567
3 1314 1029 1315
3 917 796 940
3 378 375 628
3 108 109 1991
3 2370 1759 2537
3 341 344 345
3 997 1013 1159
3 544 569 1993
3 950 1007 1966
3 477 474 525
3 351 350 352
3 1696 1701 2036
3 334 331 803
3 1137 1138 1340
3 562 534 1979
3 109 110 246
3 52 53 247
3 1368 1316 1369
3 659 660 661
3 33 34 2002
3 123 124 2005
3 835 779 1976
3 851 838 1992
3 1530 1533 2172
3 1668 1045 2348
3 1162 1681 1706
3 342 338 468
3 298 300 358
3 765 359 2065
3 725 826 885
3 35 36 2003
3 46 47 2019
3 38 39 2006
3 336 517 2014
3 934 1111 1968
3 116 117 2018
3 650 651 1963
3 223 1711 2162
3 640 594 645
3 1333 1330 2192
3 104 222 2025
3 1603 922 2379
3 963 1113 1115
3 2084 1193 2189
3 564 570 571
3 36 37 2004
3 57 224 1947
3 1542 1601 2269
3 122 123 2012
3 1000 920 1001
3 127 128 240
3 34 35 239
3 383 387 2087
3 1161 1107 2228
3 1781 2294 2419
3 1201 1200 1202
3 124 125 225
3 37 38 226
3 1340 1341 1342
3 869 797 1137
3 839 840 1008
3 1158 544 1993
3 1326 925 1894
3 352 350 353
3 326 329 954
3 1864 2344 2412
3 836 835 2095
3 1051 1053 1295
3 1031 720 1032
3 503 461 787
3 1407 1112 2044
3 661 662 2058
3 838 868 1992
3 112 113 197
3 49 50 198
3 1359 980 1413
3 121 122 211
3 40 41 212
3 48 49 2010
3 113 114 2009
3 1741 673 2131
3 41 42 2020
3 120 121 2013
3 1409 2035 2097
3 1511 1374 2506
3 114 115 248
3 47 48 249
3 42 43 250
3 119 120 251
3 171 6 201
3 6 172 203
3 585 895 1993
3 43 44 2024
3 118 119 2021
3 905 904 906
3 764 661 797
3 337 340 341
3 1413 980 2051
3 117 118 205
3 44 45 206
3 347 346 350
3 1420 1076 1525
3 324 323 331
3 434 417 2031
3 965 967 969
3 716 719 788
3 1260 1254 1261
3 2053 373 2103
3 2069 2068 2170
3 326 328 329
3 1706 996 2408
3 273 275 2124
3 969 1011 1012
3 590 606 2001
3 1718 1611 2280
3 1914 1940 2001
3 915 1884 2082
3 329 330 333
3 620 859 955
3 2168 1409 2305
3 296 298 1997
3 915 2082 2101
3 339 338 342
3 1218 994 1505
3 333 336 337
3 266 263 1742
3 1873 768 2127
3 244 63 2162
3 64 223 2162
3 343 342 346
3 914 761 2258
3 310 312 1987
3 799 800 2055
3 302 304 763
3 1559 1566 1568
3 1598 1343 2114
3 592 575 595
3 341 345 794
3 189 1842 2220
3 767 815 816
3 1003 912 1004
3 839 1008 1009
3 1263 1428 1429
3 564 547 570
3 1845 1334 2082
3 332 331 334
3 901 866 902
3 651 659 1963
3 1009 1112 1213
3 335 334 338
3 569 585 1993
3 1665 1336 2299
3 1945 2071 2153
3 863 862 864
3 907 906 908
3 1849 1486 1930
3 1935 1144 2080
3 967 966 968
3 809 900 2119
3 865 864 866
3 835 1989 2095
3 190 1907 2417
3 333 337 522
3 1110 1748 2228
3 1193 1194 1195
3 94 191 2166
3 473 1854 2453
3 1769 1134 2369
3 948 851 1992
3 237 170 2216
3 420 419 422
3 1448 1447 2364
3 483 576 2144
3 721 1919 2032
3 885 886 1891
3 613 611 614
3 886 1014 1891
3 1160 411 2043
3 1918 1283 2342
3 1651 206 2485
3 1242 1240 1243
3 598 596 610
3 1295 1296 1459
3 1185 1186 1948
3 1425 1449 2070
3 294 296 762
3 1285 948 1992
3 925 876 1894
3 712 714 789
3 603 1668 2398
3 1940 590 2001
3 721 570 964
3 834 735 2075
3 1144 1920 2080
3 2263 1635 2511
3 1204 1207 1335
3 2235 1408 2378
3 965 964 966
3 1990 1435 2218
3 397 398 2060
3 1138 797 2058
3 1787 1141 2368
3 2068 820 2170
3 360 359 361
3 387 462 2087
3 1524 1272 1934
3 819 698 820
3 1197 1196 1198
3 1662 2126 2388
3 78 79 2093
3 1150 588 2089
3 1269 1261 1270
3 1878 915 2101
3 451 467 2169
3 2262 1387 2437
3 1009 1008 1112
3 757 311 1959
3 897 898 1139
3 1854 473 2483
3 2015 1425 2070
3 2082 1334 2101
3 963 1115 1174
3 1047 1049 1287
3 1194 423 1196
3 321 326 2050
3 417 1160 2031
3 854 1133 1973
3 1201 1212 1348
3 705 1586 2163
3 309 319 1959
3 1353 1390 2417
3 427 428 429
3 357 356 359
3 606 650 2001
3 549 1280 2124
3 1213 1112 1407
3 256 2303 2535
3 356 365 2065
3 662 664 2040
3 701 894 2039
3 1325 1371 2451
3 666 626 667
3 1902 93 2166
3 1236 1234 1246
3 800 839 2055
3 1869 1812 2252
3 1197 1364 1365
3 576 1935 2080
3 404 408 798
3 1678 807 2529
3 1560 1564 2016
3 1319 2039 2122
3 425 426 427
3 349 356 357
3 308 310 327
3 1716 622 2484
3 1801 82 2289
3 1768 1949 2420
3 2006 1926 2507
3 351 364 2407
3 420 423 1193
3 659 764 1963
3 292 294 2038
3 840 842 2027
3 736 279 2049
3 372 373 374
3 461 449 2052
3 2189 1195 2285
3 1174 1115 1398
3 367 363 961
3 909 908 918
3 1738 247 2402
3 1007 1761 2308
3 288 290 2135
3 422 441 2035
3 623 624 690
3 537 525 545
3 1953 1421 2454
3 1887 1968 2123
3 861 691 862
3 654 439 2223
3 1136 1080 2054
3 1312 1811 2089
3 575 571 2032
3 383 361 384
3 968 1200 1201
3 797 661 2058
3 1423 1354 2381
3 1180 1178 1181
3 1513 1515 2180
3 72 73 2217
3 462 445 463
3 12 13 2136
3 457 458 469
3 542 554 555
3 599 636 760
3 254 133 1766
3 1130 1397 1937
3 404 798 2060
3 1044 1942 2071
3 690 691 860
3 357 359 360
3 1008 2027 2152
3 1232 1230 1255
3 372 370 373
3 850 943 2125
3 1457 1456 1492
3 1952 324 2282
3 155 2 2356
3 0 7 2357
3 2017 1379 2288
3 918 1851 2008
3 195 1991 2517
3 2090 803 2347
3 1244 1243 1251
3 290 292 368
3 1432 1082 2214
3 1008 840 2027
3 1743 803 2296
3 1013 844 2039
3 365 1162 2065
3 1594 1315 2184
3 387 384 388
3 1508 1860 2311
3 547 527 2056
3 2005 225 2322
3 314 317 2127
3 1853 556 2327
3 201 6 278
3 1907 1644 2417
3 1896 2101 2108
3 646 645 784
3 538 508 558
3 374 375 377
3 1630 1634 1635
3 1579 1999 2352
3 1647 1648 1849
3 1313 1314 2121
3 1179 1433 2042
3 844 701 2039
3 1252 1251 2098
3 816 876 925
3 1922 1228 2281
3 392 394 396
3 1915 654 2294
3 1652 1653 2487
3 429 430 436
3 456 475 476
3 1605 1392 2510
3 126 1882 2284
3 1784 1780 2419
3 500 453 960
3 377 378 381
3 2178 1587 2300
3 1222 1219 1626
3 413 419 420
3 381 382 400
3 2169 1836 2223
3 1906 1905 2129
3 616 614 793
3 1170 1419 2139
3 101 189 2220
3 241 100 2220
3 1968 1111 2123
3 567 434 2031
3 615 614 616
3 1032 720 1921
3 682 428 2138
3 469 470 473
3 339 440 2261
3 1501 238 2226
3 1154 1431 1653
3 446 447 457
3 1251 1243 1257
3 2229 315 2495
3 1201 1202 1212
3 785 784 879
3 464 463 465
3 66 2118 2395
3 324 332 2282
3 286 288 771
3 17 199 2081
3 571 570 721
3 611 610 2092
3 617 616 618
3 1542 1531 2332
3 400 401 424
3 1325 1326 1371
3 1140 1406 1702
3 1323 443 2302
3 1926 1573 2507
3 436 437 446
3 1262 1457 2098
3 67 190 2118
3 1518 1861 2449
3 989 1359 1360
3 1063 1082 1154
3 1757 96 2526
3 969 967 1011
3 868 836 2095
3 1215 1035 2235
3 96 1757 2309
3 261 2160 2380
3 1381 1382 2126
3 1468 1469 2182
3 1334 1317 2108
3 861 863 1064
3 1270 1261 1271
3 360 361 383
3 287 316 1978
3 1856 192 2367
3 1905 241 2129
3 1615 1809 2425
3 528 523 560
3 979 980 989
3 662 2040 2058
3 721 964 965
3 170 171 2216
3 664 799 2040
3 512 511 523
3 1201 1348 2107
3 620 618 858
3 758 289 1978
3 859 858 998
3 424 425 453
3 1616 1615 2193
3 444 301 1975
3 561 560 593
3 965 966 967
3 1798 376 2430
3 340 2014 2091
3 510 465 511
3 107 195 1990
3 1080 1188 2054
3 1153 998 1312
3 1226 1224 1249
3 1012 1011 1363
3 902 904 905
3 842 963 2027
3 268 270 1134
3 865 901 1125
3 2077 558 2102
3 282 284 442
3 1977 1679 2253
3 1496 1498 2047
3 284 286 2063
3 281 736 1938
3 2132 793 2165
3 1674 215 2437
3 2078 1855 2411
3 839 1009 2055
3 1182 824 1183
3 1168 947 1169
3 1289 1871 2242
3 316 285 1971
3 1270 1271 1272
3 1755 1793 2264
3 51 1996 2011
3 383 384 387
3 1146 1924 2215
3 1279 1928 2202
3 619 618 620
3 1194 1196 1197
3 555 578 979
3 1937 1639 2528
3 1262 1257 1263
3 389 384 2339
3 2251 1338 2464
3 1155 1887 2123
3 1151 1937 2528
3 465 463 828
3 1318 1319 2116
3 1687 1688 2231
3 326 954 2050
3 297 318 1984
3 1308 953 2255
3 1846 2056 2198
3 320 315 2229
3 1254 1252 2059
3 760 761 783
3 951 1281 2255
3 1459 1296 2094
3 2288 1638 2470
3 1975 299 1984
3 52 247 1996
3 468 338 2090
3 2140 1511 2506
3 1125 1126 1192
3 593 824 1182
3 720 708 1921
3 704 706 707
3 623 587 624
3 2044 1112 2152
3 1393 1169 1749
3 900 983 2119
3 783 914 938
3 255 2265 2489
3 2039 894 2122
3 317 2050 2127
3 1866 1867 2513
3 374 373 375
3 429 436 455
3 387 388 445
3 1193 423 1194
3 555 577 578
3 1074 977 1187
3 449 567 2052
3 1197 1198 1364
3 2154 1595 2486
3 1486 1849 2173
3 318 295 1983
3 939 1016 1844
3 131 132 2160
3 30 31 2159
3 881 1146 2215
3 1294 1868 2238
3 1300 1455 2314
3 1365 1364 1912
3 783 938 939
3 2061 1735 2441
3 551 545 601
3 2194 216 2536
3 1251 1257 1262
3 888 887 2177
3 1364 1198 2048
3 1498 1682 2340
3 1589 1590 2501
3 60 188 2266
3 1401 1913 2324
3 195 108 1991
3 420 422 423
3 1675 1470 2474
3 258 1673 2183
3 2161 1619 2438
3 1296 1472 2094
3 1808 1910 2381
3 334 803 2090
3 1490 1285 2232
3 523 511 524
3 1240 1238 2074
3 1184 1183 1185
3 39 40 2151
3 473 474 477
3 1461 1463 2200
3 2072 353 2073
3 861 862 863
3 1206 1941 2401
3 958 1575 2287
3 614 611 2092
3 110 111 2140
3 1136 2054 2110
3 645 594 2133
3 260 33 2002
3 673 767 2131
3 989 980 1359
3 1741 2131 2258
3 1317 1875 2148
3 894 1946 2122
3 863 864 865
3 787 461 2052
3 857 2277 2386
3 109 246 1991
3 2017 116 2018
3 1182 1183 1184
3 377 375 378
3 816 925 1324
3 865 866 901
3 1262 1263 1456
3 359 356 2065
3 2129 241 2472
3 283 1938 1971
3 1458 1210 2203
3 1076 1003 2145
3 196 1738 2402
3 1033 1130 1151
3 1188 1121 2106
3 1140 1702 2096
3 549 687 1280
3 1694 1621 2191
3 861 1064 2112
3 1548 1549 2129
3 1784 1071 2462
3 714 716 2066
3 1961 825 2455
3 1447 1211 2250
3 979 578 980
3 905 907 1209
3 381 378 382
3 457 469 552
3 595 575 2032
3 408 413 2084
3 481 483 2144
3 1745 1349 2293
3 1980 1405 2441
3 198 50 2011
3 248 115 2017
3 912 819 2068
3 620 858 859
3 707 708 720
3 821 674 822
3 514 542 2086
3 400 382 401
3 123 2005 2012
3 1772 1351 2374
3 34 239 2002
3 768 314 2127
3 2003 36 2004
3 280 282 2079
3 124 225 2005
3 596 595 2130
3 593 560 824
3 1504 1502 2519
3 239 35 2003
3 1311 1309 2147
3 1318 1877 2240
3 1860 1432 2311
3 1416 1715 2330
3 859 998 1153
3 352 353 2072
3 312 768 1987
3 2027 1174 2152
3 226 38 2006
3 1827 1024 2117
3 1710 1391 2295
3 690 624 691
3 37 226 2004
3 1153 1312 1885
3 853 855 2186
3 1892 242 2373
3 1967 520 2174
3 939 938 1016
3 47 249 2019
3 388 390 2078
3 1991 2139 2517
3 905 906 907
3 571 721 2032
3 1196 423 2035
3 1324 925 1325
3 1151 1130 1937
3 363 352 2072
3 345 349 2076
3 1031 1032 1033
3 214 179 1859
3 211 122 2012
3 602 601 652
3 117 205 2018
3 710 712 2067
3 1602 187 2357
3 520 2000 2174
3 85 242 2335
3 220 84 2335
3 381 400 2113
3 1586 1587 2435
3 424 401 425
3 963 1174 2027
3 860 691 861
3 610 596 2130
3 1958 2078 2431
3 570 547 2056
3 237 2216 2354
3 1211 1692 2219
3 298 358 1997
3 909 947 1041
3 441 456 2097
3 1135 1647 1849
3 1601 1542 2443
3 197 113 2009
3 49 198 2010
3 1911 347 2407
3 1729 191 2309
3 212 41 2020
3 121 211 2013
3 222 105 2218
3 1125 901 1126
3 114 248 2009
3 249 48 2010
3 42 250 2020
3 251 120 2013
3 233 1769 2369
3 1870 647 2113
3 794 345 2076
3 250 43 2024
3 119 251 2021
3 901 902 2141
3 964 570 2056
3 739 335 2261
3 2108 1317 2148
3 577 599 2083
3 205 118 2021
3 44 206 2024
3 1247 1241 2323
3 1894 992 2244
3 6 203 2049
3 1642 1678 2529
3 1417 1873 2333
3 1422 2023 2516
3 341 794 2100
3 73 74 2361
3 1234 1232 2088
3 1261 1254 2059
3 896 1077 2257
3 1921 710 2067
3 125 126 2284
3 220 1699 2289
3 159 5 2304
3 4 184 2303
3 2059 1252 2098
3 1003 1004 2145
3 2328 1325 2451
3 1486 227 1500
3 63 64 2162
3 2081 1192 2260
3 508 500 2102
3 667 1872 2318
3 338 334 2090
3 423 422 2035
3 1192 1126 1471
3 907 908 909
3 1330 1328 2192
3 1972 897 2500
3 2443 316 2514
3 242 86 2373
3 87 193 2373
3 420 1193 2084
3 1473 1086 2358
3 1987 768 2037
3 522 337 2100
3 627 1660 2185
3 1793 446 2264
3 1405 2061 2441
3 1502 1217 2302
3 171 201 2216
3 1158 1993 2153
3 1197 1365 2120
3 1712 1710 2295
3 1121 1401 2414
3 93 94 2166
3 653 652 688
3 622 1716 2452
3 1345 1720 2267
3 477 537 556
3 128 129 2181
3 2331 1295 2458
3 784 645 874
3 1269 1270 2199
3 189 102 2355
3 1041 1168 1343
3 246 110 2140
3 477 525 537
3 755 1895 2371
3 1947 1723 2313
3 1134 1135 2369
3 223 65 2395
3 968 1201 2107
3 1577 1578 2325
3 210 15 2477
3 961 363 2072
3 1581 1579 2352
3 349 357 2076
3 337 341 2100
3 305 303 2317
3 370 367 2103
3 762 296 1997
3 581 580 2164
3 1278 1838 2372
3 1548 2129 2472
3 594 593 2133
3 2021 251 2022
3 2047 1247 2182
3 967 968 2107
3 1169 947 2008
3 481 2144 2169
3 793 614 2092
3 1910 217 2381
3 1251 1262 2098
3 716 788 2066
3 2101 1334 2108
3 2006 39 2151
3 1603 2379 2508
3 1926 2006 2151
3 96 97 2526
3 750 755 2371
3 789 714 2066
3 909 918 947
3 1993 895 2153
3 106 1990 2218
3 1243 1240 2074
3 832 986 1189
3 1283 1284 2342
3 2297 195 2517
3 1043 829 2326
3 767 816 2131
3 602 653 676
3 1004 912 2068
3 2086 1886 2224
3 1124 2177 2467
3 426 401 2531
3 707 720 1030
3 1000 1001 2184
3 1315 1029 2184
3 467 481 2169
3 541 513 2256
3 647 381 2113
3 225 2284 2510
3 2 156 2356
3 187 0 2357
3 40 212 2151
3 2245 1386 2383
3 676 677 829
3 1004 2068 2069
3 1860 232 2487
3 1031 1033 1034
3 829 830 972
3 996 997 2408
3 1195 1194 2120
3 987 1869 2202
3 1410 1213 2222
3 819 820 2068
3 1485 1486 2173
3 1564 2030 2155
3 807 669 2529
3 129 261 2181
3 1525 1076 2145
3 578 577 2083
3 327 310 1987
3 1083 929 2197
3 2131 1324 2258
3 798 408 2084
3 1838 696 2426
3 1486 1500 1930
3 1946 1944 2291
3 2257 1077 2291
3 1512 1661 2266
3 445 388 2078
3 1192 1471 2260
3 2118 1415 2395
3 1466 1468 2158
3 830 677 831
3 211 2012 2251
3 652 601 2442
3 537 545 551
3 558 508 2102
3 198 2011 2128
3 1718 2280 2385
3 500 960 2102
3 1168 1169 1393
3 1127 971 2496
3 95 96 2309
3 2030 1565 2155
3 1919 1172 2273
3 977 860 2112
3 240 128 2181
3 294 762 2038
3 1800 1799 2195
3 712 789 2067
3 972 1749 2326
3 472 1683 2212
3 874 645 2133
3 551 2045 2201
3 2105 1043 2326
3 1957 1212 2301
3 1514 1856 2367
3 565 538 2167
3 373 370 2103
3 355 348 2196
3 1934 1272 2138
3 1934 426 2531
3 1881 1400 2481
3 2046 1851 2327
3 367 961 2103
3 1963 1152 2206
3 201 278 443
3 3 131 2444
3 31 1 2445
3 2035 441 2097
3 503 787 2198
3 1135 1849 1930
3 1534 1983 2306
3 2089 623 2150
3 687 704 2109
3 869 1351 2363
3 1302 1304 2205
3 955 1716 2484
3 1030 720 1031
3 1159 1318 2240
3 1228 1226 2281
3 947 918 2008
3 413 420 2084
3 785 879 2532
3 1041 947 1168
3 1468 2182 2323
3 1246 1234 2088
3 1730 1163 2372
3 542 555 2086
3 1599 631 2312
3 1146 1967 2174
3 1078 1136 2343
3 1515 1574 2180
3 2336 885 2469
3 1257 1243 2074
3 1347 1346 2279
3 2001 650 2206
3 1480 1601 2514
3 1029 1000 2184
3 1956 788 2336
3 1271 1261 2059
3 130 3 2444
3 1 32 2445
3 1570 1507 2197
3 1232 1255 2088
3 791 1642 2529
3 1601 1479 2269
3 1361 1362 2168
3 1634 1922 2281
3 765 2065 2190
3 2071 1158 2153
3 1699 1801 2289
3 832 831 833
3 1864 346 2344
3 456 476 2097
3 1855 828 2411
3 2065 1162 2190
3 1125 1192 2149
3 599 760 2083
3 361 765 2339
3 1731 2123 2241
3 1349 1181 1350
3 1443 1275 2251
3 1819 524 2429
3 1021 1045 2512
3 858 618 2132
3 1999 358 2338
3 368 292 2038
3 290 368 2135
3 803 331 2296
3 1112 1008 2152
3 56 1947 2313
3 555 979 2086
3 1469 1496 2182
3 1011 967 2107
3 248 2017 2288
3 1809 789 2425
3 960 453 2221
3 538 558 2167
3 1858 1187 2248
3 2246 1757 2526
3 902 905 2141
3 1851 1853 2327
3 1224 1222 2111
3 771 288 2135
3 1945 2153 2257
3 1420 1525 2489
3 1399 1123 2393
3 103 2025 2355
3 897 822 898
3 1861 940 2532
3 865 1125 2146
3 1675 2474 2522
3 1573 2157 2507
3 1632 1631 2382
3 551 601 602
3 527 503 2198
3 1708 805 2337
3 1059 1278 2372
3 2056 527 2198
3 860 861 2112
3 1668 2348 2398
3 255 2159 2265
3 1541 1542 2269
3 1428 2074 2227
3 1582 1583 2321
3 389 1774 2503
3 2004 226 2157
3 1777 397 2405
3 1368 1436 2254
3 1061 2409 2462
3 1071 930 2462
3 1126 901 2141
3 1194 1197 2120
3 1452 1952 2282
3 2116 1319 2482
3 105 106 2218
3 1981 1399 2393
3 2119 983 2143
3 444 1682 2461
3 2173 1648 2463
3 616 793 2132
3 1791 1190 2334
3 1826 1728 2259
3 602 652 653
3 1834 1292 2428
3 556 2201 2327
3 1014 1015 2385
3 1995 1287 2331
3 1193 1195 2189
3 816 1324 2131
3 879 1861 2532
3 593 1182 2133
3 1402 266 1742
3 2216 1323 2354
3 1660 1636 2502
3 620 955 2484
3 1162 1706 2190
3 1870 2113 2249
3 204 1680 1732
3 1909 2023 2420
3 217 72 2217
3 376 372 2430
3 905 1209 2141
3 1378 1381 2283
3 1236 1246 2227
3 286 771 2063
3 1635 2263 2502
3 100 101 2220
3 1139 898 1140
3 2114 1343 2136
3 442 284 2063
3 1772 2106 2414
3 1985 1755 2533
3 2192 1328 2315
3 1064 863 2146
3 1631 1637 2459
3 736 2049 2523
3 221 1906 2246
3 318 1983 2171
3 1496 2047 2182
3 1374 2139 2506
3 196 55 2313
3 2087 462 2134
3 676 653 677
3 2304 257 2491
3 1401 2324 2363
3 829 677 830
3 654 2223 2242
3 1187 977 2112
3 1463 1466 2200
3 2023 219 2516
3 1176 881 2215
3 513 471 2290
3 1812 459 2252
3 1386 1269 2199
3 291 758 2306
3 618 616 2132
3 278 280 2210
3 83 220 2289
3 82 83 2289
3 938 1057 2161
3 1189 986 1190
3 788 719 2336
3 1914 2001 2206
3 232 181 1652
3 1567 2062 2490
3 313 757 2495
3 622 619 2484
3 688 878 1320
3 1222 1626 2111
3 282 442 2079
3 1169 2008 2105
3 1966 1007 2308
3 2040 799 2237
3 1744 2229 2495
3 986 833 1063
3 2284 1605 2510
3 887 1961 2376
3 215 1624 2262
3 830 831 832
3 476 475 2224
3 439 451 2223
3 1932 1933 2380
3 2227 1246 2366
3 1212 1202 2301
3 1107 1110 2228
3 249 2010 2299
3 1983 293 2306
3 2055 1214 2237
3 1438 1372 2478
3 824 560 2156
3 2320 1866 2513
3 1351 1137 2374
3 868 2007 2232
3 2063 771 2064
3 1507 214 1508
3 1728 1727 2246
3 1045 1047 2348
3 1139 1140 2096
3 1648 1649 2463
3 1502 2302 2519
3 704 707 2109
3 2343 1136 2396
3 650 1963 2206
3 2153 895 2257
3 396 1958 2431
3 1379 1377 2288
3 2115 1471 2319
3 2033 987 2202
3 2239 1693 2518
3 2025 1488 2355
3 1209 2115 2319
3 523 524 2156
3 783 939 2243
3 376 1798 2497
3 2066 788 2193
3 1984 318 2172
3 425 427 2221
3 203 172 1847
3 446 457 2264
3 1312 2089 2150
3 2138 1272 2211
3 897 1139 2274
3 828 1819 2429
3 1249 1224 2111
3 666 667 2318
3 1371 1326 2194
3 2433 1499 2475
3 1272 1271 2211
3 1367 2254 2479
3 1386 2053 2383
3 2074 1238 2227
3 755 2148 2320
3 2117 1604 2428
3 475 514 2224
3 228 2187 2457
3 1868 1504 2520
3 1626 1218 2185
3 2123 1111 2241
3 1287 1049 2331
3 1280 687 2109
3 459 1814 2292
3 54 196 2402
3 863 865 2146
3 204 176 1680
3 514 2086 2224
3 1646 603 2398
3 112 197 2346
3 358 300 2338
3 1140 898 1141
3 1204 1335 2301
3 1016 2161 2438
3 909 1041 2175
3 1681 2448 2492
3 2252 459 2292
3 1992 868 2232
3 1035 1036 2235
3 1051 1295 2331
3 1836 1289 2242
3 1508 214 1859
3 247 53 2402
3 1016 938 2161
3 1408 856 2378
3 1466 2158 2200
3 725 885 2336
3 855 1450 2421
3 2023 1768 2420
3 1238 1236 2227
3 1679 202 2253
3 2107 1348 2233
3 1653 1431 2487
3 1946 2291 2343
3 2253 202 2329
3 1885 1312 2150
3 378 628 2390
3 2195 1383 2432
3 1520 1519 2480
3 1532 1733 2534
3 308 327 2278
3 953 951 2255
3 1213 1407 2222
3 1561 1563 2285
3 302 763 2338
3 1928 2033 2202
3 763 304 2345
3 832 833 986
3 1352 2040 2237
3 247 1881 2481
3 560 523 2156
3 335 339 2261
3 346 342 2344
3 201 443 1323
3 2301 1335 2466
3 323 320 2229
3 1136 2110 2396
3 1139 1977 2274
3 1809 1615 2423
3 1707 1791 2334
3 46 2019 2485
3 2064 1294 2238
3 1950 197 2404
3 2021 2022 2176
3 1949 245 2420
3 2044 2152 2207
3 1063 1154 1707
3 1012 1363 2406
3 280 2079 2210
3 2237 1214 2351
3 820 698 2318
3 1140 1141 1406
3 205 2021 2176
3 2043 786 2310
3 2145 1004 2446
3 707 1030 2109
3 1406 2460 2473
3 2137 1268 2226
3 16 2081 2260
3 567 2031 2219
3 2112 1064 2248
3 206 45 2485
3 2347 1462 2365
3 1650 1962 2362
3 453 425 2221
3 1209 907 2175
3 1111 1276 2241
3 2448 1145 2492
3 2051 2083 2243
3 59 60 2266
3 1402 1742 2530
3 831 677 2209
3 624 587 2276
3 238 174 1725
3 1011 2107 2233
3 468 2365 2412
3 2337 805 2371
3 254 1932 2380
3 1174 1398 2207
3 2140 111 2346
3 1381 2186 2283
3 1987 2037 2188
3 1740 559 2456
3 1773 391 2503
3 1335 1870 2249
3 1945 2257 2291
3 828 463 2411
3 1246 2088 2208
3 2060 798 2307
3 1773 1159 2240
3 1187 2112 2248
3 1352 2237 2351
3 2037 1322 2188
3 1941 1499 2433
3 2322 225 2510
3 1031 1034 2236
3 327 2188 2321
3 595 2032 2273
3 1464 1462 2347
3 1285 1992 2232
3 799 2055 2237
3 443 278 2210
3 784 874 2178
3 392 396 2431
3 191 95 2309
3 879 784 2178
3 524 511 2429
3 2128 2011 2270
3 895 896 2257
3 2206 1152 2324
3 318 2171 2172
3 2259 1549 2379
3 1214 1410 2351
3 306 308 2278
3 2022 251 2247
3 1757 1729 2309
3 1283 1918 2524
3 996 1706 2492
3 557 2044 2207
3 1798 1448 2364
3 1447 2250 2310
3 559 1750 2403
3 1363 1011 2233
3 1343 1168 2187
3 1407 2044 2256
3 1462 1460 2365
3 1995 2331 2458
3 327 1987 2188
3 2160 254 2380
3 1681 958 2287
3 2031 1160 2250
3 1600 689 2413
3 2219 1692 2239
3 1494 1675 2522
3 1281 1916 2448
3 907 909 2175
3 565 2167 2276
3 2241 1276 2275
3 1978 316 2443
3 2151 212 2350
3 203 1847 2104
3 2049 1481 2523
3 1961 1362 2376
3 2187 1393 2457
3 940 796 2532
3 2293 1349 2329
3 572 1897 2537
3 332 739 2282
3 2052 567 2239
3 1437 1370 2277
3 567 2219 2239
3 667 626 2452
3 1914 2206 2324
3 2243 939 2392
3 2136 1343 2187
3 257 1654 2530
3 1376 1378 2283
3 2076 1982 2272
3 2083 760 2243
3 1944 1945 2291
3 1771 1839 2359
3 1404 1403 2399
3 1875 1866 2320
3 1460 1337 2412
3 760 783 2243
3 1276 1366 2275
3 1428 2227 2366
3 1882 1605 2284
3 1739 1429 2459
3 2321 2188 2434
3 1328 1327 2315
3 798 2189 2307
3 2152 1174 2207
3 2182 1247 2323
3 1516 1514 2367
3 293 291 2306
3 556 537 2201
3 1298 1300 2314
3 1400 1399 2316
3 1649 2236 2463
3 833 831 2424
3 2127 2050 2333
3 1057 914 2328
3 1839 193 2359
3 761 1741 2258
3 1186 1970 2422
3 1429 2366 2382
3 2211 1271 2271
3 1733 1248 2534
3 13 2114 2136
3 2078 390 2431
3 1533 1536 2340
3 1690 2145 2446
3 1277 2308 2370
3 1168 1393 2187
3 1597 2047 2268
3 587 565 2276
3 1908 244 2401
3 225 125 2284
3 610 2130 2468
3 1749 2105 2326
3 1913 1914 2324
3 2366 2208 2382
3 1391 1876 2295
3 457 552 2264
3 653 688 2209
3 1601 2443 2514
3 682 2138 2211
3 992 1980 2244
3 55 56 2313
3 1645 1495 2493
3 473 477 2483
3 202 1724 2329
3 465 828 2429
3 1277 1966 2308
3 1416 2330 2406
3 1912 1364 2455
3 1716 1483 2375
3 2019 1651 2485
3 1725 2137 2226
3 201 1323 2216
3 878 1083 2213
3 2072 2073 2245
3 1563 1777 2405
3 244 2028 2401
3 2016 1564 2422
3 1682 1497 2461
3 1962 1153 2362
3 1298 2314 2358
3 1384 1385 2391
3 688 1320 2209
3 1587 2179 2435
3 786 380 2497
3 1395 1522 2341
3 2032 1919 2273
3 251 2013 2247
3 2219 2031 2250
3 2397 552 2453
3 1765 255 2489
3 2475 1825 2524
3 1202 1204 2301
3 445 2078 2411
3 323 2229 2296
3 1286 2384 2408
3 537 551 2201
3 1724 237 2293
3 84 85 2335
3 1471 1126 2319
3 1635 1634 2511
3 300 302 2338
3 698 666 2318
3 1030 1031 2236
3 2098 1457 2271
3 696 1821 2426
3 1457 1492 2447
3 1956 2336 2469
3 331 323 2296
3 1284 1491 2342
3 2011 1996 2270
3 256 183 2303
3 160 257 2304
3 2204 1589 2501
3 1891 1014 2280
3 719 725 2336
3 1354 1808 2381
3 437 430 2494
3 2377 218 2391
3 2211 2271 2447
3 1407 2256 2290
3 2365 1460 2412
3 2047 1498 2268
3 1825 1283 2524
3 1499 1825 2475
3 1226 1249 2281
3 2051 2243 2392
3 2250 1160 2310
3 111 112 2346
3 304 306 2345
3 1341 1352 2351
3 2166 191 2504
3 2223 1836 2242
3 1996 247 2481
3 1049 1051 2331
3 1086 1298 2358
3 2130 595 2273
3 1249 2111 2263
3 680 1995 2458
3 1511 2140 2346
3 102 103 2355
3 469 473 2453
3 961 2072 2245
3 2073 1282 2245
3 1442 1443 2525
3 74 192 2361
3 2163 1586 2435
3 1519 1518 2449
3 897 2274 2500
3 303 444 2317
3 1615 1614 2423
3 197 2009 2404
3 1634 2281 2511
3 1780 1781 2419
3 1435 1623 2465
3 1286 1774 2384
3 384 361 2339
3 193 1901 2359
3 1165 2433 2475
3 2277 1370 2386
3 677 653 2209
3 1994 1516 2367
3 1479 1478 2440
3 1165 1512 2433
3 1644 1353 2417
3 1711 1712 2353
3 2193 1615 2425
3 1613 1956 2469
3 1440 1173 2330
3 2269 1479 2440
3 222 2218 2465
3 391 389 2503
3 306 2278 2345
3 468 2090 2365
3 221 2246 2526
3 1445 1446 2504
3 939 1844 2392
3 86 87 2373
3 1429 1428 2366
3 2053 2103 2383
3 1348 1212 2312
3 805 750 2371
3 997 1286 2408
3 1152 869 2363
3 2063 2064 2238
3 192 1994 2367
3 1160 2043 2310
3 1926 2151 2350
3 2059 2098 2271
3 1897 1366 2537
3 215 2262 2437
3 1655 1732 2476
3 2415 1128 2454
3 1320 2213 2214
3 7 258 2357
3 259 155 2356
3 2171 1530 2172
3 347 351 2407
3 1077 1078 2343
3 239 2003 2279
3 1446 1128 2415
3 1034 1033 2410
3 601 627 2442
3 1154 1653 2234
3 397 2060 2405
3 2142 794 2272
3 442 2063 2238
3 1863 1215 2378
3 794 2076 2272
3 1883 1375 2505
3 1320 878 2213
3 342 468 2344
3 1903 218 2377
3 380 376 2497
3 1549 1547 2379
3 1148 1165 2475
3 2157 226 2507
3 829 972 2326
3 884 1957 2466
3 2291 1077 2343
3 65 66 2395
3 787 2052 2518
3 2298 1348 2312
3 1946 2343 2396
3 1653 256 2535
3 1842 1548 2472
3 1957 2301 2466
3 1366 1277 2370
3 2213 1432 2214
3 961 2245 2383
3 218 2093 2391
3 1376 2283 2421
3 1873 2127 2333
3 1019 1021 2512
3 1128 1127 2454
3 1104 1434 2450
3 2130 1439 2468
3 2396 2110 2482
3 2186 855 2283
3 1724 2293 2329
3 1163 1059 2372
3 1614 2389 2423
3 53 54 2402
3 1063 1707 2334
3 2283 855 2421
3 1385 1863 2436
3 364 1883 2505
3 517 1890 2387
3 1145 996 2492
3 1047 1287 2348
3 2148 1875 2320
3 205 2176 2416
3 1372 1844 2478
3 1211 2219 2250
3 1141 898 2368
3 245 1909 2420
3 2278 327 2321
3 2389 1397 2423
3 2256 513 2290
3 559 2403 2456
3 1137 1340 2374
3 2093 1384 2391
3 1918 1148 2524
3 1030 2236 2427
3 1867 1895 2513
3 2014 517 2387
3 2271 1457 2447
3 1143 2028 2353
3 1904 194 2432
3 1148 2475 2524
3 1574 1523 2436
3 2213 1083 2311
3 1997 358 2325
3 2139 246 2506
3 1370 1369 2386
3 1271 2059 2271
3 1034 2173 2463
3 1123 1412 2393
3 1578 1827 2515
3 2209 1320 2424
3 2079 1504 2210
3 1361 2168 2305
3 1491 1489 2403
3 238 1725 2226
3 1190 986 2334
3 1547 1545 2508
3 1891 1613 2469
3 1153 1885 2362
3 2208 1632 2382
3 2287 1281 2448
3 1356 1376 2421
3 1965 2349 2515
3 2155 1186 2422
3 1522 2014 2387
3 2158 1468 2323
3 2050 954 2333
3 1397 1809 2423
3 1362 1360 2376
3 1852 1985 2397
3 2069 1691 2446
3 789 2066 2425
3 1895 755 2513
3 1707 1154 2234
3 372 374 2430
3 2225 787 2518
3 2028 1206 2401
3 986 1063 2334
3 1912 726 2439
3 1340 1342 2400
3 1916 1145 2448
3 2236 1649 2427
3 2374 1340 2400
3 2222 1407 2290
3 2324 1152 2363
3 241 2220 2472
3 765 2190 2384
3 2375 667 2452
3 2330 1173 2406
3 1181 1972 2500
3 2126 1382 2388
3 1173 1012 2406
3 315 313 2495
3 1015 1373 2385
3 97 221 2526
3 1937 1397 2389
3 930 1061 2462
3 971 1096 2496
3 45 46 2485
3 669 791 2529
3 1104 2450 2521
3 382 378 2390
3 2191 1371 2536
3 2235 1036 2286
3 831 2209 2424
3 762 1997 2349
3 2379 1547 2508
3 2177 1359 2467
3 2403 1489 2456
3 796 785 2532
3 219 1902 2516
3 1519 2300 2480
3 1065 1655 2476
3 1375 1473 2505
3 1489 1490 2456
3 390 392 2431
3 2247 2013 2464
3 1135 1930 2369
3 2278 1583 2345
3 626 622 2452
3 631 2298 2312
3 2233 1348 2298
3 1398 1974 2499
3 1706 1681 2492
3 261 130 2444
3 32 260 2445
3 822 2099 2368
3 1365 1912 2439
3 941 940 2418
3 1446 2166 2504
3 2106 1121 2414
3 2300 1519 2449
3 1803 1104 2521
3 1732 1570 2476
3 1413 2051 2392
3 2122 1946 2396
3 2238 1868 2520
3 477 556 2483
3 2397 1985 2533
3 463 445 2411
3 2163 1185 2488
3 1126 2141 2319
3 1755 2264 2533
3 972 2204 2501
3 2230 1533 2340
3 1774 1773 2503
3 1997 2325 2349
3 1004 2069 2446
3 2159 31 2445
3 131 2160 2444
3 1371 2191 2451
3 1001 2154 2486
3 1682 2230 2340
3 2103 961 2383
3 1033 1151 2410
3 382 2390 2531
3 1504 2079 2520
3 1583 2278 2321
3 511 465 2429
3 250 2024 2479
3 2208 2088 2509
3 619 620 2484
3 1246 2208 2366
3 2141 1209 2319
3 1359 1413 2467
3 1295 1459 2458
3 2218 1435 2465
3 2281 1249 2511
3 2293 237 2354
3 2207 1398 2499
3 1564 2155 2422
3 552 469 2453
3 1947 224 2498
3 2062 1568 2490
3 2018 205 2416
3 260 2159 2445
3 2160 261 2444
3 2092 610 2468
3 194 2195 2432
3 1432 2213 2311
3 211 2251 2464
3 2378 856 2527
3 1536 1532 2534
3 2364 786 2497
3 2438 1438 2478
3 1185 1948 2488
3 2042 941 2418
3 1582 2321 2434
3 885 1891 2469
3 1364 2048 2455
3 1693 2225 2518
3 401 382 2531
3 1338 2247 2464
3 442 2238 2520
3 1292 2117 2428
3 2274 1350 2500
3 2066 2193 2425
3 2179 1184 2435
3 898 822 2368
3 2436 1863 2527
3 1844 1016 2478
3 2184 1001 2486
3 557 2207 2499
3 2013 211 2464
3 2254 250 2479
3 1350 1181 2500
3 2009 248 2470
3 246 2140 2506
3 1574 2436 2527
3 2139 1419 2517
3 316 1971 2514
3 1319 2122 2482
3 226 2006 2507
3 1400 2270 2481
3 1681 2287 2448
3 2325 1578 2349
3 232 1652 2487
3 1320 2214 2424
3 1632 2208 2509
3 248 2288 2470
3 1406 1141 2460
3 2188 1322 2434
3 2244 1980 2441
3 2088 1255 2509
3 1280 2109 2427
3 2060 2307 2405
3 2236 1034 2463
3 1745 2293 2354
3 2122 2396 2482
3 2109 1030 2427
3 2307 1563 2405
3 1429 2382 2459
3 224 2267 2498
3 682 2211 2447
3 2079 442 2520
3 2348 1287 2398
3 2220 1842 2472
3 1335 2249 2466
3 1249 2263 2511
3 443 2210 2519
3 2385 1373 2394
3 1594 2184 2486
3 2052 2239 2518
3 1568 2439 2490
3 2349 1578 2515
3 2344 468 2412
3 2270 1996 2481
3 1735 2244 2441
3 2260 1471 2477
3 2210 1504 2519
3 1434 2297 2450
3 2297 1419 2450
3 2263 1660 2502
3 2404 2009 2470
3 1718 2385 2394
3 1371 2194 2536
3 2317 444 2461
3 1443 2322 2525
3 1716 2375 2452
3 1863 2378 2527
3 2439 726 2490
3 1057 2328 2451
3 1638 2404 2470
3 1454 2234 2535
3 755 2320 2513
3 2234 1653 2535
3 2264 552 2533
3 1419 2297 2517
3 1392 2322 2510
3 552 2397 2533
3 1798 2364 2497
3 2322 1392 2525
3 2382 1631 2459
3 1016 2438 2478
3 1366 2370 2537
3 1742 2491 2530
3 2491 257 2530
CELL_TYPES 4886
5
5
5
5
5
5
5
5
5
5
5
5
5
5
5
5
5
5
5
5
5
5
5
5
5
5
5
5
5
5
5
5
5
5
5
5
5
5
5
5
5
5
5
5
5
5
5
5
5
5
5
5
5
5
5
5
5
5
5
5
5
5
5
5
5
5
5
5
5
5
5
5
5
5
5
5
5
5
5
5
5
5
5
5
5
5
5
5
5
5
5
5
5
5
5
5
5
5
5
5
5
5
5
5
5
5
5
5
5
5
5
5
5
5
5
5
5
5
5
5
5
5
5
5
5
5
5
5
5
5
5
5
5
5
5
5
5
5
5
5
5
5
5
5
5
5
5
5
5
5
5
5
5
5
5
5
5
5
5
5
5
5
5
5
5
5
5
5
5
5
5
5
5
5
5
5
5
5
5
5
5
5
5
5
5
5
5
5
5
5
5
5
5
5
5
5
5
5
5
5
5
5
5
5
5
5
5
5
5
5
5
5
5
5
5
5
5
5
5
5
5
5
5
5
5
5
5
5
5
5
5
5
5
5
5
5
5
5
5
5
5
5
5
5
5
5
5
5
5
5
5
5
5
5
5
5
5
5
5
5
5
5
5
5
5
5
5
5
5
5
5
5
5
5
5
5
5
5
5
5
5
5
5
5
5
5
5
5
5
5
5
5
5
5
5
5
5
5
5
5
5
5
5
5
5
5
5
5
5
5
5
5
5
5
5
5
5
5
5
5
5
5
5
5
5
5
5
5
5
5
5
5
5
5
5
5
5
5
5
5
5
5
5
5
5
5
5
5
5
5
5
5
5
5
5
5
5
5
5
5
5
5
5
5
5
5
5
5
5
5
5
5
5
5
5
5
5
5
5
5
5
5
5
5
5
5
5
5
5
5
5
5
5
5
5
5
5
5
5
5
5
5
5
5
5
5
5
5
5
5
5
5
5
5
5
5
5
5
5
5
5
5
5
5
5
5
5
5
5
5
5
5
5
5
5
5
5
5
5
5
5
5
5
5
5
5
5
5
5
5
5
5
5
5
5
5
5
5
5
5
5
5
5
5
5
5
5
5
5
5
5
5
5
5
5
5
5
5
5
5
5
5
5
5
5
5
5
5
5
5
5
5
5
5
5
5
5
5
5
5
5
5
5
5
5
5
5
5
5
5
5
5
5
5
5
5
5
5
5
5
5
5
5
5
5
5
5
5
5
5
5
5
5
5
5
5
5
5
5
5
5
5
5
5
5
5
5
5
5
5
5
5
5
5
5
5
5
5
5
5
5
5
5
5
5
5
5
5
5
5
5
5
5
5
5
5
5
5
5
5
5
5
5
5
5
5
5
5
5
5
5
5
5
5
5
5
5
5
5
5
5
5
5
5
5
5
5
5
5
5
5
5
5
5
5
5
5
5
5
5
5
5
5
5
5
5
5
5
5
5
5
5
5
5
5
5
5
5
5
5
5
5
5
5
5
5
5
5
5
5
5
5
5
5
5
5
5
5
5
5
5
5
5
5
5
5
5
5
5
5
5
5
5
5
5
5
5
5
5
5
5
5
5
5
5
5
5
5
5
5
5
5
5
5
5
5
5
5
5
5
5
5
5
5
5
5
5
5
5
5
5
5
5
5
5
5
5
5
5
5
5
5
5
5
5
5
5
5
5
5
5
5
5
5
5
5
5
5
5
5
5
5
5
5
5
5
5
5
5
5
5
5
5
5
5
5
5
5
5
5
5
5
5
5
5
5
5
5
5
5
5
5
5
5
5
5
5
5
5
5
5
5
5
5
5
5
5
5
5
5
5
5
5
5
5
5
5
5
5
5
5
5
5
5
5
5
5
5
5
5
5
5
5
5
5
5
5
5
5
5
5
5
5
5
5
5
5
5
5
5
5
5
5
5
5
5
5
5
5
5
5
5
5
5
5
5
5
5
5
5
5
5
5
5
5
5
5
5
5
5
5
5
5
5
5
5
5
5
5
5
5
5
5
5
5
5
5
5
5
5
5
5
5
5
5
5
5
5
5
5
5
5
5
5
5
5
5
5
5
5
5
5
5
5
5
5
5
5
5
5
5
5
5
5
5
5
5
5
5
5
5
5
5
5
5
5
5
5
5
5
5
5
5
5
5
5
5
5
5
5
5
5
5
5
5
5
5
5
5
5
5
5
5
5
5
5
5
5
5
5
5
5
5
5
5
5
5
5
5
5
5
5
5
5
5
5
5
5
5
5
5
5
5
5
5
5
5
5
5
5
5
5
5
5
5
5
5
5
5
5
5
5
5
5
5
5
5
5
5
5
5
5
5
5
5
5
5
5
5
5
5
5
5
5
5
5
5
5
5
5
5
5
5
5
5
5
5
5
5
5
5
5
5
5
5
5
5
5
5
5
5
5
5
5
5
5
5
5
5
5
5
5
5
5
5
5
5
5
5
5
5
5
5
5
5
5
5
5
5
5
5
5
5
5
5
5
5
5
5
5
5
5
5
5
5
5
5
5
5
5
5
5
5
5
5
5
5
5
5
5
5
5
5
5
5
5
5
5
5
5
5
5
5
5
5
5
5
5
5
5
5
5
5
5
5
5
5
5
5
5
5
5
5
5
5
5
5
5
5
5
5
5
5
5
5
5
5
5
5
5
5
5
5
5
5
5
5
5
5
5
5
5
5
5
5
5
5
5
5
5
5
5
5
5
5
5
5
5
5
5
5
5
5
5
5
5
5
5
5
5
5
5
5
5
5
5
5
5
5
5
5
5
5
5
5
5
5
5
5
5
5
5
5
5
5
5
5
5
5
5
5
5
5
5
5
5
5
5
5
5
5
5
5
5
5
5
5
5
5
5
5
5
5
5
5
5
5
5
5
5
5
5
5
5
5
5
5
5
5
5
5
5
5
5
5
5
5
5
5
5
5
5
5
5
5
5
5
5
5
5
5
5
5
5
5
5
5
5
5
5
5
5
5
5
5
5
5
5
5
5
5
5
5
5
5
5
5
5
5
5
5
5
5
5
5
5
5
5
5
5
5
5
5
5
5
5
5
5
5
5
5
5
5
5
5
5
5
5
5
5
5
5
5
5
5
5
5
5
5
5
5
5
5
5
5
5
5
5
5
5
5
5
5
5
5
5
5
5
5
5
5
5
5
5
5
5
5
5
5
5
5
5
5
5
5
5
5
5
5
5
5
5
5
5
5
5
5
5
5
5
5
5
5
5
5
5
5
5
5
5
5
5
5
5
5
5
5
5
5
5
5
5
5
5
5
5
5
5
5
5
5
5
5
5
5
5
5
5
5
5
5
5
5
5
5
5
5
5
5
5
5
5
5
5
5
5
5
5
5
5
5
5
5
5
5
5
5
5
5
5
5
5
5
5
5
5
5
5
5
5
5
5
5
5
5
5
5
5
5
5
5
5
5
5
5
5
5
5
5
5
5
5
5
5
5
5
5
5
5
5
5
5
5
5
5
5
5
5
5
5
5
5
5
5
5
5
5
5
5
5
5
5
5
5
5
5
5
5
5
5
5
5
5
5
5
5
5
5
5
5
5
5
5
5
5
5
5
5
5
5
5
5
5
5
5
5
5
5
5
5
5
5
5
5
5
5
5
5
5
5
5
5
5
5
5
5
5
5
5
5
5
5
5
5
5
5
5
5
5
5
5
5
5
5
5
5
5
5
5
5
5
5
5
5
5
5
5
5
5
5
5
5
5
5
5
5
5
5
5
5
5
5
5
5
5
5
5
5
5
5
5
5
5
5
5
5
5
5
5
5
5
5
5
5
5
5
5
5
5
5
5
5
5
5
5
5
5
5
5
5
5
5
5
5
5
5
5
5
5
5
5
5
5
5
5
5
5
5
5
5
5
5
5
5
5
5
5
5
5
5
5
5
5
5
5
5
5
5
5
5
5
5
5
5
5
5
5
5
5
5
5
5
5
5
5
5
5
5
5
5
5
5
5
5
5
5
5
5
5
5
5
5
5
5
5
5
5
5
5
5
5
5
5
5
5
5
5
5
5
5
5
5
5
5
5
5
5
5
5
5
5
5
5
5
5
5
5
5
5
5
5
5
5
5
5
5
5
5
5
5
5
5
5
5
5
5
5
5
5
5
5
5
5
5
5
5
5
5
5
5
5
5
5
5
5
5
5
5
5
5
5
5
5
5
5
5
5
5
5
5
5
5
5
5
5
5
5
5
5
5
5
5
5
5
5
5
5
5
5
5
5
5
5
5
5
5
5
5
5
5
5
5
5
5
5
5
5
5
5
5
5
5
5
5
5
5
5
5
5
5
5
5
5
5
5
5
5
5
5
5
5
5
5
5
5
5
5
5
5
5
5
5
5
5
5
5
5
5
5
5
5
5
5
5
5
5
5
5
5
5
5
5
5
5
5
5
5
5
5
5
5
5
5
5
5
5
5
5
5
5
5
5
5
5
5
5
5
5
5
5
5
5
5
5
5
5
5
5
5
5
5
5
5
5
5
5
5
5
5
5
5
5
5
5
5
5
5
5
5
5
5
5
5
5
5
5
5
5
5
5
5
5
5
5
5
5
5
5
5
5
5
5
5
5
5
5
5
5
5
5
5
5
5
5
5
5
5
5
5
5
5
5
5
5
5
5
5
5
5
5
5
5
5
5
5
5
5
5
5
5
5
5
5
5
5
5
5
5
5
5
5
5
5
5
5
5
5
5
5
5
5
5
5
5
5
5
5
5
5
5
5
5
5
5
5
5
5
5
5
5
5
5
5
5
5
5
5
5
5
5
5
5
5
5
5
5
5
5
5
5
5
5
5
5
5
5
5
5
5
5
5
5
5
5
5
5
5
5
5
5
5
5
5
5
5
5
5
5
5
5
5
5
5
5
5
5
5
5
5
5
5
5
5
5
5
5
5
5
5
5
5
5
5
5
5
5
5
5
5
5
5
5
5
5
5
5
5
5
5
5
5
5
5
5
5
5
5
5
5
5
5
5
5
5
5
5
5
5
5
5
5
5
5
5
5
5
5
5
5
5
5
5
5
5
5
5
5
5
5
5
5
5
5
5
5
5
5
5
5
5
5
5
5
5
5
5
5
5
5
5
5
5
5
5
5
5
5
5
5
5
5
5
5
5
5
5
5
5
5
5
5
5
5
5
5
5
5
5
5
5
5
5
5
5
5
5
5
5
5
5
5
5
5
5
5
5
5
5
5
5
5
5
5
5
5
5
5
5
5
5
5
5
5
5
5
5
5
5
5
5
5
5
5
5
5
5
5
5
5
5
5
5
5
5
5
5
5
5
5
5
5
5
5
5
5
5
5
5
5
5
5
5
5
5
5
5
5
5
5
5
5
5
5
5
5
5
5
5
5
5
5
5
5
5
5
5
5
5
5
5
5
5
5
5
5
5
5
5
5
5
5
5
5
5
5
5
5
5
5
5
5
5
5
5
5
5
5
5
5
5
5
5
5
5
5
5
5
5
5
5
5
5
5
5
5
5
5
5
5
5
5
5
5
5
5
5
5
5
5
5
5
5
5
5
5
5
5
5
5
5
5
5
5
5
5
5
5
5
5
5
5
5
5
5
5
5
5
5
5
5
5
5
5
5
5
5
5
5
5
5
5
5
5
5
5
5
5
5
5
5
5
5
5
5
5
5
5
5
5
5
5
5
5
5
5
5
5
5
5
5
5
5
5
5
5
5
5
5
5
5
5
5
5
5
5
5
5
5
5
5
5
5
5
5
5
5
5
5
5
5
5
5
5
5
5
5
5
5
5
5
5
5
5
5
5
5
5
5
5
5
5
5
5
5
5
5
5
5
5
5
5
5
5
5
5
5
5
5
5
5
5
5
5
5
5
5
5
5
5
5
5
5
5
5
5
5
5
5
5
5
5
5
5
5
5
5
5
5
5
5
5
5
5
5
5
5
5
5
5
5
5
5
5
5
5
5
5
5
5
5
5
5
5
5
5
5
5
5
5
5
5
5
5
5
5
5
5
5
5
5
5
5
5
5
5
5
5
5
5
5
5
5
5
5
5
5
5
5
5
5
5
5
5
5
5
5
5
5
5
5
5
5
5
5
5
5
5
5
5
5
5
5
5
5
5
5
5
5
5
5
5
5
5
5
5
5
5
5
5
5
5
5
5
5
5
5
5
5
5
5
5
5
5
5
5
5
5
5
5
5
5
5
5
5
5
5
5
5
5
5
5
5
5
5
5
5
5
5
5
5
5
5
5
5
5
5
5
5
5
5
5
5
5
5
5
5
5
5
5
5
5
5
5
5
5
5
5
5
5
5
5
5
5
5
5
5
5
5
5
5
5
5
5
5
5
5
5
5
5
5
5
5
5
5
5
5
5
5
5
5
5
5
5
5
5
5
5
5
5
5
5
5
5
5
5
5
5
5
5
5
5
5
5
5
5
5
5
5
5
5
5
5
5
5
5
5
5
5
5
5
5
5
5
5
5
5
5
5
5
5
5
5
5
5
5
5
5
5
5
5
5
5
5
5
5
5
5
5
5
5
5
5
5
5
5
5
5
5
5
5
5
5
5
5
5
5
5
5
5
5
5
5
5
5
5
5
5
5
5
5
5
5
5
5
5
5
5
5
5
5
5
5
5
5
5
5
5
5
5
5
5
5
5
5
5
5
5
5
5
5
5
5
5
5
5
5
5
5
5
5
5
5
5
5
5
5
5
5
5
5
5
5
5
5
5
5
5
5
5
5
5
5
5
5
5
5
5
5
5
5
5
5
5
5
5
5
5
5
5
5
5
5
5
5
5
5
5
5
5
5
5
5
5
5
5
5
5
5
5
5
5
5
5
5
5
5
5
5
5
5
5
5
5
5
5
5
5
5
5
5
5
5
5
5
5
5
5
5
5
5
5
5
5
5
5
5
5
5
5
5
5
5
5
5
5
5
5
5
5
5
5
5
5
5
5
5
5
5
5
5
5
5
5
5
5
5
5
5
5
5
5
5
5
5
5
5
5
5
5
5
5
5
5
5
5
5
5
5
5
5
5
5
5
5
5
5
5
5
5
5
5
5
5
5
5
5
5
5
5
5
5
5
5
5
5
5
5
5
5
5
5
5
5
5
5
5
5
5
5
5
5
5
5
5
5
5
5
5
5
5
5
5
5
5
5
5
5
5
5
5
5
5
5
5
5
5
5
5
5
5
5
5
5
5
5
5
5
5
5
5
5
5
5
5
5
5
5
5
5
5
5
5
5
5
5
5
5
5
5
5
5
5
5
5
5
5
5
5
5
5
5
5
5
5
5
5
5
5
5
5
5
5
5
5
5
5
5
5
5
5
5
5
5
5
5
5
5
5
5
5
5
5
5
5
5
5
5
5
5
5
5
5
5
5
5
5
5
5
5
5
5
5
5
5
5
5
5
5
5
5
5
5
5
5
5
5
5
5
5
5
5
5
5
5
5
5
5
5
5
5
5
5
5
5
5
5
5
5
5
5
5
5
5
5
5
5
5
5
5
5
5
5
5
5
5
5
5
5
5
5
5
5
5
5
5
5
5
5
5
5
5
5
5
5
5
5
5
5
5
5
5
5
5
5
5
5
5
5
5
5
5
5
5
5
5
5
5
5
5
5
5
5
5
5
5
5
5
5
5
5
5
5
5
5
5
5
5
5
5
5
5
5
5
5
5
5
5
5
5
5
5
5
5
5
5
5
5
5
5
5
5
5
5
5
5
5
5
5
5
5
5
5
5
5
5
5
5
5
5
5
5
5
5
5
5
5
5
5
5
5
5
5
5
5
5
5
5
5
5
5
5
5
5
5
5
5
5
5
5
5
5
5
5
5
5
5
5
5
5
5
5
5
5
5
5
5
5
5
5
5
5
5
5
5
5
5
5
5
5
5
5
5
5
5
5
5
5
5
5
5
5
5
5
5
5
5
5
5
5
5
5
5
5
5
5
5
5
5
5
5
5
5
5
5
5
5
5
5
5
5
5
5
5
5
5
5
5
5
5
5
5
5
5
5
5
5
5
5
5
5
5
5
5
5
5
5
5
5
5
5
5
5
5
5
5
5
5
5
5
5
5
5
5
5
5
5
5
5
5
5
5
5
5
5
5
5
5
5
5
5
5
5
5
5
5
5
5
5
5
5
5
5
5
5
5
5
5
5
5
5
5
5
5
5
5
5
5
5
5
5
5
5
5
5
5
5
5
5
5
5
5
5
5
5
5
5
5
5
5
5
5
5
5
5
5
5
5
5
5
5
5
5
5
5
5
5
5
5
5
5
5
5
5
5
5
5
5
5
5
5
5
5
5
5
5
5
5
5
5
5
5
5
5
5
5
5
5
5
5
5
5
5
5
5
5
5
5
5
5
5
5
5
5
5
5
5
5
5
5
5
5
5
5
5
5
5
5
5
5
5
5
5
5
5
5
5
5
5
5
5
5
5
5
5
5
5
5
5
5
5
5
5
5
5
5
5
5
5
5
5
5
5
5
5
5
5
5
5
5
5
5
5
5
5
5
5
5
5
5
5
5
5
5
5
5
5
5
5
5
5
5
5
5
5
5
5
5
5
5
5
5
5
5
5
5
5
5
5
5
5
5
5
5
5
5
5
5
5
5
5
5
5
5
5
5
5
5
5
5
5
5
5
5
5
5
5
5
5
5
5
5
5
5
5
5
5
5
5
5
5
5
5
5
5
5
5
5
5
5
5
5
5
5
5
5
5
5
5
5
5
5
5
5
5
5
5
5
5
5
5
5
5
5
5
5
5
5
5
5
5
5
5
5
5
5
5
5
5
5
5
5
5
5
5
5
5
5
5
5
5
5
5
5
5
5
5
5
5
5
5
5
5
5
5
5
5
5
5
5
5
5
5
5
5
5
5
5
5
5
5
5
5
5
5
5
5
5
5
5
5
5
5
5
5
5
5
5
5
5
5
5
5
5
5
5
5
5
5
5
5
5
5
5
5
5
5
5
5
5
5
5
5
5
5
5
5
5
5
5
5
5
5
5
5
5
5
5
5
5
5
5
5
5
5
5
5
5
5
5
5
5
5
5
5
5
5
5
5
5
5
5
5
5
5
5
5
5
5
5
5
5
5
5
5
5
5
5
5
5
5
5
5
5
5
5
5
5
5
5
5
5
5
5
5
5
5
5
5
5
5
5
5
5
5
5
5
5
5
5
5
5
5
5
5
5
5
5
5
5
5
5
5
5
5
5
5
5
5
5
5
5
5
5
5
5
5
5
5
5
5
5
5
5
5
5
5
5
5
5
5
5
5
5
5
5
5
5
5
5
5
5
5
5
5
5
5
5
5
5
5
5
5
5
5
5
5
5
5
5
5
5
5
5
5
5
5
5
5
5
5
5
5
5
5
5
5
5
5
5
5
5
5
5
5
5
5
5
5
5
5
5
5
5
5
5
5
5
5
5
5
5
5
5
5
5
5
5
5
5
5
5
5
5
5
5
5
5
5
5
5
5
5
5
5
5
5
5
5
5
5
5
5
5
5
5
5
5
5
5
5
5
5
5
5
5
5
5
5
5
5
5
5
5
5
5
5
5
5
5
5
5
5
5
5
5
5
5
5
5
5
5
5
5
5
5
5
5
5
5
5
5
5
5
5
5
5
5
5
5
5
5
5
5
5
5
5
5
5
5
5
5
5
5
5
5
5
5
5
5
5
5
5
5
5
5
5
5
5
5
5
5
5
5
5
5
5
5
5
5
5
5
5
5
5
5
5
5
5
5
5
5
5
5
5
5
5
5
5
5
5
5
5
5
5
5
5
5
5
5
5
5
5
5
5
5
5
5
5
5
5
5
5
5
5
5
5
5
5
5
5
5
5
5
5
5
5
5
5
5
5
5
5
5
5
5
5
5
5
5
5
5
5
5
5
5
5
5
5
5
5
5
5
5
5
5
5
5
5
5
5
5
5
5
5
5
5
5
5
5
5
5
5
5
5
5
5
5
5
5
5
5
5
5
5
5
5
5
5
5
5
5
5
5
5
5
5
5
5
5
5
5
5
5
5
5
5
5
5
5
5
5
5
5
5
5
5
5
5
5
5
5
5
5
5
5
5
5
5
5
5
5
5
5
5
5
5
5
5
5
5
5
5
5
5
5
5
5
5
5
5
5
5
5
5
5
5
5
5
5
5
5
5
5
5
5
5
5
5
5
5
5
5
5
5
5
5
5
5
5
5
5
5
5
5
5
5
5
5
5
5
5
5
5
5
5
5
5
5
5
5
5
5
5
5
5
5
5
5
5
5
5
5
5
5
5
5
5
5
5
5
5
5
5
5
5
5
5
5
5
5
5
5
5
5
5
5
5
5
5
5
5
5
5
5
5
5
5
5
5
5
5
5
5
5
5
5
5
5
5
5
5
5
5
5
5
5
5
5
5
5
5
5
5
5
5
5
5
5
5
5
5
5
5
5
5
5
5
5
5
5
5
5
5
5
5
5
5
5
5
5
5
5
5
5
5
5
5
5
5
5
5
5
5
5
5
5
5
5
5
5
5
5
5
5
5
5
5
5
5
5
5
5
5
5
5
5
5
5
5
5
5
5
5
5
5
5
5
5
5
5
5
5
5
5
5
5
5
5
5
5
5
5
5
5
5
5
5
5
5
5
5
5
5
5
5
5
5
5
5
5
5
5
5
5
5
5
5
5
5
5
5
5
5
5
5
5
5
5
5
5
5
5
5
5
5
5
5
5
5
5
5
5
5
5
5
5
5
5
5
5
5
5
5
5
5
5
5
5
5
5
5
5
5
5
5
5
5
5
5
5
5
5
5
5
5
5
5
5
5
5
5
5
5
5
5
5
5
5
5
5
5
5
5
5
5
5
5
5
5
5
5
5
5
5
5
5
5
5
5
5
5
5
5
5
5
5
5
5
5
5
5
5
5
5
5
5
5
5
5
5
5
5
5
5
5
5
5
5
5
5
5
5
5
5
5
5
5
5
5
5
5
5
5
5
5
5
5
5
5
5
5
5
5
5
5
5
5
5
5
5
5
5
5
5
5
5
5
5
5
5
5
5
5
5
5
5
5
5
5
5
5
5
5
5
5
5
5
5
5
5
5
5
5
5
5
5
POINT_DATA 2538
VECTORS disp float
2.066486132568716e-11 5.484896532993319e-11 0.0
4.46255332834686e-11 -1.2217081040743134e-10 0.0
0.004999999981586812 5.0460270826082214e-11 0.0
0.004999999954944516 -1.2458760754082209e-10 0.0
0.0015568111249630464 0.0006578561956481979 0.0
0.0035985269282200177 0.00046975516522934104 0.0
0.002466329011517323 0.00016611001757290835 0.0
6.160989953431843e-12 6.87941060368048e-12 0.0
1.0911406265515018e-11 1.388209769620571e-11 0.0
1.0273571146395634e-11 8.955491150978347e-12 0.0
1.0301800755692542e-11 8.376804211406846e-12 0.0
9.897069228258226e-12 6.458944305337186e-12 0.0
9.417332076507847e-12 4.854380300881001e-12 0.0
8.976713695308226e-12 3.0471825423213153e-12 0.0
8.613919076484595e-12 1.1083211076203185e-12 0.0
7.692232748297384e-12 -1.0430921305621785e-12 0.0
8.03534554972715e-12 -2.9423465977280094e-12 0.0
7.648928797394237e-12 -5.0744390072518255e-12 0.0
7.541754128955173e-12 -7.327846897599376e-12 0.0
7.635637771430415e-12 -9.559343274691381e-12 0.0
7.467572945469056e-12 -1.1707587803737201e-11 0.0
7.758645681769089e-12 -1.4260943253954711e-11 0.0
7.681643366701713e-12 -1.6479062544977005e-11 0.0
8.027057125734503e-12 -1.9016391004825752e-11 0.0
8.072820895192324e-12 -2.1935422413354503e-11 0.0
8.346033643834406e-12 -2.464996049190846e-11 0.0
8.620201776191894e-12 -2.784426319037789e-11 0.0
8.996899183320197e-12 -3.1377629027828663e-11 0.0
9.768120601658715e-12 -3.552925842016899e-11 0.0
9.71222166055599e-12 -3.992021933028226e-11 0.0
1.3040268610950573e-11 -4.955395611182423e-11 0.0
5.382715134065277e-12 -4.566853017629943e-11 0.0
6.109240411441182e-5 -8.430716298748666e-5 0.0
0.00010515873269131207 -0.0001461342327815181 0.0
0.0001478789938599418 -0.00020027935762522746 0.0
0.00018884919401172226 -0.0002496734444307362 0.0
0.00022863341922768453 -0.00029570319596323107 0.0
0.0002680735396279093 -0.00033943516779536036 0.0
0.000307813101387786 -0.0003810636197186365 0.0
0.000347471376389813 -0.0004208915673649653 0.0
0.0003873888808834988 -0.0004592469189217306 0.0
0.00042764919416020056 -0.0004961448704532478 0.0
0.00046828081815860717 -0.0005318747691433916 0.0
0.0005095644531669735 -0.0005664660219210353 0.0
0.0005511838105761126 -0.000599910303366787 0.0
0.0005933576042216068 -0.0006324437537191695 0.0
0.000636319299346979 -0.0006640386271619973 0.0
0.0006795989357481372 -0.0006946359494953648 0.0
0.000723492035734545 -0.0007244037567434576 0.0
0.0007679756515497064 -0.0007532180067393557 0.0
0.0008130227149735584 -0.0007812264464656411 0.0
0.0008586536524853073 -0.000808431024316504 0.0
0.0009049219987002364 -0.000834836094562674 0.0
0.0009517083696212537 -0.0008604128578044546 0.0
0.0009992816689253612 -0.0008852998866959684 0.0
0.0010472133523599444 -0.0009093248894968803 0.0
0.0010959808053504511 -0.0009326356012089844 0.0
0.0011450663981100587 -0.0009550972472298574 0.0
0.0011948005432583233 -0.0009768502799847093 0.0
0.001245012318659475 -0.0009977371592564737 0.0
0.0012959569225134738 -0.0010179531608898128 0.0
0.0013471910983553989 -0.0010373410946187334 0.0
0.001399139191865732 -0.001056017503246884 0.0
0.0014515189429520406 -0.0010738414197964325 0.0
0.0015044426985941235 -0.0010909080965168438 0.0
0.0015577514357878115 -0.001107150550940024 0.0
0.001611724064989964 -0.0011226619941237337 0.0
0.0016659328115284533 -0.0011372936804600609 0.0
0.0017206411855463343 -0.0011511361831889973 0.0
0.0017757150468125519 -0.0011641006348971283 0.0
0.001831205679010436 -0.001176223400616375 0.0
0.001887022716886721 -0.0011875626948369227 0.0
0.0019431332408984274 -0.001197972703465723 0.0
0.0019995947659635516 -0.0012076052238381965 0.0
0.0020563419083608737 -0.0012163203213727076 0.0
0.0021132608893303885 -0.0012242301948604418 0.0
0.0021704423624653965 -0.0012311585356217416 0.0
0.0022276416570387154 -0.0012372641136748229 0.0
0.002285054415912575 -0.0012424988318321007 0.0
0.002342498430972433 -0.001246760112043181 0.0
0.002399954918984938 -0.001250201380722346 0.0
0.0024575480256526345 -0.0012526618233161602 0.0
0.002514574657846413 -0.0012539864550042627 0.0
0.002572109506720823 -0.0012545702370068614 0.0
0.002627890581115822 -0.0012537152339447436 0.0
0.002684645821184276 -0.0012519044548752562 0.0
0.0027390062271944347 -0.0012486570065650467 0.0
0.002795107152836746 -0.0012441903267537914 0.0
0.0028499544444303645 -0.0012382099342132247 0.0
0.00290523768075704 -0.0012303546828711493 0.0
0.0029608782367307376 -0.0012213087263064455 0.0
0.003016995930120903 -0.001210715935268057 0.0
0.0030731013391187595 -0.0011992111501313578 0.0
0.0031293151200444155 -0.001186561725457033 0.0
0.003185426433583028 -0.0011731008075933714 0.0
0.0032413694862354746 -0.0011585777689800043 0.0
0.003297150909588382 -0.0011431512302998803 0.0
0.0033526493544891183 -0.0011271196732459679 0.0
0.00340760488863904 -0.0011101813632427256 0.0
0.0034621479440811644 -0.001092560386490384 0.0
0.0035163756653226732 -0.0010741014768525258 0.0
0.003570208263435426 -0.0010547993118192093 0.0
0.003623407804024063 -0.0010348422850346086 0.0
0.0036764135223876318 -0.0010140384978823418 0.0
0.0037286763869024448 -0.0009924663144047306 0.0
0.0037804423807518517 -0.0009702340659804847 0.0
0.003831877996074033 -0.0009470963249336502 0.0
0.0038825370027331467 -0.0009233192886172572 0.0
0.003932809073050931 -0.000898776625975666 0.0
0.00398248429833927 -0.0008734632358038522 0.0
0.004031707195731244 -0.0008473916461330811 0.0
0.004080382804853063 -0.0008204424796902644 0.0
0.004128578342782527 -0.0007926652686745094 0.0
0.0041760202115738426 -0.0007641866570148217 0.0
0.004223056020162412 -0.0007348916882363652 0.0
0.004269632783185374 -0.0007047083756723178 0.0
0.004315580434623268 -0.0006736500209967398 0.0
0.0043610864464472265 -0.0006417486371984365 0.0
0.0044062609715817555 -0.0006087982641626239 0.0
0.004450804924011573 -0.0005748331610282298 0.0
0.004494834604607088 -0.0005399039949307769 0.0
0.004538704321847893 -0.0005038227157518637 0.0
0.004582366973078133 -0.0004664208291770712 0.0
0.004625572636773125 -0.00042761336301622697 0.0
0.004668426277483987 -0.00038732788954393854 0.0
0.0047113182138176415 -0.0003452908343463488 0.0
0.004754765954107555 -0.0003010585112563403 0.0
0.004798179362040768 -0.0002543432847374824 0.0
0.004842096038649035 -0.00020411450181229265 0.0
0.004888718421677879 -0.0001488840461836509 0.0
0.004936641511400087 -8.581675721336358e-5 0.0
0.004999999994084434 -4.362147507539187e-11 0.0
0.004999999986299307 -4.830013643752183e-11 0.0
0.004999999989982099 -3.604619077326463e-11 0.0
0.004999999989852337 -3.2466415310243036e-11 0.0
0.004999999990415858 -2.8211484220900052e-11 0.0
0.004999999990870705 -2.476455244840135e-11 0.0
0.004999999991021449 -2.195700948170782e-11 0.0
0.0049999999913331265 -1.9416756709315095e-11 0.0
0.004999999991390911 -1.700536365638275e-11 0.0
0.004999999991500573 -1.4647077871569297e-11 0.0
0.0049999999918858085 -1.2738733538491422e-11 0.0
0.0049999999916834036 -1.0219164712848536e-11 0.0
0.004999999991843601 -8.344888242402596e-12 0.0
0.004999999991874112 -6.176367309448563e-12 0.0
0.004999999991832892 -4.108729423619914e-12 0.0
0.004999999991715562 -1.9697997555401264e-12 0.0
0.004999999991674766 8.774516193394839e-14 0.0
0.00499999999090604 2.349361881463043e-12 0.0
0.004999999991362688 4.124966237348528e-12 0.0
0.004999999990179751 6.324781901768033e-12 0.0
0.00499999999016217 7.74880756425818e-12 0.0
0.004999999989719804 9.28614529591049e-12 0.0
0.004999999990125655 9.78709141107352e-12 0.0
0.004999999989785201 1.3944965764630327e-11 0.0
0.004999999994449742 7.153455922565177e-12 0.0
0.004637066550686176 0.0002955727900231413 0.0
0.004314891455049836 0.0004310278297839141 0.0
0.004017100036257612 0.00048728909170451347 0.0
0.003764329195048175 0.0004889848937796552 0.0
0.0035894750245855957 0.00031577177146193433 0.0
0.003564432557109529 0.00023286116152911423 0.0
0.003515143183151624 0.0001919346363175516 0.0
0.0034549136774578116 0.00017282880910993536 0.0
0.0033826898268435285 0.00016881646309248655 0.0
0.0033024430223679057 0.00017086430963610203 0.0
0.003215750286881144 0.00017518701237136344 0.0
0.0031243389724145802 0.0001822470007739401 0.0
0.0030265977025969518 0.00018824745929490845 0.0
0.0029216226884016643 0.00019237154274711943 0.0
0.0028040629676677753 0.00019376152671730346 0.0
0.00266157941710773 0.00019339479975709128 0.0
0.0022749298633741684 0.0002101536825516039 0.0
0.0021405339720448374 0.0002215990763346406 0.0
0.0020297396520994487 0.00022408387497980774 0.0
0.0019331820943558754 0.00022483568301504824 0.0
0.001845707237408474 0.00022560964857705097 0.0
0.0017665960068155224 0.00022745796220705 0.0
0.001695739109159095 0.00023203319162567784 0.0
0.0016355121947920135 0.00024168288278860497 0.0
0.001588465898023521 0.00026301594237918176 0.0
0.0015564393932133856 0.0003020142553701814 0.0
0.0015435153196224098 0.0003690458346421744 0.0
0.0015456619247916988 0.0004837653578305505 0.0
0.00136073212215746 0.0006610742889481271 0.0
0.0010879690785141206 0.000615630119126078 0.0
0.0007537579373298923 0.0005115456215398915 0.0
0.00039692465886437343 0.00033685839531866544 0.0
0.0013072294689692478 -0.0009746598016572813 0.0
0.00361085423332815 -0.0009907931733339032 0.0
0.0016831049801004348 -0.0010975325680058225 0.0
0.003222152681913675 -0.0011187588581823354 0.0
0.002084074421041702 -0.0011763509264912677 0.0
0.002819522839843203 -0.0011881471326077012 0.0
0.0024279901880734176 -0.001204776778497851 0.0
0.003925116994268952 -0.0008621741292186994 0.0
0.001016910583597445 -0.0008561453848326599 0.0
0.00415735721382052 -0.0007355105582765325 0.0
0.000782662788577339 -0.0007295956679035425 0.0
8.080046900405272e-5 -1.626292477898656e-5 0.0
0.004918158691328358 -1.6058904110909282e-5 0.0
0.002695530144206459 0.00021313976539820163 0.0
0.0030908182563262774 0.00020861057039191626 0.0
0.0022396487671291643 0.0002210594639482813 0.0
0.0018678558029888606 0.00024563809405055625 0.0
0.004393944533654504 -0.0005869700435400983 0.0
0.0005719674645253937 -0.0005901544122340592 0.0
5.4513428443584496e-5 -2.966914697234866e-5 0.0
0.00494413331018375 -2.8039539465279025e-5 0.0
0.004881707380814583 3.5858198871558416e-6 0.0
0.00010948905745163799 4.312483079067152e-6 0.0
0.004572012954777401 -0.0004474737071206979 0.0
0.0003998628355929783 -0.0004451485216614096 0.0
0.0033604900021451793 0.00019782478533666853 0.0
0.0016341485626005607 0.00025239996282534457 0.0
4.010476603154987e-5 -3.260748243185586e-5 0.0
0.004956101768225072 -3.2043087697373965e-5 0.0
0.0019145626191310846 -0.0011475176131655548 0.0
0.0022541432974879237 -0.0011949157323646368 0.0
0.0030506121749527913 -0.0011555241577692389 0.0
0.0026051923795549345 -0.0012028169250229892 0.0
0.003390511918322901 -0.0010697265062321096 0.0
0.0037595997751761904 -0.0009372900493919324 0.0
0.001532854909332154 -0.0010552108451491419 0.0
0.0011622316169044543 -0.0009245090319464527 0.0
0.004696654805901746 -0.00033590200059565824 0.0
0.00027743057576672516 -0.0003294108082854256 0.0
0.004849251052878158 3.160217024560913e-5 0.0
0.00013600206084272005 2.7063261204606608e-5 0.0
0.004963307643062256 -3.540529960744455e-5 0.0
3.695339703163421e-5 -3.970345158260816e-5 0.0
0.0035170004199981822 0.0002073215332702559 0.0
0.0015123897658327196 0.00029142114273125074 0.0
0.004789573900083051 5.86292383816031e-5 0.0
0.00018697236331805398 5.274899225048708e-5 0.0
6.68699066215237e-5 -2.460443153330983e-5 0.0
0.004931226662045565 -2.3909303048187145e-5 0.0
0.0028928347470786792 0.0002183040433279902 0.0
0.0020496767985904657 0.00024604815472465476 0.0
0.00015313400933053632 -0.0001901900391946242 0.0
0.00483806120043242 -0.00019018231508443977 0.0
0.0034968019035637368 -0.0010386289075122004 0.0
0.0027132992075025552 -0.0012002901299099046 0.0
0.00180571619717749 -0.00112498286827973 0.0
0.0014172419155554922 -0.0010212657444656846 0.0
0.0029381347597938878 -0.0011729098979458847 0.0
0.004016350157789512 -0.0008164189372053647 0.0
0.0009226133078355254 -0.0008067667285426965 0.0
0.004256425351413411 -0.0006785650988465433 0.0
0.0006886692713600205 -0.0006684624533367907 0.0
0.00048080221683469826 -0.0005161902727123187 0.0
0.004483810384523978 -0.0005188419710905403 0.0
0.0009133467366315673 0.00036464011306373514 0.0
0.0041591349206721384 0.0003187107547307836 0.0
0.004964405617400627 -3.99270610764894e-5 0.0
3.236403142655682e-5 -4.004682990351186e-5 0.0
0.0014416162962012451 0.0004043548348452419 0.0
0.003634413230307109 0.00028199780257066897 0.0
0.00020956651863023956 8.623801349345514e-5 0.0
0.004784937641995085 8.347836789486693e-5 0.0
6.672362479755552e-5 -8.526557201269096e-5 0.0
0.004927266095397359 -8.779408080793269e-5 0.0
0.003888496166974067 0.0003676487482309726 0.0
0.003985744994269624 0.0002818409047189076 0.0
0.004289855161220775 0.00021968894260060285 0.0
0.00411873128112884 0.00022636951284081154 0.0
0.0038863178562268267 0.00025332918874696646 0.0
0.003972493615596867 0.00023294594209250785 0.0
0.004195001566730292 0.0001987103317123498 0.0
0.004056264834340758 0.00021209707966278856 0.0
0.004266401176364081 0.00017441471143600653 0.0
0.004137595815444583 0.00018695628280838446 0.0
0.003940623454394745 0.0002183700661377781 0.0
0.004014760323245844 0.00019257376625328936 0.0
0.0038447413641672984 0.00021722826270288768 0.0
0.0039043309283298424 0.0001899001378222592 0.0
0.0037489296445696436 0.0002106168598488948 0.0
0.003802495901462594 0.0001785255711133354 0.0
0.0026296524060651053 0.0001442701805580752 0.0
0.0024630897616090565 0.00011607306165508056 0.0
0.002594750637731945 0.0001031224294988288 0.0
0.002459779744025449 8.307752103175342e-5 0.0
0.0025742076687462843 7.20127082110015e-5 0.0
0.0024583594677154495 5.677723584787039e-5 0.0
0.0025608718280549117 4.585914347832019e-5 0.0
0.0024565192904124227 3.271784662388885e-5 0.0
0.002551114411200478 2.2346088431749664e-5 0.0
0.002454837620144577 1.0548230114333412e-5 0.0
0.002543692581418945 7.748573226258681e-7 0.0
0.0024535531057802307 -1.0105587742645789e-5 0.0
0.002537984251453803 -2.003291585492381e-5 0.0
0.002454835809173828 -3.00917350389082e-5 0.0
0.0025335323867942197 -3.992864659382185e-5 0.0
0.0024539102424412733 -4.9612426227797786e-5 0.0
0.002529510673313936 -5.926226155385783e-5 0.0
0.0024505041519942146 -6.868886429617752e-5 0.0
0.0025255864121938062 -7.827059868128531e-5 0.0
0.002449009917338741 -8.741409134045744e-5 0.0
0.0025223452616425154 -9.710955162922507e-5 0.0
0.0024478541615451286 -0.00010606656905904476 0.0
0.002517084354068681 -0.00011576667497459467 0.0
0.002446293802785027 -0.00012477964249847748 0.0
0.002514032026467506 -0.0001345570543612553 0.0
0.002446095040485872 -0.00014315551984484597 0.0
0.0025114544767809877 -0.00015344918326877892 0.0
0.0024413724412016384 -0.0001609239734384118 0.0
0.002508211423014525 -0.00017245544544906616 0.0
0.0024236966459678963 -0.000180162966309165 0.0
0.0025095615231142984 -0.0001920927771270598 0.0
0.0024384736209131447 -0.00020108740105231313 0.0
0.0025067203410429053 -0.00021182064527917058 0.0
0.002439644883618815 -0.00022137687581086008 0.0
0.0025050382074177178 -0.00023215361539403824 0.0
0.0024427007044566873 -0.00024190435632373333 0.0
0.0025031122093404335 -0.0002528502790257749 0.0
0.0024425558786518604 -0.00026319865053681595 0.0
0.002365873462433175 2.3011442557445847e-5 0.0
0.002501180171910846 -0.0002741684342068008 0.0
0.002373535996678338 -7.66383263140429e-5 0.0
0.0023606575355159215 -0.00019544082357187756 0.0
0.00243747859315471 -0.00028476760741744545 0.0
0.0024988080149447975 -0.00029609446994778213 0.0
0.0024325454802992144 -0.0003077538250293114 0.0
0.0023721052953572944 -0.00029429229708440794 0.0
0.0023656731710434103 -0.0003184508426624112 0.0
0.0024940146992191666 -0.00032000299916310355 0.0
0.0025610101651963573 -0.0003074870928511965 0.0
0.002571199168263713 -0.00020149379373599657 0.0
0.002556553666781057 -0.0003321133044359466 0.0
0.0026274831626670945 -0.000317219724388916 0.0
0.002620683914077585 -0.00034413902785509126 0.0
0.002305809964487927 -0.0003043295546599362 0.0
0.002301831956713129 -0.00032809788845179083 0.0
0.002693644998074221 -0.00032790449364276497 0.0
0.0022381301194183212 -0.00031317926290641145 0.0
0.00223810472512865 -0.0003382031981627208 0.0
0.0026880012322006686 -0.00035517722632804813 0.0
0.002758520083308998 -0.000340185521184115 0.0
0.002170016328649447 -0.000322247940337749 0.0
0.0021684347869090023 -0.0003481172582902389 0.0
0.002754362350218948 -0.0003673404039427686 0.0
0.002826665180246054 -0.0003514357910056341 0.0
0.002102200982127405 -0.0003313800086909894 0.0
0.0021000432102276307 -0.00035890557643812035 0.0
0.0028223236323876716 -0.00038005687944635345 0.0
0.0028963371900059686 -0.0003625624602732248 0.0
0.0020348587321457135 -0.0003391598574039516 0.0
0.0020281961117571638 -0.00036765553042938075 0.0
0.002892908008187298 -0.0003919847337469264 0.0
0.002967099068753834 -0.00037349151420666514 0.0
0.0019608115995781773 -0.00034704627677217625 0.0
0.001955909240753634 -0.00037732337002971693 0.0
0.0018847310753075566 -0.0003568946155201498 0.0
0.001889125208031043 -0.0003248314812526924 0.0
0.0028119768293565135 -0.00040837060074190806 0.0
0.002963344866586023 -0.0004041378959934089 0.0
0.0030387937852223127 -0.0003842941823506452 0.0
0.0030438020781276094 -0.00035290885176266716 0.0
0.0025867041757750187 -0.00010731075089200652 0.0
0.003118138723485056 -0.0003631746299040802 0.0
0.003123803186058277 -0.0003306805553570578 0.0
0.003200241565524324 -0.00033995579315296233 0.0
0.0018857258220993294 -0.00038975307635572476 0.0
0.0018113665909997689 -0.00036584254590710946 0.0
0.00195549613318963 -0.0004099783884801419 0.0
0.0030329107236090553 -0.0004166207173195384 0.0
0.0018131653776549807 -0.0003997220824564607 0.0
0.0017379901901633306 -0.00037396230747313466 0.0
0.0026176475195158156 -2.84006907609751e-5 0.0
0.0017393826854941149 -0.0004073033169151806 0.0
0.0016644141396999286 -0.0003811231986131785 0.0
0.0016659132853636912 -0.0004154451867390764 0.0
0.0015919825618768324 -0.0003867617205061333 0.0
0.001588831321194514 -0.0003533197713049301 0.0
0.0015122328221555807 -0.0003599552769600929 0.0
0.0015101156560166035 -0.00032463138369162733 0.0
0.001584598604438927 -0.0004209725464743244 0.0
0.001428033412667394 -0.0003317592035250272 0.0
0.0014252462001791476 -0.00029560069521041623 0.0
0.001667839546498569 -0.000451915094876736 0.0
0.0015985957971373515 -0.0004602538953270034 0.0
0.0013451947312929215 -0.00029990266037983025 0.0
0.0013397055070528605 -0.00026478622066914044 0.0
0.003208110491811402 -0.000307137058904431 0.0
0.0032873253387660866 -0.0003160355069217876 0.0
0.0016694039755546443 -0.0004889953861335461 0.0
0.0016008648482239364 -0.000497218848725706 0.0
0.0032961153056385514 -0.00028228416390038545 0.0
0.003378855101981253 -0.0002915452754335333 0.0
0.003366804379704279 -0.00032858891140682224 0.0
0.003458623359642705 -0.00030213777390174034 0.0
0.003448261968514669 -0.000340193524121836 0.0
0.0035399142873731326 -0.00031085987535390706 0.0
0.0035343847669161437 -0.00034881498812190865 0.0
0.0036287787296682026 -0.0003156710271080299 0.0
0.0036155138337196557 -0.0003544909865790638 0.0
0.0036343128992507657 -0.0002793386000682373 0.0
0.0037112358525247394 -0.00032205983840716875 0.0
0.0036932474916911515 -0.00036081660032487957 0.0
0.0016715653641882142 -0.0005268835395532744 0.0
0.0012555580028060555 -0.00026827573526940206 0.0
0.001248495587539796 -0.00023275845253492567 0.0
0.0036055466247372483 -0.00039453581046882704 0.0
0.0036806530098441935 -0.0004004473471574365 0.0
0.003766859720800602 -0.00036625772442150145 0.0
0.0035992822734703628 -0.00043579762014225805 0.0
0.0016044885493456422 -0.0005354251254545907 0.0
0.003754858948380471 -0.00040556393745383174 0.0
0.003838939724193235 -0.0003704334564138959 0.0
0.001673371940178431 -0.0005659523568675735 0.0
0.0016074250786040556 -0.000574826665171049 0.0
0.0015396653012477155 -0.0005430213658975218 0.0
0.003826604630847084 -0.00040943931406095714 0.0
0.003909364709220819 -0.0003729137738359979 0.0
0.0016747979940671966 -0.0006063089551596756 0.0
0.0017401095882601148 -0.0005968820276570429 0.0
0.0015432240082500679 -0.000582802547625987 0.0
0.0014761203943774249 -0.0005499066725342559 0.0
0.0038947907633000807 -0.00041222714336018953 0.0
0.00397925140221582 -0.0003742156965070006 0.0
0.0039929295878783 -0.00033604039097397625 0.0
0.0038117180897403067 -0.0004504560052538875 0.0
0.004062709888268841 -0.0003359352335702029 0.0
0.004078864145908394 -0.0002987012818501094 0.0
0.0011594932396785408 -0.00023615098065953138 0.0
0.0011572130641131504 -0.00019962984485382386 0.0
0.0012637851122261731 -0.00019821526346149433 0.0
0.0011515346294317895 -0.00016412866237964117 0.0
0.0012534728121060168 -0.0001576293126136419 0.0
0.0011447087682764246 -0.00012739007601611578 0.0
0.0012435472039587542 -0.0001191535270017255 0.0
0.001741326270270082 -0.000637644220147128 0.0
0.0018051009365004649 -0.0006274636203426959 0.0
0.0014799688011164862 -0.0005900479332614047 0.0
0.0014135292844246127 -0.0005559634697799625 0.0
0.004048173798337072 -0.00037423916027424543 0.0
0.0011484443243205372 -9.103531417804481e-5 0.0
0.0012416748174236432 -8.126852886289123e-5 0.0
0.0018063269618763995 -0.0006682714568233586 0.0
0.0018686528948466136 -0.0006578896433272666 0.0
0.002178591749147821 -0.00037321444045615925 0.0
0.004130545856039695 -0.00033462409988428753 0.0
0.0026648756945642665 6.452056528334804e-5 0.0
0.0027729106106402805 0.00018929814079199093 0.0
0.0023755937391064597 -0.0001329536824255217 0.0
0.00338404191992294 -0.00025700183697196903 0.0
0.0011384388625425934 -5.2692771512001295e-5 0.0
0.001247033415222995 -4.207178453941935e-5 0.0
0.0014178528530093125 -0.0005964234879429691 0.0
0.001352413802903482 -0.0005614143246728149 0.0
0.0018707465973509415 -0.000698881668782315 0.0
0.0019326058969727582 -0.0006880771970096097 0.0
0.0041144677912247655 -0.00037249247824055207 0.0
0.0010649160167709878 -0.00020314561232599035 0.0
0.0010698256180492068 -0.00024001696087575585 0.0
0.001030951644758338 -9.68865998390227e-5 0.0
0.004196100900562057 -0.00033169646694421016 0.0
0.001136273929905183 -1.601378281318486e-5 0.0
0.001245340109595201 -2.017559341927701e-6 0.0
0.0018092185661120015 -0.0007103736171785184 0.0
0.0013575066639640917 -0.0006024150380600195 0.0
0.0012924701472102184 -0.0005658822996244103 0.0
0.003301774123243702 -0.0002485063467675196 0.0
0.0033935479578776936 -0.00022226251608610203 0.0
0.0033065243143631856 -0.00021392831172289929 0.0
0.003403422163032687 -0.00018746043658601 0.0
0.0019338033251504406 -0.0007289351436093291 0.0
0.00199627601579841 -0.0007165845956289943 0.0
0.00210721581454151 -0.000306809484676755 0.0
0.001133800496892267 1.9817944252020422e-5 0.0
0.0012399824926254707 3.6844047100537393e-5 0.0
0.004180516623025842 -0.0003682853243298902 0.0
0.004107010932713811 -0.0004061957636855807 0.0
0.0011076773261562822 5.7806451341697396e-5 0.0
0.0012306785304197875 7.694673083918052e-5 0.0
0.00425909446835499 -0.0003275128917312709 0.0
0.004266782903263137 -0.00029964255519862755 0.0
0.0011186778056269274 9.457903890129262e-5 0.0
0.0014206178495745304 -0.0006415454522062956 0.0
0.0019963962735327183 -0.00075858243267699 0.0
0.002058470179348155 -0.0007445101917354075 0.0
0.0020591672078261007 -0.0007029419306443432 0.0
0.0021213221360919083 -0.0007298878146548984 0.0
0.002122539691959054 -0.0006888976665678927 0.0
0.0021850261149973143 -0.0007147432122852882 0.0
0.0021865151330028943 -0.0006738162873716483 0.0
0.0022499622223958824 -0.0006989200503418588 0.0
0.0022518817428705622 -0.0006583163218490978 0.0
0.0023158343271381904 -0.0006822824405481499 0.0
0.0023138648641230857 -0.0007239418192490797 0.0
0.00237942329577784 -0.0007062653526268002 0.0
0.002377118320574616 -0.0007485806879522158 0.0
0.002442359063476117 -0.0007298351675346353 0.0
0.002439325097079727 -0.0007728690307403345 0.0
0.002505062155360789 -0.0007529375819433101 0.0
0.0023183700885391644 -0.0006421414996922804 0.0
0.00250797102213658 -0.0007102109418423612 0.0
0.0025714386874935657 -0.0007320284738739174 0.0
0.0025676874554916144 -0.0007761811658637148 0.0
0.0026347993741779835 -0.0007542255752507994 0.0
0.0009735511601180957 -0.0002054808909552694 0.0
0.0009777701703812616 -0.00024214843459805974 0.0
0.001297905903059652 -0.0006070103839159977 0.0
0.0012342172572327092 -0.0005698111041915171 0.0
0.002639136731686489 -0.0007105685147943709 0.0
0.002702354186718992 -0.0007311931695168475 0.0
0.0026972054607375066 -0.0007757406191107706 0.0
0.0027658487454848557 -0.000751343783436935 0.0
0.0008841147311131929 -0.00020660428845749876 0.0
0.0008882022256662532 -0.00024245029716673651 0.0
0.0033119584313151254 -0.00017807949851350973 0.0
0.0034150596606153617 -0.0001518094058245721 0.0
0.003320683718142488 -0.00014226421927527482 0.0
0.004245404142692412 -0.00036138993991146495 0.0
0.0043206367890383434 -0.0003210848403229731 0.0
0.002058267688925946 -0.0007877911647498902 0.0
0.0013597861924814377 -7.758984679163413e-5 0.0
0.002618568274359037 -0.0003690687248480739 0.0
0.002759806861492354 -0.0007966520881244867 0.0
0.002828543990646559 -0.0007710165366331049 0.0
0.002833141992346658 -0.0007257964415118837 0.0
0.002896993148950077 -0.0007438188264514148 0.0
0.0027662854419507523 -0.00031152633828435995 0.0
0.0034322972661150358 -0.00011520326383765058 0.0
0.003519715634318545 -0.0001312272543234123 0.0
0.0012304647663097378 0.00011732665806135716 0.0
0.001239344157253343 -0.0006105807918230276 0.0
0.0011769426302579273 -0.0005725715788986184 0.0
0.0033321826369008822 -0.0001051832050199969 0.0
0.002890867538431711 -0.0007902250350807644 0.0
0.002960436185707622 -0.0007625520139248852 0.0
0.00296632773952714 -0.0007162592336498164 0.0
0.003031218407470692 -0.0007341293039804605 0.0
0.003038473230490038 -0.0006891128110766313 0.0
0.0031023427913061457 -0.0007047531515773082 0.0
0.00309387657516089 -0.0007502298210103976 0.0
0.0031643456191941598 -0.0007193116823939569 0.0
0.001112868807943733 0.00012885324956824732 0.0
0.0007974168197402262 -0.00020622960372288177 0.0
0.0008008724988236999 -0.00024059404808411908 0.0
0.0019979902984781184 -0.0008022939521926411 0.0
0.004304299593087087 -0.00035594234498097997 0.0
0.0043793654789908995 -0.00031323727044137476 0.0
0.003154448026128 -0.0007649346038798248 0.0
0.0032240925460842195 -0.0007327910736240427 0.0
0.001230658787978803 0.0001556657132238048 0.0
0.0011827799472011716 -0.000613425160513906 0.0
0.001120405579470204 -0.0005738994431466653 0.0
0.0013485047433872937 5.393119675392662e-5 0.0
0.003956542905505252 0.00015828753619746876 0.0
0.002058039336187245 -0.000832237793463365 0.0
0.0011083546223692512 0.0001599662124245922 0.0
0.001035619513421055 3.428986941274912e-6 0.0
0.0043566659877209086 -0.00035598937424065655 0.0
0.00443592210644527 -0.00030462239653718926 0.0
0.0044539196854187744 -0.00027058483661334613 0.0
0.0009985849154841044 0.00010347522014748699 0.0
0.0042771221430304655 -0.00039642539118775396 0.0
0.0007882505330142514 -0.0001725074716339857 0.0
0.0012397644228422666 -0.0006495990743889481 0.0
0.0034489655965306803 -7.754689249534173e-5 0.0
0.00334563013042561 -6.688662337276482e-5 0.0
0.0031112452151175157 -0.0006605560329885864 0.0
0.0011268657260402036 -0.0006156927670098097 0.0
0.0010646737651073077 -0.0005749608401712618 0.0
0.0007133179094957427 -0.00020408966566758368 0.0
0.0007160433656402658 -0.0002364037538213927 0.0
0.0013477201598809155 -0.0005227074459475438 0.0
0.0032128803744167446 -0.0007784524607227382 0.0
0.003281809393646414 -0.0007447543431340796 0.0
0.0010580358928550253 -0.0005340090300400813 0.0
0.0010021355334794088 -0.0005338753765912285 0.0
0.003147500366083984 -0.0008084595119998958 0.0
0.0019999145627162536 -0.0008471638133693767 0.0
0.0010098674329067528 -0.0005754364220631661 0.0
0.0009476118198410217 -0.0005331700860529016 0.0
0.002122423617092664 -0.0006498496215853734 0.0
0.004510470869545961 -0.0002598619143295057 0.0
0.004528899680262176 -0.00022899205283619678 0.0
0.004493207836371766 -0.0002922077551080387 0.0
0.003269006032304685 -0.000789805358890624 0.0
0.003337639176713559 -0.0007549949979679727 0.0
0.0030453542635400697 -0.0006453018394217891 0.0
0.003119597220290178 -0.000617691851280687 0.0
0.0020583696946832714 -0.0008776411974853603 0.0
0.003350811594164012 -0.0007105169467281113 0.0
0.003407022866032334 -0.0007203743828506698 0.0
0.0006306185098447138 -0.00019880215661687944 0.0
0.0006366115917789293 -0.00023016183773993685 0.0
0.0033932460607979044 -0.0007656261857693383 0.0
0.0034614371463215577 -0.0007299726437340291 0.0
0.0009571403095875692 -0.0005753826253604108 0.0
0.0008948535276509675 -0.00053183708931388 0.0
0.0034659174246566287 -3.8750634186695997e-5 0.0
0.0033616447501805245 -2.7422931735020005e-5 0.0
0.0008846379506349608 -0.0004915366381935766 0.0
0.000831749369172259 -0.0004885181744478482 0.0
0.0008416022788066146 -0.0005293796611098141 0.0
0.0007789068526987157 -0.00048481826368521985 0.0
0.0045648814757380035 -0.00024737634275233145 0.0
0.004547083720850091 -0.0002792259552327676 0.0
0.0012250434033725269 0.000187683609706138 0.0
0.0010925337124161698 0.0001855694198691162 0.0
0.0032257489949352727 -0.0001312623643592083 0.0
0.002001692169137794 -0.0008929516245103452 0.0
0.00344746552163113 -0.0007763598748705315 0.0
0.0035141269695123096 -0.0007392495305368173 0.0
0.0036494543605910764 0.00019855210398569926 0.0
0.0034209067410911104 -0.0006759323481075288 0.0
0.0023749733356436607 -0.000792219627126466 0.0
0.0007672645071815027 -0.00044593020202718885 0.0
0.0007160747743745797 -0.00044024503885116553 0.0
0.0007279383899634088 -0.00048054375127816825 0.0
0.0006650160337085732 -0.00043426245130455057 0.0
0.0006531342649269545 -0.0003961908622220748 0.0
0.0006006117481250809 -0.00038871675798262745 0.0
0.0005883356707870336 -0.00035140182670648223 0.0
0.0005351855262984958 -0.0003420534556170104 0.0
0.0005229630644786356 -0.0003069956197937893 0.0
0.00047291282506685883 -0.00029678876583695405 0.0
0.0004598495867431852 -0.0002643784368031284 0.0
0.00048415820248731456 -0.0003306990482713987 0.0
0.00041672443884475236 -0.00027818374370467726 0.0
0.0005538023548772576 -0.00019193086417440466 0.0
0.0005526095371021758 -0.00016400969785326772 0.0
0.00043395069961961973 -0.0003175663480259655 0.0
0.0003724234039559708 -0.0002691332051663179 0.0
0.0013477214434291563 0.00018055410038978303 0.0
0.0014935205024213434 -0.0002863787960597107 0.0
0.003052709629536512 -0.0006031269324382432 0.0
0.003126956477169745 -0.0005762854102842231 0.0
0.0008867695490591851 -0.0002764509829887826 0.0
0.0020585617130356687 -0.0009241903218452002 0.0
0.0021157185927767256 -0.0009081081895032118 0.0
0.0031942634268851814 -0.0005894947383899008 0.0
0.0032020994396202472 -0.0005483537573678946 0.0
0.004616988010471933 -0.00023303540633160663 0.0
0.0045960222103859985 -0.0002658115151529973 0.0
0.00452807008955848 -0.00031478806285472737 0.0
0.0032407300861290937 -5.5964067941188924e-5 0.0
0.0032558076434897444 -1.6351012384867515e-5 0.0
0.0019437245566945737 -0.0008614799701121827 0.0
0.0019457538069041695 -0.0009073820843551846 0.0
0.001888681503062003 -0.0008753639934746025 0.0
0.0006794949330409186 -0.0004756111135259636 0.0
0.003379090360526858 1.3269716046910334e-5 0.0
0.0032726465158431956 2.5581735070975437e-5 0.0
0.001346534020372877 -0.0003378336138950701 0.0
0.0034988385040207364 -0.0007863755880306898 0.0
0.0035655630422581335 -0.0007479905726018084 0.0
0.003581506996252781 -0.0007024911037885171 0.0
0.003632492530786951 -0.0007098645329581146 0.0
0.001249775770024324 0.00021736623906727228 0.0
0.0010917317637845283 0.00020832597225266735 0.0
0.0018654675484700602 -0.0006187094684557457 0.0
0.0034336755744446496 -0.0008243636187145608 0.0
0.004199687192326438 0.00015979051029364226 0.0
0.0036157351258021752 -0.0007574648576058693 0.0
0.0036830317009575544 -0.0007178754602101453 0.0
0.003699642978402501 -0.0006713396626050502 0.0
0.00375070320744675 -0.0006781070563960179 0.0
0.0037682205783925687 -0.0006320147286575992 0.0
0.0038185348390595017 -0.0006377271869958627 0.0
0.0038003456808272085 -0.0006852250001604313 0.0
0.0038672872262453775 -0.0006436689209460509 0.0
0.00038612646656980084 -0.00030112962550154983 0.0
0.0003263738609791806 -0.0002520633116907379 0.0
0.00030528304949121044 -0.00021766075690773975 0.0
0.0021157196221739862 -0.0009552446867153396 0.0
0.0021705623830389456 -0.0009404408044332867 0.0
0.001891423950523612 -0.0009214490808524986 0.0
0.001834593934425427 -0.0008884424756340232 0.0
0.0045740334032287975 -0.000303041548330354 0.0
0.004640719622263985 -0.0002523513292598465 0.0
0.0036000187868188522 0.00022734876151236181 0.0
0.00350479967067055 0.00021505025993117516 0.0
0.0009499767117162822 0.00017595485044917387 0.0
0.0009460771976450728 0.0001955112871673609 0.0
0.00044844082046051396 -0.00035478334644257207 0.0
0.001739728732208342 -0.00048005032308903034 0.0
0.003200316103760478 -0.00020797745643759153 0.0
0.0045080495211874275 -0.00035409447539659384 0.0
0.0013475967412228665 -0.00014393467222478568 0.0
0.0031355457670410904 -4.562671496914102e-5 0.0
0.0038471124078568193 -0.0006928042912653209 0.0
0.003913764896512907 -0.0006499227029464115 0.0
0.0038320099212538522 0.00014243356062352517 0.0
0.004005799940195041 0.0001234213852417614 0.0
0.0012273545435422563 0.00023646571192225885 0.0
0.0007180112617002063 -0.0002685902448237674 0.0
0.0004675161455552887 -0.0001546797211736659 0.0
0.00046800616666506 -0.0001294808502990337 0.0
0.0007397672675356027 -0.0005228634099303087 0.0
0.003669579896655857 -0.0007671278398454298 0.0
0.0029552017446585178 -0.00043558306976737625 0.0
0.002692952843105098 -0.0008217643407297747 0.0
0.0016795018041339048 -0.0006459945875288507 0.0
0.00034020280271419303 -0.00028321099510209734 0.0
0.0002827126693383678 -0.00023330918527528856 0.0
0.001019237913112337 -0.0006190494026939222 0.0
0.0032702924717586414 -0.0005603187840124254 0.0
0.003278664787935073 -0.0005196726656066398 0.0
0.0019456704591127682 -0.0009551003558226741 0.0
0.003906795235457514 0.00010267968907478155 0.0
0.004055750901325131 8.885879481858402e-5 0.0
0.003963074540269379 6.491273661510094e-5 0.0
0.004107710109410365 5.4076705297842186e-5 0.0
0.004197271297851329 7.561712751754286e-5 0.0
0.00424840987130829 4.4255779105808754e-5 0.0
0.0041576990937723 1.973656484436976e-5 0.0
0.004294063339623533 1.370569950424611e-5 0.0
0.004204354899589438 -1.2770162715235833e-5 0.0
0.004338276251822859 -1.4689630544134551e-5 0.0
0.004251164687636618 -4.3394380609737336e-5 0.0
0.0043796797359795464 -4.068361972289924e-5 0.0
0.004295333454716968 -7.181278976005385e-5 0.0
0.004419613385011995 -6.443063167285358e-5 0.0
0.004161586434086419 -7.743561076082656e-5 0.0
0.00433782743259672 -9.697900053535836e-5 0.0
0.004454783279244884 -8.632957681855339e-5 0.0
0.004339745736987251 6.169610586412954e-5 0.0
0.0009931540920069075 -0.0004935668371225483 0.0
0.0009678096831583663 -0.0006194613294722049 0.0
0.0010275876638906848 -0.000663640160074597 0.0
0.004378766824297372 -0.00011963209639685683 0.0
0.00448984421259085 -0.00010534857161851799 0.0
0.004267786811468718 -0.0001312756079740264 0.0
0.002753596918485769 -0.0008432069432369635 0.0
0.0026873369679009224 -0.0008685402618795588 0.0
0.002746828089293055 -0.0008904890056039302 0.0
0.0026822750679956235 -0.0009163206287348978 0.0
0.002740005594433756 -0.0009386577169629625 0.0
0.0026778213845990123 -0.000965001360282537 0.0
0.002620046883390453 -0.0009418322781218872 0.0
0.002616588995928103 -0.0009905918436950028 0.0
0.0025603482857338117 -0.0009663719043870213 0.0
0.0023177209236437896 0.00010514022314246864 0.0
0.0027335491523147503 -0.000987929805357275 0.0
0.0027949211002404164 -0.0009602276790321093 0.0
0.002294116270945909 -0.000354113148549745 0.0
0.0022535475639445016 -0.0006191579886987807 0.0
0.002320802565503855 -0.0006034537974266934 0.0
0.0022551455669809835 -0.0005813826199080965 0.0
0.002323116681611775 -0.0005662154606146878 0.0
0.0022567575197175948 -0.0005450419330664998 0.0
0.0023253777995742315 -0.0005304817672746994 0.0
0.0023919552695932235 -0.0005505881321211916 0.0
0.0023947545234493514 -0.0005154907466548235 0.0
0.0024615430600318875 -0.0005345708138159682 0.0
0.0024646806290526306 -0.0005000749969525858 0.0
0.0025287397303199836 -0.000518031942993701 0.0
0.0023976670687172394 -0.0004808465469120824 0.0
0.0022584113069222737 -0.0005100900848577189 0.0
0.0021895378067547213 -0.0005237038345714074 0.0
0.002525022221586929 -0.0005539801710863622 0.0
0.002595615860363803 -0.0005342488742435897 0.0
0.0009782227233973778 -0.0006646055190253893 0.0
0.0023753150340210943 -0.00023125478194444625 0.0
0.0023714897765376467 -2.1181081209101512e-5 0.0
0.002707570938465549 -0.0006884309672600464 0.0
0.0046354062262218484 -0.00020463162230492993 0.0
0.004684750721917614 -0.00018956292324813875 0.0
0.0026039563250876965 -6.775574322187854e-5 0.0
0.002580762749621973 -0.0001415495071220935 0.0
0.0037156698066878185 -0.0006264240488253693 0.0
0.0031873578319903165 -0.00037364790269106416 0.0
0.004619725003069347 -0.00028808186970809854 0.0
0.004682714930839244 -0.0002377158177079232 0.0
0.0025696554115647546 -0.00024313822322332562 0.0
0.0018377968064154195 -0.000934972511725165 0.0
0.001781271730261748 -0.0009011074919782641 0.0
0.002639270469270736 1.3668098064868558e-5 0.0
0.0025567418473740047 -0.0010153915702278919 0.0
0.0025004444117561935 -0.0009881920955345678 0.0
0.0017781663965236345 -0.0008551022056103309 0.0
0.0017243394968423473 -0.0008669623387723862 0.0
0.0017210016511765632 -0.0008214108257927747 0.0
0.0016669570325458572 -0.0008323334192798455 0.0
0.001671268955219253 -0.0008784491194047878 0.0
0.0016141567598764285 -0.000842841268137844 0.0
0.0016189068948450369 -0.0008894648189395093 0.0
0.0015618949919485102 -0.0008529617660766234 0.0
0.0006943150597063765 -0.0005189805174068253 0.0
0.004703511716662285 -0.00016403586350088946 0.0
0.00339611682966294 5.543844226458437e-5 0.0
0.0032868737359398265 6.692808970505482e-5 0.0
0.0015393760846574049 -0.0004687717712312251 0.0
0.0012352632574194897 -0.0005302851697252616 0.0
0.004528640480080079 -5.931607960654548e-5 0.0
0.004468074618958899 -1.7387472546062076e-5 0.0
0.0021694805628803236 -0.0009872078703378035 0.0
0.002225727744745248 -0.0009709104912617967 0.0
0.0034829184799000804 -0.0008351961206081022 0.0
0.0006455294637134412 -0.0003593293339244799 0.0
0.002901122901843723 -0.00033461260338120543 0.0
0.0031668884586056297 3.6471150364887e-5 0.0
0.003179764153398447 7.779108943227409e-5 0.0
0.0037862741159532657 -0.0005876529890469408 0.0
0.0038501912310200583 -0.0003321922291451456 0.0
0.003934656927927418 -0.0006025138823829654 0.0
0.0039818308616221725 -0.0006064567903975193 0.0
0.003958182100701552 -0.0006568973434955645 0.0
0.00402708608597395 -0.000611458087237951 0.0
0.0022492576422059184 -0.00028966874371876553 0.0
0.0007512745083664096 -0.0005664053809948254 0.0
0.0025280884111451643 -0.00048316290848117693 0.0
0.004067297729486847 -1.2633167961753393e-5 0.0
0.0021827288788346926 -0.0008945894716799635 0.0
0.0010350889540046168 -0.0007088929025550832 0.0
0.001084722062311039 -0.0007076612535041943 0.0
0.0034195561367630573 -0.0008735297169137966 0.0
0.0016625815641992227 -0.0007876005066837829 0.0
0.00305926088730873 -0.000562571058980538 0.0
0.0029853196066322698 -0.0005878795699713783 0.0
0.004661498784442905 -0.000273360340213146 0.0
0.004723906599830792 -0.000220666311396387 0.0
0.004742930258790157 -0.0001910221041863621 0.0
0.0013778195166579696 0.000246281992967238 0.0
0.0002967446255750901 -0.0002629001466299104 0.0
0.0002405865454912726 -0.00021116885055289135 0.0
0.0002325490185313505 -0.00018908868003324745 0.0
0.0034588554442610457 0.00024074313799377452 0.0
0.0035470444252886685 0.0002458728069843536 0.0
0.0033661844098828828 0.00022853590794703476 0.0
0.0035710955416644367 -5.0249373180843066e-5 0.0
0.004418841164150804 -0.00013766725206825617 0.0
0.004527573161731226 -0.0001201863865815704 0.0
0.0017850606628909815 -0.0009482167583883481 0.0
0.0034996465461506598 -0.0001956535051064847 0.0
0.0008016074558518329 0.0001612048258043159 0.0
0.000789395532754133 0.00017639279697533549 0.0
0.0009429538606223005 0.000211736275328156 0.0
0.000772080215072071 0.00018837459287018886 0.0
0.000987977796177098 0.00023630845471993663 0.0
0.0024982674518319614 -0.0009383698651892565 0.0
0.0015559141689560532 -0.0008071060487168268 0.0
0.0015050408324562433 -0.0008163643745041108 0.0
0.0015107126516876886 -0.0008627668346555582 0.0
0.0014545000250814118 -0.0008253947975154156 0.0
0.0040487055208467525 -0.0005632522157449867 0.0
0.004093755047297641 -0.0005671049486937748 0.0
0.004071965686631806 -0.0006167688540755229 0.0
0.0041369443510548415 -0.0005712361949064574 0.0
0.003208795927957723 -0.0005081458833247131 0.0
0.0032863987126876097 -0.0004804504124123272 0.0
0.0027876519790720655 -0.0010094926976269211 0.0
0.0028476628697108514 -0.0009805137754749008 0.0
0.002190814458280365 -0.0004891450452236678 0.0
0.0021215490559041497 -0.0005019370348253966 0.0
0.0021082543931071115 -0.001004860795434533 0.0
0.0014602406423428534 -0.000871504194894372 0.0
0.0014051446808277964 -0.0008338237057394062 0.0
0.004461402399074253 -0.0003646113041347327 0.0
0.004440610456092722 -0.00040656484971173505 0.0
0.004395636079850341 -0.0004149008327457109 0.0
0.0043805600934932725 -0.00045459289567240097 0.0
0.002224053357807824 -0.0010214376141497365 0.0
0.0003491930863719227 -0.00031344315427666593 0.0
0.000514258016579102 -0.0002752577074386623 0.0
0.0004436928612403994 -0.00023236602617401542 0.0
0.0003799271270518348 -0.00011906060206011722 0.0
0.0003759120863384786 -9.666730284299648e-5 0.0
0.0004694852738785007 -0.00010455570690579416 0.0
0.0003739762563673849 -7.51644311299395e-5 0.0
0.00047112585649551576 -7.95378610189023e-5 0.0
0.0003725036580636743 -5.416306402528364e-5 0.0
0.0004744321108223599 -5.468934738356813e-5 0.0
0.004485753453624415 -0.00039668643949011253 0.0
0.0014464196408150217 -0.0007804306739654811 0.0
0.00373201741133859 -0.0005838680836457597 0.0
0.003369642291029286 -0.0008601227940184778 0.0
0.0033568532808980938 -0.0009115312957975859 0.0
0.0033078147711970637 -0.0008976242395926504 0.0
0.002498145591119395 -0.001038576414864661 0.0
0.003481636063035671 3.898935900783361e-5 0.0
0.004115203017559505 -0.0006222294196123847 0.0
0.004783778315768922 -0.00017143103464238406 0.0
0.004763535607827136 -0.0002015321475138776 0.0
0.001353095671360551 0.0002574958945722004 0.0
0.003385307892949093 9.410234215091441e-5 0.0
0.0026431652302802942 -0.0006687223215837239 0.0
0.0027110645294834705 -0.0006472769568700437 0.0
0.0026149958337990777 -0.0010409933279042084 0.0
0.00244246352147264 -0.001010102766350463 0.0
0.0010822031486515402 -0.0002822987440683584 0.0
0.004593980729031413 -9.042511776292879e-5 0.0
0.004628950371112394 -0.00010129431812417346 0.0
0.004561670580322518 -0.00013246200342205045 0.0
0.00465881158045361 -0.00011107939074576109 0.0
0.00387858650867888 -0.0004524484241651626 0.0
0.002946929112346326 -0.0008108601976460147 0.0
0.002991134324425519 -0.0005484124835928783 0.0
0.0021860813108575583 -0.0007575034266095946 0.0
0.003126438209567186 -0.0002984323527925981 0.0
0.0033472938696095735 -0.0005306213153629758 0.0
0.0033635787087223376 -0.0006674796898619905 0.0
0.003434634512857443 -0.0006331966855599757 0.0
0.0033996445191929775 0.00025439171257357 0.0
0.003506840453895368 0.000252890977520861 0.0
0.0010911988764274348 -0.0007532686028256039 0.0
0.0011387377706095657 -0.0007506254647935078 0.0
0.00037174416804467764 -3.3408345693905545e-5 0.0
0.00047405446620102436 -3.0152371765946456e-5 0.0
0.0005796305690633717 -5.2213988706197544e-5 0.0
0.0005827429545007683 -2.3480925400387273e-5 0.0
0.0004762217801972069 -6.364098974735462e-6 0.0
0.0005897193770813631 4.528698137744645e-6 0.0
0.00048030143701627515 1.6557791055820906e-5 0.0
0.0005998619693003617 3.2128562987026736e-5 0.0
0.0004841425670577681 3.862879434439804e-5 0.0
0.00025533536643626174 -0.00024026424983283082 0.0
0.002917363403062445 -0.0005721837366011496 0.0
0.00020109916837776474 -0.00018771334751134804 0.0
0.000987943213722849 -0.0007104599933865589 0.0
0.004753348208834254 -0.00014666620346825548 0.0
0.0023857220606507286 -0.0006254051849763087 0.0
0.003062116795815209 4.679098343032417e-5 0.0
0.0030800260256460144 9.133146654268381e-5 0.0
0.0006082981802357714 5.922194372834533e-5 0.0
0.0007080782628385384 -0.0005634573252844841 0.0
0.0006521250330672774 -0.0005149775494383439 0.0
0.0015166607662879248 -0.0009180828779488138 0.0
0.0034613759892613296 -0.0008881591007507059 0.0
0.001840544232458823 -0.0009829033064488795 0.0
0.004179240077673701 -0.0005750549647413646 0.0
0.004802937382503785 -0.00014563342616996102 0.0
0.00212061156532087 -0.0005372029710034867 0.0
0.002052954181493165 -0.0005142568243199817 0.0
0.0020521321101224805 -0.0005503565710361947 0.0
0.0014867000984376073 0.00026283706173565704 0.0
0.0019883653010236 -0.0005263342797338535 0.0
0.0003915456820835767 -0.00014430539594339906 0.0
0.0028389775216279118 -0.0010301292026009122 0.0
0.0028989078447148008 -0.0009996319861555964 0.0
0.002908287008883109 -0.0009509007678318511 0.0
0.002958910407528562 -0.0009686831702335118 0.0
0.0034930396081975625 -0.0006411971680487485 0.0
0.003507660758934946 -0.0005980414291791717 0.0
0.004770390351559903 -0.00012555168131855082 0.0
0.0047185703035135034 -0.0001419152174296425 0.0
0.003216540034371194 0.00012566892342859163 0.0
0.003101748473078187 0.00013989450039661694 0.0
0.0009323000017131169 -0.0006656129776861756 0.0
0.0014111378376623562 -0.0008801544310001693 0.0
0.0013571277576910064 -0.0008419636962636193 0.0
0.0024863074883651145 -0.0003460707996338963 0.0
0.004051627050477721 -0.0006690533206658555 0.0
0.0004891543848738679 5.9905073538052224e-5 0.0
0.0013497360351681707 -0.0007955155612984165 0.0
0.0029482027553898063 -0.001018082775015615 0.0
0.003007686496949949 -0.0009858385750626858 0.0
0.00292177504881236 -0.0005346637216771329 0.0
0.0028491883611488867 -0.0005561055866972881 0.0
0.0028531772603491816 -0.000519803781712595 0.0
0.0026272589374858775 -0.00029464766241787407 0.0
0.000382736173587754 -0.000218424608159227 0.0
0.00021594405680480278 -0.00021559061793055095 0.0
0.002969675156549393 -0.000920670427771759 0.0
0.0030280446269075278 -0.00044935602750119336 0.0
0.0024411588716889555 -0.0010609904885796949 0.0
0.000975972739064544 -0.00016982127483694423 0.0
0.0017391379840739488 -0.00034336290134351013 0.0
0.0007627381776015331 -0.0006131477969612007 0.0
0.0042012714889208 -0.0005264044855289241 0.0
0.0010536364816954163 -0.0004945605742203059 0.0
0.0009848452215346286 -0.000454021880330161 0.0
0.0010505729021350692 -0.0004555039914575514 0.0
0.0009790768942048145 -0.0004154825895568642 0.0
0.0010465713439526477 -0.00041695203605523784 0.0
0.0009128463432967244 -0.00041315747140695106 0.0
0.0032954388447656354 -0.0009492560766217004 0.0
0.0032506846069215263 -0.000934071028047985 0.0
0.00063883210852362 0.00013817195996330508 0.0
0.002497763581675164 -0.0010891751214987578 0.0
0.002435881943802251 -0.0008172397653304749 0.0
0.0023723790026072998 -0.0008369140164890131 0.0
0.0011459879838175435 -0.0007970713245287858 0.0
0.000301901202084286 -0.00010673826455561858 0.0
0.00031922502901777307 -0.00013387012799907482 0.0
0.004467835714577068 -0.00024025265278481892 0.0
0.004545633694531715 -0.00020048268806311048 0.0
0.0006896303846834477 -4.604891144563634e-5 0.0
0.0011928275305720436 -0.0007926526898569601 0.0
0.0011886380156025467 -0.0007498174427659953 0.0
0.0011999866725701512 -0.0008397731011451845 0.0
0.001100149131790488 -0.0008005506374135268 0.0
0.0007840985937681486 0.00021005402417274585 0.0
0.0018857643682302307 -0.0008305038923559528 0.0
0.0029119360270196313 -0.0006123656057018161 0.0
0.004479420391802415 -0.00021165532421363556 0.0
0.002780025169110577 -0.0010601799268233627 0.0
0.0017877666424834214 -0.0009968670487243126 0.0
0.004820656567229689 -0.00015185975223585052 0.0
0.0047997286764708096 -0.00018246014696854574 0.0
0.0015202470996219933 0.0002523113373840276 0.0
0.0013646122696912598 -0.0008895850320796213 0.0
0.003214593856312711 -0.0004678807426534339 0.0
0.003298860763168452 -0.000440981263787104 0.0
0.0005061445520897088 -0.0002444890218393303 0.0
0.0006663594321911186 -0.0005593064354698282 0.0
0.0006122722168658254 -0.0005107955117506939 0.0
0.0005969150754330849 -0.00046810934160617675 0.0
0.0009426375705548887 -0.0007117881572782781 0.0
0.00016348599713574572 -0.00016213424024479796 0.0
0.0001518632232120253 -0.00014113121651582663 0.0
0.002995881419964646 -0.0010364025324888437 0.0
0.0030547184772924747 -0.0010029163374857995 0.0
0.0030650458449160193 -0.000951299084995781 0.0
0.004115636001495685 -0.0005203382490985283 0.0
0.004068633580645866 -0.0005181113610402483 0.0
0.004092909342789431 -0.0006764001170571476 0.0
0.0009061135663724228 -0.0003756737547957573 0.0
0.0008415096214382093 -0.00037378067058042196 0.0
0.0033686516935129618 -0.0004518545739091351 0.0
0.004721038737819198 -8.224365885578007e-5 0.0
0.004747178346644086 -8.920624833227346e-5 0.0
0.004779128236068686 -0.00010956700280973751 0.0
0.004731900212378969 -0.00024819844489393147 0.0
0.00026954604777558287 -0.00027193075759712174 0.0
0.0031198017091637756 -8.025968905575323e-5 0.0
0.0030221919603419943 -7.20711184475202e-5 0.0
0.003006690211431787 -0.00010261255336802844 0.0
0.0029134064420208235 -9.589440769576953e-5 0.0
0.0029039687280171095 -0.00012508492240491162 0.0
0.0029203409412555175 -6.73016289118596e-5 0.0
0.0026468240903585387 -0.0006284290974385988 0.0
0.0021223407722272486 -0.0004680752001420746 0.0
0.0021922932959997257 -0.00045587839651160556 0.0
0.0006265358085778596 -0.0005545883044649172 0.0
0.0005732687719200947 -0.0005045779108394519 0.0
0.0042835841103655145 8.974958619181332e-5 0.0
0.004429091153111462 7.261887171674753e-5 0.0
0.004485724892297279 4.5833116548520326e-5 0.0
0.004572603095990665 5.369893787926909e-5 0.0
0.0045366943827291045 7.586764535592714e-5 0.0
0.0023881908562560987 -0.0010328891809697654 0.0
0.0023885448510015356 -0.000984775878600752 0.0
0.002385800127162692 -0.0010827985801753564 0.0
0.002956677209274353 5.531141810938393e-5 0.0
0.002941367735157506 1.749039129589403e-5 0.0
0.0006904449805297248 -7.811387866607e-5 0.0
0.00036129168308978045 3.746271351803876e-5 0.0
0.003235657135147327 -0.0009867093314834346 0.0
0.0008059613892418545 0.00014301492661752602 0.0
0.003260776366336319 -0.0006019310266333925 0.0
0.003009163802900007 -0.00013205698862148044 0.0
0.002895241303084075 -0.00015351672418007102 0.0
0.0029816007602563 -0.000163371544182937 0.0
0.002886225073764968 -0.000181417583359607 0.0
0.0029678672096190273 -0.00019178825201732712 0.0
0.002877912676971773 -0.00020945802347523544 0.0
0.0029571339147583158 -0.00022019474860863664 0.0
0.002870350257020359 -0.00023788678528420656 0.0
0.002950802718386669 -0.0002489288023321333 0.0
0.002799217981434319 -0.00017089090696395678 0.0
0.0027905946901305226 -0.00022651648026476024 0.0
0.003342769538363279 -0.0009644706984019987 0.0
0.004830853621056568 -0.00010091003563861137 0.0
0.0017182664490286515 -0.0007772962150255857 0.0
0.0016574753411828884 -0.000745094061951464 0.0
0.004597145635316653 -0.00032886099095111337 0.0
0.0019922801759108552 -0.00049589486181599 0.0
0.002814878457691734 -0.0001160855378305004 0.0
0.0009736607575467028 0.0002600146880767099 0.0
0.0002852068851488337 -6.770098670926752e-5 0.0
0.0016293611840449028 0.00026629688588818525 0.0
0.0016515336810507249 0.0002542703284047005 0.0
0.003752414235278758 0.00010950516572755462 0.0
0.004637905953576054 -0.00031493578403368327 0.0
0.004576241648866965 -0.00037221907249273455 0.0
0.001985576344805915 -0.0005628067900986401 0.0
0.0019280728950104267 -0.0005329682800087642 0.0
0.000807995987473741 -0.0005780031103907165 0.0
0.0001784700681958989 -0.00018847642904268094 0.0
0.00022549927149086656 -9.031810140144492e-5 0.0
0.00023233810620273707 -0.00010838521277579297 0.0
0.00012738766051517708 -0.00013417725837310262 0.0
0.00344657348062563 -0.0005909259492402128 0.0
0.0035211917544009925 -0.000556752696565158 0.0
0.0035833170714515096 -0.0005630922209717423 0.0
0.0035959889691971948 -0.0005215236931329535 0.0
0.0027853712449641198 -0.0002535017784229749 0.0
0.0011617573536328082 0.00027483400264929285 0.0
0.001483898140849205 0.0002684433485051292 0.0
0.0027811489286117676 -0.0005397101909156295 0.0
0.00278586368751417 -0.0005037436754619405 0.0
0.0021246846523124896 -0.00043673704457713 0.0
0.001812844642434402 -0.00043471527437737056 0.0
0.001843317711451929 -0.001032183257262456 0.0
0.0037828271907426676 -0.0007350757585572261 0.0
0.0038272747071775026 -0.0007445589589654077 0.0
0.003765742854449833 -0.0007872542703757691 0.0
0.003808779877114565 -0.000798843037788032 0.0
0.0037491183651002314 -0.0008416305945678907 0.0
0.003705789879709598 -0.000829776020675649 0.0
0.0035958317005682335 -0.0008155232324338089 0.0
0.003256605627533304 -0.0008828523659519814 0.0
0.003409695668398628 0.00019525309321065845 0.0
0.002627345608912947 -0.0008462235866594161 0.0
0.0007126604865194162 1.9571590150455603e-5 0.0
0.004775069783756473 -0.0002207963522140494 0.0
0.004832359768299043 -0.00016294296302028977 0.0
0.00386952129424532 -0.00075495061856953 0.0
0.0038516036340633143 -0.0008096080524815421 0.0
0.003910094932090004 -0.0007658796223034372 0.0
0.0018943714174987226 -0.001017792186717799 0.0
0.002312204376727394 -0.0008110315527566334 0.0
0.002311520480982521 -0.0008550830783972547 0.0
0.002369980829955962 -0.0008825418460804947 0.0
0.0015532955912527502 -0.0006302937109593013 0.0
0.0022516211368831776 -0.0008281604529115196 0.0
0.0029178890064000228 -0.0009040772278510757 0.0
0.004138554154955821 -0.0004754605456176405 0.0
0.004242520176839725 -0.000528289822710232 0.0
0.004219639630248509 -0.000579121033849057 0.0
0.004273486774120395 -0.00047581994286462697 0.0
0.0005782936380561201 -0.00010944820169561309 0.0
0.001675826508429367 -0.0009258416550673259 0.0
0.0016246940742894896 -0.0009375788091484865 0.0
0.0016798928351503123 -0.000974230145123641 0.0
0.0016310098078989388 -0.0009865620858404774 0.0
0.0036577837718264027 -0.0005262934188263909 0.0
0.0009984684876191915 -0.000757805237229482 0.0
0.0008903530464251863 -0.000667127629524382 0.0
0.0046847019654592155 -0.00012131980767441446 0.0
0.00027483456746448833 -3.337978995940538e-5 0.0
0.00027446534485595753 -1.770421199163106e-5 0.0
0.0031882520865851426 -0.0009642566698897161 0.0
0.003181989012123086 -0.0010215748695965945 0.0
0.0025778278576481417 -0.0006487362517009547 0.0
0.004628533216504116 3.061747784743662e-5 0.0
0.0008998599105711267 -0.0007126952694556966 0.0
0.003785805245075675 0.0002462699573579751 0.0
0.004410738543935288 -0.00037491130458102546 0.0
0.004419394674222612 0.00015061007381948806 0.0
0.004466706163172206 0.00013073756312257542 0.0
0.0035341735105050265 -0.0005164648730631232 0.0
0.0038049897957589144 -0.0005457476365330219 0.0
0.003859599456911018 -0.0005485787205370251 0.0
0.003385749780049674 0.00024931976830992205 0.0
0.0034857683424307814 0.00024604556616716536 0.0
0.0036102132329546913 0.0002494418410777631 0.0
0.002936137101038146 -0.0010697727765714483 0.0
0.0014146516838537784 -0.0009271090522179746 0.0
0.0021881242244130546 -0.000596508077881819 0.0
0.0031372865614809277 -0.0004968561123140272 0.0
0.0027732086132836466 -0.0006646520275618577 0.0
0.002829428984238368 -0.0010816831525882731 0.0
0.0012447985830943782 -0.0008339899386400555 0.0
0.0016026604385896773 -0.0007534686292862336 0.0
0.0006443134866172219 -0.0002633989735631789 0.0
0.004690742449873855 3.555950964310367e-5 0.0
0.0036624824909208494 -0.0006223791010127132 0.0
0.00043296096279084176 -0.00020429314986992775 0.0
0.001149115960711526 0.0003065981514435671 0.0
0.0028122087578833503 -0.0008642288202369372 0.0
0.0036893921205755267 -0.0008847448938714374 0.0
0.0036438365503326906 -0.0008723482592492578 0.0
0.003235266004548265 -0.000688000287804547 0.0
0.003376617546784576 -0.00041403797863552377 0.0
0.0014729758230005714 -0.0005123639557337525 0.0
0.0023098713644217886 -0.0009081469403768761 0.0
0.0031030280396871614 -0.0004285099009855247 0.0
0.0015970173851734234 -0.0007114239715838677 0.0
0.0015414032370305026 -0.0007186067035352667 0.0
0.0012518164488151027 -0.0008818993053804831 0.0
0.0007990542341918561 -7.291342562843123e-5 0.0
0.0008030812600146337 -3.8946900063197465e-5 0.0
0.0003667218505950653 5.3655037788993696e-5 0.0
0.0005019947830778626 8.112156604604863e-5 0.0
0.004031672122556736 -0.0007230754693410857 0.0
0.0005765352476451453 -0.0002862683497663381 0.0
0.0008488635944273943 -0.0004112773861075797 0.0
0.0007777886418090099 -0.00037040586236134496 0.0
0.004225915857146448 -0.00047919952960149225 0.0
0.002122105656660797 -0.0008171476275406084 0.0
0.002714071939441696 -0.0006059320200275152 0.0
0.003262895404269964 0.00020295589884696978 0.0
0.0032373291008344664 0.00023721997240827206 0.0
0.0031399781156667035 0.00021759506221179917 0.0
0.00311313732894615 0.00024365524665898798 0.0
0.003202063560343019 0.0002515489810393789 0.0
0.0035948953651828617 -7.858737835480278e-6 0.0
0.003695710833154062 -2.358894299788838e-5 0.0
0.003727170694486724 1.8001633619447914e-5 0.0
0.0038197875907879137 7.555234503184945e-7 0.0
0.0037899600732040173 -4.0750303403153066e-5 0.0
0.00021658721648596264 -7.297394410438489e-5 0.0
0.0036729174760192374 -0.0004866295620851361 0.0
0.0005751278854543089 0.00015304371036104267 0.0
0.0005982147518810844 0.00017760821219958093 0.0
0.0030422863452290393 -0.0010548468774329873 0.0
0.00017721542668304517 -1.6297381758594067e-5 0.0
0.00400319339322703 -0.00029913617216425424 0.0
0.0040930480713087585 -0.0002626679196150869 0.0
0.004023896353603068 -0.0002577051970083427 0.0
0.004170290481417483 -0.00026141059475795757 0.0
0.004185183554788269 -0.0002262990413079356 0.0
0.004263916741179845 -0.0002253177354366737 0.0
0.001119698754797074 -0.0004553754873541345 0.0
0.0011186952063011535 -0.00041770507190851597 0.0
0.0010417848314788797 -0.0003789535634813952 0.0
0.0011163087458750246 -0.0003806967881883436 0.0
0.0011938524230356328 -0.00041797210176551866 0.0
0.0011922974767532447 -0.0003809149867698132 0.0
0.0012690466174848406 -0.00041666403485656123 0.0
0.0013721674050038545 -0.0009355581308144714 0.0
0.0012678981156896466 -0.00037881975413151875 0.0
0.0013445902879611516 -0.0004143926223516129 0.0
0.0003677925069619312 3.959142606357378e-6 0.0
0.0007970995816994935 -0.00010712548177058492 0.0
0.0013425412622067895 -0.00045094509856319435 0.0
0.0010454284677783481 -0.00034558941624176424 0.0
0.004088816637595323 -0.0004752579643229359 0.0
0.0040206422401624494 -0.0005168004896288899 0.0
0.0023347538353751633 -0.001055759098213983 0.0
0.0023319444785045405 -0.001104216353207631 0.0
0.0030202887533380086 0.00022353040674659295 0.0
0.0015551551279864245 0.0002316889517704538 0.0
0.0016784055445735416 0.00022886428551601806 0.0
0.001770382181192314 0.00025155781235497584 0.0
0.001796884942714287 0.00021905882395065461 0.0
0.001705044429133188 0.0001919030922604372 0.0
0.0018220724166618841 0.00017198617660439138 0.0
0.0017311640840365682 0.0001478552051502403 0.0
0.0018493890806131766 0.00012097441428449764 0.0
0.001756248087849159 0.00010320090657977002 0.0
0.0018937689443928297 7.196215185376108e-5 0.0
0.0017786971778188084 6.098910030794932e-5 0.0
0.001895195355792802 3.125080977857287e-5 0.0
0.0017948535498039798 2.248822859785463e-5 0.0
0.0019081813778673233 -5.680453776161624e-6 0.0
0.001815811380632152 -1.4753953527931624e-5 0.0
0.0019237210500460543 -4.0762547074327605e-5 0.0
0.001831379260959823 -4.86585216116226e-5 0.0
0.0019328871549397937 -7.251962697751434e-5 0.0
0.0018444712976043282 -8.006797893926754e-5 0.0
0.0019419702300026201 -0.00010229024369772176 0.0
0.0018553278082104794 -0.00011025172107479417 0.0
0.0019491826344050938 -0.00013153934060470296 0.0
0.0018624694435029664 -0.00013957627370312544 0.0
0.0019549339147506206 -0.00015944077472150218 0.0
0.001869049799435927 -0.00016928237833705446 0.0
0.001776314897335371 -0.00014716899390949646 0.0
0.0017836517375362211 -0.00017822583999457317 0.0
0.001967096725489958 -0.00019046072718593543 0.0
0.0017465602342368295 -5.627999386064102e-5 0.0
0.002039223780536048 -0.00014895428322423483 0.0
0.002037211517890433 -9.565642335359549e-5 0.0
0.0016449973321056713 0.000126630123895459 0.0
0.002016355933583334 -3.1826540144761556e-5 0.0
0.0016895159628571438 -0.00015485690676561467 0.0
0.0016985630124452308 -0.0001865529483985561 0.0
0.0017908864675083428 -0.0002098285685732552 0.0
0.0017071807841734356 -0.00021865167134687427 0.0
0.0017044350408099787 1.258689123076761e-5 0.0
0.0020073325083640155 3.401918923592403e-5 0.0
0.0016816993927339713 -0.00012313915435839846 0.0
0.0019459026697467429 0.00014173745624339727 0.0
0.0017981048667624821 -0.00024151760434339977 0.0
0.0017148605793802516 -0.0002510077436099386 0.0
0.0016242220976247462 -0.00022707604667172125 0.0
0.0015922266750157768 -0.00013098226154609538 0.0
0.0015801582813449622 -9.673106985659632e-5 0.0
0.0018818639078185125 -0.0002313913058931544 0.0
0.001886137268630126 -0.00026252429307060135 0.0
0.001967753623769894 -0.00025218663326760144 0.0
0.0018927767663368422 0.0002406663651848602 0.0
0.0018735705529179416 0.0002605927732217014 0.0
0.0016349375587966814 -0.00026059567766363036 0.0
0.0015425407247604947 -0.00023562859933112847 0.0
0.0015338150911965009 -0.00020292540444162568 0.0
0.0014474669749408352 -0.0002098971078697405 0.0
0.002772228068386144 -0.001112059770242596 0.0
0.0027232555368203095 -0.0010893215659613994 0.0
0.004615440783074988 -0.00035883879044245324 0.0
0.0029795587628467595 -0.0008737956174078386 0.0
0.003031885311393947 -0.0008901306587126828 0.0
0.0017061061914676698 -0.0007335510600993108 0.0
0.001767470473353704 -0.0007644558747999314 0.0
0.0041004463228107935 0.00013643772796402223 0.0
0.0029956724731225928 -0.0005100797905542912 0.0
0.0017241423565900233 -0.00028301834475306063 0.0
0.001296166834835563 -0.0008014028659037096 0.0
0.0012939237841480874 -0.0007572010811718226 0.0
0.0013428295927452381 -0.0007512285105887791 0.0
0.003304614634928562 -0.0004037214720946874 0.0
0.0030530861311057786 -0.0001758199100339156 0.0
0.002052954954172626 -0.0005876820857218069 0.0
0.001987758496633959 -0.000601005815354142 0.0
0.0028342752767273453 2.4999144374396094e-5 0.0
0.0028257213156688008 -6.936086366200717e-6 0.0
0.0029170268977955667 -1.4286952566030605e-5 0.0
0.0028087835703135026 -3.992278844578782e-5 0.0
0.0028492253609936668 5.917144735611732e-5 0.0
0.003035407146352898 -0.00023167964559248595 0.0
0.0030305269250631805 -0.00026032556156885766 0.0
0.0029377880237150132 -0.0002776418061056476 0.0
0.0021946704040763008 -0.00042467953111873327 0.0
0.0022629096874551597 -0.00044332279828930506 0.0
0.002266099965289601 -0.0004134311515185668 0.0
0.002333157770725129 -0.0004303422403177701 0.0
0.0023362866764619203 -0.0004011523439571547 0.0
0.002403120212515522 -0.0004171703809023015 0.0
0.0024066406686201938 -0.00038878674512972877 0.0
0.002476127596208511 -0.0004036791768075372 0.0
0.0024708429437266 -0.00043352221019773795 0.0
0.0025451259206770716 -0.00041509111357555193 0.0
0.0028611281594411253 -0.0004860372529052064 0.0
0.0027903451372306553 -0.0004701499082104259 0.0
0.0027179078566793267 -0.0004879908574726116 0.0
0.002721438366074283 -0.0004553524492643406 0.0
0.0004980523067509477 -0.00021530521175471413 0.0
0.0005892286882415531 -0.0005489093771671149 0.0
0.0005370527447752409 -0.0004974378952275604 0.0
0.000521762739407643 -0.0004535156849971804 0.0
0.0004841090028254705 -0.0004441994858316039 0.0
0.0025809446340949436 -0.0006094340272541431 0.0
0.0034478095994514035 -0.0004220433125133415 0.0
0.0034333219950267546 -0.0004622031766844633 0.0
0.001211714078947537 0.00024887032375297315 0.0
0.002709741250073894 -0.00024232867287974816 0.0
0.0027119144465908704 -0.00021844301926453422 0.0
0.002819238836462014 0.00022312370160652875 0.0
0.0047672023018716 -0.00016024120342621884 0.0
0.004823799936517406 -0.00012117452994481523 0.0
0.004863291997409544 -0.00010126560222637531 0.0
0.0001591821581552196 -7.188359437436089e-5 0.0
0.00016223191032943343 -8.483110122166229e-5 0.0
0.0002324978101707739 -0.00012405565583064145 0.0
0.0001703131068485452 -0.00010064191342901945 0.0
0.00023611468542927648 -0.00014198697719918304 0.0
0.0001757959907147563 -0.00011609577916532004 0.0
0.00010636661478509076 -7.028262473984284e-5 0.0
0.0025122778596446613 -0.0006286215382314362 0.0
0.0011943545075958034 -0.0003453051923012284 0.0
0.0006821904416745392 -0.000604769364036384 0.0
0.001968732677876338 -0.0002808224781431972 0.0
0.004565369184132297 -0.00040936856115271746 0.0
0.004523676230529694 -0.0004292572616079581 0.0
0.0038776379552944483 -0.0005064931062054235 0.0
0.003948623820865281 -0.0005014162030904394 0.0
0.003958593851084879 -0.0004588486217841131 0.0
0.0002359055918171293 2.9883736284323697e-5 0.0
0.0017935023385832144 -0.001046372231042861 0.0
0.0012088873367462492 -0.0008887652908756969 0.0
0.00014300311875335315 -0.0001595758978541072 0.0
0.00019774270663720217 -0.00022412508751418957 0.0
0.0009685957467652269 -0.000343621624334062 0.0
0.0030905345838347694 0.00024713058895725414 0.0
0.003191349949316245 0.0002474204507818417 0.0
0.003743158048885295 -0.0005440223631764564 0.0
0.003910185238141722 -0.0005522728813233987 0.0
0.0016854200161777687 -0.001022029128697113 0.0
0.0018952115304263397 -0.0010652542102880102 0.0
0.00194665145356261 -0.001051965570754588 0.0
0.004281049861517688 -0.000531493240407089 0.0
0.0042579286064233736 -0.0005833857287355527 0.0
0.004195624563014502 -0.0006399202045102822 0.0
0.004560406683774406 -0.0001740364053094027 0.0
0.004493243963708888 -0.0001839093142605479 0.0
0.004410269202908067 -0.00021967231049790966 0.0
0.0044177235210724536 -0.00019185527941364963 0.0
0.000822530035814067 -0.00033947617638309396 0.0
0.004275808394789768 -0.00019264023965807718 0.0
0.004184302557402927 -0.00019288821582005313 0.0
0.0030442335513762592 -0.0008457636395474226 0.0
0.0004964666198552013 -0.000483241762019721 0.0
0.0004501256925333165 -0.00043803354163253434 0.0
0.0004337691699651795 -0.00039753925477411313 0.0
0.00040084681358366973 -0.00038851978120020054 0.0
0.004875720359051863 -8.575939407410645e-5 0.0
0.004772680327688861 -9.301864364840296e-5 0.0
0.004830241296204269 -6.504026041002861e-5 0.0
0.004069910256223969 -0.0007295015517400043 0.0
0.002053320854666604 -0.0004466898307811838 0.0
0.004316479722337611 -0.0005358220492358266 0.0
0.004296206787493987 -0.0005851503230799551 0.0
0.0043505310523849075 -0.0005390491366984918 0.0
0.004335361114954977 -0.0005894323159852367 0.0
0.004390391083105813 -0.0005351050349687428 0.0
0.004406295374582305 -0.0004907072865650874 0.0
0.0044403516134082065 -0.0004904267650624798 0.0
0.002387980804821101 -0.0011308963745498347 0.0
0.002337224311632082 -0.0011566245726031216 0.0
0.002271781727593381 -0.0011245688549970422 0.0
0.0016462378359931437 -0.00029495694044912626 0.0
0.00012291243169585154 -9.004718491127516e-5 0.0
0.000180659140163159 -0.00013227550046618705 0.0
0.00012864902774163784 -0.00010311519760885723 0.0
0.0016436650234475114 -0.00104309486194554 0.0
0.0015870564632031933 -0.0010003556553751277 0.0
0.0047243859812820125 -0.0002759719009019319 0.0
0.0003803279439824341 7.091905563960558e-5 0.0
0.0026515574290134026 -0.00047605175164845963 0.0
0.002657690910935298 -0.0004423380661426049 0.0
0.00453541254772106 2.1352285515610928e-5 0.0
0.004674635230908174 1.102259673542604e-5 0.0
0.004291814140753334 -0.0004352648827184425 0.0
0.0008521380104450239 -0.0006668472293429674 0.0
0.0008675851590735794 -0.000717150459548142 0.0
0.0036514413212043796 -0.000566473701940796 0.0
0.003673349118080246 0.0002455510929463204 0.0
0.004808103245585927 -0.00019944574183379987 0.0
0.004863734406928339 -0.00014087403032551617 0.0
0.004884345644023032 -0.00011218200130971139 0.0
0.0035774043209926376 0.00024335743421999574 0.0
0.004160195395731042 -0.0004347141279168207 0.0
0.0022830096730687174 -0.000991372315922155 0.0
0.004247506581894613 -0.00025982707714911947 0.0
0.004027913672386196 -0.0004819178704918911 0.0
0.0015402044732952833 -0.0006743752034744801 0.0
0.0008772254868483471 -0.0006217921216026672 0.0
0.004633069930451207 -0.00015741863251666696 0.0
0.0038698313241208268 0.0002354492957838269 0.0
0.0015864584934311317 -0.0010464887384324115 0.0
0.0007286145823428672 -0.0003064087448175936 0.0
0.0026944588226197096 -0.00027127943885730827 0.0
0.003990654277301194 -0.0007218869464155003 0.0
0.003977750277102736 -0.0007707758757130932 0.0
9.53082193431018e-5 -0.00010693391221116933 0.0
0.003097209407941765 -0.0010265367079790714 0.0
0.0030773551021833173 -0.0010723175949491843 0.0
0.0019442265167688387 -0.0011070123062202702 0.0
0.0019986258037838385 -0.0010871982314602589 0.0
0.0019974126677847564 -0.0010372678677184714 0.0
0.002050326841798701 -0.0010701822476322199 0.0
0.001998598775387781 -0.0011290965926957584 0.0
0.0016739949982033022 -9.143592116331011e-5 0.0
0.001571657216174312 -6.521503608352428e-5 0.0
0.0006855321494959105 -0.00010911785485210081 0.0
0.0013048391986241878 0.00029833124465094516 0.0
0.0013194682609519346 0.0002757537986040391 0.0
0.00304401558347774 0.0001782090464319449 0.0
0.0038877235195773677 -0.0008211263246334948 0.0
0.003834450532954325 -0.0008632156601052586 0.0
0.00041227333549699146 -0.00042791067477456813 0.0
0.0003648611880247291 -0.00037477358930355307 0.0
0.004853521500145784 -6.549167426351023e-5 0.0
0.0007976797119050849 -0.0004095585132360797 0.0
0.0007177818510500388 -0.0003732975486991882 0.0
0.0045146413149725565 0.0002032127337558317 0.0
0.0046704575836419146 -0.0003045274600817045 0.0
0.004647128547041156 -0.0003512051683404648 0.0
0.00277709506634424 -0.00028145262626429467 0.0
0.003223076896736696 -0.0010389599669453874 0.0
0.003156571337231957 -0.0010834235158337438 0.0
0.0014122217640758683 -0.0004457555916066125 0.0
0.0014188584057666827 -0.0004093811531285988 0.0
0.0020518203795522913 -0.0010212226530245197 0.0
0.004322149720352741 -0.0004741549846909859 0.0
0.0024791804271566994 -0.0003750438509756795 0.0
0.002415436369735725 -0.00036036337470252513 0.0
0.00011783799072378521 -0.00013844556909663828 0.0
0.001204785788854563 0.000460577601326389 0.0
0.0022663910882106033 -0.00038295979760588194 0.0
0.001493512863298842 -0.00010629466884600168 0.0
0.0015091064586962052 -0.00013948921342026613 0.0
0.0009084082191857828 -0.00010149381520367736 0.0
0.003121324772967819 -0.00024046972166429488 0.0
0.002046585020596962 -0.0002709553700882123 0.0
0.002047810233906545 -0.0002434891100711528 0.0
0.002124687343702759 -0.00026191865224662854 0.0
0.002124410675054128 -0.00023621494741597748 0.0
0.0021979822958151096 -0.0002513040077709518 0.0
0.0021989472822664343 -0.00022733731289524407 0.0
0.002123414544742882 -0.0002115985079696902 0.0
0.0021987785388785314 -0.00020312170889204547 0.0
0.0021232523524687625 -0.00018791443167910082 0.0
0.0021998819660747865 -0.00017989826301345745 0.0
0.002267887289606225 -0.00024180100120631617 0.0
0.00019105608237220638 -6.707510039449837e-6 0.0
0.0030188648139799143 -0.0002934204149193567 0.0
0.002067856015156381 -0.0004162064432142655 0.0
0.0019167687854912624 0.0001962515051059903 0.0
0.00206362166045121 0.00015472082525690967 0.0
0.002075512729528451 0.0001036997530534287 0.0
0.002020112303414867 0.0002169021244156314 0.0
0.0019790689207255167 9.296327095549118e-5 0.0
0.002104320773674775 6.35787332000273e-5 0.0
0.002220221984207585 6.546560074574152e-5 0.0
0.0021469770435505295 0.0001878424712620546 0.0
0.00029992852416899513 -0.00016538123012802927 0.0
0.0003076634440948716 -0.000188450632220251 0.0
0.004844155310848323 2.5973851764693177e-5 0.0
0.004692725535271085 5.7902499022118674e-5 0.0
0.004684181539065302 6.996734970790203e-5 0.0
0.0037387560478830462 -0.0009003574837425873 0.0
0.0036724537657170514 -0.0009412282402369736 0.0
0.0012869929910495153 -0.0007138726803723003 0.0
0.001337676438883419 -0.0007068158174316801 0.0
0.001235627168505651 -0.0007182378187633147 0.0
0.0014088325047140276 -0.00012061185802997404 0.0
0.0021804548735130298 0.00010886469157717149 0.0
0.002278289807267074 -0.00019405131398696763 0.0
0.002274201007390166 -0.00017059180915670471 0.0
0.002199522765912306 -0.00015692895184173905 0.0
0.0022721754751387664 -0.00014938898972400162 0.0
0.0022027350389634682 -0.00013520566661842442 0.0
0.001321731700760264 -0.0008997989278381846 0.0
0.004832161424703285 4.168477418524623e-5 0.0
0.0020088878013984025 0.00025235861000687384 0.0
0.002924939588345849 0.00018120358098769757 0.0
0.0029339038631980728 0.00013524907098082188 0.0
0.0028147648292834023 0.00012715890102501961 0.0
0.0014171460123940378 0.0002295553072639905 0.0
0.001705467154054427 0.00024800187131937665 0.0
0.0016134010710925082 0.0002617635873122277 0.0
0.001544053721651194 0.00026741785380280666 0.0
0.0032732836968276764 0.00020128764406463048 0.0
0.004132012399422163 -0.0006835570634843653 0.0
0.00410730361743906 -0.0007415627082785162 0.0
0.0012562371901013183 -0.0009286953042900486 0.0
0.002104103251617298 -0.0010540892042264333 0.0
0.0021042666263681427 -0.001101818986639089 0.0
0.0021550111314525295 -0.0010857513887376814 0.0
0.0021618984925338668 -0.0011392479825176676 0.0
0.0035474691716447424 0.0001810613566728202 0.0
0.0034447650348493094 0.0001567271458358801 0.0
0.003576791594620447 0.00014739769486884794 0.0
0.0036839050688904865 0.00016630470197909658 0.0
0.002731180973950522 -0.0004248592780710742 0.0
0.002674387069444747 -0.0004099429390432561 0.0
0.002208743654209816 -0.0011147761081269439 0.0
0.0014702840140112812 -0.0002472469872373529 0.0
7.590239668475414e-5 -8.113673457449591e-5 0.0
0.0020071635061796925 3.4314710234626207e-6 0.0
0.002111913909396639 -2.362672237838732e-5 0.0
0.0021205560860318214 -5.3439110756948095e-5 0.0
0.0022152624255474015 -4.5874737266033083e-5 0.0
0.0022161372308566974 -7.052460519303508e-5 0.0
0.0022082263997489004 -2.0007084957559786e-5 0.0
0.0021373394911151735 -7.85851959046497e-5 0.0
0.002219038426156428 -9.33848951864005e-5 0.0
0.002304679598379297 -3.8425825284507636e-5 0.0
0.00331525183383737 0.00016427703926322657 0.0
0.002147858911614125 -0.0001028803271214537 0.0
0.004900182586209924 -4.253112563621765e-6 0.0
0.001888164163624669 -0.00029299920920382256 0.0
0.002367886738880598 -0.0009296741105861012 0.0
0.0024323371571234147 -0.0009097870115019195 0.0
0.0021104356167885867 6.057417123208799e-6 0.0
0.0022150743425131823 6.592211059947712e-6 0.0
0.0028736927172689744 -0.00045394893951463495 0.0
0.003655143988518421 -0.0008195842593980371 0.0
0.00359459446418802 -0.000864964892436543 0.0
0.003584099416480047 -0.0009162201859484717 0.0
0.0035383911780348205 -0.0009087550126043214 0.0
0.0035310922519096043 -0.0009559785320827698 0.0
0.0034823604483972675 -0.0009517925121205252 0.0
0.004117077002138779 -4.657026039572024e-5 0.0
0.004032164282461657 -8.454918102582433e-5 0.0
0.0040730998007144385 -0.00011480024989239814 0.0
0.003949472067759583 -0.00012397968359023788 0.0
0.00398695786045847 -0.00015402298840190164 0.0
0.003864835554675905 -0.00016468183240763446 0.0
0.003904694234933356 -0.00019471407911160748 0.0
0.0038250904261313496 -0.00013378406593423715 0.0
0.0037438413475960907 -0.00017438817224977348 0.0
0.004020252747454915 -0.00018315562258913146 0.0
0.0037024861355735602 -0.0001441905624544365 0.0
0.003937588189147469 -0.00022391422745706636 0.0
0.003828876315272973 -0.00023524616010253682 0.0
0.0038569972875889965 -0.0002646684469539418 0.0
0.003785206229218305 -0.00010465108676536208 0.0
0.003986457194099206 -5.245311776038269e-5 0.0
0.00405163292383108 -0.0002134496278744931 0.0
0.004204778364281332 -0.00011073596605214913 0.0
0.004126205913737666 -0.0001730251059213713 0.0
0.0027231592944332883 -4.825499877133185e-7 0.0
0.0016890979812849711 0.00026302013283410725 0.0
0.0002506690871241805 -0.00016827689129894917 0.0
0.00023141442158428302 -0.0002468958525393537 0.0
0.0002809798397694715 -0.000302040166570875 0.0
0.002206956358168401 -0.0010680088905607402 0.0
0.002951709690458154 -0.00047252077984628226 0.0
0.002820896587749357 -8.954677792265117e-5 0.0
0.0027243504560998644 -0.00010735772355868249 0.0
0.0027411594367954197 -8.34217514787224e-5 0.0
0.0027267828037096683 -0.0001321970708392512 0.0
0.002808247921531947 -0.00014265064597470116 0.0
0.00271974913762793 -0.0001574732557269388 0.0
0.002711050992709602 -0.0001812572614777492 0.0
0.0026429554564497085 -0.00016981054322837746 0.0
0.0003066662243371283 -0.0002920451517407154 0.0
0.0031510063873652406 -5.633564034819574e-6 0.0
0.0038181605190455788 7.566172974321768e-5 0.0
0.003665473329683937 8.146128310881758e-5 0.0
0.0001889494464994207 4.534626873181215e-5 0.0
0.0003915269223732116 9.953193704392049e-5 0.0
0.00037000503321864644 8.340313981275594e-5 0.0
0.0032110127714060853 -9.578855909623986e-5 0.0
0.0004006713967357045 -0.0003418206242303598 0.0
0.00046681063127203655 -0.00040084822035100397 0.0
0.0005088372886486155 -0.0004146245167703322 0.0
0.0005045638434983396 -0.00038017864759229327 0.0
0.0005492536324053325 -0.0003830607902031495 0.0
0.002036488558874451 -0.00012336703891284995 0.0
0.0002343663889383158 1.8267950441293742e-5 0.0
0.00097850972410254 -0.00027945200676465125 0.0
0.0007993190673942971 -0.00027143522911330146 0.0
0.0022070201468693605 3.535215743066167e-5 0.0
0.0005025235152596054 0.0002223857324147012 0.0
0.003522652847505583 -0.0008503151911694151 0.0
0.003033251710476798 -3.650354210142935e-5 0.0
0.004756118100065986 -0.0002576214618362181 0.0
0.003789430995528998 -0.00020452301145003698 0.0
0.0036701446079636852 -0.00021405524300764016 0.0
0.003628386429201052 -0.0009287727574904019 0.0
0.004910155207164614 -1.080390700357054e-5 0.0
0.004820536279355735 -2.74262630731591e-5 0.0
0.004840194563545266 -3.617681409829887e-5 0.0
0.00480399869461497 -1.6115202592990666e-5 0.0
0.004734582236808828 -5.031546902572651e-5 0.0
0.004791203789790794 -4.043790453377507e-6 0.0
0.004683693375643521 -1.6546123701260105e-5 0.0
0.004706616646608728 -3.438434262172044e-5 0.0
5.1595853543158295e-5 -3.2927102269577706e-5 0.0
0.004946956360125537 -3.051871086608135e-5 0.0
0.004886457110204431 -5.8562747563262025e-5 0.0
0.004922426327651382 -3.225451485187448e-5 0.0
0.004892383094154552 -6.284214606369623e-5 0.0
0.0029690753710055607 9.53395167126364e-5 0.0
0.003795964663649669 -0.0008503103037649269 0.0
3.917231399852413e-5 -3.545877903213827e-5 0.0
0.004959055020110884 -3.299543821476621e-5 0.0
0.0015843538405701794 0.00020154191228280552 0.0
0.004016286795486856 2.4209385507238455e-5 0.0
0.001355056053704277 1.2861610698608051e-5 0.0
0.0014620788662636209 2.694212215616391e-5 0.0
0.0014547395153323467 6.909414296949688e-5 0.0
0.001465947028171348 -1.0732737654740216e-5 0.0
0.0015586213630858067 -2.096426645103983e-6 0.0
0.0015787033139829354 3.504843671111536e-5 0.0
0.0015641488795218978 7.936323729577894e-5 0.0
0.0014548318525803064 0.00010885776226002171 0.0
0.0013581142989820937 0.00014251789147307696 0.0
0.0013731867169574257 -3.2418020823072975e-5 0.0
0.004245994296126126 -0.0006300355725973055 0.0
0.004896439430851335 9.252986948469201e-6 0.0
0.0020564226519603893 -0.0009725115132413886 0.0
0.0006487038915516387 -0.0006087737723133927 0.0
0.0022694902345129315 -0.0009461721122747214 0.0
0.001735839486624773 -0.0010101611129198164 0.0
0.0017377592425716825 -0.0010591004762279012 0.0
0.002350500319282261 -0.00016163139849064686 0.0
0.0032156945675186066 -0.00016820858996591516 0.0
0.004329300237212522 0.00014992028434941766 0.0
0.004387067047408297 0.0001243236714800541 0.0
0.004255499983176587 0.0001310891702418614 0.0
0.0003023567076975274 -0.0001476844733476149 0.0
0.0006033499968185265 -0.0005923252286723067 0.0
0.0014687156732542273 0.00033413913291791567 0.0
0.0013201925344922824 0.0003423697994461272 0.0
0.003580901236354185 0.0002363423513910157 0.0
0.0017539653969882401 0.00026569047643346284 0.0
0.004552334165104757 -0.0003422758448050162 0.0
0.0022502010437407574 -0.0007843990254919026 0.0
0.00344139529779918 0.00019900119546164513 0.0
0.0035563518084545027 0.0002298869827596894 0.0
0.0014763287198337448 0.0001707771022096358 0.0
0.0012151898039059865 -0.0009388161194499727 0.0
0.004526480375696886 -0.00039279236515714697 0.0
0.0007216372687770382 -0.0006087491105025387 0.0
0.0007665775204450509 -0.0006505605665939104 0.0
0.000741142863258341 -0.0006633807316315897 0.0
0.0011701142177834277 -0.00027353182753761876 0.0
0.0027823539583645886 -0.00019842667604322612 0.0
0.0031225342267313673 -0.0001257335522281462 0.0
0.0018769629815825087 -0.00019976691433767888 0.0
0.00196532157556549 -0.00022277541487894094 0.0
0.004798266742206073 6.359529367509225e-5 0.0
0.004563095355963326 0.000136636098022561 0.0
0.00020301134160536066 6.615094299595217e-5 0.0
5.0706096980663916e-5 -3.6382544403818045e-5 0.0
0.0022719071702300042 -0.00021771492425396122 0.0
7.249781734963526e-5 -2.0657324492707646e-5 0.0
0.0001771420218437347 -4.142942158772155e-5 0.0
0.002242776742939875 -0.0009085285957906934 0.0
0.003183000699955847 0.00020295457215395955 0.0
0.0017827773313949635 0.0002464048297361239 0.0
0.0030939795592093895 -0.0004598864424741804 0.0
0.002284053686790073 -0.0001280672685595909 0.0
0.00403709352506341 -0.0004121392491627331 0.0
0.004698921280219261 -0.0002592429402083583 0.0
0.0014804608338463753 -0.0006826132133319282 0.0
0.0014856040162337322 -0.0007268163162685429 0.0
0.0014243645470568714 -0.0006854275088586559 0.0
0.001361101965950844 -0.0006446565964857745 0.0
3.9969968483261764e-5 -3.948293794172347e-5 0.0
7.632007715485565e-5 -7.536247129188378e-5 0.0
8.597253857873182e-5 -7.734075072456299e-5 0.0
0.0012716958657500717 -0.00045352615002089143 0.0
0.0012013925631764357 -0.00045999463416215874 0.0
0.004950998452092135 -3.176812439923555e-5 0.0
0.0027173365751464325 -0.0011423955779706456 0.0
0.0026677507646412544 -0.0011177054809736204 0.0
0.0026623444098596836 -0.0011706412783237254 0.0
0.0026123008838897428 -0.0011448236496292364 0.0
0.0025558102186774723 -0.0011691187182937752 0.0
0.002554712569385883 -0.0011170279149371575 0.0
0.0026712361753762656 -0.0010655217298814524 0.0
0.00345692660525738 0.0002254223409626743 0.0
0.0005778633584544194 -8.000770933768825e-5 0.0
0.0006728522265755094 -0.00013998705595042254 0.0
0.0005831416745873076 -0.0001414207653619706 0.0
0.0031739776177756116 -0.0004397736640968096 0.0
0.0009479858422509136 0.000293058880673443 0.0
0.002533588999546079 -0.0004477400625713936 0.0
7.133496231418174e-5 -3.2807222754814e-5 0.0
0.0015384529169787259 -0.0010056400548411764 0.0
0.001486271575206664 -0.0010042521938954676 0.0
0.0014975587319052712 -0.0009642860259616235 0.0
0.0017320048425725535 -0.0009613468514263803 0.0
0.0014823936517706314 -0.0006332732560483335 0.0
0.0006449839196361512 -0.00029527193705260494 0.0
0.00036888904378661974 -0.0002332410871587024 0.0
0.004925228125272782 -2.0403698909418588e-5 0.0
0.004860365435250139 -4.127750205985826e-5 0.0
0.0009535739640843538 -0.0007595298462169331 0.0
0.0011553485845359332 -0.0008437726120862321 0.0
0.0011092459481940441 -0.0008493547569791467 0.0
0.0010539926797293675 -0.0008034444417991354 0.0
0.001060756962555682 -0.0008508009263282795 0.0
0.002993597871696301 0.00021387459477246803 0.0
0.0019576255234852406 0.0002446886263643927 0.0
0.0032829194026793443 -0.0010024755590580462 0.0
0.003328144252534534 -0.001019121121369345 0.0
0.0033843812938583596 -0.0009823692429839926 0.0
0.0032632445254272605 -0.0010633921047365981 0.0
0.0016042544768483063 -0.0006744844282043342 0.0
0.0028772227042125637 -0.0008380609338104962 0.0
0.0017837999137198489 0.00025989142834921563 0.0
0.0020253541690826342 -6.664106164165551e-5 0.0
0.004960640619921435 -3.479616952823229e-5 0.0
0.004923359420166527 -6.840975255268419e-5 0.0
0.00490731648399892 -7.517136957975988e-5 0.0
0.0010077624103158973 -0.0008056625710676236 0.0
0.0009636351429120093 -0.0008052330916083735 0.0
0.0014642433250771835 -6.72524879436515e-5 0.0
0.0013042331946942402 -0.00065459979780497 0.0
0.004663399581895092 -0.00021900532613444238 0.0
0.003803370827703631 0.00027507255086105584 0.0
0.002260683315391256 -0.00026585787593181985 0.0
0.0023292010018203632 -0.00025422491807602975 0.0
0.0030021550008365156 0.0002416156451230955 0.0
0.003734262149870115 -0.0007269586120273838 0.0
0.002186656122380339 -0.0008009668352603947 0.0
0.002188983550268125 -0.0008463160527759332 0.0
0.0005277270876597162 0.00010586769453768598 0.0
0.0011907338256920397 -0.0006633004175410832 0.0
0.0011334721080179823 -0.0006607949247727777 0.0
0.0010717159054644783 -0.000618173319894547 0.0
0.0010778688505339747 -0.0006624150195708445 0.0
0.0009115000683182827 -6.56931857551284e-5 0.0
0.0009149307944990146 -2.967765379415224e-5 0.0
0.001023785582763712 -0.00013553008966536983 0.0
0.0033124567881659462 -0.001074840510288704 0.0
0.003201543409215388 -0.0008241615253606925 0.0
0.003131914121842023 -0.0008587521793928118 0.0
0.003194947479949748 -0.0008780741403341143 0.0
0.003125127913571434 -0.0009139734581830318 0.0
0.003168553841955878 -0.0009283211940871391 0.0
0.0032604113136351955 -0.000835291026498009 0.0
0.0033162500377969676 -0.000842562363255508 0.0
3.378431915286674e-5 -3.893645033159139e-5 0.0
0.004966774885273238 -3.500871114365615e-5 0.0
0.004159011930776705 -0.0006276950921076151 0.0
0.0029825479082265867 -0.0010872733664155907 0.0
0.00461450034290617 0.00010859690250606262 0.0
0.002888180193317006 -0.0010500441012213872 0.0
0.0028754220875388554 -0.001101155635868604 0.0
0.0037849383987244058 -0.000495113223939441 0.0
0.003381492821377049 -0.0003770339669571245 0.0
0.0033124625997628474 -0.00036682429089880285 0.0
0.0015682467657209553 -0.0009015737918709209 0.0
0.0009050108845652319 -0.0005742086954070374 0.0
0.0037451315822764992 -0.00027896914454377935 0.0
0.003997363220611342 -0.0006728086706024658 0.0
0.001740642686456786 -0.0005176186133614251 0.0
0.0018061342439339944 -0.0005077305076465781 0.0
0.0018038211295676948 -0.0005461935613321343 0.0
0.0018099672730417058 -0.0004708283453781783 0.0
0.0017387069817727625 -0.0005567408364982418 0.0
0.0018699695556923135 -0.0005016710750275651 0.0
0.0018778017380385837 -0.000467462479633132 0.0
0.001893999086383464 -0.00043009359238266944 0.0
0.003753129338029895 0.0002401002623642604 0.0
0.0003838257735195749 0.00011035897140966067 0.0
0.0036244192146937006 -0.00018452086074185193 0.0
0.003957502050950346 -0.00042161191650418544 0.0
0.0006924331376753339 0.00023934949658340523 0.0
0.0006995479038438724 -1.2966184015540802e-5 0.0
0.0010226276785287177 -5.8280232829515085e-5 0.0
0.0007895830234092877 -0.0005271630557652121 0.0
0.0017389870241213581 -0.0004431743417280606 0.0
0.001344810320983386 -0.0003756605394666223 0.0
0.0014393769748200411 -0.00037299315514510684 0.0
0.0015000585162899293 -0.000410283818740169 0.0
0.0024403895749211904 -0.0011113358770038844 0.0
0.0024986753855442906 -0.0011399803319680998 0.0
0.002496571196781133 -0.0011970952154894024 0.0
0.002556751819480302 -0.0010656398518535705 0.0
0.0039293214956569195 -0.0007126413648313898 0.0
0.0018028733441512916 -0.00027253977872801895 0.0
0.003670440165086149 -0.00044149899747045966 0.0
0.001728105277142227 -0.0009133577803776962 0.0
0.0026740887976665407 -0.0010146371453026721 0.0
0.0018377913772198945 -0.0010840222615864628 0.0
0.004593186217514377 -3.4571084799227266e-6 0.0
0.0024674436708760207 -0.0004647576070924679 0.0
0.0005715436657233016 -0.0002541726836248062 0.0
0.0018735153320582597 -0.0007403007108108631 0.0
0.001935810981441477 -0.0007718107342810432 0.0
0.001745394986106816 -0.0006777227696761841 0.0
0.0018922704880875046 -0.0009691491276610396 0.0
0.002978642958941552 -0.0006290733120665733 0.0
0.002905925237013744 -0.0006547981793521484 0.0
0.0029718587643909125 -0.0006718548915751875 0.0
0.003582672335630122 -0.0001550606779756081 0.0
0.002249642717273334 -0.000740972810349016 0.0
0.0016139226661194526 -0.0006147976481177818 0.0
0.00286138693137137 -0.00026555201389186233 0.0
0.002847538809087857 -0.00029443256268798476 0.0
0.000614700941602839 -0.00042737168163601435 0.0
0.0013152073640929733 -0.0008535639489251755 0.0
0.003400266527620276 -0.0009268860893734916 0.0
0.002825306545784797 -6.49965633521164e-5 0.0
0.002630697498018461 -0.0007995358341139912 0.0
0.0025645850054611258 -0.0008219219736960167 0.0
0.002561949810191057 -0.0008694001700091786 0.0
0.002498808012635339 -0.000843178431527175 0.0
0.002497595807757083 -0.0008910772263750371 0.0
0.00262375957499465 -0.0008935710478362479 0.0
0.0030490318040369497 4.321776279052503e-6 0.0
0.002055862758501825 -0.0006256116225855669 0.0
0.0019938229485917357 -0.0006387703425163229 0.0
0.0028448637796962056 -0.0005963630412564629 0.0
0.0016806362126430233 -0.000686206581043868 0.0
0.002819903744017547 -0.0011323925666352275 0.0
0.002121951481823675 -0.0007728225410547318 0.0
0.0025017512564152215 -0.0007972862597493594 0.0
0.0035728655488987803 -0.0009677822992684959 0.0
0.002261212403016965 -0.00047576572846537186 0.0
0.004721661059300004 -0.00012479808922078155 0.0
0.0025098535603439126 -0.0006686430917103723 0.0
0.0011157405594741227 -0.0004934348831208751 0.0
0.0021372320526948387 0.00024143200745010732 0.0
0.003547775248238786 -0.0007974719169688105 0.0
0.0045165075742429565 0.0001091063645712695 0.0
0.0007264643970990498 5.161280531073796e-5 0.0
0.0007515650164445489 8.241697505251635e-5 0.0
0.0008364999625187233 3.72792552721904e-5 0.0
0.0008822433151666774 7.40947430124974e-5 0.0
0.0009662845922390003 5.049319242823756e-5 0.0
0.0035528130583505693 -0.00022396141153385106 0.0
0.002053675508043899 -0.0011241925567518274 0.0
0.002330466063614782 -0.000462206379567442 0.0
0.0001422322432234018 -4.4730501082455816e-5 0.0
0.001568452783550738 0.0002649573348475649 0.0
0.0014593385680924378 0.00028167493184701447 0.0
0.003357506872729337 0.00012935411765284676 0.0
0.0020004941634493498 -0.0009401520763220787 0.0
0.0022845475635102294 -0.0010778484611538087 0.0
0.0019758092557625975 -0.0003122755553449507 0.0
0.0027780763941444827 -0.0005796150429446661 0.0
0.0027053730125133767 -0.0005604651263280085 0.0
0.002715565085117357 -0.000521301794982424 0.0
0.0028460668568599306 9.250865594403798e-5 0.0
0.0018807106320301561 -0.0007849137068369681 0.0
0.001268204882138323 -0.00034193291809589627 0.0
0.0019240128079988069 -0.0005697145983961804 0.0
0.00024034449723005547 -0.00017783485021848132 0.0
0.002633235360013285 -0.00025458464810945367 0.0
0.001044198096994627 -0.0007553441822070586 0.0
0.0026496745090789707 -0.0005888095098018867 0.0
0.001577936733820276 -0.000950349004489572 0.0
0.0035294641680767387 -0.00038947154390273265 0.0
0.0023882677326294436 -0.0005872113442412755 0.0
0.0024343761376951307 -0.000863347330903442 0.0
0.004420220810591153 -0.0003396024782730769 0.0
0.0009146884587360557 -0.0007595611667350026 0.0
0.004790807720038661 -0.00023694573675766038 0.0
0.0019809816453882642 -0.00044376237676926493 0.0
0.0023819009993664942 -0.0006651975397923205 0.0
0.0004215244870841969 -0.00017675892149823124 0.0
0.004403846810750568 -0.0002488355843244299 0.0
0.0028033356035827572 -0.0009119494137597749 0.0
0.00014071433420439488 -5.4380879854680275e-5 0.0
0.0025509059480362745 -0.00035991356122960934 0.0
0.0025486864495258836 -0.00038562574352486766 0.0
0.004687322274268609 -7.439394214192547e-5 0.0
0.0027684927004971312 -0.001163848163108227 0.0
0.000853247389498558 -0.0005728389640722866 0.0
0.004842267545226172 -0.0001249449646037065 0.0
0.0026460737972822572 -0.0005061057515432189 0.0
0.002455647616367472 -0.0005708972854436566 0.0
0.0030834038179035172 -0.0007977734808173803 0.0
0.00301840889596914 -0.0007813332024042261 0.0
0.0028205800939870257 -0.0008171283716751113 0.0
0.002327870074022718 -0.000495852983598596 0.0
0.002882006288490866 -0.001182896378814664 0.0
0.0031093800932944574 -0.0011447194889592407 0.0
0.0021959931689160246 -0.0011899853712827042 0.0
0.0023694243529744216 -0.0012047682440231332 0.0
0.003442606698722969 -0.0010522862309026617 0.0
0.0034262039648232647 -0.0010036508119001541 0.0
0.0017429397477989454 -0.0011055356124107212 0.0
0.0013637998217436312 -0.0010018199268398826 0.0
0.0029943766330614986 -0.001166284045849413 0.0
0.0018610214354211924 -0.001137117098991269 0.0
0.002100815045113154 -0.00038797896690982193 0.0
0.004298454679705496 -0.00015755553500301726 0.0
0.003566364447890788 -0.000605995701546945 0.0
0.0035456437855663115 -0.0006506612730417321 0.0
0.0018035441141167894 -0.0005878732697648499 0.0
0.0030653990665901808 -0.0005248766788830654 0.0
0.0024402349892706492 -0.0009556948712267642 0.0
0.0012403971522891334 -0.0007881177027766813 0.0
0.0009250939425246838 -0.00045295405491342427 0.0
0.0021212092367624046 -0.0005735456397269926 0.0
0.004387817257643298 3.391446002460858e-5 0.0
0.0016765488721675432 5.156406910804021e-5 0.0
0.0024003899291442617 -0.00044800837932151567 0.0
0.0028410026717788114 -0.0006395156748100119 0.0
0.00031781205406831336 -0.00032514400583038904 0.0
0.0003296919563572145 -0.0003594875817087021 0.0
0.0021207703937048904 -0.0008625579012498248 0.0
0.0017743734951503236 -0.0008106595109613248 0.0
0.002575248788633151 -0.0006897014717756957 0.0
0.004650618628059883 8.672510182615518e-5 0.0
0.002728559043023591 -0.001037738545034215 0.0
0.004917660021517272 -8.602133549118936e-5 0.0
0.004889608652573112 -0.00012286755874067957 0.0
0.001373768171028701 -0.00022138624176377535 0.0
0.002187763961909884 -0.0006346391860784984 0.0
0.0023128591746865023 -0.0007667045450319837 0.0
0.004772082933968324 1.7265919064423634e-5 0.0
0.0023281362949827285 7.465685043245685e-5 0.0
0.003380711722403021 -0.0008107121394577162 0.0
0.0034766513058818605 -0.0006851084647367738 0.0
0.0013393966949761024 -0.000951018846148775 0.0
0.003185556046223356 -0.0006315747818295331 0.0
0.0021884190009288803 -0.0005594206346027869 0.0
0.003334860329033463 -0.0005719302564230874 0.0
0.003322629738601567 -0.0006144991732853141 0.0
0.0034096851184556606 -0.0005415273434605188 0.0
0.0011103909414686775 -0.0008977992071506337 0.0
0.003927650504766721 -1.509172773184313e-5 0.0
0.0029202089175916486 -0.0011271799794160442 0.0
0.004158744276630428 -0.0006961496658310162 0.0
0.0037462044244538826 -0.0004464308933655559 0.0
0.0024238717781265386 -0.00033334196693287314 0.0
0.0031211711329107517 -0.0009690636893872246 0.0
0.0019404600791417548 -0.0008161472608781995 0.0
0.0020378239557698845 -0.0004765716430936702 0.0
0.004631535186005844 -5.715370879345999e-5 0.0
0.0010641947290307824 -0.00031415085380312013 0.0
0.0035874470706167704 -0.00025275933417304695 0.0
0.002385925655180737 -0.00021139050323590184 0.0
0.003133524422186634 -0.000536568979316305 0.0
0.004449403193304136 -0.00015667770117791408 0.0
0.0003700102110412941 -0.00018879243343597395 0.0
0.0036485617331527987 -0.0006651044385581279 0.0
0.002718720761803219 -2.9609463250401625e-5 0.0
0.0026932896083556035 -5.501046451753247e-5 0.0
0.003017690303113562 -0.000937299265866739 0.0
0.0027696516691031376 -0.0007074980199733737 0.0
0.0028563588721780787 -0.0009321253427771448 0.0
0.003720251797066465 -0.0007770213061468718 0.0
0.0036698641325550586 -6.540090504843071e-5 0.0
0.002353286289438528 4.791487208798735e-5 0.0
0.003333273957219826 0.00024828355950852894 0.0
0.004342420873996395 -0.0004260133312295761 0.0
0.004357357935403451 -0.0003874101971782571 0.0
0.002375216846374029 -0.0001142339343425161 0.0
0.001608132777002351 -0.0007972287288241257 0.0
0.003260819522456258 0.0002323094645166247 0.0
0.002366459038422599 -6.583311692842988e-7 0.0
0.0031738896761567244 -0.0006750025993985477 0.0
0.004852942707221821 -0.00013322708050266327 0.0
0.0008053884800022388 -0.000614977352890133 0.0
0.003045509860165962 -0.0003212175238224219 0.0
0.002377033324384259 -5.67622216607213e-5 0.0
0.0023728641371322558 -9.662662200016821e-5 0.0
0.0008326666857747092 -1.5948979762983797e-6 0.0
0.00436605665469 0.00017466078324031127 0.0
0.0025718971282487836 -0.00022192638789985344 0.0
0.004477647084869697 -0.0003265467359706115 0.0
0.0015477766875457973 -0.0007617094418665496 0.0
0.003872695196497735 -0.0008781013017007383 0.0
0.003972857269123163 -0.0008382589910138902 0.0
0.0013982611701756477 -0.0007887867077538055 0.0
0.0032935663549116985 -0.0007003149334576186 0.0
0.0021390079069057385 -0.0011838486721322862 0.0
0.0031230808897855784 -0.0001922538270253564 0.0
0.000873279361491982 -0.0007833338220511496 0.0
0.0025945600969615075 -8.72178461587658e-5 0.0
0.0027043002768705445 -0.00029815586678671546 0.0
0.002645431467413994 -0.00012213433536034833 0.0
0.002901771035818328 -0.0006993646040419803 0.0
0.003529837199486693 -0.0006943797213969056 0.0
0.0001131682283211832 -0.0001426754371669748 0.0
0.00019571442734290327 -0.00023944377009205476 0.0
0.000235252209272295 -0.0002830409205208116 0.0
0.004658309501233125 -0.0003712100551333631 0.0
0.0003181726004655107 -0.00037069291927090093 0.0
0.001435408278072721 -0.0007323511611601798 0.0
0.0006352385603390988 8.611424820397847e-5 0.0
0.004209074710619095 -0.0007095606778136192 0.0
0.000734111487814864 -0.0006974788943541868 0.0
0.000828069100019731 -0.0007570552210370396 0.0
0.004614697094581103 -0.0004090595914081536 0.0
0.004527414356657012 -0.0004856309410540059 0.0
0.0026842748359787966 -0.00038124568154436933 0.0
0.0019448803550669606 -0.0010044822848787943 0.0
0.00365411778662412 -0.00011044710928449567 0.0
0.0043017365395504655 -0.0006480973196115695 0.0
0.004347982967778487 -0.0006181543280198802 0.0
0.0006441564499439085 -0.0006417492270863702 0.0
0.0004412296802439671 -0.0004809137689151244 0.0
0.004439456455625954 -0.0005524960927055191 0.0
0.004473875272953902 -0.0004900141212241488 0.0
0.0030285838092321397 -0.0011110884515160677 0.0
0.0005268539824728829 -0.0005531897434472536 0.0
0.003705497850763152 -0.0009618446332994517 0.0
0.0009215363756841842 -0.0006209269043184999 0.0
0.004159574713568633 -0.0005232033204880724 0.0
0.0014255622596269226 -0.0009786285368742983 0.0
0.0038911328052344497 -0.0007011053479525548 0.0
0.00390800120977088 -9.370194508796426e-5 0.0
0.0014100303441546148 -0.0005182138733326474 0.0
0.0009374515565919053 -0.0004929673027184175 0.0
0.0018318682157676275 -0.0008437315228106473 0.0
0.002444868179426156 -0.0006880578715924206 0.0
0.004147560606391333 -0.000298108582276915 0.0
0.002612979143593141 -0.001091808304471392 0.0
0.002639379444977573 -0.00023200862390478 0.0
0.002610107670073369 -4.8288334890781795e-5 0.0
0.003356717407219703 -0.0004908590119897592 0.0
0.0038874984156644543 -0.000597722565593603 0.0
0.0013410031415366677 9.451417863697355e-5 0.0
0.0031523130370494186 0.00018178869034020647 0.0
0.0015382339871824102 -0.0005058868456175742 0.0
0.004206080865126135 -0.0004360528284961116 0.0
0.0009618248885800043 0.0001542375581952492 0.0
0.0008208556324095595 0.000117321585003167 0.0
0.0021211283594780484 -0.00014177812799488927 0.0
0.004351541487070842 -0.00019297856036587044 0.0
0.0022949626282251956 0.0001450827645194235 0.0
0.0025623052151696885 -0.00028518891536956007 0.0
0.004605143279457944 -0.00018855609570024925 0.0
0.0012895096848074125 -0.0005274433003916251 0.0
0.0015905315889116762 -0.00031648897133268315 0.0
0.0036067632288549123 -0.000480947768611458 0.0
0.004001923929081507 -0.0005605925785597735 0.0
0.001114138286270109 -0.0005344373749072321 0.0
0.0006375241488238499 -0.0004722223980521797 0.0
0.003837896800057137 -0.0005925414875730535 0.0
0.0016168732567880628 -0.00019541987275684315 0.0
0.003779085056146699 -0.00032882516115116125 0.0
0.004927104948863657 -7.00939138600357e-5 0.0
0.0041024116653196035 -0.00014384627749288394 0.0
0.0026517485595732955 3.830541789369638e-5 0.0
0.002742027147849782 3.123224652609101e-5 0.0
0.00310935744236459 -0.00039541540945646 0.0
0.004496514300167712 -3.800860048514527e-5 0.0
0.004420684724297532 7.756266562163395e-6 0.0
0.0001885077294418224 -0.00016399927717402637 0.0
0.00013915204571247168 -0.00012082555657073592 0.0
0.001999266150911461 -0.0009881855621220357 0.0
0.003247343613957627 -0.000644768207366943 0.0
0.0018122523767489412 -0.0003347796491363432 0.0
0.0018091194135448855 -0.00030388410908498885 0.0
0.0017696398829044706 -0.00011761613373085397 0.0
0.0025611723496061925 -0.0009175697468436592 0.0
0.0029700184444184574 -0.00034444710061753243 0.0
0.000785311797604913 -0.0001390638997882763 0.0
0.0034809079919813192 -0.0002628835183190059 0.0
0.0026887286001121644 9.605489508577558e-5 0.0
0.0021212127654525324 -0.0006111686873216196 0.0
8.449048188710505e-5 -1.066878203124359e-5 0.0
0.0024474577512883047 -0.0006472225369029191 0.0
0.004583013467143923 -0.00021814434341500756 0.0
0.003921847825584819 -0.000336355605203048 0.0
0.0037175391541340945 -0.00024403731567633661 0.0
0.004395472788457523 -0.0002804149958567997 0.0
0.0032087565268000685 -0.00027512716326015264 0.0
0.0017316290400523847 -2.469306561191914e-5 0.0
0.0005652201440303087 -0.0002237103559285603 0.0
0.002178361922842172 -0.00029776730769195335 0.0
0.0027464630730299707 -0.0003952221704260754 0.0
0.0007048700042377474 -0.00040195103989671945 0.0
0.0023118673981836237 -0.0012013421726267913 0.0
0.0031044899456841883 -0.00027173434947379223 0.0
0.0014957997917119802 -0.0007705064472472939 0.0
0.0033619216710228474 0.00022787190011609477 0.0
0.00421418983902919 -0.00029663488178689886 0.0
0.0016044658947605307 -0.00016288217061964156 0.0
0.003693898574636111 0.00023338996496398385 0.0
0.002835766791479629 -0.00032292618103124584 0.0
0.0024503799336013715 -0.0006080360296715232 0.0
0.0008829069373374896 -0.00017071810258623377 0.0
0.0016643880207728734 -0.00034909900818900526 0.0
0.002107552633452405 0.00023208813540116232 0.0
0.0006553659880903629 0.00011210043618105151 0.0
0.003732311651257249 -0.0004892968553880669 0.0
0.0009732639610091189 -0.0003784637314326619 0.0
0.0025179616567133417 -0.0005910520287890269 0.0
0.004143678924345527 0.00010597902699722432 0.0
0.0035424876781595055 -0.0004744227910446034 0.0
0.001623074656374314 0.00016607034748240067 0.0
0.00029400802804208147 -8.669305653089759e-5 0.0
0.0012655118533037044 -0.0003052211044395991 0.0
0.00011194142149258524 1.1075947961559532e-5 0.0
0.00023423136779873277 4.826253803688801e-6 0.0
0.0035206228501797067 -0.00043610915044580404 0.0
0.0029101865308853894 -4.176874487635849e-5 0.0
0.0016285622607679472 -0.0010880470351501222 0.0
0.0011325831595860383 -0.0007076638767349177 0.0
0.004105083222109066 -0.00022825228813998133 0.0
0.0005454103897665432 -0.0005386082650826464 0.0
0.0034174015977997247 -0.0005021737168146018 0.0
0.0028647113957157152 -0.0008852633207931401 0.0
0.004074011272981158 0.0001633863553909714 0.0
0.0014604282067707335 -0.0009193379940322552 0.0
0.00446023619937861 -0.0004438821377770319 0.0
0.0025651465883469293 -0.0002641931490384396 0.0
0.0007962568552638842 -0.0007007787525437352 0.0
0.003485256590624154 -0.0009992399010464751 0.0
0.0008175759774284916 -0.0004501450768596976 0.0
0.004704612858139679 -0.00020506662459521269 0.0
0.0005805771507920735 -0.0003174285958488302 0.0
0.0034835408712191812 1.125286152305324e-6 0.0
0.003213342232254848 -0.00024296945382518704 0.0
0.0026127769059901542 -7.360757189956708e-6 0.0
0.00011408316994790854 1.706496861333405e-5 0.0
0.0018692944977891852 0.0002595584256978684 0.0
0.0013524047672216876 -0.0001832680382865115 0.0
0.004011400175658006 -0.0007778600987618898 0.0
0.004066215412905603 -0.0007953213777563789 0.0
0.0003737902255204629 -1.3987755389379046e-5 0.0
0.002914113019611055 -0.0003057778807351949 0.0
0.0011837360163305815 -0.0007070473849812654 0.0
0.002060072849036031 -0.000664161915554675 0.0
0.00011581311135909669 -0.00011496465381800093 0.0
0.00027518607354681633 -4.9907830784666174e-5 0.0
0.0028035453068572455 -0.00043888400544443034 0.0
0.0025854644195435644 -0.0005721865237400731 0.0
0.00017937653265373438 -2.8268143368573586e-5 0.0
0.00048150990464178425 -0.00018358854905880446 0.0
0.0003587758335031837 -0.0004087331081422043 0.0
0.004181857359248608 -0.000477877956925093 0.0
0.0033069530881728137 -0.0006570280063111123 0.0
0.0005756262878539219 -0.0004274635463824897 0.0
0.0038548558452093764 -6.741779566778456e-5 0.0
0.0035502907149302597 -9.155026610694562e-5 0.0
0.00025188541712563317 -0.0002847624803285554 0.0
0.0020626053150024346 -0.0001967064677769292 0.0
3.02905148406159e-5 -3.9463435230424466e-5 0.0
0.0049687104176089 -3.846782894351855e-5 0.0
0.004833970731395668 -8.88393855724889e-5 0.0
0.0014730086688914982 -0.0010422541210478216 0.0
0.0038675719966193354 3.95481101153398e-5 0.0
0.003323696359479893 -0.0007988188152102142 0.0
0.0006452893974188135 -0.00032707661314377624 0.0
0.003164782855264372 -0.00113176027772303 0.0
0.0007026243478508897 -0.0001725527592096444 0.0
0.004337950498364674 -0.00022457836000614283 0.0
0.001994868735975221 -0.000676603206038335 0.0
0.00017661247619261898 -0.00014269015647423364 0.0
0.002295433826192874 -6.450886623609274e-5 0.0
0.002294812018471198 -8.5615646502449e-5 0.0
0.004544616747900705 9.077117764157142e-5 0.0
0.0028375968983761182 -0.0006817621613965111 0.0
0.00035728795199584167 2.0143498343485578e-5 0.0
0.0044219872855473345 -0.000535822252381132 0.0
0.004593909228750204 -0.00014354073902374606 0.0
0.0035231758663410583 7.928687539909655e-5 0.0
0.0036122809616512524 3.9628546839912776e-5 0.0
0.002161116174690865 -0.001036638443712516 0.0
0.004876679345266194 -0.0001490441616212489 0.0
0.0021216902528023284 -0.00016503805287850464 0.0
0.0004266999148520979 0.00014231880524763068 0.0
0.0005608545375207128 -0.00046582766987706905 0.0
0.001450737247694405 0.00020633269270505636 0.0
0.004423992605252645 -0.0004472370382055149 0.0
0.0002504370876690546 4.3106812239780484e-5 0.0
0.00263746497259493 -0.0002106065902909527 0.0
0.003935944704823036 -0.00029534425255182706 0.0
0.003178132724243261 -0.00040940568263033507 0.0
0.004898196328708621 -6.64624384831821e-5 0.0
0.00010742090776567422 -6.160571380215268e-5 0.0
0.004605983333167443 -3.5387760583535076e-5 0.0
0.004912722875911287 -6.52340910037233e-5 0.0
0.0024422039627908527 -0.0011587669520368709 0.0
0.002883582335527893 -0.00042208568355004783 0.0
0.0015836426237258211 0.00026711706793603997 0.0
0.0011767010310247286 -0.0005310527792292925 0.0
0.001562607531824175 -0.0002732514151522985 0.0
0.002051959451827638 -0.00021972361983287278 0.0
0.0009784864976371877 0.0001288422823944327 0.0
0.0018262212627739504 -0.0007967721665559957 0.0
0.0008967869270565107 -0.0001336812098839882 0.0
0.0005721931715840497 0.0001389541119656822 0.0
0.0023438829435821745 -0.00037371527383958783 0.0
0.0035966372039565125 -0.0006585209877275571 0.0
0.00424946289023016 -0.00043731749126502063 0.0
0.0016499178169765635 -3.118366876078743e-5 0.0
0.0010850396953075718 0.00022558969703292243 0.0
0.0027212570275328397 0.00013490096610161754 0.0
0.0014414360102076383 -0.00017721508875542718 0.0
0.004026870529612957 -0.00044840235920112396 0.0
0.0013333523626963902 0.0002648250014291564 0.0
0.0011974836819048924 0.0002598390858917831 0.0
0.0027771323290240292 -0.0006219688458636101 0.0
0.0027942044799993335 0.00021969735079829287 0.0
0.0019649987170175425 -0.001158927751119214 0.0
0.0038129441468494865 -0.0009156677285270985 0.0
0.0013433685822503807 -0.000486405806692864 0.0
0.003550181880734381 -0.0010217452667942832 0.0
0.001074030414037615 -0.0001741791017980419 0.0
0.004098470827035688 -0.00044067006818614493 0.0
0.0019291395398666892 -0.0006496248098375559 0.0
0.004333616289609942 -0.00029010421527949054 0.0
0.0011812208793423947 -0.0004943289795300491 0.0
0.0019554624703716607 0.0002559684125902998 0.0
0.001760546454638522 -8.695597992260183e-5 0.0
0.0022548516605715605 -0.0008693382051874834 0.0
0.002380313956109684 -0.000272667419530442 0.0
0.0022942398968857016 -0.00010543333120074321 0.0
0.0013730608220322983 -0.0006916454152657676 0.0
0.0013887095083323189 -0.0007414325499984287 0.0
0.0008909332128795725 -0.000340520223934464 0.0
0.0011415371728485742 0.0003580956097638999 0.0
0.002336183764697012 -0.0010107309714406981 0.0
0.004364141090369068 9.90430229623046e-5 0.0
0.003954918703127681 -0.0005571305066246292 0.0
0.002752080652080996 6.0830260665869964e-5 0.0
0.001283081664378989 -0.0004913213599152907 0.0
0.0034533590288575457 -0.00038160055905929463 0.0
0.00293006176345057 -0.0008573695837579546 0.0
0.001925862276060745 -0.0006086949217218228 0.0
0.0046527998758175 -0.00017876360924466396 0.0
0.004872688014272525 -0.00010862598595528821 0.0
0.0017328786076624455 -0.0003136460756152704 0.0
0.0033662394250142647 -0.0010370186620720884 0.0
0.004522236304277475 -0.0004613953382525613 0.0
0.00021877744787398944 -6.125479722021728e-5 0.0
0.0011894322403445403 -0.0003104060683168007 0.0
0.001408830828825931 -0.0004820197277542742 0.0
0.004599397258881732 -0.0003984678824621671 0.0
0.0018183332189146517 -0.000749270916228022 0.0
0.0031561187415783316 0.00022646590837731932 0.0
0.0004601262260251287 -0.0004718584077149033 0.0
0.002916864115686684 -0.0005045683410998621 0.0
0.004228846832102908 -0.00039681204359104535 0.0
0.003377211284994971 -0.000625321868401794 0.0
0.004731200952408303 -0.0001726654315910455 0.0
0.0034380762728301404 -0.0009453613902058245 0.0
8.660863375528701e-5 -5.260232463548909e-6 0.0
0.0022290456508182645 -0.00035931556556411596 0.0
7.959895011228838e-5 -6.515622024013739e-5 0.0
0.001539962709345007 0.0001436044818454221 0.0
0.0010383525455836173 -2.7078243519510574e-5 0.0
6.896046630037733e-5 -8.272797947040849e-5 0.0
0.001263801822319979 -0.00097131444887062 0.0
0.0011673616997519476 -0.0008886350748590688 0.0
0.0021252510324913025 -0.00012115819480941356 0.0
0.0021164048432836735 3.2264730161007395e-5 0.0
0.0008435935852375335 -0.0007307046283947363 0.0
0.0015227003341021063 -0.00017109405311990835 0.0
0.0029700502382784947 -0.00031989668056218583 0.0
0.0008680381127874168 -0.00045094627274730014 0.0
0.0033057992850664022 0.0002515055529546329 0.0
0.003000725222389462 -0.0008277886701783128 0.0
0.0006356062201744494 -0.0001758278240014722 0.0
0.00035470269220658635 -0.0003415466130296617 0.0
0.0025717737767535723 -0.0001814912554495872 0.0
0.0001625144464228667 -0.00019088934278341447 0.0
0.004776747866905631 -5.8180396137538634e-5 0.0
0.0016630157814499673 9.004495787788509e-5 0.0
0.0023575873698887164 -0.0003431333218094474 0.0
0.004368021377628369 -0.0004937576915466012 0.0
0.004739650684729783 -0.0002940937770015566 0.0
0.003950475623058948 -0.0002544520129680824 0.0
0.0023293780212492532 -0.0009623912400289905 0.0
0.0030288862772102276 -0.00047726873976864075 0.0
0.004279476737099896 -0.0006320738562244388 0.0
0.002547780956524238 -0.0012138583332073345 0.0
0.004172242735185957 -0.0004005576867428259 0.0
0.003390133401197226 -0.0005835401380805061 0.0
0.001755049005551043 -0.0007173688779205439 0.0
0.0029857683634331236 0.00023377031791737627 0.0
0.0018559476073901542 -0.0005757675025317668 0.0
0.0015416824323096438 -0.0009643186066611287 0.0
0.002316167559824895 -0.00028007987753997783 0.0
0.003930893066508606 -0.0008180489684968599 0.0
0.0008825746428657392 -0.00030686479902273254 0.0
0.0007008436373923577 -0.000648318339965442 0.0
0.0036114415890473573 0.0001131860258185528 0.0
0.0011218891085719449 -0.0003479516662661134 0.0
0.002900014856887392 0.0002233590963295518 0.0
0.0014260197310352661 0.0005141212403844778 0.0
0.003693709633714003 0.00036114749119737436 0.0
0.004320970443505736 -0.0002598684576764105 0.0
0.0023921451259634285 -3.9528346583783433e-5 0.0
0.0038612931046234024 -0.00029503085238473647 0.0
0.003075968969062214 -0.0009017744304536351 0.0
0.0032671995912610264 -0.0011113689376175597 0.0
0.0014758802656196044 -0.000474735365250728 0.0
0.0014319952399035622 0.00027186987831882164 0.0
0.0009701586438570969 -0.00031086832981642965 0.0
0.0010661010891421083 -0.0008891425631816971 0.0
0.002189836141898413 -0.00039893546401223765 0.0
0.00010974344583154401 -5.5691273481560795e-5 0.0
0.0008144209320268899 -0.0006701768713496759 0.0
0.0023876891079826113 -0.00014811486466827976 0.0
0.000275036590144782 -0.00021213109742189694 0.0
0.00028664983600066565 -5.692097679893214e-6 0.0
0.002638500499356977 -0.000557228807686887 0.0
0.002638839909216454 -0.0001908595874651598 0.0
0.004685594124594222 -0.0003243336294504521 0.0
0.002048407394929044 -0.00017399037167138606 0.0
0.0036173814990243234 -0.0006143425015575404 0.0
0.0026615612686954797 -9.509718269216573e-5 0.0
0.0006661568546634067 0.00013042347235121045 0.0
0.0008834188336224079 0.00010186076788455007 0.0
0.004799122732142087 -0.0001278605478028038 0.0
0.003072241594066931 0.0002298892645320917 0.0
0.0007129858643774626 -0.0003343916860829219 0.0
0.0030388204006407027 -0.00020373147775316872 0.0
0.0022820923361344856 -1.2728874046442415e-5 0.0
0.002616490278839877 -0.00027393137006493783 0.0
0.0007985933615612867 0.0002358525677371117 0.0
0.002657733846852556 -0.001215428820277893 0.0
0.004553858160283816 -7.793374076384229e-5 0.0
0.002593036809835029 -0.0004622642976029277 0.0
0.0025688090988225305 -0.00012433562359672262 0.0
0.003269308526717003 -0.00034859528599670987 0.0
0.0022117353130411883 -0.0001146385961034663 0.0
0.002604335599571654 -0.00042785763285760884 0.0
0.0012423296476989428 -0.0007544323387463505 0.0
0.003462352640652388 -0.0005517948029350325 0.0
0.0020517494710295195 -0.00031635758129909737 0.0
0.0025674154524251095 -0.00016294958685080267 0.0
0.004108013192237737 -0.0007768867612853623 0.0
0.0021901268765837627 -0.00027289397852288204 0.0
0.0030652272798309403 -0.0001492498570987825 0.0
0.002674251813721248 -7.606464255491979e-5 0.0
0.00037225468248211084 -0.00040162173853954805 0.0
0.003972750258781071 -0.0005216483882557008 0.0
0.002655259801567547 -0.00014584782847053661 0.0
0.001456261511207129 -0.0009625384502888357 0.0
0.0028957777730295535 0.00023357764182949716 0.0
0.00365783087811258 -0.0009882736030390098 0.0
0.004805800752476211 0.00010808453121378519 0.0
0.00020277347044068834 0.00011821804190218036 0.0
0.00213543546173854 -0.00041288992211810344 0.0
0.002861751054383725 -0.0011469020254959686 0.0
0.00178259810059974 -0.0010820645449139937 0.0
0.0020334442495162385 -0.0011718816231254935 0.0
0.0003682758786604396 -0.00016960700370860992 0.0
0.0036815773996084354 -0.0005860647393555256 0.0
0.001483349660374779 -0.00043806541013163846 0.0
0.0021150641878897227 -0.0002831147994998603 0.0
0.0016590807962576812 -6.079272766826805e-5 0.0
0.00210849876085977 -0.0011448544304812867 0.0
0.0036220181957461136 0.0002468539792677783 0.0
0.004600140745157031 0.00010532712571081778 0.0
0.003075707768055951 -0.0008645324671449346 0.0
0.002585452365999088 -0.0004999220928141753 0.0
0.0016489602928468137 -0.0007100568664851536 0.0
0.002769195476248881 -0.001209209618361537 0.0
0.0038320104825619473 -0.0005020391118105667 0.0
0.00031958787000671107 -0.00021083785697834632 0.0
0.004493565671855304 -0.00016353416273377604 0.0
0.002226427339067321 -0.0011561257993678207 0.0
0.0022840126836376133 -0.0010345194179194942 0.0
0.003497759002033967 -0.0009025135352765067 0.0
0.004935866409595253 -7.186327921072647e-5 0.0
0.001890644082033026 -0.0011071155123363956 0.0
0.0015619889279074736 -3.493634698415783e-5 0.0
0.0016714500649119602 -0.0003229963895508762 0.0
0.003249656591505737 -0.000388135169562271 0.0
0.004804528069809123 -6.393327229233135e-5 0.0
0.0003876028845194085 -0.0003562875136024218 0.0
0.002612540926805635 -0.00039802168826894946 0.0
0.00448463327938955 -0.0004477643947602291 0.0
0.004782584003342938 6.295047926141087e-6 0.0
0.0014079181426173604 -0.0002600619727543443 0.0
0.002280124438412305 -0.0011665522573296744 0.0
0.004667602398232029 -0.00015644029531924124 0.0
0.0008463740329337367 -0.0006293486799870795 0.0
0.004871842543895271 -4.47155838414707e-5 0.0
0.0015811581182901733 -0.0010832857532369034 0.0
0.0034751581588595864 -0.0005103327319595371 0.0
0.0009359608971125387 1.8614578743147456e-5 0.0
0.0031416221454176724 -0.00015469561741238562 0.0
0.004838368586318556 -0.00017627726747334967 0.0
0.003900845759424945 -0.0004688964923902679 0.0
0.0013839337227788786 -0.0009776118187751794 0.0
0.0009703947267555625 -0.0008436372026475973 0.0
0.0012429757729733682 -0.000685648727014181 0.0
0.0042006564928769195 -0.0006821494476564025 0.0
0.0037908032134499003 -0.0002971898795451191 0.0
0.0007761626622158355 -0.0003446967156197305 0.0
0.0020190518011998257 -0.0003947780711504454 0.0
0.0032450543404452833 -0.00042865073390211956 0.0
0.0019505447718003732 -0.000468462519186197 0.0
0.004696864892450254 4.563865224724634e-5 0.0
0.0034612914025536046 -0.00023269945519573723 0.0
0.002040501787008646 -0.0002932728228863349 0.0
0.000798316022304182 -0.0003024329477416065 0.0
0.0037142510988658214 -0.000524102219366529 0.0
0.0031272068439648767 -0.0010545516720317303 0.0
0.0043798221396631936 -0.0005718021137367368 0.0
0.0016972613746645841 -0.0010642220452078065 0.0
0.0032122325896816947 0.000165070449029182 0.0
0.001860456269111061 -0.0005359392658444849 0.0
0.002970575813162822 -0.0011335270809923863 0.0
0.004330547370205984 -0.0004985462585962582 0.0
0.0037527455873148674 -7.772873850644369e-5 0.0
0.004697308010081368 -2.1597543659670355e-6 0.0
0.001086161568128147 0.00023814483283397963 0.0
0.004569595785197898 -2.1508068950279644e-5 0.0
0.0016267851186908219 -0.0006494257665036667 0.0
0.0042308655831885915 0.00011322517180979878 0.0
0.002977128400708018 -2.2364219884105787e-5 0.0
0.003484439309021532 -0.00016415428386259165 0.0
0.0015261291833155155 -0.00038963948219233294 0.0
0.0035406530264080294 -0.00028159446204877665 0.0
0.002392927554035153 -0.001171046153397402 0.0
0.0012925943769184667 -0.0009170468283168993 0.0
0.002698415154016512 -0.0002000982443992843 0.0
0.0037396112697082986 5.145397824200238e-5 0.0
0.0022423759584227214 -0.001091994410532406 0.0
7.551390334870681e-5 -5.623984423213211e-5 0.0
0.004831593031436557 -8.172774861094737e-5 0.0
0.0042126174108374536 -0.0001618258544556274 0.0
0.0020197777550897784 5.86178907891578e-5 0.0
0.004895189140712926 -9.516803262139547e-5 0.0
0.001331524350859579 0.00020683281751196684 0.0
0.00228351992545035 1.3816702700269176e-5 0.0
0.004966595173680299 -4.322397514795714e-5 0.0
3.221916985217131e-5 -4.3556039102136216e-5 0.0
0.00011242540277505103 -0.00010422920896760896 0.0
0.0014338874240358219 -0.00014944594611811964 0.0
0.0030768631899898385 -0.0004920408234391291 0.0
0.0034858788542044333 0.00012691364670711243 0.0
0.0039351211718408685 -0.0007781383951729695 0.0
0.004848217264954468 -9.822486126686355e-5 0.0
0.00035614080650552416 -0.0002414211548294239 0.0
0.0010350265847909634 3.0385844734144702e-5 0.0
0.003147677139553542 -0.00100386290490917 0.0
0.004359830498501802 -0.00016741550104097438 0.0
0.001284330821016007 -0.0006821997018325735 0.0
0.00027717697176795605 5.7240734974550466e-5 0.0
0.003109875544197756 -0.00021644383219602355 0.0
0.0014860368549189321 -4.2273876841728e-5 0.0
0.0037035002740209997 0.00024584802037120717 0.0
0.002331300707674065 -0.00014332403325666428 0.0
0.0019343859476629987 -0.0004985956792539251 0.0
0.004424511114563892 0.00010406992440904979 0.0
0.004558444054930136 -0.00043926982234616615 0.0
0.00379229620911494 -0.000890816130426271 0.0
0.0011304366917361908 -0.00031827537339888004 0.0
0.004618543455541146 -0.00014910243801094424 0.0
0.0007582611336125202 -0.0004149506380393426 0.0
0.004654137691951878 -6.808099868710526e-5 0.0
0.004238410762656561 -0.000666187746430268 0.0
0.0030106583887754422 0.0001323443581477967 0.0
0.0035295989588689266 -0.0009964075660060354 0.0
0.0036504970248683326 0.00024204049907203238 0.0
0.002311989530823662 -0.00023043616668978355 0.0
0.001280829706927097 -0.0008688180032992582 0.0
0.0017147101930939297 0.00026303389867596505 0.0
0.00011685542363135225 -9.169629346736752e-7 0.0
0.004788594197914201 -9.619081276464634e-5 0.0
0.0004971743636357926 -0.000508900811194748 0.0
0.0036931129860217162 0.00013694531486105243 0.0
0.0008828470986335424 -0.0007589214352425227 0.0
0.0034781070202303276 -0.0004768938727745726 0.0
0.001013492215594524 7.688948934421255e-5 0.0
0.00042186973715341433 -0.0002588303884904545 0.0
0.0006095436658828854 -0.0006241005735943189 0.0
0.0005511907239554188 -0.00043392329249848806 0.0
0.0014143845551469604 0.00031036184750206515 0.0
0.0039120889445959615 1.2698819329641735e-5 0.0
5.775434952543383e-5 -6.62436561260643e-5 0.0
0.004179557925955177 -0.0001428777994078552 0.0
0.003775801395180244 0.00031266293487721623 0.0
0.003151071569036865 -0.0004684565751489716 0.0
0.00233648982141362 -0.00017917976663421383 0.0
0.0013124324738568794 -0.00010766748947151418 0.0
0.0023969294892253147 -0.00025165723175902817 0.0
0.0032172825620009607 -0.0009176938448601243 0.0
0.00154266361002145 -0.00043726260798409054 0.0
0.0011342986480988165 -0.0008871985158652649 0.0
0.0043070020030710485 -0.00040191917458679704 0.0
0.003285555252270279 0.0002530955085247565 0.0
0.0005005812287711296 0.00011457701980776996 0.0
0.0014516507828291054 0.00014040865035049954 0.0
0.003377288653731248 -0.00035301491655664657 0.0
0.003205975141909523 -0.0010867398413109215 0.0
0.0020138208930151934 -0.00042361594953457734 0.0
0.004054361104374949 -0.0007719134653927635 0.0
0.00029151005891518895 -0.0003289551129811083 0.0
0.0035515082458169663 -0.0008666289853947379 0.0
0.0016441945681502997 -1.9611501140794924e-6 0.0
0.004719016335369105 -0.0002968544190867196 0.0
0.0015723414423007185 0.0001104049942217999 0.0
0.0030905251023802044 -0.00010689272663858939 0.0
0.0026583434486795675 -0.0005334724775467245 0.0
0.0022882458709741964 3.814227388090484e-5 0.0
0.0027496575894313453 -6.49638902088692e-5 0.0
0.003089197249714527 -0.001106449956717084 0.0
0.003969713036518887 -0.0008054951382911878 0.0
0.00123860126676264 -0.0004997292563924668 0.0
0.0028215273732883493 0.0001676167674262624 0.0
0.002754083738284462 8.71289161074195e-5 0.0
0.003951593819087744 -0.0007291644433995571 0.0
0.0023211851366606653 -0.00020977046042245864 0.0
0.002200827340145528 0.00013579614335285057 0.0
0.0012735320086489097 -0.0008236748261864121 0.0
0.00469014145963726 -0.0003020327944661945 0.0
0.003345648482909409 -0.001089831553209054 0.0
0.00224823528553464 -0.001058682124608828 0.0
0.004822354877472779 2.2913799102955077e-5 0.0
0.002217644336920372 -0.000934266330368116 0.0
0.003687020781608678 0.00027163332717986677 0.0
0.0013249666861828015 -0.00023565499956743988 0.0
0.003279989491370779 9.964312411812784e-5 0.0
0.0009546654638541689 -8.540308113468737e-6 0.0
0.002088379938453032 -8.741666848006852e-5 0.0
0.001306542050272972 0.00041195775569191113 0.0
0.004911035325832599 -6.23979535321715e-5 0.0
0.0030957905537697047 -0.0008328053975599161 0.0
SCALARS damage float 1
LOOKUP_TABLE damage
0.23112487888176764
0.04907972682036668
0.22268267317215706
0.07957771360939675
0.9619078801801756
0.9585641864094372
0.007333910095204892
0.37069092387694197
0.36136289280684347
0.35888396638474807
0.373474084649321
0.3872339489664021
0.40893131033524494
0.4303913909079863
0.44600165067560393
0.46219922761575843
0.4614706538488765
0.46070874722326266
0.4524140004956251
0.4356734161671729
0.41885954323153424
0.4061061295610894
0.3849959066377675
0.3598336782450153
0.34327741664557865
0.319490134574539
0.29036025572065316
0.2649943948858559
0.23202007403609026
0.2005068464775602
0.16562123994595127
0.12826523551825614
0.039897040103920825
0.07809785585700516
0.08806076982663595
0.10311630331061267
0.1141352967492025
0.12288354916267365
0.1330054974034944
0.14091783716055592
0.1492005148912441
0.15767605477475885
0.1645869229926259
0.17281591208250546
0.18121436893200704
0.18720643330525263
0.1940335195246985
0.2016477031827673
0.21040185369985068
0.22060892372637406
0.22698586923594075
0.23548638460401664
0.24400057578695525
0.25540650452952585
0.2604154599075762
0.27459093379264904
0.2813939517310984
0.2949191656584237
0.3043013381006116
0.32045435508927345
0.3257793500422098
0.34428442213167715
0.3564803441474366
0.37331713348569884
0.3854730766493689
0.40488151036691034
0.4165545093330072
0.43347311158937646
0.4532016521379932
0.4788568557738887
0.5019642065991163
0.5237043090384147
0.5481977147818724
0.5797262665509864
0.6030362237145332
0.633687807993788
0.6684931965020354
0.6938980389397867
0.7320795786465583
0.7632281431654881
0.7949666062743602
0.8328773898093835
0.8629230245801514
0.8756356558893574
0.9052661513937136
0.9104339576487845
0.9200665787943912
0.9110889221613183
0.8853503763349663
0.85548801000448
0.826892662305243
0.7930521410293017
0.7671618318452166
0.7397473430018427
0.7187575647390352
0.691526543014338
0.6793121325986596
0.6569315950018508
0.634125917179265
0.6181759729578913
0.5990407429281297
0.5888062114716045
0.5656744091181218
0.5589155858018163
0.5450078298423718
0.5317249084144874
0.5215132206025725
0.5023136885467088
0.49532541248080136
0.4838978467955513
0.47175461114901396
0.4569151751640835
0.4552157423151209
0.43662504534892294
0.42955553963457344
0.4158979332449038
0.40627350669830964
0.39659843655020527
0.38227797445373307
0.3721237895433083
0.36319430023463
0.3503878621009102
0.33536332588424383
0.32048977117672905
0.30872684691524094
0.2935626860745125
0.2800578827132578
0.24830425281155877
0.222849767227192
0.20832817021911013
0.12530827546215684
0.16419579488558908
0.21320830410669425
0.2688079749290714
0.30640601260337413
0.3295122279418848
0.3502678315078134
0.366179043997161
0.3778820571531215
0.3866756925480013
0.3979516715039082
0.40542766705839456
0.41210685554495996
0.4184116737611767
0.42415291393517496
0.4252252288619457
0.42135922738998366
0.4135233671156425
0.4066718741390854
0.38609607781885924
0.3768675636298282
0.36425835433140935
0.3536146226891209
0.35911702338472135
0.36547620427831967
0.4297254277242008
0.28299112484956396
0.6520570590407773
0.9414089133596251
0.9967550942449126
0.9750478561030517
0.8889328560150851
0.7313382208341899
0.6186754637060395
0.4949693004612155
0.3959781371020074
0.3039949085155311
0.24838855080614303
0.1845552426349039
0.12925668581741487
0.07357435821312093
0.051983307345342386
0.00663370596573556
0.025764844356785253
0.05073490511517182
0.08681225005079901
0.13507399275914425
0.20466543778771268
0.2969950128452535
0.430613238691669
0.595089917448848
0.8114077225513958
1.000260205108146
1.010717651551251
1.005426914079488
0.9216461048687267
0.7657404610860998
0.4642070544090237
0.3385623497185936
0.5969507390276354
0.4492874306153584
0.7186139532811331
0.614446313559478
0.9000344199217671
0.7993886124706095
0.5144598348204524
0.27209173487764515
0.4591338530675027
0.22679424098142784
0.43693657476613856
0.4188842318842604
0.25431975832097603
0.2918938451320159
0.01696035089614707
0.10867817676404384
0.40047390650598497
0.18815704598208008
0.38087693469163164
0.3975961679059219
0.3969362777430232
0.4434538665510109
0.352909022858326
0.1543047300515521
0.5543050406231512
0.2947036758509682
0.31788108051952313
0.36355670949067925
0.5333067556584092
0.7060031734215251
0.7944720327390375
0.8753132542802833
0.6649139468590909
0.550798405957562
0.40033267857728216
0.3022343512732557
0.30732812855274555
0.12829979039557887
0.3568781683474025
0.4097511908071599
0.31260016775235433
0.22439195340371276
0.7295767395456675
0.5581614257371712
0.3509398865619379
0.3609388147849927
0.4161637686299584
0.41611547879684996
0.22020071157505391
0.048229402378073785
0.09713899418384392
0.2490336172850239
0.6223410500187876
0.9066333882152989
0.48842494803808567
0.365150876893624
0.8486080855316006
0.48878608964799714
0.25329079616786737
0.4342165780408324
0.2089589562815325
0.1708781688651608
0.3751639673606485
0.6324586834172387
0.5929470688431725
0.2464371914073445
0.158406084367603
0.9271997275742924
0.914823596273767
0.3243318675542407
0.38268497624374204
0.07279609746200622
0.19472642548665464
0.8596515662574579
0.5569270254964378
0.40789577033343494
0.42824979512854605
0.5302554916914246
0.411734789732043
0.36639941165489454
0.35397574784741404
0.3334496501160605
0.32314528023182176
0.33412866489046517
0.31675286852784545
0.32729509030694476
0.3164499825244147
0.3268531806559062
0.3286192590825618
0.13467430531632282
0.047487716289292964
0.12271998259821576
0.06322094714331981
0.11798057218239966
0.08409391550909462
0.12351071713601054
0.10075669949030207
0.13045277950314957
0.1130770739562223
0.13469819144663012
0.12490440412871483
0.1449045275341112
0.134586798959446
0.151432625086116
0.14435356983641345
0.1581098516465995
0.1511908520168738
0.16368061606823697
0.15873637956504372
0.16956053748715116
0.16641178959147965
0.175114151288212
0.1728279181569126
0.18228672316193648
0.18099414930708413
0.18892235267225857
0.18703199753056016
0.19485129685623492
0.19232768207800147
0.20106465889840056
0.20110664422805885
0.20849379125881087
0.20862176951713032
0.21525682349271436
0.21582581479284538
0.22249024986440183
0.22382899423426011
0.09605685762977854
0.2301125531534589
0.14971411298123385
0.19715017613335553
0.23175603386617266
0.238386509936409
0.2404455660929655
0.233962353321502
0.24289924489859432
0.24720807422535887
0.2454765586559119
0.208576897838534
0.25470259886494684
0.2528830337647213
0.26187571551830713
0.236532708154877
0.24590947334977356
0.26023313994921665
0.23981368322836075
0.24939631116700575
0.2705043164485277
0.26924695091961787
0.2442281355329549
0.25385093548345977
0.2798923544866946
0.2790561378786414
0.24854182261168048
0.2582167059218586
0.2902330203076766
0.2896374856681241
0.25208661384264497
0.26290970207846664
0.3012831419884603
0.30072382519372
0.2564030636265562
0.2689955136862528
0.2622263814447629
0.2511796052028025
0.3020575114395719
0.31293905295330976
0.31200292655587347
0.2995828920422928
0.17989383277134477
0.31173792213000406
0.2992789513985378
0.31163568895382254
0.2749234474274095
0.26854126872534767
0.27949195983843145
0.32528321763231594
0.2792617753892565
0.2727271433653482
0.16518515634374994
0.2831508995260104
0.2767880636223388
0.28667647997569695
0.28030064331861765
0.27098632866651107
0.2741322000032789
0.2674423029598306
0.2898181706600653
0.27276509388854997
0.2649366538917832
0.29770447889461377
0.2995904503965608
0.26978107814984553
0.26428319891559743
0.30148946210980426
0.3135496338556981
0.30809542252398914
0.3088081922032068
0.3044232229827436
0.31764528138116666
0.32774039308476927
0.3307173602154641
0.34488517406441876
0.3453051224352798
0.360233399133715
0.3588975488702002
0.37508358110524836
0.34687547039222527
0.3718259868009147
0.3901279727256987
0.31842635978972184
0.2695838790979263
0.2649361102246707
0.39442523322702555
0.4102931785266522
0.40374431551842105
0.41965536359701033
0.3185431738738791
0.4251823400796266
0.41604461391847614
0.32901306840672695
0.3291839611110159
0.31896749577292843
0.4382446075803677
0.4276474146689071
0.34117210113047763
0.34184636092086973
0.32840803520443723
0.3177995453584378
0.44731366057301736
0.4372835714058808
0.41533414788798373
0.460067407509446
0.4226133272286403
0.40502144170608667
0.27072366220617194
0.2677730450416454
0.25962982201366114
0.26742116734631244
0.25658362080125796
0.2654941960135134
0.25339510470105087
0.3548636023899637
0.3556009049267521
0.3258294243125013
0.31571199121284366
0.4429922561629122
0.2669585992515201
0.25442531172395444
0.36953969268703657
0.37051166923441287
0.26255854099180803
0.4290680615414958
0.17363824240850867
0.6045294021280434
0.17426789123553357
0.30928012157428625
0.2689640520301443
0.25548988498472824
0.32412711884542555
0.3142399478955253
0.38496768705308776
0.38732002825636785
0.44909141188069324
0.27576326649366123
0.27686749787526405
0.27948983596478044
0.4320178564159403
0.2752249459210467
0.25914550625005445
0.38277805419067884
0.3203158332642352
0.3104230440928331
0.2965191303883488
0.30374414182513043
0.29088918245566137
0.30240505737803314
0.40246262746045064
0.40452963405555353
0.23844833604302165
0.28007981662986914
0.2705805322679015
0.4526996879367767
0.4686442629135556
0.29529562685833105
0.28026700897680024
0.43698994716303996
0.4181927833961811
0.30366900472463565
0.33176507867768584
0.42195739033094787
0.4234963653444983
0.40518769478690225
0.42435854772031684
0.4047380898407736
0.4239514774861946
0.4030889064834022
0.42167932998243884
0.3996875630907288
0.41779194484229126
0.44192514736105326
0.43771835377716356
0.46416300132958754
0.459067482441212
0.4879253639440605
0.4817311901589184
0.3953448124348984
0.4521173195555607
0.4739406251739333
0.5065260869684215
0.49785836923739124
0.2807313689328092
0.2807328856643914
0.3163922074113747
0.30676493900649104
0.4652269345935638
0.48822832219352785
0.5240081993179815
0.5135274577285713
0.28608236832688627
0.2842195393163511
0.2898613948562833
0.30451659537365894
0.29304952497819353
0.4563559875710751
0.4392020110472215
0.4431409609790035
0.2380055453527958
0.2726004821816843
0.5527822423708434
0.5412989961777912
0.5024386889476016
0.529968519744167
0.2593376859717015
0.3124678849175544
0.32272708527591554
0.29032498233626464
0.31155991536451777
0.3024608640824496
0.29968135229631343
0.5714278122756861
0.5596600621142925
0.5175709433210377
0.5478616860020129
0.5069882981620157
0.5349338762151987
0.5782072830077661
0.5627624711810623
0.3088737807890882
0.2896145538126385
0.2862776153059639
0.44099055783559377
0.459504250222596
0.44315635513920104
0.603022829150646
0.5882876989773006
0.2907171599794915
0.3078653234369092
0.2980916345796517
0.25475464996125247
0.3212756095622041
0.463636394418734
0.3058882621630436
0.29385556065809104
0.46390521585337535
0.4409833004060628
0.41976826614652074
0.31917387078849063
0.4772804979541053
0.29535150543972594
0.3138911595465813
0.3282236460090592
0.31603991906450224
0.49660569209017297
0.30080808199106923
0.29199441071777194
0.2924029746342665
0.2873838625487776
0.30735287049711213
0.6279753188229783
0.6067349206960613
0.2895251562334163
0.28431073808591095
0.6454939397018662
0.45925660976434435
0.2852588434959027
0.2779181026186189
0.38616114640987503
0.41882806949180384
0.4006869153826469
0.43998931189949025
0.6445806382026528
0.6226882628687626
0.47137778498372734
0.4624583570647122
0.48347644681634344
0.5878513787499016
0.6014215289143297
0.29573331699404276
0.28745301164950116
0.6341716329499896
0.611751620710878
0.277697295385176
0.27049461295137633
0.35044734146132883
0.340757373396388
0.2715227061346567
0.2646339986505553
0.26165454692181717
0.2559778955980616
0.4166869993020686
0.43684824492756613
0.28670251255044926
0.3004329051125964
0.27994397195658394
0.4786641140883114
0.6435099672279478
0.6204509815714634
0.3403804796671011
0.5685919782257265
0.49218986110634155
0.2597177954524207
0.25184973235844665
0.2476928818361852
0.2428725208601473
0.24819758905645686
0.23944136515181208
0.24671470763599296
0.23811463812565786
0.24900343252940627
0.23988187796502286
0.25400686201457445
0.22850344093263247
0.23377908344406198
0.29690900480975857
0.3072405208607456
0.21452406236791283
0.22090099377679837
0.2767972570782848
0.2593547297886603
0.43982563388961843
0.4325421598386298
0.2825003388797697
0.5045813903183395
0.5086310280754387
0.4539014817162968
0.4253003634182752
0.4137596888151278
0.43019334657523445
0.44844252082033864
0.3031446040330256
0.3307842756513668
0.45462171559236264
0.4725154704682933
0.44989398291821414
0.2375548391906056
0.3729261830078933
0.3696890281474858
0.27565045531373034
0.6497805614065583
0.6267406771069797
0.6001339635648196
0.607233199222944
0.2712729417151427
0.2883358521273655
0.3560314471831983
0.6711612275455461
0.3138037340954653
0.6311840717692732
0.6120155153104357
0.586622583530284
0.5923616850754425
0.5677682606515949
0.5735162219598858
0.5942559666946773
0.5760496005865476
0.20524492992534712
0.20772756448993648
0.2297190512156623
0.5310695234279982
0.5388088213008879
0.4658046906912875
0.44374490231509645
0.43621225956370663
0.4196319802104651
0.33997757003109974
0.35183744249470156
0.31344726776391735
0.3055906919325477
0.2027908101054018
0.30604127389192615
0.2778225081320743
0.4503758863702114
0.245678883284394
0.2869831252048316
0.5920623334956608
0.5758850533736883
0.33899476470078965
0.3280052505650834
0.26499843401329587
0.2832033804393885
0.3098348095067789
0.3219508514253696
0.24283897144351058
0.6309803353485867
0.3274174391231919
0.563688288780913
0.352727733720641
0.1923157913502391
0.1969545061577361
0.2863136272099397
0.44585743591228
0.4183901008476146
0.489370190448931
0.34421351729199445
0.33600341508436987
0.3473141287514653
0.34292538595452277
0.33375563501134065
0.3407738832022308
0.3492820489791603
0.3459703933232861
0.35522664230341056
0.3569819938308803
0.36100839997351997
0.36325283502826405
0.3680320765296495
0.36847420615501736
0.3641931412537464
0.3713626696609026
0.37471242006781214
0.3351895895197078
0.2827787371374453
0.2781906699182704
0.28684181375668255
0.37756424892848317
0.3789100927616477
0.37424740121457545
0.5961126932095746
0.60721776587922
0.6427644602607999
0.6542604785211519
0.6926619111093638
0.7039273462308107
0.6636291117817795
0.7116971443375211
0.6689851078013579
0.04427665648776401
0.7459024965894526
0.733303074069294
0.25661601220270586
0.3791431070220884
0.3743503625378775
0.35976381087347475
0.3547070797575067
0.34155175087477496
0.33649565921436964
0.34919337336132183
0.3310593318494676
0.344021263343815
0.3250957372186772
0.337768003271023
0.31420250099416186
0.32441643765507516
0.3295913796124088
0.3569239100761829
0.3506420529754138
0.2781745290863478
0.20950400075095596
0.12219390332484326
0.4562791188720287
0.393401062949633
0.3878947395557027
0.17086889007315764
0.1906601735342889
0.560635877408929
0.3248664095280308
0.4232671610691807
0.4072260964313058
0.2226266272096998
0.45842119526982317
0.4368687172889328
0.16245432599980797
0.7126555457964432
0.6671056797472635
0.4232347600520175
0.41757439008424524
0.40431736743371927
0.39978446679970553
0.41149120351360907
0.3940067943651158
0.4056692036472074
0.38792535076572854
0.23370631342856177
0.3764126735818529
0.41542317218205066
0.4167112494703121
0.3016806767449496
0.3033079939355707
0.3729256993349772
0.36059462858158525
0.5629724871347659
0.5695944346122984
0.6714247410919105
0.25536282815340017
0.27897666107229063
0.35832750189150986
0.42253684897781235
0.5427604482591915
0.3971264012597511
0.5583247773793557
0.5578697561749244
0.5699505893565474
0.5534840808103149
0.23032152686053167
0.2408563980110842
0.32003714212208834
0.3579896361505196
0.5166604314101471
0.28756525553598644
0.29628432416782347
0.6925079705816217
0.3876090691469708
0.41189792489463845
0.4186677292661197
0.40586134012605024
0.39058801778936847
0.38980810274580413
0.24117329554682873
0.17815548297301118
0.1846634896275488
0.20879417772913197
0.36531306149450404
0.36205313087540486
0.3746413204075517
0.35287408305701123
0.37886447768250875
0.3819028848439232
0.45064933275938396
0.31528601578284865
0.3276827259191623
0.3243190246710639
0.30187536808202553
0.3201240172837246
0.3162193611392604
0.6260440817018926
0.37822554843805845
0.37170187992215226
0.38127585197288016
0.36612314619156
0.5423922867707899
0.5398284750440075
0.5452124937784444
0.5309616861447773
0.3988006355954162
0.39337052046262583
0.7874243247352273
0.7704849225582027
0.3133309176649145
0.3185912192067451
0.5506168206498254
0.37296106256612627
0.35848880712263964
0.4626034852042467
0.46515329502710107
0.4773383351351497
0.47522619815144873
0.5967027542983712
0.17607169351703336
0.2606338757934883
0.26754326279771684
0.328717910779237
0.34183899971748033
0.33099272684612957
0.355027406329633
0.34300392613170616
0.36743965691068525
0.35471187931832165
0.44909933071181696
0.357220970054159
0.5342668542285806
0.692574941867042
0.7146640590535375
0.7145788658059877
0.7096822090595116
0.40247347278521356
0.5302140876286181
0.37381441494455153
0.36999641477799416
0.242148349788072
0.4239853436570211
0.4361177895389407
0.4272167725198371
0.7593523681519436
0.663737942714456
0.278125072474771
0.38044645351411016
0.3832187481457605
0.3796669443299408
0.3811598336238551
0.46981855707322784
0.6044193977541368
0.3927642456790286
0.446136236131709
0.2890094748811986
0.4381862603322991
0.5533017397312766
0.5359371842126506
0.41111836678531466
0.4157879814462001
0.297036861644951
0.3069242811171281
0.37850340254602777
0.365988873875396
0.3414955971234708
0.3522022870726806
0.3751741484900299
0.36102653983258437
0.3816032783930867
0.3671601748139253
0.3853716052814932
0.16551036755388512
0.3993643571494482
0.17284103376596052
0.2779901556733232
0.3725036054239801
0.38997501334624374
0.3430842163475557
0.427384430436319
0.3695342151422595
0.22976323587514844
0.2236818187157471
0.3895931462852141
0.6884747974025601
0.4720335917685282
0.5171147127185495
0.36718296932146793
0.3339421497009499
0.3223154740909311
0.3376319881105335
0.2082396209362726
0.3267796913040675
0.312586799753338
0.820380716244351
0.7999558514196894
0.7531938645205744
0.7790933045607655
0.5503224837011553
0.5197510624658361
0.3683111910384299
0.3738745550285997
0.4776346770883872
0.5119830125565691
0.26911031726002005
0.3645318851569113
0.35088401588368795
0.25761359812941914
0.5424672339695908
0.38292999354468876
0.34501279207472774
0.8173098040966081
0.7942827320134875
0.3781893204681444
0.38238388544262697
0.36102232474917034
0.2446066122027152
0.26244318802671024
0.15147182758994687
0.7319827337998354
0.33936701070626074
0.7031514879172418
0.2817300822360312
0.26340703758797945
0.23544113470616457
0.5182908471211404
0.28811897076312226
0.2824204982831622
0.28700097445375167
0.2822136519174055
0.28517478575401173
0.2780290102949092
0.7361091319446293
0.7365966932391188
0.3379243358355177
0.7516498639718275
0.5185447008450903
0.5210804056534047
0.3067227880391032
0.3355109563194352
0.314274367782016
0.40152234574590295
0.3904384975832203
0.329487775438715
0.3169586396497442
0.3154636493293373
0.31785844967357685
0.29718066797858317
0.32737993983209307
0.43322950844961794
0.42578367624977104
0.3929634143990764
0.8365434515535359
0.4648116424356914
0.3534953032521524
0.3459190025788267
0.21184446305661572
0.35421324596371095
0.3757591359567714
0.37319548174883127
0.2729544491514674
0.2190681003308661
0.2129586710056655
0.21865195033785162
0.26899637257437026
0.1596073854766536
0.18814502488118628
0.8233502300101875
0.7990287640193687
0.7657559548938185
0.5262754872569405
0.5241833960947204
0.5208021478771397
0.2789740274704061
0.2758299097541426
0.38953421975487046
0.38595223706436355
0.38386801226329476
0.3736830340784531
0.3565240536515281
0.14981401182695664
0.27134154053895276
0.2545964455488759
0.2468291747124481
0.23054278454703228
0.2303731311639956
0.23461883845616963
0.4091475377774446
0.3036184232500159
0.29817530515661694
0.20863599579782147
0.20229746986626118
0.3254854848291499
0.3282534020406882
0.3406455795851134
0.34029998160373187
0.3310542466344931
0.6612486476106663
0.6269353808125707
0.696122880808316
0.31249094547893524
0.2721529562385505
0.320566590776073
0.403535264519868
0.754029585886481
0.33770868293694933
0.4767008343191364
0.2465615192993402
0.2305301539730643
0.24434348761567085
0.23368883574694177
0.24585105150029885
0.23844957943048553
0.25049466658976854
0.24506314917938557
0.25676590129833127
0.22140148427975517
0.2343656831931043
0.7231703135372305
0.3619379984759881
0.3917550899744501
0.3767104505762171
0.4176236580373339
0.31527617986790096
0.21448085208408896
0.3642841373112134
0.36848968911030805
0.17431074575731698
0.18491495790039758
0.35548990023874183
0.3936260453791636
0.40230338883030187
0.34097177069427737
0.3277848343082459
0.250379022719594
0.13660358128329853
0.3430262282249275
0.3223546170731672
0.14710925024475918
0.5055465390340711
0.4904610352352105
0.5036586829923013
0.47663083337590073
0.241591202651706
0.34639089545225443
0.22577806853608748
0.3668007770160629
0.3464972021297856
0.2913794313018723
0.29082601445937284
0.4883891187224415
0.6072870024691559
0.5976637687822741
0.6112509815352769
0.5949320156705789
0.6038304075139902
0.6239290631128974
0.650742574566295
0.7104400235730446
0.37925645757725984
0.5738134756540222
0.34490944192153455
0.3263338677861413
0.31558632769399747
0.5848766100800314
0.575798275542069
0.5698228740782063
0.4982659101349968
0.49291396775302626
0.5228425592711934
0.5497944198294428
0.3396255800710623
0.49431500500724995
0.7024633089686242
0.5082390278968633
0.506782922686148
0.5009066847627566
0.5026118926959451
0.3244518672408786
0.42357686972217984
0.41481804319761206
0.43305192875471626
0.4246731726444269
0.4895706587646448
0.2771617466513513
0.2609120025348652
0.3803909090321517
0.3965428160542812
0.40644684956088906
0.7576814964910695
0.7672585832923586
0.4172166442262234
0.3533027783766209
0.258837237853821
0.48375818192017594
0.4721044005256885
0.3439944536725742
0.32930290090513653
0.4615626133984927
0.5189189154794108
0.5257885742443544
0.49751936444682027
0.5105373410604666
0.4223079602810136
0.8455667360647762
0.3674128246300526
0.36419893267066084
0.3837302214812189
0.44624710902717574
0.8594110188476134
0.32553071006367096
0.3721308888125049
0.2789352274271352
0.3486467468320627
0.5556104859897834
0.2820415422438344
0.4339779412398183
0.6304473794556363
0.6125176920987613
0.6362283327986724
0.5477142960703631
0.36898914467402266
0.3097877663858298
0.5503753238467882
0.3389759177640816
0.36058868693710905
0.35728293578967474
0.3285588215971295
0.3095535093979676
0.31760680437590016
0.3949275856660554
0.37597290931109406
0.5289179132536996
0.26660103685593356
0.27266438103349544
0.26977755962090383
0.5095903572241015
0.4665343048615162
0.3992027616026001
0.4164931035421441
0.3989558265573128
0.4522338151540587
0.44657625587093636
0.4430514189927589
0.3724520282612514
0.36757688998131155
0.3764515781961525
0.3643507966731429
0.36487951251615514
0.3633518204330279
0.46324006628158904
0.33340735752415984
0.35249485089479515
0.8197169769365751
0.4226888858180954
0.3980200517384986
0.39277347176835314
0.3844371420251371
0.3982041096485386
0.38926179275071
0.3913108818888428
0.28957295395397936
0.28723533180915073
0.2835213412680488
0.28455261446001173
0.28907697571811664
0.2841449488642951
0.2891299253364952
0.3574872916439701
0.28440482582704385
0.28884197441299675
0.4002241627402058
0.3033226422164255
0.29509293729841835
0.2824529738019868
0.5052135427455171
0.5215161620222181
0.6617908266672781
0.6928826534621962
0.5084018816769358
0.22644588233847407
0.20749438712272214
0.15935502176029281
0.18690224973731526
0.2156184008807471
0.18152907586996705
0.19798470167445276
0.15667918245536466
0.1760367640239091
0.14110800739344645
0.16731308620117724
0.14348701047580786
0.16460558300033976
0.1489053001044249
0.16526827002461766
0.15652836812793472
0.1698749420642995
0.16401947084337484
0.1761577172322771
0.17278054306499477
0.18342955980264922
0.18185112876538323
0.19170512117925384
0.1910143233919607
0.20030130573906402
0.20152010782744542
0.20972094216050166
0.20150366366127606
0.18311123447033334
0.18261023351546496
0.16342082216903217
0.21550891826266547
0.14233374376676347
0.21189232703455896
0.21915539693272582
0.21860683129514183
0.22738150835526166
0.18243072031841562
0.12218220960947712
0.20476323048498146
0.13298192497975606
0.2279581632444052
0.2362297073601289
0.23587050744723703
0.2157087788436017
0.21212343832264152
0.2197630350156191
0.22985179629820546
0.2227320784865039
0.1410373103911629
0.10845232971053224
0.2441249750526094
0.24434503531308427
0.2373412521417901
0.2460687312716646
0.8741643128431871
0.8457802339544516
0.37710118529845116
0.6812887157057258
0.7132560869452329
0.38000965445840307
0.3953857273679537
0.31862039280823884
0.3704502647786719
0.24524323065147613
0.3370773349545464
0.333985524316539
0.3391248617016481
0.3543198907445815
0.25520866601265
0.35362573471960607
0.3562759403793576
0.23756974565304995
0.2177971957268027
0.2484728198274609
0.21067343378559364
0.2672302531925959
0.2620227704243756
0.2679784583386825
0.2628906658306454
0.28577064769550387
0.29435113953744735
0.28102858608235265
0.28963896200301703
0.2764872474213043
0.28528615418725656
0.27259663286806834
0.2810998333957429
0.2943326433182964
0.2888172807695667
0.3428267299576801
0.32930086807811854
0.3324337983253617
0.31719271649010894
0.2833622867323358
0.19777009623891093
0.19246260080859076
0.1964147354137092
0.18671354496192558
0.3930760693766567
0.3849229968730833
0.40606319430337723
0.26672089741953603
0.2322634423021978
0.2254634118279159
0.6664160717482389
0.3736142962147568
0.3582806515656314
0.34628073193729314
0.35324891517823875
0.33085636428002124
0.3042009165021907
0.30703279181242504
0.2805819969996329
0.28063823561223605
0.31520636460756524
0.3996889975207644
0.2809478667598363
0.216380746916171
0.2327398701783345
0.38207002980374416
0.40182794929884497
0.5033304307690654
0.5064959808451963
0.4843110283681693
0.4146673351547172
0.47426572098661834
0.3185854349804793
0.12011050931922687
0.12017632272894954
0.28095579887964794
0.5058096610297607
0.5315159775348277
0.5109478312311361
0.5341262417593989
0.4418233287053323
0.5076468445502116
0.5233573063591841
0.495317841522755
0.4830922829554153
0.48859775008431783
0.38026248963149095
0.3893029460274599
0.3928484868651173
0.3849562811041791
0.2774610556659943
0.38385916834193295
0.3807633710330717
0.6711624410145701
0.18146164302820947
0.17434893615257013
0.18263890138728792
0.17040095187651122
0.35015970290685106
0.3809899235431087
0.3899025257277425
0.5090227091189229
0.29458174735197273
0.47421020407502995
0.4615247858842677
0.45309585799114693
0.4379031362988869
0.4338766161386461
0.4461343777771811
0.42546118169884667
0.7281540539865171
0.72091430802098
0.6729636306141821
0.25225432710789797
0.2793164860580986
0.25333115752481267
0.250988991605092
0.43338930870731285
0.41506721286181886
0.3296855452138662
0.3833548250863803
0.3222689954758542
0.3067289101083651
0.34935701047103956
0.36310212764492433
0.49486231350837023
0.2517363338997508
0.24846905651745052
0.515064817351155
0.7034142939125433
0.29983714884943147
0.28185934432752713
0.3007513472831613
0.5414721799537539
0.48906826930500397
0.5957043878229832
0.3999911965732998
0.502438646722093
0.34754909004402573
0.2615641133623124
0.377820865448149
0.3873287513677591
0.4143226608016329
0.27556442784939633
0.24011692987744332
0.5438835132496525
0.5356676156100298
0.1300671722107106
0.8011586156402962
0.8095232144643232
0.5337767553901561
0.5469270773787647
0.531875828958538
0.5605499708281368
0.5575319947405163
0.19885185485003717
0.2077475551616281
0.31379941474684586
0.3975648777923417
0.31147794201458345
0.5384820038495033
0.5523183620503033
0.5579839954490563
0.16285736445228016
0.1572524442697345
0.38259028948992063
0.2671231158941293
0.26340625338678664
0.41699601113067686
0.370566449333695
0.3543338412999714
0.249666439474098
0.7573638201656465
0.7732684973875708
0.29507021308531994
0.2881876938883752
0.5408949660526517
0.4916622829797378
0.2687170778730089
0.2609255830951638
0.10313012132848091
0.8762647645203933
0.26779155078917544
0.22546765928029533
0.22750160807952996
0.2917062218357342
0.27401795069165874
0.22594246212911098
0.2167286477786745
0.22039504239523988
0.21184378294426626
0.21591793255213212
0.2068455260954966
0.20273795588692364
0.19811368555201703
0.19359176769623795
0.18941128049629496
0.21284435799133555
0.42610710119232564
0.2764821281423707
0.2822703122210223
0.153570012007526
0.09734713856348
0.09121001231235971
0.11732416536413287
0.12035550968870032
0.09698190448808287
0.07843273985895326
0.0741304366069971
0.27872918792138657
0.2598661572429618
0.36678550654913605
0.3374064238351844
0.33316620661295304
0.5860437696284777
0.5997762228871388
0.3298271705053167
0.3340618419669645
0.32367529784565824
0.23446073418268956
0.06381648284661462
0.19417404131741772
0.18548922423673586
0.18039534743010777
0.17689873348438018
0.17151044399258364
0.3441820128212454
0.3507480539548261
0.07571302267042666
0.6078379996060528
0.47530855683817397
0.35923115268234024
0.24605399002277928
0.21584557990519845
0.20525802565377038
0.2721261797081722
0.4659009615480077
0.5009566289541533
0.4848593480973534
0.32717068163022167
0.5703635289044807
0.5904791256929977
0.6051749997115656
0.6307410068098863
0.36450291201061347
0.39443883439222843
0.36752787945743975
0.3469379667436355
0.3034940420134397
0.29296847362517303
0.6364959871650486
0.25226874452757536
0.17389401313502273
0.13206978792211524
0.1290365410881318
0.14033174431079326
0.13333623454429552
0.14425953401387534
0.12095864058051549
0.152173242352835
0.1542000796426645
0.12891041133135675
0.443155852345598
0.1609280880008845
0.41125306034409653
0.2403421581758226
0.5837107008937423
0.5838617092954872
0.11688680594498292
0.10775888656032108
0.328155460020019
0.6404206527474482
0.6500505252810076
0.6459036729528267
0.6627507113322388
0.6524866871674934
0.6762082211017215
0.361757898701398
0.36229601953097196
0.36523770819802154
0.35970042095865506
0.3626506999349359
0.35333895637040835
0.3594673946856148
0.3506168784343385
0.3419978703832321
0.36741942622822527
0.33957956268394957
0.36808896695695015
0.3593648071827406
0.36915014330077356
0.35131508961264635
0.3624315439074348
0.3778068945468728
0.36981294688747024
0.373868318022095
0.18945739889674915
0.1682103924656383
0.2524901111188721
0.13499204674163612
0.13943083888552527
0.616073861403778
0.34465060567421874
0.21404434068505407
0.20068596422502133
0.19868226742093034
0.2040994217639651
0.21776735807554104
0.20930816829138318
0.21449984481722614
0.20508818279233704
0.16349710001018178
0.31551826531640365
0.35648388776015005
0.37799409609143797
0.380913006383418
0.3525708150908478
0.3724128246711342
0.28467853993085784
0.18983832176860485
0.19217940589645952
0.20424743094633507
0.21492217481614007
0.22767457248792117
0.17312881303417652
0.42197184559266687
0.28037137276730045
0.2826301056105187
0.09381923698946532
0.4709785017661052
0.6706177202600205
0.2671797589279839
0.30547697272045
0.34864447208322163
0.3369506292844147
0.6208002775652391
0.41523304374818354
0.3955997436587311
0.3971371439709554
0.3884142895884195
0.3887933304458273
0.3781045395599677
0.377189088749198
0.38460886984419973
0.35849775792173255
0.387206183461553
0.37974914565702705
0.40451556097176034
0.3702897989889573
0.37675954392125094
0.5829820383162565
0.2864153464212639
0.3508128932133938
0.23877021656030958
0.35369626781677593
0.24412483960877004
0.2281824727913243
0.23778549016635772
0.22316226089975302
0.20713880006189175
0.20680823187387848
0.21885660899020845
0.24818619241707424
0.2757228031922054
0.23789081111700477
0.4661296525705234
0.3859168876991144
0.5240556637704927
0.2058188033249927
0.5686583417963013
0.4537758139724642
0.46370660644075334
0.1828620760716655
0.27736434622701617
0.3198008299072614
0.3183717931774426
0.3162700521962642
0.29929635002830535
0.1955766383368619
0.7354745409590782
0.581470937081661
0.8175963790282194
0.1378209413100399
0.4362685560877169
0.469456775798707
0.6269331179274149
0.6828897229665438
0.25690425158640096
0.31659814177762785
0.4267656334079247
0.2261723055752925
0.2312858756656845
0.22327128959215942
0.27312883482688527
0.22655850569031963
0.26484423145778946
0.20971477075178113
0.2119780674472255
0.3728777021609337
0.3725010928705077
0.3386515842431489
0.3404952243809492
0.20319395015197037
0.42715811070842474
0.39675157471898986
0.53844914431224
0.37782937774595227
0.14941613769170323
0.3537091053767461
0.16877035545732363
0.46327947386155394
0.38224743148822743
0.3436397482577233
0.35352648736229725
0.33907902052736866
0.32605420611491737
0.2581589043834355
0.21364798804440815
0.2446334506827933
0.29332947399981396
0.2933923474796732
0.37768684920707507
0.8861877575461108
0.851104159338227
0.8808010365527776
0.8479756113099414
0.8315514598191234
0.8015227269702494
0.8041860281966084
0.6476047168407221
0.33173094868788694
0.3054278951963787
0.3119530886393817
0.35313877217502154
0.46083056302481723
0.30354483300952356
0.3917185561512693
0.40231795416404514
0.3877887831958711
0.3889379772415908
0.4425025550423985
0.33528094185625623
0.2720149630047631
0.24593260755030302
0.41836590978604754
0.39912734676437156
0.2669315836780385
0.3069092616311126
0.29624664204792195
0.28615951506982923
0.2831038538141017
0.2468880097696246
0.07268298922574423
0.7377073000225225
0.7208414456209244
0.7047252247006642
0.7310426934532335
0.3548474606646877
0.6170681540155395
0.13085086043600005
0.15260726460489069
0.3372466850904378
0.321575803352684
0.3375677720718627
0.2752715467842512
0.2631350437614211
0.22116528286511902
0.3236828823024735
0.40872228249124776
0.7225132866763936
0.221618130051359
0.21816006132558569
0.5087150653721563
0.6116643305416759
0.4685367147922326
0.493065373125535
0.3635753270736135
0.31117463599047696
0.30311224431787104
0.2941101430179771
0.2954322370469721
0.29655944494807934
0.30140126358466335
0.2780946996172224
0.6986108652047419
0.6714122353719888
0.6923592407142055
0.7107600384442474
0.7369801216343717
0.748913859818988
0.6814721682099056
0.6877933940611908
0.19773566221683367
0.2870671991063218
0.5126488070397037
0.8397364475535697
0.344301773095313
0.8394284716316998
0.8677704658941946
0.4847279424831222
0.3518506746440863
0.3386869679260943
0.3967072985806608
0.2694012750102848
0.36019481879757853
0.5590326847368574
0.31778348781040683
0.3155277550935961
0.3288170706959958
0.3027459776359166
0.32931818214337666
0.3140908786443598
0.30181693505373947
0.2882762153033342
0.3583747814938937
0.3400126230157405
0.32889528311874044
0.45960016991650215
0.3937179103300034
0.3382565385903837
0.28278493795178256
0.25348088669380475
0.2940772783509636
0.28292273432334253
0.2804363264670394
0.28697115672372847
0.742433099580927
0.7924291908484687
0.826430696409121
0.7585427002489853
0.5740876363637778
0.23779689090023315
0.43587918098286854
0.4302116997012994
0.7550240715217831
0.49427986770919435
0.3574447335065671
0.3091310134606873
0.2765133914141804
0.40113542284703196
0.4202054917810963
0.3659892509359063
0.4816280957712708
0.4473220976479112
0.4563810981514731
0.4802365263236213
0.3255192524679138
0.4449518782196636
0.3379257375203234
0.2521454147978573
0.2600317233568252
0.2324179849619007
0.3441567793090721
0.7061146284982083
0.215907263668212
0.5340529450565696
0.54260745151197
0.5819221037238714
0.5485779029553235
0.5860783937447568
0.6170892859408356
0.295811083889048
0.370663103977531
0.3717612526643544
0.4073104832991248
0.36459744568070745
0.8854434756349022
0.44492147911695457
0.5136800188766685
0.6297710185786223
0.3085654726082648
0.3754626409825002
0.42470024353421953
0.2921821100868846
0.033135094202957086
0.6518303596929468
0.32384802007992014
0.352127047511963
0.35206271444938153
0.3344012094414113
0.33413321144020064
0.31504697026853273
0.3247406361407013
0.5808935098977258
0.30392171470008156
0.39248411195248445
0.39697891960709586
0.3537356640908695
0.4300505460625273
0.4976090661173449
0.6573038092175392
0.24426421588196545
0.3895590741816591
0.3728891302702643
0.35110698568693627
0.3147802538288894
0.4168959701414225
0.27930227468478414
0.3414988805571952
0.23185176746083835
0.23023212403638196
0.28732622332988755
0.38600437347712835
0.40832598816336163
0.3801839226621692
0.3686788166024895
0.5521741929807805
0.4600121071462822
0.25687072939998407
0.2771077949029537
0.2933842056224442
0.4129247715842736
0.2964985725442291
0.4029820292041022
0.680716366603794
0.3729086626380048
0.26497157655240905
0.2762795915623372
0.38247604210657626
0.8998731032752301
0.26017800430186616
0.3553564094064783
0.3381400820071547
0.36294749160132356
0.623704763943836
0.5918176890566258
0.5836510511365478
0.31939250469890895
0.8754086615014885
0.7660140365607251
0.6739004591590543
0.7728757616002934
0.6410425641349918
0.6803939815186468
0.46740257805131663
0.35162560603277576
0.8222687300071182
0.5125496429115317
0.2704570109378541
0.3803538502597297
0.532719679086146
0.5618559218726754
0.34221333809178084
0.38839964128864735
0.623589826745667
0.3248682675218225
0.27725758262039685
0.3503101311472179
0.34375443160012575
0.18765615715123965
0.2989421216210882
0.4355826625689764
0.1521190493270434
0.14506862443095125
0.48934968423024966
0.40974945769960597
0.4441670067190647
0.3304972574248349
0.7986197148912609
0.26910538505484727
0.2422228922854402
0.2551587567345851
0.3829916191273342
0.46746384344834363
0.36567292519669964
0.06238270534336663
0.6649537934704371
0.5812269012532452
0.3474315028488463
0.48627866455243574
0.3465293281918715
0.46675237881550324
0.4991824227100773
0.4574030623169566
0.28969789821469427
0.36160496218912996
0.8615246797318934
0.4811126375706308
0.44834361833377756
0.2502599013328049
0.770971389442416
0.4372469558480804
0.3076695176970049
0.3798662572572041
0.28058018457150624
0.3343772278320335
0.20393021271378234
0.4054548093978983
0.3850684203716014
0.2815320190970727
0.580674408611371
0.18897588707969024
0.1852089672214611
0.7561892333219442
0.4782844012469775
0.7184811111248729
0.6241803722750893
0.3538528198262006
0.08164131488401893
0.385385679600947
0.4893755160606364
0.47779633496574314
0.16526102025577374
0.38349579731903055
0.5749338375366393
0.11037627111598029
0.5222840777696852
0.3326540789946569
0.2463544884716651
0.2890482498464394
0.1401652328944638
0.15835299970780933
0.3229089540075067
0.37682085956105815
0.2157339547474917
0.4559631450926937
0.3680183910081264
0.5293371913494456
0.5015997234330578
0.35169149569830693
0.5699950052319555
0.6403899568338662
0.2653995432719639
0.24302621972658803
0.1750271138613248
0.25042804532580343
0.1924668614579384
0.4911320938526446
0.5912944399206076
0.08659414543154521
0.10584268113324559
0.11954476615482783
0.3225044453699015
0.1363548174184979
0.348470071853159
0.36412769754740654
0.4454291585933444
0.21622825663542614
0.23553617917455436
0.34138874513488277
0.36274359393910316
0.2810497223297353
0.505918036215069
0.3405585580620957
0.4254322762327177
0.41031936719305184
0.19902692971357608
0.1636824048944185
0.39089016697910134
0.40077966011128685
0.8244142373959307
0.17857287824073845
0.5702042128366067
0.2695102258592091
0.5249324035112426
0.3696541952740383
0.5846301211857838
0.35780030041857663
0.30840075560800684
0.2776546522594027
0.4289183685162995
0.43200772732543263
0.4105117360937206
0.8056621683593496
0.2233097175265214
0.16652420765439843
0.4124429392515301
0.5558580138968643
0.2688058532507333
0.5010328380836754
0.3099018402666258
0.49306630043620736
0.31968791671412916
0.3420811011601237
0.1761346827789078
0.38847431231955054
0.03276860933678017
0.23729233966515245
0.38342932940254904
0.3057440407419979
0.2616869409434152
0.4496407905857649
0.5417224887253397
0.29460724354950535
0.22795058724040704
0.5496773516357514
0.22860441564054054
0.3859707857865916
0.30536671424099887
0.36997634453586475
0.1645592947195895
0.20169586704775236
0.3246194156946808
0.3667706366258218
0.3540396559071608
0.1980382449594711
0.2179591253036445
0.514807270196412
0.5103131737952663
0.25753955895400554
0.2475126185929895
0.19393618292346743
0.6240158730970655
0.2898148205479808
0.29861671146587876
0.32186682958432994
0.20105811905309542
0.3676415024533534
0.4491975595881129
0.40667290168376047
0.39601630569404417
0.40675726433996034
0.34613394843994827
0.4178752759300818
0.29142173404491745
0.18008879261437824
0.2864934292413277
0.23384912614390965
0.2910581107727526
0.25632845202305055
0.734896484369615
0.2797832528296747
0.36260100156425684
0.6147630701839208
0.414471975489648
0.22188644961071358
0.3402682697130025
0.2689663296678592
0.38383606646025553
0.28740731609892717
0.2682254246883166
0.06514179683623626
0.35388120965204795
0.47217162185875283
0.281377423514747
0.37749880317010404
0.3283123649651518
0.4366958655122933
0.23453797768707524
0.34977534686864425
0.27375769058638877
0.44030697008372
0.42077544749882995
0.4043251713201524
0.23775808995656758
0.42682914902667557
0.3040429749590126
0.38411284839931936
0.18746743931604073
0.43007664110420757
0.6669879423115623
0.31498489702008475
0.37626279109131827
0.43970042686311384
0.22907787594710732
0.2331089048337991
0.6553162793585763
0.2662364308304412
0.39928127635958155
0.25698417945557733
0.37187044629137445
0.28463261178404936
0.15634953118999015
0.42687613504746835
0.09704033283962868
0.24902830687629338
0.5135381291736899
0.4740752621725357
0.38818843002045555
0.2697189023185934
0.3113991173800025
0.38735533994685667
0.1793434016798649
0.3801174783275468
0.3149231134409498
0.3710001404369436
0.4124730936918794
0.29795363324985746
0.14659139573822905
0.5111094065889307
0.533410533535108
0.22118983064903497
0.3590389578401142
0.33487213799729043
0.127099717883601
0.20050609699438568
0.11073436816791861
0.20007885091924937
0.36912134739392793
0.38299890817538584
0.3616471666193824
0.6564048106003872
0.2629754744596934
0.7446619642117907
0.29966862026466806
0.394690810826875
0.3881348631282288
0.2271704836723133
0.1407340087909865
0.15095041313045915
0.32573959409572395
0.46758734438948074
0.4014592869410577
0.4123024955457593
0.3812390536644035
0.3967374496875376
0.38630744504383246
0.5813362274451488
0.2126452827769366
0.185048987453168
0.3534064254039812
0.20746350026880087
0.2561036305606016
0.45863344185333516
0.4017904820186715
0.2166306412236389
0.3904698750086293
0.3388666745719393
0.3592692088198953
0.34055051929701236
0.3689002811890409
0.3435331368180727
0.7748620277413709
0.3141407844743436
0.1866102895495589
0.2995461006778598
0.25254404419213494
0.2071203302438967
0.3232397308396026
0.4130170749597034
0.2896281059207863
0.33861772660132816
0.265054863916061
0.5725777958652654
0.49674181416102703
0.19355734085104878
0.28717701869878204
0.27321179690881486
0.24067527764221655
0.48289047466358775
0.2600311489997468
0.2911207523466
0.41634603282267774
0.24327219396013075
0.5588367698691368
0.5408200332866878
0.30047885432256766
0.6115682643638395
0.2725027673788638
0.4859765813411744
0.37179185738685544
0.4199076923189043
0.29642183215262047
0.07246020672931643
0.18800034756869075
0.51533702292009
0.2254189506769636
0.159984703325533
0.33605915508993195
0.3440069002321473
0.2795825882043989
0.6156052855334672
0.6283060389205021
0.32626246062354175
0.5407891463689014
0.21812118940431546
0.30045930366302426
0.36480963062286936
0.6524735646449681
0.356209368110194
0.38213538394651314
0.33323965905111597
0.254458974468224
0.6994173960692626
0.38401260307752455
0.3705710196080696
0.2780109173006166
0.30173655365487406
0.36295347401225275
0.3977624056958096
0.5192509594781184
0.1704032755301336
0.3594563773907692
0.4744492217097565
0.5200026664006228
0.38531599732229055
0.6944789346118992
0.45622272734837777
0.25804408149050545
0.2805741538049211
0.24101650591092427
0.285479767491742
0.10461495561230766
0.3268955117219226
0.30846716227212095
0.1675586711586148
0.10504366415741186
0.24346385004911272
0.23181935971177015
0.2810833553600885
0.2718485938733178
0.4895642209280003
0.6346909164705435
0.29950194259056623
0.16448407567371837
0.2018880892900052
0.10730667153202898
0.3924175200607325
0.19684700809916278
0.2536030367220901
0.46521897127855527
0.29041926026934006
0.37829201746464747
0.5942875582328971
0.3559605908279499
0.44779320281738527
0.8529835289894173
0.47134154869026146
0.4871855883522949
0.3801318942968175
0.4943358402577953
0.34094407148599226
0.40297011929544857
0.22750311417184288
0.535149687330278
0.28100962275609703
0.21495798170115615
0.3829365359103819
0.2818524307785331
0.5758772865792798
0.9597493087168107
0.9675190745094542
0.40433991603797986
0.1350001128898674
0.38135661347947414
0.7333223528012184
0.6972712049322015
0.3019473624511432
0.266989893452981
0.2808762401200713
0.28116914499456813
0.2758456469870599
0.3553530948195185
0.2415974074476017
0.1790671649780044
0.21689448776462047
0.4078437570255922
0.36552234841772446
0.21020145395037804
0.331854435749588
0.1907674065267588
0.5448824771411029
0.18741048323897272
0.3458271008185326
0.33489929762050796
0.361399064072491
0.49798547911798813
0.27020561911362845
0.2569822934528059
0.11500440096649472
0.23549502648089604
0.35468670967305926
0.8962704281175352
0.3803001494957906
0.31328321546671273
0.18275488855608316
0.32394597561444743
0.1641656959028327
0.29723438692925114
0.3240016020261108
0.4755174031896548
0.2442491604659733
0.19607921192586822
0.4624122509769347
0.22470928364987777
0.25614187614399
0.18571474007444233
0.15294847814801765
0.5224062763700774
0.19942881468917323
0.3752992207553481
0.5315440412895086
0.5790906668632749
0.3060110631496132
0.3325990063336614
0.2812020347317662
0.8853185772679731
0.47525575016343136
0.5861708679830606
0.29285052795818195
0.5351529598544198
0.2944640563832719
0.22962933205541988
0.1958921325713528
0.6111800944572171
0.37096526526602247
0.3384892484771818
0.6952769597212466
0.330551594251056
0.3677327120123856
0.9133081535611087
0.49391799981672974
0.24333250508135404
0.38547293258912785
0.6744727973077356
0.6270754592614467
0.6811589995468396
0.2334126621436706
0.5118393986948361
0.20731052700822364
0.2609374125696627
0.3381650430183255
0.3913754835591414
0.1749911552904083
0.28405916647144236
0.42337101250336595
0.3793752040172152
0.25929323009061994
0.6974730232053734
0.3802230875885794
0.2563598648449286
0.3928522600322575
0.4116864946845889
0.44873534692606476
0.3122291641924857
0.2659020082328889
0.2722833599815153
0.4835829812677518
0.3591344034429694
0.2607911778263026
0.3204624915959503
0.4632062926534221
0.37478944298681516
0.27441142539145796
0.27354595690872285
0.355991922398921
0.30245087625369454
0.3407001199745606
0.31370632144077243
0.23427765024031527
0.2786360171399547
0.49291560123446937
0.7888002388802802
0.41931258198109694
0.4527718538507768
0.45724431226241136
0.32694430740597213
0.8449810481067678
0.48074209329198714
0.3555138017217198
0.36965197426860497
0.28692239338788433
0.36580063001631224
0.3496268726960024
0.32002995608349155
0.25781418440112713
0.31408134960745143
0.28350983595618817
0.3370533411595565
0.7611879279878441
0.337224811385121
0.21808462648549082
0.3702369227304122
0.6383110676981831
0.3043247642903935
0.37455544954031417
0.3766785312887613
0.1158055542950263
0.3254635800609638
0.2681459407278244
0.10119716551744724
0.13151008974669307
0.06024133403379345
0.21001796532710337
0.23741300616502173
0.370617739538686
0.4004887964761132
0.5489827009061727
0.3672848522735689
0.23374616435783394
0.30112171193048193
0.776923642819948
0.3841487576416121
0.3236005178783902
0.38457935629990025
0.2669251429035072
0.2198716795106682
0.4473283317291166
0.17583286583800348
0.31478888400323785
0.31663185186838366
0.368212765511266
0.5655268006010037
0.27976453877371216
0.3838487958913622
0.26399960360089664
0.3821953160181575
0.450039774837841
0.5017371695760396
0.6373273976389447
0.5554242016720312
0.20845738486529836
0.33615600222172454
0.1441523245527719
0.4514854891566477
0.37695680257427094
0.1763040343610725
0.3605664720833472
0.24887448808896187
0.42516652004819705
0.3164594676193899
0.24627616982336395
0.19243555559773898
0.21563913009474234
0.4632387422847187
0.3652851498615894
0.154864368895023
0.37242365071124384
0.8116000541837256
0.3654625825414857
0.18822020485399205
0.246012370719693
0.2187168247126135
0.731034770764005
0.29503131442453473
0.3005536596320967
0.4872513057122844
0.4435674924251891
0.3516473725659963
0.2631679792416056
0.3407371837159928
0.7540663175570542
0.2834217847346549
0.4989808226918083
0.13458651903143154
0.6678765381448801
0.1906486933208032
0.31723433180521016
0.22658489267851836
0.26215312001590557
0.35461874817398725
0.0865737840224949
0.20008651983184633
0.7979690326630348
0.5226297995026202
0.30012793771633706
0.5228445949378526
0.2440248279849571
0.5619226056174825
0.20162519820422042
0.050497005875543975
0.3344889675868993
0.35596158153292645
0.6776933656673187
0.6298697076719932
0.371198719149529
0.5469826943750721
0.8399322616842886
0.25938975270427783
0.4517394162748115
0.303248142808238
0.1559679768181143
0.814740233175979
0.3663779057465621
0.6658110937271805
CELL_DATA 4886
TENSORS stress float
-6.903325024804892e6 1.032062899754645e7 0.0
1.032062899754645e7 4.807560625303735e7 0.0
0.0 0.0 0.0

-2.394995650809317e7 1.657040669730311e7 0.0
1.657040669730311e7 5.365534934757238e6 0.0
0.0 0.0 0.0

-1.3787413593941357e7 2.8896894835434858e7 0.0
2.8896894835434858e7 -1.3909783240342882e7 0.0
0.0 0.0 0.0

-3.459279537287374e6 2.7997641134711515e7 0.0
2.7997641134711515e7 1.6325088568650082e7 0.0
0.0 0.0 0.0

-1.0674788044828787e6 3.400713153411629e7 0.0
3.400713153411629e7 -1.2885418406932133e6 0.0
0.0 0.0 0.0

1.1790455090048367e6 2.5306510953264786e6 0.0
2.5306510953264786e6 -3.4352401294685146e6 0.0
0.0 0.0 0.0

8.791379941499345e7 4.020288141897907e7 0.0
4.020288141897907e7 2.314025088903539e7 0.0
0.0 0.0 0.0

892177.2265272103 3.0461827815350043e6 0.0
3.0461827815350043e6 -6.474864207631587e7 0.0
0.0 0.0 0.0

-6.336296029027704e6 1.2155238778167449e7 0.0
1.2155238778167449e7 4.953092022082157e7 0.0
0.0 0.0 0.0

4.245795211827309e6 2.351327289798824e7 0.0
2.351327289798824e7 3.0992398308442563e7 0.0
0.0 0.0 0.0

197069.88229897153 2.714648066327153e7 0.0
2.714648066327153e7 -9.459966447478546e6 0.0
0.0 0.0 0.0

886810.3066551113 4.227368607020144e7 0.0
4.227368607020144e7 -1.518054364545769e6 0.0
0.0 0.0 0.0

-261738.46351917088 1.1335855897885622e7 0.0
1.1335855897885622e7 -5.898756690453818e7 0.0
0.0 0.0 0.0

1.2473698088742979e8 4.436536144355244e7 0.0
4.436536144355244e7 2.5569311948755365e7 0.0
0.0 0.0 0.0

706863.6506913756 2.8090594487621367e7 0.0
2.8090594487621367e7 -9.404026263576308e6 0.0
0.0 0.0 0.0

2.6462777838062197e6 3.9597913186896215e6 0.0
3.9597913186896215e6 -2.2045174719637714e7 0.0
0.0 0.0 0.0

-5.603507634308374e6 2.234884323836608e7 0.0
2.234884323836608e7 -2.976013905621485e7 0.0
0.0 0.0 0.0

-1.18025868046855e6 1.7424790102786873e7 0.0
1.7424790102786873e7 -3.953692578345743e7 0.0
0.0 0.0 0.0

-7.631636435304152e6 573302.948979444 0.0
573302.948979444 3.783279208873382e7 0.0
0.0 0.0 0.0

2.0037721344291656e6 3.190924427751712e7 0.0
3.190924427751712e7 -8.771418587964805e6 0.0
0.0 0.0 0.0

1.6814966749346964e6 1.3841142419775104e7 0.0
1.3841142419775104e7 -2.7561268016434528e7 0.0
0.0 0.0 0.0

2.874503055249575e6 4.171753850324427e7 0.0
4.171753850324427e7 -1.4125909647552017e6 0.0
0.0 0.0 0.0

-9.176284524056798e6 1.1886411597779578e7 0.0
1.1886411597779578e7 2.426586930722797e7 0.0
0.0 0.0 0.0

-1.956755799744734e7 3.015776412523418e7 0.0
3.015776412523418e7 -1.4402245486099487e6 0.0
0.0 0.0 0.0

-2.139949484192552e6 1.5219407036544535e7 0.0
1.5219407036544535e7 -5.264268634970922e7 0.0
0.0 0.0 0.0

3.816592783119776e7 5.9956743434028976e7 0.0
5.9956743434028976e7 -1.071232313524753e7 0.0
0.0 0.0 0.0

5.9104745333252385e7 3.029872280810842e7 0.0
3.029872280810842e7 1.3132008658046842e7 0.0
0.0 0.0 0.0

-5.569284408561861e6 1.9936801292522363e7 0.0
1.9936801292522363e7 3.4000048277549684e7 0.0
0.0 0.0 0.0

2.695293992128889e6 3.932900500871814e6 0.0
3.932900500871814e6 -2.2580463176708173e7 0.0
0.0 0.0 0.0

-8.68147602224719e6 -770417.2934691077 0.0
-770417.2934691077 2.1618635044941574e7 0.0
0.0 0.0 0.0

-9.5298989122609e6 1.3531946924261611e7 0.0
1.3531946924261611e7 2.231278378938473e7 0.0
0.0 0.0 0.0

1.0779686136854705e6 1.0383684285694906e7 0.0
1.0383684285694906e7 -1.045425457172365e7 0.0
0.0 0.0 0.0

3.963364018937337e6 2.7038398461767547e7 0.0
2.7038398461767547e7 1.205296726128484e7 0.0
0.0 0.0 0.0

-232036.63153785112 2.389728877710568e7 0.0
2.389728877710568e7 241973.5393567721 0.0
0.0 0.0 0.0

-2.680869444015397e6 2.977240276709961e7 0.0
2.977240276709961e7 6.723956164719444e6 0.0
0.0 0.0 0.0

-1.0586357387773e7 1.0464094678048613e7 0.0
1.0464094678048613e7 2.1235289131113227e7 0.0
0.0 0.0 0.0

-162213.8976730383 1.5391281633906381e7 0.0
1.5391281633906381e7 -8.757830398415519e6 0.0
0.0 0.0 0.0

-1.90023373761037e6 2.932623865689545e7 0.0
2.932623865689545e7 7.509093122294645e6 0.0
0.0 0.0 0.0

-7.5599862391120475e6 1.9060372308144286e7 0.0
1.9060372308144286e7 -5.569188071409423e7 0.0
0.0 0.0 0.0

-2.753699413106309e6 3.673848142613677e7 0.0
3.673848142613677e7 2.116696306802891e6 0.0
0.0 0.0 0.0

-1.4690238783619627e6 1.144051461232449e7 0.0
1.144051461232449e7 -6.430597645472415e7 0.0
0.0 0.0 0.0

-1.7049915836663615e7 3.098191754208548e7 0.0
3.098191754208548e7 -1.5040686098521827e7 0.0
0.0 0.0 0.0

-2.531496175077672e6 3.571246379896929e7 0.0
3.571246379896929e7 1.9958571563776315e6 0.0
0.0 0.0 0.0

-9.089861254789673e6 7.865040019618824e6 0.0
7.865040019618824e6 3.403491157175436e7 0.0
0.0 0.0 0.0

960135.1739311907 1.3659648063565485e7 0.0
1.3659648063565485e7 -3.0308342756561566e7 0.0
0.0 0.0 0.0

-4.244955751405196e6 2.1225939021418564e7 0.0
2.1225939021418564e7 3.1520158858057752e7 0.0
0.0 0.0 0.0

2.1223646345437523e6 2.6778184193930544e7 0.0
2.6778184193930544e7 -1.5334015274813354e7 0.0
0.0 0.0 0.0

-1.1421958350356808e6 1.4723069270466639e7 0.0
1.4723069270466639e7 -9.885656922178132e6 0.0
0.0 0.0 0.0

1.3556428415808342e6 3.0226055110511156e6 0.0
3.0226055110511156e6 -5.341703885191456e7 0.0
0.0 0.0 0.0

7.463261304902011e6 2.094109351681797e7 0.0
2.094109351681797e7 2.487753718792125e7 0.0
0.0 0.0 0.0

105841.55832526399 3.562469706942941e7 0.0
3.562469706942941e7 -251025.4901331747 0.0
0.0 0.0 0.0

-1.6668017957325704e7 1.402008302657657e7 0.0
1.402008302657657e7 4.608899840917057e6 0.0
0.0 0.0 0.0

1.405968497031156e6 3.0875505093414127e6 0.0
3.0875505093414127e6 -5.5567220137174144e7 0.0
0.0 0.0 0.0

-891758.3851130912 3.2672412104507986e7 0.0
3.2672412104507986e7 1.6097122015733034e6 0.0
0.0 0.0 0.0

8.704705108232517e6 2.0720376998482358e7 0.0
2.0720376998482358e7 2.9922979257870737e7 0.0
0.0 0.0 0.0

-9.929170219092365e6 3.164388330812029e7 0.0
3.164388330812029e7 6.573112009789762e6 0.0
0.0 0.0 0.0

586157.0753834508 3.969712234148963e6 0.0
3.969712234148963e6 -7.120045472959198e7 0.0
0.0 0.0 0.0

-1.756150689691192e6 3.709071592344583e7 0.0
3.709071592344583e7 2.238361839920995e6 0.0
0.0 0.0 0.0

9.649528494804103e6 2.2301513774475496e7 0.0
2.2301513774475496e7 5.6937838880639076e7 0.0
0.0 0.0 0.0

1.5961713790979944e6 1.2372709290075336e7 0.0
1.2372709290075336e7 -3.3876157538572155e7 0.0
0.0 0.0 0.0

-3.7849309491509786e6 2.1718145322824024e7 0.0
2.1718145322824024e7 -1.4874849732872594e7 0.0
0.0 0.0 0.0

4.409212656352643e7 3.373846946648135e7 0.0
3.373846946648135e7 5.209398693967061e6 0.0
0.0 0.0 0.0

-5.742648758638165e6 2.5102471504926052e7 0.0
2.5102471504926052e7 -1.7823251043352067e7 0.0
0.0 0.0 0.0

-9.512962446927084e6 2.4510510199187943e6 0.0
2.4510510199187943e6 2.2490537041023917e7 0.0
0.0 0.0 0.0

-598498.0641613482 7.508603970868864e6 0.0
7.508603970868864e6 405155.0584784451 0.0
0.0 0.0 0.0

1.1518879130803943e6 4.663571482809295e6 0.0
4.663571482809295e6 -5.197599571234548e7 0.0
0.0 0.0 0.0

433173.51616234705 9.75506450897006e6 0.0
9.75506450897006e6 -5.857807760098757e7 0.0
0.0 0.0 0.0

-1.8185929628507476e6 3.2092507965999514e7 0.0
3.2092507965999514e7 606416.4033341735 0.0
0.0 0.0 0.0

5.745111340180816e6 2.2066643361644745e7 0.0
2.2066643361644745e7 4.6341300013773546e7 0.0
0.0 0.0 0.0

3.0992226967639677e7 2.2517426389439616e7 0.0
2.2517426389439616e7 6.292442387312395e6 0.0
0.0 0.0 0.0

-9.867234472709268e6 9.745405862735085e6 0.0
9.745405862735085e6 3.1374088745394476e7 0.0
0.0 0.0 0.0

-1.010954822865447e6 1.538076810454191e7 0.0
1.538076810454191e7 -4.866904339375893e7 0.0
0.0 0.0 0.0

-6.9068780016081445e6 2.0549999839074094e7 0.0
2.0549999839074094e7 -5.096438871116421e7 0.0
0.0 0.0 0.0

1.2325696100045193e7 2.198520263045889e7 0.0
2.198520263045889e7 7.532771861072318e7 0.0
0.0 0.0 0.0

-3.1052201314051133e6 2.8189753740991008e7 0.0
2.8189753740991008e7 1.577646964225119e7 0.0
0.0 0.0 0.0

-4.595165741354421e6 2.1669269095143404e7 0.0
2.1669269095143404e7 3.0867946374977697e7 0.0
0.0 0.0 0.0

1.1682731253246446e6 1.6557891502829451e7 0.0
1.6557891502829451e7 1.2835699648882756e7 0.0
0.0 0.0 0.0

-4.403270044257425e6 2.201765719884817e7 0.0
2.201765719884817e7 -2.9247032581159823e7 0.0
0.0 0.0 0.0

-1.0353325139217922e6 2.401400620266257e7 0.0
2.401400620266257e7 -1.4362811520061627e7 0.0
0.0 0.0 0.0

657572.1593017029 1.750992735371914e7 0.0
1.750992735371914e7 -2.3864778913079776e7 0.0
0.0 0.0 0.0

3.581056230317439e7 3.520626168855581e7 0.0
3.520626168855581e7 -2.574712888811456e6 0.0
0.0 0.0 0.0

-7.320248747462308e6 729616.5211224093 0.0
729616.5211224093 4.459141057044973e7 0.0
0.0 0.0 0.0

2.672087880439789e6 2.497264051138287e7 0.0
2.497264051138287e7 -1.7213569639706009e6 0.0
0.0 0.0 0.0

2.9842982939162017e6 4.399518042960341e7 0.0
4.399518042960341e7 -2.540423525617554e6 0.0
0.0 0.0 0.0

-3.3830659006887833e6 2.807886369330146e7 0.0
2.807886369330146e7 1.643905975845103e7 0.0
0.0 0.0 0.0

2.206846916084081e6 3.2628405110300365e6 0.0
3.2628405110300365e6 -3.2248074045486417e7 0.0
0.0 0.0 0.0

362361.54233789956 9.193951902276307e6 0.0
9.193951902276307e6 -1.1942174349810174e7 0.0
0.0 0.0 0.0

3.7726016657218793e6 2.562538637138538e7 0.0
2.562538637138538e7 1.1071597955296954e7 0.0
0.0 0.0 0.0

3.265863405173883e7 6.1654764346925355e7 0.0
6.1654764346925355e7 -1.3353620209338445e7 0.0
0.0 0.0 0.0

-5.006230716065962e6 1.1145034370817956e7 0.0
1.1145034370817956e7 6.065567350142283e7 0.0
0.0 0.0 0.0

2.854828020570074e6 2.704329959513539e7 0.0
2.704329959513539e7 -8.0597533744921e6 0.0
0.0 0.0 0.0

-2.9060976141518964e6 2.4491800210114166e7 0.0
2.4491800210114166e7 -1.8177973573150706e7 0.0
0.0 0.0 0.0

-1.0623038220753383e6 1.3403611393205933e7 0.0
1.3403611393205933e7 -8.048742527030406e6 0.0
0.0 0.0 0.0

-2.4189581147374986e6 6.141689256697763e6 0.0
6.141689256697763e6 -1.5794055718197206e6 0.0
0.0 0.0 0.0

9.156115233152471e6 2.8185652713889197e7 0.0
2.8185652713889197e7 -3.967794774501923e6 0.0
0.0 0.0 0.0

-6.199421681659864e6 2.158163727609149e7 0.0
2.158163727609149e7 -4.0861749380972326e7 0.0
0.0 0.0 0.0

827402.9766492955 3.0329594492531205e6 0.0
3.0329594492531205e6 -6.459025170061416e7 0.0
0.0 0.0 0.0

-3.7629686777399257e6 2.8902162211346637e7 0.0
2.8902162211346637e7 1.421502780244712e7 0.0
0.0 0.0 0.0

656463.7173115127 1.0654432398184797e7 0.0
1.0654432398184797e7 -4.5708591472553454e7 0.0
0.0 0.0 0.0

581241.8621721119 3.964819769124942e6 0.0
3.964819769124942e6 -7.199440452158071e7 0.0
0.0 0.0 0.0

-2.4121273124787128e6 2.650788009048463e7 0.0
2.650788009048463e7 1.789011375528073e7 0.0
0.0 0.0 0.0

-7.10440075303399e6 2.2412207776301704e7 0.0
2.2412207776301704e7 -2.5917818394227006e7 0.0
0.0 0.0 0.0

-9.177042931919618e6 1.2033017358763367e7 0.0
1.2033017358763367e7 2.6834744193476416e7 0.0
0.0 0.0 0.0

-902127.1085157801 3.471034297172183e7 0.0
3.471034297172183e7 1.658771662564625e6 0.0
0.0 0.0 0.0

-561950.0431375459 1.3651206269318072e7 0.0
1.3651206269318072e7 -5.302531939953808e6 0.0
0.0 0.0 0.0

-3.7964557281389404e6 1.7301934065340314e7 0.0
1.7301934065340314e7 1.6868712698859073e7 0.0
0.0 0.0 0.0

-7.020655532961113e6 895202.9203292667 0.0
895202.9203292667 4.488376132297386e7 0.0
0.0 0.0 0.0

1.3142519805459082e6 1.7868988610711668e7 0.0
1.7868988610711668e7 -2.211964227218604e7 0.0
0.0 0.0 0.0

2.024091296640382e6 4.124205962521592e7 0.0
4.124205962521592e7 -1.6904804191768821e6 0.0
0.0 0.0 0.0

-9.026502050698295e6 1.1233802324332954e7 0.0
1.1233802324332954e7 2.2524485066830292e7 0.0
0.0 0.0 0.0

-1.0052400058741383e6 9.826349001725461e6 0.0
9.826349001725461e6 -6.344996806036814e7 0.0
0.0 0.0 0.0

-2.6515508356306343e6 1.4875329322538987e7 0.0
1.4875329322538987e7 -2.649864275713936e6 0.0
0.0 0.0 0.0

1.5350794405388512e7 2.88349102562904e7 0.0
2.88349102562904e7 1.6863822590146784e7 0.0
0.0 0.0 0.0

5.988599619180759e7 3.1263005940259892e7 0.0
3.1263005940259892e7 1.2711579951935504e7 0.0
0.0 0.0 0.0

2.295315326973278e6 6.783834240089992e6 0.0
6.783834240089992e6 -2.9113888715705983e7 0.0
0.0 0.0 0.0

-8.811105467519453e6 2.127035622689999e7 0.0
2.127035622689999e7 -5.225811065075494e7 0.0
0.0 0.0 0.0

1.941044659128502e6 6.665068606521889e6 0.0
6.665068606521889e6 -3.065346709262436e7 0.0
0.0 0.0 0.0

2.4511677813601606e6 3.3367029903099453e6 0.0
3.3367029903099453e6 -3.359359336136085e7 0.0
0.0 0.0 0.0

4.947150244994974e7 1.888621694321834e7 0.0
1.888621694321834e7 3.3351107187542394e6 0.0
0.0 0.0 0.0

-1.5373719775612224e7 5.004902123778923e7 0.0
5.004902123778923e7 3.933242865076134e6 0.0
0.0 0.0 0.0

-5.990909039114999e6 1.9529445017757587e7 0.0
1.9529445017757587e7 -4.672875192433241e7 0.0
0.0 0.0 0.0

-1.5863644324796151e7 2.9399688024736583e7 0.0
2.9399688024736583e7 -4.822122214465348e6 0.0
0.0 0.0 0.0

2.1441739827827346e6 3.40404686076719e6 0.0
3.40404686076719e6 -4.448598232571556e7 0.0
0.0 0.0 0.0

-1.0458472957692323e7 3.1403877958145447e7 0.0
3.1403877958145447e7 7.459621877935159e6 0.0
0.0 0.0 0.0

1.5957332460566808e7 4.216522767535652e7 0.0
4.216522767535652e7 -5.9377529426468415e6 0.0
0.0 0.0 0.0

-6.626152050225498e6 1.3573009297508974e7 0.0
1.3573009297508974e7 4.6214955401714996e7 0.0
0.0 0.0 0.0

2.308960813036493e7 6.000265937566728e7 0.0
6.000265937566728e7 -8.370446242995655e6 0.0
0.0 0.0 0.0

-1.2488623855357992e6 2.5215004240372915e7 0.0
2.5215004240372915e7 -1.125312929656201e6 0.0
0.0 0.0 0.0

1.2370672382799163e6 2.9654315230028997e6 0.0
2.9654315230028997e6 -5.69637136448317e7 0.0
0.0 0.0 0.0

4.4752010177118786e7 2.6380435769249268e7 0.0
2.6380435769249268e7 1.2090985306745015e7 0.0
0.0 0.0 0.0

-1.471829588479394e6 2.568134167070964e7 0.0
2.568134167070964e7 1.8378541986179523e7 0.0
0.0 0.0 0.0

663061.7002606951 7.061653606511608e6 0.0
7.061653606511608e6 -5.072796601456119e7 0.0
0.0 0.0 0.0

3.305102104022912e6 3.258829194130279e7 0.0
3.258829194130279e7 -7.660844749635735e6 0.0
0.0 0.0 0.0

3.089069022875324e6 2.6014099159205202e7 0.0
2.6014099159205202e7 -9.298536482742028e6 0.0
0.0 0.0 0.0

-5.075195162237158e6 2.3504441516026076e7 0.0
2.3504441516026076e7 -1.833566347575204e7 0.0
0.0 0.0 0.0

-1.1890699662475865e6 2.5241295322808824e7 0.0
2.5241295322808824e7 -1.2344988098447986e7 0.0
0.0 0.0 0.0

1.946417328217922e7 2.9853492961026188e7 0.0
2.9853492961026188e7 1.6701949117178872e7 0.0
0.0 0.0 0.0

-1.1872340653753728e6 7.897634031680905e6 0.0
7.897634031680905e6 -8.919802002659833e7 0.0
0.0 0.0 0.0

-5.408304511714824e6 2.9882585402635325e7 0.0
2.9882585402635325e7 1.3294700817926608e7 0.0
0.0 0.0 0.0

639561.878837313 4.88903341598343e6 0.0
4.88903341598343e6 -2.6405600661748047e6 0.0
0.0 0.0 0.0

-5.827853382092919e6 1.8238531190372683e7 0.0
1.8238531190372683e7 3.48981277849123e7 0.0
0.0 0.0 0.0

2.821743676377669e6 3.953535803243836e6 0.0
3.953535803243836e6 -2.9032509666716263e7 0.0
0.0 0.0 0.0

-6.086340567139056e6 -101662.9390398824 0.0
-101662.9390398824 5.339695170738244e7 0.0
0.0 0.0 0.0

1.1484998528664e6 1.900199121143524e7 0.0
1.900199121143524e7 -2.733599049668606e7 0.0
0.0 0.0 0.0

129424.53384413105 2.0738605617063022e6 0.0
2.0738605617063022e6 -2.6104360160433613e6 0.0
0.0 0.0 0.0

6.957167983655399e6 2.196061313179929e7 0.0
2.196061313179929e7 2.8563196919992335e7 0.0
0.0 0.0 0.0

-2.8046707255030926e6 3.58898864950141e7 0.0
3.58898864950141e7 4.741535785319408e6 0.0
0.0 0.0 0.0

-6.960898367608849e6 1.530812612210815e6 0.0
1.530812612210815e6 5.12103929219533e7 0.0
0.0 0.0 0.0

-1.0035136957354406e6 2.561363642379686e7 0.0
2.561363642379686e7 1.1260688042175286e7 0.0
0.0 0.0 0.0

9.723723850407055e6 3.0073772002121802e7 0.0
3.0073772002121802e7 -5.3285273067505825e6 0.0
0.0 0.0 0.0

-1.7807526302145608e6 3.0919033821620964e7 0.0
3.0919033821620964e7 392247.15779036644 0.0
0.0 0.0 0.0

-7.550736389356295e6 2.7035150731890883e7 0.0
2.7035150731890883e7 -1.4377964877762584e7 0.0
0.0 0.0 0.0

-1.1179942909713555e6 3.103157093849854e7 0.0
3.103157093849854e7 2.5765268295824714e6 0.0
0.0 0.0 0.0

-8.975541382125542e6 2.1308421204668906e7 0.0
2.1308421204668906e7 -2.8310665806198657e7 0.0
0.0 0.0 0.0

3.0016731804418504e7 3.433864663133456e7 0.0
3.433864663133456e7 -2.4839876360634603e6 0.0
0.0 0.0 0.0

-2.8205193709678976e6 2.298941940099242e7 0.0
2.298941940099242e7 -1.9956643445764538e7 0.0
0.0 0.0 0.0

-1.182796343494041e6 2.3421934870293323e7 0.0
2.3421934870293323e7 3.155970143265365e7 0.0
0.0 0.0 0.0

8.190015769386869e6 2.697342669507937e7 0.0
2.697342669507937e7 1.816907346848102e7 0.0
0.0 0.0 0.0

1.225315975955069e6 1.2513129857083473e7 0.0
1.2513129857083473e7 -3.260596338423582e7 0.0
0.0 0.0 0.0

-5.371906444184564e6 1.6513322871684033e7 0.0
1.6513322871684033e7 1.582614447436051e7 0.0
0.0 0.0 0.0

-3.8726799352137437e6 4.253515498676293e7 0.0
4.253515498676293e7 1.4194745029805675e6 0.0
0.0 0.0 0.0

-3.6853278095192565e6 2.451215669907256e7 0.0
2.451215669907256e7 2.0999616207482178e7 0.0
0.0 0.0 0.0

6.779776868627252e6 4.579683478001173e7 0.0
4.579683478001173e7 -2.101713914687424e6 0.0
0.0 0.0 0.0

418495.8712937813 1.8501991548688203e7 0.0
1.8501991548688203e7 -2.9248629956292864e7 0.0
0.0 0.0 0.0

-3.2920690467884395e7 3.355065484936248e7 0.0
3.355065484936248e7 -1.447371980890315e7 0.0
0.0 0.0 0.0

1.3824010937793143e6 5.194320353250903e6 0.0
5.194320353250903e6 -6.346713083960529e7 0.0
0.0 0.0 0.0

2.074256632811554e7 4.609722487345975e7 0.0
4.609722487345975e7 -5.595198889497229e6 0.0
0.0 0.0 0.0

-2.519190604227201e7 4.0882924946102045e7 0.0
4.0882924946102045e7 6.825982662795229e6 0.0
0.0 0.0 0.0

3.9332874207834415e6 2.3335142328704238e7 0.0
2.3335142328704238e7 2.7978204261834648e7 0.0
0.0 0.0 0.0

-4.6907898182369635e7 4.109607426583181e7 0.0
4.109607426583181e7 5.275190359442569e6 0.0
0.0 0.0 0.0

1.5077855359237678e6 3.0576132617081953e6 0.0
3.0576132617081953e6 -5.887514156517884e7 0.0
0.0 0.0 0.0

-3.0034805511979368e6 2.406482103377801e7 0.0
2.406482103377801e7 2.2797377555039275e7 0.0
0.0 0.0 0.0

-9.880237376356002e6 1.1087794352823472e7 0.0
1.1087794352823472e7 1.9506382403799854e7 0.0
0.0 0.0 0.0

2.296202873988878e6 2.7539615337034566e6 0.0
2.7539615337034566e6 -3.066994469410408e7 0.0
0.0 0.0 0.0

1.7981280883802222e6 2.584442228657723e7 0.0
2.584442228657723e7 -1.18003347329922e7 0.0
0.0 0.0 0.0

-9.588563373853952e6 5.222532598898129e7 0.0
5.222532598898129e7 5.813568835908692e6 0.0
0.0 0.0 0.0

-1.7460837829493217e7 2.1507114889217332e7 0.0
2.1507114889217332e7 2.3609936365170544e6 0.0
0.0 0.0 0.0

-4.7177742596019685e7 3.4383733131414026e7 0.0
3.4383733131414026e7 -3.1985970385023765e6 0.0
0.0 0.0 0.0

6.3825283807658054e7 3.2140597490667596e7 0.0
3.2140597490667596e7 2.5104830583376e7 0.0
0.0 0.0 0.0

-1.0906684035218291e7 1.9828682918065492e7 0.0
1.9828682918065492e7 -1.131977254598303e8 0.0
0.0 0.0 0.0

-151626.80842216033 2.4375218396374494e7 0.0
2.4375218396374494e7 -1.5847998391195241e7 0.0
0.0 0.0 0.0

-610007.6253295913 2.2672701764904622e7 0.0
2.2672701764904622e7 3.20297248991371e7 0.0
0.0 0.0 0.0

3.229845437005657e6 2.964259637794095e7 0.0
2.964259637794095e7 -1.1526008095026165e7 0.0
0.0 0.0 0.0

2024.8154870103172 3.45681376349693e7 0.0
3.45681376349693e7 -371049.79761343665 0.0
0.0 0.0 0.0

5.11179787019343e6 2.0725257561958157e7 0.0
2.0725257561958157e7 1.621938745537782e7 0.0
0.0 0.0 0.0

5.913927830596792e6 4.458861109748797e7 0.0
4.458861109748797e7 -2.0587772754724976e6 0.0
0.0 0.0 0.0

-9.420746535671754e6 1.1991736508577608e7 0.0
1.1991736508577608e7 2.2714395730196312e7 0.0
0.0 0.0 0.0

8.456651549595653e7 5.004353673705786e7 0.0
5.004353673705786e7 3.856791565766069e7 0.0
0.0 0.0 0.0

4.506468427980568e6 3.468627206811962e7 0.0
3.468627206811962e7 -7.503629511301415e6 0.0
0.0 0.0 0.0

6.6196556135548055e6 1.9462145858275782e7 0.0
1.9462145858275782e7 2.312460480596731e7 0.0
0.0 0.0 0.0

-1.5102600007906161e7 3.14885840893215e7 0.0
3.14885840893215e7 1.58602332796315e6 0.0
0.0 0.0 0.0

2.94362989030543e6 2.1769118406551406e7 0.0
2.1769118406551406e7 2.2365055801360667e7 0.0
0.0 0.0 0.0

2.740620683454985e6 3.2513200571171623e7 0.0
3.2513200571171623e7 -7.105769841887401e6 0.0
0.0 0.0 0.0

1.078473734054612e6 9.376410838079544e6 0.0
9.376410838079544e6 -4.478263320822789e7 0.0
0.0 0.0 0.0

-2.290084888134613e6 2.8234022532021765e7 0.0
2.8234022532021765e7 8.1001855376899615e6 0.0
0.0 0.0 0.0

-8.248454318974096e6 2.8385835135044746e7 0.0
2.8385835135044746e7 4.481416934383302e6 0.0
0.0 0.0 0.0

767568.374225622 9.212816922532586e6 0.0
9.212816922532586e6 -1.4956824826282403e7 0.0
0.0 0.0 0.0

-3.7020932260263497e6 2.8964972189589962e7 0.0
2.8964972189589962e7 1.4198687915326789e7 0.0
0.0 0.0 0.0

-4.65699601105053e6 8.125911615346897e6 0.0
8.125911615346897e6 6.4909315083432116e7 0.0
0.0 0.0 0.0

-1.2236006175561878e6 1.4145922106368154e7 0.0
1.4145922106368154e7 -1.467851378843796e6 0.0
0.0 0.0 0.0

-1.4902060600974353e7 2.8827406333869696e7 0.0
2.8827406333869696e7 -1.4245851434170289e7 0.0
0.0 0.0 0.0

5.945498326754549e7 3.9948095114594735e7 0.0
3.9948095114594735e7 2.6778113049684536e7 0.0
0.0 0.0 0.0

-598196.5085586663 1.7896058841196824e7 0.0
1.7896058841196824e7 -3.855434641962218e7 0.0
0.0 0.0 0.0

1.5866502646328378e6 7.185640566298952e6 0.0
7.185640566298952e6 -4.7678653406996e7 0.0
0.0 0.0 0.0

1.4635201379268022e7 2.7691670654366937e7 0.0
2.7691670654366937e7 7.251869187661132e6 0.0
0.0 0.0 0.0

-25898.75637526717 1.4585318138352428e7 0.0
1.4585318138352428e7 1.751274275764879e7 0.0
0.0 0.0 0.0

-528960.3444902261 3.3059825984880462e7 0.0
3.3059825984880462e7 450290.89778538304 0.0
0.0 0.0 0.0

6140.485896555707 2.8275398397155657e7 0.0
2.8275398397155657e7 -8.88248747181558e6 0.0
0.0 0.0 0.0

1.0418431205167389e6 2.8646530005430326e7 0.0
2.8646530005430326e7 -1.1262524821306948e7 0.0
0.0 0.0 0.0

-1.6000648936249935e6 2.425226305096834e7 0.0
2.425226305096834e7 -1.0601892320201429e7 0.0
0.0 0.0 0.0

1.6271680364760468e6 1.0253356391247574e7 0.0
1.0253356391247574e7 -1.3396848685221266e7 0.0
0.0 0.0 0.0

4.993241161717738e7 3.6011379516350694e7 0.0
3.6011379516350694e7 2.433627900498399e7 0.0
0.0 0.0 0.0

4.1620553103660094e6 2.1999180732121687e7 0.0
2.1999180732121687e7 1.43223980628128e7 0.0
0.0 0.0 0.0

-4.480777630130848e6 4.11453191914248e7 0.0
4.11453191914248e7 3.9403716893215305e6 0.0
0.0 0.0 0.0

-4.969645784360411e7 2.8911452440534074e7 0.0
2.8911452440534074e7 3.186989542597126e6 0.0
0.0 0.0 0.0

2.7992641206305344e6 3.5692390420217616e6 0.0
3.5692390420217616e6 -2.7019413792884685e7 0.0
0.0 0.0 0.0

1.3568002111405348e6 2.45367982266634e7 0.0
2.45367982266634e7 9.196739077448733e6 0.0
0.0 0.0 0.0

-6.860839794622894e6 2.03294752827769e7 0.0
2.03294752827769e7 -2.7091950054834012e7 0.0
0.0 0.0 0.0

-574377.6614055987 2.1757078239563584e7 0.0
2.1757078239563584e7 -2.751458548216436e7 0.0
0.0 0.0 0.0

-7.879697768735129e6 -182489.31864024067 0.0
-182489.31864024067 3.673988144983383e7 0.0
0.0 0.0 0.0

755087.4880279396 1.6748382258388193e7 0.0
1.6748382258388193e7 -2.581183449616321e7 0.0
0.0 0.0 0.0

-1.479510963449864e7 2.0596774215221275e7 0.0
2.0596774215221275e7 -6.920845209721075e7 0.0
0.0 0.0 0.0

875665.4958083648 1.5941955738371141e7 0.0
1.5941955738371141e7 -2.7435176711206477e7 0.0
0.0 0.0 0.0

3.880319429012398e6 2.6763737304112088e7 0.0
2.6763737304112088e7 -1.0665083997826083e7 0.0
0.0 0.0 0.0

4.606342155245815e7 2.8565221332108784e7 0.0
2.8565221332108784e7 1.0856132022354657e7 0.0
0.0 0.0 0.0

-3.4528418097796105e6 1.762128652453298e7 0.0
1.762128652453298e7 4.737900861167017e7 0.0
0.0 0.0 0.0

-7.67405552130551e6 2.843381525021761e7 0.0
2.843381525021761e7 -1.5141447428338446e7 0.0
0.0 0.0 0.0

565591.2346289367 2.271476422431464e7 0.0
2.271476422431464e7 1.177900732706333e6 0.0
0.0 0.0 0.0

-8.277895286011155e6 2.5548782087915834e7 0.0
2.5548782087915834e7 -1.942586300905342e7 0.0
0.0 0.0 0.0

4.70161057851607e7 3.572430814891944e7 0.0
3.572430814891944e7 2.106094310901247e7 0.0
0.0 0.0 0.0

-4.421106758840897e6 2.9069499078864664e7 0.0
2.9069499078864664e7 1.5013985369178835e7 0.0
0.0 0.0 0.0

3.2900669867786653e6 2.6429812574414376e7 0.0
2.6429812574414376e7 -3.018406345492809e6 0.0
0.0 0.0 0.0

1.529434538184624e6 3.732741585124252e7 0.0
3.732741585124252e7 -1.7911501670328784e6 0.0
0.0 0.0 0.0

-2.101588279202026e6 2.8142197544823676e7 0.0
2.8142197544823676e7 9.181096453691235e6 0.0
0.0 0.0 0.0

-3.1212316660622545e6 2.8863017248315723e6 0.0
2.8863017248315723e6 9.546283719294728e7 0.0
0.0 0.0 0.0

1.6991094838125892e6 2.5913706251483347e7 0.0
2.5913706251483347e7 -1.7153162466751434e7 0.0
0.0 0.0 0.0

-1.586827479228579e6 3.616264471698984e7 0.0
3.616264471698984e7 2.7515930028434903e6 0.0
0.0 0.0 0.0

-1.839084266333921e6 4.0529171680451524e6 0.0
4.0529171680451524e6 4.587477226537323e6 0.0
0.0 0.0 0.0

-4.876002890710244e6 1.9866396719939813e7 0.0
1.9866396719939813e7 3.3445481426878143e7 0.0
0.0 0.0 0.0

-4.804474051598728e6 2.1488810170755465e7 0.0
2.1488810170755465e7 -1.8965991142146666e7 0.0
0.0 0.0 0.0

1.7816844673401378e6 3.566427889158119e6 0.0
3.566427889158119e6 -3.8376445209174655e7 0.0
0.0 0.0 0.0

-2.060290758559404e6 4.3206878580546945e7 0.0
4.3206878580546945e7 2.4249290815166133e6 0.0
0.0 0.0 0.0

1.5626738628384462e6 1.7161585789794322e7 0.0
1.7161585789794322e7 -2.3405012021187086e7 0.0
0.0 0.0 0.0

-3.38617294616458e6 2.3299601299225017e7 0.0
2.3299601299225017e7 2.4921841138266284e7 0.0
0.0 0.0 0.0

210743.139303796 7.078756134825898e6 0.0
7.078756134825898e6 -8.268836954956286e7 0.0
0.0 0.0 0.0

-5.435077619690633e6 4.065995463855715e7 0.0
4.065995463855715e7 3.323888919962838e6 0.0
0.0 0.0 0.0

-1.1509523059881119e7 2.1221211835238896e7 0.0
2.1221211835238896e7 -4.081162909624756e7 0.0
0.0 0.0 0.0

2.9746039761164365e6 2.2547043536103037e6 0.0
2.2547043536103037e6 -1.7031781557105392e7 0.0
0.0 0.0 0.0

-990289.4208132573 1.3085307480997948e7 0.0
1.3085307480997948e7 -3.4741197527326373e6 0.0
0.0 0.0 0.0

-2.226651326155063e7 4.108476973506094e7 0.0
4.108476973506094e7 5.878337985423564e6 0.0
0.0 0.0 0.0

8.583933113042243e6 1.9373623638289127e7 0.0
1.9373623638289127e7 2.7351642753753684e7 0.0
0.0 0.0 0.0

-1.1254661468786072e7 4.9050230017601654e7 0.0
4.9050230017601654e7 3.6206319755720487e6 0.0
0.0 0.0 0.0

-8.741128690347787e6 9.370318482173858e6 0.0
9.370318482173858e6 3.525954104419038e7 0.0
0.0 0.0 0.0

-1.1939898980728686e6 1.0891597019961765e7 0.0
1.0891597019961765e7 -9.210152445102532e7 0.0
0.0 0.0 0.0

1.0870646491998816e8 3.632333381244693e7 0.0
3.632333381244693e7 1.354807412405673e7 0.0
0.0 0.0 0.0

-484190.719297031 3.414244765950517e7 0.0
3.414244765950517e7 598841.6211698256 0.0
0.0 0.0 0.0

-6.892681790123057e6 3.494746898988637e7 0.0
3.494746898988637e7 7.86507271942439e6 0.0
0.0 0.0 0.0

-1.9101119890489192e6 3.117891201723793e7 0.0
3.117891201723793e7 6.063144904906503e6 0.0
0.0 0.0 0.0

1.2577630139817873e7 2.3493352558757793e7 0.0
2.3493352558757793e7 7.592813551288635e7 0.0
0.0 0.0 0.0

1.2783329919216223e6 3.9880969354691748e6 0.0
3.9880969354691748e6 -4.535486969254594e7 0.0
0.0 0.0 0.0

43512.313180502504 1.600380400734442e7 0.0
1.600380400734442e7 -1.0064224314727727e7 0.0
0.0 0.0 0.0

1.3069396569707315e7 4.195541552075793e7 0.0
4.195541552075793e7 -5.444808469689855e6 0.0
0.0 0.0 0.0

-732835.1514637973 1.2965044735212728e7 0.0
1.2965044735212728e7 -5.118551201069293e7 0.0
0.0 0.0 0.0

-2.6188379087885078e7 2.4581886298784513e7 0.0
2.4581886298784513e7 1.8325364445020314e6 0.0
0.0 0.0 0.0

-8.1253980613547005e6 2.880725690414221e7 0.0
2.880725690414221e7 2.9619320959754004e6 0.0
0.0 0.0 0.0

739176.8984050512 2.3493008894507363e7 0.0
2.3493008894507363e7 5.4620261708222935e6 0.0
0.0 0.0 0.0

1.5898054811401442e6 1.6358790954130286e7 0.0
1.6358790954130286e7 -2.5160504443004765e7 0.0
0.0 0.0 0.0

6.614193732305333e6 2.2325344838255428e7 0.0
2.2325344838255428e7 4.9741014699364096e7 0.0
0.0 0.0 0.0

2.0172673451017037e7 4.236553436977679e7 0.0
4.236553436977679e7 -6.271969073616154e6 0.0
0.0 0.0 0.0

-5.421382281987415e7 5.970891659631053e6 0.0
5.970891659631053e6 4.77452794530578e6 0.0
0.0 0.0 0.0

6.4956415427289024e7 5.8489820264895774e7 0.0
5.8489820264895774e7 -9.265173798734058e6 0.0
0.0 0.0 0.0

1.927817769927374e7 4.268544004547639e7 0.0
4.268544004547639e7 -6.736264955446583e6 0.0
0.0 0.0 0.0

2.442168673464708e6 3.632058737551889e6 0.0
3.632058737551889e6 -2.592830122530588e7 0.0
0.0 0.0 0.0

-3.2829929625667934e6 3.619295981870214e7 0.0
3.619295981870214e7 2.89561481083724e6 0.0
0.0 0.0 0.0

5.512976585867432e7 1.961107374971621e7 0.0
1.961107374971621e7 3.8720958222097084e6 0.0
0.0 0.0 0.0

-3.435610016213022e6 1.0326817020809585e7 0.0
1.0326817020809585e7 7.052780397927205e7 0.0
0.0 0.0 0.0

1.7370401252407525e6 2.6245669339240342e7 0.0
2.6245669339240342e7 -1.651374102190792e7 0.0
0.0 0.0 0.0

3.466897449865578e7 2.3924816748339437e7 0.0
2.3924816748339437e7 6.878377765756931e6 0.0
0.0 0.0 0.0

2.802458802983757e6 2.681021468136047e7 0.0
2.681021468136047e7 -1.284840641991431e7 0.0
0.0 0.0 0.0

1.6320665973209515e6 4.791533667999265e6 0.0
4.791533667999265e6 -4.902150003330782e7 0.0
0.0 0.0 0.0

318982.88864603627 3.394252915467702e7 0.0
3.394252915467702e7 -1.492725610244196e6 0.0
0.0 0.0 0.0

-6.105032970478814e6 2.0894103808571782e7 0.0
2.0894103808571782e7 -2.4276715010387674e7 0.0
0.0 0.0 0.0

5.059333020765232e6 3.6856358952637255e7 0.0
3.6856358952637255e7 -6.111642110983923e6 0.0
0.0 0.0 0.0

-1.5098792064620964e6 1.3343301197069883e7 0.0
1.3343301197069883e7 7.284172325078022e7 0.0
0.0 0.0 0.0

-1.3894445527194152e6 2.357470172316333e7 0.0
2.357470172316333e7 -1.2648004176579034e7 0.0
0.0 0.0 0.0

1.086551442488255e6 1.208335044061937e7 0.0
1.208335044061937e7 -3.522148600207994e7 0.0
0.0 0.0 0.0

7.681310685548408e6 3.03102865839683e7 0.0
3.03102865839683e7 -6.957193638992366e6 0.0
0.0 0.0 0.0

-4.1606929702690425e6 2.2985959546132166e7 0.0
2.2985959546132166e7 -1.2285534146130556e7 0.0
0.0 0.0 0.0

-4.9979443246523775e6 5.336851883411317e6 0.0
5.336851883411317e6 6.48291220451834e7 0.0
0.0 0.0 0.0

5.349235783462742e6 2.3202137711538453e7 0.0
2.3202137711538453e7 2.8756983543558463e7 0.0
0.0 0.0 0.0

-1.0457719426684417e6 1.25022226078153e7 0.0
1.25022226078153e7 -5.545978057066479e7 0.0
0.0 0.0 0.0

6.153708258859422e6 3.6458370219013594e7 0.0
3.6458370219013594e7 -5.840345012667505e6 0.0
0.0 0.0 0.0

5.819843950885462e6 2.733669759685357e7 0.0
2.733669759685357e7 1.7447013473275375e7 0.0
0.0 0.0 0.0

1.8572568354722187e6 1.07688795271048e7 0.0
1.07688795271048e7 -3.461054109438425e7 0.0
0.0 0.0 0.0

8.23789313274285e7 3.513259022110872e7 0.0
3.513259022110872e7 1.927773256299504e7 0.0
0.0 0.0 0.0

5.006190069102844e6 3.558734842321388e7 0.0
3.558734842321388e7 -6.045143631015578e6 0.0
0.0 0.0 0.0

-7.429402028383147e6 66868.47476374739 0.0
66868.47476374739 4.0679167520774916e7 0.0
0.0 0.0 0.0

-6.288186363078512e6 5.749769724552664e6 0.0
5.749769724552664e6 6.072096704806935e7 0.0
0.0 0.0 0.0

2.046409401368171e6 1.5048192606675143e6 0.0
1.5048192606675143e6 -4.115983572321241e7 0.0
0.0 0.0 0.0

-2.59424839648173e6 3.0609041508664377e7 0.0
3.0609041508664377e7 5.313562147133043e6 0.0
0.0 0.0 0.0

-2.2704948776048236e6 2.3282761724007722e7 0.0
2.3282761724007722e7 -1.1733410125652917e7 0.0
0.0 0.0 0.0

3.2067612249180507e6 2.885182104424422e7 0.0
2.885182104424422e7 -1.3065963750566762e7 0.0
0.0 0.0 0.0

-8.719740440387977e6 3.0992170335169565e6 0.0
3.0992170335169565e6 3.1224902659747496e7 0.0
0.0 0.0 0.0

1.5553166360194841e6 2.9250079493994746e7 0.0
2.9250079493994746e7 -9.291107158932459e6 0.0
0.0 0.0 0.0

-5.517139594639052e6 5.213095976302132e6 0.0
5.213095976302132e6 6.482603248327099e7 0.0
0.0 0.0 0.0

1.4098629858959448e7 2.6028724660938013e7 0.0
2.6028724660938013e7 9.170265303527147e6 0.0
0.0 0.0 0.0

-1.550139342768686e6 1.5293431798693346e7 0.0
1.5293431798693346e7 -5.29423756986645e7 0.0
0.0 0.0 0.0

-278550.801184047 1.256976536454598e7 0.0
1.256976536454598e7 -5.5938414081853144e7 0.0
0.0 0.0 0.0

-4.889042673454594e6 1.9377410014282852e7 0.0
1.9377410014282852e7 3.558886093413563e7 0.0
0.0 0.0 0.0

-1.5054427045227974e6 2.5231147998539194e7 0.0
2.5231147998539194e7 6.987333024947214e6 0.0
0.0 0.0 0.0

-65862.19667667725 5.24869946210779e6 0.0
5.24869946210779e6 -177261.1257048647 0.0
0.0 0.0 0.0

-1.7932761232870342e6 2.485808358510086e7 0.0
2.485808358510086e7 -1.0619625895829363e7 0.0
0.0 0.0 0.0

-3.8721448896049336e6 3.360122309980528e7 0.0
3.360122309980528e7 8.280216007459486e6 0.0
0.0 0.0 0.0

1.1258744913858244e7 2.3266875804278877e7 0.0
2.3266875804278877e7 6.221206274346258e7 0.0
0.0 0.0 0.0

2.043840365384354e7 2.992725174523894e7 0.0
2.992725174523894e7 -807896.5951456651 0.0
0.0 0.0 0.0

-2.6244955991408788e6 2.4567971832536766e6 0.0
2.4567971832536766e6 9.264310435787192e7 0.0
0.0 0.0 0.0

-4.026310909590952e6 1.3200642165801374e7 0.0
1.3200642165801374e7 5.7885077989185244e7 0.0
0.0 0.0 0.0

-5.502195406310447e6 1.961672716751271e7 0.0
1.961672716751271e7 2.8481997973641798e7 0.0
0.0 0.0 0.0

3.434192883644912e6 2.3236832733892605e7 0.0
2.3236832733892605e7 1.5178521476329066e7 0.0
0.0 0.0 0.0

-1.0063420003748016e7 7.548290033308918e6 0.0
7.548290033308918e6 2.282327235250044e7 0.0
0.0 0.0 0.0

-1.37042121329929e7 2.5106683965511005e7 0.0
2.5106683965511005e7 -1.2052558504044708e7 0.0
0.0 0.0 0.0

2.0947859891222976e6 5.305167419830456e6 0.0
5.305167419830456e6 -4.320148899101915e7 0.0
0.0 0.0 0.0

-1.1418471227448393e7 2.0690780607635237e7 0.0
2.0690780607635237e7 -5.827981630140173e7 0.0
0.0 0.0 0.0

3.086254582410886e6 2.191837774370735e7 0.0
2.191837774370735e7 9.695862777813084e6 0.0
0.0 0.0 0.0

2.711441511709715e7 3.763366850825268e7 0.0
3.763366850825268e7 -5.427760704090318e6 0.0
0.0 0.0 0.0

3.5601597380432845e6 2.7610003469653245e7 0.0
2.7610003469653245e7 -9.337282851009917e6 0.0
0.0 0.0 0.0

-3.2687135837841537e7 3.2389467184033368e7 0.0
3.2389467184033368e7 -1.1514863440512609e7 0.0
0.0 0.0 0.0

-440679.94369512965 3.543959905357673e7 0.0
3.543959905357673e7 -1.959252021734516e6 0.0
0.0 0.0 0.0

-2.869568307065374e6 8.439804918130321e6 0.0
8.439804918130321e6 -1.0678315984604706e6 0.0
0.0 0.0 0.0

-7.4208034371653795e6 5.031762727840888e7 0.0
5.031762727840888e7 5.572278124119869e6 0.0
0.0 0.0 0.0

-1.4385285831705015e6 2.5973642985800333e7 0.0
2.5973642985800333e7 5.371070162946336e6 0.0
0.0 0.0 0.0

-1.0210306355436368e7 1.2152104478353634e7 0.0
1.2152104478353634e7 2.3415770482590504e7 0.0
0.0 0.0 0.0

-2.162962024879151e6 2.6030916712695405e7 0.0
2.6030916712695405e7 2.915798841799913e6 0.0
0.0 0.0 0.0

-8.050958928781468e6 1.536643653458155e6 0.0
1.536643653458155e6 1.0422750858753856e7 0.0
0.0 0.0 0.0

-500186.05448320135 1.1503802385234063e7 0.0
1.1503802385234063e7 -2.72437731403146e7 0.0
0.0 0.0 0.0

-996184.7152926195 1.6105926975276886e7 0.0
1.6105926975276886e7 -4.5426872847674415e7 0.0
0.0 0.0 0.0

-1.4984294356883517e7 2.7907439093445655e7 0.0
2.7907439093445655e7 -1.2410436963415507e7 0.0
0.0 0.0 0.0

-1.3135022319768183e6 2.3664675189012233e7 0.0
2.3664675189012233e7 2.939659127870879e7 0.0
0.0 0.0 0.0

-1.7132971235538167e6 2.3121289140763026e7 0.0
2.3121289140763026e7 -8.565578052537061e6 0.0
0.0 0.0 0.0

2.759821860776851e6 4.1913926533404742e6 0.0
4.1913926533404742e6 -1.7266546813927874e7 0.0
0.0 0.0 0.0

493321.45192841557 3.174013191203036e7 0.0
3.174013191203036e7 -6.070521012276114e6 0.0
0.0 0.0 0.0

1.0217820083373997e6 3.7113090903469786e7 0.0
3.7113090903469786e7 -3.3018841684770877e6 0.0
0.0 0.0 0.0

9.996632839759573e6 2.9678049131157372e7 0.0
2.9678049131157372e7 -5.930469446198339e6 0.0
0.0 0.0 0.0

-8.862502928691415e6 1.5085683639080593e7 0.0
1.5085683639080593e7 2.4715519295322135e7 0.0
0.0 0.0 0.0

-3.6925636649253024e6 2.2206735492283404e7 0.0
2.2206735492283404e7 -2.634217450645409e7 0.0
0.0 0.0 0.0

-8.1164812587226685e6 4.2675958066648215e7 0.0
4.2675958066648215e7 3.701782999089191e6 0.0
0.0 0.0 0.0

-6.6857810958206095e6 4.167738866693342e7 0.0
4.167738866693342e7 3.4931854549969155e6 0.0
0.0 0.0 0.0

-4.936777635910071e6 1.9436467679518387e7 0.0
1.9436467679518387e7 -4.2653320123355836e7 0.0
0.0 0.0 0.0

-5.4143534472873015e6 2.267692173817422e7 0.0
2.267692173817422e7 -1.5895993906632038e7 0.0
0.0 0.0 0.0

1.8345005180802932e6 2.2984299848323986e7 0.0
2.2984299848323986e7 7.843011429809997e6 0.0
0.0 0.0 0.0

647545.3374345284 1.144249100372165e7 0.0
1.144249100372165e7 -4.317222616975363e7 0.0
0.0 0.0 0.0

-5.604370147000046e6 1.451231439780551e7 0.0
1.451231439780551e7 4.749908132392683e7 0.0
0.0 0.0 0.0

-3.5010419703365043e6 1.5010431999648532e7 0.0
1.5010431999648532e7 -9.570745466474505e7 0.0
0.0 0.0 0.0

1.686912444797794e7 4.755570775674544e7 0.0
4.755570775674544e7 -7.503061717953586e6 0.0
0.0 0.0 0.0

1.0745448001788206e7 2.0826130744681872e7 0.0
2.0826130744681872e7 4.46946971182369e7 0.0
0.0 0.0 0.0

8.686354376136145e6 2.1968076487292074e7 0.0
2.1968076487292074e7 5.647900425218692e7 0.0
0.0 0.0 0.0

3.49666633367434e7 3.1190645045254573e7 0.0
3.1190645045254573e7 1.6483632846992027e7 0.0
0.0 0.0 0.0

-116359.62864751136 2.420433873262881e7 0.0
2.420433873262881e7 4.116748364081199e6 0.0
0.0 0.0 0.0

590524.2516028655 3.111977029296976e7 0.0
3.111977029296976e7 -5.706464363345206e6 0.0
0.0 0.0 0.0

-4.0479137045805566e7 3.356066410369383e7 0.0
3.356066410369383e7 -1.271593815055751e7 0.0
0.0 0.0 0.0

-70452.89177572366 2.3062286519752678e7 0.0
2.3062286519752678e7 1.596552115507309e6 0.0
0.0 0.0 0.0

-4.679520180577342e6 2.7435029093813963e7 0.0
2.7435029093813963e7 6.954281055745407e6 0.0
0.0 0.0 0.0

2.5566647899028044e6 3.7687683529141597e6 0.0
3.7687683529141597e6 -3.548422542908601e7 0.0
0.0 0.0 0.0

-1.5992803079653176e7 2.7147074001017604e7 0.0
2.7147074001017604e7 -1.006894886836997e7 0.0
0.0 0.0 0.0

-2.005331470726106e7 5.290906538340864e7 0.0
5.290906538340864e7 6.469651537468253e6 0.0
0.0 0.0 0.0

-8.49720714329976e6 4.895500345387404e6 0.0
4.895500345387404e6 3.503028578202026e7 0.0
0.0 0.0 0.0

1.967277274300895e7 3.8850281829422906e7 0.0
3.8850281829422906e7 -5.565851506483447e6 0.0
0.0 0.0 0.0

-656056.0687706694 1.2605545875138294e7 0.0
1.2605545875138294e7 1.0072424775271317e8 0.0
0.0 0.0 0.0

-7.514281680918153e6 122415.22695895555 0.0
122415.22695895555 4.050316443998258e7 0.0
0.0 0.0 0.0

-1.867875796394269e7 2.347548282692224e7 0.0
2.347548282692224e7 -7.555976938559034e7 0.0
0.0 0.0 0.0

-338449.83712754585 2.5518664573607996e7 0.0
2.5518664573607996e7 -1.392316247265749e7 0.0
0.0 0.0 0.0

1.1022366685353415e6 3.833659679980661e7 0.0
3.833659679980661e7 -1.6861377677556886e6 0.0
0.0 0.0 0.0

-9.893958053913483e6 2.2661417582111713e7 0.0
2.2661417582111713e7 -1.559177306863503e7 0.0
0.0 0.0 0.0

-1.152810201325072e6 1.2456565274360338e7 0.0
1.2456565274360338e7 -1.4929870826580857e6 0.0
0.0 0.0 0.0

-281395.37410057336 3.369667058032951e7 0.0
3.369667058032951e7 -3.292439817869964e6 0.0
0.0 0.0 0.0

-3.990976368889503e6 4.026672890392581e7 0.0
4.026672890392581e7 3.280975248341594e6 0.0
0.0 0.0 0.0

1.5867593047661665e6 3.864044636349802e7 0.0
3.864044636349802e7 -2.233297495316432e6 0.0
0.0 0.0 0.0

-5.8949121066477485e6 1.3856005653161423e7 0.0
1.3856005653161423e7 -1.0344165938756724e8 0.0
0.0 0.0 0.0

-7.728379286100253e6 2.3362099498282805e7 0.0
2.3362099498282805e7 -2.76524252148666e7 0.0
0.0 0.0 0.0

-4.0943732521790788e6 4.052880515139015e6 0.0
4.052880515139015e6 7.631390124571052e7 0.0
0.0 0.0 0.0

1.9380442711187314e7 2.6558597455867607e7 0.0
2.6558597455867607e7 8.462814463306914e7 0.0
0.0 0.0 0.0

-6.209298498220986e7 5.796545227457953e6 0.0
5.796545227457953e6 4.472554692935403e6 0.0
0.0 0.0 0.0

5.8112511601545595e7 3.7933569165108085e7 0.0
3.7933569165108085e7 1.4122248510793883e7 0.0
0.0 0.0 0.0

-1.0694064514084198e6 1.9208415313826874e7 0.0
1.9208415313826874e7 -3.717354962600782e7 0.0
0.0 0.0 0.0

1.9260302407710142e6 6.05972514197054e6 0.0
6.05972514197054e6 -9.828370582757672e6 0.0
0.0 0.0 0.0

7.795730220881623e7 3.585518404722374e7 0.0
3.585518404722374e7 2.2913028578417897e6 0.0
0.0 0.0 0.0

2.0043147859101854e6 1.3241051494497743e7 0.0
1.3241051494497743e7 -3.42117876225662e7 0.0
0.0 0.0 0.0

4.349900570239929e7 3.1826215819338385e7 0.0
3.1826215819338385e7 1.8035016953020185e7 0.0
0.0 0.0 0.0

-996066.0801062909 3.506043327066102e7 0.0
3.506043327066102e7 -1.1671799688983832e6 0.0
0.0 0.0 0.0

-5.710803669813541e6 3.416773671712842e7 0.0
3.416773671712842e7 8.206141685533483e6 0.0
0.0 0.0 0.0

-1.2036695258671977e6 1.6610966141455935e7 0.0
1.6610966141455935e7 -1.1014232475048114e7 0.0
0.0 0.0 0.0

-6.958628129240949e6 1.6399463660057057e7 0.0
1.6399463660057057e7 -1.0385025953007022e7 0.0
0.0 0.0 0.0

-7.782958852711468e6 2.2262531921245895e7 0.0
2.2262531921245895e7 -2.6274222150653403e7 0.0
0.0 0.0 0.0

-1.9035557499092063e6 2.6258214685333636e7 0.0
2.6258214685333636e7 1.0863206603834763e7 0.0
0.0 0.0 0.0

5.523354135346425e6 2.6180488163769737e7 0.0
2.6180488163769737e7 1.3549966886382826e7 0.0
0.0 0.0 0.0

-914253.669958625 1.1037291830343077e7 0.0
1.1037291830343077e7 9.528186301273963e7 0.0
0.0 0.0 0.0

-1.4985285086239446e6 3.2563696276088208e7 0.0
3.2563696276088208e7 -388044.83339722484 0.0
0.0 0.0 0.0

1.9934320678141844e6 1.4715902899680315e6 0.0
1.4715902899680315e6 -4.134355894265394e7 0.0
0.0 0.0 0.0

-2.445106528807516e6 2.6767455687153798e7 0.0
2.6767455687153798e7 1.867816870580022e7 0.0
0.0 0.0 0.0

3.587188949321543e6 2.6086300589069035e7 0.0
2.6086300589069035e7 1.5427904685027935e7 0.0
0.0 0.0 0.0

1.9097648309964355e7 3.258727885840817e7 0.0
3.258727885840817e7 -3.4611507561431024e6 0.0
0.0 0.0 0.0

2.7003594928070786e6 3.174370259753698e7 0.0
3.174370259753698e7 -9.436729461604781e6 0.0
0.0 0.0 0.0

-5.487718890948928e6 4.561442008596619e7 0.0
4.561442008596619e7 2.130298983898893e6 0.0
0.0 0.0 0.0

-3.8634954247030676e6 9.42554601614563e6 0.0
9.42554601614563e6 1.313961938291271e6 0.0
0.0 0.0 0.0

-1.6050088882975008e7 4.1188186270639695e7 0.0
4.1188186270639695e7 5.850533952389856e6 0.0
0.0 0.0 0.0

-2.0203851060735604e6 3.563378995702413e7 0.0
3.563378995702413e7 3.80711046978415e6 0.0
0.0 0.0 0.0

-5.274567753936337e6 2.098248762194494e7 0.0
2.098248762194494e7 2.8352421768199544e7 0.0
0.0 0.0 0.0

4.815736543859006e7 3.21323356056181e7 0.0
3.21323356056181e7 4.254624115427636e6 0.0
0.0 0.0 0.0

1.4959760865604319e6 2.3925657756959803e7 0.0
2.3925657756959803e7 -1.8100752063645463e7 0.0
0.0 0.0 0.0

-1.472985649628533e6 3.464281674865114e7 0.0
3.464281674865114e7 -229326.4447587583 0.0
0.0 0.0 0.0

-1.0774736743103093e6 1.4984468208380656e7 0.0
1.4984468208380656e7 -1.1528221186472178e7 0.0
0.0 0.0 0.0

-310659.9299959289 2.55262192960819e7 0.0
2.55262192960819e7 1.7393428759664837e7 0.0
0.0 0.0 0.0

-1.0933798289722119e7 1.763581591047475e7 0.0
1.763581591047475e7 -6.894769738540018e6 0.0
0.0 0.0 0.0

-1.5450452808556702e7 2.5961019983717766e7 0.0
2.5961019983717766e7 -1.0160501010031514e7 0.0
0.0 0.0 0.0

844741.5017597098 2.5089936566302117e7 0.0
2.5089936566302117e7 -1.3803787612848364e7 0.0
0.0 0.0 0.0

1.5304808783704186e7 1.8827230671301976e7 0.0
1.8827230671301976e7 5.31380036526195e6 0.0
0.0 0.0 0.0

125957.19453183282 2.3067640838100277e7 0.0
2.3067640838100277e7 -2.3181436155327585e7 0.0
0.0 0.0 0.0

-1.0071500236747712e6 2.3286686259709083e7 0.0
2.3286686259709083e7 2.938118890194018e7 0.0
0.0 0.0 0.0

-2.084626806432762e7 2.474749175572179e7 0.0
2.474749175572179e7 -4.510474605379301e6 0.0
0.0 0.0 0.0

-3.3888435474106036e6 2.602101344894228e7 0.0
2.602101344894228e7 4.484458357658055e6 0.0
0.0 0.0 0.0

-9.67158574252647e6 1.070654790161919e7 0.0
1.070654790161919e7 3.2694936694331408e7 0.0
0.0 0.0 0.0

5.237087804613371e6 2.2535723663471837e7 0.0
2.2535723663471837e7 2.781499251297853e7 0.0
0.0 0.0 0.0

2.3300729984453205e7 4.291300410417886e7 0.0
4.291300410417886e7 -7.29372389878183e6 0.0
0.0 0.0 0.0

-5.284385960501798e7 3.4042263186392166e7 0.0
3.4042263186392166e7 -3.5025131199224293e6 0.0
0.0 0.0 0.0

1.5629116347568292e7 5.423684860007026e7 0.0
5.423684860007026e7 -3.8424018736114884e6 0.0
0.0 0.0 0.0

-1.786002982919562e7 3.007628068161591e7 0.0
3.007628068161591e7 -922448.9765140302 0.0
0.0 0.0 0.0

9.570123004972598e6 4.883371414636477e7 0.0
4.883371414636477e7 -2.5160292096704063e6 0.0
0.0 0.0 0.0

-9.86893283781512e6 6.750699018759888e6 0.0
6.750699018759888e6 3.2123386002779856e7 0.0
0.0 0.0 0.0

2.3337830093610443e7 3.0987600244831882e7 0.0
3.0987600244831882e7 -948676.3359053843 0.0
0.0 0.0 0.0

-5.394346495583942e6 4.216427430202191e7 0.0
4.216427430202191e7 4.253709628191896e6 0.0
0.0 0.0 0.0

-6.647177163522679e6 2.7139166587920815e7 0.0
2.7139166587920815e7 1.1054364272519462e6 0.0
0.0 0.0 0.0

-953148.8276824187 2.139632869022973e7 0.0
2.139632869022973e7 -3.0252042733546928e7 0.0
0.0 0.0 0.0

-8.45033859391944e6 3.716931233083223e7 0.0
3.716931233083223e7 6.745947179091926e6 0.0
0.0 0.0 0.0

-9.455217347215189e6 2.210604645260909e7 0.0
2.210604645260909e7 -1.0900579376768509e7 0.0
0.0 0.0 0.0

8.537180220791165e6 4.782846153477984e7 0.0
4.782846153477984e7 -4.880025500563502e6 0.0
0.0 0.0 0.0

-1.9977657593780555e7 4.145701551821767e7 0.0
4.145701551821767e7 6.794726874824654e6 0.0
0.0 0.0 0.0

1.6494373040591074e7 3.1354132820303697e7 0.0
3.1354132820303697e7 -2.9207620190067124e6 0.0
0.0 0.0 0.0

2.747648822445235e6 6.165352284868761e6 0.0
6.165352284868761e6 -2.267718722983224e7 0.0
0.0 0.0 0.0

-8.961477481720451e6 2.1741090477086842e7 0.0
2.1741090477086842e7 -4.6624834751111634e7 0.0
0.0 0.0 0.0

2.6026207372947615e6 4.069851331945485e6 0.0
4.069851331945485e6 -1.906514534671696e7 0.0
0.0 0.0 0.0

8.666833008747661e6 2.1348290526478503e7 0.0
2.1348290526478503e7 4.197364592599176e7 0.0
0.0 0.0 0.0

8.936117233324554e6 2.8775938806415e7 0.0
2.8775938806415e7 -3.3138097531149248e6 0.0
0.0 0.0 0.0

1.5576080540528376e7 3.928036028556351e7 0.0
3.928036028556351e7 -5.861388404317902e6 0.0
0.0 0.0 0.0

-4.878777338125911e6 2.0684374742248695e7 0.0
2.0684374742248695e7 3.3666067103908814e7 0.0
0.0 0.0 0.0

-156723.12444360647 1.7507281438709214e7 0.0
1.7507281438709214e7 -9.65729310735006e6 0.0
0.0 0.0 0.0

3.308816257379168e6 1.0662244022957914e7 0.0
1.0662244022957914e7 3.992748302455957e6 0.0
0.0 0.0 0.0

-2.0388728271442354e6 1.3037486962602617e7 0.0
1.3037486962602617e7 -7.911676018115366e7 0.0
0.0 0.0 0.0

3.4707718916656817e6 1.9788235174743544e7 0.0
1.9788235174743544e7 9.664150636611342e6 0.0
0.0 0.0 0.0

-1.8851617719782308e7 3.642624283640889e7 0.0
3.642624283640889e7 5.065286369040113e6 0.0
0.0 0.0 0.0

-1.9801353046686463e6 2.3334301299839582e7 0.0
2.3334301299839582e7 -1.6469768205506917e7 0.0
0.0 0.0 0.0

3.726740128398377e7 3.069116320932362e7 0.0
3.069116320932362e7 1.7452154533401668e7 0.0
0.0 0.0 0.0

-8.011767996814059e6 9.205881669234792e6 0.0
9.205881669234792e6 4.227203658574937e7 0.0
0.0 0.0 0.0

-4.135162309980134e7 3.763559633084695e7 0.0
3.763559633084695e7 -1.1115444708802793e6 0.0
0.0 0.0 0.0

4.678384959702418e7 4.550928094095033e7 0.0
4.550928094095033e7 -8.406988700813651e6 0.0
0.0 0.0 0.0

-6.214415693612711e6 3.4142973013542295e7 0.0
3.4142973013542295e7 8.973943818041258e6 0.0
0.0 0.0 0.0

151825.25283069303 2.1153122699358374e7 0.0
2.1153122699358374e7 3.5743419716385542e6 0.0
0.0 0.0 0.0

-2.864470876038613e6 1.944941594371274e7 0.0
1.944941594371274e7 4.377759822311829e7 0.0
0.0 0.0 0.0

-7.847368937178642e6 1.272704407736546e6 0.0
1.272704407736546e6 4.1884501449472845e7 0.0
0.0 0.0 0.0

768255.9355239784 2.33720180804103e7 0.0
2.33720180804103e7 -1.9932222195117205e7 0.0
0.0 0.0 0.0

-1.4503366509423997e7 3.10084647816856e7 0.0
3.10084647816856e7 -1.6295617241353214e7 0.0
0.0 0.0 0.0

555296.009621297 2.3908423091674443e7 0.0
2.3908423091674443e7 -1.2656246932311287e7 0.0
0.0 0.0 0.0

-1.902598520791106e6 1.3825870688559607e7 0.0
1.3825870688559607e7 6.73291672871981e7 0.0
0.0 0.0 0.0

-332521.841289429 1.785117101381921e7 0.0
1.785117101381921e7 -3.622501225954332e7 0.0
0.0 0.0 0.0

-1.3893123634984545e7 3.0709843107565355e7 0.0
3.0709843107565355e7 -1.6521723102785444e7 0.0
0.0 0.0 0.0

-1.188598267053876e6 2.0767556705941357e7 0.0
2.0767556705941357e7 -3.01611615841376e7 0.0
0.0 0.0 0.0

3.826844741448493e7 2.9908889255148645e7 0.0
2.9908889255148645e7 1.915562281164463e7 0.0
0.0 0.0 0.0

-3.8156585532393344e6 1.2019860309759995e7 0.0
1.2019860309759995e7 6.1905866508346744e7 0.0
0.0 0.0 0.0

2.342729204266043e6 2.620033725378175e7 0.0
2.620033725378175e7 -348607.8336747417 0.0
0.0 0.0 0.0

-187459.65549215954 2.4995261070190717e7 0.0
2.4995261070190717e7 2.380767553734463e7 0.0
0.0 0.0 0.0

7.337025937184004e6 3.7527923926879786e7 0.0
3.7527923926879786e7 -5.820442113153169e6 0.0
0.0 0.0 0.0

1.6567020075329375e6 1.1834267767958144e7 0.0
1.1834267767958144e7 -3.732123100753519e7 0.0
0.0 0.0 0.0

1.5833969528722242e6 1.1005945556035275e7 0.0
1.1005945556035275e7 -1.460354391923293e7 0.0
0.0 0.0 0.0

-2.098601769188091e6 1.3688892301325023e7 0.0
1.3688892301325023e7 -6.84074003069663e7 0.0
0.0 0.0 0.0

-1.4037295975835275e7 2.870933142883539e7 0.0
2.870933142883539e7 -6.371698541807088e6 0.0
0.0 0.0 0.0

-5.437793487614263e6 1.1918614610364657e7 0.0
1.1918614610364657e7 5.6324622423979364e7 0.0
0.0 0.0 0.0

-1.2719482368368078e7 2.836766772338569e7 0.0
2.836766772338569e7 -1.1608665725679165e7 0.0
0.0 0.0 0.0

440972.92759116925 2.2517126462567057e7 0.0
2.2517126462567057e7 -1.318018466118458e7 0.0
0.0 0.0 0.0

-681837.8018465154 1.0412021037701404e7 0.0
1.0412021037701404e7 -5.960006219559614e7 0.0
0.0 0.0 0.0

-3.8012362255451605e6 1.8068995556821633e7 0.0
1.8068995556821633e7 4.4157539388981e7 0.0
0.0 0.0 0.0

5.256441722656814e6 2.178915853513656e7 0.0
2.178915853513656e7 1.8512235371628486e7 0.0
0.0 0.0 0.0

-2.0679074061360713e6 1.5714790230692886e7 0.0
1.5714790230692886e7 -4.918241455452167e7 0.0
0.0 0.0 0.0

1.4664554750667084e6 2.4069410540702087e6 0.0
2.4069410540702087e6 -4.6268767985247925e7 0.0
0.0 0.0 0.0

-2.7099247049942585e6 2.6086654788851827e7 0.0
2.6086654788851827e7 1.900112646527443e7 0.0
0.0 0.0 0.0

-1.191517673612204e7 2.9181802457073823e7 0.0
2.9181802457073823e7 -1.5850732912161414e7 0.0
0.0 0.0 0.0

1.0022083939952981e6 1.6209962176188083e7 0.0
1.6209962176188083e7 -1.7067368200461473e7 0.0
0.0 0.0 0.0

-6.773458242286455e6 5.103839868004228e6 0.0
5.103839868004228e6 5.1179848155278966e7 0.0
0.0 0.0 0.0

-5.608492035779269e6 561706.2714946979 0.0
561706.2714946979 1.1959801697823467e7 0.0
0.0 0.0 0.0

-4.105985529773568e6 2.3790627695690326e7 0.0
2.3790627695690326e7 2.295015275927391e7 0.0
0.0 0.0 0.0

4.074378503870742e7 3.3777155930020824e7 0.0
3.3777155930020824e7 2.4554664404285822e7 0.0
0.0 0.0 0.0

3.1216403119534485e7 3.027040983296348e7 0.0
3.027040983296348e7 1.8112311212393843e7 0.0
0.0 0.0 0.0

-2.2374930938628398e7 2.9349687436170466e7 0.0
2.9349687436170466e7 -1.4919571599554941e7 0.0
0.0 0.0 0.0

-5.816351494118598e6 2.0511742771958575e7 0.0
2.0511742771958575e7 -1.6610841011336897e7 0.0
0.0 0.0 0.0

-1.3211026898348104e7 2.9822632480282083e7 0.0
2.9822632480282083e7 -1.3472945424356826e7 0.0
0.0 0.0 0.0

-1.2509959523364238e7 2.7366510590171695e7 0.0
2.7366510590171695e7 -1.4888460588163178e7 0.0
0.0 0.0 0.0

-1.9044279986185022e6 1.4493355697593512e7 0.0
1.4493355697593512e7 -6.046035215461825e7 0.0
0.0 0.0 0.0

-2.873861172650648e6 4.508832594892092e6 0.0
4.508832594892092e6 723445.9793445785 0.0
0.0 0.0 0.0

-1.663371739893907e6 8.400133277640814e6 0.0
8.400133277640814e6 2.9580747421975434e6 0.0
0.0 0.0 0.0

1.808138217685162e6 2.136500502953937e7 0.0
2.136500502953937e7 2.5455998692404847e6 0.0
0.0 0.0 0.0

2.7366444270873353e7 3.0259983156556427e7 0.0
3.0259983156556427e7 1.6055832485293822e7 0.0
0.0 0.0 0.0

2.223013263122126e6 2.2584671762995727e7 0.0
2.2584671762995727e7 1.1630881772168625e7 0.0
0.0 0.0 0.0

-3.226187234406287e6 2.5092781477388203e7 0.0
2.5092781477388203e7 1.9696067783127386e7 0.0
0.0 0.0 0.0

-3.0203358335956894e7 1.633682786995609e7 0.0
1.633682786995609e7 6.631798299667174e6 0.0
0.0 0.0 0.0

4.2845607503256025e6 2.18716294630613e7 0.0
2.18716294630613e7 1.4150554774069188e7 0.0
0.0 0.0 0.0

1.7588800199888851e6 6.845012402525035e6 0.0
6.845012402525035e6 -2.3709075676826708e7 0.0
0.0 0.0 0.0

-1.870258471509546e7 3.900667402443063e7 0.0
3.900667402443063e7 6.354301417638906e6 0.0
0.0 0.0 0.0

-6.3548239087787755e6 2.831440543418666e6 0.0
2.831440543418666e6 5.404278580998144e7 0.0
0.0 0.0 0.0

-2.4679404134344943e6 2.522193364554871e7 0.0
2.522193364554871e7 -1.2200852603704888e7 0.0
0.0 0.0 0.0

1.2831185005381027e7 2.6497988629675504e7 0.0
2.6497988629675504e7 1.3765793252342092e7 0.0
0.0 0.0 0.0

-1.0985312263165398e7 2.881747898399994e7 0.0
2.881747898399994e7 -1.5846088586705878e7 0.0
0.0 0.0 0.0

-5.0848230275458135e6 2.0285740324468974e7 0.0
2.0285740324468974e7 -3.8635249296778396e7 0.0
0.0 0.0 0.0

3.261556608476341e7 3.2029671985481873e7 0.0
3.2029671985481873e7 2.2005690597227342e7 0.0
0.0 0.0 0.0

-4.721311595661998e6 2.2941218935432862e7 0.0
2.2941218935432862e7 -2.739349805868718e7 0.0
0.0 0.0 0.0

3.248102256874756e6 2.3161860301040784e7 0.0
2.3161860301040784e7 1.6343576269221084e7 0.0
0.0 0.0 0.0

7.0043904356628e6 2.593053386478418e7 0.0
2.593053386478418e7 1.8766338455850117e7 0.0
0.0 0.0 0.0

-2.4171018392153345e6 2.5823851895476576e7 0.0
2.5823851895476576e7 2.013201285053767e7 0.0
0.0 0.0 0.0

-2.3417170469254423e6 2.612089449614322e7 0.0
2.612089449614322e7 1.3642360677778255e7 0.0
0.0 0.0 0.0

1.2251765000514854e6 5.906344403115502e6 0.0
5.906344403115502e6 -4.410339814306413e7 0.0
0.0 0.0 0.0

2.551109688666512e6 4.057866526827408e7 0.0
4.057866526827408e7 -2.4747697832229827e6 0.0
0.0 0.0 0.0

-8.318536608969929e6 2.4660924568299722e7 0.0
2.4660924568299722e7 -2.1287487932947483e7 0.0
0.0 0.0 0.0

4.593852646660585e7 2.845758984628976e7 0.0
2.845758984628976e7 1.969228118500719e7 0.0
0.0 0.0 0.0

-1.1313100629196586e7 3.55407822246071e7 0.0
3.55407822246071e7 6.956429934021358e6 0.0
0.0 0.0 0.0

1.399613572951328e6 4.819847554105215e6 0.0
4.819847554105215e6 -5.1419581233336784e7 0.0
0.0 0.0 0.0

-1.605853398878788e6 2.299972478305466e7 0.0
2.299972478305466e7 9.023429613358703e6 0.0
0.0 0.0 0.0

2.3905799721694186e7 2.703377611108955e7 0.0
2.703377611108955e7 1.3438719889823563e7 0.0
0.0 0.0 0.0

5.8318434384539105e7 2.6666353653030045e7 0.0
2.6666353653030045e7 1.713387982900875e7 0.0
0.0 0.0 0.0

-7.635057519092365e6 4.166908505962646e7 0.0
4.166908505962646e7 5.29017361732522e6 0.0
0.0 0.0 0.0

730292.8790366482 2.4304506985418823e7 0.0
2.4304506985418823e7 -2.1525287391723517e7 0.0
0.0 0.0 0.0

-8.34801355967368e6 1.4240635755747091e7 0.0
1.4240635755747091e7 2.6294719776982605e7 0.0
0.0 0.0 0.0

-6.959342806485813e6 3.0857661829214883e6 0.0
3.0857661829214883e6 5.21390691376939e7 0.0
0.0 0.0 0.0

3.0574346506441543e6 2.222971357636888e7 0.0
2.222971357636888e7 9.777262420744063e6 0.0
0.0 0.0 0.0

1.822560865810553e7 2.1801702326597814e7 0.0
2.1801702326597814e7 1.1869258447195075e7 0.0
0.0 0.0 0.0

-8.227105631669076e6 6.84416711497928e6 0.0
6.84416711497928e6 4.0803685638553664e7 0.0
0.0 0.0 0.0

-2.9838289779781573e6 1.5732059687799979e7 0.0
1.5732059687799979e7 -621940.7185696864 0.0
0.0 0.0 0.0

-5.437443541127255e6 2.5098684061356943e7 0.0
2.5098684061356943e7 -1.8687912900388885e7 0.0
0.0 0.0 0.0

-6.530492303500851e6 2.075898618135664e7 0.0
2.075898618135664e7 -3.606099264870807e7 0.0
0.0 0.0 0.0

1.195974768044083e6 3.9596614637671866e7 0.0
3.9596614637671866e7 -1.945472536548363e6 0.0
0.0 0.0 0.0

8.546267923664544e6 3.838775234593298e7 0.0
3.838775234593298e7 -6.116660673899839e6 0.0
0.0 0.0 0.0

7.82867283921469e6 5.26566348958253e7 0.0
5.26566348958253e7 -4.384411402556232e6 0.0
0.0 0.0 0.0

-2.001489342820314e7 4.87483081128024e7 0.0
4.87483081128024e7 7.3097778339954475e6 0.0
0.0 0.0 0.0

1.1533444062762555e7 2.237293203444742e7 0.0
2.237293203444742e7 4.22643703734879e7 0.0
0.0 0.0 0.0

-1.0931205740680248e7 2.0801532950572025e7 0.0
2.0801532950572025e7 -9.995917801200362e7 0.0
0.0 0.0 0.0

-9.437019595822277e6 2.4680110068760943e6 0.0
2.4680110068760943e6 2.9909109635973997e7 0.0
0.0 0.0 0.0

-1.3368510681651032e7 1.885564942471518e7 0.0
1.885564942471518e7 -4.4805456927641176e7 0.0
0.0 0.0 0.0

-6.138741917925952e6 1.9152685658426087e7 0.0
1.9152685658426087e7 -1.93746658192009e7 0.0
0.0 0.0 0.0

9.552937949582733e6 2.2848113876578696e7 0.0
2.2848113876578696e7 4.034250507517944e7 0.0
0.0 0.0 0.0

-1.2999406995732307e7 2.1524097245129254e7 0.0
2.1524097245129254e7 -5.288188403192322e7 0.0
0.0 0.0 0.0

-1.0073301873954237e7 1.9655008417977907e7 0.0
1.9655008417977907e7 -3.724906751647229e7 0.0
0.0 0.0 0.0

2.6792324986350708e7 2.9886524414193027e7 0.0
2.9886524414193027e7 1.4230955786330521e7 0.0
0.0 0.0 0.0

-7.194787159317048e6 2.51687002404708e7 0.0
2.51687002404708e7 -1.884789974168946e7 0.0
0.0 0.0 0.0

1.343105541876154e6 1.0823639969126387e7 0.0
1.0823639969126387e7 -4.235577383043767e7 0.0
0.0 0.0 0.0

1.9388053329693615e6 2.245493898444923e7 0.0
2.245493898444923e7 5.32609058199169e6 0.0
0.0 0.0 0.0

-1.254571879374458e7 2.9641056300881814e7 0.0
2.9641056300881814e7 -1.64280509458662e7 0.0
0.0 0.0 0.0

7.402495979685367e6 2.1011579217675958e7 0.0
2.1011579217675958e7 2.5413207215965595e7 0.0
0.0 0.0 0.0

2.630470625899394e6 4.0428227225016784e6 0.0
4.0428227225016784e6 -1.9618908134314332e7 0.0
0.0 0.0 0.0

-1.8487532396326335e6 3.4228121060456194e7 0.0
3.4228121060456194e7 860447.1269976665 0.0
0.0 0.0 0.0

-4.892760237694104e6 3.9276442217836544e7 0.0
3.9276442217836544e7 3.1345455831163065e6 0.0
0.0 0.0 0.0

-4.354993609310849e6 1.8458064315221995e7 0.0
1.8458064315221995e7 4.2812455420458384e7 0.0
0.0 0.0 0.0

2.7961698949434655e6 2.4219333532871157e7 0.0
2.4219333532871157e7 1.2055206116827715e7 0.0
0.0 0.0 0.0

6.312705590333899e6 2.6146028736098155e7 0.0
2.6146028736098155e7 1.9685678970573492e7 0.0
0.0 0.0 0.0

-5.320608859530811e6 4.4637380840657234e7 0.0
4.4637380840657234e7 3.551370721015064e6 0.0
0.0 0.0 0.0

-2.7966998024509e6 2.4785322141921233e7 0.0
2.4785322141921233e7 2.0542153873534523e7 0.0
0.0 0.0 0.0

-8.574314195097e6 811711.3238984222 0.0
811711.3238984222 3.432202434866447e7 0.0
0.0 0.0 0.0

-4.287738375072837e6 3.88983550774575e7 0.0
3.88983550774575e7 4.831549577133238e6 0.0
0.0 0.0 0.0

599473.9707598315 3.328460306083165e7 0.0
3.328460306083165e7 -2.690314984662799e6 0.0
0.0 0.0 0.0

-2.3279456764776874e6 2.5393991482540987e7 0.0
2.5393991482540987e7 4.26737025801729e6 0.0
0.0 0.0 0.0

2.256933402218923e6 4.0123868722912066e7 0.0
4.0123868722912066e7 -2.5908338250020673e6 0.0
0.0 0.0 0.0

2.158068939876643e6 3.914608069546015e7 0.0
3.914608069546015e7 -2.031255705267047e6 0.0
0.0 0.0 0.0

-2.870890725175274e6 2.4388794536172885e7 0.0
2.4388794536172885e7 -1.3408730018030873e7 0.0
0.0 0.0 0.0

5.000394626072559e6 2.430833371425826e7 0.0
2.430833371425826e7 1.6667982495238207e7 0.0
0.0 0.0 0.0

1.0018743731340952e6 1.054278288095064e7 0.0
1.054278288095064e7 -3.945186671285942e7 0.0
0.0 0.0 0.0

-1.7477648829654492e7 1.9671754410478897e7 0.0
1.9671754410478897e7 -6.414013749391587e7 0.0
0.0 0.0 0.0

-5.963566038881504e6 2.758790994478631e7 0.0
2.758790994478631e7 4.0603815671942276e6 0.0
0.0 0.0 0.0

-5.040340913300797e7 4.171328325639334e7 0.0
4.171328325639334e7 -2.152685064775924e7 0.0
0.0 0.0 0.0

-1.027872420550857e7 2.120331915325149e7 0.0
2.120331915325149e7 -3.524030401847895e7 0.0
0.0 0.0 0.0

-5.11140563513357e7 3.8224229389906004e7 0.0
3.8224229389906004e7 -1.0775759522682818e7 0.0
0.0 0.0 0.0

-3.6914264012383623e6 2.7998034159651034e7 0.0
2.7998034159651034e7 1.405177240765285e7 0.0
0.0 0.0 0.0

-5.773745276528709e6 1.4690929649276258e6 0.0
1.4690929649276258e6 5.995893955958362e7 0.0
0.0 0.0 0.0

6.262734257032321e6 3.7305533072784394e7 0.0
3.7305533072784394e7 -5.786922478001652e6 0.0
0.0 0.0 0.0

-2.268582398766559e7 3.21125856114126e7 0.0
3.21125856114126e7 -1.563459649796236e7 0.0
0.0 0.0 0.0

807988.5174672604 2.5166138029046737e7 0.0
2.5166138029046737e7 -1.9351408693103842e7 0.0
0.0 0.0 0.0

-1.5761337710848587e7 3.9100642399070345e7 0.0
3.9100642399070345e7 6.08483634637697e6 0.0
0.0 0.0 0.0

-9.319400060710633e6 1.0547661816329077e7 0.0
1.0547661816329077e7 3.175069615634131e7 0.0
0.0 0.0 0.0

100426.68384703994 1.2016245939059658e7 0.0
1.2016245939059658e7 -5.0239362514932945e7 0.0
0.0 0.0 0.0

-2.004953262309629e7 3.845088716545765e7 0.0
3.845088716545765e7 5.470029084594477e6 0.0
0.0 0.0 0.0

2.2870250858529257e6 2.331271131945602e7 0.0
2.331271131945602e7 7.935862169170431e6 0.0
0.0 0.0 0.0

-9.857985144901287e6 1.3006329260990502e7 0.0
1.3006329260990502e7 2.4727556449473333e7 0.0
0.0 0.0 0.0

-326550.93295669556 2.2913945724755924e7 0.0
2.2913945724755924e7 -1.3862303439664584e7 0.0
0.0 0.0 0.0

6.057915867831515e6 3.523666642897683e7 0.0
3.523666642897683e7 -6.642264455673523e6 0.0
0.0 0.0 0.0

-3.2338825324875884e7 1.694491395634387e7 0.0
1.694491395634387e7 6.314423834641423e6 0.0
0.0 0.0 0.0

-8.389044985376358e6 3.609719236505273e7 0.0
3.609719236505273e7 7.561286360877298e6 0.0
0.0 0.0 0.0

-494702.18966222834 2.3869393163101748e7 0.0
2.3869393163101748e7 -2.322809114904065e7 0.0
0.0 0.0 0.0

1.252679006698817e6 1.086673443927262e7 0.0
1.086673443927262e7 -3.465706436671549e7 0.0
0.0 0.0 0.0

-1.0111174085384724e6 5.439894197454307e6 0.0
5.439894197454307e6 -3.3920817546734135e6 0.0
0.0 0.0 0.0

978112.6961320434 2.119009436210546e7 0.0
2.119009436210546e7 -2.5593180372658722e7 0.0
0.0 0.0 0.0

-3.0020630734477445e7 3.176149958249417e7 0.0
3.176149958249417e7 -7.519024940867149e6 0.0
0.0 0.0 0.0

1.1392056097918097e7 5.233696730609318e7 0.0
5.233696730609318e7 -3.326034000212222e6 0.0
0.0 0.0 0.0

4.801578810200438e6 2.165540267230919e7 0.0
2.165540267230919e7 4.573392487674742e7 0.0
0.0 0.0 0.0

4.259789109341543e6 2.4609886948789682e7 0.0
2.4609886948789682e7 1.4778169573342344e7 0.0
0.0 0.0 0.0

1.2034130823015412e7 1.9665556486896e7 0.0
1.9665556486896e7 4.1634811561717495e7 0.0
0.0 0.0 0.0

-5.120187813742691e6 2.4051772256550867e7 0.0
2.4051772256550867e7 -1.70672931587743e7 0.0
0.0 0.0 0.0

-4.438775231016774e6 1.802800367207766e7 0.0
1.802800367207766e7 4.4283880334922545e7 0.0
0.0 0.0 0.0

-4.604591502705874e6 2.2141349567012016e7 0.0
2.2141349567012016e7 -1.8480906528860945e7 0.0
0.0 0.0 0.0

-3.4443671607776165e7 4.295778230693476e7 0.0
4.295778230693476e7 7.018940098513255e6 0.0
0.0 0.0 0.0

-7.086846459706791e6 6.642274993568594e6 0.0
6.642274993568594e6 4.8552073493160784e7 0.0
0.0 0.0 0.0

-5.634360323357303e6 1.3879642866116937e6 0.0
1.3879642866116937e6 6.066244159543504e7 0.0
0.0 0.0 0.0

270844.9501460111 1.5964118704801185e7 0.0
1.5964118704801185e7 -1.9646377532747716e7 0.0
0.0 0.0 0.0

3.9419227289271397e6 4.968754588504713e6 0.0
4.968754588504713e6 -614122.9350183951 0.0
0.0 0.0 0.0

-1.2190770729814619e6 1.157940010783873e7 0.0
1.157940010783873e7 -6.35024429093108e7 0.0
0.0 0.0 0.0

-4.157177308888931e6 1.536409040674067e7 0.0
1.536409040674067e7 5.334079280124469e7 0.0
0.0 0.0 0.0

-1.2795867734453436e6 1.4742186150518991e7 0.0
1.4742186150518991e7 -4.869890197917699e7 0.0
0.0 0.0 0.0

-7.687454210531374e6 2.651159025552224e6 0.0
2.651159025552224e6 4.00457638348851e7 0.0
0.0 0.0 0.0

-3.5249207191946954e6 3.538243792925983e7 0.0
3.538243792925983e7 3.9393102339250436e6 0.0
0.0 0.0 0.0

7.241182443461484e6 3.596392498499908e7 0.0
3.596392498499908e7 -6.495571720409613e6 0.0
0.0 0.0 0.0

-4.887965515899312e6 4.1736706060178824e7 0.0
4.1736706060178824e7 2.297224555718653e6 0.0
0.0 0.0 0.0

6.890955674324848e6 5.064405940324333e7 0.0
5.064405940324333e7 -2.5900421678282213e6 0.0
0.0 0.0 0.0

3.2168604100113893e6 4.511523047964547e7 0.0
4.511523047964547e7 -3.0467646937169293e6 0.0
0.0 0.0 0.0

-6.958593073194191e6 3.0367464191011377e6 0.0
3.0367464191011377e6 5.0095981286525905e7 0.0
0.0 0.0 0.0

842372.6331665143 5.29112161948243e6 0.0
5.29112161948243e6 -5.524353395374933e7 0.0
0.0 0.0 0.0

1.427458358148491e6 2.6361923298666574e7 0.0
2.6361923298666574e7 -1.3647829163930891e7 0.0
0.0 0.0 0.0

1.6302269470239403e6 2.833542442826676e7 0.0
2.833542442826676e7 -1.0722370092173703e7 0.0
0.0 0.0 0.0

1.5002773873964716e6 1.4352451009116333e7 0.0
1.4352451009116333e7 -2.8264859915240444e7 0.0
0.0 0.0 0.0

-9.140447506016484e6 1.879770417926094e7 0.0
1.879770417926094e7 -2.8952263945572708e7 0.0
0.0 0.0 0.0

2.191779198158896e6 2.1264527055179954e7 0.0
2.1264527055179954e7 7.305930459146761e6 0.0
0.0 0.0 0.0

-3.637930746504295e6 3.0414570748826645e7 0.0
3.0414570748826645e7 1.0736002467643641e7 0.0
0.0 0.0 0.0

-1.228037280449222e7 3.706652063422096e7 0.0
3.706652063422096e7 6.580740210103602e6 0.0
0.0 0.0 0.0

-3.3922420427870527e6 2.2261005562877465e7 0.0
2.2261005562877465e7 -1.0118837200334461e7 0.0
0.0 0.0 0.0

-1.4339674142510458e6 1.5776923759864539e7 0.0
1.5776923759864539e7 -1.4138777106236925e6 0.0
0.0 0.0 0.0

1.5846484891122896e6 3.155873077409792e6 0.0
3.155873077409792e6 -4.411218828155621e7 0.0
0.0 0.0 0.0

4.42579248392118e6 2.6036988631652586e7 0.0
2.6036988631652586e7 -6.366155851880485e6 0.0
0.0 0.0 0.0

1.0167071478584465e6 1.1374881313172506e7 0.0
1.1374881313172506e7 -3.734372273968309e7 0.0
0.0 0.0 0.0

-4.646189063698168e6 1.042032231083137e7 0.0
1.042032231083137e7 3.746144191094412e6 0.0
0.0 0.0 0.0

-2.1512415287134973e6 1.4054348182766395e7 0.0
1.4054348182766395e7 -4.826786870851191e6 0.0
0.0 0.0 0.0

-5.881544313084661e6 2.903373805210223e6 0.0
2.903373805210223e6 5.669010652932842e6 0.0
0.0 0.0 0.0

-1.779073536176744e6 3.194236861691018e7 0.0
3.194236861691018e7 4.773388220661465e6 0.0
0.0 0.0 0.0

-653651.4961781222 2.19386511932029e7 0.0
2.19386511932029e7 -2.7694651915504776e7 0.0
0.0 0.0 0.0

-2.201825927837666e6 1.1139760197902277e7 0.0
1.1139760197902277e7 -7.357912631893887e7 0.0
0.0 0.0 0.0

-1.1044415692993661e7 2.7578822406428587e7 0.0
2.7578822406428587e7 -9.050206128911778e6 0.0
0.0 0.0 0.0

-3.7107325125568606e7 3.68650489719979e7 0.0
3.68650489719979e7 -1.9701938161297962e7 0.0
0.0 0.0 0.0

-2.5079243322714105e7 3.72092058577938e7 0.0
3.72092058577938e7 4.259358016777879e6 0.0
0.0 0.0 0.0

-1.5809610790088816e7 3.0945028865710206e7 0.0
3.0945028865710206e7 -1.5779276404262923e7 0.0
0.0 0.0 0.0

-7.3862906756248465e6 1.9346928630736016e7 0.0
1.9346928630736016e7 -4.9373445111857e7 0.0
0.0 0.0 0.0

-1.1091200304271718e7 2.027621052263789e7 0.0
2.027621052263789e7 -3.697066868951279e7 0.0
0.0 0.0 0.0

-2.9088214534728333e7 3.381644579621799e7 0.0
3.381644579621799e7 -1.6544180890099317e7 0.0
0.0 0.0 0.0

-1.6174078020427711e7 2.0845963813102707e7 0.0
2.0845963813102707e7 -5.391359444562639e7 0.0
0.0 0.0 0.0

-3.836108013288416e6 2.3111821156300478e7 0.0
2.3111821156300478e7 2.7445929151829153e7 0.0
0.0 0.0 0.0

-9.794883847154664e6 3.377538647691008e6 0.0
3.377538647691008e6 2.7570712070491433e7 0.0
0.0 0.0 0.0

669738.9516396453 3.283966495378626e7 0.0
3.283966495378626e7 -4.65019337723337e6 0.0
0.0 0.0 0.0

-3.3330216917024124e6 2.6783782884911586e7 0.0
2.6783782884911586e7 1.6870647810712323e7 0.0
0.0 0.0 0.0

-8.805329129462855e6 2.0676338118767412e6 0.0
2.0676338118767412e6 3.515914742806613e7 0.0
0.0 0.0 0.0

2239.9332296438515 1.751247256414291e7 0.0
1.751247256414291e7 -3.57532173111995e7 0.0
0.0 0.0 0.0

-1.4784853978011876e6 3.359172133113279e7 0.0
3.359172133113279e7 -302154.94299020164 0.0
0.0 0.0 0.0

729599.1689768621 2.2120073389581207e7 0.0
2.2120073389581207e7 -2.073936799401631e6 0.0
0.0 0.0 0.0

-5.275175276810842e6 3.430859477516513e7 0.0
3.430859477516513e7 7.348643579420863e6 0.0
0.0 0.0 0.0

-2.6747129179738246e7 3.4343070764487594e7 0.0
3.4343070764487594e7 -1.8069672706762355e7 0.0
0.0 0.0 0.0

-1.2599435325438421e7 2.0486375963347387e7 0.0
2.0486375963347387e7 -4.199811789746574e7 0.0
0.0 0.0 0.0

6.787945375676893e6 2.5222323265617006e7 0.0
2.5222323265617006e7 2.1112113258108813e7 0.0
0.0 0.0 0.0

-3.7680316512226924e7 3.761229071731737e7 0.0
3.761229071731737e7 2.348488697845068e6 0.0
0.0 0.0 0.0

-8.563540688449057e6 1.3233381245543463e7 0.0
1.3233381245543463e7 2.5378270726664737e7 0.0
0.0 0.0 0.0

-3.817516208206963e6 1.2506141509276787e7 0.0
1.2506141509276787e7 6.563680236820344e7 0.0
0.0 0.0 0.0

-3.348329028541737e6 2.4471350026713744e7 0.0
2.4471350026713744e7 -1.3412114810226753e7 0.0
0.0 0.0 0.0

6.025246778182336e6 4.478338192786503e7 0.0
4.478338192786503e7 -4.15471254784657e6 0.0
0.0 0.0 0.0

1.171002423921419e7 2.1072834828104265e7 0.0
2.1072834828104265e7 3.903341431506881e7 0.0
0.0 0.0 0.0

3.478190169752385e7 2.5846804455556296e7 0.0
2.5846804455556296e7 7.538976460262521e6 0.0
0.0 0.0 0.0

-2.082101632950959e7 3.2440838337269828e7 0.0
3.2440838337269828e7 -1.6886481897694677e7 0.0
0.0 0.0 0.0

8.76255937541814e6 4.1188335030307546e7 0.0
4.1188335030307546e7 -5.656946192717893e6 0.0
0.0 0.0 0.0

1.6084328794440024e7 2.058364929779158e7 0.0
2.058364929779158e7 5.958985100235598e7 0.0
0.0 0.0 0.0

531888.0889769159 7.987645925254287e6 0.0
7.987645925254287e6 -7.133159189461282e7 0.0
0.0 0.0 0.0

-7.863720302269362e6 3.480694289412142e7 0.0
3.480694289412142e7 8.303326870865453e6 0.0
0.0 0.0 0.0

1.1331328332311471e6 2.0488119742609654e7 0.0
2.0488119742609654e7 505729.0926425571 0.0
0.0 0.0 0.0

-1.824913167182582e7 2.1553288689590182e7 0.0
2.1553288689590182e7 -6.083044047363508e7 0.0
0.0 0.0 0.0

-8.78480741029007e6 2.8098572342409216e7 0.0
2.8098572342409216e7 -3.401996550619339e6 0.0
0.0 0.0 0.0

1.2343916703215279e6 3.1629010454387786e6 0.0
3.1629010454387786e6 -6.1326104714898504e7 0.0
0.0 0.0 0.0

215825.69314583484 2.664548926648495e7 0.0
2.664548926648495e7 -1.1274627405253362e7 0.0
0.0 0.0 0.0

7.062850792026547e6 2.9757056501338508e7 0.0
2.9757056501338508e7 -8.772803859102301e6 0.0
0.0 0.0 0.0

3.448548242392204e7 3.1020179669185836e7 0.0
3.1020179669185836e7 4.658425120367322e6 0.0
0.0 0.0 0.0

-4.734760311085001e6 2.1390341815853268e7 0.0
2.1390341815853268e7 2.8362679087181397e7 0.0
0.0 0.0 0.0

-2.800034869211951e6 1.7817743980094377e7 0.0
1.7817743980094377e7 -1.2130028724407868e7 0.0
0.0 0.0 0.0

-1.327892240558359e7 2.9067370132443123e7 0.0
2.9067370132443123e7 -1.5841900794599459e7 0.0
0.0 0.0 0.0

182693.618683832 3.312618476197019e7 0.0
3.312618476197019e7 -4.1056005847857087e6 0.0
0.0 0.0 0.0

-5.176407434388783e6 4.229012500230376e6 0.0
4.229012500230376e6 6.4262073658584036e7 0.0
0.0 0.0 0.0

-2.7420736743811965e6 2.2336842118762348e7 0.0
2.2336842118762348e7 -1.208729430863969e7 0.0
0.0 0.0 0.0

-1.384195930603445e7 3.744567523358986e7 0.0
3.744567523358986e7 6.5095302068617e6 0.0
0.0 0.0 0.0

759150.4980100179 9.991019251786923e6 0.0
9.991019251786923e6 -1.6136430085078746e7 0.0
0.0 0.0 0.0

1.4874458752831813e7 2.525416021646689e7 0.0
2.525416021646689e7 1.5217658875612987e7 0.0
0.0 0.0 0.0

-6.0349297380484045e7 4.0674528981861144e7 0.0
4.0674528981861144e7 1.4605846705298424e6 0.0
0.0 0.0 0.0

4.5616325306373155e6 1.95913444148559e7 0.0
1.95913444148559e7 1.4156060895774402e7 0.0
0.0 0.0 0.0

2.570430117901735e6 7.910644306794744e6 0.0
7.910644306794744e6 -2.203897853022985e7 0.0
0.0 0.0 0.0

7.195774356971171e6 2.3864452414655752e7 0.0
2.3864452414655752e7 2.50937384438997e7 0.0
0.0 0.0 0.0

3.8407245964961946e6 3.2343741566058405e7 0.0
3.2343741566058405e7 -8.44950622689289e6 0.0
0.0 0.0 0.0

3.107857840166067e7 4.2020722648891434e7 0.0
4.2020722648891434e7 -6.150396333812686e6 0.0
0.0 0.0 0.0

-5.03919804088602e6 2.063284910684225e7 0.0
2.063284910684225e7 -1.679732699531844e7 0.0
0.0 0.0 0.0

-1.9279412295193588e6 2.0678507155604973e7 0.0
2.0678507155604973e7 1.1542134145002104e7 0.0
0.0 0.0 0.0

197324.60707996972 1.015727955374082e7 0.0
1.015727955374082e7 -1.3299009810988449e7 0.0
0.0 0.0 0.0

-7.290107651260655e6 2.2518016471606597e7 0.0
2.2518016471606597e7 -3.381571810576443e7 0.0
0.0 0.0 0.0

1.334126662191404e6 2.7087341722198773e7 0.0
2.7087341722198773e7 -1.1633965326584123e7 0.0
0.0 0.0 0.0

2.559352070914334e7 3.075451315251673e7 0.0
3.075451315251673e7 1.9011143319932327e7 0.0
0.0 0.0 0.0

-1.0053226772158286e7 2.7976909420679346e7 0.0
2.7976909420679346e7 -1.635738539944357e7 0.0
0.0 0.0 0.0

6.202257941999001e6 2.9484974222687658e7 0.0
2.9484974222687658e7 -7.954168838434802e6 0.0
0.0 0.0 0.0

-7.821864659939619e6 5.618804969043614e6 0.0
5.618804969043614e6 1.1795532703525499e7 0.0
0.0 0.0 0.0

579040.1146663688 8.362387170487316e6 0.0
8.362387170487316e6 -5.29844137703708e6 0.0
0.0 0.0 0.0

1.5876948169483185e7 2.8861094790919255e7 0.0
2.8861094790919255e7 -302947.99926572386 0.0
0.0 0.0 0.0

3.9778247305670464e6 2.084913962517834e7 0.0
2.084913962517834e7 1.171188161937834e7 0.0
0.0 0.0 0.0

7.907214683381055e7 3.161262944344986e7 0.0
3.161262944344986e7 2.3743242315644067e7 0.0
0.0 0.0 0.0

-8.366917502934603e6 2.1122470148083414e6 0.0
2.1122470148083414e6 3.913809971284805e7 0.0
0.0 0.0 0.0

-2.5420671297837425e7 3.1898113831034362e7 0.0
3.1898113831034362e7 -1.2513556933548383e7 0.0
0.0 0.0 0.0

-1.9270780407707237e7 2.8780891540614456e7 0.0
2.8780891540614456e7 -1.0630808613105692e7 0.0
0.0 0.0 0.0

-4.583097639356538e7 3.391650489641577e7 0.0
3.391650489641577e7 -1.9959214473385435e7 0.0
0.0 0.0 0.0

5.2420195081967235e7 6.964667971662853e6 0.0
6.964667971662853e6 -785986.7374370918 0.0
0.0 0.0 0.0

-2.6753997649983056e6 1.118030146254302e7 0.0
1.118030146254302e7 7.524564453884444e7 0.0
0.0 0.0 0.0

-1.6779522158548809e6 1.4977832380544184e7 0.0
1.4977832380544184e7 623595.3751941056 0.0
0.0 0.0 0.0

-2.4578029770652827e7 3.100632731465666e7 0.0
3.100632731465666e7 -1.7329840875129133e7 0.0
0.0 0.0 0.0

-5.481276171562437e6 3.4408727478624806e7 0.0
3.4408727478624806e7 8.626002150046859e6 0.0
0.0 0.0 0.0

678641.6405274337 2.6523102516470857e7 0.0
2.6523102516470857e7 -1.3492711633547748e7 0.0
0.0 0.0 0.0

780005.4016481386 1.7068796477772582e7 0.0
1.7068796477772582e7 -2.1097825203058563e7 0.0
0.0 0.0 0.0

-269423.5202216301 2.2180422750327915e7 0.0
2.2180422750327915e7 -8.108852479654865e6 0.0
0.0 0.0 0.0

-1.1251908046672175e7 1.862405012343361e7 0.0
1.862405012343361e7 -3.932629683494465e7 0.0
0.0 0.0 0.0

-1.4073744076082263e7 2.215596507866188e7 0.0
2.215596507866188e7 -8.57694547200723e7 0.0
0.0 0.0 0.0

1.983939678681494e7 5.963791873457186e6 0.0
5.963791873457186e6 -2.014884347991881e6 0.0
0.0 0.0 0.0

1.5591047318066012e7 4.229286786841268e7 0.0
4.229286786841268e7 -6.137122312719912e6 0.0
0.0 0.0 0.0

-8.061476291563125e6 2.0450054268097892e7 0.0
2.0450054268097892e7 -2.6871588350512285e7 0.0
0.0 0.0 0.0

2.60327690054512e7 2.1300182172884554e7 0.0
2.1300182172884554e7 5.698815247675052e6 0.0
0.0 0.0 0.0

-702237.8844117043 2.3729443028016925e7 0.0
2.3729443028016925e7 -8.766266695058355e6 0.0
0.0 0.0 0.0

832351.5986556024 3.219612330952548e7 0.0
3.219612330952548e7 -4.247695552977729e6 0.0
0.0 0.0 0.0

-6.553237108176944e6 2.2315936979438078e7 0.0
2.2315936979438078e7 -2.2087789348806385e7 0.0
0.0 0.0 0.0

-2.5284470900356863e7 2.407339854114172e7 0.0
2.407339854114172e7 -1.279877898778052e6 0.0
0.0 0.0 0.0

-8.925591923957024e6 -685149.8197180651 0.0
-685149.8197180651 2.2840179582227074e7 0.0
0.0 0.0 0.0

-3.755042000584176e6 2.260205319393861e7 0.0
2.260205319393861e7 2.700790606351546e7 0.0
0.0 0.0 0.0

-360916.6734582295 2.212058941250461e7 0.0
2.212058941250461e7 2.965126600101784e6 0.0
0.0 0.0 0.0

-8.691954553000342e6 2.2211595632198155e7 0.0
2.2211595632198155e7 -2.423267520826648e7 0.0
0.0 0.0 0.0

-135277.40091341268 2.3589611586906258e7 0.0
2.3589611586906258e7 -8.97744583827225e6 0.0
0.0 0.0 0.0

-2.6998720368604693e6 1.6457691517538913e7 0.0
1.6457691517538913e7 -2.547484358667495e6 0.0
0.0 0.0 0.0

4.001866956861283e7 3.037845946011236e7 0.0
3.037845946011236e7 3.403888066033365e6 0.0
0.0 0.0 0.0

-1.4660549563563924e7 4.1708608497533016e7 0.0
4.1708608497533016e7 6.5624077632109e6 0.0
0.0 0.0 0.0

1.1027118977847602e7 3.0818740707286667e7 0.0
3.0818740707286667e7 -5.63217718983075e6 0.0
0.0 0.0 0.0

-7.243959988552509e6 2.6572349210449465e7 0.0
2.6572349210449465e7 -5.437161518585335e6 0.0
0.0 0.0 0.0

-3.450660555032332e6 4.2254612786872774e7 0.0
4.2254612786872774e7 3.1079288087006235e6 0.0
0.0 0.0 0.0

-3.817485961945975e6 2.4353782791040782e7 0.0
2.4353782791040782e7 2.2997099225691993e7 0.0
0.0 0.0 0.0

888593.2343414002 9.30771384964399e6 0.0
9.30771384964399e6 -9.86690429269831e6 0.0
0.0 0.0 0.0

-2.5965452821309073e6 9.320073098840177e6 0.0
9.320073098840177e6 5.533773512229149e6 0.0
0.0 0.0 0.0

-1.5582507880691806e7 1.9161589907349348e7 0.0
1.9161589907349348e7 -5.7189511864940956e7 0.0
0.0 0.0 0.0

-3.784094926700031e6 2.6676392623234786e7 0.0
2.6676392623234786e7 7.428508248156428e6 0.0
0.0 0.0 0.0

1.1653100913605294e6 5.855460446812878e6 0.0
5.855460446812878e6 -9.968430765634857e6 0.0
0.0 0.0 0.0

-7.107068770382605e7 4.286628701682948e7 0.0
4.286628701682948e7 -1.4902522791663827e7 0.0
0.0 0.0 0.0

-2.458394924058955e6 1.0392843537104059e7 0.0
1.0392843537104059e7 -8.535917958908907e7 0.0
0.0 0.0 0.0

-2.141962136085979e6 1.2376053181503111e7 0.0
1.2376053181503111e7 -4.828208776616902e6 0.0
0.0 0.0 0.0

-1.4288691637698773e7 2.0222857814129528e7 0.0
2.0222857814129528e7 -6.070290939361432e7 0.0
0.0 0.0 0.0

1.1552455426359922e6 4.878345203324553e6 0.0
4.878345203324553e6 -5.401254144732405e7 0.0
0.0 0.0 0.0

3.772593032163372e7 4.790556424717162e7 0.0
4.790556424717162e7 -8.918722356368285e6 0.0
0.0 0.0 0.0

1.856198423991561e6 1.1795828741740104e7 0.0
1.1795828741740104e7 -3.4900859286102936e7 0.0
0.0 0.0 0.0

-1.8057574716016278e6 1.6121746342036067e7 0.0
1.6121746342036067e7 6.140333857681511e7 0.0
0.0 0.0 0.0

-4.515311315356363e6 2.1539838604479633e7 0.0
2.1539838604479633e7 2.8924682624386676e7 0.0
0.0 0.0 0.0

-4.1576484627191164e6 2.900297029062555e7 0.0
2.900297029062555e7 1.32092004309484e7 0.0
0.0 0.0 0.0

-1.110246756746797e7 2.6331468054695927e7 0.0
2.6331468054695927e7 -1.4368260774863914e7 0.0
0.0 0.0 0.0

-3.6967798774200696e6 2.2395577871462595e7 0.0
2.2395577871462595e7 2.968844808724994e7 0.0
0.0 0.0 0.0

-2.281472415999636e6 3.2029210007034924e7 0.0
3.2029210007034924e7 2.791366455308715e6 0.0
0.0 0.0 0.0

1.6976155413632832e7 2.2402844043855533e7 0.0
2.2402844043855533e7 5.65871866048616e7 0.0
0.0 0.0 0.0

-9.971354849049915e6 2.6806124839689545e6 0.0
2.6806124839689545e6 2.38583740918164e7 0.0
0.0 0.0 0.0

1.9295375433316734e6 2.5862187725284863e7 0.0
2.5862187725284863e7 -1.707665316558063e7 0.0
0.0 0.0 0.0

-5.749337040476922e6 1.502738639576338e7 0.0
1.502738639576338e7 -9.56992694422954e7 0.0
0.0 0.0 0.0

-1.3056024848280419e7 4.444934542566012e7 0.0
4.444934542566012e7 6.550869558461998e6 0.0
0.0 0.0 0.0

6.936784200457486e6 3.4689639160726085e7 0.0
3.4689639160726085e7 -7.570020319043331e6 0.0
0.0 0.0 0.0

5.29420617236412e6 2.6555486327086963e7 0.0
2.6555486327086963e7 4.358512968961307e6 0.0
0.0 0.0 0.0

-4.394942826117694e6 2.145779109057429e7 0.0
2.145779109057429e7 3.081130878559331e7 0.0
0.0 0.0 0.0

-2.7387361573358227e7 4.429629337519169e7 0.0
4.429629337519169e7 7.320268954863174e6 0.0
0.0 0.0 0.0

3.5125458115652353e6 2.9348489211865816e7 0.0
2.9348489211865816e7 -1.1866143196811114e7 0.0
0.0 0.0 0.0

-7.537413180345934e6 2.019209384454096e7 0.0
2.019209384454096e7 -4.423453859538699e7 0.0
0.0 0.0 0.0

-2.1929855519423157e7 4.8248269852260925e7 0.0
4.8248269852260925e7 6.643740719151817e6 0.0
0.0 0.0 0.0

5.163495548772132e7 4.432520855356541e7 0.0
4.432520855356541e7 -8.892034484865636e6 0.0
0.0 0.0 0.0

4.278359997918047e6 2.522713692828746e7 0.0
2.522713692828746e7 5.78093215465164e6 0.0
0.0 0.0 0.0

1.3191969148275908e6 1.4181598427608611e7 0.0
1.4181598427608611e7 -3.0647109198149513e7 0.0
0.0 0.0 0.0

-1.7317991871749308e7 2.2663215635277253e7 0.0
2.2663215635277253e7 -6.616818182932266e7 0.0
0.0 0.0 0.0

2.5250306347193472e7 4.223938619460461e7 0.0
4.223938619460461e7 -6.337062011369728e6 0.0
0.0 0.0 0.0

-846322.0320923794 2.40173335360312e7 0.0
2.40173335360312e7 -1.8157967792868167e7 0.0
0.0 0.0 0.0

2.3171729702134263e6 3.829146657498097e7 0.0
3.829146657498097e7 -3.918782888676144e6 0.0
0.0 0.0 0.0

-4.385336113152787e6 1.3845556751517644e7 0.0
1.3845556751517644e7 -8.036612113450563e7 0.0
0.0 0.0 0.0

2.289926621976354e6 2.383620553751126e7 0.0
2.383620553751126e7 1.1020407125164071e7 0.0
0.0 0.0 0.0

-3.1457324169526838e7 3.945278748354276e7 0.0
3.945278748354276e7 5.721504925038436e6 0.0
0.0 0.0 0.0

-1.556391862227838e6 3.2653790029764637e7 0.0
3.2653790029764637e7 3.6878208172899913e6 0.0
0.0 0.0 0.0

3.5985803218289934e7 2.700960889738048e7 0.0
2.700960889738048e7 1.525356056310251e7 0.0
0.0 0.0 0.0

-4.692598889814904e6 4.35617202938608e7 0.0
4.35617202938608e7 1.5898870787163202e6 0.0
0.0 0.0 0.0

5.268773620699535e6 2.353673878096056e7 0.0
2.353673878096056e7 1.8147368092813063e7 0.0
0.0 0.0 0.0

-3.8693486200282015e6 2.870143900839998e6 0.0
2.870143900839998e6 2.684891256913254e6 0.0
0.0 0.0 0.0

1.6172084751569828e7 4.5202256783115394e7 0.0
4.5202256783115394e7 -5.29950989342432e6 0.0
0.0 0.0 0.0

-481926.5092990445 2.2980009769757453e7 0.0
2.2980009769757453e7 -2.5583942806482453e7 0.0
0.0 0.0 0.0

1.0402048301875815e6 4.0176484743335154e6 0.0
4.0176484743335154e6 -6.779363092901152e7 0.0
0.0 0.0 0.0

-722539.8049186841 1.355010654751426e7 0.0
1.355010654751426e7 -8.11474566630648e6 0.0
0.0 0.0 0.0

1.3667821341993613e6 7.480876190463813e6 0.0
7.480876190463813e6 -1.0277476348878587e7 0.0
0.0 0.0 0.0

1.0350774358438086e6 1.827203370105083e7 0.0
1.827203370105083e7 -2.0850147180453394e7 0.0
0.0 0.0 0.0

-2.749258094105857e7 3.702271583373584e7 0.0
3.702271583373584e7 4.524332449056191e6 0.0
0.0 0.0 0.0

-4.0103942920284076e6 2.68459687673585e7 0.0
2.68459687673585e7 4.0356923029415617e6 0.0
0.0 0.0 0.0

9.175320875167165e6 3.140470088241474e7 0.0
3.140470088241474e7 -6.523705488052009e6 0.0
0.0 0.0 0.0

1.54222134575212e6 6.657019944550542e6 0.0
6.657019944550542e6 -5.280596075174539e7 0.0
0.0 0.0 0.0

866108.9830668173 2.643093178137037e7 0.0
2.643093178137037e7 -1.1213762666207753e7 0.0
0.0 0.0 0.0

191684.08329563215 2.1830888044630945e7 0.0
2.1830888044630945e7 -1.774363759471149e7 0.0
0.0 0.0 0.0

-1.9517770692182813e7 2.9823185673028626e7 0.0
2.9823185673028626e7 -1.618266803847069e7 0.0
0.0 0.0 0.0

2.2531454678761974e7 3.8626362149912424e7 0.0
3.8626362149912424e7 -6.031711041064768e6 0.0
0.0 0.0 0.0

-5.543906476801188e6 3.0787624569104567e7 0.0
3.0787624569104567e7 1.2311702740560949e7 0.0
0.0 0.0 0.0

4.867493246742524e6 2.4790943453827284e7 0.0
2.4790943453827284e7 1.7206725167537447e7 0.0
0.0 0.0 0.0

8.043005643038172e6 2.1094448660203885e7 0.0
2.1094448660203885e7 9.794054703656e7 0.0
0.0 0.0 0.0

-5.68342900491727e6 4.8687385830647595e7 0.0
4.8687385830647595e7 4.265727619483549e6 0.0
0.0 0.0 0.0

2.280087146861677e6 2.6845551103831206e7 0.0
2.6845551103831206e7 -1.0780998391463138e7 0.0
0.0 0.0 0.0

1.1911341222092975e6 1.271892227004249e7 0.0
1.271892227004249e7 -4.091357016534874e7 0.0
0.0 0.0 0.0

1.1396380370062701e6 1.1618539941922333e7 0.0
1.1618539941922333e7 -4.3344735968483455e7 0.0
0.0 0.0 0.0

2.494604765976554e6 2.9911809256662736e6 0.0
2.9911809256662736e6 -3.735357998640102e7 0.0
0.0 0.0 0.0

-3.25476936603735e6 2.992886615680371e7 0.0
2.992886615680371e7 1.2717976267078646e7 0.0
0.0 0.0 0.0

2.0914565445275158e6 3.26270039534976e6 0.0
3.26270039534976e6 -3.706319231081088e7 0.0
0.0 0.0 0.0

-7.639166231591802e6 5.235360148241693e6 0.0
5.235360148241693e6 4.719134806136922e7 0.0
0.0 0.0 0.0

-2.7676418544011572e6 2.6722898958874878e7 0.0
2.6722898958874878e7 1.965742092965831e7 0.0
0.0 0.0 0.0

-2.6599053853721176e6 1.32081374458054e7 0.0
1.32081374458054e7 -2.7691643271808247e6 0.0
0.0 0.0 0.0

5.583069685542546e6 3.553067362106261e7 0.0
3.553067362106261e7 -7.161245836057884e6 0.0
0.0 0.0 0.0

1.085968894337645e7 4.044136901408615e7 0.0
4.044136901408615e7 -4.977139409284461e6 0.0
0.0 0.0 0.0

2.324122585637396e6 2.0102070587331858e7 0.0
2.0102070587331858e7 5.112752803613316e6 0.0
0.0 0.0 0.0

-3.399435506698571e6 1.4040395345765708e7 0.0
1.4040395345765708e7 -6.89668998496046e7 0.0
0.0 0.0 0.0

1.5955290827958174e6 4.6129313611109555e6 0.0
4.6129313611109555e6 -5.839840570783848e7 0.0
0.0 0.0 0.0

-6.824440815577278e7 4.63004030493206e7 0.0
4.63004030493206e7 -2.397275505101456e7 0.0
0.0 0.0 0.0

3.544520280470299e7 3.197026448419198e7 0.0
3.197026448419198e7 1.6873939039887663e7 0.0
0.0 0.0 0.0

9.055267102745686e6 3.97443202751992e7 0.0
3.97443202751992e7 -4.974211331202894e6 0.0
0.0 0.0 0.0

2.036365246126595e6 2.325690099064955e7 0.0
2.325690099064955e7 2.597350576803647e7 0.0
0.0 0.0 0.0

1.9673409002760323e6 2.2125229585293192e7 0.0
2.2125229585293192e7 5.188458076800841e6 0.0
0.0 0.0 0.0

-6.183623816523705e6 1.0322166136384139e7 0.0
1.0322166136384139e7 5.5257216338405505e7 0.0
0.0 0.0 0.0

-1.533349341200581e7 3.920775116353679e7 0.0
3.920775116353679e7 6.236272597064727e6 0.0
0.0 0.0 0.0

-1.3873449266735693e6 1.8074529999811e7 0.0
1.8074529999811e7 -1.055811174161792e7 0.0
0.0 0.0 0.0

-8.93574826021813e6 4.291585541231571e6 0.0
4.291585541231571e6 3.72216840292391e7 0.0
0.0 0.0 0.0

3.011911876331702e6 1.515233175482031e7 0.0
1.515233175482031e7 1.1446184782548773e8 0.0
0.0 0.0 0.0

2.0554659514653916e6 2.67328200983456e7 0.0
2.67328200983456e7 -1.5634883798613409e7 0.0
0.0 0.0 0.0

2.235380634124346e6 4.591448848284765e6 0.0
4.591448848284765e6 -1.1052964590948462e7 0.0
0.0 0.0 0.0

-3.0858187922317684e6 1.0916591949715177e7 0.0
1.0916591949715177e7 7.809852353366667e7 0.0
0.0 0.0 0.0

1.9231457020916846e6 3.3682186008591563e6 0.0
3.3682186008591563e6 -4.765320330564906e7 0.0
0.0 0.0 0.0

-8.503589224786062e6 2.645871981085267e7 0.0
2.645871981085267e7 -1.7270695199799478e7 0.0
0.0 0.0 0.0

-3.1458381098138157e7 3.230362588048641e7 0.0
3.230362588048641e7 -1.881959599263997e7 0.0
0.0 0.0 0.0

511014.50339943357 2.3926460471822765e7 0.0
2.3926460471822765e7 -2.0940663494570605e7 0.0
0.0 0.0 0.0

-2.3144454799482413e6 1.3437748610510277e7 0.0
1.3437748610510277e7 -1.2695187964864294e6 0.0
0.0 0.0 0.0

-7.40230906642913e6 2.786059603872466e7 0.0
2.786059603872466e7 792954.6656013019 0.0
0.0 0.0 0.0

2.786437793727213e7 3.739675328702908e7 0.0
3.739675328702908e7 -5.224443362735802e6 0.0
0.0 0.0 0.0

-8.545226153882317e6 -851096.2389958358 0.0
-851096.2389958358 2.476377016597502e7 0.0
0.0 0.0 0.0

1.7052034926849358e7 2.6208168006694745e7 0.0
2.6208168006694745e7 1.061470281810506e7 0.0
0.0 0.0 0.0

2.731511013044809e7 4.951684373211367e7 0.0
4.951684373211367e7 -8.629499160282303e6 0.0
0.0 0.0 0.0

2.256624445263611e6 3.3518744221556718e6 0.0
3.3518744221556718e6 -4.1984602341987714e7 0.0
0.0 0.0 0.0

-2.444699077430805e6 2.3187677719637986e7 0.0
2.3187677719637986e7 6.212212346793463e6 0.0
0.0 0.0 0.0

1.6191817762389643e7 2.3823053511761535e7 0.0
2.3823053511761535e7 6.2559378892212786e7 0.0
0.0 0.0 0.0

8.564004952072889e7 9.33527895983814e6 0.0
9.33527895983814e6 -103915.19691482931 0.0
0.0 0.0 0.0

-4.0139010497019984e7 3.5233700738605395e7 0.0
3.5233700738605395e7 -1.903746164081741e7 0.0
0.0 0.0 0.0

-2.4759066800903524e6 3.1378592216247637e7 0.0
3.1378592216247637e7 4.0024469152279366e6 0.0
0.0 0.0 0.0

-2.787729850177301e6 1.4352767738677546e7 0.0
1.4352767738677546e7 -5.997949581581668e7 0.0
0.0 0.0 0.0

-2.056258651197893e7 3.6373628640109055e7 0.0
3.6373628640109055e7 5.207890242813607e6 0.0
0.0 0.0 0.0

1.4928768629311243e7 2.6652451364222445e7 0.0
2.6652451364222445e7 1.2656310081780098e7 0.0
0.0 0.0 0.0

-736456.960172765 1.0289153641593035e7 0.0
1.0289153641593035e7 9.310560075747526e7 0.0
0.0 0.0 0.0

-5.023690076038556e6 2.881482307552694e7 0.0
2.881482307552694e7 1.3345024339727081e7 0.0
0.0 0.0 0.0

5.884527311757026e6 2.169919554179545e7 0.0
2.169919554179545e7 2.4771705653486267e7 0.0
0.0 0.0 0.0

-243903.6617791038 2.42008421087301e7 0.0
2.42008421087301e7 -1.3016950677957125e7 0.0
0.0 0.0 0.0

1.248793906281025e7 2.8544895555224467e7 0.0
2.8544895555224467e7 -24137.897175508086 0.0
0.0 0.0 0.0

4.215893141986516e6 2.7698373014597602e7 0.0
2.7698373014597602e7 -7.041284997282648e6 0.0
0.0 0.0 0.0

-2.6456972655770928e6 1.8022269295577306e7 0.0
1.8022269295577306e7 -2.3296938274450307e6 0.0
0.0 0.0 0.0

4.547721274297835e6 2.2595603531597413e7 0.0
2.2595603531597413e7 3.1243208077388972e7 0.0
0.0 0.0 0.0

1.5725026539777792e6 2.3494674159068953e7 0.0
2.3494674159068953e7 3.601250122480148e6 0.0
0.0 0.0 0.0

228433.2656191378 2.2930417357924726e7 0.0
2.2930417357924726e7 -4.936521737620582e6 0.0
0.0 0.0 0.0

-7.696761525145567e6 2.061112123353779e7 0.0
2.061112123353779e7 -3.872519311717973e7 0.0
0.0 0.0 0.0

-3.082764791356756e6 3.507571861777059e7 0.0
3.507571861777059e7 5.7275684727469785e6 0.0
0.0 0.0 0.0

-2.7699030990054753e7 3.043446707842247e7 0.0
3.043446707842247e7 -1.6738989901614338e7 0.0
0.0 0.0 0.0

-1.3099464013610091e7 4.0878906415387526e7 0.0
4.0878906415387526e7 5.793283158161834e6 0.0
0.0 0.0 0.0

519550.6779749375 2.4834602084057644e7 0.0
2.4834602084057644e7 1.7834266823365547e7 0.0
0.0 0.0 0.0

1.9707894054780826e6 7.155955663500399e6 0.0
7.155955663500399e6 -4.197971424591022e7 0.0
0.0 0.0 0.0

1.9075730102522485e6 2.592101510106052e7 0.0
2.592101510106052e7 -1.700819794378113e7 0.0
0.0 0.0 0.0

2.3629307766241387e7 3.814427695901592e7 0.0
3.814427695901592e7 -5.258438751395986e6 0.0
0.0 0.0 0.0

-8.032591217811974e6 4.287283997525537e6 0.0
4.287283997525537e6 4.342998231235558e7 0.0
0.0 0.0 0.0

-5.045948343632244e6 2.8050281342375495e7 0.0
2.8050281342375495e7 9.606289450888826e6 0.0
0.0 0.0 0.0

3.0028440823798226e6 2.6321818487996217e7 0.0
2.6321818487996217e7 3.5929241484116553e6 0.0
0.0 0.0 0.0

1.3708194083874187e7 2.9999187068008754e7 0.0
2.9999187068008754e7 -2.3491024087745324e6 0.0
0.0 0.0 0.0

-8.066843318519713e6 1.0750684547083624e7 0.0
1.0750684547083624e7 4.026265948372544e7 0.0
0.0 0.0 0.0

9.161732917171786e6 2.0651198035949152e7 0.0
2.0651198035949152e7 3.4550192206566066e7 0.0
0.0 0.0 0.0

-1.066560800065365e7 2.5764807818962596e7 0.0
2.5764807818962596e7 -1.737137428362195e7 0.0
0.0 0.0 0.0

-1.3383330720671117e6 2.0549331842131678e7 0.0
2.0549331842131678e7 -3.3775549730762266e7 0.0
0.0 0.0 0.0

1.4404487880860904e7 4.832314154492317e7 0.0
4.832314154492317e7 -4.232931801361765e6 0.0
0.0 0.0 0.0

-1.2827087539650649e7 4.2776659950276025e7 0.0
4.2776659950276025e7 5.169064408100016e6 0.0
0.0 0.0 0.0

-8.49694909401118e6 1.2067229826818053e7 0.0
1.2067229826818053e7 3.4545745249561824e7 0.0
0.0 0.0 0.0

-1.2351541648422945e7 2.8472942030564405e7 0.0
2.8472942030564405e7 -9.325068576258281e6 0.0
0.0 0.0 0.0

-9.696135360670468e6 4.369277389407364e7 0.0
4.369277389407364e7 4.0559036644925456e6 0.0
0.0 0.0 0.0

-1.0548565456798606e7 4.2010973928986244e7 0.0
4.2010973928986244e7 4.892950718312832e6 0.0
0.0 0.0 0.0

5.843473886901974e6 2.061551987303725e7 0.0
2.061551987303725e7 2.0677778143977243e7 0.0
0.0 0.0 0.0

1.5963097460491713e6 1.6155986203137651e7 0.0
1.6155986203137651e7 -2.7486660122903325e7 0.0
0.0 0.0 0.0

7.90724228498733e7 4.623426158050322e7 0.0
4.623426158050322e7 3.583462053799839e7 0.0
0.0 0.0 0.0

-4.7637009693291046e7 5.220967163893735e6 0.0
5.220967163893735e6 5.505747318480613e6 0.0
0.0 0.0 0.0

-2.3096726301301774e7 3.5238972937864825e7 0.0
3.5238972937864825e7 3.3662451780845253e6 0.0
0.0 0.0 0.0

1.3053361926862448e6 3.009356174075274e6 0.0
3.009356174075274e6 -4.730263317936974e7 0.0
0.0 0.0 0.0

684400.4110670835 2.5585931631849233e7 0.0
2.5585931631849233e7 -1.5043206585800419e7 0.0
0.0 0.0 0.0

-1.721634242260723e7 3.706268936706967e7 0.0
3.706268936706967e7 6.068960702672313e6 0.0
0.0 0.0 0.0

-7.997271738335753e6 7.9877752954285825e6 0.0
7.9877752954285825e6 4.5660062547123566e7 0.0
0.0 0.0 0.0

747453.2570749447 1.2274193054496553e7 0.0
1.2274193054496553e7 -3.803134578381179e7 0.0
0.0 0.0 0.0

-9.214428378921395e6 1.9894956761993665e7 0.0
1.9894956761993665e7 -3.1792978842285287e7 0.0
0.0 0.0 0.0

1.5251581176974302e7 2.802184463537573e7 0.0
2.802184463537573e7 1.3276393801675126e7 0.0
0.0 0.0 0.0

-5.459873988511946e7 3.830572334093652e7 0.0
3.830572334093652e7 -1.832500409990923e7 0.0
0.0 0.0 0.0

-3.484032508559793e6 1.5844728473713677e7 0.0
1.5844728473713677e7 3.490173823522006e6 0.0
0.0 0.0 0.0

-1.3031307065093264e7 3.572969122101402e7 0.0
3.572969122101402e7 6.630868050986674e6 0.0
0.0 0.0 0.0

-2.274858405470253e6 3.672138465024819e7 0.0
3.672138465024819e7 3.783853125677142e6 0.0
0.0 0.0 0.0

-6.263881631545049e6 8.568809641799338e6 0.0
8.568809641799338e6 2.335459346134434e7 0.0
0.0 0.0 0.0

-8.831898203365633e6 1.736575403989458e6 0.0
1.736575403989458e6 2.5849896140159972e7 0.0
0.0 0.0 0.0

766899.9183189236 1.6619033752908155e7 0.0
1.6619033752908155e7 -2.82433056846001e7 0.0
0.0 0.0 0.0

-7.6584166164885685e6 6.632054508017229e6 0.0
6.632054508017229e6 4.490496360725928e7 0.0
0.0 0.0 0.0

521581.60274944827 2.1171383334773496e7 0.0
2.1171383334773496e7 -2.5522490208445806e7 0.0
0.0 0.0 0.0

1.2719921702639174e7 2.683103827369257e7 0.0
2.683103827369257e7 1.7209661812695665e6 0.0
0.0 0.0 0.0

285703.64520963 1.0904634529654663e7 0.0
1.0904634529654663e7 -1.4481315055557532e7 0.0
0.0 0.0 0.0

-2.417764609236495e7 3.520461944643347e7 0.0
3.520461944643347e7 3.390110907729578e6 0.0
0.0 0.0 0.0

-1.7308842534911934e7 3.011785873174908e7 0.0
3.011785873174908e7 -1.6365433160141844e7 0.0
0.0 0.0 0.0

749276.1732798729 2.2193831155908987e7 0.0
2.2193831155908987e7 2.497588569441011e6 0.0
0.0 0.0 0.0

-573359.3904486753 2.2066998860015873e7 0.0
2.2066998860015873e7 -1.9111990734158712e6 0.0
0.0 0.0 0.0

1.5332787460447252e6 1.7086345424954154e7 0.0
1.7086345424954154e7 -2.582206677287952e7 0.0
0.0 0.0 0.0

-8.169082749467647e6 2.096034494160308e7 0.0
2.096034494160308e7 -3.1041365585750885e7 0.0
0.0 0.0 0.0

-9.260547364149565e6 3.6702939293055297e6 0.0
3.6702939293055297e6 3.322558633900792e7 0.0
0.0 0.0 0.0

-2.606725014423466e6 1.7115415584302586e7 0.0
1.7115415584302586e7 1.0807080112548351e7 0.0
0.0 0.0 0.0

3.5202474664412793e6 2.8899806261475217e7 0.0
2.8899806261475217e7 -1.205889414639949e7 0.0
0.0 0.0 0.0

1.6752956588153616e6 8.154585783852581e6 0.0
8.154585783852581e6 -2.8823137713523254e7 0.0
0.0 0.0 0.0

-5.379997887790978e7 3.3606328267667614e7 0.0
3.3606328267667614e7 -9.611241900460914e6 0.0
0.0 0.0 0.0

9.955222459429951e6 2.8205707391129676e7 0.0
2.8205707391129676e7 -509983.2012198516 0.0
0.0 0.0 0.0

3.530332605810337e7 2.6731305710934453e7 0.0
2.6731305710934453e7 8.804650516290834e6 0.0
0.0 0.0 0.0

-1.4257447202800289e7 4.8271905037392884e7 0.0
4.8271905037392884e7 6.703340199785302e6 0.0
0.0 0.0 0.0

-9.511235684011564e6 7.175766286224401e6 0.0
7.175766286224401e6 2.8565422022420425e7 0.0
0.0 0.0 0.0

46121.72025956586 2.2694770300304297e7 0.0
2.2694770300304297e7 -1.6141016744023848e7 0.0
0.0 0.0 0.0

-1.4655805550527204e7 2.816488565399925e7 0.0
2.816488565399925e7 -8.633228827992233e6 0.0
0.0 0.0 0.0

-2.7232238331583954e7 3.9883558987383395e7 0.0
3.9883558987383395e7 5.233421410095731e6 0.0
0.0 0.0 0.0

-1.0886942569098447e7 2.1682873178405695e7 0.0
2.1682873178405695e7 -4.946317925774774e7 0.0
0.0 0.0 0.0

3.2455707636748375e6 2.301294768874012e7 0.0
2.301294768874012e7 1.2761133008836858e7 0.0
0.0 0.0 0.0

-7.413081404251845e6 2.074290627545714e7 0.0
2.074290627545714e7 -3.365883066268056e7 0.0
0.0 0.0 0.0

-2.11687831525111e7 4.4629179492014825e7 0.0
4.4629179492014825e7 6.807879385799096e6 0.0
0.0 0.0 0.0

3.5607710796888187e6 3.2640347535657883e7 0.0
3.2640347535657883e7 -8.886630998893367e6 0.0
0.0 0.0 0.0

-1.0269925023804097e7 2.897672677481234e7 0.0
2.897672677481234e7 -1.2981490994787724e6 0.0
0.0 0.0 0.0

797782.7139974944 1.37030311531541e7 0.0
1.37030311531541e7 -4.161057467752549e7 0.0
0.0 0.0 0.0

-6.458151642022058e6 1.0420451577486176e7 0.0
1.0420451577486176e7 5.169774925923422e7 0.0
0.0 0.0 0.0

-1.1608031359755094e6 2.279476139443574e7 0.0
2.279476139443574e7 -1.025811235097378e7 0.0
0.0 0.0 0.0

1.3769409179864777e7 2.8102768393057514e7 0.0
2.8102768393057514e7 -565767.183639273 0.0
0.0 0.0 0.0

-9.147186682255851e6 2.203019943751782e7 0.0
2.203019943751782e7 -4.094613723083257e7 0.0
0.0 0.0 0.0

-1.454529371417058e7 3.533996053746235e7 0.0
3.533996053746235e7 6.002443891723303e6 0.0
0.0 0.0 0.0

4.143013088611296e7 4.658882289666285e7 0.0
4.658882289666285e7 -6.865419576916752e6 0.0
0.0 0.0 0.0

-1.0299875600463443e7 2.819205199179195e7 0.0
2.819205199179195e7 -6.419352346955018e6 0.0
0.0 0.0 0.0

-1.5445949703731675e7 3.709669867804539e7 0.0
3.709669867804539e7 5.91724690407468e6 0.0
0.0 0.0 0.0

-4.342720035887107e6 2.311451618229198e7 0.0
2.311451618229198e7 2.482235598198171e7 0.0
0.0 0.0 0.0

5.9577317785417475e6 2.6754162937449817e7 0.0
2.6754162937449817e7 -5.4659181826452315e6 0.0
0.0 0.0 0.0

-4.0162597701408826e6 3.505282434657807e7 0.0
3.505282434657807e7 6.599328495922161e6 0.0
0.0 0.0 0.0

-9.183406114980554e6 2.015581484842506e7 0.0
2.015581484842506e7 -4.736600553880076e7 0.0
0.0 0.0 0.0

1.517312526275158e6 5.249432997042506e6 0.0
5.249432997042506e6 -3.996212968748297e7 0.0
0.0 0.0 0.0

-8.989903882470565e6 2.216907214397377e7 0.0
2.216907214397377e7 -3.581464748942569e7 0.0
0.0 0.0 0.0

-6.226009564030502e6 3.936402417545017e7 0.0
3.936402417545017e7 4.1248633770096977e6 0.0
0.0 0.0 0.0

-4.249538685450096e6 2.3649720952267755e7 0.0
2.3649720952267755e7 -1.416512897088065e7 0.0
0.0 0.0 0.0

4.0539432019107835e6 2.376784913371427e7 0.0
2.376784913371427e7 1.351314453519037e7 0.0
0.0 0.0 0.0

-4.339228999795727e6 1.9731271011918165e7 0.0
1.9731271011918165e7 3.8020751546781264e7 0.0
0.0 0.0 0.0

-1.5098823793576946e6 1.73570289799743e7 0.0
1.73570289799743e7 -1.2159439243647242e6 0.0
0.0 0.0 0.0

1.802763753586754e7 2.1263631670583893e7 0.0
2.1263631670583893e7 6.749898407426357e7 0.0
0.0 0.0 0.0

-7.2796669995238595e6 5.034374250394745e6 0.0
5.034374250394745e6 5.122689629117739e7 0.0
0.0 0.0 0.0

832328.487444859 4.634720601179977e6 0.0
4.634720601179977e6 -5.7716047249264404e7 0.0
0.0 0.0 0.0

-6.274410736730782e6 2.2250616286444653e7 0.0
2.2250616286444653e7 -3.6377001181892805e7 0.0
0.0 0.0 0.0

-1.3421418328396885e7 3.747532212336106e7 0.0
3.747532212336106e7 6.234079160170967e6 0.0
0.0 0.0 0.0

4.123048923630011e7 1.7317910456216928e7 0.0
1.7317910456216928e7 2.165303652684549e6 0.0
0.0 0.0 0.0

-8.918878970439691e6 9.23475814401664e6 0.0
9.23475814401664e6 3.845085080747867e7 0.0
0.0 0.0 0.0

-3.46259109288383e7 3.7111286490263864e7 0.0
3.7111286490263864e7 -1.8902546394894995e7 0.0
0.0 0.0 0.0

-4.0464204399084873e6 2.7293118835901603e7 0.0
2.7293118835901603e7 1.0123660944559136e7 0.0
0.0 0.0 0.0

-2.7579334028195035e7 4.402992262882048e7 0.0
4.402992262882048e7 6.8538166370975e6 0.0
0.0 0.0 0.0

585375.5567365363 5.301800425530667e6 0.0
5.301800425530667e6 -5.943893680588955e7 0.0
0.0 0.0 0.0

1.0789276281044114e7 3.871006958988329e7 0.0
3.871006958988329e7 -5.651443903238542e6 0.0
0.0 0.0 0.0

-600853.5971201956 1.5511140458486559e7 0.0
1.5511140458486559e7 7.25076317363795e7 0.0
0.0 0.0 0.0

-4.307263220924536e6 3.355942542673408e7 0.0
3.355942542673408e7 9.03142364064635e6 0.0
0.0 0.0 0.0

-2.1739547539716116e6 2.2047010493231013e7 0.0
2.2047010493231013e7 -8.697342690950945e6 0.0
0.0 0.0 0.0

-8.91624880527775e6 3.845872469689093e6 0.0
3.845872469689093e6 1.8326820992681976e7 0.0
0.0 0.0 0.0

6.843575826220176e6 2.3463201717949778e7 0.0
2.3463201717949778e7 2.1227948152283937e7 0.0
0.0 0.0 0.0

-5.180170234717998e6 2.8532446440732323e7 0.0
2.8532446440732323e7 1.1711191754965171e7 0.0
0.0 0.0 0.0

1.1809895641085664e6 1.1932696451186273e7 0.0
1.1932696451186273e7 -1.2892891974281259e7 0.0
0.0 0.0 0.0

-4.645259475399878e6 2.6231755581101097e7 0.0
2.6231755581101097e7 1.1066715572756687e6 0.0
0.0 0.0 0.0

1.1391301560874378e7 2.7597559650759492e7 0.0
2.7597559650759492e7 -1.3851093360524904e6 0.0
0.0 0.0 0.0

-1.9124116440840086e6 1.7433877054993726e7 0.0
1.7433877054993726e7 2.6682121336662197e6 0.0
0.0 0.0 0.0

-6.224174234491675e6 2.021192384236999e7 0.0
2.021192384236999e7 -4.1258440215867594e7 0.0
0.0 0.0 0.0

-2.862623609995574e6 2.1567374805774406e7 0.0
2.1567374805774406e7 1.0019538764429465e7 0.0
0.0 0.0 0.0

-3.303434039878607e6 2.254775182891553e7 0.0
2.254775182891553e7 2.976122152264852e7 0.0
0.0 0.0 0.0

-8.253249408392709e6 3.3804593740400854e6 0.0
3.3804593740400854e6 3.684784660178451e7 0.0
0.0 0.0 0.0

-1.5612836190950375e7 2.9061543442183312e7 0.0
2.9061543442183312e7 -527585.0787944281 0.0
0.0 0.0 0.0

-9.24261693694668e6 3.524570471943077e7 0.0
3.524570471943077e7 7.629200127561811e6 0.0
0.0 0.0 0.0

1.8538410118161406e7 3.9232863631464705e7 0.0
3.9232863631464705e7 -6.149683706213983e6 0.0
0.0 0.0 0.0

-8.409571032190945e6 8.691770670659008e6 0.0
8.691770670659008e6 4.201384657503874e7 0.0
0.0 0.0 0.0

-7.563331417209074e6 2.1430474145280562e7 0.0
2.1430474145280562e7 -4.307142530823791e7 0.0
0.0 0.0 0.0

-6.040902957241707e6 3.526737631926063e7 0.0
3.526737631926063e7 7.875142825217115e6 0.0
0.0 0.0 0.0

1.2595756390144965e6 2.4817501250292502e7 0.0
2.4817501250292502e7 -9.093745528462341e6 0.0
0.0 0.0 0.0

-1.7386637839641904e6 1.8972357258878574e7 0.0
1.8972357258878574e7 -8.737689278906006e6 0.0
0.0 0.0 0.0

-9.451965714979928e6 4.562795361646892e6 0.0
4.562795361646892e6 2.62016105409847e7 0.0
0.0 0.0 0.0

-1.3095875211977106e7 3.9165781655930474e7 0.0
3.9165781655930474e7 6.261749846337808e6 0.0
0.0 0.0 0.0

-770722.1523927653 2.9616124298737638e7 0.0
2.9616124298737638e7 236205.83758580923 0.0
0.0 0.0 0.0

5.33184043770426e6 2.5505798309342444e7 0.0
2.5505798309342444e7 1.8544693018540297e7 0.0
0.0 0.0 0.0

-4.524705905841453e6 2.277792086848083e6 0.0
2.277792086848083e6 1.0186501071002394e7 0.0
0.0 0.0 0.0

7.178180154535895e6 2.6120281073077008e7 0.0
2.6120281073077008e7 7.109725625548393e6 0.0
0.0 0.0 0.0

-2.252024048502952e6 1.0678188435177978e7 0.0
1.0678188435177978e7 -7.874148172759216e7 0.0
0.0 0.0 0.0

1.1071515024928033e7 4.495561421487137e7 0.0
4.495561421487137e7 -5.56335456349746e6 0.0
0.0 0.0 0.0

-5.849828088455491e6 2.9743056910188977e7 0.0
2.9743056910188977e7 1.2460991947064148e7 0.0
0.0 0.0 0.0

-9.113914286760181e6 1.3475775383148685e7 0.0
1.3475775383148685e7 1.958074294514145e7 0.0
0.0 0.0 0.0

-2.1130104797115703e6 2.5437037483858246e7 0.0
2.5437037483858246e7 -4.489766174925178e6 0.0
0.0 0.0 0.0

-2.3334361709002294e6 1.3510768779488117e7 0.0
1.3510768779488117e7 -7.362757370133743e7 0.0
0.0 0.0 0.0

-1.7514191171692135e6 2.1334766635373347e7 0.0
2.1334766635373347e7 -3.0201592889896356e7 0.0
0.0 0.0 0.0

-1.3933812375644352e7 4.511848896383601e7 0.0
4.511848896383601e7 4.751343871275402e6 0.0
0.0 0.0 0.0

-3.332231215151638e6 2.33258613065806e7 0.0
2.33258613065806e7 -1.1107438808555618e7 0.0
0.0 0.0 0.0

-7.052671214386062e6 2.7828044956766047e7 0.0
2.7828044956766047e7 -1.6204960306644307e7 0.0
0.0 0.0 0.0

-2.0323898918953096e6 3.033457256734508e7 0.0
3.033457256734508e7 7.459069400133707e6 0.0
0.0 0.0 0.0

1.1218903374691578e6 2.2770252632970314e7 0.0
2.2770252632970314e7 -1.6252296416797599e7 0.0
0.0 0.0 0.0

1.2044423965077417e7 2.7739339689833667e7 0.0
2.7739339689833667e7 1.0982487812727217e7 0.0
0.0 0.0 0.0

-1.0632633436951224e7 2.8125568633236155e7 0.0
2.8125568633236155e7 -1.6559597064511955e7 0.0
0.0 0.0 0.0

-2.917453128036871e6 2.66782943735435e7 0.0
2.66782943735435e7 7.323492429111946e6 0.0
0.0 0.0 0.0

-1.7424606406121217e6 1.1504048326050747e7 0.0
1.1504048326050747e7 7.901313725694026e7 0.0
0.0 0.0 0.0

-555072.4283585183 1.8388663668770105e7 0.0
1.8388663668770105e7 -7.801084896480687e6 0.0
0.0 0.0 0.0

-1.0220786114801994e7 1.8763992337455023e7 0.0
1.8763992337455023e7 -3.41141213506119e7 0.0
0.0 0.0 0.0

1.4912238979633413e6 2.5175592427416362e7 0.0
2.5175592427416362e7 -1.8880466549597092e7 0.0
0.0 0.0 0.0

-7.4716985927527025e6 2.4597528884012606e7 0.0
2.4597528884012606e7 -2.1182576706492856e7 0.0
0.0 0.0 0.0

-3.895301810528732e6 2.7759297509329867e7 0.0
2.7759297509329867e7 1.2324857947608227e7 0.0
0.0 0.0 0.0

790019.025398867 2.1631359814516775e7 0.0
2.1631359814516775e7 2.633396687243089e6 0.0
0.0 0.0 0.0

-3.161262860675952e6 3.691266309860706e7 0.0
3.691266309860706e7 4.764684074952588e6 0.0
0.0 0.0 0.0

-5.115243729598305e6 2.708609913033323e7 0.0
2.708609913033323e7 747813.0545437948 0.0
0.0 0.0 0.0

-4.452097805230688e6 4.293234084116171e6 0.0
4.293234084116171e6 7.68335242401375e7 0.0
0.0 0.0 0.0

-9.170952594790857e6 1.3256730353611141e7 0.0
1.3256730353611141e7 3.2134916425761476e7 0.0
0.0 0.0 0.0

2.6476645931578884e6 2.5404245286121078e7 0.0
2.5404245286121078e7 -7.6377052653744165e6 0.0
0.0 0.0 0.0

-3.174549039803591e7 3.5029401290567406e7 0.0
3.5029401290567406e7 1.2802419409059528e6 0.0
0.0 0.0 0.0

-1.025976407033206e7 5.3788607374474555e6 0.0
5.3788607374474555e6 2.593690256003059e7 0.0
0.0 0.0 0.0

-4.825618634366814e6 9.92515559075913e6 0.0
9.92515559075913e6 6.487746506872154e7 0.0
0.0 0.0 0.0

-2.8969699001900884e6 3.3355032215501685e6 0.0
3.3355032215501685e6 8.22065196867555e6 0.0
0.0 0.0 0.0

-3.735898951468311e6 6.414110276235902e6 0.0
6.414110276235902e6 -1.459964019901433e6 0.0
0.0 0.0 0.0

1.02744215363135e6 1.4420927101373933e7 0.0
1.4420927101373933e7 -2.8589026126778264e7 0.0
0.0 0.0 0.0

-1.642358870161254e6 3.016904960573808e7 0.0
3.016904960573808e7 -778394.8717048543 0.0
0.0 0.0 0.0

-8.629007984885681e6 2.3921648008091543e7 0.0
2.3921648008091543e7 -2.157323168508213e7 0.0
0.0 0.0 0.0

-3.061179117997581e6 2.713584109270848e7 0.0
2.713584109270848e7 1.6352290011558227e7 0.0
0.0 0.0 0.0

-6.249902270520675e6 2.110493628409938e7 0.0
2.110493628409938e7 -3.0959115693186898e7 0.0
0.0 0.0 0.0

3.5691821393241333e6 2.5084472183835704e7 0.0
2.5084472183835704e7 1.6690298434083821e7 0.0
0.0 0.0 0.0

-1.4561101749524172e7 1.893214165511e7 0.0
1.893214165511e7 -5.081523372987383e7 0.0
0.0 0.0 0.0

-5.107452238861766e6 2.699154555628749e7 0.0
2.699154555628749e7 4.39405865239989e6 0.0
0.0 0.0 0.0

-4.540962870567523e6 1.4040950502267916e7 0.0
1.4040950502267916e7 -8.686889198560795e7 0.0
0.0 0.0 0.0

-1.941702924672421e6 1.41364222032663e7 0.0
1.41364222032663e7 -6.411916625367813e7 0.0
0.0 0.0 0.0

-5.922744834117027e6 2.669036898902914e7 0.0
2.669036898902914e7 -1.5514559898400346e7 0.0
0.0 0.0 0.0

-2.2298491459459823e7 3.1609957483897604e7 0.0
3.1609957483897604e7 -1.6674833562979568e7 0.0
0.0 0.0 0.0

-1.5430663800209343e7 3.538773069742134e7 0.0
3.538773069742134e7 5.973188999907433e6 0.0
0.0 0.0 0.0

-3.5767507005936475e6 1.7919659236491304e7 0.0
1.7919659236491304e7 9.30211938405013e6 0.0
0.0 0.0 0.0

-1.2778838930055676e6 8.834354412878333e6 0.0
8.834354412878333e6 9.36416705883208e6 0.0
0.0 0.0 0.0

639541.8591635022 2.4339680773080826e7 0.0
2.4339680773080826e7 -7.198980782013561e6 0.0
0.0 0.0 0.0

1.5304434070742069e7 2.920929022339285e7 0.0
2.920929022339285e7 -111325.41083320882 0.0
0.0 0.0 0.0

845135.889843408 1.6181580388317527e7 0.0
1.6181580388317527e7 7.349348362000692e7 0.0
0.0 0.0 0.0

-939741.0720172422 2.5944025569767956e7 0.0
2.5944025569767956e7 1.4090117312844299e7 0.0
0.0 0.0 0.0

-9.629290601825118e6 3.5227250013247006e7 0.0
3.5227250013247006e7 7.628986563037587e6 0.0
0.0 0.0 0.0

-5.782283319236519e6 2.16494565962699e7 0.0
2.16494565962699e7 -1.9534438470361706e7 0.0
0.0 0.0 0.0

-3.70525273751742e6 1.3525103154793276e7 0.0
1.3525103154793276e7 6.130242223450345e7 0.0
0.0 0.0 0.0

-2.1839854209700394e6 2.5710981327253066e7 0.0
2.5710981327253066e7 7.978523272793663e6 0.0
0.0 0.0 0.0

1.259994443783545e6 2.4991511566654537e7 0.0
2.4991511566654537e7 -1.8733278278246697e7 0.0
0.0 0.0 0.0

-2.222972025563488e6 1.9718508906869903e7 0.0
1.9718508906869903e7 -3.612205448401114e7 0.0
0.0 0.0 0.0

-1.6195883111888655e6 1.2510145187307887e7 0.0
1.2510145187307887e7 -6.051737611775201e7 0.0
0.0 0.0 0.0

-652927.7169760391 1.3597474404684348e7 0.0
1.3597474404684348e7 -4.8010214486249804e7 0.0
0.0 0.0 0.0

-1.482621746503703e7 2.256739257727763e7 0.0
2.256739257727763e7 -7.102275235171449e7 0.0
0.0 0.0 0.0

-3.643697984855538e6 3.5975873604467265e7 0.0
3.5975873604467265e7 5.6831579328681845e6 0.0
0.0 0.0 0.0

-7.833012385824013e6 2.749039801146387e7 0.0
2.749039801146387e7 -1.6543956744308684e7 0.0
0.0 0.0 0.0

-1.8272184114710526e6 2.491832946870628e7 0.0
2.491832946870628e7 -1.5871513424044767e7 0.0
0.0 0.0 0.0

3.2936348937677465e7 2.9630458572995923e7 0.0
2.9630458572995923e7 2.628785381519054e6 0.0
0.0 0.0 0.0

-4.022745085032206e6 7.551536753508499e6 0.0
7.551536753508499e6 6.949651354833938e7 0.0
0.0 0.0 0.0

-3.862017661278166e6 1.3886184564660925e7 0.0
1.3886184564660925e7 -7.424594123261683e7 0.0
0.0 0.0 0.0

-189834.24060616642 1.4096143929649683e7 0.0
1.4096143929649683e7 -4.795954138534983e7 0.0
0.0 0.0 0.0

-572561.7478018515 1.14175860595187e7 0.0
1.14175860595187e7 8.628631347400847e7 0.0
0.0 0.0 0.0

3.049941181163889e7 3.0052170261883814e7 0.0
3.0052170261883814e7 2.0030497993312687e7 0.0
0.0 0.0 0.0

-3.3232622923096456e6 1.1156074267788379e7 0.0
1.1156074267788379e7 6.642650914922636e7 0.0
0.0 0.0 0.0

-8.587245687394477e6 -363172.1630283774 0.0
-363172.1630283774 1.5222073462499032e7 0.0
0.0 0.0 0.0

-4.227475517542134e6 3.8233832486189455e7 0.0
3.8233832486189455e7 3.047295459486869e6 0.0
0.0 0.0 0.0

800353.5615402069 1.3207393750558056e7 0.0
1.3207393750558056e7 -3.593629511595098e7 0.0
0.0 0.0 0.0

-1.0158197448213486e7 4.068112331819948e7 0.0
4.068112331819948e7 6.181292965308838e6 0.0
0.0 0.0 0.0

-2.956677030646749e6 1.6158131565561421e7 0.0
1.6158131565561421e7 5.442935996951145e7 0.0
0.0 0.0 0.0

-9.892987774053786e6 1.1369743397751866e7 0.0
1.1369743397751866e7 2.9743893083808105e7 0.0
0.0 0.0 0.0

1.2880887159089867e7 3.9146969140744604e7 0.0
3.9146969140744604e7 -5.815296063258838e6 0.0
0.0 0.0 0.0

-3.990041749235655e6 2.810140665739305e7 0.0
2.810140665739305e7 1.569719289264743e7 0.0
0.0 0.0 0.0

4.726068437797401e6 3.3169323411863353e7 0.0
3.3169323411863353e7 -8.042027412937691e6 0.0
0.0 0.0 0.0

-8.097453349136343e6 3.1644782688712727e7 0.0
3.1644782688712727e7 8.201853654872921e6 0.0
0.0 0.0 0.0

-5.75246047453659e6 2.2603893802457023e7 0.0
2.2603893802457023e7 -3.2747462231048558e7 0.0
0.0 0.0 0.0

8.367855959222514e6 2.9351434073693365e7 0.0
2.9351434073693365e7 -7.29739170370639e6 0.0
0.0 0.0 0.0

1.3187099032195317e7 2.1871880925789542e7 0.0
2.1871880925789542e7 6.425931408851072e7 0.0
0.0 0.0 0.0

-4.192244803071075e6 7.8868798912568195e6 0.0
7.8868798912568195e6 1.9561307974456124e7 0.0
0.0 0.0 0.0

-1.6814452907876058e6 9.78768972298013e6 0.0
9.78768972298013e6 -1.1757811309124436e7 0.0
0.0 0.0 0.0

-5.789700487478206e6 2.4243107072097294e7 0.0
2.4243107072097294e7 -1.9299001250170995e7 0.0
0.0 0.0 0.0

5.899175605090726e6 2.439503301705012e7 0.0
2.439503301705012e7 1.966391865756898e7 0.0
0.0 0.0 0.0

1.3517294456092935e7 4.604334090276837e7 0.0
4.604334090276837e7 -6.525693986887754e6 0.0
0.0 0.0 0.0

2.9325467115263436e6 5.594884841341815e6 0.0
5.594884841341815e6 -2.1679978546029035e7 0.0
0.0 0.0 0.0

-6.294261546880933e6 4.327599976745132e7 0.0
4.327599976745132e7 4.626584182754345e6 0.0
0.0 0.0 0.0

-5.291154220671632e7 2.0351733899682928e7 0.0
2.0351733899682928e7 5.523317499904115e6 0.0
0.0 0.0 0.0

1.783579607844538e6 2.566385588106089e7 0.0
2.566385588106089e7 -1.692649996420354e7 0.0
0.0 0.0 0.0

-2.5509336738591567e6 1.8057965288430925e7 0.0
1.8057965288430925e7 4.9813607253142945e7 0.0
0.0 0.0 0.0

667737.4510574113 2.592564682998847e7 0.0
2.592564682998847e7 -7.461848213901648e6 0.0
0.0 0.0 0.0

-4.653286479962299e6 2.882303415408841e7 0.0
2.882303415408841e7 1.1825236855648462e7 0.0
0.0 0.0 0.0

-1.4492401064998608e6 2.949439097231472e7 0.0
2.949439097231472e7 -2.0027401182940076e6 0.0
0.0 0.0 0.0

1.4651852335076155e6 2.634334237588394e7 0.0
2.634334237588394e7 -9.205175462639794e6 0.0
0.0 0.0 0.0

499050.98228301853 4.261116124077363e6 0.0
4.261116124077363e6 -6.236555453754038e7 0.0
0.0 0.0 0.0

-1.1155139952386678e6 2.1427835106527224e7 0.0
2.1427835106527224e7 -3.718380523128584e6 0.0
0.0 0.0 0.0

1.7112189212153476e7 3.0911819352459062e7 0.0
3.0911819352459062e7 -2.7478445783588095e6 0.0
0.0 0.0 0.0

-2.12846303042795e6 2.4266182844465613e7 0.0
2.4266182844465613e7 -1.8627886679451562e7 0.0
0.0 0.0 0.0

9.766911231613323e6 2.749712602741946e7 0.0
2.749712602741946e7 1.4220539088272063e7 0.0
0.0 0.0 0.0

-3.076083744546462e6 1.4239675616370132e7 0.0
1.4239675616370132e7 -6.4291945213555954e7 0.0
0.0 0.0 0.0

884065.3774747904 2.8836773945301175e7 0.0
2.8836773945301175e7 -1.0153992493059237e7 0.0
0.0 0.0 0.0

6.917632325795475e6 2.702917467627454e7 0.0
2.702917467627454e7 1.814236268999582e7 0.0
0.0 0.0 0.0

3.9467089656672046e7 3.802912538334652e7 0.0
3.802912538334652e7 -3.2600060322581455e6 0.0
0.0 0.0 0.0

-1.5047002650165725e6 1.451547620727757e7 0.0
1.451547620727757e7 -5.56681850409685e7 0.0
0.0 0.0 0.0

-4.2570902904131204e7 1.866527581198207e7 0.0
1.866527581198207e7 6.024593149291877e6 0.0
0.0 0.0 0.0

4.461190388908013e6 2.2636733549813062e7 0.0
2.2636733549813062e7 2.4037214524578072e7 0.0
0.0 0.0 0.0

-9.146181055936804e6 4.253088719478227e7 0.0
4.253088719478227e7 5.704278548374941e6 0.0
0.0 0.0 0.0

1.3663356874445388e6 2.6191400457124185e7 0.0
2.6191400457124185e7 -1.2944382700725578e7 0.0
0.0 0.0 0.0

-8.043135925692622e6 3.601120506342863e7 0.0
3.601120506342863e7 7.316742753169715e6 0.0
0.0 0.0 0.0

-710487.9308223389 1.5100765222842619e7 0.0
1.5100765222842619e7 7.827231366350019e7 0.0
0.0 0.0 0.0

1.3560582572805863e6 1.878886025334874e7 0.0
1.878886025334874e7 -2.2268771295834918e7 0.0
0.0 0.0 0.0

1.016905474949626e7 3.9010544250733465e7 0.0
3.9010544250733465e7 -6.1435936839845255e6 0.0
0.0 0.0 0.0

-2.3008938892390607e6 1.5011213545865022e7 0.0
1.5011213545865022e7 4.898679068973798e6 0.0
0.0 0.0 0.0

-3.894298589634047e7 1.7807328773802277e7 0.0
1.7807328773802277e7 5.839937684549553e6 0.0
0.0 0.0 0.0

-2.7349741703077047e6 1.9673526860336907e7 0.0
1.9673526860336907e7 1.4414893484785156e6 0.0
0.0 0.0 0.0

-8.501620548852656e6 6.883236298792228e6 0.0
6.883236298792228e6 4.223339968852075e7 0.0
0.0 0.0 0.0

-1.622432723091863e6 1.851967656172007e7 0.0
1.851967656172007e7 5.048896565464767e7 0.0
0.0 0.0 0.0

-7.377286320859377e6 4.026046131390991e7 0.0
4.026046131390991e7 4.28564991795769e6 0.0
0.0 0.0 0.0

-8.06411588307492e6 4.429025825686085e7 0.0
4.429025825686085e7 4.990469480373682e6 0.0
0.0 0.0 0.0

-2.305249330925796e6 1.4489508712968927e7 0.0
1.4489508712968927e7 6.255757062011814e7 0.0
0.0 0.0 0.0

1.0283614378333669e6 1.6765895459729519e7 0.0
1.6765895459729519e7 -1.808054694777861e7 0.0
0.0 0.0 0.0

1.0548456765955318e7 2.770856855115696e7 0.0
2.770856855115696e7 2.8663944383024047e6 0.0
0.0 0.0 0.0

-4.907160764921881e6 1.931811914010406e7 0.0
1.931811914010406e7 -1.45633460261128e7 0.0
0.0 0.0 0.0

878564.5842173677 1.0585830314473681e7 0.0
1.0585830314473681e7 -1.860935197369753e7 0.0
0.0 0.0 0.0

-5.246836967916736e6 3.984531137011134e7 0.0
3.984531137011134e7 4.834727644743534e6 0.0
0.0 0.0 0.0

-4.129696051923573e6 2.128355705509931e7 0.0
2.128355705509931e7 3.382792723685725e7 0.0
0.0 0.0 0.0

-2.441528740876889e6 1.4830408897712411e7 0.0
1.4830408897712411e7 -5.616172909250339e7 0.0
0.0 0.0 0.0

-2.765339578512632e7 3.364255173948355e7 0.0
3.364255173948355e7 868064.2035958599 0.0
0.0 0.0 0.0

4.957219635338927e6 3.439399434427687e7 0.0
3.439399434427687e7 -7.025452330970233e6 0.0
0.0 0.0 0.0

-543872.1247037351 6.3420851874751225e6 0.0
6.3420851874751225e6 -7.461491578682187e7 0.0
0.0 0.0 0.0

152716.51253857277 2.400695982471786e7 0.0
2.400695982471786e7 2.5475408297295436e7 0.0
0.0 0.0 0.0

-1.2200299937662738e6 2.9769027337693542e7 0.0
2.9769027337693542e7 2.436322558386314e6 0.0
0.0 0.0 0.0

1.3495222578114076e6 2.588351321062055e7 0.0
2.588351321062055e7 -1.7255716129538916e7 0.0
0.0 0.0 0.0

-1.2345390119788615e7 4.11810998840167e7 0.0
4.11810998840167e7 6.272298901327777e6 0.0
0.0 0.0 0.0

-506742.7865205173 3.01345508128593e7 0.0
3.01345508128593e7 -959367.7405061922 0.0
0.0 0.0 0.0

-8.876401439262306e6 4.118579204923783e7 0.0
4.118579204923783e7 4.533132554632252e6 0.0
0.0 0.0 0.0

-3.387677305796963e6 1.0213736514843605e7 0.0
1.0213736514843605e7 7.933659862828365e6 0.0
0.0 0.0 0.0

9.153260877300806e6 2.200106022622397e7 0.0
2.200106022622397e7 3.260425071409313e7 0.0
0.0 0.0 0.0

-1.782852704133383e6 2.2260901638045717e7 0.0
2.2260901638045717e7 -2.6846648065324273e7 0.0
0.0 0.0 0.0

-1.816050631297412e6 1.8979224978731856e7 0.0
1.8979224978731856e7 2.64547948064512e6 0.0
0.0 0.0 0.0

289839.4888306977 2.406039756211648e7 0.0
2.406039756211648e7 -2.053879353394459e7 0.0
0.0 0.0 0.0

1.4726922477859482e6 9.123125818224465e6 0.0
9.123125818224465e6 -2.7081998190264396e7 0.0
0.0 0.0 0.0

1.998818569290301e7 2.8995021629798923e7 0.0
2.8995021629798923e7 1.3998926086114842e7 0.0
0.0 0.0 0.0

-6.348032423198819e6 2.2951745234479583e6 0.0
2.2951745234479583e6 5.220274327054402e7 0.0
0.0 0.0 0.0

1.0282119036529977e7 2.211166355296178e7 0.0
2.211166355296178e7 3.72412703342335e7 0.0
0.0 0.0 0.0

-4.682163817638818e6 3.7391004947940424e7 0.0
3.7391004947940424e7 4.0608973685410954e6 0.0
0.0 0.0 0.0

-1.6458567838836089e6 2.1758163537468184e7 0.0
2.1758163537468184e7 -3.083059834534506e7 0.0
0.0 0.0 0.0

9.021909990147173e6 3.813762110567442e7 0.0
3.813762110567442e7 -5.73571943939094e6 0.0
0.0 0.0 0.0

-1.3855463042113173e6 2.4185218293436795e7 0.0
2.4185218293436795e7 -3.5824516786159514e6 0.0
0.0 0.0 0.0

1.6352427952509224e6 1.2730307778983448e7 0.0
1.2730307778983448e7 -3.517375262602983e7 0.0
0.0 0.0 0.0

4.5063151646004645e6 3.3421458571071696e7 0.0
3.3421458571071696e7 -8.4278634887516e6 0.0
0.0 0.0 0.0

-1.1433197460241606e6 2.2789782019223653e7 0.0
2.2789782019223653e7 -2.463360625510964e7 0.0
0.0 0.0 0.0

-1.0205996198800504e7 1.0239613303942382e7 0.0
1.0239613303942382e7 2.2514412136175882e7 0.0
0.0 0.0 0.0

7.007849766994724e6 2.463756260276239e7 0.0
2.463756260276239e7 2.2774693247757953e7 0.0
0.0 0.0 0.0

-6.265006615243197e6 2.9491108941953827e7 0.0
2.9491108941953827e7 1.1154819189397257e7 0.0
0.0 0.0 0.0

-5.430475146571468e6 3.8394399050104745e7 0.0
3.8394399050104745e7 4.034774064286714e6 0.0
0.0 0.0 0.0

900483.7975390553 2.439749029131768e7 0.0
2.439749029131768e7 1.5267357580712136e7 0.0
0.0 0.0 0.0

-8.461250183810668e6 6.040933332981839e6 0.0
6.040933332981839e6 1.7284978259888086e7 0.0
0.0 0.0 0.0

-5.423201493980635e6 1.3294311136798315e7 0.0
1.3294311136798315e7 5.2845204213861965e7 0.0
0.0 0.0 0.0

1.0443192255459698e6 2.4782913215920188e7 0.0
2.4782913215920188e7 -1.8725035410033476e7 0.0
0.0 0.0 0.0

-5.686547213850275e6 1.7718544438006498e7 0.0
1.7718544438006498e7 -8.648809016042292e7 0.0
0.0 0.0 0.0

-7.183507269187905e6 7.921864008927914e6 0.0
7.921864008927914e6 1.5436381937006682e7 0.0
0.0 0.0 0.0

-9.564725514550775e6 5.145684001130511e6 0.0
5.145684001130511e6 3.1461310608710088e7 0.0
0.0 0.0 0.0

-2.893094755417447e6 2.2070761806951225e7 0.0
2.2070761806951225e7 1.1581112507767413e7 0.0
0.0 0.0 0.0

4.130144589565826e6 3.47255595686066e7 0.0
3.47255595686066e7 -6.275962974194671e6 0.0
0.0 0.0 0.0

-7.009198125691609e6 1.9765856399193328e7 0.0
1.9765856399193328e7 -5.5292746879931316e7 0.0
0.0 0.0 0.0

2.408763491663362e6 8.687275703436587e6 0.0
8.687275703436587e6 -2.3261405693440787e7 0.0
0.0 0.0 0.0

-2.696897325501932e6 3.7758737878487796e7 0.0
3.7758737878487796e7 3.766115641103511e6 0.0
0.0 0.0 0.0

5.690935101546363e6 3.3914698196817406e7 0.0
3.3914698196817406e7 -7.643152906051227e6 0.0
0.0 0.0 0.0

-1.3766830479534123e7 5.205416103844843e7 0.0
5.205416103844843e7 4.547058591072729e6 0.0
0.0 0.0 0.0

-3.7182120009711804e6 3.7877289150349624e7 0.0
3.7877289150349624e7 4.8008801431204565e6 0.0
0.0 0.0 0.0

-3.659759664359459e7 3.560728517252595e7 0.0
3.560728517252595e7 -1.6905567675768502e7 0.0
0.0 0.0 0.0

-6.279251591723547e6 2.731393359600602e7 0.0
2.731393359600602e7 -2.515320427616112e6 0.0
0.0 0.0 0.0

-6.093966806255169e6 1.762374820698418e7 0.0
1.762374820698418e7 -7.9608383443211e7 0.0
0.0 0.0 0.0

-2.9284152821271825e6 1.8164747802153267e7 0.0
1.8164747802153267e7 1.4112902208534365e6 0.0
0.0 0.0 0.0

-6.407007810654338e6 4.454912168945769e6 0.0
4.454912168945769e6 5.972781007081783e7 0.0
0.0 0.0 0.0

-4.493026669838883e6 8.301491199078962e6 0.0
8.301491199078962e6 6.93804823978825e7 0.0
0.0 0.0 0.0

505926.2802750021 7.471199934594334e6 0.0
7.471199934594334e6 -5.396855283809505e7 0.0
0.0 0.0 0.0

-5.723450490133572e6 3.1018142597098935e7 0.0
3.1018142597098935e7 1.0759764064728403e7 0.0
0.0 0.0 0.0

144691.52019577846 1.6579347669355117e7 0.0
1.6579347669355117e7 6.78388418178197e7 0.0
0.0 0.0 0.0

-436904.7796186479 2.340968863470362e7 0.0
2.340968863470362e7 -2.251981682092218e7 0.0
0.0 0.0 0.0

2.3933923457385115e6 1.880550207799184e7 0.0
1.880550207799184e7 6.578866747775128e7 0.0
0.0 0.0 0.0

3.5830184906933107e6 3.3872610564364254e7 0.0
3.3872610564364254e7 -7.844814591877986e6 0.0
0.0 0.0 0.0

6.708855259692512e6 4.1798611847232945e7 0.0
4.1798611847232945e7 -4.763107313746508e6 0.0
0.0 0.0 0.0

-881122.8605816106 2.4008555351253405e7 0.0
2.4008555351253405e7 -6.16628244018783e6 0.0
0.0 0.0 0.0

-9.508279118123598e6 8.226550226567633e6 0.0
8.226550226567633e6 3.023303857354897e7 0.0
0.0 0.0 0.0

2.729926425883936e6 2.3472096560802497e7 0.0
2.3472096560802497e7 1.9513945304650757e7 0.0
0.0 0.0 0.0

-1.9630864823676664e6 2.1221804672682203e7 0.0
2.1221804672682203e7 1.3089824184760954e7 0.0
0.0 0.0 0.0

1.154124953184234e6 4.988763428189096e6 0.0
4.988763428189096e6 -4.929256872206862e7 0.0
0.0 0.0 0.0

7.71546673024907e6 2.9036654744225096e7 0.0
2.9036654744225096e7 -5.60417927105313e6 0.0
0.0 0.0 0.0

-1.947162838716443e7 2.5618392841541033e7 0.0
2.5618392841541033e7 -3.4242560318688895e6 0.0
0.0 0.0 0.0

-3.2432470989036806e7 3.021942432521265e7 0.0
3.021942432521265e7 -1.1547193597252946e7 0.0
0.0 0.0 0.0

-2.5898414973091003e6 3.8762917193388425e7 0.0
3.8762917193388425e7 1.1011716905411284e6 0.0
0.0 0.0 0.0

-107960.51834344491 1.6097328421965744e7 0.0
1.6097328421965744e7 -1.6962397180809822e7 0.0
0.0 0.0 0.0

-8.956023666712513e6 2.68975127291653e7 0.0
2.68975127291653e7 -2.2948015766380755e6 0.0
0.0 0.0 0.0

4.430185584269467e6 4.192799368879641e7 0.0
4.192799368879641e7 -2.366796535093652e6 0.0
0.0 0.0 0.0

-647549.0822548829 2.4026611255943738e7 0.0
2.4026611255943738e7 2.6499478149396714e7 0.0
0.0 0.0 0.0

-323568.7987437537 2.5019521298522566e7 0.0
2.5019521298522566e7 1.4751239073480465e7 0.0
0.0 0.0 0.0

966410.553401663 1.5509548822804864e7 0.0
1.5509548822804864e7 -1.6001009202964697e7 0.0
0.0 0.0 0.0

-2.4944075158496303e6 4.448215153670099e7 0.0
4.448215153670099e7 1.9985820962839995e6 0.0
0.0 0.0 0.0

-7.8560886981407385e6 4.159935700526249e6 0.0
4.159935700526249e6 4.588982629423575e7 0.0
0.0 0.0 0.0

2.2389680366819e6 6.412747479503084e6 0.0
6.412747479503084e6 -3.8112034845470324e7 0.0
0.0 0.0 0.0

2.3032451898259204e6 3.7644126931623735e7 0.0
3.7644126931623735e7 -2.4534420062615657e6 0.0
0.0 0.0 0.0

-1.8947352137313122e6 2.271624219773287e7 0.0
2.271624219773287e7 -2.756286166573242e7 0.0
0.0 0.0 0.0

-7.773441162724779e6 24623.830319577308 0.0
24623.830319577308 1.4671085209294578e7 0.0
0.0 0.0 0.0

307780.5162562756 1.1659947115363834e7 0.0
1.1659947115363834e7 -1.567336726477591e7 0.0
0.0 0.0 0.0

-1.4714032585679127e7 2.995424852416029e7 0.0
2.995424852416029e7 -1.4553190349118184e7 0.0
0.0 0.0 0.0

1.4453212246585824e6 1.4413781260540748e7 0.0
1.4413781260540748e7 -3.387847239573708e7 0.0
0.0 0.0 0.0

1.954549866385393e7 2.9986985504363686e7 0.0
2.9986985504363686e7 1.712073658495108e7 0.0
0.0 0.0 0.0

-5.298557884279069e6 1.1331683012731282e7 0.0
1.1331683012731282e7 6.073807896987998e6 0.0
0.0 0.0 0.0

-9.725093142928597e6 6.169416204951425e6 0.0
6.169416204951425e6 1.2824165645670708e7 0.0
0.0 0.0 0.0

1.5527820878596094e7 3.929952439279333e7 0.0
3.929952439279333e7 -5.89117802325622e6 0.0
0.0 0.0 0.0

-7.783295623841751e6 4.6679397705374295e6 0.0
4.6679397705374295e6 4.4334964748349786e7 0.0
0.0 0.0 0.0

1.176189609023667e6 2.053167360013445e7 0.0
2.053167360013445e7 -1.8740119770269513e7 0.0
0.0 0.0 0.0

2.653128533681108e6 2.4773321406717997e7 0.0
2.4773321406717997e7 4.010491007318842e6 0.0
0.0 0.0 0.0

2.6492987044992384e7 3.280277640940156e7 0.0
3.280277640940156e7 -1.6136107650208045e6 0.0
0.0 0.0 0.0

1.1220715603023674e6 2.1875877403216846e7 0.0
2.1875877403216846e7 -2.3464256284591716e7 0.0
0.0 0.0 0.0

1.332748419736537e7 2.280624288120201e7 0.0
2.280624288120201e7 4.924932812510601e7 0.0
0.0 0.0 0.0

-1.099411510660107e7 3.561713064101624e7 0.0
3.561713064101624e7 7.064408153668087e6 0.0
0.0 0.0 0.0

-5.994554580265112e6 4.535072985181422e6 0.0
4.535072985181422e6 5.543048305668037e7 0.0
0.0 0.0 0.0

3.390922644827214e6 3.781722172422987e7 0.0
3.781722172422987e7 -3.1518913071308266e6 0.0
0.0 0.0 0.0

2.8801087626105864e6 2.418252946811238e7 0.0
2.418252946811238e7 2.7092197992826276e7 0.0
0.0 0.0 0.0

1.0598952232602462e6 1.3662350183706706e7 0.0
1.3662350183706706e7 -2.7782971256738693e7 0.0
0.0 0.0 0.0

1.5182021183573492e6 5.485327945222779e6 0.0
5.485327945222779e6 -5.562748785133578e7 0.0
0.0 0.0 0.0

-1.1707493244175047e6 2.9941596685001828e7 0.0
2.9941596685001828e7 -3.126232628561605e6 0.0
0.0 0.0 0.0

-6.658398310853439e6 1.5394523426080028e7 0.0
1.5394523426080028e7 2.194207929072599e7 0.0
0.0 0.0 0.0

-3.5178864950914904e6 1.958429328049935e7 0.0
1.958429328049935e7 4.148845184963049e7 0.0
0.0 0.0 0.0

-2.258330929633042e6 2.1254225117453188e7 0.0
2.1254225117453188e7 -3.3290418611941773e7 0.0
0.0 0.0 0.0

-5.351357689864807e6 1.700231620996413e7 0.0
1.700231620996413e7 -7.398518543887442e7 0.0
0.0 0.0 0.0

4.0083718199946648e6 3.878380290184013e7 0.0
3.878380290184013e7 -3.1659148358221566e6 0.0
0.0 0.0 0.0

101517.35476702964 2.4740651704792753e7 0.0
2.4740651704792753e7 1.1792253525350392e7 0.0
0.0 0.0 0.0

-4.8620604923512906e7 1.914795315329968e7 0.0
1.914795315329968e7 5.1740407137578335e6 0.0
0.0 0.0 0.0

1.4531223266609471e7 2.3277132955085475e7 0.0
2.3277132955085475e7 5.507653269733142e7 0.0
0.0 0.0 0.0

-4.3938713897821404e7 4.2763988964370616e7 0.0
4.2763988964370616e7 5.542240752770223e6 0.0
0.0 0.0 0.0

322088.49768634513 1.3165513433874954e7 0.0
1.3165513433874954e7 -4.158770359107146e7 0.0
0.0 0.0 0.0

1.163780958067917e7 6.267416930561127e6 0.0
6.267416930561127e6 -1.476245263964444e6 0.0
0.0 0.0 0.0

-2.1072065660028804e7 3.0594243155176523e6 0.0
3.0594243155176523e6 5.504520979558353e6 0.0
0.0 0.0 0.0

-7.1049871511005545e6 1.4118319925072208e7 0.0
1.4118319925072208e7 2.0058283106650375e7 0.0
0.0 0.0 0.0

-6.500285931754649e6 6.009687129485717e6 0.0
6.009687129485717e6 5.272628945609026e7 0.0
0.0 0.0 0.0

-8.144851640597392e6 6.883344940510445e6 0.0
6.883344940510445e6 4.4431050717320584e7 0.0
0.0 0.0 0.0

163608.9422746515 2.4471683174405202e7 0.0
2.4471683174405202e7 -2.12311878994431e7 0.0
0.0 0.0 0.0

-3.601271987666086e6 2.087459452611125e7 0.0
2.087459452611125e7 -1.2004239757900462e7 0.0
0.0 0.0 0.0

3.533668658055601e6 2.1010159922982432e7 0.0
2.1010159922982432e7 1.1778895449550414e7 0.0
0.0 0.0 0.0

2.0260420766031053e6 2.4550708254261296e7 0.0
2.4550708254261296e7 342065.29596819996 0.0
0.0 0.0 0.0

4.707020155349216e6 3.9752640638814166e7 0.0
3.9752640638814166e7 -3.094382904464362e6 0.0
0.0 0.0 0.0

-8.081306923027996e6 1.4858422496156454e7 0.0
1.4858422496156454e7 2.7415624966731787e7 0.0
0.0 0.0 0.0

818419.876432687 2.279103278898207e7 0.0
2.279103278898207e7 -2.183261361675831e7 0.0
0.0 0.0 0.0

-2.666097676769634e6 3.2393858219805535e7 0.0
3.2393858219805535e7 4.028037442257108e6 0.0
0.0 0.0 0.0

112663.70759885944 1.04915857437867e7 0.0
1.04915857437867e7 -4.956164954280715e7 0.0
0.0 0.0 0.0

-7.289011834963711e6 5.524776501814844e6 0.0
5.524776501814844e6 4.738897874439499e7 0.0
0.0 0.0 0.0

3.8033620600800687e6 3.682972992820919e7 0.0
3.682972992820919e7 -4.231342862364713e6 0.0
0.0 0.0 0.0

-748989.8648475655 2.4926492547896333e7 0.0
2.4926492547896333e7 8.323297151571376e6 0.0
0.0 0.0 0.0

-1.669041022654518e6 2.521127024938021e7 0.0
2.521127024938021e7 4.934857374979889e6 0.0
0.0 0.0 0.0

-9.777194880099475e6 2.924355847718488e7 0.0
2.924355847718488e7 -1.657343936271076e7 0.0
0.0 0.0 0.0

1.063632715916489e7 1.9554875750679392e7 0.0
1.9554875750679392e7 3.671137825330966e7 0.0
0.0 0.0 0.0

-1.1853063389047872e7 2.78315634509279e7 0.0
2.78315634509279e7 -1.4233922215802077e7 0.0
0.0 0.0 0.0

-2.291510183744345e6 1.748837185874752e7 0.0
1.748837185874752e7 5.344971296592285e7 0.0
0.0 0.0 0.0

-6.727989394756325e6 4.44517295119719e6 0.0
4.44517295119719e6 5.5423763247106284e7 0.0
0.0 0.0 0.0

1.8288877496844456e6 1.3097696176880809e7 0.0
1.3097696176880809e7 -2.684343105940331e7 0.0
0.0 0.0 0.0

456029.7754703723 6.409726056913432e6 0.0
6.409726056913432e6 -5.6814136637760006e7 0.0
0.0 0.0 0.0

1.5247224040782172e6 2.349282509762853e7 0.0
2.349282509762853e7 -1.999101136441326e7 0.0
0.0 0.0 0.0

1.2500456462238384e7 2.843829189244633e7 0.0
2.843829189244633e7 1.439762150650527e7 0.0
0.0 0.0 0.0

1.694338506980042e6 7.6550925034732055e6 0.0
7.6550925034732055e6 -2.4922145014469475e7 0.0
0.0 0.0 0.0

-1.0864016261764262e7 2.1661478530536544e7 0.0
2.1661478530536544e7 -4.3405340786943294e7 0.0
0.0 0.0 0.0

-4.744567162022732e6 1.6632805025431797e7 0.0
1.6632805025431797e7 -6.868957187353803e7 0.0
0.0 0.0 0.0

-2.838108898364646e6 2.0951097680953693e7 0.0
2.0951097680953693e7 8.461354916792113e6 0.0
0.0 0.0 0.0

-7.620790748591151e6 3.154859636461661e7 0.0
3.154859636461661e7 1.0129173157345887e7 0.0
0.0 0.0 0.0

-1.5467169404188998e7 2.876038242042363e7 0.0
2.876038242042363e7 -1.5162716069538921e7 0.0
0.0 0.0 0.0

-4.661099172453325e6 5.012419242161037e6 0.0
5.012419242161037e6 6.781704764460534e7 0.0
0.0 0.0 0.0

-4.10757401918184e6 1.6480301250560228e7 0.0
1.6480301250560228e7 -6.407380720406941e7 0.0
0.0 0.0 0.0

-2.0077990999839716e6 1.676988253289193e7 0.0
1.676988253289193e7 5.7179481228863865e7 0.0
0.0 0.0 0.0

-2.774685652868118e6 2.544632447701575e7 0.0
2.544632447701575e7 1.5080257765779796e6 0.0
0.0 0.0 0.0

2.8035003881271915e6 3.9244496342810445e7 0.0
3.9244496342810445e7 -3.8898237960987873e6 0.0
0.0 0.0 0.0

-1.7402907220504284e7 3.4663436203818336e7 0.0
3.4663436203818336e7 4.838231828333331e6 0.0
0.0 0.0 0.0

-4.419041091408011e6 1.8742521677597966e7 0.0
1.8742521677597966e7 4.088437559413245e7 0.0
0.0 0.0 0.0

-7.36416915549164e6 1.891986075909941e7 0.0
1.891986075909941e7 -2.430005144943135e7 0.0
0.0 0.0 0.0

6.943381185125485e6 2.175274586409873e7 0.0
2.175274586409873e7 2.1915913030865993e7 0.0
0.0 0.0 0.0

392144.07344672456 8.280572232168667e6 0.0
8.280572232168667e6 -5.144498537091031e7 0.0
0.0 0.0 0.0

725023.6084527355 1.0751277251759961e7 0.0
1.0751277251759961e7 -1.7350694851134237e7 0.0
0.0 0.0 0.0

-4.323796620979428e6 1.4315006992038412e7 0.0
1.4315006992038412e7 5.414694597661213e7 0.0
0.0 0.0 0.0

-3.0386595908524077e6 2.706037967736843e7 0.0
2.706037967736843e7 1.4827086285478473e7 0.0
0.0 0.0 0.0

-4.258900258297968e7 3.521017821661187e7 0.0
3.521017821661187e7 -1.7706208844098393e6 0.0
0.0 0.0 0.0

-1.569683798815485e6 1.895087624735591e7 0.0
1.895087624735591e7 -3.666969140249631e7 0.0
0.0 0.0 0.0

-220255.37207133882 1.2444090881384993e7 0.0
1.2444090881384993e7 -4.7524825489165716e7 0.0
0.0 0.0 0.0

-3.440835904888844e6 1.6504646869129026e7 0.0
1.6504646869129026e7 -5.9737045502706766e7 0.0
0.0 0.0 0.0

2.4237239737281753e6 4.525141153834229e6 0.0
4.525141153834229e6 -1.2263673931638207e7 0.0
0.0 0.0 0.0

1.671483115992018e6 2.64581962740933e7 0.0
2.64581962740933e7 -1.36594217746628e7 0.0
0.0 0.0 0.0

4.282562319812537e6 2.880778058414595e7 0.0
2.880778058414595e7 -1.0736919079089686e7 0.0
0.0 0.0 0.0

-2.793312491347619e7 4.848955981572701e7 0.0
4.848955981572701e7 7.849442297610542e6 0.0
0.0 0.0 0.0

1.186984767840051e6 4.747672699754799e6 0.0
4.747672699754799e6 -5.773786802509259e6 0.0
0.0 0.0 0.0

-1.1869419501181478e6 2.325474607144814e7 0.0
2.325474607144814e7 -2.5252218160223708e7 0.0
0.0 0.0 0.0

-3.363298403272262e6 2.1317039846107047e7 0.0
2.1317039846107047e7 3.395374411664173e7 0.0
0.0 0.0 0.0

-8.28790807646108e6 5.741051916143739e6 0.0
5.741051916143739e6 3.907499670728636e7 0.0
0.0 0.0 0.0

1.0737162710362617e6 5.795489503471556e6 0.0
5.795489503471556e6 -4.709116823064502e7 0.0
0.0 0.0 0.0

-8.487823671819756e6 8.636560470050612e6 0.0
8.636560470050612e6 3.826092566504047e7 0.0
0.0 0.0 0.0

-7.30361826306092e6 8.367334996287964e6 0.0
8.367334996287964e6 4.617111252439067e7 0.0
0.0 0.0 0.0

-7.8063438533226345e6 1.4352721028931066e7 0.0
1.4352721028931066e7 2.368722307922304e7 0.0
0.0 0.0 0.0

-4.702549707323189e6 2.889976216632681e7 0.0
2.889976216632681e7 1.45401711699133e7 0.0
0.0 0.0 0.0

-1.9866165959373026e6 1.58320970387788e7 0.0
1.58320970387788e7 2.713569207219322e6 0.0
0.0 0.0 0.0

3.2037953633502457e7 6.608984197694257e6 0.0
6.608984197694257e6 -1.1459472435513865e6 0.0
0.0 0.0 0.0

-4.157588419589917e7 5.149400588674377e6 0.0
5.149400588674377e6 5.238482581112035e6 0.0
0.0 0.0 0.0

2.1305046337607875e6 9.911941973761545e6 0.0
9.911941973761545e6 -1.889069764323594e7 0.0
0.0 0.0 0.0

720709.1073472109 1.1953225782667378e7 0.0
1.1953225782667378e7 -4.677923127218684e7 0.0
0.0 0.0 0.0

1.1210466296770163e6 9.8186293227414e6 0.0
9.8186293227414e6 -4.854277176239379e7 0.0
0.0 0.0 0.0

85470.27361269947 2.806663430216875e6 0.0
2.806663430216875e6 2.1918856034986833e6 0.0
0.0 0.0 0.0

-5.499885557488564e6 299807.15371507185 0.0
299807.15371507185 3.7600189528642353e6 0.0
0.0 0.0 0.0

-7.566762108223788e6 2.2036763296007548e7 0.0
2.2036763296007548e7 -3.8374775321691886e7 0.0
0.0 0.0 0.0

707832.0721267313 6.321380671138278e6 0.0
6.321380671138278e6 -5.314410063103183e7 0.0
0.0 0.0 0.0

-3.8238618633877836e7 3.155886029223386e7 0.0
3.155886029223386e7 -1.72433670729354e7 0.0
0.0 0.0 0.0

-3.605568370579118e6 2.5170049328491185e7 0.0
2.5170049328491185e7 2.0832775212856047e7 0.0
0.0 0.0 0.0

4.046171226530421e6 3.579061103588537e7 0.0
3.579061103588537e7 -5.228952783897169e6 0.0
0.0 0.0 0.0

9.312301551231809e6 1.9476300903432086e7 0.0
1.9476300903432086e7 3.204267019264176e7 0.0
0.0 0.0 0.0

1.9066181686134767e7 1.3214069252269091e7 0.0
1.3214069252269091e7 2.2117453319483404e6 0.0
0.0 0.0 0.0

-1.874906835967073e7 3.186842092480536e7 0.0
3.186842092480536e7 -1.5917188687285852e7 0.0
0.0 0.0 0.0

-5.281469295722995e6 8.539642831617912e6 0.0
8.539642831617912e6 5.933441159984617e7 0.0
0.0 0.0 0.0

-7.099340224533685e6 3.047809898058486e7 0.0
3.047809898058486e7 1.066921299467161e7 0.0
0.0 0.0 0.0

5.230066437667716e6 2.900921464305898e7 0.0
2.900921464305898e7 -9.061033985933637e6 0.0
0.0 0.0 0.0

-3.32946614139235e6 2.1942601137386084e7 0.0
2.1942601137386084e7 3.183998588468627e7 0.0
0.0 0.0 0.0

-7.786976934187345e6 1.731392463307587e6 0.0
1.731392463307587e6 3.9051148488003485e7 0.0
0.0 0.0 0.0

1.761824665002158e6 3.7285965957023785e7 0.0
3.7285965957023785e7 -3.9774665377165303e6 0.0
0.0 0.0 0.0

238981.75532221235 1.2280896182281025e7 0.0
1.2280896182281025e7 -4.425897995696043e7 0.0
0.0 0.0 0.0

6.859635360911574e6 3.455419959528535e7 0.0
3.455419959528535e7 -7.353955740035294e6 0.0
0.0 0.0 0.0

1.440205144484464e6 7.780996415797194e6 0.0
7.780996415797194e6 -5.0653565930719145e7 0.0
0.0 0.0 0.0

8.694418011656057e6 2.241934656187918e7 0.0
2.241934656187918e7 2.548277765273292e7 0.0
0.0 0.0 0.0

578970.9497353341 2.735435058388177e7 0.0
2.735435058388177e7 -1.1870999135203108e7 0.0
0.0 0.0 0.0

-1.0585479445991168e7 6.125066116323007e6 0.0
6.125066116323007e6 2.344408437187215e7 0.0
0.0 0.0 0.0

-4.214790199137167e6 2.062236564982971e7 0.0
2.062236564982971e7 -1.2216525318094123e7 0.0
0.0 0.0 0.0

1.7150064145796e6 5.498767317190704e6 0.0
5.498767317190704e6 -5.1882646738864906e7 0.0
0.0 0.0 0.0

2.2526050506182585e7 3.479183217962765e7 0.0
3.479183217962765e7 -3.8137992063387744e6 0.0
0.0 0.0 0.0

1.4847477857499355e6 8.666345857260955e6 0.0
8.666345857260955e6 -2.3246353351042427e7 0.0
0.0 0.0 0.0

-1.013330521769518e7 1.0631178821768552e7 0.0
1.0631178821768552e7 2.8393036294210114e7 0.0
0.0 0.0 0.0

-4.024034984850562e6 3.638155970239633e7 0.0
3.638155970239633e7 3.9659970963454656e6 0.0
0.0 0.0 0.0

-3.151836995633634e6 1.65596051018987e7 0.0
1.65596051018987e7 -5.5553348651885435e7 0.0
0.0 0.0 0.0

-6.46042246425265e6 2.0484492421360824e7 0.0
2.0484492421360824e7 -2.153474117126048e7 0.0
0.0 0.0 0.0

6.202752886052129e6 2.0815390832203288e7 0.0
2.0815390832203288e7 2.0675843312141515e7 0.0
0.0 0.0 0.0

-2.124907081597794e6 1.6636713413057156e7 0.0
1.6636713413057156e7 4.727013890084562e6 0.0
0.0 0.0 0.0

-3.85663288338147e6 1.910109404428191e7 0.0
1.910109404428191e7 1.2825050712084848e7 0.0
0.0 0.0 0.0

4.872269660095771e6 2.349094417387551e7 0.0
2.349094417387551e7 2.727404642583472e7 0.0
0.0 0.0 0.0

-8.563798934404828e6 3.4851593934278633e6 0.0
3.4851593934278633e6 3.397979982502062e7 0.0
0.0 0.0 0.0

3.868305507344587e6 2.6599651015208766e7 0.0
2.6599651015208766e7 7.1019028346072985e6 0.0
0.0 0.0 0.0

-3.590214024537431e6 2.8048499482086368e7 0.0
2.8048499482086368e7 1.5591912698826812e7 0.0
0.0 0.0 0.0

1.3737066292619603e6 8.912669493125277e6 0.0
8.912669493125277e6 -2.0463807253846895e7 0.0
0.0 0.0 0.0

-9.313121458648661e6 7.124385181970633e6 0.0
7.124385181970633e6 3.622478338934455e7 0.0
0.0 0.0 0.0

-9.777050760217994e6 2.7271925937812325e7 0.0
2.7271925937812325e7 -1.1803618339061847e7 0.0
0.0 0.0 0.0

-3.899667804427866e6 2.2613226199686237e7 0.0
2.2613226199686237e7 2.9920473410297066e7 0.0
0.0 0.0 0.0

1.5304613242652267e6 2.470582350378693e7 0.0
2.470582350378693e7 2.1530735796562653e7 0.0
0.0 0.0 0.0

-8.337071968342166e6 1.1397670538713291e7 0.0
1.1397670538713291e7 3.739214151710133e7 0.0
0.0 0.0 0.0

4.397135150781047e6 2.836198854400098e7 0.0
2.836198854400098e7 -1.199047352498899e7 0.0
0.0 0.0 0.0

-7.758159985046917e6 3.471515654349725e7 0.0
3.471515654349725e7 8.102291815461985e6 0.0
0.0 0.0 0.0

-5.192555635765664e6 1.2554003626180109e7 0.0
1.2554003626180109e7 5.3442344480710596e7 0.0
0.0 0.0 0.0

-7.365067832508518e6 1.633488463356291e7 0.0
1.633488463356291e7 2.004468544439482e7 0.0
0.0 0.0 0.0

-7.004020332781833e6 6.0149524629797125e6 0.0
6.0149524629797125e6 5.2329374037976265e7 0.0
0.0 0.0 0.0

688948.9006606098 2.199910007572506e7 0.0
2.199910007572506e7 -2.3657907311836436e7 0.0
0.0 0.0 0.0

-6.424722981045182e6 3.0704517216491845e7 0.0
3.0704517216491845e7 1.1665662905082513e7 0.0
0.0 0.0 0.0

-3.882846460957022e6 2.5640081368038826e7 0.0
2.5640081368038826e7 -1.8535112656900676e6 0.0
0.0 0.0 0.0

2.2416678135497198e6 1.0082386465733813e7 0.0
1.0082386465733813e7 -2.543974965001175e7 0.0
0.0 0.0 0.0

-7.367354860775452e6 2.4581959296283447e6 0.0
2.4581959296283447e6 4.338568471598929e7 0.0
0.0 0.0 0.0

1.4809268450534157e6 1.911132426207026e7 0.0
1.911132426207026e7 6.1123782365410775e7 0.0
0.0 0.0 0.0

-2.7831121998892203e6 1.5358185412774915e7 0.0
1.5358185412774915e7 5.814587446981518e7 0.0
0.0 0.0 0.0

3.5973914014187846e6 2.472118922985546e7 0.0
2.472118922985546e7 1.4694884976906143e7 0.0
0.0 0.0 0.0

-9.324433429714156e6 9.981049028838266e6 0.0
9.981049028838266e6 3.546464576518903e7 0.0
0.0 0.0 0.0

-2.837668311258766e6 1.8243165194803134e7 0.0
1.8243165194803134e7 1.4444612697670912e7 0.0
0.0 0.0 0.0

-183883.6526577084 2.5768001732251093e7 0.0
2.5768001732251093e7 -6.923822269906692e6 0.0
0.0 0.0 0.0

405620.8708494026 1.970132167738629e7 0.0
1.970132167738629e7 -2.0057325034663055e7 0.0
0.0 0.0 0.0

-3.8570598753781663e6 2.804271654421768e7 0.0
2.804271654421768e7 1.6781572069711216e7 0.0
0.0 0.0 0.0

-6.295070456271155e6 4.073059126648466e7 0.0
4.073059126648466e7 5.019307265409935e6 0.0
0.0 0.0 0.0

-5.610171990242785e6 1.6294039968830358e7 0.0
1.6294039968830358e7 4.443745054410018e7 0.0
0.0 0.0 0.0

1.3190013475154579e7 1.9881275940506194e7 0.0
1.9881275940506194e7 4.688882739244753e7 0.0
0.0 0.0 0.0

140847.57521900255 2.5805944685284346e7 0.0
2.5805944685284346e7 -1.0760175407943897e7 0.0
0.0 0.0 0.0

1.6164505599276386e6 1.3649005201687697e7 0.0
1.3649005201687697e7 -3.3279428875353836e7 0.0
0.0 0.0 0.0

1.2231825104037896e6 2.9807396293592774e6 0.0
2.9807396293592774e6 -5.601177128119763e7 0.0
0.0 0.0 0.0

-7.09208097965065e6 2.5310830071105277e6 0.0
2.5310830071105277e6 4.8707961865809985e7 0.0
0.0 0.0 0.0

-3.395656078495372e6 2.7942348486540988e7 0.0
2.7942348486540988e7 1.5367838680444842e7 0.0
0.0 0.0 0.0

1.656714381838237e6 1.9709509881934267e7 0.0
1.9709509881934267e7 2.007155665807752e7 0.0
0.0 0.0 0.0

5.250796789556168e6 1.967769349534408e7 0.0
1.967769349534408e7 8.601247245382681e7 0.0
0.0 0.0 0.0

45103.450823839754 1.862568709264848e7 0.0
1.862568709264848e7 -1.8405236988725647e7 0.0
0.0 0.0 0.0

1.0311203863018565e7 2.0908527043888003e7 0.0
2.0908527043888003e7 3.437067986360898e7 0.0
0.0 0.0 0.0

-8.808435240792729e6 3.0855934575763103e6 0.0
3.0855934575763103e6 3.6397752405993566e7 0.0
0.0 0.0 0.0

-2.7220567914553918e7 3.566794202409486e6 0.0
3.566794202409486e6 7.104596338876784e6 0.0
0.0 0.0 0.0

804248.1936467681 1.1419087376828687e7 0.0
1.1419087376828687e7 -4.016819337487479e7 0.0
0.0 0.0 0.0

-9.989593087397804e6 8.113365658928113e6 0.0
8.113365658928113e6 3.115813552009377e7 0.0
0.0 0.0 0.0

-121441.13085420057 1.324264520373387e7 0.0
1.324264520373387e7 -4.475657041181087e7 0.0
0.0 0.0 0.0

-2.2251258899122328e6 1.95891724098966e7 0.0
1.95891724098966e7 4.401239300674687e7 0.0
0.0 0.0 0.0

2.4541088262704406e6 3.3040442833101056e6 0.0
3.3040442833101056e6 -3.457398428642952e7 0.0
0.0 0.0 0.0

1.875393318908511e7 3.61346365111828e7 0.0
3.61346365111828e7 -4.937567320394686e6 0.0
0.0 0.0 0.0

-1.7114867093177976e6 1.819273743202971e7 0.0
1.819273743202971e7 753628.4939305581 0.0
0.0 0.0 0.0

577479.4714878611 7.752884555559968e6 0.0
7.752884555559968e6 -3.7722225679449486e6 0.0
0.0 0.0 0.0

4.529017116633255e7 7.019373049365239e6 0.0
7.019373049365239e6 -634178.3650166001 0.0
0.0 0.0 0.0

-574710.1711673662 2.0250488380287167e7 0.0
2.0250488380287167e7 4.62212530183347e7 0.0
0.0 0.0 0.0

-1.6587455382250973e6 1.3014679981814206e7 0.0
1.3014679981814206e7 -6.5909911952984e6 0.0
0.0 0.0 0.0

-7.572830125169963e6 7.547014637145237e6 0.0
7.547014637145237e6 4.9255037046928935e7 0.0
0.0 0.0 0.0

1.4674417841879847e6 6.1121500669519445e6 0.0
6.1121500669519445e6 -1.1983779604827104e7 0.0
0.0 0.0 0.0

-8.529046040438334e6 2.6821935551909935e7 0.0
2.6821935551909935e7 -8.718177367263488e6 0.0
0.0 0.0 0.0

-2.7877609445651835e6 2.5313930462030705e7 0.0
2.5313930462030705e7 2.10162394196278e7 0.0
0.0 0.0 0.0

-9.024880580291368e6 1.2098982150269682e7 0.0
1.2098982150269682e7 3.0357402805602375e7 0.0
0.0 0.0 0.0

933002.6299591139 9.600320774038173e6 0.0
9.600320774038173e6 -4.160922959546506e7 0.0
0.0 0.0 0.0

-9.574599595887039e6 1.991485722993811e7 0.0
1.991485722993811e7 -5.304880421398168e7 0.0
0.0 0.0 0.0

-9.014693394662652e6 9.284937824369872e6 0.0
9.284937824369872e6 1.3068280486625388e7 0.0
0.0 0.0 0.0

2.0156884139087498e6 3.5551950366349835e6 0.0
3.5551950366349835e6 -3.1296493377382558e7 0.0
0.0 0.0 0.0

261790.33102108352 2.3123678762717534e7 0.0
2.3123678762717534e7 -1.6815302910631787e7 0.0
0.0 0.0 0.0

2.9392910819165602e7 2.8918843126085278e7 0.0
2.8918843126085278e7 1.2390631529762588e7 0.0
0.0 0.0 0.0

1.353415784778595e6 6.785796677609037e6 0.0
6.785796677609037e6 -5.665862283253666e7 0.0
0.0 0.0 0.0

-1.3398761707510177e7 1.5219371408717693e6 0.0
1.5219371408717693e6 6.581851021416141e6 0.0
0.0 0.0 0.0

-3.4531681711374614e6 2.2959686262847845e7 0.0
2.2959686262847845e7 2.7311206762654584e7 0.0
0.0 0.0 0.0

-2.561941065380739e6 1.1422774090541113e7 0.0
1.1422774090541113e7 5.302840430536492e6 0.0
0.0 0.0 0.0

-8.886868648534633e6 1.1091025517003773e7 0.0
1.1091025517003773e7 3.3393715893448405e7 0.0
0.0 0.0 0.0

914254.3508509547 7.375132153853735e6 0.0
7.375132153853735e6 -6.560732504697759e7 0.0
0.0 0.0 0.0

1.4986360946327135e7 2.169651254126851e7 0.0
2.169651254126851e7 4.995453706188351e7 0.0
0.0 0.0 0.0

1.4878807903230146e7 2.952067174214454e7 0.0
2.952067174214454e7 1.6547793769971633e7 0.0
0.0 0.0 0.0

-8.010413230170021e6 2.2252578825938974e7 0.0
2.2252578825938974e7 -3.112517563507992e7 0.0
0.0 0.0 0.0

-442590.3559131976 1.6921044091604702e7 0.0
1.6921044091604702e7 -1.5336148088013181e7 0.0
0.0 0.0 0.0

-2.8237809342590254e6 2.633392576152758e7 0.0
2.633392576152758e7 1.938708122499569e7 0.0
0.0 0.0 0.0

1.5636799121691816e7 2.701107947171446e7 0.0
2.701107947171446e7 2.5426287816915573e6 0.0
0.0 0.0 0.0

609272.3873615228 1.3134486159397976e7 0.0
1.3134486159397976e7 -3.8659355003986046e7 0.0
0.0 0.0 0.0

3.358997287237948e6 4.023928906156382e7 0.0
4.023928906156382e7 -3.856009314439576e6 0.0
0.0 0.0 0.0

381204.60719806445 2.3189665252190586e7 0.0
2.3189665252190586e7 5.5202934493518155e6 0.0
0.0 0.0 0.0

-8.888014084138861e7 8.657311865966333e6 0.0
8.657311865966333e6 1.7609805247579888e6 0.0
0.0 0.0 0.0

8.019291270751898e7 9.277097750560693e6 0.0
9.277097750560693e6 588657.9625152163 0.0
0.0 0.0 0.0

7.2421997051058095e6 2.6830270272514094e7 0.0
2.6830270272514094e7 1.2227470984886443e7 0.0
0.0 0.0 0.0

-3.2134965936352015e6 1.0704153701556617e7 0.0
1.0704153701556617e7 3.3976890359998785e7 0.0
0.0 0.0 0.0

2.875992532053208e6 2.420438397059066e7 0.0
2.420438397059066e7 2.2277519206740167e7 0.0
0.0 0.0 0.0

5.343765155886331e6 3.2826471347739574e7 0.0
3.2826471347739574e7 -8.87750612119182e6 0.0
0.0 0.0 0.0

6.751757675917602e6 2.417396858051949e7 0.0
2.417396858051949e7 2.25058594587756e7 0.0
0.0 0.0 0.0

-9.264299491091149e6 1.1167957925619664e7 0.0
1.1167957925619664e7 2.933133847217077e7 0.0
0.0 0.0 0.0

-1.99789893413095e6 2.609314050890766e7 0.0
2.609314050890766e7 1.374653274713927e7 0.0
0.0 0.0 0.0

-6.377030693166258e7 4.476199328863777e7 0.0
4.476199328863777e7 -1.7725967679837734e7 0.0
0.0 0.0 0.0

1.5224311240794566e6 4.314398229272662e6 0.0
4.314398229272662e6 -3.931285218586444e7 0.0
0.0 0.0 0.0

-4.977347434878001e6 2.5902972940255027e7 0.0
2.5902972940255027e7 -5.11759810336488e6 0.0
0.0 0.0 0.0

1.4315259138522914e7 2.014219199888604e7 0.0
2.014219199888604e7 5.273701718225841e7 0.0
0.0 0.0 0.0

-9.455865564815827e6 2.0269669194601e7 0.0
2.0269669194601e7 -3.1519551676929254e7 0.0
0.0 0.0 0.0

8.936492573710263e6 2.077285087421093e7 0.0
2.077285087421093e7 2.9788309608583335e7 0.0
0.0 0.0 0.0

-2.6445312535896897e6 1.693837765024344e7 0.0
1.693837765024344e7 -5.207633757385171e7 0.0
0.0 0.0 0.0

-8.225199158167543e6 4.458218402731449e6 0.0
4.458218402731449e6 3.815411255374993e7 0.0
0.0 0.0 0.0

-2.2788431664406475e7 3.823640638880026e7 0.0
3.823640638880026e7 5.942559642765169e6 0.0
0.0 0.0 0.0

1.412442529361303e6 9.397138936331388e6 0.0
9.397138936331388e6 -2.438769361346965e7 0.0
0.0 0.0 0.0

-919390.3915297445 2.0690077416566502e7 0.0
2.0690077416566502e7 4.335977988528011e7 0.0
0.0 0.0 0.0

-1.0519421106622774e7 8.563568021330452e6 0.0
8.563568021330452e6 2.5777982115859248e7 0.0
0.0 0.0 0.0

-7.000565392183166e6 3.939774901444906e7 0.0
3.939774901444906e7 5.718561928452202e6 0.0
0.0 0.0 0.0

-1.6455270749263452e7 4.477604707682318e7 0.0
4.477604707682318e7 6.436301707929604e6 0.0
0.0 0.0 0.0

-1.373530779949711e7 1.7692204941770926e6 0.0
1.7692204941770926e6 6.137882858637657e6 0.0
0.0 0.0 0.0

-4.408064016036829e6 2.201454306577035e7 0.0
2.201454306577035e7 -1.4845018923757121e7 0.0
0.0 0.0 0.0

4.343274055608994e6 3.1957616624404773e7 0.0
3.1957616624404773e7 -9.134757564826304e6 0.0
0.0 0.0 0.0

-1.062911061429733e7 5.287829329721937e6 0.0
5.287829329721937e6 1.5960915746045344e7 0.0
0.0 0.0 0.0

1.5309151156205956e7 3.690589953404668e7 0.0
3.690589953404668e7 -5.679276636795339e6 0.0
0.0 0.0 0.0

-1.036541158030922e7 9.652295382811911e6 0.0
9.652295382811911e6 2.7164641487139285e7 0.0
0.0 0.0 0.0

1.189635311206e6 4.904528409689688e6 0.0
4.904528409689688e6 -4.626823320342436e7 0.0
0.0 0.0 0.0

1.3860482464254089e6 6.0487165004219785e6 0.0
6.0487165004219785e6 -4.107757432482989e7 0.0
0.0 0.0 0.0

371687.68171369843 1.6571429769081647e7 0.0
1.6571429769081647e7 -2.056076079288986e7 0.0
0.0 0.0 0.0

3.784881770677017e6 2.816927801364779e7 0.0
2.816927801364779e7 -1.3177308813871467e7 0.0
0.0 0.0 0.0

941322.921708703 6.519759795422127e6 0.0
6.519759795422127e6 -6.970166439420672e7 0.0
0.0 0.0 0.0

-8.910717781097524e6 2.836936077061935e7 0.0
2.836936077061935e7 -1.714271499550138e7 0.0
0.0 0.0 0.0

327122.98396261036 1.9191868647712585e7 0.0
1.9191868647712585e7 -2.935554761224996e7 0.0
0.0 0.0 0.0

-4.70173174404251e6 2.13627315384873e7 0.0
2.13627315384873e7 3.193408844632151e7 0.0
0.0 0.0 0.0

-8.724858587038238e6 2.796252632117973e7 0.0
2.796252632117973e7 -1.581387724494703e7 0.0
0.0 0.0 0.0

1.435196223739801e6 1.2705401233972203e7 0.0
1.2705401233972203e7 -3.7987713686257534e7 0.0
0.0 0.0 0.0

-4.215945228866418e7 3.0289165231736127e7 0.0
3.0289165231736127e7 716597.9560826886 0.0
0.0 0.0 0.0

1.1308592709093634e6 3.8984004056673986e6 0.0
3.8984004056673986e6 -4.8499829031314e7 0.0
0.0 0.0 0.0

2.10892418677485e6 6.288942908459371e6 0.0
6.288942908459371e6 -4.1062989292003244e7 0.0
0.0 0.0 0.0

1.940145744371092e6 2.5460389853183642e7 0.0
2.5460389853183642e7 -1.7274056560347863e7 0.0
0.0 0.0 0.0

-1.874076483934554e7 1.9694807809954465e6 0.0
1.9694807809954465e6 7.273748176016412e6 0.0
0.0 0.0 0.0

1.1832260068191728e6 1.2654329292411745e7 0.0
1.2654329292411745e7 -1.4126106053104933e7 0.0
0.0 0.0 0.0

2.6893688646280654e6 2.1194552230447706e7 0.0
2.1194552230447706e7 2.5716747299042076e7 0.0
0.0 0.0 0.0

-4.962718591175104e6 3.773068513666012e7 0.0
3.773068513666012e7 5.750639785576416e6 0.0
0.0 0.0 0.0

-8.479667010383375e6 4.006635452988e7 0.0
4.006635452988e7 5.923732889221096e6 0.0
0.0 0.0 0.0

-9.912491471622573e6 1.2303303735621957e7 0.0
1.2303303735621957e7 2.7205355188871317e7 0.0
0.0 0.0 0.0

1.8439364584675282e6 1.6383518911739053e7 0.0
1.6383518911739053e7 8.003101277523758e7 0.0
0.0 0.0 0.0

-3.0731358239290793e6 3.878258914230961e7 0.0
3.878258914230961e7 3.928547606421363e6 0.0
0.0 0.0 0.0

-5.971031097310202e6 2.6382677890616644e7 0.0
2.6382677890616644e7 -2.1823457252051416e6 0.0
0.0 0.0 0.0

47261.912560225 2.553197500733536e7 0.0
2.553197500733536e7 -5.395349944624636e6 0.0
0.0 0.0 0.0

5.2783537825474106e7 3.2023524023161013e7 0.0
3.2023524023161013e7 2.1161336501962814e7 0.0
0.0 0.0 0.0

-8.618868103805527e6 1.348175489495479e7 0.0
1.348175489495479e7 2.8943174929675434e7 0.0
0.0 0.0 0.0

2.0327505537258536e6 4.290913806927839e6 0.0
4.290913806927839e6 -4.535888296583234e7 0.0
0.0 0.0 0.0

1.181252202687447e6 2.4046323973661788e7 0.0
2.4046323973661788e7 -1.5354216374714416e7 0.0
0.0 0.0 0.0

-1.830028766177377e6 1.9703288369166072e7 0.0
1.9703288369166072e7 4.458206991025506e6 0.0
0.0 0.0 0.0

-1.6299225489915408e7 2.312134535478338e7 0.0
2.312134535478338e7 -2.844136224301471e6 0.0
0.0 0.0 0.0

-7.131439162868725e6 4.057902512246179e6 0.0
4.057902512246179e6 4.650032382221581e7 0.0
0.0 0.0 0.0

-1.0053023807267916e8 6.130733490340178e7 0.0
6.130733490340178e7 -2.4946227156088695e7 0.0
0.0 0.0 0.0

-1.4300692737188442e7 2.0520256739703543e7 0.0
2.0520256739703543e7 -4.766897674299972e7 0.0
0.0 0.0 0.0

1.3320335077859547e7 2.128995738563757e7 0.0
2.128995738563757e7 4.440111801265349e7 0.0
0.0 0.0 0.0

99067.01658909023 1.777189946194539e7 0.0
1.777189946194539e7 -3.3606988502289444e7 0.0
0.0 0.0 0.0

-1.8814946369115498e7 2.9227167360923454e7 0.0
2.9227167360923454e7 -1.0450679947949534e7 0.0
0.0 0.0 0.0

2.1536002244394207e6 1.038949983421442e7 0.0
1.038949983421442e7 -2.2765541082473293e7 0.0
0.0 0.0 0.0

1.6397941487943493e6 1.0917665598156963e7 0.0
1.0917665598156963e7 -3.9383370942130834e7 0.0
0.0 0.0 0.0

-2.9483251994355833e6 2.4452720746068455e7 0.0
2.4452720746068455e7 2.316223966476867e7 0.0
0.0 0.0 0.0

640682.8724357989 1.3972217756259387e7 0.0
1.3972217756259387e7 -3.651861325009316e7 0.0
0.0 0.0 0.0

-5.794660908754767e6 3.858582503601257e7 0.0
3.858582503601257e7 5.746635551515041e6 0.0
0.0 0.0 0.0

-8.21074880243911e6 9.743621046525061e6 0.0
9.743621046525061e6 4.318283748226865e7 0.0
0.0 0.0 0.0

-8.0326988444811255e6 2.159981789566821e6 0.0
2.159981789566821e6 3.594475495428714e7 0.0
0.0 0.0 0.0

1.11510487640992e6 8.686843956937792e6 0.0
8.686843956937792e6 -4.076084799565783e7 0.0
0.0 0.0 0.0

-1.8074040930632934e7 2.8569456283340495e7 0.0
2.8569456283340495e7 -1.40437584295578e7 0.0
0.0 0.0 0.0

9.104914938678289e6 4.396285133853474e7 0.0
4.396285133853474e7 -4.989431817666696e6 0.0
0.0 0.0 0.0

-4.199854183383722e6 2.189616036426475e7 0.0
2.189616036426475e7 2.9014579374197237e7 0.0
0.0 0.0 0.0

1.0941715510417353e6 6.7662022224601945e6 0.0
6.7662022224601945e6 -4.5030833297976516e7 0.0
0.0 0.0 0.0

947987.8434009328 7.254263352842279e6 0.0
7.254263352842279e6 -6.080078449531625e7 0.0
0.0 0.0 0.0

-1.5371617720950618e6 1.5250863700470423e7 0.0
1.5250863700470423e7 6.621294369970133e7 0.0
0.0 0.0 0.0

-7.65071897387938e6 9.926573953314742e6 0.0
9.926573953314742e6 4.378335425789374e7 0.0
0.0 0.0 0.0

1.2664994312422799e7 3.710606472962887e7 0.0
3.710606472962887e7 -6.118749395638548e6 0.0
0.0 0.0 0.0

-365312.8957758583 2.943121932006548e7 0.0
2.943121932006548e7 -2.2646946085408716e6 0.0
0.0 0.0 0.0

-6.75461539616416e6 7.705934404119462e6 0.0
7.705934404119462e6 5.0183370277878456e7 0.0
0.0 0.0 0.0

2.0442447105220314e6 5.144311354229453e6 0.0
5.144311354229453e6 -2.415321250420636e7 0.0
0.0 0.0 0.0

-1.9691973295583213e6 2.928272613237578e7 0.0
2.928272613237578e7 1.4767757296708152e6 0.0
0.0 0.0 0.0

-2.5314677165805817e7 2.945914312019287e7 0.0
2.945914312019287e7 -1.2135801275488697e7 0.0
0.0 0.0 0.0

-8.741282963135831e6 1.4529139588155108e7 0.0
1.4529139588155108e7 2.062245328720905e7 0.0
0.0 0.0 0.0

1.922537119706031e6 6.164507950693802e6 0.0
6.164507950693802e6 -4.4126431011387154e7 0.0
0.0 0.0 0.0

788967.5253526773 1.4009306499066167e7 0.0
1.4009306499066167e7 -3.3864004624943286e7 0.0
0.0 0.0 0.0

-1.0234714260803368e7 4.077713673463175e6 0.0
4.077713673463175e6 2.479900939680125e7 0.0
0.0 0.0 0.0

-8.203820802876608e6 1.2947165334048066e7 0.0
1.2947165334048066e7 3.555849978087025e7 0.0
0.0 0.0 0.0

-2.4305875427196175e6 1.7263053975354202e7 0.0
1.7263053975354202e7 -4.835766865234377e7 0.0
0.0 0.0 0.0

2.1967016880055685e6 5.430014113463914e6 0.0
5.430014113463914e6 -4.016225702131212e7 0.0
0.0 0.0 0.0

-1.0481738021295033e6 2.9178769865095712e7 0.0
2.9178769865095712e7 -4.473742836139529e6 0.0
0.0 0.0 0.0

1.8496070963238254e6 9.042180267426625e6 0.0
9.042180267426625e6 -4.073174201611866e7 0.0
0.0 0.0 0.0

-9.46728973091033e6 5.89716583412758e6 0.0
5.89716583412758e6 2.7296209725551058e7 0.0
0.0 0.0 0.0

-2.059842557002039e7 2.2366970220619436e7 0.0
2.2366970220619436e7 -6.866142207319684e7 0.0
0.0 0.0 0.0

1.9197008639654495e7 2.3210682905225962e7 0.0
2.3210682905225962e7 6.399003136097013e7 0.0
0.0 0.0 0.0

1.5232515178505634e6 2.57950947441651e7 0.0
2.57950947441651e7 2.140938334786504e6 0.0
0.0 0.0 0.0

-3.0695820232820265e7 4.2987122695213435e6 0.0
4.2987122695213435e6 6.11285445121875e6 0.0
0.0 0.0 0.0

-9.012377415327469e6 2.5433916030484824e6 0.0
2.5433916030484824e6 2.755555934290819e7 0.0
0.0 0.0 0.0

8.350539670919636e6 2.3674699285025433e7 0.0
2.3674699285025433e7 2.7835128561960384e7 0.0
0.0 0.0 0.0

-7.707664226947065e6 2.316647810801139e7 0.0
2.316647810801139e7 -2.5692210481809203e7 0.0
0.0 0.0 0.0

2.4244034685522765e6 1.6663550274978455e7 0.0
1.6663550274978455e7 8.70256625786184e7 0.0
0.0 0.0 0.0

1.1138908661034517e6 7.757529831808231e6 0.0
7.757529831808231e6 -4.289828190151727e7 0.0
0.0 0.0 0.0

4.020393987995776e6 3.0998337495281484e7 0.0
3.0998337495281484e7 -1.0555905750361308e7 0.0
0.0 0.0 0.0

-1.137511845376299e7 2.025753081264054e7 0.0
2.025753081264054e7 -5.156764829787231e7 0.0
0.0 0.0 0.0

-4.875114550659036e6 3.637135931156853e7 0.0
3.637135931156853e7 5.09811836697432e6 0.0
0.0 0.0 0.0

-5.070187287407167e6 2.8336702852368653e7 0.0
2.8336702852368653e7 9.92539377729415e6 0.0
0.0 0.0 0.0

2.8119992594657945e6 3.7237507799491085e7 0.0
3.7237507799491085e7 -4.875318034084726e6 0.0
0.0 0.0 0.0

-1.8758277903678138e7 2.0199321678349372e7 0.0
2.0199321678349372e7 -7.208086785971339e7 0.0
0.0 0.0 0.0

1.0457812085828114e7 3.702757037465686e7 0.0
3.702757037465686e7 -6.393936593649603e6 0.0
0.0 0.0 0.0

-2.964700650832139e6 2.007725489295599e7 0.0
2.007725489295599e7 4.137274920335495e7 0.0
0.0 0.0 0.0

1.1808751881126752e6 1.104751691799199e7 0.0
1.104751691799199e7 -2.3820353375707496e7 0.0
0.0 0.0 0.0

1.2476523054908141e6 6.885691100890602e6 0.0
6.885691100890602e6 -4.1988505411905654e7 0.0
0.0 0.0 0.0

4.066631828187922e6 2.9455990166455917e7 0.0
2.9455990166455917e7 -1.2001526314717092e7 0.0
0.0 0.0 0.0

-1.984530251287565e6 1.987427308966071e7 0.0
1.987427308966071e7 -6.926510280878192e6 0.0
0.0 0.0 0.0

240215.32069098763 1.1259512784798972e7 0.0
1.1259512784798972e7 -4.685423808064365e7 0.0
0.0 0.0 0.0

-3.8345143424924156e6 3.439769889314022e7 0.0
3.439769889314022e7 6.317946535495453e6 0.0
0.0 0.0 0.0

-1.496329990053562e6 2.2555825687848978e7 0.0
2.2555825687848978e7 1.0295929850498516e6 0.0
0.0 0.0 0.0

868925.5432174485 1.9550696293869507e7 0.0
1.9550696293869507e7 -1.7005368539958354e7 0.0
0.0 0.0 0.0

-278948.4360728152 1.511156110066147e7 0.0
1.511156110066147e7 -4.507175480590076e7 0.0
0.0 0.0 0.0

7.18514286273667e6 3.617927222171028e7 0.0
3.617927222171028e7 -6.832194981941178e6 0.0
0.0 0.0 0.0

905186.6718858359 2.2293923441395085e7 0.0
2.2293923441395085e7 -1.5475778451472936e7 0.0
0.0 0.0 0.0

-2.9595784039354417e6 2.096595735170745e7 0.0
2.096595735170745e7 -7.766144700190192e6 0.0
0.0 0.0 0.0

3.962755646214942e7 6.339389813101874e6 0.0
6.339389813101874e6 -1.2670300615136083e6 0.0
0.0 0.0 0.0

-1.6356448408187279e6 2.3599417208370898e7 0.0
2.3599417208370898e7 1.0439226950036263e7 0.0
0.0 0.0 0.0

-8.274969585894062e6 1.3634708386022465e7 0.0
1.3634708386022465e7 2.245769363743549e7 0.0
0.0 0.0 0.0

-7.767053223276006e6 3.9489668685092796e6 0.0
3.9489668685092796e6 4.1231966173750065e7 0.0
0.0 0.0 0.0

2.374320822390903e6 3.708264378627934e6 0.0
3.708264378627934e6 -3.832915306076014e7 0.0
0.0 0.0 0.0

2.210864287699435e6 7.0320817647042805e6 0.0
7.0320817647042805e6 -2.7690521506422956e7 0.0
0.0 0.0 0.0

2.333614691764204e6 5.567176703157706e6 0.0
5.567176703157706e6 -3.716484573581446e7 0.0
0.0 0.0 0.0

-6.9029412459401535e6 2.2841550835029338e7 0.0
2.2841550835029338e7 -2.903738455489467e7 0.0
0.0 0.0 0.0

8.669914636806745e6 3.668173799870556e7 0.0
3.668173799870556e7 -6.618725187905703e6 0.0
0.0 0.0 0.0

-3.187786812615808e6 2.042024070114334e7 0.0
2.042024070114334e7 3.833633514233834e7 0.0
0.0 0.0 0.0

-2.48275836342954e6 2.4356682691351384e7 0.0
2.4356682691351384e7 9.106200114795677e6 0.0
0.0 0.0 0.0

1.518728106239386e6 6.227950961500392e6 0.0
6.227950961500392e6 -3.825119655871152e7 0.0
0.0 0.0 0.0

-1.0643328057599941e7 7.367085751784523e6 0.0
7.367085751784523e6 2.4634211405096218e7 0.0
0.0 0.0 0.0

-4.070863972447425e6 2.1936271227339376e7 0.0
2.1936271227339376e7 3.179611787404362e7 0.0
0.0 0.0 0.0

1.6064989235745994e6 2.4962297767646544e7 0.0
2.4962297767646544e7 -1.874559329362745e7 0.0
0.0 0.0 0.0

2.149043675323911e6 2.644099625640957e7 0.0
2.644099625640957e7 -6.173855012859582e6 0.0
0.0 0.0 0.0

-4.538627225572564e6 3.576410486056877e7 0.0
3.576410486056877e7 6.74455785087518e6 0.0
0.0 0.0 0.0

949740.9222455248 1.9040309795208e7 0.0
1.9040309795208e7 -2.914494475087601e7 0.0
0.0 0.0 0.0

2.1029586381464973e6 7.271572627388815e6 0.0
7.271572627388815e6 -3.9077416936712146e7 0.0
0.0 0.0 0.0

1.426686454879241e6 7.033800920277521e6 0.0
7.033800920277521e6 -3.909798121123451e7 0.0
0.0 0.0 0.0

1.0842065906051826e6 9.821622498106215e6 0.0
9.821622498106215e6 -1.8913079725044925e7 0.0
0.0 0.0 0.0

1.2634575933319442e6 7.831625835928297e6 0.0
7.831625835928297e6 -3.997898505069909e7 0.0
0.0 0.0 0.0

2.5562516594799235e6 6.158753251580466e6 0.0
6.158753251580466e6 -3.2290504904318973e7 0.0
0.0 0.0 0.0

-1.117482351260883e7 4.3373019613167256e7 0.0
4.3373019613167256e7 6.067924306030251e6 0.0
0.0 0.0 0.0

1.2785418774656404e7 3.929117922231893e7 0.0
3.929117922231893e7 -6.069002226193839e6 0.0
0.0 0.0 0.0

-5.949748493322862e6 2.949210068282087e7 0.0
2.949210068282087e7 9.810455512071159e6 0.0
0.0 0.0 0.0

1.5997356691938546e6 6.871628026497968e6 0.0
6.871628026497968e6 -3.343940564947025e7 0.0
0.0 0.0 0.0

-1.215888657650337e6 2.499432409256996e7 0.0
2.499432409256996e7 -8.149768055973762e6 0.0
0.0 0.0 0.0

-1.7197075868165346e6 2.1847127846302662e7 0.0
2.1847127846302662e7 -363520.70425546414 0.0
0.0 0.0 0.0

-2.6828844089377757e7 2.529551627615705e7 0.0
2.529551627615705e7 -8.942949836145592e7 0.0
0.0 0.0 0.0

2.5843751189762425e7 2.687922618338821e7 0.0
2.687922618338821e7 8.61458572881769e7 0.0
0.0 0.0 0.0

1.8652567241794586e7 2.750695601464751e7 0.0
2.750695601464751e7 2.859602072880285e6 0.0
0.0 0.0 0.0

2.7720060572384976e7 3.012195798794232e7 0.0
3.012195798794232e7 3.4331162014987376e6 0.0
0.0 0.0 0.0

-1.058289066601839e6 7.886085439485732e6 0.0
7.886085439485732e6 -7.662232296957707e7 0.0
0.0 0.0 0.0

1.3378262995327683e6 2.270532882353918e7 0.0
2.270532882353918e7 -2.1725202114528082e7 0.0
0.0 0.0 0.0

938570.6259330614 2.5003010332871914e7 0.0
2.5003010332871914e7 1.8191133874753848e7 0.0
0.0 0.0 0.0

-7.6966276490752045e6 9.235334341100277e6 0.0
9.235334341100277e6 4.6715619444236934e7 0.0
0.0 0.0 0.0

-1.903679007582901e6 1.9076954218239762e7 0.0
1.9076954218239762e7 4.710032249872653e7 0.0
0.0 0.0 0.0

-3.3991176757162595e6 2.7251339502373632e7 0.0
2.7251339502373632e7 9.978036829664743e6 0.0
0.0 0.0 0.0

-903199.3076596399 1.927836659374065e7 0.0
1.927836659374065e7 -5.951296937452143e6 0.0
0.0 0.0 0.0

-1.9335351527297292e7 3.2451276127685215e7 0.0
3.2451276127685215e7 -1.6770663638914775e7 0.0
0.0 0.0 0.0

-2.973783648212988e6 2.724216055961232e7 0.0
2.724216055961232e7 1.7495873854082868e7 0.0
0.0 0.0 0.0

-5.883940373119685e6 1.7416404710246686e7 0.0
1.7416404710246686e7 1.811528411601555e7 0.0
0.0 0.0 0.0

-2.0849139158534626e6 2.8471584324678518e7 0.0
2.8471584324678518e7 6.980686018690161e6 0.0
0.0 0.0 0.0

1.257373740675673e6 7.89819961695902e6 0.0
7.89819961695902e6 -5.39918012390178e7 0.0
0.0 0.0 0.0

2.4678678635052927e6 8.410877004988223e6 0.0
8.410877004988223e6 -2.598667683070299e7 0.0
0.0 0.0 0.0

1.2253321437715525e6 2.5575582895481918e7 0.0
2.5575582895481918e7 -1.6467568842402248e7 0.0
0.0 0.0 0.0

791682.5659558866 1.493380406075677e7 0.0
1.493380406075677e7 -3.201129824071395e7 0.0
0.0 0.0 0.0

-5.0067704608798325e6 1.1390497724269662e7 0.0
1.1390497724269662e7 5.6563526065160714e7 0.0
0.0 0.0 0.0

-9.98955447066965e6 3.862055383155636e6 0.0
3.862055383155636e6 1.4526243617893733e7 0.0
0.0 0.0 0.0

-2.8686528512949944e6 1.0132655547717908e7 0.0
1.0132655547717908e7 7.155265112564738e7 0.0
0.0 0.0 0.0

452096.7404849678 2.4384848428974368e7 0.0
2.4384848428974368e7 -1.5895904635880297e7 0.0
0.0 0.0 0.0

-5.324594333745917e6 2.9901917290249012e7 0.0
2.9901917290249012e7 1.1315540943186726e7 0.0
0.0 0.0 0.0

-6.503825071637026e6 1.6182179627983162e7 0.0
1.6182179627983162e7 2.299419244724088e7 0.0
0.0 0.0 0.0

6.572373402184183e6 3.3332470485380054e7 0.0
3.3332470485380054e7 -8.290773209137235e6 0.0
0.0 0.0 0.0

-9.735940097372957e6 1.2259429958321257e7 0.0
1.2259429958321257e7 2.051503413680391e7 0.0
0.0 0.0 0.0

-3.366481161002592e6 2.6282926763181753e7 0.0
2.6282926763181753e7 1.9310011167452443e7 0.0
0.0 0.0 0.0

3.766603198575128e7 3.73412945579403e7 0.0
3.73412945579403e7 -4.332606064552013e6 0.0
0.0 0.0 0.0

-4.3575594346387535e6 2.28759862878993e7 0.0
2.28759862878993e7 2.7142609242225002e7 0.0
0.0 0.0 0.0

-7.434777739977158e6 4.894979002926748e6 0.0
4.894979002926748e6 1.492130313296669e7 0.0
0.0 0.0 0.0

-3.6657792174525045e7 4.300007405486231e6 0.0
4.300007405486231e6 6.352613861893842e6 0.0
0.0 0.0 0.0

1.6106503729272634e6 4.448820570030373e6 0.0
4.448820570030373e6 -4.184972205876677e7 0.0
0.0 0.0 0.0

-1.0820417965915475e7 3.761289383691944e7 0.0
3.761289383691944e7 7.0273867462024195e6 0.0
0.0 0.0 0.0

-1.074412914140477e7 4.68506817846194e6 0.0
4.68506817846194e6 2.17652214745347e7 0.0
0.0 0.0 0.0

-3.1191086851075524e6 1.6608015779589128e7 0.0
1.6608015779589128e7 1.4137390332543678e6 0.0
0.0 0.0 0.0

-8.791666895994386e6 5.391742399890917e6 0.0
5.391742399890917e6 3.8354791727107026e7 0.0
0.0 0.0 0.0

910248.0645084744 2.4917452094260767e7 0.0
2.4917452094260767e7 -1.8880243318055056e7 0.0
0.0 0.0 0.0

-8.3699570409261435e6 3.7747781464880086e6 0.0
3.7747781464880086e6 4.056384639515795e7 0.0
0.0 0.0 0.0

482518.2999860393 2.005189741577587e7 0.0
2.005189741577587e7 -2.1181768919229418e7 0.0
0.0 0.0 0.0

-3.111055232907949e6 2.1218505486553054e7 0.0
2.1218505486553054e7 3.604770616754533e7 0.0
0.0 0.0 0.0

-8.318194883167796e6 1.5440482967520254e7 0.0
1.5440482967520254e7 2.184958748499673e7 0.0
0.0 0.0 0.0

-264160.256660806 1.9819716737159453e7 0.0
1.9819716737159453e7 4.9296050699105665e7 0.0
0.0 0.0 0.0

-6.258811864358185e6 1.933527233377185e7 0.0
1.933527233377185e7 2.56581038060177e7 0.0
0.0 0.0 0.0

-1.9814457536642351e6 3.039645038074723e7 0.0
3.039645038074723e7 1.3671300692489608e6 0.0
0.0 0.0 0.0

1.1582718477703892e6 8.871308014606714e6 0.0
8.871308014606714e6 -5.133826510043443e7 0.0
0.0 0.0 0.0

-1.2149815360949524e6 2.111262979338539e7 0.0
2.111262979338539e7 4.077412709872274e7 0.0
0.0 0.0 0.0

1.9825093990821257e7 2.7349338300314475e7 0.0
2.7349338300314475e7 1.2287509601017937e7 0.0
0.0 0.0 0.0

-2.38158023336673e7 1.6010641647482937e7 0.0
1.6010641647482937e7 6.854784224958895e6 0.0
0.0 0.0 0.0

268243.0187123716 1.3967293912667854e7 0.0
1.3967293912667854e7 -4.463520841617919e7 0.0
0.0 0.0 0.0

-5.003117827655609e6 1.6960402184268687e7 0.0
1.6960402184268687e7 2.106652210528379e7 0.0
0.0 0.0 0.0

1.9809809747249512e6 1.1337913453028113e7 0.0
1.1337913453028113e7 -2.118658614303681e7 0.0
0.0 0.0 0.0

-9.300075325737437e6 3.1870776854599426e6 0.0
3.1870776854599426e6 2.4540387447756093e7 0.0
0.0 0.0 0.0

-9.05109818404888e6 2.4641874624536447e6 0.0
2.4641874624536447e6 3.2447770252023496e7 0.0
0.0 0.0 0.0

674898.494831875 1.7436826117256746e7 0.0
1.7436826117256746e7 -2.637854905306608e7 0.0
0.0 0.0 0.0

-9.429016214085646e6 1.0262554675703268e7 0.0
1.0262554675703268e7 2.8202381166104853e7 0.0
0.0 0.0 0.0

-6.534858295387346e6 3.068189806731264e7 0.0
3.068189806731264e7 9.692036738072705e6 0.0
0.0 0.0 0.0

1.022422739013102e7 1.9758251833863154e7 0.0
1.9758251833863154e7 8.461653011251722e6 0.0
0.0 0.0 0.0

-1.090122530684876e6 9.537562822389554e6 0.0
9.537562822389554e6 564947.7629837443 0.0
0.0 0.0 0.0

1.3469638237397913e6 2.526015311397126e7 0.0
2.526015311397126e7 -1.4513134046931116e7 0.0
0.0 0.0 0.0

1.5142389395719822e6 8.723771866503483e6 0.0
8.723771866503483e6 -2.9949980824240282e7 0.0
0.0 0.0 0.0

3.2662064439089475e6 3.615535331039969e7 0.0
3.615535331039969e7 -5.82669892626429e6 0.0
0.0 0.0 0.0

-8.780072907308318e6 1.8648263878174968e7 0.0
1.8648263878174968e7 -8.793858758039337e7 0.0
0.0 0.0 0.0

1.884159060283333e6 6.049370544687706e6 0.0
6.049370544687706e6 -2.240638917353718e7 0.0
0.0 0.0 0.0

1.769907826949874e6 5.976076142151029e6 0.0
5.976076142151029e6 -3.263549951891981e7 0.0
0.0 0.0 0.0

-5.86262553365249e6 2.3060000917055987e7 0.0
2.3060000917055987e7 -2.6042673763207972e7 0.0
0.0 0.0 0.0

-1.8802565813097951e6 1.0509268663975574e7 0.0
1.0509268663975574e7 2.966178847600538e6 0.0
0.0 0.0 0.0

-2.126056502018886e7 2.1184641131308813e7 0.0
2.1184641131308813e7 -8.243858625287555e7 0.0
0.0 0.0 0.0

1.6549980850341017e6 9.433839837245617e6 0.0
9.433839837245617e6 -1.2105165783486962e7 0.0
0.0 0.0 0.0

2.249137542874691e6 9.677958049849926e6 0.0
9.677958049849926e6 -2.163265511088155e7 0.0
0.0 0.0 0.0

-1.0224358618668257e6 2.4575041903972648e7 0.0
2.4575041903972648e7 -3.5980118906900203e6 0.0
0.0 0.0 0.0

-4.257640369757142e6 1.6293212503877765e7 0.0
1.6293212503877765e7 4.990213324458459e7 0.0
0.0 0.0 0.0

-3.0705047071745214e6 3.806622590255607e7 0.0
3.806622590255607e7 2.1034945968966717e6 0.0
0.0 0.0 0.0

-1.1979050621951154e7 1.263272723649852e7 0.0
1.263272723649852e7 6.56579722583889e6 0.0
0.0 0.0 0.0

816713.1287133433 1.5702177940428266e7 0.0
1.5702177940428266e7 -3.0044548101756155e7 0.0
0.0 0.0 0.0

3.6412358519775644e6 2.4037624688214876e7 0.0
2.4037624688214876e7 2.5910945383971762e7 0.0
0.0 0.0 0.0

3.462719956181904e6 3.507643171750009e7 0.0
3.507643171750009e7 -6.845198290390023e6 0.0
0.0 0.0 0.0

-987206.7791080475 1.7199245792361684e7 0.0
1.7199245792361684e7 -1.2374589023633666e7 0.0
0.0 0.0 0.0

5.60748948524861e6 3.41367638777122e7 0.0
3.41367638777122e7 -7.995918268728927e6 0.0
0.0 0.0 0.0

504676.3712403951 1.7831924316494808e7 0.0
1.7831924316494808e7 -1.39208847120785e7 0.0
0.0 0.0 0.0

-9.253067132893061e6 1.1212892561663229e6 0.0
1.1212892561663229e6 2.5574536125898644e7 0.0
0.0 0.0 0.0

690566.2662011748 2.469206430852859e7 0.0
2.469206430852859e7 -1.6563372717636988e7 0.0
0.0 0.0 0.0

2.2683194675079517e7 5.9488660555941574e7 0.0
5.9488660555941574e7 -8.109940743479146e6 0.0
0.0 0.0 0.0

1.0464088182439566e7 2.9583508083533138e7 0.0
2.9583508083533138e7 -4.1591863494020123e6 0.0
0.0 0.0 0.0

1.422507611125783e6 2.38814513277299e7 0.0
2.38814513277299e7 -2.0271014266723443e7 0.0
0.0 0.0 0.0

-2.2340044145554854e6 1.863331447143154e7 0.0
1.863331447143154e7 1.0372386759534372e7 0.0
0.0 0.0 0.0

-2.3149429142019968e6 2.3197644956552282e7 0.0
2.3197644956552282e7 -50675.79290434078 0.0
0.0 0.0 0.0

2.1735731976261865e6 3.154791390873911e6 0.0
3.154791390873911e6 -4.058924392414798e7 0.0
0.0 0.0 0.0

2.687350620762731e6 4.285437573111531e6 0.0
4.285437573111531e6 -1.5287181702206023e7 0.0
0.0 0.0 0.0

-4.245555049173176e6 1.2407561269054273e7 0.0
1.2407561269054273e7 3.6838783729899703e6 0.0
0.0 0.0 0.0

-1.2966055047468685e7 2.7833738063427623e7 0.0
2.7833738063427623e7 -3.048194576539772e6 0.0
0.0 0.0 0.0

1.8061574628018532e6 6.608925136297258e6 0.0
6.608925136297258e6 -2.6715859776603006e7 0.0
0.0 0.0 0.0

136380.1327322945 2.047199270494389e7 0.0
2.047199270494389e7 -1.8554656925729007e7 0.0
0.0 0.0 0.0

327757.9474677881 2.531147380057231e7 0.0
2.531147380057231e7 1.4692124552313704e7 0.0
0.0 0.0 0.0

1.5781147422054447e6 1.4455556650253693e7 0.0
1.4455556650253693e7 -3.1242568596408725e7 0.0
0.0 0.0 0.0

-9.579666111828532e6 9.06163392210429e6 0.0
9.06163392210429e6 2.708110063350275e7 0.0
0.0 0.0 0.0

-3.4452207829288684e7 3.7788545741330065e7 0.0
3.7788545741330065e7 2.799521042532999e6 0.0
0.0 0.0 0.0

1.4193829721298702e6 1.3573472174571507e7 0.0
1.3573472174571507e7 -3.5879873877562106e7 0.0
0.0 0.0 0.0

-6.911339847479187e7 6.985759084614694e6 0.0
6.985759084614694e6 3.1056744354883693e6 0.0
0.0 0.0 0.0

1.5581344680152722e6 8.394312251010148e6 0.0
8.394312251010148e6 -2.605522966030416e7 0.0
0.0 0.0 0.0

-1.5984515924480874e6 2.401987016670244e7 0.0
2.401987016670244e7 2.6811860025563754e7 0.0
0.0 0.0 0.0

-2.1324288683802914e6 1.759131357305557e7 0.0
1.759131357305557e7 -4.543497384786328e7 0.0
0.0 0.0 0.0

-190571.27772867866 1.9101790972824562e7 0.0
1.9101790972824562e7 -3.377181861487394e7 0.0
0.0 0.0 0.0

-9.395966468706723e6 5.3465898107433375e6 0.0
5.3465898107433375e6 2.014697072536208e7 0.0
0.0 0.0 0.0

-8.989566539885202e6 1.260276597812886e7 0.0
1.260276597812886e7 3.487857380338705e7 0.0
0.0 0.0 0.0

-2.555907460290291e6 1.953182261271484e7 0.0
1.953182261271484e7 -2.0847458881473881e6 0.0
0.0 0.0 0.0

-2.706515296139802e6 1.769029225408601e7 0.0
1.769029225408601e7 1.2635584015336096e7 0.0
0.0 0.0 0.0

-8.338523131242968e6 1.1342340409903713e7 0.0
1.1342340409903713e7 4.0672057431135826e7 0.0
0.0 0.0 0.0

-1.543618288482319e6 1.8901221106534377e7 0.0
1.8901221106534377e7 -1.0229026406886752e6 0.0
0.0 0.0 0.0

508677.4820113648 2.3491542871797144e7 0.0
2.3491542871797144e7 -1.7493504597644813e7 0.0
0.0 0.0 0.0

1.137826728649957e6 2.4937363083036643e7 0.0
2.4937363083036643e7 -1.3759605636602929e7 0.0
0.0 0.0 0.0

1.0286874181906432e6 2.5799263256352108e7 0.0
2.5799263256352108e7 -1.5658680705195071e7 0.0
0.0 0.0 0.0

584075.959106572 1.913922218557324e7 0.0
1.913922218557324e7 -2.283992887438086e7 0.0
0.0 0.0 0.0

1.0116408775493801e6 1.0593438859989194e7 0.0
1.0593438859989194e7 -2.0029281557447545e7 0.0
0.0 0.0 0.0

-1.2068967767317574e6 2.498464883630349e7 0.0
2.498464883630349e7 -6.9511793320962e6 0.0
0.0 0.0 0.0

145999.41023205314 2.402368933223841e7 0.0
2.402368933223841e7 -1.523927002733853e7 0.0
0.0 0.0 0.0

20704.95528916549 1.8117531831444453e7 0.0
1.8117531831444453e7 -1.0976475398003435e7 0.0
0.0 0.0 0.0

-9.536805348736426e6 7.829442342556075e6 0.0
7.829442342556075e6 2.5956453470958643e7 0.0
0.0 0.0 0.0

606266.91714497 1.8313821114374645e7 0.0
1.8313821114374645e7 -2.4613725786919482e7 0.0
0.0 0.0 0.0

-2.3359717886455394e7 2.3646858123229202e7 0.0
2.3646858123229202e7 -7.78657260104979e7 0.0
0.0 0.0 0.0

-9.029866918606889e6 7.331303120623531e6 0.0
7.331303120623531e6 1.8849170372666832e7 0.0
0.0 0.0 0.0

1.34492634841007e6 1.0090671948045008e7 0.0
1.0090671948045008e7 -2.5442725272435427e7 0.0
0.0 0.0 0.0

-1.1881235227124053e6 8.654388150673095e6 0.0
8.654388150673095e6 -5.22626200298227e6 0.0
0.0 0.0 0.0

-7.123691914369874e6 1.755851069084231e7 0.0
1.755851069084231e7 -7.96145764447488e7 0.0
0.0 0.0 0.0

-2.96025786157215e6 1.873309294189851e7 0.0
1.873309294189851e7 1.6250363124197407e7 0.0
0.0 0.0 0.0

2.5146420651785266e6 7.695088436150901e6 0.0
7.695088436150901e6 -2.4935121253837947e7 0.0
0.0 0.0 0.0

-9.563496694191517e6 1.2373502349974003e7 0.0
1.2373502349974003e7 3.093313382508594e7 0.0
0.0 0.0 0.0

-5.502211798617493e6 4.1833072074384587e6 0.0
4.1833072074384587e6 5.954668176009995e7 0.0
0.0 0.0 0.0

425352.09112825454 2.354476344665269e7 0.0
2.354476344665269e7 -2.6308917484075874e6 0.0
0.0 0.0 0.0

2.892305980037541e6 2.1036175800811592e7 0.0
2.1036175800811592e7 7.234257151239202e6 0.0
0.0 0.0 0.0

-8.785554933895083e6 3.107630133464571e7 0.0
3.107630133464571e7 8.989482902666608e6 0.0
0.0 0.0 0.0

-2.324963257025064e6 2.5993668953219004e7 0.0
2.5993668953219004e7 5.674883492655995e6 0.0
0.0 0.0 0.0

1.9313988201310746e6 5.260591402014953e6 0.0
5.260591402014953e6 -4.626513432702364e7 0.0
0.0 0.0 0.0

2.0114960698700733e6 6.130309068571508e6 0.0
6.130309068571508e6 -4.6881835377311766e7 0.0
0.0 0.0 0.0

-6.373198042467216e6 1.7655228636233844e7 0.0
1.7655228636233844e7 3.475643698707215e7 0.0
0.0 0.0 0.0

416977.8434269214 2.2258981709358063e7 0.0
2.2258981709358063e7 -1.8483047148710895e7 0.0
0.0 0.0 0.0

1.3264167459161643e7 2.793338042953925e7 0.0
2.793338042953925e7 3.417247048844749e6 0.0
0.0 0.0 0.0

-5.402026390681803e6 6.446357543001178e6 0.0
6.446357543001178e6 6.802514198268318e7 0.0
0.0 0.0 0.0

-1.7567135944485208e6 2.2649044875348747e7 0.0
2.2649044875348747e7 1.2455990919605706e7 0.0
0.0 0.0 0.0

-918060.1185000478 2.1911669348401617e7 0.0
2.1911669348401617e7 -1.1865911843981523e7 0.0
0.0 0.0 0.0

3.1790000159421638e6 1.905702078210221e7 0.0
1.905702078210221e7 7.150221685824202e7 0.0
0.0 0.0 0.0

-1.106174742443513e6 5.948294573371982e6 0.0
5.948294573371982e6 2.754139753327421e6 0.0
0.0 0.0 0.0

764823.5878346218 2.9740583987757646e7 0.0
2.9740583987757646e7 -9.055774126924604e6 0.0
0.0 0.0 0.0

7.711582131749415e6 2.522321254232014e7 0.0
2.522321254232014e7 2.1052269872374926e7 0.0
0.0 0.0 0.0

2.277568530261132e6 9.427673348644089e6 0.0
9.427673348644089e6 -2.4378737779468354e7 0.0
0.0 0.0 0.0

-2.8786070865664072e6 1.7323121119485877e7 0.0
1.7323121119485877e7 -540977.074069157 0.0
0.0 0.0 0.0

-1.3027298665778413e6 1.801991760196823e7 0.0
1.801991760196823e7 5.420819993353504e7 0.0
0.0 0.0 0.0

1.0707067368939854e6 1.0885103784395749e7 0.0
1.0885103784395749e7 -4.626957860930981e7 0.0
0.0 0.0 0.0

1.2188217591661355e6 2.3128087559351526e7 0.0
2.3128087559351526e7 -2.202136587366037e7 0.0
0.0 0.0 0.0

-6.970461989170242e6 2.9382715148326578e6 0.0
2.9382715148326578e6 4.832310530519168e7 0.0
0.0 0.0 0.0

774480.4718675707 1.281144514093579e7 0.0
1.281144514093579e7 -4.408866081049424e7 0.0
0.0 0.0 0.0

-164340.4197038673 1.2282562146143414e7 0.0
1.2282562146143414e7 -6.977376503355437e6 0.0
0.0 0.0 0.0

1.8467444166944642e6 1.0026860534690166e7 0.0
1.0026860534690166e7 -3.860976844915079e7 0.0
0.0 0.0 0.0

-95859.19225798454 1.8097194060033638e7 0.0
1.8097194060033638e7 -1.744440139868027e7 0.0
0.0 0.0 0.0

344757.3529270459 2.0951889934260722e7 0.0
2.0951889934260722e7 -1.9415785493030854e7 0.0
0.0 0.0 0.0

-8.655455158794833e6 1.0078756999281004e7 0.0
1.0078756999281004e7 3.968331615866612e7 0.0
0.0 0.0 0.0

5.928583479840864e6 2.5975388186170004e7 0.0
2.5975388186170004e7 6.804597623938848e6 0.0
0.0 0.0 0.0

-9.936176529118376e6 6.616295446220794e6 0.0
6.616295446220794e6 2.4749548475077704e7 0.0
0.0 0.0 0.0

1.1107769470436405e6 1.9819226328678936e7 0.0
1.9819226328678936e7 -2.7383472158725195e7 0.0
0.0 0.0 0.0

-6.195189524359701e6 6.856713997495805e6 0.0
6.856713997495805e6 1.3159284822068095e7 0.0
0.0 0.0 0.0

151717.15594201582 6.141789123062006e6 0.0
6.141789123062006e6 -6.889058999227057e6 0.0
0.0 0.0 0.0

-29723.338065807708 1.9995287288457062e7 0.0
1.9995287288457062e7 -1.7721269769081466e7 0.0
0.0 0.0 0.0

2.699132794464022e6 5.730611400676612e6 0.0
5.730611400676612e6 -2.5404366842280958e7 0.0
0.0 0.0 0.0

-9.393661183569834e6 6.000217281787243e6 0.0
6.000217281787243e6 3.5127383904337496e7 0.0
0.0 0.0 0.0

494315.46471164003 3.5867091236316767e6 0.0
3.5867091236316767e6 -6.921693612030561e7 0.0
0.0 0.0 0.0

-1.7188416255414342e6 2.244373715614655e7 0.0
2.244373715614655e7 -5.729471484227589e6 0.0
0.0 0.0 0.0

-9.182485568852495e6 1.4483166169750333e7 0.0
1.4483166169750333e7 2.7037250353742734e7 0.0
0.0 0.0 0.0

-1.006977308861041e7 2.9852720936823677e7 0.0
2.9852720936823677e7 6.182362793147823e6 0.0
0.0 0.0 0.0

5.545215842794336e6 2.673889722412389e7 0.0
2.673889722412389e7 1.1851004952064939e7 0.0
0.0 0.0 0.0

-3.1293710991983972e6 2.1890536979361586e7 0.0
2.1890536979361586e7 3.390115043351051e7 0.0
0.0 0.0 0.0

-3.1356753518886734e6 2.3657923225046735e7 0.0
2.3657923225046735e7 2.5250001301096503e7 0.0
0.0 0.0 0.0

-6.963229815091664e6 642571.7192304016 0.0
642571.7192304016 4.833160787068436e7 0.0
0.0 0.0 0.0

-2.1929750664246096e6 1.737396794798727e7 0.0
1.737396794798727e7 6.662038499836408e6 0.0
0.0 0.0 0.0

7.08036861377124e6 2.538538769339434e7 0.0
2.538538769339434e7 2.0749344941344798e7 0.0
0.0 0.0 0.0

-4.063471875267123e6 2.798353177646393e7 0.0
2.798353177646393e7 1.4183648263240974e7 0.0
0.0 0.0 0.0

-9.347106198010512e6 1.1678774378766248e7 0.0
1.1678774378766248e7 3.3772436615719e7 0.0
0.0 0.0 0.0

357282.6450701747 1.7763302890833374e7 0.0
1.7763302890833374e7 -3.126744871744658e7 0.0
0.0 0.0 0.0

1.638067070726458e6 7.949581517507108e6 0.0
7.949581517507108e6 -2.203181605361903e7 0.0
0.0 0.0 0.0

1.1853845632298626e6 2.1896444053893697e7 0.0
2.1896444053893697e7 -1.7903459325260647e7 0.0
0.0 0.0 0.0

-2.4637575228254083e6 1.5794597249461755e7 0.0
1.5794597249461755e7 6.918718759553733e6 0.0
0.0 0.0 0.0

2.8208514705550727e6 5.767657688382125e6 0.0
5.767657688382125e6 -1.552166950441414e7 0.0
0.0 0.0 0.0

649024.7095587393 3.052144751765164e7 0.0
3.052144751765164e7 -7.712317656802816e6 0.0
0.0 0.0 0.0

-5.785905383296177e6 5.807624556107453e6 0.0
5.807624556107453e6 5.687724186597062e7 0.0
0.0 0.0 0.0

-6.905443796965778e6 4.014057510480186e6 0.0
4.014057510480186e6 4.9882384737098016e7 0.0
0.0 0.0 0.0

-5.588897893111192e6 1.4441591192007395e7 0.0
1.4441591192007395e7 4.968813354183848e7 0.0
0.0 0.0 0.0

970769.8895045752 2.7694449871504646e7 0.0
2.7694449871504646e7 -1.2693287184648026e7 0.0
0.0 0.0 0.0

-3.0581114627904613e6 1.0495743615194183e7 0.0
1.0495743615194183e7 -969070.0058628364 0.0
0.0 0.0 0.0

2.4658890172387943e7 2.9670475986470126e7 0.0
2.9670475986470126e7 1.954947053312728e7 0.0
0.0 0.0 0.0

1.7925640192960892e7 2.5037130332639635e7 0.0
2.5037130332639635e7 7.095739723520027e7 0.0
0.0 0.0 0.0

2.644720893210304e6 7.1229623083280055e6 0.0
7.1229623083280055e6 -2.0708182005235065e7 0.0
0.0 0.0 0.0

-9.450737908712098e6 8.425743070416568e6 0.0
8.425743070416568e6 2.9743617792902038e7 0.0
0.0 0.0 0.0

-1.966859171651687e6 1.8888173492678046e7 0.0
1.8888173492678046e7 6.418045638785394e6 0.0
0.0 0.0 0.0

-3.382665763172391e6 2.6009665161228895e7 0.0
2.6009665161228895e7 1.9119087399507996e7 0.0
0.0 0.0 0.0

1.622931006384164e6 6.739109456081415e6 0.0
6.739109456081415e6 -5.038181352993403e7 0.0
0.0 0.0 0.0

1.8197280800319277e6 8.022603980676127e6 0.0
8.022603980676127e6 -4.2866254120991424e7 0.0
0.0 0.0 0.0

-8.486564201802429e6 8.1772784660740215e6 0.0
8.1772784660740215e6 1.0941619337961376e7 0.0
0.0 0.0 0.0

-1.6892800348360199e6 2.4031974921749577e7 0.0
2.4031974921749577e7 1.1879543050440058e7 0.0
0.0 0.0 0.0

3.093010441837061e6 1.9375045775897924e7 0.0
1.9375045775897924e7 6.650264926221666e7 0.0
0.0 0.0 0.0

1.2622618709051935e6 2.3182955518999457e7 0.0
2.3182955518999457e7 -1.700569272123888e7 0.0
0.0 0.0 0.0

-5.517058563416616e6 9.55311806344152e6 0.0
9.55311806344152e6 1.3054432650157288e7 0.0
0.0 0.0 0.0

1.8317806976632103e6 7.023076832514407e6 0.0
7.023076832514407e6 -4.495469888187972e7 0.0
0.0 0.0 0.0

-2.8396742836916707e6 2.693648630511247e7 0.0
2.693648630511247e7 1.235340426019517e7 0.0
0.0 0.0 0.0

1.382716992310891e6 9.757285231725719e6 0.0
9.757285231725719e6 -2.8333455003205642e7 0.0
0.0 0.0 0.0

-8.50493188146881e6 1.0675185468604136e7 0.0
1.0675185468604136e7 -702670.2759098939 0.0
0.0 0.0 0.0

162919.77588890307 1.911989836675218e7 0.0
1.911989836675218e7 -1.938442556918238e7 0.0
0.0 0.0 0.0

-7.71773805058836e6 3.693616083709681e6 0.0
3.693616083709681e6 7.98457758605258e6 0.0
0.0 0.0 0.0

-2.7773693003964056e6 1.4131225209383752e7 0.0
1.4131225209383752e7 7.209639351856417e6 0.0
0.0 0.0 0.0

-3.084610277130285e6 1.2293835397882573e7 0.0
1.2293835397882573e7 7.566773084549466e6 0.0
0.0 0.0 0.0

-193625.1839311514 1.9436132712581586e7 0.0
1.9436132712581586e7 -1.6827148818719663e7 0.0
0.0 0.0 0.0

-2.7370714463820634e6 1.887438493703142e7 0.0
1.887438493703142e7 -409728.6908102736 0.0
0.0 0.0 0.0

-8.71233188155079e6 1.1900561448148975e7 0.0
1.1900561448148975e7 3.775513476958557e7 0.0
0.0 0.0 0.0

-412931.4027303122 1.6969225870514825e7 0.0
1.6969225870514825e7 6.2535375636558324e7 0.0
0.0 0.0 0.0

-3.951205993509434e6 1.4363116541126251e7 0.0
1.4363116541126251e7 5.692172511524278e7 0.0
0.0 0.0 0.0

-915825.842412103 1.7525305849098258e7 0.0
1.7525305849098258e7 5.819020979567528e7 0.0
0.0 0.0 0.0

-3.032696232575096e6 9.403400015550572e6 0.0
9.403400015550572e6 8.363191417684372e7 0.0
0.0 0.0 0.0

-412627.919103479 2.5573350858378697e7 0.0
2.5573350858378697e7 1.1279530733391946e7 0.0
0.0 0.0 0.0

-5.553637733889036e6 7.8285623269759035e6 0.0
7.8285623269759035e6 6.448682602868369e7 0.0
0.0 0.0 0.0

-921035.3519498907 2.836669535076937e7 0.0
2.836669535076937e7 -5.879832801235001e6 0.0
0.0 0.0 0.0

-2.4257842667124057e6 2.472687619057531e7 0.0
2.472687619057531e7 -1.4382016270664748e7 0.0
0.0 0.0 0.0

-7.29089418931259e7 4.391750309374337e7 0.0
4.391750309374337e7 -1.6368472365898777e7 0.0
0.0 0.0 0.0

2.346215071248058e6 8.953154454100797e6 0.0
8.953154454100797e6 -2.0443822450872734e7 0.0
0.0 0.0 0.0

1.6129704794595335e6 1.5404446897285448e7 0.0
1.5404446897285448e7 -2.9588677101445865e7 0.0
0.0 0.0 0.0

1.1074057509293836e6 3.0780696132426023e7 0.0
3.0780696132426023e7 -6.448386727970062e6 0.0
0.0 0.0 0.0

-1.4194646663141206e6 2.866743912369799e7 0.0
2.866743912369799e7 4.983887514656941e6 0.0
0.0 0.0 0.0

1.9922579789713118e6 9.102734846923977e6 0.0
9.102734846923977e6 -3.792301161932613e7 0.0
0.0 0.0 0.0

2.5645425231446836e7 3.2607796958473906e7 0.0
3.2607796958473906e7 -1.9442038342978377e6 0.0
0.0 0.0 0.0

-3.9957554280756894e6 1.5007484521451246e7 0.0
1.5007484521451246e7 5.714240430224754e6 0.0
0.0 0.0 0.0

-606634.4135242887 7.105497193131189e6 0.0
7.105497193131189e6 -7.061647182364354e7 0.0
0.0 0.0 0.0

-4.581146262643376e6 1.3277555092796354e7 0.0
1.3277555092796354e7 5.892906810264906e6 0.0
0.0 0.0 0.0

1.3017829779530484e6 9.667234101318654e6 0.0
9.667234101318654e6 -2.16066678149137e7 0.0
0.0 0.0 0.0

-3.143978922445737e6 2.2428920557585105e7 0.0
2.2428920557585105e7 3.176967097372673e7 0.0
0.0 0.0 0.0

-4.703636946055271e7 3.742192272298865e7 0.0
3.742192272298865e7 -2.2040610101515763e6 0.0
0.0 0.0 0.0

-8.272376867244625e6 2.799868810555994e6 0.0
2.799868810555994e6 3.986948779918859e7 0.0
0.0 0.0 0.0

1.3823441362831416e6 2.4385683357718065e7 0.0
2.4385683357718065e7 -1.6073260216098187e7 0.0
0.0 0.0 0.0

-2.194206978992941e7 3.1416717227306213e7 0.0
3.1416717227306213e7 -1.1645451068273699e7 0.0
0.0 0.0 0.0

2.723893915257022e6 6.339898456056318e6 0.0
6.339898456056318e6 -1.9809990598172154e7 0.0
0.0 0.0 0.0

-8.692342217935985e6 1.2857911422997102e7 0.0
1.2857911422997102e7 3.176136290849667e7 0.0
0.0 0.0 0.0

865924.022356661 2.093704880504733e7 0.0
2.093704880504733e7 -1.6247128201630702e7 0.0
0.0 0.0 0.0

-659066.2379723703 1.985315737591168e7 0.0
1.985315737591168e7 -7.36847152408918e6 0.0
0.0 0.0 0.0

-3.5313915720785367e6 1.6616598800797688e7 0.0
1.6616598800797688e7 5.507850270700788e6 0.0
0.0 0.0 0.0

-6.331861505376346e6 1.2856532422906702e7 0.0
1.2856532422906702e7 4.9580471539545804e7 0.0
0.0 0.0 0.0

2.2462874989697915e6 4.418086649257237e6 0.0
4.418086649257237e6 -4.222123331416571e7 0.0
0.0 0.0 0.0

1.960753989814235e6 5.88977534507551e6 0.0
5.88977534507551e6 -2.519585136993474e7 0.0
0.0 0.0 0.0

-2.73447992883558e6 2.654063922547995e7 0.0
2.654063922547995e7 1.1313359270313965e7 0.0
0.0 0.0 0.0

-1.0769149390419077e7 4.639907966937405e6 0.0
4.639907966937405e6 1.8538467900581747e7 0.0
0.0 0.0 0.0

-266452.854714795 1.750150871176131e7 0.0
1.750150871176131e7 -1.6461614063507736e7 0.0
0.0 0.0 0.0

2.2920743772449642e6 7.910416214469268e6 0.0
7.910416214469268e6 -3.1633777378806632e7 0.0
0.0 0.0 0.0

-6.448182943848692e6 7.2917274262261735e6 0.0
7.2917274262261735e6 5.369578313192379e7 0.0
0.0 0.0 0.0

-1.225877329512551e6 2.585529979669025e7 0.0
2.585529979669025e7 7.835161468658389e6 0.0
0.0 0.0 0.0

-9.311903803862814e6 4.828088656693088e6 0.0
4.828088656693088e6 3.414588908377196e7 0.0
0.0 0.0 0.0

293266.1531629637 1.4679599505779168e7 0.0
1.4679599505779168e7 -4.2106300884236865e7 0.0
0.0 0.0 0.0

-680866.6709784446 2.2577484741292015e7 0.0
2.2577484741292015e7 -2.5083878167751078e7 0.0
0.0 0.0 0.0

-8.56576891845784e6 1.5705219123035427e7 0.0
1.5705219123035427e7 2.5786046131434828e7 0.0
0.0 0.0 0.0

412270.84815401584 1.902074974895149e7 0.0
1.902074974895149e7 -3.1466277890237488e7 0.0
0.0 0.0 0.0

1.2110053775390247e6 1.9606324330600575e7 0.0
1.9606324330600575e7 -2.0506326059236392e7 0.0
0.0 0.0 0.0

-2.886295953054133e6 2.3737930168017563e6 0.0
2.3737930168017563e6 6.233885482052939e6 0.0
0.0 0.0 0.0

-9.650065101600902e6 3.9071687361053256e6 0.0
3.9071687361053256e6 3.0468319015669324e7 0.0
0.0 0.0 0.0

-374398.8982919594 1.4837816770547213e7 0.0
1.4837816770547213e7 -1.4697220207449103e7 0.0
0.0 0.0 0.0

-38496.62421095837 1.330115768946727e7 0.0
1.330115768946727e7 -1.5183988838569636e7 0.0
0.0 0.0 0.0

1.0872277939970829e6 2.1416569292257227e7 0.0
2.1416569292257227e7 -1.7071842662927516e7 0.0
0.0 0.0 0.0

-2.34444255327866e6 2.6094363442844607e7 0.0
2.6094363442844607e7 4.385345037163605e6 0.0
0.0 0.0 0.0

723893.303066913 1.1513737982178694e7 0.0
1.1513737982178694e7 -1.843200188385434e7 0.0
0.0 0.0 0.0

-4.6541181548950095e6 1.634011549711071e7 0.0
1.634011549711071e7 -6.3937236536486626e7 0.0
0.0 0.0 0.0

-1.0676056479951557e7 6.703953814558716e6 0.0
6.703953814558716e6 1.7721554540433224e7 0.0
0.0 0.0 0.0

-1.584035418864258e7 2.2049599194538645e7 0.0
2.2049599194538645e7 -5.833231408322423e7 0.0
0.0 0.0 0.0

-1.54775795297301e8 1.960241869888056e7 0.0
1.960241869888056e7 -5.0871168555016965e6 0.0
0.0 0.0 0.0

1.4675559267133734e8 2.061625614384359e7 0.0
2.061625614384359e7 7.75430648990988e6 0.0
0.0 0.0 0.0

-6.292021843237456e6 1.68136885826034e7 0.0
1.68136885826034e7 -7.382163650315899e7 0.0
0.0 0.0 0.0

-4.93676555093929e6 1.986562889434771e7 0.0
1.986562889434771e7 2.6466785177847166e7 0.0
0.0 0.0 0.0

-2.1994370304159815e6 2.527727693847839e7 0.0
2.527727693847839e7 1.5046686047080043e6 0.0
0.0 0.0 0.0

-638964.4522551019 1.6316384810010105e7 0.0
1.6316384810010105e7 -1.4179985870890992e7 0.0
0.0 0.0 0.0

-1.7075845066042156e6 7.585259630501249e6 0.0
7.585259630501249e6 -3.2827659422493563e6 0.0
0.0 0.0 0.0

-149728.28857449634 8.619004473097414e6 0.0
8.619004473097414e6 -1.757616915042336e6 0.0
0.0 0.0 0.0

-3.1626938765446553e6 1.8163149451343786e7 0.0
1.8163149451343786e7 5.297592709311417e6 0.0
0.0 0.0 0.0

-5.4569300003252905e6 1.6533273728659695e7 0.0
1.6533273728659695e7 -6.862022337449276e7 0.0
0.0 0.0 0.0

843364.210989235 1.4229832095802201e7 0.0
1.4229832095802201e7 -1.3712519620719137e7 0.0
0.0 0.0 0.0

-8.278742134724263e6 5.859013796833486e6 0.0
5.859013796833486e6 4.3567753519521244e7 0.0
0.0 0.0 0.0

1.2174290970199546e8 2.5677923855255507e7 0.0
2.5677923855255507e7 408918.7348273322 0.0
0.0 0.0 0.0

546651.926330992 1.5746300319114905e7 0.0
1.5746300319114905e7 -1.3260225976606075e7 0.0
0.0 0.0 0.0

2.267566729510961e6 7.383362890697021e6 0.0
7.383362890697021e6 -3.631042169673181e7 0.0
0.0 0.0 0.0

2.126174968717918e6 8.2236928168408e6 0.0
8.2236928168408e6 -3.712854008835068e7 0.0
0.0 0.0 0.0

-3.1752088536675554e6 2.2990798892034497e7 0.0
2.2990798892034497e7 2.968670900600484e7 0.0
0.0 0.0 0.0

1.466785857328955e6 1.7878090717553146e7 0.0
1.7878090717553146e7 -2.3889297879525132e7 0.0
0.0 0.0 0.0

-4.942283795832316e6 2.658197603452098e7 0.0
2.658197603452098e7 -1.5756230322310383e7 0.0
0.0 0.0 0.0

1.099720608032362e7 2.9270979044532254e7 0.0
2.9270979044532254e7 -2.3971487674761806e6 0.0
0.0 0.0 0.0

-1.7312614308136087e6 1.6605633937500449e7 0.0
1.6605633937500449e7 679869.6835929556 0.0
0.0 0.0 0.0

1.3209866622804336e6 6.830427047401051e6 0.0
6.830427047401051e6 -5.721413830619467e6 0.0
0.0 0.0 0.0

-3.7283615471843276e6 1.146701770083737e7 0.0
1.146701770083737e7 1.4174697670307248e6 0.0
0.0 0.0 0.0

-7.820926770371121e6 9.029986626458557e6 0.0
9.029986626458557e6 1.722372711262775e7 0.0
0.0 0.0 0.0

-9.134235501046244e6 2.018462558494361e7 0.0
2.018462558494361e7 -4.141733048311809e7 0.0
0.0 0.0 0.0

1.1763405718870144e6 1.4414530412647016e7 0.0
1.4414530412647016e7 -3.648271255813359e7 0.0
0.0 0.0 0.0

1.6337152006006157e6 7.058278316606631e6 0.0
7.058278316606631e6 -2.0953504749754384e7 0.0
0.0 0.0 0.0

1.8532293074386856e6 1.0853145438030247e7 0.0
1.0853145438030247e7 -1.7312958152564712e7 0.0
0.0 0.0 0.0

-1.6634652773071243e6 1.9705204044846393e7 0.0
1.9705204044846393e7 853685.1051766756 0.0
0.0 0.0 0.0

1.2315955603957856e6 1.036678509080023e7 0.0
1.036678509080023e7 -2.2733230894942544e7 0.0
0.0 0.0 0.0

-2.215383135813034e6 9.516449766725477e6 0.0
9.516449766725477e6 -3.1869821490211785e6 0.0
0.0 0.0 0.0

2.823244262064457e6 4.828903546371793e6 0.0
4.828903546371793e6 -2.7015282003488295e7 0.0
0.0 0.0 0.0

750688.8331154017 1.897004340595908e7 0.0
1.897004340595908e7 -1.60746733775895e7 0.0
0.0 0.0 0.0

-1.049323876967711e7 8.614096410299486e6 0.0
8.614096410299486e6 1.6574850865784086e7 0.0
0.0 0.0 0.0

1.0119965716026509e6 2.97097372570445e7 0.0
2.97097372570445e7 -1.0014183689897237e7 0.0
0.0 0.0 0.0

169389.59224832803 6.503880972518744e6 0.0
6.503880972518744e6 -6.098794208530917e7 0.0
0.0 0.0 0.0

696307.9066749569 2.0378069437310718e7 0.0
2.0378069437310718e7 -1.5389185296083191e7 0.0
0.0 0.0 0.0

2.2379167202238664e6 9.886679939804863e6 0.0
9.886679939804863e6 -2.808650169967113e7 0.0
0.0 0.0 0.0

-4.829333550237604e6 5.658966795564543e6 0.0
5.658966795564543e6 1.1013657665869609e7 0.0
0.0 0.0 0.0

2.2900651402235087e6 8.935135853544738e6 0.0
8.935135853544738e6 -2.989734494013708e7 0.0
0.0 0.0 0.0

-1.566565469210735e6 2.5787517377417754e7 0.0
2.5787517377417754e7 8.241675888817485e6 0.0
0.0 0.0 0.0

4.285714088986509e6 3.2178568105723683e7 0.0
3.2178568105723683e7 -9.451273963238437e6 0.0
0.0 0.0 0.0

-1.9781695554665271e6 2.3610266896867517e7 0.0
2.3610266896867517e7 -2.4605818339575168e7 0.0
0.0 0.0 0.0

-412648.1849107179 7.727342379801033e6 0.0
7.727342379801033e6 -7.083168178579455e6 0.0
0.0 0.0 0.0

4.090962588973325e6 3.3520911429219645e7 0.0
3.3520911429219645e7 -7.3252436187681155e6 0.0
0.0 0.0 0.0

1.6807644716765075e6 2.738440483000494e7 0.0
2.738440483000494e7 -1.2191020619246958e7 0.0
0.0 0.0 0.0

-1.0220953477928396e7 1.1414087629746063e7 0.0
1.1414087629746063e7 2.5995525456890564e7 0.0
0.0 0.0 0.0

-3.130647445823133e6 2.7428049283409763e7 0.0
2.7428049283409763e7 1.6780841452567182e7 0.0
0.0 0.0 0.0

-8.672872819488537e6 5.138565779409184e6 0.0
5.138565779409184e6 1.0604823320833238e7 0.0
0.0 0.0 0.0

-2.500182625738272e6 1.3309993607152829e7 0.0
1.3309993607152829e7 5.073793485608161e6 0.0
0.0 0.0 0.0

-4.788598314401731e6 1.0360885001015704e7 0.0
1.0360885001015704e7 6.04849005152098e7 0.0
0.0 0.0 0.0

-4.3290980866563115e6 1.6947186587880358e7 0.0
1.6947186587880358e7 1.1530588421402168e7 0.0
0.0 0.0 0.0

5.2420459899931615e6 2.546174231014295e7 0.0
2.546174231014295e7 3.4935774107739655e6 0.0
0.0 0.0 0.0

350234.37349653244 1.7244776112515192e7 0.0
1.7244776112515192e7 -1.272597178036076e7 0.0
0.0 0.0 0.0

-383734.2426229222 1.8904577832196895e7 0.0
1.8904577832196895e7 -1.5796926330685372e7 0.0
0.0 0.0 0.0

-4.312311037746392e6 1.633561776376282e7 0.0
1.633561776376282e7 -5.960894929076566e7 0.0
0.0 0.0 0.0

-323384.5047157742 7.049352523676474e6 0.0
7.049352523676474e6 -6.5097572038086444e7 0.0
0.0 0.0 0.0

-8.777060490837568e6 1.4099918805659015e7 0.0
1.4099918805659015e7 3.3207331333224665e7 0.0
0.0 0.0 0.0

-2.3322627617614567e6 3.0539047082919125e7 0.0
3.0539047082919125e7 8.523660053504372e6 0.0
0.0 0.0 0.0

-7.708302388159638e6 6.192846818957854e6 0.0
6.192846818957854e6 4.828898301255218e7 0.0
0.0 0.0 0.0

1.466895440078361e6 2.5523811986412987e7 0.0
2.5523811986412987e7 -1.5218034980422016e7 0.0
0.0 0.0 0.0

1.153006699107536e6 2.4776914579390444e7 0.0
2.4776914579390444e7 -1.8525727051504686e7 0.0
0.0 0.0 0.0

2.0763434614107095e7 6.340869961140631e6 0.0
6.340869961140631e6 -1.4149634128319742e6 0.0
0.0 0.0 0.0

1.1507484853389128e6 1.1183728261045564e7 0.0
1.1183728261045564e7 -1.1777292107367693e7 0.0
0.0 0.0 0.0

-7.120909176365201e6 1.7059018954190873e7 0.0
1.7059018954190873e7 2.1431534719605196e7 0.0
0.0 0.0 0.0

-4.639050824471083e6 2.3535557947717983e7 0.0
2.3535557947717983e7 -2.3903204584707238e7 0.0
0.0 0.0 0.0

626598.7426768932 1.8437471570838355e7 0.0
1.8437471570838355e7 -1.5046419630502256e7 0.0
0.0 0.0 0.0

1.0315604943413781e6 2.0083189835456982e7 0.0
2.0083189835456982e7 -1.7935277623062894e7 0.0
0.0 0.0 0.0

-4.682847271772407e6 1.6013118396747751e7 0.0
1.6013118396747751e7 4.757098869566867e7 0.0
0.0 0.0 0.0

-9.187879175568635e6 1.3932307294599375e7 0.0
1.3932307294599375e7 2.961210202881395e7 0.0
0.0 0.0 0.0

-588269.6228730185 1.8348179731531367e7 0.0
1.8348179731531367e7 -1.475026396326781e7 0.0
0.0 0.0 0.0

-846351.6311523593 2.3191765844266605e7 0.0
2.3191765844266605e7 -1.1413650491753213e7 0.0
0.0 0.0 0.0

-7.34209714123785e6 2.366793326101993e7 0.0
2.366793326101993e7 -1.5780570297438784e7 0.0
0.0 0.0 0.0

-852810.0037554321 3.2203385733254775e7 0.0
3.2203385733254775e7 -2.676044996531694e6 0.0
0.0 0.0 0.0

836143.6366942152 1.4536885287883421e7 0.0
1.4536885287883421e7 -3.921335240691956e7 0.0
0.0 0.0 0.0

-2.0847373444929319e6 3.8588285654838644e7 0.0
3.8588285654838644e7 2.884375091141256e6 0.0
0.0 0.0 0.0

-6.037843413535643e6 1.789559032403846e7 0.0
1.789559032403846e7 1.939581721648605e7 0.0
0.0 0.0 0.0

-1.1923292097066352e7 2.984973469615133e7 0.0
2.984973469615133e7 -1.4622750871456653e7 0.0
0.0 0.0 0.0

54858.7935183025 2.2041764469307855e7 0.0
2.2041764469307855e7 -2.2890672973691835e6 0.0
0.0 0.0 0.0

-1.2156828641142733e6 2.4055526961316317e7 0.0
2.4055526961316317e7 -2.2571006895453673e7 0.0
0.0 0.0 0.0

-3.2415525640913816e6 2.3716022786101345e7 0.0
2.3716022786101345e7 -1.4371318982968856e7 0.0
0.0 0.0 0.0

-3.259228361815631e6 2.9330063920105007e7 0.0
2.9330063920105007e7 1.13372915488865e7 0.0
0.0 0.0 0.0

1.0079968675584849e6 2.3634630409200743e7 0.0
2.3634630409200743e7 -1.4600846204940302e7 0.0
0.0 0.0 0.0

-791959.8584750262 1.7793106704672396e7 0.0
1.7793106704672396e7 -1.3607685235697012e7 0.0
0.0 0.0 0.0

-1.1142330371236373e6 2.217874256297622e7 0.0
2.217874256297622e7 -2.780753845136217e7 0.0
0.0 0.0 0.0

-1.9037877391864427e6 1.4706070869202347e7 0.0
1.4706070869202347e7 -6.789052008308933e6 0.0
0.0 0.0 0.0

-2.0540728532709714e6 2.8803860806296755e7 0.0
2.8803860806296755e7 2.8588689040138936e6 0.0
0.0 0.0 0.0

-624866.3960535516 3.1493367189198207e7 0.0
3.1493367189198207e7 -4.006878662628218e6 0.0
0.0 0.0 0.0

-3.3837776117191627e6 4.704347666842837e6 0.0
4.704347666842837e6 8.330472752502857e6 0.0
0.0 0.0 0.0

-97942.4807180427 1.2585394573529486e7 0.0
1.2585394573529486e7 -1.3950847169784322e7 0.0
0.0 0.0 0.0

-74132.27537229836 3.3523140131473646e7 0.0
3.3523140131473646e7 -490407.342782632 0.0
0.0 0.0 0.0

-2.3776707641885243e6 2.519991160056085e7 0.0
2.519991160056085e7 7.300497067557283e6 0.0
0.0 0.0 0.0

-1.14966094575858e8 1.2111645414291201e7 0.0
1.2111645414291201e7 -1.112214818612732e6 0.0
0.0 0.0 0.0

-12733.320891952142 1.9709467610142145e7 0.0
1.9709467610142145e7 -3.163093886529748e7 0.0
0.0 0.0 0.0

-2.6705523648259677e6 2.346559381225073e7 0.0
2.346559381225073e7 1.1018673246669352e7 0.0
0.0 0.0 0.0

-216097.76028094313 2.8682750243240353e7 0.0
2.8682750243240353e7 -3.6315434948091586e6 0.0
0.0 0.0 0.0

-2.573002982525352e6 2.4819750622129798e7 0.0
2.4819750622129798e7 1.0508703089406263e7 0.0
0.0 0.0 0.0

-3.191185576444246e6 2.637702064727032e7 0.0
2.637702064727032e7 1.0079911074475683e6 0.0
0.0 0.0 0.0

1.0328779872975321e6 2.579159015888587e7 0.0
2.579159015888587e7 -1.246790391390443e7 0.0
0.0 0.0 0.0

-4.874824114814078e6 1.8781233670523267e7 0.0
1.8781233670523267e7 1.6949821073395554e7 0.0
0.0 0.0 0.0

-8.595064501609905e6 1.0352972837657718e7 0.0
1.0352972837657718e7 3.6378952369406275e7 0.0
0.0 0.0 0.0

-867687.0151504084 1.5557043654885706e7 0.0
1.5557043654885706e7 -5.215066914131703e6 0.0
0.0 0.0 0.0

2.4825288018757645e6 6.587809193907866e6 0.0
6.587809193907866e6 -1.3987586770968532e7 0.0
0.0 0.0 0.0

-1.748015079406436e6 2.0426034039858878e7 0.0
2.0426034039858878e7 -8.298347535429949e6 0.0
0.0 0.0 0.0

1.0174449901671074e6 2.6762429278438568e7 0.0
2.6762429278438568e7 -1.4155022767120553e7 0.0
0.0 0.0 0.0

-2.448568440612012e6 2.384762815558489e7 0.0
2.384762815558489e7 7.641460056780092e6 0.0
0.0 0.0 0.0

-2.4463020876702536e6 1.8666740045440573e7 0.0
1.8666740045440573e7 -3.9682792778683915e6 0.0
0.0 0.0 0.0

-9.118217594526857e6 3.3118983304150957e6 0.0
3.3118983304150957e6 2.1037913011641987e7 0.0
0.0 0.0 0.0

1.6800854894470545e6 6.440204586722747e6 0.0
6.440204586722747e6 -1.6655964110275585e7 0.0
0.0 0.0 0.0

-7.089564818115085e6 9.495777482915511e6 0.0
9.495777482915511e6 4.741437818124349e7 0.0
0.0 0.0 0.0

-1.0276489445751784e7 6.505139239111292e6 0.0
6.505139239111292e6 2.7065760428489216e7 0.0
0.0 0.0 0.0

575288.4227495752 2.3035769599614047e7 0.0
2.3035769599614047e7 3.1100898009802684e7 0.0
0.0 0.0 0.0

-726875.5928593688 2.445700450686006e7 0.0
2.445700450686006e7 -1.090181702360631e7 0.0
0.0 0.0 0.0

-280069.92114074016 1.1785656432357857e7 0.0
1.1785656432357857e7 -1.2742975056265388e7 0.0
0.0 0.0 0.0

-6.50960539216885e6 9.135509793107694e6 0.0
9.135509793107694e6 5.1089168222381294e7 0.0
0.0 0.0 0.0

157375.2075393647 2.909471691215765e7 0.0
2.909471691215765e7 -4.744032208454036e6 0.0
0.0 0.0 0.0

-3.163740652647895e6 1.7422569837027032e7 0.0
1.7422569837027032e7 3.3888226775682606e6 0.0
0.0 0.0 0.0

-2.040365414477627e6 1.2413450368796857e7 0.0
1.2413450368796857e7 2.8784366373556983e6 0.0
0.0 0.0 0.0

-2.127547280131818e6 1.6221348559452558e7 0.0
1.6221348559452558e7 -6.319854533235204e6 0.0
0.0 0.0 0.0

-5.007426502011812e6 2.1406653643265102e7 0.0
2.1406653643265102e7 -3.761583565802858e7 0.0
0.0 0.0 0.0

-1.592357383774836e6 2.4937986224313468e7 0.0
2.4937986224313468e7 9.995161461625505e6 0.0
0.0 0.0 0.0

1.6877518890059907e6 2.470474705844651e7 0.0
2.470474705844651e7 -1.8502949533268563e7 0.0
0.0 0.0 0.0

5.527326915577553e6 2.009117955315345e7 0.0
2.009117955315345e7 7.843013457094204e7 0.0
0.0 0.0 0.0

7.897448108834628e6 2.834316345601817e7 0.0
2.834316345601817e7 1.5577429022210298e7 0.0
0.0 0.0 0.0

-7.798349899194559e6 1.6735423276120376e7 0.0
1.6735423276120376e7 2.4324392491428457e7 0.0
0.0 0.0 0.0

1.441863443241924e6 1.5268757776384415e7 0.0
1.5268757776384415e7 -3.182742814716378e7 0.0
0.0 0.0 0.0

-1.3433404268782642e6 1.953101414482872e7 0.0
1.953101414482872e7 -2.6352986164694563e6 0.0
0.0 0.0 0.0

3.4833862947169114e6 2.8509233554888982e7 0.0
2.8509233554888982e7 -1.3226335467780184e7 0.0
0.0 0.0 0.0

-2.1677303809243976e6 3.218124694108615e7 0.0
3.218124694108615e7 5.949805133812718e6 0.0
0.0 0.0 0.0

-447264.6598039672 3.0699532995603263e7 0.0
3.0699532995603263e7 -5.150676296928993e6 0.0
0.0 0.0 0.0

-441658.6818488138 2.461692240410226e7 0.0
2.461692240410226e7 -2.0562650124553483e7 0.0
0.0 0.0 0.0

-1.3029949220234451e6 1.8041381800114382e7 0.0
1.8041381800114382e7 -2.934996528233211e6 0.0
0.0 0.0 0.0

-2.434420985280886e6 2.5676047911793508e7 0.0
2.5676047911793508e7 8.718683649384804e6 0.0
0.0 0.0 0.0

-1.0540406634048568e7 1.0489275085133368e7 0.0
1.0489275085133368e7 2.4422590693445724e7 0.0
0.0 0.0 0.0

1.8270819955090508e6 6.222151881972315e6 0.0
6.222151881972315e6 -1.9558047800294433e7 0.0
0.0 0.0 0.0

-928096.2144909872 2.0735991545558892e7 0.0
2.0735991545558892e7 -5.592114521184265e6 0.0
0.0 0.0 0.0

2.0869195782798883e6 1.1083835160244785e7 0.0
1.1083835160244785e7 -2.3841824503361747e7 0.0
0.0 0.0 0.0

-1.3885133325052366e6 2.5267922755270455e7 0.0
2.5267922755270455e7 4.210760431263524e6 0.0
0.0 0.0 0.0

-1.3633345685838317e6 1.1516280238261959e7 0.0
1.1516280238261959e7 583918.0350451611 0.0
0.0 0.0 0.0

1.4538104522801389e6 3.631016336314953e7 0.0
3.631016336314953e7 -4.249607949225609e6 0.0
0.0 0.0 0.0

-7.537318875064278e7 6.79477497555462e6 0.0
6.79477497555462e6 3.5401726145204715e6 0.0
0.0 0.0 0.0

-695265.0152677242 1.053864133924117e7 0.0
1.053864133924117e7 -1.6254493457617832e6 0.0
0.0 0.0 0.0

-5.8666045545024e6 2.0000992128068704e7 0.0
2.0000992128068704e7 -4.6883257833528966e7 0.0
0.0 0.0 0.0

2.5422092453924688e6 2.7207781590291597e7 0.0
2.7207781590291597e7 -1.1331681880472872e7 0.0
0.0 0.0 0.0

632167.2002496114 1.6359757352589007e7 0.0
1.6359757352589007e7 -1.4431784412623683e7 0.0
0.0 0.0 0.0

965334.0200820854 2.238684805959908e7 0.0
2.238684805959908e7 -2.37945453542125e7 0.0
0.0 0.0 0.0

-3750.643585639773 9.665115134040704e6 0.0
9.665115134040704e6 -3.669279073800075e6 0.0
0.0 0.0 0.0

2.3698007951439247e6 9.016461459710766e6 0.0
9.016461459710766e6 -2.7127759554804567e7 0.0
0.0 0.0 0.0

-1.1194768114658196e6 3.289630228260647e7 0.0
3.289630228260647e7 -1.4776369397727835e6 0.0
0.0 0.0 0.0

-669382.170787745 6.837292571919738e6 0.0
6.837292571919738e6 -5.104914464415072e6 0.0
0.0 0.0 0.0

334504.807998226 1.2390230246135402e7 0.0
1.2390230246135402e7 -1.68419616509235e7 0.0
0.0 0.0 0.0

1.6227278674314073e6 3.8063461581143804e7 0.0
3.8063461581143804e7 -3.1622054501183387e6 0.0
0.0 0.0 0.0

6.027009543507409e6 2.674679529629186e7 0.0
2.674679529629186e7 2.145289713613726e6 0.0
0.0 0.0 0.0

3.9292944048592234e6 3.0802859916686714e7 0.0
3.0802859916686714e7 -1.0302465316674424e7 0.0
0.0 0.0 0.0

47791.5673388876 9.70072478312725e6 0.0
9.70072478312725e6 -7.731078797699538e7 0.0
0.0 0.0 0.0

-4.1360230034525786e6 2.0080202986817837e7 0.0
2.0080202986817837e7 3.5976279924992174e7 0.0
0.0 0.0 0.0

-915226.1057675692 3.153447777315837e7 0.0
3.153447777315837e7 1.5197157213680195e6 0.0
0.0 0.0 0.0

2.040414251646541e6 1.0638128357871654e7 0.0
1.0638128357871654e7 -2.0060153467763998e7 0.0
0.0 0.0 0.0

574494.7716545647 8.70497114203418e6 0.0
8.70497114203418e6 -5.555678340686696e6 0.0
0.0 0.0 0.0

-409542.80026161904 1.1009704559554521e7 0.0
1.1009704559554521e7 -1.1457643237696713e7 0.0
0.0 0.0 0.0

-4.249769846795332e6 3.684057290746124e7 0.0
3.684057290746124e7 5.764431864625537e6 0.0
0.0 0.0 0.0

-9.08165709690405e6 3.9459208715994507e6 0.0
3.9459208715994507e6 2.8848604895499542e7 0.0
0.0 0.0 0.0

-6.38117028799177e6 1.853845365172713e7 0.0
1.853845365172713e7 3.2776290333940387e7 0.0
0.0 0.0 0.0

173699.40850799042 3.0994918634889845e7 0.0
3.0994918634889845e7 -3.193272320254742e6 0.0
0.0 0.0 0.0

1.0092176947476063e6 1.8742889633272775e7 0.0
1.8742889633272775e7 -1.8787739845624253e7 0.0
0.0 0.0 0.0

-1.006770894905204e6 2.4976625551098503e7 0.0
2.4976625551098503e7 2.458561634039224e7 0.0
0.0 0.0 0.0

-2.373813282273626e6 2.0149023803815175e7 0.0
2.0149023803815175e7 -3.666087985130802e6 0.0
0.0 0.0 0.0

531896.1085621379 1.98087043984217e7 0.0
1.98087043984217e7 -1.4445734915941559e7 0.0
0.0 0.0 0.0

-2.6460411870977078e6 1.9296823152130686e7 0.0
1.9296823152130686e7 -3.882000046446654e7 0.0
0.0 0.0 0.0

5.271596909131182e6 3.2679703036774963e7 0.0
3.2679703036774963e7 -8.64190632490559e6 0.0
0.0 0.0 0.0

-3.6934097625292297e6 1.6680693613728471e7 0.0
1.6680693613728471e7 -5.5758941807650946e7 0.0
0.0 0.0 0.0

-1.073132282085304e7 9.301742955757834e6 0.0
9.301742955757834e6 2.3155674116754916e7 0.0
0.0 0.0 0.0

7.692027555594497e6 2.451236131053904e7 0.0
2.451236131053904e7 3.090679560935096e7 0.0
0.0 0.0 0.0

-4.870693368452735e6 3.534132001869747e7 0.0
3.534132001869747e7 6.206900545017765e6 0.0
0.0 0.0 0.0

-2.1759777520390535e6 2.0742867322127655e7 0.0
2.0742867322127655e7 -5.140723720414998e6 0.0
0.0 0.0 0.0

7.116185769731662e6 2.848249492609241e7 0.0
2.848249492609241e7 -6.220851640771681e6 0.0
0.0 0.0 0.0

407387.9805326334 3.0277685522866864e7 0.0
3.0277685522866864e7 -4.467327881146094e6 0.0
0.0 0.0 0.0

-7.3851164665359305e6 1.0848138858089423e7 0.0
1.0848138858089423e7 1.0828478607659616e7 0.0
0.0 0.0 0.0

279114.94036753476 2.5193347190471828e7 0.0
2.5193347190471828e7 -1.8705352071666066e7 0.0
0.0 0.0 0.0

1.456510878039118e6 1.773893695592542e7 0.0
1.773893695592542e7 -2.645079774338747e7 0.0
0.0 0.0 0.0

1.375233568630156e6 1.8522366060296506e7 0.0
1.8522366060296506e7 -2.460277686432918e7 0.0
0.0 0.0 0.0

-1.1332153241711273e6 1.8662820051635657e7 0.0
1.8662820051635657e7 -1.184985994106787e7 0.0
0.0 0.0 0.0

2.274083914281192e7 3.445826909498851e7 0.0
3.445826909498851e7 -4.263497757318306e6 0.0
0.0 0.0 0.0

1.1913935535393385e6 1.335818957049249e7 0.0
1.335818957049249e7 -1.53275895612337e7 0.0
0.0 0.0 0.0

1.9353331541855894e6 5.547987626353673e6 0.0
5.547987626353673e6 -1.8385524866713084e7 0.0
0.0 0.0 0.0

1.4764317879919112e6 1.689234502826336e7 0.0
1.689234502826336e7 -2.8160375199654754e7 0.0
0.0 0.0 0.0

180670.47644038126 7.5874289334397195e6 0.0
7.5874289334397195e6 -5.781509983930075e7 0.0
0.0 0.0 0.0

-9.414182848184872e6 1.0305562983865438e7 0.0
1.0305562983865438e7 1.4984229312146896e7 0.0
0.0 0.0 0.0

-2.2295895698515945e6 2.799145625446521e7 0.0
2.799145625446521e7 4.0004554911209513e6 0.0
0.0 0.0 0.0

2.275632842715474e6 4.879919663856655e6 0.0
4.879919663856655e6 -3.2773870516761858e7 0.0
0.0 0.0 0.0

1.278843894439457e6 7.41043505594042e6 0.0
7.41043505594042e6 -1.5293225962440394e7 0.0
0.0 0.0 0.0

-325391.36126587726 1.8982665005748305e7 0.0
1.8982665005748305e7 -9.18692695663985e6 0.0
0.0 0.0 0.0

-3.157980904005941e6 1.6895742862660352e7 0.0
1.6895742862660352e7 5.079855441499597e7 0.0
0.0 0.0 0.0

-3.375501476437187e6 2.71354806975648e7 0.0
2.71354806975648e7 1.735172418353703e7 0.0
0.0 0.0 0.0

-5.77472270969465e6 1.2184930689122876e7 0.0
1.2184930689122876e7 8.343041342604801e6 0.0
0.0 0.0 0.0

-3.711179948022064e6 2.3920763958942104e7 0.0
2.3920763958942104e7 2.5427866993593104e7 0.0
0.0 0.0 0.0

2.7028757950960407e6 6.869411425073389e6 0.0
6.869411425073389e6 -2.3705813858564246e7 0.0
0.0 0.0 0.0

1.366594138396537e6 1.6083445734355478e7 0.0
1.6083445734355478e7 -3.0165973997875717e7 0.0
0.0 0.0 0.0

1.9326108812160096e6 8.380845153153063e7 0.0
8.380845153153063e7 8.89688450913137e6 0.0
0.0 0.0 0.0

-4.222923846393447e6 1.6345833492158178e7 0.0
1.6345833492158178e7 9.640734713364607e6 0.0
0.0 0.0 0.0

-1.0663637946330572e7 7.772932467082088e6 0.0
7.772932467082088e6 2.2154849954248372e7 0.0
0.0 0.0 0.0

865625.0557105923 2.3638856820055313e7 0.0
2.3638856820055313e7 -2.0173741015981738e7 0.0
0.0 0.0 0.0

1.3565822528380118e6 1.935193218068826e7 0.0
1.935193218068826e7 -2.2950791304785915e7 0.0
0.0 0.0 0.0

322355.49249889376 4.197762764322579e6 0.0
4.197762764322579e6 2.202405001500862e6 0.0
0.0 0.0 0.0

-4.357412560231881e6 2.46428585906108e6 0.0
2.46428585906108e6 6.692191309469514e6 0.0
0.0 0.0 0.0

-5.695149038532188e6 3.729896185736003e7 0.0
3.729896185736003e7 5.0713944060264565e6 0.0
0.0 0.0 0.0

-2.6072789651039597e6 2.2982090332912274e7 0.0
2.2982090332912274e7 9.48758367506723e6 0.0
0.0 0.0 0.0

-3.6497250777797927e6 3.725336699943583e7 0.0
3.725336699943583e7 2.958861574579806e6 0.0
0.0 0.0 0.0

2.141709287675349e6 1.0856299239138203e7 0.0
1.0856299239138203e7 -2.6526492577408586e7 0.0
0.0 0.0 0.0

-2.364606843303551e6 2.648776460481214e7 0.0
2.648776460481214e7 7.032864086670184e6 0.0
0.0 0.0 0.0

-8.210781468533855e6 6.860058921715889e6 0.0
6.860058921715889e6 4.0257129749903485e7 0.0
0.0 0.0 0.0

-9.333751608063008e7 8.676635342187444e6 0.0
8.676635342187444e6 2.644879905259926e6 0.0
0.0 0.0 0.0

-2.2838875734007293e6 2.9254085246831954e7 0.0
2.9254085246831954e7 3.9883177880506306e6 0.0
0.0 0.0 0.0

-3.530229705102062e6 2.465143446159597e7 0.0
2.465143446159597e7 2.3384710771060042e7 0.0
0.0 0.0 0.0

2.909587970076155e6 3.298212244274422e7 0.0
3.298212244274422e7 -8.20403788818289e6 0.0
0.0 0.0 0.0

1.4133553262029067e6 6.621907697307198e6 0.0
6.621907697307198e6 -1.368456106308377e7 0.0
0.0 0.0 0.0

-3.724994732530705e6 1.8493561338814475e7 0.0
1.8493561338814475e7 1.1091099427458625e7 0.0
0.0 0.0 0.0

-2.013238901476785e7 3.0691753774981424e7 0.0
3.0691753774981424e7 -1.2038114371142594e7 0.0
0.0 0.0 0.0

-1.0240503110585254e7 2.8797338876152843e7 0.0
2.8797338876152843e7 -1.2174908612782005e7 0.0
0.0 0.0 0.0

2.496537235794967e6 8.166591394920904e6 0.0
8.166591394920904e6 -1.9215193785811625e7 0.0
0.0 0.0 0.0

-3.456523387594873e6 2.5450971591510013e7 0.0
2.5450971591510013e7 2.1335221868152436e7 0.0
0.0 0.0 0.0

42061.102346774656 2.2684563936505776e7 0.0
2.2684563936505776e7 -1.0626537062947433e7 0.0
0.0 0.0 0.0

107946.67296721041 5.3728452390012685e6 0.0
5.3728452390012685e6 -6.361914750089241e7 0.0
0.0 0.0 0.0

-6.392303068744838e6 3.5511573020193083e6 0.0
3.5511573020193083e6 5.859708442501534e7 0.0
0.0 0.0 0.0

1.796209397546458e6 1.157162818216709e7 0.0
1.157162818216709e7 -1.8483197373216365e7 0.0
0.0 0.0 0.0

1.9913895457279012e6 8.158517825387367e6 0.0
8.158517825387367e6 -3.991941475698578e7 0.0
0.0 0.0 0.0

-589946.1100314907 2.542784817239991e7 0.0
2.542784817239991e7 -8.966833994196521e6 0.0
0.0 0.0 0.0

-1.2600595563522764e6 1.4116566030190382e7 0.0
1.4116566030190382e7 -5.259493577772975e7 0.0
0.0 0.0 0.0

3.94824275143198e6 4.127359629695658e7 0.0
4.127359629695658e7 -3.905157152589099e6 0.0
0.0 0.0 0.0

319974.5874201171 2.004059286082028e7 0.0
2.004059286082028e7 4.962892073949616e7 0.0
0.0 0.0 0.0

-6.941215846555959e6 3.5400303097008565e6 0.0
3.5400303097008565e6 5.413014845065578e7 0.0
0.0 0.0 0.0

127983.90135467472 2.398362330174301e7 0.0
2.398362330174301e7 -1.0136877280471109e7 0.0
0.0 0.0 0.0

645122.1764514968 9.118433154251082e6 0.0
9.118433154251082e6 -4.8497351289751396e7 0.0
0.0 0.0 0.0

-1.4009202395213437e6 2.392789292137864e7 0.0
2.392789292137864e7 1.0936488358238507e6 0.0
0.0 0.0 0.0

-2.2264011935516642e6 2.6732536177255034e7 0.0
2.6732536177255034e7 4.0365577561493795e6 0.0
0.0 0.0 0.0

-9.386136255015554e6 9.575178709799543e6 0.0
9.575178709799543e6 3.0855605930349056e7 0.0
0.0 0.0 0.0

6.342397844507549e6 3.3269980044166848e7 0.0
3.3269980044166848e7 -8.1725937108877115e6 0.0
0.0 0.0 0.0

1.4829410137111463e6 2.6032245951558314e7 0.0
2.6032245951558314e7 -4.0921803680115496e6 0.0
0.0 0.0 0.0

22169.581456412212 3.1747050766585883e7 0.0
3.1747050766585883e7 -1.9357844266234674e6 0.0
0.0 0.0 0.0

948034.0948955826 2.789765743552404e6 0.0
2.789765743552404e6 -6.048788807744055e7 0.0
0.0 0.0 0.0

-2.32020607744319e6 2.7272413092174176e7 0.0
2.7272413092174176e7 5.420483973950294e6 0.0
0.0 0.0 0.0

710236.7402073331 1.6952286680293385e7 0.0
1.6952286680293385e7 -1.5556075458082682e7 0.0
0.0 0.0 0.0

-3.8505448890376e6 1.418694377000035e7 0.0
1.418694377000035e7 3.614188320372165e6 0.0
0.0 0.0 0.0

-993795.3770923659 1.7179691500552244e7 0.0
1.7179691500552244e7 -4.864641221689022e6 0.0
0.0 0.0 0.0

-1.0190421940711755e7 7.428463900879011e6 0.0
7.428463900879011e6 1.4864441657650921e7 0.0
0.0 0.0 0.0

2.0228617277554316e6 2.485993268807133e7 0.0
2.485993268807133e7 -5.573658169235299e6 0.0
0.0 0.0 0.0

-7.202406384120354e6 1.1154647134821022e7 0.0
1.1154647134821022e7 4.488577654592971e7 0.0
0.0 0.0 0.0

366066.58628404886 1.9267904423494592e7 0.0
1.9267904423494592e7 -1.335591197225092e7 0.0
0.0 0.0 0.0

-7.557553888504471e6 7.179821995220607e6 0.0
7.179821995220607e6 8.482335530307144e6 0.0
0.0 0.0 0.0

-6.54911078643354e6 3.817745903135574e7 0.0
3.817745903135574e7 5.110033657292857e6 0.0
0.0 0.0 0.0

1.402503547231968e6 3.0195023263148572e7 0.0
3.0195023263148572e7 -7.261742141259859e6 0.0
0.0 0.0 0.0

780380.855218647 2.0408343255779307e7 0.0
2.0408343255779307e7 -2.7434448440716542e7 0.0
0.0 0.0 0.0

1.5033463861140814e6 1.24642103287904e7 0.0
1.24642103287904e7 -1.6925006654488366e7 0.0
0.0 0.0 0.0

-1.4860038633605053e6 2.9821761906076342e7 0.0
2.9821761906076342e7 4.840328952379447e6 0.0
0.0 0.0 0.0

-3.1909742897998653e6 2.363287688994066e7 0.0
2.363287688994066e7 2.753778811773818e7 0.0
0.0 0.0 0.0

9.41984187932506e6 2.401306914345548e7 0.0
2.401306914345548e7 1.3324261462373145e7 0.0
0.0 0.0 0.0

64287.340228930116 9.499770576199822e6 0.0
9.499770576199822e6 -5.228156954660698e7 0.0
0.0 0.0 0.0

-1.6215350973630194e6 2.6220362699426457e7 0.0
2.6220362699426457e7 9.559109228369297e6 0.0
0.0 0.0 0.0

-1.5419137891212297e6 2.787757135472635e7 0.0
2.787757135472635e7 6.331012314706325e6 0.0
0.0 0.0 0.0

-9.192983706729071e6 1.4468577791134767e7 0.0
1.4468577791134767e7 2.3529062840994395e7 0.0
0.0 0.0 0.0

4.808206825064522e6 4.23492950938324e7 0.0
4.23492950938324e7 -3.9256176620070105e6 0.0
0.0 0.0 0.0

195484.33389183646 1.6639532714433111e7 0.0
1.6639532714433111e7 -1.1483257886991868e7 0.0
0.0 0.0 0.0

-5.469699040629802e6 2.0716780321505543e7 0.0
2.0716780321505543e7 2.481987635207442e7 0.0
0.0 0.0 0.0

1.5467638954046657e6 1.1753786705930665e7 0.0
1.1753786705930665e7 -1.5779648945547396e7 0.0
0.0 0.0 0.0

-4.047481156927795e6 1.1034419329765666e7 0.0
1.1034419329765666e7 1.0291773985153243e7 0.0
0.0 0.0 0.0

-1.3163514874088368e6 3.0400160903762806e7 0.0
3.0400160903762806e7 3.6027763695582943e6 0.0
0.0 0.0 0.0

-1.448200215710273e6 3.1582243068016652e7 0.0
3.1582243068016652e7 3.5805337401805194e6 0.0
0.0 0.0 0.0

206616.80036788387 1.8705996754570443e7 0.0
1.8705996754570443e7 -1.218754089300469e7 0.0
0.0 0.0 0.0

3.6071799685055427e6 2.6986631774435326e7 0.0
2.6986631774435326e7 -5.210904775095802e6 0.0
0.0 0.0 0.0

1.959664330416117e7 3.5833964461348e7 0.0
3.5833964461348e7 -5.436521411952878e6 0.0
0.0 0.0 0.0

-6.479129830397312e6 2.8955373239796452e7 0.0
2.8955373239796452e7 9.37200963975721e6 0.0
0.0 0.0 0.0

-1.3194135447907137e7 1.9852759313177116e7 0.0
1.9852759313177116e7 -5.4438848176603414e7 0.0
0.0 0.0 0.0

803801.7070350782 1.3553155313169926e7 0.0
1.3553155313169926e7 -1.244328122019164e7 0.0
0.0 0.0 0.0

-8.519624308619097e6 7.475292229831122e6 0.0
7.475292229831122e6 3.720001067658863e7 0.0
0.0 0.0 0.0

-4.182409082321929e6 2.662964498817795e7 0.0
2.662964498817795e7 -2.3083654725612407e6 0.0
0.0 0.0 0.0

-8.140357488523261e6 2.73623375695968e7 0.0
2.73623375695968e7 -1.6890627395229605e6 0.0
0.0 0.0 0.0

-1.611283355909179e6 2.7014233841421805e7 0.0
2.7014233841421805e7 7.829737307684578e6 0.0
0.0 0.0 0.0

-7.779287693261571e6 5.04481606982602e6 0.0
5.04481606982602e6 4.2153702052528426e7 0.0
0.0 0.0 0.0

-7.675538033327149e6 3.902890642777082e7 0.0
3.902890642777082e7 5.15111599162494e6 0.0
0.0 0.0 0.0

-2.1101767140089185e6 2.990539271814267e7 0.0
2.990539271814267e7 2.740842731982801e6 0.0
0.0 0.0 0.0

3.7518877469235742e6 2.507423163956428e7 0.0
2.507423163956428e7 1.8110246648772587e6 0.0
0.0 0.0 0.0

4.881157813263533e6 2.08688779983335e7 0.0
2.08688779983335e7 1.6270526106728898e7 0.0
0.0 0.0 0.0

-1.6795175760605503e6 2.535100778774532e7 0.0
2.535100778774532e7 1.132993805616323e7 0.0
0.0 0.0 0.0

-3.660326604356222e6 2.2540629824812207e7 0.0
2.2540629824812207e7 1.794662303130829e7 0.0
0.0 0.0 0.0

2.566448995554151e6 7.342274461237316e6 0.0
7.342274461237316e6 -1.7952640614914395e7 0.0
0.0 0.0 0.0

464655.1109076288 3.214742734581138e7 0.0
3.214742734581138e7 -2.9902806488027326e6 0.0
0.0 0.0 0.0

-5.810578308576765e6 1.8558940189612042e7 0.0
1.8558940189612042e7 2.7294167758858845e7 0.0
0.0 0.0 0.0

1.8900922150797173e6 4.432692927119256e6 0.0
4.432692927119256e6 -2.984906554710282e7 0.0
0.0 0.0 0.0

-683227.9448936214 2.9581311395008814e7 0.0
2.9581311395008814e7 -5.545596198073283e6 0.0
0.0 0.0 0.0

-1.453404242122347e6 2.6569522100786004e7 0.0
2.6569522100786004e7 6.626984375386873e6 0.0
0.0 0.0 0.0

-6.314892740478355e6 6.168944629568249e6 0.0
6.168944629568249e6 5.930174760673337e6 0.0
0.0 0.0 0.0

744661.4383751107 1.3518113540465247e7 0.0
1.3518113540465247e7 -2.1631862779907286e7 0.0
0.0 0.0 0.0

3.8098675804701014e6 7.339440519670537e7 0.0
7.339440519670537e7 6.296366108952831e6 0.0
0.0 0.0 0.0

-783462.7886434458 8.597962755274786e6 0.0
8.597962755274786e6 -9.085561953424041e7 0.0
0.0 0.0 0.0

1.6996439428423923e6 5.901717322543308e6 0.0
5.901717322543308e6 -3.520636570854263e7 0.0
0.0 0.0 0.0

1.608451141905629e6 1.5492022900089106e7 0.0
1.5492022900089106e7 -2.4503988388442528e7 0.0
0.0 0.0 0.0

-6.4478929624122195e6 2.8317462716711827e7 0.0
2.8317462716711827e7 6.984399227930052e6 0.0
0.0 0.0 0.0

-206868.48581369407 1.847913611083614e7 0.0
1.847913611083614e7 -3.385232980045538e7 0.0
0.0 0.0 0.0

753078.1945776595 1.285095262943702e7 0.0
1.285095262943702e7 -1.1183658070137538e7 0.0
0.0 0.0 0.0

-3.591081113645471e6 1.3288232538811846e7 0.0
1.3288232538811846e7 1.437217364433007e6 0.0
0.0 0.0 0.0

6.13734983400606e6 2.293453173340233e7 0.0
2.293453173340233e7 2.762411313692051e7 0.0
0.0 0.0 0.0

-135381.45105401427 2.0300687386607375e7 0.0
2.0300687386607375e7 4.6329785851119615e7 0.0
0.0 0.0 0.0

1.81181733509993e7 1.738910093834285e7 0.0
1.738910093834285e7 7.86124160092695e6 0.0
0.0 0.0 0.0

-7.004793586333338e6 4.409381653114597e7 0.0
4.409381653114597e7 2.7588557066028574e6 0.0
0.0 0.0 0.0

-1.469398031179676e6 1.9534668402703248e7 0.0
1.9534668402703248e7 -1.0074734120720226e7 0.0
0.0 0.0 0.0

-3.8233452870269254e7 3.227649707461426e7 0.0
3.227649707461426e7 -4.0786278895533634e6 0.0
0.0 0.0 0.0

56340.252085745335 2.1440173324709527e7 0.0
2.1440173324709527e7 -1.1128052397833398e7 0.0
0.0 0.0 0.0

-1.5091179478188595e6 2.741842651787698e7 0.0
2.741842651787698e7 5.068936439319703e6 0.0
0.0 0.0 0.0

-381116.37871214654 1.689657865593455e7 0.0
1.689657865593455e7 -8.231232213530332e6 0.0
0.0 0.0 0.0

-2.9031237329203337e6 2.0442240218098372e7 0.0
2.0442240218098372e7 -3.524545976452726e7 0.0
0.0 0.0 0.0

1.9411759340490568e6 5.531837545009967e6 0.0
5.531837545009967e6 -2.820835406382247e7 0.0
0.0 0.0 0.0

187263.5434737876 1.3098068707574e7 0.0
1.3098068707574e7 -4.731096937256259e7 0.0
0.0 0.0 0.0

953633.6730931681 2.48348601575854e7 0.0
2.48348601575854e7 2.277850041810482e7 0.0
0.0 0.0 0.0

2.1238958902604952e6 8.539440274759341e6 0.0
8.539440274759341e6 -3.255662214648369e7 0.0
0.0 0.0 0.0

-235766.4561523667 2.9863506216269787e7 0.0
2.9863506216269787e7 -6.466794884374321e6 0.0
0.0 0.0 0.0

371673.52403075434 2.5293396914680693e7 0.0
2.5293396914680693e7 -1.4345507379768895e7 0.0
0.0 0.0 0.0

-2.4493755313414736e6 1.7132963866071656e7 0.0
1.7132963866071656e7 -4.326182675222867e6 0.0
0.0 0.0 0.0

-2.857479283803052e6 1.9653514708692484e7 0.0
1.9653514708692484e7 5.097069587871809e6 0.0
0.0 0.0 0.0

-5.128143220855478e6 2.1316730604657024e7 0.0
2.1316730604657024e7 2.5729682628171094e7 0.0
0.0 0.0 0.0

1.9226451962713646e6 1.2019909410467202e7 0.0
1.2019909410467202e7 -2.2251412939697504e7 0.0
0.0 0.0 0.0

-8.579660146331608e6 4.7851121322430395e7 0.0
4.7851121322430395e7 2.934184462469074e6 0.0
0.0 0.0 0.0

-9.058370754123434e6 3.9703175945031285e7 0.0
3.9703175945031285e7 5.3701771206044145e6 0.0
0.0 0.0 0.0

-4.581982092914099e6 2.236565545799439e7 0.0
2.236565545799439e7 2.664137019603801e7 0.0
0.0 0.0 0.0

-2.2853398335574334e6 2.1114976660256956e7 0.0
2.1114976660256956e7 -7.617798781953917e6 0.0
0.0 0.0 0.0

1.3235192594294678e6 2.0157659138540838e7 0.0
2.0157659138540838e7 -2.120693773704716e7 0.0
0.0 0.0 0.0

2.3893433259576187e6 8.214135749488017e6 0.0
8.214135749488017e6 -2.9022272652525097e7 0.0
0.0 0.0 0.0

-4.597590389230455e6 2.9973893875021722e7 0.0
2.9973893875021722e7 1.2382635837115169e7 0.0
0.0 0.0 0.0

-9.619597400422718e6 1.3084643962840863e7 0.0
1.3084643962840863e7 2.839227871862124e7 0.0
0.0 0.0 0.0

8.715343387776487e6 3.651946579907961e7 0.0
3.651946579907961e7 -6.362063268485272e6 0.0
0.0 0.0 0.0

-4.969593161788639e6 3.9523020543200327e6 0.0
3.9523020543200327e6 7.188386027275394e7 0.0
0.0 0.0 0.0

-902167.7680223624 2.538929226923278e7 0.0
2.538929226923278e7 -9.294718284434628e6 0.0
0.0 0.0 0.0

-7.674041164308302e6 201708.64402288973 0.0
201708.64402288973 3.799869411669786e7 0.0
0.0 0.0 0.0

-9.630122410723098e6 6.894003907507675e6 0.0
6.894003907507675e6 2.114455207880761e7 0.0
0.0 0.0 0.0

2.661532527465458e6 6.442933546952815e6 0.0
6.442933546952815e6 -1.6888456013526514e7 0.0
0.0 0.0 0.0

-4.364354675438296e6 1.719093023848159e7 0.0
1.719093023848159e7 4.6707524595331736e7 0.0
0.0 0.0 0.0

1.1778905624022149e6 1.3611394020471344e7 0.0
1.3611394020471344e7 -3.863331543768274e7 0.0
0.0 0.0 0.0

-9661.076060455525 2.9884382399134845e7 0.0
2.9884382399134845e7 -3.370496293368076e6 0.0
0.0 0.0 0.0

-1.628982240248952e6 2.9068600192992743e7 0.0
2.9068600192992743e7 6.224430491153262e6 0.0
0.0 0.0 0.0

-1.3288912399712778e6 2.0992590108216956e7 0.0
2.0992590108216956e7 -2.3677643185218037e6 0.0
0.0 0.0 0.0

-2.0392027567506558e6 2.941984607342481e7 0.0
2.941984607342481e7 8.86955327029638e6 0.0
0.0 0.0 0.0

472394.113860887 6.764906961716382e6 0.0
6.764906961716382e6 -8.615665917175258e6 0.0
0.0 0.0 0.0

-1.825078046776382e6 2.4908928167382464e7 0.0
2.4908928167382464e7 -4.1365685613200613e6 0.0
0.0 0.0 0.0

1.6916695452690955e7 3.676043742993742e7 0.0
3.676043742993742e7 -5.904168578942741e6 0.0
0.0 0.0 0.0

521817.48541290406 1.1927958169915456e7 0.0
1.1927958169915456e7 -1.0110332710016008e7 0.0
0.0 0.0 0.0

-108376.33775418531 1.956054579691614e7 0.0
1.956054579691614e7 -1.0458594284079235e7 0.0
0.0 0.0 0.0

-8.790737590841573e6 2.8056676131915674e7 0.0
2.8056676131915674e7 -9.126784134780284e6 0.0
0.0 0.0 0.0

-1.50335340721013e6 2.0362916085738245e7 0.0
2.0362916085738245e7 -813784.5508374847 0.0
0.0 0.0 0.0

1.7949042377114527e7 3.004615160559952e7 0.0
3.004615160559952e7 -439236.7312832745 0.0
0.0 0.0 0.0

-4.935398000167556e6 5.083305914391318e6 0.0
5.083305914391318e6 2.997736608874972e6 0.0
0.0 0.0 0.0

1.325549991983477e6 5.019211549620573e6 0.0
5.019211549620573e6 -4.313757737995312e7 0.0
0.0 0.0 0.0

-6.0832897806876935e6 3.4225294275778863e6 0.0
3.4225294275778863e6 1.3388210546001779e7 0.0
0.0 0.0 0.0

-3.1352677933690976e6 1.2341015771661336e7 0.0
1.2341015771661336e7 -762361.1573680129 0.0
0.0 0.0 0.0

-1.9529534304118638e6 2.1309825461729888e7 0.0
2.1309825461729888e7 -6.537414514254698e6 0.0
0.0 0.0 0.0

-9.393957147046896e6 8.501193730476607e6 0.0
8.501193730476607e6 2.032867170600362e7 0.0
0.0 0.0 0.0

2.2046486065718057e6 7.593673170058874e6 0.0
7.593673170058874e6 -1.2262199895531548e7 0.0
0.0 0.0 0.0

1.0768488766312469e6 2.5887480887430716e7 0.0
2.5887480887430716e7 -1.69518110991014e7 0.0
0.0 0.0 0.0

-2.466297233460457e6 1.1419708556062607e7 0.0
1.1419708556062607e7 -3.0796949221647764e6 0.0
0.0 0.0 0.0

2.237389528289488e6 6.568391744305796e7 0.0
6.568391744305796e7 3.8537156771172965e6 0.0
0.0 0.0 0.0

1.9346215273587417e7 2.8756479543570623e7 0.0
2.8756479543570623e7 1.6219121194174647e7 0.0
0.0 0.0 0.0

-1.695467219976339e6 1.045183781366406e7 0.0
1.045183781366406e7 -4.949154875617823e6 0.0
0.0 0.0 0.0

-3.83525692447548e6 1.7781879383942634e7 0.0
1.7781879383942634e7 1.8726544717878316e7 0.0
0.0 0.0 0.0

1.4960703267507404e6 4.61236364961095e6 0.0
4.61236364961095e6 -7.05375989650004e6 0.0
0.0 0.0 0.0

-7.708578495093906e6 1.1742533403198695e7 0.0
1.1742533403198695e7 4.163976758317238e7 0.0
0.0 0.0 0.0

-965557.9800333884 9.488661185692806e6 0.0
9.488661185692806e6 -6.824576070766479e6 0.0
0.0 0.0 0.0

-1.162042958492729e7 4.70712759786725e7 0.0
4.70712759786725e7 5.239397481687407e6 0.0
0.0 0.0 0.0

1.035522843234067e7 3.694111320576848e7 0.0
3.694111320576848e7 -6.233173277489152e6 0.0
0.0 0.0 0.0

2.4640083115061633e6 7.216070913268906e6 0.0
7.216070913268906e6 -3.0684261930872366e7 0.0
0.0 0.0 0.0

294199.04415741004 2.6064621299287044e7 0.0
2.6064621299287044e7 -1.278059258418974e7 0.0
0.0 0.0 0.0

943973.364665322 8.639781572662547e6 0.0
8.639781572662547e6 -4.382431052744449e7 0.0
0.0 0.0 0.0

-2.0928940701054516e6 2.2171758245796595e7 0.0
2.2171758245796595e7 -4.803484390118061e6 0.0
0.0 0.0 0.0

4.853657025540083e6 2.556162033691775e7 0.0
2.556162033691775e7 1.6256534641438596e7 0.0
0.0 0.0 0.0

1.4360451828701198e7 3.715735463982692e7 0.0
3.715735463982692e7 -6.04692964424864e6 0.0
0.0 0.0 0.0

485236.12045829184 1.1322337616385477e7 0.0
1.1322337616385477e7 -8.589819677277515e6 0.0
0.0 0.0 0.0

1.935850582232247e6 1.0051396113531368e7 0.0
1.0051396113531368e7 -1.6173919750747345e7 0.0
0.0 0.0 0.0

-924282.5247252347 1.4911547996023756e7 0.0
1.4911547996023756e7 -3.57051088031129e6 0.0
0.0 0.0 0.0

-1.1140672977727944e7 4.024642835987674e7 0.0
4.024642835987674e7 5.478713203192585e6 0.0
0.0 0.0 0.0

-2.9020238509763074e6 1.8946806478469662e7 0.0
1.8946806478469662e7 3.281473321506613e6 0.0
0.0 0.0 0.0

1.2865742304490045e7 4.4370912563647814e7 0.0
4.4370912563647814e7 -4.648241590748524e6 0.0
0.0 0.0 0.0

-1.1237057788642044e6 2.1591848805418603e7 0.0
2.1591848805418603e7 -3.832104934024855e6 0.0
0.0 0.0 0.0

8.92935655944327e6 2.2614110786544595e7 0.0
2.2614110786544595e7 3.567261466139187e7 0.0
0.0 0.0 0.0

-7.516201255399389e6 2.762639291379099e7 0.0
2.762639291379099e7 -5.923360365772608e6 0.0
0.0 0.0 0.0

-239871.96528179833 3.2410007149230003e7 0.0
3.2410007149230003e7 -701536.5155042527 0.0
0.0 0.0 0.0

-1.3079841625800286e6 2.510370983746613e7 0.0
2.510370983746613e7 -1.6776575703929998e7 0.0
0.0 0.0 0.0

-3.4216191249749064e6 1.6873613375756215e7 0.0
1.6873613375756215e7 -5.203423363919403e7 0.0
0.0 0.0 0.0

-2.375168569462372e6 2.010776887665463e7 0.0
2.010776887665463e7 4.139759198332219e7 0.0
0.0 0.0 0.0

42856.14218201861 1.398527927062827e7 0.0
1.398527927062827e7 -1.6350184566510523e7 0.0
0.0 0.0 0.0

-8.061728275485674e6 1.2336257341037445e7 0.0
1.2336257341037445e7 3.83767405435356e7 0.0
0.0 0.0 0.0

1.2024573245502524e6 1.5230828185313087e7 0.0
1.5230828185313087e7 -3.4427229372871466e7 0.0
0.0 0.0 0.0

-2.3964697504772367e6 1.5547922769312186e7 0.0
1.5547922769312186e7 -4.58444258932189e6 0.0
0.0 0.0 0.0

2.449574521763647e6 4.236564647207606e6 0.0
4.236564647207606e6 -1.6688063935774328e7 0.0
0.0 0.0 0.0

-2.2746865098688677e6 2.390255725195751e7 0.0
2.390255725195751e7 1.5481254879817483e6 0.0
0.0 0.0 0.0

-2.194353434469864e6 3.0990262394520078e7 0.0
3.0990262394520078e7 2.6476640799516337e6 0.0
0.0 0.0 0.0

3.475993338868121e6 3.816123396095687e7 0.0
3.816123396095687e7 -4.76323780260881e6 0.0
0.0 0.0 0.0

-1.9707642189692478e6 2.355542133500784e7 0.0
2.355542133500784e7 -4.459467602145613e6 0.0
0.0 0.0 0.0

2.2102185169841745e6 6.6569334069059035e6 0.0
6.6569334069059035e6 -1.0976595591530137e7 0.0
0.0 0.0 0.0

1.2181889821385862e7 3.7174107041469894e7 0.0
3.7174107041469894e7 -6.203660510386249e6 0.0
0.0 0.0 0.0

-8.313452636509554e6 1.4267589415628983e7 0.0
1.4267589415628983e7 3.0098368841810923e7 0.0
0.0 0.0 0.0

113767.3142655082 8.60614932174048e6 0.0
8.60614932174048e6 -5.50272063790406e7 0.0
0.0 0.0 0.0

6.445070809019561e6 2.802730203718924e7 0.0
2.802730203718924e7 1.5844548098812679e7 0.0
0.0 0.0 0.0

-3.669324399885875e6 3.458972440156804e7 0.0
3.458972440156804e7 4.971677884526206e6 0.0
0.0 0.0 0.0

-3.7715700117244124e6 2.301424947225584e7 0.0
2.301424947225584e7 -1.5549830946070096e7 0.0
0.0 0.0 0.0

-540964.8197178431 2.0668293347048435e7 0.0
2.0668293347048435e7 4.337134781322488e7 0.0
0.0 0.0 0.0

-6.435295545821977e6 2.3815947754211128e7 0.0
2.3815947754211128e7 -2.1450985440466363e7 0.0
0.0 0.0 0.0

-844844.1555768438 1.567725721347194e7 0.0
1.567725721347194e7 -1.291646927693255e7 0.0
0.0 0.0 0.0

4.0571647529705577e6 2.3644333621794336e7 0.0
2.3644333621794336e7 2.317773984443576e7 0.0
0.0 0.0 0.0

1.9830188733681226e6 6.077131384269842e7 0.0
6.077131384269842e7 2.9836462636845903e6 0.0
0.0 0.0 0.0

-5.775466465742498e6 2.769451071417579e7 0.0
2.769451071417579e7 -1.3356369848272134e7 0.0
0.0 0.0 0.0

8.122745249245895e7 2.566032476330359e7 0.0
2.566032476330359e7 7.481648977592468e6 0.0
0.0 0.0 0.0

-2.195252176022188e6 1.7781213136328395e7 0.0
1.7781213136328395e7 -5.844723229947521e6 0.0
0.0 0.0 0.0

-2.211752858996644e6 2.456128699468616e7 0.0
2.456128699468616e7 25708.214923821157 0.0
0.0 0.0 0.0

650661.5412826538 1.8021134680415332e7 0.0
1.8021134680415332e7 -2.1417390121744923e7 0.0
0.0 0.0 0.0

4.10984899439702e6 3.906944040507634e7 0.0
3.906944040507634e7 -4.787456472065467e6 0.0
0.0 0.0 0.0

962488.0639470145 6.711006919905277e6 0.0
6.711006919905277e6 -4.787894235697405e7 0.0
0.0 0.0 0.0

-720857.7759321991 1.01364548265248e7 0.0
1.01364548265248e7 -8.314004812532025e6 0.0
0.0 0.0 0.0

908061.4249151014 1.3905433710964264e7 0.0
1.3905433710964264e7 -2.5171962127209753e7 0.0
0.0 0.0 0.0

-3.2659857684812117e6 2.7216237399000607e7 0.0
2.7216237399000607e7 1.781675907318919e7 0.0
0.0 0.0 0.0

-1.6863094927856033e6 2.6217008838651016e7 0.0
2.6217008838651016e7 -3.8456288450685777e6 0.0
0.0 0.0 0.0

818718.6017699931 2.4430856138104998e7 0.0
2.4430856138104998e7 7.562456820883584e6 0.0
0.0 0.0 0.0

-1.1853432391705515e6 1.6468655803011773e7 0.0
1.6468655803011773e7 -3.2391485389291104e6 0.0
0.0 0.0 0.0

-977673.4539874125 2.4360612741660275e7 0.0
2.4360612741660275e7 -3.2138834978738213e6 0.0
0.0 0.0 0.0

3.5392395417679856e6 2.5421554956261396e7 0.0
2.5421554956261396e7 -4.344334042573299e6 0.0
0.0 0.0 0.0

2.4601315028048875e6 5.724609141305659e7 0.0
5.724609141305659e7 2.7358751401831126e6 0.0
0.0 0.0 0.0

-849293.5787952513 2.5677969547127802e7 0.0
2.5677969547127802e7 -2.9369993203830095e6 0.0
0.0 0.0 0.0

-4.526812545290271e6 8.616209625560384e6 0.0
8.616209625560384e6 1.0706279766756404e7 0.0
0.0 0.0 0.0

3.822785504231456e7 1.6408850730844885e7 0.0
1.6408850730844885e7 3.0542728450817615e6 0.0
0.0 0.0 0.0

-1.9322002954081632e6 1.1651810487314273e7 0.0
1.1651810487314273e7 -6.865257830375151e7 0.0
0.0 0.0 0.0

-1.2097674206817977e6 3.217208851485495e7 0.0
3.217208851485495e7 2.6222609551355443e6 0.0
0.0 0.0 0.0

-6.180981504665064e6 1.0536674692638388e7 0.0
1.0536674692638388e7 1.4988354247338163e7 0.0
0.0 0.0 0.0

-1.8247554640634696e6 1.6957491895252496e7 0.0
1.6957491895252496e7 -7.609732712071561e6 0.0
0.0 0.0 0.0

-518116.9960096865 1.4170427889868883e7 0.0
1.4170427889868883e7 -1.344260520664723e7 0.0
0.0 0.0 0.0

2.1837283238677774e6 5.428440014772164e7 0.0
5.428440014772164e7 1.6302687154500007e6 0.0
0.0 0.0 0.0

611922.6536098607 1.229296280205725e7 0.0
1.229296280205725e7 -4.0868243322951466e7 0.0
0.0 0.0 0.0

-9.66793169201096e6 7.835623539380759e6 0.0
7.835623539380759e6 3.3217988130989112e7 0.0
0.0 0.0 0.0

-7.302847815880757e6 2.678357288490724e7 0.0
2.678357288490724e7 -1.743085893236986e7 0.0
0.0 0.0 0.0

-8.291047365825353e6 1.0124779218536094e7 0.0
1.0124779218536094e7 1.8832383087274455e7 0.0
0.0 0.0 0.0

-1.0544712463988634e6 2.410297927347228e7 0.0
2.410297927347228e7 -9.7788117463886e6 0.0
0.0 0.0 0.0

-1.9251264761342206e6 2.63913279521282e7 0.0
2.63913279521282e7 -1.1235504858198217e6 0.0
0.0 0.0 0.0

482370.07320732065 1.983598408928375e7 0.0
1.983598408928375e7 -2.7141614808683623e7 0.0
0.0 0.0 0.0

1.5553540849159982e6 5.181563937639123e7 0.0
5.181563937639123e7 1.1295896956910603e6 0.0
0.0 0.0 0.0

-3.5231742498514233e6 2.814416753030798e7 0.0
2.814416753030798e7 1.6053838478051698e7 0.0
0.0 0.0 0.0

-709365.9136019105 2.695685487316263e7 0.0
2.695685487316263e7 -2.7001304529227098e6 0.0
0.0 0.0 0.0

908094.653819928 7.675845019230993e6 0.0
7.675845019230993e6 -4.599305500354619e7 0.0
0.0 0.0 0.0

-3.464156710634008e6 1.3066876710002284e7 0.0
1.3066876710002284e7 9.715309694298211e6 0.0
0.0 0.0 0.0

1.7840662590840762e6 4.988166541658803e7 0.0
4.988166541658803e7 1.1125664253160197e6 0.0
0.0 0.0 0.0

-420325.4962673262 1.0517164611724576e7 0.0
1.0517164611724576e7 -7.260526451984961e7 0.0
0.0 0.0 0.0

1.833833062758477e6 4.82743684572787e7 0.0
4.82743684572787e7 892373.3047265217 0.0
0.0 0.0 0.0

1.6522931063572417e6 4.6792867186656974e7 0.0
4.6792867186656974e7 544762.8237262769 0.0
0.0 0.0 0.0

-949247.2972076401 3.606342989886654e7 0.0
3.606342989886654e7 -950113.6677756086 0.0
0.0 0.0 0.0

-891805.5628896719 3.70144826209232e7 0.0
3.70144826209232e7 -795061.7342276358 0.0
0.0 0.0 0.0

-898510.2011412621 3.796230263514433e7 0.0
3.796230263514433e7 -705778.2472954169 0.0
0.0 0.0 0.0

-885762.8885527162 3.886560967210164e7 0.0
3.886560967210164e7 -708871.7349776353 0.0
0.0 0.0 0.0

-902531.8948360471 3.978360475276105e7 0.0
3.978360475276105e7 -630450.3439361872 0.0
0.0 0.0 0.0

-941396.0017895254 4.075246826742691e7 0.0
4.075246826742691e7 -728001.9034378069 0.0
0.0 0.0 0.0

-4.620431430677427e6 1.7562220172971614e7 0.0
1.7562220172971614e7 1.3394891228538258e7 0.0
0.0 0.0 0.0

-811194.2307183201 4.171668830316193e7 0.0
4.171668830316193e7 -607395.9284730294 0.0
0.0 0.0 0.0

-1.0055654082887513e6 4.273544848120577e7 0.0
4.273544848120577e7 -598369.3799224738 0.0
0.0 0.0 0.0

-4.845065922072537e6 2.0344498319047213e7 0.0
2.0344498319047213e7 2.7320056487920392e7 0.0
0.0 0.0 0.0

1.4594060417902353e6 4.546876080355013e7 0.0
4.546876080355013e7 500090.43622475263 0.0
0.0 0.0 0.0

-1.2540285169874495e6 4.3694300553953625e7 0.0
4.3694300553953625e7 -560526.3327826612 0.0
0.0 0.0 0.0

-1.150865904973899e6 4.4887975813165046e7 0.0
4.4887975813165046e7 -390543.25643586344 0.0
0.0 0.0 0.0

1.354645741838842e6 4.4311403280636586e7 0.0
4.4311403280636586e7 405624.8969778099 0.0
0.0 0.0 0.0

-1.1431606794334531e6 2.01463483006853e7 0.0
2.01463483006853e7 -4.1543809630028964e6 0.0
0.0 0.0 0.0

-1.4953065642454436e6 4.61562535561274e7 0.0
4.61562535561274e7 -453719.12067238835 0.0
0.0 0.0 0.0

926976.0563851543 4.316609456561648e7 0.0
4.316609456561648e7 137380.13713343773 0.0
0.0 0.0 0.0

1.2265678331138056e6 4.2141474110438354e7 0.0
4.2141474110438354e7 163103.58423798613 0.0
0.0 0.0 0.0

946565.6303533236 4.1267222276747234e7 0.0
4.1267222276747234e7 95292.01278775613 0.0
0.0 0.0 0.0

635732.7551728386 4.023339493341726e7 0.0
4.023339493341726e7 74052.57026368985 0.0
0.0 0.0 0.0

567728.3445824338 3.93445216303801e7 0.0
3.93445216303801e7 35478.36487075384 0.0
0.0 0.0 0.0

283459.8446501325 3.84131511310398e7 0.0
3.84131511310398e7 3195.6072188127873 0.0
0.0 0.0 0.0

285994.16729131545 3.751497973135638e7 0.0
3.751497973135638e7 -5183.344224073735 0.0
0.0 0.0 0.0

210693.2437191754 3.658594879663505e7 0.0
3.658594879663505e7 -119618.01261540831 0.0
0.0 0.0 0.0

-835156.9503043415 3.0364739838963132e7 0.0
3.0364739838963132e7 -4.1738279266486387e6 0.0
0.0 0.0 0.0

-2.384927217083374e6 2.0719809523519237e7 0.0
2.0719809523519237e7 3.879015569955753e7 0.0
0.0 0.0 0.0

-1.952738043195603e6 4.746934276441784e7 0.0
4.746934276441784e7 -369258.546793137 0.0
0.0 0.0 0.0

1.399769272657942e6 9.548668242170181e6 0.0
9.548668242170181e6 -3.0870471296274982e7 0.0
0.0 0.0 0.0

-1.3272016186895587e6 2.930284810686066e7 0.0
2.930284810686066e7 3.628809777615619e6 0.0
0.0 0.0 0.0

-2.614131473037572e6 4.906937931638119e7 0.0
4.906937931638119e7 -159519.8902513471 0.0
0.0 0.0 0.0

-7.774811817191472e6 1.549447009237953e7 0.0
1.549447009237953e7 2.8539874011368275e7 0.0
0.0 0.0 0.0

-3.547348377641068e6 5.091189413683472e7 0.0
5.091189413683472e7 -230948.64626780455 0.0
0.0 0.0 0.0

-8.331922020281807e6 1.3669599319326345e7 0.0
1.3669599319326345e7 3.2704803463902716e7 0.0
0.0 0.0 0.0

-4.699691885057201e6 5.297039275784048e7 0.0
5.297039275784048e7 -360404.30111341015 0.0
0.0 0.0 0.0

1.0241956294748411e6 2.3926606022417046e7 0.0
2.3926606022417046e7 -2.0287339128029417e7 0.0
0.0 0.0 0.0

1.7636515615595505e6 1.3349742488035837e7 0.0
1.3349742488035837e7 -2.42822841499776e7 0.0
0.0 0.0 0.0

-2.900097560226897e6 1.714439037958291e7 0.0
1.714439037958291e7 -4.8112892199069366e7 0.0
0.0 0.0 0.0

-943627.2846987498 2.6444024128702708e7 0.0
2.6444024128702708e7 -1.4413491383998059e6 0.0
0.0 0.0 0.0

-1.2092733130569514e6 2.007689966613621e7 0.0
2.007689966613621e7 -1.1290472776965542e7 0.0
0.0 0.0 0.0

-535777.7168507853 2.871822316142306e7 0.0
2.871822316142306e7 -6.960933440933727e6 0.0
0.0 0.0 0.0

1.0135840053574042e6 2.420007592199298e7 0.0
2.420007592199298e7 -2.028866841016169e7 0.0
0.0 0.0 0.0

2.1685131563584898e6 1.60608551071698e6 0.0
1.60608551071698e6 -3.909378045502176e7 0.0
0.0 0.0 0.0

-2.5420860944277463e6 1.647314692038213e7 0.0
1.647314692038213e7 8.899187455724323e6 0.0
0.0 0.0 0.0

-5.919606681739738e6 5.553083023094043e7 0.0
5.553083023094043e7 51973.37578793452 0.0
0.0 0.0 0.0

1.5469658382772012e6 1.4491820877247341e7 0.0
1.4491820877247341e7 -2.0085875862005576e7 0.0
0.0 0.0 0.0

-7.857690493739134e6 1.3829059817265382e7 0.0
1.3829059817265382e7 3.6549814576898605e7 0.0
0.0 0.0 0.0

-1.064076650234729e6 2.3001416839078534e7 0.0
2.3001416839078534e7 -3.5229576037662276e6 0.0
0.0 0.0 0.0

1.8111733919760387e6 3.99994869059677e7 0.0
3.99994869059677e7 -1.7953206923104147e6 0.0
0.0 0.0 0.0

1.4598707418931238e6 8.5573546648242e6 0.0
8.5573546648242e6 -3.2652554263494436e7 0.0
0.0 0.0 0.0

-1.6645711099542672e7 4.747708650562861e7 0.0
4.747708650562861e7 5.519125482075543e6 0.0
0.0 0.0 0.0

-3.9739002624398004e6 1.96845064939614e7 0.0
1.96845064939614e7 1.4562356323248947e7 0.0
0.0 0.0 0.0

-2.09845629347898e7 3.35632660710695e7 0.0
3.35632660710695e7 2.809250942253326e6 0.0
0.0 0.0 0.0

4.36710197102389e6 2.3072348278426446e7 0.0
2.3072348278426446e7 2.023783313058351e7 0.0
0.0 0.0 0.0

-8.71402389815849e6 5.908308436556752e7 0.0
5.908308436556752e7 341861.9304026584 0.0
0.0 0.0 0.0

380908.2463780213 1.3981843294329181e7 0.0
1.3981843294329181e7 -3.921359957818373e7 0.0
0.0 0.0 0.0

-3.1949510366380583e6 1.947243473202563e7 0.0
1.947243473202563e7 8.910066268171338e6 0.0
0.0 0.0 0.0

1.9167524963784565e6 2.2600748355789028e7 0.0
2.2600748355789028e7 6.38917546533582e6 0.0
0.0 0.0 0.0

1.2659339232698418e6 1.0778718967098212e7 0.0
1.0778718967098212e7 -2.655914826710729e7 0.0
0.0 0.0 0.0

2.113551767577283e6 2.603654811352687e7 0.0
2.603654811352687e7 5.787438030150823e6 0.0
0.0 0.0 0.0

1.3539422762651332e6 1.054620340501949e7 0.0
1.054620340501949e7 -2.914859363819563e7 0.0
0.0 0.0 0.0

-186474.50395222683 2.0983122116010606e7 0.0
2.0983122116010606e7 -3.801078688016257e6 0.0
0.0 0.0 0.0

-1.0360251103645746e6 2.713480349983875e7 0.0
2.713480349983875e7 14705.51903859363 0.0
0.0 0.0 0.0

-1.53634836710476e6 2.748437415978158e7 0.0
2.748437415978158e7 -3.5816316511352067e6 0.0
0.0 0.0 0.0

990360.2461379105 1.1304827790832048e7 0.0
1.1304827790832048e7 -2.1140062660235003e7 0.0
0.0 0.0 0.0

3.674447308295421e7 2.961405433478012e7 0.0
2.961405433478012e7 1.3734391959183943e7 0.0
0.0 0.0 0.0

1.2755436232481478e6 1.5891813249762386e7 0.0
1.5891813249762386e7 -1.9503660698597036e7 0.0
0.0 0.0 0.0

-401980.9266313985 2.0429205290038668e7 0.0
2.0429205290038668e7 -8.696091565793313e6 0.0
0.0 0.0 0.0

-6.407143661161184e6 2.8831683017625626e7 0.0
2.8831683017625626e7 7.780579848910341e6 0.0
0.0 0.0 0.0

350882.36514065927 1.4468144202373719e7 0.0
1.4468144202373719e7 -1.0726460985621521e7 0.0
0.0 0.0 0.0

-3.925206738623469e6 2.9118295364503272e7 0.0
2.9118295364503272e7 1.4200811144503789e7 0.0
0.0 0.0 0.0

7.979768250646545e6 2.130557257982174e7 0.0
2.130557257982174e7 3.755334678032403e7 0.0
0.0 0.0 0.0

-6.355953926588032e6 1.6836834976107527e7 0.0
1.6836834976107527e7 2.413570264421265e7 0.0
0.0 0.0 0.0

-1.2816310700445432e7 6.314914004561378e7 0.0
6.314914004561378e7 -91274.31254320452 0.0
0.0 0.0 0.0

5.450005136215858e6 2.135077531554878e7 0.0
2.135077531554878e7 5.951366371478697e7 0.0
0.0 0.0 0.0

-2.594662172064246e6 2.0362227994742073e7 0.0
2.0362227994742073e7 -271562.8133649044 0.0
0.0 0.0 0.0

1.6628196656213751e7 2.6190621320363935e7 0.0
2.6190621320363935e7 6.4434774071040815e6 0.0
0.0 0.0 0.0

1.4787843309058975e6 7.89464236558995e6 0.0
7.89464236558995e6 -3.716037509632731e7 0.0
0.0 0.0 0.0

-576620.8048574757 1.430440853251228e7 0.0
1.430440853251228e7 -4.515517670585185e7 0.0
0.0 0.0 0.0

-3.1829128204536326e6 2.3445916172340326e7 0.0
2.3445916172340326e7 1.581357691401932e7 0.0
0.0 0.0 0.0

-2.0514317782494582e7 3.1642230891991284e7 0.0
3.1642230891991284e7 -1.5712592994932143e7 0.0
0.0 0.0 0.0

-1.5048939781885755e6 2.3259563526884977e7 0.0
2.3259563526884977e7 2.6431543084175335e6 0.0
0.0 0.0 0.0

-195888.89025093894 2.079171940784817e7 0.0
2.079171940784817e7 -1.606508826082683e7 0.0
0.0 0.0 0.0

-2.1400039915465165e7 4.46662780331276e7 0.0
4.46662780331276e7 6.862010801208496e6 0.0
0.0 0.0 0.0

899803.4855269529 1.4525140779877547e7 0.0
1.4525140779877547e7 -2.6080071328581378e7 0.0
0.0 0.0 0.0

-1.4250146265118183e6 2.4607059545093156e7 0.0
2.4607059545093156e7 2.6432513958822996e6 0.0
0.0 0.0 0.0

-4.5989456731347265e6 1.1855354874739088e7 0.0
1.1855354874739088e7 1.2399898492774464e7 0.0
0.0 0.0 0.0

-1.8553361010679295e6 2.3083172155444946e7 0.0
2.3083172155444946e7 1.3894151462009322e7 0.0
0.0 0.0 0.0

-959136.8716868525 9.806354741858068e7 0.0
9.806354741858068e7 6.697132887887251e6 0.0
0.0 0.0 0.0

-5.209328825763198e6 1.7609387484847788e7 0.0
1.7609387484847788e7 2.2305927208529454e7 0.0
0.0 0.0 0.0

-5.887862953592798e6 9.03850758767776e6 0.0
9.03850758767776e6 6.099583038252316e6 0.0
0.0 0.0 0.0

-660629.1386157918 2.8950281232414633e7 0.0
2.8950281232414633e7 -1.0511112993768477e6 0.0
0.0 0.0 0.0

-2.2472247476727646e6 2.842644393985596e7 0.0
2.842644393985596e7 5.368579608656519e6 0.0
0.0 0.0 0.0

276046.3721377901 2.5293728867811408e7 0.0
2.5293728867811408e7 -9.578238060226403e6 0.0
0.0 0.0 0.0

-1.623340533068671e6 2.8240985756098162e7 0.0
2.8240985756098162e7 -2.146869379115356e6 0.0
0.0 0.0 0.0

-9.967727968113061e6 4.723564971613043e6 0.0
4.723564971613043e6 2.1714090281609207e7 0.0
0.0 0.0 0.0

-16428.38581986376 2.386908348474492e7 0.0
2.386908348474492e7 -4.98096134424573e6 0.0
0.0 0.0 0.0

-2.4257946009582733e6 2.9579628099965397e7 0.0
2.9579628099965397e7 5.348686728264522e6 0.0
0.0 0.0 0.0

391007.32653677743 1.3098137598489342e7 0.0
1.3098137598489342e7 -1.795657124959531e7 0.0
0.0 0.0 0.0

1.2634058777629607e6 2.4453901878080346e7 0.0
2.4453901878080346e7 -3.4177307854909007e6 0.0
0.0 0.0 0.0

-2.461039674197847e7 3.211125214141565e7 0.0
3.211125214141565e7 -144031.26243200712 0.0
0.0 0.0 0.0

-3.9645115056170877e6 1.8372144699760124e7 0.0
1.8372144699760124e7 2.0175150437852714e7 0.0
0.0 0.0 0.0

803900.4731231155 2.3137375134722225e7 0.0
2.3137375134722225e7 -2.199195684549286e7 0.0
0.0 0.0 0.0

-2.876958841591147e6 3.0029545195317503e7 0.0
3.0029545195317503e7 7.82497613964473e6 0.0
0.0 0.0 0.0

2.880646964434879e6 2.2051280820119255e6 0.0
2.2051280820119255e6 -1.995582316825608e7 0.0
0.0 0.0 0.0

-6.845676133739714e6 -4.15260589418157e6 0.0
-4.15260589418157e6 1.3656799844032139e7 0.0
0.0 0.0 0.0

-5.327358073303748e6 -3.7240697606711527e6 0.0
-3.7240697606711527e6 1.0362577659161143e7 0.0
0.0 0.0 0.0

-7.3565197121713385e6 -1.9140062592551622e6 0.0
-1.9140062592551622e6 3.770709765544386e7 0.0
0.0 0.0 0.0

-4.0265200723920492e6 -1.9667429559311653e6 0.0
-1.9667429559311653e6 5.286940598687335e6 0.0
0.0 0.0 0.0

-7.498717229629526e6 -2.1588337277653455e6 0.0
-2.1588337277653455e6 3.466820410675346e7 0.0
0.0 0.0 0.0

3.127195133148932e6 2.421031522212238e6 0.0
2.421031522212238e6 -1.4881588435508592e7 0.0
0.0 0.0 0.0

-7.524422696464347e6 -3.8372677549598883e6 0.0
-3.8372677549598883e6 2.0752243464465115e7 0.0
0.0 0.0 0.0

-8.047922792238837e6 -3.0205750096803075e6 0.0
-3.0205750096803075e6 2.663170038897593e7 0.0
0.0 0.0 0.0

-1.8241501525652243e6 511020.79721656075 0.0
511020.79721656075 1.1627610784668734e6 0.0
0.0 0.0 0.0

-7.741143594553089e6 -2.3937647004787936e6 0.0
-2.3937647004787936e6 3.1554276928029306e7 0.0
0.0 0.0 0.0

2.605435732781396e6 2.6338724860061347e6 0.0
2.6338724860061347e6 -9.687805594730025e6 0.0
0.0 0.0 0.0

1.3200253911423094e6 2.4678239149134457e6 0.0
2.4678239149134457e6 -4.524877570284249e6 0.0
0.0 0.0 0.0

-6.919555903836696e6 -4.206371268346382e6 0.0
-4.206371268346382e6 1.60160463581697e7 0.0
0.0 0.0 0.0

2.382946764032621e6 1.6507229039798083e6 0.0
1.6507229039798083e6 -3.493294906997649e7 0.0
0.0 0.0 0.0

2.359232372813536e6 1.5776010137347088e6 0.0
1.5776010137347088e6 -3.806809774609884e7 0.0
0.0 0.0 0.0

2.5462912944354806e6 1.6628138610571038e6 0.0
1.6628138610571038e6 -3.172102145813271e7 0.0
0.0 0.0 0.0

3.0145750325979814e6 1.9556755194286546e6 0.0
1.9556755194286546e6 -2.6780632948157694e7 0.0
0.0 0.0 0.0

-7.762098460587272e6 -4.016385912018269e6 0.0
-4.016385912018269e6 1.8856952538516868e7 0.0
0.0 0.0 0.0

-7.484960645343747e6 -2.265690088236647e6 0.0
-2.265690088236647e6 3.2996465310998634e7 0.0
0.0 0.0 0.0

2.361642450549932e6 1.6686017149577162e6 0.0
1.6686017149577162e6 -3.66443245212634e7 0.0
0.0 0.0 0.0

2.7499760485899737e6 2.0942533499808456e6 0.0
2.0942533499808456e6 -2.3420538623946227e7 0.0
0.0 0.0 0.0

2.8628846156668104e6 2.0560533590847917e6 0.0
2.0560533590847917e6 -2.507003803162857e7 0.0
0.0 0.0 0.0

3.0147921494310414e6 2.119740530346391e6 0.0
2.119740530346391e6 -2.1774150796345923e7 0.0
0.0 0.0 0.0

1.2294003373356443e6 2.1019645769093573e7 0.0
2.1019645769093573e7 -1.9629410314368375e7 0.0
0.0 0.0 0.0

-7.04051244287212e6 1.6518995526418867e7 0.0
1.6518995526418867e7 2.699402587905304e7 0.0
0.0 0.0 0.0

-8.993067814752527e6 1.0971169031907706e7 0.0
1.0971169031907706e7 3.6611706307930335e7 0.0
0.0 0.0 0.0

-4.1607094315511025e6 3.0168205916371047e7 0.0
3.0168205916371047e7 1.265109186840246e7 0.0
0.0 0.0 0.0

-2.341177024948464e6 2.083461750933095e7 0.0
2.083461750933095e7 -3.257677363196953e7 0.0
0.0 0.0 0.0

-2.373836787614915e6 2.460838648625027e7 0.0
2.460838648625027e7 5.885354240726061e6 0.0
0.0 0.0 0.0

-1.931977427251104e7 6.902791281740108e7 0.0
6.902791281740108e7 -460586.2729686368 0.0
0.0 0.0 0.0

-2.449750536328758e6 2.1800817015974343e7 0.0
2.1800817015974343e7 -149200.6427306024 0.0
0.0 0.0 0.0

-6.762273452306925e6 2.5294814028118774e7 0.0
2.5294814028118774e7 -1.981983614542849e7 0.0
0.0 0.0 0.0

1.5440471215640554e7 2.8766500220067438e7 0.0
2.8766500220067438e7 1.6370611348564347e7 0.0
0.0 0.0 0.0

-2.8900411156936963e6 2.621480368430857e7 0.0
2.621480368430857e7 1.0903798039759964e7 0.0
0.0 0.0 0.0

-1.7968273298111958e6 2.442788821705727e7 0.0
2.442788821705727e7 1.3221634311005447e7 0.0
0.0 0.0 0.0

1.8533412606828725e6 2.6623179276666753e7 0.0
2.6623179276666753e7 -1.5366473145525388e7 0.0
0.0 0.0 0.0

-2.145144638620463e6 2.213272723697873e7 0.0
2.213272723697873e7 1.6039748844702305e7 0.0
0.0 0.0 0.0

-1.667828751838991e6 2.8975611816072155e7 0.0
2.8975611816072155e7 -866516.3489216937 0.0
0.0 0.0 0.0

-1.435128657637799e6 2.6693731732049994e7 0.0
2.6693731732049994e7 -5.057971949519504e6 0.0
0.0 0.0 0.0

-4.772678250083392e6 1.8175133479439653e7 0.0
1.8175133479439653e7 1.5366637206759263e7 0.0
0.0 0.0 0.0

-902103.8983772406 1.9220595766704746e7 0.0
1.9220595766704746e7 -1.301173889726538e7 0.0
0.0 0.0 0.0

-1.5946860692235574e6 2.2555710122505493e7 0.0
2.2555710122505493e7 4.2686790636079805e6 0.0
0.0 0.0 0.0

714618.5973629514 1.2212641054272393e7 0.0
1.2212641054272393e7 -1.9525051727107488e7 0.0
0.0 0.0 0.0

-6.884731697261317e6 -4.195911370570998e6 0.0
-4.195911370570998e6 1.554683671480861e7 0.0
0.0 0.0 0.0

-6.045524603481349e6 -3.6874524512720425e6 0.0
-3.6874524512720425e6 1.3418906607558038e7 0.0
0.0 0.0 0.0

-7.67966069684501e6 -2.437506683203839e6 0.0
-2.437506683203839e6 3.126479446373451e7 0.0
0.0 0.0 0.0

-7.4789066856752755e6 -3.911324804248273e6 0.0
-3.911324804248273e6 1.783159533958217e7 0.0
0.0 0.0 0.0

-7.765403468468121e6 -4.040358329966153e6 0.0
-4.040358329966153e6 1.9371675261989657e7 0.0
0.0 0.0 0.0

2.294865975865824e6 1.594888141293343e6 0.0
1.594888141293343e6 -3.512544003463218e7 0.0
0.0 0.0 0.0

2.219498986460859e6 1.5562571219658593e6 0.0
1.5562571219658593e6 -3.642374847071602e7 0.0
0.0 0.0 0.0

-7.488139816248035e6 -2.2674183591413745e6 0.0
-2.2674183591413745e6 3.314720170154185e7 0.0
0.0 0.0 0.0

2.7328455402773563e6 1.988307941305778e6 0.0
1.988307941305778e6 -2.5730243055456165e7 0.0
0.0 0.0 0.0

3.006963110276278e6 2.242340272506408e6 0.0
2.242340272506408e6 -2.034922562047245e7 0.0
0.0 0.0 0.0

2.8378672622612454e6 2.128189985195857e6 0.0
2.128189985195857e6 -2.3489927765966438e7 0.0
0.0 0.0 0.0

2.952615484462671e6 2.0803367350991298e6 0.0
2.0803367350991298e6 -2.187237905432941e7 0.0
0.0 0.0 0.0

-2.694302973626137e6 2.042049212398502e7 0.0
2.042049212398502e7 3.2117206507487893e6 0.0
0.0 0.0 0.0

-2.4931989618937876e6 2.1306947930642683e7 0.0
2.1306947930642683e7 3.622690499311718e7 0.0
0.0 0.0 0.0

-2.8166091420673337e6 2.16790950974637e7 0.0
2.16790950974637e7 1.9566685617461704e7 0.0
0.0 0.0 0.0

2.5738719162220974e6 6.360743109258548e6 0.0
6.360743109258548e6 -3.0337965853970118e7 0.0
0.0 0.0 0.0

927570.5241043097 3.262054868837795e7 0.0
3.262054868837795e7 -6.020892684553396e6 0.0
0.0 0.0 0.0

1.3698102626446458e6 2.4154028679805912e7 0.0
2.4154028679805912e7 2.844712302825865e7 0.0
0.0 0.0 0.0

-6.996580902206369e6 1.8221138645549525e7 0.0
1.8221138645549525e7 2.9661107922721386e7 0.0
0.0 0.0 0.0

1.1288577338459073e6 1.171943096353627e7 0.0
1.171943096353627e7 -2.4874746880622867e7 0.0
0.0 0.0 0.0

913247.2365977373 1.5118787367998654e7 0.0
1.5118787367998654e7 -2.6799984052635226e7 0.0
0.0 0.0 0.0

-1.6024602922322773e6 2.5408677332788415e7 0.0
2.5408677332788415e7 -5.384132461461319e6 0.0
0.0 0.0 0.0

678250.7399526779 2.355778738676707e7 0.0
2.355778738676707e7 3.1868710122314762e7 0.0
0.0 0.0 0.0

-2.959539464390369e6 1.4846277429956662e7 0.0
1.4846277429956662e7 9.26839401696355e6 0.0
0.0 0.0 0.0

172033.0619367226 2.6173502103381902e7 0.0
2.6173502103381902e7 -8.059557978779551e6 0.0
0.0 0.0 0.0

-617188.8846447456 3.1968498322583523e7 0.0
3.1968498322583523e7 448828.27018695057 0.0
0.0 0.0 0.0

986285.5164352618 1.723237193329029e7 0.0
1.723237193329029e7 -1.9136163171624158e7 0.0
0.0 0.0 0.0

-817475.31869207 2.7701386660683073e7 0.0
2.7701386660683073e7 -1.238443584401459e6 0.0
0.0 0.0 0.0

4.196394836805264e6 5.427572770071546e6 0.0
5.427572770071546e6 383783.1376398989 0.0
0.0 0.0 0.0

55265.07539191283 2.401912576268511e7 0.0
2.401912576268511e7 2.959130723960902e7 0.0
0.0 0.0 0.0

-572345.2561783567 1.282422016061959e7 0.0
1.282422016061959e7 -5.414655442137807e7 0.0
0.0 0.0 0.0

-24454.5705682002 1.4058813904667439e7 0.0
1.4058813904667439e7 -4.215883448202198e7 0.0
0.0 0.0 0.0

578.6447717621922 2.489566427049405e7 0.0
2.489566427049405e7 -8.513478815787058e6 0.0
0.0 0.0 0.0

-1.2230188896530887e7 3.084175130945742e7 0.0
3.084175130945742e7 5.323139551587246e6 0.0
0.0 0.0 0.0

2.4273614102036487e6 7.401619026919296e6 0.0
7.401619026919296e6 -1.5151111033484736e7 0.0
0.0 0.0 0.0

-1.6054763130207518e6 2.188616025919668e7 0.0
2.188616025919668e7 2.6502309958954966e6 0.0
0.0 0.0 0.0

-1.766445661134847e6 2.697387231810088e7 0.0
2.697387231810088e7 -2.359198424666624e6 0.0
0.0 0.0 0.0

-537212.7397096455 2.8216987543557588e7 0.0
2.8216987543557588e7 -2.4489185082530864e6 0.0
0.0 0.0 0.0

-2.8967592327689193e6 2.0859677521148067e7 0.0
2.0859677521148067e7 -3.5959781099770196e7 0.0
0.0 0.0 0.0

636236.7995527107 1.4785613207798172e7 0.0
1.4785613207798172e7 -3.446696416149045e7 0.0
0.0 0.0 0.0

-4.0993537321569347e6 1.5713188817384535e7 0.0
1.5713188817384535e7 7.74102093331253e6 0.0
0.0 0.0 0.0

-3.0776350337372543e6 2.3010070442786608e7 0.0
2.3010070442786608e7 1.449746366298319e7 0.0
0.0 0.0 0.0

-790884.6785340235 1.869145535184167e7 0.0
1.869145535184167e7 -3.665666950705874e7 0.0
0.0 0.0 0.0

504291.8045722884 2.945821816395722e7 0.0
2.945821816395722e7 -5.81132355936246e6 0.0
0.0 0.0 0.0

1.9160119096635845e6 2.529121279591784e6 0.0
2.529121279591784e6 -6.307733785426538e6 0.0
0.0 0.0 0.0

1.040415685997836e7 4.352439297976282e7 0.0
4.352439297976282e7 -4.306486307795474e6 0.0
0.0 0.0 0.0

2.0811420451360391e6 8.477551149272379e6 0.0
8.477551149272379e6 -1.371778140563797e7 0.0
0.0 0.0 0.0

-1.0889448338928176e6 1.865739290289116e7 0.0
1.865739290289116e7 -4.4780134813431315e6 0.0
0.0 0.0 0.0

-3.217043732880516e6 2.6582510787764803e7 0.0
2.6582510787764803e7 1.6098445075673832e7 0.0
0.0 0.0 0.0

-1.9770383012012197e6 1.8191037824547846e7 0.0
1.8191037824547846e7 4.581599839501379e6 0.0
0.0 0.0 0.0

-2.4396681627476476e6 2.0990872889448065e7 0.0
2.0990872889448065e7 -1.8731656619594172e6 0.0
0.0 0.0 0.0

-1.835588161984181e6 2.76744828143128e7 0.0
2.76744828143128e7 -935178.9005514856 0.0
0.0 0.0 0.0

-4.841768250654304e6 1.4039906570515383e7 0.0
1.4039906570515383e7 8.028025661985407e6 0.0
0.0 0.0 0.0

-9.570456018492553e6 2.2912649795191144e6 0.0
2.2912649795191144e6 2.0767573558724806e7 0.0
0.0 0.0 0.0

-2.0216178358038878e6 2.1676510438478395e7 0.0
2.1676510438478395e7 1.461469827023679e7 0.0
0.0 0.0 0.0

-1.561038820296554e6 2.4422128855435573e7 0.0
2.4422128855435573e7 8.61642280581068e6 0.0
0.0 0.0 0.0

-318632.606295235 8.500298244189989e6 0.0
8.500298244189989e6 -8.45411033945782e6 0.0
0.0 0.0 0.0

-3.058526689782598e6 1.9295674217452537e7 0.0
1.9295674217452537e7 1.7767639326417018e7 0.0
0.0 0.0 0.0

-1.3647971968900957e6 2.8747160158560466e7 0.0
2.8747160158560466e7 -3.3478749282782683e6 0.0
0.0 0.0 0.0

1.854533716615254e6 1.0978971154791897e7 0.0
1.0978971154791897e7 -3.6679626328720145e7 0.0
0.0 0.0 0.0

-1.1264297769996952e7 3.1171409157547962e7 0.0
3.1171409157547962e7 4.4297153431609925e6 0.0
0.0 0.0 0.0

-1.7563914910667688e6 2.4080171086609397e7 0.0
2.4080171086609397e7 -5.740561138510577e6 0.0
0.0 0.0 0.0

1.6168293790799854e6 2.6230400135223516e6 0.0
2.6230400135223516e6 -5.089217489188916e6 0.0
0.0 0.0 0.0

-5.1146646443785615e6 3.327555444444489e7 0.0
3.327555444444489e7 8.595562048647415e6 0.0
0.0 0.0 0.0

-9.498596514692344e6 1.371880871331123e7 0.0
1.371880871331123e7 2.5896210487826608e7 0.0
0.0 0.0 0.0

-2.157897234501066e6 2.300278244838953e7 0.0
2.300278244838953e7 -3.1352579579038327e6 0.0
0.0 0.0 0.0

-188675.6512563266 3.0602184101674374e7 0.0
3.0602184101674374e7 -2.0856553197632637e6 0.0
0.0 0.0 0.0

-1.5476900229911353e6 3.1394462452433076e7 0.0
3.1394462452433076e7 -533875.8249950228 0.0
0.0 0.0 0.0

-1.2530389714227244e6 2.7955140472146913e7 0.0
2.7955140472146913e7 -4.768176680435529e6 0.0
0.0 0.0 0.0

-1.1336387915376974e6 2.7764494062965587e7 0.0
2.7764494062965587e7 1.386166563543176e6 0.0
0.0 0.0 0.0

2.8070813473585355e6 2.550443710349247e6 0.0
2.550443710349247e6 -1.1369031701948386e7 0.0
0.0 0.0 0.0

1.8734299025975256e6 3.541060786278215e7 0.0
3.541060786278215e7 -5.2509600060602315e6 0.0
0.0 0.0 0.0

-2.2349005406020824e7 2.241039338827351e7 0.0
2.241039338827351e7 -9.517633140595594e7 0.0
0.0 0.0 0.0

2.2489820222081974e7 2.333673518119597e7 0.0
2.333673518119597e7 9.261747996870524e7 0.0
0.0 0.0 0.0

670655.4770094594 1.8877510873025183e7 0.0
1.8877510873025183e7 -2.5173941032724377e7 0.0
0.0 0.0 0.0

-20830.80907352874 2.7023541696028262e7 0.0
2.7023541696028262e7 -6.544760780632556e6 0.0
0.0 0.0 0.0

-6.594827239041088e6 2.085249556566043e7 0.0
2.085249556566043e7 -2.893459238910045e7 0.0
0.0 0.0 0.0

-1.8695771088924687e6 2.271529936337871e7 0.0
2.271529936337871e7 -6.134132709118303e6 0.0
0.0 0.0 0.0

2.324734483152508e6 2.6834112302075576e7 0.0
2.6834112302075576e7 -1.5665912966172896e7 0.0
0.0 0.0 0.0

-1.5025360664082193e6 2.0961695109628405e7 0.0
2.0961695109628405e7 -9.558375518585395e6 0.0
0.0 0.0 0.0

-1.9207592247179854e6 2.71189109157911e7 0.0
2.71189109157911e7 308779.01340524934 0.0
0.0 0.0 0.0

-507006.9487146288 1.1187143431959694e7 0.0
1.1187143431959694e7 -6.792271363997896e7 0.0
0.0 0.0 0.0

-1.189519161608252e7 2.937765024574577e7 0.0
2.937765024574577e7 3.585192178971599e6 0.0
0.0 0.0 0.0

-2.4115076809790167e6 2.6916363084628295e7 0.0
2.6916363084628295e7 8.417732627067674e6 0.0
0.0 0.0 0.0

-697542.9515094308 2.129794609589178e7 0.0
2.129794609589178e7 -6.95859898767665e6 0.0
0.0 0.0 0.0

673582.1227574889 1.5642494074339138e7 0.0
1.5642494074339138e7 -3.242523138640243e7 0.0
0.0 0.0 0.0

2.1981029942326836e7 2.4338031534887765e7 0.0
2.4338031534887765e7 7.327009916314676e7 0.0
0.0 0.0 0.0

1.1111041337112044e6 2.769583911692831e7 0.0
2.769583911692831e7 -1.0545099970741266e7 0.0
0.0 0.0 0.0

-3.2649320417250212e7 7.820774585178526e7 0.0
7.820774585178526e7 402191.7074243929 0.0
0.0 0.0 0.0

668932.6342671681 1.803432355027402e7 0.0
1.803432355027402e7 -2.6914447130488493e7 0.0
0.0 0.0 0.0

-424637.77191832813 2.7437514646215346e7 0.0
2.7437514646215346e7 -3.904653081768754e6 0.0
0.0 0.0 0.0

2.609310216169364e6 2.607665496502947e6 0.0
2.607665496502947e6 -1.0398896348254304e7 0.0
0.0 0.0 0.0

1.361397519753622e6 9.481413681019213e6 0.0
9.481413681019213e6 -3.593372454828097e7 0.0
0.0 0.0 0.0

-674157.8127625112 3.083590055837122e7 0.0
3.083590055837122e7 372689.6048097736 0.0
0.0 0.0 0.0

-1.0731171070706889e7 2.131685147463273e7 0.0
2.131685147463273e7 -5.543606244519488e7 0.0
0.0 0.0 0.0

-907576.4953176595 2.216333175837984e7 0.0
2.216333175837984e7 -5.219544620299466e6 0.0
0.0 0.0 0.0

895719.7219120031 1.4894977458026782e7 0.0
1.4894977458026782e7 -1.4897118691348206e7 0.0
0.0 0.0 0.0

-1.946315355647015e6 1.9527939608960833e7 0.0
1.9527939608960833e7 8.202499576323237e6 0.0
0.0 0.0 0.0

753707.9370729979 1.725714518769155e7 0.0
1.725714518769155e7 -2.8746998884072576e7 0.0
0.0 0.0 0.0

-3.1603513290360244e6 1.882914765397804e7 0.0
1.882914765397804e7 7.136001894200075e6 0.0
0.0 0.0 0.0

600579.34639729 2.2374829286574792e7 0.0
2.2374829286574792e7 -2.3741922930696838e7 0.0
0.0 0.0 0.0

-3.348225558306807e7 3.6037001204826415e7 0.0
3.6037001204826415e7 -1.6797377371975914e7 0.0
0.0 0.0 0.0

-7.943526734246986e6 -3.5533794743695515e6 0.0
-3.5533794743695515e6 2.2915791328334697e7 0.0
0.0 0.0 0.0

-2.249136209577623e6 1.9187758996509977e7 0.0
1.9187758996509977e7 1.2152045950454902e7 0.0
0.0 0.0 0.0

-915076.4305716634 2.8378531902814105e7 0.0
2.8378531902814105e7 182996.6524489993 0.0
0.0 0.0 0.0

-5.259546030241378e6 3.2343007612529043e6 0.0
3.2343007612529043e6 6.2366548744774036e7 0.0
0.0 0.0 0.0

2.1867273741068025e6 2.4407206356176596e7 0.0
2.4407206356176596e7 1.8876522357965164e7 0.0
0.0 0.0 0.0

-1.7190120627493851e6 2.183805354963106e7 0.0
2.183805354963106e7 -7.845024240685056e6 0.0
0.0 0.0 0.0

1.8673497466599522e6 2.6694764890082944e7 0.0
2.6694764890082944e7 -1.4423244207282368e7 0.0
0.0 0.0 0.0

-531688.5882670372 2.3606903641790934e7 0.0
2.3606903641790934e7 -1.2344659384996273e7 0.0
0.0 0.0 0.0

-1.6476379014593388e6 1.7491106220840704e7 0.0
1.7491106220840704e7 -9.165983368437009e6 0.0
0.0 0.0 0.0

-1.0309923473876154e6 2.6266601212878775e7 0.0
2.6266601212878775e7 -7.73061562314331e6 0.0
0.0 0.0 0.0

-2.417591169238846e6 2.2959639221191216e7 0.0
2.2959639221191216e7 1.8603068149070505e7 0.0
0.0 0.0 0.0

-1.4850136882180437e6 2.3903272646782286e7 0.0
2.3903272646782286e7 4.1854885604883432e6 0.0
0.0 0.0 0.0

-2.320168842846219e6 2.2419131704131592e7 0.0
2.2419131704131592e7 -1.7050857068223534e6 0.0
0.0 0.0 0.0

1.2258119215830583e6 9.412384334902354e6 0.0
9.412384334902354e6 -4.688407550549459e7 0.0
0.0 0.0 0.0

-6.610178868586646e6 3.3966274903786026e7 0.0
3.3966274903786026e7 8.68513074651491e6 0.0
0.0 0.0 0.0

-8.177722344924651e6 2.9621072050883393e6 0.0
2.9621072050883393e6 1.6063724496525574e7 0.0
0.0 0.0 0.0

-2.277800644540594e6 2.255831381913919e7 0.0
2.255831381913919e7 1.736853682172104e7 0.0
0.0 0.0 0.0

442798.188653965 1.5123163590934234e7 0.0
1.5123163590934234e7 -1.203840496503472e7 0.0
0.0 0.0 0.0

2.3529003627791572e6 3.3713786275300463e6 0.0
3.3713786275300463e6 -2.8492069876947906e7 0.0
0.0 0.0 0.0

697539.2977999356 1.640241934835815e7 0.0
1.640241934835815e7 -3.0675740720494144e7 0.0
0.0 0.0 0.0

-6.827866415938774e6 9.907000343493901e6 0.0
9.907000343493901e6 8.542390227145307e6 0.0
0.0 0.0 0.0

-6.672073061700327e6 1.7432702541538216e7 0.0
1.7432702541538216e7 3.6607765990054935e7 0.0
0.0 0.0 0.0

-1.5013002725044978e6 2.4566365605671175e7 0.0
2.4566365605671175e7 -6.970349720022944e6 0.0
0.0 0.0 0.0

-7.888065144607623e6 -3.6725950678096344e6 0.0
-3.6725950678096344e6 2.145500051258125e7 0.0
0.0 0.0 0.0

-3.5708396414059075e6 1.7303301814260043e7 0.0
1.7303301814260043e7 7.435459526161785e6 0.0
0.0 0.0 0.0

1.958771248205755e6 2.758134292285285e7 0.0
2.758134292285285e7 -1.2881387405313125e7 0.0
0.0 0.0 0.0

-3.764208383451719e6 2.3451730406736415e7 0.0
2.3451730406736415e7 -2.5410204688180663e7 0.0
0.0 0.0 0.0

501469.2510419581 1.5055361741881903e7 0.0
1.5055361741881903e7 -2.103381259940528e7 0.0
0.0 0.0 0.0

-1.123468392532983e6 1.1755507039290406e7 0.0
1.1755507039290406e7 -7.964052528216394e6 0.0
0.0 0.0 0.0

-847129.876607161 2.354346143196769e7 0.0
2.354346143196769e7 -4.850668890414059e6 0.0
0.0 0.0 0.0

-169703.33567713015 2.2404785704508837e7 0.0
2.2404785704508837e7 3.467322706201838e7 0.0
0.0 0.0 0.0

-1.2653649739194552e6 3.1792115754479624e7 0.0
3.1792115754479624e7 -1.6423206713930536e6 0.0
0.0 0.0 0.0

-4.0083003415058907e6 2.3565667896399476e7 0.0
2.3565667896399476e7 2.5114476335348867e7 0.0
0.0 0.0 0.0

-2.13400508296281e6 2.643789672653839e7 0.0
2.643789672653839e7 1.4755546268963076e7 0.0
0.0 0.0 0.0

-419056.39879142446 1.3391065712202389e7 0.0
1.3391065712202389e7 -1.207601244934263e7 0.0
0.0 0.0 0.0

-2.2115535474819746e6 1.8027702657092284e7 0.0
1.8027702657092284e7 8.542459175962059e6 0.0
0.0 0.0 0.0

1.4751724234092394e6 2.4010994850156836e7 0.0
2.4010994850156836e7 1.889111637088378e7 0.0
0.0 0.0 0.0

-1.9486047918126646e6 1.8404080728670184e7 0.0
1.8404080728670184e7 -7.320329395582954e6 0.0
0.0 0.0 0.0

-661322.5986987352 1.909666728875653e7 0.0
1.909666728875653e7 -3.377439139315489e7 0.0
0.0 0.0 0.0

-741439.6981354994 2.487796111347767e7 0.0
2.487796111347767e7 -4.501643889091932e6 0.0
0.0 0.0 0.0

621998.3581337007 1.968173646394821e7 0.0
1.968173646394821e7 -2.3477110024699338e7 0.0
0.0 0.0 0.0

-1.808598367991685e6 2.0369680284084987e7 0.0
2.0369680284084987e7 6.194618268066649e6 0.0
0.0 0.0 0.0

-1.181533838663076e7 2.0198315910507597e7 0.0
2.0198315910507597e7 -4.1502911734781176e7 0.0
0.0 0.0 0.0

-596623.0343728723 2.617439237880293e7 0.0
2.617439237880293e7 -4.194561647765159e6 0.0
0.0 0.0 0.0

1.0105721971169926e7 2.650041331922348e7 0.0
2.650041331922348e7 793799.7159223435 0.0
0.0 0.0 0.0

-5.277912397038832e6 5.633617140255111e6 0.0
5.633617140255111e6 6.1036766785846926e7 0.0
0.0 0.0 0.0

-1.1307722295371357e7 4.68052312596389e7 0.0
4.68052312596389e7 5.051456150024322e6 0.0
0.0 0.0 0.0

-3.071439896897902e6 2.6792887903366055e7 0.0
2.6792887903366055e7 1.285771451464104e7 0.0
0.0 0.0 0.0

-4.3372675002394505e6 1.8235650568355422e7 0.0
1.8235650568355422e7 4.068345675727277e7 0.0
0.0 0.0 0.0

-3.5731706845253883e6 3.0208544419450276e7 0.0
3.0208544419450276e7 1.1663702514425728e7 0.0
0.0 0.0 0.0

-1.715455283637684e6 2.046101605291934e7 0.0
2.046101605291934e7 2.6414756050365344e6 0.0
0.0 0.0 0.0

-461425.6716558351 2.181421859191801e7 0.0
2.181421859191801e7 -8.220674530916035e6 0.0
0.0 0.0 0.0

-585746.8020388456 2.4035479052898284e7 0.0
2.4035479052898284e7 -6.105749092885622e6 0.0
0.0 0.0 0.0

-1.653280010932045e6 1.3283379530822119e7 0.0
1.3283379530822119e7 638820.2919976715 0.0
0.0 0.0 0.0

2.0484994619189454e6 2.851533672285705e7 0.0
2.851533672285705e7 -1.1473666788173828e7 0.0
0.0 0.0 0.0

1.670278256682463e6 7.384404505544947e6 0.0
7.384404505544947e6 -2.7793914878068417e7 0.0
0.0 0.0 0.0

936605.6645531305 7.603681572916418e6 0.0
7.603681572916418e6 -1.2433033419276118e7 0.0
0.0 0.0 0.0

-2.440138931182594e6 2.5746438562847465e7 0.0
2.5746438562847465e7 1.7682763389197167e7 0.0
0.0 0.0 0.0

-1.0019168914536128e6 3.110585588185873e7 0.0
3.110585588185873e7 -2.932402991642174e6 0.0
0.0 0.0 0.0

8.94081785301994e6 2.697316626104841e7 0.0
2.697316626104841e7 -2.0331730549724842e6 0.0
0.0 0.0 0.0

-1.57585808256955e7 3.323366291600391e7 0.0
3.323366291600391e7 4.670782591277499e6 0.0
0.0 0.0 0.0

1.4993499112515552e6 7.200472038093917e6 0.0
7.200472038093917e6 -1.8188958318629645e7 0.0
0.0 0.0 0.0

-2.2167829681228967e6 1.9276080233601242e7 0.0
1.9276080233601242e7 -5.497200565204797e6 0.0
0.0 0.0 0.0

6.519004744904736e7 2.157197604915794e7 0.0
2.157197604915794e7 4.555987322022092e6 0.0
0.0 0.0 0.0

-818868.496436012 1.218500497434815e7 0.0
1.218500497434815e7 -9.695504511098232e6 0.0
0.0 0.0 0.0

1.4757176526881047e6 7.635579241673149e6 0.0
7.635579241673149e6 -3.439612004010779e7 0.0
0.0 0.0 0.0

-2.5993488025663216e6 2.1850801542219423e7 0.0
2.1850801542219423e7 3.3895299301754124e7 0.0
0.0 0.0 0.0

740344.3535760157 2.1000224837719038e7 0.0
2.1000224837719038e7 -2.511685677699277e7 0.0
0.0 0.0 0.0

-7.462095042961776e6 1.5202049697447496e7 0.0
1.5202049697447496e7 2.469185258133115e7 0.0
0.0 0.0 0.0

-1.782707563963462e7 4.43211801542088e7 0.0
4.43211801542088e7 5.788686759411659e6 0.0
0.0 0.0 0.0

-2.66713310164511e6 2.2385688550862193e7 0.0
2.2385688550862193e7 3.1742237884929154e7 0.0
0.0 0.0 0.0

-4.459548231929584e6 3.1208213447859798e7 0.0
3.1208213447859798e7 1.1171748318677895e7 0.0
0.0 0.0 0.0

-2.8547545726440787e7 3.3186213663956136e7 0.0
3.3186213663956136e7 -1.6003040033666955e7 0.0
0.0 0.0 0.0

-2.416651592161204e6 2.254191090804089e7 0.0
2.254191090804089e7 1.5249600281113975e6 0.0
0.0 0.0 0.0

6.068182783013274e7 7.861181303398741e6 0.0
7.861181303398741e6 209690.26332935318 0.0
0.0 0.0 0.0

385744.71151117096 2.455327832255685e7 0.0
2.455327832255685e7 -1.1131789331299288e7 0.0
0.0 0.0 0.0

-1.9713519976208357e6 2.1019122192095652e7 0.0
2.1019122192095652e7 -825704.2787136035 0.0
0.0 0.0 0.0

2.0806019042242928e6 2.9416435998348594e7 0.0
2.9416435998348594e7 -1.0025445845441483e7 0.0
0.0 0.0 0.0

-1.916046144345716e7 2.861302094101493e7 0.0
2.861302094101493e7 -8.2959014027764e6 0.0
0.0 0.0 0.0

-466250.3635362028 1.1441805153804595e7 0.0
1.1441805153804595e7 -3.3177227363955425e6 0.0
0.0 0.0 0.0

-2.85295624545148e6 2.633423818711218e7 0.0
2.633423818711218e7 1.8645544405265603e7 0.0
0.0 0.0 0.0

-5.493130964588538e6 2.1460147263286874e7 0.0
2.1460147263286874e7 -2.6886545338851996e7 0.0
0.0 0.0 0.0

-9.112310358351529e6 8.230682035511764e6 0.0
8.230682035511764e6 3.7327279866020605e7 0.0
0.0 0.0 0.0

-1.3502539875650147e6 3.0666744112614714e7 0.0
3.0666744112614714e7 -1.8360679066482596e6 0.0
0.0 0.0 0.0

-1.583907030937117e6 2.1151397715172462e7 0.0
2.1151397715172462e7 950910.8735908592 0.0
0.0 0.0 0.0

-359000.394996792 3.130217253667313e7 0.0
3.130217253667313e7 -838765.3959456758 0.0
0.0 0.0 0.0

646066.8875445612 2.1715047665633935e7 0.0
2.1715047665633935e7 -1.4709212608501488e7 0.0
0.0 0.0 0.0

-6.656250199085173e6 1.144481906858687e7 0.0
1.144481906858687e7 1.6743790216897901e7 0.0
0.0 0.0 0.0

-3.147775129184491e6 3.1078933819963485e7 0.0
3.1078933819963485e7 7.605100796320604e6 0.0
0.0 0.0 0.0

-2.8459569021210084e6 2.549719588486508e7 0.0
2.549719588486508e7 2.1420807014090415e7 0.0
0.0 0.0 0.0

-2.0647176026069596e6 2.5167735518133126e7 0.0
2.5167735518133126e7 1.5606780347224936e7 0.0
0.0 0.0 0.0

-805407.3706338722 1.7796524565070745e7 0.0
1.7796524565070745e7 -6.327138754716028e6 0.0
0.0 0.0 0.0

418056.59047027305 1.4764411537826028e7 0.0
1.4764411537826028e7 -3.703650132098289e7 0.0
0.0 0.0 0.0

-2.227921088301529e6 2.4571058527888138e7 0.0
2.4571058527888138e7 3.0256166022442733e6 0.0
0.0 0.0 0.0

751834.437148192 2.379651109815439e7 0.0
2.379651109815439e7 -1.805201426280531e7 0.0
0.0 0.0 0.0

-35812.85104463156 2.1349085877736647e7 0.0
2.1349085877736647e7 -1.6916326004684504e7 0.0
0.0 0.0 0.0

898223.5565640545 3.1596853705319095e7 0.0
3.1596853705319095e7 -7.340791431341123e6 0.0
0.0 0.0 0.0

-412232.2552811713 2.4910777345509857e7 0.0
2.4910777345509857e7 -1.1693740442390224e7 0.0
0.0 0.0 0.0

963971.0779414177 1.5197648967544947e7 0.0
1.5197648967544947e7 -2.9373042232606366e7 0.0
0.0 0.0 0.0

1.2739140279316297e6 7.745431537500419e6 0.0
7.745431537500419e6 -7.238246337962729e6 0.0
0.0 0.0 0.0

-3.495765407254494e6 7.705109676475245e6 0.0
7.705109676475245e6 8.314289736418841e6 0.0
0.0 0.0 0.0

2.3761829299480147e6 4.2709482248757616e7 0.0
4.2709482248757616e7 -987542.9757810675 0.0
0.0 0.0 0.0

-2.357807098913126e6 2.32226676162922e7 0.0
2.32226676162922e7 3.1190939550166456e6 0.0
0.0 0.0 0.0

-737686.3280819361 2.6660734755415093e7 0.0
2.6660734755415093e7 -8.854099356056208e6 0.0
0.0 0.0 0.0

2.855167527375292e6 4.238432749630626e6 0.0
4.238432749630626e6 -1.7190622786714442e7 0.0
0.0 0.0 0.0

-5.512077990311824e6 8.237427816440008e6 0.0
8.237427816440008e6 6.1802054842097595e7 0.0
0.0 0.0 0.0

978535.330498416 1.196625363885138e7 0.0
1.196625363885138e7 -2.220515195075875e7 0.0
0.0 0.0 0.0

1.0491501128454294e7 3.2463938275952727e7 0.0
3.2463938275952727e7 -6.657537929004895e6 0.0
0.0 0.0 0.0

3.291885076201997e6 3.381475263357919e7 0.0
3.381475263357919e7 -6.685633947251931e6 0.0
0.0 0.0 0.0

-3.1639088758769077e6 3.1891069088177457e7 0.0
3.1891069088177457e7 6.340530402468519e6 0.0
0.0 0.0 0.0

1.753890148821773e6 3.561979154335552e6 0.0
3.561979154335552e6 -4.105870946045363e7 0.0
0.0 0.0 0.0

-93887.05350802117 2.7878109913151108e7 0.0
2.7878109913151108e7 -5.064736415638104e6 0.0
0.0 0.0 0.0

815366.6982484101 2.972680243176268e7 0.0
2.972680243176268e7 -6.881171388252006e6 0.0
0.0 0.0 0.0

1.2495377499536034e6 8.709894520528203e6 0.0
8.709894520528203e6 -3.791382896923765e7 0.0
0.0 0.0 0.0

315980.7798133411 3.413244442134323e7 0.0
3.413244442134323e7 -3.9121819695301927e6 0.0
0.0 0.0 0.0

5.178389536195933e6 2.7664951817697268e7 0.0
2.7664951817697268e7 -9.3453964545114e6 0.0
0.0 0.0 0.0

-1.142226376484615e6 2.7128053354174104e7 0.0
2.7128053354174104e7 -6.229619136006726e6 0.0
0.0 0.0 0.0

-1.8880788426168654e6 2.002901476273377e7 0.0
2.002901476273377e7 -3.658887367519238e7 0.0
0.0 0.0 0.0

1.1915146169532118e6 8.266816787154034e6 0.0
8.266816787154034e6 -1.6593717380619114e7 0.0
0.0 0.0 0.0

121723.14592403825 1.462912396012099e7 0.0
1.462912396012099e7 -1.7483611652513735e7 0.0
0.0 0.0 0.0

481748.91530992044 2.7946563668959245e7 0.0
2.7946563668959245e7 -9.82543385427857e6 0.0
0.0 0.0 0.0

4.1067223208283447e6 2.748369733563604e7 0.0
2.748369733563604e7 -1.1499455236737259e7 0.0
0.0 0.0 0.0

-523301.13628913276 2.570295525103777e7 0.0
2.570295525103777e7 -1.0257332643211113e7 0.0
0.0 0.0 0.0

2.2111453236779217e6 9.14145455497636e6 0.0
9.14145455497636e6 -1.7726928508232877e7 0.0
0.0 0.0 0.0

2.435737730171537e6 5.065194348948403e6 0.0
5.065194348948403e6 -3.403384219264294e7 0.0
0.0 0.0 0.0

485715.4560354557 2.1345826735121004e7 0.0
2.1345826735121004e7 -2.014937723209754e7 0.0
0.0 0.0 0.0

-233854.72085955646 1.547498432071184e7 0.0
1.547498432071184e7 -1.583926913189177e7 0.0
0.0 0.0 0.0

-2.563304040982126e6 2.1128059891410004e7 0.0
2.1128059891410004e7 1.484986222244809e6 0.0
0.0 0.0 0.0

-1.3103988072602432e7 3.375753829693872e7 0.0
3.375753829693872e7 6.173034749799125e6 0.0
0.0 0.0 0.0

4.313843854270652e6 1.7631852330467746e7 0.0
1.7631852330467746e7 9.682118967145349e7 0.0
0.0 0.0 0.0

-9.580593846162349e6 8.919355148070535e6 0.0
8.919355148070535e6 3.4357978484470166e7 0.0
0.0 0.0 0.0

3.4181694824917195e6 3.144584495592541e7 0.0
3.144584495592541e7 -9.988558036341913e6 0.0
0.0 0.0 0.0

-2.5004941790510397e6 2.1842905273824666e7 0.0
2.1842905273824666e7 3.169442465674296e6 0.0
0.0 0.0 0.0

-6.703543694862578e6 1.0747155913216686e7 0.0
1.0747155913216686e7 4.84963148090307e7 0.0
0.0 0.0 0.0

2.540397034813635e6 5.095988000885731e6 0.0
5.095988000885731e6 -2.9958405290690802e7 0.0
0.0 0.0 0.0

-1.5407504654558615e6 2.317549756797001e7 0.0
2.317549756797001e7 5.853603813884138e6 0.0
0.0 0.0 0.0

280428.2230152134 2.0465821148222227e7 0.0
2.0465821148222227e7 -2.7508561665115267e7 0.0
0.0 0.0 0.0

2.101383930080692e6 3.0420032174662657e7 0.0
3.0420032174662657e7 -8.780289542272927e6 0.0
0.0 0.0 0.0

290592.0112845679 2.8244268169872243e7 0.0
2.8244268169872243e7 -6.179126050951371e6 0.0
0.0 0.0 0.0

-3.2425616287434627e6 2.006755577665408e7 0.0
2.006755577665408e7 1.0588372840613334e7 0.0
0.0 0.0 0.0

-1.2720134496729348e6 2.24095071990522e7 0.0
2.24095071990522e7 -2.1179890641673943e6 0.0
0.0 0.0 0.0

-8.077451761702903e6 1.3381012312886897e7 0.0
1.3381012312886897e7 1.6495399161085209e7 0.0
0.0 0.0 0.0

-6.169538725892726e7 3.353151137943356e7 0.0
3.353151137943356e7 -325360.49685326964 0.0
0.0 0.0 0.0

7.782754233592978e6 2.7198512309978623e7 0.0
2.7198512309978623e7 1.4792387507207979e7 0.0
0.0 0.0 0.0

-2.648627064281717e6 2.7854979557043616e7 0.0
2.7854979557043616e7 1.483120695108203e7 0.0
0.0 0.0 0.0

-900906.5055681902 3.3693281480667405e7 0.0
3.3693281480667405e7 1.6080507588065395e6 0.0
0.0 0.0 0.0

1.1955558885263838e6 1.1477153594296591e7 0.0
1.1477153594296591e7 -2.752897010940799e7 0.0
0.0 0.0 0.0

1.4157573702750355e6 9.283786109479615e6 0.0
9.283786109479615e6 -3.362500292854357e7 0.0
0.0 0.0 0.0

1.4186574527408835e6 1.1784578117457744e7 0.0
1.1784578117457744e7 -4.009382862232749e7 0.0
0.0 0.0 0.0

-2.838622488167973e6 2.031524335118207e7 0.0
2.031524335118207e7 6.835552943419667e6 0.0
0.0 0.0 0.0

-7.468232824638022e6 1.681809633422656e7 0.0
1.681809633422656e7 3.3615088719846115e7 0.0
0.0 0.0 0.0

-5.651313000162537e6 1.421818194137156e7 0.0
1.421818194137156e7 1.7804190149219815e7 0.0
0.0 0.0 0.0

7.460090432246226e6 2.739446910068194e7 0.0
2.739446910068194e7 -4.589869209314166e6 0.0
0.0 0.0 0.0

-4.465270915491015e6 2.20248066935962e7 0.0
2.20248066935962e7 -2.4526960397196457e7 0.0
0.0 0.0 0.0

-3.8165492749718674e6 3.1348360147830315e7 0.0
3.1348360147830315e7 9.514192932899984e6 0.0
0.0 0.0 0.0

1.1469531303887332e7 4.141068589869855e7 0.0
4.141068589869855e7 -4.864580411965528e6 0.0
0.0 0.0 0.0

-1.087096472017226e7 3.400171042481258e7 0.0
3.400171042481258e7 7.322696548197728e6 0.0
0.0 0.0 0.0

-2.9701758925826326e6 2.395392009488053e7 0.0
2.395392009488053e7 2.5502269343487777e7 0.0
0.0 0.0 0.0

-551529.0861416198 8.188913613618905e6 0.0
8.188913613618905e6 -6.671842125750036e7 0.0
0.0 0.0 0.0

248340.31269419286 2.0573398774560872e7 0.0
2.0573398774560872e7 -1.2821942418582877e7 0.0
0.0 0.0 0.0

2.898520037431916e6 2.557052204094933e6 0.0
2.557052204094933e6 -1.3753771129198434e7 0.0
0.0 0.0 0.0

1.6636546586164944e6 9.94164664117966e6 0.0
9.94164664117966e6 -4.153712718121782e7 0.0
0.0 0.0 0.0

-3.0899196697938927e6 3.268525511249601e7 0.0
3.268525511249601e7 5.135668238649851e6 0.0
0.0 0.0 0.0

-6.743479814686103e6 1.731914172588385e7 0.0
1.731914172588385e7 3.1325618610658515e7 0.0
0.0 0.0 0.0

-3.1366427056080624e6 2.3259056598983612e7 0.0
2.3259056598983612e7 2.7697412098007664e7 0.0
0.0 0.0 0.0

-2.9507928360556355e6 2.885579585216986e7 0.0
2.885579585216986e7 1.3853928563985068e7 0.0
0.0 0.0 0.0

1.7687014775319835e6 1.2258938769698095e7 0.0
1.2258938769698095e7 -1.9615434585755352e7 0.0
0.0 0.0 0.0

-9.971021084238254e6 2.8157727520086315e7 0.0
2.8157727520086315e7 -1.5238026923880428e7 0.0
0.0 0.0 0.0

3.1828825292115826e6 4.237397996594566e7 0.0
4.237397996594566e7 -3.064637772614587e6 0.0
0.0 0.0 0.0

-4.541316167509384e6 3.4050638413583696e7 0.0
3.4050638413583696e7 6.939449449660383e6 0.0
0.0 0.0 0.0

-2.650838080884291e6 2.2946564906970743e7 0.0
2.2946564906970743e7 2.9648639960154947e7 0.0
0.0 0.0 0.0

-4.497653286019504e6 8.510912780418004e7 0.0
8.510912780418004e7 -1.277072068622747e7 0.0
0.0 0.0 0.0

-7.804855894723679e6 2.719444008763015e7 0.0
2.719444008763015e7 -1.776660142453711e7 0.0
0.0 0.0 0.0

-2.974275011221067e6 2.255133480634123e7 0.0
2.255133480634123e7 1.3079962596308727e7 0.0
0.0 0.0 0.0

-1.0691976190740865e7 5.319063769893636e6 0.0
5.319063769893636e6 2.0041129390286434e7 0.0
0.0 0.0 0.0

-667285.3465459684 2.2693906405771397e7 0.0
2.2693906405771397e7 -6.51805928230375e6 0.0
0.0 0.0 0.0

-1.5684747382866245e7 2.911207278729573e7 0.0
2.911207278729573e7 -8.822218367120609e6 0.0
0.0 0.0 0.0

-1.1757771352128271e7 4.452376606613037e7 0.0
4.452376606613037e7 4.549564036750261e6 0.0
0.0 0.0 0.0

394470.77580331964 2.6475722769685876e7 0.0
2.6475722769685876e7 -9.010032479642527e6 0.0
0.0 0.0 0.0

-195185.80728793936 2.8985964747119866e7 0.0
2.8985964747119866e7 -7.962838118659179e6 0.0
0.0 0.0 0.0

-9.271831222625747e6 6.500282591151963e6 0.0
6.500282591151963e6 3.0903921668380406e7 0.0
0.0 0.0 0.0

2.544289258485548e6 6.513686190290677e6 0.0
6.513686190290677e6 -2.641457314041194e7 0.0
0.0 0.0 0.0

3.8189398029548908e6 4.101897814686963e7 0.0
4.101897814686963e7 -2.235538074004171e6 0.0
0.0 0.0 0.0

-2.89138243367312e6 2.471039705761452e7 0.0
2.471039705761452e7 2.3493273712661285e7 0.0
0.0 0.0 0.0

-2.1377677805363126e7 3.0938301152033918e7 0.0
3.0938301152033918e7 -5.260159733665097e6 0.0
0.0 0.0 0.0

-3.6793872115656035e6 7.0690191087472085e6 0.0
7.0690191087472085e6 977891.6042462396 0.0
0.0 0.0 0.0

-1.7646683711192742e7 3.0861540408300854e7 0.0
3.0861540408300854e7 -1.4413132100188214e7 0.0
0.0 0.0 0.0

-800047.1647307028 2.7502921263114166e7 0.0
2.7502921263114166e7 -7.33536713598039e6 0.0
0.0 0.0 0.0

562523.3779541282 2.0518843790256903e7 0.0
2.0518843790256903e7 -2.1786054673469063e7 0.0
0.0 0.0 0.0

-480532.273600128 2.534412117931631e7 0.0
2.534412117931631e7 -5.738433920034692e6 0.0
0.0 0.0 0.0

953692.1625289172 1.2624293409468537e7 0.0
1.2624293409468537e7 -2.3236761050108805e7 0.0
0.0 0.0 0.0

-1.1708581086940016e6 2.6543823538102694e7 0.0
2.6543823538102694e7 1.332937729001476e6 0.0
0.0 0.0 0.0

-1.0730976282660145e7 7.772892189439221e6 0.0
7.772892189439221e6 1.929056666113715e7 0.0
0.0 0.0 0.0

-6.1626737529842965e6 1.7400040895021826e7 0.0
1.7400040895021826e7 2.533775241264554e7 0.0
0.0 0.0 0.0

-2.2989279963441547e6 1.973676935139499e7 0.0
1.973676935139499e7 1.3804255149376724e7 0.0
0.0 0.0 0.0

-7.670873639083798e6 2.1581074693489384e7 0.0
2.1581074693489384e7 -2.4051520864397496e7 0.0
0.0 0.0 0.0

-1.9303645818867395e6 2.0106005209300376e7 0.0
2.0106005209300376e7 9.904350053103864e6 0.0
0.0 0.0 0.0

-4.9601691032341845e7 3.771172083391883e7 0.0
3.771172083391883e7 -1.1517902421607314e7 0.0
0.0 0.0 0.0

-2.465656698034504e6 2.251234587330266e7 0.0
2.251234587330266e7 4.7543566404065145e6 0.0
0.0 0.0 0.0

-3.0835299487665016e6 2.521063112243076e7 0.0
2.521063112243076e7 -4.626015189841187e6 0.0
0.0 0.0 0.0

-6.912928338339546e7 3.2646045682967115e7 0.0
3.2646045682967115e7 -2.41182407603446e6 0.0
0.0 0.0 0.0

6.216398178857951e6 2.7721304612341408e7 0.0
2.7721304612341408e7 -7.207460310617067e6 0.0
0.0 0.0 0.0

-1.7017993690033304e6 2.1158820036994524e7 0.0
2.1158820036994524e7 4.357351217979073e6 0.0
0.0 0.0 0.0

1.2073735297118528e6 1.4012937059630822e7 0.0
1.4012937059630822e7 -1.6485392745773895e7 0.0
0.0 0.0 0.0

-1.3071235035779187e6 3.4228532894226804e7 0.0
3.4228532894226804e7 2.6667619086085893e6 0.0
0.0 0.0 0.0

778121.3060229961 1.4755617851663638e7 0.0
1.4755617851663638e7 -2.3560093064462632e7 0.0
0.0 0.0 0.0

756343.9811051264 1.5988749988865515e7 0.0
1.5988749988865515e7 -2.5327833637264576e7 0.0
0.0 0.0 0.0

-7.766302823023045e6 1.173459521909212e7 0.0
1.173459521909212e7 1.2904669958901556e7 0.0
0.0 0.0 0.0

-2.803096487561671e6 2.5657668784860533e7 0.0
2.5657668784860533e7 1.3039462187890904e7 0.0
0.0 0.0 0.0

2.0837070545766205e6 9.063928908368353e6 0.0
9.063928908368353e6 -3.526525892546789e7 0.0
0.0 0.0 0.0

-9.769412529536076e6 1.0919159164312331e7 0.0
1.0919159164312331e7 2.5873782161888503e7 0.0
0.0 0.0 0.0

783215.3789515933 1.534359744833152e7 0.0
1.534359744833152e7 -2.4481970186831873e7 0.0
0.0 0.0 0.0

-1.1571502533998898e8 1.3582808159589693e7 0.0
1.3582808159589693e7 1.8621890734579936e6 0.0
0.0 0.0 0.0

-224802.08588665724 8.026691644481924e6 0.0
8.026691644481924e6 -6.1978741514563814e7 0.0
0.0 0.0 0.0

-2.7552748711247398e6 2.3918857296482377e7 0.0
2.3918857296482377e7 1.2436557377405237e7 0.0
0.0 0.0 0.0

-2.5882160411392455e6 2.6142351230206076e7 0.0
2.6142351230206076e7 9.978801647371255e6 0.0
0.0 0.0 0.0

-6.143196124849613e6 3.2928472790456533e7 0.0
3.2928472790456533e7 9.983159704283329e6 0.0
0.0 0.0 0.0

-1.6284282006087261e6 2.3225380771167114e7 0.0
2.3225380771167114e7 -7.386771740861701e6 0.0
0.0 0.0 0.0

-2.8542335220677434e6 2.583232616911409e7 0.0
2.583232616911409e7 2.1666367744171843e7 0.0
0.0 0.0 0.0

381458.2970400937 1.7907725331324015e7 0.0
1.7907725331324015e7 -2.0003514873380452e7 0.0
0.0 0.0 0.0

1.1575738976390827e6 1.1736870737045538e7 0.0
1.1736870737045538e7 -3.3334195250980545e7 0.0
0.0 0.0 0.0

-1.6685166575809761e6 3.360196716096786e7 0.0
3.360196716096786e7 3.6906827107200585e6 0.0
0.0 0.0 0.0

4.21467374902015e6 3.596115428365151e7 0.0
3.596115428365151e7 -6.662592632869469e6 0.0
0.0 0.0 0.0

738753.2268972602 1.0976727870669868e7 0.0
1.0976727870669868e7 -4.9381179013528064e7 0.0
0.0 0.0 0.0

-3.5168722012961125e6 1.6714033115468372e7 0.0
1.6714033115468372e7 1.491629877673996e7 0.0
0.0 0.0 0.0

-8.986632732789487e6 3.385705094068474e7 0.0
3.385705094068474e7 8.274008289140467e6 0.0
0.0 0.0 0.0

-5.977926174684171e7 9.208498858770184e7 0.0
9.208498858770184e7 -1.1607027369313948e6 0.0
0.0 0.0 0.0

-7.246469269668069e6 1.280166343632756e7 0.0
1.280166343632756e7 4.246968777343414e7 0.0
0.0 0.0 0.0

-6.524494006320542e6 2.0148062638050895e7 0.0
2.0148062638050895e7 -2.164797040554985e7 0.0
0.0 0.0 0.0

-2.2795153903974146e6 6.785868153006819e6 0.0
6.785868153006819e6 5.595500515722493e6 0.0
0.0 0.0 0.0

-6.798466439689811e6 -1.6606948003521508e6 0.0
-1.6606948003521508e6 4.2424956916575514e7 0.0
0.0 0.0 0.0

2.1259466333425976e6 1.4727145109216745e6 0.0
1.4727145109216745e6 -4.286828151985285e7 0.0
0.0 0.0 0.0

-9.761315151201194e6 2.9699008183606185e7 0.0
2.9699008183606185e7 2.258384623225718e6 0.0
0.0 0.0 0.0

-2.2986439762595296e6 2.2518150522545166e7 0.0
2.2518150522545166e7 -2.5705536562448796e7 0.0
0.0 0.0 0.0

-2.7124248799828067e6 1.8755300949830867e7 0.0
1.8755300949830867e7 4.6612232953357905e7 0.0
0.0 0.0 0.0

3.2429524972380083e6 3.0355472059549574e7 0.0
3.0355472059549574e7 -1.1104857460524734e7 0.0
0.0 0.0 0.0

779426.5960599808 1.4156851070010884e7 0.0
1.4156851070010884e7 -2.2576771761060964e7 0.0
0.0 0.0 0.0

2.0748888054900318e6 1.9188641133202728e7 0.0
1.9188641133202728e7 6.129359408893323e7 0.0
0.0 0.0 0.0

-1.3492377003378363e6 2.318646931357841e7 0.0
2.318646931357841e7 -473412.80189587385 0.0
0.0 0.0 0.0

1.9847646826857273e6 2.1466979435733937e7 0.0
2.1466979435733937e7 4.534649296681649e7 0.0
0.0 0.0 0.0

-1.6032108416903121e6 2.2994524296646032e7 0.0
2.2994524296646032e7 -2.357438270940286e7 0.0
0.0 0.0 0.0

1.0654972338904902e8 1.2786163291533813e7 0.0
1.2786163291533813e7 3.7001902419433706e6 0.0
0.0 0.0 0.0

2.104975907082673e6 3.1402363087730106e7 0.0
3.1402363087730106e7 -7.591827999925307e6 0.0
0.0 0.0 0.0

5.534852330702204e6 4.075688431345002e7 0.0
4.075688431345002e7 -3.110931711353652e6 0.0
0.0 0.0 0.0

689379.190229442 1.5594386253594197e7 0.0
1.5594386253594197e7 -2.1882032905399226e7 0.0
0.0 0.0 0.0

1.6416088560448037e6 1.4221959402752113e7 0.0
1.4221959402752113e7 -2.2701293634784576e7 0.0
0.0 0.0 0.0

-1.4550458454476534e6 2.2344924204955615e7 0.0
2.2344924204955615e7 -9.067604428845996e6 0.0
0.0 0.0 0.0

-7.981523245412072e6 1.4438331929252945e7 0.0
1.4438331929252945e7 3.374707225317916e7 0.0
0.0 0.0 0.0

-4.386840825945024e6 2.0648907688411158e7 0.0
2.0648907688411158e7 -3.643094073151495e7 0.0
0.0 0.0 0.0

2.80065120233705e6 2.5158943009580164e6 0.0
2.5158943009580164e6 -1.218269810442615e7 0.0
0.0 0.0 0.0

644081.0185367586 1.901657810759749e7 0.0
1.901657810759749e7 -2.1740125455073513e7 0.0
0.0 0.0 0.0

-3.4924611708401844e7 4.2968217214292556e7 0.0
4.2968217214292556e7 7.202936817527166e6 0.0
0.0 0.0 0.0

-3.347291959082577e6 1.4992099708262743e7 0.0
1.4992099708262743e7 1.4090635245906115e6 0.0
0.0 0.0 0.0

4.409328440094478e6 1.9446592414820075e7 0.0
1.9446592414820075e7 7.21100486000932e7 0.0
0.0 0.0 0.0

-2.6655186197191225e6 2.627301446545034e7 0.0
2.627301446545034e7 1.7639819994883947e7 0.0
0.0 0.0 0.0

1.1377393126238389e7 2.748092188160871e7 0.0
2.748092188160871e7 6.525352003231496e6 0.0
0.0 0.0 0.0

-7.3540447068614345e6 3.3483443694976874e7 0.0
3.3483443694976874e7 9.095548896861743e6 0.0
0.0 0.0 0.0

2.158968611406471e6 3.2316396685669802e7 0.0
3.2316396685669802e7 -6.268510935770491e6 0.0
0.0 0.0 0.0

-4.535498237874219e6 3.3314380084302805e7 0.0
3.3314380084302805e7 7.817699445076323e6 0.0
0.0 0.0 0.0

-7.943695113326516e6 1.4969341920187501e7 0.0
1.4969341920187501e7 3.108856084123786e7 0.0
0.0 0.0 0.0

-5.045089855277501e6 1.9329163023877602e7 0.0
1.9329163023877602e7 2.553630776287332e7 0.0
0.0 0.0 0.0

-1.064145556544653e7 9.718400326479137e6 0.0
9.718400326479137e6 1.8118811889229536e7 0.0
0.0 0.0 0.0

2.6025811901296537e7 1.43232840736117e7 0.0
1.43232840736117e7 1.6894661867015138e6 0.0
0.0 0.0 0.0

-837818.2384204455 2.349101406154568e7 0.0
2.349101406154568e7 -2.1633865500407763e7 0.0
0.0 0.0 0.0

1.491428160244528e6 3.2143274830482725e7 0.0
3.2143274830482725e7 -5.430358579487004e6 0.0
0.0 0.0 0.0

-2.900340670291209e6 3.34013011586754e7 0.0
3.34013011586754e7 3.9795286384566072e6 0.0
0.0 0.0 0.0

-8.421964948395185e6 -38283.8882066269 0.0
-38283.8882066269 3.1220012443007186e7 0.0
0.0 0.0 0.0

-4.12912933363734e6 3.550572336019363e7 0.0
3.550572336019363e7 5.042060586248561e6 0.0
0.0 0.0 0.0

-1.6581857270596582e6 2.17941494759022e7 0.0
2.17941494759022e7 6.008813563246717e6 0.0
0.0 0.0 0.0

-5.77598865039086e6 3.62062161648418e7 0.0
3.62062161648418e7 6.063243307705885e6 0.0
0.0 0.0 0.0

1.0820961507128512e7 2.6103654756050803e7 0.0
2.6103654756050803e7 4.106673318094172e6 0.0
0.0 0.0 0.0

4.471876357770895e6 3.774000248467818e7 0.0
3.774000248467818e7 -4.0909604818699444e6 0.0
0.0 0.0 0.0

1.9098036832114346e6 5.127922786011869e6 0.0
5.127922786011869e6 -3.401448016943716e7 0.0
0.0 0.0 0.0

-7.651518863674592e6 1.3233874471642315e7 0.0
1.3233874471642315e7 3.9455864167083584e7 0.0
0.0 0.0 0.0

959402.1979534025 2.6110286153086197e7 0.0
2.6110286153086197e7 -1.198016029437381e7 0.0
0.0 0.0 0.0

-78302.36252076644 2.410886597809597e7 0.0
2.410886597809597e7 -1.9702844527068216e7 0.0
0.0 0.0 0.0

-1.4445109550931482e6 2.1787447341125757e7 0.0
2.1787447341125757e7 -631214.4702083458 0.0
0.0 0.0 0.0

-5.230442892345851e6 2.7739462696121316e7 0.0
2.7739462696121316e7 7.411206930914624e6 0.0
0.0 0.0 0.0

4.762686937479896e6 3.1520031939308792e7 0.0
3.1520031939308792e7 -9.672089050984398e6 0.0
0.0 0.0 0.0

-163119.5862760134 2.4197957988091573e7 0.0
2.4197957988091573e7 -1.0694083014737759e7 0.0
0.0 0.0 0.0

-7.499645194581801e6 1.7363311182647698e7 0.0
1.7363311182647698e7 2.5370830540259626e7 0.0
0.0 0.0 0.0

2.029769049476808e6 1.152625075559179e7 0.0
1.152625075559179e7 -2.7509075266803972e7 0.0
0.0 0.0 0.0

-1.9258855031636981e6 2.4216842380815055e7 0.0
2.4216842380815055e7 -2.0900764635069024e7 0.0
0.0 0.0 0.0

4.502136812538335e6 2.6737576404702798e7 0.0
2.6737576404702798e7 1.6716322803327486e7 0.0
0.0 0.0 0.0

-1.3339125496467121e6 2.586371633602245e7 0.0
2.586371633602245e7 -6.587259717994587e6 0.0
0.0 0.0 0.0

1.4734832183969188e6 8.680809068027277e6 0.0
8.680809068027277e6 -4.7776483787455365e7 0.0
0.0 0.0 0.0

1.3748606593452469e6 6.323552962281918e6 0.0
6.323552962281918e6 -6.408187046468156e7 0.0
0.0 0.0 0.0

-3.257614160084963e6 2.063295131572771e7 0.0
2.063295131572771e7 1.2195524667135332e7 0.0
0.0 0.0 0.0

-2.6297727748133196e6 3.408128943982204e7 0.0
3.408128943982204e7 2.9120534474118985e6 0.0
0.0 0.0 0.0

-8.696758546265494e6 6.2824742569046635e6 0.0
6.2824742569046635e6 3.6027048717252076e7 0.0
0.0 0.0 0.0

-4.975224658634494e6 1.9351224128352344e7 0.0
1.9351224128352344e7 1.8409279697383888e7 0.0
0.0 0.0 0.0

-2.658052526737253e6 2.5221270280919656e7 0.0
2.5221270280919656e7 1.1853980056911113e7 0.0
0.0 0.0 0.0

1.9775972386806924e6 1.179983694695789e7 0.0
1.179983694695789e7 -2.4895157408873193e7 0.0
0.0 0.0 0.0

1.995239443580443e6 1.3440533798705805e6 0.0
1.3440533798705805e6 -4.432472020879001e7 0.0
0.0 0.0 0.0

-1.9583902870067656e6 2.3494885887874782e7 0.0
2.3494885887874782e7 1.5244531544273563e7 0.0
0.0 0.0 0.0

7.610628711093992e6 2.1221721266796507e7 0.0
2.1221721266796507e7 8.766856988605917e7 0.0
0.0 0.0 0.0

-1.7450764661181904e6 2.6603946037100464e7 0.0
2.6603946037100464e7 1.0682284191841906e7 0.0
0.0 0.0 0.0

1.8996639635475313e6 3.3093392865996342e7 0.0
3.3093392865996342e7 -5.26652532993429e6 0.0
0.0 0.0 0.0

778303.2720586453 1.6650094581002349e7 0.0
1.6650094581002349e7 -2.3326647142435476e7 0.0
0.0 0.0 0.0

706680.8759384438 3.5996463196863286e7 0.0
3.5996463196863286e7 -1.0897468538319846e6 0.0
0.0 0.0 0.0

-1.9456409881902686e6 3.29220547283678e7 0.0
3.29220547283678e7 4.765810499829968e6 0.0
0.0 0.0 0.0

1.2589037359112125e7 2.112792463052872e7 0.0
2.112792463052872e7 5.632510597464677e7 0.0
0.0 0.0 0.0

2.8187748104245476e6 2.5474556279865075e6 0.0
2.5474556279865075e6 -1.3011049079467181e7 0.0
0.0 0.0 0.0

6.6766905884872265e6 2.8606100216841698e7 0.0
2.8606100216841698e7 -8.411577404427733e6 0.0
0.0 0.0 0.0

2.6113675381287774e6 3.888656185949562e6 0.0
3.888656185949562e6 -2.4007460934218228e7 0.0
0.0 0.0 0.0

-7.243890162007609e6 1.5912482291409137e7 0.0
1.5912482291409137e7 2.5860327375657637e7 0.0
0.0 0.0 0.0

-2.858012043969935e6 3.0865974302160695e7 0.0
3.0865974302160695e7 6.565820521717722e6 0.0
0.0 0.0 0.0

-309870.8483840665 2.66234768575934e7 0.0
2.66234768575934e7 -5.398612903289551e6 0.0
0.0 0.0 0.0

1.74030871092097e6 1.2927729604484783e7 0.0
1.2927729604484783e7 -2.0660402120056454e7 0.0
0.0 0.0 0.0

250466.61218220647 2.462853262502721e7 0.0
2.462853262502721e7 -1.2480344346856516e7 0.0
0.0 0.0 0.0

1.631551236126863e6 3.392340380358012e7 0.0
3.392340380358012e7 -4.230141639452965e6 0.0
0.0 0.0 0.0

-8.038474727905672e6 7.993656006926074e6 0.0
7.993656006926074e6 4.147773807645592e7 0.0
0.0 0.0 0.0

-4.1558595167172644e6 2.1097858791632727e7 0.0
2.1097858791632727e7 2.54286007679602e7 0.0
0.0 0.0 0.0

-8.925427229827657e6 1.2759117588387085e7 0.0
1.2759117588387085e7 2.784641699231654e7 0.0
0.0 0.0 0.0

-2.63226796563093e6 2.1104392586576384e7 0.0
2.1104392586576384e7 4.924974319661844e6 0.0
0.0 0.0 0.0

-3.363736697003827e6 3.2655828127658885e7 0.0
3.2655828127658885e7 8.85626020764019e6 0.0
0.0 0.0 0.0

-1.8890124296539999e6 2.5685280863231428e7 0.0
2.5685280863231428e7 -2.6139410374274324e6 0.0
0.0 0.0 0.0

-1.5150785174682832e6 3.566699915541816e7 0.0
3.566699915541816e7 -70749.0527419977 0.0
0.0 0.0 0.0

-7.995227052417062e6 1.2531933460044224e7 0.0
1.2531933460044224e7 1.4820023432824878e7 0.0
0.0 0.0 0.0

-5.132821811428206e6 1.8762070086346608e7 0.0
1.8762070086346608e7 2.4552817636369374e7 0.0
0.0 0.0 0.0

-2.3274877018577736e6 3.469406776352654e7 0.0
3.469406776352654e7 1.9379465007653933e6 0.0
0.0 0.0 0.0

4.291211979113219e6 2.9917544763420768e7 0.0
2.9917544763420768e7 -1.0962454226394303e7 0.0
0.0 0.0 0.0

2.0572843688098855e7 2.963241591737418e7 0.0
2.963241591737418e7 1.5783295047875449e7 0.0
0.0 0.0 0.0

-1.749874335231313e6 2.097867342705773e7 0.0
2.097867342705773e7 7.887453390978546e6 0.0
0.0 0.0 0.0

1.0592326042663772e7 3.410242381027447e7 0.0
3.410242381027447e7 -6.727921149948901e6 0.0
0.0 0.0 0.0

-1.73357875968243e6 2.2148872468995165e7 0.0
2.2148872468995165e7 1.0944262004682017e7 0.0
0.0 0.0 0.0

-4.234909246595802e6 2.0600532060021468e7 0.0
2.0600532060021468e7 2.454381877904331e7 0.0
0.0 0.0 0.0

-5.428618637003358e6 1.3386839199688353e7 0.0
1.3386839199688353e7 1.6160661340077968e7 0.0
0.0 0.0 0.0

-1.9637316350004626e6 3.520799896652259e7 0.0
3.520799896652259e7 857683.05656959 0.0
0.0 0.0 0.0

2.4115712622987516e6 6.930734317537676e6 0.0
6.930734317537676e6 -3.32957957266894e7 0.0
0.0 0.0 0.0

2.234542696317943e6 9.62606274913077e6 0.0
9.62606274913077e6 -3.085100285646023e7 0.0
0.0 0.0 0.0

-5.134886968905343e6 3.223672992759912e7 0.0
3.223672992759912e7 1.0714705005489849e7 0.0
0.0 0.0 0.0

-407546.201824764 1.5002790202819915e7 0.0
1.5002790202819915e7 -7.643965010743691e6 0.0
0.0 0.0 0.0

1.7067187751433281e6 1.359788578546802e7 0.0
1.359788578546802e7 -2.1666976747011445e7 0.0
0.0 0.0 0.0

144765.45501621085 3.91658699039805e7 0.0
3.91658699039805e7 -1.436529459331805e6 0.0
0.0 0.0 0.0

1.1358072161576636e6 3.53596183112225e7 0.0
3.53596183112225e7 -2.1001451200695457e6 0.0
0.0 0.0 0.0

-393921.12351469183 2.7824630108606596e7 0.0
2.7824630108606596e7 -8.368477679311903e6 0.0
0.0 0.0 0.0

-3.2329352658957904e6 2.190151606586914e7 0.0
2.190151606586914e7 -3.241083772787988e7 0.0
0.0 0.0 0.0

-3.626440903110398e6 3.909820388099111e7 0.0
3.909820388099111e7 2.099370190792146e6 0.0
0.0 0.0 0.0

-4.0225260862399507e6 2.155414232524669e7 0.0
2.155414232524669e7 2.609543972712651e7 0.0
0.0 0.0 0.0

1.4758250550217656e6 8.118463179739822e6 0.0
8.118463179739822e6 -1.9265399515769284e7 0.0
0.0 0.0 0.0

3.1301782191397264e6 4.304993162840329e7 0.0
4.304993162840329e7 -1.6312497447946249e6 0.0
0.0 0.0 0.0

-2.9587826927891355e6 2.721661551423591e7 0.0
2.721661551423591e7 1.494896920793008e7 0.0
0.0 0.0 0.0

1.4291566034313897e6 3.466946329294807e7 0.0
3.466946329294807e7 -3.0652341218534885e6 0.0
0.0 0.0 0.0

713138.9907774525 2.4745958786233526e7 0.0
2.4745958786233526e7 -1.7954416913071282e7 0.0
0.0 0.0 0.0

-429167.53605489625 3.6177754422422454e7 0.0
3.6177754422422454e7 743496.1115106969 0.0
0.0 0.0 0.0

-3.121455380745236e6 2.726128510624348e7 0.0
2.726128510624348e7 1.7887945411591936e7 0.0
0.0 0.0 0.0

-306191.32845109573 3.6420331772758454e7 0.0
3.6420331772758454e7 -1.7687819839703e6 0.0
0.0 0.0 0.0

1.1991472784618113e7 4.665872529658284e7 0.0
4.665872529658284e7 -3.573703526246803e6 0.0
0.0 0.0 0.0

-6.055960610550718e6 1.8548729403310362e7 0.0
1.8548729403310362e7 3.2886526291478667e7 0.0
0.0 0.0 0.0

1.510598715300019e6 1.5088644730452226e7 0.0
1.5088644730452226e7 -2.108878366474876e7 0.0
0.0 0.0 0.0

-7.585058363476437e6 1.5180494219034074e7 0.0
1.5180494219034074e7 3.472130489556077e7 0.0
0.0 0.0 0.0

-6.919845267791892e6 1.7674783570081256e7 0.0
1.7674783570081256e7 2.2627061265338473e7 0.0
0.0 0.0 0.0

-1.6378952979789048e6 -830089.3980997083 0.0
-830089.3980997083 2.7947668569520484e6 0.0
0.0 0.0 0.0

-1.2097054017806433e6 -1.9409951426499963e6 0.0
-1.9409951426499963e6 2.6497465492269923e6 0.0
0.0 0.0 0.0

-5.635183419135859e6 1.910113957645216e7 0.0
1.910113957645216e7 3.3538540860060442e7 0.0
0.0 0.0 0.0

1.9118960917561397e7 2.8521706940247994e7 0.0
2.8521706940247994e7 1.6248587248648942e7 0.0
0.0 0.0 0.0

2.9139999795883372e6 3.6887012185918145e7 0.0
3.6887012185918145e7 -3.3829454480791586e6 0.0
0.0 0.0 0.0

595062.4430811382 2.862271713868302e7 0.0
2.862271713868302e7 -7.377633336833369e6 0.0
0.0 0.0 0.0

1.4708610531846257e6 1.5666152407576926e7 0.0
1.5666152407576926e7 -2.214802531405709e7 0.0
0.0 0.0 0.0

1.1438166652602814e7 2.0902681499883495e7 0.0
2.0902681499883495e7 5.027364483965359e7 0.0
0.0 0.0 0.0

-3.4231020682066977e6 3.975970801225945e7 0.0
3.975970801225945e7 3.5107496302413144e6 0.0
0.0 0.0 0.0

184003.43280922243 4.0030728402119264e7 0.0
4.0030728402119264e7 -1.451210472974895e6 0.0
0.0 0.0 0.0

666451.6967188041 4.092995487010971e7 0.0
4.092995487010971e7 -1.4862577427439243e6 0.0
0.0 0.0 0.0

-3.293696016125749e6 2.3848570731488436e7 0.0
2.3848570731488436e7 1.6991562041954193e7 0.0
0.0 0.0 0.0

-3.3481665106724584e6 2.1134710680990394e7 0.0
2.1134710680990394e7 1.3776768485972993e7 0.0
0.0 0.0 0.0

-6.700737238803444e6 1.519421920328202e7 0.0
1.519421920328202e7 1.6032741586137732e7 0.0
0.0 0.0 0.0

-2.53652490390718e6 2.8826219202184673e7 0.0
2.8826219202184673e7 1.2437064868413959e7 0.0
0.0 0.0 0.0

-2.340504996640916e6 2.021571681556868e7 0.0
2.021571681556868e7 1.5396900575299975e7 0.0
0.0 0.0 0.0

-5.74570513464712e6 1.794051940928462e7 0.0
1.794051940928462e7 3.7379497583337836e7 0.0
0.0 0.0 0.0

1.531467380954666e6 1.6368676949130543e7 0.0
1.6368676949130543e7 -2.2911423410989136e7 0.0
0.0 0.0 0.0

-2.949627984260005e6 2.603041381771814e7 0.0
2.603041381771814e7 1.4118679289668078e7 0.0
0.0 0.0 0.0

-6.37467566294542e6 1.6285150452739706e7 0.0
1.6285150452739706e7 3.911362456620327e7 0.0
0.0 0.0 0.0

6.433889420476338e6 2.4768936573726956e7 0.0
2.4768936573726956e7 1.9786050737104136e7 0.0
0.0 0.0 0.0

-2.5977262055274597e6 2.2406956374307126e7 0.0
2.2406956374307126e7 8.0383335495468e6 0.0
0.0 0.0 0.0

-403028.3856558203 3.70989257775853e7 0.0
3.70989257775853e7 817764.4593985898 0.0
0.0 0.0 0.0

-424278.3688000032 3.520058889034573e7 0.0
3.520058889034573e7 674310.367186399 0.0
0.0 0.0 0.0

-3.3180756893273247e6 2.8183018574847322e7 0.0
2.8183018574847322e7 1.611052450307465e7 0.0
0.0 0.0 0.0

-2.804645705560663e6 2.311381879405141e7 0.0
2.311381879405141e7 -2.668096459456027e7 0.0
0.0 0.0 0.0

-2.8293754859875687e6 2.923989488025945e7 0.0
2.923989488025945e7 9.401384555002404e6 0.0
0.0 0.0 0.0

-3.555173064296211e6 2.230093076482012e7 0.0
2.230093076482012e7 2.4216448267519336e7 0.0
0.0 0.0 0.0

236061.40544898575 2.740122650555998e7 0.0
2.740122650555998e7 -7.697395739668113e6 0.0
0.0 0.0 0.0

6.594610544560708e6 4.1779272951446235e7 0.0
4.1779272951446235e7 -3.120649021140307e6 0.0
0.0 0.0 0.0

-3.715088268066017e6 2.925662453542118e7 0.0
2.925662453542118e7 1.4417910649600964e7 0.0
0.0 0.0 0.0

-152274.75777393952 2.696930270554154e7 0.0
2.696930270554154e7 -9.75333004088467e6 0.0
0.0 0.0 0.0

1.9889826625990085e6 1.040700000021064e7 0.0
1.040700000021064e7 -3.185294049419245e7 0.0
0.0 0.0 0.0

-2.1016260620290115e6 2.387516134375045e7 0.0
2.387516134375045e7 1.6479494425555127e7 0.0
0.0 0.0 0.0

7.568936424797954e6 3.370959375094113e7 0.0
3.370959375094113e7 -7.698947445500878e6 0.0
0.0 0.0 0.0

2.4015821940447045e6 2.711818423064955e6 0.0
2.711818423064955e6 -8.640886320939153e6 0.0
0.0 0.0 0.0

758071.7347518448 1.0519741835618941e7 0.0
1.0519741835618941e7 -4.2438239629976474e7 0.0
0.0 0.0 0.0

702490.7439847346 2.5219034510392874e7 0.0
2.5219034510392874e7 -1.1976888014357813e7 0.0
0.0 0.0 0.0

1.9595620930126496e7 2.9723937129339967e7 0.0
2.9723937129339967e7 1.8093474719673753e7 0.0
0.0 0.0 0.0

1.220305535666829e6 1.093129967208157e7 0.0
1.093129967208157e7 -3.269006639715163e7 0.0
0.0 0.0 0.0

1.1490173517383486e6 1.2502078331984835e7 0.0
1.2502078331984835e7 -3.1634430587116174e7 0.0
0.0 0.0 0.0

3.2283579903703295e6 2.5028071762429472e7 0.0
2.5028071762429472e7 7.704455315656857e6 0.0
0.0 0.0 0.0

-8.302283338480558e6 9.734609349471012e6 0.0
9.734609349471012e6 3.926980164384724e7 0.0
0.0 0.0 0.0

-7.374471544327462e6 1.5840632724879306e7 0.0
1.5840632724879306e7 1.9101717893545218e7 0.0
0.0 0.0 0.0

-1.3792374549248168e7 2.2151944050782543e7 0.0
2.2151944050782543e7 -6.3683608044726536e7 0.0
0.0 0.0 0.0

-4.1177915340887653e6 2.075048822189607e7 0.0
2.075048822189607e7 1.7521504309101637e7 0.0
0.0 0.0 0.0

-8.733240908159176e6 1.5235426676037911e7 0.0
1.5235426676037911e7 2.8224239386309274e7 0.0
0.0 0.0 0.0

5.47788621455971e6 2.752045430877876e7 0.0
2.752045430877876e7 1.4208263456108382e7 0.0
0.0 0.0 0.0

-7.018770254218966e6 -1.8460348302998946e6 0.0
-1.8460348302998946e6 4.103873587891149e7 0.0
0.0 0.0 0.0

-2.86638735805171e6 2.4345773690880727e7 0.0
2.4345773690880727e7 1.376545109351614e7 0.0
0.0 0.0 0.0

-3.964708724649716e6 3.26481522946312e7 0.0
3.26481522946312e7 9.577466555911452e6 0.0
0.0 0.0 0.0

604648.4464551229 2.2617860264741935e7 0.0
2.2617860264741935e7 -1.915574020783381e7 0.0
0.0 0.0 0.0

-8.671815076460585e6 -723215.9837377219 0.0
-723215.9837377219 1.9087025247190498e7 0.0
0.0 0.0 0.0

-6.656394785072128e6 1.4440393139947858e7 0.0
1.4440393139947858e7 1.4317452763980832e7 0.0
0.0 0.0 0.0

-1.4536975546852276e6 8.928765896017775e6 0.0
8.928765896017775e6 -7.263504698988938e7 0.0
0.0 0.0 0.0

1.004801592774617e7 4.2204182387726195e7 0.0
4.2204182387726195e7 -3.9905587617316996e6 0.0
0.0 0.0 0.0

-4.380420970259935e6 1.5187770012269598e7 0.0
1.5187770012269598e7 5.079202709433384e7 0.0
0.0 0.0 0.0

-7.141536644805802e6 2.3393433585281618e7 0.0
2.3393433585281618e7 -2.075391276867624e7 0.0
0.0 0.0 0.0

-8.834660067817593e6 1.467802287994881e7 0.0
1.467802287994881e7 3.0699845702716295e7 0.0
0.0 0.0 0.0

-1.8521589239455834e7 3.1226931928229813e7 0.0
3.1226931928229813e7 -1.3951477817531116e7 0.0
0.0 0.0 0.0

-2.0040568047985523e6 2.4920868791829865e7 0.0
2.4920868791829865e7 -6.876590178533744e6 0.0
0.0 0.0 0.0

5.84451713466073e6 2.2037522342007913e7 0.0
2.2037522342007913e7 2.4786804987644702e7 0.0
0.0 0.0 0.0

753559.718127884 9.580017482512051e6 0.0
9.580017482512051e6 -4.469359378026034e7 0.0
0.0 0.0 0.0

-6.575841751876493e6 2.007055753003833e7 0.0
2.007055753003833e7 -2.2657855515095893e7 0.0
0.0 0.0 0.0

1.17629833730016e7 4.917515855614617e7 0.0
4.917515855614617e7 -5.507233036751643e6 0.0
0.0 0.0 0.0

-2.256225380508201e6 2.4238476844883967e7 0.0
2.4238476844883967e7 1.7597902413883563e7 0.0
0.0 0.0 0.0

-6.800902982537102e6 -1.3496923515724223e6 0.0
-1.3496923515724223e6 4.551380173804836e7 0.0
0.0 0.0 0.0

325093.5963588916 2.4142401345664334e7 0.0
2.4142401345664334e7 2.181918889022264e7 0.0
0.0 0.0 0.0

-1.5725574175694596e7 3.020825157815112e7 0.0
3.020825157815112e7 -1.5604477829228206e7 0.0
0.0 0.0 0.0

-6.133913112341833e6 1.2959261146744072e7 0.0
1.2959261146744072e7 1.048050305793576e7 0.0
0.0 0.0 0.0

7.111079435715744e6 2.1802548821727097e7 0.0
2.1802548821727097e7 5.274365541210112e7 0.0
0.0 0.0 0.0

-5.615835866655942e6 2.020815189019479e7 0.0
2.020815189019479e7 2.3924211393282715e7 0.0
0.0 0.0 0.0

-6.716782887140131e6 1.8251625740671728e7 0.0
1.8251625740671728e7 2.3750144071674425e7 0.0
0.0 0.0 0.0

-5.442270817721166e6 1.3335328553038543e7 0.0
1.3335328553038543e7 5.033496699382144e7 0.0
0.0 0.0 0.0

931235.5697988719 2.3503332265797578e7 0.0
2.3503332265797578e7 2.7595849370909687e7 0.0
0.0 0.0 0.0

-1.2083899387851926e7 3.846536538543639e7 0.0
3.846536538543639e7 5.944576763221303e6 0.0
0.0 0.0 0.0

733680.2431659395 4.410840769566379e7 0.0
4.410840769566379e7 -1.6461016148194862e6 0.0
0.0 0.0 0.0

-2.945401556637845e6 2.721534712486708e7 0.0
2.721534712486708e7 1.3349560552147254e7 0.0
0.0 0.0 0.0

2.0654060379994335e6 2.582771921337652e6 0.0
2.582771921337652e6 -6.91520213121432e6 0.0
0.0 0.0 0.0

1.7425279602744244e6 1.398254220090022e7 0.0
1.398254220090022e7 -2.5249440284692466e7 0.0
0.0 0.0 0.0

1.5074812092918633e6 1.3813477342358554e7 0.0
1.3813477342358554e7 -1.9100048408103418e7 0.0
0.0 0.0 0.0

-3.4311659456143146e6 2.163130766566777e7 0.0
2.163130766566777e7 1.5265833847068695e7 0.0
0.0 0.0 0.0

4840.543993015075 6.096403168588884e7 0.0
6.096403168588884e7 -3.653654544252967e6 0.0
0.0 0.0 0.0

-9.666369983295508e6 1.130974048159719e7 0.0
1.130974048159719e7 1.6712804089761198e7 0.0
0.0 0.0 0.0

5.234354155488365e6 3.861165629757767e7 0.0
3.861165629757767e7 -4.061336456060729e6 0.0
0.0 0.0 0.0

8.2227006790810805e6 3.505143944386433e7 0.0
3.505143944386433e7 -7.019840637355621e6 0.0
0.0 0.0 0.0

-3.7841239118817365e6 1.3770356995531715e7 0.0
1.3770356995531715e7 1.1749492799062429e7 0.0
0.0 0.0 0.0

-327342.7574666367 2.327409423013946e7 0.0
2.327409423013946e7 1.5738802881037386e6 0.0
0.0 0.0 0.0

2.7874896311821062e7 2.8321096380393337e7 0.0
2.8321096380393337e7 1.3196542566163883e7 0.0
0.0 0.0 0.0

1.2111629099162256e7 2.31007296295376e7 0.0
2.31007296295376e7 5.166131984940485e7 0.0
0.0 0.0 0.0

3.8689270398125993e6 2.2897477498859182e7 0.0
2.2897477498859182e7 2.0224972093442187e7 0.0
0.0 0.0 0.0

-5.737154018363446e6 1.964724697868514e7 0.0
1.964724697868514e7 2.2977304023260675e7 0.0
0.0 0.0 0.0

722611.3604128526 5.666479343206905e7 0.0
5.666479343206905e7 -2.9565980002865475e6 0.0
0.0 0.0 0.0

-2.6841051239338875e7 3.303369802964212e7 0.0
3.303369802964212e7 -1.4117362986544734e7 0.0
0.0 0.0 0.0

-6.482127578193041e6 1.882266120163638e7 0.0
1.882266120163638e7 2.4749261362702563e7 0.0
0.0 0.0 0.0

-1.1048392248897813e6 1.5355315967621874e7 0.0
1.5355315967621874e7 -4.5461098776648246e7 0.0
0.0 0.0 0.0

1.650133877945304e6 1.2587370756699715e6 0.0
1.2587370756699715e6 -5.2315100329159364e7 0.0
0.0 0.0 0.0

1.2895757583850743e6 2.1449347283890385e7 0.0
2.1449347283890385e7 -2.0291770550632864e7 0.0
0.0 0.0 0.0

1.5998491659829458e6 1.4850219537876273e7 0.0
1.4850219537876273e7 -2.3688688060211923e7 0.0
0.0 0.0 0.0

1.4104554281707983e6 2.351800755449484e7 0.0
2.351800755449484e7 -1.7604434067894906e7 0.0
0.0 0.0 0.0

-662152.3412677825 6.63139674244349e7 0.0
6.63139674244349e7 -5.935683662251037e6 0.0
0.0 0.0 0.0

-1.786678998526814e6 3.0172739600014895e7 0.0
3.0172739600014895e7 6.045831796565926e6 0.0
0.0 0.0 0.0

2.2396955147091513e6 2.792073367905366e7 0.0
2.792073367905366e7 -1.4020491489417221e7 0.0
0.0 0.0 0.0

1.359628032648541e6 2.6872509461794097e7 0.0
2.6872509461794097e7 -1.4694377983021315e7 0.0
0.0 0.0 0.0

1.8325299100105157e6 1.2698922889053997e7 0.0
1.2698922889053997e7 -2.3282834649817556e7 0.0
0.0 0.0 0.0

-3.4853235411376115e6 2.8620298310450893e7 0.0
2.8620298310450893e7 1.3476745149307422e7 0.0
0.0 0.0 0.0

2.1308928643428525e6 2.459812617583968e7 0.0
2.459812617583968e7 2.4576404512765862e7 0.0
0.0 0.0 0.0

-7.73547587054874e6 3.0009508812147208e7 0.0
3.0009508812147208e7 9.20255533161902e6 0.0
0.0 0.0 0.0

-256200.30246054754 1.022589130379992e7 0.0
1.022589130379992e7 9.27592342546387e7 0.0
0.0 0.0 0.0

-8.321328962202799e6 888315.5886243144 0.0
888315.5886243144 2.9141867992342293e7 0.0
0.0 0.0 0.0

-8.097780833704868e6 9.874145124168631e7 0.0
9.874145124168631e7 -1.7151632142084487e7 0.0
0.0 0.0 0.0

6.8990436821450405e6 2.2137787065825503e7 0.0
2.2137787065825503e7 3.2226070978663187e7 0.0
0.0 0.0 0.0

1.0491761101329485e6 5.37441210556725e7 0.0
5.37441210556725e7 -2.168053058013604e6 0.0
0.0 0.0 0.0

775411.0679453863 2.307761417028843e7 0.0
2.307761417028843e7 -1.384348869872567e7 0.0
0.0 0.0 0.0

3.040027311892013e6 2.7048756127124257e7 0.0
2.7048756127124257e7 -1.3268527102871936e7 0.0
0.0 0.0 0.0

-2.5891061277784025e6 3.1514629335602175e7 0.0
3.1514629335602175e7 8.277983801766704e6 0.0
0.0 0.0 0.0

2.875851141614469e6 1.752962707883661e6 0.0
1.752962707883661e6 -2.8400617330221064e7 0.0
0.0 0.0 0.0

1.3585738848510936e7 2.6217704963637065e7 0.0
2.6217704963637065e7 5.352016728432197e6 0.0
0.0 0.0 0.0

1.6928189064420145e6 1.473298421100777e7 0.0
1.473298421100777e7 -2.6144285325384654e7 0.0
0.0 0.0 0.0

8.25333020044709e6 3.1610251848267224e7 0.0
3.1610251848267224e7 -7.551273601947584e6 0.0
0.0 0.0 0.0

1.5904958348760996e6 8.918598594337879e6 0.0
8.918598594337879e6 -4.368459039882091e7 0.0
0.0 0.0 0.0

-1.826456824792792e6 2.572751171345389e7 0.0
2.572751171345389e7 1.2641932782981224e7 0.0
0.0 0.0 0.0

2.3202477272284264e6 8.314292665185006e6 0.0
8.314292665185006e6 -1.6497801285444941e7 0.0
0.0 0.0 0.0

-2.0172826938583164e6 1.4156423527627977e7 0.0
1.4156423527627977e7 2.8020992721362314e6 0.0
0.0 0.0 0.0

-2.3807390107299868e7 2.9434462782821868e7 0.0
2.9434462782821868e7 -8.652320612477524e6 0.0
0.0 0.0 0.0

1.8921117778129876e6 1.2028600533710632e7 0.0
1.2028600533710632e7 -3.0865520790819086e7 0.0
0.0 0.0 0.0

-2.2800411065447116e6 2.1594304544884015e7 0.0
2.1594304544884015e7 -3.3816270167332804e6 0.0
0.0 0.0 0.0

1.4877446836096467e6 2.8770920083340522e7 0.0
2.8770920083340522e7 -1.188889501089134e7 0.0
0.0 0.0 0.0

1.7135769417449385e6 2.2417283101248376e7 0.0
2.2417283101248376e7 3.578321784347108e7 0.0
0.0 0.0 0.0

819069.0648215471 2.5645371404429935e7 0.0
2.5645371404429935e7 -1.6307556058315441e6 0.0
0.0 0.0 0.0

-4.0451570532600945e6 2.0237106418178894e7 0.0
2.0237106418178894e7 1.6090943925964948e7 0.0
0.0 0.0 0.0

-7.869694182193458e6 1.0939330947640693e7 0.0
1.0939330947640693e7 4.414542884001729e7 0.0
0.0 0.0 0.0

2.234546187345518e6 2.2877713030960202e7 0.0
2.2877713030960202e7 3.640841794640336e7 0.0
0.0 0.0 0.0

-4.807441670444834e6 2.1493354054091968e7 0.0
2.1493354054091968e7 2.296748563078747e7 0.0
0.0 0.0 0.0

-8.704743550020512e6 6.317329817104258e6 0.0
6.317329817104258e6 3.942640726528845e7 0.0
0.0 0.0 0.0

-2.6240548618060015e6 2.3376463281169467e7 0.0
2.3376463281169467e7 1.9608064939440683e7 0.0
0.0 0.0 0.0

-3.2466400495589497e6 2.6410328394576702e7 0.0
2.6410328394576702e7 1.9719768895689376e7 0.0
0.0 0.0 0.0

-9.522516562224614e6 9.852165607387943e6 0.0
9.852165607387943e6 2.183249371416142e7 0.0
0.0 0.0 0.0

1.4549394329166496e6 2.783162205281877e7 0.0
2.783162205281877e7 -1.3287772034737177e7 0.0
0.0 0.0 0.0

-2.774092387694657e6 3.1660535026623026e7 0.0
3.1660535026623026e7 5.266203576883299e6 0.0
0.0 0.0 0.0

-4.651199544780983e6 2.201437123934264e7 0.0
2.201437123934264e7 2.3771126450953934e7 0.0
0.0 0.0 0.0

-6.598262419824522e6 5.814824438949087e6 0.0
5.814824438949087e6 5.6499948781261966e7 0.0
0.0 0.0 0.0

-1.2431155834705383e6 2.601760104561416e7 0.0
2.601760104561416e7 1.6222769933190256e7 0.0
0.0 0.0 0.0

-5.995865037319036e6 1.799689226145605e7 0.0
1.799689226145605e7 2.633871682511058e7 0.0
0.0 0.0 0.0

-372520.5846983064 1.4973189783924075e7 0.0
1.4973189783924075e7 -4.256024486352712e7 0.0
0.0 0.0 0.0

1.9166345196249485e6 2.1272201791897357e7 0.0
2.1272201791897357e7 4.510261231541774e7 0.0
0.0 0.0 0.0

-5.697692993577275e6 1.9352121447107036e7 0.0
1.9352121447107036e7 3.0927819844218597e7 0.0
0.0 0.0 0.0

1.4964460629397174e6 1.3129020068141604e7 0.0
1.3129020068141604e7 -1.8065309668933272e7 0.0
0.0 0.0 0.0

1.6035425053899866e6 3.345681617445129e6 0.0
3.345681617445129e6 -4.0828657077039205e7 0.0
0.0 0.0 0.0

5.889892583007182e6 2.1878569050119005e7 0.0
2.1878569050119005e7 4.088337573661552e7 0.0
0.0 0.0 0.0

3.995643406081913e6 2.1869851881430194e7 0.0
2.1869851881430194e7 4.3188875300726086e7 0.0
0.0 0.0 0.0

-226738.93959278474 2.2270066925515056e7 0.0
2.2270066925515056e7 -9.435270405862615e6 0.0
0.0 0.0 0.0

-4.057358479998948e6 3.035595318338566e7 0.0
3.035595318338566e7 1.2925638929286113e7 0.0
0.0 0.0 0.0

975196.3752729497 4.802150510874635e7 0.0
4.802150510874635e7 -1.9170531480633372e6 0.0
0.0 0.0 0.0

1.5330939697883558e6 2.5477603502173826e7 0.0
2.5477603502173826e7 -1.6271917343950909e7 0.0
0.0 0.0 0.0

-8.748701735915164e6 2.095109536210265e6 0.0
2.095109536210265e6 3.036167779709394e7 0.0
0.0 0.0 0.0

-622338.817366533 1.779421577995393e7 0.0
1.779421577995393e7 -3.624058108133013e7 0.0
0.0 0.0 0.0

-2.5648538405871056e6 2.686260896608625e7 0.0
2.686260896608625e7 1.6542442200283196e7 0.0
0.0 0.0 0.0

-6.334267516844366e6 1.797242196499304e7 0.0
1.797242196499304e7 3.2092860830207575e7 0.0
0.0 0.0 0.0

5.707883818745925e6 1.950102620461863e7 0.0
1.950102620461863e7 1.8623482832658216e7 0.0
0.0 0.0 0.0

-285483.78252346814 1.1659995457104702e7 0.0
1.1659995457104702e7 -5.0403942921606794e7 0.0
0.0 0.0 0.0

88581.16978637688 1.4817716783182656e7 0.0
1.4817716783182656e7 -3.9651946445004255e7 0.0
0.0 0.0 0.0

1.4231571161032401e7 5.162592892220157e7 0.0
5.162592892220157e7 -6.206351053524455e6 0.0
0.0 0.0 0.0

-1.6018466385719103e6 3.0906605594675515e7 0.0
3.0906605594675515e7 4.765477769688005e6 0.0
0.0 0.0 0.0

-2.525258208651727e6 3.234044310382189e7 0.0
3.234044310382189e7 7.038274421922816e6 0.0
0.0 0.0 0.0

-719027.4927926083 3.331072448793259e7 0.0
3.331072448793259e7 -2.512317458122067e6 0.0
0.0 0.0 0.0

2.970448302804266e6 4.260361552793634e6 0.0
4.260361552793634e6 -2.3154684065699294e7 0.0
0.0 0.0 0.0

-3.2119128592133676e6 2.165430314901663e7 0.0
2.165430314901663e7 -1.0244682271984546e7 0.0
0.0 0.0 0.0

-2.3596802113315407e6 2.6671384016318757e7 0.0
2.6671384016318757e7 1.5742777148639545e7 0.0
0.0 0.0 0.0

2.8694848979823533e6 2.867387151337338e7 0.0
2.867387151337338e7 -1.277776751077428e7 0.0
0.0 0.0 0.0

954057.8765112156 4.652721827442711e7 0.0
4.652721827442711e7 -1.733191565617828e6 0.0
0.0 0.0 0.0

-6.966821929990912e6 1.2369850212677827e7 0.0
1.2369850212677827e7 1.836763439019117e7 0.0
0.0 0.0 0.0

-8.569025757533941e6 1.3448495126997132e7 0.0
1.3448495126997132e7 3.5989956438693285e7 0.0
0.0 0.0 0.0

842250.1762537945 4.532365323479414e7 0.0
4.532365323479414e7 -1.5273407958841973e6 0.0
0.0 0.0 0.0

1.5113593716726252e6 2.9758159342603803e7 0.0
2.9758159342603803e7 -1.0600240927288435e7 0.0
0.0 0.0 0.0

938361.8968298659 1.3273585538805554e7 0.0
1.3273585538805554e7 -2.4213412640579663e7 0.0
0.0 0.0 0.0

-2.637895737512864e6 2.122275071349667e7 0.0
2.122275071349667e7 1.826538079083597e7 0.0
0.0 0.0 0.0

-296359.400396727 1.071923097204015e7 0.0
1.071923097204015e7 -5.306587963708387e7 0.0
0.0 0.0 0.0

-414883.6382122774 3.8874304306246504e7 0.0
3.8874304306246504e7 861222.8025593588 0.0
0.0 0.0 0.0

-3.9400645959369363e6 2.769839226265706e7 0.0
2.769839226265706e7 1.2263477073127791e7 0.0
0.0 0.0 0.0

-1.7834989251883365e6 1.6408294524598494e7 0.0
1.6408294524598494e7 -4.589097987113774e7 0.0
0.0 0.0 0.0

-3.9095941801870093e6 3.307561883317934e7 0.0
3.307561883317934e7 7.133426946465028e6 0.0
0.0 0.0 0.0

-8.221485960218994e6 1.3018588637068631e7 0.0
1.3018588637068631e7 3.880255146407172e7 0.0
0.0 0.0 0.0

726529.4969688021 1.2854713441342238e7 0.0
1.2854713441342238e7 -2.0593246736833606e7 0.0
0.0 0.0 0.0

3.6866999142254223e6 2.6618784544362105e7 0.0
2.6618784544362105e7 1.3738173046529774e7 0.0
0.0 0.0 0.0

-2.258483271167135e6 2.9612553989009753e7 0.0
2.9612553989009753e7 9.957092103439115e6 0.0
0.0 0.0 0.0

-2.600729860422386e6 1.7604449467136443e7 0.0
1.7604449467136443e7 -4.544965520654341e7 0.0
0.0 0.0 0.0

-865800.0667091263 7.35830948749569e7 0.0
7.35830948749569e7 -9.336563168187648e6 0.0
0.0 0.0 0.0

-5.132502561350949e6 2.093139117814564e7 0.0
2.093139117814564e7 2.7801482818949997e7 0.0
0.0 0.0 0.0

-1.626228737606702e7 2.1319776737538915e7 0.0
2.1319776737538915e7 -7.68404329518572e7 0.0
0.0 0.0 0.0

-5.02833477222477e6 1.265152494621858e7 0.0
1.265152494621858e7 1.4342019930270027e7 0.0
0.0 0.0 0.0

-2.9938950834864043e6 2.475148101964019e7 0.0
2.475148101964019e7 1.4957289539855143e7 0.0
0.0 0.0 0.0

-838701.7789811864 2.1007170213219024e7 0.0
2.1007170213219024e7 4.0662633950510114e7 0.0
0.0 0.0 0.0

-3.1821729795367178e6 1.982661196833161e7 0.0
1.982661196833161e7 1.9170913713452406e7 0.0
0.0 0.0 0.0

4.288416947002899e6 1.976815633621521e7 0.0
1.976815633621521e7 7.789719154020332e7 0.0
0.0 0.0 0.0

-1.9068165679177055e6 2.4800327579598363e7 0.0
2.4800327579598363e7 1.447442149141123e7 0.0
0.0 0.0 0.0

-2.547803303409688e6 2.2313690781873826e7 0.0
2.2313690781873826e7 -3.0024457378122937e7 0.0
0.0 0.0 0.0

1.6413140652575102e6 2.6030545955255434e7 0.0
2.6030545955255434e7 -1.7174688026869085e7 0.0
0.0 0.0 0.0

2.1541673110855603e8 3.804698152060936e7 0.0
3.804698152060936e7 2.0918149932083905e7 0.0
0.0 0.0 0.0

-6.670289636058174e6 -1.283891109675926e6 0.0
-1.283891109675926e6 4.708423839225882e7 0.0
0.0 0.0 0.0

1.8642919221145362e6 1.2588928216875498e6 0.0
1.2588928216875498e6 -4.749071802525491e7 0.0
0.0 0.0 0.0

-1.0130175826543137e7 3.2562720574060758e6 0.0
3.2562720574060758e6 1.7617948953585654e7 0.0
0.0 0.0 0.0

-392029.84601953416 3.254859760216877e7 0.0
3.254859760216877e7 -3.646730442911777e6 0.0
0.0 0.0 0.0

-5.58700389055419e6 -775777.4769410016 0.0
-775777.4769410016 6.044060818406853e7 0.0
0.0 0.0 0.0

-1.0820393857326517e7 2.0413508746334307e7 0.0
2.0413508746334307e7 -4.5794153002581924e7 0.0
0.0 0.0 0.0

-7.16654739210224e6 1.6354316685474792e7 0.0
1.6354316685474792e7 3.3001044997275703e7 0.0
0.0 0.0 0.0

-4.5405312199170925e6 2.2500115391977575e7 0.0
2.2500115391977575e7 2.4411964305802748e7 0.0
0.0 0.0 0.0

1.53234439189123e6 1.2124473035509377e6 0.0
1.2124473035509377e6 -5.3949452384316534e7 0.0
0.0 0.0 0.0

1.294666433844707e6 2.229345503401009e7 0.0
2.229345503401009e7 -1.8635418589979816e7 0.0
0.0 0.0 0.0

972051.2857962649 4.976867440241664e7 0.0
4.976867440241664e7 -1.566178649384936e6 0.0
0.0 0.0 0.0

426262.97904469445 1.3749356718768172e7 0.0
1.3749356718768172e7 -1.9071015821343973e7 0.0
0.0 0.0 0.0

-5.325940589102283e6 2.691305723597791e7 0.0
2.691305723597791e7 -5.52734790599761e6 0.0
0.0 0.0 0.0

2.4053502979569137e6 1.027303456541517e7 0.0
1.027303456541517e7 1.268561830299233e8 0.0
0.0 0.0 0.0

-4.1491464325511977e6 9.800337996911388e6 0.0
9.800337996911388e6 -1.2489888351791252e8 0.0
0.0 0.0 0.0

-9.000432693879288e6 2.0356912630578276e7 0.0
2.0356912630578276e7 -1.0631009083170716e8 0.0
0.0 0.0 0.0

1.2944325871332344e6 1.9851508706866976e7 0.0
1.9851508706866976e7 -2.359294718190351e7 0.0
0.0 0.0 0.0

980325.1167139187 8.132515036038261e6 0.0
8.132515036038261e6 -5.7848309060045615e7 0.0
0.0 0.0 0.0

-3.18063112074296e7 3.531685052389715e7 0.0
3.531685052389715e7 827515.3973327074 0.0
0.0 0.0 0.0

2.660525260921331e6 2.782149611396834e7 0.0
2.782149611396834e7 -1.4326544950851656e7 0.0
0.0 0.0 0.0

-6.478058420697967e6 -1.2800441170924623e6 0.0
-1.2800441170924623e6 4.8683362817337826e7 0.0
0.0 0.0 0.0

-6.31647190049167e6 1.5305576059403349e7 0.0
1.5305576059403349e7 1.988584861786732e7 0.0
0.0 0.0 0.0

-2.3604121754598343e6 3.313258844510576e7 0.0
3.313258844510576e7 5.83407051189963e6 0.0
0.0 0.0 0.0

-3.2023921686751693e6 2.7494450513668273e7 0.0
2.7494450513668273e7 1.4259531615123253e7 0.0
0.0 0.0 0.0

-5.998160313440847e6 1.851202803790524e7 0.0
1.851202803790524e7 2.066581820808854e7 0.0
0.0 0.0 0.0

-8.55451459296279e6 1.1144121569802359e7 0.0
1.1144121569802359e7 2.0469139623310726e7 0.0
0.0 0.0 0.0

1.1340003686833533e7 2.6056843727450613e7 0.0
2.6056843727450613e7 7.566667080939349e6 0.0
0.0 0.0 0.0

1.435731969825067e6 3.079366520729134e7 0.0
3.079366520729134e7 -9.382525536670607e6 0.0
0.0 0.0 0.0

-4.910821597238167e6 8.033564978044822e6 0.0
8.033564978044822e6 3.583636769781504e6 0.0
0.0 0.0 0.0

1.7873407295212331e6 3.566708698992212e7 0.0
3.566708698992212e7 -2.921940622175925e6 0.0
0.0 0.0 0.0

-6.285904691801412e6 1.950641220191022e7 0.0
1.950641220191022e7 3.0982715719587408e7 0.0
0.0 0.0 0.0

-2.4802756113823205e6 2.0735686733803995e7 0.0
2.0735686733803995e7 1.6875754831047393e7 0.0
0.0 0.0 0.0

-6.295815778199788e6 -1.2259581511845929e6 0.0
-1.2259581511845929e6 5.025443460796023e7 0.0
0.0 0.0 0.0

1.633808334849611e6 1.2616965504958318e6 0.0
1.2616965504958318e6 -5.066338398330168e7 0.0
0.0 0.0 0.0

785468.0625739321 8.513957865318103e6 0.0
8.513957865318103e6 -6.183374951615195e7 0.0
0.0 0.0 0.0

-8.415218666660918e6 1.5453781505691832e7 0.0
1.5453781505691832e7 3.169858933624566e7 0.0
0.0 0.0 0.0

-1.8187957879340202e6 5.742835081962751e6 0.0
5.742835081962751e6 -1.0883588842388447e8 0.0
0.0 0.0 0.0

-4.050107337820012e6 494026.73600048805 0.0
494026.73600048805 7.935591474292035e7 0.0
0.0 0.0 0.0

1.0716718529230934e6 1.2401058972272336e7 0.0
1.2401058972272336e7 -2.5859080682059884e7 0.0
0.0 0.0 0.0

2.121577209187288e6 1.0579169318341808e7 0.0
1.0579169318341808e7 -2.915231608572171e7 0.0
0.0 0.0 0.0

9.700508083521629e6 4.5321128259880155e7 0.0
4.5321128259880155e7 -3.4798324213802963e6 0.0
0.0 0.0 0.0

-9.450633736935148e6 3.835554499435166e7 0.0
3.835554499435166e7 6.742925504673744e6 0.0
0.0 0.0 0.0

-2.3538387909256737e6 2.8784127240764845e7 0.0
2.8784127240764845e7 1.1315961047797099e7 0.0
0.0 0.0 0.0

2.280852097419742e6 3.405215945319713e7 0.0
3.405215945319713e7 -5.014278979412283e6 0.0
0.0 0.0 0.0

-964453.1013069795 4.598447349716907e7 0.0
4.598447349716907e7 1.4118383125387132e6 0.0
0.0 0.0 0.0

-2.971439405013036e6 3.0755694888712373e7 0.0
3.0755694888712373e7 1.0522927939683206e7 0.0
0.0 0.0 0.0

2.0757948398347278e6 2.381836757153888e7 0.0
2.381836757153888e7 1.6080319331822425e7 0.0
0.0 0.0 0.0

-209994.5773678273 2.8052477894049683e6 0.0
2.8052477894049683e6 -9.212250143829863e7 0.0
0.0 0.0 0.0

1.4010495062093884e6 1.152139479531948e6 0.0
1.152139479531948e6 -6.077432981505444e7 0.0
0.0 0.0 0.0

562211.2864156067 1.6764915224752328e6 0.0
1.6764915224752328e6 -7.948723190679133e7 0.0
0.0 0.0 0.0

-2.2080735008279006e6 3.370574933891336e7 0.0
3.370574933891336e7 1.8614762291376828e6 0.0
0.0 0.0 0.0

-6.472512978561093e6 1.3720498848076547e7 0.0
1.3720498848076547e7 1.2464206688002875e7 0.0
0.0 0.0 0.0

-5.2903171277752e6 -647126.4250712538 0.0
-647126.4250712538 6.2215672458245195e7 0.0
0.0 0.0 0.0

-8.358580883343101e6 1.5903361816699268e7 0.0
1.5903361816699268e7 2.927707737742405e7 0.0
0.0 0.0 0.0

2.539357964371329e6 3.463408044591195e6 0.0
3.463408044591195e6 -3.1477522369986128e7 0.0
0.0 0.0 0.0

-1.8157670297065683e7 3.4755803350744195e7 0.0
3.4755803350744195e7 4.704396633680764e6 0.0
0.0 0.0 0.0

-1.0269720788430052e7 2.191395765373379e7 0.0
2.191395765373379e7 -3.856038449764036e7 0.0
0.0 0.0 0.0

-7.016309312875554e6 -1.7654249149149454e6 0.0
-1.7654249149149454e6 4.041598676233263e7 0.0
0.0 0.0 0.0

-1.0140794482391942e7 7.6861223462935565e6 0.0
7.6861223462935565e6 2.833835662879137e7 0.0
0.0 0.0 0.0

-7.371400701121787e6 1.2196793906497808e7 0.0
1.2196793906497808e7 4.511538965643135e7 0.0
0.0 0.0 0.0

-2.4691565310830753e6 2.5062726895266842e7 0.0
2.5062726895266842e7 2.3275509770380337e7 0.0
0.0 0.0 0.0

471263.9210364036 1.5553011852854982e7 0.0
1.5553011852854982e7 -3.4939168567174375e7 0.0
0.0 0.0 0.0

506526.1029269099 2.255414914582211e6 0.0
2.255414914582211e6 -8.731198583344625e7 0.0
0.0 0.0 0.0

1.9164469819842838e6 1.340944465737037e6 0.0
1.340944465737037e6 -4.282294367866736e7 0.0
0.0 0.0 0.0

2.1405071355330154e7 4.867986394446557e7 0.0
4.867986394446557e7 -7.667712681860228e6 0.0
0.0 0.0 0.0

-4.346121389041834e6 308007.6129929807 0.0
308007.6129929807 7.631109590485686e7 0.0
0.0 0.0 0.0

816863.0534801781 1.0051300835873777e7 0.0
1.0051300835873777e7 -5.209175824152313e7 0.0
0.0 0.0 0.0

-2.942903570440002e6 3.2749852155574653e6 0.0
3.2749852155574653e6 9.95746947789138e7 0.0
0.0 0.0 0.0

-343866.93516007066 3.7929334862802196e6 0.0
3.7929334862802196e6 -9.889133369165573e7 0.0
0.0 0.0 0.0

-4.524253292019574e6 3.2505636761155e7 0.0
3.2505636761155e7 1.0224317325249966e7 0.0
0.0 0.0 0.0

-1.6611442346192447e6 1.5369287333331125e7 0.0
1.5369287333331125e7 -7.822378488633756e6 0.0
0.0 0.0 0.0

-127461.03125682846 2.3551841602353103e7 0.0
2.3551841602353103e7 -1.4703659151213419e7 0.0
0.0 0.0 0.0

341285.6117159296 2.1639475265158672e7 0.0
2.1639475265158672e7 -2.5574056469936226e7 0.0
0.0 0.0 0.0

-3.598814171897441e6 814816.7468606046 0.0
814816.7468606046 8.299446614313036e7 0.0
0.0 0.0 0.0

380218.1958576292 1.9981639661107047e6 0.0
1.9981639661107047e6 -8.314283838784839e7 0.0
0.0 0.0 0.0

-5.395358921575783e6 2.031884092121988e7 0.0
2.031884092121988e7 3.1818337620579287e7 0.0
0.0 0.0 0.0

-6.699344986851765e6 1.8920035695727352e7 0.0
1.8920035695727352e7 3.0274557078447677e7 0.0
0.0 0.0 0.0

-7.771852255755087e6 1.4012768739372851e7 0.0
1.4012768739372851e7 3.969841250429445e7 0.0
0.0 0.0 0.0

-4.130607146543852e6 1.8993346276715368e7 0.0
1.8993346276715368e7 2.1438921544825237e7 0.0
0.0 0.0 0.0

8.329367519547686e6 2.244361517142134e7 0.0
2.244361517142134e7 5.3619524601768166e7 0.0
0.0 0.0 0.0

2.749698813073916e6 3.155500195121478e7 0.0
3.155500195121478e7 -8.181830785270945e6 0.0
0.0 0.0 0.0

-2.1244747294994886e6 3.617174824637248e7 0.0
3.617174824637248e7 958727.4006762014 0.0
0.0 0.0 0.0

2.574577833534227e6 3.3533414001353618e7 0.0
3.3533414001353618e7 -6.978413970681546e6 0.0
0.0 0.0 0.0

1.92865551895912e6 1.247702856229321e7 0.0
1.247702856229321e7 -2.5868406507420253e7 0.0
0.0 0.0 0.0

-5.243552298468228e6 3.659568054124526e7 0.0
3.659568054124526e7 6.643906739246067e6 0.0
0.0 0.0 0.0

-3.135153987720743e6 2.579807402547414e7 0.0
2.579807402547414e7 -7.632609833656138e6 0.0
0.0 0.0 0.0

1.3670321225884166e6 1.833932187916451e7 0.0
1.833932187916451e7 -2.6966283569301724e7 0.0
0.0 0.0 0.0

-5.150233281056926e6 1.8004543175466027e7 0.0
1.8004543175466027e7 4.0330005512758516e7 0.0
0.0 0.0 0.0

-7.941645277049063e6 1.6162307322486756e7 0.0
1.6162307322486756e7 3.2677942426299486e7 0.0
0.0 0.0 0.0

1.2657237036507875e6 1.122403454081637e7 0.0
1.122403454081637e7 -3.0165861409115545e7 0.0
0.0 0.0 0.0

-5.962994262730204e6 -1.0411814880739375e6 0.0
-1.0411814880739375e6 5.516832504049782e7 0.0
0.0 0.0 0.0

1.4201258088396452e6 1.2305044898564415e6 0.0
1.2305044898564415e6 -5.559084171006853e7 0.0
0.0 0.0 0.0

2.4220887374698455e6 2.2833220952923574e7 0.0
2.2833220952923574e7 3.1884600414872684e7 0.0
0.0 0.0 0.0

-4.466564753031101e6 146469.16065451695 0.0
146469.16065451695 7.346380372362363e7 0.0
0.0 0.0 0.0

667926.9346564598 1.4819109428713736e6 0.0
1.4819109428713736e6 -7.359552498268339e7 0.0
0.0 0.0 0.0

1.3396895543283038e6 1.3063187299547521e6 0.0
1.3063187299547521e6 -5.72265931256525e7 0.0
0.0 0.0 0.0

-5.795312924013685e6 -904823.9044298794 0.0
-904823.9044298794 5.685134367968622e7 0.0
0.0 0.0 0.0

841883.0607686937 1.977552733321948e7 0.0
1.977552733321948e7 5.336188808478937e7 0.0
0.0 0.0 0.0

898109.100761354 1.3632058289075557e6 0.0
1.3632058289075557e6 -7.119036465009163e7 0.0
0.0 0.0 0.0

-4.635683260069642e6 -117629.54131737925 0.0
-117629.54131737925 7.077185337972447e7 0.0
0.0 0.0 0.0

-1.3266753790715877e6 2.4253905765265997e7 0.0
2.4253905765265997e7 2.706916425951312e7 0.0
0.0 0.0 0.0

-6.59250274388092e6 1.862080330952271e6 0.0
1.862080330952271e6 5.0301182860683024e7 0.0
0.0 0.0 0.0

-5.68238312610697e6 -797874.1820355508 0.0
-797874.1820355508 5.866191019002266e7 0.0
0.0 0.0 0.0

1.5400055690159686e6 1.2724776677379075e6 0.0
1.2724776677379075e6 -5.9073612825684026e7 0.0
0.0 0.0 0.0

955850.6425986364 1.3779054617214818e6 0.0
1.3779054617214818e6 -6.889575036257052e7 0.0
0.0 0.0 0.0

-4.861813735684838e6 -351548.554692052 0.0
-351548.554692052 6.839978807392234e7 0.0
0.0 0.0 0.0

-3.761820076307422e8 8.137293445750839e7 0.0
8.137293445750839e7 -4.4900997675858095e7 0.0
0.0 0.0 0.0

3.6743016991468006e8 7.661512749012738e7 0.0
7.661512749012738e7 3.958412740179795e7 0.0
0.0 0.0 0.0

-5.869765717871319e6 1.9086541972022705e7 0.0
1.9086541972022705e7 2.1867698637574103e7 0.0
0.0 0.0 0.0

836561.1104199328 1.2354784426960563e6 0.0
1.2354784426960563e6 -6.6637594558517404e7 0.0
0.0 0.0 0.0

-5.15848505291301e6 -447853.5186388863 0.0
-447853.5186388863 6.6382660752760634e7 0.0
0.0 0.0 0.0

639924.52149297 2.4000592164293017e7 0.0
2.4000592164293017e7 -1.2598925961860626e6 0.0
0.0 0.0 0.0

-7.538713167695347e6 1.729809034603033e7 0.0
1.729809034603033e7 3.1096244636908177e7 0.0
0.0 0.0 0.0

-2.0941847308630364e6 3.389430576889403e7 0.0
3.389430576889403e7 4.743244627400573e6 0.0
0.0 0.0 0.0

3.2199719873292577e6 2.35191631779817e7 0.0
2.35191631779817e7 3.2868466890759252e7 0.0
0.0 0.0 0.0

-5.273015685155392e6 -490727.02734133333 0.0
-490727.02734133333 6.431884136598206e7 0.0
0.0 0.0 0.0

1.0979123534790203e6 1.0812507639011622e6 0.0
1.0812507639011622e6 -6.473752699887883e7 0.0
0.0 0.0 0.0

1.4371068795203767e6 3.176422349099317e7 0.0
3.176422349099317e7 -8.211018669223489e6 0.0
0.0 0.0 0.0

-1.2093195946229238e7 2.1235416654524945e7 0.0
2.1235416654524945e7 -7.839387638461797e7 0.0
0.0 0.0 0.0

160085.15357169684 3.57835422570093e7 0.0
3.57835422570093e7 -2.7870174537826795e6 0.0
0.0 0.0 0.0

1.3334500051609734e6 2.0658608946451876e7 0.0
2.0658608946451876e7 -2.191101056636264e7 0.0
0.0 0.0 0.0

-75575.23621498607 1.9095779772305842e7 0.0
1.9095779772305842e7 -3.157961332514144e7 0.0
0.0 0.0 0.0

447012.7816240643 2.4239025268415716e7 0.0
2.4239025268415716e7 9.078047630073557e6 0.0
0.0 0.0 0.0

4.958807072431264e6 3.1605657376387954e7 0.0
3.1605657376387954e7 -9.80890480992385e6 0.0
0.0 0.0 0.0

2.787069825410514e6 2.866677160323614e7 0.0
2.866677160323614e7 -1.264082340834998e7 0.0
0.0 0.0 0.0

-9.023764887605619e6 1.9791650988365717e7 0.0
1.9791650988365717e7 -6.048808609208895e7 0.0
0.0 0.0 0.0

-989950.5268747809 3.570702134108909e7 0.0
3.570702134108909e7 1.674982919838485e6 0.0
0.0 0.0 0.0

-2.7456602002267307e6 2.8123433209617574e7 0.0
2.8123433209617574e7 1.2138597894683095e7 0.0
0.0 0.0 0.0

-1.0833558986641213e7 2.9680176259202488e7 0.0
2.9680176259202488e7 -1.586644681315576e7 0.0
0.0 0.0 0.0

-439608.9735472407 1.9705556086852517e7 0.0
1.9705556086852517e7 -3.1628308983754706e7 0.0
0.0 0.0 0.0

-8.188777436971176e6 1.6374518859081589e7 0.0
1.6374518859081589e7 2.6821136067356806e7 0.0
0.0 0.0 0.0

4.264656335109518e6 2.264253522982207e7 0.0
2.264253522982207e7 1.72442963742268e7 0.0
0.0 0.0 0.0

-7.19422806482706e6 1.7921398103272103e7 0.0
1.7921398103272103e7 2.6339812322011907e7 0.0
0.0 0.0 0.0

-1.1751962144354475e6 2.3794152801939696e7 0.0
2.3794152801939696e7 -1.8845672045330436e6 0.0
0.0 0.0 0.0

-1.3914841745357504e6 3.520971760555189e7 0.0
3.520971760555189e7 2.7894135456509283e6 0.0
0.0 0.0 0.0

-3.9612076751720067e6 1.9939038532432154e7 0.0
1.9939038532432154e7 -4.092148507138212e7 0.0
0.0 0.0 0.0

-533270.8761814032 2.4384070416666176e7 0.0
2.4384070416666176e7 2.6861757344545215e7 0.0
0.0 0.0 0.0

-1.2613148199551655e6 4.729894169174525e7 0.0
4.729894169174525e7 1.9781657794901743e6 0.0
0.0 0.0 0.0

-2.0161799321293142e6 2.436531511990935e7 0.0
2.436531511990935e7 -2.8801550310422387e6 0.0
0.0 0.0 0.0

1.085484532819106e6 3.348290571913138e7 0.0
3.348290571913138e7 -5.898030005913065e6 0.0
0.0 0.0 0.0

2.513097551907992e7 3.0176319980757516e7 0.0
3.0176319980757516e7 1.725762586398744e7 0.0
0.0 0.0 0.0

-1.8100715821960834e6 3.459223602494847e7 0.0
3.459223602494847e7 3.7162697390789688e6 0.0
0.0 0.0 0.0

-1.0900498974739544e7 1.9000370266723853e7 0.0
1.9000370266723853e7 -5.058399486702334e6 0.0
0.0 0.0 0.0

-1.2001448158608284e6 3.835703645369911e7 0.0
3.835703645369911e7 1.6674369306726097e6 0.0
0.0 0.0 0.0

2.3708562769125607e6 1.5464336114915037e6 0.0
1.5464336114915037e6 -3.33453227437183e7 0.0
0.0 0.0 0.0

2.4942318358892538e6 1.6134074726713244e6 0.0
1.6134074726713244e6 -3.1955237028914794e7 0.0
0.0 0.0 0.0

1.3778316614748426e6 3.26548502100298e7 0.0
3.26548502100298e7 -6.816602456359516e6 0.0
0.0 0.0 0.0

4.890933520859335e6 2.250419545008585e7 0.0
2.250419545008585e7 4.407710817112256e7 0.0
0.0 0.0 0.0

-421930.8912025332 3.975174334495503e7 0.0
3.975174334495503e7 977649.1690646068 0.0
0.0 0.0 0.0

-8.025933009698249e6 1.4412165417022198e7 0.0
1.4412165417022198e7 3.6953002342366725e7 0.0
0.0 0.0 0.0

-717041.9768283642 4.3810215572734505e7 0.0
4.3810215572734505e7 1.2079094518568078e6 0.0
0.0 0.0 0.0

-2.236801440778084e6 2.6260785329864345e7 0.0
2.6260785329864345e7 1.5645959702749943e7 0.0
0.0 0.0 0.0

609497.0025440368 2.2576874718240485e7 0.0
2.2576874718240485e7 6.701538898313334e6 0.0
0.0 0.0 0.0

842415.4684327431 1.5264082562940901e7 0.0
1.5264082562940901e7 -3.700630820454101e7 0.0
0.0 0.0 0.0

-3.3784518647318776e6 3.366180624654682e7 0.0
3.366180624654682e7 4.983168365142259e6 0.0
0.0 0.0 0.0

-7.6862469908257965e6 -113486.1757842293 0.0
-113486.1757842293 3.6513146491766445e7 0.0
0.0 0.0 0.0

774239.8353713639 1.9161821555330355e7 0.0
1.9161821555330355e7 5.677275014448165e7 0.0
0.0 0.0 0.0

-8.085445399453724e6 1.9357601213181555e7 0.0
1.9357601213181555e7 -6.793013346726505e7 0.0
0.0 0.0 0.0

-6.616986994684719e6 1.5131092767885212e7 0.0
1.5131092767885212e7 4.117432136571953e7 0.0
0.0 0.0 0.0

1.0941395701535221e7 3.2704398800865714e7 0.0
3.2704398800865714e7 -6.315248450871718e6 0.0
0.0 0.0 0.0

1.2276584693672806e6 1.6015298348186266e7 0.0
1.6015298348186266e7 -3.2462888603777066e7 0.0
0.0 0.0 0.0

-2.200095594331324e6 2.3810071060743738e7 0.0
2.3810071060743738e7 -1.5546176376059637e6 0.0
0.0 0.0 0.0

593620.2891640568 3.510081086882185e7 0.0
3.510081086882185e7 -3.7812835361440065e6 0.0
0.0 0.0 0.0

-1.1559045535482597e6 2.3247015503354385e7 0.0
2.3247015503354385e7 -6.665289108225279e6 0.0
0.0 0.0 0.0

-7.579490914676825e6 1.5645041093213528e7 0.0
1.5645041093213528e7 3.20938453634893e7 0.0
0.0 0.0 0.0

-5.849183052399157e6 1.7138593474813506e7 0.0
1.7138593474813506e7 3.9729214144396275e7 0.0
0.0 0.0 0.0

876210.6649531813 3.43086359659551e7 0.0
3.43086359659551e7 -4.854190721253416e6 0.0
0.0 0.0 0.0

-5.210894483133002e6 1.8204962754584685e7 0.0
1.8204962754584685e7 2.3462257501684986e7 0.0
0.0 0.0 0.0

1.5473871062752604e6 4.805307223481918e6 0.0
4.805307223481918e6 -5.44602774830054e7 0.0
0.0 0.0 0.0

-4.17876942709178e6 2.122444487695663e7 0.0
2.122444487695663e7 1.885711869461912e7 0.0
0.0 0.0 0.0

-2.605546889157698e6 2.296588135371139e7 0.0
2.296588135371139e7 -1.4413905227735326e7 0.0
0.0 0.0 0.0

1.264614208697922e6 2.422382524933486e7 0.0
2.422382524933486e7 2.422638763912627e6 0.0
0.0 0.0 0.0

-4.9678816517805895e6 2.586936402431521e7 0.0
2.586936402431521e7 -1.675093969046034e7 0.0
0.0 0.0 0.0

-1.3486858270353132e6 2.3683748327963736e7 0.0
2.3683748327963736e7 -8.60589038202551e6 0.0
0.0 0.0 0.0

101073.548663944 1.9771557988401234e7 0.0
1.9771557988401234e7 -2.950027026492796e7 0.0
0.0 0.0 0.0

1.1091239115099795e6 9.586293101209698e6 0.0
9.586293101209698e6 -3.8723121999493845e7 0.0
0.0 0.0 0.0

-1.963283720516339e6 2.3110038112162802e7 0.0
2.3110038112162802e7 -1.0507951456889937e7 0.0
0.0 0.0 0.0

1.0488896517185066e6 1.3056176976952128e7 0.0
1.3056176976952128e7 -2.679111181787979e7 0.0
0.0 0.0 0.0

2.7573067122293413e6 3.8215697078739647e6 0.0
3.8215697078739647e6 -2.5178811237613633e7 0.0
0.0 0.0 0.0

-2.890587007882228e6 3.509105257377644e7 0.0
3.509105257377644e7 2.900446962988209e6 0.0
0.0 0.0 0.0

-1.5135829136841397e6 1.6002697156980252e7 0.0
1.6002697156980252e7 -9.638466479180794e6 0.0
0.0 0.0 0.0

-2.196190733976024e6 2.517230536889562e7 0.0
2.517230536889562e7 2.2724246943973806e7 0.0
0.0 0.0 0.0

-7.924060542207317e6 -3.1490020396674136e6 0.0
-3.1490020396674136e6 2.488357136912025e7 0.0
0.0 0.0 0.0

6.718061721168047e6 2.6130208627762128e7 0.0
2.6130208627762128e7 4.121821911521723e6 0.0
0.0 0.0 0.0

-6.6454508103618715e6 2.60552983331872e7 0.0
2.60552983331872e7 -1.863386063113634e7 0.0
0.0 0.0 0.0

1.3339120236378685e6 1.0229951458832214e7 0.0
1.0229951458832214e7 -3.1820320188062705e7 0.0
0.0 0.0 0.0

-1.4028757078630283e8 2.463698324752829e7 0.0
2.463698324752829e7 2.684964633915417e6 0.0
0.0 0.0 0.0

-2.7107482450882997e6 2.360038862754463e7 0.0
2.360038862754463e7 2.7508476100030307e7 0.0
0.0 0.0 0.0

1.6192463974854993e6 2.4296514927937135e7 0.0
2.4296514927937135e7 -1.8353157112782747e7 0.0
0.0 0.0 0.0

-1.2279502302784175e6 2.146199683823308e7 0.0
2.146199683823308e7 -1.0733003440956883e7 0.0
0.0 0.0 0.0

640769.778880313 1.7548318325349163e7 0.0
1.7548318325349163e7 -3.325734744327884e7 0.0
0.0 0.0 0.0

3.176637959584183e6 2.3284220165595975e7 0.0
2.3284220165595975e7 1.673546947993625e7 0.0
0.0 0.0 0.0

-238769.41294535622 1.5787495397037106e7 0.0
1.5787495397037106e7 -4.239443551346804e7 0.0
0.0 0.0 0.0

3.230608712544567e6 2.3723114646423228e7 0.0
2.3723114646423228e7 1.9564214403826766e7 0.0
0.0 0.0 0.0

602095.1360725332 2.1745125393757306e7 0.0
2.1745125393757306e7 -2.076001520876523e7 0.0
0.0 0.0 0.0

2.0687536615684703e6 9.962102038593432e6 0.0
9.962102038593432e6 -3.409945720779041e7 0.0
0.0 0.0 0.0

800973.1013866328 2.342069521131369e6 0.0
2.342069521131369e6 -6.3066013129603565e7 0.0
0.0 0.0 0.0

8.415423992074583e6 3.5115944961181246e7 0.0
3.5115944961181246e7 -7.146347454819921e6 0.0
0.0 0.0 0.0

421408.66415340453 1.5452023454329757e7 0.0
1.5452023454329757e7 -3.968824281498493e7 0.0
0.0 0.0 0.0

-5.34257748904858e6 3.5476285941719115e7 0.0
3.5476285941719115e7 7.473089236064341e6 0.0
0.0 0.0 0.0

-1.0417197678043796e7 2.8060103905241672e7 0.0
2.8060103905241672e7 1.7886072177988505e6 0.0
0.0 0.0 0.0

2.0112957674706914e6 9.312724965269009e6 0.0
9.312724965269009e6 -1.4996921473178506e7 0.0
0.0 0.0 0.0

-1.866829789672235e6 4.868184168768236e7 0.0
4.868184168768236e7 2.432198782438998e6 0.0
0.0 0.0 0.0

2.0071682652907874e6 1.132080459519138e7 0.0
1.132080459519138e7 -3.0031219155719206e7 0.0
0.0 0.0 0.0

5.122304792920027e6 2.099207062255387e7 0.0
2.099207062255387e7 5.908111337944901e7 0.0
0.0 0.0 0.0

-1.0960706656034864e6 2.4562792905493006e7 0.0
2.4562792905493006e7 2.3914317106877677e6 0.0
0.0 0.0 0.0

-9.786685365373716e6 3.67116966296928e7 0.0
3.67116966296928e7 7.278828226640439e6 0.0
0.0 0.0 0.0

-6.790588776802318e6 1.7131870349335693e7 0.0
1.7131870349335693e7 2.7936699152546737e7 0.0
0.0 0.0 0.0

366598.7665584497 1.705315123336035e7 0.0
1.705315123336035e7 -3.3264512458973322e7 0.0
0.0 0.0 0.0

-3.059168711240954e6 1.4073810348224016e7 0.0
1.4073810348224016e7 -680255.4750945317 0.0
0.0 0.0 0.0

-306532.1084858384 2.448772333236781e7 0.0
2.448772333236781e7 -7.334080851992397e6 0.0
0.0 0.0 0.0

2.0249000475237507e7 2.7241811084715046e7 0.0
2.7241811084715046e7 6.52412430995951e6 0.0
0.0 0.0 0.0

1.3595555667574042e6 2.421283489339879e7 0.0
2.421283489339879e7 -2.0381169231404915e7 0.0
0.0 0.0 0.0

416805.5067771529 1.0957655235220788e7 0.0
1.0957655235220788e7 -6.859681609680031e6 0.0
0.0 0.0 0.0

177535.83016470075 1.8425409244374897e7 0.0
1.8425409244374897e7 -3.144971337827159e7 0.0
0.0 0.0 0.0

-7.085691949396843e6 261983.83023716087 0.0
261983.83023716087 4.412107378355438e7 0.0
0.0 0.0 0.0

-2.9639843984666932e6 2.6396329600935865e7 0.0
2.6396329600935865e7 1.970686594692991e7 0.0
0.0 0.0 0.0

-7.070616234840181e6 1.7884203379269816e7 0.0
1.7884203379269816e7 3.19603670859612e7 0.0
0.0 0.0 0.0

-2.3665845835564975e7 3.1521574014347505e7 0.0
3.1521574014347505e7 -1.2145497980160022e7 0.0
0.0 0.0 0.0

-8.3251073490177095e6 2.0403436100038327e7 0.0
2.0403436100038327e7 -5.764849500497411e7 0.0
0.0 0.0 0.0

-3.4240676376419575e6 3.171323460590547e7 0.0
3.171323460590547e7 1.0103281519818649e7 0.0
0.0 0.0 0.0

-5.580182168769919e6 3.3110050990455102e7 0.0
3.3110050990455102e7 9.312867982215865e6 0.0
0.0 0.0 0.0

4.371962731655843e6 2.8943344899461713e7 0.0
2.8943344899461713e7 -1.204133590594216e7 0.0
0.0 0.0 0.0

-5.847550125535794e6 1.8480103580100015e7 0.0
1.8480103580100015e7 -5.9420124036820255e7 0.0
0.0 0.0 0.0

-1.2677048055904387e6 2.4512195544757772e7 0.0
2.4512195544757772e7 2.4000193458870865e7 0.0
0.0 0.0 0.0

-5.526802035180036e6 8.003121746990043e6 0.0
8.003121746990043e6 5.922047016905533e7 0.0
0.0 0.0 0.0

2.129025975100677e6 2.60363774847922e6 0.0
2.60363774847922e6 -7.883852629612561e6 0.0
0.0 0.0 0.0

-2.3588874923253404e6 2.180571597450782e7 0.0
2.180571597450782e7 -2.9218917705795553e7 0.0
0.0 0.0 0.0

4.534401807536027e6 3.047821670343222e7 0.0
3.047821670343222e7 -1.0837820364986157e7 0.0
0.0 0.0 0.0

-1.0646320721456548e6 2.513143655708837e7 0.0
2.513143655708837e7 -1.6503358321176397e6 0.0
0.0 0.0 0.0

-667808.3301459514 1.9727947646367192e7 0.0
1.9727947646367192e7 -1.4089014720166918e7 0.0
0.0 0.0 0.0

-1.2300064693022855e7 2.1394564994613126e7 0.0
2.1394564994613126e7 -4.693600208576309e7 0.0
0.0 0.0 0.0

-6.918350823284768e6 1.6256226524722872e7 0.0
1.6256226524722872e7 3.853746878699038e7 0.0
0.0 0.0 0.0

1.5142189358402416e6 3.958891336009147e7 0.0
3.958891336009147e7 -790142.1516997499 0.0
0.0 0.0 0.0

-3.351864374923381e7 3.242928235825665e7 0.0
3.242928235825665e7 -7.5416557609405145e6 0.0
0.0 0.0 0.0

7.284374429451503e6 2.6805563345670804e7 0.0
2.6805563345670804e7 4.46854017951874e6 0.0
0.0 0.0 0.0

1.1487539265915807e6 9.066407678288179e6 0.0
9.066407678288179e6 -1.775019341914977e7 0.0
0.0 0.0 0.0

-1.2516300612549335e6 2.4545398760316048e7 0.0
2.4545398760316048e7 -370197.49161171523 0.0
0.0 0.0 0.0

-6.368496026115319e6 1.3418197016582351e7 0.0
1.3418197016582351e7 4.660924560944436e7 0.0
0.0 0.0 0.0

-7.491052534250907e6 3.80160552514823e7 0.0
3.80160552514823e7 6.36168049778837e6 0.0
0.0 0.0 0.0

-1.8590043545373054e6 2.4515711111931417e7 0.0
2.4515711111931417e7 2.4615648702145267e7 0.0
0.0 0.0 0.0

-1.5305162162710724e6 3.661325102256569e7 0.0
3.661325102256569e7 55390.94613878353 0.0
0.0 0.0 0.0

636437.0166208148 2.0951549249157194e7 0.0
2.0951549249157194e7 -2.237367232677691e7 0.0
0.0 0.0 0.0

-5.600885455658667e6 1.5466394796522167e7 0.0
1.5466394796522167e7 4.670783193918033e7 0.0
0.0 0.0 0.0

42818.994622565806 2.210783872699081e7 0.0
2.210783872699081e7 -2.5436058654060118e7 0.0
0.0 0.0 0.0

-9.83086151080723e6 2.7223359448133815e7 0.0
2.7223359448133815e7 -5.901368679362241e6 0.0
0.0 0.0 0.0

1.4594269875230042e6 4.0421648483274706e7 0.0
4.0421648483274706e7 -966210.9118402955 0.0
0.0 0.0 0.0

2.174930543326203e6 5.15329876965431e6 0.0
5.15329876965431e6 -2.6692161248347946e7 0.0
0.0 0.0 0.0

4.019440718821859e6 2.826671212430455e7 0.0
2.826671212430455e7 -1.0305372237327794e7 0.0
0.0 0.0 0.0

-2.96323486866502e6 3.166574716096387e7 0.0
3.166574716096387e7 9.219704796270523e6 0.0
0.0 0.0 0.0

-7.4434539539600145e6 1.6134355678600933e7 0.0
1.6134355678600933e7 2.9524410082482073e7 0.0
0.0 0.0 0.0

-8.583970611897312e6 2.886934927036514e7 0.0
2.886934927036514e7 -1.4043958405792862e7 0.0
0.0 0.0 0.0

-5.959036709264167e6 1.8255682292848162e7 0.0
1.8255682292848162e7 3.715554441707481e7 0.0
0.0 0.0 0.0

-3.2441505779148163e6 7.493310577664257e6 0.0
7.493310577664257e6 5.620797389718082e6 0.0
0.0 0.0 0.0

-2.605406332746129e6 3.067351833986171e7 0.0
3.067351833986171e7 9.513766407854198e6 0.0
0.0 0.0 0.0

-8.341279265339956e6 1.4914991504592858e7 0.0
1.4914991504592858e7 3.4264690900083855e7 0.0
0.0 0.0 0.0

-3.0730505316672744e6 2.5093795304067064e7 0.0
2.5093795304067064e7 1.6094460241414767e7 0.0
0.0 0.0 0.0

8.261547495871661e6 2.2037883383759562e7 0.0
2.2037883383759562e7 4.7258967891954586e7 0.0
0.0 0.0 0.0

-4.450250020200444e6 1.841492136703637e7 0.0
1.841492136703637e7 -5.1887291846160546e7 0.0
0.0 0.0 0.0

-7.93193173437191e6 -3.5648707068909067e6 0.0
-3.5648707068909067e6 2.308446613777481e7 0.0
0.0 0.0 0.0

1.4491878726934412e7 3.499052755353154e7 0.0
3.499052755353154e7 -5.573426996710983e6 0.0
0.0 0.0 0.0

-7.10667198254771e6 1.4189438799479311e7 0.0
1.4189438799479311e7 4.0359584009722084e7 0.0
0.0 0.0 0.0

43985.290310349315 1.6710234080979401e7 0.0
1.6710234080979401e7 -1.7919041804587707e7 0.0
0.0 0.0 0.0

-1.2356538083507903e6 2.4888869792464968e7 0.0
2.4888869792464968e7 2.0810578019613888e7 0.0
0.0 0.0 0.0

-415307.0764968847 2.3158576218033176e7 0.0
2.3158576218033176e7 -7.770301749777072e6 0.0
0.0 0.0 0.0

-3.229590618475374e6 2.567389136126454e7 0.0
2.567389136126454e7 2.1660603174484674e7 0.0
0.0 0.0 0.0

-435286.26209104946 1.3725782246010443e7 0.0
1.3725782246010443e7 -9.113459964159481e6 0.0
0.0 0.0 0.0

-7.454977808985428e6 3.001127226292674e7 0.0
3.001127226292674e7 7.975459929432455e6 0.0
0.0 0.0 0.0

-3.0523980885721818e6 2.5342213959019884e7 0.0
2.5342213959019884e7 1.706433181737718e7 0.0
0.0 0.0 0.0

3.363804273675317e6 2.792878502564109e7 0.0
2.792878502564109e7 -1.2222034413039105e7 0.0
0.0 0.0 0.0

-3.510556459746861e6 3.2092146277024936e7 0.0
3.2092146277024936e7 7.34250953827246e6 0.0
0.0 0.0 0.0

-399020.81007107126 4.070635275810384e7 0.0
4.070635275810384e7 1.0982872374581306e6 0.0
0.0 0.0 0.0

-3.7392283742348477e6 1.849819039390397e7 0.0
1.849819039390397e7 -4.478347979390925e7 0.0
0.0 0.0 0.0

456879.36049458483 2.390831318436716e6 0.0
2.390831318436716e6 35753.16128119726 0.0
0.0 0.0 0.0

-9.929099852966346e6 2.1816470031760666e6 0.0
2.1816470031760666e6 1.5721828098192867e7 0.0
0.0 0.0 0.0

465883.89860893786 4.507148932217568e6 0.0
4.507148932217568e6 -7.812040204138605e7 0.0
0.0 0.0 0.0

1.6626885233623488e6 3.029169189215161e7 0.0
3.029169189215161e7 -8.022570759213708e6 0.0
0.0 0.0 0.0

-2.310377133573564e6 2.4400262083416544e7 0.0
2.4400262083416544e7 2.5141942389797248e7 0.0
0.0 0.0 0.0

-7.9494642406686675e6 1.660183824466562e7 0.0
1.660183824466562e7 3.021137031517066e7 0.0
0.0 0.0 0.0

-2.6730238872239892e6 5.022807929184624e7 0.0
5.022807929184624e7 2.8229875128039345e6 0.0
0.0 0.0 0.0

-7.83771655624822e6 1.2502906485028572e7 0.0
1.2502906485028572e7 4.1769898788231604e7 0.0
0.0 0.0 0.0

6.037584914520325e7 9.141136495438626e7 0.0
9.141136495438626e7 -3.1020424915598035e6 0.0
0.0 0.0 0.0

1.7805954373954646e6 2.704022317347764e7 0.0
2.704022317347764e7 -1.4972276757542724e7 0.0
0.0 0.0 0.0

1.3141404968251307e6 1.9073089449963387e7 0.0
1.9073089449963387e7 -2.5241417274555057e7 0.0
0.0 0.0 0.0

-2.580259527562308e6 2.57783635499517e7 0.0
2.57783635499517e7 2.070014180070946e7 0.0
0.0 0.0 0.0

-6.6595376954266615e6 1.486332845606961e7 0.0
1.486332845606961e7 4.36464612192062e7 0.0
0.0 0.0 0.0

2.5027468878077334e6 2.950652419273815e7 0.0
2.950652419273815e7 -1.0754547520892035e7 0.0
0.0 0.0 0.0

1.9268784196177665e6 2.45003769200006e7 0.0
2.45003769200006e7 5.991025266621385e6 0.0
0.0 0.0 0.0

1.309301602272356e6 2.29865761937816e6 0.0
2.29865761937816e6 -4.9474123898496374e7 0.0
0.0 0.0 0.0

-8.4258775061997e6 1.229549522966581e7 0.0
1.229549522966581e7 2.1618323553102158e7 0.0
0.0 0.0 0.0

-4.637829354906999e6 5.45530659211488e7 0.0
5.45530659211488e7 4.535069110161185e6 0.0
0.0 0.0 0.0

-2.409631302507505e6 2.4008675959964324e7 0.0
2.4008675959964324e7 2.7430949678658478e7 0.0
0.0 0.0 0.0

-3.0251217539220126e6 2.262748961149133e7 0.0
2.262748961149133e7 -2.4104026661620863e7 0.0
0.0 0.0 0.0

1.1687535847893374e7 2.63794909425668e7 0.0
2.63794909425668e7 1.0862897287742425e7 0.0
0.0 0.0 0.0

-1.0106936349712696e7 7.634705656302574e6 0.0
7.634705656302574e6 2.2034673987417452e7 0.0
0.0 0.0 0.0

-5.072090936933032e6 1.4733114097906817e7 0.0
1.4733114097906817e7 1.0036365815555286e7 0.0
0.0 0.0 0.0

-3.151952575426967e6 2.2731420571711265e7 0.0
2.2731420571711265e7 -1.8324902679504283e7 0.0
0.0 0.0 0.0

459432.2751558088 2.11587699400874e7 0.0
2.11587699400874e7 -1.3862371905578047e7 0.0
0.0 0.0 0.0

-4.1457385959273744e6 2.3283619628060944e7 0.0
2.3283619628060944e7 2.2533700927707404e7 0.0
0.0 0.0 0.0

-3.0230812479626564e6 2.1389423116220877e7 0.0
2.1389423116220877e7 -3.160985697319352e7 0.0
0.0 0.0 0.0

900043.8046516441 1.6030943276194377e7 0.0
1.6030943276194377e7 -3.490624580560208e7 0.0
0.0 0.0 0.0

-3.918232232350209e6 3.167740418647514e7 0.0
3.167740418647514e7 1.0773241161049346e7 0.0
0.0 0.0 0.0

682498.9730415307 2.168432438350094e7 0.0
2.168432438350094e7 -2.5682971633768283e7 0.0
0.0 0.0 0.0

-6.807818281632191e6 1.6992389097471517e7 0.0
1.6992389097471517e7 3.385206926190385e7 0.0
0.0 0.0 0.0

2.9243907264632005e6 5.696623293069147e6 0.0
5.696623293069147e6 -1.8666827488431696e7 0.0
0.0 0.0 0.0

-4.607003875366542e7 4.047445008781422e7 0.0
4.047445008781422e7 -2.03667240086608e7 0.0
0.0 0.0 0.0

899178.6129095517 8.40282472347251e6 0.0
8.40282472347251e6 -1.363365099010233e7 0.0
0.0 0.0 0.0

3.136595318494063e6 2.2935856766571784e6 0.0
2.2935856766571784e6 -1.832406214940563e7 0.0
0.0 0.0 0.0

-6.0302374851319995e6 3.2820086011915848e7 0.0
3.2820086011915848e7 9.76192994592807e6 0.0
0.0 0.0 0.0

2.9596085391104827e6 2.308326464065976e7 0.0
2.308326464065976e7 9.865362327711226e6 0.0
0.0 0.0 0.0

7.760554995230558e6 2.7657008051312696e7 0.0
2.7657008051312696e7 -1.0484048323488105e6 0.0
0.0 0.0 0.0

-1.4929874218914527e6 2.149468041118877e7 0.0
2.149468041118877e7 3.806604261293094e7 0.0
0.0 0.0 0.0

1.3697403279511947e6 2.176479104469553e7 0.0
2.176479104469553e7 4.262296285203958e7 0.0
0.0 0.0 0.0

1.7610168381919358e7 2.1694407740372166e7 0.0
2.1694407740372166e7 7.761043313238288e7 0.0
0.0 0.0 0.0

78398.90733431303 2.311844275664811e7 0.0
2.311844275664811e7 -5.198702786822586e6 0.0
0.0 0.0 0.0

-2.7956581093404954e6 2.5627625081052244e7 0.0
2.5627625081052244e7 2.1575001478385143e7 0.0
0.0 0.0 0.0

-3.5525783862310285e6 2.210358590225014e7 0.0
2.210358590225014e7 1.6660896736702653e7 0.0
0.0 0.0 0.0

-3.640285035021366e6 2.2516282845864285e7 0.0
2.2516282845864285e7 -2.22809380176737e7 0.0
0.0 0.0 0.0

-3.9673063983418765e6 3.2276787689325508e7 0.0
3.2276787689325508e7 8.2318422668258045e6 0.0
0.0 0.0 0.0

-7.18639752942371e6 1.4976198448862722e7 0.0
1.4976198448862722e7 4.051704765796555e7 0.0
0.0 0.0 0.0

2.0444773946440563e7 3.283587416716589e7 0.0
3.283587416716589e7 -3.055215233406877e6 0.0
0.0 0.0 0.0

2.259525047283668e6 2.7717342066818766e7 0.0
2.7717342066818766e7 -1.3468722349463094e7 0.0
0.0 0.0 0.0

1.4976858050120138e6 7.814771665379116e6 0.0
7.814771665379116e6 -3.1730144632538166e7 0.0
0.0 0.0 0.0

8.472243584505644e6 3.0178607919153012e7 0.0
3.0178607919153012e7 -7.553779467844414e6 0.0
0.0 0.0 0.0

520099.84750570235 3.501731655700754e7 0.0
3.501731655700754e7 -1.2726113922318686e6 0.0
0.0 0.0 0.0

-1.1002700794099538e7 2.3063765028883975e7 0.0
2.3063765028883975e7 -3.6675678419876285e7 0.0
0.0 0.0 0.0

1.205044929092182e7 2.4114458319356207e7 0.0
2.4114458319356207e7 4.0168174570975065e7 0.0
0.0 0.0 0.0

-6.030145955161259e6 1.444285053225166e6 0.0
1.444285053225166e6 5.72473810005209e7 0.0
0.0 0.0 0.0

3.0853986982475608e6 2.645659133322561e7 0.0
2.645659133322561e7 9.160532246786775e6 0.0
0.0 0.0 0.0

-6.802673620541301e6 555826.3242621936 0.0
555826.3242621936 4.7010409710927956e7 0.0
0.0 0.0 0.0

2.5248925286527094e6 3.589875435222734e7 0.0
3.589875435222734e7 -3.6615899048166377e6 0.0
0.0 0.0 0.0

7.982984427655728e6 3.3688885424395725e7 0.0
3.3688885424395725e7 -7.689047988114648e6 0.0
0.0 0.0 0.0

-3.713980668794347e6 5.210015885407189e7 0.0
5.210015885407189e7 3.079223106811623e6 0.0
0.0 0.0 0.0

1.3554022906459965e7 2.3391656913131673e7 0.0
2.3391656913131673e7 9.594378258505145e6 0.0
0.0 0.0 0.0

-6.789761946774319e6 1.3800306385279035e7 0.0
1.3800306385279035e7 4.3385853219561614e7 0.0
0.0 0.0 0.0

2.0653672424620332e6 3.665827151599563e7 0.0
3.665827151599563e7 -2.5692759276345633e6 0.0
0.0 0.0 0.0

-3.0552805783048337e6 2.6324246325966146e7 0.0
2.6324246325966146e7 1.5211310309563605e7 0.0
0.0 0.0 0.0

-3.1300355655596675e6 3.0255123835525297e7 0.0
3.0255123835525297e7 8.869614726529425e6 0.0
0.0 0.0 0.0

378697.5891763456 1.061426387700445e7 0.0
1.061426387700445e7 -5.598934422952821e7 0.0
0.0 0.0 0.0

-4.395091194193891e6 3.145868530416034e7 0.0
3.145868530416034e7 1.1527388434278993e7 0.0
0.0 0.0 0.0

2.2377105100133847e7 1.9928036549009666e7 0.0
1.9928036549009666e7 5.512038177682169e6 0.0
0.0 0.0 0.0

1.263055309781989e6 1.6813648282382574e7 0.0
1.6813648282382574e7 -3.057941388031038e7 0.0
0.0 0.0 0.0

-4.0447264826687127e6 4.2717849905849565e6 0.0
4.2717849905849565e6 7.9819559779588e7 0.0
0.0 0.0 0.0

-422455.7866640758 3.798274569969134e7 0.0
3.798274569969134e7 879469.2174614969 0.0
0.0 0.0 0.0

5.44348744715347e6 2.678738033446615e7 0.0
2.678738033446615e7 9.190073307123348e6 0.0
0.0 0.0 0.0

-1.1711434988690355e8 1.110466838190115e8 0.0
1.110466838190115e8 -9.362091516061973e6 0.0
0.0 0.0 0.0

2.278664641744295e6 4.019562880173966e6 0.0
4.019562880173966e6 -2.5485740888893493e7 0.0
0.0 0.0 0.0

-1.142266669952749e6 2.586179293035294e7 0.0
2.586179293035294e7 -189953.48892198308 0.0
0.0 0.0 0.0

-2.113838869519504e7 3.375248689070404e7 0.0
3.375248689070404e7 2.515652527911053e6 0.0
0.0 0.0 0.0

-270970.5537250526 2.52389825593977e7 0.0
2.52389825593977e7 -1.7851757705105808e7 0.0
0.0 0.0 0.0

1.959360808947838e6 2.6923726003227364e7 0.0
2.6923726003227364e7 -1.555398624113291e7 0.0
0.0 0.0 0.0

1.6546079545529874e7 2.842812483053031e7 0.0
2.842812483053031e7 3.2109705715510277e6 0.0
0.0 0.0 0.0

-4.1348792826647083e6 4.351045332302369e7 0.0
4.351045332302369e7 3.489905067734121e6 0.0
0.0 0.0 0.0

-5.496083919466193e6 2.6224890228854347e7 0.0
2.6224890228854347e7 -1.6497325001203941e7 0.0
0.0 0.0 0.0

1.2786674003953487e6 5.716690264141079e6 0.0
5.716690264141079e6 -5.9863090620124735e7 0.0
0.0 0.0 0.0

-4.2343577939935625e7 3.61091123165863e7 0.0
3.61091123165863e7 -1.25627320576752e7 0.0
0.0 0.0 0.0

-2.2281520307094213e6 2.5475758811121006e7 0.0
2.5475758811121006e7 1.6684129370494068e7 0.0
0.0 0.0 0.0

7.420946734475249e6 3.2393809594969273e7 0.0
3.2393809594969273e7 -8.282507585128704e6 0.0
0.0 0.0 0.0

4.256491142162891e6 2.1215388047359113e7 0.0
2.1215388047359113e7 5.556483430420357e7 0.0
0.0 0.0 0.0

2.1599731038662795e7 3.1030637504910972e7 0.0
3.1030637504910972e7 -1.1216469833037239e6 0.0
0.0 0.0 0.0

-3.9685517467719354e6 2.9071231637098428e7 0.0
2.9071231637098428e7 1.4781361354440093e7 0.0
0.0 0.0 0.0

-176861.73992105294 2.217476501463918e7 0.0
2.217476501463918e7 -1.5522711916160636e7 0.0
0.0 0.0 0.0

1.2244558630843947e7 1.3260078216071071e7 0.0
1.3260078216071071e7 4.3935826605572235e6 0.0
0.0 0.0 0.0

5.039403411717328e6 2.833834446843032e7 0.0
2.833834446843032e7 -8.266314704667189e6 0.0
0.0 0.0 0.0

-2.237253073306989e6 2.291915857634835e7 0.0
2.291915857634835e7 3.1548466372453306e7 0.0
0.0 0.0 0.0

-2.402552877471108e6 8.131180889463027e6 0.0
8.131180889463027e6 8.33914905160295e7 0.0
0.0 0.0 0.0

-3.771280095123749e6 2.0466092979205498e6 0.0
2.0466092979205498e6 8.717273738517277e7 0.0
0.0 0.0 0.0

60092.74931617919 2.48431384350461e7 0.0
2.48431384350461e7 -1.3730996818427645e7 0.0
0.0 0.0 0.0

1.5653047631528117e6 2.646941479143049e7 0.0
2.646941479143049e7 -1.475663696761062e7 0.0
0.0 0.0 0.0

2.146107665820618e6 2.6842742086181846e7 0.0
2.6842742086181846e7 -1.5652833331490424e7 0.0
0.0 0.0 0.0

-1.7883519658578657e7 2.9484315110189352e7 0.0
2.9484315110189352e7 -5.411914232416439e6 0.0
0.0 0.0 0.0

2.9369420411307707e7 2.789789716985792e7 0.0
2.789789716985792e7 1.641807756505964e7 0.0
0.0 0.0 0.0

-3.1820654625298884e6 2.4287305365687303e7 0.0
2.4287305365687303e7 2.5651689047901757e7 0.0
0.0 0.0 0.0

2.389749050303923e6 2.6746098111157987e7 0.0
2.6746098111157987e7 -1.5509126306900492e7 0.0
0.0 0.0 0.0

-688095.0421332526 2.1046085904477432e7 0.0
2.1046085904477432e7 -1.3567082027147004e7 0.0
0.0 0.0 0.0

-8.252275390632564e6 -122736.76560936158 0.0
-122736.76560936158 3.1850049592474297e7 0.0
0.0 0.0 0.0

-1.5048008801290318e6 1.701661361050506e7 0.0
1.701661361050506e7 -4.273543784781354e7 0.0
0.0 0.0 0.0

-7.739757068026466e6 3.2197019531391296e6 0.0
3.2197019531391296e6 4.5155588613462366e7 0.0
0.0 0.0 0.0

-7.296183244914593e6 -2.0098789456469656e6 0.0
-2.0098789456469656e6 3.5814449370448604e7 0.0
0.0 0.0 0.0

-7.384477796046823e6 -2.224671405113586e6 0.0
-2.224671405113586e6 3.4739375378794804e7 0.0
0.0 0.0 0.0

-4.044142166573556e6 1.445990152527409e7 0.0
1.445990152527409e7 1.3633602581484936e7 0.0
0.0 0.0 0.0

661658.8196804114 2.0139117178680833e7 0.0
2.0139117178680833e7 -2.405035194600379e7 0.0
0.0 0.0 0.0

-829431.3010219019 1.6878112110212658e7 0.0
1.6878112110212658e7 -4.251230356168593e7 0.0
0.0 0.0 0.0

-2.2275038298876174e6 2.4774795107421953e7 0.0
2.4774795107421953e7 -6.968798633929224e6 0.0
0.0 0.0 0.0

5.261885502675684e6 2.8498555448788956e7 0.0
2.8498555448788956e7 -1.0249181654009897e7 0.0
0.0 0.0 0.0

8.320030279022137e6 2.7362737868577793e7 0.0
2.7362737868577793e7 2.1231440981403217e6 0.0
0.0 0.0 0.0

1.2448791721581756e6 3.302391623883168e7 0.0
3.302391623883168e7 -4.456928185961937e6 0.0
0.0 0.0 0.0

8.050838125755964e7 3.5807339345933445e7 0.0
3.5807339345933445e7 1.2302845060198072e7 0.0
0.0 0.0 0.0

1.2992515871900434e7 1.82198627686916e7 0.0
1.82198627686916e7 1.1315625279609904e7 0.0
0.0 0.0 0.0

6.897299243470953e6 2.8014705446041707e7 0.0
2.8014705446041707e7 -3.7501131030786936e6 0.0
0.0 0.0 0.0

8.99481870307383e6 3.398517955180197e7 0.0
3.398517955180197e7 -7.225255743267341e6 0.0
0.0 0.0 0.0

936307.5829462467 3.78383490758953e7 0.0
3.78383490758953e7 -787352.7081738266 0.0
0.0 0.0 0.0

708503.8949174266 2.283571675034817e7 0.0
2.283571675034817e7 -2.3908405769221e7 0.0
0.0 0.0 0.0

-2.3997510610007208e7 3.2647581832791578e7 0.0
3.2647581832791578e7 -734275.4478249997 0.0
0.0 0.0 0.0

-7.159215827939069e6 3.3489250348349217e7 0.0
3.3489250348349217e7 9.082894930006027e6 0.0
0.0 0.0 0.0

2.586828452547837e6 1.5796893046067997e6 0.0
1.5796893046067997e6 -2.927535840217459e7 0.0
0.0 0.0 0.0

-25333.330743152997 3.48093414008137e7 0.0
3.48093414008137e7 -2.9519404926208695e6 0.0
0.0 0.0 0.0

-7.480505630685699e6 5.673453877874657e7 0.0
5.673453877874657e7 4.940409700603899e6 0.0
0.0 0.0 0.0

-3.49289712409165e6 1.9627807092551023e7 0.0
1.9627807092551023e7 -9.771307071099391e6 0.0
0.0 0.0 0.0

979699.4079066161 1.680881697787861e7 0.0
1.680881697787861e7 -3.2878958275559288e7 0.0
0.0 0.0 0.0

-194659.76526006497 1.6388699904691488e7 0.0
1.6388699904691488e7 -4.0092350114654675e7 0.0
0.0 0.0 0.0

-1.7864095191128515e6 1.807123539682409e7 0.0
1.807123539682409e7 -4.252779176851091e7 0.0
0.0 0.0 0.0

1.8614162652787425e7 4.992811671196311e7 0.0
4.992811671196311e7 -5.114024342778719e6 0.0
0.0 0.0 0.0

2.4254131385049885e6 2.65117837702283e7 0.0
2.65117837702283e7 -1.5289094772323148e7 0.0
0.0 0.0 0.0

9.761822697528433e6 2.280838536778332e7 0.0
2.280838536778332e7 4.831828542923367e7 0.0
0.0 0.0 0.0

-3.067447760994448e7 2.639144104603657e7 0.0
2.639144104603657e7 753434.6842911243 0.0
0.0 0.0 0.0

-8.484893942934832e7 4.434950753775236e7 0.0
4.434950753775236e7 -9.553448312349685e6 0.0
0.0 0.0 0.0

523343.1689703874 7.458909723472351e6 0.0
7.458909723472351e6 -7.596052985394925e7 0.0
0.0 0.0 0.0

5.714231870001421e6 2.8317707993338358e7 0.0
2.8317707993338358e7 -6.182783546544507e6 0.0
0.0 0.0 0.0

8.075599265573697e6 3.133103206137508e7 0.0
3.133103206137508e7 -8.017899130555021e6 0.0
0.0 0.0 0.0

2.635413095045572e6 1.7125802869196117e6 0.0
1.7125802869196117e6 -2.7506853991331045e7 0.0
0.0 0.0 0.0

-2.3846260973696187e7 3.0576566494145367e7 0.0
3.0576566494145367e7 -8.715745791581102e6 0.0
0.0 0.0 0.0

1.4990543391195862e6 2.3070008923011135e7 0.0
2.3070008923011135e7 2.9609879688045602e7 0.0
0.0 0.0 0.0

1.2805145610070072e7 2.2437978583397176e7 0.0
2.2437978583397176e7 1.5864324259322641e7 0.0
0.0 0.0 0.0

-7.614320115154769e6 -2.2332395068294224e6 0.0
-2.2332395068294224e6 3.005491420524371e7 0.0
0.0 0.0 0.0

191891.0967343375 2.035329781389627e7 0.0
2.035329781389627e7 -2.9560684212654915e7 0.0
0.0 0.0 0.0

1.1890318169353884e6 1.2176850092401747e7 0.0
1.2176850092401747e7 -2.850806994748022e7 0.0
0.0 0.0 0.0

219644.65392809245 1.0421328664256508e7 0.0
1.0421328664256508e7 -5.262209202896918e6 0.0
0.0 0.0 0.0

-8.5209638501114e6 -1.996261193847369e6 0.0
-1.996261193847369e6 2.6757755165138148e7 0.0
0.0 0.0 0.0

1.0234507874812335e7 2.257051062933429e7 0.0
2.257051062933429e7 1.0615094863960618e8 0.0
0.0 0.0 0.0

-6.164636002423499e6 7.069529725476663e6 0.0
7.069529725476663e6 5.76833549306096e7 0.0
0.0 0.0 0.0

6.149306513434095e6 3.954533075266131e7 0.0
3.954533075266131e7 -4.0423771835130593e6 0.0
0.0 0.0 0.0

-1.28927229797703e6 2.5243712184573848e7 0.0
2.5243712184573848e7 1.0946898329073144e6 0.0
0.0 0.0 0.0

-3.594058414709281e6 2.2355559512966417e7 0.0
2.2355559512966417e7 -1.6385683216624806e7 0.0
0.0 0.0 0.0

5.111974717154961e6 3.0992297306239575e7 0.0
3.0992297306239575e7 -9.976237994980697e6 0.0
0.0 0.0 0.0

-4.374256777643098e6 3.234938960217707e7 0.0
3.234938960217707e7 9.082876747854892e6 0.0
0.0 0.0 0.0

1.16119658685267e7 5.885449911392368e7 0.0
5.885449911392368e7 -809797.0459858156 0.0
0.0 0.0 0.0

2.571396838590849e6 4.411691119825469e6 0.0
4.411691119825469e6 -1.403892841550441e7 0.0
0.0 0.0 0.0

-8.44191359517537e6 -69013.28763792761 0.0
-69013.28763792761 3.2457745126094177e7 0.0
0.0 0.0 0.0

-104466.92348766606 2.3617658966079433e7 0.0
2.3617658966079433e7 3.1790674895631326e6 0.0
0.0 0.0 0.0

-1.1683597042238511e7 3.424973252211597e7 0.0
3.424973252211597e7 6.94217608163553e6 0.0
0.0 0.0 0.0

1.0702195608674884e6 2.268801138653502e7 0.0
2.268801138653502e7 3.34349510235453e7 0.0
0.0 0.0 0.0

-7.1664852861373555e6 1.5912619446950601e7 0.0
1.5912619446950601e7 3.56018676413615e7 0.0
0.0 0.0 0.0

782148.6550433077 1.8303608484960765e7 0.0
1.8303608484960765e7 -3.1273809754365034e7 0.0
0.0 0.0 0.0

-2.2752076762927327e8 3.817082322491668e7 0.0
3.817082322491668e7 -1.9304695931607023e7 0.0
0.0 0.0 0.0

-7.488165228048895e6 1.4634427344579343e7 0.0
1.4634427344579343e7 3.754278780127597e7 0.0
0.0 0.0 0.0

-9.898447793204652e6 3.423454733657107e7 0.0
3.423454733657107e7 7.674888327893553e6 0.0
0.0 0.0 0.0

416298.41652804054 2.221459812882408e7 0.0
2.221459812882408e7 -2.5632549324221626e7 0.0
0.0 0.0 0.0

-3.0922663168311585e6 1.8972239737978846e7 0.0
1.8972239737978846e7 -4.167178281107891e7 0.0
0.0 0.0 0.0

8.980901538510893e6 5.54081840734002e7 0.0
5.54081840734002e7 -550979.0122842817 0.0
0.0 0.0 0.0

-3.4426924595987275e6 2.0106445524103224e7 0.0
2.0106445524103224e7 -3.785160352093052e7 0.0
0.0 0.0 0.0

2.305535146927529e6 2.62532591298419e7 0.0
2.62532591298419e7 -1.4737435422974845e7 0.0
0.0 0.0 0.0

1.3355789737249098e6 2.411170410605925e7 0.0
2.411170410605925e7 6.308252824735668e6 0.0
0.0 0.0 0.0

3.5795124543304667e6 4.4726653887591645e7 0.0
4.4726653887591645e7 -684336.8933310735 0.0
0.0 0.0 0.0

-1.3753307682477543e7 3.397556757996612e7 0.0
3.397556757996612e7 5.833722766825453e6 0.0
0.0 0.0 0.0

597254.4575302321 1.9716268708716054e7 0.0
1.9716268708716054e7 -2.9439302742360145e7 0.0
0.0 0.0 0.0

1.8262491626493093e6 2.5995089423923004e7 0.0
2.5995089423923004e7 -1.6177825518779129e7 0.0
0.0 0.0 0.0

-2.447656428734888e6 3.3094652796123184e7 0.0
3.3094652796123184e7 2.9459126312755356e6 0.0
0.0 0.0 0.0

-8.402361802986007e6 3.3936287794907466e7 0.0
3.3936287794907466e7 8.373218625470553e6 0.0
0.0 0.0 0.0

-6.63638871411643e6 -1.4670632396073823e6 0.0
-1.4670632396073823e6 4.577309114952031e7 0.0
0.0 0.0 0.0

-3.500482823306121e6 2.276586909785262e7 0.0
2.276586909785262e7 2.4836794866784625e7 0.0
0.0 0.0 0.0

-3.70147265276681e6 2.099155511578682e7 0.0
2.099155511578682e7 -3.415526516354838e7 0.0
0.0 0.0 0.0

2.8742454029976234e7 2.6931023541508287e7 0.0
2.6931023541508287e7 6.8939705359886e6 0.0
0.0 0.0 0.0

-407813.1435663514 2.0810453571504418e7 0.0
2.0810453571504418e7 -2.96447173676397e7 0.0
0.0 0.0 0.0

-508030.22407910926 2.5084076123144865e7 0.0
2.5084076123144865e7 -3.198100066499448e6 0.0
0.0 0.0 0.0

-6.777646949082779e6 1.230565869112126e7 0.0
1.230565869112126e7 4.578680135881828e7 0.0
0.0 0.0 0.0

-9.231168213698274e6 2.6823899622143544e7 0.0
2.6823899622143544e7 -1.7644164256018948e7 0.0
0.0 0.0 0.0

-2.2541829436559402e6 2.2567585179798193e7 0.0
2.2567585179798193e7 -8.50324970555749e6 0.0
0.0 0.0 0.0

186688.7784712687 2.5812224276305314e7 0.0
2.5812224276305314e7 -1.500753880631669e7 0.0
0.0 0.0 0.0

-1.718832758682465e7 6.260255731578514e7 0.0
6.260255731578514e7 7.795761994040524e6 0.0
0.0 0.0 0.0

-6.691438261756778e7 2.1572009088153724e7 0.0
2.1572009088153724e7 2.0250810135629028e6 0.0
0.0 0.0 0.0

5.906702752967069e6 4.087628904938838e7 0.0
4.087628904938838e7 -4.7604141093949955e6 0.0
0.0 0.0 0.0

-1.1054134284154981e7 5.94754600672632e7 0.0
5.94754600672632e7 6.514620663126165e6 0.0
0.0 0.0 0.0

3.970403422422737e7 7.794819278628008e7 0.0
7.794819278628008e7 -1.4328932686434668e6 0.0
0.0 0.0 0.0

-1.930217066956384e6 1.8466433818413317e7 0.0
1.8466433818413317e7 -3.9434426801272705e7 0.0
0.0 0.0 0.0

-1.2540989925515404e7 2.094430925188834e7 0.0
2.094430925188834e7 -4.572950930421943e7 0.0
0.0 0.0 0.0

-5.022015054966147e6 3.0964239354602423e7 0.0
3.0964239354602423e7 1.154359277505688e7 0.0
0.0 0.0 0.0

-7.539513906777628e6 1.5380050676883297e7 0.0
1.5380050676883297e7 3.778374444031912e7 0.0
0.0 0.0 0.0

-1.4195409271935236e7 3.0062947190790046e7 0.0
3.0062947190790046e7 2.7021630692854524e6 0.0
0.0 0.0 0.0

2.166049014731612e6 2.4543751560813468e7 0.0
2.4543751560813468e7 1.0767700997141331e7 0.0
0.0 0.0 0.0

310025.6548246178 2.3242487068136863e7 0.0
2.3242487068136863e7 -1.1761356239398342e7 0.0
0.0 0.0 0.0

1.4783182607280456e7 6.3048045530443974e7 0.0
6.3048045530443974e7 -1.3016188092873571e6 0.0
0.0 0.0 0.0

4.903243824812345e6 2.9866571717941202e7 0.0
2.9866571717941202e7 -1.0868720312351104e7 0.0
0.0 0.0 0.0

4.898971159742148e6 2.605295292065414e7 0.0
2.605295292065414e7 -3.4148283456889195e6 0.0
0.0 0.0 0.0

1.506872611294236e6 1.171653253214207e6 0.0
1.171653253214207e6 -5.217499039464105e7 0.0
0.0 0.0 0.0

-4.844813930233628e6 3.226550202859091e7 0.0
3.226550202859091e7 9.826521568620387e6 0.0
0.0 0.0 0.0

-1.5380194571769214e6 2.38210054609191e7 0.0
2.38210054609191e7 7.273476425707042e6 0.0
0.0 0.0 0.0

1.2301364635147871e6 1.5290338695212169e7 0.0
1.5290338695212169e7 -1.8510251955619823e7 0.0
0.0 0.0 0.0

-2.8979894002577346e6 1.9194848206115574e7 0.0
1.9194848206115574e7 -4.204493712774392e7 0.0
0.0 0.0 0.0

-1.4972638623602996e6 2.5541636925266985e7 0.0
2.5541636925266985e7 2.262420771183417e7 0.0
0.0 0.0 0.0

260395.5520279184 2.2049541888695188e7 0.0
2.2049541888695188e7 3.704495803798039e7 0.0
0.0 0.0 0.0

-1.3736102978489113e6 2.2275152512472253e7 0.0
2.2275152512472253e7 -5.779031969033137e6 0.0
0.0 0.0 0.0

9.460202074247357e6 3.275914557398395e7 0.0
3.275914557398395e7 -7.0882127143332e6 0.0
0.0 0.0 0.0

-3.909578770728659e6 3.076228722483541e7 0.0
3.076228722483541e7 1.2011897385153096e7 0.0
0.0 0.0 0.0

-4.343433307852134e6 4.576279417817134e6 0.0
4.576279417817134e6 7.15163642199431e7 0.0
0.0 0.0 0.0

-3.111232186863153e6 1.5500651290756658e7 0.0
1.5500651290756658e7 1.1227900569403663e7 0.0
0.0 0.0 0.0

-261737.49077545106 2.3590180452767327e7 0.0
2.3590180452767327e7 -7.908897454235261e6 0.0
0.0 0.0 0.0

-6.896486751899963e6 3.2325670561855488e7 0.0
3.2325670561855488e7 1.0059844317938758e7 0.0
0.0 0.0 0.0

-2.6397373817043966e6 2.602183878777695e7 0.0
2.602183878777695e7 1.8536424903948758e7 0.0
0.0 0.0 0.0

1.6725421073033698e6 1.5533744095273644e7 0.0
1.5533744095273644e7 -2.674461790138816e7 0.0
0.0 0.0 0.0

-1.0536779761554622e6 3.6605967175133035e7 0.0
3.6605967175133035e7 1.645449582388298e6 0.0
0.0 0.0 0.0

4.540339718523374e6 4.722447131978124e7 0.0
4.722447131978124e7 -772372.15561552 0.0
0.0 0.0 0.0

-1.6676777570649395e6 2.8224171462028373e7 0.0
2.8224171462028373e7 7.462126364564735e6 0.0
0.0 0.0 0.0

1.1734294464545622e6 1.830869267855447e7 0.0
1.830869267855447e7 -2.900003136678376e7 0.0
0.0 0.0 0.0

-202017.12911634817 3.734989323595004e7 0.0
3.734989323595004e7 -1.5540799003625524e6 0.0
0.0 0.0 0.0

6.115522128841874e6 3.2095220889203176e7 0.0
3.2095220889203176e7 -9.06498459225472e6 0.0
0.0 0.0 0.0

3.7990236320374515e6 2.2538038913956825e7 0.0
2.2538038913956825e7 4.147301319636315e7 0.0
0.0 0.0 0.0

-1.7126970460902252e6 2.7293207094700444e7 0.0
2.7293207094700444e7 9.026757720750542e6 0.0
0.0 0.0 0.0

-5.733252392473915e6 3.515937347889673e7 0.0
3.515937347889673e7 6.9970275867764335e6 0.0
0.0 0.0 0.0

-6.078533979724124e6 2.2877919468444963e6 0.0
2.2877919468444963e6 5.668062220025252e7 0.0
0.0 0.0 0.0

3.923671400655859e6 4.587257970450017e7 0.0
4.587257970450017e7 -670658.7692261357 0.0
0.0 0.0 0.0

1.5606431927578896e6 1.2178778975445288e6 0.0
1.2178778975445288e6 -5.06898190082958e7 0.0
0.0 0.0 0.0

1.4791117632845542e6 3.4423905930416055e7 0.0
3.4423905930416055e7 -5.617155722668811e6 0.0
0.0 0.0 0.0

-6.402128515340693e6 211812.2286865134 0.0
211812.2286865134 5.015535628412052e7 0.0
0.0 0.0 0.0

-2.34049725984489e6 2.1845845669721853e7 0.0
2.1845845669721853e7 -6.184622342990089e6 0.0
0.0 0.0 0.0

-1.3474512240320396e7 3.218184758826091e7 0.0
3.218184758826091e7 4.186315516798906e6 0.0
0.0 0.0 0.0

-3.4969821087764977e6 2.62314040173309e7 0.0
2.62314040173309e7 -5.101357051203322e6 0.0
0.0 0.0 0.0

-6.090728199462048e6 2.6250851437948953e7 0.0
2.6250851437948953e7 -8.170405783627631e6 0.0
0.0 0.0 0.0

-2.733509573040856e6 2.380459414394127e7 0.0
2.380459414394127e7 -2.3508125197920196e7 0.0
0.0 0.0 0.0

-6.213573667830326e6 1.707437267655435e7 0.0
1.707437267655435e7 3.920143496274544e7 0.0
0.0 0.0 0.0

3.202223871276102e6 2.5095547087270435e7 0.0
2.5095547087270435e7 1.375261861814477e7 0.0
0.0 0.0 0.0

1.917054998753611e6 9.977370577044167e6 0.0
9.977370577044167e6 -3.609114077444996e7 0.0
0.0 0.0 0.0

6.1721856225126805e6 2.3075388759448048e7 0.0
2.3075388759448048e7 3.989553338010692e7 0.0
0.0 0.0 0.0

-1.575276531190468e7 2.2705645330916658e7 0.0
2.2705645330916658e7 -9.110046823141477e7 0.0
0.0 0.0 0.0

-2.3895819562413245e6 2.457448258348062e7 0.0
2.457448258348062e7 1.8598604370158195e7 0.0
0.0 0.0 0.0

-1.4938238990397088e6 3.751727355197914e7 0.0
3.751727355197914e7 159748.88274206285 0.0
0.0 0.0 0.0

-2.0840776523657755e6 2.758427778482596e7 0.0
2.758427778482596e7 2.9569900658345628e6 0.0
0.0 0.0 0.0

2.5576048440024946e6 2.77893896234814e7 0.0
2.77893896234814e7 -1.3810810483899662e7 0.0
0.0 0.0 0.0

4.700189918853575e6 2.681975350605527e7 0.0
2.681975350605527e7 -8.052844127081538e6 0.0
0.0 0.0 0.0

-5.290710121939904e6 3.209272454228767e7 0.0
3.209272454228767e7 1.0471468433384914e7 0.0
0.0 0.0 0.0

-2.146668413556561e6 2.545734713253155e7 0.0
2.545734713253155e7 2.3165553376498252e7 0.0
0.0 0.0 0.0

316007.1974053532 2.233769875140924e7 0.0
2.233769875140924e7 3.743800031014378e7 0.0
0.0 0.0 0.0

-6.580192470765168e6 2.296648770805677e7 0.0
2.296648770805677e7 -2.4246338537051298e7 0.0
0.0 0.0 0.0

645799.4274539165 1.936387517049704e7 0.0
1.936387517049704e7 -2.570617348321102e7 0.0
0.0 0.0 0.0

-761208.9660854163 2.5531790201465804e7 0.0
2.5531790201465804e7 2.174921408003693e7 0.0
0.0 0.0 0.0

-508121.9342831131 1.2446665816233901e7 0.0
1.2446665816233901e7 -5.173053696650185e7 0.0
0.0 0.0 0.0

-4.198582365153703e6 2.4960664886568196e7 0.0
2.4960664886568196e7 -1.5739547038714767e7 0.0
0.0 0.0 0.0

5.365845261200973e6 4.883631938510011e7 0.0
4.883631938510011e7 -631916.7840265275 0.0
0.0 0.0 0.0

5.275023525382094e6 2.2303772528833464e7 0.0
2.2303772528833464e7 3.420824473135189e7 0.0
0.0 0.0 0.0

3.1065920541989174e7 2.9480396747348648e7 0.0
2.9480396747348648e7 1.0355302230536667e8 0.0
0.0 0.0 0.0

-3.1736328163686283e7 2.8419436552062538e7 0.0
2.8419436552062538e7 -1.0578771513424028e8 0.0
0.0 0.0 0.0

-2.345378817113199e6 2.3933437675070886e7 0.0
2.3933437675070886e7 4.561430896910964e6 0.0
0.0 0.0 0.0

-3.740471440034808e7 4.7937558314141214e7 0.0
4.7937558314141214e7 8.343238394565711e6 0.0
0.0 0.0 0.0

-122725.88289598026 3.1787179662744883e7 0.0
3.1787179662744883e7 -4.906167808201883e6 0.0
0.0 0.0 0.0

-655033.5567248156 2.5930380017779525e7 0.0
2.5930380017779525e7 1.86582531595792e7 0.0
0.0 0.0 0.0

4.913749096161205e6 2.222582656720322e7 0.0
2.222582656720322e7 3.869056376688688e7 0.0
0.0 0.0 0.0

1.3189426499399662e7 2.3885927686433744e7 0.0
2.3885927686433744e7 6.7470673945143e7 0.0
0.0 0.0 0.0

1.212429238269927e7 2.716355713629415e7 0.0
2.716355713629415e7 1.3653791664186146e7 0.0
0.0 0.0 0.0

1.158151507143545e7 2.1288161539272524e7 0.0
2.1288161539272524e7 4.509815958829153e7 0.0
0.0 0.0 0.0

8.861364727628654e6 3.2513101320108857e7 0.0
3.2513101320108857e7 -7.472418666389655e6 0.0
0.0 0.0 0.0

3.435396489048747e6 2.3244710362773865e7 0.0
2.3244710362773865e7 2.3044411700400352e7 0.0
0.0 0.0 0.0

-447452.2550067799 2.4473173635543726e7 0.0
2.4473173635543726e7 2.3182576613140423e7 0.0
0.0 0.0 0.0

7.61487542725676e6 4.284822991156732e7 0.0
4.284822991156732e7 -3.0834450719935996e6 0.0
0.0 0.0 0.0

5.2901790496803e6 2.6336921896059256e7 0.0
2.6336921896059256e7 1.7206659528422803e7 0.0
0.0 0.0 0.0

2.12163672899504e6 1.4603483082050642e6 0.0
1.4603483082050642e6 -3.8756309778539635e7 0.0
0.0 0.0 0.0

-5.914639581371827e6 1.985752309867895e7 0.0
1.985752309867895e7 2.6608535495677568e7 0.0
0.0 0.0 0.0

-6.485697169655325e6 -1.4667152842876434e6 0.0
-1.4667152842876434e6 4.7042377969152585e7 0.0
0.0 0.0 0.0

-2.548930644512862e6 2.4618582254032403e7 0.0
2.4618582254032403e7 2.5469939264914095e7 0.0
0.0 0.0 0.0

2.8318918100009663e6 3.860143906484353e7 0.0
3.860143906484353e7 -2.370861448736161e6 0.0
0.0 0.0 0.0

8.435186071022369e6 2.5161966963807724e7 0.0
2.5161966963807724e7 2.359648278947057e7 0.0
0.0 0.0 0.0

7.685236003136672e6 2.1385553700029034e7 0.0
2.1385553700029034e7 3.3003388204178035e7 0.0
0.0 0.0 0.0

-4.4950565565887615e6 3.462790635592882e7 0.0
3.462790635592882e7 7.855002239159171e6 0.0
0.0 0.0 0.0

2.826966160537446e6 4.1465105173572986e6 0.0
4.1465105173572986e6 -2.015621429581907e7 0.0
0.0 0.0 0.0

1.1707108801927094e6 3.529207869742658e7 0.0
3.529207869742658e7 -4.5739871847985545e6 0.0
0.0 0.0 0.0

1.9493629882276263e6 1.2931843284678811e7 0.0
1.2931843284678811e7 -2.903916553482203e7 0.0
0.0 0.0 0.0

-9.994931112980137e6 3.2777357951329228e7 0.0
3.2777357951329228e7 7.932391940157706e6 0.0
0.0 0.0 0.0

1.0111621839388855e7 3.5374150975392185e7 0.0
3.5374150975392185e7 -6.719615796473969e6 0.0
0.0 0.0 0.0

-1.3184633718953606e7 2.8424508017341785e7 0.0
2.8424508017341785e7 266900.4482079344 0.0
0.0 0.0 0.0

858702.9623799324 1.5507695689476987e6 0.0
1.5507695689476987e6 -7.645309222487298e7 0.0
0.0 0.0 0.0

8.948386940159483e6 2.7320194683187086e7 0.0
2.7320194683187086e7 5.401991664568331e6 0.0
0.0 0.0 0.0

4.8785588448888045e6 3.6676645720525235e7 0.0
3.6676645720525235e7 -5.007028263677895e6 0.0
0.0 0.0 0.0

3.1797554048427343e6 3.1449716764004953e7 0.0
3.1449716764004953e7 -8.979275752666933e6 0.0
0.0 0.0 0.0

-3.5633719793482684e6 2.409386239203298e7 0.0
2.409386239203298e7 -1.6257170226512661e7 0.0
0.0 0.0 0.0

1.8504978341402244e6 4.405313015471509e6 0.0
4.405313015471509e6 -3.5605989590408765e7 0.0
0.0 0.0 0.0

-2.680158639672752e6 2.9055996393678356e7 0.0
2.9055996393678356e7 8.285316807418067e6 0.0
0.0 0.0 0.0

-961616.1271456648 1.602983603146488e7 0.0
1.602983603146488e7 -4.277427641753125e7 0.0
0.0 0.0 0.0

-6.419408876877174e6 -1.2059268717157126e6 0.0
-1.2059268717157126e6 5.1972510222477995e7 0.0
0.0 0.0 0.0

-3.0637654227427095e6 2.351397840411158e7 0.0
2.351397840411158e7 2.281795034088445e7 0.0
0.0 0.0 0.0

-1.8609108036093637e7 3.2281484770056017e7 0.0
3.2281484770056017e7 2.789072286264754e6 0.0
0.0 0.0 0.0

-78543.03507505357 6.766656291719384e6 0.0
6.766656291719384e6 -1.0971664356877118e8 0.0
0.0 0.0 0.0

200706.2438658364 1.9426331634018596e7 0.0
1.9426331634018596e7 5.286455293276e7 0.0
0.0 0.0 0.0

2.3344370110485237e6 2.3863602939062495e7 0.0
2.3863602939062495e7 3.0732578602921043e7 0.0
0.0 0.0 0.0

2.595880468204379e6 2.128235100436727e7 0.0
2.128235100436727e7 4.822088996891532e7 0.0
0.0 0.0 0.0

-1.3861829461256517e6 2.584606052567092e7 0.0
2.584606052567092e7 2.42956195328903e6 0.0
0.0 0.0 0.0

-3.3715569961402025e6 2.4209910153485626e7 0.0
2.4209910153485626e7 1.8027645149684858e7 0.0
0.0 0.0 0.0

-2.994496846340071e6 2.4268504455836024e7 0.0
2.4268504455836024e7 -1.241474492096095e7 0.0
0.0 0.0 0.0

643156.5644643437 1.8583403478770327e7 0.0
1.8583403478770327e7 -2.731584520204375e7 0.0
0.0 0.0 0.0

-731248.3109483644 1.1864260943908226e7 0.0
1.1864260943908226e7 -6.469568880301547e7 0.0
0.0 0.0 0.0

-6.423359949542187e6 -1.3406772894732184e6 0.0
-1.3406772894732184e6 4.85319434548929e7 0.0
0.0 0.0 0.0

-5.51767575196166e6 -808540.6989638128 0.0
-808540.6989638128 6.022628817056166e7 0.0
0.0 0.0 0.0

-1.2134426457913764e7 3.0476170830345362e7 0.0
3.0476170830345362e7 1.6751634517046888e6 0.0
0.0 0.0 0.0

2.6525747917582504e6 2.775386066569428e7 0.0
2.775386066569428e7 -1.420804415683577e7 0.0
0.0 0.0 0.0

4.325589698019138e6 2.111912391425946e7 0.0
2.111912391425946e7 5.546076047124437e7 0.0
0.0 0.0 0.0

-2.2823108390528695e6 2.4381741529897183e7 0.0
2.4381741529897183e7 -8.55154151933185e6 0.0
0.0 0.0 0.0

9.565631498485375e6 3.1195430215365354e7 0.0
3.1195430215365354e7 -6.908193745030571e6 0.0
0.0 0.0 0.0

-3.4821624559743996e6 3.124211896853878e7 0.0
3.124211896853878e7 8.56801111178245e6 0.0
0.0 0.0 0.0

-7.911934788715132e6 -407834.16451985505 0.0
-407834.16451985505 3.3524701762269e7 0.0
0.0 0.0 0.0

2.2627662505537845e7 6.905021344234738e7 0.0
6.905021344234738e7 -1.7419383662412455e6 0.0
0.0 0.0 0.0

1.6445096460951432e6 2.531230206907597e7 0.0
2.531230206907597e7 -1.081807622254521e7 0.0
0.0 0.0 0.0

-9.795241252759922e6 2.0297703631692108e7 0.0
2.0297703631692108e7 -7.30334068653967e7 0.0
0.0 0.0 0.0

2.119385009859087e6 2.6871349872178663e6 0.0
2.6871349872178663e6 -4.67938004968251e7 0.0
0.0 0.0 0.0

-905296.9635744996 2.3775082554679357e7 0.0
2.3775082554679357e7 -8.296562232525587e6 0.0
0.0 0.0 0.0

-4.00159532110223e6 2.2110959753128864e7 0.0
2.2110959753128864e7 2.6548596915012002e7 0.0
0.0 0.0 0.0

-3.329583893678411e7 2.7366720701081432e7 0.0
2.7366720701081432e7 1.313997027890196e6 0.0
0.0 0.0 0.0

-8.606151362835653e6 2.719188366991875e7 0.0
2.719188366991875e7 -1.343653710865405e7 0.0
0.0 0.0 0.0

9.943878409894772e6 2.0665833238275893e7 0.0
2.0665833238275893e7 3.926505195982264e7 0.0
0.0 0.0 0.0

-4.6636451540993415e6 2.348351994755125e7 0.0
2.348351994755125e7 -1.8119892057017248e7 0.0
0.0 0.0 0.0

-8.425481173852287e6 2.0113352457349652e6 0.0
2.0113352457349652e6 3.2832786967341878e7 0.0
0.0 0.0 0.0

-84916.0184127288 2.548990173338461e7 0.0
2.548990173338461e7 -1.2209535534324434e7 0.0
0.0 0.0 0.0

-262490.86330102757 2.450934467371373e7 0.0
2.450934467371373e7 5.322153812464898e6 0.0
0.0 0.0 0.0

509542.7698845323 2.5315499946126275e7 0.0
2.5315499946126275e7 2.048062278622753e7 0.0
0.0 0.0 0.0

723841.6303514326 2.2503270290308602e7 0.0
2.2503270290308602e7 -2.1576837411161695e7 0.0
0.0 0.0 0.0

1.4855536487161778e6 2.3247372062544513e7 0.0
2.3247372062544513e7 3.422297171874537e7 0.0
0.0 0.0 0.0

130012.37333172106 2.359724164480299e7 0.0
2.359724164480299e7 552971.473733491 0.0
0.0 0.0 0.0

2.7391843200861895e6 2.769836382515591e7 0.0
2.769836382515591e7 -1.4390686151239384e7 0.0
0.0 0.0 0.0

7.753022928719149e6 2.6404802653947618e7 0.0
2.6404802653947618e7 -431510.5513357152 0.0
0.0 0.0 0.0

166153.7781097535 1.5581723081330743e7 0.0
1.5581723081330743e7 -3.750297393116488e7 0.0
0.0 0.0 0.0

-3.163960886608596e6 2.493510865822955e7 0.0
2.493510865822955e7 2.3633865227309708e7 0.0
0.0 0.0 0.0

-162538.2142268857 2.095690540971294e7 0.0
2.095690540971294e7 -9.930351531191813e6 0.0
0.0 0.0 0.0

-6.708201747774987e7 3.819095613745144e7 0.0
3.819095613745144e7 -4.956667364932731e6 0.0
0.0 0.0 0.0

9.027801863313733e6 2.211784030102526e7 0.0
2.211784030102526e7 6.967823154214601e7 0.0
0.0 0.0 0.0

1.452057219273582e6 1.1699493454603998e6 0.0
1.1699493454603998e6 -5.372599053618841e7 0.0
0.0 0.0 0.0

-5.6777949429006055e6 -792500.1410530319 0.0
-792500.1410530319 5.8296018330302745e7 0.0
0.0 0.0 0.0

-6.8438615484774895e6 1.8867892915620066e7 0.0
1.8867892915620066e7 -6.335584362684121e7 0.0
0.0 0.0 0.0

-3.4456034122613706e6 2.0521553490609504e7 0.0
2.0521553490609504e7 -3.848053197398605e7 0.0
0.0 0.0 0.0

-4.0562670207796916e6 2.559980242375319e7 0.0
2.559980242375319e7 -7.667559280254186e6 0.0
0.0 0.0 0.0

-2.5290140247471467e7 3.420881328194691e7 0.0
3.420881328194691e7 -1.7306592597962458e7 0.0
0.0 0.0 0.0

-1.690706265909586e6 2.198929894684568e7 0.0
2.198929894684568e7 3.596694548375478e7 0.0
0.0 0.0 0.0

2.6815563443403263e6 2.7541189537561845e7 0.0
2.7541189537561845e7 -1.4370887247914022e7 0.0
0.0 0.0 0.0

-4.358670388887249e6 304724.6496326167 0.0
304724.6496326167 7.667654052977958e7 0.0
0.0 0.0 0.0

-4.944392569852924e6 2.0788108135899756e7 0.0
2.0788108135899756e7 3.014186780459832e7 0.0
0.0 0.0 0.0

261465.458783634 4.351370971626242e6 0.0
4.351370971626242e6 -1.0234069214895964e8 0.0
0.0 0.0 0.0

-1.6344808425386625e6 3.843470356598791e7 0.0
3.843470356598791e7 176773.4393531211 0.0
0.0 0.0 0.0

517137.5625354722 2.2998710956059815e6 0.0
2.2998710956059815e6 -8.905258259343316e7 0.0
0.0 0.0 0.0

-3.0384446554231375e7 6.4315681660182506e7 0.0
6.4315681660182506e7 9.74763220645781e6 0.0
0.0 0.0 0.0

-4.2255616125773825e6 572017.6742284994 0.0
572017.6742284994 8.006125545127968e7 0.0
0.0 0.0 0.0

388628.15607396886 1.6083135586465469e7 0.0
1.6083135586465469e7 -3.7488831837057486e7 0.0
0.0 0.0 0.0

-1.4140008838428214e7 3.1862745680018287e7 0.0
3.1862745680018287e7 4.706522052276743e6 0.0
0.0 0.0 0.0

-6.108018554289402e7 3.991751604712266e7 0.0
3.991751604712266e7 -7.447907683691522e6 0.0
0.0 0.0 0.0

379115.7057394311 3.2171322941335174e6 0.0
3.2171322941335174e6 -9.537217253374584e7 0.0
0.0 0.0 0.0

-2.3026889466015147e6 3.0323968048453197e7 0.0
3.0323968048453197e7 4.0051976468708026e6 0.0
0.0 0.0 0.0

-2.691295452818414e6 2.705056680439123e7 0.0
2.705056680439123e7 1.7296652500321772e7 0.0
0.0 0.0 0.0

2.420114073133079e7 2.110003255546903e7 0.0
2.110003255546903e7 8.80187113354286e6 0.0
0.0 0.0 0.0

-1.6600858112371415e6 2.0192470064909212e7 0.0
2.0192470064909212e7 -3.3158281649333652e7 0.0
0.0 0.0 0.0

-4.110495950625307e6 2.1566725429001648e7 0.0
2.1566725429001648e7 -3.499656980522446e7 0.0
0.0 0.0 0.0

2.0344326308806897e6 3.0799415674909312e7 0.0
3.0799415674909312e7 -1.0028203615865286e7 0.0
0.0 0.0 0.0

-1.78416005099293e6 3.928683375412265e7 0.0
3.928683375412265e7 250030.84543352423 0.0
0.0 0.0 0.0

-6.200538317305714e6 1.4808056921959369e7 0.0
1.4808056921959369e7 4.418382006590579e7 0.0
0.0 0.0 0.0

727280.636216931 1.7011121068914644e6 0.0
1.7011121068914644e6 -8.06558465605463e7 0.0
0.0 0.0 0.0

-1.5930304919627741e7 4.336287703096326e7 0.0
4.336287703096326e7 5.211529957270911e6 0.0
0.0 0.0 0.0

2.7435217693121377e6 5.812384675411721e6 0.0
5.812384675411721e6 -2.810970253659387e7 0.0
0.0 0.0 0.0

-3.3620972198411105e6 2.4023267798252616e7 0.0
2.4023267798252616e7 -2.1913344826032195e7 0.0
0.0 0.0 0.0

656539.7127787806 2.1207858643923607e6 0.0
2.1207858643923607e6 -8.400913517208783e7 0.0
0.0 0.0 0.0

-4.237898802203864e6 2.239484531760642e7 0.0
2.239484531760642e7 -3.133634550163045e7 0.0
0.0 0.0 0.0

-6.295747618326422e6 1.1595849087204054e7 0.0
1.1595849087204054e7 5.214502956981222e7 0.0
0.0 0.0 0.0

-6.927410446161584e6 708225.522211788 0.0
708225.522211788 7.560790282583208e6 0.0
0.0 0.0 0.0

-2.6098270261650044e6 2.178109273596991e7 0.0
2.178109273596991e7 6.520586118244328e6 0.0
0.0 0.0 0.0

6.46199620270878e6 2.3269485729502197e7 0.0
2.3269485729502197e7 3.566358217238826e7 0.0
0.0 0.0 0.0

1.1912108566216305e6 1.0279776556965156e6 0.0
1.0279776556965156e6 -5.950772594345578e7 0.0
0.0 0.0 0.0

-4.701522701584905e6 3.0988622966212757e7 0.0
3.0988622966212757e7 1.1753149930561606e7 0.0
0.0 0.0 0.0

-6.9140203575631995e6 595602.6723090957 0.0
595602.6723090957 4.664662819537469e7 0.0
0.0 0.0 0.0

267509.0575029891 2.5254752085636668e7 0.0
2.5254752085636668e7 543041.850633203 0.0
0.0 0.0 0.0

260162.74378584884 1.6326104425009904e7 0.0
1.6326104425009904e7 -3.536828695991102e7 0.0
0.0 0.0 0.0

-1.743672349777894e6 2.485594564050825e7 0.0
2.485594564050825e7 2.507958113313866e7 0.0
0.0 0.0 0.0

6.518528258777235e6 2.215808967638993e7 0.0
2.215808967638993e7 4.953900483711486e7 0.0
0.0 0.0 0.0

-1.3829025888299732e6 2.3807963734208643e7 0.0
2.3807963734208643e7 -5.855965785229076e6 0.0
0.0 0.0 0.0

2.6048003220964996e6 3.0472018706482213e7 0.0
3.0472018706482213e7 -9.48144841180089e6 0.0
0.0 0.0 0.0

-3.5053550522819376e6 3.2903302073282246e7 0.0
3.2903302073282246e7 6.130539461439362e6 0.0
0.0 0.0 0.0

-1.9068219034498613e6 2.458634403789865e7 0.0
2.458634403789865e7 -9.32998532369452e6 0.0
0.0 0.0 0.0

2.9289836560148902e7 6.061166682691101e6 0.0
6.061166682691101e6 -1.7939917524616085e6 0.0
0.0 0.0 0.0

-4.6191962917783e6 237948.8681460685 0.0
237948.8681460685 7.346522023771346e7 0.0
0.0 0.0 0.0

1.2777427993806986e7 2.8017326479239248e7 0.0
2.8017326479239248e7 1.5763250971835557e7 0.0
0.0 0.0 0.0

-5.358440418860406e6 -612741.6573874756 0.0
-612741.6573874756 6.2350118868150994e7 0.0
0.0 0.0 0.0

-2.1550785715672555e6 2.5020569944940396e7 0.0
2.5020569944940396e7 -1.3920623213063204e6 0.0
0.0 0.0 0.0

-5.749599853637163e6 1.2537641604715785e7 0.0
1.2537641604715785e7 3.803523297656364e7 0.0
0.0 0.0 0.0

-1.7381604074931904e6 2.1583187673688453e7 0.0
2.1583187673688453e7 9.464512852037288e6 0.0
0.0 0.0 0.0

-1.7455560341031065e6 -509451.2866480413 0.0
-509451.2866480413 4.815391769506e6 0.0
0.0 0.0 0.0

-1.7780978649672116e6 752579.841550006 0.0
752579.841550006 4.784961116594972e6 0.0
0.0 0.0 0.0

2.2068108790274374e6 2.685762764100086e7 0.0
2.685762764100086e7 -1.5690395596400253e7 0.0
0.0 0.0 0.0

-1.2653273889469493e7 2.8175393366130926e7 0.0
2.8175393366130926e7 -5.8780057780851405e6 0.0
0.0 0.0 0.0

2.6616766475096764e6 2.7414147214096457e7 0.0
2.7414147214096457e7 -1.3975817517282546e7 0.0
0.0 0.0 0.0

-7.37964021613826e6 1.3586074900994321e7 0.0
1.3586074900994321e7 4.2655705151975475e7 0.0
0.0 0.0 0.0

-4.1682143871007315e6 2.3872391625310365e7 0.0
2.3872391625310365e7 -2.0148376236874577e7 0.0
0.0 0.0 0.0

-235564.8836010322 1.5668581363105824e7 0.0
1.5668581363105824e7 -4.002798348500397e7 0.0
0.0 0.0 0.0

-4.316082730591343e6 3.009757676505855e7 0.0
3.009757676505855e7 1.2792515122432455e7 0.0
0.0 0.0 0.0

541942.0693010837 1.6317451583319683e7 0.0
1.6317451583319683e7 -3.294634033838275e7 0.0
0.0 0.0 0.0

-1.3840396294538885e8 4.863664726225515e7 0.0
4.863664726225515e7 -1.5974826197463933e7 0.0
0.0 0.0 0.0

735029.8103340333 2.170353274124867e7 0.0
2.170353274124867e7 -2.320112672998231e7 0.0
0.0 0.0 0.0

-4.0444119968885826e6 4.6619158617607705e7 0.0
4.6619158617607705e7 932649.6668306305 0.0
0.0 0.0 0.0

1.3773764499130263e6 2.4152040128623404e7 0.0
2.4152040128623404e7 7.537092861239275e6 0.0
0.0 0.0 0.0

-2.2302341204865016e6 2.3432973975147374e7 0.0
2.3432973975147374e7 2.9498453202163715e7 0.0
0.0 0.0 0.0

-6.47120197218712e6 2.7074756137592103e7 0.0
2.7074756137592103e7 -1.7233115549319625e7 0.0
0.0 0.0 0.0

2.2520959362752467e7 5.2475846261494115e7 0.0
5.2475846261494115e7 -6.236665624170883e6 0.0
0.0 0.0 0.0

-5.921598920145169e6 -1.0529637750744883e6 0.0
-1.0529637750744883e6 5.503921772844373e7 0.0
0.0 0.0 0.0

1.3562256135624386e6 1.1977724487413792e6 0.0
1.1977724487413792e6 -5.533956895200692e7 0.0
0.0 0.0 0.0

1.6831251603583498e6 3.1254319906461686e7 0.0
3.1254319906461686e7 -6.791686468560473e6 0.0
0.0 0.0 0.0

-8.824295677314209e6 -836731.6791684274 0.0
-836731.6791684274 2.5754316860149775e7 0.0
0.0 0.0 0.0

971322.9298944436 1.4009824130656535e6 0.0
1.4009824130656535e6 -7.121498247370039e7 0.0
0.0 0.0 0.0

-4.742694969977975e6 -71627.5801657118 0.0
-71627.5801657118 7.109769904356775e7 0.0
0.0 0.0 0.0

-6.901251921643436e6 -1.5975763599315525e6 0.0
-1.5975763599315525e6 4.228426381406198e7 0.0
0.0 0.0 0.0

-2.4684560653416165e6 2.384489529990562e7 0.0
2.384489529990562e7 -6.423878261126644e6 0.0
0.0 0.0 0.0

-5.78696888613167e6 -903937.4818936788 0.0
-903937.4818936788 5.670934308204414e7 0.0
0.0 0.0 0.0

1.2830402078049108e6 1.2734145113780322e6 0.0
1.2734145113780322e6 -5.738568118121649e7 0.0
0.0 0.0 0.0

1.0772732804252543e6 1.4593949636359443e6 0.0
1.4593949636359443e6 -6.860551076984264e7 0.0
0.0 0.0 0.0

-4.886458740342893e6 -345448.79144459823 0.0
-345448.79144459823 6.879051060315783e7 0.0
0.0 0.0 0.0

-6.976796526774405e6 2.5056381702689283e7 0.0
2.5056381702689283e7 -1.9141121084608406e7 0.0
0.0 0.0 0.0

1.9212044377053678e6 2.5993041477009155e7 0.0
2.5993041477009155e7 -1.718137338130708e7 0.0
0.0 0.0 0.0

-2.8668025035713855e6 3.3300880417765662e7 0.0
3.3300880417765662e7 6.760575379255574e6 0.0
0.0 0.0 0.0

1.0508706501389034e6 1.3166232134331206e6 0.0
1.3166232134331206e6 -6.674140722605673e7 0.0
0.0 0.0 0.0

-5.049632058773633e6 -511419.79064460116 0.0
-511419.79064460116 6.6271350110363245e7 0.0
0.0 0.0 0.0

-1.5450797981727216e6 2.4495571278206933e7 0.0
2.4495571278206933e7 -4.7832586382327145e6 0.0
0.0 0.0 0.0

1.0887389316643048e6 1.7568940061772406e7 0.0
1.7568940061772406e7 -3.1028005491132904e7 0.0
0.0 0.0 0.0

1.1612578903976628e6 3.377816219355646e7 0.0
3.377816219355646e7 -3.350157394632838e6 0.0
0.0 0.0 0.0

-2.0713630087675056e6 2.5809110114092823e7 0.0
2.5809110114092823e7 146822.3878563739 0.0
0.0 0.0 0.0

806775.6808585804 2.201761446037065e7 0.0
2.201761446037065e7 3.9978726890170544e7 0.0
0.0 0.0 0.0

-5.20868445393895e6 -521797.963137462 0.0
-521797.963137462 6.4160614427262045e7 0.0
0.0 0.0 0.0

1.157439073872678e6 1.2180490615202833e6 0.0
1.2180490615202833e6 -6.416243771907511e7 0.0
0.0 0.0 0.0

7.279662278415704e6 3.781100828806405e7 0.0
3.781100828806405e7 -6.106326484860085e6 0.0
0.0 0.0 0.0

6.964938836033603e6 2.1724923832726873e7 0.0
2.1724923832726873e7 6.458466564478103e7 0.0
0.0 0.0 0.0

1.1068272874607427e8 1.1112705561493118e8 0.0
1.1112705561493118e8 -8.49733338104736e6 0.0
0.0 0.0 0.0

-756835.2919278811 1.3536746877220215e7 0.0
1.3536746877220215e7 -9.442585019423243e6 0.0
0.0 0.0 0.0

-1.9530087460962173e6 3.772261312968556e7 0.0
3.772261312968556e7 2.256327723617062e6 0.0
0.0 0.0 0.0

-9.882586579629475e6 2.40129909662864e6 0.0
2.40129909662864e6 1.922290230994294e7 0.0
0.0 0.0 0.0

-2.668355306896564e6 3.41337968836004e7 0.0
3.41337968836004e7 5.7171513821196435e6 0.0
0.0 0.0 0.0

2.9165653957927367e6 2.3233878597252285e6 0.0
2.3233878597252285e6 -1.6555225450284796e7 0.0
0.0 0.0 0.0

1.728682445918516e7 3.417591851646782e7 0.0
3.417591851646782e7 -4.586796565954085e6 0.0
0.0 0.0 0.0

5.75606549678695e6 3.2083299030726854e7 0.0
3.2083299030726854e7 -9.039300754113875e6 0.0
0.0 0.0 0.0

-4.928448404706964e6 2.0977012776705455e7 0.0
2.0977012776705455e7 2.2032762773346703e7 0.0
0.0 0.0 0.0

-2.336327077827595e6 2.6005186002460513e7 0.0
2.6005186002460513e7 -1.867910786618618e6 0.0
0.0 0.0 0.0

-2.8325496347688287e6 1.586200064982211e6 0.0
1.586200064982211e6 8.7614881289534e7 0.0
0.0 0.0 0.0

-445474.99511190294 3.882699748990513e6 0.0
3.882699748990513e6 1.4076774404032733e6 0.0
0.0 0.0 0.0

-5.423144868439002e6 -701986.2156249273 0.0
-701986.2156249273 2.219386882555585e6 0.0
0.0 0.0 0.0

34726.73111382837 -1.2407452348394922e6 0.0
-1.2407452348394922e6 -633265.0089558312 0.0
0.0 0.0 0.0

6.786553834484857e6 3.24879216405754e7 0.0
3.24879216405754e7 -8.419599332477275e6 0.0
0.0 0.0 0.0

-9.177516408638928e6 1.9319497812112525e7 0.0
1.9319497812112525e7 -7.163508562199043e7 0.0
0.0 0.0 0.0

7.780646938982206e6 2.2022025985603906e7 0.0
2.2022025985603906e7 4.42612958853305e7 0.0
0.0 0.0 0.0

-4.187341140099327e6 2.4748165841035932e7 0.0
2.4748165841035932e7 -1.5767427524750033e7 0.0
0.0 0.0 0.0

2.5761617301703263e6 1.6553147852847567e6 0.0
1.6553147852847567e6 -3.3360504921840817e7 0.0
0.0 0.0 0.0

-2.515208830011436e6 2.239194076031041e7 0.0
2.239194076031041e7 -5.9955715490822885e6 0.0
0.0 0.0 0.0

674247.6386188893 2.5837226507623095e7 0.0
2.5837226507623095e7 -1.6223358449756663e7 0.0
0.0 0.0 0.0

-5.939681193144672e6 1.878907527647855e7 0.0
1.878907527647855e7 -5.093884569744343e7 0.0
0.0 0.0 0.0

2.117674124725648e6 3.489885893475114e7 0.0
3.489885893475114e7 -3.946694691241839e6 0.0
0.0 0.0 0.0

-2.1757827629113887e6 2.3862186771619033e7 0.0
2.3862186771619033e7 2.7238964793364618e7 0.0
0.0 0.0 0.0

-2.0028248666009675e6 2.3155029428901773e7 0.0
2.3155029428901773e7 -4.5181487523900345e6 0.0
0.0 0.0 0.0

861994.9312587306 2.548936758901801e7 0.0
2.548936758901801e7 4.199041157435378e6 0.0
0.0 0.0 0.0

-8.556571044493971e6 2.0339009376979955e7 0.0
2.0339009376979955e7 -3.568032633177656e7 0.0
0.0 0.0 0.0

-3.291991220863589e7 3.517237399553377e7 0.0
3.517237399553377e7 -1.2107912077192325e7 0.0
0.0 0.0 0.0

2.032705284530468e7 5.742337535293686e7 0.0
5.742337535293686e7 -4.558448698613673e6 0.0
0.0 0.0 0.0

-4.322955743281658e6 -1.9368263666417068e6 0.0
-1.9368263666417068e6 9.921641230170649e6 0.0
0.0 0.0 0.0

-4.356955315368025e6 -2.7688043041083054e6 0.0
-2.7688043041083054e6 9.442920136460498e6 0.0
0.0 0.0 0.0

-2.7291435766349807e6 2.5224644892051592e7 0.0
2.5224644892051592e7 2.3646310316448893e7 0.0
0.0 0.0 0.0

45072.790575716645 2.99963364450642e7 0.0
2.99963364450642e7 -7.255749935506672e6 0.0
0.0 0.0 0.0

-1.3063885920031592e6 3.924236968727995e7 0.0
3.924236968727995e7 1.8497330694453283e6 0.0
0.0 0.0 0.0

-2.3807734065657733e6 3.4891371989368826e7 0.0
3.4891371989368826e7 4.724964623155503e6 0.0
0.0 0.0 0.0

1.8688349234128673e7 2.7275397057404663e7 0.0
2.7275397057404663e7 1.4292720467183392e7 0.0
0.0 0.0 0.0

5.412704542904324e6 2.7602234735381976e7 0.0
2.7602234735381976e7 -4.685499358994282e6 0.0
0.0 0.0 0.0

9.599808528231297e6 2.1400027873795364e7 0.0
2.1400027873795364e7 7.203990527739666e7 0.0
0.0 0.0 0.0

-5.877911029818041e7 3.3394141719620973e7 0.0
3.3394141719620973e7 -2.676387700320287e7 0.0
0.0 0.0 0.0

-1.482214413296954e8 5.474955324003074e7 0.0
5.474955324003074e7 316333.65584872663 0.0
0.0 0.0 0.0

-4.994164420604525e6 1.99091872262437e7 0.0
1.99091872262437e7 1.9743213031049844e7 0.0
0.0 0.0 0.0

-1.7527994025325105e6 2.6223401928649716e7 0.0
2.6223401928649716e7 2.0064268348982222e7 0.0
0.0 0.0 0.0

1.9204473254282232e6 5.385614324269184e6 0.0
5.385614324269184e6 -3.042844317502202e7 0.0
0.0 0.0 0.0

-4.5694997180901095e6 2.0899500827771854e7 0.0
2.0899500827771854e7 2.746930226919476e7 0.0
0.0 0.0 0.0

-7.650161618774984e6 -3.2959146096606907e6 0.0
-3.2959146096606907e6 2.462678724172416e7 0.0
0.0 0.0 0.0

1.481896102765628e7 2.902337965564995e7 0.0
2.902337965564995e7 1.6284503626012813e7 0.0
0.0 0.0 0.0

-4.419541529865747e6 1.9280682645110637e7 0.0
1.9280682645110637e7 -4.843137926290552e7 0.0
0.0 0.0 0.0

2.34184453757892e6 4.704551201515393e6 0.0
4.704551201515393e6 -3.9076614223868646e7 0.0
0.0 0.0 0.0

9.222271621941011e6 2.609863204648537e7 0.0
2.609863204648537e7 9.278432810885753e6 0.0
0.0 0.0 0.0

500206.83593803644 5.697883476841084e6 0.0
5.697883476841084e6 1.1061097330733551e8 0.0
0.0 0.0 0.0

-6.147350438078713e6 3.62219391240451e7 0.0
3.62219391240451e7 7.326389401239777e6 0.0
0.0 0.0 0.0

-2.1747462138772752e7 3.094377120737002e7 0.0
3.094377120737002e7 -540004.2620469807 0.0
0.0 0.0 0.0

4.114882185714396e6 3.040151025979156e7 0.0
3.040151025979156e7 -1.0733772119874578e7 0.0
0.0 0.0 0.0

-7.177769618079506e6 -1.9917773025010093e6 0.0
-1.9917773025010093e6 3.84123945800278e7 0.0
0.0 0.0 0.0

1.2649134552346962e6 2.3601077368780833e7 0.0
2.3601077368780833e7 8.882820296964878e6 0.0
0.0 0.0 0.0

-6.190114057059899e6 -1.2921363317572747e6 0.0
-1.2921363317572747e6 5.038071138548125e7 0.0
0.0 0.0 0.0

9.309946475694487e6 2.735822663440071e7 0.0
2.735822663440071e7 9.301693983870413e6 0.0
0.0 0.0 0.0

-1.3351409516998234e6 2.8498820855475403e7 0.0
2.8498820855475403e7 2.204085657234704e6 0.0
0.0 0.0 0.0

2.3021225461409763e6 2.830397025782583e6 0.0
2.830397025782583e6 -4.3584603181878164e7 0.0
0.0 0.0 0.0

-6.973757090389902e6 2.586872723453295e7 0.0
2.586872723453295e7 -1.852113234804187e7 0.0
0.0 0.0 0.0

2.6596441946860515e6 1.8123412784441474e6 0.0
1.8123412784441474e6 -2.9755165192283098e7 0.0
0.0 0.0 0.0

73153.40154634416 2.1020303130004603e7 0.0
2.1020303130004603e7 -2.757819179021097e7 0.0
0.0 0.0 0.0

-8.2196955649118405e6 4.540518321395252e7 0.0
4.540518321395252e7 3.402447989797075e6 0.0
0.0 0.0 0.0

-396468.24725248496 2.0922633964782342e7 0.0
2.0922633964782342e7 -342501.0918364977 0.0
0.0 0.0 0.0

1.9983511209663204e6 2.9776244648108717e7 0.0
2.9776244648108717e7 -1.1192697440421334e7 0.0
0.0 0.0 0.0

-5.858026138280368e6 4.28979690394337e7 0.0
4.28979690394337e7 2.5635602971283724e6 0.0
0.0 0.0 0.0

-2.9376832824673685e6 3.2498831423667688e7 0.0
3.2498831423667688e7 8.004414509881801e6 0.0
0.0 0.0 0.0

-3.142469557625708e6 3.439854037420037e7 0.0
3.439854037420037e7 3.933843937656267e6 0.0
0.0 0.0 0.0

526170.6190734204 4.32633221072782e7 0.0
4.32633221072782e7 -1.277309211086634e6 0.0
0.0 0.0 0.0

2.408852305200984e6 2.8612639967388652e7 0.0
2.8612639967388652e7 -1.2105848563449387e7 0.0
0.0 0.0 0.0

-4.96971242697198e6 4.7946498965766236e7 0.0
4.7946498965766236e7 1.2794181306414315e6 0.0
0.0 0.0 0.0

-8.010934553032873e6 1.6156338408579214e7 0.0
1.6156338408579214e7 2.3088981586085267e7 0.0
0.0 0.0 0.0

689994.3628798043 1.6999276396393668e7 0.0
1.6999276396393668e7 -2.1358734389678303e7 0.0
0.0 0.0 0.0

-9.080406547506765e6 1.5281511275518185e6 0.0
1.5281511275518185e6 3.1880583659994043e7 0.0
0.0 0.0 0.0

-1.5758760639467778e7 3.335488236125043e7 0.0
3.335488236125043e7 4.474235475197051e6 0.0
0.0 0.0 0.0

-5.244086005093943e6 2.1869720232258397e6 0.0
2.1869720232258397e6 6.617582719659351e7 0.0
0.0 0.0 0.0

6.709107407466118e6 3.9413391863964915e7 0.0
3.9413391863964915e7 -5.516993563187191e6 0.0
0.0 0.0 0.0

448030.3419893626 2.100764742696911e7 0.0
2.100764742696911e7 -2.758318849262864e7 0.0
0.0 0.0 0.0

2.466173186166413e6 2.61361550961291e7 0.0
2.61361550961291e7 1.0781530075926509e7 0.0
0.0 0.0 0.0

-943779.3028751086 2.0572869557468183e7 0.0
2.0572869557468183e7 -1.2424829924353722e7 0.0
0.0 0.0 0.0

-622296.9959257655 1.7537073752082728e7 0.0
1.7537073752082728e7 -3.988588996376929e7 0.0
0.0 0.0 0.0

2.6367128508737553e6 4.017357813408032e6 0.0
4.017357813408032e6 -2.0487587546293676e7 0.0
0.0 0.0 0.0

8.026271719895754e6 3.2712595470173616e7 0.0
3.2712595470173616e7 -7.777119915323522e6 0.0
0.0 0.0 0.0

243066.80549805332 2.522451780197915e7 0.0
2.522451780197915e7 8.358686420928163e6 0.0
0.0 0.0 0.0

-2.0348702009072048e6 2.5101703620262075e7 0.0
2.5101703620262075e7 -1.3426906312849585e6 0.0
0.0 0.0 0.0

790972.8816055954 1.4724976002457552e6 0.0
1.4724976002457552e6 -7.720722309050214e7 0.0
0.0 0.0 0.0

-9.294897056504523e6 7.756236968150019e6 0.0
7.756236968150019e6 3.1679001719273344e7 0.0
0.0 0.0 0.0

386785.22398556396 4.495584063212784e6 0.0
4.495584063212784e6 -7.697542939878173e7 0.0
0.0 0.0 0.0

-7.92053783745857e6 -2.418432493131077e6 0.0
-2.418432493131077e6 2.9686952756502587e7 0.0
0.0 0.0 0.0

-1.834349273518398e6 2.8421966635490563e7 0.0
2.8421966635490563e7 326917.7271550993 0.0
0.0 0.0 0.0

-617693.5753659182 2.5347311103336282e7 0.0
2.5347311103336282e7 4.833339753073116e6 0.0
0.0 0.0 0.0

1.5498501747779706e6 2.574751977704413e7 0.0
2.574751977704413e7 7.779925436609879e6 0.0
0.0 0.0 0.0

-4.240671514882193e6 1.954353410844331e7 0.0
1.954353410844331e7 2.2596020472940855e7 0.0
0.0 0.0 0.0

-6.786361409315936e6 -1.3741878986955676e6 0.0
-1.3741878986955676e6 4.3321304236274086e7 0.0
0.0 0.0 0.0

9.751085761610232e6 3.538884240177665e7 0.0
3.538884240177665e7 -6.71875859269934e6 0.0
0.0 0.0 0.0

9.094421397517921e6 2.6200555225309283e7 0.0
2.6200555225309283e7 1.9420936720240384e7 0.0
0.0 0.0 0.0

1.2838394849480484e6 1.0079317885941705e7 0.0
1.0079317885941705e7 -3.403147230245947e7 0.0
0.0 0.0 0.0

-6.78137262449857e6 368226.8232130461 0.0
368226.8232130461 4.6164641068735376e7 0.0
0.0 0.0 0.0

6.405754716633665e6 2.678185582775346e7 0.0
2.678185582775346e7 1.5630854822585884e7 0.0
0.0 0.0 0.0

1.4925467769555822e6 1.955457968413885e7 0.0
1.955457968413885e7 5.7312045935018085e7 0.0
0.0 0.0 0.0

1.0652037093453592e7 2.8139036509075183e7 0.0
2.8139036509075183e7 1.5848013571482005e7 0.0
0.0 0.0 0.0

-7.899270040302221e6 1.8709674189073343e7 0.0
1.8709674189073343e7 -6.702181813554247e7 0.0
0.0 0.0 0.0

-640014.9699294064 2.3144107072861575e7 0.0
2.3144107072861575e7 3.3255790001436733e7 0.0
0.0 0.0 0.0

3.4677637814918673e6 2.268055943600468e7 0.0
2.268055943600468e7 2.721430057636563e7 0.0
0.0 0.0 0.0

3.611039711454358e6 2.8102052998509094e7 0.0
2.8102052998509094e7 -1.3280171340713287e7 0.0
0.0 0.0 0.0

-4.663663741498494e6 2.6602514879003234e7 0.0
2.6602514879003234e7 -8.104848478338153e6 0.0
0.0 0.0 0.0

-226422.30875400454 9.798250288270775e6 0.0
9.798250288270775e6 -5.585301192029543e7 0.0
0.0 0.0 0.0

-157457.164478302 8.756650685678337e6 0.0
8.756650685678337e6 -5.885084494679126e7 0.0
0.0 0.0 0.0

69097.11506152432 2.0088760653852843e7 0.0
2.0088760653852843e7 -1.1661224557790019e7 0.0
0.0 0.0 0.0

-3.453525656174455e6 2.0111888051556442e7 0.0
2.0111888051556442e7 3.854500147169697e7 0.0
0.0 0.0 0.0

1.7797602978446605e6 2.5979065425483633e7 0.0
2.5979065425483633e7 -1.7130121612901114e7 0.0
0.0 0.0 0.0

-3.0468752354875244e6 4.899620933113669e6 0.0
4.899620933113669e6 8.392886469907436e7 0.0
0.0 0.0 0.0

-5.727358283177212e6 1.8100071864765283e7 0.0
1.8100071864765283e7 -6.083866744366676e7 0.0
0.0 0.0 0.0

3.812559858507879e6 1.8645132302855432e7 0.0
1.8645132302855432e7 6.852217389191376e7 0.0
0.0 0.0 0.0

884627.6135540456 1.5729946062899877e6 0.0
1.5729946062899877e6 -7.411358751350842e7 0.0
0.0 0.0 0.0

2.9860717741867295e6 3.009595407878621e7 0.0
3.009595407878621e7 -1.0913928516986223e7 0.0
0.0 0.0 0.0

8.781207175983364e6 2.773565707494008e7 0.0
2.773565707494008e7 1.6259258023584925e7 0.0
0.0 0.0 0.0

-9.865790293541277e6 2.0567864346927512e7 0.0
2.0567864346927512e7 -6.159357427406372e7 0.0
0.0 0.0 0.0

1.638071228556751e7 1.2426164749535605e7 0.0
1.2426164749535605e7 1.4204851803173274e6 0.0
0.0 0.0 0.0

-3.0258123208914907e6 2.5662534002658993e7 0.0
2.5662534002658993e7 -9.950794899761507e6 0.0
0.0 0.0 0.0

7.408745833759012e6 2.7128598293914773e7 0.0
2.7128598293914773e7 1.682604331980316e7 0.0
0.0 0.0 0.0

-2.651623626368043e6 2.7716915294594135e7 0.0
2.7716915294594135e7 1.4065556872987833e7 0.0
0.0 0.0 0.0

-2.0147356658627084e6 2.602750547982551e7 0.0
2.602750547982551e7 2.044143001107513e7 0.0
0.0 0.0 0.0

204251.1748401299 1.5254146210658766e7 0.0
1.5254146210658766e7 -1.8599082794481456e7 0.0
0.0 0.0 0.0

-5.774766218142841e6 1.9270188321983192e7 0.0
1.9270188321983192e7 3.540973302265303e7 0.0
0.0 0.0 0.0

-6.738457008222405e6 1.818744194125166e7 0.0
1.818744194125166e7 -6.2355236360063955e7 0.0
0.0 0.0 0.0

-3.5385212138742534e6 2.550247496232137e7 0.0
2.550247496232137e7 -1.4749049877134679e7 0.0
0.0 0.0 0.0

-8.055622536982996e6 2.911376559689321e7 0.0
2.911376559689321e7 7.286185873455208e6 0.0
0.0 0.0 0.0

156124.29616265977 1.3478937000307465e7 0.0
1.3478937000307465e7 -1.0047134236412391e7 0.0
0.0 0.0 0.0

-2.704295763754599e6 7.41923169608162e6 0.0
7.41923169608162e6 1.0831644705191967e8 0.0
0.0 0.0 0.0

-1.0877550731994007e7 2.0031526908983774e7 0.0
2.0031526908983774e7 -7.686257944688521e7 0.0
0.0 0.0 0.0

799677.3317282572 2.177401940567236e7 0.0
2.177401940567236e7 3.968088147951503e7 0.0
0.0 0.0 0.0

-1.845228389087699e6 4.019535086535461e7 0.0
4.019535086535461e7 300985.9360363012 0.0
0.0 0.0 0.0

2.669057680505365e7 2.768489300286854e7 0.0
2.768489300286854e7 1.0072259214007512e7 0.0
0.0 0.0 0.0

3.4894200772266146e6 2.1269423807722263e7 0.0
2.1269423807722263e7 5.186887810529759e7 0.0
0.0 0.0 0.0

-2.709670750279784e6 2.4899008106985137e7 0.0
2.4899008106985137e7 2.360285383375429e7 0.0
0.0 0.0 0.0

391531.131172752 1.8380883544543885e7 0.0
1.8380883544543885e7 -2.0727358051119007e7 0.0
0.0 0.0 0.0

-4.276102892133422e6 2.4316176387807526e7 0.0
2.4316176387807526e7 -1.690084597704837e7 0.0
0.0 0.0 0.0

-3.6833157376641827e6 2.2977918972340677e7 0.0
2.2977918972340677e7 1.8989120911462285e7 0.0
0.0 0.0 0.0

-3.588634820688486e6 2.132650994013305e7 0.0
2.132650994013305e7 2.254840805919278e7 0.0
0.0 0.0 0.0

1.6750497475850135e6 2.738386315660143e6 0.0
2.738386315660143e6 -4.016511769670297e7 0.0
0.0 0.0 0.0

-4.806771702918439e6 3.1113993584820803e7 0.0
3.1113993584820803e7 1.1940932359148778e7 0.0
0.0 0.0 0.0

-2.4214667028919575e6 2.1338380570497405e7 0.0
2.1338380570497405e7 -3.9661432810335266e6 0.0
0.0 0.0 0.0

3.1279407113713752e6 3.166112950783835e6 0.0
3.166112950783835e6 -2.8355483181923173e7 0.0
0.0 0.0 0.0

4.696746283132566e6 3.791281128144025e7 0.0
3.791281128144025e7 -5.590395012418332e6 0.0
0.0 0.0 0.0

9.991950169005949e6 2.7764652864782777e7 0.0
2.7764652864782777e7 1.7260106479652133e7 0.0
0.0 0.0 0.0

-4.125105606508415e6 3.313941282228691e6 0.0
3.313941282228691e6 7.411729205124453e7 0.0
0.0 0.0 0.0

1.4023269677602796e7 2.961639179186451e7 0.0
2.961639179186451e7 1.6218117863431362e7 0.0
0.0 0.0 0.0

9.724865734817298e6 2.777562875414892e7 0.0
2.777562875414892e7 1.279191859466641e7 0.0
0.0 0.0 0.0

320702.763778287 2.468190329902481e7 0.0
2.468190329902481e7 -1.6951533805548854e7 0.0
0.0 0.0 0.0

1.2361585177819356e6 2.956220846444503e6 0.0
2.956220846444503e6 -5.384331367868472e7 0.0
0.0 0.0 0.0

5.184861452546044e6 2.1631011679068957e7 0.0
2.1631011679068957e7 1.8474942725294128e7 0.0
0.0 0.0 0.0

1.204625385251223e6 2.52941392946212e7 0.0
2.52941392946212e7 -1.5149725709779005e7 0.0
0.0 0.0 0.0

2.5229058916850695e6 2.5697072175573416e7 0.0
2.5697072175573416e7 1.2430775517014459e7 0.0
0.0 0.0 0.0

-9.947175831832767e6 1.0176548820860514e7 0.0
1.0176548820860514e7 2.4540862698194414e7 0.0
0.0 0.0 0.0

-7.506459740326466e6 -2.729785275051908e6 0.0
-2.729785275051908e6 2.86011394381912e7 0.0
0.0 0.0 0.0

-6.446803752112165e6 2.82913530035927e7 0.0
2.82913530035927e7 4.93528804777354e6 0.0
0.0 0.0 0.0

181688.23471138254 1.8300366416276265e7 0.0
1.8300366416276265e7 -3.359029740285349e7 0.0
0.0 0.0 0.0

-5.347377815253447e6 2.338119125931547e7 0.0
2.338119125931547e7 -2.214485535635945e7 0.0
0.0 0.0 0.0

-2.8607502365360335e6 3.516307110572432e6 0.0
3.516307110572432e6 1.0476884494784273e8 0.0
0.0 0.0 0.0

-6.452627836152161e6 4.940379444382504e7 0.0
4.940379444382504e7 1.5352906956364694e6 0.0
0.0 0.0 0.0

320898.5129239635 6.6655110036063995e6 0.0
6.6655110036063995e6 -1.8351954698565484e6 0.0
0.0 0.0 0.0

-1.8789907863249572e6 2.5610553721713006e7 0.0
2.5610553721713006e7 1.5703864728132514e6 0.0
0.0 0.0 0.0

5.347885950479583e6 2.674464394034606e7 0.0
2.674464394034606e7 1.5423932554726493e7 0.0
0.0 0.0 0.0

-4.1399903830649294e6 2.0708745137882378e7 0.0
2.0708745137882378e7 3.376655045643411e7 0.0
0.0 0.0 0.0

-1.8111893741992336e7 3.2635547517429505e7 0.0
3.2635547517429505e7 2.250778792158194e6 0.0
0.0 0.0 0.0

7.483610800132694e6 2.776165761417972e7 0.0
2.776165761417972e7 1.3690297492044637e7 0.0
0.0 0.0 0.0

4.453442507810445e6 2.7459947277605325e7 0.0
2.7459947277605325e7 1.4595611133918438e7 0.0
0.0 0.0 0.0

923252.6506000664 2.382181486324398e7 0.0
2.382181486324398e7 -2.2136886021236595e7 0.0
0.0 0.0 0.0

1.743436128461739e6 5.85141674931277e6 0.0
5.85141674931277e6 -1.5309045700702742e7 0.0
0.0 0.0 0.0

-1.0821188224081974e6 2.4673425581333555e7 0.0
2.4673425581333555e7 -1.9627094272748962e7 0.0
0.0 0.0 0.0

1.834301793997801e6 2.7876499698421925e7 0.0
2.7876499698421925e7 -1.3716298050746012e7 0.0
0.0 0.0 0.0

-2.26584607377393e6 3.1352230850394603e7 0.0
3.1352230850394603e7 7.228886747264614e6 0.0
0.0 0.0 0.0

4.35470815007801e6 2.9380687993086837e7 0.0
2.9380687993086837e7 -1.0965462497121446e7 0.0
0.0 0.0 0.0

3.2924727166281296e6 2.8220925982082885e7 0.0
2.8220925982082885e7 -1.213349592517836e7 0.0
0.0 0.0 0.0

1.8154789642146342e6 4.243210734589029e6 0.0
4.243210734589029e6 -4.816414822758047e7 0.0
0.0 0.0 0.0

5.361919328726122e6 2.6826595205189146e7 0.0
2.6826595205189146e7 9.848554871207105e6 0.0
0.0 0.0 0.0

1.9104532693820344e6 2.8782482739645164e7 0.0
2.8782482739645164e7 -1.2366901143445998e7 0.0
0.0 0.0 0.0

-7.482194104354765e6 1.7597080833641667e7 0.0
1.7597080833641667e7 2.8725862115607698e7 0.0
0.0 0.0 0.0

-1.2176382852316113e8 3.7567846206691094e7 0.0
3.7567846206691094e7 -2.170072715138275e7 0.0
0.0 0.0 0.0

3.92048394913362e7 3.534855082813759e7 0.0
3.534855082813759e7 1.3068305190846679e8 0.0
0.0 0.0 0.0

-3.9506027016979046e7 3.409390572244983e7 0.0
3.409390572244983e7 -1.3168701099400505e8 0.0
0.0 0.0 0.0

-1.9982069210087564e6 2.3303373003335908e7 0.0
2.3303373003335908e7 2.9362448041704424e7 0.0
0.0 0.0 0.0

631578.4744374342 1.784036805348299e7 0.0
1.784036805348299e7 -2.9039913374005128e7 0.0
0.0 0.0 0.0

-5.347560087851134e6 2.5563117854921684e7 0.0
2.5563117854921684e7 -1.7469523224755332e7 0.0
0.0 0.0 0.0

5.047476375952724e6 5.040931254642429e7 0.0
5.040931254642429e7 -3.1784757318893634e6 0.0
0.0 0.0 0.0

-3.0064138478355138e6 2.211266809300284e7 0.0
2.211266809300284e7 -2.7915568867151458e7 0.0
0.0 0.0 0.0

-7.346142564621834e6 2.665020163913113e7 0.0
2.665020163913113e7 -1.0975078751257148e7 0.0
0.0 0.0 0.0

-6.211777784914924e6 1.9679748966822334e7 0.0
1.9679748966822334e7 2.91747715091236e7 0.0
0.0 0.0 0.0

243688.9854315106 3.28270532483464e7 0.0
3.28270532483464e7 -1.7162181284429182e6 0.0
0.0 0.0 0.0

-4.66368576135616e6 2.0276571496990718e7 0.0
2.0276571496990718e7 -4.449155327359478e7 0.0
0.0 0.0 0.0

-3.2367683090508347e6 2.5411104068520118e7 0.0
2.5411104068520118e7 -9.880778131612832e6 0.0
0.0 0.0 0.0

-3.360513134237849e6 2.771363806751174e7 0.0
2.771363806751174e7 1.5120211913816273e7 0.0
0.0 0.0 0.0

2.6926179153440386e7 2.8646459257576104e7 0.0
2.8646459257576104e7 2.7215773043097146e6 0.0
0.0 0.0 0.0

2.3987108208191125e6 2.489918092088225e7 0.0
2.489918092088225e7 9.396428785049612e6 0.0
0.0 0.0 0.0

-2.7044538102320265e6 2.4167650871380847e7 0.0
2.4167650871380847e7 2.5481329519536227e7 0.0
0.0 0.0 0.0

-2.6857982523451537e7 3.1018772370521348e7 0.0
3.1018772370521348e7 -3.727731465438078e6 0.0
0.0 0.0 0.0

1.4805172970534817e6 2.532986981813772e7 0.0
2.532986981813772e7 9.324433209792808e6 0.0
0.0 0.0 0.0

5.671756606306429e6 3.867665294248217e7 0.0
3.867665294248217e7 -5.375944313343024e6 0.0
0.0 0.0 0.0

1.5156061186859913e7 3.489996319178197e7 0.0
3.489996319178197e7 -5.709682708946928e6 0.0
0.0 0.0 0.0

1.3887741784378793e6 1.702482444794404e7 0.0
1.702482444794404e7 -2.1726703074007455e7 0.0
0.0 0.0 0.0

-1.175367275971271e6 2.146009508865035e7 0.0
2.146009508865035e7 3.803870839948195e7 0.0
0.0 0.0 0.0

-141910.38679178432 2.322176158395846e7 0.0
2.322176158395846e7 -2.3013067570659466e7 0.0
0.0 0.0 0.0

-1.637531215093263e6 2.239908815373845e7 0.0
2.239908815373845e7 7.530863578844408e6 0.0
0.0 0.0 0.0

-4.146170990746471e6 2.2725007718109418e7 0.0
2.2725007718109418e7 2.1954697443796013e7 0.0
0.0 0.0 0.0

1.7251569981855922e6 8.58153069948572e6 0.0
8.58153069948572e6 -1.0935876519531937e7 0.0
0.0 0.0 0.0

2.5815911838687486e6 2.344616412676281e7 0.0
2.344616412676281e7 1.3687300414018763e7 0.0
0.0 0.0 0.0

9.534789502328984e6 3.388570673835272e7 0.0
3.388570673835272e7 -7.102076920476792e6 0.0
0.0 0.0 0.0

-2.4789206719264537e6 1.3574798324448418e7 0.0
1.3574798324448418e7 -8.615348111980477e7 0.0
0.0 0.0 0.0

-7.870846499799861e6 1.6999364775169384e7 0.0
1.6999364775169384e7 2.781798573115009e7 0.0
0.0 0.0 0.0

3.124631621297513e7 5.4381783988958664e7 0.0
5.4381783988958664e7 -7.114916338405814e6 0.0
0.0 0.0 0.0

987127.8857778423 9.11004888822157e6 0.0
9.11004888822157e6 -5.4878167975347385e7 0.0
0.0 0.0 0.0

1.603934865282502e6 2.3434764851618133e7 0.0
2.3434764851618133e7 1.0786273690941576e7 0.0
0.0 0.0 0.0

5.513143900804274e6 3.094158487482406e7 0.0
3.094158487482406e7 -9.898725598574005e6 0.0
0.0 0.0 0.0

1.8749304274035186e7 2.8686232525566816e7 0.0
2.8686232525566816e7 1.7725805653316268e8 0.0
0.0 0.0 0.0

-1.9134329058664404e7 2.8439085491893526e7 0.0
2.8439085491893526e7 -1.743543803510807e8 0.0
0.0 0.0 0.0

3.9990998329340845e7 2.5809165253993817e7 0.0
2.5809165253993817e7 8.36675301284577e6 0.0
0.0 0.0 0.0

1.7362844113453656e7 3.4003716055195704e7 0.0
3.4003716055195704e7 -4.890280730172418e6 0.0
0.0 0.0 0.0

146034.4699685597 1.2708246543790353e7 0.0
1.2708246543790353e7 -8.735814439109735e6 0.0
0.0 0.0 0.0

3.132976628729145e7 4.8289772383292444e7 0.0
4.8289772383292444e7 -7.1453437905640155e6 0.0
0.0 0.0 0.0

509135.53000021074 2.453532132516273e7 0.0
2.453532132516273e7 2.6192277758764565e7 0.0
0.0 0.0 0.0

2.2299208959287606e7 2.8127473735261142e7 0.0
2.8127473735261142e7 2.6685848979675267e6 0.0
0.0 0.0 0.0

-3.423315071148167e6 3.032540680870983e7 0.0
3.032540680870983e7 9.870407390687408e6 0.0
0.0 0.0 0.0

-3.333218974950539e6 2.035678675117778e7 0.0
2.035678675117778e7 2.0466743671131663e7 0.0
0.0 0.0 0.0

-1.264368128270408e6 4.127717069237325e6 0.0
4.127717069237325e6 -1.9047987804325118e6 0.0
0.0 0.0 0.0

1.0665529465540152e7 2.712178444175385e7 0.0
2.712178444175385e7 1.7814981070031643e7 0.0
0.0 0.0 0.0

1.9322551453988086e6 3.2828629159141954e7 0.0
3.2828629159141954e7 -7.2045517775049545e6 0.0
0.0 0.0 0.0

-1.780441004945036e6 2.286629325978944e7 0.0
2.286629325978944e7 3.1574389231602006e7 0.0
0.0 0.0 0.0

-6.605593646793392e6 3.1545531970778402e7 0.0
3.1545531970778402e7 1.1014584395182677e7 0.0
0.0 0.0 0.0

-2.5529397906859657e6 2.9751685557511e7 0.0
2.9751685557511e7 1.092897672354568e7 0.0
0.0 0.0 0.0

-3.27428754706994e6 2.303592871287513e7 0.0
2.303592871287513e7 -8.246840292278524e6 0.0
0.0 0.0 0.0

1.3201016435401272e6 2.150624549249939e7 0.0
2.150624549249939e7 4.230611613145825e7 0.0
0.0 0.0 0.0

-3.400133220612699e6 3.0797257875006747e7 0.0
3.0797257875006747e7 1.138028755038023e7 0.0
0.0 0.0 0.0

-3.302543324114899e6 1.6109087943489557e7 0.0
1.6109087943489557e7 1.3102449707356367e7 0.0
0.0 0.0 0.0

-5.484500219345858e7 4.080170306317652e7 0.0
4.080170306317652e7 -1.1751883916483901e7 0.0
0.0 0.0 0.0

-3.6342377182168365e6 6.456824515212819e6 0.0
6.456824515212819e6 7.396258458388308e7 0.0
0.0 0.0 0.0

-9.097729295741737e6 3.2002536939316183e7 0.0
3.2002536939316183e7 8.869361032093711e6 0.0
0.0 0.0 0.0

-1.0496976336972004e7 3.903512327522259e7 0.0
3.903512327522259e7 6.487026669287104e6 0.0
0.0 0.0 0.0

-2.400757551362673e6 1.9603429278702844e7 0.0
1.9603429278702844e7 -3.931470399579249e7 0.0
0.0 0.0 0.0

-3.0749837435496217e6 4.482029485979273e7 0.0
4.482029485979273e7 1.8653826148750985e6 0.0
0.0 0.0 0.0

-8.539876517281018e6 5.117457403499086e7 0.0
5.117457403499086e7 1.6305745489354539e6 0.0
0.0 0.0 0.0

-1.0812054613693641e7 5.288769289511027e7 0.0
5.288769289511027e7 2.2538077222142243e6 0.0
0.0 0.0 0.0

773065.075176704 3.605711029625223e7 0.0
3.605711029625223e7 -3.5127621857199064e6 0.0
0.0 0.0 0.0

-6.031160726115832e6 1.6052756504536204e7 0.0
1.6052756504536204e7 4.194649619751298e7 0.0
0.0 0.0 0.0

1.809665657055363e6 1.2405006729660686e6 0.0
1.2405006729660686e6 -4.4905467469031245e7 0.0
0.0 0.0 0.0

-183217.32589968108 2.2744339161083054e7 0.0
2.2744339161083054e7 3.525233829342764e7 0.0
0.0 0.0 0.0

4.9720540086745685e6 3.997351186105091e7 0.0
3.997351186105091e7 -4.712757757966974e6 0.0
0.0 0.0 0.0

-154840.05331927538 2.0338229104275502e7 0.0
2.0338229104275502e7 -2.9515164052283727e7 0.0
0.0 0.0 0.0

-5.756055122232694e6 1.125552237353126e6 0.0
1.125552237353126e6 5.842991481338216e7 0.0
0.0 0.0 0.0

466106.3704542542 2.5061955027796395e7 0.0
2.5061955027796395e7 1.9603838867179267e6 0.0
0.0 0.0 0.0

1.9270613616816327e6 2.5962485996234942e7 0.0
2.5962485996234942e7 -1.3690004997785674e7 0.0
0.0 0.0 0.0

-421002.7397395149 2.4056051940205205e7 0.0
2.4056051940205205e7 -1.871785362825174e7 0.0
0.0 0.0 0.0

-5.700217859561406e6 2.103378744626317e7 0.0
2.103378744626317e7 -1.977236951338859e7 0.0
0.0 0.0 0.0

-8.676852899935301e6 -640777.2838666134 0.0
-640777.2838666134 2.706320515475481e7 0.0
0.0 0.0 0.0

-505142.6310179684 2.3395717436726484e7 0.0
2.3395717436726484e7 -2.854190235697252e6 0.0
0.0 0.0 0.0

5.23980263475536e6 2.5574746016444296e7 0.0
2.5574746016444296e7 8.925535581766257e6 0.0
0.0 0.0 0.0

2.926151448513416e7 2.651512517242043e7 0.0
2.651512517242043e7 1.199562793124595e7 0.0
0.0 0.0 0.0

-1.199199161423184e7 5.586966487138263e7 0.0
5.586966487138263e7 3.442153086685991e6 0.0
0.0 0.0 0.0

-3.5024583754907697e6 2.0844002752859734e7 0.0
2.0844002752859734e7 2.1650993753885485e7 0.0
0.0 0.0 0.0

-1.4546617806091698e7 2.2169805409816306e7 0.0
2.2169805409816306e7 -8.588400657805769e7 0.0
0.0 0.0 0.0

1.6342281142545026e6 7.9820325623697955e6 0.0
7.9820325623697955e6 -4.564662853808862e7 0.0
0.0 0.0 0.0

-7.098182986548824e6 -1.8489809069281395e6 0.0
-1.8489809069281395e6 3.894342404892929e7 0.0
0.0 0.0 0.0

-2.961917411490912e7 3.492851061230745e7 0.0
3.492851061230745e7 -1.4533913345440377e7 0.0
0.0 0.0 0.0

-2.771126373138741e7 3.151104077346292e7 0.0
3.151104077346292e7 -6.857813900608875e6 0.0
0.0 0.0 0.0

-3.268524329899108e6 2.372864659259304e7 0.0
2.372864659259304e7 -1.0333379141035771e7 0.0
0.0 0.0 0.0

1.8014094034432548e6 3.913059633386336e7 0.0
3.913059633386336e7 -3.2739630626337416e6 0.0
0.0 0.0 0.0

-1.165342608724054e6 7.578634220526995e6 0.0
7.578634220526995e6 -8.157906577242285e7 0.0
0.0 0.0 0.0

1.4247044989577454e7 2.9698234403907552e7 0.0
2.9698234403907552e7 -2.6664439983033054e6 0.0
0.0 0.0 0.0

1.0002650963423148e7 2.8430133739931583e7 0.0
2.8430133739931583e7 1.5403711334143396e7 0.0
0.0 0.0 0.0

1.3200930564219858e6 1.7605606445473198e7 0.0
1.7605606445473198e7 -2.872186303125681e7 0.0
0.0 0.0 0.0

-952783.6555819102 3.028547803743371e7 0.0
3.028547803743371e7 1.4862612257194698e6 0.0
0.0 0.0 0.0

1.2866000763259428e6 1.6317565606678747e7 0.0
1.6317565606678747e7 -2.0560062413900375e7 0.0
0.0 0.0 0.0

519161.0527452417 1.7121744675224945e7 0.0
1.7121744675224945e7 -3.1067879218951717e7 0.0
0.0 0.0 0.0

-4.1315283875278467e6 2.219324897869361e7 0.0
2.219324897869361e7 -2.0266568872875914e7 0.0
0.0 0.0 0.0

-1.0702393510826185e7 3.7741301307062425e7 0.0
3.7741301307062425e7 6.44669235217848e6 0.0
0.0 0.0 0.0

-2.188566978459626e7 2.6709702454489876e7 0.0
2.6709702454489876e7 -9.910310731644313e7 0.0
0.0 0.0 0.0

2.6177863721965674e7 4.723301663718304e7 0.0
4.723301663718304e7 -6.002349170343259e6 0.0
0.0 0.0 0.0

1.1332952105381753e7 3.385752144143142e7 0.0
3.385752144143142e7 -6.378390990069008e6 0.0
0.0 0.0 0.0

-2.9892071470472235e6 4.124056818038717e7 0.0
4.124056818038717e7 2.845965590576336e6 0.0
0.0 0.0 0.0

-3.9985789129421012e6 2.994464573326196e7 0.0
2.994464573326196e7 1.3139257174739763e7 0.0
0.0 0.0 0.0

-969712.7949765399 6.168305156873333e6 0.0
6.168305156873333e6 -8.5428162424469e7 0.0
0.0 0.0 0.0

-3.4842137118789107e6 2.7242964198046163e7 0.0
2.7242964198046163e7 1.8255834974657588e7 0.0
0.0 0.0 0.0

-60694.60033079237 5.869871965471875e6 0.0
5.869871965471875e6 -6.883170291755323e7 0.0
0.0 0.0 0.0

730530.6562152379 2.6981828344193622e7 0.0
2.6981828344193622e7 -1.0073089537111146e7 0.0
0.0 0.0 0.0

500913.44710970856 2.582047468883943e7 0.0
2.582047468883943e7 -1.0513702488734249e7 0.0
0.0 0.0 0.0

-1.5598839162593372e6 2.274231407644725e7 0.0
2.274231407644725e7 -4.589960579137616e6 0.0
0.0 0.0 0.0

-1.6705090541499993e6 2.5098314653958578e7 0.0
2.5098314653958578e7 2.1939714855063852e7 0.0
0.0 0.0 0.0

-587952.5802065078 3.43748646085116e7 0.0
3.43748646085116e7 -2.2236080030147135e6 0.0
0.0 0.0 0.0

-2.9557955029553454e6 2.5410018178517666e7 0.0
2.5410018178517666e7 1.7928075781687368e7 0.0
0.0 0.0 0.0

-6.7452684451729935e6 -1.4597886604171495e6 0.0
-1.4597886604171495e6 4.425190155996439e7 0.0
0.0 0.0 0.0

839988.1808068715 7.501607072626178e6 0.0
7.501607072626178e6 -4.812171805886859e7 0.0
0.0 0.0 0.0

1.1528039617818985e6 1.0449240060492966e7 0.0
1.0449240060492966e7 -3.686670245921023e7 0.0
0.0 0.0 0.0

3.600977144394162e6 4.3512289681117326e7 0.0
4.3512289681117326e7 -2.198688128058183e6 0.0
0.0 0.0 0.0

-4.37814404282843e6 2.556377435842482e7 0.0
2.556377435842482e7 -1.4852736154132416e7 0.0
0.0 0.0 0.0

-1.4099073139796294e6 1.8591730589471977e7 0.0
1.8591730589471977e7 -3.962301704329202e7 0.0
0.0 0.0 0.0

6.021789782329072e6 2.3599629796455886e7 0.0
2.3599629796455886e7 1.961004417755084e7 0.0
0.0 0.0 0.0

-9.091390460226148e6 5.141589608983071e6 0.0
5.141589608983071e6 3.0148950802025564e7 0.0
0.0 0.0 0.0

1.104655956846538e7 2.922730589036708e7 0.0
2.922730589036708e7 1.6566294075201575e7 0.0
0.0 0.0 0.0

-1.9367135539585285e7 4.17324695398607e7 0.0
4.17324695398607e7 6.992715417807382e6 0.0
0.0 0.0 0.0

7.273398246947827e6 2.6323445404621977e7 0.0
2.6323445404621977e7 9.96233594620349e6 0.0
0.0 0.0 0.0

5.046311128754044e6 2.2115244907841504e7 0.0
2.2115244907841504e7 2.1324641191332866e7 0.0
0.0 0.0 0.0

-7.416151272921542e6 3.684457315500324e7 0.0
3.684457315500324e7 6.908672759482624e6 0.0
0.0 0.0 0.0

-2.417107549390696e6 2.601024604123832e7 0.0
2.601024604123832e7 2.114638975021907e7 0.0
0.0 0.0 0.0

3.2347851543575767e6 2.098648589285221e7 0.0
2.098648589285221e7 5.150160804268294e7 0.0
0.0 0.0 0.0

-2.6859699481395114e7 3.2175743071571626e7 0.0
3.2175743071571626e7 -4.451937951903289e6 0.0
0.0 0.0 0.0

-1.6469059766272053e7 3.087948474454493e7 0.0
3.087948474454493e7 2.0982227518435568e6 0.0
0.0 0.0 0.0

-1.4107921444644153e7 1.9960700447155394e7 0.0
1.9960700447155394e7 -3.6911833190716617e6 0.0
0.0 0.0 0.0

-1.1135134057533138e8 4.506462670190375e7 0.0
4.506462670190375e7 -1.5398087451859437e7 0.0
0.0 0.0 0.0

1.8112094723367296e7 2.6261954776273046e7 0.0
2.6261954776273046e7 1.0845667469215252e7 0.0
0.0 0.0 0.0

-3.953514978710914e6 1.991353762103824e7 0.0
1.991353762103824e7 -4.089419399120034e7 0.0
0.0 0.0 0.0

-3.146305166228017e6 2.9346186721544813e7 0.0
2.9346186721544813e7 1.0379134077060102e7 0.0
0.0 0.0 0.0

1.3799685065946812e6 2.5145764880303245e7 0.0
2.5145764880303245e7 -1.872857917356259e7 0.0
0.0 0.0 0.0

6.245450450370681e7 2.1364613688642584e7 0.0
2.1364613688642584e7 4.4336059934945535e6 0.0
0.0 0.0 0.0

-8.554409613593139e6 -675111.6040288308 0.0
-675111.6040288308 1.7712101888718475e7 0.0
0.0 0.0 0.0

2.964401810225458e6 2.1833397003513346e6 0.0
2.1833397003513346e6 -1.8679928133413345e7 0.0
0.0 0.0 0.0

1.2374779884019028e6 2.6072530929788496e7 0.0
2.6072530929788496e7 -1.585836454033921e7 0.0
0.0 0.0 0.0

-826080.3890783112 2.458383777001293e7 0.0
2.458383777001293e7 -995613.9143539078 0.0
0.0 0.0 0.0

-5.67652945978526e6 7.0467109232336115e6 0.0
7.0467109232336115e6 5.791986631587695e7 0.0
0.0 0.0 0.0

1.3107725091000903e7 3.5390694112517454e7 0.0
3.5390694112517454e7 -6.167353147941419e6 0.0
0.0 0.0 0.0

-1.8349830990375496e7 5.794286723188225e7 0.0
5.794286723188225e7 4.0760459696172383e6 0.0
0.0 0.0 0.0

1.719566330511472e7 2.7460048018343158e7 0.0
2.7460048018343158e7 9.957418874762703e6 0.0
0.0 0.0 0.0

-7.307507636980537e6 -2.051971819028004e6 0.0
-2.051971819028004e6 3.6412077775535494e7 0.0
0.0 0.0 0.0

-3.2187839304445393e7 3.2773327889999453e7 0.0
3.2773327889999453e7 -7.117056012822014e6 0.0
0.0 0.0 0.0

1.5920062578109547e6 2.3836839525065348e7 0.0
2.3836839525065348e7 8.815025185625747e6 0.0
0.0 0.0 0.0

-2.5365160219747677e7 6.0866680435766585e7 0.0
6.0866680435766585e7 5.1825059293775745e6 0.0
0.0 0.0 0.0

-4.386279950883785e6 2.1561747796472248e7 0.0
2.1561747796472248e7 2.8487824763957493e7 0.0
0.0 0.0 0.0

3.7119657968026446e6 2.5919535665115178e7 0.0
2.5919535665115178e7 -1.0003723797355162e6 0.0
0.0 0.0 0.0

-9.552298825182918e6 2.17617367174172e7 0.0
2.17617367174172e7 -3.366792500516995e7 0.0
0.0 0.0 0.0

-4.091432205940406e6 2.370689134410838e7 0.0
2.370689134410838e7 -1.4166250718450256e7 0.0
0.0 0.0 0.0

1.2649723481139084e7 2.9201397765008897e7 0.0
2.9201397765008897e7 -3.441293487026687e6 0.0
0.0 0.0 0.0

5.3173764562149614e7 5.9705824612792216e7 0.0
5.9705824612792216e7 -1.1226553879144639e7 0.0
0.0 0.0 0.0

-8.58060699408307e6 32887.14931631853 0.0
32887.14931631853 2.8743551177078906e7 0.0
0.0 0.0 0.0

4.369257829940269e6 4.81094212415667e7 0.0
4.81094212415667e7 -3.547504180206477e6 0.0
0.0 0.0 0.0

7.2869243676255355e6 4.04139906800804e7 0.0
4.04139906800804e7 -4.047173276719645e6 0.0
0.0 0.0 0.0

-7.344577884632602e6 2.076960550403801e6 0.0
2.076960550403801e6 4.7267702631780475e7 0.0
0.0 0.0 0.0

1.7729597222162746e6 1.3379481935536144e6 0.0
1.3379481935536144e6 -4.5544988655906e7 0.0
0.0 0.0 0.0

-5.2380129626421025e6 3.331007496178578e7 0.0
3.331007496178578e7 9.652111516890958e6 0.0
0.0 0.0 0.0

8.955862179161016e6 2.8728583066272378e7 0.0
2.8728583066272378e7 1.6632841997244645e7 0.0
0.0 0.0 0.0

-4.579027488406464e6 8.174180558357744e6 0.0
8.174180558357744e6 5.229143462897802e6 0.0
0.0 0.0 0.0

-5.621963619361591e6 1.963533161427632e7 0.0
1.963533161427632e7 2.8948052633814495e7 0.0
0.0 0.0 0.0

7.327507035684867e6 2.8125466944285326e7 0.0
2.8125466944285326e7 1.6900095673486464e7 0.0
0.0 0.0 0.0

-456369.05481182877 2.159340913047713e7 0.0
2.159340913047713e7 -1.458661540178572e7 0.0
0.0 0.0 0.0

-5.08887757801241e6 2.1667730355746638e7 0.0
2.1667730355746638e7 -2.227984149715677e7 0.0
0.0 0.0 0.0

3.977434413421104e6 3.7024803093005374e7 0.0
3.7024803093005374e7 -5.554780648660401e6 0.0
0.0 0.0 0.0

-8.740317207513217e6 -714856.179705608 0.0
-714856.179705608 2.058538001640366e7 0.0
0.0 0.0 0.0

-1.4381430824702221e6 2.4553311897238344e7 0.0
2.4553311897238344e7 5.661331666395902e6 0.0
0.0 0.0 0.0

-3.3847684659495354e6 2.0667781413436215e7 0.0
2.0667781413436215e7 3.61505679123329e7 0.0
0.0 0.0 0.0

808935.3238905473 1.759001713028786e7 0.0
1.759001713028786e7 -1.6650959816909064e7 0.0
0.0 0.0 0.0

3.6183342205627887e6 2.989599299785368e7 0.0
2.989599299785368e7 -1.1805346307078816e7 0.0
0.0 0.0 0.0

6.144497616325318e6 5.300561472300587e7 0.0
5.300561472300587e7 -731254.3967049425 0.0
0.0 0.0 0.0

-2.266019119748939e6 1.7991841678008728e7 0.0
1.7991841678008728e7 -4.241738544225057e7 0.0
0.0 0.0 0.0

-5.8010129220136665e7 6.090424002854216e7 0.0
6.090424002854216e7 6.715664535656232e6 0.0
0.0 0.0 0.0

101215.4280152701 1.529272991528268e6 0.0
1.529272991528268e6 336110.79646118695 0.0
0.0 0.0 0.0

-379407.29645707755 1.8525862283696374e6 0.0
1.8525862283696374e6 -1.2813861941302014e6 0.0
0.0 0.0 0.0

8.158220409741711e6 2.323281309544931e7 0.0
2.323281309544931e7 3.82243916531904e7 0.0
0.0 0.0 0.0

7.461832528155309e6 2.6100475632463433e7 0.0
2.6100475632463433e7 1.9197647131246567e7 0.0
0.0 0.0 0.0

776677.7442298699 2.4936634543145966e7 0.0
2.4936634543145966e7 1.1853022601282729e7 0.0
0.0 0.0 0.0

-6.504707504745087e6 1.7689904723123025e7 0.0
1.7689904723123025e7 2.8867361061355554e7 0.0
0.0 0.0 0.0

1.115457095532072e7 6.1808194788259035e6 0.0
6.1808194788259035e6 -1.5508058524941672e6 0.0
0.0 0.0 0.0

-2.183617607667041e6 2.7057728404806223e7 0.0
2.7057728404806223e7 1.257767278699052e7 0.0
0.0 0.0 0.0

971249.1319008481 3.876375200222533e7 0.0
3.876375200222533e7 -808298.3773346469 0.0
0.0 0.0 0.0

-3.5250614376372006e6 1.914084246812805e7 0.0
1.914084246812805e7 -4.525865885424707e7 0.0
0.0 0.0 0.0

1.5611802068235604e7 2.8750225051033992e7 0.0
2.8750225051033992e7 1.4287153858175827e7 0.0
0.0 0.0 0.0

2.4056295858450547e7 2.8240020103128687e7 0.0
2.8240020103128687e7 1.5751189335249817e7 0.0
0.0 0.0 0.0

-3.455841555761325e7 6.335269632603232e7 0.0
6.335269632603232e7 8.296521069597e6 0.0
0.0 0.0 0.0

3.484913941108884e6 2.5310819480535254e7 0.0
2.5310819480535254e7 1.2373773195314417e7 0.0
0.0 0.0 0.0

-9.427556418460874e6 1.2395776394467928e7 0.0
1.2395776394467928e7 1.8241602132854298e7 0.0
0.0 0.0 0.0

-7.832935606841037e6 1.5698689971881332e7 0.0
1.5698689971881332e7 3.519528346181679e7 0.0
0.0 0.0 0.0

547364.6404996 3.77493220617321e7 0.0
3.77493220617321e7 -2.1258263222275134e6 0.0
0.0 0.0 0.0

1.0949027928140653e7 2.5481586766924936e7 0.0
2.5481586766924936e7 1.829343912299692e7 0.0
0.0 0.0 0.0

-4.684832800391234e6 5.984453135940106e6 0.0
5.984453135940106e6 8.147706838592657e7 0.0
0.0 0.0 0.0

2.170140083606057e6 2.3681488716656975e7 0.0
2.3681488716656975e7 2.210914195053724e7 0.0
0.0 0.0 0.0

-1.4473904933196254e7 2.1422903677436206e7 0.0
2.1422903677436206e7 -5.120903711936895e7 0.0
0.0 0.0 0.0

7.7621987579493355e6 2.7742843338393297e7 0.0
2.7742843338393297e7 1.7106612503814396e7 0.0
0.0 0.0 0.0

-1.6064798546615392e6 2.2198803557590373e7 0.0
2.2198803557590373e7 3.356071055416436e7 0.0
0.0 0.0 0.0

-429619.35901863035 2.0234207126825422e7 0.0
2.0234207126825422e7 -1.5132240596805055e7 0.0
0.0 0.0 0.0

1.0333076334726684e7 2.2386189821219414e7 0.0
2.2386189821219414e7 9.949851271107636e7 0.0
0.0 0.0 0.0

1.3393317857089503e7 3.349028530875759e7 0.0
3.349028530875759e7 -5.52153567637372e6 0.0
0.0 0.0 0.0

415338.72359865345 2.270866654481202e7 0.0
2.270866654481202e7 -2.359893927621711e7 0.0
0.0 0.0 0.0

-617539.3638716303 1.6299857309550073e7 0.0
1.6299857309550073e7 -6.531775880417321e6 0.0
0.0 0.0 0.0

1.3866180871393085e6 3.062127449760671e6 0.0
3.062127449760671e6 -5.729325779421843e7 0.0
0.0 0.0 0.0

5.703795519981552e6 5.034721115420683e7 0.0
5.034721115420683e7 -471111.5228422617 0.0
0.0 0.0 0.0

-7.217276086441647e6 1.647583702189067e7 0.0
1.647583702189067e7 3.609038872982654e7 0.0
0.0 0.0 0.0

6.2386925040232595e6 2.1684195401505385e7 0.0
2.1684195401505385e7 2.864985781101171e7 0.0
0.0 0.0 0.0

-1.1824715446541078e7 3.2693304824265093e7 0.0
3.2693304824265093e7 6.003723014521991e6 0.0
0.0 0.0 0.0

-1.6027671390389074e6 2.7363676713150725e7 0.0
2.7363676713150725e7 3.115786867504468e6 0.0
0.0 0.0 0.0

-5.666902370333357e6 2.0214447919009812e7 0.0
2.0214447919009812e7 2.9396717745271485e7 0.0
0.0 0.0 0.0

1.1086731084625572e6 1.2844194644002141e7 0.0
1.2844194644002141e7 -2.944136068278267e7 0.0
0.0 0.0 0.0

-1.745562943918138e7 5.3482978232498206e7 0.0
5.3482978232498206e7 7.440336925210274e6 0.0
0.0 0.0 0.0

3.3274154471129637e7 1.5069038898776593e7 0.0
1.5069038898776593e7 1.5518293497609124e6 0.0
0.0 0.0 0.0

-9.729567088516092e6 2.214828022546744e6 0.0
2.214828022546744e6 2.657272981405996e7 0.0
0.0 0.0 0.0

-9.39667082911314e6 3.8428427142105676e7 0.0
3.8428427142105676e7 6.159386922048623e6 0.0
0.0 0.0 0.0

-3.673574989951695e7 2.835313020345238e7 0.0
2.835313020345238e7 781536.7978304531 0.0
0.0 0.0 0.0

-5.555160992687397e6 2.7074894458467823e7 0.0
2.7074894458467823e7 -1.4456093388515223e7 0.0
0.0 0.0 0.0

-7.294016654105377e7 4.0580650560082294e7 0.0
4.0580650560082294e7 -1.029501551230982e7 0.0
0.0 0.0 0.0

-6.523673866575494e6 2.7315518216364093e7 0.0
2.7315518216364093e7 -8.557921998736471e6 0.0
0.0 0.0 0.0

-3.150461516091058e6 2.2999872194085825e7 0.0
2.2999872194085825e7 2.2344075373351406e7 0.0
0.0 0.0 0.0

-7.137257677678883e6 1.6707567567771513e7 0.0
1.6707567567771513e7 3.0473252920018144e7 0.0
0.0 0.0 0.0

-4.968624148304963e6 2.041741214287979e7 0.0
2.041741214287979e7 2.0975036169092447e7 0.0
0.0 0.0 0.0

-4.99125900896396e6 2.9769746023224767e7 0.0
2.9769746023224767e7 1.3768265534056176e7 0.0
0.0 0.0 0.0

-5.851766510673612e6 3.2745961627742867e6 0.0
3.2745961627742867e6 5.80891393019163e7 0.0
0.0 0.0 0.0

-554487.1167140115 2.32105389473993e7 0.0
2.32105389473993e7 -1.426123822036092e6 0.0
0.0 0.0 0.0

1.2126191369432611e6 1.465242002916571e7 0.0
1.465242002916571e7 -1.758095144764812e7 0.0
0.0 0.0 0.0

844209.1631447645 2.047404615479075e7 0.0
2.047404615479075e7 -2.464436934355144e7 0.0
0.0 0.0 0.0

-7.179498690542633e6 -412400.39952961955 0.0
-412400.39952961955 3.95800065895154e7 0.0
0.0 0.0 0.0

-1.458154557341022e6 2.3696832031064026e7 0.0
2.3696832031064026e7 888455.4919394323 0.0
0.0 0.0 0.0

-9.900002350132305e6 3.2963523438294746e7 0.0
3.2963523438294746e7 7.371222714288623e6 0.0
0.0 0.0 0.0

4.876956639358111e6 2.3124196067940097e7 0.0
2.3124196067940097e7 3.755914490439674e7 0.0
0.0 0.0 0.0

1.201961160642149e6 2.51102738550777e7 0.0
2.51102738550777e7 -1.6461766782454284e7 0.0
0.0 0.0 0.0

939380.5617597557 2.377903485549611e7 0.0
2.377903485549611e7 6.297506816730043e6 0.0
0.0 0.0 0.0

3.7547703891117247e6 4.644283937077604e7 0.0
4.644283937077604e7 -3.145658278421107e6 0.0
0.0 0.0 0.0

3.1455514086034466e6 2.66707815496616e7 0.0
2.66707815496616e7 -1.2805081093884727e7 0.0
0.0 0.0 0.0

1.4129592734873578e8 5.00638674423753e7 0.0
5.00638674423753e7 3.701223614652291e6 0.0
0.0 0.0 0.0

6.939483734140817e6 2.6597709322611928e7 0.0
2.6597709322611928e7 -2.8679506600924027e6 0.0
0.0 0.0 0.0

-3.554308540719363e6 2.274070744725113e7 0.0
2.274070744725113e7 -2.8899369397798672e7 0.0
0.0 0.0 0.0

5.126875465155289e6 2.9177969805982336e7 0.0
2.9177969805982336e7 -1.0649591489421511e7 0.0
0.0 0.0 0.0

-3.8270350690377876e7 3.5702712368078955e7 0.0
3.5702712368078955e7 -9.376666844702153e6 0.0
0.0 0.0 0.0

-7.10161417417665e6 3.1720350739534143e7 0.0
3.1720350739534143e7 9.476458512986261e6 0.0
0.0 0.0 0.0

2.4304911717446584e7 2.828158141387577e7 0.0
2.828158141387577e7 9.232057724588927e6 0.0
0.0 0.0 0.0

-5.344395502095429e6 1.8341509287605286e7 0.0
1.8341509287605286e7 -5.535240629872556e7 0.0
0.0 0.0 0.0

9.777177721631635e6 2.17808376235881e7 0.0
2.17808376235881e7 4.987855994778085e7 0.0
0.0 0.0 0.0

2.470084459019784e6 5.658492985615202e6 0.0
5.658492985615202e6 -3.476811443737297e7 0.0
0.0 0.0 0.0

5.342837761274943e6 3.0387283946995698e7 0.0
3.0387283946995698e7 -1.0054553811141169e7 0.0
0.0 0.0 0.0

234035.09793617576 4.725457179669951e6 0.0
4.725457179669951e6 -6.690123185033295e7 0.0
0.0 0.0 0.0

3.168518342341942e6 2.9526912926426567e7 0.0
2.9526912926426567e7 -1.2142114542872395e7 0.0
0.0 0.0 0.0

1.1380049062028408e7 3.553032093822961e7 0.0
3.553032093822961e7 -6.471953887605479e6 0.0
0.0 0.0 0.0

-1.2814676464810178e6 2.7114961717012208e7 0.0
2.7114961717012208e7 2.5209428291903962e6 0.0
0.0 0.0 0.0

-1.8492800538534258e7 4.1285857185138784e7 0.0
4.1285857185138784e7 5.603393961436176e6 0.0
0.0 0.0 0.0

-1.9026129693266936e6 2.242648608119326e7 0.0
2.242648608119326e7 3.379916732354542e7 0.0
0.0 0.0 0.0

2.5273054909500144e6 2.376441323930872e7 0.0
2.376441323930872e7 1.3739744817275768e7 0.0
0.0 0.0 0.0

-4.967717391785354e7 4.655033839388786e7 0.0
4.655033839388786e7 7.470055320288684e6 0.0
0.0 0.0 0.0

2.3895068886893418e7 2.8410088840345684e7 0.0
2.8410088840345684e7 1.6484259403852098e7 0.0
0.0 0.0 0.0

-5.184392628519932e6 1.5380840593280546e7 0.0
1.5380840593280546e7 1.1980057542716963e7 0.0
0.0 0.0 0.0

-7.489195653711859e6 3.7765713637061805e7 0.0
3.7765713637061805e7 6.030931712320948e6 0.0
0.0 0.0 0.0

-7.634892331221442e6 2.787699602252954e7 0.0
2.787699602252954e7 -1.145206630367383e7 0.0
0.0 0.0 0.0

969823.4763884107 1.8209568312978473e7 0.0
1.8209568312978473e7 -1.7733197506505553e7 0.0
0.0 0.0 0.0

1.670406661507748e6 1.1322644714524597e6 0.0
1.1322644714524597e6 -4.795911264898058e7 0.0
0.0 0.0 0.0

-2.96160748517215e6 2.2458946128428746e7 0.0
2.2458946128428746e7 -1.236865134344413e7 0.0
0.0 0.0 0.0

6.813799279487352e7 8.047657817424672e6 0.0
8.047657817424672e6 -391279.901263427 0.0
0.0 0.0 0.0

-1.3945561524499655e6 2.1802751191645596e7 0.0
2.1802751191645596e7 3.5734341584712856e7 0.0
0.0 0.0 0.0

-9.864832318824813e6 3.658290536037002e7 0.0
3.658290536037002e7 6.988049321604637e6 0.0
0.0 0.0 0.0

-6.127597186642822e6 -866854.8363603593 0.0
-866854.8363603593 5.271697907213446e7 0.0
0.0 0.0 0.0

-2.9674891998484693e6 4.553854260469436e7 0.0
4.553854260469436e7 677566.6213438379 0.0
0.0 0.0 0.0

-2.92955757225191e7 3.090518464355139e7 0.0
3.090518464355139e7 -6.9303331206419105e6 0.0
0.0 0.0 0.0

722441.9194168737 2.3450976337822333e7 0.0
2.3450976337822333e7 -2.1934628963128082e7 0.0
0.0 0.0 0.0

7.707681110471731e6 2.3039445290860612e7 0.0
2.3039445290860612e7 3.416714969496302e7 0.0
0.0 0.0 0.0

611569.0524939152 2.5031722658006042e7 0.0
2.5031722658006042e7 6.09748457121637e6 0.0
0.0 0.0 0.0

-2.260717718469267e6 2.7919532213288575e7 0.0
2.7919532213288575e7 1.1523247513078451e7 0.0
0.0 0.0 0.0

202150.95052850898 1.7316555862923656e7 0.0
1.7316555862923656e7 -1.8970218759318825e7 0.0
0.0 0.0 0.0

1.9444507332383692e6 1.2240293622096755e7 0.0
1.2240293622096755e7 -2.8403470603609473e7 0.0
0.0 0.0 0.0

-1.4210740537908748e6 1.1228475586200107e7 0.0
1.1228475586200107e7 -6.483058129333039e6 0.0
0.0 0.0 0.0

-6.604719267648412e6 3.704152821811796e7 0.0
3.704152821811796e7 5.990734918644626e6 0.0
0.0 0.0 0.0

-599408.5894244509 2.2321426680991646e7 0.0
2.2321426680991646e7 -1.2971852929822639e7 0.0
0.0 0.0 0.0

2.757764618420533e7 1.462019207580449e7 0.0
1.462019207580449e7 1.4031669052797044e6 0.0
0.0 0.0 0.0

1.6622882005501483e6 1.3402751846782446e6 0.0
1.3402751846782446e6 -4.8617281972547725e7 0.0
0.0 0.0 0.0

6.329891616109746e6 2.1893166040429927e7 0.0
2.1893166040429927e7 3.600828428553612e7 0.0
0.0 0.0 0.0

-414346.6776420041 1.0763183606623532e7 0.0
1.0763183606623532e7 -9.625100837892428e6 0.0
0.0 0.0 0.0

5.685002854026566e6 3.747086584900419e7 0.0
3.747086584900419e7 -4.8658907370760515e6 0.0
0.0 0.0 0.0

1.3088688435106394e6 2.4596264173025593e7 0.0
2.4596264173025593e7 1.5463055241960913e7 0.0
0.0 0.0 0.0

-6.278518554915853e6 1.0323652497608945e7 0.0
1.0323652497608945e7 5.220030662506442e7 0.0
0.0 0.0 0.0

-8.850644822360113e6 2.3203783690343876e6 0.0
2.3203783690343876e6 1.933281225755841e7 0.0
0.0 0.0 0.0

1.2151405429357136e7 3.535592294391881e7 0.0
3.535592294391881e7 -6.239321607693155e6 0.0
0.0 0.0 0.0

-6.869175265030015e7 2.191656131516612e7 0.0
2.191656131516612e7 4.468421509138867e6 0.0
0.0 0.0 0.0

-172783.283735672 2.144905152218593e7 0.0
2.144905152218593e7 -2.7450651675688572e7 0.0
0.0 0.0 0.0

9.154789748214707e6 1.5038291117450528e7 0.0
1.5038291117450528e7 4.042284948434931e6 0.0
0.0 0.0 0.0

-3.1149069188495567e6 2.259884054932433e7 0.0
2.259884054932433e7 2.166082767544554e7 0.0
0.0 0.0 0.0

-7.47366133591285e7 2.118131524487153e7 0.0
2.118131524487153e7 2.8482237483522817e6 0.0
0.0 0.0 0.0

-3.7002659714444075e6 2.1816745869052608e7 0.0
2.1816745869052608e7 -3.045651908485746e7 0.0
0.0 0.0 0.0

3.0014913878414184e6 2.8430909580693375e7 0.0
2.8430909580693375e7 -1.31051945485392e7 0.0
0.0 0.0 0.0

1.0093913300184503e6 6.120213548841488e6 0.0
6.120213548841488e6 -3.97809059302212e6 0.0
0.0 0.0 0.0

-1.579023185055132e7 2.9860414878940504e7 0.0
2.9860414878940504e7 -1.1519015299997102e7 0.0
0.0 0.0 0.0

1.1871328357551983e7 4.1793953140878156e7 0.0
4.1793953140878156e7 -5.695418932198077e6 0.0
0.0 0.0 0.0

-1.980277850820899e6 4.11831312310209e7 0.0
4.11831312310209e7 383482.10784389346 0.0
0.0 0.0 0.0

-2.485350344382727e6 2.7674097646465935e7 0.0
2.7674097646465935e7 6.723871097374706e6 0.0
0.0 0.0 0.0

-5.016780020747181e6 1.8744194247991648e7 0.0
1.8744194247991648e7 3.78398540426452e7 0.0
0.0 0.0 0.0

-3.2219680753366305e6 2.7445292368493337e7 0.0
2.7445292368493337e7 1.7970992698160227e7 0.0
0.0 0.0 0.0

-2.749308351107356e6 4.419173815163468e7 0.0
4.419173815163468e7 550869.7384045824 0.0
0.0 0.0 0.0

477372.50644821674 1.4409979191641714e7 0.0
1.4409979191641714e7 -2.009009842207464e7 0.0
0.0 0.0 0.0

-2.6233877156080008e6 4.323775496539274e7 0.0
4.323775496539274e7 408367.6280201161 0.0
0.0 0.0 0.0

8.39362205134337e6 2.645487356700675e7 0.0
2.645487356700675e7 1.6770314086896572e7 0.0
0.0 0.0 0.0

-6.815001420672083e6 1.6522114729884898e7 0.0
1.6522114729884898e7 3.6377008234273694e7 0.0
0.0 0.0 0.0

1.1545818790323567e6 3.0122146501449007e6 0.0
3.0122146501449007e6 -5.015536363730937e7 0.0
0.0 0.0 0.0

-1.1920884032481201e7 3.24528817020104e7 0.0
3.24528817020104e7 6.517562496915442e6 0.0
0.0 0.0 0.0

552354.9147244403 3.3419707427149788e7 0.0
3.3419707427149788e7 -5.00916710709611e6 0.0
0.0 0.0 0.0

2.491250544995549e6 3.321050101994588e7 0.0
3.321050101994588e7 -5.982592028483115e6 0.0
0.0 0.0 0.0

-9.599630423061773e7 5.472693829449712e7 0.0
5.472693829449712e7 -4.650361620657407e7 0.0
0.0 0.0 0.0

1.2207372245785594e6 2.4433479509142514e7 0.0
2.4433479509142514e7 -2.033314200908619e7 0.0
0.0 0.0 0.0

863025.9244740105 3.6955038168698676e7 0.0
3.6955038168698676e7 -945634.3814196975 0.0
0.0 0.0 0.0

-3.6937794515490877e6 2.3947734573237296e7 0.0
2.3947734573237296e7 2.0689218506704047e7 0.0
0.0 0.0 0.0

-4.1480284829271965e7 3.0653339009302545e7 0.0
3.0653339009302545e7 1.1505270907351747e6 0.0
0.0 0.0 0.0

1.354066694069239e6 2.380922244702211e7 0.0
2.380922244702211e7 653566.4711299718 0.0
0.0 0.0 0.0

6.679250480491548e6 2.318228247153403e7 0.0
2.318228247153403e7 1.936341481755533e7 0.0
0.0 0.0 0.0

1.1105463217018433e6 992106.4042951039 0.0
992106.4042951039 -6.166360561070254e7 0.0
0.0 0.0 0.0

-2.635599808867268e7 4.904189487028024e7 0.0
4.904189487028024e7 8.66130858796635e6 0.0
0.0 0.0 0.0

-5.909347965395708e6 924241.8078797127 0.0
924241.8078797127 5.398897622978288e7 0.0
0.0 0.0 0.0

-5.684127504686929e6 2.225083451709148e6 0.0
2.225083451709148e6 6.286312786410449e7 0.0
0.0 0.0 0.0

-8.472387461516151e6 -298972.77465043345 0.0
-298972.77465043345 1.80325357638367e7 0.0
0.0 0.0 0.0

-5.379618832061993e6 1.694335838028275e7 0.0
1.694335838028275e7 4.2516758894131415e7 0.0
0.0 0.0 0.0

6.767350096236957e6 2.083980097734906e7 0.0
2.083980097734906e7 1.3293020163504714e7 0.0
0.0 0.0 0.0

-787304.9157421645 2.0350407894549843e7 0.0
2.0350407894549843e7 -3.194859710171807e7 0.0
0.0 0.0 0.0

-4.989417506809211e7 6.414656192255573e7 0.0
6.414656192255573e7 1.183299757851908e7 0.0
0.0 0.0 0.0

-6.239899260860311e6 1.714559195783444e7 0.0
1.714559195783444e7 3.709311440874651e7 0.0
0.0 0.0 0.0

-5.695262485833608e6 1.7772807416477762e7 0.0
1.7772807416477762e7 -5.8234156895424254e7 0.0
0.0 0.0 0.0

-2.7786026980681717e7 3.0364215994035035e7 0.0
3.0364215994035035e7 -6.406517391251856e6 0.0
0.0 0.0 0.0

-5.186866343862683e6 1.825605019919284e6 0.0
1.825605019919284e6 6.4382264451483324e7 0.0
0.0 0.0 0.0

709577.7077794885 2.296124050522474e7 0.0
2.296124050522474e7 -1.9624389137951076e7 0.0
0.0 0.0 0.0

-1.1752055580821455e7 2.135762132280579e7 0.0
2.135762132280579e7 -6.617954065377728e7 0.0
0.0 0.0 0.0

-5.104137895246118e6 2.6110395323694848e7 0.0
2.6110395323694848e7 -1.0376964788623374e7 0.0
0.0 0.0 0.0

-2.3796474865388297e7 2.7793453124003794e7 0.0
2.7793453124003794e7 -5.677616378181627e6 0.0
0.0 0.0 0.0

6.986719160943449e7 3.632297078940969e7 0.0
3.632297078940969e7 1.548970040672404e7 0.0
0.0 0.0 0.0

-2.2872449579877853e6 2.0041495665963568e7 0.0
2.0041495665963568e7 -5.0398000127279945e6 0.0
0.0 0.0 0.0

1.313384610638706e6 2.1135181841564193e7 0.0
2.1135181841564193e7 -2.2489267623309888e7 0.0
0.0 0.0 0.0

-4.4185545032970365e6 2.1774211225893825e7 0.0
2.1774211225893825e7 -1.8525367592493657e7 0.0
0.0 0.0 0.0

1.2609055324979164e6 1.2548608466429797e6 0.0
1.2548608466429797e6 -6.229075536216303e7 0.0
0.0 0.0 0.0

3.343691054164663e6 3.595658922233016e7 0.0
3.595658922233016e7 -4.394873426368489e6 0.0
0.0 0.0 0.0

-5.3205434189846255e6 2.1032886496174034e7 0.0
2.1032886496174034e7 -3.384926562294541e7 0.0
0.0 0.0 0.0

2.4574817957635215e6 2.709704327691507e7 0.0
2.709704327691507e7 -1.3474657154594595e7 0.0
0.0 0.0 0.0

-232486.2245028168 2.487650095606442e7 0.0
2.487650095606442e7 2.6485468441185066e6 0.0
0.0 0.0 0.0

-4.262282085125665e6 1.5132879661523743e7 0.0
1.5132879661523743e7 1.539824187271526e7 0.0
0.0 0.0 0.0

-2.6047803314273907e6 2.7543756130388867e7 0.0
2.7543756130388867e7 1.0945073223343564e7 0.0
0.0 0.0 0.0

2.5110794189647064e6 2.2340739790838063e7 0.0
2.2340739790838063e7 3.8372106118014544e7 0.0
0.0 0.0 0.0

2.167315001906272e6 1.559919101167438e6 0.0
1.559919101167438e6 -3.978180876631242e7 0.0
0.0 0.0 0.0

-1.7211974279436752e7 1.799483089583725e7 0.0
1.799483089583725e7 -1.2187323548926637e6 0.0
0.0 0.0 0.0

9.873873885625023e6 2.8572495177441664e7 0.0
2.8572495177441664e7 1.6560024628653659e7 0.0
0.0 0.0 0.0

-2.304940179039661e6 2.3040611406331692e7 0.0
2.3040611406331692e7 -2.2001933970338885e7 0.0
0.0 0.0 0.0

1.0631396358193778e8 1.4620170673252817e7 0.0
1.4620170673252817e7 300811.2384682596 0.0
0.0 0.0 0.0

-20388.43693753518 2.1578505264739662e7 0.0
2.1578505264739662e7 -2.760227437741878e7 0.0
0.0 0.0 0.0

2.1957515504574683e6 3.445630251810273e7 0.0
3.445630251810273e7 -6.22822556464863e6 0.0
0.0 0.0 0.0

-1.8824090596688471e6 2.965016500467451e7 0.0
2.965016500467451e7 268135.3855460682 0.0
0.0 0.0 0.0

1.244290585668031e7 2.2475323443189465e7 0.0
2.2475323443189465e7 8.42653411247408e7 0.0
0.0 0.0 0.0

-5.584371956503233e6 1.5756322072726443e7 0.0
1.5756322072726443e7 4.481147338719167e7 0.0
0.0 0.0 0.0

-6.065511196800359e6 -1.410115508016913e6 0.0
-1.410115508016913e6 5.214089558244777e7 0.0
0.0 0.0 0.0

-6.682582610098574e6 8.722671893052416e6 0.0
8.722671893052416e6 5.445157429664692e7 0.0
0.0 0.0 0.0

-2.7955720373634724e6 3.968429078126342e7 0.0
3.968429078126342e7 1.1787532155490096e6 0.0
0.0 0.0 0.0

1.1921392488197498e6 1.4097508221858067e7 0.0
1.4097508221858067e7 -3.0847311998355493e7 0.0
0.0 0.0 0.0

-3.1419525497781746e6 2.9034795204908762e7 0.0
2.9034795204908762e7 1.3620632841511983e7 0.0
0.0 0.0 0.0

1.4913273911005454e6 2.5159745255696222e7 0.0
2.5159745255696222e7 -1.8760954660547435e7 0.0
0.0 0.0 0.0

-4.258993323491876e6 2.1690470533101488e7 0.0
2.1690470533101488e7 2.0013850844205804e7 0.0
0.0 0.0 0.0

-6.250222503518706e6 3.2298609993443757e7 0.0
3.2298609993443757e7 1.0047470195383042e7 0.0
0.0 0.0 0.0

1.554369354004403e7 3.283844061826494e7 0.0
3.283844061826494e7 -4.630109885613271e6 0.0
0.0 0.0 0.0

-3.0537130527700847e6 2.6536671833999705e7 0.0
2.6536671833999705e7 1.994229186240064e7 0.0
0.0 0.0 0.0

-2.8467596653606687e6 2.7967526167971373e7 0.0
2.7967526167971373e7 1.5555032143919198e7 0.0
0.0 0.0 0.0

-5.6716952211247785e6 2.293294749558127e7 0.0
2.293294749558127e7 -2.021499773440559e7 0.0
0.0 0.0 0.0

-6.933920768422993e6 1.734584503191097e7 0.0
1.734584503191097e7 3.435558431965352e7 0.0
0.0 0.0 0.0

-2.3144488646458476e6 3.950717400863181e7 0.0
3.950717400863181e7 2.721479623315404e6 0.0
0.0 0.0 0.0

1.7667827852264065e6 4.876249973158971e6 0.0
4.876249973158971e6 -3.697863081793348e7 0.0
0.0 0.0 0.0

-4.248770732586734e6 4.382053320214053e6 0.0
4.382053320214053e6 7.99081377908765e7 0.0
0.0 0.0 0.0

-2.863538749754622e6 2.5344571676521886e7 0.0
2.5344571676521886e7 -1.2038143134076182e7 0.0
0.0 0.0 0.0

-2.957462384705686e6 4.063465691794031e7 0.0
4.063465691794031e7 1.259087314334469e6 0.0
0.0 0.0 0.0

506418.12439468317 1.6823388121974006e7 0.0
1.6823388121974006e7 -3.5328037437341705e7 0.0
0.0 0.0 0.0

2.269488224910128e6 3.63393653049533e7 0.0
3.63393653049533e7 -4.978624253791102e6 0.0
0.0 0.0 0.0

1.2067006412868034e6 1.1916617594048187e7 0.0
1.1916617594048187e7 -3.101628818090328e7 0.0
0.0 0.0 0.0

-6.98005434698149e6 1.5459841391114885e7 0.0
1.5459841391114885e7 3.83949594536148e7 0.0
0.0 0.0 0.0

-7.514760773507443e7 5.854187051867807e7 0.0
5.854187051867807e7 1.2207048483985707e7 0.0
0.0 0.0 0.0

-1.9070537454748023e7 3.1348199289364208e7 0.0
3.1348199289364208e7 -1.6852656865773695e6 0.0
0.0 0.0 0.0

-3.8090706828738907e6 2.8998279943472814e7 0.0
2.8998279943472814e7 1.46473887161075e7 0.0
0.0 0.0 0.0

-8.023348388378292e6 -3.031404338136184e6 0.0
-3.031404338136184e6 2.650547590933461e7 0.0
0.0 0.0 0.0

-2.262372540864555e7 2.9668431932654895e7 0.0
2.9668431932654895e7 -4.288444148200085e6 0.0
0.0 0.0 0.0

-8.538012244060261e6 3.2973008338655595e7 0.0
3.2973008338655595e7 8.373734993021376e6 0.0
0.0 0.0 0.0

1.5019473363963328e6 2.870114885395437e6 0.0
2.870114885395437e6 -5.1482105143325135e7 0.0
0.0 0.0 0.0

-4.268247951599099e6 2.00649791304225e7 0.0
2.00649791304225e7 2.363601345803169e7 0.0
0.0 0.0 0.0

-6.308178066994937e6 1.8216886368051056e7 0.0
1.8216886368051056e7 2.9683629595779374e7 0.0
0.0 0.0 0.0

7.970143400404314e6 4.7203428899622746e7 0.0
4.7203428899622746e7 -2.1954608101802845e6 0.0
0.0 0.0 0.0

-1.0022847518910177e7 5.043311189776386e6 0.0
5.043311189776386e6 2.8539724654692255e7 0.0
0.0 0.0 0.0

-6.382227085181192e6 1.8316819374525018e7 0.0
1.8316819374525018e7 3.542678649761611e7 0.0
0.0 0.0 0.0

-291231.5531397727 4.16894263534434e7 0.0
4.16894263534434e7 1.1231603374047615e6 0.0
0.0 0.0 0.0

-5.167123742002681e6 2.16191822840943e6 0.0
2.16191822840943e6 6.675022975756135e7 0.0
0.0 0.0 0.0

-8.0545644577031005e6 -974196.0606396854 0.0
-974196.0606396854 2.847864354507248e7 0.0
0.0 0.0 0.0

1.7148717448003516e6 8.383671523950523e6 0.0
8.383671523950523e6 -3.4742312047621794e7 0.0
0.0 0.0 0.0

-2.5638326482108273e6 2.8011638781308625e7 0.0
2.8011638781308625e7 1.221117675918817e7 0.0
0.0 0.0 0.0

-5.3055980272607375e6 1.781790892055457e7 0.0
1.781790892055457e7 3.993686635028816e7 0.0
0.0 0.0 0.0

1.0355481489263959e6 2.4391571429633588e7 0.0
2.4391571429633588e7 -1.8443484108333632e7 0.0
0.0 0.0 0.0

1.4804749124609567e6 2.313736107586218e7 0.0
2.313736107586218e7 -1.957518106730544e7 0.0
0.0 0.0 0.0

1.1094722871002778e6 1.3695987749536142e7 0.0
1.3695987749536142e7 -3.3183354313671134e7 0.0
0.0 0.0 0.0

-416368.1714284755 2.090320514582067e7 0.0
2.090320514582067e7 -2.9726255498023722e7 0.0
0.0 0.0 0.0

1.9930422507871029e6 2.4775045480897937e7 0.0
2.4775045480897937e7 1.0685911845153378e7 0.0
0.0 0.0 0.0

-5.225180438044196e6 1.8978214067841332e7 0.0
1.8978214067841332e7 3.762480956243509e7 0.0
0.0 0.0 0.0

2.585121533832781e6 3.526683773869707e7 0.0
3.526683773869707e7 -6.048013842751272e6 0.0
0.0 0.0 0.0

-7.161213022430336e6 3.6592618591182105e7 0.0
3.6592618591182105e7 6.8056474718845375e6 0.0
0.0 0.0 0.0

-1.3499638823663658e6 4.0181893353400044e7 0.0
4.0181893353400044e7 1.9517911037107715e6 0.0
0.0 0.0 0.0

2.1626379257670276e7 2.8232464503210295e7 0.0
2.8232464503210295e7 9.763642440983392e7 0.0
0.0 0.0 0.0

-1.9896891849791403e6 2.8619894682339456e7 0.0
2.8619894682339456e7 1.0406210008902121e7 0.0
0.0 0.0 0.0

1.3671533150178958e6 2.191764445402003e7 0.0
2.191764445402003e7 -2.0819114533303984e7 0.0
0.0 0.0 0.0

-1.3108471799475858e6 2.1991333136574782e7 0.0
2.1991333136574782e7 -2.765608043708155e7 0.0
0.0 0.0 0.0

1.2699301818983192e6 2.1542586695580933e7 0.0
2.1542586695580933e7 -2.294866808202132e7 0.0
0.0 0.0 0.0

3.3166968400986865e6 3.965353221024923e7 0.0
3.965353221024923e7 -2.491327418252093e6 0.0
0.0 0.0 0.0

-2.4525138701775894e6 2.7153468606033895e7 0.0
2.7153468606033895e7 9.722154149821851e6 0.0
0.0 0.0 0.0

751180.3805487565 2.3808033457057398e7 0.0
2.3808033457057398e7 4.164482360639319e6 0.0
0.0 0.0 0.0

-1.2982595998344664e6 2.3621168677679908e7 0.0
2.3621168677679908e7 -2.089534364063796e7 0.0
0.0 0.0 0.0

-5.221842685144805e6 1.5991715537925307e7 0.0
1.5991715537925307e7 1.3828409884763716e7 0.0
0.0 0.0 0.0

9.664051603112582e6 5.562204400854237e7 0.0
5.562204400854237e7 -5.758020333412513e6 0.0
0.0 0.0 0.0

451167.6370334849 4.1655235681325765e6 0.0
4.1655235681325765e6 -7.394671942657001e7 0.0
0.0 0.0 0.0

1.474615045546697e8 5.646802809217117e7 0.0
5.646802809217117e7 3.845559765913083e7 0.0
0.0 0.0 0.0

6.560899264846468e7 5.702908717180286e7 0.0
5.702908717180286e7 -1.6897875562630445e7 0.0
0.0 0.0 0.0

895006.3128405251 2.4083814659516457e7 0.0
2.4083814659516457e7 2.4485683442817762e7 0.0
0.0 0.0 0.0

3.085323006008087e6 2.5175246219693396e7 0.0
2.5175246219693396e7 1.3689160255180296e7 0.0
0.0 0.0 0.0

-3.3233446291034017e7 3.1761212812801644e7 0.0
3.1761212812801644e7 -2.614371290170297e6 0.0
0.0 0.0 0.0

-8.182796479016417e7 3.973925400509624e7 0.0
3.973925400509624e7 -6.537861979137581e6 0.0
0.0 0.0 0.0

-5.408608515370493e6 1.6275046830253774e7 0.0
1.6275046830253774e7 1.9828300160796333e7 0.0
0.0 0.0 0.0

876358.2938660695 3.437286796869204e7 0.0
3.437286796869204e7 -2.2110147780188555e6 0.0
0.0 0.0 0.0

1.176077711514704e6 2.03064351704411e7 0.0
2.03064351704411e7 -2.4130634656002883e7 0.0
0.0 0.0 0.0

301969.7995880656 9.01054405806566e6 0.0
9.01054405806566e6 -6.678395489636794e7 0.0
0.0 0.0 0.0

670886.6854655463 2.0588321800554488e7 0.0
2.0588321800554488e7 -2.4571051614563726e7 0.0
0.0 0.0 0.0

-4.698220264116714e6 1.7968667876411345e7 0.0
1.7968667876411345e7 -5.132133012038162e7 0.0
0.0 0.0 0.0

-6.882006059050905e6 1.8481604166088097e7 0.0
1.8481604166088097e7 2.7249689440247953e7 0.0
0.0 0.0 0.0

3.883377608267367e6 2.2356817598836873e7 0.0
2.2356817598836873e7 3.6377424697256446e7 0.0
0.0 0.0 0.0

1.5292633699863523e6 2.3071091153942987e7 0.0
2.3071091153942987e7 1.01886227660051e7 0.0
0.0 0.0 0.0

-1.2301919637359742e7 1.1380234175125409e7 0.0
1.1380234175125409e7 3.6726718096676096e6 0.0
0.0 0.0 0.0

-6.918344998269554e6 7.203922611675589e6 0.0
7.203922611675589e6 5.358556815980405e7 0.0
0.0 0.0 0.0

-3.3314560719000064e6 3.3382457576196287e7 0.0
3.3382457576196287e7 7.66862287846593e6 0.0
0.0 0.0 0.0

2.864704826505594e6 2.2746726849343035e7 0.0
2.2746726849343035e7 3.893048902200681e7 0.0
0.0 0.0 0.0

-2.928287414997888e6 2.2132347665794685e7 0.0
2.2132347665794685e7 2.0701744755334195e7 0.0
0.0 0.0 0.0

-9.284586945488464e6 2.9257625732323006e6 0.0
2.9257625732323006e6 1.2067922445154708e7 0.0
0.0 0.0 0.0

-493674.46771919355 1.4889707986272473e7 0.0
1.4889707986272473e7 8.479326874846761e7 0.0
0.0 0.0 0.0

-1.3771175540220707e6 2.6426156504679207e7 0.0
2.6426156504679207e7 3.5898858206962557e6 0.0
0.0 0.0 0.0

2.8176400713522914e6 3.418479924298136e7 0.0
3.418479924298136e7 -7.129824963589654e6 0.0
0.0 0.0 0.0

3.124668377218565e6 2.201070517874478e7 0.0
2.201070517874478e7 4.073047428505221e7 0.0
0.0 0.0 0.0

-4.481494539516647e6 1.587695986540818e7 0.0
1.587695986540818e7 1.7113591960707325e7 0.0
0.0 0.0 0.0

1.1998024091337934e7 3.394311280197524e7 0.0
3.394311280197524e7 -6.19477825949339e6 0.0
0.0 0.0 0.0

-2.122034060824722e6 6.370187063537403e6 0.0
6.370187063537403e6 8.991056861507663e7 0.0
0.0 0.0 0.0

1.1672395098799318e7 3.1030214523990016e7 0.0
3.1030214523990016e7 -5.323193070225405e6 0.0
0.0 0.0 0.0

-2.4669905585341137e6 4.03893995782382e7 0.0
4.03893995782382e7 2.8826070088317897e6 0.0
0.0 0.0 0.0

-7.933207155306175e6 2.0373941507445753e7 0.0
2.0373941507445753e7 -3.1168454458263926e7 0.0
0.0 0.0 0.0

-2.72011973541041e6 2.565574192589341e7 0.0
2.565574192589341e7 2.130771073948586e7 0.0
0.0 0.0 0.0

-6.448596587113135e6 1.5914464350345986e7 0.0
1.5914464350345986e7 4.13715380487606e7 0.0
0.0 0.0 0.0

7.528525422806734e6 3.90351271736337e7 0.0
3.90351271736337e7 -4.920082133317089e6 0.0
0.0 0.0 0.0

2.5642253861569306e6 5.944400957095498e6 0.0
5.944400957095498e6 -1.2540456036818033e7 0.0
0.0 0.0 0.0

606561.6896942299 5.164649465180323e7 0.0
5.164649465180323e7 -2.0108812529877664e6 0.0
0.0 0.0 0.0

7.2816792904656e6 2.7223921942600884e7 0.0
2.7223921942600884e7 1.0997143884152185e7 0.0
0.0 0.0 0.0

499410.8579865615 3.1294545935114443e7 0.0
3.1294545935114443e7 -4.26001609103356e6 0.0
0.0 0.0 0.0

1.010826062886525e6 5.869693621570129e6 0.0
5.869693621570129e6 -5.055624189093069e7 0.0
0.0 0.0 0.0

-3.9439129790606447e6 2.6295645168008525e7 0.0
2.6295645168008525e7 -1.40071228337855e7 0.0
0.0 0.0 0.0

1.0830532900884982e7 2.7788516340013724e7 0.0
2.7788516340013724e7 1.595916598359643e7 0.0
0.0 0.0 0.0

-1.0233932306642461e6 3.74891771139934e7 0.0
3.74891771139934e7 1.7386516501083835e6 0.0
0.0 0.0 0.0

7.641945897458601e6 2.291459284240719e7 0.0
2.291459284240719e7 4.217102175174129e7 0.0
0.0 0.0 0.0

-6.7180985393281905e6 1.154411919389629e6 0.0
1.154411919389629e6 1.4669174321727857e7 0.0
0.0 0.0 0.0

2.544625841466902e6 2.110348136363046e7 0.0
2.110348136363046e7 4.7982907189111345e7 0.0
0.0 0.0 0.0

-9.355044292153891e6 3.032002407771319e7 0.0
3.032002407771319e7 5.04044476108874e6 0.0
0.0 0.0 0.0

1.251589892739348e7 3.2180991876877546e7 0.0
3.2180991876877546e7 -5.3509507591990875e6 0.0
0.0 0.0 0.0

5.967065824604687e6 3.0191060044384852e7 0.0
3.0191060044384852e7 -9.75159546255848e6 0.0
0.0 0.0 0.0

1.2906249701314546e7 4.140362604030742e7 0.0
4.140362604030742e7 -5.593525542403723e6 0.0
0.0 0.0 0.0

1.2803402092883766e6 2.1825066953054767e7 0.0
2.1825066953054767e7 7.744629490927985e6 0.0
0.0 0.0 0.0

-4.588913751263552e6 3.0095916865022752e7 0.0
3.0095916865022752e7 1.3287726221577732e7 0.0
0.0 0.0 0.0

7.332055958714407e6 4.285664668228855e7 0.0
4.285664668228855e7 -4.9675354372996045e6 0.0
0.0 0.0 0.0

-1.1892733163449632e7 2.0278311603731006e7 0.0
2.0278311603731006e7 -6.624061158483185e7 0.0
0.0 0.0 0.0

-7.705100394951264e6 1.4086107283283979e7 0.0
1.4086107283283979e7 1.7937374795168497e7 0.0
0.0 0.0 0.0

2.190196782221471e6 2.417085324111029e7 0.0
2.417085324111029e7 1.2148130523975166e7 0.0
0.0 0.0 0.0

7.723555040011298e6 4.025557513565997e7 0.0
4.025557513565997e7 -5.7751343362649605e6 0.0
0.0 0.0 0.0

-1.8732340447517745e6 2.4187241971238267e7 0.0
2.4187241971238267e7 -2.1666143270124648e7 0.0
0.0 0.0 0.0

2.4231264483504836e6 3.2283574409742733e6 0.0
3.2283574409742733e6 -3.518819816033593e7 0.0
0.0 0.0 0.0

-4.0688674564910233e6 929013.9933486212 0.0
929013.9933486212 8.373774222443202e7 0.0
0.0 0.0 0.0

2523.1370910964906 1.6908286522801217e7 0.0
1.6908286522801217e7 -3.788869651718634e7 0.0
0.0 0.0 0.0

4.354674467872517e6 2.6091910287943333e7 0.0
2.6091910287943333e7 1.5166702468275305e7 0.0
0.0 0.0 0.0

-5.627608669019679e6 1.9128137970953237e7 0.0
1.9128137970953237e7 2.821522644935129e7 0.0
0.0 0.0 0.0

1.4018089987907168e7 3.1576106524567384e7 0.0
3.1576106524567384e7 -4.393179998415382e6 0.0
0.0 0.0 0.0

1.7758966052990686e6 6.374820289267297e6 0.0
6.374820289267297e6 -2.9080064063162252e7 0.0
0.0 0.0 0.0

6.068435823048301e6 2.7316599418364286e7 0.0
2.7316599418364286e7 -1.8791924533038256e6 0.0
0.0 0.0 0.0

1.1849156938258681e7 2.914430942728662e7 0.0
2.914430942728662e7 1.6278316793303637e7 0.0
0.0 0.0 0.0

1.800784695654608e7 5.431010752223816e7 0.0
5.431010752223816e7 -8.372001323002197e6 0.0
0.0 0.0 0.0

5.521996959022792e6 2.9767731219114624e7 0.0
2.9767731219114624e7 -9.772007326733226e6 0.0
0.0 0.0 0.0

6.8136360540445745e6 2.133022263389632e7 0.0
2.133022263389632e7 6.42341086887457e7 0.0
0.0 0.0 0.0

1.9246513965807054e6 1.3417449599446156e6 0.0
1.3417449599446156e6 -4.60440280053712e7 0.0
0.0 0.0 0.0

2.3473833587569697e6 4.150709982084395e7 0.0
4.150709982084395e7 -2.997588524826166e6 0.0
0.0 0.0 0.0

8.65896050765387e6 2.5814898279250532e7 0.0
2.5814898279250532e7 6.613445345357069e6 0.0
0.0 0.0 0.0

-8.89616078882398e7 2.59068003142686e7 0.0
2.59068003142686e7 -369442.8790369183 0.0
0.0 0.0 0.0

-7.817094895720828e6 3.2831846955479298e7 0.0
3.2831846955479298e7 9.256887713838626e6 0.0
0.0 0.0 0.0

-7.261521406739969e6 1.3198705764237171e7 0.0
1.3198705764237171e7 1.9487088759002868e7 0.0
0.0 0.0 0.0

-909842.2549049873 2.091749995048843e7 0.0
2.091749995048843e7 -3.2209708708249684e7 0.0
0.0 0.0 0.0

-619150.7615324929 2.4837498155315384e7 0.0
2.4837498155315384e7 2.0237607107701946e7 0.0
0.0 0.0 0.0

-5.463341538436387e6 2.0528114218831e7 0.0
2.0528114218831e7 -4.497983078908352e7 0.0
0.0 0.0 0.0

1.6238112451881394e6 2.673143955332742e6 0.0
2.673143955332742e6 -6.046101531712316e7 0.0
0.0 0.0 0.0

8.028604742047143e7 2.624314950463074e7 0.0
2.624314950463074e7 6.709346656322822e6 0.0
0.0 0.0 0.0

-1.5717402049553263e8 5.78395194071073e7 0.0
5.78395194071073e7 -3.268479305809669e7 0.0
0.0 0.0 0.0

2.0312631356389128e7 2.652271457567308e7 0.0
2.652271457567308e7 1.013073969654899e7 0.0
0.0 0.0 0.0

2.6609374880556846e6 3.06578488016125e7 0.0
3.06578488016125e7 -1.0631570632925924e7 0.0
0.0 0.0 0.0

-2.917103191302146e6 2.7085009460127335e7 0.0
2.7085009460127335e7 1.729974921263043e7 0.0
0.0 0.0 0.0

2.1765795660714414e6 3.198272178514165e6 0.0
3.198272178514165e6 -3.434879827024794e7 0.0
0.0 0.0 0.0

-9.04947447612238e6 3.0456125690976042e7 0.0
3.0456125690976042e7 7.357434045730948e6 0.0
0.0 0.0 0.0

5.419991712427825e6 4.2785146427483164e7 0.0
4.2785146427483164e7 -2.4053172006824776e6 0.0
0.0 0.0 0.0

-5.261899810482145e6 2.21522312790223e7 0.0
2.21522312790223e7 -3.400415649975844e7 0.0
0.0 0.0 0.0

31421.564439874375 3.0901777113265675e7 0.0
3.0901777113265675e7 -6.034450705178516e6 0.0
0.0 0.0 0.0

1.7964446726755453e6 6.027117383527907e6 0.0
6.027117383527907e6 -7.511349789606273e6 0.0
0.0 0.0 0.0

1.6085940407580037e7 2.8749580420502447e7 0.0
2.8749580420502447e7 1.5877198033924561e7 0.0
0.0 0.0 0.0

-1.598630951481434e7 2.8792650576445784e7 0.0
2.8792650576445784e7 -3.5292856085224543e6 0.0
0.0 0.0 0.0

1.505687576661828e6 2.4642301782268044e7 0.0
2.4642301782268044e7 -1.6550155026684238e7 0.0
0.0 0.0 0.0

-1.9920709201617006e6 3.1572368847341835e7 0.0
3.1572368847341835e7 1.5868032036092035e6 0.0
0.0 0.0 0.0

-4436.237842729315 1.7081351635304328e7 0.0
1.7081351635304328e7 -3.571878797285769e7 0.0
0.0 0.0 0.0

-5.184829052692197e6 2.3322538287629513e6 0.0
2.3322538287629513e6 6.840207379433857e7 0.0
0.0 0.0 0.0

693242.1872502463 2.1351834194043685e7 0.0
2.1351834194043685e7 -2.2827669487978816e7 0.0
0.0 0.0 0.0

6.4903538176369835e6 2.590238028101053e7 0.0
2.590238028101053e7 1.2215408981038968e6 0.0
0.0 0.0 0.0

-2.1077024418634884e7 2.4512319757916152e7 0.0
2.4512319757916152e7 -8.445784650933988e7 0.0
0.0 0.0 0.0

2.2722156413727887e6 7.4173721550030755e6 0.0
7.4173721550030755e6 -3.39213557029573e7 0.0
0.0 0.0 0.0

1.127023650682333e6 2.3517015467066173e7 0.0
2.3517015467066173e7 -2.2127044043459024e7 0.0
0.0 0.0 0.0

-5.770397140804056e6 3.180868873070844e7 0.0
3.180868873070844e7 1.0925798364132326e7 0.0
0.0 0.0 0.0

317806.7379035322 3.6756392398492135e7 0.0
3.6756392398492135e7 -2.6289437571465867e6 0.0
0.0 0.0 0.0

-2.6323575739053134e6 2.87572192317217e7 0.0
2.87572192317217e7 1.3387871130137641e7 0.0
0.0 0.0 0.0

9.369539688412974e6 2.667993190388159e7 0.0
2.667993190388159e7 1.189431082513414e7 0.0
0.0 0.0 0.0

-1.1182585553314346e8 3.443846436141992e7 0.0
3.443846436141992e7 -6.142950756825037e6 0.0
0.0 0.0 0.0

-2.6141118479819875e6 126405.35861886574 0.0
126405.35861886574 2.837324584567368e6 0.0
0.0 0.0 0.0

-1.9032082002270645e6 2.2239657715327293e7 0.0
2.2239657715327293e7 -2.454621015432845e6 0.0
0.0 0.0 0.0

1.944089412851321e7 2.6801513708220568e7 0.0
2.6801513708220568e7 6.252795386915079e6 0.0
0.0 0.0 0.0

-603137.6669315547 4.487657251727269e7 0.0
4.487657251727269e7 1.4432449195769653e6 0.0
0.0 0.0 0.0

-4.797826691966215e6 1.8322739136966944e7 0.0
1.8322739136966944e7 -5.523967164373859e7 0.0
0.0 0.0 0.0

-4.381067070360857e6 2.6341515447559085e7 0.0
2.6341515447559085e7 -1.032145139658958e7 0.0
0.0 0.0 0.0

7.058373780825678e6 3.158394034710943e7 0.0
3.158394034710943e7 -8.41733599744454e6 0.0
0.0 0.0 0.0

1.120311633670412e6 1.9356002440927822e7 0.0
1.9356002440927822e7 -1.9510632290850114e7 0.0
0.0 0.0 0.0

6.804759495976394e6 3.050751253324007e7 0.0
3.050751253324007e7 -8.174398041433892e6 0.0
0.0 0.0 0.0

1.4425233770843912e6 2.440095040885619e7 0.0
2.440095040885619e7 1.2618318910564417e7 0.0
0.0 0.0 0.0

1.316461298688712e6 3.632554927839078e7 0.0
3.632554927839078e7 -1.9378938870803495e6 0.0
0.0 0.0 0.0

1.8122089491666704e6 1.1326452527319774e7 0.0
1.1326452527319774e7 -3.2693744269897092e7 0.0
0.0 0.0 0.0

1.4344975173172988e6 2.828638960227802e6 0.0
2.828638960227802e6 -5.2249398052386224e7 0.0
0.0 0.0 0.0

-1.9432478420443046e6 1.8085511971454297e6 0.0
1.8085511971454297e6 471612.93417093705 0.0
0.0 0.0 0.0

-1.0133842589612342e7 1.3455149565661228e6 0.0
1.3455149565661228e6 3.218024226973844e6 0.0
0.0 0.0 0.0

5.494832265431429e6 2.612747260421434e7 0.0
2.612747260421434e7 1.8265892133387808e7 0.0
0.0 0.0 0.0

4.210685951843601e6 2.2457134601045083e7 0.0
2.2457134601045083e7 1.701947383658357e7 0.0
0.0 0.0 0.0

1.2063995308547458e6 2.4075485176241066e7 0.0
2.4075485176241066e7 1.25711340317806e7 0.0
0.0 0.0 0.0

2.0831803005400887e6 5.430663940299952e6 0.0
5.430663940299952e6 -2.1308015230237123e7 0.0
0.0 0.0 0.0

6.379051901169289e6 2.8983400489212092e7 0.0
2.8983400489212092e7 -7.364017646724404e6 0.0
0.0 0.0 0.0

2.047928790748661e6 4.442444426569064e6 0.0
4.442444426569064e6 -9.26578471237969e6 0.0
0.0 0.0 0.0

6.048155367250687e6 3.0601998902295504e7 0.0
3.0601998902295504e7 -9.138573324151319e6 0.0
0.0 0.0 0.0

-4.245307573564939e6 1.947571049423566e7 0.0
1.947571049423566e7 3.829705840857701e7 0.0
0.0 0.0 0.0

3.512125795555163e6 3.491154772987433e7 0.0
3.491154772987433e7 -5.5182809990372555e6 0.0
0.0 0.0 0.0

8.553111545089466e6 4.130661376322671e7 0.0
4.130661376322671e7 -4.0063499564271173e6 0.0
0.0 0.0 0.0

1.565477155000588e6 8.267227821038312e6 0.0
8.267227821038312e6 -3.520990571666785e7 0.0
0.0 0.0 0.0

1.5574338784843683e6 6.539679217294704e6 0.0
6.539679217294704e6 -3.613837447077158e7 0.0
0.0 0.0 0.0

2.346058429608879e7 2.930679400197025e7 0.0
2.930679400197025e7 3.1668243911747327e6 0.0
0.0 0.0 0.0

3.7711950484156115e6 2.3234395001532998e7 0.0
2.3234395001532998e7 3.50042470214652e7 0.0
0.0 0.0 0.0

648528.5033923248 2.2172214646872047e7 0.0
2.2172214646872047e7 -2.121470830580637e7 0.0
0.0 0.0 0.0

-5.885147479611136e6 -1.178228374560765e6 0.0
-1.178228374560765e6 5.378887778753829e7 0.0
0.0 0.0 0.0

-505829.9967146853 4.2668597633713864e7 0.0
4.2668597633713864e7 1.0943642514957523e6 0.0
0.0 0.0 0.0

-6.049494482425872e6 1.8369363391659096e7 0.0
1.8369363391659096e7 3.533457350283333e7 0.0
0.0 0.0 0.0

-8.737346817771286e6 -731814.2167291042 0.0
-731814.2167291042 2.4549040149491478e7 0.0
0.0 0.0 0.0

222382.2962630554 2.1913257043912936e7 0.0
2.1913257043912936e7 -1.229448568796872e7 0.0
0.0 0.0 0.0

1.6483675821839683e6 2.937040738384219e6 0.0
2.937040738384219e6 -5.029600647025117e7 0.0
0.0 0.0 0.0

-6.232638176883451e6 3.7382561474264584e7 0.0
3.7382561474264584e7 6.502095189949646e6 0.0
0.0 0.0 0.0

767098.1115314423 3.0492405530501023e7 0.0
3.0492405530501023e7 -5.476557170369942e6 0.0
0.0 0.0 0.0

-99515.1597435996 1.6416886649096424e7 0.0
1.6416886649096424e7 -3.796263563713911e7 0.0
0.0 0.0 0.0

2.4615306680212896e7 2.61119753987667e7 0.0
2.61119753987667e7 1.0093975590792093e7 0.0
0.0 0.0 0.0

-7.133840728595805e6 3.571213130741604e7 0.0
3.571213130741604e7 7.629754391887007e6 0.0
0.0 0.0 0.0

-6.868355372221008e6 331620.7781951903 0.0
331620.7781951903 5.1348944000290915e7 0.0
0.0 0.0 0.0

-7.260152263649687e6 -1.835979889722893e6 0.0
-1.835979889722893e6 3.9429528625432745e7 0.0
0.0 0.0 0.0

8.587463965670865e6 2.6366669694774218e7 0.0
2.6366669694774218e7 1.9431477087815525e6 0.0
0.0 0.0 0.0

2.9211389429250546e6 3.0382889724710178e7 0.0
3.0382889724710178e7 -1.0226879104490325e7 0.0
0.0 0.0 0.0

3.557020976507395e6 3.1227772895435143e7 0.0
3.1227772895435143e7 -9.687347200044814e6 0.0
0.0 0.0 0.0

-2.5774643138684332e6 8.86714651691613e6 0.0
8.86714651691613e6 7.54402411181029e7 0.0
0.0 0.0 0.0

3.0250694921142748e6 2.321694534535226e6 0.0
2.321694534535226e6 -1.5488939315135185e7 0.0
0.0 0.0 0.0

-1.1902214273152588e7 2.8834698577668753e7 0.0
2.8834698577668753e7 -3.673916064695987e6 0.0
0.0 0.0 0.0

-2.040805188026145e7 2.8905326443747576e7 0.0
2.8905326443747576e7 -1.1859152592948243e7 0.0
0.0 0.0 0.0

-4.187387055572684e7 3.5501885689046755e7 0.0
3.5501885689046755e7 -1.025726841485751e7 0.0
0.0 0.0 0.0

2.6606657668532594e6 4.350051528669606e7 0.0
4.350051528669606e7 -702706.6453828565 0.0
0.0 0.0 0.0

910187.0879037483 2.2277673259136908e7 0.0
2.2277673259136908e7 1.2508472989698355e6 0.0
0.0 0.0 0.0

-6.317668914569609e6 940269.1828048076 0.0
940269.1828048076 5.436569407098684e7 0.0
0.0 0.0 0.0

1.9982410545447562e7 2.8770713041087523e7 0.0
2.8770713041087523e7 2.9089843851628387e6 0.0
0.0 0.0 0.0

848331.4501135955 2.4478836863497622e7 0.0
2.4478836863497622e7 -1.313609411810773e7 0.0
0.0 0.0 0.0

-7.396151186794065e6 1.7232006061315483e6 0.0
1.7232006061315483e6 4.210982220040601e7 0.0
0.0 0.0 0.0

-3.520850150593103e6 2.943590334883717e7 0.0
2.943590334883717e7 1.181514441933655e7 0.0
0.0 0.0 0.0

-4.1209928713371535e6 3.1410404313853107e7 0.0
3.1410404313853107e7 1.036201276397921e7 0.0
0.0 0.0 0.0

-7.87330903808543e6 195780.544603687 0.0
195780.544603687 1.2387975320715267e7 0.0
0.0 0.0 0.0

1.6394545774092283e6 5.4719409399855975e6 0.0
5.4719409399855975e6 -3.776510862308592e7 0.0
0.0 0.0 0.0

-1.450414405427307e6 9.972295479580626e6 0.0
9.972295479580626e6 -6.815221998394065e7 0.0
0.0 0.0 0.0

1.1858233538550198e7 2.850213380589506e7 0.0
2.850213380589506e7 1.655489962174413e7 0.0
0.0 0.0 0.0

2.3145682516365834e6 4.510779473831939e6 0.0
4.510779473831939e6 -1.3561194017046286e7 0.0
0.0 0.0 0.0

3.1469624150798142e7 4.0820059299393356e7 0.0
4.0820059299393356e7 -7.57111721832853e6 0.0
0.0 0.0 0.0

2.484497857257908e6 4.605907356987829e6 0.0
4.605907356987829e6 -3.620587997500608e7 0.0
0.0 0.0 0.0

2.8575742061410425e6 5.22342811103405e6 0.0
5.22342811103405e6 -2.4097894099054046e7 0.0
0.0 0.0 0.0

2.0373619135250058e6 4.896720826544514e6 0.0
4.896720826544514e6 -3.160624969176398e7 0.0
0.0 0.0 0.0

1.45485899478545e6 2.3568573505660146e7 0.0
2.3568573505660146e7 3.64653066676596e6 0.0
0.0 0.0 0.0

2.8737350376015673e6 2.267580634380734e7 0.0
2.267580634380734e7 1.268385035821446e7 0.0
0.0 0.0 0.0

-747032.930168258 1.953890432922085e7 0.0
1.953890432922085e7 -3.414845966410385e7 0.0
0.0 0.0 0.0

3.023457332889666e7 4.204336449936994e7 0.0
4.204336449936994e7 -6.0053523110936005e6 0.0
0.0 0.0 0.0

-7.434554216389019e6 223065.43757101026 0.0
223065.43757101026 4.2012973672533624e7 0.0
0.0 0.0 0.0

-3.656244503904231e6 2.9604224568147846e7 0.0
2.9604224568147846e7 1.3726605365442222e7 0.0
0.0 0.0 0.0

-2.1574677431211723e6 4.2186740986611955e7 0.0
4.2186740986611955e7 382848.8643678463 0.0
0.0 0.0 0.0

2.8432517609991846e6 3.503817982963128e7 0.0
3.503817982963128e7 -4.664841728109818e6 0.0
0.0 0.0 0.0

-7.789890467873273e6 -555513.9641787485 0.0
-555513.9641787485 3.0641986738231324e7 0.0
0.0 0.0 0.0

-9.729297654994905e6 1.721992006845993e6 0.0
1.721992006845993e6 2.239131243567639e7 0.0
0.0 0.0 0.0

5.086172048930179e6 2.349067547193794e7 0.0
2.349067547193794e7 3.387475561040418e7 0.0
0.0 0.0 0.0

-4.534999692896941e6 -2.3980087163346885e6 0.0
-2.3980087163346885e6 7.57285971465351e6 0.0
0.0 0.0 0.0

1.240198757378069e7 3.2135033706454e7 0.0
3.2135033706454e7 -5.417847569893791e6 0.0
0.0 0.0 0.0

2.2717051506019095e6 2.8765641117411334e7 0.0
2.8765641117411334e7 -1.2565753313892208e7 0.0
0.0 0.0 0.0

508234.5104781976 2.3317144186622307e7 0.0
2.3317144186622307e7 -2.366279041885302e7 0.0
0.0 0.0 0.0

-980734.684934659 2.9017149621019404e7 0.0
2.9017149621019404e7 1.432959889143603e6 0.0
0.0 0.0 0.0

-3.293568281495111e6 2.8365372773182794e7 0.0
2.8365372773182794e7 1.2654983965433385e7 0.0
0.0 0.0 0.0

-6.032455855596226e6 1.8707173889991898e7 0.0
1.8707173889991898e7 3.0418643023584303e7 0.0
0.0 0.0 0.0

-2.7672972141598366e7 5.394749992648546e7 0.0
5.394749992648546e7 7.482861499815125e6 0.0
0.0 0.0 0.0

2.5792759084043624e6 4.429216640519864e6 0.0
4.429216640519864e6 -1.3897321171534522e7 0.0
0.0 0.0 0.0

1.363301308031286e6 2.2707506925319377e7 0.0
2.2707506925319377e7 -1.9231876726066183e7 0.0
0.0 0.0 0.0

786292.4952436723 4.369389004456912e6 0.0
4.369389004456912e6 -7.349769591548543e7 0.0
0.0 0.0 0.0

6.758464866416367e6 3.1237948031234242e7 0.0
3.1237948031234242e7 -8.993380908465225e6 0.0
0.0 0.0 0.0

-5.695754710398845e6 1.619279934790178e7 0.0
1.619279934790178e7 1.817072454889399e7 0.0
0.0 0.0 0.0

-1.2482349218059331e7 1.9822113422374807e7 0.0
1.9822113422374807e7 -4.814059696426583e7 0.0
0.0 0.0 0.0

4.718553993828929e7 2.7868544682711665e7 0.0
2.7868544682711665e7 1.0076637354875429e7 0.0
0.0 0.0 0.0

-9.627230687805165e6 5.393852878878936e6 0.0
5.393852878878936e6 2.4082209103421602e7 0.0
0.0 0.0 0.0

1.5600017209372338e7 2.6523390919751015e7 0.0
2.6523390919751015e7 1.1693927005484823e7 0.0
0.0 0.0 0.0

9.361003995831424e6 2.0000666035505723e7 0.0
2.0000666035505723e7 3.467340837532911e7 0.0
0.0 0.0 0.0

-9.94683670514984e6 1.965002306269938e7 0.0
1.965002306269938e7 -3.235613222285542e7 0.0
0.0 0.0 0.0

7.090750696585705e6 4.609631276256252e7 0.0
4.609631276256252e7 -4.565586762875799e6 0.0
0.0 0.0 0.0

940292.3878022409 3.0704357667154692e7 0.0
3.0704357667154692e7 -8.676433901318736e6 0.0
0.0 0.0 0.0

-3.6191837386999726e6 2.1801417283369828e7 0.0
2.1801417283369828e7 2.3457437210070677e7 0.0
0.0 0.0 0.0

-2.4882332135870643e6 9.97908013198802e6 0.0
9.97908013198802e6 -9.619793407170185e7 0.0
0.0 0.0 0.0

-1.026024959288882e7 3.0224429589312477e6 0.0
3.0224429589312477e6 2.0975974195932984e7 0.0
0.0 0.0 0.0

-2.1282206429941645e6 2.395192607906735e7 0.0
2.395192607906735e7 -1.090207987724235e7 0.0
0.0 0.0 0.0

1.5130031815074405e7 2.773446130146162e7 0.0
2.773446130146162e7 1.5129214915122593e7 0.0
0.0 0.0 0.0

5.558887259131157e6 1.5956835744664092e7 0.0
1.5956835744664092e7 7.811128810036859e6 0.0
0.0 0.0 0.0

-3.1502283181860326e6 2.7129075694301188e7 0.0
2.7129075694301188e7 1.8175869030917335e7 0.0
0.0 0.0 0.0

-3.3297857227879185e6 3.42209284611305e7 0.0
3.42209284611305e7 6.519828695743235e6 0.0
0.0 0.0 0.0

-2.39567524116252e7 5.4986294777651995e7 0.0
5.4986294777651995e7 8.97540608552019e6 0.0
0.0 0.0 0.0

698240.4660254712 9.290560498509323e6 0.0
9.290560498509323e6 -7.107711092484286e6 0.0
0.0 0.0 0.0

-3.897196758896061e6 3.382038547440731e7 0.0
3.382038547440731e7 5.93439268662025e6 0.0
0.0 0.0 0.0

830021.1068909694 2.9204636125392064e7 0.0
2.9204636125392064e7 -8.467161831677604e6 0.0
0.0 0.0 0.0

2.1881273808258027e7 2.8013699701513585e7 0.0
2.8013699701513585e7 1.4227668098899268e7 0.0
0.0 0.0 0.0

1.6985664015532658e6 3.358674799244147e7 0.0
3.358674799244147e7 -6.614889744887044e6 0.0
0.0 0.0 0.0

1.9704146570909973e6 4.56653593690882e6 0.0
4.56653593690882e6 -1.052366402599249e7 0.0
0.0 0.0 0.0

1.0941498411158202e6 2.4951872308700252e7 0.0
2.4951872308700252e7 -1.7076112502270956e7 0.0
0.0 0.0 0.0

-9.045435551590117e6 4.877201611509091e6 0.0
4.877201611509091e6 3.2117300148370944e7 0.0
0.0 0.0 0.0

2.393799447546484e6 6.425353440264309e6 0.0
6.425353440264309e6 -3.5340552077809446e7 0.0
0.0 0.0 0.0

739999.7006979026 5.412431499232223e6 0.0
5.412431499232223e6 -7.965829440716082e7 0.0
0.0 0.0 0.0

5.199235351490157e6 2.7429538459350705e7 0.0
2.7429538459350705e7 1.6237678989663767e7 0.0
0.0 0.0 0.0

1.251773431144774e6 2.47863851785351e7 0.0
2.47863851785351e7 -2.0309301710861895e7 0.0
0.0 0.0 0.0

-4.1847437262556776e6 2.2194376326921232e7 0.0
2.2194376326921232e7 2.102954933962595e7 0.0
0.0 0.0 0.0

2.643689706465259e6 1.7239710143540748e6 0.0
1.7239710143540748e6 -3.022977945555197e7 0.0
0.0 0.0 0.0

1.2831838473255541e6 1.9622085834210455e7 0.0
1.9622085834210455e7 -2.566763483974512e7 0.0
0.0 0.0 0.0

-183555.33467197698 2.237956747057279e7 0.0
2.237956747057279e7 -2.5253900622203603e7 0.0
0.0 0.0 0.0

-3.7847931212159945e6 2.342690174323377e7 0.0
2.342690174323377e7 1.99332197793045e7 0.0
0.0 0.0 0.0

2.900919648159531e6 1.0711810849821301e7 0.0
1.0711810849821301e7 4.4977498999131555e6 0.0
0.0 0.0 0.0

-8.135522614321442e6 1.1462465942497735e6 0.0
1.1462465942497735e6 3.4737540013394766e7 0.0
0.0 0.0 0.0

598272.985320338 2.3732424898709163e7 0.0
2.3732424898709163e7 -2.1438602037481125e7 0.0
0.0 0.0 0.0

-5.8789105194003275e6 1.4840209743604368e7 0.0
1.4840209743604368e7 1.914112273100724e7 0.0
0.0 0.0 0.0

2.01383847826785e7 2.5309123090266846e7 0.0
2.5309123090266846e7 1.2657268790328264e7 0.0
0.0 0.0 0.0

2.52446139666949e6 2.965657028546625e7 0.0
2.965657028546625e7 -1.1730017140432093e7 0.0
0.0 0.0 0.0

2.2101527927630316e6 4.572887021410879e6 0.0
4.572887021410879e6 -8.855701552017093e6 0.0
0.0 0.0 0.0

-5.723272085807916e6 8.386762468742707e6 0.0
8.386762468742707e6 5.496575315709389e7 0.0
0.0 0.0 0.0

-2.1274715081428695e6 3.7931587976535246e7 0.0
3.7931587976535246e7 1.039947540578902e6 0.0
0.0 0.0 0.0

-1.252313851351587e7 3.909228408193191e7 0.0
3.909228408193191e7 6.188430036792e6 0.0
0.0 0.0 0.0

-1.1072629115749422e7 6.827146353081211e6 0.0
6.827146353081211e6 2.103142525218796e7 0.0
0.0 0.0 0.0

-7.516934550017685e6 3.6208424699523593e6 0.0
3.6208424699523593e6 4.411326021380613e7 0.0
0.0 0.0 0.0

-562144.4954387434 1.723153492510631e7 0.0
1.723153492510631e7 -3.8333780368168995e7 0.0
0.0 0.0 0.0

-2.8173338057992673e6 2.407965826574937e7 0.0
2.407965826574937e7 2.0627974311945204e7 0.0
0.0 0.0 0.0

-5.671396793753188e6 9.728845785718951e6 0.0
9.728845785718951e6 5.570506811322312e7 0.0
0.0 0.0 0.0

-8.579156592810373e7 2.6802923569310687e7 0.0
2.6802923569310687e7 1.0369887981976643e6 0.0
0.0 0.0 0.0

695252.74514056 1.6063941958144952e7 0.0
1.6063941958144952e7 -2.2789825548222594e7 0.0
0.0 0.0 0.0

1.2515260410721153e6 2.3588271707450476e7 0.0
2.3588271707450476e7 543681.7168610819 0.0
0.0 0.0 0.0

1.7703048232547324e6 1.2847538097160705e6 0.0
1.2847538097160705e6 -4.924296633621848e7 0.0
0.0 0.0 0.0

7.814288078489296e6 2.316547607265626e7 0.0
2.316547607265626e7 1.8604982260254394e7 0.0
0.0 0.0 0.0

-6.843937470986851e6 1.0089327007697614e7 0.0
1.0089327007697614e7 5.1828898395619646e7 0.0
0.0 0.0 0.0

645382.3080968591 7.679258093290615e6 0.0
7.679258093290615e6 -9.658822555447513e6 0.0
0.0 0.0 0.0

928917.4298773459 2.9259310694284365e7 0.0
2.9259310694284365e7 -8.481375232226903e6 0.0
0.0 0.0 0.0

-1.819502248915641e6 3.3195760965777453e7 0.0
3.3195760965777453e7 775350.5841853671 0.0
0.0 0.0 0.0

-2.2639932846695464e6 2.719515171701037e7 0.0
2.719515171701037e7 1.2772159391993223e7 0.0
0.0 0.0 0.0

-8.760765459660038e6 3.832519615343575e7 0.0
3.832519615343575e7 6.13855877811986e6 0.0
0.0 0.0 0.0

-1.966148184032395e6 2.644971671252797e7 0.0
2.644971671252797e7 1.4423636761945689e6 0.0
0.0 0.0 0.0

-5.751162205442037e6 1.692629345690665e6 0.0
1.692629345690665e6 6.134215447142689e7 0.0
0.0 0.0 0.0

5.634614786772981e6 2.3022958456688426e7 0.0
2.3022958456688426e7 3.114838676702487e7 0.0
0.0 0.0 0.0

1.3912009665697804e6 2.2324324259343315e7 0.0
2.2324324259343315e7 -2.131279685162326e7 0.0
0.0 0.0 0.0

-2.499542662381781e7 3.295842531475897e7 0.0
3.295842531475897e7 -1.2015652375734122e7 0.0
0.0 0.0 0.0

-8.631083195717826e6 -543169.6021157561 0.0
-543169.6021157561 1.700432109565494e7 0.0
0.0 0.0 0.0

-1.473209903756367e6 4.115435741883809e7 0.0
4.115435741883809e7 2.0721467611342901e6 0.0
0.0 0.0 0.0

399077.0535413327 2.256868266431175e7 0.0
2.256868266431175e7 -2.2553591338063963e6 0.0
0.0 0.0 0.0

-4.137269287538374e6 2.056504760333757e7 0.0
2.056504760333757e7 3.59334789678307e7 0.0
0.0 0.0 0.0

1.8393643385486882e6 1.4019192847998118e7 0.0
1.4019192847998118e7 -3.086879933020821e7 0.0
0.0 0.0 0.0

-5.225869214574598e6 1.997276270256808e7 0.0
1.997276270256808e7 3.170344969452003e7 0.0
0.0 0.0 0.0

1.6154315553481071e6 4.725202963670471e6 0.0
4.725202963670471e6 -8.518774724571371e6 0.0
0.0 0.0 0.0

2.2439802764757667e6 8.210207180674807e6 0.0
8.210207180674807e6 -3.472328173811001e7 0.0
0.0 0.0 0.0

-4.275450133729418e6 2.6234088845055357e7 0.0
2.6234088845055357e7 -1.224069466333647e7 0.0
0.0 0.0 0.0

-1.509375767355508e6 2.823444360151327e7 0.0
2.823444360151327e7 3.7750187340933257e6 0.0
0.0 0.0 0.0

-1.2617318892073804e6 3.3218049234614037e7 0.0
3.3218049234614037e7 2.6426968382063536e6 0.0
0.0 0.0 0.0

7.173044162733462e6 3.030437198338543e7 0.0
3.030437198338543e7 -8.659760726774894e6 0.0
0.0 0.0 0.0

2.6021213539300393e6 5.365292788155596e6 0.0
5.365292788155596e6 -3.15079719970371e7 0.0
0.0 0.0 0.0

997587.5488318161 4.688167412431161e6 0.0
4.688167412431161e6 -4.999949386301283e6 0.0
0.0 0.0 0.0

1.3508786409985851e6 7.212972791482547e6 0.0
7.212972791482547e6 -3.70163298984481e7 0.0
0.0 0.0 0.0

1.6527868940856466e6 7.6179401108095385e6 0.0
7.6179401108095385e6 -1.004628968166139e7 0.0
0.0 0.0 0.0

2.696036462188342e7 2.5607436968982372e7 0.0
2.5607436968982372e7 1.1305476253519017e7 0.0
0.0 0.0 0.0

-3.5119488707625475e6 4.6175446060600646e7 0.0
4.6175446060600646e7 2.9576500608611666e6 0.0
0.0 0.0 0.0

-6.5878652638417445e6 407891.9440120501 0.0
407891.9440120501 4.918355804324596e7 0.0
0.0 0.0 0.0

141554.29700572044 9.903999235456271e6 0.0
9.903999235456271e6 -6.2789610923195176e7 0.0
0.0 0.0 0.0

6.009241728310248e6 3.1376281816051625e7 0.0
3.1376281816051625e7 -9.206473870752562e6 0.0
0.0 0.0 0.0

-3.240690437426028e6 2.6134292019018248e7 0.0
2.6134292019018248e7 -1.3920790404675867e7 0.0
0.0 0.0 0.0

727855.967859216 8.677341294896929e6 0.0
8.677341294896929e6 -4.677581231568897e7 0.0
0.0 0.0 0.0

-9.608104682722025e6 4.530315653960821e7 0.0
4.530315653960821e7 5.69886893214004e6 0.0
0.0 0.0 0.0

1.2221247535641722e7 2.80255366944145e7 0.0
2.80255366944145e7 1.461803851872527e7 0.0
0.0 0.0 0.0

-5.193923896650063e7 5.070826920758184e7 0.0
5.070826920758184e7 6.94442813506018e6 0.0
0.0 0.0 0.0

-135861.00040409155 2.3462669822958317e7 0.0
2.3462669822958317e7 2.8858389325245094e7 0.0
0.0 0.0 0.0

1.4962433519713618e6 1.265013891288867e7 0.0
1.265013891288867e7 -3.1860760419079974e7 0.0
0.0 0.0 0.0

1.0612298946163425e8 3.3447057100769375e7 0.0
3.3447057100769375e7 1.4680974970981605e7 0.0
0.0 0.0 0.0

8.744727680444822e6 2.497330864906261e7 0.0
2.497330864906261e7 2.1281482721479386e7 0.0
0.0 0.0 0.0

-9.205674884358961e6 6.100104636410716e6 0.0
6.100104636410716e6 3.3181875623502724e7 0.0
0.0 0.0 0.0

3.267959696737895e6 2.33413085123243e7 0.0
2.33413085123243e7 1.332049173219382e7 0.0
0.0 0.0 0.0

-4.514530359544767e6 2.1435548828637954e7 0.0
2.1435548828637954e7 -3.290941505576182e7 0.0
0.0 0.0 0.0

1.427197956798876e7 3.164659250599748e7 0.0
3.164659250599748e7 -4.279712237564099e6 0.0
0.0 0.0 0.0

-2.2896438065307364e6 2.7865786327796992e7 0.0
2.7865786327796992e7 1.0368101380186938e7 0.0
0.0 0.0 0.0

-6.982804767299049e6 8.447992162820486e6 0.0
8.447992162820486e6 5.067287698075153e7 0.0
0.0 0.0 0.0

-8.752577209819572e6 4.648718162996771e7 0.0
4.648718162996771e7 4.21630697262232e6 0.0
0.0 0.0 0.0

-9.851541686522912e6 2.931111528994247e7 0.0
2.931111528994247e7 5.396247628050495e6 0.0
0.0 0.0 0.0

-2.096916189692893e6 3.2695656939414512e7 0.0
3.2695656939414512e7 1.7827751681932132e6 0.0
0.0 0.0 0.0

6.181407176395522e6 3.837955939841218e7 0.0
3.837955939841218e7 -4.921403896206485e6 0.0
0.0 0.0 0.0

-2.0686049414634346e6 3.702808868165962e7 0.0
3.702808868165962e7 990921.3197710103 0.0
0.0 0.0 0.0

196795.0979984263 2.3931791898815222e7 0.0
2.3931791898815222e7 330641.8577264587 0.0
0.0 0.0 0.0

1.5640079907020032e6 2.46347735141415e7 0.0
2.46347735141415e7 2.5159371036167607e7 0.0
0.0 0.0 0.0

3.8883588688351884e6 2.6452086805003114e7 0.0
2.6452086805003114e7 1.521383063685268e6 0.0
0.0 0.0 0.0

-1.241366737000715e7 2.1194529884844154e7 0.0
2.1194529884844154e7 -5.879585801608454e7 0.0
0.0 0.0 0.0

165311.39508032077 2.3846301599341564e7 0.0
2.3846301599341564e7 3.132881254636588e6 0.0
0.0 0.0 0.0

-1.9534976483981782e6 2.8229288141604133e7 0.0
2.8229288141604133e7 2.0416965136339876e6 0.0
0.0 0.0 0.0

8.258614603753269e6 1.888847803234486e7 0.0
1.888847803234486e7 1.6479483729814967e7 0.0
0.0 0.0 0.0

1.9793103376358645e6 2.6910571700193908e7 0.0
2.6910571700193908e7 -1.4772321182985503e7 0.0
0.0 0.0 0.0

630055.3159369025 1.9088705169862177e7 0.0
1.9088705169862177e7 -2.73002654416652e7 0.0
0.0 0.0 0.0

2.509378291516276e6 4.563770189647531e6 0.0
4.563770189647531e6 -3.3052207550217886e7 0.0
0.0 0.0 0.0

7.280475246647798e6 2.448960859296814e7 0.0
2.448960859296814e7 1.6695850958580198e7 0.0
0.0 0.0 0.0

-1.0444341931209145e6 2.6223806019013714e7 0.0
2.6223806019013714e7 1.6399187057092886e7 0.0
0.0 0.0 0.0

-4.927331475920716e6 2.036423476806424e7 0.0
2.036423476806424e7 3.183862121769469e7 0.0
0.0 0.0 0.0

-1.9515094549109484e6 2.6845796545172602e7 0.0
2.6845796545172602e7 1.1792424099263811e7 0.0
0.0 0.0 0.0

-6.081341738049567e6 2.6477641329782058e7 0.0
2.6477641329782058e7 -1.2634009646707198e7 0.0
0.0 0.0 0.0

-5.235322335534297e6 2.073588755546271e7 0.0
2.073588755546271e7 2.9847881782483257e7 0.0
0.0 0.0 0.0

-4.995061026780205e6 1.9964586153848466e7 0.0
1.9964586153848466e7 3.573606562754639e7 0.0
0.0 0.0 0.0

-6.565824168741357e6 1.8900278452050794e7 0.0
1.8900278452050794e7 2.8094631846966203e7 0.0
0.0 0.0 0.0

-7.974848180269325e6 -265320.37077087176 0.0
-265320.37077087176 3.443584963647369e7 0.0
0.0 0.0 0.0

-2.845430947755602e6 2.9795841311267372e7 0.0
2.9795841311267372e7 1.2042309248104353e7 0.0
0.0 0.0 0.0

-5.855766728184704e6 2.0046639429300066e7 0.0
2.0046639429300066e7 -4.9219156717358865e7 0.0
0.0 0.0 0.0

-1.24131274127418e6 1.9425324865862306e7 0.0
1.9425324865862306e7 -3.4030648630021736e7 0.0
0.0 0.0 0.0

-4.186594341973705e7 3.846791214997377e7 0.0
3.846791214997377e7 -1.6309081086163387e7 0.0
0.0 0.0 0.0

-4.8228251359298825e6 6.975741445138602e6 0.0
6.975741445138602e6 6.245251237543478e7 0.0
0.0 0.0 0.0

-433065.2812623307 2.0216930984199136e7 0.0
2.0216930984199136e7 -3.176833396054574e7 0.0
0.0 0.0 0.0

-170646.06065566913 3.8306745477947235e7 0.0
3.8306745477947235e7 -1.50692407143751e6 0.0
0.0 0.0 0.0

5.166940093392715e6 2.2953311947196674e7 0.0
2.2953311947196674e7 2.399304440324193e7 0.0
0.0 0.0 0.0

-7.7658093526166435e6 -2.5640589687922276e6 0.0
-2.5640589687922276e6 2.9812967651070092e7 0.0
0.0 0.0 0.0

-435582.03673126653 2.3613637273621745e7 0.0
2.3613637273621745e7 -2.6791894411335094e6 0.0
0.0 0.0 0.0

-249232.98651549174 2.6135937495488603e7 0.0
2.6135937495488603e7 -1.0953835794762857e7 0.0
0.0 0.0 0.0

-1.0758417972506063e7 1.1008581386700384e7 0.0
1.1008581386700384e7 2.2582576224712107e7 0.0
0.0 0.0 0.0

1.2403369985020347e6 1.1419076671019117e6 0.0
1.1419076671019117e6 -6.2817645786312744e7 0.0
0.0 0.0 0.0

-400535.50726767676 1.2455197905562555e7 0.0
1.2455197905562555e7 -1.0998299324543409e7 0.0
0.0 0.0 0.0

-8.742189149774617e6 4.906445167953283e6 0.0
4.906445167953283e6 4.0812657145666026e7 0.0
0.0 0.0 0.0

2.9385964229646036e6 2.760765513513191e7 0.0
2.760765513513191e7 -1.4242670522541823e7 0.0
0.0 0.0 0.0

9.75230184864875e6 2.1927713679113247e7 0.0
2.1927713679113247e7 4.542960415774731e7 0.0
0.0 0.0 0.0

-348859.3411011433 1.196300068652881e7 0.0
1.196300068652881e7 -5.13254121152057e6 0.0
0.0 0.0 0.0

1.2818724477524376e7 2.8076879360361278e7 0.0
2.8076879360361278e7 1.6632498503051624e7 0.0
0.0 0.0 0.0

-4.4940080127124395e6 4.736634994117574e7 0.0
4.736634994117574e7 3.2617787499758787e6 0.0
0.0 0.0 0.0

-1.0105324632690512e7 6.446475732001564e6 0.0
6.446475732001564e6 2.9781412284435965e7 0.0
0.0 0.0 0.0

2.528116902305563e6 2.345818574818043e7 0.0
2.345818574818043e7 2.8524608198802724e7 0.0
0.0 0.0 0.0

858590.0165324137 1.303763931284338e7 0.0
1.303763931284338e7 -3.2462089273965515e7 0.0
0.0 0.0 0.0

-2.795977678245464e7 3.383526271124734e7 0.0
3.383526271124734e7 592779.7832409646 0.0
0.0 0.0 0.0

-8.803673582547396e6 -675367.1718753637 0.0
-675367.1718753637 2.0984769889106415e7 0.0
0.0 0.0 0.0

-1.6727040421446195e7 2.833583876937079e7 0.0
2.833583876937079e7 -1.142179718065093e7 0.0
0.0 0.0 0.0

4.7722971287981264e7 2.975731429401247e7 0.0
2.975731429401247e7 1.1017190860051792e7 0.0
0.0 0.0 0.0

263777.45423619915 2.9437987065493923e7 0.0
2.9437987065493923e7 -8.395123295828678e6 0.0
0.0 0.0 0.0

1.6345150017904062e6 1.341715174263436e7 0.0
1.341715174263436e7 -3.000810007248115e7 0.0
0.0 0.0 0.0

-4.3966043491277e6 2.99640374561051e7 0.0
2.99640374561051e7 1.317922651387304e7 0.0
0.0 0.0 0.0

-4.904476736942716e6 2.218890439451218e6 0.0
2.218890439451218e6 6.954448556835276e7 0.0
0.0 0.0 0.0

-6.236057355836066e6 2.6169971483494442e7 0.0
2.6169971483494442e7 -1.808314154097174e7 0.0
0.0 0.0 0.0

-1.6224461995881943e6 4.213272540161112e7 0.0
4.213272540161112e7 2.160808395758555e6 0.0
0.0 0.0 0.0

-3.85026975857302e6 1.8096755864228394e7 0.0
1.8096755864228394e7 -4.7926873916935414e7 0.0
0.0 0.0 0.0

87749.95376672316 2.3597796817379173e7 0.0
2.3597796817379173e7 -2.3525190573645234e7 0.0
0.0 0.0 0.0

-64828.89871146064 2.2665143734005786e7 0.0
2.2665143734005786e7 -2.5601032128379982e7 0.0
0.0 0.0 0.0

-4.945024736259485e6 1.6557312373610795e7 0.0
1.6557312373610795e7 4.485303276461731e7 0.0
0.0 0.0 0.0

-2.569328185205583e6 2.8353630847017843e7 0.0
2.8353630847017843e7 1.0821912691728886e7 0.0
0.0 0.0 0.0

-4.500141532628588e6 1.4430393543079639e7 0.0
1.4430393543079639e7 1.246796461540185e8 0.0
0.0 0.0 0.0

3.0483047626484334e6 1.4650850566555304e7 0.0
1.4650850566555304e7 -1.253009605350309e8 0.0
0.0 0.0 0.0

-2.378779767955415e7 3.320413541458441e7 0.0
3.320413541458441e7 -1.5907751090641351e7 0.0
0.0 0.0 0.0

-1.4852829108143551e6 2.5163696237471174e7 0.0
2.5163696237471174e7 1.7683562851243086e7 0.0
0.0 0.0 0.0

-3.430145629817225e7 3.4488445895567715e7 0.0
3.4488445895567715e7 -6.0888796871842565e6 0.0
0.0 0.0 0.0

-8.558542356196404e6 -679480.0069249236 0.0
-679480.0069249236 2.456765719087028e7 0.0
0.0 0.0 0.0

-4.867271500413444e6 2.19034256543832e7 0.0
2.19034256543832e7 2.6233136184926424e7 0.0
0.0 0.0 0.0

-1.8690874969362777e7 3.0087817598600157e7 0.0
3.0087817598600157e7 -9.170904785134396e6 0.0
0.0 0.0 0.0

-7.660776205174001e6 6.199236858619791e6 0.0
6.199236858619791e6 4.320086671229199e7 0.0
0.0 0.0 0.0

4.471251119701977e7 2.677268230067959e7 0.0
2.677268230067959e7 9.995077049256144e6 0.0
0.0 0.0 0.0

3.2354219125178037e6 2.2903302477403566e7 0.0
2.2903302477403566e7 3.453321815038408e7 0.0
0.0 0.0 0.0

-2.6958818424736653e6 2.3735476078442313e7 0.0
2.3735476078442313e7 2.0366510089302957e7 0.0
0.0 0.0 0.0

-3.359190159731357e7 4.94883288646914e7 0.0
4.94883288646914e7 1.0323801634684412e7 0.0
0.0 0.0 0.0

7.192753166245025e6 2.7023473400356025e7 0.0
2.7023473400356025e7 7.824166662347941e6 0.0
0.0 0.0 0.0

5.228854570512261e6 2.5767221660088643e7 0.0
2.5767221660088643e7 -517234.361905155 0.0
0.0 0.0 0.0

-5.7130910087509835e6 3.183528849057847e7 0.0
3.183528849057847e7 1.096971625747684e7 0.0
0.0 0.0 0.0

-1.0878860772481395e7 2.804480287752225e7 0.0
2.804480287752225e7 -1.0618994495342243e6 0.0
0.0 0.0 0.0

-1.470300212961345e6 2.3923201820977602e7 0.0
2.3923201820977602e7 -2.7826147602061005e6 0.0
0.0 0.0 0.0

5.134146391564401e6 2.685901414161303e7 0.0
2.685901414161303e7 -2.849740775544739e6 0.0
0.0 0.0 0.0

6.39160144070539e6 2.6640336376582503e7 0.0
2.6640336376582503e7 1.70759021827592e7 0.0
0.0 0.0 0.0

8.320501083402396e6 4.410517901034015e7 0.0
4.410517901034015e7 -3.0920434768156023e6 0.0
0.0 0.0 0.0

-3.475376345022586e6 2.939562909478738e7 0.0
2.939562909478738e7 1.2862605606550837e7 0.0
0.0 0.0 0.0

-7.09185386873613e6 4.675863139085757e7 0.0
4.675863139085757e7 2.279696725696668e6 0.0
0.0 0.0 0.0

-1.0587552744260885e7 2.0293712863217928e7 0.0
2.0293712863217928e7 -6.4403900728860356e7 0.0
0.0 0.0 0.0

-2.174780969368358e7 2.3671660221045207e7 0.0
2.3671660221045207e7 -1.1761679429859866e8 0.0
0.0 0.0 0.0

2.1086292139416084e7 2.4627503443427257e7 0.0
2.4627503443427257e7 1.1623081225933784e8 0.0
0.0 0.0 0.0

1.0067312371509876e7 2.2457064684328172e7 0.0
2.2457064684328172e7 4.3364612079470724e7 0.0
0.0 0.0 0.0

-794927.0690506846 1.1972662282371756e7 0.0
1.1972662282371756e7 -5.3991519771924555e7 0.0
0.0 0.0 0.0

4.965729696213022e6 4.3478337676450744e7 0.0
4.3478337676450744e7 -3.930014203323149e6 0.0
0.0 0.0 0.0

2.8621763346122345e6 2.945176939705373e7 0.0
2.945176939705373e7 -1.140475917570207e7 0.0
0.0 0.0 0.0

-1.6337436168562293e6 2.4830637367848594e7 0.0
2.4830637367848594e7 -9.342204290128121e6 0.0
0.0 0.0 0.0

2.9983689604989216e6 2.821840551037327e7 0.0
2.821840551037327e7 -1.3283606003807582e7 0.0
0.0 0.0 0.0

-4.2876546714643754e7 5.382587336111113e7 0.0
5.382587336111113e7 1.1809282763848476e7 0.0
0.0 0.0 0.0

-3.401538086530598e6 4.162585876858828e7 0.0
4.162585876858828e7 1.3945724685548088e6 0.0
0.0 0.0 0.0

-8.249074146489719e6 3.2680406285034135e7 0.0
3.2680406285034135e7 9.027554392529655e6 0.0
0.0 0.0 0.0

898363.3978292122 3.3282109383614874e6 0.0
3.3282109383614874e6 -6.6794492605489105e7 0.0
0.0 0.0 0.0

1.5491114416262623e7 3.2734445717952337e7 0.0
3.2734445717952337e7 -4.772559126635371e6 0.0
0.0 0.0 0.0

-3.5729897908099648e6 1.8810222376775894e7 0.0
1.8810222376775894e7 -4.4565096586623624e7 0.0
0.0 0.0 0.0

1.3821773152312879e7 3.3431621838062044e7 0.0
3.3431621838062044e7 -5.529468686333769e6 0.0
0.0 0.0 0.0

-722433.2557599129 2.2979188172504667e7 0.0
2.2979188172504667e7 -1.4738152349764348e6 0.0
0.0 0.0 0.0

3.5498433542979797e6 2.4287150138098508e7 0.0
2.4287150138098508e7 2.9582865335157465e7 0.0
0.0 0.0 0.0

-6.641363902292168e6 3.588454345443761e7 0.0
3.588454345443761e7 6.834830243983392e6 0.0
0.0 0.0 0.0

-7.677165591034556e6 447808.75487354223 0.0
447808.75487354223 4.111817823368599e7 0.0
0.0 0.0 0.0

2.426766114007244e7 2.681147903180339e7 0.0
2.681147903180339e7 6.083769977504002e6 0.0
0.0 0.0 0.0

-9.67363906291425e7 3.598571056386308e7 0.0
3.598571056386308e7 -3.393329449787274e6 0.0
0.0 0.0 0.0

-5.716399980864631e6 1.6941741134310458e7 0.0
1.6941741134310458e7 4.200298403287013e7 0.0
0.0 0.0 0.0

-7.815736861682918e6 2.9235983034102086e7 0.0
2.9235983034102086e7 5.977256143998362e6 0.0
0.0 0.0 0.0

6.570773929750802e6 2.709311544345988e7 0.0
2.709311544345988e7 886095.4042534772 0.0
0.0 0.0 0.0

2.191394158816343e6 2.9697452634763005e6 0.0
2.9697452634763005e6 -4.3111143082848445e7 0.0
0.0 0.0 0.0

-2.3905311926217433e6 2.609916818281254e7 0.0
2.609916818281254e7 1.3693030554785764e7 0.0
0.0 0.0 0.0

-5.661267418988399e6 1.5709436869919482e6 0.0
1.5709436869919482e6 6.210469969530371e7 0.0
0.0 0.0 0.0

-2.246199344943682e7 2.878453702829907e7 0.0
2.878453702829907e7 -1.2509429939098835e8 0.0
0.0 0.0 0.0

2.1142978684888385e7 2.9736805368332677e7 0.0
2.9736805368332677e7 1.2116241687786666e8 0.0
0.0 0.0 0.0

-573643.9405921567 1.636242288695829e7 0.0
1.636242288695829e7 -4.001620839869885e7 0.0
0.0 0.0 0.0

142659.94558446622 4.97803525651649e6 0.0
4.97803525651649e6 -5.159715258874146e6 0.0
0.0 0.0 0.0

1.7855385503059797e7 2.3184053248456135e7 0.0
2.3184053248456135e7 7.34143935998141e6 0.0
0.0 0.0 0.0

-5.111532051742628e6 2.9741215137927565e6 0.0
2.9741215137927565e6 7.007115285011351e7 0.0
0.0 0.0 0.0

492558.75881019 9.612592456651768e6 0.0
9.612592456651768e6 -8.831131976556867e6 0.0
0.0 0.0 0.0

1.032906855124152e7 4.169417647608532e7 0.0
4.169417647608532e7 -4.978285827992416e6 0.0
0.0 0.0 0.0

861228.4265222698 2.4132806225969423e7 0.0
2.4132806225969423e7 -1.8305657594319444e7 0.0
0.0 0.0 0.0

7.329983547906228e6 2.2942879318058956e7 0.0
2.2942879318058956e7 3.050562428111732e7 0.0
0.0 0.0 0.0

-8.63456743341721e6 2.8907604902575567e7 0.0
2.8907604902575567e7 197426.8783136108 0.0
0.0 0.0 0.0

-4.056762393877923e7 3.1887095763125468e7 0.0
3.1887095763125468e7 -1.0246587451590732e7 0.0
0.0 0.0 0.0

-4.0676152712417054e6 4.0847615200248756e7 0.0
4.0847615200248756e7 2.2490347658591317e6 0.0
0.0 0.0 0.0

2.4958728385538775e6 2.4093339034728248e7 0.0
2.4093339034728248e7 1.6185023602899592e7 0.0
0.0 0.0 0.0

106308.96994198393 2.5338015066744875e7 0.0
2.5338015066744875e7 2.0778917681928124e7 0.0
0.0 0.0 0.0

1.0553185674180556e6 2.027499786463148e7 0.0
2.027499786463148e7 -2.6218086769164022e7 0.0
0.0 0.0 0.0

3.093193848849371e6 2.730755211392808e7 0.0
2.730755211392808e7 -1.3977255083436346e7 0.0
0.0 0.0 0.0

-5.520198205367431e6 4.799644935486201e6 0.0
4.799644935486201e6 6.766324608180958e7 0.0
0.0 0.0 0.0

-3.648152303428166e7 5.470896923633542e7 0.0
5.470896923633542e7 8.759959778081171e6 0.0
0.0 0.0 0.0

-1.7263728978170328e7 4.1773640221754104e7 0.0
4.1773640221754104e7 6.2633995786856385e6 0.0
0.0 0.0 0.0

-4.097458711033334e7 3.5608210464580595e7 0.0
3.5608210464580595e7 -6.838803931562925e6 0.0
0.0 0.0 0.0

408672.72939487384 2.4708370950735427e7 0.0
2.4708370950735427e7 5.553600223411421e6 0.0
0.0 0.0 0.0

-1.2684288203553086e7 2.9695313928528726e7 0.0
2.9695313928528726e7 -2.114135062294799e6 0.0
0.0 0.0 0.0

-2.4677290161870386e7 3.2040023561496243e7 0.0
3.2040023561496243e7 -1.1935126511504188e7 0.0
0.0 0.0 0.0

1.3814284291748535e6 8.58193089997145e6 0.0
8.58193089997145e6 -8.352703121678182e6 0.0
0.0 0.0 0.0

6.369702462313678e6 2.31201651090932e7 0.0
2.31201651090932e7 3.139184135001559e7 0.0
0.0 0.0 0.0

412566.58089195937 1.0984120559786653e7 0.0
1.0984120559786653e7 -5.300651352802733e7 0.0
0.0 0.0 0.0

-4.52571550718162e6 1.7829685847953405e7 0.0
1.7829685847953405e7 4.310938541147663e7 0.0
0.0 0.0 0.0

-4.6160573806288205e6 2.5714812573004942e6 0.0
2.5714812573004942e6 7.143103658138138e7 0.0
0.0 0.0 0.0

1.2794378986450098e6 3.6507009837891175e6 0.0
3.6507009837891175e6 -6.574274380901387e7 0.0
0.0 0.0 0.0

-4.613630713562877e7 3.5727578945430145e7 0.0
3.5727578945430145e7 -8.391453168156657e6 0.0
0.0 0.0 0.0

-6.068218286002599e6 868323.7721820308 0.0
868323.7721820308 5.679962868004383e7 0.0
0.0 0.0 0.0

-6.86629827429983e6 503162.140412463 0.0
503162.140412463 4.964816430823665e7 0.0
0.0 0.0 0.0

473603.3641189267 8.222118572174017e6 0.0
8.222118572174017e6 -1.1084595861432115e7 0.0
0.0 0.0 0.0

-6.973519371193027e6 2.085748653784226e6 0.0
2.085748653784226e6 4.744722735781667e7 0.0
0.0 0.0 0.0

1.3870721664392602e7 5.8613586816817455e7 0.0
5.8613586816817455e7 -5.612408800522239e6 0.0
0.0 0.0 0.0

-2.533401184170439e6 2.494250824407238e7 0.0
2.494250824407238e7 1.9307496408943847e7 0.0
0.0 0.0 0.0

48000.43720202893 4.934914511783649e6 0.0
4.934914511783649e6 -8.091460308724199e7 0.0
0.0 0.0 0.0

1.0523266501624063e6 4.151216904383391e6 0.0
4.151216904383391e6 -5.11695428907224e7 0.0
0.0 0.0 0.0

-2.6207463596033715e6 2.814078294748911e7 0.0
2.814078294748911e7 9.749124407673744e6 0.0
0.0 0.0 0.0

-6.809741095785689e6 4.5839176492489934e7 0.0
4.5839176492489934e7 4.08938131085345e6 0.0
0.0 0.0 0.0

1.0283121506004829e7 1.223181140341958e7 0.0
1.223181140341958e7 2.5719279995283545e6 0.0
0.0 0.0 0.0

1.6769644345679585e7 2.7506899632339902e7 0.0
2.7506899632339902e7 1.5017295044019718e7 0.0
0.0 0.0 0.0

1.563512632537307e7 3.096892873370193e7 0.0
3.096892873370193e7 -3.103200108109032e6 0.0
0.0 0.0 0.0

-6.253159836641692e6 1.1396897708807986e6 0.0
1.1396897708807986e6 5.577636781487378e7 0.0
0.0 0.0 0.0

-2.442882376157851e7 2.8350988699075904e7 0.0
2.8350988699075904e7 -5.813997772041813e6 0.0
0.0 0.0 0.0

-3.8573675589090963e6 3.988699076778264e7 0.0
3.988699076778264e7 2.0960647234676136e6 0.0
0.0 0.0 0.0

8.228947510446759e6 2.168421130681384e7 0.0
2.168421130681384e7 6.906311652231103e7 0.0
0.0 0.0 0.0

1.8415848575871956e7 3.165729021006255e7 0.0
3.165729021006255e7 -3.1020840710792784e6 0.0
0.0 0.0 0.0

-6.438407248329557e6 2.6473872002638247e7 0.0
2.6473872002638247e7 -1.2656669169215022e7 0.0
0.0 0.0 0.0

-2.853221616817929e6 2.6383425690072548e7 0.0
2.6383425690072548e7 1.9618311768123925e7 0.0
0.0 0.0 0.0

-4.655737408078602e6 2.585378752437133e7 0.0
2.585378752437133e7 -1.2468394601116002e7 0.0
0.0 0.0 0.0

-9.321482494916321e7 4.895532378921749e7 0.0
4.895532378921749e7 -1.6349569603301756e7 0.0
0.0 0.0 0.0

-3.419772083333263e6 2.4605089885215115e7 0.0
2.4605089885215115e7 1.877738272730498e7 0.0
0.0 0.0 0.0

-5.691180620384337e6 2.71417441929536e7 0.0
2.71417441929536e7 -1.0710713485135093e7 0.0
0.0 0.0 0.0

-3.2252376575110555e6 2.7336564438472588e7 0.0
2.7336564438472588e7 1.8504440852332257e7 0.0
0.0 0.0 0.0

1.2746510388185414e7 3.0437978956644792e7 0.0
3.0437978956644792e7 -4.306852714498313e6 0.0
0.0 0.0 0.0

1.733460752025118e6 2.926525391344663e6 0.0
2.926525391344663e6 -4.178081936288676e7 0.0
0.0 0.0 0.0

6.0803001690094005e6 2.943957022150886e7 0.0
2.943957022150886e7 -9.142812427049465e6 0.0
0.0 0.0 0.0

-3.5214599566475585e7 5.444104863999283e7 0.0
5.444104863999283e7 7.960883627773948e6 0.0
0.0 0.0 0.0

-8.59800061996109e6 3.7350103295715295e7 0.0
3.7350103295715295e7 7.107830583318699e6 0.0
0.0 0.0 0.0

-8.2633457516246345e6 -16123.414638136157 0.0
-16123.414638136157 3.3548382951030776e7 0.0
0.0 0.0 0.0

1.0257027964160079e6 2.4394693978895947e7 0.0
2.4394693978895947e7 -2.0247613752246726e7 0.0
0.0 0.0 0.0

2.029902598660493e7 2.7742936202851824e7 0.0
2.7742936202851824e7 7.542787621581928e6 0.0
0.0 0.0 0.0

-8.117805188162602e7 4.0952426034009434e7 0.0
4.0952426034009434e7 -3.016832739977613e6 0.0
0.0 0.0 0.0

6.291515943841814e6 2.152020948189847e7 0.0
2.152020948189847e7 2.192100840048073e7 0.0
0.0 0.0 0.0

-439391.0985173732 1.066073747988146e7 0.0
1.066073747988146e7 -5.591675687484049e7 0.0
0.0 0.0 0.0

608197.6354789697 1.9884082003968045e7 0.0
1.9884082003968045e7 -2.6080554114372622e7 0.0
0.0 0.0 0.0

-2.0013307063743304e6 2.6459986769519303e7 0.0
2.6459986769519303e7 1.5854671355607502e7 0.0
0.0 0.0 0.0

-1.010053266069712e7 4.623269149910579e7 0.0
4.623269149910579e7 3.7700628852830213e6 0.0
0.0 0.0 0.0

2.7367871795057803e6 3.411504223130902e7 0.0
3.411504223130902e7 -5.729657319459509e6 0.0
0.0 0.0 0.0

1.5353204591704216e6 2.844249250279314e6 0.0
2.844249250279314e6 -5.028771640942601e7 0.0
0.0 0.0 0.0

1.0865604763080921e7 2.2088216996470906e7 0.0
2.2088216996470906e7 6.204927777155317e7 0.0
0.0 0.0 0.0

-967706.7217378796 2.260972523498014e7 0.0
2.260972523498014e7 -2.4505239098770353e6 0.0
0.0 0.0 0.0

-6.321443788930272e7 4.8817313790942356e7 0.0
4.8817313790942356e7 9.720212007155653e6 0.0
0.0 0.0 0.0

-8.078963784591692e6 2.7818249624202684e6 0.0
2.7818249624202684e6 4.26294702405558e7 0.0
0.0 0.0 0.0

-7.203902910783021e6 2.3974449123384105e6 0.0
2.3974449123384105e6 4.5271852187553816e7 0.0
0.0 0.0 0.0

1.9564063716111682e7 2.7503931992858324e7 0.0
2.7503931992858324e7 1.0662779850410644e7 0.0
0.0 0.0 0.0

-5.974842368429448e6 748415.4584482944 0.0
748415.4584482944 5.538278784849901e7 0.0
0.0 0.0 0.0

5.1921189927983e6 2.2304666552133434e7 0.0
2.2304666552133434e7 2.123724345095535e7 0.0
0.0 0.0 0.0

1.167759340756211e7 2.259485403706247e7 0.0
2.259485403706247e7 4.6287252094776675e7 0.0
0.0 0.0 0.0

2.4412180524274902e6 4.324161619635564e7 0.0
4.324161619635564e7 -1.9312235796130258e6 0.0
0.0 0.0 0.0

-4.463683633136474e6 7.954942689945523e6 0.0
7.954942689945523e6 7.392402708468974e7 0.0
0.0 0.0 0.0

-4.542559798456669e6 1.8829050406825185e7 0.0
1.8829050406825185e7 -4.618130077235407e7 0.0
0.0 0.0 0.0

-14305.29501428036 9.29405537082755e6 0.0
9.29405537082755e6 -9.484727813786475e6 0.0
0.0 0.0 0.0

-1.4157816130305184e6 2.584980419869995e7 0.0
2.584980419869995e7 1.3963215415602382e7 0.0
0.0 0.0 0.0

7.517289599993235e6 2.263674460786257e7 0.0
2.263674460786257e7 4.445143939375379e7 0.0
0.0 0.0 0.0

-6.921030781975426e6 2.725817977673205e6 0.0
2.725817977673205e6 5.406325468468828e7 0.0
0.0 0.0 0.0

-5.033461454148974e6 1.0645181760956911e7 0.0
1.0645181760956911e7 6.577949384994095e6 0.0
0.0 0.0 0.0

-1.771274009070031e6 2.736384420984499e7 0.0
2.736384420984499e7 2.1364381520236633e6 0.0
0.0 0.0 0.0

4.570698913242772e6 1.415489608354892e7 0.0
1.415489608354892e7 1.1796609062082967e7 0.0
0.0 0.0 0.0

6.087228563762791e6 2.60342982814646e7 0.0
2.60342982814646e7 -1.3601718281148202e6 0.0
0.0 0.0 0.0

-7.680609104643732e6 2.25258460684757e6 0.0
2.25258460684757e6 4.507872932571343e7 0.0
0.0 0.0 0.0

-3.6795593401176e6 7.817341071361565e6 0.0
7.817341071361565e6 7.834992765815192e7 0.0
0.0 0.0 0.0

5.001717721044635e6 2.675558291656211e7 0.0
2.675558291656211e7 -75804.94881083141 0.0
0.0 0.0 0.0

1.8019401692416165e6 2.502558238475924e7 0.0
2.502558238475924e7 -1.7221871339838494e7 0.0
0.0 0.0 0.0

-3.3254546836976223e6 7.626906369959748e6 0.0
7.626906369959748e6 7.756427193728463e7 0.0
0.0 0.0 0.0

1.2124717100283775e7 3.0600054598438766e7 0.0
3.0600054598438766e7 -4.1133351851772834e6 0.0
0.0 0.0 0.0

6.280019178614363e6 2.1936839564415228e7 0.0
2.1936839564415228e7 3.2331166578955304e7 0.0
0.0 0.0 0.0

-6.612098150087579e6 1.5421109351959081e7 0.0
1.5421109351959081e7 1.7640167197436005e7 0.0
0.0 0.0 0.0

-5.804488082041398e6 1.4292262352154441e7 0.0
1.4292262352154441e7 4.154970655736542e6 0.0
0.0 0.0 0.0

-1.200661142539033e7 1.1154554620577628e7 0.0
1.1154554620577628e7 4.203424573732793e6 0.0
0.0 0.0 0.0

