# vtk DataFile Version 2.0
phase field modeling fracture
ASCII
DATASET UNSTRUCTURED_GRID
POINTS 2538 float
0.0 0.0 0.0
10.0 0.0 0.0
0.0 10.0 0.0
10.0 10.0 0.0
0.0 4.9995 0.0
0.0 5.0005 0.0
5.0 5.0 0.0
0.9416964895726688 0.0 0.0
1.803581725054446 0.0 0.0
2.592419885431098 0.0 0.0
3.314401822861676 0.0 0.0
3.975193910351406 0.0 0.0
4.579982132660152 0.0 0.0
5.133512780936812 0.0 0.0
5.640130319506143 0.0 0.0
6.103810708661955 0.0 0.0
6.528192895506818 0.0 0.0
6.916607540127679 0.0 0.0
7.272102969376355 0.0 0.0
7.597469242948583 0.0 0.0
7.895259826292669 0.0 0.0
8.167811885738017 0.0 0.0
8.417264413845215 0.0 0.0
8.645575169389538 0.0 0.0
8.854535961159101 0.0 0.0
9.045786767735546 0.0 0.0
9.220828555767493 0.0 0.0
9.38103509633881 0.0 0.0
9.527663687265145 0.0 0.0
9.661865124984566 0.0 0.0
9.784692609918062 0.0 0.0
9.897110148790482 0.0 0.0
10.0 0.09999999999992584 0.0
10.0 0.199999999999856 0.0
10.0 0.2999999999997771 0.0
10.0 0.3999999999996677 0.0
10.0 0.4999999999995511 0.0
10.0 0.5999999999994683 0.0
10.0 0.6999999999993983 0.0
10.0 0.7999999999993286 0.0
10.0 0.8999999999992587 0.0
10.0 0.9999999999991888 0.0
10.0 1.099999999999119 0.0
10.0 1.199999999999033 0.0
10.0 1.299999999998852 0.0
10.0 1.399999999998576 0.0
10.0 1.499999999998284 0.0
10.0 1.599999999997992 0.0
10.0 1.6999999999977 0.0
10.0 1.799999999997408 0.0
10.0 1.899999999997116 0.0
10.0 1.999999999996825 0.0
10.0 2.099999999996533 0.0
10.0 2.199999999996241 0.0
10.0 2.299999999995949 0.0
10.0 2.399999999995657 0.0
10.0 2.499999999995365 0.0
10.0 2.599999999995073 0.0
10.0 2.699999999994782 0.0
10.0 2.79999999999449 0.0
10.0 2.899999999994198 0.0
10.0 2.999999999993906 0.0
10.0 3.099999999993614 0.0
10.0 3.199999999993322 0.0
10.0 3.299999999993029 0.0
10.0 3.399999999992738 0.0
10.0 3.499999999992446 0.0
10.0 3.599999999992154 0.0
10.0 3.699999999991863 0.0
10.0 3.799999999991571 0.0
10.0 3.899999999991278 0.0
10.0 3.999999999991022 0.0
10.0 4.099999999991035 0.0
10.0 4.199999999991187 0.0
10.0 4.299999999991338 0.0
10.0 4.399999999991491 0.0
10.0 4.499999999991642 0.0
10.0 4.599999999991795 0.0
10.0 4.699999999991947 0.0
10.0 4.799999999992099 0.0
10.0 4.89999999999225 0.0
10.0 4.999999999992403 0.0
10.0 5.099999999992555 0.0
10.0 5.199999999992706 0.0
10.0 5.299999999992858 0.0
10.0 5.39999999999301 0.0
10.0 5.499999999993161 0.0
10.0 5.599999999993313 0.0
10.0 5.699999999993466 0.0
10.0 5.799999999993618 0.0
10.0 5.899999999993771 0.0
10.0 5.999999999993922 0.0
10.0 6.099999999994074 0.0
10.0 6.199999999994227 0.0
10.0 6.299999999994378 0.0
10.0 6.39999999999453 0.0
10.0 6.499999999994682 0.0
10.0 6.599999999994833 0.0
10.0 6.699999999994986 0.0
10.0 6.799999999995138 0.0
10.0 6.899999999995289 0.0
10.0 6.999999999995442 0.0
10.0 7.099999999995594 0.0
10.0 7.199999999995747 0.0
10.0 7.299999999995897 0.0
10.0 7.39999999999605 0.0
10.0 7.499999999996202 0.0
10.0 7.599999999996353 0.0
10.0 7.699999999996505 0.0
10.0 7.799999999996658 0.0
10.0 7.899999999996808 0.0
10.0 7.999999999996962 0.0
10.0 8.099999999997113 0.0
10.0 8.199999999997265 0.0
10.0 8.299999999997418 0.0
10.0 8.399999999997569 0.0
10.0 8.499999999997721 0.0
10.0 8.599999999997873 0.0
10.0 8.699999999998024 0.0
10.0 8.799999999998176 0.0
10.0 8.899999999998329 0.0
10.0 8.99999999999848 0.0
10.0 9.099999999998634 0.0
10.0 9.199999999998786 0.0
10.0 9.299999999998937 0.0
10.0 9.399999999999089 0.0
10.0 9.499999999999241 0.0
10.0 9.599999999999392 0.0
10.0 9.699999999999545 0.0
10.0 9.799999999999697 0.0
10.0 9.899999999999848 0.0
9.897110148790565 10.0 0.0
9.784692609918244 10.0 0.0
9.66186512498486 10.0 0.0
9.527663687265571 10.0 0.0
9.381035096339392 10.0 0.0
9.220828555768257 10.0 0.0
9.045786767736512 10.0 0.0
8.854535961160305 10.0 0.0
8.645575169391027 10.0 0.0
8.417264413847017 10.0 0.0
8.167811885740178 10.0 0.0
7.895259826295246 10.0 0.0
7.597469242951631 10.0 0.0
7.272102969379938 10.0 0.0
6.916607540131873 10.0 0.0
6.528192895511704 10.0 0.0
6.103810708667616 10.0 0.0
5.640130319512691 10.0 0.0
5.13351278094435 10.0 0.0
4.579982132668816 10.0 0.0
3.975193910361222 10.0 0.0
3.314401822869852 10.0 0.0
2.592419885437257 10.0 0.0
1.803581725058137 10.0 0.0
0.9416964895740705 10.0 0.0
0.0 9.00010000000243 0.0
0.0 8.000200000005481 0.0
0.0 7.000300000005135 0.0
0.0 6.000400000002569 0.0
0.901790731451151 5.000409820926855 0.0
1.657200899774397 5.000334279910023 0.0
2.289991063707192 5.000271000893629 0.0
2.820065163538221 5.000217993483646 0.0
3.264096435579811 5.000173590356442 0.0
3.636051481595835 5.00013639485184 0.0
3.947629914072366 5.000105237008593 0.0
4.208632181002628 5.0000791367819 0.0
4.427267949625672 5.000057273205037 0.0
4.610414277633563 5.000038958572237 0.0
4.763831845154243 5.000023616815485 0.0
4.892346298799659 5.00001076537012 0.0
4.892346298799748 4.99998923462988 0.0
4.763831845154455 4.999976383184515 0.0
4.610414277633943 4.999961041427763 0.0
4.427267949626277 4.999942726794963 0.0
4.208632181003523 4.9999208632181 0.0
3.94762991407365 4.999894762991407 0.0
3.636051481597624 4.99986360514816 0.0
3.264096435582253 4.999826409643559 0.0
2.820065163541503 4.999782006516354 0.0
2.289991063711534 4.999728999106371 0.0
1.657200899778495 4.999665720089978 0.0
0.9017907314530094 4.999590179073145 0.0
0.0 3.999600000002013 0.0
0.0 2.999700000005187 0.0
0.0 1.99980000000512 0.0
0.0 0.9999000000025537 0.0
9.897889398521345 2.93573355845387 0.0
9.906568249974548 7.060009441434234 0.0
9.913122631074113 3.64016132281653 0.0
9.922462129543863 6.354535290629151 0.0
9.917693659967533 4.354211663134567 0.0
9.909873057440208 5.637584487339942 0.0
9.914183254994697 4.950672966925282 0.0
9.913885043715895 7.666887930262611 0.0
9.91009668007573 2.351889069770817 0.0
9.905135696074536 8.138152454502785 0.0
9.913397459621809 1.849999999997262 0.0
7.099302372137626 0.297750452375005 0.0
7.095143729410097 9.700359990366296 0.0
4.942912558701401 5.095838627899509 0.0
4.315009232304429 5.165022115481685 0.0
4.946182472483878 4.906763777264103 0.0
4.317967462990024 4.825955043772673 0.0
9.916390871492647 8.64999999999792 0.0
9.921504649680616 1.368376469890358 0.0
8.292538149791614 0.206877570318844 0.0
8.292538149793597 9.793122429681448 0.0
5.884594439766573 9.587645267048616 0.0
5.794826292691579 0.3794853783929359 0.0
9.913397459621425 9.049999999998557 0.0
9.908526577714177 0.9568239351922434 0.0
3.456851160380649 5.315740054130451 0.0
3.457889657868442 4.707121019609468 0.0
8.945214200703926 0.1503383337970344 0.0
8.950161364448409 9.8413906539257 0.0
9.913862335499305 4.055887885208452 0.0
9.916697353372683 4.650158482607802 0.0
9.919076340414442 6.049999999994006 0.0
9.906994308667635 5.25749687748192 0.0
9.917490342358025 6.655979201891897 0.0
9.915757520293784 7.343848891656911 0.0
9.910049507471042 3.363474386285078 0.0
9.914471988502868 2.647400064832979 0.0
9.91474124160965 9.337490423485129 0.0
9.916971008170838 0.6499999999994355 0.0
4.307157269264427 9.509674045029644 0.0
4.331527375865619 0.4401616696422582 0.0
9.45434939180249 9.878397030523757 0.0
9.457696120412969 0.1270877537061785 0.0
2.555070293622606 5.422044496190925 0.0
2.566232917480916 4.608001224030952 0.0
3.026511860837692 9.332320638257093 0.0
2.945561971800619 0.5895662714727601 0.0
7.7395404387124 0.2511088946967771 0.0
7.736379255744154 9.745848826372828 0.0
4.687135269408529 5.122111433928926 0.0
4.688420821504113 4.871895064967488 0.0
9.910554884115975 0.3448356354522978 0.0
9.911230082250466 9.65764729394159 0.0
9.921953841410854 6.851023993342036 0.0
9.912065178606017 5.448170483544033 0.0
9.911660025326261 3.861846960030188 0.0
9.914847467973438 3.14501593945607 0.0
9.913397459621425 5.849999999993703 0.0
9.913397459621425 7.849999999996735 0.0
9.906916878988277 2.15455769998631 0.0
9.913397459621425 8.349999999997479 0.0
9.909472363117661 1.640528221515488 0.0
9.913987325695956 1.152857110636247 0.0
9.913397459621425 8.849999999998241 0.0
0.9100099990995943 2.614215977520411 0.0
0.8395284981715456 7.451196254860987 0.0
9.723278867451556 9.898135916635193 0.0
9.723316350887044 0.09841820909386662 0.0
1.385819164827588 4.454539963646463 0.0
1.338343629665047 5.523111536005823 0.0
1.377179700550677 0.6809168304959698 0.0
1.418060461092743 9.285896715136046 0.0
9.91268220142518 0.1457914080939694 0.0
9.906737126737994 9.845745933882352 0.0
0.7108351382691361 6.537941170074089 0.0
1.527735020267026 6.915620208855231 0.0
1.630993885659103 7.838271825205868 0.0
2.232760943566823 7.370850737296832 0.0
2.243414218068206 6.688299277952821 0.0
2.779655053105118 7.021588754814074 0.0
2.80227799359795 7.632420170547022 0.0
3.282022065908813 7.305859666021318 0.0
3.327597298795347 7.857554136825748 0.0
3.743210251018715 7.549183328204379 0.0
3.716353232200752 7.062036086888612 0.0
4.111978858674101 7.27497101169417 0.0
4.104192177581432 6.879858986267289 0.0
4.436230765617037 7.045693351607117 0.0
4.430360014817357 6.703971783962796 0.0
4.732390145036301 6.849841042423394 0.0
5.056161327708878 5.095276573498806 0.0
5.111586796021131 4.999081142133581 0.0
5.169267363407189 5.09444870412406 0.0
5.223795108752053 4.996986220359468 0.0
5.281480803887719 5.092780870372803 0.0
5.335670761900611 4.994887492556936 0.0
5.393485214772442 5.090486192743301 0.0
5.447323082877892 4.992601527033996 0.0
5.505243219343024 5.087953380710069 0.0
5.558739102026105 4.990287787962959 0.0
5.616491581184779 5.085335255235766 0.0
5.669852346908056 4.9879269227514 0.0
5.727502713908907 5.082679981817038 0.0
5.780766004135139 4.988313988715834 0.0
5.838244881129535 5.080480568766611 0.0
5.891357695677371 4.986433849408193 0.0
5.948696036767613 5.077969900389505 0.0
6.001601341641615 4.981313698556656 0.0
6.058851024265095 5.074871552128682 0.0
6.111614020704875 4.978360695880202 0.0
6.168801161530775 5.072044953270978 0.0
6.221368818778567 4.975825765213497 0.0
6.278268309066882 5.066182320461055 0.0
6.330814273567539 4.972837984645718 0.0
6.387565032421376 5.062889771971895 0.0
6.437476667631405 4.971693683589553 0.0
6.496181111585419 5.060210690175857 0.0
6.539454812256072 4.964658165361536 0.0
6.604198202576491 5.056387520850258 0.0
6.648506025747331 4.939374587506267 0.0
6.714026758992516 5.05873885840664 0.0
6.764418045981209 4.959246676066148 0.0
6.8219334571197 5.055299567406268 0.0
6.873708540948134 4.960426349093742 0.0
6.930181428849307 5.053461390218819 0.0
6.981893615341967 4.96435459462232 0.0
7.037791764774784 5.051219747103022 0.0
7.090993561518408 4.96392420322464 0.0
5.504417457283294 4.900897920552702 0.0
7.145434864123609 5.048960634292441 0.0
6.054532384032612 4.883956083938546 0.0
6.738027949040956 4.850032323068674 0.0
7.198432914526514 4.956325226333323 0.0
7.252637187936749 5.046012229327236 0.0
7.30926729605109 4.948903216650376 0.0
7.248106275544042 4.860306312845646 0.0
7.363100274863074 4.849952416808486 0.0
7.365733472701664 5.039519554615095 0.0
7.308483293090149 5.137557220352172 0.0
6.768399513646964 5.145609705119954 0.0
7.422800035311104 5.132251445551834 0.0
7.358273518796229 5.235980394389298 0.0
7.480824155801127 5.227946127939927 0.0
7.302193400058628 4.761917474298247 0.0
7.413570879789824 4.754555110721153 0.0
7.414392998903179 5.334729114426734 0.0
7.352769630272076 4.660405502266205 0.0
7.467556835255426 4.658352623795039 0.0
7.536246869015014 5.328986926716081 0.0
7.478865844607288 5.432598185493195 0.0
7.406396991826072 4.556956233957538 0.0
7.523581002009154 4.552005631348623 0.0
7.597792398573263 5.429506106314967 0.0
7.540511043402902 5.53619421580439 0.0
7.46214474876342 4.452580994318881 0.0
7.5852185078634 4.446021810672608 0.0
7.663329342323453 5.533453399066901 0.0
7.603478967594521 5.643227430483237 0.0
7.513450346818673 4.347641323140766 0.0
7.640744971722214 4.333388343316237 0.0
7.727671715775243 5.642390483050116 0.0
7.667774597993788 5.753188858425915 0.0
7.570065256728661 4.230515669344811 0.0
7.702881065467917 4.218307808529532 0.0
7.638288257073729 4.107994211855027 0.0
7.493362356301017 4.120843902105771 0.0
7.779018500630071 5.521233457321821 0.0
7.794641287388929 5.752364621610818 0.0
7.73369774483611 5.865894287356292 0.0
7.600834531784728 5.867752110500446 0.0
6.233038857278689 5.15645045634683 0.0
7.669727996028819 5.985665563643058 0.0
7.528582452554481 5.987393423295551 0.0
7.598722674572824 6.11001923494443 0.0
7.778305000222867 4.104318908265786 0.0
7.704329019832056 3.987744174608892 0.0
7.838453459801382 4.213322728668484 0.0
7.864495721576461 5.862306066517277 0.0
7.846552353360407 3.98481756181946 0.0
7.769730409703277 3.86544808681145 0.0
5.785249360396857 5.177248808588045 0.0
7.908837087876153 3.861484036275285 0.0
7.834824606222196 3.740586825753288 0.0
7.97685993406276 3.736209527152902 0.0
7.89665098770825 3.615501862931453 0.0
7.753228010315262 3.617800245018972 0.0
7.826063013090472 3.483173292579822 0.0
7.66789744383048 3.48859328808356 0.0
8.042515855796823 3.595394268381807 0.0
7.75200750488492 3.341279823834038 0.0
7.582870318332553 3.346584916806707 0.0
8.120807847415062 3.732493963388337 0.0
8.189783970303546 3.61159165475499 0.0
7.657801000286734 3.200439907646711 0.0
7.486781956172036 3.201402473247712 0.0
7.452595103886905 6.11418616185016 0.0
7.527098033550077 6.243191052852112 0.0
8.260502906807751 3.728437634721859 0.0
8.327629317451398 3.608173631356984 0.0
7.372763970891452 6.247552889754036 0.0
7.456170570815929 6.384992468962936 0.0
7.621837793616884 6.376077080857113 0.0
7.548039512904141 6.520750676893614 0.0
7.717475944451644 6.514856553988943 0.0
7.636658166268699 6.661648164052906 0.0
7.807468267259438 6.664076174524672 0.0
7.718022764310774 6.817938967122142 0.0
7.887785766941087 6.807440365887151 0.0
7.545993589083432 6.815070675854734 0.0
7.809874785067209 6.967537287475282 0.0
7.975643812145337 6.948729406725126 0.0
8.396477808021062 3.725446935061211 0.0
7.565651643157136 3.044354774611752 0.0
7.384328725505071 3.043048915147076 0.0
8.056405351948353 6.802790889114673 0.0
8.14128318237188 6.940027831915737 0.0
8.064621760266059 7.086348792208953 0.0
8.225003598857908 6.805225152373254 0.0
8.463085452993242 3.606998510553562 0.0
8.230426869720718 7.079551841000411 0.0
8.155262284174286 7.224761758176069 0.0
8.530696760758996 3.721683301125054 0.0
8.596669886994064 3.604516769862316 0.0
8.528531058025589 3.490411531312337 0.0
8.320451770844851 7.218191678954744 0.0
8.245273958732774 7.363444652121271 0.0
8.66324687389452 3.717094013035765 0.0
8.600103125209296 3.831913857228569 0.0
8.662131102573216 3.488322280861316 0.0
8.594166125380536 3.374071873435548 0.0
8.411074336066186 7.353871649576861 0.0
8.339644223432472 7.505172120620427 0.0
8.165883718619623 7.513159193685373 0.0
8.483453820080417 7.2082285366806 0.0
8.261200365730348 7.657400951288149 0.0
8.081570576666843 7.670933304838066 0.0
7.471613195794025 2.872548423100142 0.0
7.268733678357991 2.881209199257603 0.0
7.184255506995786 3.084448584600423 0.0
7.065899603697895 2.883902449336828 0.0
6.960163891183182 3.081014635802978 0.0
6.847612128388715 2.885646860602812 0.0
6.739800729737967 3.078895733381448 0.0
8.729373804596847 3.827689165637365 0.0
8.668550856907444 3.938702277545298 0.0
8.72770789162863 3.371798381178293 0.0
8.659764090070603 3.257493349874974 0.0
8.436453928793245 7.648724489148887 0.0
6.619080287792762 2.90880017416788 0.0
6.511740956842646 3.09340654756684 0.0
8.793527829963288 3.935174834810256 0.0
8.736430500996828 4.042719556852617 0.0
7.631260330584174 4.565300771328012 0.0
8.359058396840432 7.801678182761817 0.0
5.339436215072359 5.184870243702279 0.0
4.994031736761993 5.193306795607908 0.0
6.383387675268097 4.87760645722207 0.0
7.29117392392962 6.382172868329505 0.0
6.378196825372041 2.907113079755629 0.0
6.269817199014261 3.12412150658573 0.0
8.793149127377946 3.255386294257182 0.0
8.725774239201558 3.141596687892195 0.0
8.857434600673502 4.041295940541356 0.0
8.802868937128341 4.1471119953668 0.0
8.532045262478793 7.7905977476835 0.0
7.364542641624493 2.699128473342751 0.0
7.571677611088925 2.695732556686516 0.0
6.723058333614999 2.672341359410618 0.0
8.456744924757372 7.94483904450548 0.0
6.140831279784704 2.921247401137864 0.0
6.02419219050745 3.14358702955763 0.0
8.916255604212301 3.934279868822481 0.0
8.859287250884009 3.140226640574265 0.0
8.791092798057303 3.025929352146465 0.0
7.210445465986021 6.245773134960393 0.0
7.120884161792869 6.385155584680196 0.0
7.036931702064287 6.240721609143972 0.0
6.943722280007011 6.3869279517155 0.0
8.920094519678617 4.144837222494242 0.0
8.864374107136287 4.250930406527029 0.0
7.347569838739255 4.463467417508182 0.0
5.90383431757064 2.935113219563906 0.0
5.783476009580765 3.156456199832474 0.0
8.626013191558314 7.935092223505354 0.0
8.687240186957197 7.796697889991163 0.0
5.642059327424706 2.903018174330269 0.0
5.52647853955939 3.162549070310043 0.0
8.555300051897738 8.086169516016518 0.0
8.405624441178524 8.083972416481254 0.0
5.374124307190728 2.945480555950917 0.0
8.935805220807357 3.249260758206028 0.0
8.981625171409894 4.247375537584228 0.0
8.924725364486765 4.352101286657735 0.0
8.807208588134106 4.356163101450244 0.0
8.868277832430604 4.45657124153171 0.0
8.75099635287701 4.460644845248524 0.0
8.812385950597063 4.560891222623518 0.0
8.693833206943118 4.564602972998703 0.0
8.756474732548273 4.665720853686476 0.0
8.63721608225855 4.669394550615355 0.0
8.700108119351134 4.770682016274914 0.0
8.81920502916846 4.767536120893284 0.0
8.76355311338807 4.871451945248518 0.0
8.881442328033694 4.868382238751069 0.0
8.826433523510634 4.97132552240372 0.0
8.943387824985514 4.967694248194483 0.0
8.888718468126953 5.071044784833541 0.0
8.580377663835254 4.774669738817985 0.0
8.770572242937233 5.073880380431421 0.0
8.832915096600454 5.174518948293615 0.0
8.952224483821848 5.170970838320107 0.0
8.897282771771884 5.275476392171722 0.0
7.463928467290875 2.513944501591933 0.0
7.675935950092034 2.509420347143072 0.0
8.924252417741767 3.024418701372628 0.0
8.857265893102921 2.911213535286156 0.0
8.776981063213334 5.27944309004916 0.0
8.840710910770163 5.380165700477552 0.0
8.960876896785969 5.375521424256389 0.0
8.904555918255223 5.482125846038813 0.0
7.567193097677677 2.32750151280277 0.0
7.780880844888839 2.323064027160363 0.0
6.851602118390116 6.234522818184622 0.0
6.758680682687229 6.389359516748128 0.0
6.66345977321418 6.231254850996584 0.0
8.715764716958308 8.079994249772627 0.0
8.65189989696114 8.227534663647639 0.0
9.042229096541828 4.348551764001607 0.0
6.436774206993324 3.316782326998922 0.0
7.590527613340588 5.22651784724799 0.0
9.024366884701616 5.476726561488805 0.0
8.968734351641839 5.583879050892151 0.0
8.845941080047659 5.586406316932274 0.0
8.909881305857882 5.690482454668167 0.0
7.348726871578975 5.44047403999932 0.0
6.567070253986433 6.398115757512583 0.0
6.697077150072261 6.553426749743366 0.0
5.252377383990728 3.187782967482479 0.0
8.988440431820699 2.908621158637298 0.0
8.922541972760119 2.796420836075996 0.0
6.466806010659505 6.229115583261771 0.0
9.033851153821296 5.686506775615425 0.0
8.978340519963718 5.795772485582058 0.0
8.85111463793018 5.798672910287243 0.0
8.922171984280597 5.907237880910408 0.0
8.795190680908043 5.911854068712683 0.0
8.864373398892472 6.019728357749566 0.0
8.991346995940626 6.014539153309398 0.0
8.93374019140187 6.12698887312768 0.0
5.095192648098848 2.952353430985476 0.0
7.672651464908932 2.141715359830917 0.0
7.886266921042761 2.136211284120189 0.0
9.098474286589756 4.245971410451114 0.0
8.813172564986438 8.216887361735234 0.0
8.74802978243154 8.366104673219047 0.0
9.059985162956899 6.120982589539211 0.0
9.00342813739303 6.233245043891739 0.0
4.961413514304496 3.214209167276753 0.0
9.05248113004685 2.794651022570942 0.0
8.986028039118027 2.681341972594222 0.0
5.671890458441996 3.377122473800023 0.0
4.755829262593116 7.184480462344647 0.0
9.158258644940048 4.34465968221255 0.0
4.799687186662534 2.961354824469195 0.0
6.030554747591715 2.726787502996874 0.0
8.938327180212585 8.34758372042188 0.0
8.847392320655468 8.503370672816716 0.0
8.67342124373679 8.518117686968314 0.0
5.234423106934083 2.694925204361751 0.0
8.964923046453565 8.185313058214797 0.0
7.456650986668838 2.134076476407834 0.0
9.111732084821366 2.897226832609386 0.0
6.368055837513985 6.402805870976705 0.0
6.265629899005033 6.226581076317183 0.0
8.736327196352686 6.026404178766982 0.0
9.117473097358854 2.67987006607594 0.0
9.052137415465204 2.565428515518978 0.0
7.781001557847192 1.955874236406257 0.0
7.992134447300669 1.949184538864554 0.0
8.593074792993455 3.143159483125708 0.0
9.1291360203536 6.226877897052981 0.0
9.072154326613617 6.338696745620542 0.0
8.916532550320525 2.566986282201109 0.0
8.984021113721658 2.449252898983242 0.0
9.178032243215632 6.120533546076094 0.0
9.213703592343162 4.244823670856978 0.0
9.11972142641474 2.449071238668887 0.0
9.052853896812186 2.33190758581705 0.0
8.635035926402708 4.462329956179506 0.0
8.773614475966344 8.657865377672689 0.0
8.596400917257634 8.67759750279447 0.0
8.942023339420883 8.644678093589654 0.0
9.19471670675691 6.33096438039349 0.0
9.138460613363325 6.443043552768813 0.0
8.66620319432524 5.916297234509582 0.0
8.606669825267202 6.032658196729024 0.0
9.27222540210304 4.341341907533128 0.0
9.013782808177437 6.451040569407859 0.0
9.08360982569773 6.55729980456602 0.0
7.885622149776354 1.768093045890686 0.0
8.095672144455353 1.768790621151345 0.0
9.208772072925791 6.549717411809656 0.0
9.154272208194383 6.662613503537815 0.0
9.187669783927937 2.334640996932141 0.0
9.122379015831417 2.215832190697178 0.0
6.164077036161143 6.404611236428829 0.0
6.062367614988677 6.224307160647549 0.0
8.987075041759633 2.211477580983978 0.0
9.056972755801603 2.093573581203428 0.0
9.194557288902232 2.096029761809264 0.0
9.131223008370409 1.972713028695079 0.0
8.87381302587057 8.795793668920256 0.0
9.039169086943392 8.781606667490083 0.0
4.662813350519927 3.228118291851354 0.0
4.474181267994617 2.945703616023359 0.0
6.562627723301209 6.075544382232434 0.0
9.326886053211574 4.243083624343211 0.0
9.280374192897945 6.656072830232892 0.0
9.224718905178564 6.766740750539347 0.0
4.703284910421452 6.528907865005451 0.0
8.955136474970331 6.565989985649191 0.0
8.998148826814893 4.865480736169776 0.0
8.99429836796776 1.965972383552685 0.0
9.065669391141741 1.847195105148808 0.0
9.207236162050343 1.853010386995843 0.0
9.143218073349985 1.725630086781897 0.0
8.998867447699345 1.719378449325465 0.0
9.082595782768397 1.592017827427701 0.0
8.92804562738841 1.585238202229766 0.0
9.01637794607019 1.453847302675876 0.0
8.854253119154375 1.446306868730686 0.0
8.941620273019874 1.320083886766936 0.0
8.775393064215876 1.308487027359826 0.0
9.102170347200483 1.324733726345249 0.0
9.013857060361985 1.178821526410403 0.0
7.991031819452564 1.587689878441685 0.0
7.767218744640202 1.595993197647291 0.0
9.191539171305216 1.194087248761656 0.0
9.123965901037613 1.057102462689568 0.0
4.853921953226772 3.470213116851758 0.0
7.496563223334782 3.470157221608763 0.0
8.536691379028115 5.921845852206257 0.0
8.475496498707471 6.037633662010236 0.0
7.978668526342969 2.307231488316941 0.0
9.384721922092124 4.337357165846226 0.0
9.331039180200886 4.435926256444196 0.0
8.546261775564837 6.150267290476958 0.0
8.411727261785726 6.155319300628062 0.0
8.972203609044218 8.930944433074036 0.0
9.133480321468399 8.90955269607895 0.0
9.197778815538276 8.768743880012563 0.0
6.162231825784922 6.05277753404107 0.0
5.962111081146334 6.046949845237622 0.0
9.268727788642101 4.146883230687689 0.0
9.380694211527906 4.144811697563401 0.0
9.323823335199954 4.049557759546529 0.0
9.283324894520613 1.736313094621396 0.0
5.858151623803662 6.22041808248046 0.0
5.759668475561988 6.038806123495502 0.0
7.836860473863919 3.191674397465999 0.0
9.348591928839294 6.75855034547469 0.0
9.293979592221298 6.870213350675044 0.0
9.170543172728557 6.879819332293818 0.0
9.240028263813034 6.983394994050525 0.0
4.347372565145963 3.312731475520695 0.0
4.114183445909965 2.96879678229065 0.0
8.616264880152233 4.042035981070631 0.0
9.403174760076901 6.650407069150438 0.0
4.173860112179449 7.723461240865885 0.0
9.365302975518428 6.973476802087294 0.0
9.312420275675276 7.088420778208979 0.0
9.184876614539778 7.0978133687822 0.0
9.25921281729617 7.204979813006656 0.0
9.12816413817609 7.21569648263899 0.0
9.203944409919862 7.322703303071253 0.0
9.334311975087337 7.311477957762272 0.0
9.280415785210538 7.428795599957155 0.0
9.274060219641907 1.066603180421249 0.0
9.211820491509728 0.9316562593680151 0.0
9.050684011148748 0.9017681241401576 0.0
9.441953732403995 4.432092590771756 0.0
9.394725873909666 4.526051349391942 0.0
9.43453556160865 4.048003950509361 0.0
9.378043599351757 3.952631412328806 0.0
9.289691247910705 8.890746792319852 0.0
9.228148443138926 9.030109127390128 0.0
4.440757888677695 6.389562448928118 0.0
4.689874463978985 6.239329075084555 0.0
4.291519540095677 2.622920583112654 0.0
3.886073352912894 2.632778677714434 0.0
9.344015622314338 1.202401041544343 0.0
8.193292196814806 3.849649660906171 0.0
6.960946604527747 6.07044529864598 0.0
9.347708267319902 8.756364147482309 0.0
6.826423138602714 3.261415861395883 0.0
6.06309517882478 5.884563187328262 0.0
9.4085057714426 7.414123963607981 0.0
9.356416821537886 7.532359471354527 0.0
5.042074134251055 6.938947182785697 0.0
5.063988238156824 7.311205832605263 0.0
3.946666851334923 3.30681624613374 0.0
8.189857914071878 1.939951128540477 0.0
7.880690277686857 1.38928908049477 0.0
7.63766396748483 1.399736360041063 0.0
9.345004233592562 1.857695941115052 0.0
9.440465164139875 7.085860901905448 0.0
7.918332480761888 5.744468010879592 0.0
9.08007135068879 5.372457017512481 0.0
8.78639561093144 3.718391405525285 0.0
9.356843485085705 0.9414458825132457 0.0
9.29705128845331 0.8103081541678832 0.0
9.251825423225316 2.451701826351773 0.0
8.483895366325516 6.270717564685176 0.0
8.346386886249478 6.275973306650227 0.0
9.493299170161215 4.138582531223591 0.0
5.321115649032961 7.117073603021904 0.0
5.354076009109965 7.436189411362466 0.0
5.597984079819928 7.254284331170681 0.0
5.644042313435943 7.564172740776336 0.0
5.383963016128051 7.753854027984002 0.0
5.681168258142109 7.880444993178456 0.0
5.935548099874979 7.687258900444162 0.0
5.979508404301389 7.994332725561488 0.0
6.21936843555201 7.802335560754011 0.0
6.267092590637372 8.104873033518185 0.0
6.498845418385807 7.917606504106031 0.0
6.544600005636809 8.209910620392591 0.0
6.77336078689533 8.027284686082275 0.0
6.814840179123049 8.311778392637773 0.0
6.721304148677048 7.737863326704131 0.0
7.031320924898797 8.1335673274533 0.0
7.077388928622946 8.403901803728003 0.0
5.417471987089176 8.090112295667405 0.0
8.845427688507666 2.446352368201366 0.0
9.318512319918124 2.339233739859646 0.0
9.380241452597096 2.451895615249572 0.0
7.283805558009199 8.237518806365102 0.0
7.329200330160381 8.497045124353782 0.0
7.233272584416691 7.991590926766813 0.0
9.142592248414191 5.471315142785471 0.0
9.196303265878848 5.36738298742727 0.0
9.25795832955665 5.465260877691205 0.0
9.310581303233182 5.36341558704714 0.0
9.371094700882272 5.459458038195667 0.0
9.422767107822985 5.360687090455724 0.0
9.36402660964156 5.264821436196721 0.0
9.474220736978928 5.262802348886269 0.0
9.41680330511366 5.169477108906666 0.0
5.168675939028436 4.895496152382537 0.0
9.482591449057548 5.454699312257291 0.0
9.431567605310825 5.552723344040521 0.0
7.531449703396948 4.741663470323411 0.0
8.517293123442691 4.672601123164268 0.0
8.459978676626639 4.778466809901586 0.0
8.396595115309985 4.67568709170855 0.0
8.338966609235166 4.782101664607259 0.0
8.275355646032752 4.678829956447008 0.0
8.217675280223542 4.785699596769931 0.0
8.28149024865807 4.888803783902183 0.0
8.16019781596952 4.892696417098926 0.0
8.22433278506531 4.995725219088695 0.0
8.102825704443651 4.999629142625341 0.0
8.166887930010795 5.098242831115916 0.0
8.034904900788316 4.896825406879729 0.0
8.15353539905931 4.682103688185489 0.0
8.211891449058882 4.574219757233394 0.0
8.290305306104333 5.094007100958221 0.0
8.225684228618732 5.201525567655179 0.0
9.444618942559746 2.343141375196729 0.0
6.929446520625337 4.868116916840016 0.0
5.737810725167649 4.893891407574175 0.0
8.720389971487277 5.38508368411851 0.0
8.805734920311323 8.951818172412821 0.0
8.905272694453211 9.083303226359831 0.0
6.006155038818204 5.171375272745409 0.0
6.431496448228514 5.152985998213245 0.0
9.052675024457304 7.106590131831544 0.0
7.740007013494393 6.09727525827826 0.0
9.375852260355511 9.013078430361404 0.0
9.32035844773103 9.14584923943073 0.0
6.989707597683965 5.146377438798643 0.0
9.488190206836386 3.951168069367155 0.0
9.432429152094464 3.855725756072153 0.0
5.568386402814275 5.185723849666124 0.0
9.525561551078322 5.166162126187324 0.0
9.465026391994275 5.072601962964018 0.0
9.320357339516937 3.857795423728873 0.0
9.375955927831914 3.759314274140895 0.0
9.261783786753899 3.761412578759438 0.0
9.31820665563318 3.661845422072752 0.0
9.431798673168924 3.660830894813109 0.0
9.374584413615914 3.563138564686839 0.0
9.48759661134647 3.562294297118573 0.0
9.431339678707085 3.464016717943268 0.0
9.417896212887529 1.746970678437863 0.0
8.731705369070733 9.110902182838881 0.0
5.652297951447118 6.21188565774667 0.0
5.569122518069258 6.024400786163834 0.0
8.257007204149394 3.505875091031567 0.0
8.717428603143034 2.925525757227976 0.0
6.882852832747376 8.57686572931064 0.0
6.337330066435714 8.416819098143066 0.0
9.50188906539997 4.521022403818629 0.0
9.453500859905136 4.617181635748691 0.0
9.46806769570129 6.749352117850711 0.0
8.836822104875719 1.72282859852854 0.0
7.481071063421426 5.64593758994851 0.0
5.668814988976305 5.86611128457842 0.0
5.487644760735084 5.847591822776978 0.0
8.993992818065195 7.228173913870249 0.0
7.98322414937693 7.229980191466666 0.0
9.22810751684646 7.54864871395298 0.0
9.304103360459063 7.654622011545798 0.0
9.432787371848761 7.633691049023619 0.0
9.382619818023882 7.759136995934441 0.0
7.239096822516492 4.679179578301165 0.0
9.47692479956498 1.861231395362419 0.0
8.041243110813022 5.095895152648969 0.0
6.190208781188077 7.509864122823853 0.0
9.283062812782122 4.549418667685757 0.0
9.503847665760087 2.450295046295932 0.0
9.443345385250678 2.557904120404248 0.0
9.52009568463353 6.644015937008899 0.0
9.203119005973903 3.662458522935253 0.0
8.406198651282708 5.92630414760378 0.0
8.467263597743843 5.811987729136874 0.0
9.461423029059445 9.128120577356565 0.0
9.408445330070542 9.26024300250086 0.0
9.266505293379728 9.277952925446408 0.0
4.14874709022218 3.631681332690154 0.0
9.437448107949258 0.8198473430736303 0.0
9.376993771693973 0.6910550697058979 0.0
9.22882356848217 0.6931820370818127 0.0
4.451823867195988 6.103664366188579 0.0
4.200031743909027 6.232039028149317 0.0
4.687154754667774 5.975132870483986 0.0
6.268889397098538 6.592235545990395 0.0
7.509366161722768 8.340075462391164 0.0
7.564775703413765 8.59800936579159 0.0
9.542148732924264 3.854614593058991 0.0
7.036231103929761 6.550562550831048 0.0
4.089373665437328 2.268193930262139 0.0
3.642558884866483 2.250386188148396 0.0
3.442182385618804 2.651948803899947 0.0
3.146832503011753 2.222630466765926 0.0
2.948870467975985 2.805088883766417 0.0
9.352005315330274 5.067356449300542 0.0
9.31729677031493 3.462944187594675 0.0
9.37428383619102 3.365546369736205 0.0
9.4883538239391 3.365384871181599 0.0
9.432147665178338 3.267287636377487 0.0
9.25034519267688 7.775848812012313 0.0
9.332091350002502 7.881724023243533 0.0
9.462101000264603 7.86490055671988 0.0
9.413353271651825 7.98561007219363 0.0
8.273592814723814 6.158623919352561 0.0
8.207135014732339 6.280394934566054 0.0
9.541483811580331 5.548224291759592 0.0
9.491365919893726 5.644847811894615 0.0
8.088095771120983 4.577581369371366 0.0
8.14760102783746 4.468303741922308 0.0
9.556217963323956 4.414867468889523 0.0
9.543667331547693 3.266908751519594 0.0
9.489307652535885 3.169908976697059 0.0
9.26285575842982 8.635341362685686 0.0
9.403220742003983 8.621447866627538 0.0
9.326013417886902 8.506778946171965 0.0
9.455477927154853 8.503896705359047 0.0
9.566646674069602 4.611465258087684 0.0
9.499341049870914 0.9352184973273918 0.0
8.683891958597638 1.444705608998412 0.0
8.599973456173778 1.287265568270043 0.0
7.760988189317371 1.175381292562583 0.0
7.50927661322749 1.171223823957793 0.0
7.380927152434357 1.411062577009695 0.0
7.242417847270241 1.170759311509981 0.0
7.107236746116019 1.421234419770886 0.0
6.960799033544566 1.169618322344823 0.0
6.817786081200392 1.434174581170586 0.0
9.48095050141868 8.738557748483624 0.0
9.319762046171894 3.263060331456388 0.0
8.920653400180534 7.117307656029475 0.0
9.452431221190624 6.544166520883111 0.0
9.571407933653493 6.540336592280795 0.0
9.507586285214174 6.443281357841339 0.0
9.575252974749443 5.070210512157044 0.0
5.755172844377253 6.370710487467459 0.0
9.541351959064952 7.969072511059531 0.0
9.354607289792183 9.3921968735401 0.0
9.495213435762107 9.37218405175897 0.0
3.77688136092967 3.643094492921176 0.0
5.460967180339239 6.159077196937325 0.0
8.656589552918996 5.283032675040985 0.0
8.599307076390474 5.387421722684671 0.0
9.584017606465821 5.263931993965828 0.0
9.51536593891754 4.977534386249715 0.0
7.788544970111893 2.70578432810479 0.0
7.381746833264364 8.755477463411431 0.0
7.615969996822885 8.852710176548548 0.0
7.783643411970649 8.691528137204457 0.0
7.845017394185501 8.938777577473743 0.0
8.570520580943368 7.342304222498308 0.0
9.103648004226827 5.781084627507008 0.0
8.338082930126799 5.815990105349368 0.0
8.930848895071895 4.561111316304916 0.0
7.381089602119859 5.983657236035151 0.0
8.42066837692862 6.393608568217351 0.0
8.888256157021065 6.459558428285236 0.0
8.826495664731354 6.575679897210801 0.0
4.22522220414496 5.921354747981145 0.0
3.943296448343383 6.075578573904587 0.0
9.563175937841836 2.554860696349795 0.0
9.505342423182917 2.656889632284623 0.0
6.660863480070611 1.168750929063519 0.0
6.518316961679488 1.436478598119306 0.0
6.683474168246802 1.694104067636375 0.0
6.376799057174731 1.707382100972048 0.0
6.205091481342603 1.443621641108414 0.0
6.058670988071357 1.728841803855816 0.0
5.877457486049096 1.454297236926778 0.0
5.724979192982589 1.756666409586195 0.0
5.529885788012015 1.462283739157555 0.0
9.514953777019835 0.7018468683209754 0.0
8.398665270372675 5.702731562702358 0.0
9.456442249775696 0.5772068858285652 0.0
9.565795671866349 2.345573662774494 0.0
8.830758563027459 9.247271599108435 0.0
8.523580738257648 4.88015211128435 0.0
5.580123316488715 5.701889892660689 0.0
5.398591029446707 5.685938459654249 0.0
5.367686360823392 1.778740548277203 0.0
9.546603444041448 1.754984055696778 0.0
9.489649223089446 1.641312329051244 0.0
9.617973952467912 3.363804764345866 0.0
9.584322830999731 6.729956156156573 0.0
9.597221861144487 3.948534024289882 0.0
9.49401963819799 8.089507968561776 0.0
9.207321074262563 9.416906871900888 0.0
8.27185428346661 4.464932191097996 0.0
8.207416067213774 4.35878753684812 0.0
8.332747746635944 4.354903699457511 0.0
3.990181919126853 3.930792395858886 0.0
8.267392138262498 4.254008221702929 0.0
7.997788712685495 1.196805377512679 0.0
9.600316638269724 5.639973985281733 0.0
9.550939606739425 5.737313319038155 0.0
9.44084303195315 5.74233753256161 0.0
9.50112296154558 5.834555019909565 0.0
8.897429225733994 6.685415510921676 0.0
8.762930941408914 6.695907295903629 0.0
8.654628175336732 9.278157371342388 0.0
8.544676900803436 9.133790942553834 0.0
5.294904777716057 5.855935872688884 0.0
5.216749389964556 5.66865685845661 0.0
9.508453581298625 2.239460033375932 0.0
9.599691370793206 3.169496930704394 0.0
9.546615051106684 3.073514534194011 0.0
7.484714626923596 5.028675123117963 0.0
9.588496050271255 7.850836295555126 0.0
5.153197381012662 1.471340286561097 0.0
9.433168304679345 3.071871997104804 0.0
9.610464706874994 5.829217654498672 0.0
9.561407772947403 5.926179534044419 0.0
8.273381980676042 5.705233340662362 0.0
8.330794188929296 5.594351887246082 0.0
8.207319603076424 5.596747949305344 0.0
7.251338559467102 5.233758892662348 0.0
8.708518799790543 1.130513882092466 0.0
9.590155250193266 0.5878623138195824 0.0
9.389919385420015 5.841079912164009 0.0
7.991397852194216 5.859910582924319 0.0
9.624951589233206 4.975554514425905 0.0
7.240016788025947 2.531866266726309 0.0
7.635666783493215 3.873554782053258 0.0
9.608476620993713 1.863530872936442 0.0
9.365330459496413 8.10677840682376 0.0
8.775076110585598 2.572737931759856 0.0
8.699389445914996 2.444602334375113 0.0
8.625078713232146 2.580891022578613 0.0
8.54447196848446 2.447624719286678 0.0
8.468898498943965 2.586757328881282 0.0
8.62282309213608 2.307826916202421 0.0
9.622102662978762 6.439307895185218 0.0
9.561995355724862 6.35103962032292 0.0
3.898245450818314 1.856155797593496 0.0
9.681759177700954 5.07069253017652 0.0
9.059254996454502 4.963357716933865 0.0
9.113144532326562 4.861710138088372 0.0
9.62140874877204 2.656009146517733 0.0
7.884510615470827 0.9666888912541309 0.0
8.14902661050739 1.005010215149227 0.0
8.491263206618079 8.527197931363634 0.0
8.408859203395778 8.697060715788105 0.0
6.54422152733529 1.954566069381189 0.0
9.563546573097593 2.755667904356369 0.0
9.453065492925557 2.761122255953964 0.0
9.676889098520615 2.755084315170127 0.0
9.678287124781653 2.556838324720633 0.0
2.60254317790297 2.278874965850319 0.0
9.211706272534968 4.050470567310489 0.0
8.526711683538949 5.698821878547752 0.0
8.296604023060945 8.533761944401608 0.0
9.649704314258118 5.543946557831669 0.0
9.651176136337964 3.85122804518279 0.0
9.44590154800397 9.498503704959054 0.0
9.580491248736612 9.476376347552954 0.0
4.3239388803087 3.921156392977062 0.0
9.65737873521736 3.075324100817917 0.0
8.128000846282253 6.160273991836929 0.0
8.06242981852327 6.292371360998262 0.0
8.500465019503922 1.442700595221201 0.0
9.615253212967009 1.649819368149096 0.0
9.561768620580791 1.538553925606111 0.0
9.435477757657937 1.527391516499924 0.0
9.627993450010088 2.242685831452484 0.0
9.5338252733548 0.4673994795805215 0.0
9.398055066504014 0.4589059948533885 0.0
9.669486082509058 5.920177035588319 0.0
9.621072177439727 6.016493814615133 0.0
9.506185962103057 6.018397021409126 0.0
9.196884440497488 7.898824858961557 0.0
9.112591143666748 7.789491461180181 0.0
9.664357762385308 7.950712034233033 0.0
8.46233617997115 2.308903464128035 0.0
8.547917980328803 2.169381684694277 0.0
8.139931430059324 6.410762600521521 0.0
7.672499127532963 9.099143622036436 0.0
7.91372855627271 9.178704612763656 0.0
8.463425076318451 9.290653726808348 0.0
9.643938029094286 9.335632419679458 0.0
9.647017668702574 0.7068996148634754 0.0
6.241662276606473 5.884018212993202 0.0
6.157742245066693 5.73500474100449 0.0
6.318815619949124 5.730068085823802 0.0
6.247706374231452 5.593094310939028 0.0
6.406948541886973 5.593272398468375 0.0
6.092564106310554 5.587409338401505 0.0
8.535507922245372 5.286142900439676 0.0
8.022959839404006 4.471630490587016 0.0
7.963561162854596 4.581393556789843 0.0
9.683487139413305 1.546750704925431 0.0
9.630761777960082 1.435922217091829 0.0
5.121714348989337 7.950140247572198 0.0
5.136464096196084 8.310254432483559 0.0
5.47349124035624 8.455234262268478 0.0
5.176273618280354 8.687190323573228 0.0
4.796664658962938 8.592678692862421 0.0
9.568705729418735 4.887269869750176 0.0
9.462711651199594 4.88832222094458 0.0
9.674903475028225 4.882285174433025 0.0
5.4996067353406 5.546583260717527 0.0
5.663632234555963 5.557613452957074 0.0
6.829408195405585 1.947174574944512 0.0
5.336529198289861 1.127585641139875 0.0
9.672387559812332 6.34138351957329 0.0
4.463988917379896 2.271060678869338 0.0
8.618048281355405 6.263841736419089 0.0
6.480949808711781 5.74815588680617 0.0
6.562207427719153 5.592185077216444 0.0
6.643040463857446 5.721233693378952 0.0
6.712825900331884 5.588664360236 0.0
6.79240375630333 5.711383948285569 0.0
6.86115931532141 5.584697050428064 0.0
6.939210100691576 5.704407337029545 0.0
7.007668476576536 5.580801046893123 0.0
7.084627386867475 5.702817970154801 0.0
6.633257976075473 5.460881327825488 0.0
6.931430743764456 5.461960451448691 0.0
9.682652370938209 6.533133024505995 0.0
8.761108695241376 9.450742747770144 0.0
9.146031326900015 3.764292700000154 0.0
9.089378801805193 3.661317181076136 0.0
9.514354521818781 8.994988681611192 0.0
8.157650730500988 4.262987189670279 0.0
6.329633198899328 5.4647789391701 0.0
2.340685767996258 2.811285337457589 0.0
7.379572471323651 0.9290892725587991 0.0
4.171878172186605 4.222320767259098 0.0
4.4876601621649 4.16473354200826 0.0
5.336389369563535 6.806464508860387 0.0
9.595468321212476 9.108133206829102 0.0
9.645038675267227 8.982113951305912 0.0
8.393140678816192 4.246338342095281 0.0
8.309440721624494 4.155300532283633 0.0
9.418269339704423 1.9925512363779 0.0
9.662781807969623 0.477809346089035 0.0
8.011297869803792 0.7518828483803571 0.0
8.250149975885678 0.7646904662196189 0.0
9.608674873602773 0.3618049194050078 0.0
8.692696069692623 6.582927327365709 0.0
8.628225948401226 6.705702462696891 0.0
8.701883181418305 6.822086652299242 0.0
8.559276855155542 6.829564723911442 0.0
7.069268463354993 5.459534423493629 0.0
2.654575201159115 3.323490466195074 0.0
3.610801136544596 4.044075244426243 0.0
8.263757217166944 5.48730323490738 0.0
8.138838162809126 5.491254533497952 0.0
7.90196833683664 4.477386962763833 0.0
7.987943097943191 3.978756490171551 0.0
9.704623491880403 3.945605151832784 0.0
9.461009573830147 7.301728818091931 0.0
9.532468631193666 7.399916015174975 0.0
9.582688928417856 7.292330983701011 0.0
9.652579613269625 7.387768793572397 0.0
9.699264016151023 7.282867433965265 0.0
9.633305589700536 7.188543855060478 0.0
9.505576100168666 6.961225778216469 0.0
9.43876966151099 6.342441564206569 0.0
4.908483672172518 6.098703904450545 0.0
9.135448256237908 5.269827196966999 0.0
5.905650502271389 2.025036080946255 0.0
9.709890722072377 9.452748507541063 0.0
9.663337613522643 9.572126259365891 0.0
9.603900123387826 7.495180532331903 0.0
9.720147629525837 7.483400774981126 0.0
9.674588415444239 7.588303295299578 0.0
9.653186673863587 4.039274180923234 0.0
9.053164539680804 4.764545162185531 0.0
9.164908495749003 4.763017269285045 0.0
9.226019227262443 4.858029410614327 0.0
8.809947621994619 3.4964384919072 0.0
9.10538997155458 4.665865142902959 0.0
9.331074106432244 5.748993480915537 0.0
9.055854333858068 7.918554535314415 0.0
9.446431573964945 8.209836764658437 0.0
9.573844810886287 8.191100251691205 0.0
9.309704769895653 8.244395007943949 0.0
7.240329561730736 1.676197957122907 0.0
9.543389817573933 3.660019800390455 0.0
9.598599341122098 3.563130123982772 0.0
9.652615161407017 3.658119804270645 0.0
9.706336063693934 3.564815526226687 0.0
8.632284427755456 6.946688912416058 0.0
9.682863230715835 2.349655023034811 0.0
9.571538455120994 2.142369886250143 0.0
8.090821900439733 9.017409120951333 0.0
6.812258669899192 0.9007667548831626 0.0
6.50135254578461 0.8974046495177885 0.0
9.598335906230732 6.246437748035812 0.0
9.719677442549804 6.253968775436637 0.0
8.593026822691716 5.180101360605356 0.0
5.537586126848265 8.836083861509138 0.0
9.688689404995035 2.143487155934306 0.0
2.821389253975936 6.507820864074362 0.0
9.176571289960709 8.507736431357309 0.0
2.918303740542162 8.256728920338826 0.0
3.428955230180972 8.401446814887457 0.0
8.490587404589881 6.715350139132777 0.0
8.86049054904785 7.243279881821806 0.0
8.93696309213556 7.356650230611625 0.0
3.951931175165697 5.78308550088855 0.0
3.65055612573298 5.91672400098539 0.0
3.668142216548471 6.247526235973777 0.0
9.717269848920886 5.821831227352286 0.0
9.708364917734201 3.164198601626433 0.0
8.45581975650687 4.569560863828342 0.0
8.204448312099833 6.040774355519757 0.0
8.65969449127868 5.485991799508151 0.0
9.707534571012967 5.634423933296901 0.0
9.62102991883279 2.849662850313935 0.0
9.144093558002634 3.560383427867003 0.0
8.29763273805118 1.77155302934031 0.0
5.280452715709455 9.01633391004168 0.0
8.984558945859158 6.99932633710603 0.0
8.4157550875812 1.275784953143711 0.0
2.068078118650995 3.355462780535101 0.0
9.205703884756806 5.568274778556933 0.0
9.745857863753141 7.178456670302003 0.0
9.681628895748586 7.081494416756802 0.0
8.875818787971069 6.240744812097083 0.0
7.993733797566922 6.414830952863579 0.0
8.462810157069566 3.377071044664789 0.0
9.29428363519789 4.759591981903337 0.0
7.933956818298286 5.97437536746848 0.0
9.028281726378319 3.558713145763133 0.0
9.083461773461467 3.455531762175701 0.0
9.73231939683535 2.849247643393067 0.0
6.70072305037728 2.192432536215492 0.0
6.423245125077639 2.212870246546939 0.0
4.931537051605536 1.135086496804522 0.0
4.746426561586179 1.500381091957315 0.0
9.707706579932626 7.836419656220658 0.0
8.590593344701457 1.595639668013959 0.0
8.708946574109854 2.1688179918246 0.0
8.634728854549891 2.028564483452208 0.0
9.230357659411311 8.129337203173913 0.0
9.102841374461482 4.452881308250647 0.0
8.472081531214734 5.388993924853032 0.0
4.925996806199801 5.844046944846857 0.0
4.702806345752284 5.745688656289065 0.0
4.884357002239844 5.633237011762874 0.0
4.709628434300812 5.536404116679045 0.0
4.530800966746534 5.627044171217377 0.0
6.040296145349247 6.603808099703576 0.0
6.162203578696918 6.795213950202512 0.0
5.923135943221574 6.824060069869489 0.0
6.046693245732212 7.010423490915212 0.0
6.297337598588478 6.979895528204233 0.0
7.760448385794147 0.7294020304851334 0.0
8.492228348169641 6.958778476405878 0.0
2.89219822877093 1.704113597264478 0.0
2.26178643438086 1.7814602252425 0.0
9.726968895980871 6.009547057102511 0.0
6.63195110828313 0.6072886418835157 0.0
7.984023036954866 7.515675826210831 0.0
7.893857204140559 7.681876703427663 0.0
7.778465117872411 7.537836322197895 0.0
7.998204230811618 7.844922503023499 0.0
7.798554315988981 7.858161805718108 0.0
7.917846202023782 8.03040048103727 0.0
8.547520504556728 2.721261126162116 0.0
8.39253850806587 2.732073315877738 0.0
8.306047241032278 2.59069854402512 0.0
8.233011054235162 2.739783364361515 0.0
8.318836035587811 2.879838477099622 0.0
8.159530874574331 2.888511553151382 0.0
8.245490421394788 3.024568439743106 0.0
9.759103003747676 3.077839427881478 0.0
8.083610090773394 3.033523757291178 0.0
8.174562583800352 3.166768504406541 0.0
6.046769434852523 1.155662270344939 0.0
6.968371001421964 2.176347877216873 0.0
8.324858098380334 3.152966249334499 0.0
8.145556596142626 2.609897633546475 0.0
8.970652052821418 7.804556541250797 0.0
9.033737629244714 7.681328986528639 0.0
9.62347010002576 4.796939565664328 0.0
9.72520380348743 4.790261082613535 0.0
4.882631186210167 5.455006233451049 0.0
4.618356368594037 3.933076284395493 0.0
4.748083507220199 4.151025177732873 0.0
4.641724290430313 4.358202249373887 0.0
4.87055838101999 4.337900676660481 0.0
4.974114446887331 4.149149057174687 0.0
5.081577844806959 4.3240148266423 0.0
5.179521650033781 4.148725180298481 0.0
5.276261408871418 4.316673822529601 0.0
5.369189110897883 4.148362797753505 0.0
5.463892033849439 4.338819369807593 0.0
5.550828466075906 4.146274465971151 0.0
5.646554822352869 4.303571429647391 0.0
5.728109623160046 4.138582010823754 0.0
5.821689108984419 4.291959598724587 0.0
5.906082534948073 4.141649907302701 0.0
5.99655838673762 4.288752711512514 0.0
6.077312859438928 4.141011188943332 0.0
6.164215275138099 4.281164574562373 0.0
6.241782344986693 4.140701084167517 0.0
6.324316420613108 4.277393447415522 0.0
6.40284165425941 4.140026953305852 0.0
6.483655157361099 4.273418937894759 0.0
6.561170698911611 4.136221843106807 0.0
6.63512300179586 4.269917278694155 0.0
6.720306110251473 4.133393659385058 0.0
6.63777078218551 3.99617001426095 0.0
6.802492763973074 3.994355399489989 0.0
6.798834760478153 4.276914787769972 0.0
6.15377608509923 4.000134206628027 0.0
6.548727135071258 4.400510710520637 0.0
6.251479300130713 4.421887359316258 0.0
5.275876048175579 3.979624500657822 0.0
5.910905077162284 4.431174408784691 0.0
6.717070288412452 3.851239795555301 0.0
6.883499045994213 3.852555480300214 0.0
6.96664848901999 3.994033961856844 0.0
7.048208567116626 3.854750001965969 0.0
5.810004974283072 3.982497501655442 0.0
5.586615391658107 4.471070246359201 0.0
6.547331954052155 3.853872077215347 0.0
5.179081233207816 4.485638492900557 0.0
7.126615227065496 3.995337770596979 0.0
7.209459742762513 3.856893463870469 0.0
7.130226097876905 3.713620439679428 0.0
6.63075064074106 3.699684148676045 0.0
6.446985573861992 3.697358756862005 0.0
7.043151422977365 4.131713936060725 0.0
7.198322215260019 4.129850614748363 0.0
7.119378405252723 4.26005098890218 0.0
4.797146270976422 4.525762781577414 0.0
4.608329098388589 4.573584257851931 0.0
7.294442092743627 3.720853338661503 0.0
7.215753312764997 3.571378507508807 0.0
7.049631633956289 3.568047985538775 0.0
7.133765707749521 3.414282375958479 0.0
9.755079417839903 5.539705890434435 0.0
9.698955703441971 5.450920012703194 0.0
9.717604099406742 9.09084770432896 0.0
9.276716006673976 5.847248422342224 0.0
9.339081208926798 5.941174203394446 0.0
9.031261921742963 3.750271483819014 0.0
9.08721978689863 3.853416037308712 0.0
4.801461566647803 7.510704110489921 0.0
8.206553504932042 5.818005960412773 0.0
7.362361315389098 3.863102442315545 0.0
9.492826845316191 2.963845037486267 0.0
9.376710375304633 2.97229517374228 0.0
9.3192743723601 3.070687802230453 0.0
7.915389082113898 6.293241865913004 0.0
6.735006382384437 5.832450056405368 0.0
8.456481836836168 4.35369289249905 0.0
8.517718268476031 4.246675068616396 0.0
5.583512022030555 5.411069060406398 0.0
5.73625200174779 5.422617752052123 0.0
5.81006929286229 5.548584937688919 0.0
5.903438861894402 5.420604003204523 0.0
5.43801870974416 5.402925156167655 0.0
7.022641548594327 5.825217331839047 0.0
7.165095795605366 5.826005223633447 0.0
7.223078558430726 5.690146755650336 0.0
7.841396000338385 4.586693006493787 0.0
7.904793170875705 4.690826189066096 0.0
7.785999820520073 4.696719777099973 0.0
7.846448506395101 4.798518978096564 0.0
7.728149182067156 4.803800941124008 0.0
7.788983823826226 4.904802634695232 0.0
7.672018889153144 4.910077510508749 0.0
7.731996012352178 5.014717724244488 0.0
7.852072803124419 5.00743796185411 0.0
7.779278698005006 5.118909346425974 0.0
8.088113864063853 5.605434545811022 0.0
8.016457362785575 5.494849890158723 0.0
8.072290383394757 5.385594956317259 0.0
7.95068657972964 5.38825563681957 0.0
8.309366678475389 1.438342408757099 0.0
9.748160780780179 1.447794693754379 0.0
9.696454228162398 1.337889922375316 0.0
9.568813761940916 1.329560834053294 0.0
9.638326779791626 1.226729570935787 0.0
8.472132467407484 5.182856496818138 0.0
8.066211547412054 6.53691730655352 0.0
8.217035586462373 6.522976700918602 0.0
3.544839338670893 3.324491119989469 0.0
6.999740002965287 5.347729916247808 0.0
6.874544698914502 5.347027470386579 0.0
4.880451234715014 5.193043717957879 0.0
9.104510033763066 9.313204713465637 0.0
9.0466357104558 9.45359399494339 0.0
9.146803165140184 9.569652364413551 0.0
8.134107047896672 0.5527712356100052 0.0
8.369770412730738 0.5571215815175228 0.0
8.47386979744655 0.7564607169846485 0.0
8.585193608569258 0.5749174254532757 0.0
8.683868132726584 0.75505070091701 0.0
8.787381435061018 0.5813987798627239 0.0
8.697570280442534 0.3771156480326233 0.0
8.530048434259976 5.077280516000916 0.0
7.995091351438729 2.90367515012593 0.0
9.731083608815164 1.662638626153251 0.0
7.260488865351954 4.255073962371814 0.0
9.760728358076392 8.990038509880067 0.0
9.716710396257366 8.884160310398862 0.0
8.794627466210242 7.369659405098349 0.0
8.868068657550866 7.515048014893154 0.0
8.702594597629135 7.510501129643432 0.0
5.132320689147051 0.7610757801158905 0.0
9.755852887652699 3.853180024615871 0.0
9.787424819067885 2.757921105725315 0.0
9.731193479931608 0.3736343090103709 0.0
9.796526908308536 0.489684029254899 0.0
8.226019692057042 2.453349105940535 0.0
4.560989821496479 5.428206018250252 0.0
4.348810639659689 5.517048281386008 0.0
8.785190163106925 7.119142251269924 0.0
9.015515413043023 7.464769766852701 0.0
9.754861440190705 3.659036930324926 0.0
9.7543610723378 4.033687839160082 0.0
9.707881226943384 4.127219992296752 0.0
9.52841017383273 8.309020665649431 0.0
9.65186044414544 8.289498614805698 0.0
9.714051275521857 8.173576484362068 0.0
8.209758892476394 8.715513071423135 0.0
8.097084883671858 8.548851201381087 0.0
8.177989947800599 8.367872862579052 0.0
7.974142434808908 8.36779470623567 0.0
8.409012054919861 2.142624252464372 0.0
7.707002321497132 8.039129945341395 0.0
7.574653123518228 7.83895791570255 0.0
9.229858094382692 5.951357214361815 0.0
9.75307989876696 1.229893222503321 0.0
9.715811155868643 1.128779429890018 0.0
9.597960915003707 1.117058287635912 0.0
9.672063923518955 1.020806103150243 0.0
8.99090422125785 9.593878510105375 0.0
8.133165456134304 9.257620998029804 0.0
7.976779931497633 9.420725324095141 0.0
9.77231778617502 7.927819487779705 0.0
7.957213679655531 4.364530256281665 0.0
9.609903116082736 8.403725680286847 0.0
9.724891358972584 8.388392708395173 0.0
9.687487059868507 8.495935345161797 0.0
9.810055520269009 8.494090598382963 0.0
9.755967487162335 8.599790818513082 0.0
9.645698986824481 8.606121319182705 0.0
9.721376049217765 8.699989876681524 0.0
9.773009257015609 4.884557953188837 0.0
9.830105798750992 4.796546393900876 0.0
9.775335108731761 4.686093304257503 0.0
7.455611517737074 3.730099283949135 0.0
8.906943567829634 0.4197477661467797 0.0
8.980613334153533 0.5814185917581446 0.0
9.081059111759728 0.4263421860552371 0.0
9.821654809259165 3.576985724143072 0.0
9.761309244784803 3.4792267780002 0.0
9.763329553045937 9.353068233045157 0.0
4.463051839136694 1.164440352584939 0.0
8.0213168204867 5.283436382300235 0.0
7.89385412333227 5.290429544753158 0.0
5.806940001023414 8.583716119232427 0.0
5.88977793877374 8.96065112858812 0.0
9.177759062826041 8.25539130897928 0.0
9.626582559276994 2.05283181283147 0.0
9.747673294325121 2.064954301745188 0.0
8.775905508647185 6.951821187702613 0.0
2.3581644273991 6.029034686663493 0.0
9.777798009058461 9.548066962498762 0.0
9.737129197219856 9.662299853506903 0.0
9.615080366030512 9.683349544763068 0.0
3.315839678697904 6.042943273456425 0.0
8.915083018115329 7.937748428923896 0.0
9.489832173860055 4.712364754630572 0.0
8.118313727862493 8.013944064029838 0.0
8.902248750797776 7.67372145952523 0.0
8.954075939212636 3.463080912810881 0.0
9.45247551997678 2.133243108303608 0.0
8.311151553157742 8.899233004613622 0.0
3.28672004268868 6.826745674539142 0.0
9.86008383798735 3.468233656255824 0.0
8.389990589860254 1.947086063498656 0.0
7.144231739553659 5.329544660076687 0.0
9.654500729007207 7.743301971143119 0.0
9.761920842881946 7.740144345898896 0.0
9.692820773976567 0.2651585113981998 0.0
9.690951720399688 6.100517071814821 0.0
9.775704281989471 6.077882312279847 0.0
9.823117117198079 4.115168542267924 0.0
9.764391943581737 4.214465954230587 0.0
9.659455011849253 4.218716850797838 0.0
9.713462125022623 4.30742830316693 0.0
9.849638067150842 4.208845651573708 0.0
6.376241713254513 3.858766051594979 0.0
6.274931849158213 3.701528298009006 0.0
7.097780104117746 1.926449727602711 0.0
2.457742027508782 3.810157622192786 0.0
2.963634206580268 3.740748099915693 0.0
5.065585416063965 5.544355730437482 0.0
9.783560252464587 7.566507987677117 0.0
9.825819294611026 7.470942204664841 0.0
9.799976114123012 1.01659516618323 0.0
9.745559590633832 0.9150866860898854 0.0
8.20473400632469 9.495828670767946 0.0
8.784586030320169 2.054461500762216 0.0
8.758471587067168 1.888286802854785 0.0
0.9188935087347281 8.510730800272478 0.0
9.674192026048217 9.20389587377276 0.0
9.796314981283475 9.185916994648775 0.0
7.206882433199502 5.452024361489832 0.0
9.773927048949279 6.334665846819535 0.0
9.830288393591173 6.225300227041885 0.0
8.25177349297509 3.282767705830209 0.0
8.099233469407428 3.304040153764131 0.0
9.607860512870598 4.315652630490023 0.0
9.403674738018715 8.367349042046314 0.0
7.611756786273919 5.018691202305147 0.0
7.549513964643336 4.923310232561835 0.0
9.80986724662116 0.2915868356190958 0.0
0.7757562810577034 3.504187313079081 0.0
7.659562100664981 4.698467529240196 0.0
6.539424975891206 3.541729955691742 0.0
6.717348880400739 3.55221857686142 0.0
6.836337579501807 2.417476958454302 0.0
7.096480496160066 5.959124656438389 0.0
7.189742782777612 4.377051328076039 0.0
7.051723187622053 4.38470822973091 0.0
7.125489805519186 4.497018383456762 0.0
6.994915621927777 4.501504591168814 0.0
7.056755276274058 4.607929817497045 0.0
6.932937068803914 4.613249390039674 0.0
6.86629288290367 4.50541343988659 0.0
6.80427099775847 4.617607827251794 0.0
6.739195362053689 4.511124964201849 0.0
6.677260697693361 4.624288827143181 0.0
6.996760608675822 4.711715831373894 0.0
6.316045249462968 0.6456945497683586 0.0
7.321834163850416 5.816449323512759 0.0
7.833101485370825 4.390058096386987 0.0
4.996572652976738 4.498711166259074 0.0
5.112334577457371 4.663858846723513 0.0
5.271923064784868 4.629759173373871 0.0
4.93773508827367 4.668006487116195 0.0
5.348137647919096 4.485934621930562 0.0
5.413454827497575 4.62999925573761 0.0
5.356581113747675 4.770594395332836 0.0
5.013422223730484 4.793321773780133 0.0
8.58674425943957 0.9312335381466886 0.0
8.776450596582496 0.9362399987293505 0.0
4.783496233934828 9.486061758876032 0.0
4.544176394620909 9.034071856445296 0.0
4.082330493623582 9.015765881393772 0.0
9.820867469965414 7.285959215547852 0.0
9.852697883440127 7.166089674802766 0.0
9.260999083164238 2.971390964911171 0.0
9.197701900169713 3.073162109379564 0.0
9.31960210441945 2.867465579641856 0.0
6.660951583415121 3.383363199709994 0.0
5.210469976037585 4.761678854423166 0.0
6.740780285297665 4.733615686805694 0.0
6.611362405615225 4.731958642073806 0.0
6.549091884465382 4.629620704100811 0.0
6.491761716522486 4.733409494449344 0.0
6.425259228542098 4.640546096196947 0.0
9.715556659367534 2.986725573570596 0.0
3.710524324925069 9.463213827486557 0.0
4.768537031214573 4.727001037865238 0.0
5.039413681704655 5.378508462165627 0.0
5.188746429211535 5.440476671296013 0.0
5.172214816037712 5.298914527247826 0.0
4.469063601436893 3.667917323494335 0.0
3.799121596584382 4.741629285988305 0.0
3.661085664896249 4.442847704416992 0.0
3.316563386321876 4.380147387454913 0.0
3.802087298647255 5.26743535640985 0.0
9.738116341343215 8.047178982429934 0.0
9.85106076399546 8.021725551312715 0.0
9.837581050304836 2.844176011307251 0.0
9.664579962075123 4.402853107737106 0.0
9.76433159763034 4.39807801415352 0.0
9.718924973226878 4.487825491046641 0.0
9.826405563645343 4.494594135148365 0.0
4.931068003413168 6.359330991212394 0.0
5.130175746947236 6.201075257041828 0.0
5.143884286052002 6.445382329515047 0.0
4.953395875296406 6.628748468717369 0.0
7.833019185167153 5.400347121613631 0.0
7.766636138801143 5.313240048256084 0.0
9.767038723422333 4.578090619166644 0.0
7.315369355237483 3.441501197259575 0.0
9.556068971301514 0.2347811136726856 0.0
5.733871280791703 4.444861510772459 0.0
5.828809543126846 4.569791247698539 0.0
5.986701526182213 4.562881783985375 0.0
5.912543327921148 4.692966271273211 0.0
6.052130330528581 4.682477327897978 0.0
5.773525984744635 4.697697018456535 0.0
6.121646311546238 4.572302645403103 0.0
6.182349700936326 4.67713231096357 0.0
5.846371383601797 4.808939734754761 0.0
5.117807918383606 5.974361363083184 0.0
6.256132501905665 4.575863546153224 0.0
6.324770064521816 9.645040261272253 0.0
7.345522892050965 4.12581088034536 0.0
9.338523512844539 4.854480276600515 0.0
9.286984287289403 4.959628690044808 0.0
5.676298026114105 4.589279806918992 0.0
5.631257891894775 4.722749088404111 0.0
7.970415275563177 5.621040275419208 0.0
9.565118337557308 7.081391220827488 0.0
9.626201005045262 6.980441083020495 0.0
9.733729506193331 6.979928568877979 0.0
9.684556253529976 6.887102896543928 0.0
9.780785815410074 6.890287441101827 0.0
9.740054813822885 6.794211367612523 0.0
6.462628988057306 7.629921412015864 0.0
6.692564520952154 7.473594130811262 0.0
6.927983108788191 7.570982428592125 0.0
6.899878641134941 7.329306734748538 0.0
7.117542472438434 7.416951094809493 0.0
7.089537168123128 7.186691566729968 0.0
7.296585396514727 7.275888419524222 0.0
6.879678873774065 7.097443005287856 0.0
7.063454637059129 6.967740076426161 0.0
7.329105042924355 7.496317641003757 0.0
6.867084781778411 6.878842928865059 0.0
7.494278796275744 7.351949197351029 0.0
7.462564159480594 7.150140034494138 0.0
7.644835001206406 7.21506678718646 0.0
6.682478929414216 7.008358327294905 0.0
6.449199855715812 7.365660640952548 0.0
7.548139855358765 7.57299228324251 0.0
7.008502809092701 7.844601794812628 0.0
7.371739019901781 7.707688433423657 0.0
5.665345294602155 5.290628720253272 0.0
3.987583013016546 4.486920698115711 0.0
8.893480480320447 0.7785000884179994 0.0
9.715485963651112 0.5955299613117169 0.0
9.761785841543585 0.7048670948649375 0.0
9.670304314877074 4.578896619304786 0.0
8.058509626083154 5.744161686650483 0.0
6.181795443628869 5.462040811515966 0.0
6.256771804808641 5.338464817889848 0.0
6.124070400983443 5.352376180901929 0.0
6.399679261813415 5.349186390888865 0.0
6.477776305607503 5.46505688468465 0.0
6.541624525938461 5.346017118512589 0.0
6.673064575428321 5.339051516933525 0.0
6.599301548842115 5.241958624987057 0.0
9.573774011620444 0.815274945835158 0.0
5.86493292693426 5.877588788523632 0.0
5.552663040119136 6.957487930464628 0.0
5.535080960199246 6.663033131707637 0.0
3.708603689392072 0.5979254716153909 0.0
3.31896983256719 1.188583855309964 0.0
3.895664898001925 1.128137111173669 0.0
6.363360407965353 6.032416442205533 0.0
9.445959758065749 1.070139246426051 0.0
9.50632172780449 1.214052376665338 0.0
9.441030033980638 1.325047485624912 0.0
9.295799464644857 1.341410624832976 0.0
9.184164107767781 1.461677744200096 0.0
6.407191016756832 4.407273313799791 0.0
5.544591888593027 0.7652641669375747 0.0
7.883090151006535 2.497506182548758 0.0
8.073420508370992 2.120510489750234 0.0
5.494822040671399 4.732314720081375 0.0
0.8986976806403217 1.464611451578306 0.0
9.536325549598013 6.83286654168725 0.0
5.972289519322897 5.727532110854501 0.0
9.82203607053145 9.443411729566549 0.0
7.263199949874008 7.064207941227515 0.0
7.233659553805083 6.853135694774254 0.0
9.793310082768443 7.072747972018893 0.0
6.734168931095253 9.67499220075154 0.0
6.941134861034159 9.382328333169653 0.0
7.285822522704258 9.443989747444657 0.0
6.576263515512108 9.333035011158342 0.0
7.160560566479093 9.127732577621245 0.0
6.218711947378506 9.298064908857533 0.0
6.432383355119106 8.980985203293491 0.0
6.795390278360442 9.046043538032663 0.0
8.54677014121837 0.1957422484480979 0.0
8.528696320820908 9.804850950580938 0.0
8.42644965647489 9.604735484095604 0.0
8.010239224104339 9.715048083583248 0.0
8.644359648763341 9.628432815860457 0.0
5.344212921686536 5.526744195650314 0.0
9.760936589662048 7.38409687515441 0.0
9.128187788393989 0.1445485608215519 0.0
9.133307661752394 9.854833215426817 0.0
4.867351616228264 3.944459575003425 0.0
5.905323253270366 7.385600364255367 0.0
5.909045412185362 3.361969954191194 0.0
5.80580919758911 3.569999290452344 0.0
5.578230704221431 3.587842862412673 0.0
6.013352753603037 3.550699073477782 0.0
5.936624955014758 3.721630401607248 0.0
5.735413275357409 3.78528948606432 0.0
5.512538847486775 3.794760621907932 0.0
5.360571639388366 3.618649018042938 0.0
5.134141179590394 3.459385929220745 0.0
6.167399567008798 3.367365990358096 0.0
9.766756262206602 8.291756450136036 0.0
5.486063578307141 9.64505925252771 0.0
9.497624614180321 4.328873442170357 0.0
9.811387324954623 1.570516917365688 0.0
9.389210081887331 4.69150887571586 0.0
9.704395728912932 3.754226393630331 0.0
9.808172776193384 3.748784464356272 0.0
6.549660911932182 4.839747932361234 0.0
6.757415124099031 6.077939876843736 0.0
3.805578542126494 8.040840085419626 0.0
4.232580149691158 8.198659880701744 0.0
4.559765382564095 7.87091698350757 0.0
8.3829075948167 0.9495097054886067 0.0
9.8571301061408 1.456307792614791 0.0
2.005900212453279 4.535525273813588 0.0
1.85904408608185 3.956445706785572 0.0
1.979307922430775 5.474327285927505 0.0
4.387923194305381 4.427191306527721 0.0
9.429258370703248 8.873693567695483 0.0
8.99196583083892 4.664567567015693 0.0
3.050357122593155 5.368999067452741 0.0
2.861107385476722 5.785089447130829 0.0
5.005058958272409 3.711196438448062 0.0
9.8972295764837 2.755337284632969 0.0
9.581048890980513 8.853909321617065 0.0
9.668838904423916 1.762418716497425 0.0
9.716576458425756 1.852218615166234 0.0
9.799043132681442 1.780583141193779 0.0
7.661868217848455 2.880323287492419 0.0
6.780136552904057 5.443858690999834 0.0
6.489544866845868 5.913957888434588 0.0
6.880149522020364 4.134257616716107 0.0
6.970134365280068 4.264072319341612 0.0
2.225481516813409 9.348422240784 0.0
1.843418032490818 8.641605249943353 0.0
2.198000805242772 0.6459947140825729 0.0
8.740020306282506 0.1903932731609072 0.0
6.86957996016679 4.720776242956433 0.0
7.430920333506809 0.2702852342693345 0.0
7.302066064947383 0.6134316505458445 0.0
9.305398039877746 4.64854361125207 0.0
4.078151380865065 5.203425462519088 0.0
4.080704120371218 4.778853303303787 0.0
8.052525541571825 5.965483159581719 0.0
6.367194027835946 4.754896037842673 0.0
8.604191121620719 7.648182513679963 0.0
9.546446695207845 9.234701521982952 0.0
9.018652854946867 3.351011585453845 0.0
9.143853648154607 3.350173119015413 0.0
9.067079866763024 3.245174561579149 0.0
8.991492136849105 3.135578770028028 0.0
9.29603967712795 0.1426516429033488 0.0
9.392428271030795 0.2506306237151588 0.0
9.223973843394301 0.2912279164401488 0.0
8.39375191941536 3.018777714002827 0.0
8.4836475746111 2.88135207267795 0.0
8.741089053946197 9.821127577434911 0.0
9.803966507713174 5.448064463539533 0.0
9.748132240148552 5.359371181503531 0.0
9.850258990973547 5.355211921626304 0.0
9.7965346514158 5.266762244994661 0.0
9.84142096963129 5.171050273734619 0.0
9.738843612428232 5.167483913244169 0.0
9.64168976006725 5.359875132194057 0.0
3.335917453809221 5.671837672982919 0.0
6.962669142802881 1.683222554707996 0.0
7.365210844496719 1.887492842536114 0.0
7.517378971174123 1.677983072937792 0.0
8.00383870208024 6.089394601875145 0.0
1.725435941000569 2.759295503019395 0.0
7.907977929549089 5.102827208603365 0.0
8.052861051278896 0.2683271125209605 0.0
9.80169732768395 3.385443381464333 0.0
9.831597648680848 3.28491948963525 0.0
9.736335895866404 3.316207814499244 0.0
9.597256128490281 3.756160701977744 0.0
8.865819925321706 3.366235906378775 0.0
8.489614436807788 1.757152185195495 0.0
8.88089641144391 1.078983279100314 0.0
7.430923851187758 9.724389499796425 0.0
7.584252919312249 9.509430586267927 0.0
9.744026095940516 2.247117754488748 0.0
9.729961521243718 2.659836747108116 0.0
9.790866569780063 2.558993767350471 0.0
9.736606445116795 2.455104424879619 0.0
9.846806182714698 2.452157456754448 0.0
4.518102112052724 5.141350889745285 0.0
4.519880229178207 4.85678334497067 0.0
9.7302407894617 6.434012603549242 0.0
9.787537474544765 6.523591663056312 0.0
9.744262337067932 6.617499601377625 0.0
9.8406238811518 6.41591236129004 0.0
8.914967252734657 3.579360039684312 0.0
9.154797282599406 5.670753066089419 0.0
4.228839454580575 4.612979739018002 0.0
6.095037541675208 4.42126627187728 0.0
9.304166983880842 9.864854494751789 0.0
9.406445527105628 9.759007358529582 0.0
9.256225114941945 9.700832989525724 0.0
9.796206564635622 2.351215649506205 0.0
9.849373673349081 2.25090453834006 0.0
6.332048155295931 3.511675163099286 0.0
9.069679774213784 3.022879178706259 0.0
9.070599961450037 9.055284879641471 0.0
1.808685691036764 6.331557276533421 0.0
7.120156826652838 4.698481230214924 0.0
7.052894345811342 4.799848851879358 0.0
4.739957520484086 5.369107149361242 0.0
9.389197839958292 7.197139943834638 0.0
9.046688232613976 4.560364044038737 0.0
9.162685461967492 4.562194096410666 0.0
4.227377821420887 1.564128177298305 0.0
9.201090975245227 2.794301402811909 0.0
9.251941624303948 2.677556975242327 0.0
9.186758273070138 2.563916005021366 0.0
9.317609833868786 2.560335260954038 0.0
6.57599191748324 2.437689779955877 0.0
6.305556560534859 2.459112595979303 0.0
6.981058048792093 2.642476994448363 0.0
9.886113463139504 6.510498309609482 0.0
9.250462794607717 6.221362629571698 0.0
9.305373999084068 6.108271307139882 0.0
9.390477915810829 6.228015172491477 0.0
9.44452571968143 6.114582165110393 0.0
9.502105740270528 6.197677857389309 0.0
9.31559697209813 6.331647407124485 0.0
9.370938253597153 6.437386206819511 0.0
9.594764406124872 0.1099001288712305 0.0
9.602872681151728 9.894988341116305 0.0
9.622661196143387 8.076680696281343 0.0
9.769069277144705 5.9102532189237 0.0
2.615076109785583 8.807551523115547 0.0
9.658920005405456 5.730890135691177 0.0
9.76063135061807 5.720703211793342 0.0
8.63963723169499 7.177334225227945 0.0
7.841904391869763 6.41346852896409 0.0
7.764520718520185 6.297267738834625 0.0
9.546492996136271 3.465225175657335 0.0
9.25600964352143 2.219157062786616 0.0
7.625057159226293 7.012987957636062 0.0
9.529121062829038 7.730283486008674 0.0
8.329887090625894 3.845190321147069 0.0
8.265841850823831 3.95687001944245 0.0
8.402006523775544 3.947660780406651 0.0
8.128436391670505 3.968543393650448 0.0
8.46705122470662 3.835767362024195 0.0
8.218867047074696 4.063481375518748 0.0
8.089763413611255 4.08062363292928 0.0
7.939578083855268 4.111915744184436 0.0
3.74991304509639 6.615676756107112 0.0
2.627714335615619 1.170993030860914 0.0
7.046129971268607 6.759930788612616 0.0
8.534603732661887 7.486325780553722 0.0
1.569381386467569 2.042794535871475 0.0
6.228703743210918 1.986421863690014 0.0
6.467030855792859 2.67190498312861 0.0
9.272246093269825 1.975478263632296 0.0
8.05269609263041 3.854522845257449 0.0
8.008595521536957 3.177870309354594 0.0
7.929796740504207 3.350600835935766 0.0
8.048703574664067 3.449582532910417 0.0
9.72947480375618 4.973926800124758 0.0
9.784850360535604 5.072865219810449 0.0
9.896036387646596 5.069261557893528 0.0
9.633140953203334 5.168645132864771 0.0
9.558102991128836 7.602453108835212 0.0
7.278758746505716 3.994295887299482 0.0
8.306681733482405 6.936428510427854 0.0
9.487163072013963 3.757777670075558 0.0
9.532950522284125 5.359403698944497 0.0
9.816036650072329 3.927268437107025 0.0
6.173882586235392 8.734645960664665 0.0
7.972518459433741 5.003005338485466 0.0
8.398453459336153 1.601072016988848 0.0
8.97460527296194 4.040886705742754 0.0
9.037941657530773 4.143578781749325 0.0
8.849604200183613 3.828506169652706 0.0
9.545296177100065 4.042698359132156 0.0
8.595941796785514 5.806754902023664 0.0
8.65588412428292 5.694192853853139 0.0
8.723710665131787 5.801528918332044 0.0
6.861288985046249 6.673713222735126 0.0
8.87477249219366 4.664500928777609 0.0
8.72385765226959 3.608276264790996 0.0
7.145228858696953 5.573648565429618 0.0
7.282945121585866 5.558559688509987 0.0
9.224761401603633 1.602363370249125 0.0
9.609115686587552 2.986868833620756 0.0
9.633989947851914 6.628120633848649 0.0
6.046214325132457 5.45615093027661 0.0
9.017014346798927 5.271996636983457 0.0
9.070824864071271 5.168510834798647 0.0
9.189021391555556 5.166867900487267 0.0
9.123328759137758 5.064718588163964 0.0
9.240587446378079 5.06459430516883 0.0
9.250848280531756 5.267364371053135 0.0
5.773050603406019 5.7192906317521 0.0
8.576466432793914 4.3559007860436 0.0
8.634627802680399 4.253467736542067 0.0
8.461790117175607 5.591735227444779 0.0
8.907610717370224 3.713397213891439 0.0
9.80665594564509 5.628066492225966 0.0
8.985935132601089 4.455263493464225 0.0
9.00640209566022 5.067597672073404 0.0
9.833659276096986 6.976519563917422 0.0
8.0283368553477 4.687271895436317 0.0
8.326580191759327 9.127498457128247 0.0
8.650637373791266 5.07513089931925 0.0
8.701067313435203 2.700069743477523 0.0
4.825307249916392 4.884175191874744 0.0
9.418335984190309 6.858444798015129 0.0
3.91434687300816 8.542956908935874 0.0
5.569239724399552 2.064135034637056 0.0
5.234271567762738 2.128974435011933 0.0
5.757920427527626 2.312422707096966 0.0
5.43365689737979 2.427455772745759 0.0
5.673210219624612 2.602111218343444 0.0
7.214258468265766 6.652783071431555 0.0
9.823626269633962 4.30685540664529 0.0
7.96996639420014 4.794005510174826 0.0
7.616003332725032 0.502676560965646 0.0
3.050634530589821 4.659174799474146 0.0
2.870894249800723 4.246924313393336 0.0
5.285393339952368 6.079037173753393 0.0
9.439954241218905 4.23581687956071 0.0
9.67709722097145 4.710772408106511 0.0
7.40767785509217 4.259947873553335 0.0
8.396202587439676 5.486075637998701 0.0
8.323689688705493 5.372061002264632 0.0
8.191312386254125 5.384662546230823 0.0
5.304380054816289 5.369675374029755 0.0
9.093848379546637 4.047647920840374 0.0
7.916313220758624 3.045043876114836 0.0
8.435854831444637 4.144861908356168 0.0
9.060262453079693 0.7340576053322918 0.0
7.053195520344596 5.238809779682351 0.0
9.621762679347093 2.45205452967588 0.0
8.410730269104743 5.287995309529392 0.0
9.655094569234972 3.472720279371932 0.0
7.982140513923982 6.667914768024983 0.0
8.402690325256646 4.883576657130221 0.0
9.17488654147479 4.962006474835693 0.0
9.013188196102961 8.49700148123058 0.0
9.795977244531603 2.156818021002043 0.0
9.893813711206834 9.545820400859157 0.0
7.965349232662289 4.250048884270795 0.0
8.644264557989125 4.874751532150782 0.0
8.215430976121077 1.26077208565765 0.0
8.379717637669398 8.37324652769609 0.0
9.320026533461409 5.559861899725609 0.0
7.885778178744864 0.4977439426642278 0.0
7.547066983926719 5.125166613071239 0.0
7.657542898944819 5.122996245335209 0.0
7.423918840193691 9.000935553397358 0.0
9.854133000712425 5.541931969512857 0.0
9.328508174398952 2.101486405523264 0.0
9.300749600926641 9.530012105354274 0.0
8.130307182491519 5.277079344947874 0.0
8.346752967392757 4.987627363826086 0.0
9.118404185029991 6.007087846617186 0.0
9.048232213728614 5.89431792713258 0.0
9.088340967655858 5.576242562571367 0.0
8.094762487139027 4.789727191449318 0.0
9.915265904493378 5.749591413470928 0.0
9.92169805280126 6.154216704502091 0.0
9.918022441582268 4.549125436287157 0.0
9.919332362905616 4.849536560132457 0.0
9.914800786693318 6.750595509794719 0.0
9.811792900437824 6.703950687575952 0.0
9.900643083988882 3.749855087409844 0.0
9.912423171222734 3.043228996968949 0.0
9.91892875832665 5.949999999993851 0.0
9.913300070218703 3.960831593817277 0.0
7.709347001661226 4.444236534782706 0.0
7.479443107717332 8.071637285053104 0.0
8.839057072155848 6.807845119358974 0.0
8.972330068019902 6.78765448182788 0.0
8.542093772125282 3.941452413628317 0.0
8.279144752968262 5.930387616620717 0.0
9.393455876855919 4.973162505621418 0.0
9.507123333872533 2.855087674515822 0.0
8.77504684283825 2.317347145885344 0.0
8.394133129040345 4.464046960801843 0.0
5.725509852450801 8.210843960481027 0.0
5.62632390239664 3.967637659758752 0.0
7.910815814627989 4.900765971697654 0.0
8.595808444085467 5.590040244353608 0.0
9.705160502006024 0.8106158419444889 0.0
9.82021247904746 0.808810893177099 0.0
9.218352146075844 4.447736986422823 0.0
9.20781892622228 3.858281726888132 0.0
8.713609974387523 5.178241668554946 0.0
3.55755059259364 8.921522400238844 0.0
9.59122926011489 5.452844834281716 0.0
9.70565100407009 9.77887811062354 0.0
9.826938454219809 9.74303055702321 0.0
7.238962096855633 3.278078153406256 0.0
8.575609105166194 4.567807831727537 0.0
8.936449841121737 4.765835458965493 0.0
5.59323463391086 9.248527978398117 0.0
5.280809113285124 4.886132326418428 0.0
9.328132730893216 6.544753806716806 0.0
9.026944889277736 6.67247283515637 0.0
9.81946239021469 3.007926663525007 0.0
8.677633568960493 6.144049349297466 0.0
8.33427489656924 4.571212803519522 0.0
8.55734024448315 6.382535186588269 0.0
8.692399379422756 6.372347713955898 0.0
8.495817478252626 6.503308565233578 0.0
9.905494734661673 2.544078755559835 0.0
6.177101405266569 7.228490244483556 0.0
9.825373011845263 5.807482724503027 0.0
9.808678508609606 8.118683092442964 0.0
8.397717712407108 7.08010313863416 0.0
7.428555529689225 4.935946611338556 0.0
9.575504958128711 6.125633853639113 0.0
9.154066996197898 4.146562596982661 0.0
8.074381802159323 4.337569667261167 0.0
7.018337246891919 8.843475095716133 0.0
7.970627172560641 2.658650028065857 0.0
7.382546388883145 6.723381543491632 0.0
6.822972334933889 4.884555620881615 0.0
8.343732976791593 6.041576709398377 0.0
7.743680217306919 8.423336160305476 0.0
8.505717922983454 1.115022897794028 0.0
9.113973198216474 6.992972408167606 0.0
5.818882632841168 5.300437503812764 0.0
5.951991891717714 5.279516346785062 0.0
9.450183479138845 5.92934813870612 0.0
8.783346541536119 5.48419035750989 0.0
9.38074895894124 5.65076274999803 0.0
9.513658728876734 7.193620441323493 0.0
6.396040948797887 6.776064256962667 0.0
5.389661780244388 4.89715084345563 0.0
4.473247649068957 5.85935163892416 0.0
9.249586607512612 8.37680799459232 0.0
9.103796366487646 8.379197231055114 0.0
6.274057301184156 4.87985402946409 0.0
9.259628836118232 3.561431822636308 0.0
4.037922477011971 5.489409780163391 0.0
5.62712958624254 4.893925433488392 0.0
8.806426003347967 6.133410188141932 0.0
9.53304466499349 9.59279975429444 0.0
9.542890959420024 1.966631379116419 0.0
7.459736176874619 5.863847835420528 0.0
5.937613117200432 4.89232797168023 0.0
6.171611131472617 4.879541833448487 0.0
6.100695199816815 2.291172318314745 0.0
2.315194906726768 8.081958163666464 0.0
6.878489987598286 5.148099521847569 0.0
9.105264414399338 8.639184652727645 0.0
9.20047261316883 3.457820810661327 0.0
9.895329010385955 7.55944047105717 0.0
9.912742873006831 7.76210330502246 0.0
9.37761459375249 3.168397068877758 0.0
8.946121261512507 6.345629828835438 0.0
9.918632496443566 4.449809517365367 0.0
6.848211525651934 5.945010613369067 0.0
9.915721525903255 2.047407395915179 0.0
6.117255841708726 5.163321965161054 0.0
7.276595248786602 5.347247322210079 0.0
6.32682869954104 5.23674259421017 0.0
8.785886448438022 5.692775375342819 0.0
9.099994401883361 6.776698531382792 0.0
9.913397459621638 0.2499999999998165 0.0
9.910352525643928 0.4481571029410266 0.0
9.907850422008579 0.5479735220323012 0.0
9.911983631350465 9.24778487019403 0.0
9.917634740384067 0.7514684821956668 0.0
9.195214232985496 3.254172408378337 0.0
5.000896927376288 1.846006038077654 0.0
9.917172478547403 8.250155740683276 0.0
9.908120476950126 1.742986232208194 0.0
9.914524635720774 1.949567899316728 0.0
9.907358878377153 9.145625165175748 0.0
9.917695944922635 8.949999999998397 0.0
7.648387553139914 5.325741673607362 0.0
9.605343588986079 4.130627398479715 0.0
6.648113233057817 6.774798386229164 0.0
9.910347203087213 8.446729917003672 0.0
9.913623694530468 8.548470085896316 0.0
9.9201245863254 1.536225488581779 0.0
9.906538426683255 1.059019360781604 0.0
9.912867352010919 8.74999999999809 0.0
9.799662981388353 8.79550485462418 0.0
9.831828680383174 5.99966894118311 0.0
9.91414179906643 1.263025320602998 0.0
9.920690092699912 7.240982963665807 0.0
9.385889285950551 2.235126904097426 0.0
9.28133998925606 8.00415195851526 0.0
9.817074723108401 3.172398890123306 0.0
9.482030285089927 7.512954023388035 0.0
6.682432918504054 7.233889573028878 0.0
8.528699633246763 3.260502457553277 0.0
8.91699963742029 2.327016692708648 0.0
9.267676068834481 3.954520684561369 0.0
8.70811637467455 4.974101624783084 0.0
8.18184214270768 7.816666208279135 0.0
9.690393137288163 5.264344933127836 0.0
6.937111790104696 5.245184991960528 0.0
5.895846026722989 5.174232967273284 0.0
8.281683356622615 6.400073017261236 0.0
9.150883172924027 7.444273543454419 0.0
5.430406600793122 3.390815886517273 0.0
5.049583827974758 5.697634876048387 0.0
8.3966710383105 3.495813899905868 0.0
9.007538428392454 8.046563579784266 0.0
4.645155158868719 2.637132843684674 0.0
4.887444326771336 2.30020425915506 0.0
6.483736782775559 4.522536327482678 0.0
7.843169154548308 8.2116075844056 0.0
5.06295551628385 4.901632590583318 0.0
7.201400991012747 5.138239336380897 0.0
8.519791031104612 8.848807089071627 0.0
8.658623737989732 3.031313729049854 0.0
7.585566208322493 3.629882964874684 0.0
8.411818469596405 6.834326722716643 0.0
9.172363528634236 7.669230647622864 0.0
8.85455683341768 2.682483055215344 0.0
9.359398739738925 1.631421337140716 0.0
9.071793864444992 7.337030604117359 0.0
6.968394563521436 3.712808894519514 0.0
7.899236117684646 7.094583340182754 0.0
9.54362864504834 9.781852543872333 0.0
7.151298729743687 7.644795130415299 0.0
5.452218361466201 5.186873761308322 0.0
5.517642289161902 5.293540933999446 0.0
7.802500357665464 5.978295671754199 0.0
6.594850839687122 8.491429270558893 0.0
6.029132431949566 8.294997405201931 0.0
9.31286590869111 0.5672913838331921 0.0
9.25238720319541 0.4415953739444106 0.0
9.550589523211062 4.228044955453704 0.0
8.748611832783206 6.250900951984038 0.0
7.566980108995873 3.995148257893202 0.0
7.426142759241261 3.996743578498081 0.0
6.478912513785404 4.000296412419969 0.0
9.30435638148753 5.168210982711592 0.0
7.542154188520517 5.752525075248498 0.0
7.219033852073297 2.139582470800704 0.0
7.370913620388047 6.545121498197235 0.0
5.226731036024996 5.187572666585561 0.0
8.515591031124366 4.462223215179979 0.0
6.762864307079274 0.3078036604979366 0.0
8.587432696997471 4.977010533175154 0.0
8.703948448756302 8.815629076400704 0.0
8.081003990931544 7.370949680119862 0.0
7.424404567669909 6.949730915714445 0.0
8.578903262311433 8.377992954045473 0.0
7.301258690263783 6.106184350645308 0.0
5.991600556904204 3.99820087171043 0.0
8.203048538477193 1.601044215405025 0.0
7.289972483120081 4.572350254111052 0.0
7.714697186439165 5.420586967696794 0.0
8.918853780709807 1.841796898567452 0.0
9.919941345877513 4.749808449067644 0.0
7.245589454939737 5.94251251443003 0.0
9.258480524497795 3.358952871140391 0.0
3.705877615124628 5.574038727593425 0.0
8.287096858129765 7.962370605242409 0.0
6.799629860952143 3.705385600481528 0.0
4.146753450763018 6.544154457143895 0.0
7.413973555029582 5.545687501585183 0.0
8.466524978378082 4.980481756569235 0.0
7.336312153537934 2.337983522449311 0.0
7.695505222753409 3.747498713679684 0.0
4.898236813123799 4.795853653580084 0.0
4.59779105899602 1.896916774247134 0.0
8.560170375862322 7.072369101894893 0.0
8.386150468360862 2.449771437140704 0.0
8.41200018115259 5.084601315536367 0.0
5.102189912301071 7.621598618277815 0.0
8.336320418935243 6.71651223072348 0.0
5.081745734883095 3.977838926197614 0.0
7.63590698378166 0.9500570055008507 0.0
7.743369677149255 3.051233984704873 0.0
5.357527459690566 0.3809996753407537 0.0
5.967373112873382 0.7731113464301924 0.0
8.169449265206127 6.666271947462212 0.0
5.95122726745053 5.55758205410881 0.0
9.922289489207834 3.53923011719877 0.0
9.39154684476555 2.659037023454942 0.0
7.701415639167884 7.690060291860976 0.0
9.819179654793023 1.329863870021845 0.0
8.358229579054417 6.506108206863729 0.0
9.269720555169467 5.657096143475924 0.0
4.473187658045934 7.435037860084884 0.0
9.65807158077373 3.255496360750368 0.0
9.605155446454205 8.713645566904637 0.0
7.097383547728313 5.141197376985936 0.0
9.812212483832656 1.89920712759492 0.0
9.83875570675407 6.81603549325055 0.0
8.926246869879279 2.079976511571457 0.0
9.166785856141402 9.169070814302419 0.0
8.763479010228052 1.587152667342957 0.0
5.957377924852992 6.404530806530254 0.0
7.14506854375872 6.10342416684208 0.0
5.672595070581394 5.164323323112049 0.0
4.899782787268781 0.3801727265981219 0.0
4.447133848117348 4.673614099606824 0.0
7.044865074789195 3.253639989243549 0.0
9.818461337102992 7.819456450952447 0.0
9.925334577033155 7.954012377173311 0.0
6.352907898232792 1.173665225954276 0.0
7.351721385581032 5.660361289755705 0.0
9.337367583861807 2.76534436379692 0.0
8.693118347802024 4.360254099729149 0.0
9.476812970101324 0.3524826622168163 0.0
7.109868985890334 0.9024224571333925 0.0
7.899106846231403 5.511805431542581 0.0
8.352799544476607 5.187887629361129 0.0
6.957483547582747 0.6176251309213842 0.0
8.099559500483094 1.412323841044818 0.0
9.913030944540278 0.8542404645334569 0.0
9.143075088381442 8.022165366829135 0.0
8.819861450593166 6.356592599428041 0.0
9.319444417409162 1.49938505915629 0.0
6.490262520326714 7.118204362551877 0.0
6.490874470087819 6.582907761235813 0.0
9.82506653058937 0.6146757679104559 0.0
6.803129818897624 4.419048038171804 0.0
9.840901379354312 0.08198751964190581 0.0
9.839740374244226 9.918356239418472 0.0
8.551927134544655 9.449788917425456 0.0
9.92097857388158 3.249999999993177 0.0
5.797087413057367 7.077351493358238 0.0
9.255412859987286 6.433984412022419 0.0
8.668174522249984 1.740767926084485 0.0
9.920991430240607 6.25262219124529 0.0
7.57275248448898 1.94367954756322 0.0
8.052865444445507 8.19900054463639 0.0
8.748697149245206 4.25201068974208 0.0
9.158270227735827 0.5542256343091421 0.0
5.997487767477439 4.787924707603557 0.0
6.119759900601896 4.78043793682227 0.0
4.353034750397793 8.619182743639561 0.0
8.721093521611476 5.588932824583312 0.0
5.717101151444983 1.123034066822819 0.0
9.825602081347064 8.68753399402474 0.0
8.005502510832988 8.7824052910506 0.0
5.548184234622668 6.408009287230429 0.0
5.77830300433981 6.598697187164234 0.0
9.613093825495433 4.50282172481406 0.0
9.928981132641653 9.74928475696928 0.0
6.613628176297015 4.515513362596662 0.0
1.822126723816303 1.297795131355289 0.0
9.514164594137375 1.43081427463862 0.0
4.735494753432723 3.698541604583975 0.0
9.52844959749262 8.615213629960298 0.0
4.660704511759056 0.7947595073298008 0.0
6.82340845160293 5.239926830264399 0.0
7.885938077030673 7.380147032865134 0.0
7.884599891021201 6.09005968568029 0.0
8.846834820720167 9.653276456345532 0.0
8.457777199486827 0.3851010632068662 0.0
6.66485224572131 8.771510767670392 0.0
9.091499342133352 9.708315832477556 0.0
9.824286725109655 4.976315293637262 0.0
7.848197684391786 5.632217046637356 0.0
3.88430598115417 4.225391362015386 0.0
8.776890759183289 2.809688928468134 0.0
7.393884285023409 3.59397875231041 0.0
6.927568893329758 4.396788356869783 0.0
4.96854327720728 2.662368428358774 0.0
9.1480130720193 3.951479613991279 0.0
7.071049729490975 2.38092990636632 0.0
3.40193058782919 1.686321186206593 0.0
7.612042194200681 4.815904436723407 0.0
9.043395868401339 6.888481825015849 0.0
9.098933057562759 8.152197681006806 0.0
6.058682303253315 3.857501492181965 0.0
3.707092669281355 2.986685502034343 0.0
5.113272509841263 5.189455016444592 0.0
6.960565857079232 3.416349532571279 0.0
8.755151527375476 7.649255597361291 0.0
3.393680865444538 3.679982303262531 0.0
3.117424600120088 3.35605258976247 0.0
8.530814041264104 5.488376426140491 0.0
4.820719767306654 5.106646490188182 0.0
9.918899263509473 4.144927088739744 0.0
9.918194630017027 7.447268230913605 0.0
8.461970084137805 3.144844565847669 0.0
9.924415919486059 6.949999999995354 0.0
7.184050152099684 2.72771667662237 0.0
8.834356715215904 7.801565642745232 0.0
8.689015446783005 4.145232831954543 0.0
8.490778532265319 8.234414357968106 0.0
8.63666290918932 2.83060276219705 0.0
4.61028976098935 4.741894230894578 0.0
6.314735925012879 4.003132559161639 0.0
9.20786580425652 4.67001723737971 0.0
7.141401229301469 4.873205425098625 0.0
6.235177809922153 4.774126344778935 0.0
9.12491895896937 3.145675090615719 0.0
9.255747684068178 3.162525801823036 0.0
8.312852272796098 2.290855459722148 0.0
1.449266720542303 3.363629101350872 0.0
9.525687840398492 4.800807314407045 0.0
4.829905263804087 8.14474456977717 0.0
9.09338914689732 7.563794106183232 0.0
5.389401689694107 5.283808684471545 0.0
8.530979415204587 3.029374286908943 0.0
7.901489077080633 6.535344047486632 0.0
9.218572924671975 5.760893551533255 0.0
8.562382833959296 4.143913974026883 0.0
8.62959127904665 8.974877485888243 0.0
9.408442441596518 9.62276529745719 0.0
7.5034765601713 3.869833107932387 0.0
9.842813436634783 6.600620949014236 0.0
9.826116984327193 8.911617279149695 0.0
7.529907780698261 0.7369111006685982 0.0
7.832164962480427 2.905293639437395 0.0
8.39517908433056 3.267417602291069 0.0
9.823014010107707 9.085319632577246 0.0
9.022314123618541 3.944559746338292 0.0
4.243701230676532 5.332574856090426 0.0
9.816740542566388 1.127839952679595 0.0
8.166775715766304 5.693916696568397 0.0
8.865374421689054 8.068986769641638 0.0
8.761145809863661 6.470583506581853 0.0
8.998345275919851 9.209303502026401 0.0
9.698477487436316 6.706902829754045 0.0
6.439032098063426 0.3109134377713525 0.0
7.562681994382136 4.643158005207056 0.0
9.03999088074715 0.2799354672273258 0.0
5.180741540467516 3.805018725608906 0.0
6.243990330956698 2.718077286244967 0.0
9.79416634023361 0.1815240178579244 0.0
9.926540005061975 2.847049370876555 0.0
9.826476210374608 2.670192168078066 0.0
6.365816673179121 4.536333049275508 0.0
5.546353765219417 4.618331215552614 0.0
9.820703096450293 2.000649418331399 0.0
6.884388790679166 3.561583980715254 0.0
7.431303395649604 5.747824222777201 0.0
8.849816832721245 2.19318290395604 0.0
4.185147517585975 5.697469360586313 0.0
9.165905238119013 5.873664931582344 0.0
7.70479478158537 1.788324620089049 0.0
9.627376046933474 0.9196091445437269 0.0
6.657687963328663 5.144792385996769 0.0
9.83245016645186 0.3925568446109945 0.0
7.483092985762584 9.253837199159435 0.0
5.445348362202234 3.977855663863651 0.0
7.476680532833337 4.837183287808616 0.0
9.572749890969304 8.505160319814301 0.0
9.915853314998252 9.437014513917465 0.0
7.679469018350979 7.390484878021194 0.0
9.418139053434402 4.790576000488359 0.0
8.096967733471567 5.865447162201908 0.0
9.829153508938724 8.378494945652118 0.0
9.926595955569645 5.157718300415699 0.0
8.774484245600224 7.939747459426853 0.0
8.629764448155779 6.481031318922794 0.0
8.961169458302376 3.839036702328818 0.0
4.617199205561317 5.256318959792646 0.0
8.480815774219478 4.031210317621497 0.0
9.708341592512763 3.401018043990571 0.0
7.183974816647467 4.77882314543966 0.0
9.821437962294304 7.659391965474772 0.0
8.150320284869602 2.286501016204562 0.0
9.828114434347311 1.684891358832554 0.0
5.349187766238684 6.538177907133678 0.0
8.076053471314525 2.76180604769483 0.0
4.907713691134565 5.29818629967416 0.0
0.6874399366049438 4.328593906714074 0.0
0.6980011780697519 5.702671170050627 0.0
8.263861466707834 8.182284285231713 0.0
5.838783785156478 4.913981390426639 0.0
7.807619472656604 7.235706382002089 0.0
9.388504256318683 6.022122644748753 0.0
9.929839894767033 6.436189192303577 0.0
8.3205848711706 3.39107920408397 0.0
3.240770542267401 4.019899919523968 0.0
8.059047070496568 2.468855909103855 0.0
9.932479519490421 2.449625056415224 0.0
7.737639000139152 4.580708137963557 0.0
8.26141077223695 0.3940397126348397 0.0
9.69568953371801 1.959951226402445 0.0
6.469120930453264 4.892267070266994 0.0
9.167223997255698 0.8102256463122337 0.0
6.236889648241256 0.9291076084031108 0.0
8.306379082772498 5.268830342852036 0.0
6.716089118890225 5.239344620507032 0.0
9.82511981852641 9.282822358664017 0.0
6.68375719572285 4.404998642130821 0.0
8.913754712375674 6.908138360584365 0.0
6.173250048857013 5.251634416326969 0.0
4.235907497612446 1.924052997345291 0.0
5.151007663981651 2.438629730660893 0.0
8.924254300637541 9.3764975797567 0.0
4.438612423541503 5.287968640901957 0.0
8.571203234299599 1.897009944569934 0.0
6.878800676380218 5.821332862798138 0.0
5.710626178601224 4.792560699857408 0.0
7.149510071621283 5.216310009157644 0.0
2.099966541549645 2.334742113488256 0.0
9.93396330620579 5.350566393301629 0.0
7.143046479323961 8.646955109387985 0.0
7.965747313080266 5.193641450105844 0.0
6.3314394693073 5.135050228240639 0.0
7.665821333021348 6.222698255001823 0.0
6.305321657053551 4.659816230868476 0.0
7.833020917089713 5.208837056143474 0.0
9.41455902676429 2.869725681199307 0.0
8.567151507735133 6.598605357295113 0.0
7.405527786978573 4.377085529441429 0.0
6.552969697053132 5.137148974085434 0.0
9.93630620742063 8.042778076596578 0.0
7.166743296019233 4.593171678848165 0.0
6.595561806063966 5.839366735225723 0.0
6.066152182102007 5.262519562574559 0.0
9.834694151277489 0.9093455747994099 0.0
8.98259191950674 7.579732466796592 0.0
6.465071238839505 5.25485771955322 0.0
9.759759896588413 3.236659507608532 0.0
4.775529448101694 5.224235675150505 0.0
9.935991245222917 7.153416415978829 0.0
0.6530736820718381 9.352299998916202 0.0
0.6449439415299687 0.6468300344151556 0.0
7.804690364869245 4.495816547678174 0.0
9.84503784553893 5.70620404704573 0.0
9.83525329400959 3.826992990746767 0.0
9.922964894244684 4.265000406933376 0.0
8.333767638401964 1.121219971446645 0.0
8.876012546033895 7.019147158538482 0.0
8.172413577824324 3.413096916572049 0.0
7.232233017296214 4.478957103028363 0.0
6.214597295185415 3.852860083673202 0.0
9.85013791746415 4.400709747289421 0.0
3.941627380932058 6.342995010255737 0.0
3.097271569675528 8.77391871286929 0.0
9.292917152323044 6.010976049411984 0.0
8.104342196673183 5.184165973282902 0.0
8.994300084006271 3.652611812846807 0.0
9.937157897030163 5.549999999993244 0.0
8.721368888525245 7.274540720770752 0.0
8.920003648712827 0.9516585309368178 0.0
7.910527456030004 8.536826514867816 0.0
9.846441288756814 4.60515911863952 0.0
9.584942233925151 4.712073182517884 0.0
9.642357858573972 6.805672051759494 0.0
9.797024725252207 9.838837222258014 0.0
9.842451438022124 4.018973836958878 0.0
6.112723137676118 3.704473949316424 0.0
7.574641969193845 3.765362276156904 0.0
7.826594968121701 6.200366572362263 0.0
7.762805366733504 9.34009502796868 0.0
9.56854033867856 1.012566255816665 0.0
7.71256563655353 5.219373702836014 0.0
9.68039392238282 8.786964504862018 0.0
5.910362452777086 9.277662068919813 0.0
7.418090653922814 3.326443419100716 0.0
9.857704179097952 4.697553149694669 0.0
8.452469674653342 8.996585816905599 0.0
9.522351366699843 2.057525484575908 0.0
7.802315574700843 9.548878971475935 0.0
9.938875656926385 3.449999999992592 0.0
8.425189037911712 6.608575180629274 0.0
5.925965231566842 2.523669697740033 0.0
6.654918072256329 5.95749128982984 0.0
9.826748589235729 9.631118448471485 0.0
8.6684585637523 7.39633999085442 0.0
9.844673843931567 3.090088625379724 0.0
9.93613850661301 2.250382721159617 0.0
9.218291993658738 2.892108990205171 0.0
9.83502846611296 8.212781989607324 0.0
7.754136409732265 7.104288507262783 0.0
8.510570542791681 2.036933285735889 0.0
7.757745059307245 4.315798612475442 0.0
7.989231770559189 6.201656630465583 0.0
8.068934521422738 4.198631572122605 0.0
4.957478134450373 9.038766150325067 0.0
7.208661142641733 6.501402463831379 0.0
7.299506095906239 4.363561999234681 0.0
8.250303873550486 2.105322217421675 0.0
8.678637541413377 7.053471135702286 0.0
9.761528395137384 6.163503990672834 0.0
9.84494857233395 8.59999999999775 0.0
9.83825138794677 3.672838954969637 0.0
5.121008544047756 5.808127183024784 0.0
8.343911550360986 4.043535893276861 0.0
9.85324441775315 5.899999999993774 0.0
9.51114465213134 8.41035540646284 0.0
6.505812179224195 6.93390566262983 0.0
6.15572847138365 9.023097246950844 0.0
3.352081892333425 3.024853379890529 0.0
6.433163283162099 8.675072413910678 0.0
8.825744236698243 3.624446391299867 0.0
4.883007294861279 7.819620905924936 0.0
5.876659170760434 5.638247433601083 0.0
6.859400040348503 6.510797998354633 0.0
7.946400945409184 3.500317276373196 0.0
7.496830255505493 6.653194511698024 0.0
9.852183479755313 4.891525833556942 0.0
9.77998778436291 2.922486526124376 0.0
6.774672660492365 5.324728659740495 0.0
5.717254072187427 6.824125962512845 0.0
9.713440940838062 4.63793103997539 0.0
8.859858662536796 0.2721395536350836 0.0
8.37556017530946 9.436653414116012 0.0
7.395237381047616 7.885576562773319 0.0
5.4709157802033 4.511152089197594 0.0
9.489749416979361 9.691840729914848 0.0
4.599216022837964 3.46438688931078 0.0
5.572287492757569 4.807021644849729 0.0
9.926499336309957 9.92730688390086 0.0
9.926499336310107 0.07269311609890093 0.0
9.338127766332573 0.3585313952168247 0.0
6.810761948165162 3.414693294319008 0.0
8.166274345037138 5.943611545564389 0.0
5.2892644736731 6.301081312912763 0.0
9.731911074791544 7.649313380659622 0.0
8.90251102352767 9.50983415326544 0.0
8.997881406541017 1.033666784655452 0.0
5.835124768755703 2.738139962594905 0.0
9.665357480775825 6.185331297099201 0.0
7.656532192558493 8.217157287499347 0.0
9.170463887605525 2.975444721032631 0.0
4.208158615905443 0.8648302238584886 0.0
6.97015686031129 5.933674629077266 0.0
6.181941366523793 3.565885175921835 0.0
3.30313590337911 6.393402837735046 0.0
6.447482061767014 4.816169316820496 0.0
8.185341428749446 4.169172087371246 0.0
4.552595724340015 8.298301336212145 0.0
9.84850676569699 8.999999999998423 0.0
9.846941514449377 7.393642828194986 0.0
7.924592433490734 2.788309934035703 0.0
8.154308714226714 8.853640122009672 0.0
8.876629743004642 1.96110242719995 0.0
7.228849192966834 8.90811350348676 0.0
9.852301635085423 8.296637825215246 0.0
5.219795195341889 5.547413133147649 0.0
9.861497117995457 6.901363010201344 0.0
2.953911258021604 6.136007283255669 0.0
6.93158841067062 4.77708273647784 0.0
9.67540418457871 2.912802891506324 0.0
4.194055958522277 4.437353127730132 0.0
6.133959559341536 0.406856611599261 0.0
8.29952795189331 9.309744645643846 0.0
9.843692337952948 1.209647690818311 0.0
5.164986286280336 6.671544079402435 0.0
9.838533350075606 2.081705440779448 0.0
8.301244777513975 6.604088853319459 0.0
5.471494771710784 2.714598185146428 0.0
8.86534684892311 1.208599471795828 0.0
9.940610684232212 1.451558535868664 0.0
9.40896208432968 1.428353940655538 0.0
2.329177605337097 4.238803555614174 0.0
5.980761651517799 7.182207186682233 0.0
9.66541573964336 0.1719254072074424 0.0
7.220979380229172 7.806128737674462 0.0
1.251721227904697 6.151932667911503 0.0
8.104967286191181 6.057912607875576 0.0
6.650768762224724 4.817922869198292 0.0
6.634976350437587 3.213339182992986 0.0
7.034320437500567 4.898219100342838 0.0
9.502772020064167 6.283064492634301 0.0
8.13187938667684 3.518506862055515 0.0
9.855471943454193 2.599999999994991 0.0
9.056747742708522 8.263936599935574 0.0
4.352645795441222 5.724453640019 0.0
3.744263984699181 1.488951698361357 0.0
5.175860134287045 3.6375726667098 0.0
7.736434712114619 6.400417475661193 0.0
9.857658576695343 6.316607183405179 0.0
7.876525261950537 4.304285002335559 0.0
9.856114384785611 7.914602773442983 0.0
9.848334119947063 0.7059644476295188 0.0
9.59694321995579 6.895814046141667 0.0
5.906465212962551 3.869023950643881 0.0
9.840676994268005 9.364956386459765 0.0
5.355015287544095 3.83518170601625 0.0
6.374090407153147 5.855743754257685 0.0
8.227401290513832 5.297819733684674 0.0
5.451235131977493 4.825706629991923 0.0
6.022070213762754 5.355923882747634 0.0
9.845674433677614 6.108401449483281 0.0
9.835067400944396 7.739582406783081 0.0
8.602026805792988 2.941372356914139 0.0
5.059869081004962 5.269480960018243 0.0
5.284714507903736 5.26496663762182 0.0
9.627110479149561 7.660076105040499 0.0
6.820001127809743 4.792514421153957 0.0
5.120512795059439 4.806607659110254 0.0
9.56933817216883 2.911464407429096 0.0
9.74091654291531 9.267545397628387 0.0
9.93006767325302 6.576784040838644 0.0
9.642486276936268 4.650227701598451 0.0
5.185183328569137 9.410919109238325 0.0
9.37052946854105 4.605636695802024 0.0
1.677077220416309 5.871167715901136 0.0
7.345783833404538 3.184020711886284 0.0
5.419239942654976 5.982692039856376 0.0
6.133318300188262 2.551919945731369 0.0
6.187291396343277 4.499077117404439 0.0
1.231465237822878 3.921479198315213 0.0
8.969849937139944 9.699215363213542 0.0
9.218303154263054 6.037447959776716 0.0
CELLS 4886 19544
3 1113 1356 1450
3 1402 231 1659
3 272 269 1414
3 396 394 1777
3 1451 945 1452
3 194 81 1801
3 1847 1501 2104
3 2024 2121 2479
3 1115 1113 1450
3 1124 1413 1844
3 1061 1955 2409
3 307 305 1645
3 1592 1369 1593
3 238 1501 1847
3 1955 1883 2409
3 1808 243 1910
3 1885 978 2362
3 1440 793 2092
3 189 1488 1608
3 353 350 1864
3 2007 2231 2232
3 307 1645 2493
3 1096 1760 2496
3 2178 874 2179
3 621 625 1595
3 1493 1480 1938
3 1655 1268 2137
3 1341 1410 2212
3 243 1808 2360
3 1902 1446 2516
3 1760 1096 1763
3 856 790 2180
3 2008 2046 2105
3 789 1809 2067
3 694 1543 1575
3 1127 1762 1953
3 1748 807 2228
3 1543 1308 1575
3 820 1872 2170
3 1417 954 1998
3 1369 1592 2386
3 272 1414 1787
3 329 333 1998
3 1544 1095 1545
3 2231 1490 2232
3 1342 1683 1790
3 374 377 1797
3 807 1678 2228
3 1665 198 2128
3 141 142 1620
3 325 322 1952
3 231 1402 1654
3 198 1665 2010
3 1890 1307 2387
3 208 1438 1619
3 2016 1970 2156
3 1436 212 2020
3 954 1417 2333
3 1736 1894 2244
3 1491 1750 2143
3 1677 1064 2146
3 1474 1258 1475
3 1500 233 1930
3 1446 2415 2516
3 1700 973 1800
3 2128 2270 2316
3 1316 1315 1593
3 1307 2341 2387
3 2258 1324 2328
3 1083 1507 1508
3 693 1095 1544
3 621 1595 1596
3 667 1571 1872
3 1932 1766 2061
3 393 391 2240
3 1342 1790 2400
3 252 1707 2234
3 931 978 1885
3 1430 1116 1704
3 1411 1109 1714
3 1478 1227 2440
3 1990 195 2297
3 1792 1167 1985
3 1682 444 1975
3 394 397 1777
3 1711 2028 2162
3 1574 856 2180
3 2008 1851 2046
3 736 1493 1938
3 1069 1060 1662
3 1458 455 1754
3 862 691 1705
3 1161 1642 2286
3 1699 1700 1800
3 447 516 1637
3 955 1482 1483
3 2024 206 2121
3 391 1773 2240
3 1072 1412 1893
3 212 1436 2350
3 1566 1365 1568
3 259 1441 1672
3 872 870 1764
3 330 328 1889
3 1539 1161 2286
3 1897 1898 2275
3 1434 1990 2297
3 1109 1411 1730
3 319 307 2493
3 1762 1761 1953
3 1369 1316 1593
3 1540 834 1832
3 1505 652 2442
3 1732 1655 2137
3 921 1712 2295
3 1872 1388 2170
3 1712 921 2125
3 2028 244 2162
3 1506 1570 1680
3 1569 368 1964
3 1571 667 2375
3 1587 2178 2179
3 196 1723 1737
3 524 2016 2156
3 1528 1250 1733
3 1115 1450 1973
3 1938 1480 1971
3 1809 1396 2067
3 1641 249 2299
3 1223 1258 1474
3 1365 1566 2120
3 1981 962 2316
3 1538 353 1864
3 455 1458 1756
3 152 233 1500
3 1116 1430 1703
3 817 652 1505
3 1347 2003 2004
3 1607 1958 2085
3 194 1801 2195
3 1410 1341 2351
3 223 1415 1710
3 197 1511 2346
3 2198 787 2225
3 81 82 1801
3 1438 208 1620
3 1444 522 1823
3 1511 197 1950
3 726 718 1567
3 1637 516 1739
3 1708 2337 2341
3 1280 1649 2124
3 2337 1395 2341
3 1327 1709 2315
3 1225 1227 1478
3 691 624 1705
3 476 2224 2305
3 830 832 2204
3 1750 1491 2403
3 1366 1897 2275
3 2345 1583 2352
3 2054 405 2110
3 1984 2172 2230
3 1846 2198 2225
3 1177 2042 2418
3 2121 1367 2479
3 1527 1531 1541
3 916 1039 1834
3 1413 1124 2467
3 1622 1503 1868
3 249 1641 2019
3 1805 405 2054
3 1761 1007 1953
3 1415 223 2395
3 960 1756 2203
3 368 1569 2135
3 1402 1659 2473
3 941 1433 2471
3 1267 1477 1501
3 260 2002 2265
3 1704 558 2077
3 2224 1886 2305
3 2053 1386 2199
3 1452 945 1952
3 1717 1611 1718
3 1682 1975 2230
3 1760 1762 2496
3 1481 203 2104
3 1264 1266 1670
3 142 236 1620
3 2133 1182 2179
3 1791 1602 2183
3 350 346 1864
3 1412 1072 2393
3 1281 1575 2255
3 1565 1948 2155
3 849 1449 1513
3 1958 396 2085
3 1339 1069 1662
3 834 1540 1917
3 269 267 1414
3 1268 1267 1501
3 1440 2092 2468
3 1399 1981 2316
3 1635 1636 2041
3 1454 252 2234
3 1451 1305 1890
3 1375 1883 1955
3 362 366 1786
3 1484 2410 2528
3 1449 849 1640
3 1267 1474 1477
3 200 1611 1717
3 1054 1581 1582
3 1350 1977 2253
3 190 1390 2118
3 788 1956 2193
3 1709 1327 1888
3 2233 2298 2413
3 1488 189 2355
3 478 1685 1714
3 230 1525 1690
3 1687 478 1688
3 427 429 1756
3 1570 1065 2476
3 1880 1133 1988
3 1649 656 2124
3 1537 209 1614
3 1134 1769 1986
3 1220 1268 1655
3 396 1777 2085
3 1167 1755 1985
3 2229 1744 2296
3 1575 1281 2287
3 127 240 1882
3 377 647 1797
3 954 329 1998
3 220 1697 1698
3 1342 1341 2212
3 1441 264 1672
3 1512 188 2433
3 763 2345 2352
3 1685 1411 1714
3 1805 1188 1951
3 1347 2004 2157
3 1054 1582 1667
3 1333 1617 1674
3 2217 73 2361
3 1539 1036 1917
3 1039 1292 1834
3 208 141 1620
3 1965 1964 2038
3 693 1544 1969
3 1453 239 2279
3 203 1481 2049
3 945 1451 1889
3 680 1459 2134
3 354 2147 2196
3 1405 1932 2061
3 1723 1722 1737
3 1748 1175 1927
3 1532 1528 1733
3 2057 1824 2154
3 1406 1659 1702
3 1948 1186 2155
3 210 1598 2114
3 1685 478 1687
3 1324 1325 2328
3 1526 1250 1527
3 165 166 1509
3 1493 736 2523
3 1526 1527 1541
3 1390 190 2417
3 522 1444 1998
3 1680 1570 1732
3 1017 1442 2525
3 374 1797 2430
3 1507 1083 2197
3 1756 960 2221
3 2270 1400 2316
3 2205 1452 2282
3 1074 1187 1888
3 2158 1245 2200
3 1442 1017 1684
3 864 1116 1703
3 1750 1751 2143
3 1456 516 1492
3 1677 2146 2149
3 2022 1339 2388
3 1602 258 2183
3 678 1594 1595
3 1245 1670 2200
3 972 830 2204
3 2143 983 2342
3 1268 1501 2226
3 1266 1461 1670
3 1487 222 2465
3 1382 2022 2388
3 58 59 1661
3 2147 1543 2196
3 1484 1485 2410
3 628 2053 2199
3 1906 1549 2259
3 364 362 1786
3 1339 2022 2247
3 1636 525 2041
3 625 678 1595
3 678 1593 1594
3 2212 1410 2222
3 1837 1865 2215
3 1699 1800 1801
3 866 864 1703
3 893 1472 1982
3 1735 1736 2244
3 1633 1255 1922
3 126 127 1882
3 681 867 1656
3 1351 1401 2363
3 11 228 1588
3 1127 1953 2454
3 265 266 267
3 1722 1122 1737
3 1389 1691 2069
3 1613 1610 1616
3 1227 1256 2440
3 429 455 1756
3 1535 1177 2418
3 322 324 1952
3 973 1700 1802
3 1964 368 2038
3 1176 1865 1866
3 1096 872 1764
3 1176 1866 1875
3 193 1839 1892
3 156 157 1441
3 615 617 1596
3 686 1520 2480
3 1409 2097 2305
3 2410 1151 2528
3 1427 2217 2361
3 440 1911 2314
3 1744 1743 2296
3 516 1456 1739
3 1939 589 2164
3 690 931 2150
3 1062 1579 1580
3 1054 1580 1581
3 955 1483 1716
3 1064 1677 2248
3 1956 1616 2193
3 1776 1893 2026
3 1398 1115 1973
3 2002 1453 2265
3 1541 1531 1542
3 216 2191 2536
3 1736 1326 1894
3 1065 994 1066
3 1598 2115 2175
3 2314 1911 2358
3 1433 941 2042
3 2115 1209 2175
3 717 1550 1551
3 188 1941 2433
3 267 1132 1414
3 771 1569 2064
3 1157 1545 1546
3 1231 1250 1526
3 1933 240 2181
3 222 1487 2025
3 1525 230 1765
3 1430 1704 2077
3 757 1744 2495
3 264 263 265
3 883 773 1917
3 739 2205 2282
3 1667 1582 2434
3 1744 757 2474
3 239 1453 2002
3 1441 259 2356
3 2005 1443 2012
3 254 1766 1932
3 1509 166 1679
3 1477 1475 1481
3 793 1440 2165
3 1385 1523 2377
3 1481 1475 2523
3 156 1441 2356
3 1066 1220 1655
3 945 325 1952
3 2094 2087 2134
3 1747 1175 1748
3 253 262 263
3 1327 1074 1888
3 718 715 1567
3 2046 1043 2105
3 240 1933 2399
3 1305 1307 1890
3 224 58 1661
3 1195 1566 2285
3 1590 1393 1749
3 1255 1230 1922
3 353 1538 2073
3 358 1999 2325
3 882 1802 2036
3 1024 1020 1604
3 333 522 1998
3 1401 1351 2414
3 1475 1258 1476
3 2310 786 2364
3 328 945 1889
3 807 1748 1927
3 825 724 1912
3 1742 263 2491
3 267 266 1132
3 2077 2102 2203
3 1431 1432 1860
3 1212 1957 2312
3 2097 476 2305
3 1132 1402 2473
3 717 713 1550
3 1746 693 1969
3 1372 1124 1844
3 1256 1541 2269
3 1977 1350 2274
3 2332 1978 2443
3 874 2133 2179
3 1983 1534 2171
3 1157 1544 1545
3 1230 1228 1922
3 1580 1579 1581
3 1565 806 1948
3 1416 1363 2413
3 1287 1995 2398
3 265 263 266
3 1534 1529 2171
3 1604 1834 2428
3 1255 1633 2509
3 1344 1643 1644
3 1332 1388 1571
3 1423 217 2217
3 2191 1057 2451
3 458 447 1637
3 1250 1233 1733
3 472 2212 2222
3 1175 1747 1840
3 1652 256 1653
3 1073 1347 1572
3 200 145 1609
3 683 640 1585
3 1116 862 1705
3 1221 1223 1474
3 1778 801 1803
3 1503 1622 2471
3 1475 1493 2523
3 464 680 2134
3 14 210 2114
3 579 1880 1988
3 1434 1435 1990
3 1447 2310 2364
3 275 274 276
3 2294 1871 2419
3 814 1068 1684
3 1172 1439 2273
3 273 272 274
3 1363 1416 2406
3 1220 1219 1221
3 1060 1656 1662
3 1099 1792 1985
3 2048 1198 2168
3 1241 1245 2323
3 699 723 1753
3 1640 1862 2070
3 910 1018 1584
3 1586 1067 1587
3 1656 867 1662
3 1067 686 2480
3 654 2242 2294
3 1593 1315 1594
3 1880 553 1974
3 236 1717 1718
3 617 621 1596
3 1723 196 2313
3 402 1877 2116
3 273 274 275
3 2202 1869 2252
3 1510 1358 1767
3 193 1892 2373
3 1188 1805 2054
3 1220 1221 1267
3 1066 1218 1219
3 1517 1097 1518
3 1677 1676 1858
3 686 277 1520
3 268 267 269
3 697 857 1592
3 220 1698 1699
3 1802 1700 2036
3 1612 1537 1614
3 929 817 994
3 228 12 2136
3 2110 2116 2482
3 1659 1658 1702
3 1611 1613 2280
3 1344 991 1643
3 683 1585 1604
3 1638 1358 2404
3 1485 1034 2410
3 2214 833 2424
3 271 272 273
3 1482 955 1962
3 1066 1219 1220
3 931 1885 2150
3 1613 1891 2280
3 1189 1589 2204
3 1566 1195 2120
3 726 1567 2490
3 1122 1722 1874
3 1494 319 2493
3 1671 259 1672
3 1267 1221 1474
3 603 528 1591
3 1664 2128 2316
3 1817 1924 2174
3 1626 1660 2111
3 1474 1475 1477
3 1023 1062 1580
3 1957 1599 2312
3 1764 1939 2164
3 1358 1950 2404
3 200 1609 1610
3 1431 1082 1432
3 1778 1803 2521
3 1830 1832 2075
3 1930 233 2369
3 1329 1482 1650
3 757 1959 2522
3 1239 1247 1597
3 758 1978 2332
3 1569 1290 2064
3 216 1694 2191
3 1453 1420 2265
3 1549 1906 2129
3 24 215 1674
3 19 235 1676
3 1621 1057 2191
3 1691 1389 2262
3 1617 1333 2192
3 929 994 1065
3 1769 1672 1986
3 1893 1412 2026
3 1609 1537 1612
3 271 269 272
3 1373 1438 1620
3 217 1423 2381
3 517 330 1889
3 1322 1055 1667
3 1974 553 2499
3 228 2136 2187
3 1589 1189 1788
3 1999 1577 2325
3 2110 405 2116
3 189 1608 1842
3 1055 1050 1667
3 739 1455 2205
3 1865 1176 2215
3 319 1494 2522
3 2474 757 2522
3 1484 227 1485
3 10 11 1588
3 723 809 1753
3 27 230 1689
3 1550 806 1565
3 1179 1180 1217
3 207 1617 2192
3 1433 1217 1502
3 1562 1556 1606
3 1379 2017 2018
3 1245 2158 2323
3 675 1097 1517
3 884 501 1599
3 1020 683 1604
3 1603 1095 1848
3 1001 2057 2154
3 1604 1585 1834
3 1610 1612 1616
3 1764 870 1939
3 2242 1871 2294
3 1669 1264 1670
3 1658 213 1702
3 1995 1646 2398
3 631 539 1600
3 1491 2143 2342
3 1801 1800 2195
3 1200 1199 1693
3 1535 940 1861
3 1534 758 2332
3 914 2258 2328
3 1588 228 2457
3 216 138 1694
3 151 152 1500
3 1133 1880 1974
3 1677 1858 2248
3 1294 1622 1868
3 875 1010 1767
3 1379 2018 2416
3 1279 2202 2252
3 182 256 1652
3 1592 857 2386
3 672 681 1656
3 615 1596 1824
3 1093 1487 1623
3 1823 522 2100
3 1245 1242 1669
3 1582 1581 1583
3 758 1534 2306
3 1975 1984 2230
3 1358 1510 1950
3 1663 1336 1665
3 2102 960 2203
3 366 1087 1786
3 1740 1490 2231
3 21 207 1709
3 145 146 1609
3 2339 765 2384
3 603 1591 1668
3 2081 199 2149
3 1540 1832 1879
3 1721 1723 1947
3 1754 455 1793
3 1751 1753 2119
3 882 1701 1807
3 1540 1539 1917
3 242 1695 1697
3 1521 354 2091
3 1363 2233 2413
3 1584 1018 1925
3 703 1067 1586
3 1177 1178 1179
3 795 916 1834
3 277 276 607
3 1571 1388 1872
3 22 23 1617
3 1097 823 1177
3 25 26 1624
3 419 418 1790
3 1728 1906 2259
3 440 1455 2261
3 1877 1318 2116
3 1488 1156 1608
3 1439 2130 2273
3 1889 1451 1890
3 1614 209 2389
3 1472 893 2094
3 675 821 823
3 23 24 1674
3 1788 1190 2183
3 917 941 1622
3 1763 1096 1764
3 1068 1442 1684
3 1034 1485 2173
3 2172 1533 2230
3 138 139 1694
3 1065 1570 2197
3 607 674 675
3 1536 1248 2268
3 229 135 1734
3 1437 1925 1926
3 680 510 1646
3 147 209 1537
3 26 27 1689
3 1627 705 2163
3 206 1651 2121
3 2409 1785 2462
3 1492 682 2447
3 1223 1225 1258
3 889 1772 2374
3 253 263 264
3 275 276 277
3 1455 739 2261
3 2022 1382 2176
3 150 227 1484
3 639 1019 1591
3 1449 1640 2070
3 1082 833 2214
3 1503 1502 1504
3 144 200 1717
3 1643 991 1713
3 1190 1791 2183
3 1538 1804 2073
3 1256 2269 2440
3 18 19 1676
3 521 531 2000
3 790 849 2180
3 1075 1329 1650
3 1087 1782 1785
3 1066 994 1218
3 270 269 271
3 682 1492 2494
3 185 252 1454
3 253 158 262
3 1629 1632 1633
3 200 1610 1611
3 1477 1481 2104
3 1623 1487 2465
3 1518 1097 1535
3 1414 1132 2460
3 1179 1217 1433
3 177 1506 1680
3 1392 1017 2525
3 1832 834 2075
3 675 823 1097
3 1459 2094 2134
3 1782 1087 1795
3 1838 1730 2372
3 1639 149 2528
3 1617 23 1674
3 2265 1420 2489
3 180 232 1859
3 1527 1250 1528
3 20 21 1709
3 1083 1508 2311
3 903 866 1703
3 1455 440 2314
3 1187 1858 1888
3 1659 1406 2473
3 1446 1902 2166
3 421 1951 2106
3 1598 210 2115
3 154 259 1671
3 1288 1835 2080
3 1832 1831 1879
3 1258 1225 1478
3 1024 1604 2117
3 1263 1429 1739
3 706 705 1627
3 1583 1581 2352
3 407 1805 1951
3 856 1574 2527
3 1701 882 2036
3 1624 26 1689
3 717 1551 1552
3 1385 2377 2391
3 2302 1745 2354
3 1572 1347 2157
3 1036 883 1917
3 1689 1690 1691
3 1664 1665 2128
3 1476 1479 1480
3 1751 2119 2143
3 815 814 1684
3 1790 889 2400
3 1606 1607 2085
3 265 267 268
3 418 889 1790
3 1522 1521 2091
3 135 136 1734
3 1726 1445 1729
3 647 1796 1797
3 1346 1453 2279
3 1293 1827 2117
3 1242 1244 1669
3 1853 1852 1854
3 889 2374 2400
3 1039 1038 1290
3 1524 628 2199
3 1331 1332 1571
3 1291 1290 1569
3 1475 1476 1493
3 1850 1852 1853
3 1490 1740 2456
3 1689 230 1690
3 1256 1526 1541
3 1704 1705 2167
3 1465 1470 1675
3 956 1073 1572
3 1613 1616 1956
3 916 917 1038
3 2014 1522 2091
3 1221 1222 1223
3 1999 763 2352
3 234 10 1588
3 1697 220 2335
3 1527 1528 1529
3 2298 1600 2413
3 1436 2020 2254
3 1642 1161 1678
3 1523 1385 2436
3 1730 1838 2426
3 795 796 916
3 713 711 1550
3 1456 1263 1739
3 999 1336 1663
3 1785 1784 2462
3 409 415 1783
3 607 675 1517
3 1229 1231 1526
3 1958 1855 2078
3 1589 1588 1590
3 1933 261 2380
3 762 1965 2038
3 1756 1458 2203
3 1776 597 1893
3 1794 1072 1893
3 188 1512 2266
3 1774 2339 2384
3 188 1908 1941
3 1010 1510 1767
3 2189 2285 2307
3 773 834 1917
3 1245 1669 1670
3 1248 1597 2268
3 146 1537 1609
3 818 910 1584
3 1641 1313 1651
3 1217 1745 2302
3 1065 1066 1655
3 1597 1247 2047
3 1360 2177 2376
3 1612 1615 1616
3 2126 867 2186
3 1019 683 1020
3 1747 892 1840
3 1092 1093 1623
3 261 1933 2181
3 400 424 1666
3 1516 1903 2377
3 1100 1392 1605
3 247 1738 1881
3 268 1134 1986
3 1177 823 1178
3 884 1599 1957
3 263 262 2491
3 806 1627 1948
3 1227 1229 1256
3 191 1729 2504
3 1636 1635 2502
3 1480 1479 1601
3 1721 1947 2498
3 1924 1146 2174
3 229 1734 1735
3 175 204 1725
3 1179 1178 1180
3 354 1521 2147
3 665 697 1592
3 640 646 1585
3 627 545 1636
3 1882 240 2399
3 1556 1555 1606
3 1373 1620 2394
3 1871 1071 2419
3 548 1628 1629
3 455 436 1793
3 974 1831 1841
3 1844 1413 2392
3 1612 1614 1615
3 209 1639 1937
3 1329 1330 1331
3 1823 2100 2142
3 1097 1177 1535
3 1021 1020 1022
3 825 1912 2455
3 913 1122 1874
3 400 1666 2113
3 1256 1229 1526
3 1419 1418 2450
3 1552 1551 1553
3 1850 1099 1852
3 1629 1631 1632
3 801 685 2029
3 1618 1619 1621
3 265 268 1986
3 1715 2165 2330
3 1531 1529 1534
3 1022 1024 1576
3 658 693 1746
3 703 686 1067
3 1062 1576 1577
3 1023 1022 1062
3 236 1718 2394
3 1688 502 1740
3 1501 1477 2104
3 213 165 1509
3 646 795 1585
3 196 1737 1738
3 379 679 1795
3 639 640 683
3 924 875 1767
3 1752 699 1753
3 207 2192 2315
3 627 1636 1660
3 1217 1180 1745
3 730 728 1833
3 528 561 1591
3 1444 1417 1998
3 252 186 1602
3 1729 1445 2504
3 460 502 1688
3 1418 946 1778
3 1203 1200 1693
3 548 470 1628
3 849 668 1640
3 646 785 795
3 607 276 674
3 14 15 210
3 147 148 209
3 478 460 1688
3 1709 207 2315
3 1157 1546 1608
3 1155 1731 1899
3 1524 1934 2390
3 1775 921 1876
3 1433 1502 1503
3 470 458 1628
3 1223 1224 1225
3 1291 1569 1964
3 871 1056 1826
3 1781 1783 1915
3 1587 1067 2300
3 916 1038 1039
3 1388 1387 1389
3 1611 1610 1613
3 1075 1328 1329
3 1039 1290 1291
3 1538 1265 1804
3 1184 1185 2163
3 597 598 1794
3 1450 1356 2421
3 1835 576 2080
3 1629 1628 1631
3 1331 1330 1332
3 561 639 1591
3 1476 1480 1493
3 705 703 1586
3 639 683 1019
3 1951 1188 2106
3 436 446 1793
3 1472 1297 2142
3 1332 1387 1388
3 1345 984 1720
3 1329 1328 1330
3 1050 1048 1667
3 150 151 227
3 11 12 228
3 557 541 2256
3 1831 974 1879
3 134 229 1766
3 1357 1358 1638
3 1336 1641 2299
3 1650 1482 1962
3 1591 1019 2512
3 1506 1507 1570
3 1803 801 2029
3 1178 823 1972
3 1552 1553 1554
3 1290 1038 1294
3 1028 1313 1641
3 1237 1239 1597
3 993 1017 1100
3 893 2087 2094
3 149 1484 2528
3 1768 1142 1949
3 9 234 1673
3 1554 1553 1555
3 668 632 1640
3 711 806 1550
3 1628 458 1637
3 1098 1829 1830
3 1482 1331 1483
3 531 1818 2000
3 435 419 1790
3 1156 1157 1608
3 1182 1184 2179
3 510 512 1646
3 1231 1233 1250
3 946 841 1778
3 1483 1331 1571
3 1459 680 2458
3 1166 1040 1210
3 892 1657 1820
3 1042 1445 1726
3 1019 1020 1021
3 749 805 1810
3 234 1588 1589
3 1695 242 1892
3 556 1853 2483
3 1018 1572 1573
3 1529 1528 1530
3 1606 1558 1607
3 1761 1759 2308
3 1396 1032 1921
3 1018 956 1572
3 689 1150 1416
3 1827 1293 2515
3 149 150 1484
3 1647 656 1648
3 1543 694 2196
3 399 409 1783
3 545 525 1636
3 268 269 270
3 715 713 717
3 1100 1017 1392
3 1657 892 1747
3 207 22 1617
3 1666 884 2249
3 1671 1672 1769
3 1554 1555 1556
3 146 147 1537
3 1081 1444 1822
3 711 709 806
3 1443 2005 2322
3 660 658 1746
3 1166 1458 1754
3 916 796 917
3 1056 1728 1826
3 1068 1069 1275
3 184 185 1454
3 158 159 262
3 2007 1687 2231
3 805 1708 1810
3 1672 264 1986
3 1561 1562 1563
3 978 1075 1650
3 1590 1588 2457
3 215 25 1624
3 1551 1550 1565
3 1073 1346 1347
3 857 818 1584
3 1648 656 1649
3 675 674 821
3 561 594 639
3 1731 529 1899
3 2303 1454 2535
3 981 903 1040
3 1630 1629 1633
3 993 877 1017
3 724 718 726
3 512 603 1646
3 1676 235 1858
3 814 1060 1068
3 715 717 1567
3 1796 647 1870
3 1715 1171 2165
3 678 1592 1593
3 644 613 1824
3 1690 1525 2145
3 1297 1822 1823
3 271 656 1647
3 1704 1116 1705
3 1225 1226 1227
3 1275 1069 1338
3 910 956 1018
3 1824 1596 2154
3 1403 1100 1605
3 1221 1219 1222
3 1068 1060 1069
3 1901 245 1949
3 1081 1055 1321
3 1751 563 1752
3 1021 1022 1023
3 672 638 681
3 1095 657 1848
3 1235 1237 1248
3 1561 1556 1562
3 1265 1259 1804
3 524 1819 2016
3 978 1650 2362
3 1492 516 2494
3 229 1735 2061
3 185 186 252
3 157 158 253
3 152 153 233
3 9 10 234
3 1527 1529 1531
3 1808 1344 2360
3 1062 1577 1579
3 1509 1679 1977
3 424 454 1666
3 637 638 672
3 981 1040 1166
3 1555 1558 1606
3 751 749 1810
3 1166 1210 1458
3 1651 1313 2121
3 15 16 2260
3 1633 1632 2509
3 2167 1705 2276
3 551 602 2045
3 697 818 857
3 364 1786 1883
3 832 1189 2204
3 1476 1478 1479
3 678 665 1592
3 213 1509 2096
3 1015 888 1124
3 1062 1022 1576
3 679 1782 1795
3 680 1646 1995
3 1101 1100 1403
3 1109 433 1714
3 1248 1237 1597
3 733 730 1833
3 1702 213 2096
3 499 498 1828
3 1418 1778 2521
3 637 600 638
3 1048 1046 1054
3 1577 1576 1578
3 814 766 1060
3 1279 2252 2292
3 474 470 548
3 199 18 1676
3 157 253 1441
3 1048 1054 1667
3 471 472 2290
3 625 665 678
3 795 785 796
3 1264 1265 1266
3 1437 1926 2350
3 1362 2048 2168
3 1394 2337 2371
3 454 884 1666
3 1022 1020 1024
3 751 1810 1923
3 1046 1023 1580
3 1807 1701 1931
3 1618 208 1619
3 566 588 689
3 1828 498 1829
3 501 509 1599
3 1118 780 1775
3 878 817 929
3 1510 1511 1950
3 1618 1621 1694
3 1052 1081 1822
3 1416 1150 1715
3 1239 1241 1247
3 1396 1921 2067
3 1751 1752 1753
3 1264 1259 1265
3 539 566 1600
3 1762 1127 2496
3 1673 1788 2183
3 1555 1557 1558
3 1052 1050 1055
3 725 724 825
3 1142 1770 1771
3 681 853 867
3 454 501 884
3 1346 1420 1453
3 932 1147 1770
3 1546 1545 1547
3 533 582 1818
3 1266 1337 1460
3 1872 820 2318
3 1117 1119 1713
3 1081 1321 1417
3 1253 1259 1264
3 1569 771 2135
3 1052 1055 1081
3 1181 1178 1972
3 709 706 1627
3 1073 1076 1346
3 1098 1828 1829
3 1382 1380 2176
3 1442 1275 1443
3 919 999 1663
3 1789 828 1855
3 877 815 1684
3 509 539 631
3 992 877 993
3 1266 1265 1337
3 2268 1498 2340
3 1130 1032 1396
3 1095 1603 2508
3 886 826 887
3 531 533 1818
3 1131 1400 1881
3 447 437 516
3 2460 1132 2473
3 940 1535 2418
3 768 1873 2037
3 1813 1869 1954
3 1627 2163 2488
3 1497 1495 1645
3 1198 1409 2168
3 724 726 1912
3 1869 987 1954
3 763 1999 2338
3 1010 1170 1374
3 984 976 1720
3 1470 1743 1744
3 689 588 1150
3 1901 1949 2359
3 1640 632 1862
3 274 272 1787
3 563 564 1752
3 994 817 1505
3 737 1807 1931
3 1770 1147 1771
3 1233 1235 1733
3 2450 1418 2521
3 414 410 1821
3 908 1099 1850
3 1227 1228 1229
3 1692 1203 1693
3 1625 216 2194
3 512 528 603
3 1377 1357 1638
3 1465 1464 1470
3 1360 1359 2177
3 1686 2007 2095
3 1336 1028 1641
3 1857 751 1923
3 1758 572 1759
3 553 541 557
3 1171 1715 1811
3 956 1003 1073
3 1467 1465 1675
3 719 718 724
3 1509 1977 2096
3 1734 1625 1736
3 1503 1504 1868
3 592 597 1776
3 180 181 232
3 162 163 231
3 2308 1759 2370
3 1357 1114 1358
3 875 946 1010
3 509 631 1599
3 17 18 199
3 144 145 200
3 1099 906 1792
3 1469 1467 1494
3 605 589 1939
3 1208 1205 1211
3 354 344 2091
3 692 782 804
3 1010 946 1170
3 1463 1462 1464
3 716 715 718
3 714 713 715
3 271 273 656
3 139 1618 1694
3 549 277 686
3 673 672 766
3 1378 1377 1379
3 2007 868 2095
3 999 1028 1336
3 1208 1211 1447
3 601 545 627
3 1119 1643 1713
3 1332 1333 1387
3 910 912 956
3 520 521 2000
3 828 1789 1819
3 277 607 1520
3 1338 1339 2247
3 818 819 910
3 767 766 814
3 712 711 713
3 1494 1467 1675
3 639 594 640
3 2044 557 2256
3 235 20 1709
3 1620 236 2394
3 804 919 962
3 1862 702 2070
3 681 852 853
3 1559 1556 1561
3 1622 941 2471
3 2165 1440 2330
3 612 644 692
3 697 698 818
3 1903 1516 1994
3 371 379 1795
3 428 426 2138
3 1290 1294 2064
3 1384 1904 2432
3 566 689 1600
3 471 452 472
3 1092 1091 1093
3 1002 1131 1719
3 1090 1089 1091
3 875 841 946
3 1758 1760 1763
3 1562 1606 2085
3 1833 1830 2075
3 178 179 214
3 164 165 213
3 769 923 1815
3 692 644 782
3 804 782 919
3 182 183 256
3 160 161 257
3 1329 1331 1482
3 962 1663 1664
3 1177 1179 2042
3 403 405 1805
3 1461 1460 1462
3 140 208 1618
3 1859 232 1860
3 274 1787 2099
3 1381 2126 2186
3 1558 1560 1789
3 430 428 682
3 452 435 1683
3 1487 1156 1488
3 1470 1464 1743
3 597 1794 1893
3 1244 1253 1669
3 962 919 1663
3 258 8 1673
3 1087 1785 1786
3 970 1042 1726
3 199 1677 2149
3 1664 1663 1665
3 1229 1230 1231
3 991 827 1713
3 792 1603 1848
3 1822 1444 1823
3 665 666 697
3 19 20 235
3 142 143 236
3 728 1098 1833
3 532 530 1898
3 1015 1124 1372
3 1546 1547 1548
3 1851 1850 1853
3 1877 393 2240
3 923 1105 1815
3 1090 1091 1092
3 687 686 703
3 1683 435 1790
3 887 826 1961
3 684 663 1089
3 426 1934 2138
3 464 510 680
3 853 854 855
3 568 572 1758
3 1376 1357 1377
3 1205 1203 1692
3 1607 1789 1855
3 710 709 711
3 780 781 1775
3 1434 1103 1435
3 876 815 877
3 766 672 1656
3 1393 1590 2457
3 684 1089 1090
3 530 890 1898
3 926 1920 1943
3 696 414 1821
3 1563 1562 1777
3 1054 1046 1580
3 1398 1973 1974
3 137 216 1625
3 1210 1040 1430
3 1750 563 1751
3 2010 1665 2299
3 1510 1374 1511
3 1777 1562 2085
3 1707 252 1791
3 1932 1404 1933
3 459 438 1814
3 139 140 1618
3 1093 1156 1487
3 231 163 1658
3 699 722 723
3 1545 1095 2508
3 598 612 1794
3 579 554 1880
3 1941 1908 2401
3 1231 1232 1233
3 1831 1829 1841
3 1037 1383 1799
3 177 178 1506
3 636 600 637
3 1036 1539 2286
3 1356 1114 1357
3 1523 1516 2377
3 704 703 705
3 403 402 405
3 648 792 1848
3 723 756 808
3 1388 1389 2170
3 933 932 1770
3 223 1710 1711
3 1779 399 1783
3 1223 1222 1224
3 1028 1029 1313
3 257 161 1654
3 418 412 421
3 734 882 1807
3 693 657 1095
3 1368 1370 1436
3 136 137 1625
3 688 652 817
3 1075 1327 1328
3 540 479 1813
3 398 395 402
3 548 1629 1630
3 574 591 699
3 1469 1494 1495
3 1041 1598 2175
3 167 168 202
3 175 176 204
3 2045 2046 2201
3 186 187 1602
3 886 887 888
3 1253 1254 1259
3 8 9 1673
3 792 655 810
3 843 1145 1960
3 1180 1349 1745
3 1165 1345 1512
3 708 706 709
3 136 1625 1734
3 21 22 207
3 140 141 208
3 625 626 665
3 1093 1094 1156
3 1585 795 1834
3 1117 1713 1806
3 599 579 600
3 810 871 1826
3 1047 1046 1048
3 1292 1291 1293
3 161 162 1654
3 199 1676 1677
3 1260 1282 1804
3 1005 1142 1768
3 1233 1234 1235
3 792 810 922
3 1122 1719 1737
3 976 985 1720
3 1278 1279 2292
3 2390 1934 2531
3 1436 1437 2350
3 270 271 1647
3 1199 966 1846
3 1683 1342 2212
3 656 273 2124
3 699 591 722
3 1977 1139 2096
3 1738 1719 1881
3 1722 985 1874
3 1797 1448 1798
3 162 231 1654
3 632 604 1862
3 252 1602 1791
3 1051 1050 1052
3 1045 1023 1046
3 648 655 792
3 993 1100 1101
3 1321 1055 1322
3 806 709 1627
3 904 903 981
3 1220 1267 1268
3 648 605 655
3 1737 1719 1738
3 385 399 1779
3 506 499 1828
3 1132 266 1402
3 1170 1418 1419
3 1323 2302 2354
3 24 25 215
3 137 138 216
3 721 965 1919
3 1787 1414 2460
3 778 1117 1806
3 723 722 756
3 407 403 1805
3 564 574 1752
3 1049 1048 1050
3 842 841 875
3 1608 1546 1842
3 809 808 899
3 1517 1519 1520
3 1530 1532 1533
3 889 421 1772
3 913 1002 1122
3 1314 1316 1367
3 1017 877 1684
3 841 802 1778
3 1235 1236 1237
3 751 1857 1900
3 1114 924 1767
3 1344 1644 2360
3 1895 1394 2371
3 1518 1535 1861
3 1758 1759 1760
3 1122 1002 1719
3 546 563 1750
3 1056 1726 1727
3 663 660 1746
3 621 622 625
3 1720 985 1721
3 1857 1843 1900
3 808 756 913
3 1056 970 1726
3 27 28 230
3 134 135 229
3 908 906 1099
3 163 164 1658
3 1727 1726 1729
3 7 8 258
3 154 155 259
3 1101 1403 1404
3 808 913 1874
3 1260 1269 1282
3 1389 1387 2262
3 1297 1053 1822
3 1555 1553 1557
3 1463 1464 1465
3 230 28 1765
3 1237 1238 1239
3 554 553 1880
3 775 778 1806
3 985 899 1874
3 1270 1524 2199
3 489 1820 1936
3 692 1072 1794
3 1472 2142 2272
3 1845 496 1929
3 438 431 1814
3 613 615 1824
3 1241 1242 1245
3 1783 415 1915
3 1192 2081 2149
3 178 214 1506
3 1816 988 1817
3 1760 1759 1761
3 1103 1092 1623
3 1512 1345 1661
3 1876 921 2295
3 1165 984 1345
3 978 1074 1075
3 1239 1240 1241
3 542 541 553
3 813 988 1816
3 1148 984 1165
3 871 970 1056
3 472 452 1683
3 1207 1796 1870
3 1167 1166 1754
3 1296 1053 1297
3 966 964 1846
3 976 899 985
3 982 976 984
3 702 1815 2015
3 900 899 976
3 1143 995 1206
3 1576 1024 1827
3 1235 1248 1733
3 1558 1557 1560
3 943 995 1143
3 1920 1144 1943
3 1471 2115 2477
3 29 30 255
3 132 133 254
3 1630 1633 1634
3 1225 1224 1226
3 1925 1573 1926
3 1211 1205 1692
3 725 825 826
3 1113 924 1114
3 600 579 1988
3 717 1552 1567
3 1820 1657 1936
3 674 276 2099
3 395 393 1877
3 572 543 1897
3 1575 1308 2255
3 999 1000 1028
3 1118 1775 1876
3 1797 1798 2430
3 526 546 559
3 867 853 2186
3 1142 1771 1949
3 1068 1275 1442
3 679 385 1779
3 1607 1558 1789
3 580 568 1758
3 1244 1252 1253
3 1760 1761 1762
3 398 402 403
3 1476 1258 1478
3 418 421 889
3 1771 1147 1839
3 164 213 1658
3 1720 1721 2267
3 1668 1591 2512
3 1042 1128 1445
3 1098 1830 1833
3 1102 1092 1103
3 2249 884 2466
3 1104 1103 1434
3 410 416 1821
3 514 513 541
3 580 1758 1763
3 637 673 1741
3 1913 936 1914
3 1394 1395 2337
3 919 920 999
3 577 554 579
3 2111 1660 2263
3 231 1658 1659
3 612 613 644
3 568 543 572
3 770 775 1806
3 1445 1128 1446
3 1546 1548 1842
3 448 460 478
3 810 870 871
3 1789 1560 1819
3 1154 1082 1431
3 873 973 1802
3 379 385 679
3 837 850 921
3 1461 1462 1463
3 1346 1076 1420
3 1088 1344 1808
3 2125 1143 2353
3 931 977 978
3 882 772 1802
3 29 255 1765
3 849 1513 2180
3 1713 827 1806
3 1130 1396 1397
3 681 638 852
3 1417 1321 1873
3 1654 1402 2530
3 502 526 1740
3 1124 888 2177
3 1266 1460 1461
3 515 1175 1840
3 1253 1264 1669
3 479 466 1813
3 1727 1729 1757
3 379 380 385
3 1971 1480 2514
3 1637 1739 2459
3 1207 1205 1208
3 529 519 1899
3 1129 1845 1929
3 224 1661 2267
3 192 1856 2361
3 732 734 1807
3 1184 2163 2435
3 1119 1120 1353
3 415 414 431
3 719 724 725
3 559 546 1750
3 871 872 970
3 1038 917 1622
3 574 699 1752
3 166 167 1679
3 1117 1118 1119
3 1409 1196 2035
3 617 619 621
3 1172 1173 1439
3 1191 1005 1768
3 664 663 684
3 494 493 1841
3 890 529 1731
3 840 802 841
3 493 974 1841
3 385 386 399
3 679 1779 1780
3 371 376 379
3 416 433 1109
3 670 769 1815
3 902 866 903
3 1780 1779 1781
3 480 515 1840
3 970 971 1042
3 433 448 1714
3 28 29 1765
3 1005 949 1142
3 778 780 1117
3 959 1037 1799
3 1073 1003 1076
3 535 532 1898
3 1119 1118 1120
3 658 657 693
3 1378 1379 1380
3 1397 1396 1809
3 1610 1609 1612
3 1819 1560 2016
3 1837 952 1865
3 1719 1131 1881
3 1131 1399 1400
3 1352 1138 2058
3 399 406 409
3 548 1630 2041
3 1275 1338 2251
3 582 1816 1818
3 1835 1836 2144
3 993 1101 1980
3 1699 1698 1700
3 2407 364 2505
3 1189 1190 1788
3 1117 780 1118
3 1830 1829 1831
3 637 672 673
3 692 804 1072
3 1204 1203 1205
3 1374 1170 2139
3 612 692 1794
3 1642 1408 2286
3 723 808 809
3 450 459 1812
3 409 410 414
3 802 801 1778
3 1853 1854 2483
3 1042 1127 1128
3 1199 1846 2225
3 1147 990 1273
3 1383 1384 2432
3 432 431 438
3 1353 1120 1390
3 1093 1091 1094
3 2020 250 2254
3 148 149 1639
3 606 605 648
3 1970 2016 2422
3 2201 2046 2327
3 475 471 513
3 412 407 1951
3 1991 246 2139
3 727 695 728
3 1673 234 1788
3 1554 1556 1559
3 1089 663 1746
3 1846 964 2056
3 923 991 1088
3 409 406 410
3 729 728 730
3 1424 1427 1856
3 1473 1911 2407
3 1376 1377 1378
3 1010 1374 1510
3 853 852 854
3 366 369 1087
3 772 873 1802
3 1219 1218 1626
3 1766 229 2061
3 1088 991 1344
3 922 810 1826
3 518 506 695
3 405 402 2116
3 962 1664 2316
3 913 942 1002
3 932 990 1147
3 629 813 1816
3 876 877 992
3 399 386 406
3 932 845 990
3 1002 1123 1131
3 843 996 1145
3 781 837 1775
3 262 2304 2491
3 431 696 1814
3 1273 1695 1892
3 731 730 732
3 737 732 1807
3 439 438 450
3 1829 498 1841
3 800 685 801
3 767 814 815
3 1060 766 1656
3 673 766 767
3 1403 1605 1882
3 716 718 719
3 1338 1069 1339
3 847 752 1843
3 864 862 1116
3 2302 443 2519
3 923 827 991
3 526 559 1740
3 1911 1473 2358
3 1085 1310 1867
3 809 899 900
3 1227 1226 1228
3 729 730 731
3 1436 1370 1437
3 731 732 737
3 769 827 923
3 456 452 471
3 1433 1503 2471
3 1435 1103 1623
3 385 380 386
3 1141 1787 2460
3 1354 1088 1808
3 657 649 1848
3 415 431 432
3 484 892 1820
3 727 728 729
3 855 854 1450
3 1721 1722 1723
3 1643 1353 1644
3 1145 1916 1960
3 1421 1191 1422
3 466 1812 1813
3 943 944 995
3 1356 1357 1376
3 714 715 716
3 1156 1094 1157
3 598 611 612
3 631 1600 2298
3 590 589 605
3 965 969 1919
3 416 1109 1821
3 242 1697 2335
3 1548 1547 1549
3 550 573 584
3 584 604 632
3 409 414 415
3 712 713 714
3 642 670 702
3 818 698 819
3 1006 1005 1191
3 1624 1689 1691
3 169 170 237
3 173 174 238
3 956 912 1003
3 937 936 1913
3 1317 1025 1875
3 515 540 550
3 973 1799 1800
3 973 959 1799
3 518 695 727
3 910 819 912
3 584 573 604
3 1170 946 1418
3 173 238 1847
3 550 540 573
3 982 984 1148
3 900 976 982
3 441 435 452
3 448 478 1714
3 1849 1648 2173
3 1631 1628 1637
3 1830 1831 1832
3 1383 1216 1384
3 734 772 882
3 949 933 1770
3 1332 1330 1333
3 574 575 591
3 1105 1088 1354
3 702 670 1815
3 498 494 1841
3 827 770 1806
3 873 959 973
3 1390 1391 1415
3 450 438 459
3 950 949 1005
3 351 362 364
3 1313 1029 1314
3 432 438 439
3 837 838 850
3 1273 1274 1695
3 850 851 943
3 911 952 1837
3 1259 1260 1804
3 566 587 588
3 1037 1216 1383
3 1337 1265 1538
3 1087 369 1795
3 810 655 870
3 1559 1561 1566
3 1147 1273 1839
3 732 733 734
3 1662 867 2126
3 890 1731 2241
3 1854 1852 2397
3 515 479 540
3 451 450 466
3 697 666 698
3 1367 1316 1368
3 662 660 663
3 365 355 694
3 1358 1114 1767
3 379 376 380
3 1796 1448 1797
3 179 180 1859
3 790 668 849
3 569 568 580
3 690 860 931
3 466 450 1812
3 431 414 696
3 1973 1133 1974
3 651 649 657
3 467 466 479
3 1288 1289 1835
3 264 265 1986
3 1302 1303 1304
3 592 596 597
3 1873 1321 2037
3 544 543 568
3 275 277 549
3 209 1937 2389
3 539 565 566
3 1485 227 1486
3 2384 2190 2408
3 1781 1779 1783
3 480 479 515
3 689 1416 2413
3 1108 1161 1539
3 1867 1310 1895
3 1300 1301 1302
3 1695 1696 1697
3 633 632 668
3 1304 1451 1452
3 988 911 1837
3 168 169 1724
3 969 1012 1172
3 582 629 1816
3 1843 752 1900
3 629 812 813
3 710 711 712
3 1782 1780 1784
3 536 535 543
3 1089 1746 1969
3 1108 1107 1161
3 1514 1426 1856
3 486 484 1820
3 369 371 1795
3 1817 988 1924
3 493 609 974
3 1422 1191 2023
3 1426 1424 1856
3 842 875 924
3 922 1826 2259
3 989 1361 1886
3 928 1070 1288
3 669 668 790
3 1113 1114 1356
3 1027 847 1843
3 728 695 1098
3 734 735 772
3 975 1107 1108
3 955 859 1962
3 813 911 988
3 1208 1448 1796
3 1101 1405 1980
3 602 676 2045
3 586 581 589
3 546 547 563
3 493 491 609
3 628 1524 2390
3 348 344 354
3 1298 1299 1300
3 509 538 539
3 974 609 975
3 813 891 911
3 871 870 872
3 1355 1354 1423
3 489 486 1820
3 778 779 780
3 1025 1176 1875
3 772 773 873
3 803 1743 2347
3 167 202 1679
3 873 883 959
3 1483 1571 2375
3 427 1756 2221
3 540 1813 1954
3 1202 1200 1203
3 959 1035 1037
3 837 921 1775
3 1304 1305 1451
3 1799 1383 2195
3 604 642 1862
3 1470 1744 2474
3 1854 2397 2453
3 1282 1269 1386
3 1573 1572 2157
3 472 2222 2290
3 1307 1708 2341
3 769 770 827
3 1037 1215 1216
3 791 790 856
3 1053 1052 1822
3 1056 1727 1728
3 1341 1138 1352
3 1300 1299 1301
3 1814 696 1838
3 1198 1196 1409
3 492 491 493
3 439 450 451
3 1171 858 2132
3 1259 1254 1260
3 665 626 666
3 970 872 971
3 258 1602 2357
3 1296 1297 1472
3 490 489 491
3 516 437 2494
3 1298 1027 1299
3 846 845 932
3 501 508 509
3 460 461 502
3 448 449 460
3 482 480 1840
3 1229 1228 1230
3 604 641 642
3 1424 1423 1427
3 502 503 526
3 1028 1000 1029
3 935 933 949
3 1084 1085 1867
3 2028 1711 2353
3 1513 1426 1514
3 892 482 1840
3 852 638 1988
3 402 395 1877
3 738 737 845
3 413 412 418
3 1119 1353 1643
3 526 527 546
3 280 279 281
3 1731 1155 2123
3 1042 971 1127
3 1208 1447 1448
3 433 434 448
3 262 159 2304
3 184 1454 2303
3 1051 1052 1053
3 1816 1817 1818
3 1081 1417 1444
3 781 836 837
3 911 951 952
3 1090 1092 1102
3 202 168 1724
3 1085 1309 1310
3 408 407 412
3 1337 1538 1864
3 1515 1514 1516
3 530 529 890
3 1517 1518 1519
3 549 686 687
3 923 1088 1105
3 404 403 407
3 1835 1289 1836
3 1314 1367 2121
3 1380 1379 2416
3 670 671 769
3 899 808 1874
3 1040 903 1703
3 1596 1595 2154
3 1496 1495 1497
3 636 637 1741
3 1377 1638 2288
3 1288 1070 1289
3 1072 804 1981
3 1129 1334 1845
3 1865 1084 1866
3 792 922 1603
3 1253 1252 1254
3 981 1167 1792
3 1302 1301 1303
3 1641 1651 2019
3 952 953 1084
3 1813 1812 1869
3 732 730 733
3 975 1106 1107
3 1142 949 1770
3 981 1166 1167
3 840 841 842
3 451 466 467
3 1273 990 1274
3 1049 1050 1051
3 1473 2407 2505
3 968 966 1199
3 642 643 670
3 1310 1309 1311
3 422 419 435
3 1063 833 1082
3 919 782 920
3 911 891 951
3 1084 953 1085
3 1763 1764 2164
3 1498 1497 1682
3 515 550 1175
3 1079 937 1913
3 642 702 1862
3 845 737 1931
3 1394 1311 1395
3 1395 1521 1522
3 467 479 480
3 1755 1754 1793
3 1231 1230 1232
3 1557 1553 2030
3 1624 1691 2262
3 584 632 633
3 1094 1091 1969
3 708 709 710
3 1948 1627 2488
3 952 951 953
3 1102 1103 1104
3 1047 1048 1049
3 1310 1311 1394
3 1852 1099 1985
3 143 144 1717
3 813 812 891
3 1944 1044 1945
3 1105 1354 1355
3 1300 1302 1455
3 1914 936 1940
3 1415 1391 1710
3 1299 1027 1843
3 952 1084 1865
3 1695 1274 1696
3 776 774 1928
3 282 281 283
3 2003 1347 2279
3 1206 995 1499
3 1164 1685 1686
3 1551 1565 2030
3 969 1172 1919
3 633 668 669
3 734 733 735
3 1373 1372 1438
3 599 600 636
3 1431 1860 2487
3 1579 1577 1999
3 484 482 892
3 917 940 941
3 2144 1836 2169
3 1866 1084 1867
3 1110 1747 1748
3 998 1171 1811
3 1390 1120 1391
3 644 1824 2057
3 1362 1961 2048
3 944 1283 1825
3 1086 1027 1298
3 679 1780 1782
3 974 975 1879
3 507 506 518
3 1121 1079 1401
3 775 777 778
3 1965 762 2349
3 1045 1046 1047
3 1772 421 2106
3 16 17 2081
3 416 417 433
3 921 850 2125
3 1607 1855 1958
3 649 648 1848
3 1241 1240 1242
3 2012 1443 2251
3 926 928 1920
3 1487 1488 2025
3 1006 1191 1421
3 1355 1423 1424
3 1133 852 1988
3 591 592 1776
3 1299 1843 1857
3 1085 1308 1309
3 490 491 492
3 958 694 1575
3 1384 1216 1385
3 741 915 1878
3 1233 1232 1234
3 669 790 791
3 481 480 482
3 687 703 704
3 492 493 494
3 1634 1633 1922
3 1697 1696 1698
3 1721 985 1722
3 1839 1273 1892
3 772 735 773
3 488 486 489
3 950 1005 1006
3 1513 1514 1515
3 454 500 501
3 873 773 883
3 284 283 285
3 2185 1505 2442
3 959 883 1035
3 543 535 1897
3 1904 1384 2093
3 800 801 802
3 1037 1035 1215
3 1293 1964 1965
3 1239 1238 1240
3 943 1143 2125
3 1782 1784 1785
3 913 756 942
3 488 490 1884
3 1590 1749 2501
3 1235 1234 1236
3 791 856 1408
3 702 2015 2070
3 1108 1539 1540
3 1021 1023 1045
3 695 506 1828
3 1530 1528 1532
3 488 489 490
3 1621 1619 2161
3 704 705 706
3 1304 1303 1305
3 558 1704 2167
3 625 622 626
3 542 553 554
3 604 573 641
3 664 684 685
3 564 571 574
3 1108 1540 1879
3 1856 1427 2361
3 880 1025 1129
3 1395 1311 1521
3 1466 1465 1467
3 915 495 1884
3 1515 1516 1523
3 1237 1236 1238
3 606 648 649
3 999 920 1000
3 676 829 1043
3 2100 794 2142
3 227 151 1500
3 577 579 599
3 153 154 1671
3 1175 550 1927
3 1014 888 1015
3 286 285 287
3 1649 1280 2427
3 1725 204 2137
3 975 609 1106
3 1129 1317 1334
3 1109 1730 2426
3 1468 1467 1469
3 1131 1123 1399
3 1215 2235 2378
3 1976 1149 1989
3 397 395 398
3 746 743 1878
3 1041 1343 1598
3 975 1108 1879
3 741 495 915
3 1167 1754 1755
3 288 287 289
3 743 741 1878
3 1274 990 1931
3 1506 214 1507
3 857 1584 2277
3 2341 1522 2387
3 846 932 933
3 1107 1106 1110
3 584 633 1927
3 290 289 291
3 722 591 1776
3 1544 1094 1969
3 1135 270 1647
3 935 949 950
3 1920 1288 2080
3 754 1896 2108
3 1693 1199 2225
3 292 291 293
3 394 393 395
3 745 743 746
3 1002 942 1123
3 731 737 738
3 294 293 295
3 1018 1573 1925
3 296 295 297
3 298 297 299
3 321 322 325
3 317 320 321
3 314 315 317
3 312 313 314
3 310 311 312
3 308 309 310
3 1898 890 2275
3 306 307 308
3 304 305 306
3 1401 1079 1913
3 300 299 301
3 302 303 304
3 300 301 302
3 302 301 303
3 491 489 1936
3 298 299 300
3 304 303 305
3 306 305 307
3 308 307 309
3 310 309 311
3 312 311 313
3 314 313 315
3 317 315 320
3 321 320 322
3 1301 1299 1857
3 514 541 542
3 296 297 298
3 850 838 851
3 1310 1394 1895
3 294 295 296
3 590 605 606
3 292 293 294
3 651 657 658
3 290 291 292
3 1207 1208 1796
3 835 1976 1989
3 621 619 622
3 746 1878 1896
3 481 482 483
3 1026 847 1027
3 1335 1207 1870
3 1661 59 2266
3 727 729 1155
3 288 289 290
3 1058 776 1928
3 662 663 664
3 495 488 1884
3 1959 319 2522
3 943 851 944
3 1293 1291 1964
3 534 532 535
3 640 645 646
3 2280 1014 2385
3 286 287 288
3 591 575 592
3 521 519 529
3 13 14 2114
3 780 779 781
3 918 908 1850
3 837 836 838
3 209 148 1639
3 754 748 1896
3 745 746 747
3 769 671 770
3 929 1065 2197
3 1278 1058 1279
3 483 482 484
3 1564 1557 2030
3 633 807 1927
3 392 391 393
3 1057 1621 2161
3 569 580 581
3 284 285 286
3 876 992 1894
3 497 494 498
3 1630 1635 2041
3 982 1148 1918
3 612 611 613
3 700 634 1044
3 822 674 2099
3 880 1129 1929
3 432 439 654
3 1039 1291 1292
3 1164 1686 1989
3 1129 1025 1317
3 738 845 846
3 582 583 629
3 278 6 279
3 544 568 569
3 1701 1274 1931
3 747 749 751
3 1085 953 1308
3 928 930 1070
3 747 748 749
3 1421 1422 2415
3 902 903 904
3 1309 1308 1543
3 642 641 643
3 904 981 1792
3 646 784 785
3 536 543 544
3 1204 1205 1207
3 365 694 958
3 71 72 217
3 88 89 1901
3 87 88 193
3 101 102 189
3 85 86 242
3 99 100 241
3 74 75 192
3 91 92 219
3 94 95 191
3 83 84 220
3 97 98 221
3 77 78 218
3 80 81 194
3 89 90 245
3 62 63 244
3 60 61 188
3 64 65 223
3 67 68 190
3 90 91 1909
3 98 99 1905
3 61 62 1908
3 69 70 243
3 68 69 1907
3 70 71 1910
3 410 411 416
3 586 589 590
3 685 684 2029
3 390 389 391
3 1715 1150 1811
3 1924 1837 2215
3 282 283 284
3 496 497 1929
3 233 1671 1769
3 627 2185 2442
3 1567 1552 2062
3 629 630 812
3 424 453 454
3 583 562 1942
3 749 750 805
3 744 743 745
3 1897 535 1898
3 467 480 481
3 504 759 880
3 670 643 671
3 89 245 1901
3 193 88 1901
3 221 98 1905
3 245 90 1909
3 91 219 1909
3 62 244 1908
3 188 61 1908
3 99 241 1905
3 190 68 1907
3 71 217 1910
3 69 243 1907
3 243 70 1910
3 505 499 506
3 475 513 514
3 1945 1044 2071
3 1712 2125 2353
3 339 343 440
3 989 1360 1361
3 764 869 1152
3 778 777 779
3 1686 1685 1687
3 742 741 743
3 979 989 1886
3 729 731 1887
3 926 927 928
3 1305 1306 1307
3 1838 1278 2292
3 747 746 748
3 181 182 1652
3 1886 1361 2305
3 1595 1594 2486
3 597 596 598
3 928 1288 1920
3 1970 824 2156
3 1425 1424 1426
3 497 504 1929
3 748 746 1896
3 745 747 1900
3 998 858 1171
3 563 547 564
3 1155 729 1887
3 634 583 1942
3 1439 1173 1440
3 1026 1027 1086
3 79 80 1904
3 1533 1532 1536
3 1449 1426 1513
3 1106 609 1936
3 1318 1013 1319
3 1098 695 1828
3 492 494 496
3 750 748 754
3 731 738 1887
3 2415 1422 2516
3 533 562 582
3 988 1837 1924
3 1216 1215 1863
3 534 535 536
3 747 751 1900
3 1753 809 2119
3 1183 824 1970
3 740 495 741
3 80 194 1904
3 893 383 2087
3 655 605 1939
3 1884 2034 2082
3 1301 1857 1923
3 1307 1306 1708
3 752 745 1900
3 750 754 755
3 76 77 1903
3 2090 2347 2365
3 255 30 2159
3 132 254 2160
3 448 434 449
3 753 848 926
3 1075 1074 1327
3 487 488 495
3 377 381 647
3 483 484 485
3 755 754 2148
3 1584 1925 2277
3 1186 1183 1970
3 951 891 1281
3 485 484 486
3 546 527 547
3 133 134 1766
3 1786 1785 2409
3 280 281 282
3 460 449 461
3 744 745 752
3 77 218 1903
3 983 1918 2342
3 1708 1306 1810
3 1389 2069 2170
3 487 486 488
3 641 573 1954
3 507 518 519
3 502 461 503
3 519 518 1899
3 1202 1203 1204
3 821 897 1972
3 92 93 1902
3 521 529 530
3 749 748 750
3 2176 1380 2416
3 885 826 886
3 485 486 487
3 371 372 376
3 1289 1070 1871
3 1110 1657 1747
3 753 926 1943
3 700 1044 1944
3 880 881 1025
3 496 1845 2034
3 1072 1981 2393
3 462 464 2134
3 1949 1771 2359
3 1044 634 1942
3 550 584 1927
3 1390 1415 2118
3 526 503 527
3 990 845 1931
3 1009 1213 1214
3 740 742 1144
3 219 92 1902
3 727 1155 1899
3 369 370 371
3 623 690 2150
3 1279 1058 1928
3 1408 2235 2286
3 487 495 740
3 979 1886 2086
3 1305 1303 1306
3 421 412 1951
3 843 844 996
3 633 669 807
3 518 727 1899
3 826 825 1961
3 1657 1106 1936
3 1172 1012 1173
3 740 741 742
3 433 417 434
3 505 506 507
3 1333 1674 2437
3 742 743 744
3 469 458 470
3 1381 1380 1382
3 1293 1965 2515
3 1554 1559 2062
3 553 557 2499
3 1774 389 2339
3 497 498 499
3 483 485 576
3 740 1144 1935
3 773 735 834
3 366 367 369
3 1120 1118 1876
3 1515 1523 1574
3 1319 1013 2039
3 1303 1301 1923
3 457 447 458
3 561 593 594
3 1355 1424 1425
3 609 491 1936
3 204 1732 2137
3 791 1408 1642
3 995 944 1825
3 456 471 475
3 1692 1693 2239
3 580 1763 2164
3 1292 1293 2117
3 441 452 456
3 388 384 389
3 823 821 1972
3 504 880 1929
3 176 177 1680
3 1070 1071 1871
3 15 2260 2477
3 362 363 366
3 2178 2300 2449
3 1035 883 1036
3 2285 1563 2307
3 978 977 1074
3 1090 1102 2029
3 1810 1306 1923
3 496 494 497
3 1306 1303 1923
3 432 654 1915
3 934 933 935
3 356 355 365
3 398 403 404
3 635 701 843
3 1110 1106 1657
3 574 571 575
3 1025 881 1176
3 386 380 786
3 415 432 1915
3 343 347 1911
3 1070 930 1071
3 1688 1740 2231
3 1385 1216 1863
3 1696 1274 1701
3 1645 305 2317
3 880 759 881
3 926 848 927
3 1427 1423 2217
3 1339 1662 2388
3 770 774 775
3 1263 1257 1428
3 1337 1864 2412
3 349 348 355
3 2267 1721 2498
3 753 752 847
3 1375 1086 1473
3 900 982 983
3 332 335 739
3 429 428 430
3 744 752 753
3 1171 2132 2165
3 1425 1426 1449
3 987 641 1954
3 1883 1786 2409
3 427 426 428
3 928 927 930
3 1815 1105 2015
3 1206 1499 1941
3 410 406 411
3 573 540 1954
3 497 499 504
3 528 560 561
3 1933 1404 2399
3 1091 1089 1969
3 1804 1282 2073
3 504 505 759
3 963 924 1113
3 1711 1710 1712
3 881 759 1146
3 968 1199 1200
3 351 352 362
3 848 847 1026
3 521 530 531
3 1884 490 2034
3 1277 957 1966
3 1349 1350 2329
3 676 1043 2045
3 997 1159 1286
3 517 1889 1890
3 781 835 836
3 944 948 1283
3 722 1776 2026
3 507 519 520
3 2040 1352 2058
3 1276 957 1277
3 446 437 447
3 931 860 977
3 361 359 765
3 1248 1536 2534
3 512 523 528
3 408 412 413
3 1368 1369 1370
3 451 2169 2223
3 192 75 1994
3 942 756 2026
3 345 344 348
3 764 1152 1963
3 413 418 419
3 1286 1773 1774
3 770 671 774
3 275 549 2124
3 1497 1645 2461
3 1982 1472 2272
3 422 435 441
3 281 279 736
3 1134 270 1135
3 582 562 583
3 1421 2415 2454
3 485 487 1935
3 2300 1067 2480
3 1578 1576 1827
3 930 927 1061
3 1026 1086 1375
3 922 2259 2379
3 1391 1120 1876
3 1495 1494 2493
3 404 407 408
3 879 2178 2449
3 1700 1698 2036
3 607 1517 1520
3 753 847 848
3 416 411 417
3 1144 742 1943
3 775 776 777
3 754 2108 2148
3 1006 1421 1953
3 585 581 586
3 531 530 532
3 235 1709 1888
3 520 519 521
3 1180 1181 1349
3 1146 759 1967
3 708 710 1921
3 1350 2253 2329
3 436 430 437
3 504 499 505
3 643 641 987
3 336 330 517
3 811 1059 1149
3 1164 1411 1685
3 846 933 934
3 635 843 1960
3 983 982 1918
3 971 872 1096
3 1149 1163 1164
3 169 237 1724
3 1314 1315 1316
3 629 583 630
3 891 812 1916
3 462 463 464
3 487 740 1935
3 798 2084 2189
3 1814 1838 2292
3 1284 1489 1491
3 340 336 2014
3 1670 1461 2200
3 920 782 2057
3 890 2241 2275
3 510 511 512
3 278 279 280
3 839 802 840
3 1858 235 1888
3 1698 1696 2036
3 104 105 222
3 57 58 224
3 1185 1183 1186
3 588 587 623
3 638 600 1988
3 1282 1386 2245
3 811 776 1058
3 816 815 876
3 2034 1845 2082
3 761 636 1741
3 566 565 587
3 174 175 1725
3 347 350 351
3 1469 1495 1496
3 1059 1058 1278
3 811 1149 1976
3 576 485 1935
3 659 658 660
3 859 1153 1962
3 76 1903 1994
3 1821 1109 2426
3 1294 1038 1622
3 733 1833 2075
3 992 993 1980
3 1566 1561 2285
3 525 474 2041
3 464 465 510
3 343 346 347
3 360 893 1982
3 650 649 651
3 896 608 936
3 950 1006 1007
3 1508 1859 1860
3 539 538 565
3 440 343 1911
3 341 340 344
3 221 1905 1906
3 1297 1823 2142
3 759 505 1967
3 1295 1053 1296
3 473 470 474
3 1463 1465 1466
3 1143 1206 2028
3 799 685 800
3 1210 2077 2203
3 509 508 538
3 492 496 2034
3 1553 1551 2030
3 1260 1261 1269
3 1430 1040 1703
3 586 590 1940
3 838 836 868
3 1705 624 2276
3 1749 972 2501
3 742 744 1943
3 804 962 1981
3 1367 1368 2254
3 531 532 533
3 337 336 340
3 1157 1094 1544
3 536 544 1158
3 812 630 1960
3 781 779 835
3 56 57 1947
3 630 583 634
3 1405 1404 1932
3 1281 891 1916
3 339 342 343
3 1411 1163 1730
3 322 323 324
3 344 340 2091
3 1735 1734 1736
3 75 76 1994
3 430 682 2494
3 1907 243 2360
3 589 581 2164
3 694 355 2196
3 744 753 1943
3 775 774 776
3 1210 1430 2077
3 335 338 339
3 1102 1803 2029
3 1078 937 1079
3 870 655 1939
3 505 507 1967
3 357 360 1982
3 1896 1878 2101
3 326 325 328
3 934 935 957
3 585 608 895
3 333 330 336
3 1270 1272 1524
3 688 817 878
3 507 520 1967
3 1428 1257 2074
3 1818 1817 2000
3 896 937 1077
3 934 957 1111
3 329 328 330
3 1499 995 1825
3 944 851 948
3 387 445 462
3 1678 1161 2228
3 777 776 811
3 313 311 757
3 324 331 332
3 848 1026 1955
3 1312 998 1811
3 1321 1322 2037
3 1080 1079 1121
3 1105 1355 2015
3 1645 2317 2461
3 1559 1568 2062
3 332 334 335
3 501 500 508
3 321 325 326
3 394 395 397
3 322 320 323
3 1529 1530 2171
3 1137 797 1138
3 811 1058 1059
3 661 660 662
3 569 581 585
3 183 4 2303
3 5 160 2304
3 1340 1138 1341
3 1660 1626 2185
3 1743 1464 2347
3 1026 1375 1955
3 1149 1059 1163
3 1736 1625 2194
3 1322 1667 2434
3 311 309 1959
3 309 307 319
3 894 700 1944
3 533 534 562
3 1276 1277 1366
3 2190 1706 2408
3 533 532 534
3 1214 1213 1410
3 1164 1163 1411
3 843 701 844
3 1009 1214 2055
3 234 1589 1788
3 2000 1817 2174
3 317 321 2050
3 328 325 945
3 392 393 394
3 588 623 2089
3 1162 958 1681
3 1078 1080 1136
3 927 848 1955
3 1496 1497 1498
3 390 391 392
3 1061 927 1955
3 1283 948 1284
3 635 634 700
3 1244 1251 1252
3 218 78 2093
3 756 722 2026
3 1071 1784 2419
3 1218 1505 2185
3 1284 948 1285
3 1489 1285 1490
3 918 1850 1851
3 684 1090 2029
3 1759 572 2537
3 1691 1690 2446
3 1979 1158 2071
3 606 649 650
3 2045 1043 2046
3 103 104 2025
3 630 634 635
3 360 383 893
3 406 386 2043
3 1909 219 2023
3 1111 957 1276
3 1925 1437 2277
3 1536 2268 2340
3 854 852 1133
3 233 153 1671
3 651 658 659
3 2099 1787 2368
3 1033 1032 1130
3 1015 1372 1373
3 1412 942 2026
3 253 264 1441
3 1531 1534 2332
3 701 700 894
3 106 107 1990
3 2048 1961 2455
3 276 274 2099
3 738 846 1968
3 1325 925 1326
3 896 936 937
3 585 586 608
3 1450 854 1973
3 1361 1360 1362
3 1045 1668 2512
3 303 301 444
3 996 844 997
3 79 1904 2093
3 1989 1686 2095
3 1928 774 2033
3 1942 562 1979
3 287 285 316
3 935 950 1966
3 1466 1467 1468
3 1242 1243 1244
3 1887 738 1968
3 2115 210 2477
3 878 929 1083
3 1326 1736 2194
3 886 888 1014
3 895 608 896
3 289 287 1978
3 821 822 897
3 936 608 1940
3 613 614 615
3 51 52 1996
3 417 411 1160
3 1149 1164 1989
3 386 786 2043
3 285 283 1971
3 1309 1543 2147
3 375 373 2053
3 371 370 372
3 779 777 1976
3 1286 1159 1773
3 2177 887 2376
3 1560 1557 1564
3 1403 1882 2399
3 1727 1757 2246
3 279 6 2049
3 1619 1438 2438
3 291 289 758
3 1781 1915 2294
3 425 401 426
3 349 355 356
3 66 67 2118
3 474 548 2041
3 1686 1687 2007
3 1262 1456 1457
3 1123 942 1412
3 1916 812 1960
3 1355 1425 2015
3 735 733 2075
3 1861 879 2449
3 1284 1285 1489
3 490 492 2034
3 366 363 367
3 980 578 2051
3 906 904 1792
3 534 536 1979
3 842 924 963
3 2051 578 2083
3 1077 937 1078
3 1102 1104 1803
3 894 1944 1946
3 398 404 2060
3 1007 1006 1953
3 369 367 370
3 348 354 2196
3 1078 1079 1080
3 1378 1380 1381
3 1568 1365 2439
3 608 586 1940
3 598 610 611
3 760 636 761
3 869 1137 1351
3 671 643 2033
3 1661 1345 2267
3 938 914 1057
3 783 761 914
3 576 1835 2144
3 388 389 390
3 297 295 318
3 454 453 500
3 1906 1728 2246
3 1439 1440 2468
3 1159 1013 1318
3 764 797 869
3 236 143 1717
3 782 644 2057
3 592 595 596
3 1542 2332 2443
3 1521 1311 2147
3 345 348 349
3 1304 1452 2205
3 1644 1907 2360
3 2146 1125 2149
3 997 844 1013
3 628 375 2053
3 299 297 1984
3 957 935 1966
3 664 685 799
3 301 299 1975
3 362 352 363
3 777 811 1976
3 1942 1979 2071
3 1001 920 2057
3 312 314 768
3 1552 1554 2062
3 615 616 617
3 357 1982 2076
3 800 802 839
3 774 671 2033
3 1749 1169 2105
3 365 958 1162
3 617 618 619
3 283 281 1938
3 1351 1772 2414
3 1525 1765 2489
3 846 934 1968
3 635 700 701
3 555 554 577
3 536 1158 1979
3 1101 1404 1405
3 630 635 1960
3 1811 1150 2089
3 2113 1666 2249
3 172 173 1847
3 107 108 195
3 54 55 196
3 1191 1768 2023
3 1455 1302 2205
3 115 116 2017
3 1387 1333 2437
3 659 661 764
3 1080 1121 1188
3 50 51 2011
3 411 406 2043
3 295 293 1983
3 643 987 2033
3 707 706 708
3 129 130 261
3 32 33 260
3 2159 260 2265
3 449 434 567
3 1314 1029 1315
3 917 796 940
3 378 375 628
3 108 109 1991
3 2370 1759 2537
3 341 344 345
3 997 1013 1159
3 544 569 1993
3 950 1007 1966
3 477 474 525
3 351 350 352
3 1696 1701 2036
3 334 331 803
3 1137 1138 1340
3 562 534 1979
3 109 110 246
3 52 53 247
3 1368 1316 1369
3 659 660 661
3 33 34 2002
3 123 124 2005
3 835 779 1976
3 851 838 1992
3 1530 1533 2172
3 1668 1045 2348
3 1162 1681 1706
3 342 338 468
3 298 300 358
3 765 359 2065
3 725 826 885
3 35 36 2003
3 46 47 2019
3 38 39 2006
3 336 517 2014
3 934 1111 1968
3 116 117 2018
3 650 651 1963
3 223 1711 2162
3 640 594 645
3 1333 1330 2192
3 104 222 2025
3 1603 922 2379
3 963 1113 1115
3 2084 1193 2189
3 564 570 571
3 36 37 2004
3 57 224 1947
3 1542 1601 2269
3 122 123 2012
3 1000 920 1001
3 127 128 240
3 34 35 239
3 383 387 2087
3 1161 1107 2228
3 1781 2294 2419
3 1201 1200 1202
3 124 125 225
3 37 38 226
3 1340 1341 1342
3 869 797 1137
3 839 840 1008
3 1158 544 1993
3 1326 925 1894
3 352 350 353
3 326 329 954
3 1864 2344 2412
3 836 835 2095
3 1051 1053 1295
3 1031 720 1032
3 503 461 787
3 1407 1112 2044
3 661 662 2058
3 838 868 1992
3 112 113 197
3 49 50 198
3 1359 980 1413
3 121 122 211
3 40 41 212
3 48 49 2010
3 113 114 2009
3 1741 673 2131
3 41 42 2020
3 120 121 2013
3 1409 2035 2097
3 1511 1374 2506
3 114 115 248
3 47 48 249
3 42 43 250
3 119 120 251
3 171 6 201
3 6 172 203
3 585 895 1993
3 43 44 2024
3 118 119 2021
3 905 904 906
3 764 661 797
3 337 340 341
3 1413 980 2051
3 117 118 205
3 44 45 206
3 347 346 350
3 1420 1076 1525
3 324 323 331
3 434 417 2031
3 965 967 969
3 716 719 788
3 1260 1254 1261
3 2053 373 2103
3 2069 2068 2170
3 326 328 329
3 1706 996 2408
3 273 275 2124
3 969 1011 1012
3 590 606 2001
3 1718 1611 2280
3 1914 1940 2001
3 915 1884 2082
3 329 330 333
3 620 859 955
3 2168 1409 2305
3 296 298 1997
3 915 2082 2101
3 339 338 342
3 1218 994 1505
3 333 336 337
3 266 263 1742
3 1873 768 2127
3 244 63 2162
3 64 223 2162
3 343 342 346
3 914 761 2258
3 310 312 1987
3 799 800 2055
3 302 304 763
3 1559 1566 1568
3 1598 1343 2114
3 592 575 595
3 341 345 794
3 189 1842 2220
3 767 815 816
3 1003 912 1004
3 839 1008 1009
3 1263 1428 1429
3 564 547 570
3 1845 1334 2082
3 332 331 334
3 901 866 902
3 651 659 1963
3 1009 1112 1213
3 335 334 338
3 569 585 1993
3 1665 1336 2299
3 1945 2071 2153
3 863 862 864
3 907 906 908
3 1849 1486 1930
3 1935 1144 2080
3 967 966 968
3 809 900 2119
3 865 864 866
3 835 1989 2095
3 190 1907 2417
3 333 337 522
3 1110 1748 2228
3 1193 1194 1195
3 94 191 2166
3 473 1854 2453
3 1769 1134 2369
3 948 851 1992
3 237 170 2216
3 420 419 422
3 1448 1447 2364
3 483 576 2144
3 721 1919 2032
3 885 886 1891
3 613 611 614
3 886 1014 1891
3 1160 411 2043
3 1918 1283 2342
3 1651 206 2485
3 1242 1240 1243
3 598 596 610
3 1295 1296 1459
3 1185 1186 1948
3 1425 1449 2070
3 294 296 762
3 1285 948 1992
3 925 876 1894
3 712 714 789
3 603 1668 2398
3 1940 590 2001
3 721 570 964
3 834 735 2075
3 1144 1920 2080
3 2263 1635 2511
3 1204 1207 1335
3 2235 1408 2378
3 965 964 966
3 1990 1435 2218
3 397 398 2060
3 1138 797 2058
3 1787 1141 2368
3 2068 820 2170
3 360 359 361
3 387 462 2087
3 1524 1272 1934
3 819 698 820
3 1197 1196 1198
3 1662 2126 2388
3 78 79 2093
3 1150 588 2089
3 1269 1261 1270
3 1878 915 2101
3 451 467 2169
3 2262 1387 2437
3 1009 1008 1112
3 757 311 1959
3 897 898 1139
3 1854 473 2483
3 2015 1425 2070
3 2082 1334 2101
3 963 1115 1174
3 1047 1049 1287
3 1194 423 1196
3 321 326 2050
3 417 1160 2031
3 854 1133 1973
3 1201 1212 1348
3 705 1586 2163
3 309 319 1959
3 1353 1390 2417
3 427 428 429
3 357 356 359
3 606 650 2001
3 549 1280 2124
3 1213 1112 1407
3 256 2303 2535
3 356 365 2065
3 662 664 2040
3 701 894 2039
3 1325 1371 2451
3 666 626 667
3 1902 93 2166
3 1236 1234 1246
3 800 839 2055
3 1869 1812 2252
3 1197 1364 1365
3 576 1935 2080
3 404 408 798
3 1678 807 2529
3 1560 1564 2016
3 1319 2039 2122
3 425 426 427
3 349 356 357
3 308 310 327
3 1716 622 2484
3 1801 82 2289
3 1768 1949 2420
3 2006 1926 2507
3 351 364 2407
3 420 423 1193
3 659 764 1963
3 292 294 2038
3 840 842 2027
3 736 279 2049
3 372 373 374
3 461 449 2052
3 2189 1195 2285
3 1174 1115 1398
3 367 363 961
3 909 908 918
3 1738 247 2402
3 1007 1761 2308
3 288 290 2135
3 422 441 2035
3 623 624 690
3 537 525 545
3 1953 1421 2454
3 1887 1968 2123
3 861 691 862
3 654 439 2223
3 1136 1080 2054
3 1312 1811 2089
3 575 571 2032
3 383 361 384
3 968 1200 1201
3 797 661 2058
3 1423 1354 2381
3 1180 1178 1181
3 1513 1515 2180
3 72 73 2217
3 462 445 463
3 12 13 2136
3 457 458 469
3 542 554 555
3 599 636 760
3 254 133 1766
3 1130 1397 1937
3 404 798 2060
3 1044 1942 2071
3 690 691 860
3 357 359 360
3 1008 2027 2152
3 1232 1230 1255
3 372 370 373
3 850 943 2125
3 1457 1456 1492
3 1952 324 2282
3 155 2 2356
3 0 7 2357
3 2017 1379 2288
3 918 1851 2008
3 195 1991 2517
3 2090 803 2347
3 1244 1243 1251
3 290 292 368
3 1432 1082 2214
3 1008 840 2027
3 1743 803 2296
3 1013 844 2039
3 365 1162 2065
3 1594 1315 2184
3 387 384 388
3 1508 1860 2311
3 547 527 2056
3 2005 225 2322
3 314 317 2127
3 1853 556 2327
3 201 6 278
3 1907 1644 2417
3 1896 2101 2108
3 646 645 784
3 538 508 558
3 374 375 377
3 1630 1634 1635
3 1579 1999 2352
3 1647 1648 1849
3 1313 1314 2121
3 1179 1433 2042
3 844 701 2039
3 1252 1251 2098
3 816 876 925
3 1922 1228 2281
3 392 394 396
3 1915 654 2294
3 1652 1653 2487
3 429 430 436
3 456 475 476
3 1605 1392 2510
3 126 1882 2284
3 1784 1780 2419
3 500 453 960
3 377 378 381
3 2178 1587 2300
3 1222 1219 1626
3 413 419 420
3 381 382 400
3 2169 1836 2223
3 1906 1905 2129
3 616 614 793
3 1170 1419 2139
3 101 189 2220
3 241 100 2220
3 1968 1111 2123
3 567 434 2031
3 615 614 616
3 1032 720 1921
3 682 428 2138
3 469 470 473
3 339 440 2261
3 1501 238 2226
3 1154 1431 1653
3 446 447 457
3 1251 1243 1257
3 2229 315 2495
3 1201 1202 1212
3 785 784 879
3 464 463 465
3 66 2118 2395
3 324 332 2282
3 286 288 771
3 17 199 2081
3 571 570 721
3 611 610 2092
3 617 616 618
3 1542 1531 2332
3 400 401 424
3 1325 1326 1371
3 1140 1406 1702
3 1323 443 2302
3 1926 1573 2507
3 436 437 446
3 1262 1457 2098
3 67 190 2118
3 1518 1861 2449
3 989 1359 1360
3 1063 1082 1154
3 1757 96 2526
3 969 967 1011
3 868 836 2095
3 1215 1035 2235
3 96 1757 2309
3 261 2160 2380
3 1381 1382 2126
3 1468 1469 2182
3 1334 1317 2108
3 861 863 1064
3 1270 1261 1271
3 360 361 383
3 287 316 1978
3 1856 192 2367
3 1905 241 2129
3 1615 1809 2425
3 528 523 560
3 979 980 989
3 662 2040 2058
3 721 964 965
3 170 171 2216
3 664 799 2040
3 512 511 523
3 1201 1348 2107
3 620 618 858
3 758 289 1978
3 859 858 998
3 424 425 453
3 1616 1615 2193
3 444 301 1975
3 561 560 593
3 965 966 967
3 1798 376 2430
3 340 2014 2091
3 510 465 511
3 107 195 1990
3 1080 1188 2054
3 1153 998 1312
3 1226 1224 1249
3 1012 1011 1363
3 902 904 905
3 842 963 2027
3 268 270 1134
3 865 901 1125
3 2077 558 2102
3 282 284 442
3 1977 1679 2253
3 1496 1498 2047
3 284 286 2063
3 281 736 1938
3 2132 793 2165
3 1674 215 2437
3 2078 1855 2411
3 839 1009 2055
3 1182 824 1183
3 1168 947 1169
3 1289 1871 2242
3 316 285 1971
3 1270 1271 1272
3 1755 1793 2264
3 51 1996 2011
3 383 384 387
3 1146 1924 2215
3 1279 1928 2202
3 619 618 620
3 1194 1196 1197
3 555 578 979
3 1937 1639 2528
3 1262 1257 1263
3 389 384 2339
3 2251 1338 2464
3 1155 1887 2123
3 1151 1937 2528
3 465 463 828
3 1318 1319 2116
3 1687 1688 2231
3 326 954 2050
3 297 318 1984
3 1308 953 2255
3 1846 2056 2198
3 320 315 2229
3 1254 1252 2059
3 760 761 783
3 951 1281 2255
3 1459 1296 2094
3 2288 1638 2470
3 1975 299 1984
3 52 247 1996
3 468 338 2090
3 2140 1511 2506
3 1125 1126 1192
3 593 824 1182
3 720 708 1921
3 704 706 707
3 623 587 624
3 2044 1112 2152
3 1393 1169 1749
3 900 983 2119
3 783 914 938
3 255 2265 2489
3 2039 894 2122
3 317 2050 2127
3 1866 1867 2513
3 374 373 375
3 429 436 455
3 387 388 445
3 1193 423 1194
3 555 577 578
3 1074 977 1187
3 449 567 2052
3 1197 1198 1364
3 2154 1595 2486
3 1486 1849 2173
3 318 295 1983
3 939 1016 1844
3 131 132 2160
3 30 31 2159
3 881 1146 2215
3 1294 1868 2238
3 1300 1455 2314
3 1365 1364 1912
3 783 938 939
3 2061 1735 2441
3 551 545 601
3 2194 216 2536
3 1251 1257 1262
3 888 887 2177
3 1364 1198 2048
3 1498 1682 2340
3 1589 1590 2501
3 60 188 2266
3 1401 1913 2324
3 195 108 1991
3 420 422 423
3 1675 1470 2474
3 258 1673 2183
3 2161 1619 2438
3 1296 1472 2094
3 1808 1910 2381
3 334 803 2090
3 1490 1285 2232
3 523 511 524
3 1240 1238 2074
3 1184 1183 1185
3 39 40 2151
3 473 474 477
3 1461 1463 2200
3 2072 353 2073
3 861 862 863
3 1206 1941 2401
3 958 1575 2287
3 614 611 2092
3 110 111 2140
3 1136 2054 2110
3 645 594 2133
3 260 33 2002
3 673 767 2131
3 989 980 1359
3 1741 2131 2258
3 1317 1875 2148
3 894 1946 2122
3 863 864 865
3 787 461 2052
3 857 2277 2386
3 109 246 1991
3 2017 116 2018
3 1182 1183 1184
3 377 375 378
3 816 925 1324
3 865 866 901
3 1262 1263 1456
3 359 356 2065
3 2129 241 2472
3 283 1938 1971
3 1458 1210 2203
3 1076 1003 2145
3 196 1738 2402
3 1033 1130 1151
3 1188 1121 2106
3 1140 1702 2096
3 549 687 1280
3 1694 1621 2191
3 861 1064 2112
3 1548 1549 2129
3 1784 1071 2462
3 714 716 2066
3 1961 825 2455
3 1447 1211 2250
3 979 578 980
3 905 907 1209
3 381 378 382
3 457 469 552
3 595 575 2032
3 408 413 2084
3 481 483 2144
3 1745 1349 2293
3 1980 1405 2441
3 198 50 2011
3 248 115 2017
3 912 819 2068
3 620 858 859
3 707 708 720
3 821 674 822
3 514 542 2086
3 400 382 401
3 123 2005 2012
3 1772 1351 2374
3 34 239 2002
3 768 314 2127
3 2003 36 2004
3 280 282 2079
3 124 225 2005
3 596 595 2130
3 593 560 824
3 1504 1502 2519
3 239 35 2003
3 1311 1309 2147
3 1318 1877 2240
3 1860 1432 2311
3 1416 1715 2330
3 859 998 1153
3 352 353 2072
3 312 768 1987
3 2027 1174 2152
3 226 38 2006
3 1827 1024 2117
3 1710 1391 2295
3 690 624 691
3 37 226 2004
3 1153 1312 1885
3 853 855 2186
3 1892 242 2373
3 1967 520 2174
3 939 938 1016
3 47 249 2019
3 388 390 2078
3 1991 2139 2517
3 905 906 907
3 571 721 2032
3 1196 423 2035
3 1324 925 1325
3 1151 1130 1937
3 363 352 2072
3 345 349 2076
3 1031 1032 1033
3 214 179 1859
3 211 122 2012
3 602 601 652
3 117 205 2018
3 710 712 2067
3 1602 187 2357
3 520 2000 2174
3 85 242 2335
3 220 84 2335
3 381 400 2113
3 1586 1587 2435
3 424 401 425
3 963 1174 2027
3 860 691 861
3 610 596 2130
3 1958 2078 2431
3 570 547 2056
3 237 2216 2354
3 1211 1692 2219
3 298 358 1997
3 909 947 1041
3 441 456 2097
3 1135 1647 1849
3 1601 1542 2443
3 197 113 2009
3 49 198 2010
3 1911 347 2407
3 1729 191 2309
3 212 41 2020
3 121 211 2013
3 222 105 2218
3 1125 901 1126
3 114 248 2009
3 249 48 2010
3 42 250 2020
3 251 120 2013
3 233 1769 2369
3 1870 647 2113
3 794 345 2076
3 250 43 2024
3 119 251 2021
3 901 902 2141
3 964 570 2056
3 739 335 2261
3 2108 1317 2148
3 577 599 2083
3 205 118 2021
3 44 206 2024
3 1247 1241 2323
3 1894 992 2244
3 6 203 2049
3 1642 1678 2529
3 1417 1873 2333
3 1422 2023 2516
3 341 794 2100
3 73 74 2361
3 1234 1232 2088
3 1261 1254 2059
3 896 1077 2257
3 1921 710 2067
3 125 126 2284
3 220 1699 2289
3 159 5 2304
3 4 184 2303
3 2059 1252 2098
3 1003 1004 2145
3 2328 1325 2451
3 1486 227 1500
3 63 64 2162
3 2081 1192 2260
3 508 500 2102
3 667 1872 2318
3 338 334 2090
3 423 422 2035
3 1192 1126 1471
3 907 908 909
3 1330 1328 2192
3 1972 897 2500
3 2443 316 2514
3 242 86 2373
3 87 193 2373
3 420 1193 2084
3 1473 1086 2358
3 1987 768 2037
3 522 337 2100
3 627 1660 2185
3 1793 446 2264
3 1405 2061 2441
3 1502 1217 2302
3 171 201 2216
3 1158 1993 2153
3 1197 1365 2120
3 1712 1710 2295
3 1121 1401 2414
3 93 94 2166
3 653 652 688
3 622 1716 2452
3 1345 1720 2267
3 477 537 556
3 128 129 2181
3 2331 1295 2458
3 784 645 874
3 1269 1270 2199
3 189 102 2355
3 1041 1168 1343
3 246 110 2140
3 477 525 537
3 755 1895 2371
3 1947 1723 2313
3 1134 1135 2369
3 223 65 2395
3 968 1201 2107
3 1577 1578 2325
3 210 15 2477
3 961 363 2072
3 1581 1579 2352
3 349 357 2076
3 337 341 2100
3 305 303 2317
3 370 367 2103
3 762 296 1997
3 581 580 2164
3 1278 1838 2372
3 1548 2129 2472
3 594 593 2133
3 2021 251 2022
3 2047 1247 2182
3 967 968 2107
3 1169 947 2008
3 481 2144 2169
3 793 614 2092
3 1910 217 2381
3 1251 1262 2098
3 716 788 2066
3 2101 1334 2108
3 2006 39 2151
3 1603 2379 2508
3 1926 2006 2151
3 96 97 2526
3 750 755 2371
3 789 714 2066
3 909 918 947
3 1993 895 2153
3 106 1990 2218
3 1243 1240 2074
3 832 986 1189
3 1283 1284 2342
3 2297 195 2517
3 1043 829 2326
3 767 816 2131
3 602 653 676
3 1004 912 2068
3 2086 1886 2224
3 1124 2177 2467
3 426 401 2531
3 707 720 1030
3 1000 1001 2184
3 1315 1029 2184
3 467 481 2169
3 541 513 2256
3 647 381 2113
3 225 2284 2510
3 2 156 2356
3 187 0 2357
3 40 212 2151
3 2245 1386 2383
3 676 677 829
3 1004 2068 2069
3 1860 232 2487
3 1031 1033 1034
3 829 830 972
3 996 997 2408
3 1195 1194 2120
3 987 1869 2202
3 1410 1213 2222
3 819 820 2068
3 1485 1486 2173
3 1564 2030 2155
3 807 669 2529
3 129 261 2181
3 1525 1076 2145
3 578 577 2083
3 327 310 1987
3 1083 929 2197
3 2131 1324 2258
3 798 408 2084
3 1838 696 2426
3 1486 1500 1930
3 1946 1944 2291
3 2257 1077 2291
3 1512 1661 2266
3 445 388 2078
3 1192 1471 2260
3 2118 1415 2395
3 1466 1468 2158
3 830 677 831
3 211 2012 2251
3 652 601 2442
3 537 545 551
3 558 508 2102
3 198 2011 2128
3 1718 2280 2385
3 500 960 2102
3 1168 1169 1393
3 1127 971 2496
3 95 96 2309
3 2030 1565 2155
3 1919 1172 2273
3 977 860 2112
3 240 128 2181
3 294 762 2038
3 1800 1799 2195
3 712 789 2067
3 972 1749 2326
3 472 1683 2212
3 874 645 2133
3 551 2045 2201
3 2105 1043 2326
3 1957 1212 2301
3 1514 1856 2367
3 565 538 2167
3 373 370 2103
3 355 348 2196
3 1934 1272 2138
3 1934 426 2531
3 1881 1400 2481
3 2046 1851 2327
3 367 961 2103
3 1963 1152 2206
3 201 278 443
3 3 131 2444
3 31 1 2445
3 2035 441 2097
3 503 787 2198
3 1135 1849 1930
3 1534 1983 2306
3 2089 623 2150
3 687 704 2109
3 869 1351 2363
3 1302 1304 2205
3 955 1716 2484
3 1030 720 1031
3 1159 1318 2240
3 1228 1226 2281
3 947 918 2008
3 413 420 2084
3 785 879 2532
3 1041 947 1168
3 1468 2182 2323
3 1246 1234 2088
3 1730 1163 2372
3 542 555 2086
3 1599 631 2312
3 1146 1967 2174
3 1078 1136 2343
3 1515 1574 2180
3 2336 885 2469
3 1257 1243 2074
3 1347 1346 2279
3 2001 650 2206
3 1480 1601 2514
3 1029 1000 2184
3 1956 788 2336
3 1271 1261 2059
3 130 3 2444
3 1 32 2445
3 1570 1507 2197
3 1232 1255 2088
3 791 1642 2529
3 1601 1479 2269
3 1361 1362 2168
3 1634 1922 2281
3 765 2065 2190
3 2071 1158 2153
3 1699 1801 2289
3 832 831 833
3 1864 346 2344
3 456 476 2097
3 1855 828 2411
3 2065 1162 2190
3 1125 1192 2149
3 599 760 2083
3 361 765 2339
3 1731 2123 2241
3 1349 1181 1350
3 1443 1275 2251
3 1819 524 2429
3 1021 1045 2512
3 858 618 2132
3 1999 358 2338
3 368 292 2038
3 290 368 2135
3 803 331 2296
3 1112 1008 2152
3 56 1947 2313
3 555 979 2086
3 1469 1496 2182
3 1011 967 2107
3 248 2017 2288
3 1809 789 2425
3 960 453 2221
3 538 558 2167
3 1858 1187 2248
3 2246 1757 2526
3 902 905 2141
3 1851 1853 2327
3 1224 1222 2111
3 771 288 2135
3 1945 2153 2257
3 1420 1525 2489
3 1399 1123 2393
3 103 2025 2355
3 897 822 898
3 1861 940 2532
3 865 1125 2146
3 1675 2474 2522
3 1573 2157 2507
3 1632 1631 2382
3 551 601 602
3 527 503 2198
3 1708 805 2337
3 1059 1278 2372
3 2056 527 2198
3 860 861 2112
3 1668 2348 2398
3 255 2159 2265
3 1541 1542 2269
3 1428 2074 2227
3 1582 1583 2321
3 389 1774 2503
3 2004 226 2157
3 1777 397 2405
3 1368 1436 2254
3 1061 2409 2462
3 1071 930 2462
3 1126 901 2141
3 1194 1197 2120
3 1452 1952 2282
3 2116 1319 2482
3 105 106 2218
3 1981 1399 2393
3 2119 983 2143
3 444 1682 2461
3 2173 1648 2463
3 616 793 2132
3 1791 1190 2334
3 1826 1728 2259
3 602 652 653
3 1834 1292 2428
3 556 2201 2327
3 1014 1015 2385
3 1995 1287 2331
3 1193 1195 2189
3 816 1324 2131
3 879 1861 2532
3 593 1182 2133
3 1402 266 1742
3 2216 1323 2354
3 1660 1636 2502
3 620 955 2484
3 1162 1706 2190
3 1870 2113 2249
3 204 1680 1732
3 1909 2023 2420
3 217 72 2217
3 376 372 2430
3 905 1209 2141
3 1378 1381 2283
3 1236 1246 2227
3 286 771 2063
3 1635 2263 2502
3 100 101 2220
3 1139 898 1140
3 2114 1343 2136
3 442 284 2063
3 1772 2106 2414
3 1985 1755 2533
3 2192 1328 2315
3 1064 863 2146
3 1631 1637 2459
3 736 2049 2523
3 221 1906 2246
3 318 1983 2171
3 1496 2047 2182
3 1374 2139 2506
3 196 55 2313
3 2087 462 2134
3 676 653 677
3 2304 257 2491
3 1401 2324 2363
3 829 677 830
3 654 2223 2242
3 1187 977 2112
3 1463 1466 2200
3 2023 219 2516
3 1176 881 2215
3 513 471 2290
3 1812 459 2252
3 1386 1269 2199
3 291 758 2306
3 618 616 2132
3 278 280 2210
3 83 220 2289
3 82 83 2289
3 938 1057 2161
3 1189 986 1190
3 788 719 2336
3 1914 2001 2206
3 232 181 1652
3 1567 2062 2490
3 313 757 2495
3 622 619 2484
3 688 878 1320
3 1222 1626 2111
3 282 442 2079
3 1169 2008 2105
3 1966 1007 2308
3 2040 799 2237
3 1744 2229 2495
3 986 833 1063
3 2284 1605 2510
3 887 1961 2376
3 215 1624 2262
3 830 831 832
3 476 475 2224
3 439 451 2223
3 1932 1933 2380
3 2227 1246 2366
3 1212 1202 2301
3 1107 1110 2228
3 249 2010 2299
3 1983 293 2306
3 2055 1214 2237
3 1438 1372 2478
3 824 560 2156
3 2320 1866 2513
3 1351 1137 2374
3 868 2007 2232
3 2063 771 2064
3 1507 214 1508
3 1728 1727 2246
3 1045 1047 2348
3 1139 1140 2096
3 1648 1649 2463
3 1502 2302 2519
3 704 707 2109
3 2343 1136 2396
3 650 1963 2206
3 2153 895 2257
3 396 1958 2431
3 1379 1377 2288
3 2115 1471 2319
3 2033 987 2202
3 2239 1693 2518
3 2025 1488 2355
3 1209 2115 2319
3 523 524 2156
3 783 939 2243
3 376 1798 2497
3 2066 788 2193
3 1984 318 2172
3 425 427 2221
3 203 172 1847
3 446 457 2264
3 1312 2089 2150
3 2138 1272 2211
3 897 1139 2274
3 828 1819 2429
3 1249 1224 2111
3 666 667 2318
3 1371 1326 2194
3 2433 1499 2475
3 1272 1271 2211
3 1367 2254 2479
3 1386 2053 2383
3 2074 1238 2227
3 755 2148 2320
3 2117 1604 2428
3 475 514 2224
3 228 2187 2457
3 1868 1504 2520
3 1626 1218 2185
3 2123 1111 2241
3 1287 1049 2331
3 1280 687 2109
3 459 1814 2292
3 54 196 2402
3 863 865 2146
3 204 176 1680
3 514 2086 2224
3 1646 603 2398
3 112 197 2346
3 358 300 2338
3 1140 898 1141
3 1204 1335 2301
3 1016 2161 2438
3 909 1041 2175
3 1681 2448 2492
3 2252 459 2292
3 1992 868 2232
3 1035 1036 2235
3 1051 1295 2331
3 1836 1289 2242
3 1508 214 1859
3 247 53 2402
3 1016 938 2161
3 1408 856 2378
3 1466 2158 2200
3 725 885 2336
3 855 1450 2421
3 2023 1768 2420
3 1238 1236 2227
3 1679 202 2253
3 2107 1348 2233
3 1653 1431 2487
3 1946 2291 2343
3 2253 202 2329
3 1885 1312 2150
3 378 628 2390
3 2195 1383 2432
3 1520 1519 2480
3 1532 1733 2534
3 308 327 2278
3 953 951 2255
3 1213 1407 2222
3 1561 1563 2285
3 302 763 2338
3 1928 2033 2202
3 763 304 2345
3 832 833 986
3 1352 2040 2237
3 247 1881 2481
3 560 523 2156
3 335 339 2261
3 346 342 2344
3 201 443 1323
3 2301 1335 2466
3 323 320 2229
3 1136 2110 2396
3 1139 1977 2274
3 1809 1615 2423
3 1707 1791 2334
3 46 2019 2485
3 2064 1294 2238
3 1950 197 2404
3 2021 2022 2176
3 1949 245 2420
3 2044 2152 2207
3 1063 1154 1707
3 1012 1363 2406
3 280 2079 2210
3 2237 1214 2351
3 820 698 2318
3 1140 1141 1406
3 205 2021 2176
3 2043 786 2310
3 2145 1004 2446
3 707 1030 2109
3 1406 2460 2473
3 2137 1268 2226
3 16 2081 2260
3 567 2031 2219
3 2112 1064 2248
3 206 45 2485
3 2347 1462 2365
3 1650 1962 2362
3 453 425 2221
3 1209 907 2175
3 1111 1276 2241
3 2448 1145 2492
3 2051 2083 2243
3 59 60 2266
3 1402 1742 2530
3 831 677 2209
3 624 587 2276
3 238 174 1725
3 1011 2107 2233
3 468 2365 2412
3 2337 805 2371
3 254 1932 2380
3 1174 1398 2207
3 2140 111 2346
3 1381 2186 2283
3 1987 2037 2188
3 1740 559 2456
3 1773 391 2503
3 1335 1870 2249
3 1945 2257 2291
3 828 463 2411
3 1246 2088 2208
3 2060 798 2307
3 1773 1159 2240
3 1187 2112 2248
3 1352 2237 2351
3 2037 1322 2188
3 1941 1499 2433
3 2322 225 2510
3 1031 1034 2236
3 327 2188 2321
3 595 2032 2273
3 1464 1462 2347
3 1285 1992 2232
3 799 2055 2237
3 443 278 2210
3 784 874 2178
3 392 396 2431
3 191 95 2309
3 879 784 2178
3 524 511 2429
3 2128 2011 2270
3 895 896 2257
3 2206 1152 2324
3 318 2171 2172
3 2259 1549 2379
3 1214 1410 2351
3 306 308 2278
3 2022 251 2247
3 1757 1729 2309
3 1283 1918 2524
3 996 1706 2492
3 557 2044 2207
3 1798 1448 2364
3 1447 2250 2310
3 559 1750 2403
3 1363 1011 2233
3 1343 1168 2187
3 1407 2044 2256
3 1462 1460 2365
3 1995 2331 2458
3 327 1987 2188
3 2160 254 2380
3 1681 958 2287
3 2031 1160 2250
3 1600 689 2413
3 2219 1692 2239
3 1494 1675 2522
3 1281 1916 2448
3 907 909 2175
3 565 2167 2276
3 2241 1276 2275
3 1978 316 2443
3 2151 212 2350
3 203 1847 2104
3 2049 1481 2523
3 1961 1362 2376
3 2187 1393 2457
3 940 796 2532
3 2293 1349 2329
3 572 1897 2537
3 332 739 2282
3 2052 567 2239
3 1437 1370 2277
3 567 2219 2239
3 667 626 2452
3 1914 2206 2324
3 2243 939 2392
3 2136 1343 2187
3 257 1654 2530
3 1376 1378 2283
3 2076 1982 2272
3 2083 760 2243
3 1944 1945 2291
3 1771 1839 2359
3 1404 1403 2399
3 1875 1866 2320
3 1460 1337 2412
3 760 783 2243
3 1276 1366 2275
3 1428 2227 2366
3 1882 1605 2284
3 1739 1429 2459
3 2321 2188 2434
3 1328 1327 2315
3 798 2189 2307
3 2152 1174 2207
3 2182 1247 2323
3 1516 1514 2367
3 293 291 2306
3 556 537 2201
3 1298 1300 2314
3 1400 1399 2316
3 1649 2236 2463
3 833 831 2424
3 2127 2050 2333
3 1057 914 2328
3 1839 193 2359
3 761 1741 2258
3 1186 1970 2422
3 1429 2366 2382
3 2211 1271 2271
3 1733 1248 2534
3 13 2114 2136
3 2078 390 2431
3 1533 1536 2340
3 1690 2145 2446
3 1277 2308 2370
3 1168 1393 2187
3 1597 2047 2268
3 587 565 2276
3 1908 244 2401
3 225 125 2284
3 610 2130 2468
3 1749 2105 2326
3 1913 1914 2324
3 2366 2208 2382
3 1391 1876 2295
3 457 552 2264
3 653 688 2209
3 1601 2443 2514
3 682 2138 2211
3 992 1980 2244
3 55 56 2313
3 1645 1495 2493
3 473 477 2483
3 202 1724 2329
3 465 828 2429
3 1277 1966 2308
3 1416 2330 2406
3 1912 1364 2455
3 1716 1483 2375
3 2019 1651 2485
3 1725 2137 2226
3 201 1323 2216
3 878 1083 2213
3 2072 2073 2245
3 1563 1777 2405
3 244 2028 2401
3 2016 1564 2422
3 1682 1497 2461
3 1962 1153 2362
3 1298 2314 2358
3 1384 1385 2391
3 688 1320 2209
3 1587 2179 2435
3 786 380 2497
3 1395 1522 2341
3 2032 1919 2273
3 251 2013 2247
3 2219 2031 2250
3 2397 552 2453
3 1765 255 2489
3 2475 1825 2524
3 1202 1204 2301
3 445 2078 2411
3 323 2229 2296
3 1286 2384 2408
3 537 551 2201
3 1724 237 2293
3 84 85 2335
3 1471 1126 2319
3 1635 1634 2511
3 300 302 2338
3 698 666 2318
3 1030 1031 2236
3 2098 1457 2271
3 696 1821 2426
3 1457 1492 2447
3 1956 2336 2469
3 331 323 2296
3 1284 1491 2342
3 2011 1996 2270
3 256 183 2303
3 160 257 2304
3 2204 1589 2501
3 1891 1014 2280
3 719 725 2336
3 1354 1808 2381
3 437 430 2494
3 2377 218 2391
3 2211 2271 2447
3 1407 2256 2290
3 2365 1460 2412
3 2047 1498 2268
3 1825 1283 2524
3 1499 1825 2475
3 1226 1249 2281
3 2051 2243 2392
3 2250 1160 2310
3 111 112 2346
3 304 306 2345
3 1341 1352 2351
3 2166 191 2504
3 2223 1836 2242
3 1996 247 2481
3 1049 1051 2331
3 1086 1298 2358
3 2130 595 2273
3 1249 2111 2263
3 680 1995 2458
3 1511 2140 2346
3 102 103 2355
3 469 473 2453
3 961 2072 2245
3 2073 1282 2245
3 1442 1443 2525
3 74 192 2361
3 2163 1586 2435
3 1519 1518 2449
3 897 2274 2500
3 303 444 2317
3 1615 1614 2423
3 197 2009 2404
3 1634 2281 2511
3 1780 1781 2419
3 1435 1623 2465
3 1286 1774 2384
3 384 361 2339
3 193 1901 2359
3 1165 2433 2475
3 2277 1370 2386
3 677 653 2209
3 1994 1516 2367
3 1479 1478 2440
3 1165 1512 2433
3 1644 1353 2417
3 1711 1712 2353
3 2193 1615 2425
3 1613 1956 2469
3 1440 1173 2330
3 2269 1479 2440
3 222 2218 2465
3 391 389 2503
3 306 2278 2345
3 468 2090 2365
3 221 2246 2526
3 1445 1446 2504
3 939 1844 2392
3 86 87 2373
3 1429 1428 2366
3 2053 2103 2383
3 1348 1212 2312
3 805 750 2371
3 997 1286 2408
3 1152 869 2363
3 2063 2064 2238
3 192 1994 2367
3 1160 2043 2310
3 1926 2151 2350
3 2059 2098 2271
3 1897 1366 2537
3 215 2262 2437
3 1655 1732 2476
3 2415 1128 2454
3 1320 2213 2214
3 7 258 2357
3 259 155 2356
3 2171 1530 2172
3 347 351 2407
3 1077 1078 2343
3 239 2003 2279
3 1446 1128 2415
3 1034 1033 2410
3 601 627 2442
3 1154 1653 2234
3 397 2060 2405
3 2142 794 2272
3 442 2063 2238
3 1863 1215 2378
3 794 2076 2272
3 1883 1375 2505
3 1320 878 2213
3 342 468 2344
3 1903 218 2377
3 380 376 2497
3 1549 1547 2379
3 1148 1165 2475
3 2157 226 2507
3 829 972 2326
3 884 1957 2466
3 2291 1077 2343
3 65 66 2395
3 787 2052 2518
3 2298 1348 2312
3 1946 2343 2396
3 1653 256 2535
3 1842 1548 2472
3 1957 2301 2466
3 1366 1277 2370
3 2213 1432 2214
3 961 2245 2383
3 218 2093 2391
3 1376 2283 2421
3 1873 2127 2333
3 1019 1021 2512
3 1128 1127 2454
3 1104 1434 2450
3 2130 1439 2468
3 2396 2110 2482
3 2186 855 2283
3 1724 2293 2329
3 1163 1059 2372
3 1614 2389 2423
3 53 54 2402
3 1063 1707 2334
3 2283 855 2421
3 1385 1863 2436
3 364 1883 2505
3 517 1890 2387
3 1145 996 2492
3 1047 1287 2348
3 2148 1875 2320
3 205 2176 2416
3 1372 1844 2478
3 1211 2219 2250
3 1141 898 2368
3 245 1909 2420
3 2278 327 2321
3 2389 1397 2423
3 2256 513 2290
3 559 2403 2456
3 1137 1340 2374
3 2093 1384 2391
3 1918 1148 2524
3 1030 2236 2427
3 1867 1895 2513
3 2014 517 2387
3 2271 1457 2447
3 1143 2028 2353
3 1904 194 2432
3 1148 2475 2524
3 1574 1523 2436
3 2213 1083 2311
3 1997 358 2325
3 2139 246 2506
3 1370 1369 2386
3 1271 2059 2271
3 1034 2173 2463
3 1123 1412 2393
3 1578 1827 2515
3 2209 1320 2424
3 2079 1504 2210
3 1361 2168 2305
3 1491 1489 2403
3 238 1725 2226
3 1190 986 2334
3 1547 1545 2508
3 1891 1613 2469
3 1153 1885 2362
3 2208 1632 2382
3 2287 1281 2448
3 1356 1376 2421
3 1965 2349 2515
3 2155 1186 2422
3 1522 2014 2387
3 2158 1468 2323
3 2050 954 2333
3 1397 1809 2423
3 1362 1360 2376
3 1852 1985 2397
3 2069 1691 2446
3 789 2066 2425
3 1895 755 2513
3 1707 1154 2234
3 372 374 2430
3 2225 787 2518
3 2028 1206 2401
3 986 1063 2334
3 1912 726 2439
3 1340 1342 2400
3 1916 1145 2448
3 2236 1649 2427
3 2374 1340 2400
3 2222 1407 2290
3 2324 1152 2363
3 241 2220 2472
3 765 2190 2384
3 2375 667 2452
3 2330 1173 2406
3 1181 1972 2500
3 2126 1382 2388
3 1173 1012 2406
3 315 313 2495
3 1015 1373 2385
3 97 221 2526
3 1937 1397 2389
3 930 1061 2462
3 971 1096 2496
3 45 46 2485
3 669 791 2529
3 1104 2450 2521
3 382 378 2390
3 2191 1371 2536
3 2235 1036 2286
3 831 2209 2424
3 762 1997 2349
3 2379 1547 2508
3 2177 1359 2467
3 2403 1489 2456
3 796 785 2532
3 219 1902 2516
3 1519 2300 2480
3 1065 1655 2476
3 1375 1473 2505
3 1489 1490 2456
3 390 392 2431
3 2247 2013 2464
3 1135 1930 2369
3 2278 1583 2345
3 626 622 2452
3 631 2298 2312
3 2233 1348 2298
3 1398 1974 2499
3 1706 1681 2492
3 261 130 2444
3 32 260 2445
3 822 2099 2368
3 1365 1912 2439
3 941 940 2418
3 1446 2166 2504
3 2106 1121 2414
3 2300 1519 2449
3 1803 1104 2521
3 1732 1570 2476
3 1413 2051 2392
3 2122 1946 2396
3 2238 1868 2520
3 477 556 2483
3 2397 1985 2533
3 463 445 2411
3 2163 1185 2488
3 1126 2141 2319
3 1755 2264 2533
3 972 2204 2501
3 2230 1533 2340
3 1774 1773 2503
3 1997 2325 2349
3 1004 2069 2446
3 2159 31 2445
3 131 2160 2444
3 1371 2191 2451
3 1001 2154 2486
3 1682 2230 2340
3 2103 961 2383
3 1033 1151 2410
3 382 2390 2531
3 1504 2079 2520
3 1583 2278 2321
3 511 465 2429
3 250 2024 2479
3 2208 2088 2509
3 619 620 2484
3 1246 2208 2366
3 2141 1209 2319
3 1359 1413 2467
3 1295 1459 2458
3 2218 1435 2465
3 2281 1249 2511
3 2293 237 2354
3 2207 1398 2499
3 1564 2155 2422
3 552 469 2453
3 1947 224 2498
3 2062 1568 2490
3 2018 205 2416
3 260 2159 2445
3 2160 261 2444
3 2092 610 2468
3 194 2195 2432
3 1432 2213 2311
3 211 2251 2464
3 2378 856 2527
3 1536 1532 2534
3 2364 786 2497
3 2438 1438 2478
3 1185 1948 2488
3 2042 941 2418
3 1582 2321 2434
3 885 1891 2469
3 1364 2048 2455
3 1693 2225 2518
3 401 382 2531
3 1338 2247 2464
3 442 2238 2520
3 1292 2117 2428
3 2274 1350 2500
3 2066 2193 2425
3 2179 1184 2435
3 898 822 2368
3 2436 1863 2527
3 1844 1016 2478
3 2184 1001 2486
3 557 2207 2499
3 2013 211 2464
3 2254 250 2479
3 1350 1181 2500
3 2009 248 2470
3 246 2140 2506
3 1574 2436 2527
3 2139 1419 2517
3 316 1971 2514
3 1319 2122 2482
3 226 2006 2507
3 1400 2270 2481
3 1681 2287 2448
3 2325 1578 2349
3 232 1652 2487
3 1320 2214 2424
3 1632 2208 2509
3 248 2288 2470
3 1406 1141 2460
3 2188 1322 2434
3 2244 1980 2441
3 2088 1255 2509
3 1280 2109 2427
3 2060 2307 2405
3 2236 1034 2463
3 1745 2293 2354
3 2122 2396 2482
3 2109 1030 2427
3 2307 1563 2405
3 1429 2382 2459
3 224 2267 2498
3 682 2211 2447
3 2079 442 2520
3 2348 1287 2398
3 2220 1842 2472
3 1335 2249 2466
3 1249 2263 2511
3 443 2210 2519
3 2385 1373 2394
3 1594 2184 2486
3 2052 2239 2518
3 1568 2439 2490
3 2349 1578 2515
3 2344 468 2412
3 2270 1996 2481
3 1735 2244 2441
3 2260 1471 2477
3 2210 1504 2519
3 1434 2297 2450
3 2297 1419 2450
3 2263 1660 2502
3 2404 2009 2470
3 1718 2385 2394
3 1371 2194 2536
3 2317 444 2461
3 1443 2322 2525
3 1716 2375 2452
3 1863 2378 2527
3 2439 726 2490
3 1057 2328 2451
3 1638 2404 2470
3 1454 2234 2535
3 755 2320 2513
3 2234 1653 2535
3 2264 552 2533
3 1419 2297 2517
3 1392 2322 2510
3 552 2397 2533
3 1798 2364 2497
3 2322 1392 2525
3 2382 1631 2459
3 1016 2438 2478
3 1366 2370 2537
3 1742 2491 2530
3 2491 257 2530
CELL_TYPES 4886
5
5
5
5
5
5
5
5
5
5
5
5
5
5
5
5
5
5
5
5
5
5
5
5
5
5
5
5
5
5
5
5
5
5
5
5
5
5
5
5
5
5
5
5
5
5
5
5
5
5
5
5
5
5
5
5
5
5
5
5
5
5
5
5
5
5
5
5
5
5
5
5
5
5
5
5
5
5
5
5
5
5
5
5
5
5
5
5
5
5
5
5
5
5
5
5
5
5
5
5
5
5
5
5
5
5
5
5
5
5
5
5
5
5
5
5
5
5
5
5
5
5
5
5
5
5
5
5
5
5
5
5
5
5
5
5
5
5
5
5
5
5
5
5
5
5
5
5
5
5
5
5
5
5
5
5
5
5
5
5
5
5
5
5
5
5
5
5
5
5
5
5
5
5
5
5
5
5
5
5
5
5
5
5
5
5
5
5
5
5
5
5
5
5
5
5
5
5
5
5
5
5
5
5
5
5
5
5
5
5
5
5
5
5
5
5
5
5
5
5
5
5
5
5
5
5
5
5
5
5
5
5
5
5
5
5
5
5
5
5
5
5
5
5
5
5
5
5
5
5
5
5
5
5
5
5
5
5
5
5
5
5
5
5
5
5
5
5
5
5
5
5
5
5
5
5
5
5
5
5
5
5
5
5
5
5
5
5
5
5
5
5
5
5
5
5
5
5
5
5
5
5
5
5
5
5
5
5
5
5
5
5
5
5
5
5
5
5
5
5
5
5
5
5
5
5
5
5
5
5
5
5
5
5
5
5
5
5
5
5
5
5
5
5
5
5
5
5
5
5
5
5
5
5
5
5
5
5
5
5
5
5
5
5
5
5
5
5
5
5
5
5
5
5
5
5
5
5
5
5
5
5
5
5
5
5
5
5
5
5
5
5
5
5
5
5
5
5
5
5
5
5
5
5
5
5
5
5
5
5
5
5
5
5
5
5
5
5
5
5
5
5
5
5
5
5
5
5
5
5
5
5
5
5
5
5
5
5
5
5
5
5
5
5
5
5
5
5
5
5
5
5
5
5
5
5
5
5
5
5
5
5
5
5
5
5
5
5
5
5
5
5
5
5
5
5
5
5
5
5
5
5
5
5
5
5
5
5
5
5
5
5
5
5
5
5
5
5
5
5
5
5
5
5
5
5
5
5
5
5
5
5
5
5
5
5
5
5
5
5
5
5
5
5
5
5
5
5
5
5
5
5
5
5
5
5
5
5
5
5
5
5
5
5
5
5
5
5
5
5
5
5
5
5
5
5
5
5
5
5
5
5
5
5
5
5
5
5
5
5
5
5
5
5
5
5
5
5
5
5
5
5
5
5
5
5
5
5
5
5
5
5
5
5
5
5
5
5
5
5
5
5
5
5
5
5
5
5
5
5
5
5
5
5
5
5
5
5
5
5
5
5
5
5
5
5
5
5
5
5
5
5
5
5
5
5
5
5
5
5
5
5
5
5
5
5
5
5
5
5
5
5
5
5
5
5
5
5
5
5
5
5
5
5
5
5
5
5
5
5
5
5
5
5
5
5
5
5
5
5
5
5
5
5
5
5
5
5
5
5
5
5
5
5
5
5
5
5
5
5
5
5
5
5
5
5
5
5
5
5
5
5
5
5
5
5
5
5
5
5
5
5
5
5
5
5
5
5
5
5
5
5
5
5
5
5
5
5
5
5
5
5
5
5
5
5
5
5
5
5
5
5
5
5
5
5
5
5
5
5
5
5
5
5
5
5
5
5
5
5
5
5
5
5
5
5
5
5
5
5
5
5
5
5
5
5
5
5
5
5
5
5
5
5
5
5
5
5
5
5
5
5
5
5
5
5
5
5
5
5
5
5
5
5
5
5
5
5
5
5
5
5
5
5
5
5
5
5
5
5
5
5
5
5
5
5
5
5
5
5
5
5
5
5
5
5
5
5
5
5
5
5
5
5
5
5
5
5
5
5
5
5
5
5
5
5
5
5
5
5
5
5
5
5
5
5
5
5
5
5
5
5
5
5
5
5
5
5
5
5
5
5
5
5
5
5
5
5
5
5
5
5
5
5
5
5
5
5
5
5
5
5
5
5
5
5
5
5
5
5
5
5
5
5
5
5
5
5
5
5
5
5
5
5
5
5
5
5
5
5
5
5
5
5
5
5
5
5
5
5
5
5
5
5
5
5
5
5
5
5
5
5
5
5
5
5
5
5
5
5
5
5
5
5
5
5
5
5
5
5
5
5
5
5
5
5
5
5
5
5
5
5
5
5
5
5
5
5
5
5
5
5
5
5
5
5
5
5
5
5
5
5
5
5
5
5
5
5
5
5
5
5
5
5
5
5
5
5
5
5
5
5
5
5
5
5
5
5
5
5
5
5
5
5
5
5
5
5
5
5
5
5
5
5
5
5
5
5
5
5
5
5
5
5
5
5
5
5
5
5
5
5
5
5
5
5
5
5
5
5
5
5
5
5
5
5
5
5
5
5
5
5
5
5
5
5
5
5
5
5
5
5
5
5
5
5
5
5
5
5
5
5
5
5
5
5
5
5
5
5
5
5
5
5
5
5
5
5
5
5
5
5
5
5
5
5
5
5
5
5
5
5
5
5
5
5
5
5
5
5
5
5
5
5
5
5
5
5
5
5
5
5
5
5
5
5
5
5
5
5
5
5
5
5
5
5
5
5
5
5
5
5
5
5
5
5
5
5
5
5
5
5
5
5
5
5
5
5
5
5
5
5
5
5
5
5
5
5
5
5
5
5
5
5
5
5
5
5
5
5
5
5
5
5
5
5
5
5
5
5
5
5
5
5
5
5
5
5
5
5
5
5
5
5
5
5
5
5
5
5
5
5
5
5
5
5
5
5
5
5
5
5
5
5
5
5
5
5
5
5
5
5
5
5
5
5
5
5
5
5
5
5
5
5
5
5
5
5
5
5
5
5
5
5
5
5
5
5
5
5
5
5
5
5
5
5
5
5
5
5
5
5
5
5
5
5
5
5
5
5
5
5
5
5
5
5
5
5
5
5
5
5
5
5
5
5
5
5
5
5
5
5
5
5
5
5
5
5
5
5
5
5
5
5
5
5
5
5
5
5
5
5
5
5
5
5
5
5
5
5
5
5
5
5
5
5
5
5
5
5
5
5
5
5
5
5
5
5
5
5
5
5
5
5
5
5
5
5
5
5
5
5
5
5
5
5
5
5
5
5
5
5
5
5
5
5
5
5
5
5
5
5
5
5
5
5
5
5
5
5
5
5
5
5
5
5
5
5
5
5
5
5
5
5
5
5
5
5
5
5
5
5
5
5
5
5
5
5
5
5
5
5
5
5
5
5
5
5
5
5
5
5
5
5
5
5
5
5
5
5
5
5
5
5
5
5
5
5
5
5
5
5
5
5
5
5
5
5
5
5
5
5
5
5
5
5
5
5
5
5
5
5
5
5
5
5
5
5
5
5
5
5
5
5
5
5
5
5
5
5
5
5
5
5
5
5
5
5
5
5
5
5
5
5
5
5
5
5
5
5
5
5
5
5
5
5
5
5
5
5
5
5
5
5
5
5
5
5
5
5
5
5
5
5
5
5
5
5
5
5
5
5
5
5
5
5
5
5
5
5
5
5
5
5
5
5
5
5
5
5
5
5
5
5
5
5
5
5
5
5
5
5
5
5
5
5
5
5
5
5
5
5
5
5
5
5
5
5
5
5
5
5
5
5
5
5
5
5
5
5
5
5
5
5
5
5
5
5
5
5
5
5
5
5
5
5
5
5
5
5
5
5
5
5
5
5
5
5
5
5
5
5
5
5
5
5
5
5
5
5
5
5
5
5
5
5
5
5
5
5
5
5
5
5
5
5
5
5
5
5
5
5
5
5
5
5
5
5
5
5
5
5
5
5
5
5
5
5
5
5
5
5
5
5
5
5
5
5
5
5
5
5
5
5
5
5
5
5
5
5
5
5
5
5
5
5
5
5
5
5
5
5
5
5
5
5
5
5
5
5
5
5
5
5
5
5
5
5
5
5
5
5
5
5
5
5
5
5
5
5
5
5
5
5
5
5
5
5
5
5
5
5
5
5
5
5
5
5
5
5
5
5
5
5
5
5
5
5
5
5
5
5
5
5
5
5
5
5
5
5
5
5
5
5
5
5
5
5
5
5
5
5
5
5
5
5
5
5
5
5
5
5
5
5
5
5
5
5
5
5
5
5
5
5
5
5
5
5
5
5
5
5
5
5
5
5
5
5
5
5
5
5
5
5
5
5
5
5
5
5
5
5
5
5
5
5
5
5
5
5
5
5
5
5
5
5
5
5
5
5
5
5
5
5
5
5
5
5
5
5
5
5
5
5
5
5
5
5
5
5
5
5
5
5
5
5
5
5
5
5
5
5
5
5
5
5
5
5
5
5
5
5
5
5
5
5
5
5
5
5
5
5
5
5
5
5
5
5
5
5
5
5
5
5
5
5
5
5
5
5
5
5
5
5
5
5
5
5
5
5
5
5
5
5
5
5
5
5
5
5
5
5
5
5
5
5
5
5
5
5
5
5
5
5
5
5
5
5
5
5
5
5
5
5
5
5
5
5
5
5
5
5
5
5
5
5
5
5
5
5
5
5
5
5
5
5
5
5
5
5
5
5
5
5
5
5
5
5
5
5
5
5
5
5
5
5
5
5
5
5
5
5
5
5
5
5
5
5
5
5
5
5
5
5
5
5
5
5
5
5
5
5
5
5
5
5
5
5
5
5
5
5
5
5
5
5
5
5
5
5
5
5
5
5
5
5
5
5
5
5
5
5
5
5
5
5
5
5
5
5
5
5
5
5
5
5
5
5
5
5
5
5
5
5
5
5
5
5
5
5
5
5
5
5
5
5
5
5
5
5
5
5
5
5
5
5
5
5
5
5
5
5
5
5
5
5
5
5
5
5
5
5
5
5
5
5
5
5
5
5
5
5
5
5
5
5
5
5
5
5
5
5
5
5
5
5
5
5
5
5
5
5
5
5
5
5
5
5
5
5
5
5
5
5
5
5
5
5
5
5
5
5
5
5
5
5
5
5
5
5
5
5
5
5
5
5
5
5
5
5
5
5
5
5
5
5
5
5
5
5
5
5
5
5
5
5
5
5
5
5
5
5
5
5
5
5
5
5
5
5
5
5
5
5
5
5
5
5
5
5
5
5
5
5
5
5
5
5
5
5
5
5
5
5
5
5
5
5
5
5
5
5
5
5
5
5
5
5
5
5
5
5
5
5
5
5
5
5
5
5
5
5
5
5
5
5
5
5
5
5
5
5
5
5
5
5
5
5
5
5
5
5
5
5
5
5
5
5
5
5
5
5
5
5
5
5
5
5
5
5
5
5
5
5
5
5
5
5
5
5
5
5
5
5
5
5
5
5
5
5
5
5
5
5
5
5
5
5
5
5
5
5
5
5
5
5
5
5
5
5
5
5
5
5
5
5
5
5
5
5
5
5
5
5
5
5
5
5
5
5
5
5
5
5
5
5
5
5
5
5
5
5
5
5
5
5
5
5
5
5
5
5
5
5
5
5
5
5
5
5
5
5
5
5
5
5
5
5
5
5
5
5
5
5
5
5
5
5
5
5
5
5
5
5
5
5
5
5
5
5
5
5
5
5
5
5
5
5
5
5
5
5
5
5
5
5
5
5
5
5
5
5
5
5
5
5
5
5
5
5
5
5
5
5
5
5
5
5
5
5
5
5
5
5
5
5
5
5
5
5
5
5
5
5
5
5
5
5
5
5
5
5
5
5
5
5
5
5
5
5
5
5
5
5
5
5
5
5
5
5
5
5
5
5
5
5
5
5
5
5
5
5
5
5
5
5
5
5
5
5
5
5
5
5
5
5
5
5
5
5
5
5
5
5
5
5
5
5
5
5
5
5
5
5
5
5
5
5
5
5
5
5
5
5
5
5
5
5
5
5
5
5
5
5
5
5
5
5
5
5
5
5
5
5
5
5
5
5
5
5
5
5
5
5
5
5
5
5
5
5
5
5
5
5
5
5
5
5
5
5
5
5
5
5
5
5
5
5
5
5
5
5
5
5
5
5
5
5
5
5
5
5
5
5
5
5
5
5
5
5
5
5
5
5
5
5
5
5
5
5
5
5
5
5
5
5
5
5
5
5
5
5
5
5
5
5
5
5
5
5
5
5
5
5
5
5
5
5
5
5
5
5
5
5
5
5
5
5
5
5
5
5
5
5
5
5
5
5
5
5
5
5
5
5
5
5
5
5
5
5
5
5
5
5
5
5
5
5
5
5
5
5
5
5
5
5
5
5
5
5
5
5
5
5
5
5
5
5
5
5
5
5
5
5
5
5
5
5
5
5
5
5
5
5
5
5
5
5
5
5
5
5
5
5
5
5
5
5
5
5
5
5
5
5
5
5
5
5
5
5
5
5
5
5
5
5
5
5
5
5
5
5
5
5
5
5
5
5
5
5
5
5
5
5
5
5
5
5
5
5
5
5
5
5
5
5
5
5
5
5
5
5
5
5
5
5
5
5
5
5
5
5
5
5
5
5
5
5
5
5
5
5
5
5
5
5
5
5
5
5
5
5
5
5
5
5
5
5
5
5
5
5
5
5
5
5
5
5
5
5
5
5
5
5
5
5
5
5
5
5
5
5
5
5
5
5
5
5
5
5
5
5
5
5
5
5
5
5
5
5
5
5
5
5
5
5
5
5
5
5
5
5
5
5
5
5
5
5
5
5
5
5
5
5
5
5
5
5
5
5
5
5
5
5
5
5
5
5
5
5
5
5
5
5
5
5
5
5
5
5
5
5
5
5
5
5
5
5
5
5
5
5
5
5
5
5
5
5
5
5
5
5
5
5
5
5
5
5
5
5
5
5
5
5
5
5
5
5
5
5
5
5
5
5
5
5
5
5
5
5
5
5
5
5
5
5
5
5
5
5
5
5
5
5
5
5
5
5
5
5
5
5
5
5
5
5
5
5
5
5
5
5
5
5
5
5
5
5
5
5
5
5
5
5
5
5
5
5
5
5
5
5
5
5
5
5
5
5
5
5
5
5
5
5
5
5
5
5
5
5
5
5
5
5
5
5
5
5
5
5
5
5
5
5
5
5
5
5
5
5
5
5
5
5
5
5
5
5
5
5
5
5
5
5
5
5
5
5
5
5
5
5
5
5
5
5
5
5
5
5
5
5
5
5
5
5
5
5
5
5
5
5
5
5
5
5
5
5
5
5
5
5
5
5
5
5
5
5
5
5
5
5
5
5
5
5
5
5
5
5
5
5
5
5
5
5
5
5
5
5
5
5
5
5
5
5
5
5
5
5
5
5
5
5
5
5
5
5
5
5
5
5
5
5
5
5
5
5
5
5
5
5
5
5
5
5
5
5
5
5
5
5
5
5
5
5
5
5
5
5
5
5
5
5
5
5
5
5
5
5
5
5
5
5
5
5
5
5
5
5
5
5
5
5
5
5
5
5
5
5
5
5
5
5
5
5
5
5
5
5
5
5
5
5
5
5
5
5
5
5
5
5
5
5
5
5
5
5
5
5
5
5
5
5
5
5
5
5
5
5
5
5
5
5
5
5
5
5
5
5
5
5
5
5
5
5
5
5
5
5
5
5
5
5
5
5
5
5
5
5
5
5
5
5
5
5
5
5
5
5
5
5
5
5
5
5
5
5
5
5
5
5
5
5
5
5
5
5
5
5
5
5
5
5
5
5
5
5
5
5
5
5
5
5
5
5
5
5
5
5
5
5
5
5
5
5
5
5
5
5
5
5
5
5
5
5
5
5
5
5
5
5
5
5
5
5
5
5
5
5
5
5
5
5
5
5
5
5
5
5
5
5
5
5
5
5
5
5
5
5
5
5
5
5
5
5
5
5
5
5
5
5
5
5
5
5
5
5
5
5
5
5
5
5
5
5
5
5
5
5
5
5
5
5
5
5
5
5
5
5
5
5
5
5
5
5
5
5
5
5
5
5
5
5
5
5
5
5
5
5
5
5
5
5
5
5
5
5
5
5
5
5
5
5
5
5
5
5
5
5
5
5
5
5
5
5
5
5
5
5
5
5
5
5
5
5
5
5
5
5
5
5
5
5
5
5
5
5
5
5
5
5
5
5
5
5
5
5
5
5
5
5
5
5
5
5
5
5
5
5
5
5
5
5
5
5
5
5
5
5
5
5
5
5
5
5
5
5
5
5
5
5
5
5
5
5
5
5
5
5
5
5
5
5
5
5
5
5
5
5
5
5
5
5
5
5
5
5
5
5
5
5
5
5
5
5
5
5
5
5
5
5
5
5
5
5
5
5
5
5
5
5
5
5
5
5
5
5
5
5
5
5
5
5
5
5
5
5
5
5
5
5
5
5
5
5
5
5
5
5
5
5
5
5
5
5
5
5
5
5
5
5
5
5
5
5
5
5
5
5
5
5
5
5
5
5
5
5
5
5
5
5
5
5
5
5
5
5
5
5
5
5
5
5
5
5
5
5
5
5
5
5
5
5
5
5
5
5
5
5
5
5
5
5
5
5
5
5
5
5
5
5
5
5
5
5
5
5
5
5
5
5
5
5
5
5
5
5
5
5
5
5
5
5
5
5
5
5
5
5
5
5
5
5
5
5
5
5
5
5
5
5
5
5
5
5
5
5
5
5
5
5
5
5
5
5
5
5
5
5
5
5
5
5
5
5
5
5
5
5
5
5
5
5
5
5
5
5
5
5
5
5
5
5
5
5
5
5
5
5
5
5
5
5
5
5
5
5
5
5
5
5
5
5
5
5
5
5
5
5
5
5
5
5
5
5
5
5
5
5
5
5
5
5
5
5
5
5
5
5
5
5
5
5
5
5
5
5
5
5
5
5
5
5
5
5
5
5
5
5
5
5
5
5
5
5
5
5
5
5
5
5
5
5
5
5
5
5
5
5
5
5
5
5
5
5
5
5
5
5
5
5
5
5
5
5
5
5
5
5
5
5
5
5
5
5
5
5
5
5
5
5
5
5
5
5
5
5
5
5
5
5
5
5
5
5
5
5
5
5
5
5
5
5
5
5
5
5
5
5
5
5
5
5
5
5
5
5
5
5
5
5
5
5
5
5
5
5
5
5
5
5
5
5
5
5
5
5
5
5
5
5
5
5
5
5
5
5
5
5
5
5
5
5
5
5
5
5
5
5
5
5
5
5
5
5
5
5
5
5
5
5
5
5
5
5
5
5
5
5
5
5
5
5
5
5
5
5
5
5
5
5
5
5
5
5
5
5
5
5
5
5
5
5
5
5
5
5
5
5
5
5
5
5
5
5
5
5
5
5
5
5
5
5
5
5
5
5
5
5
5
5
5
5
5
5
5
5
5
5
5
5
5
5
5
5
5
5
5
5
5
5
5
5
5
5
5
5
5
5
5
5
5
5
5
5
5
5
5
5
5
5
5
5
5
5
5
5
5
5
5
5
5
5
5
5
5
5
5
5
5
5
5
5
5
5
5
5
5
5
5
5
5
5
5
5
5
5
5
5
5
5
5
5
5
5
5
5
5
5
5
5
5
5
5
5
5
5
5
5
5
5
5
5
5
5
5
5
5
5
5
5
5
5
5
5
5
5
5
5
5
5
5
5
5
5
5
5
5
5
5
5
5
5
5
5
5
5
5
5
5
5
5
5
5
5
5
5
5
5
5
5
5
5
5
5
5
5
5
5
5
5
5
5
5
5
5
5
5
5
5
5
5
5
5
5
5
5
5
5
5
5
5
5
5
5
5
5
5
5
5
5
5
5
5
5
5
5
5
5
5
5
5
5
5
5
5
5
5
5
5
5
5
5
5
5
5
5
5
5
5
5
5
5
5
5
5
5
5
5
5
5
5
5
5
5
5
5
5
5
5
5
5
5
5
5
5
5
5
5
5
5
5
5
5
5
5
5
5
5
5
5
5
5
5
5
5
5
5
5
5
5
5
5
5
5
5
5
5
5
5
5
5
5
5
5
5
5
5
5
5
5
5
5
5
5
5
5
5
5
5
5
5
5
5
5
5
5
5
5
5
5
5
5
5
5
5
5
5
5
5
5
5
5
5
5
5
5
5
5
5
5
5
5
5
5
5
5
5
5
5
5
5
5
5
5
5
5
5
5
5
5
5
5
5
5
5
5
5
5
5
5
5
5
5
5
5
5
5
5
5
5
5
5
5
5
5
5
5
5
5
5
5
5
5
5
5
5
5
5
5
5
5
5
5
5
5
5
5
5
5
5
5
5
5
5
5
5
5
5
5
5
5
5
5
5
5
5
5
5
5
5
5
5
5
5
5
5
5
5
5
5
5
5
5
5
5
5
5
5
5
5
5
5
5
5
5
5
5
5
5
5
5
5
5
5
5
5
5
5
5
5
5
5
5
5
5
5
5
5
5
5
5
5
5
5
5
5
5
5
5
5
5
5
5
5
5
5
5
5
5
5
5
5
5
5
5
5
5
5
5
5
5
5
5
5
5
5
5
5
5
5
5
5
5
5
5
5
5
5
5
5
5
5
5
5
5
5
5
5
5
5
5
5
5
5
5
5
5
5
5
5
5
5
5
5
5
5
5
5
5
5
5
5
5
5
5
5
5
5
5
5
5
5
5
5
5
5
5
5
5
5
5
5
5
5
5
5
5
5
5
5
5
5
5
5
5
5
5
5
5
5
5
5
5
5
5
5
5
5
5
5
5
5
5
5
5
5
5
5
5
5
5
5
5
5
5
5
5
5
5
5
5
5
5
5
5
5
5
5
5
5
5
5
5
5
5
5
5
5
5
5
5
5
5
5
5
5
5
5
5
5
5
5
5
5
5
5
5
5
5
5
5
5
5
5
5
5
5
5
5
5
5
5
5
5
5
5
5
5
5
5
5
5
5
5
5
5
5
5
5
5
5
5
5
5
5
5
5
5
5
5
5
5
5
5
5
5
5
5
5
5
5
5
5
5
5
5
5
5
5
5
5
5
5
5
5
5
5
5
5
5
5
5
5
5
5
5
5
5
5
5
5
5
5
5
5
5
5
5
5
5
5
5
5
5
5
5
5
5
5
5
5
5
5
5
POINT_DATA 2538
VECTORS disp float
1.2147001466642965e-11 1.5924741093358333e-11 0.0
1.4538628615450794e-12 -5.36773407767675e-12 0.0
0.0012000000002759118 1.547864570986365e-12 0.0
0.0011999999791419923 -4.041501269882671e-11 0.0
0.0006020430963837257 0.00027389354728494885 0.0
0.0008927667760710231 2.0192883798423198e-5 0.0
0.0007229174924656802 -5.7674360927210154e-5 0.0
-2.2833814820041595e-12 -3.521244961537701e-12 0.0
9.840397597140042e-13 7.425503574929811e-13 0.0
3.662327504501755e-13 -1.2848348946285497e-12 0.0
4.902740668034534e-13 -8.637833195479168e-13 0.0
2.1750821562417156e-13 -8.188973075488855e-13 0.0
2.747281862381352e-13 -1.0467571295459066e-12 0.0
2.0404090385052658e-13 -1.1931179024454045e-12 0.0
1.7577507000830488e-13 -1.4540145049967e-12 0.0
1.2736700552034244e-13 -1.684764463852284e-12 0.0
2.2389216435134909e-13 -1.912483057904935e-12 0.0
2.2268025577233898e-13 -2.0496589368327845e-12 0.0
2.505001077330639e-13 -2.1472784409276887e-12 0.0
2.6562836601738105e-13 -2.2037935107087083e-12 0.0
2.5368181467628985e-13 -2.2180933742551285e-12 0.0
2.8510542737937803e-13 -2.3058402509502083e-12 0.0
2.5812340302928576e-13 -2.3292547599355066e-12 0.0
2.492226168484049e-13 -2.411727055005845e-12 0.0
2.8223190447911727e-13 -2.4798133660094624e-12 0.0
2.5685520339199843e-13 -2.50747917049518e-12 0.0
2.7112834428011496e-13 -2.5469059065758304e-12 0.0
3.2578934818591577e-13 -2.5743479991943995e-12 0.0
3.4413775062787113e-13 -2.6109892267246687e-12 0.0
3.364292191684151e-13 -2.7057980080118227e-12 0.0
4.775403815550188e-13 -2.899709502863289e-12 0.0
1.5144376348640113e-13 -2.6652926865614713e-12 0.0
1.4254269437227554e-5 -4.81673717626042e-6 0.0
2.641166822260871e-5 -8.959629806430822e-6 0.0
3.830442339294521e-5 -1.2752869762077297e-5 0.0
4.97153429168657e-5 -1.638872574322236e-5 0.0
6.076843729479311e-5 -1.9885683301480102e-5 0.0
7.158303140654049e-5 -2.3325019757280214e-5 0.0
8.242133510646501e-5 -2.6593799864839037e-5 0.0
9.320925107606289e-5 -2.9882125584236362e-5 0.0
0.00010395288806358665 -3.3189880921617726e-5 0.0
0.00011473202350334212 -3.647524035877959e-5 0.0
0.0001254893450825928 -3.976367634541483e-5 0.0
0.0001363796781767629 -4.3100533693040604e-5 0.0
0.0001470582494789629 -4.654048834264153e-5 0.0
0.00015749681458689205 -4.990708971119545e-5 0.0
0.00016869019675370194 -5.378613593947918e-5 0.0
0.00017931048763386877 -5.78116711181457e-5 0.0
0.00019005589217634345 -6.17593894064723e-5 0.0
0.00020059911952250765 -6.55510008408637e-5 0.0
0.00021110017962570212 -6.930572905246894e-5 0.0
0.00022159242373676264 -7.287899510262193e-5 0.0
0.00023250682327376286 -7.62062912522605e-5 0.0
0.00024295375121697333 -7.937906384004814e-5 0.0
0.00025438007010117347 -8.21352401711952e-5 0.0
0.00026520898805733225 -8.503664395220635e-5 0.0
0.0002767018906351882 -8.765964337992702e-5 0.0
0.0002880797475512213 -9.025446288850593e-5 0.0
0.00029971504353149984 -9.274876896842557e-5 0.0
0.00031126775776935757 -9.501934514656026e-5 0.0
0.0003233960923201553 -9.716103704812088e-5 0.0
0.00033531612129761345 -9.928966073073138e-5 0.0
0.0003474264057609959 -0.00010132573878168387 0.0
0.00035953385773767894 -0.00010326867380842875 0.0
0.0003719632463599723 -0.00010532566984739589 0.0
0.0003849969261318185 -0.00010749407430258776 0.0
0.00039888960040107297 -0.00011047753974288907 0.0
0.00041133177847430034 -0.00011379642994363714 0.0
0.0004224757866681832 -0.00011790638236214217 0.0
0.00043481271045834116 -0.0001221018638618431 0.0
0.00044374266554428115 -0.00012710741518657655 0.0
0.0004536229639742535 -0.00013090297063199702 0.0
0.0004618023286739153 -0.00013453752076006973 0.0
0.00046839340306184437 -0.00013751682114846313 0.0
0.0004775676498231023 -0.00013859099033747976 0.0
0.0004873774671328215 -0.00013974775344447761 0.0
0.0004975471825991315 -0.00014084675216091073 0.0
0.0005080323715019608 -0.00014185848604189127 0.0
0.000518986602373865 -0.00014276425150165674 0.0
0.0005304508944978884 -0.00014347308333029666 0.0
0.0005420658815325112 -0.00014428288332215506 0.0
0.0005543898906384912 -0.00014486227106425383 0.0
0.0005663202336097218 -0.0001454263702658523 0.0
0.0005799320552024306 -0.00014563871399483877 0.0
0.0005943785682597352 -0.0001459170823396475 0.0
0.0006106191540629466 -0.00014623711514291754 0.0
0.000626348433187606 -0.00014661868970345485 0.0
0.0006418684241493784 -0.00014668862927854118 0.0
0.0006558062313536462 -0.00014680389935651034 0.0
0.0006687593374617313 -0.0001468935975235269 0.0
0.0006809916914044645 -0.00014707584043825893 0.0
0.0006924518474011981 -0.00014730772390633107 0.0
0.0007031718591023658 -0.00014768994421468469 0.0
0.0007135650566296422 -0.00014818852085380613 0.0
0.0007243409495937141 -0.00014872019983872836 0.0
0.000734879737243943 -0.00014920808234002628 0.0
0.0007454963385817119 -0.00014964187449482963 0.0
0.0007566588590857813 -0.0001498631922074744 0.0
0.0007680528873540992 -0.00014998929256601024 0.0
0.0007791965115341315 -0.00015010736101150277 0.0
0.0007904263286487424 -0.00014996868477818172 0.0
0.0008017646712014481 -0.00014977531757304124 0.0
0.0008126818998552229 -0.00014967616554962924 0.0
0.0008237450835358502 -0.0001496301045509705 0.0
0.0008344736218458527 -0.00014991907024131042 0.0
0.0008449921138827762 -0.00015029839115076986 0.0
0.000855312922684606 -0.00015074383808718296 0.0
0.0008646193165246411 -0.00015121104936588725 0.0
0.0008742512989750413 -0.00015157358186675224 0.0
0.0008838036336652385 -0.00015201202861918158 0.0
0.0008938977370236856 -0.00015229453184411413 0.0
0.0009040109615345383 -0.0001525743192711351 0.0
0.0009146701564042095 -0.00015300015101518243 0.0
0.0009254251316984946 -0.0001526045277479275 0.0
0.0009359681879795873 -0.00015146377049546619 0.0
0.000945875177531391 -0.0001489848736901996 0.0
0.0009564724787210606 -0.00014522485814752676 0.0
0.0009672353249642056 -0.00014181135366121922 0.0
0.0009789559714289487 -0.00013844637366906866 0.0
0.0009909496345611138 -0.0001351979335866583 0.0
0.0010022930566541226 -0.00013236129530293616 0.0
0.0010141321079256587 -0.00012924830471678094 0.0
0.0010270060185474119 -0.00012513631340350617 0.0
0.0010394185974384584 -0.0001198904929676128 0.0
0.0010522985375509028 -0.00011363109654238027 0.0
0.0010652958505696975 -0.00010647036536897089 0.0
0.0010800331239581105 -9.778200696450987e-5 0.0
0.0010962555730281171 -8.655775675981806e-5 0.0
0.0011136819135425752 -7.242902615011982e-5 0.0
0.001135615087761332 -5.527876799919794e-5 0.0
0.0011614138062258892 -3.374981617804076e-5 0.0
0.0012000000009614335 1.1533455592652482e-12 0.0
0.001199999997227308 -3.2989329819644533e-12 0.0
0.0011999999993020992 8.373384255493198e-13 0.0
0.0011999999987518945 2.640883130867992e-13 0.0
0.0011999999990970126 6.278308574298353e-13 0.0
0.0011999999990462335 7.163610185717106e-13 0.0
0.0011999999990814315 6.505193069712856e-13 0.0
0.001199999999167763 6.730838966240032e-13 0.0
0.0011999999992005337 7.270889496032869e-13 0.0
0.0011999999992745192 7.977410516464683e-13 0.0
0.0011999999993039933 8.932143602049141e-13 0.0
0.0011999999993447669 1.0069378015423813e-12 0.0
0.001199999999326832 1.0845611624613372e-12 0.0
0.0011999999993268658 1.1553902450018188e-12 0.0
0.0011999999993117243 1.2016778124071907e-12 0.0
0.001199999999299762 1.240427619829167e-12 0.0
0.0011999999992696444 1.2513909144655117e-12 0.0
0.0011999999993029748 1.2938962337755593e-12 0.0
0.0011999999992860551 1.3158023584697342e-12 0.0
0.0011999999993524597 1.238257635588244e-12 0.0
0.0011999999993962886 1.1939451675498072e-12 0.0
0.001199999999408669 1.094197577415033e-12 0.0
0.0011999999995752563 1.1077026258909332e-12 0.0
0.0011999999998065084 1.244536994471988e-12 0.0
0.001199999999744919 1.0943533123439878e-12 0.0
0.0011264246361474537 1.698239696130366e-5 0.0
0.0010528024261590241 2.147578377952844e-5 0.0
0.0009849333958512373 1.9991486262288965e-5 0.0
0.0009309325942631934 2.0139586421830222e-5 0.0
0.0008920423042678928 -7.913757852008291e-6 0.0
0.0008906346555383648 -3.726971238678856e-5 0.0
0.0008894649260585191 -6.481344705290342e-5 0.0
0.0008852337417896088 -8.551195054642647e-5 0.0
0.0008786854547560539 -0.00010069943927982984 0.0
0.0008693808940545365 -0.00011091326259582109 0.0
0.0008578616831537789 -0.00011655467778436014 0.0
0.0008440212187038732 -0.00011653010451344764 0.0
0.0008287720725692185 -0.00011405241253691268 0.0
0.0008113041937101964 -0.00010947063405091787 0.0
0.0007894425992988562 -0.00010242359223413327 0.0
0.0007631179056334572 -9.034003469707996e-5 0.0
0.0007001626989698684 -2.6474329210776926e-5 0.0
0.0006830195878456065 -6.741631560785549e-6 0.0
0.0006678342118729023 9.397410652166895e-6 0.0
0.0006536443199653163 2.4913321969743933e-5 0.0
0.0006401465274059415 3.946816349778007e-5 0.0
0.0006285124953395664 5.382892457349714e-5 0.0
0.0006181552342005035 6.886833550803186e-5 0.0
0.0006095927742122365 8.383929055509875e-5 0.0
0.000604151449088799 0.00010508196905915973 0.0
0.0005993710140967277 0.00012915573231764234 0.0
0.0006004093046320791 0.00016163295071514085 0.0
0.0005963102819996633 0.00020341524772002817 0.0
0.0005173721736056319 0.00027381880771322595 0.0
0.0004291498250636145 0.000271514977012609 0.0
0.00034308537793149374 0.00024949093277427074 0.0
0.0002441642951410928 0.00018616253270264686 0.0
0.00032664250058626334 -9.304332146279038e-5 0.0
0.0008084377706286448 -0.00014254382621260335 0.0
0.00041311580656901495 -0.00010838819435224055 0.0
0.0007299597542577353 -0.00014243519196111714 0.0
0.00048252310501319736 -0.000131594788264842 0.0
0.0006473608116553956 -0.00013755731046584619 0.0
0.0005483751442803209 -0.0001345454473770638 0.0
0.0008708297195366488 -0.00014495804502167464 0.0
0.0002585880122271755 -7.985082132744356e-5 0.0
0.0009194370303241823 -0.00014191174335108077 0.0
0.00020359499151198035 -6.370123385269202e-5 0.0
2.577471577837149e-5 -5.175075394130777e-6 0.0
0.0011659749775578315 8.15191627148724e-7 0.0
0.0007447979591691617 -6.398778385736779e-5 0.0
0.0008229999527997157 -0.00010738030276288293 0.0
0.0006731986766209733 -3.3009623958742274e-5 0.0
0.0006204452643723931 3.755280800340287e-5 0.0
0.0009753714166196191 -0.00012827158877394413 0.0
0.00015266479669326632 -4.699504730386585e-5 0.0
1.922101390297973e-5 -3.935214698267464e-6 0.0
0.001175904545654718 -5.617777412527276e-7 0.0
0.0011525805328957504 1.3123248917540138e-6 0.0
3.03057757724518e-5 -4.140193873693469e-6 0.0
0.0010230113924461354 -0.00011032760288177078 0.0
0.0001084440168840135 -3.3158159119572e-5 0.0
0.0008677876827466769 -9.934014579271303e-5 0.0
0.0005818291315156434 7.838983642193803e-5 0.0
1.4635746979518093e-5 -3.2080091209969e-6 0.0
0.0011796582875513873 -1.015478564381636e-6 0.0
0.0004554872314675966 -0.00012614638197314676 0.0
0.0005133471165707429 -0.0001336580859968233 0.0
0.0006977054218256528 -0.00014071388063589 0.0
0.0005881108543413498 -0.00013462921448907812 0.0
0.0007631056757851272 -0.00014285813824002614 0.0
0.0008388195358025273 -0.00014372369720715774 0.0
0.0003791252080447099 -0.00010143865925963869 0.0
0.000292549821820712 -8.751752544966942e-5 0.0
0.00106121697908276 -9.119571020999669e-5 0.0
7.565275011883734e-5 -2.286407357994463e-5 0.0
0.0011472933802361774 6.627965407707774e-7 0.0
3.936149496146916e-5 -6.245630912987117e-7 0.0
0.0011826842339450123 -1.3015006591527987e-6 0.0
1.3525059554623977e-5 -2.9112879959771988e-6 0.0
0.0008945679833573669 -7.164986471149244e-5 0.0
0.0005638664361215384 0.00011681446907033541 0.0
0.0011365208512672707 -2.1540109159998162e-7 0.0
6.161010015036064e-5 1.204680733723983e-6 0.0
2.26971557060171e-5 -4.578929627046209e-6 0.0
0.0011711217167499144 1.9746131143860042e-7 0.0
0.0007881525469168432 -9.527384355490862e-5 0.0
0.0006478968524735565 6.742468445419778e-6 0.0
4.19568540161236e-5 -1.1782288685728524e-5 0.0
0.0011147143461799035 -5.514013581744225e-5 0.0
0.0007850934371657846 -0.00014351516913647833 0.0
0.0006181866113433036 -0.00013667944890455194 0.0
0.00043685053111225657 -0.0001177267860806316 0.0
0.0003521116845788185 -9.78489626946668e-5 0.0
0.0006748945294064841 -0.00013898894942205358 0.0
0.0008887498051311975 -0.00014508208125229113 0.0
0.0002363986955666954 -7.386012477533586e-5 0.0
0.0009429345935451857 -0.0001386948170015617 0.0
0.00018116459035121544 -5.586085483903118e-5 0.0
0.00012959822254337303 -3.974863501903062e-5 0.0
0.0009983947724994636 -0.00011984458955374782 0.0
0.0003780618445410434 0.00015644421329844973 0.0
0.0010088608067187488 -3.280293683912875e-7 0.0
0.0011820655000708794 -3.6137774143081858e-6 0.0
1.1207750536756565e-5 -2.3972717707861645e-6 0.0
0.0005498548030279861 0.00017718765123320965 0.0
0.0009089597120268404 -2.406326134718239e-5 0.0
8.263018540634707e-5 1.2429154167611712e-5 0.0
0.0011468877352706734 2.302778814343126e-6 0.0
1.843070543374418e-5 -4.678803635472967e-6 0.0
0.0011581943069353137 -2.2185920165753948e-5 0.0
0.0009579922364142021 -5.033061705773556e-7 0.0
0.0009688763439565986 -1.9135057658358654e-5 0.0
0.0010260065945736272 -1.0622948700121079e-5 0.0
0.0009825633726807644 -2.2807808141411013e-5 0.0
0.0009396930555688279 -3.757456066901594e-5 0.0
0.0009434776574136931 -3.570577871784073e-5 0.0
0.0009857373353380407 -2.1454024533072746e-5 0.0
0.0009465164932095183 -2.8965551759972053e-5 0.0
0.0009913060333513232 -1.7224614175599674e-5 0.0
0.0009530202437038897 -2.1448830318715546e-5 0.0
0.0009128795493924539 -3.372550590408093e-5 0.0
0.0009175850579011074 -2.3814069362753313e-5 0.0
0.0008836035179098217 -3.430123612798363e-5 0.0
0.0008866145869333652 -2.435230037573132e-5 0.0
0.0008567999649319703 -3.2876189563286856e-5 0.0
0.0008597597511014516 -2.2048313756145955e-5 0.0
0.0007334781490281828 -5.214869872253257e-5 0.0
0.000711801807199434 -5.685037704824867e-5 0.0
0.0007198765148254884 -4.9576910303073495e-5 0.0
0.0007009547429612624 -5.548213635826061e-5 0.0
0.0007080110794098017 -4.843055296153069e-5 0.0
0.0006911854540243032 -5.32557411633741e-5 0.0
0.0006971874666340161 -4.610949413506872e-5 0.0
0.0006814545487216039 -5.0883810724210774e-5 0.0
0.000687289295239546 -4.425723430408562e-5 0.0
0.0006719261566458998 -4.9577418019676074e-5 0.0
0.0006782002566350191 -4.347571054838053e-5 0.0
0.0006634043476543155 -4.8008999443056946e-5 0.0
0.0006699378684913315 -4.243771753689584e-5 0.0
0.0006559261310534113 -4.6002398262764914e-5 0.0
0.0006624424218068441 -4.075267068293197e-5 0.0
0.0006486327136611934 -4.4081780868706746e-5 0.0
0.0006556128013793554 -3.9445559398152426e-5 0.0
0.0006414387579965237 -4.3000266333420536e-5 0.0
0.0006491416401705731 -3.860129996955036e-5 0.0
0.0006352858209022919 -4.1381410908762056e-5 0.0
0.0006432457388326481 -3.731380278837842e-5 0.0
0.0006295778659122163 -3.991197650409588e-5 0.0
0.0006373510820248949 -3.6261997627807605e-5 0.0
0.0006240917749786472 -3.877733702553002e-5 0.0
0.0006320459162301632 -3.55214554865426e-5 0.0
0.000619266950908349 -3.789005566918375e-5 0.0
0.0006270129353229532 -3.47953754761434e-5 0.0
0.0006140334202581738 -3.7371271211281825e-5 0.0
0.0006220675736650167 -3.437557216358304e-5 0.0
0.0006064782468711889 -3.7555896348582565e-5 0.0
0.0006179984504158762 -3.411404320963045e-5 0.0
0.0006044139693374044 -3.637404268020578e-5 0.0
0.0006136621723619683 -3.389428326492884e-5 0.0
0.0006005381458646313 -3.613413921073085e-5 0.0
0.0006096440560586892 -3.397602727360453e-5 0.0
0.000597211675435969 -3.608663779915813e-5 0.0
0.000605726416367009 -3.425606373786805e-5 0.0
0.0005935044185038529 -3.6283662136102313e-5 0.0
0.000660593000151333 -5.494552340425326e-5 0.0
0.0006019833825237899 -3.4742484132001294e-5 0.0
0.000626453124152548 -4.563525579530767e-5 0.0
0.0005923660205708146 -3.9258139468947936e-5 0.0
0.0005891520742116485 -3.69085837797005e-5 0.0
0.0005983201572595807 -3.549926167774213e-5 0.0
0.000584883860077138 -3.7752304701873095e-5 0.0
0.0005760919711829425 -3.904698300689151e-5 0.0
0.000571439144519797 -3.993225735499368e-5 0.0
0.0005941885202751998 -3.6556119707230294e-5 0.0
0.0006078655128266313 -3.424176908861842e-5 0.0
0.0006262860970305626 -3.1835206229077804e-5 0.0
0.0006039700155988794 -3.5525552624834914e-5 0.0
0.0006186941362236506 -3.301268477630434e-5 0.0
0.0006143891211975082 -3.4688594063392836e-5 0.0
0.0005627731507099191 -4.114343261877769e-5 0.0
0.0005586791740632926 -4.193084202330163e-5 0.0
0.0006297163678171665 -3.207686920325739e-5 0.0
0.0005492496252643043 -4.3164910287124726e-5 0.0
0.0005457935483811395 -4.387451983698919e-5 0.0
0.0006258926823948942 -3.39762576254917e-5 0.0
0.0006406846147087595 -3.1535218883393265e-5 0.0
0.0005355207309460895 -4.509192676543592e-5 0.0
0.0005318263711775382 -4.580714363875724e-5 0.0
0.0006374662076341994 -3.3629590440614233e-5 0.0
0.0006526659826895161 -3.1143389321634924e-5 0.0
0.0005217382394096409 -4.683094295652388e-5 0.0
0.0005178660117280579 -4.7692687474276904e-5 0.0
0.0006496139588078391 -3.3589823725903615e-5 0.0
0.0006651536761294256 -3.0986489580251635e-5 0.0
0.0005080273460152829 -4.849120898054156e-5 0.0
0.0005034186636395533 -4.9385706875066465e-5 0.0
0.0006625158537418668 -3.373591127350607e-5 0.0
0.0006778638604481956 -3.106335637513775e-5 0.0
0.000493014091264232 -4.9978770139956814e-5 0.0
0.0004887761193265197 -5.088096288482028e-5 0.0
0.00047722970887751427 -5.128479318858397e-5 0.0
0.0004816324336708419 -5.062306190014666e-5 0.0
0.0006456221703175963 -3.624760087370825e-5 0.0
0.0006753605920344508 -3.4204149814814654e-5 0.0
0.0006907402112556654 -3.138529382327537e-5 0.0
0.0006935448402914641 -2.8083252132681167e-5 0.0
0.0006495466712815283 -3.3731209551090624e-5 0.0
0.0007067081545357516 -2.8283218120480414e-5 0.0
0.0007097293440509768 -2.4854954745885808e-5 0.0
0.0007231438396552252 -2.486820134626659e-5 0.0
0.0004741487787392533 -5.228041292071295e-5 0.0
0.00046191428996226753 -5.233340903465296e-5 0.0
0.00048550187294364494 -5.214286767318028e-5 0.0
0.000687961953541007 -3.4997565312743154e-5 0.0
0.0004592026096705363 -5.3395077562962495e-5 0.0
0.0004463004357037238 -5.3133061505513845e-5 0.0
0.0006757099358183307 -3.708136991979174e-5 0.0
0.0004438767500718909 -5.411962646607487e-5 0.0
0.00043019265729557043 -5.355724497519645e-5 0.0
0.0004279978734380305 -5.459239414381529e-5 0.0
0.00041380796436972793 -5.369525426348629e-5 0.0
0.00041560277537447437 -5.289900141802497e-5 0.0
0.0003971207698956012 -5.283061596224151e-5 0.0
0.00039923657169445547 -5.211547105818888e-5 0.0
0.0004098285260450048 -5.477616875545188e-5 0.0
0.00037866588917879145 -5.169844340468614e-5 0.0
0.0003806658764156262 -5.121908724327827e-5 0.0
0.0004260172784240355 -5.604991148394743e-5 0.0
0.0004104754144050055 -5.647265949396726e-5 0.0
0.00036017989063090515 -5.0445969070835746e-5 0.0
0.00036131159305166237 -5.0093656255643784e-5 0.0
0.0007265850489290784 -2.150997534808178e-5 0.0
0.0007404405889468679 -2.1413566472485313e-5 0.0
0.0004241527092651555 -5.7870378302166184e-5 0.0
0.00040894733105710057 -5.829675558840446e-5 0.0
0.0007440703925858998 -1.8062627170207225e-5 0.0
0.0007585943741389954 -1.7914913955187744e-5 0.0
0.0007543060394406554 -2.1942623305737866e-5 0.0
0.000772806922449709 -1.8189315016758967e-5 0.0
0.0007689370428164849 -2.2709708957836043e-5 0.0
0.0007878673280466298 -1.8589868856099305e-5 0.0
0.0007850171590437221 -2.3431392156356135e-5 0.0
0.0008050804163485155 -1.873803523197262e-5 0.0
0.0008006888594602096 -2.4035085010376023e-5 0.0
0.000807765055314782 -1.4472430020705498e-5 0.0
0.0008214680638424037 -1.9343004843928665e-5 0.0
0.0008161808388862113 -2.5095538195097134e-5 0.0
0.00042262520540216293 -5.997618800810953e-5 0.0
0.00033933906891970016 -4.8959940260159185e-5 0.0
0.0003399121635059572 -4.8611441567653304e-5 0.0
0.000796988057389658 -3.0337783522989258e-5 0.0
0.0008119496414766829 -3.176024294840475e-5 0.0
0.0008313451009233193 -2.6284195749195947e-5 0.0
0.0007941852880784135 -3.7347836540640293e-5 0.0
0.0004078789852260547 -6.041761505384466e-5 0.0
0.0008272050959994832 -3.3472368382964325e-5 0.0
0.0008466698443059694 -2.7602492216664875e-5 0.0
0.0004212073695258702 -6.237747793966953e-5 0.0
0.00040681426375021695 -6.287628816658532e-5 0.0
0.00039299790352083716 -6.0683388505071756e-5 0.0
0.0008424952666246112 -3.544673969555104e-5 0.0
0.0008622233640988716 -2.9048086861352377e-5 0.0
0.0004198776702818578 -6.512971566927145e-5 0.0
0.00043311231508978254 -6.442244120288513e-5 0.0
0.00039215479484609847 -6.319208733001208e-5 0.0
0.0003779099129640775 -6.080765918099376e-5 0.0
0.0008573617485924543 -3.757838441384611e-5 0.0
0.0008782605498076671 -3.057886765804868e-5 0.0
0.0008829528139734505 -2.2977381900464063e-5 0.0
0.000838037176565851 -4.416737556737206e-5 0.0
0.0008996945963730045 -2.3946407626329837e-5 0.0
0.0009047753890174739 -1.7718087189267716e-5 0.0
0.0003162292128970275 -4.710040693512029e-5 0.0
0.00031786552172792905 -4.6883994764420364e-5 0.0
0.0003464056376044196 -4.872682453991551e-5 0.0
0.00031865831732724606 -4.657154154765259e-5 0.0
0.0003465482027038126 -4.8541716617794546e-5 0.0
0.0003190176801557554 -4.618207998095093e-5 0.0
0.00034652669655866784 -4.808446374134187e-5 0.0
0.00043172012995850345 -6.739510250722715e-5 0.0
0.00044400613066486477 -6.6464596301477e-5 0.0
0.00037717681355609126 -6.338093243426522e-5 0.0
0.0003627653794086974 -6.081316661448474e-5 0.0
0.000894548605362641 -3.225182232553838e-5 0.0
0.00032205810751883114 -4.5563384694921566e-5 0.0
0.00034843493796987853 -4.7448683581979525e-5 0.0
0.0004426365927777048 -6.963676082076604e-5 0.0
0.00045425771280109816 -6.854512907735856e-5 0.0
0.0005306691435696594 -4.6536716557180355e-5 0.0
0.0009166563473540127 -2.495096955214353e-5 0.0
0.0007105823810669334 -4.083046296188182e-5 0.0
0.0007460075144420438 -5.4234683124471645e-5 0.0
0.0006101894635687757 -4.117641572144245e-5 0.0
0.0007615052708902327 -1.4766563045414585e-5 0.0
0.0003211212732879541 -4.410056611785219e-5 0.0
0.0003523453100930006 -4.61280621438612e-5 0.0
0.00036219614804729644 -6.34598132307038e-5 0.0
0.00034773776830985474 -6.07481426150477e-5 0.0
0.000453088995826997 -7.193397584009915e-5 0.0
0.0004644984086816814 -7.067100618965197e-5 0.0
0.0009108621691633675 -3.3639568234105095e-5 0.0
0.000293273735585152 -4.500981897289387e-5 0.0
0.00029253034271273264 -4.537470881533683e-5 0.0
0.00028944059100397245 -4.302655115120695e-5 0.0
0.0009337774132117352 -2.5790502452383846e-5 0.0
0.0003219903317626508 -4.1446919037439164e-5 0.0
0.00035377039992856145 -4.3114532745592874e-5 0.0
0.00044170659645367637 -7.312616100576402e-5 0.0
0.0003473953197281613 -6.35201201323572e-5 0.0
0.0003328394738141723 -6.0600571436417325e-5 0.0
0.0007472407329767279 -1.5270620541287186e-5 0.0
0.0007652633272565598 -1.2116867762801073e-5 0.0
0.0007503609444308788 -1.2951129185344929e-5 0.0
0.0007691102318527161 -9.857575537836216e-6 0.0
0.00046324750825956596 -7.423411114976285e-5 0.0
0.00047476724521087154 -7.271981228527224e-5 0.0
0.0005260353096485822 -4.630443638127306e-5 0.0
0.00032218727543323404 -3.724271271996878e-5 0.0
0.0003533880430347837 -3.808404685611752e-5 0.0
0.0009280400098276773 -3.487414989124297e-5 0.0
0.0009073790736862977 -4.313186162124734e-5 0.0
0.0003148434335002522 -2.9736331010967305e-5 0.0
0.0003512548270667185 -2.98850679822767e-5 0.0
0.0009510845425564761 -2.6726441685831154e-5 0.0
0.0009539090352796607 -2.1015473317557475e-5 0.0
0.00031804554197750805 -2.0847302573747333e-5 0.0
0.00036122033030223634 -6.67000732910947e-5 0.0
0.00047338528097054636 -7.657354402322248e-5 0.0
0.00048492059706682254 -7.481286111452704e-5 0.0
0.0004865117748287203 -7.098879980140286e-5 0.0
0.0004967598729598259 -7.295242029211547e-5 0.0
0.0004984862862809805 -6.916981478597562e-5 0.0
0.000508914929530316 -7.102223235048243e-5 0.0
0.0005107385422411262 -6.721959241687872e-5 0.0
0.0005214730425465718 -6.901106075302596e-5 0.0
0.0005234002048914323 -6.52000675415268e-5 0.0
0.000534370461321816 -6.690988961573575e-5 0.0
0.000532600259723155 -7.102382497557773e-5 0.0
0.0005455702341691114 -6.886865128695299e-5 0.0
0.0005439230157192131 -7.325750509910202e-5 0.0
0.0005569968577125103 -7.104907768679869e-5 0.0
0.0005553852804413153 -7.572294094185501e-5 0.0
0.0005687986135590039 -7.344253399022962e-5 0.0
0.000536423864424735 -6.309571983847812e-5 0.0
0.000570415130754685 -6.874321500793107e-5 0.0
0.0005827009138378947 -7.105849550762618e-5 0.0
0.0005810598562816072 -7.611101337042581e-5 0.0
0.0005954944954491272 -7.37434873737249e-5 0.0
0.0002691460441464545 -4.294050379065494e-5 0.0
0.000268459582056693 -4.341369040803373e-5 0.0
0.00033264097851020205 -6.343600062236611e-5 0.0
0.00031827921867217686 -6.037228338004126e-5 0.0
0.0005972738240948042 -6.868595092431802e-5 0.0
0.0006106651723477972 -7.138945399617193e-5 0.0
0.000608961296496178 -7.673936725748206e-5 0.0
0.0006249683739931253 -7.446038964088706e-5 0.0
0.00024573068566729236 -4.07210977770074e-5 0.0
0.00024525100214961245 -4.1327698233029764e-5 0.0
0.0007537867348794035 -1.0965081121663416e-5 0.0
0.0007733122198093255 -8.003103539860775e-6 0.0
0.000757764126530326 -9.368894375356658e-6 0.0
0.0009456888737974647 -3.564119775985047e-5 0.0
0.0009683626516492727 -2.7285294708907313e-5 0.0
0.00048353387518234865 -7.896147055278626e-5 0.0
0.0003818401987842817 -4.984693251653224e-5 0.0
0.0006114254160513408 -3.6315889324542224e-5 0.0
0.0006234145285846182 -8.009142911225102e-5 0.0
0.000639455903060547 -7.787402802016124e-5 0.0
0.0006405061364096826 -7.210464176800201e-5 0.0
0.0006546529465531788 -7.547622358621834e-5 0.0
0.0006449607619091585 -2.947279026585486e-5 0.0
0.0007784371020594984 -6.298956017534833e-6 0.0
0.0007927984438324779 -5.440918269152828e-6 0.0
0.0003514683848347903 -1.8740999719224535e-5 0.0
0.00031806970599021885 -6.330254455644666e-5 0.0
0.0003039360618794055 -6.0069152158717494e-5 0.0
0.0007622724765757073 -7.957066526207537e-6 0.0
0.000653622492144127 -8.158652547638368e-5 0.0
0.0006681335141698237 -7.927104131026942e-5 0.0
0.0006690716528540092 -7.295325890145079e-5 0.0
0.0006820348686616945 -7.67299039183404e-5 0.0
0.0006832883690944383 -7.042502362596633e-5 0.0
0.0006955191502205256 -7.391552890510367e-5 0.0
0.0006942253255708909 -8.053518479558499e-5 0.0
0.000707255129734185 -7.754093098691585e-5 0.0
0.00031663408687732607 -9.79752045272134e-6 0.0
0.00022328979663111944 -3.840873210832614e-5 0.0
0.00022286235646606293 -3.9055178034033396e-5 0.0
0.0004723772437613445 -8.075854468399789e-5 0.0
0.0009620339174339763 -3.713512656129609e-5 0.0
0.0009853218767712718 -2.7819914750562162e-5 0.0
0.0007058819915453928 -8.443518586929602e-5 0.0
0.0007186054168807999 -8.130835713863604e-5 0.0
0.00035232671754157745 -5.655117599133081e-6 0.0
0.0003039422634943973 -6.310295759475864e-5 0.0
0.00028979384792866933 -5.966312086670579e-5 0.0
0.0003858161904752429 -3.8841330011896475e-5 0.0
0.0008913357348183364 -1.5772426134086155e-5 0.0
0.00048227070984850043 -8.340333957282351e-5 0.0
0.0003167341640567739 1.8310047258052124e-6 0.0
0.00029375315994016127 -3.6505204303267646e-5 0.0
0.000976632407951038 -4.084862795826953e-5 0.0
0.0010018929406513028 -2.8695184435019444e-5 0.0
0.0010081593159328105 -2.079330692427068e-5 0.0
0.0002830235053190496 -1.3204666202921468e-5 0.0
0.000952121764634313 -4.9916107993262954e-5 0.0
0.00022207649534563745 -3.771605025673707e-5 0.0
0.0003168711992251981 -6.634403881290177e-5 0.0
0.0007833269918790605 -4.866739382208171e-6 0.0
0.0007670965480338063 -6.683927539176002e-6 0.0
0.0006971723679043268 -6.75649922747887e-5 0.0
0.0002899888165636255 -6.289092579536888e-5 0.0
0.00027588864960264247 -5.923294199470673e-5 0.0
0.0002016497791764542 -3.594168181214729e-5 0.0
0.0002012775683751973 -3.653685388792021e-5 0.0
0.00034821496234380155 -5.836408340660852e-5 0.0
0.0007171696925572015 -8.844688156726748e-5 0.0
0.0007297632760914798 -8.513749998978262e-5 0.0
0.0002756715800637459 -5.626596059838873e-5 0.0
0.00026173930322353345 -5.562901525285759e-5 0.0
0.0007053236692168912 -9.106751410389323e-5 0.0
0.0004715454218802008 -8.525986174884668e-5 0.0
0.00026228489363361383 -5.869186761389368e-5 0.0
0.00024822864265294466 -5.4909053236958074e-5 0.0
0.000500091854705678 -6.573279761325646e-5 0.0
0.0010251666191169891 -2.0840013004046598e-5 0.0
0.001031122140045702 -1.5542536046168416e-5 0.0
0.001018706187664922 -2.881078356940028e-5 0.0
0.0007282448699369621 -9.241284558754982e-5 0.0
0.0007409196639902866 -8.90101672157358e-5 0.0
0.0006847201040579149 -6.438807294847789e-5 0.0
0.0006989825608722343 -6.149840970020195e-5 0.0
0.00048122127657398387 -8.815710831774136e-5 0.0
0.000742654281032518 -8.1525194715678e-5 0.0
0.0007541196982307158 -8.547379952948838e-5 0.0
0.00018053275813179203 -3.316158173794047e-5 0.0
0.00018113227855141333 -3.394245912340767e-5 0.0
0.0007525294637615333 -9.336784718228979e-5 0.0
0.0007657290393133615 -8.972892363339774e-5 0.0
0.00024926797464975447 -5.802939879071011e-5 0.0
0.00023516951772513885 -5.407121909097285e-5 0.0
0.0007880011840296237 -3.863956229783586e-6 0.0
0.0007720158966032046 -5.67952975093655e-6 0.0
0.00023396665466448837 -5.123020712370686e-5 0.0
0.00022088900950765147 -5.018354264418418e-5 0.0
0.0002220325910219884 -5.2998498090631745e-5 0.0
0.00020785171886718052 -4.8958126334581286e-5 0.0
0.0010415058119738357 -2.0507876737731238e-5 0.0
0.001034410772873674 -2.9089871101995962e-5 0.0
0.0003530329771727436 7.763746626441326e-6 0.0
0.00031538461469050215 1.3642526869692476e-5 0.0
0.0007428850386744609 -1.1090774764868091e-5 0.0
0.0004708258436412785 -9.007946130011123e-5 0.0
0.0007642592556824849 -9.793945814929713e-5 0.0
0.0007773119872452529 -9.411973809850462e-5 0.0
0.0008324535535233236 -2.967595123608567e-5 0.0
0.000756123030545442 -7.769447697410627e-5 0.0
0.0005424908982489379 -7.793601889032899e-5 0.0
0.0002062727771019753 -4.6373130943265316e-5 0.0
0.0001936602994041724 -4.4968382142508725e-5 0.0
0.00019528842433729916 -4.758683831137736e-5 0.0
0.0001809703621628488 -4.342082616970214e-5 0.0
0.00017927979803019045 -4.10374209779831e-5 0.0
0.00016606837858903985 -3.9256043671843483e-5 0.0
0.00016425284107973463 -3.701746077540329e-5 0.0
0.00015068483975111288 -3.5007322075395846e-5 0.0
0.00014878048461903248 -3.302434899180844e-5 0.0
0.00013580599914971852 -3.096256476349238e-5 0.0
0.0001334970058381254 -2.9170532886327655e-5 0.0
0.0001375444208653996 -3.2810076866235036e-5 0.0
0.00012123682725377879 -2.821683071903676e-5 0.0
0.00016066241868985818 -3.0339381683259877e-5 0.0
0.00016091141054912393 -2.9841549499524863e-5 0.0
0.00012436778580718886 -3.0380514286379827e-5 0.0
0.00010925862201097038 -2.6121265826228095e-5 0.0
0.00038895408615766884 -1.5646039545303281e-6 0.0
0.0003983505234656002 -5.1601035274361864e-5 0.0
0.0006864823217456969 -5.8689732981554846e-5 0.0
0.0007008535829623573 -5.5715252752921035e-5 0.0
0.00024335453257945681 -4.190824332985495e-5 0.0
0.0004802855769641552 -9.332596690960191e-5 0.0
0.0004909851457409427 -9.12444638174785e-5 0.0
0.0007131832107505383 -5.834998203049278e-5 0.0
0.000715294477402959 -5.238127780379188e-5 0.0
0.0010571695360026684 -1.98875676102917e-5 0.0
0.001048315625696015 -2.9160908928683558e-5 0.0
0.001025523417436942 -4.220360216617871e-5 0.0
0.0007516567152806103 -9.020462879565723e-6 0.0
0.0007571596982273006 -8.000711300631867e-6 0.0
0.0004612207923105204 -8.698045003627646e-5 0.0
0.00046055192574148094 -9.18829060684558e-5 0.0
0.00045112202348150427 -8.861877357001512e-5 0.0
0.00018328528140222752 -4.60472166424502e-5 0.0
0.0007766453814595116 -5.3683468107886394e-6 0.0
0.000762464097036478 -7.803181023096313e-6 0.0
0.0003579316337568755 -5.1048417061154224e-5 0.0
0.000775674606897184 -0.00010241953743270797 0.0
0.0007887939499267583 -9.856296986873777e-5 0.0
0.0007907126532509289 -9.023329486270546e-5 0.0
0.000802053844607499 -9.458857590110562e-5 0.0
0.00036552418540556806 2.1578944345700775e-5 0.0
0.0003213127765810223 2.5318096215462684e-5 0.0
0.00045534023910096596 -6.550764204455712e-5 0.0
0.0007630356780647935 -0.00010606545873657368 0.0
0.0009583326018146731 -1.4265756053042602e-5 0.0
0.0008001467415917415 -0.000103313370324233 0.0
0.0008133813664108563 -9.930215578743283e-5 0.0
0.0008154053301713209 -9.032854006092599e-5 0.0
0.0008267338790762257 -9.501173771506272e-5 0.0
0.0008291725169239139 -8.566566918230713e-5 0.0
0.0008401589761036215 -9.024634222924649e-5 0.0
0.0008376807193003804 -9.994166379271949e-5 0.0
0.0008508401849142788 -9.504272961139814e-5 0.0
0.00011166721486180852 -2.7673105149793966e-5 0.0
9.678815311257867e-5 -2.345489720471142e-5 0.0
9.227530624633468e-5 -2.1536849480783925e-5 0.0
0.0004901768146639677 -9.684310880751326e-5 0.0
0.0005006620889050403 -9.491001793028966e-5 0.0
0.0004505470330234031 -9.364063514165106e-5 0.0
0.0004414910525533739 -9.015742520772436e-5 0.0
0.0010375686926664476 -4.29563120129786e-5 0.0
0.0010606541336188918 -2.907072997748566e-5 0.0
0.0008329684695754332 -4.2182781635585504e-5 0.0
0.0008112338060227433 -3.785352855669964e-5 0.0
0.0002758134970844829 1.5952502212643134e-5 0.0
0.0002823643958753495 2.571248729848962e-5 0.0
0.00012682198067960507 -3.22601036915032e-5 0.0
0.0004389700058943316 -5.7223883623531466e-5 0.0
0.0007322966127623833 -1.4556405802483824e-5 0.0
0.0010157545116753906 -5.7270486069217433e-5 0.0
0.0003731024163405417 -5.011633489254224e-5 0.0
0.0007373221244250208 -1.2020903295273394e-5 0.0
0.0008479801027351266 -0.00010500017729727505 0.0
0.0008610190833999361 -9.999047920658543e-5 0.0
0.0008606166452414611 -1.344021907852803e-5 0.0
0.0008980678747414803 -8.914774922672148e-6 0.0
0.0003686947012495392 3.676936516981022e-5 0.0
0.0002006084953799229 -3.732807415180449e-5 0.0
0.00013834992076634754 -2.6384078173793085e-5 0.0
0.0001386462500850572 -2.605087262060787e-5 0.0
0.00019695959618390283 -5.0321104517153255e-5 0.0
0.0008123415002355549 -0.00010853387585310231 0.0
0.0006721932404510993 -3.764805927158536e-5 0.0
0.0006076490289044314 -8.238509381158379e-5 0.0
0.0004194096054744133 -6.802527198049055e-5 0.0
9.923562282288678e-5 -2.4895281708036433e-5 0.0
8.477556032782822e-5 -2.0753347858972197e-5 0.0
0.0002633104037526486 -6.20571678877905e-5 0.0
0.0007277328971281636 -5.4862327575817516e-5 0.0
0.0007301117136644156 -4.8715078680527734e-5 0.0
0.0004596020184340699 -9.734584366676415e-5 0.0
0.0008735677104590399 -6.599515547111367e-6 0.0
0.0009069043372511857 -3.933100909886464e-6 0.0
0.000884191951503048 -2.1123604521056246e-6 0.0
0.0009174034366606106 -3.072890941743872e-7 0.0
0.0009412356548825417 -1.6848459490176264e-6 0.0
0.0009525921748632899 1.111515020762788e-6 0.0
0.0009284627261111149 2.062628063669365e-6 0.0
0.0009636400245583269 2.85119998246563e-6 0.0
0.000939573384043813 3.171021482840889e-6 0.0
0.0009750583975779157 3.622033920888328e-6 0.0
0.0009513242950207214 3.313288740127186e-6 0.0
0.0009863910709908617 3.595187986617659e-6 0.0
0.0009628676624991168 2.8000964123996807e-6 0.0
0.0009976121197235262 3.096585821109676e-6 0.0
0.0009281963003767827 2.2503592087884982e-6 0.0
0.0009743695377557005 1.7234400948542004e-6 0.0
0.0010079101776160153 1.9970564961689404e-6 0.0
0.000978585133227962 5.1217120444642627e-8 0.0
0.0002609642651295776 -5.287853351776443e-5 0.0
0.00025067472551390605 -6.134682468242126e-5 0.0
0.00026420921337273816 -6.549730792333112e-5 0.0
0.0009859023072951382 2.852257431447679e-7 0.0
0.001018503939370974 6.286723296976749e-7 0.0
0.0009552893328365497 -1.708138487043187e-7 0.0
0.0006220129471187091 -8.594994683721458e-5 0.0
0.0006062051469212189 -8.819486427719388e-5 0.0
0.0006206531442154822 -9.19296942250537e-5 0.0
0.0006050439760806384 -9.417067652266988e-5 0.0
0.0006194393507532856 -9.801102649481672e-5 0.0
0.0006041454166400568 -0.00010032156693998552 0.0
0.0005906375184897217 -9.665375913403055e-5 0.0
0.0005897642413641703 -0.00010283601584963073 0.0
0.0005776863628727827 -9.928682788861791e-5 0.0
0.0006766034416755293 -5.919195215020034e-5 0.0
0.0006184599715490288 -0.00010432812462858284 0.0
0.000633641752845397 -0.00010207456712353182 0.0
0.0005539190940935996 -4.3090911131668454e-5 0.0
0.0005254520650095544 -6.16865408831649e-5 0.0
0.0005386404247363195 -5.9571200923955455e-5 0.0
0.0005276734224573897 -5.84561108126619e-5 0.0
0.0005410229742563357 -5.633595766599189e-5 0.0
0.0005300813027122526 -5.551056918578615e-5 0.0
0.000543579597795448 -5.33917587272191e-5 0.0
0.0005546863253777851 -5.414088141051663e-5 0.0
0.0005573679900731915 -5.1196347984179276e-5 0.0
0.0005687025856897752 -5.187900238883137e-5 0.0
0.0005714824079116965 -4.891097916269302e-5 0.0
0.0005825722731813819 -4.956614064397368e-5 0.0
0.0005603455877388897 -4.8443596496433644e-5 0.0
0.0005326862510716591 -5.284820955406592e-5 0.0
0.0005192011693261749 -5.488641519133806e-5 0.0
0.0005798132582350905 -5.2888875688607035e-5 0.0
0.0005947810083032525 -5.0292983236925444e-5 0.0
0.00025214700989240426 -6.470776270154136e-5 0.0
0.0005874917665347481 -3.830353948976436e-5 0.0
0.0006455274982984178 -5.105862788417903e-5 0.0
0.0006125693919868929 -6.635779604665203e-5 0.0
0.0010639123368793879 -1.4726585045695945e-5 0.0
0.0010791747782783704 -1.368553812662612e-5 0.0
0.0006626355931361471 -3.525970194997606e-5 0.0
0.0006403015880542928 -3.245896771475864e-5 0.0
0.0008176071717913751 -8.125335544523008e-5 0.0
0.0007188699825633003 -2.8801207306012272e-5 0.0
0.0010498282497455852 -4.296523185737757e-5 0.0
0.0010725168827136282 -2.8817807723192522e-5 0.0
0.0006188068224451168 -3.2015242772247676e-5 0.0
0.0004411017492955019 -9.531195298467961e-5 0.0
0.0004320491559759015 -9.165093428414562e-5 0.0
0.0006916967134547366 -3.8018941544752227e-5 0.0
0.0005766778342837029 -0.0001055575855947643 0.0
0.0005650893515918119 -0.0001017616213333305 0.0
0.00043242077043531655 -8.672930148801586e-5 0.0
0.0004227473127217809 -8.799024901400096e-5 0.0
0.0004229235132943359 -8.331124901371139e-5 0.0
0.0004122088160798183 -8.433846569215829e-5 0.0
0.0004123041824988119 -8.920970923383013e-5 0.0
0.00040090037748143927 -8.535119366650528e-5 0.0
0.00040113543496959344 -9.035898103612058e-5 0.0
0.00038882457505250596 -8.63301975649256e-5 0.0
0.0001857404643379287 -4.878642028351742e-5 0.0
0.0010859416478518412 -1.0429404912177899e-5 0.0
0.0007807003824965809 -6.654204121028649e-6 0.0
0.0007665120504621445 -9.188985037031205e-6 0.0
0.0003965802124583296 -5.675013671391584e-5 0.0
0.00032008234024812955 -5.7869683805823676e-5 0.0
0.0010302009362805028 2.9963745287762677e-6 0.0
0.0010123588615467076 3.721880669414565e-6 0.0
0.0004998585382212977 -0.00010086566713049186 0.0
0.0005108305279136959 -9.872480011071955e-5 0.0
0.0007741080492522463 -0.00011052881442298529 0.0
0.00017869228334022923 -3.8910525278256166e-5 0.0
0.0006681621895884443 -2.8546001316611802e-5 0.0
0.0007498294711253132 -1.0728477852370066e-5 0.0
0.0007546417305104605 -1.2463119044923663e-5 0.0
0.0008321487989279046 -7.62322350978511e-5 0.0
0.0008506390490364638 -2.1108752234017076e-5 0.0
0.000864605762176436 -8.962818360910671e-5 0.0
0.0008752333478446071 -9.41870209600044e-5 0.0
0.0008709100875913117 -0.00010507212137240495 0.0
0.000885668150343505 -9.898145581558023e-5 0.0
0.0005548466898675794 -4.244305934868334e-5 0.0
0.0001986439294032802 -5.3087773043060454e-5 0.0
0.0005847079889586745 -4.65832023292741e-5 0.0
0.0009060752735760847 2.4633998311468144e-6 0.0
0.000503718114316529 -8.948668532210892e-5 0.0
0.00026508367034874336 -6.893496619454785e-5 0.0
0.0002771812117330249 -6.970558427825647e-5 0.0
0.000761891570965179 -0.0001138957128384848 0.0
0.0004121728256474709 -7.99521511394588e-5 0.0
0.0006883298276590048 -5.330486388418144e-5 0.0
0.0006735913396712198 -5.6080518853371764e-5 0.0
0.001061347878131674 -4.342582229818089e-5 0.0
0.0010848878703293712 -2.8324323571099604e-5 0.0
0.0010948689570191529 -1.7754566865745946e-5 0.0
0.0004123085044876327 3.426691875625873e-5 0.0
8.72309508720625e-5 -2.1993387747926484e-5 0.0
7.301871880751015e-5 -1.7877174891379294e-5 0.0
7.189882803390583e-5 -1.7175574066507764e-5 0.0
0.0008160931507818087 -5.285110935412687e-5 0.0
0.0008369845801452366 -5.545567201838429e-5 0.0
0.000795210359236742 -4.7290180859962324e-5 0.0
0.00080524248312924 -2.3664436066942425e-6 0.0
0.000997512080547614 -1.4235675155952615e-6 0.0
0.0010301867261620788 -9.462978329310468e-7 0.0
0.0004318232243833855 -9.691090405726895e-5 0.0
0.0007858788346783252 -8.913639817544995e-6 0.0
0.00023519824319033315 1.5700237887599558e-5 0.0
0.00023994247447248123 2.3134712455751363e-5 0.0
0.00029316664345111095 3.573396755691857e-5 0.0
0.00024640144258277727 2.985934301436176e-5 0.0
0.00032474815380319433 5.122104114083126e-5 0.0
0.0005649991931404278 -9.543880550218358e-5 0.0
0.000388395656560908 -8.158677546444338e-5 0.0
0.0003762537875881691 -8.244832337471602e-5 0.0
0.00037659976753875654 -8.721307156302178e-5 0.0
0.00036411453769240565 -8.327127443452993e-5 0.0
0.0008901762462877926 -8.771425137976154e-5 0.0
0.0009009825756140658 -9.229282149342789e-5 0.0
0.0008961835533053151 -0.00010383939307020095 0.0
0.0009115933304681523 -9.684421160381005e-5 0.0
0.0007174807767169677 -4.661028851532001e-5 0.0
0.0007326708393294947 -4.286312423929907e-5 0.0
0.0006329004085339241 -0.00010854035667179702 0.0
0.0006471908505757351 -0.00010629344123324857 0.0
0.0005219020919055024 -5.247744667604818e-5 0.0
0.0005083517298763949 -5.441607433038557e-5 0.0
0.00048816333798547745 -0.0001032674636825096 0.0
0.00036453014846523886 -8.778034804381794e-5 0.0
0.00035217589218027143 -8.388700536934118e-5 0.0
0.0010038039605776432 -5.6204496829457335e-5 0.0
0.0009945581714070264 -7.158388154803758e-5 0.0
0.0009830056468807618 -7.017781604847955e-5 0.0
0.0009767738598757834 -8.325401229790557e-5 0.0
0.0005100994108867533 -0.0001056859686139968 0.0
0.00010021952551421717 -2.6007771258277374e-5 0.0
0.00014764733426454437 -3.1402356166571356e-5 0.0
0.0001302385054139858 -2.738930345888521e-5 0.0
0.00011474467665925734 -2.2127124017008563e-5 0.0
0.00011338767930033345 -2.1680152943115457e-5 0.0
0.00013900913282794937 -2.5787655077713837e-5 0.0
0.00011233425669018595 -2.122566632810192e-5 0.0
0.0001390782977923307 -2.5407412882658654e-5 0.0
0.00011106845387883031 -2.057968769330195e-5 0.0
0.00013928183413337446 -2.4704071137573933e-5 0.0
0.0010058495521623465 -7.282415164870635e-5 0.0
0.0003632585770814445 -7.878141734791867e-5 0.0
0.0008202859012975011 -7.236851250690226e-5 0.0
0.0007508908537089153 -0.00010919670644169966 0.0
0.0007501650838128862 -0.00011703808955021807 0.0
0.0007397103825374837 -0.00011251422464579361 0.0
0.0005642482770116115 -0.00010828754048899624 0.0
0.0007930785048069465 -4.602008367080198e-6 0.0
0.000906629423649204 -0.00010870303041044862 0.0
0.0011082955970719774 -1.6184907187041443e-5 0.0
0.0010970801876666395 -2.735539753381798e-5 0.0
0.00041786311251382354 5.0613637967824684e-5 0.0
0.0007803537869801074 -1.017258507714837e-5 0.0
0.0005991635371772304 -6.396396246813607e-5 0.0
0.0006142843022940386 -6.162764553637122e-5 0.0
0.0005893844239552234 -0.00010943536918957187 0.0
0.000553266039895604 -0.00010431873333122314 0.0
0.0002934538406876093 -4.617019952662612e-5 0.0
0.0010509694908155147 7.66371861010396e-7 0.0
0.0010623025018791392 -5.587002510017206e-7 0.0
0.0010409311353178161 -2.651492988496451e-6 0.0
0.0010721341530331207 -2.10881102092569e-6 0.0
0.0008525116331688604 -4.671988741032829e-5 0.0
0.0006658850543770707 -8.567816113310802e-5 0.0
0.0006754488581154235 -5.110632390721764e-5 0.0
0.0005076993930733199 -7.514197378216122e-5 0.0
0.0007123635254697448 -2.1911996703011077e-5 0.0
0.0007426975224929405 -5.108830042581725e-5 0.0
0.0007446980528835105 -7.429303656555446e-5 0.0
0.0007584962861869395 -7.02549719894503e-5 0.0
0.0008234371559702916 -6.85294486276498e-5 0.0
0.0008455054821672659 -6.674365411961933e-5 0.0
0.00027787773495865345 -7.319208433150196e-5 0.0
0.00028949840993286186 -7.382460736276475e-5 0.0
0.00010964269220136515 -1.9499572362969033e-5 0.0
0.00013814553056374046 -2.316445824692545e-5 0.0
0.00016805008588778068 -2.8358297907253484e-5 0.0
0.00016810103382063204 -2.6293556035613336e-5 0.0
0.00013742647605961345 -2.0653924595847273e-5 0.0
0.0001688847391367446 -2.2935504242263788e-5 0.0
0.00013706911496252656 -1.6889519762165155e-5 0.0
0.00017038965053616753 -1.793702563670303e-5 0.0
0.00013677482782885786 -1.1951752378225127e-5 0.0
7.561374281283244e-5 -1.9048681355691897e-5 0.0
0.0006601904859010748 -5.3697015608590224e-5 0.0
6.180218112604463e-5 -1.5030166287585334e-5 0.0
0.00025361700390412586 -6.808866466473235e-5 0.0
0.0011022201210483264 -9.152680157776505e-6 0.0
0.0005497634001416832 -6.0916256910789054e-5 0.0
0.0007390280718829008 -1.4785059685128786e-5 0.0
0.0007459508724843875 -1.6819540266885536e-5 0.0
0.00017167638686207005 -1.147256219782839e-5 0.0
0.00018800309048900643 -5.163351781315603e-5 0.0
0.00017522053664327885 -4.7222165005814706e-5 0.0
0.0003770221082150976 -9.25192751278739e-5 0.0
0.0007715563373737494 -0.00011848072080371018 0.0
0.00044071542414958286 -0.00010076856069443654 0.0
0.0009223507658730653 -0.00010143516915242424 0.0
0.0011172045304478507 -1.0299209208206642e-5 0.0
0.0005057849514432026 -5.685732892405283e-5 0.0
0.0004950243524610635 -5.6235946958173096e-5 0.0
0.0004925507287672229 -5.871627092653994e-5 0.0
0.0004598848741128671 4.739103302535455e-5 0.0
0.00048250208177001957 -5.788023020620197e-5 0.0
0.0001179338007417007 -2.299772056448208e-5 0.0
0.0006466589851264386 -0.00011310763538576975 0.0
0.0006599078752664337 -0.00011077987443024629 0.0
0.0006604479562940899 -0.00010412337662741423 0.0
0.0006721395115898476 -0.00010848215585325124 0.0
0.0007703698899794857 -7.372806937170177e-5 0.0
0.0007730433382214237 -6.592583596420807e-5 0.0
0.001108748771444663 -6.867256636182222e-6 0.0
0.0010914577706006344 -7.774883607950887e-6 0.0
0.0007617278109406406 -1.7148202274034882e-5 0.0
0.0007526821258907274 -2.3247103741436468e-5 0.0
0.00024091060194708785 -6.380294321012502e-5 0.0
0.0003527447364060285 -8.800561774836994e-5 0.0
0.00034057150538003363 -8.418857310288325e-5 0.0
0.0005895275437325084 -3.7959743828990427e-5 0.0
0.0008922297684810375 -0.00011522376845176738 0.0
0.0001374595150798826 -6.427253639528119e-6 0.0
0.000339717995093753 -7.994339212301863e-5 0.0
0.0006716916361061708 -0.00011549323729348518 0.0
0.0006831505795940976 -0.0001130294074790292 0.0
0.0006619418541756922 -4.919439857219165e-5 0.0
0.0006464783616586181 -5.156820444990063e-5 0.0
0.0006484398358084096 -4.748720732658742e-5 0.0
0.0006214475153912033 -3.192886540266345e-5 0.0
0.00011410100662587178 -2.4660001120973456e-5 0.0
6.435413966363656e-5 -1.6149708332776972e-5 0.0
0.0006728861687316636 -0.0001018783838038778 0.0
0.0006855897851009968 -3.8829239854260535e-5 0.0
0.0005525532159043352 -0.00011109651517472205 0.0
0.0002714671191933943 -4.2761023068876785e-5 0.0
0.00044931829489698436 -5.2330534549794845e-5 0.0
0.00020036488814970135 -5.615977112026698e-5 0.0
0.0009280030056022932 -8.937289982805057e-5 0.0
0.0002760699930975208 -5.373393462650546e-5 0.0
0.00026042977127184593 -5.048463367990368e-5 0.0
0.0002769038154102815 -5.149142518671529e-5 0.0
0.0002606013838099358 -4.8442743034936064e-5 0.0
0.0002775970905272489 -4.956627229651661e-5 0.0
0.00024402254137186418 -4.7232471752272206e-5 0.0
0.0007390930860922174 -0.00012010312859032918 0.0
0.000729634216706976 -0.0001157386862976327 0.0
0.00018893197233969892 1.2703687911810193e-5 0.0
0.0005637681288897142 -0.0001152183442873641 0.0
0.0005538737296275425 -8.068539680895136e-5 0.0
0.0005411491098895577 -8.28850363383285e-5 0.0
0.0002904599633836153 -7.740528166152702e-5 0.0
9.322157754868692e-5 -1.829073187355954e-5 0.0
9.820546235038257e-5 -1.9579646943575995e-5 0.0
0.0010126025533911311 -1.568352209392526e-5 0.0
0.0010362921700042796 -1.1479921498172181e-5 0.0
0.00019777891776441009 -3.1508831820144656e-5 0.0
0.00030184247159576166 -7.790533004998057e-5 0.0
0.00030163765938161956 -7.446445272040241e-5 0.0
0.0003028607947879671 -8.155088996490841e-5 0.0
0.0002792811809642549 -7.680242445589327e-5 0.0
0.00026745980224968113 4.140604978634578e-5 0.0
0.0004517303452872745 -8.404379751591866e-5 0.0
0.0006584067598021998 -5.8606894955778676e-5 0.0
0.0010160705325587811 -1.1429600042364661e-5 0.0
0.0006323852276192649 -0.00011561306793895674 0.0
0.0004314541167656574 -0.00010229148045865801 0.0
0.0011206717342762233 -1.465509083507833e-5 0.0
0.0011088946143142527 -2.7153607543849182e-5 0.0
0.0004568150785919692 2.904439811233368e-5 0.0
0.00034156592125170746 -8.80563059907817e-5 0.0
0.000719793528487254 -4.0913179726783036e-5 0.0
0.00073639788831486 -3.709318284973589e-5 0.0
0.0001465504411440204 -2.9984043683079834e-5 0.0
0.00017764675798971212 -4.99737799675639e-5 0.0
0.0001651878167034814 -4.555740011768987e-5 0.0
0.0001624755298583018 -4.296806917052372e-5 0.0
0.0002425767661464763 -6.719057001939492e-5 0.0
5.0880365145456597e-5 -1.2225940219645273e-5 0.0
4.8763238279113394e-5 -1.1473734294843446e-5 0.0
0.0006827278659114322 -0.00012043833107394178 0.0
0.0006936609173414838 -0.00011774816062050599 0.0
0.0006936634959319645 -0.00011014996962685876 0.0
0.0009062089487965302 -8.06246393834026e-5 0.0
0.0008947520354591587 -7.630380717464889e-5 0.0
0.0009020637732734666 -0.00012044329963246852 0.0
0.00024390448734804002 -4.537877314169255e-5 0.0
0.0002276769146280796 -4.406754752910325e-5 0.0
0.0007489723589736148 -3.8769919577928976e-5 0.0
0.0010930685487835178 -3.14496672239159e-7 0.0
0.0011020252572520272 -1.622039192178284e-6 0.0
0.0011123871773000196 -5.0884256990189545e-6 0.0
0.0010806292953618314 -4.695701828903515e-5 0.0
7.776376314889669e-5 -2.038040281136556e-5 0.0
0.0007311640482758198 -1.2881430161342982e-5 0.0
0.0007177834748996984 -1.6181710463628666e-5 0.0
0.0007113481471244412 -1.6997254652596207e-5 0.0
0.0006980645124106415 -2.034156987950644e-5 0.0
0.0006922292671334574 -2.064945718453042e-5 0.0
0.0007035904251104398 -2.0178258100691873e-5 0.0
0.0006011590988921876 -5.9550357081989293e-5 0.0
0.0005110838463883305 -5.22868205118534e-5 0.0
0.0005248414412614756 -5.037733828384291e-5 0.0
0.00016769213883073932 -4.821319437755456e-5 0.0
0.00015528326893673148 -4.367111156144657e-5 0.0
0.0009658155360610083 -2.901480897683449e-6 0.0
0.0010062124521171374 -5.64446528089411e-7 0.0
0.0010206408078588436 1.404468755149566e-6 0.0
0.0010495691157447048 8.944539217733192e-7 0.0
0.0010413047558160819 -9.387365786588192e-7 0.0
0.0005422179654084171 -0.00010720335742568089 0.0
0.0005427535560952046 -0.00010086264444021717 0.0
0.0005411578733827514 -0.00011411077758773844 0.0
0.0007301101346081513 -2.0043710611648613e-5 0.0
0.0007216958258053509 -1.9805864895679538e-5 0.0
0.00019812411802740088 -3.313679060423837e-5 0.0
0.00010106129715809548 -7.165997654469464e-6 0.0
0.0007285111227493543 -0.00012313580077889596 0.0
0.0002315428867811423 8.541090137900865e-6 0.0
0.0007253954224777595 -6.116286255949919e-5 0.0
0.0007079325012892154 -1.71693292807979e-5 0.0
0.0006867940090691025 -2.0923834039533556e-5 0.0
0.0006995738505564214 -1.8349905213251833e-5 0.0
0.0006815066662670874 -2.142485450551793e-5 0.0
0.0006939345671173996 -1.932282311853864e-5 0.0
0.0006764854249584683 -2.2277298012392074e-5 0.0
0.0006889389628360048 -2.0561700265911892e-5 0.0
0.0006717886437853398 -2.339612613075282e-5 0.0
0.0006848794451288519 -2.195632106757273e-5 0.0
0.0006687031864379886 -2.407075780990782e-5 0.0
0.0006592821629316429 -2.5157837894007832e-5 0.0
0.0007491659508566853 -0.00012456974993268783 0.0
0.0011298023398134825 -5.151208827515386e-6 0.0
0.0004233038701362773 -7.912764268618997e-5 0.0
0.0004120495766518156 -7.611668828114805e-5 0.0
0.0010388049622522828 -5.9203714034928185e-5 0.0
0.00048528996327981303 -5.595390120757384e-5 0.0
0.0006801025525978452 -2.392867887525682e-5 0.0
0.00034696077374919926 7.675628461185391e-5 0.0
8.750710283098285e-5 -1.7036712009312767e-5 0.0
0.0005087244422200569 4.263210850987164e-5 0.0
0.0004981810716820395 2.173618089134346e-5 0.0
0.0008422711191664754 -8.563966568223703e-6 0.0
0.001049621670523398 -6.017090802811149e-5 0.0
0.0010288068420414348 -7.586853312358244e-5 0.0
0.00047979983773265434 -6.038560292838809e-5 0.0
0.0004711718431324947 -5.89770787486095e-5 0.0
0.00021236336295832003 -5.531842028192126e-5 0.0
5.337720189549148e-5 -1.329697485173249e-5 0.0
7.174988415162212e-5 -1.427273945103454e-5 0.0
7.386777689435182e-5 -1.4986737672651492e-5 0.0
4.012423679946829e-5 -9.481669355026643e-6 0.0
0.0007608766616494501 -6.292023574317634e-5 0.0
0.0007758939129849359 -5.8502910770279524e-5 0.0
0.0007885155342504554 -6.148383643580025e-5 0.0
0.0007914077624650618 -5.360367758766747e-5 0.0
0.0006549480823346005 -2.6124975519869964e-5 0.0
0.00039767661062190793 8.344483371923762e-5 0.0
0.00048032321511539224 6.522216174687245e-5 0.0
0.0006326800414488382 -4.977096894580594e-5 0.0
0.000635123222633778 -4.592498328000358e-5 0.0
0.0005142061178226788 -5.0548194868079766e-5 0.0
0.0004563166453017998 -5.4709276923167835e-5 0.0
0.00044059590299682283 -0.00010638429401312296 0.0
0.0008357163393947467 -0.00010957376657145496 0.0
0.0008455425252626321 -0.00011475807462519627 0.0
0.0008340703473053452 -0.00011898025775411988 0.0
0.0008436404844156945 -0.00012429788978902904 0.0
0.0008326498439090724 -0.00012802072091962663 0.0
0.0008228259996005307 -0.00012294213600642367 0.0
0.0007981016774626774 -0.00011332201123092576 0.0
0.0007289121618578407 -0.00010775146035585891 0.0
0.0007919661158023158 -3.10601783142342e-5 0.0
0.0005927379019535554 -8.47846400044252e-5 0.0
0.00020265148948724187 -2.4391904697281775e-5 0.0
0.0010952768810628376 -4.4543090457579744e-5 0.0
0.0011199151163427113 -2.6991177247729267e-5 0.0
0.0008548152433850077 -0.00012007058858164503 0.0
0.0008531314322927553 -0.0001296029984740381 0.0
0.000863916616515543 -0.00012565092707970352 0.0
0.00044916677400133305 -0.0001048877313040804 0.0
0.0005300328484666233 -8.009659051981126e-5 0.0
0.0005290553533697234 -8.493653735404421e-5 0.0
0.0005400178007654152 -8.81208255079173e-5 0.0
0.00039271577125624243 -6.648921690531709e-5 0.0
0.0005181017925905507 -8.208775350621406e-5 0.0
0.000661375234417354 -9.791186156733072e-5 0.0
0.0009122053816654663 -6.844935180900896e-5 0.0
0.0009389583749193002 -9.354919431630576e-5 0.0
0.0009330739111683073 -0.00010637303711725846 0.0
0.0009474309270790732 -8.044629486890644e-5 0.0
0.00016820731521503956 -3.012511541163559e-5 0.0
0.00041247379592917885 -9.441104971158362e-5 0.0
0.00040165585268763914 -9.541771313220295e-5 0.0
0.00041259785761156825 -9.932531988822331e-5 0.0
0.00040242422880241123 -9.959635325445061e-5 0.0
0.0008041029734152136 -5.63032144711636e-5 0.0
0.0002553732433117014 -7.166771235373235e-5 0.0
0.0002306052264006919 -6.293126590076916e-5 0.0
0.0010806935090701645 -3.920235912599268e-6 0.0
8.247106531968448e-5 -1.5392620067731404e-5 0.0
8.086570826730577e-5 -1.4279989309612518e-5 0.0
0.0007184976592311446 -0.00011762359266575636 0.0
0.0007192169831884958 -0.00012610554568613462 0.0
0.0005863039261767065 -6.192788586184363e-5 0.0
0.0010653192896837036 2.0588729250692867e-6 0.0
0.0002321128229379698 -6.62985958483686e-5 0.0
0.0009143191922330256 -4.9297999198796856e-5 0.0
0.0009899083863811452 -5.4599889186361596e-5 0.0
0.0010351108208082338 -1.1710725111937279e-5 0.0
0.0010389530165092233 -8.665671753306134e-6 0.0
0.0007790173436831339 -5.131515568908187e-5 0.0
0.0008357339679703151 -6.714728091377061e-5 0.0
0.0008475395954880549 -7.08344864827897e-5 0.0
0.0008387865613479515 -8.084625254390615e-5 0.0
0.000859295896734817 -7.638160497161577e-5 0.0
0.0008658164851371198 -6.193607490043389e-5 0.0
0.0006711385513127889 -0.00012312785679945905 0.0
0.0003528325896746015 -9.154735887121356e-5 0.0
0.0005146066755418288 -6.0527849464630105e-5 0.0
0.0007045781336415663 -4.480573044241622e-5 0.0
0.000627623911044852 -6.391916119769274e-5 0.0
0.0006461772183305 -0.00012059248113976875 0.0
0.0003137195694383028 -8.194185716234354e-5 0.0
0.0004002355557083054 -7.665082206838894e-5 0.0
0.00018199088484906252 -3.501376646134037e-5 0.0
0.0010873757184869447 1.4406647070369722e-6 0.0
0.0008059799663678669 -7.745221755362367e-5 0.0
0.00012812208507901663 -2.6061928840956155e-5 0.0
0.00041762550027589637 0.0001091763858437739 0.0
0.0006363139646238003 -8.980608189036518e-5 0.0
0.0008214992627221929 -0.00013129500919495445 0.0
0.0008110848093495264 -0.00012638463399424678 0.0
0.0007203602297523222 -7.43118196496082e-5 0.0
0.0007519650034382062 -3.316419467690577e-5 0.0
0.0003788656941594387 -5.863847324888809e-5 0.0
0.0005279303226463591 -9.102056972430746e-5 0.0
0.0007006287649266403 -3.5995444890252856e-5 0.0
0.00040004024441113396 -7.304497178671681e-5 0.0
0.00038725338760205923 -7.339679525658499e-5 0.0
0.00031469561939812836 -8.548731212794662e-5 0.0
0.00022724845972611746 -3.616951294957262e-5 0.0
0.00022855541335944313 -3.4335874169302025e-5 0.0
0.00010263328182561613 -3.0671014871770517e-6 0.0
0.00014172953531277216 -7.039461518521816e-7 0.0
0.0008887086749033012 -0.00012644231294037727 0.0
0.00016363234429799567 -3.376565238378441e-5 0.0
0.00022801611420236067 -4.5955496045692365e-5 0.0
0.00021179725408203105 -4.256963892606551e-5 0.0
0.000934660061328973 -7.728492240176718e-5 0.0
0.0004942607428803776 -8.149796419752068e-5 0.0
0.0006161363308165449 -5.702724885733388e-5 0.0
0.0007754224100464301 -3.630193670415332e-5 0.0
0.000784855801333822 -5.5722928616229776e-5 0.0
0.0007686624841416817 -4.599552564924726e-5 0.0
0.0007796255103391502 -6.583659167757983e-5 0.0
0.0007957343919153881 -7.283580231439683e-5 0.0
0.0008106200207145644 -1.897341832469231e-6 0.0
0.0008283948647842279 -5.951423094449029e-7 0.0
0.0008350199750418615 -9.600947266924715e-7 0.0
0.0008528375838112118 3.905252696459458e-7 0.0
0.0008462021306199959 3.167055510125151e-7 0.0
6.872152073085397e-5 -1.3573078591264241e-5 0.0
0.0008077346979245902 -4.8545510580423823e-5 0.0
0.00018851366945383207 1.983472021618495e-5 0.0
0.00021283776988602256 3.19157849313074e-5 0.0
0.0006930909915292026 -0.000125301302467297 0.0
5.3037263175851324e-5 -9.824386455936906e-6 0.0
0.0008864591513485168 -1.7060231381910576e-5 0.0
0.0009091059956349776 -1.2632088574218705e-5 0.0
0.000892365481458348 -1.1559317578960512e-5 0.0
0.000928573516690699 -1.3158930038269408e-5 0.0
0.000932882295244664 -8.748507883516677e-6 0.0
0.0009538191885726328 -9.388129825440763e-6 0.0
0.00029432126432184084 -5.2408894971151933e-5 0.0
0.0002958008267808976 -5.0670542548827684e-5 0.0
0.00027815791401325317 -4.794639870612822e-5 0.0
0.0002969983403623007 -4.920560116030492e-5 0.0
0.0003147654023780981 -5.1689588734070364e-5 0.0
0.00031626632921131044 -5.033086532277777e-5 0.0
0.0003337818949234059 -5.25520987068982e-5 0.0
0.00034268605733895566 -9.13250427346362e-5 0.0
0.00033555613748997517 -5.1231103058866235e-5 0.0
0.0003527793433332822 -5.324198893837734e-5 0.0
0.00010549887914056147 -1.5028121702926868e-5 0.0
0.00022614468291074318 -3.717567634166168e-5 0.0
0.00035034291370779396 -5.4733458563514925e-5 0.0
0.0002807267729552216 -4.6924516954297295e-5 0.0
0.0009001090100407226 -6.470089770695977e-5 0.0
0.0008834493273133137 -7.252131950475732e-5 0.0
0.000531294578031759 -0.00011034507897180785 0.0
0.0005299897044707227 -0.0001174991912161412 0.0
0.0007630240790648575 -5.333154401766482e-5 0.0
0.0004591240839405374 1.1463345062876186e-5 0.0
0.0004974325417150346 2.3781833823547556e-6 0.0
0.0005342618733773792 1.1295423258153972e-5 0.0
0.0005338155596101856 -9.564737997941463e-6 0.0
0.0005010666612799025 -1.6048062192661123e-5 0.0
0.0005368253037130847 -2.9487989903994232e-5 0.0
0.0005063444538375001 -3.2690279469211526e-5 0.0
0.0005413638667164745 -4.5098796715998284e-5 0.0
0.000511345741150802 -4.4983351526734716e-5 0.0
0.0005493440902916087 -5.435362412650805e-5 0.0
0.0005141258007805842 -5.208595094680161e-5 0.0
0.0005434965196747059 -5.677921557197448e-5 0.0
0.00051399780819843 -5.515902167834168e-5 0.0
0.0005406040965084324 -5.7491216558564926e-5 0.0
0.0005142162479957953 -5.652885165003189e-5 0.0
0.0005378136751794635 -5.6990955334831644e-5 0.0
0.000512603789160209 -5.64131244190274e-5 0.0
0.0005335445323425758 -5.5674612857468966e-5 0.0
0.0005103134423145956 -5.55503585102053e-5 0.0
0.0005295016841373296 -5.4259756509276545e-5 0.0
0.0005074724889436354 -5.444319916761185e-5 0.0
0.0005251277206944748 -5.278250819064267e-5 0.0
0.0005038282618475219 -5.328168566695225e-5 0.0
0.0005208576201332786 -5.15240449502068e-5 0.0
0.0005001081734858882 -5.2246937859909695e-5 0.0
0.00048241034620641267 -5.345588191657122e-5 0.0
0.00047934828012185024 -5.259661352569608e-5 0.0
0.0005175905161748698 -5.028875470741625e-5 0.0
0.0004892177852130403 -5.561465531629351e-5 0.0
0.000541285086558411 -5.055052085689324e-5 0.0
0.0005530122786462598 -5.353652788344065e-5 0.0
0.00047832741413680093 -3.458100887745661e-5 0.0
0.0005631103687108891 -5.719428474213125e-5 0.0
0.00046042559152326644 -5.3261291714852493e-5 0.0
0.00045832835869197795 -5.264823143371766e-5 0.0
0.0004763031310378869 -5.1873997898273924e-5 0.0
0.0004561584608763503 -5.213392393011003e-5 0.0
0.00048712520104435313 -5.3829596622906504e-5 0.0
0.00057512073516417 -5.8587560225695105e-5 0.0
0.00046284390117643437 -5.3941808309493046e-5 0.0
0.0005736345370134446 -4.411362539664242e-5 0.0
0.0004734538965720812 -5.1394175018027024e-5 0.0
0.00045393071396177594 -5.184531620740395e-5 0.0
0.0004357171578830671 -5.2096737555626976e-5 0.0
0.0004390446692063586 -5.318391244928018e-5 0.0
0.0004399704771420054 -5.3518350336864565e-5 0.0
0.0004927508812566236 -5.0610424217975396e-5 0.0
0.0004890834122281209 -5.029175005500838e-5 0.0
0.0005071969541209432 -4.907063088874557e-5 0.0
0.0005696452322795006 -3.855005987994944e-6 0.0
0.000577184132145624 1.5753006506954206e-5 0.0
0.0004346418327423795 -5.193589008061833e-5 0.0
0.0004150238271972251 -5.174454199594801e-5 0.0
0.0004161350768913723 -5.193326177900676e-5 0.0
0.00039355309263808247 -5.11326054345772e-5 0.0
0.0006320417130114751 -0.00012339624173021363 0.0
0.0006177778097345111 -0.00011834775957003738 0.0
0.0010391457722374224 -7.753174303458339e-5 0.0
0.0006737490117678105 -9.550038646095906e-5 0.0
0.000684764442180068 -9.95840517494227e-5 0.0
0.0004220184523364911 -7.518440447990541e-5 0.0
0.0004326356038885091 -7.797193927640147e-5 0.0
0.0009236870895799322 -1.0495927456582923e-5 0.0
0.0006772680129152511 -4.629484259863122e-5 0.0
0.0004523399454355101 -5.180584587372082e-5 0.0
0.00032667728987359696 -8.00675676703811e-5 0.0
0.0003271117827785263 -7.606918524933504e-5 0.0
0.00033911546273588484 -7.572986258344135e-5 0.0
0.0007390765499235996 -3.194218560533494e-5 0.0
0.0007099853051726673 -1.6628799425094696e-5 0.0
0.0004905756352904528 -6.145023411488234e-5 0.0
0.0004781453569708516 -6.317569483633919e-5 0.0
0.0007126173397880489 -2.6110812918415257e-5 0.0
0.0007042367572346645 -2.5968059089599776e-5 0.0
0.0007129434790058896 -2.1008467703398603e-5 0.0
0.0006946466543936087 -2.6306018089747696e-5 0.0
0.0007219198797667432 -2.6733471491272104e-5 0.0
0.0007014971876042862 -1.9245484050653045e-5 0.0
0.0006980783922317698 -2.0864971111541935e-5 0.0
0.0006798002878677901 -2.379730737265494e-5 0.0
0.0005281213713546163 -4.856267385799398e-5 0.0
0.0005388041240638123 -4.829508344134412e-5 0.0
0.0005422212047672226 -4.648910220507808e-5 0.0
0.0005527430215745587 -4.611634984766609e-5 0.0
0.0005561567096660085 -4.4363862844693395e-5 0.0
0.0005667264294569711 -4.390837327132211e-5 0.0
0.0005702245917245339 -4.211155517873214e-5 0.0
0.0005814485179474236 -4.1526767150415724e-5 0.0
0.000577727955242574 -4.368637010958794e-5 0.0
0.0005932781473119441 -4.095377488210779e-5 0.0
0.0006513493387092107 -4.3671659033020846e-5 0.0
0.0006376738967812609 -4.2430879698362344e-5 0.0
0.0006219574574759901 -4.4790968723203064e-5 0.0
0.0006245805254184411 -4.163587575059257e-5 0.0
0.000145278495291297 -2.8807894078879414e-5 0.0
0.00015827871721512762 -4.629088856214622e-5 0.0
0.00014592004549721414 -4.169163718388413e-5 0.0
0.00014319798237079709 -3.923848878853096e-5 0.0
0.00013322956678949772 -3.7083225277502365e-5 0.0
0.0005883744745631514 -5.7842540283047e-5 0.0
0.0007650723219591647 -3.434707348265925e-5 0.0
0.0007608189007502496 -4.064395888065222e-5 0.0
0.0003777650699238791 5.145220735589934e-5 0.0
0.000643084387010474 -2.781594460651538e-5 0.0
0.0006469128162674081 -2.7306832241423646e-5 0.0
0.0007581094632433875 -6.790907429740002e-5 0.0
0.0011052955526812012 -1.1316768671922627e-5 0.0
0.0011260679299485705 -7.097117003421708e-6 0.0
0.0011403589308889184 -5.275089216067479e-6 0.0
5.231116755504386e-5 -1.0577288057432617e-5 0.0
5.345582627421325e-5 -1.0973008214597003e-5 0.0
7.390215457499768e-5 -1.5344828888153106e-5 0.0
5.597057103845801e-5 -1.1772361994161926e-5 0.0
7.473415616547905e-5 -1.605615011395969e-5 0.0
5.747745183782559e-5 -1.2547257018405995e-5 0.0
3.6562955778606453e-5 -7.801964012443587e-6 0.0
0.0005739410590412963 -6.021643718147585e-5 0.0
0.0003187395691252296 -4.935302412810415e-5 0.0
0.00018057617982610602 -5.295244425210165e-5 0.0
0.0005030644426701767 -4.894871906437368e-5 0.0
0.001022871410959114 -9.08342316683058e-5 0.0
0.0010113064702518442 -9.182421568778318e-5 0.0
0.0008515071234769564 -6.106699084849558e-5 0.0
0.0008670982963238706 -6.361571648314165e-5 0.0
0.000870101074968999 -5.200788588215347e-5 0.0
6.538494459746642e-5 -3.735646999748331e-6 0.0
0.00043190687995460725 -0.00010694610816105871 0.0
0.00030428096825641903 -8.526676060653107e-5 0.0
4.273996883215385e-5 -1.0581631894186487e-5 0.0
5.637456918345226e-5 -1.5051270453133308e-5 0.0
0.0002611677238141492 -4.542533144486898e-5 0.0
0.0007919453608533761 -8.219887080737002e-5 0.0
0.0008090120325464068 -8.651893226383648e-5 0.0
0.0008222217025480654 -6.365163154139944e-5 0.0
0.0008587034931651085 -7.49334478682743e-5 0.0
0.00041323338466380633 -0.00010293641006296902 0.0
0.0004488702980113819 -0.00011112588016375712 0.0
0.00045852806881304926 -0.00010945019325374192 0.0
0.0009495430280596957 -9.838945530238376e-5 0.0
0.0009432041719255272 -0.00011127528862303337 0.0
0.0009275020941549618 -0.00012060440102390663 0.0
0.0010408492737050893 -7.907736502495415e-6 0.0
0.001020170876264802 -7.694436927249026e-6 0.0
0.0009954274696523993 -1.1032971811237347e-5 0.0
0.000997492613040861 -7.2016231869940176e-6 0.0
0.0002243026070912844 -4.220319977302353e-5 0.0
0.0009572267178725874 -5.5787254972201e-6 0.0
0.0009329465624760971 -5.098984094966482e-6 0.0
0.0006861346562198632 -9.339657368359007e-5 0.0
0.00013528590934369848 -3.9159063185914104e-5 0.0
0.0001238996268648614 -3.515871847175949e-5 0.0
0.00012091701071573518 -3.294218740147925e-5 0.0
0.00011170161060913047 -3.090728269284001e-5 0.0
0.0011460157849402278 -4.294285698858841e-6 0.0
0.0011106852415932755 -2.6645405758980552e-6 0.0
0.0011317286628229803 -9.973504023682449e-7 0.0
0.0008976074396695021 -0.00013138847622220124 0.0
0.0005003454047858578 -5.226589701015453e-5 0.0
0.0009581014957828543 -0.00010296675243188502 0.0
0.0009524076551570267 -0.00011549842632611693 0.0
0.0009660715371902925 -0.00010754649268327434 0.0
0.0009617426068792204 -0.00012168991353655873 0.0
0.0009757664817998475 -0.00011138404757085552 0.0
0.0009807519069299515 -9.835583829830496e-5 0.0
0.0009890404558968498 -0.00010295760428223967 0.0
0.0005409343387426575 -0.00012147646105677498 0.0
0.000530247595359429 -0.00012596109772168644 0.0
0.0005179320755750132 -0.00012098713765216626 0.0
0.0004337942507537553 -5.206614254082872e-5 0.0
4.1641587031560294e-5 -9.190965207767236e-6 0.0
5.852653104154334e-5 -1.3225762733390542e-5 0.0
4.317588990384491e-5 -9.770077207402016e-6 0.0
0.0004047265404106622 -0.0001031488630944277 0.0
0.00039263898927405016 -9.946746860890708e-5 0.0
0.001074281549501036 -6.290153639860392e-5 0.0
0.00010844523785678373 8.804308278006149e-7 0.0
0.0006092908051576651 -4.434203023665025e-5 0.0
0.0006127794734673671 -4.126990280454438e-5 0.0
0.0010342330345173424 2.6665552197951737e-6 0.0
0.0010789550956312227 2.719945135100919e-6 0.0
0.0009539678322484582 -6.745067493117589e-5 0.0
0.00022122781229244956 -6.198148600219694e-5 0.0
0.00022415876043054082 -6.582501861852484e-5 0.0
0.0008027572676143515 -6.464001300797121e-5 0.0
0.0009154731926465114 -5.555998847917547e-5 0.0
0.001106036143243798 -4.389077035484658e-5 0.0
0.0011315728072719667 -2.5677570947071507e-5 0.0
0.0011446816856529763 -1.2650334332310488e-5 0.0
0.0008791477109480247 -7.101581645546927e-5 0.0
0.0009190937814088241 -5.609078320205456e-5 0.0
0.0005219419168972965 -0.00010156787757381101 0.0
0.0009490676143447609 -1.3940378117534267e-5 0.0
0.0008855853775639514 -6.265654481639196e-5 0.0
0.0003882638844542679 -6.976243162996452e-5 0.0
0.0002283604925596822 -5.969080309127312e-5 0.0
0.0010637209686091681 -7.453101831882585e-6 0.0
0.0009135243111258142 -4.231909395080968e-5 0.0
0.00039231591888986005 -0.00010173553656970592 0.0
0.00020187367620768125 -3.8753850737154185e-5 0.0
0.0006365039360418962 -2.9178678027373485e-5 0.0
0.0008794775978889803 -0.00012274145535666163 0.0
0.0008781528392068356 -0.00013220183483324423 0.0
3.0194347320912146e-5 -6.958711471972651e-6 0.0
0.0007030268980151832 -0.00012325042867753573 0.0
0.000700591402547228 -0.000129385048495026 0.0
0.000458225112144262 -0.00011977732368853827 0.0
0.0004687206242524779 -0.0001158847609819214 0.0
0.0004681934836295224 -0.00010757510944575168 0.0
0.0004775249905644861 -0.00011307877578342606 0.0
0.0004686860928608779 -0.00012385455830930106 0.0
0.0004652581971852362 -5.453390470265239e-5 0.0
0.0004412623340528625 -5.3493507385853e-5 0.0
0.00019662091247727852 -3.3784582662498545e-5 0.0
0.0004601498857120448 0.00010616589949451404 0.0
0.00044344409909040177 8.200499521038898e-5 0.0
0.0007534412306672016 -3.4321765424454374e-5 0.0
0.0008613200053785613 -0.0001346015770514208 0.0
0.0008516528262710518 -0.0001379065321641403 0.0
0.00011319406627391119 -3.2851386480814204e-5 0.0
0.00010149517672751454 -2.8547747804169153e-5 0.0
0.0011400382972241003 -1.6971218482602402e-6 0.0
0.00021523173640039598 -4.4854225018717785e-5 0.0
0.000196544901107027 -4.132855726746515e-5 0.0
0.0010867038592239562 2.6043277231808437e-6 0.0
0.001058106041041568 -6.241833848100645e-5 0.0
0.0010476625571764603 -8.228652668799254e-5 0.0
0.0006501785138999201 -2.7558907811459526e-5 0.0
0.0007276617674412787 -0.00013038142783349267 0.0
0.0007161360923811019 -0.00013409105481284678 0.0
0.00036771726913520386 -5.506959566186385e-5 0.0
0.0003713791395391512 -5.364837894010135e-5 0.0
0.0004777455277488401 -0.00010554006672138602 0.0
0.0009608421680157595 -8.466495069756978e-5 0.0
0.0005849354259440659 -3.9701501975515216e-5 0.0
0.0005749961197823735 -4.0407950799635396e-5 0.0
3.450273916992526e-5 -8.570466775973853e-6 0.0
0.0004715835677194347 0.00019637222433766384 0.0
0.0005455055285026651 -4.4990901815637955e-5 0.0
0.00041583009187935694 -5.2315107765446e-5 0.0
0.00041645875709194835 -5.2287294565843976e-5 0.0
0.00025607242599121397 -4.0081488103605885e-5 0.0
0.0007158328121637874 -1.791715792058263e-5 0.0
0.000519833601113497 -4.741526469803916e-5 0.0
0.0005245500620277304 -4.756460894091058e-5 0.0
0.0005363162521715759 -4.563662804182602e-5 0.0
0.0005407362623326039 -4.5835557458913724e-5 0.0
0.0005519717794815324 -4.3745244882156974e-5 0.0
0.000556628723299755 -4.380865438765499e-5 0.0
0.0005452705247007456 -4.616333541201306e-5 0.0
0.0005614551557722071 -4.4286212636112205e-5 0.0
0.0005500800892398196 -4.6878109576468864e-5 0.0
0.0005666997438061872 -4.50659392154247e-5 0.0
0.000566579341557245 -4.165333011023717e-5 0.0
5.554916681325358e-5 -9.585126282872055e-6 0.0
0.0006932101065976991 -2.3284956773049347e-5 0.0
0.0005058160075855094 -5.061954567280028e-5 0.0
0.0005695759891746574 -2.5833697602952063e-5 0.0
0.0006119790575689632 -4.579636745415987e-5 0.0
0.000608404502207226 -5.557650402090569e-5 0.0
0.0006055081116440561 -2.339089018405802e-5 0.0
0.0005776639719922441 -5.4271714770553274e-5 0.0
0.0006082969274401474 -5.8842129720360406e-5 0.0
0.000640934699045358 -5.9468673742179845e-5 0.0
0.0006420560142622279 -3.9559269982173735e-5 0.0
9.246495272754046e-5 -1.9550722111855874e-5 0.0
9.403194684450477e-5 -2.0644041749125655e-5 0.0
0.0011429492785538862 1.1395887562656771e-6 0.0
0.0010929945536506602 4.710730399611018e-8 0.0
0.0010941497040604974 -1.2084061080973007e-6 0.0
0.0008327728010713939 -0.00013693076830392973 0.0
0.0008200331195195315 -0.00013891123080658242 0.0
0.0003265677452359367 -7.208049399332856e-5 0.0
0.00033908182124030436 -7.167658317453902e-5 0.0
0.00031381169389013507 -7.223550120454484e-5 0.0
0.00039156564122936965 -5.1099710375968715e-5 0.0
0.000640968189568209 -5.742196230094532e-5 0.0
0.0005781256639652624 -4.212044148610363e-5 0.0
0.0005827003827019388 -4.310053724766374e-5 0.0
0.0005720369659511294 -4.620183163923226e-5 0.0
0.0005875660803775495 -4.430948538772066e-5 0.0
0.0005780043562519113 -4.734977073856972e-5 0.0
0.0003311872834756403 -8.802563043927378e-5 0.0
0.001145326938206103 2.4337856452441856e-7 0.0
0.0006148797238502006 -9.379931055601006e-7 0.0
0.0007482819583058215 -4.2111689222873574e-5 0.0
0.000740846657408392 -2.954600484414704e-5 0.0
0.0007351955295751698 -3.524455913221426e-5 0.0
0.0004168854320304662 1.874736194806136e-5 0.0
0.0005920644502042126 6.447434437847813e-5 0.0
0.000545118022467226 6.895358001913589e-5 0.0
0.0005342658554194748 8.213326808842914e-5 0.0
0.0008525164155249697 -0.00010611337750296436 0.0
0.0009119180152563734 -0.00012578619290953537 0.0
0.0009071512165034065 -0.00013834833063439773 0.0
0.00031508418086040297 -8.89409064771186e-5 0.0
0.00048717611212082844 -0.00011062851446781733 0.0
0.00048695272654457615 -0.00011844404076424108 0.0
0.0004963404532621376 -0.00011562963438788752 0.0
0.0004967876038826216 -0.0001242066798074069 0.0
0.0008109925461274074 -2.4842450626587278e-5 0.0
0.00079212257091294 -1.9483483065975235e-5 0.0
0.0008123452472887339 -1.609797643242335e-5 0.0
0.0008334613734657675 -1.9789957561233044e-5 0.0
0.0006285162530599541 -3.87676080823564e-5 0.0
0.0006184786716489547 -3.832805753225594e-5 0.0
0.0005058749988948372 -0.00011984915447234397 0.0
0.0003960021335440147 -5.122851596933281e-5 0.0
2.5749141689885966e-5 -5.7525726068578755e-6 0.0
0.000568699716417544 -5.836500116575211e-5 0.0
0.0005885623161583242 -5.7173605280839437e-5 0.0
0.0005826935154838916 -5.502676558820865e-5 0.0
0.0006059022447920414 -5.392141390826089e-5 0.0
0.0005987513248073863 -5.1596070594643675e-5 0.0
0.0006121100357510525 -5.6212379472893615e-5 0.0
0.0005796624997113756 -5.2753788850048707e-5 0.0
0.0005926989274588043 -4.949531890895027e-5 0.0
0.000626626065569861 -5.21284123158806e-5 0.0
0.0007755068345521026 -2.318187123079261e-5 0.0
0.0005752267998061839 -5.087146423739296e-5 0.0
0.0011593008798804869 1.197508574501933e-6 0.0
0.0004853653720299585 -5.028180329276741e-5 0.0
0.0005391309858940818 -9.380914061415556e-5 0.0
0.0005520239836799448 -9.159873802561496e-5 0.0
0.0005958518563505217 -5.8734571011470106e-5 0.0
0.0006218109575352092 -5.7896886901001184e-5 0.0
0.0006553003317029859 -4.018724944031137e-5 0.0
0.0008113496870172258 -0.00011775194309652015 0.0
0.0007999198336600737 -0.00012210978540333869 0.0
0.0007997301522921817 -0.0001299134647151575 0.0
0.0007893399725609907 -0.00012608356897182908 0.0
0.0007896564021362375 -0.00013302945579583738 0.0
0.0007788241424969564 -0.00012973676396035828 0.0
0.0009175452126998896 2.711935655237331e-6 0.0
0.0008972171749445578 1.4620297863205867e-6 0.0
0.0009064441021145748 4.645470247729777e-7 0.0
0.0008780647327896513 -6.056766300566901e-7 0.0
0.0008859370408551883 -2.1574732575551547e-6 0.0
0.0008588578194662014 -3.4737864499329665e-6 0.0
0.000866746275931702 -5.367763437231775e-6 0.0
0.0008512737274425917 -2.0016786804137993e-6 0.0
0.000833577016008661 -4.975226123252656e-6 0.0
0.0008931052719979675 -4.114939162259583e-6 0.0
0.0008263662813476244 -3.644814710457442e-6 0.0
0.0008733375165373631 -7.776424937697797e-6 0.0
0.0008492340864799464 -9.153522607652708e-6 0.0
0.0008543769405150765 -1.2143905651268057e-5 0.0
0.0008438388005166324 -1.1009218761700362e-6 0.0
0.000887224861039356 1.8861531129913593e-6 0.0
0.0008998212551515814 -6.705457240563265e-6 0.0
0.0009388320916145091 9.853065172168577e-7 0.0
0.0009186034845697748 -3.1241582464143584e-6 0.0
0.0006950311445504344 -3.2132676546337036e-5 0.0
0.000554943100224649 5.5862887060247476e-5 0.0
7.831056542784852e-5 -1.756807189798872e-5 0.0
6.673356481583181e-5 -1.7557847654554476e-5 0.0
7.916218618774453e-5 -2.1819521150452504e-5 0.0
0.0005063695673824091 -0.00011263256744445328 0.0
0.0006699132080637768 -4.181526397220547e-5 0.0
0.0006857894803166012 -2.4060921846386027e-5 0.0
0.0006685897610666311 -2.7717372630717826e-5 0.0
0.0006761404589166745 -2.7775377027283926e-5 0.0
0.0006639992386431854 -2.6984425942208463e-5 0.0
0.0006746272867467728 -2.3871336169312557e-5 0.0
0.0006582876543910477 -2.6816824211299588e-5 0.0
0.0006527843178342702 -2.6974628258785798e-5 0.0
0.000643975167198571 -2.9395894203361848e-5 0.0
8.837301357367624e-5 -2.3044312013701458e-5 0.0
0.000743858839923606 -1.1007800550885699e-5 0.0
0.0008538195399989287 -4.065938339094919e-6 0.0
0.0008248917578059136 -5.817976402977861e-6 0.0
5.7033179719845947e-5 6.016942315867698e-7 0.0
0.000125665607726696 7.283920760466936e-6 0.0
0.00011142266316790331 5.0049342827476664e-6 0.0
0.0007435863218248524 -1.0567127675731945e-5 0.0
0.00011392188140555447 -2.952955491798185e-5 0.0
0.00013006366828326922 -3.4701343097573625e-5 0.0
0.00014105650681418778 -3.716102087673035e-5 0.0
0.0001411497268102843 -3.559643017915151e-5 0.0
0.0001528957025113941 -3.7392487804099737e-5 0.0
0.000546396193706525 -5.190558117175952e-5 0.0
6.527796817951371e-5 -6.581047817635901e-6 0.0
0.0002667798974103032 -4.401747097319052e-5 0.0
0.00022123305245324204 -3.961236579436938e-5 0.0
0.0006286124540124099 -5.920546486649104e-5 0.0
0.0002452582226467042 8.549130849402472e-5 0.0
0.000783439614869401 -0.00011537034143483799 0.0
0.0007242287024851139 -1.5691777034504434e-5 0.0
0.0010842913215983539 -6.321140519742474e-5 0.0
0.0008419134459553261 -6.735358413008365e-6 0.0
0.00081748863991956 -8.35888245908535e-6 0.0
0.0008099798250738231 -0.0001344641880792999 0.0
0.0011629258197796062 1.0321912778825826e-6 0.0
0.0011287033651180027 1.770251826640252e-6 0.0
0.0011359269318969689 1.1702632317528801e-6 0.0
0.0011228688119798444 2.173156936882441e-6 0.0
0.0010978100531537347 1.8242600666129889e-6 0.0
0.0011187822084835586 2.3046201654792992e-6 0.0
0.0010806366306966282 3.1105665876788892e-6 0.0
0.0010882220599924203 2.6691760995300576e-6 0.0
1.845972948873932e-5 -3.875381905940896e-6 0.0
0.0011766182007287942 -8.420312596883582e-7 0.0
0.0011523842749957475 -1.958363911433433e-6 0.0
0.0011673050483969676 -1.9455573881849838e-7 0.0
0.0011539435443887439 -2.4975410289930957e-6 0.0
0.0007377843720393898 -2.201092394535564e-5 0.0
0.0008429407949089049 -0.00013281448052117396 0.0
1.4425281743202514e-5 -3.2011968172300352e-6 0.0
0.0011807616549897064 -9.251345189644927e-7 0.0
0.00046348514863064146 -5.286130978683139e-6 0.0
0.0008949556595008531 1.010545652752383e-6 0.0
0.0003861791703599198 -4.4784677921338556e-5 0.0
0.00041821143507167594 -4.637693434388292e-5 0.0
0.00041805934677234383 -3.989370055419417e-5 0.0
0.0004168121968355065 -4.957894097166317e-5 0.0
0.00044412950316274213 -5.128064399635447e-5 0.0
0.0004531152985822341 -4.8956972139372796e-5 0.0
0.0004515590307126802 -4.196454558918007e-5 0.0
0.0004192444529695564 -3.07881642300758e-5 0.0
0.00039040111674484656 -1.6443849963525525e-5 0.0
0.0003888137320988098 -4.8690356006257185e-5 0.0
0.0009401497984404867 -0.00012272063465610132 0.0
0.0011593831379362717 1.1723854388641505e-6 0.0
0.0004791082584317748 -9.91637915226924e-5 0.0
0.0001721095724381193 -5.1642916105973014e-5 0.0
0.0005196574406249585 -9.559533155084858e-5 0.0
0.0004229909324064989 -0.0001030650028783423 0.0
0.0004233367058975391 -0.00010651864281990755 0.0
0.0005984100537245717 -4.092472928367595e-5 0.0
0.0007381497318767981 -1.2484855165172987e-5 0.0
0.0009973000174418485 -1.1882035801700115e-5 0.0
0.0010050592345559007 -6.886730542383885e-6 0.0
0.0009653652446463738 -8.455044766736817e-6 0.0
9.341234187315871e-5 -1.9133968490633815e-5 0.0
0.00016090010989274476 -4.867813713569203e-5 0.0
0.0005569086144564911 0.00013999956317155938 0.0
0.0004907588693122729 0.00014096768842592874 0.0
0.000904926200449706 -4.991674034255391e-5 0.0
0.000546107221811958 3.20698151237008e-5 0.0
0.001027109234095498 -5.8131064592873445e-5 0.0
0.0005188816486587401 -7.749796987910206e-5 0.0
0.0008819147858314719 -8.843763716188355e-5 0.0
0.0008949628973587454 -7.266587002072077e-5 0.0
0.00042762584193693044 -1.1950978555845085e-5 0.0
0.0003050628408838163 -8.922537941833292e-5 0.0
0.0010154279955984823 -7.69804492858305e-5 0.0
0.0001903305467406567 -5.4562404203827395e-5 0.0
0.00020055143799886698 -5.8496925488795054e-5 0.0
0.00019411028808630337 -5.842937102701868e-5 0.0
0.0003167593772256784 -4.765860637619005e-5 0.0
0.0006617712592368479 -2.480768827250163e-5 0.0
0.0007265793387285161 -1.3632589849492875e-5 0.0
0.0004967157616850437 -5.130187810435758e-5 0.0
0.0005114941390601327 -4.9475851611834725e-5 0.0
0.0011445455112957625 -1.546802587079074e-7 0.0
0.0010859390575680206 -4.629981660314701e-6 0.0
7.246798482299493e-5 2.640663251935701e-6 0.0
1.8235921910614978e-5 -3.9401268728689625e-6 0.0
0.0005719975811735067 -4.175205599219332e-5 0.0
2.3956874185153616e-5 -4.857103338880419e-6 0.0
5.578272893156764e-5 -1.1085183114605367e-5 0.0
0.0005149612001066733 -9.103024350381938e-5 0.0
0.0008379526801649516 -0.00010857215558306155 0.0
0.0006046518398843734 5.095236683041979e-5 0.0
0.0006977001330713456 -3.9943562512794184e-5 0.0
0.0005954396934856204 -4.503574173682874e-5 0.0
0.0008901347449118723 -4.181163801208908e-5 0.0
0.0010717348182694405 -4.4164646233815307e-5 0.0
0.0003740564776362791 -7.015675663845286e-5 0.0
0.00037396603332698943 -7.389359787072707e-5 0.0
0.00036067575512713955 -7.015283216928555e-5 0.0
0.0003467785103400162 -6.662675471125834e-5 0.0
1.4693539669420071e-5 -3.2445628647974796e-6 0.0
2.6477553718261513e-5 -5.957159175510321e-6 0.0
2.989481053017264e-5 -6.768815621430456e-6 0.0
0.0003326031340700846 -5.415353660448284e-5 0.0
0.00031467447243453304 -5.365926120262998e-5 0.0
0.0011778594800949435 -9.669867746766712e-7 0.0
0.0006176163566423663 -0.00012663520776502813 0.0
0.0006032164159786386 -0.00012135557576461478 0.0
0.0006028191359260195 -0.0001300080430761219 0.0
0.0005892570359266879 -0.00012463799043872163 0.0
0.0005762074296915871 -0.0001280390102481882 0.0
0.0005758456569911291 -0.00011950466329172803 0.0
0.000603288621253021 -0.00011360993091935669 0.0
0.0008734141039612565 -8.506139444481956e-5 0.0
0.00016799013630506367 -2.945158049984737e-5 0.0
0.0001928394970103667 -3.3818259066810546e-5 0.0
0.00016929861750460983 -3.0674975176148936e-5 0.0
0.0007133366694363508 -3.718202374689255e-5 0.0
0.00036185840298822987 0.00010396685480953702 0.0
0.0005883636989720832 -4.3635966956504116e-5 0.0
2.4699496237274927e-5 -4.9802175308924695e-6 0.0
0.00038110157509364866 -9.856005719078503e-5 0.0
0.000368693394362488 -9.754155325491646e-5 0.0
0.0003719097735757779 -9.546570324393533e-5 0.0
0.0004227710814274843 -9.834869959926911e-5 0.0
0.00037614727725253946 -6.637496428525117e-5 0.0
0.00018098537198937188 -3.609443318118609e-5 0.0
0.00010972555438557587 -2.4712390234662326e-5 0.0
0.0011687640476377118 5.3203428811461e-7 0.0
0.001143457757990202 5.21658714739682e-7 0.0
0.0002444702621092923 -7.087470145683116e-5 0.0
0.000292068103523518 -8.105391564767874e-5 0.0
0.0002808208436904901 -8.070473312517075e-5 0.0
0.0002681240559718678 -7.615184972980176e-5 0.0
0.00026918168530927754 -8.005075341773018e-5 0.0
0.0008064742364081852 -0.00010308373907213562 0.0
0.0006352388256347713 2.2271572774713158e-5 0.0
0.0007383955011191197 -0.00012754043997914208 0.0
0.0007480632052027837 -0.00013212559801172708 0.0
0.0007585842349344002 -0.00012930992988219534 0.0
0.0007364100126893791 -0.00013580376959726036 0.0
0.00040265822729505536 -7.000360062559941e-5 0.0
0.0006511238645093644 -8.77714432723608e-5 0.0
0.0005801940916687595 4.388792836721961e-5 0.0
0.0005570206304646938 -5.539901388432692e-5 0.0
0.0011814159370907992 -9.8220534269254e-7 0.0
0.0011641126402020504 -3.5383546353597977e-6 0.0
0.0011575337041521215 -3.21830257259523e-6 0.0
0.0002569374374355899 -7.54897925477772e-5 0.0
0.00024632869062106807 -7.465836242030312e-5 0.0
0.00041162257018133286 -5.172371625315022e-5 0.0
0.00033257169552813675 -6.710268253490203e-5 0.0
0.0010709317600305019 -1.9217213759415048e-5 0.0
0.0009384617763369325 -3.587653262836809e-5 0.0
0.0005608755447493743 -4.189177140918788e-5 0.0
0.0005751626883986955 -3.972427844351488e-5 0.0
0.0007752540935931391 -7.315945367856704e-5 0.0
0.0008249032317663051 -0.000104512639812296 0.0
0.0005065669016440998 -7.950073781674172e-5 0.0
0.0005058879676069183 -8.42287305114386e-5 0.0
0.00015258908909782708 6.323348331902766e-6 0.0
0.00030430449609351277 -6.720068587926134e-5 0.0
0.00029026632953416104 -6.653961808359366e-5 0.0
0.0002762702028833172 -6.258100081868652e-5 0.0
0.00027655152190454876 -6.608976711902576e-5 0.0
0.0002578991476796517 -3.891793027389992e-5 0.0
0.0002594673145403014 -3.672737041499861e-5 0.0
0.0002857855216346265 -4.357389058745316e-5 0.0
0.0007466206951305245 -0.00013981265378588612 0.0
0.0007160686089586854 -9.557163816751313e-5 0.0
0.0007036051859095805 -9.847766289037391e-5 0.0
0.000716552666160386 -0.0001042291447705077 0.0
0.0007042512504995791 -0.0001069496483182597 0.0
0.000713280990264172 -0.00011113602909568993 0.0
0.0007279530187176435 -9.991345562664471e-5 0.0
0.0007393925246003961 -0.00010369087923069528 0.0
1.2113851439125766e-5 -2.582118454698896e-6 0.0
0.0011841498935756915 -1.6882176262968029e-6 0.0
0.0009177417781046245 -0.00011391432278000142 0.0
0.0006818256545965085 -0.0001277532758021371 0.0
0.0010900977637214797 -3.747965124743111e-6 0.0
0.0006593196552484601 -0.0001179593949841117 0.0
0.0006583702622485729 -0.00012561303511602164 0.0
0.0008312956602709458 -5.385292554367402e-5 0.0
0.0007545941538318465 -2.798640838798059e-5 0.0
0.0007422917888724021 -2.699563644643069e-5 0.0
0.0003894443629982845 -9.140790076484418e-5 0.0
0.00023642506423547172 -5.713738659549163e-5 0.0
0.000830130003995315 -1.3914963984796832e-5 0.0
0.0008799281360046805 -0.00011191644992266655 0.0
0.00043699814436346434 -5.930994799800933e-5 0.0
0.0004501622597849868 -5.84308630801778e-5 0.0
0.0004475689099626993 -6.079894299101925e-5 0.0
0.0004532047384279096 -5.640165683471746e-5 0.0
0.0004346348499261478 -6.172409717521837e-5 0.0
0.000462492228264045 -5.7633077057749506e-5 0.0
0.0004662628101259217 -5.56844854702694e-5 0.0
0.0004721779310332349 -5.374384833499041e-5 0.0
0.0008801053024587538 -4.8022531682377e-5 0.0
0.00013682231623211432 9.880379249368616e-6 0.0
0.0008097784302514014 -6.752397846322917e-6 0.0
0.0008712755066999093 -4.1612254014016825e-5 0.0
0.0002777774674319492 7.791233805152522e-5 0.0
0.00019995157471468708 -2.8859092536043094e-5 0.0
0.0002886646655869446 -4.140531888923006e-5 0.0
0.00020919529304049925 -5.179262693878148e-5 0.0
0.00044119627410336314 -5.5485977931413686e-5 0.0
0.00035509348037016683 -5.1928007973886574e-5 0.0
0.0003786535640133323 -5.267379854573949e-5 0.0
0.00039082138332039145 -5.417411632688783e-5 0.0
0.0005518959573720057 -0.00011829342542307586 0.0
0.0005635286655838623 -0.00012275832893764288 0.0
0.0005627491548310701 -0.00013298976885825253 0.0
0.0005764696436482951 -0.00011223716428233291 0.0
0.000866159036452351 -0.00011563521921774727 0.0
0.0004704363523331366 -5.12331544012756e-5 0.0
0.0008084214298431745 -3.9293751922788646e-5 0.0
0.00042272450112631316 -9.305135712660901e-5 0.0
0.000603542237883556 -0.00010674510000072308 0.0
0.00043998275295839036 -0.0001115966774970697 0.0
0.001051140090314587 3.371731808832034e-6 0.0
0.000574550370451165 -4.605459683297066e-5 0.0
0.0001634693184451482 -3.247309612750735e-5 0.0
0.0004521828339080809 -7.554030329664133e-5 0.0
0.0004622377085998152 -7.816266048043635e-5 0.0
0.0004310827218922757 -7.049945604563643e-5 0.0
0.0004496821069292717 -9.912315421501853e-5 0.0
0.0006717829926411373 -6.137421475930859e-5 0.0
0.0006567137710261538 -6.390301907291808e-5 0.0
0.0006701846810981751 -6.698792213219057e-5 0.0
0.0008031380616442889 -5.567247138353754e-6 0.0
0.0005200116388839638 -7.310665158303187e-5 0.0
0.00040670435294408073 -6.565003280744174e-5 0.0
0.0006671673263788874 -2.4801194309190583e-5 0.0
0.0006617082109475063 -2.668586924684779e-5 0.0
0.00016836134893441417 -4.163290819833264e-5 0.0
0.00033032695292617735 -8.457489949342051e-5 0.0
0.0007598499942967237 -0.00012153975221411144 0.0
0.0006911875827160019 -2.4383238956905092e-5 0.0
0.0005939441569240017 -7.911759244708677e-5 0.0
0.0005797323275146843 -8.148214413435533e-5 0.0
0.0005786716337723884 -8.720932581892696e-5 0.0
0.0005660106207646862 -8.380544516342961e-5 0.0
0.0005652482592060156 -8.957726417701825e-5 0.0
0.0005916454280335707 -9.062947952478747e-5 0.0
0.0007317983795971655 -1.4607242115448195e-5 0.0
0.0004891850475606448 -6.440416528407462e-5 0.0
0.00047743768509226855 -6.608895884481024e-5 0.0
0.0006445836954585235 -5.624282940967351e-5 0.0
0.0004183884781027998 -7.109984009171991e-5 0.0
0.0006457364187178851 -0.00012858821570735447 0.0
0.0004954878900638063 -7.706792311602475e-5 0.0
0.0005672808374640545 -7.846206620217061e-5 0.0
0.0007992837876388399 -0.0001371159207990612 0.0
0.0005357524570992418 -5.041651508893673e-5 0.0
0.0010928766195555854 -5.494245037054141e-6 0.0
0.0005720272124270751 -6.432057436909057e-5 0.0
0.00029170403665820246 -5.441154041492069e-5 0.0
0.0006586949695621009 -9.92820685739365e-6 0.0
0.0007867783628427817 -0.00010715551513483596 0.0
0.0010452202318556986 -4.913602530096148e-6 0.0
0.00020542469677023976 -1.7891851024459462e-5 0.0
0.0002119826109575301 -1.0375740617285037e-5 0.0
0.00023694595874525356 -2.4997404042661732e-5 0.0
0.0002493267146991192 -1.7594872147459207e-5 0.0
0.000273965398617987 -2.6434738016870664e-5 0.0
0.0007944223346270261 -1.0239220136109609e-5 0.0
0.00047794517671720653 -0.0001224794931372328 0.0
0.0005494719930167344 -4.826417650406145e-5 0.0
4.612895632100442e-5 -9.203590489072377e-6 0.0
0.0005712128275319681 9.392152225817462e-5 0.0
0.0005158815528517617 9.725088068412612e-5 0.0
0.0007781087249582241 -1.5424473600506848e-5 0.0
0.0004697298586739048 -9.541774400510618e-5 0.0
0.0005211472107139964 -0.00011374725110026381 0.0
0.0005001684930100392 -4.9084160867028126e-5 0.0
0.0006306833375139794 -5.413894393548924e-5 0.0
0.0006159470455661166 -5.216565781717149e-5 0.0
0.000619765193319381 -4.8115058263683174e-5 0.0
0.0007289185070747008 -2.8704495432390617e-5 0.0
0.0004520945199931975 -7.964374806029564e-5 0.0
0.00033783389926374155 -5.022326024109232e-5 0.0
0.0004683311178484938 -6.149683260586923e-5 0.0
7.484735222186429e-5 -1.7374473372116103e-5 0.0
0.000628024057127675 -3.034034791559847e-5 0.0
0.00026647386004728283 -7.241794658419634e-5 0.0
0.0006032100929388477 -5.538017971717367e-5 0.0
0.00039099298039771364 -9.597433403603551e-5 0.0
0.0007821916523263611 -2.9366288907197756e-5 0.0
0.0005520252933635183 -5.738508263724749e-5 0.0
0.000552910066150995 -8.601198990904896e-5 0.0
0.0009952228128759723 -4.024169579035672e-5 0.0
0.0002350048617521193 -7.006361930125014e-5 0.0
0.0010951919335944746 -6.520184067150107e-5 0.0
0.00048729696454190356 -5.3234783779968376e-5 0.0
0.0005474422327982501 -6.475923856469085e-5 0.0
0.00012565571243582403 -2.4899932588976218e-5 0.0
0.00099353223783492 -1.5428487191553886e-5 0.0
0.0006348316889086734 -9.590770746146716e-5 0.0
4.630511348794473e-5 -9.230750982150172e-6 0.0
0.000599759205381298 -3.719239800554419e-5 0.0
0.0005966909394870377 -3.885417918167271e-5 0.0
0.0010815790753369442 8.74162008398277e-7 0.0
0.000632919954342611 -0.00013202371849015647 0.0
0.00022368003341637205 -5.6050270612945694e-5 0.0
0.0011310390055963146 -8.531450985781246e-6 0.0
0.0006064170579343953 -4.7180834123647234e-5 0.0
0.000565578448774518 -5.518089687610394e-5 0.0
0.0006928504803293143 -8.743155409226524e-5 0.0
0.0006799595713440723 -8.326313114822362e-5 0.0
0.0006378414156850214 -8.376293186852588e-5 0.0
0.0005463921026413957 -5.071219001976583e-5 0.0
0.0006623900461367883 -0.00013863101411257803 0.0
0.0007086371739272928 -0.0001414726100765524 0.0
0.0005024725944473158 -0.00013316984196665464 0.0
0.0005361000174375043 -0.00013484484271418312 0.0
0.0007737573510772804 -0.00014287729523012368 0.0
0.000768512061264551 -0.0001346812358972959 0.0
0.0004249597770154845 -0.00011093638944087021 0.0
0.0003397347306967466 -9.581377093320508e-5 0.0
0.0006866940590568417 -0.00014009389735187482 0.0
0.0004469446652177799 -0.00012187736073790919 0.0
0.0005147389747045134 -4.876015242722121e-5 0.0
0.0009635072236037335 -2.3099992099711524e-6 0.0
0.0007851921832791037 -6.953168075115629e-5 0.0
0.0007815546634250986 -7.779231426264849e-5 0.0
0.00044546006503092884 -6.360060187658819e-5 0.0
0.000690306358198256 -4.8379528050327706e-5 0.0
0.0005532267163091328 -9.734351932867425e-5 0.0
0.0003134015312330514 -7.826582068442097e-5 0.0
0.0002455034165718325 -4.9494867842179756e-5 0.0
0.0005037015636829571 -5.954408717358708e-5 0.0
0.000990452272224762 2.0244421797934715e-6 0.0
0.000483216243849309 -4.993166988082799e-5 0.0
0.0005634664498744312 -4.600072574897381e-5 0.0
0.0006429890473637804 -6.137666985821034e-5 0.0
8.968738196293719e-5 -2.448072467378008e-5 0.0
9.120162911219915e-5 -2.6294731134173857e-5 0.0
0.000492899510421322 -8.622751199668257e-5 0.0
0.0004327231350328178 -8.229877954520648e-5 0.0
0.0005845317816452457 -6.63456861689341e-5 0.0
0.0010886227905815284 -2.75940026282656e-6 0.0
0.0006179968145458553 -0.00011094213363835176 0.0
0.0011584657948728457 -1.0511201113176864e-5 0.0
0.0011411818514940283 -2.6235299164745516e-5 0.0
0.0003735242258427198 -5.02532436445519e-5 0.0
0.0005126627261853425 -6.37392197468449e-5 0.0
0.0005311990872621086 -7.539866185420255e-5 0.0
0.0011135941277263387 1.9884093424152686e-6 0.0
0.0006703616989869134 -5.88188384665365e-5 0.0
0.0007514219746100185 -0.00010106486065472484 0.0
0.0007677377242333773 -8.165068363314614e-5 0.0
0.0003346682982914317 -9.180540760220513e-5 0.0
0.0007111691519642678 -6.450004873153382e-5 0.0
0.0005167364832487379 -5.7570826254181325e-5 0.0
0.000739633224024069 -5.75462508999206e-5 0.0
0.0007368820320938805 -6.426151580115434e-5 0.0
0.0007543420948623058 -5.3674642663973756e-5 0.0
0.0002804944485549118 -8.461438998147261e-5 0.0
0.0008748162424508977 1.583677224256474e-6 0.0
0.0006696578542976515 -0.00013137519628760375 0.0
0.0009191456259354199 -0.00013201950239452234 0.0
0.0008240604939801456 -4.168153503959593e-5 0.0
0.0005798613851421765 -3.895561174411181e-5 0.0
0.0007056253170977891 -0.00011538765973952709 0.0
0.0004617941291687306 -8.242195621000694e-5 0.0
0.0004950500212521585 -5.412489352645766e-5 0.0
0.0010629827566195525 2.456064125318382e-6 0.0
0.0002871358006294818 -4.646383354557537e-5 0.0
0.0007997118647927552 -1.2260940407354244e-5 0.0
0.000593329579736738 -3.8083039464891615e-5 0.0
0.000702832325944281 -5.024004111201675e-5 0.0
0.0010066626881051555 -3.5263825081730343e-6 0.0
0.00011140552468198908 -2.314630688632363e-5 0.0
0.0008041001856953351 -8.601060976347985e-5 0.0
0.0006867101971806358 -3.1370969356970425e-5 0.0
0.0006772731059024504 -3.156172886491879e-5 0.0
0.0006833808222295583 -0.00010605654327263794 0.0
0.000626214728745669 -6.907257460048849e-5 0.0
0.0006480390533056031 -9.996817851319118e-5 0.0
0.0008238348514138685 -0.00011383483591754679 0.0
0.0008226170997371813 -1.3324421071579629e-6 0.0
0.0006671268155559555 -5.6582308444619294e-5 0.0
0.000804474914395992 -6.387325462060997e-5 0.0
0.0009682138841023052 -6.886997880391113e-5 0.0
0.0009746872173952342 -5.402392421847979e-5 0.0
0.0006153906665001716 -4.2365562654860696e-5 0.0
0.0004004722309640682 -8.073204573542405e-5 0.0
0.0008325961212209967 -9.494648374873921e-5 0.0
0.0006519521323512354 -5.3020456948807105e-5 0.0
0.0007088709451851867 -7.089064930937087e-5 0.0
0.0011322988921820063 -1.3892106127282223e-5 0.0
0.0002108463022555263 -5.7456541202635184e-5 0.0
0.0006959939675167182 -2.509201894790086e-5 0.0
0.0006336018472719839 -4.755828440928412e-5 0.0
0.0006201425266413033 -4.3816216958175155e-5 0.0
0.0002364799929515931 -3.146795388343396e-5 0.0
0.00103177964486308 -1.1641707452553959e-5 0.0
0.0006227658834088078 -3.1735585828542286e-5 0.0
0.0010116673359855815 -4.11067510105202e-5 0.0
0.00038758619744359125 -7.720396423011083e-5 0.0
0.0008604262044857718 -0.00014322056298895838 0.0
0.000879950265895987 -0.0001450850693848868 0.0
0.0003515279263031086 -7.949276460710944e-5 0.0
0.0007314543393403621 -7.791966278948804e-5 0.0
0.0004921756904036663 -0.00013249926830436623 0.0
0.0007203127019434127 -1.5503741027745253e-5 0.0
0.00022487582830549912 -7.061132097751684e-5 0.0
0.0006559480867119522 -3.468356466180894e-5 0.0
0.0006349976119774271 -3.01418734776889e-5 0.0
0.0006542445511305888 -3.048457320288361e-5 0.0
0.0006556325030578567 -6.964193082620349e-5 0.0
0.0007792852853522251 -8.595113784473896e-5 0.0
3.100463003018991e-5 -8.399814430141124e-6 0.0
5.357126985360601e-5 -1.5565907330924556e-5 0.0
6.440818560966891e-5 -1.9091917545644045e-5 0.0
0.001049326358191001 -9.7595766619808e-5 0.0
8.65631926137477e-5 -2.6394468145030687e-5 0.0
0.0003619261503248927 -7.421974946442394e-5 0.0
0.00017921221295017875 -4.620849241453713e-6 0.0
0.0009318328950602105 -0.0001415324130158399 0.0
0.00019218527410220438 -5.9612047502106785e-5 0.0
0.00021420884147054965 -6.726367628655633e-5 0.0
0.0010360634906464053 -0.00010369740104472787 0.0
0.0010100208452029813 -0.00011619912621135246 0.0
0.0006227853556385628 -3.592141159610794e-5 0.0
0.00045867044448940015 -0.00010327252804503189 0.0
0.0008182027305881233 -2.7434421796989242e-6 0.0
0.0009536306402046962 -0.00013512916542393177 0.0
0.0009640739902723163 -0.0001320001752441029 0.0
0.0001703142772983128 -5.239601817209873e-5 0.0
0.0001193791046727857 -3.651758292307192e-5 0.0
0.0009871361310566248 -0.0001236805502914276 0.0
0.000996530665275352 -0.00010732106672443914 0.0
0.0006921645636708993 -0.00013317103645758602 0.0
0.00014137762453487692 -4.341102245005905e-5 0.0
0.0008279234889133976 -0.00014383918881041174 0.0
0.00023927107758297888 -6.060897329422198e-5 0.0
0.0009172186639933256 -8.502699366479267e-5 0.0
0.0003546811312706224 -9.50049359557845e-5 0.0
0.0008576191892448324 -0.00011013460470331502 0.0
0.000869585411283725 3.7498632577425625e-7 0.0
0.00036356097082482545 -5.858190218997214e-5 0.0
0.00024709315054629086 -5.208519016788613e-5 0.0
0.00044201486451703897 -8.549498639342421e-5 0.0
0.0005586978914163824 -6.665713573943946e-5 0.0
0.0009220147146815354 -1.8503126788699574e-5 0.0
0.0005889989890748051 -0.00011640587360374564 0.0
0.0006325079515837049 -2.9679287257205807e-5 0.0
0.0006688670448121226 -3.606528700119114e-5 0.0
0.0007454314475603388 -4.478601346806958e-5 0.0
0.0008542675568625996 -8.509785299551412e-5 0.0
0.00038438463088838785 -2.9908309488177452e-5 0.0
0.0007621853083723745 -3.16007842624782e-5 0.0
0.0003943983953145479 -5.8584969167135265e-5 0.0
0.0009306598426620973 -5.990463750481198e-5 0.0
0.000274985703336594 6.278834152898387e-6 0.0
0.00023256944829378592 -1.6766052028339448e-6 0.0
0.0005600400800581467 -4.91356770504608e-5 0.0
0.00097834358473763 -6.4167690677697326e-6 0.0
0.0006805248978794001 -5.6572856743618994e-5 0.0
0.0006111341498831987 -3.332995043590928e-5 0.0
0.001054795402518979 -1.135380156395677e-5 0.0
0.0003336622204959227 -5.817889460454399e-5 0.0
0.00041901015818493324 -5.224760430675075e-5 0.0
0.0007943080038477677 -4.602995726674989e-5 0.0
0.0008792205728946282 -8.343298791213611e-5 0.0
0.00028967670423951544 -5.691216721937589e-5 0.0
0.00017275773039814016 -4.456342716907801e-5 0.0
0.0008433770951611422 -8.056716237953068e-5 0.0
0.000437555963997186 -5.240786069677328e-5 0.0
0.0008354778842621292 -2.0392109273816785e-5 0.0
0.001164945941849459 -4.749352247715632e-6 0.0
0.000913230745545343 -1.1692718437162369e-6 0.0
0.000700767293987439 -3.8979879265336816e-5 0.0
0.0007055766428288627 -3.242332994300285e-5 0.0
0.0007033388077660828 -3.201172591484715e-5 0.0
0.00102053956732039 3.610366829642051e-6 0.0
0.0009988655274368796 3.2435105569306225e-6 0.0
5.944784780190992e-5 -1.4152111590769509e-5 0.0
4.583772925363727e-5 -1.0631252125546029e-5 0.0
0.000468837358777251 -0.00010125044352890498 0.0
0.0007226033699977087 -6.76534725323712e-5 0.0
0.0004652039972193223 -5.161336138882197e-5 0.0
0.0004679504670878091 -5.129187602693544e-5 0.0
0.00048548476124417973 -5.434052478588102e-5 0.0
0.0005781433625294391 -9.315970447757658e-5 0.0
0.0006803470492306156 -2.830049633661259e-5 0.0
0.0002222964444415187 -3.7342828213105535e-5 0.0
0.0007789920206205535 -1.4140709965443847e-5 0.0
0.0007223210435175854 -4.1982433975584905e-5 0.0
0.0005016958621193516 -6.251018087084368e-5 0.0
2.5928551668842996e-5 -5.042634350800293e-6 0.0
0.0005606251401478686 -6.251761805176341e-5 0.0
0.0010477308014304415 -1.5419510632325163e-5 0.0
0.0008664309863541241 -2.224559820207875e-5 0.0
0.0008257967878759688 -1.0540320569768499e-5 0.0
0.000990823969214011 -2.08247779790472e-5 0.0
0.000728826984362072 -1.8734290354479565e-5 0.0
0.0004897818296292469 -5.5523525998165485e-5 0.0
0.00016280426018752087 -3.140546113312445e-5 0.0
0.0005406253564780813 -4.444758671335884e-5 0.0
0.0006336876612217803 -3.599887378023451e-5 0.0
0.0001922119214363361 -4.255513057303137e-5 0.0
0.0005247181276964277 -0.00013447498272038192 0.0
0.0007103574612813727 -2.0200676267844038e-5 0.0
0.0003751924032660995 -7.790338953758669e-5 0.0
0.0008534117757584971 -9.221320398496873e-5 0.0
0.0009395413180127178 -1.9384766219207317e-5 0.0
0.0004383316380038152 -5.28039449336374e-5 0.0
0.0008571981500617913 -4.467321945876094e-5 0.0
0.0006568361214156871 -2.88156964411843e-5 0.0
0.000562799985242954 -5.8692360023257124e-5 0.0
0.00024683962663851766 -4.0363930975468164e-5 0.0
0.00043278796184230097 -5.282086958723747e-5 0.0
0.0006373573848903944 -2.0320240500067695e-5 0.0
0.00018665418954761997 3.2922248784702187e-6 0.0
0.0008200900884062992 -5.0731060973084626e-5 0.0
0.00026076161941003886 -4.673301350669361e-5 0.0
0.0005766371685171278 -5.647696347202347e-5 0.0
0.0009304728636452387 -5.5028315852369776e-6 0.0
0.000781621436608697 -4.385516239691718e-5 0.0
0.0004732635092685361 -2.1360641161349414e-5 0.0
9.05960281428056e-5 -1.772336537348452e-5 0.0
0.00033945791802116905 -4.9513019827626816e-5 0.0
3.0580329295103746e-5 -2.875529874321956e-6 0.0
6.659174278407521e-5 -9.476348322861703e-6 0.0
0.0007785958477052544 -3.6820708049925565e-5 0.0
0.0007065100173011254 -2.1068404172830582e-5 0.0
0.0004020795269055657 -0.00010580336123148634 0.0
0.0002888941132994881 -7.036709198237189e-5 0.0
0.0009127160421287943 -8.484873791239727e-6 0.0
0.0001469718502574889 -4.375883384094557e-5 0.0
0.0007566774708616818 -4.719999003591243e-5 0.0
0.0006490206009007731 -9.385768851599664e-5 0.0
0.0009229628348885447 -1.599014944305544e-5 0.0
0.000363804446911547 -9.176522968028461e-5 0.0
0.00099613401166466 -8.808389508072902e-5 0.0
0.0006147058835528891 -3.259298669265003e-5 0.0
0.00020706514840142422 -6.272025593498997e-5 0.0
0.0007812689300302794 -0.0001370466925140776 0.0
0.0002186939891542144 -4.7558808414126224e-5 0.0
0.0010831735319341879 -1.8367766279999623e-5 0.0
0.00016352612181571327 -3.5201694857277535e-5 0.0
0.0007923520090118317 -3.501542508486049e-6 0.0
0.0007319269832374479 -1.6323088150419577e-5 0.0
0.0006821386196151845 -3.872862829782087e-5 0.0
3.166569164511108e-5 -1.5979108251389276e-6 0.0
0.0005956369541927069 2.9638265536564196e-5 0.0
0.00037109116675477046 -5.011466057480517e-5 0.0
0.0008858546417838068 -0.0001367619525271187 0.0
0.0008993752824988137 -0.0001459771830779415 0.0
0.00010877253901241804 -1.7865718801119848e-5 0.0
0.0006729691003470101 -2.6107135158815183e-5 0.0
0.0003014144336138795 -7.087371352368279e-5 0.0
0.0004882153049920749 -6.758086460756856e-5 0.0
3.79942265221341e-5 -8.787790248593006e-6 0.0
8.379434763997534e-5 -1.6128151490463984e-5 0.0
0.0006420483497024253 -3.92411389036862e-5 0.0
0.0005908705980965653 -5.409580974631018e-5 0.0
5.510497665697304e-5 -1.0757011726378246e-5 0.0
0.00014164956871886997 -2.7440029484771024e-5 0.0
9.749854542105926e-5 -2.9814936736595013e-5 0.0
0.0009230697594570881 -7.29300323380312e-5 0.0
0.0007337933839586862 -7.097010134951082e-5 0.0
0.0001582541397431714 -4.03082262518296e-5 0.0
0.0008588416452053507 6.696222508656772e-7 0.0
0.0008000341115657812 -3.58633986903877e-6 0.0
7.040044290298426e-5 -1.9771335703824027e-5 0.0
0.0005361386729751506 -4.802389475629697e-5 0.0
9.782802387656942e-6 -2.116066205821067e-6 0.0
0.0011834714159876657 -5.384374766390896e-6 0.0
0.001131807729238086 -3.982921917897746e-6 0.0
0.00036492216706371117 -0.0001000177627827233 0.0
0.0008629803326896864 -8.566581552019862e-7 0.0
0.0007393911005145963 -9.630823386030435e-5 0.0
0.000179871932437807 -3.7401062162081157e-5 0.0
0.0007189921803500507 -0.00014177317788885424 0.0
0.00019984559428389806 -3.514319649418366e-5 0.0
0.0009744037054337358 -1.0281713435458802e-5 0.0
0.0004760243478243671 -6.922274033428141e-5 0.0
5.688553385880615e-5 -1.3229434627822837e-5 0.0
0.0006163866295369402 -4.9813694385658306e-5 0.0
0.0006097091154147769 -4.777726651598914e-5 0.0
0.0010483928745718737 -2.7042773965432453e-6 0.0
0.0006417523711189249 -6.657092584380563e-5 0.0
0.00010097933003820789 -1.129921327787335e-5 0.0
0.000983108903108713 -0.00011540369583421182 0.0
0.0010511918378025237 -4.543584610216224e-6 0.0
0.0008004535566586955 -6.8659152367789565e-6 0.0
0.000814605941030056 -2.9763787594792035e-6 0.0
0.0004979241314429333 -0.00010791978971342728 0.0
0.001131403637453095 -4.482709933528517e-5 0.0
0.0005548196559917021 -4.79693448313177e-5 0.0
0.0001756063529266764 2.1112331483943942e-5 0.0
0.00015317357080240238 -4.14705678211587e-5 0.0
0.00042266880617186463 4.350845154470802e-6 0.0
0.0009874015666471105 -8.49433639382248e-5 0.0
7.038249259948792e-5 -1.2661640081637716e-6 0.0
0.000635674753074864 -2.9624832859996823e-5 0.0
0.0008709736779109407 -1.6099834374592953e-5 0.0
0.0007153872201666001 -3.325743896959898e-5 0.0
0.0011554536473614159 -2.761706571824102e-6 0.0
3.6752524597204025e-5 -7.582462966186383e-6 0.0
0.001054704893052134 3.295080665181618e-6 0.0
0.0011605090419148207 -2.663955974499114e-6 0.0
0.0005517165013038134 -0.0001259049375179789 0.0
0.0006589126852905364 -3.679867309441592e-5 0.0
0.0005094986270304345 5.717794150355701e-5 0.0
0.000305475038424441 -5.73374467190293e-5 0.0
0.0004162730136265306 -5.180190141396188e-5 0.0
0.0005295516403811026 -4.788800653128861e-5 0.0
0.00027780511628861437 -4.042380675556529e-6 0.0
0.00044219706830672667 -8.090971583140845e-5 0.0
0.0002518426123577349 -4.0391659809071956e-5 0.0
0.000176929978057836 1.5418211660713953e-5 0.0
0.0005605310033077701 -4.275775810295574e-5 0.0
0.000792702013056017 -8.185578726013276e-5 0.0
0.0009422794306491068 -6.429224255938026e-5 0.0
0.00046672534198773834 -5.426510543840572e-5 0.0
0.00032968306773245516 3.754698690417554e-5 0.0
0.0007344340717701995 -4.329242866511433e-5 0.0
0.0003950028035166068 -5.131375272905892e-5 0.0
0.0008862174409191764 -5.24784975199397e-5 0.0
0.0004277525583044651 6.498796711842383e-5 0.0
0.00039032851249643245 6.441522239705535e-5 0.0
0.0006293527188788096 -5.893230714897739e-5 0.0
0.0007691993394519745 -8.595880183424286e-5 0.0
0.0004628360012483353 -0.00013001754617094228 0.0
0.0008495678914212624 -0.0001442330617620054 0.0
0.00034879991585820997 -5.6405938061413106e-5 0.0
0.0007962127809768631 -0.00014372851430593983 0.0
0.00029724534305701776 -4.509143734067533e-5 0.0
0.000903551241083517 -5.409249070481607e-5 0.0
0.00046542425285953234 -6.749155661206896e-5 0.0
0.0009728340604508638 -2.093798833662722e-5 0.0
0.0003081145112062749 -5.522436317093742e-5 0.0
0.0006143608549848924 1.5765508655534606e-5 0.0
0.00048810481587989836 -5.5125237707580993e-5 0.0
0.0005178971131661097 -8.658223617958039e-5 0.0
0.0005809827878604969 -3.8357481304816354e-5 0.0
0.0006036975433592255 -4.60638546708062e-5 0.0
0.00034814809692488365 -7.044999124277058e-5 0.0
0.0003504572412902945 -7.495278256466049e-5 0.0
0.00024158941997617746 -4.3737204845733195e-5 0.0
0.00043765112293299956 0.00014802580175361888 0.0
0.000532129141785787 -0.0001042132347800991 0.0
0.0009909711373631764 -3.6954254560099122e-6 0.0
0.000868525004463664 -7.916164581507681e-5 0.0
0.0007143591447704441 -3.367775102695686e-5 0.0
0.00033365724953254866 -5.6082618025480506e-5 0.0
0.0007678950555838475 -2.8321230942939884e-5 0.0
0.0006630478635620596 -9.175159460367182e-5 0.0
0.0004666811925180815 -6.431895429643016e-5 0.0
0.0010698552143269804 -1.1279693882291965e-5 0.0
0.0011420927852044632 -7.453050913196284e-6 0.0
0.0004509357544815419 -5.1891578528872535e-5 0.0
0.0007566960428568097 -0.00013666807697947322 0.0
0.0010091800748544704 -0.00010486032449282857 0.0
6.875954162090741e-5 -1.3618307212159833e-5 0.0
0.0003195260053540296 -4.847387907411222e-5 0.0
0.0003650016786491849 -5.669560458424582e-5 0.0
0.001032129628431375 -9.36457876633966e-5 0.0
0.0004421349421482375 -7.65284263096307e-5 0.0
0.0008213108004399571 -9.918662326683327e-5 0.0
0.00012537293879428757 -3.690943724377637e-5 0.0
0.0006618695415785016 -4.5676018526947095e-5 0.0
0.0009391909517795282 -4.66949282446505e-5 0.0
0.0007472513483523771 -6.728919548135093e-5 0.0
0.0010938769991113847 -1.2254882791399008e-5 0.0
0.0007688337998195433 -0.00012638052214671225 0.0
2.5571229323475092e-5 -4.583370366033958e-6 0.0
0.0005415021835060353 -4.4832837454148136e-5 0.0
2.7959660544320075e-5 -6.214558264962862e-6 0.0
0.0004463857929357408 -2.459096386511953e-5 0.0
0.00029388790307487584 -3.987842444314882e-5 0.0
2.145759736021823e-5 -4.869445649448275e-6 0.0
0.00031624953899252173 -9.242571359906208e-5 0.0
0.0002943293874701093 -8.464023629576632e-5 0.0
0.0005658523871768803 -5.033967262273204e-5 0.0
0.0006040795407373482 -5.945645653019249e-5 0.0
0.00021815103222003462 -6.616935516736164e-5 0.0
0.0004166445281765949 -5.2142918279788014e-5 0.0
0.0006821636162751758 -2.6215021123355522e-5 0.0
0.00023129455421868705 -4.845506960404064e-5 0.0
0.0008217397018821877 -8.039221651477537e-5 0.0
0.0006771564496855462 -8.946747943696826e-5 0.0
0.00018237000857550037 -3.302256323417539e-5 0.0
0.00010027101135629781 -2.7013986277197283e-5 0.0
0.0006303183303322417 -3.1861316611689474e-5 0.0
4.6166862368099224e-5 -1.2258162027451955e-5 0.0
0.0011126980716790566 7.735957649768105e-7 0.0
0.00048203858085295185 -4.382260876737808e-5 0.0
0.0005667024926451118 -4.106676778844725e-5 0.0
0.0009716887353290278 -9.511667947770513e-5 0.0
0.0010753855042282966 -8.244244470371762e-5 0.0
0.0008754924615378657 -1.1019164657260632e-5 0.0
0.0005312482042464286 -9.782423784052943e-5 0.0
0.0006847296692736269 -4.224968349822436e-5 0.0
0.0009483896782849527 -0.0001273571065982119 0.0
0.0005743503904680619 -0.00013655345542316392 0.0
0.0009241445747367317 -4.4625537401868205e-5 0.0
0.0007499986850371728 -6.0406691075631634e-5 0.0
0.0004316788949664849 -7.377240318888683e-5 0.0
0.0007897232674792881 -8.974936335104509e-5 0.0
0.0004556662944978384 -6.246338410470208e-5 0.0
0.0003823133947221666 -9.629730405835497e-5 0.0
0.0005684109325225969 -4.038814131786863e-5 0.0
0.0008700508781039802 -0.00013747662505074964 0.0
0.00024094688194083681 -4.2550370519324895e-5 0.0
0.00018445582177758834 -5.580955422219731e-5 0.0
0.0008163739849963088 -1.0190128899258242e-5 0.0
0.0003001099723333509 -4.8309809987515605e-5 0.0
0.0007574001080229673 -5.838044394562259e-5 0.0
0.0005434207436835831 0.00021392214429379855 0.0
0.0009184184087302741 1.838570428039436e-7 0.0
0.0009694727192887455 -1.5341908859768004e-5 0.0
0.0006423209905148125 -4.810822802366483e-5 0.0
0.0008543967893556198 -1.5885439773559285e-5 0.0
0.0006939762670854102 -0.00010298008816725975 0.0
0.0007386094435975749 -0.00014336256054926826 0.0
0.0003814348971309196 -5.6748590985885574e-5 0.0
0.00047952542921653326 7.857304351373138e-5 0.0
0.0002631090584352357 -4.454816162122276e-5 0.0
0.00026999832079209224 -8.330735344221283e-5 0.0
0.0005298653499990444 -4.737911432532543e-5 0.0
3.722481264450098e-5 -7.5741218934089515e-6 0.0
0.00021193958049834386 -6.11751197148436e-5 0.0
0.0006082490161928487 -4.005467888921514e-5 0.0
8.361791923578025e-5 -1.992537041699122e-5 0.0
8.307818478812205e-5 -1.3349303614671084e-5 0.0
0.0006023022127196468 -5.220613422770227e-5 0.0
0.0006393879616391704 -2.944484013330217e-5 0.0
0.0010596582979656814 -7.938554187262892e-5 0.0
0.0005379285943912389 -4.9298595551478516e-5 0.0
0.0007961580234838199 -7.349155187625493e-5 0.0
0.0006628964501393194 -3.102324469826195e-5 0.0
0.000193021856651473 9.38867396422779e-6 0.0
0.0002498126531918031 -9.198504637849178e-6 0.0
0.0011176682189373067 -7.493622660878627e-6 0.0
0.0008063293229046635 -9.665604024481431e-5 0.0
0.0001968206883184746 -3.943741826646791e-5 0.0
0.00070476112557508 -1.79272696495768e-5 0.0
0.0006304476447281058 -5.497795386904279e-5 0.0
0.0006223190646770958 -3.142270426162214e-5 0.0
0.00029398790786865726 6.715142908335292e-5 0.0
0.0006024648203542475 -0.00013816701352996954 0.0
0.0010381307415141918 1.9065695673151502e-6 0.0
0.000598714434022909 -4.3896319140058376e-5 0.0
0.0006427111701900801 -3.36521888175644e-5 0.0
0.00073529692786096 -2.511294718890843e-5 0.0
0.000585247000877371 -4.831726860946815e-5 0.0
0.0006034950638213026 -4.088281049856657e-5 0.0
0.0003145544021739405 -7.546019544946144e-5 0.0
0.0007643421095752053 -5.631560897956992e-5 0.0
0.0005142216381225346 -4.7617668470459896e-5 0.0
0.0006334868847222916 -3.229965113332204e-5 0.0
0.0009085192129863006 -0.0001464163675006924 0.0
0.0005467670675326811 -4.392471927240513e-5 0.0
0.0007148206907032736 -1.566504314367706e-5 0.0
0.0006694626070380158 -3.1372128338682343e-5 0.0
0.00010223306664535091 -2.996586370902615e-5 0.0
0.0008724382657946951 -7.070666370125174e-5 0.0
0.0006506228787421733 -2.9368607095212657e-5 0.0
0.00036220891569390014 -9.459060689794851e-5 0.0
0.0007724103318552237 -7.957277018280638e-5 0.0
0.0008185621483513021 -0.00014477296941836084 0.0
0.00115694902814638 3.378251753594779e-6 0.0
0.00010029031271362995 2.920938906177853e-5 0.0
0.0005184742396057825 -4.917135906433234e-5 0.0
0.000656618106039474 -0.0001323868214155388 0.0
0.0004302447734446414 -0.0001094701129186402 0.0
0.00047412734097584784 -0.00013138905755903307 0.0
0.0001112860478593215 -2.2532843222668953e-5 0.0
0.000809422017036471 -7.03318925252566e-5 0.0
0.00038522098604660377 -5.519307288268981e-5 0.0
0.0005310733320680532 -4.5909012570817194e-5 0.0
0.0004654881061084204 -5.461620754535226e-5 0.0
0.00048712089096990285 -0.00012562304581618272 0.0
0.0008564947240807756 -5.5738576135096324e-5 0.0
0.001080083714656338 -5.4043401670166855e-6 0.0
0.0006927996070339049 -9.727752576228445e-5 0.0
0.0005947496315042961 -4.726114663935895e-5 0.0
0.000411155785128768 -7.310516334461001e-5 0.0
0.000634259750772431 -0.00013976318213015698 0.0
0.0008415534536407889 -5.7694053283827166e-5 0.0
9.659979230790029e-5 -2.191218101031156e-5 0.0
0.001020136894778241 -5.0178462762399045e-6 0.0
0.0005086075837024249 -0.0001267429855163247 0.0
0.0005216971439517452 -0.00010747966521240078 0.0
0.0007801664253682678 -0.00012281191197245205 0.0
0.0011655867259705542 -1.122885933223518e-5 0.0
0.0004495314374541412 -0.0001178425688847236 0.0
0.000441896469483417 -5.275519645458338e-5 0.0
0.0004366635163990571 -5.223406463549158e-5 0.0
0.0007296377737956992 -3.0125609704676687e-5 0.0
0.001122588637565704 -2.5183652359851327e-7 0.0
0.00010938097408099668 -2.926340824575366e-5 0.0
0.0006075773145269011 -3.846952469751595e-5 0.0
0.0010017139485560577 -9.323633537961023e-5 0.0
0.001116664834249113 2.1226846587553578e-6 0.0
0.0003791051031562253 -5.079605715052919e-5 0.0
0.0005188522461104312 -0.00012810715406403678 0.0
0.001074893206261087 -8.381604259955904e-6 0.0
0.00022059760549657568 -5.943225918133032e-5 0.0
0.0011477865009037124 -3.6867419913987864e-9 0.0
0.00039090634119712996 -0.00010459479210627485 0.0
0.0007676196854552566 -4.927660714438596e-5 0.0
0.0002654630794591214 -3.1333362820432796e-5 0.0
0.0007269103340884733 -1.375495466389711e-5 0.0
0.0011170834515204708 -4.15667148997267e-5 0.0
0.000857303123623503 -5.215979593353412e-5 0.0
0.000344873941425834 -9.430832078995355e-5 0.0
0.0002476851098647037 -7.785618004457962e-5 0.0
0.0003165546111703526 -6.940168651717344e-5 0.0
0.0009289582660278795 -0.0001326281705613135 0.0
0.0008391337467364939 -1.609128315764957e-5 0.0
0.00021239466296201637 -4.1410366466407674e-5 0.0
0.0004988521556756545 -5.051536901044178e-5 0.0
0.0007269795546766087 -3.550855268863974e-5 0.0
0.0004796749692497686 -5.492517824621847e-5 0.0
0.0010911850646081734 8.928665697813768e-7 0.0
0.000776937582476722 -1.1961832851096182e-5 0.0
0.0005153312766005898 -4.767219494335477e-5 0.0
0.00021972054539117893 -4.0414154816376674e-5 0.0
0.0008159634181228188 -5.780062328086824e-5 0.0
0.0007097477830002927 -0.00012871388023450928 0.0
0.0009723624667272829 -0.00012155892992610871 0.0
0.000415603132912776 -0.00010595281751734637 0.0
0.0007653413021928183 -2.5571104293438404e-5 0.0
0.0004586503848683888 -5.977256321506541e-5 0.0
0.000680757917276085 -0.00013423133734836998 0.0
0.0009623538500330564 -9.308576541227365e-5 0.0
0.0008381390179386432 -6.135016320264829e-7 0.0
0.001086056166110089 2.8435330051e-6 0.0
0.00034238951765068536 4.8763341010714235e-5 0.0
0.0010433633629923036 3.5430470733129204e-6 0.0
0.00040827798405296896 -6.816474948293864e-5 0.0
0.0009548649962798055 -6.337148388427593e-6 0.0
0.0007185872446313507 -1.7767104285543516e-5 0.0
0.0007848128606140055 -7.444667704740814e-6 0.0
0.00039831724547712824 -5.359086060392304e-5 0.0
0.0007893959671032175 -1.5386653327268446e-5 0.0
0.0005414068807011383 -0.00012825066948453704 0.0
0.000323966787413264 -8.866691177918802e-5 0.0
0.0006475841346812592 -2.7524750368900193e-5 0.0
0.0008379789613488144 -2.658563657860931e-6 0.0
0.0005127796016947395 -0.00011607157306800922 0.0
2.658730886221899e-5 -5.798744948958009e-6 0.0
0.0011314915985570842 -3.1072032807755795e-6 0.0
0.0009405715653496308 -2.3464476087369187e-6 0.0
0.0005833443338892464 -5.782089379013489e-5 0.0
0.0011511454015109433 -7.0589539713531396e-6 0.0
0.0003870906191081012 1.1453352850245628e-5 0.0
0.0006397369881188682 -5.687716809133946e-5 0.0
0.0011809953031683557 -1.0076996301276147e-5 0.0
9.195900312338716e-6 -2.1627830238489665e-6 0.0
3.766189523491232e-5 -8.649228910019296e-6 0.0
0.00039555023764175463 -5.132616937137807e-5 0.0
0.0006933837471582844 -4.4061441572531636e-5 0.0
0.0007963469772015131 -1.3377225388515464e-5 0.0
0.0008695004844386091 -0.00013014178521267042 0.0
0.0011358411332346077 -5.108747962920206e-6 0.0
0.00010579130182803182 -2.4459787946851894e-5 0.0
0.00029375061638020475 -3.2346203703297094e-5 0.0
0.0007120302507876379 -0.00012194982866970324 0.0
0.0009807002007461744 -3.6509063154799977e-6 0.0
0.0003268437206873727 -6.933631944387562e-5 0.0
8.006478938419333e-5 3.5710172525695014e-7 0.0
0.0007158799513539637 -1.6885301083960245e-5 0.0
0.00041986958674425964 -5.150236247431056e-5 0.0
0.0008888733188723072 -5.781567260855164e-5 0.0
0.0005996791406635664 -4.2458126491233875e-5 0.0
0.00047454205625322793 -5.6821294011248734e-5 0.0
0.0010113201736404098 -4.098708375151529e-6 0.0
0.0010195118450057033 -0.00010297334316738784 0.0
0.0008439270095612686 -0.00013906539061804435 0.0
0.00030389850187627875 -4.774695791565754e-5 0.0
0.0010592100584090873 -6.001999304202468e-6 0.0
0.00020514351135719844 -4.441998190965411e-5 0.0
0.001070538590879588 1.6040462295810692e-6 0.0
0.0009384874258959211 -0.0001325665093669717 0.0
0.0007456124209678835 -2.5841072045563443e-5 0.0
0.0007908553238092592 -0.0001389581982080423 0.0
0.0008965103949178029 -6.377723675733045e-5 0.0
0.0005766011518658943 -4.033755389884098e-5 0.0
0.0003218397118984107 -8.511097909923366e-5 0.0
0.0005472034024922605 4.389705398505688e-5 0.0
3.324768457030031e-5 -5.552129860625445e-6 0.0
0.001116142493462639 -3.71561543650715e-6 0.0
0.0001345664133149513 -4.021255082756352e-5 0.0
0.0008325989643313568 -1.3305281446407022e-5 0.0
0.0002273209486501054 -6.926627833508681e-5 0.0
0.0007690814546114596 -4.3561249315010055e-5 0.0
0.0002874484953738573 -2.1593801587608307e-5 0.0
0.00012337707111915842 -2.7648524497760606e-5 0.0
0.0001617601231920736 -4.9940552570507315e-5 0.0
0.00015164910965408324 -3.969287403310368e-5 0.0
0.0005204747670810335 0.00012265399101965004 0.0
0.0008720662549383989 5.899862683249776e-7 0.0
1.941855631944467e-5 -4.250644900792608e-6 0.0
0.0009322390427903232 -9.615941267656834e-7 0.0
0.0009373937806333437 -1.731311006886446e-5 0.0
0.0007080503246673091 -4.0983684904002806e-5 0.0
0.0005918423879797912 -4.0688029914140244e-5 0.0
0.0003663529858563892 -4.93036036480307e-5 0.0
0.0005875062974237133 -3.758886184264429e-5 0.0
0.0007224294922356435 -0.00011162952535204791 0.0
0.00039913848042150016 -5.541967972704556e-5 0.0
0.0002863562061939146 -8.413590429919101e-5 0.0
0.0009602318597230771 -5.506897688468618e-5 0.0
0.0008103815294651472 -7.520626538091421e-5 0.0
0.00015023129714060115 9.568787980893487e-6 0.0
0.00041900335363998913 -2.142805308716889e-5 0.0
0.000754983451198287 -2.4831669044492354e-5 0.0
0.0007257556511561135 -0.00013670140658524462 0.0
0.0004951448826856488 -5.1858189637367255e-5 0.0
0.0008955414664133162 -0.00013968260524868003 0.0
8.060069619420093e-5 -2.3352316819400893e-5 0.0
0.0007904564679472399 -0.00011984016585402832 0.0
0.0004684035697557055 -5.323636056728955e-5 0.0
0.0010701985742737935 -7.483000274503016e-5 0.0
0.00045528757737720786 -3.5414206906454735e-5 0.0
0.000723666092822365 -1.4365503474327834e-5 0.0
0.0006074834030718271 -4.968699640701733e-5 0.0
0.0006489147370577931 -5.825061750910783e-5 0.0
0.0006816009455078808 -2.8191102935538363e-5 0.0
0.0007038642680702911 -0.000134906184874649 0.0
0.0008778188198048422 -0.000138499529654786 0.0
0.0003221911679018997 -5.61387020824323e-5 0.0
0.0007428188496312505 -4.459503146122898e-5 0.0
0.000722098796935609 -3.5721956231162644e-5 0.0
0.0008715123023241481 -0.00012119215938108942 0.0
0.000582343912557724 -4.0353207458879046e-5 0.0
0.0006520012651102803 -5.4798577738170265e-5 0.0
0.0003208071164661258 -8.161585378191958e-5 0.0
0.001063299837743148 -6.71556711683814e-5 0.0
0.0007540822820904967 -0.00014372214719156158 0.0
0.0005144179360343195 -0.00011113543196727445 0.0
0.0011333777173586261 1.0532655638442088e-6 0.0
0.0005097468718902518 -9.411281578303739e-5 0.0
0.0009212766490439484 -3.67805498084815e-5 0.0
0.00035965651964557855 -4.975806375425336e-5 0.0
0.0007672547550678184 -1.245740528180134e-5 0.0
0.0002707054763406009 -3.572456491626546e-5 0.0
0.0005662996118463364 -5.3404000483204946e-5 0.0
0.0004996986799777089 0.00017794310675027834 0.0
0.0011605359431934893 -2.8297357920577524e-6 0.0
0.0006959129459738257 -9.311683502912153e-5 0.0
SCALARS damage float 1
LOOKUP_TABLE damage
0.8538209528541205
0.931573981114836
0.9760446581649691
0.5940716760642573
0.9992124340769474
0.9997588160729022
0.6617633018872241
0.9737221638701201
0.9621729740433029
0.9666560237613869
0.968795960709561
0.9693285567576362
0.9702693032660433
0.971665894974579
0.9710700970450885
0.9695012827152064
0.9679398019641722
0.9669394619838919
0.9661598223106487
0.9651733956713766
0.9642539730537669
0.9638799566827547
0.9629231919792597
0.9620024010119728
0.9613121709843411
0.9603020025645768
0.9588043593504246
0.957209659987553
0.9550719851654406
0.9528638971370913
0.9499773751440067
0.9466823822907942
0.9294877723363958
0.9451657795286598
0.9465679434625579
0.9477962493354601
0.9492491345374671
0.9507991389273706
0.9507549610851189
0.9508527140482637
0.9518235980729799
0.9530580352041055
0.9536802642003139
0.9534803701286378
0.956976064953195
0.9564532213873739
0.9463476661998728
0.9512271920011375
0.9550946109758872
0.9598023185721367
0.9613389277283995
0.9641127390853538
0.9643938857547169
0.9678768263071122
0.9640080898752629
0.9662835335008984
0.964313959117655
0.96566486151816
0.9659601955299478
0.9674124648366887
0.9662159773360284
0.9678669435912852
0.9682083726805535
0.969990139627816
0.9704327888414913
0.9692527942623075
0.9668407596611519
0.9616921021631656
0.9630985300163287
0.9552271252200694
0.9705016261270166
0.9766988480736195
0.980883601596231
0.9917058657656259
0.9922346608148089
0.98987089948075
0.9896669769349229
0.987928762483772
0.9884330747504212
0.9871402339003744
0.9847036140954457
0.9878451779851184
0.9881354192250905
0.9867426378480058
0.986412853464069
0.9875535449693339
0.9935652441698696
0.9940907223731174
0.9959419498772254
0.9950640718855821
0.995233825900634
0.9957744985488374
0.996043958596935
0.9963902430431482
0.9960960031795684
0.9968471467307467
0.9957121539821077
0.9957856117789129
0.9960744370616238
0.9963058962157874
0.9962520340623049
0.9959726357822843
0.9963474671310898
0.995423318434812
0.9959573480031294
0.997011506995125
0.9965307711558629
0.9978911444791866
0.998095357825172
0.9983144863359059
0.998710112294692
0.9991447595230313
0.9991685488020042
0.9976804642012529
0.993892039553569
0.990466799845328
0.9926583990491501
0.994176596817136
0.9933369649460824
0.9912409554688979
0.9881898520301617
0.9835281191310518
0.9741934558688092
0.9578134744420931
0.9446925206387796
0.9291553089999416
0.9092226534526849
0.8632169400728202
0.8153855277444478
0.8028884097305853
0.6345410729988233
0.7905606402785798
0.8459121181821949
0.8888896904283731
0.908748021978982
0.9204480027212617
0.9264331352967305
0.9309344380016393
0.9327636838420198
0.9343107671608017
0.9357240676432748
0.9366749657628635
0.9369688118078923
0.9369759128840197
0.9366374989944015
0.9359675827368373
0.9352228487275988
0.9345017354807305
0.9344965386056994
0.9388855896939343
0.9418678141419343
0.9487995051796903
0.9554607992916522
0.9626120568699656
0.972250869643308
0.981026758278929
0.9841228293330914
0.9971719973906233
0.9985970557475683
0.9994572008649887
0.9994404899932864
0.9998273285146655
0.9972450581198146
0.9931592134432282
0.9859622403932424
0.9732069263642212
0.9570588639074221
0.9371542947100387
0.9165136649001479
0.8737096376805601
0.8074241691290818
0.733734698993751
0.6063522580404184
0.7281676098736772
0.8001514078305075
0.8487947956421004
0.8856908952096272
0.920403971468113
0.940099445145216
0.959942510025049
0.9780315421105081
0.985655008312469
0.9937378229764642
0.997461900720435
0.9987981643118947
0.9970387281617259
0.971906173713204
0.859458159043958
0.9654796434897396
0.9955929740451018
0.9681515622826884
0.9950695743383634
0.9880680640703324
0.9938626579167166
0.986600812139353
0.9989731365938436
0.9608394479523013
0.9989049462931486
0.9533889691612691
0.9630275625567738
0.9359157501579596
0.8839806350930173
0.922010907473294
0.6644009460160666
0.8862393254814984
0.9938491348955161
0.951712218342654
0.9607421128444682
0.9365430142103376
0.9364825808190561
0.966129072403072
0.9817305156723626
0.949165629414331
0.9764512658195259
0.9469658995115786
0.9585150714058216
0.9322023127171761
0.9712030040887999
0.9879942781319128
0.995529325995802
0.9846477405615502
0.9950113919780297
0.9964374893206139
0.9683884832811511
0.963430539190581
0.9424087887090901
0.9478752951241463
0.9512220368633955
0.9695296524770227
0.9187299436176782
0.9529697720706711
0.9951579723052478
0.9826487078683396
0.9666511981939485
0.9536967492783821
0.9621993016703796
0.9369008179004699
0.8455664365566891
0.8330077059673535
0.9446392469126865
0.8460307113326843
0.9958606316761264
0.9896832026292565
0.959099953219332
0.9674626793252156
0.993996980079947
0.9991880690839681
0.9592678081168042
0.992993529236172
0.9485578294770111
0.9490338920908685
0.9903407262866752
0.9844767669997594
0.9962928281408515
0.8934483298579197
0.9482967606397333
0.9964712952005346
0.9993114354020174
0.9364295821845452
0.9814226318767962
0.9393782341454924
0.7923324970961951
0.9995808488966821
0.9965480590556604
0.9922003344912333
0.9927865701947374
0.9927170794030279
0.9917479779769078
0.9879417646459805
0.9860088143017043
0.9819719168201866
0.979826754056582
0.9832255718164422
0.9767665979951575
0.9793773668218406
0.9725841615205545
0.9757807853534718
0.9661866859544568
1.0056998007509317
0.8769304923891108
0.9682962393704809
0.9062890497679906
0.9708344631784729
0.9338531023661871
0.9749313487491417
0.9516248918457231
0.9765467321692299
0.9584671091145402
0.9775408057879879
0.9641282267048881
0.9783766144114826
0.9654918918310407
0.9780519965559195
0.9679991787101161
0.9783402792885291
0.9672861809354446
0.9762763947264079
0.9670354144510194
0.9752378615527052
0.9678811400009465
0.975412277102936
0.9689092510341097
0.9755766721723358
0.969282042890463
0.9752075860915925
0.9695790460551929
0.9755326509104533
0.9686684165196903
0.9741516327113446
0.9698360981125552
0.9739639911391963
0.9712159044433256
0.9744558322805569
0.9711866554721261
0.9743851644162723
0.9719146990887879
0.918980294410719
0.9747872194558465
0.9553641020011276
0.9648221492707426
0.9723593355751403
0.9750361943823493
0.9727517172081281
0.9701184533123672
0.9707098358342306
0.975234081601162
0.9766174861644491
0.9760527613766371
0.9767631603971652
0.9773890695270424
0.9774960300871319
0.9679354719958424
0.9686599860750914
0.9777586607055608
0.9654877543623956
0.9664560849640765
0.9780701035594956
0.9783100035441193
0.963091803363759
0.9647731712653039
0.9786317818572682
0.9787490865172307
0.9605365657936342
0.9621683191568662
0.979160279693355
0.9793044808476379
0.957972746743852
0.9593163824141533
0.979933273363371
0.9800643577596931
0.9551171405520732
0.9575311075738372
0.953326804102875
0.9504378589234227
0.9796067586705866
0.980866936722325
0.98080278803369
0.9796952786792141
0.9786154673001254
0.980501215028886
0.9788656678263801
0.9794825784487156
0.9559705367562741
0.95278516432131
0.9591367093115255
0.9816959499315755
0.9546297628705667
0.9516057594134418
0.980972318706295
0.9537671274630767
0.9509498706817224
0.9535048009735654
0.9500692403460559
0.9474713023796968
0.946404469108952
0.9440588249312231
0.9527639311831072
0.9443475401235619
0.9416319618767117
0.9557793932441007
0.9551749899618434
0.941990351166838
0.9392982989523185
0.9779290978478186
0.9781955523763043
0.957414172838718
0.9564553577311735
0.9767030188782356
0.9768564071534028
0.9789282017916988
0.976684111412101
0.9795166884432175
0.9768596726863379
0.9798375705140489
0.9767413317515551
0.980197982146166
0.9736161504775974
0.9760015665827796
0.9804161782144349
0.9588058400679315
0.9399766232646327
0.9372453544074815
0.9833983874333578
0.9841798791983188
0.9810574958052285
0.9865614334663798
0.9579594455154832
0.9852727164617935
0.9817742172587355
0.960265059589887
0.9594821620360633
0.9570550921774723
0.9861308688342362
0.9825823574870208
0.9618125591529524
0.9622597513050573
0.9582969542252888
0.9558173658037324
0.9867470723985984
0.9837324418029617
0.9757127314788904
0.9886016512181212
0.9766747937607627
0.9686201851607117
0.9386912782461626
0.9365424529745899
0.9341353285122529
0.9344718061869207
0.9301699555143397
0.9313785925457758
0.9269291777055574
0.9635699380313038
0.9641382553357309
0.9570732967580095
0.9548830602288151
0.9848413594092554
0.9291138849119753
0.9239294892500196
0.9651637273122148
0.9662760372776698
0.9663502987561604
0.9768030572600584
0.9725108733619628
0.9809767125660328
0.9620559806309378
0.9749897623583814
0.9276334944148137
0.9223942046464476
0.9562123350361039
0.9543469087057939
0.9671631357595182
0.9680450459073316
0.9850169402849768
0.9391148132046508
0.9413223904361212
0.9336057387177247
0.9768994257397261
0.9279346076608549
0.9214835436721877
0.9660164048117782
0.9554271323594139
0.9537086742086457
0.9752917939636566
0.9742401454315172
0.9746295831967929
0.9735339613206526
0.9687536374496258
0.9698288546333296
0.9583923626388271
0.9281847878486316
0.9242793580444589
0.9854010056124491
0.989260207446144
0.9350150407315517
0.9310028378470376
0.9790552556935075
0.9683351885799322
0.9430998555021153
0.9573308425535199
0.9705323928598505
0.9716066298784982
0.9709216862164987
0.9725054553861953
0.9719683722276993
0.9734382879604386
0.9730354865608928
0.9743890870070203
0.9740990347185285
0.9751386037875865
0.9753116764598548
0.9759581844172586
0.9760589917116724
0.9769195775942033
0.9770649367722407
0.977629854029114
0.974948631358589
0.9775277718229556
0.9779078372806312
0.97798669223012
0.9784330662604442
0.9412265965743747
0.9433842326268473
0.9549087429868695
0.9535177392142434
0.9784366552869659
0.979071673988674
0.9790754863038194
0.9799866437515136
0.9435481445381249
0.9454075929220637
0.9742870133795581
0.973391987564662
0.9744381379882967
0.9864476841566867
0.9801225714315597
0.9722835021268447
0.918624457297297
0.9777425362883068
0.9800449223966196
0.9815230157290284
0.9815236353229942
0.983606864528325
0.9778730503109533
0.9736115993032953
0.9722159008318432
0.9408937158819757
0.9546337670153889
0.9532729983554431
0.9752925707094405
0.9837870762826537
0.9857353714623105
0.9854139390431832
0.9871371332513972
0.9865756326966766
0.9878592953889113
0.9884485795164317
0.9888688137728516
0.9524134936854295
0.9461245987243623
0.9469985173119183
0.9711855007603486
0.9873922059711654
0.9820678536078429
0.9892844881106551
0.9895722305993045
0.9517977981838407
0.9546539489082975
0.9531929853247009
0.9181145164601349
0.9637156306387713
0.9728481795671079
0.9613263373095007
0.93334831594893
0.9889824997414846
0.9836029572591232
0.9714774088763733
0.9509593081216928
0.990189387924719
0.9449888300347118
0.9553005587114917
0.974049451882486
0.9760408781885815
0.9873172333264304
0.954377357820789
0.9529277632027016
0.9481483807514904
0.9488926288054224
0.9530147024132217
0.9899800365739041
0.9896629660339293
0.9518760844091035
0.9518029419386111
0.9901005277481891
0.9715061938781302
0.9525368953899291
0.9516770745455512
0.9714061363307639
0.9735571172362505
0.9596169846689999
0.9843903095653638
0.9902093254235237
0.9900799909169063
0.9860902929484453
0.9868524042282636
0.973216764997063
0.9895721282140116
0.9900720251216489
0.9498905249222045
0.9506293864798046
0.9913567172755465
0.9911273928418466
0.9523499239056461
0.9515553328584874
0.9742463012529252
0.9767923566501399
0.9511909542455227
0.9512263028872711
0.9514824181275463
0.9513890789602811
0.975559649480527
0.98456052157047
0.962680131721058
0.9686904258179589
0.9756575958074031
0.9709239514494616
0.9925115542197497
0.9924108250188856
0.969550082849225
0.9896199666385606
0.9762339140302949
0.9512978433039349
0.95135928072094
0.9516388015777661
0.9513283012309863
0.9510741702043578
0.9512728996089437
0.9514208455867744
0.951626803389368
0.9518522413882395
0.9519364930467309
0.9522958465488589
0.9515452199322454
0.9522986125311141
0.9510677564630868
0.9504579983059285
0.9509446460238496
0.9518025083541775
0.953840307724341
0.9412868463727937
0.9856938269059943
0.9865068527738909
0.9466131763046653
0.972108835768758
0.9737683060199409
0.9874013616772471
0.9870506883870094
0.9775678831823909
0.9829357802436746
0.9853036415936789
0.978703114680169
0.9804171819660707
0.9694700677477306
0.9674853589813712
0.9679053417608379
0.9511644502987193
0.9763745927093607
0.9802234250011556
0.9445922755498357
0.9935653519846891
0.9935612544440462
0.9923385487900831
0.9934226366322799
0.9695601664533725
0.9733870129739047
0.9651814382607774
0.9933638534803053
0.9734664849144662
0.9945431328130743
0.9944519393275887
0.9932307487482592
0.9942552713296179
0.9931749940826666
0.9941034799594719
0.9952505174185403
0.9951825316958368
0.9507975510531947
0.951278820368229
0.9524680523004561
0.9721119316244043
0.974249533668184
0.9659807566667593
0.9653018750385656
0.9810949404700816
0.9794782476688357
0.9797264473047222
0.9721795769899506
0.971553808873228
0.974836569084195
0.949855116480524
0.9580977055844503
0.9750667171988452
0.9834585333353655
0.9271475212495113
0.9809680945273195
0.9963662331516051
0.9956280304011925
0.9588685379236627
0.957527747169351
0.9739698424987195
0.9498394109709563
0.9518206355729449
0.9517321650813465
0.951524412587436
0.9955696349317502
0.9816855486280333
0.979363315716865
0.9630017780348771
0.9501251028612098
0.9510390445159875
0.9535854538030264
0.9877857281347853
0.9873836621209198
0.9659814236679309
0.9561856616446157
0.9549716742562325
0.9561326012563809
0.9544425864078185
0.9544304325274567
0.9518738029514814
0.9539254940878443
0.9505985747182667
0.9535370209662803
0.9491023383917379
0.9522889365753248
0.947956900719619
0.9512069225830778
0.9471432377119796
0.9556057126265198
0.9497837104665833
0.9462699296017112
0.9512637835252538
0.9509062502848322
0.9533612415308481
0.9546429102882815
0.9489629772565841
0.9452947097075558
0.9522868436018224
0.9804680718163532
0.9799927214461098
0.9812016055239015
0.9810341743536063
0.982083684281834
0.9822128833703775
0.9813398487033997
0.9822942060647836
0.9814406699125314
0.780988033498393
0.9833521684124221
0.98398963711758
0.9693789965881492
0.973771335906751
0.9747727469787297
0.9734307509111106
0.9745375465771987
0.9730067638097353
0.9742016218959194
0.975570091094925
0.9753894613045373
0.9767503954523148
0.976611467115525
0.9775600798221394
0.9752579386659852
0.972452777714853
0.970925935860323
0.9776235157783247
0.978253070369378
0.9541353082653373
0.9675545912627053
0.939930785459007
0.9791661915523499
0.9631154262929743
0.9643461620849489
0.9805588311634925
0.9779449012132129
0.9920214163837461
0.9813571311806393
0.9766555618443146
0.9755043271960991
0.9761964659421319
0.9649965425293276
0.9624886061822379
0.9813281147045156
0.9820117943606081
0.982028365387187
0.9639073668706535
0.9633645994492718
0.9646156112702486
0.9641512823613717
0.9646316529213379
0.9635217388671516
0.9664195672984102
0.9644156345677611
0.9515680535765376
0.9521657965300732
0.9741020103364639
0.977317707932466
0.954178854961119
0.9525513249710288
0.9436217225435682
0.945622547294968
0.9739294486308049
0.975828890356043
0.9941875326813743
0.9510247931858368
0.9785755908970201
0.982947145505696
0.980341142176768
0.9921995262027866
0.976147426575445
0.9942544398845276
0.9940415643742395
0.9955854638794964
0.9943511738407921
0.9644625102944785
0.951837239048734
0.9774459896341242
0.9575554833795092
0.9745336299733679
0.955333014412871
0.9560184748189723
0.9935803542147434
0.9646127069677415
0.9852906921491577
0.9842585196458977
0.9714436837339134
0.9699471626930595
0.9736410154133373
0.9701170368824741
0.9494143814712438
0.9502452257351747
0.9519199928566338
0.9792601706287475
0.9841384938132957
0.9716598227304539
0.9717094877590702
0.9480907561922024
0.9449126442365265
0.9649241016895712
0.9724245930247096
0.9701758267885711
0.9709618522298388
0.974335885577657
0.9663357969827744
0.976023730360311
0.9809821567302638
0.9624070567523959
0.962683611743336
0.9657309312503523
0.9637809907629468
0.9928182459526421
0.9932157754049034
0.9949329116761259
0.9934466045509008
0.9864750239672826
0.9864929162740167
0.9851657386863615
0.9866653697454819
0.9700324583802785
0.9687039130156456
0.9739501861613133
0.9659860223948542
0.9641646286717038
0.987123957516519
0.9883181597252685
0.9912081726476016
0.9934109211912152
0.9791307660477102
0.948365640808813
0.9519419453858399
0.952504869636751
0.9533705725336872
0.9534548741411044
0.9510136355126527
0.9531621588537446
0.950474781157408
0.9529867711208598
0.9500667175970848
0.9854527230909402
0.9611757240408766
0.9908821889263377
0.9930187618034422
0.993108843229808
0.9927237405764177
0.9825668963964329
0.9709244981554443
0.9954052814297355
0.9702152232795145
0.9619197781569508
0.9699777597578155
0.9684229590288926
0.9785114274216234
0.9792368667671048
0.9828102826143534
0.9822921608212294
0.9433789416546989
0.9424513196108575
0.9426302268741161
0.9447563938433742
0.9422990178503614
0.989562635839803
0.9861028392636362
0.9839225776437641
0.9737931682176884
0.9775636374564557
0.9879093100292224
0.9894130685671663
0.9894861044009562
0.9734335974106272
0.9774593453640762
0.9568014600107596
0.9576906928554305
0.9529072413488776
0.9503956114036128
0.9472553945699305
0.9477199828604801
0.9516424553381492
0.949176816861703
0.9538846363453483
0.9520609851165089
0.9570425693178866
0.9489244991011562
0.982848489470126
0.9498497569229466
0.9547667175619189
0.9514608925192215
0.9757724815478823
0.9864100892819849
0.9839134704652378
0.9559271792660614
0.9517477544084327
0.9515290223244347
0.9679733599078726
0.9939616941063132
0.9695716174467142
0.9944620045132251
0.9631546579639241
0.9693973526597501
0.9671876472477904
0.967812274124659
0.9598641646937608
0.9655293865166095
0.9532141528066016
0.9875267013351857
0.988815384405473
0.9885650044723933
0.9897902498365634
0.9896065016525484
0.9894703497087112
0.9452173610556455
0.9465986178339827
0.9730602285273598
0.975322876137711
0.9536748807215933
0.9656888515506166
0.9637264231725775
0.9754562262632236
0.9965287621834921
0.9603729220765593
0.9622413774009944
0.9902737632885673
0.990687121274487
0.9827700705810177
0.9814964088191412
0.9814776468535757
0.9772343073920728
0.9529338797557686
0.9481944909536874
0.989561851923466
0.9825536457626634
0.9828388503910572
0.9390081440850935
0.9496662245098288
0.9514290295566449
0.9923977082170675
0.95104749459113
0.9503220699272127
0.9504070749110028
0.9496840661319957
0.9493391992328285
0.9499604621150715
0.9926757217240001
0.9924479020770898
0.9670634156671283
0.9830898831134346
0.9774094864959855
0.9766056623646605
0.9580192260439756
0.9548271052394133
0.9543826325700718
0.9586486204636167
0.9518860259826887
0.9440576429465666
0.9592586954023583
0.9585055014583586
0.9596485515164771
0.9574192716918953
0.9667811120625585
0.9688797575363004
0.9829596339968082
0.9524712530635677
0.9862047959137457
0.9703884864972082
0.9642545040482459
0.9544070471551164
0.9618708689220374
0.964464013126075
0.9853704316631816
0.9850490142621265
0.9520236495579396
0.950980007964915
0.9506749306726138
0.9513151555790398
0.9543729892884235
0.9489804217066576
0.9508361657572302
0.9916437517521995
0.9915158751125643
0.990191307210325
0.9926387465231675
0.9924492845132451
0.9971297435213681
0.9494609258816515
0.9501663254440567
0.9859876023974012
0.9400666207229861
0.9404249932506856
0.9420702805778439
0.9532495476665677
0.9470241263000952
0.9792938412547744
0.9800663156293986
0.9789266989775476
0.9799422280611217
0.9782731967972237
0.9810039103690728
0.9785202947274555
0.9678155970721963
0.9691589863795738
0.9498963766109115
0.9495684398777942
0.9560150017071944
0.9529178182393918
0.9475540534374539
0.9492873996408954
0.9563521421637904
0.982116313620941
0.9809201787821156
0.9835288938738614
0.9889077082647951
0.9878105970042012
0.9443120721583352
0.9611902206094765
0.992856604227607
0.9669227600808403
0.9881666624802223
0.9774734560270656
0.9775087406663099
0.9768260267013487
0.9772346299743547
0.9765476215157262
0.9770851930865814
0.9762605773055792
0.9768489742524971
0.9763590515314291
0.9778647934565066
0.9769481878605218
0.9925821865301033
0.9422237942243026
0.9653148387084202
0.964546877719987
0.9762217622805955
0.9649412006340465
0.9797400271166765
0.9838628940911311
0.9558237399358845
0.9527941849194042
0.9551689885040658
0.958430765540096
0.9702087737797884
0.9771049419771703
0.966535766430653
0.964286929267555
0.9519550316022002
0.9470854170715026
0.9564962153389679
0.9556139377828975
0.9476203994362533
0.9893275955467622
0.9893859597993904
0.9896405178872778
0.9891013479367721
0.9771389359829792
0.9846437361100031
0.9569256031050414
0.9802447461537018
0.9803732345758324
0.9671863646851953
0.9565515928170356
0.9727805405038912
0.9964852735155995
0.9977121594710752
0.9977838572890041
0.9988064773654336
0.9982747337617055
0.9975930745554535
0.995524780994887
0.9917834036505061
0.9636399631514933
0.9791123455143685
0.9469215080752116
0.9380544155010897
0.9392623763628393
0.9983706318226154
0.9991211283317544
0.9986983821345012
0.9731496648016107
0.9756758981258434
0.9761666198767535
0.9772538292637625
0.9596225411751135
0.9752345869587938
0.9880696735693826
0.9929658654990241
0.9939827793784702
0.9958996616265894
0.9933862196746697
0.9484820966080756
0.9688280843923697
0.9707265953747453
0.9734359109577941
0.9731722721892605
0.9899469893586462
0.9555100401602543
0.9532751994366927
0.94305840675359
0.9560688388066136
0.9560666980053829
0.9922474355608938
0.9932401119271805
0.9779829116362272
0.9447466101421289
0.9534945132589386
0.990293767339972
0.9897324730485594
0.9830912684872212
0.9761400971692946
0.9887903213676721
0.9912878543057714
0.9922977859438842
0.9613742191395296
0.9720304508401798
0.9829931238495928
0.9916815347732049
0.9659107237149319
0.9720920825905534
0.9856444005646418
0.9801829006363272
0.9889214766784079
0.9605840276414415
0.9628066724769505
0.9509959826244748
0.9452325028128209
0.9910936713939265
0.9528151507842718
0.9874292227299886
0.9822860866009099
0.9972099151618511
0.9967529664078899
0.9891370688837813
0.9841168895493507
0.9544686167134626
0.9768098585323223
0.9827622143728815
0.9624121332321964
0.9607930314987178
0.9618235167577401
0.9406629632825169
0.9398478032931047
0.9632360254861845
0.964770760317134
0.9983802261663369
0.9516313691510139
0.9501563208971346
0.9503899540459605
0.9925896261602339
0.9734051153736554
0.9793029141282218
0.9671233461151661
0.9715006680544043
0.9654122324952674
0.9613939144298539
0.9633603081788724
0.970506391447472
0.968124567372433
0.9658559532768503
0.9635229668300868
0.9662648663110136
0.9568669680710257
0.9891704784488407
0.9727323165121267
0.9767896264572802
0.9928610392845093
0.959275884065866
0.9688753522930875
0.963959863840045
0.9646999979416913
0.9619694617211534
0.9589924785003644
0.9563082453762157
0.9499954465535685
0.9490159418553247
0.9480505910085926
0.9477730710931748
0.9485296046414342
0.9469102048526444
0.9483603059268015
0.9646068071714171
0.9469311309801395
0.9486141639402319
0.9560767125232925
0.9419111351574897
0.9500388360967376
0.946708922874616
0.9923479344466566
0.9924131762899474
0.9833367131591838
0.9847039015378932
0.9663314615569863
0.955955652356154
0.9459805296174212
0.9444360505455647
0.9276658337731056
0.9244310313876487
0.8904413589953332
0.8937951064583924
0.8606510028780826
0.8751523276797036
0.8569945943216646
0.8725225740181602
0.8667814360477707
0.8789925007337138
0.8807399270527825
0.887639926471236
0.8933427772428316
0.895660399761198
0.9028390496578471
0.9051042474711191
0.9124230016044699
0.9134404182144884
0.9205301778784095
0.9207239788533919
0.9276415448020541
0.9274851250019217
0.9212918046544988
0.9276869976361656
0.9352975380365782
0.9007161509919837
0.930206062506427
0.9155471645020451
0.9007801091510029
0.8908146912146029
0.9228739241523345
0.9285529923792166
0.9333749005265713
0.9337708301375194
0.8904250075890341
0.8582850068011535
0.9164962906602235
0.8462594234070477
0.9383546226681815
0.9384815485344533
0.9341069243353675
0.9192658826596497
0.913222929997561
0.9388172339658246
0.9434643988694321
0.9451160855248073
0.9286265499273179
0.922133146537165
0.9386231402203895
0.9352207597133981
0.9309498351998315
0.9325620913680333
0.9878643975000927
0.9852869711056375
0.972662020475574
0.988954327459167
0.9900222004678438
0.9656339597151546
0.9656746263007431
0.962692723623844
0.9836293067972526
0.9427960095336926
0.961601391103876
0.9602933121345826
0.9601693049987513
0.9833757904199929
0.9757498262016582
0.9686083086386322
0.9674794121774751
0.9864486218112692
0.9862467014655049
0.9866440209330837
0.9848703984592059
0.9873513044661717
0.9757752081168964
0.9763954518051453
0.977006482079985
0.9687293619346055
0.9715212261162715
0.9706101011341953
0.9730390148999665
0.9724122961818481
0.9744325561147817
0.9740707379637025
0.9760559412107908
0.9762539892378173
0.9772954450758587
0.9813473334093271
0.9801769063227991
0.9794660983196407
0.9792950121206306
0.9520710342445862
0.948499123813771
0.9488599249744452
0.9493886109209843
0.9482616831559657
0.9779881440431111
0.9845702093970575
0.9864985074599324
0.9738376505977268
0.9770407424093487
0.977147873261718
0.9324171864712072
0.9635263340274455
0.94918822585338
0.9477536558167586
0.9575545548456589
0.9565961274248062
0.9548854578261572
0.9559680115025881
0.9544032749526558
0.9550964228696922
0.956803739971362
0.9774302056122303
0.9455446398216713
0.9500338329631293
0.9485266145344569
0.9798551866735159
0.9834512324893024
0.9921507239584703
0.9925352302178787
0.9920678739461205
0.9634006641418754
0.971284012686046
0.9611440590693782
0.9449637802860029
0.9445475921853619
0.9472544397379029
0.9261830674799064
0.9305384369214368
0.990553879324618
0.9932998958429934
0.9733000872512535
0.9732544453690025
0.9731771525879125
0.9960427086559422
0.997141091150522
0.9974151154339113
0.948044151558622
0.9497624239146525
0.9529718152268888
0.9504622761902316
0.9498309568075076
0.9540216173865582
0.9571495807407546
0.9897548548403559
0.9475512780882898
0.947088421859786
0.9483390984346124
0.9474755397846369
0.9415628085855363
0.9407603524088823
0.9382706188827658
0.9989250972940212
0.965009023437932
0.9966296405266205
0.9970828352361492
0.9955492028239851
0.995308364481299
0.9943488418405705
0.9931154635471252
0.99159517041
0.9847550043767636
0.986381144718634
0.9844978323832512
0.9429330452275014
0.9554264217489065
0.9540622286419497
0.954256830724097
0.9707219753077487
0.9694313970404337
0.9418705300095126
0.9680997571996436
0.9788149384409659
0.9787522431221612
0.944586005713569
0.9416402161674124
0.9924616711834129
0.9530009664910372
0.9531185854728569
0.9901448271381105
0.9935752840800597
0.9153561252147967
0.9192651352628713
0.9443096933286746
0.9794441962618038
0.9917311770150176
0.9784904257196462
0.9598982818564784
0.9923533572882862
0.9603252330023245
0.9529932465718649
0.9462819869820059
0.9891665002674089
0.9661579679925368
0.9502222668355781
0.9772242320685813
0.9979372745616165
0.9992126234933896
0.9455901338020835
0.9925108596072607
0.9936549762764897
0.9727897136980707
0.9758667386252255
0.9706016292326161
0.9763862602322625
0.9801898392616767
0.9107038244921352
0.908811211555266
0.9452782083395895
0.9805469220614393
0.9761596737782713
0.9676012134197286
0.9993843160303362
0.9980034673590847
0.9459594211295925
0.9466086455658079
0.9377819080438514
0.9508147965126402
0.950830318703139
0.9888874913383836
0.9649991993141662
0.9697055398678088
0.9774433156085425
0.9928002114507083
0.9939149405318516
0.9506712151923562
0.9491953583376599
0.9737433213371621
0.9943708044662174
0.9756854228198053
0.9736284675472374
0.9423146537464283
0.998779216474578
0.9695794559193278
0.9181348818389143
0.9228990809106308
0.9379920967024076
0.9756118101662969
0.9511015289099978
0.9478982652986382
0.9545344110263632
0.9523574293231998
0.958181092640546
0.9562322068009472
0.9498547641532081
0.9528624724107059
0.9450054357799018
0.9501856304485867
0.9626281530029461
0.959000857233265
0.977304865399412
0.9644843222109171
0.8887142951581765
0.8021867934413774
0.8060977148854527
0.8881622436853506
0.8418602661460362
0.8339568484594724
0.8364989282064353
0.7985085683750207
0.9537046059703538
0.9534208618314094
0.9463054902277416
0.9544002169011904
0.958890445907956
0.9969246349678593
0.9960171861578816
0.9587157426492533
0.958541075678153
0.9586047446399629
0.9230631827504882
0.7693735238054273
0.9586253699284525
0.9554093971904186
0.9463361879345539
0.9538327698663978
0.9422190945318363
0.9634064194630547
0.9577445350156508
0.9021434839716554
0.9727961823396933
0.9806315363970496
0.9841007355507532
0.9640795521275308
0.9306501932031495
0.941230660119139
0.9532700985990801
0.9615879357750606
0.9980455787927023
0.9993250623819595
0.9628186613531527
0.9787814519532294
0.9827476512011608
0.9835740543589997
0.9850564072542417
0.96211070273906
0.9606477729275498
0.9591315063405865
0.9601112957612007
0.9791355564870698
0.9785416361246247
0.9853992537097901
0.9373890493963123
0.9490555884304557
0.8740454993396253
0.8908493711446687
0.9048243824993274
0.9161897935187465
0.9257909326109227
0.9036480724506127
0.9189185159048773
0.9352749712988883
0.9333977187390661
0.9642352629056282
0.9274317417474438
0.9349153300865283
0.9474982046694524
0.9786952703013125
0.979479656628511
0.8727528084719817
0.8871024055647271
0.9810235750721394
0.9966319331219686
0.9962140202992861
0.99557211353619
0.9951005434626263
0.9944926764198164
0.9936923410886306
0.9566649639356547
0.9596378265370398
0.9586481205381127
0.9626513367614781
0.9616588466295561
0.9651357960002545
0.9646192484226447
0.9657012155179344
0.9679858856933551
0.9614348940138836
0.9684703807352604
0.965086239977811
0.968004406980856
0.9689804869213992
0.9666921523937734
0.9607419197692844
0.9619532112154324
0.9546889724226792
0.9584517412772404
0.9837601913049911
0.9270727187714244
0.9536299287866478
0.9462482611183469
0.9456244177987423
0.984030101755687
0.9824623596318549
0.98156153297039
0.9806837740391408
0.9820564804955965
0.979375637070563
0.9784483306626339
0.9785264197742177
0.9781522095836686
0.9778432130955734
0.9476918392124484
0.9826769716399499
0.9592512386717568
0.9616012463251065
0.9632691458968347
0.9666236787701264
0.9698674912015852
0.9771568855660417
0.9493469069721694
0.9487274562128345
0.950084135500245
0.9505542673997219
0.950916550066963
0.923595976025917
0.9616441195146935
0.9448950770374132
0.9480246932906081
0.8659659429235291
0.9378362337481064
0.994754496082543
0.9821960031963265
0.9233633091840201
0.9677404728657126
0.9702650245573824
0.995879885560276
0.935360428449515
0.9367019310292137
0.9367102955116792
0.9368744821602665
0.9384439385785791
0.937543089468194
0.9389774760432794
0.9384515957606037
0.9599064080162187
0.9354751323207723
0.9368320353106894
0.936904814011441
0.9364140911632554
0.9886070906110096
0.998508831293543
0.9569034821648008
0.9278556510698965
0.9430034263205053
0.9572609661553998
0.9142362738118704
0.9054797868894703
0.9093876393945639
0.9066867502888346
0.8993431387488054
0.8968181383250876
0.8989058642420549
0.9172190634996685
0.9405081598576325
0.9148159880710682
0.9973015840241188
0.9374287941373728
0.9715598397334696
0.9470953580696426
0.9768673477758837
0.9729853167393737
0.9731348467117196
0.9616453114489392
0.9751149796657614
0.9757622497286252
0.9690752685856169
0.9668090690296945
0.9541392596164505
0.9460726679848666
0.9902472687479352
0.9904497827525404
0.9983323395252615
0.9355239762238612
0.9796659129424306
0.9749169863317951
0.987948446415328
0.9869951062978894
0.9413813498536262
0.96422072969368
0.9819721407115486
0.9514887546426904
0.9510735854955858
0.9482799799874089
0.9410447189656472
0.9776242687677705
0.9762067134482747
0.9333460937349144
0.9405434907428972
0.975714478122533
0.9835726445596784
0.9324935333818496
0.9593768315876954
0.9602464355414394
0.9626760997042257
0.9585829734332472
0.975817002370717
0.9484435238806449
0.9076435847862453
0.9836339253785049
0.9530027855008308
0.9890283960757006
0.963372223324233
0.959005799270857
0.959837916910821
0.9582260163039498
0.9565201672960774
0.955126399543771
0.9515240594755514
0.953435705941173
0.9496252969156929
0.9500318899250377
0.9336789088743794
0.9877689425166434
0.9852019685180121
0.9857929983602445
0.9835901136358095
0.9823113742573187
0.9823163360768544
0.9834769197821555
0.9790148956600435
0.947586528621539
0.9463440199101474
0.9491399438247943
0.983738761558993
0.9831683518173858
0.977436007349288
0.9609769795218216
0.966588767941414
0.9667999400946763
0.9675717018227384
0.969527191215378
0.9581723633175945
0.9511957049902081
0.95274998686556
0.9364394294410642
0.9369552660668874
0.9552607130919224
0.9589305521564226
0.9588742024655099
0.9568716655404397
0.9583230939198498
0.8919419750741177
0.860875495143354
0.9926752781512367
0.9924569801041597
0.9923093873980906
0.9934063053286746
0.9623017044639183
0.984281490291695
0.908652921788018
0.904608164745746
0.9270938021548727
0.9359846429003774
0.9396721996397827
0.9569239633178078
0.9559880301178898
0.9125357811048648
0.9565683030907807
0.9778839590768932
0.9964370870439504
0.9636322886819314
0.9672655637749915
0.9405964989916211
0.9954242781295226
0.9741529594020055
0.9744118246225729
0.9705040316635057
0.9559872153100089
0.9550379859646881
0.9538658223053931
0.9549056582575957
0.9364684030415916
0.9352096450671366
0.9358521149180531
0.994015672297281
0.990580252384296
0.9900309738616194
0.990459566116832
0.9895698448190061
0.990573486319582
0.9908709987165355
0.9921625435421552
0.9510462673808374
0.9148537416473308
0.9960627455153304
0.9928884342080473
0.9777192243243066
0.9899004581677268
0.9917268139474985
0.9903814245446728
0.9822468295294685
0.9815316503983855
0.9677598800712929
0.9522375898006926
0.9721329125048751
0.9961260486322157
0.9595908297037402
0.959970482870112
0.9615524370098301
0.9583806206883612
0.9608903967280479
0.9611701329821538
0.9598360590002432
0.9580826052696848
0.9856861763364527
0.960065661486318
0.970289068538315
0.9885107799014977
0.9846761728200318
0.9446332648007718
0.931818198361241
0.9518047251706524
0.9561135904780438
0.9469074796905895
0.9471687255239616
0.9503257303337194
0.984058710380856
0.9836493240175602
0.9860311401488324
0.982479025747353
0.9972447944485682
0.9428088982748857
0.9874658159445019
0.9643388871655053
0.983056742332171
0.9666952803483411
0.9425698972492422
0.9764681098917449
0.9517024883870485
0.968134877196677
0.9695267052312135
0.9643784982947171
0.9677220097225534
0.9845842174835459
0.9831467870870272
0.9849600948504609
0.9706711746166177
0.9746610860729332
0.9605860405543664
0.9771969560356861
0.977635941416906
0.950996518425596
0.963403125183457
0.9929879425296111
0.9826673453176099
0.9786053849071703
0.9783159075010807
0.9790763777740724
0.9784486564106232
0.9795783311491076
0.9800389429388985
0.9852043994951158
0.9694602945535318
0.96827470243434
0.9814927534368411
0.9644359736233392
0.9908621782444227
0.9730049598689381
0.9778657858378532
0.9948804467881034
0.9718803310733567
0.9433701152532656
0.9774737901763466
0.9510333452445883
0.8416809665873218
0.9944071124263205
0.9695714695133619
0.9508695602598627
0.9562020073356879
0.9442220309399649
0.9491769852321141
0.9399497666574043
0.9721328140411608
0.9824938525711436
0.9736311959698847
0.9590429104015707
0.9684388274399488
0.9713134527833136
0.9656883681860358
0.9687987056481562
0.9840122568620753
0.9525028802124081
0.98026682936954
0.9794162212176362
0.9794119608461822
0.9879001040298853
0.9688329474815687
0.945055389014742
0.9653710451341867
0.9529471010450036
0.9770378691903718
0.9559633225427273
0.9787119987189078
0.9704242038696682
0.9829818104620626
0.9756969123832332
0.9781896427480254
0.9888076285521638
0.9546169700059555
0.9025568565562359
0.9615375181627569
0.9758549136993911
0.9530805941881699
0.9582374543963446
0.9828790665778853
0.9586268013588534
0.9769148241197919
0.9770685474419909
0.9400066971681367
0.9907728424243932
0.9519904237031594
0.9617437661139763
0.9786107101400561
0.976745330300036
0.9890120417146928
0.9874783844422264
0.9817149914256422
0.9738484992136355
0.9943415930645679
0.9958038037986149
0.9883126965267452
0.987244813548984
0.9957462949513193
0.9936267736411916
0.9629909257228448
0.966361078421318
0.9945072678622314
0.9684108496268291
0.9639964979589413
0.9519071946505266
0.9895640214276322
0.989886768614112
0.9629594425972843
0.9849189251675454
0.9810649180073163
0.9597631997771953
0.9503758986825703
0.9700791331936993
0.9478858199748483
0.8865109751692838
0.9749423767317352
0.9814940164227122
0.9463225351842853
0.9459780554611084
0.9736998134415706
0.9651845088962573
0.9779211826010835
0.9656974758971998
0.9840524371206086
0.9263499137026151
0.8806006075422588
0.9354492975810992
0.9725962374375807
0.9754813836046666
0.9407028639339534
0.8370856160890066
0.9925416580509724
0.9899562742593606
0.9640894374524209
0.9878076054000747
0.9715616400275771
0.9882654891613051
0.988709589316485
0.9883206483749108
0.9618530919603472
0.9616686019995152
0.9928613763559253
0.9988160366471543
0.9880209096084499
0.9732715594191533
0.9910127389335711
0.9698412840196405
0.9659607150292637
0.9405387546255523
0.9452412286924263
0.9724516650218424
0.967445836895056
0.9861004010195965
0.947978983750704
0.9532851344648667
0.9921660064569932
0.9836109206351233
0.9826731676246147
0.9901829791901539
0.9800860922616407
0.9858996116301123
0.9966456491002351
0.969246255288619
0.8909527003784796
0.9745076438398651
0.99237803275542
0.9908264222472029
0.9606826082456997
0.9630650961628406
0.9507005603970956
0.9321301182593275
0.9883257806097155
0.955675682625273
0.9524684186606064
0.978369756809571
0.9537353788463768
0.9580428712790614
0.9405269005329807
0.9870834751015326
0.975882706020969
0.9880359595502618
0.9615222597259648
0.9980112115183454
0.9990776639684225
0.9617875293810982
0.9894528645949546
0.9876225561975694
0.9752466095661869
0.9576900132040429
0.9790429803111473
0.97740591384069
0.9798441215690046
0.983413125361549
0.9909464522872409
0.9433399706609836
0.9451214784981101
0.9469769376983623
0.95784538121218
0.9482577671620059
0.9596305212265707
0.9599839575098376
0.9968564812512356
0.9502726682435387
0.9566559963605434
0.9716820312858917
0.9863159035988925
0.97836058836845
0.9689616075519347
0.969553822038443
0.9930701483107846
0.9938271493986407
0.9469029743818221
0.9492212737808486
0.9931232395156575
0.99019744394635
0.993824932376104
0.9499555814795043
0.995885210447222
0.95298983590193
0.9919503012404499
0.9654944394174901
0.9969462579288357
0.9633261201200961
0.9534250225344346
0.9510780690386158
0.9668389746357313
0.9768348379315117
0.9675328422303233
0.9831554734075938
0.9768817206293099
0.9809650447040592
0.9873814775912583
0.9940157657115671
0.9277607836186919
0.9680238411555994
0.9556718883991103
0.9920362520009602
0.9652784131839881
0.9613755829045236
0.9353060923404118
0.9527117218755795
0.6441565244749603
0.9764350901571354
0.9509715178311591
0.9527571831977715
0.944585922035146
0.9883979894025904
0.9928375379117842
0.9519576017042755
0.9511714760347207
0.9930849931968768
0.9296974559699049
0.9763256459581593
0.9406523543665188
0.9588141696709126
0.9796124852302499
0.9836003826426303
0.9817527158367202
0.9446583105647712
0.9459789397909283
0.9514162799890032
0.9523843674576338
0.969162526429433
0.9886241632864304
0.9497259249038514
0.9465141239094623
0.9147351386176171
0.9802719584496292
0.9791589075417293
0.9433889887730644
0.9744024419190211
0.969914950003623
0.9707589721016415
0.9641111986758387
0.9767658681667566
0.9608055025368397
0.97572162096741
0.9704895512793349
0.9688162788957219
0.9766148005822863
0.8942112286569931
0.951454616546711
0.961659238897407
0.9789043548762437
0.9511703516500801
0.988560688619744
0.976435880775435
0.9609885187102779
0.9672486914179843
0.9665741316341949
0.9247123404759816
0.9817510391025945
0.9782164548411778
0.9767296607987772
0.9414168885904843
0.9490843140302091
0.8899360857040215
0.9635967631342032
0.9896980848040955
0.9484885068892497
0.9774369069726074
0.9570136435927791
0.9883579950705714
0.9222132298396167
0.9551348165658122
0.9423972272516475
0.9678093608697249
0.9599348339006563
0.9858772488100935
0.9837025474886686
0.9666375910618876
0.9561318018884843
0.9610569531402436
0.9468397451452174
0.9877063111648834
0.9849781795345132
0.9700948870120675
0.9664507889997465
0.9898228879693368
0.9761232766229837
0.950858710128755
0.9945094074206919
0.9510801231434213
0.9758705628969015
0.9516274403210422
0.9733651834269214
0.9754332431131821
0.9804740907995303
0.9688065898141988
0.9026406552809798
0.9308186462346227
0.9995262981247063
0.9993463696018464
0.9540519594816287
0.977807900665256
0.9571135420940414
0.970180462503155
0.9500950703389497
0.9557471762268234
0.979962070160891
0.9782066730616699
0.9590332823254031
0.9521201968930922
0.9489952017528561
0.9928510086814535
0.989124303337707
0.9508284946879615
0.9642615193621741
0.971850557497156
0.9444947119253003
0.9424595829769349
0.94345994199261
0.8471509706502799
0.9397977354225203
0.968964445284319
0.9600009623177828
0.9912695140563915
0.9510430402529361
0.9950908202762785
0.9478043382666451
0.9549668481737764
0.9690725450720208
0.9530788803428817
0.9404778650957732
0.9454075494307519
0.9622173910498631
0.9815539981099096
0.9581802558755259
0.9936936744601588
0.9454160276744517
0.9651430002110598
0.967216325821112
0.9790623823780173
0.8122325293653587
0.9407606268936556
0.9539740402206172
0.950430255029188
0.955289784463972
0.9913165392118917
0.9628451106021277
0.9769727797852176
0.9704863989357689
0.982600136774431
0.9374634063879848
0.9576875600151548
0.941037612362557
0.9347398784002839
0.9850705346625473
0.9805848591045782
0.9452278043933249
0.9523191949405092
0.9399075262677633
0.9450738505817953
0.9580229583072872
0.9673088706679253
0.9396513697493984
0.9708585506604339
0.9720704223927823
0.991004130777605
0.9924115232413937
0.8996165589938816
0.975814079790941
0.973149234903839
0.9292158443522622
0.9916102275337886
0.9691308487616007
0.977097985868433
0.9801712167982041
0.7919052392914019
0.9814833358761359
0.9962817341892906
0.9513437265993882
0.9954437580800454
0.9373428885992219
0.9916089425284831
0.9671371141508159
0.9682578503311469
0.951360644517411
0.8847973032025609
0.9082249589516868
0.9753737999335363
0.969751258810276
0.9501960151649239
0.9581878050720469
0.9596171508066119
0.9485420261219057
0.9919752697549489
0.981176080923457
0.9600470548841253
0.9932714233721683
0.9821205472761461
0.9514055359528046
0.9823648567976099
0.9870133901625032
0.9661985238439222
0.9522227938426149
0.9554650423015395
0.9463789328826634
0.9927775013432247
0.986681278888682
0.9569056162140762
0.943817496051425
0.9520529873506232
0.9785511618086608
0.966982236911437
0.9314627403871097
0.9451473710890472
0.9826253793570224
0.9895752007420499
0.9891516007505831
0.964796993981043
0.9930728850314093
0.9647721080034137
0.9673274362364174
0.9553580617299784
0.9185917553901687
0.9317614282914294
0.9422490441097663
0.9652507261152335
0.9610191612156395
0.9309646334234735
0.8556415097328299
0.952542376187849
0.9269271689607493
0.9782669788489898
0.9507085141670825
0.9519986009452458
0.9878920256549759
0.9491611734876781
0.9470630270146312
0.9771027352227395
0.9426715442670734
0.9381979897222013
0.8880584893967579
0.971449921373625
0.9946337184250872
0.9250106007881579
0.9670913874525361
0.9788296186444856
0.9833934543019335
0.9960660909223702
0.9856726818484771
0.9894160297535427
0.9887921684677906
0.9653849436653194
0.8929922128212399
0.9639727726652628
0.9691026963766641
0.9674969107564634
0.9996158674408068
0.9476683943973672
0.946038595829454
0.9603032276601049
0.9463135507143853
0.9664463245382791
0.9986641893016578
0.9995824678022903
0.9594661193809032
0.9522720095014507
0.971606180651515
0.9899349286979799
0.9956947240179228
0.9530961882965363
0.9632716705110235
0.9460359370232874
0.9627133530102443
0.9676424551824422
0.9580309313665627
0.9522363990571263
0.963567785645914
0.9521321110862602
0.9569210566217617
0.9789194799749846
0.9777559130148565
0.955038981080158
0.9355131364182894
0.9902332012562558
0.9809529345996708
0.9660055035534127
0.9551501453678103
0.9501678832193343
0.9048279822215498
0.9507351367576312
0.9756908009021765
0.918748152745727
0.9770810457696852
0.9753451976174947
0.9847271935430162
0.9430805768464925
0.9782650094013647
0.9786097111342918
0.9801033084208943
0.9401107803950417
0.9781784884719301
0.9590635259750246
0.9891372871823748
0.9564342553326697
0.9770194374662361
0.9994454965863774
0.9599523848054989
0.9762674180674725
0.9819820907290929
0.9462063984456094
0.9927994601967408
0.9784977155290843
0.9659214085107234
0.894720125058216
0.9958676343648271
0.9792056153997774
0.8717548029357809
0.9670773886231364
0.9926993159623914
0.9662338364493305
0.988784495579523
0.9533811378273092
0.9904564525266335
0.9517179297124958
0.9568756239905014
0.9056612466593519
0.9853238418276523
0.9861254980130274
0.9760961532513015
0.9903124529315355
0.9781190990372025
0.9644072624700936
0.9935701613273786
0.9913211376429266
0.952878205865502
0.9473474046749876
0.9860378777388253
0.9822805471236759
0.9942908980465291
0.8925981905122053
0.9646660718588898
0.9044568289460969
0.9473519228001921
0.9820361092300246
0.9387070023083255
0.9482904547234027
0.9779368900756865
0.9868463553627433
0.9382665000087155
0.938942066647333
0.986315712245132
0.9473707809895662
0.9533291073003921
0.9367872168920326
0.9680034084251338
0.9885426327537922
0.9375732294261048
0.9753676894860103
0.9003196894043127
0.9917970206603671
0.9647441255950511
0.9612912639028839
0.9570301977071268
0.9979406965056234
0.9728186628394473
0.9504130899112003
0.9607156324464369
0.9836590162974416
0.9624376605164543
0.9506668089558507
0.9734208096689984
0.9532509356569341
0.948867253099973
0.9903095514815078
0.9931496798178138
0.9937010108306064
0.9724184031377565
0.9679713060667806
0.962626076787712
0.9930789351409692
0.9955870487351276
0.9671848963338474
0.939088317426094
0.9737449635437502
0.9424786729944973
0.9619439530129282
0.9611172555574925
0.9843565359847636
0.9725189984070939
0.9492442185335256
0.9747364251886428
0.9863649846938017
0.9634088668913693
0.9780709633689394
0.9626069880857911
0.9842999848542139
0.956360349878352
0.9391779760348055
0.95484340532905
0.8519146742603911
0.9547528163440746
0.9610869578890274
0.9032096881004639
0.699065476652744
0.9350938150039754
0.9515688792412714
0.9261390631021575
0.9845142075272925
0.9627010024627229
0.9991588134149718
0.9444577096531936
0.9524573543217789
0.9346716171459667
0.9926428009140587
0.9507226729471998
0.957111456615343
0.9615274228888526
0.9756423397287984
0.9101991581332154
0.9861612409954701
0.9598879227158617
0.9632755093382473
0.9632284567811966
0.9829097871043271
0.9967195950760118
0.945081726367757
0.94564305349977
0.9513546086069467
0.9411620912084928
0.9959606078254125
0.9805539280551057
0.9947164981939794
0.983231531159521
0.9652057098502796
0.9625951209162084
0.9336047020913407
0.9644338141880695
0.9409602705248896
0.9455884933633175
0.9578685533400763
0.9538443166641852
0.987899579067648
0.9451078669907166
0.9523906685861212
0.9489355117822588
0.9513071808992709
0.9806626064043017
0.9608961248449123
0.9474245654616855
0.9558854357294038
0.9993431488713311
0.9846483251966961
0.9619690647930349
0.9231892717220938
0.9691290124795245
0.9915163214099192
0.952902942614025
0.9608716743460387
0.9918136392727034
0.9590033008180893
0.976276852537856
0.929399856178872
0.9806312031548796
0.9933139106234392
0.9615169819466115
0.9995632820152114
0.9451057600621756
0.9955776807040466
0.8955636825046672
0.941984631937096
0.9069181073550613
0.978390243117207
0.978675519679901
0.8908021836762736
0.9826612910607085
0.9947382994262054
0.9995730486183675
0.9517664637538551
0.984380787197073
0.9786400763044456
0.9980896123050124
0.9645866861753141
0.7343525782452379
0.9620312954776153
0.9569317596460363
0.9946086583987506
0.9836862075982337
0.943208040288318
0.9758771232629284
0.9993075998217119
0.9373804391432422
0.9741221339298379
0.9360980588454527
0.9171993848089103
0.9959193555791861
0.9395316324617042
0.9900301469017473
CELL_DATA 4886
TENSORS stress float
-4.444670928364763e6 2.7040775955464486e6 0.0
2.7040775955464486e6 4.745426537775414e6 0.0
0.0 0.0 0.0

-5.068549666761411e6 5225.968782926804 0.0
5225.968782926804 2.152199390080893e6 0.0
0.0 0.0 0.0

-6.731413362906532e6 5.63010506171281e6 0.0
5.63010506171281e6 3.5640838683924843e6 0.0
0.0 0.0 0.0

-3.0252514819366736e6 7.309675067887755e6 0.0
7.309675067887755e6 1.6538943674823197e6 0.0
0.0 0.0 0.0

-4.81903151797925e6 8.39021408604451e6 0.0
8.39021408604451e6 1.6654192488139435e6 0.0
0.0 0.0 0.0

-235450.04248750437 295165.5131566486 0.0
295165.5131566486 -1.040914579826812e6 0.0
0.0 0.0 0.0

6.621478477140537e6 9.240930084938223e6 0.0
9.240930084938223e6 1.1890212763437051e6 0.0
0.0 0.0 0.0

1.3076300311865844e6 6.653371566464089e6 0.0
6.653371566464089e6 -6.321772748088901e6 0.0
0.0 0.0 0.0

-4.184703587678824e6 3.3478833993407567e6 0.0
3.3478833993407567e6 5.270242494857194e6 0.0
0.0 0.0 0.0

-1.1930589280509502e6 9.019326341725811e6 0.0
9.019326341725811e6 1.5075084464872014e6 0.0
0.0 0.0 0.0

-3.4200564672265905e6 7.316209345162933e6 0.0
7.316209345162933e6 253294.69112301478 0.0
0.0 0.0 0.0

-7.121486798265742e6 9.747633232811192e6 0.0
9.747633232811192e6 3.634837148800741e6 0.0
0.0 0.0 0.0

869023.0568101588 7.201832772281955e6 0.0
7.201832772281955e6 -5.832130844149825e6 0.0
0.0 0.0 0.0

1.1337009627327692e7 1.0622913647183444e7 0.0
1.0622913647183444e7 670367.5858968347 0.0
0.0 0.0 0.0

-3.6072219309398415e6 7.55197748400767e6 0.0
7.55197748400767e6 173362.4011571929 0.0
0.0 0.0 0.0

5.378936024357943e6 739687.0475397217 0.0
739687.0475397217 -6.468570037766247e6 0.0
0.0 0.0 0.0

-447549.77402109024 7.910715896836043e6 0.0
7.910715896836043e6 -4.1145972468659803e6 0.0
0.0 0.0 0.0

-308483.95830151415 7.420103637518512e6 0.0
7.420103637518512e6 -4.319950159089186e6 0.0
0.0 0.0 0.0

-446679.34824197623 2.84776102951111e6 0.0
2.84776102951111e6 -554757.6821984842 0.0
0.0 0.0 0.0

-4.355501517872857e6 8.885112509366782e6 0.0
8.885112509366782e6 420018.1713832547 0.0
0.0 0.0 0.0

-585082.2275804982 7.185134379301053e6 0.0
7.185134379301053e6 -2.891391904002929e6 0.0
0.0 0.0 0.0

-6.883622539205058e6 9.824534557125552e6 0.0
9.824534557125552e6 3.1223231936030365e6 0.0
0.0 0.0 0.0

-417633.3397587496 3.4057151705766e6 0.0
3.4057151705766e6 -874147.7411639927 0.0
0.0 0.0 0.0

-3.6279688728411645e6 8.3293511933295205e6 0.0
8.3293511933295205e6 94137.18891523476 0.0
0.0 0.0 0.0

290779.81973174843 7.322836024108626e6 0.0
7.322836024108626e6 -5.284308892907465e6 0.0
0.0 0.0 0.0

-3.5585043289994947e6 1.77655427126792e7 0.0
1.77655427126792e7 -1.7525828997871527e6 0.0
0.0 0.0 0.0

2.5823535911014583e6 9.120027501701519e6 0.0
9.120027501701519e6 2.6596918115186794e6 0.0
0.0 0.0 0.0

-3.96410521378788e6 3.7687003085822216e6 0.0
3.7687003085822216e6 3.156433507018674e6 0.0
0.0 0.0 0.0

5.978722769092206e6 1.0817644957355456e6 0.0
1.0817644957355456e6 -5.915668981998703e6 0.0
0.0 0.0 0.0

-366802.2578327951 1.6153885785866585e6 0.0
1.6153885785866585e6 -924515.4741701678 0.0
0.0 0.0 0.0

-651938.7604223841 3.497794198662639e6 0.0
3.497794198662639e6 -1.0110595088406826e6 0.0
0.0 0.0 0.0

-241214.54014272665 3.6856726294956375e6 0.0
3.6856726294956375e6 -1.4826560306250695e6 0.0
0.0 0.0 0.0

-715129.6816350841 7.470489673857529e6 0.0
7.470489673857529e6 111530.31867650253 0.0
0.0 0.0 0.0

-829351.0274534633 9.366933373432115e6 0.0
9.366933373432115e6 -299247.21586741606 0.0
0.0 0.0 0.0

-2.9825101722709173e6 7.723899231954134e6 0.0
7.723899231954134e6 712309.5672218732 0.0
0.0 0.0 0.0

-367441.62931891036 3.2557505375603377e6 0.0
3.2557505375603377e6 -1.3858907933520002e6 0.0
0.0 0.0 0.0

-1.528208305144588e6 5.371571749864742e6 0.0
5.371571749864742e6 -1.1334454383599479e6 0.0
0.0 0.0 0.0

-3.1002059741019453e6 7.823037270454569e6 0.0
7.823037270454569e6 523888.024324534 0.0
0.0 0.0 0.0

1679.3820257547777 7.617357285803496e6 0.0
7.617357285803496e6 -5.163218292221401e6 0.0
0.0 0.0 0.0

-5.014969901243725e6 8.92297963213651e6 0.0
8.92297963213651e6 2.075152536330417e6 0.0
0.0 0.0 0.0

788682.3044260133 7.233234400917765e6 0.0
7.233234400917765e6 -6.090253415606478e6 0.0
0.0 0.0 0.0

-6.681450003691759e6 5.598219143137569e6 0.0
5.598219143137569e6 4.437163509980878e6 0.0
0.0 0.0 0.0

-4.79611050306022e6 8.79358708552155e6 0.0
8.79358708552155e6 1.881173087993207e6 0.0
0.0 0.0 0.0

-648927.5235010411 2.9898388950643083e6 0.0
2.9898388950643083e6 -361205.43122091703 0.0
0.0 0.0 0.0

-728403.0197291331 7.230572987898011e6 0.0
7.230572987898011e6 -3.340884789270271e6 0.0
0.0 0.0 0.0

-3.7828481966497367e6 4.740935277019132e6 0.0
4.740935277019132e6 4.274476300160161e6 0.0
0.0 0.0 0.0

-1.903253076672587e6 9.888258140436023e6 0.0
9.888258140436023e6 -1.622925340262973e6 0.0
0.0 0.0 0.0

-1.4067721168010544e6 5.216014590622474e6 0.0
5.216014590622474e6 -1.4311363095143454e6 0.0
0.0 0.0 0.0

1.7277254320965288e6 6.256896874909966e6 0.0
6.256896874909966e6 -6.141306717249867e6 0.0
0.0 0.0 0.0

45017.78732281859 8.826037206246603e6 0.0
8.826037206246603e6 150059.39080878408 0.0
0.0 0.0 0.0

-5.167790329501683e6 8.664676763696507e6 0.0
8.664676763696507e6 2.099877152505937e6 0.0
0.0 0.0 0.0

-2.396797937497491e6 -533794.1060826385 0.0
-533794.1060826385 2.2200832031616503e6 0.0
0.0 0.0 0.0

1.6852736894426076e6 6.313913509492388e6 0.0
6.313913509492388e6 -6.903905048514657e6 0.0
0.0 0.0 0.0

-4.332560716717831e6 8.441856977734894e6 0.0
8.441856977734894e6 1.4157204525863777e6 0.0
0.0 0.0 0.0

-597880.8460583804 9.10041203574565e6 0.0
9.10041203574565e6 795439.3766589691 0.0
0.0 0.0 0.0

-3.1393940129563464e6 7.925581333418208e6 0.0
7.925581333418208e6 846696.7050530224 0.0
0.0 0.0 0.0

1.1732917462614556e6 6.62665610216613e6 0.0
6.62665610216613e6 -6.304826665016688e6 0.0
0.0 0.0 0.0

-5.265398459890487e6 8.890843253058638e6 0.0
8.890843253058638e6 2.306496032445061e6 0.0
0.0 0.0 0.0

-3.7386923517914885e6 1.0370438353345172e7 0.0
1.0370438353345172e7 4.38495322417182e6 0.0
0.0 0.0 0.0

-186922.4558201295 7.022825021954557e6 0.0
7.022825021954557e6 -3.799209703246021e6 0.0
0.0 0.0 0.0

-355722.4236873244 7.538229299803037e6 0.0
7.538229299803037e6 -3.8018706622952167e6 0.0
0.0 0.0 0.0

5.32130748060078e6 9.69429519008391e6 0.0
9.69429519008391e6 -8.053130169699844e6 0.0
0.0 0.0 0.0

-1.2897588076219405e6 8.18493748312067e6 0.0
8.18493748312067e6 745029.1385351524 0.0
0.0 0.0 0.0

-478559.2042793926 2.2519091818311727e6 0.0
2.2519091818311727e6 -737311.1562664902 0.0
0.0 0.0 0.0

-1.1789001765508614e6 4.201703123881851e6 0.0
4.201703123881851e6 -586379.04859232 0.0
0.0 0.0 0.0

1.109838287214658e6 6.02915562747255e6 0.0
6.02915562747255e6 -5.970171256383721e6 0.0
0.0 0.0 0.0

975462.9255014989 7.015404209181543e6 0.0
7.015404209181543e6 -5.934447411989059e6 0.0
0.0 0.0 0.0

-4.203017405001275e6 8.326290844945323e6 0.0
8.326290844945323e6 1.164729761297841e6 0.0
0.0 0.0 0.0

-3.371001599667832e6 9.17078625241926e6 0.0
9.17078625241926e6 3.5075452039358513e6 0.0
0.0 0.0 0.0

1.3906880440299541e6 9.333875686224887e6 0.0
9.333875686224887e6 3.3200530782732535e6 0.0
0.0 0.0 0.0

-878961.686842553 2.9415061622911952e6 0.0
2.9415061622911952e6 -307515.1591502858 0.0
0.0 0.0 0.0

350141.89776218124 7.254282755423383e6 0.0
7.254282755423383e6 -5.134338475663045e6 0.0
0.0 0.0 0.0

-111561.74615488481 7.598583832659963e6 0.0
7.598583832659963e6 -5.060477682864115e6 0.0
0.0 0.0 0.0

-5.044997142383453e6 1.1856854663327282e7 0.0
1.1856854663327282e7 7.535389584175244e6 0.0
0.0 0.0 0.0

-3.2027324616764635e6 6.697367673047576e6 0.0
6.697367673047576e6 1.945288075772976e6 0.0
0.0 0.0 0.0

-3.944114869946796e6 4.1895971837058603e6 0.0
4.1895971837058603e6 2.9620251210438674e6 0.0
0.0 0.0 0.0

-5.922061957857706e6 2.774971631586887e6 0.0
2.774971631586887e6 6.268401248353988e6 0.0
0.0 0.0 0.0

-386466.60981950804 7.952146404838424e6 0.0
7.952146404838424e6 -4.128641453741058e6 0.0
0.0 0.0 0.0

-481436.6913331244 8.659262821584085e6 0.0
8.659262821584085e6 -3.349341589491513e6 0.0
0.0 0.0 0.0

-1.1282423020883221e6 7.778998262863816e6 0.0
7.778998262863816e6 -2.697338270535096e6 0.0
0.0 0.0 0.0

13400.299018221442 1.323647137975361e7 0.0
1.323647137975361e7 -3.8162506739625265e6 0.0
0.0 0.0 0.0

-18843.99948295146 1.2290507268077973e6 0.0
1.2290507268077973e6 -450811.92574183235 0.0
0.0 0.0 0.0

205777.3291741236 8.443601440471759e6 0.0
8.443601440471759e6 -2.676576314509684e6 0.0
0.0 0.0 0.0

-7.912083530942654e6 1.0586746615952335e7 0.0
1.0586746615952335e7 3.6131989358087415e6 0.0
0.0 0.0 0.0

-3.0039089825516674e6 7.214925328499232e6 0.0
7.214925328499232e6 1.5295581907611133e6 0.0
0.0 0.0 0.0

160841.93597006332 6.844487131647393e6 0.0
6.844487131647393e6 -3.5632101928048795e6 0.0
0.0 0.0 0.0

-812034.496250249 3.2103419996231506e6 0.0
3.2103419996231506e6 -2.1124582693307637e6 0.0
0.0 0.0 0.0

-324483.44304386416 7.086811609091e6 0.0
7.086811609091e6 -47809.85047855573 0.0
0.0 0.0 0.0

-8.368233354670651e6 1.9835457424409896e7 0.0
1.9835457424409896e7 -5.013283394045072e6 0.0
0.0 0.0 0.0

-9.327879484596591e6 1.163985336897683e6 0.0
1.163985336897683e6 1.0987921819147069e7 0.0
0.0 0.0 0.0

-208118.71875062108 9.755098144530542e6 0.0
9.755098144530542e6 -2.867609479695637e6 0.0
0.0 0.0 0.0

-374635.2000517857 8.452987840870807e6 0.0
8.452987840870807e6 -3.591118609811834e6 0.0
0.0 0.0 0.0

-1.0474775590040386e6 4.968540175072366e6 0.0
4.968540175072366e6 -1.7076200497160768e6 0.0
0.0 0.0 0.0

-609292.9015110348 3.592741663575818e6 0.0
3.592741663575818e6 -1.3760249155562855e6 0.0
0.0 0.0 0.0

-342977.06091411377 1.1088508336967148e7 0.0
1.1088508336967148e7 -2.7831299259846928e6 0.0
0.0 0.0 0.0

-277043.3262678059 7.69617580004124e6 0.0
7.69617580004124e6 -4.578997963366808e6 0.0
0.0 0.0 0.0

1.3021163837069627e6 6.669881962720033e6 0.0
6.669881962720033e6 -6.143119911372163e6 0.0
0.0 0.0 0.0

-3.292359075708141e6 6.647550702637788e6 0.0
6.647550702637788e6 1.5846736908588537e6 0.0
0.0 0.0 0.0

339115.891354891 6.81836688018259e6 0.0
6.81836688018259e6 -5.0038104635477215e6 0.0
0.0 0.0 0.0

1.1153201029326338e6 6.589553033153772e6 0.0
6.589553033153772e6 -6.436185894615511e6 0.0
0.0 0.0 0.0

-1.8286461224283206e6 8.540058622275552e6 0.0
8.540058622275552e6 950125.3932302698 0.0
0.0 0.0 0.0

-2.5205091647536624e6 5.958786873537117e6 0.0
5.958786873537117e6 267085.89098617015 0.0
0.0 0.0 0.0

-682807.0649398861 3.464962731801862e6 0.0
3.464962731801862e6 -677098.7971007896 0.0
0.0 0.0 0.0

-4.804016141231228e6 8.662837489477733e6 0.0
8.662837489477733e6 1.8218554895131253e6 0.0
0.0 0.0 0.0

-963853.2556739121 5.048030570870806e6 0.0
5.048030570870806e6 -1.144240747647815e6 0.0
0.0 0.0 0.0

-991657.121421162 4.849009825789566e6 0.0
4.849009825789566e6 -1.0467150149834255e6 0.0
0.0 0.0 0.0

-408142.31340100936 1.3638314721545677e6 0.0
1.3638314721545677e6 -26155.818842139226 0.0
0.0 0.0 0.0

-1.2277367036649336e6 7.52516353878002e6 0.0
7.52516353878002e6 -2.4747618384806802e6 0.0
0.0 0.0 0.0

-6.660913408551503e6 9.742157383298919e6 0.0
9.742157383298919e6 3.185074817840687e6 0.0
0.0 0.0 0.0

-93409.0942535912 3.368144898667838e6 0.0
3.368144898667838e6 -1.2472152119362112e6 0.0
0.0 0.0 0.0

880857.9880239307 7.09883313352598e6 0.0
7.09883313352598e6 -6.187258135137026e6 0.0
0.0 0.0 0.0

-1.4255699911397751e6 5.471776691171662e6 0.0
5.471776691171662e6 -1.218128612075553e6 0.0
0.0 0.0 0.0

82358.30348921387 7.739869888007784e6 0.0
7.739869888007784e6 1.4869794143933936e6 0.0
0.0 0.0 0.0

3.923235624554551e6 1.001125873753109e7 0.0
1.001125873753109e7 2.4236740301791783e6 0.0
0.0 0.0 0.0

185006.93889603624 7.058089888239704e6 0.0
7.058089888239704e6 -4.100620077816793e6 0.0
0.0 0.0 0.0

-207861.03774408763 7.66211816541749e6 0.0
7.66211816541749e6 -5.094273321322737e6 0.0
0.0 0.0 0.0

265745.6664008722 7.081464051048417e6 0.0
7.081464051048417e6 -3.7218300562227834e6 0.0
0.0 0.0 0.0

477252.8958472577 6.712063241083174e6 0.0
6.712063241083174e6 -3.587724953164996e6 0.0
0.0 0.0 0.0

4.988801828454927e6 8.851541207744176e6 0.0
8.851541207744176e6 1.1828477833032082e6 0.0
0.0 0.0 0.0

-1.0378724007028772e7 8.305803107742285e6 0.0
8.305803107742285e6 6.046235764575937e6 0.0
0.0 0.0 0.0

-88619.17680260492 7.556901475546371e6 0.0
7.556901475546371e6 -4.850007112134933e6 0.0
0.0 0.0 0.0

-3.460046021700325e6 8.299281985814045e6 0.0
8.299281985814045e6 -83142.9080865886 0.0
0.0 0.0 0.0

1.3178892529693157e6 5.86437106475023e6 0.0
5.86437106475023e6 -4.81797775289852e6 0.0
0.0 0.0 0.0

-3.54601210990474e6 7.92327704024888e6 0.0
7.92327704024888e6 1.0419796883987205e6 0.0
0.0 0.0 0.0

-4.651122303125172e6 1.330753664658327e7 0.0
1.330753664658327e7 708727.9511448743 0.0
0.0 0.0 0.0

-5.864577883375086e6 3.0144402449957416e6 0.0
3.0144402449957416e6 6.6522668623954225e6 0.0
0.0 0.0 0.0

-1.0257434715473127e7 1.8407486044039916e7 0.0
1.8407486044039916e7 504807.85270910105 0.0
0.0 0.0 0.0

-745533.250610053 9.389438444468403e6 0.0
9.389438444468403e6 -302560.335326013 0.0
0.0 0.0 0.0

1.52785186596588e6 6.651633485007252e6 0.0
6.651633485007252e6 -6.272403307183789e6 0.0
0.0 0.0 0.0

6.221284644988159e6 7.940732766598868e6 0.0
7.940732766598868e6 -3.8982018296106965e6 0.0
0.0 0.0 0.0

-2.1026695224978738e6 8.321116954939209e6 0.0
8.321116954939209e6 927320.0385356812 0.0
0.0 0.0 0.0

719317.3979474416 6.434906586345524e6 0.0
6.434906586345524e6 -5.5565320899866875e6 0.0
0.0 0.0 0.0

-4.012868414762497e6 9.093051689439235e6 0.0
9.093051689439235e6 765106.8228313474 0.0
0.0 0.0 0.0

-639821.1175165962 9.826269084751006e6 0.0
9.826269084751006e6 -2.827194673870489e6 0.0
0.0 0.0 0.0

-1.271820703167001e6 7.556761985222408e6 0.0
7.556761985222408e6 -374262.6499110753 0.0
0.0 0.0 0.0

-255734.00122480467 8.678129144872949e6 0.0
8.678129144872949e6 -3.3245059200842064e6 0.0
0.0 0.0 0.0

118591.07876549172 7.375036827235208e6 0.0
7.375036827235208e6 1.8306902435194615e6 0.0
0.0 0.0 0.0

964748.1318698502 7.029071681632052e6 0.0
7.029071681632052e6 -6.863649241603583e6 0.0
0.0 0.0 0.0

-2.882806234209113e6 7.799761085212587e6 0.0
7.799761085212587e6 1.2792537346166058e6 0.0
0.0 0.0 0.0

-705947.6069488872 1.861808274226699e6 0.0
1.861808274226699e6 -544250.4429362868 0.0
0.0 0.0 0.0

-3.34403272056403e6 3.602518181352947e6 0.0
3.602518181352947e6 3.410290042276038e6 0.0
0.0 0.0 0.0

641864.8957818921 7.670471751398014e6 0.0
7.670471751398014e6 -3.2404875474967873e6 0.0
0.0 0.0 0.0

-1.491348873335835e6 954420.9045020828 0.0
954420.9045020828 2.5689184667737246e6 0.0
0.0 0.0 0.0

-884080.5040679347 8.387186061948358e6 0.0
8.387186061948358e6 -2.9356694304076764e6 0.0
0.0 0.0 0.0

-575138.1699006986 103593.50717320752 0.0
103593.50717320752 -1.300739854163673e6 0.0
0.0 0.0 0.0

-393052.6969976114 9.15457814001833e6 0.0
9.15457814001833e6 797480.4289658165 0.0
0.0 0.0 0.0

-4.699093009712111e6 8.844413978018837e6 0.0
8.844413978018837e6 1.9600137126689358e6 0.0
0.0 0.0 0.0

-3.194060347787793e6 657200.532007327 0.0
657200.532007327 2.7992318183361106e6 0.0
0.0 0.0 0.0

-1.4641703595624566e6 8.953581142278409e6 0.0
8.953581142278409e6 185102.46308207064 0.0
0.0 0.0 0.0

-189016.63777024718 1.1361965280123424e7 0.0
1.1361965280123424e7 -2.712036622686098e6 0.0
0.0 0.0 0.0

-3.9941238136661e6 8.163646955742351e6 0.0
8.163646955742351e6 959829.8934469398 0.0
0.0 0.0 0.0

-3.691593724915712e6 8.834795875814002e6 0.0
8.834795875814002e6 1.8190618703468847e6 0.0
0.0 0.0 0.0

-3.915436430008459e6 8.320303952815102e6 0.0
8.320303952815102e6 1.0704845392316207e6 0.0
0.0 0.0 0.0

-874246.6271862839 7.372545466645432e6 0.0
7.372545466645432e6 -4.1579355506466217e6 0.0
0.0 0.0 0.0

1.676233969499827e6 1.2428557437297868e7 0.0
1.2428557437297868e7 -6.49766800224603e6 0.0
0.0 0.0 0.0

-504880.9105011831 8.384234805895733e6 0.0
8.384234805895733e6 -3.6885931750041493e6 0.0
0.0 0.0 0.0

-2.4616618632591125e6 8.1905916563311e6 0.0
8.1905916563311e6 2.5889926240739496e6 0.0
0.0 0.0 0.0

-3.027006508616315e6 8.112105686009492e6 0.0
8.112105686009492e6 3.0805752531837206e6 0.0
0.0 0.0 0.0

-397012.93969764013 7.123199455790531e6 0.0
7.123199455790531e6 -3.4916515111096445e6 0.0
0.0 0.0 0.0

-689309.0748165483 4.705697748478266e6 0.0
4.705697748478266e6 -1.130162718584056e6 0.0
0.0 0.0 0.0

-6.655684738470756e6 9.180888021644158e6 0.0
9.180888021644158e6 3.3357537783757e6 0.0
0.0 0.0 0.0

-3.105855590762245e6 5.440205363165627e6 0.0
5.440205363165627e6 1.5838328340832756e6 0.0
0.0 0.0 0.0

-7.834680377204277e6 1.118457534365812e7 0.0
1.118457534365812e7 3.910775212303134e6 0.0
0.0 0.0 0.0

-989603.2836304309 8.339373229617186e6 0.0
8.339373229617186e6 -3.2462948869491336e6 0.0
0.0 0.0 0.0

-7.999916695362083e6 8.733787388499204e6 0.0
8.733787388499204e6 995821.1442566663 0.0
0.0 0.0 0.0

1.2791594882854861e6 6.718092983982517e6 0.0
6.718092983982517e6 -6.294477466847526e6 0.0
0.0 0.0 0.0

-4.813001238627559e6 1.4219084477686074e7 0.0
1.4219084477686074e7 1.0834730258775316e6 0.0
0.0 0.0 0.0

-7.876450952241273e6 7.034675578530864e6 0.0
7.034675578530864e6 4.353128538113536e6 0.0
0.0 0.0 0.0

-1.3105824049628468e6 8.944626504346311e6 0.0
8.944626504346311e6 1.2469887707271455e6 0.0
0.0 0.0 0.0

-1.0722420490711527e7 7.7221762231307095e6 0.0
7.7221762231307095e6 3.841314629638635e6 0.0
0.0 0.0 0.0

1.3893018759637694e6 6.7512132543022735e6 0.0
6.7512132543022735e6 -6.594289410288766e6 0.0
0.0 0.0 0.0

-2.924368623343426e6 5.4459252319925055e6 0.0
5.4459252319925055e6 2.245640406441224e6 0.0
0.0 0.0 0.0

-251263.77683872718 3.6175556607162203e6 0.0
3.6175556607162203e6 -1.5982167159819135e6 0.0
0.0 0.0 0.0

1.286147948974001e6 6.95515754743186e6 0.0
6.95515754743186e6 -4.1423724384551244e6 0.0
0.0 0.0 0.0

-820758.4661345452 9.801658584019788e6 0.0
9.801658584019788e6 -2.8456355645017186e6 0.0
0.0 0.0 0.0

-1.154128941345264e7 8.209718176814566e6 0.0
8.209718176814566e6 7.08049032298003e6 0.0
0.0 0.0 0.0

-5.521287365838436e6 -445274.32107763167 0.0
-445274.32107763167 4.428026716960644e6 0.0
0.0 0.0 0.0

-9.905061965215934e6 8.580716110936927e6 0.0
8.580716110936927e6 1.581453061171236e6 0.0
0.0 0.0 0.0

5.012218278889593e6 7.224147170968373e6 0.0
7.224147170968373e6 584003.706959248 0.0
0.0 0.0 0.0

27178.746199933812 8.572967077922374e6 0.0
8.572967077922374e6 -7.120768255463409e6 0.0
0.0 0.0 0.0

-598294.6788873773 8.921385139301194e6 0.0
8.921385139301194e6 -3.1984914459121665e6 0.0
0.0 0.0 0.0

-2.497165580302075e6 8.262958328820178e6 0.0
8.262958328820178e6 2.6224976672605732e6 0.0
0.0 0.0 0.0

-2.4250825482794736e6 1.0111285382302372e7 0.0
1.0111285382302372e7 -921348.2739783933 0.0
0.0 0.0 0.0

-4.9462279101167405e6 8.516296195274515e6 0.0
8.516296195274515e6 1.9040510534606392e6 0.0
0.0 0.0 0.0

-195985.68722900946 8.883035795225952e6 0.0
8.883035795225952e6 -318563.867353224 0.0
0.0 0.0 0.0

-7.6781426226597205e6 1.069495932021484e7 0.0
1.069495932021484e7 3.793106675096599e6 0.0
0.0 0.0 0.0

-390291.07025605306 3.371760784123209e6 0.0
3.371760784123209e6 -1.17419334330489e6 0.0
0.0 0.0 0.0

7.670639402234002e6 1.0361592552879624e7 0.0
1.0361592552879624e7 -6.060748863195303e6 0.0
0.0 0.0 0.0

-4.898400761526897e6 1.004719300013451e7 0.0
1.004719300013451e7 574831.9460351705 0.0
0.0 0.0 0.0

-230343.55499393924 8.683322277576968e6 0.0
8.683322277576968e6 -47068.385323289214 0.0
0.0 0.0 0.0

-3.3461118984975484e6 7.907512282820303e6 0.0
7.907512282820303e6 273812.7846354074 0.0
0.0 0.0 0.0

-8.165458296783008e6 4.556891784212669e6 0.0
4.556891784212669e6 8.75498790280592e6 0.0
0.0 0.0 0.0

-4.291097476220402e6 8.740981957256163e6 0.0
8.740981957256163e6 912961.7556950422 0.0
0.0 0.0 0.0

438450.18558247085 6.742071600203216e6 0.0
6.742071600203216e6 -4.930350451168895e6 0.0
0.0 0.0 0.0

-2.8262606550034704e6 7.3613107495937245e6 0.0
7.3613107495937245e6 274041.96274775476 0.0
0.0 0.0 0.0

-2.167876341821935e6 8.582124979021924e6 0.0
8.582124979021924e6 291010.04128606117 0.0
0.0 0.0 0.0

-280901.15400056564 2.8465763902408164e6 0.0
2.8465763902408164e6 -2.727327038574666e6 0.0
0.0 0.0 0.0

-3.027306069722692e6 7.581559520435686e6 0.0
7.581559520435686e6 1.3464484944132774e6 0.0
0.0 0.0 0.0

-8.572898857977327e6 706957.659463439 0.0
706957.659463439 1.1670434845236465e7 0.0
0.0 0.0 0.0

-1.1753686016734336e6 5.348944383848471e6 0.0
5.348944383848471e6 -1.0197800790802309e6 0.0
0.0 0.0 0.0

-5.358376113692936e6 5.092185428089126e6 0.0
5.092185428089126e6 3.9621605534682455e6 0.0
0.0 0.0 0.0

3.8581502325797793e6 9.490100493097903e6 0.0
9.490100493097903e6 1.1018160471356642e6 0.0
0.0 0.0 0.0

-269089.0032758375 7.427369596512721e6 0.0
7.427369596512721e6 -4.1674985163767356e6 0.0
0.0 0.0 0.0

792879.5651517804 6.409210559643778e6 0.0
6.409210559643778e6 -5.300095587156825e6 0.0
0.0 0.0 0.0

2.310623415801523e6 8.316136461108571e6 0.0
8.316136461108571e6 -3.1369871651968067e6 0.0
0.0 0.0 0.0

-4.139149949122285e6 2.784910845932636e6 0.0
2.784910845932636e6 5.786689836989301e6 0.0
0.0 0.0 0.0

-4.514551807338708e6 8.380069597881016e6 0.0
8.380069597881016e6 1.5607664932880504e6 0.0
0.0 0.0 0.0

-3.746385640543193e6 7.573717643156135e6 0.0
7.573717643156135e6 367625.58106334624 0.0
0.0 0.0 0.0

-3.61023965420821e6 8.133373805574113e6 0.0
8.133373805574113e6 -275729.57871216454 0.0
0.0 0.0 0.0

-483348.22623027896 8.82248271302089e6 0.0
8.82248271302089e6 -44059.99998748266 0.0
0.0 0.0 0.0

-452249.58552614774 3.5667381321258866e6 0.0
3.5667381321258866e6 -1.671904938456394e6 0.0
0.0 0.0 0.0

4.908599842832593e6 8.38549624484694e6 0.0
8.38549624484694e6 -3.5383300501943734e6 0.0
0.0 0.0 0.0

-142948.72782658355 8.957049405784493e6 0.0
8.957049405784493e6 -424986.3616950655 0.0
0.0 0.0 0.0

-6.242616704933665e6 9.162259154622033e6 0.0
9.162259154622033e6 2.8984693302831133e6 0.0
0.0 0.0 0.0

-1.2493549692921286e7 -197923.17117791474 0.0
-197923.17117791474 7.464682189683154e6 0.0
0.0 0.0 0.0

1.437665854627635e6 5.651805342326026e6 0.0
5.651805342326026e6 -5.367394831691168e6 0.0
0.0 0.0 0.0

-456146.5399668295 9.3604756464259e6 0.0
9.3604756464259e6 -319861.58036980656 0.0
0.0 0.0 0.0

-648272.6078447299 7.317126808502223e6 0.0
7.317126808502223e6 -4.065152395890126e6 0.0
0.0 0.0 0.0

-851495.8409015101 8.51656174615488e6 0.0
8.51656174615488e6 -3.373419871850697e6 0.0
0.0 0.0 0.0

-351812.2098523516 2.9323187700918145e6 0.0
2.9323187700918145e6 -429419.9550288878 0.0
0.0 0.0 0.0

-1.0695245903871546e6 7.767162084454401e6 0.0
7.767162084454401e6 -2.8783192264384786e6 0.0
0.0 0.0 0.0

-346270.3183737956 8.216813542960126e6 0.0
8.216813542960126e6 -5.161446082379195e6 0.0
0.0 0.0 0.0

-949136.4454546687 7.708541796020808e6 0.0
7.708541796020808e6 -3.0324023035054416e6 0.0
0.0 0.0 0.0

-897482.3948707576 1.0344519291873695e7 0.0
1.0344519291873695e7 -2.6205365476191174e6 0.0
0.0 0.0 0.0

1.937010026535898e6 9.478377739585133e6 0.0
9.478377739585133e6 2.8957392468459406e6 0.0
0.0 0.0 0.0

-5.7108283230150845e6 3.956090412387651e6 0.0
3.956090412387651e6 8.903768315552851e6 0.0
0.0 0.0 0.0

-3.4862292796459855e6 8.499907027257975e6 0.0
8.499907027257975e6 2.0482287931175814e6 0.0
0.0 0.0 0.0

-204305.92276607742 8.994266837272812e6 0.0
8.994266837272812e6 -709323.6614958032 0.0
0.0 0.0 0.0

-3.617790311117386e6 6.538747307921526e6 0.0
6.538747307921526e6 1.3972520503725887e6 0.0
0.0 0.0 0.0

2.271512825301105e6 9.301284233811984e6 0.0
9.301284233811984e6 2.352853045633868e6 0.0
0.0 0.0 0.0

-2.808230048746548e6 7.6273602515159855e6 0.0
7.6273602515159855e6 1.3393478162601702e6 0.0
0.0 0.0 0.0

427067.07390486985 8.92324574955931e6 0.0
8.92324574955931e6 -3.0306758017177694e6 0.0
0.0 0.0 0.0

-5.774591014843848e6 8.985005867010351e6 0.0
8.985005867010351e6 2.413767315286413e6 0.0
0.0 0.0 0.0

-2.4672892635082956e6 7.121529130982376e6 0.0
7.121529130982376e6 688304.6708213935 0.0
0.0 0.0 0.0

-1.0187212063108528e7 -6.184439944824452e6 0.0
-6.184439944824452e6 2.329777811745294e7 0.0
0.0 0.0 0.0

-2.0430565355756842e6 9.957401952593196e6 0.0
9.957401952593196e6 -2.061150780591301e6 0.0
0.0 0.0 0.0

-5.0404586897518905e6 8.86128168476709e6 0.0
8.86128168476709e6 2.1049105162329264e6 0.0
0.0 0.0 0.0

157490.16648631892 4.690996802511161e6 0.0
4.690996802511161e6 -1.0513666552249072e6 0.0
0.0 0.0 0.0

-3.194648884208413e6 4.1173127334449724e6 0.0
4.1173127334449724e6 3.7261792049970496e6 0.0
0.0 0.0 0.0

-1.947493708120836e6 5.269759846154966e6 0.0
5.269759846154966e6 1.395715929230086e6 0.0
0.0 0.0 0.0

570435.4041772496 6.579853550339195e6 0.0
6.579853550339195e6 -4.225628813055364e6 0.0
0.0 0.0 0.0

-7.147871194674835e6 9.224602187407294e6 0.0
9.224602187407294e6 3.5899523178893495e6 0.0
0.0 0.0 0.0

-996501.3318579735 7.711595835960121e6 0.0
7.711595835960121e6 -2.5777185314581995e6 0.0
0.0 0.0 0.0

-2.931503364042023e6 5.274522269432252e6 0.0
5.274522269432252e6 2.36293739561115e6 0.0
0.0 0.0 0.0

1.1397879755017832e6 6.920750716744497e6 0.0
6.920750716744497e6 -6.353632380729387e6 0.0
0.0 0.0 0.0

-5.800438150657636e6 9.033582853813978e6 0.0
9.033582853813978e6 2.873813443576967e6 0.0
0.0 0.0 0.0

-1.0326332894963652e6 7.507275851090463e6 0.0
7.507275851090463e6 -4.487762038473013e6 0.0
0.0 0.0 0.0

490336.9425350252 551503.0312291946 0.0
551503.0312291946 -1.5501915602225862e6 0.0
0.0 0.0 0.0

-1.0670150675370498e6 4.980989504592428e6 0.0
4.980989504592428e6 -1.1192139048212958e6 0.0
0.0 0.0 0.0

-9.410087646155927e6 7.140935436657919e6 0.0
7.140935436657919e6 4.417315996268536e6 0.0
0.0 0.0 0.0

-220484.23602585914 8.75455526571419e6 0.0
8.75455526571419e6 264904.15362845163 0.0
0.0 0.0 0.0

-9.18332001864604e6 8.725613395604033e6 0.0
8.725613395604033e6 5.279535692923883e6 0.0
0.0 0.0 0.0

-819867.3006396152 2.7295319817090775e6 0.0
2.7295319817090775e6 -43605.68171781773 0.0
0.0 0.0 0.0

1.0275525028265612e6 7.535895674749541e6 0.0
7.535895674749541e6 -6.357859406867147e6 0.0
0.0 0.0 0.0

1.269134307616539e7 8.882283356501978e6 0.0
8.882283356501978e6 -8.897093923223872e6 0.0
0.0 0.0 0.0

-4.762472547452707e6 8.514491390450029e6 0.0
8.514491390450029e6 1.771131915617584e6 0.0
0.0 0.0 0.0

-4.1400998956246506e6 8.238011526490287e6 0.0
8.238011526490287e6 1.7968060232617594e6 0.0
0.0 0.0 0.0

-3.601018866497451e6 8.285652585772316e6 0.0
8.285652585772316e6 935610.9913906807 0.0
0.0 0.0 0.0

-4.431382899599691e6 1.1118910926318815e7 0.0
1.1118910926318815e7 9.700405660565171e6 0.0
0.0 0.0 0.0

999039.6564138713 6.064890497280351e6 0.0
6.064890497280351e6 -5.117426549793653e6 0.0
0.0 0.0 0.0

-1.6771557900165392e6 5.313590329341512e6 0.0
5.313590329341512e6 -1.0040868045559361e6 0.0
0.0 0.0 0.0

-6.355723423678647e6 1.3199901918491576e7 0.0
1.3199901918491576e7 1.0387877009715056e6 0.0
0.0 0.0 0.0

294834.99869152904 7.007986261929594e6 0.0
7.007986261929594e6 -5.398085752420794e6 0.0
0.0 0.0 0.0

-6.850651211985368e6 -318269.4935121612 0.0
-318269.4935121612 5.3271729309738185e6 0.0
0.0 0.0 0.0

-2.4819632952761035e6 8.280180376065562e6 0.0
8.280180376065562e6 143673.7908638824 0.0
0.0 0.0 0.0

-611221.2512107929 6.7329957567350045e6 0.0
6.7329957567350045e6 -1.8276524634624587e6 0.0
0.0 0.0 0.0

-854940.9763955665 7.665057112469116e6 0.0
7.665057112469116e6 -2.7057228336932687e6 0.0
0.0 0.0 0.0

-2.6447229654297032e6 9.804673201603713e6 0.0
9.804673201603713e6 4.1906970117674535e6 0.0
0.0 0.0 0.0

-3.7213138653580192e6 1.3828545065271346e7 0.0
1.3828545065271346e7 -264236.35085060657 0.0
0.0 0.0 0.0

-6.200868179239467e6 -4.479081204717671e6 0.0
-4.479081204717671e6 3.980115396445343e6 0.0
0.0 0.0 0.0

951221.765991396 1.7519201824119642e7 0.0
1.7519201824119642e7 -5.007217251012529e6 0.0
0.0 0.0 0.0

-5.399344516844845e6 1.449729114191116e7 0.0
1.449729114191116e7 -1.2992223413620442e6 0.0
0.0 0.0 0.0

1.8834114561833604e6 5.287259638933737e6 0.0
5.287259638933737e6 -3.827175184829567e6 0.0
0.0 0.0 0.0

-4.713504676591499e6 8.859010788296288e6 0.0
8.859010788296288e6 1.9004526373297933e6 0.0
0.0 0.0 0.0

4.060991952585796e6 8.865450950620389e6 0.0
8.865450950620389e6 981217.97001304 0.0
0.0 0.0 0.0

-9.903992548895951e6 371854.17498319375 0.0
371854.17498319375 1.36086813320119e7 0.0
0.0 0.0 0.0

-2.321537104747966e6 9.753480487039126e6 0.0
9.753480487039126e6 -1.7988141608848763e6 0.0
0.0 0.0 0.0

689421.3287576598 9.52044492429033e6 0.0
9.52044492429033e6 3.0584078784275358e6 0.0
0.0 0.0 0.0

-593856.7268774828 9.977729362989966e6 0.0
9.977729362989966e6 -2.684465013678393e6 0.0
0.0 0.0 0.0

1.1660217757085927e6 6.074261996257648e6 0.0
6.074261996257648e6 -5.493014504270842e6 0.0
0.0 0.0 0.0

-4.848023241431753e6 8.389427376441834e6 0.0
8.389427376441834e6 1.760880930833851e6 0.0
0.0 0.0 0.0

-560848.8852129396 7.497051535043797e6 0.0
7.497051535043797e6 -4.0316442252546726e6 0.0
0.0 0.0 0.0

-5.425550902728092e6 1.0408381086128201e7 0.0
1.0408381086128201e7 1.5355890162860896e6 0.0
0.0 0.0 0.0

-9.328134423661785e6 2.5962429765060777e6 0.0
2.5962429765060777e6 1.5102900350984598e7 0.0
0.0 0.0 0.0

-325069.14850999473 8.423039236501113e6 0.0
8.423039236501113e6 -3.500022130591255e6 0.0
0.0 0.0 0.0

-212428.5267538319 7.02340405414791e6 0.0
7.02340405414791e6 -3.8991922939004637e6 0.0
0.0 0.0 0.0

-1.0223030104959655e6 1.1476571794319639e7 0.0
1.1476571794319639e7 -2.255190336878451e6 0.0
0.0 0.0 0.0

-504881.2244543745 7.528041537349806e6 0.0
7.528041537349806e6 -3.797708019483826e6 0.0
0.0 0.0 0.0

-7.436290617377214e6 -332087.2953081915 0.0
-332087.2953081915 9.822154357585592e6 0.0
0.0 0.0 0.0

-5.61774119901721e6 9.388309407635339e6 0.0
9.388309407635339e6 9.703206260327006e6 0.0
0.0 0.0 0.0

606064.803227321 7.154223373986893e6 0.0
7.154223373986893e6 -5.591276978555875e6 0.0
0.0 0.0 0.0

-4.806222495906458e6 1.0269181073413057e7 0.0
1.0269181073413057e7 1.3218337376978635e6 0.0
0.0 0.0 0.0

-2.3780006744066244e6 8.218553334895772e6 0.0
8.218553334895772e6 3.0367061887878263e6 0.0
0.0 0.0 0.0

48507.25070441351 6.877367505250742e6 0.0
6.877367505250742e6 -4.072845774901094e6 0.0
0.0 0.0 0.0

5.369502181060761e6 8.859371130402e6 0.0
8.859371130402e6 1.8713414283080688e6 0.0
0.0 0.0 0.0

-4.678452315155491e6 9.884582127807397e6 0.0
9.884582127807397e6 1.3476770302863389e6 0.0
0.0 0.0 0.0

-55770.08280292593 2.586684174024527e6 0.0
2.586684174024527e6 -600867.1407485735 0.0
0.0 0.0 0.0

-7.878087582549995e6 -63870.03289315193 0.0
-63870.03289315193 8.495540654105376e6 0.0
0.0 0.0 0.0

738051.2771111834 5.309001704592621e6 0.0
5.309001704592621e6 -4.31973697314622e6 0.0
0.0 0.0 0.0

-3.241840411422331e6 8.136801758432749e6 0.0
8.136801758432749e6 808729.9544810823 0.0
0.0 0.0 0.0

-1.1571515432979912e6 8.888748113178808e6 0.0
8.888748113178808e6 -78822.42699703359 0.0
0.0 0.0 0.0

-2.6438068373460933e6 1.0291087265410388e7 0.0
1.0291087265410388e7 -1.4077574504315928e6 0.0
0.0 0.0 0.0

-200891.9972156872 3.154948975365841e6 0.0
3.154948975365841e6 -762981.9004621516 0.0
0.0 0.0 0.0

-3.4401964641603203e6 8.0368063971768245e6 0.0
8.0368063971768245e6 255207.4154705184 0.0
0.0 0.0 0.0

-7.52335283382714e6 -905819.0107292577 0.0
-905819.0107292577 7.997192189907343e6 0.0
0.0 0.0 0.0

2.3147600857747975e6 7.785511540601297e6 0.0
7.785511540601297e6 -1.8247312637516065e6 0.0
0.0 0.0 0.0

429834.2166928258 7.370951509674628e6 0.0
7.370951509674628e6 -5.421361085205439e6 0.0
0.0 0.0 0.0

750859.0093101256 7.18413244695552e6 0.0
7.18413244695552e6 -5.725059498117519e6 0.0
0.0 0.0 0.0

-3.75561825157901e6 4.0933013810724937e6 0.0
4.0933013810724937e6 4.43106519980233e6 0.0
0.0 0.0 0.0

-2.5492138779462827e6 7.963364690746105e6 0.0
7.963364690746105e6 -321649.1106160799 0.0
0.0 0.0 0.0

-659065.5516237745 2.975710562488402e6 0.0
2.975710562488402e6 -347696.04390379536 0.0
0.0 0.0 0.0

-180908.32263926498 8.426922365409058e6 0.0
8.426922365409058e6 -3.494603895303426e6 0.0
0.0 0.0 0.0

-3.8360250403824467e6 8.011917356161262e6 0.0
8.011917356161262e6 1.7767656598728886e6 0.0
0.0 0.0 0.0

-2.2256700235540923e6 1.1397391625707086e7 0.0
1.1397391625707086e7 5.040332019882961e6 0.0
0.0 0.0 0.0

527117.296967502 1.1520629530748416e7 0.0
1.1520629530748416e7 -3.2834517020480162e6 0.0
0.0 0.0 0.0

-8.589577805442555e6 -7.3971257009281805e6 0.0
-7.3971257009281805e6 1.9871627067726433e7 0.0
0.0 0.0 0.0

-7.896170803963167e6 2.1631341339914454e6 0.0
2.1631341339914454e6 1.1136728481300384e7 0.0
0.0 0.0 0.0

-2.0413658391179487e6 4.1394699036416975e6 0.0
4.1394699036416975e6 1.270279869673465e6 0.0
0.0 0.0 0.0

-1.033839408915853e6 7.025889764118906e6 0.0
7.025889764118906e6 -281155.8427561227 0.0
0.0 0.0 0.0

-232249.3528067915 2.8456429539799714e6 0.0
2.8456429539799714e6 -1.1460740232474233e6 0.0
0.0 0.0 0.0

-5.5447234747607475e6 4.0345137861891617e6 0.0
4.0345137861891617e6 2.6327128115583863e6 0.0
0.0 0.0 0.0

1.0035796410741406e6 6.255396188339029e6 0.0
6.255396188339029e6 -4.802284783686734e6 0.0
0.0 0.0 0.0

-295965.5134930059 7.851391898268465e6 0.0
7.851391898268465e6 -5.120813483815003e6 0.0
0.0 0.0 0.0

-285623.2121318184 9.138522962018955e6 0.0
9.138522962018955e6 -455618.1819466684 0.0
0.0 0.0 0.0

-1.881857263297231e6 1.4153595664851634e7 0.0
1.4153595664851634e7 -4.479195810972317e6 0.0
0.0 0.0 0.0

-449384.3406324432 1.031072044256309e7 0.0
1.031072044256309e7 -2.6741203802305222e6 0.0
0.0 0.0 0.0

-7.896463796850209e6 9.096143491065353e6 0.0
9.096143491065353e6 728477.695190195 0.0
0.0 0.0 0.0

-5.228267517812514e6 8.606427344431521e6 0.0
8.606427344431521e6 1.9478541402337512e6 0.0
0.0 0.0 0.0

-1.2344132767840242e6 4.5107612509786235e6 0.0
4.5107612509786235e6 -1.112535918860971e6 0.0
0.0 0.0 0.0

-1.0097029574778214e7 8.90599729807988e6 0.0
8.90599729807988e6 5.675400713800428e6 0.0
0.0 0.0 0.0

-2.941909485979552e6 8.099411595445653e6 0.0
8.099411595445653e6 -121518.13931002212 0.0
0.0 0.0 0.0

-734469.0140760958 3.4051150430834275e6 0.0
3.4051150430834275e6 -872799.6857029827 0.0
0.0 0.0 0.0

-2.8929860190640152e6 7.960103801198904e6 0.0
7.960103801198904e6 -95725.80964325229 0.0
0.0 0.0 0.0

-80873.83194992383 4.897022791129261e6 0.0
4.897022791129261e6 -1.5489924723702238e6 0.0
0.0 0.0 0.0

-1.1785648196797133e6 4.276089572901651e6 0.0
4.276089572901651e6 -1.2523366862756496e6 0.0
0.0 0.0 0.0

179738.3474205432 7.257870008073542e6 0.0
7.257870008073542e6 -4.843023420307494e6 0.0
0.0 0.0 0.0

-4.261603160346762e6 9.406489772784175e6 0.0
9.406489772784175e6 1.2069445871155846e6 0.0
0.0 0.0 0.0

-2.3528747397032343e6 8.227347858541992e6 0.0
8.227347858541992e6 2.389199242127648e6 0.0
0.0 0.0 0.0

-864821.8845408121 9.02545851848581e6 0.0
9.02545851848581e6 -375854.2633325311 0.0
0.0 0.0 0.0

-43424.848364768375 -195883.7561606096 0.0
-195883.7561606096 -1.643944296231539e6 0.0
0.0 0.0 0.0

-4.550016977531625e6 8.169995019622397e6 0.0
8.169995019622397e6 1.0600622753011307e6 0.0
0.0 0.0 0.0

-5.77857990608418e6 9.050241874407751e6 0.0
9.050241874407751e6 2.300140069968965e6 0.0
0.0 0.0 0.0

-1.0616130315984967e6 1.1579767082485264e7 0.0
1.1579767082485264e7 -2.3896337449151915e6 0.0
0.0 0.0 0.0

-1.0577293129967558e6 3.626543405360736e6 0.0
3.626543405360736e6 -435534.16111270944 0.0
0.0 0.0 0.0

-463808.9985939936 8.116142505931971e6 0.0
8.116142505931971e6 -3.997697609799099e6 0.0
0.0 0.0 0.0

-6.414610106137661e6 9.009150429204343e6 0.0
9.009150429204343e6 3.4035715643801764e6 0.0
0.0 0.0 0.0

-6.065078785900255e6 9.069694747623118e6 0.0
9.069694747623118e6 3.0619491121731834e6 0.0
0.0 0.0 0.0

-180376.46155989403 7.554589227993348e6 0.0
7.554589227993348e6 -4.694786911759149e6 0.0
0.0 0.0 0.0

-595650.7760540007 7.596925650554883e6 0.0
7.596925650554883e6 -3.8986055130453184e6 0.0
0.0 0.0 0.0

-433829.80272403156 9.28698011079505e6 0.0
9.28698011079505e6 -385084.2755431159 0.0
0.0 0.0 0.0

180365.80830391264 6.880199809416181e6 0.0
6.880199809416181e6 -4.725205883815978e6 0.0
0.0 0.0 0.0

-5.402039213306282e6 3.458252424875393e6 0.0
3.458252424875393e6 7.25697803046817e6 0.0
0.0 0.0 0.0

761443.5646522436 8.111029764041303e6 0.0
8.111029764041303e6 -6.176846023884747e6 0.0
0.0 0.0 0.0

-7.210288153857141e6 1.5083222879396431e7 0.0
1.5083222879396431e7 21072.34679428814 0.0
0.0 0.0 0.0

-1.0673491022963286e6 9.86676352081395e6 0.0
9.86676352081395e6 2.091880487441853e6 0.0
0.0 0.0 0.0

-3.0450581952182115e6 1.0404364709725942e7 0.0
1.0404364709725942e7 4.5727379198347805e6 0.0
0.0 0.0 0.0

376763.84555437835 8.265698206682637e6 0.0
8.265698206682637e6 2.691749008520305e6 0.0
0.0 0.0 0.0

-379305.741140588 7.116522123284206e6 0.0
7.116522123284206e6 -2.1087735501675173e6 0.0
0.0 0.0 0.0

-4.327530987139074e6 8.051431079295661e6 0.0
8.051431079295661e6 1.1827346325679622e6 0.0
0.0 0.0 0.0

-8.968747361889027e6 8.16011538193462e6 0.0
8.16011538193462e6 1.9877769772700574e6 0.0
0.0 0.0 0.0

-1364.4586086486233 6.988507233740144e6 0.0
6.988507233740144e6 -2.4844248742124457e6 0.0
0.0 0.0 0.0

-1.5628182151557577e6 8.841104171166835e6 0.0
8.841104171166835e6 196782.92118926323 0.0
0.0 0.0 0.0

636678.5399826518 6.6347554584140945e6 0.0
6.6347554584140945e6 -3.940181826519458e6 0.0
0.0 0.0 0.0

-6.725282655456721e6 3.8969603480936666e6 0.0
3.8969603480936666e6 3.2253686256486145e6 0.0
0.0 0.0 0.0

-1.1759855414231729e7 7.618712218497487e6 0.0
7.618712218497487e6 7.136056620932603e6 0.0
0.0 0.0 0.0

-435417.975068604 2.9675326329947547e6 0.0
2.9675326329947547e6 -628611.0756097648 0.0
0.0 0.0 0.0

-4.1262751540232394e6 1.3828444466873279e7 0.0
1.3828444466873279e7 -1.6390111240895994e6 0.0
0.0 0.0 0.0

-1.3931692544645179e7 902342.4389331199 0.0
902342.4389331199 2.574271692212021e7 0.0
0.0 0.0 0.0

-339737.4005343391 2.743441116569984e6 0.0
2.743441116569984e6 -550786.275189458 0.0
0.0 0.0 0.0

-914062.7706157361 8.420569278285867e6 0.0
8.420569278285867e6 -5.402200478572503e6 0.0
0.0 0.0 0.0

-320312.81836575305 8.94725409737999e6 0.0
8.94725409737999e6 -3.166318876777238e6 0.0
0.0 0.0 0.0

-6.041820728122335e6 9.200668102856565e6 0.0
9.200668102856565e6 2.549955380949141e6 0.0
0.0 0.0 0.0

-4.1753423124419623e6 4.028048564737768e6 0.0
4.028048564737768e6 861943.1000567668 0.0
0.0 0.0 0.0

-1.1123054384446717e6 5.009307090596572e6 0.0
5.009307090596572e6 -1.0007905051374936e6 0.0
0.0 0.0 0.0

-4.914671648336252e6 8.329787104792964e6 0.0
8.329787104792964e6 1.6091194624993005e6 0.0
0.0 0.0 0.0

-5.999677063238642e6 9.11320076953831e6 0.0
9.11320076953831e6 2.781646786785077e6 0.0
0.0 0.0 0.0

-6.033013584428413e6 9.20668840864778e6 0.0
9.20668840864778e6 2.6628186834312887e6 0.0
0.0 0.0 0.0

426231.06087491894 7.925817282247055e6 0.0
7.925817282247055e6 -7.0824017608685605e6 0.0
0.0 0.0 0.0

-1.302565924233356e6 6.168269183213868e6 0.0
6.168269183213868e6 -292976.76028353255 0.0
0.0 0.0 0.0

-7.959765962793612e6 -2.769093498085431e6 0.0
-2.769093498085431e6 1.1081838210551545e7 0.0
0.0 0.0 0.0

-976161.7649478521 1.4127115790472025e7 0.0
1.4127115790472025e7 1.1793875180014528e7 0.0
0.0 0.0 0.0

-1.1854334063874654e7 -4.275640455438231e6 0.0
-4.275640455438231e6 4.273883963781567e6 0.0
0.0 0.0 0.0

6.182675339266965e6 1.0455635383101728e7 0.0
1.0455635383101728e7 -8.302799723896164e6 0.0
0.0 0.0 0.0

-271525.35325169354 7.620857479720904e6 0.0
7.620857479720904e6 -4.051954541481294e6 0.0
0.0 0.0 0.0

-1.0840146582035806e6 2.0351345584070089e6 0.0
2.0351345584070089e6 -1.1194668902117661e6 0.0
0.0 0.0 0.0

9.210833038412753e6 1.0890355923126118e7 0.0
1.0890355923126118e7 -8.29748946489515e6 0.0
0.0 0.0 0.0

5054.538427639171 5.054772455954849e6 0.0
5.054772455954849e6 -965736.3037282196 0.0
0.0 0.0 0.0

1.3345113259850089e6 8.039589344741828e6 0.0
8.039589344741828e6 2.244320493288261e6 0.0
0.0 0.0 0.0

-5.062904836721892e6 8.540002084561013e6 0.0
8.540002084561013e6 1.8708635614056117e6 0.0
0.0 0.0 0.0

-3.886827927595416e6 8.048346705204425e6 0.0
8.048346705204425e6 1.693148338259971e6 0.0
0.0 0.0 0.0

-1.8469999089571845e6 5.369874054888556e6 0.0
5.369874054888556e6 -1.092169549960366e6 0.0
0.0 0.0 0.0

-2.681650010862298e6 2.544724216733242e6 0.0
2.544724216733242e6 -75832.71763074002 0.0
0.0 0.0 0.0

-777014.9125800387 7.527699459160079e6 0.0
7.527699459160079e6 -4.087183527602095e6 0.0
0.0 0.0 0.0

-1.1851265922915058e6 9.082777486494422e6 0.0
9.082777486494422e6 240654.43145809608 0.0
0.0 0.0 0.0

-903695.8601675361 7.188397409018298e6 0.0
7.188397409018298e6 782912.6318287584 0.0
0.0 0.0 0.0

-1.1980325765248597e7 900040.4033116986 0.0
900040.4033116986 2.387408152611645e7 0.0
0.0 0.0 0.0

-4.378325156146801e6 8.273709050920323e6 0.0
8.273709050920323e6 1.3117570091519752e6 0.0
0.0 0.0 0.0

960956.1399429434 5.45475158597587e6 0.0
5.45475158597587e6 -4.3724844896360645e6 0.0
0.0 0.0 0.0

-2.3411765303520737e6 7.997080408396126e6 0.0
7.997080408396126e6 1.2009676925781514e6 0.0
0.0 0.0 0.0

-2.0151397515474567e6 7.354160653696886e6 0.0
7.354160653696886e6 1.1939296606087927e6 0.0
0.0 0.0 0.0

307250.13470548624 1.2013216965311622e7 0.0
1.2013216965311622e7 -3.6781434301283048e6 0.0
0.0 0.0 0.0

-4.22077415165085e6 9.201683295943111e6 0.0
9.201683295943111e6 37955.632850967115 0.0
0.0 0.0 0.0

-7.8494718139876835e6 9.103070058666222e6 0.0
9.103070058666222e6 4.1733736361549203e6 0.0
0.0 0.0 0.0

-1.1982074421723902e6 5.222346990426398e6 0.0
5.222346990426398e6 -1.2332311997140064e6 0.0
0.0 0.0 0.0

-6.747639592491392e6 8.440680694151519e6 0.0
8.440680694151519e6 3.726914903124786e6 0.0
0.0 0.0 0.0

-4.765054582106994e6 8.849772798666181e6 0.0
8.849772798666181e6 1.941870033521174e6 0.0
0.0 0.0 0.0

-2.338575508255138e6 4.342201708574116e6 0.0
4.342201708574116e6 1.1526745279972253e6 0.0
0.0 0.0 0.0

3.3100386842496204e6 1.19955231467934e7 0.0
1.19955231467934e7 -6.049272128222197e6 0.0
0.0 0.0 0.0

-1.8430422120050658e6 8.992428619945826e6 0.0
8.992428619945826e6 -1.822965912368345e6 0.0
0.0 0.0 0.0

-4.84431150076089e6 8.529851845712833e6 0.0
8.529851845712833e6 1.752628432330316e6 0.0
0.0 0.0 0.0

-1.6491238394441619e6 5.100697602075668e6 0.0
5.100697602075668e6 -1.2919419583879225e6 0.0
0.0 0.0 0.0

-1.1302306698803662e6 9.064169043155609e6 0.0
9.064169043155609e6 534539.7279458053 0.0
0.0 0.0 0.0

-2.109513203017043e6 694065.7260035094 0.0
694065.7260035094 1.554134354084627e6 0.0
0.0 0.0 0.0

-4.225146463973603e6 3.248986925376708e6 0.0
3.248986925376708e6 3.8232422471390506e6 0.0
0.0 0.0 0.0

-685839.8359822263 9.301574609311692e6 0.0
9.301574609311692e6 -2.996480169488394e6 0.0
0.0 0.0 0.0

-1.5729384415169149e6 7.3722776187205445e6 0.0
7.3722776187205445e6 3.9122190593813984e6 0.0
0.0 0.0 0.0

-1.2003652695783197e6 9.200635469714416e6 0.0
9.200635469714416e6 -2.9619949627708537e6 0.0
0.0 0.0 0.0

-2.6447370072998647e6 8.07084147639562e6 0.0
8.07084147639562e6 2.2614774535657065e6 0.0
0.0 0.0 0.0

-6.242862475553838e6 1.139855938875177e6 0.0
1.139855938875177e6 4.523015501965925e6 0.0
0.0 0.0 0.0

-1.6531217023145903e6 8.896315184494114e6 0.0
8.896315184494114e6 -7275.792650856078 0.0
0.0 0.0 0.0

-1.0918469914378559e6 2.7318574987196075e6 0.0
2.7318574987196075e6 2562.438716098841 0.0
0.0 0.0 0.0

-1.1267416811902402e6 8.937917308586948e6 0.0
8.937917308586948e6 1.0577333683743288e6 0.0
0.0 0.0 0.0

-4.837886514222087e6 1.5040468043792076e7 0.0
1.5040468043792076e7 -2.384723619580593e6 0.0
0.0 0.0 0.0

-1.313165881154436e7 1.8378675076374325e6 0.0
1.8378675076374325e6 6.896259679055517e6 0.0
0.0 0.0 0.0

-8.606246594827777e6 1.4526559974728027e7 0.0
1.4526559974728027e7 4.119147453511568e6 0.0
0.0 0.0 0.0

-3.892991147297403e6 7.749838573299812e6 0.0
7.749838573299812e6 170458.07979796315 0.0
0.0 0.0 0.0

-8.528941734997869e6 1.2066499044846926e7 0.0
1.2066499044846926e7 4.0454873547590273e6 0.0
0.0 0.0 0.0

-631078.5513198609 2.8996224212716916e6 0.0
2.8996224212716916e6 -521972.2315269902 0.0
0.0 0.0 0.0

217257.25255529815 1.2135410237202272e7 0.0
1.2135410237202272e7 -3.884336565601129e6 0.0
0.0 0.0 0.0

-6.575473814026485e6 9.141251732946223e6 0.0
9.141251732946223e6 3.1642831105391877e6 0.0
0.0 0.0 0.0

-2.133411813757336e6 8.547292682328502e6 0.0
8.547292682328502e6 -10286.725918209646 0.0
0.0 0.0 0.0

-686358.077497642 8.247698043081984e6 0.0
8.247698043081984e6 -3.592071169487711e6 0.0
0.0 0.0 0.0

-4.639447791208069e6 8.500018738823153e6 0.0
8.500018738823153e6 2.1941503045186987e6 0.0
0.0 0.0 0.0

-3.1932661064904276e6 3.345758281979592e6 0.0
3.345758281979592e6 3.3096763785725543e6 0.0
0.0 0.0 0.0

-8.510054355820384e6 1.3159595401278794e7 0.0
1.3159595401278794e7 2.7041800987496795e6 0.0
0.0 0.0 0.0

-7.332408052354814e6 7.845548986118631e6 0.0
7.845548986118631e6 3.8846851500572185e6 0.0
0.0 0.0 0.0

103059.179745876 1.1869026954483656e7 0.0
1.1869026954483656e7 -3.7109715388338054e6 0.0
0.0 0.0 0.0

317070.8213823817 3.971210923558049e6 0.0
3.971210923558049e6 -4.1716741140260235e6 0.0
0.0 0.0 0.0

-364119.530559656 7.636288224368001e6 0.0
7.636288224368001e6 -4.826119883482665e6 0.0
0.0 0.0 0.0

2.5208093390488415e6 -1.0643098679487475e6 0.0
-1.0643098679487475e6 -6.863501277595479e6 0.0
0.0 0.0 0.0

-1.7941903193969093e6 9.714064303458067e6 0.0
9.714064303458067e6 2.297532292338962e6 0.0
0.0 0.0 0.0

311408.08897262043 1.069362692926078e7 0.0
1.069362692926078e7 -3.1548828403192093e6 0.0
0.0 0.0 0.0

-5.038706530359465e6 1.3307676961119834e7 0.0
1.3307676961119834e7 -594743.3210101826 0.0
0.0 0.0 0.0

-4.7723588972458765e6 4.162716822354808e6 0.0
4.162716822354808e6 4.296201594135794e6 0.0
0.0 0.0 0.0

-1.894552120064609e6 5.558792259283977e6 0.0
5.558792259283977e6 -814069.3471940425 0.0
0.0 0.0 0.0

117653.46085438249 4.1046510388962207e6 0.0
4.1046510388962207e6 2.8355376278034374e6 0.0
0.0 0.0 0.0

741758.7974965391 7.491756954741378e6 0.0
7.491756954741378e6 -6.092987125875454e6 0.0
0.0 0.0 0.0

-96327.45385150381 8.725121450523876e6 0.0
8.725121450523876e6 -619901.6592418617 0.0
0.0 0.0 0.0

-6.627034427530991e6 7.20124639288968e6 0.0
7.20124639288968e6 2.2349752497030054e6 0.0
0.0 0.0 0.0

-436775.58532115386 8.458412835258871e6 0.0
8.458412835258871e6 -3.6015497501241826e6 0.0
0.0 0.0 0.0

4.334920856034093e6 8.05597870266295e6 0.0
8.05597870266295e6 -3.8696510794718037e6 0.0
0.0 0.0 0.0

-1.8794556280137347e6 1.800037856487895e6 0.0
1.800037856487895e6 1.5518570128791612e6 0.0
0.0 0.0 0.0

-1.0022405737984858e7 7.292443274186143e6 0.0
7.292443274186143e6 1.8982658874384034e6 0.0
0.0 0.0 0.0

-221567.60928839305 1.6956005390292373e7 0.0
1.6956005390292373e7 -1.200341726747613e7 0.0
0.0 0.0 0.0

-4.03616160746408e6 8.001090015904387e6 0.0
8.001090015904387e6 1.7692015412248815e6 0.0
0.0 0.0 0.0

-717806.2272828282 5.929042761906016e6 0.0
5.929042761906016e6 -2.1588200007435055e6 0.0
0.0 0.0 0.0

-5.682485111568322e6 5.123136901984714e6 0.0
5.123136901984714e6 6.652108644471369e6 0.0
0.0 0.0 0.0

-329072.08052808384 1.7958675052498751e6 0.0
1.7958675052498751e6 687.7098319518263 0.0
0.0 0.0 0.0

-1.8841112283761795e6 9.143130880799206e6 0.0
9.143130880799206e6 -2.1792596971752914e6 0.0
0.0 0.0 0.0

-6.024962938597788e6 8.115604123303678e6 0.0
8.115604123303678e6 3.1206353344074516e6 0.0
0.0 0.0 0.0

-2.6312091379799177e6 6.694071003571693e6 0.0
6.694071003571693e6 -638173.438180313 0.0
0.0 0.0 0.0

-8.864513185579617e6 2.83829444983971e6 0.0
2.83829444983971e6 1.3913730340820218e7 0.0
0.0 0.0 0.0

-487739.27138064033 7.669470435222231e6 0.0
7.669470435222231e6 -3.980941740036618e6 0.0
0.0 0.0 0.0

-5.904696446615331e6 7.505560043599735e6 0.0
7.505560043599735e6 3.4941506325745657e6 0.0
0.0 0.0 0.0

-678767.251234599 8.071922035726743e6 0.0
8.071922035726743e6 -3.5452753767633946e6 0.0
0.0 0.0 0.0

2.9229452643972626e6 7.2071936157539645e6 0.0
7.2071936157539645e6 89691.26619228243 0.0
0.0 0.0 0.0

-8.237005350977367e6 1.767638358853966e6 0.0
1.767638358853966e6 1.1872677806573538e7 0.0
0.0 0.0 0.0

383876.89041841356 8.220547228430711e6 0.0
8.220547228430711e6 -2.9105551148328516e6 0.0
0.0 0.0 0.0

-1.8054506724068369e6 8.688405048439268e6 0.0
8.688405048439268e6 1.2634795448902887e6 0.0
0.0 0.0 0.0

-4.738999742240165e6 1.0968945076157244e7 0.0
1.0968945076157244e7 1.3729509549796565e6 0.0
0.0 0.0 0.0

120032.5819326553 6.999980860185728e6 0.0
6.999980860185728e6 -4.147556171236421e6 0.0
0.0 0.0 0.0

-687068.7205247753 3.7028857438649973e6 0.0
3.7028857438649973e6 -1.65947775082992e6 0.0
0.0 0.0 0.0

667599.7498717371 7.479881764348208e6 0.0
7.479881764348208e6 -5.920542112740669e6 0.0
0.0 0.0 0.0

-3.163171368923517e6 8.965867125834245e6 0.0
8.965867125834245e6 33670.98448987899 0.0
0.0 0.0 0.0

-8.809129318177283e6 1.4471379127357253e6 0.0
1.4471379127357253e6 1.024519606825022e7 0.0
0.0 0.0 0.0

-3.612361571506299e6 8.968441128686788e6 0.0
8.968441128686788e6 709507.4822190865 0.0
0.0 0.0 0.0

-2.397563544134056e6 6.394173487552109e6 0.0
6.394173487552109e6 -761322.0427067879 0.0
0.0 0.0 0.0

805984.5170861119 7.040040657497642e6 0.0
7.040040657497642e6 -5.973794488351404e6 0.0
0.0 0.0 0.0

-5.429578257754876e6 4.245528495529868e6 0.0
4.245528495529868e6 8.09268509295356e6 0.0
0.0 0.0 0.0

-161584.12139864117 8.946526009840647e6 0.0
8.946526009840647e6 -188083.64492748797 0.0
0.0 0.0 0.0

103991.52550112247 7.24519622894978e6 0.0
7.24519622894978e6 -5.102356734200107e6 0.0
0.0 0.0 0.0

1.0881516555199118e6 5.769107284703927e6 0.0
5.769107284703927e6 -4.969861731119117e6 0.0
0.0 0.0 0.0

-3.0231938475240916e6 6.155907730701344e6 0.0
6.155907730701344e6 2.0209499498439385e6 0.0
0.0 0.0 0.0

-5.793408348724914e6 7.965553274278949e6 0.0
7.965553274278949e6 3.503925122024902e6 0.0
0.0 0.0 0.0

-1.5160150882448773e6 5.044830290525608e6 0.0
5.044830290525608e6 -1.7093974550267472e6 0.0
0.0 0.0 0.0

-2.890374760002143e6 1.7254282266785565e6 0.0
1.7254282266785565e6 3.6356732286340343e6 0.0
0.0 0.0 0.0

94969.34398594138 4.400860437724432e6 0.0
4.400860437724432e6 -719731.3420508845 0.0
0.0 0.0 0.0

-3.121043560411342e6 5.242691601612705e6 0.0
5.242691601612705e6 1.6669988083334751e6 0.0
0.0 0.0 0.0

3.051114922970514e6 8.088020385625558e6 0.0
8.088020385625558e6 -168102.77007293224 0.0
0.0 0.0 0.0

1.5227847124021451e6 7.529613152728119e6 0.0
7.529613152728119e6 953166.3508748818 0.0
0.0 0.0 0.0

-6.228414115474612e6 9.146342015635125e6 0.0
9.146342015635125e6 2.158986226980617e6 0.0
0.0 0.0 0.0

-709312.468292385 7.163666041962723e6 0.0
7.163666041962723e6 -3.878240780123877e6 0.0
0.0 0.0 0.0

-4.469742791642593e6 9.107367170327213e6 0.0
9.107367170327213e6 1.388289870153266e6 0.0
0.0 0.0 0.0

-5.892527586499928e6 5.43499649744991e6 0.0
5.43499649744991e6 2.896965975721351e6 0.0
0.0 0.0 0.0

578248.1077203031 7.463085766486356e6 0.0
7.463085766486356e6 -5.767543810630898e6 0.0
0.0 0.0 0.0

-230072.2368238438 3.5236443738909187e6 0.0
3.5236443738909187e6 -1.5024747171634769e6 0.0
0.0 0.0 0.0

-1.1339566296237938e6 4.984341956044755e6 0.0
4.984341956044755e6 -822665.3501971198 0.0
0.0 0.0 0.0

-207382.04706791128 8.978224457760034e6 0.0
8.978224457760034e6 -696860.426553139 0.0
0.0 0.0 0.0

-41195.14675058308 7.849372320299667e6 0.0
7.849372320299667e6 2.980704126072399e6 0.0
0.0 0.0 0.0

-1.1260608384081216e6 6.537071898172051e6 0.0
6.537071898172051e6 -845210.7909794577 0.0
0.0 0.0 0.0

-2.981055221406542e6 5.47741066895343e6 0.0
5.47741066895343e6 1.431748664244467e6 0.0
0.0 0.0 0.0

-7.419177446548914e6 -547759.4158136596 0.0
-547759.4158136596 3.6139264683363107e6 0.0
0.0 0.0 0.0

-311210.8729191762 9.082975972504536e6 0.0
9.082975972504536e6 -277401.3175849446 0.0
0.0 0.0 0.0

-484770.21055710665 3.426903949646789e6 0.0
3.426903949646789e6 -3.396599545474049e6 0.0
0.0 0.0 0.0

-6.286489571778467e6 7.578933636451541e6 0.0
7.578933636451541e6 3.4900900822329936e6 0.0
0.0 0.0 0.0

-3.7818609521970125e6 725381.6788538848 0.0
725381.6788538848 5.041620141705935e6 0.0
0.0 0.0 0.0

-1.0234626994531128e6 8.913060257528333e6 0.0
8.913060257528333e6 369375.7351757684 0.0
0.0 0.0 0.0

-3.528820397418279e6 7.984954540252663e6 0.0
7.984954540252663e6 5.136824834194598e6 0.0
0.0 0.0 0.0

-5.732631142225054e6 7.391044686179205e6 0.0
7.391044686179205e6 3.189891487291257e6 0.0
0.0 0.0 0.0

-305520.65551360394 7.660933322541142e6 0.0
7.660933322541142e6 -4.513587265445343e6 0.0
0.0 0.0 0.0

1.7952204267264793e6 8.239954685763265e6 0.0
8.239954685763265e6 1.541908524495759e6 0.0
0.0 0.0 0.0

-461249.3680566803 8.092743647099978e6 0.0
8.092743647099978e6 -3.9666987014922835e6 0.0
0.0 0.0 0.0

-445225.82581135357 9.241195930116491e6 0.0
9.241195930116491e6 -53315.274515993064 0.0
0.0 0.0 0.0

-3.0141054817808e6 7.5475214628011435e6 0.0
7.5475214628011435e6 2.6325274000532264e6 0.0
0.0 0.0 0.0

-2.1688678295889804e6 8.279041229541674e6 0.0
8.279041229541674e6 1.4149417761077974e6 0.0
0.0 0.0 0.0

-1.5340750792208537e6 8.965592911032971e6 0.0
8.965592911032971e6 502461.3669597823 0.0
0.0 0.0 0.0

751210.8909140946 6.410759959454987e6 0.0
6.410759959454987e6 -5.036573743799714e6 0.0
0.0 0.0 0.0

-6.867463009250156e6 9.89877225671029e6 0.0
9.89877225671029e6 2.8915071912349844e6 0.0
0.0 0.0 0.0

-1.589323646875061e6 6.4989739978269e6 0.0
6.4989739978269e6 1.18826253799101e6 0.0
0.0 0.0 0.0

5.041205092735829e6 6.863899503940814e6 0.0
6.863899503940814e6 -1.1643450321587978e6 0.0
0.0 0.0 0.0

-4.881998126901807e6 7.929461015824276e6 0.0
7.929461015824276e6 1.8420377194320813e6 0.0
0.0 0.0 0.0

1.2333074525525195e6 6.107880495277003e6 0.0
6.107880495277003e6 -5.732932572999517e6 0.0
0.0 0.0 0.0

-1.9261737152626906e6 7.331451991055738e6 0.0
7.331451991055738e6 -645946.5824761654 0.0
0.0 0.0 0.0

3.415297741923248e6 7.131423920160491e6 0.0
7.131423920160491e6 -1.8493149223184437e6 0.0
0.0 0.0 0.0

7.324821531482178e6 7.534788108808595e6 0.0
7.534788108808595e6 -3.8866447844505897e6 0.0
0.0 0.0 0.0

-6.501863606894461e6 9.006626869357575e6 0.0
9.006626869357575e6 3.1126824217591006e6 0.0
0.0 0.0 0.0

-879700.420464779 9.340461654468851e6 0.0
9.340461654468851e6 -2.75237610095121e6 0.0
0.0 0.0 0.0

-780441.4055827677 3.605336385315227e6 0.0
3.605336385315227e6 -435676.1660952603 0.0
0.0 0.0 0.0

-3.7100454252120256e6 305999.5752645637 0.0
305999.5752645637 3.5859828953031637e6 0.0
0.0 0.0 0.0

-137086.09788612017 8.975769253009424e6 0.0
8.975769253009424e6 -602619.2404896525 0.0
0.0 0.0 0.0

-1.67505381710464e6 5.999068848205629e6 0.0
5.999068848205629e6 5.293278689050972e6 0.0
0.0 0.0 0.0

-1.6850238484497014e6 1.324811399010227e6 0.0
1.324811399010227e6 1.3164268219486394e6 0.0
0.0 0.0 0.0

-1.5221876993171098e6 5.894507870374973e6 0.0
5.894507870374973e6 -1.0252438854052494e6 0.0
0.0 0.0 0.0

-2.292125010470767e6 7.849215866842274e6 0.0
7.849215866842274e6 1.2382325371724619e6 0.0
0.0 0.0 0.0

-404730.5143128919 7.635582748451522e6 0.0
7.635582748451522e6 -4.421323334456535e6 0.0
0.0 0.0 0.0

-6.337957240539445e6 9.404130288360344e6 0.0
9.404130288360344e6 3.020392059731398e6 0.0
0.0 0.0 0.0

-5.6291705783324065e6 1.1715999205878677e7 0.0
1.1715999205878677e7 782800.116104566 0.0
0.0 0.0 0.0

-1.0509808381370738e7 1.4008656411554767e7 0.0
1.4008656411554767e7 3.6311707156364475e6 0.0
0.0 0.0 0.0

-1.1832572862166204e7 7.832540888337309e6 0.0
7.832540888337309e6 6.856792916155857e6 0.0
0.0 0.0 0.0

-242291.80945198424 9.978311234828204e6 0.0
9.978311234828204e6 1.9151781556740077e6 0.0
0.0 0.0 0.0

124576.48719789227 8.51233433707802e6 0.0
8.51233433707802e6 -6.505798135188029e6 0.0
0.0 0.0 0.0

-320968.29629695136 3.1247382485036436e6 0.0
3.1247382485036436e6 -790867.4720055553 0.0
0.0 0.0 0.0

-1.0989164831893607e6 7.386963993244302e6 0.0
7.386963993244302e6 -4.532908725303181e6 0.0
0.0 0.0 0.0

-868141.3537628925 6.871166644509318e6 0.0
6.871166644509318e6 -3.8820816322467937e6 0.0
0.0 0.0 0.0

-1.0146448483982655e6 9.796707769472053e6 0.0
9.796707769472053e6 2.300971435641307e6 0.0
0.0 0.0 0.0

-646966.7230831466 7.784708640324515e6 0.0
7.784708640324515e6 -4.964252324672361e6 0.0
0.0 0.0 0.0

-798359.6474093127 7.397703243568273e6 0.0
7.397703243568273e6 -4.304572234280488e6 0.0
0.0 0.0 0.0

220207.2901631504 8.902918193893248e6 0.0
8.902918193893248e6 3.589904135436091e6 0.0
0.0 0.0 0.0

-2.116229257332159e6 6.496570672493785e6 0.0
6.496570672493785e6 1.6494859108959946e6 0.0
0.0 0.0 0.0

350415.36102403095 6.899199628143657e6 0.0
6.899199628143657e6 -4.7268421270178165e6 0.0
0.0 0.0 0.0

-150312.83215542196 8.987638776913239e6 0.0
8.987638776913239e6 -697144.2872460439 0.0
0.0 0.0 0.0

-4.998396310935811e6 6.704592978101688e6 0.0
6.704592978101688e6 3.506615848168728e6 0.0
0.0 0.0 0.0

-559044.0947690919 9.01159429076858e6 0.0
9.01159429076858e6 471546.0881629656 0.0
0.0 0.0 0.0

4.706378374402678e6 87351.84185250483 0.0
87351.84185250483 -6.466468845081326e6 0.0
0.0 0.0 0.0

-4.592877282995235e6 8.56528653446133e6 0.0
8.56528653446133e6 1.6072805701301002e6 0.0
0.0 0.0 0.0

-5.460886671341957e6 9.093400291325107e6 0.0
9.093400291325107e6 2.580206289833755e6 0.0
0.0 0.0 0.0

-5.541120120071616e6 4.0761111766664567e6 0.0
4.0761111766664567e6 7.354628598437289e6 0.0
0.0 0.0 0.0

-875404.3710402753 6.876166606347077e6 0.0
6.876166606347077e6 -302566.6652184745 0.0
0.0 0.0 0.0

-2.7704916722141616e6 7.847977823130489e6 0.0
7.847977823130489e6 3.328422503558549e6 0.0
0.0 0.0 0.0

-7.954309814442493e6 8.932691494277626e6 0.0
8.932691494277626e6 3.961437622483496e6 0.0
0.0 0.0 0.0

-2.9304407658925904e6 5.590653989093677e6 0.0
5.590653989093677e6 2.090358602099639e6 0.0
0.0 0.0 0.0

-419904.7649517948 3.0035519961761516e6 0.0
3.0035519961761516e6 -620479.3700960896 0.0
0.0 0.0 0.0

-5.467004263532087e6 9.043738573959481e6 0.0
9.043738573959481e6 2.5048082299588723e6 0.0
0.0 0.0 0.0

-4.741243022295315e6 8.279783460476174e6 0.0
8.279783460476174e6 1.591776302062631e6 0.0
0.0 0.0 0.0

-2.574439195526301e6 8.046316480015973e6 0.0
8.046316480015973e6 -393508.356655602 0.0
0.0 0.0 0.0

-6.514655237679064e6 9.646539307785936e6 0.0
9.646539307785936e6 2.9816628013296607e6 0.0
0.0 0.0 0.0

-6.221573394285891e6 9.388354298281703e6 0.0
9.388354298281703e6 2.61746079927763e6 0.0
0.0 0.0 0.0

-658550.1415725076 8.730191802871957e6 0.0
8.730191802871957e6 170195.33242556776 0.0
0.0 0.0 0.0

66349.65386653956 7.337315195542085e6 0.0
7.337315195542085e6 221165.7880792616 0.0
0.0 0.0 0.0

130441.08562895679 6.83376690247069e6 0.0
6.83376690247069e6 -4.425302733309263e6 0.0
0.0 0.0 0.0

-878103.4528189 8.043573710314246e6 0.0
8.043573710314246e6 -4.828562457805931e6 0.0
0.0 0.0 0.0

-1.6945850264651768e6 8.823141420048164e6 0.0
8.823141420048164e6 121432.52253690152 0.0
0.0 0.0 0.0

-1.5082479794847377e7 9.511503317024317e6 0.0
9.511503317024317e6 3.5306185665112184e6 0.0
0.0 0.0 0.0

-1.0329411051133e6 7.427857279377921e6 0.0
7.427857279377921e6 -4.284990906765035e6 0.0
0.0 0.0 0.0

-1.3906660597515043e7 1.0029888308020964e7 0.0
1.0029888308020964e7 2.4533389728455264e6 0.0
0.0 0.0 0.0

-2.672534731174862e6 7.973368562547096e6 0.0
7.973368562547096e6 995124.1709865117 0.0
0.0 0.0 0.0

-4.7388406832501255e6 -1.0779369483728893e6 0.0
-1.0779369483728893e6 5.487311760099784e6 0.0
0.0 0.0 0.0

-5.661807829460349e6 1.0788707908648249e7 0.0
1.0788707908648249e7 1.4350185383482322e6 0.0
0.0 0.0 0.0

-7.250342218240941e6 9.257921336776264e6 0.0
9.257921336776264e6 1.834210913409633e6 0.0
0.0 0.0 0.0

-956930.1928900611 9.547655265950665e6 0.0
9.547655265950665e6 -2.6813679369684868e6 0.0
0.0 0.0 0.0

-6.895269104669262e6 7.867500242500444e6 0.0
7.867500242500444e6 3.0311276404011464e6 0.0
0.0 0.0 0.0

-869492.284976562 3.349654410462515e6 0.0
3.349654410462515e6 -412949.50722058315 0.0
0.0 0.0 0.0

540729.6969975294 6.945110203952689e6 0.0
6.945110203952689e6 -5.294519758987904e6 0.0
0.0 0.0 0.0

-7.515635458583674e6 7.239737318317575e6 0.0
7.239737318317575e6 3.052312767110856e6 0.0
0.0 0.0 0.0

-217213.99516894674 9.20876752566782e6 0.0
9.20876752566782e6 -531367.0110670835 0.0
0.0 0.0 0.0

-931618.9309795855 3.4703791423422634e6 0.0
3.4703791423422634e6 -604965.6359168449 0.0
0.0 0.0 0.0

-2.7115273737113047e6 6.4835418666216545e6 0.0
6.4835418666216545e6 -877478.0895440059 0.0
0.0 0.0 0.0

-4.176758119170459e6 1.028600975794336e7 0.0
1.028600975794336e7 948348.2646056833 0.0
0.0 0.0 0.0

-5.379264831758924e6 -1.414441162169792e6 0.0
-1.414441162169792e6 4.872696173381634e6 0.0
0.0 0.0 0.0

-4.7155311272380715e6 8.31191371910378e6 0.0
8.31191371910378e6 2.0440326459453893e6 0.0
0.0 0.0 0.0

-667682.4728103671 8.841553656325214e6 0.0
8.841553656325214e6 -3.0843917118476913e6 0.0
0.0 0.0 0.0

-184012.98547518835 6.826810765933239e6 0.0
6.826810765933239e6 -3.887888864231084e6 0.0
0.0 0.0 0.0

-1.0121704686185821e6 2.2228347197608342e6 0.0
2.2228347197608342e6 -1.3162530112953307e6 0.0
0.0 0.0 0.0

-986317.9751197104 8.827635387967497e6 0.0
8.827635387967497e6 -2.8233434064299935e6 0.0
0.0 0.0 0.0

-5.871263654073843e6 8.657827795575932e6 0.0
8.657827795575932e6 128233.50093643577 0.0
0.0 0.0 0.0

-8.221045160098205e6 1.372868667306514e7 0.0
1.372868667306514e7 4.364183723984685e6 0.0
0.0 0.0 0.0

-2.800522480206662e6 9.249930583757523e6 0.0
9.249930583757523e6 3.6672575062690405e6 0.0
0.0 0.0 0.0

-847503.7461965946 7.159258605738864e6 0.0
7.159258605738864e6 121327.14452461258 0.0
0.0 0.0 0.0

-404366.2011201046 9.635813804182554e6 0.0
9.635813804182554e6 1.0620547767176316e6 0.0
0.0 0.0 0.0

-29894.332724846758 7.834814519298896e6 0.0
7.834814519298896e6 -99647.76325890193 0.0
0.0 0.0 0.0

-6.100688395654442e6 3.9345514206930697e6 0.0
3.9345514206930697e6 7.5745247189225275e6 0.0
0.0 0.0 0.0

-418886.57815804856 7.482300762171666e6 0.0
7.482300762171666e6 -3.9505354583149916e6 0.0
0.0 0.0 0.0

-1.2843607491008662e7 6.065218991104707e6 0.0
6.065218991104707e6 4.445575659901962e6 0.0
0.0 0.0 0.0

-2.882811750111131e6 1.979740857846001e6 0.0
1.979740857846001e6 3.3929686838779016e6 0.0
0.0 0.0 0.0

-5.295982731772054e6 -683011.0173720978 0.0
-683011.0173720978 6.64197828012607e6 0.0
0.0 0.0 0.0

-1.6789016099023502e6 5.096241462983595e6 0.0
5.096241462983595e6 -2.2326157060169308e6 0.0
0.0 0.0 0.0

-79874.65087879897 2.536434366091226e6 0.0
2.536434366091226e6 258904.90118898786 0.0
0.0 0.0 0.0

832001.2474393705 7.257333589893198e6 0.0
7.257333589893198e6 -5.951430345795526e6 0.0
0.0 0.0 0.0

-8.639152299346255e6 2.7823003124754597e6 0.0
2.7823003124754597e6 9.987256902511537e6 0.0
0.0 0.0 0.0

119911.38781428034 7.130559366869587e6 0.0
7.130559366869587e6 -5.1359438978838045e6 0.0
0.0 0.0 0.0

-533169.2107155822 2.2640176637283377e6 0.0
2.2640176637283377e6 -711674.4824920872 0.0
0.0 0.0 0.0

-4.391283658455053e6 8.721503842967309e6 0.0
8.721503842967309e6 1.7602145983261636e6 0.0
0.0 0.0 0.0

-4.1351032861464736e6 1.0744191162631895e7 0.0
1.0744191162631895e7 847413.4707604947 0.0
0.0 0.0 0.0

-6.191705093789359e6 9.070140703542277e6 0.0
9.070140703542277e6 3.112342567137106e6 0.0
0.0 0.0 0.0

-1.0696728746124359e7 1.2795123997995306e7 0.0
1.2795123997995306e7 4.753138429120276e6 0.0
0.0 0.0 0.0

-8.314664167245403e6 1.091277216327143e7 0.0
1.091277216327143e7 3.466733039519184e6 0.0
0.0 0.0 0.0

-2.811047161328448e6 832772.6965813048 0.0
832772.6965813048 3.2100863221277045e6 0.0
0.0 0.0 0.0

1.0094445385357533e6 6.256966811138453e6 0.0
6.256966811138453e6 -6.074565354893972e6 0.0
0.0 0.0 0.0

-475337.38793543953 9.68309507335165e6 0.0
9.68309507335165e6 -2.8202546179533796e6 0.0
0.0 0.0 0.0

-3.157477582023e6 8.026318806216422e6 0.0
8.026318806216422e6 -160148.75201184372 0.0
0.0 0.0 0.0

-621008.3030991245 7.376518574654715e6 0.0
7.376518574654715e6 -2.9039252735935203e6 0.0
0.0 0.0 0.0

-1.053091558027281e6 7.073812187539961e6 0.0
7.073812187539961e6 -4.0663329630780513e6 0.0
0.0 0.0 0.0

-209399.5445599656 8.774743152865188e6 0.0
8.774743152865188e6 -697998.5023981609 0.0
0.0 0.0 0.0

-3.284760391834575e6 6.961029745562957e6 0.0
6.961029745562957e6 1.403884257102968e6 0.0
0.0 0.0 0.0

-4.941730943163099e6 8.2259466752476e6 0.0
8.2259466752476e6 2.268438888342593e6 0.0
0.0 0.0 0.0

-669266.0207970509 7.060862503538866e6 0.0
7.060862503538866e6 -3.773089252775548e6 0.0
0.0 0.0 0.0

-1.345241569872374e6 5.673431967676715e6 0.0
5.673431967676715e6 -963019.2481043141 0.0
0.0 0.0 0.0

974992.3516931573 5.988709163487463e6 0.0
5.988709163487463e6 -4.854125991780858e6 0.0
0.0 0.0 0.0

-277372.22550055245 9.719332904098006e6 0.0
9.719332904098006e6 -2.794257591463025e6 0.0
0.0 0.0 0.0

-15950.907441322925 6.944303991086015e6 0.0
6.944303991086015e6 -4.1522983605668843e6 0.0
0.0 0.0 0.0

-1.0200851713616832e6 6.430660445251416e6 0.0
6.430660445251416e6 -1.4213692976871824e6 0.0
0.0 0.0 0.0

-1.2242470141839478e6 5.1793023403491415e6 0.0
5.1793023403491415e6 -1.3886701135396173e6 0.0
0.0 0.0 0.0

465480.94339990406 5.308148328088135e6 0.0
5.308148328088135e6 -1.859407862718635e6 0.0
0.0 0.0 0.0

-3.898547047770809e6 8.50747464790446e6 0.0
8.50747464790446e6 1.0810427463674897e6 0.0
0.0 0.0 0.0

-731805.4404179549 8.444025108955551e6 0.0
8.444025108955551e6 -3.28450375599895e6 0.0
0.0 0.0 0.0

874701.6771020638 7.317692586116761e6 0.0
7.317692586116761e6 -6.288405414746986e6 0.0
0.0 0.0 0.0

-3.135882498612819e6 8.90692295691195e6 0.0
8.90692295691195e6 479895.91076058615 0.0
0.0 0.0 0.0

-1.1497289376917347e7 9.029541768962832e6 0.0
9.029541768962832e6 2.858929464710853e6 0.0
0.0 0.0 0.0

-8.350668582026113e6 6.849465984249295e6 0.0
6.849465984249295e6 2.5835017707646433e6 0.0
0.0 0.0 0.0

-5.777878660460578e6 8.733825711733714e6 0.0
8.733825711733714e6 2.557748262104286e6 0.0
0.0 0.0 0.0

-117393.94723033579 7.541917458923712e6 0.0
7.541917458923712e6 -4.913958963552386e6 0.0
0.0 0.0 0.0

-1.305387738964292e6 7.254331539528012e6 0.0
7.254331539528012e6 -4.35129243722404e6 0.0
0.0 0.0 0.0

-9.1520528631563e6 9.318683035594977e6 0.0
9.318683035594977e6 2.1901891847631615e6 0.0
0.0 0.0 0.0

-1.4601857789038226e6 7.67656923101337e6 0.0
7.67656923101337e6 -4.867285984040298e6 0.0
0.0 0.0 0.0

-3.8256624084340585e6 5.568914972712846e6 0.0
5.568914972712846e6 2.948076238714001e6 0.0
0.0 0.0 0.0

-284438.4999733102 3.1801710656088567e6 0.0
3.1801710656088567e6 -1.0477526506805902e6 0.0
0.0 0.0 0.0

-4.6766190781253325e6 8.261749325063562e6 0.0
8.261749325063562e6 1.3181541534235608e6 0.0
0.0 0.0 0.0

-3.1621382162540955e6 6.103595848089076e6 0.0
6.103595848089076e6 1.5616713256117983e6 0.0
0.0 0.0 0.0

-397533.0761911281 2.8396567664360474e6 0.0
2.8396567664360474e6 -545360.8914360041 0.0
0.0 0.0 0.0

-362378.006692847 7.553815288015437e6 0.0
7.553815288015437e6 -3.8189045754288915e6 0.0
0.0 0.0 0.0

-4.606673205606779e6 8.390122184350157e6 0.0
8.390122184350157e6 1.5380973565949693e6 0.0
0.0 0.0 0.0

-342989.0844516824 8.965853622314628e6 0.0
8.965853622314628e6 -613121.8972580844 0.0
0.0 0.0 0.0

-3.9828303833299507e6 8.118112851221691e6 0.0
8.118112851221691e6 1.6484797809844539e6 0.0
0.0 0.0 0.0

-9.828291461564843e6 8.008966987736031e6 0.0
8.008966987736031e6 4.1068626880207616e6 0.0
0.0 0.0 0.0

-1.364483172420896e6 7.367714076837691e6 0.0
7.367714076837691e6 -4.548277346715527e6 0.0
0.0 0.0 0.0

-4.907504826529976e6 7.423552061004975e6 0.0
7.423552061004975e6 4.653407942139647e6 0.0
0.0 0.0 0.0

-8.116557576109466e6 7.647590203954868e6 0.0
7.647590203954868e6 1.8101225562912608e6 0.0
0.0 0.0 0.0

-557361.7566096131 3.5156570064373105e6 0.0
3.5156570064373105e6 -674342.700023642 0.0
0.0 0.0 0.0

-1.047733154033907e7 1.7815538952774454e6 0.0
1.7815538952774454e6 1.2546125682002582e7 0.0
0.0 0.0 0.0

-1.7358523910898636e6 8.926576201523457e6 0.0
8.926576201523457e6 413162.43621231965 0.0
0.0 0.0 0.0

-8.045329313711357e6 1.1842891914887255e7 0.0
1.1842891914887255e7 2.887038797641429e6 0.0
0.0 0.0 0.0

356440.6910339036 9.521405396906732e6 0.0
9.521405396906732e6 1.1881357413308846e6 0.0
0.0 0.0 0.0

798193.5703952482 9.51313863333989e6 0.0
9.51313863333989e6 3.216133763321788e6 0.0
0.0 0.0 0.0

-7.445935722362927e6 8.360888953847356e6 0.0
8.360888953847356e6 3.104095150141726e6 0.0
0.0 0.0 0.0

-6.157677152344823e6 1.2018458063405257e7 0.0
1.2018458063405257e7 1.548069215032381e6 0.0
0.0 0.0 0.0

-327060.73750698206 1.0534677687201371e7 0.0
1.0534677687201371e7 1.6889430458489286e6 0.0
0.0 0.0 0.0

1.1107913555680504e6 7.000428028215613e6 0.0
7.000428028215613e6 -6.193700656333135e6 0.0
0.0 0.0 0.0

-4.371763717790008e6 8.078123667045359e6 0.0
8.078123667045359e6 1.785496370948554e6 0.0
0.0 0.0 0.0

-151204.3722236943 8.846655768425176e6 0.0
8.846655768425176e6 -699471.8192318891 0.0
0.0 0.0 0.0

-1.4996465377227191e6 7.923303472356608e6 0.0
7.923303472356608e6 -4.998822019869623e6 0.0
0.0 0.0 0.0

-2.2113873160836184e6 8.960259582849804e6 0.0
8.960259582849804e6 -77615.83156442945 0.0
0.0 0.0 0.0

1.3263143411420654e6 6.631536058371451e6 0.0
6.631536058371451e6 -6.233776847981801e6 0.0
0.0 0.0 0.0

-3.281477347745325e6 7.344331291292583e6 0.0
7.344331291292583e6 -239287.6409229848 0.0
0.0 0.0 0.0

-1.3867342789896538e6 1.1245015752154326e7 0.0
1.1245015752154326e7 -1.9918585155311576e6 0.0
0.0 0.0 0.0

4.139853464500679e6 9.783971245656503e6 0.0
9.783971245656503e6 -6.9942965927985655e6 0.0
0.0 0.0 0.0

-2.9901447280725036e6 4.24923760881831e6 0.0
4.24923760881831e6 2.2463222147459844e6 0.0
0.0 0.0 0.0

-1.2589646612486802e6 3.415871830967147e6 0.0
3.415871830967147e6 1.882293730394526e6 0.0
0.0 0.0 0.0

-5.549253652434942e6 8.600844090719197e6 0.0
8.600844090719197e6 3.2415438167235055e6 0.0
0.0 0.0 0.0

-4.743924893412532e6 8.299763769502778e6 0.0
8.299763769502778e6 1.4838617005036646e6 0.0
0.0 0.0 0.0

-6.38172686862885e6 13363.989505299489 0.0
13363.989505299489 7.592648240627638e6 0.0
0.0 0.0 0.0

-933357.5949508464 8.496524316056699e6 0.0
8.496524316056699e6 -651498.7181299895 0.0
0.0 0.0 0.0

-5.089727238668447e6 7.848705301532758e6 0.0
7.848705301532758e6 2.517616650654993e6 0.0
0.0 0.0 0.0

-715830.3690384817 3.284727470928014e6 0.0
3.284727470928014e6 -2.2828852260557925e6 0.0
0.0 0.0 0.0

-2.985578629315426e6 6.374618772873264e6 0.0
6.374618772873264e6 6.570069885951382e6 0.0
0.0 0.0 0.0

-1.3217916318002073e7 9.149165008013425e6 0.0
9.149165008013425e6 2.4302105113067776e6 0.0
0.0 0.0 0.0

-111697.35570711395 8.674213996146237e6 0.0
8.674213996146237e6 -497633.9982019444 0.0
0.0 0.0 0.0

-272139.15330041165 3.4571256776949596e6 0.0
3.4571256776949596e6 -3.349446039330022e6 0.0
0.0 0.0 0.0

-6.532107969559241e6 5.9697860234970655e6 0.0
5.9697860234970655e6 1.035863935011812e7 0.0
0.0 0.0 0.0

-3.661890509072276e6 9.43024599309039e6 0.0
9.43024599309039e6 401287.39891501237 0.0
0.0 0.0 0.0

-1.2783086142886821e6 1.4321579571594974e7 0.0
1.4321579571594974e7 -2.0872768811541563e6 0.0
0.0 0.0 0.0

-1.1848535733014133e6 6.818117376312409e6 0.0
6.818117376312409e6 -3.949511942002102e6 0.0
0.0 0.0 0.0

-1.3558184612451752e6 6.399584696000231e6 0.0
6.399584696000231e6 -858953.242897016 0.0
0.0 0.0 0.0

-555371.9381213293 3.487334357154211e6 0.0
3.487334357154211e6 -2.3143612450587233e6 0.0
0.0 0.0 0.0

-501715.8543530229 7.735084462634281e6 0.0
7.735084462634281e6 -4.298829573259125e6 0.0
0.0 0.0 0.0

-2.9324080017294376e6 7.675831678532388e6 0.0
7.675831678532388e6 -419724.63619998057 0.0
0.0 0.0 0.0

905310.8947583472 8.386345560312769e6 0.0
8.386345560312769e6 2.355040785076205e6 0.0
0.0 0.0 0.0

-5.228049527997644e6 6.84373197368614e6 0.0
6.84373197368614e6 2.6003136646555895e6 0.0
0.0 0.0 0.0

-1.1332431176383342e6 1.1303695913686253e7 0.0
1.1303695913686253e7 -2.402145122241621e6 0.0
0.0 0.0 0.0

-913132.895608316 -889954.6679358529 0.0
-889954.6679358529 5.235987785713198e6 0.0
0.0 0.0 0.0

-79385.64867229783 2.278395373567675e6 0.0
2.278395373567675e6 755704.249024239 0.0
0.0 0.0 0.0

467323.23725383705 1.1341112440159062e7 0.0
1.1341112440159062e7 -3.375527127348806e6 0.0
0.0 0.0 0.0

-157902.5351378292 8.913953950249873e6 0.0
8.913953950249873e6 -520366.4521659887 0.0
0.0 0.0 0.0

8.40706568105337e6 7.37499418695201e6 0.0
7.37499418695201e6 -3.0325227954868022e6 0.0
0.0 0.0 0.0

-157507.94693443726 2.397193573299486e6 0.0
2.397193573299486e6 -504433.1415244748 0.0
0.0 0.0 0.0

-6.560438428696503e6 9.306575531384394e6 0.0
9.306575531384394e6 794316.9273947678 0.0
0.0 0.0 0.0

-6.383162577269534e6 3.547089777741076e6 0.0
3.547089777741076e6 5.166921852011099e6 0.0
0.0 0.0 0.0

-1.2318025007267283e7 8.96127786752677e6 0.0
8.96127786752677e6 4.373571940143147e6 0.0
0.0 0.0 0.0

5.224469278799658e6 6.064792201241324e6 0.0
6.064792201241324e6 -1.3776357843842292e6 0.0
0.0 0.0 0.0

-1.0625877742670573e7 122206.13785194964 0.0
122206.13785194964 1.4435046882892635e7 0.0
0.0 0.0 0.0

-1.334590835102056e6 5.786306182075699e6 0.0
5.786306182075699e6 -846581.5730727674 0.0
0.0 0.0 0.0

-8.406692664747387e6 8.834500857598683e6 0.0
8.834500857598683e6 4.5111090123195825e6 0.0
0.0 0.0 0.0

-4.116681232889319e6 8.141788826521568e6 0.0
8.141788826521568e6 1.8885359492634393e6 0.0
0.0 0.0 0.0

-3.04053910116635e6 7.881130615053375e6 0.0
7.881130615053375e6 -917704.4422539921 0.0
0.0 0.0 0.0

-909135.3901130469 6.713055767332455e6 0.0
6.713055767332455e6 -2.2380168942476604e6 0.0
0.0 0.0 0.0

-432825.4931183774 8.818371653862914e6 0.0
8.818371653862914e6 -458092.977524 0.0
0.0 0.0 0.0

-1.0115094616438912e6 7.242628690544638e6 0.0
7.242628690544638e6 -4.353537843072811e6 0.0
0.0 0.0 0.0

-240330.5928386068 8.516089119283805e6 0.0
8.516089119283805e6 -5.722614449063038e6 0.0
0.0 0.0 0.0

1.0628689507130352e6 4.038152728495452e6 0.0
4.038152728495452e6 463355.6966057983 0.0
0.0 0.0 0.0

-6.018416040075011e6 1.3835769159347227e7 0.0
1.3835769159347227e7 -121496.90438116784 0.0
0.0 0.0 0.0

-1.2237519778387349e6 7.080764979781504e6 0.0
7.080764979781504e6 -4.0791733363251053e6 0.0
0.0 0.0 0.0

-563666.0632774835 8.951702260347428e6 0.0
8.951702260347428e6 3.3743527806785274e6 0.0
0.0 0.0 0.0

-162774.363913342 8.329473025175715e6 0.0
8.329473025175715e6 -3.331327047623851e6 0.0
0.0 0.0 0.0

-4.468314923571027e6 8.207868029226781e6 0.0
8.207868029226781e6 1.4021482312537269e6 0.0
0.0 0.0 0.0

-714198.0832586976 7.510828833016325e6 0.0
7.510828833016325e6 -4.011627388648773e6 0.0
0.0 0.0 0.0

-7.7484982149891555e6 259998.07849947168 0.0
259998.07849947168 3.409315432584169e6 0.0
0.0 0.0 0.0

-286774.31520144996 1.6639989517921845e6 0.0
1.6639989517921845e6 -816962.147706697 0.0
0.0 0.0 0.0

-2.9573813726613414e6 5.129745851289367e6 0.0
5.129745851289367e6 2.577262138472013e6 0.0
0.0 0.0 0.0

-392179.02025804314 6.532000108898443e6 0.0
6.532000108898443e6 -2.245864101335803e6 0.0
0.0 0.0 0.0

-2.095272374098976e6 5.872299083618271e6 0.0
5.872299083618271e6 -958697.9666478571 0.0
0.0 0.0 0.0

-2.7489882564146947e6 6.55294626644649e6 0.0
6.55294626644649e6 -88903.82431029645 0.0
0.0 0.0 0.0

-1.6127154510538348e6 5.778660841142378e6 0.0
5.778660841142378e6 -1.129226279178189e6 0.0
0.0 0.0 0.0

3.267427042027438e6 1.1112042085140597e7 0.0
1.1112042085140597e7 -4.759677753317393e6 0.0
0.0 0.0 0.0

-7.538370490098167e6 8.407572505673517e6 0.0
8.407572505673517e6 4.075423071230527e6 0.0
0.0 0.0 0.0

-1.446736852528565e6 1.1893655537105901e7 0.0
1.1893655537105901e7 -2.3208442155942083e6 0.0
0.0 0.0 0.0

-2.2235408234172566e6 9.005699872419013e6 0.0
9.005699872419013e6 254389.32927509164 0.0
0.0 0.0 0.0

-6.710301707575215e6 9.122101114321705e6 0.0
9.122101114321705e6 3.1989505012988495e6 0.0
0.0 0.0 0.0

-3.2626145750657674e6 5.5303562744119335e6 0.0
5.5303562744119335e6 1.9219575685123897e6 0.0
0.0 0.0 0.0

-519799.5283981601 3.3644186572988234e6 0.0
3.3644186572988234e6 -1.328909155680625e6 0.0
0.0 0.0 0.0

-1.1945356689116778e6 6.30246184339362e6 0.0
6.30246184339362e6 -1.1846511236013493e6 0.0
0.0 0.0 0.0

-878347.5875514898 7.772528874035921e6 0.0
7.772528874035921e6 -4.75840680438924e6 0.0
0.0 0.0 0.0

-1.9025626560128117e6 8.658145141204307e6 0.0
8.658145141204307e6 150445.58951263165 0.0
0.0 0.0 0.0

-1.2348961594116236e6 1.966592326779886e6 0.0
1.966592326779886e6 -1.2305643209248837e6 0.0
0.0 0.0 0.0

-1.921662437374729e7 8.609945433349296e6 0.0
8.609945433349296e6 8.941805890022323e6 0.0
0.0 0.0 0.0

895419.4344625645 7.288621148454178e6 0.0
7.288621148454178e6 -6.637026330748029e6 0.0
0.0 0.0 0.0

-1.2112100845279587e6 4.858191486964018e6 0.0
4.858191486964018e6 -1.3789332066933145e6 0.0
0.0 0.0 0.0

-508594.14723961684 7.976667401642585e6 0.0
7.976667401642585e6 -4.9952844431996625e6 0.0
0.0 0.0 0.0

1.1788079958121534e6 6.123226918042121e6 0.0
6.123226918042121e6 -6.261076166013108e6 0.0
0.0 0.0 0.0

-1.16203303387775e6 1.6047969384062473e7 0.0
1.6047969384062473e7 -3.1047324655645844e6 0.0
0.0 0.0 0.0

40819.5513383362 6.989204281256387e6 0.0
6.989204281256387e6 -4.007171738318773e6 0.0
0.0 0.0 0.0

-9.935891874318194e6 3.8488338930908693e6 0.0
3.8488338930908693e6 1.1768611157476798e7 0.0
0.0 0.0 0.0

-3.183001025871094e6 4.555813677284808e6 0.0
4.555813677284808e6 2.8447682773589743e6 0.0
0.0 0.0 0.0

-2.899247905673108e6 7.806366479762769e6 0.0
7.806366479762769e6 1.13046348185645e6 0.0
0.0 0.0 0.0

-4.299235997774256e6 4.745229858944121e6 0.0
4.745229858944121e6 3.4394118384400923e6 0.0
0.0 0.0 0.0

-3.2716559207688626e6 5.322392560917445e6 0.0
5.322392560917445e6 3.3297858882344244e6 0.0
0.0 0.0 0.0

-3.919555423020539e6 8.457302983659538e6 0.0
8.457302983659538e6 1.086545608557534e6 0.0
0.0 0.0 0.0

479193.4834795781 1.0577808126162939e7 0.0
1.0577808126162939e7 1.597311400291927e6 0.0
0.0 0.0 0.0

-371238.3503320022 2.483889862357801e6 0.0
2.483889862357801e6 -1.0429636147638949e6 0.0
0.0 0.0 0.0

-1.72453855132283e6 9.852818881609153e6 0.0
9.852818881609153e6 -1.8988572595595354e6 0.0
0.0 0.0 0.0

552690.5650947774 7.884888916686593e6 0.0
7.884888916686593e6 -6.684409085136487e6 0.0
0.0 0.0 0.0

-8.599384265485648e6 8.340401603719874e6 0.0
8.340401603719874e6 4.765939883988505e6 0.0
0.0 0.0 0.0

-4.431429023367809e6 1.0939217140675105e7 0.0
1.0939217140675105e7 -131289.9308129102 0.0
0.0 0.0 0.0

897889.3561283564 7.899176304254612e6 0.0
7.899176304254612e6 -2.327456431594329e6 0.0
0.0 0.0 0.0

-2.8415041110892654e6 4.340293428226007e6 0.0
4.340293428226007e6 2.585331898731916e6 0.0
0.0 0.0 0.0

-9.76457293925814e6 7.071833929496291e6 0.0
7.071833929496291e6 5.839287952456558e6 0.0
0.0 0.0 0.0

-2.123488990557293e6 1.0451801980427375e7 0.0
1.0451801980427375e7 -1.2253151738744047e6 0.0
0.0 0.0 0.0

-289887.3582240618 7.542662221427449e6 0.0
7.542662221427449e6 -4.681775979099789e6 0.0
0.0 0.0 0.0

-1.0602238882730557e7 7.747355991981608e6 0.0
7.747355991981608e6 6.4512548059825655e6 0.0
0.0 0.0 0.0

4.2918457448552e6 1.4705088169404343e7 0.0
1.4705088169404343e7 -8.160331572398264e6 0.0
0.0 0.0 0.0

601599.5262998586 7.451758369940012e6 0.0
7.451758369940012e6 -1.5949061223749241e6 0.0
0.0 0.0 0.0

-625810.7157749144 7.320219788134837e6 0.0
7.320219788134837e6 -3.329854417131792e6 0.0
0.0 0.0 0.0

-973421.3096012103 8.162189793599916e6 0.0
8.162189793599916e6 -5.257636520997146e6 0.0
0.0 0.0 0.0

-2.5381535532850376e6 1.4214991631373342e7 0.0
1.4214991631373342e7 -1.182631333572768e6 0.0
0.0 0.0 0.0

-468991.4356291577 8.649795894284876e6 0.0
8.649795894284876e6 -3.4232096622493602e6 0.0
0.0 0.0 0.0

-6.089722123901454e6 9.632558204007892e6 0.0
9.632558204007892e6 2.2614507599054095e6 0.0
0.0 0.0 0.0

608872.0693407566 7.587624849947325e6 0.0
7.587624849947325e6 -6.22579693017993e6 0.0
0.0 0.0 0.0

-364092.42587348656 9.317200964106673e6 0.0
9.317200964106673e6 -349071.8377865301 0.0
0.0 0.0 0.0

-8.005621505055422e6 6.88473061597871e6 0.0
6.88473061597871e6 3.4759827088233414e6 0.0
0.0 0.0 0.0

-4.143037950093906e6 8.593464246665997e6 0.0
8.593464246665997e6 1.254934315435266e6 0.0
0.0 0.0 0.0

4.661652101196808e6 7.116435981335422e6 0.0
7.116435981335422e6 -2.2223656557906074e6 0.0
0.0 0.0 0.0

-7.160168778479239e6 9.168922564520273e6 0.0
9.168922564520273e6 3.636838899895142e6 0.0
0.0 0.0 0.0

-1.4577863998919697e6 7.63501930901897e6 0.0
7.63501930901897e6 -129654.41684835096 0.0
0.0 0.0 0.0

302055.6992810832 4.229795138266285e6 0.0
4.229795138266285e6 -1.8319094613923044e6 0.0
0.0 0.0 0.0

-5.5196131149060745e6 1.3505526554462885e7 0.0
1.3505526554462885e7 1.6769520103196248e6 0.0
0.0 0.0 0.0

-641084.1522344794 8.631526526849711e6 0.0
8.631526526849711e6 -3.1929325465439335e6 0.0
0.0 0.0 0.0

1.1850106364354189e6 6.6161579579591e6 0.0
6.6161579579591e6 -6.302741806318643e6 0.0
0.0 0.0 0.0

-1.1385803269029153e6 4.966952190536967e6 0.0
4.966952190536967e6 -1.3620925413478694e6 0.0
0.0 0.0 0.0

-1.1578297843296314e6 2.783471903593651e6 0.0
2.783471903593651e6 -1.2909394596336102e6 0.0
0.0 0.0 0.0

-1.4637100326958704e6 7.053944731099694e6 0.0
7.053944731099694e6 -2.354179155829942e6 0.0
0.0 0.0 0.0

-6.379969707876074e6 7.0970759009861965e6 0.0
7.0970759009861965e6 2.22043712309561e6 0.0
0.0 0.0 0.0

-1.3387234583093615e6 9.068611606827546e6 0.0
9.068611606827546e6 25823.79419645219 0.0
0.0 0.0 0.0

-1.0156352841875457e6 1.171712951504105e7 0.0
1.171712951504105e7 -2.040352095997518e6 0.0
0.0 0.0 0.0

990575.8773988229 6.447582803922446e6 0.0
6.447582803922446e6 -5.7226310153401345e6 0.0
0.0 0.0 0.0

-3.0286030752626485e6 7.281502590209241e6 0.0
7.281502590209241e6 -304520.5474902162 0.0
0.0 0.0 0.0

-2.169205292917926e6 7.130572361516412e6 0.0
7.130572361516412e6 -1.7864906979447277e6 0.0
0.0 0.0 0.0

-6.689545069218143e6 8.914530920343924e6 0.0
8.914530920343924e6 3.262830217813605e6 0.0
0.0 0.0 0.0

-1.5416335126183014e6 1.3580169934352595e7 0.0
1.3580169934352595e7 -2.1361499322466697e6 0.0
0.0 0.0 0.0

-3.147959014746572e6 7.73051155367435e6 0.0
7.73051155367435e6 1.385199987252453e6 0.0
0.0 0.0 0.0

-2.3389538637760747e6 8.027216597108454e6 0.0
8.027216597108454e6 1.1689196814896036e6 0.0
0.0 0.0 0.0

-9.868751763657603e6 9.351391825437203e6 0.0
9.351391825437203e6 2.164555317544712e7 0.0
0.0 0.0 0.0

-9.2693350588683e6 8.981988652633771e6 0.0
8.981988652633771e6 4.889437287327595e6 0.0
0.0 0.0 0.0

-371582.1413108668 9.782632517323604e6 0.0
9.782632517323604e6 -2.778702822526486e6 0.0
0.0 0.0 0.0

193828.53744685836 7.014871181698894e6 0.0
7.014871181698894e6 -4.482961364712106e6 0.0
0.0 0.0 0.0

313813.31945562223 6.904191674474704e6 0.0
6.904191674474704e6 -4.760870163888091e6 0.0
0.0 0.0 0.0

745810.4908512142 6.278678609872541e6 0.0
6.278678609872541e6 -3.659644160452732e6 0.0
0.0 0.0 0.0

-3.2236325885517737e6 6.868582049637005e6 0.0
6.868582049637005e6 1.739326865561043e6 0.0
0.0 0.0 0.0

525030.4899345366 6.575548482432599e6 0.0
6.575548482432599e6 -4.0469433711219984e6 0.0
0.0 0.0 0.0

-3.193415228672604e6 1.527689573823822e6 0.0
1.527689573823822e6 2.9295423829092057e6 0.0
0.0 0.0 0.0

-2.6922295981057566e6 7.635129750231552e6 0.0
7.635129750231552e6 1.5013095610574475e6 0.0
0.0 0.0 0.0

-1.361647990483538e6 5.160005380593587e6 0.0
5.160005380593587e6 -1.27031959111265e6 0.0
0.0 0.0 0.0

-4.976765204244774e6 1.0552505422508227e7 0.0
1.0552505422508227e7 555876.9631802398 0.0
0.0 0.0 0.0

-5.36885927170333e6 1.1796858484456614e7 0.0
1.1796858484456614e7 1.5836596821289742e6 0.0
0.0 0.0 0.0

-109392.68414364514 8.785840574628567e6 0.0
8.785840574628567e6 -688765.5106196497 0.0
0.0 0.0 0.0

600922.0149933901 7.504330493873203e6 0.0
7.504330493873203e6 -5.958653161391985e6 0.0
0.0 0.0 0.0

1.2719445374076222e6 6.55668976933279e6 0.0
6.55668976933279e6 -6.354362403567292e6 0.0
0.0 0.0 0.0

-1.8240175712092385e7 9.945513280246416e6 0.0
9.945513280246416e6 4.456575628056067e6 0.0
0.0 0.0 0.0

987178.6502551362 9.168077578780476e6 0.0
9.168077578780476e6 3.3533026859629713e6 0.0
0.0 0.0 0.0

-5.358314371845829e6 1.141290593223812e7 0.0
1.141290593223812e7 1.8184257162767116e6 0.0
0.0 0.0 0.0

-1.2903427767103668e6 8.828846252644936e6 0.0
8.828846252644936e6 1.1471134476306043e6 0.0
0.0 0.0 0.0

-297170.2518584069 9.18690689010333e6 0.0
9.18690689010333e6 -556541.1597063637 0.0
0.0 0.0 0.0

-7.845600733967679e6 1.3579986302128853e6 0.0
1.3579986302128853e6 8.687725541146684e6 0.0
0.0 0.0 0.0

-5.869816770751414e6 8.021939528946845e6 0.0
8.021939528946845e6 3.2028209739554003e6 0.0
0.0 0.0 0.0

-2.083540205791607e6 5.616569996078336e6 0.0
5.616569996078336e6 -903408.5309509329 0.0
0.0 0.0 0.0

-614477.0532484815 1.9136750413207726e6 0.0
1.9136750413207726e6 -80679.35943865978 0.0
0.0 0.0 0.0

-1.1927274836517567e7 4.479444542192528e6 0.0
4.479444542192528e6 3.442538671959377e7 0.0
0.0 0.0 0.0

-1.2309442322229757e6 1.0267678381117558e7 0.0
1.0267678381117558e7 -2.2549662655865927e6 0.0
0.0 0.0 0.0

-774187.7230307284 989967.2499731429 0.0
989967.2499731429 -1.4004470403323e6 0.0
0.0 0.0 0.0

-1.1949396031117296e7 561950.9365304585 0.0
561950.9365304585 1.6288364148617119e7 0.0
0.0 0.0 0.0

1.3453033940287738e6 5.932086062069898e6 0.0
5.932086062069898e6 -5.411929903437104e6 0.0
0.0 0.0 0.0

-2.951439997425368e6 5.969293276324508e6 0.0
5.969293276324508e6 2.418038748612996e6 0.0
0.0 0.0 0.0

-1.0529065613103522e7 8.443426589128576e6 0.0
8.443426589128576e6 5.129850771964503e6 0.0
0.0 0.0 0.0

-1.2120863176431223e6 9.416471040892577e6 0.0
9.416471040892577e6 -2.8719471572886645e6 0.0
0.0 0.0 0.0

-1.0497973309916463e6 1.3579984513957212e6 0.0
1.3579984513957212e6 1.091600356919381e6 0.0
0.0 0.0 0.0

-1.920222559573898e6 8.87353973157279e6 0.0
8.87353973157279e6 13708.962494567502 0.0
0.0 0.0 0.0

-57751.374097768334 1.3384590710782938e7 0.0
1.3384590710782938e7 -3.3575975339367734e6 0.0
0.0 0.0 0.0

47748.31121559598 1.7229899493867627e6 0.0
1.7229899493867627e6 -1.1013616394424592e6 0.0
0.0 0.0 0.0

2.7726397048731674e6 8.013385963710935e6 0.0
8.013385963710935e6 -2.314228675145575e6 0.0
0.0 0.0 0.0

-6.425452643704986e6 1.704399125874927e7 0.0
1.704399125874927e7 -2.7578669238968818e6 0.0
0.0 0.0 0.0

1.0460621521878927e6 6.031269474342171e6 0.0
6.031269474342171e6 -4.655197753329905e6 0.0
0.0 0.0 0.0

-1.960479229415614e6 7.762795891763551e6 0.0
7.762795891763551e6 -793377.7134784127 0.0
0.0 0.0 0.0

67207.16812271532 1.1839957179205421e7 0.0
1.1839957179205421e7 4.0849924863050105e6 0.0
0.0 0.0 0.0

8.898102500410128e6 6.8233073818994e6 0.0
6.8233073818994e6 -2.8834994593669344e6 0.0
0.0 0.0 0.0

-1.3165499477096658e7 8.2901207066576835e6 0.0
8.2901207066576835e6 6.271007710715471e6 0.0
0.0 0.0 0.0

-3.5844703006105986e6 8.364023133523396e6 0.0
8.364023133523396e6 937383.020444317 0.0
0.0 0.0 0.0

492549.8957195808 7.411479736365027e6 0.0
7.411479736365027e6 -5.641050521448117e6 0.0
0.0 0.0 0.0

-5.369354229275291e6 7.23468743310756e6 0.0
7.23468743310756e6 2.138815775741755e6 0.0
0.0 0.0 0.0

1.9652864805575341e6 7.253092016369509e6 0.0
7.253092016369509e6 -694616.9678936355 0.0
0.0 0.0 0.0

-1.1176011810979668e7 -806920.2986279333 0.0
-806920.2986279333 2.082961915349649e7 0.0
0.0 0.0 0.0

-2.3740522739486275e6 8.201318703812154e6 0.0
8.201318703812154e6 983685.2375743883 0.0
0.0 0.0 0.0

-454090.3988743135 9.062240654367747e6 0.0
9.062240654367747e6 486765.06642926275 0.0
0.0 0.0 0.0

-2.9158951149581783e6 6.769213378197008e6 0.0
6.769213378197008e6 -675732.1958656826 0.0
0.0 0.0 0.0

1.2124072243548108e6 1.0263032130721899e7 0.0
1.0263032130721899e7 -3.786001879129275e6 0.0
0.0 0.0 0.0

-276353.8692272294 1.0220057690231055e7 0.0
1.0220057690231055e7 -2.783466477851065e6 0.0
0.0 0.0 0.0

-1.835863973949227e6 6.070893897783832e6 0.0
6.070893897783832e6 -923739.5756027622 0.0
0.0 0.0 0.0

-1.434933659318356e6 8.866816334063184e6 0.0
8.866816334063184e6 1.4627912481396631e6 0.0
0.0 0.0 0.0

-241983.80390933872 9.229092792079497e6 0.0
9.229092792079497e6 -596007.3823798674 0.0
0.0 0.0 0.0

-233821.7005249049 8.877603788465656e6 0.0
8.877603788465656e6 -478652.85646115337 0.0
0.0 0.0 0.0

-419635.33612087637 7.545153665773282e6 0.0
7.545153665773282e6 -4.494963788316745e6 0.0
0.0 0.0 0.0

-4.393386906035477e6 8.659186324924376e6 0.0
8.659186324924376e6 1.8078130942142413e6 0.0
0.0 0.0 0.0

-7.581984445001209e6 8.775495701682841e6 0.0
8.775495701682841e6 2.557179692735474e6 0.0
0.0 0.0 0.0

-6.245078827520486e6 8.586897107456293e6 0.0
8.586897107456293e6 3.4506160200339393e6 0.0
0.0 0.0 0.0

-1.3945483805570323e6 8.939540804427015e6 0.0
8.939540804427015e6 494499.8151441621 0.0
0.0 0.0 0.0

764738.0483665145 6.558895719851046e6 0.0
6.558895719851046e6 -4.780123975552913e6 0.0
0.0 0.0 0.0

-1.6305254307170366e6 1.0172254834659325e7 0.0
1.0172254834659325e7 -2.397610719112953e6 0.0
0.0 0.0 0.0

-3.069763065271527e6 1.4195553582357671e7 0.0
1.4195553582357671e7 -3.111511693130591e6 0.0
0.0 0.0 0.0

-1.6558376312654743e6 807287.3288915535 0.0
807287.3288915535 774342.8146163923 0.0
0.0 0.0 0.0

-1.8257526544731422e6 8.630629629975617e6 0.0
8.630629629975617e6 486229.5132086468 0.0
0.0 0.0 0.0

470755.01734323974 7.815221448352286e6 0.0
7.815221448352286e6 -2.419610470844156e6 0.0
0.0 0.0 0.0

700805.698739296 1.1273215492330154e7 0.0
1.1273215492330154e7 -3.3130021034018146e6 0.0
0.0 0.0 0.0

-1.7269297368532154e6 2.032951013160618e6 0.0
2.032951013160618e6 1.4014688524147244e6 0.0
0.0 0.0 0.0

-921770.2328259493 9.314689218982616e6 0.0
9.314689218982616e6 1.1725158857870274e6 0.0
0.0 0.0 0.0

-5.011008649765631e6 5.177985560159564e6 0.0
5.177985560159564e6 1.755575788675648e6 0.0
0.0 0.0 0.0

-362280.7792236048 7.838221665055313e6 0.0
7.838221665055313e6 -3.83594697289562e6 0.0
0.0 0.0 0.0

-6.973829576407031e6 1.3353220144063504e7 0.0
1.3353220144063504e7 2.9789987394710802e6 0.0
0.0 0.0 0.0

-6.801748112883607e6 8.580066867212374e6 0.0
8.580066867212374e6 3.849998197590877e6 0.0
0.0 0.0 0.0

-1.1064907861398582e6 2.932270264378613e6 0.0
2.932270264378613e6 257579.38186828227 0.0
0.0 0.0 0.0

-3.33440533994724e6 9.21227283515277e6 0.0
9.21227283515277e6 459843.82375121 0.0
0.0 0.0 0.0

-6.956069124640582e6 8.83843570233158e6 0.0
8.83843570233158e6 3.872494003412343e6 0.0
0.0 0.0 0.0

-6.321664531214503e6 8.810772493203606e6 0.0
8.810772493203606e6 3.4438753198845605e6 0.0
0.0 0.0 0.0

-314271.6422280068 8.886631709851712e6 0.0
8.886631709851712e6 -53785.52862862967 0.0
0.0 0.0 0.0

-691378.9611855715 7.792631078466666e6 0.0
7.792631078466666e6 -2.880880640276767e6 0.0
0.0 0.0 0.0

6.497409030267191e6 9.28308876879642e6 0.0
9.28308876879642e6 -1.8567651964429389e6 0.0
0.0 0.0 0.0

-8.900892747945832e6 -3.7312636715887426e6 0.0
-3.7312636715887426e6 2.8763907598609e6 0.0
0.0 0.0 0.0

-6.671162687761303e6 6.886042591545259e6 0.0
6.886042591545259e6 1.6487124676698046e6 0.0
0.0 0.0 0.0

1.1594854434269576e6 5.766340242509044e6 0.0
5.766340242509044e6 -5.351070638512443e6 0.0
0.0 0.0 0.0

-2.735674601638939e6 8.106802577291262e6 0.0
8.106802577291262e6 -1.2853117259421176e6 0.0
0.0 0.0 0.0

-5.3059733864322575e6 7.498472771236969e6 0.0
7.498472771236969e6 2.649016407509283e6 0.0
0.0 0.0 0.0

-3.6931441289028022e6 2.0388895605603424e6 0.0
2.0388895605603424e6 3.5176771040035198e6 0.0
0.0 0.0 0.0

-168537.38460771274 7.0187275693211e6 0.0
7.0187275693211e6 -4.1590916617851187e6 0.0
0.0 0.0 0.0

-855102.3566533341 7.353057813452982e6 0.0
7.353057813452982e6 -4.1761249441176318e6 0.0
0.0 0.0 0.0

1.8078226787052844e6 7.695988323051508e6 0.0
7.695988323051508e6 -1.3709373548912602e6 0.0
0.0 0.0 0.0

-1.6003213381565806e7 8.545017828617748e6 0.0
8.545017828617748e6 7.634897302022103e6 0.0
0.0 0.0 0.0

-1.4247463916076184e6 6.945501794583504e6 0.0
6.945501794583504e6 -1.2786762422640559e6 0.0
0.0 0.0 0.0

-4.468492303536686e6 7.829872433619367e6 0.0
7.829872433619367e6 2.0010933459402444e6 0.0
0.0 0.0 0.0

-5.008146179445293e6 8.952725998440456e6 0.0
8.952725998440456e6 2.135875906420937e6 0.0
0.0 0.0 0.0

-4.589627452557107e6 -2.2283810129352217e6 0.0
-2.2283810129352217e6 1.1252125369973997e7 0.0
0.0 0.0 0.0

-182063.686290334 2.3847259048348796e6 0.0
2.3847259048348796e6 -866333.2382982464 0.0
0.0 0.0 0.0

-977302.6009602462 7.946105527002629e6 0.0
7.946105527002629e6 -3.1308507470088433e6 0.0
0.0 0.0 0.0

-2.2380140230152854e6 1.64765614897048e6 0.0
1.64765614897048e6 2.5089845899015157e6 0.0
0.0 0.0 0.0

-1.2224441898800647e6 8.896153946944742e6 0.0
8.896153946944742e6 -2.9264783705886044e6 0.0
0.0 0.0 0.0

1.3828352351987043e6 9.733661011963148e6 0.0
9.733661011963148e6 -2.913599692021369e6 0.0
0.0 0.0 0.0

-911055.2164342492 3.7591144136288255e6 0.0
3.7591144136288255e6 -1.9802986273405906e6 0.0
0.0 0.0 0.0

-5.227959382179323e6 7.23627410616826e6 0.0
7.23627410616826e6 1.1628280868746063e6 0.0
0.0 0.0 0.0

-7.093273095314721e6 8.138796218932248e6 0.0
8.138796218932248e6 3.999607481861697e6 0.0
0.0 0.0 0.0

-719341.8749524916 6.143091741833058e6 0.0
6.143091741833058e6 -2.3978061802418805e6 0.0
0.0 0.0 0.0

-209835.92937254964 8.845906124872997e6 0.0
8.845906124872997e6 -699453.049987341 0.0
0.0 0.0 0.0

-860105.3133882937 7.923396901628908e6 0.0
7.923396901628908e6 -2.7317747054930017e6 0.0
0.0 0.0 0.0

-874754.4747430019 7.37342862637548e6 0.0
7.37342862637548e6 -4.1726394971197476e6 0.0
0.0 0.0 0.0

-423307.90148905 2.9730420572819337e6 0.0
2.9730420572819337e6 -620148.5776306646 0.0
0.0 0.0 0.0

-1.1192182233233117e6 6.998250270043451e6 0.0
6.998250270043451e6 -1.5205503166446625e6 0.0
0.0 0.0 0.0

-1.84800780500393e6 1.0701619223960765e7 0.0
1.0701619223960765e7 -1.596100608552361e6 0.0
0.0 0.0 0.0

42633.32996470714 6.582076723765297e6 0.0
6.582076723765297e6 -3.549338570067756e6 0.0
0.0 0.0 0.0

-1.2368555757078964e7 8.529314452150574e6 0.0
8.529314452150574e6 3.499966279735146e6 0.0
0.0 0.0 0.0

887061.7278877066 1.012653841304364e7 0.0
1.012653841304364e7 -3.5755068748779986e6 0.0
0.0 0.0 0.0

4.918745289759582e6 8.44074375028877e6 0.0
8.44074375028877e6 -3.9456862013337114e6 0.0
0.0 0.0 0.0

-1.0341410948438901e7 8.03236272925615e6 0.0
8.03236272925615e6 6.01868906469911e6 0.0
0.0 0.0 0.0

-575971.5278401026 3.3606367032238594e6 0.0
3.3606367032238594e6 -749095.0642510513 0.0
0.0 0.0 0.0

-2.4675872203541836e6 6.885763529682799e6 0.0
6.885763529682799e6 -1.4295655690676116e6 0.0
0.0 0.0 0.0

-3.5898588776068194e6 8.807223324366277e6 0.0
8.807223324366277e6 315095.47658916865 0.0
0.0 0.0 0.0

-1.029923690697061e7 6.630364957649695e6 0.0
6.630364957649695e6 3.7710253711199886e6 0.0
0.0 0.0 0.0

-486629.769279178 7.674293663982878e6 0.0
7.674293663982878e6 -4.916575944321438e6 0.0
0.0 0.0 0.0

-240677.21625800602 9.177471300419634e6 0.0
9.177471300419634e6 -368924.7731119561 0.0
0.0 0.0 0.0

-517937.2295390144 7.553578703915996e6 0.0
7.553578703915996e6 -4.294995421479712e6 0.0
0.0 0.0 0.0

-1.072888265003116e7 7.191926558797076e6 0.0
7.191926558797076e6 5.650609386628471e6 0.0
0.0 0.0 0.0

-4.331558762689293e6 9.604977066708786e6 0.0
9.604977066708786e6 120643.65269944607 0.0
0.0 0.0 0.0

-2.5787584053729395e6 8.457131165039942e6 0.0
8.457131165039942e6 -105496.24050299148 0.0
0.0 0.0 0.0

119907.46469622036 7.043647970643501e6 0.0
7.043647970643501e6 -4.497936568275608e6 0.0
0.0 0.0 0.0

-5.108291335195685e6 2.1256864476932823e6 0.0
2.1256864476932823e6 5.767412549359158e6 0.0
0.0 0.0 0.0

-2.8170580797941517e6 6.380121383838351e6 0.0
6.380121383838351e6 -372139.6045733419 0.0
0.0 0.0 0.0

687579.2331114868 1.0846228244983546e7 0.0
1.0846228244983546e7 -3.0039389421667093e6 0.0
0.0 0.0 0.0

-534839.5737115381 7.595860489978285e6 0.0
7.595860489978285e6 -4.574318210481983e6 0.0
0.0 0.0 0.0

-5.333073779325324e6 7.718039152212429e6 0.0
7.718039152212429e6 1.799049966854751e6 0.0
0.0 0.0 0.0

-4.583090881656219e6 1.7471357790628694e7 0.0
1.7471357790628694e7 -5.36445755960673e6 0.0
0.0 0.0 0.0

-2.641608911735591e6 9.105976138747994e6 0.0
9.105976138747994e6 96257.80979527149 0.0
0.0 0.0 0.0

-6.147811660009203e6 7.738070678143881e6 0.0
7.738070678143881e6 2.283653743355294e6 0.0
0.0 0.0 0.0

-3.213635891518739e6 4.993807923608301e6 0.0
4.993807923608301e6 1.773678377117408e6 0.0
0.0 0.0 0.0

-263712.2653181661 1.023963959653023e7 0.0
1.023963959653023e7 -2.82236771075298e6 0.0
0.0 0.0 0.0

-4.296937328275406e6 8.51118265071614e6 0.0
8.51118265071614e6 1.7753049089703185e6 0.0
0.0 0.0 0.0

-349166.8351712653 7.574010927377514e6 0.0
7.574010927377514e6 -4.776332902646858e6 0.0
0.0 0.0 0.0

597019.8968541455 6.597045830296668e6 0.0
6.597045830296668e6 -4.543210081472728e6 0.0
0.0 0.0 0.0

-642637.533873147 7.60303596937646e6 0.0
7.60303596937646e6 -4.37183645599707e6 0.0
0.0 0.0 0.0

-5.340886358179178e6 8.991150181929786e6 0.0
8.991150181929786e6 2.5878034725128557e6 0.0
0.0 0.0 0.0

-89126.01476902522 8.2686940795668345e6 0.0
8.2686940795668345e6 -297086.66758354544 0.0
0.0 0.0 0.0

-93556.33369328544 6.8788526613595635e6 0.0
6.8788526613595635e6 -311854.50871867297 0.0
0.0 0.0 0.0

-5.386862543313229e6 5.032565617838523e6 0.0
5.032565617838523e6 5.919265449658543e6 0.0
0.0 0.0 0.0

-1.621715329208511e6 6.000493071387167e6 0.0
6.000493071387167e6 -816505.2077659818 0.0
0.0 0.0 0.0

-555386.0692188515 1.0940444078161145e7 0.0
1.0940444078161145e7 2.465165179347503e6 0.0
0.0 0.0 0.0

-4.596622181185171e6 1.5220523738740627e6 0.0
1.5220523738740627e6 3.9716356045060907e6 0.0
0.0 0.0 0.0

1.271347118881852e6 6.447610638843029e6 0.0
6.447610638843029e6 -6.266249972722366e6 0.0
0.0 0.0 0.0

-354039.86167796026 7.785292306417189e6 0.0
7.785292306417189e6 -4.367657321488776e6 0.0
0.0 0.0 0.0

-5.856135834212484e6 8.003565333633755e6 0.0
8.003565333633755e6 2.46163818286314e6 0.0
0.0 0.0 0.0

2.330350025062845e6 8.626686791201368e6 0.0
8.626686791201368e6 1.4524360746304453e6 0.0
0.0 0.0 0.0

-2.0078463847550298e6 1.7792500831909645e6 0.0
1.7792500831909645e6 1.0787912312037013e6 0.0
0.0 0.0 0.0

-1.1684101027709179e7 7.403995369661078e6 0.0
7.403995369661078e6 4.603627171431202e6 0.0
0.0 0.0 0.0

-2.199420215570347e6 8.417953716958644e6 0.0
8.417953716958644e6 443311.78595374 0.0
0.0 0.0 0.0

-1.2094492743740328e7 6.785617200691801e6 0.0
6.785617200691801e6 5.538119750291546e6 0.0
0.0 0.0 0.0

1.132034482747476e6 6.481628321492308e6 0.0
6.481628321492308e6 -6.2503717702790825e6 0.0
0.0 0.0 0.0

-4.444227553099377e6 1.1911728937416703e7 0.0
1.1911728937416703e7 1.070476071922454e6 0.0
0.0 0.0 0.0

-1.0664695397520337e7 3.746323049063112e6 0.0
3.746323049063112e6 1.4262893219899328e7 0.0
0.0 0.0 0.0

-3.7950361425486607e6 7.931395355505395e6 0.0
7.931395355505395e6 1.817817212664557e6 0.0
0.0 0.0 0.0

-718153.0483385801 8.638345288586967e6 0.0
8.638345288586967e6 -582840.0353449706 0.0
0.0 0.0 0.0

12229.993543134304 3.2584964561647465e6 0.0
3.2584964561647465e6 -1.4099471882780523e6 0.0
0.0 0.0 0.0

-1.193965123419689e6 8.201047269316341e6 0.0
8.201047269316341e6 252962.63841571542 0.0
0.0 0.0 0.0

-2.128770275954128e6 8.393602722434096e6 0.0
8.393602722434096e6 745926.285491607 0.0
0.0 0.0 0.0

-914289.2148886961 4.1362573497141586e6 0.0
4.1362573497141586e6 -1.4008967805832787e6 0.0
0.0 0.0 0.0

-1.7640450403710452e6 8.86513122393105e6 0.0
8.86513122393105e6 -42111.65064412716 0.0
0.0 0.0 0.0

524391.3263159379 1.0562329291683806e7 0.0
1.0562329291683806e7 -2.9324177070462266e6 0.0
0.0 0.0 0.0

-1.676690724211406e6 6.494886417873448e6 0.0
6.494886417873448e6 -837961.9762086987 0.0
0.0 0.0 0.0

-281488.4636145348 7.578391714026775e6 0.0
7.578391714026775e6 -4.620848534555913e6 0.0
0.0 0.0 0.0

-1.4351226294015741e6 6.431582043060768e6 0.0
6.431582043060768e6 -909672.53616723 0.0
0.0 0.0 0.0

-3.4882664465385554e6 5.770463827587409e6 0.0
5.770463827587409e6 3.931349108260627e6 0.0
0.0 0.0 0.0

-480225.9718607067 2.753344361734077e6 0.0
2.753344361734077e6 -661248.9865709257 0.0
0.0 0.0 0.0

-3.3587945553168715e6 8.125281149585652e6 0.0
8.125281149585652e6 268352.8417468406 0.0
0.0 0.0 0.0

-4.0938077299110433e6 8.078849857561899e6 0.0
8.078849857561899e6 1.7649467356276968e6 0.0
0.0 0.0 0.0

-2.8027880627524955e6 1.3289345463691402e7 0.0
1.3289345463691402e7 -781617.456893345 0.0
0.0 0.0 0.0

-3.0938540592251616e6 1.7741318877130167e6 0.0
1.7741318877130167e6 2.2813129041048577e6 0.0
0.0 0.0 0.0

-313171.7555151263 7.620838712773956e6 0.0
7.620838712773956e6 -4.683370333956702e6 0.0
0.0 0.0 0.0

-4.252643639048517e6 8.227345845189032e6 0.0
8.227345845189032e6 1.9756299441989167e6 0.0
0.0 0.0 0.0

-292504.7677032057 8.902531719788902e6 0.0
8.902531719788902e6 -3.0486976777867973e6 0.0
0.0 0.0 0.0

-2.175381380556137e6 5.873136305777552e6 0.0
5.873136305777552e6 -780055.5399537102 0.0
0.0 0.0 0.0

-464362.27408791275 2.7649785809021266e6 0.0
2.7649785809021266e6 -712342.4084005941 0.0
0.0 0.0 0.0

-6.416938110730734e6 8.159943143848814e6 0.0
8.159943143848814e6 2.989878164051737e6 0.0
0.0 0.0 0.0

-3.7851751336592473e6 7.902557919496829e6 0.0
7.902557919496829e6 930274.9101821389 0.0
0.0 0.0 0.0

-880152.3387494475 8.50205829563573e6 0.0
8.50205829563573e6 1.8788469662756782e6 0.0
0.0 0.0 0.0

613810.7634799764 5.183767296928469e6 0.0
5.183767296928469e6 -1.366030930152132e6 0.0
0.0 0.0 0.0

1.0819490245941593e6 7.471876137441389e6 0.0
7.471876137441389e6 -1.5486239111937496e6 0.0
0.0 0.0 0.0

893877.1267737374 7.274910005908678e6 0.0
7.274910005908678e6 -6.415206854318759e6 0.0
0.0 0.0 0.0

-7.445200617785962e6 1.3381326956061427e7 0.0
1.3381326956061427e7 1.526290943019582e6 0.0
0.0 0.0 0.0

-2.704463950983586e6 8.031314077296379e6 0.0
8.031314077296379e6 1.103068440073981e6 0.0
0.0 0.0 0.0

-499489.83876983204 3.9058232633786364e6 0.0
3.9058232633786364e6 -1.3927478457605117e6 0.0
0.0 0.0 0.0

-1.0103328671539413e6 9.37624055214205e6 0.0
9.37624055214205e6 -107546.19533185023 0.0
0.0 0.0 0.0

688495.9748248288 7.48970074572584e6 0.0
7.48970074572584e6 -6.009909843296517e6 0.0
0.0 0.0 0.0

-668381.7633498037 8.12002232339915e6 0.0
8.12002232339915e6 -3.779364517442853e6 0.0
0.0 0.0 0.0

-8.794897086118538e6 8.632639522479381e6 0.0
8.632639522479381e6 4.754577493314326e6 0.0
0.0 0.0 0.0

-146199.7652798242 8.538996784065085e6 0.0
8.538996784065085e6 -487332.4709559236 0.0
0.0 0.0 0.0

-3.2119296376050315e6 8.225242843971604e6 0.0
8.225242843971604e6 1.9877546015876422e6 0.0
0.0 0.0 0.0

-3.2869810796002927e6 7.8849080399743775e6 0.0
7.8849080399743775e6 859701.577829998 0.0
0.0 0.0 0.0

-1.9066113612934798e6 7.351514097319595e6 0.0
7.351514097319595e6 -1.4362649604579483e6 0.0
0.0 0.0 0.0

1.5406401829617484e6 7.837090735334298e6 0.0
7.837090735334298e6 -1.8535206194340163e6 0.0
0.0 0.0 0.0

-4.103010107330867e6 6.319124083379595e6 0.0
6.319124083379595e6 3.0437334743582336e6 0.0
0.0 0.0 0.0

-1.2175259762849156e6 9.083845496774564e6 0.0
9.083845496774564e6 116498.77769639215 0.0
0.0 0.0 0.0

-1.0222484295943912e7 1.5465271328613053e6 0.0
1.5465271328613053e6 1.78140259352128e7 0.0
0.0 0.0 0.0

-2.0235890104928555e6 5.830676257265101e6 0.0
5.830676257265101e6 -715517.9234626095 0.0
0.0 0.0 0.0

-1.035930301106307e6 7.150904598198075e6 0.0
7.150904598198075e6 -4.1892057701646383e6 0.0
0.0 0.0 0.0

-1.3772753700102246e6 9.857174159950493e6 0.0
9.857174159950493e6 -2.582742000853631e6 0.0
0.0 0.0 0.0

-2.667877695398006e6 6.944510122373193e6 0.0
6.944510122373193e6 492704.38281310967 0.0
0.0 0.0 0.0

-2.4388384707385213e6 8.227954340404051e6 0.0
8.227954340404051e6 709713.9877994565 0.0
0.0 0.0 0.0

-222437.9641518218 8.81987772245897e6 0.0
8.81987772245897e6 -741459.9278180534 0.0
0.0 0.0 0.0

-4.931702802920933e6 8.934152979756905e6 0.0
8.934152979756905e6 2.0978500750136753e6 0.0
0.0 0.0 0.0

-1.5306509232268422e6 9.103057981101513e6 0.0
9.103057981101513e6 -36071.30836125999 0.0
0.0 0.0 0.0

-8.112459398841526e6 -2.6391121640390675e6 0.0
-2.6391121640390675e6 1.4041240616382865e7 0.0
0.0 0.0 0.0

-1.3879311906713499e6 2.9468783981338087e6 0.0
2.9468783981338087e6 291805.57091505866 0.0
0.0 0.0 0.0

-310624.6397078725 9.29516355548542e6 0.0
9.29516355548542e6 -2.899851401885366e6 0.0
0.0 0.0 0.0

-8.459382625841418e6 6.75871421042895e6 0.0
6.75871421042895e6 1.8285812026219042e6 0.0
0.0 0.0 0.0

-440393.15702963853 3.1724394736372395e6 0.0
3.1724394736372395e6 -1.0156701331884818e6 0.0
0.0 0.0 0.0

-9.728539455998803e6 563552.0088727722 0.0
563552.0088727722 1.1621337340065412e7 0.0
0.0 0.0 0.0

-436737.1157862037 -779312.6292800666 0.0
-779312.6292800666 329791.0866111332 0.0
0.0 0.0 0.0

-619144.9920172323 1.9290669585160764e6 0.0
1.9290669585160764e6 -215366.49181276618 0.0
0.0 0.0 0.0

-785948.8455419735 7.363290837746829e6 0.0
7.363290837746829e6 -3.207217088219056e6 0.0
0.0 0.0 0.0

-3.9241982270240327e6 7.943167585883444e6 0.0
7.943167585883444e6 877957.9653007479 0.0
0.0 0.0 0.0

-3.8281235387056116e6 5.793944708152774e6 0.0
5.793944708152774e6 585648.2008930978 0.0
0.0 0.0 0.0

-2.679336027755774e6 7.836013017980354e6 0.0
7.836013017980354e6 1.1881109517477893e6 0.0
0.0 0.0 0.0

-477256.0973089725 7.692672246319913e6 0.0
7.692672246319913e6 -4.211363866579728e6 0.0
0.0 0.0 0.0

-1.6682829255745485e6 7.714872268651705e6 0.0
7.714872268651705e6 1.5888329663216837e6 0.0
0.0 0.0 0.0

-1.0022873745969003e6 7.53996049359331e6 0.0
7.53996049359331e6 -4.65560656232496e6 0.0
0.0 0.0 0.0

-1.9928658429998588e6 8.618969874998556e6 0.0
8.618969874998556e6 59647.092414863175 0.0
0.0 0.0 0.0

610866.7630308461 7.706372008480763e6 0.0
7.706372008480763e6 -6.3704102172428155e6 0.0
0.0 0.0 0.0

638076.360995362 7.496694334145791e6 0.0
7.496694334145791e6 -5.832153094332426e6 0.0
0.0 0.0 0.0

-3.5173882867680234e6 8.493555455706371e6 0.0
8.493555455706371e6 1.8137806030629384e6 0.0
0.0 0.0 0.0

-9.05855619649524e6 7.524131878398465e6 0.0
7.524131878398465e6 5.06157409884689e6 0.0
0.0 0.0 0.0

-4.487184199130834e6 7.59990862060393e6 0.0
7.59990862060393e6 1.9524463206687425e6 0.0
0.0 0.0 0.0

-863697.9289013348 6.93439911210932e6 0.0
6.93439911210932e6 -1.4418210309916153e6 0.0
0.0 0.0 0.0

-2.6039327340792133e6 2.3686739617736638e6 0.0
2.3686739617736638e6 2.30701263819438e6 0.0
0.0 0.0 0.0

-83723.26858837635 8.48402953062605e6 0.0
8.48402953062605e6 -3.097260016394317e6 0.0
0.0 0.0 0.0

1.5767247261490687e6 1.0493307171632322e7 0.0
1.0493307171632322e7 -3.8988701306019938e6 0.0
0.0 0.0 0.0

-9.112635012542982e6 4.649479055752064e6 0.0
4.649479055752064e6 1.5550145208259687e7 0.0
0.0 0.0 0.0

-1.1201219165429522e6 9.128746766088009e6 0.0
9.128746766088009e6 324836.4984671641 0.0
0.0 0.0 0.0

-4.603129697949896e6 8.064646412175223e6 0.0
8.064646412175223e6 1.7828103233596983e6 0.0
0.0 0.0 0.0

-833449.1210778453 7.212202523358686e6 0.0
7.212202523358686e6 -3.9511143689789884e6 0.0
0.0 0.0 0.0

-9.71372932672894e6 2.2321214078743206e6 0.0
2.2321214078743206e6 1.1722866767136011e7 0.0
0.0 0.0 0.0

-1.5737856311901438e6 8.904785619170604e6 0.0
8.904785619170604e6 104769.44535838137 0.0
0.0 0.0 0.0

-1.8451933708894956e6 9.85497861543366e6 0.0
9.85497861543366e6 -2.3106332126678536e6 0.0
0.0 0.0 0.0

-483849.6391306225 7.744399015590901e6 0.0
7.744399015590901e6 -4.1750592258511665e6 0.0
0.0 0.0 0.0

687159.7816242473 7.243086685750242e6 0.0
7.243086685750242e6 -5.90344807578776e6 0.0
0.0 0.0 0.0

136303.1710278252 6.999321292287517e6 0.0
6.999321292287517e6 -5.081735568349762e6 0.0
0.0 0.0 0.0

-436979.4956139005 8.211735655564812e6 0.0
8.211735655564812e6 -5.468291669305319e6 0.0
0.0 0.0 0.0

-4.59346101847947e6 8.757829780999916e6 0.0
8.757829780999916e6 1.9320671452188443e6 0.0
0.0 0.0 0.0

-4.380610820466813e6 7.889852654872027e6 0.0
7.889852654872027e6 2.341992185773803e6 0.0
0.0 0.0 0.0

-375895.15391686 8.677439428538816e6 0.0
8.677439428538816e6 -3.386356834872959e6 0.0
0.0 0.0 0.0

2.7041735021272916e6 1.1019443612779522e7 0.0
1.1019443612779522e7 -4.430942309951818e6 0.0
0.0 0.0 0.0

-8.407965343121517e6 81497.9631229925 0.0
81497.9631229925 1.2365179282360416e7 0.0
0.0 0.0 0.0

616311.07355072 7.533818495551862e6 0.0
7.533818495551862e6 -6.074294872310659e6 0.0
0.0 0.0 0.0

428288.956962785 7.139526303742573e6 0.0
7.139526303742573e6 -5.074297246289002e6 0.0
0.0 0.0 0.0

-1.0566495909557343e7 1.217722842488461e6 0.0
1.217722842488461e6 2.0512880188386183e7 0.0
0.0 0.0 0.0

3.1804216192290215e6 7.811555419403858e6 0.0
7.811555419403858e6 -1.1307506662135387e6 0.0
0.0 0.0 0.0

-8.668269314165495e6 1.5868694080024569e6 0.0
1.5868694080024569e6 1.2880378555950768e7 0.0
0.0 0.0 0.0

-482284.76791449526 3.1157635326928324e6 0.0
3.1157635326928324e6 -1.17033461544976e6 0.0
0.0 0.0 0.0

-5.15879233329416e6 9.048241549287932e6 0.0
9.048241549287932e6 2.3077084599256576e6 0.0
0.0 0.0 0.0

-347951.46939139534 7.178690827236974e6 0.0
7.178690827236974e6 -3.920834121314187e6 0.0
0.0 0.0 0.0

-6.405138100685129e6 8.777566144494643e6 0.0
8.777566144494643e6 3.1653071849368014e6 0.0
0.0 0.0 0.0

-7.478345448814515e6 3.390147649740541e6 0.0
3.390147649740541e6 1.0849666216459023e7 0.0
0.0 0.0 0.0

-979576.8154757146 3.290895066855979e6 0.0
3.290895066855979e6 -188471.80717324425 0.0
0.0 0.0 0.0

-4.1328668318041135e6 1.2372757386406373e7 0.0
1.2372757386406373e7 674870.6927473922 0.0
0.0 0.0 0.0

-2.3368912716267235e6 8.1372290511696655e6 0.0
8.1372290511696655e6 1.1590970555525678e6 0.0
0.0 0.0 0.0

-3.667576642951137e6 9.801215512373025e6 0.0
9.801215512373025e6 420474.3773359782 0.0
0.0 0.0 0.0

-3.308354041808726e6 7.876893162335367e6 0.0
7.876893162335367e6 1.0754673847363314e6 0.0
0.0 0.0 0.0

-369530.8512374256 7.876078948370512e6 0.0
7.876078948370512e6 -4.241131599455808e6 0.0
0.0 0.0 0.0

-822397.4739289623 1.1217454800919546e7 0.0
1.1217454800919546e7 -2.2810425514007253e6 0.0
0.0 0.0 0.0

-3.096316111146203e6 1.163674307994603e7 0.0
1.163674307994603e7 3.8456806418175064e6 0.0
0.0 0.0 0.0

-2.8728006529098996e6 -2.3881949995385315e6 0.0
-2.3881949995385315e6 3.543409176731651e6 0.0
0.0 0.0 0.0

-1.6502383879846875e6 3.2980817188520236e6 0.0
3.2980817188520236e6 -198182.3240283776 0.0
0.0 0.0 0.0

21271.15084084693 7.313407721476683e6 0.0
7.313407721476683e6 70903.9899601586 0.0
0.0 0.0 0.0

134725.46881907125 8.0385169505632445e6 0.0
8.0385169505632445e6 449084.78152578726 0.0
0.0 0.0 0.0

-7.583725519006838e6 1.4172829313126847e7 0.0
1.4172829313126847e7 696182.6762138135 0.0
0.0 0.0 0.0

681687.251246829 4.460214354663227e6 0.0
4.460214354663227e6 -5.623679712301231e6 0.0
0.0 0.0 0.0

-7.086836653026616e6 9.049447905207103e6 0.0
9.049447905207103e6 3.5256908801790546e6 0.0
0.0 0.0 0.0

-9.810130073947834e6 -1.9092353364451348e6 0.0
-1.9092353364451348e6 6.648180684254417e6 0.0
0.0 0.0 0.0

-1.3139499984227405e6 1.0005019737023951e7 0.0
1.0005019737023951e7 -2.626607495074315e6 0.0
0.0 0.0 0.0

-7.81902263506729e6 4.337634903337327e6 0.0
4.337634903337327e6 8.722797766979078e6 0.0
0.0 0.0 0.0

-71293.31299399317 8.839910757188652e6 0.0
8.839910757188652e6 -3.1358608896999126e6 0.0
0.0 0.0 0.0

-2.7181235377607783e6 8.028643137625246e6 0.0
8.028643137625246e6 862523.1533048988 0.0
0.0 0.0 0.0

-3.836836182217691e6 7.702602586516898e6 0.0
7.702602586516898e6 802720.4437907995 0.0
0.0 0.0 0.0

-204059.8906191286 9.335935989197511e6 0.0
9.335935989197511e6 -2.9790949727830566e6 0.0
0.0 0.0 0.0

1.2944601042314786e6 6.621834536920645e6 0.0
6.621834536920645e6 -6.232868443972813e6 0.0
0.0 0.0 0.0

-971975.0538768288 6.326576380458938e6 0.0
6.326576380458938e6 -3.239916997888535e6 0.0
0.0 0.0 0.0

647662.7029474031 1.1498578566144256e7 0.0
1.1498578566144256e7 -3.1484441644207714e6 0.0
0.0 0.0 0.0

-552419.7416301023 8.576050152593922e6 0.0
8.576050152593922e6 -3.404409432236497e6 0.0
0.0 0.0 0.0

-218722.28345898222 7.176932657787894e6 0.0
7.176932657787894e6 666486.8709689481 0.0
0.0 0.0 0.0

567471.429833371 7.482193672420993e6 0.0
7.482193672420993e6 -5.810958956573082e6 0.0
0.0 0.0 0.0

-3.7042722557352553e6 7.898974570444983e6 0.0
7.898974570444983e6 7254.921235267073 0.0
0.0 0.0 0.0

-2.539268378466771e6 8.682809614697376e6 0.0
8.682809614697376e6 3.8763507974889614e6 0.0
0.0 0.0 0.0

-1.649582243358999e6 1.4623430885048544e7 0.0
1.4623430885048544e7 -4.750853581038716e6 0.0
0.0 0.0 0.0

523375.3362107957 7.36547067324479e6 0.0
7.36547067324479e6 -5.546380969979777e6 0.0
0.0 0.0 0.0

-7.372426641589044e6 -1.9499120995325416e6 0.0
-1.9499120995325416e6 5.984045256107332e6 0.0
0.0 0.0 0.0

-917023.3345630805 9.026423579570075e6 0.0
9.026423579570075e6 636244.2078991542 0.0
0.0 0.0 0.0

-7.059820665071645e6 8.803511638056811e6 0.0
8.803511638056811e6 3.5206829506863337e6 0.0
0.0 0.0 0.0

-2.605936398460534e6 7.759606970938932e6 0.0
7.759606970938932e6 -746553.8382205234 0.0
0.0 0.0 0.0

-4.303682905469107e6 8.301075134059185e6 0.0
8.301075134059185e6 1.9418964702848983e6 0.0
0.0 0.0 0.0

-1.221864250710285e7 3.549625632822585e6 0.0
3.549625632822585e6 1.5822151925147649e7 0.0
0.0 0.0 0.0

-1.2039500284814038e6 8.0106952046388835e6 0.0
8.0106952046388835e6 -2.433000866605973e6 0.0
0.0 0.0 0.0

-5.567332580083734e6 1.2291965330318363e7 0.0
1.2291965330318363e7 488971.4134491007 0.0
0.0 0.0 0.0

-1.4958148757729798e6 6.901674806482089e6 0.0
6.901674806482089e6 -1.1915372039204137e6 0.0
0.0 0.0 0.0

-9.617127718999326e6 -954331.5588753158 0.0
-954331.5588753158 4.4828869744103495e6 0.0
0.0 0.0 0.0

-2.0571403240090674e6 6.803146024856473e6 0.0
6.803146024856473e6 -808595.78637293 0.0
0.0 0.0 0.0

-2.41010074674021e6 994338.2394358136 0.0
994338.2394358136 1.3060794642110495e6 0.0
0.0 0.0 0.0

-6.035412502771612e6 4.8817195320910765e6 0.0
4.8817195320910765e6 9.585928301804606e6 0.0
0.0 0.0 0.0

-5.6168925198435355e6 9.038694065022543e6 0.0
9.038694065022543e6 2.80507998571205e6 0.0
0.0 0.0 0.0

-7.828205564619826e6 8.888400759170806e6 0.0
8.888400759170806e6 4.0278755378779853e6 0.0
0.0 0.0 0.0

-8.32314175108124e6 2.914386449131404e6 0.0
2.914386449131404e6 1.2670436702285806e7 0.0
0.0 0.0 0.0

-1.3549465964095618e6 5.300600959140707e6 0.0
5.300600959140707e6 -1.8654830089436264e6 0.0
0.0 0.0 0.0

1.3158269428380176e6 9.278050980871167e6 0.0
9.278050980871167e6 -3.5656004209573744e6 0.0
0.0 0.0 0.0

-775634.1773402113 6.6991422283509765e6 0.0
6.6991422283509765e6 -3.7674099713585046e6 0.0
0.0 0.0 0.0

-603897.7006191545 3.9032692637755186e6 0.0
3.9032692637755186e6 717414.3294504262 0.0
0.0 0.0 0.0

-5.828481368409747e6 9.109299232545493e6 0.0
9.109299232545493e6 2.696732343165979e6 0.0
0.0 0.0 0.0

-4.711479044339832e6 5.321054808497855e6 0.0
5.321054808497855e6 4.625011880557565e6 0.0
0.0 0.0 0.0

403035.0869965188 7.346434589817622e6 0.0
7.346434589817622e6 -5.523206618918336e6 0.0
0.0 0.0 0.0

-6.733254228146724e6 7.027868350065324e6 0.0
7.027868350065324e6 940624.643727466 0.0
0.0 0.0 0.0

-4.157139574807776e6 9.837494398254827e6 0.0
9.837494398254827e6 893237.7360322888 0.0
0.0 0.0 0.0

1.1059125525486716e6 6.880272405778205e6 0.0
6.880272405778205e6 -6.450168586633913e6 0.0
0.0 0.0 0.0

-1.7341859485558285e6 8.760293087744096e6 0.0
8.760293087744096e6 1.4657512195699215e6 0.0
0.0 0.0 0.0

-3.697669681101751e6 8.182243532304873e6 0.0
8.182243532304873e6 821191.7782269304 0.0
0.0 0.0 0.0

-1.1242748515219502e6 9.923413627258118e6 0.0
9.923413627258118e6 -2.5024231412355527e6 0.0
0.0 0.0 0.0

-6.898286496418581e6 8.588676887944678e6 0.0
8.588676887944678e6 3.529633663175534e6 0.0
0.0 0.0 0.0

-3.9466142271224363e6 7.841013895149338e6 0.0
7.841013895149338e6 1.0441289626176329e6 0.0
0.0 0.0 0.0

-5.913107601285635e6 8.985100193429558e6 0.0
8.985100193429558e6 3.0753052152783996e6 0.0
0.0 0.0 0.0

-1.028171971014454e6 7.18944494142104e6 0.0
7.18944494142104e6 -1.4198145712030726e6 0.0
0.0 0.0 0.0

-256374.70677278464 9.320503409930222e6 0.0
9.320503409930222e6 1.192249402142597e6 0.0
0.0 0.0 0.0

-716443.4103996896 8.303988252933974e6 0.0
8.303988252933974e6 -3.642520346404795e6 0.0
0.0 0.0 0.0

-1.9006436903009897e6 6.741728634466142e6 0.0
6.741728634466142e6 -711640.070710804 0.0
0.0 0.0 0.0

-1.089392521354546e6 9.25467689817337e6 0.0
9.25467689817337e6 -2.9797253821873046e6 0.0
0.0 0.0 0.0

-278328.10493176174 5.944450412353762e6 0.0
5.944450412353762e6 -3.4372552324245027e6 0.0
0.0 0.0 0.0

-867579.219571864 8.486439425484588e6 0.0
8.486439425484588e6 3.9225082539328146e6 0.0
0.0 0.0 0.0

-2.274377181223104e6 746244.1539304331 0.0
746244.1539304331 3.0128527517495183e6 0.0
0.0 0.0 0.0

-273286.6833026913 9.598661761142664e6 0.0
9.598661761142664e6 1.6315780272091876e6 0.0
0.0 0.0 0.0

-4.781188371560417e6 8.909378709318098e6 0.0
8.909378709318098e6 2.1224606130780177e6 0.0
0.0 0.0 0.0

-474566.27638527926 8.051414819127428e6 0.0
8.051414819127428e6 -3.6721128531582635e6 0.0
0.0 0.0 0.0

-4.617869942419559e6 1.142478299657636e7 0.0
1.142478299657636e7 1.245107174638932e6 0.0
0.0 0.0 0.0

-1.0714741836261828e6 9.408021379556742e6 0.0
9.408021379556742e6 -141503.74971821785 0.0
0.0 0.0 0.0

-68356.40647178562 7.131118361112008e6 0.0
7.131118361112008e6 -3.85111624889702e6 0.0
0.0 0.0 0.0

-4.391559809155427e6 1.0008632362506194e7 0.0
1.0008632362506194e7 93675.93861913076 0.0
0.0 0.0 0.0

-823441.4501433726 8.590681403192114e6 0.0
8.590681403192114e6 -3.428155317289874e6 0.0
0.0 0.0 0.0

-365110.2826253136 3.261389296863838e6 0.0
3.261389296863838e6 -1.1644012402218832e6 0.0
0.0 0.0 0.0

-4.1448296607941287e6 1.0236147022587696e7 0.0
1.0236147022587696e7 3.2216892726560426e6 0.0
0.0 0.0 0.0

-2.4672147384948106e6 8.202219014343875e6 0.0
8.202219014343875e6 880551.3185967272 0.0
0.0 0.0 0.0

-5.04417071907812e6 8.96707823102077e6 0.0
8.96707823102077e6 2.3652084663160117e6 0.0
0.0 0.0 0.0

-1.1582245266700592e6 9.06219435506131e6 0.0
9.06219435506131e6 227991.37850439327 0.0
0.0 0.0 0.0

230596.32668615924 3.976057876864645e6 0.0
3.976057876864645e6 -1.5379183235473102e6 0.0
0.0 0.0 0.0

-8.35482152518877e6 1.950809055364599e6 0.0
1.950809055364599e6 9.781310315793373e6 0.0
0.0 0.0 0.0

-1.1789333085649658e6 9.627111526417408e6 0.0
9.627111526417408e6 -2.805696515606293e6 0.0
0.0 0.0 0.0

510494.0583255782 8.059383045885973e6 0.0
8.059383045885973e6 -6.047580485531209e6 0.0
0.0 0.0 0.0

43625.165400656755 5.179549766678349e6 0.0
5.179549766678349e6 -1.6062456008206005e6 0.0
0.0 0.0 0.0

-454850.7310261639 3.076605997116363e6 0.0
3.076605997116363e6 -697897.3385472095 0.0
0.0 0.0 0.0

-1.5602748437973603e6 5.875725897293867e6 0.0
5.875725897293867e6 -630601.3145537324 0.0
0.0 0.0 0.0

-4.602938682187263e6 9.564856174595596e6 0.0
9.564856174595596e6 1.2882627855053023e6 0.0
0.0 0.0 0.0

-18623.176830487326 7.618684645946874e6 0.0
7.618684645946874e6 -5.24937789724576e6 0.0
0.0 0.0 0.0

-375602.4367122366 4.629137792843826e6 0.0
4.629137792843826e6 -3.2320206411034977e6 0.0
0.0 0.0 0.0

-5.277179401884041e6 9.053330831950929e6 0.0
9.053330831950929e6 2.310014888391002e6 0.0
0.0 0.0 0.0

-3.6498999831793755e6 1.0222094779340627e7 0.0
1.0222094779340627e7 414046.1221377293 0.0
0.0 0.0 0.0

-1.2278607603032598e7 7.8404032670145435e6 0.0
7.8404032670145435e6 6.8063376931006955e6 0.0
0.0 0.0 0.0

-5.170958669786734e6 9.025262900118887e6 0.0
9.025262900118887e6 2.270624612349678e6 0.0
0.0 0.0 0.0

-1.3182345065252151e7 6.230278394159452e6 0.0
6.230278394159452e6 6.845455114753425e6 0.0
0.0 0.0 0.0

-1.872784282553456e6 9.151168534954466e6 0.0
9.151168534954466e6 -3602.4956301762722 0.0
0.0 0.0 0.0

393210.2183575167 7.933023224215872e6 0.0
7.933023224215872e6 -5.893101111145124e6 0.0
0.0 0.0 0.0

-1.8370642410553747e6 6.570572266154015e6 0.0
6.570572266154015e6 -961410.9935221749 0.0
0.0 0.0 0.0

-6.468386277908856e6 277997.94937242725 0.0
277997.94937242725 7.00285069384609e6 0.0
0.0 0.0 0.0

-9.19227164815839e6 -662790.9847657987 0.0
-662790.9847657987 1.2338726059226006e7 0.0
0.0 0.0 0.0

766076.548951848 6.503750504252904e6 0.0
6.503750504252904e6 -5.814904116573571e6 0.0
0.0 0.0 0.0

-3.2421898793219067e6 7.789067742275926e6 0.0
7.789067742275926e6 1.2218631917744468e6 0.0
0.0 0.0 0.0

-8.815397537932701e6 4.683036011974036e6 0.0
4.683036011974036e6 1.4431134053986412e7 0.0
0.0 0.0 0.0

-953448.1505556926 8.902146657558812e6 0.0
8.902146657558812e6 -3.1802114197580107e6 0.0
0.0 0.0 0.0

-8.809917054089827e6 6.269052998845916e6 0.0
6.269052998845916e6 1.1096716692576708e7 0.0
0.0 0.0 0.0

-4.807879569425143e6 9.633603342676777e6 0.0
9.633603342676777e6 581436.0274412096 0.0
0.0 0.0 0.0

-6.930778162944913e6 1.153711867773327e7 0.0
1.153711867773327e7 2.3341265954897557e6 0.0
0.0 0.0 0.0

-967118.9076708884 9.342386944456251e6 0.0
9.342386944456251e6 -58882.11566868037 0.0
0.0 0.0 0.0

-593674.671280829 3.1814751643278934e6 0.0
3.1814751643278934e6 -451446.05870490987 0.0
0.0 0.0 0.0

-928059.488180558 9.070023343409231e6 0.0
9.070023343409231e6 397151.56683644076 0.0
0.0 0.0 0.0

-1.3689273570589442e6 5.831682840006172e6 0.0
5.831682840006172e6 -571940.6308415025 0.0
0.0 0.0 0.0

935721.6799783933 6.134130185663377e6 0.0
6.134130185663377e6 -5.643881432640803e6 0.0
0.0 0.0 0.0

-217497.87014717306 1.1031648685974099e7 0.0
1.1031648685974099e7 -2.6908057599064615e6 0.0
0.0 0.0 0.0

-7.599833617284593e6 1.7344550104580943e6 0.0
1.7344550104580943e6 4.851851035187944e6 0.0
0.0 0.0 0.0

-7.2146181660677865e6 8.052508069967086e6 0.0
8.052508069967086e6 880551.4972764617 0.0
0.0 0.0 0.0

-5.621025071936513e6 9.01012561302339e6 0.0
9.01012561302339e6 2.559854233323165e6 0.0
0.0 0.0 0.0

-1.8010680922416318e6 5.0348442191407895e6 0.0
5.0348442191407895e6 -1.710082945192651e6 0.0
0.0 0.0 0.0

-2.408870930070127e6 8.733856025578665e6 0.0
8.733856025578665e6 100779.14401507284 0.0
0.0 0.0 0.0

-6.888110875912259e6 1.0287542550135277e7 0.0
1.0287542550135277e7 3.1642809960909e6 0.0
0.0 0.0 0.0

-2.0239625203773691e6 8.511897910940487e6 0.0
8.511897910940487e6 1.8108973285173052e6 0.0
0.0 0.0 0.0

-1.4134808063501047e6 8.929480456863698e6 0.0
8.929480456863698e6 356067.5075618283 0.0
0.0 0.0 0.0

-1.5714853889158329e6 4.939766490637799e6 0.0
4.939766490637799e6 -1.5590050554575766e6 0.0
0.0 0.0 0.0

-7.609658868693448e6 9.054434214531645e6 0.0
9.054434214531645e6 4.003946696216646e6 0.0
0.0 0.0 0.0

-2.937109359473015e6 915366.4737522231 0.0
915366.4737522231 2.1716318904134887e6 0.0
0.0 0.0 0.0

783522.3087439006 6.649282356651946e6 0.0
6.649282356651946e6 -4.461915308049864e6 0.0
0.0 0.0 0.0

-5.933647506538283e6 9.162315309412986e6 0.0
9.162315309412986e6 2.547986147910728e6 0.0
0.0 0.0 0.0

-523381.85858003714 8.247909372299939e6 0.0
8.247909372299939e6 -3.5548660270924987e6 0.0
0.0 0.0 0.0

90776.99638755934 3.408462213706428e6 0.0
3.408462213706428e6 -1.2719829260263764e6 0.0
0.0 0.0 0.0

-1.1168160026573197e6 3.859689742365874e6 0.0
3.859689742365874e6 -1.9042062568563581e6 0.0
0.0 0.0 0.0

-7.158216071515812e6 6.483692241669505e6 0.0
6.483692241669505e6 4.469979087192114e6 0.0
0.0 0.0 0.0

-242611.8282993501 7.36513708632631e6 0.0
7.36513708632631e6 -3.6031607640934847e6 0.0
0.0 0.0 0.0

66101.3711138994 8.149640265322552e6 0.0
8.149640265322552e6 2.4419075937390774e6 0.0
0.0 0.0 0.0

-805964.9492290462 7.284200247063652e6 0.0
7.284200247063652e6 -1.6161587522409062e6 0.0
0.0 0.0 0.0

259909.9241335938 4.781323918110459e6 0.0
4.781323918110459e6 -2.1602912341132397e6 0.0
0.0 0.0 0.0

-3.6252884995976626e6 1.2819727702861328e7 0.0
1.2819727702861328e7 107912.05780512164 0.0
0.0 0.0 0.0

-1.3863421197892562e6 1.0950096912599828e6 0.0
1.0950096912599828e6 1.4198772357990206e6 0.0
0.0 0.0 0.0

-1.4383281958525546e6 7.463854008867717e6 0.0
7.463854008867717e6 -1.8807413539961814e6 0.0
0.0 0.0 0.0

492235.30153027095 7.394262266165601e6 0.0
7.394262266165601e6 -1.900924039190324e6 0.0
0.0 0.0 0.0

-493381.2142278567 1.2884390407630518e7 0.0
1.2884390407630518e7 -4.041883662943898e6 0.0
0.0 0.0 0.0

-1.1303850118994564e6 9.036626962237796e6 0.0
9.036626962237796e6 -2.608352115658398e6 0.0
0.0 0.0 0.0

-135354.47368368995 1.0695532180118952e7 0.0
1.0695532180118952e7 2.3549502780637816e6 0.0
0.0 0.0 0.0

-4.261368801960714e6 7.987196573101644e6 0.0
7.987196573101644e6 1.885321184930807e6 0.0
0.0 0.0 0.0

-4.271833218614783e6 1.0865177508857364e6 0.0
1.0865177508857364e6 4.981263776912128e6 0.0
0.0 0.0 0.0

-5.731043219892494e6 9.496102847847356e6 0.0
9.496102847847356e6 2.4752746204160834e6 0.0
0.0 0.0 0.0

-1.2677739707054794e6 8.906337833397606e6 0.0
8.906337833397606e6 1.2333986633320032e6 0.0
0.0 0.0 0.0

-739482.2417339196 7.0863038187747905e6 0.0
7.0863038187747905e6 -3.1647803403556882e6 0.0
0.0 0.0 0.0

1.1694598923291015e6 6.477001776957463e6 0.0
6.477001776957463e6 -6.119274749911862e6 0.0
0.0 0.0 0.0

-4.004373631594846e6 7.684054807904331e6 0.0
7.684054807904331e6 894350.3666087864 0.0
0.0 0.0 0.0

-841610.0226481797 3.8683734125038628e6 0.0
3.8683734125038628e6 -789227.4296980519 0.0
0.0 0.0 0.0

-4.839371372220797e6 5.395149923129252e6 0.0
5.395149923129252e6 7.260211455201101e6 0.0
0.0 0.0 0.0

-380618.27160973684 7.896224490520386e6 0.0
7.896224490520386e6 -3.906103727242008e6 0.0
0.0 0.0 0.0

394281.64722612314 7.763849348989476e6 0.0
7.763849348989476e6 -5.84454309914022e6 0.0
0.0 0.0 0.0

-5.892484557839601e6 9.825922596087765e6 0.0
9.825922596087765e6 2.581733075629803e6 0.0
0.0 0.0 0.0

-1.1368538371850788e6 9.114398933251638e6 0.0
9.114398933251638e6 85435.54982837127 0.0
0.0 0.0 0.0

-1.1733841180838823e7 -1.1227072211913003e6 0.0
-1.1227072211913003e6 5.773739745562624e6 0.0
0.0 0.0 0.0

-132262.71780593682 1.1219367216158334e7 0.0
1.1219367216158334e7 2.754336890870125e6 0.0
0.0 0.0 0.0

-1.372022150788537e7 6.022534229103713e6 0.0
6.022534229103713e6 3.2390100218181675e6 0.0
0.0 0.0 0.0

-35961.69402794028 7.017368234442225e6 0.0
7.017368234442225e6 -4.499105104787843e6 0.0
0.0 0.0 0.0

1.9455232263771417e6 3.9671463577306587e6 0.0
3.9671463577306587e6 479258.1417144589 0.0
0.0 0.0 0.0

-1.204595190028559e6 -1.687136483253334e6 0.0
-1.687136483253334e6 1.305042078130256e6 0.0
0.0 0.0 0.0

-457405.10292191367 4.0031320339897303e6 0.0
4.0031320339897303e6 -1.090832672451659e6 0.0
0.0 0.0 0.0

-3.5345065432174406e6 1.870762516394747e6 0.0
1.870762516394747e6 4.518168568730972e6 0.0
0.0 0.0 0.0

-3.227403841224228e6 1.617383116614119e6 0.0
1.617383116614119e6 2.66683548021999e6 0.0
0.0 0.0 0.0

-801750.5866579718 9.174633947634786e6 0.0
9.174633947634786e6 -2.857674064283591e6 0.0
0.0 0.0 0.0

-1.1459717893204372e6 6.658832603466735e6 0.0
6.658832603466735e6 -3.8199060165725024e6 0.0
0.0 0.0 0.0

-179377.97444103405 8.734846079024808e6 0.0
8.734846079024808e6 -597926.609865513 0.0
0.0 0.0 0.0

386687.4529295635 7.8106744669636125e6 0.0
7.8106744669636125e6 -2.4549338414454265e6 0.0
0.0 0.0 0.0

-6.138230431517931e6 1.0155706137056286e7 0.0
1.0155706137056286e7 2.694944236982644e6 0.0
0.0 0.0 0.0

-975614.7665844489 3.7610414835916306e6 0.0
3.7610414835916306e6 -209129.40897529275 0.0
0.0 0.0 0.0

-1.585273221755059e6 9.282232221320711e6 0.0
9.282232221320711e6 -2.529947939255944e6 0.0
0.0 0.0 0.0

-3.7709627522980673e6 8.459353132070117e6 0.0
8.459353132070117e6 1.1564023029578207e6 0.0
0.0 0.0 0.0

378450.9498914536 6.737174845844115e6 0.0
6.737174845844115e6 -5.323854466256375e6 0.0
0.0 0.0 0.0

-2.387980013868699e6 1.4421672558143698e6 0.0
1.4421672558143698e6 2.8041673572632927e6 0.0
0.0 0.0 0.0

-5.300038583570782e6 9.611164982056376e6 0.0
9.611164982056376e6 2.0877445738681038e6 0.0
0.0 0.0 0.0

-1.2240589493058338e6 9.086067357119018e6 0.0
9.086067357119018e6 -15978.534792625695 0.0
0.0 0.0 0.0

-1.2902950062886772e6 9.118731509784853e6 0.0
9.118731509784853e6 -118910.81571324548 0.0
0.0 0.0 0.0

-4.361204142409708e6 7.920470962977887e6 0.0
7.920470962977887e6 2.7139331542796073e6 0.0
0.0 0.0 0.0

-446322.86666871875 9.303620995431961e6 0.0
9.303620995431961e6 844441.6941338318 0.0
0.0 0.0 0.0

-4.338145836404022e6 9.150933582956912e6 0.0
9.150933582956912e6 2.1291429230323606e6 0.0
0.0 0.0 0.0

-8.51396645430825e6 4.1093799735049875e6 0.0
4.1093799735049875e6 9.688159090805832e6 0.0
0.0 0.0 0.0

-5.139841898485077e6 38066.99090319049 0.0
38066.99090319049 5.255182423620708e6 0.0
0.0 0.0 0.0

-516615.4601216059 6.9159493303667875e6 0.0
6.9159493303667875e6 -2.880661381820967e6 0.0
0.0 0.0 0.0

894822.5229988114 6.414638048304771e6 0.0
6.414638048304771e6 -6.087116693718497e6 0.0
0.0 0.0 0.0

-1.4767435086247418e6 9.293166813010514e6 0.0
9.293166813010514e6 -2.167614506800683e6 0.0
0.0 0.0 0.0

769337.5542617575 7.679851586920758e6 0.0
7.679851586920758e6 -358907.5476766342 0.0
0.0 0.0 0.0

-120576.95268684777 4.747120189758544e6 0.0
4.747120189758544e6 -3.0458021012161016e6 0.0
0.0 0.0 0.0

-647826.0128481385 7.587838967483691e6 0.0
7.587838967483691e6 -4.656248104926575e6 0.0
0.0 0.0 0.0

402248.16287818225 7.675494645483763e6 0.0
7.675494645483763e6 -5.761463426210334e6 0.0
0.0 0.0 0.0

-1.3979225547443165e6 7.083311356722465e6 0.0
7.083311356722465e6 -1.109148150207862e6 0.0
0.0 0.0 0.0

-3.176040405413052e6 7.962194771619298e6 0.0
7.962194771619298e6 1.220277077597955e6 0.0
0.0 0.0 0.0

-5.445478328892748e6 9.159058686575988e6 0.0
9.159058686575988e6 2.5544596876066374e6 0.0
0.0 0.0 0.0

-7.160733781340961e6 -359893.12423241284 0.0
-359893.12423241284 1.1001126476631613e7 0.0
0.0 0.0 0.0

407418.89764776244 7.628499459728225e6 0.0
7.628499459728225e6 -5.68586888441328e6 0.0
0.0 0.0 0.0

-8.981293414039254e6 3.866863291987481e6 0.0
3.866863291987481e6 1.0661683965234622e7 0.0
0.0 0.0 0.0

-1.3887886408424934e6 9.095869612735633e6 0.0
9.095869612735633e6 -114912.55902710336 0.0
0.0 0.0 0.0

-6.319060504116385e6 9.95734182986737e6 0.0
9.95734182986737e6 2.384716058448702e6 0.0
0.0 0.0 0.0

-5.619354100639855e6 7.338624957940095e6 0.0
7.338624957940095e6 1.561262452974449e6 0.0
0.0 0.0 0.0

-5.214419727953636e6 4.420774727046759e6 0.0
4.420774727046759e6 7.568230565381842e6 0.0
0.0 0.0 0.0

-910759.4068075733 6.997837520002149e6 0.0
6.997837520002149e6 -3.9536178752889694e6 0.0
0.0 0.0 0.0

-102690.689394136 8.991532468380012e6 0.0
8.991532468380012e6 81839.76919060652 0.0
0.0 0.0 0.0

571634.9901932122 6.51137270427382e6 0.0
6.51137270427382e6 -5.5631810614631465e6 0.0
0.0 0.0 0.0

-795095.7741261185 3.872813265649986e6 0.0
3.872813265649986e6 -2.130233274272165e6 0.0
0.0 0.0 0.0

-7.33530726615138e6 2.480935103790958e6 0.0
2.480935103790958e6 1.0519162656237397e7 0.0
0.0 0.0 0.0

-2.42848630448865e6 8.178937724349178e6 0.0
8.178937724349178e6 857696.0563873082 0.0
0.0 0.0 0.0

-1.028033667715801e7 7.034593663289848e6 0.0
7.034593663289848e6 1.368081326575059e6 0.0
0.0 0.0 0.0

-500172.3784385532 7.672420579421425e6 0.0
7.672420579421425e6 -4.125171913440193e6 0.0
0.0 0.0 0.0

170282.66526934807 6.87584103717994e6 0.0
6.87584103717994e6 -5.062287114511538e6 0.0
0.0 0.0 0.0

392308.7274131838 7.589403438789924e6 0.0
7.589403438789924e6 -5.5700045506497985e6 0.0
0.0 0.0 0.0

-408277.04215785855 785218.9382636942 0.0
785218.9382636942 -1.5877004510864604e6 0.0
0.0 0.0 0.0

-2.4211413502621064e6 8.327883335127413e6 0.0
8.327883335127413e6 -935402.5150988107 0.0
0.0 0.0 0.0

-1.2017463681241903e6 1.0990364854736084e7 0.0
1.0990364854736084e7 -2.1150332587171867e6 0.0
0.0 0.0 0.0

-1.1775459417798197e7 7.7043341613868e6 0.0
7.7043341613868e6 7.062161681558647e6 0.0
0.0 0.0 0.0

-1.1409060693313917e6 1.5169020996503388e6 0.0
1.5169020996503388e6 -565635.7982617568 0.0
0.0 0.0 0.0

-593525.2291362998 8.522124475411538e6 0.0
8.522124475411538e6 -3.3189937165350216e6 0.0
0.0 0.0 0.0

-4.00266793392125e6 5.73505179642916e6 0.0
5.73505179642916e6 5.2094452445114385e6 0.0
0.0 0.0 0.0

-772311.8956600882 1.9695209935728384e6 0.0
1.9695209935728384e6 -29086.37648962834 0.0
0.0 0.0 0.0

808345.9053836025 6.318646533016517e6 0.0
6.318646533016517e6 -5.31148376358551e6 0.0
0.0 0.0 0.0

-990380.701131097 2.0783617976710582e6 0.0
2.0783617976710582e6 358342.0556678651 0.0
0.0 0.0 0.0

-2.750289508497981e6 2.043059588118544e6 0.0
2.043059588118544e6 3.200883500146623e6 0.0
0.0 0.0 0.0

-569410.1722754855 3.621404896331733e6 0.0
3.621404896331733e6 -757441.5967035235 0.0
0.0 0.0 0.0

-2.6143722574723405e6 7.94795270351644e6 0.0
7.94795270351644e6 1.2266020446386565e6 0.0
0.0 0.0 0.0

-1.49895093843228e6 6.253963725767058e6 0.0
6.253963725767058e6 -911462.0823374926 0.0
0.0 0.0 0.0

4.527498439032532e6 5.372082177553673e6 0.0
5.372082177553673e6 -247764.43281027884 0.0
0.0 0.0 0.0

-4.1084478422840443e6 -3.593129210064008e6 0.0
-3.593129210064008e6 2.983312654879624e6 0.0
0.0 0.0 0.0

-953318.9091218367 3.4027113081611157e6 0.0
3.4027113081611157e6 -2.3380288504242315e6 0.0
0.0 0.0 0.0

426525.6581197367 6.878116093863731e6 0.0
6.878116093863731e6 -5.053936309951297e6 0.0
0.0 0.0 0.0

609355.9825208082 6.681939087711758e6 0.0
6.681939087711758e6 -5.2348938673990965e6 0.0
0.0 0.0 0.0

1.1247505431927752e6 2.671664708475775e6 0.0
2.671664708475775e6 137690.52943069898 0.0
0.0 0.0 0.0

-305956.96594915655 -380153.9186881866 0.0
-380153.9186881866 220164.2360296587 0.0
0.0 0.0 0.0

-413175.423379306 7.6670139278500015e6 0.0
7.6670139278500015e6 -4.48052011021321e6 0.0
0.0 0.0 0.0

820326.8235315622 6.317466222305444e6 0.0
6.317466222305444e6 -5.877443057441441e6 0.0
0.0 0.0 0.0

-1.0254859523890596e7 9.084685644504612e6 0.0
9.084685644504612e6 3.1583697728924933e6 0.0
0.0 0.0 0.0

-3.23384020398799e6 5.761456133345298e6 0.0
5.761456133345298e6 1.6983964982680313e6 0.0
0.0 0.0 0.0

-4.967053103347799e6 9.592350506621497e6 0.0
9.592350506621497e6 1.6853514046706245e6 0.0
0.0 0.0 0.0

-392684.59680339164 8.986661062286165e6 0.0
8.986661062286165e6 589571.9064523773 0.0
0.0 0.0 0.0

1.0933418493926856e6 6.547599961168513e6 0.0
6.547599961168513e6 2.9548576728022746e6 0.0
0.0 0.0 0.0

-7.637764603496084e6 6.71864111391487e6 0.0
6.71864111391487e6 4.251411210882226e6 0.0
0.0 0.0 0.0

-6.769544462883457e6 1.1638609112223245e6 0.0
1.1638609112223245e6 8.76439599618704e6 0.0
0.0 0.0 0.0

-2.8296246955131683e6 8.059038693166957e6 0.0
8.059038693166957e6 1.0459780801276546e6 0.0
0.0 0.0 0.0

-959703.9249088414 1.109602456857012e7 0.0
1.109602456857012e7 -2.3267227380747898e6 0.0
0.0 0.0 0.0

-3.806417084041631e6 5.80984361460377e6 0.0
5.80984361460377e6 4.569445180309025e6 0.0
0.0 0.0 0.0

-485919.07140726404 2.639737515942408e6 0.0
2.639737515942408e6 -642582.1329481711 0.0
0.0 0.0 0.0

-5.955194186631267e6 9.36987586292608e6 0.0
9.36987586292608e6 2.27293235394493e6 0.0
0.0 0.0 0.0

118939.15384506946 6.898793539566662e6 0.0
6.898793539566662e6 -4.775064948291592e6 0.0
0.0 0.0 0.0

-3.5706141739819655e6 1.0669725701601485e7 0.0
1.0669725701601485e7 289558.7023885418 0.0
0.0 0.0 0.0

842818.6687174318 6.502849494071067e6 0.0
6.502849494071067e6 -5.55667156921247e6 0.0
0.0 0.0 0.0

-899089.6757222916 8.096466457922082e6 0.0
8.096466457922082e6 1.9464705221260162e6 0.0
0.0 0.0 0.0

-3.2812806542043285e6 7.772753756792366e6 0.0
7.772753756792366e6 -431136.39494518796 0.0
0.0 0.0 0.0

-555398.2090593236 2.9582726430127206e6 0.0
2.9582726430127206e6 -1.0585417080684786e6 0.0
0.0 0.0 0.0

-503602.67070064927 7.068930356655329e6 0.0
7.068930356655329e6 -3.74499738054383e6 0.0
0.0 0.0 0.0

1.1259085457459644e6 6.214720023335972e6 0.0
6.214720023335972e6 -5.716466260627141e6 0.0
0.0 0.0 0.0

-1.865538119578294e6 1.3194852721428916e7 0.0
1.3194852721428916e7 -3.005739059602181e6 0.0
0.0 0.0 0.0

-992047.5730412258 3.221467291876901e6 0.0
3.221467291876901e6 -2.9475274839850506e6 0.0
0.0 0.0 0.0

-820506.9203494643 3.4419107348064072e6 0.0
3.4419107348064072e6 -427591.4514806663 0.0
0.0 0.0 0.0

-4.564489255841211e6 8.82780006439609e6 0.0
8.82780006439609e6 1.9630921690981388e6 0.0
0.0 0.0 0.0

324454.78103721235 7.514961392818902e6 0.0
7.514961392818902e6 -5.409600628650798e6 0.0
0.0 0.0 0.0

-1.2022963374547744e6 6.952899997808531e6 0.0
6.952899997808531e6 -4.0076544314377215e6 0.0
0.0 0.0 0.0

-51226.81298596198 8.740492187834095e6 0.0
8.740492187834095e6 -170756.08343787128 0.0
0.0 0.0 0.0

-1.6330684571408508e6 7.026263597559365e6 0.0
7.026263597559365e6 -1.1535392166340272e6 0.0
0.0 0.0 0.0

-1.0836998138776242e6 5.428764205187542e6 0.0
5.428764205187542e6 -1.0248944142773844e6 0.0
0.0 0.0 0.0

-848948.4465412088 9.138392847431982e6 0.0
9.138392847431982e6 1.040396409502527e6 0.0
0.0 0.0 0.0

-295872.6728688132 3.0829119465803546e6 0.0
3.0829119465803546e6 -704017.1604634307 0.0
0.0 0.0 0.0

366102.2850892792 7.56569723569572e6 0.0
7.56569723569572e6 -1.519039944071212e6 0.0
0.0 0.0 0.0

-3.2767050841277936e6 6.539595088425102e6 0.0
6.539595088425102e6 1.6091663001535109e6 0.0
0.0 0.0 0.0

-1.1970166401512579e6 3.109383306160287e6 0.0
3.109383306160287e6 -2.799705104351791e6 0.0
0.0 0.0 0.0

-1.0150747398037423e6 1.9203111407057545e6 0.0
1.9203111407057545e6 150935.1174359094 0.0
0.0 0.0 0.0

-3.3328928782172436e6 9.161819492630687e6 0.0
9.161819492630687e6 1.2265102886326243e6 0.0
0.0 0.0 0.0

-4.1604417472131075e6 5.441255614416178e6 0.0
5.441255614416178e6 3.399647474089441e6 0.0
0.0 0.0 0.0

-980869.6725120806 9.141737002340069e6 0.0
9.141737002340069e6 650514.148897825 0.0
0.0 0.0 0.0

-1.266385946185785e6 2.3121136833605757e6 0.0
2.3121136833605757e6 694370.276717776 0.0
0.0 0.0 0.0

-1.6870310105992917e6 1.0910493670234142e7 0.0
1.0910493670234142e7 -2.099068762124506e6 0.0
0.0 0.0 0.0

-3.964749887694002e6 8.066983150346139e6 0.0
8.066983150346139e6 1.6955528414734374e6 0.0
0.0 0.0 0.0

-6.316127439671178e6 2.416189691536794e6 0.0
2.416189691536794e6 9.089205305625578e6 0.0
0.0 0.0 0.0

-1.0592790457914544e6 3.8981541173707508e6 0.0
3.8981541173707508e6 -799401.9726337886 0.0
0.0 0.0 0.0

-5.156831681751706e6 1.0472216652765258e6 0.0
1.0472216652765258e6 5.331075973623329e6 0.0
0.0 0.0 0.0

-1.4010674203151683e6 9.129125024513977e6 0.0
9.129125024513977e6 -2.7531651710813916e6 0.0
0.0 0.0 0.0

-3.0111889006375186e6 7.912838828985715e6 0.0
7.912838828985715e6 1.2428740670269278e6 0.0
0.0 0.0 0.0

-1.5628305881506833e6 9.131276793473387e6 0.0
9.131276793473387e6 -42300.77875330136 0.0
0.0 0.0 0.0

-145505.95115079836 6.076525234944237e6 0.0
6.076525234944237e6 -3.2132080742082945e6 0.0
0.0 0.0 0.0

-490497.72616510344 1.6611062695415341e6 0.0
1.6611062695415341e6 -181818.17767421194 0.0
0.0 0.0 0.0

-8.54943753982216e6 6.410562770019216e6 0.0
6.410562770019216e6 1.008651404062887e7 0.0
0.0 0.0 0.0

-8.043045521729474e6 3.1350517306548124e6 0.0
3.1350517306548124e6 1.1675867762987081e7 0.0
0.0 0.0 0.0

-2.0754069845303278e6 7.468698396048695e6 0.0
7.468698396048695e6 1.0549020211725412e6 0.0
0.0 0.0 0.0

-1.3890027050908855e6 2.102969452709302e6 0.0
2.102969452709302e6 411828.86801071954 0.0
0.0 0.0 0.0

-1.0451860544119457e6 5.458010361680516e6 0.0
5.458010361680516e6 -1.0976174033573915e6 0.0
0.0 0.0 0.0

-3.159005636384068e6 6.97260778821511e6 0.0
6.97260778821511e6 285348.3903817299 0.0
0.0 0.0 0.0

-1.6541699940281557e6 7.29400330458721e6 0.0
7.29400330458721e6 -2.1495217438314874e6 0.0
0.0 0.0 0.0

-2.5992702149041016e6 7.786686875146247e6 0.0
7.786686875146247e6 1.369117457664164e6 0.0
0.0 0.0 0.0

-6.115164864466251e6 9.09541076739552e6 0.0
9.09541076739552e6 2.888629595442543e6 0.0
0.0 0.0 0.0

-6.075878681978173e6 3.167433316346313e6 0.0
3.167433316346313e6 7.794378636328684e6 0.0
0.0 0.0 0.0

-358111.7597657444 1.0031734320578724e7 0.0
1.0031734320578724e7 1.1700968940508529e6 0.0
0.0 0.0 0.0

-211452.16463843838 8.95671625758632e6 0.0
8.95671625758632e6 -3.150878892126113e6 0.0
0.0 0.0 0.0

-246283.3281006167 7.278716522861294e6 0.0
7.278716522861294e6 -3.596562555130599e6 0.0
0.0 0.0 0.0

1.9456448750976627e6 6.465547588829051e6 0.0
6.465547588829051e6 -6.268119537272766e6 0.0
0.0 0.0 0.0

-2.5058317122776853e6 588371.9289296624 0.0
588371.9289296624 2.469443591688174e6 0.0
0.0 0.0 0.0

-2.8609953615220436e6 7.679064030016217e6 0.0
7.679064030016217e6 1.2954216160725981e6 0.0
0.0 0.0 0.0

-5.86135180346509e6 4.0693685552403457e6 0.0
4.0693685552403457e6 8.723848798335891e6 0.0
0.0 0.0 0.0

-1.0937892618960997e7 8.444316007902583e6 0.0
8.444316007902583e6 1.738603033938312e7 0.0
0.0 0.0 0.0

-1.951576632314366e6 5.86547061490615e6 0.0
5.86547061490615e6 -1.962607939091255e6 0.0
0.0 0.0 0.0

284493.2178049971 9.21654441087101e6 0.0
9.21654441087101e6 948310.9420539145 0.0
0.0 0.0 0.0

-457569.0760218141 2.5235131691775927e6 0.0
2.5235131691775927e6 -401875.26328786265 0.0
0.0 0.0 0.0

-4.643546197469159e6 -2.0037641292964004e6 0.0
-2.0037641292964004e6 1.0876212070915883e6 0.0
0.0 0.0 0.0

37237.54065890098 6.895340037560927e6 0.0
6.895340037560927e6 -4.424910116002452e6 0.0
0.0 0.0 0.0

-751323.696871576 3.0961680788610335e6 0.0
3.0961680788610335e6 -570865.764482487 0.0
0.0 0.0 0.0

44186.63458943181 6.923733505620517e6 0.0
6.923733505620517e6 -4.771038421400203e6 0.0
0.0 0.0 0.0

-4.695455076658644e6 5.718352983187994e6 0.0
5.718352983187994e6 7.525625602205174e6 0.0
0.0 0.0 0.0

537420.1923905332 6.6120085881677605e6 0.0
6.6120085881677605e6 -3.739771796203207e6 0.0
0.0 0.0 0.0

-3.148149616457205e6 1.3161713590492366e7 0.0
1.3161713590492366e7 -1.913690281568418e6 0.0
0.0 0.0 0.0

-1.7421238310792756e6 6.353047137532733e6 0.0
6.353047137532733e6 -671029.8328254586 0.0
0.0 0.0 0.0

-1.175090293947478e6 3.4717342560839686e6 0.0
3.4717342560839686e6 -541705.6907442469 0.0
0.0 0.0 0.0

6.415337691314212e6 5.673209473221663e6 0.0
5.673209473221663e6 -768249.5524868825 0.0
0.0 0.0 0.0

-5.592807594508871e6 6.416580629100328e6 0.0
6.416580629100328e6 5.942818618308749e6 0.0
0.0 0.0 0.0

-1.1195913860766029e6 4.925835691928627e6 0.0
4.925835691928627e6 -1.5200377745911228e6 0.0
0.0 0.0 0.0

-4.918584402538135e6 2.1465150822748546e6 0.0
2.1465150822748546e6 4.37815582260173e6 0.0
0.0 0.0 0.0

-981944.8176472788 1.776501425854738e6 0.0
1.776501425854738e6 -1.8307680685961018e6 0.0
0.0 0.0 0.0

-2.639219584458375e6 9.126229442112854e6 0.0
9.126229442112854e6 616664.80054548 0.0
0.0 0.0 0.0

-3.0143725964452745e6 6.044190098927673e6 0.0
6.044190098927673e6 2.193410849474296e6 0.0
0.0 0.0 0.0

-951256.2346987459 3.561306392937946e6 0.0
3.561306392937946e6 -289522.7740363238 0.0
0.0 0.0 0.0

308707.50247269426 6.759110563269697e6 0.0
6.759110563269697e6 -4.68862693766408e6 0.0
0.0 0.0 0.0

-188965.3833694195 7.648540845122479e6 0.0
7.648540845122479e6 -5.006895562320426e6 0.0
0.0 0.0 0.0

-66884.38314834016 5.415758698521276e6 0.0
5.415758698521276e6 -2.043904498487534e6 0.0
0.0 0.0 0.0

321983.50615999685 7.317318785786804e6 0.0
7.317318785786804e6 -3.741729807918928e6 0.0
0.0 0.0 0.0

-2.342436644774396e6 7.456509436580846e6 0.0
7.456509436580846e6 -1.5810701735416981e6 0.0
0.0 0.0 0.0

3.950162516651524e6 8.260475100064343e6 0.0
8.260475100064343e6 -4.221592661120139e6 0.0
0.0 0.0 0.0

1.17341286139744e6 6.59866363385467e6 0.0
6.59866363385467e6 -6.02830354510215e6 0.0
0.0 0.0 0.0

-789813.18327819 -580607.3903105484 0.0
-580607.3903105484 -98430.29487820913 0.0
0.0 0.0 0.0

-3.092614748134095e6 5.423002307655028e6 0.0
5.423002307655028e6 2.9196803616388375e6 0.0
0.0 0.0 0.0

-1.3500006612232986e6 6.582844402551255e6 0.0
6.582844402551255e6 -1.1948650697154407e6 0.0
0.0 0.0 0.0

-980557.4031159887 3.1143971624633484e6 0.0
3.1143971624633484e6 -54737.8585162923 0.0
0.0 0.0 0.0

1.175935973730009e6 6.964801586282939e6 0.0
6.964801586282939e6 -6.203142924031837e6 0.0
0.0 0.0 0.0

420191.9826025624 1.0194292238683134e7 0.0
1.0194292238683134e7 1.400640076063924e6 0.0
0.0 0.0 0.0

-1.138082656101636e6 7.870611728441272e6 0.0
7.870611728441272e6 2.8636305093637654e6 0.0
0.0 0.0 0.0

-663167.3174976279 7.597265162764358e6 0.0
7.597265162764358e6 -4.2171138651872575e6 0.0
0.0 0.0 0.0

-1.8965326437149302e6 5.194328481858332e6 0.0
5.194328481858332e6 -1.398832366291277e6 0.0
0.0 0.0 0.0

-3.0689235947040757e6 6.481936145229933e6 0.0
6.481936145229933e6 2.173746940819729e6 0.0
0.0 0.0 0.0

1.6779592594298252e6 9.917265961278569e6 0.0
9.917265961278569e6 -3.15537660672062e6 0.0
0.0 0.0 0.0

-168795.5540270086 7.070582128935905e6 0.0
7.070582128935905e6 -4.1849620964078964e6 0.0
0.0 0.0 0.0

-6.625983162361885e6 1.025144313416623e7 0.0
1.025144313416623e7 2.5544149222520413e6 0.0
0.0 0.0 0.0

-307505.61836782563 6.797278831451037e6 0.0
6.797278831451037e6 -1.6733304975955193e6 0.0
0.0 0.0 0.0

-1.2155348989398832e7 -5.470849649610625e6 0.0
-5.470849649610625e6 5.985536694380314e6 0.0
0.0 0.0 0.0

1.1532539976079661e7 6.574676646830723e6 0.0
6.574676646830723e6 -2.7056863923979313e6 0.0
0.0 0.0 0.0

-188824.94137520436 7.167191358861246e6 0.0
7.167191358861246e6 68448.76981086693 0.0
0.0 0.0 0.0

-6.7997775104736015e6 -3.526004905424246e6 0.0
-3.526004905424246e6 1.0627013455821093e7 0.0
0.0 0.0 0.0

-808342.5227191444 9.158333813286971e6 0.0
9.158333813286971e6 612174.2510052123 0.0
0.0 0.0 0.0

-3.9161345861788504e6 1.0502548127538323e7 0.0
1.0502548127538323e7 -453766.4651371967 0.0
0.0 0.0 0.0

269521.6661227358 8.629265951920526e6 0.0
8.629265951920526e6 898406.0758664575 0.0
0.0 0.0 0.0

-853889.2905343688 3.630288060081857e6 0.0
3.630288060081857e6 -485340.4722778637 0.0
0.0 0.0 0.0

-2.4017668839267446e6 6.013427899330077e6 0.0
6.013427899330077e6 800397.0817726604 0.0
0.0 0.0 0.0

-1.6073704121869784e7 6.069907215155069e6 0.0
6.069907215155069e6 6.437615640764733e6 0.0
0.0 0.0 0.0

570943.351322239 6.602635045439929e6 0.0
6.602635045439929e6 -4.404120343025829e6 0.0
0.0 0.0 0.0

-1.8455639012670189e6 9.149108702161146e6 0.0
9.149108702161146e6 189503.0560220068 0.0
0.0 0.0 0.0

-449130.92628706933 1.0327444258965764e7 0.0
1.0327444258965764e7 1.2283191867785207e6 0.0
0.0 0.0 0.0

-1.2541937586227998e6 7.146929975697974e6 0.0
7.146929975697974e6 -4.180645789966022e6 0.0
0.0 0.0 0.0

179044.7410444283 8.959388030714955e6 0.0
8.959388030714955e6 596815.8822517513 0.0
0.0 0.0 0.0

287596.64811994997 7.464713930790924e6 0.0
7.464713930790924e6 -5.279810677519176e6 0.0
0.0 0.0 0.0

-628205.9598420098 2.4144272868113634e6 0.0
2.4144272868113634e6 -554788.9807811144 0.0
0.0 0.0 0.0

-6.332328425062669e6 7.2544421896491535e6 0.0
7.2544421896491535e6 2.9790409682873646e6 0.0
0.0 0.0 0.0

-480258.9630188954 4.436616198804478e6 0.0
4.436616198804478e6 -2.9208003377644387e6 0.0
0.0 0.0 0.0

-4.688786953679351e6 6.747601620332802e6 0.0
6.747601620332802e6 5.150813173891848e6 0.0
0.0 0.0 0.0

-711221.2515882468 3.4164960296477876e6 0.0
3.4164960296477876e6 -838029.5712908007 0.0
0.0 0.0 0.0

-5.670956497962166e6 8.9580308238111e6 0.0
8.9580308238111e6 2.6409383879155824e6 0.0
0.0 0.0 0.0

-9.681565516195608e6 7.728975295979208e6 0.0
7.728975295979208e6 5.150011929964583e6 0.0
0.0 0.0 0.0

-214538.5429782068 -932439.454371543 0.0
-932439.454371543 515128.92556069914 0.0
0.0 0.0 0.0

-711626.4628069972 7.156758932867655e6 0.0
7.156758932867655e6 -3.8856663634625734e6 0.0
0.0 0.0 0.0

-3.137758635954432e6 9.851822574221602e6 0.0
9.851822574221602e6 -58230.63807127485 0.0
0.0 0.0 0.0

41749.60791332915 3.452570116930103e6 0.0
3.452570116930103e6 -1.7408951405862048e6 0.0
0.0 0.0 0.0

-3.9722263844560594e6 1.2966250430725375e7 0.0
1.2966250430725375e7 -1.1136518771360938e6 0.0
0.0 0.0 0.0

-753571.620116056 3.526541062864073e6 0.0
3.526541062864073e6 -623027.6881370922 0.0
0.0 0.0 0.0

868010.7902265477 6.176122773985754e6 0.0
6.176122773985754e6 -5.263906789623944e6 0.0
0.0 0.0 0.0

696414.6201759472 6.621616700109923e6 0.0
6.621616700109923e6 -4.761863363448389e6 0.0
0.0 0.0 0.0

-1.601938437664975e6 5.623707205099809e6 0.0
5.623707205099809e6 -2.3888346559502557e6 0.0
0.0 0.0 0.0

-1.8948041326312136e6 1.0668173395989742e7 0.0
1.0668173395989742e7 -1.901043892166784e6 0.0
0.0 0.0 0.0

1.1772040965350838e6 6.853505528662891e6 0.0
6.853505528662891e6 -6.194346515678374e6 0.0
0.0 0.0 0.0

-3.830930898880502e6 7.45393093776464e6 0.0
7.45393093776464e6 2.6432804227189347e6 0.0
0.0 0.0 0.0

-961914.8197934383 8.3872514536579335e6 0.0
8.3872514536579335e6 -3.2639525613857666e6 0.0
0.0 0.0 0.0

-4.355255859891296e6 4.268672490255369e6 0.0
4.268672490255369e6 3.380573975796859e6 0.0
0.0 0.0 0.0

-4.654477369568201e6 8.277384638047985e6 0.0
8.277384638047985e6 2.50228651992703e6 0.0
0.0 0.0 0.0

86768.2415610468 7.052550721619529e6 0.0
7.052550721619529e6 -4.156825876046749e6 0.0
0.0 0.0 0.0

-1.0363771444699896e7 559325.8501421608 0.0
559325.8501421608 6.746941786280571e6 0.0
0.0 0.0 0.0

1.072212225222716e6 5.9822903478924595e6 0.0
5.9822903478924595e6 -5.487257022119163e6 0.0
0.0 0.0 0.0

854391.4873296919 6.48312737578918e6 0.0
6.48312737578918e6 -4.675205578488455e6 0.0
0.0 0.0 0.0

-1.9211018039771274e6 9.518463381456096e6 0.0
9.518463381456096e6 -1.81649241084554e6 0.0
0.0 0.0 0.0

-3.0433264256867776e6 -1.1506938389419224e6 0.0
-1.1506938389419224e6 508774.617381637 0.0
0.0 0.0 0.0

-1.0330940455820935e6 4.20822519373529e6 0.0
4.20822519373529e6 -1.3628939971995451e6 0.0
0.0 0.0 0.0

-7.215625034100618e6 3.920688886492216e6 0.0
3.920688886492216e6 1.0307232197040392e7 0.0
0.0 0.0 0.0

-5.076477706683096e6 8.89779523105992e6 0.0
8.89779523105992e6 2.2732920604834384e6 0.0
0.0 0.0 0.0

-5.980770538586607e6 8.931940348011447e6 0.0
8.931940348011447e6 2.8529555995757696e6 0.0
0.0 0.0 0.0

-978080.5546823438 3.5995540769111183e6 0.0
3.5995540769111183e6 -406611.5914295642 0.0
0.0 0.0 0.0

-9.267690504926745e6 4.787889702651916e6 0.0
4.787889702651916e6 1.75950476753276e7 0.0
0.0 0.0 0.0

-5.503269880966412e6 9.147417741079856e6 0.0
9.147417741079856e6 2.5026618274567313e6 0.0
0.0 0.0 0.0

-1.9593115466193403e6 8.90807582502826e6 0.0
8.90807582502826e6 34751.20483798173 0.0
0.0 0.0 0.0

15089.192330760881 8.409560374643285e6 0.0
8.409560374643285e6 -3.2089547824872714e6 0.0
0.0 0.0 0.0

2.7277540875364463e6 7.565457513821975e6 0.0
7.565457513821975e6 1.7748198405332295e6 0.0
0.0 0.0 0.0

-1.007473502957595e6 3.719394421886762e6 0.0
3.719394421886762e6 -237772.86559864407 0.0
0.0 0.0 0.0

1.2168037654244315e6 6.000334265983144e6 0.0
6.000334265983144e6 -4.997742529553653e6 0.0
0.0 0.0 0.0

-2.1155986124180327e6 7.664485050088977e6 0.0
7.664485050088977e6 -1.2519231037524268e6 0.0
0.0 0.0 0.0

-2.041541045779982e6 7.332480524055493e6 0.0
7.332480524055493e6 -890169.324022582 0.0
0.0 0.0 0.0

-5.881060728369812e6 1.4098145809715278e6 0.0
1.4098145809715278e6 3.2587983282629964e6 0.0
0.0 0.0 0.0

-1.349919071819921e6 1.2817620479050921e6 0.0
1.2817620479050921e6 1.6755266173959807e6 0.0
0.0 0.0 0.0

-2.44382850814047e7 1.1905530186090032e7 0.0
1.1905530186090032e7 4.144246041984232e6 0.0
0.0 0.0 0.0

-1.4069393984477757e6 7.488620100011156e6 0.0
7.488620100011156e6 -4.689797906367204e6 0.0
0.0 0.0 0.0

422135.6444334114 9.865415130836617e6 0.0
9.865415130836617e6 1.4071191157143973e6 0.0
0.0 0.0 0.0

-655264.7630589649 7.880131253747727e6 0.0
7.880131253747727e6 -3.676497387545229e6 0.0
0.0 0.0 0.0

-7.970373221278519e6 4.550446919336374e6 0.0
4.550446919336374e6 4.791698490773543e6 0.0
0.0 0.0 0.0

-350450.8454168399 4.574719625960228e6 0.0
4.574719625960228e6 -2.695963100871419e6 0.0
0.0 0.0 0.0

286433.9814697865 6.903894779494432e6 0.0
6.903894779494432e6 -4.438360997504945e6 0.0
0.0 0.0 0.0

-3.0137586131156925e6 5.853510346030467e6 0.0
5.853510346030467e6 2.415668425504618e6 0.0
0.0 0.0 0.0

-349716.1340537362 7.250188905356579e6 0.0
7.250188905356579e6 -3.9491143268590095e6 0.0
0.0 0.0 0.0

-5.376184763265285e6 8.917103544326637e6 0.0
8.917103544326637e6 2.487091070274626e6 0.0
0.0 0.0 0.0

-3.7394039279267285e6 2.178099373265074e6 0.0
2.178099373265074e6 3.2113245093528023e6 0.0
0.0 0.0 0.0

-328747.3175901923 2.9767753845324423e6 0.0
2.9767753845324423e6 -639346.1598797446 0.0
0.0 0.0 0.0

359387.3616565389 6.743380568979118e6 0.0
6.743380568979118e6 -4.664293914049516e6 0.0
0.0 0.0 0.0

-5.175839804061126e6 9.262501533830456e6 0.0
9.262501533830456e6 1.6233050040402953e6 0.0
0.0 0.0 0.0

-7.4818413878843915e6 1.2674184311251102e7 0.0
1.2674184311251102e7 2.002839279318716e6 0.0
0.0 0.0 0.0

-3.0070043102596505e6 4.785834894861985e6 0.0
4.785834894861985e6 2.861118827472492e6 0.0
0.0 0.0 0.0

666783.098247773 6.486705937367407e6 0.0
6.486705937367407e6 -5.129749960699465e6 0.0
0.0 0.0 0.0

1.1535319880504408e6 6.856271019885858e6 0.0
6.856271019885858e6 -6.147150172393105e6 0.0
0.0 0.0 0.0

-1.049049648519871e7 3.5042985900117503e6 0.0
3.5042985900117503e6 1.2957767955939837e7 0.0
0.0 0.0 0.0

-2.5793649838837464e6 2.1126106846522465e6 0.0
2.1126106846522465e6 2.7836252727198256e6 0.0
0.0 0.0 0.0

-4.488605324277503e6 1.2490204762174347e7 0.0
1.2490204762174347e7 -536943.7944423184 0.0
0.0 0.0 0.0

-3.8422286257334976e6 7.654628210765559e6 0.0
7.654628210765559e6 931026.4551001077 0.0
0.0 0.0 0.0

-3.4684718374427827e6 2.2718991904588076e6 0.0
2.2718991904588076e6 4.081680670621803e6 0.0
0.0 0.0 0.0

35320.34406517865 3.544615914036776e6 0.0
3.544615914036776e6 -4.78772260824075e6 0.0
0.0 0.0 0.0

-3.589792874263601e6 8.094642271857583e6 0.0
8.094642271857583e6 525569.271946294 0.0
0.0 0.0 0.0

-5.942108106860805e6 8.64395025690748e6 0.0
8.64395025690748e6 1.0722085760399338e6 0.0
0.0 0.0 0.0

-661015.0540250307 3.6715875743447775e6 0.0
3.6715875743447775e6 -1.0440771230881533e6 0.0
0.0 0.0 0.0

914405.2281792348 6.363513335107142e6 0.0
6.363513335107142e6 -4.941455830909478e6 0.0
0.0 0.0 0.0

-553396.9691547492 7.345781689565421e6 0.0
7.345781689565421e6 -3.6627249727764884e6 0.0
0.0 0.0 0.0

-462824.208754407 2.7589273404450594e6 0.0
2.7589273404450594e6 -1.1042219345859191e6 0.0
0.0 0.0 0.0

-1.3299384256349339e6 2.717941698709767e6 0.0
2.717941698709767e6 608412.3014748541 0.0
0.0 0.0 0.0

182252.71500661387 7.434700989950487e6 0.0
7.434700989950487e6 -5.0316632002983615e6 0.0
0.0 0.0 0.0

917215.2397757443 6.478614161725515e6 0.0
6.478614161725515e6 -4.548556814973577e6 0.0
0.0 0.0 0.0

-3.9065052981670657e6 7.535002536638554e6 0.0
7.535002536638554e6 751686.3910466773 0.0
0.0 0.0 0.0

555453.9754602048 6.760847909163823e6 0.0
6.760847909163823e6 -4.692877270573801e6 0.0
0.0 0.0 0.0

-460229.8377823521 3.013516448861735e6 0.0
3.013516448861735e6 -762621.5730814001 0.0
0.0 0.0 0.0

-1.5103963567416384e6 8.1863841159179965e6 0.0
8.1863841159179965e6 -5.034654605895614e6 0.0
0.0 0.0 0.0

705683.3985436212 1.0953531020040017e7 0.0
1.0953531020040017e7 2.3522795642710207e6 0.0
0.0 0.0 0.0

275464.1992572313 7.739784219922078e6 0.0
7.739784219922078e6 -2.5624448758482253e6 0.0
0.0 0.0 0.0

-2.356017773915691e6 -2.6148358921109787e6 0.0
-2.6148358921109787e6 1.9781638085863795e6 0.0
0.0 0.0 0.0

-254865.48383112144 2.518542617114333e6 0.0
2.518542617114333e6 -674395.2681041968 0.0
0.0 0.0 0.0

1.2035321953383682e6 9.33472067553301e6 0.0
9.33472067553301e6 4.0117714571168222e6 0.0
0.0 0.0 0.0

-212618.37685300992 5.721243557477519e6 0.0
5.721243557477519e6 -708727.9704826316 0.0
0.0 0.0 0.0

-1.0025818748672735e7 5.508204251639462e6 0.0
5.508204251639462e6 2.009617654944387e7 0.0
0.0 0.0 0.0

542349.779749675 6.637844441675673e6 0.0
6.637844441675673e6 -4.90351932292726e6 0.0
0.0 0.0 0.0

-3.410935809041013e6 1.0166725517401036e7 0.0
1.0166725517401036e7 -861963.7455110257 0.0
0.0 0.0 0.0

-473150.54879444186 7.701290522196613e6 0.0
7.701290522196613e6 -4.862544757076649e6 0.0
0.0 0.0 0.0

-4.455051877885863e6 8.731080180291295e6 0.0
8.731080180291295e6 1.9623100140116606e6 0.0
0.0 0.0 0.0

-2.5130833334493265e6 8.213753778594701e6 0.0
8.213753778594701e6 623489.7453284708 0.0
0.0 0.0 0.0

-5.847947272072347e6 9.66505171097279e6 0.0
9.66505171097279e6 2.020102618371827e6 0.0
0.0 0.0 0.0

-808909.3869735142 8.2861756408545645e6 0.0
8.2861756408545645e6 -4.879915515276624e6 0.0
0.0 0.0 0.0

-4.7847015258715665e6 1.2015976910352627e7 0.0
1.2015976910352627e7 -89166.66024729214 0.0
0.0 0.0 0.0

-5.124445040289019e6 5.6669684338609055e6 0.0
5.6669684338609055e6 6.106418542250823e6 0.0
0.0 0.0 0.0

-612920.2740507334 4.697082860757406e6 0.0
4.697082860757406e6 -2.8897501636330592e6 0.0
0.0 0.0 0.0

580096.1291955507 6.599951103855223e6 0.0
6.599951103855223e6 -4.857434112244066e6 0.0
0.0 0.0 0.0

-2.570752726767132e6 1.0656790202455632e7 0.0
1.0656790202455632e7 -1.540406799437461e6 0.0
0.0 0.0 0.0

-2.2486327765164673e6 6.102527196905055e6 0.0
6.102527196905055e6 -656201.0107364409 0.0
0.0 0.0 0.0

271977.9066820727 6.786852556735607e6 0.0
6.786852556735607e6 -5.0309568100847285e6 0.0
0.0 0.0 0.0

-3.928680332339095e6 8.297838145705442e6 0.0
8.297838145705442e6 1.7659664625082815e6 0.0
0.0 0.0 0.0

-2.470563284701292e6 7.06287161848057e6 0.0
7.06287161848057e6 -168686.32723612338 0.0
0.0 0.0 0.0

-1.6826559240174594e6 6.1053781949076215e6 0.0
6.1053781949076215e6 -1.5981183600104828e6 0.0
0.0 0.0 0.0

212990.63352236408 7.140606869956312e6 0.0
7.140606869956312e6 -4.8141556383693e6 0.0
0.0 0.0 0.0

-5.020350786727332e6 1.1002854814522091e7 0.0
1.1002854814522091e7 442523.4598989475 0.0
0.0 0.0 0.0

-2.0422182713315706e6 6.765459837561647e6 0.0
6.765459837561647e6 -1.2702175809824506e6 0.0
0.0 0.0 0.0

-365922.7803913136 6.899342772476225e6 0.0
6.899342772476225e6 -3.5064159750753087e6 0.0
0.0 0.0 0.0

3.5443649940519603e6 5.601933301765634e6 0.0
5.601933301765634e6 -579082.6239431796 0.0
0.0 0.0 0.0

-1.8191720967236967e6 6.798975650392374e6 0.0
6.798975650392374e6 -416884.2112786809 0.0
0.0 0.0 0.0

-383615.9981222721 3.6660076829254017e6 0.0
3.6660076829254017e6 -1.0989863877154074e6 0.0
0.0 0.0 0.0

-660379.1594102657 1.752609003033196e6 0.0
1.752609003033196e6 -186736.2502500788 0.0
0.0 0.0 0.0

775740.1119153434 6.378356683275489e6 0.0
6.378356683275489e6 -4.03545207124962e6 0.0
0.0 0.0 0.0

124848.5139868753 7.120286313818056e6 0.0
7.120286313818056e6 -4.0278231529838275e6 0.0
0.0 0.0 0.0

673465.1855599154 6.68380389410658e6 0.0
6.68380389410658e6 -4.268542921701884e6 0.0
0.0 0.0 0.0

-574779.930404649 7.751163025012716e6 0.0
7.751163025012716e6 -4.156444494273036e6 0.0
0.0 0.0 0.0

-4.922014603269161e6 1.1512815398887163e7 0.0
1.1512815398887163e7 211975.7169280653 0.0
0.0 0.0 0.0

-4.754026213751857e6 5.9243037403345e6 0.0
5.9243037403345e6 5.370132639422556e6 0.0
0.0 0.0 0.0

-1.8825577743987497e6 6.804301368257717e6 0.0
6.804301368257717e6 -418959.8215822398 0.0
0.0 0.0 0.0

509668.64684900874 6.793335192981907e6 0.0
6.793335192981907e6 -4.447127580146999e6 0.0
0.0 0.0 0.0

-675837.8578249626 3.1283163704588884e6 0.0
3.1283163704588884e6 -954049.4445403157 0.0
0.0 0.0 0.0

-4.36256688457879e6 5.336318488050384e6 0.0
5.336318488050384e6 3.8675972288087127e6 0.0
0.0 0.0 0.0

-1.5231759365956697e6 9.726370161701387e6 0.0
9.726370161701387e6 -2.1077719641868304e6 0.0
0.0 0.0 0.0

28482.144605787005 9.201970932818342e6 0.0
9.201970932818342e6 -3.018241994605738e6 0.0
0.0 0.0 0.0

-4.482759030908283e6 8.610100014481146e6 0.0
8.610100014481146e6 1.9662545262628363e6 0.0
0.0 0.0 0.0

-700924.4732106513 8.285716609283968e6 0.0
8.285716609283968e6 -3.1039187071870305e6 0.0
0.0 0.0 0.0

660583.3518858599 6.737888151967618e6 0.0
6.737888151967618e6 -4.568344607270664e6 0.0
0.0 0.0 0.0

543361.3430861069 6.730992349096072e6 0.0
6.730992349096072e6 -4.589634973875917e6 0.0
0.0 0.0 0.0

-917419.8520901193 3.7896548866785257e6 0.0
3.7896548866785257e6 -2.3862789458431317e6 0.0
0.0 0.0 0.0

450863.8761259443 6.774867036501003e6 0.0
6.774867036501003e6 -4.622484805748925e6 0.0
0.0 0.0 0.0

361831.596518219 6.967403307867622e6 0.0
6.967403307867622e6 -4.120690809593137e6 0.0
0.0 0.0 0.0

-7.714052779838303e6 8.557164500057288e6 0.0
8.557164500057288e6 4.0222720588516416e6 0.0
0.0 0.0 0.0

-5.249835351196911e6 1.2806499824241545e7 0.0
1.2806499824241545e7 -8902.33497063606 0.0
0.0 0.0 0.0

-2.818340299528195e6 8.028417454797994e6 0.0
8.028417454797994e6 778238.5731216276 0.0
0.0 0.0 0.0

174011.2332560378 6.869477279424141e6 0.0
6.869477279424141e6 -3.9525559551767977e6 0.0
0.0 0.0 0.0

-3.194007416569494e6 6.802972578031695e6 0.0
6.802972578031695e6 14020.325419362169 0.0
0.0 0.0 0.0

-437010.84994832147 6.680212335501198e6 0.0
6.680212335501198e6 -2.735210709456337e6 0.0
0.0 0.0 0.0

-1.6060205403157298e6 8.75990958735589e6 0.0
8.75990958735589e6 -5.353402566956809e6 0.0
0.0 0.0 0.0

2.339102960650579e6 1.354330667586253e7 0.0
1.354330667586253e7 7.797021130109584e6 0.0
0.0 0.0 0.0

1.753789324338068e6 1.0317369598448973e7 0.0
1.0317369598448973e7 -3.5221937484253906e6 0.0
0.0 0.0 0.0

3.469202788524393e6 9.863687709588224e6 0.0
9.863687709588224e6 -6.261109579009777e6 0.0
0.0 0.0 0.0

1.0285197718239883e6 7.014008198949038e6 0.0
7.014008198949038e6 -6.469992096984175e6 0.0
0.0 0.0 0.0

-1.288993564879449e6 9.195805238835733e6 0.0
9.195805238835733e6 -2.400534656926452e6 0.0
0.0 0.0 0.0

-899038.3975640199 9.196412127231957e6 0.0
9.196412127231957e6 454257.35085072514 0.0
0.0 0.0 0.0

-4.23959681542788e6 2.3475482629625066e6 0.0
2.3475482629625066e6 4.192385564223839e6 0.0
0.0 0.0 0.0

-5.117234172959279e6 5.250852912406012e6 0.0
5.250852912406012e6 8.505385479684182e6 0.0
0.0 0.0 0.0

-1.4804898622619892e6 8.84064019958109e6 0.0
8.84064019958109e6 274322.0903883342 0.0
0.0 0.0 0.0

-2.121257327819637e6 6.064557850880543e6 0.0
6.064557850880543e6 -598698.523218816 0.0
0.0 0.0 0.0

-7.513724979547383e6 7.601977572202176e6 0.0
7.601977572202176e6 3.82771703950636e6 0.0
0.0 0.0 0.0

-3.1444325230563167e6 6.580360855352431e6 0.0
6.580360855352431e6 2.0584984831700784e6 0.0
0.0 0.0 0.0

-1.1114667935825093e6 4.308985979538542e6 0.0
4.308985979538542e6 -836343.9907840643 0.0
0.0 0.0 0.0

-2.551975582000636e6 7.556992887966298e6 0.0
7.556992887966298e6 515667.4924529048 0.0
0.0 0.0 0.0

970512.2435759415 6.593326355112222e6 0.0
6.593326355112222e6 -5.745035529354367e6 0.0
0.0 0.0 0.0

17840.404047097312 6.222226348067731e6 0.0
6.222226348067731e6 -3.8519036525388984e6 0.0
0.0 0.0 0.0

-2.038313899534331e6 9.53164750914785e6 0.0
9.53164750914785e6 -1.6528262643454769e6 0.0
0.0 0.0 0.0

-683621.0320852182 7.599587182074708e6 0.0
7.599587182074708e6 -3.4987213655279316e6 0.0
0.0 0.0 0.0

-7.293778971149579e6 2.0209449262865356e6 0.0
2.0209449262865356e6 9.470013166613042e6 0.0
0.0 0.0 0.0

144475.29361924075 3.8626008730482087e6 0.0
3.8626008730482087e6 -1.6823732061331677e6 0.0
0.0 0.0 0.0

-8.902388218584627e6 940144.1825508031 0.0
940144.1825508031 1.4059498510370709e7 0.0
0.0 0.0 0.0

-2.5484166246670904e6 7.766787463774539e6 0.0
7.766787463774539e6 -1.4029855450415383e6 0.0
0.0 0.0 0.0

-2.9862091365720606e6 7.886519890061007e6 0.0
7.886519890061007e6 1.037467972327373e6 0.0
0.0 0.0 0.0

-976303.7762826924 3.8636377006722325e6 0.0
3.8636377006722325e6 -507379.3286150662 0.0
0.0 0.0 0.0

-3.8276823170286296e6 1.0938536801936718e7 0.0
1.0938536801936718e7 -571906.9716511872 0.0
0.0 0.0 0.0

-375043.6250263449 3.4573500617361213e6 0.0
3.4573500617361213e6 -1.3756986301625615e6 0.0
0.0 0.0 0.0

-3.2911780907883258e6 6.261044806230101e6 0.0
6.261044806230101e6 1.825297688935958e6 0.0
0.0 0.0 0.0

2.456305091250345e6 1.2780109718094781e7 0.0
1.2780109718094781e7 -7.438119499194903e6 0.0
0.0 0.0 0.0

-3.5951320682973405e6 5.068648693784685e6 0.0
5.068648693784685e6 2.3963996168190995e6 0.0
0.0 0.0 0.0

434032.07232945284 4.414905037854148e6 0.0
4.414905037854148e6 -1.5143142009073915e6 0.0
0.0 0.0 0.0

-6.72979378963626e6 -2.8177469163113795e6 0.0
-2.8177469163113795e6 1.8124752117358954e6 0.0
0.0 0.0 0.0

761898.9759073681 6.422005293029571e6 0.0
6.422005293029571e6 -4.637076795584292e6 0.0
0.0 0.0 0.0

-5.342595958720497e6 8.194618289403746e6 0.0
8.194618289403746e6 2.6441766542478097e6 0.0
0.0 0.0 0.0

-619937.5342951152 2.607716119451422e6 0.0
2.607716119451422e6 -1.1464087854821687e6 0.0
0.0 0.0 0.0

-1.642948022242358e6 6.343354527467046e6 0.0
6.343354527467046e6 -1.0600131377481967e6 0.0
0.0 0.0 0.0

-756608.3379206873 1.5689157193887401e6 0.0
1.5689157193887401e6 232692.9689326965 0.0
0.0 0.0 0.0

-1.3181742319284151e6 9.694190497722793e6 0.0
9.694190497722793e6 -2.4736231710187327e6 0.0
0.0 0.0 0.0

-641345.9837347534 1.5045910349666898e6 0.0
1.5045910349666898e6 245973.8647040601 0.0
0.0 0.0 0.0

-1.613546676255804e6 7.852901855250501e6 0.0
7.852901855250501e6 -2.3664000636783033e6 0.0
0.0 0.0 0.0

-4.533364737722648e6 6.283825515786728e6 0.0
6.283825515786728e6 4.857117221410656e6 0.0
0.0 0.0 0.0

-846786.8183470167 3.6552427687935606e6 0.0
3.6552427687935606e6 -800353.8516153819 0.0
0.0 0.0 0.0

-6.624163930928856e6 6.229760280592712e6 0.0
6.229760280592712e6 6.873014010516822e6 0.0
0.0 0.0 0.0

-1.7849900919107613e6 4.250453623000654e6 0.0
4.250453623000654e6 482792.94078994205 0.0
0.0 0.0 0.0

-3.809641629280784e6 8.209501543843989e6 0.0
8.209501543843989e6 782137.1327694836 0.0
0.0 0.0 0.0

762298.9620526012 6.648262963777246e6 0.0
6.648262963777246e6 -5.533135005512332e6 0.0
0.0 0.0 0.0

-4.1308943165053697e6 7.110190492253724e6 0.0
7.110190492253724e6 4.628601558968179e6 0.0
0.0 0.0 0.0

2.8559665635084496e6 7.9379811212296095e6 0.0
7.9379811212296095e6 -2.592403022003237e6 0.0
0.0 0.0 0.0

-3.567679331461002e6 -816399.8136738926 0.0
-816399.8136738926 3.657652610147844e6 0.0
0.0 0.0 0.0

220895.93895657896 7.026841253058321e6 0.0
7.026841253058321e6 -4.776143327437877e6 0.0
0.0 0.0 0.0

-1.0266089490144643e6 4.093960018119906e6 0.0
4.093960018119906e6 -546382.8956168573 0.0
0.0 0.0 0.0

-493901.10553278844 3.858427630028723e6 0.0
3.858427630028723e6 -2.3922954208127377e6 0.0
0.0 0.0 0.0

-386745.68605959514 2.4529708000678145e6 0.0
2.4529708000678145e6 -874496.4467902754 0.0
0.0 0.0 0.0

-348089.40910934075 3.066022321157462e6 0.0
3.066022321157462e6 -730537.3184546314 0.0
0.0 0.0 0.0

-1.1442590313739202e6 8.037013466726466e6 0.0
8.037013466726466e6 -2.9108412784748813e6 0.0
0.0 0.0 0.0

-703985.5662627318 3.5295516932750433e6 0.0
3.5295516932750433e6 -680584.8191477819 0.0
0.0 0.0 0.0

-3.124185624617872e6 7.907176871522642e6 0.0
7.907176871522642e6 998849.9254216831 0.0
0.0 0.0 0.0

-4.1200570823342735e6 5.76436959563111e6 0.0
5.76436959563111e6 4.682980016478783e6 0.0
0.0 0.0 0.0

-1.239919266981648e6 4.775463766640673e6 0.0
4.775463766640673e6 -743996.100175835 0.0
0.0 0.0 0.0

-2.3154259452048996e6 7.971809290803022e6 0.0
7.971809290803022e6 -1.0792925734485919e6 0.0
0.0 0.0 0.0

-92414.30591780506 6.469508705102463e6 0.0
6.469508705102463e6 -3.4981477041915515e6 0.0
0.0 0.0 0.0

-5.459505342158804e6 9.712507659253338e6 0.0
9.712507659253338e6 1.5239823229651141e6 0.0
0.0 0.0 0.0

254027.1452515216 8.15133476796395e6 0.0
8.15133476796395e6 -6.182046738503737e6 0.0
0.0 0.0 0.0

970611.0665816632 3.824017177494581e6 0.0
3.824017177494581e6 -4.077994800515049e6 0.0
0.0 0.0 0.0

309271.56933786743 7.136421485512175e6 0.0
7.136421485512175e6 -3.847760360804132e6 0.0
0.0 0.0 0.0

-504856.2167245415 7.968734892130393e6 0.0
7.968734892130393e6 -4.0399997086798064e6 0.0
0.0 0.0 0.0

-1.2695337164302391e6 5.455828921465686e6 0.0
5.455828921465686e6 -895815.003512407 0.0
0.0 0.0 0.0

-927172.7488250085 8.564096187231183e6 0.0
8.564096187231183e6 -5.062495075842599e6 0.0
0.0 0.0 0.0

103243.42285984661 3.091600163787262e6 0.0
3.091600163787262e6 -1.6425602716741995e6 0.0
0.0 0.0 0.0

-426607.254194664 3.4341800307562705e6 0.0
3.4341800307562705e6 -2.6141524826397044e6 0.0
0.0 0.0 0.0

-793211.2010950631 9.338562419815943e6 0.0
9.338562419815943e6 -296702.2929495945 0.0
0.0 0.0 0.0

-8.000155538292095e6 3.1418811084915646e6 0.0
3.1418811084915646e6 9.255284624212276e6 0.0
0.0 0.0 0.0

-5.288295903520108e6 8.969746427444324e6 0.0
8.969746427444324e6 2.367332710617666e6 0.0
0.0 0.0 0.0

-2.697456974629827e6 -34860.82263035987 0.0
-34860.82263035987 1.2481326653071065e6 0.0
0.0 0.0 0.0

-814193.7278287525 7.764377817623022e6 0.0
7.764377817623022e6 -3.2878092907775384e6 0.0
0.0 0.0 0.0

-929589.7194179478 9.110107998265186e6 0.0
9.110107998265186e6 926741.81128578 0.0
0.0 0.0 0.0

-5.13234949270392e6 9.708662360448439e6 0.0
9.708662360448439e6 1.0726639001754213e6 0.0
0.0 0.0 0.0

-1.9746197449482789e6 5.3616147412933605e6 0.0
5.3616147412933605e6 -1.0464282959413324e6 0.0
0.0 0.0 0.0

-4.447964011414976e6 1.047568257399773e7 0.0
1.047568257399773e7 17987.107588504907 0.0
0.0 0.0 0.0

-1.8248540493859365e6 5.383228184393986e6 0.0
5.383228184393986e6 -1.1061024870092713e6 0.0
0.0 0.0 0.0

-363336.184369496 2.268799757156515e6 0.0
2.268799757156515e6 -1.0263596232056436e6 0.0
0.0 0.0 0.0

-2.412757592480551e6 8.447940446921045e6 0.0
8.447940446921045e6 -1.5247216143331612e6 0.0
0.0 0.0 0.0

-7.870837664261342e6 1.6741137009142583e7 0.0
1.6741137009142583e7 2.2254686313608657e6 0.0
0.0 0.0 0.0

-569921.3504632217 1.153124616491226e7 0.0
1.153124616491226e7 -2.909898542158295e6 0.0
0.0 0.0 0.0

-1.4117262799682014e6 9.46905780982937e6 0.0
9.46905780982937e6 -2.258516783746095e6 0.0
0.0 0.0 0.0

-1.3022766151517178e6 7.027468874288214e6 0.0
7.027468874288214e6 -1.3391896273701135e6 0.0
0.0 0.0 0.0

-2.6139734171424536e6 7.110627911397999e6 0.0
7.110627911397999e6 -242286.50062970608 0.0
0.0 0.0 0.0

800138.6911197768 6.090604385522776e6 0.0
6.090604385522776e6 -4.1508361846010434e6 0.0
0.0 0.0 0.0

-239316.5992718265 93063.05757941192 0.0
93063.05757941192 -1.631742629424789e6 0.0
0.0 0.0 0.0

-1.160988809059086e6 6.659430342324847e6 0.0
6.659430342324847e6 -1.3458211338115535e6 0.0
0.0 0.0 0.0

-2.853814607896651e6 8.577189926462907e6 0.0
8.577189926462907e6 46755.88870238233 0.0
0.0 0.0 0.0

1907.6226833481342 5.913476204419766e6 0.0
5.913476204419766e6 -3.467441971579447e6 0.0
0.0 0.0 0.0

-2.0026903972741454e6 6.779344934769609e6 0.0
6.779344934769609e6 -1.9218090800687578e6 0.0
0.0 0.0 0.0

-872612.8737886534 9.239105294388287e6 0.0
9.239105294388287e6 224449.21123158338 0.0
0.0 0.0 0.0

-431687.31775507494 7.450391334366812e6 0.0
7.450391334366812e6 -3.259152271266374e6 0.0
0.0 0.0 0.0

-550737.134401205 3.262280409800217e6 0.0
3.262280409800217e6 -758469.6010892171 0.0
0.0 0.0 0.0

-1.0903919108762959e7 6.166173879249297e6 0.0
6.166173879249297e6 2.6440005384954885e6 0.0
0.0 0.0 0.0

-80119.74826622265 7.1947157749916585e6 0.0
7.1947157749916585e6 -3.8675688137371857e6 0.0
0.0 0.0 0.0

-9.07146415220236e6 -4.905834286295457e6 0.0
-4.905834286295457e6 5.118136984361608e6 0.0
0.0 0.0 0.0

-332128.5642804054 5.243364687396628e6 0.0
5.243364687396628e6 -3.179667918223122e6 0.0
0.0 0.0 0.0

-2.425352512324426e6 8.100330530928416e6 0.0
8.100330530928416e6 2.167238437384465e6 0.0
0.0 0.0 0.0

103730.23558237171 7.39268879587841e6 0.0
7.39268879587841e6 -4.808596889465395e6 0.0
0.0 0.0 0.0

-456610.4283265752 7.8263584929448385e6 0.0
7.8263584929448385e6 -3.675301319913474e6 0.0
0.0 0.0 0.0

71366.18216656457 3.1017032336816355e6 0.0
3.1017032336816355e6 -1.3256919101173268e6 0.0
0.0 0.0 0.0

-1.7786917670846747e6 2.351162661027538e6 0.0
2.351162661027538e6 742494.2207749578 0.0
0.0 0.0 0.0

-2.0637773318382318e6 6.32540812375371e6 0.0
6.32540812375371e6 -720150.8550626987 0.0
0.0 0.0 0.0

-1.0883135204143843e6 6.184645990068419e6 0.0
6.184645990068419e6 -1.3342747885248808e6 0.0
0.0 0.0 0.0

-3.56616180561429e6 2.2718957386396485e6 0.0
2.2718957386396485e6 2.723460030890609e6 0.0
0.0 0.0 0.0

-1.8701662061093827e6 6.270741844507691e6 0.0
6.270741844507691e6 -639862.277187805 0.0
0.0 0.0 0.0

-2.221224428042384e6 8.158180511246221e6 0.0
8.158180511246221e6 -1.6987863628786923e6 0.0
0.0 0.0 0.0

-2.4309252729422105e6 7.414220151939471e6 0.0
7.414220151939471e6 -909967.4316721887 0.0
0.0 0.0 0.0

-2.5478911688864483e6 8.761037669730073e6 0.0
8.761037669730073e6 -1.455871182788447e6 0.0
0.0 0.0 0.0

-1.3947928046300067e6 8.07966010051214e6 0.0
8.07966010051214e6 -2.5393725562754585e6 0.0
0.0 0.0 0.0

-1.3968057556407363e6 3.5195862760725324e6 0.0
3.5195862760725324e6 -2.5078671503989743e6 0.0
0.0 0.0 0.0

-81338.43284354277 8.293624565742002e6 0.0
8.293624565742002e6 -3.380761578354739e6 0.0
0.0 0.0 0.0

-2.676124621807955e6 7.2098503942271e6 0.0
7.2098503942271e6 -1.240189620749397e6 0.0
0.0 0.0 0.0

-1.938986045921491e6 5.551989946520397e6 0.0
5.551989946520397e6 -760682.6320357869 0.0
0.0 0.0 0.0

-403428.39146688953 3.104015379679802e6 0.0
3.104015379679802e6 -841250.4650607833 0.0
0.0 0.0 0.0

-1.2872001622408e6 8.094420423476971e6 0.0
8.094420423476971e6 -2.741257353248464e6 0.0
0.0 0.0 0.0

-1.549128252159424e6 8.478922668329272e6 0.0
8.478922668329272e6 -5.163760802238076e6 0.0
0.0 0.0 0.0

171984.05602064135 3.6404783077832707e6 0.0
3.6404783077832707e6 -1.4764623842859007e6 0.0
0.0 0.0 0.0

-458015.17974978796 5.227745000760677e6 0.0
5.227745000760677e6 -3.0957117636042004e6 0.0
0.0 0.0 0.0

-1.2750398640330466e6 3.9139991002669814e6 0.0
3.9139991002669814e6 -1.3018566575574987e6 0.0
0.0 0.0 0.0

327695.48267831584 7.958423619979581e6 0.0
7.958423619979581e6 -5.931833688294333e6 0.0
0.0 0.0 0.0

-1.120370602701229e6 4.961551695267169e6 0.0
4.961551695267169e6 -721107.031396246 0.0
0.0 0.0 0.0

-87495.2750956139 5.665304460443552e6 0.0
5.665304460443552e6 -3.876848631470893e6 0.0
0.0 0.0 0.0

-1.17590234794918e6 3.1057672905925824e6 0.0
3.1057672905925824e6 -4174.297630623507 0.0
0.0 0.0 0.0

-4.82519684627501e6 52598.18148710084 0.0
52598.18148710084 6.302823600057052e6 0.0
0.0 0.0 0.0

-678988.670366989 9.334915795466393e6 0.0
9.334915795466393e6 -265415.21975171525 0.0
0.0 0.0 0.0

-160027.6312619513 8.950927287381353e6 0.0
8.950927287381353e6 -650956.8027029337 0.0
0.0 0.0 0.0

-3.046790813589137e6 8.078763924930269e6 0.0
8.078763924930269e6 1.0094041232117473e6 0.0
0.0 0.0 0.0

-2.4235359989301264e6 7.936445374531446e6 0.0
7.936445374531446e6 -284649.23817508674 0.0
0.0 0.0 0.0

1.0624915318555997e6 6.199415845622645e6 0.0
6.199415845622645e6 -5.126334333627909e6 0.0
0.0 0.0 0.0

1.0433109357212379e6 6.319123770410476e6 0.0
6.319123770410476e6 -5.243241919271604e6 0.0
0.0 0.0 0.0

-2.2832733232097933e6 3.3381445419508894e6 0.0
3.3381445419508894e6 1.9436928456360684e6 0.0
0.0 0.0 0.0

-2.0036407495709497e6 7.875588875791915e6 0.0
7.875588875791915e6 -1.8881661006662417e6 0.0
0.0 0.0 0.0

1.842934937177193e6 9.341083638626631e6 0.0
9.341083638626631e6 -3.845215968403601e6 0.0
0.0 0.0 0.0

-8.571549632764038e6 -1.0218534966666257e6 0.0
-1.0218534966666257e6 1.1046461849824732e7 0.0
0.0 0.0 0.0

-1.6015917483891095e6 6.0762333781544e6 0.0
6.0762333781544e6 -350288.9867603427 0.0
0.0 0.0 0.0

-2.6466422817399492e6 6.185623839716361e6 0.0
6.185623839716361e6 -601024.1211024148 0.0
0.0 0.0 0.0

-9.696933141398484e6 6.565381524029693e6 0.0
6.565381524029693e6 1.2686543092826853e7 0.0
0.0 0.0 0.0

-488460.18113241985 4.054044603214281e6 0.0
4.054044603214281e6 -832204.9248087585 0.0
0.0 0.0 0.0

-3.923658264892772e6 7.989157606838584e6 0.0
7.989157606838584e6 333865.1590344333 0.0
0.0 0.0 0.0

-3.777644520950745e6 7.195053064232696e6 0.0
7.195053064232696e6 4.179163270727119e6 0.0
0.0 0.0 0.0

-180753.07634571788 5.259923985711073e6 0.0
5.259923985711073e6 -3.156628561575933e6 0.0
0.0 0.0 0.0

-1.7207670398854576e6 6.16027259720387e6 0.0
6.16027259720387e6 -944633.3376896018 0.0
0.0 0.0 0.0

-7.117753796385128e6 4.789363618811311e6 0.0
4.789363618811311e6 1.067310120231114e7 0.0
0.0 0.0 0.0

447772.87779045873 6.815287009925384e6 0.0
6.815287009925384e6 -5.0740904347517565e6 0.0
0.0 0.0 0.0

-1.209817249195862e6 9.315853103200553e6 0.0
9.315853103200553e6 -2.4776432830590173e6 0.0
0.0 0.0 0.0

-1.4539842711193566e6 979569.0952736875 0.0
979569.0952736875 1.6843763903147571e6 0.0
0.0 0.0 0.0

252085.47293782327 6.927935269212041e6 0.0
6.927935269212041e6 -4.773236064565448e6 0.0
0.0 0.0 0.0

-724426.0973811892 4.558725537546968e6 0.0
4.558725537546968e6 -1.3171161378113804e6 0.0
0.0 0.0 0.0

374347.41198402713 6.8572078931421405e6 0.0
6.8572078931421405e6 -4.480730934759732e6 0.0
0.0 0.0 0.0

-2.0028141055054674e6 5.500658691193349e6 0.0
5.500658691193349e6 -1.7584668843457934e6 0.0
0.0 0.0 0.0

-1.7951571170455045e6 7.576807853577176e6 0.0
7.576807853577176e6 -2.0549497848180784e6 0.0
0.0 0.0 0.0

-2.8718311917482475e6 1.940999297965311e6 0.0
1.940999297965311e6 2.0134206437902325e6 0.0
0.0 0.0 0.0

811546.3603391972 7.868386432075258e6 0.0
7.868386432075258e6 -1.7620101723451507e6 0.0
0.0 0.0 0.0

-387752.3573952357 2.792346100639793e6 0.0
2.792346100639793e6 -859853.6142388498 0.0
0.0 0.0 0.0

-823784.3060709594 8.53561409228669e6 0.0
8.53561409228669e6 -2.9646000216406044e6 0.0
0.0 0.0 0.0

112953.80037231464 5.88276088213433e6 0.0
5.88276088213433e6 -1.491851492621918e6 0.0
0.0 0.0 0.0

-1.264770422776576e6 2.565165284066127e6 0.0
2.565165284066127e6 -1.240573407961913e6 0.0
0.0 0.0 0.0

-2.1189252852216754e6 6.213177171489189e6 0.0
6.213177171489189e6 -1.7579494277927428e6 0.0
0.0 0.0 0.0

460786.10599564714 6.293918137151172e6 0.0
6.293918137151172e6 -4.003578652397428e6 0.0
0.0 0.0 0.0

-751661.9571801281 2.23831571226325e6 0.0
2.23831571226325e6 -152206.8458506139 0.0
0.0 0.0 0.0

1.3011084269953957e6 6.683800801719557e6 0.0
6.683800801719557e6 -6.166514143283431e6 0.0
0.0 0.0 0.0

-217782.970877131 8.802522595555801e6 0.0
8.802522595555801e6 -725943.2585217011 0.0
0.0 0.0 0.0

-1.176244982503911e6 3.7060945275798626e6 0.0
3.7060945275798626e6 -183363.02731234184 0.0
0.0 0.0 0.0

-3.172253633576423e6 8.044440183658273e6 0.0
8.044440183658273e6 731982.7574154383 0.0
0.0 0.0 0.0

-54671.055537387685 7.4225927846244555e6 0.0
7.4225927846244555e6 -48489.657322417224 0.0
0.0 0.0 0.0

-4.336798623575849e6 6.5264559668592755e6 0.0
6.5264559668592755e6 4.386869950328038e6 0.0
0.0 0.0 0.0

-3.0557116389513616e6 5.663546158881144e6 0.0
5.663546158881144e6 2.61546085184705e6 0.0
0.0 0.0 0.0

-331994.2717596098 943415.0187593369 0.0
943415.0187593369 38064.59133326063 0.0
0.0 0.0 0.0

-1.5856999655517e6 7.605122870009311e6 0.0
7.605122870009311e6 -1.3415453369409894e6 0.0
0.0 0.0 0.0

-137231.42943986913 9.678084343875824e6 0.0
9.678084343875824e6 2.852497042217394e6 0.0
0.0 0.0 0.0

-2.062037590630943e6 8.403318343713945e6 0.0
8.403318343713945e6 873692.7248944102 0.0
0.0 0.0 0.0

-1.3373742925019094e6 2.504917506241583e6 0.0
2.504917506241583e6 322240.4666671512 0.0
0.0 0.0 0.0

-842313.688838123 8.093071639227351e6 0.0
8.093071639227351e6 -3.421923207342418e6 0.0
0.0 0.0 0.0

-562295.808170716 3.3350201198055544e6 0.0
3.3350201198055544e6 -2.8779381928247465e6 0.0
0.0 0.0 0.0

-1.6702398846758667e6 7.775876395775091e6 0.0
7.775876395775091e6 -1.735236583757223e6 0.0
0.0 0.0 0.0

-1.4198911862479753e6 7.557526444078951e6 0.0
7.557526444078951e6 -1.447322464527257e6 0.0
0.0 0.0 0.0

579052.0884874134 140686.34690576096 0.0
140686.34690576096 -2.0212518473694508e6 0.0
0.0 0.0 0.0

-4.0926443284629383e6 8.05873732398054e6 0.0
8.05873732398054e6 689307.1995256434 0.0
0.0 0.0 0.0

-5.015813498813793e6 863964.0213054768 0.0
863964.0213054768 6.05321011519086e6 0.0
0.0 0.0 0.0

-2.454293064481442e6 1.3626317804792386e6 0.0
1.3626317804792386e6 3.0723539651126787e6 0.0
0.0 0.0 0.0

-7.715372945311235e6 2.4747926900757444e6 0.0
2.4747926900757444e6 9.21880324148392e6 0.0
0.0 0.0 0.0

-3.3090372787300767e6 8.248778465431603e6 0.0
8.248778465431603e6 -751338.4090458776 0.0
0.0 0.0 0.0

-1.3109669936678533e6 5.001083299691034e6 0.0
5.001083299691034e6 -1.1252752789190034e6 0.0
0.0 0.0 0.0

2.030057969956646e6 7.905939130368431e6 0.0
7.905939130368431e6 270703.6343846494 0.0
0.0 0.0 0.0

-132421.05723800696 1.2986488256812071e7 0.0
1.2986488256812071e7 5.997561327946941e6 0.0
0.0 0.0 0.0

-652219.4271946545 3.9460519616304417e6 0.0
3.9460519616304417e6 -3.8713544483316387e6 0.0
0.0 0.0 0.0

-634483.7160200449 3.5730567473422396e6 0.0
3.5730567473422396e6 -768590.0105836655 0.0
0.0 0.0 0.0

-1.8082031040803199e6 7.683818969365529e6 0.0
7.683818969365529e6 -1.2130637110850823e6 0.0
0.0 0.0 0.0

-3.1820795791396033e6 5.981814747056468e6 0.0
5.981814747056468e6 1.6262232890035831e6 0.0
0.0 0.0 0.0

913528.1811132077 6.424203384258586e6 0.0
6.424203384258586e6 -5.656532329934547e6 0.0
0.0 0.0 0.0

710271.3417594985 6.632282942170466e6 0.0
6.632282942170466e6 -4.875961269378627e6 0.0
0.0 0.0 0.0

58065.28206585429 6.154027153709504e6 0.0
6.154027153709504e6 -1.9988302000391264e6 0.0
0.0 0.0 0.0

-1.8442455386278143e6 6.308528393232722e6 0.0
6.308528393232722e6 -114910.13144153787 0.0
0.0 0.0 0.0

-7.522196939658518e6 7.370091395981727e6 0.0
7.370091395981727e6 1.2466962170998825e7 0.0
0.0 0.0 0.0

-1.8398198727829352e6 8.072834734810113e6 0.0
8.072834734810113e6 -1.5724890322833904e6 0.0
0.0 0.0 0.0

-256068.33330638154 6.4284441363461185e6 0.0
6.4284441363461185e6 -1.612359383265305e6 0.0
0.0 0.0 0.0

849802.9577421313 6.477655122900497e6 0.0
6.477655122900497e6 -5.02999471414191e6 0.0
0.0 0.0 0.0

-2.696450596346224e6 6.074983110860958e6 0.0
6.074983110860958e6 710220.2376210402 0.0
0.0 0.0 0.0

-192201.83886717516 6.335869335966836e6 0.0
6.335869335966836e6 -3.345316803543397e6 0.0
0.0 0.0 0.0

-950944.1078585823 1.2401126817888953e6 0.0
1.2401126817888953e6 -353567.45930890366 0.0
0.0 0.0 0.0

-1.8349064049707113e6 6.4393107205515625e6 0.0
6.4393107205515625e6 -2.086021818886998e6 0.0
0.0 0.0 0.0

432778.1004924736 5.6436713380740285e6 0.0
5.6436713380740285e6 -2.0678243918788894e6 0.0
0.0 0.0 0.0

-1.2979945313049771e6 7.510440795146212e6 0.0
7.510440795146212e6 -1.4611173069760902e6 0.0
0.0 0.0 0.0

-1.1686120638831854e6 7.402923015190023e6 0.0
7.402923015190023e6 -1.4463300361265084e6 0.0
0.0 0.0 0.0

-2.167981192374004e6 5.8088993708276525e6 0.0
5.8088993708276525e6 -1.600005574552961e6 0.0
0.0 0.0 0.0

-1.9388901702066767e6 6.424585925321482e6 0.0
6.424585925321482e6 -782202.3624153903 0.0
0.0 0.0 0.0

-2.670136668598471e6 2.0684242728977655e6 0.0
2.0684242728977655e6 1.6224024104580963e6 0.0
0.0 0.0 0.0

-8.089398744170404e6 4.635898156942945e6 0.0
4.635898156942945e6 1.2900831482531618e7 0.0
0.0 0.0 0.0

-9.054349420864822e6 2.386134425214604e6 0.0
2.386134425214604e6 1.0733358867396764e7 0.0
0.0 0.0 0.0

-7.716907517493696e6 4.725191145339969e6 0.0
4.725191145339969e6 1.1813224051061483e7 0.0
0.0 0.0 0.0

-1.2710381821975231e7 -919173.3080125723 0.0
-919173.3080125723 1.7756521802383278e7 0.0
0.0 0.0 0.0

-886638.8568815468 9.23232594734995e6 0.0
9.23232594734995e6 101120.66398443154 0.0
0.0 0.0 0.0

-9.014401506890517e6 44107.22901498909 0.0
44107.22901498909 1.029194815429716e7 0.0
0.0 0.0 0.0

-3.780908578226397e6 7.419008404626482e6 0.0
7.419008404626482e6 544930.7832949155 0.0
0.0 0.0 0.0

-288921.77865696594 8.47426216182055e6 0.0
8.47426216182055e6 -3.574649055825577e6 0.0
0.0 0.0 0.0

-1.68665514271942e7 1.0280727841697166e7 0.0
1.0280727841697166e7 3.2356132664982304e6 0.0
0.0 0.0 0.0

-881794.8649200752 3.4780135927494233e6 0.0
3.4780135927494233e6 -2.648224297936316e6 0.0
0.0 0.0 0.0

-558200.3966306157 7.6577332797630215e6 0.0
7.6577332797630215e6 -3.117441013742548e6 0.0
0.0 0.0 0.0

-4.1859267712630453e6 7.958296904841341e6 0.0
7.958296904841341e6 933055.5240800481 0.0
0.0 0.0 0.0

-3.3648470046380134e6 8.281747329075767e6 0.0
8.281747329075767e6 355303.2895869359 0.0
0.0 0.0 0.0

423185.3266648855 6.863262236520841e6 0.0
6.863262236520841e6 -4.477661488607891e6 0.0
0.0 0.0 0.0

1.8952205161441276e6 1.1643666163540946e7 0.0
1.1643666163540946e7 -5.348702296976714e6 0.0
0.0 0.0 0.0

-1.0381768991679278e6 7.514253335076672e6 0.0
7.514253335076672e6 -1.496813185817888e6 0.0
0.0 0.0 0.0

1.1202692390758372e6 6.984509554754521e6 0.0
6.984509554754521e6 -6.394954207332882e6 0.0
0.0 0.0 0.0

-910315.1899471423 7.442193040890429e6 0.0
7.442193040890429e6 -1.551139526669041e6 0.0
0.0 0.0 0.0

-1.0346293245837154e6 3.467672368075332e6 0.0
3.467672368075332e6 -2.623171999836524e6 0.0
0.0 0.0 0.0

-4.055470125082429e6 6.433620333982131e6 0.0
6.433620333982131e6 3.8640754537803507e6 0.0
0.0 0.0 0.0

-1.0178876563205484e7 8.790146483216489e6 0.0
8.790146483216489e6 703681.1590457722 0.0
0.0 0.0 0.0

-432927.79151137354 1.7871259112796888e6 0.0
1.7871259112796888e6 -116455.77652457665 0.0
0.0 0.0 0.0

-2.0286612117668472e6 8.35415013805955e6 0.0
8.35415013805955e6 -1.387523801837766e6 0.0
0.0 0.0 0.0

-7.179522120536905e6 4.0030073610540763e6 0.0
4.0030073610540763e6 5.249080201868724e6 0.0
0.0 0.0 0.0

348559.17268883437 2.9140018883794383e6 0.0
2.9140018883794383e6 -4.911914131211132e6 0.0
0.0 0.0 0.0

-1.090777357451566e6 3.4430484656153442e6 0.0
3.4430484656153442e6 -4055.197174990084 0.0
0.0 0.0 0.0

-1.883800024029712e6 6.426563243443486e6 0.0
6.426563243443486e6 -1.4239421762073492e6 0.0
0.0 0.0 0.0

-2.247187428919545e6 6.048320970681541e6 0.0
6.048320970681541e6 -509558.6387481675 0.0
0.0 0.0 0.0

-1.2110911970492955e6 7.535655724689511e6 0.0
7.535655724689511e6 -1.4296050057862853e6 0.0
0.0 0.0 0.0

-6.743550729508657e6 2.6060067533364873e6 0.0
2.6060067533364873e6 7.625630778305629e6 0.0
0.0 0.0 0.0

1.1405450142320276e6 6.118363750724989e6 0.0
6.118363750724989e6 -4.657139193352295e6 0.0
0.0 0.0 0.0

680204.8246296756 5.611605515206569e6 0.0
5.611605515206569e6 -3.703441628105532e6 0.0
0.0 0.0 0.0

-2.5147396608991637e6 6.252928536747885e6 0.0
6.252928536747885e6 435741.5496863285 0.0
0.0 0.0 0.0

-344289.4085522805 2.708082126187832e6 0.0
2.708082126187832e6 -1.4705648917834575e6 0.0
0.0 0.0 0.0

-1.968551106253543e6 5.31797828644922e6 0.0
5.31797828644922e6 -1.5792173942098222e6 0.0
0.0 0.0 0.0

170367.30161643494 6.799435833159166e6 0.0
6.799435833159166e6 -4.0779514184296797e6 0.0
0.0 0.0 0.0

-4.7610667400083365e6 1.5254919625282243e6 0.0
1.5254919625282243e6 5.875189672200702e6 0.0
0.0 0.0 0.0

-958242.0360877756 9.2658216954705e6 0.0
9.2658216954705e6 -9987.57098334789 0.0
0.0 0.0 0.0

-540726.6911817605 2.647713449309632e6 0.0
2.647713449309632e6 -442075.70873410034 0.0
0.0 0.0 0.0

49067.41925337189 7.064316884368089e6 0.0
7.064316884368089e6 -4.507559052088793e6 0.0
0.0 0.0 0.0

-931011.4340789617 8.696825523489505e6 0.0
8.696825523489505e6 -3.303455095469614e6 0.0
0.0 0.0 0.0

-1.2062295731225335e6 3.7755243045403208e6 0.0
3.7755243045403208e6 -197567.75043879604 0.0
0.0 0.0 0.0

-549169.285041129 8.061970509234637e6 0.0
8.061970509234637e6 -3.3684166169964764e6 0.0
0.0 0.0 0.0

-1.259446110905053e6 7.770273711517385e6 0.0
7.770273711517385e6 -2.232769493419362e6 0.0
0.0 0.0 0.0

604961.3963700351 4.946174433788191e6 0.0
4.946174433788191e6 -1.1608406919084992e6 0.0
0.0 0.0 0.0

-344219.367930879 3.1446117977149826e6 0.0
3.1446117977149826e6 -847949.2956485619 0.0
0.0 0.0 0.0

-1.6646297998150275e6 4.780725259764356e6 0.0
4.780725259764356e6 -1.4282882525050908e6 0.0
0.0 0.0 0.0

-1.427887452485701e6 4.387698623717631e6 0.0
4.387698623717631e6 -1.6516170337617034e6 0.0
0.0 0.0 0.0

-1.7069043031693029e6 6.994499252529459e6 0.0
6.994499252529459e6 -1.5842675334324178e6 0.0
0.0 0.0 0.0

-999112.7523730274 9.24895237782617e6 0.0
9.24895237782617e6 -91486.35494483559 0.0
0.0 0.0 0.0

-1.2168220526240438e6 4.0592425973285106e6 0.0
4.0592425973285106e6 -2.186098154371015e6 0.0
0.0 0.0 0.0

373900.8754750863 7.586568212377621e6 0.0
7.586568212377621e6 -5.6339323393112635e6 0.0
0.0 0.0 0.0

-70930.46473578858 3.2862704388264283e6 0.0
3.2862704388264283e6 -1.6596106800349564e6 0.0
0.0 0.0 0.0

-972187.7826448377 7.932843589422029e6 0.0
7.932843589422029e6 -5.087037114323436e6 0.0
0.0 0.0 0.0

-2.5556089510214128e7 -4.165262148206272e6 0.0
-4.165262148206272e6 9.817930579383612e6 0.0
0.0 0.0 0.0

1.8891471555161405e7 8.520389438173926e6 0.0
8.520389438173926e6 -3.0011545227344166e6 0.0
0.0 0.0 0.0

359546.1510142912 7.762203509464622e6 0.0
7.762203509464622e6 -5.845425289929689e6 0.0
0.0 0.0 0.0

-1.928358233730232e6 4.494439102729123e6 0.0
4.494439102729123e6 796198.1176121564 0.0
0.0 0.0 0.0

-2.920220935016658e6 7.637943013642609e6 0.0
7.637943013642609e6 -88852.12164407328 0.0
0.0 0.0 0.0

-1.8538389695843442e6 5.10122226546399e6 0.0
5.10122226546399e6 -1.26347869410419e6 0.0
0.0 0.0 0.0

-1.3474332971070404e6 3.6342090658290074e6 0.0
3.6342090658290074e6 -1.2527226714917517e6 0.0
0.0 0.0 0.0

-1.1139870626464162e6 3.971213230773632e6 0.0
3.971213230773632e6 -772346.8443562521 0.0
0.0 0.0 0.0

-1.4141939587616506e6 7.594877550563389e6 0.0
7.594877550563389e6 -1.3418846535409926e6 0.0
0.0 0.0 0.0

379985.0537466784 7.667071900663479e6 0.0
7.667071900663479e6 -5.752353337731629e6 0.0
0.0 0.0 0.0

-1.3230608712012111e6 4.653527592015076e6 0.0
4.653527592015076e6 -1.2288754376887283e6 0.0
0.0 0.0 0.0

-2.7423626357031725e6 1.2301405572394931e6 0.0
1.2301405572394931e6 1.8014148788787073e6 0.0
0.0 0.0 0.0

1.02585596076063e7 9.37496016782495e6 0.0
9.37496016782495e6 -4.011659589839644e6 0.0
0.0 0.0 0.0

-1.5643580793409431e6 4.99232519967355e6 0.0
4.99232519967355e6 -1.092529215688732e6 0.0
0.0 0.0 0.0

581229.2790969631 6.784725210677298e6 0.0
6.784725210677298e6 -4.465796344629688e6 0.0
0.0 0.0 0.0

501583.3362149154 6.809727240976889e6 0.0
6.809727240976889e6 -4.455682773382741e6 0.0
0.0 0.0 0.0

-3.984411303027547e6 6.393425997137675e6 0.0
6.393425997137675e6 3.417649582282275e6 0.0
0.0 0.0 0.0

-1.038554794566209e6 7.967839391753237e6 0.0
7.967839391753237e6 -2.5306094344939557e6 0.0
0.0 0.0 0.0

-1.878604729582005e6 8.441978476672089e6 0.0
8.441978476672089e6 1.226149523478025e6 0.0
0.0 0.0 0.0

376454.35092417034 1.105758080817644e7 0.0
1.105758080817644e7 -3.3364165628845314e6 0.0
0.0 0.0 0.0

-1.5089277186114802e6 6.062716019094897e6 0.0
6.062716019094897e6 -785875.2867204534 0.0
0.0 0.0 0.0

-1.1063326231065402e6 2.9100610542892935e6 0.0
2.9100610542892935e6 -596682.5582753157 0.0
0.0 0.0 0.0

-1.307861837009486e6 5.598709676413076e6 0.0
5.598709676413076e6 -1.1421405195113795e6 0.0
0.0 0.0 0.0

-60721.96290814201 4.607568150619788e6 0.0
4.607568150619788e6 -1.6015171738103386e6 0.0
0.0 0.0 0.0

-510991.2020011394 7.491380375437028e6 0.0
7.491380375437028e6 -4.5237013882394545e6 0.0
0.0 0.0 0.0

-99238.20287022041 7.243871067393455e6 0.0
7.243871067393455e6 -3.889869997190625e6 0.0
0.0 0.0 0.0

-734895.0725846719 2.309826665396294e6 0.0
2.309826665396294e6 -3.9084932257051007e6 0.0
0.0 0.0 0.0

-1.2061048977435576e6 3.997028725633425e6 0.0
3.997028725633425e6 -2.0674750362848563e6 0.0
0.0 0.0 0.0

-1.9811793722682975e6 6.605094285288917e6 0.0
6.605094285288917e6 -515310.0386020143 0.0
0.0 0.0 0.0

-1.0703502383443487e6 3.5782476766337506e6 0.0
3.5782476766337506e6 -2.8336429509839527e6 0.0
0.0 0.0 0.0

-1.4064838654637944e6 4.295779146041952e6 0.0
4.295779146041952e6 -1.3180618656376842e6 0.0
0.0 0.0 0.0

708544.9511979164 7.090729089250338e6 0.0
7.090729089250338e6 -4.1822367079806556e6 0.0
0.0 0.0 0.0

-1.7980407991114545e6 5.703300436034322e6 0.0
5.703300436034322e6 -1.4404883187931494e6 0.0
0.0 0.0 0.0

-29273.283138776198 3.883022415938094e6 0.0
3.883022415938094e6 -1.9169292739735248e6 0.0
0.0 0.0 0.0

-3.963988485110862e6 8.158939593267837e6 0.0
8.158939593267837e6 64955.35213628295 0.0
0.0 0.0 0.0

1.0934556367986384e6 6.652009080826239e6 0.0
6.652009080826239e6 -6.254982666840759e6 0.0
0.0 0.0 0.0

-1.9871335530740158e6 6.024510396947236e6 0.0
6.024510396947236e6 -1.2713057699208853e6 0.0
0.0 0.0 0.0

-207413.9608844138 6.492684020483419e6 0.0
6.492684020483419e6 -3.45879499650983e6 0.0
0.0 0.0 0.0

159664.4483010248 6.137636344687623e6 0.0
6.137636344687623e6 -1.3233485759658432e6 0.0
0.0 0.0 0.0

-30608.052974184044 6.679425451722416e6 0.0
6.679425451722416e6 -3.8467029094063235e6 0.0
0.0 0.0 0.0

-2.4147945495371395e6 7.559231665164046e6 0.0
7.559231665164046e6 -190086.40845383448 0.0
0.0 0.0 0.0

-3.9061722974100234e6 1.0058963513739768e7 0.0
1.0058963513739768e7 -390257.251794655 0.0
0.0 0.0 0.0

-542121.2015082921 8.417972639688054e6 0.0
8.417972639688054e6 -3.4594617747376226e6 0.0
0.0 0.0 0.0

-1.379281495012857e6 3.3562630433787773e6 0.0
3.3562630433787773e6 -1.246678618097957e6 0.0
0.0 0.0 0.0

-4.1168318844677843e6 9.451996060081668e6 0.0
9.451996060081668e6 874516.6655915205 0.0
0.0 0.0 0.0

-2.785154285494454e6 8.112461831677624e6 0.0
8.112461831677624e6 -568516.9518076547 0.0
0.0 0.0 0.0

-904141.5496552731 3.505625821266738e6 0.0
3.505625821266738e6 -594730.1881990284 0.0
0.0 0.0 0.0

-2.1532064707684177e6 8.310249806345436e6 0.0
8.310249806345436e6 1.0435303155299008e6 0.0
0.0 0.0 0.0

421862.43876271974 5.423685518181276e6 0.0
5.423685518181276e6 -2.123931722610727e6 0.0
0.0 0.0 0.0

-1.4144668639883557e6 6.766795816998568e6 0.0
6.766795816998568e6 -1.19236801759954e6 0.0
0.0 0.0 0.0

-7.56136615757389e6 1.3647036008779737e6 0.0
1.3647036008779737e6 9.75523596314856e6 0.0
0.0 0.0 0.0

-679542.1451536403 6.099131732703733e6 0.0
6.099131732703733e6 -1.4072786775080066e6 0.0
0.0 0.0 0.0

684540.9687227434 8.209074017378107e6 0.0
8.209074017378107e6 -2.1326081672153925e6 0.0
0.0 0.0 0.0

-1.7600836164732303e6 5.298362764637275e6 0.0
5.298362764637275e6 -954642.6952283375 0.0
0.0 0.0 0.0

-2.1534269658956924e6 5.606626012558244e6 0.0
5.606626012558244e6 -1.401239602801029e6 0.0
0.0 0.0 0.0

298461.046639282 7.521610911376091e6 0.0
7.521610911376091e6 -5.493512324494728e6 0.0
0.0 0.0 0.0

1.09832369706841e6 6.916810546801659e6 0.0
6.916810546801659e6 -6.317101530925633e6 0.0
0.0 0.0 0.0

-1.722573206177241e6 2.7440804971600897e6 0.0
2.7440804971600897e6 643118.0553370175 0.0
0.0 0.0 0.0

-3.1993035872251876e6 7.58357003972957e6 0.0
7.58357003972957e6 1.0533508652036479e6 0.0
0.0 0.0 0.0

-3.763565597559893e6 1.9321978887195955e6 0.0
1.9321978887195955e6 3.646268476916515e6 0.0
0.0 0.0 0.0

-2.206309129355419e6 8.62427747181103e6 0.0
8.62427747181103e6 -1.2406816407763027e6 0.0
0.0 0.0 0.0

-1.8930898367757928e6 9.663216293946644e6 0.0
9.663216293946644e6 -2.1552407795110596e6 0.0
0.0 0.0 0.0

2.7161040596975954e6 4.396413473983411e6 0.0
4.396413473983411e6 891097.3545905084 0.0
0.0 0.0 0.0

-680627.2182392718 4.0293090547314044e6 0.0
4.0293090547314044e6 -1.5368559629647403e6 0.0
0.0 0.0 0.0

-1.2442828889837544e6 3.8800087561443895e6 0.0
3.8800087561443895e6 -508322.7072359948 0.0
0.0 0.0 0.0

-432775.2343030191 8.178692182990106e6 0.0
8.178692182990106e6 -3.8888516427493524e6 0.0
0.0 0.0 0.0

-1.8570835707797406e6 5.521785200899511e6 0.0
5.521785200899511e6 -1.2733199756405423e6 0.0
0.0 0.0 0.0

-1.5164503979211142e6 6.661583372902656e6 0.0
6.661583372902656e6 -1.7480661463145025e6 0.0
0.0 0.0 0.0

-5.772623915338308e6 3.1744214269452756e6 0.0
3.1744214269452756e6 8.805058687659198e6 0.0
0.0 0.0 0.0

-1.2271789621866704e6 3.4401397887477716e6 0.0
3.4401397887477716e6 30225.241427978384 0.0
0.0 0.0 0.0

-2.0973462893890133e6 5.468341353736435e6 0.0
5.468341353736435e6 -1.2366211205310195e6 0.0
0.0 0.0 0.0

-2.8526752064264063e6 6.440173581568391e6 0.0
6.440173581568391e6 -452887.6406342929 0.0
0.0 0.0 0.0

-2.624873759049611e6 4.906503672648595e6 0.0
4.906503672648595e6 2.5242746630181326e6 0.0
0.0 0.0 0.0

-4.506083450013187e6 8.050863278149016e6 0.0
8.050863278149016e6 1.3278799524176426e6 0.0
0.0 0.0 0.0

-6508.272406488191 7.181425671962489e6 0.0
7.181425671962489e6 -4.212796433399027e6 0.0
0.0 0.0 0.0

-5.628225684302142e6 9.08254666946447e6 0.0
9.08254666946447e6 2.5008103840288003e6 0.0
0.0 0.0 0.0

-1.3323137575310883e6 4.1210578529141247e6 0.0
4.1210578529141247e6 -554821.4938280734 0.0
0.0 0.0 0.0

-4.792184473478712e6 8.887658025867226e6 0.0
8.887658025867226e6 2.042977552516072e6 0.0
0.0 0.0 0.0

-378437.84741427354 8.95712379976195e6 0.0
8.95712379976195e6 -625423.8545598319 0.0
0.0 0.0 0.0

-587324.0534969685 8.707453763696881e6 0.0
8.707453763696881e6 -3.243353282084116e6 0.0
0.0 0.0 0.0

-1.343056043505118e6 8.719250024405407e6 0.0
8.719250024405407e6 116681.74153256207 0.0
0.0 0.0 0.0

-3.0801294672184186e6 6.685356602853113e6 0.0
6.685356602853113e6 1.2643132303425272e6 0.0
0.0 0.0 0.0

-2.261199225407267e6 7.094429585660804e6 0.0
7.094429585660804e6 -1.0873172811029833e6 0.0
0.0 0.0 0.0

-2.0524304065125557e6 5.391370425521125e6 0.0
5.391370425521125e6 -1.0977018280840304e6 0.0
0.0 0.0 0.0

-582484.2834414542 8.323941942759235e6 0.0
8.323941942759235e6 -3.428656757112899e6 0.0
0.0 0.0 0.0

-1.2785962920605731e6 5.323821377338626e6 0.0
5.323821377338626e6 -1.5296975767100847e6 0.0
0.0 0.0 0.0

-3.3480024272570936e6 8.157668847112533e6 0.0
8.157668847112533e6 419888.2514530709 0.0
0.0 0.0 0.0

-4.3899866759826755e6 7.93148496914779e6 0.0
7.93148496914779e6 1.1102990392417582e6 0.0
0.0 0.0 0.0

185254.6378127312 5.824392056171808e6 0.0
5.824392056171808e6 -1.1518803190387452e6 0.0
0.0 0.0 0.0

-1.2203505167921428e6 4.298814452808065e6 0.0
4.298814452808065e6 -1.6652939078153896e6 0.0
0.0 0.0 0.0

-4.670571387408238e6 8.372694384705464e6 0.0
8.372694384705464e6 1.6780784300856893e6 0.0
0.0 0.0 0.0

-2.0797202860820796e6 7.439947542269517e6 0.0
7.439947542269517e6 -394114.03739800747 0.0
0.0 0.0 0.0

-1.6906199081361286e7 -5.497491824694025e6 0.0
-5.497491824694025e6 7.236853207955e6 0.0
0.0 0.0 0.0

-534235.8015661355 8.070993420277526e6 0.0
8.070993420277526e6 -3.4574460401351308e6 0.0
0.0 0.0 0.0

-1.782763284329352e6 6.112907069019746e6 0.0
6.112907069019746e6 -397034.2771232482 0.0
0.0 0.0 0.0

-3.7013720841775006e6 7.505522656627043e6 0.0
7.505522656627043e6 780302.4364245893 0.0
0.0 0.0 0.0

-2.0331271148818836e6 6.340970194334171e6 0.0
6.340970194334171e6 -154143.61757486395 0.0
0.0 0.0 0.0

-1.183650901637687e6 9.264465376169171e6 0.0
9.264465376169171e6 -127719.37905242768 0.0
0.0 0.0 0.0

-2.7454293178679687e6 7.333342668916538e6 0.0
7.333342668916538e6 -620820.9530067522 0.0
0.0 0.0 0.0

-1.2994965309676658e6 4.490754047531002e6 0.0
4.490754047531002e6 -666328.6386694361 0.0
0.0 0.0 0.0

-1.0239551978649898e6 2.490995852995644e6 0.0
2.490995852995644e6 288605.93804529187 0.0
0.0 0.0 0.0

-1.430901013925423e6 5.525819051388525e6 0.0
5.525819051388525e6 -1.0718804889958957e6 0.0
0.0 0.0 0.0

211447.88877559628 1.2440556952905315e6 0.0
1.2440556952905315e6 -2.190080621259668e6 0.0
0.0 0.0 0.0

-2.4093534180566687e6 6.093780054322535e6 0.0
6.093780054322535e6 -578028.7203811563 0.0
0.0 0.0 0.0

-2.9148833204544e6 8.478150687178344e6 0.0
8.478150687178344e6 -1.1586083303472367e6 0.0
0.0 0.0 0.0

-1.8445603714867302e6 7.345497261615912e6 0.0
7.345497261615912e6 -672310.5954866282 0.0
0.0 0.0 0.0

-1.953978468705765e6 6.05556022718394e6 0.0
6.05556022718394e6 -850304.2668156989 0.0
0.0 0.0 0.0

-75404.25249186758 2.5502226117082485e6 0.0
2.5502226117082485e6 -1.1913411925847528e6 0.0
0.0 0.0 0.0

-146174.03837786382 896539.2005519092 0.0
896539.2005519092 -3.3665875138271484e6 0.0
0.0 0.0 0.0

-3.4116647355255582e6 2.4672061829691892e6 0.0
2.4672061829691892e6 4.0195654350028625e6 0.0
0.0 0.0 0.0

-426310.2029641599 3.428898499399646e6 0.0
3.428898499399646e6 -951512.3109215677 0.0
0.0 0.0 0.0

-1.9611247798934486e6 8.581207004901562e6 0.0
8.581207004901562e6 2.1006606854923107e6 0.0
0.0 0.0 0.0

-3.068927043869277e6 6.699885124771922e6 0.0
6.699885124771922e6 -300305.70150459977 0.0
0.0 0.0 0.0

-1.0060968052854504e6 4.192381297811618e6 0.0
4.192381297811618e6 -1.809574905574268e6 0.0
0.0 0.0 0.0

-3.9534751685581477e6 2.542242180508162e6 0.0
2.542242180508162e6 4.946139589006565e6 0.0
0.0 0.0 0.0

-3.767674136084012e6 7.597512517045575e6 0.0
7.597512517045575e6 822536.7919813835 0.0
0.0 0.0 0.0

-1.610873637607587e6 7.060453630801564e6 0.0
7.060453630801564e6 -1.2185593913170556e6 0.0
0.0 0.0 0.0

-1.3150179795034926e6 5.761594400759876e6 0.0
5.761594400759876e6 -896479.9327732164 0.0
0.0 0.0 0.0

-1.585256753044862e6 5.601530056237961e6 0.0
5.601530056237961e6 -1.196395581465473e6 0.0
0.0 0.0 0.0

-281085.6976688304 7.745628509332794e6 0.0
7.745628509332794e6 -4.373486519860975e6 0.0
0.0 0.0 0.0

-2.0502280233855534e6 6.973322861355301e6 0.0
6.973322861355301e6 -171663.4286015883 0.0
0.0 0.0 0.0

-1.6133559823210572e6 9.560923806214005e6 0.0
9.560923806214005e6 -2.0006952952118646e6 0.0
0.0 0.0 0.0

-8.053043309313802e6 8.373293878484869e6 0.0
8.373293878484869e6 1.5909104113991536e7 0.0
0.0 0.0 0.0

-1.072892906808992e6 7.623448734429214e6 0.0
7.623448734429214e6 1.3815946716178567e6 0.0
0.0 0.0 0.0

-1.2460401002445768e6 3.8215374162370185e6 0.0
3.8215374162370185e6 -235169.97824114957 0.0
0.0 0.0 0.0

-416034.8888300818 7.573307039336882e6 0.0
7.573307039336882e6 -3.29525131200232e6 0.0
0.0 0.0 0.0

-2.0230924936985367e6 6.2390724907529475e6 0.0
6.2390724907529475e6 -571575.8302352941 0.0
0.0 0.0 0.0

-2.300111754981471e6 1.0580443834457185e7 0.0
1.0580443834457185e7 -1.6704281925179819e6 0.0
0.0 0.0 0.0

-3.7911979890764924e6 8.377278647902179e6 0.0
8.377278647902179e6 1.1646168207448486e6 0.0
0.0 0.0 0.0

-4.293988500665691e6 7.841947631033023e6 0.0
7.841947631033023e6 1.0075104128135308e6 0.0
0.0 0.0 0.0

-685642.90741566 9.004048550214069e6 0.0
9.004048550214069e6 -3.020375649932666e6 0.0
0.0 0.0 0.0

-1.770655387190731e6 6.002083670020975e6 0.0
6.002083670020975e6 -770641.9614954637 0.0
0.0 0.0 0.0

-2.1280113151594135e6 6.979757816890342e6 0.0
6.979757816890342e6 -175265.7294318269 0.0
0.0 0.0 0.0

-777865.484993661 3.3387924530806853e6 0.0
3.3387924530806853e6 -874224.5501525206 0.0
0.0 0.0 0.0

42645.818248442374 1.1526753658300748e6 0.0
1.1526753658300748e6 -5.602806669928045e6 0.0
0.0 0.0 0.0

-2.3494729073665105e6 6.2735775971351005e6 0.0
6.2735775971351005e6 -394437.43879783293 0.0
0.0 0.0 0.0

-243224.2372961567 5.430603562621e6 0.0
5.430603562621e6 -2.770165063798706e6 0.0
0.0 0.0 0.0

-2.9054712717116266e6 7.951833375019232e6 0.0
7.951833375019232e6 -80069.31276378455 0.0
0.0 0.0 0.0

-1.2187038103032596e6 5.212481432520817e6 0.0
5.212481432520817e6 -812533.0076261819 0.0
0.0 0.0 0.0

-5.6284600871734e6 9.119773813873028e6 0.0
9.119773813873028e6 2.0291683245019673e6 0.0
0.0 0.0 0.0

-1.3555103886300188e7 -5.06326506410601e6 0.0
-5.06326506410601e6 5.390070333149024e6 0.0
0.0 0.0 0.0

-1.1342503491879571e6 4.568335454462284e6 0.0
4.568335454462284e6 -905225.8096709095 0.0
0.0 0.0 0.0

-128922.65114812297 7.5661719293456515e6 0.0
7.5661719293456515e6 -4.864949684378913e6 0.0
0.0 0.0 0.0

-943284.830078512 1.0292710638425812e7 0.0
1.0292710638425812e7 -2.5797736196529e6 0.0
0.0 0.0 0.0

-1.6659387203894358e6 5.097214782066612e6 0.0
5.097214782066612e6 -1.244827833117792e6 0.0
0.0 0.0 0.0

-1.069015994584526e6 9.071148968588784e6 0.0
9.071148968588784e6 -2.672743800804115e6 0.0
0.0 0.0 0.0

-1.1278307109330785e6 4.206080086641833e6 0.0
4.206080086641833e6 -854728.5311107294 0.0
0.0 0.0 0.0

-136732.18304829975 6.5156917653875e6 0.0
6.5156917653875e6 -3.6508222039647223e6 0.0
0.0 0.0 0.0

-4.565883162578067e6 8.220326405497604e6 0.0
8.220326405497604e6 1.4350110982339608e6 0.0
0.0 0.0 0.0

-1.3091554866759349e6 3.081912400205399e6 0.0
3.081912400205399e6 -1.082324727916852e6 0.0
0.0 0.0 0.0

-1.1900038466248373e6 4.241956897550026e6 0.0
4.241956897550026e6 -1.911621964627768e6 0.0
0.0 0.0 0.0

-6.124532020548494e6 9.251335397370484e6 0.0
9.251335397370484e6 2.403108101771581e6 0.0
0.0 0.0 0.0

864153.088041231 8.57312468645774e6 0.0
8.57312468645774e6 -2.7184631122949766e6 0.0
0.0 0.0 0.0

-2.7130900844166437e6 9.970543819145918e6 0.0
9.970543819145918e6 -546589.2369452687 0.0
0.0 0.0 0.0

1.062102548219141e6 7.153304562628132e6 0.0
7.153304562628132e6 -6.252251829541796e6 0.0
0.0 0.0 0.0

-4.351084440184882e6 4.625005928193588e6 0.0
4.625005928193588e6 5.838181961530096e6 0.0
0.0 0.0 0.0

-4.0933185455628037e6 8.280885353943002e6 0.0
8.280885353943002e6 1.2367260908497816e6 0.0
0.0 0.0 0.0

-918435.6520103668 3.6494308704234413e6 0.0
3.6494308704234413e6 -2.3333532848470667e6 0.0
0.0 0.0 0.0

-1.2183303282376728e6 3.705716369824719e6 0.0
3.705716369824719e6 -700936.5441116303 0.0
0.0 0.0 0.0

-745480.8992123889 3.982134690139464e6 0.0
3.982134690139464e6 -2.008132769895911e6 0.0
0.0 0.0 0.0

-4.797336617796171e6 8.853883659553122e6 0.0
8.853883659553122e6 2.0934225681190272e6 0.0
0.0 0.0 0.0

-295067.76099538663 3.0412471716290186e6 0.0
3.0412471716290186e6 -759494.75376377 0.0
0.0 0.0 0.0

-2.8831835789686013e6 3.386688142601249e6 0.0
3.386688142601249e6 1.997148711130807e6 0.0
0.0 0.0 0.0

-4.233600283213257e6 7.877035183674901e6 0.0
7.877035183674901e6 1.195108337766618e6 0.0
0.0 0.0 0.0

-1.3803650210264178e6 6.353879024079728e6 0.0
6.353879024079728e6 -1.9594136217248212e6 0.0
0.0 0.0 0.0

-2.1378989252240895e6 8.359072666695561e6 0.0
8.359072666695561e6 1.5343933515088032e6 0.0
0.0 0.0 0.0

-2.1917291732821525e6 6.284272528898934e6 0.0
6.284272528898934e6 -637561.5830410984 0.0
0.0 0.0 0.0

-2.0214544303467828e6 5.8026577705227425e6 0.0
5.8026577705227425e6 -1.110741160552572e6 0.0
0.0 0.0 0.0

-374684.1350027154 7.651608437676576e6 0.0
7.651608437676576e6 -4.400998071412793e6 0.0
0.0 0.0 0.0

-3.137897251891359e6 1.0264333656218853e7 0.0
1.0264333656218853e7 -82271.10317823885 0.0
0.0 0.0 0.0

253804.22520473623 7.487586248420342e6 0.0
7.487586248420342e6 -5.381122349234343e6 0.0
0.0 0.0 0.0

-637201.1713889437 3.2197975944936075e6 0.0
3.2197975944936075e6 -1.0349131843419602e6 0.0
0.0 0.0 0.0

-2.1386338293770766e6 1.2381402954303816e7 0.0
1.2381402954303816e7 1.4767704698746482e7 0.0
0.0 0.0 0.0

-4.1427986823746474e6 8.463140292566814e6 0.0
8.463140292566814e6 1.8361355893421485e6 0.0
0.0 0.0 0.0

-2.3363281937524863e6 6.290859250652058e6 0.0
6.290859250652058e6 -538252.1227409965 0.0
0.0 0.0 0.0

-808285.3958465055 1.1233956484532889e7 0.0
1.1233956484532889e7 -2.6226675112741147e6 0.0
0.0 0.0 0.0

-4.050014246399694e6 7.808410752687312e6 0.0
7.808410752687312e6 1.0478447036758245e6 0.0
0.0 0.0 0.0

-229860.6603775103 6.604201819523398e6 0.0
6.604201819523398e6 -1.9499383608408216e6 0.0
0.0 0.0 0.0

-777496.7100747331 9.355827555318413e6 0.0
9.355827555318413e6 -2.8219561531678117e6 0.0
0.0 0.0 0.0

-850851.651949859 8.149217274928314e6 0.0
8.149217274928314e6 -2.805774114977823e6 0.0
0.0 0.0 0.0

-1.0315985213561519e6 8.225001916938689e6 0.0
8.225001916938689e6 -2.603036345801503e6 0.0
0.0 0.0 0.0

-2.184266384805691e6 5.626476072908053e6 0.0
5.626476072908053e6 -874885.6758417517 0.0
0.0 0.0 0.0

341271.2677515275 1.263045064128249e7 0.0
1.263045064128249e7 -3.655920222859184e6 0.0
0.0 0.0 0.0

-1.2714220255315844e6 4.493937126203872e6 0.0
4.493937126203872e6 -1.517464570400041e6 0.0
0.0 0.0 0.0

397120.6990924445 1.1647302386967808e6 0.0
1.1647302386967808e6 -3.229540844352993e6 0.0
0.0 0.0 0.0

-704619.2651493244 7.978733546438901e6 0.0
7.978733546438901e6 -2.9483852920853733e6 0.0
0.0 0.0 0.0

875052.6675652463 6.605242986512143e6 0.0
6.605242986512143e6 -6.060616781572855e6 0.0
0.0 0.0 0.0

-162758.4485337271 4.790574688989148e6 0.0
4.790574688989148e6 -1.940116253369766e6 0.0
0.0 0.0 0.0

-2.9880064767667423e6 8.151251045712374e6 0.0
8.151251045712374e6 198606.08820541098 0.0
0.0 0.0 0.0

345204.3499835008 7.323190879828854e6 0.0
7.323190879828854e6 -3.6721603869574512e6 0.0
0.0 0.0 0.0

-390977.92552631965 1.8035062918445272e6 0.0
1.8035062918445272e6 -3.0815770542792436e6 0.0
0.0 0.0 0.0

-2.106945529657354e6 5.800142350308373e6 0.0
5.800142350308373e6 -633788.8684467998 0.0
0.0 0.0 0.0

-6.330589699861627e6 3.520870020562583e6 0.0
3.520870020562583e6 9.88444884640826e6 0.0
0.0 0.0 0.0

-3.2277537165623866e6 6.380932750849322e6 0.0
6.380932750849322e6 1.667287450140726e6 0.0
0.0 0.0 0.0

-605012.9393511992 7.347602044427161e6 0.0
7.347602044427161e6 -1.740687411783229e6 0.0
0.0 0.0 0.0

-3.682150066505476e6 5.688218175301196e6 0.0
5.688218175301196e6 2.48739533194755e6 0.0
0.0 0.0 0.0

-158866.9167869147 5.397137002387066e6 0.0
5.397137002387066e6 -4.04363789747207e6 0.0
0.0 0.0 0.0

-603543.8629677237 7.799111015919204e6 0.0
7.799111015919204e6 -3.1781171538566644e6 0.0
0.0 0.0 0.0

-1.6173505627034292e7 1.1923414479744216e7 0.0
1.1923414479744216e7 8.772628078753186e6 0.0
0.0 0.0 0.0

-715590.7043171055 6.934453268164095e6 0.0
6.934453268164095e6 -1.5863309900282465e6 0.0
0.0 0.0 0.0

-552828.3237102735 2.9750432432464696e6 0.0
2.9750432432464696e6 -1.2507804476147725e6 0.0
0.0 0.0 0.0

-1.7926440562938405e6 9.378719691129781e6 0.0
9.378719691129781e6 -2.286253269174268e6 0.0
0.0 0.0 0.0

-1.1925141355154898e6 8.262296501245764e6 0.0
8.262296501245764e6 -2.471867715880619e6 0.0
0.0 0.0 0.0

472819.4864234919 1.4301061653528153e6 0.0
1.4301061653528153e6 65665.11130847802 0.0
0.0 0.0 0.0

-46842.501159952604 -447858.97536354343 0.0
-447858.97536354343 2.2601418620133903e6 0.0
0.0 0.0 0.0

-4.668701389034878e6 8.81864962721725e6 0.0
8.81864962721725e6 2.144745141200788e6 0.0
0.0 0.0 0.0

-1.6430647297917784e6 6.620800527561857e6 0.0
6.620800527561857e6 -683359.9141986655 0.0
0.0 0.0 0.0

-4.917582012643466e6 8.956007541943666e6 0.0
8.956007541943666e6 2.13490868030989e6 0.0
0.0 0.0 0.0

-296885.6160376322 6.462161776762673e6 0.0
6.462161776762673e6 -3.1303890784396296e6 0.0
0.0 0.0 0.0

-2.2994839596425095e6 7.516915196931473e6 0.0
7.516915196931473e6 -124044.57988109009 0.0
0.0 0.0 0.0

-991842.8115932705 1.72644208715585e6 0.0
1.72644208715585e6 406783.9971877346 0.0
0.0 0.0 0.0

-1.6470254345802102e7 -5.388359413525718e6 0.0
-5.388359413525718e6 6.9722457484120745e6 0.0
0.0 0.0 0.0

-3.238212972858213e6 8.22218007715895e6 0.0
8.22218007715895e6 452127.0501470519 0.0
0.0 0.0 0.0

-3.407988255615455e6 5.897240426739215e6 0.0
5.897240426739215e6 2.2128406946257837e6 0.0
0.0 0.0 0.0

-4.58081388777578e6 9.238615706223557e6 0.0
9.238615706223557e6 525888.8221776912 0.0
0.0 0.0 0.0

-1.0929936437766592e6 1.8585286454615886e6 0.0
1.8585286454615886e6 -2.0752438655150034e6 0.0
0.0 0.0 0.0

-890941.459667391 6.137949122372385e6 0.0
6.137949122372385e6 -1.2848865090993221e6 0.0
0.0 0.0 0.0

-5.318062807763841e6 9.280173094010144e6 0.0
9.280173094010144e6 768615.2877281229 0.0
0.0 0.0 0.0

-3.6649886749907774e6 9.18967672075341e6 0.0
9.18967672075341e6 1.1236617470747652e6 0.0
0.0 0.0 0.0

-544021.4239493571 3.0486559123829873e6 0.0
3.0486559123829873e6 -2.7490376283097505e6 0.0
0.0 0.0 0.0

-3.396445348333507e6 6.104437851989807e6 0.0
6.104437851989807e6 1.9878532164380846e6 0.0
0.0 0.0 0.0

-2.5588447042772407e6 6.357327435518306e6 0.0
6.357327435518306e6 -322577.31198802055 0.0
0.0 0.0 0.0

1.211955104730351e6 6.737429767778313e6 0.0
6.737429767778313e6 -6.3221268604223095e6 0.0
0.0 0.0 0.0

-5.898664862361465e6 -113546.79175914238 0.0
-113546.79175914238 6.01848583597527e6 0.0
0.0 0.0 0.0

-1.0715210603295427e6 3.7981956317602596e6 0.0
3.7981956317602596e6 -2.0682944792742196e6 0.0
0.0 0.0 0.0

615782.6463534874 6.728857003860554e6 0.0
6.728857003860554e6 -4.646799106532763e6 0.0
0.0 0.0 0.0

-122587.33726116666 8.599695118237915e6 0.0
8.599695118237915e6 -3.2884900225976505e6 0.0
0.0 0.0 0.0

332616.4458478566 7.152635761909066e6 0.0
7.152635761909066e6 -5.451892360844449e6 0.0
0.0 0.0 0.0

-7.019114057247635e6 1.0646688511992717e7 0.0
1.0646688511992717e7 2.689631860784309e6 0.0
0.0 0.0 0.0

-4.96262788840431e6 6.7765060173697695e6 0.0
6.7765060173697695e6 7.7229762602089085e6 0.0
0.0 0.0 0.0

-4.3221720758455945e6 281249.7768347447 0.0
281249.7768347447 4.0141211045362176e6 0.0
0.0 0.0 0.0

-2.7654730292997514e6 6.613781865243753e6 0.0
6.613781865243753e6 -169121.48512131826 0.0
0.0 0.0 0.0

523592.2348646277 6.643846345391443e6 0.0
6.643846345391443e6 -5.277758202113977e6 0.0
0.0 0.0 0.0

-2.7104381308713537e6 7.276484629425836e6 0.0
7.276484629425836e6 18021.466576062725 0.0
0.0 0.0 0.0

-2.79177502047588e6 8.0829169784457665e6 0.0
8.0829169784457665e6 -108330.24240257055 0.0
0.0 0.0 0.0

-759600.7663384402 3.4931293843124043e6 0.0
3.4931293843124043e6 -591742.8677272128 0.0
0.0 0.0 0.0

-3.0515117298374195e6 1.0686896333757985e7 0.0
1.0686896333757985e7 -182254.03417091456 0.0
0.0 0.0 0.0

156931.15601211635 8.592469597937679e6 0.0
8.592469597937679e6 -3.076176909379133e6 0.0
0.0 0.0 0.0

-4.313484011550298e6 8.046443447203305e6 0.0
8.046443447203305e6 1.3220784740257512e6 0.0
0.0 0.0 0.0

1.4645014328869726e6 6.728600856792163e6 0.0
6.728600856792163e6 -6.138055680931714e6 0.0
0.0 0.0 0.0

-2.651673799518093e6 8.015562980221975e6 0.0
8.015562980221975e6 -23141.766420448665 0.0
0.0 0.0 0.0

-1.727661694952016e6 5.213485486355917e6 0.0
5.213485486355917e6 -1.411930629413275e6 0.0
0.0 0.0 0.0

-1.295432469772413e6 6.825512337083048e6 0.0
6.825512337083048e6 -1.307904574806746e6 0.0
0.0 0.0 0.0

-1.6937582658435474e6 5.80490782652904e6 0.0
5.80490782652904e6 -897049.2316289698 0.0
0.0 0.0 0.0

109185.09181553114 4.262585513698959e6 0.0
4.262585513698959e6 -2.0677911522401331e6 0.0
0.0 0.0 0.0

-33255.90995913837 8.72624903450575e6 0.0
8.72624903450575e6 -2.918216754288349e6 0.0
0.0 0.0 0.0

-3.1928333620321956e6 2.5517102267774385e6 0.0
2.5517102267774385e6 3.702474855200559e6 0.0
0.0 0.0 0.0

-2.0141471173007295e6 5.662216699869014e6 0.0
5.662216699869014e6 -945803.327309187 0.0
0.0 0.0 0.0

32990.80927117774 6.493719528333993e6 0.0
6.493719528333993e6 -1.973956470408868e6 0.0
0.0 0.0 0.0

-4.931746505422344e6 8.838404037554944e6 0.0
8.838404037554944e6 2.367935550017632e6 0.0
0.0 0.0 0.0

-3.8219513194911755e6 7.984494491209073e6 0.0
7.984494491209073e6 686907.1387822649 0.0
0.0 0.0 0.0

-848893.5992382556 8.566846520469455e6 0.0
8.566846520469455e6 -2.980598017722658e6 0.0
0.0 0.0 0.0

-1.2989955703118464e6 4.291559957943145e6 0.0
4.291559957943145e6 -1.814951551467589e6 0.0
0.0 0.0 0.0

-3.5385543566774884e6 8.351435757460755e6 0.0
8.351435757460755e6 625808.6424917784 0.0
0.0 0.0 0.0

-3.754641702827878e6 6.3494289632859435e6 0.0
6.3494289632859435e6 2.8035474674029285e6 0.0
0.0 0.0 0.0

-5.215252197233275e6 6.080775789999244e6 0.0
6.080775789999244e6 6.144927209436728e6 0.0
0.0 0.0 0.0

512928.2118476948 6.664739832972221e6 0.0
6.664739832972221e6 -5.569550723656476e6 0.0
0.0 0.0 0.0

-2.2646321842980753e6 7.1347741832326315e6 0.0
7.1347741832326315e6 58491.73423381231 0.0
0.0 0.0 0.0

-3.0176224106244007e6 8.11579340727402e6 0.0
8.11579340727402e6 109338.38054965576 0.0
0.0 0.0 0.0

-860888.1408552608 3.5412677127731577e6 0.0
3.5412677127731577e6 -720937.0839230726 0.0
0.0 0.0 0.0

-7.213926594096669e6 1.0934529362842059e7 0.0
1.0934529362842059e7 2.9205555824444094e6 0.0
0.0 0.0 0.0

-1.7373842546767378e6 5.285019694069197e6 0.0
5.285019694069197e6 -927600.0092447393 0.0
0.0 0.0 0.0

-2.1870058347123256e6 4.526203649285192e6 0.0
4.526203649285192e6 779785.7726225832 0.0
0.0 0.0 0.0

-1.067511224214084e6 4.134223372461475e6 0.0
4.134223372461475e6 -1.7200462987576253e6 0.0
0.0 0.0 0.0

-791096.724748015 7.263190232015911e6 0.0
7.263190232015911e6 -1.563442859938766e6 0.0
0.0 0.0 0.0

-3.7642609619776327e6 8.366134709614726e6 0.0
8.366134709614726e6 859568.6324789105 0.0
0.0 0.0 0.0

-3.9375921113725305e6 8.48272522668262e6 0.0
8.48272522668262e6 1.0316779180765166e6 0.0
0.0 0.0 0.0

-1.9576159875140784e6 5.583234641711886e6 0.0
5.583234641711886e6 -799832.8939674663 0.0
0.0 0.0 0.0

66239.19818577555 9.561339314732905e6 0.0
9.561339314732905e6 -2.9679204430542593e6 0.0
0.0 0.0 0.0

-1.0918675451174674e6 1.2849420129001306e7 0.0
1.2849420129001306e7 -2.4518099068412464e6 0.0
0.0 0.0 0.0

-2.23570125144096e6 8.397744006861897e6 0.0
8.397744006861897e6 663013.5232634568 0.0
0.0 0.0 0.0

-609412.1194901763 7.779235517232435e6 0.0
7.779235517232435e6 -4.8405700338277975e6 0.0
0.0 0.0 0.0

-1.2649715296563166e6 4.61362913859512e6 0.0
4.61362913859512e6 -1.1761364668736337e6 0.0
0.0 0.0 0.0

-789949.855705115 2.3352280763740367e6 0.0
2.3352280763740367e6 -22441.10191916194 0.0
0.0 0.0 0.0

-1.4366494344952921e6 9.284795846036669e6 0.0
9.284795846036669e6 -64309.50805123878 0.0
0.0 0.0 0.0

-2.291662585878645e6 8.651738581260998e6 0.0
8.651738581260998e6 38039.46681539831 0.0
0.0 0.0 0.0

-2.639895293456421e6 7.661482980938048e6 0.0
7.661482980938048e6 75788.59589528467 0.0
0.0 0.0 0.0

-792747.9792036655 1.4755048665016836e6 0.0
1.4755048665016836e6 193285.29954667855 0.0
0.0 0.0 0.0

-5.199929197943116e6 8.879460665761344e6 0.0
8.879460665761344e6 2.535414806461869e6 0.0
0.0 0.0 0.0

-3.542050487652221e6 8.272095325503907e6 0.0
8.272095325503907e6 629206.9702070267 0.0
0.0 0.0 0.0

566506.5689354546 7.915785507730073e6 0.0
7.915785507730073e6 -2.2699138844378665e6 0.0
0.0 0.0 0.0

-127277.84286929172 8.717975215596812e6 0.0
8.717975215596812e6 -424259.47616158344 0.0
0.0 0.0 0.0

-2.0719185438281065e6 6.530595413699431e6 0.0
6.530595413699431e6 133251.44833165593 0.0
0.0 0.0 0.0

-2.242632586464302e6 4.969657406536793e6 0.0
4.969657406536793e6 375548.98424915364 0.0
0.0 0.0 0.0

-236460.52401200472 3.2532472221786957e6 0.0
3.2532472221786957e6 -2.6876121562811476e6 0.0
0.0 0.0 0.0

-4.460404059862541e6 8.101363987237961e6 0.0
8.101363987237961e6 1.37119133058157e6 0.0
0.0 0.0 0.0

-1.6121413756146277e6 4.239156859654504e6 0.0
4.239156859654504e6 459672.9103988968 0.0
0.0 0.0 0.0

1.050725700069663e6 7.883583226007548e6 0.0
7.883583226007548e6 -3.7946215486614997e6 0.0
0.0 0.0 0.0

-4.037880189626978e6 7.6335056414314145e6 0.0
7.6335056414314145e6 780655.0485249199 0.0
0.0 0.0 0.0

-2.779875065073438e6 8.045870185096883e6 0.0
8.045870185096883e6 -65676.6090653356 0.0
0.0 0.0 0.0

-16437.525307567674 6.260962262390615e6 0.0
6.260962262390615e6 -1.9408113366724998e6 0.0
0.0 0.0 0.0

-1.2543738254778513e6 4.652963794774746e6 0.0
4.652963794774746e6 -2.6778815148582505e6 0.0
0.0 0.0 0.0

-1.4659148070489313e7 1.1221442181099055e7 0.0
1.1221442181099055e7 7.790110551763638e6 0.0
0.0 0.0 0.0

1.1649654593015187e6 7.200407844479643e6 0.0
7.200407844479643e6 -6.685694156481334e6 0.0
0.0 0.0 0.0

363545.14847999206 6.982642880232584e6 0.0
6.982642880232584e6 -4.111695846140674e6 0.0
0.0 0.0 0.0

-793303.8738560502 7.4042829741498055e6 0.0
7.4042829741498055e6 -2.72612544856727e6 0.0
0.0 0.0 0.0

-1.9448383278764444e6 8.606315284670945e6 0.0
8.606315284670945e6 355875.00980245194 0.0
0.0 0.0 0.0

-632926.5572819599 7.915313771664782e6 0.0
7.915313771664782e6 -3.731505053182884e6 0.0
0.0 0.0 0.0

-1.0892922733978364e6 4.5533567134665465e6 0.0
4.5533567134665465e6 -1.3033981263770587e6 0.0
0.0 0.0 0.0

-1.436026305550034e6 5.894521972838228e6 0.0
5.894521972838228e6 -1.1256343758775005e6 0.0
0.0 0.0 0.0

-646472.0996466426 9.208833465684555e6 0.0
9.208833465684555e6 912268.3290855481 0.0
0.0 0.0 0.0

-4.1893147429829473e6 6.923615005463915e6 0.0
6.923615005463915e6 6.719660042895075e6 0.0
0.0 0.0 0.0

-715140.2711960727 6.947234595966745e6 0.0
6.947234595966745e6 4.64373834262293e6 0.0
0.0 0.0 0.0

-6.997104539753014e6 8.922683238106333e6 0.0
8.922683238106333e6 3.746002353264485e6 0.0
0.0 0.0 0.0

-2.3089819043970406e6 5.856365165785727e6 0.0
5.856365165785727e6 -718633.2693261681 0.0
0.0 0.0 0.0

-8.29903466481269e6 7.689644244959156e6 0.0
7.689644244959156e6 1.220396966803668e6 0.0
0.0 0.0 0.0

-2.352324830969961e6 6.115856380531706e6 0.0
6.115856380531706e6 -491844.86495214654 0.0
0.0 0.0 0.0

-3.135660916735059e6 8.220644954921623e6 0.0
8.220644954921623e6 83286.74299225584 0.0
0.0 0.0 0.0

-1.8027771202921956e6 5.604453228801376e6 0.0
5.604453228801376e6 -912547.9138839501 0.0
0.0 0.0 0.0

-480404.8531642859 7.851085218993929e6 0.0
7.851085218993929e6 -4.2284442322567385e6 0.0
0.0 0.0 0.0

311078.1951745262 6.952189829669918e6 0.0
6.952189829669918e6 -3.894818722058455e6 0.0
0.0 0.0 0.0

382456.7837452041 7.006056500194653e6 0.0
7.006056500194653e6 -5.06143321950948e6 0.0
0.0 0.0 0.0

-1.4147868016103697e6 8.882655326194406e6 0.0
8.882655326194406e6 964430.844786971 0.0
0.0 0.0 0.0

177952.02708959952 6.813881361514297e6 0.0
6.813881361514297e6 -4.0592864574696175e6 0.0
0.0 0.0 0.0

-4.1313814987553325e6 7.752604233645015e6 0.0
7.752604233645015e6 796175.7543190755 0.0
0.0 0.0 0.0

-2.837649659056997e6 7.539195990989146e6 0.0
7.539195990989146e6 -1.0904204338672925e6 0.0
0.0 0.0 0.0

-1.7041135394858965e6 5.8015608587351125e6 0.0
5.8015608587351125e6 -1.0711233864989332e6 0.0
0.0 0.0 0.0

-1.6296250018830386e6 7.664494921753327e6 0.0
7.664494921753327e6 -1.19626850038394e6 0.0
0.0 0.0 0.0

-2.3905199657321726e6 4.550022027152904e6 0.0
4.550022027152904e6 1.0778183170815837e6 0.0
0.0 0.0 0.0

-396186.17872999003 4.92822581442695e6 0.0
4.92822581442695e6 -2.517767016359822e6 0.0
0.0 0.0 0.0

-8.966710554660115e6 8.963878663441438e6 0.0
8.963878663441438e6 4.880016864837483e6 0.0
0.0 0.0 0.0

-5.52757379243037e6 8.873826027334727e6 0.0
8.873826027334727e6 2.781359703076095e6 0.0
0.0 0.0 0.0

-3.227598045290691e6 4.786076822402686e6 0.0
4.786076822402686e6 2.0249665692333912e6 0.0
0.0 0.0 0.0

-1.0801731658355303e6 6.479792819135617e6 0.0
6.479792819135617e6 -3.600577217371674e6 0.0
0.0 0.0 0.0

-1.3466242282258705e6 8.248933909374209e6 0.0
8.248933909374209e6 -2.2665736296882234e6 0.0
0.0 0.0 0.0

-28906.984886260005 6.722321946866172e6 0.0
6.722321946866172e6 -4.132420772549809e6 0.0
0.0 0.0 0.0

-3.138852765488728e6 7.708069498925394e6 0.0
7.708069498925394e6 1.257367595482789e6 0.0
0.0 0.0 0.0

-1.12139431958602e6 3.5275603661782695e6 0.0
3.5275603661782695e6 -180417.10370781022 0.0
0.0 0.0 0.0

-3.971546767916199e6 1.1200730204382174e7 0.0
1.1200730204382174e7 699925.4404547096 0.0
0.0 0.0 0.0

-7.273065046883672e6 -2.1415001193349427e6 0.0
-2.1415001193349427e6 1.1482846751084942e7 0.0
0.0 0.0 0.0

-3.2540915785545413e6 6.873730614470755e6 0.0
6.873730614470755e6 -25450.33010948752 0.0
0.0 0.0 0.0

-312175.0887363568 2.762589673725767e6 0.0
2.762589673725767e6 -515197.1041991039 0.0
0.0 0.0 0.0

16807.27074045292 2.941340132695474e6 0.0
2.941340132695474e6 -1.1643220964087069e6 0.0
0.0 0.0 0.0

1.0038826214843249e6 1.5271695063435554e6 0.0
1.5271695063435554e6 -2.640633775655231e6 0.0
0.0 0.0 0.0

-6.828020492163584e6 3.520802283755434e6 0.0
3.520802283755434e6 8.22336321758202e6 0.0
0.0 0.0 0.0

51535.684721498284 7.127111118299826e6 0.0
7.127111118299826e6 -4.183184919437298e6 0.0
0.0 0.0 0.0

-3.9680694791292995e6 7.693356487371796e6 0.0
7.693356487371796e6 998979.0152925556 0.0
0.0 0.0 0.0

-3.240495403796243e6 8.1743459131898e6 0.0
8.1743459131898e6 456713.3174723545 0.0
0.0 0.0 0.0

-2.272908607519894e6 6.464097555392813e6 0.0
6.464097555392813e6 -365601.0785715798 0.0
0.0 0.0 0.0

-2.949039039294713e6 7.419676831117856e6 0.0
7.419676831117856e6 829643.3756250157 0.0
0.0 0.0 0.0

-1.298373788139341e6 2.5618237845536754e6 0.0
2.5618237845536754e6 -1.4268950044371826e6 0.0
0.0 0.0 0.0

-3.044708955069156e6 6.9162806693365695e6 0.0
6.9162806693365695e6 77517.53446525382 0.0
0.0 0.0 0.0

-2.1676953793312735e6 1.2806814209605474e7 0.0
1.2806814209605474e7 -1.360090743987348e6 0.0
0.0 0.0 0.0

-867631.7155015506 4.395988347870212e6 0.0
4.395988347870212e6 -1.428339724943292e6 0.0
0.0 0.0 0.0

-2.140012439501655e6 5.807385314503294e6 0.0
5.807385314503294e6 -595950.3586443942 0.0
0.0 0.0 0.0

-2.8919538396440693e6 9.249481564960787e6 0.0
9.249481564960787e6 510100.93491165584 0.0
0.0 0.0 0.0

-2.116578446514771e6 6.508259386514292e6 0.0
6.508259386514292e6 -446790.84497600014 0.0
0.0 0.0 0.0

1.5251970234479886e6 1.086470459364083e7 0.0
1.086470459364083e7 -4.491167903614179e6 0.0
0.0 0.0 0.0

-90328.24713235849 5.141927916014431e6 0.0
5.141927916014431e6 -1.8329138613882624e6 0.0
0.0 0.0 0.0

803681.166512338 6.312970671843288e6 0.0
6.312970671843288e6 -4.954944181999709e6 0.0
0.0 0.0 0.0

669800.232390876 4.991062218138424e6 0.0
4.991062218138424e6 -1.403861333881747e6 0.0
0.0 0.0 0.0

-1.3961656297791188e6 5.3534043583903955e6 0.0
5.3534043583903955e6 -1.0595732797383866e6 0.0
0.0 0.0 0.0

-2.4918936003860664e6 6.311215943409234e6 0.0
6.311215943409234e6 -449685.27996683994 0.0
0.0 0.0 0.0

98332.74510073598 3.5249583652805057e6 0.0
3.5249583652805057e6 -1.3134162661103064e6 0.0
0.0 0.0 0.0

63865.5497518155 2.098505808992904e6 0.0
2.098505808992904e6 -1.6781414070474766e6 0.0
0.0 0.0 0.0

-892692.972467154 9.72594036801063e6 0.0
9.72594036801063e6 -2.651150097615368e6 0.0
0.0 0.0 0.0

-1.3935259390136863e6 4.801780987574414e6 0.0
4.801780987574414e6 -1.3187614156357276e6 0.0
0.0 0.0 0.0

-1.460958736837068e7 1.0505688205847474e7 0.0
1.0505688205847474e7 7.846709477162476e6 0.0
0.0 0.0 0.0

1.078013233688962e6 7.317311550457281e6 0.0
7.317311550457281e6 562560.5774992601 0.0
0.0 0.0 0.0

-1.259750838111471e6 4.453782727720061e6 0.0
4.453782727720061e6 -1.3060192552590382e6 0.0
0.0 0.0 0.0

-1.0355989384008058e6 4.451769771865041e6 0.0
4.451769771865041e6 -626571.197818629 0.0
0.0 0.0 0.0

-762913.7863714714 1.3158701800570807e6 0.0
1.3158701800570807e6 -1.0890873028404384e6 0.0
0.0 0.0 0.0

-2.360880386567394e6 2.2640960342222597e6 0.0
2.2640960342222597e6 2.4414748809478804e6 0.0
0.0 0.0 0.0

-1.2899200301159078e6 4.0747835814509382e6 0.0
4.0747835814509382e6 -1.3448578638703227e6 0.0
0.0 0.0 0.0

-9.413698571207311e6 8.389444240423433e6 0.0
8.389444240423433e6 4.947908322179394e6 0.0
0.0 0.0 0.0

-3.7767284797221497e6 1.1671271696710626e7 0.0
1.1671271696710626e7 445056.2118251121 0.0
0.0 0.0 0.0

127756.60913049523 6.94933176194499e6 0.0
6.94933176194499e6 -4.141869750533736e6 0.0
0.0 0.0 0.0

-3.081620135009016e6 7.431670000653899e6 0.0
7.431670000653899e6 -674879.9085070069 0.0
0.0 0.0 0.0

474192.2763680611 6.695551843014966e6 0.0
6.695551843014966e6 -4.975455219584877e6 0.0
0.0 0.0 0.0

-2.5799810045504924e6 6.504823080311431e6 0.0
6.504823080311431e6 -331415.010513739 0.0
0.0 0.0 0.0

-1.8377178102725423e6 7.2872761426515505e6 0.0
7.2872761426515505e6 1.2941692224349005e6 0.0
0.0 0.0 0.0

-2.8623562983896034e6 1.2547128320509171e7 0.0
1.2547128320509171e7 -455843.83253825404 0.0
0.0 0.0 0.0

-534677.5536777497 4.239057256427262e6 0.0
4.239057256427262e6 -1.4134290172225488e6 0.0
0.0 0.0 0.0

-823302.2893343789 3.8673343173409845e6 0.0
3.8673343173409845e6 -2.1162901091747545e6 0.0
0.0 0.0 0.0

-1.148003030887767e6 5.379784271975221e6 0.0
5.379784271975221e6 -1.1084196631130641e6 0.0
0.0 0.0 0.0

-5.916391622180177e6 8.766084315129293e6 0.0
8.766084315129293e6 3.0790935751862056e6 0.0
0.0 0.0 0.0

-1.8039914541847403e6 7.201420477637365e6 0.0
7.201420477637365e6 -1.0912741994134998e6 0.0
0.0 0.0 0.0

-5.939711376679868e6 1.2908150971398653e7 0.0
1.2908150971398653e7 2.2668968654907434e6 0.0
0.0 0.0 0.0

-2.428771755899072e6 6.465091410790098e6 0.0
6.465091410790098e6 -274141.05519541504 0.0
0.0 0.0 0.0

-801345.0492429181 9.522694786656883e6 0.0
9.522694786656883e6 1.793011411635913e6 0.0
0.0 0.0 0.0

-2.32977816836188e6 9.197529448635126e6 0.0
9.197529448635126e6 150043.97916819248 0.0
0.0 0.0 0.0

-4.446038066537971e6 8.195423358132576e6 0.0
8.195423358132576e6 1.4723876694348366e6 0.0
0.0 0.0 0.0

-579933.7770539605 8.888104034208111e6 0.0
8.888104034208111e6 -3.161910870306007e6 0.0
0.0 0.0 0.0

142060.7338309337 7.39815116907426e6 0.0
7.39815116907426e6 -5.196613588105184e6 0.0
0.0 0.0 0.0

-4.303031472402793e6 6.0858841989181675e6 0.0
6.0858841989181675e6 6.77731553085665e6 0.0
0.0 0.0 0.0

-1.4728830067387815e6 4.619369209099568e6 0.0
4.619369209099568e6 -1.724086041005536e6 0.0
0.0 0.0 0.0

-1.6804489913317873e6 2.232505997338028e6 0.0
2.232505997338028e6 1.2067752175945896e6 0.0
0.0 0.0 0.0

-253142.98154542642 7.442094184554702e6 0.0
7.442094184554702e6 -3.6306866698249076e6 0.0
0.0 0.0 0.0

-1.453096299684457e6 5.495497887854668e6 0.0
5.495497887854668e6 -1.290266810172325e6 0.0
0.0 0.0 0.0

-386145.43947776663 42742.895151389166 0.0
42742.895151389166 -2.3166523662678967e6 0.0
0.0 0.0 0.0

-2.694253225411011e6 7.432247142446657e6 0.0
7.432247142446657e6 -271037.0740172358 0.0
0.0 0.0 0.0

-3.717743828609913e6 8.369880121509651e6 0.0
8.369880121509651e6 851332.6029958136 0.0
0.0 0.0 0.0

-6.045058709679191e6 1.0018143477403194e7 0.0
1.0018143477403194e7 2.0147277245215173e6 0.0
0.0 0.0 0.0

-2.819487182042407e6 6.714655271213204e6 0.0
6.714655271213204e6 -125321.93735494022 0.0
0.0 0.0 0.0

-853859.2063861125 2.1135346173510915e6 0.0
2.1135346173510915e6 -1.1273676920074048e6 0.0
0.0 0.0 0.0

-3.3901816199817657e6 1.2118570515877793e7 0.0
1.2118570515877793e7 38484.021025594324 0.0
0.0 0.0 0.0

-1.1173314256810874e6 3.681103567500499e6 0.0
3.681103567500499e6 30190.645082397677 0.0
0.0 0.0 0.0

677887.3274789294 6.636916581926145e6 0.0
6.636916581926145e6 -5.825246668726137e6 0.0
0.0 0.0 0.0

-1.5790469519812749e6 7.798758518744075e6 0.0
7.798758518744075e6 1.8567747348270756e6 0.0
0.0 0.0 0.0

-4.084415682645153e6 8.539295857733427e6 0.0
8.539295857733427e6 1.623979052456221e6 0.0
0.0 0.0 0.0

-1.11430811399197e6 8.076705238236588e6 0.0
8.076705238236588e6 -500682.6967980016 0.0
0.0 0.0 0.0

-3.7531265983463596e6 7.219190779579783e6 0.0
7.219190779579783e6 5.836220982344389e6 0.0
0.0 0.0 0.0

15652.366096259304 6.546770215678398e6 0.0
6.546770215678398e6 52174.74909103569 0.0
0.0 0.0 0.0

-1.7674344547771309e6 5.084919482847918e6 0.0
5.084919482847918e6 -1.2179898778367362e6 0.0
0.0 0.0 0.0

-700424.5150924886 9.162458611840235e6 0.0
9.162458611840235e6 580803.9766287773 0.0
0.0 0.0 0.0

-1.4224522993599784e7 9.595020945190089e6 0.0
9.595020945190089e6 8.051969756973021e6 0.0
0.0 0.0 0.0

-2.7313032883430626e6 8.725996928908207e6 0.0
8.725996928908207e6 1.4328402975201826e6 0.0
0.0 0.0 0.0

8.705629560035437e6 9.627120623586738e6 0.0
9.627120623586738e6 448431.17802034086 0.0
0.0 0.0 0.0

-1.8432127560520968e6 5.853165768626098e6 0.0
5.853165768626098e6 -970820.9962393244 0.0
0.0 0.0 0.0

-2.8548288012145134e6 7.325081135625394e6 0.0
7.325081135625394e6 -56954.81569692923 0.0
0.0 0.0 0.0

-975676.004070625 7.394360608205733e6 0.0
7.394360608205733e6 -2.2780956138547445e6 0.0
0.0 0.0 0.0

-6.280867432333702e6 1.0395078580538526e7 0.0
1.0395078580538526e7 2.1053178373307046e6 0.0
0.0 0.0 0.0

739985.2411850838 6.423866098032327e6 0.0
6.423866098032327e6 -5.40060202464887e6 0.0
0.0 0.0 0.0

-1.2198989667328154e6 3.998867076929936e6 0.0
3.998867076929936e6 -1.4062788380147037e6 0.0
0.0 0.0 0.0

-716880.8525198099 6.818732073409586e6 0.0
6.818732073409586e6 -3.006099196621088e6 0.0
0.0 0.0 0.0

-3.1272189858088363e6 6.7490104599288e6 0.0
6.7490104599288e6 1.6910044393132837e6 0.0
0.0 0.0 0.0

-3.2821943043433987e6 7.114871247806244e6 0.0
7.114871247806244e6 275306.2003593999 0.0
0.0 0.0 0.0

-641567.2264287139 7.014989840893342e6 0.0
7.014989840893342e6 -1.3015564079816309e6 0.0
0.0 0.0 0.0

-1.5050763992595654e6 5.733332097445584e6 0.0
5.733332097445584e6 -965643.8148214382 0.0
0.0 0.0 0.0

-2.895764926752645e6 6.880475392740305e6 0.0
6.880475392740305e6 128094.47782574059 0.0
0.0 0.0 0.0

16143.331938714487 9.105793868945219e6 0.0
9.105793868945219e6 -2.8187217840265613e6 0.0
0.0 0.0 0.0

-1.2716352239292817e7 9.727550388543341e6 0.0
9.727550388543341e6 7.167232893911615e6 0.0
0.0 0.0 0.0

-3.1271163692555265e6 7.077456012014572e6 0.0
7.077456012014572e6 327997.0198237768 0.0
0.0 0.0 0.0

-294429.0504664926 6.812784496757289e6 0.0
6.812784496757289e6 -1.5014737947104406e6 0.0
0.0 0.0 0.0

3.518183507167127e6 8.392450149452297e6 0.0
8.392450149452297e6 1.8629000170092047e6 0.0
0.0 0.0 0.0

848382.4657656187 7.335421771627504e6 0.0
7.335421771627504e6 -6.146586466054414e6 0.0
0.0 0.0 0.0

-4.146434278739943e6 8.47717115155766e6 0.0
8.47717115155766e6 1.2404557173064586e6 0.0
0.0 0.0 0.0

-255619.57832005946 5.679650160689529e6 0.0
5.679650160689529e6 -1.675473454856744e6 0.0
0.0 0.0 0.0

-1.7528897019542686e6 5.674909705863306e6 0.0
5.674909705863306e6 -1.0788513900020171e6 0.0
0.0 0.0 0.0

-1.5797106808561853e6 4.755500166326408e6 0.0
4.755500166326408e6 -1.4047464349278023e6 0.0
0.0 0.0 0.0

-1.1745212584430236e7 9.856465127051918e6 0.0
9.856465127051918e6 6.05487551073296e6 0.0
0.0 0.0 0.0

6344.738906831248 6.969739602578532e6 0.0
6.969739602578532e6 -4.451206223993044e6 0.0
0.0 0.0 0.0

-831892.8740345251 2.5687069998538946e6 0.0
2.5687069998538946e6 -249393.50081025634 0.0
0.0 0.0 0.0

-4.0134159213101184e6 7.489822835405477e6 0.0
7.489822835405477e6 1.7368235862495964e6 0.0
0.0 0.0 0.0

-98391.53655933787 4.198067408696342e6 0.0
4.198067408696342e6 -1.4713289071310444e6 0.0
0.0 0.0 0.0

-3.033400982344908e6 6.629504422225377e6 0.0
6.629504422225377e6 -208956.75717496767 0.0
0.0 0.0 0.0

-3.2053845675910804e6 7.391091830001457e6 0.0
7.391091830001457e6 268968.1631374315 0.0
0.0 0.0 0.0

-1.082280913245415e6 8.61824555473218e6 0.0
8.61824555473218e6 -3.0656368855303694e6 0.0
0.0 0.0 0.0

-1.1071305785793584e7 9.907637856327957e6 0.0
9.907637856327957e6 5.807521706059089e6 0.0
0.0 0.0 0.0

-3.2133982810778627e6 6.865477289745883e6 0.0
6.865477289745883e6 1.60108173297336e6 0.0
0.0 0.0 0.0

-3.357141074378152e6 7.272645518791473e6 0.0
7.272645518791473e6 516532.6491833455 0.0
0.0 0.0 0.0

616977.7881229031 6.584708329167439e6 0.0
6.584708329167439e6 -5.198781760517485e6 0.0
0.0 0.0 0.0

-926999.4967606652 7.4446129189811405e6 0.0
7.4446129189811405e6 -1.6079636346207322e6 0.0
0.0 0.0 0.0

-1.0328586266672214e7 9.664490227027081e6 0.0
9.664490227027081e6 5.550595833765587e6 0.0
0.0 0.0 0.0

972626.4857001784 7.2277548362716045e6 0.0
7.2277548362716045e6 -6.145213821146595e6 0.0
0.0 0.0 0.0

-9.149729034508122e6 1.003019158077166e7 0.0
1.003019158077166e7 4.735061301299443e6 0.0
0.0 0.0 0.0

-8.55419631962457e6 9.94460306963047e6 0.0
9.94460306963047e6 4.384880321115671e6 0.0
0.0 0.0 0.0

-5.289917017484932e6 8.678716394653246e6 0.0
8.678716394653246e6 2.0863369484244375e6 0.0
0.0 0.0 0.0

-5.483706723030252e6 8.795946258253254e6 0.0
8.795946258253254e6 2.2856004629255803e6 0.0
0.0 0.0 0.0

-5.719848989307362e6 8.943917311625035e6 0.0
8.943917311625035e6 2.431665664179536e6 0.0
0.0 0.0 0.0

-5.972547364287653e6 9.054509122452656e6 0.0
9.054509122452656e6 2.697724557874988e6 0.0
0.0 0.0 0.0

-6.169583246465839e6 9.14014799531028e6 0.0
9.14014799531028e6 2.8318863362289895e6 0.0
0.0 0.0 0.0

-6.413317628035277e6 9.299776006827079e6 0.0
9.299776006827079e6 2.903300455507265e6 0.0
0.0 0.0 0.0

-805071.6010189475 5.35677882248947e6 0.0
5.35677882248947e6 -1.2207492167231012e6 0.0
0.0 0.0 0.0

-6.86256088136594e6 9.232658616453385e6 0.0
9.232658616453385e6 3.512255032678763e6 0.0
0.0 0.0 0.0

-7.227931076004854e6 9.37667314135133e6 0.0
9.37667314135133e6 3.6687849731955957e6 0.0
0.0 0.0 0.0

-2.0927868322878797e6 4.531897510205204e6 0.0
4.531897510205204e6 1.099186158358935e6 0.0
0.0 0.0 0.0

-8.12789843332674e6 9.760195582662396e6 0.0
9.760195582662396e6 4.220528548726295e6 0.0
0.0 0.0 0.0

-7.57293019938319e6 9.52015308009952e6 0.0
9.52015308009952e6 3.7354601247465527e6 0.0
0.0 0.0 0.0

-7.832081967129927e6 9.570811494595356e6 0.0
9.570811494595356e6 3.9087057307861447e6 0.0
0.0 0.0 0.0

-7.643475943833654e6 9.592214486230366e6 0.0
9.592214486230366e6 3.8480905818149694e6 0.0
0.0 0.0 0.0

-2.191062039280241e6 6.253103658069976e6 0.0
6.253103658069976e6 -483118.53244829405 0.0
0.0 0.0 0.0

-8.27858202581493e6 9.800975542051332e6 0.0
9.800975542051332e6 4.1612577619134504e6 0.0
0.0 0.0 0.0

-7.525267869709295e6 9.492089486110061e6 0.0
9.492089486110061e6 3.7835285453287074e6 0.0
0.0 0.0 0.0

-7.331727284847059e6 9.410988506979056e6 0.0
9.410988506979056e6 3.6189309614242218e6 0.0
0.0 0.0 0.0

-6.643645034146e6 9.471418140681347e6 0.0
9.471418140681347e6 3.1373263891422306e6 0.0
0.0 0.0 0.0

-6.4487358161983015e6 9.246995961961322e6 0.0
9.246995961961322e6 2.9976987064942094e6 0.0
0.0 0.0 0.0

-6.162824309950002e6 9.134967076057106e6 0.0
9.134967076057106e6 2.8405588951933132e6 0.0
0.0 0.0 0.0

-5.902143408901311e6 9.06669740817446e6 0.0
9.06669740817446e6 2.6652670075137285e6 0.0
0.0 0.0 0.0

-5.6566608830969585e6 8.912580862283194e6 0.0
8.912580862283194e6 2.483223884802248e6 0.0
0.0 0.0 0.0

-5.401211376140585e6 8.793140090013636e6 0.0
8.793140090013636e6 2.2845059920300087e6 0.0
0.0 0.0 0.0

-4.1501959841241287e6 7.7248701161187645e6 0.0
7.7248701161187645e6 960665.8204761378 0.0
0.0 0.0 0.0

-4.120897515243546e6 6.493418039615121e6 0.0
6.493418039615121e6 6.12876173069922e6 0.0
0.0 0.0 0.0

-8.776130484447103e6 9.88521400158479e6 0.0
9.88521400158479e6 4.509144115720944e6 0.0
0.0 0.0 0.0

-237803.410031116 6.503453859562096e6 0.0
6.503453859562096e6 -3.560413834668802e6 0.0
0.0 0.0 0.0

-3.5354703951166226e6 8.285305347158585e6 0.0
8.285305347158585e6 611049.0844383221 0.0
0.0 0.0 0.0

-9.448702743006796e6 9.624145769906372e6 0.0
9.624145769906372e6 5.487899179582164e6 0.0
0.0 0.0 0.0

-1.1298312840894947e6 3.8514955614765645e6 0.0
3.8514955614765645e6 24730.29165540979 0.0
0.0 0.0 0.0

-1.021275083557697e7 9.705915136895059e6 0.0
9.705915136895059e6 5.461999612517675e6 0.0
0.0 0.0 0.0

-1.1976974919726464e6 3.293302141290985e6 0.0
3.293302141290985e6 233308.33210270526 0.0
0.0 0.0 0.0

-1.1297138330456926e7 9.82133883446833e6 0.0
9.82133883446833e6 5.988671994423009e6 0.0
0.0 0.0 0.0

-1.724172339130165e6 9.55237600566917e6 0.0
9.55237600566917e6 -2.370142197192067e6 0.0
0.0 0.0 0.0

-521823.0814451826 6.6582834632419925e6 0.0
6.6582834632419925e6 -2.7477194407022055e6 0.0
0.0 0.0 0.0

52935.01354641188 7.407837213597708e6 0.0
7.407837213597708e6 -4.974533340239219e6 0.0
0.0 0.0 0.0

-3.217436503569221e6 7.292013128114536e6 0.0
7.292013128114536e6 425766.4455131623 0.0
0.0 0.0 0.0

-2.4014113981518927e6 5.882333288869882e6 0.0
5.882333288869882e6 -708705.2361351657 0.0
0.0 0.0 0.0

-3.862821900004801e6 7.527404831762058e6 0.0
7.527404831762058e6 523131.05967171444 0.0
0.0 0.0 0.0

-1.6382808211783455e6 9.681692997454025e6 0.0
9.681692997454025e6 -2.4699711026865086e6 0.0
0.0 0.0 0.0

588017.215601034 5.490930645056166e6 0.0
5.490930645056166e6 -3.743556167245357e6 0.0
0.0 0.0 0.0

-1.244562545951528e6 7.530965073729181e6 0.0
7.530965073729181e6 -1.5399637057872128e6 0.0
0.0 0.0 0.0

-1.2314524575895451e7 9.477019730691329e6 0.0
9.477019730691329e6 6.775061567265195e6 0.0
0.0 0.0 0.0

-818749.6326835854 4.949396841552426e6 0.0
4.949396841552426e6 -2.209409054959661e6 0.0
0.0 0.0 0.0

-1.6186784909052937e6 2.616006961576304e6 0.0
2.616006961576304e6 1.0954158844046886e6 0.0
0.0 0.0 0.0

-2.661937664648332e6 6.675875627926259e6 0.0
6.675875627926259e6 -71288.38181680872 0.0
0.0 0.0 0.0

-6.658810510182328e6 9.571676459741673e6 0.0
9.571676459741673e6 2.910373669651145e6 0.0
0.0 0.0 0.0

-24979.672756646527 6.641508637351327e6 0.0
6.641508637351327e6 -3.8267141308676633e6 0.0
0.0 0.0 0.0

-9.47889569288768e6 8.001013230713935e6 0.0
8.001013230713935e6 5.797463909372792e6 0.0
0.0 0.0 0.0

-1.3068389410302339e6 4.991210183637352e6 0.0
4.991210183637352e6 -753272.0172684002 0.0
0.0 0.0 0.0

-5.653522644744691e6 7.138740354412207e6 0.0
7.138740354412207e6 1.153280807291951e6 0.0
0.0 0.0 0.0

-479894.42100075237 9.177308807166273e6 0.0
9.177308807166273e6 225548.28108667434 0.0
0.0 0.0 0.0

-1.3470794092279505e7 9.418290584748324e6 0.0
9.418290584748324e6 7.775366003265941e6 0.0
0.0 0.0 0.0

-194594.7085802725 7.15345336023056e6 0.0
7.15345336023056e6 -4.224031717675706e6 0.0
0.0 0.0 0.0

-1.153578087337596e6 7.000922373122087e6 0.0
7.000922373122087e6 -1.306729992217679e6 0.0
0.0 0.0 0.0

-497625.86951768957 6.174107604605222e6 0.0
6.174107604605222e6 -1.6587528611968053e6 0.0
0.0 0.0 0.0

-366084.2667358108 6.086083610497297e6 0.0
6.086083610497297e6 -3.2222148529641507e6 0.0
0.0 0.0 0.0

166351.19674939814 7.467434058852988e6 0.0
7.467434058852988e6 -1.811859912999567e6 0.0
0.0 0.0 0.0

-364901.07108919194 6.433928083779699e6 0.0
6.433928083779699e6 -3.356762206896958e6 0.0
0.0 0.0 0.0

-335128.3672650078 8.811831688715272e6 0.0
8.811831688715272e6 -750957.5234316904 0.0
0.0 0.0 0.0

-3.302352287327839e6 7.551458819174198e6 0.0
7.551458819174198e6 508673.8477288934 0.0
0.0 0.0 0.0

-3.5178115635960028e6 7.308517412557717e6 0.0
7.308517412557717e6 466392.96521850885 0.0
0.0 0.0 0.0

-1.2168543665320221e6 3.786548144839428e6 0.0
3.786548144839428e6 -2.551656468758725e6 0.0
0.0 0.0 0.0

798423.2025471706 9.051415170495393e6 0.0
9.051415170495393e6 3.259643426786495e6 0.0
0.0 0.0 0.0

-915888.3895370545 5.421006346955458e6 0.0
5.421006346955458e6 -2.0709548405360677e6 0.0
0.0 0.0 0.0

-2.308099582685215e6 6.037007706079634e6 0.0
6.037007706079634e6 -443271.75527666183 0.0
0.0 0.0 0.0

-2.6164698869662117e6 8.202589810125141e6 0.0
8.202589810125141e6 523580.2024977191 0.0
0.0 0.0 0.0

-1.432508075190334e6 4.999428636468472e6 0.0
4.999428636468472e6 -1.1270945845442577e6 0.0
0.0 0.0 0.0

-3.223378687188544e6 6.947938353429482e6 0.0
6.947938353429482e6 1.5057418915648179e6 0.0
0.0 0.0 0.0

-1.4959442753018322e6 9.503010653373031e6 0.0
9.503010653373031e6 1.7974211371103167e6 0.0
0.0 0.0 0.0

-1.1540825113891577e6 3.926215887112723e6 0.0
3.926215887112723e6 -229580.41219239906 0.0
0.0 0.0 0.0

-1.5035331515182938e7 1.0102456715175508e7 0.0
1.0102456715175508e7 7.213696372451561e6 0.0
0.0 0.0 0.0

-5.736376541152274e6 8.992310961285701e6 0.0
8.992310961285701e6 6.812449318596643e6 0.0
0.0 0.0 0.0

-2.1662946473368844e6 6.6665007631704705e6 0.0
6.6665007631704705e6 -608881.5893192278 0.0
0.0 0.0 0.0

2.574398706968261e6 8.761360305696478e6 0.0
8.761360305696478e6 -2.715950042021917e6 0.0
0.0 0.0 0.0

394588.0076757616 6.752093016880949e6 0.0
6.752093016880949e6 -4.391794418805459e6 0.0
0.0 0.0 0.0

-31293.74539280194 7.027486489236076e6 0.0
7.027486489236076e6 -4.789994576971378e6 0.0
0.0 0.0 0.0

-2.2219430576109276e6 5.238333094048028e6 0.0
5.238333094048028e6 286215.2984642526 0.0
0.0 0.0 0.0

-9.069308979836553e6 6.535109193851564e6 0.0
6.535109193851564e6 5.1874961894701235e6 0.0
0.0 0.0 0.0

-2.594337988581414e6 7.396275519301776e6 0.0
7.396275519301776e6 -214998.2094677036 0.0
0.0 0.0 0.0

-2.343011593171824e6 6.120540915083108e6 0.0
6.120540915083108e6 -1.406755171249541e6 0.0
0.0 0.0 0.0

-8.96229878262568e6 7.302225427031838e6 0.0
7.302225427031838e6 5.840087602091354e6 0.0
0.0 0.0 0.0

-826634.3449068652 7.235531991190683e6 0.0
7.235531991190683e6 -3.0040636328201587e6 0.0
0.0 0.0 0.0

-2.8277201423728536e6 7.595160585094898e6 0.0
7.595160585094898e6 -19885.923307337333 0.0
0.0 0.0 0.0

-644046.4138765753 6.800292441776972e6 0.0
6.800292441776972e6 -1.676220406760848e6 0.0
0.0 0.0 0.0

-1.7209180490296236e6 5.7156388729098905e6 0.0
5.7156388729098905e6 -41314.062458473025 0.0
0.0 0.0 0.0

-1.8068118329092704e7 1.3581950662027821e7 0.0
1.3581950662027821e7 5.256408144375971e6 0.0
0.0 0.0 0.0

-1.2451511363093737e6 4.0678586167234196e6 0.0
4.0678586167234196e6 -238444.68405794777 0.0
0.0 0.0 0.0

-397537.6744094091 6.902999909488678e6 0.0
6.902999909488678e6 -1.8594874284140782e6 0.0
0.0 0.0 0.0

-3.7005961675090324e6 7.672319372879839e6 0.0
7.672319372879839e6 841179.282502755 0.0
0.0 0.0 0.0

-2.815809680982463e6 8.005068184137453e6 0.0
8.005068184137453e6 295219.2917441012 0.0
0.0 0.0 0.0

-2.966061029660978e6 6.888261663873428e6 0.0
6.888261663873428e6 -1040.3339892918011 0.0
0.0 0.0 0.0

-3.6132938697586283e6 7.512485655577769e6 0.0
7.512485655577769e6 598302.2982990006 0.0
0.0 0.0 0.0

-326475.9052955524 2.566805576897977e6 0.0
2.566805576897977e6 -965340.7857192289 0.0
0.0 0.0 0.0

22746.33697597985 8.126632570924066e6 0.0
8.126632570924066e6 -3.07645196526429e6 0.0
0.0 0.0 0.0

-2.9919652950478084e6 8.098412634451033e6 0.0
8.098412634451033e6 568991.49348166 0.0
0.0 0.0 0.0

-1.4303621617873348e6 4.423832563764718e6 0.0
4.423832563764718e6 -2.0365619755991953e6 0.0
0.0 0.0 0.0

126081.4018429186 8.222313278801207e6 0.0
8.222313278801207e6 -2.8470150908338604e6 0.0
0.0 0.0 0.0

-5.429841709953723e6 7.270981530072857e6 0.0
7.270981530072857e6 501175.8589822673 0.0
0.0 0.0 0.0

-1.212003902691935e6 4.300917064169546e6 0.0
4.300917064169546e6 -293798.5405782847 0.0
0.0 0.0 0.0

-1.5267363207030664e6 9.409450187300451e6 0.0
9.409450187300451e6 -2.6166059731736872e6 0.0
0.0 0.0 0.0

-3.0055911086419616e6 7.410620321976173e6 0.0
7.410620321976173e6 853047.2413920963 0.0
0.0 0.0 0.0

4.510519328414969e6 230089.52023149058 0.0
230089.52023149058 -5.91594445761599e6 0.0
0.0 0.0 0.0

-474627.25062517414 2.5040591814592066e6 0.0
2.5040591814592066e6 -321784.5092207441 0.0
0.0 0.0 0.0

-695236.5794220418 2.890860137689072e6 0.0
2.890860137689072e6 -439111.12976527517 0.0
0.0 0.0 0.0

-220974.95743785112 2.4931131339142923e6 0.0
2.4931131339142923e6 132011.55959207853 0.0
0.0 0.0 0.0

-228062.37312963262 3.5778606250942606e6 0.0
3.5778606250942606e6 -831567.8330119106 0.0
0.0 0.0 0.0

-378910.8844067609 2.210730352112891e6 0.0
2.210730352112891e6 163679.20131952508 0.0
0.0 0.0 0.0

205565.75903700117 421314.3985522296 0.0
421314.3985522296 -2.251856486282384e6 0.0
0.0 0.0 0.0

37043.263347729604 1.79663378626703e6 0.0
1.79663378626703e6 -753327.6377031404 0.0
0.0 0.0 0.0

42703.55641059065 1.6076268366416278e6 0.0
1.6076268366416278e6 -962953.9356697573 0.0
0.0 0.0 0.0

117741.23845580633 1.8745972158655692e6 0.0
1.8745972158655692e6 -521414.31808102416 0.0
0.0 0.0 0.0

-265687.4542767488 2.168072330064155e6 0.0
2.168072330064155e6 -331906.95335400465 0.0
0.0 0.0 0.0

-123017.76936572132 434417.7962493809 0.0
434417.7962493809 -1.848436250342186e6 0.0
0.0 0.0 0.0

-546744.3908890467 488549.591970135 0.0
488549.591970135 -1.322798801463859e6 0.0
0.0 0.0 0.0

-168416.42730584246 2.3074111756696207e6 0.0
2.3074111756696207e6 -415010.75765405316 0.0
0.0 0.0 0.0

693434.1706712123 5.382554049967553e6 0.0
5.382554049967553e6 -3.6778398022981086e6 0.0
0.0 0.0 0.0

776957.8314937609 5.494242070240815e6 0.0
5.494242070240815e6 -4.024160015784057e6 0.0
0.0 0.0 0.0

1.2850522223824142e6 5.524805889413302e6 0.0
5.524805889413302e6 -3.951293243682805e6 0.0
0.0 0.0 0.0

4.0991655200082147e6 2.3222603167400835e6 0.0
2.3222603167400835e6 -6.990155181026775e6 0.0
0.0 0.0 0.0

-77768.78938261376 2.0807966108197337e6 0.0
2.0807966108197337e6 -487097.5729572246 0.0
0.0 0.0 0.0

-248849.9352527124 2.0969365410129193e6 0.0
2.0969365410129193e6 -310791.8715603287 0.0
0.0 0.0 0.0

706708.405575987 5.489454459273997e6 0.0
5.489454459273997e6 -3.860143580246068e6 0.0
0.0 0.0 0.0

5.370148021062723e6 363857.3626147168 0.0
363857.3626147168 -8.400058243160384e6 0.0
0.0 0.0 0.0

5.3443543663802035e6 2.4743220597832617e6 0.0
2.4743220597832617e6 -6.787656689509376e6 0.0
0.0 0.0 0.0

4.616453450373521e6 911419.8494391934 0.0
911419.8494391934 -6.206174855755635e6 0.0
0.0 0.0 0.0

-1.4847409517917505e6 8.061230639893514e6 0.0
8.061230639893514e6 -2.0316065694740326e6 0.0
0.0 0.0 0.0

-1.1516475080148424e6 3.9356050762163443e6 0.0
3.9356050762163443e6 22387.29020358791 0.0
0.0 0.0 0.0

-1.8847166847048e6 1.992908526329595e6 0.0
1.992908526329595e6 892391.5281146792 0.0
0.0 0.0 0.0

-3.2871002595223156e6 7.083624980066373e6 0.0
7.083624980066373e6 1.5252898112714582e6 0.0
0.0 0.0 0.0

-588211.0127114286 7.952686023652688e6 0.0
7.952686023652688e6 -3.992107339702851e6 0.0
0.0 0.0 0.0

-2.195088782242313e6 7.869251926740577e6 0.0
7.869251926740577e6 -569971.8087035654 0.0
0.0 0.0 0.0

-1.6647211556440298e7 1.0901799640545044e7 0.0
1.0901799640545044e7 7.2975660179313505e6 0.0
0.0 0.0 0.0

-2.392751144752269e6 6.894784162762745e6 0.0
6.894784162762745e6 -430457.52390087734 0.0
0.0 0.0 0.0

-1.3420094248589263e6 7.2986443698033085e6 0.0
7.2986443698033085e6 934541.1252675779 0.0
0.0 0.0 0.0

816273.581750993 7.583195845369894e6 0.0
7.583195845369894e6 125996.02080147882 0.0
0.0 0.0 0.0

-1.8301707203620523e6 8.647279064990481e6 0.0
8.647279064990481e6 349599.5328355555 0.0
0.0 0.0 0.0

-1.95922487764511e6 5.972977445120457e6 0.0
5.972977445120457e6 202460.10391983436 0.0
0.0 0.0 0.0

-1.024575150843608e6 1.0099759362100719e7 0.0
1.0099759362100719e7 -2.478879128726037e6 0.0
0.0 0.0 0.0

-1.6687077661715911e6 5.239667393214576e6 0.0
5.239667393214576e6 54559.21345863503 0.0
0.0 0.0 0.0

-3.663274487688353e6 7.777729608797634e6 0.0
7.777729608797634e6 678417.9184678753 0.0
0.0 0.0 0.0

-3.4205222535750642e6 7.132965812224639e6 0.0
7.132965812224639e6 340711.5630542424 0.0
0.0 0.0 0.0

-1.0758213542269072e6 4.794231440509457e6 0.0
4.794231440509457e6 -938138.7758985991 0.0
0.0 0.0 0.0

-2.251235551634371e6 5.666234952875956e6 0.0
5.666234952875956e6 -925591.9959780601 0.0
0.0 0.0 0.0

-2.47271371208059e6 7.64639281213479e6 0.0
7.64639281213479e6 -532984.6471314305 0.0
0.0 0.0 0.0

-1.4728575069132368e6 3.9790661882775235e6 0.0
3.9790661882775235e6 -2.356803065272604e6 0.0
0.0 0.0 0.0

-115790.23535424849 2.3237789336462715e6 0.0
2.3237789336462715e6 -1.0988234418367243e6 0.0
0.0 0.0 0.0

-139259.6645279747 2.682763919016764e6 0.0
2.682763919016764e6 -1.0031021891964483e6 0.0
0.0 0.0 0.0

-195134.28148654255 2.1187809793963423e6 0.0
2.1187809793963423e6 -582448.5674398048 0.0
0.0 0.0 0.0

116700.46536525176 2.153470137304952e6 0.0
2.153470137304952e6 -1.1806906641218169e6 0.0
0.0 0.0 0.0

283586.21691715514 1.9133709000085774e6 0.0
1.9133709000085774e6 -1.1297323217396233e6 0.0
0.0 0.0 0.0

771238.7466587753 5.432142745046445e6 0.0
5.432142745046445e6 -3.525754686044633e6 0.0
0.0 0.0 0.0

729890.7133179528 5.495083322383974e6 0.0
5.495083322383974e6 -3.607002223429577e6 0.0
0.0 0.0 0.0

-391056.21800824464 2.1786336365574016e6 0.0
2.1786336365574016e6 -181422.38094323286 0.0
0.0 0.0 0.0

4.618485877150811e6 1.9025630824109e6 0.0
1.9025630824109e6 -5.234562066461783e6 0.0
0.0 0.0 0.0

5.099220746237358e6 431951.3182875559 0.0
431951.3182875559 -7.352907485422211e6 0.0
0.0 0.0 0.0

7.101499562035179e6 1.1852713823099218e6 0.0
1.1852713823099218e6 -8.303175006656572e6 0.0
0.0 0.0 0.0

4.853199356635256e6 976684.8056184833 0.0
976684.8056184833 -6.636370056712959e6 0.0
0.0 0.0 0.0

-2.0315243351636094e6 7.353362156514586e6 0.0
7.353362156514586e6 -930626.9293658935 0.0
0.0 0.0 0.0

-4.008577197380479e6 6.707652656584786e6 0.0
6.707652656584786e6 5.425147254961176e6 0.0
0.0 0.0 0.0

-1.9016537959513322e6 4.896099555428364e6 0.0
4.896099555428364e6 460799.47254639224 0.0
0.0 0.0 0.0

266142.6179539256 7.119624017178083e6 0.0
7.119624017178083e6 -3.977970053828138e6 0.0
0.0 0.0 0.0

-4.686648651029893e6 8.361105997959973e6 0.0
8.361105997959973e6 1.1785103515720754e6 0.0
0.0 0.0 0.0

-1.6350124176842556e6 8.774131474907605e6 0.0
8.774131474907605e6 1.595655476830837e6 0.0
0.0 0.0 0.0

-1.9438513302834036e6 3.738643263078279e6 0.0
3.738643263078279e6 805160.2113418316 0.0
0.0 0.0 0.0

-531792.8170844266 5.5864489737607455e6 0.0
5.5864489737607455e6 -3.0208617422149987e6 0.0
0.0 0.0 0.0

-878265.5752239005 7.426606515855548e6 0.0
7.426606515855548e6 -3.010665515717515e6 0.0
0.0 0.0 0.0

-3.1918807246770803e6 6.931976721946328e6 0.0
6.931976721946328e6 149508.90144754876 0.0
0.0 0.0 0.0

-2.0135438372913478e6 8.62553597024877e6 0.0
8.62553597024877e6 2.1637409715753496e6 0.0
0.0 0.0 0.0

-1.0793432690406302e6 7.516838608755301e6 0.0
7.516838608755301e6 -1.6362984860556223e6 0.0
0.0 0.0 0.0

-3.1812726214036923e6 7.050964934143003e6 0.0
7.050964934143003e6 254877.4063756941 0.0
0.0 0.0 0.0

-4.278596237540454e6 8.230973812562535e6 0.0
8.230973812562535e6 1.3754986933456012e6 0.0
0.0 0.0 0.0

-1.0942673568486178e6 5.867283068022558e6 0.0
5.867283068022558e6 -1.9757302995562428e6 0.0
0.0 0.0 0.0

-3.454633335291788e6 7.487923822950161e6 0.0
7.487923822950161e6 627575.4420395556 0.0
0.0 0.0 0.0

168145.30477995938 3.166063088295231e6 0.0
3.166063088295231e6 1.6605254658965697e6 0.0
0.0 0.0 0.0

-1.9929405248127927e6 8.593780265724342e6 0.0
8.593780265724342e6 1.9972889918304163e6 0.0
0.0 0.0 0.0

581919.9047680905 7.078489699269755e6 0.0
7.078489699269755e6 -5.59777653112566e6 0.0
0.0 0.0 0.0

-92703.92474403582 7.053263453551529e6 0.0
7.053263453551529e6 -4.52024350517276e6 0.0
0.0 0.0 0.0

-2.952957188790197e6 6.80676769390093e6 0.0
6.80676769390093e6 77305.39314182382 0.0
0.0 0.0 0.0

-3.558854576467074e6 7.885056215037175e6 0.0
7.885056215037175e6 764278.0371287041 0.0
0.0 0.0 0.0

1.1014351256849184e6 1.5337831378292346e6 0.0
1.5337831378292346e6 -2.3692613092129687e6 0.0
0.0 0.0 0.0

-2.357037420716439e6 7.189790792773237e6 0.0
7.189790792773237e6 -391097.1802518529 0.0
0.0 0.0 0.0

-3.37828142230034e6 7.326346886640746e6 0.0
7.326346886640746e6 383130.7405011987 0.0
0.0 0.0 0.0

-3.5833327203717204e6 7.473637908267403e6 0.0
7.473637908267403e6 718052.896735531 0.0
0.0 0.0 0.0

-285738.7274314889 7.796748077342244e6 0.0
7.796748077342244e6 -4.1457811731942e6 0.0
0.0 0.0 0.0

-550407.4878349574 7.448337922183768e6 0.0
7.448337922183768e6 -3.7311972967974935e6 0.0
0.0 0.0 0.0

-848328.4410175479 7.478737665858983e6 0.0
7.478737665858983e6 -1.596275889298021e6 0.0
0.0 0.0 0.0

-1.9819346280697463e6 5.307713120549358e6 0.0
5.307713120549358e6 -36022.20758539392 0.0
0.0 0.0 0.0

-488210.38164703385 7.691393773817713e6 0.0
7.691393773817713e6 -4.015713872506942e6 0.0
0.0 0.0 0.0

-3.8251568298217114e6 7.724419060786875e6 0.0
7.724419060786875e6 827323.9682527953 0.0
0.0 0.0 0.0

-249107.5041040377 324358.3803968872 0.0
324358.3803968872 -1.6943322349469722e6 0.0
0.0 0.0 0.0

-6.558071634358996e6 1.2236124812626516e7 0.0
1.2236124812626516e7 2.6998614267146215e6 0.0
0.0 0.0 0.0

577044.7813935209 2.4580869262072053e6 0.0
2.4580869262072053e6 -2.0957644937669735e6 0.0
0.0 0.0 0.0

-1.943113739857776e6 6.033639470086365e6 0.0
6.033639470086365e6 -690356.8506758816 0.0
0.0 0.0 0.0

-3.06829809014647e6 5.906053116689399e6 0.0
5.906053116689399e6 1.3336429908687063e6 0.0
0.0 0.0 0.0

-1.8324227679060097e6 7.176559852764673e6 0.0
7.176559852764673e6 -1.042234102817396e6 0.0
0.0 0.0 0.0

-2.292942394989615e6 6.5589317593397135e6 0.0
6.5589317593397135e6 -521986.4546430976 0.0
0.0 0.0 0.0

-3.4665600172712137e6 7.577712464554498e6 0.0
7.577712464554498e6 484284.96057949844 0.0
0.0 0.0 0.0

-683448.1448713237 7.46858032372483e6 0.0
7.46858032372483e6 -1.68776111654502e6 0.0
0.0 0.0 0.0

-294524.2821707317 2.321448450405473e6 0.0
2.321448450405473e6 -1.063052814137346e6 0.0
0.0 0.0 0.0

-1.4877770476082733e6 5.447048995476783e6 0.0
5.447048995476783e6 -259584.98994916448 0.0
0.0 0.0 0.0

-2.164046446493783e6 7.458993492157749e6 0.0
7.458993492157749e6 -421454.3864372383 0.0
0.0 0.0 0.0

-1.46198225242581e6 3.3724877038119812e6 0.0
3.3724877038119812e6 -1.3315315818361174e6 0.0
0.0 0.0 0.0

-1.2297650531854222e6 4.683148032196461e6 0.0
4.683148032196461e6 -385325.9543377837 0.0
0.0 0.0 0.0

-3.761734515963183e6 7.502174612514994e6 0.0
7.502174612514994e6 685482.1497809081 0.0
0.0 0.0 0.0

192325.69496458815 6.953335104413616e6 0.0
6.953335104413616e6 -4.238847884221616e6 0.0
0.0 0.0 0.0

-3.0423082786684483e6 7.928824908585762e6 0.0
7.928824908585762e6 564762.7944234808 0.0
0.0 0.0 0.0

-2.960756010829318e6 6.727622212614806e6 0.0
6.727622212614806e6 -47280.796736402204 0.0
0.0 0.0 0.0

-611251.4086441672 468635.3156890089 0.0
468635.3156890089 -764158.7859800202 0.0
0.0 0.0 0.0

-3.7655145432016696e6 7.808045161434495e6 0.0
7.808045161434495e6 1.5741569708483967e6 0.0
0.0 0.0 0.0

-1.0622037859020354e6 3.623101730202795e6 0.0
3.623101730202795e6 -382614.61483239074 0.0
0.0 0.0 0.0

-2.6742118724826337e6 6.726213431788503e6 0.0
6.726213431788503e6 -222903.1962248584 0.0
0.0 0.0 0.0

-4.0876448625318585e6 7.83526191950809e6 0.0
7.83526191950809e6 1.1349016908989493e6 0.0
0.0 0.0 0.0

-4.183716743340347e6 8.106555690351551e6 0.0
8.106555690351551e6 1.1195043224081143e6 0.0
0.0 0.0 0.0

-3.6536325331430687e6 7.339325876365292e6 0.0
7.339325876365292e6 521234.3071995608 0.0
0.0 0.0 0.0

-3.408469609924283e6 7.829256394852393e6 0.0
7.829256394852393e6 603499.2622090264 0.0
0.0 0.0 0.0

-62561.944282874814 395580.1006950669 0.0
395580.1006950669 -2.0422363452448433e6 0.0
0.0 0.0 0.0

-5.388140210958935e6 9.158066767028833e6 0.0
9.158066767028833e6 1.692199861285463e6 0.0
0.0 0.0 0.0

-738079.5411074038 8.874016250803107e6 0.0
8.874016250803107e6 -5.2313109987675315e6 0.0
0.0 0.0 0.0

-1.2528591310038338e6 1.2665993886827918e7 0.0
1.2665993886827918e7 9.596512133227155e6 0.0
0.0 0.0 0.0

-1.2814224895697995e6 8.335164066048647e6 0.0
8.335164066048647e6 -2.7784376857694536e6 0.0
0.0 0.0 0.0

-3.3800602549480177e6 7.20483466884733e6 0.0
7.20483466884733e6 458758.5502947648 0.0
0.0 0.0 0.0

-529519.0274150852 7.52811214020443e6 0.0
7.52811214020443e6 -4.108905541388104e6 0.0
0.0 0.0 0.0

-2.7288549386456865e6 6.521939866019197e6 0.0
6.521939866019197e6 -250500.74404951418 0.0
0.0 0.0 0.0

-1.7287322298176796e6 1.011897593372199e7 0.0
1.011897593372199e7 -1.8049791242555538e6 0.0
0.0 0.0 0.0

-2.539449478498085e6 6.098155079807623e6 0.0
6.098155079807623e6 -533417.4717234243 0.0
0.0 0.0 0.0

-3.283852497226618e6 7.679489191801569e6 0.0
7.679489191801569e6 332461.9713971717 0.0
0.0 0.0 0.0

932124.0623932248 7.299019517071251e6 0.0
7.299019517071251e6 -6.090501353925256e6 0.0
0.0 0.0 0.0

-3.0354398210653593e6 8.110338047002791e6 0.0
8.110338047002791e6 456360.9197818241 0.0
0.0 0.0 0.0

-2.3372172366313334e6 7.104538789872991e6 0.0
7.104538789872991e6 112988.44204452087 0.0
0.0 0.0 0.0

-2.4605073851226843e6 6.267459138347171e6 0.0
6.267459138347171e6 -315582.30779296916 0.0
0.0 0.0 0.0

-708857.6757691314 7.713488221573383e6 0.0
7.713488221573383e6 -3.5192474511689856e6 0.0
0.0 0.0 0.0

1.059988830606836e6 1.161051002236746e7 0.0
1.161051002236746e7 3.53329336879479e6 0.0
0.0 0.0 0.0

-3.299053994541959e6 7.596446009085038e6 0.0
7.596446009085038e6 -127267.93704212224 0.0
0.0 0.0 0.0

-1.838645925064117e7 1.1332841050350405e7 0.0
1.1332841050350405e7 7.856308580251306e6 0.0
0.0 0.0 0.0

-1.1369778100116486e6 8.246214205390285e6 0.0
8.246214205390285e6 -2.9563000166160027e6 0.0
0.0 0.0 0.0

-3.4745963213795326e6 7.293704441026074e6 0.0
7.293704441026074e6 587358.9070407422 0.0
0.0 0.0 0.0

-183640.41236185015 422236.5933380592 0.0
422236.5933380592 -1.2895631115399739e6 0.0
0.0 0.0 0.0

88201.42804137687 6.7442271860353425e6 0.0
6.7442271860353425e6 -4.193203056227245e6 0.0
0.0 0.0 0.0

-4.0151531200148966e6 8.080885909326887e6 0.0
8.080885909326887e6 1.1549418217220556e6 0.0
0.0 0.0 0.0

-281648.0510515936 7.739534647606869e6 0.0
7.739534647606869e6 -5.160559658302276e6 0.0
0.0 0.0 0.0

-2.573797316076613e6 6.481133438511264e6 0.0
6.481133438511264e6 -191006.16262785252 0.0
0.0 0.0 0.0

-1.475802317699497e6 4.823401986565866e6 0.0
4.823401986565866e6 -1.3948296782450678e6 0.0
0.0 0.0 0.0

-1.6506998959503896e6 7.63288037993042e6 0.0
7.63288037993042e6 -1.2545222084934055e6 0.0
0.0 0.0 0.0

-958503.2329946813 8.110665554402296e6 0.0
8.110665554402296e6 -3.160960819762069e6 0.0
0.0 0.0 0.0

-1.2276631664520346e6 7.541010580827845e6 0.0
7.541010580827845e6 -1.3754370127904266e6 0.0
0.0 0.0 0.0

-1.333095156645791e6 9.166235199358659e6 0.0
9.166235199358659e6 -2.821000860154225e6 0.0
0.0 0.0 0.0

-1.1355837200570917e7 5.576223831561317e6 0.0
5.576223831561317e6 6.155079621469521e6 0.0
0.0 0.0 0.0

147122.22329630866 1.621366574464504e6 0.0
1.621366574464504e6 -953016.6112523559 0.0
0.0 0.0 0.0

-1.1635292845194275e6 6.253660477734204e6 0.0
6.253660477734204e6 -1.1315978261317722e6 0.0
0.0 0.0 0.0

-3.5516528173327586e6 7.736942096408938e6 0.0
7.736942096408938e6 741701.7158180235 0.0
0.0 0.0 0.0

-5.498361663147934e6 -15416.645931542162 0.0
-15416.645931542162 7.354851548940312e6 0.0
0.0 0.0 0.0

-758032.6354783667 9.238366900860509e6 0.0
9.238366900860509e6 352777.33926126105 0.0
0.0 0.0 0.0

-2.6452328920275243e6 6.315443177552608e6 0.0
6.315443177552608e6 -385437.3164012727 0.0
0.0 0.0 0.0

-2.3816126602240037e6 8.967034230687412e6 0.0
8.967034230687412e6 -1.1740321795080232e6 0.0
0.0 0.0 0.0

-2.8822589931753534e6 6.531209412304529e6 0.0
6.531209412304529e6 -560351.00956698 0.0
0.0 0.0 0.0

-1.9305506285468312e6 5.649406960545123e6 0.0
5.649406960545123e6 -982888.3934041741 0.0
0.0 0.0 0.0

-3.413710885147591e6 7.0348095730352085e6 0.0
7.0348095730352085e6 192169.34439358255 0.0
0.0 0.0 0.0

-2.1082771623733165e6 5.1850765046057e6 0.0
5.1850765046057e6 692012.8651628436 0.0
0.0 0.0 0.0

-2.6855065611378266e6 7.79679695511093e6 0.0
7.79679695511093e6 -323158.2963892458 0.0
0.0 0.0 0.0

-2.5251531266284897e6 6.782836689544085e6 0.0
6.782836689544085e6 -325398.162009535 0.0
0.0 0.0 0.0

566411.0471548066 6.687651548402916e6 0.0
6.687651548402916e6 -5.205410598574597e6 0.0
0.0 0.0 0.0

-3.7990500418531406e6 7.972349134755081e6 0.0
7.972349134755081e6 1.60356838184075e6 0.0
0.0 0.0 0.0

-72765.78530392022 3.675229434734958e6 0.0
3.675229434734958e6 -1.179158060453767e6 0.0
0.0 0.0 0.0

-1.876785293367249e6 5.170681499256254e6 0.0
5.170681499256254e6 373508.62641506747 0.0
0.0 0.0 0.0

-1.5410149455116205e6 4.9902055026833685e6 0.0
4.9902055026833685e6 -1.0681784926569231e6 0.0
0.0 0.0 0.0

2.4871286306738993e6 6.524213085958089e6 0.0
6.524213085958089e6 -4.3993635719729485e6 0.0
0.0 0.0 0.0

-829296.7309867617 7.90804479822257e6 0.0
7.90804479822257e6 -3.352346663602176e6 0.0
0.0 0.0 0.0

-281718.1938775264 7.022757286944315e6 0.0
7.022757286944315e6 -1.9029293178389997e6 0.0
0.0 0.0 0.0

-3.9295448301252844e6 3.3239301241627075e6 0.0
3.3239301241627075e6 3.392330967765777e6 0.0
0.0 0.0 0.0

-3.0948549244844397e6 6.75706342460364e6 0.0
6.75706342460364e6 1870.3407222051173 0.0
0.0 0.0 0.0

269308.0000991878 1.679010713547594e6 0.0
1.679010713547594e6 -957686.8765375857 0.0
0.0 0.0 0.0

-1.0266597846451805e6 7.4975130954297315e6 0.0
7.4975130954297315e6 -1.5059818071109338e6 0.0
0.0 0.0 0.0

-2.593085559848705e6 8.698679531175045e6 0.0
8.698679531175045e6 -815238.7216517718 0.0
0.0 0.0 0.0

-451923.28057206026 8.280913409336297e6 0.0
8.280913409336297e6 -3.80064420416678e6 0.0
0.0 0.0 0.0

-1.4367043848998947e6 5.153841120619097e6 0.0
5.153841120619097e6 -2.517065057224108e6 0.0
0.0 0.0 0.0

-1.0320442699475863e6 4.42478903335875e6 0.0
4.42478903335875e6 -1.5217067926028646e6 0.0
0.0 0.0 0.0

-2.7988046775138015e6 6.68959266889926e6 0.0
6.68959266889926e6 6742.302844813326 0.0
0.0 0.0 0.0

-2.495090248118238e6 8.349661684935619e6 0.0
8.349661684935619e6 2.9091769893677644e6 0.0
0.0 0.0 0.0

-4.348039853433511e6 8.03758521135844e6 0.0
8.03758521135844e6 1.2442786368370596e6 0.0
0.0 0.0 0.0

-3.328210604759437e6 5.372663127861666e6 0.0
5.372663127861666e6 2.1523514519709125e6 0.0
0.0 0.0 0.0

-2.5756026060598297e6 5.982500787740832e6 0.0
5.982500787740832e6 1.1222917686298606e6 0.0
0.0 0.0 0.0

-1.302761446339007e6 4.666278078957922e6 0.0
4.666278078957922e6 -1.4973693837187085e6 0.0
0.0 0.0 0.0

-1.4370367620831751e6 7.573247172761926e6 0.0
7.573247172761926e6 -1.4098737017795343e6 0.0
0.0 0.0 0.0

-1.1486541563310465e6 9.048990079391116e6 0.0
9.048990079391116e6 473498.4552770245 0.0
0.0 0.0 0.0

-2.0007717768016881e6 5.892030495364876e6 0.0
5.892030495364876e6 -869048.3350810527 0.0
0.0 0.0 0.0

-629557.6803451576 7.886630899468069e6 0.0
7.886630899468069e6 -3.769603968111879e6 0.0
0.0 0.0 0.0

-3.0246657037877906e6 6.892233150933485e6 0.0
6.892233150933485e6 206282.14481546718 0.0
0.0 0.0 0.0

-1.4460922503335173e6 8.353159709079668e6 0.0
8.353159709079668e6 -2.61381849029603e6 0.0
0.0 0.0 0.0

-2.0235334494800288e6 7.771608616943801e6 0.0
7.771608616943801e6 -1.0446648127602603e6 0.0
0.0 0.0 0.0

-861246.1181784857 7.498204235941004e6 0.0
7.498204235941004e6 -4.4499803410812635e6 0.0
0.0 0.0 0.0

-3.2497094888706473e6 7.09298603787886e6 0.0
7.09298603787886e6 397657.2309607144 0.0
0.0 0.0 0.0

1.0356218999707442e6 9.564484296965178e6 0.0
9.564484296965178e6 -2.813046038353714e6 0.0
0.0 0.0 0.0

-5.518990194438722e6 278273.7054260358 0.0
278273.7054260358 7.181140985082389e6 0.0
0.0 0.0 0.0

-9.007731802829577e6 8.495178560697569e6 0.0
8.495178560697569e6 5.122426401376875e6 0.0
0.0 0.0 0.0

-2.174551133541604e6 8.461994434776116e6 0.0
8.461994434776116e6 556413.4737639575 0.0
0.0 0.0 0.0

-5.205067226852018e6 4.152753773403842e6 0.0
4.152753773403842e6 6.625784720169267e6 0.0
0.0 0.0 0.0

-3.288734359167893e6 6.927386956597562e6 0.0
6.927386956597562e6 1.5120099709440717e6 0.0
0.0 0.0 0.0

-2.127717979143296e6 6.971897431934368e6 0.0
6.971897431934368e6 -558891.0605631674 0.0
0.0 0.0 0.0

-2.5244773512017196e6 6.271441544732017e6 0.0
6.271441544732017e6 -261003.35240307183 0.0
0.0 0.0 0.0

-2.8897403678649105e6 6.707778585356637e6 0.0
6.707778585356637e6 74614.62821629667 0.0
0.0 0.0 0.0

-1.2734165000280025e6 5.511229041378255e6 0.0
5.511229041378255e6 -831982.6206907837 0.0
0.0 0.0 0.0

-2.9421675170391914e6 8.471130287303127e6 0.0
8.471130287303127e6 -417333.34172661474 0.0
0.0 0.0 0.0

-29805.78143305471 6.361957904248644e6 0.0
6.361957904248644e6 -3.589878878049947e6 0.0
0.0 0.0 0.0

-1.3843612664983086e6 2.554948724187049e6 0.0
2.554948724187049e6 -1.8053215165161383e6 0.0
0.0 0.0 0.0

-2.7749143795873644e6 5.780070433853996e6 0.0
5.780070433853996e6 1.5370172152261864e6 0.0
0.0 0.0 0.0

-4.241284219565091e6 7.880697863055844e6 0.0
7.880697863055844e6 1.0672913690385243e6 0.0
0.0 0.0 0.0

308332.1876919876 1.0195233479920587e7 0.0
1.0195233479920587e7 -2.8157073252135934e6 0.0
0.0 0.0 0.0

-4.719167869286568e6 7.528716013857781e6 0.0
7.528716013857781e6 1.171968390401885e6 0.0
0.0 0.0 0.0

646239.4308329341 2.3534081945390445e6 0.0
2.3534081945390445e6 -4.1835099253689707e6 0.0
0.0 0.0 0.0

-2.087947403204988e6 6.075493472366218e6 0.0
6.075493472366218e6 -752846.4312987638 0.0
0.0 0.0 0.0

4.35676528130213e6 8.91073990350176e6 0.0
8.91073990350176e6 757576.3379181019 0.0
0.0 0.0 0.0

-872661.4282269746 4.5863792345974175e6 0.0
4.5863792345974175e6 -1.8284084049967676e6 0.0
0.0 0.0 0.0

179716.59081150335 6.821106177134195e6 0.0
6.821106177134195e6 -4.0436908549187183e6 0.0
0.0 0.0 0.0

-3.7196472714932547e6 6.807389546443146e6 0.0
6.807389546443146e6 4.806257194651946e6 0.0
0.0 0.0 0.0

-1.3034403378202147e6 8.911829438792273e6 0.0
8.911829438792273e6 -2.826469336599544e6 0.0
0.0 0.0 0.0

-750180.9673667159 3.6877388211719245e6 0.0
3.6877388211719245e6 -476711.6417440985 0.0
0.0 0.0 0.0

-8.896963621749101e6 7.839440092577267e6 0.0
7.839440092577267e6 5.182508061139572e6 0.0
0.0 0.0 0.0

-3.6455055206619557e6 6.769217381446063e6 0.0
6.769217381446063e6 4.350083622895112e6 0.0
0.0 0.0 0.0

-3.4425567683970314e6 7.279866284205853e6 0.0
7.279866284205853e6 1.5389150198417576e6 0.0
0.0 0.0 0.0

-1.1220637431963984e7 7.1133121363099525e6 0.0
7.1133121363099525e6 6.545948500307323e6 0.0
0.0 0.0 0.0

-2.483672602592213e6 7.236069660394648e6 0.0
7.236069660394648e6 -463268.5037722804 0.0
0.0 0.0 0.0

8.467690105744833e6 6.134930566442633e6 0.0
6.134930566442633e6 -1.4816803017647327e6 0.0
0.0 0.0 0.0

-2.8167966768571413e6 6.736562355740808e6 0.0
6.736562355740808e6 -314502.86026915663 0.0
0.0 0.0 0.0

-779066.3785591879 6.199135602974901e6 0.0
6.199135602974901e6 -2.9468343135010637e6 0.0
0.0 0.0 0.0

-3.3299791929593426e6 8.321599166824765e6 0.0
8.321599166824765e6 25946.758883297676 0.0
0.0 0.0 0.0

-4.1463861496794596e6 8.59355639947035e6 0.0
8.59355639947035e6 338518.18018534174 0.0
0.0 0.0 0.0

-1.0734668594720396e6 4.635393863620132e6 0.0
4.635393863620132e6 -1.0045752435030293e6 0.0
0.0 0.0 0.0

-2.672455982781272e6 7.617689254788454e6 0.0
7.617689254788454e6 1.4444486023779304e6 0.0
0.0 0.0 0.0

-428054.24679377116 7.718221930111603e6 0.0
7.718221930111603e6 -4.104665532080943e6 0.0
0.0 0.0 0.0

-1.4268550157151646e6 1.728369807775734e6 0.0
1.728369807775734e6 539483.2259150663 0.0
0.0 0.0 0.0

-4.0830108116803267e6 7.875216661983095e6 0.0
7.875216661983095e6 993711.6150589143 0.0
0.0 0.0 0.0

-2.222387070828895e6 6.838822647593671e6 0.0
6.838822647593671e6 -344721.3879247869 0.0
0.0 0.0 0.0

-4.1765891586707826e6 8.031496386444625e6 0.0
8.031496386444625e6 1.2402010455092015e6 0.0
0.0 0.0 0.0

-2.171530216643272e6 6.332791141745583e6 0.0
6.332791141745583e6 -1.0961239450121303e6 0.0
0.0 0.0 0.0

-308031.0291101163 5.032308738145392e6 0.0
5.032308738145392e6 -1.5965367968200946e6 0.0
0.0 0.0 0.0

-3.239632740082973e6 7.583179129867765e6 0.0
7.583179129867765e6 1.0588443365223506e6 0.0
0.0 0.0 0.0

-3.091215517199017e6 6.3992466966456985e6 0.0
6.3992466966456985e6 2.4339652873709104e6 0.0
0.0 0.0 0.0

-2.3515767608677503e6 5.703524898201991e6 0.0
5.703524898201991e6 867116.1710999879 0.0
0.0 0.0 0.0

-1.8853265708138442e6 5.854642647379838e6 0.0
5.854642647379838e6 -811724.2904757389 0.0
0.0 0.0 0.0

-360243.00946409255 7.306921299895006e6 0.0
7.306921299895006e6 -3.9861204239865947e6 0.0
0.0 0.0 0.0

-2.6770333090825537e6 7.812408460701296e6 0.0
7.812408460701296e6 -353113.7809963125 0.0
0.0 0.0 0.0

-2.135493269675046e6 8.69254873878753e6 0.0
8.69254873878753e6 -1.8171671480984427e6 0.0
0.0 0.0 0.0

-2.3108555465232837e6 6.548616688461031e6 0.0
6.548616688461031e6 -1.60195186314309e6 0.0
0.0 0.0 0.0

-4.451252033769255e6 8.325646391587156e6 0.0
8.325646391587156e6 838382.6581462086 0.0
0.0 0.0 0.0

-3.0914483164392677e6 6.822311798849237e6 0.0
6.822311798849237e6 -388474.03211771033 0.0
0.0 0.0 0.0

-829225.2402644139 7.616082350110558e6 0.0
7.616082350110558e6 -3.223872171374364e6 0.0
0.0 0.0 0.0

-1.0610532879862348e6 3.0376963110595476e6 0.0
3.0376963110595476e6 -769547.9036562769 0.0
0.0 0.0 0.0

-395596.0762835644 6.63833149238067e6 0.0
6.63833149238067e6 -1.3685797394918355e6 0.0
0.0 0.0 0.0

-7.505804854183412e6 9.981276771032777e6 0.0
9.981276771032777e6 3.571615961607444e6 0.0
0.0 0.0 0.0

-2.4618896486375206e6 7.653791731503734e6 0.0
7.653791731503734e6 -547722.9199559831 0.0
0.0 0.0 0.0

-3.4778309732854906e6 7.122011593810411e6 0.0
7.122011593810411e6 151651.56730983732 0.0
0.0 0.0 0.0

2.2814274019657853e6 392429.6678754982 0.0
392429.6678754982 -2.2225858789223246e6 0.0
0.0 0.0 0.0

-8.574837873957524e6 -219271.22710516537 0.0
-219271.22710516537 9.517170238777086e6 0.0
0.0 0.0 0.0

-1.1323548974690442e6 4.0946869730779417e6 0.0
4.0946869730779417e6 -2.7627148818771727e6 0.0
0.0 0.0 0.0

-2.4621354797435123e6 1.197833821343837e7 0.0
1.197833821343837e7 -1.7057775681738793e6 0.0
0.0 0.0 0.0

-4.401863379221143e6 9.251489241062243e6 0.0
9.251489241062243e6 1.1280897943338724e6 0.0
0.0 0.0 0.0

-3.4429189204216767e6 7.970706733073478e6 0.0
7.970706733073478e6 1.122203702207287e6 0.0
0.0 0.0 0.0

843496.2000101502 6.120891951262065e6 0.0
6.120891951262065e6 -4.361785664873444e6 0.0
0.0 0.0 0.0

-3.549573631894186e6 7.357962923106205e6 0.0
7.357962923106205e6 633430.4586517217 0.0
0.0 0.0 0.0

-3.958678562986614e6 7.792735884550199e6 0.0
7.792735884550199e6 753151.0105926753 0.0
0.0 0.0 0.0

242451.01622086624 6.779027329826595e6 0.0
6.779027329826595e6 -4.389526686185824e6 0.0
0.0 0.0 0.0

-4.99401765352335e6 8.494427688587552e6 0.0
8.494427688587552e6 1.6300700854448432e6 0.0
0.0 0.0 0.0

-999413.4587939831 1.0744233869948145e7 0.0
1.0744233869948145e7 -2.4884502723153573e6 0.0
0.0 0.0 0.0

-3.54675849846052e6 7.187745280737677e6 0.0
7.187745280737677e6 371027.904272723 0.0
0.0 0.0 0.0

-279285.92084053904 7.69728503303854e6 0.0
7.69728503303854e6 -4.1002511215044158e6 0.0
0.0 0.0 0.0

111221.3438894453 2.2209218576505384e6 0.0
2.2209218576505384e6 -3.514285174255295e6 0.0
0.0 0.0 0.0

-1.6201210335211484e6 4.755699906534889e6 0.0
4.755699906534889e6 -1.8775442904156519e6 0.0
0.0 0.0 0.0

-3.4664823898864146e6 7.6521960823232075e6 0.0
7.6521960823232075e6 191949.82741534198 0.0
0.0 0.0 0.0

-1.2939553373072394e6 1.0717921280700464e7 0.0
1.0717921280700464e7 -2.45882629408895e6 0.0
0.0 0.0 0.0

-3.2944111708735377e6 6.96271999780081e6 0.0
6.96271999780081e6 -99577.38185388094 0.0
0.0 0.0 0.0

-1.0202725543822225e6 3.8064924168737307e6 0.0
3.8064924168737307e6 -2.4011438536102627e6 0.0
0.0 0.0 0.0

512212.84760667407 6.921295687010644e6 0.0
6.921295687010644e6 -4.0184315600613053e6 0.0
0.0 0.0 0.0

-1.7800493534460533e6 8.146661165557073e6 0.0
8.146661165557073e6 -2.161420590148403e6 0.0
0.0 0.0 0.0

-1.7000840944790225e6 4.9140017635286525e6 0.0
4.9140017635286525e6 -1.5383220189359058e6 0.0
0.0 0.0 0.0

-2.2708497943191943e6 7.0242702621187465e6 0.0
7.0242702621187465e6 -640406.3015598734 0.0
0.0 0.0 0.0

-4.636736306279718e6 7.716485239151003e6 0.0
7.716485239151003e6 1.4276229441777326e6 0.0
0.0 0.0 0.0

-1.0008722925782008e7 6.609687356972056e6 0.0
6.609687356972056e6 2.4440371702392716e7 0.0
0.0 0.0 0.0

-1.0297076561274872e6 2.322293031757627e6 0.0
2.322293031757627e6 58240.599888966244 0.0
0.0 0.0 0.0

-3.898111549543963e6 9.64543196415877e6 0.0
9.64543196415877e6 -355774.7212264753 0.0
0.0 0.0 0.0

-2.250858930036437e6 7.502182434908602e6 0.0
7.502182434908602e6 -749599.1101162864 0.0
0.0 0.0 0.0

-3.9129365884375847e6 2.901026469069723e6 0.0
2.901026469069723e6 4.838737882823793e6 0.0
0.0 0.0 0.0

436996.8988343836 7.525467845428927e6 0.0
7.525467845428927e6 -3.5513755448216945e6 0.0
0.0 0.0 0.0

-2.4641203501595575e6 7.944005600355829e6 0.0
7.944005600355829e6 -603794.2076704525 0.0
0.0 0.0 0.0

-1.1076929061849765e6 8.664308817772793e6 0.0
8.664308817772793e6 -3.1336185472076335e6 0.0
0.0 0.0 0.0

-3.6600642088393425e6 8.374253022879553e6 0.0
8.374253022879553e6 443162.048937425 0.0
0.0 0.0 0.0

-3.585920535543331e6 7.450888316851159e6 0.0
7.450888316851159e6 636732.9219106801 0.0
0.0 0.0 0.0

-1.2087246901481734e6 6.241898703782011e6 0.0
6.241898703782011e6 -1.1024725724067083e6 0.0
0.0 0.0 0.0

-2.5153053656812897e6 6.681299014832093e6 0.0
6.681299014832093e6 -157741.75346963538 0.0
0.0 0.0 0.0

-423337.34516346164 4.596859679639348e6 0.0
4.596859679639348e6 -1.536654802195947e6 0.0
0.0 0.0 0.0

-1.5740014225423688e7 1.7548437875433536e6 0.0
1.7548437875433536e6 7.776021424206583e6 0.0
0.0 0.0 0.0

-1.099399389233009e6 7.277413367391505e6 0.0
7.277413367391505e6 1.1716263821675484e6 0.0
0.0 0.0 0.0

-3.0286923608681615e6 6.333342964710443e6 0.0
6.333342964710443e6 1.5861985411305202e6 0.0
0.0 0.0 0.0

-4.572969152455795e6 8.554403814460862e6 0.0
8.554403814460862e6 1.6225689410490068e6 0.0
0.0 0.0 0.0

-449942.3202661418 6.51696278562948e6 0.0
6.51696278562948e6 -3.21611186276234e6 0.0
0.0 0.0 0.0

-17256.018763584318 6.672442758829801e6 0.0
6.672442758829801e6 -3.8774056022052816e6 0.0
0.0 0.0 0.0

229665.82923415327 6.972942101916882e6 0.0
6.972942101916882e6 -4.448860961309782e6 0.0
0.0 0.0 0.0

-1.474622894311317e6 7.601217863798391e6 0.0
7.601217863798391e6 -1.2151198569568577e6 0.0
0.0 0.0 0.0

-2.660165425732037e6 3.0607125204026303e6 0.0
3.0607125204026303e6 1.5638683448240142e6 0.0
0.0 0.0 0.0

-647332.643397995 4.723617723477951e6 0.0
4.723617723477951e6 -1.3654292932333115e6 0.0
0.0 0.0 0.0

-355912.83556773 1.0608541696771631e7 0.0
1.0608541696771631e7 -2.6840361967776455e6 0.0
0.0 0.0 0.0

-423673.44358878606 7.965090864019723e6 0.0
7.965090864019723e6 -4.029920755639056e6 0.0
0.0 0.0 0.0

-3.442854467462362e6 7.261363734253947e6 0.0
7.261363734253947e6 1.406173140266362e6 0.0
0.0 0.0 0.0

-6.001550729357891e6 1.2564745981734598e7 0.0
1.2564745981734598e7 1.551842274634343e6 0.0
0.0 0.0 0.0

-4.367669215613412e6 7.894310094701296e6 0.0
7.894310094701296e6 1.5220985304251155e6 0.0
0.0 0.0 0.0

-3.1476899182448713e6 6.04795856644578e6 0.0
6.04795856644578e6 3.0324594547480857e6 0.0
0.0 0.0 0.0

1.0411128221878735e6 7.039552383436484e6 0.0
7.039552383436484e6 -6.305229898975807e6 0.0
0.0 0.0 0.0

-2.207547270279325e6 5.9129632024912685e6 0.0
5.9129632024912685e6 -784247.0558209596 0.0
0.0 0.0 0.0

57680.56122467038 510376.4892542091 0.0
510376.4892542091 -1.6897218898910254e6 0.0
0.0 0.0 0.0

454717.71149675525 6.840286518906585e6 0.0
6.840286518906585e6 -4.712303075158401e6 0.0
0.0 0.0 0.0

-3.7041985672621885e6 8.338501152111591e6 0.0
8.338501152111591e6 1.226379445330345e6 0.0
0.0 0.0 0.0

-1.5421661658201304e6 3.7112597912047e6 0.0
3.7112597912047e6 809405.3439748246 0.0
0.0 0.0 0.0

-3.3337352162794685e6 5.970952811232397e6 0.0
5.970952811232397e6 3.517584854764796e6 0.0
0.0 0.0 0.0

-3.129863652660744e6 6.579182829821274e6 0.0
6.579182829821274e6 1.6762037983074288e6 0.0
0.0 0.0 0.0

-952005.7040844703 4.037429556987607e6 0.0
4.037429556987607e6 -2.151753802344531e6 0.0
0.0 0.0 0.0

-4.605218262418609e6 8.783151006412122e6 0.0
8.783151006412122e6 2.5670531636212906e6 0.0
0.0 0.0 0.0

-7.252896044770123e6 1.0240547277762406e7 0.0
1.0240547277762406e7 3.2358864973085355e6 0.0
0.0 0.0 0.0

-4.0600123093790305e6 8.217132571436934e6 0.0
8.217132571436934e6 1.5971886688217933e6 0.0
0.0 0.0 0.0

-3.3998010504336897e6 6.679102480527155e6 0.0
6.679102480527155e6 3.8525978784408886e6 0.0
0.0 0.0 0.0

-1.810435107322027e7 2.3250009726269167e7 0.0
2.3250009726269167e7 494819.605985214 0.0
0.0 0.0 0.0

-2.996747479009152e6 7.122700790196086e6 0.0
7.122700790196086e6 2.189109194580538e6 0.0
0.0 0.0 0.0

-1.7533076684266415e6 5.507950850195536e6 0.0
5.507950850195536e6 -342475.0036998681 0.0
0.0 0.0 0.0

-332043.5440018467 2.6539692303523906e6 0.0
2.6539692303523906e6 -1.364177743866145e6 0.0
0.0 0.0 0.0

-2.6744108729796773e6 6.48866882372274e6 0.0
6.48866882372274e6 -119005.21752021124 0.0
0.0 0.0 0.0

-3.6727746387697933e6 9.053157650348052e6 0.0
9.053157650348052e6 320916.8713976806 0.0
0.0 0.0 0.0

-7.613873428816856e6 8.64774769029661e6 0.0
8.64774769029661e6 4.392446935435986e6 0.0
0.0 0.0 0.0

-3.212480943032839e6 7.158338526224978e6 0.0
7.158338526224978e6 220775.494038502 0.0
0.0 0.0 0.0

-3.9393541067686584e6 7.603146218385213e6 0.0
7.603146218385213e6 494418.4070407334 0.0
0.0 0.0 0.0

-405956.47567206563 3.4132961029126756e6 0.0
3.4132961029126756e6 -842349.0004785203 0.0
0.0 0.0 0.0

360468.92983931233 6.771047275509562e6 0.0
6.771047275509562e6 -4.246390579244984e6 0.0
0.0 0.0 0.0

-6.48472280375487e6 1.0040799735010074e7 0.0
1.0040799735010074e7 3.0021299155708053e6 0.0
0.0 0.0 0.0

-3.16143615446595e6 6.242057257598689e6 0.0
6.242057257598689e6 2.7260642738703787e6 0.0
0.0 0.0 0.0

-4.1481815308383303e6 8.5303830071911e6 0.0
8.5303830071911e6 -198642.82954831584 0.0
0.0 0.0 0.0

-587236.6167279978 4.466462288994523e6 0.0
4.466462288994523e6 -1.5214124190531136e6 0.0
0.0 0.0 0.0

-5.595754575750347e6 9.157109049301695e6 0.0
9.157109049301695e6 1.5227167165529344e6 0.0
0.0 0.0 0.0

-3.6377856724082585e6 7.27226444082021e6 0.0
7.27226444082021e6 358948.93160900753 0.0
0.0 0.0 0.0

-1.5832598411157145e6 8.332581966434696e6 0.0
8.332581966434696e6 -2.3970529666494527e6 0.0
0.0 0.0 0.0

-3.115057176781006e6 6.920372367308231e6 0.0
6.920372367308231e6 263498.25862419046 0.0
0.0 0.0 0.0

-763469.3564079239 5.126144583160943e6 0.0
5.126144583160943e6 -2.83758945172182e6 0.0
0.0 0.0 0.0

-3.1279074348397427e6 7.658026366873759e6 0.0
7.658026366873759e6 349562.277990181 0.0
0.0 0.0 0.0

-169142.75596606504 3.115731034348422e6 0.0
3.115731034348422e6 -1.548248201018548e6 0.0
0.0 0.0 0.0

-1.3295936946247315e6 4.0319787459244775e6 0.0
4.0319787459244775e6 40766.363602737954 0.0
0.0 0.0 0.0

-1.1557645735115926e6 5.591972581067467e6 0.0
5.591972581067467e6 -797026.2210686764 0.0
0.0 0.0 0.0

-976891.3404937169 7.290371575895173e6 0.0
7.290371575895173e6 -4.035356171318502e6 0.0
0.0 0.0 0.0

-1.4789353325140413e6 7.104836629369713e6 0.0
7.104836629369713e6 -1.1408470707872452e6 0.0
0.0 0.0 0.0

-1.5360658954074109e7 5.699032685138018e6 0.0
5.699032685138018e6 6.882303973860973e6 0.0
0.0 0.0 0.0

-2.104875469243875e6 7.838759341469506e6 0.0
7.838759341469506e6 -813328.1075702826 0.0
0.0 0.0 0.0

-1.417167197874078e6 9.274830856294408e6 0.0
9.274830856294408e6 -7657.265182751347 0.0
0.0 0.0 0.0

-1.43369196191269e7 396325.6657564115 0.0
396325.6657564115 6.539694192004924e6 0.0
0.0 0.0 0.0

-645000.6192605391 1.074991524895275e7 0.0
1.074991524895275e7 -2.6511198554715645e6 0.0
0.0 0.0 0.0

-2.2560116511182846e6 7.488812762491329e6 0.0
7.488812762491329e6 -724015.063707316 0.0
0.0 0.0 0.0

-1.4265460156808053e6 4.6385360797549235e6 0.0
4.6385360797549235e6 -1.687024561149097e6 0.0
0.0 0.0 0.0

-4.577722992206625e6 8.701505854682509e6 0.0
8.701505854682509e6 1.6424418104263437e6 0.0
0.0 0.0 0.0

-871587.1707265882 6.415893733284961e6 0.0
6.415893733284961e6 -2.8450010774114737e6 0.0
0.0 0.0 0.0

-958231.2410274941 7.513295630825499e6 0.0
7.513295630825499e6 -2.9090362682737303e6 0.0
0.0 0.0 0.0

-320092.0324181172 5.830007199224861e6 0.0
5.830007199224861e6 -1.9546908889219572e6 0.0
0.0 0.0 0.0

-2.4618081786939646e6 5.824209316016336e6 0.0
5.824209316016336e6 473969.14312921395 0.0
0.0 0.0 0.0

272098.36123424396 6.805587255334157e6 0.0
6.805587255334157e6 -4.301422751305732e6 0.0
0.0 0.0 0.0

-579503.4382017083 3.356906826776229e6 0.0
3.356906826776229e6 -803221.7814663544 0.0
0.0 0.0 0.0

-888350.7042890353 7.14819749842589e6 0.0
7.14819749842589e6 -2.8944475886817863e6 0.0
0.0 0.0 0.0

-2.129015259211424e7 -4.457449649342177e6 0.0
-4.457449649342177e6 9.899843246678881e6 0.0
0.0 0.0 0.0

1.0135182602735972e6 6.88875966179986e6 0.0
6.88875966179986e6 -6.199319326640129e6 0.0
0.0 0.0 0.0

-1.9824782620190307e6 5.766773659548815e6 0.0
5.766773659548815e6 -107329.36260278069 0.0
0.0 0.0 0.0

-2.2847109991218857e6 6.5595071486044265e6 0.0
6.5595071486044265e6 100368.36825712945 0.0
0.0 0.0 0.0

-3.783250256216026e6 7.8320927112218635e6 0.0
7.8320927112218635e6 1.6208812459583024e6 0.0
0.0 0.0 0.0

-2.869374614050957e6 6.539433002768107e6 0.0
6.539433002768107e6 -194121.8737350126 0.0
0.0 0.0 0.0

-2.9516852568849744e6 7.172398631964244e6 0.0
7.172398631964244e6 1.7849394140192107e6 0.0
0.0 0.0 0.0

-1.6649477906480522e6 6.105304656009126e6 0.0
6.105304656009126e6 -2.3261440366765102e6 0.0
0.0 0.0 0.0

-359172.08322665875 6.962469114059978e6 0.0
6.962469114059978e6 -3.68131310279706e6 0.0
0.0 0.0 0.0

-4.352866909090704e6 8.681354932313006e6 0.0
8.681354932313006e6 1.4589715975788818e6 0.0
0.0 0.0 0.0

-5.264648027453035e6 1.007673553250962e7 0.0
1.007673553250962e7 1.062996571356214e6 0.0
0.0 0.0 0.0

574188.2243180561 6.8116410916449865e6 0.0
6.8116410916449865e6 -5.27998240597899e6 0.0
0.0 0.0 0.0

-966145.1503658306 5.38740479504977e6 0.0
5.38740479504977e6 -1.2543351357524425e6 0.0
0.0 0.0 0.0

-4.158678788581996e6 7.96319728965622e6 0.0
7.96319728965622e6 1.5310842644019965e6 0.0
0.0 0.0 0.0

-2.207398764652605e7 1.3838649448837314e7 0.0
1.3838649448837314e7 5.825762908408809e6 0.0
0.0 0.0 0.0

-2.889402225448562e6 2.6448310415105443e6 0.0
2.6448310415105443e6 3.2373696574191526e6 0.0
0.0 0.0 0.0

-703861.7624880311 7.220755853481243e6 0.0
7.220755853481243e6 -3.93112086349273e6 0.0
0.0 0.0 0.0

-549367.5066580328 5.597997230977213e6 0.0
5.597997230977213e6 -1.1712558111335777e6 0.0
0.0 0.0 0.0

444722.04288318194 2.282182684959176e6 0.0
2.282182684959176e6 -625225.2060537691 0.0
0.0 0.0 0.0

1.0408888588761233e6 5.425300517790481e6 0.0
5.425300517790481e6 -4.676345502193842e6 0.0
0.0 0.0 0.0

-2.660431783435107e6 8.1999333010483235e6 0.0
8.1999333010483235e6 148121.3956382611 0.0
0.0 0.0 0.0

-626568.4178742775 8.3028229412208395e6 0.0
8.3028229412208395e6 -3.7442762702887375e6 0.0
0.0 0.0 0.0

-6.687016668994384e6 4.624030548065494e6 0.0
4.624030548065494e6 7.55478672289608e6 0.0
0.0 0.0 0.0

-3.4328947167426054e6 9.807463478034712e6 0.0
9.807463478034712e6 -733553.3580764744 0.0
0.0 0.0 0.0

-939630.507139695 5.579538756737853e6 0.0
5.579538756737853e6 -2.7492693968691793e6 0.0
0.0 0.0 0.0

-6.877868915717438e6 6.947106563547185e6 0.0
6.947106563547185e6 1.092054674496067e7 0.0
0.0 0.0 0.0

-2.608400545318794e6 6.949655509769112e6 0.0
6.949655509769112e6 -49911.85452690651 0.0
0.0 0.0 0.0

-4.174380383235641e6 7.975890751434728e6 0.0
7.975890751434728e6 4.367750713612306e6 0.0
0.0 0.0 0.0

-696349.8090390312 8.471486978800079e6 0.0
8.471486978800079e6 -3.542868515964878e6 0.0
0.0 0.0 0.0

1.462757138987852e7 7.227847371134406e6 0.0
7.227847371134406e6 -2.8818106745233675e6 0.0
0.0 0.0 0.0

-4.027550372718497e6 8.450964243195195e6 0.0
8.450964243195195e6 754219.2834682779 0.0
0.0 0.0 0.0

-6.3950237783578485e6 1.0477821440062826e7 0.0
1.0477821440062826e7 2.940850769522156e6 0.0
0.0 0.0 0.0

-1.2377202446590757e6 5.965856000797525e6 0.0
5.965856000797525e6 -2.5877514319205135e6 0.0
0.0 0.0 0.0

-571651.074092061 6.242787917053703e6 0.0
6.242787917053703e6 -2.567185635072148e6 0.0
0.0 0.0 0.0

-2.756521609736834e6 6.333963121972593e6 0.0
6.333963121972593e6 -356883.6360638193 0.0
0.0 0.0 0.0

-1.370254104050436e6 3.157323870661352e6 0.0
3.157323870661352e6 559957.8913087959 0.0
0.0 0.0 0.0

-348757.8399432171 7.7554639531319365e6 0.0
7.7554639531319365e6 -4.388901971078273e6 0.0
0.0 0.0 0.0

-33285.184454440256 433643.57677934604 0.0
433643.57677934604 -1.480830730119213e6 0.0
0.0 0.0 0.0

-1.5383728585115073e6 7.615469158687472e6 0.0
7.615469158687472e6 -2.5103391456029997e6 0.0
0.0 0.0 0.0

-1.030524446545152e7 6.908815366866086e6 0.0
6.908815366866086e6 5.612837042800713e6 0.0
0.0 0.0 0.0

-1.5145818204351263e6 6.129148032311252e6 0.0
6.129148032311252e6 -1.1035049890161161e6 0.0
0.0 0.0 0.0

-7.452065834706491e6 7.521620966235747e6 0.0
7.521620966235747e6 1.406928307500801e7 0.0
0.0 0.0 0.0

-2.445195359603595e6 7.978272405378851e6 0.0
7.978272405378851e6 1.1861298262730748e6 0.0
0.0 0.0 0.0

1.696096516296249e6 8.333846043715445e6 0.0
8.333846043715445e6 -3.072589123715438e6 0.0
0.0 0.0 0.0

-3.9758822542422717e6 7.910556203757292e6 0.0
7.910556203757292e6 1.6128041955141935e6 0.0
0.0 0.0 0.0

-4.273865330882271e6 8.555020006453859e6 0.0
8.555020006453859e6 1.1664053329373477e6 0.0
0.0 0.0 0.0

-3.737286200397525e6 7.890392535305522e6 0.0
7.890392535305522e6 1.5237205336201058e6 0.0
0.0 0.0 0.0

-1.2650358209617846e6 3.594698442908603e6 0.0
3.594698442908603e6 232836.19830401614 0.0
0.0 0.0 0.0

-1.7978423570119618e6 4.394608635456382e6 0.0
4.394608635456382e6 553993.864887735 0.0
0.0 0.0 0.0

-143797.0582332086 3.7579322032508887e6 0.0
3.7579322032508887e6 -1.735857154969703e6 0.0
0.0 0.0 0.0

794449.8891773114 7.494041776166294e6 0.0
7.494041776166294e6 1.7822553692915505e6 0.0
0.0 0.0 0.0

-783748.0427772366 8.739656679814538e6 0.0
8.739656679814538e6 -3.288881082344607e6 0.0
0.0 0.0 0.0

-4.315582066961438e6 8.30784288462561e6 0.0
8.30784288462561e6 1.2931205420366994e6 0.0
0.0 0.0 0.0

-3.9790894650857295e6 8.54298301930128e6 0.0
8.54298301930128e6 1.3586085119181627e6 0.0
0.0 0.0 0.0

-172781.26649983844 2.623875462999662e6 0.0
2.623875462999662e6 -538419.8350120253 0.0
0.0 0.0 0.0

-4.208833457689462e6 8.637515255872965e6 0.0
8.637515255872965e6 1.818469841173068e6 0.0
0.0 0.0 0.0

-2.2378931186442664e6 7.857405753163509e6 0.0
7.857405753163509e6 -832698.5868645714 0.0
0.0 0.0 0.0

-4.346745578775884e6 8.600667057842823e6 0.0
8.600667057842823e6 1.9648648564248858e6 0.0
0.0 0.0 0.0

1.5976158044938487e6 8.713305234981366e6 0.0
8.713305234981366e6 -2.508444520637696e6 0.0
0.0 0.0 0.0

-5.60316596169529e6 9.840334752812885e6 0.0
9.840334752812885e6 2.2965159695963273e6 0.0
0.0 0.0 0.0

371100.6714799735 7.061750784164085e6 0.0
7.061750784164085e6 -3.9603877357554347e6 0.0
0.0 0.0 0.0

-2.1660848632158404e6 2.4048926454417924e6 0.0
2.4048926454417924e6 2.0808303174607782e6 0.0
0.0 0.0 0.0

-316061.0339556715 9.339020274490455e6 0.0
9.339020274490455e6 -2.9608552139564403e6 0.0
0.0 0.0 0.0

-879328.1862595687 9.062004616813043e6 0.0
9.062004616813043e6 -3.108882487981175e6 0.0
0.0 0.0 0.0

-2.3659450475196517e6 6.73346987847826e6 0.0
6.73346987847826e6 -250917.56752474356 0.0
0.0 0.0 0.0

-2.27754035470576e6 8.396199104765018e6 0.0
8.396199104765018e6 279708.5254296765 0.0
0.0 0.0 0.0

-2.654438215318757e6 1.0379623167434651e7 0.0
1.0379623167434651e7 -547642.0188030843 0.0
0.0 0.0 0.0

-306226.4308101678 8.632310113825824e6 0.0
8.632310113825824e6 -3.251102417516189e6 0.0
0.0 0.0 0.0

-1.3768825001031049e6 3.966795306113179e6 0.0
3.966795306113179e6 -1407.9841462547774 0.0
0.0 0.0 0.0

-338884.62526401563 6.604731198755221e6 0.0
6.604731198755221e6 -3.0662333595994064e6 0.0
0.0 0.0 0.0

-391867.7152595115 8.487341865119027e6 0.0
8.487341865119027e6 -3.577380700114477e6 0.0
0.0 0.0 0.0

-1.907623541310125e6 7.842514741127309e6 0.0
7.842514741127309e6 1.857073817519234e6 0.0
0.0 0.0 0.0

-3.320344729568172e6 6.970491808463184e6 0.0
6.970491808463184e6 189307.2579895684 0.0
0.0 0.0 0.0

668425.5008580144 6.607440205728827e6 0.0
6.607440205728827e6 -5.225678586200476e6 0.0
0.0 0.0 0.0

1.247331219578226e6 6.862149245047067e6 0.0
6.862149245047067e6 -6.236994879408569e6 0.0
0.0 0.0 0.0

-1.3347168084191156e6 5.631358763864035e6 0.0
5.631358763864035e6 -847571.5579532103 0.0
0.0 0.0 0.0

-4.283280739946475e6 8.645905582393594e6 0.0
8.645905582393594e6 1.5166838998666778e6 0.0
0.0 0.0 0.0

-605729.0706914047 2.655223477130609e6 0.0
2.655223477130609e6 -439349.8351403695 0.0
0.0 0.0 0.0

-1.5496526551792077e6 4.3646349148179935e6 0.0
4.3646349148179935e6 -368097.57045926846 0.0
0.0 0.0 0.0

-2.2410581115861535e6 6.014061900067636e6 0.0
6.014061900067636e6 155113.2079294155 0.0
0.0 0.0 0.0

-342407.8283758947 6.296490438231395e6 0.0
6.296490438231395e6 -2.875542637063738e6 0.0
0.0 0.0 0.0

1.1325318167329151e6 5.342523914376336e6 0.0
5.342523914376336e6 -4.849879472151591e6 0.0
0.0 0.0 0.0

-1.893209126606877e6 5.518721725771991e6 0.0
5.518721725771991e6 273474.50798351434 0.0
0.0 0.0 0.0

-8.583939805291526e6 9.470587383206649e6 0.0
9.470587383206649e6 1.8669145673722282e7 0.0
0.0 0.0 0.0

-2.2913769416954815e6 6.709493318955439e6 0.0
6.709493318955439e6 318412.4605717305 0.0
0.0 0.0 0.0

-4.610361512839961e6 8.523415169208104e6 0.0
8.523415169208104e6 1.4484067566973038e6 0.0
0.0 0.0 0.0

-908001.8769429424 7.276930857581324e6 0.0
7.276930857581324e6 -2.6376084806007487e6 0.0
0.0 0.0 0.0

-5.286414920389201e6 8.747355504015703e6 0.0
8.747355504015703e6 2.166365155853668e6 0.0
0.0 0.0 0.0

-4.0800867116412446e6 8.587325834905168e6 0.0
8.587325834905168e6 1.2872587799421225e6 0.0
0.0 0.0 0.0

-2.0606812423771566e6 1.0876811312274314e7 0.0
1.0876811312274314e7 2.5968534751227787e6 0.0
0.0 0.0 0.0

-2715.7335514626466 452791.32527576684 0.0
452791.32527576684 -2.19881215293087e6 0.0
0.0 0.0 0.0

-1.0092983311433534e6 1.112801822401887e7 0.0
1.112801822401887e7 -2.3730383149061096e6 0.0
0.0 0.0 0.0

5.297308594754096e6 1.3906137604714844e6 0.0
1.3906137604714844e6 -8.881171030207658e6 0.0
0.0 0.0 0.0

-952582.7433148614 3.797126145797762e6 0.0
3.797126145797762e6 -232433.35649377815 0.0
0.0 0.0 0.0

-3.192428647996057e6 7.839946996238307e6 0.0
7.839946996238307e6 932749.649161678 0.0
0.0 0.0 0.0

-3.3308883977768696e6 7.135426374882343e6 0.0
7.135426374882343e6 447282.37318624393 0.0
0.0 0.0 0.0

-630253.5972238182 4.400158777252337e6 0.0
4.400158777252337e6 -2.2773162955497196e6 0.0
0.0 0.0 0.0

-522886.2607104861 8.951929310304213e6 0.0
8.951929310304213e6 -3.168669526248344e6 0.0
0.0 0.0 0.0

-4.830678122765643e6 8.606317635779101e6 0.0
8.606317635779101e6 1.6103948975647336e6 0.0
0.0 0.0 0.0

-1.3180061386758725e6 1.675504073489073e6 0.0
1.675504073489073e6 999425.9769385629 0.0
0.0 0.0 0.0

-2.2055595249975254e6 4.770694479021327e6 0.0
4.770694479021327e6 1.109250066227468e6 0.0
0.0 0.0 0.0

-878931.0468748945 3.627227326466649e6 0.0
3.627227326466649e6 -435750.604882881 0.0
0.0 0.0 0.0

-1.8655606756473451e6 7.7449013014656855e6 0.0
7.7449013014656855e6 -1.0118755312442826e6 0.0
0.0 0.0 0.0

-3.641688305904046e6 7.78124823745387e6 0.0
7.78124823745387e6 1.69699029330738e6 0.0
0.0 0.0 0.0

-3.133496684451212e6 7.131028026432567e6 0.0
7.131028026432567e6 180397.28006871673 0.0
0.0 0.0 0.0

-5.079822174844385e6 8.655664346052736e6 0.0
8.655664346052736e6 1.9808106800575717e6 0.0
0.0 0.0 0.0

-383075.0928192664 5.112637898834274e6 0.0
5.112637898834274e6 -1.7421767721850206e6 0.0
0.0 0.0 0.0

-1.6281186794928391e6 4.263860610065092e6 0.0
4.263860610065092e6 325906.6787825028 0.0
0.0 0.0 0.0

-4.570697568201988e6 8.683812597216392e6 0.0
8.683812597216392e6 1.6701718304216443e6 0.0
0.0 0.0 0.0

-1.9276647372551244e6 1.0822743341754878e7 0.0
1.0822743341754878e7 -1.3636664525892977e6 0.0
0.0 0.0 0.0

-1.0620039297112068e6 7.499025819596214e6 0.0
7.499025819596214e6 3.5360416582051786e6 0.0
0.0 0.0 0.0

-1.8780205958384322e6 7.700979031950703e6 0.0
7.700979031950703e6 -1.0469552811766847e6 0.0
0.0 0.0 0.0

-2.2320382779933903e6 1.1805023328885045e7 0.0
1.1805023328885045e7 -893794.6012436469 0.0
0.0 0.0 0.0

-1.5721240063792882e6 6.593027087065513e6 0.0
6.593027087065513e6 -639522.8595976911 0.0
0.0 0.0 0.0

-2.0655713256888068e6 4.65023270476592e6 0.0
4.65023270476592e6 826743.0758298173 0.0
0.0 0.0 0.0

-622471.940734004 5.2726628654537415e6 0.0
5.2726628654537415e6 -1.517850430311288e6 0.0
0.0 0.0 0.0

-4.836129548216317e6 8.66159678513792e6 0.0
8.66159678513792e6 1.8264959491740388e6 0.0
0.0 0.0 0.0

384979.2949552033 6.931521607319203e6 0.0
6.931521607319203e6 -4.21517116531718e6 0.0
0.0 0.0 0.0

9813.453989106696 6.665077883644328e6 0.0
6.665077883644328e6 -3.7880414032259523e6 0.0
0.0 0.0 0.0

-3.653497235001331e6 7.657185732804059e6 0.0
7.657185732804059e6 1.6972308024233677e6 0.0
0.0 0.0 0.0

-1.2881699995123262e6 5.363491607957116e6 0.0
5.363491607957116e6 -1.302101607798905e6 0.0
0.0 0.0 0.0

-550739.5119644514 5.380251713319234e6 0.0
5.380251713319234e6 -2.428255057291747e6 0.0
0.0 0.0 0.0

-6.18308975798036e6 9.20982294330939e6 0.0
9.20982294330939e6 2.796396450657262e6 0.0
0.0 0.0 0.0

-5.181896920222355e6 8.65852355695026e6 0.0
8.65852355695026e6 2.012130776707645e6 0.0
0.0 0.0 0.0

-3.681687873951901e6 7.342568815440754e6 0.0
7.342568815440754e6 341932.9562725059 0.0
0.0 0.0 0.0

-364899.82948075444 7.984357663380725e6 0.0
7.984357663380725e6 -3.988675933176154e6 0.0
0.0 0.0 0.0

-5.50501246421844e6 9.08090470282546e6 0.0
9.08090470282546e6 2.49361799714991e6 0.0
0.0 0.0 0.0

-2.3790693446579e6 4.809429503225637e6 0.0
4.809429503225637e6 1.493300802707742e6 0.0
0.0 0.0 0.0

-468147.63218856684 3.416749060442488e6 0.0
3.416749060442488e6 -2.963949439537259e6 0.0
0.0 0.0 0.0

-7.106432592149354e6 1.019737603037409e7 0.0
1.019737603037409e7 3.7150026528955563e6 0.0
0.0 0.0 0.0

-1.8893441160800555e6 8.611827058243353e6 0.0
8.611827058243353e6 807509.228222586 0.0
0.0 0.0 0.0

-5.037951389944849e6 8.642592143685926e6 0.0
8.642592143685926e6 1.8695256192505858e6 0.0
0.0 0.0 0.0

-1.0008216136520049e6 9.44319492635199e6 0.0
9.44319492635199e6 -2.959706186298886e6 0.0
0.0 0.0 0.0

-5.248069067620004e6 8.769745987736078e6 0.0
8.769745987736078e6 2.181446240548189e6 0.0
0.0 0.0 0.0

-3.082935121727375e6 6.964387251276514e6 0.0
6.964387251276514e6 1.9873717777018414e6 0.0
0.0 0.0 0.0

-5.441659596991521e6 8.763005588225568e6 0.0
8.763005588225568e6 2.1655710996485837e6 0.0
0.0 0.0 0.0

-7.089554095965989e6 1.2696283186771382e7 0.0
1.2696283186771382e7 3.187156689697898e6 0.0
0.0 0.0 0.0

-2.2580110342045766e6 3.610348439652643e6 0.0
3.610348439652643e6 1.8087156001886064e6 0.0
0.0 0.0 0.0

-711481.8399184828 5.821906782578016e6 0.0
5.821906782578016e6 -2.362828108698666e6 0.0
0.0 0.0 0.0

-1.6418565733080236e6 2.9834364775932566e6 0.0
2.9834364775932566e6 962851.1726629814 0.0
0.0 0.0 0.0

-1.4242620675231474e6 3.942552312568778e6 0.0
3.942552312568778e6 -228384.9793184979 0.0
0.0 0.0 0.0

-785239.2978728904 207779.6421447706 0.0
207779.6421447706 1.6260226851250944e6 0.0
0.0 0.0 0.0

-11812.229400163982 473802.2560979418 0.0
473802.2560979418 493717.58621463244 0.0
0.0 0.0 0.0

-2.716991483294876e6 3.7567944107837416e6 0.0
3.7567944107837416e6 2.4603952059390238e6 0.0
0.0 0.0 0.0

1.931831848426173e6 7.692120925422477e6 0.0
7.692120925422477e6 -807829.639518985 0.0
0.0 0.0 0.0

-5.5537687313743355e6 9.32230758056556e6 0.0
9.32230758056556e6 2.284924106769205e6 0.0
0.0 0.0 0.0

-3.7090868959225193e6 7.555675401263464e6 0.0
7.555675401263464e6 559893.1787320774 0.0
0.0 0.0 0.0

-758354.6535933844 6.621290184572726e6 0.0
6.621290184572726e6 -2.526759749328034e6 0.0
0.0 0.0 0.0

-1.7216159971312121e6 1.0673537487170728e7 0.0
1.0673537487170728e7 2.0162751350953924e6 0.0
0.0 0.0 0.0

-5.884233804574077e6 9.053274762000663e6 0.0
9.053274762000663e6 2.8232092558876313e6 0.0
0.0 0.0 0.0

-6.469395539851525e6 9.347790044653991e6 0.0
9.347790044653991e6 2.938241293268071e6 0.0
0.0 0.0 0.0

-6.772494499396849e6 9.65270362901945e6 0.0
9.65270362901945e6 2.963991247367575e6 0.0
0.0 0.0 0.0

-2.438993822587197e6 5.255443541490844e6 0.0
5.255443541490844e6 603903.2606196132 0.0
0.0 0.0 0.0

-1.5237661522680577e6 5.238501720991867e6 0.0
5.238501720991867e6 -563591.4526217703 0.0
0.0 0.0 0.0

-697482.1817859497 4.701598186588788e6 0.0
4.701598186588788e6 -1.3134799519112194e6 0.0
0.0 0.0 0.0

-2.9322104403439905e6 6.655527884974557e6 0.0
6.655527884974557e6 1.2467367481366447e6 0.0
0.0 0.0 0.0

-1.2680167718468478e6 5.177934091514646e6 0.0
5.177934091514646e6 -480853.98084574245 0.0
0.0 0.0 0.0

-3.532813067451478e6 3.5997211516706944e6 0.0
3.5997211516706944e6 3.807074792245985e6 0.0
0.0 0.0 0.0

-921721.789514253 7.293654483134184e6 0.0
7.293654483134184e6 -2.673727222946091e6 0.0
0.0 0.0 0.0

-2.698551845716204e6 5.766537841016413e6 0.0
5.766537841016413e6 785485.7509480801 0.0
0.0 0.0 0.0

-3.029421773326157e6 3.252399206712888e6 0.0
3.252399206712888e6 3.305748137832286e6 0.0
0.0 0.0 0.0

-3.375291974265644e6 8.830922724366086e6 0.0
8.830922724366086e6 1.5257066145160685e6 0.0
0.0 0.0 0.0

-1.630383031234596e6 7.2115251829056665e6 0.0
7.2115251829056665e6 -892258.9779460164 0.0
0.0 0.0 0.0

-5.461461576343347e6 8.869641229210312e6 0.0
8.869641229210312e6 2.3423111162013244e6 0.0
0.0 0.0 0.0

-5.004590954383978e6 8.653463266950635e6 0.0
8.653463266950635e6 1.9781035444031022e6 0.0
0.0 0.0 0.0

-3.1240645768245272e6 7.012724842716581e6 0.0
7.012724842716581e6 1.8449786412829016e6 0.0
0.0 0.0 0.0

-482220.840325154 8.25569147980748e6 0.0
8.25569147980748e6 -3.6710213142614355e6 0.0
0.0 0.0 0.0

-2.8392334913763106e6 6.997886708754105e6 0.0
6.997886708754105e6 820599.7061371467 0.0
0.0 0.0 0.0

-2.462779316342223e6 5.056456562566376e6 0.0
5.056456562566376e6 1.4431094121772298e6 0.0
0.0 0.0 0.0

-3.48072453321378e6 7.293080063786776e6 0.0
7.293080063786776e6 418449.7747955485 0.0
0.0 0.0 0.0

-6.465059269468157e6 1.0826269275989164e7 0.0
1.0826269275989164e7 2.9704064426487223e6 0.0
0.0 0.0 0.0

-3.213271766934204e6 7.111816493775918e6 0.0
7.111816493775918e6 1.7637580606904593e6 0.0
0.0 0.0 0.0

-3.548831317805689e6 7.239198956441095e6 0.0
7.239198956441095e6 90908.96425508265 0.0
0.0 0.0 0.0

-72596.80735134636 6.756146004773098e6 0.0
6.756146004773098e6 -3.744811148326624e6 0.0
0.0 0.0 0.0

-2.098381253157608e6 5.443557663918723e6 0.0
5.443557663918723e6 590944.0543367806 0.0
0.0 0.0 0.0

-2.8514614310071347e6 1.1082137144874014e7 0.0
1.1082137144874014e7 -363984.4721902647 0.0
0.0 0.0 0.0

-440852.0678656199 588089.0938609787 0.0
588089.0938609787 -1.0784980896430723e6 0.0
0.0 0.0 0.0

211121.48687455384 6.836882492172935e6 0.0
6.836882492172935e6 -4.708190224299195e6 0.0
0.0 0.0 0.0

-2.8435004402206414e6 7.00489699809565e6 0.0
7.00489699809565e6 -465917.8745077606 0.0
0.0 0.0 0.0

1.0064117871798504e6 7.911776016344076e6 0.0
7.911776016344076e6 933351.4817913064 0.0
0.0 0.0 0.0

-310700.79722302314 6.732588529166418e6 0.0
6.732588529166418e6 -3.700721173254548e6 0.0
0.0 0.0 0.0

-501049.34479958995 7.00212436502223e6 0.0
7.00212436502223e6 -3.546803516146138e6 0.0
0.0 0.0 0.0

254876.88201093843 7.124893632816729e6 0.0
7.124893632816729e6 -1.0929112159020503e6 0.0
0.0 0.0 0.0

-1.3168471895348467e6 1.9484748119356427e6 0.0
1.9484748119356427e6 822861.3771784634 0.0
0.0 0.0 0.0

-841504.1049625808 4.107762883252152e6 0.0
4.107762883252152e6 -995017.879923823 0.0
0.0 0.0 0.0

-515960.43820268894 8.075623798779299e6 0.0
8.075623798779299e6 -5.281510378337321e6 0.0
0.0 0.0 0.0

-1.7759771163210126e6 4.648863505329331e6 0.0
4.648863505329331e6 -158873.3691142589 0.0
0.0 0.0 0.0

-1.3035254981447123e6 3.6957614840479665e6 0.0
3.6957614840479665e6 32565.382181415916 0.0
0.0 0.0 0.0

-913468.5244355953 7.467343280454973e6 0.0
7.467343280454973e6 918913.0052695251 0.0
0.0 0.0 0.0

414881.177109246 2.521220897720358e6 0.0
2.521220897720358e6 -453467.0275464906 0.0
0.0 0.0 0.0

-2.198220913647501e6 5.5672899652425805e6 0.0
5.5672899652425805e6 216256.24944805552 0.0
0.0 0.0 0.0

-3.658787854349029e6 7.699583824417097e6 0.0
7.699583824417097e6 1.7439125210122834e6 0.0
0.0 0.0 0.0

-1.962203345006179e6 8.42986499900118e6 0.0
8.42986499900118e6 -2.0073774412334908e6 0.0
0.0 0.0 0.0

-403929.19181813643 2.0897160977006587e6 0.0
2.0897160977006587e6 -1.336662242333799e6 0.0
0.0 0.0 0.0

-622688.038425179 5.291434379298105e6 0.0
5.291434379298105e6 -1.553365913918128e6 0.0
0.0 0.0 0.0

976725.0141734043 7.167155398854214e6 0.0
7.167155398854214e6 -6.390325284764124e6 0.0
0.0 0.0 0.0

-6.2016849050280545e6 1.1765228498352302e7 0.0
1.1765228498352302e7 2.69436029660543e6 0.0
0.0 0.0 0.0

-6.153351858487129e6 2.7425161456582868e6 0.0
2.7425161456582868e6 9.686235862859646e6 0.0
0.0 0.0 0.0

-1.7870521985734345e6 6.897201317673994e6 0.0
6.897201317673994e6 -480725.86020244716 0.0
0.0 0.0 0.0

-1.4309879148394384e6 3.3038658053191053e6 0.0
3.3038658053191053e6 258870.6443960757 0.0
0.0 0.0 0.0

-8.015490993480972e6 5.24478332455306e6 0.0
5.24478332455306e6 5.434881635870157e6 0.0
0.0 0.0 0.0

-1.0388932950364734e6 9.298002996046819e6 0.0
9.298002996046819e6 -58961.34521757142 0.0
0.0 0.0 0.0

-855452.6919293716 9.062157138822239e6 0.0
9.062157138822239e6 586083.6355712047 0.0
0.0 0.0 0.0

381922.6692977669 6.773496985603928e6 0.0
6.773496985603928e6 -4.976427018278534e6 0.0
0.0 0.0 0.0

-2.9988742812944823e6 4.5901099938814035e6 0.0
4.5901099938814035e6 -122820.40289723966 0.0
0.0 0.0 0.0

-8.83133876519455e6 1.382187349191438e7 0.0
1.382187349191438e7 2.337868113500258e6 0.0
0.0 0.0 0.0

-2.3163515656270385e6 5.440863581313616e6 0.0
5.440863581313616e6 878035.8240346725 0.0
0.0 0.0 0.0

570646.5552220298 1.425791317634126e6 0.0
1.425791317634126e6 -763228.590842424 0.0
0.0 0.0 0.0

-1.4807391946049763e6 8.84709105563665e6 0.0
8.84709105563665e6 912305.1124349313 0.0
0.0 0.0 0.0

-7.154241292508796e6 7.3706790118198935e6 0.0
7.3706790118198935e6 4.60533612060825e6 0.0
0.0 0.0 0.0

-511291.3713386675 6.870801806369196e6 0.0
6.870801806369196e6 -1.8308729364653458e6 0.0
0.0 0.0 0.0

-3.153597763582602e6 9.921809318646362e6 0.0
9.921809318646362e6 4.550479084560688e6 0.0
0.0 0.0 0.0

-2.0258180732890773e6 4.435704727981849e6 0.0
4.435704727981849e6 505741.4570655249 0.0
0.0 0.0 0.0

-1.5793563785572764e6 4.0567404370514266e6 0.0
4.0567404370514266e6 29989.86318633886 0.0
0.0 0.0 0.0

-5.470734919709032e6 2.881843651751341e6 0.0
2.881843651751341e6 8.051714886805214e6 0.0
0.0 0.0 0.0

-1.575504026776985e6 8.720744594781086e6 0.0
8.720744594781086e6 1.5359857835204368e6 0.0
0.0 0.0 0.0

-5.681036489728781e6 8.431855702872917e6 0.0
8.431855702872917e6 2.608831603336241e6 0.0
0.0 0.0 0.0

-7.679119121818168e6 1.002870982649419e7 0.0
1.002870982649419e7 3.6886383722849856e6 0.0
0.0 0.0 0.0

-2.891368503504005e6 6.051100938541385e6 0.0
6.051100938541385e6 1.0358481064036512e6 0.0
0.0 0.0 0.0

-276519.2142629771 344658.6296690448 0.0
344658.6296690448 -958605.266546278 0.0
0.0 0.0 0.0

-617900.6890612111 7.075210687763359e6 0.0
7.075210687763359e6 -2.759663285282809e6 0.0
0.0 0.0 0.0

-1.071205442065536e6 4.503826914848013e6 0.0
4.503826914848013e6 -2.0617000433456532e6 0.0
0.0 0.0 0.0

-1.7483147243220678e6 5.022751411284315e6 0.0
5.022751411284315e6 -253915.10763678438 0.0
0.0 0.0 0.0

-1.4543884638746891e7 1.456438358445576e7 0.0
1.456438358445576e7 6.090374099441235e6 0.0
0.0 0.0 0.0

-250399.29619273357 4.336579772887501e6 0.0
4.336579772887501e6 -1.720427958718489e6 0.0
0.0 0.0 0.0

-5.726208229797866e6 1.0232021500262383e7 0.0
1.0232021500262383e7 2.3511972695592684e6 0.0
0.0 0.0 0.0

-3.3769171678373166e6 1.11159654001236e7 0.0
1.11159654001236e7 113956.26258108835 0.0
0.0 0.0 0.0

-777820.3897152524 6.954524669915474e6 0.0
6.954524669915474e6 -1.717224364844899e6 0.0
0.0 0.0 0.0

-520555.75542127644 6.8031531879485e6 0.0
6.8031531879485e6 -2.5884980440067947e6 0.0
0.0 0.0 0.0

-569577.9476972797 8.543807792737985e6 0.0
8.543807792737985e6 3.7009870029225983e6 0.0
0.0 0.0 0.0

-1.391058698958702e6 1.0623461793687027e7 0.0
1.0623461793687027e7 3.1449284633568698e6 0.0
0.0 0.0 0.0

-775661.2781580384 9.07945172218294e6 0.0
9.07945172218294e6 323957.8984772944 0.0
0.0 0.0 0.0

-1.898766454656615e6 4.311299196914871e6 0.0
4.311299196914871e6 267113.08718683326 0.0
0.0 0.0 0.0

-1.3068761940661376e7 1.3099306499000514e7 0.0
1.3099306499000514e7 5.369098596808461e6 0.0
0.0 0.0 0.0

-1.097302605657194e7 5.510600439613764e6 0.0
5.510600439613764e6 5.662094939584995e6 0.0
0.0 0.0 0.0

-1.687095004052955e6 4.1724392094185036e6 0.0
4.1724392094185036e6 261770.5704507829 0.0
0.0 0.0 0.0

-49890.42244520807 7.144745611684e6 0.0
7.144745611684e6 -4.845735920568865e6 0.0
0.0 0.0 0.0

2.737053119093861e6 4.886210551816627e6 0.0
4.886210551816627e6 -5.833476363574514e6 0.0
0.0 0.0 0.0

-1.5117074276431892e6 8.50140914015545e6 0.0
8.50140914015545e6 -2.12471525672812e6 0.0
0.0 0.0 0.0

-721079.501740293 7.020970584207232e6 0.0
7.020970584207232e6 -2.6882291313484805e6 0.0
0.0 0.0 0.0

-1.8273100528631029e6 8.606624167756988e6 0.0
8.606624167756988e6 -1.7007102951275578e6 0.0
0.0 0.0 0.0

-1.520101827803928e7 1.7113067957654018e7 0.0
1.7113067957654018e7 4.698702218743107e6 0.0
0.0 0.0 0.0

-3.418939406993306e6 8.239602981087833e6 0.0
8.239602981087833e6 634286.6307220925 0.0
0.0 0.0 0.0

-2.568751672499466e6 9.96907476706625e6 0.0
9.96907476706625e6 -1.4384998745851424e6 0.0
0.0 0.0 0.0

-2.715029397496652e6 9.068665127352897e6 0.0
9.068665127352897e6 -1.3220272298415122e6 0.0
0.0 0.0 0.0

-388719.04896546784 5.824363179669658e6 0.0
5.824363179669658e6 -2.633383841657421e6 0.0
0.0 0.0 0.0

-3.2474887670864128e6 6.432988147937565e6 0.0
6.432988147937565e6 1.4242993178680993e6 0.0
0.0 0.0 0.0

-1.0396274971514066e6 9.07175712900571e6 0.0
9.07175712900571e6 930873.922099443 0.0
0.0 0.0 0.0

-2.580584237378232e6 8.1983902488424145e6 0.0
8.1983902488424145e6 823360.5231915829 0.0
0.0 0.0 0.0

-1.086952900219127e7 377277.85935623955 0.0
377277.85935623955 2.3681838342921622e7 0.0
0.0 0.0 0.0

-130639.88083607025 2.5815745071767718e6 0.0
2.5815745071767718e6 -589149.6561934027 0.0
0.0 0.0 0.0

-2.1654237121369027e7 2.896031838486843e7 0.0
2.896031838486843e7 -7.7975116265702145e6 0.0
0.0 0.0 0.0

-830053.87014859 9.298712215457015e6 0.0
9.298712215457015e6 1.4406089251336772e6 0.0
0.0 0.0 0.0

-1.1933782552498028e7 1.2227579355010752e7 0.0
1.2227579355010752e7 5.498002736486594e6 0.0
0.0 0.0 0.0

-2.3365461001656274e6 6.662603420071416e6 0.0
6.662603420071416e6 -903864.348544567 0.0
0.0 0.0 0.0

-1.4539368179360572e6 1.0573762103634205e7 0.0
1.0573762103634205e7 -2.3678359849515716e6 0.0
0.0 0.0 0.0

-3.3941359768523173e6 7.740882231723377e6 0.0
7.740882231723377e6 1.297776710302772e6 0.0
0.0 0.0 0.0

2.594629930622258e6 3.655279327624293e6 0.0
3.655279327624293e6 -5.8593914223209815e6 0.0
0.0 0.0 0.0

2.1292551576718246e6 8.718328915653e6 0.0
8.718328915653e6 -2.572039369685082e6 0.0
0.0 0.0 0.0

-661600.3870864146 7.31423356568087e6 0.0
7.31423356568087e6 -2.816773433004208e6 0.0
0.0 0.0 0.0

-1.5490136161290535e6 1.1579914897349862e7 0.0
1.1579914897349862e7 -1.6223073450652247e6 0.0
0.0 0.0 0.0

569101.6045920332 6.731217037691309e6 0.0
6.731217037691309e6 -4.9086831193257505e6 0.0
0.0 0.0 0.0

-2.200730552252335e6 6.221370946717684e6 0.0
6.221370946717684e6 475694.4766851581 0.0
0.0 0.0 0.0

-289989.62157303793 3.5497331869944837e6 0.0
3.5497331869944837e6 -2.4065337684719423e6 0.0
0.0 0.0 0.0

-1.3885348163302992e6 6.022921158935879e6 0.0
6.022921158935879e6 -922471.6364638729 0.0
0.0 0.0 0.0

-4.884587316042377e6 8.345136782833271e6 0.0
8.345136782833271e6 288262.4206639647 0.0
0.0 0.0 0.0

-274293.188266849 6.91034851706236e6 0.0
6.91034851706236e6 -3.4018615900390674e6 0.0
0.0 0.0 0.0

-2.432368725839178e6 6.506214049932199e6 0.0
6.506214049932199e6 -426403.27552925854 0.0
0.0 0.0 0.0

-3.4834250259877346e6 8.567046635599218e6 0.0
8.567046635599218e6 -530031.9906527143 0.0
0.0 0.0 0.0

-2.0249841205232404e6 8.616428848631104e6 0.0
8.616428848631104e6 2.490865869151794e6 0.0
0.0 0.0 0.0

181730.23994002608 8.110365083897333e6 0.0
8.110365083897333e6 -3.0146376528929505e6 0.0
0.0 0.0 0.0

-1.5278821396938548e6 4.743990378895308e6 0.0
4.743990378895308e6 -462001.39553605614 0.0
0.0 0.0 0.0

-4.269556411312829e6 2.6456764426520634e6 0.0
2.6456764426520634e6 3.8968790355171803e6 0.0
0.0 0.0 0.0

-2.169326413027473e6 8.654249699383032e6 0.0
8.654249699383032e6 2.5223562023461247e6 0.0
0.0 0.0 0.0

-2.320359709878838e6 4.69577501350857e6 0.0
4.69577501350857e6 768396.6206800652 0.0
0.0 0.0 0.0

-1.1621527134267522e6 1.3442370172990945e6 0.0
1.3442370172990945e6 629861.8800019363 0.0
0.0 0.0 0.0

-2.328482029741055e6 5.272495035754051e6 0.0
5.272495035754051e6 967533.9549052239 0.0
0.0 0.0 0.0

-3.232921221034828e6 6.72877224324893e6 0.0
6.72877224324893e6 1.8197152387893898e6 0.0
0.0 0.0 0.0

-397.61457358748885 3.3955276669308366e6 0.0
3.3955276669308366e6 -1.2053819048708174e6 0.0
0.0 0.0 0.0

-3.086971067427706e6 8.817672758426765e6 0.0
8.817672758426765e6 -987021.7211701607 0.0
0.0 0.0 0.0

-3.4503160634715618e6 8.225377146486443e6 0.0
8.225377146486443e6 1.0310818705910239e6 0.0
0.0 0.0 0.0

-2.5072661577258697e6 4.815735906605379e6 0.0
4.815735906605379e6 1.0594882214420573e6 0.0
0.0 0.0 0.0

-5.837475571061126e6 214265.9537231702 0.0
214265.9537231702 6.140992561910793e6 0.0
0.0 0.0 0.0

-1.8043135219684227e6 8.545317602015294e6 0.0
8.545317602015294e6 695937.1643130493 0.0
0.0 0.0 0.0

-1.4946871932947203e6 4.158478301090474e6 0.0
4.158478301090474e6 255632.6922811389 0.0
0.0 0.0 0.0

-138150.01448466652 7.084156416976609e6 0.0
7.084156416976609e6 -4.542453993450505e6 0.0
0.0 0.0 0.0

-3.318721172186084e6 8.200830408170452e6 0.0
8.200830408170452e6 4.737657094085902e6 0.0
0.0 0.0 0.0

-2.0826657939053602e6 4.027475477260392e6 0.0
4.027475477260392e6 1.5322137078971895e6 0.0
0.0 0.0 0.0

-1.1921368549548858e6 4.251165932839154e6 0.0
4.251165932839154e6 -1.9240557576426847e6 0.0
0.0 0.0 0.0

629229.1293237973 6.248970727665415e6 0.0
6.248970727665415e6 -4.498208576087212e6 0.0
0.0 0.0 0.0

-2.0408977905273845e6 9.275449734299375e6 0.0
9.275449734299375e6 2.6270407710889713e6 0.0
0.0 0.0 0.0

-2.58284240851764e6 8.993400370154038e6 0.0
8.993400370154038e6 3.3468552567725712e6 0.0
0.0 0.0 0.0

-2.5550594920117566e6 6.305489351229829e6 0.0
6.305489351229829e6 -255503.59414779686 0.0
0.0 0.0 0.0

-3.376390999210922e6 7.257705236262981e6 0.0
7.257705236262981e6 1.7718605566040894e6 0.0
0.0 0.0 0.0

-9.206457036734551e6 1.0847362320266597e7 0.0
1.0847362320266597e7 4.354994322537795e6 0.0
0.0 0.0 0.0

-1.1283454739371953e6 9.810897501361161e6 0.0
9.810897501361161e6 -2.7839820294642416e6 0.0
0.0 0.0 0.0

-122917.599857788 3.019122751396459e6 0.0
3.019122751396459e6 -708705.2683952154 0.0
0.0 0.0 0.0

-403768.6416960147 7.48897763769734e6 0.0
7.48897763769734e6 -3.9089704055918627e6 0.0
0.0 0.0 0.0

-2.9317875878565386e6 6.121947307669431e6 0.0
6.121947307669431e6 1.6927893334691755e6 0.0
0.0 0.0 0.0

-1.815292551338263e6 3.6717793292983733e6 0.0
3.6717793292983733e6 1.2905477485549562e6 0.0
0.0 0.0 0.0

-143247.2228783365 8.652701586946843e6 0.0
8.652701586946843e6 -307921.8587162537 0.0
0.0 0.0 0.0

337382.1226750328 6.864422433095487e6 0.0
6.864422433095487e6 -5.366455052787454e6 0.0
0.0 0.0 0.0

-232323.72095635836 7.206844875939995e6 0.0
7.206844875939995e6 -4.254881687185605e6 0.0
0.0 0.0 0.0

-9.105962217698922e6 1.4998679388337562e7 0.0
1.4998679388337562e7 1.9522449650236317e6 0.0
0.0 0.0 0.0

-3.7102833748455923e6 8.441746013963869e6 0.0
8.441746013963869e6 810688.6750520582 0.0
0.0 0.0 0.0

-3.6750004258188987e6 8.111400354574561e6 0.0
8.111400354574561e6 1.3369859461037521e6 0.0
0.0 0.0 0.0

-4.753314914614383e6 8.246152812189332e6 0.0
8.246152812189332e6 1.5153662891390158e6 0.0
0.0 0.0 0.0

2.244357588425601e6 2.696450350402685e6 0.0
2.696450350402685e6 -3.5829483603872196e6 0.0
0.0 0.0 0.0

-303145.2581770164 7.405927372567758e6 0.0
7.405927372567758e6 -3.6088399219364626e6 0.0
0.0 0.0 0.0

-2.790311928870038e6 5.985391308722689e6 0.0
5.985391308722689e6 1.4281003704167649e6 0.0
0.0 0.0 0.0

-2.211466291430255e6 1.0138330593490897e7 0.0
1.0138330593490897e7 -1.1687188962609284e6 0.0
0.0 0.0 0.0

-8.61236656531068e6 1.0581072713413373e7 0.0
1.0581072713413373e7 4.063037393765036e6 0.0
0.0 0.0 0.0

-375158.50980187766 4.535038727218236e6 0.0
4.535038727218236e6 -1.4183797297665926e6 0.0
0.0 0.0 0.0

-2.41825782377565e6 2.249960683118033e6 0.0
2.249960683118033e6 1.3769694509095715e6 0.0
0.0 0.0 0.0

-8.191673119752176e6 1.0259346768437324e7 0.0
1.0259346768437324e7 3.889074406753018e6 0.0
0.0 0.0 0.0

-3.8391507172570806e6 8.460175212761864e6 0.0
8.460175212761864e6 -174635.05956289498 0.0
0.0 0.0 0.0

-694370.0216076747 6.011766721778958e6 0.0
6.011766721778958e6 -2.936224140589067e6 0.0
0.0 0.0 0.0

-1.6605149249071858e6 4.871629271206966e6 0.0
4.871629271206966e6 155660.64520445222 0.0
0.0 0.0 0.0

483788.2637661705 6.807993208729145e6 0.0
6.807993208729145e6 -5.589137691216278e6 0.0
0.0 0.0 0.0

-5.968825804677933e6 9.092035954498133e6 0.0
9.092035954498133e6 2.7033613389552683e6 0.0
0.0 0.0 0.0

-1.7512481311269281e6 8.617289278529609e6 0.0
8.617289278529609e6 614676.4790456161 0.0
0.0 0.0 0.0

-62687.55236090836 7.273833619266096e6 0.0
7.273833619266096e6 -4.882696257831254e6 0.0
0.0 0.0 0.0

-3.727797935830706e6 7.968049092389699e6 0.0
7.968049092389699e6 1.4542015270726874e6 0.0
0.0 0.0 0.0

-3.218049519623827e6 2.421520181772036e6 0.0
2.421520181772036e6 2.344113691723343e6 0.0
0.0 0.0 0.0

-1.3582422502951282e6 4.2378157833017055e6 0.0
4.2378157833017055e6 -2.476250518293849e6 0.0
0.0 0.0 0.0

-1.26875447128085e6 7.511118595518764e6 0.0
7.511118595518764e6 668237.0884867767 0.0
0.0 0.0 0.0

-2.957979284275395e6 7.166197418928383e6 0.0
7.166197418928383e6 1.0519595664570672e6 0.0
0.0 0.0 0.0

-101071.6276367507 7.411339855357718e6 0.0
7.411339855357718e6 -4.835710553504834e6 0.0
0.0 0.0 0.0

-1.5544485400192093e7 1.9536960875038076e7 0.0
1.9536960875038076e7 3.4822901890605157e6 0.0
0.0 0.0 0.0

-2.4263774692127598e6 4.362755042827281e6 0.0
4.362755042827281e6 1.714434780522727e6 0.0
0.0 0.0 0.0

-393268.14485859824 8.459824221060643e6 0.0
8.459824221060643e6 -5.260251067404953e6 0.0
0.0 0.0 0.0

-589706.6815357241 6.014313249706388e6 0.0
6.014313249706388e6 -1.693807500328352e6 0.0
0.0 0.0 0.0

-2.4131765942087667e6 5.490258307860166e6 0.0
5.490258307860166e6 537406.4368750097 0.0
0.0 0.0 0.0

-3.3221303767649606e6 7.40211509183447e6 0.0
7.40211509183447e6 5.080143162219623e6 0.0
0.0 0.0 0.0

-1.431077946983892e6 4.5742386927874675e6 0.0
4.5742386927874675e6 -61973.33439930831 0.0
0.0 0.0 0.0

-1.0503437388053898e7 7.613806802164404e6 0.0
7.613806802164404e6 1.4710836480471335e7 0.0
0.0 0.0 0.0

-2.14496274794509e6 5.7755349947884185e6 0.0
5.7755349947884185e6 538351.348051825 0.0
0.0 0.0 0.0

-450997.00848333864 8.091179913769042e6 0.0
8.091179913769042e6 -3.761820257020198e6 0.0
0.0 0.0 0.0

-1.3700582477606703e6 1.0079041515219891e7 0.0
1.0079041515219891e7 -2.2532844451551735e6 0.0
0.0 0.0 0.0

2.5751387502529766e7 9.793540688166508e6 0.0
9.793540688166508e6 -3.072931926410226e6 0.0
0.0 0.0 0.0

353660.3599180684 1.6070492133990717e6 0.0
1.6070492133990717e6 -618966.8937530029 0.0
0.0 0.0 0.0

1.5365594502970348e6 5.087196816924285e6 0.0
5.087196816924285e6 -5.341839726941113e6 0.0
0.0 0.0 0.0

-65298.16621262103 2.9633421402655956e6 0.0
2.9633421402655956e6 -1.504282821192142e6 0.0
0.0 0.0 0.0

-4.660693292546611e6 8.0993057905486245e6 0.0
8.0993057905486245e6 1.4036358322667577e6 0.0
0.0 0.0 0.0

-4.393174888065273e6 -2.2290086777779236e6 0.0
-2.2290086777779236e6 6.202078618935638e6 0.0
0.0 0.0 0.0

-651021.9907800934 7.592853106947467e6 0.0
7.592853106947467e6 -4.658188656672873e6 0.0
0.0 0.0 0.0

-1.5762464115308383e6 3.3972415940860515e6 0.0
3.3972415940860515e6 876175.7668577905 0.0
0.0 0.0 0.0

-2.738550614681059e6 4.903463974528781e6 0.0
4.903463974528781e6 1.3568244059666488e6 0.0
0.0 0.0 0.0

3.023413412120589e6 4.639247842311336e6 0.0
4.639247842311336e6 -6.239508076690598e6 0.0
0.0 0.0 0.0

-1.6618906999112887e6 8.334499934259387e6 0.0
8.334499934259387e6 -1.860619860948242e6 0.0
0.0 0.0 0.0

-1.019033486769076e7 1.0955826074938813e7 0.0
1.0955826074938813e7 5.49092547181233e6 0.0
0.0 0.0 0.0

-1.591044573883315e6 4.437118114263526e6 0.0
4.437118114263526e6 -2.2212481325968276e6 0.0
0.0 0.0 0.0

-1.8888895321609636e6 9.252911232945427e6 0.0
9.252911232945427e6 145238.47386293975 0.0
0.0 0.0 0.0

-1.1202645825667309e7 673364.114628181 0.0
673364.114628181 3.969710989460105e7 0.0
0.0 0.0 0.0

768604.0508734547 7.5590814521080945e6 0.0
7.5590814521080945e6 -8.055204045084417e6 0.0
0.0 0.0 0.0

448425.0581455305 8.832539028111136e6 0.0
8.832539028111136e6 -6.134243595963417e6 0.0
0.0 0.0 0.0

-1.174275237834533e6 8.49105142502424e6 0.0
8.49105142502424e6 -2.5255988838599403e6 0.0
0.0 0.0 0.0

1.0891143700214848e6 6.773121685117301e6 0.0
6.773121685117301e6 -6.010369869525333e6 0.0
0.0 0.0 0.0

-6.519260362384414e6 7.474835412693419e6 0.0
7.474835412693419e6 692689.7187190619 0.0
0.0 0.0 0.0

-2.408890668278781e6 1.0306486374949653e7 0.0
1.0306486374949653e7 -1.6877301905895327e6 0.0
0.0 0.0 0.0

298664.6478444504 1.3878437915191243e6 0.0
1.3878437915191243e6 -787294.110503965 0.0
0.0 0.0 0.0

-816187.1579062426 4.139857044438582e6 0.0
4.139857044438582e6 -1.238827140752501e6 0.0
0.0 0.0 0.0

-3.9678984151692167e6 8.458493877800684e6 0.0
8.458493877800684e6 1.4123362993975764e6 0.0
0.0 0.0 0.0

-3.0721425760076474e6 6.109747236950203e6 0.0
6.109747236950203e6 1.2267875189589274e6 0.0
0.0 0.0 0.0

-1.5474364331923418e6 4.105719109338957e6 0.0
4.105719109338957e6 -268749.7534103308 0.0
0.0 0.0 0.0

-160408.95256471186 3.987982400396576e6 0.0
3.987982400396576e6 -1.333417629608667e6 0.0
0.0 0.0 0.0

1.935446426866767e6 7.879120587217935e6 0.0
7.879120587217935e6 -1.8802954537075344e6 0.0
0.0 0.0 0.0

-4.170375623745453e6 8.532791655403221e6 0.0
8.532791655403221e6 198508.06368238758 0.0
0.0 0.0 0.0

-511021.08203415445 5.907083085947418e6 0.0
5.907083085947418e6 -1.7233489239406465e6 0.0
0.0 0.0 0.0

-5.319195784548954e6 8.853753597291946e6 0.0
8.853753597291946e6 2.054577742705191e6 0.0
0.0 0.0 0.0

-2.9453027983120736e6 3.719900647391453e6 0.0
3.719900647391453e6 1.7095822377653986e6 0.0
0.0 0.0 0.0

-1.4426164481493023e6 4.951525394611531e6 0.0
4.951525394611531e6 -159987.14350324584 0.0
0.0 0.0 0.0

69748.28371184686 1.4838354538405635e6 0.0
1.4838354538405635e6 -544081.96475025 0.0
0.0 0.0 0.0

2.1763287237521224e6 4.666770525846319e6 0.0
4.666770525846319e6 -5.692646558473868e6 0.0
0.0 0.0 0.0

1.1159661100199614e6 7.018466950973625e6 0.0
7.018466950973625e6 -6.066771696781191e6 0.0
0.0 0.0 0.0

-1.7123810685653957e6 3.183029375678124e6 0.0
3.183029375678124e6 578210.0615835105 0.0
0.0 0.0 0.0

933665.8029393079 6.966390726503978e6 0.0
6.966390726503978e6 -7.306380170417149e6 0.0
0.0 0.0 0.0

-5.244554091441478e6 -6.963063489946244e6 0.0
-6.963063489946244e6 1.0945426622984378e7 0.0
0.0 0.0 0.0

-555808.5564915715 6.443227080086445e6 0.0
6.443227080086445e6 -3.1110314638689873e6 0.0
0.0 0.0 0.0

-193912.94000192743 6.607332500960446e6 0.0
6.607332500960446e6 -3.3857823231200776e6 0.0
0.0 0.0 0.0

-7.166883275540016e6 1.2094149509166084e7 0.0
1.2094149509166084e7 3.2655988503622436e6 0.0
0.0 0.0 0.0

-5.319803395028959e6 8.464445750229156e6 0.0
8.464445750229156e6 2.7119213391602067e6 0.0
0.0 0.0 0.0

-2.825025980216037e6 6.7258457893503085e6 0.0
6.7258457893503085e6 1.0489775440136227e6 0.0
0.0 0.0 0.0

-4.791705957647489e6 8.8331825382119e6 0.0
8.8331825382119e6 1.5557529958363157e6 0.0
0.0 0.0 0.0

-8.301399049597202e6 9.424656496153977e6 0.0
9.424656496153977e6 4.2608885595641285e6 0.0
0.0 0.0 0.0

-3.273668148067359e6 7.180364560647088e6 0.0
7.180364560647088e6 1.5381559358402565e6 0.0
0.0 0.0 0.0

-886202.1425363461 9.15363383246694e6 0.0
9.15363383246694e6 148706.48595058772 0.0
0.0 0.0 0.0

1.290630090086799e6 6.35134636465067e6 0.0
6.35134636465067e6 -6.606726089496928e6 0.0
0.0 0.0 0.0

3.462941986240329e6 5.426348417859065e6 0.0
5.426348417859065e6 -7.012187761484929e6 0.0
0.0 0.0 0.0

1.5956468581087054e6 6.531611068954485e6 0.0
6.531611068954485e6 -6.097957381366863e6 0.0
0.0 0.0 0.0

-4.35916402274015e6 8.57947744647096e6 0.0
8.57947744647096e6 1.46355073335026e6 0.0
0.0 0.0 0.0

-571383.7144399452 6.044902176968202e6 0.0
6.044902176968202e6 -1.7564898970725285e6 0.0
0.0 0.0 0.0

-3.817217511298178e6 -2.0247766099415456e6 0.0
-2.0247766099415456e6 5.681843719222528e6 0.0
0.0 0.0 0.0

-1.4290516422717352e6 3.596901428530452e6 0.0
3.596901428530452e6 256847.34588032373 0.0
0.0 0.0 0.0

490999.89891848736 7.074300801446093e6 0.0
7.074300801446093e6 -3.009481656403671e6 0.0
0.0 0.0 0.0

-4.461226179951517e6 7.372118704309717e6 0.0
7.372118704309717e6 1.4817854391619724e6 0.0
0.0 0.0 0.0

-829080.4146132703 7.533571318633714e6 0.0
7.533571318633714e6 -4.446679059761891e6 0.0
0.0 0.0 0.0

636866.3299129998 2.4056790050707143e6 0.0
2.4056790050707143e6 -301989.1753373159 0.0
0.0 0.0 0.0

-500982.03004209884 3.376516881338725e6 0.0
3.376516881338725e6 -720205.9382688979 0.0
0.0 0.0 0.0

-4.515338619699086e6 3.143381196461939e6 0.0
3.143381196461939e6 4.465942860334527e6 0.0
0.0 0.0 0.0

-2.802405559702904e6 7.384436352997374e6 0.0
7.384436352997374e6 2.1986264919681996e6 0.0
0.0 0.0 0.0

-536608.4683891765 7.535263514716078e6 0.0
7.535263514716078e6 -3.7752146634889357e6 0.0
0.0 0.0 0.0

1.4252822426452315e6 6.27897716465283e6 0.0
6.27897716465283e6 -6.451088238811824e6 0.0
0.0 0.0 0.0

1.0073299878240714e6 5.404888671416122e6 0.0
5.404888671416122e6 -4.528719520230966e6 0.0
0.0 0.0 0.0

-7.444697976977027e6 1.6082062715526544e7 0.0
1.6082062715526544e7 -882975.8106438615 0.0
0.0 0.0 0.0

-4.593589191613628e6 -6.265987817245943e6 0.0
-6.265987817245943e6 9.113564114286553e6 0.0
0.0 0.0 0.0

759449.4189760995 6.7820616804285245e6 0.0
6.7820616804285245e6 -5.532895676079907e6 0.0
0.0 0.0 0.0

-1.151350497949672e7 -6.7620290694413325e6 0.0
-6.7620290694413325e6 2.48034097254536e7 0.0
0.0 0.0 0.0

1.1993332393788504e6 6.540985760938648e6 0.0
6.540985760938648e6 -6.911911990483115e6 0.0
0.0 0.0 0.0

-3.6824580058292877e6 7.645095522345676e6 0.0
7.645095522345676e6 1.7780088634310453e6 0.0
0.0 0.0 0.0

-1.4967939443692772e6 5.405066992565334e6 0.0
5.405066992565334e6 -1.2642195965005874e6 0.0
0.0 0.0 0.0

-2.731950979698804e6 6.808644811499575e6 0.0
6.808644811499575e6 -1.0743456849978964e6 0.0
0.0 0.0 0.0

-1.189120545496209e6 8.911393730332911e6 0.0
8.911393730332911e6 -3.008510251528486e6 0.0
0.0 0.0 0.0

-5.707637495503229e6 -7.821844889508135e6 0.0
-7.821844889508135e6 1.2609171098086052e7 0.0
0.0 0.0 0.0

1.4167501645076568e6 6.3959105499748895e6 0.0
6.3959105499748895e6 -6.112535165769542e6 0.0
0.0 0.0 0.0

-3.5039935115367444e6 3.6457701917097582e6 0.0
3.6457701917097582e6 2.5800854095987463e6 0.0
0.0 0.0 0.0

-2.39183821857113e6 3.7767185877961772e6 0.0
3.7767185877961772e6 1.1741047012548428e6 0.0
0.0 0.0 0.0

-3.7501514627703642e6 2.813242069224522e6 0.0
2.813242069224522e6 3.1360758910113643e6 0.0
0.0 0.0 0.0

-1.4440754560017963e6 4.302950469468187e6 0.0
4.302950469468187e6 19341.61237512558 0.0
0.0 0.0 0.0

-3.464089160469049e6 9.844226765142325e6 0.0
9.844226765142325e6 4.420007332178486e6 0.0
0.0 0.0 0.0

-3.8196760047469377e6 8.762838086366931e6 0.0
8.762838086366931e6 561825.0152044713 0.0
0.0 0.0 0.0

-5.052944988254378e6 8.757558517574366e6 0.0
8.757558517574366e6 2.0445333022415405e6 0.0
0.0 0.0 0.0

-4.82613958173017e6 9.109171849615583e6 0.0
9.109171849615583e6 1.0520718239439926e6 0.0
0.0 0.0 0.0

-461079.1015834413 6.720323410169127e6 0.0
6.720323410169127e6 -2.8708158286550925e6 0.0
0.0 0.0 0.0

-4.695275479859964e6 8.685048886710314e6 0.0
8.685048886710314e6 2.0687929712024156e6 0.0
0.0 0.0 0.0

-1.3870876960892766e6 9.295164523637412e6 0.0
9.295164523637412e6 185583.03956982534 0.0
0.0 0.0 0.0

-840353.8043078232 8.28828228583167e6 0.0
8.28828228583167e6 -2.869329655143606e6 0.0
0.0 0.0 0.0

-4.446925397866793e6 3.811976727657886e6 0.0
3.811976727657886e6 5.753599324608053e6 0.0
0.0 0.0 0.0

-2.1435495098545183e6 3.002661545506889e6 0.0
3.002661545506889e6 1.0401906212702829e6 0.0
0.0 0.0 0.0

-454416.37907274696 6.6427819560955735e6 0.0
6.6427819560955735e6 -3.440536820668157e6 0.0
0.0 0.0 0.0

-1.2765377499647343e6 -595859.394279884 0.0
-595859.394279884 408285.2095196061 0.0
0.0 0.0 0.0

3.24623387850263e6 4.767184478760657e6 0.0
4.767184478760657e6 -6.535586259679703e6 0.0
0.0 0.0 0.0

-1.5969559975172544e6 8.738557657235749e6 0.0
8.738557657235749e6 1.8757408243927243e6 0.0
0.0 0.0 0.0

-3.4869482620687303e6 -5.076749755398266e6 0.0
-5.076749755398266e6 7.177898147923185e6 0.0
0.0 0.0 0.0

1.759787933583206e6 6.695052517525706e6 0.0
6.695052517525706e6 -6.042782494252859e6 0.0
0.0 0.0 0.0

3.2475396974198814e6 4.94782900601855e6 0.0
4.94782900601855e6 -6.608960959577226e6 0.0
0.0 0.0 0.0

-2.2192472412504954e6 -1.641415845217461e6 0.0
-1.641415845217461e6 1.6157403325466192e6 0.0
0.0 0.0 0.0

-5.797633869357541e6 6.870445109191124e6 0.0
6.870445109191124e6 8.891530008919548e6 0.0
0.0 0.0 0.0

1.8337302056252644e6 6.712335488458004e6 0.0
6.712335488458004e6 -6.026752911585911e6 0.0
0.0 0.0 0.0

-2.7761645152727487e6 -4.543803148151549e6 0.0
-4.543803148151549e6 5.39313181772163e6 0.0
0.0 0.0 0.0

-2.6124252207548525e6 7.999947556204477e6 0.0
7.999947556204477e6 2.0425911398844e6 0.0
0.0 0.0 0.0

-1.1569607256079768e6 790505.5726155352 0.0
790505.5726155352 1.2218094814735586e6 0.0
0.0 0.0 0.0

-3.473934353818348e6 -2.6201047571694213e6 0.0
-2.6201047571694213e6 3.9156133043679204e6 0.0
0.0 0.0 0.0

3.4685195960693187e6 5.248549781297534e6 0.0
5.248549781297534e6 -6.854880697859345e6 0.0
0.0 0.0 0.0

2.0094198810294997e6 6.786351403260818e6 0.0
6.786351403260818e6 -6.070888730948757e6 0.0
0.0 0.0 0.0

-2.6302978058688445e6 -3.6518143469197564e6 0.0
-3.6518143469197564e6 4.884187225661052e6 0.0
0.0 0.0 0.0

-7.449679148086445e7 2.379352606134271e7 0.0
2.379352606134271e7 625916.284417972 0.0
0.0 0.0 0.0

4.003336888222417e7 9.343454959681438e6 0.0
9.343454959681438e6 -7.441542097583363e6 0.0
0.0 0.0 0.0

-1.7350969339020154e6 4.1843474872917705e6 0.0
4.1843474872917705e6 11744.318662900478 0.0
0.0 0.0 0.0

2.16613864118742e6 6.550044533602682e6 0.0
6.550044533602682e6 -6.230067706860003e6 0.0
0.0 0.0 0.0

-3.365318606691109e6 -2.375870954859605e6 0.0
-2.375870954859605e6 5.487284582798699e6 0.0
0.0 0.0 0.0

216531.94013533625 7.80367759323965e6 0.0
7.80367759323965e6 -2.714949033792911e6 0.0
0.0 0.0 0.0

-2.0367458406959274e6 3.41697787427095e6 0.0
3.41697787427095e6 930812.4598413128 0.0
0.0 0.0 0.0

-4.280297345148726e6 8.65424845925921e6 0.0
8.65424845925921e6 1.5247648198604034e6 0.0
0.0 0.0 0.0

-1.67352072596107e6 8.806618012820164e6 0.0
8.806618012820164e6 1.9622366439996222e6 0.0
0.0 0.0 0.0

-3.7635600476154936e6 -1.8931908911716833e6 0.0
-1.8931908911716833e6 5.600891970006611e6 0.0
0.0 0.0 0.0

2.066861283755146e6 6.219265035411218e6 0.0
6.219265035411218e6 -6.113144351997604e6 0.0
0.0 0.0 0.0

-4.429042896967457e6 8.545217761471475e6 0.0
8.545217761471475e6 638545.1042735984 0.0
0.0 0.0 0.0

-83385.7981381591 8.252075245131906e6 0.0
8.252075245131906e6 -5.686830978887368e6 0.0
0.0 0.0 0.0

-5.352929926793257e6 8.68742147966228e6 0.0
8.68742147966228e6 1.9871123012760868e6 0.0
0.0 0.0 0.0

-1.3242080056690555e6 8.530953762203079e6 0.0
8.530953762203079e6 -2.3286435159892743e6 0.0
0.0 0.0 0.0

-801605.166076082 8.136763925374231e6 0.0
8.136763925374231e6 -3.4848464282481074e6 0.0
0.0 0.0 0.0

-894513.3994446121 9.198680328956623e6 0.0
9.198680328956623e6 -115284.63256890725 0.0
0.0 0.0 0.0

-3.382160603440881e6 1.0580203856240032e7 0.0
1.0580203856240032e7 -860508.191134144 0.0
0.0 0.0 0.0

-2.523153843137207e6 9.506003640133904e6 0.0
9.506003640133904e6 -989753.999707672 0.0
0.0 0.0 0.0

-27186.465792736737 7.7539551672558505e6 0.0
7.7539551672558505e6 -5.249128051936213e6 0.0
0.0 0.0 0.0

-5.050496326956636e6 8.764156065260055e6 0.0
8.764156065260055e6 2.035250950950293e6 0.0
0.0 0.0 0.0

-2.8790513274029125e6 6.425296064801621e6 0.0
6.425296064801621e6 1.183576753128254e6 0.0
0.0 0.0 0.0

-4.739110141168058e6 8.358279941348057e6 0.0
8.358279941348057e6 2.6331262191076684e6 0.0
0.0 0.0 0.0

-756761.5755638795 8.121589181008558e6 0.0
8.121589181008558e6 -3.5372456997869126e6 0.0
0.0 0.0 0.0

-1.3132022664089813e6 3.8740125120449504e6 0.0
3.8740125120449504e6 12341.297637869371 0.0
0.0 0.0 0.0

-287065.62603618094 9.131043063013187e6 0.0
9.131043063013187e6 -113605.52637966884 0.0
0.0 0.0 0.0

-1.4944368294413246e6 4.049023730416096e6 0.0
4.049023730416096e6 217806.69042660075 0.0
0.0 0.0 0.0

-2.749112626782979e6 6.8917976133783115e6 0.0
6.8917976133783115e6 41531.32877975877 0.0
0.0 0.0 0.0

-4.796317300276677e6 8.790098648683345e6 0.0
8.790098648683345e6 1.8868858548935181e6 0.0
0.0 0.0 0.0

-245741.7275728148 7.648831409485743e6 0.0
7.648831409485743e6 -4.584454330278222e6 0.0
0.0 0.0 0.0

-2.0659425447580768e6 8.407001546277769e6 0.0
8.407001546277769e6 1.703051717408082e6 0.0
0.0 0.0 0.0

-8.79074398834936e6 9.470677129839517e6 0.0
9.470677129839517e6 4.5528984293951e6 0.0
0.0 0.0 0.0

-2.9056769317775904e6 6.936855717325112e6 0.0
6.936855717325112e6 -23046.44713849225 0.0
0.0 0.0 0.0

-4.930417931989722e6 8.641892067569189e6 0.0
8.641892067569189e6 1.263015187501529e6 0.0
0.0 0.0 0.0

728380.1856769572 7.578712444422105e6 0.0
7.578712444422105e6 1.4773826798760907e6 0.0
0.0 0.0 0.0

-4.552569513340721e6 8.760027609598786e6 0.0
8.760027609598786e6 1.6996500976065553e6 0.0
0.0 0.0 0.0

-5.0211883005221095e6 1.434449249355175e6 0.0
1.434449249355175e6 2.3345068840665896e6 0.0
0.0 0.0 0.0

-5.690428779191682e6 9.038604280724624e6 0.0
9.038604280724624e6 2.514498619993496e6 0.0
0.0 0.0 0.0

751184.0727736785 5.325839065355858e6 0.0
5.325839065355858e6 -3.2956955299834437e6 0.0
0.0 0.0 0.0

871939.2590892701 5.401555310517718e6 0.0
5.401555310517718e6 -3.3184722545021814e6 0.0
0.0 0.0 0.0

-4.689230085801539e6 8.617939441668047e6 0.0
8.617939441668047e6 1.1391479359260201e6 0.0
0.0 0.0 0.0

-2.9822072681609932e6 9.0618873664965e6 0.0
9.0618873664965e6 3.393321267941774e6 0.0
0.0 0.0 0.0

-6.164135224542416e6 9.163823560445134e6 0.0
9.163823560445134e6 2.846574620511416e6 0.0
0.0 0.0 0.0

-2.9498339149109083e6 2.535929125891499e6 0.0
2.535929125891499e6 1.990504801211602e6 0.0
0.0 0.0 0.0

-7.569982134944692e6 9.254032281475108e6 0.0
9.254032281475108e6 3.802309055371899e6 0.0
0.0 0.0 0.0

-2.233452360125258e6 8.357835817132754e6 0.0
8.357835817132754e6 852019.2566092244 0.0
0.0 0.0 0.0

-676270.3322834849 6.464181726029746e6 0.0
6.464181726029746e6 -1.4657834953514705e6 0.0
0.0 0.0 0.0

-144291.04350469704 7.325360811598188e6 0.0
7.325360811598188e6 -3.927342414562708e6 0.0
0.0 0.0 0.0

-3.9130096305673956e6 8.445797496591888e6 0.0
8.445797496591888e6 1.431182996789124e6 0.0
0.0 0.0 0.0

-387961.4327025974 2.900826442752632e6 0.0
2.900826442752632e6 -337213.0934686645 0.0
0.0 0.0 0.0

-7.685600419005966e6 6.201395998439651e6 0.0
6.201395998439651e6 8.944511646894228e6 0.0
0.0 0.0 0.0

113384.98966507404 7.84710530091493e6 0.0
7.84710530091493e6 -5.605753675221764e6 0.0
0.0 0.0 0.0

-3.172434209699168e6 3.1196774360844037e6 0.0
3.1196774360844037e6 3.5712420305526815e6 0.0
0.0 0.0 0.0

-1.2480385689818773e6 1.190199243869752e7 0.0
1.190199243869752e7 -1.6590888134127425e6 0.0
0.0 0.0 0.0

-415502.3282080622 7.661938912062683e6 0.0
7.661938912062683e6 -3.383983055011232e6 0.0
0.0 0.0 0.0

-2.7671006509547248e6 7.0016450824465295e6 0.0
7.0016450824465295e6 -128530.34880475164 0.0
0.0 0.0 0.0

-5.234820272194076e6 8.68239991087342e6 0.0
8.68239991087342e6 1.8194660962493417e6 0.0
0.0 0.0 0.0

-69376.69280483597 7.973883143415025e6 0.0
7.973883143415025e6 -3.319557870281108e6 0.0
0.0 0.0 0.0

-1.3775925202814045e6 3.484902125382888e6 0.0
3.484902125382888e6 506636.051373912 0.0
0.0 0.0 0.0

-3.66824359901434e6 3.4980942124908227e6 0.0
3.4980942124908227e6 4.127802401614524e6 0.0
0.0 0.0 0.0

-5.1262570974727925e6 8.638122587515375e6 0.0
8.638122587515375e6 1.5755808813386208e6 0.0
0.0 0.0 0.0

-1.4448179345742997e6 4.1393805526231267e6 0.0
4.1393805526231267e6 60272.00588517176 0.0
0.0 0.0 0.0

1.2222210441675386e6 6.462915967087748e6 0.0
6.462915967087748e6 -6.424794848988985e6 0.0
0.0 0.0 0.0

-2.0115204862375408e6 4.665028597441239e6 0.0
4.665028597441239e6 153552.72186614538 0.0
0.0 0.0 0.0

-340444.3723274126 8.212972464465837e6 0.0
8.212972464465837e6 -3.662562956347257e6 0.0
0.0 0.0 0.0

315112.38890826714 7.440218291573537e6 0.0
7.440218291573537e6 -2.2058092949728514e6 0.0
0.0 0.0 0.0

-1.4125511048224536e6 8.322813787978945e6 0.0
8.322813787978945e6 1.0260398121265277e6 0.0
0.0 0.0 0.0

-2.970554327554205e6 6.5694888668103535e6 0.0
6.5694888668103535e6 -177388.4724400367 0.0
0.0 0.0 0.0

-960672.2899423103 8.41113000919003e6 0.0
8.41113000919003e6 -3.30386584234825e6 0.0
0.0 0.0 0.0

191972.03735098685 6.837610363666582e6 0.0
6.837610363666582e6 -4.406134345546343e6 0.0
0.0 0.0 0.0

-226702.2617070364 8.130107963586373e6 0.0
8.130107963586373e6 -3.532409542300099e6 0.0
0.0 0.0 0.0

-653493.9426633809 6.869084024629294e6 0.0
6.869084024629294e6 -3.1085612150854045e6 0.0
0.0 0.0 0.0

1.3469637348937346e6 4.980146421495303e6 0.0
4.980146421495303e6 -5.263455192149329e6 0.0
0.0 0.0 0.0

-4.49837121418586e6 8.743982330229104e6 0.0
8.743982330229104e6 1.722897894114998e6 0.0
0.0 0.0 0.0

-1.6868840186107133e6 5.418186493160114e6 0.0
5.418186493160114e6 -1.2078942358987806e6 0.0
0.0 0.0 0.0

-2.4290250829059617e6 7.907499223271134e6 0.0
7.907499223271134e6 1.8469816571144378e6 0.0
0.0 0.0 0.0

354180.41508328053 1.7542414235846277e6 0.0
1.7542414235846277e6 -948270.2108118257 0.0
0.0 0.0 0.0

735821.6456916688 8.577647642911525e6 0.0
8.577647642911525e6 -2.4935358046081876e6 0.0
0.0 0.0 0.0

-2.293609354690439e6 6.876948380015623e6 0.0
6.876948380015623e6 1.925286620017668e6 0.0
0.0 0.0 0.0

-271983.03990971623 6.585958862600322e6 0.0
6.585958862600322e6 -3.6486696830657166e6 0.0
0.0 0.0 0.0

-2.6639525089890763e7 -1.9234851294247417e6 0.0
-1.9234851294247417e6 1.4087557276372887e7 0.0
0.0 0.0 0.0

-3.202061796978998e6 6.708275099486094e6 0.0
6.708275099486094e6 3.346630849907372e6 0.0
0.0 0.0 0.0

-1.7443570829772083e6 9.266667896583553e6 0.0
9.266667896583553e6 -1.9703290181170325e6 0.0
0.0 0.0 0.0

-2.6113037917697863e6 6.134983350435055e6 0.0
6.134983350435055e6 -533412.410820261 0.0
0.0 0.0 0.0

-421545.46022079117 7.771565012808825e6 0.0
7.771565012808825e6 -3.5067950431794645e6 0.0
0.0 0.0 0.0

-700343.69520327 9.157048004280126e6 0.0
9.157048004280126e6 93795.23707351836 0.0
0.0 0.0 0.0

45270.29080383247 7.178535116752971e6 0.0
7.178535116752971e6 -4.513955067261376e6 0.0
0.0 0.0 0.0

-598557.3005709667 9.226087064546643e6 0.0
9.226087064546643e6 279615.00722372194 0.0
0.0 0.0 0.0

-1.7511135508121147e6 8.580279181225432e6 0.0
8.580279181225432e6 -2.2473139368876726e6 0.0
0.0 0.0 0.0

153413.1987935719 6.873705526411024e6 0.0
6.873705526411024e6 -4.1514342003390496e6 0.0
0.0 0.0 0.0

1.5059113928009844e6 6.821581967338848e6 0.0
6.821581967338848e6 -5.853221654707708e6 0.0
0.0 0.0 0.0

-4.265405477411749e6 1.1392829976691533e7 0.0
1.1392829976691533e7 -310162.5124625077 0.0
0.0 0.0 0.0

-64014.16925548646 7.21076724796473e6 0.0
7.21076724796473e6 -4.239044617054021e6 0.0
0.0 0.0 0.0

-4.350588426413886e6 8.399972455071876e6 0.0
8.399972455071876e6 1.9424331083806779e6 0.0
0.0 0.0 0.0

-2.561439810377455e6 8.388415138219939e6 0.0
8.388415138219939e6 284407.2950363681 0.0
0.0 0.0 0.0

-103514.83687053958 3.1509838778809505e6 0.0
3.1509838778809505e6 -2.111581758788708e6 0.0
0.0 0.0 0.0

-9.635791904335016e6 9.092593651547465e6 0.0
9.092593651547465e6 4.992686551028041e6 0.0
0.0 0.0 0.0

-211680.37071980082 6.755874773988571e6 0.0
6.755874773988571e6 -3.3684457225071383e6 0.0
0.0 0.0 0.0

-4.89814657423412e6 9.116641803419156e6 0.0
9.116641803419156e6 7.074224883234359e6 0.0
0.0 0.0 0.0

-1.0376790043005861e6 9.263351419585444e6 0.0
9.263351419585444e6 -236562.2205487675 0.0
0.0 0.0 0.0

-4.925532737598755e6 8.306163236594972e6 0.0
8.306163236594972e6 2.169589056435244e6 0.0
0.0 0.0 0.0

-1.2997602964477134e6 4.0283796325793164e6 0.0
4.0283796325793164e6 218265.69901869877 0.0
0.0 0.0 0.0

-669286.8823248908 7.852993968590559e6 0.0
7.852993968590559e6 -3.6246620612785574e6 0.0
0.0 0.0 0.0

-1.4156044803955175e6 5.63650885422315e6 0.0
5.63650885422315e6 -1.0504624175037013e6 0.0
0.0 0.0 0.0

-2.9358967478645016e6 6.744328900318439e6 0.0
6.744328900318439e6 101326.00412682677 0.0
0.0 0.0 0.0

3.36573454088092e6 8.375063176967783e6 0.0
8.375063176967783e6 -3.561541861996071e6 0.0
0.0 0.0 0.0

-1.286355150213532e6 9.588179187705124e6 0.0
9.588179187705124e6 -2.3447342769072666e6 0.0
0.0 0.0 0.0

-797646.4910901057 4.147074818271588e6 0.0
4.147074818271588e6 -1.1803508559980534e6 0.0
0.0 0.0 0.0

-826775.9587453244 8.12489304313935e6 0.0
8.12489304313935e6 -3.450707004425176e6 0.0
0.0 0.0 0.0

175646.7415558661 2.1123186971478923e6 0.0
2.1123186971478923e6 -988585.7088600335 0.0
0.0 0.0 0.0

-2.9590989031171333e6 6.914992157062595e6 0.0
6.914992157062595e6 2.103739990590548e6 0.0
0.0 0.0 0.0

-2.455038993850995e6 3.2910429511943683e6 0.0
3.2910429511943683e6 1.3954854589134203e6 0.0
0.0 0.0 0.0

-9.007373716525912e6 4.65737761737326e6 0.0
4.65737761737326e6 4.40044603480874e6 0.0
0.0 0.0 0.0

-38455.38730234094 7.7204998464375045e6 0.0
7.7204998464375045e6 -5.312627504597027e6 0.0
0.0 0.0 0.0

-3.4767896107311947e6 7.436146254517332e6 0.0
7.436146254517332e6 1.6947637070176585e6 0.0
0.0 0.0 0.0

-3.6860365947811003e6 7.770308612320754e6 0.0
7.770308612320754e6 1.5994806682171915e6 0.0
0.0 0.0 0.0

-2.0906360611057444e6 1.0886367965074992e7 0.0
1.0886367965074992e7 -1.8575817282787708e6 0.0
0.0 0.0 0.0

174339.9300179684 7.656188376083069e6 0.0
7.656188376083069e6 -5.459224845007047e6 0.0
0.0 0.0 0.0

-2.110740942230518e6 8.39650465350147e6 0.0
8.39650465350147e6 1.5823062148456764e6 0.0
0.0 0.0 0.0

-7.466964567483808e6 308233.8333920813 0.0
308233.8333920813 9.304690657868635e6 0.0
0.0 0.0 0.0

-525942.9203565344 514844.6985984475 0.0
514844.6985984475 -1.5754465333838786e6 0.0
0.0 0.0 0.0

-609815.19911733 8.150481071228322e6 0.0
8.150481071228322e6 -3.8546973467874643e6 0.0
0.0 0.0 0.0

-2.895199064961968e6 1.068854949847385e7 0.0
1.068854949847385e7 -1.2362394882444148e6 0.0
0.0 0.0 0.0

-2.9850096391063747e6 7.092369529669426e6 0.0
7.092369529669426e6 233654.00944895472 0.0
0.0 0.0 0.0

-2.2930287454553954e6 5.732439337796757e6 0.0
5.732439337796757e6 -1.0508092549490149e6 0.0
0.0 0.0 0.0

-773049.6079742302 7.663027959717469e6 0.0
7.663027959717469e6 -4.743175071684653e6 0.0
0.0 0.0 0.0

-3.9175496091690045e6 3.173826418418952e6 0.0
3.173826418418952e6 3.7061122687186683e6 0.0
0.0 0.0 0.0

-6.3823598190192105e6 9.313155017430626e6 0.0
9.313155017430626e6 2.9929953534309953e6 0.0
0.0 0.0 0.0

-1.1460356953226399e7 3.1822824711695295e6 0.0
3.1822824711695295e6 6.325193676102612e6 0.0
0.0 0.0 0.0

1.137660782236767e6 8.066626364049551e6 0.0
8.066626364049551e6 -2.5149061475756667e6 0.0
0.0 0.0 0.0

-124894.46912561404 3.61424984881669e6 0.0
3.61424984881669e6 -2.5371261028009593e6 0.0
0.0 0.0 0.0

-2.842729482326557e6 7.158182962925189e6 0.0
7.158182962925189e6 132082.66057049402 0.0
0.0 0.0 0.0

-4.0367898686822015e6 3.50781990625355e6 0.0
3.50781990625355e6 4.937433767070987e6 0.0
0.0 0.0 0.0

-5.277827144185444e6 8.705408907642065e6 0.0
8.705408907642065e6 2.373217029664046e6 0.0
0.0 0.0 0.0

-2.516415049800483e6 7.925891517444442e6 0.0
7.925891517444442e6 1.9653509563379986e6 0.0
0.0 0.0 0.0

-5.29394722942446e6 8.770772563617771e6 0.0
8.770772563617771e6 2.1833393991392306e6 0.0
0.0 0.0 0.0

-1.6085390825431151e6 8.623289750567527e6 0.0
8.623289750567527e6 -2.4721585477562235e6 0.0
0.0 0.0 0.0

-6.588511329773704e6 2.809748818780538e6 0.0
2.809748818780538e6 8.2317898485691715e6 0.0
0.0 0.0 0.0

-1.1509580023825127e6 8.950275265608273e6 0.0
8.950275265608273e6 -3.0834753534119125e6 0.0
0.0 0.0 0.0

-2.6920383060846515e6 8.856525396373145e6 0.0
8.856525396373145e6 181941.69591616397 0.0
0.0 0.0 0.0

-6.475851604593167e6 9.440569781662405e6 0.0
9.440569781662405e6 3.172591427961312e6 0.0
0.0 0.0 0.0

619958.8983495517 6.115268878234861e6 0.0
6.115268878234861e6 -4.547564717195551e6 0.0
0.0 0.0 0.0

-839035.6762277818 1.0718663411527116e7 0.0
1.0718663411527116e7 -2.451594527022066e6 0.0
0.0 0.0 0.0

-3.4227298806189867e6 7.560707503422106e6 0.0
7.560707503422106e6 1.5173938783724983e6 0.0
0.0 0.0 0.0

-1.2482505532531473e6 3.8534307271499033e6 0.0
3.8534307271499033e6 247674.32650344627 0.0
0.0 0.0 0.0

-3.7476427005555667e6 8.892017356072502e6 0.0
8.892017356072502e6 1.7345513507790586e6 0.0
0.0 0.0 0.0

-4.9155799118098e6 3.518936270369758e6 0.0
3.518936270369758e6 4.466660516788834e6 0.0
0.0 0.0 0.0

-837457.1749031032 3.171708257457136e6 0.0
3.171708257457136e6 2.6637065241183043e6 0.0
0.0 0.0 0.0

-3.1917715728643537e6 7.362334017923636e6 0.0
7.362334017923636e6 1.271385825677544e6 0.0
0.0 0.0 0.0

-2.304870164825267e6 2.6610591963624447e6 0.0
2.6610591963624447e6 1.1738679931891058e6 0.0
0.0 0.0 0.0

-2.5955558436592063e6 5.464717278212849e6 0.0
5.464717278212849e6 864865.4108148821 0.0
0.0 0.0 0.0

-2.073976555446307e6 9.946250763475316e6 0.0
9.946250763475316e6 2.8095614184988663e6 0.0
0.0 0.0 0.0

134264.35054268362 7.561044766758029e6 0.0
7.561044766758029e6 -5.197589236206003e6 0.0
0.0 0.0 0.0

67038.16680061657 1.6619726214541527e6 0.0
1.6619726214541527e6 -710872.8369291511 0.0
0.0 0.0 0.0

-3.1810262930956194e6 1.2603644735746015e7 0.0
1.2603644735746015e7 -1.519012141548181e6 0.0
0.0 0.0 0.0

-2.6440356746783494e6 2.7613687864950276e6 0.0
2.7613687864950276e6 2.823559679469203e6 0.0
0.0 0.0 0.0

-1.8579046684944518e6 5.158921806967128e6 0.0
5.158921806967128e6 -1.8774571681843298e6 0.0
0.0 0.0 0.0

-1.9050583385444798e6 8.59446490783134e6 0.0
8.59446490783134e6 1.2053146292292182e6 0.0
0.0 0.0 0.0

-2.7294867331293346e6 6.505759058543567e6 0.0
6.505759058543567e6 -79261.35486517288 0.0
0.0 0.0 0.0

-3.265924315977921e6 6.621647181259595e6 0.0
6.621647181259595e6 1.9997912461667405e6 0.0
0.0 0.0 0.0

-1.3033329465893605e6 4.948238568453899e6 0.0
4.948238568453899e6 -1.2456566314026755e6 0.0
0.0 0.0 0.0

-2.972864500708403e6 8.007426671926001e6 0.0
8.007426671926001e6 750615.7673035953 0.0
0.0 0.0 0.0

-2.718187561444891e6 5.52934914566845e6 0.0
5.52934914566845e6 1.1645337927571866e6 0.0
0.0 0.0 0.0

-1.0953366244870604e6 1.0607825818696246e7 0.0
1.0607825818696246e7 -2.2808925006320598e6 0.0
0.0 0.0 0.0

-3.489590131036055e6 7.759765792703233e6 0.0
7.759765792703233e6 1.270255341557792e6 0.0
0.0 0.0 0.0

-6.390616794165084e6 9.308668516061557e6 0.0
9.308668516061557e6 2.97673913477762e6 0.0
0.0 0.0 0.0

-51019.09263288393 7.50553744857706e6 0.0
7.50553744857706e6 -4.751554714043049e6 0.0
0.0 0.0 0.0

-1.0074491132297918e6 991397.3223027957 0.0
991397.3223027957 -70588.394595146 0.0
0.0 0.0 0.0

-79811.14434066572 3.196540634245119e6 0.0
3.196540634245119e6 -1.5069169981876297e6 0.0
0.0 0.0 0.0

1.1502207558618574e6 6.618534122135987e6 0.0
6.618534122135987e6 -6.54115803434395e6 0.0
0.0 0.0 0.0

-3.8014329617142854e6 8.122310260882921e6 0.0
8.122310260882921e6 620765.2890823185 0.0
0.0 0.0 0.0

-2.785923378248701e6 7.434720177397057e6 0.0
7.434720177397057e6 2.3773814611386484e6 0.0
0.0 0.0 0.0

-1.6667897712213336e6 3.5126223626032127e6 0.0
3.5126223626032127e6 502892.42102294986 0.0
0.0 0.0 0.0

-1.0286708776807189e7 9.064851354057964e6 0.0
9.064851354057964e6 5.341594985308368e6 0.0
0.0 0.0 0.0

-4.040324358272794e6 2.758574476056476e6 0.0
2.758574476056476e6 3.5109014566466752e6 0.0
0.0 0.0 0.0

-3.333843883826805e6 2.3513511482411325e7 0.0
2.3513511482411325e7 849350.4923252729 0.0
0.0 0.0 0.0

-2.520220602602125e6 9.695821107596481e6 0.0
9.695821107596481e6 -1.4645185155703162e6 0.0
0.0 0.0 0.0

-1.0021899670322376e6 8.421193703304207e6 0.0
8.421193703304207e6 -2.6750246105048927e6 0.0
0.0 0.0 0.0

-2.6137617052410687e6 7.77102011816935e6 0.0
7.77102011816935e6 1.7054101502485648e6 0.0
0.0 0.0 0.0

-5.852247448876424e6 3.2282316366493828e6 0.0
3.2282316366493828e6 5.89399413310965e6 0.0
0.0 0.0 0.0

-3.1318704627963104e6 8.7477703957249e6 0.0
8.7477703957249e6 -249778.50040226 0.0
0.0 0.0 0.0

200794.0927276637 7.184689820321103e6 0.0
7.184689820321103e6 -1.5423599807595469e6 0.0
0.0 0.0 0.0

1.5801623157744037e6 5.828327098377921e6 0.0
5.828327098377921e6 -5.6072749692044025e6 0.0
0.0 0.0 0.0

-203759.75889573188 3.8080800153747443e6 0.0
3.8080800153747443e6 -1.2420162539665883e6 0.0
0.0 0.0 0.0

-1.2361126074889028e7 8.585900804361314e6 0.0
8.585900804361314e6 6.804533144384808e6 0.0
0.0 0.0 0.0

-3.113449877735583e6 7.354929913176991e6 0.0
7.354929913176991e6 2.4167992328576865e6 0.0
0.0 0.0 0.0

-549088.1893926561 8.299263431665502e6 0.0
8.299263431665502e6 -3.8288954623986217e6 0.0
0.0 0.0 0.0

1.6784443487535312e6 7.361732105155886e6 0.0
7.361732105155886e6 -997605.7158575687 0.0
0.0 0.0 0.0

-230024.44068679403 2.847787831381862e6 0.0
2.847787831381862e6 -1.1859229291591186e6 0.0
0.0 0.0 0.0

-619059.6825330678 6.936918478642356e6 0.0
6.936918478642356e6 -1.7087237874093852e6 0.0
0.0 0.0 0.0

-450874.5157876727 8.216334288517341e6 0.0
8.216334288517341e6 -3.7556869792702566e6 0.0
0.0 0.0 0.0

-2.203540733111395e6 6.0935867637378415e6 0.0
6.0935867637378415e6 -943135.6833028289 0.0
0.0 0.0 0.0

-2.7831256864727503e6 5.154012167303025e6 0.0
5.154012167303025e6 1.294166740450425e6 0.0
0.0 0.0 0.0

-543352.1746491186 8.036151076532996e6 0.0
8.036151076532996e6 -4.0697386839723117e6 0.0
0.0 0.0 0.0

-276637.7936040218 7.493568090507737e6 0.0
7.493568090507737e6 -3.67280615080732e6 0.0
0.0 0.0 0.0

-3.5202248587321257e6 7.419602169381561e6 0.0
7.419602169381561e6 1.7024224379331085e6 0.0
0.0 0.0 0.0

-948294.9764338629 8.829948929127794e6 0.0
8.829948929127794e6 -2.8827260387395862e6 0.0
0.0 0.0 0.0

-1.9499381221309425e6 3.2450488322914527e6 0.0
3.2450488322914527e6 1.3706700963281938e6 0.0
0.0 0.0 0.0

2.7220613714559544e6 977196.8724890933 0.0
977196.8724890933 -6.517203770536838e6 0.0
0.0 0.0 0.0

-1.3974474750258032e7 6.702136710113138e6 0.0
6.702136710113138e6 5.894468762297184e6 0.0
0.0 0.0 0.0

-677268.2995577913 2.5554181051909323e6 0.0
2.5554181051909323e6 -2.452081223853722e6 0.0
0.0 0.0 0.0

3.259099407367101e6 -486648.00162978156 0.0
-486648.00162978156 -4.980870954578739e6 0.0
0.0 0.0 0.0

-3.55989991924177e6 7.776695846263693e6 0.0
7.776695846263693e6 1.4864719810441018e6 0.0
0.0 0.0 0.0

-277128.49031027855 6.407146641769087e6 0.0
6.407146641769087e6 -923761.5492325535 0.0
0.0 0.0 0.0

564505.3942178667 9.86592691496016e6 0.0
9.86592691496016e6 -3.298363792106224e6 0.0
0.0 0.0 0.0

-3.6933181643731333e6 7.308082823400989e6 0.0
7.308082823400989e6 3.885996673565001e6 0.0
0.0 0.0 0.0

-3.589739214128175e6 8.103270156644874e6 0.0
8.103270156644874e6 3.900680070282881e6 0.0
0.0 0.0 0.0

-3.0645427589272233e6 1.126146949962193e7 0.0
1.126146949962193e7 4.16742492427224e6 0.0
0.0 0.0 0.0

-648148.2971293486 9.189244702721886e6 0.0
9.189244702721886e6 -283514.8430795203 0.0
0.0 0.0 0.0

-3.063952398542391e6 6.834056187775052e6 0.0
6.834056187775052e6 2.341405330369848e6 0.0
0.0 0.0 0.0

-2.0053894814017157e6 4.94937345855303e6 0.0
4.94937345855303e6 57049.78030607011 0.0
0.0 0.0 0.0

-475498.1792768766 8.173244489267347e6 0.0
8.173244489267347e6 -3.87948370653027e6 0.0
0.0 0.0 0.0

-3.554696495107463e6 7.624846491209438e6 0.0
7.624846491209438e6 1.4149258991252917e6 0.0
0.0 0.0 0.0

-4.018193853271166e6 3.1706618044010666e6 0.0
3.1706618044010666e6 3.9295187818240193e6 0.0
0.0 0.0 0.0

-1.1995176404597666e6 1.2598437522546453e7 0.0
1.2598437522546453e7 -2.8485002802422857e6 0.0
0.0 0.0 0.0

-2.4163324061795683e6 9.247788712361502e6 0.0
9.247788712361502e6 -1.0556762138397358e6 0.0
0.0 0.0 0.0

95498.8509515915 6.751689398482197e6 0.0
6.751689398482197e6 -3.73104845697085e6 0.0
0.0 0.0 0.0

-1.6327727701894587e6 1.152016875805091e7 0.0
1.152016875805091e7 -1.9353641290505575e6 0.0
0.0 0.0 0.0

-5.062273462422657e6 8.571907203573667e6 0.0
8.571907203573667e6 1.9744136381936714e6 0.0
0.0 0.0 0.0

-343896.6688874357 5.112881245747824e6 0.0
5.112881245747824e6 -1.1463218537126658e6 0.0
0.0 0.0 0.0

2.977430440014992e6 1.1926839861215381e7 0.0
1.1926839861215381e7 9.924778349260084e6 0.0
0.0 0.0 0.0

-4.354801979983841e6 -725789.4923536014 0.0
-725789.4923536014 4.526019099575443e6 0.0
0.0 0.0 0.0

-150144.33105485028 7.372864185972518e6 0.0
7.372864185972518e6 -901728.1962742314 0.0
0.0 0.0 0.0

-227224.53886448976 898552.1767437764 0.0
898552.1767437764 -536757.3332645714 0.0
0.0 0.0 0.0

-5.335682054895443e6 9.060955449501889e6 0.0
9.060955449501889e6 2.0409582586339093e6 0.0
0.0 0.0 0.0

-3.6405703876805115e6 1.135478290710601e7 0.0
1.135478290710601e7 -788021.534384847 0.0
0.0 0.0 0.0

-1.134962106953155e7 9.021838726281084e6 0.0
9.021838726281084e6 5.951315679873941e6 0.0
0.0 0.0 0.0

-3.591953625200735e6 6.538738324148807e6 0.0
6.538738324148807e6 4.619710241105202e6 0.0
0.0 0.0 0.0

-3.4348752210931676e6 3.068672199426364e6 0.0
3.068672199426364e6 3.9451030062587187e6 0.0
0.0 0.0 0.0

-5.596894976419261e6 9.025550724182649e6 0.0
9.025550724182649e6 2.2888698947339756e6 0.0
0.0 0.0 0.0

-2.902797501496746e6 5.769874758060812e6 0.0
5.769874758060812e6 1.1100370882176098e6 0.0
0.0 0.0 0.0

-3.0817645138432165e6 7.19275598819884e6 0.0
7.19275598819884e6 1.0153601661449e6 0.0
0.0 0.0 0.0

869804.8772991046 6.951102278060686e6 0.0
6.951102278060686e6 -5.787590055087134e6 0.0
0.0 0.0 0.0

-3.5127605357562103e6 7.4314902098556645e6 0.0
7.4314902098556645e6 1.7483208568976647e6 0.0
0.0 0.0 0.0

219054.93134183728 8.733747578929918e6 0.0
8.733747578929918e6 3.6980456876340713e6 0.0
0.0 0.0 0.0

-566201.6018243913 7.916988444619337e6 0.0
7.916988444619337e6 -3.198709807435557e6 0.0
0.0 0.0 0.0

-9.148328181855364e6 -3.392939406594045e6 0.0
-3.392939406594045e6 1.2622884937347379e7 0.0
0.0 0.0 0.0

-5.686971758028269e6 9.00525365575682e6 0.0
9.00525365575682e6 2.530230326708171e6 0.0
0.0 0.0 0.0

350357.9969088379 7.580615149612233e6 0.0
7.580615149612233e6 -1.0722932025761786e6 0.0
0.0 0.0 0.0

-2.2021937524735473e7 2.1060670026737247e7 0.0
2.1060670026737247e7 -7.329664447335495e6 0.0
0.0 0.0 0.0

1.8512467342748519e6 4.678067870774719e6 0.0
4.678067870774719e6 -4.694920919733318e6 0.0
0.0 0.0 0.0

-3.060898793616312e6 7.360768861902422e6 0.0
7.360768861902422e6 304819.63279802434 0.0
0.0 0.0 0.0

-4.480751814124563e6 7.433096270155207e6 0.0
7.433096270155207e6 705753.1364481789 0.0
0.0 0.0 0.0

-632274.0362566395 9.140403548302038e6 0.0
9.140403548302038e6 -2.986870168567657e6 0.0
0.0 0.0 0.0

-2.290025802399308e6 9.994199123719132e6 0.0
9.994199123719132e6 -1.7911056842519862e6 0.0
0.0 0.0 0.0

2.412246469322921e6 9.41695022440123e6 0.0
9.41695022440123e6 -4.1533537917852015e6 0.0
0.0 0.0 0.0

-7.156209751349083e6 9.05476716171469e6 0.0
9.05476716171469e6 3.513251122264963e6 0.0
0.0 0.0 0.0

-3.272725226781961e6 8.200333595041022e6 0.0
8.200333595041022e6 1.4844314874356647e6 0.0
0.0 0.0 0.0

1.2254743845209875e6 6.629559859169991e6 0.0
6.629559859169991e6 -6.214446049182195e6 0.0
0.0 0.0 0.0

-1.1273579807975257e7 9.842341177466711e6 0.0
9.842341177466711e6 1.7773599484992106e6 0.0
0.0 0.0 0.0

-2.577384558971737e6 5.697886406481155e6 0.0
5.697886406481155e6 1.209572019603713e6 0.0
0.0 0.0 0.0

-3.0881722865788895e6 1.1338127705655338e7 0.0
1.1338127705655338e7 -1.1356278255587514e6 0.0
0.0 0.0 0.0

-5.33272205613721e6 8.617149986781834e6 0.0
8.617149986781834e6 6.290610412980141e6 0.0
0.0 0.0 0.0

1.8865586197562816e6 1.113832319970088e7 0.0
1.113832319970088e7 -4.827862457812911e6 0.0
0.0 0.0 0.0

-3.071461213141326e6 7.25367662449288e6 0.0
7.25367662449288e6 1.491632539109889e6 0.0
0.0 0.0 0.0

-2.5629053241517614e6 6.461076766935564e6 0.0
6.461076766935564e6 -1.276022272514408e6 0.0
0.0 0.0 0.0

-761617.5546094282 5.467615034596717e6 0.0
5.467615034596717e6 1.7078547774237394e6 0.0
0.0 0.0 0.0

-533116.3263800973 1.069881707979469e7 0.0
1.069881707979469e7 -2.56689340848656e6 0.0
0.0 0.0 0.0

-3.258148994445418e6 7.582187011230321e6 0.0
7.582187011230321e6 3.060900019046611e6 0.0
0.0 0.0 0.0

-9.95747515979547e6 -734361.9797100595 0.0
-734361.9797100595 1.8517339154957034e7 0.0
0.0 0.0 0.0

-8.505170131652497e6 -7.192434203530117e6 0.0
-7.192434203530117e6 1.8553907180591468e7 0.0
0.0 0.0 0.0

-2.905994841232976e6 7.132001982411002e6 0.0
7.132001982411002e6 -883790.8960069726 0.0
0.0 0.0 0.0

-785162.7106788738 9.888712658721603e6 0.0
9.888712658721603e6 -2.660634493640249e6 0.0
0.0 0.0 0.0

-2.111069850366654e6 1.0250461281690972e7 0.0
1.0250461281690972e7 -2.0039984157637667e6 0.0
0.0 0.0 0.0

-3.600205664095592e6 8.844113911558634e6 0.0
8.844113911558634e6 -52012.292630210984 0.0
0.0 0.0 0.0

3.191649489573172e6 7.142863837594116e6 0.0
7.142863837594116e6 -1.0452027100734329e6 0.0
0.0 0.0 0.0

-3.4769703872461626e6 6.485548820905139e6 0.0
6.485548820905139e6 2.513711443023708e6 0.0
0.0 0.0 0.0

-1.8306661336147129e6 1.0374392785793934e7 0.0
1.0374392785793934e7 -2.204579745773531e6 0.0
0.0 0.0 0.0

-2.483237337789199e6 5.997029623848219e6 0.0
5.997029623848219e6 -915274.4198284255 0.0
0.0 0.0 0.0

-297503.126394358 2.723972187297427e6 0.0
2.723972187297427e6 -529998.4117150436 0.0
0.0 0.0 0.0

-195781.6716244889 7.328894661695586e6 0.0
7.328894661695586e6 -4.615231733884887e6 0.0
0.0 0.0 0.0

-1.6282876196432565e6 935973.7877208836 0.0
935973.7877208836 1.1212924739770754e6 0.0
0.0 0.0 0.0

-143279.66758485985 2.4951903447220167e6 0.0
2.4951903447220167e6 -442182.2397824013 0.0
0.0 0.0 0.0

-490806.2169847769 2.290234469750517e6 0.0
2.290234469750517e6 -167276.06038947997 0.0
0.0 0.0 0.0

-716359.9990257608 6.134810841755872e6 0.0
6.134810841755872e6 -1.6354062356865283e6 0.0
0.0 0.0 0.0

-1.4304179117174838e6 8.599244913425721e6 0.0
8.599244913425721e6 -2.6968559506060746e6 0.0
0.0 0.0 0.0

30778.472311718855 7.296068374981168e6 0.0
7.296068374981168e6 -4.560804789812935e6 0.0
0.0 0.0 0.0

-1.3568450480530383e6 9.348705217829788e6 0.0
9.348705217829788e6 172493.69037280756 0.0
0.0 0.0 0.0

-1.4863374474143726e6 1.1066383187919209e7 0.0
1.1066383187919209e7 -2.237735737413481e6 0.0
0.0 0.0 0.0

1.0206126814482862e6 9.231261301232599e6 0.0
9.231261301232599e6 -3.330079705065244e6 0.0
0.0 0.0 0.0

-4.589153590538158e6 8.338953281825301e6 0.0
8.338953281825301e6 1.494352421878265e6 0.0
0.0 0.0 0.0

5.359733404586372e6 1.0477489040849071e7 0.0
1.0477489040849071e7 477907.5875764417 0.0
0.0 0.0 0.0

-2.783298880235845e6 4.935060822211131e6 0.0
4.935060822211131e6 6.308161740894666e6 0.0
0.0 0.0 0.0

97096.19697860512 1.0331839306123283e7 0.0
1.0331839306123283e7 -3.04763307163665e6 0.0
0.0 0.0 0.0

-2.5800359343381557e6 1.1473113328142185e7 0.0
1.1473113328142185e7 -602350.698519073 0.0
0.0 0.0 0.0

-5.813315287842728e6 9.04635397270011e6 0.0
9.04635397270011e6 2.5932615348826093e6 0.0
0.0 0.0 0.0

-1.0174635536687665e6 9.08266047663559e6 0.0
9.08266047663559e6 -2.7623384471926973e6 0.0
0.0 0.0 0.0

-4.374629646930669e6 7.847955372018404e6 0.0
7.847955372018404e6 -90385.98814318958 0.0
0.0 0.0 0.0

-3.65463215539695e6 7.885242815291855e6 0.0
7.885242815291855e6 1.5260807353055063e6 0.0
0.0 0.0 0.0

3.576618844191611e6 4.295484756528167e6 0.0
4.295484756528167e6 -4.384063802480317e6 0.0
0.0 0.0 0.0

-5.133015269832411e6 8.51078091539018e6 0.0
8.51078091539018e6 1.7913468354736443e6 0.0
0.0 0.0 0.0

-1.3608326597647963e7 8.059846724085708e6 0.0
8.059846724085708e6 7.593735882499436e6 0.0
0.0 0.0 0.0

-650121.6184325845 6.491169084347911e6 0.0
6.491169084347911e6 -3.561126559427403e6 0.0
0.0 0.0 0.0

-417043.66737530974 7.738749846813169e6 0.0
7.738749846813169e6 -3.442564715151144e6 0.0
0.0 0.0 0.0

-118289.08064018446 7.2333711748793665e6 0.0
7.2333711748793665e6 -4.282379169926032e6 0.0
0.0 0.0 0.0

-24110.060255761957 7.432345226608718e6 0.0
7.432345226608718e6 -4.568947960678017e6 0.0
0.0 0.0 0.0

-6.9398204065902345e6 1.4128407893825289e7 0.0
1.4128407893825289e7 2.642338607523675e6 0.0
0.0 0.0 0.0

-1.5579624911282854e6 1.0379145860976756e7 0.0
1.0379145860976756e7 -2.4294086123252385e6 0.0
0.0 0.0 0.0

-2.095194006951855e6 1.021475644062826e7 0.0
1.021475644062826e7 3.0975226417151983e6 0.0
0.0 0.0 0.0

-9.510300736570228e6 823149.3968642602 0.0
823149.3968642602 4.697069472693484e6 0.0
0.0 0.0 0.0

-1.9508694071035117e7 1.0857642161240982e7 0.0
1.0857642161240982e7 6.036300156095251e6 0.0
0.0 0.0 0.0

1.156055014615397e6 6.92004756085875e6 0.0
6.92004756085875e6 -6.320541693272036e6 0.0
0.0 0.0 0.0

-270241.4254617061 1.065979168728801e7 0.0
1.065979168728801e7 -2.818627660572911e6 0.0
0.0 0.0 0.0

-2.3319211099914107e6 1.1550719384683412e7 0.0
1.1550719384683412e7 -1.6328580669174432e6 0.0
0.0 0.0 0.0

4.733517571643503e6 2.680971314985137e6 0.0
2.680971314985137e6 -5.106711871383184e6 0.0
0.0 0.0 0.0

-5.003046062478607e6 8.886768257159729e6 0.0
8.886768257159729e6 228203.93467035447 0.0
0.0 0.0 0.0

-1.621418699874128e6 8.719573845815364e6 0.0
8.719573845815364e6 1.678223767685966e6 0.0
0.0 0.0 0.0

-3.5373233105484047e6 5.709082785806612e6 0.0
5.709082785806612e6 6.669492942832289e6 0.0
0.0 0.0 0.0

-4270.650187254054 1.9840730022220693e6 0.0
1.9840730022220693e6 -330924.4643177729 0.0
0.0 0.0 0.0

-663626.8722014257 8.292353838089542e6 0.0
8.292353838089542e6 -3.2366833876035274e6 0.0
0.0 0.0 0.0

-572129.4513218089 6.720015881415197e6 0.0
6.720015881415197e6 -3.2448168960633697e6 0.0
0.0 0.0 0.0

-1.06355720429274e6 4.288950180976463e6 0.0
4.288950180976463e6 -982617.393208491 0.0
0.0 0.0 0.0

-194919.28324367575 1.634587682860132e6 0.0
1.634587682860132e6 -695930.622213143 0.0
0.0 0.0 0.0

-9.872194242245413e6 1.246843324028925e7 0.0
1.246843324028925e7 2.3357848947066378e7 0.0
0.0 0.0 0.0

-6.909120376300333e6 264758.27127444954 0.0
264758.27127444954 7.820664166550841e6 0.0
0.0 0.0 0.0

-5.9112188235305855e6 1.0622857953113295e7 0.0
1.0622857953113295e7 2.4616335424192394e6 0.0
0.0 0.0 0.0

-2.918748524990579e6 7.477398587371199e6 0.0
7.477398587371199e6 181918.12997856748 0.0
0.0 0.0 0.0

-377935.68115379673 7.938235229150467e6 0.0
7.938235229150467e6 -3.7697524030855256e6 0.0
0.0 0.0 0.0

-2.2028816851963187e6 1.0841864970064906e7 0.0
1.0841864970064906e7 -1.0151847811360548e6 0.0
0.0 0.0 0.0

-3.5722399515833664e6 7.559703229280595e6 0.0
7.559703229280595e6 1.493891873513725e6 0.0
0.0 0.0 0.0

-1.0209265846153494e7 1.4029015094560089e7 0.0
1.4029015094560089e7 6.703874162422174e6 0.0
0.0 0.0 0.0

-611830.5063905573 356766.37402503885 0.0
356766.37402503885 -1.610811793738028e6 0.0
0.0 0.0 0.0

-395442.3687405288 2.7378785697146277e6 0.0
2.7378785697146277e6 -286440.09691480966 0.0
0.0 0.0 0.0

-532600.8535681121 9.397984218360588e6 0.0
9.397984218360588e6 -442356.44427418616 0.0
0.0 0.0 0.0

-3.9214688173692147e6 7.833583277873475e6 0.0
7.833583277873475e6 1.6008985329831634e6 0.0
0.0 0.0 0.0

-1.9816900184657476e6 8.586760253841816e6 0.0
8.586760253841816e6 2.2816630990711236e6 0.0
0.0 0.0 0.0

-1.9967694097923222e6 2.9691127498673704e6 0.0
2.9691127498673704e6 1.5804216260461858e6 0.0
0.0 0.0 0.0

-554577.0048845466 8.042285429760227e6 0.0
8.042285429760227e6 -3.3238764984485735e6 0.0
0.0 0.0 0.0

-3.8147643354692794e7 1.0362507431750202e6 0.0
1.0362507431750202e6 9.40548584533932e6 0.0
0.0 0.0 0.0

-2.141307734126953e6 2.5912023514045672e6 0.0
2.5912023514045672e6 1.8198269279841874e6 0.0
0.0 0.0 0.0

-3.8616090251195673e6 7.931690033662804e6 0.0
7.931690033662804e6 1.565537023377313e6 0.0
0.0 0.0 0.0

-835590.9621463235 8.854100755829824e6 0.0
8.854100755829824e6 -2.9351242805350632e6 0.0
0.0 0.0 0.0

-253080.93630614574 7.566122526704577e6 0.0
7.566122526704577e6 -4.603248588596239e6 0.0
0.0 0.0 0.0

-9.763883499986943e6 1.2763838311702745e7 0.0
1.2763838311702745e7 6.120904309001867e6 0.0
0.0 0.0 0.0

-362342.91158917616 7.732220503637229e6 0.0
7.732220503637229e6 -4.407336434345462e6 0.0
0.0 0.0 0.0

-1.2491889511906963e6 1.0175471839749668e7 0.0
1.0175471839749668e7 -2.595519179381867e6 0.0
0.0 0.0 0.0

-359207.29629848065 9.362867979280736e6 0.0
9.362867979280736e6 -479812.8344099448 0.0
0.0 0.0 0.0

-7.828003417413059e6 1.020159535509393e7 0.0
1.020159535509393e7 3.962543449224566e6 0.0
0.0 0.0 0.0

-3.968418410738965e6 7.69845320526224e6 0.0
7.69845320526224e6 1.4298191194718012e6 0.0
0.0 0.0 0.0

-693455.5159384506 8.315180830127005e6 0.0
8.315180830127005e6 -3.154136539523835e6 0.0
0.0 0.0 0.0

-2.2307988181213294e6 9.389582277904334e6 0.0
9.389582277904334e6 -1.5622151491289835e6 0.0
0.0 0.0 0.0

-4.078279629368985e6 8.560050475151908e6 0.0
8.560050475151908e6 1.3117825717521415e6 0.0
0.0 0.0 0.0

-3.791808956357741e6 7.963208250628468e6 0.0
7.963208250628468e6 1.506362946193186e6 0.0
0.0 0.0 0.0

387450.7322855551 1.6350186525019833e6 0.0
1.6350186525019833e6 -523982.1793913448 0.0
0.0 0.0 0.0

-2.6464084527647346e6 5.16756960109352e6 0.0
5.16756960109352e6 1.747529846743319e6 0.0
0.0 0.0 0.0

-438959.113894901 7.891995862656666e6 0.0
7.891995862656666e6 -4.25421755258811e6 0.0
0.0 0.0 0.0

4.1716248162059756e6 8.926269116969272e6 0.0
8.926269116969272e6 -3.9041542604247155e6 0.0
0.0 0.0 0.0

-668621.6386755479 8.227665610748341e6 0.0
8.227665610748341e6 -3.3541232558032745e6 0.0
0.0 0.0 0.0

21359.242534065386 8.0572949588872e6 0.0
8.0572949588872e6 -3.1790661222789497e6 0.0
0.0 0.0 0.0

-3.66219552411759e6 3.069765655943936e6 0.0
3.069765655943936e6 4.446596198214279e6 0.0
0.0 0.0 0.0

-4.5514054230117975e6 6.559163867211198e6 0.0
6.559163867211198e6 1.7008527048745465e6 0.0
0.0 0.0 0.0

-164039.48275732854 7.719795063841922e6 0.0
7.719795063841922e6 -3.5155076933682254e6 0.0
0.0 0.0 0.0

-509250.8153289394 9.282739904258836e6 0.0
9.282739904258836e6 -2.973892187495208e6 0.0
0.0 0.0 0.0

-1.6320824616770094e7 8.441320825480156e6 0.0
8.441320825480156e6 8.824397786041018e6 0.0
0.0 0.0 0.0

-1.3710196983600914e7 -925144.0799365859 0.0
-925144.0799365859 5.910875470955103e6 0.0
0.0 0.0 0.0

-6.6283482966718115e6 1.1177363207644483e7 0.0
1.1177363207644483e7 2.1373059429682377e6 0.0
0.0 0.0 0.0

-1.4864064927506942e7 8.297598245147256e6 0.0
8.297598245147256e6 8.140586669431105e6 0.0
0.0 0.0 0.0

-5.298899214834152e6 2.0350044173123166e7 0.0
2.0350044173123166e7 5.058112591750564e6 0.0
0.0 0.0 0.0

-385225.9889570094 7.54355998650869e6 0.0
7.54355998650869e6 -4.370421980190951e6 0.0
0.0 0.0 0.0

-1.0240315594256718e6 7.596387739246692e6 0.0
7.596387739246692e6 -4.656090822146762e6 0.0
0.0 0.0 0.0

-3.3070847010604776e6 7.656174293664419e6 0.0
7.656174293664419e6 1.4069537421359078e6 0.0
0.0 0.0 0.0

-3.4658220828061784e6 2.886503521883864e6 0.0
2.886503521883864e6 2.770104238996556e6 0.0
0.0 0.0 0.0

-3.489698400669452e6 7.909572472006018e6 0.0
7.909572472006018e6 524493.4192578453 0.0
0.0 0.0 0.0

-696534.8193846962 7.031217404982621e6 0.0
7.031217404982621e6 -346070.8471849883 0.0
0.0 0.0 0.0

-2.5963466827667626e6 6.457380206187224e6 0.0
6.457380206187224e6 -491778.0855466974 0.0
0.0 0.0 0.0

-1.04282785343727e7 1.5444271981173268e7 0.0
1.5444271981173268e7 7.294028122400355e6 0.0
0.0 0.0 0.0

-2.3933800288816122e6 1.099021402772765e7 0.0
1.099021402772765e7 -1.6251434957585146e6 0.0
0.0 0.0 0.0

-9611.29132393084 9.545470950390607e6 0.0
9.545470950390607e6 -2.904783979971555e6 0.0
0.0 0.0 0.0

2.663603626813175e6 4.839651877740011e6 0.0
4.839651877740011e6 -5.931905089010211e6 0.0
0.0 0.0 0.0

-3.567636010643653e6 7.51539972114024e6 0.0
7.51539972114024e6 1.5443505667598187e6 0.0
0.0 0.0 0.0

-2.329411764160548e6 7.873690921777577e6 0.0
7.873690921777577e6 -561737.9825631835 0.0
0.0 0.0 0.0

-1.2449387207029338e6 4.921840889778493e6 0.0
4.921840889778493e6 -1.9562376705954676e6 0.0
0.0 0.0 0.0

-87953.25597701571 7.5407669455585005e6 0.0
7.5407669455585005e6 -4.566437065336494e6 0.0
0.0 0.0 0.0

-2.1909824493277706e6 8.183913441951166e6 0.0
8.183913441951166e6 1.4352093537489907e6 0.0
0.0 0.0 0.0

-2.5676776437634025e6 8.338862072776507e6 0.0
8.338862072776507e6 3.2006995524014267e6 0.0
0.0 0.0 0.0

-728905.8863194329 8.950652179065283e6 0.0
8.950652179065283e6 -541049.7374155654 0.0
0.0 0.0 0.0

-1.7834889307724452e6 1.172805992039096e7 0.0
1.172805992039096e7 -1.31585922691162e6 0.0
0.0 0.0 0.0

-3.4111995528180385e6 7.2043447601829795e6 0.0
7.2043447601829795e6 1.696385776616842e6 0.0
0.0 0.0 0.0

-7.366701420480702e6 -1.0599572445266694e6 0.0
-1.0599572445266694e6 1.0944776125783987e7 0.0
0.0 0.0 0.0

-956451.3771804838 6.988894016608246e6 0.0
6.988894016608246e6 -1.644563962820504e6 0.0
0.0 0.0 0.0

-538640.082960893 9.086836755322512e6 0.0
9.086836755322512e6 -256394.96978871495 0.0
0.0 0.0 0.0

-3.670543717875758e6 7.806363822504267e6 0.0
7.806363822504267e6 1.4798674353001672e6 0.0
0.0 0.0 0.0

-2.9225981823734697e6 5.984394595434262e6 0.0
5.984394595434262e6 1.767668584953036e6 0.0
0.0 0.0 0.0

-708111.3322186327 7.588771398494706e6 0.0
7.588771398494706e6 -2.83126990180192e6 0.0
0.0 0.0 0.0

-5.279304223664381e6 8.855721295238268e6 0.0
8.855721295238268e6 2.2274650440043043e6 0.0
0.0 0.0 0.0

-8.52504778021428e6 1.0784057816505516e7 0.0
1.0784057816505516e7 4.416567251261998e6 0.0
0.0 0.0 0.0

-2.890229482916018e6 7.725376314420089e6 0.0
7.725376314420089e6 222906.6131101919 0.0
0.0 0.0 0.0

-700715.6061337352 8.225897749010073e6 0.0
8.225897749010073e6 -3.068208368972612e6 0.0
0.0 0.0 0.0

-5.687020484374741e6 8.913215714920435e6 0.0
8.913215714920435e6 2.380067823779942e6 0.0
0.0 0.0 0.0

-3.2923604445402278e6 1.0971620643377647e7 0.0
1.0971620643377647e7 -952618.7473915699 0.0
0.0 0.0 0.0

-2.725476958274314e6 8.794482161435246e6 0.0
8.794482161435246e6 3.130942578968163e6 0.0
0.0 0.0 0.0

-2.4610444501259606e6 7.278469191797478e6 0.0
7.278469191797478e6 419609.9646440904 0.0
0.0 0.0 0.0

-4.1006284222627343e6 8.291321061293984e6 0.0
8.291321061293984e6 1.7935349525267917e6 0.0
0.0 0.0 0.0

-3.67857312369405e6 -246190.18102205926 0.0
-246190.18102205926 5.016222304890824e6 0.0
0.0 0.0 0.0

-8.081549023528535e6 1.0478185263013726e7 0.0
1.0478185263013726e7 4.232327208298169e6 0.0
0.0 0.0 0.0

2.655970230855257e6 4.940033196288086e6 0.0
4.940033196288086e6 -6.009237623618842e6 0.0
0.0 0.0 0.0

-5.172683904578521e6 8.89316693630339e6 0.0
8.89316693630339e6 1.4858690131061545e6 0.0
0.0 0.0 0.0

-827893.3908491229 971137.2376296986 0.0
971137.2376296986 1.3420334206708842e6 0.0
0.0 0.0 0.0

-210951.7432719242 7.2595516764781615e6 0.0
7.2595516764781615e6 -3.4406402311149314e6 0.0
0.0 0.0 0.0

-3.4484237843322395e6 7.734050243074717e6 0.0
7.734050243074717e6 740828.3534084861 0.0
0.0 0.0 0.0

-1.3491661672046497e6 9.316317127438024e6 0.0
9.316317127438024e6 -2932.2724105240195 0.0
0.0 0.0 0.0

-2.229437105225235e6 9.153008894837817e6 0.0
9.153008894837817e6 562502.0028655604 0.0
0.0 0.0 0.0

-473850.2976622302 8.388715932447664e6 0.0
8.388715932447664e6 -3.6059446300804964e6 0.0
0.0 0.0 0.0

-4.9295241614827495e6 3.213909230460727e6 0.0
3.213909230460727e6 5.061061540017087e6 0.0
0.0 0.0 0.0

-1.3427676467534094e6 7.152001875617211e6 0.0
7.152001875617211e6 812120.4661814776 0.0
0.0 0.0 0.0

242942.98723009345 6.882602260818303e6 0.0
6.882602260818303e6 -4.243414391567771e6 0.0
0.0 0.0 0.0

-2.0466656457620065e6 9.208646134236058e6 0.0
9.208646134236058e6 2.7189371296380693e6 0.0
0.0 0.0 0.0

-247062.874950147 8.809513875821922e6 0.0
8.809513875821922e6 -5.552275419571813e6 0.0
0.0 0.0 0.0

-2.497900796417188e6 5.496635374794244e6 0.0
5.496635374794244e6 1.1795741229023607e6 0.0
0.0 0.0 0.0

-5.4725823215420265e6 8.87161067065314e6 0.0
8.87161067065314e6 2.33984422746314e6 0.0
0.0 0.0 0.0

-3.149769271230301e6 8.0542844702848615e6 0.0
8.0542844702848615e6 176450.94738919148 0.0
0.0 0.0 0.0

-2.140559465696369e6 9.836750972832693e6 0.0
9.836750972832693e6 -1.2441589418281899e6 0.0
0.0 0.0 0.0

-668121.7367685522 1.0329185778408293e7 0.0
1.0329185778408293e7 -2.6953671472795657e6 0.0
0.0 0.0 0.0

-3.4759811759728547e6 7.5616526783677945e6 0.0
7.5616526783677945e6 1.5146136719201931e6 0.0
0.0 0.0 0.0

-2.6198217813937548e6 7.8009360803275155e6 0.0
7.8009360803275155e6 1.6809251701640657e6 0.0
0.0 0.0 0.0

-2.7937209020199073e6 8.253721293226768e6 0.0
8.253721293226768e6 3.069521648635419e6 0.0
0.0 0.0 0.0

-624373.282105824 7.742109163099662e6 0.0
7.742109163099662e6 -4.0531217638098905e6 0.0
0.0 0.0 0.0

-1.2656978619145376e6 8.522012573072914e6 0.0
8.522012573072914e6 -2.8336308034806577e6 0.0
0.0 0.0 0.0

-1.8136308094059462e6 8.56438317733755e6 0.0
8.56438317733755e6 1.1668198356325072e6 0.0
0.0 0.0 0.0

564251.056104864 7.049276117615742e6 0.0
7.049276117615742e6 -5.346660865360748e6 0.0
0.0 0.0 0.0

-2.0930441439175094e6 8.574891024851698e6 0.0
8.574891024851698e6 661114.7544086296 0.0
0.0 0.0 0.0

-8.991504388868183e6 1.113080606914191e7 0.0
1.113080606914191e7 4.795686402603963e6 0.0
0.0 0.0 0.0

-1.4816493207839378e6 9.026944351981314e6 0.0
9.026944351981314e6 1.8629496793955544e6 0.0
0.0 0.0 0.0

4.348332813133092e6 1.557289505600196e7 0.0
1.557289505600196e7 1.4494420566061247e7 0.0
0.0 0.0 0.0

-1.7017311677771276e6 9.178509763864938e6 0.0
9.178509763864938e6 -5.672435292081873e6 0.0
0.0 0.0 0.0

-2.3411147683172957e6 7.942685357130755e6 0.0
7.942685357130755e6 -611864.8699969497 0.0
0.0 0.0 0.0

-1.2837387443812922e7 7.28536534921079e6 0.0
7.28536534921079e6 7.786252518925584e6 0.0
0.0 0.0 0.0

-4.5278026339262165e6 8.075800454491967e6 0.0
8.075800454491967e6 1.1494635727530823e6 0.0
0.0 0.0 0.0

-1.634973395221698e6 8.774188289142812e6 0.0
8.774188289142812e6 807089.7309940963 0.0
0.0 0.0 0.0

-1.9514540461506061e6 9.063699383827621e6 0.0
9.063699383827621e6 2.5423592843202995e6 0.0
0.0 0.0 0.0

-2.483882701145994e6 1.1669603072902989e7 0.0
1.1669603072902989e7 6.1286034617768265e6 0.0
0.0 0.0 0.0

839324.0655031385 7.167796191802722e6 0.0
7.167796191802722e6 84151.70301754278 0.0
0.0 0.0 0.0

-1.3917354627668252e6 1.0268689086285604e7 0.0
1.0268689086285604e7 2.145809099952718e6 0.0
0.0 0.0 0.0

-2.8098405148537178e6 1.168085188432022e7 0.0
1.168085188432022e7 -1.3968680224779793e6 0.0
0.0 0.0 0.0

-1.0157026536801455e6 9.016208118090365e6 0.0
9.016208118090365e6 655266.121869547 0.0
0.0 0.0 0.0

-1.7602436999750172e6 8.709393275867106e6 0.0
8.709393275867106e6 1.293375710621783e6 0.0
0.0 0.0 0.0

-6.841554055869013e6 1.1150313318211956e7 0.0
1.1150313318211956e7 3.246340226221828e6 0.0
0.0 0.0 0.0

-2.3280056231718506e6 7.609209122202307e6 0.0
7.609209122202307e6 1.600830022572871e6 0.0
0.0 0.0 0.0

797943.1639220838 5.564169493070423e6 0.0
5.564169493070423e6 -4.268677210698533e6 0.0
0.0 0.0 0.0

-1.9066200472415732e6 4.24874504494364e6 0.0
4.24874504494364e6 777752.2680245269 0.0
0.0 0.0 0.0

486620.51479143626 1.5280300709310276e6 0.0
1.5280300709310276e6 -303063.85040626 0.0
0.0 0.0 0.0

-3.0739178332674196e6 7.296697513432581e6 0.0
7.296697513432581e6 2.1630975852203583e6 0.0
0.0 0.0 0.0

-6.011483409189143e6 9.361114686592953e6 0.0
9.361114686592953e6 2.696808497584383e6 0.0
0.0 0.0 0.0

178091.47094083834 1.106983295642936e7 0.0
1.106983295642936e7 4.453895072714717e6 0.0
0.0 0.0 0.0

-1.1160958695689251e6 9.308625403409287e6 0.0
9.308625403409287e6 1.371307587790052e6 0.0
0.0 0.0 0.0

-4.159682546195076e6 8.249450593989041e6 0.0
8.249450593989041e6 1.8935399240617102e6 0.0
0.0 0.0 0.0

5.941975124192232e6 111826.36076369265 0.0
111826.36076369265 -6.581255900054872e6 0.0
0.0 0.0 0.0

-5.37441317215781e6 8.885147244566776e6 0.0
8.885147244566776e6 1.8043366883629092e6 0.0
0.0 0.0 0.0

-354461.36860961874 7.062572022877136e6 0.0
7.062572022877136e6 -3.0682391472348184e6 0.0
0.0 0.0 0.0

-3.9436301169373933e6 7.869407665436355e6 0.0
7.869407665436355e6 1.3152292284012362e6 0.0
0.0 0.0 0.0

-4.065791279349927e6 1.1858685916067274e7 0.0
1.1858685916067274e7 -559288.7710416181 0.0
0.0 0.0 0.0

-2.911228717959827e6 8.289253951067639e6 0.0
8.289253951067639e6 281289.6734793207 0.0
0.0 0.0 0.0

1.7060184315999625e6 6.618011661411388e6 0.0
6.618011661411388e6 -6.103705145287596e6 0.0
0.0 0.0 0.0

1.3428770190005433e6 8.417783994260512e6 0.0
8.417783994260512e6 -2.899812690363389e6 0.0
0.0 0.0 0.0

-5.070671304481059e6 9.934456238404715e6 0.0
9.934456238404715e6 1.852646917611987e6 0.0
0.0 0.0 0.0

-3.5528062580580907e6 9.06671231568058e6 0.0
9.06671231568058e6 251221.81385503942 0.0
0.0 0.0 0.0

-362236.97617701674 8.243631586603638e6 0.0
8.243631586603638e6 -3.712815714564814e6 0.0
0.0 0.0 0.0

427042.0397584124 6.908498704522404e6 0.0
6.908498704522404e6 -4.0065719902929366e6 0.0
0.0 0.0 0.0

-2.8041185625717104e6 7.238319419146304e6 0.0
7.238319419146304e6 519753.0021708844 0.0
0.0 0.0 0.0

-206312.56709382217 7.219218240208172e6 0.0
7.219218240208172e6 -4.581529886449594e6 0.0
0.0 0.0 0.0

-229077.14975189258 1.1153481625482542e6 0.0
1.1153481625482542e6 -628297.9989665621 0.0
0.0 0.0 0.0

-2.69260902679664e6 5.358990289328416e6 0.0
5.358990289328416e6 1.6860092575793588e6 0.0
0.0 0.0 0.0

-4.664573489461621e6 7.446470299200853e6 0.0
7.446470299200853e6 815500.8937527505 0.0
0.0 0.0 0.0

1.2981265423726928e6 7.198037391190393e6 0.0
7.198037391190393e6 -6.715001526458841e6 0.0
0.0 0.0 0.0

-7.252499438710946e6 6.183067072497679e6 0.0
6.183067072497679e6 7.8910492049239185e6 0.0
0.0 0.0 0.0

-1.6124961730026868e6 8.793321448985446e6 0.0
8.793321448985446e6 1.7772671925396495e6 0.0
0.0 0.0 0.0

-4.828262708363192e6 8.1148924374122685e6 0.0
8.1148924374122685e6 4.898587003011237e6 0.0
0.0 0.0 0.0

-3.029117882334893e6 7.766555353876463e6 0.0
7.766555353876463e6 133678.11854203674 0.0
0.0 0.0 0.0

-2.6478497237684205e6 5.328714995485985e6 0.0
5.328714995485985e6 913914.6516029327 0.0
0.0 0.0 0.0

-288999.7656634061 8.210730183692669e6 0.0
8.210730183692669e6 -3.6655187814983795e6 0.0
0.0 0.0 0.0

-1.106003863688833e6 8.382984833535222e6 0.0
8.382984833535222e6 -3.009280431378104e6 0.0
0.0 0.0 0.0

856934.7040592392 7.289172435532866e6 0.0
7.289172435532866e6 -6.0653127023705905e6 0.0
0.0 0.0 0.0

191564.26494115157 1.5730144904412043e6 0.0
1.5730144904412043e6 182914.72322807496 0.0
0.0 0.0 0.0

-4.252476952260152e6 -2.294384636255579e6 0.0
-2.294384636255579e6 5.734648651400496e6 0.0
0.0 0.0 0.0

-3.0120069386306107e6 8.062139646441531e6 0.0
8.062139646441531e6 179383.76601504756 0.0
0.0 0.0 0.0

-1.9647469000422645e6 1.017957272058675e7 0.0
1.017957272058675e7 -1.495461515720013e6 0.0
0.0 0.0 0.0

-4.449002527457785e6 8.924186918854857e6 0.0
8.924186918854857e6 6.761025068249091e6 0.0
0.0 0.0 0.0

-179017.52318289457 8.114833337294807e6 0.0
8.114833337294807e6 -3.5555344782519825e6 0.0
0.0 0.0 0.0

-1.9623931299080977e6 1.17608695860695e7 0.0
1.17608695860695e7 -1.908896233859432e6 0.0
0.0 0.0 0.0

-3.330864999535272e6 7.382103193680919e6 0.0
7.382103193680919e6 1.247642526055188e6 0.0
0.0 0.0 0.0

-441319.9558200289 2.7523238304470624e6 0.0
2.7523238304470624e6 -510966.81046504085 0.0
0.0 0.0 0.0

-8.537810812477123e6 1.7982341664185245e7 0.0
1.7982341664185245e7 6.035185648500541e6 0.0
0.0 0.0 0.0

-607308.4704306561 9.33846163437069e6 0.0
9.33846163437069e6 -2.9752212321313815e6 0.0
0.0 0.0 0.0

7601.206561172614 8.049523738935276e6 0.0
8.049523738935276e6 -5.657831521366984e6 0.0
0.0 0.0 0.0

1.6613487436506087e6 5.7355793962166365e6 0.0
5.7355793962166365e6 -5.331789006243776e6 0.0
0.0 0.0 0.0

-897458.4770807978 9.16504362469655e6 0.0
9.16504362469655e6 -122166.4211526174 0.0
0.0 0.0 0.0

-2.5861413534867894e6 4.917655540422808e6 0.0
4.917655540422808e6 1.8657428490344337e6 0.0
0.0 0.0 0.0

-8.40339702152912e6 106366.61423785031 0.0
106366.61423785031 6.478624894009965e6 0.0
0.0 0.0 0.0

-3.501863906253571e6 9.117999740835248e6 0.0
9.117999740835248e6 1.7212103044012312e6 0.0
0.0 0.0 0.0

-1.215778878846155e6 9.68006287584458e6 0.0
9.68006287584458e6 1.4676957752331225e6 0.0
0.0 0.0 0.0

-463222.40991091647 7.990101474754271e6 0.0
7.990101474754271e6 -3.8500112212537304e6 0.0
0.0 0.0 0.0

-247922.07681461232 3.035488485150423e6 0.0
3.035488485150423e6 -708570.4044859791 0.0
0.0 0.0 0.0

-3.1358990717719137e6 7.088479579174596e6 0.0
7.088479579174596e6 -490726.5170175026 0.0
0.0 0.0 0.0

-963103.4409940441 9.2388687083056e6 0.0
9.2388687083056e6 -206750.5402080556 0.0
0.0 0.0 0.0

-1.1309661282002982e6 9.07233495307008e6 0.0
9.07233495307008e6 695594.6245836699 0.0
0.0 0.0 0.0

-1.7075108565927024e6 9.133170728836644e6 0.0
9.133170728836644e6 -2.422113258261998e6 0.0
0.0 0.0 0.0

-2.0417682344271e6 8.666766116015468e6 0.0
8.666766116015468e6 2.3860619911242174e6 0.0
0.0 0.0 0.0

159251.60553889757 7.417078768300126e6 0.0
7.417078768300126e6 -2.5496317354947086e6 0.0
0.0 0.0 0.0

-1.7043318454395256e6 1.0390989985632345e7 0.0
1.0390989985632345e7 -1.7842346711864693e6 0.0
0.0 0.0 0.0

650679.641192695 9.414798292999636e6 0.0
9.414798292999636e6 -2.7767123591816765e6 0.0
0.0 0.0 0.0

-372952.32851362554 7.389464632175873e6 0.0
7.389464632175873e6 -4.027744397836845e6 0.0
0.0 0.0 0.0

-3.320036422488203e6 6.49133903743781e6 0.0
6.49133903743781e6 2.199930707426726e6 0.0
0.0 0.0 0.0

-2.3351938072145833e6 6.0654069629030395e6 0.0
6.0654069629030395e6 -427499.8073988579 0.0
0.0 0.0 0.0

-1.745943898609042e7 4.0912885141069065e6 0.0
4.0912885141069065e6 8.314447026017317e6 0.0
0.0 0.0 0.0

-5.398059156199137e6 1.0131320079451153e7 0.0
1.0131320079451153e7 8.580854536321625e6 0.0
0.0 0.0 0.0

3.2306756399745974e6 4.7665333794793375e6 0.0
4.7665333794793375e6 -6.08619265642154e6 0.0
0.0 0.0 0.0

-4.306614654267249e6 -2.149667187007866e6 0.0
-2.149667187007866e6 5.21261530954013e6 0.0
0.0 0.0 0.0

170116.9317145734 7.747864063166183e6 0.0
7.747864063166183e6 -5.534726592896589e6 0.0
0.0 0.0 0.0

-193683.76733128587 7.696498850329374e6 0.0
7.696498850329374e6 -4.350289173160528e6 0.0
0.0 0.0 0.0

-1.7976002789516721e6 9.196164883181304e6 0.0
9.196164883181304e6 343232.88805579033 0.0
0.0 0.0 0.0

-9.318489809168737e6 6.68446247413169e6 0.0
6.68446247413169e6 4.899409861781744e6 0.0
0.0 0.0 0.0

-3.4533811205128375e6 7.578482051015963e6 0.0
7.578482051015963e6 3.6999861994746383e6 0.0
0.0 0.0 0.0

-1.450464668012499e6 1.0458528638751445e7 0.0
1.0458528638751445e7 -2.0660705394756421e6 0.0
0.0 0.0 0.0

-4.445934482051073e6 -6.453339402773795e6 0.0
-6.453339402773795e6 1.2563338923299925e7 0.0
0.0 0.0 0.0

-2.4715285409079273e6 4.307655992225886e6 0.0
4.307655992225886e6 1.8163771017917995e6 0.0
0.0 0.0 0.0

1.3962042913716785e6 6.679812107633026e6 0.0
6.679812107633026e6 -6.889332423617157e6 0.0
0.0 0.0 0.0

-5.681372837604596e6 8.986328160803908e6 0.0
8.986328160803908e6 2.5668638504798254e6 0.0
0.0 0.0 0.0

1.4164518638116731e6 6.279964226379015e6 0.0
6.279964226379015e6 -6.777228247959575e6 0.0
0.0 0.0 0.0

-1.802701245521631e7 7.845489520716811e6 0.0
7.845489520716811e6 9.504815566967547e6 0.0
0.0 0.0 0.0

-4.876450984696777e6 -7.286513394842842e6 0.0
-7.286513394842842e6 1.4212058695563165e7 0.0
0.0 0.0 0.0

-202846.03566020494 7.36995661518979e6 0.0
7.36995661518979e6 -3.9755284169643596e6 0.0
0.0 0.0 0.0

-4.1297901350059756e6 7.642844616380987e6 0.0
7.642844616380987e6 896052.1766669643 0.0
0.0 0.0 0.0

-1.4551945244063474e7 8.405214136148708e6 0.0
8.405214136148708e6 2.9531625880254637e6 0.0
0.0 0.0 0.0

1.4040137064661817e6 6.428015877110228e6 0.0
6.428015877110228e6 -6.914082383477217e6 0.0
0.0 0.0 0.0

-3.3769750331486706e6 8.303953304901168e6 0.0
8.303953304901168e6 697081.1242085844 0.0
0.0 0.0 0.0

-3.0627779778378457e6 6.325981427174605e6 0.0
6.325981427174605e6 1.9723801664789233e6 0.0
0.0 0.0 0.0

-1.0388815843878698e6 8.06788030076192e6 0.0
8.06788030076192e6 4.390686860580492e6 0.0
0.0 0.0 0.0

-587986.7329170735 7.890580653667164e6 0.0
7.890580653667164e6 -3.914257754957156e6 0.0
0.0 0.0 0.0

-305060.03180141514 7.850894942997952e6 0.0
7.850894942997952e6 -4.189284553543346e6 0.0
0.0 0.0 0.0

-3.994105771652361e6 8.8471239070754e6 0.0
8.8471239070754e6 -100355.17023946648 0.0
0.0 0.0 0.0

-5.931580719804992e6 9.081525026308479e6 0.0
9.081525026308479e6 2.7186372141473102e6 0.0
0.0 0.0 0.0

-3.7837059058846626e6 3.465126058206313e6 0.0
3.465126058206313e6 4.401379745174604e6 0.0
0.0 0.0 0.0

1.416403308956834e6 6.411698431109157e6 0.0
6.411698431109157e6 -6.502201496241653e6 0.0
0.0 0.0 0.0

-7.517259975412407e6 8.421705643542971e6 0.0
8.421705643542971e6 4.1873109101027497e6 0.0
0.0 0.0 0.0

357348.9752904577 7.589891351189342e6 0.0
7.589891351189342e6 -4.22693916768416e6 0.0
0.0 0.0 0.0

-398641.1683635318 8.381582167567455e6 0.0
8.381582167567455e6 -3.699949093782071e6 0.0
0.0 0.0 0.0

1.337091204665637e6 6.3342093695493005e6 0.0
6.3342093695493005e6 -6.521418014640806e6 0.0
0.0 0.0 0.0

-377982.6290556928 7.997268541602722e6 0.0
7.997268541602722e6 -4.0576506598636545e6 0.0
0.0 0.0 0.0

-7.655323900593555e6 1.8994645997474806e6 0.0
1.8994645997474806e6 8.308577467232653e6 0.0
0.0 0.0 0.0

-314131.8315444357 5.011648164428157e6 0.0
5.011648164428157e6 -1.5926139368842163e6 0.0
0.0 0.0 0.0

-1.716920878957097e6 7.67447165751224e6 0.0
7.67447165751224e6 -1.0130156976257964e6 0.0
0.0 0.0 0.0

-1.505167797788979e6 9.1867109019217e6 0.0
9.1867109019217e6 2.0961392928919515e6 0.0
0.0 0.0 0.0

3.561697360392759e6 5.281012616771836e6 0.0
5.281012616771836e6 -6.354866199299131e6 0.0
0.0 0.0 0.0

-3.3136507724664304e6 7.401967385595336e6 0.0
7.401967385595336e6 1.466128328602579e6 0.0
0.0 0.0 0.0

-101718.70761780583 1.10429048074673e6 0.0
1.10429048074673e6 748028.191080948 0.0
0.0 0.0 0.0

115169.59814684046 7.753094979875351e6 0.0
7.753094979875351e6 -2.792272589570552e6 0.0
0.0 0.0 0.0

-522151.96341119474 7.588099668812378e6 0.0
7.588099668812378e6 -3.8207565944154765e6 0.0
0.0 0.0 0.0

-2.608079350348076e6 7.855817041254018e6 0.0
7.855817041254018e6 1.8646638510716257e6 0.0
0.0 0.0 0.0

-3.5968031872479017e6 9.523965187813884e6 0.0
9.523965187813884e6 3.743186268392545e6 0.0
0.0 0.0 0.0

-778631.5945004864 9.199425388978114e6 0.0
9.199425388978114e6 -324077.3875750623 0.0
0.0 0.0 0.0

-3.472777885743253e6 8.675036401590647e6 0.0
8.675036401590647e6 162038.8738743493 0.0
0.0 0.0 0.0

-3.6882943528564763e6 8.113980538879422e6 0.0
8.113980538879422e6 1.3332356072989965e6 0.0
0.0 0.0 0.0

-1.310866418448596e6 9.241365369007828e6 0.0
9.241365369007828e6 288394.13775939343 0.0
0.0 0.0 0.0

2.632459645290163e6 5.12238029933821e6 0.0
5.12238029933821e6 -440819.55792775843 0.0
0.0 0.0 0.0

-3.2054924026051406e6 -5.315581201716688e6 0.0
-5.315581201716688e6 1.0333963128813682e7 0.0
0.0 0.0 0.0

-244117.27698789578 7.200542979883278e6 0.0
7.200542979883278e6 1.357725353035857e6 0.0
0.0 0.0 0.0

-3.9849017612762447e6 -1.9721187043125967e6 0.0
-1.9721187043125967e6 6.900118722386506e6 0.0
0.0 0.0 0.0

-1.189712253608403e6 9.263401878949763e6 0.0
9.263401878949763e6 -172745.8418577177 0.0
0.0 0.0 0.0

-1.5543015344577268e7 2.683240173529252e6 0.0
2.683240173529252e6 2.0012672920272514e7 0.0
0.0 0.0 0.0

-1.7042846891743913e6 7.214386051498272e6 0.0
7.214386051498272e6 -890040.2146982483 0.0
0.0 0.0 0.0

-141140.98929823283 3.633320316632475e6 0.0
3.633320316632475e6 -2.1275371946403007e6 0.0
0.0 0.0 0.0

-999119.1859042221 2.722393794723734e6 0.0
2.722393794723734e6 -955231.2714987749 0.0
0.0 0.0 0.0

-1.5305126526699737e6 1.0264080573665824e7 0.0
1.0264080573665824e7 -2.0317521934652997e6 0.0
0.0 0.0 0.0

-3.1463455650681723e6 8.611106967565838e6 0.0
8.611106967565838e6 93798.72025657771 0.0
0.0 0.0 0.0

-1.1140840742866723e6 1.0485186343356658e7 0.0
1.0485186343356658e7 -2.2579514016729253e6 0.0
0.0 0.0 0.0

-4.344930996896863e6 3.3029918411227535e6 0.0
3.3029918411227535e6 4.1414856484416174e6 0.0
0.0 0.0 0.0

-415580.6685416681 8.2337918440854745e6 0.0
8.2337918440854745e6 -3.784466933217855e6 0.0
0.0 0.0 0.0

-260142.04686193052 7.241227255532413e6 0.0
7.241227255532413e6 -4.293399770683148e6 0.0
0.0 0.0 0.0

-3.2081310497174053e6 7.488354451640044e6 0.0
7.488354451640044e6 1.4085209598901963e6 0.0
0.0 0.0 0.0

-685267.1149978419 7.787426806306528e6 0.0
7.787426806306528e6 -3.585937372649239e6 0.0
0.0 0.0 0.0

-2.6310952261059225e7 3.9285840271181306e6 0.0
3.9285840271181306e6 9.083265932258712e6 0.0
0.0 0.0 0.0

-1.495610324839881e6 9.041805305354249e6 0.0
9.041805305354249e6 -2.631924664138505e6 0.0
0.0 0.0 0.0

-8.411741685444396e6 9.38183397758205e6 0.0
9.38183397758205e6 4.40073295521179e6 0.0
0.0 0.0 0.0

-216782.0758787235 7.036424423670086e6 0.0
7.036424423670086e6 -1.214297503302157e6 0.0
0.0 0.0 0.0

-3.2122932680354994e6 7.502619447283574e6 0.0
7.502619447283574e6 2.754290206880777e6 0.0
0.0 0.0 0.0

-2.6393339171260484e6 7.908970134563792e6 0.0
7.908970134563792e6 1.8134584566568662e6 0.0
0.0 0.0 0.0

-6.770424505187761e6 1.5229526717497092e7 0.0
1.5229526717497092e7 1.9253264298979584e6 0.0
0.0 0.0 0.0

-1.0356395119104569e6 -912738.2811977429 0.0
-912738.2811977429 3.022921269273045e6 0.0
0.0 0.0 0.0

3.3797545918420083e6 4.854421870434652e6 0.0
4.854421870434652e6 -6.212056057698826e6 0.0
0.0 0.0 0.0

-4.0598400719056735e6 8.267157654675842e6 0.0
8.267157654675842e6 908002.9092131953 0.0
0.0 0.0 0.0

-119725.15671995157 1.693256462519684e6 0.0
1.693256462519684e6 -791859.925716434 0.0
0.0 0.0 0.0

1.7776140762778851e6 6.676563267861104e6 0.0
6.676563267861104e6 -6.121213461607077e6 0.0
0.0 0.0 0.0

-2.8692246914605354e6 -4.660264335617978e6 0.0
-4.660264335617978e6 9.255083340809638e6 0.0
0.0 0.0 0.0

685980.3354171133 2.1445442562993476e6 0.0
2.1445442562993476e6 -421271.9170789793 0.0
0.0 0.0 0.0

-248394.20061591757 7.7141625725277e6 0.0
7.7141625725277e6 -3.5228697815897404e6 0.0
0.0 0.0 0.0

-2.110195055961189e6 -1.799748629100996e6 0.0
-1.799748629100996e6 4.038013109250266e6 0.0
0.0 0.0 0.0

3.554218543889365e6 5.167033219653856e6 0.0
5.167033219653856e6 -6.363674964137696e6 0.0
0.0 0.0 0.0

1.8497815071230647e6 6.700785704172322e6 0.0
6.700785704172322e6 -6.0085765083520515e6 0.0
0.0 0.0 0.0

-2.0981084580153814e6 -4.0427717527737743e6 0.0
-4.0427717527737743e6 8.121185186971932e6 0.0
0.0 0.0 0.0

-2.452657797911055e6 7.4233390673719775e6 0.0
7.4233390673719775e6 1.0514380905509065e6 0.0
0.0 0.0 0.0

-1.5331190129698073e6 1.0014793883394424e7 0.0
1.0014793883394424e7 -2.0615462704493064e6 0.0
0.0 0.0 0.0

-3.890857382598293e6 8.242843553848619e6 0.0
8.242843553848619e6 1.544141035716115e6 0.0
0.0 0.0 0.0

2.2616755759552675e6 6.62525757388857e6 0.0
6.62525757388857e6 -5.96439323801955e6 0.0
0.0 0.0 0.0

-2.0108628180984152e6 -3.2282791138372957e6 0.0
-3.2282791138372957e6 7.232640660970444e6 0.0
0.0 0.0 0.0

-95230.44922347646 7.947723836936786e6 0.0
7.947723836936786e6 -3.3596034398169857e6 0.0
0.0 0.0 0.0

-549586.2575667418 7.991385691944155e6 0.0
7.991385691944155e6 -3.272685846669995e6 0.0
0.0 0.0 0.0

-4.776221671087341e6 8.467275318620183e6 0.0
8.467275318620183e6 1.6196029420551038e6 0.0
0.0 0.0 0.0

-3.0607735500435517e6 7.519483678731183e6 0.0
7.519483678731183e6 118402.69700035639 0.0
0.0 0.0 0.0

-3.1529791131904046e6 8.183453579495492e6 0.0
8.183453579495492e6 3.509972670720384e6 0.0
0.0 0.0 0.0

-3.22779663171265e6 -2.2594861700704624e6 0.0
-2.2594861700704624e6 7.184362260464286e6 0.0
0.0 0.0 0.0

2.3979097602780014e6 6.401584297491513e6 0.0
6.401584297491513e6 -5.770435607222144e6 0.0
0.0 0.0 0.0

-5.586989479470781e6 1.121488904083755e7 0.0
1.121488904083755e7 983087.9754679501 0.0
0.0 0.0 0.0

-4.80472827130099e6 9.979922986367594e6 0.0
9.979922986367594e6 8.2403341806504065e6 0.0
0.0 0.0 0.0

8.94914453117788e6 2.1278117874782827e7 0.0
2.1278117874782827e7 -2.6195865546844147e7 0.0
0.0 0.0 0.0

-1.1763535305153704e6 4.987202089503018e6 0.0
4.987202089503018e6 -1.5718910327601624e6 0.0
0.0 0.0 0.0

-5.372997891384922e6 9.01356754696044e6 0.0
9.01356754696044e6 2.289312578416732e6 0.0
0.0 0.0 0.0

-449236.8222414937 2.4188026368180783e6 0.0
2.4188026368180783e6 -1.3863052646663648e6 0.0
0.0 0.0 0.0

-4.1810613213298395e6 8.55811569990414e6 0.0
8.55811569990414e6 1.6026647563907306e6 0.0
0.0 0.0 0.0

-53882.65961966524 241061.68507301493 0.0
241061.68507301493 -2.164503175919212e6 0.0
0.0 0.0 0.0

-2.3707926347682043e6 1.2749194276233254e7 0.0
1.2749194276233254e7 -2.035247337987789e6 0.0
0.0 0.0 0.0

-2.593031582134348e6 1.0750302073928697e7 0.0
1.0750302073928697e7 -607650.0169017002 0.0
0.0 0.0 0.0

-2.176119157435093e6 4.592355409597896e6 0.0
4.592355409597896e6 482376.75452405796 0.0
0.0 0.0 0.0

-1.0525550519356353e6 9.370083806493059e6 0.0
9.370083806493059e6 -181183.69394321257 0.0
0.0 0.0 0.0

-6.376708407876228e6 -7.688990699092709e6 0.0
-7.688990699092709e6 1.546370428654895e7 0.0
0.0 0.0 0.0

-73068.23617056025 2.911153729551464e6 0.0
2.911153729551464e6 -94758.64950669289 0.0
0.0 0.0 0.0

-365611.12259649404 735159.7878130097 0.0
735159.7878130097 -120343.87815165352 0.0
0.0 0.0 0.0

-573882.148586248 -191262.5564415662 0.0
-191262.5564415662 -157215.2352903395 0.0
0.0 0.0 0.0

-2.4023343951792247e6 1.1108830839360159e7 0.0
1.1108830839360159e7 -778023.9963491006 0.0
0.0 0.0 0.0

96984.1204668833 7.996617946276137e6 0.0
7.996617946276137e6 -5.578948477732294e6 0.0
0.0 0.0 0.0

-2.3320294410377266e6 9.728184394480366e6 0.0
9.728184394480366e6 2.6401882418338596e6 0.0
0.0 0.0 0.0

-921062.4703849532 8.493844924958207e6 0.0
8.493844924958207e6 442888.80790925183 0.0
0.0 0.0 0.0

942141.758935981 5.395295325118195e6 0.0
5.395295325118195e6 -3.8313495502618225e6 0.0
0.0 0.0 0.0

-662846.809899901 6.908118396975873e6 0.0
6.908118396975873e6 -3.5301430979508455e6 0.0
0.0 0.0 0.0

-660458.812271017 9.535327459278127e6 0.0
9.535327459278127e6 -2.8161198088676524e6 0.0
0.0 0.0 0.0

30243.549862989457 7.570925641018007e6 0.0
7.570925641018007e6 -5.022468518799379e6 0.0
0.0 0.0 0.0

-5.0894707456910545e6 8.82910713818904e6 0.0
8.82910713818904e6 1.8568173142904544e6 0.0
0.0 0.0 0.0

-2.89022359296347e6 7.508967415344834e6 0.0
7.508967415344834e6 2.644892509640118e6 0.0
0.0 0.0 0.0

-232395.15291676507 7.3009371513895355e6 0.0
7.3009371513895355e6 -3.3912894921917804e6 0.0
0.0 0.0 0.0

42319.97808883316 7.497575631124905e6 0.0
7.497575631124905e6 -2.1378928815090912e6 0.0
0.0 0.0 0.0

-596842.2078554117 7.45349073627925e6 0.0
7.45349073627925e6 -4.325509885062342e6 0.0
0.0 0.0 0.0

-1.2076786040483091e7 4.0451379156754045e6 0.0
4.0451379156754045e6 7.366503783883564e6 0.0
0.0 0.0 0.0

-8.136665399632078e6 1.5747627000259921e7 0.0
1.5747627000259921e7 4.0378608657813277e6 0.0
0.0 0.0 0.0

-243451.3429947129 3.580985205060518e6 0.0
3.580985205060518e6 -641770.1935759456 0.0
0.0 0.0 0.0

-120085.13850108575 3.517243481260684e6 0.0
3.517243481260684e6 -1.501848935373475e6 0.0
0.0 0.0 0.0

-2.918831164015375e6 7.253878170179737e6 0.0
7.253878170179737e6 1.955800499172722e6 0.0
0.0 0.0 0.0

-4.22204153262437e6 7.80847757414033e6 0.0
7.80847757414033e6 817685.5852291386 0.0
0.0 0.0 0.0

-5.930076940333134e6 9.118824026103962e6 0.0
9.118824026103962e6 2.718644160841262e6 0.0
0.0 0.0 0.0

-4.491997510104513e6 8.731974558977392e6 0.0
8.731974558977392e6 1.7507583943536833e6 0.0
0.0 0.0 0.0

2.106832978845723e6 7.171962359685516e6 0.0
7.171962359685516e6 -433762.5798799846 0.0
0.0 0.0 0.0

222745.44520325796 1.0007713659492932e7 0.0
1.0007713659492932e7 -2.9803258047703635e6 0.0
0.0 0.0 0.0

-5.381076138842391e6 1.0446753944071129e7 0.0
1.0446753944071129e7 8.45017466310652e6 0.0
0.0 0.0 0.0

-1.5122698920999072e7 9.018858245377136e6 0.0
9.018858245377136e6 4.930347474305942e6 0.0
0.0 0.0 0.0

-3.413649288194068e7 8.696335718358906e6 0.0
8.696335718358906e6 2.417591063459227e7 0.0
0.0 0.0 0.0

-1.78470055826624e6 4.373395726438621e6 0.0
4.373395726438621e6 -63781.638144035125 0.0
0.0 0.0 0.0

-1.901071801658867e6 8.41437634767537e6 0.0
8.41437634767537e6 1.081675739786492e6 0.0
0.0 0.0 0.0

498356.67904221313 7.530937656559885e6 0.0
7.530937656559885e6 -3.6192167979942746e6 0.0
0.0 0.0 0.0

-2.229427676000715e6 4.500006688680822e6 0.0
4.500006688680822e6 1.601325417626848e6 0.0
0.0 0.0 0.0

326479.24725796684 1.7707473603162915e6 0.0
1.7707473603162915e6 -965414.195668365 0.0
0.0 0.0 0.0

-1.19007931669138e6 7.4718491314512715e6 0.0
7.4718491314512715e6 2.6391398465523664e6 0.0
0.0 0.0 0.0

-52189.99630538095 7.54314699737398e6 0.0
7.54314699737398e6 -5.026173106272435e6 0.0
0.0 0.0 0.0

871323.3174127394 6.421962872778248e6 0.0
6.421962872778248e6 -4.259124919883775e6 0.0
0.0 0.0 0.0

1.2964398289055876e6 7.329306143608756e6 0.0
7.329306143608756e6 -1.271257970082968e6 0.0
0.0 0.0 0.0

-1.008256004464673e7 -3.8697970667075356e6 0.0
-3.8697970667075356e6 3.127574828822326e7 0.0
0.0 0.0 0.0

-4.572025958584423e6 8.495088250562163e6 0.0
8.495088250562163e6 2.0490035888520728e6 0.0
0.0 0.0 0.0

-4.577008583706345e6 7.620418898583738e6 0.0
7.620418898583738e6 450893.97617013566 0.0
0.0 0.0 0.0

-2.3485590232982947e6 1.050097695349374e7 0.0
1.050097695349374e7 -942589.4496643163 0.0
0.0 0.0 0.0

-232095.88306463047 2.4857920139277196e6 0.0
2.4857920139277196e6 -27723.5056321793 0.0
0.0 0.0 0.0

-694981.607947761 6.7921528212674195e6 0.0
6.7921528212674195e6 -944978.7242938759 0.0
0.0 0.0 0.0

176330.9600863621 1.4021474495229176e6 0.0
1.4021474495229176e6 256867.89330679536 0.0
0.0 0.0 0.0

1.1339214133881605e6 7.872904410657882e6 0.0
7.872904410657882e6 -1.9303046878680633e6 0.0
0.0 0.0 0.0

-3.514646081732113e6 8.044009334524192e6 0.0
8.044009334524192e6 580316.2584073723 0.0
0.0 0.0 0.0

1.1985617808922809e6 5.851486885831858e6 0.0
5.851486885831858e6 -4.622015069437756e6 0.0
0.0 0.0 0.0

-3.431005335867452e6 7.408026512609896e6 0.0
7.408026512609896e6 1.2170078704308486e6 0.0
0.0 0.0 0.0

1.4675182835226152e6 5.506705618175408e6 0.0
5.506705618175408e6 -2.8090554491414e6 0.0
0.0 0.0 0.0

-1.055283368351388e6 8.683217519759396e6 0.0
8.683217519759396e6 -3.20915250154406e6 0.0
0.0 0.0 0.0

-7.732488914652081e6 8.715621777548337e6 0.0
8.715621777548337e6 4.520917945707506e6 0.0
0.0 0.0 0.0

-424964.14767956844 6.037155772530699e6 0.0
6.037155772530699e6 -2.8111166437403476e6 0.0
0.0 0.0 0.0

-3.633207698403632e6 8.90117696897666e6 0.0
8.90117696897666e6 -484172.2833382905 0.0
0.0 0.0 0.0

-6.528217779907999e6 9.036530022850988e6 0.0
9.036530022850988e6 3.342339652670774e6 0.0
0.0 0.0 0.0

-3.6244487765677148e6 7.913626837732145e6 0.0
7.913626837732145e6 1.5368961678617632e6 0.0
0.0 0.0 0.0

-4.178386611987396e6 8.626695520397678e6 0.0
8.626695520397678e6 1.5662921321179422e6 0.0
0.0 0.0 0.0

-7.45002714662862e6 9.906086879984608e6 0.0
9.906086879984608e6 3.7864835350665012e6 0.0
0.0 0.0 0.0

-2.715451027235747e6 9.016025141230272e6 0.0
9.016025141230272e6 -682882.2977544877 0.0
0.0 0.0 0.0

-8.8834863667612e6 9.183130828502625e6 0.0
9.183130828502625e6 5.135363021914669e6 0.0
0.0 0.0 0.0

-1.0516059930918475e6 3.7197919370409027e6 0.0
3.7197919370409027e6 -515665.30689369823 0.0
0.0 0.0 0.0

-1.5979481056328176e6 6.3675448652938865e6 0.0
6.3675448652938865e6 -2.4607098076948137e6 0.0
0.0 0.0 0.0

-321616.8069476497 3.0346122048412245e6 0.0
3.0346122048412245e6 -682832.7028787949 0.0
0.0 0.0 0.0

-3.905473162398838e6 7.599660059103289e6 0.0
7.599660059103289e6 1.0405569921400102e6 0.0
0.0 0.0 0.0

-5.700648729059922e6 -1.233298642334276e6 0.0
-1.233298642334276e6 6.098302600306384e6 0.0
0.0 0.0 0.0

-6.102656579133554e6 1.1238867415165924e7 0.0
1.1238867415165924e7 1.5417148579729432e6 0.0
0.0 0.0 0.0

-783369.6838184665 8.57828693643597e6 0.0
8.57828693643597e6 -3.0439085121461153e6 0.0
0.0 0.0 0.0

-636199.4293565324 7.403063397708304e6 0.0
7.403063397708304e6 -375843.711853287 0.0
0.0 0.0 0.0

-2.450312159301174e6 5.926975536293421e6 0.0
5.926975536293421e6 -769525.7950102856 0.0
0.0 0.0 0.0

-93199.9960015642 7.381111803525353e6 0.0
7.381111803525353e6 -4.282471825615632e6 0.0
0.0 0.0 0.0

5.220297107634135e6 -284845.2886286405 0.0
-284845.2886286405 -7.305564557853524e6 0.0
0.0 0.0 0.0

-2.1339023540973747e6 1.1431213862089626e7 0.0
1.1431213862089626e7 -1.0056044242466872e6 0.0
0.0 0.0 0.0

-683309.128609802 9.350904345661674e6 0.0
9.350904345661674e6 -168420.23355721548 0.0
0.0 0.0 0.0

-2.996382114206656e6 7.201478089049367e6 0.0
7.201478089049367e6 70305.13173895434 0.0
0.0 0.0 0.0

1.5932573594408645e6 6.5415989723145375e6 0.0
6.5415989723145375e6 -6.376879726849902e6 0.0
0.0 0.0 0.0

-582949.1607701336 3.257387608297588e6 0.0
3.257387608297588e6 -724093.2115498616 0.0
0.0 0.0 0.0

1.132946283342837e6 6.609479733903671e6 0.0
6.609479733903671e6 -6.506221124735196e6 0.0
0.0 0.0 0.0

-192779.75816530912 1.8881400235811411e6 0.0
1.8881400235811411e6 -500469.3527379982 0.0
0.0 0.0 0.0

-3.46854495491686e6 7.878627139541712e6 0.0
7.878627139541712e6 524157.32354819775 0.0
0.0 0.0 0.0

-773493.2845685352 9.343346931265965e6 0.0
9.343346931265965e6 -204374.23331652465 0.0
0.0 0.0 0.0

-215149.3180452482 7.377633365759738e6 0.0
7.377633365759738e6 -1.2800799386041602e6 0.0
0.0 0.0 0.0

-1.6713915573790576e6 4.390433505543944e6 0.0
4.390433505543944e6 309623.4468783273 0.0
0.0 0.0 0.0

1.1016797570505077e6 1.747936355487664e6 0.0
1.747936355487664e6 -941791.7394786954 0.0
0.0 0.0 0.0

-3.1422129908374147e6 1.1544356993688183e7 0.0
1.1544356993688183e7 -72384.03856236511 0.0
0.0 0.0 0.0

-3.812627910531591e6 8.157160601665502e6 0.0
8.157160601665502e6 4.5190845180427255e6 0.0
0.0 0.0 0.0

-96107.84173339768 6.812235968090324e6 0.0
6.812235968090324e6 -3.860474425253949e6 0.0
0.0 0.0 0.0

193841.3266170852 1.212444903186842e6 0.0
1.212444903186842e6 260663.6888153438 0.0
0.0 0.0 0.0

-1.6724939877963632e6 7.602136079329244e6 0.0
7.602136079329244e6 1.5321863746766797e6 0.0
0.0 0.0 0.0

-6.3249974345300095e6 7.011419905458737e6 0.0
7.011419905458737e6 1.0039737073826086e7 0.0
0.0 0.0 0.0

-1.1121559977653176e6 7.350171144141979e6 0.0
7.350171144141979e6 1.827289548092126e6 0.0
0.0 0.0 0.0

153068.78818234988 7.811318873600157e6 0.0
7.811318873600157e6 -5.5537961642679395e6 0.0
0.0 0.0 0.0

-2.5331837429257547e6 8.316350381162184e6 0.0
8.316350381162184e6 2.775087073117769e6 0.0
0.0 0.0 0.0

-1.1568325894811791e6 8.835952988387462e6 0.0
8.835952988387462e6 1.1563894695603913e6 0.0
0.0 0.0 0.0

-1.3667654004805381e6 1.0606103510032153e7 0.0
1.0606103510032153e7 -2.10089747735101e6 0.0
0.0 0.0 0.0

-1.877829813984875e6 9.228407365952404e6 0.0
9.228407365952404e6 311512.34203697625 0.0
0.0 0.0 0.0

676609.1586151896 6.793969968730449e6 0.0
6.793969968730449e6 -5.80638252774878e6 0.0
0.0 0.0 0.0

882136.434119632 6.791677640710903e6 0.0
6.791677640710903e6 -6.032614716190929e6 0.0
0.0 0.0 0.0

-2.168595830514753e6 5.846901654031041e6 0.0
5.846901654031041e6 -645189.9523599131 0.0
0.0 0.0 0.0

-4.625898601263372e6 5.527410226210669e6 0.0
5.527410226210669e6 6.529676992245516e6 0.0
0.0 0.0 0.0

-1.8569511463847596e6 1.0131381497283079e7 0.0
1.0131381497283079e7 -2.2408128757057753e6 0.0
0.0 0.0 0.0

-9.049921937398674e6 -3.4191210275073084e6 0.0
-3.4191210275073084e6 1.5294453597341035e7 0.0
0.0 0.0 0.0

431096.819653637 4.762401970325375e6 0.0
4.762401970325375e6 -3.2674897186764367e6 0.0
0.0 0.0 0.0

-7.372773801965015e6 7.90406765346912e6 0.0
7.90406765346912e6 3.5024394837594375e7 0.0
0.0 0.0 0.0

1.672519730194461e6 6.638797718008928e6 0.0
6.638797718008928e6 -6.2022046054462725e6 0.0
0.0 0.0 0.0

-2.8659833578512394e6 9.642736284682406e6 0.0
9.642736284682406e6 -474159.9476296221 0.0
0.0 0.0 0.0

-1.960666304931865e6 7.560614679773857e6 0.0
7.560614679773857e6 2.258167714922264e6 0.0
0.0 0.0 0.0

-82141.82370087248 7.8455170492659025e6 0.0
7.8455170492659025e6 -5.376265202503513e6 0.0
0.0 0.0 0.0

-1.321068791309706e6 5.92761191412793e6 0.0
5.92761191412793e6 2.490029959424483e6 0.0
0.0 0.0 0.0

-1.322420619472893e6 9.210670545180785e6 0.0
9.210670545180785e6 293502.49832435074 0.0
0.0 0.0 0.0

-2.3726256632195823e6 7.859368347504308e6 0.0
7.859368347504308e6 2.342803185741415e6 0.0
0.0 0.0 0.0

-2.9469535605834164e6 6.290373557565831e6 0.0
6.290373557565831e6 1.3660842529384713e6 0.0
0.0 0.0 0.0

-2.3107084760717847e6 8.136794794874546e6 0.0
8.136794794874546e6 1.2054275370056494e6 0.0
0.0 0.0 0.0

-1.7161366876880543e6 4.821795728235245e6 0.0
4.821795728235245e6 -2.0665498409861322e6 0.0
0.0 0.0 0.0

-4.484706729651778e6 3.6355787677653804e6 0.0
3.6355787677653804e6 3.7263355192671344e6 0.0
0.0 0.0 0.0

182981.67573014763 7.678891621766452e6 0.0
7.678891621766452e6 -5.433227439397245e6 0.0
0.0 0.0 0.0

-1.1525705057954562e6 8.705943505330998e6 0.0
8.705943505330998e6 750080.2731915861 0.0
0.0 0.0 0.0

-2.384929926734183e6 8.3603976602284815e6 0.0
8.3603976602284815e6 593125.8876971713 0.0
0.0 0.0 0.0

-1.1512825329459975e6 4.876254473458343e6 0.0
4.876254473458343e6 -1.3598158679395264e6 0.0
0.0 0.0 0.0

-1.4869713250357406e7 -1.5436403663302918e6 0.0
-1.5436403663302918e6 3.0017596454036202e7 0.0
0.0 0.0 0.0

-181.39878699579276 8.185194328310413e6 0.0
8.185194328310413e6 -5.599638621793697e6 0.0
0.0 0.0 0.0

-2.6197322876393404e6 8.261403984038855e6 0.0
8.261403984038855e6 3.664501403582192e6 0.0
0.0 0.0 0.0

-6.101947564320904e6 9.201176509611595e6 0.0
9.201176509611595e6 2.7749658161453474e6 0.0
0.0 0.0 0.0

323369.0970288798 9.648402725177363e6 0.0
9.648402725177363e6 3.7555343296368313e6 0.0
0.0 0.0 0.0

-4.144837553331848e6 8.699359972140636e6 0.0
8.699359972140636e6 6.169480180943018e6 0.0
0.0 0.0 0.0

-3.0648646528810076e6 6.78315377687437e6 0.0
6.78315377687437e6 2.629277919509e6 0.0
0.0 0.0 0.0

-1.4053304600934838e6 7.017955846561744e6 0.0
7.017955846561744e6 -2.281537923196265e6 0.0
0.0 0.0 0.0

-1.5869941725883204e6 8.40030053021385e6 0.0
8.40030053021385e6 515954.1535585867 0.0
0.0 0.0 0.0

-2.4576146006859196e6 5.07144940532444e6 0.0
5.07144940532444e6 673106.3298775177 0.0
0.0 0.0 0.0

-2.1191832387850233e6 4.789624108353007e6 0.0
4.789624108353007e6 829480.9027633204 0.0
0.0 0.0 0.0

543486.2757849074 6.198100495942341e6 0.0
6.198100495942341e6 -4.358835019452024e6 0.0
0.0 0.0 0.0

-3.4403166238369737e6 7.509011919907063e6 0.0
7.509011919907063e6 1.6257970591465754e6 0.0
0.0 0.0 0.0

-375148.89815861196 6.767646882238299e6 0.0
6.767646882238299e6 -3.298560655323958e6 0.0
0.0 0.0 0.0

1.148406716373103e6 6.628928019929775e6 0.0
6.628928019929775e6 -3.8958377943241154e6 0.0
0.0 0.0 0.0

-5.928460093499102e6 1.0426727523520337e7 0.0
1.0426727523520337e7 1.596521826368711e6 0.0
0.0 0.0 0.0

-2.825340292629202e6 7.797106259200932e6 0.0
7.797106259200932e6 3.2630011766304043e6 0.0
0.0 0.0 0.0

-6.81476413594709e6 -2.1571526328173443e6 0.0
-2.1571526328173443e6 9.783485535666263e6 0.0
0.0 0.0 0.0

50912.13385339442 7.783635033720225e6 0.0
7.783635033720225e6 840299.2748141689 0.0
0.0 0.0 0.0

564376.2075359276 7.600122184615141e6 0.0
7.600122184615141e6 -701179.4008722026 0.0
0.0 0.0 0.0

-781186.4566622025 9.206054632851329e6 0.0
9.206054632851329e6 -3.090624384483731e6 0.0
0.0 0.0 0.0

1.495964004509415e6 6.111952643776898e6 0.0
6.111952643776898e6 -6.64600610416113e6 0.0
0.0 0.0 0.0

-403803.0960465645 9.023602015681526e6 0.0
9.023602015681526e6 -15152.569627006014 0.0
0.0 0.0 0.0

-921862.2582623778 9.61955973372669e6 0.0
9.61955973372669e6 -2.934568918313722e6 0.0
0.0 0.0 0.0

-1.14403880459648e6 7.366131159848142e6 0.0
7.366131159848142e6 111067.7634188626 0.0
0.0 0.0 0.0

-372615.6990554321 3.2261511668349123e6 0.0
3.2261511668349123e6 -981910.1103485595 0.0
0.0 0.0 0.0

65944.02717536548 1.585506571612977e6 0.0
1.585506571612977e6 -847801.1014552622 0.0
0.0 0.0 0.0

-2.3463836937635113e6 8.356361874500212e6 0.0
8.356361874500212e6 143753.13328047213 0.0
0.0 0.0 0.0

-445454.8135231612 7.813513264658533e6 0.0
7.813513264658533e6 -3.585953147761591e6 0.0
0.0 0.0 0.0

-477506.7164971052 8.015804772337471e6 0.0
8.015804772337471e6 -3.939683387554355e6 0.0
0.0 0.0 0.0

-1.2941529500728315e7 -5.431106961612829e6 0.0
-5.431106961612829e6 2.9231695862610575e7 0.0
0.0 0.0 0.0

-9.18259718933864e6 8.964891834060721e6 0.0
8.964891834060721e6 5.183000635623224e6 0.0
0.0 0.0 0.0

-1.095304790427772e6 3.081241639739932e6 0.0
3.081241639739932e6 -368260.67680733395 0.0
0.0 0.0 0.0

-842290.9855645087 9.38454433693658e6 0.0
9.38454433693658e6 -259142.71770011555 0.0
0.0 0.0 0.0

-1.733882811055206e6 7.769299451003396e6 0.0
7.769299451003396e6 1.2380602510392196e6 0.0
0.0 0.0 0.0

-3.8808343199129635e6 4.635756554774853e6 0.0
4.635756554774853e6 4.984839904706834e6 0.0
0.0 0.0 0.0

-3.7923260372981397e6 7.692886616822209e6 0.0
7.692886616822209e6 446365.16859099874 0.0
0.0 0.0 0.0

-201288.63440357696 7.491265249365768e6 0.0
7.491265249365768e6 249832.9856417309 0.0
0.0 0.0 0.0

-1.3997313684588838e6 7.737489802342755e6 0.0
7.737489802342755e6 1.2250619020842006e6 0.0
0.0 0.0 0.0

-1.0513902951146062e6 9.315537930652738e6 0.0
9.315537930652738e6 -2.6820310664055957e6 0.0
0.0 0.0 0.0

-886107.903310851 1.1308690452678008e6 0.0
1.1308690452678008e6 -2.255165226643226e6 0.0
0.0 0.0 0.0

-596831.861596127 8.809826012037454e6 0.0
8.809826012037454e6 -3.1787439071966056e6 0.0
0.0 0.0 0.0

-2.827218665857498e6 9.356968774034578e6 0.0
9.356968774034578e6 -1.2060535478028578e6 0.0
0.0 0.0 0.0

-3.484947490686951e6 7.99166388877361e6 0.0
7.99166388877361e6 1.0882184976374288e6 0.0
0.0 0.0 0.0

-1.6187762015022086e6 1.099473404317705e7 0.0
1.099473404317705e7 -1.762951107324997e6 0.0
0.0 0.0 0.0

-1.629765472070353e6 1.0744520663840216e7 0.0
1.0744520663840216e7 -1.9612385519864159e6 0.0
0.0 0.0 0.0

1.2578091413835515e6 5.996664279016675e6 0.0
5.996664279016675e6 -5.430690555446956e6 0.0
0.0 0.0 0.0

18878.278435418993 7.362142079249339e6 0.0
7.362142079249339e6 -672944.4803060214 0.0
0.0 0.0 0.0

-3.2281791845197794e6 9.083670877859917e6 0.0
9.083670877859917e6 -752617.809543739 0.0
0.0 0.0 0.0

-1.6375447822804812e6 3.783025061960511e6 0.0
3.783025061960511e6 458348.69177551253 0.0
0.0 0.0 0.0

-1.8922800715613667e7 1.3033034984688591e7 0.0
1.3033034984688591e7 3.3468822995612686e6 0.0
0.0 0.0 0.0

9.139974722575454e6 2.0110529994391587e7 0.0
2.0110529994391587e7 3.046672378593102e7 0.0
0.0 0.0 0.0

-1.961680242672026e6 9.731000649414461e6 0.0
9.731000649414461e6 -6.538942581161793e6 0.0
0.0 0.0 0.0

-2.89835173051951e6 7.628926250694842e6 0.0
7.628926250694842e6 2.9439900579075543e6 0.0
0.0 0.0 0.0

-956262.6447322896 8.209513328493735e6 0.0
8.209513328493735e6 -3.196015335172923e6 0.0
0.0 0.0 0.0

-2.8654797146019656e6 8.01893816442121e6 0.0
8.01893816442121e6 1.1761549324867832e6 0.0
0.0 0.0 0.0

-9.800160477922285e6 1.2270615256094992e7 0.0
1.2270615256094992e7 4.919183330771163e6 0.0
0.0 0.0 0.0

-554264.9813347928 8.194651918895991e6 0.0
8.194651918895991e6 -3.9478645937465806e6 0.0
0.0 0.0 0.0

-2.7515024495922914e6 9.186179475295339e6 0.0
9.186179475295339e6 1.0497384652603124e6 0.0
0.0 0.0 0.0

-2.236002916499161e6 4.0170939043972017e6 0.0
4.0170939043972017e6 1.0220246913010646e6 0.0
0.0 0.0 0.0

-4.584197954664921e6 8.209592471409714e6 0.0
8.209592471409714e6 1.563957756802507e6 0.0
0.0 0.0 0.0

-160589.51802770537 7.595618782574856e6 0.0
7.595618782574856e6 -4.754765317527321e6 0.0
0.0 0.0 0.0

-1.8131583988149546e6 9.2031505721154e6 0.0
9.2031505721154e6 696251.6561739425 0.0
0.0 0.0 0.0

-3.2167494781958438e6 6.269774830274213e6 0.0
6.269774830274213e6 1.4543458544245304e6 0.0
0.0 0.0 0.0

2.209043139066655e6 1.0789070004371254e7 0.0
1.0789070004371254e7 -4.217016218999714e6 0.0
0.0 0.0 0.0

-223246.96711175595 7.089436487189574e6 0.0
7.089436487189574e6 -666049.9167306967 0.0
0.0 0.0 0.0

-3.088309369017585e6 6.72597961719795e6 0.0
6.72597961719795e6 2.88372095562842e6 0.0
0.0 0.0 0.0

-5.477665746778334e6 7.710511324057295e6 0.0
7.710511324057295e6 25529.160496047465 0.0
0.0 0.0 0.0

-642619.3670405574 7.282166864164749e6 0.0
7.282166864164749e6 -849000.8662916598 0.0
0.0 0.0 0.0

-6.100338267572724e6 1.0856051229722047e7 0.0
1.0856051229722047e7 1.7579700954502318e6 0.0
0.0 0.0 0.0

-1.582901100907165e6 1.2505310655510059e7 0.0
1.2505310655510059e7 -1.661757892469649e6 0.0
0.0 0.0 0.0

-1.091886689360811e6 6.840284210678173e6 0.0
6.840284210678173e6 -2.5446365027996404e6 0.0
0.0 0.0 0.0

-3.231255255587016e6 7.6608520822685035e6 0.0
7.6608520822685035e6 4.400668691887156e6 0.0
0.0 0.0 0.0

-1.1001333963248814e6 9.03203948629001e6 0.0
9.03203948629001e6 -3.074548894382026e6 0.0
0.0 0.0 0.0

-2.1064078572196728e6 7.778060436980959e6 0.0
7.778060436980959e6 -810769.9957425969 0.0
0.0 0.0 0.0

-2.604732420329637e6 4.966884730885119e6 0.0
4.966884730885119e6 1.0180824655163394e6 0.0
0.0 0.0 0.0

-274590.37342432723 2.825080517362228e6 0.0
2.825080517362228e6 -1.3771231231483747e6 0.0
0.0 0.0 0.0

-647991.6907694001 9.239434308793085e6 0.0
9.239434308793085e6 -97769.04749389365 0.0
0.0 0.0 0.0

-3.4202011641879976e6 1.1764317475937478e7 0.0
1.1764317475937478e7 -1.0505410810001984e6 0.0
0.0 0.0 0.0

768682.0955819851 7.657675710233891e6 0.0
7.657675710233891e6 -6.294596833616313e6 0.0
0.0 0.0 0.0

-1.4764612868916327e6 3.880815559238508e6 0.0
3.880815559238508e6 235620.17809219897 0.0
0.0 0.0 0.0

-6.462990482428612e6 1.5947283663310451e7 0.0
1.5947283663310451e7 613500.6044247365 0.0
0.0 0.0 0.0

970583.7845885986 6.769956670449058e6 0.0
6.769956670449058e6 -5.744362807983415e6 0.0
0.0 0.0 0.0

-665783.1454813721 9.253494900503956e6 0.0
9.253494900503956e6 -176131.21813479887 0.0
0.0 0.0 0.0

-2.7974927555270833e6 1.1010307413163183e7 0.0
1.1010307413163183e7 -1.2779381652973467e6 0.0
0.0 0.0 0.0

-4.793027658199109e6 1.4551710980434578e7 0.0
1.4551710980434578e7 6.606164322837616e7 0.0
0.0 0.0 0.0

310601.2515447028 9.563834919745725e6 0.0
9.563834919745725e6 -9.540283241596635e6 0.0
0.0 0.0 0.0

2.2931912590950755e6 9.950855834931191e6 0.0
9.950855834931191e6 2.9705932748707845e6 0.0
0.0 0.0 0.0

-809066.2032567186 1.2460303113513283e7 0.0
1.2460303113513283e7 -2.633320245172211e6 0.0
0.0 0.0 0.0

-1.03115286619919e6 4.710782282627682e6 0.0
4.710782282627682e6 -1.3760783025979893e6 0.0
0.0 0.0 0.0

-2.9302755813286966e6 1.5736640477911627e7 0.0
1.5736640477911627e7 -855721.1004175948 0.0
0.0 0.0 0.0

-1.6126171296427506e6 8.710775602597686e6 0.0
8.710775602597686e6 1.412242259982102e6 0.0
0.0 0.0 0.0

2.052535473841283e6 1.0567192413649404e7 0.0
1.0567192413649404e7 -3.986728323807841e6 0.0
0.0 0.0 0.0

-3.2350590359750446e6 6.984018364980853e6 0.0
6.984018364980853e6 1.2468392089038633e6 0.0
0.0 0.0 0.0

-1.67036960123857e6 4.592335613527731e6 0.0
4.592335613527731e6 240069.20439668675 0.0
0.0 0.0 0.0

-625491.5807096136 2.3654467466110913e6 0.0
2.3654467466110913e6 -1.2790780750602933e6 0.0
0.0 0.0 0.0

-3.5532300305035897e6 7.975558522772699e6 0.0
7.975558522772699e6 4.748514594640631e6 0.0
0.0 0.0 0.0

-4.628245569788945e6 8.831857577809056e6 0.0
8.831857577809056e6 1.0981437034066995e6 0.0
0.0 0.0 0.0

-2.9445652899269783e6 7.835773166810496e6 0.0
7.835773166810496e6 3.367300287707071e6 0.0
0.0 0.0 0.0

-3.330754221642251e6 7.83933488044796e6 0.0
7.83933488044796e6 1.3822668907681948e6 0.0
0.0 0.0 0.0

-3.025177744727566e6 6.948482972040042e6 0.0
6.948482972040042e6 1.2678151207332711e6 0.0
0.0 0.0 0.0

-447566.107690801 7.384685697489443e6 0.0
7.384685697489443e6 -3.6453841495326124e6 0.0
0.0 0.0 0.0

-2.9369578568646964e6 8.266603248229977e6 0.0
8.266603248229977e6 4.17308866115175e6 0.0
0.0 0.0 0.0

-3.3789283502775645e6 7.142201226975032e6 0.0
7.142201226975032e6 1.7204168344705163e6 0.0
0.0 0.0 0.0

-930014.596949987 6.175016876076281e6 0.0
6.175016876076281e6 -1.5124232579769702e6 0.0
0.0 0.0 0.0

-1.347232680430198e7 3.8543236209956366e6 0.0
3.8543236209956366e6 6.675650420000258e6 0.0
0.0 0.0 0.0

-8.192993181473067e6 -796240.5822352465 0.0
-796240.5822352465 1.2215448993309673e7 0.0
0.0 0.0 0.0

-3.539901727279218e6 7.95543837161024e6 0.0
7.95543837161024e6 1.2643535388574814e6 0.0
0.0 0.0 0.0

-5.911829079572854e6 8.403234330050932e6 0.0
8.403234330050932e6 2.72889194934695e6 0.0
0.0 0.0 0.0

-177200.39407957694 7.615765547390466e6 0.0
7.615765547390466e6 -4.346200545042445e6 0.0
0.0 0.0 0.0

-7.867685519435445e6 9.15505653048109e6 0.0
9.15505653048109e6 3.9388908761658235e6 0.0
0.0 0.0 0.0

-1.0094173436223429e7 8.85869453342107e6 0.0
8.85869453342107e6 5.696149534823296e6 0.0
0.0 0.0 0.0

-1.1759087608267656e7 8.60315378345044e6 0.0
8.60315378345044e6 6.733354265558309e6 0.0
0.0 0.0 0.0

-5.512152093438123e6 8.87988738124187e6 0.0
8.87988738124187e6 2.0576222374654068e6 0.0
0.0 0.0 0.0

-3.7399539123731502e6 3.3218264558789325e6 0.0
3.3218264558789325e6 4.1437299547323175e6 0.0
0.0 0.0 0.0

1.2137022601377184e6 5.412114472733854e6 0.0
5.412114472733854e6 -4.953184695414713e6 0.0
0.0 0.0 0.0

-2.65395159338727e6 8.344554750734938e6 0.0
8.344554750734938e6 2.908454151010518e6 0.0
0.0 0.0 0.0

-6.575472192819013e6 1.0779944753462985e7 0.0
1.0779944753462985e7 2.226621563756189e6 0.0
0.0 0.0 0.0

-891309.0493861443 8.383738380500968e6 0.0
8.383738380500968e6 -3.381031105133073e6 0.0
0.0 0.0 0.0

-3.9023460158936544e6 -1.055807956907364e6 0.0
-1.055807956907364e6 5.423239780412176e6 0.0
0.0 0.0 0.0

-544854.0097161598 9.333891504673427e6 0.0
9.333891504673427e6 -336255.05385667604 0.0
0.0 0.0 0.0

-1.0790811820115498e6 9.982724326881168e6 0.0
9.982724326881168e6 -2.7892651432931493e6 0.0
0.0 0.0 0.0

-678277.8662711107 8.844430079757936e6 0.0
8.844430079757936e6 -3.2318954320609337e6 0.0
0.0 0.0 0.0

-589610.244611995 7.484741669582525e6 0.0
7.484741669582525e6 -3.9774455686102e6 0.0
0.0 0.0 0.0

-151626.41236961598 2.310204741763566e6 0.0
2.310204741763566e6 -954923.2169150587 0.0
0.0 0.0 0.0

67009.82193675905 7.723300678900584e6 0.0
7.723300678900584e6 -2.960531278231424e6 0.0
0.0 0.0 0.0

411997.3457814549 7.164644339498832e6 0.0
7.164644339498832e6 -722583.7633662045 0.0
0.0 0.0 0.0

4.414840312112876e6 7.50849349337756e6 0.0
7.50849349337756e6 -2.6591976824844847e6 0.0
0.0 0.0 0.0

-1.1891890377326157e7 8.09192349240054e6 0.0
8.09192349240054e6 7.766391896640169e6 0.0
0.0 0.0 0.0

-1.8976172182735917e6 4.677788842031566e6 0.0
4.677788842031566e6 537367.612251658 0.0
0.0 0.0 0.0

-259734.69578397973 8.530582346361974e6 0.0
8.530582346361974e6 -5.738240575634489e6 0.0
0.0 0.0 0.0

693833.0169643403 6.606971221715218e6 0.0
6.606971221715218e6 -5.066451244530106e6 0.0
0.0 0.0 0.0

466222.92537972657 2.5531156094322405e6 0.0
2.5531156094322405e6 -320724.23482645827 0.0
0.0 0.0 0.0

-9.648470210639821e6 4.342107996566441e6 0.0
4.342107996566441e6 5.8047059407374505e6 0.0
0.0 0.0 0.0

-5.813476012304294e6 7.752967778684319e6 0.0
7.752967778684319e6 45119.93140083132 0.0
0.0 0.0 0.0

-335931.03614810517 7.835465239395411e6 0.0
7.835465239395411e6 -3.6974236052261107e6 0.0
0.0 0.0 0.0

-6.230750932124672e6 9.482694662341965e6 0.0
9.482694662341965e6 2.4642042851823117e6 0.0
0.0 0.0 0.0

1.05622205432773e6 6.967669154748185e6 0.0
6.967669154748185e6 -6.648244865734585e6 0.0
0.0 0.0 0.0

-281511.1946407722 1.1646164222693859e7 0.0
1.1646164222693859e7 -2.9527231824418427e6 0.0
0.0 0.0 0.0

-281034.925212816 7.570343442554498e6 0.0
7.570343442554498e6 622524.2405999464 0.0
0.0 0.0 0.0

-736087.6006881896 8.108021557281277e6 0.0
8.108021557281277e6 -3.027335280080591e6 0.0
0.0 0.0 0.0

-3.859685436664164e6 8.12815511470254e6 0.0
8.12815511470254e6 1.0106276413821306e6 0.0
0.0 0.0 0.0

-813796.7257387483 6.21118175794142e6 0.0
6.21118175794142e6 -2.1714937085636263e6 0.0
0.0 0.0 0.0

-858963.8795690944 8.038155109839344e6 0.0
8.038155109839344e6 -3.3907981084938524e6 0.0
0.0 0.0 0.0

-431778.3937930118 7.975219870927201e6 0.0
7.975219870927201e6 -3.8755511891913004e6 0.0
0.0 0.0 0.0

-5.060097141861105e6 8.540851591644946e6 0.0
8.540851591644946e6 2.2946913994662007e6 0.0
0.0 0.0 0.0

-868051.1968188729 9.066196758728512e6 0.0
9.066196758728512e6 -5.940935401607288e6 0.0
0.0 0.0 0.0

-4.133584117073955e6 1.498322684852824e7 0.0
1.498322684852824e7 523133.86105972785 0.0
0.0 0.0 0.0

-3.0649388978247307e6 1.2101693885957811e7 0.0
1.2101693885957811e7 -1.3344798763446198e6 0.0
0.0 0.0 0.0

-6.411988808972528e6 9.13001456065572e6 0.0
9.13001456065572e6 3.043151205875764e6 0.0
0.0 0.0 0.0

-3.321812239038961e6 6.907027468217378e6 0.0
6.907027468217378e6 1.6720213222737152e6 0.0
0.0 0.0 0.0

1.0468380163589022e6 6.823873925257804e6 0.0
6.823873925257804e6 -6.720462027072328e6 0.0
0.0 0.0 0.0

-2.82290306375622e6 7.3999137922730995e6 0.0
7.3999137922730995e6 1.7777223797881952e6 0.0
0.0 0.0 0.0

1.1976906673000385e6 6.882099905586346e6 0.0
6.882099905586346e6 -6.404116804704471e6 0.0
0.0 0.0 0.0

-3.270661241584501e6 7.28251781856255e6 0.0
7.28251781856255e6 -21952.900406954344 0.0
0.0 0.0 0.0

-3.0492098190333205e6 7.033979176471081e6 0.0
7.033979176471081e6 -135243.63186725613 0.0
0.0 0.0 0.0

-69058.93053951941 7.527779992805533e6 0.0
7.527779992805533e6 -3.214169594221669e6 0.0
0.0 0.0 0.0

-2.229226957074566e6 8.197607208292613e6 0.0
8.197607208292613e6 1.4559831388052031e6 0.0
0.0 0.0 0.0

-5.012523092689825e6 8.418004129842121e6 0.0
8.418004129842121e6 1.7678282201738413e6 0.0
0.0 0.0 0.0

-2.801350411574888e6 5.612383783594139e6 0.0
5.612383783594139e6 1.459265539365534e6 0.0
0.0 0.0 0.0

519502.54162123764 2.037755590563897e6 0.0
2.037755590563897e6 -735043.11033692 0.0
0.0 0.0 0.0

599137.7352919471 6.466731869633984e6 0.0
6.466731869633984e6 -5.32895306008596e6 0.0
0.0 0.0 0.0

11745.47010705457 6.862137520712073e6 0.0
6.862137520712073e6 -4.191044007198265e6 0.0
0.0 0.0 0.0

-7.518901149103309e6 1.03786477897721e7 0.0
1.03786477897721e7 3.7966661793390783e6 0.0
0.0 0.0 0.0

-2.4819276551146745e6 8.70383754906025e6 0.0
8.70383754906025e6 891396.2683741213 0.0
0.0 0.0 0.0

-151807.96685923147 7.494673044983094e6 0.0
7.494673044983094e6 -4.293119143010687e6 0.0
0.0 0.0 0.0

-6.214348245214459e6 6.64475620708651e6 0.0
6.64475620708651e6 8.085154451186765e6 0.0
0.0 0.0 0.0

-331088.14081609016 3.354568671441417e6 0.0
3.354568671441417e6 -797622.2491296047 0.0
0.0 0.0 0.0

-1.029082683944288e6 7.85682794486368e6 0.0
7.85682794486368e6 1.822111902497603e6 0.0
0.0 0.0 0.0

-8.429386166170087e6 7.562380175826437e6 0.0
7.562380175826437e6 4.90997985439941e6 0.0
0.0 0.0 0.0

557433.9263128336 7.262206371151771e6 0.0
7.262206371151771e6 -752501.9785632477 0.0
0.0 0.0 0.0

-649583.1552731468 9.048747205611901e6 0.0
9.048747205611901e6 328075.43282883975 0.0
0.0 0.0 0.0

-4.79514731504599e6 8.567044169562228e6 0.0
8.567044169562228e6 2.101571659733438e6 0.0
0.0 0.0 0.0

-2.595492965268028e6 7.67285693483409e6 0.0
7.67285693483409e6 1.4998053879029965e6 0.0
0.0 0.0 0.0

-5.201002230762775e6 8.200041123697803e6 0.0
8.200041123697803e6 5.448496004595278e6 0.0
0.0 0.0 0.0

-4.755743688888563e6 8.212301287734307e6 0.0
8.212301287734307e6 -109198.98271217663 0.0
0.0 0.0 0.0

-4.0557887211046275e6 7.591479266571909e6 0.0
7.591479266571909e6 539477.3112548913 0.0
0.0 0.0 0.0

-3.7182739310661308e6 736204.3922901563 0.0
736204.3922901563 3.5398217764987927e6 0.0
0.0 0.0 0.0

-2.4582963851585343e7 8.878736636629056e6 0.0
8.878736636629056e6 1.4534148489006743e7 0.0
0.0 0.0 0.0

2.8376818496432975e6 7.3221581773640625e6 0.0
7.3221581773640625e6 -1.8702018068963317e6 0.0
0.0 0.0 0.0

-154155.69535511313 7.600467837235166e6 0.0
7.600467837235166e6 -4.519927097277651e6 0.0
0.0 0.0 0.0

-2.9956682107973043e6 6.743468677493509e6 0.0
6.743468677493509e6 1.0309393429372169e6 0.0
0.0 0.0 0.0

-1.6598290066554402e6 9.947448943921803e6 0.0
9.947448943921803e6 -2.46458109522695e6 0.0
0.0 0.0 0.0

6.522586005388243e6 9.27581684972661e6 0.0
9.27581684972661e6 623752.4592065089 0.0
0.0 0.0 0.0

131129.42587417678 2.4138292350502717e6 0.0
2.4138292350502717e6 -1.4284934006760418e6 0.0
0.0 0.0 0.0

4.449208340798469e6 256382.39626565488 0.0
256382.39626565488 -6.48503868211271e6 0.0
0.0 0.0 0.0

-2.331044056795114e6 9.41988578998956e6 0.0
9.41988578998956e6 -1.572709527499348e6 0.0
0.0 0.0 0.0

-36111.37166133814 7.700985932224383e6 0.0
7.700985932224383e6 -2.9954600313550746e6 0.0
0.0 0.0 0.0

-5.791436759176087e6 1.0345457779566002e6 0.0
1.0345457779566002e6 6.993818970397865e6 0.0
0.0 0.0 0.0

-2.2557714865544345e6 1.2253428106643548e7 0.0
1.2253428106643548e7 -969397.3788085395 0.0
0.0 0.0 0.0

-1.3124090943861645e7 7.980540047715661e6 0.0
7.980540047715661e6 7.681138328191432e6 0.0
0.0 0.0 0.0

2.812547914887297e6 8.504021295118136e6 0.0
8.504021295118136e6 -2.6282404322370524e6 0.0
0.0 0.0 0.0

-213530.0637458245 2.469481238950084e6 0.0
2.469481238950084e6 322675.3911571987 0.0
0.0 0.0 0.0

-9.694617514492225e6 2.145623946088811e6 0.0
2.145623946088811e6 6.77392532303631e6 0.0
0.0 0.0 0.0

-814862.260887678 6.714410211156997e6 0.0
6.714410211156997e6 -1.0269881445316471e6 0.0
0.0 0.0 0.0

-1.5218758108064875e7 8.185818076055745e6 0.0
8.185818076055745e6 8.368337913264394e6 0.0
0.0 0.0 0.0

-2.5832168633516803e6 4.715676240656909e6 0.0
4.715676240656909e6 1.9797427482735217e6 0.0
0.0 0.0 0.0

164686.6179141146 8.993977609364863e6 0.0
8.993977609364863e6 -2.8728314242970655e6 0.0
0.0 0.0 0.0

-878625.9528306017 7.47645865955751e6 0.0
7.47645865955751e6 -4.304054521998504e6 0.0
0.0 0.0 0.0

-450552.0067795848 7.931058589225364e6 0.0
7.931058589225364e6 -3.779699202057894e6 0.0
0.0 0.0 0.0

9932.15673348459 1.1226081015178388e7 0.0
1.1226081015178388e7 -2.680564901976571e6 0.0
0.0 0.0 0.0

-6.781918817535364e6 2.0078617971949548e7 0.0
2.0078617971949548e7 -9.015484465412607e6 0.0
0.0 0.0 0.0

-114223.67630360331 2.7039918511757106e6 0.0
2.7039918511757106e6 -959638.7852254848 0.0
0.0 0.0 0.0

-9.173374260679578e6 1.1857788753096757e7 0.0
1.1857788753096757e7 3.7208747376147336e6 0.0
0.0 0.0 0.0

-5.863255536665934e6 1.0948087090652939e7 0.0
1.0948087090652939e7 2.484461564535039e6 0.0
0.0 0.0 0.0

-1.2525363578415634e6 560816.9265118577 0.0
560816.9265118577 1.2193697674764784e6 0.0
0.0 0.0 0.0

1.132917756670635e6 5.358562427504888e6 0.0
5.358562427504888e6 -4.710242278072469e6 0.0
0.0 0.0 0.0

-3.856272778173223e6 7.842583982680581e6 0.0
7.842583982680581e6 1.763548606937484e6 0.0
0.0 0.0 0.0

-1.900187847291234e6 7.777725903631402e6 0.0
7.777725903631402e6 2.4142841436609775e6 0.0
0.0 0.0 0.0

-99695.85746283649 666315.5988417596 0.0
666315.5988417596 1.1181277862165484e6 0.0
0.0 0.0 0.0

-1.9754019303404097e6 4.139652798305888e6 0.0
4.139652798305888e6 893857.1556759818 0.0
0.0 0.0 0.0

-2.2185476204572422e6 7.955160894385775e6 0.0
7.955160894385775e6 2.892148129777963e6 0.0
0.0 0.0 0.0

-2.5267591801284207e6 6.1885410996649945e6 0.0
6.1885410996649945e6 -1.0728512203880404e6 0.0
0.0 0.0 0.0

-444775.8821464834 7.714208609582821e6 0.0
7.714208609582821e6 -4.0065939965711213e6 0.0
0.0 0.0 0.0

-5.737993116350111e6 1.0006346801188365e7 0.0
1.0006346801188365e7 1.8019698799603838e6 0.0
0.0 0.0 0.0

-11814.131793283683 1.84859649586266e6 0.0
1.84859649586266e6 -1.0718588096789168e6 0.0
0.0 0.0 0.0

-2.673569108224807e6 8.03299969949716e6 0.0
8.03299969949716e6 -365198.2669868388 0.0
0.0 0.0 0.0

-4.357077877337005e6 5.690272834328081e6 0.0
5.690272834328081e6 5.910544343428185e6 0.0
0.0 0.0 0.0

-1.6275191337675843e6 5.375571762169232e6 0.0
5.375571762169232e6 -1.5627065235705136e6 0.0
0.0 0.0 0.0

-2.959559902120148e6 1.0299205063875774e7 0.0
1.0299205063875774e7 -1.2112289308269816e6 0.0
0.0 0.0 0.0

-1.0050558310417404e7 1.2106640723303515e7 0.0
1.2106640723303515e7 5.8373379706557095e6 0.0
0.0 0.0 0.0

-251811.82412761683 7.46567270875423e6 0.0
7.46567270875423e6 -4.623677031733399e6 0.0
0.0 0.0 0.0

-2.102902095841284e7 8.156184346483072e6 0.0
8.156184346483072e6 9.670082232208252e6 0.0
0.0 0.0 0.0

-968757.651811325 1.2417336572800088e6 0.0
1.2417336572800088e6 -1.1943247164393165e6 0.0
0.0 0.0 0.0

-659919.4538978485 1.0439076183288852e6 0.0
1.0439076183288852e6 -622663.2941406735 0.0
0.0 0.0 0.0

-1.350257103437896e6 9.432207606296059e6 0.0
9.432207606296059e6 2.2802774530998897e6 0.0
0.0 0.0 0.0

-3.1321617613269594e6 8.474015946124408e6 0.0
8.474015946124408e6 5.00240116717032e6 0.0
0.0 0.0 0.0

-661046.7094635157 9.29285067273393e6 0.0
9.29285067273393e6 -34567.097389279195 0.0
0.0 0.0 0.0

-1.4227834623489096e6 4.041748775611527e6 0.0
4.041748775611527e6 467668.28752019163 0.0
0.0 0.0 0.0

280323.97267547954 3.802408738535838e6 0.0
3.802408738535838e6 510385.31485694513 0.0
0.0 0.0 0.0

-1.6556856730906975e6 8.724744871989194e6 0.0
8.724744871989194e6 476161.2648932653 0.0
0.0 0.0 0.0

-6.006576693085009e6 9.221392266946718e6 0.0
9.221392266946718e6 2.7789818589166985e6 0.0
0.0 0.0 0.0

-36683.37782254862 7.546206008240724e6 0.0
7.546206008240724e6 -4.778648690084157e6 0.0
0.0 0.0 0.0

-2.0960839748689863e6 7.8738883757238e6 0.0
7.8738883757238e6 4.018407552702248e6 0.0
0.0 0.0 0.0

3.1055564865486585e6 7.788037136664279e6 0.0
7.788037136664279e6 -2.000508292072667e6 0.0
0.0 0.0 0.0

-1.7462881380093317e7 8.00760615586026e6 0.0
8.00760615586026e6 9.75427976284994e6 0.0
0.0 0.0 0.0

-769911.5092726245 7.10684773995308e6 0.0
7.10684773995308e6 339974.6758931953 0.0
0.0 0.0 0.0

-279650.8940023584 4.13025652627047e6 0.0
4.13025652627047e6 -1.5844513514332979e6 0.0
0.0 0.0 0.0

-2.78656001387752e6 2.698707549705487e6 0.0
2.698707549705487e6 1.7633985857653548e6 0.0
0.0 0.0 0.0

-5.863835857431133e6 9.002544685738629e6 0.0
9.002544685738629e6 2.499199305874942e6 0.0
0.0 0.0 0.0

-4.699928539294053e6 6.961812898718096e6 0.0
6.961812898718096e6 7.7853914504976645e6 0.0
0.0 0.0 0.0

-1.1809460171502478e7 -2.956591644537054e6 0.0
-2.956591644537054e6 1.6662073889484579e7 0.0
0.0 0.0 0.0

-1.168493652826209e6 8.95230971468069e6 0.0
8.95230971468069e6 671924.4399675683 0.0
0.0 0.0 0.0

-1.0450443043064933e6 7.740463236351374e6 0.0
7.740463236351374e6 -4.853733270406818e6 0.0
0.0 0.0 0.0

-2.794106270546306e6 8.285379919157059e6 0.0
8.285379919157059e6 3.949338240400483e6 0.0
0.0 0.0 0.0

-3.1212502641718397e6 7.6260050180443e6 0.0
7.6260050180443e6 3.523106069282376e6 0.0
0.0 0.0 0.0

-2.3385102221676693e6 5.883630882277805e6 0.0
5.883630882277805e6 -1.2253509200454094e6 0.0
0.0 0.0 0.0

-7.837550708406538e6 1.0752857402853934e7 0.0
1.0752857402853934e7 2.324127282200445e7 0.0
0.0 0.0 0.0

-2.524134839254217e6 1.2323446313020077e7 0.0
1.2323446313020077e7 -1.853567559528713e6 0.0
0.0 0.0 0.0

-1.2777599761869733e6 9.168651769697728e6 0.0
9.168651769697728e6 -2.8903722790909684e6 0.0
0.0 0.0 0.0

-1.64560294171052e6 5.624165066163476e6 0.0
5.624165066163476e6 -996873.4061934925 0.0
0.0 0.0 0.0

1.5966455813039225e6 6.6970054101307215e6 0.0
6.6970054101307215e6 -6.8981470422478765e6 0.0
0.0 0.0 0.0

-1.0178776949655464e7 1.1208378047200013e7 0.0
1.1208378047200013e7 5.839626854572061e6 0.0
0.0 0.0 0.0

-3.324989724645596e6 3.0354946894970215e6 0.0
3.0354946894970215e6 2.4654997554693734e6 0.0
0.0 0.0 0.0

-974540.3035511195 8.982357563643284e6 0.0
8.982357563643284e6 1.0233847852117629e6 0.0
0.0 0.0 0.0

-3.484266785997458e6 7.744863861317265e6 0.0
7.744863861317265e6 1.0655999212306342e6 0.0
0.0 0.0 0.0

-3.180896773419156e6 8.074259618912898e6 0.0
8.074259618912898e6 127322.48124830448 0.0
0.0 0.0 0.0

-2.602295207424531e6 4.0581010230847555e6 0.0
4.0581010230847555e6 1.5176094410981266e6 0.0
0.0 0.0 0.0

-648600.922276377 6.979655887464072e6 0.0
6.979655887464072e6 -3.2874455289851455e6 0.0
0.0 0.0 0.0

-1.326388989330269e7 7.78801474569374e6 0.0
7.78801474569374e6 7.231525166498212e6 0.0
0.0 0.0 0.0

1.5628193333610117e6 7.98829865313463e6 0.0
7.98829865313463e6 1.572899860687146e6 0.0
0.0 0.0 0.0

-309824.19544779486 2.81262318176221e6 0.0
2.81262318176221e6 -1.0534393821463336e6 0.0
0.0 0.0 0.0

-5.69696829279001e6 8.640723539444633e6 0.0
8.640723539444633e6 2.5342021902295984e6 0.0
0.0 0.0 0.0

-1.1196311532002583e7 982329.7232921384 0.0
982329.7232921384 6.078075480709545e6 0.0
0.0 0.0 0.0

-2.3642515192911397e6 8.677184335048964e6 0.0
8.677184335048964e6 1.3478136644373576e6 0.0
0.0 0.0 0.0

-1.6962030700725764e7 1.012978068669806e7 0.0
1.012978068669806e7 3.158389632502461e6 0.0
0.0 0.0 0.0

-2.480787775575507e6 9.23137537491564e6 0.0
9.23137537491564e6 469906.0088169575 0.0
0.0 0.0 0.0

-2.5724056778055364e6 5.159692366432589e6 0.0
5.159692366432589e6 1.3907239484734782e6 0.0
0.0 0.0 0.0

-1.4270772814055306e6 3.7544647723901556e6 0.0
3.7544647723901556e6 478364.71080052113 0.0
0.0 0.0 0.0

-1.995563339910327e6 4.462069879790205e6 0.0
4.462069879790205e6 219794.8274401253 0.0
0.0 0.0 0.0

-3.0356139101292803e6 7.58576116480959e6 0.0
7.58576116480959e6 1.4414434181743907e6 0.0
0.0 0.0 0.0

-4.1309213129371656e6 4865.79737025876 0.0
4865.79737025876 4.904024851603409e6 0.0
0.0 0.0 0.0

-45260.59504881955 7.12086048310377e6 0.0
7.12086048310377e6 -2.9912343531420897e6 0.0
0.0 0.0 0.0

-1.356625706261966e6 4.674172054253858e6 0.0
4.674172054253858e6 -1.831362175299679e6 0.0
0.0 0.0 0.0

-1.1611730723579442e6 8.748749373171134e6 0.0
8.748749373171134e6 -2.6575732860056423e6 0.0
0.0 0.0 0.0

-425434.3854079682 2.7711714697540975e6 0.0
2.7711714697540975e6 -463235.1532908006 0.0
0.0 0.0 0.0

-288547.2566143392 7.259674957209638e6 0.0
7.259674957209638e6 -2.707417328014844e6 0.0
0.0 0.0 0.0

-3.524133362355702e6 7.807001757986984e6 0.0
7.807001757986984e6 1.2743703878848313e6 0.0
0.0 0.0 0.0

-2.0025726684982087e6 8.945388170299174e6 0.0
8.945388170299174e6 2.495895025137907e6 0.0
0.0 0.0 0.0

-2.0072356800800443e6 9.143380498572526e6 0.0
9.143380498572526e6 -1.5226920148266521e6 0.0
0.0 0.0 0.0

-669024.0457007769 9.28879748785319e6 0.0
9.28879748785319e6 -328775.1560745593 0.0
0.0 0.0 0.0

-8.702878367501572e6 1.1354636940947913e7 0.0
1.1354636940947913e7 3.6338994435820924e6 0.0
0.0 0.0 0.0

-1.1723764796862176e6 1.0293887561187668e7 0.0
1.0293887561187668e7 -2.5016811741730394e6 0.0
0.0 0.0 0.0

1.0689763080516785e7 1.072514761359695e7 0.0
1.072514761359695e7 -4.044488440712181e6 0.0
0.0 0.0 0.0

126065.56928242394 9.901000325903578e6 0.0
9.901000325903578e6 -2.7250146164981737e6 0.0
0.0 0.0 0.0

-432907.852355293 8.146017057110343e6 0.0
8.146017057110343e6 -3.8717416643567425e6 0.0
0.0 0.0 0.0

-1.9161318086239318e6 1.1113366759427026e7 0.0
1.1113366759427026e7 -1.9488670753368805e6 0.0
0.0 0.0 0.0

-1.12435925916822e7 3.0361799710494787e6 0.0
3.0361799710494787e6 6.505284300143317e6 0.0
0.0 0.0 0.0

-3.4772286089139543e6 7.829223264650152e6 0.0
7.829223264650152e6 1.2869528516512532e6 0.0
0.0 0.0 0.0

3.558119604048829e6 8.596689803558629e6 0.0
8.596689803558629e6 -4.428341316452445e6 0.0
0.0 0.0 0.0

113359.50007999642 7.566294936096428e6 0.0
7.566294936096428e6 -5.265953076513148e6 0.0
0.0 0.0 0.0

-2.0635492961153658e6 1.045404877351556e7 0.0
1.045404877351556e7 2.8609246466296557e6 0.0
0.0 0.0 0.0

542008.8956568816 6.889034140150749e6 0.0
6.889034140150749e6 -4.251428653164644e6 0.0
0.0 0.0 0.0

-1.7715237201261793e6 1.1092726160977384e7 0.0
1.1092726160977384e7 -1.4644957109640772e6 0.0
0.0 0.0 0.0

1.2701541737142918e6 6.759897120676711e6 0.0
6.759897120676711e6 -6.4270564074727055e6 0.0
0.0 0.0 0.0

-3.1127497957725087e6 9.827272003085066e6 0.0
9.827272003085066e6 -936523.5365208306 0.0
0.0 0.0 0.0

-2.813317363893296e6 1.1914897053619076e7 0.0
1.1914897053619076e7 -466987.02070587885 0.0
0.0 0.0 0.0

-3.220967014290636e6 7.88328157492096e6 0.0
7.88328157492096e6 352638.54613519064 0.0
0.0 0.0 0.0

-7.372529093094048e6 7.751660478076229e6 0.0
7.751660478076229e6 4.335175266857317e6 0.0
0.0 0.0 0.0

-3.340569455825325e6 7.595585774370713e6 0.0
7.595585774370713e6 3.460897986464363e6 0.0
0.0 0.0 0.0

-1.4207495213787167e6 6.959405402179996e6 0.0
6.959405402179996e6 -160352.06429942016 0.0
0.0 0.0 0.0

-1.589421184103264e7 7.4962788253148645e6 0.0
7.4962788253148645e6 8.067454560971782e6 0.0
0.0 0.0 0.0

2.025665827412203e6 7.18439098352214e6 0.0
7.18439098352214e6 -31922.840343709686 0.0
0.0 0.0 0.0

-598315.889104305 6.102987978558756e6 0.0
6.102987978558756e6 -1.5914981919381388e6 0.0
0.0 0.0 0.0

-4.720148775946627e6 8.627317676227672e6 0.0
8.627317676227672e6 2.3149845133012487e6 0.0
0.0 0.0 0.0

-3.050229072843613e6 9.200054026926702e6 0.0
9.200054026926702e6 959796.9319368314 0.0
0.0 0.0 0.0

-1.4116248501191172e6 5.731657505200764e6 0.0
5.731657505200764e6 -1.7732284440517693e6 0.0
0.0 0.0 0.0

1.893037806959517e6 5.295848663978981e6 0.0
5.295848663978981e6 -5.575665368418309e6 0.0
0.0 0.0 0.0

-285245.6162417653 7.855832306177875e6 0.0
7.855832306177875e6 -3.6654666531684943e6 0.0
0.0 0.0 0.0

7.178552611145198e6 6.594313938072394e6 0.0
6.594313938072394e6 -2.200071127108682e6 0.0
0.0 0.0 0.0

-3.193544686231776e6 7.718413761973776e6 0.0
7.718413761973776e6 3.9079762245981907e6 0.0
0.0 0.0 0.0

-4.545855315950603e6 8.295519986108636e6 0.0
8.295519986108636e6 1.9984320829162681e6 0.0
0.0 0.0 0.0

-379998.19845473976 14073.435528461716 0.0
14073.435528461716 1.9652221611353625e6 0.0
0.0 0.0 0.0

-7.782552966668533e6 9.254461504057398e6 0.0
9.254461504057398e6 4.048569665861591e6 0.0
0.0 0.0 0.0

-1.0235718011865988e7 2.4905089674083074e6 0.0
2.4905089674083074e6 5.561902431062922e6 0.0
0.0 0.0 0.0

-1.427983521961163e6 9.427464559291229e6 0.0
9.427464559291229e6 -2.6971733277749266e6 0.0
0.0 0.0 0.0

-1.0051983120331155e6 9.273216980239412e6 0.0
9.273216980239412e6 1.724017210669395e6 0.0
0.0 0.0 0.0

-293921.5367633499 7.318404129671372e6 0.0
7.318404129671372e6 -1.6820719245635795e6 0.0
0.0 0.0 0.0

-2.7008094064912787e6 6.598865944451314e6 0.0
6.598865944451314e6 864371.5215164023 0.0
0.0 0.0 0.0

-1.8219696631196095e6 5.476823148893917e6 0.0
5.476823148893917e6 -2.1421394075454907e6 0.0
0.0 0.0 0.0

-375810.4738114795 6.850112365434917e6 0.0
6.850112365434917e6 -3.07603090129901e6 0.0
0.0 0.0 0.0

-1.1679621551641484e6 4.518725817219324e6 0.0
4.518725817219324e6 -1.3096116453247522e6 0.0
0.0 0.0 0.0

-4.553350462715696e6 8.635060657796519e6 0.0
8.635060657796519e6 2.144233120081727e6 0.0
0.0 0.0 0.0

-2.668164019090578e6 6.254736355732273e6 0.0
6.254736355732273e6 -742996.6000101322 0.0
0.0 0.0 0.0

2.420506168497037e6 7.89467631050282e6 0.0
7.89467631050282e6 1.7871957725861561e6 0.0
0.0 0.0 0.0

1.5068278806184626e6 5.185383843901173e6 0.0
5.185383843901173e6 -5.098495076560489e6 0.0
0.0 0.0 0.0

-1.572884406666374e6 9.186968888375215e6 0.0
9.186968888375215e6 1.8673021500323496e6 0.0
0.0 0.0 0.0

-917677.4899285069 4.1155943091362733e6 0.0
4.1155943091362733e6 -1.5796291668290102e6 0.0
0.0 0.0 0.0

-5.40238771287537e6 1.0162345034083093e7 0.0
1.0162345034083093e7 2.048157615399434e6 0.0
0.0 0.0 0.0

-696630.9579795174 9.295414264642531e6 0.0
9.295414264642531e6 122462.46628498641 0.0
0.0 0.0 0.0

-5.339428824274694e6 2.61631869489535e6 0.0
2.61631869489535e6 7.844034045831027e6 0.0
0.0 0.0 0.0

-115937.87552530889 2.848104389396639e6 0.0
2.848104389396639e6 -1.2460685848320296e6 0.0
0.0 0.0 0.0

-3.6998391302993805e6 1.2253656333627801e7 0.0
1.2253656333627801e7 -998663.0944679576 0.0
0.0 0.0 0.0

-1.1673887022808332e7 -1.9819590408534007e6 0.0
-1.9819590408534007e6 7.463198854436037e6 0.0
0.0 0.0 0.0

-949796.439570223 8.62084160287723e6 0.0
8.62084160287723e6 -3.2711448383510993e6 0.0
0.0 0.0 0.0

-2.473426828722883e6 6.364010592682302e6 0.0
6.364010592682302e6 3.7967569973212583e6 0.0
0.0 0.0 0.0

-2.345702987266026e6 5.085363212430976e6 0.0
5.085363212430976e6 1.0585309034540544e6 0.0
0.0 0.0 0.0

-1.530176776245893e7 -1.5867291755146421e6 0.0
-1.5867291755146421e6 7.469605756217021e6 0.0
0.0 0.0 0.0

-464638.98258759314 8.0320648479640605e6 0.0
8.0320648479640605e6 -4.1118026819641776e6 0.0
0.0 0.0 0.0

-1.9209028911649648e6 1.0456381794347607e7 0.0
1.0456381794347607e7 -1.476227972176269e6 0.0
0.0 0.0 0.0

-1.0419190546715619e6 2.6583324680789094e6 0.0
2.6583324680789094e6 -406876.5601299405 0.0
0.0 0.0 0.0

-4.332793924790071e6 9.258116029466486e6 0.0
9.258116029466486e6 634399.0494387562 0.0
0.0 0.0 0.0

-5.614076427499954e6 1.2562337716270396e7 0.0
1.2562337716270396e7 1.5349213421797804e6 0.0
0.0 0.0 0.0

-6.469434195261335e6 9.137620917157974e6 0.0
9.137620917157974e6 3.3003590348497024e6 0.0
0.0 0.0 0.0

-2.63757961917458e6 7.624666246805667e6 0.0
7.624666246805667e6 141191.452170145 0.0
0.0 0.0 0.0

-4.0796067312451303e6 4.020690843488564e6 0.0
4.020690843488564e6 5.152004158257944e6 0.0
0.0 0.0 0.0

-2.395307619273002e6 7.960155704772424e6 0.0
7.960155704772424e6 1.3397648739533983e6 0.0
0.0 0.0 0.0

-7.719734442133987e6 9.20508478681063e6 0.0
9.20508478681063e6 3.8590929867671225e6 0.0
0.0 0.0 0.0

-1.5162467901036292e6 4.6911788785568755e6 0.0
4.6911788785568755e6 -2.3607232161728013e6 0.0
0.0 0.0 0.0

-7.155216462359145e6 9.198895416291185e6 0.0
9.198895416291185e6 3.5949208702761866e6 0.0
0.0 0.0 0.0

-3.6331957798828385e6 8.286123330738069e6 0.0
8.286123330738069e6 5.017521156023005e6 0.0
0.0 0.0 0.0

-2.5230594121022834e6 2.983289719556911e6 0.0
2.983289719556911e6 2.1653022806142303e6 0.0
0.0 0.0 0.0

1.2555917660035905e6 5.834988431799985e6 0.0
5.834988431799985e6 -5.694176709533391e6 0.0
0.0 0.0 0.0

-4.0620361870363895e6 7.759257197283046e6 0.0
7.759257197283046e6 1.1467586672771873e6 0.0
0.0 0.0 0.0

-4.865337802160713e6 8.432563746297197e6 0.0
8.432563746297197e6 1.349941627543617e6 0.0
0.0 0.0 0.0

-4.613212477414765e6 8.77121057454945e6 0.0
8.77121057454945e6 1.354022503556274e6 0.0
0.0 0.0 0.0

-2.101494241427763e7 1.4514084191155376e7 0.0
1.4514084191155376e7 1.0887910873747524e6 0.0
0.0 0.0 0.0

-1.1907388835951285e6 9.574426360483501e6 0.0
9.574426360483501e6 -2.4622550182592752e6 0.0
0.0 0.0 0.0

-5.559598312455076e6 8.905765696285447e6 0.0
8.905765696285447e6 2.3702032157247425e6 0.0
0.0 0.0 0.0

-2.8261644493097514e6 5.251327588025336e6 0.0
5.251327588025336e6 1.2477780591631704e6 0.0
0.0 0.0 0.0

-1.2504936605452323e7 1.6590441154525357e6 0.0
1.6590441154525357e6 7.135385832905887e6 0.0
0.0 0.0 0.0

-376146.112057279 9.358912457155716e6 0.0
9.358912457155716e6 -470350.0885071662 0.0
0.0 0.0 0.0

-5.439511948427929e6 6.153208484910042e6 0.0
6.153208484910042e6 7.63485037464339e6 0.0
0.0 0.0 0.0

3.832558911027361e6 5.664417514672067e6 0.0
5.664417514672067e6 -6.31148536993359e6 0.0
0.0 0.0 0.0

-1.2930143020250503e7 7.682795403369779e6 0.0
7.682795403369779e6 7.329295309437199e6 0.0
0.0 0.0 0.0

-2.6445005515843583e6 178059.76597287023 0.0
178059.76597287023 3.923173548665679e6 0.0
0.0 0.0 0.0

-5.102979360433981e6 -855667.3605805858 0.0
-855667.3605805858 7.355541145017575e6 0.0
0.0 0.0 0.0

24546.711380099703 2.743137350951689e6 0.0
2.743137350951689e6 -1.1193942780661767e6 0.0
0.0 0.0 0.0

-4.509834275135867e6 3.652020789366778e6 0.0
3.652020789366778e6 5.847920878881561e6 0.0
0.0 0.0 0.0

-5.052245676459495e6 5.052636150422005e6 0.0
5.052636150422005e6 5.664524207639979e6 0.0
0.0 0.0 0.0

-654760.5074601988 8.050818851351923e6 0.0
8.050818851351923e6 -3.6388949525252604e6 0.0
0.0 0.0 0.0

-1.827400026269415e7 7.997233693253022e6 0.0
7.997233693253022e6 9.252486979363026e6 0.0
0.0 0.0 0.0

-2.779384702700693e6 3.3913914795952262e6 0.0
3.3913914795952262e6 2.9995382387726572e6 0.0
0.0 0.0 0.0

175341.90093827783 7.571015186830154e6 0.0
7.571015186830154e6 -5.315650695016455e6 0.0
0.0 0.0 0.0

-8.29959109869203e6 1.757125758118717e6 0.0
1.757125758118717e6 6.2392119053851785e6 0.0
0.0 0.0 0.0

-5.422377601677295e6 -633055.7283619962 0.0
-633055.7283619962 6.677523551444593e6 0.0
0.0 0.0 0.0

-1.9010118799826384e6 8.824550993512059e6 0.0
8.824550993512059e6 -2.0887727867594115e6 0.0
0.0 0.0 0.0

-223387.27643564693 8.017536550876248e6 0.0
8.017536550876248e6 -5.435841750764787e6 0.0
0.0 0.0 0.0

-2.2973979752772176e6 9.11089848246632e6 0.0
9.11089848246632e6 774125.7234746206 0.0
0.0 0.0 0.0

-6.601065974801898e6 1.218824152219277e6 0.0
1.218824152219277e6 5.477243080078122e6 0.0
0.0 0.0 0.0

5.000585375897034e6 1.0395828235047901e7 0.0
1.0395828235047901e7 1.7141742920430761e6 0.0
0.0 0.0 0.0

-584306.1495421893 6.248140479940529e6 0.0
6.248140479940529e6 -3.2133231358971796e6 0.0
0.0 0.0 0.0

-1.282861446182887e6 8.782835080976838e6 0.0
8.782835080976838e6 -2.409153131285781e6 0.0
0.0 0.0 0.0

-391283.309385029 7.645827315064075e6 0.0
7.645827315064075e6 -3.85486626502736e6 0.0
0.0 0.0 0.0

2.286363433406629e6 6.134649126352583e6 0.0
6.134649126352583e6 -5.240329149651153e6 0.0
0.0 0.0 0.0

-5.134303062340514e6 9.339176566653594e6 0.0
9.339176566653594e6 1.9836428436897958e6 0.0
0.0 0.0 0.0

-399341.4040210126 7.773251069074441e6 0.0
7.773251069074441e6 -4.3262350772871375e6 0.0
0.0 0.0 0.0

-870029.6297347919 1.026331971709195e7 0.0
1.026331971709195e7 -2.454885854202821e6 0.0
0.0 0.0 0.0

-113895.87748619192 7.487072054875159e6 0.0
7.487072054875159e6 -2.428965190012861e6 0.0
0.0 0.0 0.0

-763760.5170593134 5.355629240927516e6 0.0
5.355629240927516e6 -1.4507486697238674e6 0.0
0.0 0.0 0.0

-2.639844024740817e6 6.425553469405229e6 0.0
6.425553469405229e6 600670.5491370225 0.0
0.0 0.0 0.0

-2.069876047409293e6 8.70322518407304e6 0.0
8.70322518407304e6 2.8047079098949833e6 0.0
0.0 0.0 0.0

755551.7097849317 5.5584307519310275e6 0.0
5.5584307519310275e6 -4.0567182902076063e6 0.0
0.0 0.0 0.0

-3.346852533938191e6 966772.552067088 0.0
966772.552067088 1.104800616702723e6 0.0
0.0 0.0 0.0

-2.68603692708038e6 7.8848544330235515e6 0.0
7.8848544330235515e6 3.6969409913668656e6 0.0
0.0 0.0 0.0

-618946.1362463421 8.433481291614708e6 0.0
8.433481291614708e6 -3.669960262308604e6 0.0
0.0 0.0 0.0

1.0529877107683375e7 7.835858927581376e6 0.0
7.835858927581376e6 -3.5528227576150275e6 0.0
0.0 0.0 0.0

-748218.9613433877 8.536524120591888e6 0.0
8.536524120591888e6 -3.144347662430276e6 0.0
0.0 0.0 0.0

-5.097029348700822e6 9.145016644339684e6 0.0
9.145016644339684e6 1.3526821083902526e6 0.0
0.0 0.0 0.0

-3.756464549302225e6 8.023684278331344e6 0.0
8.023684278331344e6 717823.320659522 0.0
0.0 0.0 0.0

-8.3293028951749215e6 1.197392215947274e7 0.0
1.197392215947274e7 1.0568057161837807e7 0.0
0.0 0.0 0.0

-4.811366397441717e6 3.6237276635693647e6 0.0
3.6237276635693647e6 6.484969840275314e6 0.0
0.0 0.0 0.0

102600.7600609865 835064.2828032174 0.0
835064.2828032174 1.3238834349428536e6 0.0
0.0 0.0 0.0

-7.197017726198122e6 1.0100802524554622e6 0.0
1.0100802524554622e6 7.418427455371913e6 0.0
0.0 0.0 0.0

-5.889966021221952e6 9.155975245636323e6 0.0
9.155975245636323e6 2.650247579657415e6 0.0
0.0 0.0 0.0

-537770.8344252693 7.389023564495471e6 0.0
7.389023564495471e6 -3.355413562300058e6 0.0
0.0 0.0 0.0

-3.1664991192463804e6 6.717145732736676e6 0.0
6.717145732736676e6 1.7128527049527438e6 0.0
0.0 0.0 0.0

-1.377738905393858e6 9.8174714245395e6 0.0
9.8174714245395e6 -2.2560637763859746e6 0.0
0.0 0.0 0.0

-2.241259896816592e6 4.762107067277889e6 0.0
4.762107067277889e6 433957.9245568025 0.0
0.0 0.0 0.0

-3.4031978281741966e6 7.740146138506047e6 0.0
7.740146138506047e6 1.3952882459724797e6 0.0
0.0 0.0 0.0

-1.7909444279405195e6 1.2372528936266992e7 0.0
1.2372528936266992e7 -2.3692599158064965e6 0.0
0.0 0.0 0.0

-2.97285541872003e6 7.187867836160584e6 0.0
7.187867836160584e6 1.6875771871954913e6 0.0
0.0 0.0 0.0

-3.116562326560961e6 6.453166119693269e6 0.0
6.453166119693269e6 1.8623970594380281e6 0.0
0.0 0.0 0.0

-569910.0918582621 7.728613527794576e6 0.0
7.728613527794576e6 -3.9806524808607656e6 0.0
0.0 0.0 0.0

-3.13101111077826e6 3.0755679716909323e6 0.0
3.0755679716909323e6 2.171341040626104e6 0.0
0.0 0.0 0.0

-5.875290428129372e6 9.183390006818287e6 0.0
9.183390006818287e6 2.710552181370975e6 0.0
0.0 0.0 0.0

477343.28808745113 6.87005991764046e6 0.0
6.87005991764046e6 -4.256910261329099e6 0.0
0.0 0.0 0.0

-9.134668500715673e6 -3.5289015714135165e6 0.0
-3.5289015714135165e6 1.5445848636088166e7 0.0
0.0 0.0 0.0

-1.8756539125539442e6 9.09325424259017e6 0.0
9.09325424259017e6 766479.3219550551 0.0
0.0 0.0 0.0

-6.132707779213608e6 9.099472454712931e6 0.0
9.099472454712931e6 3.058431694461459e6 0.0
0.0 0.0 0.0

-320035.02170130017 7.557238722057362e6 0.0
7.557238722057362e6 -3.7343957951388736e6 0.0
0.0 0.0 0.0

-5.649629833207217e6 9.437375387062274e6 0.0
9.437375387062274e6 1.804467896007182e6 0.0
0.0 0.0 0.0

-501208.30036907166 6.842260639188843e6 0.0
6.842260639188843e6 -3.500293513271735e6 0.0
0.0 0.0 0.0

-2.510216812420887e6 2.907841385247742e6 0.0
2.907841385247742e6 2.5086831461990885e6 0.0
0.0 0.0 0.0

-1.8368731318728924e7 1.2358834498489814e7 0.0
1.2358834498489814e7 2.0196433521983968e6 0.0
0.0 0.0 0.0

-3.9037864961810666e6 7.871965761369887e6 0.0
7.871965761369887e6 -125800.60158331972 0.0
0.0 0.0 0.0

-3.1369935052047204e6 7.330499406732217e6 0.0
7.330499406732217e6 1.627083867676302e6 0.0
0.0 0.0 0.0

69607.87371020293 1.584554976545609e6 0.0
1.584554976545609e6 -710871.1249849105 0.0
0.0 0.0 0.0

-4.482276432177065e6 8.075713123994166e6 0.0
8.075713123994166e6 169893.55667321943 0.0
0.0 0.0 0.0

-3.5866826018616077e6 7.855776690778787e6 0.0
7.855776690778787e6 1.3606017733936189e6 0.0
0.0 0.0 0.0

1.5920887123692923e6 6.078677752655753e6 0.0
6.078677752655753e6 -5.839376524229921e6 0.0
0.0 0.0 0.0

-1.8755593617656021e6 4.520698841750872e6 0.0
4.520698841750872e6 583965.4470307899 0.0
0.0 0.0 0.0

-1.6375854873473023e6 3.94386002024243e6 0.0
3.94386002024243e6 700809.9248279389 0.0
0.0 0.0 0.0

-8.081461056499476e6 1.1622254281722676e7 0.0
1.1622254281722676e7 4.063161587142106e6 0.0
0.0 0.0 0.0

-358478.0835374581 3.320511560285884e6 0.0
3.320511560285884e6 -995318.6668898704 0.0
0.0 0.0 0.0

-3.745021653910875e6 3.3727090696071335e6 0.0
3.3727090696071335e6 2.977335235554093e6 0.0
0.0 0.0 0.0

-6.8910310984589e6 9.158538056375725e6 0.0
9.158538056375725e6 3.4034483392807352e6 0.0
0.0 0.0 0.0

-5.409046481200469e6 -1.3003683207122232e6 0.0
-1.3003683207122232e6 8.767446800493928e6 0.0
0.0 0.0 0.0

-92054.7368512526 1.813900703789946e6 0.0
1.813900703789946e6 -395100.83349323954 0.0
0.0 0.0 0.0

260384.4527987074 6.796613027671396e6 0.0
6.796613027671396e6 -4.1475195012519285e6 0.0
0.0 0.0 0.0

-2.8375171635959297e6 6.405716377455813e6 0.0
6.405716377455813e6 858549.9084429299 0.0
0.0 0.0 0.0

-5.5911871811506245e6 3.549075917689663e6 0.0
3.549075917689663e6 6.772106784422265e6 0.0
0.0 0.0 0.0

-1.9132634699957275e6 9.303864807164758e6 0.0
9.303864807164758e6 -2.0160137331259507e6 0.0
0.0 0.0 0.0

-1.6193893652999748e6 9.052295559929874e6 0.0
9.052295559929874e6 -2.0397555855245676e6 0.0
0.0 0.0 0.0

-477887.4793551492 7.3223539185090605e6 0.0
7.3223539185090605e6 -3.6055328235263512e6 0.0
0.0 0.0 0.0

-781629.7251520283 8.341670371629077e6 0.0
8.341670371629077e6 -3.4751956483800914e6 0.0
0.0 0.0 0.0

-866330.9020325993 7.102668863942047e6 0.0
7.102668863942047e6 -472761.11049107986 0.0
0.0 0.0 0.0

-5.828540211209432e6 3.9906464904222833e6 0.0
3.9906464904222833e6 5.99385630899033e6 0.0
0.0 0.0 0.0

-5.276402629132121e6 9.393027486082388e6 0.0
9.393027486082388e6 1.3772035803562305e6 0.0
0.0 0.0 0.0

-4.414303584783116e6 8.443708956339987e6 0.0
8.443708956339987e6 2.11343403160398e6 0.0
0.0 0.0 0.0

-6.092359636882488e6 9.24250095363126e6 0.0
9.24250095363126e6 2.8150889242170365e6 0.0
0.0 0.0 0.0

-600678.9975886624 1.6157894570069812e7 0.0
1.6157894570069812e7 1.7832740235275444e7 0.0
0.0 0.0 0.0

-2.652390168007137e6 6.948084075507517e6 0.0
6.948084075507517e6 896634.3555816162 0.0
0.0 0.0 0.0

-1.4787970875199763e6 8.79929682959623e6 0.0
8.79929682959623e6 -2.1888700535515426e6 0.0
0.0 0.0 0.0

-794554.5477764951 8.395048973992763e6 0.0
8.395048973992763e6 -3.535815864008234e6 0.0
0.0 0.0 0.0

-1.2196097263304382e6 8.962432662124889e6 0.0
8.962432662124889e6 -2.507325273123899e6 0.0
0.0 0.0 0.0

-6.316156772728097e6 9.59533411096919e6 0.0
9.59533411096919e6 2.71816433752969e6 0.0
0.0 0.0 0.0

-2.4157713765149536e6 6.6648043054126445e6 0.0
6.6648043054126445e6 420872.4746578075 0.0
0.0 0.0 0.0

76172.07026757591 7.1468021937339865e6 0.0
7.1468021937339865e6 -1.9548944219561897e6 0.0
0.0 0.0 0.0

-627296.732001181 8.559868625512628e6 0.0
8.559868625512628e6 -3.409683144431052e6 0.0
0.0 0.0 0.0

-612580.7510223504 5.291597004012548e6 0.0
5.291597004012548e6 -1.3478404206741806e6 0.0
0.0 0.0 0.0

-1.1051092221807329e7 1.509012087077705e7 0.0
1.509012087077705e7 3.341792785377178e6 0.0
0.0 0.0 0.0

1.1035099485227708e6 6.591741169938146e6 0.0
6.591741169938146e6 -6.377283912267522e6 0.0
0.0 0.0 0.0

1.1964336428285744e7 8.511774751820698e6 0.0
8.511774751820698e6 -3.3435763146974547e6 0.0
0.0 0.0 0.0

4.940448183090563e6 1.5485138542610254e7 0.0
1.5485138542610254e7 -1.8025117376863264e7 0.0
0.0 0.0 0.0

-1.3122388639028207e6 8.980368896358551e6 0.0
8.980368896358551e6 1.1278481018021994e6 0.0
0.0 0.0 0.0

-1.0270858156477205e6 7.450151818837613e6 0.0
7.450151818837613e6 539836.249577784 0.0
0.0 0.0 0.0

-6.520565113307205e6 7.790382317281239e6 0.0
7.790382317281239e6 569179.7408320727 0.0
0.0 0.0 0.0

-1.7199567419416573e7 2.366285516937223e6 0.0
2.366285516937223e6 6.851011441785861e6 0.0
0.0 0.0 0.0

-889289.9338123036 4.272076247392224e6 0.0
4.272076247392224e6 -775595.534058157 0.0
0.0 0.0 0.0

-4.943065648447223e6 8.465652007802885e6 0.0
8.465652007802885e6 1.834734312112405e6 0.0
0.0 0.0 0.0

-1.1593912296127165e6 8.671976265377091e6 0.0
8.671976265377091e6 -2.5840218393944358e6 0.0
0.0 0.0 0.0

1.0499597182753151e6 7.10530924407051e6 0.0
7.10530924407051e6 -6.12450858740611e6 0.0
0.0 0.0 0.0

-1.394017242114949e6 8.798419773298051e6 0.0
8.798419773298051e6 -2.781595191908606e6 0.0
0.0 0.0 0.0

45487.744779765606 7.476239518536407e6 0.0
7.476239518536407e6 -5.09349095372939e6 0.0
0.0 0.0 0.0

-1.6566250806207452e6 4.080767701831248e6 0.0
4.080767701831248e6 437715.7259060119 0.0
0.0 0.0 0.0

-1.8318835683773607e6 8.814274873067133e6 0.0
8.814274873067133e6 2.2993782600057004e6 0.0
0.0 0.0 0.0

-1.0527229912803771e6 6.586401716491185e6 0.0
6.586401716491185e6 -778756.164681395 0.0
0.0 0.0 0.0

-569758.4495429286 -114883.54588660452 0.0
-114883.54588660452 334975.94181496394 0.0
0.0 0.0 0.0

-6.085626873354883e6 1.1023194683551693e6 0.0
1.1023194683551693e6 5.945267880280213e6 0.0
0.0 0.0 0.0

-3.810076892810374e6 8.083623498927643e6 0.0
8.083623498927643e6 1.7448867273454298e6 0.0
0.0 0.0 0.0

-2.4564207684366666e6 8.767560002260579e6 0.0
8.767560002260579e6 2.8543698986467496e6 0.0
0.0 0.0 0.0

-2.119097326461196e6 4.978054745208801e6 0.0
4.978054745208801e6 788981.7172355059 0.0
0.0 0.0 0.0

82214.15028374374 4.317054043779143e6 0.0
4.317054043779143e6 -1.671021149734396e6 0.0
0.0 0.0 0.0

-1.3797209479525868e7 3.877861261529129e6 0.0
3.877861261529129e6 1.784818034583747e7 0.0
0.0 0.0 0.0

-3.1582713541380996e6 7.955009477462479e6 0.0
7.955009477462479e6 185960.46862106654 0.0
0.0 0.0 0.0

-4.912579524323831e6 9.350434586777406e6 0.0
9.350434586777406e6 941158.2316715948 0.0
0.0 0.0 0.0

-2.39629321767498e6 8.74367809476059e6 0.0
8.74367809476059e6 3.094582835672387e6 0.0
0.0 0.0 0.0

-905452.0829167155 4.7825545839747805e6 0.0
4.7825545839747805e6 -1.2341847999886463e6 0.0
0.0 0.0 0.0

-1.8109654414686873e6 1.1990822109615793e7 0.0
1.1990822109615793e7 -1.3072245285732138e6 0.0
0.0 0.0 0.0

-1.0571344774103185e7 -2.447130693263609e6 0.0
-2.447130693263609e6 2.0542436393284567e7 0.0
0.0 0.0 0.0

-367196.08484554145 1.1628794432136117e7 0.0
1.1628794432136117e7 -2.3013320913198907e6 0.0
0.0 0.0 0.0

-6.183202892569751e6 9.105595115802627e6 0.0
9.105595115802627e6 2.890387518681941e6 0.0
0.0 0.0 0.0

-644798.5494940337 7.398828554131583e6 0.0
7.398828554131583e6 -4.187604591284884e6 0.0
0.0 0.0 0.0

-2.8643792637306717e6 7.299843875568589e6 0.0
7.299843875568589e6 2.0185770784960901e6 0.0
0.0 0.0 0.0

-5.236256717164243e6 3.3307985373611413e6 0.0
3.3307985373611413e6 5.415230321576827e6 0.0
0.0 0.0 0.0

-5.287146091365926e6 1.0994120871597e7 0.0
1.0994120871597e7 1.9221000937737774e6 0.0
0.0 0.0 0.0

-657977.8884962683 1.4755970145245364e6 0.0
1.4755970145245364e6 -1.4006341066615023e6 0.0
0.0 0.0 0.0

-1.1197360813988583e7 1.1647219057294918e7 0.0
1.1647219057294918e7 5.130413096551768e6 0.0
0.0 0.0 0.0

416128.2478236371 7.58225431843858e6 0.0
7.58225431843858e6 -888558.8653193216 0.0
0.0 0.0 0.0

-4.329065368501457e6 8.012862735873943e6 0.0
8.012862735873943e6 1.247895348049994e6 0.0
0.0 0.0 0.0

921227.7527144651 6.238347061474434e6 0.0
6.238347061474434e6 -5.735491045358706e6 0.0
0.0 0.0 0.0

-2.3900688890972845e6 8.804365387388725e6 0.0
8.804365387388725e6 1.3456227567789597e6 0.0
0.0 0.0 0.0

-3.525117618744633e6 7.981994763384532e6 0.0
7.981994763384532e6 4.857067570242647e6 0.0
0.0 0.0 0.0

-5.45418274804141e6 8.94233911104016e6 0.0
8.94233911104016e6 2.3838480047668633e6 0.0
0.0 0.0 0.0

-2.1503737085072566e6 9.539137327265592e6 0.0
9.539137327265592e6 2.8495292511236463e6 0.0
0.0 0.0 0.0

257040.0775377588 3.957748221125761e6 0.0
3.957748221125761e6 -1.165261179935574e6 0.0
0.0 0.0 0.0

-3.7626608949563173e6 8.339049101207044e6 0.0
8.339049101207044e6 5.282507606316667e6 0.0
0.0 0.0 0.0

-2.7983049423175403e6 8.121636850358462e6 0.0
8.121636850358462e6 488373.34832749283 0.0
0.0 0.0 0.0

-835136.6637172888 1.1920060996030342e7 0.0
1.1920060996030342e7 -2.1107054626007923e6 0.0
0.0 0.0 0.0

-2.2451951337355534e6 1.1222608817759879e7 0.0
1.1222608817759879e7 -1.6620103508810073e6 0.0
0.0 0.0 0.0

-4.998958168561174e6 1.2476564397958703e7 0.0
1.2476564397958703e7 816042.0998496627 0.0
0.0 0.0 0.0

-943416.1155626802 6.074147899912815e6 0.0
6.074147899912815e6 -1.4655299048913622e6 0.0
0.0 0.0 0.0

-3.2471470875240574e6 7.458826832302862e6 0.0
7.458826832302862e6 1.629025665875477e6 0.0
0.0 0.0 0.0

-7.379791308503053e6 1.1989640358248508e7 0.0
1.1989640358248508e7 2.3701096564403507e6 0.0
0.0 0.0 0.0

-161464.1688619419 8.082998139841688e6 0.0
8.082998139841688e6 -5.253134840769406e6 0.0
0.0 0.0 0.0

-619746.4464168149 4.266606491206647e6 0.0
4.266606491206647e6 -1.3764315482812375e6 0.0
0.0 0.0 0.0

-1.2652808520548863e6 7.025021325607678e6 0.0
7.025021325607678e6 -110260.96454214386 0.0
0.0 0.0 0.0

-6.172177105277862e6 1.17149196745523e7 0.0
1.17149196745523e7 1.3497137351130345e6 0.0
0.0 0.0 0.0

-503552.96281107084 8.562146793718046e6 0.0
8.562146793718046e6 -3.400268860635842e6 0.0
0.0 0.0 0.0

520634.5550722643 6.610559377714097e6 0.0
6.610559377714097e6 -3.673792602408139e6 0.0
0.0 0.0 0.0

-6.548103231292121e6 -7.8963721043975325e6 0.0
-7.8963721043975325e6 1.6174793676262408e7 0.0
0.0 0.0 0.0

-215514.70041603735 7.3953322550379615e6 0.0
7.3953322550379615e6 -4.0284175462656114e6 0.0
0.0 0.0 0.0

-1.4254825086705508e6 7.413432454382005e6 0.0
7.413432454382005e6 1.3523535260795231e6 0.0
0.0 0.0 0.0

-1.7231199344489754e6 4.265029760317098e6 0.0
4.265029760317098e6 683850.5933998028 0.0
0.0 0.0 0.0

-1.4002021024335371e6 1.2197698490510572e7 0.0
1.2197698490510572e7 -2.5751463133719414e6 0.0
0.0 0.0 0.0

442756.3418304324 7.313109769911821e6 0.0
7.313109769911821e6 -3.677509735684967e6 0.0
0.0 0.0 0.0

348462.74641755293 9.624096720818656e6 0.0
9.624096720818656e6 -3.111039293798598e6 0.0
0.0 0.0 0.0

-1.9556512135333412e6 7.976341922181865e6 0.0
7.976341922181865e6 3.295933967761755e6 0.0
0.0 0.0 0.0

-8.90661494199173e6 1.6158487318149198e7 0.0
1.6158487318149198e7 672840.10243244 0.0
0.0 0.0 0.0

-1.385020326064457e6 1.112314972446153e7 0.0
1.112314972446153e7 -1.9162955595750855e6 0.0
0.0 0.0 0.0

-5.788880528462306e6 9.20201189968345e6 0.0
9.20201189968345e6 7.401955838459819e6 0.0
0.0 0.0 0.0

1.2457208772042417e6 5.387661700807171e6 0.0
5.387661700807171e6 -4.872282592295505e6 0.0
0.0 0.0 0.0

-6.78046355123532e6 1.01160929091809e7 0.0
1.01160929091809e7 2.877988865197252e6 0.0
0.0 0.0 0.0

1.3715907356040461e6 7.816124924733984e6 0.0
7.816124924733984e6 -1.894261368905246e6 0.0
0.0 0.0 0.0

-1.5224123663541295e7 -1.5468524283354897e6 0.0
-1.5468524283354897e6 7.240818713852277e6 0.0
0.0 0.0 0.0

-3.4939374090854526e6 7.884111121071815e6 0.0
7.884111121071815e6 1.3496391239408683e6 0.0
0.0 0.0 0.0

-465519.55335015024 4.23836321203686e6 0.0
4.23836321203686e6 -1.3385885467122318e6 0.0
0.0 0.0 0.0

-461207.91269200214 8.000478492710993e6 0.0
8.000478492710993e6 -3.713419139740579e6 0.0
0.0 0.0 0.0

-1.543140173163042e6 8.91580626066917e6 0.0
8.91580626066917e6 945404.4723562275 0.0
0.0 0.0 0.0

-126895.47520958702 7.603861921210025e6 0.0
7.603861921210025e6 -4.821459480200285e6 0.0
0.0 0.0 0.0

1.393164226782309e6 6.766486657009025e6 0.0
6.766486657009025e6 -6.205314340366411e6 0.0
0.0 0.0 0.0

5.890119255326071e6 9.449820670222199e6 0.0
9.449820670222199e6 220149.80242984463 0.0
0.0 0.0 0.0

-3.845454342957056e7 1.5077022680731516e7 0.0
1.5077022680731516e7 4.409550221258292e6 0.0
0.0 0.0 0.0

-1.0402085427131641e6 8.899042315922497e6 0.0
8.899042315922497e6 4.0405552845253777e6 0.0
0.0 0.0 0.0

-3.7582544081286057e6 9.29155013806886e6 0.0
9.29155013806886e6 -455953.9544112815 0.0
0.0 0.0 0.0

-2.831596528654555e6 7.446345908969949e6 0.0
7.446345908969949e6 1.388305674731982e6 0.0
0.0 0.0 0.0

394147.2620352851 6.696456945702175e6 0.0
6.696456945702175e6 -3.9026970214150795e6 0.0
0.0 0.0 0.0

-2.7561017869448876e6 8.142804759680673e6 0.0
8.142804759680673e6 759217.2710440424 0.0
0.0 0.0 0.0

-7.339900935061516e6 1.0358627050665505e7 0.0
1.0358627050665505e7 3.414271883393231e6 0.0
0.0 0.0 0.0

-358312.3853940683 7.862475770216764e6 0.0
7.862475770216764e6 -4.21692065970713e6 0.0
0.0 0.0 0.0

-4.396941178759843e6 7.966539991922246e6 0.0
7.966539991922246e6 995916.8320613832 0.0
0.0 0.0 0.0

-1.1784730997530425e6 2.130464896801371e6 0.0
2.130464896801371e6 -819460.7459520111 0.0
0.0 0.0 0.0

-2.0719472518151726e6 7.604091850939144e6 0.0
7.604091850939144e6 4.202856350994788e6 0.0
0.0 0.0 0.0

-3.1940998108621896e6 8.640985281030703e6 0.0
8.640985281030703e6 27106.889936293708 0.0
0.0 0.0 0.0

-1.9768702512397878e6 8.88329809090395e6 0.0
8.88329809090395e6 -1.4771032794431504e6 0.0
0.0 0.0 0.0

-4.002672864322286e6 8.360470478643682e6 0.0
8.360470478643682e6 1.0038282677861047e6 0.0
0.0 0.0 0.0

-507745.1482743437 7.648018807332884e6 0.0
7.648018807332884e6 -3.8723171473709396e6 0.0
0.0 0.0 0.0

-6.045961524128047e6 -1.8194965572694538e6 0.0
-1.8194965572694538e6 6.694858470151788e6 0.0
0.0 0.0 0.0

-1.5747308902269164e6 8.86962339214582e6 0.0
8.86962339214582e6 -2.5431258372625792e6 0.0
0.0 0.0 0.0

800764.7959494288 8.702173460386334e6 0.0
8.702173460386334e6 -2.5763439396970887e6 0.0
0.0 0.0 0.0

-1.0156219064682317e6 8.715856945638942e6 0.0
8.715856945638942e6 -5.4853397999452725e6 0.0
0.0 0.0 0.0

350561.53297845647 6.865517378749347e6 0.0
6.865517378749347e6 -4.295976122924309e6 0.0
0.0 0.0 0.0

-1.124779403863958e6 9.338789011129413e6 0.0
9.338789011129413e6 -2.5692668705454255e6 0.0
0.0 0.0 0.0

-3.3240794692238374e6 7.678144180942938e6 0.0
7.678144180942938e6 1.4015309511541852e6 0.0
0.0 0.0 0.0

-5.614412264884472e6 8.840973881247222e6 0.0
8.840973881247222e6 2.2503328556577154e6 0.0
0.0 0.0 0.0

-2.9953251167957173e6 6.535097364493292e6 0.0
6.535097364493292e6 1.536716588533786e6 0.0
0.0 0.0 0.0

638126.291388687 7.142819867843716e6 0.0
7.142819867843716e6 -333551.4795168898 0.0
0.0 0.0 0.0

-2.0440236361215223e7 499574.01094930817 0.0
499574.01094930817 7.738729230233353e6 0.0
0.0 0.0 0.0

208424.49482327912 3.276556038444595e6 0.0
3.276556038444595e6 -577538.2580908125 0.0
0.0 0.0 0.0

-227658.8447804635 7.137910098871401e6 0.0
7.137910098871401e6 -3.02001858147832e6 0.0
0.0 0.0 0.0

2.7243101468128497e6 9.19772321099388e6 0.0
9.19772321099388e6 -3.698688114112834e6 0.0
0.0 0.0 0.0

-7.81709770413232e6 9.263345432048757e6 0.0
9.263345432048757e6 4.039308644169635e6 0.0
0.0 0.0 0.0

182603.2400935653 7.60370553130727e6 0.0
7.60370553130727e6 -5.291266148050266e6 0.0
0.0 0.0 0.0

-2.028516334614504e6 9.191820589614345e6 0.0
9.191820589614345e6 633180.3720805227 0.0
0.0 0.0 0.0

-1.823192184222195e6 1.1362227945235841e7 0.0
1.1362227945235841e7 -1.3382772831657818e6 0.0
0.0 0.0 0.0

-1.2398551306686527e6 7.215922742734671e6 0.0
7.215922742734671e6 -2.032216831676133e6 0.0
0.0 0.0 0.0

-1.462987867603912e6 1.145376097550776e7 0.0
1.145376097550776e7 -1.842596202787722e6 0.0
0.0 0.0 0.0

-527748.6073255797 9.291886574329855e6 0.0
9.291886574329855e6 -120207.9873869456 0.0
0.0 0.0 0.0

-5.484449089647667e6 8.83376655558349e6 0.0
8.83376655558349e6 2.217454784860079e6 0.0
0.0 0.0 0.0

-137908.79106574762 6.97687554374873e6 0.0
6.97687554374873e6 -3.702929969868962e6 0.0
0.0 0.0 0.0

1.5543583316767528e6 6.05556405503904e6 0.0
6.05556405503904e6 -6.303203040734582e6 0.0
0.0 0.0 0.0

-1.0864850930541544e6 2.1307199822726212e6 0.0
2.1307199822726212e6 -83077.13554793573 0.0
0.0 0.0 0.0

-975328.7620958175 -113896.86491134141 0.0
-113896.86491134141 -174496.5338999801 0.0
0.0 0.0 0.0

-2.5770434741025874e6 7.602450208730553e6 0.0
7.602450208730553e6 2.728500167193312e6 0.0
0.0 0.0 0.0

-527072.2881528984 9.120691519401519e6 0.0
9.120691519401519e6 809.477716878464 0.0
0.0 0.0 0.0

-877225.8104827234 9.202278201626154e6 0.0
9.202278201626154e6 -19706.10223554488 0.0
0.0 0.0 0.0

2.3178345035312064e6 1.0522677493646143e6 0.0
1.0522677493646143e6 -8.110168751039412e6 0.0
0.0 0.0 0.0

-544996.3394801454 1.1135561979239376e7 0.0
1.1135561979239376e7 -2.52919124499292e6 0.0
0.0 0.0 0.0

-1.0461554529677266e6 1.141959667901745e6 0.0
1.141959667901745e6 -913974.9986732139 0.0
0.0 0.0 0.0

-1.529925281568396e6 1.1260974660663858e7 0.0
1.1260974660663858e7 -1.5855798941550707e6 0.0
0.0 0.0 0.0

-4.758387734472268e6 4.563065698662652e6 0.0
4.563065698662652e6 6.757974464193735e6 0.0
0.0 0.0 0.0

-4.753504356279958e6 9.283816519583138e6 0.0
9.283816519583138e6 1.5717043391029616e6 0.0
0.0 0.0 0.0

-5.931041271508034e6 1.1414317459289247e7 0.0
1.1414317459289247e7 2.5078577144765304e6 0.0
0.0 0.0 0.0

183985.85319289076 6.760217818218209e6 0.0
6.760217818218209e6 -4.14234392371484e6 0.0
0.0 0.0 0.0

374913.9835470314 6.886359645034658e6 0.0
6.886359645034658e6 -4.248195590113556e6 0.0
0.0 0.0 0.0

3.1670503725469513e6 9.819689124701032e6 0.0
9.819689124701032e6 -5.312049929793874e6 0.0
0.0 0.0 0.0

-1.8570465238243232e6 8.892215999396648e6 0.0
8.892215999396648e6 2.124325410300742e6 0.0
0.0 0.0 0.0

-1.754557216160914e6 8.886572460807374e6 0.0
8.886572460807374e6 -2.3218259376076423e6 0.0
0.0 0.0 0.0

-102901.0580820927 542416.183894082 0.0
542416.183894082 -882533.8055179339 0.0
0.0 0.0 0.0

-7.268165148129616e6 9.218558963506563e6 0.0
9.218558963506563e6 3.582864379418773e6 0.0
0.0 0.0 0.0

-2.8643989395249123e6 3.320021056709293e6 0.0
3.320021056709293e6 2.4175352750802105e6 0.0
0.0 0.0 0.0

71600.48611976218 1.7069648877793741e6 0.0
1.7069648877793741e6 -1.0312166903997799e6 0.0
0.0 0.0 0.0

-2.398658777731321e6 6.184387610012253e6 0.0
6.184387610012253e6 -646084.3729157948 0.0
0.0 0.0 0.0

1.501272062667503e6 5.911080573724529e6 0.0
5.911080573724529e6 -6.140657664475096e6 0.0
0.0 0.0 0.0

-4.989895636255761e6 8.70364730292927e6 0.0
8.70364730292927e6 2.2286893828806467e6 0.0
0.0 0.0 0.0

-4.0912115897394517e6 7.931066256056781e6 0.0
7.931066256056781e6 1.0790820511037142e6 0.0
0.0 0.0 0.0

-370626.58442705905 7.430320942673522e6 0.0
7.430320942673522e6 -4.068531425028102e6 0.0
0.0 0.0 0.0

4.057574606209879e6 7.819872308492588e6 0.0
7.819872308492588e6 -2.8250049527275553e6 0.0
0.0 0.0 0.0

-4.492491437409725e6 8.3473511815055115e6 0.0
8.3473511815055115e6 1.9257066327082166e6 0.0
0.0 0.0 0.0

-1.6701672351334936e6 603463.6257497657 0.0
603463.6257497657 891583.6187928332 0.0
0.0 0.0 0.0

131000.76556838152 2.6472509938029177e6 0.0
2.6472509938029177e6 131422.2269880318 0.0
0.0 0.0 0.0

1.3539162774594803e6 8.755615116404174e6 0.0
8.755615116404174e6 -2.69780926248859e6 0.0
0.0 0.0 0.0

-3.181781540105074e6 9.104998316372108e6 0.0
9.104998316372108e6 -162661.5685156528 0.0
0.0 0.0 0.0

-3.2118547234340846e6 9.506188435485402e6 0.0
9.506188435485402e6 -117119.01357831096 0.0
0.0 0.0 0.0

-8.504347823791608e6 -159924.70886794763 0.0
-159924.70886794763 1.4102728294580858e7 0.0
0.0 0.0 0.0

-95846.45456879964 322764.3949981356 0.0
322764.3949981356 -1.5538326770565372e6 0.0
0.0 0.0 0.0

-2.611470721700417e6 8.78570025724689e6 0.0
8.78570025724689e6 -79300.87982276606 0.0
0.0 0.0 0.0

-5.004966244641068e6 8.847241748285513e6 0.0
8.847241748285513e6 924866.8312570087 0.0
0.0 0.0 0.0

-1.2401335920213493e7 3.3381665885081775e6 0.0
3.3381665885081775e6 6.050138480761861e6 0.0
0.0 0.0 0.0

-7.533968176054666e6 9.947279148018202e6 0.0
9.947279148018202e6 3.8188352458339287e6 0.0
0.0 0.0 0.0

-451740.8045652545 9.229860865817621e6 0.0
9.229860865817621e6 -557026.7536440821 0.0
0.0 0.0 0.0

-2.506862573875189e6 -244702.54166460573 0.0
-244702.54166460573 2.4097609847863438e6 0.0
0.0 0.0 0.0

2.771833001340188e6 9.646450491744842e6 0.0
9.646450491744842e6 -4.778285451285593e6 0.0
0.0 0.0 0.0

-2.561760200714713e6 7.008330883911003e6 0.0
7.008330883911003e6 -733653.2492316521 0.0
0.0 0.0 0.0

-231857.83983179263 2.1453362608563704e6 0.0
2.1453362608563704e6 -1.0145705746695745e6 0.0
0.0 0.0 0.0

-3.228296452213551e6 6.652919455914671e6 0.0
6.652919455914671e6 1.3302906472903246e6 0.0
0.0 0.0 0.0

-3.440887964258332e6 7.2787341067560045e6 0.0
7.2787341067560045e6 1.48764951550729e6 0.0
0.0 0.0 0.0

-521245.61194054765 3.744726678727611e6 0.0
3.744726678727611e6 -1.249924172534875e6 0.0
0.0 0.0 0.0

522048.2949522799 6.824298844890866e6 0.0
6.824298844890866e6 -4.373221327836429e6 0.0
0.0 0.0 0.0

908403.1698262081 7.194245452942573e6 0.0
7.194245452942573e6 -6.248751148284965e6 0.0
0.0 0.0 0.0

-2.0705461572731282e6 7.452940906609355e6 0.0
7.452940906609355e6 3.111315280131053e6 0.0
0.0 0.0 0.0

-576351.8075867781 678171.5116648631 0.0
678171.5116648631 -1.915324670763048e6 0.0
0.0 0.0 0.0

-725396.3208194426 1.4357451438203791e7 0.0
1.4357451438203791e7 -4.323692948952279e6 0.0
0.0 0.0 0.0

676090.511818894 6.659181873672044e6 0.0
6.659181873672044e6 -4.0749389422481796e6 0.0
0.0 0.0 0.0

1.0375920240740778e6 5.641449076645467e6 0.0
5.641449076645467e6 -3.7761151374216294e6 0.0
0.0 0.0 0.0

259102.38943330082 7.375044322550807e6 0.0
7.375044322550807e6 -3.77873869157226e6 0.0
0.0 0.0 0.0

-480659.7413969897 9.335154349029556e6 0.0
9.335154349029556e6 -427190.9008307862 0.0
0.0 0.0 0.0

-464005.71036594454 9.197372854858518e6 0.0
9.197372854858518e6 -185899.85365048685 0.0
0.0 0.0 0.0

-397568.366903814 7.77485264806925e6 0.0
7.77485264806925e6 -3.822544384969313e6 0.0
0.0 0.0 0.0

-3.7983343059775084e6 1.5201873172579389e7 0.0
1.5201873172579389e7 -3.4010534595458237e6 0.0
0.0 0.0 0.0

-3598.4853857742855 2.603517231482931e6 0.0
2.603517231482931e6 -655922.9116083265 0.0
0.0 0.0 0.0

-3.328383797951516e6 6.967203704769149e6 0.0
6.967203704769149e6 1.7769666605946221e6 0.0
0.0 0.0 0.0

-6.736572745084479e6 9.154029849296778e6 0.0
9.154029849296778e6 3.399947615242997e6 0.0
0.0 0.0 0.0

-4.995107400433546e6 9.088184144199733e6 0.0
9.088184144199733e6 1.782578575233844e6 0.0
0.0 0.0 0.0

136075.24002314295 2.518237705492407e6 0.0
2.518237705492407e6 -362575.64864182303 0.0
0.0 0.0 0.0

-378082.0197211376 2.206074579394299e6 0.0
2.206074579394299e6 -1.2336296030306392e6 0.0
0.0 0.0 0.0

-1.4689159050691496e6 8.983092954877036e6 0.0
8.983092954877036e6 1.8945063609871399e6 0.0
0.0 0.0 0.0

-575338.8992042082 3.5040341096363496e6 0.0
3.5040341096363496e6 -312480.81993410434 0.0
0.0 0.0 0.0

-2.0440709901374879e6 1.2153499036072204e7 0.0
1.2153499036072204e7 -2.0356612317485795e6 0.0
0.0 0.0 0.0

-2.868099190874661e6 9.566087111381425e6 0.0
9.566087111381425e6 -919442.7140436264 0.0
0.0 0.0 0.0

-855450.7755523403 9.113527227911314e6 0.0
9.113527227911314e6 -2.835037817666605e6 0.0
0.0 0.0 0.0

-3.6390332267013276e6 7.976754470211082e6 0.0
7.976754470211082e6 791574.8384554756 0.0
0.0 0.0 0.0

-3.1416857745253057e6 6.384012258989934e6 0.0
6.384012258989934e6 1.2069137346622387e6 0.0
0.0 0.0 0.0

-1.7808508314031386e6 3.9568086557054366e6 0.0
3.9568086557054366e6 1.1432388706184574e6 0.0
0.0 0.0 0.0

-1.2739344529875645e7 7.439292155219631e6 0.0
7.439292155219631e6 7.8133273118685195e6 0.0
0.0 0.0 0.0

-248810.2203468526 514195.2922407822 0.0
514195.2922407822 -1.7817397355061145e6 0.0
0.0 0.0 0.0

-1.689555615848692e6 8.749559266366677e6 0.0
8.749559266366677e6 -1.9777018986523391e6 0.0
0.0 0.0 0.0

1.139594990616023e6 6.612534990901764e6 0.0
6.612534990901764e6 -6.339802456464656e6 0.0
0.0 0.0 0.0

-2.6122483259291756e6 1.1295819687773326e7 0.0
1.1295819687773326e7 -1.4101250498760664e6 0.0
0.0 0.0 0.0

-1.0937043285104565e6 4.41956649434105e6 0.0
4.41956649434105e6 -1.1715185851577772e6 0.0
0.0 0.0 0.0

-745403.3567462589 7.620763336511282e6 0.0
7.620763336511282e6 -4.6664463800993385e6 0.0
0.0 0.0 0.0

1.6969132141108767e6 9.741627073599853e6 0.0
9.741627073599853e6 2.8904879463300896e6 0.0
0.0 0.0 0.0

-267200.7403234756 2.5701259492391683e6 0.0
2.5701259492391683e6 -908150.2203561191 0.0
0.0 0.0 0.0

-2.5995562476305803e6 7.989266877241514e6 0.0
7.989266877241514e6 4.419396000201166e6 0.0
0.0 0.0 0.0

-4.50652981811838e6 8.959833445151774e6 0.0
8.959833445151774e6 5.431987984631987e6 0.0
0.0 0.0 0.0

-1.8534599678662815e6 5.218872516912445e6 0.0
5.218872516912445e6 -1.439715201436198e6 0.0
0.0 0.0 0.0

-8.332862032433772e6 1.2443503044373687e7 0.0
1.2443503044373687e7 2.7741856152383653e6 0.0
0.0 0.0 0.0

-4.202010673825833e6 8.243112459411433e6 0.0
8.243112459411433e6 432845.4392303198 0.0
0.0 0.0 0.0

-2.310249105484868e6 4.9150459552542595e6 0.0
4.9150459552542595e6 1.095027254684084e6 0.0
0.0 0.0 0.0

835551.3231061981 7.395256774559709e6 0.0
7.395256774559709e6 -7.079693738934137e6 0.0
0.0 0.0 0.0

-522863.6909884539 2.365613353478483e6 0.0
2.365613353478483e6 -1.1945093160564166e6 0.0
0.0 0.0 0.0

-1.293949047408557e6 9.107924383297523e6 0.0
9.107924383297523e6 131461.1858314399 0.0
0.0 0.0 0.0

999665.8424116985 7.236240589630808e6 0.0
7.236240589630808e6 669373.4474548824 0.0
0.0 0.0 0.0

-4.733107196097037e6 3.736460263191769e6 0.0
3.736460263191769e6 4.821204180998719e6 0.0
0.0 0.0 0.0

-2.9475919812143957e6 7.18524640352762e6 0.0
7.18524640352762e6 1.5207319874067423e6 0.0
0.0 0.0 0.0

-4.122999043920828e6 8.376697526984733e6 0.0
8.376697526984733e6 1.6542392001451948e6 0.0
0.0 0.0 0.0

-1.5191823262856323e7 7.548260913669726e6 0.0
7.548260913669726e6 8.359945780381059e6 0.0
0.0 0.0 0.0

-1.143787191788374e6 3.616055723805033e6 0.0
3.616055723805033e6 -917028.304549528 0.0
0.0 0.0 0.0

-3.899136986577727e6 8.262195288937064e6 0.0
8.262195288937064e6 1.5124164163034486e6 0.0
0.0 0.0 0.0

-3.802209431962983e6 7.8297179660876235e6 0.0
7.8297179660876235e6 398507.6918308055 0.0
0.0 0.0 0.0

-1.2910228076923646e6 7.683396406508862e6 0.0
7.683396406508862e6 4.226765838545799e6 0.0
0.0 0.0 0.0

-4.90012045021513e6 8.910065582376463e6 0.0
8.910065582376463e6 1.1188926609647668e6 0.0
0.0 0.0 0.0

-722693.0869987092 1.0058770761670722e6 0.0
1.0058770761670722e6 -1.4312913486101665e6 0.0
0.0 0.0 0.0

-2.417380177790804e6 8.98252224365363e6 0.0
8.98252224365363e6 -1.6153228275288101e6 0.0
0.0 0.0 0.0

-322725.62225255696 3.203722983668859e6 0.0
3.203722983668859e6 -746485.7112304561 0.0
0.0 0.0 0.0

530848.771332843 6.824787146190335e6 0.0
6.824787146190335e6 -4.377541206146178e6 0.0
0.0 0.0 0.0

1.2201803820774662e6 6.70241183739991e6 0.0
6.70241183739991e6 -6.429666464332693e6 0.0
0.0 0.0 0.0

-1.6769120515680981e6 8.092339213101243e6 0.0
8.092339213101243e6 2.1055358052630927e6 0.0
0.0 0.0 0.0

-1.0583976586079737e6 9.554102371257763e6 0.0
9.554102371257763e6 -2.6231501457470106e6 0.0
0.0 0.0 0.0

-2.433152965630436e6 4.864459769127007e6 0.0
4.864459769127007e6 722656.4378800454 0.0
0.0 0.0 0.0

1.7612629079894705e6 5.16071736825052e6 0.0
5.16071736825052e6 -5.4385520082196295e6 0.0
0.0 0.0 0.0

-957681.3646048906 8.562002271064965e6 0.0
8.562002271064965e6 -2.725587469066193e6 0.0
0.0 0.0 0.0

-1.0177073429046781e6 8.829100627010409e6 0.0
8.829100627010409e6 -3.1547572104278933e6 0.0
0.0 0.0 0.0

-2.693023864566369e6 5.165955219447227e6 0.0
5.165955219447227e6 978672.1441133622 0.0
0.0 0.0 0.0

-3.3048378598765503e6 3.0786688691435736e6 0.0
3.0786688691435736e6 2.1884636143926713e6 0.0
0.0 0.0 0.0

-280951.1194636895 2.988677373071338e6 0.0
2.988677373071338e6 -597307.1919361497 0.0
0.0 0.0 0.0

-1.3486316419974347e6 9.428340438344376e6 0.0
9.428340438344376e6 -2.796273902830717e6 0.0
0.0 0.0 0.0

-735333.4925239802 4.365148643845393e6 0.0
4.365148643845393e6 -1.163112576232844e6 0.0
0.0 0.0 0.0

-1.8651237533958477e6 7.368175139688777e6 0.0
7.368175139688777e6 5.779510602487715e6 0.0
0.0 0.0 0.0

-3.402266845705903e6 9.424377693098882e6 0.0
9.424377693098882e6 -821249.1087334682 0.0
0.0 0.0 0.0

-681881.3220085709 1.234406736103996e6 0.0
1.234406736103996e6 -1.2052961193548827e6 0.0
0.0 0.0 0.0

-4.921636884624588e6 1.8392779681528762e6 0.0
1.8392779681528762e6 6.877652716736211e6 0.0
0.0 0.0 0.0

-5.397778784072805e6 8.92701292493745e6 0.0
8.92701292493745e6 2.4041987329571955e6 0.0
0.0 0.0 0.0

-5.61179578784575e6 8.169770211827354e6 0.0
8.169770211827354e6 3.0462544211403327e6 0.0
0.0 0.0 0.0

-494187.90945051785 2.7400014524459434e6 0.0
2.7400014524459434e6 -1.2473602981940773e6 0.0
0.0 0.0 0.0

-823936.5187181244 1.1042044983014744e6 0.0
1.1042044983014744e6 352939.59777773515 0.0
0.0 0.0 0.0

-385332.51844237046 7.440332762600594e6 0.0
7.440332762600594e6 -4.102484400965917e6 0.0
0.0 0.0 0.0

-2.7340484879304687e6 5.3842191572592845e6 0.0
5.3842191572592845e6 1.5611824434323024e6 0.0
0.0 0.0 0.0

-6.430088172940362e6 1.7745229381723918e6 0.0
1.7745229381723918e6 8.370580404564438e6 0.0
0.0 0.0 0.0

-1.792415675255482e7 -421903.0883122132 0.0
-421903.0883122132 8.961941096899878e6 0.0
0.0 0.0 0.0

-1.078384048635438e6 6.713303659247558e6 0.0
6.713303659247558e6 -2.666627341114925e6 0.0
0.0 0.0 0.0

-365289.64084837993 9.229469417420886e6 0.0
9.229469417420886e6 -535048.202414781 0.0
0.0 0.0 0.0

1.7121226432631414e6 5.282462711187424e6 0.0
5.282462711187424e6 -4.998715869333722e6 0.0
0.0 0.0 0.0

-4.788689354204563e6 6.224299133944814e6 0.0
6.224299133944814e6 7.441527547901853e6 0.0
0.0 0.0 0.0

-6.889970402782982e6 1.9921604802433497e6 0.0
1.9921604802433497e6 6.857431296180792e6 0.0
0.0 0.0 0.0

-1.338802921136758e6 2.8902476216780874e6 0.0
2.8902476216780874e6 -1.5132801908522476e6 0.0
0.0 0.0 0.0

-3.630103577521495e6 7.928030727274286e6 0.0
7.928030727274286e6 442748.2288680475 0.0
0.0 0.0 0.0

-4.402256566596219e6 8.451680822219346e6 0.0
8.451680822219346e6 1.4015615176803179e6 0.0
0.0 0.0 0.0

-2.6106067527547767e6 6.240818911879919e6 0.0
6.240818911879919e6 1.0139687696534642e6 0.0
0.0 0.0 0.0

-4.998390653783616e6 8.582190768971367e6 0.0
8.582190768971367e6 2.571580831238811e6 0.0
0.0 0.0 0.0

-3.0755071038369015e6 7.760725755705417e6 0.0
7.760725755705417e6 145227.30769961711 0.0
0.0 0.0 0.0

-5.508179200614849e6 -739139.4546752395 0.0
-739139.4546752395 6.930281070059456e6 0.0
0.0 0.0 0.0

-955204.0473390865 9.052474698198061e6 0.0
9.052474698198061e6 1.3993626789845787e6 0.0
0.0 0.0 0.0

-1.3915011214390553e6 9.038699085462436e6 0.0
9.038699085462436e6 -2.2795433711827686e6 0.0
0.0 0.0 0.0

-7.904066329018477e6 3.7745968351921705e6 0.0
3.7745968351921705e6 5.869779377607088e6 0.0
0.0 0.0 0.0

-293676.288722805 2.5821010828690766e6 0.0
2.5821010828690766e6 -1.3643597445539648e6 0.0
0.0 0.0 0.0

-6.514494524158875e6 9.154429566521775e6 0.0
9.154429566521775e6 3.151208732349411e6 0.0
0.0 0.0 0.0

-402705.87512336485 9.227407488193443e6 0.0
9.227407488193443e6 -509581.5550141606 0.0
0.0 0.0 0.0

-5.032417700280171e6 5.25907455727593e6 0.0
5.25907455727593e6 5.326201691695931e6 0.0
0.0 0.0 0.0

-394688.2819447763 7.364864692177056e6 0.0
7.364864692177056e6 -3.3440785191547354e6 0.0
0.0 0.0 0.0

-2.4833077750158296e6 3.996396473668967e6 0.0
3.996396473668967e6 2.1317524556501927e6 0.0
0.0 0.0 0.0

-793126.166216855 1.300949187632892e6 0.0
1.300949187632892e6 -1.34739639478641e6 0.0
0.0 0.0 0.0

397925.1887494179 6.809445229466657e6 0.0
6.809445229466657e6 -4.404445929841892e6 0.0
0.0 0.0 0.0

-2.3614722887180857e6 9.073983327890435e6 0.0
9.073983327890435e6 1.2149965396374315e6 0.0
0.0 0.0 0.0

-3.4346930309276492e6 8.217552236528541e6 0.0
8.217552236528541e6 324241.63100877125 0.0
0.0 0.0 0.0

-4.3673890628549885e6 8.58840870561497e6 0.0
8.58840870561497e6 1.4488382835696605e6 0.0
0.0 0.0 0.0

-1.9758362586236428e6 1.1414943922310261e7 0.0
1.1414943922310261e7 -1.8261072943477663e6 0.0
0.0 0.0 0.0

327788.0032874483 7.20877254785695e6 0.0
7.20877254785695e6 -4.009329466111276e6 0.0
0.0 0.0 0.0

-850657.3985422053 1.6682782265073631e6 0.0
1.6682782265073631e6 -676492.1011675613 0.0
0.0 0.0 0.0

348439.596994529 6.836018695988315e6 0.0
6.836018695988315e6 -4.3062805777859455e6 0.0
0.0 0.0 0.0

-1.1644754199967855e6 2.846491081897761e6 0.0
2.846491081897761e6 -1.0932718871873575e6 0.0
0.0 0.0 0.0

-143982.29398769443 8.562827456719957e6 0.0
8.562827456719957e6 4.568305519405028e6 0.0
0.0 0.0 0.0

-8.41921615234784e6 9.223662596376248e6 0.0
9.223662596376248e6 4.457870791595388e6 0.0
0.0 0.0 0.0

-267798.8665123707 1.0558116057427544e6 0.0
1.0558116057427544e6 833115.4030644149 0.0
0.0 0.0 0.0

991140.9312075884 7.161455669255369e6 0.0
7.161455669255369e6 -5.990651245108223e6 0.0
0.0 0.0 0.0

-2.0734886919215778e6 1.111305198528763e7 0.0
1.111305198528763e7 -1.1243180971744095e6 0.0
0.0 0.0 0.0

-1.6044317524174429e6 8.775014164923603e6 0.0
8.775014164923603e6 935451.6494929928 0.0
0.0 0.0 0.0

499806.14615429216 6.67893339925737e6 0.0
6.67893339925737e6 -5.179295515175657e6 0.0
0.0 0.0 0.0

-8.52289986507263e6 8.691974314266259e6 0.0
8.691974314266259e6 4.783737452413967e6 0.0
0.0 0.0 0.0

-2.941446640109201e6 7.947005149715275e6 0.0
7.947005149715275e6 4.59820227438622e6 0.0
0.0 0.0 0.0

-1.8832720953073286e7 5.886788779923074e6 0.0
5.886788779923074e6 7.692258482316852e6 0.0
0.0 0.0 0.0

-1.9743443983012305e6 8.535565004863761e6 0.0
8.535565004863761e6 1.924155592214383e6 0.0
0.0 0.0 0.0

-382634.39115294465 7.120217989581197e6 0.0
7.120217989581197e6 -3.425177751628932e6 0.0
0.0 0.0 0.0

1.109554543114005e7 1.0318698791606857e7 0.0
1.0318698791606857e7 362457.53522790316 0.0
0.0 0.0 0.0

-4.967975634069398e6 6.92396300684788e6 0.0
6.92396300684788e6 8.577400183355499e6 0.0
0.0 0.0 0.0

-484389.75649215985 3.1458958112649145e6 0.0
3.1458958112649145e6 -567261.7290627875 0.0
0.0 0.0 0.0

-486029.9482156138 9.21743066819328e6 0.0
9.21743066819328e6 -173811.41095213787 0.0
0.0 0.0 0.0

-406928.1527791914 7.874983784631812e6 0.0
7.874983784631812e6 -4.236750747328707e6 0.0
0.0 0.0 0.0

-163975.5804161526 1.1825167995142765e7 0.0
1.1825167995142765e7 -2.705369988225576e6 0.0
0.0 0.0 0.0

-2.7465248000275684e6 6.900585947616204e6 0.0
6.900585947616204e6 556428.6197064935 0.0
0.0 0.0 0.0

-5.3321977473574355e6 1.7543735693799355e6 0.0
1.7543735693799355e6 5.540274252567549e6 0.0
0.0 0.0 0.0

-9.128571113176486e6 8.637450014797235e6 0.0
8.637450014797235e6 4.756118403019356e6 0.0
0.0 0.0 0.0

-2.6695501799750593e6 8.319665607345837e6 0.0
8.319665607345837e6 541261.7802851935 0.0
0.0 0.0 0.0

-4.1791062129770396e6 8.477815016712295e6 0.0
8.477815016712295e6 1.2405393052110723e6 0.0
0.0 0.0 0.0

-5.456694911781351e6 1.0681889918272551e7 0.0
1.0681889918272551e7 2.0346165334140826e6 0.0
0.0 0.0 0.0

-5.282084022821346e6 8.868454685922744e6 0.0
8.868454685922744e6 2.2085300646005804e6 0.0
0.0 0.0 0.0

-489912.4426790931 9.370889845483253e6 0.0
9.370889845483253e6 -502107.17707625503 0.0
0.0 0.0 0.0

-1.329659315986718e6 8.926025565085083e6 0.0
8.926025565085083e6 1.0694317995893317e6 0.0
0.0 0.0 0.0

527101.9630864153 8.455261299787473e6 0.0
8.455261299787473e6 -2.696431243895956e6 0.0
0.0 0.0 0.0

-307524.2166434652 7.950463315438735e6 0.0
7.950463315438735e6 -5.1731017423520945e6 0.0
0.0 0.0 0.0

-781904.2203903368 9.311389813643865e6 0.0
9.311389813643865e6 -353740.20366978645 0.0
0.0 0.0 0.0

-3.346675170541791e6 8.073877358009228e6 0.0
8.073877358009228e6 351829.4753948557 0.0
0.0 0.0 0.0

-3.8566059951513503e6 3.777256433419964e6 0.0
3.777256433419964e6 7.739750524609555e6 0.0
0.0 0.0 0.0

-2.1340609614440766e6 9.608162384791503e6 0.0
9.608162384791503e6 -1.3250721538648205e6 0.0
0.0 0.0 0.0

-1.0808891154902426e6 8.458046090890469e6 0.0
8.458046090890469e6 -3.0293320110920356e6 0.0
0.0 0.0 0.0

517228.600541743 6.904771298114404e6 0.0
6.904771298114404e6 -3.6908580379061783e6 0.0
0.0 0.0 0.0

-5.539058187313314e6 6.47034098514919e6 0.0
6.47034098514919e6 7.055167476984811e6 0.0
0.0 0.0 0.0

-1.4074892960811914e6 8.966255238429159e6 0.0
8.966255238429159e6 545971.4767873872 0.0
0.0 0.0 0.0

-3.2039801909500053e6 4.0171131970370696e6 0.0
4.0171131970370696e6 3.2599779422910158e6 0.0
0.0 0.0 0.0

-2.427872936798355e6 6.380908318000349e6 0.0
6.380908318000349e6 680860.7404222231 0.0
0.0 0.0 0.0

-2.730594509740141e6 8.970146328745432e6 0.0
8.970146328745432e6 1.0688421550571106e6 0.0
0.0 0.0 0.0

-3.42762965132822e6 4.096605388813039e6 0.0
4.096605388813039e6 2.2244350472035226e6 0.0
0.0 0.0 0.0

-5.274498758387545e6 4.093971489373674e6 0.0
4.093971489373674e6 5.094390690524209e6 0.0
0.0 0.0 0.0

-1.8848903484358855e6 3.961729733140409e6 0.0
3.961729733140409e6 748216.8106018752 0.0
0.0 0.0 0.0

-397813.39219011425 2.8294020146114365e6 0.0
2.8294020146114365e6 -174308.42937146054 0.0
0.0 0.0 0.0

-3.1562395929015204e6 6.882272629289792e6 0.0
6.882272629289792e6 1.55594426717323e6 0.0
0.0 0.0 0.0

-71057.28819519351 7.594261897415595e6 0.0
7.594261897415595e6 -4.981551214029856e6 0.0
0.0 0.0 0.0

-623302.9352236274 7.839050813957811e6 0.0
7.839050813957811e6 -3.9254262479243306e6 0.0
0.0 0.0 0.0

-1.2477063953588508e7 4.596162488850398e6 0.0
4.596162488850398e6 5.944561890524136e6 0.0
0.0 0.0 0.0

-6.62469366301339e6 171811.35708241313 0.0
171811.35708241313 8.90958727639661e6 0.0
0.0 0.0 0.0

-488115.0107181306 8.005546521329158e6 0.0
8.005546521329158e6 -3.567251551544489e6 0.0
0.0 0.0 0.0

-5.956346952641731e6 9.11286293161354e6 0.0
9.11286293161354e6 2.483001546660664e6 0.0
0.0 0.0 0.0

-605738.4389253542 9.139178595866583e6 0.0
9.139178595866583e6 591999.2590429416 0.0
0.0 0.0 0.0

-395020.6695102205 2.071850392833866e6 0.0
2.071850392833866e6 -695348.1633922134 0.0
0.0 0.0 0.0

-402120.93906058616 9.202729217923913e6 0.0
9.202729217923913e6 -505236.7073522488 0.0
0.0 0.0 0.0

-3.3357407259137398e6 7.1156572484235335e6 0.0
7.1156572484235335e6 -167667.95795038587 0.0
0.0 0.0 0.0

-638690.9263686899 3.2994639695129264e6 0.0
3.2994639695129264e6 -1.0387846559895858e6 0.0
0.0 0.0 0.0

3.022387162758461e6 6.0631943096730895e6 0.0
6.0631943096730895e6 -6.851376307765456e6 0.0
0.0 0.0 0.0

-1.0306106170626982e6 4.51243309577851e6 0.0
4.51243309577851e6 -1.629850409909017e6 0.0
0.0 0.0 0.0

-1.5653002526351297e6 1.1648347655616421e6 0.0
1.1648347655616421e6 739159.1719472968 0.0
0.0 0.0 0.0

-2.0657589665291621e6 1.049700361155767e7 0.0
1.049700361155767e7 -1.9368234948641108e6 0.0
0.0 0.0 0.0

-1.2321421055899619e6 1.0046824598810507e7 0.0
1.0046824598810507e7 2.1973439554075585e6 0.0
0.0 0.0 0.0

-966136.758419662 4.625485109872567e6 0.0
4.625485109872567e6 -1.1251805036946523e6 0.0
0.0 0.0 0.0

-3.0254887310186494e6 7.543078672483863e6 0.0
7.543078672483863e6 4.699294870394295e6 0.0
0.0 0.0 0.0

-9.018439295294845e6 9.016241705289042e6 0.0
9.016241705289042e6 4.784933950158479e6 0.0
0.0 0.0 0.0

-526115.5865775465 3.218948107863263e6 0.0
3.218948107863263e6 -775755.3450972538 0.0
0.0 0.0 0.0

-1.2519019154472868e6 8.914061478235386e6 0.0
8.914061478235386e6 1.2789752472916478e6 0.0
0.0 0.0 0.0

-564726.6963582183 7.219432396448823e6 0.0
7.219432396448823e6 -3.579342899768474e6 0.0
0.0 0.0 0.0

-5.318766704334841e6 7.594978613916755e6 0.0
7.594978613916755e6 347315.87785483897 0.0
0.0 0.0 0.0

-438396.63485898386 1.6659502848233737e6 0.0
1.6659502848233737e6 -1.1687362327355375e6 0.0
0.0 0.0 0.0

-4.1200084183135894e6 8.907827446564563e6 0.0
8.907827446564563e6 781744.5307853657 0.0
0.0 0.0 0.0

1.612766833974629e6 9.09158758277357e6 0.0
9.09158758277357e6 2.9056671712747747e6 0.0
0.0 0.0 0.0

-3.967157663368785e6 7.88243885136002e6 0.0
7.88243885136002e6 534509.7603833857 0.0
0.0 0.0 0.0

-453837.71422142 7.195311892843187e6 0.0
7.195311892843187e6 -3.198026952290465e6 0.0
0.0 0.0 0.0

-3.1813906341486173e6 7.278990057416977e6 0.0
7.278990057416977e6 1.4501104032162772e6 0.0
0.0 0.0 0.0

-5.901040835980728e6 -1.5654809646889959e6 0.0
-1.5654809646889959e6 1.002522802440596e7 0.0
0.0 0.0 0.0

-2.170845867396817e6 7.771806081104675e6 0.0
7.771806081104675e6 1.5070216864207454e6 0.0
0.0 0.0 0.0

-6.76909531728975e6 9.189521741781281e6 0.0
9.189521741781281e6 3.312612903427014e6 0.0
0.0 0.0 0.0

87938.65442257095 7.461417893285762e6 0.0
7.461417893285762e6 -4.962212312056609e6 0.0
0.0 0.0 0.0

-747869.5715315677 8.960798577266194e6 0.0
8.960798577266194e6 -2.9550072077579782e6 0.0
0.0 0.0 0.0

-771803.4446099306 8.764923762489583e6 0.0
8.764923762489583e6 -3.0493929972112947e6 0.0
0.0 0.0 0.0

-5.908367567272661e6 3.3545362432337953e6 0.0
3.3545362432337953e6 8.109172274567965e6 0.0
0.0 0.0 0.0

-2.6880523131509232e6 6.573049270758148e6 0.0
6.573049270758148e6 906216.9649991533 0.0
0.0 0.0 0.0

-1.907425278517231e7 5.447375500271672e6 0.0
5.447375500271672e6 3.583732514824955e7 0.0
0.0 0.0 0.0

1.953328216816865e6 8.339176128939744e6 0.0
8.339176128939744e6 -7.12169903861224e6 0.0
0.0 0.0 0.0

-8.83999618674116e6 5.628179134748727e6 0.0
5.628179134748727e6 4.844091108493213e6 0.0
0.0 0.0 0.0

-1.6376312696339532e6 8.75595332962856e6 0.0
8.75595332962856e6 786292.6866784446 0.0
0.0 0.0 0.0

-7.53555947630945e6 8.381254479216792e6 0.0
8.381254479216792e6 529983.0779616814 0.0
0.0 0.0 0.0

-291608.19594628306 1.6769104352164008e6 0.0
1.6769104352164008e6 -791110.7677291099 0.0
0.0 0.0 0.0

-2.7854192895911676e6 4.62440250640946e6 0.0
4.62440250640946e6 1.3867694997118951e6 0.0
0.0 0.0 0.0

-4.1448310699640578e6 8.876171536110045e6 0.0
8.876171536110045e6 149552.59912012308 0.0
0.0 0.0 0.0

-1.1522673398178755e6 1.2261423920192542e6 0.0
1.2261423920192542e6 795121.4607301112 0.0
0.0 0.0 0.0

2.315875176820195e6 1.0082441590088446e7 0.0
1.0082441590088446e7 2.8762309448167984e6 0.0
0.0 0.0 0.0

-1.5884393094818755e6 8.87533823864963e6 0.0
8.87533823864963e6 2.1294944631200493e6 0.0
0.0 0.0 0.0

-2.527976802849761e6 5.344998066803891e6 0.0
5.344998066803891e6 1.311118106709252e6 0.0
0.0 0.0 0.0

-1.5160428608441927e7 6.885036675191273e6 0.0
6.885036675191273e6 8.565452610582566e6 0.0
0.0 0.0 0.0

883574.8520627039 7.784427696153454e6 0.0
7.784427696153454e6 -1.9939435819433713e6 0.0
0.0 0.0 0.0

737163.9531670235 8.54117145032684e6 0.0
8.54117145032684e6 -2.5612905966541003e6 0.0
0.0 0.0 0.0

-3.554034119636189e6 7.709849137631644e6 0.0
7.709849137631644e6 1.5162006664420294e6 0.0
0.0 0.0 0.0

-2.375853879513701e6 8.71600495281169e6 0.0
8.71600495281169e6 -26347.438123748987 0.0
0.0 0.0 0.0

-168562.8018378571 7.5186061251282245e6 0.0
7.5186061251282245e6 -3.2294293916414795e6 0.0
0.0 0.0 0.0

581271.2419517029 9.265857215039734e6 0.0
9.265857215039734e6 -2.934251557786048e6 0.0
0.0 0.0 0.0

-2.2152508664576914e6 7.801061191950921e6 0.0
7.801061191950921e6 1.8644648066989263e6 0.0
0.0 0.0 0.0

-7.263374449016117e6 1.1499693004722634e7 0.0
1.1499693004722634e7 3.4233967106465097e6 0.0
0.0 0.0 0.0

-3.203304777368226e6 6.662357019697286e6 0.0
6.662357019697286e6 1.5222448319077487e6 0.0
0.0 0.0 0.0

-8.568388219336666e6 9.034907532658242e6 0.0
9.034907532658242e6 4.829017229987834e6 0.0
0.0 0.0 0.0

-110180.54989494965 7.962556716240799e6 0.0
7.962556716240799e6 -5.347433657793145e6 0.0
0.0 0.0 0.0

-416864.97530617774 9.247782495438911e6 0.0
9.247782495438911e6 -5.782993710990036e6 0.0
0.0 0.0 0.0

-4.321899826106163e6 1.3403224118981225e7 0.0
1.3403224118981225e7 2.1119758656104412e7 0.0
0.0 0.0 0.0

-1.4307516802062155e6 9.836278320632812e6 0.0
9.836278320632812e6 2.4835524830591157e6 0.0
0.0 0.0 0.0

450134.8462694385 6.960148937821226e6 0.0
6.960148937821226e6 -5.623687745948088e6 0.0
0.0 0.0 0.0

-7.649105072652494e6 1.1292755117849011e7 0.0
1.1292755117849011e7 3.0844802296651127e6 0.0
0.0 0.0 0.0

-2.885618543979166e6 9.235098162138306e6 0.0
9.235098162138306e6 -524743.2996668478 0.0
0.0 0.0 0.0

-748364.1332974626 9.062924354313012e6 0.0
9.062924354313012e6 -4809.486127669632 0.0
0.0 0.0 0.0

-1.6223578591116304e6 1.0594968665595122e7 0.0
1.0594968665595122e7 -1.783840347052423e6 0.0
0.0 0.0 0.0

-1.650239520829713e7 6.5570558915125225e6 0.0
6.5570558915125225e6 8.762972445463544e6 0.0
0.0 0.0 0.0

-6.370489100402085e6 9.130345914900111e6 0.0
9.130345914900111e6 3.1816297498506336e6 0.0
0.0 0.0 0.0

-3.824410229024947e6 7.881480577419653e6 0.0
7.881480577419653e6 1.4069480455712702e6 0.0
0.0 0.0 0.0

1.2576878598993015e6 6.666561696717398e6 0.0
6.666561696717398e6 -6.265738335569371e6 0.0
0.0 0.0 0.0

-517696.6229316633 1.2064538325700937e7 0.0
1.2064538325700937e7 -2.679667989015184e6 0.0
0.0 0.0 0.0

-136740.3350602982 7.534683863046666e6 0.0
7.534683863046666e6 -4.735239867249417e6 0.0
0.0 0.0 0.0

-1.2130764678273904e6 1.2102253175933022e7 0.0
1.2102253175933022e7 -1.9250150045891805e6 0.0
0.0 0.0 0.0

66415.98665857862 7.26488203920964e6 0.0
7.26488203920964e6 -2.8749307532803165e6 0.0
0.0 0.0 0.0

-1.349178128150309e6 9.038334584372701e6 0.0
9.038334584372701e6 1.4010830184475523e6 0.0
0.0 0.0 0.0

-4.35508923776647e6 8.402295494330196e6 0.0
8.402295494330196e6 1.9387884147888192e6 0.0
0.0 0.0 0.0

455495.8340867488 2.40985292700489e6 0.0
2.40985292700489e6 -663904.6655535605 0.0
0.0 0.0 0.0

3.609754819674611e6 9.054465825178336e6 0.0
9.054465825178336e6 -3.766635855881224e6 0.0
0.0 0.0 0.0

-2.078319571085687e7 2.351214159296729e6 0.0
2.351214159296729e6 1.0459337432206675e7 0.0
0.0 0.0 0.0

-6.1517677586387675e6 3.5272423217449654e6 0.0
3.5272423217449654e6 7.177875630860929e6 0.0
0.0 0.0 0.0

-2.7714152217860417e6 8.123533033921526e6 0.0
8.123533033921526e6 468246.39911903883 0.0
0.0 0.0 0.0

682592.3373102834 9.17095625493021e6 0.0
9.17095625493021e6 -3.213020451256672e6 0.0
0.0 0.0 0.0

1.0165991358606769e6 6.021527442160394e6 0.0
6.021527442160394e6 -4.6656209421368465e6 0.0
0.0 0.0 0.0

-1.9318831485276718e6 8.60301636018483e6 0.0
8.60301636018483e6 587764.9486135609 0.0
0.0 0.0 0.0

-5.3711791950095035e6 -747883.8300982115 0.0
-747883.8300982115 6.39840114349304e6 0.0
0.0 0.0 0.0

-784392.8789242383 9.483482052043796e6 0.0
9.483482052043796e6 -7.2845696109492835e6 0.0
0.0 0.0 0.0

-2.008479920173565e6 1.7125662074495032e7 0.0
1.7125662074495032e7 3.253997930607083e7 0.0
0.0 0.0 0.0

-290382.33601445076 7.265520554695842e6 0.0
7.265520554695842e6 -4.326109662052488e6 0.0
0.0 0.0 0.0

-890962.5102646849 1.7943150908208303e6 0.0
1.7943150908208303e6 -1.1408743750914633e6 0.0
0.0 0.0 0.0

-1.9519668051857252e6 8.376524440730352e6 0.0
8.376524440730352e6 4.1483829358570864e6 0.0
0.0 0.0 0.0

-6.678564118612532e6 -2.098960758237714e6 0.0
-2.098960758237714e6 1.0264403438902471e7 0.0
0.0 0.0 0.0

-824969.1198181293 3.576982811254915e6 0.0
3.576982811254915e6 -1.2974217122703695e6 0.0
0.0 0.0 0.0

-6.738161838874718e6 1.2524450123900427e7 0.0
1.2524450123900427e7 2.1645994214594476e6 0.0
0.0 0.0 0.0

-2.0551696469805432e6 9.068999950191822e6 0.0
9.068999950191822e6 -1.9146385910130523e6 0.0
0.0 0.0 0.0

-948855.016913122 9.193970960074583e6 0.0
9.193970960074583e6 1.328452110544605e6 0.0
0.0 0.0 0.0

-2.307517628813912e6 8.612936787330989e6 0.0
8.612936787330989e6 -123037.12691429444 0.0
0.0 0.0 0.0

-8.93646337537968e6 8.62876399239523e6 0.0
8.62876399239523e6 1.3238367397271916e6 0.0
0.0 0.0 0.0

-5.969250183309678e6 9.038332248636663e6 0.0
9.038332248636663e6 2.9875687187645426e6 0.0
0.0 0.0 0.0

-578486.592893507 9.30111663183914e6 0.0
9.30111663183914e6 62118.72471420962 0.0
0.0 0.0 0.0

-1.4889895433714315e6 8.826415064138347e6 0.0
8.826415064138347e6 890074.046169425 0.0
0.0 0.0 0.0

-1.019914249955e6 8.643213480120584e6 0.0
8.643213480120584e6 -2.861541570744054e6 0.0
0.0 0.0 0.0

-1.7355778677780551e6 1.0558790680247892e7 0.0
1.0558790680247892e7 -2.220280982927777e6 0.0
0.0 0.0 0.0

-7.834992027524844e6 -1.118449423380194e6 0.0
-1.118449423380194e6 9.259982776460234e6 0.0
0.0 0.0 0.0

-1.500612952632294e7 6.940402009150345e6 0.0
6.940402009150345e6 9.233257134709988e6 0.0
0.0 0.0 0.0

-8.916229854427107e6 7.595227878531546e6 0.0
7.595227878531546e6 4.980731456235089e6 0.0
0.0 0.0 0.0

-1.1613290522021275e7 2.316980144507627e6 0.0
2.316980144507627e6 7.34251381182803e6 0.0
0.0 0.0 0.0

-510325.1859547469 9.370805740449436e6 0.0
9.370805740449436e6 -344667.548663017 0.0
0.0 0.0 0.0

-2.911435433362063e6 8.311527834709996e6 0.0
8.311527834709996e6 -144576.7026025157 0.0
0.0 0.0 0.0

-1.0028848464514203e7 4.580619971408567e6 0.0
4.580619971408567e6 5.245500180306154e6 0.0
0.0 0.0 0.0

-967638.4161444835 3.310594418217597e6 0.0
3.310594418217597e6 -903493.1932937545 0.0
0.0 0.0 0.0

-1.227287319007208e6 9.160027197396021e6 0.0
9.160027197396021e6 1.3650143324524774e6 0.0
0.0 0.0 0.0

745404.4788413357 6.913457846636581e6 0.0
6.913457846636581e6 -5.521574258933357e6 0.0
0.0 0.0 0.0

-5.121821639305677e6 3.9073646651411415e6 0.0
3.9073646651411415e6 7.737095163641257e6 0.0
0.0 0.0 0.0

-6.3847166388574345e6 -1.9620194762352703e6 0.0
-1.9620194762352703e6 8.508074761375329e6 0.0
0.0 0.0 0.0

1.2755148510474865e6 6.661157936530126e6 0.0
6.661157936530126e6 -6.33857104494728e6 0.0
0.0 0.0 0.0

-1.355874029684794e7 3.902971903484047e6 0.0
3.902971903484047e6 6.68322688816167e6 0.0
0.0 0.0 0.0

-3.6034401164467447e6 -833024.5170744653 0.0
-833024.5170744653 3.6870561646398203e6 0.0
0.0 0.0 0.0

-523460.6372239843 803538.5177041957 0.0
803538.5177041957 234680.2821519773 0.0
0.0 0.0 0.0

-1.2677496798599702e6 3.126399614113231e6 0.0
3.126399614113231e6 -1.6977087686163085e6 0.0
0.0 0.0 0.0

-580554.5029760792 1.0576106427641395e6 0.0
1.0576106427641395e6 597895.0193972883 0.0
0.0 0.0 0.0

-1.1664537244519465e7 1.641077531562776e7 0.0
1.641077531562776e7 3.4342767831869447e6 0.0
0.0 0.0 0.0

-2.637615694776946e6 5.583439955613851e6 0.0
5.583439955613851e6 1.3865116066855523e6 0.0
0.0 0.0 0.0

1.1220156663119332e6 6.637003681024769e6 0.0
6.637003681024769e6 -6.594338206839494e6 0.0
0.0 0.0 0.0

1.1414832043273454e6 5.984591693896096e6 0.0
5.984591693896096e6 -5.885283877588925e6 0.0
0.0 0.0 0.0

-2.6253732352514854e6 6.815322088278817e6 0.0
6.815322088278817e6 736579.3055124723 0.0
0.0 0.0 0.0

-8.741223869297061e6 8.747024011315526e6 0.0
8.747024011315526e6 4.496829607528029e6 0.0
0.0 0.0 0.0

105643.92277236353 5.891197648971147e6 0.0
5.891197648971147e6 2.376616691370651e6 0.0
0.0 0.0 0.0

-2.545199653600896e6 7.879840636094354e6 0.0
7.879840636094354e6 4.674962939048322e6 0.0
0.0 0.0 0.0

-659481.5939211042 1.208487825025752e7 0.0
1.208487825025752e7 -3.174262983318286e6 0.0
0.0 0.0 0.0

-3.927663151084965e6 -884401.1920519432 0.0
-884401.1920519432 4.47929122507193e6 0.0
0.0 0.0 0.0

-9.121299214720229e6 2.2811826040277295e6 0.0
2.2811826040277295e6 4.824351543922658e6 0.0
0.0 0.0 0.0

-5.896621010891238e6 9.0827981195693e6 0.0
9.0827981195693e6 2.842944346966164e6 0.0
0.0 0.0 0.0

-4.6461649932891065e6 1.0387841296769219e7 0.0
1.0387841296769219e7 8.977005954826225e6 0.0
0.0 0.0 0.0

-733957.5745172435 1.2077340024215542e7 0.0
1.2077340024215542e7 -2.6714807031013723e6 0.0
0.0 0.0 0.0

-2.904392490950224e6 9.0850516953741e6 0.0
9.0850516953741e6 1.1404319505952233e6 0.0
0.0 0.0 0.0

-2.853863194306352e6 7.253282818940509e6 0.0
7.253282818940509e6 1.7974288379260113e6 0.0
0.0 0.0 0.0

-2.12672817734868e6 8.967333080281759e6 0.0
8.967333080281759e6 668081.574059632 0.0
0.0 0.0 0.0

-2.0203943510626584e7 5.34480021393839e6 0.0
5.34480021393839e6 6.577886903318986e6 0.0
0.0 0.0 0.0

-2.8586030592902284e6 5.445407622743274e6 0.0
5.445407622743274e6 1.16362239880161e6 0.0
0.0 0.0 0.0

-2.4592462122255536e6 9.136232253549412e6 0.0
9.136232253549412e6 722173.4340194096 0.0
0.0 0.0 0.0

-2.6250399165027654e6 7.53564662607115e6 0.0
7.53564662607115e6 1.5153883792393976e6 0.0
0.0 0.0 0.0

-979679.9012625157 1.1820182341180876e7 0.0
1.1820182341180876e7 -2.5772621922303233e6 0.0
0.0 0.0 0.0

736017.0839772839 6.088149873545645e6 0.0
6.088149873545645e6 -4.413502452451783e6 0.0
0.0 0.0 0.0

-1.6769869052294113e6 1.1237228502088323e7 0.0
1.1237228502088323e7 -2.0782434014265153e6 0.0
0.0 0.0 0.0

-1.7758467354791846e7 6.5984566783865e6 0.0
6.5984566783865e6 9.060665887018017e6 0.0
0.0 0.0 0.0

-5.083533053115939e6 8.53057896195495e6 0.0
8.53057896195495e6 2.3080076544668414e6 0.0
0.0 0.0 0.0

-446284.57086226245 2.9253860683025033e6 0.0
2.9253860683025033e6 -688947.8748257577 0.0
0.0 0.0 0.0

-1.4715614000631825e6 9.638387176584776e6 0.0
9.638387176584776e6 -2.553476002815153e6 0.0
0.0 0.0 0.0

3.010028049177557e6 8.739774156116193e6 0.0
8.739774156116193e6 -4.2591642507496625e6 0.0
0.0 0.0 0.0

-1.801172203377322e7 1.0318243867250057e7 0.0
1.0318243867250057e7 3.786722152703016e6 0.0
0.0 0.0 0.0

-522608.2912210906 9.00136456747977e6 0.0
9.00136456747977e6 241172.05402089137 0.0
0.0 0.0 0.0

690962.706566913 6.927342576206606e6 0.0
6.927342576206606e6 -5.700529096407881e6 0.0
0.0 0.0 0.0

-1.2434692590384996e6 8.65479391567699e6 0.0
8.65479391567699e6 -2.8667427026496935e6 0.0
0.0 0.0 0.0

-1.6042443292251e6 8.777632143849954e6 0.0
8.777632143849954e6 672555.9232404721 0.0
0.0 0.0 0.0

-8.540202527339188e6 8.598823117468769e6 0.0
8.598823117468769e6 4.754042424776135e6 0.0
0.0 0.0 0.0

-4.706298763883696e6 9.092164629573936e6 0.0
9.092164629573936e6 1.4525075199997616e6 0.0
0.0 0.0 0.0

1.6575880268239828e6 6.005056725215503e6 0.0
6.005056725215503e6 -5.765390289300177e6 0.0
0.0 0.0 0.0

-3.7617179300566576e6 1.0917220574243544e7 0.0
1.0917220574243544e7 4.561518190876134e6 0.0
0.0 0.0 0.0

-281693.15369592735 6.851402397517894e6 0.0
6.851402397517894e6 -3.199111025324576e6 0.0
0.0 0.0 0.0

-1.562568965295092e7 9.624122857480276e6 0.0
9.624122857480276e6 1.9964655868433965e6 0.0
0.0 0.0 0.0

-851607.6579107532 1.0518454302576287e6 0.0
1.0518454302576287e6 259597.04495071655 0.0
0.0 0.0 0.0

-744018.4859039995 1.1066141028244651e6 0.0
1.1066141028244651e6 688414.8872258465 0.0
0.0 0.0 0.0

3.21789624868471e6 7.701183174195779e6 0.0
7.701183174195779e6 -2.446082465052846e6 0.0
0.0 0.0 0.0

-2.373770168278451e6 -195523.74478923433 0.0
-195523.74478923433 4.377647218563204e6 0.0
0.0 0.0 0.0

-338809.2599516676 9.104608996155417e6 0.0
9.104608996155417e6 238906.62399538685 0.0
0.0 0.0 0.0

-1.3599771704514911e6 1.046835332655817e7 0.0
1.046835332655817e7 2.3854132973081414e6 0.0
0.0 0.0 0.0

-7.746420642612936e6 1.0247183645908397e7 0.0
1.0247183645908397e7 3.533528493583993e6 0.0
0.0 0.0 0.0

-1.0168865949702643e7 -1.1407746545736957e6 0.0
-1.1407746545736957e6 1.240465479178589e7 0.0
0.0 0.0 0.0

-23871.686706455424 7.543642572803061e6 0.0
7.543642572803061e6 -4.849144866185829e6 0.0
0.0 0.0 0.0

-1.2375881747244576e6 3.505304245314907e6 0.0
3.505304245314907e6 -1.216330031887247e6 0.0
0.0 0.0 0.0

-1.6793345857174527e6 8.822386231044019e6 0.0
8.822386231044019e6 484177.6935028648 0.0
0.0 0.0 0.0

-1.8249700658427645e6 9.800115485721126e6 0.0
9.800115485721126e6 2.810680038188179e6 0.0
0.0 0.0 0.0

-4.1329690916220373e6 194825.38854180445 0.0
194825.38854180445 3.70693626519626e6 0.0
0.0 0.0 0.0

-4.663040200417204e6 2.5932437743377746e6 0.0
2.5932437743377746e6 4.176040745843064e6 0.0
0.0 0.0 0.0

-3.3025906301807445e6 7.909411223387194e6 0.0
7.909411223387194e6 372667.7371809911 0.0
0.0 0.0 0.0

-2.4207731268607075e6 3.2944084280413147e6 0.0
3.2944084280413147e6 5.268650247308675e6 0.0
0.0 0.0 0.0

424348.6674631018 9.15692935142087e6 0.0
9.15692935142087e6 -2.690649678455849e6 0.0
0.0 0.0 0.0

-715339.2866393581 879610.3621980537 0.0
879610.3621980537 160385.64987497995 0.0
0.0 0.0 0.0

-1.066405083546418e7 -1.9344159981192753e6 0.0
-1.9344159981192753e6 1.4243726453006953e7 0.0
0.0 0.0 0.0

458419.45135389804 8.98017433514509e6 0.0
8.98017433514509e6 -2.9936570328949043e6 0.0
0.0 0.0 0.0

-1.964675071699316e6 9.175463504804539e6 0.0
9.175463504804539e6 -1.788849208651684e6 0.0
0.0 0.0 0.0

-9.276657847631268e6 -1.1732033476282784e6 0.0
-1.1732033476282784e6 1.5654952758260507e7 0.0
0.0 0.0 0.0

-126809.2771359738 1.1586423009185867e7 0.0
1.1586423009185867e7 -2.858770100870813e6 0.0
0.0 0.0 0.0

-1.2082212444501584e6 9.12156952518538e6 0.0
9.12156952518538e6 1.4719695354894064e6 0.0
0.0 0.0 0.0

-622977.5293796004 4.310713416066764e6 0.0
4.310713416066764e6 -1.0762517539484028e6 0.0
0.0 0.0 0.0

-1.615628447364965e6 238639.54156396555 0.0
238639.54156396555 2.0469745902233482e6 0.0
0.0 0.0 0.0

-1.6233959891719215e6 111410.1452091141 0.0
111410.1452091141 487597.4412996371 0.0
0.0 0.0 0.0

