# vtk DataFile Version 2.0
phase field modeling fracture
ASCII
DATASET UNSTRUCTURED_GRID
POINTS 2538 float
0.0 0.0 0.0
10.0 0.0 0.0
0.0 10.0 0.0
10.0 10.0 0.0
0.0 4.9995 0.0
0.0 5.0005 0.0
5.0 5.0 0.0
0.9416964895726688 0.0 0.0
1.803581725054446 0.0 0.0
2.592419885431098 0.0 0.0
3.314401822861676 0.0 0.0
3.975193910351406 0.0 0.0
4.579982132660152 0.0 0.0
5.133512780936812 0.0 0.0
5.640130319506143 0.0 0.0
6.103810708661955 0.0 0.0
6.528192895506818 0.0 0.0
6.916607540127679 0.0 0.0
7.272102969376355 0.0 0.0
7.597469242948583 0.0 0.0
7.895259826292669 0.0 0.0
8.167811885738017 0.0 0.0
8.417264413845215 0.0 0.0
8.645575169389538 0.0 0.0
8.854535961159101 0.0 0.0
9.045786767735546 0.0 0.0
9.220828555767493 0.0 0.0
9.38103509633881 0.0 0.0
9.527663687265145 0.0 0.0
9.661865124984566 0.0 0.0
9.784692609918062 0.0 0.0
9.897110148790482 0.0 0.0
10.0 0.09999999999992584 0.0
10.0 0.199999999999856 0.0
10.0 0.2999999999997771 0.0
10.0 0.3999999999996677 0.0
10.0 0.4999999999995511 0.0
10.0 0.5999999999994683 0.0
10.0 0.6999999999993983 0.0
10.0 0.7999999999993286 0.0
10.0 0.8999999999992587 0.0
10.0 0.9999999999991888 0.0
10.0 1.099999999999119 0.0
10.0 1.199999999999033 0.0
10.0 1.299999999998852 0.0
10.0 1.399999999998576 0.0
10.0 1.499999999998284 0.0
10.0 1.599999999997992 0.0
10.0 1.6999999999977 0.0
10.0 1.799999999997408 0.0
10.0 1.899999999997116 0.0
10.0 1.999999999996825 0.0
10.0 2.099999999996533 0.0
10.0 2.199999999996241 0.0
10.0 2.299999999995949 0.0
10.0 2.399999999995657 0.0
10.0 2.499999999995365 0.0
10.0 2.599999999995073 0.0
10.0 2.699999999994782 0.0
10.0 2.79999999999449 0.0
10.0 2.899999999994198 0.0
10.0 2.999999999993906 0.0
10.0 3.099999999993614 0.0
10.0 3.199999999993322 0.0
10.0 3.299999999993029 0.0
10.0 3.399999999992738 0.0
10.0 3.499999999992446 0.0
10.0 3.599999999992154 0.0
10.0 3.699999999991863 0.0
10.0 3.799999999991571 0.0
10.0 3.899999999991278 0.0
10.0 3.999999999991022 0.0
10.0 4.099999999991035 0.0
10.0 4.199999999991187 0.0
10.0 4.299999999991338 0.0
10.0 4.399999999991491 0.0
10.0 4.499999999991642 0.0
10.0 4.599999999991795 0.0
10.0 4.699999999991947 0.0
10.0 4.799999999992099 0.0
10.0 4.89999999999225 0.0
10.0 4.999999999992403 0.0
10.0 5.099999999992555 0.0
10.0 5.199999999992706 0.0
10.0 5.299999999992858 0.0
10.0 5.39999999999301 0.0
10.0 5.499999999993161 0.0
10.0 5.599999999993313 0.0
10.0 5.699999999993466 0.0
10.0 5.799999999993618 0.0
10.0 5.899999999993771 0.0
10.0 5.999999999993922 0.0
10.0 6.099999999994074 0.0
10.0 6.199999999994227 0.0
10.0 6.299999999994378 0.0
10.0 6.39999999999453 0.0
10.0 6.499999999994682 0.0
10.0 6.599999999994833 0.0
10.0 6.699999999994986 0.0
10.0 6.799999999995138 0.0
10.0 6.899999999995289 0.0
10.0 6.999999999995442 0.0
10.0 7.099999999995594 0.0
10.0 7.199999999995747 0.0
10.0 7.299999999995897 0.0
10.0 7.39999999999605 0.0
10.0 7.499999999996202 0.0
10.0 7.599999999996353 0.0
10.0 7.699999999996505 0.0
10.0 7.799999999996658 0.0
10.0 7.899999999996808 0.0
10.0 7.999999999996962 0.0
10.0 8.099999999997113 0.0
10.0 8.199999999997265 0.0
10.0 8.299999999997418 0.0
10.0 8.399999999997569 0.0
10.0 8.499999999997721 0.0
10.0 8.599999999997873 0.0
10.0 8.699999999998024 0.0
10.0 8.799999999998176 0.0
10.0 8.899999999998329 0.0
10.0 8.99999999999848 0.0
10.0 9.099999999998634 0.0
10.0 9.199999999998786 0.0
10.0 9.299999999998937 0.0
10.0 9.399999999999089 0.0
10.0 9.499999999999241 0.0
10.0 9.599999999999392 0.0
10.0 9.699999999999545 0.0
10.0 9.799999999999697 0.0
10.0 9.899999999999848 0.0
9.897110148790565 10.0 0.0
9.784692609918244 10.0 0.0
9.66186512498486 10.0 0.0
9.527663687265571 10.0 0.0
9.381035096339392 10.0 0.0
9.220828555768257 10.0 0.0
9.045786767736512 10.0 0.0
8.854535961160305 10.0 0.0
8.645575169391027 10.0 0.0
8.417264413847017 10.0 0.0
8.167811885740178 10.0 0.0
7.895259826295246 10.0 0.0
7.597469242951631 10.0 0.0
7.272102969379938 10.0 0.0
6.916607540131873 10.0 0.0
6.528192895511704 10.0 0.0
6.103810708667616 10.0 0.0
5.640130319512691 10.0 0.0
5.13351278094435 10.0 0.0
4.579982132668816 10.0 0.0
3.975193910361222 10.0 0.0
3.314401822869852 10.0 0.0
2.592419885437257 10.0 0.0
1.803581725058137 10.0 0.0
0.9416964895740705 10.0 0.0
0.0 9.00010000000243 0.0
0.0 8.000200000005481 0.0
0.0 7.000300000005135 0.0
0.0 6.000400000002569 0.0
0.901790731451151 5.000409820926855 0.0
1.657200899774397 5.000334279910023 0.0
2.289991063707192 5.000271000893629 0.0
2.820065163538221 5.000217993483646 0.0
3.264096435579811 5.000173590356442 0.0
3.636051481595835 5.00013639485184 0.0
3.947629914072366 5.000105237008593 0.0
4.208632181002628 5.0000791367819 0.0
4.427267949625672 5.000057273205037 0.0
4.610414277633563 5.000038958572237 0.0
4.763831845154243 5.000023616815485 0.0
4.892346298799659 5.00001076537012 0.0
4.892346298799748 4.99998923462988 0.0
4.763831845154455 4.999976383184515 0.0
4.610414277633943 4.999961041427763 0.0
4.427267949626277 4.999942726794963 0.0
4.208632181003523 4.9999208632181 0.0
3.94762991407365 4.999894762991407 0.0
3.636051481597624 4.99986360514816 0.0
3.264096435582253 4.999826409643559 0.0
2.820065163541503 4.999782006516354 0.0
2.289991063711534 4.999728999106371 0.0
1.657200899778495 4.999665720089978 0.0
0.9017907314530094 4.999590179073145 0.0
0.0 3.999600000002013 0.0
0.0 2.999700000005187 0.0
0.0 1.99980000000512 0.0
0.0 0.9999000000025537 0.0
9.897889398521345 2.93573355845387 0.0
9.906568249974548 7.060009441434234 0.0
9.913122631074113 3.64016132281653 0.0
9.922462129543863 6.354535290629151 0.0
9.917693659967533 4.354211663134567 0.0
9.909873057440208 5.637584487339942 0.0
9.914183254994697 4.950672966925282 0.0
9.913885043715895 7.666887930262611 0.0
9.91009668007573 2.351889069770817 0.0
9.905135696074536 8.138152454502785 0.0
9.913397459621809 1.849999999997262 0.0
7.099302372137626 0.297750452375005 0.0
7.095143729410097 9.700359990366296 0.0
4.942912558701401 5.095838627899509 0.0
4.315009232304429 5.165022115481685 0.0
4.946182472483878 4.906763777264103 0.0
4.317967462990024 4.825955043772673 0.0
9.916390871492647 8.64999999999792 0.0
9.921504649680616 1.368376469890358 0.0
8.292538149791614 0.206877570318844 0.0
8.292538149793597 9.793122429681448 0.0
5.884594439766573 9.587645267048616 0.0
5.794826292691579 0.3794853783929359 0.0
9.913397459621425 9.049999999998557 0.0
9.908526577714177 0.9568239351922434 0.0
3.456851160380649 5.315740054130451 0.0
3.457889657868442 4.707121019609468 0.0
8.945214200703926 0.1503383337970344 0.0
8.950161364448409 9.8413906539257 0.0
9.913862335499305 4.055887885208452 0.0
9.916697353372683 4.650158482607802 0.0
9.919076340414442 6.049999999994006 0.0
9.906994308667635 5.25749687748192 0.0
9.917490342358025 6.655979201891897 0.0
9.915757520293784 7.343848891656911 0.0
9.910049507471042 3.363474386285078 0.0
9.914471988502868 2.647400064832979 0.0
9.91474124160965 9.337490423485129 0.0
9.916971008170838 0.6499999999994355 0.0
4.307157269264427 9.509674045029644 0.0
4.331527375865619 0.4401616696422582 0.0
9.45434939180249 9.878397030523757 0.0
9.457696120412969 0.1270877537061785 0.0
2.555070293622606 5.422044496190925 0.0
2.566232917480916 4.608001224030952 0.0
3.026511860837692 9.332320638257093 0.0
2.945561971800619 0.5895662714727601 0.0
7.7395404387124 0.2511088946967771 0.0
7.736379255744154 9.745848826372828 0.0
4.687135269408529 5.122111433928926 0.0
4.688420821504113 4.871895064967488 0.0
9.910554884115975 0.3448356354522978 0.0
9.911230082250466 9.65764729394159 0.0
9.921953841410854 6.851023993342036 0.0
9.912065178606017 5.448170483544033 0.0
9.911660025326261 3.861846960030188 0.0
9.914847467973438 3.14501593945607 0.0
9.913397459621425 5.849999999993703 0.0
9.913397459621425 7.849999999996735 0.0
9.906916878988277 2.15455769998631 0.0
9.913397459621425 8.349999999997479 0.0
9.909472363117661 1.640528221515488 0.0
9.913987325695956 1.152857110636247 0.0
9.913397459621425 8.849999999998241 0.0
0.9100099990995943 2.614215977520411 0.0
0.8395284981715456 7.451196254860987 0.0
9.723278867451556 9.898135916635193 0.0
9.723316350887044 0.09841820909386662 0.0
1.385819164827588 4.454539963646463 0.0
1.338343629665047 5.523111536005823 0.0
1.377179700550677 0.6809168304959698 0.0
1.418060461092743 9.285896715136046 0.0
9.91268220142518 0.1457914080939694 0.0
9.906737126737994 9.845745933882352 0.0
0.7108351382691361 6.537941170074089 0.0
1.527735020267026 6.915620208855231 0.0
1.630993885659103 7.838271825205868 0.0
2.232760943566823 7.370850737296832 0.0
2.243414218068206 6.688299277952821 0.0
2.779655053105118 7.021588754814074 0.0
2.80227799359795 7.632420170547022 0.0
3.282022065908813 7.305859666021318 0.0
3.327597298795347 7.857554136825748 0.0
3.743210251018715 7.549183328204379 0.0
3.716353232200752 7.062036086888612 0.0
4.111978858674101 7.27497101169417 0.0
4.104192177581432 6.879858986267289 0.0
4.436230765617037 7.045693351607117 0.0
4.430360014817357 6.703971783962796 0.0
4.732390145036301 6.849841042423394 0.0
5.056161327708878 5.095276573498806 0.0
5.111586796021131 4.999081142133581 0.0
5.169267363407189 5.09444870412406 0.0
5.223795108752053 4.996986220359468 0.0
5.281480803887719 5.092780870372803 0.0
5.335670761900611 4.994887492556936 0.0
5.393485214772442 5.090486192743301 0.0
5.447323082877892 4.992601527033996 0.0
5.505243219343024 5.087953380710069 0.0
5.558739102026105 4.990287787962959 0.0
5.616491581184779 5.085335255235766 0.0
5.669852346908056 4.9879269227514 0.0
5.727502713908907 5.082679981817038 0.0
5.780766004135139 4.988313988715834 0.0
5.838244881129535 5.080480568766611 0.0
5.891357695677371 4.986433849408193 0.0
5.948696036767613 5.077969900389505 0.0
6.001601341641615 4.981313698556656 0.0
6.058851024265095 5.074871552128682 0.0
6.111614020704875 4.978360695880202 0.0
6.168801161530775 5.072044953270978 0.0
6.221368818778567 4.975825765213497 0.0
6.278268309066882 5.066182320461055 0.0
6.330814273567539 4.972837984645718 0.0
6.387565032421376 5.062889771971895 0.0
6.437476667631405 4.971693683589553 0.0
6.496181111585419 5.060210690175857 0.0
6.539454812256072 4.964658165361536 0.0
6.604198202576491 5.056387520850258 0.0
6.648506025747331 4.939374587506267 0.0
6.714026758992516 5.05873885840664 0.0
6.764418045981209 4.959246676066148 0.0
6.8219334571197 5.055299567406268 0.0
6.873708540948134 4.960426349093742 0.0
6.930181428849307 5.053461390218819 0.0
6.981893615341967 4.96435459462232 0.0
7.037791764774784 5.051219747103022 0.0
7.090993561518408 4.96392420322464 0.0
5.504417457283294 4.900897920552702 0.0
7.145434864123609 5.048960634292441 0.0
6.054532384032612 4.883956083938546 0.0
6.738027949040956 4.850032323068674 0.0
7.198432914526514 4.956325226333323 0.0
7.252637187936749 5.046012229327236 0.0
7.30926729605109 4.948903216650376 0.0
7.248106275544042 4.860306312845646 0.0
7.363100274863074 4.849952416808486 0.0
7.365733472701664 5.039519554615095 0.0
7.308483293090149 5.137557220352172 0.0
6.768399513646964 5.145609705119954 0.0
7.422800035311104 5.132251445551834 0.0
7.358273518796229 5.235980394389298 0.0
7.480824155801127 5.227946127939927 0.0
7.302193400058628 4.761917474298247 0.0
7.413570879789824 4.754555110721153 0.0
7.414392998903179 5.334729114426734 0.0
7.352769630272076 4.660405502266205 0.0
7.467556835255426 4.658352623795039 0.0
7.536246869015014 5.328986926716081 0.0
7.478865844607288 5.432598185493195 0.0
7.406396991826072 4.556956233957538 0.0
7.523581002009154 4.552005631348623 0.0
7.597792398573263 5.429506106314967 0.0
7.540511043402902 5.53619421580439 0.0
7.46214474876342 4.452580994318881 0.0
7.5852185078634 4.446021810672608 0.0
7.663329342323453 5.533453399066901 0.0
7.603478967594521 5.643227430483237 0.0
7.513450346818673 4.347641323140766 0.0
7.640744971722214 4.333388343316237 0.0
7.727671715775243 5.642390483050116 0.0
7.667774597993788 5.753188858425915 0.0
7.570065256728661 4.230515669344811 0.0
7.702881065467917 4.218307808529532 0.0
7.638288257073729 4.107994211855027 0.0
7.493362356301017 4.120843902105771 0.0
7.779018500630071 5.521233457321821 0.0
7.794641287388929 5.752364621610818 0.0
7.73369774483611 5.865894287356292 0.0
7.600834531784728 5.867752110500446 0.0
6.233038857278689 5.15645045634683 0.0
7.669727996028819 5.985665563643058 0.0
7.528582452554481 5.987393423295551 0.0
7.598722674572824 6.11001923494443 0.0
7.778305000222867 4.104318908265786 0.0
7.704329019832056 3.987744174608892 0.0
7.838453459801382 4.213322728668484 0.0
7.864495721576461 5.862306066517277 0.0
7.846552353360407 3.98481756181946 0.0
7.769730409703277 3.86544808681145 0.0
5.785249360396857 5.177248808588045 0.0
7.908837087876153 3.861484036275285 0.0
7.834824606222196 3.740586825753288 0.0
7.97685993406276 3.736209527152902 0.0
7.89665098770825 3.615501862931453 0.0
7.753228010315262 3.617800245018972 0.0
7.826063013090472 3.483173292579822 0.0
7.66789744383048 3.48859328808356 0.0
8.042515855796823 3.595394268381807 0.0
7.75200750488492 3.341279823834038 0.0
7.582870318332553 3.346584916806707 0.0
8.120807847415062 3.732493963388337 0.0
8.189783970303546 3.61159165475499 0.0
7.657801000286734 3.200439907646711 0.0
7.486781956172036 3.201402473247712 0.0
7.452595103886905 6.11418616185016 0.0
7.527098033550077 6.243191052852112 0.0
8.260502906807751 3.728437634721859 0.0
8.327629317451398 3.608173631356984 0.0
7.372763970891452 6.247552889754036 0.0
7.456170570815929 6.384992468962936 0.0
7.621837793616884 6.376077080857113 0.0
7.548039512904141 6.520750676893614 0.0
7.717475944451644 6.514856553988943 0.0
7.636658166268699 6.661648164052906 0.0
7.807468267259438 6.664076174524672 0.0
7.718022764310774 6.817938967122142 0.0
7.887785766941087 6.807440365887151 0.0
7.545993589083432 6.815070675854734 0.0
7.809874785067209 6.967537287475282 0.0
7.975643812145337 6.948729406725126 0.0
8.396477808021062 3.725446935061211 0.0
7.565651643157136 3.044354774611752 0.0
7.384328725505071 3.043048915147076 0.0
8.056405351948353 6.802790889114673 0.0
8.14128318237188 6.940027831915737 0.0
8.064621760266059 7.086348792208953 0.0
8.225003598857908 6.805225152373254 0.0
8.463085452993242 3.606998510553562 0.0
8.230426869720718 7.079551841000411 0.0
8.155262284174286 7.224761758176069 0.0
8.530696760758996 3.721683301125054 0.0
8.596669886994064 3.604516769862316 0.0
8.528531058025589 3.490411531312337 0.0
8.320451770844851 7.218191678954744 0.0
8.245273958732774 7.363444652121271 0.0
8.66324687389452 3.717094013035765 0.0
8.600103125209296 3.831913857228569 0.0
8.662131102573216 3.488322280861316 0.0
8.594166125380536 3.374071873435548 0.0
8.411074336066186 7.353871649576861 0.0
8.339644223432472 7.505172120620427 0.0
8.165883718619623 7.513159193685373 0.0
8.483453820080417 7.2082285366806 0.0
8.261200365730348 7.657400951288149 0.0
8.081570576666843 7.670933304838066 0.0
7.471613195794025 2.872548423100142 0.0
7.268733678357991 2.881209199257603 0.0
7.184255506995786 3.084448584600423 0.0
7.065899603697895 2.883902449336828 0.0
6.960163891183182 3.081014635802978 0.0
6.847612128388715 2.885646860602812 0.0
6.739800729737967 3.078895733381448 0.0
8.729373804596847 3.827689165637365 0.0
8.668550856907444 3.938702277545298 0.0
8.72770789162863 3.371798381178293 0.0
8.659764090070603 3.257493349874974 0.0
8.436453928793245 7.648724489148887 0.0
6.619080287792762 2.90880017416788 0.0
6.511740956842646 3.09340654756684 0.0
8.793527829963288 3.935174834810256 0.0
8.736430500996828 4.042719556852617 0.0
7.631260330584174 4.565300771328012 0.0
8.359058396840432 7.801678182761817 0.0
5.339436215072359 5.184870243702279 0.0
4.994031736761993 5.193306795607908 0.0
6.383387675268097 4.87760645722207 0.0
7.29117392392962 6.382172868329505 0.0
6.378196825372041 2.907113079755629 0.0
6.269817199014261 3.12412150658573 0.0
8.793149127377946 3.255386294257182 0.0
8.725774239201558 3.141596687892195 0.0
8.857434600673502 4.041295940541356 0.0
8.802868937128341 4.1471119953668 0.0
8.532045262478793 7.7905977476835 0.0
7.364542641624493 2.699128473342751 0.0
7.571677611088925 2.695732556686516 0.0
6.723058333614999 2.672341359410618 0.0
8.456744924757372 7.94483904450548 0.0
6.140831279784704 2.921247401137864 0.0
6.02419219050745 3.14358702955763 0.0
8.916255604212301 3.934279868822481 0.0
8.859287250884009 3.140226640574265 0.0
8.791092798057303 3.025929352146465 0.0
7.210445465986021 6.245773134960393 0.0
7.120884161792869 6.385155584680196 0.0
7.036931702064287 6.240721609143972 0.0
6.943722280007011 6.3869279517155 0.0
8.920094519678617 4.144837222494242 0.0
8.864374107136287 4.250930406527029 0.0
7.347569838739255 4.463467417508182 0.0
5.90383431757064 2.935113219563906 0.0
5.783476009580765 3.156456199832474 0.0
8.626013191558314 7.935092223505354 0.0
8.687240186957197 7.796697889991163 0.0
5.642059327424706 2.903018174330269 0.0
5.52647853955939 3.162549070310043 0.0
8.555300051897738 8.086169516016518 0.0
8.405624441178524 8.083972416481254 0.0
5.374124307190728 2.945480555950917 0.0
8.935805220807357 3.249260758206028 0.0
8.981625171409894 4.247375537584228 0.0
8.924725364486765 4.352101286657735 0.0
8.807208588134106 4.356163101450244 0.0
8.868277832430604 4.45657124153171 0.0
8.75099635287701 4.460644845248524 0.0
8.812385950597063 4.560891222623518 0.0
8.693833206943118 4.564602972998703 0.0
8.756474732548273 4.665720853686476 0.0
8.63721608225855 4.669394550615355 0.0
8.700108119351134 4.770682016274914 0.0
8.81920502916846 4.767536120893284 0.0
8.76355311338807 4.871451945248518 0.0
8.881442328033694 4.868382238751069 0.0
8.826433523510634 4.97132552240372 0.0
8.943387824985514 4.967694248194483 0.0
8.888718468126953 5.071044784833541 0.0
8.580377663835254 4.774669738817985 0.0
8.770572242937233 5.073880380431421 0.0
8.832915096600454 5.174518948293615 0.0
8.952224483821848 5.170970838320107 0.0
8.897282771771884 5.275476392171722 0.0
7.463928467290875 2.513944501591933 0.0
7.675935950092034 2.509420347143072 0.0
8.924252417741767 3.024418701372628 0.0
8.857265893102921 2.911213535286156 0.0
8.776981063213334 5.27944309004916 0.0
8.840710910770163 5.380165700477552 0.0
8.960876896785969 5.375521424256389 0.0
8.904555918255223 5.482125846038813 0.0
7.567193097677677 2.32750151280277 0.0
7.780880844888839 2.323064027160363 0.0
6.851602118390116 6.234522818184622 0.0
6.758680682687229 6.389359516748128 0.0
6.66345977321418 6.231254850996584 0.0
8.715764716958308 8.079994249772627 0.0
8.65189989696114 8.227534663647639 0.0
9.042229096541828 4.348551764001607 0.0
6.436774206993324 3.316782326998922 0.0
7.590527613340588 5.22651784724799 0.0
9.024366884701616 5.476726561488805 0.0
8.968734351641839 5.583879050892151 0.0
8.845941080047659 5.586406316932274 0.0
8.909881305857882 5.690482454668167 0.0
7.348726871578975 5.44047403999932 0.0
6.567070253986433 6.398115757512583 0.0
6.697077150072261 6.553426749743366 0.0
5.252377383990728 3.187782967482479 0.0
8.988440431820699 2.908621158637298 0.0
8.922541972760119 2.796420836075996 0.0
6.466806010659505 6.229115583261771 0.0
9.033851153821296 5.686506775615425 0.0
8.978340519963718 5.795772485582058 0.0
8.85111463793018 5.798672910287243 0.0
8.922171984280597 5.907237880910408 0.0
8.795190680908043 5.911854068712683 0.0
8.864373398892472 6.019728357749566 0.0
8.991346995940626 6.014539153309398 0.0
8.93374019140187 6.12698887312768 0.0
5.095192648098848 2.952353430985476 0.0
7.672651464908932 2.141715359830917 0.0
7.886266921042761 2.136211284120189 0.0
9.098474286589756 4.245971410451114 0.0
8.813172564986438 8.216887361735234 0.0
8.74802978243154 8.366104673219047 0.0
9.059985162956899 6.120982589539211 0.0
9.00342813739303 6.233245043891739 0.0
4.961413514304496 3.214209167276753 0.0
9.05248113004685 2.794651022570942 0.0
8.986028039118027 2.681341972594222 0.0
5.671890458441996 3.377122473800023 0.0
4.755829262593116 7.184480462344647 0.0
9.158258644940048 4.34465968221255 0.0
4.799687186662534 2.961354824469195 0.0
6.030554747591715 2.726787502996874 0.0
8.938327180212585 8.34758372042188 0.0
8.847392320655468 8.503370672816716 0.0
8.67342124373679 8.518117686968314 0.0
5.234423106934083 2.694925204361751 0.0
8.964923046453565 8.185313058214797 0.0
7.456650986668838 2.134076476407834 0.0
9.111732084821366 2.897226832609386 0.0
6.368055837513985 6.402805870976705 0.0
6.265629899005033 6.226581076317183 0.0
8.736327196352686 6.026404178766982 0.0
9.117473097358854 2.67987006607594 0.0
9.052137415465204 2.565428515518978 0.0
7.781001557847192 1.955874236406257 0.0
7.992134447300669 1.949184538864554 0.0
8.593074792993455 3.143159483125708 0.0
9.1291360203536 6.226877897052981 0.0
9.072154326613617 6.338696745620542 0.0
8.916532550320525 2.566986282201109 0.0
8.984021113721658 2.449252898983242 0.0
9.178032243215632 6.120533546076094 0.0
9.213703592343162 4.244823670856978 0.0
9.11972142641474 2.449071238668887 0.0
9.052853896812186 2.33190758581705 0.0
8.635035926402708 4.462329956179506 0.0
8.773614475966344 8.657865377672689 0.0
8.596400917257634 8.67759750279447 0.0
8.942023339420883 8.644678093589654 0.0
9.19471670675691 6.33096438039349 0.0
9.138460613363325 6.443043552768813 0.0
8.66620319432524 5.916297234509582 0.0
8.606669825267202 6.032658196729024 0.0
9.27222540210304 4.341341907533128 0.0
9.013782808177437 6.451040569407859 0.0
9.08360982569773 6.55729980456602 0.0
7.885622149776354 1.768093045890686 0.0
8.095672144455353 1.768790621151345 0.0
9.208772072925791 6.549717411809656 0.0
9.154272208194383 6.662613503537815 0.0
9.187669783927937 2.334640996932141 0.0
9.122379015831417 2.215832190697178 0.0
6.164077036161143 6.404611236428829 0.0
6.062367614988677 6.224307160647549 0.0
8.987075041759633 2.211477580983978 0.0
9.056972755801603 2.093573581203428 0.0
9.194557288902232 2.096029761809264 0.0
9.131223008370409 1.972713028695079 0.0
8.87381302587057 8.795793668920256 0.0
9.039169086943392 8.781606667490083 0.0
4.662813350519927 3.228118291851354 0.0
4.474181267994617 2.945703616023359 0.0
6.562627723301209 6.075544382232434 0.0
9.326886053211574 4.243083624343211 0.0
9.280374192897945 6.656072830232892 0.0
9.224718905178564 6.766740750539347 0.0
4.703284910421452 6.528907865005451 0.0
8.955136474970331 6.565989985649191 0.0
8.998148826814893 4.865480736169776 0.0
8.99429836796776 1.965972383552685 0.0
9.065669391141741 1.847195105148808 0.0
9.207236162050343 1.853010386995843 0.0
9.143218073349985 1.725630086781897 0.0
8.998867447699345 1.719378449325465 0.0
9.082595782768397 1.592017827427701 0.0
8.92804562738841 1.585238202229766 0.0
9.01637794607019 1.453847302675876 0.0
8.854253119154375 1.446306868730686 0.0
8.941620273019874 1.320083886766936 0.0
8.775393064215876 1.308487027359826 0.0
9.102170347200483 1.324733726345249 0.0
9.013857060361985 1.178821526410403 0.0
7.991031819452564 1.587689878441685 0.0
7.767218744640202 1.595993197647291 0.0
9.191539171305216 1.194087248761656 0.0
9.123965901037613 1.057102462689568 0.0
4.853921953226772 3.470213116851758 0.0
7.496563223334782 3.470157221608763 0.0
8.536691379028115 5.921845852206257 0.0
8.475496498707471 6.037633662010236 0.0
7.978668526342969 2.307231488316941 0.0
9.384721922092124 4.337357165846226 0.0
9.331039180200886 4.435926256444196 0.0
8.546261775564837 6.150267290476958 0.0
8.411727261785726 6.155319300628062 0.0
8.972203609044218 8.930944433074036 0.0
9.133480321468399 8.90955269607895 0.0
9.197778815538276 8.768743880012563 0.0
6.162231825784922 6.05277753404107 0.0
5.962111081146334 6.046949845237622 0.0
9.268727788642101 4.146883230687689 0.0
9.380694211527906 4.144811697563401 0.0
9.323823335199954 4.049557759546529 0.0
9.283324894520613 1.736313094621396 0.0
5.858151623803662 6.22041808248046 0.0
5.759668475561988 6.038806123495502 0.0
7.836860473863919 3.191674397465999 0.0
9.348591928839294 6.75855034547469 0.0
9.293979592221298 6.870213350675044 0.0
9.170543172728557 6.879819332293818 0.0
9.240028263813034 6.983394994050525 0.0
4.347372565145963 3.312731475520695 0.0
4.114183445909965 2.96879678229065 0.0
8.616264880152233 4.042035981070631 0.0
9.403174760076901 6.650407069150438 0.0
4.173860112179449 7.723461240865885 0.0
9.365302975518428 6.973476802087294 0.0
9.312420275675276 7.088420778208979 0.0
9.184876614539778 7.0978133687822 0.0
9.25921281729617 7.204979813006656 0.0
9.12816413817609 7.21569648263899 0.0
9.203944409919862 7.322703303071253 0.0
9.334311975087337 7.311477957762272 0.0
9.280415785210538 7.428795599957155 0.0
9.274060219641907 1.066603180421249 0.0
9.211820491509728 0.9316562593680151 0.0
9.050684011148748 0.9017681241401576 0.0
9.441953732403995 4.432092590771756 0.0
9.394725873909666 4.526051349391942 0.0
9.43453556160865 4.048003950509361 0.0
9.378043599351757 3.952631412328806 0.0
9.289691247910705 8.890746792319852 0.0
9.228148443138926 9.030109127390128 0.0
4.440757888677695 6.389562448928118 0.0
4.689874463978985 6.239329075084555 0.0
4.291519540095677 2.622920583112654 0.0
3.886073352912894 2.632778677714434 0.0
9.344015622314338 1.202401041544343 0.0
8.193292196814806 3.849649660906171 0.0
6.960946604527747 6.07044529864598 0.0
9.347708267319902 8.756364147482309 0.0
6.826423138602714 3.261415861395883 0.0
6.06309517882478 5.884563187328262 0.0
9.4085057714426 7.414123963607981 0.0
9.356416821537886 7.532359471354527 0.0
5.042074134251055 6.938947182785697 0.0
5.063988238156824 7.311205832605263 0.0
3.946666851334923 3.30681624613374 0.0
8.189857914071878 1.939951128540477 0.0
7.880690277686857 1.38928908049477 0.0
7.63766396748483 1.399736360041063 0.0
9.345004233592562 1.857695941115052 0.0
9.440465164139875 7.085860901905448 0.0
7.918332480761888 5.744468010879592 0.0
9.08007135068879 5.372457017512481 0.0
8.78639561093144 3.718391405525285 0.0
9.356843485085705 0.9414458825132457 0.0
9.29705128845331 0.8103081541678832 0.0
9.251825423225316 2.451701826351773 0.0
8.483895366325516 6.270717564685176 0.0
8.346386886249478 6.275973306650227 0.0
9.493299170161215 4.138582531223591 0.0
5.321115649032961 7.117073603021904 0.0
5.354076009109965 7.436189411362466 0.0
5.597984079819928 7.254284331170681 0.0
5.644042313435943 7.564172740776336 0.0
5.383963016128051 7.753854027984002 0.0
5.681168258142109 7.880444993178456 0.0
5.935548099874979 7.687258900444162 0.0
5.979508404301389 7.994332725561488 0.0
6.21936843555201 7.802335560754011 0.0
6.267092590637372 8.104873033518185 0.0
6.498845418385807 7.917606504106031 0.0
6.544600005636809 8.209910620392591 0.0
6.77336078689533 8.027284686082275 0.0
6.814840179123049 8.311778392637773 0.0
6.721304148677048 7.737863326704131 0.0
7.031320924898797 8.1335673274533 0.0
7.077388928622946 8.403901803728003 0.0
5.417471987089176 8.090112295667405 0.0
8.845427688507666 2.446352368201366 0.0
9.318512319918124 2.339233739859646 0.0
9.380241452597096 2.451895615249572 0.0
7.283805558009199 8.237518806365102 0.0
7.329200330160381 8.497045124353782 0.0
7.233272584416691 7.991590926766813 0.0
9.142592248414191 5.471315142785471 0.0
9.196303265878848 5.36738298742727 0.0
9.25795832955665 5.465260877691205 0.0
9.310581303233182 5.36341558704714 0.0
9.371094700882272 5.459458038195667 0.0
9.422767107822985 5.360687090455724 0.0
9.36402660964156 5.264821436196721 0.0
9.474220736978928 5.262802348886269 0.0
9.41680330511366 5.169477108906666 0.0
5.168675939028436 4.895496152382537 0.0
9.482591449057548 5.454699312257291 0.0
9.431567605310825 5.552723344040521 0.0
7.531449703396948 4.741663470323411 0.0
8.517293123442691 4.672601123164268 0.0
8.459978676626639 4.778466809901586 0.0
8.396595115309985 4.67568709170855 0.0
8.338966609235166 4.782101664607259 0.0
8.275355646032752 4.678829956447008 0.0
8.217675280223542 4.785699596769931 0.0
8.28149024865807 4.888803783902183 0.0
8.16019781596952 4.892696417098926 0.0
8.22433278506531 4.995725219088695 0.0
8.102825704443651 4.999629142625341 0.0
8.166887930010795 5.098242831115916 0.0
8.034904900788316 4.896825406879729 0.0
8.15353539905931 4.682103688185489 0.0
8.211891449058882 4.574219757233394 0.0
8.290305306104333 5.094007100958221 0.0
8.225684228618732 5.201525567655179 0.0
9.444618942559746 2.343141375196729 0.0
6.929446520625337 4.868116916840016 0.0
5.737810725167649 4.893891407574175 0.0
8.720389971487277 5.38508368411851 0.0
8.805734920311323 8.951818172412821 0.0
8.905272694453211 9.083303226359831 0.0
6.006155038818204 5.171375272745409 0.0
6.431496448228514 5.152985998213245 0.0
9.052675024457304 7.106590131831544 0.0
7.740007013494393 6.09727525827826 0.0
9.375852260355511 9.013078430361404 0.0
9.32035844773103 9.14584923943073 0.0
6.989707597683965 5.146377438798643 0.0
9.488190206836386 3.951168069367155 0.0
9.432429152094464 3.855725756072153 0.0
5.568386402814275 5.185723849666124 0.0
9.525561551078322 5.166162126187324 0.0
9.465026391994275 5.072601962964018 0.0
9.320357339516937 3.857795423728873 0.0
9.375955927831914 3.759314274140895 0.0
9.261783786753899 3.761412578759438 0.0
9.31820665563318 3.661845422072752 0.0
9.431798673168924 3.660830894813109 0.0
9.374584413615914 3.563138564686839 0.0
9.48759661134647 3.562294297118573 0.0
9.431339678707085 3.464016717943268 0.0
9.417896212887529 1.746970678437863 0.0
8.731705369070733 9.110902182838881 0.0
5.652297951447118 6.21188565774667 0.0
5.569122518069258 6.024400786163834 0.0
8.257007204149394 3.505875091031567 0.0
8.717428603143034 2.925525757227976 0.0
6.882852832747376 8.57686572931064 0.0
6.337330066435714 8.416819098143066 0.0
9.50188906539997 4.521022403818629 0.0
9.453500859905136 4.617181635748691 0.0
9.46806769570129 6.749352117850711 0.0
8.836822104875719 1.72282859852854 0.0
7.481071063421426 5.64593758994851 0.0
5.668814988976305 5.86611128457842 0.0
5.487644760735084 5.847591822776978 0.0
8.993992818065195 7.228173913870249 0.0
7.98322414937693 7.229980191466666 0.0
9.22810751684646 7.54864871395298 0.0
9.304103360459063 7.654622011545798 0.0
9.432787371848761 7.633691049023619 0.0
9.382619818023882 7.759136995934441 0.0
7.239096822516492 4.679179578301165 0.0
9.47692479956498 1.861231395362419 0.0
8.041243110813022 5.095895152648969 0.0
6.190208781188077 7.509864122823853 0.0
9.283062812782122 4.549418667685757 0.0
9.503847665760087 2.450295046295932 0.0
9.443345385250678 2.557904120404248 0.0
9.52009568463353 6.644015937008899 0.0
9.203119005973903 3.662458522935253 0.0
8.406198651282708 5.92630414760378 0.0
8.467263597743843 5.811987729136874 0.0
9.461423029059445 9.128120577356565 0.0
9.408445330070542 9.26024300250086 0.0
9.266505293379728 9.277952925446408 0.0
4.14874709022218 3.631681332690154 0.0
9.437448107949258 0.8198473430736303 0.0
9.376993771693973 0.6910550697058979 0.0
9.22882356848217 0.6931820370818127 0.0
4.451823867195988 6.103664366188579 0.0
4.200031743909027 6.232039028149317 0.0
4.687154754667774 5.975132870483986 0.0
6.268889397098538 6.592235545990395 0.0
7.509366161722768 8.340075462391164 0.0
7.564775703413765 8.59800936579159 0.0
9.542148732924264 3.854614593058991 0.0
7.036231103929761 6.550562550831048 0.0
4.089373665437328 2.268193930262139 0.0
3.642558884866483 2.250386188148396 0.0
3.442182385618804 2.651948803899947 0.0
3.146832503011753 2.222630466765926 0.0
2.948870467975985 2.805088883766417 0.0
9.352005315330274 5.067356449300542 0.0
9.31729677031493 3.462944187594675 0.0
9.37428383619102 3.365546369736205 0.0
9.4883538239391 3.365384871181599 0.0
9.432147665178338 3.267287636377487 0.0
9.25034519267688 7.775848812012313 0.0
9.332091350002502 7.881724023243533 0.0
9.462101000264603 7.86490055671988 0.0
9.413353271651825 7.98561007219363 0.0
8.273592814723814 6.158623919352561 0.0
8.207135014732339 6.280394934566054 0.0
9.541483811580331 5.548224291759592 0.0
9.491365919893726 5.644847811894615 0.0
8.088095771120983 4.577581369371366 0.0
8.14760102783746 4.468303741922308 0.0
9.556217963323956 4.414867468889523 0.0
9.543667331547693 3.266908751519594 0.0
9.489307652535885 3.169908976697059 0.0
9.26285575842982 8.635341362685686 0.0
9.403220742003983 8.621447866627538 0.0
9.326013417886902 8.506778946171965 0.0
9.455477927154853 8.503896705359047 0.0
9.566646674069602 4.611465258087684 0.0
9.499341049870914 0.9352184973273918 0.0
8.683891958597638 1.444705608998412 0.0
8.599973456173778 1.287265568270043 0.0
7.760988189317371 1.175381292562583 0.0
7.50927661322749 1.171223823957793 0.0
7.380927152434357 1.411062577009695 0.0
7.242417847270241 1.170759311509981 0.0
7.107236746116019 1.421234419770886 0.0
6.960799033544566 1.169618322344823 0.0
6.817786081200392 1.434174581170586 0.0
9.48095050141868 8.738557748483624 0.0
9.319762046171894 3.263060331456388 0.0
8.920653400180534 7.117307656029475 0.0
9.452431221190624 6.544166520883111 0.0
9.571407933653493 6.540336592280795 0.0
9.507586285214174 6.443281357841339 0.0
9.575252974749443 5.070210512157044 0.0
5.755172844377253 6.370710487467459 0.0
9.541351959064952 7.969072511059531 0.0
9.354607289792183 9.3921968735401 0.0
9.495213435762107 9.37218405175897 0.0
3.77688136092967 3.643094492921176 0.0
5.460967180339239 6.159077196937325 0.0
8.656589552918996 5.283032675040985 0.0
8.599307076390474 5.387421722684671 0.0
9.584017606465821 5.263931993965828 0.0
9.51536593891754 4.977534386249715 0.0
7.788544970111893 2.70578432810479 0.0
7.381746833264364 8.755477463411431 0.0
7.615969996822885 8.852710176548548 0.0
7.783643411970649 8.691528137204457 0.0
7.845017394185501 8.938777577473743 0.0
8.570520580943368 7.342304222498308 0.0
9.103648004226827 5.781084627507008 0.0
8.338082930126799 5.815990105349368 0.0
8.930848895071895 4.561111316304916 0.0
7.381089602119859 5.983657236035151 0.0
8.42066837692862 6.393608568217351 0.0
8.888256157021065 6.459558428285236 0.0
8.826495664731354 6.575679897210801 0.0
4.22522220414496 5.921354747981145 0.0
3.943296448343383 6.075578573904587 0.0
9.563175937841836 2.554860696349795 0.0
9.505342423182917 2.656889632284623 0.0
6.660863480070611 1.168750929063519 0.0
6.518316961679488 1.436478598119306 0.0
6.683474168246802 1.694104067636375 0.0
6.376799057174731 1.707382100972048 0.0
6.205091481342603 1.443621641108414 0.0
6.058670988071357 1.728841803855816 0.0
5.877457486049096 1.454297236926778 0.0
5.724979192982589 1.756666409586195 0.0
5.529885788012015 1.462283739157555 0.0
9.514953777019835 0.7018468683209754 0.0
8.398665270372675 5.702731562702358 0.0
9.456442249775696 0.5772068858285652 0.0
9.565795671866349 2.345573662774494 0.0
8.830758563027459 9.247271599108435 0.0
8.523580738257648 4.88015211128435 0.0
5.580123316488715 5.701889892660689 0.0
5.398591029446707 5.685938459654249 0.0
5.367686360823392 1.778740548277203 0.0
9.546603444041448 1.754984055696778 0.0
9.489649223089446 1.641312329051244 0.0
9.617973952467912 3.363804764345866 0.0
9.584322830999731 6.729956156156573 0.0
9.597221861144487 3.948534024289882 0.0
9.49401963819799 8.089507968561776 0.0
9.207321074262563 9.416906871900888 0.0
8.27185428346661 4.464932191097996 0.0
8.207416067213774 4.35878753684812 0.0
8.332747746635944 4.354903699457511 0.0
3.990181919126853 3.930792395858886 0.0
8.267392138262498 4.254008221702929 0.0
7.997788712685495 1.196805377512679 0.0
9.600316638269724 5.639973985281733 0.0
9.550939606739425 5.737313319038155 0.0
9.44084303195315 5.74233753256161 0.0
9.50112296154558 5.834555019909565 0.0
8.897429225733994 6.685415510921676 0.0
8.762930941408914 6.695907295903629 0.0
8.654628175336732 9.278157371342388 0.0
8.544676900803436 9.133790942553834 0.0
5.294904777716057 5.855935872688884 0.0
5.216749389964556 5.66865685845661 0.0
9.508453581298625 2.239460033375932 0.0
9.599691370793206 3.169496930704394 0.0
9.546615051106684 3.073514534194011 0.0
7.484714626923596 5.028675123117963 0.0
9.588496050271255 7.850836295555126 0.0
5.153197381012662 1.471340286561097 0.0
9.433168304679345 3.071871997104804 0.0
9.610464706874994 5.829217654498672 0.0
9.561407772947403 5.926179534044419 0.0
8.273381980676042 5.705233340662362 0.0
8.330794188929296 5.594351887246082 0.0
8.207319603076424 5.596747949305344 0.0
7.251338559467102 5.233758892662348 0.0
8.708518799790543 1.130513882092466 0.0
9.590155250193266 0.5878623138195824 0.0
9.389919385420015 5.841079912164009 0.0
7.991397852194216 5.859910582924319 0.0
9.624951589233206 4.975554514425905 0.0
7.240016788025947 2.531866266726309 0.0
7.635666783493215 3.873554782053258 0.0
9.608476620993713 1.863530872936442 0.0
9.365330459496413 8.10677840682376 0.0
8.775076110585598 2.572737931759856 0.0
8.699389445914996 2.444602334375113 0.0
8.625078713232146 2.580891022578613 0.0
8.54447196848446 2.447624719286678 0.0
8.468898498943965 2.586757328881282 0.0
8.62282309213608 2.307826916202421 0.0
9.622102662978762 6.439307895185218 0.0
9.561995355724862 6.35103962032292 0.0
3.898245450818314 1.856155797593496 0.0
9.681759177700954 5.07069253017652 0.0
9.059254996454502 4.963357716933865 0.0
9.113144532326562 4.861710138088372 0.0
9.62140874877204 2.656009146517733 0.0
7.884510615470827 0.9666888912541309 0.0
8.14902661050739 1.005010215149227 0.0
8.491263206618079 8.527197931363634 0.0
8.408859203395778 8.697060715788105 0.0
6.54422152733529 1.954566069381189 0.0
9.563546573097593 2.755667904356369 0.0
9.453065492925557 2.761122255953964 0.0
9.676889098520615 2.755084315170127 0.0
9.678287124781653 2.556838324720633 0.0
2.60254317790297 2.278874965850319 0.0
9.211706272534968 4.050470567310489 0.0
8.526711683538949 5.698821878547752 0.0
8.296604023060945 8.533761944401608 0.0
9.649704314258118 5.543946557831669 0.0
9.651176136337964 3.85122804518279 0.0
9.44590154800397 9.498503704959054 0.0
9.580491248736612 9.476376347552954 0.0
4.3239388803087 3.921156392977062 0.0
9.65737873521736 3.075324100817917 0.0
8.128000846282253 6.160273991836929 0.0
8.06242981852327 6.292371360998262 0.0
8.500465019503922 1.442700595221201 0.0
9.615253212967009 1.649819368149096 0.0
9.561768620580791 1.538553925606111 0.0
9.435477757657937 1.527391516499924 0.0
9.627993450010088 2.242685831452484 0.0
9.5338252733548 0.4673994795805215 0.0
9.398055066504014 0.4589059948533885 0.0
9.669486082509058 5.920177035588319 0.0
9.621072177439727 6.016493814615133 0.0
9.506185962103057 6.018397021409126 0.0
9.196884440497488 7.898824858961557 0.0
9.112591143666748 7.789491461180181 0.0
9.664357762385308 7.950712034233033 0.0
8.46233617997115 2.308903464128035 0.0
8.547917980328803 2.169381684694277 0.0
8.139931430059324 6.410762600521521 0.0
7.672499127532963 9.099143622036436 0.0
7.91372855627271 9.178704612763656 0.0
8.463425076318451 9.290653726808348 0.0
9.643938029094286 9.335632419679458 0.0
9.647017668702574 0.7068996148634754 0.0
6.241662276606473 5.884018212993202 0.0
6.157742245066693 5.73500474100449 0.0
6.318815619949124 5.730068085823802 0.0
6.247706374231452 5.593094310939028 0.0
6.406948541886973 5.593272398468375 0.0
6.092564106310554 5.587409338401505 0.0
8.535507922245372 5.286142900439676 0.0
8.022959839404006 4.471630490587016 0.0
7.963561162854596 4.581393556789843 0.0
9.683487139413305 1.546750704925431 0.0
9.630761777960082 1.435922217091829 0.0
5.121714348989337 7.950140247572198 0.0
5.136464096196084 8.310254432483559 0.0
5.47349124035624 8.455234262268478 0.0
5.176273618280354 8.687190323573228 0.0
4.796664658962938 8.592678692862421 0.0
9.568705729418735 4.887269869750176 0.0
9.462711651199594 4.88832222094458 0.0
9.674903475028225 4.882285174433025 0.0
5.4996067353406 5.546583260717527 0.0
5.663632234555963 5.557613452957074 0.0
6.829408195405585 1.947174574944512 0.0
5.336529198289861 1.127585641139875 0.0
9.672387559812332 6.34138351957329 0.0
4.463988917379896 2.271060678869338 0.0
8.618048281355405 6.263841736419089 0.0
6.480949808711781 5.74815588680617 0.0
6.562207427719153 5.592185077216444 0.0
6.643040463857446 5.721233693378952 0.0
6.712825900331884 5.588664360236 0.0
6.79240375630333 5.711383948285569 0.0
6.86115931532141 5.584697050428064 0.0
6.939210100691576 5.704407337029545 0.0
7.007668476576536 5.580801046893123 0.0
7.084627386867475 5.702817970154801 0.0
6.633257976075473 5.460881327825488 0.0
6.931430743764456 5.461960451448691 0.0
9.682652370938209 6.533133024505995 0.0
8.761108695241376 9.450742747770144 0.0
9.146031326900015 3.764292700000154 0.0
9.089378801805193 3.661317181076136 0.0
9.514354521818781 8.994988681611192 0.0
8.157650730500988 4.262987189670279 0.0
6.329633198899328 5.4647789391701 0.0
2.340685767996258 2.811285337457589 0.0
7.379572471323651 0.9290892725587991 0.0
4.171878172186605 4.222320767259098 0.0
4.4876601621649 4.16473354200826 0.0
5.336389369563535 6.806464508860387 0.0
9.595468321212476 9.108133206829102 0.0
9.645038675267227 8.982113951305912 0.0
8.393140678816192 4.246338342095281 0.0
8.309440721624494 4.155300532283633 0.0
9.418269339704423 1.9925512363779 0.0
9.662781807969623 0.477809346089035 0.0
8.011297869803792 0.7518828483803571 0.0
8.250149975885678 0.7646904662196189 0.0
9.608674873602773 0.3618049194050078 0.0
8.692696069692623 6.582927327365709 0.0
8.628225948401226 6.705702462696891 0.0
8.701883181418305 6.822086652299242 0.0
8.559276855155542 6.829564723911442 0.0
7.069268463354993 5.459534423493629 0.0
2.654575201159115 3.323490466195074 0.0
3.610801136544596 4.044075244426243 0.0
8.263757217166944 5.48730323490738 0.0
8.138838162809126 5.491254533497952 0.0
7.90196833683664 4.477386962763833 0.0
7.987943097943191 3.978756490171551 0.0
9.704623491880403 3.945605151832784 0.0
9.461009573830147 7.301728818091931 0.0
9.532468631193666 7.399916015174975 0.0
9.582688928417856 7.292330983701011 0.0
9.652579613269625 7.387768793572397 0.0
9.699264016151023 7.282867433965265 0.0
9.633305589700536 7.188543855060478 0.0
9.505576100168666 6.961225778216469 0.0
9.43876966151099 6.342441564206569 0.0
4.908483672172518 6.098703904450545 0.0
9.135448256237908 5.269827196966999 0.0
5.905650502271389 2.025036080946255 0.0
9.709890722072377 9.452748507541063 0.0
9.663337613522643 9.572126259365891 0.0
9.603900123387826 7.495180532331903 0.0
9.720147629525837 7.483400774981126 0.0
9.674588415444239 7.588303295299578 0.0
9.653186673863587 4.039274180923234 0.0
9.053164539680804 4.764545162185531 0.0
9.164908495749003 4.763017269285045 0.0
9.226019227262443 4.858029410614327 0.0
8.809947621994619 3.4964384919072 0.0
9.10538997155458 4.665865142902959 0.0
9.331074106432244 5.748993480915537 0.0
9.055854333858068 7.918554535314415 0.0
9.446431573964945 8.209836764658437 0.0
9.573844810886287 8.191100251691205 0.0
9.309704769895653 8.244395007943949 0.0
7.240329561730736 1.676197957122907 0.0
9.543389817573933 3.660019800390455 0.0
9.598599341122098 3.563130123982772 0.0
9.652615161407017 3.658119804270645 0.0
9.706336063693934 3.564815526226687 0.0
8.632284427755456 6.946688912416058 0.0
9.682863230715835 2.349655023034811 0.0
9.571538455120994 2.142369886250143 0.0
8.090821900439733 9.017409120951333 0.0
6.812258669899192 0.9007667548831626 0.0
6.50135254578461 0.8974046495177885 0.0
9.598335906230732 6.246437748035812 0.0
9.719677442549804 6.253968775436637 0.0
8.593026822691716 5.180101360605356 0.0
5.537586126848265 8.836083861509138 0.0
9.688689404995035 2.143487155934306 0.0
2.821389253975936 6.507820864074362 0.0
9.176571289960709 8.507736431357309 0.0
2.918303740542162 8.256728920338826 0.0
3.428955230180972 8.401446814887457 0.0
8.490587404589881 6.715350139132777 0.0
8.86049054904785 7.243279881821806 0.0
8.93696309213556 7.356650230611625 0.0
3.951931175165697 5.78308550088855 0.0
3.65055612573298 5.91672400098539 0.0
3.668142216548471 6.247526235973777 0.0
9.717269848920886 5.821831227352286 0.0
9.708364917734201 3.164198601626433 0.0
8.45581975650687 4.569560863828342 0.0
8.204448312099833 6.040774355519757 0.0
8.65969449127868 5.485991799508151 0.0
9.707534571012967 5.634423933296901 0.0
9.62102991883279 2.849662850313935 0.0
9.144093558002634 3.560383427867003 0.0
8.29763273805118 1.77155302934031 0.0
5.280452715709455 9.01633391004168 0.0
8.984558945859158 6.99932633710603 0.0
8.4157550875812 1.275784953143711 0.0
2.068078118650995 3.355462780535101 0.0
9.205703884756806 5.568274778556933 0.0
9.745857863753141 7.178456670302003 0.0
9.681628895748586 7.081494416756802 0.0
8.875818787971069 6.240744812097083 0.0
7.993733797566922 6.414830952863579 0.0
8.462810157069566 3.377071044664789 0.0
9.29428363519789 4.759591981903337 0.0
7.933956818298286 5.97437536746848 0.0
9.028281726378319 3.558713145763133 0.0
9.083461773461467 3.455531762175701 0.0
9.73231939683535 2.849247643393067 0.0
6.70072305037728 2.192432536215492 0.0
6.423245125077639 2.212870246546939 0.0
4.931537051605536 1.135086496804522 0.0
4.746426561586179 1.500381091957315 0.0
9.707706579932626 7.836419656220658 0.0
8.590593344701457 1.595639668013959 0.0
8.708946574109854 2.1688179918246 0.0
8.634728854549891 2.028564483452208 0.0
9.230357659411311 8.129337203173913 0.0
9.102841374461482 4.452881308250647 0.0
8.472081531214734 5.388993924853032 0.0
4.925996806199801 5.844046944846857 0.0
4.702806345752284 5.745688656289065 0.0
4.884357002239844 5.633237011762874 0.0
4.709628434300812 5.536404116679045 0.0
4.530800966746534 5.627044171217377 0.0
6.040296145349247 6.603808099703576 0.0
6.162203578696918 6.795213950202512 0.0
5.923135943221574 6.824060069869489 0.0
6.046693245732212 7.010423490915212 0.0
6.297337598588478 6.979895528204233 0.0
7.760448385794147 0.7294020304851334 0.0
8.492228348169641 6.958778476405878 0.0
2.89219822877093 1.704113597264478 0.0
2.26178643438086 1.7814602252425 0.0
9.726968895980871 6.009547057102511 0.0
6.63195110828313 0.6072886418835157 0.0
7.984023036954866 7.515675826210831 0.0
7.893857204140559 7.681876703427663 0.0
7.778465117872411 7.537836322197895 0.0
7.998204230811618 7.844922503023499 0.0
7.798554315988981 7.858161805718108 0.0
7.917846202023782 8.03040048103727 0.0
8.547520504556728 2.721261126162116 0.0
8.39253850806587 2.732073315877738 0.0
8.306047241032278 2.59069854402512 0.0
8.233011054235162 2.739783364361515 0.0
8.318836035587811 2.879838477099622 0.0
8.159530874574331 2.888511553151382 0.0
8.245490421394788 3.024568439743106 0.0
9.759103003747676 3.077839427881478 0.0
8.083610090773394 3.033523757291178 0.0
8.174562583800352 3.166768504406541 0.0
6.046769434852523 1.155662270344939 0.0
6.968371001421964 2.176347877216873 0.0
8.324858098380334 3.152966249334499 0.0
8.145556596142626 2.609897633546475 0.0
8.970652052821418 7.804556541250797 0.0
9.033737629244714 7.681328986528639 0.0
9.62347010002576 4.796939565664328 0.0
9.72520380348743 4.790261082613535 0.0
4.882631186210167 5.455006233451049 0.0
4.618356368594037 3.933076284395493 0.0
4.748083507220199 4.151025177732873 0.0
4.641724290430313 4.358202249373887 0.0
4.87055838101999 4.337900676660481 0.0
4.974114446887331 4.149149057174687 0.0
5.081577844806959 4.3240148266423 0.0
5.179521650033781 4.148725180298481 0.0
5.276261408871418 4.316673822529601 0.0
5.369189110897883 4.148362797753505 0.0
5.463892033849439 4.338819369807593 0.0
5.550828466075906 4.146274465971151 0.0
5.646554822352869 4.303571429647391 0.0
5.728109623160046 4.138582010823754 0.0
5.821689108984419 4.291959598724587 0.0
5.906082534948073 4.141649907302701 0.0
5.99655838673762 4.288752711512514 0.0
6.077312859438928 4.141011188943332 0.0
6.164215275138099 4.281164574562373 0.0
6.241782344986693 4.140701084167517 0.0
6.324316420613108 4.277393447415522 0.0
6.40284165425941 4.140026953305852 0.0
6.483655157361099 4.273418937894759 0.0
6.561170698911611 4.136221843106807 0.0
6.63512300179586 4.269917278694155 0.0
6.720306110251473 4.133393659385058 0.0
6.63777078218551 3.99617001426095 0.0
6.802492763973074 3.994355399489989 0.0
6.798834760478153 4.276914787769972 0.0
6.15377608509923 4.000134206628027 0.0
6.548727135071258 4.400510710520637 0.0
6.251479300130713 4.421887359316258 0.0
5.275876048175579 3.979624500657822 0.0
5.910905077162284 4.431174408784691 0.0
6.717070288412452 3.851239795555301 0.0
6.883499045994213 3.852555480300214 0.0
6.96664848901999 3.994033961856844 0.0
7.048208567116626 3.854750001965969 0.0
5.810004974283072 3.982497501655442 0.0
5.586615391658107 4.471070246359201 0.0
6.547331954052155 3.853872077215347 0.0
5.179081233207816 4.485638492900557 0.0
7.126615227065496 3.995337770596979 0.0
7.209459742762513 3.856893463870469 0.0
7.130226097876905 3.713620439679428 0.0
6.63075064074106 3.699684148676045 0.0
6.446985573861992 3.697358756862005 0.0
7.043151422977365 4.131713936060725 0.0
7.198322215260019 4.129850614748363 0.0
7.119378405252723 4.26005098890218 0.0
4.797146270976422 4.525762781577414 0.0
4.608329098388589 4.573584257851931 0.0
7.294442092743627 3.720853338661503 0.0
7.215753312764997 3.571378507508807 0.0
7.049631633956289 3.568047985538775 0.0
7.133765707749521 3.414282375958479 0.0
9.755079417839903 5.539705890434435 0.0
9.698955703441971 5.450920012703194 0.0
9.717604099406742 9.09084770432896 0.0
9.276716006673976 5.847248422342224 0.0
9.339081208926798 5.941174203394446 0.0
9.031261921742963 3.750271483819014 0.0
9.08721978689863 3.853416037308712 0.0
4.801461566647803 7.510704110489921 0.0
8.206553504932042 5.818005960412773 0.0
7.362361315389098 3.863102442315545 0.0
9.492826845316191 2.963845037486267 0.0
9.376710375304633 2.97229517374228 0.0
9.3192743723601 3.070687802230453 0.0
7.915389082113898 6.293241865913004 0.0
6.735006382384437 5.832450056405368 0.0
8.456481836836168 4.35369289249905 0.0
8.517718268476031 4.246675068616396 0.0
5.583512022030555 5.411069060406398 0.0
5.73625200174779 5.422617752052123 0.0
5.81006929286229 5.548584937688919 0.0
5.903438861894402 5.420604003204523 0.0
5.43801870974416 5.402925156167655 0.0
7.022641548594327 5.825217331839047 0.0
7.165095795605366 5.826005223633447 0.0
7.223078558430726 5.690146755650336 0.0
7.841396000338385 4.586693006493787 0.0
7.904793170875705 4.690826189066096 0.0
7.785999820520073 4.696719777099973 0.0
7.846448506395101 4.798518978096564 0.0
7.728149182067156 4.803800941124008 0.0
7.788983823826226 4.904802634695232 0.0
7.672018889153144 4.910077510508749 0.0
7.731996012352178 5.014717724244488 0.0
7.852072803124419 5.00743796185411 0.0
7.779278698005006 5.118909346425974 0.0
8.088113864063853 5.605434545811022 0.0
8.016457362785575 5.494849890158723 0.0
8.072290383394757 5.385594956317259 0.0
7.95068657972964 5.38825563681957 0.0
8.309366678475389 1.438342408757099 0.0
9.748160780780179 1.447794693754379 0.0
9.696454228162398 1.337889922375316 0.0
9.568813761940916 1.329560834053294 0.0
9.638326779791626 1.226729570935787 0.0
8.472132467407484 5.182856496818138 0.0
8.066211547412054 6.53691730655352 0.0
8.217035586462373 6.522976700918602 0.0
3.544839338670893 3.324491119989469 0.0
6.999740002965287 5.347729916247808 0.0
6.874544698914502 5.347027470386579 0.0
4.880451234715014 5.193043717957879 0.0
9.104510033763066 9.313204713465637 0.0
9.0466357104558 9.45359399494339 0.0
9.146803165140184 9.569652364413551 0.0
8.134107047896672 0.5527712356100052 0.0
8.369770412730738 0.5571215815175228 0.0
8.47386979744655 0.7564607169846485 0.0
8.585193608569258 0.5749174254532757 0.0
8.683868132726584 0.75505070091701 0.0
8.787381435061018 0.5813987798627239 0.0
8.697570280442534 0.3771156480326233 0.0
8.530048434259976 5.077280516000916 0.0
7.995091351438729 2.90367515012593 0.0
9.731083608815164 1.662638626153251 0.0
7.260488865351954 4.255073962371814 0.0
9.760728358076392 8.990038509880067 0.0
9.716710396257366 8.884160310398862 0.0
8.794627466210242 7.369659405098349 0.0
8.868068657550866 7.515048014893154 0.0
8.702594597629135 7.510501129643432 0.0
5.132320689147051 0.7610757801158905 0.0
9.755852887652699 3.853180024615871 0.0
9.787424819067885 2.757921105725315 0.0
9.731193479931608 0.3736343090103709 0.0
9.796526908308536 0.489684029254899 0.0
8.226019692057042 2.453349105940535 0.0
4.560989821496479 5.428206018250252 0.0
4.348810639659689 5.517048281386008 0.0
8.785190163106925 7.119142251269924 0.0
9.015515413043023 7.464769766852701 0.0
9.754861440190705 3.659036930324926 0.0
9.7543610723378 4.033687839160082 0.0
9.707881226943384 4.127219992296752 0.0
9.52841017383273 8.309020665649431 0.0
9.65186044414544 8.289498614805698 0.0
9.714051275521857 8.173576484362068 0.0
8.209758892476394 8.715513071423135 0.0
8.097084883671858 8.548851201381087 0.0
8.177989947800599 8.367872862579052 0.0
7.974142434808908 8.36779470623567 0.0
8.409012054919861 2.142624252464372 0.0
7.707002321497132 8.039129945341395 0.0
7.574653123518228 7.83895791570255 0.0
9.229858094382692 5.951357214361815 0.0
9.75307989876696 1.229893222503321 0.0
9.715811155868643 1.128779429890018 0.0
9.597960915003707 1.117058287635912 0.0
9.672063923518955 1.020806103150243 0.0
8.99090422125785 9.593878510105375 0.0
8.133165456134304 9.257620998029804 0.0
7.976779931497633 9.420725324095141 0.0
9.77231778617502 7.927819487779705 0.0
7.957213679655531 4.364530256281665 0.0
9.609903116082736 8.403725680286847 0.0
9.724891358972584 8.388392708395173 0.0
9.687487059868507 8.495935345161797 0.0
9.810055520269009 8.494090598382963 0.0
9.755967487162335 8.599790818513082 0.0
9.645698986824481 8.606121319182705 0.0
9.721376049217765 8.699989876681524 0.0
9.773009257015609 4.884557953188837 0.0
9.830105798750992 4.796546393900876 0.0
9.775335108731761 4.686093304257503 0.0
7.455611517737074 3.730099283949135 0.0
8.906943567829634 0.4197477661467797 0.0
8.980613334153533 0.5814185917581446 0.0
9.081059111759728 0.4263421860552371 0.0
9.821654809259165 3.576985724143072 0.0
9.761309244784803 3.4792267780002 0.0
9.763329553045937 9.353068233045157 0.0
4.463051839136694 1.164440352584939 0.0
8.0213168204867 5.283436382300235 0.0
7.89385412333227 5.290429544753158 0.0
5.806940001023414 8.583716119232427 0.0
5.88977793877374 8.96065112858812 0.0
9.177759062826041 8.25539130897928 0.0
9.626582559276994 2.05283181283147 0.0
9.747673294325121 2.064954301745188 0.0
8.775905508647185 6.951821187702613 0.0
2.3581644273991 6.029034686663493 0.0
9.777798009058461 9.548066962498762 0.0
9.737129197219856 9.662299853506903 0.0
9.615080366030512 9.683349544763068 0.0
3.315839678697904 6.042943273456425 0.0
8.915083018115329 7.937748428923896 0.0
9.489832173860055 4.712364754630572 0.0
8.118313727862493 8.013944064029838 0.0
8.902248750797776 7.67372145952523 0.0
8.954075939212636 3.463080912810881 0.0
9.45247551997678 2.133243108303608 0.0
8.311151553157742 8.899233004613622 0.0
3.28672004268868 6.826745674539142 0.0
9.86008383798735 3.468233656255824 0.0
8.389990589860254 1.947086063498656 0.0
7.144231739553659 5.329544660076687 0.0
9.654500729007207 7.743301971143119 0.0
9.761920842881946 7.740144345898896 0.0
9.692820773976567 0.2651585113981998 0.0
9.690951720399688 6.100517071814821 0.0
9.775704281989471 6.077882312279847 0.0
9.823117117198079 4.115168542267924 0.0
9.764391943581737 4.214465954230587 0.0
9.659455011849253 4.218716850797838 0.0
9.713462125022623 4.30742830316693 0.0
9.849638067150842 4.208845651573708 0.0
6.376241713254513 3.858766051594979 0.0
6.274931849158213 3.701528298009006 0.0
7.097780104117746 1.926449727602711 0.0
2.457742027508782 3.810157622192786 0.0
2.963634206580268 3.740748099915693 0.0
5.065585416063965 5.544355730437482 0.0
9.783560252464587 7.566507987677117 0.0
9.825819294611026 7.470942204664841 0.0
9.799976114123012 1.01659516618323 0.0
9.745559590633832 0.9150866860898854 0.0
8.20473400632469 9.495828670767946 0.0
8.784586030320169 2.054461500762216 0.0
8.758471587067168 1.888286802854785 0.0
0.9188935087347281 8.510730800272478 0.0
9.674192026048217 9.20389587377276 0.0
9.796314981283475 9.185916994648775 0.0
7.206882433199502 5.452024361489832 0.0
9.773927048949279 6.334665846819535 0.0
9.830288393591173 6.225300227041885 0.0
8.25177349297509 3.282767705830209 0.0
8.099233469407428 3.304040153764131 0.0
9.607860512870598 4.315652630490023 0.0
9.403674738018715 8.367349042046314 0.0
7.611756786273919 5.018691202305147 0.0
7.549513964643336 4.923310232561835 0.0
9.80986724662116 0.2915868356190958 0.0
0.7757562810577034 3.504187313079081 0.0
7.659562100664981 4.698467529240196 0.0
6.539424975891206 3.541729955691742 0.0
6.717348880400739 3.55221857686142 0.0
6.836337579501807 2.417476958454302 0.0
7.096480496160066 5.959124656438389 0.0
7.189742782777612 4.377051328076039 0.0
7.051723187622053 4.38470822973091 0.0
7.125489805519186 4.497018383456762 0.0
6.994915621927777 4.501504591168814 0.0
7.056755276274058 4.607929817497045 0.0
6.932937068803914 4.613249390039674 0.0
6.86629288290367 4.50541343988659 0.0
6.80427099775847 4.617607827251794 0.0
6.739195362053689 4.511124964201849 0.0
6.677260697693361 4.624288827143181 0.0
6.996760608675822 4.711715831373894 0.0
6.316045249462968 0.6456945497683586 0.0
7.321834163850416 5.816449323512759 0.0
7.833101485370825 4.390058096386987 0.0
4.996572652976738 4.498711166259074 0.0
5.112334577457371 4.663858846723513 0.0
5.271923064784868 4.629759173373871 0.0
4.93773508827367 4.668006487116195 0.0
5.348137647919096 4.485934621930562 0.0
5.413454827497575 4.62999925573761 0.0
5.356581113747675 4.770594395332836 0.0
5.013422223730484 4.793321773780133 0.0
8.58674425943957 0.9312335381466886 0.0
8.776450596582496 0.9362399987293505 0.0
4.783496233934828 9.486061758876032 0.0
4.544176394620909 9.034071856445296 0.0
4.082330493623582 9.015765881393772 0.0
9.820867469965414 7.285959215547852 0.0
9.852697883440127 7.166089674802766 0.0
9.260999083164238 2.971390964911171 0.0
9.197701900169713 3.073162109379564 0.0
9.31960210441945 2.867465579641856 0.0
6.660951583415121 3.383363199709994 0.0
5.210469976037585 4.761678854423166 0.0
6.740780285297665 4.733615686805694 0.0
6.611362405615225 4.731958642073806 0.0
6.549091884465382 4.629620704100811 0.0
6.491761716522486 4.733409494449344 0.0
6.425259228542098 4.640546096196947 0.0
9.715556659367534 2.986725573570596 0.0
3.710524324925069 9.463213827486557 0.0
4.768537031214573 4.727001037865238 0.0
5.039413681704655 5.378508462165627 0.0
5.188746429211535 5.440476671296013 0.0
5.172214816037712 5.298914527247826 0.0
4.469063601436893 3.667917323494335 0.0
3.799121596584382 4.741629285988305 0.0
3.661085664896249 4.442847704416992 0.0
3.316563386321876 4.380147387454913 0.0
3.802087298647255 5.26743535640985 0.0
9.738116341343215 8.047178982429934 0.0
9.85106076399546 8.021725551312715 0.0
9.837581050304836 2.844176011307251 0.0
9.664579962075123 4.402853107737106 0.0
9.76433159763034 4.39807801415352 0.0
9.718924973226878 4.487825491046641 0.0
9.826405563645343 4.494594135148365 0.0
4.931068003413168 6.359330991212394 0.0
5.130175746947236 6.201075257041828 0.0
5.143884286052002 6.445382329515047 0.0
4.953395875296406 6.628748468717369 0.0
7.833019185167153 5.400347121613631 0.0
7.766636138801143 5.313240048256084 0.0
9.767038723422333 4.578090619166644 0.0
7.315369355237483 3.441501197259575 0.0
9.556068971301514 0.2347811136726856 0.0
5.733871280791703 4.444861510772459 0.0
5.828809543126846 4.569791247698539 0.0
5.986701526182213 4.562881783985375 0.0
5.912543327921148 4.692966271273211 0.0
6.052130330528581 4.682477327897978 0.0
5.773525984744635 4.697697018456535 0.0
6.121646311546238 4.572302645403103 0.0
6.182349700936326 4.67713231096357 0.0
5.846371383601797 4.808939734754761 0.0
5.117807918383606 5.974361363083184 0.0
6.256132501905665 4.575863546153224 0.0
6.324770064521816 9.645040261272253 0.0
7.345522892050965 4.12581088034536 0.0
9.338523512844539 4.854480276600515 0.0
9.286984287289403 4.959628690044808 0.0
5.676298026114105 4.589279806918992 0.0
5.631257891894775 4.722749088404111 0.0
7.970415275563177 5.621040275419208 0.0
9.565118337557308 7.081391220827488 0.0
9.626201005045262 6.980441083020495 0.0
9.733729506193331 6.979928568877979 0.0
9.684556253529976 6.887102896543928 0.0
9.780785815410074 6.890287441101827 0.0
9.740054813822885 6.794211367612523 0.0
6.462628988057306 7.629921412015864 0.0
6.692564520952154 7.473594130811262 0.0
6.927983108788191 7.570982428592125 0.0
6.899878641134941 7.329306734748538 0.0
7.117542472438434 7.416951094809493 0.0
7.089537168123128 7.186691566729968 0.0
7.296585396514727 7.275888419524222 0.0
6.879678873774065 7.097443005287856 0.0
7.063454637059129 6.967740076426161 0.0
7.329105042924355 7.496317641003757 0.0
6.867084781778411 6.878842928865059 0.0
7.494278796275744 7.351949197351029 0.0
7.462564159480594 7.150140034494138 0.0
7.644835001206406 7.21506678718646 0.0
6.682478929414216 7.008358327294905 0.0
6.449199855715812 7.365660640952548 0.0
7.548139855358765 7.57299228324251 0.0
7.008502809092701 7.844601794812628 0.0
7.371739019901781 7.707688433423657 0.0
5.665345294602155 5.290628720253272 0.0
3.987583013016546 4.486920698115711 0.0
8.893480480320447 0.7785000884179994 0.0
9.715485963651112 0.5955299613117169 0.0
9.761785841543585 0.7048670948649375 0.0
9.670304314877074 4.578896619304786 0.0
8.058509626083154 5.744161686650483 0.0
6.181795443628869 5.462040811515966 0.0
6.256771804808641 5.338464817889848 0.0
6.124070400983443 5.352376180901929 0.0
6.399679261813415 5.349186390888865 0.0
6.477776305607503 5.46505688468465 0.0
6.541624525938461 5.346017118512589 0.0
6.673064575428321 5.339051516933525 0.0
6.599301548842115 5.241958624987057 0.0
9.573774011620444 0.815274945835158 0.0
5.86493292693426 5.877588788523632 0.0
5.552663040119136 6.957487930464628 0.0
5.535080960199246 6.663033131707637 0.0
3.708603689392072 0.5979254716153909 0.0
3.31896983256719 1.188583855309964 0.0
3.895664898001925 1.128137111173669 0.0
6.363360407965353 6.032416442205533 0.0
9.445959758065749 1.070139246426051 0.0
9.50632172780449 1.214052376665338 0.0
9.441030033980638 1.325047485624912 0.0
9.295799464644857 1.341410624832976 0.0
9.184164107767781 1.461677744200096 0.0
6.407191016756832 4.407273313799791 0.0
5.544591888593027 0.7652641669375747 0.0
7.883090151006535 2.497506182548758 0.0
8.073420508370992 2.120510489750234 0.0
5.494822040671399 4.732314720081375 0.0
0.8986976806403217 1.464611451578306 0.0
9.536325549598013 6.83286654168725 0.0
5.972289519322897 5.727532110854501 0.0
9.82203607053145 9.443411729566549 0.0
7.263199949874008 7.064207941227515 0.0
7.233659553805083 6.853135694774254 0.0
9.793310082768443 7.072747972018893 0.0
6.734168931095253 9.67499220075154 0.0
6.941134861034159 9.382328333169653 0.0
7.285822522704258 9.443989747444657 0.0
6.576263515512108 9.333035011158342 0.0
7.160560566479093 9.127732577621245 0.0
6.218711947378506 9.298064908857533 0.0
6.432383355119106 8.980985203293491 0.0
6.795390278360442 9.046043538032663 0.0
8.54677014121837 0.1957422484480979 0.0
8.528696320820908 9.804850950580938 0.0
8.42644965647489 9.604735484095604 0.0
8.010239224104339 9.715048083583248 0.0
8.644359648763341 9.628432815860457 0.0
5.344212921686536 5.526744195650314 0.0
9.760936589662048 7.38409687515441 0.0
9.128187788393989 0.1445485608215519 0.0
9.133307661752394 9.854833215426817 0.0
4.867351616228264 3.944459575003425 0.0
5.905323253270366 7.385600364255367 0.0
5.909045412185362 3.361969954191194 0.0
5.80580919758911 3.569999290452344 0.0
5.578230704221431 3.587842862412673 0.0
6.013352753603037 3.550699073477782 0.0
5.936624955014758 3.721630401607248 0.0
5.735413275357409 3.78528948606432 0.0
5.512538847486775 3.794760621907932 0.0
5.360571639388366 3.618649018042938 0.0
5.134141179590394 3.459385929220745 0.0
6.167399567008798 3.367365990358096 0.0
9.766756262206602 8.291756450136036 0.0
5.486063578307141 9.64505925252771 0.0
9.497624614180321 4.328873442170357 0.0
9.811387324954623 1.570516917365688 0.0
9.389210081887331 4.69150887571586 0.0
9.704395728912932 3.754226393630331 0.0
9.808172776193384 3.748784464356272 0.0
6.549660911932182 4.839747932361234 0.0
6.757415124099031 6.077939876843736 0.0
3.805578542126494 8.040840085419626 0.0
4.232580149691158 8.198659880701744 0.0
4.559765382564095 7.87091698350757 0.0
8.3829075948167 0.9495097054886067 0.0
9.8571301061408 1.456307792614791 0.0
2.005900212453279 4.535525273813588 0.0
1.85904408608185 3.956445706785572 0.0
1.979307922430775 5.474327285927505 0.0
4.387923194305381 4.427191306527721 0.0
9.429258370703248 8.873693567695483 0.0
8.99196583083892 4.664567567015693 0.0
3.050357122593155 5.368999067452741 0.0
2.861107385476722 5.785089447130829 0.0
5.005058958272409 3.711196438448062 0.0
9.8972295764837 2.755337284632969 0.0
9.581048890980513 8.853909321617065 0.0
9.668838904423916 1.762418716497425 0.0
9.716576458425756 1.852218615166234 0.0
9.799043132681442 1.780583141193779 0.0
7.661868217848455 2.880323287492419 0.0
6.780136552904057 5.443858690999834 0.0
6.489544866845868 5.913957888434588 0.0
6.880149522020364 4.134257616716107 0.0
6.970134365280068 4.264072319341612 0.0
2.225481516813409 9.348422240784 0.0
1.843418032490818 8.641605249943353 0.0
2.198000805242772 0.6459947140825729 0.0
8.740020306282506 0.1903932731609072 0.0
6.86957996016679 4.720776242956433 0.0
7.430920333506809 0.2702852342693345 0.0
7.302066064947383 0.6134316505458445 0.0
9.305398039877746 4.64854361125207 0.0
4.078151380865065 5.203425462519088 0.0
4.080704120371218 4.778853303303787 0.0
8.052525541571825 5.965483159581719 0.0
6.367194027835946 4.754896037842673 0.0
8.604191121620719 7.648182513679963 0.0
9.546446695207845 9.234701521982952 0.0
9.018652854946867 3.351011585453845 0.0
9.143853648154607 3.350173119015413 0.0
9.067079866763024 3.245174561579149 0.0
8.991492136849105 3.135578770028028 0.0
9.29603967712795 0.1426516429033488 0.0
9.392428271030795 0.2506306237151588 0.0
9.223973843394301 0.2912279164401488 0.0
8.39375191941536 3.018777714002827 0.0
8.4836475746111 2.88135207267795 0.0
8.741089053946197 9.821127577434911 0.0
9.803966507713174 5.448064463539533 0.0
9.748132240148552 5.359371181503531 0.0
9.850258990973547 5.355211921626304 0.0
9.7965346514158 5.266762244994661 0.0
9.84142096963129 5.171050273734619 0.0
9.738843612428232 5.167483913244169 0.0
9.64168976006725 5.359875132194057 0.0
3.335917453809221 5.671837672982919 0.0
6.962669142802881 1.683222554707996 0.0
7.365210844496719 1.887492842536114 0.0
7.517378971174123 1.677983072937792 0.0
8.00383870208024 6.089394601875145 0.0
1.725435941000569 2.759295503019395 0.0
7.907977929549089 5.102827208603365 0.0
8.052861051278896 0.2683271125209605 0.0
9.80169732768395 3.385443381464333 0.0
9.831597648680848 3.28491948963525 0.0
9.736335895866404 3.316207814499244 0.0
9.597256128490281 3.756160701977744 0.0
8.865819925321706 3.366235906378775 0.0
8.489614436807788 1.757152185195495 0.0
8.88089641144391 1.078983279100314 0.0
7.430923851187758 9.724389499796425 0.0
7.584252919312249 9.509430586267927 0.0
9.744026095940516 2.247117754488748 0.0
9.729961521243718 2.659836747108116 0.0
9.790866569780063 2.558993767350471 0.0
9.736606445116795 2.455104424879619 0.0
9.846806182714698 2.452157456754448 0.0
4.518102112052724 5.141350889745285 0.0
4.519880229178207 4.85678334497067 0.0
9.7302407894617 6.434012603549242 0.0
9.787537474544765 6.523591663056312 0.0
9.744262337067932 6.617499601377625 0.0
9.8406238811518 6.41591236129004 0.0
8.914967252734657 3.579360039684312 0.0
9.154797282599406 5.670753066089419 0.0
4.228839454580575 4.612979739018002 0.0
6.095037541675208 4.42126627187728 0.0
9.304166983880842 9.864854494751789 0.0
9.406445527105628 9.759007358529582 0.0
9.256225114941945 9.700832989525724 0.0
9.796206564635622 2.351215649506205 0.0
9.849373673349081 2.25090453834006 0.0
6.332048155295931 3.511675163099286 0.0
9.069679774213784 3.022879178706259 0.0
9.070599961450037 9.055284879641471 0.0
1.808685691036764 6.331557276533421 0.0
7.120156826652838 4.698481230214924 0.0
7.052894345811342 4.799848851879358 0.0
4.739957520484086 5.369107149361242 0.0
9.389197839958292 7.197139943834638 0.0
9.046688232613976 4.560364044038737 0.0
9.162685461967492 4.562194096410666 0.0
4.227377821420887 1.564128177298305 0.0
9.201090975245227 2.794301402811909 0.0
9.251941624303948 2.677556975242327 0.0
9.186758273070138 2.563916005021366 0.0
9.317609833868786 2.560335260954038 0.0
6.57599191748324 2.437689779955877 0.0
6.305556560534859 2.459112595979303 0.0
6.981058048792093 2.642476994448363 0.0
9.886113463139504 6.510498309609482 0.0
9.250462794607717 6.221362629571698 0.0
9.305373999084068 6.108271307139882 0.0
9.390477915810829 6.228015172491477 0.0
9.44452571968143 6.114582165110393 0.0
9.502105740270528 6.197677857389309 0.0
9.31559697209813 6.331647407124485 0.0
9.370938253597153 6.437386206819511 0.0
9.594764406124872 0.1099001288712305 0.0
9.602872681151728 9.894988341116305 0.0
9.622661196143387 8.076680696281343 0.0
9.769069277144705 5.9102532189237 0.0
2.615076109785583 8.807551523115547 0.0
9.658920005405456 5.730890135691177 0.0
9.76063135061807 5.720703211793342 0.0
8.63963723169499 7.177334225227945 0.0
7.841904391869763 6.41346852896409 0.0
7.764520718520185 6.297267738834625 0.0
9.546492996136271 3.465225175657335 0.0
9.25600964352143 2.219157062786616 0.0
7.625057159226293 7.012987957636062 0.0
9.529121062829038 7.730283486008674 0.0
8.329887090625894 3.845190321147069 0.0
8.265841850823831 3.95687001944245 0.0
8.402006523775544 3.947660780406651 0.0
8.128436391670505 3.968543393650448 0.0
8.46705122470662 3.835767362024195 0.0
8.218867047074696 4.063481375518748 0.0
8.089763413611255 4.08062363292928 0.0
7.939578083855268 4.111915744184436 0.0
3.74991304509639 6.615676756107112 0.0
2.627714335615619 1.170993030860914 0.0
7.046129971268607 6.759930788612616 0.0
8.534603732661887 7.486325780553722 0.0
1.569381386467569 2.042794535871475 0.0
6.228703743210918 1.986421863690014 0.0
6.467030855792859 2.67190498312861 0.0
9.272246093269825 1.975478263632296 0.0
8.05269609263041 3.854522845257449 0.0
8.008595521536957 3.177870309354594 0.0
7.929796740504207 3.350600835935766 0.0
8.048703574664067 3.449582532910417 0.0
9.72947480375618 4.973926800124758 0.0
9.784850360535604 5.072865219810449 0.0
9.896036387646596 5.069261557893528 0.0
9.633140953203334 5.168645132864771 0.0
9.558102991128836 7.602453108835212 0.0
7.278758746505716 3.994295887299482 0.0
8.306681733482405 6.936428510427854 0.0
9.487163072013963 3.757777670075558 0.0
9.532950522284125 5.359403698944497 0.0
9.816036650072329 3.927268437107025 0.0
6.173882586235392 8.734645960664665 0.0
7.972518459433741 5.003005338485466 0.0
8.398453459336153 1.601072016988848 0.0
8.97460527296194 4.040886705742754 0.0
9.037941657530773 4.143578781749325 0.0
8.849604200183613 3.828506169652706 0.0
9.545296177100065 4.042698359132156 0.0
8.595941796785514 5.806754902023664 0.0
8.65588412428292 5.694192853853139 0.0
8.723710665131787 5.801528918332044 0.0
6.861288985046249 6.673713222735126 0.0
8.87477249219366 4.664500928777609 0.0
8.72385765226959 3.608276264790996 0.0
7.145228858696953 5.573648565429618 0.0
7.282945121585866 5.558559688509987 0.0
9.224761401603633 1.602363370249125 0.0
9.609115686587552 2.986868833620756 0.0
9.633989947851914 6.628120633848649 0.0
6.046214325132457 5.45615093027661 0.0
9.017014346798927 5.271996636983457 0.0
9.070824864071271 5.168510834798647 0.0
9.189021391555556 5.166867900487267 0.0
9.123328759137758 5.064718588163964 0.0
9.240587446378079 5.06459430516883 0.0
9.250848280531756 5.267364371053135 0.0
5.773050603406019 5.7192906317521 0.0
8.576466432793914 4.3559007860436 0.0
8.634627802680399 4.253467736542067 0.0
8.461790117175607 5.591735227444779 0.0
8.907610717370224 3.713397213891439 0.0
9.80665594564509 5.628066492225966 0.0
8.985935132601089 4.455263493464225 0.0
9.00640209566022 5.067597672073404 0.0
9.833659276096986 6.976519563917422 0.0
8.0283368553477 4.687271895436317 0.0
8.326580191759327 9.127498457128247 0.0
8.650637373791266 5.07513089931925 0.0
8.701067313435203 2.700069743477523 0.0
4.825307249916392 4.884175191874744 0.0
9.418335984190309 6.858444798015129 0.0
3.91434687300816 8.542956908935874 0.0
5.569239724399552 2.064135034637056 0.0
5.234271567762738 2.128974435011933 0.0
5.757920427527626 2.312422707096966 0.0
5.43365689737979 2.427455772745759 0.0
5.673210219624612 2.602111218343444 0.0
7.214258468265766 6.652783071431555 0.0
9.823626269633962 4.30685540664529 0.0
7.96996639420014 4.794005510174826 0.0
7.616003332725032 0.502676560965646 0.0
3.050634530589821 4.659174799474146 0.0
2.870894249800723 4.246924313393336 0.0
5.285393339952368 6.079037173753393 0.0
9.439954241218905 4.23581687956071 0.0
9.67709722097145 4.710772408106511 0.0
7.40767785509217 4.259947873553335 0.0
8.396202587439676 5.486075637998701 0.0
8.323689688705493 5.372061002264632 0.0
8.191312386254125 5.384662546230823 0.0
5.304380054816289 5.369675374029755 0.0
9.093848379546637 4.047647920840374 0.0
7.916313220758624 3.045043876114836 0.0
8.435854831444637 4.144861908356168 0.0
9.060262453079693 0.7340576053322918 0.0
7.053195520344596 5.238809779682351 0.0
9.621762679347093 2.45205452967588 0.0
8.410730269104743 5.287995309529392 0.0
9.655094569234972 3.472720279371932 0.0
7.982140513923982 6.667914768024983 0.0
8.402690325256646 4.883576657130221 0.0
9.17488654147479 4.962006474835693 0.0
9.013188196102961 8.49700148123058 0.0
9.795977244531603 2.156818021002043 0.0
9.893813711206834 9.545820400859157 0.0
7.965349232662289 4.250048884270795 0.0
8.644264557989125 4.874751532150782 0.0
8.215430976121077 1.26077208565765 0.0
8.379717637669398 8.37324652769609 0.0
9.320026533461409 5.559861899725609 0.0
7.885778178744864 0.4977439426642278 0.0
7.547066983926719 5.125166613071239 0.0
7.657542898944819 5.122996245335209 0.0
7.423918840193691 9.000935553397358 0.0
9.854133000712425 5.541931969512857 0.0
9.328508174398952 2.101486405523264 0.0
9.300749600926641 9.530012105354274 0.0
8.130307182491519 5.277079344947874 0.0
8.346752967392757 4.987627363826086 0.0
9.118404185029991 6.007087846617186 0.0
9.048232213728614 5.89431792713258 0.0
9.088340967655858 5.576242562571367 0.0
8.094762487139027 4.789727191449318 0.0
9.915265904493378 5.749591413470928 0.0
9.92169805280126 6.154216704502091 0.0
9.918022441582268 4.549125436287157 0.0
9.919332362905616 4.849536560132457 0.0
9.914800786693318 6.750595509794719 0.0
9.811792900437824 6.703950687575952 0.0
9.900643083988882 3.749855087409844 0.0
9.912423171222734 3.043228996968949 0.0
9.91892875832665 5.949999999993851 0.0
9.913300070218703 3.960831593817277 0.0
7.709347001661226 4.444236534782706 0.0
7.479443107717332 8.071637285053104 0.0
8.839057072155848 6.807845119358974 0.0
8.972330068019902 6.78765448182788 0.0
8.542093772125282 3.941452413628317 0.0
8.279144752968262 5.930387616620717 0.0
9.393455876855919 4.973162505621418 0.0
9.507123333872533 2.855087674515822 0.0
8.77504684283825 2.317347145885344 0.0
8.394133129040345 4.464046960801843 0.0
5.725509852450801 8.210843960481027 0.0
5.62632390239664 3.967637659758752 0.0
7.910815814627989 4.900765971697654 0.0
8.595808444085467 5.590040244353608 0.0
9.705160502006024 0.8106158419444889 0.0
9.82021247904746 0.808810893177099 0.0
9.218352146075844 4.447736986422823 0.0
9.20781892622228 3.858281726888132 0.0
8.713609974387523 5.178241668554946 0.0
3.55755059259364 8.921522400238844 0.0
9.59122926011489 5.452844834281716 0.0
9.70565100407009 9.77887811062354 0.0
9.826938454219809 9.74303055702321 0.0
7.238962096855633 3.278078153406256 0.0
8.575609105166194 4.567807831727537 0.0
8.936449841121737 4.765835458965493 0.0
5.59323463391086 9.248527978398117 0.0
5.280809113285124 4.886132326418428 0.0
9.328132730893216 6.544753806716806 0.0
9.026944889277736 6.67247283515637 0.0
9.81946239021469 3.007926663525007 0.0
8.677633568960493 6.144049349297466 0.0
8.33427489656924 4.571212803519522 0.0
8.55734024448315 6.382535186588269 0.0
8.692399379422756 6.372347713955898 0.0
8.495817478252626 6.503308565233578 0.0
9.905494734661673 2.544078755559835 0.0
6.177101405266569 7.228490244483556 0.0
9.825373011845263 5.807482724503027 0.0
9.808678508609606 8.118683092442964 0.0
8.397717712407108 7.08010313863416 0.0
7.428555529689225 4.935946611338556 0.0
9.575504958128711 6.125633853639113 0.0
9.154066996197898 4.146562596982661 0.0
8.074381802159323 4.337569667261167 0.0
7.018337246891919 8.843475095716133 0.0
7.970627172560641 2.658650028065857 0.0
7.382546388883145 6.723381543491632 0.0
6.822972334933889 4.884555620881615 0.0
8.343732976791593 6.041576709398377 0.0
7.743680217306919 8.423336160305476 0.0
8.505717922983454 1.115022897794028 0.0
9.113973198216474 6.992972408167606 0.0
5.818882632841168 5.300437503812764 0.0
5.951991891717714 5.279516346785062 0.0
9.450183479138845 5.92934813870612 0.0
8.783346541536119 5.48419035750989 0.0
9.38074895894124 5.65076274999803 0.0
9.513658728876734 7.193620441323493 0.0
6.396040948797887 6.776064256962667 0.0
5.389661780244388 4.89715084345563 0.0
4.473247649068957 5.85935163892416 0.0
9.249586607512612 8.37680799459232 0.0
9.103796366487646 8.379197231055114 0.0
6.274057301184156 4.87985402946409 0.0
9.259628836118232 3.561431822636308 0.0
4.037922477011971 5.489409780163391 0.0
5.62712958624254 4.893925433488392 0.0
8.806426003347967 6.133410188141932 0.0
9.53304466499349 9.59279975429444 0.0
9.542890959420024 1.966631379116419 0.0
7.459736176874619 5.863847835420528 0.0
5.937613117200432 4.89232797168023 0.0
6.171611131472617 4.879541833448487 0.0
6.100695199816815 2.291172318314745 0.0
2.315194906726768 8.081958163666464 0.0
6.878489987598286 5.148099521847569 0.0
9.105264414399338 8.639184652727645 0.0
9.20047261316883 3.457820810661327 0.0
9.895329010385955 7.55944047105717 0.0
9.912742873006831 7.76210330502246 0.0
9.37761459375249 3.168397068877758 0.0
8.946121261512507 6.345629828835438 0.0
9.918632496443566 4.449809517365367 0.0
6.848211525651934 5.945010613369067 0.0
9.915721525903255 2.047407395915179 0.0
6.117255841708726 5.163321965161054 0.0
7.276595248786602 5.347247322210079 0.0
6.32682869954104 5.23674259421017 0.0
8.785886448438022 5.692775375342819 0.0
9.099994401883361 6.776698531382792 0.0
9.913397459621638 0.2499999999998165 0.0
9.910352525643928 0.4481571029410266 0.0
9.907850422008579 0.5479735220323012 0.0
9.911983631350465 9.24778487019403 0.0
9.917634740384067 0.7514684821956668 0.0
9.195214232985496 3.254172408378337 0.0
5.000896927376288 1.846006038077654 0.0
9.917172478547403 8.250155740683276 0.0
9.908120476950126 1.742986232208194 0.0
9.914524635720774 1.949567899316728 0.0
9.907358878377153 9.145625165175748 0.0
9.917695944922635 8.949999999998397 0.0
7.648387553139914 5.325741673607362 0.0
9.605343588986079 4.130627398479715 0.0
6.648113233057817 6.774798386229164 0.0
9.910347203087213 8.446729917003672 0.0
9.913623694530468 8.548470085896316 0.0
9.9201245863254 1.536225488581779 0.0
9.906538426683255 1.059019360781604 0.0
9.912867352010919 8.74999999999809 0.0
9.799662981388353 8.79550485462418 0.0
9.831828680383174 5.99966894118311 0.0
9.91414179906643 1.263025320602998 0.0
9.920690092699912 7.240982963665807 0.0
9.385889285950551 2.235126904097426 0.0
9.28133998925606 8.00415195851526 0.0
9.817074723108401 3.172398890123306 0.0
9.482030285089927 7.512954023388035 0.0
6.682432918504054 7.233889573028878 0.0
8.528699633246763 3.260502457553277 0.0
8.91699963742029 2.327016692708648 0.0
9.267676068834481 3.954520684561369 0.0
8.70811637467455 4.974101624783084 0.0
8.18184214270768 7.816666208279135 0.0
9.690393137288163 5.264344933127836 0.0
6.937111790104696 5.245184991960528 0.0
5.895846026722989 5.174232967273284 0.0
8.281683356622615 6.400073017261236 0.0
9.150883172924027 7.444273543454419 0.0
5.430406600793122 3.390815886517273 0.0
5.049583827974758 5.697634876048387 0.0
8.3966710383105 3.495813899905868 0.0
9.007538428392454 8.046563579784266 0.0
4.645155158868719 2.637132843684674 0.0
4.887444326771336 2.30020425915506 0.0
6.483736782775559 4.522536327482678 0.0
7.843169154548308 8.2116075844056 0.0
5.06295551628385 4.901632590583318 0.0
7.201400991012747 5.138239336380897 0.0
8.519791031104612 8.848807089071627 0.0
8.658623737989732 3.031313729049854 0.0
7.585566208322493 3.629882964874684 0.0
8.411818469596405 6.834326722716643 0.0
9.172363528634236 7.669230647622864 0.0
8.85455683341768 2.682483055215344 0.0
9.359398739738925 1.631421337140716 0.0
9.071793864444992 7.337030604117359 0.0
6.968394563521436 3.712808894519514 0.0
7.899236117684646 7.094583340182754 0.0
9.54362864504834 9.781852543872333 0.0
7.151298729743687 7.644795130415299 0.0
5.452218361466201 5.186873761308322 0.0
5.517642289161902 5.293540933999446 0.0
7.802500357665464 5.978295671754199 0.0
6.594850839687122 8.491429270558893 0.0
6.029132431949566 8.294997405201931 0.0
9.31286590869111 0.5672913838331921 0.0
9.25238720319541 0.4415953739444106 0.0
9.550589523211062 4.228044955453704 0.0
8.748611832783206 6.250900951984038 0.0
7.566980108995873 3.995148257893202 0.0
7.426142759241261 3.996743578498081 0.0
6.478912513785404 4.000296412419969 0.0
9.30435638148753 5.168210982711592 0.0
7.542154188520517 5.752525075248498 0.0
7.219033852073297 2.139582470800704 0.0
7.370913620388047 6.545121498197235 0.0
5.226731036024996 5.187572666585561 0.0
8.515591031124366 4.462223215179979 0.0
6.762864307079274 0.3078036604979366 0.0
8.587432696997471 4.977010533175154 0.0
8.703948448756302 8.815629076400704 0.0
8.081003990931544 7.370949680119862 0.0
7.424404567669909 6.949730915714445 0.0
8.578903262311433 8.377992954045473 0.0
7.301258690263783 6.106184350645308 0.0
5.991600556904204 3.99820087171043 0.0
8.203048538477193 1.601044215405025 0.0
7.289972483120081 4.572350254111052 0.0
7.714697186439165 5.420586967696794 0.0
8.918853780709807 1.841796898567452 0.0
9.919941345877513 4.749808449067644 0.0
7.245589454939737 5.94251251443003 0.0
9.258480524497795 3.358952871140391 0.0
3.705877615124628 5.574038727593425 0.0
8.287096858129765 7.962370605242409 0.0
6.799629860952143 3.705385600481528 0.0
4.146753450763018 6.544154457143895 0.0
7.413973555029582 5.545687501585183 0.0
8.466524978378082 4.980481756569235 0.0
7.336312153537934 2.337983522449311 0.0
7.695505222753409 3.747498713679684 0.0
4.898236813123799 4.795853653580084 0.0
4.59779105899602 1.896916774247134 0.0
8.560170375862322 7.072369101894893 0.0
8.386150468360862 2.449771437140704 0.0
8.41200018115259 5.084601315536367 0.0
5.102189912301071 7.621598618277815 0.0
8.336320418935243 6.71651223072348 0.0
5.081745734883095 3.977838926197614 0.0
7.63590698378166 0.9500570055008507 0.0
7.743369677149255 3.051233984704873 0.0
5.357527459690566 0.3809996753407537 0.0
5.967373112873382 0.7731113464301924 0.0
8.169449265206127 6.666271947462212 0.0
5.95122726745053 5.55758205410881 0.0
9.922289489207834 3.53923011719877 0.0
9.39154684476555 2.659037023454942 0.0
7.701415639167884 7.690060291860976 0.0
9.819179654793023 1.329863870021845 0.0
8.358229579054417 6.506108206863729 0.0
9.269720555169467 5.657096143475924 0.0
4.473187658045934 7.435037860084884 0.0
9.65807158077373 3.255496360750368 0.0
9.605155446454205 8.713645566904637 0.0
7.097383547728313 5.141197376985936 0.0
9.812212483832656 1.89920712759492 0.0
9.83875570675407 6.81603549325055 0.0
8.926246869879279 2.079976511571457 0.0
9.166785856141402 9.169070814302419 0.0
8.763479010228052 1.587152667342957 0.0
5.957377924852992 6.404530806530254 0.0
7.14506854375872 6.10342416684208 0.0
5.672595070581394 5.164323323112049 0.0
4.899782787268781 0.3801727265981219 0.0
4.447133848117348 4.673614099606824 0.0
7.044865074789195 3.253639989243549 0.0
9.818461337102992 7.819456450952447 0.0
9.925334577033155 7.954012377173311 0.0
6.352907898232792 1.173665225954276 0.0
7.351721385581032 5.660361289755705 0.0
9.337367583861807 2.76534436379692 0.0
8.693118347802024 4.360254099729149 0.0
9.476812970101324 0.3524826622168163 0.0
7.109868985890334 0.9024224571333925 0.0
7.899106846231403 5.511805431542581 0.0
8.352799544476607 5.187887629361129 0.0
6.957483547582747 0.6176251309213842 0.0
8.099559500483094 1.412323841044818 0.0
9.913030944540278 0.8542404645334569 0.0
9.143075088381442 8.022165366829135 0.0
8.819861450593166 6.356592599428041 0.0
9.319444417409162 1.49938505915629 0.0
6.490262520326714 7.118204362551877 0.0
6.490874470087819 6.582907761235813 0.0
9.82506653058937 0.6146757679104559 0.0
6.803129818897624 4.419048038171804 0.0
9.840901379354312 0.08198751964190581 0.0
9.839740374244226 9.918356239418472 0.0
8.551927134544655 9.449788917425456 0.0
9.92097857388158 3.249999999993177 0.0
5.797087413057367 7.077351493358238 0.0
9.255412859987286 6.433984412022419 0.0
8.668174522249984 1.740767926084485 0.0
9.920991430240607 6.25262219124529 0.0
7.57275248448898 1.94367954756322 0.0
8.052865444445507 8.19900054463639 0.0
8.748697149245206 4.25201068974208 0.0
9.158270227735827 0.5542256343091421 0.0
5.997487767477439 4.787924707603557 0.0
6.119759900601896 4.78043793682227 0.0
4.353034750397793 8.619182743639561 0.0
8.721093521611476 5.588932824583312 0.0
5.717101151444983 1.123034066822819 0.0
9.825602081347064 8.68753399402474 0.0
8.005502510832988 8.7824052910506 0.0
5.548184234622668 6.408009287230429 0.0
5.77830300433981 6.598697187164234 0.0
9.613093825495433 4.50282172481406 0.0
9.928981132641653 9.74928475696928 0.0
6.613628176297015 4.515513362596662 0.0
1.822126723816303 1.297795131355289 0.0
9.514164594137375 1.43081427463862 0.0
4.735494753432723 3.698541604583975 0.0
9.52844959749262 8.615213629960298 0.0
4.660704511759056 0.7947595073298008 0.0
6.82340845160293 5.239926830264399 0.0
7.885938077030673 7.380147032865134 0.0
7.884599891021201 6.09005968568029 0.0
8.846834820720167 9.653276456345532 0.0
8.457777199486827 0.3851010632068662 0.0
6.66485224572131 8.771510767670392 0.0
9.091499342133352 9.708315832477556 0.0
9.824286725109655 4.976315293637262 0.0
7.848197684391786 5.632217046637356 0.0
3.88430598115417 4.225391362015386 0.0
8.776890759183289 2.809688928468134 0.0
7.393884285023409 3.59397875231041 0.0
6.927568893329758 4.396788356869783 0.0
4.96854327720728 2.662368428358774 0.0
9.1480130720193 3.951479613991279 0.0
7.071049729490975 2.38092990636632 0.0
3.40193058782919 1.686321186206593 0.0
7.612042194200681 4.815904436723407 0.0
9.043395868401339 6.888481825015849 0.0
9.098933057562759 8.152197681006806 0.0
6.058682303253315 3.857501492181965 0.0
3.707092669281355 2.986685502034343 0.0
5.113272509841263 5.189455016444592 0.0
6.960565857079232 3.416349532571279 0.0
8.755151527375476 7.649255597361291 0.0
3.393680865444538 3.679982303262531 0.0
3.117424600120088 3.35605258976247 0.0
8.530814041264104 5.488376426140491 0.0
4.820719767306654 5.106646490188182 0.0
9.918899263509473 4.144927088739744 0.0
9.918194630017027 7.447268230913605 0.0
8.461970084137805 3.144844565847669 0.0
9.924415919486059 6.949999999995354 0.0
7.184050152099684 2.72771667662237 0.0
8.834356715215904 7.801565642745232 0.0
8.689015446783005 4.145232831954543 0.0
8.490778532265319 8.234414357968106 0.0
8.63666290918932 2.83060276219705 0.0
4.61028976098935 4.741894230894578 0.0
6.314735925012879 4.003132559161639 0.0
9.20786580425652 4.67001723737971 0.0
7.141401229301469 4.873205425098625 0.0
6.235177809922153 4.774126344778935 0.0
9.12491895896937 3.145675090615719 0.0
9.255747684068178 3.162525801823036 0.0
8.312852272796098 2.290855459722148 0.0
1.449266720542303 3.363629101350872 0.0
9.525687840398492 4.800807314407045 0.0
4.829905263804087 8.14474456977717 0.0
9.09338914689732 7.563794106183232 0.0
5.389401689694107 5.283808684471545 0.0
8.530979415204587 3.029374286908943 0.0
7.901489077080633 6.535344047486632 0.0
9.218572924671975 5.760893551533255 0.0
8.562382833959296 4.143913974026883 0.0
8.62959127904665 8.974877485888243 0.0
9.408442441596518 9.62276529745719 0.0
7.5034765601713 3.869833107932387 0.0
9.842813436634783 6.600620949014236 0.0
9.826116984327193 8.911617279149695 0.0
7.529907780698261 0.7369111006685982 0.0
7.832164962480427 2.905293639437395 0.0
8.39517908433056 3.267417602291069 0.0
9.823014010107707 9.085319632577246 0.0
9.022314123618541 3.944559746338292 0.0
4.243701230676532 5.332574856090426 0.0
9.816740542566388 1.127839952679595 0.0
8.166775715766304 5.693916696568397 0.0
8.865374421689054 8.068986769641638 0.0
8.761145809863661 6.470583506581853 0.0
8.998345275919851 9.209303502026401 0.0
9.698477487436316 6.706902829754045 0.0
6.439032098063426 0.3109134377713525 0.0
7.562681994382136 4.643158005207056 0.0
9.03999088074715 0.2799354672273258 0.0
5.180741540467516 3.805018725608906 0.0
6.243990330956698 2.718077286244967 0.0
9.79416634023361 0.1815240178579244 0.0
9.926540005061975 2.847049370876555 0.0
9.826476210374608 2.670192168078066 0.0
6.365816673179121 4.536333049275508 0.0
5.546353765219417 4.618331215552614 0.0
9.820703096450293 2.000649418331399 0.0
6.884388790679166 3.561583980715254 0.0
7.431303395649604 5.747824222777201 0.0
8.849816832721245 2.19318290395604 0.0
4.185147517585975 5.697469360586313 0.0
9.165905238119013 5.873664931582344 0.0
7.70479478158537 1.788324620089049 0.0
9.627376046933474 0.9196091445437269 0.0
6.657687963328663 5.144792385996769 0.0
9.83245016645186 0.3925568446109945 0.0
7.483092985762584 9.253837199159435 0.0
5.445348362202234 3.977855663863651 0.0
7.476680532833337 4.837183287808616 0.0
9.572749890969304 8.505160319814301 0.0
9.915853314998252 9.437014513917465 0.0
7.679469018350979 7.390484878021194 0.0
9.418139053434402 4.790576000488359 0.0
8.096967733471567 5.865447162201908 0.0
9.829153508938724 8.378494945652118 0.0
9.926595955569645 5.157718300415699 0.0
8.774484245600224 7.939747459426853 0.0
8.629764448155779 6.481031318922794 0.0
8.961169458302376 3.839036702328818 0.0
4.617199205561317 5.256318959792646 0.0
8.480815774219478 4.031210317621497 0.0
9.708341592512763 3.401018043990571 0.0
7.183974816647467 4.77882314543966 0.0
9.821437962294304 7.659391965474772 0.0
8.150320284869602 2.286501016204562 0.0
9.828114434347311 1.684891358832554 0.0
5.349187766238684 6.538177907133678 0.0
8.076053471314525 2.76180604769483 0.0
4.907713691134565 5.29818629967416 0.0
0.6874399366049438 4.328593906714074 0.0
0.6980011780697519 5.702671170050627 0.0
8.263861466707834 8.182284285231713 0.0
5.838783785156478 4.913981390426639 0.0
7.807619472656604 7.235706382002089 0.0
9.388504256318683 6.022122644748753 0.0
9.929839894767033 6.436189192303577 0.0
8.3205848711706 3.39107920408397 0.0
3.240770542267401 4.019899919523968 0.0
8.059047070496568 2.468855909103855 0.0
9.932479519490421 2.449625056415224 0.0
7.737639000139152 4.580708137963557 0.0
8.26141077223695 0.3940397126348397 0.0
9.69568953371801 1.959951226402445 0.0
6.469120930453264 4.892267070266994 0.0
9.167223997255698 0.8102256463122337 0.0
6.236889648241256 0.9291076084031108 0.0
8.306379082772498 5.268830342852036 0.0
6.716089118890225 5.239344620507032 0.0
9.82511981852641 9.282822358664017 0.0
6.68375719572285 4.404998642130821 0.0
8.913754712375674 6.908138360584365 0.0
6.173250048857013 5.251634416326969 0.0
4.235907497612446 1.924052997345291 0.0
5.151007663981651 2.438629730660893 0.0
8.924254300637541 9.3764975797567 0.0
4.438612423541503 5.287968640901957 0.0
8.571203234299599 1.897009944569934 0.0
6.878800676380218 5.821332862798138 0.0
5.710626178601224 4.792560699857408 0.0
7.149510071621283 5.216310009157644 0.0
2.099966541549645 2.334742113488256 0.0
9.93396330620579 5.350566393301629 0.0
7.143046479323961 8.646955109387985 0.0
7.965747313080266 5.193641450105844 0.0
6.3314394693073 5.135050228240639 0.0
7.665821333021348 6.222698255001823 0.0
6.305321657053551 4.659816230868476 0.0
7.833020917089713 5.208837056143474 0.0
9.41455902676429 2.869725681199307 0.0
8.567151507735133 6.598605357295113 0.0
7.405527786978573 4.377085529441429 0.0
6.552969697053132 5.137148974085434 0.0
9.93630620742063 8.042778076596578 0.0
7.166743296019233 4.593171678848165 0.0
6.595561806063966 5.839366735225723 0.0
6.066152182102007 5.262519562574559 0.0
9.834694151277489 0.9093455747994099 0.0
8.98259191950674 7.579732466796592 0.0
6.465071238839505 5.25485771955322 0.0
9.759759896588413 3.236659507608532 0.0
4.775529448101694 5.224235675150505 0.0
9.935991245222917 7.153416415978829 0.0
0.6530736820718381 9.352299998916202 0.0
0.6449439415299687 0.6468300344151556 0.0
7.804690364869245 4.495816547678174 0.0
9.84503784553893 5.70620404704573 0.0
9.83525329400959 3.826992990746767 0.0
9.922964894244684 4.265000406933376 0.0
8.333767638401964 1.121219971446645 0.0
8.876012546033895 7.019147158538482 0.0
8.172413577824324 3.413096916572049 0.0
7.232233017296214 4.478957103028363 0.0
6.214597295185415 3.852860083673202 0.0
9.85013791746415 4.400709747289421 0.0
3.941627380932058 6.342995010255737 0.0
3.097271569675528 8.77391871286929 0.0
9.292917152323044 6.010976049411984 0.0
8.104342196673183 5.184165973282902 0.0
8.994300084006271 3.652611812846807 0.0
9.937157897030163 5.549999999993244 0.0
8.721368888525245 7.274540720770752 0.0
8.920003648712827 0.9516585309368178 0.0
7.910527456030004 8.536826514867816 0.0
9.846441288756814 4.60515911863952 0.0
9.584942233925151 4.712073182517884 0.0
9.642357858573972 6.805672051759494 0.0
9.797024725252207 9.838837222258014 0.0
9.842451438022124 4.018973836958878 0.0
6.112723137676118 3.704473949316424 0.0
7.574641969193845 3.765362276156904 0.0
7.826594968121701 6.200366572362263 0.0
7.762805366733504 9.34009502796868 0.0
9.56854033867856 1.012566255816665 0.0
7.71256563655353 5.219373702836014 0.0
9.68039392238282 8.786964504862018 0.0
5.910362452777086 9.277662068919813 0.0
7.418090653922814 3.326443419100716 0.0
9.857704179097952 4.697553149694669 0.0
8.452469674653342 8.996585816905599 0.0
9.522351366699843 2.057525484575908 0.0
7.802315574700843 9.548878971475935 0.0
9.938875656926385 3.449999999992592 0.0
8.425189037911712 6.608575180629274 0.0
5.925965231566842 2.523669697740033 0.0
6.654918072256329 5.95749128982984 0.0
9.826748589235729 9.631118448471485 0.0
8.6684585637523 7.39633999085442 0.0
9.844673843931567 3.090088625379724 0.0
9.93613850661301 2.250382721159617 0.0
9.218291993658738 2.892108990205171 0.0
9.83502846611296 8.212781989607324 0.0
7.754136409732265 7.104288507262783 0.0
8.510570542791681 2.036933285735889 0.0
7.757745059307245 4.315798612475442 0.0
7.989231770559189 6.201656630465583 0.0
8.068934521422738 4.198631572122605 0.0
4.957478134450373 9.038766150325067 0.0
7.208661142641733 6.501402463831379 0.0
7.299506095906239 4.363561999234681 0.0
8.250303873550486 2.105322217421675 0.0
8.678637541413377 7.053471135702286 0.0
9.761528395137384 6.163503990672834 0.0
9.84494857233395 8.59999999999775 0.0
9.83825138794677 3.672838954969637 0.0
5.121008544047756 5.808127183024784 0.0
8.343911550360986 4.043535893276861 0.0
9.85324441775315 5.899999999993774 0.0
9.51114465213134 8.41035540646284 0.0
6.505812179224195 6.93390566262983 0.0
6.15572847138365 9.023097246950844 0.0
3.352081892333425 3.024853379890529 0.0
6.433163283162099 8.675072413910678 0.0
8.825744236698243 3.624446391299867 0.0
4.883007294861279 7.819620905924936 0.0
5.876659170760434 5.638247433601083 0.0
6.859400040348503 6.510797998354633 0.0
7.946400945409184 3.500317276373196 0.0
7.496830255505493 6.653194511698024 0.0
9.852183479755313 4.891525833556942 0.0
9.77998778436291 2.922486526124376 0.0
6.774672660492365 5.324728659740495 0.0
5.717254072187427 6.824125962512845 0.0
9.713440940838062 4.63793103997539 0.0
8.859858662536796 0.2721395536350836 0.0
8.37556017530946 9.436653414116012 0.0
7.395237381047616 7.885576562773319 0.0
5.4709157802033 4.511152089197594 0.0
9.489749416979361 9.691840729914848 0.0
4.599216022837964 3.46438688931078 0.0
5.572287492757569 4.807021644849729 0.0
9.926499336309957 9.92730688390086 0.0
9.926499336310107 0.07269311609890093 0.0
9.338127766332573 0.3585313952168247 0.0
6.810761948165162 3.414693294319008 0.0
8.166274345037138 5.943611545564389 0.0
5.2892644736731 6.301081312912763 0.0
9.731911074791544 7.649313380659622 0.0
8.90251102352767 9.50983415326544 0.0
8.997881406541017 1.033666784655452 0.0
5.835124768755703 2.738139962594905 0.0
9.665357480775825 6.185331297099201 0.0
7.656532192558493 8.217157287499347 0.0
9.170463887605525 2.975444721032631 0.0
4.208158615905443 0.8648302238584886 0.0
6.97015686031129 5.933674629077266 0.0
6.181941366523793 3.565885175921835 0.0
3.30313590337911 6.393402837735046 0.0
6.447482061767014 4.816169316820496 0.0
8.185341428749446 4.169172087371246 0.0
4.552595724340015 8.298301336212145 0.0
9.84850676569699 8.999999999998423 0.0
9.846941514449377 7.393642828194986 0.0
7.924592433490734 2.788309934035703 0.0
8.154308714226714 8.853640122009672 0.0
8.876629743004642 1.96110242719995 0.0
7.228849192966834 8.90811350348676 0.0
9.852301635085423 8.296637825215246 0.0
5.219795195341889 5.547413133147649 0.0
9.861497117995457 6.901363010201344 0.0
2.953911258021604 6.136007283255669 0.0
6.93158841067062 4.77708273647784 0.0
9.67540418457871 2.912802891506324 0.0
4.194055958522277 4.437353127730132 0.0
6.133959559341536 0.406856611599261 0.0
8.29952795189331 9.309744645643846 0.0
9.843692337952948 1.209647690818311 0.0
5.164986286280336 6.671544079402435 0.0
9.838533350075606 2.081705440779448 0.0
8.301244777513975 6.604088853319459 0.0
5.471494771710784 2.714598185146428 0.0
8.86534684892311 1.208599471795828 0.0
9.940610684232212 1.451558535868664 0.0
9.40896208432968 1.428353940655538 0.0
2.329177605337097 4.238803555614174 0.0
5.980761651517799 7.182207186682233 0.0
9.66541573964336 0.1719254072074424 0.0
7.220979380229172 7.806128737674462 0.0
1.251721227904697 6.151932667911503 0.0
8.104967286191181 6.057912607875576 0.0
6.650768762224724 4.817922869198292 0.0
6.634976350437587 3.213339182992986 0.0
7.034320437500567 4.898219100342838 0.0
9.502772020064167 6.283064492634301 0.0
8.13187938667684 3.518506862055515 0.0
9.855471943454193 2.599999999994991 0.0
9.056747742708522 8.263936599935574 0.0
4.352645795441222 5.724453640019 0.0
3.744263984699181 1.488951698361357 0.0
5.175860134287045 3.6375726667098 0.0
7.736434712114619 6.400417475661193 0.0
9.857658576695343 6.316607183405179 0.0
7.876525261950537 4.304285002335559 0.0
9.856114384785611 7.914602773442983 0.0
9.848334119947063 0.7059644476295188 0.0
9.59694321995579 6.895814046141667 0.0
5.906465212962551 3.869023950643881 0.0
9.840676994268005 9.364956386459765 0.0
5.355015287544095 3.83518170601625 0.0
6.374090407153147 5.855743754257685 0.0
8.227401290513832 5.297819733684674 0.0
5.451235131977493 4.825706629991923 0.0
6.022070213762754 5.355923882747634 0.0
9.845674433677614 6.108401449483281 0.0
9.835067400944396 7.739582406783081 0.0
8.602026805792988 2.941372356914139 0.0
5.059869081004962 5.269480960018243 0.0
5.284714507903736 5.26496663762182 0.0
9.627110479149561 7.660076105040499 0.0
6.820001127809743 4.792514421153957 0.0
5.120512795059439 4.806607659110254 0.0
9.56933817216883 2.911464407429096 0.0
9.74091654291531 9.267545397628387 0.0
9.93006767325302 6.576784040838644 0.0
9.642486276936268 4.650227701598451 0.0
5.185183328569137 9.410919109238325 0.0
9.37052946854105 4.605636695802024 0.0
1.677077220416309 5.871167715901136 0.0
7.345783833404538 3.184020711886284 0.0
5.419239942654976 5.982692039856376 0.0
6.133318300188262 2.551919945731369 0.0
6.187291396343277 4.499077117404439 0.0
1.231465237822878 3.921479198315213 0.0
8.969849937139944 9.699215363213542 0.0
9.218303154263054 6.037447959776716 0.0
CELLS 4886 19544
3 1113 1356 1450
3 1402 231 1659
3 272 269 1414
3 396 394 1777
3 1451 945 1452
3 194 81 1801
3 1847 1501 2104
3 2024 2121 2479
3 1115 1113 1450
3 1124 1413 1844
3 1061 1955 2409
3 307 305 1645
3 1592 1369 1593
3 238 1501 1847
3 1955 1883 2409
3 1808 243 1910
3 1885 978 2362
3 1440 793 2092
3 189 1488 1608
3 353 350 1864
3 2007 2231 2232
3 307 1645 2493
3 1096 1760 2496
3 2178 874 2179
3 621 625 1595
3 1493 1480 1938
3 1655 1268 2137
3 1341 1410 2212
3 243 1808 2360
3 1902 1446 2516
3 1760 1096 1763
3 856 790 2180
3 2008 2046 2105
3 789 1809 2067
3 694 1543 1575
3 1127 1762 1953
3 1748 807 2228
3 1543 1308 1575
3 820 1872 2170
3 1417 954 1998
3 1369 1592 2386
3 272 1414 1787
3 329 333 1998
3 1544 1095 1545
3 2231 1490 2232
3 1342 1683 1790
3 374 377 1797
3 807 1678 2228
3 1665 198 2128
3 141 142 1620
3 325 322 1952
3 231 1402 1654
3 198 1665 2010
3 1890 1307 2387
3 208 1438 1619
3 2016 1970 2156
3 1436 212 2020
3 954 1417 2333
3 1736 1894 2244
3 1491 1750 2143
3 1677 1064 2146
3 1474 1258 1475
3 1500 233 1930
3 1446 2415 2516
3 1700 973 1800
3 2128 2270 2316
3 1316 1315 1593
3 1307 2341 2387
3 2258 1324 2328
3 1083 1507 1508
3 693 1095 1544
3 621 1595 1596
3 667 1571 1872
3 1932 1766 2061
3 393 391 2240
3 1342 1790 2400
3 252 1707 2234
3 931 978 1885
3 1430 1116 1704
3 1411 1109 1714
3 1478 1227 2440
3 1990 195 2297
3 1792 1167 1985
3 1682 444 1975
3 394 397 1777
3 1711 2028 2162
3 1574 856 2180
3 2008 1851 2046
3 736 1493 1938
3 1069 1060 1662
3 1458 455 1754
3 862 691 1705
3 1161 1642 2286
3 1699 1700 1800
3 447 516 1637
3 955 1482 1483
3 2024 206 2121
3 391 1773 2240
3 1072 1412 1893
3 212 1436 2350
3 1566 1365 1568
3 259 1441 1672
3 872 870 1764
3 330 328 1889
3 1539 1161 2286
3 1897 1898 2275
3 1434 1990 2297
3 1109 1411 1730
3 319 307 2493
3 1762 1761 1953
3 1369 1316 1593
3 1540 834 1832
3 1505 652 2442
3 1732 1655 2137
3 921 1712 2295
3 1872 1388 2170
3 1712 921 2125
3 2028 244 2162
3 1506 1570 1680
3 1569 368 1964
3 1571 667 2375
3 1587 2178 2179
3 196 1723 1737
3 524 2016 2156
3 1528 1250 1733
3 1115 1450 1973
3 1938 1480 1971
3 1809 1396 2067
3 1641 249 2299
3 1223 1258 1474
3 1365 1566 2120
3 1981 962 2316
3 1538 353 1864
3 455 1458 1756
3 152 233 1500
3 1116 1430 1703
3 817 652 1505
3 1347 2003 2004
3 1607 1958 2085
3 194 1801 2195
3 1410 1341 2351
3 223 1415 1710
3 197 1511 2346
3 2198 787 2225
3 81 82 1801
3 1438 208 1620
3 1444 522 1823
3 1511 197 1950
3 726 718 1567
3 1637 516 1739
3 1708 2337 2341
3 1280 1649 2124
3 2337 1395 2341
3 1327 1709 2315
3 1225 1227 1478
3 691 624 1705
3 476 2224 2305
3 830 832 2204
3 1750 1491 2403
3 1366 1897 2275
3 2345 1583 2352
3 2054 405 2110
3 1984 2172 2230
3 1846 2198 2225
3 1177 2042 2418
3 2121 1367 2479
3 1527 1531 1541
3 916 1039 1834
3 1413 1124 2467
3 1622 1503 1868
3 249 1641 2019
3 1805 405 2054
3 1761 1007 1953
3 1415 223 2395
3 960 1756 2203
3 368 1569 2135
3 1402 1659 2473
3 941 1433 2471
3 1267 1477 1501
3 260 2002 2265
3 1704 558 2077
3 2224 1886 2305
3 2053 1386 2199
3 1452 945 1952
3 1717 1611 1718
3 1682 1975 2230
3 1760 1762 2496
3 1481 203 2104
3 1264 1266 1670
3 142 236 1620
3 2133 1182 2179
3 1791 1602 2183
3 350 346 1864
3 1412 1072 2393
3 1281 1575 2255
3 1565 1948 2155
3 849 1449 1513
3 1958 396 2085
3 1339 1069 1662
3 834 1540 1917
3 269 267 1414
3 1268 1267 1501
3 1440 2092 2468
3 1399 1981 2316
3 1635 1636 2041
3 1454 252 2234
3 1451 1305 1890
3 1375 1883 1955
3 362 366 1786
3 1484 2410 2528
3 1449 849 1640
3 1267 1474 1477
3 200 1611 1717
3 1054 1581 1582
3 1350 1977 2253
3 190 1390 2118
3 788 1956 2193
3 1709 1327 1888
3 2233 2298 2413
3 1488 189 2355
3 478 1685 1714
3 230 1525 1690
3 1687 478 1688
3 427 429 1756
3 1570 1065 2476
3 1880 1133 1988
3 1649 656 2124
3 1537 209 1614
3 1134 1769 1986
3 1220 1268 1655
3 396 1777 2085
3 1167 1755 1985
3 2229 1744 2296
3 1575 1281 2287
3 127 240 1882
3 377 647 1797
3 954 329 1998
3 220 1697 1698
3 1342 1341 2212
3 1441 264 1672
3 1512 188 2433
3 763 2345 2352
3 1685 1411 1714
3 1805 1188 1951
3 1347 2004 2157
3 1054 1582 1667
3 1333 1617 1674
3 2217 73 2361
3 1539 1036 1917
3 1039 1292 1834
3 208 141 1620
3 1965 1964 2038
3 693 1544 1969
3 1453 239 2279
3 203 1481 2049
3 945 1451 1889
3 680 1459 2134
3 354 2147 2196
3 1405 1932 2061
3 1723 1722 1737
3 1748 1175 1927
3 1532 1528 1733
3 2057 1824 2154
3 1406 1659 1702
3 1948 1186 2155
3 210 1598 2114
3 1685 478 1687
3 1324 1325 2328
3 1526 1250 1527
3 165 166 1509
3 1493 736 2523
3 1526 1527 1541
3 1390 190 2417
3 522 1444 1998
3 1680 1570 1732
3 1017 1442 2525
3 374 1797 2430
3 1507 1083 2197
3 1756 960 2221
3 2270 1400 2316
3 2205 1452 2282
3 1074 1187 1888
3 2158 1245 2200
3 1442 1017 1684
3 864 1116 1703
3 1750 1751 2143
3 1456 516 1492
3 1677 2146 2149
3 2022 1339 2388
3 1602 258 2183
3 678 1594 1595
3 1245 1670 2200
3 972 830 2204
3 2143 983 2342
3 1268 1501 2226
3 1266 1461 1670
3 1487 222 2465
3 1382 2022 2388
3 58 59 1661
3 2147 1543 2196
3 1484 1485 2410
3 628 2053 2199
3 1906 1549 2259
3 364 362 1786
3 1339 2022 2247
3 1636 525 2041
3 625 678 1595
3 678 1593 1594
3 2212 1410 2222
3 1837 1865 2215
3 1699 1800 1801
3 866 864 1703
3 893 1472 1982
3 1735 1736 2244
3 1633 1255 1922
3 126 127 1882
3 681 867 1656
3 1351 1401 2363
3 11 228 1588
3 1127 1953 2454
3 265 266 267
3 1722 1122 1737
3 1389 1691 2069
3 1613 1610 1616
3 1227 1256 2440
3 429 455 1756
3 1535 1177 2418
3 322 324 1952
3 973 1700 1802
3 1964 368 2038
3 1176 1865 1866
3 1096 872 1764
3 1176 1866 1875
3 193 1839 1892
3 156 157 1441
3 615 617 1596
3 686 1520 2480
3 1409 2097 2305
3 2410 1151 2528
3 1427 2217 2361
3 440 1911 2314
3 1744 1743 2296
3 516 1456 1739
3 1939 589 2164
3 690 931 2150
3 1062 1579 1580
3 1054 1580 1581
3 955 1483 1716
3 1064 1677 2248
3 1956 1616 2193
3 1776 1893 2026
3 1398 1115 1973
3 2002 1453 2265
3 1541 1531 1542
3 216 2191 2536
3 1736 1326 1894
3 1065 994 1066
3 1598 2115 2175
3 2314 1911 2358
3 1433 941 2042
3 2115 1209 2175
3 717 1550 1551
3 188 1941 2433
3 267 1132 1414
3 771 1569 2064
3 1157 1545 1546
3 1231 1250 1526
3 1933 240 2181
3 222 1487 2025
3 1525 230 1765
3 1430 1704 2077
3 757 1744 2495
3 264 263 265
3 883 773 1917
3 739 2205 2282
3 1667 1582 2434
3 1744 757 2474
3 239 1453 2002
3 1441 259 2356
3 2005 1443 2012
3 254 1766 1932
3 1509 166 1679
3 1477 1475 1481
3 793 1440 2165
3 1385 1523 2377
3 1481 1475 2523
3 156 1441 2356
3 1066 1220 1655
3 945 325 1952
3 2094 2087 2134
3 1747 1175 1748
3 253 262 263
3 1327 1074 1888
3 718 715 1567
3 2046 1043 2105
3 240 1933 2399
3 1305 1307 1890
3 224 58 1661
3 1195 1566 2285
3 1590 1393 1749
3 1255 1230 1922
3 353 1538 2073
3 358 1999 2325
3 882 1802 2036
3 1024 1020 1604
3 333 522 1998
3 1401 1351 2414
3 1475 1258 1476
3 2310 786 2364
3 328 945 1889
3 807 1748 1927
3 825 724 1912
3 1742 263 2491
3 267 266 1132
3 2077 2102 2203
3 1431 1432 1860
3 1212 1957 2312
3 2097 476 2305
3 1132 1402 2473
3 717 713 1550
3 1746 693 1969
3 1372 1124 1844
3 1256 1541 2269
3 1977 1350 2274
3 2332 1978 2443
3 874 2133 2179
3 1983 1534 2171
3 1157 1544 1545
3 1230 1228 1922
3 1580 1579 1581
3 1565 806 1948
3 1416 1363 2413
3 1287 1995 2398
3 265 263 266
3 1534 1529 2171
3 1604 1834 2428
3 1255 1633 2509
3 1344 1643 1644
3 1332 1388 1571
3 1423 217 2217
3 2191 1057 2451
3 458 447 1637
3 1250 1233 1733
3 472 2212 2222
3 1175 1747 1840
3 1652 256 1653
3 1073 1347 1572
3 200 145 1609
3 683 640 1585
3 1116 862 1705
3 1221 1223 1474
3 1778 801 1803
3 1503 1622 2471
3 1475 1493 2523
3 464 680 2134
3 14 210 2114
3 579 1880 1988
3 1434 1435 1990
3 1447 2310 2364
3 275 274 276
3 2294 1871 2419
3 814 1068 1684
3 1172 1439 2273
3 273 272 274
3 1363 1416 2406
3 1220 1219 1221
3 1060 1656 1662
3 1099 1792 1985
3 2048 1198 2168
3 1241 1245 2323
3 699 723 1753
3 1640 1862 2070
3 910 1018 1584
3 1586 1067 1587
3 1656 867 1662
3 1067 686 2480
3 654 2242 2294
3 1593 1315 1594
3 1880 553 1974
3 236 1717 1718
3 617 621 1596
3 1723 196 2313
3 402 1877 2116
3 273 274 275
3 2202 1869 2252
3 1510 1358 1767
3 193 1892 2373
3 1188 1805 2054
3 1220 1221 1267
3 1066 1218 1219
3 1517 1097 1518
3 1677 1676 1858
3 686 277 1520
3 268 267 269
3 697 857 1592
3 220 1698 1699
3 1802 1700 2036
3 1612 1537 1614
3 929 817 994
3 228 12 2136
3 2110 2116 2482
3 1659 1658 1702
3 1611 1613 2280
3 1344 991 1643
3 683 1585 1604
3 1638 1358 2404
3 1485 1034 2410
3 2214 833 2424
3 271 272 273
3 1482 955 1962
3 1066 1219 1220
3 931 1885 2150
3 1613 1891 2280
3 1189 1589 2204
3 1566 1195 2120
3 726 1567 2490
3 1122 1722 1874
3 1494 319 2493
3 1671 259 1672
3 1267 1221 1474
3 603 528 1591
3 1664 2128 2316
3 1817 1924 2174
3 1626 1660 2111
3 1474 1475 1477
3 1023 1062 1580
3 1957 1599 2312
3 1764 1939 2164
3 1358 1950 2404
3 200 1609 1610
3 1431 1082 1432
3 1778 1803 2521
3 1830 1832 2075
3 1930 233 2369
3 1329 1482 1650
3 757 1959 2522
3 1239 1247 1597
3 758 1978 2332
3 1569 1290 2064
3 216 1694 2191
3 1453 1420 2265
3 1549 1906 2129
3 24 215 1674
3 19 235 1676
3 1621 1057 2191
3 1691 1389 2262
3 1617 1333 2192
3 929 994 1065
3 1769 1672 1986
3 1893 1412 2026
3 1609 1537 1612
3 271 269 272
3 1373 1438 1620
3 217 1423 2381
3 517 330 1889
3 1322 1055 1667
3 1974 553 2499
3 228 2136 2187
3 1589 1189 1788
3 1999 1577 2325
3 2110 405 2116
3 189 1608 1842
3 1055 1050 1667
3 739 1455 2205
3 1865 1176 2215
3 319 1494 2522
3 2474 757 2522
3 1484 227 1485
3 10 11 1588
3 723 809 1753
3 27 230 1689
3 1550 806 1565
3 1179 1180 1217
3 207 1617 2192
3 1433 1217 1502
3 1562 1556 1606
3 1379 2017 2018
3 1245 2158 2323
3 675 1097 1517
3 884 501 1599
3 1020 683 1604
3 1603 1095 1848
3 1001 2057 2154
3 1604 1585 1834
3 1610 1612 1616
3 1764 870 1939
3 2242 1871 2294
3 1669 1264 1670
3 1658 213 1702
3 1995 1646 2398
3 631 539 1600
3 1491 2143 2342
3 1801 1800 2195
3 1200 1199 1693
3 1535 940 1861
3 1534 758 2332
3 914 2258 2328
3 1588 228 2457
3 216 138 1694
3 151 152 1500
3 1133 1880 1974
3 1677 1858 2248
3 1294 1622 1868
3 875 1010 1767
3 1379 2018 2416
3 1279 2202 2252
3 182 256 1652
3 1592 857 2386
3 672 681 1656
3 615 1596 1824
3 1093 1487 1623
3 1823 522 2100
3 1245 1242 1669
3 1582 1581 1583
3 758 1534 2306
3 1975 1984 2230
3 1358 1510 1950
3 1663 1336 1665
3 2102 960 2203
3 366 1087 1786
3 1740 1490 2231
3 21 207 1709
3 145 146 1609
3 2339 765 2384
3 603 1591 1668
3 2081 199 2149
3 1540 1832 1879
3 1721 1723 1947
3 1754 455 1793
3 1751 1753 2119
3 882 1701 1807
3 1540 1539 1917
3 242 1695 1697
3 1521 354 2091
3 1363 2233 2413
3 1584 1018 1925
3 703 1067 1586
3 1177 1178 1179
3 795 916 1834
3 277 276 607
3 1571 1388 1872
3 22 23 1617
3 1097 823 1177
3 25 26 1624
3 419 418 1790
3 1728 1906 2259
3 440 1455 2261
3 1877 1318 2116
3 1488 1156 1608
3 1439 2130 2273
3 1889 1451 1890
3 1614 209 2389
3 1472 893 2094
3 675 821 823
3 23 24 1674
3 1788 1190 2183
3 917 941 1622
3 1763 1096 1764
3 1068 1442 1684
3 1034 1485 2173
3 2172 1533 2230
3 138 139 1694
3 1065 1570 2197
3 607 674 675
3 1536 1248 2268
3 229 135 1734
3 1437 1925 1926
3 680 510 1646
3 147 209 1537
3 26 27 1689
3 1627 705 2163
3 206 1651 2121
3 2409 1785 2462
3 1492 682 2447
3 1223 1225 1258
3 889 1772 2374
3 253 263 264
3 275 276 277
3 1455 739 2261
3 2022 1382 2176
3 150 227 1484
3 639 1019 1591
3 1449 1640 2070
3 1082 833 2214
3 1503 1502 1504
3 144 200 1717
3 1643 991 1713
3 1190 1791 2183
3 1538 1804 2073
3 1256 2269 2440
3 18 19 1676
3 521 531 2000
3 790 849 2180
3 1075 1329 1650
3 1087 1782 1785
3 1066 994 1218
3 270 269 271
3 682 1492 2494
3 185 252 1454
3 253 158 262
3 1629 1632 1633
3 200 1610 1611
3 1477 1481 2104
3 1623 1487 2465
3 1518 1097 1535
3 1414 1132 2460
3 1179 1217 1433
3 177 1506 1680
3 1392 1017 2525
3 1832 834 2075
3 675 823 1097
3 1459 2094 2134
3 1782 1087 1795
3 1838 1730 2372
3 1639 149 2528
3 1617 23 1674
3 2265 1420 2489
3 180 232 1859
3 1527 1250 1528
3 20 21 1709
3 1083 1508 2311
3 903 866 1703
3 1455 440 2314
3 1187 1858 1888
3 1659 1406 2473
3 1446 1902 2166
3 421 1951 2106
3 1598 210 2115
3 154 259 1671
3 1288 1835 2080
3 1832 1831 1879
3 1258 1225 1478
3 1024 1604 2117
3 1263 1429 1739
3 706 705 1627
3 1583 1581 2352
3 407 1805 1951
3 856 1574 2527
3 1701 882 2036
3 1624 26 1689
3 717 1551 1552
3 1385 2377 2391
3 2302 1745 2354
3 1572 1347 2157
3 1036 883 1917
3 1689 1690 1691
3 1664 1665 2128
3 1476 1479 1480
3 1751 2119 2143
3 815 814 1684
3 1790 889 2400
3 1606 1607 2085
3 265 267 268
3 418 889 1790
3 1522 1521 2091
3 135 136 1734
3 1726 1445 1729
3 647 1796 1797
3 1346 1453 2279
3 1293 1827 2117
3 1242 1244 1669
3 1853 1852 1854
3 889 2374 2400
3 1039 1038 1290
3 1524 628 2199
3 1331 1332 1571
3 1291 1290 1569
3 1475 1476 1493
3 1850 1852 1853
3 1490 1740 2456
3 1689 230 1690
3 1256 1526 1541
3 1704 1705 2167
3 1465 1470 1675
3 956 1073 1572
3 1613 1616 1956
3 916 917 1038
3 2014 1522 2091
3 1221 1222 1223
3 1999 763 2352
3 234 10 1588
3 1697 220 2335
3 1527 1528 1529
3 2298 1600 2413
3 1436 2020 2254
3 1642 1161 1678
3 1523 1385 2436
3 1730 1838 2426
3 795 796 916
3 713 711 1550
3 1456 1263 1739
3 999 1336 1663
3 1785 1784 2462
3 409 415 1783
3 607 675 1517
3 1229 1231 1526
3 1958 1855 2078
3 1589 1588 1590
3 1933 261 2380
3 762 1965 2038
3 1756 1458 2203
3 1776 597 1893
3 1794 1072 1893
3 188 1512 2266
3 1774 2339 2384
3 188 1908 1941
3 1010 1510 1767
3 2189 2285 2307
3 773 834 1917
3 1245 1669 1670
3 1248 1597 2268
3 146 1537 1609
3 818 910 1584
3 1641 1313 1651
3 1217 1745 2302
3 1065 1066 1655
3 1597 1247 2047
3 1360 2177 2376
3 1612 1615 1616
3 2126 867 2186
3 1019 683 1020
3 1747 892 1840
3 1092 1093 1623
3 261 1933 2181
3 400 424 1666
3 1516 1903 2377
3 1100 1392 1605
3 247 1738 1881
3 268 1134 1986
3 1177 823 1178
3 884 1599 1957
3 263 262 2491
3 806 1627 1948
3 1227 1229 1256
3 191 1729 2504
3 1636 1635 2502
3 1480 1479 1601
3 1721 1947 2498
3 1924 1146 2174
3 229 1734 1735
3 175 204 1725
3 1179 1178 1180
3 354 1521 2147
3 665 697 1592
3 640 646 1585
3 627 545 1636
3 1882 240 2399
3 1556 1555 1606
3 1373 1620 2394
3 1871 1071 2419
3 548 1628 1629
3 455 436 1793
3 974 1831 1841
3 1844 1413 2392
3 1612 1614 1615
3 209 1639 1937
3 1329 1330 1331
3 1823 2100 2142
3 1097 1177 1535
3 1021 1020 1022
3 825 1912 2455
3 913 1122 1874
3 400 1666 2113
3 1256 1229 1526
3 1419 1418 2450
3 1552 1551 1553
3 1850 1099 1852
3 1629 1631 1632
3 801 685 2029
3 1618 1619 1621
3 265 268 1986
3 1715 2165 2330
3 1531 1529 1534
3 1022 1024 1576
3 658 693 1746
3 703 686 1067
3 1062 1576 1577
3 1023 1022 1062
3 236 1718 2394
3 1688 502 1740
3 1501 1477 2104
3 213 165 1509
3 646 795 1585
3 196 1737 1738
3 379 679 1795
3 639 640 683
3 924 875 1767
3 1752 699 1753
3 207 2192 2315
3 627 1636 1660
3 1217 1180 1745
3 730 728 1833
3 528 561 1591
3 1444 1417 1998
3 252 186 1602
3 1729 1445 2504
3 460 502 1688
3 1418 946 1778
3 1203 1200 1693
3 548 470 1628
3 849 668 1640
3 646 785 795
3 607 276 674
3 14 15 210
3 147 148 209
3 478 460 1688
3 1709 207 2315
3 1157 1546 1608
3 1155 1731 1899
3 1524 1934 2390
3 1775 921 1876
3 1433 1502 1503
3 470 458 1628
3 1223 1224 1225
3 1291 1569 1964
3 871 1056 1826
3 1781 1783 1915
3 1587 1067 2300
3 916 1038 1039
3 1388 1387 1389
3 1611 1610 1613
3 1075 1328 1329
3 1039 1290 1291
3 1538 1265 1804
3 1184 1185 2163
3 597 598 1794
3 1450 1356 2421
3 1835 576 2080
3 1629 1628 1631
3 1331 1330 1332
3 561 639 1591
3 1476 1480 1493
3 705 703 1586
3 639 683 1019
3 1951 1188 2106
3 436 446 1793
3 1472 1297 2142
3 1332 1387 1388
3 1345 984 1720
3 1329 1328 1330
3 1050 1048 1667
3 150 151 227
3 11 12 228
3 557 541 2256
3 1831 974 1879
3 134 229 1766
3 1357 1358 1638
3 1336 1641 2299
3 1650 1482 1962
3 1591 1019 2512
3 1506 1507 1570
3 1803 801 2029
3 1178 823 1972
3 1552 1553 1554
3 1290 1038 1294
3 1028 1313 1641
3 1237 1239 1597
3 993 1017 1100
3 893 2087 2094
3 149 1484 2528
3 1768 1142 1949
3 9 234 1673
3 1554 1553 1555
3 668 632 1640
3 711 806 1550
3 1628 458 1637
3 1098 1829 1830
3 1482 1331 1483
3 531 1818 2000
3 435 419 1790
3 1156 1157 1608
3 1182 1184 2179
3 510 512 1646
3 1231 1233 1250
3 946 841 1778
3 1483 1331 1571
3 1459 680 2458
3 1166 1040 1210
3 892 1657 1820
3 1042 1445 1726
3 1019 1020 1021
3 749 805 1810
3 234 1588 1589
3 1695 242 1892
3 556 1853 2483
3 1018 1572 1573
3 1529 1528 1530
3 1606 1558 1607
3 1761 1759 2308
3 1396 1032 1921
3 1018 956 1572
3 689 1150 1416
3 1827 1293 2515
3 149 150 1484
3 1647 656 1648
3 1543 694 2196
3 399 409 1783
3 545 525 1636
3 268 269 270
3 715 713 717
3 1100 1017 1392
3 1657 892 1747
3 207 22 1617
3 1666 884 2249
3 1671 1672 1769
3 1554 1555 1556
3 146 147 1537
3 1081 1444 1822
3 711 709 806
3 1443 2005 2322
3 660 658 1746
3 1166 1458 1754
3 916 796 917
3 1056 1728 1826
3 1068 1069 1275
3 184 185 1454
3 158 159 262
3 2007 1687 2231
3 805 1708 1810
3 1672 264 1986
3 1561 1562 1563
3 978 1075 1650
3 1590 1588 2457
3 215 25 1624
3 1551 1550 1565
3 1073 1346 1347
3 857 818 1584
3 1648 656 1649
3 675 674 821
3 561 594 639
3 1731 529 1899
3 2303 1454 2535
3 981 903 1040
3 1630 1629 1633
3 993 877 1017
3 724 718 726
3 512 603 1646
3 1676 235 1858
3 814 1060 1068
3 715 717 1567
3 1796 647 1870
3 1715 1171 2165
3 678 1592 1593
3 644 613 1824
3 1690 1525 2145
3 1297 1822 1823
3 271 656 1647
3 1704 1116 1705
3 1225 1226 1227
3 1275 1069 1338
3 910 956 1018
3 1824 1596 2154
3 1403 1100 1605
3 1221 1219 1222
3 1068 1060 1069
3 1901 245 1949
3 1081 1055 1321
3 1751 563 1752
3 1021 1022 1023
3 672 638 681
3 1095 657 1848
3 1235 1237 1248
3 1561 1556 1562
3 1265 1259 1804
3 524 1819 2016
3 978 1650 2362
3 1492 516 2494
3 229 1735 2061
3 185 186 252
3 157 158 253
3 152 153 233
3 9 10 234
3 1527 1529 1531
3 1808 1344 2360
3 1062 1577 1579
3 1509 1679 1977
3 424 454 1666
3 637 638 672
3 981 1040 1166
3 1555 1558 1606
3 751 749 1810
3 1166 1210 1458
3 1651 1313 2121
3 15 16 2260
3 1633 1632 2509
3 2167 1705 2276
3 551 602 2045
3 697 818 857
3 364 1786 1883
3 832 1189 2204
3 1476 1478 1479
3 678 665 1592
3 213 1509 2096
3 1015 888 1124
3 1062 1022 1576
3 679 1782 1795
3 680 1646 1995
3 1101 1100 1403
3 1109 433 1714
3 1248 1237 1597
3 733 730 1833
3 1702 213 2096
3 499 498 1828
3 1418 1778 2521
3 637 600 638
3 1048 1046 1054
3 1577 1576 1578
3 814 766 1060
3 1279 2252 2292
3 474 470 548
3 199 18 1676
3 157 253 1441
3 1048 1054 1667
3 471 472 2290
3 625 665 678
3 795 785 796
3 1264 1265 1266
3 1437 1926 2350
3 1362 2048 2168
3 1394 2337 2371
3 454 884 1666
3 1022 1020 1024
3 751 1810 1923
3 1046 1023 1580
3 1807 1701 1931
3 1618 208 1619
3 566 588 689
3 1828 498 1829
3 501 509 1599
3 1118 780 1775
3 878 817 929
3 1510 1511 1950
3 1618 1621 1694
3 1052 1081 1822
3 1416 1150 1715
3 1239 1241 1247
3 1396 1921 2067
3 1751 1752 1753
3 1264 1259 1265
3 539 566 1600
3 1762 1127 2496
3 1673 1788 2183
3 1555 1557 1558
3 1052 1050 1055
3 725 724 825
3 1142 1770 1771
3 681 853 867
3 454 501 884
3 1346 1420 1453
3 932 1147 1770
3 1546 1545 1547
3 533 582 1818
3 1266 1337 1460
3 1872 820 2318
3 1117 1119 1713
3 1081 1321 1417
3 1253 1259 1264
3 1569 771 2135
3 1052 1055 1081
3 1181 1178 1972
3 709 706 1627
3 1073 1076 1346
3 1098 1828 1829
3 1382 1380 2176
3 1442 1275 1443
3 919 999 1663
3 1789 828 1855
3 877 815 1684
3 509 539 631
3 992 877 993
3 1266 1265 1337
3 2268 1498 2340
3 1130 1032 1396
3 1095 1603 2508
3 886 826 887
3 531 533 1818
3 1131 1400 1881
3 447 437 516
3 2460 1132 2473
3 940 1535 2418
3 768 1873 2037
3 1813 1869 1954
3 1627 2163 2488
3 1497 1495 1645
3 1198 1409 2168
3 724 726 1912
3 1869 987 1954
3 763 1999 2338
3 1010 1170 1374
3 984 976 1720
3 1470 1743 1744
3 689 588 1150
3 1901 1949 2359
3 1640 632 1862
3 274 272 1787
3 563 564 1752
3 994 817 1505
3 737 1807 1931
3 1770 1147 1771
3 1233 1235 1733
3 2450 1418 2521
3 414 410 1821
3 908 1099 1850
3 1227 1228 1229
3 1692 1203 1693
3 1625 216 2194
3 512 528 603
3 1377 1357 1638
3 1465 1464 1470
3 1360 1359 2177
3 1686 2007 2095
3 1336 1028 1641
3 1857 751 1923
3 1758 572 1759
3 553 541 557
3 1171 1715 1811
3 956 1003 1073
3 1467 1465 1675
3 719 718 724
3 1509 1977 2096
3 1734 1625 1736
3 1503 1504 1868
3 592 597 1776
3 180 181 232
3 162 163 231
3 2308 1759 2370
3 1357 1114 1358
3 875 946 1010
3 509 631 1599
3 17 18 199
3 144 145 200
3 1099 906 1792
3 1469 1467 1494
3 605 589 1939
3 1208 1205 1211
3 354 344 2091
3 692 782 804
3 1010 946 1170
3 1463 1462 1464
3 716 715 718
3 714 713 715
3 271 273 656
3 139 1618 1694
3 549 277 686
3 673 672 766
3 1378 1377 1379
3 2007 868 2095
3 999 1028 1336
3 1208 1211 1447
3 601 545 627
3 1119 1643 1713
3 1332 1333 1387
3 910 912 956
3 520 521 2000
3 828 1789 1819
3 277 607 1520
3 1338 1339 2247
3 818 819 910
3 767 766 814
3 712 711 713
3 1494 1467 1675
3 639 594 640
3 2044 557 2256
3 235 20 1709
3 1620 236 2394
3 804 919 962
3 1862 702 2070
3 681 852 853
3 1559 1556 1561
3 1622 941 2471
3 2165 1440 2330
3 612 644 692
3 697 698 818
3 1903 1516 1994
3 371 379 1795
3 428 426 2138
3 1290 1294 2064
3 1384 1904 2432
3 566 689 1600
3 471 452 472
3 1092 1091 1093
3 1002 1131 1719
3 1090 1089 1091
3 875 841 946
3 1758 1760 1763
3 1562 1606 2085
3 1833 1830 2075
3 178 179 214
3 164 165 213
3 769 923 1815
3 692 644 782
3 804 782 919
3 182 183 256
3 160 161 257
3 1329 1331 1482
3 962 1663 1664
3 1177 1179 2042
3 403 405 1805
3 1461 1460 1462
3 140 208 1618
3 1859 232 1860
3 274 1787 2099
3 1381 2126 2186
3 1558 1560 1789
3 430 428 682
3 452 435 1683
3 1487 1156 1488
3 1470 1464 1743
3 597 1794 1893
3 1244 1253 1669
3 962 919 1663
3 258 8 1673
3 1087 1785 1786
3 970 1042 1726
3 199 1677 2149
3 1664 1663 1665
3 1229 1230 1231
3 991 827 1713
3 792 1603 1848
3 1822 1444 1823
3 665 666 697
3 19 20 235
3 142 143 236
3 728 1098 1833
3 532 530 1898
3 1015 1124 1372
3 1546 1547 1548
3 1851 1850 1853
3 1877 393 2240
3 923 1105 1815
3 1090 1091 1092
3 687 686 703
3 1683 435 1790
3 887 826 1961
3 684 663 1089
3 426 1934 2138
3 464 510 680
3 853 854 855
3 568 572 1758
3 1376 1357 1377
3 1205 1203 1692
3 1607 1789 1855
3 710 709 711
3 780 781 1775
3 1434 1103 1435
3 876 815 877
3 766 672 1656
3 1393 1590 2457
3 684 1089 1090
3 530 890 1898
3 926 1920 1943
3 696 414 1821
3 1563 1562 1777
3 1054 1046 1580
3 1398 1973 1974
3 137 216 1625
3 1210 1040 1430
3 1750 563 1751
3 2010 1665 2299
3 1510 1374 1511
3 1777 1562 2085
3 1707 252 1791
3 1932 1404 1933
3 459 438 1814
3 139 140 1618
3 1093 1156 1487
3 231 163 1658
3 699 722 723
3 1545 1095 2508
3 598 612 1794
3 579 554 1880
3 1941 1908 2401
3 1231 1232 1233
3 1831 1829 1841
3 1037 1383 1799
3 177 178 1506
3 636 600 637
3 1036 1539 2286
3 1356 1114 1357
3 1523 1516 2377
3 704 703 705
3 403 402 405
3 648 792 1848
3 723 756 808
3 1388 1389 2170
3 933 932 1770
3 223 1710 1711
3 1779 399 1783
3 1223 1222 1224
3 1028 1029 1313
3 257 161 1654
3 418 412 421
3 734 882 1807
3 693 657 1095
3 1368 1370 1436
3 136 137 1625
3 688 652 817
3 1075 1327 1328
3 540 479 1813
3 398 395 402
3 548 1629 1630
3 574 591 699
3 1469 1494 1495
3 1041 1598 2175
3 167 168 202
3 175 176 204
3 2045 2046 2201
3 186 187 1602
3 886 887 888
3 1253 1254 1259
3 8 9 1673
3 792 655 810
3 843 1145 1960
3 1180 1349 1745
3 1165 1345 1512
3 708 706 709
3 136 1625 1734
3 21 22 207
3 140 141 208
3 625 626 665
3 1093 1094 1156
3 1585 795 1834
3 1117 1713 1806
3 599 579 600
3 810 871 1826
3 1047 1046 1048
3 1292 1291 1293
3 161 162 1654
3 199 1676 1677
3 1260 1282 1804
3 1005 1142 1768
3 1233 1234 1235
3 792 810 922
3 1122 1719 1737
3 976 985 1720
3 1278 1279 2292
3 2390 1934 2531
3 1436 1437 2350
3 270 271 1647
3 1199 966 1846
3 1683 1342 2212
3 656 273 2124
3 699 591 722
3 1977 1139 2096
3 1738 1719 1881
3 1722 985 1874
3 1797 1448 1798
3 162 231 1654
3 632 604 1862
3 252 1602 1791
3 1051 1050 1052
3 1045 1023 1046
3 648 655 792
3 993 1100 1101
3 1321 1055 1322
3 806 709 1627
3 904 903 981
3 1220 1267 1268
3 648 605 655
3 1737 1719 1738
3 385 399 1779
3 506 499 1828
3 1132 266 1402
3 1170 1418 1419
3 1323 2302 2354
3 24 25 215
3 137 138 216
3 721 965 1919
3 1787 1414 2460
3 778 1117 1806
3 723 722 756
3 407 403 1805
3 564 574 1752
3 1049 1048 1050
3 842 841 875
3 1608 1546 1842
3 809 808 899
3 1517 1519 1520
3 1530 1532 1533
3 889 421 1772
3 913 1002 1122
3 1314 1316 1367
3 1017 877 1684
3 841 802 1778
3 1235 1236 1237
3 751 1857 1900
3 1114 924 1767
3 1344 1644 2360
3 1895 1394 2371
3 1518 1535 1861
3 1758 1759 1760
3 1122 1002 1719
3 546 563 1750
3 1056 1726 1727
3 663 660 1746
3 621 622 625
3 1720 985 1721
3 1857 1843 1900
3 808 756 913
3 1056 970 1726
3 27 28 230
3 134 135 229
3 908 906 1099
3 163 164 1658
3 1727 1726 1729
3 7 8 258
3 154 155 259
3 1101 1403 1404
3 808 913 1874
3 1260 1269 1282
3 1389 1387 2262
3 1297 1053 1822
3 1555 1553 1557
3 1463 1464 1465
3 230 28 1765
3 1237 1238 1239
3 554 553 1880
3 775 778 1806
3 985 899 1874
3 1270 1524 2199
3 489 1820 1936
3 692 1072 1794
3 1472 2142 2272
3 1845 496 1929
3 438 431 1814
3 613 615 1824
3 1241 1242 1245
3 1783 415 1915
3 1192 2081 2149
3 178 214 1506
3 1816 988 1817
3 1760 1759 1761
3 1103 1092 1623
3 1512 1345 1661
3 1876 921 2295
3 1165 984 1345
3 978 1074 1075
3 1239 1240 1241
3 542 541 553
3 813 988 1816
3 1148 984 1165
3 871 970 1056
3 472 452 1683
3 1207 1796 1870
3 1167 1166 1754
3 1296 1053 1297
3 966 964 1846
3 976 899 985
3 982 976 984
3 702 1815 2015
3 900 899 976
3 1143 995 1206
3 1576 1024 1827
3 1235 1248 1733
3 1558 1557 1560
3 943 995 1143
3 1920 1144 1943
3 1471 2115 2477
3 29 30 255
3 132 133 254
3 1630 1633 1634
3 1225 1224 1226
3 1925 1573 1926
3 1211 1205 1692
3 725 825 826
3 1113 924 1114
3 600 579 1988
3 717 1552 1567
3 1820 1657 1936
3 674 276 2099
3 395 393 1877
3 572 543 1897
3 1575 1308 2255
3 999 1000 1028
3 1118 1775 1876
3 1797 1798 2430
3 526 546 559
3 867 853 2186
3 1142 1771 1949
3 1068 1275 1442
3 679 385 1779
3 1607 1558 1789
3 580 568 1758
3 1244 1252 1253
3 1760 1761 1762
3 398 402 403
3 1476 1258 1478
3 418 421 889
3 1771 1147 1839
3 164 213 1658
3 1720 1721 2267
3 1668 1591 2512
3 1042 1128 1445
3 1098 1830 1833
3 1102 1092 1103
3 2249 884 2466
3 1104 1103 1434
3 410 416 1821
3 514 513 541
3 580 1758 1763
3 637 673 1741
3 1913 936 1914
3 1394 1395 2337
3 919 920 999
3 577 554 579
3 2111 1660 2263
3 231 1658 1659
3 612 613 644
3 568 543 572
3 770 775 1806
3 1445 1128 1446
3 1546 1548 1842
3 448 460 478
3 810 870 871
3 1789 1560 1819
3 1154 1082 1431
3 873 973 1802
3 379 385 679
3 837 850 921
3 1461 1462 1463
3 1346 1076 1420
3 1088 1344 1808
3 2125 1143 2353
3 931 977 978
3 882 772 1802
3 29 255 1765
3 849 1513 2180
3 1713 827 1806
3 1130 1396 1397
3 681 638 852
3 1417 1321 1873
3 1654 1402 2530
3 502 526 1740
3 1124 888 2177
3 1266 1460 1461
3 515 1175 1840
3 1253 1264 1669
3 479 466 1813
3 1727 1729 1757
3 379 380 385
3 1971 1480 2514
3 1637 1739 2459
3 1207 1205 1208
3 529 519 1899
3 1129 1845 1929
3 224 1661 2267
3 192 1856 2361
3 732 734 1807
3 1184 2163 2435
3 1119 1120 1353
3 415 414 431
3 719 724 725
3 559 546 1750
3 871 872 970
3 1038 917 1622
3 574 699 1752
3 166 167 1679
3 1117 1118 1119
3 1409 1196 2035
3 617 619 621
3 1172 1173 1439
3 1191 1005 1768
3 664 663 684
3 494 493 1841
3 890 529 1731
3 840 802 841
3 493 974 1841
3 385 386 399
3 679 1779 1780
3 371 376 379
3 416 433 1109
3 670 769 1815
3 902 866 903
3 1780 1779 1781
3 480 515 1840
3 970 971 1042
3 433 448 1714
3 28 29 1765
3 1005 949 1142
3 778 780 1117
3 959 1037 1799
3 1073 1003 1076
3 535 532 1898
3 1119 1118 1120
3 658 657 693
3 1378 1379 1380
3 1397 1396 1809
3 1610 1609 1612
3 1819 1560 2016
3 1837 952 1865
3 1719 1131 1881
3 1131 1399 1400
3 1352 1138 2058
3 399 406 409
3 548 1630 2041
3 1275 1338 2251
3 582 1816 1818
3 1835 1836 2144
3 993 1101 1980
3 1699 1698 1700
3 2407 364 2505
3 1189 1190 1788
3 1117 780 1118
3 1830 1829 1831
3 637 672 673
3 692 804 1072
3 1204 1203 1205
3 1374 1170 2139
3 612 692 1794
3 1642 1408 2286
3 723 808 809
3 450 459 1812
3 409 410 414
3 802 801 1778
3 1853 1854 2483
3 1042 1127 1128
3 1199 1846 2225
3 1147 990 1273
3 1383 1384 2432
3 432 431 438
3 1353 1120 1390
3 1093 1091 1094
3 2020 250 2254
3 148 149 1639
3 606 605 648
3 1970 2016 2422
3 2201 2046 2327
3 475 471 513
3 412 407 1951
3 1991 246 2139
3 727 695 728
3 1673 234 1788
3 1554 1556 1559
3 1089 663 1746
3 1846 964 2056
3 923 991 1088
3 409 406 410
3 729 728 730
3 1424 1427 1856
3 1473 1911 2407
3 1376 1377 1378
3 1010 1374 1510
3 853 852 854
3 366 369 1087
3 772 873 1802
3 1219 1218 1626
3 1766 229 2061
3 1088 991 1344
3 922 810 1826
3 518 506 695
3 405 402 2116
3 962 1664 2316
3 913 942 1002
3 932 990 1147
3 629 813 1816
3 876 877 992
3 399 386 406
3 932 845 990
3 1002 1123 1131
3 843 996 1145
3 781 837 1775
3 262 2304 2491
3 431 696 1814
3 1273 1695 1892
3 731 730 732
3 737 732 1807
3 439 438 450
3 1829 498 1841
3 800 685 801
3 767 814 815
3 1060 766 1656
3 673 766 767
3 1403 1605 1882
3 716 718 719
3 1338 1069 1339
3 847 752 1843
3 864 862 1116
3 2302 443 2519
3 923 827 991
3 526 559 1740
3 1911 1473 2358
3 1085 1310 1867
3 809 899 900
3 1227 1226 1228
3 729 730 731
3 1436 1370 1437
3 731 732 737
3 769 827 923
3 456 452 471
3 1433 1503 2471
3 1435 1103 1623
3 385 380 386
3 1141 1787 2460
3 1354 1088 1808
3 657 649 1848
3 415 431 432
3 484 892 1820
3 727 728 729
3 855 854 1450
3 1721 1722 1723
3 1643 1353 1644
3 1145 1916 1960
3 1421 1191 1422
3 466 1812 1813
3 943 944 995
3 1356 1357 1376
3 714 715 716
3 1156 1094 1157
3 598 611 612
3 631 1600 2298
3 590 589 605
3 965 969 1919
3 416 1109 1821
3 242 1697 2335
3 1548 1547 1549
3 550 573 584
3 584 604 632
3 409 414 415
3 712 713 714
3 642 670 702
3 818 698 819
3 1006 1005 1191
3 1624 1689 1691
3 169 170 237
3 173 174 238
3 956 912 1003
3 937 936 1913
3 1317 1025 1875
3 515 540 550
3 973 1799 1800
3 973 959 1799
3 518 695 727
3 910 819 912
3 584 573 604
3 1170 946 1418
3 173 238 1847
3 550 540 573
3 982 984 1148
3 900 976 982
3 441 435 452
3 448 478 1714
3 1849 1648 2173
3 1631 1628 1637
3 1830 1831 1832
3 1383 1216 1384
3 734 772 882
3 949 933 1770
3 1332 1330 1333
3 574 575 591
3 1105 1088 1354
3 702 670 1815
3 498 494 1841
3 827 770 1806
3 873 959 973
3 1390 1391 1415
3 450 438 459
3 950 949 1005
3 351 362 364
3 1313 1029 1314
3 432 438 439
3 837 838 850
3 1273 1274 1695
3 850 851 943
3 911 952 1837
3 1259 1260 1804
3 566 587 588
3 1037 1216 1383
3 1337 1265 1538
3 1087 369 1795
3 810 655 870
3 1559 1561 1566
3 1147 1273 1839
3 732 733 734
3 1662 867 2126
3 890 1731 2241
3 1854 1852 2397
3 515 479 540
3 451 450 466
3 697 666 698
3 1367 1316 1368
3 662 660 663
3 365 355 694
3 1358 1114 1767
3 379 376 380
3 1796 1448 1797
3 179 180 1859
3 790 668 849
3 569 568 580
3 690 860 931
3 466 450 1812
3 431 414 696
3 1973 1133 1974
3 651 649 657
3 467 466 479
3 1288 1289 1835
3 264 265 1986
3 1302 1303 1304
3 592 596 597
3 1873 1321 2037
3 544 543 568
3 275 277 549
3 209 1937 2389
3 539 565 566
3 1485 227 1486
3 2384 2190 2408
3 1781 1779 1783
3 480 479 515
3 689 1416 2413
3 1108 1161 1539
3 1867 1310 1895
3 1300 1301 1302
3 1695 1696 1697
3 633 632 668
3 1304 1451 1452
3 988 911 1837
3 168 169 1724
3 969 1012 1172
3 582 629 1816
3 1843 752 1900
3 629 812 813
3 710 711 712
3 1782 1780 1784
3 536 535 543
3 1089 1746 1969
3 1108 1107 1161
3 1514 1426 1856
3 486 484 1820
3 369 371 1795
3 1817 988 1924
3 493 609 974
3 1422 1191 2023
3 1426 1424 1856
3 842 875 924
3 922 1826 2259
3 989 1361 1886
3 928 1070 1288
3 669 668 790
3 1113 1114 1356
3 1027 847 1843
3 728 695 1098
3 734 735 772
3 975 1107 1108
3 955 859 1962
3 813 911 988
3 1208 1448 1796
3 1101 1405 1980
3 602 676 2045
3 586 581 589
3 546 547 563
3 493 491 609
3 628 1524 2390
3 348 344 354
3 1298 1299 1300
3 509 538 539
3 974 609 975
3 813 891 911
3 871 870 872
3 1355 1354 1423
3 489 486 1820
3 778 779 780
3 1025 1176 1875
3 772 773 873
3 803 1743 2347
3 167 202 1679
3 873 883 959
3 1483 1571 2375
3 427 1756 2221
3 540 1813 1954
3 1202 1200 1203
3 959 1035 1037
3 837 921 1775
3 1304 1305 1451
3 1799 1383 2195
3 604 642 1862
3 1470 1744 2474
3 1854 2397 2453
3 1282 1269 1386
3 1573 1572 2157
3 472 2222 2290
3 1307 1708 2341
3 769 770 827
3 1037 1215 1216
3 791 790 856
3 1053 1052 1822
3 1056 1727 1728
3 1341 1138 1352
3 1300 1299 1301
3 1814 696 1838
3 1198 1196 1409
3 492 491 493
3 439 450 451
3 1171 858 2132
3 1259 1254 1260
3 665 626 666
3 970 872 971
3 258 1602 2357
3 1296 1297 1472
3 490 489 491
3 516 437 2494
3 1298 1027 1299
3 846 845 932
3 501 508 509
3 460 461 502
3 448 449 460
3 482 480 1840
3 1229 1228 1230
3 604 641 642
3 1424 1423 1427
3 502 503 526
3 1028 1000 1029
3 935 933 949
3 1084 1085 1867
3 2028 1711 2353
3 1513 1426 1514
3 892 482 1840
3 852 638 1988
3 402 395 1877
3 738 737 845
3 413 412 418
3 1119 1353 1643
3 526 527 546
3 280 279 281
3 1731 1155 2123
3 1042 971 1127
3 1208 1447 1448
3 433 434 448
3 262 159 2304
3 184 1454 2303
3 1051 1052 1053
3 1816 1817 1818
3 1081 1417 1444
3 781 836 837
3 911 951 952
3 1090 1092 1102
3 202 168 1724
3 1085 1309 1310
3 408 407 412
3 1337 1538 1864
3 1515 1514 1516
3 530 529 890
3 1517 1518 1519
3 549 686 687
3 923 1088 1105
3 404 403 407
3 1835 1289 1836
3 1314 1367 2121
3 1380 1379 2416
3 670 671 769
3 899 808 1874
3 1040 903 1703
3 1596 1595 2154
3 1496 1495 1497
3 636 637 1741
3 1377 1638 2288
3 1288 1070 1289
3 1072 804 1981
3 1129 1334 1845
3 1865 1084 1866
3 792 922 1603
3 1253 1252 1254
3 981 1167 1792
3 1302 1301 1303
3 1641 1651 2019
3 952 953 1084
3 1813 1812 1869
3 732 730 733
3 975 1106 1107
3 1142 949 1770
3 981 1166 1167
3 840 841 842
3 451 466 467
3 1273 990 1274
3 1049 1050 1051
3 1473 2407 2505
3 968 966 1199
3 642 643 670
3 1310 1309 1311
3 422 419 435
3 1063 833 1082
3 919 782 920
3 911 891 951
3 1084 953 1085
3 1763 1764 2164
3 1498 1497 1682
3 515 550 1175
3 1079 937 1913
3 642 702 1862
3 845 737 1931
3 1394 1311 1395
3 1395 1521 1522
3 467 479 480
3 1755 1754 1793
3 1231 1230 1232
3 1557 1553 2030
3 1624 1691 2262
3 584 632 633
3 1094 1091 1969
3 708 709 710
3 1948 1627 2488
3 952 951 953
3 1102 1103 1104
3 1047 1048 1049
3 1310 1311 1394
3 1852 1099 1985
3 143 144 1717
3 813 812 891
3 1944 1044 1945
3 1105 1354 1355
3 1300 1302 1455
3 1914 936 1940
3 1415 1391 1710
3 1299 1027 1843
3 952 1084 1865
3 1695 1274 1696
3 776 774 1928
3 282 281 283
3 2003 1347 2279
3 1206 995 1499
3 1164 1685 1686
3 1551 1565 2030
3 969 1172 1919
3 633 668 669
3 734 733 735
3 1373 1372 1438
3 599 600 636
3 1431 1860 2487
3 1579 1577 1999
3 484 482 892
3 917 940 941
3 2144 1836 2169
3 1866 1084 1867
3 1110 1747 1748
3 998 1171 1811
3 1390 1120 1391
3 644 1824 2057
3 1362 1961 2048
3 944 1283 1825
3 1086 1027 1298
3 679 1780 1782
3 974 975 1879
3 507 506 518
3 1121 1079 1401
3 775 777 778
3 1965 762 2349
3 1045 1046 1047
3 1772 421 2106
3 16 17 2081
3 416 417 433
3 921 850 2125
3 1607 1855 1958
3 649 648 1848
3 1241 1240 1242
3 2012 1443 2251
3 926 928 1920
3 1487 1488 2025
3 1006 1191 1421
3 1355 1423 1424
3 1133 852 1988
3 591 592 1776
3 1299 1843 1857
3 1085 1308 1309
3 490 491 492
3 958 694 1575
3 1384 1216 1385
3 741 915 1878
3 1233 1232 1234
3 669 790 791
3 481 480 482
3 687 703 704
3 492 493 494
3 1634 1633 1922
3 1697 1696 1698
3 1721 985 1722
3 1839 1273 1892
3 772 735 773
3 488 486 489
3 950 1005 1006
3 1513 1514 1515
3 454 500 501
3 873 773 883
3 284 283 285
3 2185 1505 2442
3 959 883 1035
3 543 535 1897
3 1904 1384 2093
3 800 801 802
3 1037 1035 1215
3 1293 1964 1965
3 1239 1238 1240
3 943 1143 2125
3 1782 1784 1785
3 913 756 942
3 488 490 1884
3 1590 1749 2501
3 1235 1234 1236
3 791 856 1408
3 702 2015 2070
3 1108 1539 1540
3 1021 1023 1045
3 695 506 1828
3 1530 1528 1532
3 488 489 490
3 1621 1619 2161
3 704 705 706
3 1304 1303 1305
3 558 1704 2167
3 625 622 626
3 542 553 554
3 604 573 641
3 664 684 685
3 564 571 574
3 1108 1540 1879
3 1856 1427 2361
3 880 1025 1129
3 1395 1311 1521
3 1466 1465 1467
3 915 495 1884
3 1515 1516 1523
3 1237 1236 1238
3 606 648 649
3 999 920 1000
3 676 829 1043
3 2100 794 2142
3 227 151 1500
3 577 579 599
3 153 154 1671
3 1175 550 1927
3 1014 888 1015
3 286 285 287
3 1649 1280 2427
3 1725 204 2137
3 975 609 1106
3 1129 1317 1334
3 1109 1730 2426
3 1468 1467 1469
3 1131 1123 1399
3 1215 2235 2378
3 1976 1149 1989
3 397 395 398
3 746 743 1878
3 1041 1343 1598
3 975 1108 1879
3 741 495 915
3 1167 1754 1755
3 288 287 289
3 743 741 1878
3 1274 990 1931
3 1506 214 1507
3 857 1584 2277
3 2341 1522 2387
3 846 932 933
3 1107 1106 1110
3 584 633 1927
3 290 289 291
3 722 591 1776
3 1544 1094 1969
3 1135 270 1647
3 935 949 950
3 1920 1288 2080
3 754 1896 2108
3 1693 1199 2225
3 292 291 293
3 394 393 395
3 745 743 746
3 1002 942 1123
3 731 737 738
3 294 293 295
3 1018 1573 1925
3 296 295 297
3 298 297 299
3 321 322 325
3 317 320 321
3 314 315 317
3 312 313 314
3 310 311 312
3 308 309 310
3 1898 890 2275
3 306 307 308
3 304 305 306
3 1401 1079 1913
3 300 299 301
3 302 303 304
3 300 301 302
3 302 301 303
3 491 489 1936
3 298 299 300
3 304 303 305
3 306 305 307
3 308 307 309
3 310 309 311
3 312 311 313
3 314 313 315
3 317 315 320
3 321 320 322
3 1301 1299 1857
3 514 541 542
3 296 297 298
3 850 838 851
3 1310 1394 1895
3 294 295 296
3 590 605 606
3 292 293 294
3 651 657 658
3 290 291 292
3 1207 1208 1796
3 835 1976 1989
3 621 619 622
3 746 1878 1896
3 481 482 483
3 1026 847 1027
3 1335 1207 1870
3 1661 59 2266
3 727 729 1155
3 288 289 290
3 1058 776 1928
3 662 663 664
3 495 488 1884
3 1959 319 2522
3 943 851 944
3 1293 1291 1964
3 534 532 535
3 640 645 646
3 2280 1014 2385
3 286 287 288
3 591 575 592
3 521 519 529
3 13 14 2114
3 780 779 781
3 918 908 1850
3 837 836 838
3 209 148 1639
3 754 748 1896
3 745 746 747
3 769 671 770
3 929 1065 2197
3 1278 1058 1279
3 483 482 484
3 1564 1557 2030
3 633 807 1927
3 392 391 393
3 1057 1621 2161
3 569 580 581
3 284 285 286
3 876 992 1894
3 497 494 498
3 1630 1635 2041
3 982 1148 1918
3 612 611 613
3 700 634 1044
3 822 674 2099
3 880 1129 1929
3 432 439 654
3 1039 1291 1292
3 1164 1686 1989
3 1129 1025 1317
3 738 845 846
3 582 583 629
3 278 6 279
3 544 568 569
3 1701 1274 1931
3 747 749 751
3 1085 953 1308
3 928 930 1070
3 747 748 749
3 1421 1422 2415
3 902 903 904
3 1309 1308 1543
3 642 641 643
3 904 981 1792
3 646 784 785
3 536 543 544
3 1204 1205 1207
3 365 694 958
3 71 72 217
3 88 89 1901
3 87 88 193
3 101 102 189
3 85 86 242
3 99 100 241
3 74 75 192
3 91 92 219
3 94 95 191
3 83 84 220
3 97 98 221
3 77 78 218
3 80 81 194
3 89 90 245
3 62 63 244
3 60 61 188
3 64 65 223
3 67 68 190
3 90 91 1909
3 98 99 1905
3 61 62 1908
3 69 70 243
3 68 69 1907
3 70 71 1910
3 410 411 416
3 586 589 590
3 685 684 2029
3 390 389 391
3 1715 1150 1811
3 1924 1837 2215
3 282 283 284
3 496 497 1929
3 233 1671 1769
3 627 2185 2442
3 1567 1552 2062
3 629 630 812
3 424 453 454
3 583 562 1942
3 749 750 805
3 744 743 745
3 1897 535 1898
3 467 480 481
3 504 759 880
3 670 643 671
3 89 245 1901
3 193 88 1901
3 221 98 1905
3 245 90 1909
3 91 219 1909
3 62 244 1908
3 188 61 1908
3 99 241 1905
3 190 68 1907
3 71 217 1910
3 69 243 1907
3 243 70 1910
3 505 499 506
3 475 513 514
3 1945 1044 2071
3 1712 2125 2353
3 339 343 440
3 989 1360 1361
3 764 869 1152
3 778 777 779
3 1686 1685 1687
3 742 741 743
3 979 989 1886
3 729 731 1887
3 926 927 928
3 1305 1306 1307
3 1838 1278 2292
3 747 746 748
3 181 182 1652
3 1886 1361 2305
3 1595 1594 2486
3 597 596 598
3 928 1288 1920
3 1970 824 2156
3 1425 1424 1426
3 497 504 1929
3 748 746 1896
3 745 747 1900
3 998 858 1171
3 563 547 564
3 1155 729 1887
3 634 583 1942
3 1439 1173 1440
3 1026 1027 1086
3 79 80 1904
3 1533 1532 1536
3 1449 1426 1513
3 1106 609 1936
3 1318 1013 1319
3 1098 695 1828
3 492 494 496
3 750 748 754
3 731 738 1887
3 2415 1422 2516
3 533 562 582
3 988 1837 1924
3 1216 1215 1863
3 534 535 536
3 747 751 1900
3 1753 809 2119
3 1183 824 1970
3 740 495 741
3 80 194 1904
3 893 383 2087
3 655 605 1939
3 1884 2034 2082
3 1301 1857 1923
3 1307 1306 1708
3 752 745 1900
3 750 754 755
3 76 77 1903
3 2090 2347 2365
3 255 30 2159
3 132 254 2160
3 448 434 449
3 753 848 926
3 1075 1074 1327
3 487 488 495
3 377 381 647
3 483 484 485
3 755 754 2148
3 1584 1925 2277
3 1186 1183 1970
3 951 891 1281
3 485 484 486
3 546 527 547
3 133 134 1766
3 1786 1785 2409
3 280 281 282
3 460 449 461
3 744 745 752
3 77 218 1903
3 983 1918 2342
3 1708 1306 1810
3 1389 2069 2170
3 487 486 488
3 641 573 1954
3 507 518 519
3 502 461 503
3 519 518 1899
3 1202 1203 1204
3 821 897 1972
3 92 93 1902
3 521 529 530
3 749 748 750
3 2176 1380 2416
3 885 826 886
3 485 486 487
3 371 372 376
3 1289 1070 1871
3 1110 1657 1747
3 753 926 1943
3 700 1044 1944
3 880 881 1025
3 496 1845 2034
3 1072 1981 2393
3 462 464 2134
3 1949 1771 2359
3 1044 634 1942
3 550 584 1927
3 1390 1415 2118
3 526 503 527
3 990 845 1931
3 1009 1213 1214
3 740 742 1144
3 219 92 1902
3 727 1155 1899
3 369 370 371
3 623 690 2150
3 1279 1058 1928
3 1408 2235 2286
3 487 495 740
3 979 1886 2086
3 1305 1303 1306
3 421 412 1951
3 843 844 996
3 633 669 807
3 518 727 1899
3 826 825 1961
3 1657 1106 1936
3 1172 1012 1173
3 740 741 742
3 433 417 434
3 505 506 507
3 1333 1674 2437
3 742 743 744
3 469 458 470
3 1381 1380 1382
3 1293 1965 2515
3 1554 1559 2062
3 553 557 2499
3 1774 389 2339
3 497 498 499
3 483 485 576
3 740 1144 1935
3 773 735 834
3 366 367 369
3 1120 1118 1876
3 1515 1523 1574
3 1319 1013 2039
3 1303 1301 1923
3 457 447 458
3 561 593 594
3 1355 1424 1425
3 609 491 1936
3 204 1732 2137
3 791 1408 1642
3 995 944 1825
3 456 471 475
3 1692 1693 2239
3 580 1763 2164
3 1292 1293 2117
3 441 452 456
3 388 384 389
3 823 821 1972
3 504 880 1929
3 176 177 1680
3 1070 1071 1871
3 15 2260 2477
3 362 363 366
3 2178 2300 2449
3 1035 883 1036
3 2285 1563 2307
3 978 977 1074
3 1090 1102 2029
3 1810 1306 1923
3 496 494 497
3 1306 1303 1923
3 432 654 1915
3 934 933 935
3 356 355 365
3 398 403 404
3 635 701 843
3 1110 1106 1657
3 574 571 575
3 1025 881 1176
3 386 380 786
3 415 432 1915
3 343 347 1911
3 1070 930 1071
3 1688 1740 2231
3 1385 1216 1863
3 1696 1274 1701
3 1645 305 2317
3 880 759 881
3 926 848 927
3 1427 1423 2217
3 1339 1662 2388
3 770 774 775
3 1263 1257 1428
3 1337 1864 2412
3 349 348 355
3 2267 1721 2498
3 753 752 847
3 1375 1086 1473
3 900 982 983
3 332 335 739
3 429 428 430
3 744 752 753
3 1171 2132 2165
3 1425 1426 1449
3 987 641 1954
3 1883 1786 2409
3 427 426 428
3 928 927 930
3 1815 1105 2015
3 1206 1499 1941
3 410 406 411
3 573 540 1954
3 497 499 504
3 528 560 561
3 1933 1404 2399
3 1091 1089 1969
3 1804 1282 2073
3 504 505 759
3 963 924 1113
3 1711 1710 1712
3 881 759 1146
3 968 1199 1200
3 351 352 362
3 848 847 1026
3 521 530 531
3 1884 490 2034
3 1277 957 1966
3 1349 1350 2329
3 676 1043 2045
3 997 1159 1286
3 517 1889 1890
3 781 835 836
3 944 948 1283
3 722 1776 2026
3 507 519 520
3 2040 1352 2058
3 1276 957 1277
3 446 437 447
3 931 860 977
3 361 359 765
3 1248 1536 2534
3 512 523 528
3 408 412 413
3 1368 1369 1370
3 451 2169 2223
3 192 75 1994
3 942 756 2026
3 345 344 348
3 764 1152 1963
3 413 418 419
3 1286 1773 1774
3 770 671 774
3 275 549 2124
3 1497 1645 2461
3 1982 1472 2272
3 422 435 441
3 281 279 736
3 1134 270 1135
3 582 562 583
3 1421 2415 2454
3 485 487 1935
3 2300 1067 2480
3 1578 1576 1827
3 930 927 1061
3 1026 1086 1375
3 922 2259 2379
3 1391 1120 1876
3 1495 1494 2493
3 404 407 408
3 879 2178 2449
3 1700 1698 2036
3 607 1517 1520
3 753 847 848
3 416 411 417
3 1144 742 1943
3 775 776 777
3 754 2108 2148
3 1006 1421 1953
3 585 581 586
3 531 530 532
3 235 1709 1888
3 520 519 521
3 1180 1181 1349
3 1146 759 1967
3 708 710 1921
3 1350 2253 2329
3 436 430 437
3 504 499 505
3 643 641 987
3 336 330 517
3 811 1059 1149
3 1164 1411 1685
3 846 933 934
3 635 843 1960
3 983 982 1918
3 971 872 1096
3 1149 1163 1164
3 169 237 1724
3 1314 1315 1316
3 629 583 630
3 891 812 1916
3 462 463 464
3 487 740 1935
3 798 2084 2189
3 1814 1838 2292
3 1284 1489 1491
3 340 336 2014
3 1670 1461 2200
3 920 782 2057
3 890 2241 2275
3 510 511 512
3 278 279 280
3 839 802 840
3 1858 235 1888
3 1698 1696 2036
3 104 105 222
3 57 58 224
3 1185 1183 1186
3 588 587 623
3 638 600 1988
3 1282 1386 2245
3 811 776 1058
3 816 815 876
3 2034 1845 2082
3 761 636 1741
3 566 565 587
3 174 175 1725
3 347 350 351
3 1469 1495 1496
3 1059 1058 1278
3 811 1149 1976
3 576 485 1935
3 659 658 660
3 859 1153 1962
3 76 1903 1994
3 1821 1109 2426
3 1294 1038 1622
3 733 1833 2075
3 992 993 1980
3 1566 1561 2285
3 525 474 2041
3 464 465 510
3 343 346 347
3 360 893 1982
3 650 649 651
3 896 608 936
3 950 1006 1007
3 1508 1859 1860
3 539 538 565
3 440 343 1911
3 341 340 344
3 221 1905 1906
3 1297 1823 2142
3 759 505 1967
3 1295 1053 1296
3 473 470 474
3 1463 1465 1466
3 1143 1206 2028
3 799 685 800
3 1210 2077 2203
3 509 508 538
3 492 496 2034
3 1553 1551 2030
3 1260 1261 1269
3 1430 1040 1703
3 586 590 1940
3 838 836 868
3 1705 624 2276
3 1749 972 2501
3 742 744 1943
3 804 962 1981
3 1367 1368 2254
3 531 532 533
3 337 336 340
3 1157 1094 1544
3 536 544 1158
3 812 630 1960
3 781 779 835
3 56 57 1947
3 630 583 634
3 1405 1404 1932
3 1281 891 1916
3 339 342 343
3 1411 1163 1730
3 322 323 324
3 344 340 2091
3 1735 1734 1736
3 75 76 1994
3 430 682 2494
3 1907 243 2360
3 589 581 2164
3 694 355 2196
3 744 753 1943
3 775 774 776
3 1210 1430 2077
3 335 338 339
3 1102 1803 2029
3 1078 937 1079
3 870 655 1939
3 505 507 1967
3 357 360 1982
3 1896 1878 2101
3 326 325 328
3 934 935 957
3 585 608 895
3 333 330 336
3 1270 1272 1524
3 688 817 878
3 507 520 1967
3 1428 1257 2074
3 1818 1817 2000
3 896 937 1077
3 934 957 1111
3 329 328 330
3 1499 995 1825
3 944 851 948
3 387 445 462
3 1678 1161 2228
3 777 776 811
3 313 311 757
3 324 331 332
3 848 1026 1955
3 1312 998 1811
3 1321 1322 2037
3 1080 1079 1121
3 1105 1355 2015
3 1645 2317 2461
3 1559 1568 2062
3 332 334 335
3 501 500 508
3 321 325 326
3 394 395 397
3 322 320 323
3 1529 1530 2171
3 1137 797 1138
3 811 1058 1059
3 661 660 662
3 569 581 585
3 183 4 2303
3 5 160 2304
3 1340 1138 1341
3 1660 1626 2185
3 1743 1464 2347
3 1026 1375 1955
3 1149 1059 1163
3 1736 1625 2194
3 1322 1667 2434
3 311 309 1959
3 309 307 319
3 894 700 1944
3 533 534 562
3 1276 1277 1366
3 2190 1706 2408
3 533 532 534
3 1214 1213 1410
3 1164 1163 1411
3 843 701 844
3 1009 1214 2055
3 234 1589 1788
3 2000 1817 2174
3 317 321 2050
3 328 325 945
3 392 393 394
3 588 623 2089
3 1162 958 1681
3 1078 1080 1136
3 927 848 1955
3 1496 1497 1498
3 390 391 392
3 1061 927 1955
3 1283 948 1284
3 635 634 700
3 1244 1251 1252
3 218 78 2093
3 756 722 2026
3 1071 1784 2419
3 1218 1505 2185
3 1284 948 1285
3 1489 1285 1490
3 918 1850 1851
3 684 1090 2029
3 1759 572 2537
3 1691 1690 2446
3 1979 1158 2071
3 606 649 650
3 2045 1043 2046
3 103 104 2025
3 630 634 635
3 360 383 893
3 406 386 2043
3 1909 219 2023
3 1111 957 1276
3 1925 1437 2277
3 1536 2268 2340
3 854 852 1133
3 233 153 1671
3 651 658 659
3 2099 1787 2368
3 1033 1032 1130
3 1015 1372 1373
3 1412 942 2026
3 253 264 1441
3 1531 1534 2332
3 701 700 894
3 106 107 1990
3 2048 1961 2455
3 276 274 2099
3 738 846 1968
3 1325 925 1326
3 896 936 937
3 585 586 608
3 1450 854 1973
3 1361 1360 1362
3 1045 1668 2512
3 303 301 444
3 996 844 997
3 79 1904 2093
3 1989 1686 2095
3 1928 774 2033
3 1942 562 1979
3 287 285 316
3 935 950 1966
3 1466 1467 1468
3 1242 1243 1244
3 1887 738 1968
3 2115 210 2477
3 878 929 1083
3 1326 1736 2194
3 886 888 1014
3 895 608 896
3 289 287 1978
3 821 822 897
3 936 608 1940
3 613 614 615
3 51 52 1996
3 417 411 1160
3 1149 1164 1989
3 386 786 2043
3 285 283 1971
3 1309 1543 2147
3 375 373 2053
3 371 370 372
3 779 777 1976
3 1286 1159 1773
3 2177 887 2376
3 1560 1557 1564
3 1403 1882 2399
3 1727 1757 2246
3 279 6 2049
3 1619 1438 2438
3 291 289 758
3 1781 1915 2294
3 425 401 426
3 349 355 356
3 66 67 2118
3 474 548 2041
3 1686 1687 2007
3 1262 1456 1457
3 1123 942 1412
3 1916 812 1960
3 1355 1425 2015
3 735 733 2075
3 1861 879 2449
3 1284 1285 1489
3 490 492 2034
3 366 363 367
3 980 578 2051
3 906 904 1792
3 534 536 1979
3 842 924 963
3 2051 578 2083
3 1077 937 1078
3 1102 1104 1803
3 894 1944 1946
3 398 404 2060
3 1007 1006 1953
3 369 367 370
3 348 354 2196
3 1078 1079 1080
3 1378 1380 1381
3 1568 1365 2439
3 608 586 1940
3 598 610 611
3 760 636 761
3 869 1137 1351
3 671 643 2033
3 1661 1345 2267
3 938 914 1057
3 783 761 914
3 576 1835 2144
3 388 389 390
3 297 295 318
3 454 453 500
3 1906 1728 2246
3 1439 1440 2468
3 1159 1013 1318
3 764 797 869
3 236 143 1717
3 782 644 2057
3 592 595 596
3 1542 2332 2443
3 1521 1311 2147
3 345 348 349
3 1304 1452 2205
3 1644 1907 2360
3 2146 1125 2149
3 997 844 1013
3 628 375 2053
3 299 297 1984
3 957 935 1966
3 664 685 799
3 301 299 1975
3 362 352 363
3 777 811 1976
3 1942 1979 2071
3 1001 920 2057
3 312 314 768
3 1552 1554 2062
3 615 616 617
3 357 1982 2076
3 800 802 839
3 774 671 2033
3 1749 1169 2105
3 365 958 1162
3 617 618 619
3 283 281 1938
3 1351 1772 2414
3 1525 1765 2489
3 846 934 1968
3 635 700 701
3 555 554 577
3 536 1158 1979
3 1101 1404 1405
3 630 635 1960
3 1811 1150 2089
3 2113 1666 2249
3 172 173 1847
3 107 108 195
3 54 55 196
3 1191 1768 2023
3 1455 1302 2205
3 115 116 2017
3 1387 1333 2437
3 659 661 764
3 1080 1121 1188
3 50 51 2011
3 411 406 2043
3 295 293 1983
3 643 987 2033
3 707 706 708
3 129 130 261
3 32 33 260
3 2159 260 2265
3 449 434 567
3 1314 1029 1315
3 917 796 940
3 378 375 628
3 108 109 1991
3 2370 1759 2537
3 341 344 345
3 997 1013 1159
3 544 569 1993
3 950 1007 1966
3 477 474 525
3 351 350 352
3 1696 1701 2036
3 334 331 803
3 1137 1138 1340
3 562 534 1979
3 109 110 246
3 52 53 247
3 1368 1316 1369
3 659 660 661
3 33 34 2002
3 123 124 2005
3 835 779 1976
3 851 838 1992
3 1530 1533 2172
3 1668 1045 2348
3 1162 1681 1706
3 342 338 468
3 298 300 358
3 765 359 2065
3 725 826 885
3 35 36 2003
3 46 47 2019
3 38 39 2006
3 336 517 2014
3 934 1111 1968
3 116 117 2018
3 650 651 1963
3 223 1711 2162
3 640 594 645
3 1333 1330 2192
3 104 222 2025
3 1603 922 2379
3 963 1113 1115
3 2084 1193 2189
3 564 570 571
3 36 37 2004
3 57 224 1947
3 1542 1601 2269
3 122 123 2012
3 1000 920 1001
3 127 128 240
3 34 35 239
3 383 387 2087
3 1161 1107 2228
3 1781 2294 2419
3 1201 1200 1202
3 124 125 225
3 37 38 226
3 1340 1341 1342
3 869 797 1137
3 839 840 1008
3 1158 544 1993
3 1326 925 1894
3 352 350 353
3 326 329 954
3 1864 2344 2412
3 836 835 2095
3 1051 1053 1295
3 1031 720 1032
3 503 461 787
3 1407 1112 2044
3 661 662 2058
3 838 868 1992
3 112 113 197
3 49 50 198
3 1359 980 1413
3 121 122 211
3 40 41 212
3 48 49 2010
3 113 114 2009
3 1741 673 2131
3 41 42 2020
3 120 121 2013
3 1409 2035 2097
3 1511 1374 2506
3 114 115 248
3 47 48 249
3 42 43 250
3 119 120 251
3 171 6 201
3 6 172 203
3 585 895 1993
3 43 44 2024
3 118 119 2021
3 905 904 906
3 764 661 797
3 337 340 341
3 1413 980 2051
3 117 118 205
3 44 45 206
3 347 346 350
3 1420 1076 1525
3 324 323 331
3 434 417 2031
3 965 967 969
3 716 719 788
3 1260 1254 1261
3 2053 373 2103
3 2069 2068 2170
3 326 328 329
3 1706 996 2408
3 273 275 2124
3 969 1011 1012
3 590 606 2001
3 1718 1611 2280
3 1914 1940 2001
3 915 1884 2082
3 329 330 333
3 620 859 955
3 2168 1409 2305
3 296 298 1997
3 915 2082 2101
3 339 338 342
3 1218 994 1505
3 333 336 337
3 266 263 1742
3 1873 768 2127
3 244 63 2162
3 64 223 2162
3 343 342 346
3 914 761 2258
3 310 312 1987
3 799 800 2055
3 302 304 763
3 1559 1566 1568
3 1598 1343 2114
3 592 575 595
3 341 345 794
3 189 1842 2220
3 767 815 816
3 1003 912 1004
3 839 1008 1009
3 1263 1428 1429
3 564 547 570
3 1845 1334 2082
3 332 331 334
3 901 866 902
3 651 659 1963
3 1009 1112 1213
3 335 334 338
3 569 585 1993
3 1665 1336 2299
3 1945 2071 2153
3 863 862 864
3 907 906 908
3 1849 1486 1930
3 1935 1144 2080
3 967 966 968
3 809 900 2119
3 865 864 866
3 835 1989 2095
3 190 1907 2417
3 333 337 522
3 1110 1748 2228
3 1193 1194 1195
3 94 191 2166
3 473 1854 2453
3 1769 1134 2369
3 948 851 1992
3 237 170 2216
3 420 419 422
3 1448 1447 2364
3 483 576 2144
3 721 1919 2032
3 885 886 1891
3 613 611 614
3 886 1014 1891
3 1160 411 2043
3 1918 1283 2342
3 1651 206 2485
3 1242 1240 1243
3 598 596 610
3 1295 1296 1459
3 1185 1186 1948
3 1425 1449 2070
3 294 296 762
3 1285 948 1992
3 925 876 1894
3 712 714 789
3 603 1668 2398
3 1940 590 2001
3 721 570 964
3 834 735 2075
3 1144 1920 2080
3 2263 1635 2511
3 1204 1207 1335
3 2235 1408 2378
3 965 964 966
3 1990 1435 2218
3 397 398 2060
3 1138 797 2058
3 1787 1141 2368
3 2068 820 2170
3 360 359 361
3 387 462 2087
3 1524 1272 1934
3 819 698 820
3 1197 1196 1198
3 1662 2126 2388
3 78 79 2093
3 1150 588 2089
3 1269 1261 1270
3 1878 915 2101
3 451 467 2169
3 2262 1387 2437
3 1009 1008 1112
3 757 311 1959
3 897 898 1139
3 1854 473 2483
3 2015 1425 2070
3 2082 1334 2101
3 963 1115 1174
3 1047 1049 1287
3 1194 423 1196
3 321 326 2050
3 417 1160 2031
3 854 1133 1973
3 1201 1212 1348
3 705 1586 2163
3 309 319 1959
3 1353 1390 2417
3 427 428 429
3 357 356 359
3 606 650 2001
3 549 1280 2124
3 1213 1112 1407
3 256 2303 2535
3 356 365 2065
3 662 664 2040
3 701 894 2039
3 1325 1371 2451
3 666 626 667
3 1902 93 2166
3 1236 1234 1246
3 800 839 2055
3 1869 1812 2252
3 1197 1364 1365
3 576 1935 2080
3 404 408 798
3 1678 807 2529
3 1560 1564 2016
3 1319 2039 2122
3 425 426 427
3 349 356 357
3 308 310 327
3 1716 622 2484
3 1801 82 2289
3 1768 1949 2420
3 2006 1926 2507
3 351 364 2407
3 420 423 1193
3 659 764 1963
3 292 294 2038
3 840 842 2027
3 736 279 2049
3 372 373 374
3 461 449 2052
3 2189 1195 2285
3 1174 1115 1398
3 367 363 961
3 909 908 918
3 1738 247 2402
3 1007 1761 2308
3 288 290 2135
3 422 441 2035
3 623 624 690
3 537 525 545
3 1953 1421 2454
3 1887 1968 2123
3 861 691 862
3 654 439 2223
3 1136 1080 2054
3 1312 1811 2089
3 575 571 2032
3 383 361 384
3 968 1200 1201
3 797 661 2058
3 1423 1354 2381
3 1180 1178 1181
3 1513 1515 2180
3 72 73 2217
3 462 445 463
3 12 13 2136
3 457 458 469
3 542 554 555
3 599 636 760
3 254 133 1766
3 1130 1397 1937
3 404 798 2060
3 1044 1942 2071
3 690 691 860
3 357 359 360
3 1008 2027 2152
3 1232 1230 1255
3 372 370 373
3 850 943 2125
3 1457 1456 1492
3 1952 324 2282
3 155 2 2356
3 0 7 2357
3 2017 1379 2288
3 918 1851 2008
3 195 1991 2517
3 2090 803 2347
3 1244 1243 1251
3 290 292 368
3 1432 1082 2214
3 1008 840 2027
3 1743 803 2296
3 1013 844 2039
3 365 1162 2065
3 1594 1315 2184
3 387 384 388
3 1508 1860 2311
3 547 527 2056
3 2005 225 2322
3 314 317 2127
3 1853 556 2327
3 201 6 278
3 1907 1644 2417
3 1896 2101 2108
3 646 645 784
3 538 508 558
3 374 375 377
3 1630 1634 1635
3 1579 1999 2352
3 1647 1648 1849
3 1313 1314 2121
3 1179 1433 2042
3 844 701 2039
3 1252 1251 2098
3 816 876 925
3 1922 1228 2281
3 392 394 396
3 1915 654 2294
3 1652 1653 2487
3 429 430 436
3 456 475 476
3 1605 1392 2510
3 126 1882 2284
3 1784 1780 2419
3 500 453 960
3 377 378 381
3 2178 1587 2300
3 1222 1219 1626
3 413 419 420
3 381 382 400
3 2169 1836 2223
3 1906 1905 2129
3 616 614 793
3 1170 1419 2139
3 101 189 2220
3 241 100 2220
3 1968 1111 2123
3 567 434 2031
3 615 614 616
3 1032 720 1921
3 682 428 2138
3 469 470 473
3 339 440 2261
3 1501 238 2226
3 1154 1431 1653
3 446 447 457
3 1251 1243 1257
3 2229 315 2495
3 1201 1202 1212
3 785 784 879
3 464 463 465
3 66 2118 2395
3 324 332 2282
3 286 288 771
3 17 199 2081
3 571 570 721
3 611 610 2092
3 617 616 618
3 1542 1531 2332
3 400 401 424
3 1325 1326 1371
3 1140 1406 1702
3 1323 443 2302
3 1926 1573 2507
3 436 437 446
3 1262 1457 2098
3 67 190 2118
3 1518 1861 2449
3 989 1359 1360
3 1063 1082 1154
3 1757 96 2526
3 969 967 1011
3 868 836 2095
3 1215 1035 2235
3 96 1757 2309
3 261 2160 2380
3 1381 1382 2126
3 1468 1469 2182
3 1334 1317 2108
3 861 863 1064
3 1270 1261 1271
3 360 361 383
3 287 316 1978
3 1856 192 2367
3 1905 241 2129
3 1615 1809 2425
3 528 523 560
3 979 980 989
3 662 2040 2058
3 721 964 965
3 170 171 2216
3 664 799 2040
3 512 511 523
3 1201 1348 2107
3 620 618 858
3 758 289 1978
3 859 858 998
3 424 425 453
3 1616 1615 2193
3 444 301 1975
3 561 560 593
3 965 966 967
3 1798 376 2430
3 340 2014 2091
3 510 465 511
3 107 195 1990
3 1080 1188 2054
3 1153 998 1312
3 1226 1224 1249
3 1012 1011 1363
3 902 904 905
3 842 963 2027
3 268 270 1134
3 865 901 1125
3 2077 558 2102
3 282 284 442
3 1977 1679 2253
3 1496 1498 2047
3 284 286 2063
3 281 736 1938
3 2132 793 2165
3 1674 215 2437
3 2078 1855 2411
3 839 1009 2055
3 1182 824 1183
3 1168 947 1169
3 1289 1871 2242
3 316 285 1971
3 1270 1271 1272
3 1755 1793 2264
3 51 1996 2011
3 383 384 387
3 1146 1924 2215
3 1279 1928 2202
3 619 618 620
3 1194 1196 1197
3 555 578 979
3 1937 1639 2528
3 1262 1257 1263
3 389 384 2339
3 2251 1338 2464
3 1155 1887 2123
3 1151 1937 2528
3 465 463 828
3 1318 1319 2116
3 1687 1688 2231
3 326 954 2050
3 297 318 1984
3 1308 953 2255
3 1846 2056 2198
3 320 315 2229
3 1254 1252 2059
3 760 761 783
3 951 1281 2255
3 1459 1296 2094
3 2288 1638 2470
3 1975 299 1984
3 52 247 1996
3 468 338 2090
3 2140 1511 2506
3 1125 1126 1192
3 593 824 1182
3 720 708 1921
3 704 706 707
3 623 587 624
3 2044 1112 2152
3 1393 1169 1749
3 900 983 2119
3 783 914 938
3 255 2265 2489
3 2039 894 2122
3 317 2050 2127
3 1866 1867 2513
3 374 373 375
3 429 436 455
3 387 388 445
3 1193 423 1194
3 555 577 578
3 1074 977 1187
3 449 567 2052
3 1197 1198 1364
3 2154 1595 2486
3 1486 1849 2173
3 318 295 1983
3 939 1016 1844
3 131 132 2160
3 30 31 2159
3 881 1146 2215
3 1294 1868 2238
3 1300 1455 2314
3 1365 1364 1912
3 783 938 939
3 2061 1735 2441
3 551 545 601
3 2194 216 2536
3 1251 1257 1262
3 888 887 2177
3 1364 1198 2048
3 1498 1682 2340
3 1589 1590 2501
3 60 188 2266
3 1401 1913 2324
3 195 108 1991
3 420 422 423
3 1675 1470 2474
3 258 1673 2183
3 2161 1619 2438
3 1296 1472 2094
3 1808 1910 2381
3 334 803 2090
3 1490 1285 2232
3 523 511 524
3 1240 1238 2074
3 1184 1183 1185
3 39 40 2151
3 473 474 477
3 1461 1463 2200
3 2072 353 2073
3 861 862 863
3 1206 1941 2401
3 958 1575 2287
3 614 611 2092
3 110 111 2140
3 1136 2054 2110
3 645 594 2133
3 260 33 2002
3 673 767 2131
3 989 980 1359
3 1741 2131 2258
3 1317 1875 2148
3 894 1946 2122
3 863 864 865
3 787 461 2052
3 857 2277 2386
3 109 246 1991
3 2017 116 2018
3 1182 1183 1184
3 377 375 378
3 816 925 1324
3 865 866 901
3 1262 1263 1456
3 359 356 2065
3 2129 241 2472
3 283 1938 1971
3 1458 1210 2203
3 1076 1003 2145
3 196 1738 2402
3 1033 1130 1151
3 1188 1121 2106
3 1140 1702 2096
3 549 687 1280
3 1694 1621 2191
3 861 1064 2112
3 1548 1549 2129
3 1784 1071 2462
3 714 716 2066
3 1961 825 2455
3 1447 1211 2250
3 979 578 980
3 905 907 1209
3 381 378 382
3 457 469 552
3 595 575 2032
3 408 413 2084
3 481 483 2144
3 1745 1349 2293
3 1980 1405 2441
3 198 50 2011
3 248 115 2017
3 912 819 2068
3 620 858 859
3 707 708 720
3 821 674 822
3 514 542 2086
3 400 382 401
3 123 2005 2012
3 1772 1351 2374
3 34 239 2002
3 768 314 2127
3 2003 36 2004
3 280 282 2079
3 124 225 2005
3 596 595 2130
3 593 560 824
3 1504 1502 2519
3 239 35 2003
3 1311 1309 2147
3 1318 1877 2240
3 1860 1432 2311
3 1416 1715 2330
3 859 998 1153
3 352 353 2072
3 312 768 1987
3 2027 1174 2152
3 226 38 2006
3 1827 1024 2117
3 1710 1391 2295
3 690 624 691
3 37 226 2004
3 1153 1312 1885
3 853 855 2186
3 1892 242 2373
3 1967 520 2174
3 939 938 1016
3 47 249 2019
3 388 390 2078
3 1991 2139 2517
3 905 906 907
3 571 721 2032
3 1196 423 2035
3 1324 925 1325
3 1151 1130 1937
3 363 352 2072
3 345 349 2076
3 1031 1032 1033
3 214 179 1859
3 211 122 2012
3 602 601 652
3 117 205 2018
3 710 712 2067
3 1602 187 2357
3 520 2000 2174
3 85 242 2335
3 220 84 2335
3 381 400 2113
3 1586 1587 2435
3 424 401 425
3 963 1174 2027
3 860 691 861
3 610 596 2130
3 1958 2078 2431
3 570 547 2056
3 237 2216 2354
3 1211 1692 2219
3 298 358 1997
3 909 947 1041
3 441 456 2097
3 1135 1647 1849
3 1601 1542 2443
3 197 113 2009
3 49 198 2010
3 1911 347 2407
3 1729 191 2309
3 212 41 2020
3 121 211 2013
3 222 105 2218
3 1125 901 1126
3 114 248 2009
3 249 48 2010
3 42 250 2020
3 251 120 2013
3 233 1769 2369
3 1870 647 2113
3 794 345 2076
3 250 43 2024
3 119 251 2021
3 901 902 2141
3 964 570 2056
3 739 335 2261
3 2108 1317 2148
3 577 599 2083
3 205 118 2021
3 44 206 2024
3 1247 1241 2323
3 1894 992 2244
3 6 203 2049
3 1642 1678 2529
3 1417 1873 2333
3 1422 2023 2516
3 341 794 2100
3 73 74 2361
3 1234 1232 2088
3 1261 1254 2059
3 896 1077 2257
3 1921 710 2067
3 125 126 2284
3 220 1699 2289
3 159 5 2304
3 4 184 2303
3 2059 1252 2098
3 1003 1004 2145
3 2328 1325 2451
3 1486 227 1500
3 63 64 2162
3 2081 1192 2260
3 508 500 2102
3 667 1872 2318
3 338 334 2090
3 423 422 2035
3 1192 1126 1471
3 907 908 909
3 1330 1328 2192
3 1972 897 2500
3 2443 316 2514
3 242 86 2373
3 87 193 2373
3 420 1193 2084
3 1473 1086 2358
3 1987 768 2037
3 522 337 2100
3 627 1660 2185
3 1793 446 2264
3 1405 2061 2441
3 1502 1217 2302
3 171 201 2216
3 1158 1993 2153
3 1197 1365 2120
3 1712 1710 2295
3 1121 1401 2414
3 93 94 2166
3 653 652 688
3 622 1716 2452
3 1345 1720 2267
3 477 537 556
3 128 129 2181
3 2331 1295 2458
3 784 645 874
3 1269 1270 2199
3 189 102 2355
3 1041 1168 1343
3 246 110 2140
3 477 525 537
3 755 1895 2371
3 1947 1723 2313
3 1134 1135 2369
3 223 65 2395
3 968 1201 2107
3 1577 1578 2325
3 210 15 2477
3 961 363 2072
3 1581 1579 2352
3 349 357 2076
3 337 341 2100
3 305 303 2317
3 370 367 2103
3 762 296 1997
3 581 580 2164
3 1278 1838 2372
3 1548 2129 2472
3 594 593 2133
3 2021 251 2022
3 2047 1247 2182
3 967 968 2107
3 1169 947 2008
3 481 2144 2169
3 793 614 2092
3 1910 217 2381
3 1251 1262 2098
3 716 788 2066
3 2101 1334 2108
3 2006 39 2151
3 1603 2379 2508
3 1926 2006 2151
3 96 97 2526
3 750 755 2371
3 789 714 2066
3 909 918 947
3 1993 895 2153
3 106 1990 2218
3 1243 1240 2074
3 832 986 1189
3 1283 1284 2342
3 2297 195 2517
3 1043 829 2326
3 767 816 2131
3 602 653 676
3 1004 912 2068
3 2086 1886 2224
3 1124 2177 2467
3 426 401 2531
3 707 720 1030
3 1000 1001 2184
3 1315 1029 2184
3 467 481 2169
3 541 513 2256
3 647 381 2113
3 225 2284 2510
3 2 156 2356
3 187 0 2357
3 40 212 2151
3 2245 1386 2383
3 676 677 829
3 1004 2068 2069
3 1860 232 2487
3 1031 1033 1034
3 829 830 972
3 996 997 2408
3 1195 1194 2120
3 987 1869 2202
3 1410 1213 2222
3 819 820 2068
3 1485 1486 2173
3 1564 2030 2155
3 807 669 2529
3 129 261 2181
3 1525 1076 2145
3 578 577 2083
3 327 310 1987
3 1083 929 2197
3 2131 1324 2258
3 798 408 2084
3 1838 696 2426
3 1486 1500 1930
3 1946 1944 2291
3 2257 1077 2291
3 1512 1661 2266
3 445 388 2078
3 1192 1471 2260
3 2118 1415 2395
3 1466 1468 2158
3 830 677 831
3 211 2012 2251
3 652 601 2442
3 537 545 551
3 558 508 2102
3 198 2011 2128
3 1718 2280 2385
3 500 960 2102
3 1168 1169 1393
3 1127 971 2496
3 95 96 2309
3 2030 1565 2155
3 1919 1172 2273
3 977 860 2112
3 240 128 2181
3 294 762 2038
3 1800 1799 2195
3 712 789 2067
3 972 1749 2326
3 472 1683 2212
3 874 645 2133
3 551 2045 2201
3 2105 1043 2326
3 1957 1212 2301
3 1514 1856 2367
3 565 538 2167
3 373 370 2103
3 355 348 2196
3 1934 1272 2138
3 1934 426 2531
3 1881 1400 2481
3 2046 1851 2327
3 367 961 2103
3 1963 1152 2206
3 201 278 443
3 3 131 2444
3 31 1 2445
3 2035 441 2097
3 503 787 2198
3 1135 1849 1930
3 1534 1983 2306
3 2089 623 2150
3 687 704 2109
3 869 1351 2363
3 1302 1304 2205
3 955 1716 2484
3 1030 720 1031
3 1159 1318 2240
3 1228 1226 2281
3 947 918 2008
3 413 420 2084
3 785 879 2532
3 1041 947 1168
3 1468 2182 2323
3 1246 1234 2088
3 1730 1163 2372
3 542 555 2086
3 1599 631 2312
3 1146 1967 2174
3 1078 1136 2343
3 1515 1574 2180
3 2336 885 2469
3 1257 1243 2074
3 1347 1346 2279
3 2001 650 2206
3 1480 1601 2514
3 1029 1000 2184
3 1956 788 2336
3 1271 1261 2059
3 130 3 2444
3 1 32 2445
3 1570 1507 2197
3 1232 1255 2088
3 791 1642 2529
3 1601 1479 2269
3 1361 1362 2168
3 1634 1922 2281
3 765 2065 2190
3 2071 1158 2153
3 1699 1801 2289
3 832 831 833
3 1864 346 2344
3 456 476 2097
3 1855 828 2411
3 2065 1162 2190
3 1125 1192 2149
3 599 760 2083
3 361 765 2339
3 1731 2123 2241
3 1349 1181 1350
3 1443 1275 2251
3 1819 524 2429
3 1021 1045 2512
3 858 618 2132
3 1999 358 2338
3 368 292 2038
3 290 368 2135
3 803 331 2296
3 1112 1008 2152
3 56 1947 2313
3 555 979 2086
3 1469 1496 2182
3 1011 967 2107
3 248 2017 2288
3 1809 789 2425
3 960 453 2221
3 538 558 2167
3 1858 1187 2248
3 2246 1757 2526
3 902 905 2141
3 1851 1853 2327
3 1224 1222 2111
3 771 288 2135
3 1945 2153 2257
3 1420 1525 2489
3 1399 1123 2393
3 103 2025 2355
3 897 822 898
3 1861 940 2532
3 865 1125 2146
3 1675 2474 2522
3 1573 2157 2507
3 1632 1631 2382
3 551 601 602
3 527 503 2198
3 1708 805 2337
3 1059 1278 2372
3 2056 527 2198
3 860 861 2112
3 1668 2348 2398
3 255 2159 2265
3 1541 1542 2269
3 1428 2074 2227
3 1582 1583 2321
3 389 1774 2503
3 2004 226 2157
3 1777 397 2405
3 1368 1436 2254
3 1061 2409 2462
3 1071 930 2462
3 1126 901 2141
3 1194 1197 2120
3 1452 1952 2282
3 2116 1319 2482
3 105 106 2218
3 1981 1399 2393
3 2119 983 2143
3 444 1682 2461
3 2173 1648 2463
3 616 793 2132
3 1791 1190 2334
3 1826 1728 2259
3 602 652 653
3 1834 1292 2428
3 556 2201 2327
3 1014 1015 2385
3 1995 1287 2331
3 1193 1195 2189
3 816 1324 2131
3 879 1861 2532
3 593 1182 2133
3 1402 266 1742
3 2216 1323 2354
3 1660 1636 2502
3 620 955 2484
3 1162 1706 2190
3 1870 2113 2249
3 204 1680 1732
3 1909 2023 2420
3 217 72 2217
3 376 372 2430
3 905 1209 2141
3 1378 1381 2283
3 1236 1246 2227
3 286 771 2063
3 1635 2263 2502
3 100 101 2220
3 1139 898 1140
3 2114 1343 2136
3 442 284 2063
3 1772 2106 2414
3 1985 1755 2533
3 2192 1328 2315
3 1064 863 2146
3 1631 1637 2459
3 736 2049 2523
3 221 1906 2246
3 318 1983 2171
3 1496 2047 2182
3 1374 2139 2506
3 196 55 2313
3 2087 462 2134
3 676 653 677
3 2304 257 2491
3 1401 2324 2363
3 829 677 830
3 654 2223 2242
3 1187 977 2112
3 1463 1466 2200
3 2023 219 2516
3 1176 881 2215
3 513 471 2290
3 1812 459 2252
3 1386 1269 2199
3 291 758 2306
3 618 616 2132
3 278 280 2210
3 83 220 2289
3 82 83 2289
3 938 1057 2161
3 1189 986 1190
3 788 719 2336
3 1914 2001 2206
3 232 181 1652
3 1567 2062 2490
3 313 757 2495
3 622 619 2484
3 688 878 1320
3 1222 1626 2111
3 282 442 2079
3 1169 2008 2105
3 1966 1007 2308
3 2040 799 2237
3 1744 2229 2495
3 986 833 1063
3 2284 1605 2510
3 887 1961 2376
3 215 1624 2262
3 830 831 832
3 476 475 2224
3 439 451 2223
3 1932 1933 2380
3 2227 1246 2366
3 1212 1202 2301
3 1107 1110 2228
3 249 2010 2299
3 1983 293 2306
3 2055 1214 2237
3 1438 1372 2478
3 824 560 2156
3 2320 1866 2513
3 1351 1137 2374
3 868 2007 2232
3 2063 771 2064
3 1507 214 1508
3 1728 1727 2246
3 1045 1047 2348
3 1139 1140 2096
3 1648 1649 2463
3 1502 2302 2519
3 704 707 2109
3 2343 1136 2396
3 650 1963 2206
3 2153 895 2257
3 396 1958 2431
3 1379 1377 2288
3 2115 1471 2319
3 2033 987 2202
3 2239 1693 2518
3 2025 1488 2355
3 1209 2115 2319
3 523 524 2156
3 783 939 2243
3 376 1798 2497
3 2066 788 2193
3 1984 318 2172
3 425 427 2221
3 203 172 1847
3 446 457 2264
3 1312 2089 2150
3 2138 1272 2211
3 897 1139 2274
3 828 1819 2429
3 1249 1224 2111
3 666 667 2318
3 1371 1326 2194
3 2433 1499 2475
3 1272 1271 2211
3 1367 2254 2479
3 1386 2053 2383
3 2074 1238 2227
3 755 2148 2320
3 2117 1604 2428
3 475 514 2224
3 228 2187 2457
3 1868 1504 2520
3 1626 1218 2185
3 2123 1111 2241
3 1287 1049 2331
3 1280 687 2109
3 459 1814 2292
3 54 196 2402
3 863 865 2146
3 204 176 1680
3 514 2086 2224
3 1646 603 2398
3 112 197 2346
3 358 300 2338
3 1140 898 1141
3 1204 1335 2301
3 1016 2161 2438
3 909 1041 2175
3 1681 2448 2492
3 2252 459 2292
3 1992 868 2232
3 1035 1036 2235
3 1051 1295 2331
3 1836 1289 2242
3 1508 214 1859
3 247 53 2402
3 1016 938 2161
3 1408 856 2378
3 1466 2158 2200
3 725 885 2336
3 855 1450 2421
3 2023 1768 2420
3 1238 1236 2227
3 1679 202 2253
3 2107 1348 2233
3 1653 1431 2487
3 1946 2291 2343
3 2253 202 2329
3 1885 1312 2150
3 378 628 2390
3 2195 1383 2432
3 1520 1519 2480
3 1532 1733 2534
3 308 327 2278
3 953 951 2255
3 1213 1407 2222
3 1561 1563 2285
3 302 763 2338
3 1928 2033 2202
3 763 304 2345
3 832 833 986
3 1352 2040 2237
3 247 1881 2481
3 560 523 2156
3 335 339 2261
3 346 342 2344
3 201 443 1323
3 2301 1335 2466
3 323 320 2229
3 1136 2110 2396
3 1139 1977 2274
3 1809 1615 2423
3 1707 1791 2334
3 46 2019 2485
3 2064 1294 2238
3 1950 197 2404
3 2021 2022 2176
3 1949 245 2420
3 2044 2152 2207
3 1063 1154 1707
3 1012 1363 2406
3 280 2079 2210
3 2237 1214 2351
3 820 698 2318
3 1140 1141 1406
3 205 2021 2176
3 2043 786 2310
3 2145 1004 2446
3 707 1030 2109
3 1406 2460 2473
3 2137 1268 2226
3 16 2081 2260
3 567 2031 2219
3 2112 1064 2248
3 206 45 2485
3 2347 1462 2365
3 1650 1962 2362
3 453 425 2221
3 1209 907 2175
3 1111 1276 2241
3 2448 1145 2492
3 2051 2083 2243
3 59 60 2266
3 1402 1742 2530
3 831 677 2209
3 624 587 2276
3 238 174 1725
3 1011 2107 2233
3 468 2365 2412
3 2337 805 2371
3 254 1932 2380
3 1174 1398 2207
3 2140 111 2346
3 1381 2186 2283
3 1987 2037 2188
3 1740 559 2456
3 1773 391 2503
3 1335 1870 2249
3 1945 2257 2291
3 828 463 2411
3 1246 2088 2208
3 2060 798 2307
3 1773 1159 2240
3 1187 2112 2248
3 1352 2237 2351
3 2037 1322 2188
3 1941 1499 2433
3 2322 225 2510
3 1031 1034 2236
3 327 2188 2321
3 595 2032 2273
3 1464 1462 2347
3 1285 1992 2232
3 799 2055 2237
3 443 278 2210
3 784 874 2178
3 392 396 2431
3 191 95 2309
3 879 784 2178
3 524 511 2429
3 2128 2011 2270
3 895 896 2257
3 2206 1152 2324
3 318 2171 2172
3 2259 1549 2379
3 1214 1410 2351
3 306 308 2278
3 2022 251 2247
3 1757 1729 2309
3 1283 1918 2524
3 996 1706 2492
3 557 2044 2207
3 1798 1448 2364
3 1447 2250 2310
3 559 1750 2403
3 1363 1011 2233
3 1343 1168 2187
3 1407 2044 2256
3 1462 1460 2365
3 1995 2331 2458
3 327 1987 2188
3 2160 254 2380
3 1681 958 2287
3 2031 1160 2250
3 1600 689 2413
3 2219 1692 2239
3 1494 1675 2522
3 1281 1916 2448
3 907 909 2175
3 565 2167 2276
3 2241 1276 2275
3 1978 316 2443
3 2151 212 2350
3 203 1847 2104
3 2049 1481 2523
3 1961 1362 2376
3 2187 1393 2457
3 940 796 2532
3 2293 1349 2329
3 572 1897 2537
3 332 739 2282
3 2052 567 2239
3 1437 1370 2277
3 567 2219 2239
3 667 626 2452
3 1914 2206 2324
3 2243 939 2392
3 2136 1343 2187
3 257 1654 2530
3 1376 1378 2283
3 2076 1982 2272
3 2083 760 2243
3 1944 1945 2291
3 1771 1839 2359
3 1404 1403 2399
3 1875 1866 2320
3 1460 1337 2412
3 760 783 2243
3 1276 1366 2275
3 1428 2227 2366
3 1882 1605 2284
3 1739 1429 2459
3 2321 2188 2434
3 1328 1327 2315
3 798 2189 2307
3 2152 1174 2207
3 2182 1247 2323
3 1516 1514 2367
3 293 291 2306
3 556 537 2201
3 1298 1300 2314
3 1400 1399 2316
3 1649 2236 2463
3 833 831 2424
3 2127 2050 2333
3 1057 914 2328
3 1839 193 2359
3 761 1741 2258
3 1186 1970 2422
3 1429 2366 2382
3 2211 1271 2271
3 1733 1248 2534
3 13 2114 2136
3 2078 390 2431
3 1533 1536 2340
3 1690 2145 2446
3 1277 2308 2370
3 1168 1393 2187
3 1597 2047 2268
3 587 565 2276
3 1908 244 2401
3 225 125 2284
3 610 2130 2468
3 1749 2105 2326
3 1913 1914 2324
3 2366 2208 2382
3 1391 1876 2295
3 457 552 2264
3 653 688 2209
3 1601 2443 2514
3 682 2138 2211
3 992 1980 2244
3 55 56 2313
3 1645 1495 2493
3 473 477 2483
3 202 1724 2329
3 465 828 2429
3 1277 1966 2308
3 1416 2330 2406
3 1912 1364 2455
3 1716 1483 2375
3 2019 1651 2485
3 1725 2137 2226
3 201 1323 2216
3 878 1083 2213
3 2072 2073 2245
3 1563 1777 2405
3 244 2028 2401
3 2016 1564 2422
3 1682 1497 2461
3 1962 1153 2362
3 1298 2314 2358
3 1384 1385 2391
3 688 1320 2209
3 1587 2179 2435
3 786 380 2497
3 1395 1522 2341
3 2032 1919 2273
3 251 2013 2247
3 2219 2031 2250
3 2397 552 2453
3 1765 255 2489
3 2475 1825 2524
3 1202 1204 2301
3 445 2078 2411
3 323 2229 2296
3 1286 2384 2408
3 537 551 2201
3 1724 237 2293
3 84 85 2335
3 1471 1126 2319
3 1635 1634 2511
3 300 302 2338
3 698 666 2318
3 1030 1031 2236
3 2098 1457 2271
3 696 1821 2426
3 1457 1492 2447
3 1956 2336 2469
3 331 323 2296
3 1284 1491 2342
3 2011 1996 2270
3 256 183 2303
3 160 257 2304
3 2204 1589 2501
3 1891 1014 2280
3 719 725 2336
3 1354 1808 2381
3 437 430 2494
3 2377 218 2391
3 2211 2271 2447
3 1407 2256 2290
3 2365 1460 2412
3 2047 1498 2268
3 1825 1283 2524
3 1499 1825 2475
3 1226 1249 2281
3 2051 2243 2392
3 2250 1160 2310
3 111 112 2346
3 304 306 2345
3 1341 1352 2351
3 2166 191 2504
3 2223 1836 2242
3 1996 247 2481
3 1049 1051 2331
3 1086 1298 2358
3 2130 595 2273
3 1249 2111 2263
3 680 1995 2458
3 1511 2140 2346
3 102 103 2355
3 469 473 2453
3 961 2072 2245
3 2073 1282 2245
3 1442 1443 2525
3 74 192 2361
3 2163 1586 2435
3 1519 1518 2449
3 897 2274 2500
3 303 444 2317
3 1615 1614 2423
3 197 2009 2404
3 1634 2281 2511
3 1780 1781 2419
3 1435 1623 2465
3 1286 1774 2384
3 384 361 2339
3 193 1901 2359
3 1165 2433 2475
3 2277 1370 2386
3 677 653 2209
3 1994 1516 2367
3 1479 1478 2440
3 1165 1512 2433
3 1644 1353 2417
3 1711 1712 2353
3 2193 1615 2425
3 1613 1956 2469
3 1440 1173 2330
3 2269 1479 2440
3 222 2218 2465
3 391 389 2503
3 306 2278 2345
3 468 2090 2365
3 221 2246 2526
3 1445 1446 2504
3 939 1844 2392
3 86 87 2373
3 1429 1428 2366
3 2053 2103 2383
3 1348 1212 2312
3 805 750 2371
3 997 1286 2408
3 1152 869 2363
3 2063 2064 2238
3 192 1994 2367
3 1160 2043 2310
3 1926 2151 2350
3 2059 2098 2271
3 1897 1366 2537
3 215 2262 2437
3 1655 1732 2476
3 2415 1128 2454
3 1320 2213 2214
3 7 258 2357
3 259 155 2356
3 2171 1530 2172
3 347 351 2407
3 1077 1078 2343
3 239 2003 2279
3 1446 1128 2415
3 1034 1033 2410
3 601 627 2442
3 1154 1653 2234
3 397 2060 2405
3 2142 794 2272
3 442 2063 2238
3 1863 1215 2378
3 794 2076 2272
3 1883 1375 2505
3 1320 878 2213
3 342 468 2344
3 1903 218 2377
3 380 376 2497
3 1549 1547 2379
3 1148 1165 2475
3 2157 226 2507
3 829 972 2326
3 884 1957 2466
3 2291 1077 2343
3 65 66 2395
3 787 2052 2518
3 2298 1348 2312
3 1946 2343 2396
3 1653 256 2535
3 1842 1548 2472
3 1957 2301 2466
3 1366 1277 2370
3 2213 1432 2214
3 961 2245 2383
3 218 2093 2391
3 1376 2283 2421
3 1873 2127 2333
3 1019 1021 2512
3 1128 1127 2454
3 1104 1434 2450
3 2130 1439 2468
3 2396 2110 2482
3 2186 855 2283
3 1724 2293 2329
3 1163 1059 2372
3 1614 2389 2423
3 53 54 2402
3 1063 1707 2334
3 2283 855 2421
3 1385 1863 2436
3 364 1883 2505
3 517 1890 2387
3 1145 996 2492
3 1047 1287 2348
3 2148 1875 2320
3 205 2176 2416
3 1372 1844 2478
3 1211 2219 2250
3 1141 898 2368
3 245 1909 2420
3 2278 327 2321
3 2389 1397 2423
3 2256 513 2290
3 559 2403 2456
3 1137 1340 2374
3 2093 1384 2391
3 1918 1148 2524
3 1030 2236 2427
3 1867 1895 2513
3 2014 517 2387
3 2271 1457 2447
3 1143 2028 2353
3 1904 194 2432
3 1148 2475 2524
3 1574 1523 2436
3 2213 1083 2311
3 1997 358 2325
3 2139 246 2506
3 1370 1369 2386
3 1271 2059 2271
3 1034 2173 2463
3 1123 1412 2393
3 1578 1827 2515
3 2209 1320 2424
3 2079 1504 2210
3 1361 2168 2305
3 1491 1489 2403
3 238 1725 2226
3 1190 986 2334
3 1547 1545 2508
3 1891 1613 2469
3 1153 1885 2362
3 2208 1632 2382
3 2287 1281 2448
3 1356 1376 2421
3 1965 2349 2515
3 2155 1186 2422
3 1522 2014 2387
3 2158 1468 2323
3 2050 954 2333
3 1397 1809 2423
3 1362 1360 2376
3 1852 1985 2397
3 2069 1691 2446
3 789 2066 2425
3 1895 755 2513
3 1707 1154 2234
3 372 374 2430
3 2225 787 2518
3 2028 1206 2401
3 986 1063 2334
3 1912 726 2439
3 1340 1342 2400
3 1916 1145 2448
3 2236 1649 2427
3 2374 1340 2400
3 2222 1407 2290
3 2324 1152 2363
3 241 2220 2472
3 765 2190 2384
3 2375 667 2452
3 2330 1173 2406
3 1181 1972 2500
3 2126 1382 2388
3 1173 1012 2406
3 315 313 2495
3 1015 1373 2385
3 97 221 2526
3 1937 1397 2389
3 930 1061 2462
3 971 1096 2496
3 45 46 2485
3 669 791 2529
3 1104 2450 2521
3 382 378 2390
3 2191 1371 2536
3 2235 1036 2286
3 831 2209 2424
3 762 1997 2349
3 2379 1547 2508
3 2177 1359 2467
3 2403 1489 2456
3 796 785 2532
3 219 1902 2516
3 1519 2300 2480
3 1065 1655 2476
3 1375 1473 2505
3 1489 1490 2456
3 390 392 2431
3 2247 2013 2464
3 1135 1930 2369
3 2278 1583 2345
3 626 622 2452
3 631 2298 2312
3 2233 1348 2298
3 1398 1974 2499
3 1706 1681 2492
3 261 130 2444
3 32 260 2445
3 822 2099 2368
3 1365 1912 2439
3 941 940 2418
3 1446 2166 2504
3 2106 1121 2414
3 2300 1519 2449
3 1803 1104 2521
3 1732 1570 2476
3 1413 2051 2392
3 2122 1946 2396
3 2238 1868 2520
3 477 556 2483
3 2397 1985 2533
3 463 445 2411
3 2163 1185 2488
3 1126 2141 2319
3 1755 2264 2533
3 972 2204 2501
3 2230 1533 2340
3 1774 1773 2503
3 1997 2325 2349
3 1004 2069 2446
3 2159 31 2445
3 131 2160 2444
3 1371 2191 2451
3 1001 2154 2486
3 1682 2230 2340
3 2103 961 2383
3 1033 1151 2410
3 382 2390 2531
3 1504 2079 2520
3 1583 2278 2321
3 511 465 2429
3 250 2024 2479
3 2208 2088 2509
3 619 620 2484
3 1246 2208 2366
3 2141 1209 2319
3 1359 1413 2467
3 1295 1459 2458
3 2218 1435 2465
3 2281 1249 2511
3 2293 237 2354
3 2207 1398 2499
3 1564 2155 2422
3 552 469 2453
3 1947 224 2498
3 2062 1568 2490
3 2018 205 2416
3 260 2159 2445
3 2160 261 2444
3 2092 610 2468
3 194 2195 2432
3 1432 2213 2311
3 211 2251 2464
3 2378 856 2527
3 1536 1532 2534
3 2364 786 2497
3 2438 1438 2478
3 1185 1948 2488
3 2042 941 2418
3 1582 2321 2434
3 885 1891 2469
3 1364 2048 2455
3 1693 2225 2518
3 401 382 2531
3 1338 2247 2464
3 442 2238 2520
3 1292 2117 2428
3 2274 1350 2500
3 2066 2193 2425
3 2179 1184 2435
3 898 822 2368
3 2436 1863 2527
3 1844 1016 2478
3 2184 1001 2486
3 557 2207 2499
3 2013 211 2464
3 2254 250 2479
3 1350 1181 2500
3 2009 248 2470
3 246 2140 2506
3 1574 2436 2527
3 2139 1419 2517
3 316 1971 2514
3 1319 2122 2482
3 226 2006 2507
3 1400 2270 2481
3 1681 2287 2448
3 2325 1578 2349
3 232 1652 2487
3 1320 2214 2424
3 1632 2208 2509
3 248 2288 2470
3 1406 1141 2460
3 2188 1322 2434
3 2244 1980 2441
3 2088 1255 2509
3 1280 2109 2427
3 2060 2307 2405
3 2236 1034 2463
3 1745 2293 2354
3 2122 2396 2482
3 2109 1030 2427
3 2307 1563 2405
3 1429 2382 2459
3 224 2267 2498
3 682 2211 2447
3 2079 442 2520
3 2348 1287 2398
3 2220 1842 2472
3 1335 2249 2466
3 1249 2263 2511
3 443 2210 2519
3 2385 1373 2394
3 1594 2184 2486
3 2052 2239 2518
3 1568 2439 2490
3 2349 1578 2515
3 2344 468 2412
3 2270 1996 2481
3 1735 2244 2441
3 2260 1471 2477
3 2210 1504 2519
3 1434 2297 2450
3 2297 1419 2450
3 2263 1660 2502
3 2404 2009 2470
3 1718 2385 2394
3 1371 2194 2536
3 2317 444 2461
3 1443 2322 2525
3 1716 2375 2452
3 1863 2378 2527
3 2439 726 2490
3 1057 2328 2451
3 1638 2404 2470
3 1454 2234 2535
3 755 2320 2513
3 2234 1653 2535
3 2264 552 2533
3 1419 2297 2517
3 1392 2322 2510
3 552 2397 2533
3 1798 2364 2497
3 2322 1392 2525
3 2382 1631 2459
3 1016 2438 2478
3 1366 2370 2537
3 1742 2491 2530
3 2491 257 2530
CELL_TYPES 4886
5
5
5
5
5
5
5
5
5
5
5
5
5
5
5
5
5
5
5
5
5
5
5
5
5
5
5
5
5
5
5
5
5
5
5
5
5
5
5
5
5
5
5
5
5
5
5
5
5
5
5
5
5
5
5
5
5
5
5
5
5
5
5
5
5
5
5
5
5
5
5
5
5
5
5
5
5
5
5
5
5
5
5
5
5
5
5
5
5
5
5
5
5
5
5
5
5
5
5
5
5
5
5
5
5
5
5
5
5
5
5
5
5
5
5
5
5
5
5
5
5
5
5
5
5
5
5
5
5
5
5
5
5
5
5
5
5
5
5
5
5
5
5
5
5
5
5
5
5
5
5
5
5
5
5
5
5
5
5
5
5
5
5
5
5
5
5
5
5
5
5
5
5
5
5
5
5
5
5
5
5
5
5
5
5
5
5
5
5
5
5
5
5
5
5
5
5
5
5
5
5
5
5
5
5
5
5
5
5
5
5
5
5
5
5
5
5
5
5
5
5
5
5
5
5
5
5
5
5
5
5
5
5
5
5
5
5
5
5
5
5
5
5
5
5
5
5
5
5
5
5
5
5
5
5
5
5
5
5
5
5
5
5
5
5
5
5
5
5
5
5
5
5
5
5
5
5
5
5
5
5
5
5
5
5
5
5
5
5
5
5
5
5
5
5
5
5
5
5
5
5
5
5
5
5
5
5
5
5
5
5
5
5
5
5
5
5
5
5
5
5
5
5
5
5
5
5
5
5
5
5
5
5
5
5
5
5
5
5
5
5
5
5
5
5
5
5
5
5
5
5
5
5
5
5
5
5
5
5
5
5
5
5
5
5
5
5
5
5
5
5
5
5
5
5
5
5
5
5
5
5
5
5
5
5
5
5
5
5
5
5
5
5
5
5
5
5
5
5
5
5
5
5
5
5
5
5
5
5
5
5
5
5
5
5
5
5
5
5
5
5
5
5
5
5
5
5
5
5
5
5
5
5
5
5
5
5
5
5
5
5
5
5
5
5
5
5
5
5
5
5
5
5
5
5
5
5
5
5
5
5
5
5
5
5
5
5
5
5
5
5
5
5
5
5
5
5
5
5
5
5
5
5
5
5
5
5
5
5
5
5
5
5
5
5
5
5
5
5
5
5
5
5
5
5
5
5
5
5
5
5
5
5
5
5
5
5
5
5
5
5
5
5
5
5
5
5
5
5
5
5
5
5
5
5
5
5
5
5
5
5
5
5
5
5
5
5
5
5
5
5
5
5
5
5
5
5
5
5
5
5
5
5
5
5
5
5
5
5
5
5
5
5
5
5
5
5
5
5
5
5
5
5
5
5
5
5
5
5
5
5
5
5
5
5
5
5
5
5
5
5
5
5
5
5
5
5
5
5
5
5
5
5
5
5
5
5
5
5
5
5
5
5
5
5
5
5
5
5
5
5
5
5
5
5
5
5
5
5
5
5
5
5
5
5
5
5
5
5
5
5
5
5
5
5
5
5
5
5
5
5
5
5
5
5
5
5
5
5
5
5
5
5
5
5
5
5
5
5
5
5
5
5
5
5
5
5
5
5
5
5
5
5
5
5
5
5
5
5
5
5
5
5
5
5
5
5
5
5
5
5
5
5
5
5
5
5
5
5
5
5
5
5
5
5
5
5
5
5
5
5
5
5
5
5
5
5
5
5
5
5
5
5
5
5
5
5
5
5
5
5
5
5
5
5
5
5
5
5
5
5
5
5
5
5
5
5
5
5
5
5
5
5
5
5
5
5
5
5
5
5
5
5
5
5
5
5
5
5
5
5
5
5
5
5
5
5
5
5
5
5
5
5
5
5
5
5
5
5
5
5
5
5
5
5
5
5
5
5
5
5
5
5
5
5
5
5
5
5
5
5
5
5
5
5
5
5
5
5
5
5
5
5
5
5
5
5
5
5
5
5
5
5
5
5
5
5
5
5
5
5
5
5
5
5
5
5
5
5
5
5
5
5
5
5
5
5
5
5
5
5
5
5
5
5
5
5
5
5
5
5
5
5
5
5
5
5
5
5
5
5
5
5
5
5
5
5
5
5
5
5
5
5
5
5
5
5
5
5
5
5
5
5
5
5
5
5
5
5
5
5
5
5
5
5
5
5
5
5
5
5
5
5
5
5
5
5
5
5
5
5
5
5
5
5
5
5
5
5
5
5
5
5
5
5
5
5
5
5
5
5
5
5
5
5
5
5
5
5
5
5
5
5
5
5
5
5
5
5
5
5
5
5
5
5
5
5
5
5
5
5
5
5
5
5
5
5
5
5
5
5
5
5
5
5
5
5
5
5
5
5
5
5
5
5
5
5
5
5
5
5
5
5
5
5
5
5
5
5
5
5
5
5
5
5
5
5
5
5
5
5
5
5
5
5
5
5
5
5
5
5
5
5
5
5
5
5
5
5
5
5
5
5
5
5
5
5
5
5
5
5
5
5
5
5
5
5
5
5
5
5
5
5
5
5
5
5
5
5
5
5
5
5
5
5
5
5
5
5
5
5
5
5
5
5
5
5
5
5
5
5
5
5
5
5
5
5
5
5
5
5
5
5
5
5
5
5
5
5
5
5
5
5
5
5
5
5
5
5
5
5
5
5
5
5
5
5
5
5
5
5
5
5
5
5
5
5
5
5
5
5
5
5
5
5
5
5
5
5
5
5
5
5
5
5
5
5
5
5
5
5
5
5
5
5
5
5
5
5
5
5
5
5
5
5
5
5
5
5
5
5
5
5
5
5
5
5
5
5
5
5
5
5
5
5
5
5
5
5
5
5
5
5
5
5
5
5
5
5
5
5
5
5
5
5
5
5
5
5
5
5
5
5
5
5
5
5
5
5
5
5
5
5
5
5
5
5
5
5
5
5
5
5
5
5
5
5
5
5
5
5
5
5
5
5
5
5
5
5
5
5
5
5
5
5
5
5
5
5
5
5
5
5
5
5
5
5
5
5
5
5
5
5
5
5
5
5
5
5
5
5
5
5
5
5
5
5
5
5
5
5
5
5
5
5
5
5
5
5
5
5
5
5
5
5
5
5
5
5
5
5
5
5
5
5
5
5
5
5
5
5
5
5
5
5
5
5
5
5
5
5
5
5
5
5
5
5
5
5
5
5
5
5
5
5
5
5
5
5
5
5
5
5
5
5
5
5
5
5
5
5
5
5
5
5
5
5
5
5
5
5
5
5
5
5
5
5
5
5
5
5
5
5
5
5
5
5
5
5
5
5
5
5
5
5
5
5
5
5
5
5
5
5
5
5
5
5
5
5
5
5
5
5
5
5
5
5
5
5
5
5
5
5
5
5
5
5
5
5
5
5
5
5
5
5
5
5
5
5
5
5
5
5
5
5
5
5
5
5
5
5
5
5
5
5
5
5
5
5
5
5
5
5
5
5
5
5
5
5
5
5
5
5
5
5
5
5
5
5
5
5
5
5
5
5
5
5
5
5
5
5
5
5
5
5
5
5
5
5
5
5
5
5
5
5
5
5
5
5
5
5
5
5
5
5
5
5
5
5
5
5
5
5
5
5
5
5
5
5
5
5
5
5
5
5
5
5
5
5
5
5
5
5
5
5
5
5
5
5
5
5
5
5
5
5
5
5
5
5
5
5
5
5
5
5
5
5
5
5
5
5
5
5
5
5
5
5
5
5
5
5
5
5
5
5
5
5
5
5
5
5
5
5
5
5
5
5
5
5
5
5
5
5
5
5
5
5
5
5
5
5
5
5
5
5
5
5
5
5
5
5
5
5
5
5
5
5
5
5
5
5
5
5
5
5
5
5
5
5
5
5
5
5
5
5
5
5
5
5
5
5
5
5
5
5
5
5
5
5
5
5
5
5
5
5
5
5
5
5
5
5
5
5
5
5
5
5
5
5
5
5
5
5
5
5
5
5
5
5
5
5
5
5
5
5
5
5
5
5
5
5
5
5
5
5
5
5
5
5
5
5
5
5
5
5
5
5
5
5
5
5
5
5
5
5
5
5
5
5
5
5
5
5
5
5
5
5
5
5
5
5
5
5
5
5
5
5
5
5
5
5
5
5
5
5
5
5
5
5
5
5
5
5
5
5
5
5
5
5
5
5
5
5
5
5
5
5
5
5
5
5
5
5
5
5
5
5
5
5
5
5
5
5
5
5
5
5
5
5
5
5
5
5
5
5
5
5
5
5
5
5
5
5
5
5
5
5
5
5
5
5
5
5
5
5
5
5
5
5
5
5
5
5
5
5
5
5
5
5
5
5
5
5
5
5
5
5
5
5
5
5
5
5
5
5
5
5
5
5
5
5
5
5
5
5
5
5
5
5
5
5
5
5
5
5
5
5
5
5
5
5
5
5
5
5
5
5
5
5
5
5
5
5
5
5
5
5
5
5
5
5
5
5
5
5
5
5
5
5
5
5
5
5
5
5
5
5
5
5
5
5
5
5
5
5
5
5
5
5
5
5
5
5
5
5
5
5
5
5
5
5
5
5
5
5
5
5
5
5
5
5
5
5
5
5
5
5
5
5
5
5
5
5
5
5
5
5
5
5
5
5
5
5
5
5
5
5
5
5
5
5
5
5
5
5
5
5
5
5
5
5
5
5
5
5
5
5
5
5
5
5
5
5
5
5
5
5
5
5
5
5
5
5
5
5
5
5
5
5
5
5
5
5
5
5
5
5
5
5
5
5
5
5
5
5
5
5
5
5
5
5
5
5
5
5
5
5
5
5
5
5
5
5
5
5
5
5
5
5
5
5
5
5
5
5
5
5
5
5
5
5
5
5
5
5
5
5
5
5
5
5
5
5
5
5
5
5
5
5
5
5
5
5
5
5
5
5
5
5
5
5
5
5
5
5
5
5
5
5
5
5
5
5
5
5
5
5
5
5
5
5
5
5
5
5
5
5
5
5
5
5
5
5
5
5
5
5
5
5
5
5
5
5
5
5
5
5
5
5
5
5
5
5
5
5
5
5
5
5
5
5
5
5
5
5
5
5
5
5
5
5
5
5
5
5
5
5
5
5
5
5
5
5
5
5
5
5
5
5
5
5
5
5
5
5
5
5
5
5
5
5
5
5
5
5
5
5
5
5
5
5
5
5
5
5
5
5
5
5
5
5
5
5
5
5
5
5
5
5
5
5
5
5
5
5
5
5
5
5
5
5
5
5
5
5
5
5
5
5
5
5
5
5
5
5
5
5
5
5
5
5
5
5
5
5
5
5
5
5
5
5
5
5
5
5
5
5
5
5
5
5
5
5
5
5
5
5
5
5
5
5
5
5
5
5
5
5
5
5
5
5
5
5
5
5
5
5
5
5
5
5
5
5
5
5
5
5
5
5
5
5
5
5
5
5
5
5
5
5
5
5
5
5
5
5
5
5
5
5
5
5
5
5
5
5
5
5
5
5
5
5
5
5
5
5
5
5
5
5
5
5
5
5
5
5
5
5
5
5
5
5
5
5
5
5
5
5
5
5
5
5
5
5
5
5
5
5
5
5
5
5
5
5
5
5
5
5
5
5
5
5
5
5
5
5
5
5
5
5
5
5
5
5
5
5
5
5
5
5
5
5
5
5
5
5
5
5
5
5
5
5
5
5
5
5
5
5
5
5
5
5
5
5
5
5
5
5
5
5
5
5
5
5
5
5
5
5
5
5
5
5
5
5
5
5
5
5
5
5
5
5
5
5
5
5
5
5
5
5
5
5
5
5
5
5
5
5
5
5
5
5
5
5
5
5
5
5
5
5
5
5
5
5
5
5
5
5
5
5
5
5
5
5
5
5
5
5
5
5
5
5
5
5
5
5
5
5
5
5
5
5
5
5
5
5
5
5
5
5
5
5
5
5
5
5
5
5
5
5
5
5
5
5
5
5
5
5
5
5
5
5
5
5
5
5
5
5
5
5
5
5
5
5
5
5
5
5
5
5
5
5
5
5
5
5
5
5
5
5
5
5
5
5
5
5
5
5
5
5
5
5
5
5
5
5
5
5
5
5
5
5
5
5
5
5
5
5
5
5
5
5
5
5
5
5
5
5
5
5
5
5
5
5
5
5
5
5
5
5
5
5
5
5
5
5
5
5
5
5
5
5
5
5
5
5
5
5
5
5
5
5
5
5
5
5
5
5
5
5
5
5
5
5
5
5
5
5
5
5
5
5
5
5
5
5
5
5
5
5
5
5
5
5
5
5
5
5
5
5
5
5
5
5
5
5
5
5
5
5
5
5
5
5
5
5
5
5
5
5
5
5
5
5
5
5
5
5
5
5
5
5
5
5
5
5
5
5
5
5
5
5
5
5
5
5
5
5
5
5
5
5
5
5
5
5
5
5
5
5
5
5
5
5
5
5
5
5
5
5
5
5
5
5
5
5
5
5
5
5
5
5
5
5
5
5
5
5
5
5
5
5
5
5
5
5
5
5
5
5
5
5
5
5
5
5
5
5
5
5
5
5
5
5
5
5
5
5
5
5
5
5
5
5
5
5
5
5
5
5
5
5
5
5
5
5
5
5
5
5
5
5
5
5
5
5
5
5
5
5
5
5
5
5
5
5
5
5
5
5
5
5
5
5
5
5
5
5
5
5
5
5
5
5
5
5
5
5
5
5
5
5
5
5
5
5
5
5
5
5
5
5
5
5
5
5
5
5
5
5
5
5
5
5
5
5
5
5
5
5
5
5
5
5
5
5
5
5
5
5
5
5
5
5
5
5
5
5
5
5
5
5
5
5
5
5
5
5
5
5
5
5
5
5
5
5
5
5
5
5
5
5
5
5
5
5
5
5
5
5
5
5
5
5
5
5
5
5
5
5
5
5
5
5
5
5
5
5
5
5
5
5
5
5
5
5
5
5
5
5
5
5
5
5
5
5
5
5
5
5
5
5
5
5
5
5
5
5
5
5
5
5
5
5
5
5
5
5
5
5
5
5
5
5
5
5
5
5
5
5
5
5
5
5
5
5
5
5
5
5
5
5
5
5
5
5
5
5
5
5
5
5
5
5
5
5
5
5
5
5
5
5
5
5
5
5
5
5
5
5
5
5
5
5
5
5
5
5
5
5
5
5
5
5
5
5
5
5
5
5
5
5
5
5
5
5
5
5
5
5
5
5
5
5
5
5
5
5
5
5
5
5
5
5
5
5
5
5
5
5
5
5
5
5
5
5
5
5
5
5
5
5
5
5
5
5
5
5
5
5
5
5
5
5
5
5
5
5
5
5
5
5
5
5
5
5
5
5
5
5
5
5
5
5
5
5
5
5
5
5
5
5
5
5
5
5
5
5
5
5
5
5
5
5
5
5
5
5
5
5
5
5
5
5
5
5
5
5
5
5
5
5
5
5
5
5
5
5
5
5
5
5
5
5
5
5
5
5
5
5
5
5
5
5
5
5
5
5
5
5
5
5
5
5
5
5
5
5
5
5
5
5
5
5
5
5
5
5
5
5
5
5
5
5
5
5
5
5
5
5
5
5
5
5
5
5
5
5
5
5
5
5
5
5
5
5
5
5
5
5
5
5
5
5
5
5
5
5
5
5
5
5
5
5
5
5
5
5
5
5
5
5
5
5
5
5
5
5
5
5
5
5
5
5
5
5
5
5
5
5
5
5
5
5
5
5
5
5
5
5
5
5
5
5
5
5
5
5
5
5
5
5
5
5
5
5
5
5
5
5
5
5
5
5
5
5
5
5
5
5
5
5
5
5
5
5
5
5
5
5
5
5
5
5
5
5
5
5
5
5
5
5
5
5
5
5
5
5
5
5
5
5
5
5
5
5
5
5
5
5
5
5
5
5
5
5
5
5
5
5
5
5
5
5
5
5
5
5
5
5
5
5
5
5
5
5
5
5
5
5
5
5
5
5
5
5
5
5
5
5
5
5
5
5
5
5
5
5
5
5
5
5
5
5
5
5
5
5
5
5
5
5
5
5
5
5
5
5
5
5
5
5
5
5
5
5
5
5
5
5
5
5
5
5
5
5
5
5
5
5
5
5
5
5
5
5
5
5
5
5
5
5
5
5
5
5
5
5
5
5
5
5
5
5
5
5
5
5
5
5
5
5
5
5
5
5
5
5
5
5
5
5
5
5
5
5
5
5
5
5
5
5
5
5
5
5
5
5
5
5
5
5
5
5
5
5
5
5
5
5
5
5
5
5
5
5
5
5
5
5
5
5
5
5
5
5
5
5
5
5
5
5
5
5
5
5
5
5
5
5
5
5
5
5
5
5
5
5
5
5
5
5
5
5
5
5
5
5
5
5
5
5
5
5
5
5
5
5
5
5
5
5
5
5
5
5
5
5
5
5
5
5
5
5
5
5
5
5
5
5
5
5
5
5
5
5
5
5
5
5
5
5
5
5
5
5
5
5
5
5
5
5
5
5
5
5
5
5
5
5
5
5
5
5
5
5
5
5
5
5
5
5
5
5
5
5
5
5
5
5
5
5
5
5
5
5
5
5
5
5
5
5
5
5
5
5
5
5
5
5
5
5
5
5
5
5
5
5
5
5
5
5
5
5
5
5
5
5
5
5
5
5
5
5
5
5
5
5
5
5
5
5
5
5
5
5
5
5
5
5
5
5
5
5
5
5
5
5
5
5
5
5
5
5
5
5
5
5
5
5
5
5
5
5
5
5
5
5
5
5
5
5
5
5
5
5
5
5
5
5
5
5
5
5
5
5
5
5
5
5
5
5
5
5
5
5
5
5
5
5
5
5
5
5
5
5
5
5
5
5
5
5
5
5
5
5
5
5
5
5
5
5
5
5
5
5
5
5
5
5
5
5
5
5
5
5
5
5
5
5
5
5
5
5
5
5
5
5
5
5
5
5
5
5
5
5
5
5
5
5
5
5
5
5
5
5
5
5
5
5
5
5
5
5
5
5
5
5
5
5
5
5
5
5
5
5
5
5
5
5
5
5
5
5
5
5
5
5
5
5
5
5
5
5
5
5
5
5
5
5
5
5
5
5
5
5
5
5
5
5
5
5
5
5
5
5
5
5
5
5
5
5
5
5
5
5
5
5
5
5
5
5
5
5
5
5
5
5
5
5
5
5
5
5
5
5
5
5
5
5
5
5
5
5
5
5
5
5
5
5
5
5
5
5
5
5
5
5
5
5
5
5
5
5
5
5
5
5
5
5
5
5
5
5
5
5
5
5
5
5
5
5
5
5
5
5
5
5
5
5
5
5
5
5
5
5
5
5
5
5
5
5
5
5
5
5
5
5
5
5
5
5
5
5
5
5
5
5
5
5
5
5
5
5
5
5
5
5
5
5
5
5
5
5
5
5
5
5
5
5
5
5
5
5
5
5
5
5
5
5
5
5
5
5
5
5
5
5
5
5
5
5
5
5
5
5
5
5
5
5
5
5
5
5
5
5
5
5
5
5
5
5
5
5
5
5
5
5
5
5
5
5
5
5
5
5
5
5
5
5
5
5
5
5
5
5
5
5
5
5
5
5
5
5
5
5
5
5
5
5
5
5
5
5
5
5
5
5
5
5
5
5
5
5
5
5
5
5
5
5
5
5
5
5
5
5
5
5
5
5
5
5
5
5
5
5
5
5
5
5
5
5
5
5
5
5
5
5
5
5
5
5
5
5
5
5
5
5
5
5
5
5
5
5
5
5
5
5
5
5
5
5
5
5
5
5
5
5
5
5
5
5
5
5
5
5
5
5
5
5
5
5
5
5
5
5
5
5
5
5
5
5
5
5
5
5
5
5
5
5
5
5
5
5
5
5
5
5
5
5
5
5
5
5
5
5
5
5
5
5
5
5
5
5
5
5
5
5
5
5
5
5
5
5
5
5
5
5
5
5
5
5
5
5
5
5
5
5
5
5
5
5
5
5
5
5
5
5
5
5
5
5
5
5
5
5
5
5
5
5
5
5
5
5
5
5
5
5
5
5
5
5
5
5
5
5
5
5
5
5
5
5
5
5
5
5
5
5
5
5
5
5
5
5
5
5
5
5
5
5
5
5
5
5
5
5
5
5
5
5
5
5
5
5
5
5
5
5
5
5
5
5
5
5
5
5
5
5
5
5
5
5
5
5
5
5
5
5
5
5
5
5
5
5
5
5
5
5
5
5
5
5
5
5
5
5
5
5
5
5
5
5
5
5
5
5
5
5
5
5
5
5
5
5
5
5
5
5
5
5
5
5
5
5
5
5
5
5
5
5
5
5
5
5
5
5
5
5
5
5
5
5
5
5
5
5
5
5
5
5
5
5
5
5
5
5
5
5
5
5
5
5
5
5
5
5
5
5
5
5
5
5
5
5
5
5
5
5
5
5
5
5
5
5
5
5
5
5
5
5
5
5
5
5
5
5
5
5
5
5
5
5
5
5
5
5
5
5
5
5
5
5
5
5
5
5
5
5
5
5
5
5
5
5
5
5
5
5
5
5
5
5
5
5
5
5
5
5
5
5
5
5
5
5
5
5
5
5
5
5
5
5
5
5
5
5
5
5
5
5
5
5
5
5
5
5
5
5
5
5
5
5
5
5
5
5
5
5
5
5
5
5
5
5
5
5
5
5
5
5
5
5
5
5
5
5
5
5
5
5
5
5
5
5
5
5
5
5
5
5
5
5
5
5
5
5
5
5
5
5
5
5
5
5
5
5
5
5
5
5
5
5
5
5
5
5
5
5
5
5
5
5
5
5
5
5
5
5
5
5
5
5
5
5
5
5
5
5
5
5
5
5
5
5
5
5
5
5
5
5
5
5
5
5
5
5
5
5
5
5
5
5
5
5
5
5
5
5
5
5
5
5
5
5
5
5
5
5
5
5
5
5
5
5
5
5
5
5
5
5
5
5
5
5
5
5
5
5
5
5
5
5
5
5
5
5
5
5
5
5
5
5
5
5
5
5
5
5
5
5
5
5
5
5
5
5
5
5
5
5
5
5
5
5
5
5
5
5
5
5
5
5
5
5
5
5
5
5
5
5
5
5
5
5
5
5
5
5
5
5
5
5
5
5
5
5
5
5
5
5
5
5
5
5
5
5
5
5
5
5
5
5
5
5
5
5
5
5
5
5
5
5
5
5
5
5
5
POINT_DATA 2538
VECTORS disp float
1.4207887754753998e-11 3.159258337894116e-11 0.0
2.4216796914433853e-11 -6.284671195944391e-11 0.0
0.0028999999948869726 1.3963686529311547e-11 0.0
0.002899999970720861 -7.812084106797125e-11 0.0
0.0010389491263808758 0.000416204384561337 0.0
0.0021218641409342298 0.00013703076645112388 0.0
0.0014452697161917863 5.900876939139333e-5 0.0
1.99358157916823e-12 -8.525335819117515e-13 0.0
5.1871999423670515e-12 4.8626869215450306e-12 0.0
4.217245137367394e-12 1.9150355941255173e-12 0.0
3.792064581606555e-12 1.7882772887452546e-12 0.0
3.1091624465010784e-12 1.1209493587269447e-12 0.0
2.7631956420388055e-12 5.13819224130753e-13 0.0
2.391048406007395e-12 5.3148157654345344e-14 0.0
2.1269475605107507e-12 -5.550302132696014e-13 0.0
1.7047989890216718e-12 -1.2316297698002e-12 0.0
1.929150662922672e-12 -1.9756171478409806e-12 0.0
1.886141452951029e-12 -2.8507102409855907e-12 0.0
2.019271514522595e-12 -3.7975826530939685e-12 0.0
2.2191133386485622e-12 -4.748138741157102e-12 0.0
2.2859646540879524e-12 -5.543583059992128e-12 0.0
2.5942011302996967e-12 -6.546944951635676e-12 0.0
2.656066124409691e-12 -7.24491409213905e-12 0.0
2.875431733365338e-12 -8.178791484918339e-12 0.0
3.0721427093090028e-12 -9.128176704432996e-12 0.0
3.2200724396658244e-12 -1.002561631660196e-11 0.0
3.4681391709128664e-12 -1.1135142843265724e-11 0.0
3.797589843896986e-12 -1.2389279576450307e-11 0.0
4.3002715472238864e-12 -1.402031161642954e-11 0.0
4.380724150214877e-12 -1.574021689748372e-11 0.0
6.38841306170266e-12 -2.057257185912508e-11 0.0
2.9718235646898805e-12 -1.7323878475144933e-11 0.0
3.8674378554672346e-5 -4.2779567900787965e-5 0.0
6.753269025876679e-5 -7.264450292250482e-5 0.0
9.53159321727654e-5 -9.853849559854148e-5 0.0
0.00012158984132371118 -0.00012192218107844757 0.0
0.0001467788192422467 -0.00014361302739293206 0.0
0.00017139075243309803 -0.00016427947715232406 0.0
0.00019585472702960134 -0.00018392974712949257 0.0
0.00021993665428951154 -0.0002027721090720605 0.0
0.00024388210025593616 -0.00022100340809961348 0.0
0.00026777741652060714 -0.0002385917882320944 0.0
0.0002916238639737512 -0.00025572072954826606 0.0
0.00031564885356576627 -0.0002723600657684909 0.0
0.00033967895533651703 -0.0002885135276047448 0.0
0.0003638235754054862 -0.00030432810995854284 0.0
0.0003882404270974933 -0.0003197213864715649 0.0
0.00041268383116082854 -0.0003346956000885177 0.0
0.00043734081218910946 -0.00034935578045933245 0.0
0.00046222076260787074 -0.0003635962258975499 0.0
0.0004872914932140884 -0.0003775183670636682 0.0
0.0005125763590188762 -0.0003911139047425232 0.0
0.0005381033881597334 -0.0004043782615889563 0.0
0.0005638297166206646 -0.00041730681055879916 0.0
0.0005899191623903064 -0.00042994660820538434 0.0
0.0006161002797752493 -0.00044224029997245177 0.0
0.0006427043411615237 -0.0004542329006218312 0.0
0.0006693766381953988 -0.00046587199398603966 0.0
0.0006963718268591744 -0.00047722215298085733 0.0
0.0007235630708005926 -0.0004882057087495269 0.0
0.0007511246433455531 -0.0004989074772948598 0.0
0.0007787440456877208 -0.0005092884591058176 0.0
0.0008067568987389203 -0.0005193718828345796 0.0
0.0008349613112025134 -0.000529096996098138 0.0
0.0008634508440184659 -0.0005385433501976746 0.0
0.0008921075024539959 -0.0005476524939509066 0.0
0.000921099999595831 -0.0005564780155577972 0.0
0.0009501421015052853 -0.0005649277384332637 0.0
0.000979496803915306 -0.0005730477909876935 0.0
0.001008941096324816 -0.0005807142092253313 0.0
0.0010385679640342747 -0.0005879452680439659 0.0
0.0010683814122081094 -0.0005948825944339363 0.0
0.0010982951101994268 -0.0006013372382474077 0.0
0.0011285041646332875 -0.0006074692139063354 0.0
0.0011589210092365107 -0.0006131738166124732 0.0
0.001189480024790329 -0.0006185747952030646 0.0
0.001220267143783301 -0.0006235062612782912 0.0
0.001251065379750029 -0.0006281058704452031 0.0
0.0012821136769277785 -0.0006323445627277406 0.0
0.0013132116714973305 -0.0006361812018834647 0.0
0.0013444388386139403 -0.0006397248886858325 0.0
0.0013758325085057497 -0.0006428607483817325 0.0
0.0014070532214848002 -0.0006455227985581232 0.0
0.001438561746227453 -0.0006479060682339399 0.0
0.0014696674289131533 -0.0006497949056190767 0.0
0.0015012092868633676 -0.0006513334394945013 0.0
0.001532150724454839 -0.0006523908162731413 0.0
0.0015637106662719695 -0.0006531147358192552 0.0
0.0015945576895077926 -0.0006534105370868462 0.0
0.0016249311998535391 -0.000653021607432881 0.0
0.0016549312925897978 -0.0006521525931442896 0.0
0.001684265918850824 -0.0006501369810102063 0.0
0.0017132509261078297 -0.0006480080047851065 0.0
0.001741934966691918 -0.0006452301259504958 0.0
0.0017709631286197604 -0.0006420948970058428 0.0
0.0017995585342909862 -0.0006378628466239192 0.0
0.0018284271261001907 -0.0006333532235723293 0.0
0.0018582797715679183 -0.0006286264956045428 0.0
0.0018867925060470508 -0.0006229292826112774 0.0
0.001915378125659958 -0.0006165180644021117 0.0
0.001944374192557204 -0.0006090601527132456 0.0
0.001973662472637438 -0.0006009471723647441 0.0
0.002002236590133195 -0.0005920046769222065 0.0
0.002031581566845431 -0.0005819036274464781 0.0
0.002060393009462032 -0.0005711430393905355 0.0
0.0020893585549856476 -0.0005598499019571023 0.0
0.002118907310896381 -0.0005476891591767219 0.0
0.0021481542437587963 -0.0005350151945891718 0.0
0.002177569880171889 -0.0005217079750283137 0.0
0.002206895395970142 -0.0005078952013537642 0.0
0.002236533630103388 -0.0004935508864769266 0.0
0.002266251014746454 -0.0004786230750486486 0.0
0.0022959648234923656 -0.00046321363168020394 0.0
0.002325464685276471 -0.0004472952079907166 0.0
0.0023550054574001168 -0.00043088191649526166 0.0
0.0023846560414769254 -0.0004138750013178256 0.0
0.0024141858751559986 -0.00039636301958550704 0.0
0.0024437751550600083 -0.00037839528075385686 0.0
0.002473609665383256 -0.00035976245993317544 0.0
0.002503390517705275 -0.0003405110925637812 0.0
0.0025331403610401957 -0.00032069063132488847 0.0
0.0025631762180117292 -0.0003001439184370455 0.0
0.002593519152462271 -0.00027873262811391614 0.0
0.002623970733662385 -0.00025644182228484524 0.0
0.002654593680440103 -0.00023326348374800546 0.0
0.00268563492685242 -0.00020892084263593135 0.0
0.002717506658897072 -0.0001830904003388282 0.0
0.002749806637250677 -0.00015557695342456569 0.0
0.0027828939829720807 -0.00012573670503619638 0.0
0.0028181488446774147 -9.231804916779037e-5 0.0
0.0028545550284400827 -5.3682258475903955e-5 0.0
0.002899999996148562 -1.844544160497126e-11 0.0
0.002899999992023733 -2.078425810754954e-11 0.0
0.0028999999952127975 -1.1934529974559358e-11 0.0
0.0028999999951296695 -1.0279101522477076e-11 0.0
0.0028999999956110223 -8.118542240234758e-12 0.0
0.0028999999957670455 -6.6853062286348745e-12 0.0
0.0028999999958306535 -5.6689447071143314e-12 0.0
0.0028999999959856697 -4.800951864643637e-12 0.0
0.00289999999602339 -4.022642857546339e-12 0.0
0.002899999996162091 -3.3244400958451554e-12 0.0
0.0028999999963008885 -2.7817246375792654e-12 0.0
0.0028999999964187725 -2.097590293705831e-12 0.0
0.0028999999965183027 -1.5907691429239022e-12 0.0
0.0028999999966422604 -9.666694858273995e-13 0.0
0.0028999999967198207 -3.5665762112958845e-13 0.0
0.002899999996763758 3.4268940187866246e-13 0.0
0.0028999999968265387 1.0669865604232154e-12 0.0
0.0028999999965665752 1.9425520473731414e-12 0.0
0.002899999996861131 2.6545822913458614e-12 0.0
0.0028999999963942257 3.60080003459492e-12 0.0
0.0028999999964602653 4.2330356533653954e-12 0.0
0.002899999996340629 4.8590043594149385e-12 0.0
0.002899999996481506 4.9804784533335695e-12 0.0
0.0028999999967637725 6.096591956683358e-12 0.0
0.0028999999983011426 2.942075089728365e-12 0.0
0.0026854614226154423 0.00010426194762281268 0.0
0.002504606112636181 0.00015141770579352236 0.0
0.0023427081493526463 0.00015755560784919964 0.0
0.002206695974744508 0.0001474076343140626 0.0
0.0021192818351486896 4.290807544403685e-5 0.0
0.0021081380013760935 -5.945338614733065e-6 0.0
0.002078053933739574 -3.590610373705904e-5 0.0
0.002035052276291997 -3.8805341366380515e-5 0.0
0.001982213696541868 -2.640541731825596e-5 0.0
0.0019266786657683272 -1.065762001762874e-5 0.0
0.001869721615970431 5.060114328409584e-6 0.0
0.0018123118636126023 2.0877157778615812e-5 0.0
0.0017533824792267448 3.425652008525087e-5 0.0
0.0016925181175441587 4.479618155470077e-5 0.0
0.0016264814686467494 5.270129700754104e-5 0.0
0.0015489880409411678 5.82906571842554e-5 0.0
0.0013605313300717055 9.820736672729136e-5 0.0
0.001300342097209463 0.0001148830328165849 0.0
0.0012505134129614647 0.00012530144045153437 0.0
0.0012069764837044847 0.00013382914415794553 0.0
0.0011674109991627818 0.0001417684251275687 0.0
0.0011316571729859841 0.00014993188882246974 0.0
0.0010994566931412202 0.0001593580345967484 0.0
0.001072025948257159 0.0001708193642541821 0.0
0.0010507898980107924 0.00018840653100713606 0.0
0.0010357637031405853 0.0002111555054310698 0.0
0.0010357798635470127 0.0002572404070499174 0.0
0.0010348318285176323 0.0003188173396729862 0.0
0.0009329773580241811 0.0004300517420887178 0.0
0.0007831509796992643 0.0004210689774674938 0.0
0.0005590859229712276 0.000347939293367003 0.0
0.0002997831797829601 0.0002256904761319876 0.0
0.0007553909116570995 -0.00047886121039648937 0.0
0.001996176681446517 -0.0005585367375018715 0.0
0.0009579565880226775 -0.0005466768383605552 0.0
0.0017892822284162459 -0.0006133301199831787 0.0
0.0011728181426088184 -0.0005948873245630445 0.0
0.001575288760864525 -0.0006272260704146623 0.0
0.0013587499517151603 -0.0006183586641227506 0.0
0.0021748247736466976 -0.0004931666743629084 0.0
0.000597994962217021 -0.0004163130598786386 0.0
0.0023158271240933293 -0.00042242523057980935 0.0
0.0004690409035646231 -0.0003520447907279321 0.0
4.665176285149185e-5 -8.66796776403962e-6 0.0
0.0028469364548348577 -5.111268071086879e-6 0.0
0.0015570058806954924 7.761770375194477e-5 0.0
0.0017801135460733034 4.637973464716652e-5 0.0
0.0013329708977713386 9.643740882174883e-5 0.0
0.0011669636611581174 0.00014934132407558862 0.0
0.0024669216758052776 -0.0003397275396249441 0.0
0.00035058055154921485 -0.0002830395516643914 0.0
3.508261151280019e-5 -1.4030222222232326e-5 0.0
0.002861648835432086 -8.910475296216197e-6 0.0
0.0028260130367459397 3.158391607883035e-6 0.0
6.0917482782583645e-5 1.5068721147060307e-6 0.0
0.0025874694706167606 -0.000259889595807414 0.0
0.00025054860017895337 -0.00021236319460893926 0.0
0.001940284447746845 8.505610776181178e-6 0.0
0.0010556364087452208 0.00017536206979518282 0.0
2.7391125856817924e-5 -1.4297954956793008e-5 0.0
0.002869630296028806 -1.0423412602963856e-5 0.0
0.0010819364651797451 -0.0005766464858521449 0.0
0.0012644943657937689 -0.0006084337894366645 0.0
0.0017005117470115059 -0.0006242333442389671 0.0
0.001455506216393643 -0.0006235078312157456 0.0
0.0018773988499508917 -0.0005942371918211196 0.0
0.002078954824098621 -0.0005332394417767766 0.0
0.0008771740707437354 -0.0005226232829552926 0.0
0.0006771800909752308 -0.0004517592619749604 0.0
0.0026757316668437376 -0.0001956234427463438 0.0
0.0001769519110577095 -0.00015691605372411023 0.0
0.002805939743509429 1.6380016430305473e-5 0.0
8.082447915942765e-5 1.0898372838346218e-5 0.0
0.0028751042105832846 -1.3147414928470985e-5 0.0
2.605578996811324e-5 -1.6909246407981588e-5 0.0
0.0020482326871196894 -1.3306696861891215e-5 0.0
0.0010008161572847916 0.00020440269718757917 0.0
0.0027670259670768377 2.8646051332973997e-5 0.0
0.00011977513791961583 2.2038165114302352e-5 0.0
4.090088661887951e-5 -1.2420938178866872e-5 0.0
0.0028539646200417147 -7.744752867768395e-6 0.0
0.0016681581265670458 6.669646482019648e-5 0.0
0.0012495131985099002 0.00013154145892532653 0.0
9.926663053242657e-5 -9.004939312090465e-5 0.0
0.0027799784417251484 -0.00010995377339852129 0.0
0.001933972794985578 -0.0005820342362026693 0.0
0.0015157000280045254 -0.0006271992580425699 0.0
0.0010237037096785593 -0.0005630194769473709 0.0
0.0008150154489474118 -0.0005035612449717414 0.0
0.0016407639212402186 -0.0006270686472466956 0.0
0.002229047375436299 -0.0004681090219211982 0.0
0.0005462713054387958 -0.00039106481195231755 0.0
0.0023779826804951865 -0.0003912173134739362 0.0
0.0004164627530790048 -0.0003215888890426577 0.0
0.00029799514309394116 -0.0002468762112047272 0.0
0.002527033424055398 -0.0003007418892321784 0.0
0.0006531597934908666 0.00021990326583117128 0.0
0.0024015796676206376 8.707638078741926e-5 0.0
0.0028751050218380177 -1.804101949406927e-5 0.0
2.2780108631976463e-5 -1.7341212773117165e-5 0.0
0.0009811404186847842 0.0002774905376739108 0.0
0.002134668193827765 2.4148799384609085e-5 0.0
0.00014406836724142896 3.549031425042669e-5 0.0
0.0027655025571149705 3.072259297722598e-5 0.0
4.380351097110609e-5 -3.989114326705488e-5 0.0
0.0028470850928382745 -4.910805662651767e-5 0.0
0.0022631965425075227 8.045406171571382e-5 0.0
0.0022903443172119075 6.814897124858774e-5 0.0
0.00246711323093356 6.827098429846882e-5 0.0
0.0023574860646232093 7.317465609528734e-5 0.0
0.002219166965884076 6.137842482812172e-5 0.0
0.0022625755544954254 7.981451221725595e-5 0.0
0.0023982066976013386 7.962171799057047e-5 0.0
0.0023106378442669523 8.897821451674368e-5 0.0
0.0024407511081757376 7.965888683621434e-5 0.0
0.0023612108520887853 8.712771781124472e-5 0.0
0.0022395639867465256 9.561166263162248e-5 0.0
0.0022871833659169837 9.077456512444439e-5 0.0
0.002183137318877077 9.846288852999876e-5 0.0
0.0022227563317770154 9.05097744130626e-5 0.0
0.0021292423248494632 9.803656701851037e-5 0.0
0.0021655004547940014 8.643315861488422e-5 0.0
0.0015212436541200427 4.724689640440757e-5 0.0
0.0014367864707045142 3.311796591847683e-5 0.0
0.0014988270350191353 2.7299290434045355e-5 0.0
0.0014301235371213744 1.682212209559087e-5 0.0
0.001484762935346496 1.188387798829312e-5 0.0
0.001425568224460984 3.9058945204940826e-6 0.0
0.0014750601588168163 -5.398845780053667e-7 0.0
0.0014213983432447782 -7.494229657886922e-6 0.0
0.0014676090765641141 -1.1500996267586906e-5 0.0
0.001417702294455864 -1.7905834200035125e-5 0.0
0.001461650196453989 -2.1502824979298036e-5 0.0
0.0014144439357762196 -2.7640999847036866e-5 0.0
0.0014567215936635424 -3.130013936479542e-5 0.0
0.0014127121329096724 -3.712956346600138e-5 0.0
0.001452576616502153 -4.077171835109298e-5 0.0
0.0014100368884739434 -4.65151131208114e-5 0.0
0.0014487228470025895 -5.0081311628467325e-5 0.0
0.0014061543099239031 -5.583010003693314e-5 0.0
0.0014449741993897538 -5.941352491682925e-5 0.0
0.0014033870923354779 -6.508856308391085e-5 0.0
0.0014416461145504993 -6.880630189227239e-5 0.0
0.0014008695933663475 -7.44254003453492e-5 0.0
0.0014372582977685284 -7.823441432892245e-5 0.0
0.0013981657922083075 -8.388822303081974e-5 0.0
0.0014340285563810388 -8.777558551295434e-5 0.0
0.0013962526460989453 -9.322574759614848e-5 0.0
0.0014310656884067758 -9.745013979649164e-5 0.0
0.0013919755518799635 -0.00010239199956290612 0.0
0.001427714578306687 -0.0001072626845820909 0.0
0.001380428565720527 -0.00011257117900700842 0.0
0.0014268554415882606 -0.00011739623709104132 0.0
0.0013866908758545173 -0.00012316053128552136 0.0
0.0014237146807541577 -0.00012768519918382324 0.0
0.0013855772319961081 -0.00013364887979787037 0.0
0.001421187870775128 -0.00013828343492287983 0.0
0.0013855418855771837 -0.0001442492218485189 0.0
0.001418523126058589 -0.00014908896795331943 0.0
0.001383732304312824 -0.00015530702426183146 0.0
0.0013742771411315196 -1.2402741482472092e-5 0.0
0.0014158332172451056 -0.00016021470998196 0.0
0.001364448771074453 -6.081126778777124e-5 0.0
0.0013441169235943102 -0.0001214350189086579 0.0
0.0013791760295751006 -0.00016655036762837092 0.0
0.0014128827394094432 -0.00017163733872747213 0.0
0.0013746529410434843 -0.00017849440893088865 0.0
0.0013416502660018475 -0.00017227906694022464 0.0
0.0013361681092634084 -0.00018476885348555751 0.0
0.001408470674599125 -0.00018408507249588737 0.0
0.0014472455364982332 -0.00017675980990698958 0.0
0.00146039757035143 -0.00012133703069907973 0.0
0.0014430560609772392 -0.00018959603090123542 0.0
0.0014843122885644779 -0.00018096404235112883 0.0
0.0014787125828438319 -0.00019505549280677325 0.0
0.0013035626341264897 -0.00017819601035833505 0.0
0.0012995004958779753 -0.00019035759994311005 0.0
0.001521315785329828 -0.00018567927235149198 0.0
0.0012648123156712256 -0.00018339572160350242 0.0
0.0012629122715129206 -0.00019605264109172956 0.0
0.0015164112634072824 -0.0001999658895921501 0.0
0.001557672926771301 -0.00019124544684447845 0.0
0.00122583155390011 -0.00018857397199031686 0.0
0.001223054389314038 -0.0002015384182298035 0.0
0.0015536633563354033 -0.00020546002784433453 0.0
0.0015961455487595768 -0.0001962113381939928 0.0
0.0011870665955513245 -0.00019361246313233038 0.0
0.0011839372288512246 -0.00020726501104272572 0.0
0.001591952954157821 -0.0002111903061727879 0.0
0.0016356724470362647 -0.00020105283764556534 0.0
0.001148712177748576 -0.0001978131160359586 0.0
0.0011431036323080468 -0.00021181012960927076 0.0
0.0016319456754444054 -0.0002164249253349871 0.0
0.0016759916072747716 -0.00020571859371307303 0.0
0.0011066609080090785 -0.0002018953340482454 0.0
0.001102097382306659 -0.0002165593257608442 0.0
0.0010634519573973337 -0.0002066694774736303 0.0
0.0010679747401830732 -0.0001912060572033476 0.0
0.00158429292726978 -0.00022601783530227975 0.0
0.0016719816397413748 -0.0002217332187050376 0.0
0.0017169930189893411 -0.00021026665320919092 0.0
0.0017217552137387758 -0.00019377196743317995 0.0
0.0014754985233139729 -7.289590578856267e-5 0.0
0.0017645113615293283 -0.0001979521547641167 0.0
0.0017696787923812075 -0.00018079295091566962 0.0
0.0018139218080199975 -0.00018435978911125205 0.0
0.0010622492710853548 -0.00022238122700736848 0.0
0.0010219409568808793 -0.0002107349703063082 0.0
0.0011002333027778544 -0.00023227178005681503 0.0
0.0017116033239156188 -0.00022718078685751356 0.0
0.0010213465866411816 -0.00022675963685524065 0.0
0.0009805750127404875 -0.00021415191816676903 0.0
0.0014974918208518096 -3.3975843730235525e-5 0.0
0.0009800096460742622 -0.00022973403656126597 0.0
0.0009392712296171591 -0.00021683992759422236 0.0
0.0009389660577533799 -0.00023269876637441994 0.0
0.0008988020704971185 -0.00021857232178520137 0.0
0.0008982481402678246 -0.00020315110379585176 0.0
0.000855301139005671 -0.00020518993664215787 0.0
0.0008554470074787395 -0.00018893343354016415 0.0
0.0008938015774148936 -0.00023406983831554136 0.0
0.0008092777693904578 -0.00019098318568488287 0.0
0.000809112006621004 -0.00017435495196040096 0.0
0.0009391636691322362 -0.0002494372689259135 0.0
0.0009008187427089918 -0.0002521239341228428 0.0
0.0007640147658551537 -0.00017500756954927707 0.0
0.000762268276641426 -0.00015871782857768512 0.0
0.0018203444616393552 -0.00016693097621969444 0.0
0.0018664558115036266 -0.00017018754039653796 0.0
0.0009394383022289432 -0.00026637821818645377 0.0
0.0009017012915367021 -0.0002688757912197023 0.0
0.0018734373346698111 -0.00015217033068948478 0.0
0.0019218344571162872 -0.00015548009967734228 0.0
0.0019125852450973015 -0.00017530126363088535 0.0
0.0019684384963560434 -0.00015949289532403524 0.0
0.0019599081259497894 -0.00017975447839174306 0.0
0.0020159162732346857 -0.00016238040947457865 0.0
0.0020099787789420883 -0.0001824092667740735 0.0
0.0020679802679038502 -0.00016290819754693643 0.0
0.0020571544036113204 -0.0001835089534886705 0.0
0.002073793646676468 -0.00014372280907705846 0.0
0.002115893730561799 -0.00016425828515254646 0.0
0.0021019729629261678 -0.00018487713130475587 0.0
0.0009403085076510502 -0.00028364487825161856 0.0
0.0007147007094591218 -0.00015879357858572264 0.0
0.0007119825275580951 -0.00014211551322893998 0.0
0.002047889066456551 -0.00020467776071336278 0.0
0.0020907565553439198 -0.00020576314035950264 0.0
0.002143913485370786 -0.00018560177906554992 0.0
0.002040353494404683 -0.00022626196507986428 0.0
0.0009035732315794565 -0.0002861831556611939 0.0
0.0021325513118245322 -0.00020617153833017455 0.0
0.0021845630750562278 -0.0001854177652126928 0.0
0.0009412324004407944 -0.0003014036411478214 0.0
0.0009052930010632324 -0.00030401063278339286 0.0
0.000868216545924028 -0.0002881592171037657 0.0
0.0021724804291995328 -0.0002057318116108904 0.0
0.002223917746303863 -0.0001841098657210004 0.0
0.0009421765030642437 -0.0003197305152115695 0.0
0.0009777361323332606 -0.0003167816326447048 0.0
0.0008704448923487623 -0.00030608693833589467 0.0
0.0008336771509708951 -0.0002896857064370682 0.0
0.002209809419125094 -0.0002044675130122682 0.0
0.002262453548142682 -0.0001817894698264928 0.0
0.0022760171447083585 -0.00016245974574308463 0.0
0.00215834491262847 -0.00022713734729242686 0.0
0.0023148593262552397 -0.00015933266594789127 0.0
0.0023295635895935925 -0.00014089411662983336 0.0
0.0006614657261158782 -0.0001419243620268854 0.0
0.0006612919844493599 -0.0001245990022059741 0.0
0.0007222385395449785 -0.00012583822688258048 0.0
0.0006594162752513187 -0.00010707520834151369 0.0
0.0007184838571026921 -0.00010546094829347225 0.0
0.000657003420070279 -8.808360379136054e-5 0.0
0.0007149805266077071 -8.520440619975883e-5 0.0
0.0009785988953905998 -0.0003353632295127849 0.0
0.0010133129952474781 -0.00033197419778388884 0.0
0.0008362290944489648 -0.0003077250316995069 0.0
0.0007997716669461568 -0.0002907261769692469 0.0
0.0023001731986654317 -0.00017860993895510975 0.0
0.0006608374756116185 -6.843804023919369e-5 0.0
0.0007162115396382458 -6.436562069351133e-5 0.0
0.0010142190625847683 -0.0003506686131506027 0.0
0.0010481238662580416 -0.0003471021400321227 0.0
0.0012271131596673871 -0.0002140005555567177 0.0
0.0023524262524346204 -0.0001554468746877364 0.0
0.0015297146572940355 9.97400516202529e-6 0.0
0.001597115257838615 7.297104176863682e-5 0.0
0.0013589177541829317 -8.913125800954393e-5 0.0
0.0019266936313151034 -0.00013706300827490955 0.0
0.0006567408680990687 -4.6384302344394084e-5 0.0
0.0007219619105888852 -4.179264205726083e-5 0.0
0.000802731950795527 -0.0003088731693246914 0.0
0.0007667606119317452 -0.00029141352079266276 0.0
0.001049537461261962 -0.00036598673067155955 0.0
0.0010831819470689108 -0.00036215724218848226 0.0
0.0023364392280963314 -0.00017453568817837263 0.0
0.0006087257300987928 -0.00012432311796841886 0.0
0.0006108408359922267 -0.00014159044973822074 0.0
0.000591879494935147 -6.969199729201539e-5 0.0
0.00238881868474467 -0.00015084802441179117 0.0
0.0006572597839058529 -2.4263268044479277e-5 0.0
0.0007235819439431586 -1.7419516955532825e-5 0.0
0.001016206742887667 -0.0003700133497508608 0.0
0.0007702704675046558 -0.0003098165820312364 0.0
0.000734457038574922 -0.0002916039495485929 0.0
0.0018783874779655326 -0.0001341520247113334 0.0
0.0019339279625091748 -0.00011839248808508324 0.0
0.0018826690932552083 -0.00011568487068901341 0.0
0.0019412726863628127 -9.960696788779261e-5 0.0
0.001084122271779088 -0.00038103544819878624 0.0
0.0011180822841999887 -0.00037644545080666293 0.0
0.0011917918988501247 -0.00018134058726647527 0.0
0.0006576131343138805 -1.6451641363254824e-6 0.0
0.0007228966416309019 7.3942977121560445e-6 0.0
0.0023730727610678255 -0.00016959808544026548 0.0
0.002325706109798126 -0.00019193695321173394 0.0
0.0006439681752624406 2.35676516380828e-5 0.0
0.000720108914229097 3.387465576536505e-5 0.0
0.002424196921765599 -0.00014609921134988273 0.0
0.00243371509477353 -0.00013258101635439093 0.0
0.0006534419331654044 4.7531008961852246e-5 0.0
0.0008050873590968377 -0.0003291623010003167 0.0
0.0011184578378058984 -0.0003959098629043076 0.0
0.0011521743266759655 -0.00039045861156540503 0.0
0.0011523816032085296 -0.0003711253976389703 0.0
0.0011864118656150437 -0.00038463524413056795 0.0
0.0011870565369457794 -0.00036547792196519636 0.0
0.0012212332571786952 -0.0003784267339248284 0.0
0.001222207905386367 -0.0003591706667314951 0.0
0.0012568743336511174 -0.00037173469589467774 0.0
0.001258285741443192 -0.00035248727530234626 0.0
0.0012932089940632385 -0.00036446591074382477 0.0
0.0012917464693476576 -0.00038428767884999133 0.0
0.0013278826025648607 -0.00037647016231589516 0.0
0.0013262031886273735 -0.0003966894622976482 0.0
0.0013621517139854333 -0.00038830558710806966 0.0
0.001360037599546793 -0.00040897616488173595 0.0
0.0013962563193469818 -0.0003999745703396849 0.0
0.001295184933131937 -0.00034527156202330585 0.0
0.0013985919613917603 -0.0003792499684583187 0.0
0.0014331688012446896 -0.0003902298543998985 0.0
0.0014302887552470232 -0.0004117948308459051 0.0
0.0014676642395906434 -0.0004014669817337459 0.0
0.0005570053034908819 -0.00012317739116170882 0.0
0.0005592014148769681 -0.00014003720313044918 0.0
0.0007382916094178376 -0.00031005063718708204 0.0
0.0007031627576844835 -0.00029149256683897124 0.0
0.001471219517914474 -0.0003799168869781595 0.0
0.0015057590429164663 -0.0003902768177400817 0.0
0.001501642188480964 -0.0004124595329636799 0.0
0.0015404727086136374 -0.0004004750832382984 0.0
0.0005067170291884701 -0.00012119249642403053 0.0
0.0005092472035574048 -0.0001373927211645916 0.0
0.0018872323405214697 -9.645175863057568e-5 0.0
0.001949587260938948 -8.018434073348897e-5 0.0
0.001893648001201816 -7.704821500012264e-5 0.0
0.0024097468565381047 -0.00016381212731610056 0.0
0.002459215269319674 -0.0001406443963582259 0.0
0.0011523922687001085 -0.0004105853760175544 0.0
0.0007863584162675568 -6.384549888394969e-5 0.0
0.0014759363980702024 -0.00020800420680473298 0.0
0.0015357494170883503 -0.00042328384936457004 0.0
0.001574800168608999 -0.00041054364014064126 0.0
0.0015791384555950486 -0.00038754011883851045 0.0
0.0016143329302396449 -0.0003966205828744691 0.0
0.0015638160409776085 -0.00017614388124305026 0.0
0.001961218457610541 -5.9995605977847597e-5 0.0
0.0020129784364529267 -6.680605818156045e-5 0.0
0.0007236697822971116 6.062420493335421e-5 0.0
0.0007069476629050383 -0.0003097842374640071 0.0
0.0006724573617814994 -0.00029081133138018775 0.0
0.0019016820150672994 -5.680329800771667e-5 0.0
0.0016090228629410746 -0.0004205530381955341 0.0
0.00164935846117179 -0.00040625611366813336 0.0
0.0016549403393429781 -0.00038213410491423063 0.0
0.0016909690860257781 -0.0003911660616094494 0.0
0.0016975915186921275 -0.00036756569769918866 0.0
0.0017332145890236426 -0.00037529665816219044 0.0
0.0017258462427308186 -0.0003995633592077051 0.0
0.00176787425172385 -0.0003827188245253801 0.0
0.0006536785314404935 7.012130372455075e-5 0.0
0.0004582323163291295 -0.0001183218336070465 0.0
0.0004607689440947764 -0.00013357015292982338 0.0
0.001119781107032086 -0.00041621122737734074 0.0
0.0024429964601244032 -0.0001596758103412402 0.0
0.0024930241886150753 -0.0001351434206840218 0.0
0.0017597629380119303 -0.0004076286801699996 0.0
0.0018011982150293602 -0.0003899041972551018 0.0
0.0007287670740766061 8.600613926990995e-5 0.0
0.0006767414763377817 -0.00030917967328774937 0.0
0.0006421816163956796 -0.00028945549761706787 0.0
0.0007902096615687651 1.642736618772952e-5 0.0
0.002257928408231647 7.7939952639433e-5 0.0
0.00115273098374393 -0.00043128278401516383 0.0
0.0006559703308942152 9.057392542202669e-5 0.0
0.000597836291035886 -1.036103799946963e-5 0.0
0.0024716206187938967 -0.00015965883022405703 0.0
0.0025260337481683224 -0.00013009204264571508 0.0
0.0025429149275166623 -0.00011189588676052688 0.0
0.0005817899870786989 5.5074185248279215e-5 0.0
0.0024199794417930957 -0.00018340422155073926 0.0
0.0004525548756390325 -0.00010262393047492772 0.0
0.0007082783703559393 -0.0003272600998317834 0.0
0.001972478658514139 -3.909794385766846e-5 0.0
0.0019108943008138025 -3.573305228311766e-5 0.0
0.001741031741091492 -0.00035201889393241377 0.0
0.0006469406951529023 -0.0003083121206436711 0.0
0.000612416453743165 -0.0002879545890006443 0.0
0.0004114398702342317 -0.00011447513178446271 0.0
0.0004138729227861344 -0.0001285456115800231 0.0
0.0007636547637171905 -0.000274129775594236 0.0
0.0017923118663116832 -0.00041537625721670374 0.0
0.001833209151958303 -0.00039651144318708973 0.0
0.0006075743946547116 -0.0002695908573364627 0.0
0.0005776346160574913 -0.00026746204724186146 0.0
0.0017538727073418555 -0.0004318040065809607 0.0
0.0011214118193975822 -0.00043710070082956913 0.0
0.0005831918523307731 -0.00028619354903812813 0.0
0.0005484758262578312 -0.0002650949291052225 0.0
0.0011871494753686429 -0.00034715190538823625 0.0
0.0025766824651128595 -0.00010568015034853763 0.0
0.0025925797874610337 -9.063323754608158e-5 0.0
0.002560408190444948 -0.00012375127101776995 0.0
0.0018234443089724314 -0.00042227071513663717 0.0
0.0018637962937288715 -0.00040238022215738627 0.0
0.0017041668316512238 -0.00034480169014891175 0.0
0.0017486291768534518 -0.0003296487266496025 0.0
0.0011534945043383238 -0.00045248045753023804 0.0
0.001874329158043034 -0.00037701187912256436 0.0
0.0019046270645756644 -0.0003822269033085879 0.0
0.0003655922119516983 -0.00010906901883180026 0.0
0.00037007455539988425 -0.00012261902553041453 0.0
0.0018933721129390404 -0.0004085385033342953 0.0
0.0019332213461497486 -0.0003873133981763849 0.0
0.0005551082674572184 -0.0002842743730153594 0.0
0.0005202816440720933 -0.0002625126942893825 0.0
0.0019837724084046395 -1.7536762512902025e-5 0.0
0.0019216591202915767 -1.3822635999870059e-5 0.0
0.0005133226295601065 -0.0002442863470325068 0.0
0.00048494697272157607 -0.0002408619938396884 0.0
0.0004918213230611499 -0.0002594225728089269 0.0
0.0004565986870724705 -0.0002371366306007532 0.0
0.002609791427166819 -9.932304330237534e-5 0.0
0.0025932367805956264 -0.00011802754374045583 0.0
0.0007316565500620715 0.0001077917667594917 0.0
0.0006530458623424868 0.00010801249203725539 0.0
0.0018376228287233136 -7.315675009357782e-5 0.0
0.0011230791517479375 -0.00045847908023435955 0.0
0.0019214232321498057 -0.0004147450905521506 0.0
0.0019603138117226587 -0.00039230848177494834 0.0
0.0020743545095591614 9.409906216653307e-5 0.0
0.0019161432728018674 -0.0003570855868207871 0.0
0.0013248293615040563 -0.00041748187478746305 0.0
0.00044880091806928505 -0.00021952962130104996 0.0
0.00042120488266233846 -0.00021489387929008802 0.0
0.0004292477862151867 -0.00023326560010184793 0.0
0.0003936579822875552 -0.00021017497610345721 0.0
0.0003856556783678574 -0.00019297116664368296 0.0
0.0003571911509992462 -0.00018744379574850547 0.0
0.00034894688961938585 -0.00017075094336622225 0.0
0.00031996729024702205 -0.0001642783735005178 0.0
0.0003117811191359402 -0.0001488443858698583 0.0
0.00028433243156422824 -0.00014208306751578684 0.0
0.00027572666279497804 -0.00012801554722209382 0.0
0.00029197542259335406 -0.00015710544819315565 0.0
0.0002530629825629388 -0.00013152728243930598 0.0
0.0003231058042158981 -0.00010300257461862474 0.0
0.00032106675425980815 -9.097222275856627e-5 0.0
0.00026423205994230246 -0.0001492893474755185 0.0
0.00022856719483336233 -0.0001256674017778632 0.0
0.0008041053579897756 0.0001006132451453802 0.0
0.0008479861569459959 -0.00017095386739360142 0.0
0.001711067249938499 -0.0003229930163857571 0.0
0.0017556702429048676 -0.00030816923472548954 0.0
0.0005088282028012308 -0.00015216769842029668 0.0
0.0011542933569920139 -0.0004742985629051612 0.0
0.0011849448855310886 -0.00046787938663194346 0.0
0.0017936329770498111 -0.00031401773917939 0.0
0.0018011006285313397 -0.0002926044735017918 0.0
0.00264215863325603 -9.277032355513103e-5 0.0
0.0026235163221142474 -0.00011284217804687461 0.0
0.0025754008138647944 -0.0001415354736260973 0.0
0.0018486784933732484 -3.2513247195194346e-5 0.0
0.001858915939273284 -1.080267651514006e-5 0.0
0.001091249721287849 -0.00044258228400730846 0.0
0.001093168975195795 -0.00046401578576969814 0.0
0.0010618215010608767 -0.0004478201351824854 0.0
0.00040320040958176145 -0.00022927542730200525 0.0
0.0019329880198479636 8.557800652027887e-6 0.0
0.0018701662823138957 1.2128722105312965e-5 0.0
0.0007636713049380803 -0.0001922121677379861 0.0
0.0019476664892079758 -0.00042076943696828657 0.0
0.0019864995775099297 -0.0003973298782250402 0.0
0.001999893254627967 -0.00037002634553373674 0.0
0.0020257784593070067 -0.00037402982661480444 0.0
0.0007555914223639962 0.00012923912358410474 0.0
0.0006618295720999336 0.0001244945766361252 0.0
0.001046291580291983 -0.0003290253834818563 0.0
0.0019101277007658067 -0.00044372489270574835 0.0
0.002401583091111577 7.804283015119473e-5 0.0
0.0020119261676922726 -0.0004033499412351498 0.0
0.0020514930885487444 -0.00037905391243785955 0.0
0.0020656835920758116 -0.00035047443382475014 0.0
0.0020919205576057243 -0.0003545986912806935 0.0
0.0021070733839130234 -0.0003264521734379778 0.0
0.0021330373609291077 -0.0003297792360453688 0.0
0.0021177032190433927 -0.00035974923677992344 0.0
0.002158543561540371 -0.0003340783308775214 0.0
0.0002375047039966507 -0.00014018926249262817 0.0
0.00020258126821841326 -0.00011634795501808178 0.0
0.0001894077187550956 -0.00010083857197734229 0.0
0.001185634897971662 -0.0004901293374678104 0.0
0.0012150545196524458 -0.0004842160740642184 0.0
0.0010642356919656848 -0.0004693611978625762 0.0
0.0010330034543651312 -0.0004526531985638098 0.0
0.0026037627699191774 -0.00013827772958809016 0.0
0.002651552235717832 -0.00010837094543500228 0.0
0.0020409180899673466 0.00010298835630352343 0.0
0.001989391377077636 9.955375864395433e-5 0.0
0.000568537059796784 0.00010184655995020525 0.0
0.0005763429798033577 0.00011500685480061541 0.0
0.0002737687122066861 -0.00016651435803742876 0.0
0.0009783163254386464 -0.00026335715219422904 0.0
0.0018201662675367042 -0.00011455584731261034 0.0
0.0025572813125530583 -0.0001691636982778275 0.0
0.0007739319663862947 -9.962123763939365e-5 0.0
0.0017866788021793701 -2.9912586603521787e-5 0.0
0.0021423350614089565 -0.0003659738091254935 0.0
0.0021831459114434572 -0.00033942947770245374 0.0
0.0021873948484730727 7.139918117806349e-5 0.0
0.002291018179885232 6.278728000884732e-5 0.0
0.0007540356868824086 0.00014606186488030944 0.0
0.0004159159522487043 -0.00014221995780995409 0.0
0.0002737976950877378 -8.358848381656346e-5 0.0
0.00027240757843606604 -7.256374952572018e-5 0.0
0.0004373746007515219 -0.00025287370183623423 0.0
0.002039567961642014 -0.0004102663679277799 0.0
0.0016653377059959859 -0.00023814702937035128 0.0
0.0014983241162830076 -0.00043537594296434517 0.0
0.0009450798434622591 -0.0003378163889459362 0.0
0.00021150556224539202 -0.00013073441542541458 0.0
0.00017756096849993037 -0.00010660001288570798 0.0
0.0005897641058294866 -0.0003061117943521474 0.0
0.0018396918532162115 -0.00029770148625123523 0.0
0.0018475843539474495 -0.0002764862282672606 0.0
0.0010940763418711202 -0.00048637311726509945 0.0
0.0022353292411814735 5.3952089901040315e-5 0.0
0.002323919908891593 4.7284066266438046e-5 0.0
0.0022717629849079045 3.6852672941004846e-5 0.0
0.002357501483454707 3.136004363287303e-5 0.0
0.002408648184372373 4.073399248969289e-5 0.0
0.0024413094853741077 2.62326421435332e-5 0.0
0.002389314853886076 1.5404473251649752e-5 0.0
0.0024701790746930186 1.1965382233893198e-5 0.0
0.002418464141618378 7.157987681616869e-8 0.0
0.0024975506363612817 -1.3503947010104678e-6 0.0
0.0024469269327724854 -1.4521032500017e-5 0.0
0.002522548805199656 -1.3475164807373217e-5 0.0
0.0024729709766846105 -2.7893812783341958e-5 0.0
0.002545982986922308 -2.431029001295759e-5 0.0
0.00239458293694566 -3.091118760629589e-5 0.0
0.002497253886836217 -3.9580826618618956e-5 0.0
0.0025659591829970516 -3.4100339492122865e-5 0.0
0.0024944865083316933 3.373072013969897e-5 0.0
0.0005715380607576603 -0.0002494271856907586 0.0
0.0005624718584550376 -0.0003045523455674788 0.0
0.0005958862350541271 -0.00032663850563018553 0.0
0.0025199899665271433 -4.958514935735114e-5 0.0
0.0025853265878801163 -4.208427551328363e-5 0.0
0.0024549402588851807 -5.619923594655296e-5 0.0
0.0015312716299684496 -0.0004467434505820642 0.0
0.0014946164094123678 -0.0004586543531816221 0.0
0.0015269157070030854 -0.0004706070870795801 0.0
0.0014916117440525966 -0.000482458884319116 0.0
0.001523026777824689 -0.0004949753838577017 0.0
0.001489380451175768 -0.0005067700266319351 0.0
0.0014579690498468041 -0.0004938770867458087 0.0
0.0014565645012279123 -0.0005179501525200895 0.0
0.00142594015523862 -0.0005046357113396154 0.0
0.0013623288371696783 2.9049740952085124e-5 0.0
0.0015198932507516614 -0.0005199790265182999 0.0
0.0015531712182031566 -0.0005075741850404879 0.0
0.0012933074785308149 -0.00020363400200956342 0.0
0.001259757910681217 -0.00033382834516192784 0.0
0.0012973076251981443 -0.00032666278450654623 0.0
0.0012613914936155787 -0.0003157193885342842 0.0
0.0012995533916298236 -0.0003086400091352483 0.0
0.0012632198675970835 -0.0002981871478551651 0.0
0.001301942356319798 -0.0002912229768602695 0.0
0.0013384567058516653 -0.00030109056314045983 0.0
0.001341348665373273 -0.00028379570019490264 0.0
0.0013780746188463244 -0.0002930889246209873 0.0
0.0013813386702117014 -0.0002759120494587816 0.0
0.0014166353392153664 -0.0002845929119978838 0.0
0.0013444875450753064 -0.0002665918771177606 0.0
0.0012652501251893774 -0.00028120942532183394 0.0
0.0012264333940041664 -0.0002876509968690302 0.0
0.0014129536799887866 -0.0003025321311856239 0.0
0.0014536549641367305 -0.0002923743383796023 0.0
0.0005697752322390728 -0.00032552803799791374 0.0
0.0013488409654478686 -0.00013970023456214736 0.0
0.0013707134802245897 -3.370857422224524e-5 0.0
0.0015101453233343969 -0.00036895273318725497 0.0
0.0026577257563885764 -7.796130946551863e-5 0.0
0.0026888517485400627 -7.120032799829565e-5 0.0
0.0014874600477053272 -5.3017437584322236e-5 0.0
0.0014699260771415677 -9.026294262219492e-5 0.0
0.0020800897260417166 -0.0003239421351547473 0.0
0.0018043662753016024 -0.00020226414507132698 0.0
0.002632791520852032 -0.00013368717217309006 0.0
0.002678388877279251 -0.00010384980034183965 0.0
0.0014565930135077617 -0.00014308186388433333 0.0
0.00103577415477264 -0.0004744279144797112 0.0
0.0010047022231413326 -0.00045726854291310736 0.0
0.0015118535449299667 -1.4058571120188497e-5 0.0
0.0014246557541387893 -0.0005286186052945108 0.0
0.0013939026610719437 -0.0005139186878942835 0.0
0.0010019743854687159 -0.00043584793200380676 0.0
0.0009733924947764665 -0.00044002121393679034 0.0
0.000970535621172046 -0.0004189052676782585 0.0
0.0009418042026335787 -0.0004225827713459422 0.0
0.0009452811195756367 -0.00044400743630655513 0.0
0.0009137973877410496 -0.00042606753725083786 0.0
0.0009176017579390235 -0.0004477584866979912 0.0
0.0008861426783777592 -0.00042934964957814777 0.0
0.0004130189422053576 -0.0002496500776088996 0.0
0.0027031588917883747 -5.9544209772066895e-5 0.0
0.0019431662534415497 3.0786383509066775e-5 0.0
0.0018790585907295736 3.4320313326090805e-5 0.0
0.0008681576433592592 -0.000254848074559812 0.0
0.0007028660271743239 -0.0002740717468908404 0.0
0.0026102648763283 -2.1927471513074816e-5 0.0
0.0025745720924046935 -3.1452267395021623e-6 0.0
0.0012151432236385744 -0.0005064363925761612 0.0
0.0012452776382624962 -0.00049982032938349 0.0
0.0019352622078801938 -0.0004507481879668198 0.0
0.00038001118939044184 -0.00017679359598057876 0.0
0.001640044345576978 -0.00018636023406905868 0.0
0.0018077999833773736 1.4509597900687618e-5 0.0
0.001816388736596643 3.65723046317324e-5 0.0
0.002123006892235497 -0.0003004439354957291 0.0
0.002195486185949107 -0.00016560265065229104 0.0
0.0022000778041017057 -0.00030869482050398006 0.0
0.002225395918265309 -0.0003124934480203607 0.0
0.0022069300189872677 -0.00034602059344058476 0.0
0.002249983855430754 -0.000317782056686217 0.0
0.0012729934832790416 -0.00017134063053377883 0.0
0.0004453899356549341 -0.000273322211342414 0.0
0.0014179541574783252 -0.00026710448687842044 0.0
0.0023379307622869586 5.672826539817198e-7 0.0
0.0012210475188774337 -0.0004627936782972537 0.0
0.0006016223553002505 -0.0003476550038354679 0.0
0.0006278336436683588 -0.00034858930446180874 0.0
0.0018992317500293406 -0.0004737692102975205 0.0
0.0009384058369940435 -0.0004019165990695618 0.0
0.001717489085903699 -0.00030207692253779325 0.0
0.0016732448647300564 -0.0003160114842461608 0.0
0.0026597171797459176 -0.00012974063914867985 0.0
0.002705388335283801 -9.840712483426732e-5 0.0
0.00272227662406452 -7.770089882747204e-5 0.0
0.0008451381941546648 0.00015119439822795734 0.0
0.00018653260400333698 -0.00012043119649269653 0.0
0.0001530083858624797 -9.554433531561165e-5 0.0
0.00014763160772144772 -8.563543742552466e-5 0.0
0.0019583477944652684 0.0001053661559113738 0.0
0.0020062559281396265 0.0001036768609721526 0.0
0.001909509073595592 0.00010298622283638828 0.0
0.0020462607035922086 -2.1702542566418788e-5 0.0
0.0025417640812665713 -5.702837195324255e-5 0.0
0.0026059213261355376 -4.7630997814175974e-5 0.0
0.0010078947570769034 -0.0004793367822849465 0.0
0.0019982636487601456 -0.00010200208687169261 0.0
0.000481794563266706 9.097325506753648e-5 0.0
0.0004850281479180994 9.988658470071505e-5 0.0
0.0005870308449587326 0.00012604606468828773 0.0
0.00048663531480956206 0.00010583746111392329 0.0
0.0006307786703017299 0.00014295192412303482 0.0
0.001392167088847543 -0.0004896640638198897 0.0
0.0008816929473390321 -0.0004080867105346618 0.0
0.0008547609750011554 -0.0004109483178595513 0.0
0.0008591515789320353 -0.0004324719076019247 0.0
0.0008280898767670985 -0.0004136784034459339 0.0
0.0022676408319912676 -0.0002858059445413055 0.0
0.002292277462280362 -0.00029029738094438754 0.0
0.0022747275099092245 -0.0003241273565479281 0.0
0.00231621976954911 -0.0002957744558217897 0.0
0.0018078761009757405 -0.00027173476828799386 0.0
0.0018549955306668775 -0.0002560832295104332 0.0
0.001549905565432662 -0.0005330812745606643 0.0
0.001582561922711842 -0.0005201193888310347 0.0
0.0012282708902814276 -0.0002709278919682703 0.0
0.0011892678027306677 -0.0002769127329135902 0.0
0.001182426425181277 -0.000513510365513724 0.0
0.0008325857545522408 -0.0004351032890957045 0.0
0.0008021122506510828 -0.0004161509691901059 0.0
0.0025287268330938897 -0.00017165446607176975 0.0
0.002510562210528542 -0.00020138221545038646 0.0
0.002483327540042739 -0.00020265502613837455 0.0
0.0024695172079246272 -0.00023124840279848628 0.0
0.0012451177902190204 -0.0005239556314065229 0.0
0.00021766889931438098 -0.0001451002022159063 0.0
0.0003056167529379599 -0.0001352815555615711 0.0
0.00026535963930308666 -0.00011415804155967782 0.0
0.00022328569846394796 -6.472773452610664e-5 0.0
0.00021911612450501328 -5.449544516272927e-5 0.0
0.00027150761055215987 -6.101206524470546e-5 0.0
0.00021604817772118525 -4.404230190312362e-5 0.0
0.0002706089506654725 -4.858376868797557e-5 0.0
0.00021321123031568847 -3.30960182321479e-5 0.0
0.00027068485935646694 -3.532567930723026e-5 0.0
0.002538442298094014 -0.00019995193888537423 0.0
0.0008224436967545374 -0.00039283218617854146 0.0
0.0020948672807879483 -0.00029974827204725697 0.0
0.0018737941205144292 -0.0004650496983856298 0.0
0.0018641749024773183 -0.0004960748739346208 0.0
0.0018390304237532863 -0.000486936847530877 0.0
0.0013934598332824672 -0.0005384497056720644 0.0
0.001993209427405616 2.3804983438543082e-5 0.0
0.002298853794331084 -0.0003312905664351721 0.0
0.002749530281315004 -7.069953723652177e-5 0.0
0.0027317840580152776 -9.202758183821875e-5 0.0
0.0008431147896544739 0.0001648665261163397 0.0
0.0019353798636418615 4.95473641290818e-5 0.0
0.0014748218016001294 -0.0003592001260316699 0.0
0.0015137513140788673 -0.00034837807662213636 0.0
0.001456550996418595 -0.0005429714867425292 0.0
0.0013629527703987194 -0.0005232164979048845 0.0
0.0006172922025877037 -0.00016097251277729082 0.0
0.0026469498502088005 -3.469938607835527e-5 0.0
0.0026662801191927724 -3.837545021042965e-5 0.0
0.0026243060335252675 -5.1723181359417426e-5 0.0
0.002682576441717742 -4.1372862939525965e-5 0.0
0.0021943083314602194 -0.00022537494224497505 0.0
0.001639828489530389 -0.00043158456876000496 0.0
0.0016790688982520738 -0.00029573724684747157 0.0
0.0012218335166007978 -0.0003985180274780112 0.0
0.001772924833107061 -0.00016375998130086639 0.0
0.001886518371025026 -0.00028095749812697557 0.0
0.0018848428704142364 -0.00035311279395424864 0.0
0.00192765714287399 -0.0003335364091252191 0.0
0.0019223442325292171 9.97908247210494e-5 0.0
0.001981416010398397 9.32802187857321e-5 0.0
0.0006330151207256386 -0.00036980901590085363 0.0
0.0006580419612926371 -0.0003699803155449862 0.0
0.0002109137944405263 -2.1597489968414518e-5 0.0
0.00026887894301547344 -2.131695337880338e-5 0.0
0.0003304812127676333 -3.5914655958897025e-5 0.0
0.0003310673267197226 -1.914046825117686e-5 0.0
0.00026901389609637795 -7.2278783320253e-6 0.0
0.00033445579046966715 -2.218146780676939e-6 0.0
0.00027106173507304856 6.395154999611633e-6 0.0
0.00034066374695868637 1.4536538588462806e-5 0.0
0.00027420528081118346 1.9133957386560544e-5 0.0
0.00016231633120127688 -0.00010936553825970838 0.0
0.0016351225076198014 -0.0003087835905272551 0.0
0.00012957432122377767 -8.419575017978739e-5 0.0
0.0005767672540515566 -0.00034702000020118826 0.0
0.0027350385401511902 -5.223884855354686e-5 0.0
0.0013328057315180684 -0.0003375491980428128 0.0
0.0017470491426165593 1.5878358057586323e-5 0.0
0.0017593497338810387 3.9606523262678216e-5 0.0
0.0003473183892451517 3.056373401867006e-5 0.0
0.0004223006775704306 -0.0002708474490510389 0.0
0.0003903600753322622 -0.0002466390955813351 0.0
0.0008640334043738389 -0.0004582413250171293 0.0
0.0019203248068059477 -0.00048344234314169404 0.0
0.0010384089233844748 -0.000496956311334511 0.0
0.0023399787337182064 -0.00030179947439231813 0.0
0.00276540567483574 -5.4856258633298214e-5 0.0
0.001187785793506097 -0.00029380532720219645 0.0
0.0011508095506460086 -0.0002824521498730959 0.0
0.001149578026221379 -0.00029955920139169984 0.0
0.0009238177136507377 0.00016647215325619436 0.0
0.0011147759379417552 -0.0002876761963682489 0.0
0.00023163051647843728 -7.595999396181807e-5 0.0
0.001578987636550049 -0.0005463806005175019 0.0
0.0016117323801160357 -0.0005327857052078663 0.0
0.0016160643784270212 -0.0005063634186604808 0.0
0.0016449851718968143 -0.0005183639112882942 0.0
0.0019592588807343754 -0.00033687033033315386 0.0
0.001971817215744554 -0.00031328106370748834 0.0
0.002747051160976996 -4.363505204726636e-5 0.0
0.0027144003214007333 -5.059719226153401e-5 0.0
0.0018373832263089223 6.149838065047662e-5 0.0
0.0017720188224350784 6.493365811277384e-5 0.0
0.0005455184771897718 -0.00032461476362159963 0.0
0.0008068274003317637 -0.00043771266928836885 0.0
0.0007769194656201095 -0.0004185138968512896 0.0
0.0014023180121240791 -0.0001976209829362005 0.0
0.0022586220136213307 -0.00036056412941874033 0.0
0.0002795382278579644 3.072994651131574e-5 0.0
0.0007714353869661749 -0.000396915275886567 0.0
0.00164023792714256 -0.0005455375495978794 0.0
0.0016729960548942861 -0.0005303444376725052 0.0
0.0016399273839061356 -0.00028957369688995595 0.0
0.0015969306490002412 -0.0003013315924402112 0.0
0.001601325939323666 -0.0002827730160860284 0.0
0.0014856552494312044 -0.00016919840306597056 0.0
0.0002316061302216113 -0.00010528455677374973 0.0
0.00013881265984675708 -9.767676693534839e-5 0.0
0.001650608822639926 -0.000491645914487346 0.0
0.0017067525313509283 -0.00024423374679228036 0.0
0.0013630811456678002 -0.0005479745643645702 0.0
0.0005587326355882582 -0.0001062766531305116 0.0
0.0009827584702831057 -0.0001997471596854364 0.0
0.0004535079580346245 -0.0002956205659933101 0.0
0.002357807517078689 -0.00026802665966254273 0.0
0.0006040854826818243 -0.0002521442610885641 0.0
0.0005659243273321669 -0.00023192770997928418 0.0
0.0006014648148746169 -0.00023504768706727281 0.0
0.0005618339891990632 -0.0002151062581741349 0.0
0.0005985053027287395 -0.00021825518849103283 0.0
0.0005259315681190293 -0.00021149042984246018 0.0
0.0018302510045126762 -0.0005177854271647402 0.0
0.0018070577367239303 -0.0005079800239021018 0.0
0.0003864242521791729 7.412993836223257e-5 0.0
0.0013942175360742 -0.0005633071569817934 0.0
0.001357936822865395 -0.00043022873725727894 0.0
0.001323427834497738 -0.0004387318413526626 0.0
0.0006636444853241616 -0.0003916729533002039 0.0
0.00017964897180261247 -5.632604171448826e-5 0.0
0.000191535906006518 -6.833586843483366e-5 0.0
0.0025561582167769265 -9.76010673676281e-5 0.0
0.002606463966987142 -7.815555231916325e-5 0.0
0.00039360590514791777 -3.442405637950292e-5 0.0
0.0006882192510689849 -0.00039096300512932126 0.0
0.0006844288799157463 -0.00037110467962320204 0.0
0.0006937805121008834 -0.00041302065599755565 0.0
0.0006395933003812438 -0.0003920428587127409 0.0
0.0005085935567237613 0.00011633515977320158 0.0
0.0010594239714985603 -0.00042695531390540587 0.0
0.0016296512044649061 -0.0003293328188903684 0.0
0.0025672170409259064 -8.520418719794975e-5 0.0
0.001547187551671597 -0.0005592953348110528 0.0
0.0010106145942195303 -0.0005021911157920712 0.0
0.0027742641035600974 -6.393952303468215e-5 0.0
0.002756306554890287 -8.593613944663248e-5 0.0
0.0009315602878347036 0.00015153256226207494 0.0
0.0007825291254497838 -0.00044076480904378 0.0
0.0018141071572311499 -0.0002508782992033483 0.0
0.0018651334650217673 -0.00023540748258553203 0.0
0.00029975041990347353 -0.00012231980196654574 0.0
0.0003999141470563495 -0.00026799946185058007 0.0
0.0003688879079037578 -0.00024378400846288516 0.0
0.0003587687901836185 -0.00022324121758083302 0.0
0.00055289069642649 -0.0003464226178132162 0.0
0.00010676129736680703 -7.218478448552637e-5 0.0
9.95128079854763e-5 -6.241232032480441e-5 0.0
0.0016677890534265829 -0.0005583175565450851 0.0
0.001699767005708471 -0.0005423820495099566 0.0
0.001704867276680174 -0.0005126997541793654 0.0
0.0023104858336445034 -0.0002594082398155428 0.0
0.0022849034084057784 -0.0002568654584060001 0.0
0.0022817140432416453 -0.00036964076335912544 0.0
0.0005213056118138587 -0.00019521805561452518 0.0
0.0004862140384016679 -0.0001917487421376742 0.0
0.0019050668300593851 -0.00023971501289177824 0.0
0.002721818255995088 -2.9777409810734274e-5 0.0
0.0027364037041373544 -3.169648207001253e-5 0.0
0.002753555454717469 -3.77872986799056e-5 0.0
0.0027055834647750853 -0.00012580776098652723 0.0
0.00017130819640034077 -0.00012514057223838603 0.0
0.0017764976108404003 -4.850138738699049e-5 0.0
0.0017197718847062938 -4.6583604921005246e-5 0.0
0.001710067095172657 -6.272496852673091e-5 0.0
0.0016567616787788997 -6.121363537116574e-5 0.0
0.0016505947554159356 -7.638681593738735e-5 0.0
0.001661458900701726 -4.6530715640280844e-5 0.0
0.001478391028556219 -0.0003391684259266219 0.0
0.0011908575484302867 -0.00026059181758385214 0.0
0.0012304089589993627 -0.0002547080127131019 0.0
0.0003784387721029556 -0.00026515233793856634 0.0
0.00034771353572219104 -0.00024020465679647614 0.0
0.0024588443198938935 4.679237727213512e-5 0.0
0.002547352749214604 3.8299606744470835e-5 0.0
0.0025829827268385934 2.5612675619082403e-5 0.0
0.0026353174067238346 2.879872147479028e-5 0.0
0.0026123643717263323 3.937491200003677e-5 0.0
0.001333989941599257 -0.0005330432537798082 0.0
0.0013334723184795115 -0.0005097972196092794 0.0
0.0013335314851961563 -0.0005572717107574989 0.0
0.0016866627518574825 1.5749092851626308e-5 0.0
0.001676104510844805 -3.6804279665823355e-6 0.0
0.00039496419409527374 -5.2608892181341414e-5 0.0
0.0002046079495648279 1.8405628850212877e-5 0.0
0.0017976446195703132 -0.0005384929155791551 0.0
0.00047673002198282775 8.025254722455545e-5 0.0
0.0018311137060912973 -0.00031953987743171364 0.0
0.0017107641578518792 -7.802427451199419e-5 0.0
0.00164477958930441 -9.130032348472917e-5 0.0
0.0016940380724719721 -9.494587797803306e-5 0.0
0.0016387206964241267 -0.000106001635516333 0.0
0.0016852157373223153 -0.0001100806617389601 0.0
0.0016328903797061698 -0.0001208122894678363 0.0
0.0016779782803887989 -0.0001252031219756738 0.0
0.0016273182619485234 -0.00013589340224204829 0.0
0.0016731064504441236 -0.00014046881732961516 0.0
0.0015897492494024602 -0.00010190311723346243 0.0
0.0015823357908561681 -0.00013112180826977928 0.0
0.001854486208061426 -0.0005278477756647834 0.0
0.0027860842422893976 -3.413715819109758e-5 0.0
0.0009681214334067011 -0.00039858227563539935 0.0
0.0009347484071259205 -0.0003823558244233803 0.0
0.0026133908937300367 -0.00016361109526998396 0.0
0.001117653753358552 -0.00027335037308328194 0.0
0.0016005477904849402 -7.339219884831327e-5 0.0
0.0006421240342616002 0.00015351476271228287 0.0
0.00016621973438820528 -3.815158115898178e-5 0.0
0.001011092096614164 0.0001648435986108663 0.0
0.0010097797325815643 0.00014753761293290278 0.0
0.0021449365072583305 5.729478707511215e-5 0.0
0.002639787183189753 -0.00016056838450612544 0.0
0.002595695386046652 -0.00019620757505088888 0.0
0.0011126360708616071 -0.0003047669934081783 0.0
0.0010813447392490605 -0.00029019516834627814 0.0
0.0004759896634460598 -0.00028038642302222574 0.0
0.00011594016284213419 -8.515768447845972e-5 0.0
0.00013644410465980512 -4.620068789366255e-5 0.0
0.00014206695885330035 -5.382506141183702e-5 0.0
8.433395795431435e-5 -5.9376820465239594e-5 0.0
0.0019382823369970554 -0.00031072908648989786 0.0
0.0019836511780624696 -0.00029109691015864606 0.0
0.002017620581461912 -0.00029290364898175203 0.0
0.0020293671655823116 -0.0002708427454510479 0.0
0.001577975396936139 -0.0001453931394844021 0.0
0.0007559292316818961 0.00017534448742649732 0.0
0.0009380990668458361 0.00017863577060678757 0.0
0.001558886645122422 -0.0002936614563543319 0.0
0.0015636147535161651 -0.0002753054514434622 0.0
0.0011934609530613416 -0.0002453959281789866 0.0
0.0010198777400879382 -0.00024317947200702054 0.0
0.001041153530554117 -0.0005201974534220396 0.0
0.00210339007435008 -0.00039217448980997477 0.0
0.0021269601335341384 -0.0004003864166374954 0.0
0.0020900034390347543 -0.0004268707536939707 0.0
0.002112905312461707 -0.0004371353391280615 0.0
0.002077520918217521 -0.0004635460864147884 0.0
0.002054565218582098 -0.00045305498677265105 0.0
0.0019963124867598617 -0.00043992069322283255 0.0
0.0018125929714711806 -0.00047755527274656443 0.0
0.0019391210660617678 9.216088152405949e-5 0.0
0.0014620867560463794 -0.00044678471218402495 0.0
0.00040640263527180406 5.316069242744093e-6 0.0
0.002735714349603494 -0.00011431236283209022 0.0
0.002778748548074238 -7.940223100956583e-5 0.0
0.0021495681307334663 -0.0004098028990027797 0.0
0.0021361337034976 -0.00044762437358397044 0.0
0.002171496319945625 -0.000420375522362637 0.0
0.0010680106420783832 -0.000514685943970518 0.0
0.0012906697334522414 -0.0004255565149388026 0.0
0.0012904900208888276 -0.00044640396753921536 0.0
0.0013223453730511097 -0.0004604366482341226 0.0
0.0008764918636681664 -0.0003276915790951288 0.0
0.0012578068356272015 -0.0004327194374447363 0.0
0.0016214467981811233 -0.0004810863553005209 0.0
0.0023299467870525085 -0.00023085480833417022 0.0
0.0023811829106988288 -0.00027266997868821816 0.0
0.0023629918655720485 -0.0003087420387619312 0.0
0.002405213709746256 -0.00023681641165288468 0.0
0.0003325726310841127 -6.640473541762515e-5 0.0
0.0009489893958819046 -0.000466137073939938 0.0
0.0009220627731033154 -0.00047025924263891525 0.0
0.0009525248272318819 -0.000488808158551942 0.0
0.0009268995385421463 -0.000493245537506932 0.0
0.0020630928357309943 -0.00027158272062207566 0.0
0.0005842534174086851 -0.00036940842746940514 0.0
0.0005233907123375082 -0.00032415511234057626 0.0
0.002696485383000312 -4.4221442602961696e-5 0.0
0.000156378865255791 -2.014237741684707e-5 0.0
0.0001545890463893597 -1.1356718811309817e-5 0.0
0.0017732432014336066 -0.0005243648668493534 0.0
0.0017687569478072806 -0.0005573810888688313 0.0
0.0014390033551119354 -0.0003493313505935808 0.0
0.0026701344242218822 1.7688132317762687e-5 0.0
0.0005303262697580643 -0.0003458170399261141 0.0
0.0021507136813184845 6.792575641921794e-5 0.0
0.002498134930969879 -0.00017466085053003422 0.0
0.0025363253690650076 6.729251537495431e-5 0.0
0.002565617209106959 6.322060313288498e-5 0.0
0.0019950566873738885 -0.0002697793098241999 0.0
0.002139506774840436 -0.0002767819704019911 0.0
0.0021678647473525074 -0.00027669681301769125 0.0
0.0019180839185344218 7.87826176043023e-5 0.0
0.0019741511893963636 6.915163705737182e-5 0.0
0.0020405809728687124 8.70146936875368e-5 0.0
0.001635387406643212 -0.0005733573775503621 0.0
0.0008102921239319207 -0.0004595898786641436 0.0
0.0012239729838310121 -0.00032254777561225055 0.0
0.0017671411813603044 -0.0002671166352571632 0.0
0.0015480338348354684 -0.00035684875223789523 0.0
0.0015756992610219823 -0.0005733230119432647 0.0
0.000717212502520733 -0.0004115996455145896 0.0
0.0009054498959742107 -0.00038477338161640036 0.0
0.0003755361362942396 -0.00013679386950067252 0.0
0.002708099409833762 1.954914380988706e-5 0.0
0.00205270850728174 -0.0003228341179887842 0.0
0.000258013302672523 -0.00010232673030337274 0.0
0.0007691346637864447 0.00018989201060836013 0.0
0.0015631939563626638 -0.00045816146463418145 0.0
0.002042706579740876 -0.0004899370898710815 0.0
0.00201856032950891 -0.00047897202636196283 0.0
0.0018103988996268057 -0.00036541908382129633 0.0
0.0019125672633237014 -0.0002198796347774323 0.0
0.0008317227583224269 -0.0002728624444670416 0.0
0.0012900130006067152 -0.0004715389371896734 0.0
0.0017516727454565287 -0.00023228486316155693 0.0
0.0009015175242979619 -0.0003654910761091814 0.0
0.000871749699586395 -0.0003672880348112982 0.0
0.000722710536522475 -0.000434043282052264 0.0
0.00045741285117072454 -5.194142705744765e-5 0.0
0.0004595076438222295 -3.23327609570426e-5 0.0
0.00021046708978296323 2.6328399117312543e-5 0.0
0.0002911312647623775 4.1876901477619316e-5 0.0
0.0022432666252974742 -0.0003989051781651133 0.0
0.0003397384447362039 -0.00014294997975708594 0.0
0.0004913440392222636 -0.00020803677297285734 0.0
0.0004516486658985711 -0.00018757660103300064 0.0
0.0023778618634750573 -0.00023616585645308043 0.0
0.001187369703085685 -0.0004253927585654638 0.0
0.0015172894667215807 -0.00032764201571001137 0.0
0.0018564110528477863 9.404267110526041e-5 0.0
0.001837794560422193 0.0001035214147153994 0.0
0.0017874059646796354 9.688412041870855e-5 0.0
0.0017713006898714095 0.00010060418848306379 0.0
0.001817524829491529 0.00010015171906733493 0.0
0.002060688507411436 1.2360283563782602e-6 0.0
0.002120290986870872 -5.82357696518067e-6 0.0
0.0021375758565825346 1.5333009697048036e-5 0.0
0.002192461632709452 7.105360068683851e-6 0.0
0.0021760171178335347 -1.3931437170139916e-5 0.0
0.00012948124483169493 -3.8469162091248e-5 0.0
0.0020764555653026403 -0.00025052513386005675 0.0
0.000367637298544836 7.876474777166874e-5 0.0
0.0003950252422857655 8.977846954374928e-5 0.0
0.0016942084510378097 -0.0005709196324378163 0.0
9.996703645132565e-5 -9.560890508558432e-6 0.0
0.0022867304991051247 -0.00014397197721060858 0.0
0.002342315834913912 -0.0001231261252750446 0.0
0.0023032726785328556 -0.00012286061018122076 0.0
0.0023861767056412016 -0.00011967909493819049 0.0
0.0023990780718887734 -0.00010283015371389353 0.0
0.0024437974906535305 -9.969410035415517e-5 0.0
0.0006389080358287046 -0.0002374552718015638 0.0
0.0006377868963685682 -0.0002210954679965857 0.0
0.0005952994641787117 -0.0002017341336955715 0.0
0.0006361171084347161 -0.00020498941151758142 0.0
0.0006788336498009678 -0.00022361793286556302 0.0
0.0006778415561648742 -0.00020741833313657625 0.0
0.0007200073186485843 -0.0002252474230964195 0.0
0.0007881580710778287 -0.0004623407374138327 0.0
0.0007194842630055637 -0.0002085856595558771 0.0
0.0007614963882079046 -0.0002262360538160373 0.0
0.00020655400689569293 1.5235444564952238e-7 0.0
0.0004566461143270333 -7.048504524187649e-5 0.0
0.000760308184183349 -0.000242332095689199 0.0
0.0005969561289671507 -0.00018748860091033956 0.0
0.0023028701013467533 -0.00023058175987652834 0.0
0.0022589795806889496 -0.00025580792130331113 0.0
0.0013054874884188632 -0.000542922290541515 0.0
0.0013047799434997044 -0.0005664309378885047 0.0
0.001724310772423055 9.529468057066285e-5 0.0
0.000942298682532999 0.0001319244719448923 0.0
0.0010153921972238008 0.00012511963203519011 0.0
0.0010781526123732866 0.0001392371890721555 0.0
0.0010839024899569915 0.00011336135229365729 0.0
0.001023794760033399 9.837723285272215e-5 0.0
0.00109152661613062 8.103286356300819e-5 0.0
0.0010337060831122 6.845548368557073e-5 0.0
0.001101752346574158 4.778370317100107e-5 0.0
0.001043731302347283 3.912246545180894e-5 0.0
0.0011218690282814802 1.7243707724818742e-5 0.0
0.0010520937240577212 1.2762659566712318e-5 0.0
0.0011168865856024698 -6.165488185465422e-6 0.0
0.0010566160962065666 -1.0178020942452413e-5 0.0
0.0011188563301169866 -2.69093271273414e-5 0.0
0.0010636744599221107 -3.155819925998024e-5 0.0
0.0011222985965990027 -4.604273128588246e-5 0.0
0.001067703995660944 -5.037233261582375e-5 0.0
0.001122499469484783 -6.301440076883483e-5 0.0
0.0010705783752609694 -6.7370554708609e-5 0.0
0.0011230592864626388 -7.86735413075151e-5 0.0
0.0010723810160073038 -8.337297475284855e-5 0.0
0.0011227908069507105 -9.387131526960465e-5 0.0
0.001072304213964138 -9.867754976960193e-5 0.0
0.0011221259876444257 -0.00010823904461014437 0.0
0.0010720897120459077 -0.00011396187718133831 0.0
0.0010219441413582531 -0.00010302463157340968 0.0
0.0010222929300020634 -0.00011895063542745725 0.0
0.0011249526383643313 -0.00012400600214139223 0.0
0.0010170921900125329 -5.4454458085498886e-5 0.0
0.0011710923289244299 -0.00010198767890614468 0.0
0.001177913168236352 -7.445295644910413e-5 0.0
0.0009787102762369936 5.712193551989704e-5 0.0
0.0011765108581992668 -4.1084612442027405e-5 0.0
0.0009710697002413207 -0.00010715584986037271 0.0
0.0009726719380566224 -0.00012334737446353448 0.0
0.0010228109455321694 -0.00013488821114801696 0.0
0.0009742574976697948 -0.0001394277467700764 0.0
0.0010015045356050333 -1.4991288048514043e-5 0.0
0.0011820980059035705 -5.6086213680812774e-6 0.0
0.0009703918084426793 -9.05858183487724e-5 0.0
0.0011613929186817392 5.7734805277325e-5 0.0
0.0010236458974752928 -0.00015063851249298336 0.0
0.0009756151063737644 -0.00015536991787190577 0.0
0.0009262242948421362 -0.00014345647495748727 0.0
0.0009175041497040861 -9.45638457127121e-5 0.0
0.0009143417576675471 -7.618063085089425e-5 0.0
0.0010720641419478792 -0.00014526680401929075 0.0
0.0010713812956260058 -0.00016071936143624284 0.0
0.0011183792382488723 -0.00015510300931713926 0.0
0.0011456493581541009 0.0001247291834495549 0.0
0.0011453527270142508 0.0001442077496539663 0.0
0.000929567636188775 -0.0001598087678647895 0.0
0.0008790212501725448 -0.0001472153395224921 0.0
0.0008766615677059447 -0.00013111310579344952 0.0
0.0008266723150427509 -0.0001338880943835553 0.0
0.0015449894550589821 -0.000585822957367587 0.0
0.0015168071264224307 -0.0005715674211161627 0.0
0.0026213201541169934 -0.0001935932063508958 0.0
0.0016566143178902476 -0.00046589208676822035 0.0
0.0016861264891414103 -0.0004762198369104699 0.0
0.0009607402388773292 -0.00037827880882516604 0.0
0.0009944161880589592 -0.00039385645386612306 0.0
0.002345298960034554 6.831131033575429e-5 0.0
0.0016841055166741058 -0.0002760231282934551 0.0
0.0009782679932476368 -0.00017092446915320473 0.0
0.0007432055552184525 -0.00039803884266344475 0.0
0.0007405292317668878 -0.00037770023540868166 0.0
0.0007663424741593444 -0.00037646172699483215 0.0
0.0018711487285340074 -0.00021591760112641165 0.0
0.001735049116283159 -0.00010021106812454261 0.0
0.0011494727345692265 -0.0003171595476471616 0.0
0.0011134485703210577 -0.00032263662310794594 0.0
0.0016164630816230974 -3.6659178190496813e-6 0.0
0.0016102604876531105 -1.9209506977939605e-5 0.0
0.0016610716771217368 -2.0188051673039678e-5 0.0
0.0015996596939490345 -3.5515436809789275e-5 0.0
0.0016266688535432215 1.3450347759497814e-5 0.0
0.0017228452160276983 -0.00012998259104313585 0.0
0.001718799059489891 -0.00014523082937141848 0.0
0.0016642435685287845 -0.0001558384890736053 0.0
0.0012332022583771975 -0.00023939313404326397 0.0
0.0012705406559031787 -0.00024840946723937637 0.0
0.001273880188487821 -0.0002335545160578274 0.0
0.0013106746802912963 -0.00024167191885340254 0.0
0.001314057201401912 -0.00022702859080709581 0.0
0.0013508246513958045 -0.00023464810202759067 0.0
0.001354494893108421 -0.00022024526402108816 0.0
0.0013928942583270047 -0.00022722772783988736 0.0
0.0013881811966516796 -0.00024242791289277177 0.0
0.001431353493327813 -0.00023243256253380141 0.0
0.001607894343077494 -0.00026539075369081365 0.0
0.0015681567288633024 -0.000258097915674294 0.0
0.0015256454537571804 -0.00026798893065846477 0.0
0.0015295321980501961 -0.0002512847634128553 0.0
0.00029389608891448686 -0.00011008972666736129 0.0
0.0003582072916840252 -0.0002621153724442656 0.0
0.00032790941510452127 -0.0002364474573151984 0.0
0.0003177645428758471 -0.00021477385853040115 0.0
0.00029699189414457173 -0.00020991957604292832 0.0
0.0014421605149187503 -0.0003299072984182587 0.0
0.0019535693437166273 -0.00022259717533270815 0.0
0.0019418688743599883 -0.000243776433439816 0.0
0.0007578197693152414 0.00015834134517483104 0.0
0.0015356263685141504 -0.00014062287528384345 0.0
0.001538212291573529 -0.00012807101405366118 0.0
0.0016238387284152524 8.396152680058942e-5 0.0
0.00274184460868108 -5.962722128564791e-5 0.0
0.002780711959351102 -4.27670093916572e-5 0.0
0.002807111731644317 -3.5673797388316585e-5 0.0
9.82629674707818e-5 -3.57033894693876e-5 0.0
0.00010150515890617042 -4.0909226198457694e-5 0.0
0.0001436138362670515 -5.9902125900353026e-5 0.0
0.00010756673933072756 -4.735457705256206e-5 0.0
0.00014702959674670616 -6.697387007560492e-5 0.0
0.00011186740872830163 -5.3559419931068624e-5 0.0
6.919661588680359e-5 -3.2198238975358984e-5 0.0
0.0014030884999968185 -0.00033941875491500943 0.0
0.000679089439437951 -0.0001918808182426333 0.0
0.0004103365727535594 -0.0002902181985416171 0.0
0.0011162116766679372 -0.00016935027229211116 0.0
0.0025856473133379176 -0.00022568057162083733 0.0
0.0025579655929882142 -0.00023375813399155893 0.0
0.0021845552515884054 -0.0002533009430887146 0.0
0.0022230463477713844 -0.00024811818034442063 0.0
0.0022360506114794186 -0.0002251962799170774 0.0
0.0001343511657740709 1.378047155444418e-5 0.0
0.0010150168167957516 -0.0005256282525895946 0.0
0.0007003425313073836 -0.00043611726764428637 0.0
9.376562993130422e-5 -7.213999626009269e-5 0.0
0.0001277037688437539 -0.00010373171113497182 0.0
0.0005547572707599016 -0.0001839622999965328 0.0
0.0017622666488242786 9.035249888025276e-5 0.0
0.0018159536215797167 8.398998796918098e-5 0.0
0.0021068625912460497 -0.0002779406612196032 0.0
0.0021941922120465077 -0.0002777858880697028 0.0
0.0009568815191349049 -0.0005113181507836062 0.0
0.0010696152857767446 -0.000537125363501597 0.0
0.0010967224774394815 -0.0005321095933950018 0.0
0.002403286931051167 -0.00027898633413809767 0.0
0.0023851843653936375 -0.0003164280491918245 0.0
0.0023441151839948267 -0.0003527686239781395 0.0
0.002618471442253844 -6.740057457985193e-5 0.0
0.002579040769472451 -7.371115704018146e-5 0.0
0.002527022643544423 -9.140805325946665e-5 0.0
0.0025350927756514242 -7.964985118702163e-5 0.0
0.00047494840547763464 -0.00017643552574811083 0.0
0.002454476868122502 -8.459581574228905e-5 0.0
0.0024020596957044747 -8.705081541720315e-5 0.0
0.001693943618791457 -0.0004515576223101863 0.0
0.0003053083577901011 -0.00022947939060503108 0.0
0.0002781812692410455 -0.00020698418945306376 0.0
0.0002675885236634293 -0.0001866972289591268 0.0
0.0002491272238183719 -0.00018235290854838154 0.0
0.0028155818774470297 -2.9091245541307904e-5 0.0
0.0027510314288844923 -3.233871828919518e-5 0.0
0.0027881497525136262 -2.2061708160589723e-5 0.0
0.002264836156144752 -0.00040750269421976605 0.0
0.0011532196669983051 -0.000250138807125691 0.0
0.0024236693166474078 -0.00028668201168774985 0.0
0.0024077489279358544 -0.0003228631614908261 0.0
0.002443667364809974 -0.0002939885389858992 0.0
0.0024308714435937206 -0.0003320424447289888 0.0
0.0024680439970077767 -0.0002969783100286861 0.0
0.002481196894795712 -0.00026358063474279486 0.0
0.002501898767382734 -0.00026891870318509976 0.0
0.0013355754783130774 -0.0005808995752340902 0.0
0.001308590666410665 -0.0005921375613184684 0.0
0.0012726455619830963 -0.0005748515274257789 0.0
0.0009335237342560499 -0.00017633249166429981 0.0
8.026876680496861e-5 -4.054621765330526e-5 0.0
0.00011567440145695114 -6.0051566721881735e-5 0.0
8.445393719202886e-5 -4.586577558125554e-5 0.0
0.0009353759348736232 -0.0005200276663766936 0.0
0.0009040135344157696 -0.000498483927188779 0.0
0.002697851749843775 -0.000149366720680173 0.0
0.0002228186901503024 3.437419291142601e-5 0.0
0.0014884560282200554 -0.0002625359631623936 0.0
0.0014938598899727534 -0.0002452852711514247 0.0
0.0026139232914325614 1.4061488883554629e-5 0.0
0.002698506516390125 8.355476342385831e-6 0.0
0.0024214315153782153 -0.00020933192603923685 0.0
0.0005031578748175351 -0.0003230677273500621 0.0
0.0005134717516109518 -0.00034722543860657017 0.0
0.0020544775930280194 -0.0002927726777592993 0.0
0.0021098773348467562 2.8444672727439456e-5 0.0
0.0027589475334396257 -0.00010633173990298097 0.0
0.002800949244610632 -7.097090548204716e-5 0.0
0.002818078538283834 -5.0242271303114805e-5 0.0
0.0020288303717405777 6.010512319050165e-5 0.0
0.0023489074620584895 -0.00020622268615167497 0.0
0.0012765506123192346 -0.0005107857421670945 0.0
0.0024296567068437525 -0.00011568527019580883 0.0
0.0022688399913133603 -0.00023524785111608053 0.0
0.0008701809296606729 -0.0003472192982306168 0.0
0.0005145437740464968 -0.0003027039027052237 0.0
0.002662422037829679 -5.857230124358907e-5 0.0
0.0021963812599111346 8.836344199280822e-5 0.0
0.0009052006445058233 -0.0005200408055435853 0.0
0.000422895033895692 -0.00015849864517089284 0.0
0.0015252503448683885 -0.000156044406711514 0.0
0.002219855634564772 -0.000394523930881599 0.0
0.0022094112390872544 -0.0004295914939860391 0.0
6.386971763809226e-5 -4.7210796091142996e-5 0.0
0.001723714876537644 -0.0005576894585738119 0.0
0.0017135605621929305 -0.0005819216489365847 0.0
0.0010967000662981063 -0.0005581719272983181 0.0
0.0011252445411967602 -0.00055013402549757 0.0
0.001123530891737494 -0.0005263574081457184 0.0
0.0011525389936562968 -0.0005432764180166919 0.0
0.0011261613990556014 -0.0005700683581930388 0.0
0.0009699168262588243 -7.359122188222052e-5 0.0
0.000912949787767861 -5.868344105610803e-5 0.0
0.00039310119903368925 -6.893473027824349e-5 0.0
0.0008591942415555264 0.0001968599462301056 0.0
0.0008510923384915084 0.00018416077321406133 0.0
0.001738475305986651 8.066204746481366e-5 0.0
0.002155682072378667 -0.00045881921229069204 0.0
0.0021236886257052835 -0.00048525406131720816 0.0
0.0002569148963424466 -0.00020253963910596092 0.0
0.00022859237144426555 -0.00017605963891290918 0.0
0.002802149479740566 -2.1781210175179768e-5 0.0
0.00046374536663911647 -0.00020508518006958035 0.0
0.00041942082063327725 -0.00018607071873929064 0.0
0.0026105565890230885 6.239707804422993e-5 0.0
0.0026609541176027167 -0.00015960742591325739 0.0
0.0026420150837047633 -0.00019492397887467425 0.0
0.0015717199173177381 -0.00016020359089551737 0.0
0.0017899023463182283 -0.0005682222805836257 0.0
0.0017549120306107548 -0.0005907285643381569 0.0
0.0007984979904833933 -0.0002417829531279661 0.0
0.0008024498862324568 -0.0002257357637061742 0.0
0.0011523825181682286 -0.0005200089602808456 0.0
0.0024331897881308103 -0.0002397728284341865 0.0
0.0013963846480274896 -0.00021257394100588985 0.0
0.0013612883559678114 -0.00020569344593807183 0.0
7.750090283064931e-5 -6.319721452925836e-5 0.0
0.0008516982885349622 0.0003055734577923087 0.0
0.001275821202217625 -0.00021836488038471782 0.0
0.0008624965352166496 -8.088540025776291e-5 0.0
0.0008682672193316994 -9.864560298815305e-5 0.0
0.0005206760662604 -6.985119031818664e-5 0.0
0.0017726006982906263 -0.00013319214931588262 0.0
0.001160896633234438 -0.00016387950974031145 0.0
0.0011643097755964225 -0.00015005409003915712 0.0
0.0012056219219316719 -0.0001586003556249423 0.0
0.001208076414192651 -0.00014556365580857723 0.0
0.00124776210925505 -0.00015238425272556463 0.0
0.0012507604695686896 -0.0001401210949820556 0.0
0.0012102539096183482 -0.0001330394354384882 0.0
0.0012533320441181224 -0.00012773298613801042 0.0
0.0012129826571285005 -0.00012095484229399603 0.0
0.0012566765741536025 -0.00011581113843101241 0.0
0.0012878212593641159 -0.0001466285393063334 0.0
0.0001068366868792503 -4.405450779788928e-6 0.0
0.001710450215093456 -0.00016289689710693496 0.0
0.0011626796282778642 -0.00023544560117761803 0.0
0.0011509246651983075 9.30727816581166e-5 0.0
0.0012307289735958233 6.183172863479939e-5 0.0
0.0012311347559117855 3.195126722228446e-5 0.0
0.0012133156477126073 0.00010211465740473484 0.0
0.0011745075667975733 2.7865080809698646e-5 0.0
0.001241421268735433 9.521414556355666e-6 0.0
0.001305109463398911 9.251842421028914e-6 0.0
0.00128049563280859 7.896212873297788e-5 0.0
0.00018341895728574332 -7.972881586702398e-5 0.0
0.00018910208115288264 -8.919845547698642e-5 0.0
0.002802987907212968 1.3678710712346908e-5 0.0
0.002708503667696976 3.0029319128722275e-5 0.0
0.0027024784364705775 3.584229133814794e-5 0.0
0.0020689733686946694 -0.000504397310258783 0.0
0.002031191057307223 -0.0005283514267652691 0.0
0.0007354445293210553 -0.0003577681318633577 0.0
0.0007622434649035576 -0.00035614186286928755 0.0
0.0007082321252942696 -0.0003581634130525349 0.0
0.0008115012253705353 -8.791430389973402e-5 0.0
0.0012901515998509747 3.2952097361656666e-5 0.0
0.001298577600535706 -0.00012195410574508709 0.0
0.001298983200965756 -0.00010994207017248048 0.0
0.001259361417748004 -0.00010403105312625874 0.0
0.0013004035524153018 -9.909946162068197e-5 0.0
0.0012640103467443985 -9.284655923792905e-5 0.0
0.0007602344368733533 -0.0004443065790872004 0.0
0.00279466990778316 2.130863255597874e-5 0.0
0.0012170119779587084 0.00012970713430671786 0.0
0.0016734567240637853 7.75134092110026e-5 0.0
0.001678224334141296 5.53302491038184e-5 0.0
0.0016134759996282784 4.59823103669869e-5 0.0
0.0008592348996259226 0.00013484273548254654 0.0
0.001089308335814976 0.0001661880292127195 0.0
0.0010270708989047576 0.0001764630005925117 0.0
0.0009934225961938667 0.00018508914352878704 0.0
0.0018860883541697237 2.3236820238354088e-5 0.0
0.0023038816241960727 -0.00037907392221924754 0.0
0.002285964533692982 -0.000420954452183782 0.0
0.0007268170750351935 -0.00045603066347946636 0.0
0.001181075697718527 -0.0005368603280341377 0.0
0.0011820843731430374 -0.0005597222670425934 0.0
0.0012090486006601157 -0.0005532311879817754 0.0
0.0012137866480391596 -0.0005791350788948117 0.0
0.002018840605564189 8.717873637965293e-5 0.0
0.0019637425329189066 7.705361926208788e-5 0.0
0.002039808575657267 7.347024816602045e-5 0.0
0.002098806942878475 8.14397429951076e-5 0.0
0.0015369105613726598 -0.00023552234938883768 0.0
0.0015053013640653307 -0.00022848123165723774 0.0
0.0012385234729144678 -0.0005685120998602302 0.0
0.0008371453626896697 -0.00015218607636668645 0.0
5.186371979175788e-5 -3.5130906418344906e-5 0.0
0.001177099717591107 -2.2253716570588624e-5 0.0
0.0012313131240304061 -3.64884263477332e-5 0.0
0.0012311543892865838 -5.185763979928752e-5 0.0
0.001284165860209667 -4.72415448781841e-5 0.0
0.0012807446589951684 -5.971093449091864e-5 0.0
0.0012845193091305255 -3.423850029801824e-5 0.0
0.001236327873596042 -6.466865248127517e-5 0.0
0.0012788735238172264 -7.128382633700078e-5 0.0
0.0013331659220388755 -4.274048210680357e-5 0.0
0.0018900769985417106 7.936333170449423e-5 0.0
0.0012383618360165855 -7.699932180263402e-5 0.0
0.0028370721204679776 -4.059928609430819e-7 0.0
0.0010698507853162237 -0.00017569877068322935 0.0
0.001321648229919295 -0.0004829095613503651 0.0
0.001356292633001715 -0.0004746036579644538 0.0
0.001235460190024582 -2.1041907920101247e-5 0.0
0.0012926190906345375 -2.0765113659036056e-5 0.0
0.0016170826105461784 -0.00024875733463740796 0.0
0.002027803312967391 -0.00044414037395643086 0.0
0.0019922930456639024 -0.0004720452042459013 0.0
0.001984112984913957 -0.0005055063222752618 0.0
0.0019599543788995028 -0.0004986224210600593 0.0
0.001954110523782617 -0.0005292196626982173 0.0
0.0019282658639856243 -0.0005241894997284634 0.0
0.0023682325742628153 -1.5909250955886768e-5 0.0
0.0023186424802375716 -3.490123808616989e-5 0.0
0.0023420904542595885 -4.991601568500028e-5 0.0
0.002269106025301285 -5.5837408178315327e-5 0.0
0.0022898794340414346 -7.103425116630825e-5 0.0
0.002217290884325701 -7.846975492314129e-5 0.0
0.002239094978196956 -9.356557496351753e-5 0.0
0.0021951159947202962 -6.263245289123463e-5 0.0
0.002144963423381529 -8.574502927828176e-5 0.0
0.0023076794085060866 -8.549401071185492e-5 0.0
0.002121712618410467 -7.021544023325005e-5 0.0
0.002256323360212774 -0.00010801902213978477 0.0
0.0021916668151631537 -0.00011628884583054442 0.0
0.0022058837383305825 -0.00013089970123544446 0.0
0.002172387457646529 -4.762703089343486e-5 0.0
0.002291691726752201 -1.8920425180407604e-5 0.0
0.002323558013471945 -0.00010012786707296974 0.0
0.002419218725485766 -4.6944839989682665e-5 0.0
0.0023700718685418214 -7.847137146049161e-5 0.0
0.001554946635602128 -1.8790948999149956e-5 0.0
0.0010625945253470678 0.00016962037617391647 0.0
0.00015674843376381096 -7.80403985948098e-5 0.0
0.00014841507414024456 -0.00011361319947694439 0.0
0.00017861016971953752 -0.00014082891142797583 0.0
0.0012366912379774579 -0.0005459599076903854 0.0
0.0016610226793349855 -0.0002572982901707743 0.0
0.0016047870832244966 -5.984451078223249e-5 0.0
0.001550579358943483 -7.058638316054658e-5 0.0
0.0015608676171300275 -5.8309907964523154e-5 0.0
0.0015508299503358687 -8.312088196097267e-5 0.0
0.0015959102117935936 -8.713779146851422e-5 0.0
0.0015457594970294055 -9.621579755144803e-5 0.0
0.001539711217776555 -0.00010867455300042862 0.0
0.001502381222129898 -0.00010378573580906695 0.0
0.00019309733181438466 -0.0001346268970570633 0.0
0.0017970541908119333 -8.334553949408025e-6 0.0
0.0021863312041617614 4.21438740597129e-5 0.0
0.002097348452133223 4.495507156895941e-5 0.0
0.00011570039867339216 1.878951036829669e-5 0.0
0.00024449221970825323 4.6761483016048316e-5 0.0
0.00022412091156636798 3.989687628277921e-5 0.0
0.001829882825891093 -5.455384465974643e-5 0.0
0.00024718891568725597 -0.00015933126372564372 0.0
0.00028576053278673056 -0.00018859192309290715 0.0
0.00030907189828617055 -0.0001959683043238711 0.0
0.0003052313718122921 -0.0001798697946010962 0.0
0.00032938587485099754 -0.000182849039693586 0.0
0.0011732514720728857 -8.88066725777108e-5 0.0
0.0001316602640849764 8.325653325814701e-6 0.0
0.00055962942147445 -0.0001565737831436195 0.0
0.0004605587242471043 -0.00014674912449409835 0.0
0.0012930206764470685 -6.101096991439852e-6 0.0
0.00036043499988310055 0.00011326947814790384 0.0
0.001955028207386561 -0.0004606967553030946 0.0
0.0017270630419847464 -2.8006613685530025e-5 0.0
0.0027200975445088637 -0.0001428599455100052 0.0
0.0021703827840329746 -0.00010094598192673281 0.0
0.0020989817542829735 -0.00010840061080725978 0.0
0.0020076758547640993 -0.0005164981591793135 0.0
0.0028426325131816295 -3.118903458449437e-6 0.0
0.0027861148487379013 -9.046686360708744e-6 0.0
0.0027971668667502734 -1.2311829945510816e-5 0.0
0.002776850218791987 -4.453589237378423e-6 0.0
0.0027326850784251656 -1.791967413985307e-5 0.0
0.0027696292059352355 7.019089263557299e-7 0.0
0.0027037331960022087 -3.902856987135509e-6 0.0
0.0027169358376425137 -1.152973612958427e-5 0.0
3.4037995167463294e-5 -1.5109932475859285e-5 0.0
0.0028633430774984586 -9.695648208545719e-6 0.0
0.0028231548708032767 -1.9106872432395095e-5 0.0
0.0028475523148567706 -1.0349131919489064e-5 0.0
0.002826733376528495 -2.0516553061031757e-5 0.0
0.001695646656204268 3.7042144514837667e-5 0.0
0.002102901862499594 -0.0004728853398632994 0.0
2.7150452033885928e-5 -1.5320799348857016e-5 0.0
0.0028718503257188486 -1.1018916366064623e-5 0.0
0.0009521608547130468 0.00010894223141723377 0.0
0.0023060334020484573 1.8004874351407004e-5 0.0
0.0007909203762748882 -9.924212419230192e-6 0.0
0.0008570012063739938 -2.86857952255231e-6 0.0
0.0008564061761929512 2.411267497947141e-5 0.0
0.0008557405448374396 -2.6039127688595312e-5 0.0
0.0009123569670688299 -2.2021868969871857e-5 0.0
0.0009285363274546723 2.10018339874973e-7 0.0
0.0009242720174033374 2.8444521391255712e-5 0.0
0.0008602062811068505 5.026433500725523e-5 0.0
0.0008045371569946298 7.482410376868162e-5 0.0
0.000798106866512185 -3.7852778722102876e-5 0.0
0.0023747699303998367 -0.0003514470142790484 0.0
0.002835452611899802 5.483249839327901e-6 0.0
0.0011539569786492064 -0.000497041024015638 0.0
0.0003926323556410415 -0.00029193234100417743 0.0
0.0012686326744936283 -0.0004888872194018373 0.0
0.0009833376262626495 -0.0005071028932516274 0.0
0.000985785117385866 -0.0005300966586433469 0.0
0.001342033904236787 -0.00010417212007761646 0.0
0.0018305720356428159 -9.311155637157095e-5 0.0
0.002480555306137693 7.2999869777928e-5 0.0
0.00251791147856672 6.235900382975467e-5 0.0
0.002438169134259742 6.569645302803674e-5 0.0
0.0001834431934562688 -7.296582879435548e-5 0.0
0.00036761777207294154 -0.0002837920530469892 0.0
0.0009861534392775896 0.00022627824044513145 0.0
0.0008917417771341238 0.00022245780984209458 0.0
0.0020989018422960105 -1.547369991669537e-6 0.0
0.0010821259901043776 0.0001572405338319879 0.0
0.0025848891157493467 -0.00016647069567248386 0.0
0.0012568515532305243 -0.0004120859166459427 0.0
0.0019933377174109704 -4.1449568452302254e-6 0.0
0.0020387860327595346 2.4072801193267627e-5 0.0
0.0008808923813659667 9.102710792772637e-5 0.0
0.0007056013182828644 -0.0004597406080051002 0.0
0.002563144133465264 -0.00020366648513436313 0.0
0.00043150051501384627 -0.00029269449013407815 0.0
0.0004571596146243838 -0.00031353388053375974 0.0
0.00044421282752449856 -0.00031936200540782535 0.0
0.000666565139880162 -0.00015932155615369263 0.0
0.0015790144281468178 -0.00011652491407629646 0.0
0.0017769716267593428 -7.24061233678092e-5 0.0
0.0010728291511374686 -0.0001294116142300166 0.0
0.001120123265564814 -0.00014035728565176288 0.0
0.002772080505579689 2.7690822088848202e-5 0.0
0.0026291906323662032 5.023827311597886e-5 0.0
0.00013510494785740784 2.708661503344058e-5 0.0
3.3985208625559706e-5 -1.6345440710907977e-5 0.0
0.0012924952633053843 -0.0001342066305807464 0.0
4.3109093234872964e-5 -1.0727204762930191e-5 0.0
0.00010348764908436012 -2.2749628110234243e-5 0.0
0.0012537322247629255 -0.0004704534891341494 0.0
0.0018337053423495345 3.39127610690828e-5 0.0
0.0011261715182469187 0.0001578192225778925 0.0
0.0017443907610292738 -0.0002486759630490093 0.0
0.0013096247457316068 -8.802758504420495e-5 0.0
0.0022869465645901465 -0.00019788836377694383 0.0
0.002684136882487098 -0.00012644697867536119 0.0
0.0008381792916828901 -0.00034932625196497336 0.0
0.0008419675384620829 -0.00036950796063117507 0.0
0.0008080974078363707 -0.00034903054998827027 0.0
0.0007731496675679551 -0.00032882817615837514 0.0
2.7953886489895578e-5 -1.6907804879548538e-5 0.0
5.207410823068142e-5 -3.259143206258025e-5 0.0
5.808224836833326e-5 -3.37179306423085e-5 0.0
0.0007216110074079517 -0.0002414982007062535 0.0
0.0006833606741475465 -0.00024218559642888242 0.0
0.002866045554898992 -1.0146849829640987e-5 0.0
0.001515580206244979 -0.0005983192313088071 0.0
0.0014872438874911807 -0.0005834455600482534 0.0
0.0014860940096670106 -0.0006098082262843802 0.0
0.0014577377538152634 -0.0005947572623454822 0.0
0.001427547004734575 -0.0006048213183035671 0.0
0.0014256655119639933 -0.0005788274570870963 0.0
0.0014875905331297795 -0.0005572297674755393 0.0
0.0019751081482099206 3.2949242359042434e-5 0.0
0.0003308390406874162 -5.1229377413459135e-5 0.0
0.0003869304979877887 -8.388604388924727e-5 0.0
0.00033686739672704366 -8.186413973538873e-5 0.0
0.0017923121957938825 -0.0002369948004151544 0.0
0.0006478950032024215 0.0001683680371218834 0.0
0.0014229472593381848 -0.0002491497844087287 0.0
4.485474426816232e-5 -1.5976119257117227e-5 0.0
0.0008784423248859259 -0.0004996075696116541 0.0
0.0008508105238618215 -0.0004975120696154993 0.0
0.0008554263031355831 -0.00047920164985118166 0.0
0.0009799312142256343 -0.0004841382330910064 0.0
0.000838233380546471 -0.0003271556207750416 0.0
0.00037712669827864436 -0.00014999360523718815 0.0
0.0002248647151839709 -0.0001105539539402645 0.0
0.002850708999563855 -6.621328295785196e-6 0.0
0.002808766150496389 -1.3903229274944044e-5 0.0
0.0005606395955148964 -0.000369150569584542 0.0
0.0006703912621928166 -0.00041369373593145697 0.0
0.000646324914459344 -0.00041513115769 0.0
0.0006153840472250437 -0.0003922080970508289 0.0
0.0006208624545326236 -0.0004146836754402548 0.0
0.0017246202936919111 5.7286967918239855e-5 0.0
0.0012085132815466667 0.00014022165222795507 0.0
0.0018220783918523025 -0.0005487619888637844 0.0
0.0018453423906389173 -0.0005599144545148958 0.0
0.0018755515240228917 -0.0005398250317820353 0.0
0.0018106043701231049 -0.0005834617084181992 0.0
0.0009047280562374724 -0.0003489250684288894 0.0
0.001599887069358895 -0.00044532421919582683 0.0
0.0011133851223075826 0.00016024330387907323 0.0
0.0011758803730427029 -5.94003808498372e-5 0.0
0.002873160074983224 -1.2105471593385628e-5 0.0
0.002847619919625747 -2.5619516805011153e-5 0.0
0.0028368298148731697 -2.64330235466209e-5 0.0
0.0005911118509509126 -0.0003921676161967486 0.0
0.0005678396720576936 -0.0003910553651277937 0.0
0.0008491543366088848 -5.903469577645245e-5 0.0
0.0007428984294730145 -0.0003315543631043373 0.0
0.0026713442650462323 -8.708745645525425e-5 0.0
0.0021920461209630434 4.726808574988221e-5 0.0
0.001281510675296509 -0.00015905261472941453 0.0
0.0013209694333082636 -0.00015219797514964557 0.0
0.001715369372476055 9.396240114340431e-5 0.0
0.0020779034872226505 -0.00038553787935465266 0.0
0.0012223367566329417 -0.0004189042425196983 0.0
0.0012239451069323345 -0.00044020963704261934 0.0
0.00031377383317109163 5.4965202028015024e-5 0.0
0.0006825287381150533 -0.0003318334268558264 0.0
0.0006519826294790272 -0.00032880557164644973 0.0
0.0006176468910233936 -0.0003075165063799116 0.0
0.0006225047405793922 -0.00032771652219496634 0.0
0.0005228099456840237 -5.001790434243365e-5 0.0
0.0005252668856734537 -2.8746740531563905e-5 0.0
0.0005867260765867364 -9.014253354368081e-5 0.0
0.0018363035972053883 -0.000592086603923066 0.0
0.0017839053368686965 -0.00044153018591288896 0.0
0.001743292303136803 -0.0004606891999235345 0.0
0.0017785402037561212 -0.00047353621975711223 0.0
0.0017385762226084338 -0.0004929309326838462 0.0
0.0017630664302972499 -0.0005029458596969373 0.0
0.0018165937108802462 -0.0004490956293643264 0.0
0.0018466000562491491 -0.00045411535970016006 0.0
2.388343894309964e-5 -1.663115010925259e-5 0.0
0.0028773448329941433 -1.3999965460647714e-5 0.0
0.002323662214879925 -0.00033939930162176705 0.0
0.0016620945040344921 -0.0005854442671418297 0.0
0.002657350373026758 4.849547008593622e-5 0.0
0.001607413068473625 -0.0005598188689352096 0.0
0.0016025114302940725 -0.0005864072828247104 0.0
0.002136886211997083 -0.00025100965188925184 0.0
0.0019180924607589515 -0.00020045966845027034 0.0
0.001878218751708758 -0.00019643497474432803 0.0
0.0008909461995174683 -0.0004520198469479531 0.0
0.0005273412299793886 -0.000281893786063079 0.0
0.002139191259726312 -0.00014100373776546946 0.0
0.002227412438953475 -0.0003593593886248118 0.0
0.0009783056019394506 -0.000280601426186354 0.0
0.0010144874230707287 -0.0002770102023014706 0.0
0.0010127713046044096 -0.0002946929870142344 0.0
0.0010172977792799783 -0.00025997647785730405 0.0
0.000976982058705332 -0.0002984512346779059 0.0
0.0010498147864002178 -0.0002749798841747098 0.0
0.001054939272321616 -0.00025907671200837696 0.0
0.0010651311974756508 -0.0002415946507904312 0.0
0.002125111883463105 9.75113321064204e-5 0.0
0.0002489162957314966 5.116441736561257e-5 0.0
0.0020732576160317063 -9.34910109557664e-5 0.0
0.0022423756369528733 -0.0002063512658650615 0.0
0.000475317032001478 0.0001236687105999116 0.0
0.00039872967555918136 -1.4727836989606925e-5 0.0
0.0005881300918942417 -4.771290506738807e-5 0.0
0.0004640500135459271 -0.0002565331538833518 0.0
0.0009786987336574213 -0.00024636180757642084 0.0
0.0007619963568313602 -0.00020906653141661896 0.0
0.000814429182590917 -0.00020986874109558403 0.0
0.000847254831546679 -0.00022778483861053342 0.0
0.0013635935831257425 -0.0005726510648724091 0.0
0.001395784922109296 -0.0005884621596629339 0.0
0.0013959049105690129 -0.0006167747121363984 0.0
0.001425606032232164 -0.0005534039767799955 0.0
0.002185974512565781 -0.0003834255140052535 0.0
0.0010235187786331744 -0.00016587572785271308 0.0
0.0020804531192000694 -0.00022724761449146813 0.0
0.000976572541400744 -0.00046165698904158736 0.0
0.0014880128974572688 -0.0005316457329281873 0.0
0.001039567061800116 -0.0005445313737577921 0.0
0.0026492436455124464 2.448034703659108e-6 0.0
0.0013845989861445258 -0.0002582091409388894 0.0
0.0003356236193340425 -0.00012954270357031078 0.0
0.001051464490861568 -0.0003850863599869238 0.0
0.0010856605896603514 -0.0004008759806501492 0.0
0.0009811883100722385 -0.0003537165936986007 0.0
0.001065742490574955 -0.0004917446852962036 0.0
0.0016668881484127502 -0.0003371767241061763 0.0
0.0016238330191684339 -0.00035101144075128684 0.0
0.0016605076475448698 -0.0003591947130554366 0.0
0.002049637785294543 -7.840276614580629e-5 0.0
0.0012565325285997127 -0.0003916060409677288 0.0
0.0009091556223541456 -0.0003222051149637094 0.0
0.0016208374647043026 -0.0001506109469016836 0.0
0.0016113763276085714 -0.00016602212055162407 0.0
0.0003664562033963937 -0.0002051518286739042 0.0
0.0007551164839397281 -0.00042268103143694647 0.0
0.001886142373359368 -0.0005062142719855768 0.0
0.0016080211279607217 -4.74705515925903e-5 0.0
0.0014645111105629086 -0.0004237906722391136 0.0
0.0014280479297327955 -0.0004340990840287092 0.0
0.001426369271751717 -0.0004572451214785981 0.0
0.0013921124453721884 -0.0004435780521685212 0.0
0.00139150214583569 -0.00046673765896744474 0.0
0.001459882478838361 -0.0004700982684271731 0.0
0.0017375911606894992 -6.472397627647547e-6 0.0
0.0011507217351910681 -0.00033498592884890447 0.0
0.0011165986546308442 -0.00034030006495786404 0.0
0.001592184066393938 -0.00032183205547320923 0.0
0.000946214677526309 -0.00035609226011702267 0.0
0.0015728027131248217 -0.0005991186332260051 0.0
0.0011869443276967893 -0.00040469463550714375 0.0
0.00139394751050854 -0.0004214162407653744 0.0
0.001976203031337669 -0.0005396600964233716 0.0
0.001268126918861838 -0.0002644083898037245 0.0
0.002717797718940774 -4.438365296969344e-5 0.0
0.001400591393535227 -0.0003590031310358797 0.0
0.0006375446107623155 -0.0002538862357987127 0.0
0.0012877981300482837 0.00011927225116023162 0.0
0.001972424350114287 -0.00042787420725494223 0.0
0.002597612382283782 5.4847936602362865e-5 0.0
0.00041560625702053095 2.5191076998762746e-5 0.0
0.0004329796155801917 4.3865276086083636e-5 0.0
0.00048011443177279196 1.4661872443414209e-5 0.0
0.0005093558576063362 3.761524256432804e-5 0.0
0.0005582549219963619 2.1190016470438483e-5 0.0
0.0020286190997060253 -0.00011607910930683352 0.0
0.0011554455651224553 -0.0005691548847647542 0.0
0.0013075708633390217 -0.00025755778447782835 0.0
8.50499602823042e-5 -2.3503688019437665e-5 0.0
0.0010243638355124356 0.00018717986808487383 0.0
0.0009507502287031563 0.00019457401554079165 0.0
0.001917032032509368 6.495538552590928e-5 0.0
0.0011232542892667683 -0.00048057248989847337 0.0
0.0012787270581318514 -0.0005525078677856864 0.0
0.0011175594557224714 -0.00018485461341674253 0.0
0.0015549763207100796 -0.0003139264093849157 0.0
0.0015145840098759085 -0.00030482382919382387 0.0
0.0015224622343397993 -0.0002849131721784745 0.0
0.0016274670701346195 2.9766699815849986e-5 0.0
0.0010559565025980108 -0.00040579294199473377 0.0
0.0007200577753200557 -0.00019228619733707272 0.0
0.001078648738796887 -0.00030725312275184526 0.0
0.00015151150543010882 -8.13434627883184e-5 0.0
0.0014916220024518074 -0.00014816043941105213 0.0
0.000608282185964781 -0.000369457236596255 0.0
0.0014816901335981205 -0.0003194065961097358 0.0
0.0008975956228179026 -0.0004749131151465311 0.0
0.002003913247098054 -0.00020379645483660123 0.0
0.0013352256080906711 -0.00031899627098364686 0.0
0.0013571389257277901 -0.00045232632806753003 0.0
0.002510047074258178 -0.00015109513873138566 0.0
0.0005401206440073366 -0.0003683465304852092 0.0
0.0027448154173858696 -0.00013604223940782035 0.0
0.0011130386006306288 -0.00024851392683933354 0.0
0.0013298705573197634 -0.0003567573907230305 0.0
0.000250159860244772 -9.06914089890503e-5 0.0
0.002518765886738992 -0.00010388664617091723 0.0
0.0015577444406771118 -0.0004826728262247795 0.0
8.579447547796631e-5 -2.763798795514495e-5 0.0
0.0014380299165670024 -0.00020403685238021705 0.0
0.001435150200659458 -0.0002173072348210776 0.0
0.0027027697346105354 -2.7360434067815693e-5 0.0
0.0015452787042716497 -0.0006119897724147726 0.0
0.0004997914856836942 -0.00027949321897890826 0.0
0.0027918081531216354 -4.741457507925642e-5 0.0
0.0014837092933694866 -0.00027783463545235 0.0
0.0013733749126419433 -0.0003110419242902083 0.0
0.001717665665989143 -0.00042541518926227166 0.0
0.0016814082710580767 -0.00041622983784584864 0.0
0.0015688991657032277 -0.0004340574918033607 0.0
0.0013046391587329261 -0.0002742150287964948 0.0
0.0016101338303441887 -0.0006285258151303933 0.0
0.0017309082218863795 -0.0006215347752204299 0.0
0.0012331264453857465 -0.0006044653984767006 0.0
0.0013269495809536036 -0.000616567115667288 0.0
0.0019048030818188883 -0.0005868731300764469 0.0
0.0018969327121980766 -0.0005544898226737765 0.0
0.000989924118664877 -0.0005521109601463789 0.0
0.0007861558118690087 -0.0004930442514246502 0.0
0.0016713395895823812 -0.0006269237811675609 0.0
0.0010532706879793359 -0.0005702747020716019 0.0
0.00118259532625903 -0.00022162538418077815 0.0
0.0024708808720320715 -6.80801083667934e-5 0.0
0.0020032715409987554 -0.0003162140817111348 0.0
0.001986877487979086 -0.00034112008835250694 0.0
0.0010124232211467367 -0.0003138188765267048 0.0
0.001723531902084628 -0.0002826559601603916 0.0
0.0013610156094880546 -0.0004968566406447853 0.0
0.000713198340426927 -0.0003902600738402052 0.0
0.0005337110779411509 -0.00022910347821024138 0.0
0.0011873682958308495 -0.00031111258365729654 0.0
0.0025248741326297027 2.0745636080284085e-5 0.0
0.0009895420455799412 8.776734099172565e-6 0.0
0.0013476197323204786 -0.0002501707459084039 0.0
0.0015876702715337055 -0.0003437536675715396 0.0
0.000200428269231789 -0.00015145889531672263 0.0
0.00020816973836899178 -0.00016946724427852183 0.0
0.0011871116674350387 -0.00044661676152707566 0.0
0.000998995963506504 -0.00041525074321604625 0.0
0.001436321874881595 -0.00036949073999552546 0.0
0.002680562781250667 4.3345720126287404e-5 0.0
0.0015181371249282465 -0.0005453406489203719 0.0
0.0028414496954252905 -3.996527648891356e-5 0.0
0.002819226446770757 -6.524069019448362e-5 0.0
0.0007838129233109439 -0.00013863892737274518 0.0
0.0012232371097516176 -0.0003406620417342028 0.0
0.00129101346756795 -0.000404569162715603 0.0
0.0027583122390102493 1.0403899912826019e-5 0.0
0.0013630044726473667 1.3142893433249236e-5 0.0
0.0018831339932184066 -0.00043532278423992526 0.0
0.0019458572892789275 -0.0003615054810837968 0.0
0.0007714320634462427 -0.00046866601034925657 0.0
0.0017856834650036295 -0.0003360422168819053 0.0
0.0012248774991871789 -0.00030482391504788335 0.0
0.0018760825020469165 -0.00030270313082809833 0.0
0.001865725361341826 -0.0003252595244265478 0.0
0.001921640871722222 -0.0002855067681240942 0.0
0.0006488754937136678 -0.0004379841130848968 0.0
0.0022562259836318784 -4.301554908868863e-7 0.0
0.0016289254712315642 -0.0006028181419353142 0.0
0.0023188457912676694 -0.0003920229154355653 0.0
0.002122581389593224 -0.00022741411905345712 0.0
0.0013679049900073804 -0.0001917685284778533 0.0
0.0017365719332003023 -0.0005253634860121653 0.0
0.0010887677183239683 -0.0004214856959595328 0.0
0.0011434987068465782 -0.00026441773469249345 0.0
0.002671130778888137 -2.089534440834092e-5 0.0
0.0006071819345547809 -0.00017445036481115035 0.0
0.00204765284515753 -0.00013067272873234787 0.0
0.0013565955195561222 -0.00012928447587603537 0.0
0.001762197695640154 -0.00028761707076610006 0.0
0.002557386948123147 -6.424209831831744e-5 0.0
0.000222982686438249 -9.280916144274438e-5 0.0
0.002039666688562717 -0.00034734608922528233 0.0
0.0015510218744841792 -3.2549519365702005e-5 0.0
0.0015360652943414686 -4.525001577282439e-5 0.0
0.0016780536948223241 -0.0005028235766819862 0.0
0.0015442117505118768 -0.00037841830290364135 0.0
0.0015869754351973957 -0.0004945687605241594 0.0
0.002065984917614112 -0.0004181250501398058 0.0
0.0021048043714020997 -2.8280438142145778e-5 0.0
0.0013716304060834516 -3.318486213918307e-7 0.0
0.0018875913315694961 0.00010376403612055692 0.0
0.002451259008380114 -0.00020609160918441698 0.0
0.0024659786383588664 -0.00018003418922082293 0.0
0.0013608756675466277 -7.964128277985088e-5 0.0
0.0009094140886960993 -0.00040493369277258274 0.0
0.001860295681537699 5.980654806426937e-5 0.0
0.001371057070247889 -2.381898968018613e-5 0.0
0.0017760822971034772 -0.0003589965440831368 0.0
0.002796250136591453 -5.785585041849283e-5 0.0
0.00047620632442433864 -0.0002974930741115103 0.0
0.0017245210295555543 -0.0001771141428458044 0.0
0.0013688326765070443 -5.097213645415517e-5 0.0
0.0013616616481207176 -7.080291012959825e-5 0.0
0.00047697451195394426 -9.96608823508982e-6 0.0
0.0025060595846483976 6.688481071861115e-5 0.0
0.0014593405115084967 -0.00013197081647744782 0.0
0.002544679735108957 -0.00014551113849074074 0.0
0.0008761777386435969 -0.000387089469765946 0.0
0.002144472773338674 -0.0004998844458351297 0.0
0.002203018202439736 -0.0004800635086770736 0.0
0.000797020536892893 -0.00039525957521790734 0.0
0.0018428029807714716 -0.0003717096120654686 0.0
0.001202427284894453 -0.0005999537926886965 0.0
0.0017753646372162092 -0.00010764232764570275 0.0
0.0005192573140583091 -0.0003790851689654533 0.0
0.0014811076325381874 -6.274636112717269e-5 0.0
0.0015292160384324403 -0.00016998639072151076 0.0
0.0015065222307197453 -7.936842958140245e-5 0.0
0.0016191365547069542 -0.00037379912908652534 0.0
0.0019734765502891095 -0.0003660217692387968 0.0
7.366630646487612e-5 -6.736218296688376e-5 0.0
0.00012621756099587608 -0.00011365043217870867 0.0
0.00015090524063054588 -0.00013445840224069505 0.0
0.002648208134857849 -0.00021582948939214225 0.0
0.0002017664533193964 -0.000176716865567906 0.0
0.0008152221868205509 -0.00037059484853179894 0.0
0.0003665182754614609 4.594499591405938e-5 0.0
0.002347907360847528 -0.0004090166975523986 0.0
0.0004419054494198392 -0.00033600617757941864 0.0
0.000494255393430169 -0.00036582672076794303 0.0
0.002617388850347785 -0.00023725785744479615 0.0
0.0025566289375057102 -0.0002821611190539006 0.0
0.001512686871303871 -0.00021354489016551964 0.0
0.0010947120878077629 -0.0005096189694777618 0.0
0.0020941420320810923 -5.282124371272978e-5 0.0
0.0024070283076071896 -0.0003737766117046042 0.0
0.0024368284223219737 -0.00035716634661179614 0.0
0.0003915670719010446 -0.0003083869123594117 0.0
0.0002748530991714248 -0.00022965299441460727 0.0
0.002497233933921028 -0.00031983631451294064 0.0
0.0025225139182571492 -0.0002746796652563452 0.0
0.0016882133485154108 -0.0006004591961771329 0.0
0.0003246300495758088 -0.0002648929586912425 0.0
0.0020486829213579526 -0.0005462165106160895 0.0
0.0005379884898258874 -0.0003036995008899211 0.0
0.0023346154520884573 -0.0002632007124588245 0.0
0.0008178686278528434 -0.000483876407653942 0.0
0.0021657992862933128 -0.00037339606134601986 0.0
0.0022454333190327458 -4.042530819346029e-5 0.0
0.0007974619219173207 -0.00027386398114589815 0.0
0.000541642089350198 -0.00024700376857123186 0.0
0.0010306073376532914 -0.00043185531252872217 0.0
0.0013642068176018755 -0.00036815885330277983 0.0
0.0023680057532411334 -0.0001375978774824662 0.0
0.0014566392318745138 -0.0005682645652656978 0.0
0.0014965330277390287 -0.00013624809593446176 0.0
0.0014920730520064961 -4.352078929494478e-5 0.0
0.0018950915220068514 -0.00026015087205571167 0.0
0.002175323438905996 -0.00030524284102308435 0.0
0.00078903953106919 4.32638074686077e-5 0.0
0.0017973723785453552 8.422203119424197e-5 0.0
0.0008673651521149016 -0.0002714777034002116 0.0
0.002373707659324114 -0.0002070634979423634 0.0
0.0005684048395551759 8.781460181595704e-5 0.0
0.00047856556448214356 6.488644397752025e-5 0.0
0.0012178964127215188 -9.731252543516493e-5 0.0
0.002497555912966626 -8.244696547952577e-5 0.0
0.001355855600173398 5.04163209431136e-5 0.0
0.001449510599976362 -0.0001651308973413053 0.0
0.0026422781966848573 -7.141038224521448e-5 0.0
0.0007321621098323028 -0.00027450750577031734 0.0
0.0009009152137314354 -0.00018605736785943874 0.0
0.002039933053534574 -0.0002494981827156074 0.0
0.002242255781525816 -0.0002829229764476218 0.0
0.0006376969592774041 -0.00027180429418036665 0.0
0.00038065949918282235 -0.00022631554450810442 0.0
0.002149545896836848 -0.00030237037400332196 0.0
0.0009249535993217646 -0.00012772074766832447 0.0
0.00215480535495231 -0.0001659911835561979 0.0
0.002849640431676837 -2.8338617035492242e-5 0.0
0.0023580972378996245 -6.435239369531913e-5 0.0
0.0015204242803361443 -2.494911503562477e-6 0.0
0.0015670056295989721 -3.473171968746804e-6 0.0
0.0017574336686477386 -0.00021495008102573142 0.0
0.0025916173245167273 -1.2553431934110596e-5 0.0
0.0025456607051038615 8.557662627135463e-6 0.0
0.00012161638386345355 -7.332229994511618e-5 0.0
9.1414823491162e-5 -5.344745290979287e-5 0.0
0.001123520227448043 -0.0005031754492717479 0.0
0.0018202892769916962 -0.0003422365997664399 0.0
0.001024215709646291 -0.0001959442307416923 0.0
0.0010245517972031157 -0.0001810941596605378 0.0
0.001022013466287987 -8.757722791637581e-5 0.0
0.0014260145266288809 -0.00048076556909079583 0.0
0.0016793768731788847 -0.00019048942750847248 0.0
0.0004503508753223843 -8.647064054520435e-5 0.0
0.0019838461523987074 -0.00013825290363793133 0.0
0.0015451298948496223 2.5712591612195974e-5 0.0
0.0011868275906210272 -0.0003289195673122507 0.0
4.766125071807412e-5 -5.823213064612941e-6 0.0
0.0013665259807113589 -0.0003483706409008252 0.0
0.002625262487186048 -8.460744365388256e-5 0.0
0.0022358944130376978 -0.00016530708276824246 0.0
0.0021253279047300407 -0.00012331436857788562 0.0
0.0025084967290216497 -0.00011834787177876605 0.0
0.0018223294002758777 -0.00014999289725441142 0.0
0.0010126699196352758 -3.67279381143052e-5 0.0
0.00033082466014389985 -0.00011674683427627142 0.0
0.0012324970756160557 -0.00017618030851221405 0.0
0.0015474522776184343 -0.00022003521018889902 0.0
0.0004136217300667788 -0.00019774534205557788 0.0
0.0012957688840082233 -0.0006132087396520347 0.0
0.0017613912531142335 -0.00015003699144126146 0.0
0.0008485533742203033 -0.00038969097333657344 0.0
0.0019186257990738758 4.586549790030715e-5 0.0
0.0024051385564999614 -0.00013375538151244294 0.0
0.0009211232823951206 -0.00011118382800817481 0.0
0.0020928819492240756 0.0001021533687712156 0.0
0.0016030264662508934 -0.0001811565445055063 0.0
0.0013692138106666456 -0.000329260767743754 0.0
0.0005059080607852375 -0.0001044125001042321 0.0
0.0009406338324561056 -0.00020194484727870327 0.0
0.0012648800252738563 0.00010925277925758796 0.0
0.00038390599725487246 6.070390093166618e-5 0.0
0.0021090683908436872 -0.0002499784624194947 0.0
0.0005578932676817467 -0.00019903197064715766 0.0
0.0014075323606909055 -0.0003209092951434825 0.0
0.0023741521900714174 5.4627640338556895e-5 0.0
0.0020039469675896945 -0.0002477548571500968 0.0
0.0009700923698598387 8.383239799919958e-5 0.0
0.0001732304111626148 -4.725855154991584e-5 0.0
0.0007192633844876913 -0.0001758177701268835 0.0
6.307470609415239e-5 4.4961895877845565e-6 0.0
0.00013074588001362104 1.5915715078242611e-6 0.0
0.0019948415521371474 -0.0002283514900595954 0.0
0.0016563990453878198 -3.3866228952828644e-5 0.0
0.0009288322267830738 -0.0005406999383563223 0.0
0.0006531900804853491 -0.00035008166362548315 0.0
0.0023530397331451647 -0.00010608898420172861 0.0
0.00033414063543073274 -0.00025710215328576054 0.0
0.0019293694991107304 -0.00026487131809761446 0.0
0.0015919385440595684 -0.0004699120263066833 0.0
0.0023263543097766567 7.985135565882759e-5 0.0
0.0008342475989693859 -0.00045725397948343487 0.0
0.0025179998141990037 -0.00023419203287622535 0.0
0.0014525800610838222 -0.00015413852276699393 0.0
0.00047504149275723627 -0.0003381660047924338 0.0
0.0019284206427600534 -0.0005549260904239119 0.0
0.0004759046658919963 -0.0002234632786318011 0.0
0.002697559597450218 -8.201308383256245e-5 0.0
0.0003432844920271646 -0.0001560486748721857 0.0
0.001994817784758285 4.4001778977949e-6 0.0
0.0018264662660416363 -0.00013287995157627847 0.0
0.001496495872455461 -2.4184562724779914e-5 0.0
6.571791345664097e-5 6.8908997301642075e-6 0.0
0.0011547287322093733 0.00015127891238974578 0.0
0.0007739523257772875 -0.00011969298810813942 0.0
0.0022282541430593233 -0.00043815463811513507 0.0
0.002259125928905594 -0.000457589893316763 0.0
0.00021068084193576046 -1.0396796700364211e-5 0.0
0.001649120350878056 -0.00017101173914708007 0.0
0.0006802974611636876 -0.00035142893474670515 0.0
0.0011528675120429138 -0.00035306310500238345 0.0
7.722447464898219e-5 -5.033580611666068e-5 0.0
0.0001585168442957928 -2.896249006076245e-5 0.0
0.0015776028125662896 -0.0002418826938414886 0.0
0.0014462100144201886 -0.0003113580846187469 0.0
0.00010273297592530309 -1.60796837620743e-5 0.0
0.00028318389014173485 -9.633156901563231e-5 0.0
0.00022614860623011398 -0.0001949006134770625 0.0
0.0023534461420901464 -0.00023340601089857 0.0
0.0018535386681745919 -0.0003480933679972397 0.0
0.00034554888923598237 -0.00020380282540945232 0.0
0.0022143034038224524 -2.710568530931502e-5 0.0
0.002032724270533229 -4.458538188700155e-5 0.0
0.00016108659558528702 -0.00013343704020705365 0.0
0.001177928868333331 -0.00012617256512167339 0.0
2.0929552357604685e-5 -1.7490896536113256e-5 0.0
0.002877801018367757 -1.924868654681222e-5 0.0
0.0027885891962324805 -2.9779455901211328e-5 0.0
0.0008451451124272424 -0.0005148943188315458 0.0
0.0022180406316343443 2.552964113255638e-5 0.0
0.0018532863462046914 -0.00042802823699942746 0.0
0.00037855612157386024 -0.00016322782178617538 0.0
0.0017593118490491734 -0.0006173038857552101 0.0
0.0004046049285405868 -0.00010001175292555152 0.0
0.002485581122200985 -9.64439700877748e-5 0.0
0.0011171641855121492 -0.00035788171119523904 0.0
0.00011396491163481444 -6.397987283569947e-5 0.0
0.0013244054052063592 -5.577293867668414e-5 0.0
0.0013211005586846113 -6.63674404069109e-5 0.0
0.002616211767476487 4.638913296342688e-5 0.0
0.0015836363448851827 -0.0003651852042181513 0.0
0.00020077437596229116 9.273545991919908e-6 0.0
0.002487307075346295 -0.0003028995969807472 0.0
0.002641532791522018 -5.484246372277898e-5 0.0
0.0020155817969132366 4.3738472780509505e-5 0.0
0.002069571956558432 2.5505657926218996e-5 0.0
0.001211433129239871 -0.0005298377094108604 0.0
0.0028090236013386866 -8.697641388182275e-5 0.0
0.0012150425510980994 -0.00010925891176400984 0.0
0.00028954161106913457 6.351751985534517e-5 0.0
0.00033933329233680205 -0.0002213400219583552 0.0
0.0008720931977405775 0.00011617898800490728 0.0
0.002496009560649441 -0.0002313114598187143 0.0
0.00014560501783408638 1.9508742924967788e-5 0.0
0.0014968000694883684 -0.00012508384226360162 0.0
0.0022487291096280728 -0.00014429905718171693 0.0
0.0017967254555796284 -0.00022111169966868138 0.0
0.002830482836880719 -2.1895998838042048e-5 0.0
6.878387844103593e-5 -2.902021799958044e-5 0.0
0.0026567088486526974 -1.1685866198647656e-5 0.0
0.0028404285733675187 -2.2096881547141623e-5 0.0
0.001365505087404428 -0.0005961063868248949 0.0
0.0016247404012154352 -0.0002321644773069877 0.0
0.0009946005518506012 0.00017343582699196226 0.0
0.0006712887394477699 -0.00027247703469775576 0.0
0.0008877482943687728 -0.0001654301487986131 0.0
0.0011692299450824465 -0.00013799742452320985 0.0
0.0005731737913876642 7.155979633616134e-5 0.0
0.0010266891305792582 -0.00041004987960018317 0.0
0.0005138047760161618 -8.644782848370968e-5 0.0
0.00035561734169633276 7.241971248559102e-5 0.0
0.0013200291370389426 -0.00021312965649122358 0.0
0.002013235369564279 -0.00034451065823966424 0.0
0.002397469916692003 -0.00020888412920177398 0.0
0.0009634635975443622 -3.9918020335817136e-5 0.0
0.0006698047879915309 0.00013808053656081128 0.0
0.0015659040698015607 4.5892365670494685e-5 0.0
0.0008256937800478187 -0.00011756817971702907 0.0
0.0022744895815845654 -0.0002170680015841805 0.0
0.000844545559502149 0.00017471533585551656 0.0
0.0007633942042073159 0.00016774321331240266 0.0
0.0015522684945067124 -0.00033533025116625875 0.0
0.001614214707066277 7.287831624767308e-5 0.0
0.0011089499570333913 -0.0005833916819314027 0.0
0.0021094022932560273 -0.0005221549890468192 0.0
0.000760925661082795 -0.00025799242401939 0.0
0.001962846803508959 -0.0005749294754798202 0.0
0.0006145972353225198 -0.0001105365196062449 0.0
0.0023143710461756505 -0.00021064527232921178 0.0
0.00108116396082979 -0.00034433354073461957 0.0
0.0024724408865225336 -0.00012526141515124435 0.0
0.0006729614920260504 -0.0002565247804605001 0.0
0.0011971494808952715 0.00014114375811999965 0.0
0.001020972322413995 -7.121161888426688e-5 0.0
0.0012598676813715026 -0.00045220678315049695 0.0
0.0013480245488142807 -0.000161028892156429 0.0
0.0013181004076406756 -7.637743018389918e-5 0.0
0.0007807626696834 -0.0003503258368862946 0.0
0.0007905075289693792 -0.0003733732796598596 0.0
0.0005122360685146292 -0.00017969208188993953 0.0
0.0007871314091776799 0.00022193657130510096 0.0
0.0013055498618403348 -0.0005211966453711821 0.0
0.002506341409909294 5.076909084233463e-5 0.0
0.002217324413019977 -0.00028040029331805836 0.0
0.0015746264829957378 1.0696489559134602e-5 0.0
0.0007281780565347002 -0.0002584083090068058 0.0
0.001959939383112608 -0.00020135020227205613 0.0
0.0016289860098614509 -0.0004561129250525497 0.0
0.00107941701779903 -0.0003253492275456301 0.0
0.002671426240467639 -6.633881798323926e-5 0.0
0.0028121053610674286 -4.236103327562865e-5 0.0
0.0009810344048946506 -0.00018561831734670298 0.0
0.0018646615061766825 -0.0005720790703759861 0.0
0.00255472130188133 -0.00026054707900691703 0.0
0.00012912510690795838 -3.323834840582417e-5 0.0
0.0006767379285145594 -0.00017632101613703895 0.0
0.000796609846974325 -0.0002577872931307977 0.0
0.0026080388303504256 -0.00022421274743792102 0.0
0.0010216612627786733 -0.00038804568697699607 0.0
0.001807849004195105 5.98677154176144e-5 0.0
0.00028497299820892284 -0.0002242317147642314 0.0
0.0016389388802266233 -0.00027420908944319046 0.0
0.002393540227412028 -0.00018367368519369727 0.0
0.0018959985589236368 -0.00033021271229260275 0.0
0.00271875687586527 -6.40878117304546e-5 0.0
0.0019052412505143413 -0.0005186176845540631 0.0
4.818830050653743e-5 -3.021345237625526e-6 0.0
0.00125635932205011 -0.00020674911094037854 0.0
5.349067125418022e-5 -2.8673879997321254e-5 0.0
0.0009162163772515948 7.122687620642676e-5 0.0
0.0005983744214200041 -2.9343972624020613e-5 0.0
4.645285166249265e-5 -3.683313903517411e-5 0.0
0.000732432162671912 -0.00047619624127032676 0.0
0.0006784753116229663 -0.0004350041660283933 0.0
0.0012231407456524482 -8.666535370082258e-5 0.0
0.001243123135263209 -7.263820572233842e-6 0.0
0.0005013532993704177 -0.00035329302954283744 0.0
0.0008731090104658624 -0.0001150346751309039 0.0
0.0016807675425340477 -0.0001776028900593108 0.0
0.0005029854643173774 -0.0002259108891523452 0.0
0.0018739077865134951 8.675026892979873e-5 0.0
0.0016696569332092345 -0.00044103389741104014 0.0
0.0003674659796517993 -9.919712697808937e-5 0.0
0.0002217636854629594 -0.0001590655309254234 0.0
0.0014621487870899784 -0.00011093467730918678 0.0
0.00010558990100740038 -8.85493768696945e-5 0.0
0.00275709038472182 -2.052272364332246e-5 0.0
0.0009857010424720006 3.3080113262100696e-5 0.0
0.0013298209991402415 -0.0001974743720374135 0.0
0.002458031903158761 -0.0002604545006019795 0.0
0.0027069715222989305 -0.0001713907210061275 0.0
0.0022612390168086026 -0.00012329934676704433 0.0
0.0013012081537087132 -0.0004978336719318503 0.0
0.0017054698133509682 -0.0002586369221109494 0.0
0.002394549451891432 -0.0003577120875957599 0.0
0.0014242671960889922 -0.0006268764592297723 0.0
0.0023620510397579318 -0.0001868141821814817 0.0
0.001906867074416344 -0.0003078539032684839 0.0
0.0009869489799524637 -0.0003720152113152352 0.0
0.001712764490913061 7.78627610987435e-5 0.0
0.0010411953736755438 -0.00030909667664621234 0.0
0.0008787858537152051 -0.0004804409901800999 0.0
0.0013113810324069902 -0.0001656542089756637 0.0
0.0021802212304398777 -0.0004605265331865233 0.0
0.0005069978387062403 -0.00016505754487306187 0.0
0.0004221229250759949 -0.0003116576106503744 0.0
0.002063330948679008 5.899486508950258e-5 0.0
0.000639056883999853 -0.00019095117383150363 0.0
0.0016612312671004585 8.947802078973933e-5 0.0
0.0009743375917591166 0.0003378481959992015 0.0
0.0021695139047580364 6.949593926956764e-5 0.0
0.0024706355752894178 -0.00011238017276437657 0.0
0.0013789577485950556 -4.2395662765678794e-5 0.0
0.002205698653318459 -0.00014636420878284326 0.0
0.0017110229984345917 -0.00048432624340953535 0.0
0.0018122474365059548 -0.0006116452389730232 0.0
0.0008332965349053535 -0.00025615384127011315 0.0
0.0009175487650118715 0.00018472781313758432 0.0
0.0005552177314647686 -0.0001699480942946305 0.0
0.0006252245976889067 -0.00043296030927340206 0.0
0.0012318894307173057 -0.00022671246170082659 0.0
6.925421492195936e-5 -2.6838908018022286e-5 0.0
0.00048335946805414106 -0.00032378744057007095 0.0
0.001363880689648421 -9.667408822521029e-5 0.0
0.00017239673418933949 -9.715315100464407e-5 0.0
0.00016069084910887542 -4.638799904402602e-6 0.0
0.0014768196424447464 -0.000303619072400965 0.0
0.0014988088359946642 -0.00011477077360454788 0.0
0.0026689631662126594 -0.00018166977340220748 0.0
0.0011728578805668204 -0.00011475359315657487 0.0
0.0020299177013808206 -0.00031953383595115996 0.0
0.0015168232768247932 -6.554865338363102e-5 0.0
0.0003965935126087752 7.095123871501468e-5 0.0
0.0005130012857732397 5.5176180986462174e-5 0.0
0.002764663595433587 -4.4707000296640646e-5 0.0
0.0017610368461338927 6.846765009847915e-5 0.0
0.00041538901088045355 -0.00016945962310367635 0.0
0.0017258717397193358 -0.00011517084953490448 0.0
0.0013251553191922598 -3.020857042096026e-5 0.0
0.001480899600002301 -0.00015851515803302747 0.0
0.0005321346831151295 0.00012931162968476568 0.0
0.0014850805399926768 -0.0006321323827192842 0.0
0.0026243359138354216 -2.992610161806543e-5 0.0
0.0014559063686527185 -0.0002560366218147699 0.0
0.0014646059380611423 -8.173225766659844e-5 0.0
0.0018539599573864514 -0.00018765843742633913 0.0
0.001271830576730778 -8.220443940144496e-5 0.0
0.0014642778619834162 -0.00023840435887447902 0.0
0.0007130207172679107 -0.00037488355961112817 0.0
0.0019508576336436816 -0.0002898044307266942 0.0
0.0011598948568162378 -0.00018646079509562652 0.0
0.0014610763128142896 -0.0001014314066281091 0.0
0.002284556528229689 -0.0004484031863850102 0.0
0.0012412984527044035 -0.00016346748051214932 0.0
0.0017428999528189086 -8.59859229345096e-5 0.0
0.0015247261688305762 -5.590239297772926e-5 0.0
0.00023360492778097574 -0.00019015028854614733 0.0
0.0022324829964753753 -0.00025912602463642326 0.0
0.0015105932858492852 -9.126330439307227e-5 0.0
0.0008335110759588828 -0.00047724391222144944 0.0
0.0016634629616103771 8.401946751128095e-5 0.0
0.002022021417153041 -0.0005610144880065209 0.0
0.002782758322203154 3.145560921910642e-5 0.0
0.00014430116656468706 5.821378246195406e-5 0.0
0.0012006419062278954 -0.00023375080628609718 0.0
0.0015970780149161658 -0.0006091248152420727 0.0
0.001010249280928513 -0.0005421240623349847 0.0
0.0011457091780773968 -0.0005913845914093616 0.0
0.0002208077363212132 -8.509338705228685e-5 0.0
0.002067926959977954 -0.00030246690782751844 0.0
0.0008376462929244019 -0.0002399379958731421 0.0
0.0011982413975694269 -0.000169396935985361 0.0
0.0009651132289226103 -5.667913149089392e-5 0.0
0.0011852410430007146 -0.0005804343521569021 0.0
0.0020480561601741924 9.905217094120956e-5 0.0
0.002648520115098442 5.0149260071369466e-5 0.0
0.0017112864729138407 -0.00046269184940826534 0.0
0.0014495918420629472 -0.00027516528043552643 0.0
0.0009294892502009959 -0.00036619252142989193 0.0
0.001547737962345987 -0.0006346879908121347 0.0
0.0021610068716958765 -0.000252714132182345 0.0
0.0001968628055905538 -9.883676793111849e-5 0.0
0.002581819654024725 -6.57082927263843e-5 0.0
0.001248835028590914 -0.0005889433687803478 0.0
0.0012777363841557322 -0.0005315164954943424 0.0
0.0019387242676590618 -0.0004933808418280254 0.0
0.0028539608434396376 -3.577255874533998e-5 0.0
0.0010682305433930414 -0.0005568237970937341 0.0
0.0009107023617475713 -4.1373118539284866e-5 0.0
0.0009459733816546944 -0.00018972595002939504 0.0
0.001839962345442568 -0.0002087608192515049 0.0
0.0027729792812632944 -2.2105443909398382e-5 0.0
0.00024057112609095544 -0.00016626614208497148 0.0
0.0014707227199047437 -0.00022301312861634323 0.0
0.0025325022995521785 -0.00024166668383043713 0.0
0.002764684798463248 5.350005484028236e-6 0.0
0.0008010393796579089 -0.00015752673359010146 0.0
0.0012779461006306176 -0.0005954123804700791 0.0
0.0026827070876621877 -5.719908934347565e-5 0.0
0.0004985046766124106 -0.000305332885920179 0.0
0.0028154085311797848 -1.489185201050059e-5 0.0
0.0009036428433408534 -0.0005371271781607572 0.0
0.0019619805806523685 -0.00026794576743041415 0.0
0.0005387697835607958 1.0537145047589253e-6 0.0
0.0017873741377038579 -8.737257751795184e-5 0.0
0.0027808383716935773 -9.60763768409936e-5 0.0
0.0022035315296916945 -0.00023284126205053773 0.0
0.0007958756988502626 -0.0004822705860412084 0.0
0.0005729884534290514 -0.0004095126583444606 0.0
0.0007111064938304045 -0.0003436045241389747 0.0
0.002344434599909147 -0.00038645834608964295 0.0
0.0021644751666574096 -0.00014934830646309226 0.0
0.00044992253189089977 -0.00017664324885291636 0.0
0.0011364638140716394 -0.00022502847957460317 0.0
0.001834604223203153 -0.00022999306073499302 0.0
0.001095265511418184 -0.0002600911767813473 0.0
0.0027115783729295805 2.421987028366526e-5 0.0
0.0019737198392609213 -0.00012259561472453023 0.0
0.0011554770671666095 -0.000175092014594771 0.0
0.00046076162863476584 -0.00015983628670812426 0.0
0.0020943005816670547 -0.0002686506952215054 0.0
0.0017396598131696858 -0.0005741412175039639 0.0
0.0024590956967736706 -0.0003249687660272012 0.0
0.0009644430754826763 -0.0005313954868643743 0.0
0.0018323898335655484 7.818830469280644e-5 0.0
0.0010440303509955025 -0.00029076620532005135 0.0
0.0016571948062697472 -0.0006089320770636292 0.0
0.002435399288119458 -0.00025940038752882513 0.0
0.002153713603270775 -3.3650507045340954e-5 0.0
0.0027122624136048535 2.306941717936856e-6 0.0
0.0006819732651242152 0.00014811294117262055 0.0
0.0026351782580423507 -5.488558822213999e-6 0.0
0.0009165463782769037 -0.00033813344824646383 0.0
0.0024252952442578544 5.7621920622505824e-5 0.0
0.001695162337427365 -2.2413018769363234e-5 0.0
0.001990555269236224 -8.537000832138356e-5 0.0
0.0008621602632179553 -0.00021889278274538898 0.0
0.002018208541649634 -0.00014693366676745784 0.0
0.0013390310260843947 -0.0006007304912680121 0.0
0.0007455165689195138 -0.0004515412402147517 0.0
0.0015316173026113317 -0.00011867981840566287 0.0
0.0021426988285015154 3.1147764089500315e-5 0.0
0.0012561916017328058 -0.0005583768377271361 0.0
5.029566120610541e-5 -2.5108243756506185e-5 0.0
0.0027875668573031213 -2.7517430338323537e-5 0.0
0.0024208681800059932 -7.152635985891782e-5 0.0
0.0011929372516103626 7.8920702889569e-6 0.0
0.002827359950973352 -3.8391605850745805e-5 0.0
0.0008005382477860607 0.0001195603734172024 0.0
0.0013301293609381606 -1.704714449382528e-5 0.0
0.002876104601525624 -2.4236828970647555e-5 0.0
2.140059703652679e-5 -2.035079110818248e-5 0.0
7.49790073598379e-5 -4.5617456656407784e-5 0.0
0.0008236068476180007 -0.00010326743850989917 0.0
0.0017323295598128852 -0.00026554825158810625 0.0
0.0019902121220692465 6.469218931016476e-5 0.0
0.0021848074220810424 -0.0004312775495325191 0.0
0.0027973617793673575 -3.334694034201143e-5 0.0
0.00021836187628063449 -0.00011319924251726678 0.0
0.0005986149363226698 6.944626390900849e-6 0.0
0.001750793960468156 -0.0005464316265021454 0.0
0.002505130998754592 -7.113934673249899e-5 0.0
0.000733057240398738 -0.00034337287131567574 0.0
0.00016470710794403215 2.558665414771281e-5 0.0
0.0017668181832468724 -0.00012065618738633035 0.0
0.0008646196898952029 -4.486808952201272e-5 0.0
0.0020967601903897834 7.801880263924601e-5 0.0
0.001333584228101007 -9.509862411813504e-5 0.0
0.0010855003279795952 -0.0002741751795907514 0.0
0.002542357256052021 5.2978367543331273e-5 0.0
0.0025791782521391183 -0.0002497218287786862 0.0
0.0020989677587745577 -0.0005018864278529012 0.0
0.0006438583941652054 -0.00017821935126327261 0.0
0.002655213970173051 -5.6212348638319904e-5 0.0
0.0004427604139877085 -0.00020570766008166206 0.0
0.0026838484847912796 -2.5267370353791672e-5 0.0
0.0023679260038114887 -0.0003789312166883462 0.0
0.0017201271532100548 5.718877898039142e-5 0.0
0.001952242369787288 -0.0005560159785244829 0.0
0.0020763720284793915 5.075597661761271e-5 0.0
0.0013135789978132328 -0.00014018361201924477 0.0
0.00073751520459341 -0.0004287691626969818 0.0
0.0010678693083850106 0.00016272245978378054 0.0
6.483669339338119e-5 -8.396197045708893e-7 0.0
0.002760397040969722 -3.315151972738957e-5 0.0
0.0003067038609713404 -0.00024262401343812994 0.0
0.0021077025034915743 6.91160291245965e-5 0.0
0.0005232873206209169 -0.00036747548907475793 0.0
0.001966654609937758 -0.00025049114020917276 0.0
0.000588425392177536 3.7646148965147636e-5 0.0
0.00025490605554857567 -0.00012377586078238654 0.0
0.00037223667972353925 -0.00029980742718968827 0.0
0.0003327133543819826 -0.00020607392743159049 0.0
0.0009396366524617923 0.000210398886345236 0.0
0.0022457563653211915 1.2711657032358832e-5 0.0
3.979554076637592e-5 -2.8745863949710204e-5 0.0
0.0024029425850065267 -6.286455950987307e-5 0.0
0.002198178324249833 5.190487498801626e-5 0.0
0.001777071347607702 -0.00025220388487087546 0.0
0.0013324230532402947 -0.0001134210213902943 0.0
0.0007560608277580756 -7.987343366771953e-5 0.0
0.0013591166367309191 -0.0001499488463491958 0.0
0.0017899051412974287 -0.0004978593850483969 0.0
0.0008703359557898683 -0.00024074398136323476 0.0
0.0006610064862870454 -0.0004335560846433346 0.0
0.0024355654090019384 -0.00018764201648748332 0.0
0.0018614401834344872 9.645607804921898e-5 0.0
0.00030514549750808507 5.790876686620545e-5 0.0
0.0008618918970898597 7.128211867423915e-5 0.0
0.0019172036510771058 -0.00018792300458618868 0.0
0.0017806643655277794 -0.0005943003819979729 0.0
0.001132174028996315 -0.0002389625793002528 0.0
0.0022534047426906794 -0.0004382221985920737 0.0
0.00018529420046369669 -0.00015519644678899835 0.0
0.0019693581209178426 -0.00047187502389133234 0.0
0.0009636370232683935 -2.2879505509937796e-5 0.0
0.002692798943102183 -0.00016702260901679832 0.0
0.0009324860198312288 4.847960513622179e-5 0.0
0.001758730215914804 -6.314973362741213e-5 0.0
0.0014892424939835054 -0.0002915479202312676 0.0
0.0013365355272864242 -4.959638556635481e-6 0.0
0.0015663297687840698 -4.903468590660219e-5 0.0
0.0017200580667315552 -0.0006003925996257028 0.0
0.0022028623398648727 -0.00045488572500676115 0.0
0.0007041320278093395 -0.0002607480186633571 0.0
0.0016198547813437514 6.648783919987615e-5 0.0
0.0015780749140509344 2.341366407085303e-5 0.0
0.002197374299051298 -0.0003968533061930813 0.0
0.0013207528270393557 -0.00012940956375554345 0.0
0.0013046156403800774 4.747248980788435e-5 0.0
0.0007320148351480219 -0.00040766235764260123 0.0
0.0026737007879214904 -0.00016276960985317173 0.0
0.0018536584079820865 -0.0006034911980115811 0.0
0.001258771053544555 -0.0005424191336362542 0.0
0.0027895375931466944 1.2602814904127006e-5 0.0
0.0012404119417894744 -0.0004822216086617109 0.0
0.002147011461672101 2.4912457660618717e-5 0.0
0.0007552488219132157 -0.00014477170198748838 0.0
0.00187462669119576 5.0531914109136056e-5 0.0
0.0005492184105684683 -1.640450638444299e-5 0.0
0.0012077604314639644 -6.970194581300505e-5 0.0
0.0009033953012390232 0.0002762122255440581 0.0
0.0028392818267031134 -2.085153464902591e-5 0.0
0.0017233813561460603 -0.00044509939293316616 0.0
SCALARS damage float 1
LOOKUP_TABLE damage
0.48857870226831807
0.2623071019532228
0.7026050689029828
0.21923480785864144
0.9780027738999164
0.9918395170618083
0.10107122181586163
0.6850148150666038
0.6838342679311239
0.696362085676542
0.7250786283501849
0.7469507322061771
0.7741564253176404
0.8006713226527042
0.8146244989737993
0.8214317396656412
0.814974586408836
0.8056521993829173
0.7902975517669463
0.7715814829692608
0.7537198171349396
0.7438368738245009
0.7260535716088664
0.7088261771245684
0.6969915811040822
0.6823410448767806
0.6613350116278768
0.6417397585422867
0.613680442621378
0.5844768054971128
0.5416687182907782
0.48883602058291725
0.23616474820640262
0.3749372423083696
0.39748067330194004
0.4331939920230476
0.45612725434175755
0.47212574812775954
0.48975668512104464
0.5012031770620282
0.5130605904950262
0.5247674136064641
0.5335352262096453
0.5431531319647404
0.553762057746972
0.5602029236327566
0.5645263550901469
0.5735869063196577
0.5830448756533662
0.5943963700097273
0.6005800417923769
0.6087099590457389
0.6159674460594081
0.6274468775555205
0.6299499969975345
0.6424136981528544
0.6468054272762443
0.6573635222692135
0.6642795594917232
0.6767992060577502
0.678920495811731
0.6914716792087735
0.6988984984391723
0.7095262652761527
0.7166782511370712
0.7243213530262679
0.7265413947421938
0.731539425272935
0.7415426645285452
0.7461353845113483
0.7648010470029353
0.773507496188019
0.7803694161476669
0.8017670677361555
0.8105017403039916
0.8226318004295344
0.8379001478140771
0.8431409711941632
0.8606304895516159
0.8673891257219356
0.8788995538232864
0.8900097714431465
0.8964979651665367
0.8970678587451982
0.9141072754661788
0.9207701046291472
0.9433505195348455
0.9440606485935334
0.962911120960341
0.971141167324606
0.9757834380460784
0.9795900983133645
0.9789649563040359
0.9774041637304018
0.9739663677411603
0.96971592905538
0.9617841972025634
0.953875577368066
0.9344574515443509
0.9165352972940098
0.9027868341211523
0.8949246499828627
0.8777866348961771
0.8736642935768448
0.8535479157932286
0.8376873534553669
0.8266450303477001
0.8069328298850031
0.7996061805157645
0.7849854011154455
0.7713313484104926
0.7528858370872726
0.7555054014332138
0.7323911559015637
0.7256335237592009
0.7081135348793198
0.6964474671428083
0.6862192840862262
0.6689638021755602
0.6565765397735805
0.6475161314049789
0.6325632101786546
0.6136286233156903
0.5926352696410311
0.5796610578994122
0.5617561599692792
0.544529419519786
0.5003431874971099
0.46349921099669644
0.4496521920385017
0.307315282210787
0.40797645127093485
0.5036636900022925
0.5993947015780365
0.6400820828660084
0.6609146782590464
0.6725060553011908
0.6802094668991546
0.6851795875881505
0.6891309087452726
0.6962696615179883
0.7014679822721641
0.7062623293150552
0.7108689741587879
0.7147420961630765
0.7160271461754381
0.7146716012011985
0.7104988988368003
0.7075139888211694
0.6997140100555805
0.69818394219348
0.6970731146254394
0.6983776967656367
0.7135225422589422
0.7420729937673383
0.8089498648078419
0.7618830380205653
0.962020532455969
1.0027904660940727
0.9931350485494111
0.9900431077133562
0.9854559502370771
0.9151284347367113
0.835481105089348
0.7485673367836324
0.671133304529554
0.5892050097917507
0.5282889753755279
0.454705717507753
0.3772642593755011
0.2984032650258609
0.2579636992415731
0.04754875583139304
0.15894583707396037
0.25946930126621354
0.35848164539161753
0.4559694322400688
0.5631747466059793
0.6611848238509497
0.7656068399001683
0.8672798801201981
0.9452347961791568
1.0012447982577963
0.9933021259722767
0.9991944093312505
0.9740540945577566
0.8770263994717997
0.6750684697019894
0.6844208386996372
0.8953893342381276
0.7449378434539126
0.9690062724874764
0.8155421869407621
0.9479078106392405
0.8840148753389648
0.8175674850295479
0.6354983807856784
0.756380068254023
0.5944560434340612
0.7649131326326029
0.7115492715306406
0.5469936143449581
0.5599277061069716
0.1204495685566424
0.4195211487293443
0.6928725765605356
0.5566371340283119
0.7104156880241678
0.6965254031825348
0.6999897685651428
0.8052519078339501
0.6401905007341263
0.5130975204747201
0.7546718844354394
0.668521950016888
0.6703380920012806
0.6731739962028366
0.77352807025607
0.8541810269250624
0.9750742251852418
0.9022343604208767
0.946962098778607
0.8546548780907802
0.7237919633032043
0.6591849029137292
0.5838887612192419
0.4731842105329875
0.6888767983838172
0.78390878987116
0.6367742102147437
0.5979209428402269
0.8810554727769123
0.8707688853256087
0.7081380216595803
0.7103850110028193
0.7391741231773952
0.7088407758351196
0.48136309947737366
0.26903471152706565
0.4091164475644347
0.5092397766343255
0.9152985239638715
0.9267951935617913
0.7538302275486433
0.7025388419564869
0.9677132765409435
0.7906714844244221
0.619375181004383
0.7308457116319426
0.5768701814491258
0.5351384644615669
0.6641259579949181
0.8658812954802656
0.9233113904123197
0.5628487441262195
0.5258914346659233
0.9908455849614508
0.985311445702251
0.6400808402503774
0.7769059409564699
0.34947376569431643
0.4463137682007656
0.9908786574062698
0.9105852111720126
0.8159105881779211
0.8162551840934901
0.8779604387962391
0.7899160982894325
0.7534622132168758
0.7290584201294095
0.7053386979819485
0.6839353795949903
0.6986632981930287
0.6652154660757575
0.6745047583380557
0.6518444499837859
0.6612862843697148
0.6519775544877876
0.5884792992661961
0.3191013233412716
0.5232097653367962
0.361531959579242
0.5201283861397736
0.42285253762940384
0.5209948495506685
0.4637343210200993
0.530689345647191
0.4887008421588643
0.535030253875483
0.5128458732743669
0.5501229136001524
0.5281075832152603
0.5582914823311265
0.5438331345194549
0.5674199226514888
0.5525249462949274
0.5720940160757103
0.5624289874315597
0.5782558167278748
0.5726456438748497
0.5849416036544081
0.5821754378626778
0.594343504112493
0.5929175579532124
0.6027449518071527
0.6004741745033949
0.6101109939066347
0.6061432932206268
0.6155470366541065
0.616024705366001
0.6235480449681738
0.6254470731384492
0.6313153116797054
0.6322827604832763
0.6385711388180183
0.6411701430130736
0.4400241625737056
0.647300422373042
0.5460635929758775
0.6115430791597288
0.6495157614185183
0.6558873735222415
0.6578635015009124
0.6515261077833119
0.6598160463595409
0.6642834149963371
0.6619589597579569
0.621926801277284
0.6707217063941577
0.6680164293859956
0.6763384821572866
0.6530532150113791
0.6614982805418296
0.6733331685390266
0.6548027833671973
0.6630533938101203
0.683301841547515
0.6804515727402449
0.6569970170600088
0.665273748190692
0.6907625015497717
0.6880847339029552
0.6581381695125292
0.6655044810122762
0.6989369121263349
0.6962970736596054
0.6581949234217606
0.6658719926678305
0.7074574421371038
0.7047766086077346
0.6574812100227329
0.6671678884195199
0.6571514168125333
0.647799271011126
0.7100450847301952
0.7161458373270267
0.7126737669702768
0.7004734037915551
0.5903110964783589
0.7092360311223437
0.695747256262021
0.7046358661673775
0.6674663259661411
0.6586013142567966
0.6739559460946474
0.7246544176034144
0.6661541811086186
0.65624789958816
0.5807346668443095
0.6636467127574112
0.6541209900167517
0.6616211668025666
0.6515133424890441
0.6441515487922309
0.6406366075536633
0.6348106613934226
0.6592184607445264
0.6344996451855404
0.626755323313121
0.6693765141722463
0.6666158721090316
0.625923180965563
0.6190808772957315
0.6930301162527565
0.701209262618904
0.6757482400913752
0.6713972020903011
0.6907743631442771
0.6999947743599574
0.7117898519350413
0.7086634503961567
0.7245068164496352
0.718994359484548
0.7351552381864689
0.7281708544505716
0.7459637101281283
0.7142800971166609
0.7364327639909242
0.7568354889913048
0.681396016220363
0.6191354851620777
0.6129493918780594
0.7647950359798429
0.7771318944086771
0.7672561977195747
0.7882250579875195
0.6771762646572681
0.789110952948526
0.7778113179402287
0.6871911489443052
0.6834854930601025
0.6739273777666871
0.8007344049443184
0.7890805023591779
0.6943584105116734
0.6988209233479826
0.6790791984650063
0.6688124976827987
0.8098193132634648
0.7987574656721752
0.7713432350859833
0.8203412465786395
0.7797565334492672
0.7558618819325181
0.6134863631171943
0.6098147418300693
0.6072301154393079
0.60817872161043
0.6002913295677464
0.6036513356694683
0.5946359281564488
0.7059895661648559
0.7099843499978534
0.6735979121674234
0.663527001672449
0.805515401675385
0.6034075432412209
0.5918864590995364
0.7169154157358015
0.7210118392000443
0.6721272425465952
0.7859212312553743
0.6036721569614428
0.7875228180868364
0.5828089383920525
0.6901483408911975
0.6054042488710797
0.5935759930853164
0.6692441485262888
0.6597931114806359
0.7279337267381122
0.7325646589311662
0.8109343948785919
0.6131630712978672
0.6156186757227848
0.6135452201238504
0.7881205497787598
0.6146120317155653
0.598450796281411
0.7232450650330098
0.6638065285895023
0.6541297340598116
0.6816084207712721
0.684749600244893
0.6756094475677062
0.6822462528576757
0.7394500838132361
0.7437038314980262
0.6488234927989421
0.6233091216816736
0.6154072663431825
0.813422389551861
0.8286567692330213
0.6509616768070049
0.6372966084090195
0.7941015615274691
0.7679396035781951
0.6737408236357818
0.6742390377435643
0.7514108882515164
0.7551668867807559
0.7472068136888796
0.7588921670372349
0.7504672964762027
0.7622308338863873
0.7533475350870775
0.7647134440480255
0.7552728094458709
0.7664950493249132
0.7762093687758934
0.7782731177399655
0.788243925414236
0.7902717729020855
0.8004099869317085
0.8024260627731912
0.7568408544091759
0.7914170782409676
0.8038505735943101
0.8154878861093536
0.8171272881695817
0.6144765214725804
0.6157815745431414
0.6585342676752927
0.6494480973877076
0.8045989568299028
0.8178169909099976
0.8311418486442619
0.8317402060308637
0.6165421376409093
0.6160515734505208
0.6741132519796433
0.6844107247384424
0.6774032876382434
0.8161014565346668
0.7971847940668376
0.7635151462379863
0.5794160369636862
0.686255124799546
0.8457528368785214
0.8459069764769028
0.8313025832050228
0.845605851525618
0.6699900743369598
0.691796052926595
0.6978968289216462
0.6641147391945651
0.6534612402367788
0.6442804901609974
0.6849852866471868
0.8597637419401818
0.8596120636136221
0.8435579193366737
0.8586033023592222
0.8408888369125412
0.8548407327313521
0.8726878750412622
0.868312567675315
0.694618870394972
0.6179709146860164
0.6155109843466644
0.7600082577258939
0.8185573563856882
0.801798626757305
0.8839809782477244
0.8821953262856875
0.6810850215020589
0.6492734553652385
0.6392532040407214
0.5988040046420586
0.6474554072784419
0.7720074318499819
0.7056416828275628
0.6365167370873819
0.8200832432200571
0.8016109317106116
0.7710015563492415
0.6985215463526702
0.8271496987230984
0.6225432721364714
0.6548401203178261
0.7058281075439687
0.7001958738538822
0.8369324266048314
0.6425867972576896
0.632883975457958
0.6194786693144154
0.6156508258750499
0.654862625000698
0.8977997443713689
0.8936008292916312
0.6297845934875994
0.624164304164277
0.9001434469463094
0.7674254687260214
0.626188356471782
0.6179112519541607
0.7421262354614645
0.7722495784520866
0.7407627649161761
0.8012415972878366
0.9090390303593539
0.9045895473588245
0.8235071057448801
0.8192015119092019
0.7796741367681909
0.8888664907077474
0.8984315391567934
0.6216555167825186
0.6157515882527567
0.9125653808736436
0.9047117430125428
0.6194076191714961
0.611047300634337
0.7224545912906146
0.7216132987028165
0.6103986606479754
0.6039435650638597
0.6032416194055635
0.5964582798399113
0.7721717146487361
0.7981387575043984
0.6961890750992823
0.7143037296255991
0.6694358683862245
0.774902311294707
0.9160069431722937
0.907320721785875
0.6605291442990565
0.8826431199849331
0.7977623256119482
0.598005327331557
0.5912260202179692
0.5897539023062074
0.5836449463977514
0.5861276085563654
0.5791446711579323
0.5842081747293496
0.577594215508541
0.5865862757748364
0.5798623916980165
0.591470853516045
0.5699737561235252
0.575965031267916
0.6228357790942002
0.6308296378037302
0.5575878203044309
0.5653793105473568
0.6756453870364116
0.6270824925277634
0.806370625442713
0.8020767879970705
0.6152311904028789
0.7866053088484123
0.7902915342822738
0.8142548979192601
0.7971253859681218
0.772288917952831
0.7898634783676115
0.7974050419226523
0.6959068743739529
0.721663595697648
0.7620988622825592
0.7682975974281624
0.7565482053442735
0.5806234325756752
0.741135858051808
0.747814377117756
0.6318590357909445
0.9163991251152955
0.906965191631469
0.8990169446302934
0.8988000909981648
0.693223078733447
0.7118970617126827
0.7138179516943768
0.9240751891751571
0.6623897795014406
0.9042399926926593
0.8958366416056306
0.8891859192783388
0.8870789705090677
0.8806968576329305
0.8790621262394248
0.883151383031601
0.8748881975204126
0.5504841751568383
0.5549482943866559
0.5767038209807489
0.7955379328798462
0.8015406967212255
0.761521909160018
0.7498117869689221
0.7818176931910902
0.7770408308092971
0.6734643821934344
0.6694470625510387
0.7298734883124833
0.7271466037017426
0.5470103319653223
0.678938181606364
0.6666765054411914
0.783988504718075
0.5939552375005491
0.6877936036360254
0.8772022659543118
0.8691767148845162
0.6551589371211712
0.648926421590539
0.6913476767564495
0.6127556141633789
0.6339397440862249
0.6443473425936564
0.5880487601650556
0.9004101698537906
0.7290045987233361
0.8443701157017686
0.7002701641068212
0.5386549534763587
0.5458553494422568
0.6288981122150574
0.8091869839143466
0.7916230361597747
0.7723998853593548
0.6575720819440373
0.6531761643966121
0.6617538508882114
0.6586679579247852
0.653702972162749
0.6575233194411787
0.6646468278788307
0.6619161704036358
0.6721205610133203
0.6717370556785258
0.680359505619917
0.6790246532200935
0.6895313592920533
0.6861547594684527
0.6917323428531673
0.6949576820498018
0.6936549039094352
0.655719545183209
0.6216727408021466
0.6219277638182723
0.6312444396367416
0.7026097904743793
0.6991737832400762
0.7038629243537549
0.8592910948486395
0.8573573125470779
0.8719305625662571
0.869798581167244
0.8835478416773564
0.8812067583697646
0.8670471734671155
0.8778035699469079
0.8629493057390422
0.25276002751998267
0.8947017692214299
0.8970208743727316
0.6705452151503116
0.745931796322817
0.7471016634939129
0.736468429126157
0.737017729763597
0.7267497507572769
0.7268660039378274
0.7369181824665044
0.7264531177462191
0.7368637223439816
0.7248680908876363
0.73499322238308
0.7159271105597256
0.7168704343254183
0.7169897750821743
0.7466098650866739
0.7451519991141595
0.6244469113624279
0.6258471775168167
0.49722544228628934
0.8046200733611715
0.7347632017422916
0.7303629616812555
0.5832050711394245
0.6034717026608291
0.880364040076358
0.7188422086692401
0.7658970193614318
0.7629072762606295
0.6376100743082719
0.7547104094858593
0.7429458398040556
0.5840719529898654
0.8720481112623659
0.8567996320113108
0.7377443845957905
0.7321675751940087
0.7262464651291315
0.7217662499292534
0.7274479779853983
0.717176633028617
0.7238894194869127
0.7131284591743121
0.5809127779375336
0.7047980568829068
0.7586761772648767
0.7697595342860296
0.6636279682747472
0.6465490327743605
0.6869081424522104
0.673305784000298
0.8066787005320666
0.8113581137288755
0.9223368001342983
0.5909792104002569
0.6852815266347901
0.7497418297751188
0.7855208021990311
0.8714109540990389
0.7558786321646962
0.8666203504535741
0.8601764185411261
0.8608817009216552
0.851211381043587
0.6461137964267241
0.5896245020390639
0.7232213785134803
0.677994223085919
0.7947579071607427
0.634122288661916
0.6407888272440146
0.9304635453190458
0.7157030560760651
0.7891516131729508
0.7933613093083128
0.745303208379648
0.7429765465953451
0.7514154925794332
0.6687270630333771
0.5239023800931802
0.5339813324229438
0.5614564806360535
0.696240058542255
0.7103514093361218
0.6857840941569523
0.716959717170637
0.705818839332778
0.7030500767234715
0.7482894497352465
0.6905858700771814
0.7380251889839111
0.732971087759169
0.714717888298956
0.7101028142979975
0.7149510679853741
0.846628144603923
0.7072255873656795
0.7021992926679741
0.7084028413412468
0.6979374274064014
0.8538942849786398
0.845668333774851
0.8426183065488151
0.8341899904493694
0.7795695500640578
0.7736596833382633
0.9073664469414017
0.9094618810335865
0.7070865891734773
0.7076364351484291
0.7985185321289258
0.7024792330171981
0.6922430584031716
0.7992680011133846
0.7895599760840886
0.8046292212801768
0.7914410242677454
0.8196180363957667
0.5205661478399204
0.595996493661927
0.6027851533459936
0.6509701222780784
0.6631717858404466
0.6535466994280844
0.677129922365306
0.6663850479983916
0.6916582434983873
0.6817978741560436
0.771260260183977
0.6916574862053344
0.8686815356576564
0.9315336464345266
0.9388669598347107
0.9384903257476239
0.8661536307682521
0.7399529245598265
0.8281956643534301
0.7349852590080203
0.7166752454482026
0.6611626389612071
0.7392125724292437
0.7923476170449684
0.7910285079695835
0.8866674479913008
0.8513062700156644
0.6179444609216243
0.6966904346202056
0.7002846222026347
0.7024893416860861
0.6986976703102183
0.829767088898271
0.8739427092903257
0.7769013066018948
0.7711064329714177
0.6847275199657109
0.8037631917129294
0.8719720977259512
0.8653318864961059
0.748843005527741
0.7642485160584926
0.6439374249894886
0.6511447953264646
0.7092047623574519
0.7000321250407974
0.6713985468994641
0.6897592971634833
0.7191682475551365
0.709565205608857
0.7375000111274812
0.7287537415978006
0.752824755962486
0.5107403668606286
0.7812918342435164
0.5233652066572396
0.6273663650893553
0.6988850191399828
0.7577782515649644
0.7515615383827489
0.8031065393696565
0.7438468201196526
0.5815610679203077
0.5730473846273358
0.7134457861349437
0.928987564469577
0.7595020757446291
0.8188907641540184
0.7154554729848529
0.7159974741093494
0.7065044214299686
0.7142344339215627
0.6154288017616399
0.7053913667020063
0.6384339850832207
0.9192398100459234
0.9214447411709463
0.9121020750194293
0.92421930491425
0.875645086660499
0.8580345903873495
0.688276640070665
0.6961363655069053
0.7865949608578463
0.809099165724435
0.6178044920212109
0.6972501614829748
0.6868490480541208
0.6737745620620289
0.836536772593921
0.7606627153614345
0.682160211317399
0.9342280574758738
0.9375248977523817
0.7679158794763737
0.7699676411744548
0.7558151127595581
0.6598708476815917
0.6006633719930367
0.4946465278522435
0.912863374090849
0.7366589117619912
0.8604372648464336
0.6146193232560054
0.6492822401403727
0.589079988394516
0.8280303048606145
0.6278101692178653
0.6207117656073066
0.6265558217150474
0.6198931684716827
0.624472284476806
0.6146402823086694
0.9468071873418824
0.944887551812851
0.7374730153558632
0.8749940111537903
0.8101637411761436
0.8066171639265286
0.6528592161707384
0.658908709991335
0.6425719509836699
0.7413390720388879
0.7222609027098298
0.6625455881524676
0.6602802488272312
0.657748561954047
0.6627405900607151
0.6467158419617637
0.7053347081610132
0.7499335474933043
0.7968268436629581
0.7267356857838605
0.9156183163952876
0.7549228148831864
0.7112424154288319
0.6903718469372816
0.635290451936604
0.6902082361054221
0.7619437247910684
0.7576790877283681
0.605231424385092
0.5727372886996268
0.5641522147835436
0.5664067484264163
0.6215978227742566
0.5092026872212065
0.5456606240562684
0.9470924120964289
0.9468758926183268
0.9350903052517593
0.8461442599637761
0.8503334678807853
0.8183965096950968
0.614440475409438
0.6106379656689837
0.7688386257781249
0.6980789955711607
0.697237446819576
0.6884300106582879
0.6821705040288212
0.4908541969416451
0.6708886615778672
0.6599114487537614
0.6505495374526574
0.6384390739827095
0.6346360841984003
0.6455356654455858
0.7795156056200896
0.6986443486015094
0.697513916109258
0.5644538570619143
0.5549519633248678
0.6523563432986832
0.6555820663693979
0.6609622184046836
0.6651630498371373
0.664209568100571
0.8465785632093316
0.8378137695915695
0.8558373189394275
0.7354345028254119
0.6980509991586075
0.6484445799745379
0.7753575248666444
0.9544988798826091
0.7434235461532376
0.8272227802430738
0.646941097711723
0.6336102685284597
0.6440725821918187
0.6366991261685268
0.6457098083377516
0.642504697371578
0.6508881479323095
0.6495460195344946
0.6579891227126474
0.6279025564286513
0.6419042368139874
0.9453979930419486
0.677563160301065
0.7206167804428787
0.7102939882124596
0.7475054247438387
0.6999290706527325
0.6232642559527581
0.7554868522184104
0.6883094822988335
0.5725718849009362
0.6041232260311885
0.6671102422060532
0.7181001789830879
0.7172434498747626
0.7128414417858268
0.702825668230125
0.5974865993080494
0.4748397701551153
0.6692743526983223
0.6535239658434838
0.4943945516358266
0.8481735777135567
0.8397182052181656
0.8496666802479487
0.8309746783886807
0.6501219853392073
0.7514621471747517
0.6183072892016408
0.7592591486081516
0.7454317569360365
0.6913871437684636
0.6733043279995815
0.7653871130631519
0.8841727119107665
0.8754085313295653
0.883699626434484
0.8743055787470259
0.8809688362647939
0.8922358643643612
0.9095334710358007
0.9344868822546275
0.6820430837913469
0.8423303066157244
0.6981465724136924
0.6447673579853785
0.6500772562970035
0.8682476382206815
0.8657309461939984
0.858571955391449
0.7730863403721593
0.7937893891225247
0.8032379531945868
0.813947095068174
0.6855491189049316
0.7912095979791117
0.9011057061133695
0.8431634229131182
0.8156834105406608
0.8032837326420652
0.8211305605507416
0.647312349773355
0.7340673804609258
0.7292416124176968
0.7390093280036045
0.7360215076638149
0.8418445960057918
0.6301995082836812
0.6123094456351122
0.6989905859022698
0.7237991533217059
0.7409992104491181
0.9498177380309872
0.9588695165934682
0.7803720772086477
0.6715136188821963
0.6137835718051925
0.8509429016286637
0.8124992299796067
0.724099519717031
0.6950356465316091
0.8200079032877191
0.8608111668607322
0.8634293377107023
0.792635263813069
0.819549514808019
0.7812510202998418
0.9452405594452639
0.7000244414071343
0.7351573387605495
0.7702723250987339
0.8032793981536959
0.9271612358368879
0.6680108434590942
0.7052115106794942
0.6093292634771861
0.6711327793116053
0.8806041029527043
0.6141609909241638
0.822866353711527
0.8735628802220987
0.8910473648906151
0.9026081353341849
0.8640910195772318
0.7513616446983934
0.6641486192930254
0.8098421563000036
0.7347160977718203
0.6988132961317352
0.6942678679423877
0.6727530166101765
0.6395508095938792
0.652708556464386
0.774829110958164
0.7647874743721509
0.824722078887845
0.599920215102205
0.6083414375571659
0.604190362326844
0.8319898508447129
0.7755506139005738
0.7765811487836664
0.7107100454499009
0.7112556538007623
0.7296795570563916
0.7345047189744071
0.7494960716318156
0.7211654818453449
0.7120159554171551
0.7039240243400634
0.6924782501595813
0.7072130050087445
0.6847756246578255
0.8227254742149035
0.7166286468235712
0.7250925960730186
0.9557670418965935
0.7557470271131006
0.7490530372963833
0.7398776914711183
0.7329521615783275
0.7437965535134762
0.73155635927582
0.7313740920293975
0.6304208353886196
0.6290644624114158
0.6225641983452157
0.626712365867366
0.6334139589901543
0.6293422313512191
0.6373416356691866
0.693323513082444
0.6342644649506617
0.6415876075166633
0.7488119164684074
0.6313107687599163
0.6458311751356532
0.621331939307438
0.8460128542576147
0.8536409678383442
0.8468290674805602
0.8563829373017615
0.7553564125877444
0.6461947785512221
0.6226581814761072
0.5707851823703808
0.5882515097696723
0.6021668992178282
0.5372251450282755
0.5468558830126793
0.4742595102421652
0.5007094589942291
0.4518953078325066
0.4869620722436944
0.4634605219795661
0.49087172834846216
0.4827779907344386
0.5022361252793496
0.506107547822915
0.5176044603631502
0.5248959612629717
0.5352631866783374
0.5445010561408761
0.5530216893129113
0.5630141596108911
0.5699282392256173
0.5797564387591726
0.5856791088587298
0.5751792276505762
0.5900115501811801
0.5976571633396941
0.5308643074026439
0.5749158172410963
0.539585521675844
0.5618555325134306
0.4909717404582581
0.5812305098836339
0.5945737199443517
0.6041824702820613
0.607628002924093
0.5147012876750332
0.4363215941601051
0.5669761099992572
0.4432465489651116
0.61713350641075
0.6193964913993532
0.6099182120728407
0.5750000541959813
0.5629526647312135
0.6144834793330689
0.6270327827190959
0.6251672453023708
0.5448804565854423
0.4667241589010463
0.6209449576314525
0.6127977806134027
0.6026798523423302
0.6053352674183823
0.9230417801520813
0.9111245803564137
0.6856453963796426
0.9002405656951348
0.9143642002895623
0.7161148584496314
0.7262793826031385
0.6477046409079986
0.7619776663149268
0.6302823036954404
0.6758341889157482
0.6731837532992091
0.677018968691721
0.7412421609956842
0.6510935873515149
0.7223758478240102
0.7207017192720763
0.6714522335012518
0.6454135153235598
0.67319630590655
0.6323860057230977
0.7032122755309701
0.6588016071315737
0.6664732179595185
0.6655915191756543
0.6901645711755726
0.6987053102063082
0.6893461162465521
0.6972913830068783
0.6875220717762256
0.695660037878123
0.6858931993405908
0.6936277096400105
0.7037245016131383
0.7002360127620659
0.74214944585074
0.7326226353562596
0.7347051668870072
0.7231938717930517
0.6134782140284724
0.5562264786683239
0.5475821850049933
0.5461568640510407
0.5379683402081434
0.768734648570029
0.761825985089495
0.7795528080553374
0.6822986102365243
0.6430915151595734
0.6358315918268441
0.7300627105535474
0.7189268771689846
0.6846539228780091
0.6739800626398592
0.679588348193638
0.6637090077051702
0.6393902431870174
0.6480828204737087
0.6224781421344975
0.6278730521712766
0.6594451712627939
0.7685369948397025
0.6270606007797449
0.5755589217827178
0.6356657467366225
0.6853865510393096
0.7084552359186272
0.8539609049428027
0.8539356360573154
0.8430184853055477
0.790443778537974
0.757254674718692
0.6665528682365323
0.4480973416421017
0.44831924841908805
0.6167387967407617
0.7376751635093634
0.7612977790156529
0.8568986618037076
0.8666891090618914
0.7428554310931667
0.769299064516113
0.7792118316558431
0.8006230525360026
0.7857314853620113
0.7884115417299083
0.7088570484507233
0.7194230584154664
0.7283895684459911
0.7179872111083155
0.6110293407522412
0.720246251918523
0.7199351224738727
0.9036074502040873
0.5375627568596669
0.526176296313991
0.5314433984827158
0.5196017299727281
0.6685359349205557
0.6943098897061181
0.6970868842591714
0.807285590989764
0.6900160670023573
0.7786179143369049
0.7644547459604607
0.7571651840252374
0.7395952464616999
0.7388090530394407
0.7534732698024603
0.7320675740154303
0.86415824837178
0.8616395004002082
0.8446527234739244
0.631139180574202
0.6316063096214752
0.6053353800716704
0.6092305917115437
0.7396686338919346
0.7296158904526941
0.6340855391506643
0.7732367319177939
0.7267908144236904
0.7151089449324252
0.6658510084401872
0.6760308102664397
0.8256227512796883
0.6056359843595313
0.6068961527744259
0.8592350493214349
0.9289839327857273
0.605027846484699
0.6027314369731757
0.6449134641131951
0.8562623815213842
0.8374691873241052
0.821189689398257
0.7444248976764338
0.8476068559939098
0.6891028089960739
0.6094996451133413
0.7022498803510907
0.7620105395951238
0.7277824297389343
0.6074122716913589
0.6522530783406002
0.8362719025009104
0.83382638376503
0.46996451177934495
0.9568762292278096
0.9624506046156429
0.7761248907995907
0.7845520416573427
0.784386011759224
0.7940038895564312
0.7860931503219395
0.5534076393742579
0.5531380861053742
0.6389865412517512
0.7787164924164244
0.7130431873955997
0.7995450556309266
0.847003370899259
0.8566846982910111
0.5156175864775047
0.5051817250513789
0.6908846073493728
0.603465186906318
0.5985235201337984
0.8275624656936551
0.6892225535899412
0.6566934689129555
0.6591837380122785
0.9603388429269393
0.9670053136055795
0.6504740620172758
0.6462566808663834
0.7920904933822905
0.8077165281671744
0.6834166830266231
0.6762967313921439
0.4167037393642736
0.9630152581912471
0.6791986635642486
0.5753206811568324
0.5839175244805399
0.6232542531294138
0.6672781416425098
0.6334428324068861
0.6229084156767564
0.6313397073060472
0.6222885560471227
0.629795344477841
0.6198342942831603
0.6121091917237698
0.6081888446642572
0.5986111209376977
0.5975471603869164
0.6291333591354312
0.7670731722686148
0.6763193929991813
0.6827450714668575
0.5151914269791654
0.3717964492915697
0.36508856780947974
0.4804201560732752
0.4210568768165574
0.39026221616060636
0.3646673685016467
0.3475879873959356
0.6165009650293024
0.6021378735937009
0.6896574627310921
0.6724128716711595
0.6754367594473667
0.8798319444148422
0.8942234364382573
0.6697152865248248
0.6736004581719404
0.6644377469494654
0.5836442090424686
0.3032512903487656
0.606546628058595
0.5943460141027057
0.5843682335774396
0.5834307795007876
0.5704581652026016
0.6834124909671527
0.6924691745251375
0.3957183017886334
0.8220666349706162
0.8264798192308108
0.7616203328796027
0.6686502165313842
0.5857692492620779
0.5788472118682847
0.6524732446567694
0.6907408113820621
0.8021596924217956
0.7843086154572132
0.6744307104323317
0.8011856267867623
0.8074388903732246
0.8182936392220781
0.825008550124675
0.670165908400208
0.6945387171344988
0.6749606512604049
0.6591954800448749
0.7123542015199794
0.7035775390108985
0.8313936297466177
0.6168035845676096
0.5371745963696576
0.4623669943113718
0.4772533536130014
0.5037146150503022
0.5019831280717468
0.5238734402371826
0.4755826741276509
0.5305265325976418
0.5445606854942542
0.5052397800852909
0.7310756171494645
0.5482529659688884
0.7066096643972164
0.6384747995476932
0.8235456580699003
0.8290713870433355
0.4475070144219387
0.44460988922123446
0.7311692730854394
0.9026767584638102
0.9094923261785582
0.9116842310229168
0.9184507241268115
0.9205825951856813
0.9295232777250391
0.6856545683595037
0.6969177620462873
0.7021162736967317
0.7055752468313293
0.7082895890537104
0.7071329340534485
0.7116053278308939
0.7046869371164407
0.703505429529167
0.7133638064040334
0.7022778270547722
0.7195224481696028
0.7165894248568627
0.7246843322417184
0.7063661252010692
0.6927436205015127
0.7235109600671925
0.7001672487056405
0.7148839056822938
0.6175234187208031
0.5287520113823526
0.5997057786510508
0.4709072425544212
0.478758764079124
0.8267471442856128
0.7431915188722724
0.6266563245436497
0.6131381042071613
0.6142542928247503
0.6136595568739396
0.6244586612760938
0.6182793014997637
0.6242194962784493
0.6169212286397304
0.5071277495636312
0.7157315046064181
0.6707004788963404
0.6883746199548173
0.7487320037665847
0.7332934540672931
0.7646005220057841
0.677068974924666
0.5357537719484995
0.5384050036705282
0.5505848987447235
0.5582247138557968
0.5690295786035501
0.5582010542102448
0.7876596169631441
0.6156600099354855
0.613236093659992
0.4066188870167673
0.743830086080753
0.9208656130197523
0.6764506517460659
0.5987390987550341
0.708106565090336
0.7028847113827124
0.9003658575568467
0.7093151401839871
0.6982951975007445
0.7003787345747767
0.6931059277635235
0.6956945089732145
0.6876407378615258
0.6843139743618842
0.6905605642860823
0.6953488109169191
0.6890156388472417
0.6853161190013548
0.7024985563078768
0.679185855526726
0.779539263851355
0.8721068455622707
0.6485818111863844
0.6635514642465408
0.6400455687291486
0.6701012798493021
0.5817931577029216
0.5630022758461503
0.5791463201290726
0.5591120973765739
0.5410599371339456
0.5384994954137985
0.5545388483887138
0.6031639076963299
0.6532649498837212
0.5749673546700617
0.7662645427083096
0.6962377619934212
0.790936245051177
0.5677902863299266
0.8136980185151035
0.7485365739902436
0.7550440085145431
0.592799528122749
0.6660299576320349
0.6779938289908828
0.6640617379821118
0.6547433309226256
0.6320482017885573
0.559025087957058
0.9412270635756141
0.8994320426707773
0.9495234946877916
0.5124705150792151
0.7659459507926668
0.7829329776878599
0.8091781636512805
0.8788422319209949
0.6452497565976074
0.6697281145300222
0.7443819140605159
0.5825530744644914
0.5890664889408309
0.5846638846230652
0.6171013743079627
0.6342689369407053
0.6591366227220845
0.6000277897092555
0.6117515784394807
0.7465929208868003
0.7697124779550907
0.6521941596810725
0.6849908095263971
0.6172320001977962
0.7521217661628523
0.7193046917970866
0.8036266142374702
0.6300306904631182
0.49012502278076187
0.7465305212129377
0.5730256451108449
0.8251015183740238
0.7157372119729632
0.6838472855351405
0.6899535003518547
0.6787079291269026
0.6677368719259266
0.6268061037183761
0.5806442264471684
0.6073907011225809
0.6401581058129563
0.6371578865010454
0.6817861058834858
0.9195071987840036
0.9059318182851517
0.9088068479878627
0.899679665552657
0.8901835920784992
0.8879997402045068
0.8985847280195831
0.8415695156167896
0.6571554705538332
0.6305508050117304
0.635259975768385
0.7444167201318179
0.8171786595639529
0.7116356769990818
0.7182822703051572
0.7224274629727432
0.7147768175252269
0.7139721975679341
0.7436494901988555
0.6789006023879681
0.6038292721651817
0.587546644923512
0.711178548088882
0.7016996437785746
0.6234859012426204
0.6560131086993705
0.6494985890354348
0.6393628862684161
0.6406603695495797
0.5166044843712448
0.3396362899245505
0.9534536186162004
0.9517373525576275
0.9423789086874267
0.9600630874158215
0.69725332393152
0.8742298193069725
0.4706146474886679
0.5168290155711937
0.6582287529092463
0.6510423511330977
0.6627799241381668
0.6327027165151446
0.6242354615487168
0.5630791519434439
0.6649069755940658
0.7690452108427737
0.9670301074509725
0.6380500496048085
0.6362213975730425
0.7297699368291022
0.8906288860671123
0.7793728950480144
0.7877023038087401
0.7622673420875342
0.6525662410676083
0.6444669719342624
0.6357657468333634
0.6382400241821073
0.6299531468649441
0.6368520338861284
0.6115824328155511
0.955612850568934
0.9147306934594193
0.9166908571108359
0.9286748299334706
0.9294778581570127
0.9390296799692609
0.9236089656977815
0.9298443905788949
0.5713809126380623
0.6191799567965324
0.8125733614784449
0.95489308637337
0.7245642011113134
0.9317882126179841
0.9410045509151233
0.8395385740293032
0.7359157292029485
0.7260528823684678
0.7182908780957277
0.6122601359823366
0.7221281721918644
0.8494436277206668
0.6858630904442709
0.6881624261531285
0.6959250553994445
0.680474767925072
0.6919394001529985
0.6910629085953989
0.6844133760281421
0.6762884700709336
0.7209153275626035
0.701240608231143
0.6972011085406591
0.8214438281089355
0.777074240081105
0.6795614132845695
0.6174519359614
0.596838901114019
0.6711258157336925
0.6373294225792844
0.641384765911647
0.6510307195042311
0.8705709972550723
0.883573391457045
0.8882474137520937
0.8810355179579951
0.8610666212202502
0.6290200782508721
0.8007011822374539
0.737576700375391
0.8912699631093652
0.7598952345185158
0.6712160982487461
0.7142290067079193
0.6074093463880629
0.7359045284036635
0.7478992419650324
0.7108877763797506
0.7665694469265127
0.809814926720436
0.813122206914468
0.8266171036239403
0.6961111096158094
0.7740043175559029
0.687887994953932
0.6578624810953679
0.6672941349347532
0.5743596250399844
0.6823860752968809
0.9366162852465895
0.6324811178722731
0.8296870761362579
0.82734077146349
0.839389775619979
0.8240309011397801
0.835271922680251
0.8548733982920251
0.7101768927924939
0.7310466084304954
0.7282518870400546
0.785075412732194
0.7070158771516508
0.9369072630349402
0.7671754983939898
0.8131665843895102
0.9120788486433832
0.7072856218201614
0.6930373885593133
0.780065849381736
0.6329218223713925
0.23276273033248412
0.9136744862035256
0.6766557580983893
0.7188353514387308
0.7334474548727256
0.691378988833179
0.705028173433876
0.6727012084844074
0.6966077058272114
0.7996408187653962
0.7072190010993901
0.7132009308127819
0.7708803927521442
0.7409072066283918
0.7304802284824575
0.7803774687650011
0.8437940571455974
0.6474194661289627
0.7731283600754149
0.7618618715087883
0.7477420568615559
0.7353760295695237
0.7430788549402477
0.6300595017414936
0.7100701507434793
0.5834092180579284
0.6438366541330538
0.6369937543475134
0.7679217925517451
0.7260234658381003
0.7546595746428875
0.7473525185994541
0.8201709911415379
0.8146125369787748
0.616640108411024
0.5529503745602716
0.684518035980707
0.7680181923745745
0.6250286370340322
0.743351668687351
0.8858306371809048
0.6983469158379674
0.6802425689638218
0.6899746819852539
0.6952738359083306
0.9327507593297171
0.6046105943505847
0.7057760559829648
0.7375214658838305
0.7473863737568358
0.8884510534001522
0.8742428944030008
0.8600183274219985
0.7167530390939286
0.9612292153304425
0.9748971971728592
0.8404527019211147
0.8767823894450147
0.9309002910704997
0.9398492580546015
0.7497123492293922
0.6934989931481965
0.972047336140459
0.7668262108021939
0.6753278786896622
0.7117974190972302
0.8672319510006126
0.8830255129867112
0.7031841646594524
0.7736748331037443
0.8407021826779563
0.6655413667435471
0.6146558561566935
0.7244524590179754
0.6598389770131826
0.5150491880624152
0.7057083833430119
0.800490712106694
0.4952767884608716
0.4913299029697087
0.7839320538799048
0.7323666053804679
0.7920867133288878
0.6857818871952361
0.9037566623916893
0.6006732214882161
0.5363927690312191
0.6115713422311363
0.7441391115702086
0.785542495325539
0.6815947361480805
0.3301709460882779
0.9231156576735752
0.8914502236346808
0.6876636421619678
0.8319898891933543
0.7262925852380655
0.8216450342019933
0.8408105404003803
0.8160377754672155
0.6494484268383237
0.6893129553027798
0.9538749661404302
0.7785782358422648
0.809893903273112
0.6670718063759343
0.9447642900028788
0.7551482771206276
0.69814710221882
0.6903804227136983
0.6196956655609691
0.7040037702991861
0.6204426904213823
0.7850007820447555
0.7118138307724311
0.6157444381490648
0.8904372265399334
0.6090447540508691
0.6022216379015118
0.9258347240327974
0.817732910914443
0.8992728258375658
0.8933889121157131
0.7120370419077734
0.3991366412035541
0.7157880752997176
0.8169454500147902
0.8207227910870054
0.570377274548105
0.711602609728059
0.7700228511459694
0.474055272752877
0.8501432192240651
0.6840766586317663
0.5981712427100309
0.6889192708997942
0.5324128756203874
0.5596398421643977
0.6664210254553335
0.7664888705831405
0.6297898459260178
0.8086926735788286
0.7010096312238743
0.8303543813681799
0.802779842933627
0.6868946876264014
0.8772657785532836
0.827635194617146
0.657460473840878
0.6099234343312098
0.5858857323223726
0.6630640237772191
0.6047848533862825
0.829712106656104
0.8963807785618026
0.38493012293405104
0.4284077510716929
0.4562719229225561
0.602910066078027
0.4864099281946116
0.6856129662766784
0.7502242569048051
0.7432542245190041
0.5837980300679748
0.6037398893459487
0.6267275384658297
0.6506931737924445
0.693175921921886
0.776740968210189
0.7055928076783918
0.7207120526429658
0.704102483223617
0.5668980192810947
0.5257099863385711
0.681948738551676
0.7008693962178432
0.9638064809191181
0.5447500212317596
0.8760574682702869
0.6148251161767385
0.8388859928696762
0.7022736642119796
0.8688440266673854
0.7021754939618563
0.6587057767906285
0.6162446256803168
0.7443962934352577
0.7797175281257318
0.7607560345814566
0.893344886755437
0.6359649959759952
0.579353256602537
0.7864692030752286
0.8706327627908982
0.6277474779537356
0.7657891060327499
0.6686087650868638
0.8354506786509344
0.724916157165723
0.7369232787558608
0.5717329252863501
0.7234359744334232
0.17675569289332219
0.653580655032352
0.7135467728743217
0.6510073042623515
0.6361968221499681
0.8120240329649014
0.8593984885812086
0.6354745229913523
0.5731806249018643
0.8721129851963706
0.5992299531033287
0.7473583984737174
0.648587606198059
0.7095998800542868
0.5904345318170613
0.6371077641365662
0.7220290343954208
0.6797697514075984
0.6672151199480001
0.5535364970722272
0.5776700202184819
0.783621209967192
0.8454397524243302
0.6485266870557055
0.6392510661696096
0.560028445620423
0.8514108790926904
0.6938996495676611
0.6255850533533073
0.6981141729932308
0.6393240306333722
0.7331070917998237
0.7842533196353167
0.768733336729108
0.7360516424020198
0.7636662153469939
0.7097330320764501
0.7676519996683213
0.6822033235964725
0.5196808712630139
0.6149352278108167
0.6478319577421406
0.7012493879665925
0.5936081771730433
0.8636141156644666
0.6744658579481477
0.6961644732102562
0.8081197470607815
0.7628601689573308
0.5870155654273791
0.687697532394041
0.6776350146117266
0.7579901577044046
0.6172147145402517
0.6481250719008368
0.38342021756224953
0.751796364455366
0.829834962768535
0.6179934681194978
0.757552863709218
0.6504439096781065
0.8035229976652729
0.6098578708668745
0.6714411956918974
0.6238842566644497
0.8084868112783727
0.7753539928265225
0.7767219990886709
0.6551471943822219
0.7334467005341978
0.6465636855943453
0.7278095814627138
0.5483387783315219
0.7977599468055562
0.8875762934043376
0.6525850684430297
0.7045767065979532
0.7545129728995706
0.6443998898746048
0.5954663688518357
0.9296960636354564
0.6041835730965253
0.7606624855850245
0.5925385429271068
0.7306175054086681
0.6737056500074313
0.5723164259806169
0.7999161059606458
0.4138698171699575
0.6010485946309605
0.8140550552269074
0.7700491231286877
0.7277163688559258
0.6744470792809338
0.6534783146634142
0.7389689360636121
0.5399326976683493
0.7040152399203052
0.7212708156473077
0.7573665219481523
0.7385306824290568
0.624753125159282
0.5022865423750935
0.8396761028050743
0.8592311665983696
0.5652145322615121
0.7010285970077494
0.7061591609989507
0.4616273536878249
0.6044884739118611
0.4441143889621376
0.48410718142984693
0.6807066668111689
0.7131830305602684
0.6774051279069081
0.9189186643607595
0.5970847578671761
0.9731379592477734
0.6252913406256716
0.7329225723947294
0.7361761512280692
0.5833703229392284
0.5266207944308137
0.5439370637972095
0.6673192001651675
0.8162514137102348
0.763165506103532
0.7138793335016225
0.7044781859568989
0.7127971917217988
0.71217638121181
0.8106732218027546
0.4606224406321045
0.5865952063133398
0.6990623494247153
0.5561886622566571
0.6656336386017873
0.7736094007901145
0.7815102000744958
0.6286849027866406
0.7445334210976136
0.7319792210950549
0.6715783419618442
0.6771295286529321
0.6810617071171841
0.6587956972304151
0.8768415896066661
0.7193789007758761
0.5638607651624322
0.6416461096649211
0.6244654339165433
0.6125991412429629
0.7147239266277311
0.7378036731811601
0.6190757209685825
0.7368532304450625
0.6794723751480424
0.8885223311186348
0.8339291306910008
0.5330152455381388
0.7110990479336846
0.6746708214318035
0.5970019924108062
0.8391683583937545
0.662573177022517
0.7011103859878013
0.7878758150555677
0.4564866432923697
0.7879963468972541
0.8458551587381452
0.6494177969666524
0.9094187793270121
0.6100307092324407
0.83897743986031
0.7249924944459355
0.7690083258897022
0.6391927443278957
0.35869229632459054
0.5455205703707139
0.7963457328178
0.6435676437435136
0.5595986392920852
0.6756607429541249
0.6813206572139549
0.6136395856674812
0.9060037424977461
0.8355938353282936
0.6577662293063217
0.8639899262926842
0.6563218020674402
0.646522867869287
0.7438621002641047
0.8885509923284657
0.7171816966565073
0.711692487210914
0.6801945412894327
0.6399777550262264
0.9505645581717921
0.6815673622341947
0.6918511989102155
0.6240402717207612
0.6547318305751092
0.6614251019365829
0.7308809128356654
0.7175769434831573
0.5265976387170397
0.7552261895922472
0.8278829473594076
0.8543222271341517
0.7297303229552625
0.9346670516567877
0.7997436386730442
0.670158724282137
0.6368956532781737
0.6048709359183605
0.6230316670327091
0.42389446585116686
0.677203503546259
0.6608300556517172
0.5588254819754872
0.4185841461793451
0.6057864751923058
0.5930752059461013
0.6844950829459981
0.6091009906893348
0.7742311504010695
0.8864495097543691
0.624450498656577
0.5094606142844476
0.6156812586838794
0.4237156751906511
0.6986344628196762
0.5273237341655412
0.6695188174102009
0.7741662840037906
0.5639237370212118
0.7304429006088605
0.8244582563724053
0.7501734281003795
0.7502396475906588
0.8919612145414112
0.8285743710533792
0.8353277204332779
0.7184175030481341
0.6863483245418007
0.706001598753796
0.7226660861233936
0.6449953347485864
0.8343860720853076
0.6143169026591067
0.5779475750328866
0.687514296046159
0.6242876098405257
0.7672265263702571
0.9893916109387433
0.9919277970135456
0.7469477400827587
0.5246051619544845
0.7377941159230058
0.9247201133991424
0.9637889051238625
0.6596986754132815
0.6592895774604873
0.6160401346758075
0.6438658943520864
0.6833329580524735
0.6861070374154968
0.5986350165810161
0.5889681575014426
0.5665312139543688
0.7524846637097807
0.7557683966165556
0.6224383929186731
0.6256941143791948
0.5880535353985256
0.8767355770840012
0.6009552776539544
0.7457480032874552
0.7187789796533247
0.6870503811722047
0.6900092871213701
0.6033647200799263
0.653199431232874
0.4754303118769899
0.650002267363317
0.7221328303129637
0.9102650398691866
0.6947157105083721
0.7196807255308664
0.5947281910315797
0.7132682788635222
0.5607779766395294
0.7072893486860207
0.6643903631676018
0.8294478215351155
0.6518508551117984
0.609344914919255
0.7599269196724765
0.6386746761336467
0.6526408403652089
0.6008117297677509
0.5041523826563807
0.8582548191975737
0.610868620304636
0.7053116965648024
0.6866834163874609
0.8867489184955958
0.7446543370746337
0.5907321989739254
0.685790959465332
0.9468319692304782
0.7555709196255609
0.803091364639155
0.6237640851959527
0.8714939267977477
0.6551705134617685
0.6409157652746925
0.5434354504101161
0.8169495369104545
0.7263721952291134
0.7099253909915374
0.913289605545541
0.7317479088235934
0.7067565989289804
0.9418049525018236
0.8482852954496478
0.5870558193469393
0.7114764945901941
0.8444622270301401
0.8334939591461178
0.926319077973202
0.5417653689842848
0.760949165083657
0.5467558665233826
0.6430892592726862
0.7284103422260712
0.6991393263834376
0.5216828687185769
0.6964229367658812
0.7296332449227092
0.6874004064552032
0.6195734052157815
0.8513987205462344
0.702561346870809
0.6068984939764522
0.6980610432035279
0.7273096578675814
0.8111133179284661
0.6608698346946347
0.65767706276832
0.5692804016564432
0.84332754556533
0.6953560755118267
0.626586795711972
0.6608953133388977
0.7624929291770567
0.7336197065634258
0.6079233809168335
0.6727892596549966
0.7442882575044509
0.6895943858038246
0.6695083381011192
0.6906686036410947
0.6410691800834744
0.6105924077724659
0.8446218583650804
0.9616849408894278
0.718185496404375
0.7499832588979571
0.7492647891992424
0.6984238858778542
0.9608060031641588
0.7902230544997664
0.7087606790933879
0.679966477970593
0.6972258603948913
0.6774827766573271
0.6952711877151644
0.6506656882881122
0.6744495946865494
0.6907103211912385
0.649770292636394
0.7095018807720552
0.8751033549096537
0.6802198740367673
0.6290127888579103
0.6855756277417504
0.8328512203470672
0.6543758565739652
0.6860533721546135
0.7116415539662816
0.4243522911604736
0.6741784083395682
0.6780511797698913
0.44258274040354045
0.3379395792157206
0.3133443395131877
0.572273266892028
0.591750607562684
0.7611942743126489
0.7036632708866587
0.8413627766708572
0.6827650355329148
0.5783235399089797
0.650473821668789
0.9566095644246593
0.7150578495474682
0.6644360376272881
0.7687297143967535
0.6604788169647204
0.5611791473393418
0.806732693733751
0.5851276012309605
0.6960256221248093
0.6563365649543467
0.663641633965704
0.8651150198896589
0.6226471650840698
0.7057096867350015
0.6011437056417699
0.6947102572094569
0.7499160986204938
0.8328999485336774
0.9207154938074394
0.8794330510795582
0.6249292124241106
0.6771901121025522
0.509696193375089
0.8013734505055766
0.6901911721252801
0.535619803760036
0.6677571772451989
0.6115257366693193
0.7954328365939454
0.6842350470547138
0.5862557950567109
0.5612434066765696
0.5623842299198922
0.8211582096745357
0.6833845552496101
0.5161343035823954
0.7081571626625109
0.9825499249290829
0.7553067418088731
0.5994332102758925
0.5883828723270008
0.635805693275573
0.9396998826239449
0.659764752712614
0.6552346884874207
0.8316806381650984
0.7593739955490024
0.7508456101018252
0.6343838843576178
0.7243055638491732
0.9673356278308516
0.6787221573274503
0.8000973170704208
0.47573514178082715
0.9174846845491013
0.5240873434608688
0.608963461354063
0.5734810487863907
0.6616352667412719
0.7494823159881224
0.4080341175710984
0.6179209147399409
0.9688316102126702
0.8261774624189151
0.6448267173335416
0.8006550786123456
0.6746048633374407
0.8475871364340954
0.6170173774371159
0.25611990766636156
0.6746847864576694
0.6656297002711944
0.95614442113836
0.8327321536600714
0.6880317811486505
0.806290636864917
0.9682274204002899
0.6137214186786617
0.7731274841036465
0.6443268945205238
0.5334970432215675
0.9585932712338742
0.6770246792006188
0.9048117796907088
CELL_DATA 4886
TENSORS stress float
-1.2153429360825922e7 4.2636818129280405e6 0.0
4.2636818129280405e6 2.4649134848645266e7 0.0
0.0 0.0 0.0

-1.885772587605451e7 7.337094863162536e6 0.0
7.337094863162536e6 9.9989931353517e6 0.0
0.0 0.0 0.0

-6.483082260567203e6 1.955868435591053e7 0.0
1.955868435591053e7 -1.6567578924380902e6 0.0
0.0 0.0 0.0

-4.8267372783032935e6 1.7979404669798438e7 0.0
1.7979404669798438e7 1.0288109823090546e7 0.0
0.0 0.0 0.0

-3.425556330352188e6 2.0126806912402797e7 0.0
2.0126806912402797e7 -139024.1689836498 0.0
0.0 0.0 0.0

1.9937502371903518e6 3.5759808870938234e6 0.0
3.5759808870938234e6 -4.978211043159153e6 0.0
0.0 0.0 0.0

3.457630937083122e7 1.8520549223690465e7 0.0
1.8520549223690465e7 8.039851058360977e6 0.0
0.0 0.0 0.0

4.962080257368119e6 3.6822511197516564e6 0.0
3.6822511197516564e6 -3.054070245223437e7 0.0
0.0 0.0 0.0

-1.2035080150244098e7 6.031358584930004e6 0.0
6.031358584930004e6 2.5952303367894202e7 0.0
0.0 0.0 0.0

-957794.0790178617 1.64237294401164e7 0.0
1.64237294401164e7 1.2559133081683926e7 0.0
0.0 0.0 0.0

-1.5963026994709475e6 1.6658000322292596e7 0.0
1.6658000322292596e7 -5.683004277489251e6 0.0
0.0 0.0 0.0

-2.5090825910473526e6 2.361110797893566e7 0.0
2.361110797893566e7 597731.8869126327 0.0
0.0 0.0 0.0

3.3157286004029494e6 8.346083167704715e6 0.0
8.346083167704715e6 -2.8368454328125738e7 0.0
0.0 0.0 0.0

5.203243098809707e7 2.1120762852241386e7 0.0
2.1120762852241386e7 8.578572702646717e6 0.0
0.0 0.0 0.0

-1.5708872991295485e6 1.7102578402436666e7 0.0
1.7102578402436666e7 -5.720755080489673e6 0.0
0.0 0.0 0.0

3.789524885691762e6 4.4086463326424705e6 0.0
4.4086463326424705e6 -1.2724622744192177e7 0.0
0.0 0.0 0.0

-1.2854584533051676e6 1.4006783987248035e7 0.0
1.4006783987248035e7 -1.5649961691356672e7 0.0
0.0 0.0 0.0

1.4578719874496376e6 1.1770904777328536e7 0.0
1.1770904777328536e7 -2.0551488804961484e7 0.0
0.0 0.0 0.0

-8.295404390867649e6 -4.94847323831053e6 0.0
-4.94847323831053e6 1.7887024486662194e7 0.0
0.0 0.0 0.0

-2.0290767832343597e6 1.8916011216883156e7 0.0
1.8916011216883156e7 -4.88175264595185e6 0.0
0.0 0.0 0.0

2.8233634259638144e6 9.839966372734707e6 0.0
9.839966372734707e6 -1.5012167668187384e7 0.0
0.0 0.0 0.0

-1.797577387736353e6 2.344258954183681e7 0.0
2.344258954183681e7 523623.18479816325 0.0
0.0 0.0 0.0

-7.702247979650626e6 5.38278701229103e6 0.0
5.38278701229103e6 1.188407544815994e7 0.0
0.0 0.0 0.0

-9.185968535395663e6 1.8957305054836895e7 0.0
1.8957305054836895e7 628300.5980834579 0.0
0.0 0.0 0.0

1.6804349034110848e6 1.0661912892313777e7 0.0
1.0661912892313777e7 -2.5984840122040763e7 0.0
0.0 0.0 0.0

1.0563418804603748e7 2.987873365640153e7 0.0
2.987873365640153e7 -1.081166520465004e7 0.0
0.0 0.0 0.0

2.306037711144732e7 1.6716865701674761e7 0.0
1.6716865701674761e7 4.541963719806886e6 0.0
0.0 0.0 0.0

-1.2329308569364082e7 1.2748669775848357e7 0.0
1.2748669775848357e7 1.86488682173884e7 0.0
0.0 0.0 0.0

4.000850373553546e6 4.498519266344681e6 0.0
4.498519266344681e6 -1.2854233575226456e7 0.0
0.0 0.0 0.0

-4.712112441747066e6 -782619.2826065518 0.0
-782619.2826065518 7.122673216894675e6 0.0
0.0 0.0 0.0

-9.093120177755883e6 6.655900844701361e6 0.0
6.655900844701361e6 1.0229145362159163e7 0.0
0.0 0.0 0.0

1.5679763182914695e6 7.792234847063325e6 0.0
7.792234847063325e6 -7.233372778945147e6 0.0
0.0 0.0 0.0

-501711.92391820066 1.6248918441438302e7 0.0
1.6248918441438302e7 6.573120518001513e6 0.0
0.0 0.0 0.0

66209.4274861853 1.523139506351422e7 0.0
1.523139506351422e7 -300805.622759629 0.0
0.0 0.0 0.0

-4.715184134378081e6 1.8596758029959712e7 0.0
1.8596758029959712e7 4.253349100126738e6 0.0
0.0 0.0 0.0

-8.011120856319133e6 4.832286323044888e6 0.0
4.832286323044888e6 8.729231530727759e6 0.0
0.0 0.0 0.0

313705.8356225523 1.0592733351610847e7 0.0
1.0592733351610847e7 -6.158606536255133e6 0.0
0.0 0.0 0.0

-4.260132050332487e6 1.8423054393983223e7 0.0
1.8423054393983223e7 4.521179377767276e6 0.0
0.0 0.0 0.0

-1.397163094176419e6 1.3062128638722679e7 0.0
1.3062128638722679e7 -2.586887491847398e7 0.0
0.0 0.0 0.0

-3.7206541264731027e6 2.1625555494570624e7 0.0
2.1625555494570624e7 2.284614386351818e6 0.0
0.0 0.0 0.0

2.6344512787768245e6 8.51623168568991e6 0.0
8.51623168568991e6 -3.0934160229684863e7 0.0
0.0 0.0 0.0

-8.614716936756898e6 2.092094420968926e7 0.0
2.092094420968926e7 -3.1582824528404092e6 0.0
0.0 0.0 0.0

-3.803476313553266e6 2.1145595444293287e7 0.0
2.1145595444293287e7 2.08649621560651e6 0.0
0.0 0.0 0.0

-1.0979670460413102e7 1.4907222770187347e6 0.0
1.4907222770187347e6 1.7735015065843385e7 0.0
0.0 0.0 0.0

2.453572182573775e6 9.785608155712757e6 0.0
9.785608155712757e6 -1.6374693584240343e7 0.0
0.0 0.0 0.0

-1.1040176415012114e7 1.4091617141555002e7 0.0
1.4091617141555002e7 1.811690389240513e7 0.0
0.0 0.0 0.0

-324256.68006177293 1.6470208853546701e7 0.0
1.6470208853546701e7 -9.28531518698666e6 0.0
0.0 0.0 0.0

-177121.2057947428 1.0246269178343756e7 0.0
1.0246269178343756e7 -6.745115635754152e6 0.0
0.0 0.0 0.0

5.024215964793794e6 3.8110355488112224e6 0.0
3.8110355488112224e6 -2.5682820139852397e7 0.0
0.0 0.0 0.0

2.394650193975255e6 1.4158307952862956e7 0.0
1.4158307952862956e7 7.982167601596586e6 0.0
0.0 0.0 0.0

-2.8283135523897186e6 2.092726767344195e7 0.0
2.092726767344195e7 583580.7283056398 0.0
0.0 0.0 0.0

-1.3617364253899366e7 4.66288667982376e6 0.0
4.66288667982376e6 8.723870318433322e6 0.0
0.0 0.0 0.0

5.08762991395539e6 3.8093654607448503e6 0.0
3.8093654607448503e6 -2.646787679263711e7 0.0
0.0 0.0 0.0

-3.2946116813973566e6 1.9674196690190684e7 0.0
1.9674196690190684e7 1.313533575904753e6 0.0
0.0 0.0 0.0

2.1471473679895476e6 1.4661811487963045e7 0.0
1.4661811487963045e7 9.938634830102513e6 0.0
0.0 0.0 0.0

-6.486412986362236e6 1.9700097180562105e7 0.0
1.9700097180562105e7 5.395056904497597e6 0.0
0.0 0.0 0.0

4.670146200743612e6 4.123201660004157e6 0.0
4.123201660004157e6 -3.3158013985860724e7 0.0
0.0 0.0 0.0

-3.3433444001948778e6 2.176424028142894e7 0.0
2.176424028142894e7 2.356019898481953e6 0.0
0.0 0.0 0.0

357632.9287720667 1.5945277897375364e7 0.0
1.5945277897375364e7 2.216688371680065e7 0.0
0.0 0.0 0.0

3.300759475794954e6 9.01724825890267e6 0.0
9.01724825890267e6 -1.790019713890042e7 0.0
0.0 0.0 0.0

-724723.3349506985 1.2809061914379716e7 0.0
1.2809061914379716e7 -8.504082842420967e6 0.0
0.0 0.0 0.0

1.5891327226345468e7 1.7275043748650823e7 0.0
1.7275043748650823e7 -5.411148535854806e6 0.0
0.0 0.0 0.0

-2.6001897072417727e6 1.5962183839487009e7 0.0
1.5962183839487009e7 -8.740793914660774e6 0.0
0.0 0.0 0.0

-6.06600310999527e6 812879.8443123992 0.0
812879.8443123992 7.28680570764179e6 0.0
0.0 0.0 0.0

762062.2625043138 5.865991425582453e6 0.0
5.865991425582453e6 -3.100827294255846e6 0.0
0.0 0.0 0.0

4.673560851796197e6 4.733334040263553e6 0.0
4.733334040263553e6 -2.519566450548599e7 0.0
0.0 0.0 0.0

3.8708380101797543e6 7.403154362001906e6 0.0
7.403154362001906e6 -2.8216394734233573e7 0.0
0.0 0.0 0.0

-3.8622972976724673e6 1.933619216776768e7 0.0
1.933619216776768e7 733212.0010193274 0.0
0.0 0.0 0.0

-1.6686905250322996e6 1.6069899493248412e7 0.0
1.6069899493248412e7 1.8267265915350474e7 0.0
0.0 0.0 0.0

1.2680926243258085e7 1.470298059112201e7 0.0
1.470298059112201e7 3.3352340206313175e6 0.0
0.0 0.0 0.0

-1.1903185784184808e7 2.7074425045074252e6 0.0
2.7074425045074252e6 1.59885583658979e7 0.0
0.0 0.0 0.0

2.237047891371741e6 1.0609802937626341e7 0.0
1.0609802937626341e7 -2.4126539761584945e7 0.0
0.0 0.0 0.0

-1.4282708837726656e6 1.3543720776999224e7 0.0
1.3543720776999224e7 -2.4266006275846913e7 0.0
0.0 0.0 0.0

704668.8730075229 1.538417258701729e7 0.0
1.538417258701729e7 3.276161078350587e7 0.0
0.0 0.0 0.0

-5.016685319237681e6 1.8146851978089307e7 0.0
1.8146851978089307e7 9.855159582065355e6 0.0
0.0 0.0 0.0

-1.1136534958408443e7 1.4010168253934752e7 0.0
1.4010168253934752e7 1.7664918930269513e7 0.0
0.0 0.0 0.0

-6.000189593255083e6 1.056236655954452e7 0.0
1.056236655954452e7 9.253113186033633e6 0.0
0.0 0.0 0.0

-756862.883416526 1.375018212178635e7 0.0
1.375018212178635e7 -1.5347684120617578e7 0.0
0.0 0.0 0.0

-102400.33060300723 1.4373212092059735e7 0.0
1.4373212092059735e7 -9.181186895287206e6 0.0
0.0 0.0 0.0

1.352569243429346e6 1.183778395417173e7 0.0
1.183778395417173e7 -1.3418598938680315e7 0.0
0.0 0.0 0.0

1.1328726467629017e7 1.9760932745002907e7 0.0
1.9760932745002907e7 -6.208778444680101e6 0.0
0.0 0.0 0.0

-9.858811277916312e6 -5.115836344072503e6 0.0
-5.115836344072503e6 2.2092311834795937e7 0.0
0.0 0.0 0.0

1.0096689275111092e6 1.4429353045600347e7 0.0
1.4429353045600347e7 -2.7041568044033344e6 0.0
0.0 0.0 0.0

-1.9533802192559878e6 2.4324730732342202e7 0.0
2.4324730732342202e7 -95210.90117202 0.0
0.0 0.0 0.0

-5.12195562928946e6 1.8020204534657374e7 0.0
1.8020204534657374e7 1.0319295836963344e7 0.0
0.0 0.0 0.0

4.638055083322218e6 4.329839697932279e6 0.0
4.329839697932279e6 -1.6902732050717603e7 0.0
0.0 0.0 0.0

1.3048166040018438e6 7.111033054369288e6 0.0
7.111033054369288e6 -8.067127639393174e6 0.0
0.0 0.0 0.0

-419929.13469364005 1.5253386711090453e7 0.0
1.5253386711090453e7 5.934047388434534e6 0.0
0.0 0.0 0.0

6.550216328502857e6 3.1353209014322598e7 0.0
3.1353209014322598e7 -1.3121762935330125e7 0.0
0.0 0.0 0.0

-1.1645022891912203e7 5.703213942348677e6 0.0
5.703213942348677e6 3.132927593578647e7 0.0
0.0 0.0 0.0

802079.3179101679 1.5902816956975406e7 0.0
1.5902816956975406e7 -6.6440034305220945e6 0.0
0.0 0.0 0.0

-478851.7110622097 1.4641601471831225e7 0.0
1.4641601471831225e7 -1.0924423257351618e7 0.0
0.0 0.0 0.0

-86255.17469287245 9.353853134611106e6 0.0
9.353853134611106e6 -6.134496870948648e6 0.0
0.0 0.0 0.0

204469.04310248722 5.126489073239501e6 0.0
5.126489073239501e6 -4.1452377756061894e6 0.0
0.0 0.0 0.0

1.8709855793446822e6 1.6807668651411608e7 0.0
1.6807668651411608e7 -4.744397825603337e6 0.0
0.0 0.0 0.0

-1.283342203847385e6 1.383595358844262e7 0.0
1.383595358844262e7 -2.0252815957206126e7 0.0
0.0 0.0 0.0

4.874044441666542e6 3.6691966966721187e6 0.0
3.6691966966721187e6 -3.0279374970910102e7 0.0
0.0 0.0 0.0

-5.354682048650451e6 1.844465771818781e7 0.0
1.844465771818781e7 8.984059107336717e6 0.0
0.0 0.0 0.0

3.4854401326639e6 8.080401170381122e6 0.0
8.080401170381122e6 -2.3077868340439446e7 0.0
0.0 0.0 0.0

4.702720179345353e6 4.1423760580606572e6 0.0
4.1423760580606572e6 -3.383430172176666e7 0.0
0.0 0.0 0.0

-4.0611112376903715e6 1.6885332419867877e7 0.0
1.6885332419867877e7 1.019427562698415e7 0.0
0.0 0.0 0.0

-4.318578255476029e6 1.5196102050626302e7 0.0
1.5196102050626302e7 -8.423912137146177e6 0.0
0.0 0.0 0.0

-9.569894450978976e6 4.866164916732785e6 0.0
4.866164916732785e6 1.3861685880860072e7 0.0
0.0 0.0 0.0

-3.2246666796539123e6 2.064559199762249e7 0.0
2.064559199762249e7 1.6252713712865773e6 0.0
0.0 0.0 0.0

181875.0720139218 9.48538453595641e6 0.0
9.48538453595641e6 -4.666004587024529e6 0.0
0.0 0.0 0.0

-5.651108969748159e6 1.099698916324253e7 0.0
1.099698916324253e7 7.268197004061023e6 0.0
0.0 0.0 0.0

-9.459362037189234e6 -4.760727585366442e6 0.0
-4.760727585366442e6 2.2790938228044413e7 0.0
0.0 0.0 0.0

1.645558099824178e6 1.1969795060167903e7 0.0
1.1969795060167903e7 -1.2571140536229568e7 0.0
0.0 0.0 0.0

-2.1499944033838273e6 2.317532843706081e7 0.0
2.317532843706081e7 405061.9459457273 0.0
0.0 0.0 0.0

-5.801282090134332e6 5.545783956179716e6 0.0
5.545783956179716e6 9.105618154875576e6 0.0
0.0 0.0 0.0

3.1103187761591915e6 7.619871818289043e6 0.0
7.619871818289043e6 -3.0638532136647668e7 0.0
0.0 0.0 0.0

-1.5549158995380015e6 9.925784392497774e6 0.0
9.925784392497774e6 -3.6348203035822283e6 0.0
0.0 0.0 0.0

3.1671651881700405e6 1.770923537566547e7 0.0
1.770923537566547e7 8.243646317193511e6 0.0
0.0 0.0 0.0

2.4317361340314735e7 1.7702512315833833e7 0.0
1.7702512315833833e7 4.225238417783363e6 0.0
0.0 0.0 0.0

4.0855390795722073e6 6.072772657060389e6 0.0
6.072772657060389e6 -1.5624147731152905e7 0.0
0.0 0.0 0.0

-2.456849078690174e6 1.3986105843908943e7 0.0
1.3986105843908943e7 -2.443499705572368e7 0.0
0.0 0.0 0.0

3.9942313333701855e6 6.085616517268218e6 0.0
6.085616517268218e6 -1.6349479754593492e7 0.0
0.0 0.0 0.0

4.830397827101014e6 4.323970669408887e6 0.0
4.323970669408887e6 -1.747978530851998e7 0.0
0.0 0.0 0.0

2.130305129540126e7 1.2178443827456933e7 0.0
1.2178443827456933e7 -70324.54441505112 0.0
0.0 0.0 0.0

-9.50861578786154e6 2.7492282277553447e7 0.0
2.7492282277553447e7 4.484197625294378e6 0.0
0.0 0.0 0.0

-816330.7327934438 1.302535263054625e7 0.0
1.302535263054625e7 -2.2494571527661e7 0.0
0.0 0.0 0.0

-6.5046302004377935e6 1.8408028801838674e7 0.0
1.8408028801838674e7 -1.8171959203675592e6 0.0
0.0 0.0 0.0

5.214984547870237e6 4.146706719134146e6 0.0
4.146706719134146e6 -2.1862184384985067e7 0.0
0.0 0.0 0.0

-7.158006126143176e6 1.9598987238454558e7 0.0
1.9598987238454558e7 5.9771939740851885e6 0.0
0.0 0.0 0.0

2.4591536782096345e6 2.3352563946410526e7 0.0
2.3352563946410526e7 -4.024908562220542e6 0.0
0.0 0.0 0.0

-1.2678654297987085e7 7.134145212904988e6 0.0
7.134145212904988e6 2.3517069146859813e7 0.0
0.0 0.0 0.0

2.941025254507296e6 3.071938928264521e7 0.0
3.071938928264521e7 -8.027308333664634e6 0.0
0.0 0.0 0.0

-430904.6841255576 1.5835150319913335e7 0.0
1.5835150319913335e7 -933456.6215693161 0.0
0.0 0.0 0.0

5.016026448893871e6 3.69796271167876e6 0.0
3.69796271167876e6 -2.7133344249620896e7 0.0
0.0 0.0 0.0

1.6879010448772855e7 1.4284779200658614e7 0.0
1.4284779200658614e7 -178168.0611382285 0.0
0.0 0.0 0.0

-4.085931529914365e6 1.6614058316604681e7 0.0
1.6614058316604681e7 1.025757527849627e7 0.0
0.0 0.0 0.0

4.10309755817079e6 6.097148894136483e6 0.0
6.097148894136483e6 -2.5025497887930684e7 0.0
0.0 0.0 0.0

-1.4361518827358333e6 1.9266620160429973e7 0.0
1.9266620160429973e7 -4.301257135364977e6 0.0
0.0 0.0 0.0

459340.99612296047 1.5514041798755087e7 0.0
1.5514041798755087e7 -7.158908144502784e6 0.0
0.0 0.0 0.0

-2.1991079572530887e6 1.502560316528e7 0.0
1.502560316528e7 -9.00394505693574e6 0.0
0.0 0.0 0.0

-2222.868712807074 1.486943996505817e7 0.0
1.486943996505817e7 -8.369724628412404e6 0.0
0.0 0.0 0.0

4.796558879682812e6 1.791669563858793e7 0.0
1.791669563858793e7 8.360512516616148e6 0.0
0.0 0.0 0.0

3.1014735451286696e6 6.5064822362824045e6 0.0
6.5064822362824045e6 -4.1587741395438425e7 0.0
0.0 0.0 0.0

-5.230320794206389e6 1.892391164510511e7 0.0
1.892391164510511e7 8.795045965563318e6 0.0
0.0 0.0 0.0

1.5786595797983026e6 4.672309573862841e6 0.0
4.672309573862841e6 -4.654557579503544e6 0.0
0.0 0.0 0.0

-1.2526930764447521e7 1.1290726780660031e7 0.0
1.1290726780660031e7 1.9426121709488496e7 0.0
0.0 0.0 0.0

4.754361362045984e6 4.643925917660807e6 0.0
4.643925917660807e6 -1.5547485028033046e7 0.0
0.0 0.0 0.0

-9.62869487548832e6 -4.753998526670504e6 0.0
-4.753998526670504e6 2.804337016411934e7 0.0
0.0 0.0 0.0

1.6847251298424685e6 1.2550486445466867e7 0.0
1.2550486445466867e7 -1.512366258011592e7 0.0
0.0 0.0 0.0

1.5247961264816276e6 3.3505564283028604e6 0.0
3.3505564283028604e6 -4.866661514820453e6 0.0
0.0 0.0 0.0

1.7040399609749697e6 1.4953051407365084e7 0.0
1.4953051407365084e7 9.6121690155757e6 0.0
0.0 0.0 0.0

-3.681659753268943e6 2.145967956195143e7 0.0
2.145967956195143e7 3.737721669959791e6 0.0
0.0 0.0 0.0

-1.0413474214929614e7 -3.532081275677428e6 0.0
-3.532081275677428e6 2.6394988468607925e7 0.0
0.0 0.0 0.0

-2.0984284696873454e6 1.6194943030756805e7 0.0
1.6194943030756805e7 5.430456569746908e6 0.0
0.0 0.0 0.0

2.136709880563444e6 1.7702750379184518e7 0.0
1.7702750379184518e7 -5.402009981488861e6 0.0
0.0 0.0 0.0

-3.8760274686982553e6 1.8751476180170026e7 0.0
1.8751476180170026e7 454043.1276885937 0.0
0.0 0.0 0.0

-2.08824096629221e6 1.7525116857770793e7 0.0
1.7525116857770793e7 -5.969465784852788e6 0.0
0.0 0.0 0.0

-3.4728714445081824e6 1.8929017985234357e7 0.0
1.8929017985234357e7 1.6695577131893586e6 0.0
0.0 0.0 0.0

-3.326517911694636e6 1.3386786249173203e7 0.0
1.3386786249173203e7 -1.415922449978827e7 0.0
0.0 0.0 0.0

9.697653763234625e6 1.9066013412192706e7 0.0
1.9066013412192706e7 -7.315487643453353e6 0.0
0.0 0.0 0.0

-505383.71864848677 1.406449191274586e7 0.0
1.406449191274586e7 -1.1614782773134768e7 0.0
0.0 0.0 0.0

-6.807063321451194e6 1.6354901965430703e7 0.0
1.6354901965430703e7 1.6529924979558336e7 0.0
0.0 0.0 0.0

12854.473100690637 1.7028073924534358e7 0.0
1.7028073924534358e7 1.1030332527572637e7 0.0
0.0 0.0 0.0

2.9881887950093634e6 9.161335060316617e6 0.0
9.161335060316617e6 -1.7338763853218034e7 0.0
0.0 0.0 0.0

-6.110063453541044e6 1.0109238026717992e7 0.0
1.0109238026717992e7 6.331312359440308e6 0.0
0.0 0.0 0.0

-3.7262454640529603e6 2.4032172249479655e7 0.0
2.4032172249479655e7 2.4844749461454907e6 0.0
0.0 0.0 0.0

-7.412419371353956e6 1.579295099862685e7 0.0
1.579295099862685e7 1.2197655895516273e7 0.0
0.0 0.0 0.0

-732106.7200414491 2.495544112619518e7 0.0
2.495544112619518e7 -98981.44859811483 0.0
0.0 0.0 0.0

1.3367087621835675e6 1.234414126297054e7 0.0
1.234414126297054e7 -1.6080182582402714e7 0.0
0.0 0.0 0.0

-1.284816857519714e7 2.0978302060992025e7 0.0
2.0978302060992025e7 -4.221506818127521e6 0.0
0.0 0.0 0.0

4.925460682963468e6 4.787020681436151e6 0.0
4.787020681436151e6 -2.995719056294533e7 0.0
0.0 0.0 0.0

4.212484267346537e6 2.4848847233278148e7 0.0
2.4848847233278148e7 -4.279466986664475e6 0.0
0.0 0.0 0.0

-1.521062230421359e7 2.451072480118557e7 0.0
2.451072480118557e7 8.45878453811558e6 0.0
0.0 0.0 0.0

-1.3992928716456061e6 1.6142116890266668e7 0.0
1.6142116890266668e7 1.1692382008032084e7 0.0
0.0 0.0 0.0

-2.71004971228913e7 2.348289075147046e7 0.0
2.348289075147046e7 9.594542221015805e6 0.0
0.0 0.0 0.0

5.192982423479857e6 3.6916495929001477e6 0.0
3.6916495929001477e6 -2.7793026134708297e7 0.0
0.0 0.0 0.0

-7.030160697634282e6 1.5658495212018685e7 0.0
1.5658495212018685e7 1.3376397330596685e7 0.0
0.0 0.0 0.0

-6.429239896662639e6 5.5236300916844895e6 0.0
5.5236300916844895e6 6.949527811895599e6 0.0
0.0 0.0 0.0

4.572020830811235e6 4.0599008724865518e6 0.0
4.0599008724865518e6 -1.6338965176761614e7 0.0
0.0 0.0 0.0

82400.03146214131 1.5625271481664786e7 0.0
1.5625271481664786e7 -8.313408574734666e6 0.0
0.0 0.0 0.0

-7.192562256985281e6 2.838741532195195e7 0.0
2.838741532195195e7 5.335716305402877e6 0.0
0.0 0.0 0.0

-1.2836593827327345e7 1.177279478219162e7 0.0
1.177279478219162e7 1.0035218781933486e7 0.0
0.0 0.0 0.0

-2.4043165621408805e7 2.087596795313931e7 0.0
2.087596795313931e7 4.792014120543104e6 0.0
0.0 0.0 0.0

2.3647952236923397e7 1.5948942506492192e7 0.0
1.5948942506492192e7 7.421070769668348e6 0.0
0.0 0.0 0.0

-3.2867497109707426e6 1.3927952844303371e7 0.0
1.3927952844303371e7 -5.3564973139707856e7 0.0
0.0 0.0 0.0

45308.0340890903 1.4716135232728373e7 0.0
1.4716135232728373e7 -1.0056075695041936e7 0.0
0.0 0.0 0.0

-6.708863297356667e6 1.6109093015775098e7 0.0
1.6109093015775098e7 1.6326962133204369e7 0.0
0.0 0.0 0.0

-885537.1012282888 1.7865758252250373e7 0.0
1.7865758252250373e7 -7.105461287088708e6 0.0
0.0 0.0 0.0

-2.8834086891585933e6 2.0439852538462937e7 0.0
2.0439852538462937e7 377764.8178935782 0.0
0.0 0.0 0.0

969768.4285369951 1.3974465409313582e7 0.0
1.3974465409313582e7 5.49185295635899e6 0.0
0.0 0.0 0.0

-999997.3704001361 2.4491463459643006e7 0.0
2.4491463459643006e7 170.36061503808014 0.0
0.0 0.0 0.0

-7.612052154404764e6 5.229629049948106e6 0.0
5.229629049948106e6 1.0015448264049133e7 0.0
0.0 0.0 0.0

3.2331074604389414e7 2.2083231044790536e7 0.0
2.2083231044790536e7 9.329636487917002e6 0.0
0.0 0.0 0.0

-1.5898081505884693e6 2.0211863374331642e7 0.0
2.0211863374331642e7 -4.0121088366742963e6 0.0
0.0 0.0 0.0

1.6186768248909398e6 1.3632914820823595e7 0.0
1.3632914820823595e7 7.290748015319598e6 0.0
0.0 0.0 0.0

-7.435178247901618e6 1.956898225226519e7 0.0
1.956898225226519e7 2.33987301934357e6 0.0
0.0 0.0 0.0

-3.0404528159845006e6 1.5080047070445353e7 0.0
1.5080047070445353e7 1.2395795613394363e7 0.0
0.0 0.0 0.0

-1.638785523267701e6 1.921951901270955e7 0.0
1.921951901270955e7 -3.9705802218698626e6 0.0
0.0 0.0 0.0

3.9245457333505023e6 7.325910359884564e6 0.0
7.325910359884564e6 -2.248463368245215e7 0.0
0.0 0.0 0.0

-4.672110920511966e6 1.7837883089324404e7 0.0
1.7837883089324404e7 4.770416780471437e6 0.0
0.0 0.0 0.0

-4.213322461093506e6 1.772740355721152e7 0.0
1.772740355721152e7 2.7596743664532052e6 0.0
0.0 0.0 0.0

1.6585672681353977e6 7.192757537905951e6 0.0
7.192757537905951e6 -9.406040907495186e6 0.0
0.0 0.0 0.0

-4.509300962679628e6 1.8496406384616185e7 0.0
1.8496406384616185e7 9.196360890646446e6 0.0
0.0 0.0 0.0

-1.0911559128470017e7 3.30351348054218e6 0.0
3.30351348054218e6 3.473528080024569e7 0.0
0.0 0.0 0.0

-491874.7709541097 9.581484234865438e6 0.0
9.581484234865438e6 -3.1049577996262563e6 0.0
0.0 0.0 0.0

-8.487797949422056e6 1.965462284331908e7 0.0
1.965462284331908e7 -2.255551222647831e6 0.0
0.0 0.0 0.0

2.152348521640589e7 2.0583033889629718e7 0.0
2.0583033889629718e7 8.54639861687916e6 0.0
0.0 0.0 0.0

1.686950625124501e6 1.1940410778495234e7 0.0
1.1940410778495234e7 -2.0109058534268506e7 0.0
0.0 0.0 0.0

4.553930624251266e6 6.062201933538855e6 0.0
6.062201933538855e6 -2.3500626375380564e7 0.0
0.0 0.0 0.0

4.591254026380461e6 1.6303879934878998e7 0.0
1.6303879934878998e7 962779.4500004024 0.0
0.0 0.0 0.0

-5.911601687012785e6 8.302245653956749e6 0.0
8.302245653956749e6 1.423631868267956e7 0.0
0.0 0.0 0.0

-3.100391680658641e6 1.9791863425721582e7 0.0
1.9791863425721582e7 670266.7895548225 0.0
0.0 0.0 0.0

-2.0243447471081223e6 1.7200853311217725e7 0.0
1.7200853311217725e7 -5.254049588862967e6 0.0
0.0 0.0 0.0

-1.64223811269575e6 1.7350293822591368e7 0.0
1.7350293822591368e7 -6.608090865224718e6 0.0
0.0 0.0 0.0

-625230.8307939419 1.52852071589319e7 0.0
1.52852071589319e7 -5.495432097957395e6 0.0
0.0 0.0 0.0

2.14483872244077e6 7.784850688045109e6 0.0
7.784850688045109e6 -8.518465777174423e6 0.0
0.0 0.0 0.0

1.7510126333244618e7 1.8263645145709157e7 0.0
1.8263645145709157e7 4.883771725677674e6 0.0
0.0 0.0 0.0

994327.8747785584 1.431359358842011e7 0.0
1.431359358842011e7 4.996576159630081e6 0.0
0.0 0.0 0.0

-3.772212641364365e6 2.3784497214510866e7 0.0
2.3784497214510866e7 3.8771844212069064e6 0.0
0.0 0.0 0.0

-2.792065094952876e7 1.5505820930362342e7 0.0
1.5505820930362342e7 9.834376690621007e6 0.0
0.0 0.0 0.0

4.521657043592424e6 4.381206273326027e6 0.0
4.381206273326027e6 -1.4767788112820033e7 0.0
0.0 0.0 0.0

-133642.17230147822 1.5505840636393286e7 0.0
1.5505840636393286e7 3.777014764782088e6 0.0
0.0 0.0 0.0

-2.210232029629356e6 1.2836418061469568e7 0.0
1.2836418061469568e7 -1.3490313488822687e7 0.0
0.0 0.0 0.0

398427.28296615835 1.392589585085337e7 0.0
1.392589585085337e7 -1.5353191494494632e7 0.0
0.0 0.0 0.0

-8.156355483076476e6 -6.225743698099291e6 0.0
-6.225743698099291e6 1.6065513391667333e7 0.0
0.0 0.0 0.0

1.6317217334100455e6 1.1434732757231964e7 0.0
1.1434732757231964e7 -1.4320361249704292e7 0.0
0.0 0.0 0.0

-4.963528413537049e6 1.4763845447134838e7 0.0
1.4763845447134838e7 -2.99737261714327e7 0.0
0.0 0.0 0.0

1.9084626712998562e6 1.099304876674232e7 0.0
1.099304876674232e7 -1.508155013137234e7 0.0
0.0 0.0 0.0

348717.07174346363 1.60809863336704e7 0.0
1.60809863336704e7 -7.785589205567833e6 0.0
0.0 0.0 0.0

1.866085093839199e7 1.693672793029428e7 0.0
1.693672793029428e7 4.345543640525432e6 0.0
0.0 0.0 0.0

-1.1272998392296797e7 1.156730818247979e7 0.0
1.156730818247979e7 2.4333123489912413e7 0.0
0.0 0.0 0.0

-2.6280373947067526e6 1.815575319107161e7 0.0
1.815575319107161e7 -6.441374593394662e6 0.0
0.0 0.0 0.0

-99738.5307389207 1.4341830094285356e7 0.0
1.4341830094285356e7 -179454.1519304866 0.0
0.0 0.0 0.0

-4.475732840231268e6 1.7109619119632058e7 0.0
1.7109619119632058e7 -7.164629977696381e6 0.0
0.0 0.0 0.0

1.6699054037162786e7 1.9668589333771683e7 0.0
1.9668589333771683e7 7.531889430165255e6 0.0
0.0 0.0 0.0

-5.127444981722357e6 1.8511118480715923e7 0.0
1.8511118480715923e7 9.663732797477342e6 0.0
0.0 0.0 0.0

1.268758305961872e6 1.5259847285453184e7 0.0
1.5259847285453184e7 -3.822839051814987e6 0.0
0.0 0.0 0.0

-2.3841625824666414e6 2.159763107916509e7 0.0
2.159763107916509e7 -133042.32524797227 0.0
0.0 0.0 0.0

-4.7395680395224895e6 1.7914192733652506e7 0.0
1.7914192733652506e7 5.484153245993512e6 0.0
0.0 0.0 0.0

-8.320573946717378e6 344353.6901985353 0.0
344353.6901985353 5.4415327020223394e7 0.0
0.0 0.0 0.0

-558637.3447065726 1.6032778401909476e7 0.0
1.6032778401909476e7 -1.0273751271697728e7 0.0
0.0 0.0 0.0

-3.371571798881538e6 2.138716059745385e7 0.0
2.138716059745385e7 2.5133905808759658e6 0.0
0.0 0.0 0.0

641638.6317629052 4.267812434778546e6 0.0
4.267812434778546e6 -2.104356475997422e6 0.0
0.0 0.0 0.0

-1.174538483143156e7 1.2955119559209611e7 0.0
1.2955119559209611e7 1.891985840504636e7 0.0
0.0 0.0 0.0

-3.2184907647409416e6 1.4900260408210102e7 0.0
1.4900260408210102e7 -4.907035254568445e6 0.0
0.0 0.0 0.0

4.668106369220501e6 4.420928558136269e6 0.0
4.420928558136269e6 -1.9490904936469685e7 0.0
0.0 0.0 0.0

-3.089947932375227e6 2.433800999176885e7 0.0
2.433800999176885e7 3.000700747483261e6 0.0
0.0 0.0 0.0

2.0178959786154153e6 1.1601014968878573e7 0.0
1.1601014968878573e7 -1.3141508518572265e7 0.0
0.0 0.0 0.0

-7.938868375914533e6 1.5119934835374579e7 0.0
1.5119934835374579e7 1.4579220798745994e7 0.0
0.0 0.0 0.0

4.0388355015430246e6 5.933967582082298e6 0.0
5.933967582082298e6 -3.8458278303847864e7 0.0
0.0 0.0 0.0

-4.241779124057568e6 2.3484054441184998e7 0.0
2.3484054441184998e7 3.519764578933116e6 0.0
0.0 0.0 0.0

-4.635697710951441e6 1.3916099088022407e7 0.0
1.3916099088022407e7 -1.87708444885428e7 0.0
0.0 0.0 0.0

3.6590839533473337e6 3.644970676563329e6 0.0
3.644970676563329e6 -1.0471185116166417e7 0.0
0.0 0.0 0.0

-93462.49471165822 9.080007637243655e6 0.0
9.080007637243655e6 -3.9886136305018603e6 0.0
0.0 0.0 0.0

-1.2975717999142125e7 2.4809960646245614e7 0.0
2.4809960646245614e7 7.438962602751476e6 0.0
0.0 0.0 0.0

2.3560956291239513e6 1.3757626526204506e7 0.0
1.3757626526204506e7 8.61667678394666e6 0.0
0.0 0.0 0.0

-7.371516486144969e6 2.6954001088437807e7 0.0
2.6954001088437807e7 4.147222201642752e6 0.0
0.0 0.0 0.0

-1.1176959784031946e7 2.620138636913033e6 0.0
2.620138636913033e6 1.8446040651091002e7 0.0
0.0 0.0 0.0

2.8957523983476907e6 8.370212283325098e6 0.0
8.370212283325098e6 -4.25553366835372e7 0.0
0.0 0.0 0.0

4.342483104429805e7 1.511639685231588e7 0.0
1.511639685231588e7 -3.308143222695116e6 0.0
0.0 0.0 0.0

-3.0847772040639464e6 2.030411984975362e7 0.0
2.030411984975362e7 895329.1482999176 0.0
0.0 0.0 0.0

-5.132137118131335e6 2.143586624228177e7 0.0
2.143586624228177e7 6.053104953477045e6 0.0
0.0 0.0 0.0

-3.982749020049984e6 1.9265888324818097e7 0.0
1.9265888324818097e7 3.9464683474252005e6 0.0
0.0 0.0 0.0

1.4306815946852323e6 1.68449440186809e7 0.0
1.68449440186809e7 3.495145386986892e7 0.0
0.0 0.0 0.0

4.62984263586278e6 4.546132015009538e6 0.0
4.546132015009538e6 -2.2456037997758146e7 0.0
0.0 0.0 0.0

467874.102834078 1.096646260459186e7 0.0
1.096646260459186e7 -6.684369389780068e6 0.0
0.0 0.0 0.0

1.1016323073229017e6 2.3439357418446567e7 0.0
2.3439357418446567e7 -3.345854795435814e6 0.0
0.0 0.0 0.0

2.638340311102912e6 9.34923223131675e6 0.0
9.34923223131675e6 -2.5514080532917235e7 0.0
0.0 0.0 0.0

-1.721721551836937e7 1.3532740733395888e7 0.0
1.3532740733395888e7 9.866218432126809e6 0.0
0.0 0.0 0.0

-4.320118000085044e6 1.77871396144691e7 0.0
1.77871396144691e7 1.864561384661789e6 0.0
0.0 0.0 0.0

-71737.20796504791 1.3368648449822214e7 0.0
1.3368648449822214e7 2.632700118474502e6 0.0
0.0 0.0 0.0

2.26589551879646e6 1.1181117354653504e7 0.0
1.1181117354653504e7 -1.3937493612988988e7 0.0
0.0 0.0 0.0

-922255.6427155975 1.6555127410068568e7 0.0
1.6555127410068568e7 1.9828281846307896e7 0.0
0.0 0.0 0.0

4.212190726254251e6 2.334391447829189e7 0.0
2.334391447829189e7 -4.990574483245603e6 0.0
0.0 0.0 0.0

-3.3882780346687965e7 934859.3364058977 0.0
934859.3364058977 8.92771519764918e6 0.0
0.0 0.0 0.0

2.2062772196358114e7 2.8542671152584884e7 0.0
2.8542671152584884e7 -1.2237548837838896e7 0.0
0.0 0.0 0.0

3.439172602658279e6 2.3752964148161028e7 0.0
2.3752964148161028e7 -5.708686901363934e6 0.0
0.0 0.0 0.0

4.237962306198362e6 4.461586403345695e6 0.0
4.461586403345695e6 -1.4210038202687811e7 0.0
0.0 0.0 0.0

-3.9759052550522787e6 2.1455510652362894e7 0.0
2.1455510652362894e7 2.739738529126052e6 0.0
0.0 0.0 0.0

2.329471363454978e7 1.226595300953975e7 0.0
1.226595300953975e7 262095.20465627685 0.0
0.0 0.0 0.0

-1.053306341252722e7 5.711252222782181e6 0.0
5.711252222782181e6 3.7147211971129954e7 0.0
0.0 0.0 0.0

-606098.2281566667 1.6194780407089736e7 0.0
1.6194780407089736e7 -9.863921329888333e6 0.0
0.0 0.0 0.0

1.3851867569551693e7 1.5248914868495213e7 0.0
1.5248914868495213e7 3.4896465253209528e6 0.0
0.0 0.0 0.0

468253.91226850403 1.601264658006127e7 0.0
1.601264658006127e7 -8.8703134437362e6 0.0
0.0 0.0 0.0

4.890447072894314e6 4.783700383230286e6 0.0
4.783700383230286e6 -2.389360394456716e7 0.0
0.0 0.0 0.0

-2.753052749800706e6 2.008915771557882e7 0.0
2.008915771557882e7 -406770.0180063403 0.0
0.0 0.0 0.0

-1.713067017381812e6 1.2983471965320814e7 0.0
1.2983471965320814e7 -1.2613233646329287e7 0.0
0.0 0.0 0.0

-1.517938534964527e6 2.119946176082388e7 0.0
2.119946176082388e7 -2.9164098492643237e6 0.0
0.0 0.0 0.0

-9.468077673990617e6 8.093569410023688e6 0.0
8.093569410023688e6 3.886013194863727e7 0.0
0.0 0.0 0.0

-3865.413472934626 1.3919837838576285e7 0.0
1.3919837838576285e7 -8.166555425296004e6 0.0
0.0 0.0 0.0

3.064682939159194e6 8.918901163662875e6 0.0
8.918901163662875e6 -1.860078922595034e7 0.0
0.0 0.0 0.0

915998.9754112822 1.8012220489187546e7 0.0
1.8012220489187546e7 -5.915463592005191e6 0.0
0.0 0.0 0.0

-1.2860343053843603e6 1.3358645630116777e7 0.0
1.3358645630116777e7 -7.31626907198836e6 0.0
0.0 0.0 0.0

-1.0629237815529047e7 841759.3877586944 0.0
841759.3877586944 3.47850632083191e7 0.0
0.0 0.0 0.0

-1.7271465309147062e6 1.670941675341026e7 0.0
1.670941675341026e7 1.4397378781855384e7 0.0
0.0 0.0 0.0

2.650463744932173e6 9.11258447779064e6 0.0
9.11258447779064e6 -2.7203826699269902e7 0.0
0.0 0.0 0.0

-968875.6670822247 2.1032643128784757e7 0.0
2.1032643128784757e7 -2.920576340006472e6 0.0
0.0 0.0 0.0

-583840.0339551168 1.708917118586254e7 0.0
1.708917118586254e7 1.0884167429125113e7 0.0
0.0 0.0 0.0

3.738108262278121e6 8.151472376440826e6 0.0
8.151472376440826e6 -1.8146315902754877e7 0.0
0.0 0.0 0.0

3.277063355630301e7 1.7849674926018253e7 0.0
1.7849674926018253e7 6.362479423249546e6 0.0
0.0 0.0 0.0

-1.2700222878202195e6 2.064037556715252e7 0.0
2.064037556715252e7 -3.044111875417336e6 0.0
0.0 0.0 0.0

-9.19732851686639e6 -5.876245136278542e6 0.0
-5.876245136278542e6 1.9983356234071635e7 0.0
0.0 0.0 0.0

-1.149560187002395e7 980429.716920752 0.0
980429.716920752 3.193903949687823e7 0.0
0.0 0.0 0.0

5.198935808522845e6 3.2821550681108134e6 0.0
3.2821550681108134e6 -2.040743079483167e7 0.0
0.0 0.0 0.0

-4.541477821653563e6 1.893162245470751e7 0.0
1.893162245470751e7 3.486619124827531e6 0.0
0.0 0.0 0.0

-785955.2229794657 1.4816510269151812e7 0.0
1.4816510269151812e7 -6.017002102748172e6 0.0
0.0 0.0 0.0

-922013.2890465725 1.7452204655966017e7 0.0
1.7452204655966017e7 -8.0019653179704305e6 0.0
0.0 0.0 0.0

-8.764001602085233e6 -1.4891520842589992e6 0.0
-1.4891520842589992e6 1.4544972607691385e7 0.0
0.0 0.0 0.0

-1.36372787638259e6 1.7670279111045253e7 0.0
1.7670279111045253e7 -5.5418218310695e6 0.0
0.0 0.0 0.0

-1.0726640661044583e7 712622.3722922594 0.0
712622.3722922594 3.443502203282945e7 0.0
0.0 0.0 0.0

4.490694715329131e6 1.544395960039644e7 0.0
1.544395960039644e7 2.6611256333929584e6 0.0
0.0 0.0 0.0

2.0764207272616588e6 1.0591893334122352e7 0.0
1.0591893334122352e7 -2.592681236813919e7 0.0
0.0 0.0 0.0

3.134841923476549e6 9.021318722254867e6 0.0
9.021318722254867e6 -2.716696832071843e7 0.0
0.0 0.0 0.0

-1.2035848272094056e7 1.2733033001127552e7 0.0
1.2733033001127552e7 1.969266196654551e7 0.0
0.0 0.0 0.0

-4.214165142899879e6 1.608670826747134e7 0.0
1.608670826747134e7 3.562818018036601e6 0.0
0.0 0.0 0.0

1.2068495681976043e6 4.744385908986293e6 0.0
4.744385908986293e6 -3.5451120198694016e6 0.0
0.0 0.0 0.0

-134429.49366610358 1.4472073558656076e7 0.0
1.4472073558656076e7 -7.293963449929989e6 0.0
0.0 0.0 0.0

-4.248324695577086e6 2.0685128572503526e7 0.0
2.0685128572503526e7 5.870581317491202e6 0.0
0.0 0.0 0.0

1.697714698272056e6 1.6793442952965427e7 0.0
1.6793442952965427e7 2.4962525176990274e7 0.0
0.0 0.0 0.0

6.064941965647932e6 1.763267986624106e7 0.0
1.763267986624106e7 -3.985992530858693e6 0.0
0.0 0.0 0.0

-7.749446259871624e6 -103766.09137484485 0.0
-103766.09137484485 5.270205995050374e7 0.0
0.0 0.0 0.0

-1.103565375121781e7 7.430726995765447e6 0.0
7.430726995765447e6 3.0280728871425807e7 0.0
0.0 0.0 0.0

-1.0959346397812754e7 1.1919466768654836e7 0.0
1.1919466768654836e7 1.6244659447781127e7 0.0
0.0 0.0 0.0

186487.0104556689 1.4206615668856792e7 0.0
1.4206615668856792e7 5.8674619299669415e6 0.0
0.0 0.0 0.0

-6.943905528675512e6 2.9627470159403416e6 0.0
2.9627470159403416e6 9.942934573379463e6 0.0
0.0 0.0 0.0

-8.632181063400296e6 1.7335839667229827e7 0.0
1.7335839667229827e7 939937.5835930794 0.0
0.0 0.0 0.0

4.9319121626239e6 5.155987765150399e6 0.0
5.155987765150399e6 -2.1456482404312372e7 0.0
0.0 0.0 0.0

-3.5678258434990924e6 1.41946335815596e7 0.0
1.41946335815596e7 -2.6060110938399162e7 0.0
0.0 0.0 0.0

389384.9436663968 1.4299726776010102e7 0.0
1.4299726776010102e7 3.4317113455400155e6 0.0
0.0 0.0 0.0

7.439376669206385e6 2.1293305758352216e7 0.0
2.1293305758352216e7 -7.532164570156893e6 0.0
0.0 0.0 0.0

696836.5599370277 1.6408298163318578e7 0.0
1.6408298163318578e7 -7.272632861788858e6 0.0
0.0 0.0 0.0

-1.2706189729564533e7 2.04304750048219e7 0.0
2.04304750048219e7 -2.7073025615515807e6 0.0
0.0 0.0 0.0

-3.144825997645877e6 2.0746161256497044e7 0.0
2.0746161256497044e7 -333300.4473567755 0.0
0.0 0.0 0.0

-309487.56283098797 6.289440443133755e6 0.0
6.289440443133755e6 -3.7685721522290353e6 0.0
0.0 0.0 0.0

-5.80383610295135e6 2.7634693101811726e7 0.0
2.7634693101811726e7 5.235174839909729e6 0.0
0.0 0.0 0.0

-3.982673325847285e6 1.6424103181914127e7 0.0
1.6424103181914127e7 2.6783031211920716e6 0.0
0.0 0.0 0.0

-1.029012721081061e7 5.0565639939774e6 0.0
5.0565639939774e6 1.1518904476055034e7 0.0
0.0 0.0 0.0

-4.351902577772636e6 1.62769576299987e7 0.0
1.62769576299987e7 1.2445997725929357e6 0.0
0.0 0.0 0.0

-1.1673019259074447e6 3.420706288262356e6 0.0
3.420706288262356e6 -477277.9061196778 0.0
0.0 0.0 0.0

145516.63319707057 8.47671990041183e6 0.0
8.47671990041183e6 -9.388439853695964e6 0.0
0.0 0.0 0.0

2.0630832310483558e6 1.0987819889317557e7 0.0
1.0987819889317557e7 -2.2828472760723926e7 0.0
0.0 0.0 0.0

-4.766905273354584e6 1.811423089170609e7 0.0
1.811423089170609e7 -4.766554630080896e6 0.0
0.0 0.0 0.0

-6.471121883079706e6 1.6304953627593262e7 0.0
1.6304953627593262e7 1.5809012487804947e7 0.0
0.0 0.0 0.0

-618182.2992507361 1.4716348589112524e7 0.0
1.4716348589112524e7 -4.476566567474301e6 0.0
0.0 0.0 0.0

3.411715844699528e6 4.5321009931922415e6 0.0
4.5321009931922415e6 -1.0623262663447818e7 0.0
0.0 0.0 0.0

-2.5302834002056336e6 1.8858409026871536e7 0.0
1.8858409026871536e7 -3.3370479804127365e6 0.0
0.0 0.0 0.0

-2.6707806764059574e6 2.142812355113582e7 0.0
2.142812355113582e7 -912246.5013691301 0.0
0.0 0.0 0.0

1.643536453075681e6 1.7686819793113366e7 0.0
1.7686819793113366e7 -5.432453602872472e6 0.0
0.0 0.0 0.0

-1.072485513090633e7 7.385450638241443e6 0.0
7.385450638241443e6 1.2642224955240149e7 0.0
0.0 0.0 0.0

-554878.8197018588 1.3815941107675193e7 0.0
1.3815941107675193e7 -1.4273590884022644e7 0.0
0.0 0.0 0.0

-5.2095436908651e6 2.444906399721168e7 0.0
2.444906399721168e7 4.018341254577861e6 0.0
0.0 0.0 0.0

-4.618942803012893e6 2.3970155276311867e7 0.0
2.3970155276311867e7 3.7532970039863586e6 0.0
0.0 0.0 0.0

-430023.9887856506 1.2867130806677746e7 0.0
1.2867130806677746e7 -2.100971692286964e7 0.0
0.0 0.0 0.0

-1.6297479183985519e6 1.3443935347537559e7 0.0
1.3443935347537559e7 -9.137793339819206e6 0.0
0.0 0.0 0.0

5794.105867836741 1.4803066392727317e7 0.0
1.4803066392727317e7 2.8708522439626195e6 0.0
0.0 0.0 0.0

3.276553769386123e6 8.527116787953166e6 0.0
8.527116787953166e6 -2.2041042390499853e7 0.0
0.0 0.0 0.0

-1.2036266260872064e7 8.232392122284806e6 0.0
8.232392122284806e6 2.4963226282232065e7 0.0
0.0 0.0 0.0

1.2754775064659417e6 1.0980712065836135e7 0.0
1.0980712065836135e7 -4.384268321910074e7 0.0
0.0 0.0 0.0

2.2228663702943027e6 2.5737357364139117e7 0.0
2.5737357364139117e7 -5.687696393653942e6 0.0
0.0 0.0 0.0

2.9612520838107313e6 1.4954563927127466e7 0.0
1.4954563927127466e7 1.5060038120215015e7 0.0
0.0 0.0 0.0

-155127.00412405375 1.5915230290537199e7 0.0
1.5915230290537199e7 2.2024629539890658e7 0.0
0.0 0.0 0.0

1.1852014014291694e7 1.8235991764496375e7 0.0
1.8235991764496375e7 7.19638349798671e6 0.0
0.0 0.0 0.0

-587563.2840356468 1.3835046875977961e7 0.0
1.3835046875977961e7 1.9083125752225134e6 0.0
0.0 0.0 0.0

-2.327384022586897e6 1.8623618074800737e7 0.0
1.8623618074800737e7 -3.156010083639533e6 0.0
0.0 0.0 0.0

-1.8287973403811328e7 2.0137899583049275e7 0.0
2.0137899583049275e7 -3.2092056337482883e6 0.0
0.0 0.0 0.0

-333719.65506540716 1.3133687616200328e7 0.0
1.3133687616200328e7 304217.0928319011 0.0
0.0 0.0 0.0

-2.6760732244770397e6 1.7081832480731238e7 0.0
1.7081832480731238e7 3.681791434654195e6 0.0
0.0 0.0 0.0

5.02088496709683e6 4.496879903993651e6 0.0
4.496879903993651e6 -1.819076141959075e7 0.0
0.0 0.0 0.0

-8.967255486502998e6 1.8490669935599864e7 0.0
1.8490669935599864e7 2.3697343719084114e6 0.0
0.0 0.0 0.0

-1.2588655071051786e7 2.8831970481591318e7 0.0
2.8831970481591318e7 6.18983292994154e6 0.0
0.0 0.0 0.0

-9.687408697383191e6 -755654.6898814872 0.0
-755654.6898814872 1.746820934350837e7 0.0
0.0 0.0 0.0

3.893985179511602e6 2.213638742270989e7 0.0
2.213638742270989e7 -5.2453296152414875e6 0.0
0.0 0.0 0.0

-7.075517801608048e6 8.403721056883048e6 0.0
8.403721056883048e6 5.697969922242146e7 0.0
0.0 0.0 0.0

-8.727338828097144e6 -6.097603528659253e6 0.0
-6.097603528659253e6 1.906355854376213e7 0.0
0.0 0.0 0.0

-7.318750181902673e6 1.621444970033656e7 0.0
1.621444970033656e7 -3.2890341284002364e7 0.0
0.0 0.0 0.0

185408.06674718484 1.5190695850587232e7 0.0
1.5190695850587232e7 -9.265989276900657e6 0.0
0.0 0.0 0.0

-2.5025970098315366e6 2.2036960282108355e7 0.0
2.2036960282108355e7 86291.39481560315 0.0
0.0 0.0 0.0

-6.792775450535828e6 1.5585722883449297e7 0.0
1.5585722883449297e7 -2.1813069280346637e6 0.0
0.0 0.0 0.0

-170877.97733895446 8.623902260406282e6 0.0
8.623902260406282e6 -3.32730741970112e6 0.0
0.0 0.0 0.0

-3.090854711433027e6 1.989016034589118e7 0.0
1.989016034589118e7 -1.3293067818492805e6 0.0
0.0 0.0 0.0

-3.66718667735555e6 2.3356271904664934e7 0.0
2.3356271904664934e7 3.3917942412089985e6 0.0
0.0 0.0 0.0

-2.3802438197932965e6 2.21134103462658e7 0.0
2.21134103462658e7 -120783.30530889635 0.0
0.0 0.0 0.0

-163477.76872836053 1.0317299072496207e7 0.0
1.0317299072496207e7 -4.8721556946972705e7 0.0
0.0 0.0 0.0

-3.5966369205710012e6 1.5291987175092781e7 0.0
1.5291987175092781e7 -8.701804187329005e6 0.0
0.0 0.0 0.0

-9.55819839851323e6 498710.6033685671 0.0
498710.6033685671 4.180123167286415e7 0.0
0.0 0.0 0.0

6.764742003481272e6 1.9041923111875225e7 0.0
1.9041923111875225e7 3.993590583287466e7 0.0
0.0 0.0 0.0

-3.743798979525471e7 1.0876836292105084e6 0.0
1.0876836292105084e6 9.151123282085313e6 0.0
0.0 0.0 0.0

2.1417007528391067e7 1.825702379073396e7 0.0
1.825702379073396e7 -2.5279869438587856e6 0.0
0.0 0.0 0.0

1.3229016621147292e6 1.2625790982933965e7 0.0
1.2625790982933965e7 -1.9434008691218317e7 0.0
0.0 0.0 0.0

2.3655079566304567e6 5.4234981221592985e6 0.0
5.4234981221592985e6 -7.285949396024417e6 0.0
0.0 0.0 0.0

3.0080195958572917e7 1.7286579316957958e7 0.0
1.7286579316957958e7 -7.844784072756026e6 0.0
0.0 0.0 0.0

3.199688847256779e6 1.051784227606485e7 0.0
1.051784227606485e7 -1.1340677367126431e7 0.0
0.0 0.0 0.0

1.526381255624829e7 1.7912966999472152e7 0.0
1.7912966999472152e7 6.8125217185760625e6 0.0
0.0 0.0 0.0

-3.3638792952371426e6 2.062432257473662e7 0.0
2.062432257473662e7 87433.87072113552 0.0
0.0 0.0 0.0

-4.821303891274899e6 2.1030882183048908e7 0.0
2.1030882183048908e7 6.106079932032275e6 0.0
0.0 0.0 0.0

-423741.22701742314 1.1287503433072489e7 0.0
1.1287503433072489e7 -7.186766326043821e6 0.0
0.0 0.0 0.0

-7.995899521601631e6 1.0567609755514776e7 0.0
1.0567609755514776e7 -393314.6417289716 0.0
0.0 0.0 0.0

-2.7278240334200896e6 1.3665357918780161e7 0.0
1.3665357918780161e7 -1.3619394874656668e7 0.0
0.0 0.0 0.0

-1.9107375135566827e6 1.6443561211567268e7 0.0
1.6443561211567268e7 5.434557747826517e6 0.0
0.0 0.0 0.0

-205626.54249206604 1.5748083832262503e7 0.0
1.5748083832262503e7 7.60400256331273e6 0.0
0.0 0.0 0.0

-7.729351597195122e6 7.099801866708977e6 0.0
7.099801866708977e6 5.287330635207079e7 0.0
0.0 0.0 0.0

-3.6514404584120316e6 1.9499031436654106e7 0.0
1.9499031436654106e7 171180.20407086238 0.0
0.0 0.0 0.0

5.203628825910665e6 3.2863531270379415e6 0.0
3.2863531270379415e6 -2.0565629067061678e7 0.0
0.0 0.0 0.0

-4.733369929090704e6 1.7176158556976866e7 0.0
1.7176158556976866e7 1.1148475909413163e7 0.0
0.0 0.0 0.0

-661202.3166506565 1.5802456113982042e7 0.0
1.5802456113982042e7 8.624456165976854e6 0.0
0.0 0.0 0.0

5.364541656225199e6 1.884366114266738e7 0.0
1.884366114266738e7 -5.500045225119482e6 0.0
0.0 0.0 0.0

-1.798875294618602e6 1.8822476245472614e7 0.0
1.8822476245472614e7 -5.384678604181411e6 0.0
0.0 0.0 0.0

-4.394040837005284e6 2.5353862738148943e7 0.0
2.5353862738148943e7 3.0832481741359495e6 0.0
0.0 0.0 0.0

-956168.1722288016 6.677932705290944e6 0.0
6.677932705290944e6 -2.900335854918101e6 0.0
0.0 0.0 0.0

-9.414086540806308e6 2.445764384695695e7 0.0
2.445764384695695e7 6.11019049555386e6 0.0
0.0 0.0 0.0

-3.490188520520163e6 2.124616673571378e7 0.0
2.124616673571378e7 3.07624877702777e6 0.0
0.0 0.0 0.0

-1.070004612641402e7 1.31193319652517e7 0.0
1.31193319652517e7 1.614845272298721e7 0.0
0.0 0.0 0.0

1.708857391495201e7 1.7364712061425295e7 0.0
1.7364712061425295e7 -5.120353954862228e6 0.0
0.0 0.0 0.0

239088.8232152108 1.5060267336577721e7 0.0
1.5060267336577721e7 -1.0658687848774195e7 0.0
0.0 0.0 0.0

-3.553719200002022e6 2.0494303207206577e7 0.0
2.0494303207206577e7 593069.0805742198 0.0
0.0 0.0 0.0

-115355.49026500387 1.0417192746400582e7 0.0
1.0417192746400582e7 -7.471823422895444e6 0.0
0.0 0.0 0.0

-2.331896781932274e6 1.633394907062516e7 0.0
1.633394907062516e7 8.749100351519302e6 0.0
0.0 0.0 0.0

-1.0609895460629793e7 9.532654322063241e6 0.0
9.532654322063241e6 2.3136162009142353e6 0.0
0.0 0.0 0.0

-9.748459339711387e6 1.78892672456247e7 0.0
1.78892672456247e7 2.01280389277783e6 0.0
0.0 0.0 0.0

89692.37885259418 1.5111946078453787e7 0.0
1.5111946078453787e7 -9.17255099893875e6 0.0
0.0 0.0 0.0

3.55976122947617e6 1.3545866514016228e7 0.0
1.3545866514016228e7 4.344937464844267e6 0.0
0.0 0.0 0.0

79542.93212682102 1.4622697605994264e7 0.0
1.4622697605994264e7 -1.3409340343121646e7 0.0
0.0 0.0 0.0

-6.937201784627741e6 1.6204464778124671e7 0.0
1.6204464778124671e7 1.5646241341865657e7 0.0
0.0 0.0 0.0

-1.5344297143651469e7 1.511403240185527e7 0.0
1.511403240185527e7 6.585962037363484e6 0.0
0.0 0.0 0.0

-2.004578188671012e6 1.629530234362947e7 0.0
1.629530234362947e7 1.9583867212073929e6 0.0
0.0 0.0 0.0

-1.2368047857597873e7 3.4946153997611846e6 0.0
3.4946153997611846e6 1.6876695025760412e7 0.0
0.0 0.0 0.0

-181700.9982526549 1.5704387625258211e7 0.0
1.5704387625258211e7 1.0752876545534473e7 0.0
0.0 0.0 0.0

5.058006688817728e6 2.3738272944925386e7 0.0
2.3738272944925386e7 -7.052221017287007e6 0.0
0.0 0.0 0.0

-2.957704036308347e7 1.9095577303266313e7 0.0
1.9095577303266313e7 7.017809312489975e6 0.0
0.0 0.0 0.0

1.630750562506124e6 2.816942372163113e7 0.0
2.816942372163113e7 -2.8662839633528627e6 0.0
0.0 0.0 0.0

-9.593322600761281e6 1.8539386911411006e7 0.0
1.8539386911411006e7 620501.758407997 0.0
0.0 0.0 0.0

38806.7091696962 2.6116916439383287e7 0.0
2.6116916439383287e7 -743709.630550986 0.0
0.0 0.0 0.0

-1.1199355270108297e7 350330.29308500624 0.0
350330.29308500624 1.5735899495725386e7 0.0
0.0 0.0 0.0

6.938444839690863e6 1.8219293114602108e7 0.0
1.8219293114602108e7 -4.514457237726649e6 0.0
0.0 0.0 0.0

-4.06650042601194e6 2.4258492051851746e7 0.0
2.4258492051851746e7 4.200821537753633e6 0.0
0.0 0.0 0.0

-3.1578428285022397e6 1.6901905990539655e7 0.0
1.6901905990539655e7 427009.2849735997 0.0
0.0 0.0 0.0

529545.9224377861 1.373561647915141e7 0.0
1.373561647915141e7 -1.6534120464693848e7 0.0
0.0 0.0 0.0

-5.607486069740655e6 2.250228754807012e7 0.0
2.250228754807012e7 5.725804351853669e6 0.0
0.0 0.0 0.0

-6.61435839361898e6 1.5239158768101588e7 0.0
1.5239158768101588e7 1.4597457328743553e6 0.0
0.0 0.0 0.0

-557245.2008597828 2.578351421433435e7 0.0
2.578351421433435e7 -2.4256174027768327e6 0.0
0.0 0.0 0.0

-1.188628357014993e7 2.4822715683060557e7 0.0
2.4822715683060557e7 7.549594203876559e6 0.0
0.0 0.0 0.0

4.388156714236536e6 1.8421538441500757e7 0.0
1.8421538441500757e7 -5.071509073533845e6 0.0
0.0 0.0 0.0

4.016577341383827e6 5.727783753688794e6 0.0
5.727783753688794e6 -1.281158408607723e7 0.0
0.0 0.0 0.0

-2.672130396335162e6 1.4117321165874457e7 0.0
1.4117321165874457e7 -2.2026713374282774e7 0.0
0.0 0.0 0.0

3.4396485029077376e6 4.415057293632446e6 0.0
4.415057293632446e6 -1.1357933160079692e7 0.0
0.0 0.0 0.0

1.4867211799892122e6 1.5493512142011061e7 0.0
1.5493512142011061e7 1.4556921506663946e7 0.0
0.0 0.0 0.0

2.395883847688599e6 1.689579816351636e7 0.0
1.689579816351636e7 -4.574467885826122e6 0.0
0.0 0.0 0.0

2.1703740339298313e6 2.233745115142352e7 0.0
2.233745115142352e7 -4.518030910695492e6 0.0
0.0 0.0 0.0

-1.1902021497718979e7 1.3568002479304748e7 0.0
1.3568002479304748e7 1.846835897778796e7 0.0
0.0 0.0 0.0

139727.25482520973 1.1772192839246912e7 0.0
1.1772192839246912e7 -6.453069763089809e6 0.0
0.0 0.0 0.0

-1.12432373645988e6 6.168613328442859e6 0.0
6.168613328442859e6 5.35987932475199e6 0.0
0.0 0.0 0.0

2.1970078245242443e6 9.53848008399752e6 0.0
9.53848008399752e6 -3.673637982915474e7 0.0
0.0 0.0 0.0

761247.8471594886 1.3103402204760235e7 0.0
1.3103402204760235e7 2.871570774029208e6 0.0
0.0 0.0 0.0

-1.1404249667295145e7 2.252648317177043e7 0.0
2.252648317177043e7 6.357725990890757e6 0.0
0.0 0.0 0.0

-210490.50565598346 1.4018842788177034e7 0.0
1.4018842788177034e7 -1.0015015533256628e7 0.0
0.0 0.0 0.0

1.2899998092223186e7 1.6602484123639256e7 0.0
1.6602484123639256e7 2.7073911633854397e6 0.0
0.0 0.0 0.0

-1.1702805045512354e7 2.828689629771683e6 0.0
2.828689629771683e6 2.2052468412608005e7 0.0
0.0 0.0 0.0

-2.3555296167359803e7 2.1276563181234915e7 0.0
2.1276563181234915e7 5.219790729143909e6 0.0
0.0 0.0 0.0

1.5025462281210875e7 2.3568431927878734e7 0.0
2.3568431927878734e7 -1.3252838765031828e7 0.0
0.0 0.0 0.0

-4.824362710252129e6 2.1191021349394206e7 0.0
2.1191021349394206e7 6.765220576363178e6 0.0
0.0 0.0 0.0

-515744.66677715606 1.196122184949431e7 0.0
1.196122184949431e7 1.1948618115202105e6 0.0
0.0 0.0 0.0

-1.0856864412826974e7 1.3098870484602917e7 0.0
1.3098870484602917e7 2.1326435160499383e7 0.0
0.0 0.0 0.0

-1.01468850499403e7 -4.7077933772797e6 0.0
-4.7077933772797e6 2.0441622586949423e7 0.0
0.0 0.0 0.0

-112619.55800729478 1.4814983249116953e7 0.0
1.4814983249116953e7 -1.1574828264934747e7 0.0
0.0 0.0 0.0

-5.284738375384232e6 2.0068662020965647e7 0.0
2.0068662020965647e7 -5.945754395702508e6 0.0
0.0 0.0 0.0

-470091.3274193695 1.5069102499077834e7 0.0
1.5069102499077834e7 -7.761911489122744e6 0.0
0.0 0.0 0.0

-9.861549694325717e6 8.411402906568253e6 0.0
8.411402906568253e6 3.53572307239027e7 0.0
0.0 0.0 0.0

1.573139698314147e6 1.1981602878976492e7 0.0
1.1981602878976492e7 -1.92221639631103e7 0.0
0.0 0.0 0.0

-6.027119328097474e6 2.0152804454793956e7 0.0
2.0152804454793956e7 -5.692868985300083e6 0.0
0.0 0.0 0.0

630627.2221825654 1.3458156321189346e7 0.0
1.3458156321189346e7 -1.6434293566967506e7 0.0
0.0 0.0 0.0

1.2671561272281304e7 1.6827916007254597e7 0.0
1.6827916007254597e7 5.916144472952062e6 0.0
0.0 0.0 0.0

-1.0870231368464299e7 6.59031342510394e6 0.0
6.59031342510394e6 3.256153988030636e7 0.0
0.0 0.0 0.0

880875.6853946852 1.5112314227527479e7 0.0
1.5112314227527479e7 -1.9334026780717473e6 0.0
0.0 0.0 0.0

-4.274739212033787e6 1.673052154111317e7 0.0
1.673052154111317e7 1.259568581850716e7 0.0
0.0 0.0 0.0

-636683.0072480659 2.1492372897368256e7 0.0
2.1492372897368256e7 -2.9437714991024635e6 0.0
0.0 0.0 0.0

3.6506143759838156e6 8.698052103224337e6 0.0
8.698052103224337e6 -1.9339658388115723e7 0.0
0.0 0.0 0.0

2.2057155797730554e6 8.2347667628724715e6 0.0
8.2347667628724715e6 -8.99021372059394e6 0.0
0.0 0.0 0.0

2.124593464031974e6 9.820462579993568e6 0.0
9.820462579993568e6 -3.2166490732940853e7 0.0
0.0 0.0 0.0

-4.869335143936489e6 1.825169077702103e7 0.0
1.825169077702103e7 -2.5803068660694626e6 0.0
0.0 0.0 0.0

-1.2086315905795319e7 6.165245134402577e6 0.0
6.165245134402577e6 2.8795480551282063e7 0.0
0.0 0.0 0.0

-3.9230168189512272e6 1.8198846659521855e7 0.0
1.8198846659521855e7 -4.57865038172409e6 0.0
0.0 0.0 0.0

-186027.33684680983 1.439406460960563e7 0.0
1.439406460960563e7 -8.063648083139603e6 0.0
0.0 0.0 0.0

3.165083539942799e6 7.928915259974108e6 0.0
7.928915259974108e6 -2.903279347490005e7 0.0
0.0 0.0 0.0

-1.1551622080403142e7 1.1923731980468046e7 0.0
1.1923731980468046e7 2.285550830793246e7 0.0
0.0 0.0 0.0

1.3239975951564624e6 1.4406164097506477e7 0.0
1.4406164097506477e7 6.349400934693792e6 0.0
0.0 0.0 0.0

1.553317249457878e6 1.0893890960512098e7 0.0
1.0893890960512098e7 -2.4577269832703814e7 0.0
0.0 0.0 0.0

4.957460488409721e6 3.7117602671422353e6 0.0
3.7117602671422353e6 -2.2644110880072016e7 0.0
0.0 0.0 0.0

-5.660073732911787e6 1.696132434260569e7 0.0
1.696132434260569e7 1.1368497042016517e7 0.0
0.0 0.0 0.0

-3.9721318201550627e6 1.9169263408163924e7 0.0
1.9169263408163924e7 -5.02669702122981e6 0.0
0.0 0.0 0.0

1.4807330995240272e6 1.1144604149496347e7 0.0
1.1144604149496347e7 -1.0095043278394071e7 0.0
0.0 0.0 0.0

-1.0900380653764803e7 -385473.49587009865 0.0
-385473.49587009865 2.6727256510681782e7 0.0
0.0 0.0 0.0

-200231.32342137824 3.1448402945652963e6 0.0
3.1448402945652963e6 -54518.832213779315 0.0
0.0 0.0 0.0

-8.354043597578067e6 1.5258929836153418e7 0.0
1.5258929836153418e7 1.3283776403863583e7 0.0
0.0 0.0 0.0

1.3474571778214976e7 1.83908513307583e7 0.0
1.83908513307583e7 7.424379201432766e6 0.0
0.0 0.0 0.0

9.634304982405707e6 1.7514020556674875e7 0.0
1.7514020556674875e7 6.771853593003978e6 0.0
0.0 0.0 0.0

-7.817622638399037e6 1.89853774099179e7 0.0
1.89853774099179e7 -5.097608268968861e6 0.0
0.0 0.0 0.0

-1.883795715423283e6 1.2337469847455993e7 0.0
1.2337469847455993e7 -8.850287766415339e6 0.0
0.0 0.0 0.0

-4.0758673853828562e6 1.895453330374576e7 0.0
1.895453330374576e7 -5.252202302478677e6 0.0
0.0 0.0 0.0

-6.7955822871010685e6 1.8614719305025283e7 0.0
1.8614719305025283e7 -2.2411596812954387e6 0.0
0.0 0.0 0.0

2.058598020178346e6 1.0213845031437438e7 0.0
1.0213845031437438e7 -2.8966805901829917e7 0.0
0.0 0.0 0.0

270343.43392614624 4.363800395601042e6 0.0
4.363800395601042e6 -3.4405109496742655e6 0.0
0.0 0.0 0.0

154382.1236926394 6.244740233325958e6 0.0
6.244740233325958e6 -2.217515989980938e6 0.0
0.0 0.0 0.0

351024.96982905484 1.3804542950121367e7 0.0
1.3804542950121367e7 355655.64943884336 0.0
0.0 0.0 0.0

8.704002180705315e6 1.8127849253350195e7 0.0
1.8127849253350195e7 8.16580864566772e6 0.0
0.0 0.0 0.0

-225686.8517542004 1.3429504283625951e7 0.0
1.3429504283625951e7 4.351467183951078e6 0.0
0.0 0.0 0.0

-6.578138106060888e6 1.622260972968771e7 0.0
1.622260972968771e7 1.140685844535976e7 0.0
0.0 0.0 0.0

-2.099494715024279e7 7.170102259093573e6 0.0
7.170102259093573e6 1.0822791432932677e7 0.0
0.0 0.0 0.0

579575.5005096174 1.4464279517522264e7 0.0
1.4464279517522264e7 5.126539332912835e6 0.0
0.0 0.0 0.0

3.295920635047715e6 6.048140309019695e6 0.0
6.048140309019695e6 -1.33061606946771e7 0.0
0.0 0.0 0.0

-1.1322902798708685e7 2.3670705224819988e7 0.0
2.3670705224819988e7 6.980370732427159e6 0.0
0.0 0.0 0.0

-1.0484037042147478e7 -2.1482685754061993e6 0.0
-2.1482685754061993e6 2.8504528338773604e7 0.0
0.0 0.0 0.0

-829455.2535091783 1.5915714146705238e7 0.0
1.5915714146705238e7 -6.053810895123278e6 0.0
0.0 0.0 0.0

2.137152841220932e6 1.755202594562532e7 0.0
1.755202594562532e7 1.0501326057738347e7 0.0
0.0 0.0 0.0

-4.316864648345475e6 1.9043846392235756e7 0.0
1.9043846392235756e7 -4.745752818091796e6 0.0
0.0 0.0 0.0

-724729.5293244077 1.3241315690950869e7 0.0
1.3241315690950869e7 -1.923505877230574e7 0.0
0.0 0.0 0.0

1.0093007807085093e7 1.830222169998805e7 0.0
1.830222169998805e7 7.950902407332649e6 0.0
0.0 0.0 0.0

-1.0045080036556087e6 1.4210585684103506e7 0.0
1.4210585684103506e7 -1.4829964931087801e7 0.0
0.0 0.0 0.0

88621.84403919335 1.5108564774654448e7 0.0
1.5108564774654448e7 6.39419394686449e6 0.0
0.0 0.0 0.0

65427.28182065813 1.6560768855958499e7 0.0
1.6560768855958499e7 1.0682489291743357e7 0.0
0.0 0.0 0.0

-4.788566089824383e6 1.67121505317299e7 0.0
1.67121505317299e7 1.1615884754870607e7 0.0
0.0 0.0 0.0

-2.9458118628091e6 1.6496502983647445e7 0.0
1.6496502983647445e7 7.20029182326996e6 0.0
0.0 0.0 0.0

4.327668415255e6 5.563062832546419e6 0.0
5.563062832546419e6 -2.2067864708401203e7 0.0
0.0 0.0 0.0

-2.01425317647604e6 2.2943601301707204e7 0.0
2.2943601301707204e7 -150712.18578190106 0.0
0.0 0.0 0.0

-3.777732053021349e6 1.5773435753475145e7 0.0
1.5773435753475145e7 -7.368374389659066e6 0.0
0.0 0.0 0.0

1.6380694890357332e7 1.5310805466640117e7 0.0
1.5310805466640117e7 4.5933526120873615e6 0.0
0.0 0.0 0.0

-7.157980673541678e6 2.2023004014286254e7 0.0
2.2023004014286254e7 6.352248163541768e6 0.0
0.0 0.0 0.0

4.80749223544367e6 4.821179010379241e6 0.0
4.821179010379241e6 -2.5055878754266933e7 0.0
0.0 0.0 0.0

-4.468058511359613e6 1.4855264677514195e7 0.0
1.4855264677514195e7 4.42725165595618e6 0.0
0.0 0.0 0.0

7.722709849496203e6 1.5909041026201447e7 0.0
1.5909041026201447e7 3.7198928181319805e6 0.0
0.0 0.0 0.0

2.2261816595372364e7 1.3476457535643967e7 0.0
1.3476457535643967e7 1.2789415336019956e6 0.0
0.0 0.0 0.0

-4.901841014078939e6 2.4303162492360536e7 0.0
2.4303162492360536e7 5.041655356101625e6 0.0
0.0 0.0 0.0

420495.8230720768 1.5169157791921996e7 0.0
1.5169157791921996e7 -1.2671074310478892e7 0.0
0.0 0.0 0.0

-9.209704911852892e6 6.555971478050717e6 0.0
6.555971478050717e6 1.4040364678710422e7 0.0
0.0 0.0 0.0

-1.072051719597323e7 -2.2375314054044746e6 0.0
-2.2375314054044746e6 2.69441266345388e7 0.0
0.0 0.0 0.0

681983.5653815593 1.4260778620400306e7 0.0
1.4260778620400306e7 3.320038817486132e6 0.0
0.0 0.0 0.0

5.425165586736983e6 1.5203187623219235e7 0.0
1.5203187623219235e7 8.839142911128864e6 0.0
0.0 0.0 0.0

-1.1502271753592163e7 635494.9583331653 0.0
635494.9583331653 2.0790015472948104e7 0.0
0.0 0.0 0.0

-2.1954155157553917e6 1.0274817834526015e7 0.0
1.0274817834526015e7 -2.6482607100040596e6 0.0
0.0 0.0 0.0

-2.2292172963695535e6 1.6159673630406762e7 0.0
1.6159673630406762e7 -8.429697688165516e6 0.0
0.0 0.0 0.0

-1.5171528091019327e6 1.3414048885225331e7 0.0
1.3414048885225331e7 -1.7850794096819013e7 0.0
0.0 0.0 0.0

-2.4826058039652077e6 2.2515224542077567e7 0.0
2.2515224542077567e7 154124.95170958526 0.0
0.0 0.0 0.0

-418359.82818621804 2.190139927219922e7 0.0
2.190139927219922e7 -3.284205224764413e6 0.0
0.0 0.0 0.0

-1.3486667397704353e6 2.777224253748051e7 0.0
2.777224253748051e7 -2.518314725460677e6 0.0
0.0 0.0 0.0

-1.2260445109786306e7 2.760515875501967e7 0.0
2.760515875501967e7 7.49506496120834e6 0.0
0.0 0.0 0.0

3.596009805440357e6 1.5555262553826598e7 0.0
1.5555262553826598e7 1.4115607510185901e7 0.0
0.0 0.0 0.0

-3.0092716174589563e6 1.4544202435544504e7 0.0
1.4544202435544504e7 -4.637809179646997e7 0.0
0.0 0.0 0.0

-9.109420781036187e6 -2.437217379888027e6 0.0
-2.437217379888027e6 1.2269129392419398e7 0.0
0.0 0.0 0.0

-5.290742307767646e6 1.3281804922591474e7 0.0
1.3281804922591474e7 -1.9681523946449548e7 0.0
0.0 0.0 0.0

-2.323197068517718e6 1.176841036132758e7 0.0
1.176841036132758e7 -9.653939306559749e6 0.0
0.0 0.0 0.0

2.4613579141047494e6 1.5996044978681661e7 0.0
1.5996044978681661e7 1.4096941526416393e7 0.0
0.0 0.0 0.0

-4.683868179592406e6 1.4423635476263668e7 0.0
1.4423635476263668e7 -2.3736686416150045e7 0.0
0.0 0.0 0.0

-3.589096239323334e6 1.317556914195477e7 0.0
1.317556914195477e7 -1.7267834752583086e7 0.0
0.0 0.0 0.0

8.319512578950256e6 1.8134215742385104e7 0.0
1.8134215742385104e7 6.879329627128869e6 0.0
0.0 0.0 0.0

-3.7799649818306756e6 1.6599667170016568e7 0.0
1.6599667170016568e7 -6.492320048423586e6 0.0
0.0 0.0 0.0

3.842841192490911e6 8.114988336278774e6 0.0
8.114988336278774e6 -2.1484702351028346e7 0.0
0.0 0.0 0.0

363219.9059027735 1.4265488027959207e7 0.0
1.4265488027959207e7 1.5502633602916885e6 0.0
0.0 0.0 0.0

-6.16822753098787e6 1.9715245990496676e7 0.0
1.9715245990496676e7 -5.392363353678963e6 0.0
0.0 0.0 0.0

1.5562136967802327e6 1.4621931875832293e7 0.0
1.4621931875832293e7 8.706500264838487e6 0.0
0.0 0.0 0.0

3.5838404014315363e6 4.473089813066202e6 0.0
4.473089813066202e6 -1.1572236136618411e7 0.0
0.0 0.0 0.0

-3.7146309463850255e6 2.0372359745914217e7 0.0
2.0372359745914217e7 1.166814548232599e6 0.0
0.0 0.0 0.0

-4.1156509918742646e6 2.2872676772536684e7 0.0
2.2872676772536684e7 3.2740540631937818e6 0.0
0.0 0.0 0.0

-1.1829945885350805e7 1.1849948311577976e7 0.0
1.1849948311577976e7 2.1671716514385674e7 0.0
0.0 0.0 0.0

390368.84271410643 1.4213046292204777e7 0.0
1.4213046292204777e7 5.7325523544784915e6 0.0
0.0 0.0 0.0

982145.9722988489 1.6997581148677353e7 0.0
1.6997581148677353e7 1.1421355820873754e7 0.0
0.0 0.0 0.0

-4.1846050171630397e6 2.5165537544894617e7 0.0
2.5165537544894617e7 3.9653052515346482e6 0.0
0.0 0.0 0.0

-6.393336681985046e6 1.6170596104719717e7 0.0
1.6170596104719717e7 1.2071089543561451e7 0.0
0.0 0.0 0.0

-9.04784928621085e6 -4.812455342826884e6 0.0
-4.812455342826884e6 1.513997085937925e7 0.0
0.0 0.0 0.0

-3.846625629398197e6 2.2888535152707357e7 0.0
2.2888535152707357e7 4.2289639188129585e6 0.0
0.0 0.0 0.0

-2.5834894407870905e6 1.9708654509109262e7 0.0
1.9708654509109262e7 -1.2262760346654826e6 0.0
0.0 0.0 0.0

-4.695645014222561e6 1.6021000301326282e7 0.0
1.6021000301326282e7 1.946718617863732e6 0.0
0.0 0.0 0.0

-2.2122074333170946e6 2.270614396022299e7 0.0
2.270614396022299e7 -224596.59344136075 0.0
0.0 0.0 0.0

-2.163104198185683e6 2.2381880054880593e7 0.0
2.2381880054880593e7 -39324.76204516296 0.0
0.0 0.0 0.0

-1.2391951559158983e6 1.5355253370319199e7 0.0
1.5355253370319199e7 -6.836491847959105e6 0.0
0.0 0.0 0.0

2.0719448272974107e6 1.488484900355645e7 0.0
1.488484900355645e7 6.906483446631313e6 0.0
0.0 0.0 0.0

3.4187758662025966e6 8.070846075388814e6 0.0
8.070846075388814e6 -2.037761210445685e7 0.0
0.0 0.0 0.0

-6.629575619300529e6 1.448826227945488e7 0.0
1.448826227945488e7 -2.713759017587539e7 0.0
0.0 0.0 0.0

-2.714506464061669e6 1.7191557547976404e7 0.0
1.7191557547976404e7 2.145591698753369e6 0.0
0.0 0.0 0.0

-2.2378934898081813e7 2.5280517431496806e7 0.0
2.5280517431496806e7 -4.879028756254662e6 0.0
0.0 0.0 0.0

-4.198229154901155e6 1.3673521584425911e7 0.0
1.3673521584425911e7 -1.666781744781803e7 0.0
0.0 0.0 0.0

-2.489848235525385e7 2.4217952114985663e7 0.0
2.4217952114985663e7 -620400.8941171588 0.0
0.0 0.0 0.0

-4.493004049337614e6 1.7809008451693177e7 0.0
1.7809008451693177e7 8.738469152434591e6 0.0
0.0 0.0 0.0

-1.0049614069940181e7 -2.914947098162411e6 0.0
-2.914947098162411e6 3.1788393473846365e7 0.0
0.0 0.0 0.0

-1.1232188256402747e6 2.1428086802702762e7 0.0
2.1428086802702762e7 -2.8162896060904306e6 0.0
0.0 0.0 0.0

-7.920981648483685e6 2.0378509001743715e7 0.0
2.0378509001743715e7 -5.442489195570899e6 0.0
0.0 0.0 0.0

176515.07543287473 1.5540376727094082e7 0.0
1.5540376727094082e7 -1.1725781798729789e7 0.0
0.0 0.0 0.0

-9.198149489169747e6 2.3839780067822825e7 0.0
2.3839780067822825e7 6.616603752555028e6 0.0
0.0 0.0 0.0

-1.139347363257498e7 3.5065216707550795e6 0.0
3.5065216707550795e6 1.6668734613789756e7 0.0
0.0 0.0 0.0

3.273254263046762e6 8.719137652015617e6 0.0
8.719137652015617e6 -2.4868268163869094e7 0.0
0.0 0.0 0.0

-1.1954826101658847e7 2.3543345451365497e7 0.0
2.3543345451365497e7 6.858647759537413e6 0.0
0.0 0.0 0.0

338878.9634555703 1.4799212605672019e7 0.0
1.4799212605672019e7 2.8292626058503287e6 0.0
0.0 0.0 0.0

-1.0927888587643843e7 5.54752148484073e6 0.0
5.54752148484073e6 1.2688201329487134e7 0.0
0.0 0.0 0.0

-786190.0780633292 1.4585423551314931e7 0.0
1.4585423551314931e7 -8.331511024454856e6 0.0
0.0 0.0 0.0

-886150.4633172993 2.0469931622405145e7 0.0
2.0469931622405145e7 -3.608119676333467e6 0.0
0.0 0.0 0.0

-2.1607095817831762e7 7.533970740381913e6 0.0
7.533970740381913e6 1.0098029502961744e7 0.0
0.0 0.0 0.0

-5.520229156059557e6 2.2135390719518688e7 0.0
2.2135390719518688e7 6.228597534562911e6 0.0
0.0 0.0 0.0

261210.80546290614 1.4870664096879879e7 0.0
1.4870664096879879e7 -1.3448154627121516e7 0.0
0.0 0.0 0.0

3.2710763314920645e6 8.258518144474277e6 0.0
8.258518144474277e6 -1.825460116065456e7 0.0
0.0 0.0 0.0

844840.0848330925 4.831970781320194e6 0.0
4.831970781320194e6 -4.780357609843898e6 0.0
0.0 0.0 0.0

1.154413956342808e6 1.3683694508484554e7 0.0
1.3683694508484554e7 -1.439678458456209e7 0.0
0.0 0.0 0.0

-1.2544724700050758e7 2.0096567067280713e7 0.0
2.0096567067280713e7 -1.458802530592795e6 0.0
0.0 0.0 0.0

415967.7435116003 2.7475188394098893e7 0.0
2.7475188394098893e7 -1.8952757339764454e6 0.0
0.0 0.0 0.0

-2.338385299557437e6 1.599656404045933e7 0.0
1.599656404045933e7 1.810374071488059e7 0.0
0.0 0.0 0.0

785398.4118394419 1.4725924052118964e7 0.0
1.4725924052118964e7 6.908047140296521e6 0.0
0.0 0.0 0.0

3.7510132315636515e6 1.4107949457006253e7 0.0
1.4107949457006253e7 1.3392496607060127e7 0.0
0.0 0.0 0.0

-2.617363372719398e6 1.5094119196260385e7 0.0
1.5094119196260385e7 -8.724544696431652e6 0.0
0.0 0.0 0.0

-1.1940169028004855e7 1.1541942724727403e7 0.0
1.1541942724727403e7 2.2065019259650294e7 0.0
0.0 0.0 0.0

-1.282617531304656e6 1.3214826721600223e7 0.0
1.3214826721600223e7 -1.0137977898156518e7 0.0
0.0 0.0 0.0

-2.129704430780406e7 2.4792949977483407e7 0.0
2.4792949977483407e7 1.0108446871357214e7 0.0
0.0 0.0 0.0

-1.1230386185650757e7 885332.9879154346 0.0
885332.9879154346 2.542794401158763e7 0.0
0.0 0.0 0.0

-1.0203403517407253e7 -2.8003825132218697e6 0.0
-2.8003825132218697e6 3.2418875589624546e7 0.0
0.0 0.0 0.0

1.1147829928071671e6 1.1017641489902781e7 0.0
1.1017641489902781e7 -1.1387398507732563e7 0.0
0.0 0.0 0.0

-896979.6432007104 1.5195689790264685e6 0.0
1.5195689790264685e6 579749.2702928439 0.0
0.0 0.0 0.0

2.8120236973829903e6 8.628023343804194e6 0.0
8.628023343804194e6 -3.056509186664483e7 0.0
0.0 0.0 0.0

-1.1642605373291025e7 9.223960648685375e6 0.0
9.223960648685375e6 2.6620813315257937e7 0.0
0.0 0.0 0.0

2.069877916338713e6 1.0345605410352554e7 0.0
1.0345605410352554e7 -2.4422031353542913e7 0.0
0.0 0.0 0.0

-9.58651116397465e6 -3.1286206052004546e6 0.0
-3.1286206052004546e6 1.9959182278850995e7 0.0
0.0 0.0 0.0

-4.1262715781466765e6 2.1172312359567422e7 0.0
2.1172312359567422e7 3.2838410216336465e6 0.0
0.0 0.0 0.0

-549792.5027534713 2.0793817175175738e7 0.0
2.0793817175175738e7 -3.594650965639592e6 0.0
0.0 0.0 0.0

-4.0443443672889145e6 2.380918179358076e7 0.0
2.380918179358076e7 2.9508337165049156e6 0.0
0.0 0.0 0.0

-1.2929736066324601e6 2.693220880593229e7 0.0
2.693220880593229e7 -965961.0203962339 0.0
0.0 0.0 0.0

-1.9029051447585726e6 2.4737074229121614e7 0.0
2.4737074229121614e7 -399653.979240351 0.0
0.0 0.0 0.0

-1.0784256467883937e7 -2.3032640825257194e6 0.0
-2.3032640825257194e6 2.57984408820661e7 0.0
0.0 0.0 0.0

4.502296265862869e6 5.071050936251632e6 0.0
5.071050936251632e6 -2.672288478411387e7 0.0
0.0 0.0 0.0

326533.2506768983 1.575871408347359e7 0.0
1.575871408347359e7 -9.30869507201229e6 0.0
0.0 0.0 0.0

-1.094801841127092e6 1.7225951978741016e7 0.0
1.7225951978741016e7 -6.479902510665999e6 0.0
0.0 0.0 0.0

2.684213386475417e6 1.0124249313514521e7 0.0
1.0124249313514521e7 -1.534199838482745e7 0.0
0.0 0.0 0.0

-3.637343727222476e6 1.2318497653741002e7 0.0
1.2318497653741002e7 -1.3686976019762723e7 0.0
0.0 0.0 0.0

632729.3585235997 1.357777664373029e7 0.0
1.357777664373029e7 2.1090979371583876e6 0.0
0.0 0.0 0.0

-4.907841141689509e6 1.917829814055635e7 0.0
1.917829814055635e7 6.985798820988226e6 0.0
0.0 0.0 0.0

-7.582166135969304e6 2.2633178660585392e7 0.0
2.2633178660585392e7 6.056526217318757e6 0.0
0.0 0.0 0.0

-1.3001926603326246e6 1.2850574365008606e7 0.0
1.2850574365008606e7 -5.846241721063145e6 0.0
0.0 0.0 0.0

-955254.025859089 1.0479778364134233e7 0.0
1.0479778364134233e7 -2.8918582921794886e6 0.0
0.0 0.0 0.0

4.879403124559714e6 4.1332194450419466e6 0.0
4.1332194450419466e6 -2.183913566508329e7 0.0
0.0 0.0 0.0

1.1288617189071414e6 1.5360047240632731e7 0.0
1.5360047240632731e7 -5.675771007203249e6 0.0
0.0 0.0 0.0

3.231121940714377e6 8.5327518611608e6 0.0
8.5327518611608e6 -1.948404863408704e7 0.0
0.0 0.0 0.0

-1.6398720120311538e6 7.035294099075809e6 0.0
7.035294099075809e6 -1.9324983102723479e6 0.0
0.0 0.0 0.0

-942946.1560654676 9.571283693347745e6 0.0
9.571283693347745e6 -4.69829233146156e6 0.0
0.0 0.0 0.0

-448555.5710571243 3.907865578342017e6 0.0
3.907865578342017e6 -2.0262556283490588e6 0.0
0.0 0.0 0.0

-3.807389991023938e6 1.9549080787985723e7 0.0
1.9549080787985723e7 3.2221288308541263e6 0.0
0.0 0.0 0.0

633186.4219655395 1.402422276931293e7 0.0
1.402422276931293e7 -1.5397130181077084e7 0.0
0.0 0.0 0.0

2.4076378361507934e6 8.476001391503632e6 0.0
8.476001391503632e6 -3.495545933397451e7 0.0
0.0 0.0 0.0

-3.4166032832787666e6 1.7691736603592724e7 0.0
1.7691736603592724e7 -3.7719684465229847e6 0.0
0.0 0.0 0.0

-1.5014528475982947e7 2.311419493992287e7 0.0
2.311419493992287e7 -5.619434971115969e6 0.0
0.0 0.0 0.0

-1.5275758769657977e7 2.2747271882141776e7 0.0
2.2747271882141776e7 6.81928941584563e6 0.0
0.0 0.0 0.0

-5.340589772915114e6 1.9808683410049938e7 0.0
1.9808683410049938e7 -5.869521319521859e6 0.0
0.0 0.0 0.0

-1.4633842007684745e6 1.3114400285175858e7 0.0
1.3114400285175858e7 -2.311716137918095e7 0.0
0.0 0.0 0.0

-5.089645889289326e6 1.3376300036702037e7 0.0
1.3376300036702037e7 -1.6965486938177954e7 0.0
0.0 0.0 0.0

-1.0745421799085759e7 2.1424016635262866e7 0.0
2.1424016635262866e7 -5.294737063832918e6 0.0
0.0 0.0 0.0

-6.988390947641891e6 1.4448403853127027e7 0.0
1.4448403853127027e7 -2.3294637436930154e7 0.0
0.0 0.0 0.0

-9.724494783080164e6 1.5139344372183165e7 0.0
1.5139344372183165e7 1.6029209715523992e7 0.0
0.0 0.0 0.0

-9.387563083473125e6 -1.2357699296297384e6 0.0
-1.2357699296297384e6 1.24048049979094e7 0.0
0.0 0.0 0.0

-2.531382901296518e6 1.9425020146649837e7 0.0
1.9425020146649837e7 -2.4190945341144428e6 0.0
0.0 0.0 0.0

-6.021821592311436e6 1.7281470845885918e7 0.0
1.7281470845885918e7 1.013804807831169e7 0.0
0.0 0.0 0.0

-9.844246527057566e6 -3.850814810388986e6 0.0
-3.850814810388986e6 1.6005019567772433e7 0.0
0.0 0.0 0.0

1.9566330605687927e6 1.1750165561362304e7 0.0
1.1750165561362304e7 -1.8886705571858183e7 0.0
0.0 0.0 0.0

-3.608517887555863e6 1.9988103217619576e7 0.0
1.9988103217619576e7 374683.0341647761 0.0
0.0 0.0 0.0

97751.83527278167 1.4120057538136458e7 0.0
1.4120057538136458e7 -1.6262031627690268e6 0.0
0.0 0.0 0.0

-4.708207148185006e6 2.1011872126324818e7 0.0
2.1011872126324818e7 5.474385430563817e6 0.0
0.0 0.0 0.0

-1.0109672106360579e7 2.1975450439806715e7 0.0
2.1975450439806715e7 -5.596089237301971e6 0.0
0.0 0.0 0.0

-5.660498087549163e6 1.373077146782769e7 0.0
1.373077146782769e7 -1.886832758608217e7 0.0
0.0 0.0 0.0

840117.0002478105 1.7304465006813105e7 0.0
1.7304465006813105e7 1.2190782052647019e7 0.0
0.0 0.0 0.0

-2.0124819579146862e7 2.251121494823699e7 0.0
2.251121494823699e7 7.126834572507759e6 0.0
0.0 0.0 0.0

-8.134101328133428e6 5.956517464443694e6 0.0
5.956517464443694e6 1.2957165093402006e7 0.0
0.0 0.0 0.0

-1.1215149986483974e7 7.258024045622301e6 0.0
7.258024045622301e6 3.392843567999066e7 0.0
0.0 0.0 0.0

-1.075211750928686e6 1.5592241551131496e7 0.0
1.5592241551131496e7 -6.579851384801575e6 0.0
0.0 0.0 0.0

-1.165561005624403e6 2.457448323019347e7 0.0
2.457448323019347e7 -1.3747004124797916e6 0.0
0.0 0.0 0.0

3.740223117207651e6 1.4601915691995556e7 0.0
1.4601915691995556e7 1.2467410511034563e7 0.0
0.0 0.0 0.0

1.2975291270486383e7 1.587961298197153e7 0.0
1.587961298197153e7 3.3369149522410394e6 0.0
0.0 0.0 0.0

-7.559553235277143e6 2.0791214257395517e7 0.0
2.0791214257395517e7 -5.808614619637047e6 0.0
0.0 0.0 0.0

-314298.86660212884 2.3033141357353568e7 0.0
2.3033141357353568e7 -2.8392340623849295e6 0.0
0.0 0.0 0.0

5.349655776079867e6 1.4288390845619477e7 0.0
1.4288390845619477e7 2.1320001828365345e7 0.0
0.0 0.0 0.0

4.1573252492766976e6 6.372908961386976e6 0.0
6.372908961386976e6 -3.353211345891006e7 0.0
0.0 0.0 0.0

-5.415927817735033e6 2.1558000305943552e7 0.0
2.1558000305943552e7 6.601889356443552e6 0.0
0.0 0.0 0.0

170594.5944381161 1.3139258183094313e7 0.0
1.3139258183094313e7 -669697.453989291 0.0
0.0 0.0 0.0

-7.814838031734375e6 1.5073773792005083e7 0.0
1.5073773792005083e7 -2.604946147672267e7 0.0
0.0 0.0 0.0

-2.9281847295974283e6 1.7684820048403695e7 0.0
1.7684820048403695e7 -1.5556418166023712e6 0.0
0.0 0.0 0.0

5.082847973854935e6 3.6858068418191005e6 0.0
3.6858068418191005e6 -2.8914072775255717e7 0.0
0.0 0.0 0.0

-1.4706198915612171e6 1.6406160133134743e7 0.0
1.6406160133134743e7 -6.711619729761003e6 0.0
0.0 0.0 0.0

592190.0440716273 1.7686101902623687e7 0.0
1.7686101902623687e7 -6.5309077354254015e6 0.0
0.0 0.0 0.0

1.2139047347894859e7 1.6875321830503684e7 0.0
1.6875321830503684e7 -4.399262811430678e6 0.0
0.0 0.0 0.0

-1.098158166360485e7 1.365942779502203e7 0.0
1.365942779502203e7 1.6281539380487364e7 0.0
0.0 0.0 0.0

-2.3391638886725167e6 1.2897983505619554e7 0.0
1.2897983505619554e7 -111148.42364624015 0.0
0.0 0.0 0.0

-4.105973773102635e6 1.8911752335379377e7 0.0
1.8911752335379377e7 -5.540760451674903e6 0.0
0.0 0.0 0.0

-2.82327632755013e6 1.959388142457773e7 0.0
1.959388142457773e7 -1.9293505739940437e6 0.0
0.0 0.0 0.0

-1.0435772792645233e7 -186271.5798769527 0.0
-186271.5798769527 3.45593860664261e7 0.0
0.0 0.0 0.0

-1.232602476545984e6 1.4069868707333464e7 0.0
1.4069868707333464e7 -6.257577066851507e6 0.0
0.0 0.0 0.0

-8.58565925876796e6 2.291786622903505e7 0.0
2.291786622903505e7 6.488344994732928e6 0.0
0.0 0.0 0.0

1.721362661332427e6 7.660129106166875e6 0.0
7.660129106166875e6 -9.858577017100139e6 0.0
0.0 0.0 0.0

3.189750321137092e6 1.6994610537709575e7 0.0
1.6994610537709575e7 1.118104914757404e7 0.0
0.0 0.0 0.0

-3.0686871675265886e7 2.244989135507279e7 0.0
2.244989135507279e7 8.319557835876208e6 0.0
0.0 0.0 0.0

1.0271794038821161e6 1.3231346201468168e7 0.0
1.3231346201468168e7 4.42492875287185e6 0.0
0.0 0.0 0.0

3.7252913356833532e6 6.620629405671061e6 0.0
6.620629405671061e6 -1.2408927556271872e7 0.0
0.0 0.0 0.0

-656143.416041716 1.689844218650129e7 0.0
1.689844218650129e7 1.4513739323818985e7 0.0
0.0 0.0 0.0

-1.2242781684778705e6 1.913980903033059e7 0.0
1.913980903033059e7 -4.859672669742305e6 0.0
0.0 0.0 0.0

8.966628475663109e6 2.2789796791777477e7 0.0
2.2789796791777477e7 -6.8412941436632965e6 0.0
0.0 0.0 0.0

-2.616820377076756e6 1.2268831038370142e7 0.0
1.2268831038370142e7 -8.722734999726329e6 0.0
0.0 0.0 0.0

-4.800369517178381e6 1.3420500374401733e7 0.0
1.3420500374401733e7 5.413763436740903e6 0.0
0.0 0.0 0.0

1.1421835812993273e6 7.689982845280949e6 0.0
7.689982845280949e6 -8.62005396961881e6 0.0
0.0 0.0 0.0

-2.1553694834994874e6 1.4084298136046527e7 0.0
1.4084298136046527e7 -1.702440902663461e7 0.0
0.0 0.0 0.0

-883043.1641644121 1.661159892481917e7 0.0
1.661159892481917e7 -7.080890916665695e6 0.0
0.0 0.0 0.0

7.225475262463484e6 1.8240749374180526e7 0.0
1.8240749374180526e7 7.999137138774298e6 0.0
0.0 0.0 0.0

-4.536467238232482e6 1.8634013181485247e7 0.0
1.8634013181485247e7 -4.824022952684985e6 0.0
0.0 0.0 0.0

457785.149182559 1.764132548380597e7 0.0
1.764132548380597e7 -6.421051792450553e6 0.0
0.0 0.0 0.0

-6.919559356759546e6 1.7465023105709448e6 0.0
1.7465023105709448e6 1.1366015888556376e7 0.0
0.0 0.0 0.0

-1.3158006381391669e6 4.47733020410447e6 0.0
4.47733020410447e6 3.7340373034323407e6 0.0
0.0 0.0 0.0

4.453190569065655e6 1.716105154636471e7 0.0
1.716105154636471e7 -3.5334749801698e6 0.0
0.0 0.0 0.0

707577.3332102131 1.3814449582884088e7 0.0
1.3814449582884088e7 3.9263262069621217e6 0.0
0.0 0.0 0.0

3.0273991782663107e7 1.4209309988212185e7 0.0
1.4209309988212185e7 3.9650391456503347e6 0.0
0.0 0.0 0.0

-1.0201462770865958e7 -3.9660436407823726e6 0.0
-3.9660436407823726e6 1.851254545627129e7 0.0
0.0 0.0 0.0

-9.226285348601868e6 2.0156040921933517e7 0.0
2.0156040921933517e7 -4.0953835929712225e6 0.0
0.0 0.0 0.0

-1.1087807279302869e7 1.958139021502958e7 0.0
1.958139021502958e7 1.6515213208901458e6 0.0
0.0 0.0 0.0

-2.043917561753092e7 2.0784731378796365e7 0.0
2.0784731378796365e7 -4.1840778025376066e6 0.0
0.0 0.0 0.0

2.2711378785332505e7 5.602466469789362e6 0.0
5.602466469789362e6 -3.111756992165859e6 0.0
0.0 0.0 0.0

-9.934160590484269e6 6.33087138548931e6 0.0
6.33087138548931e6 4.036471128523269e7 0.0
0.0 0.0 0.0

-1.0965070175064548e6 9.919908148124604e6 0.0
9.919908148124604e6 -2.1052013534584204e6 0.0
0.0 0.0 0.0

-8.56935784310045e6 2.006342886965739e7 0.0
2.006342886965739e7 -5.082966381093945e6 0.0
0.0 0.0 0.0

-4.560237702235738e6 2.1195212433852054e7 0.0
2.1195212433852054e7 6.38169392035207e6 0.0
0.0 0.0 0.0

-1.2056631477234827e6 1.6326094281697966e7 0.0
1.6326094281697966e7 -7.990739482692882e6 0.0
0.0 0.0 0.0

1.4019054105762853e6 1.1594041027409855e7 0.0
1.1594041027409855e7 -1.2031909626396248e7 0.0
0.0 0.0 0.0

-74249.01258129254 1.396147792411478e7 0.0
1.396147792411478e7 -4.416262389984294e6 0.0
0.0 0.0 0.0

-4.365616565443278e6 1.2889633753490336e7 0.0
1.2889633753490336e7 -1.762161257983266e7 0.0
0.0 0.0 0.0

-4.813107976420562e6 1.5333532694710014e7 0.0
1.5333532694710014e7 -3.8166216133254014e7 0.0
0.0 0.0 0.0

7.030310816005187e6 5.352385164494717e6 0.0
5.352385164494717e6 -1.7111050513738934e6 0.0
0.0 0.0 0.0

2.0188955324206725e6 2.3601392962705474e7 0.0
2.3601392962705474e7 -4.423052446231074e6 0.0
0.0 0.0 0.0

-3.9256936062612864e6 1.2858800013718925e7 0.0
1.2858800013718925e7 -1.3085646108155604e7 0.0
0.0 0.0 0.0

9.608240416222768e6 1.4226495238130381e7 0.0
1.4226495238130381e7 3.7882838158095363e6 0.0
0.0 0.0 0.0

238815.01637532073 1.3798596809032084e7 0.0
1.3798596809032084e7 -6.176154123561831e6 0.0
0.0 0.0 0.0

-2.3334181093208254e6 1.9164925798796132e7 0.0
1.9164925798796132e7 -2.2222580274249646e6 0.0
0.0 0.0 0.0

-2.2876732292444864e6 1.3510270347162947e7 0.0
1.3510270347162947e7 -1.1805494711509308e7 0.0
0.0 0.0 0.0

-1.7091273531932443e7 1.3485267873672541e7 0.0
1.3485267873672541e7 7.832679548776684e6 0.0
0.0 0.0 0.0

-5.739207707693467e6 -1.3015409955780895e6 0.0
-1.3015409955780895e6 6.4386961088915095e6 0.0
0.0 0.0 0.0

-8.809665431848854e6 1.461108988087609e7 0.0
1.461108988087609e7 1.5790816107766028e7 0.0
0.0 0.0 0.0

-730394.4008600605 1.2595855790738769e7 0.0
1.2595855790738769e7 1.2321444195745331e6 0.0
0.0 0.0 0.0

-4.297672538526973e6 1.4733095505524142e7 0.0
1.4733095505524142e7 -9.84612738414328e6 0.0
0.0 0.0 0.0

-922606.8271179668 1.4914118079869952e7 0.0
1.4914118079869952e7 -5.820268590088945e6 0.0
0.0 0.0 0.0

-1.9866983346372386e6 1.0811095144271327e7 0.0
1.0811095144271327e7 -3.391388954812409e6 0.0
0.0 0.0 0.0

1.408240567145586e7 1.6967991912827592e7 0.0
1.6967991912827592e7 -4.311863797020826e6 0.0
0.0 0.0 0.0

-8.637467935589457e6 2.484003638401619e7 0.0
2.484003638401619e7 6.77027914554783e6 0.0
0.0 0.0 0.0

1.6848472573932512e6 1.8349778434696145e7 0.0
1.8349778434696145e7 -5.285684320077774e6 0.0
0.0 0.0 0.0

-2.1803291410901053e6 1.694941098714155e7 0.0
1.694941098714155e7 -2.492823615357859e6 0.0
0.0 0.0 0.0

-3.437634328915852e6 2.410342226529092e7 0.0
2.410342226529092e7 3.4130917408118118e6 0.0
0.0 0.0 0.0

-8.0988814806090165e6 1.572557813380207e7 0.0
1.572557813380207e7 1.3463299042678153e7 0.0
0.0 0.0 0.0

1.5077059822511282e6 7.114427854780289e6 0.0
7.114427854780289e6 -7.102771439253153e6 0.0
0.0 0.0 0.0

-469676.4023931007 6.61750628840319e6 0.0
6.61750628840319e6 -1.2806555297588182e6 0.0
0.0 0.0 0.0

-5.912226331385289e6 1.3966104038512131e7 0.0
1.3966104038512131e7 -2.4347194932161327e7 0.0
0.0 0.0 0.0

-2.914421172740968e6 1.66331818249086e7 0.0
1.66331818249086e7 3.740170618503554e6 0.0
0.0 0.0 0.0

1.931492653186163e6 5.270408899782217e6 0.0
5.270408899782217e6 -7.474506911147508e6 0.0
0.0 0.0 0.0

-3.742953459122215e7 2.41478938522134e7 0.0
2.41478938522134e7 2.62283994718701e6 0.0
0.0 0.0 0.0

2.304485906700976e6 8.115579273473634e6 0.0
8.115579273473634e6 -4.021071416281409e7 0.0
0.0 0.0 0.0

-628896.9059439541 8.66377739586226e6 0.0
8.66377739586226e6 -4.84757207553474e6 0.0
0.0 0.0 0.0

-4.919150457695052e6 1.4363746021015806e7 0.0
1.4363746021015806e7 -2.63646850151623e7 0.0
0.0 0.0 0.0

4.721875413948614e6 4.836949744830573e6 0.0
4.836949744830573e6 -2.606734355270244e7 0.0
0.0 0.0 0.0

1.1443531532367578e7 2.4899417153548986e7 0.0
2.4899417153548986e7 -9.763004355617521e6 0.0
0.0 0.0 0.0

3.623580689566939e6 8.688631337273143e6 0.0
8.688631337273143e6 -1.8292051875382207e7 0.0
0.0 0.0 0.0

-1.0282183562729478e7 1.0355663709977422e7 0.0
1.0355663709977422e7 3.0547926280834835e7 0.0
0.0 0.0 0.0

-1.0827709272174902e7 1.4073086391061768e7 0.0
1.4073086391061768e7 1.6631735364118153e7 0.0
0.0 0.0 0.0

-4.566923628689122e6 1.8451973566295646e7 0.0
1.8451973566295646e7 8.58776949145053e6 0.0
0.0 0.0 0.0

-6.86422408769532e6 1.806580791543511e7 0.0
1.806580791543511e7 -2.208787651578146e6 0.0
0.0 0.0 0.0

-9.666978010462487e6 1.4725138056827208e7 0.0
1.4725138056827208e7 1.734384315868327e7 0.0
0.0 0.0 0.0

-4.150326620498502e6 1.9466734245290138e7 0.0
1.9466734245290138e7 2.101853266765464e6 0.0
0.0 0.0 0.0

5.90594886497866e6 1.5276935685179941e7 0.0
1.5276935685179941e7 1.9686496865853958e7 0.0
0.0 0.0 0.0

-7.945346791652016e6 -337420.1168826821 0.0
-337420.1168826821 1.0042086282699697e7 0.0
0.0 0.0 0.0

-40674.60736773629 1.6017217097792981e7 0.0
1.6017217097792981e7 -1.0271606455124693e7 0.0
0.0 0.0 0.0

76959.50265978277 1.0993214060279775e7 0.0
1.0993214060279775e7 -4.4819258441567935e7 0.0
0.0 0.0 0.0

-7.747674799611388e6 2.586674934992845e7 0.0
2.586674934992845e7 6.711036419432929e6 0.0
0.0 0.0 0.0

-807486.8111403805 2.024583415530759e7 0.0
2.024583415530759e7 -4.479380081884751e6 0.0
0.0 0.0 0.0

1.4868642695501097e6 1.5498367677917566e7 0.0
1.5498367677917566e7 855733.4417664257 0.0
0.0 0.0 0.0

-1.0538736958705146e7 1.3886389913891317e7 0.0
1.3886389913891317e7 1.7818657228106543e7 0.0
0.0 0.0 0.0

-1.6505506294642173e7 2.585285092562532e7 0.0
2.585285092562532e7 8.474675483406879e6 0.0
0.0 0.0 0.0

-649162.2619519308 1.768829357100339e7 0.0
1.768829357100339e7 -7.493907646785055e6 0.0
0.0 0.0 0.0

-1.8342735411937656e6 1.3411186942042828e7 0.0
1.3411186942042828e7 -2.093494445617892e7 0.0
0.0 0.0 0.0

-1.3022560266896475e7 2.7210626251373675e7 0.0
2.7210626251373675e7 6.829053439038142e6 0.0
0.0 0.0 0.0

1.8120833202173196e7 2.2461990885574374e7 0.0
2.2461990885574374e7 -1.2251108899732761e7 0.0
0.0 0.0 0.0

935913.8294491953 1.469351236925558e7 0.0
1.469351236925558e7 2.0742869757831022e6 0.0
0.0 0.0 0.0

2.629337632842306e6 1.0005170065424113e7 0.0
1.0005170065424113e7 -1.6535540549726158e7 0.0
0.0 0.0 0.0

-6.84205856665203e6 1.5574346813042495e7 0.0
1.5574346813042495e7 -2.8801544792285334e7 0.0
0.0 0.0 0.0

6.38232364224357e6 2.3103407623901792e7 0.0
2.3103407623901792e7 -5.9796767994516725e6 0.0
0.0 0.0 0.0

118484.95245091431 1.4510015049288776e7 0.0
1.4510015049288776e7 -1.1009418394019915e7 0.0
0.0 0.0 0.0

-2.262837844341836e6 2.1898163740798194e7 0.0
2.1898163740798194e7 -1.2102615185256382e6 0.0
0.0 0.0 0.0

972030.357551353 1.0218017964475607e7 0.0
1.0218017964475607e7 -3.770775439289784e7 0.0
0.0 0.0 0.0

112424.77069903095 1.5168964297202684e7 0.0
1.5168964297202684e7 4.362934380995281e6 0.0
0.0 0.0 0.0

-1.873171907484619e7 2.362759715830493e7 0.0
2.362759715830493e7 8.754782619891802e6 0.0
0.0 0.0 0.0

-3.6307516162285744e6 1.9817284353385754e7 0.0
1.9817284353385754e7 2.6129765941142743e6 0.0
0.0 0.0 0.0

1.2696867866642231e7 1.5186213780311594e7 0.0
1.5186213780311594e7 2.8407919769500317e6 0.0
0.0 0.0 0.0

-3.973941194059633e6 2.4499439544899482e7 0.0
2.4499439544899482e7 2.6828361637903154e6 0.0
0.0 0.0 0.0

621953.0931655753 1.490936960251146e7 0.0
1.490936960251146e7 7.08267278378759e6 0.0
0.0 0.0 0.0

197401.3737290015 3.742040821774601e6 0.0
3.742040821774601e6 -2.9690270261555687e6 0.0
0.0 0.0 0.0

2.4402258111307253e6 2.454741414311673e7 0.0
2.454741414311673e7 -3.3715000511816945e6 0.0
0.0 0.0 0.0

499569.80119660124 1.4483825109789217e7 0.0
1.4483825109789217e7 -1.4472682806798618e7 0.0
0.0 0.0 0.0

4.892984362016937e6 4.095339480867596e6 0.0
4.095339480867596e6 -3.186191636390485e7 0.0
0.0 0.0 0.0

159510.10399896675 9.48084116904095e6 0.0
9.48084116904095e6 -5.99940092704207e6 0.0
0.0 0.0 0.0

1.9920224031355497e6 6.13729053740444e6 0.0
6.13729053740444e6 -7.538799453095422e6 0.0
0.0 0.0 0.0

1.3368374991407539e6 1.220578102734984e7 0.0
1.220578102734984e7 -1.1963877734138481e7 0.0
0.0 0.0 0.0

-1.581640082657245e7 2.2358095221055098e7 0.0
2.2358095221055098e7 7.413243110851024e6 0.0
0.0 0.0 0.0

-1.7527599618711756e6 1.6756042512244642e7 0.0
1.6756042512244642e7 1.878757078059523e6 0.0
0.0 0.0 0.0

1.285191834420655e6 1.8528142078501236e7 0.0
1.8528142078501236e7 -5.572472547901561e6 0.0
0.0 0.0 0.0

4.761789473289553e6 5.696157796780529e6 0.0
5.696157796780529e6 -2.560118699173217e7 0.0
0.0 0.0 0.0

-986409.1440854941 1.6292356107642587e7 0.0
1.6292356107642587e7 -6.864582187160115e6 0.0
0.0 0.0 0.0

-123006.29127722839 1.4034845430412885e7 0.0
1.4034845430412885e7 -1.040027220240092e7 0.0
0.0 0.0 0.0

-6.482974236206511e6 1.9354603138189986e7 0.0
1.9354603138189986e7 -5.314654699956286e6 0.0
0.0 0.0 0.0

5.764360326185657e6 2.166765104900309e7 0.0
2.166765104900309e7 -6.08416180004631e6 0.0
0.0 0.0 0.0

-5.107562779092583e6 1.945600217832292e7 0.0
1.945600217832292e7 8.375388464244997e6 0.0
0.0 0.0 0.0

-145874.10241751838 1.5519718900833745e7 0.0
1.5519718900833745e7 8.444136077900162e6 0.0
0.0 0.0 0.0

-994155.2376003861 1.524343745567477e7 0.0
1.524343745567477e7 5.258747984688476e7 0.0
0.0 0.0 0.0

-4.801386972619225e6 2.6831660395463135e7 0.0
2.6831660395463135e7 4.376533273959307e6 0.0
0.0 0.0 0.0

603994.4247153997 1.5916136729761327e7 0.0
1.5916136729761327e7 -7.945404061317261e6 0.0
0.0 0.0 0.0

3.4621699379099663e6 9.138353827970942e6 0.0
9.138353827970942e6 -2.095274425731651e7 0.0
0.0 0.0 0.0

3.66829707351185e6 8.528915871542169e6 0.0
8.528915871542169e6 -2.195822369512111e7 0.0
0.0 0.0 0.0

5.1709016184779545e6 4.0774825198060623e6 0.0
4.0774825198060623e6 -1.8892087016531285e7 0.0
0.0 0.0 0.0

-4.653734791907795e6 1.903516314033168e7 0.0
1.903516314033168e7 8.069948859576095e6 0.0
0.0 0.0 0.0

4.8087385934468135e6 4.268859655051718e6 0.0
4.268859655051718e6 -1.889874429662153e7 0.0
0.0 0.0 0.0

-1.1605417538137544e7 -504020.8749585418 0.0
-504020.8749585418 2.411775476943554e7 0.0
0.0 0.0 0.0

-5.314957814103206e6 1.7207534213552386e7 0.0
1.7207534213552386e7 1.1927622668651536e7 0.0
0.0 0.0 0.0

-1.1665744625578932e6 8.995305784165239e6 0.0
8.995305784165239e6 -3.893176924409321e6 0.0
0.0 0.0 0.0

-1.3213107082079325e6 2.0627049271740824e7 0.0
2.0627049271740824e7 -3.8472063276889217e6 0.0
0.0 0.0 0.0

556035.9248628558 2.270925295071102e7 0.0
2.270925295071102e7 -2.505611491574711e6 0.0
0.0 0.0 0.0

480403.6680122614 1.3070144448646128e7 0.0
1.3070144448646128e7 1.1756452255808087e6 0.0
0.0 0.0 0.0

1.435187738072386e6 1.0191843491166117e7 0.0
1.0191843491166117e7 -3.273446784118501e7 0.0
0.0 0.0 0.0

5.106914528908189e6 4.494474167394971e6 0.0
4.494474167394971e6 -2.774157824831307e7 0.0
0.0 0.0 0.0

-3.366588691131117e7 2.8015412404029686e7 0.0
2.8015412404029686e7 -3.060638642401547e6 0.0
0.0 0.0 0.0

1.2032910350864513e7 1.867975638444147e7 0.0
1.867975638444147e7 7.07897589083129e6 0.0
0.0 0.0 0.0

-70953.64639523381 2.2427419411787562e7 0.0
2.2427419411787562e7 -2.3375959130558795e6 0.0
0.0 0.0 0.0

-2.776321481960673e6 1.6027520513075672e7 0.0
1.6027520513075672e7 1.164535579390467e7 0.0
0.0 0.0 0.0

297553.7915314627 1.4284372767026005e7 0.0
1.4284372767026005e7 1.6047472862788967e6 0.0
0.0 0.0 0.0

-1.218527411655899e7 4.66477933759617e6 0.0
4.66477933759617e6 2.8440213107352734e7 0.0
0.0 0.0 0.0

-9.242888940234805e6 2.3701251007162474e7 0.0
2.3701251007162474e7 6.362653540340133e6 0.0
0.0 0.0 0.0

-771793.7271160728 1.2061018925193185e7 0.0
1.2061018925193185e7 -6.900929127213355e6 0.0
0.0 0.0 0.0

-1.102497299297813e7 -1.9658168983536554e6 0.0
-1.9658168983536554e6 1.80016918385721e7 0.0
0.0 0.0 0.0

-4.579830695105758e6 1.0198496647078956e7 0.0
1.0198496647078956e7 6.6360087943999715e7 0.0
0.0 0.0 0.0

-67521.0786967203 1.634678893348326e7 0.0
1.634678893348326e7 -9.867882470074944e6 0.0
0.0 0.0 0.0

2.6689292566696177e6 4.747542496153693e6 0.0
4.747542496153693e6 -7.8546637923636045e6 0.0
0.0 0.0 0.0

-9.908520939793088e6 6.433714188603955e6 0.0
6.433714188603955e6 4.2077892386415385e7 0.0
0.0 0.0 0.0

5.192942058512927e6 4.064505574106555e6 0.0
4.064505574106555e6 -2.31846518636509e7 0.0
0.0 0.0 0.0

-4.620100899229156e6 1.7748709370734684e7 0.0
1.7748709370734684e7 -5.587120939323339e6 0.0
0.0 0.0 0.0

-1.192710623438323e7 2.067135148526065e7 0.0
2.067135148526065e7 -4.593529341543524e6 0.0
0.0 0.0 0.0

-68375.18428667681 1.5006593320531543e7 0.0
1.5006593320531543e7 -1.2421804203779588e7 0.0
0.0 0.0 0.0

-3.8392552674843036e6 7.737277040072855e6 0.0
7.737277040072855e6 5.263081662133174e6 0.0
0.0 0.0 0.0

-2.8659486609472716e6 1.7463056514139935e7 0.0
1.7463056514139935e7 445991.5737125459 0.0
0.0 0.0 0.0

8.284010065224327e6 2.0826605856562197e7 0.0
2.0826605856562197e7 -6.652965805202544e6 0.0
0.0 0.0 0.0

-5.161428916085891e6 -2.322659811228605e6 0.0
-2.322659811228605e6 9.133571573715057e6 0.0
0.0 0.0 0.0

5.554627515374227e6 1.563970140841197e7 0.0
1.563970140841197e7 2.987321747307184e6 0.0
0.0 0.0 0.0

5.924071746002816e6 2.6509911014717136e7 0.0
2.6509911014717136e7 -8.773217268280804e6 0.0
0.0 0.0 0.0

5.156396438161334e6 4.158731347296658e6 0.0
4.158731347296658e6 -2.0896061620262556e7 0.0
0.0 0.0 0.0

-4.990571712874604e6 1.478971260252349e7 0.0
1.478971260252349e7 2.690151109759301e6 0.0
0.0 0.0 0.0

5.55512455897349e6 1.6652875538866045e7 0.0
1.6652875538866045e7 2.392160400591747e7 0.0
0.0 0.0 0.0

3.705584141739405e7 5.883427183561124e6 0.0
5.883427183561124e6 -2.3295305683853477e6 0.0
0.0 0.0 0.0

-1.725547100066519e7 2.204098859090226e7 0.0
2.204098859090226e7 -2.57464040835169e6 0.0
0.0 0.0 0.0

-4.340101025515681e6 1.922298952407055e7 0.0
1.922298952407055e7 2.762358221503122e6 0.0
0.0 0.0 0.0

1.5836956949256174e6 1.025984984476092e7 0.0
1.025984984476092e7 -2.8963974859973244e7 0.0
0.0 0.0 0.0

-1.2404998123894515e7 2.2398980325246856e7 0.0
2.2398980325246856e7 6.601256463482859e6 0.0
0.0 0.0 0.0

4.118748498127776e6 1.6037512012392698e7 0.0
1.6037512012392698e7 4.979462571005861e6 0.0
0.0 0.0 0.0

-7.222857088546075e6 6.349185559141081e6 0.0
6.349185559141081e6 5.2270847086564265e7 0.0
0.0 0.0 0.0

-4.862506640467791e6 1.8162045049461342e7 0.0
1.8162045049461342e7 8.490189831485748e6 0.0
0.0 0.0 0.0

1.0854302155928195e6 1.4747370056037396e7 0.0
1.4747370056037396e7 8.533602862588383e6 0.0
0.0 0.0 0.0

-1.0623007954512432e6 1.5216211572911354e7 0.0
1.5216211572911354e7 -7.811205479311368e6 0.0
0.0 0.0 0.0

3.841563131294215e6 1.6697930457691876e7 0.0
1.6697930457691876e7 -3.2316182598696724e6 0.0
0.0 0.0 0.0

969295.3353453181 1.6311763799476672e7 0.0
1.6311763799476672e7 -6.193605155614036e6 0.0
0.0 0.0 0.0

-2.371576642772023e6 1.1688056903523108e7 0.0
1.1688056903523108e7 -3.0527348437181287e6 0.0
0.0 0.0 0.0

-1.1821096171145132e6 1.611884012115251e7 0.0
1.611884012115251e7 1.2546425825739432e7 0.0
0.0 0.0 0.0

270448.53494676965 1.4836880962515185e7 0.0
1.4836880962515185e7 982886.6752705902 0.0
0.0 0.0 0.0

32983.578973260475 1.444833561942225e7 0.0
1.444833561942225e7 -2.900605997647962e6 0.0
0.0 0.0 0.0

-2.0592299148380808e6 1.3470396906283228e7 0.0
1.3470396906283228e7 -1.8645182516202822e7 0.0
0.0 0.0 0.0

-3.8326398562837015e6 2.1171260499220736e7 0.0
2.1171260499220736e7 4.293144532888456e6 0.0
0.0 0.0 0.0

-1.0275598238634929e7 1.950047123809312e7 0.0
1.950047123809312e7 -5.500244746065864e6 0.0
0.0 0.0 0.0

-7.793857338589365e6 2.42218808150275e7 0.0
2.42218808150275e7 5.731530524993026e6 0.0
0.0 0.0 0.0

-2.5767023050608123e6 1.6207045147264218e7 0.0
1.6207045147264218e7 8.715354653179385e6 0.0
0.0 0.0 0.0

4.605217358054812e6 6.148003838677197e6 0.0
6.148003838677197e6 -2.1069287785150487e7 0.0
0.0 0.0 0.0

-338855.22243121825 1.5990383115263019e7 0.0
1.5990383115263019e7 -1.0460664017723916e7 0.0
0.0 0.0 0.0

5.683283255138087e6 2.1749443151070185e7 0.0
2.1749443151070185e7 -6.225089326896606e6 0.0
0.0 0.0 0.0

-1.1175233120100074e7 -1.7452275950777784e6 0.0
-1.7452275950777784e6 2.168816738432939e7 0.0
0.0 0.0 0.0

-3.637014192079487e6 1.7495162316370532e7 0.0
1.7495162316370532e7 5.61516775867567e6 0.0
0.0 0.0 0.0

723923.984639466 1.5308979567701494e7 0.0
1.5308979567701494e7 674567.0730113426 0.0
0.0 0.0 0.0

3.8402862171514803e6 1.7583231678965777e7 0.0
1.7583231678965777e7 -4.402105305404519e6 0.0
0.0 0.0 0.0

-1.1852855718391676e7 4.0196623513831464e6 0.0
4.0196623513831464e6 2.130040441496173e7 0.0
0.0 0.0 0.0

2.253300353608259e6 1.473007814767402e7 0.0
1.473007814767402e7 1.1335105264725152e7 0.0
0.0 0.0 0.0

-6.385258851521226e6 1.7551930816555176e7 0.0
1.7551930816555176e7 -4.0613034811822204e6 0.0
0.0 0.0 0.0

902088.4872012818 1.3290324801953264e7 0.0
1.3290324801953264e7 -1.79438131186067e7 0.0
0.0 0.0 0.0

1.6738384526589164e6 2.5796704758572754e7 0.0
2.5796704758572754e7 -2.4671292094757156e6 0.0
0.0 0.0 0.0

-7.53759821581468e6 2.488625236161145e7 0.0
2.488625236161145e7 5.308464527260081e6 0.0
0.0 0.0 0.0

-1.1816533811908733e7 4.834752728547529e6 0.0
4.834752728547529e6 1.8642825450838506e7 0.0
0.0 0.0 0.0

-3.865477725779931e6 1.818378883681639e7 0.0
1.818378883681639e7 -3.8426873339727223e6 0.0
0.0 0.0 0.0

-5.955500943106851e6 2.495132534708136e7 0.0
2.495132534708136e7 4.4088969109697305e6 0.0
0.0 0.0 0.0

-6.367827841680461e6 2.4442205364622664e7 0.0
2.4442205364622664e7 4.899675881602399e6 0.0
0.0 0.0 0.0

1.1356068815511165e6 1.413226899816699e7 0.0
1.413226899816699e7 6.897151062012943e6 0.0
0.0 0.0 0.0

2.435666080730805e6 1.1065199473315809e7 0.0
1.1065199473315809e7 -1.506430959102387e7 0.0
0.0 0.0 0.0

2.9660600033835754e7 2.1808341856091008e7 0.0
2.1808341856091008e7 1.011987023628352e7 0.0
0.0 0.0 0.0

-2.995484960536434e7 429587.51348385075 0.0
429587.51348385075 9.469242576232988e6 0.0
0.0 0.0 0.0

-1.3986531432562899e7 2.1769242610749673e7 0.0
2.1769242610749673e7 5.604497247337035e6 0.0
0.0 0.0 0.0

4.826147146912392e6 3.994537003041279e6 0.0
3.994537003041279e6 -2.3166245387299545e7 0.0
0.0 0.0 0.0

-934757.933838608 1.5880772526531694e7 0.0
1.5880772526531694e7 -8.900822171482269e6 0.0
0.0 0.0 0.0

-1.0587572372078072e7 2.275101624793069e7 0.0
2.275101624793069e7 6.688290517377986e6 0.0
0.0 0.0 0.0

-1.230371414850921e7 1.9017295263431137e6 0.0
1.9017295263431137e6 2.336936994616221e7 0.0
0.0 0.0 0.0

2.9735773929741085e6 9.011371153392216e6 0.0
9.011371153392216e6 -1.9843200819094818e7 0.0
0.0 0.0 0.0

-3.3593557558513987e6 1.3018215851571541e7 0.0
1.3018215851571541e7 -1.5171789348100731e7 0.0
0.0 0.0 0.0

4.1273954221112e6 1.6830983184948817e7 0.0
1.6830983184948817e7 4.741382195165909e6 0.0
0.0 0.0 0.0

-2.500618540136857e7 2.2964301402733617e7 0.0
2.2964301402733617e7 -37847.36600978859 0.0
0.0 0.0 0.0

-3.134129299217466e6 1.0083576382860316e7 0.0
1.0083576382860316e7 -773125.0472808359 0.0
0.0 0.0 0.0

-8.251883217174284e6 2.2031475532794178e7 0.0
2.2031475532794178e7 6.311677953103494e6 0.0
0.0 0.0 0.0

-3.4930369023686554e6 2.1740504578846045e7 0.0
2.1740504578846045e7 3.228800943448774e6 0.0
0.0 0.0 0.0

-8.91665128079743e6 3.894263191700463e6 0.0
3.894263191700463e6 1.6279217258969497e7 0.0
0.0 0.0 0.0

-6.524527392646788e6 -426554.2972327981 0.0
-426554.2972327981 9.614663864018183e6 0.0
0.0 0.0 0.0

1.769311993361229e6 1.1348514203195248e7 0.0
1.1348514203195248e7 -1.5515501633011933e7 0.0
0.0 0.0 0.0

-1.1282428941279892e7 741403.5742813147 0.0
741403.5742813147 2.362486477223908e7 0.0
0.0 0.0 0.0

642714.1510159997 1.3704988044831181e7 0.0
1.3704988044831181e7 -1.4393059394263864e7 0.0
0.0 0.0 0.0

4.06794374746354e6 1.574405318386611e7 0.0
1.574405318386611e7 -1.9320577542992933e6 0.0
0.0 0.0 0.0

1.235581242835966e6 8.140894278010715e6 0.0
8.140894278010715e6 -9.077758198209528e6 0.0
0.0 0.0 0.0

-1.3669925754318062e7 2.1650835200323626e7 0.0
2.1650835200323626e7 5.78914508134117e6 0.0
0.0 0.0 0.0

-5.789756334555747e6 1.9627188491265155e7 0.0
1.9627188491265155e7 -5.052585586571416e6 0.0
0.0 0.0 0.0

261812.93553871746 1.2348196493145868e7 0.0
1.2348196493145868e7 872710.3920824415 0.0
0.0 0.0 0.0

-505015.30702698615 1.3801962479004333e7 0.0
1.3801962479004333e7 -1.6833847305247667e6 0.0
0.0 0.0 0.0

2.1559837578665037e6 1.1560597908075016e7 0.0
1.1560597908075016e7 -1.4286630631538892e7 0.0
0.0 0.0 0.0

-3.2341227174615497e6 1.3367645240660327e7 0.0
1.3367645240660327e7 -1.4985036182547553e7 0.0
0.0 0.0 0.0

-1.0128243373508977e7 -2.1143916233084104e6 0.0
-2.1143916233084104e6 1.5483057539729234e7 0.0
0.0 0.0 0.0

-3.941671926223061e6 1.090897914515339e7 0.0
1.090897914515339e7 3.6286553962877286e6 0.0
0.0 0.0 0.0

-509467.3290308234 1.7459663309870988e7 0.0
1.7459663309870988e7 -7.843082773533393e6 0.0
0.0 0.0 0.0

3.509617366463309e6 6.857064726166737e6 0.0
6.857064726166737e6 -1.5583581902724657e7 0.0
0.0 0.0 0.0

-2.7758198211758643e7 1.8979312446720302e7 0.0
1.8979312446720302e7 752550.5345139019 0.0
0.0 0.0 0.0

3.012996602346441e6 1.6511834920077754e7 0.0
1.6511834920077754e7 -3.218483865677304e6 0.0
0.0 0.0 0.0

1.299025618904616e7 1.5018386328645611e7 0.0
1.5018386328645611e7 -939873.3257078938 0.0
0.0 0.0 0.0

-8.840672777319025e6 2.7354477086064298e7 0.0
2.7354477086064298e7 6.6612670682815425e6 0.0
0.0 0.0 0.0

-9.339318395785097e6 1.4148083075649075e6 0.0
1.4148083075649075e6 1.4043061214981314e7 0.0
0.0 0.0 0.0

-460860.5724269869 1.4478139578452755e7 0.0
1.4478139578452755e7 -9.535864910238363e6 0.0
0.0 0.0 0.0

-5.171653421808789e6 1.801007620193678e7 0.0
1.801007620193678e7 -3.47772101306041e6 0.0
0.0 0.0 0.0

-1.6360136396845352e7 2.4203955316581868e7 0.0
2.4203955316581868e7 7.990297220840542e6 0.0
0.0 0.0 0.0

-3.6398679764414732e6 1.425077606895133e7 0.0
1.425077606895133e7 -2.2812159391343266e7 0.0
0.0 0.0 0.0

481342.49605908955 1.4781634848329255e7 0.0
1.4781634848329255e7 4.768833206389523e6 0.0
0.0 0.0 0.0

-2.0794111268905136e6 1.3355880952263737e7 0.0
1.3355880952263737e7 -1.6536890336069869e7 0.0
0.0 0.0 0.0

-1.2544818030758558e7 2.6272999834033534e7 0.0
2.6272999834033534e7 7.82332832223552e6 0.0
0.0 0.0 0.0

-1.6557565425515925e6 1.9251873288912646e7 0.0
1.9251873288912646e7 -5.0397552781537445e6 0.0
0.0 0.0 0.0

-4.1188957771642567e6 1.8078470722336873e7 0.0
1.8078470722336873e7 -422389.007051619 0.0
0.0 0.0 0.0

3.1554233911514906e6 9.673779968643697e6 0.0
9.673779968643697e6 -2.1293583392405868e7 0.0
0.0 0.0 0.0

-1.1852084679983884e7 4.350941526001848e6 0.0
4.350941526001848e6 2.680671513710659e7 0.0
0.0 0.0 0.0

-1.4740940387412054e6 1.4487819760534152e7 0.0
1.4487819760534152e7 -6.507077116558707e6 0.0
0.0 0.0 0.0

3.9214898377511054e6 1.6624854592981655e7 0.0
1.6624854592981655e7 -3.328790869220401e6 0.0
0.0 0.0 0.0

-2.99399439019391e6 1.4111410859578008e7 0.0
1.4111410859578008e7 -1.964838710263228e7 0.0
0.0 0.0 0.0

-8.95770881090188e6 2.191852186707624e7 0.0
2.191852186707624e7 6.116062979979888e6 0.0
0.0 0.0 0.0

1.1685976088377308e7 2.4861678062944286e7 0.0
2.4861678062944286e7 -9.713530092493355e6 0.0
0.0 0.0 0.0

-3.228497767718427e6 1.787810315699485e7 0.0
1.787810315699485e7 -2.78542249528978e6 0.0
0.0 0.0 0.0

-9.241406249424797e6 2.2884284003286492e7 0.0
2.2884284003286492e7 6.389205481969701e6 0.0
0.0 0.0 0.0

-9.219869531293375e6 1.4823487829059144e7 0.0
1.4823487829059144e7 1.4325693917116165e7 0.0
0.0 0.0 0.0

1.377609832906667e6 1.5845195419818122e7 0.0
1.5845195419818122e7 -5.357366223065367e6 0.0
0.0 0.0 0.0

-4.085196390038199e6 2.128978832251029e7 0.0
2.128978832251029e7 4.928149880972038e6 0.0
0.0 0.0 0.0

-2.6204350442670854e6 1.3572584288334873e7 0.0
1.3572584288334873e7 -2.1854879573953986e7 0.0
0.0 0.0 0.0

4.388844808389325e6 5.271432246686695e6 0.0
5.271432246686695e6 -2.024742231754458e7 0.0
0.0 0.0 0.0

-3.033914323645363e6 1.4028138967316775e7 0.0
1.4028138967316775e7 -1.7559363733543687e7 0.0
0.0 0.0 0.0

-4.539914933674766e6 2.306724637437404e7 0.0
2.306724637437404e7 3.9560188637058167e6 0.0
0.0 0.0 0.0

-2.2026181317061507e6 1.4756314564993627e7 0.0
1.4756314564993627e7 -7.342060366223987e6 0.0
0.0 0.0 0.0

1.6325227233421716e6 1.4124963164614653e7 0.0
1.4124963164614653e7 5.4417427925047055e6 0.0
0.0 0.0 0.0

-1.185552911957004e7 1.3137841058473805e7 0.0
1.3137841058473805e7 1.955404495061191e7 0.0
0.0 0.0 0.0

-1.3590981648139781e6 1.1368883521264544e7 0.0
1.1368883521264544e7 -2.571278349127529e6 0.0
0.0 0.0 0.0

6.053729629299227e6 1.4665961204247316e7 0.0
1.4665961204247316e7 2.5743226146178454e7 0.0
0.0 0.0 0.0

-1.1442393773441026e7 -403088.77375201986 0.0
-403088.77375201986 2.62494934383828e7 0.0
0.0 0.0 0.0

4.614804503370836e6 4.670075400128704e6 0.0
4.670075400128704e6 -2.7617880782546878e7 0.0
0.0 0.0 0.0

-1.5004459064504923e6 1.4067978568384595e7 0.0
1.4067978568384595e7 -1.831584363238e7 0.0
0.0 0.0 0.0

-7.926495906754809e6 2.2940783988381963e7 0.0
2.2940783988381963e7 6.1195066213913765e6 0.0
0.0 0.0 0.0

1.7174729921966992e7 1.1626814877163233e7 0.0
1.1626814877163233e7 -117685.96265004855 0.0
0.0 0.0 0.0

-1.2429303800677756e7 2.611308909366155e6 0.0
2.611308909366155e6 1.964742814841193e7 0.0
0.0 0.0 0.0

-1.4304362437684124e7 2.3529192982817706e7 0.0
2.3529192982817706e7 -4.789051361154301e6 0.0
0.0 0.0 0.0

-3.7759731538890395e6 1.704515078352199e7 0.0
1.704515078352199e7 5.711814151160482e6 0.0
0.0 0.0 0.0

-1.6571475149146749e7 2.5941725248610977e7 0.0
2.5941725248610977e7 8.642554105086602e6 0.0
0.0 0.0 0.0

4.4533202753933e6 5.027724615523046e6 0.0
5.027724615523046e6 -2.8542227541661415e7 0.0
0.0 0.0 0.0

607272.2396294605 2.1973314756005097e7 0.0
2.1973314756005097e7 -3.1957314970724448e6 0.0
0.0 0.0 0.0

-9.100653367638543e6 1.0150185497505346e7 0.0
1.0150185497505346e7 3.746570878675657e7 0.0
0.0 0.0 0.0

-4.2944031920435345e6 2.0760234615011454e7 0.0
2.0760234615011454e7 6.454633665653934e6 0.0
0.0 0.0 0.0

-1.0937654087642287e6 1.3912817920662494e7 0.0
1.3912817920662494e7 -4.726085750442598e6 0.0
0.0 0.0 0.0

-2.6100790652246606e6 3.311086428317193e6 0.0
3.311086428317193e6 3.476751230963812e6 0.0
0.0 0.0 0.0

1.5257923736125354e6 1.5566159582722679e7 0.0
1.5566159582722679e7 8.384422177159136e6 0.0
0.0 0.0 0.0

-4.451852104524867e6 1.7860736930853296e7 0.0
1.7860736930853296e7 7.241164613930067e6 0.0
0.0 0.0 0.0

1.7356608848821237e6 8.729969175718768e6 0.0
8.729969175718768e6 -8.167727696082834e6 0.0
0.0 0.0 0.0

-2.0271078265104005e6 1.645611206727019e7 0.0
1.645611206727019e7 298762.94220322766 0.0
0.0 0.0 0.0

3.1679812545422567e6 1.6297316537686022e7 0.0
1.6297316537686022e7 -3.5356096384855104e6 0.0
0.0 0.0 0.0

-2.0963721293116396e6 1.1243192679206848e7 0.0
1.1243192679206848e7 -688867.2306674345 0.0
0.0 0.0 0.0

-1.184413195285867e6 1.3272368683669943e7 0.0
1.3272368683669943e7 -2.005155648652944e7 0.0
0.0 0.0 0.0

-5.73618646676243e6 1.3900195635125136e7 0.0
1.3900195635125136e7 4.630717315996399e6 0.0
0.0 0.0 0.0

-9.377959782115825e6 1.5047310734021984e7 0.0
1.5047310734021984e7 1.7297705250353303e7 0.0
0.0 0.0 0.0

-9.425273668137645e6 -2.287596297664947e6 0.0
-2.287596297664947e6 1.7990809635382745e7 0.0
0.0 0.0 0.0

-7.895801507902673e6 1.8056358874369193e7 0.0
1.8056358874369193e7 546626.9429860604 0.0
0.0 0.0 0.0

-6.257511356966626e6 2.173515753146586e7 0.0
2.173515753146586e7 6.349452152755199e6 0.0
0.0 0.0 0.0

3.859782042201032e6 2.2067040443086192e7 0.0
2.2067040443086192e7 -5.109228172352799e6 0.0
0.0 0.0 0.0

-1.2297081926202726e7 2.35234593353616e6 0.0
2.35234593353616e6 2.133721499836461e7 0.0
0.0 0.0 0.0

-1.9383877179542817e6 1.3823818313787095e7 0.0
1.3823818313787095e7 -2.087826052739446e7 0.0
0.0 0.0 0.0

-4.647228492099401e6 2.1623157200017154e7 0.0
2.1623157200017154e7 6.088315977399932e6 0.0
0.0 0.0 0.0

532828.4599438766 1.461477470712714e7 0.0
1.461477470712714e7 -6.785379183926359e6 0.0
0.0 0.0 0.0

-1.2847047291480354e6 1.248073999883899e7 0.0
1.248073999883899e7 -5.969409915219257e6 0.0
0.0 0.0 0.0

-7.850719890655338e6 833465.8003256915 0.0
833465.8003256915 1.1473924890157055e7 0.0
0.0 0.0 0.0

-7.672788020066477e6 2.374408598664791e7 0.0
2.374408598664791e7 6.263558996238658e6 0.0
0.0 0.0 0.0

-3.081905811908398e6 1.805830992570911e7 0.0
1.805830992570911e7 7611.427238437696 0.0
0.0 0.0 0.0

1.229743258003366e6 1.6018770516591176e7 0.0
1.6018770516591176e7 9.214751194417901e6 0.0
0.0 0.0 0.0

-12754.835209140787 3.753835968933002e6 0.0
3.753835968933002e6 -574891.528029847 0.0
0.0 0.0 0.0

1.7947079216014957e6 1.5411293788572209e7 0.0
1.5411293788572209e7 2.519037111037129e6 0.0
0.0 0.0 0.0

2.4443949555806406e6 8.254927087621389e6 0.0
8.254927087621389e6 -3.718835754814287e7 0.0
0.0 0.0 0.0

339919.8375375357 2.4662573457570974e7 0.0
2.4662573457570974e7 -3.124219428958142e6 0.0
0.0 0.0 0.0

-5.261859123296568e6 1.87528121953231e7 0.0
1.87528121953231e7 8.281632472309094e6 0.0
0.0 0.0 0.0

-7.505011251463357e6 7.202283374894019e6 0.0
7.202283374894019e6 7.480822703822993e6 0.0
0.0 0.0 0.0

-561241.8252183222 1.6027188803626033e7 0.0
1.6027188803626033e7 -2.430933716584114e6 0.0
0.0 0.0 0.0

2.020081615604207e6 9.773907178176759e6 0.0
9.773907178176759e6 -3.441253739092262e7 0.0
0.0 0.0 0.0

223444.54852573574 1.368132721794928e7 0.0
1.368132721794928e7 -1.6412767771252071e7 0.0
0.0 0.0 0.0

-8.011858073817249e6 2.571475359039641e7 0.0
2.571475359039641e7 5.208344189590499e6 0.0
0.0 0.0 0.0

-1.7548659198317952e6 1.452016555114241e7 0.0
1.452016555114241e7 -5.849553628441464e6 0.0
0.0 0.0 0.0

-2.7568246433502436e6 1.7835141259763733e7 0.0
1.7835141259763733e7 -7.098561982484209e6 0.0
0.0 0.0 0.0

-4.1837496879488355e6 1.893174080862759e7 0.0
1.893174080862759e7 4.710066619999236e6 0.0
0.0 0.0 0.0

287995.22048353264 1.4505095825702067e7 0.0
1.4505095825702067e7 -9.653022398549657e6 0.0
0.0 0.0 0.0

3.1612608066765214e6 1.662894842055133e7 0.0
1.662894842055133e7 3.927462381965285e6 0.0
0.0 0.0 0.0

-5.731706091482961e6 1.8857053400242023e7 0.0
1.8857053400242023e7 -5.223160706420962e6 0.0
0.0 0.0 0.0

-1.7954634460581918e6 1.6650395797024826e7 0.0
1.6650395797024826e7 3.5959807379801525e6 0.0
0.0 0.0 0.0

-9.470901687596895e6 6.879853465359782e6 0.0
6.879853465359782e6 4.276445929302868e7 0.0
0.0 0.0 0.0

-356149.8467146838 1.2190635142807268e7 0.0
1.2190635142807268e7 -5.522522215726936e6 0.0
0.0 0.0 0.0

-4.0170873046039073e6 1.2632574258674772e7 0.0
1.2632574258674772e7 -1.5662789672919123e7 0.0
0.0 0.0 0.0

-110267.73889383161 1.5604643609988146e7 0.0
1.5604643609988146e7 -1.141938963370116e7 0.0
0.0 0.0 0.0

-4.0252741130951457e6 1.6279781625383059e7 0.0
1.6279781625383059e7 -8.150487102459947e6 0.0
0.0 0.0 0.0

-4.210017224656124e6 1.7503045754158035e7 0.0
1.7503045754158035e7 7.424060204957772e6 0.0
0.0 0.0 0.0

75413.60635272179 1.3637055971390286e7 0.0
1.3637055971390286e7 251378.78646548328 0.0
0.0 0.0 0.0

-3.644318541613251e6 2.195229876627777e7 0.0
2.195229876627777e7 3.90806079143671e6 0.0
0.0 0.0 0.0

-1.7941799093489633e6 1.6976977440950036e7 0.0
1.6976977440950036e7 231104.3004608102 0.0
0.0 0.0 0.0

-9.943526317135308e6 757192.0253579556 0.0
757192.0253579556 4.231909511359245e7 0.0
0.0 0.0 0.0

-1.2784921627582302e7 5.714946507423332e6 0.0
5.714946507423332e6 1.696863421025751e7 0.0
0.0 0.0 0.0

740345.5160933747 1.4968475487736776e7 0.0
1.4968475487736776e7 -6.212044809717782e6 0.0
0.0 0.0 0.0

-1.912205086480623e7 2.1107526146696765e7 0.0
2.1107526146696765e7 5.452540431418321e6 0.0
0.0 0.0 0.0

-9.81692572054356e6 97250.26884109213 0.0
97250.26884109213 1.2118636322825255e7 0.0
0.0 0.0 0.0

-1.1345739922161153e7 4.890430785559317e6 0.0
4.890430785559317e6 3.39659481486699e7 0.0
0.0 0.0 0.0

-1.4038105580398538e6 -375542.7671484957 0.0
-375542.7671484957 1.3755894300983064e6 0.0
0.0 0.0 0.0

-4.469162083406154e6 2.6277682848868617e6 0.0
2.6277682848868617e6 689049.0617690329 0.0
0.0 0.0 0.0

2.2950914349928387e6 1.0186974113041e7 0.0
1.0186974113041e7 -1.5608545264689356e7 0.0
0.0 0.0 0.0

-3.7277100564510184e6 1.830278228265154e7 0.0
1.830278228265154e7 -363908.6376425482 0.0
0.0 0.0 0.0

-5.218735023534033e6 1.6361966753471406e7 0.0
1.6361966753471406e7 -6.40358258883312e6 0.0
0.0 0.0 0.0

-4.668522615586119e6 1.7386336126028296e7 0.0
1.7386336126028296e7 9.949981352711197e6 0.0
0.0 0.0 0.0

-1.5546639335669642e6 1.343042632211011e7 0.0
1.343042632211011e7 -1.5733081624434832e7 0.0
0.0 0.0 0.0

-176055.87796485098 1.5376224346999561e7 0.0
1.5376224346999561e7 8.575365050111221e6 0.0
0.0 0.0 0.0

-5.659042660921233e6 1.3573250987389784e7 0.0
1.3573250987389784e7 -2.1894188409805574e7 0.0
0.0 0.0 0.0

-2.989501554103896e6 1.678553841099921e7 0.0
1.678553841099921e7 2.1174272341740243e6 0.0
0.0 0.0 0.0

874020.2997164726 1.0382126710309098e7 0.0
1.0382126710309098e7 -4.058794724107812e7 0.0
0.0 0.0 0.0

2.1197480938850567e6 1.0030568011352945e7 0.0
1.0030568011352945e7 -3.0397727910240903e7 0.0
0.0 0.0 0.0

-1.7181328853471186e6 1.7253279047644332e7 0.0
1.7253279047644332e7 -6.613652348093887e6 0.0
0.0 0.0 0.0

-7.948550679290192e6 2.0635652283751268e7 0.0
2.0635652283751268e7 -4.196989769792527e6 0.0
0.0 0.0 0.0

-9.576727886879448e6 2.1828854024429876e7 0.0
2.1828854024429876e7 6.308578391194776e6 0.0
0.0 0.0 0.0

-5.111461500523854e6 1.1321005438918848e7 0.0
1.1321005438918848e7 3.0112504051254573e6 0.0
0.0 0.0 0.0

-2.622481358646128e6 4.247563063961533e6 0.0
4.247563063961533e6 5.08648858975104e6 0.0
0.0 0.0 0.0

564706.7558947115 1.4141076638320222e7 0.0
1.4141076638320222e7 -5.58392138725197e6 0.0
0.0 0.0 0.0

4.810568221658282e6 1.7028182379075445e7 0.0
1.7028182379075445e7 -3.5788869946116144e6 0.0
0.0 0.0 0.0

-8.236811295693858e6 1.0680894658951847e7 0.0
1.0680894658951847e7 3.8217153881807774e7 0.0
0.0 0.0 0.0

-2.0026375207302817e6 1.6412110685580328e7 0.0
1.6412110685580328e7 7.054036805782115e6 0.0
0.0 0.0 0.0

-6.251567812838313e6 2.179718932263631e7 0.0
2.179718932263631e7 6.460333906938696e6 0.0
0.0 0.0 0.0

-2.329421697756446e6 1.2993128818850916e7 0.0
1.2993128818850916e7 -1.0343055479426146e7 0.0
0.0 0.0 0.0

-1.1191480443965161e7 7.91658763127621e6 0.0
7.91658763127621e6 3.1291843651297353e7 0.0
0.0 0.0 0.0

-2.0586005089061393e6 1.6133303826870402e7 0.0
1.6133303826870402e7 3.769049042684702e6 0.0
0.0 0.0 0.0

-378489.2882999154 1.5606857977730468e7 0.0
1.5606857977730468e7 -1.112805000585085e7 0.0
0.0 0.0 0.0

527294.0171550214 1.292414497847827e7 0.0
1.292414497847827e7 -1.8926348859069496e7 0.0
0.0 0.0 0.0

2.438989248645544e6 9.168535319121316e6 0.0
9.168535319121316e6 -2.94301772967732e7 0.0
0.0 0.0 0.0

2.5111246920894664e6 9.703511659279443e6 0.0
9.703511659279443e6 -2.4175964474209283e7 0.0
0.0 0.0 0.0

-5.2444513222115e6 1.5352862188370738e7 0.0
1.5352862188370738e7 -3.1448031393184397e7 0.0
0.0 0.0 0.0

-3.871470438664999e6 2.1622811248374954e7 0.0
2.1622811248374954e7 4.412117223399384e6 0.0
0.0 0.0 0.0

-2.850435300230942e6 1.7950760723665368e7 0.0
1.7950760723665368e7 -6.348985254889098e6 0.0
0.0 0.0 0.0

-238758.4611617257 1.48899026292824e7 0.0
1.48899026292824e7 -1.006060543010833e7 0.0
0.0 0.0 0.0

1.1349473424039425e7 1.6976778960556623e7 0.0
1.6976778960556623e7 -3.8065830493892804e6 0.0
0.0 0.0 0.0

-1.031270919305828e7 3.000436041057759e6 0.0
3.000436041057759e6 3.757779677473571e7 0.0
0.0 0.0 0.0

1.2415709260204975e6 1.0173550109927218e7 0.0
1.0173550109927218e7 -3.500537995786691e7 0.0
0.0 0.0 0.0

2.8399074875461925e6 9.897322496129824e6 0.0
9.897322496129824e6 -2.39059148213983e7 0.0
0.0 0.0 0.0

-8.182360377864873e6 6.924911754193811e6 0.0
6.924911754193811e6 4.759279422630124e7 0.0
0.0 0.0 0.0

9.749886279625071e6 1.7092449439848553e7 0.0
1.7092449439848553e7 5.833114445292562e6 0.0
0.0 0.0 0.0

-1.0409818665252186e7 6.005866475035584e6 0.0
6.005866475035584e6 3.530484330354323e7 0.0
0.0 0.0 0.0

-2.1869772746038586e6 1.9097611028324596e6 0.0
1.9097611028324596e6 1.2043474265306732e6 0.0
0.0 0.0 0.0

-4.0113058512897994e6 2.238284850599184e7 0.0
2.238284850599184e7 3.0937954200678207e6 0.0
0.0 0.0 0.0

2.767617287950347e6 9.522162133273343e6 0.0
9.522162133273343e6 -1.8958289820715956e7 0.0
0.0 0.0 0.0

-6.076544930434419e6 2.41677660792065e7 0.0
2.41677660792065e7 5.867962639494538e6 0.0
0.0 0.0 0.0

-1.0759292355854068e7 1.0243273919622352e7 0.0
1.0243273919622352e7 2.793905537202113e7 0.0
0.0 0.0 0.0

-1.2232717799996644e7 4.006762859588308e6 0.0
4.006762859588308e6 1.571052828150041e7 0.0
0.0 0.0 0.0

1.4258214461946718e6 2.2129716161191918e7 0.0
2.2129716161191918e7 -3.6393343028851515e6 0.0
0.0 0.0 0.0

-4.76685132206122e6 1.7833065081889216e7 0.0
1.7833065081889216e7 9.738815739561543e6 0.0
0.0 0.0 0.0

-1.066810016194822e6 1.9517829019002695e7 0.0
1.9517829019002695e7 -4.615288439068374e6 0.0
0.0 0.0 0.0

-5.873844503822496e6 1.980121969879586e7 0.0
1.980121969879586e7 6.42245269747545e6 0.0
0.0 0.0 0.0

-1.379932746433199e6 1.4124065405996682e7 0.0
1.4124065405996682e7 -1.67843718136367e7 0.0
0.0 0.0 0.0

1.39163711904677e6 1.7374532823499817e7 0.0
1.7374532823499817e7 -6.0541498617984755e6 0.0
0.0 0.0 0.0

2.3828851741569666e6 1.5421131855205812e7 0.0
1.5421131855205812e7 2.4808457759218264e7 0.0
0.0 0.0 0.0

-5.709979243441538e6 2.6161391931914324e6 0.0
2.6161391931914324e6 1.2914405787020724e7 0.0
0.0 0.0 0.0

-4.1051314184502927e6 6.250775473914868e6 0.0
6.250775473914868e6 -2.459242606988262e6 0.0
0.0 0.0 0.0

-2.828828402714542e6 1.5319885657104494e7 0.0
1.5319885657104494e7 -9.42942787896445e6 0.0
0.0 0.0 0.0

2.4646349418813293e6 1.5627542274897931e7 0.0
1.5627542274897931e7 8.215450198876078e6 0.0
0.0 0.0 0.0

1.0622220846640095e6 2.5134600580466006e7 0.0
2.5134600580466006e7 -4.31701127955432e6 0.0
0.0 0.0 0.0

4.043910679295568e6 5.353208985549226e6 0.0
5.353208985549226e6 -1.2412168431625133e7 0.0
0.0 0.0 0.0

-4.459151032126168e6 2.4806860921720743e7 0.0
2.4806860921720743e7 4.59517713202255e6 0.0
0.0 0.0 0.0

-3.1669457685020987e7 1.0015302146563347e7 0.0
1.0015302146563347e7 1.0342909651355762e7 0.0
0.0 0.0 0.0

-212352.89210155513 1.579760667558884e7 0.0
1.579760667558884e7 -1.0548705746867005e7 0.0
0.0 0.0 0.0

-1.0812047286709465e7 1.1857065169280361e7 0.0
1.1857065169280361e7 2.414640705717578e7 0.0
0.0 0.0 0.0

477162.5473910556 1.5084305424682768e7 0.0
1.5084305424682768e7 -6.088678159604906e6 0.0
0.0 0.0 0.0

-4.568344288605427e6 1.820316015069426e7 0.0
1.820316015069426e7 7.604522040172072e6 0.0
0.0 0.0 0.0

-3.45804275148343e6 1.7907863171607606e7 0.0
1.7907863171607606e7 -1.2148787335062819e6 0.0
0.0 0.0 0.0

568339.6442643069 1.5498300301617548e7 0.0
1.5498300301617548e7 -7.131474219563549e6 0.0
0.0 0.0 0.0

4.560137021232683e6 4.443033691429062e6 0.0
4.443033691429062e6 -2.9634165345515843e7 0.0
0.0 0.0 0.0

-640723.0946862035 1.192226423704552e7 0.0
1.192226423704552e7 -2.1357440013905354e6 0.0
0.0 0.0 0.0

4.966409823884187e6 1.8022754829791836e7 0.0
1.8022754829791836e7 -4.589057996885854e6 0.0
0.0 0.0 0.0

-386058.2938223011 1.478718605238253e7 0.0
1.478718605238253e7 -1.1292747515392194e7 0.0
0.0 0.0 0.0

1.3972512648704145e6 1.6675521481278697e7 0.0
1.6675521481278697e7 7.387907379640944e6 0.0
0.0 0.0 0.0

1.5299776765432581e6 1.0260767619413195e7 0.0
1.0260767619413195e7 -3.0757032784495816e7 0.0
0.0 0.0 0.0

-1.7025331203009177e6 1.744139216390103e7 0.0
1.744139216390103e7 -6.052275954364489e6 0.0
0.0 0.0 0.0

416416.9841780523 1.742831286978769e7 0.0
1.742831286978769e7 1.1593282585335637e7 0.0
0.0 0.0 0.0

1.215197430745486e7 2.1035757124257896e7 0.0
2.1035757124257896e7 -7.458309549268274e6 0.0
0.0 0.0 0.0

2.1982348806991e6 1.01579973322177e7 0.0
1.01579973322177e7 -2.6931061605664417e7 0.0
0.0 0.0 0.0

-2.66597546421412e7 8.838747994031692e6 0.0
8.838747994031692e6 1.0241662344332606e7 0.0
0.0 0.0 0.0

-505105.8308616001 1.5551905918849284e7 0.0
1.5551905918849284e7 9.458763569163583e6 0.0
0.0 0.0 0.0

-5.619004451931373e6 2.4813207904875405e7 0.0
2.4813207904875405e7 5.509524793393273e6 0.0
0.0 0.0 0.0

-584071.5743996089 1.6189897687000241e7 0.0
1.6189897687000241e7 -7.820823423772525e6 0.0
0.0 0.0 0.0

-5.552696367256577e6 2.2019745076393202e7 0.0
2.2019745076393202e7 5.996084950418958e6 0.0
0.0 0.0 0.0

-8.861570852063544e6 9.989715811850943e6 0.0
9.989715811850943e6 4.1062469626097314e7 0.0
0.0 0.0 0.0

1.5655311575342258e6 1.2462506511667687e7 0.0
1.2462506511667687e7 -1.2654719310418027e7 0.0
0.0 0.0 0.0

118567.36222560843 2.2212116102766775e7 0.0
2.2212116102766775e7 -3.5873804983867295e6 0.0
0.0 0.0 0.0

-1.9275443415055277e6 9.699767636310652e6 0.0
9.699767636310652e6 -189490.6652195623 0.0
0.0 0.0 0.0

-2.479042365446776e7 8.366695082332806e6 0.0
8.366695082332806e6 1.0250740512265531e7 0.0
0.0 0.0 0.0

-3.503974383873353e6 1.2515879357160807e7 0.0
1.2515879357160807e7 -887771.9247672587 0.0
0.0 0.0 0.0

-1.188562920599675e7 524821.4798538362 0.0
524821.4798538362 2.1343827864588693e7 0.0
0.0 0.0 0.0

-1.0022058619232997e7 1.2674876550117524e7 0.0
1.2674876550117524e7 2.525924232647651e7 0.0
0.0 0.0 0.0

-4.908227511973951e6 2.349884700613537e7 0.0
2.349884700613537e7 4.1858615690869093e6 0.0
0.0 0.0 0.0

-5.235181466724959e6 2.5319721068795826e7 0.0
2.5319721068795826e7 5.007024142855644e6 0.0
0.0 0.0 0.0

-1.0216690060398472e7 8.880881728591688e6 0.0
8.880881728591688e6 3.248351851281924e7 0.0
0.0 0.0 0.0

1.473310283091473e6 1.142308730554486e7 0.0
1.142308730554486e7 -1.0589588763362916e7 0.0
0.0 0.0 0.0

3.2763851238191044e6 1.6230169222424591e7 0.0
1.6230169222424591e7 -1.2778040229046724e6 0.0
0.0 0.0 0.0

-1.7364271226072088e6 1.1463310051517589e7 0.0
1.1463310051517589e7 -7.394368613839654e6 0.0
0.0 0.0 0.0

208520.20024918718 8.400447640109628e6 0.0
8.400447640109628e6 -3.2838899166424097e6 0.0
0.0 0.0 0.0

-4.0374943093440933e6 2.3351789763114594e7 0.0
2.3351789763114594e7 4.36883631453676e6 0.0
0.0 0.0 0.0

-1.125742159388513e7 1.4293982982971754e7 0.0
1.4293982982971754e7 1.8344379887285825e7 0.0
0.0 0.0 0.0

1.647699590333758e6 1.0481005381651856e7 0.0
1.0481005381651856e7 -2.7421823928730402e7 0.0
0.0 0.0 0.0

-1.6289272915727636e7 2.065117470744703e7 0.0
2.065117470744703e7 4.2184761337418975e6 0.0
0.0 0.0 0.0

-1.1599446889212818e6 2.0087164523898475e7 0.0
2.0087164523898475e7 -3.822120997138814e6 0.0
0.0 0.0 0.0

3.8420754362860247e6 5.6068024154684525e6 0.0
5.6068024154684525e6 -3.510282994410085e7 0.0
0.0 0.0 0.0

-4.28754501110279e6 1.6297371941061735e7 0.0
1.6297371941061735e7 1.278096847385071e7 0.0
0.0 0.0 0.0

-3.5568739378339336e6 1.8281682951314025e7 0.0
1.8281682951314025e7 1.433691113868499e6 0.0
0.0 0.0 0.0

8813.935169772245 1.5931940221130129e7 0.0
1.5931940221130129e7 -1.0717924684838586e7 0.0
0.0 0.0 0.0

-7.220946012748754e6 2.4537716759753935e7 0.0
2.4537716759753935e7 6.257105437423209e6 0.0
0.0 0.0 0.0

-2.886031050185981e6 1.82725928067516e7 0.0
1.82725928067516e7 -622186.5065754104 0.0
0.0 0.0 0.0

-5.566846997023128e6 2.3965483691233557e7 0.0
2.3965483691233557e7 4.511558728337932e6 0.0
0.0 0.0 0.0

-1.152091137136321e6 6.954682728450685e6 0.0
6.954682728450685e6 -309498.42386946053 0.0
0.0 0.0 0.0

2.665157703900586e6 1.511422671014955e7 0.0
1.511422671014955e7 1.0798825595941866e7 0.0
0.0 0.0 0.0

-21098.19932722207 1.407180170923362e7 0.0
1.407180170923362e7 -1.4915453968453687e7 0.0
0.0 0.0 0.0

-2.4524966614733287e6 1.2171975716868602e7 0.0
1.2171975716868602e7 -367113.6835865175 0.0
0.0 0.0 0.0

-59125.93401596928 1.4991509348397058e7 0.0
1.4991509348397058e7 -1.2242587520586204e7 0.0
0.0 0.0 0.0

3.1490433171518603e6 7.347428204827995e6 0.0
7.347428204827995e6 -1.4801362346786778e7 0.0
0.0 0.0 0.0

5.136419929287657e6 1.804203720952372e7 0.0
1.804203720952372e7 7.962729514506083e6 0.0
0.0 0.0 0.0

-1.0073002039080959e7 -2.8817860513505964e6 0.0
-2.8817860513505964e6 2.721834244218166e7 0.0
0.0 0.0 0.0

3.098013143957032e6 1.531028975589017e7 0.0
1.531028975589017e7 1.234464755036129e7 0.0
0.0 0.0 0.0

-4.234656511741415e6 2.2126515741154626e7 0.0
2.2126515741154626e7 3.65774333335128e6 0.0
0.0 0.0 0.0

482223.8697310956 1.3868849153396616e7 0.0
1.3868849153396616e7 -1.6685998338287523e7 0.0
0.0 0.0 0.0

-41602.57692240481 2.174009985437069e7 0.0
2.174009985437069e7 -3.0356748358025947e6 0.0
0.0 0.0 0.0

-111907.47799442755 1.545018660084602e7 0.0
1.545018660084602e7 -1.9835377900586657e6 0.0
0.0 0.0 0.0

3.409403625398377e6 9.190195748892589e6 0.0
9.190195748892589e6 -1.8429655210736334e7 0.0
0.0 0.0 0.0

-1.4623115354591731e6 1.962345285703165e7 0.0
1.962345285703165e7 -4.782169385839139e6 0.0
0.0 0.0 0.0

-24309.68145698961 1.4329510563503467e7 0.0
1.4329510563503467e7 -1.401778772258899e7 0.0
0.0 0.0 0.0

-7.749224101341655e6 4.690041760602757e6 0.0
4.690041760602757e6 9.98525164897171e6 0.0
0.0 0.0 0.0

236996.10357527062 1.703223067881732e7 0.0
1.703223067881732e7 1.0420492396992272e7 0.0
0.0 0.0 0.0

-5.128801107717792e6 1.8486582504748613e7 0.0
1.8486582504748613e7 7.355495338359837e6 0.0
0.0 0.0 0.0

-4.365525580868268e6 2.260705814774751e7 0.0
2.260705814774751e7 3.780256921637933e6 0.0
0.0 0.0 0.0

-1.797998164261701e6 1.5771897233783592e7 0.0
1.5771897233783592e7 6.994593934293427e6 0.0
0.0 0.0 0.0

-2.4215855782005787e6 4.496403126613622e6 0.0
4.496403126613622e6 2.8169472523832535e6 0.0
0.0 0.0 0.0

-1.209213280086962e7 7.240457236773921e6 0.0
7.240457236773921e6 2.679059920407746e7 0.0
0.0 0.0 0.0

-129241.23708271002 1.5357537404168371e7 0.0
1.5357537404168371e7 -1.141353016724652e7 0.0
0.0 0.0 0.0

-52205.45497663133 1.2515956354575178e7 0.0
1.2515956354575178e7 -3.946640261313929e7 0.0
0.0 0.0 0.0

-2.1769673273020657e6 5.470342378668092e6 0.0
5.470342378668092e6 2.088722330717454e6 0.0
0.0 0.0 0.0

-1.0441124912824648e7 -842520.1302973694 0.0
-842520.1302973694 1.49592373268941e7 0.0
0.0 0.0 0.0

-5.988850849666975e6 1.4301159913998125e7 0.0
1.4301159913998125e7 5.728960302439276e6 0.0
0.0 0.0 0.0

-1.4701669794443375e6 2.0264194583541658e7 0.0
2.0264194583541658e7 -3.240026891995399e6 0.0
0.0 0.0 0.0

-1.3226251683950927e6 1.323966150677176e7 0.0
1.323966150677176e7 -2.602936786965754e7 0.0
0.0 0.0 0.0

3.631364271338566e6 7.075903989367153e6 0.0
7.075903989367153e6 -1.296225898016326e7 0.0
0.0 0.0 0.0

-3.470548182315184e6 2.2210516406619728e7 0.0
2.2210516406619728e7 3.355950601837493e6 0.0
0.0 0.0 0.0

-860558.8148705572 1.9858482711153768e7 0.0
1.9858482711153768e7 -4.411384202445443e6 0.0
0.0 0.0 0.0

-9.16304747681541e6 2.8482929609241825e7 0.0
2.8482929609241825e7 4.76475265715275e6 0.0
0.0 0.0 0.0

-3.714428166876961e6 2.2405547667347282e7 0.0
2.2405547667347282e7 4.080852475453021e6 0.0
0.0 0.0 0.0

-1.5781815440586409e7 2.231515553976621e7 0.0
2.231515553976621e7 -1.2494588988577551e6 0.0
0.0 0.0 0.0

-1.9227421260723895e6 1.7192644974934045e7 0.0
1.7192644974934045e7 -1.2317593329932962e6 0.0
0.0 0.0 0.0

-326839.8525980916 1.23915290308369e7 0.0
1.23915290308369e7 -3.64661813062388e7 0.0
0.0 0.0 0.0

-3.1994084280482894e6 1.1601223539136693e7 0.0
1.1601223539136693e7 -1.2309323696720558e6 0.0
0.0 0.0 0.0

-1.1318940492113568e7 -242355.9855938914 0.0
-242355.9855938914 3.1542573264043614e7 0.0
0.0 0.0 0.0

-1.0854046388683274e7 3.7594867855207603e6 0.0
3.7594867855207603e6 3.693148163136941e7 0.0
0.0 0.0 0.0

4.0565443249285407e6 6.282836357503401e6 0.0
6.282836357503401e6 -2.6435650609743517e7 0.0
0.0 0.0 0.0

-4.934194391300185e6 1.9586845430110756e7 0.0
1.9586845430110756e7 7.645426943329425e6 0.0
0.0 0.0 0.0

-8.842852982626414e6 1.0933569634761866e7 0.0
1.0933569634761866e7 3.48620045432756e7 0.0
0.0 0.0 0.0

-29257.308666136116 1.4654921825118287e7 0.0
1.4654921825118287e7 -1.3118569334221328e7 0.0
0.0 0.0 0.0

-7.179306426389847e6 1.2932044969903955e7 0.0
1.2932044969903955e7 3.173229001321042e7 0.0
0.0 0.0 0.0

-1.808746061793914e6 1.982463110698653e7 0.0
1.982463110698653e7 -4.237976344882792e6 0.0
0.0 0.0 0.0

-967041.9703509515 2.3331389827580903e7 0.0
2.3331389827580903e7 -1.8843634273611195e6 0.0
0.0 0.0 0.0

29004.336577507434 1.5348750408088012e7 0.0
1.5348750408088012e7 -3.1945260654257583e6 0.0
0.0 0.0 0.0

-1.0962826439637978e7 1.5877810282265441e6 0.0
1.5877810282265441e6 1.5559021716363324e7 0.0
0.0 0.0 0.0

-1.2572660435503707e6 1.5641111864055945e7 0.0
1.5641111864055945e7 8.395653203528492e6 0.0
0.0 0.0 0.0

-5.183771215104459e6 1.385199341799342e7 0.0
1.385199341799342e7 6.484293485748626e6 0.0
0.0 0.0 0.0

4.560809464939987e6 4.9928147583131045e6 0.0
4.9928147583131045e6 -2.4202367662777446e7 0.0
0.0 0.0 0.0

1.6998252784430827e6 1.7117283733247485e7 0.0
1.7117283733247485e7 -5.545230396382878e6 0.0
0.0 0.0 0.0

-1.162446698660674e7 1.6130436113847042e7 0.0
1.6130436113847042e7 8.2340651776391985e6 0.0
0.0 0.0 0.0

-1.4237821333136912e7 1.9103240857915092e7 0.0
1.9103240857915092e7 -3.232723582874962e6 0.0
0.0 0.0 0.0

-3.5646669686103016e6 2.2415313025858294e7 0.0
2.2415313025858294e7 1.9257564887091443e6 0.0
0.0 0.0 0.0

681620.6323115318 1.1098323162728231e7 0.0
1.1098323162728231e7 -1.0076704677416945e7 0.0
0.0 0.0 0.0

-3.3093167789656464e6 1.6992821407350384e7 0.0
1.6992821407350384e7 -969558.1167372777 0.0
0.0 0.0 0.0

-1.4474384750447937e6 2.343902648695282e7 0.0
2.343902648695282e7 -104835.95941688732 0.0
0.0 0.0 0.0

-5.206579782050458e6 1.6321592495892055e7 0.0
1.6321592495892055e7 1.4043806656191964e7 0.0
0.0 0.0 0.0

-2.404872853368165e6 1.6007513373089472e7 0.0
1.6007513373089472e7 7.167946110611824e6 0.0
0.0 0.0 0.0

1.488910271889309e6 1.0775756572354306e7 0.0
1.0775756572354306e7 -9.566404739284396e6 0.0
0.0 0.0 0.0

-3.248756210714747e6 2.4811647695687663e7 0.0
2.4811647695687663e7 2.8699761642084983e6 0.0
0.0 0.0 0.0

-1.1494312275513506e7 -1.6151536263168792e6 0.0
-1.6151536263168792e6 2.3310580846044704e7 0.0
0.0 0.0 0.0

4.678067932260927e6 5.815518547702733e6 0.0
5.815518547702733e6 -1.9381568400657274e7 0.0
0.0 0.0 0.0

-2.164458195928674e6 2.1689567305657927e7 0.0
2.1689567305657927e7 -474396.86187644943 0.0
0.0 0.0 0.0

135235.28221859597 1.4286459354150025e7 0.0
1.4286459354150025e7 -1.5253738080114774e7 0.0
0.0 0.0 0.0

-1.1335571556770229e6 2.4603989205549113e6 0.0
2.4603989205549113e6 1.2012195866843162e6 0.0
0.0 0.0 0.0

1.2959880804762477e6 8.603203902284803e6 0.0
8.603203902284803e6 -9.574749436981296e6 0.0
0.0 0.0 0.0

-5.95945905377912e6 2.000067568300639e7 0.0
2.000067568300639e7 -2.555589406851364e6 0.0
0.0 0.0 0.0

3.0059063214005437e6 1.0103223936089644e7 0.0
1.0103223936089644e7 -1.7962508390205506e7 0.0
0.0 0.0 0.0

4.684264102597445e6 1.8227363696794353e7 0.0
1.8227363696794353e7 8.289176316035386e6 0.0
0.0 0.0 0.0

-2.3811618715277133e6 7.346112157299228e6 0.0
7.346112157299228e6 -904270.6202565567 0.0
0.0 0.0 0.0

-2.960469295057368e6 4.624111161885667e6 0.0
4.624111161885667e6 849434.1131017278 0.0
0.0 0.0 0.0

2.5147759590043724e6 2.215243846445002e7 0.0
2.215243846445002e7 -4.1936964815421063e6 0.0
0.0 0.0 0.0

-1.0915413913106956e7 -1.1913489968418549e6 0.0
-1.1913489968418549e6 2.3053863371149246e7 0.0
0.0 0.0 0.0

933712.8125193361 1.336779730914276e7 0.0
1.336779730914276e7 -1.092310470357087e7 0.0
0.0 0.0 0.0

557750.0184388417 1.428974710056782e7 0.0
1.428974710056782e7 1.171939168314069e6 0.0
0.0 0.0 0.0

7.770265193877474e6 1.9077930269575335e7 0.0
1.9077930269575335e7 -5.247403176860334e6 0.0
0.0 0.0 0.0

940213.0245961295 1.403848728692786e7 0.0
1.403848728692786e7 -1.3374591069617106e7 0.0
0.0 0.0 0.0

4.341877509699082e6 1.5886384642479403e7 0.0
1.5886384642479403e7 1.6937285290802542e7 0.0
0.0 0.0 0.0

-7.141698355557183e6 2.1968877894107718e7 0.0
2.1968877894107718e7 6.251181518683162e6 0.0
0.0 0.0 0.0

-1.0509356843846707e7 -655975.5771434216 0.0
-655975.5771434216 2.932013969376398e7 0.0
0.0 0.0 0.0

-1.8416762827578434e6 2.1717909000405952e7 0.0
2.1717909000405952e7 -920568.0356954564 0.0
0.0 0.0 0.0

-2.0861110467695883e6 1.661638103830442e7 0.0
1.661638103830442e7 1.2380562752552927e7 0.0
0.0 0.0 0.0

2.375618270232442e6 9.783014130869571e6 0.0
9.783014130869571e6 -1.521065389230505e7 0.0
0.0 0.0 0.0

4.934481998569366e6 5.036539803535067e6 0.0
5.036539803535067e6 -2.6732479850324508e7 0.0
0.0 0.0 0.0

-3.2588482667541546e6 1.808802818044833e7 0.0
1.808802818044833e7 -1.8177579445116185e6 0.0
0.0 0.0 0.0

-7.083644839398138e6 8.735822530061522e6 0.0
8.735822530061522e6 1.0311199093668092e7 0.0
0.0 0.0 0.0

-1.12063274772961e7 1.333662640522044e7 0.0
1.333662640522044e7 2.1631238329894938e7 0.0
0.0 0.0 0.0

400404.54130147863 1.3614961708381183e7 0.0
1.3614961708381183e7 -1.7641157216663644e7 0.0
0.0 0.0 0.0

74740.4067715928 1.1932599424263384e7 0.0
1.1932599424263384e7 -3.418390002094439e7 0.0
0.0 0.0 0.0

-1.6497796965652714e6 2.2129332024908505e7 0.0
2.2129332024908505e7 -847231.3114917998 0.0
0.0 0.0 0.0

-1.5316060152645048e6 1.5787147550735531e7 0.0
1.5787147550735531e7 5.353408481162708e6 0.0
0.0 0.0 0.0

-2.9270179680913202e7 9.347150455099395e6 0.0
9.347150455099395e6 1.0126968217537727e7 0.0
0.0 0.0 0.0

4.793720398646053e6 1.6261361466318201e7 0.0
1.6261361466318201e7 1.959141546945563e7 0.0
0.0 0.0 0.0

-2.694002134982463e7 2.35473185793346e7 0.0
2.35473185793346e7 9.062344678354826e6 0.0
0.0 0.0 0.0

2.8076350598191107e6 9.473056254318237e6 0.0
9.473056254318237e6 -2.1458157735703845e7 0.0
0.0 0.0 0.0

5.369005821548029e6 5.098545011519844e6 0.0
5.098545011519844e6 -994266.0396729496 0.0
0.0 0.0 0.0

-1.4070571068898894e7 -1.9370507506498755e6 0.0
-1.9370507506498755e6 7.181984776778878e6 0.0
0.0 0.0 0.0

-5.856291826479893e6 7.853923382882816e6 0.0
7.853923382882816e6 8.305500204441706e6 0.0
0.0 0.0 0.0

-1.1035937320590423e7 595451.3334923502 0.0
595451.3334923502 2.777937568642859e7 0.0
0.0 0.0 0.0

-1.2051218362070238e7 808695.2555223365 0.0
808695.2555223365 2.259918249069986e7 0.0
0.0 0.0 0.0

240315.7637626715 1.5177182053609164e7 0.0
1.5177182053609164e7 -1.2572371911621548e7 0.0
0.0 0.0 0.0

-1.9194399503341515e6 1.2052364328726172e7 0.0
1.2052364328726172e7 -6.39813341744159e6 0.0
0.0 0.0 0.0

1.12470503633499e6 1.3622382660680778e7 0.0
1.3622382660680778e7 3.749016933232925e6 0.0
0.0 0.0 0.0

772436.7064100432 1.4071139359640537e7 0.0
1.4071139359640537e7 -1.1788085266425295e6 0.0
0.0 0.0 0.0

-1.4220581874087823e6 2.2522616611761898e7 0.0
2.2522616611761898e7 -747361.7385942272 0.0
0.0 0.0 0.0

-1.0046659389640924e7 7.084028224081341e6 0.0
7.084028224081341e6 1.5024067878312638e7 0.0
0.0 0.0 0.0

178974.51825312246 1.4517907709054137e7 0.0
1.4517907709054137e7 -1.2600060578463664e7 0.0
0.0 0.0 0.0

-4.284025366201073e6 1.9737576403091427e7 0.0
1.9737576403091427e7 2.924082677812468e6 0.0
0.0 0.0 0.0

3.3511678529621176e6 7.992616115845976e6 0.0
7.992616115845976e6 -2.477117629031758e7 0.0
0.0 0.0 0.0

-1.1035496138189325e7 -251457.3063826562 0.0
-251457.3063826562 2.479088680165813e7 0.0
0.0 0.0 0.0

-1.6824756830163193e6 2.1250890694718067e7 0.0
2.1250890694718067e7 -1.6957964617024725e6 0.0
0.0 0.0 0.0

-1.366296450312977e6 1.5747376965243157e7 0.0
1.5747376965243157e7 3.6758940353385853e6 0.0
0.0 0.0 0.0

-1.2025566129662832e6 1.5895262252131881e7 0.0
1.5895262252131881e7 2.0293650886034789e6 0.0
0.0 0.0 0.0

-3.9856588999056458e6 1.8945146365142073e7 0.0
1.8945146365142073e7 -6.592492149479118e6 0.0
0.0 0.0 0.0

3.136384719915822e6 1.4051726994650211e7 0.0
1.4051726994650211e7 1.1622291475987563e7 0.0
0.0 0.0 0.0

-3.4468261999669047e6 1.8056689766123172e7 0.0
1.8056689766123172e7 -5.520435946429437e6 0.0
0.0 0.0 0.0

-1.0607000511410525e7 1.1360762579738595e7 0.0
1.1360762579738595e7 2.6089814510932587e7 0.0
0.0 0.0 0.0

-1.1315999207439695e7 -676438.5891362983 0.0
-676438.5891362983 2.887616526570085e7 0.0
0.0 0.0 0.0

2.973894080523939e6 9.449998064268833e6 0.0
9.449998064268833e6 -1.4667035653996993e7 0.0
0.0 0.0 0.0

4.205325302579837e6 5.6738801806067275e6 0.0
5.6738801806067275e6 -2.7550193909396995e7 0.0
0.0 0.0 0.0

531315.1114833155 1.4849218063402142e7 0.0
1.4849218063402142e7 -1.166599367481103e7 0.0
0.0 0.0 0.0

2.68068587885595e6 1.7254486759502664e7 0.0
1.7254486759502664e7 6.1943988978363825e6 0.0
0.0 0.0 0.0

3.291104688384096e6 6.52883453272768e6 0.0
6.52883453272768e6 -1.3843270237574754e7 0.0
0.0 0.0 0.0

-3.8044638093611547e6 1.4113561824337553e7 0.0
1.4113561824337553e7 -2.026034981240602e7 0.0
0.0 0.0 0.0

405054.50094456784 1.162969103423709e7 0.0
1.162969103423709e7 -3.2002275895811748e7 0.0
0.0 0.0 0.0

-5.376178628997652e6 1.3408929748999353e7 0.0
1.3408929748999353e7 3.494263041957298e6 0.0
0.0 0.0 0.0

-5.829172135723617e6 1.9787172473986723e7 0.0
1.9787172473986723e7 7.354113221938757e6 0.0
0.0 0.0 0.0

-4.878189640496949e6 1.8680639378198504e7 0.0
1.8680639378198504e7 -5.467628471686691e6 0.0
0.0 0.0 0.0

-1.0267025490733128e7 839422.6538340145 0.0
839422.6538340145 3.6686619069662064e7 0.0
0.0 0.0 0.0

740309.0943506695 1.1464035120198874e7 0.0
1.1464035120198874e7 -3.0134001010476645e7 0.0
0.0 0.0 0.0

-1.0391307229060108e7 1.0782571238555301e7 0.0
1.0782571238555301e7 2.8126881897886783e7 0.0
0.0 0.0 0.0

-1.1554938606301206e6 1.6049601637865528e7 0.0
1.6049601637865528e7 409852.67272029835 0.0
0.0 0.0 0.0

-2.0964631797108978e6 2.2294289359061778e7 0.0
2.2294289359061778e7 -1.1046888348565018e6 0.0
0.0 0.0 0.0

-1.0763756852256123e7 2.1483905550214034e7 0.0
2.1483905550214034e7 5.778792975918446e6 0.0
0.0 0.0 0.0

-1.1758287625555672e7 1.2369429666509824e7 0.0
1.2369429666509824e7 2.1691278004046146e7 0.0
0.0 0.0 0.0

-2.82291791807755e6 1.2056670037589971e7 0.0
1.2056670037589971e7 -1.177462916717056e7 0.0
0.0 0.0 0.0

1.9483782923947314e6 1.4586008831910556e7 0.0
1.4586008831910556e7 7.463871883732699e6 0.0
0.0 0.0 0.0

3.8187847185558304e6 6.745061484549297e6 0.0
6.745061484549297e6 -2.5440551818100248e7 0.0
0.0 0.0 0.0

1.7727698562366208e6 8.103581404422692e6 0.0
8.103581404422692e6 -1.0374126162822613e7 0.0
0.0 0.0 0.0

-1.137218107453198e7 8.410491938431459e6 0.0
8.410491938431459e6 2.8208402042924695e7 0.0
0.0 0.0 0.0

-4.273442014619784e6 1.721440516039709e7 0.0
1.721440516039709e7 8.769151499843953e6 0.0
0.0 0.0 0.0

-2.3773175389591053e7 2.0990389752611704e7 0.0
2.0990389752611704e7 4.880331041215828e6 0.0
0.0 0.0 0.0

911901.4740380803 1.2558836180138405e7 0.0
1.2558836180138405e7 -1.9279380964302048e7 0.0
0.0 0.0 0.0

2.8596949613758856e6 9.068336376417985e6 0.0
9.068336376417985e6 -2.3989528825045098e7 0.0
0.0 0.0 0.0

1.0384438260791246e6 1.1407256026393665e7 0.0
1.1407256026393665e7 -2.840214381995584e7 0.0
0.0 0.0 0.0

2.8409530673127463e6 4.672177690023388e6 0.0
4.672177690023388e6 -8.53840404216886e6 0.0
0.0 0.0 0.0

-485006.9433585908 1.6321010215590756e7 0.0
1.6321010215590756e7 -8.201800122058084e6 0.0
0.0 0.0 0.0

106974.23051932221 1.731730354624643e7 0.0
1.731730354624643e7 -7.590650703538281e6 0.0
0.0 0.0 0.0

-1.688408672938913e7 2.720551721883663e7 0.0
2.720551721883663e7 8.210058295482151e6 0.0
0.0 0.0 0.0

1.8795071337537358e6 4.694516106013494e6 0.0
4.694516106013494e6 -5.661370928075097e6 0.0
0.0 0.0 0.0

220726.2019912321 1.4560008251523063e7 0.0
1.4560008251523063e7 -1.4303035765772182e7 0.0
0.0 0.0 0.0

-1.0600083388303604e7 1.460692947900759e7 0.0
1.460692947900759e7 1.879962548236536e7 0.0
0.0 0.0 0.0

-1.0526900197204469e7 -359931.1855231772 0.0
-359931.1855231772 2.0031194630302e7 0.0
0.0 0.0 0.0

4.361321252459566e6 5.463555796609846e6 0.0
5.463555796609846e6 -2.3307046617700342e7 0.0
0.0 0.0 0.0

-1.130078476189316e7 2.0767523466728358e6 0.0
2.0767523466728358e6 2.0068839087917637e7 0.0
0.0 0.0 0.0

-1.1445685114561904e7 2.312761223811056e6 0.0
2.312761223811056e6 2.4326197079616662e7 0.0
0.0 0.0 0.0

-7.344399794470111e6 7.415784705793065e6 0.0
7.415784705793065e6 1.1461320116739122e7 0.0
0.0 0.0 0.0

-5.029546599428671e6 1.8320553766392604e7 0.0
1.8320553766392604e7 9.321949847463759e6 0.0
0.0 0.0 0.0

-1.7022124877421388e6 1.0298898617550094e7 0.0
1.0298898617550094e7 -1.0011426369138387e6 0.0
0.0 0.0 0.0

1.383768709109853e7 5.692510236631308e6 0.0
5.692510236631308e6 -3.0323711497948356e6 0.0
0.0 0.0 0.0

-2.7226556872762375e7 52175.467651277664 0.0
52175.467651277664 8.784761527353758e6 0.0
0.0 0.0 0.0

3.0293304504664796e6 7.664823035625804e6 0.0
7.664823035625804e6 -1.0968064928266373e7 0.0
0.0 0.0 0.0

3.53139406902746e6 8.692790209644696e6 0.0
8.692790209644696e6 -2.3421280922131553e7 0.0
0.0 0.0 0.0

4.0530571724701533e6 7.491497562967885e6 0.0
7.491497562967885e6 -2.401423043287241e7 0.0
0.0 0.0 0.0

499998.5039743098 1.3921542440339278e6 0.0
1.3921542440339278e6 836640.0502482151 0.0
0.0 0.0 0.0

-2.0464286250928515e6 -1.762781178397647e6 0.0
-1.762781178397647e6 3.0104746269768663e6 0.0
0.0 0.0 0.0

-2.125575427815288e6 1.4001715261547403e7 0.0
1.4001715261547403e7 -1.889728738636185e7 0.0
0.0 0.0 0.0

4.265937149982955e6 5.6680109088379415e6 0.0
5.6680109088379415e6 -2.599739053063719e7 0.0
0.0 0.0 0.0

-1.5896887910472203e7 2.0337831499101236e7 0.0
2.0337831499101236e7 -4.409729717773854e6 0.0
0.0 0.0 0.0

-7.294200702487483e6 1.6268166421755487e7 0.0
1.6268166421755487e7 1.2285929404902805e7 0.0
0.0 0.0 0.0

-1.5720598645870155e6 2.0758294118988372e7 0.0
2.0758294118988372e7 -2.4596597442600243e6 0.0
0.0 0.0 0.0

2.6032607585601e6 1.3923975903077453e7 0.0
1.3923975903077453e7 1.0074391407565674e7 0.0
0.0 0.0 0.0

6.685398147135134e6 9.975674416109972e6 0.0
9.975674416109972e6 1.495268934594124e6 0.0
0.0 0.0 0.0

-8.010311002844168e6 2.1118949998675868e7 0.0
2.1118949998675868e7 -4.3496127049380755e6 0.0
0.0 0.0 0.0

-1.1077446757076345e7 3.2184229670067155e6 0.0
3.2184229670067155e6 3.1607286822232395e7 0.0
0.0 0.0 0.0

-5.628765023542985e6 1.9123842450524833e7 0.0
1.9123842450524833e7 7.428978344336475e6 0.0
0.0 0.0 0.0

482164.92357106553 1.733116495217562e7 0.0
1.733116495217562e7 -6.960089212062161e6 0.0
0.0 0.0 0.0

-1.0127488447464738e7 1.4883979010995526e7 0.0
1.4883979010995526e7 1.8146954819368646e7 0.0
0.0 0.0 0.0

-9.067833362637565e6 -3.955767420624308e6 0.0
-3.955767420624308e6 1.8813374846152827e7 0.0
0.0 0.0 0.0

-2.4758762340718396e6 2.145965215468974e7 0.0
2.145965215468974e7 -1.3278890515952301e6 0.0
0.0 0.0 0.0

2.9891123704283936e6 8.98371508293881e6 0.0
8.98371508293881e6 -2.2592482625566803e7 0.0
0.0 0.0 0.0

-527255.114322593 2.015033776179766e7 0.0
2.015033776179766e7 -4.330027362704065e6 0.0
0.0 0.0 0.0

4.52447023791687e6 6.35506805892704e6 0.0
6.35506805892704e6 -2.4819625663427845e7 0.0
0.0 0.0 0.0

2.663194202848995e6 1.5546586173944818e7 0.0
1.5546586173944818e7 1.0191200655530915e7 0.0
0.0 0.0 0.0

-1.4662684998833602e6 1.675013082939173e7 0.0
1.675013082939173e7 -7.012768787699546e6 0.0
0.0 0.0 0.0

-9.008997073356502e6 1.425677839904409e6 0.0
1.425677839904409e6 1.0502961215780612e7 0.0
0.0 0.0 0.0

-1.149506747699935e6 1.2115746196211293e7 0.0
1.2115746196211293e7 -6.729817948163888e6 0.0
0.0 0.0 0.0

4.941281196253961e6 5.101087773630855e6 0.0
5.101087773630855e6 -2.5128387193546634e7 0.0
0.0 0.0 0.0

5.72587354581481e6 2.0202547780076485e7 0.0
2.0202547780076485e7 -5.35978800668947e6 0.0
0.0 0.0 0.0

2.9524595048686173e6 7.036545113197965e6 0.0
7.036545113197965e6 -1.3069222378751475e7 0.0
0.0 0.0 0.0

-1.188502890944333e7 3.4747564562064065e6 0.0
3.4747564562064065e6 1.4824021904404087e7 0.0
0.0 0.0 0.0

-4.1443464252838525e6 2.164507540788996e7 0.0
2.164507540788996e7 3.446006245682141e6 0.0
0.0 0.0 0.0

1.0870166479580142e6 1.1364335834986575e7 0.0
1.1364335834986575e7 -2.6698993689262744e7 0.0
0.0 0.0 0.0

-3.2613842984822798e6 1.2529312538509311e7 0.0
1.2529312538509311e7 -1.087128114460162e7 0.0
0.0 0.0 0.0

2.0092093213483386e6 1.3933371695698686e7 0.0
1.3933371695698686e7 6.697364627313911e6 0.0
0.0 0.0 0.0

-2.3162870749072805e6 1.068403013140457e7 0.0
1.068403013140457e7 163995.73463834997 0.0
0.0 0.0 0.0

-6.263298549419336e6 1.217805022332047e7 0.0
1.217805022332047e7 5.54217941928566e6 0.0
0.0 0.0 0.0

-1837.3475379822776 1.5983021473076116e7 0.0
1.5983021473076116e7 1.0672797515804388e7 0.0
0.0 0.0 0.0

-9.184776440834098e6 -1.8069778118163215e6 0.0
-1.8069778118163215e6 1.6436296236890897e7 0.0
0.0 0.0 0.0

497345.82973425044 1.5716057533852868e7 0.0
1.5716057533852868e7 3.036109197973108e6 0.0
0.0 0.0 0.0

-5.614312133300418e6 1.799367942737674e7 0.0
1.799367942737674e7 9.67495916646891e6 0.0
0.0 0.0 0.0

2.608907867387859e6 7.1238885595569005e6 0.0
7.1238885595569005e6 -1.1819585406694336e7 0.0
0.0 0.0 0.0

-1.1826326691705285e7 631927.7674236525 0.0
631927.7674236525 1.8146487121725693e7 0.0
0.0 0.0 0.0

-2.6826880157217686e6 1.762333243929231e7 0.0
1.762333243929231e7 -4.847413963035963e6 0.0
0.0 0.0 0.0

-1.0414921763329491e7 1.4941620630345078e7 0.0
1.4941620630345078e7 1.7187199237739928e7 0.0
0.0 0.0 0.0

-1.8254722402493847e6 1.6296054379474392e7 0.0
1.6296054379474392e7 1.0018068367539149e7 0.0
0.0 0.0 0.0

-1.1909497642202757e7 4.447484720841427e6 0.0
4.447484720841427e6 1.998594437355838e7 0.0
0.0 0.0 0.0

-181268.59602943715 1.7097478656758998e7 0.0
1.7097478656758998e7 -8.044836649799748e6 0.0
0.0 0.0 0.0

-5.57682011734369e6 2.1435211534919858e7 0.0
2.1435211534919858e7 6.3831819840431865e6 0.0
0.0 0.0 0.0

-1.1572357913509157e7 6.723731734621091e6 0.0
6.723731734621091e6 2.8017387803923987e7 0.0
0.0 0.0 0.0

-8.136808924634829e6 9.510893136718763e6 0.0
9.510893136718763e6 8.867627301529355e6 0.0
0.0 0.0 0.0

-1.1572524348444195e7 496146.19690040906 0.0
496146.19690040906 2.6987186789452113e7 0.0
0.0 0.0 0.0

422912.1730114687 1.4119402927607365e7 0.0
1.4119402927607365e7 -1.350411807869904e7 0.0
0.0 0.0 0.0

-5.441590725690711e6 1.9343065936222352e7 0.0
1.9343065936222352e7 8.037689898880599e6 0.0
0.0 0.0 0.0

-1.1919046503877318e6 1.6263456035778685e7 0.0
1.6263456035778685e7 -1.093414843128415e6 0.0
0.0 0.0 0.0

3.5307951118351417e6 7.841104981808787e6 0.0
7.841104981808787e6 -1.3955118505022816e7 0.0
0.0 0.0 0.0

-9.867611955016777e6 -3.3099888941489435e6 0.0
-3.3099888941489435e6 2.2179840864830807e7 0.0
0.0 0.0 0.0

-7.97321006924716e6 1.3166995158410423e7 0.0
1.3166995158410423e7 2.9052135450389523e7 0.0
0.0 0.0 0.0

-1.0582748106693251e7 9.570477075177984e6 0.0
9.570477075177984e6 2.9935878897697005e7 0.0
0.0 0.0 0.0

-795364.8142162845 1.499302967486117e7 0.0
1.499302967486117e7 7.716563697105104e6 0.0
0.0 0.0 0.0

-1.2373351921301808e7 3.06212740381692e6 0.0
3.06212740381692e6 1.8144894358379915e7 0.0
0.0 0.0 0.0

-5.130966057205211e6 1.173052062267037e7 0.0
1.173052062267037e7 6.243360795905866e6 0.0
0.0 0.0 0.0

-1.5432189784887584e6 1.5986898560015941e7 0.0
1.5986898560015941e7 -4.5547293893929375e6 0.0
0.0 0.0 0.0

581390.1379899187 1.2960963690858044e7 0.0
1.2960963690858044e7 -1.1568758500374852e7 0.0
0.0 0.0 0.0

-5.057219543873415e6 1.7887238882801976e7 0.0
1.7887238882801976e7 1.046991896235698e7 0.0
0.0 0.0 0.0

-4.362454436433082e6 2.3797280858365025e7 0.0
2.3797280858365025e7 4.650466407602949e6 0.0
0.0 0.0 0.0

-1.2453319484542584e7 9.682722973740209e6 0.0
9.682722973740209e6 2.2494067197216175e7 0.0
0.0 0.0 0.0

4.224548410217468e6 1.4172677045887232e7 0.0
1.4172677045887232e7 1.5429630650218025e7 0.0
0.0 0.0 0.0

316672.1762697436 1.5174245493369782e7 0.0
1.5174245493369782e7 -7.760323951488963e6 0.0
0.0 0.0 0.0

3.166707966740785e6 9.698190150669808e6 0.0
9.698190150669808e6 -1.7653060804356124e7 0.0
0.0 0.0 0.0

4.996415708785243e6 3.787024051115087e6 0.0
3.787024051115087e6 -2.6842840293286014e7 0.0
0.0 0.0 0.0

-1.0651988792657891e7 -2.91609080394747e6 0.0
-2.91609080394747e6 2.501112552533156e7 0.0
0.0 0.0 0.0

-4.6088391033888385e6 1.7893409271806743e7 0.0
1.7893409271806743e7 9.647917617963076e6 0.0
0.0 0.0 0.0

-6.0510026445683325e6 1.3441520405319534e7 0.0
1.3441520405319534e7 1.4028807262769746e7 0.0
0.0 0.0 0.0

-4.213062358263904e6 1.405644568344568e7 0.0
1.405644568344568e7 4.431220755600227e7 0.0
0.0 0.0 0.0

478142.6506025288 1.2413511154855601e7 0.0
1.2413511154855601e7 -1.07561749617741e7 0.0
0.0 0.0 0.0

3.275820417473308e6 1.4449278289625697e7 0.0
1.4449278289625697e7 1.091940179658474e7 0.0
0.0 0.0 0.0

-1.0412373795905266e7 -3.064890584470424e6 0.0
-3.064890584470424e6 1.7214970484862946e7 0.0
0.0 0.0 0.0

-2.0233334362813957e7 -1.1058946577549737e6 0.0
-1.1058946577549737e6 9.38346590590385e6 0.0
0.0 0.0 0.0

3.231091859697664e6 8.539288286583189e6 0.0
8.539288286583189e6 -2.074015286231029e7 0.0
0.0 0.0 0.0

-1.1507345897358052e7 1.3460514129068772e6 0.0
1.3460514129068772e6 1.561001115014754e7 0.0
0.0 0.0 0.0

2.7033411541826585e6 9.507445476565419e6 0.0
9.507445476565419e6 -2.283058700365178e7 0.0
0.0 0.0 0.0

-1.0320524602600288e7 1.3714606381191794e7 0.0
1.3714606381191794e7 2.2194754067257676e7 0.0
0.0 0.0 0.0

4.94389806139517e6 4.313662765034006e6 0.0
4.313662765034006e6 -1.7784723747072566e7 0.0
0.0 0.0 0.0

3.8342252299490776e6 2.0932858917847484e7 0.0
2.0932858917847484e7 -5.014039973970189e6 0.0
0.0 0.0 0.0

-1.8993734490232877e6 1.1761800397901159e7 0.0
1.1761800397901159e7 -1.4915922707347206e6 0.0
0.0 0.0 0.0

1.3179675631214033e6 6.136985703100274e6 0.0
6.136985703100274e6 -4.553540966362627e6 0.0
0.0 0.0 0.0

1.970787411373873e7 5.715795706439927e6 0.0
5.715795706439927e6 -3.197652989006412e6 0.0
0.0 0.0 0.0

-8.91351519298537e6 1.4209436409022504e7 0.0
1.4209436409022504e7 2.14232127456798e7 0.0
0.0 0.0 0.0

-461154.68859442906 9.092120428747177e6 0.0
9.092120428747177e6 -5.54313447557554e6 0.0
0.0 0.0 0.0

-1.216012869368654e7 1.787718211854328e6 0.0
1.787718211854328e6 2.5205677295332517e7 0.0
0.0 0.0 0.0

2.1494377341988166e6 5.443153463341068e6 0.0
5.443153463341068e6 -8.325832229560639e6 0.0
0.0 0.0 0.0

-2.3956616340542026e6 1.72374406170295e7 0.0
1.72374406170295e7 -3.7785898313008975e6 0.0
0.0 0.0 0.0

-6.170381172378791e6 1.6462147853444038e7 0.0
1.6462147853444038e7 1.253121754442335e7 0.0
0.0 0.0 0.0

-1.116321560235501e7 4.66699378202688e6 0.0
4.66699378202688e6 1.6402046710339388e7 0.0
0.0 0.0 0.0

3.60067898313515e6 7.550351671543746e6 0.0
7.550351671543746e6 -2.1262947393312924e7 0.0
0.0 0.0 0.0

-2.5730081954108e6 1.3574844680657241e7 0.0
1.3574844680657241e7 -2.426026472048471e7 0.0
0.0 0.0 0.0

-3.6688452122518336e6 5.874344873186963e6 0.0
5.874344873186963e6 1.5120655611621798e6 0.0
0.0 0.0 0.0

4.401665043430899e6 4.482158273556751e6 0.0
4.482158273556751e6 -1.6563623935984546e7 0.0
0.0 0.0 0.0

-442345.4335014848 1.4681373552784253e7 0.0
1.4681373552784253e7 -9.896308011473656e6 0.0
0.0 0.0 0.0

1.0130401357197823e7 1.6272285865749441e7 0.0
1.6272285865749441e7 1.1085051622420205e6 0.0
0.0 0.0 0.0

4.72290536368742e6 5.724489406305633e6 0.0
5.724489406305633e6 -2.7223542843465474e7 0.0
0.0 0.0 0.0

-9.68110338570764e6 -1.532245921299686e6 0.0
-1.532245921299686e6 4.040860050623341e6 0.0
0.0 0.0 0.0

-8.61419438296926e6 1.4950835935320383e7 0.0
1.4950835935320383e7 1.6060408536082987e7 0.0
0.0 0.0 0.0

-982120.9798604022 7.678345509192315e6 0.0
7.678345509192315e6 -944231.6736973427 0.0
0.0 0.0 0.0

-1.1624701510966651e7 3.947536416022316e6 0.0
3.947536416022316e6 1.783136510432708e7 0.0
0.0 0.0 0.0

4.443359449628187e6 6.003809883477541e6 0.0
6.003809883477541e6 -3.1071070793258753e7 0.0
0.0 0.0 0.0

5.004736734111748e6 1.4916354167756254e7 0.0
1.4916354167756254e7 1.6682456022630095e7 0.0
0.0 0.0 0.0

2.732115035382281e6 1.8306620809107665e7 0.0
1.8306620809107665e7 9.280142072894607e6 0.0
0.0 0.0 0.0

-2.6826758402447933e6 1.3883127674583212e7 0.0
1.3883127674583212e7 -1.5637946160580143e7 0.0
0.0 0.0 0.0

264441.4997628438 1.153326535507312e7 0.0
1.153326535507312e7 -9.265716120038738e6 0.0
0.0 0.0 0.0

-5.550268923376932e6 1.7059158619690523e7 0.0
1.7059158619690523e7 1.1780846644514466e7 0.0
0.0 0.0 0.0

5.095860779609644e6 1.5908844029092183e7 0.0
1.5908844029092183e7 -1.8332815210365881e6 0.0
0.0 0.0 0.0

2.817839140504527e6 9.466506731263995e6 0.0
9.466506731263995e6 -2.016670485581305e7 0.0
0.0 0.0 0.0

-1.9308472748593132e6 2.2706471901666522e7 0.0
2.2706471901666522e7 -1.0351240303485023e6 0.0
0.0 0.0 0.0

-764139.7207260138 1.3313488170664215e7 0.0
1.3313488170664215e7 2.5983856880432274e6 0.0
0.0 0.0 0.0

-5.164663240661872e7 3.0637614192262776e6 0.0
3.0637614192262776e6 7.534131376356147e6 0.0
0.0 0.0 0.0

3.539537981887518e7 6.153252125404749e6 0.0
6.153252125404749e6 -2.651171809219286e6 0.0
0.0 0.0 0.0

730637.365706183 1.614567299224781e7 0.0
1.614567299224781e7 6.26114758668973e6 0.0
0.0 0.0 0.0

-6.578131777610339e6 5.462688798198177e6 0.0
5.462688798198177e6 2.247876913452401e7 0.0
0.0 0.0 0.0

-939576.1696865773 1.6050748473501485e7 0.0
1.6050748473501485e7 9.668271079970146e6 0.0
0.0 0.0 0.0

-1.124422325199728e6 1.936328874479187e7 0.0
1.936328874479187e7 -5.326093599425605e6 0.0
0.0 0.0 0.0

2.764620552763855e6 1.6087883573614066e7 0.0
1.6087883573614066e7 9.215402662279014e6 0.0
0.0 0.0 0.0

-1.0617437135191422e7 4.0324516949751936e6 0.0
4.0324516949751936e6 1.5648917809555534e7 0.0
0.0 0.0 0.0

-5.145409103405602e6 1.6943237721444324e7 0.0
1.6943237721444324e7 7.9221123229310885e6 0.0
0.0 0.0 0.0

-3.2409535887496732e7 2.6190903499784388e7 0.0
2.6190903499784388e7 -499222.7205685135 0.0
0.0 0.0 0.0

4.485323943526627e6 4.807000689932187e6 0.0
4.807000689932187e6 -1.9938822508886725e7 0.0
0.0 0.0 0.0

-1.3158125832374804e6 1.6533845027048884e7 0.0
1.6533845027048884e7 -2.4541935064504957e6 0.0
0.0 0.0 0.0

4.60549820192729e6 1.4232482220380586e7 0.0
1.4232482220380586e7 1.7914103568075478e7 0.0
0.0 0.0 0.0

-4.471577705073352e6 1.304473062711672e7 0.0
1.304473062711672e7 -1.490525918224656e7 0.0
0.0 0.0 0.0

2.839861460956431e6 1.4260073013701702e7 0.0
1.4260073013701702e7 9.466205240793005e6 0.0
0.0 0.0 0.0

1.2820491809043083e6 1.1524990686633758e7 0.0
1.1524990686633758e7 -2.5362421858051017e7 0.0
0.0 0.0 0.0

-9.963150644570276e6 -1.4917615789506433e6 0.0
-1.4917615789506433e6 1.920437493230163e7 0.0
0.0 0.0 0.0

-1.3655555828016017e7 2.322348860650498e7 0.0
2.322348860650498e7 7.4654602828785535e6 0.0
0.0 0.0 0.0

2.9181325339500383e6 7.4611472267409535e6 0.0
7.4611472267409535e6 -1.3570845018230325e7 0.0
0.0 0.0 0.0

-8.893715373518914e6 1.4592353650133986e7 0.0
1.4592353650133986e7 2.0341838505963642e7 0.0
0.0 0.0 0.0

-1.073946682565709e7 2.1818431449483614e6 0.0
2.1818431449483614e6 1.2709557866116684e7 0.0
0.0 0.0 0.0

-4.643599235328606e6 2.339858583477565e7 0.0
2.339858583477565e7 5.089768832068802e6 0.0
0.0 0.0 0.0

-9.544216300041193e6 2.6192080956756923e7 0.0
2.6192080956756923e7 6.9445910840102425e6 0.0
0.0 0.0 0.0

-7.715465149396803e6 -2.6555407274759277e6 0.0
-2.6555407274759277e6 5.975550171428205e6 0.0
0.0 0.0 0.0

-1.6604979593239834e6 1.2927647104034247e7 0.0
1.2927647104034247e7 -8.211563040208999e6 0.0
0.0 0.0 0.0

-976700.2472962674 1.8946716457610905e7 0.0
1.8946716457610905e7 -5.428787817872434e6 0.0
0.0 0.0 0.0

-4.198687954029705e6 3.5988366900047623e6 0.0
3.5988366900047623e6 3.0646458948896984e6 0.0
0.0 0.0 0.0

2.2795225098304795e6 2.1318189975269593e7 0.0
2.1318189975269593e7 -4.653294812905484e6 0.0
0.0 0.0 0.0

-1.1383638209656985e7 2.8354807119154297e6 0.0
2.8354807119154297e6 1.3944053670729065e7 0.0
0.0 0.0 0.0

4.501997070051069e6 5.006953407642105e6 0.0
5.006953407642105e6 -2.2908153087225217e7 0.0
0.0 0.0 0.0

4.26873352730506e6 5.668448257511043e6 0.0
5.668448257511043e6 -2.0796313681690466e7 0.0
0.0 0.0 0.0

1.145154765627488e6 1.134100194888361e7 0.0
1.134100194888361e7 -1.1813411419283045e7 0.0
0.0 0.0 0.0

-368941.0252542752 1.7064207093464166e7 0.0
1.7064207093464166e7 -8.460262700524598e6 0.0
0.0 0.0 0.0

4.540183197112735e6 5.501163860931537e6 0.0
5.501163860931537e6 -3.2686314101235878e7 0.0
0.0 0.0 0.0

-4.1341048189121466e6 1.8537308967393097e7 0.0
1.8537308967393097e7 -6.909590477954717e6 0.0
0.0 0.0 0.0

1.201898516229798e6 1.269611916090404e7 0.0
1.269611916090404e7 -1.615423003030008e7 0.0
0.0 0.0 0.0

-1.1564366275624823e7 1.3946586907854704e7 0.0
1.3946586907854704e7 1.7929134986580662e7 0.0
0.0 0.0 0.0

-2.7754471243298315e6 1.822624847736692e7 0.0
1.822624847736692e7 -5.991136408315228e6 0.0
0.0 0.0 0.0

3.451777308569966e6 9.158838368025139e6 0.0
9.158838368025139e6 -1.9685132025410302e7 0.0
0.0 0.0 0.0

-2.4330946607658993e7 1.694057102389888e7 0.0
1.694057102389888e7 9.323132970621916e6 0.0
0.0 0.0 0.0

4.655177538174529e6 4.442252343197553e6 0.0
4.442252343197553e6 -2.378851369593863e7 0.0
0.0 0.0 0.0

4.749240630706768e6 5.703191605498493e6 0.0
5.703191605498493e6 -2.0627282632247332e7 0.0
0.0 0.0 0.0

-20007.382283858024 1.5798606850832965e7 0.0
1.5798606850832965e7 -1.0306991482684297e7 0.0
0.0 0.0 0.0

-1.5489329730587566e7 -2.2524982730956567e6 0.0
-2.2524982730956567e6 7.91963422008915e6 0.0
0.0 0.0 0.0

1.786666437329749e6 9.17432628286439e6 0.0
9.17432628286439e6 -8.686136460949916e6 0.0
0.0 0.0 0.0

-4.530736022834953e6 1.4623035613052722e7 0.0
1.4623035613052722e7 1.73201073809148e7 0.0
0.0 0.0 0.0

-4.0800729054856077e6 2.249666423403148e7 0.0
2.249666423403148e7 4.759313801629093e6 0.0
0.0 0.0 0.0

-5.287233747951517e6 2.378558530443098e7 0.0
2.378558530443098e7 5.454662309983234e6 0.0
0.0 0.0 0.0

-1.1756017633634152e7 4.81333945232717e6 0.0
4.81333945232717e6 1.4290182457785966e7 0.0
0.0 0.0 0.0

-7.391748921395894e6 1.0976649141477097e7 0.0
1.0976649141477097e7 4.233878425897953e7 0.0
0.0 0.0 0.0

-3.5010483786738804e6 2.26799270811028e7 0.0
2.26799270811028e7 3.5782739926288123e6 0.0
0.0 0.0 0.0

-2.1150664731837837e6 1.6683851867266206e7 0.0
1.6683851867266206e7 -1.154749018865609e6 0.0
0.0 0.0 0.0

343339.64478205494 1.4716479759950837e7 0.0
1.4716479759950837e7 -4.712487517737482e6 0.0
0.0 0.0 0.0

1.8922579615100857e7 1.720900615801494e7 0.0
1.720900615801494e7 7.151208139102192e6 0.0
0.0 0.0 0.0

-1.0805451558409471e7 5.867211927546503e6 0.0
5.867211927546503e6 1.5834182621980935e7 0.0
0.0 0.0 0.0

5.093738090483921e6 4.581529889910358e6 0.0
4.581529889910358e6 -2.227731422113075e7 0.0
0.0 0.0 0.0

-40321.40710967686 1.5143289480531339e7 0.0
1.5143289480531339e7 -9.164230093044167e6 0.0
0.0 0.0 0.0

-2.993552248838914e6 1.259239650483508e7 0.0
1.259239650483508e7 798679.2306987385 0.0
0.0 0.0 0.0

-1.1874724129578661e7 1.3998315773843713e7 0.0
1.3998315773843713e7 7.419890307906191e6 0.0
0.0 0.0 0.0

-1.0374217171921326e7 -1.578667963577021e6 0.0
-1.578667963577021e6 2.4322684126054287e7 0.0
0.0 0.0 0.0

-5.226681244105369e7 3.3466738609859996e7 0.0
3.3466738609859996e7 -5.911077203154055e6 0.0
0.0 0.0 0.0

-6.270667138336659e6 1.4015117316374399e7 0.0
1.4015117316374399e7 -2.0902224310112547e7 0.0
0.0 0.0 0.0

4.33302083020785e6 1.4728833844904091e7 0.0
1.4728833844904091e7 1.4443403307718925e7 0.0
0.0 0.0 0.0

1.6096632543249931e6 1.194801789560174e7 0.0
1.194801789560174e7 -1.807193884776798e7 0.0
0.0 0.0 0.0

-9.330900147967711e6 1.9935558635404598e7 0.0
1.9935558635404598e7 2.211196286402621e6 0.0
0.0 0.0 0.0

3.2690713335491577e6 7.979059064032616e6 0.0
7.979059064032616e6 -1.2723018713678615e7 0.0
0.0 0.0 0.0

3.857362604685976e6 8.185078359409535e6 0.0
8.185078359409535e6 -2.0185753907400332e7 0.0
0.0 0.0 0.0

-6.883740747734972e6 1.588638040582951e7 0.0
1.588638040582951e7 1.3728216322061813e7 0.0
0.0 0.0 0.0

2.613573225389271e6 9.930073152197748e6 0.0
9.930073152197748e6 -1.9253919050813306e7 0.0
0.0 0.0 0.0

-4.260170461981777e6 2.295752265277282e7 0.0
2.295752265277282e7 4.916023141797929e6 0.0
0.0 0.0 0.0

-1.2617224319584597e7 3.394073634176927e6 0.0
3.394073634176927e6 2.2133170953548267e7 0.0
0.0 0.0 0.0

-8.647054217720393e6 -3.0976266854970143e6 0.0
-3.0976266854970143e6 1.7166112754536275e7 0.0
0.0 0.0 0.0

3.7799087087743646e6 7.069304237370378e6 0.0
7.069304237370378e6 -2.0828569482038822e7 0.0
0.0 0.0 0.0

-5.975497348418914e6 1.853218067287282e7 0.0
1.853218067287282e7 -5.095973222704084e6 0.0
0.0 0.0 0.0

-258167.2905580203 2.424776414935665e7 0.0
2.424776414935665e7 -2.351603283294896e6 0.0
0.0 0.0 0.0

-9.857930881092682e6 1.4124590329297172e7 0.0
1.4124590329297172e7 1.696404441425456e7 0.0
0.0 0.0 0.0

4.182579539087699e6 6.002736388071424e6 0.0
6.002736388071424e6 -2.252736656592364e7 0.0
0.0 0.0 0.0

4.448892025059391e6 5.960182309518809e6 0.0
5.960182309518809e6 -2.9005445740128394e7 0.0
0.0 0.0 0.0

-9.987045315823749e6 9.764758720257808e6 0.0
9.764758720257808e6 3.3487938034731127e7 0.0
0.0 0.0 0.0

-1.1871150492246976e7 3.6262018621057197e6 0.0
3.6262018621057197e6 2.3142582063501596e7 0.0
0.0 0.0 0.0

1.181018406169346e6 2.1393257600297123e7 0.0
2.1393257600297123e7 -4.306100836666945e6 0.0
0.0 0.0 0.0

-2.635701450276071e6 1.7873863516797576e7 0.0
1.7873863516797576e7 -1.4882720719640316e6 0.0
0.0 0.0 0.0

-1.1383521542521099e7 1.9322707960632194e6 0.0
1.9322707960632194e6 2.650506070572626e7 0.0
0.0 0.0 0.0

3.662572816911035e6 5.186392274046551e6 0.0
5.186392274046551e6 -1.3593222620829554e7 0.0
0.0 0.0 0.0

-4.1057315640930175e6 1.7962918792812902e7 0.0
1.7962918792812902e7 833937.4798988434 0.0
0.0 0.0 0.0

-9.956659947183056e6 1.883745055732679e7 0.0
1.883745055732679e7 -4.1253245928666024e6 0.0
0.0 0.0 0.0

-8.132126137561757e6 7.810032959596312e6 0.0
7.810032959596312e6 8.981023177903475e6 0.0
0.0 0.0 0.0

4.7661004139527455e6 5.591880634680598e6 0.0
5.591880634680598e6 -2.1909096012382835e7 0.0
0.0 0.0 0.0

2.5070084506696817e6 9.953763085232334e6 0.0
9.953763085232334e6 -1.804745427567986e7 0.0
0.0 0.0 0.0

-8.772648446012767e6 -115709.51191141353 0.0
-115709.51191141353 1.0797568472944662e7 0.0
0.0 0.0 0.0

-1.2098558760175537e7 5.696152586294841e6 0.0
5.696152586294841e6 1.9292010304353103e7 0.0
0.0 0.0 0.0

1.2772285477834763e6 1.1662903020532556e7 0.0
1.1662903020532556e7 -2.3835057051199116e7 0.0
0.0 0.0 0.0

4.854316240563181e6 5.278016881639636e6 0.0
5.278016881639636e6 -2.021483690344644e7 0.0
0.0 0.0 0.0

-3.016108505383862e6 1.767228525486099e7 0.0
1.767228525486099e7 -2.7007064877627483e6 0.0
0.0 0.0 0.0

4.266385218348748e6 7.164116929283105e6 0.0
7.164116929283105e6 -2.0655914778953463e7 0.0
0.0 0.0 0.0

-8.445715698732832e6 1.1460214013577956e6 0.0
1.1460214013577956e6 1.2513971655072466e7 0.0
0.0 0.0 0.0

-8.772634389936768e6 1.5770922504146542e7 0.0
1.5770922504146542e7 -2.924211691863273e7 0.0
0.0 0.0 0.0

7.128623850517976e6 1.5748466000846874e7 0.0
1.5748466000846874e7 2.3762081690262977e7 0.0
0.0 0.0 0.0

344427.08930549095 1.4887801949305793e7 0.0
1.4887801949305793e7 -1776.7493791164889 0.0
0.0 0.0 0.0

-2.1107355696898207e7 -836057.5647092618 0.0
-836057.5647092618 8.976353795524843e6 0.0
0.0 0.0 0.0

-7.636564925790496e6 -597460.2743409607 0.0
-597460.2743409607 1.1569506747863475e7 0.0
0.0 0.0 0.0

3.43657409442298e6 1.6275382938130494e7 0.0
1.6275382938130494e7 1.1455244511151923e7 0.0
0.0 0.0 0.0

-2.836656104195747e6 1.4488040272743907e7 0.0
1.4488040272743907e7 -9.455519158166215e6 0.0
0.0 0.0 0.0

-6.644786661428766e6 1.1298523229757728e7 0.0
1.1298523229757728e7 4.6817051504174806e7 0.0
0.0 0.0 0.0

3.988157259394751e6 6.55356828501492e6 0.0
6.55356828501492e6 -2.16895792030221e7 0.0
0.0 0.0 0.0

-1.2154791442009183e6 1.847509460084402e7 0.0
1.847509460084402e7 -6.395617429877276e6 0.0
0.0 0.0 0.0

-3.694143061477116e6 1.388917172390136e7 0.0
1.388917172390136e7 -2.311313046962435e7 0.0
0.0 0.0 0.0

-4.374506046950773e6 2.17650059763073e7 0.0
2.17650059763073e7 4.211971499453321e6 0.0
0.0 0.0 0.0

-4.4005987347687725e6 1.7731926864408e7 0.0
1.7731926864408e7 6.132084751727179e6 0.0
0.0 0.0 0.0

-2.1778884393785335e6 2.1402124628581785e7 0.0
2.1402124628581785e7 -1.9292805087151397e6 0.0
0.0 0.0 0.0

-7.0163342245149575e6 1.5008545678350603e7 0.0
1.5008545678350603e7 -3.0448541715409722e7 0.0
0.0 0.0 0.0

317401.07334476686 2.133789753582505e7 0.0
2.133789753582505e7 -4.02614652069365e6 0.0
0.0 0.0 0.0

-1.0848206785045806e7 1.3660613465401348e7 0.0
1.3660613465401348e7 2.0445965718837906e7 0.0
0.0 0.0 0.0

2.5668028428475736e6 8.347155318764288e6 0.0
8.347155318764288e6 -1.3308502754998133e7 0.0
0.0 0.0 0.0

4.127715112909346e6 6.098171321624209e6 0.0
6.098171321624209e6 -2.1240377254993923e7 0.0
0.0 0.0 0.0

-793652.9669041361 1.772811288053142e7 0.0
1.772811288053142e7 -7.557295864360853e6 0.0
0.0 0.0 0.0

-1.766244482280527e6 1.2904074515223999e7 0.0
1.2904074515223999e7 -5.017679101611291e6 0.0
0.0 0.0 0.0

3.216476687623866e6 8.413128142172905e6 0.0
8.413128142172905e6 -2.3652653769051924e7 0.0
0.0 0.0 0.0

-4.234584407170199e6 2.0914424914871916e7 0.0
2.0914424914871916e7 4.699424081028307e6 0.0
0.0 0.0 0.0

-2.760762071548042e6 1.428066735857071e7 0.0
1.428066735857071e7 -552366.0296383922 0.0
0.0 0.0 0.0

860705.7891388736 1.288733923373821e7 0.0
1.288733923373821e7 -1.004012044736841e7 0.0
0.0 0.0 0.0

2.551371591777268e6 1.0435501322264262e7 0.0
1.0435501322264262e7 -2.2733093176000047e7 0.0
0.0 0.0 0.0

-824463.43565583 2.0917140165669404e7 0.0
2.0917140165669404e7 -3.787590055898849e6 0.0
0.0 0.0 0.0

237790.00400732504 1.4271318776588187e7 0.0
1.4271318776588187e7 -9.254072283791158e6 0.0
0.0 0.0 0.0

-741174.5753945572 1.2043441115073444e7 0.0
1.2043441115073444e7 -4.41098285622613e6 0.0
0.0 0.0 0.0

1.68731114917122e7 5.596575926760916e6 0.0
5.596575926760916e6 -3.10196122575681e6 0.0
0.0 0.0 0.0

-4.7666038747384595e6 1.5299096156028653e7 0.0
1.5299096156028653e7 5.407517405135352e6 0.0
0.0 0.0 0.0

-6.81880603356491e6 7.281779046354944e6 0.0
7.281779046354944e6 9.814004663537554e6 0.0
0.0 0.0 0.0

-1.0101090384579424e7 -1.9174539051034586e6 0.0
-1.9174539051034586e6 2.1077810716604326e7 0.0
0.0 0.0 0.0

5.070169070754563e6 4.44024403910188e6 0.0
4.44024403910188e6 -1.9346554757643558e7 0.0
0.0 0.0 0.0

3.975625081919711e6 6.253468422538205e6 0.0
6.253468422538205e6 -1.4940638902186131e7 0.0
0.0 0.0 0.0

4.776372422953499e6 5.39412779717393e6 0.0
5.39412779717393e6 -1.8925726973018907e7 0.0
0.0 0.0 0.0

-2.0720581524313851e6 1.4072404943609366e7 0.0
1.4072404943609366e7 -1.5058502876986235e7 0.0
0.0 0.0 0.0

-323024.94541614037 2.1157836702108286e7 0.0
2.1157836702108286e7 -3.858403914333567e6 0.0
0.0 0.0 0.0

-1.0878507890790574e7 1.3925510815758383e7 0.0
1.3925510815758383e7 1.93296278305114e7 0.0
0.0 0.0 0.0

-5.466637690022035e6 1.568692126446969e7 0.0
1.568692126446969e7 4.75865684038383e6 0.0
0.0 0.0 0.0

4.207582312598682e6 5.806388540084148e6 0.0
5.806388540084148e6 -1.96003725275109e7 0.0
0.0 0.0 0.0

-9.967093603918444e6 1.620691175552209e6 0.0
1.620691175552209e6 1.1806303653582994e7 0.0
0.0 0.0 0.0

-1.0918077107786521e7 1.46255473375118e7 0.0
1.46255473375118e7 1.7741028246173833e7 0.0
0.0 0.0 0.0

151175.0824034349 1.5562672252178451e7 0.0
1.5562672252178451e7 -1.114786801276066e7 0.0
0.0 0.0 0.0

836053.3930703239 1.5401359765005736e7 0.0
1.5401359765005736e7 -5.587205103221744e6 0.0
0.0 0.0 0.0

-4.12897649848709e6 2.1643470552985206e7 0.0
2.1643470552985206e7 5.150963697629726e6 0.0
0.0 0.0 0.0

1.7647154339259705e6 1.2566491961636338e7 0.0
1.2566491961636338e7 -1.5977778894858636e7 0.0
0.0 0.0 0.0

4.540928192132827e6 6.252495597896983e6 0.0
6.252495597896983e6 -1.9838765231022593e7 0.0
0.0 0.0 0.0

4.0947309770124247e6 6.211114603664256e6 0.0
6.211114603664256e6 -2.0008604074027583e7 0.0
0.0 0.0 0.0

2.2191412407385414e6 7.607151022740473e6 0.0
7.607151022740473e6 -1.1084141069875479e7 0.0
0.0 0.0 0.0

3.9389073802634133e6 6.623970711769351e6 0.0
6.623970711769351e6 -2.0435184012351703e7 0.0
0.0 0.0 0.0

4.585981775469008e6 5.756630480478645e6 0.0
5.756630480478645e6 -1.6910816233516995e7 0.0
0.0 0.0 0.0

-6.634249146875966e6 2.5308599183846295e7 0.0
2.5308599183846295e7 6.010040577967273e6 0.0
0.0 0.0 0.0

1.08953785062598e6 2.234930993818619e7 0.0
2.234930993818619e7 -4.007417330440155e6 0.0
0.0 0.0 0.0

-4.927563348049479e6 1.849623930601043e7 0.0
1.849623930601043e7 6.580935305626142e6 0.0
0.0 0.0 0.0

3.894183644381908e6 6.170171487345277e6 0.0
6.170171487345277e6 -1.7572873853865948e7 0.0
0.0 0.0 0.0

-2.1072407131623146e6 1.55666446510937e7 0.0
1.55666446510937e7 -5.220605222819717e6 0.0
0.0 0.0 0.0

-834557.3769375789 1.2361716774666373e7 0.0
1.2361716774666373e7 -534624.1443446605 0.0
0.0 0.0 0.0

-1.1617515966839788e7 1.7804787880758032e7 0.0
1.7804787880758032e7 -3.872506411986582e7 0.0
0.0 0.0 0.0

1.1677483069917608e7 1.8799533667062096e7 0.0
1.8799533667062096e7 3.892496087557158e7 0.0
0.0 0.0 0.0

6.078900831137912e6 1.6239491686975613e7 0.0
1.6239491686975613e7 -2.085897385537648e6 0.0
0.0 0.0 0.0

9.534671882898372e6 1.689102916806895e7 0.0
1.689102916806895e7 -3.9324094410481183e6 0.0
0.0 0.0 0.0

3.3740611289923415e6 6.535644456739097e6 0.0
6.535644456739097e6 -3.61670889082061e7 0.0
0.0 0.0 0.0

747602.3805027353 1.4449826855851127e7 0.0
1.4449826855851127e7 -1.252920328400066e7 0.0
0.0 0.0 0.0

-1.6300391405038093e6 1.6164794203860665e7 0.0
1.6164794203860665e7 8.650738552644182e6 0.0
0.0 0.0 0.0

-1.2456660165976182e7 3.1406605489589805e6 0.0
3.1406605489589805e6 2.38932645501941e7 0.0
0.0 0.0 0.0

-1.0168544551822547e7 1.3238919066181684e7 0.0
1.3238919066181684e7 2.3587745825969517e7 0.0
0.0 0.0 0.0

-2.664240217038146e6 1.6995318179609414e7 0.0
1.6995318179609414e7 5.3284218924622955e6 0.0
0.0 0.0 0.0

-866109.4122317472 1.2614471261069031e7 0.0
1.2614471261069031e7 -4.573431792330886e6 0.0
0.0 0.0 0.0

-7.544200245064595e6 2.1108189170916896e7 0.0
2.1108189170916896e7 -5.449786475451325e6 0.0
0.0 0.0 0.0

-5.2690503298476655e6 1.762019734705834e7 0.0
1.762019734705834e7 1.0756272985903135e7 0.0
0.0 0.0 0.0

-7.300924017334152e6 1.0776588909019709e7 0.0
1.0776588909019709e7 8.054322777609509e6 0.0
0.0 0.0 0.0

-4.572597498006024e6 1.795656256055539e7 0.0
1.795656256055539e7 4.178155693453408e6 0.0
0.0 0.0 0.0

4.477695949078681e6 6.378092871415712e6 0.0
6.378092871415712e6 -2.6197920829448152e7 0.0
0.0 0.0 0.0

3.8927227656816375e6 6.971035994752431e6 0.0
6.971035994752431e6 -1.4218546991762519e7 0.0
0.0 0.0 0.0

-579759.0067547904 1.5906500156465348e7 0.0
1.5906500156465348e7 -9.7728816096547e6 0.0
0.0 0.0 0.0

2.2722092397944536e6 1.045577197276772e7 0.0
1.045577197276772e7 -1.723931250419951e7 0.0
0.0 0.0 0.0

-1.1297868267029813e7 5.719536715698911e6 0.0
5.719536715698911e6 2.9686344527027223e7 0.0
0.0 0.0 0.0

-3.0223206003348646e6 3.5942084855159703e6 0.0
3.5942084855159703e6 1.678598547230797e6 0.0
0.0 0.0 0.0

-9.887627620560763e6 5.261607077665642e6 0.0
5.261607077665642e6 3.865490844713913e7 0.0
0.0 0.0 0.0

-700696.8026165972 1.5297703021560224e7 0.0
1.5297703021560224e7 -9.391819695182286e6 0.0
0.0 0.0 0.0

-4.850006666342214e6 1.890555818867158e7 0.0
1.890555818867158e7 7.705083648873044e6 0.0
0.0 0.0 0.0

-7.43908550948748e6 9.286366855495276e6 0.0
9.286366855495276e6 1.1297121178079257e7 0.0
0.0 0.0 0.0

-769270.85676609 1.9615169839508444e7 0.0
1.9615169839508444e7 -5.127673742445999e6 0.0
0.0 0.0 0.0

-7.381384717713963e6 6.121180763413877e6 0.0
6.121180763413877e6 8.227084730058247e6 0.0
0.0 0.0 0.0

-6.446251167023983e6 1.6966670652355235e7 0.0
1.6966670652355235e7 1.1640471474465823e7 0.0
0.0 0.0 0.0

1.2586305773072656e7 1.9835258434035286e7 0.0
1.9835258434035286e7 -9.255381350971408e6 0.0
0.0 0.0 0.0

-1.0131483182154879e7 1.4780053858725866e7 0.0
1.4780053858725866e7 1.5735187367320769e7 0.0
0.0 0.0 0.0

-1.4249199229441616e6 4.349437063794658e6 0.0
4.349437063794658e6 1.2088821251814184e6 0.0
0.0 0.0 0.0

-2.4508239893868558e7 -536521.9758540655 0.0
-536521.9758540655 9.613767870052345e6 0.0
0.0 0.0 0.0

4.6284117068615565e6 4.833691205762325e6 0.0
4.833691205762325e6 -2.0981863482195914e7 0.0
0.0 0.0 0.0

-6.810090069918875e6 2.296047805822764e7 0.0
2.296047805822764e7 6.453790165640645e6 0.0
0.0 0.0 0.0

-8.452151362791907e6 855734.1679207612 0.0
855734.1679207612 9.429185543295296e6 0.0
0.0 0.0 0.0

-2.8346065531873396e6 1.0665687619489573e7 0.0
1.0665687619489573e7 -1.5627286811200944e6 0.0
0.0 0.0 0.0

-1.1258936968745861e7 -855701.6704259486 0.0
-855701.6704259486 1.9055082070978563e7 0.0
0.0 0.0 0.0

-59161.045735471416 1.553415842125839e7 0.0
1.553415842125839e7 -1.1365662516257161e7 0.0
0.0 0.0 0.0

-1.1008491755922217e7 -2.2542285846424117e6 0.0
-2.2542285846424117e6 2.003221694504983e7 0.0
0.0 0.0 0.0

581000.1718083615 1.3123080099352531e7 0.0
1.3123080099352531e7 -1.2164812013378303e7 0.0
0.0 0.0 0.0

-1.055397272653491e7 1.4579294858174343e7 0.0
1.4579294858174343e7 1.86461893343814e7 0.0
0.0 0.0 0.0

-8.73432916259103e6 8.36213920495326e6 0.0
8.36213920495326e6 9.914067981409865e6 0.0
0.0 0.0 0.0

-8.887514215299966e6 1.3808610415185848e7 0.0
1.3808610415185848e7 2.2775353411176898e7 0.0
0.0 0.0 0.0

-1.0580221662128104e7 1.156831328683417e7 0.0
1.156831328683417e7 1.3989413169066548e7 0.0
0.0 0.0 0.0

-4.0589998940557293e6 1.855575804187309e7 0.0
1.855575804187309e7 982530.8953111738 0.0
0.0 0.0 0.0

4.255621081791358e6 6.94657865825252e6 0.0
6.94657865825252e6 -2.517279000456068e7 0.0
0.0 0.0 0.0

-8.88929111177335e6 1.492384012248075e7 0.0
1.492384012248075e7 1.951641949498803e7 0.0
0.0 0.0 0.0

6.242946027881657e6 1.6214074864664152e7 0.0
1.6214074864664152e7 3.1562828499480216e6 0.0
0.0 0.0 0.0

-1.7620423022912763e7 6.839091503616453e6 0.0
6.839091503616453e6 1.0740520703614287e7 0.0
0.0 0.0 0.0

2.9657204214085564e6 9.811578985703392e6 0.0
9.811578985703392e6 -2.256056888412371e7 0.0
0.0 0.0 0.0

-6.699190097120925e6 1.0349691857614776e7 0.0
1.0349691857614776e7 1.007426493551809e7 0.0
0.0 0.0 0.0

2.965705000315477e6 8.468029500670327e6 0.0
8.468029500670327e6 -1.199254244413775e7 0.0
0.0 0.0 0.0

-6.8789907912661275e6 646937.0561771571 0.0
646937.0561771571 9.57486940189604e6 0.0
0.0 0.0 0.0

-9.443926677768303e6 -3.102472910368737e6 0.0
-3.102472910368737e6 1.4501896325657967e7 0.0
0.0 0.0 0.0

1.4800275983820595e6 1.1790194244314814e7 0.0
1.1790194244314814e7 -1.4625509017817933e7 0.0
0.0 0.0 0.0

-9.858124115266608e6 3.4607352450431352e6 0.0
3.4607352450431352e6 1.4538094130147768e7 0.0
0.0 0.0 0.0

-5.22037406762556e6 1.9293225003095835e7 0.0
1.9293225003095835e7 6.990509557222275e6 0.0
0.0 0.0 0.0

-156238.28969623893 1.4212405124324637e7 0.0
1.4212405124324637e7 6.9427899799791705e6 0.0
0.0 0.0 0.0

272342.4600524071 6.91750504036341e6 0.0
6.91750504036341e6 -2.8596726747329636e6 0.0
0.0 0.0 0.0

-316406.5154616912 1.5736978395857688e7 0.0
1.5736978395857688e7 -8.697338009043327e6 0.0
0.0 0.0 0.0

3.4227196879475117e6 7.15999345848582e6 0.0
7.15999345848582e6 -1.6079904924292993e7 0.0
0.0 0.0 0.0

-2.0020933130205972e6 2.089242350435944e7 0.0
2.089242350435944e7 -2.6578576857062997e6 0.0
0.0 0.0 0.0

-1.71049304643346e6 1.3251331522800053e7 0.0
1.3251331522800053e7 -4.0470420888488665e7 0.0
0.0 0.0 0.0

3.291937447141586e6 5.5996315432596905e6 0.0
5.5996315432596905e6 -1.272367733612014e7 0.0
0.0 0.0 0.0

4.0508729256540425e6 5.7016285321309725e6 0.0
5.7016285321309725e6 -1.720547645956845e7 0.0
0.0 0.0 0.0

-1.580589972240299e6 1.4141479492372757e7 0.0
1.4141479492372757e7 -1.4035628021611206e7 0.0
0.0 0.0 0.0

-314712.2001197062 7.327522611037059e6 0.0
7.327522611037059e6 -1.930343176167976e6 0.0
0.0 0.0 0.0

-8.271505768996401e6 1.57056601498997e7 0.0
1.57056601498997e7 -3.520646462757932e7 0.0
0.0 0.0 0.0

2.0942667377932528e6 7.306227917367597e6 0.0
7.306227917367597e6 -8.010932852989087e6 0.0
0.0 0.0 0.0

3.328554053194994e6 7.571228179756827e6 0.0
7.571228179756827e6 -1.2215899725440616e7 0.0
0.0 0.0 0.0

-382030.1022817832 1.547590787605969e7 0.0
1.547590787605969e7 -2.134485183429075e6 0.0
0.0 0.0 0.0

-1.1724996325025102e7 1.004183670233525e7 0.0
1.004183670233525e7 2.4799424708591208e7 0.0
0.0 0.0 0.0

-3.7285392622511582e6 2.219746545892031e7 0.0
2.219746545892031e7 2.4673863842069353e6 0.0
0.0 0.0 0.0

-1.1476118559065621e7 4.540070182969305e6 0.0
4.540070182969305e6 8.563002774908703e6 0.0
0.0 0.0 0.0

2.048051714757516e6 1.0859737126767458e7 0.0
1.0859737126767458e7 -1.6337939251329822e7 0.0
0.0 0.0 0.0

-844716.2840090645 1.6296245410215832e7 0.0
1.6296245410215832e7 1.0925378860824727e7 0.0
0.0 0.0 0.0

-1.9142349642819057e6 2.0391681437247988e7 0.0
2.0391681437247988e7 -3.432907453277217e6 0.0
0.0 0.0 0.0

-271628.59393625567 1.1647060369164707e7 0.0
1.1647060369164707e7 -7.803856336424984e6 0.0
0.0 0.0 0.0

-1.200720684886952e6 1.9972838659906656e7 0.0
1.9972838659906656e7 -4.590178195224202e6 0.0
0.0 0.0 0.0

746630.2672299147 1.2008864962289743e7 0.0
1.2008864962289743e7 -8.526838528654156e6 0.0
0.0 0.0 0.0

-7.41056242741878e6 -1.639847742741451e6 0.0
-1.639847742741451e6 1.0142154694867395e7 0.0
0.0 0.0 0.0

-651265.7551223235 1.5460127252872027e7 0.0
1.5460127252872027e7 -9.746531138261396e6 0.0
0.0 0.0 0.0

3.894230991599779e6 3.0194596251845654e7 0.0
3.0194596251845654e7 -7.43773207675406e6 0.0
0.0 0.0 0.0

2.0218080604724367e6 1.7644972438365493e7 0.0
1.7644972438365493e7 -4.931935153312884e6 0.0
0.0 0.0 0.0

425923.4411706091 1.5035343504030423e7 0.0
1.5035343504030423e7 -1.1861233041331602e7 0.0
0.0 0.0 0.0

-4.200020997571462e6 1.1972532066010425e7 0.0
1.1972532066010425e7 3.9694156038389243e6 0.0
0.0 0.0 0.0

-3.652640406250235e6 1.4582281765643232e7 0.0
1.4582281765643232e7 -1.0183414562604153e6 0.0
0.0 0.0 0.0

5.083777379565981e6 4.124560492814468e6 0.0
4.124560492814468e6 -2.0247955983524073e7 0.0
0.0 0.0 0.0

3.217543674810618e6 4.556703227201475e6 0.0
4.556703227201475e6 -9.799879564721262e6 0.0
0.0 0.0 0.0

-2.1768643597094235e6 8.07178507818614e6 0.0
8.07178507818614e6 -1.5501550488563492e6 0.0
0.0 0.0 0.0

-5.313441778656627e6 1.7579106263339277e7 0.0
1.7579106263339277e7 -1.187912836611799e6 0.0
0.0 0.0 0.0

3.583003407814484e6 6.014627421711373e6 0.0
6.014627421711373e6 -1.4683347506603256e7 0.0
0.0 0.0 0.0

175788.53817212908 1.3352847292754048e7 0.0
1.3352847292754048e7 -1.0815862204324244e7 0.0
0.0 0.0 0.0

-1.3805537200254733e6 1.6111940525760781e7 0.0
1.6111940525760781e7 6.952021233669371e6 0.0
0.0 0.0 0.0

2.897727608451657e6 1.0147955165820649e7 0.0
1.0147955165820649e7 -1.674899471402895e7 0.0
0.0 0.0 0.0

-9.192404429505773e6 2.770568203965679e6 0.0
2.770568203965679e6 1.3469459645604778e7 0.0
0.0 0.0 0.0

-2.0688517754709415e7 2.2586907560546134e7 0.0
2.2586907560546134e7 6.950086231880666e6 0.0
0.0 0.0 0.0

3.219723784459642e6 9.642380900635496e6 0.0
9.642380900635496e6 -1.879508352500923e7 0.0
0.0 0.0 0.0

-4.1552321236736394e7 1.8981358594750226e6 0.0
1.8981358594750226e6 8.133875950229773e6 0.0
0.0 0.0 0.0

3.2151980191886993e6 6.956005052073413e6 0.0
6.956005052073413e6 -1.4332660370679472e7 0.0
0.0 0.0 0.0

-6.236158137468354e6 1.6199467793961013e7 0.0
1.6199467793961013e7 1.4890200313463062e7 0.0
0.0 0.0 0.0

1.2953966927850815e6 1.180915212389222e7 0.0
1.180915212389222e7 -2.2712540567677222e7 0.0
0.0 0.0 0.0

1.5953641135283122e6 1.2588494304729467e7 0.0
1.2588494304729467e7 -1.802431172852415e7 0.0
0.0 0.0 0.0

-3.60718152949915e6 3.321278934655594e6 0.0
3.321278934655594e6 5.345685121305563e6 0.0
0.0 0.0 0.0

-1.2838193046309847e7 5.362146048325618e6 0.0
5.362146048325618e6 1.8192507275677957e7 0.0
0.0 0.0 0.0

-2.7095811097111385e6 1.253430915147733e7 0.0
1.253430915147733e7 -2.6979588486077357e6 0.0
0.0 0.0 0.0

-4.563077863411957e6 1.1330611353310224e7 0.0
1.1330611353310224e7 4.927414143380208e6 0.0
0.0 0.0 0.0

-1.2829286690286957e7 4.726685875623359e6 0.0
4.726685875623359e6 2.085914535617936e7 0.0
0.0 0.0 0.0

-1.7338944414733483e6 1.2232815297417693e7 0.0
1.2232815297417693e7 -2.244919180121692e6 0.0
0.0 0.0 0.0

-385320.466865371 1.4861634550342286e7 0.0
1.4861634550342286e7 -1.026214169867073e7 0.0
0.0 0.0 0.0

-352543.4553879127 1.5579316673130633e7 0.0
1.5579316673130633e7 -8.307506059658641e6 0.0
0.0 0.0 0.0

-821426.988734101 1.5988219629422303e7 0.0
1.5988219629422303e7 -9.250859738066014e6 0.0
0.0 0.0 0.0

922451.6310304962 1.2664773847794976e7 0.0
1.2664773847794976e7 -1.2953719072439132e7 0.0
0.0 0.0 0.0

2.209853409122514e6 8.0498362176056e6 0.0
8.0498362176056e6 -1.15923755036118e7 0.0
0.0 0.0 0.0

-28894.384611875284 1.4393255158741573e7 0.0
1.4393255158741573e7 -5.317276601733184e6 0.0
0.0 0.0 0.0

-774329.2299513686 1.5130100027476469e7 0.0
1.5130100027476469e7 -9.037106971181829e6 0.0
0.0 0.0 0.0

243143.06105495663 1.2127769390579557e7 0.0
1.2127769390579557e7 -7.072269233026516e6 0.0
0.0 0.0 0.0

-8.119800604988991e6 2.5193976172926957e6 0.0
2.5193976172926957e6 1.21237067683726e7 0.0
0.0 0.0 0.0

1.199373936098137e6 1.2247625324704763e7 0.0
1.2247625324704763e7 -1.380586919791111e7 0.0
0.0 0.0 0.0

-9.977771304993475e6 1.6716879112421315e7 0.0
1.6716879112421315e7 -3.325923808297249e7 0.0
0.0 0.0 0.0

-3.347246975326964e6 4.577193357966657e6 0.0
4.577193357966657e6 4.453360135860462e6 0.0
0.0 0.0 0.0

2.8698484491175115e6 7.854530870208083e6 0.0
7.854530870208083e6 -1.4046129140578676e7 0.0
0.0 0.0 0.0

400846.1327958852 6.586656896562317e6 0.0
6.586656896562317e6 -5.276591360287748e6 0.0
0.0 0.0 0.0

-779100.0248315148 1.251737594960141e7 0.0
1.251737594960141e7 -3.666934400661048e7 0.0
0.0 0.0 0.0

-5.680536384118259e6 1.2056432603088906e7 0.0
1.2056432603088906e7 7.660807377886495e6 0.0
0.0 0.0 0.0

3.9235010073277233e6 6.586091490771755e6 0.0
6.586091490771755e6 -1.3745317613442805e7 0.0
0.0 0.0 0.0

-1.252914522452942e7 4.801397596995715e6 0.0
4.801397596995715e6 1.627035737480519e7 0.0
0.0 0.0 0.0

-1.0464546490729364e7 -559734.2476838903 0.0
-559734.2476838903 3.170105825118369e7 0.0
0.0 0.0 0.0

363046.3874632238 1.5037851712929998e7 0.0
1.5037851712929998e7 -1.6902074450719662e6 0.0
0.0 0.0 0.0

543234.584530443 1.3744301250315586e7 0.0
1.3744301250315586e7 2.2354513210193957e6 0.0
0.0 0.0 0.0

-6.325238388243863e6 1.944600365399149e7 0.0
1.944600365399149e7 6.648627101518286e6 0.0
0.0 0.0 0.0

-4.885271325846855e6 1.6461139481352014e7 0.0
1.6461139481352014e7 2.9442692186347377e6 0.0
0.0 0.0 0.0

4.951854760646513e6 5.087696009389452e6 0.0
5.087696009389452e6 -2.2726810164172687e7 0.0
0.0 0.0 0.0

4.929873316649533e6 5.529867658830511e6 0.0
5.529867658830511e6 -2.305730814476796e7 0.0
0.0 0.0 0.0

-1.23140062237867e7 1.0458554942205751e7 0.0
1.0458554942205751e7 1.9506692353466853e7 0.0
0.0 0.0 0.0

-69717.36600207211 1.42475180994369e7 0.0
1.42475180994369e7 -1.078548754215908e7 0.0
0.0 0.0 0.0

4.23468107606543e6 1.6353269342144024e7 0.0
1.6353269342144024e7 -1.3811119510652758e6 0.0
0.0 0.0 0.0

-1.1067683038591433e7 2.059895582421159e6 0.0
2.059895582421159e6 3.63774675171341e7 0.0
0.0 0.0 0.0

-5.084433999197105e6 1.4779179144877238e7 0.0
1.4779179144877238e7 6.450302130680481e6 0.0
0.0 0.0 0.0

-1.0482118188517378e6 1.4061074253681803e7 0.0
1.4061074253681803e7 -7.3867777238881085e6 0.0
0.0 0.0 0.0

-6.520057109931029e6 1.3261184549244463e7 0.0
1.3261184549244463e7 3.520655370925886e7 0.0
0.0 0.0 0.0

706677.1280398845 5.069054228856889e6 0.0
5.069054228856889e6 -2.482424144877648e6 0.0
0.0 0.0 0.0

-1.9886024586931383e6 1.7876185481948446e7 0.0
1.7876185481948446e7 -5.297131562176164e6 0.0
0.0 0.0 0.0

416300.4404670149 1.6903790548735496e7 0.0
1.6903790548735496e7 1.1519060424319088e7 0.0
0.0 0.0 0.0

3.546933698945036e6 7.489810683404033e6 0.0
7.489810683404033e6 -1.3465539556250958e7 0.0
0.0 0.0 0.0

-2.591813421791443e6 1.1192821559944019e7 0.0
1.1192821559944019e7 -2.335234749617501e6 0.0
0.0 0.0 0.0

-9.83354421554747e6 1.219277256938488e7 0.0
1.219277256938488e7 2.719071082078823e7 0.0
0.0 0.0 0.0

3.8235101213307157e6 8.102305535042661e6 0.0
8.102305535042661e6 -2.3167725401991203e7 0.0
0.0 0.0 0.0

650527.9597760392 1.46614452894212e7 0.0
1.46614452894212e7 -1.2719645116083574e7 0.0
0.0 0.0 0.0

-1.0404821563416336e7 -2.566617146925497e6 0.0
-2.566617146925497e6 2.5111766302671537e7 0.0
0.0 0.0 0.0

3.3557524447029363e6 9.165136839535844e6 0.0
9.165136839535844e6 -2.2301536643364124e7 0.0
0.0 0.0 0.0

586808.9698590427 8.755326783804458e6 0.0
8.755326783804458e6 -5.519824138562262e6 0.0
0.0 0.0 0.0

4.0463327423368488e6 7.712312345886798e6 0.0
7.712312345886798e6 -1.9794864945080563e7 0.0
0.0 0.0 0.0

427895.75459938915 1.2147892833431864e7 0.0
1.2147892833431864e7 -1.028559649202812e7 0.0
0.0 0.0 0.0

238089.5445793923 1.3592287573445462e7 0.0
1.3592287573445462e7 -1.1270088856622923e7 0.0
0.0 0.0 0.0

-1.2642446686648974e7 3.5173755239728517e6 0.0
3.5173755239728517e6 2.0437507158901043e7 0.0
0.0 0.0 0.0

1.483669772772015e6 1.530282749261145e7 0.0
1.530282749261145e7 2.4680227638093582e6 0.0
0.0 0.0 0.0

-7.829254089108561e6 1.857743517646897e6 0.0
1.857743517646897e6 1.0979229831822777e7 0.0
0.0 0.0 0.0

1.5714549209429454e6 1.2971336960253479e7 0.0
1.2971336960253479e7 -1.5197885017511392e7 0.0
0.0 0.0 0.0

-1.3751841115692374e6 5.285137773213816e6 0.0
5.285137773213816e6 731315.6575391213 0.0
0.0 0.0 0.0

1.2932992153772404e6 5.327392069810795e6 0.0
5.327392069810795e6 -6.19672357307533e6 0.0
0.0 0.0 0.0

144612.56773941126 1.312243397816076e7 0.0
1.312243397816076e7 -1.0403510846188586e7 0.0
0.0 0.0 0.0

4.244233109472176e6 5.559921927320875e6 0.0
5.559921927320875e6 -1.3996871132308401e7 0.0
0.0 0.0 0.0

-1.1373734888465837e7 -392172.99772909 0.0
-392172.99772909 1.71739104921551e7 0.0
0.0 0.0 0.0

4.699775197816353e6 3.9537418474442675e6 0.0
3.9537418474442675e6 -3.2289904781110227e7 0.0
0.0 0.0 0.0

-1.0185724293762775e6 1.3988766969647681e7 0.0
1.3988766969647681e7 -3.3952410436435975e6 0.0
0.0 0.0 0.0

-1.1982204154858794e7 6.661246605275483e6 0.0
6.661246605275483e6 1.4443430999498762e7 0.0
0.0 0.0 0.0

-6.7100233583530765e6 1.8531649922303792e7 0.0
1.8531649922303792e7 4.700490290503228e6 0.0
0.0 0.0 0.0

362961.736355925 1.6167006732256569e7 0.0
1.6167006732256569e7 6.155268063214114e6 0.0
0.0 0.0 0.0

-1.0265354000126127e7 1.5028289042814786e7 0.0
1.5028289042814786e7 1.8076524194510315e7 0.0
0.0 0.0 0.0

-7.677494433270117e6 1.539557582813989e7 0.0
1.539557582813989e7 1.4858543429021012e7 0.0
0.0 0.0 0.0

-1.0004657494068332e7 -4.873744594861919e6 0.0
-4.873744594861919e6 2.4736233592411857e7 0.0
0.0 0.0 0.0

-2.961827176991075e6 1.1090692446608791e7 0.0
1.1090692446608791e7 1.3831880640198523e6 0.0
0.0 0.0 0.0

2.333670110524279e6 1.6682921655372001e7 0.0
1.6682921655372001e7 1.0380073454388065e7 0.0
0.0 0.0 0.0

-4.3219812182138115e6 1.7641243362500686e7 0.0
1.7641243362500686e7 8.590757017985206e6 0.0
0.0 0.0 0.0

-1.2637749019656768e7 4.416028298921841e6 0.0
4.416028298921841e6 1.7535363147056542e7 0.0
0.0 0.0 0.0

1.5637101265273066e6 1.195315979133272e7 0.0
1.195315979133272e7 -1.7000710459412526e7 0.0
0.0 0.0 0.0

3.0097441524250517e6 6.62950300962372e6 0.0
6.62950300962372e6 -1.2538176033290539e7 0.0
0.0 0.0 0.0

600645.2147231833 1.4066016508973887e7 0.0
1.4066016508973887e7 -1.0510488579225274e7 0.0
0.0 0.0 0.0

-2.6040346928327326e6 1.0088210888186965e7 0.0
1.0088210888186965e7 998943.064523369 0.0
0.0 0.0 0.0

3.27309411505136e6 5.35624667712307e6 0.0
5.35624667712307e6 -9.754355692622896e6 0.0
0.0 0.0 0.0

-2.2009186926732576e6 1.8281884834642053e7 0.0
1.8281884834642053e7 -4.393118367012439e6 0.0
0.0 0.0 0.0

-1.0647574527528975e7 563745.5925483374 0.0
563745.5925483374 3.0164075405441087e7 0.0
0.0 0.0 0.0

-1.0685022811244924e7 -1.4635315718641423e6 0.0
-1.4635315718641423e6 2.6113242728851613e7 0.0
0.0 0.0 0.0

-1.23199477799273e7 8.2176658050313e6 0.0
8.2176658050313e6 2.5123120767362226e7 0.0
0.0 0.0 0.0

-1.4332478981502322e6 1.6890300258021943e7 0.0
1.6890300258021943e7 -7.488913863673815e6 0.0
0.0 0.0 0.0

-809577.3099036799 7.368820775645084e6 0.0
7.368820775645084e6 -3.5742881357243457e6 0.0
0.0 0.0 0.0

7.0920445491251685e6 1.7469377201464098e7 0.0
1.7469377201464098e7 7.003576696788277e6 0.0
0.0 0.0 0.0

6.222081169183749e6 1.7735924535065785e7 0.0
1.7735924535065785e7 2.9427711516398616e7 0.0
0.0 0.0 0.0

3.7369188829391524e6 6.174837954636451e6 0.0
6.174837954636451e6 -1.1814114399562936e7 0.0
0.0 0.0 0.0

-1.0064490199693605e7 2.141934149987307e6 0.0
2.141934149987307e6 1.5153262237616224e7 0.0
0.0 0.0 0.0

-3.260727451856096e6 1.2071759841993527e7 0.0
1.2071759841993527e7 1.7101291865176966e6 0.0
0.0 0.0 0.0

-6.53398947592268e6 1.680200318523218e7 0.0
1.680200318523218e7 1.136097909424361e7 0.0
0.0 0.0 0.0

4.719629562646922e6 5.81583623370437e6 0.0
5.81583623370437e6 -2.4572091289829172e7 0.0
0.0 0.0 0.0

4.451001389133839e6 6.5902433244994655e6 0.0
6.5902433244994655e6 -2.150997797810026e7 0.0
0.0 0.0 0.0

-2.6987809386068806e6 5.615482742845311e6 0.0
5.615482742845311e6 269378.53358787857 0.0
0.0 0.0 0.0

-4.988275690648912e6 1.5631903310413038e7 0.0
1.5631903310413038e7 6.3807377888155505e6 0.0
0.0 0.0 0.0

-6.842731862978803e6 1.3600472998556819e7 0.0
1.3600472998556819e7 3.2495289356825016e7 0.0
0.0 0.0 0.0

305636.65079425415 1.4712035144355834e7 0.0
1.4712035144355834e7 -1.0041875963189386e7 0.0
0.0 0.0 0.0

-2.0308572974240915e6 6.385746299022624e6 0.0
6.385746299022624e6 1.413900595702121e6 0.0
0.0 0.0 0.0

4.645416509314131e6 6.0296254507456925e6 0.0
6.0296254507456925e6 -2.2316384735897504e7 0.0
0.0 0.0 0.0

-5.550321736883133e6 1.73511801394761e7 0.0
1.73511801394761e7 7.248117557493478e6 0.0
0.0 0.0 0.0

3.101810308167112e6 7.689200188931096e6 0.0
7.689200188931096e6 -1.5399366675505625e7 0.0
0.0 0.0 0.0

-7.822964189674977e6 5.370793367930323e6 0.0
5.370793367930323e6 408943.7890352458 0.0
0.0 0.0 0.0

502519.32716586394 1.265578500460189e7 0.0
1.265578500460189e7 -1.1247881551770095e7 0.0
0.0 0.0 0.0

-1.229400454528377e6 4.199007284905788e6 0.0
4.199007284905788e6 -1.270576253853631e6 0.0
0.0 0.0 0.0

-2.179581388269305e6 9.072740843913652e6 0.0
9.072740843913652e6 570586.7278679737 0.0
0.0 0.0 0.0

-1.676018414195698e6 8.021868523761607e6 0.0
8.021868523761607e6 125060.02290666103 0.0
0.0 0.0 0.0

106755.12941284804 1.2833167017655537e7 0.0
1.2833167017655537e7 -9.969495825187458e6 0.0
0.0 0.0 0.0

-2.943763523165294e6 1.2094554724712498e7 0.0
1.2094554724712498e7 -1.9928725497252727e6 0.0
0.0 0.0 0.0

-1.2907011509443803e7 4.916347908459094e6 0.0
4.916347908459094e6 1.9522958254864633e7 0.0
0.0 0.0 0.0

-9.223292328199986e6 1.124879933377788e7 0.0
1.124879933377788e7 3.1681127200982474e7 0.0
0.0 0.0 0.0

-1.1443443018534588e7 8.475344596729398e6 0.0
8.475344596729398e6 2.8656713595918305e7 0.0
0.0 0.0 0.0

-9.58050953288665e6 1.1706795312363457e7 0.0
1.1706795312363457e7 2.929401321622351e7 0.0
0.0 0.0 0.0

-9.393066474337826e6 5.459839330777549e6 0.0
5.459839330777549e6 4.573623629308197e7 0.0
0.0 0.0 0.0

-1.192701309261676e6 1.609970224735207e7 0.0
1.609970224735207e7 5.306344820209116e6 0.0
0.0 0.0 0.0

-1.1333969512695879e7 2.974911187299096e6 0.0
2.974911187299096e6 3.410898196745798e7 0.0
0.0 0.0 0.0

-2.716204232479854e6 1.7240802187324144e7 0.0
1.7240802187324144e7 -3.6124778580823285e6 0.0
0.0 0.0 0.0

-332390.94779814314 1.4586835639889242e7 0.0
1.4586835639889242e7 -9.162250167085014e6 0.0
0.0 0.0 0.0

-3.8166310357955314e7 2.423326747026519e7 0.0
2.423326747026519e7 -3.6286655538158827e6 0.0
0.0 0.0 0.0

3.3743427911948813e6 7.163504743855219e6 0.0
7.163504743855219e6 -1.1693103560276013e7 0.0
0.0 0.0 0.0

2.6698897387100784e6 1.0655114347006796e7 0.0
1.0655114347006796e7 -1.6042703777041731e7 0.0
0.0 0.0 0.0

-1.9865846039879671e6 1.839943705452799e7 0.0
1.839943705452799e7 -3.763563136467246e6 0.0
0.0 0.0 0.0

-3.9007414875789927e6 1.787052240739241e7 0.0
1.787052240739241e7 2.8722918141631624e6 0.0
0.0 0.0 0.0

4.204156028882393e6 7.233201960112682e6 0.0
7.233201960112682e6 -1.9447792658940773e7 0.0
0.0 0.0 0.0

8.291289918063579e6 1.842777487568513e7 0.0
1.842777487568513e7 -6.007009048476544e6 0.0
0.0 0.0 0.0

-3.4022942708177837e6 9.439570842272665e6 0.0
9.439570842272665e6 23028.650450409856 0.0
0.0 0.0 0.0

3.7124091121099107e6 6.045114711509351e6 0.0
6.045114711509351e6 -3.3527438193971828e7 0.0
0.0 0.0 0.0

-2.908181900599792e6 8.40217618792226e6 0.0
8.40217618792226e6 -443988.63405443117 0.0
0.0 0.0 0.0

2.618219960560087e6 7.552424646432547e6 0.0
7.552424646432547e6 -1.2317284831351284e7 0.0
0.0 0.0 0.0

-9.864069160427276e6 1.5216390567642383e7 0.0
1.5216390567642383e7 1.751576575596533e7 0.0
0.0 0.0 0.0

-2.3935146573025513e7 2.1186024068589497e7 0.0
2.1186024068589497e7 5.205853581633665e6 0.0
0.0 0.0 0.0

-1.0597318653869996e7 -3.2202053928710725e6 0.0
-3.2202053928710725e6 1.954374809079104e7 0.0
0.0 0.0 0.0

14261.920508079696 1.5315572180751083e7 0.0
1.5315572180751083e7 -9.540551740361864e6 0.0
0.0 0.0 0.0

-1.1150225561598854e7 2.118387893338733e7 0.0
2.118387893338733e7 886807.8028009958 0.0
0.0 0.0 0.0

3.677148131906188e6 5.709719881884047e6 0.0
5.709719881884047e6 -1.1496280642832953e7 0.0
0.0 0.0 0.0

-1.165108639373054e7 5.290337357533277e6 0.0
5.290337357533277e6 1.7408233129068792e7 0.0
0.0 0.0 0.0

542813.752018149 1.3598510489857733e7 0.0
1.3598510489857733e7 -9.65829615217731e6 0.0
0.0 0.0 0.0

-679881.8048779926 1.2959121974345442e7 0.0
1.2959121974345442e7 -5.225639555489342e6 0.0
0.0 0.0 0.0

-3.8263562051365436e6 1.0463331304488536e7 0.0
1.0463331304488536e7 435864.1886692282 0.0
0.0 0.0 0.0

-1.2397429745467573e7 6.639489058682498e6 0.0
6.639489058682498e6 2.527928779726733e7 0.0
0.0 0.0 0.0

5.080665955713931e6 4.704052738163602e6 0.0
4.704052738163602e6 -2.0986713856989503e7 0.0
0.0 0.0 0.0

3.6629700234720623e6 5.63256452734595e6 0.0
5.63256452734595e6 -1.3956523225736078e7 0.0
0.0 0.0 0.0

-5.5640414328097915e6 1.709089586792884e7 0.0
1.709089586792884e7 6.533903340031074e6 0.0
0.0 0.0 0.0

-5.779639768373217e6 2.566904304524345e6 0.0
2.566904304524345e6 5.475007954285484e6 0.0
0.0 0.0 0.0

356626.86744332407 1.1840897335159244e7 0.0
1.1840897335159244e7 -9.81174876756382e6 0.0
0.0 0.0 0.0

4.1857972669891724e6 6.673658244243609e6 0.0
6.673658244243609e6 -1.6693983322998798e7 0.0
0.0 0.0 0.0

-1.1353434888634088e7 1.7101385784669302e6 0.0
1.7101385784669302e6 2.8233172833291624e7 0.0
0.0 0.0 0.0

-1.0446297626608864e6 1.6210347292358542e7 0.0
1.6210347292358542e7 3.589501462237838e6 0.0
0.0 0.0 0.0

-1.0756804113115404e7 -1.3799122339390991e6 0.0
-1.3799122339390991e6 1.6403368206561986e7 0.0
0.0 0.0 0.0

2.7852183730291743e6 1.0204733826002503e7 0.0
1.0204733826002503e7 -2.1530512569159128e7 0.0
0.0 0.0 0.0

98234.63175686449 1.429962089770211e7 0.0
1.429962089770211e7 -1.4272156442686642e7 0.0
0.0 0.0 0.0

-1.1351159676361198e7 7.891664669906975e6 0.0
7.891664669906975e6 1.3619265306776788e7 0.0
0.0 0.0 0.0

1.6907636689278623e6 1.2549235217579909e7 0.0
1.2549235217579909e7 -1.703719735675837e7 0.0
0.0 0.0 0.0

1.23075525868585e6 1.2893655329095809e7 0.0
1.2893655329095809e7 -1.1806524838704443e7 0.0
0.0 0.0 0.0

559652.2207758642 3.6685364755901205e6 0.0
3.6685364755901205e6 -1.7144033622512585e6 0.0
0.0 0.0 0.0

-1.0008060759104602e7 -1.675881365875175e6 0.0
-1.675881365875175e6 1.3720602551737305e7 0.0
0.0 0.0 0.0

519514.37830815 1.0408624856027108e7 0.0
1.0408624856027108e7 -8.996428831178663e6 0.0
0.0 0.0 0.0

899754.117067236 9.550729338839853e6 0.0
9.550729338839853e6 -9.286591703961533e6 0.0
0.0 0.0 0.0

613711.9998397054 1.3820205296273429e7 0.0
1.3820205296273429e7 -1.0082107732346332e7 0.0
0.0 0.0 0.0

-1.1018339786791534e6 1.631779762136539e7 0.0
1.631779762136539e7 1.8840826358052944e6 0.0
0.0 0.0 0.0

1.8205729715693817e6 8.560542626502363e6 0.0
8.560542626502363e6 -1.084601417224067e7 0.0
0.0 0.0 0.0

481098.3138409164 1.1514597128929565e7 0.0
1.1514597128929565e7 -3.0222188358006697e7 0.0
0.0 0.0 0.0

-4.934891368603597e6 3.7380246839373778e6 0.0
3.7380246839373778e6 4.722359752223782e6 0.0
0.0 0.0 0.0

-6.240800835686411e6 1.5033847363549223e7 0.0
1.5033847363549223e7 -2.5547490529339276e7 0.0
0.0 0.0 0.0

-8.490703456188393e7 9.423684063040445e6 0.0
9.423684063040445e6 3.9300436642326787e6 0.0
0.0 0.0 0.0

6.543859348772523e7 1.059477734820182e7 0.0
1.059477734820182e7 1.6148506210598685e6 0.0
0.0 0.0 0.0

-331809.2792353928 1.196938166881763e7 0.0
1.196938166881763e7 -3.426714863050149e7 0.0
0.0 0.0 0.0

-9.084996712363891e6 1.2203877688947588e7 0.0
1.2203877688947588e7 1.4951566215526793e7 0.0
0.0 0.0 0.0

-4.133399814910942e6 1.5801669751273254e7 0.0
1.5801669751273254e7 249122.19166963804 0.0
0.0 0.0 0.0

155407.72214923985 1.1203616265556775e7 0.0
1.1203616265556775e7 -8.707042707080439e6 0.0
0.0 0.0 0.0

305907.41225098376 5.9329496224280605e6 0.0
5.9329496224280605e6 -4.611146838391439e6 0.0
0.0 0.0 0.0

858257.134323674 6.535580500584922e6 0.0
6.535580500584922e6 -3.74386647387344e6 0.0
0.0 0.0 0.0

-4.1583735040800804e6 1.147846799068446e7 0.0
1.147846799068446e7 794546.6308048463 0.0
0.0 0.0 0.0

101898.41822540201 1.1709525798760172e7 0.0
1.1709525798760172e7 -3.2132463696634755e7 0.0
0.0 0.0 0.0

1.392675273324775e6 1.0070299996293275e7 0.0
1.0070299996293275e7 -8.4633358181734e6 0.0
0.0 0.0 0.0

-1.1797641486308828e7 -165669.76309663366 0.0
-165669.76309663366 2.2037401777232848e7 0.0
0.0 0.0 0.0

5.125580448490956e7 1.252422356479862e7 0.0
1.252422356479862e7 -943083.9754320048 0.0
0.0 0.0 0.0

1.006721511406478e6 1.0895640856987217e7 0.0
1.0895640856987217e7 -8.226030297280854e6 0.0
0.0 0.0 0.0

4.489971290528655e6 6.342164899510706e6 0.0
6.342164899510706e6 -1.8696878883519813e7 0.0
0.0 0.0 0.0

4.354039855957784e6 6.781426460903691e6 0.0
6.781426460903691e6 -1.9061521535821285e7 0.0
0.0 0.0 0.0

-9.506971340812417e6 1.544001878433124e7 0.0
1.544001878433124e7 1.6908676590934336e7 0.0
0.0 0.0 0.0

1.8716633849154944e6 1.1980907208321663e7 0.0
1.1980907208321663e7 -1.3384120865024904e7 0.0
0.0 0.0 0.0

-1.8400481428634669e6 1.691330160197364e7 0.0
1.691330160197364e7 -7.382596827570176e6 0.0
0.0 0.0 0.0

2.8795712719995766e6 1.7257983993493445e7 0.0
1.7257983993493445e7 -4.324102999396322e6 0.0
0.0 0.0 0.0

-1.5115410062097253e6 1.0843149703390138e7 0.0
1.0843149703390138e7 -1.807820245243521e6 0.0
0.0 0.0 0.0

1.812924585052453e6 5.736077299680588e6 0.0
5.736077299680588e6 -5.479651960033148e6 0.0
0.0 0.0 0.0

-1.469347900290491e6 7.734048659190085e6 0.0
7.734048659190085e6 -2.56387443259699e6 0.0
0.0 0.0 0.0

-3.075205267011589e6 5.737956501323975e6 0.0
5.737956501323975e6 3.583509907909297e6 0.0
0.0 0.0 0.0

-2.8417246479383097e6 1.343493207721625e7 0.0
1.343493207721625e7 -1.9327818774813928e7 0.0
0.0 0.0 0.0

3.006894251469644e6 1.0086997426721172e7 0.0
1.0086997426721172e7 -1.9106547697051525e7 0.0
0.0 0.0 0.0

2.9025235990731306e6 6.09973193837322e6 0.0
6.09973193837322e6 -1.2113290552635495e7 0.0
0.0 0.0 0.0

2.637348672069637e6 8.171720079282719e6 0.0
8.171720079282719e6 -1.0208386335899025e7 0.0
0.0 0.0 0.0

-2.2422699824373135e6 1.2640240123979388e7 0.0
1.2640240123979388e7 -1.1631580579621661e6 0.0
0.0 0.0 0.0

2.5923692438120404e6 7.950379207861049e6 0.0
7.950379207861049e6 -1.281731939758317e7 0.0
0.0 0.0 0.0

-200072.8185811059 6.970202124896654e6 0.0
6.970202124896654e6 -4.432421035822519e6 0.0
0.0 0.0 0.0

4.529735950976955e6 5.083443725672001e6 0.0
5.083443725672001e6 -1.4671181096642913e7 0.0
0.0 0.0 0.0

830550.9609433906 1.2589576312911738e7 0.0
1.2589576312911738e7 -9.592420333564889e6 0.0
0.0 0.0 0.0

-4.905266853368327e6 5.013958837141654e6 0.0
5.013958837141654e6 3.8258199514127215e6 0.0
0.0 0.0 0.0

-1.9325490518801736e6 1.78545513990604e7 0.0
1.78545513990604e7 -5.829963669569583e6 0.0
0.0 0.0 0.0

4.1038801020719185e6 5.702454363833807e6 0.0
5.702454363833807e6 -2.9373225860545304e7 0.0
0.0 0.0 0.0

506948.5310987192 1.3312142379590988e7 0.0
1.3312142379590988e7 -9.23932692687435e6 0.0
0.0 0.0 0.0

3.7156797744205166e6 7.736838545469614e6 0.0
7.736838545469614e6 -1.5154420687588414e7 0.0
0.0 0.0 0.0

-628709.8691951709 4.967351821963741e6 0.0
4.967351821963741e6 -95282.11051658851 0.0
0.0 0.0 0.0

3.9726378472813554e6 7.227854795136658e6 0.0
7.227854795136658e6 -1.595592926545221e7 0.0
0.0 0.0 0.0

-4.432879248480174e6 1.6502068339325888e7 0.0
1.6502068339325888e7 4.446975418795378e6 0.0
0.0 0.0 0.0

-1.3651368211796458e6 1.904079610671282e7 0.0
1.904079610671282e7 -5.581536467507575e6 0.0
0.0 0.0 0.0

-94421.05427378602 1.4636822171849627e7 0.0
1.4636822171849627e7 -1.3977426381121466e7 0.0
0.0 0.0 0.0

860037.9391450449 6.128293065055806e6 0.0
6.128293065055806e6 -6.084210891326121e6 0.0
0.0 0.0 0.0

-1.3213288087140073e6 1.96941258230717e7 0.0
1.96941258230717e7 -4.027895555830865e6 0.0
0.0 0.0 0.0

-780544.4375421342 1.6758858199787406e7 0.0
1.6758858199787406e7 -7.339119151398492e6 0.0
0.0 0.0 0.0

-1.1279469590635816e7 4.1668712103153197e6 0.0
4.1668712103153197e6 1.3357620698552832e7 0.0
0.0 0.0 0.0

-4.418533460878617e6 1.7424584376806285e7 0.0
1.7424584376806285e7 1.0039713810440402e7 0.0
0.0 0.0 0.0

-1.8225853369625132e6 4.59218843029158e6 0.0
4.59218843029158e6 -270251.9500049656 0.0
0.0 0.0 0.0

-1.5065160125149598e6 8.713396194289384e6 0.0
8.713396194289384e6 -576690.1035524044 0.0
0.0 0.0 0.0

-1.1143800569388812e7 4.9030731549679395e6 0.0
4.9030731549679395e6 3.1922658478287186e7 0.0
0.0 0.0 0.0

-5.519114500946289e6 1.061239940131963e7 0.0
1.061239940131963e7 3.9151094248811835e6 0.0
0.0 0.0 0.0

1.5453656748522264e6 1.4764783415676074e7 0.0
1.4764783415676074e7 296192.9600276331 0.0
0.0 0.0 0.0

667937.9693952743 1.1695273267211478e7 0.0
1.1695273267211478e7 -7.937018720436644e6 0.0
0.0 0.0 0.0

30043.281441377476 1.2568035561656779e7 0.0
1.2568035561656779e7 -9.456413879615119e6 0.0
0.0 0.0 0.0

549112.9681322612 1.1429566084626723e7 0.0
1.1429566084626723e7 -2.847842113109433e7 0.0
0.0 0.0 0.0

3.8149579919995237e6 6.00352851188785e6 0.0
6.00352851188785e6 -3.111306023135191e7 0.0
0.0 0.0 0.0

-1.2981552431549106e7 6.598267224388404e6 0.0
6.598267224388404e6 1.7552761165234786e7 0.0
0.0 0.0 0.0

-4.28269257252597e6 1.912088268735097e7 0.0
1.912088268735097e7 5.397140316129795e6 0.0
0.0 0.0 0.0

-1.1952446517174834e7 468563.0670118158 0.0
468563.0670118158 2.4716627444329347e7 0.0
0.0 0.0 0.0

-320437.61774876853 1.587343846592961e7 0.0
1.587343846592961e7 -9.076455606106723e6 0.0
0.0 0.0 0.0

-375628.85120226024 1.551211302635995e7 0.0
1.551211302635995e7 -1.094343657967413e7 0.0
0.0 0.0 0.0

8.978429290415859e6 5.411303835420536e6 0.0
5.411303835420536e6 -1.9482878739052531e6 0.0
0.0 0.0 0.0

1.6564491245036e6 8.272957882389199e6 0.0
8.272957882389199e6 -7.756914537252074e6 0.0
0.0 0.0 0.0

-8.65534992305315e6 9.983792997063046e6 0.0
9.983792997063046e6 1.0134065177631438e7 0.0
0.0 0.0 0.0

-1.0679146672612769e6 1.433845818686164e7 0.0
1.433845818686164e7 -1.3303436810451312e7 0.0
0.0 0.0 0.0

790608.0147387246 1.232411970541704e7 0.0
1.232411970541704e7 -9.081845408010855e6 0.0
0.0 0.0 0.0

894549.5301902881 1.3149095859780142e7 0.0
1.3149095859780142e7 -1.0507358569359455e7 0.0
0.0 0.0 0.0

-1.1751603690792032e7 9.853418644563165e6 0.0
9.853418644563165e6 2.481076132578688e7 0.0
0.0 0.0 0.0

-1.2518522820552185e7 6.1222781170567265e6 0.0
6.1222781170567265e6 1.5843940362401204e7 0.0
0.0 0.0 0.0

-60106.07024891535 1.2278883458920518e7 0.0
1.2278883458920518e7 -8.944793723764645e6 0.0
0.0 0.0 0.0

-1.2908323622851404e6 1.4696091562890155e7 0.0
1.4696091562890155e7 -7.083759223175952e6 0.0
0.0 0.0 0.0

-4.601989449375766e6 1.6324640992178524e7 0.0
1.6324640992178524e7 -3.17681478893898e6 0.0
0.0 0.0 0.0

-3.2830444256503596e6 1.9200590323263496e7 0.0
1.9200590323263496e7 -1.2325391504535747e6 0.0
0.0 0.0 0.0

2.95779660946571e6 1.0138673899748119e7 0.0
1.0138673899748119e7 -2.029870662220528e7 0.0
0.0 0.0 0.0

-3.2674773959915065e6 2.2484884329721995e7 0.0
2.2484884329721995e7 2.89209376021403e6 0.0
0.0 0.0 0.0

-7.951334819352873e6 1.0960251365441311e7 0.0
1.0960251365441311e7 9.067095536329396e6 0.0
0.0 0.0 0.0

-3.7806234606227875e6 1.9055347369898595e7 0.0
1.9055347369898595e7 -5.801217858597114e6 0.0
0.0 0.0 0.0

-130754.83343144401 1.4063921540301388e7 0.0
1.4063921540301388e7 -1.7054731877424493e6 0.0
0.0 0.0 0.0

20574.326522085816 1.4864611133704688e7 0.0
1.4864611133704688e7 -1.3147517636799656e7 0.0
0.0 0.0 0.0

-1.1995497938891903e6 1.5080689114947043e7 0.0
1.5080689114947043e7 -7.218680244895401e6 0.0
0.0 0.0 0.0

-5.0468416281612385e6 1.863048881511697e7 0.0
1.863048881511697e7 7.113671828709926e6 0.0
0.0 0.0 0.0

-67370.76123676449 1.493606663397643e7 0.0
1.493606663397643e7 -8.78227743374438e6 0.0
0.0 0.0 0.0

-161578.20253178524 1.1984721223189283e7 0.0
1.1984721223189283e7 -8.387521318649499e6 0.0
0.0 0.0 0.0

482291.6644430524 1.4098639875877993e7 0.0
1.4098639875877993e7 -1.5417115405872712e7 0.0
0.0 0.0 0.0

-799123.4190042762 1.0063642899962492e7 0.0
1.0063642899962492e7 -5.50258286590634e6 0.0
0.0 0.0 0.0

-4.260690115886005e6 1.7818514306104623e7 0.0
1.7818514306104623e7 1.6757714146331158e6 0.0
0.0 0.0 0.0

-3.067249701760083e6 1.881486567092878e7 0.0
1.881486567092878e7 -2.1353979709011754e6 0.0
0.0 0.0 0.0

41490.26820732595 4.6206237120924415e6 0.0
4.6206237120924415e6 -1.0006555338986164e6 0.0
0.0 0.0 0.0

835610.0380012626 9.094236663222829e6 0.0
9.094236663222829e6 -8.744577284192437e6 0.0
0.0 0.0 0.0

-2.8937681784757017e6 1.9945548615588833e7 0.0
1.9945548615588833e7 136830.83889658144 0.0
0.0 0.0 0.0

-5.151110989938736e6 1.6098925653295113e7 0.0
1.6098925653295113e7 3.805451957331228e6 0.0
0.0 0.0 0.0

-6.473132194016722e7 5.203145263142559e6 0.0
5.203145263142559e6 5.779194798463557e6 0.0
0.0 0.0 0.0

1.4261477805740135e6 1.2898421860961396e7 0.0
1.2898421860961396e7 -1.7112729892539013e7 0.0
0.0 0.0 0.0

-5.813923591820352e6 1.5206282210386183e7 0.0
1.5206282210386183e7 5.730463649241082e6 0.0
0.0 0.0 0.0

-2.3289910730160098e6 1.7465149291276485e7 0.0
1.7465149291276485e7 -2.3957787146873176e6 0.0
0.0 0.0 0.0

-5.620585636282045e6 1.6032915069478082e7 0.0
1.6032915069478082e7 5.703525181628197e6 0.0
0.0 0.0 0.0

-1.0577861332195876e6 1.6533333285484746e7 0.0
1.6533333285484746e7 237045.77886873885 0.0
0.0 0.0 0.0

-679263.2625219875 1.598329726214812e7 0.0
1.598329726214812e7 -7.596060701917444e6 0.0
0.0 0.0 0.0

-7.175908418350797e6 1.1877769774675773e7 0.0
1.1877769774675773e7 7.83351176600235e6 0.0
0.0 0.0 0.0

-1.1636735587086037e7 3.456987413265173e6 0.0
3.456987413265173e6 1.932957762512887e7 0.0
0.0 0.0 0.0

-352450.4555921501 1.0547929345638545e7 0.0
1.0547929345638545e7 -4.5766058350001965e6 0.0
0.0 0.0 0.0

2.892456229303143e6 5.773275185280861e6 0.0
5.773275185280861e6 -9.023319778832175e6 0.0
0.0 0.0 0.0

-1.5711613366050909e6 1.32366787161615e7 0.0
1.32366787161615e7 -5.650631827971426e6 0.0
0.0 0.0 0.0

-1.125696639181826e6 1.64509036242552e7 0.0
1.64509036242552e7 -8.367699086275371e6 0.0
0.0 0.0 0.0

-5.267732569093852e6 1.528900672549829e7 0.0
1.528900672549829e7 3.733700384208432e6 0.0
0.0 0.0 0.0

-2.1878192895328524e6 1.2122827839228118e7 0.0
1.2122827839228118e7 -3.7286177618156644e6 0.0
0.0 0.0 0.0

-3.8146967270083157e6 1.953085248161412e6 0.0
1.953085248161412e6 6.3343851496853735e6 0.0
0.0 0.0 0.0

2.519818268468075e6 5.6728978260284355e6 0.0
5.6728978260284355e6 -1.0261023800101675e7 0.0
0.0 0.0 0.0

-1.1764081386595933e7 3.428952005979422e6 0.0
3.428952005979422e6 2.508810600259312e7 0.0
0.0 0.0 0.0

-1.0323872612326864e7 703145.7320352818 0.0
703145.7320352818 1.3171223096594606e7 0.0
0.0 0.0 0.0

-5.129842278884784e6 1.6366181983954778e7 0.0
1.6366181983954778e7 1.5103603261641957e7 0.0
0.0 0.0 0.0

-1.5178524070730885e6 1.5316190157573642e7 0.0
1.5316190157573642e7 -6.721098481160276e6 0.0
0.0 0.0 0.0

705610.5131351883 8.597509471584123e6 0.0
8.597509471584123e6 -8.245571828511432e6 0.0
0.0 0.0 0.0

-1.1543137753161168e7 3.318838248974791e6 0.0
3.318838248974791e6 2.6908875745149195e7 0.0
0.0 0.0 0.0

-2.123786148792014e6 1.7645968587902617e7 0.0
1.7645968587902617e7 -2.9803970859041205e6 0.0
0.0 0.0 0.0

-3.501252306250864e6 1.1064716202073742e7 0.0
1.1064716202073742e7 -415465.5880768079 0.0
0.0 0.0 0.0

-842832.031901025 8.347165868247184e6 0.0
8.347165868247184e6 -1.6264962004110718e6 0.0
0.0 0.0 0.0

-1.2616978590925112e6 1.0874798477347268e7 0.0
1.0874798477347268e7 -5.082656871535687e6 0.0
0.0 0.0 0.0

-769865.7860324504 1.3704680621338489e7 0.0
1.3704680621338489e7 -1.9075394386270843e7 0.0
0.0 0.0 0.0

-4.678074678095391e6 1.6095430895348005e7 0.0
1.6095430895348005e7 5.387640282450746e6 0.0
0.0 0.0 0.0

229594.14292936586 1.5450084257205648e7 0.0
1.5450084257205648e7 -1.0961082719455883e7 0.0
0.0 0.0 0.0

-4.977812001522638e6 1.4172838101836791e7 0.0
1.4172838101836791e7 3.940743457696092e7 0.0
0.0 0.0 0.0

353335.71801125165 1.7441102581967477e7 0.0
1.7441102581967477e7 8.610759795851054e6 0.0
0.0 0.0 0.0

-1.0329787402535543e7 9.084029474044347e6 0.0
9.084029474044347e6 1.2446593723583095e7 0.0
0.0 0.0 0.0

2.759708300371323e6 1.057408359716402e7 0.0
1.057408359716402e7 -1.7042803784987427e7 0.0
0.0 0.0 0.0

-1.5320898818090055e6 1.26344472699193e7 0.0
1.26344472699193e7 -2.9395008097764845e6 0.0
0.0 0.0 0.0

-696379.1746360594 1.727628971800182e7 0.0
1.727628971800182e7 -8.280398652312759e6 0.0
0.0 0.0 0.0

-3.9595494414743306e6 1.9765527686621543e7 0.0
1.9765527686621543e7 4.0171114817743422e6 0.0
0.0 0.0 0.0

-2.871336622324924e6 1.8393249202654734e7 0.0
1.8393249202654734e7 -2.8908877316643856e6 0.0
0.0 0.0 0.0

76815.25920110941 1.5161450153619021e7 0.0
1.5161450153619021e7 -1.2299548607672337e7 0.0
0.0 0.0 0.0

-1.1967228347126746e6 1.1819985929085687e7 0.0
1.1819985929085687e7 -3.2726982486273977e6 0.0
0.0 0.0 0.0

-5.294414431214829e6 1.6467266158163194e7 0.0
1.6467266158163194e7 4.765078657749718e6 0.0
0.0 0.0 0.0

-1.0613389630352264e7 3.6490200963725494e6 0.0
3.6490200963725494e6 1.1959891003321111e7 0.0
0.0 0.0 0.0

2.8944908949278384e6 5.6119116118771825e6 0.0
5.6119116118771825e6 -1.1528787428931836e7 0.0
0.0 0.0 0.0

-1.1567549130978468e6 1.3379255051023364e7 0.0
1.3379255051023364e7 -4.281578393671957e6 0.0
0.0 0.0 0.0

3.21720082180719e6 8.367443169162468e6 0.0
8.367443169162468e6 -1.3218535694989756e7 0.0
0.0 0.0 0.0

-3.6609610922259223e6 1.5929229035169832e7 0.0
1.5929229035169832e7 1.8085473349626826e6 0.0
0.0 0.0 0.0

-178351.25145151943 7.990776832031981e6 0.0
7.990776832031981e6 -2.641724586596728e6 0.0
0.0 0.0 0.0

-2.5517069024148183e6 2.1021427549280774e7 0.0
2.1021427549280774e7 -1.5800629625487272e6 0.0
0.0 0.0 0.0

-4.4114808977887884e7 1.9790583379413586e6 0.0
1.9790583379413586e6 8.61458612295876e6 0.0
0.0 0.0 0.0

348696.4152706356 7.567672602007466e6 0.0
7.567672602007466e6 -3.528716299437814e6 0.0
0.0 0.0 0.0

-841355.7985898163 1.3228435264558556e7 0.0
1.3228435264558556e7 -2.258299179179184e7 0.0
0.0 0.0 0.0

108561.25575961219 1.640746801665698e7 0.0
1.640746801665698e7 -8.139388654621162e6 0.0
0.0 0.0 0.0

1.0578685348839345e6 1.1230923936002119e7 0.0
1.1230923936002119e7 -8.790434047436645e6 0.0
0.0 0.0 0.0

825179.4949073093 1.4284218647616662e7 0.0
1.4284218647616662e7 -1.3571211399660628e7 0.0
0.0 0.0 0.0

857174.5985016061 7.183878775118194e6 0.0
7.183878775118194e6 -4.360104417843014e6 0.0
0.0 0.0 0.0

3.827318665519799e6 7.281316897300608e6 0.0
7.281316897300608e6 -1.4743457510282582e7 0.0
0.0 0.0 0.0

-3.4433757393564e6 1.9592515196906935e7 0.0
1.9592515196906935e7 -419512.060377936 0.0
0.0 0.0 0.0

824843.8178968255 5.594339965376555e6 0.0
5.594339965376555e6 -5.326792893349115e6 0.0
0.0 0.0 0.0

1.3474665412289696e6 9.04374264640969e6 0.0
9.04374264640969e6 -1.0094984866985587e7 0.0
0.0 0.0 0.0

-2.420568248107751e6 2.185290518139934e7 0.0
2.185290518139934e7 -751550.4221361832 0.0
0.0 0.0 0.0

1.9292278694546507e6 1.5520257546854038e7 0.0
1.5520257546854038e7 -866488.5067034735 0.0
0.0 0.0 0.0

-870312.515109014 1.8396092722325794e7 0.0
1.8396092722325794e7 -6.263657587097763e6 0.0
0.0 0.0 0.0

3.7244900259924047e6 7.458053141632404e6 0.0
7.458053141632404e6 -3.6097854690000884e7 0.0
0.0 0.0 0.0

-1.1539309420410994e7 1.3559110948919449e7 0.0
1.3559110948919449e7 1.9678869951219007e7 0.0
0.0 0.0 0.0

-3.313205155432506e6 1.910862819071144e7 0.0
1.910862819071144e7 1.0940890723467965e6 0.0
0.0 0.0 0.0

2.9956294545827974e6 8.075574351554046e6 0.0
8.075574351554046e6 -1.1483692490378946e7 0.0
0.0 0.0 0.0

1.2588347867304732e6 6.7089689356170045e6 0.0
6.7089689356170045e6 -5.1771907217589e6 0.0
0.0 0.0 0.0

644694.1627896577 8.116663185940845e6 0.0
8.116663185940845e6 -7.715068816505589e6 0.0
0.0 0.0 0.0

-3.959341752159442e6 2.204894533024738e7 0.0
2.204894533024738e7 4.618326528080329e6 0.0
0.0 0.0 0.0

-8.2592119050049195e6 -381875.8717281293 0.0
-381875.8717281293 1.2769003085710209e7 0.0
0.0 0.0 0.0

-1.2651488326009475e7 1.1160797560054833e7 0.0
1.1160797560054833e7 1.8021945927848786e7 0.0
0.0 0.0 0.0

-2.524687814291066e6 1.8615453788330767e7 0.0
1.8615453788330767e7 -1.8230252703368007e6 0.0
0.0 0.0 0.0

1.1846762462033695e6 1.2460762473396715e7 0.0
1.2460762473396715e7 -1.0947223558932576e7 0.0
0.0 0.0 0.0

-5.259633062145749e6 1.6683818727213271e7 0.0
1.6683818727213271e7 1.359963744404446e7 0.0
0.0 0.0 0.0

-2.4884174563365546e6 1.2932707042517902e7 0.0
1.2932707042517902e7 -3.3906928877955195e6 0.0
0.0 0.0 0.0

472458.3117825305 1.3028018493537229e7 0.0
1.3028018493537229e7 -8.769850085492156e6 0.0
0.0 0.0 0.0

525117.6643961379 1.2731700030356364e7 0.0
1.2731700030356364e7 -1.9981579233570397e7 0.0
0.0 0.0 0.0

-804152.5861342577 1.928128546402121e7 0.0
1.928128546402121e7 -5.19884694019413e6 0.0
0.0 0.0 0.0

803736.0602069944 1.1549625112263773e7 0.0
1.1549625112263773e7 -2.6962741608340196e7 0.0
0.0 0.0 0.0

-9.842699924422435e6 3.1358332604656983e6 0.0
3.1358332604656983e6 1.1183577084658347e7 0.0
0.0 0.0 0.0

2.333617279801855e6 1.7969141701515853e7 0.0
1.7969141701515853e7 1.6316182825802615e7 0.0
0.0 0.0 0.0

-4.465981086362405e6 2.1393393355023924e7 0.0
2.1393393355023924e7 4.815413218298539e6 0.0
0.0 0.0 0.0

-2.2684997578175617e6 1.3305772241060643e7 0.0
1.3305772241060643e7 -4.0521826662872117e6 0.0
0.0 0.0 0.0

956450.3219466428 1.7073415957528997e7 0.0
1.7073415957528997e7 -5.729002249436706e6 0.0
0.0 0.0 0.0

-2.2246754271493675e6 1.823879367379897e7 0.0
1.823879367379897e7 -2.6672136554615675e6 0.0
0.0 0.0 0.0

-3.3638066318225088e6 6.76640904006924e6 0.0
6.76640904006924e6 859005.3710089582 0.0
0.0 0.0 0.0

76046.70953741018 1.545909946665148e7 0.0
1.545909946665148e7 -1.1488533363887755e7 0.0
0.0 0.0 0.0

2.0398387397084646e6 1.1905268290022697e7 0.0
1.1905268290022697e7 -1.4623192523823291e7 0.0
0.0 0.0 0.0

1.7443530166408075e6 1.2320858051342143e7 0.0
1.2320858051342143e7 -1.3754842538865693e7 0.0
0.0 0.0 0.0

-606968.4344382614 1.240534881115546e7 0.0
1.240534881115546e7 -7.5015787289034445e6 0.0
0.0 0.0 0.0

6.61823928865375e6 1.9617775292184334e7 0.0
1.9617775292184334e7 -6.117174854876367e6 0.0
0.0 0.0 0.0

1.827324209109045e6 9.586453643879134e6 0.0
9.586453643879134e6 -9.245913789358977e6 0.0
0.0 0.0 0.0

2.8594498072154303e6 5.228300827151667e6 0.0
5.228300827151667e6 -1.107743483614746e7 0.0
0.0 0.0 0.0

2.2942075307909846e6 1.144710949951399e7 0.0
1.144710949951399e7 -1.5407425076736517e7 0.0
0.0 0.0 0.0

3.9331306435886435e6 6.318278388971112e6 0.0
6.318278388971112e6 -2.807393739435852e7 0.0
0.0 0.0 0.0

-4.60448807009182e6 6.188387611297679e6 0.0
6.188387611297679e6 2.924843311341868e6 0.0
0.0 0.0 0.0

-4.531766467318459e6 1.7452544144391336e7 0.0
1.7452544144391336e7 2.25612099911425e6 0.0
0.0 0.0 0.0

4.501625454047744e6 5.133915467048969e6 0.0
5.133915467048969e6 -1.7212768982128203e7 0.0
0.0 0.0 0.0

2.1127524985678922e6 6.171255141407461e6 0.0
6.171255141407461e6 -9.65172875984942e6 0.0
0.0 0.0 0.0

-204054.46805602405 1.2544125176973904e7 0.0
1.2544125176973904e7 -6.171402376657009e6 0.0
0.0 0.0 0.0

-1.0952801859887403e7 1.0906996467336025e7 0.0
1.0906996467336025e7 2.6032685461889543e7 0.0
0.0 0.0 0.0

-5.884405125277096e6 1.747160698541286e7 0.0
1.747160698541286e7 1.0565669769016506e7 0.0
0.0 0.0 0.0

-3.163584358476742e6 7.635240055066063e6 0.0
7.635240055066063e6 227295.0043975925 0.0
0.0 0.0 0.0

-8.847548305371024e6 1.5532801275299508e7 0.0
1.5532801275299508e7 1.4932990841132082e7 0.0
0.0 0.0 0.0

4.0218525901052887e6 6.122365304718731e6 0.0
6.122365304718731e6 -1.3211782216645975e7 0.0
0.0 0.0 0.0

2.471462628220491e6 1.101730538706925e7 0.0
1.101730538706925e7 -1.633656036074971e7 0.0
0.0 0.0 0.0

-8.516386677113278e6 4.108137243568976e7 0.0
4.108137243568976e7 2.7500779147377517e6 0.0
0.0 0.0 0.0

-4.885721737643601e6 1.0188890387135265e7 0.0
1.0188890387135265e7 2.5699865061587743e6 0.0
0.0 0.0 0.0

-8.796883661471786e6 2.4547297330653984e6 0.0
2.4547297330653984e6 9.86331862116334e6 0.0
0.0 0.0 0.0

-125637.31540551642 1.4946140360044222e7 0.0
1.4946140360044222e7 -1.1751060636764636e7 0.0
0.0 0.0 0.0

1.4976151844923384e6 1.2753911458291616e7 0.0
1.2753911458291616e7 -1.299365957203878e7 0.0
0.0 0.0 0.0

-213636.53534393106 531271.6387482494 0.0
531271.6387482494 2.8834555043255757e6 0.0
0.0 0.0 0.0

-751348.9310072076 171529.95696087592 0.0
171529.95696087592 4.48899758084769e6 0.0
0.0 0.0 0.0

-4.537219162197137e6 2.223161506492343e7 0.0
2.223161506492343e7 4.342358203022164e6 0.0
0.0 0.0 0.0

-5.605877130150136e6 1.4831392380639803e7 0.0
1.4831392380639803e7 4.684675940845689e6 0.0
0.0 0.0 0.0

-3.939111843882752e6 2.1939992699279815e7 0.0
2.1939992699279815e7 2.922328942137663e6 0.0
0.0 0.0 0.0

3.4431078009561384e6 8.257654524157391e6 0.0
8.257654524157391e6 -1.4462786886782039e7 0.0
0.0 0.0 0.0

-5.022087613868494e6 1.6843385165200308e7 0.0
1.6843385165200308e7 3.878687650884104e6 0.0
0.0 0.0 0.0

-1.099970040028428e7 650959.5567729911 0.0
650959.5567729911 2.097314183731647e7 0.0
0.0 0.0 0.0

-5.283770820438426e7 3.2059367755188495e6 0.0
3.2059367755188495e6 8.051848434029166e6 0.0
0.0 0.0 0.0

-4.480282573633922e6 1.813289571381645e7 0.0
1.813289571381645e7 2.448204690684178e6 0.0
0.0 0.0 0.0

-7.8804380956078535e6 1.5946148165953586e7 0.0
1.5946148165953586e7 1.3822671483924964e7 0.0
0.0 0.0 0.0

-1.8871965688804216e6 1.940170938174187e7 0.0
1.940170938174187e7 -4.51632990531585e6 0.0
0.0 0.0 0.0

2.1893902220650995e6 5.753899366976026e6 0.0
5.753899366976026e6 -8.958805396402193e6 0.0
0.0 0.0 0.0

-5.687201808794683e6 1.1755466074978502e7 0.0
1.1755466074978502e7 4.281703854596945e6 0.0
0.0 0.0 0.0

-6.900405619980572e6 1.946799594019534e7 0.0
1.946799594019534e7 -4.332053363100062e6 0.0
0.0 0.0 0.0

-2.9653142537031826e6 1.831921678255119e7 0.0
1.831921678255119e7 -5.03793021978545e6 0.0
0.0 0.0 0.0

3.4309024771444583e6 6.713324536301216e6 0.0
6.713324536301216e6 -1.1151000073535124e7 0.0
0.0 0.0 0.0

-7.141875386801427e6 1.6427851030131463e7 0.0
1.6427851030131463e7 1.2735045786533803e7 0.0
0.0 0.0 0.0

-549537.1555362637 1.4470621840841906e7 0.0
1.4470621840841906e7 -6.72979789787507e6 0.0
0.0 0.0 0.0

4.239962536124857e6 5.048327941177937e6 0.0
5.048327941177937e6 -3.0365984965635378e7 0.0
0.0 0.0 0.0

-1.1011243694386633e7 -1.1622145584008917e6 0.0
-1.1622145584008917e6 3.0808517814989924e7 0.0
0.0 0.0 0.0

2.6338494861688856e6 8.590891927714605e6 0.0
8.590891927714605e6 -1.0737129147710707e7 0.0
0.0 0.0 0.0

4.413661881943247e6 6.705904430018269e6 0.0
6.705904430018269e6 -2.025055696238856e7 0.0
0.0 0.0 0.0

195995.5205805879 1.4793608404047018e7 0.0
1.4793608404047018e7 -6.657352128364639e6 0.0
0.0 0.0 0.0

2.25811881800887e6 1.0007432900600543e7 0.0
1.0007432900600543e7 -2.610301306358327e7 0.0
0.0 0.0 0.0

-1.7362506479835599e6 2.3139574450324792e7 0.0
2.3139574450324792e7 -1.036475212916502e6 0.0
0.0 0.0 0.0

-8.19494419534214e6 1.446640138557819e7 0.0
1.446640138557819e7 2.3640442584723026e7 0.0
0.0 0.0 0.0

-1.12095119170694e7 -1.5835631585783772e6 0.0
-1.5835631585783772e6 2.812965739472363e7 0.0
0.0 0.0 0.0

-802636.8126081838 1.5112796312424071e7 0.0
1.5112796312424071e7 -6.411127722097721e6 0.0
0.0 0.0 0.0

3.797004605554858e6 7.236596731723905e6 0.0
7.236596731723905e6 -2.423992609882424e7 0.0
0.0 0.0 0.0

-2.9481596681243596e6 1.5055187265771462e7 0.0
1.5055187265771462e7 -277431.42788048764 0.0
0.0 0.0 0.0

-4.587918109105693e6 1.6770686426756466e7 0.0
1.6770686426756466e7 2.0980237932036873e6 0.0
0.0 0.0 0.0

-1.0788696346084366e7 2.7477123376795533e6 0.0
2.7477123376795533e6 1.6251650903471343e7 0.0
0.0 0.0 0.0

-521418.83463059436 1.9552624965979345e7 0.0
1.9552624965979345e7 -5.033609245340449e6 0.0
0.0 0.0 0.0

733055.5047966237 1.5011289681161774e7 0.0
1.5011289681161774e7 -4.2180251315974435e6 0.0
0.0 0.0 0.0

-2.697680186477849e6 1.9034241220772695e7 0.0
1.9034241220772695e7 -981457.6202198599 0.0
0.0 0.0 0.0

4.958059143550606e6 3.63611782154626e6 0.0
3.63611782154626e6 -2.8702443372855745e7 0.0
0.0 0.0 0.0

-4.768070788695306e6 1.71750043560181e7 0.0
1.71750043560181e7 3.010223370991431e6 0.0
0.0 0.0 0.0

1.091542812793423e6 1.1544533008418202e7 0.0
1.1544533008418202e7 -9.341978927841712e6 0.0
0.0 0.0 0.0

-2.6922289989408436e6 9.085549858157426e6 0.0
9.085549858157426e6 -1.1440160854694895e6 0.0
0.0 0.0 0.0

-681683.200057807 1.1420012694486454e7 0.0
1.1420012694486454e7 -4.256530594278684e6 0.0
0.0 0.0 0.0

-3.9278698390478026e6 4.859752208479218e6 0.0
4.859752208479218e6 2.3173161466056667e6 0.0
0.0 0.0 0.0

851848.2197722746 1.4462391699361047e7 0.0
1.4462391699361047e7 -4.923248434705629e6 0.0
0.0 0.0 0.0

-1.1958857858403359e7 4.821588946859169e6 0.0
4.821588946859169e6 2.3803933889056522e7 0.0
0.0 0.0 0.0

408178.98186858883 1.2753582497663181e7 0.0
1.2753582497663181e7 -8.2257640417967895e6 0.0
0.0 0.0 0.0

-1.824732329708304e6 5.43097767028999e6 0.0
5.43097767028999e6 -825721.6228381926 0.0
0.0 0.0 0.0

-4.744301928182728e6 2.2684232022654273e7 0.0
2.2684232022654273e7 4.490114557788551e6 0.0
0.0 0.0 0.0

-1.654121936081949e6 1.812283401845348e7 0.0
1.812283401845348e7 -4.363296002971235e6 0.0
0.0 0.0 0.0

1.3468156476439135e6 1.3279612051262423e7 0.0
1.3279612051262423e7 -1.5232335893385986e7 0.0
0.0 0.0 0.0

2.2376599713855013e6 9.086954220158314e6 0.0
9.086954220158314e6 -1.0011226676749047e7 0.0
0.0 0.0 0.0

-3.856069624504759e6 1.8466722857542153e7 0.0
1.8466722857542153e7 2.955770250326612e6 0.0
0.0 0.0 0.0

-8.90955011355669e6 1.5659623661406104e7 0.0
1.5659623661406104e7 1.5970480260974253e7 0.0
0.0 0.0 0.0

-89987.78006188106 1.6564652279190775e7 0.0
1.6564652279190775e7 1.0559394815986773e7 0.0
0.0 0.0 0.0

3.513103824211227e6 7.417717661104068e6 0.0
7.417717661104068e6 -2.58758472305963e7 0.0
0.0 0.0 0.0

-4.587860693797328e6 1.6831498080009397e7 0.0
1.6831498080009397e7 5.329923778188219e6 0.0
0.0 0.0 0.0

-4.126617324943278e6 1.755206899893798e7 0.0
1.755206899893798e7 3.5833559972762596e6 0.0
0.0 0.0 0.0

-1.004931979522372e7 7.004460372861852e6 0.0
7.004460372861852e6 1.1349052683895338e7 0.0
0.0 0.0 0.0

-1.4733734338240984e6 2.3580709590884123e7 0.0
2.3580709590884123e7 -1.097598440575228e6 0.0
0.0 0.0 0.0

576999.0385126076 1.1349727272385718e7 0.0
1.1349727272385718e7 -7.339560221633105e6 0.0
0.0 0.0 0.0

-9.981331712259214e6 1.2895893155755632e7 0.0
1.2895893155755632e7 1.3699940140691318e7 0.0
0.0 0.0 0.0

2.238635051324773e6 8.66710716427331e6 0.0
8.66710716427331e6 -9.491021731715143e6 0.0
0.0 0.0 0.0

-1.8730813083099322e6 7.248091083580345e6 0.0
7.248091083580345e6 805345.2572516024 0.0
0.0 0.0 0.0

-3.663456466547733e6 1.8679707440065872e7 0.0
1.8679707440065872e7 2.2536353380239056e6 0.0
0.0 0.0 0.0

-3.658770190957333e6 1.927633919441904e7 0.0
1.927633919441904e7 2.391567393656075e6 0.0
0.0 0.0 0.0

339962.4009391153 1.2456144460753221e7 0.0
1.2456144460753221e7 -7.654222618926374e6 0.0
0.0 0.0 0.0

1.136898167442646e6 1.5716679581869964e7 0.0
1.5716679581869964e7 -5.213729452907194e6 0.0
0.0 0.0 0.0

4.870455422392052e6 2.04729217013478e7 0.0
2.04729217013478e7 -5.773032179410125e6 0.0
0.0 0.0 0.0

-4.688432639767919e6 1.806665028152855e7 0.0
1.806665028152855e7 5.971735946697896e6 0.0
0.0 0.0 0.0

-4.634789199068711e6 1.4012838625624912e7 0.0
1.4012838625624912e7 -2.379249478174055e7 0.0
0.0 0.0 0.0

1.3367850883291042e6 9.662896655903531e6 0.0
9.662896655903531e6 -7.858832366938813e6 0.0
0.0 0.0 0.0

-1.076893913375211e7 1.073391336350417e6 0.0
1.073391336350417e6 1.921553148986599e7 0.0
0.0 0.0 0.0

-1.1774829317477858e6 1.6757157723658508e7 0.0
1.6757157723658508e7 -1.2742578351484907e6 0.0
0.0 0.0 0.0

-3.269423332111975e6 1.719409259577642e7 0.0
1.719409259577642e7 -760350.5839996447 0.0
0.0 0.0 0.0

-4.352957505277382e6 1.7179986327052396e7 0.0
1.7179986327052396e7 4.394677928280609e6 0.0
0.0 0.0 0.0

-1.0545885529064916e7 -975423.8040060592 0.0
-975423.8040060592 2.1617446115611866e7 0.0
0.0 0.0 0.0

-5.130314359844471e6 2.31377581206209e7 0.0
2.31377581206209e7 4.688263486964107e6 0.0
0.0 0.0 0.0

-4.228200794597048e6 1.8372572426077098e7 0.0
1.8372572426077098e7 1.731410733417711e6 0.0
0.0 0.0 0.0

1.2296822865360344e6 1.445674826783125e7 0.0
1.445674826783125e7 -542884.9678068305 0.0
0.0 0.0 0.0

1.5840143579533468e6 1.3757150441491853e7 0.0
1.3757150441491853e7 5.280048113831136e6 0.0
0.0 0.0 0.0

-4.844001794713188e6 1.6408628906097146e7 0.0
1.6408628906097146e7 6.286635511428822e6 0.0
0.0 0.0 0.0

-7.127600737472961e6 1.4668288857850097e7 0.0
1.4668288857850097e7 9.600519274378367e6 0.0
0.0 0.0 0.0

3.363824722584146e6 6.238074339166523e6 0.0
6.238074339166523e6 -1.0628134849946836e7 0.0
0.0 0.0 0.0

-2.513926745757984e6 1.9190615791071106e7 0.0
1.9190615791071106e7 -1.5520207716325088e6 0.0
0.0 0.0 0.0

-9.654690393678766e6 1.0864616829949282e7 0.0
1.0864616829949282e7 1.5325905978497738e7 0.0
0.0 0.0 0.0

4.100402428037774e6 4.922751942595014e6 0.0
4.922751942595014e6 -1.5996707641177958e7 0.0
0.0 0.0 0.0

-2.8090065715307402e6 1.7844055448280513e7 0.0
1.7844055448280513e7 -3.277997369863638e6 0.0
0.0 0.0 0.0

-4.1474149467313597e6 1.6841356927115213e7 0.0
1.6841356927115213e7 3.5610719132718085e6 0.0
0.0 0.0 0.0

-1.1222500485624794e6 5.1070883766139075e6 0.0
5.1070883766139075e6 -1.7771285617523561e6 0.0
0.0 0.0 0.0

1.864956150646937e6 9.691420667371502e6 0.0
9.691420667371502e6 -1.2318370468222646e7 0.0
0.0 0.0 0.0

-5.351822427956093e6 3.639510260330562e7 0.0
3.639510260330562e7 1.9487901571479014e6 0.0
0.0 0.0 0.0

3.415688931342574e6 6.996607318959193e6 0.0
6.996607318959193e6 -4.256582987634198e7 0.0
0.0 0.0 0.0

4.1789449085253803e6 5.6681553138070265e6 0.0
5.6681553138070265e6 -1.8289126227852926e7 0.0
0.0 0.0 0.0

2.37224966135865e6 1.0730738253101474e7 0.0
1.0730738253101474e7 -1.3608717013476688e7 0.0
0.0 0.0 0.0

-3.799630757146582e6 1.7626305113068778e7 0.0
1.7626305113068778e7 4.122933888214686e6 0.0
0.0 0.0 0.0

1.3933745756378714e6 1.2317108117594974e7 0.0
1.2317108117594974e7 -1.8167891091365285e7 0.0
0.0 0.0 0.0

1.269114552454892e6 9.22252995535441e6 0.0
9.22252995535441e6 -7.332889425432764e6 0.0
0.0 0.0 0.0

-2.0020307263061283e6 8.740983541024802e6 0.0
8.740983541024802e6 -2.2344755499234884e6 0.0
0.0 0.0 0.0

950860.133049712 1.5603891238753054e7 0.0
1.5603891238753054e7 1.004114567829563e7 0.0
0.0 0.0 0.0

-8.340069300281083e6 1.4727596714867858e7 0.0
1.4727596714867858e7 2.2126476626015805e7 0.0
0.0 0.0 0.0

5.371300807881251e6 1.2569150492971402e7 0.0
1.2569150492971402e7 6.155685112876389e6 0.0
0.0 0.0 0.0

-4.79876172994202e6 2.4878529209894467e7 0.0
2.4878529209894467e7 3.490934569195103e6 0.0
0.0 0.0 0.0

-1.088804119625456e6 1.2817893594946671e7 0.0
1.2817893594946671e7 -6.591002281817084e6 0.0
0.0 0.0 0.0

-2.0804516017031305e7 1.9268722056794398e7 0.0
1.9268722056794398e7 2.043601014506355e6 0.0
0.0 0.0 0.0

-269067.2747770904 1.3846661210412862e7 0.0
1.3846661210412862e7 -7.051240503186821e6 0.0
0.0 0.0 0.0

-4.006270400746464e6 1.7180735291195903e7 0.0
1.7180735291195903e7 2.720128809176068e6 0.0
0.0 0.0 0.0

-14269.223699498689 1.1398931316551726e7 0.0
1.1398931316551726e7 -5.805579943787362e6 0.0
0.0 0.0 0.0

146359.94606098626 1.3259898279753672e7 0.0
1.3259898279753672e7 -1.840279708048605e7 0.0
0.0 0.0 0.0

3.8891085220873253e6 5.468020610778367e6 0.0
5.468020610778367e6 -1.530945144913286e7 0.0
0.0 0.0 0.0

3.125369192017209e6 9.332068000944568e6 0.0
9.332068000944568e6 -2.3657117586093586e7 0.0
0.0 0.0 0.0

-3.039566214396192e6 1.6568065152864063e7 0.0
1.6568065152864063e7 1.1395285120835213e7 0.0
0.0 0.0 0.0

4.0725912870310396e6 7.006296120776042e6 0.0
7.006296120776042e6 -1.711200674707839e7 0.0
0.0 0.0 0.0

-2.5804708734935657e6 1.796476042357906e7 0.0
1.796476042357906e7 -3.756336468649675e6 0.0
0.0 0.0 0.0

-1.0037450718433338e6 1.5741814492317947e7 0.0
1.5741814492317947e7 -8.519747509451922e6 0.0
0.0 0.0 0.0

-1.8204846893337884e6 1.1278503919059373e7 0.0
1.1278503919059373e7 -4.100713273364035e6 0.0
0.0 0.0 0.0

-4.380164348585851e6 1.2459265447593013e7 0.0
1.2459265447593013e7 1.1122100689514924e6 0.0
0.0 0.0 0.0

-1.0001859444830675e7 1.3407587622109026e7 0.0
1.3407587622109026e7 1.4392366960975189e7 0.0
0.0 0.0 0.0

2.9195808971482916e6 8.856367738782328e6 0.0
8.856367738782328e6 -1.2486046872649446e7 0.0
0.0 0.0 0.0

-5.908919299671624e6 2.63575202878699e7 0.0
2.63575202878699e7 3.6499905607382953e6 0.0
0.0 0.0 0.0

-5.703048855634485e6 2.3497852404070266e7 0.0
2.3497852404070266e7 5.0174282707526805e6 0.0
0.0 0.0 0.0

-1.0169978600777153e7 1.4333924476018094e7 0.0
1.4333924476018094e7 1.5369218666345395e7 0.0
0.0 0.0 0.0

-1.2473794362919906e6 1.1911001479201945e7 0.0
1.1911001479201945e7 -4.1579313804865386e6 0.0
0.0 0.0 0.0

1.224836637204994e6 1.316829096483479e7 0.0
1.316829096483479e7 -1.2145197898323251e7 0.0
0.0 0.0 0.0

4.0439866010774504e6 6.857874780505715e6 0.0
6.857874780505715e6 -1.5565800725485295e7 0.0
0.0 0.0 0.0

-4.629950877879435e6 1.9038479517929904e7 0.0
1.9038479517929904e7 8.351138685938647e6 0.0
0.0 0.0 0.0

-1.2291421946578823e7 5.376534572742554e6 0.0
5.376534572742554e6 1.5141139546671223e7 0.0
0.0 0.0 0.0

-52694.063791377936 2.1030170169103373e7 0.0
2.1030170169103373e7 -3.65801740154852e6 0.0
0.0 0.0 0.0

-1.0270570736930685e7 280266.1844729061 0.0
280266.1844729061 3.8960865019805774e7 0.0
0.0 0.0 0.0

-1.9223924450306587e6 1.5771120956717892e7 0.0
1.5771120956717892e7 -5.80530126796069e6 0.0
0.0 0.0 0.0

-8.656107589684907e6 -5.9134508326642215e6 0.0
-5.9134508326642215e6 1.7529089910190705e7 0.0
0.0 0.0 0.0

-4.420589110698382e6 3.4453689485582937e6 0.0
3.4453689485582937e6 6.62820833706714e6 0.0
0.0 0.0 0.0

3.2859612560034646e6 5.710903995687718e6 0.0
5.710903995687718e6 -1.0272075064067004e7 0.0
0.0 0.0 0.0

-1.1818842841610385e7 1.0811742090206051e7 0.0
1.0811742090206051e7 2.316083671140132e7 0.0
0.0 0.0 0.0

3.230312045257326e6 9.641231398656115e6 0.0
9.641231398656115e6 -2.0010243666823987e7 0.0
0.0 0.0 0.0

-2.43315096133643e6 1.8070213437912747e7 0.0
1.8070213437912747e7 -2.0785364806346125e6 0.0
0.0 0.0 0.0

-4.09953702274888e6 1.8180513091990255e7 0.0
1.8180513091990255e7 3.7085298232149044e6 0.0
0.0 0.0 0.0

-1.8309312388019597e6 1.343340623354326e7 0.0
1.343340623354326e7 -2.6194828309178147e6 0.0
0.0 0.0 0.0

-4.362145028747687e6 1.8550807641636718e7 0.0
1.8550807641636718e7 5.43103343210374e6 0.0
0.0 0.0 0.0

1.4342939219679623e6 5.687685620790056e6 0.0
5.687685620790056e6 -6.78109702909955e6 0.0
0.0 0.0 0.0

-2.904240556058972e6 1.5503478532487584e7 0.0
1.5503478532487584e7 -3.046367969036027e6 0.0
0.0 0.0 0.0

3.4544171904156106e6 2.101390868060767e7 0.0
2.101390868060767e7 -5.126700192629191e6 0.0
0.0 0.0 0.0

1.0968527523191264e6 8.640612943560287e6 0.0
8.640612943560287e6 -6.950315014324726e6 0.0
0.0 0.0 0.0

-85343.61551050656 1.2869993051845504e7 0.0
1.2869993051845504e7 -6.781566200903228e6 0.0
0.0 0.0 0.0

-2.4845213476843843e6 1.7828590697207276e7 0.0
1.7828590697207276e7 -3.9636423926183577e6 0.0
0.0 0.0 0.0

-2.0363912595656172e6 1.304870500329694e7 0.0
1.304870500329694e7 -1.9108329855266572e6 0.0
0.0 0.0 0.0

5.5719647635016e6 1.74683733445014e7 0.0
1.74683733445014e7 -4.240326452284432e6 0.0
0.0 0.0 0.0

-474913.78862945456 4.6814222567912005e6 0.0
4.6814222567912005e6 -2.7522899268067987e6 0.0
0.0 0.0 0.0

4.446991350877198e6 5.107645465843355e6 0.0
5.107645465843355e6 -2.160240270637736e7 0.0
0.0 0.0 0.0

-676151.2278516719 4.0748943275521966e6 0.0
4.0748943275521966e6 552203.6031638127 0.0
0.0 0.0 0.0

-1.3196304637638684e6 8.375972784793659e6 0.0
8.375972784793659e6 -3.227950471352323e6 0.0
0.0 0.0 0.0

-2.0453127619190833e6 1.365313762453919e7 0.0
1.365313762453919e7 -4.69687645151787e6 0.0
0.0 0.0 0.0

-4.325941528118322e6 4.602118696086264e6 0.0
4.602118696086264e6 5.975451577716943e6 0.0
0.0 0.0 0.0

2.568900515857526e6 6.293588258854852e6 0.0
6.293588258854852e6 -8.171728369787509e6 0.0
0.0 0.0 0.0

93842.76886959607 1.5824360570965432e7 0.0
1.5824360570965432e7 -1.0667148749064634e7 0.0
0.0 0.0 0.0

-659595.3487035838 8.015197061637812e6 0.0
8.015197061637812e6 -4.252764545778415e6 0.0
0.0 0.0 0.0

-4.813884860306155e6 3.3222127528560445e7 0.0
3.3222127528560445e7 1.5673227764086893e6 0.0
0.0 0.0 0.0

4.95448125875692e6 1.7238518811761428e7 0.0
1.7238518811761428e7 7.129670259802889e6 0.0
0.0 0.0 0.0

-93992.4239163762 7.588783813055204e6 0.0
7.588783813055204e6 -5.009117589746185e6 0.0
0.0 0.0 0.0

-6.156064887555872e6 1.1284319859052066e7 0.0
1.1284319859052066e7 8.835331367254399e6 0.0
0.0 0.0 0.0

2.0738393008042662e6 4.6079280969942445e6 0.0
4.6079280969942445e6 -6.42174632669074e6 0.0
0.0 0.0 0.0

-1.2082760142883783e7 5.092415352598012e6 0.0
5.092415352598012e6 2.224007593018693e7 0.0
0.0 0.0 0.0

409053.2535277873 7.118515921331966e6 0.0
7.118515921331966e6 -5.837112646261727e6 0.0
0.0 0.0 0.0

-7.126112383318195e6 2.6633345950018164e7 0.0
2.6633345950018164e7 5.508011896632254e6 0.0
0.0 0.0 0.0

553439.8791706294 2.1202561867111478e7 0.0
2.1202561867111478e7 -3.8043732005775957e6 0.0
0.0 0.0 0.0

4.30941604391673e6 6.314785421521543e6 0.0
6.314785421521543e6 -1.6240299490712263e7 0.0
0.0 0.0 0.0

-1.2535655154522085e6 1.6125945238901153e7 0.0
1.6125945238901153e7 -7.602246539930376e6 0.0
0.0 0.0 0.0

3.821616753523024e6 7.0130728097070055e6 0.0
7.0130728097070055e6 -2.2166601495994315e7 0.0
0.0 0.0 0.0

-2.52136152939912e6 1.4065156228048064e7 0.0
1.4065156228048064e7 -3.7211269698328846e6 0.0
0.0 0.0 0.0

-593043.3989003384 1.5755371032868555e7 0.0
1.5755371032868555e7 8.71417028456421e6 0.0
0.0 0.0 0.0

2.2783032032721415e6 2.1252810261747304e7 0.0
2.1252810261747304e7 -4.534035558952339e6 0.0
0.0 0.0 0.0

1.0892912873478374e6 8.298682761703944e6 0.0
8.298682761703944e6 -6.301888400535948e6 0.0
0.0 0.0 0.0

2.639414684591952e6 7.702247192566685e6 0.0
7.702247192566685e6 -9.720957967200791e6 0.0
0.0 0.0 0.0

-329893.32381080894 1.0093302065692985e7 0.0
1.0093302065692985e7 -3.941881143728581e6 0.0
0.0 0.0 0.0

-6.659627267571648e6 2.382735915927801e7 0.0
2.382735915927801e7 5.293289558975463e6 0.0
0.0 0.0 0.0

-3.8017876572542605e6 1.2023511470794298e7 0.0
1.2023511470794298e7 -86254.63910061051 0.0
0.0 0.0 0.0

1.2045978761924398e6 2.4259226366513707e7 0.0
2.4259226366513707e7 -2.4932299015519023e6 0.0
0.0 0.0 0.0

-1.619797294889344e6 1.3788977414064636e7 0.0
1.3788977414064636e7 -3.3066524322890462e6 0.0
0.0 0.0 0.0

2.273287200455783e6 1.5724473117736306e7 0.0
1.5724473117736306e7 1.2379879596844206e7 0.0
0.0 0.0 0.0

-2.1577691076344624e6 1.7482951444265272e7 0.0
1.7482951444265272e7 -2.694065778071197e6 0.0
0.0 0.0 0.0

-2.929592172678668e6 1.940635854312974e7 0.0
1.940635854312974e7 -128020.08347027143 0.0
0.0 0.0 0.0

-254437.96630696766 1.5171403895841973e7 0.0
1.5171403895841973e7 -1.0564712382044604e7 0.0
0.0 0.0 0.0

815228.5720279869 1.158308812052422e7 0.0
1.158308812052422e7 -2.5471338188841753e7 0.0
0.0 0.0 0.0

-1.0276717680155687e7 1.4131360931176264e7 0.0
1.4131360931176264e7 2.1215817149673864e7 0.0
0.0 0.0 0.0

980165.6454344937 9.948713027574224e6 0.0
9.948713027574224e6 -9.823141514690641e6 0.0
0.0 0.0 0.0

-1.2166306643021159e7 5.356850166283157e6 0.0
5.356850166283157e6 2.053083186592828e7 0.0
0.0 0.0 0.0

2.792367960801459e6 1.0538422180887911e7 0.0
1.0538422180887911e7 -1.8239193736823298e7 0.0
0.0 0.0 0.0

-1.414808124650117e6 1.0403737554630926e7 0.0
1.0403737554630926e7 -4.411799160034918e6 0.0
0.0 0.0 0.0

3.1815440204640264e6 4.583782064000476e6 0.0
4.583782064000476e6 -1.032036426305288e7 0.0
0.0 0.0 0.0

-4.035635517617058e6 1.5014515726488784e7 0.0
1.5014515726488784e7 26864.866253488 0.0
0.0 0.0 0.0

-4.207159921417389e6 1.8932787793373488e7 0.0
1.8932787793373488e7 1.850986286096314e6 0.0
0.0 0.0 0.0

-1.9616907497529099e6 2.18109045253108e7 0.0
2.18109045253108e7 -1.7967262723694716e6 0.0
0.0 0.0 0.0

-2.726812919576085e6 1.4792900051289825e7 0.0
1.4792900051289825e7 -3.3777852027993454e6 0.0
0.0 0.0 0.0

2.5633396617985805e6 5.785787913759748e6 0.0
5.785787913759748e6 -7.67947353961885e6 0.0
0.0 0.0 0.0

1.313175135616286e6 2.1290282856012914e7 0.0
2.1290282856012914e7 -4.134173682257117e6 0.0
0.0 0.0 0.0

-1.132036340685727e7 6.514974887744182e6 0.0
6.514974887744182e6 1.6764313355921995e7 0.0
0.0 0.0 0.0

3.7284264752349183e6 6.9146570438279575e6 0.0
6.9146570438279575e6 -2.6973965838101476e7 0.0
0.0 0.0 0.0

-287479.1327595473 1.7258727364295326e7 0.0
1.7258727364295326e7 9.347082812776547e6 0.0
0.0 0.0 0.0

-4.241172381655343e6 2.088517321842331e7 0.0
2.088517321842331e7 3.8478112957347464e6 0.0
0.0 0.0 0.0

-1.6177372638643424e6 1.4538239707379684e7 0.0
1.4538239707379684e7 -7.894523228853492e6 0.0
0.0 0.0 0.0

-8.448238953147158e6 1.5033293035114637e7 0.0
1.5033293035114637e7 2.093867886549712e7 0.0
0.0 0.0 0.0

-2.8020725879270653e6 1.5101744402119076e7 0.0
1.5101744402119076e7 -9.340241721206674e6 0.0
0.0 0.0 0.0

27404.949586902745 1.0832545027462346e7 0.0
1.0832545027462346e7 -8.109459372565209e6 0.0
0.0 0.0 0.0

-181491.80909555824 1.5781025963539913e7 0.0
1.5781025963539913e7 9.35618019807762e6 0.0
0.0 0.0 0.0

-4.0557259505679174e6 3.11808185005946e7 0.0
3.11808185005946e7 1.6951136642007963e6 0.0
0.0 0.0 0.0

-1.5051789807018207e6 1.7645415648125254e7 0.0
1.7645415648125254e7 -5.828088559572674e6 0.0
0.0 0.0 0.0

3.467849870913181e7 1.44088907250709e7 0.0
1.44088907250709e7 1.3701107739478014e6 0.0
0.0 0.0 0.0

-1.6353143987202374e6 1.1718735004669478e7 0.0
1.1718735004669478e7 -4.710578934352614e6 0.0
0.0 0.0 0.0

-3.8047642747007958e6 1.5356744674629008e7 0.0
1.5356744674629008e7 -746020.0322413328 0.0
0.0 0.0 0.0

1.1722762397377533e6 1.2097983958353005e7 0.0
1.2097983958353005e7 -1.2195172361649092e7 0.0
0.0 0.0 0.0

-1.7646818428180628e6 2.219479513232632e7 0.0
2.219479513232632e7 -1.7482755750302535e6 0.0
0.0 0.0 0.0

4.217435246610457e6 5.932413801070691e6 0.0
5.932413801070691e6 -2.3751420034099393e7 0.0
0.0 0.0 0.0

483100.6842775196 7.540535213507518e6 0.0
7.540535213507518e6 -6.44266489402156e6 0.0
0.0 0.0 0.0

2.125702442140011e6 9.917382929362943e6 0.0
9.917382929362943e6 -1.3957145495934296e7 0.0
0.0 0.0 0.0

-5.684244708049221e6 1.7528678761486612e7 0.0
1.7528678761486612e7 1.093526673708966e7 0.0
0.0 0.0 0.0

-3.0563003098786636e6 1.61877373007017e7 0.0
1.61877373007017e7 -2.7244055012927465e6 0.0
0.0 0.0 0.0

-547501.1752342302 1.4077276557096893e7 0.0
1.4077276557096893e7 3.856803535021605e6 0.0
0.0 0.0 0.0

-814516.7660221576 1.0957525028538013e7 0.0
1.0957525028538013e7 -3.6106908160996484e6 0.0
0.0 0.0 0.0

-2.098541347657552e6 1.5252179811596623e7 0.0
1.5252179811596623e7 -2.666624305507771e6 0.0
0.0 0.0 0.0

1.1788687736246057e6 1.480731267768697e7 0.0
1.480731267768697e7 -4.4334537734544175e6 0.0
0.0 0.0 0.0

-3.2292327648011064e6 2.97526345241361e7 0.0
2.97526345241361e7 2.070416574838653e6 0.0
0.0 0.0 0.0

-2.277534588885391e6 1.5944770803109482e7 0.0
1.5944770803109482e7 -2.3578142124814875e6 0.0
0.0 0.0 0.0

-1.243217269923938e6 6.1304200788853625e6 0.0
6.1304200788853625e6 237982.9435035881 0.0
0.0 0.0 0.0

1.6374118484975755e7 1.1241215520673899e7 0.0
1.1241215520673899e7 303137.7379057035 0.0
0.0 0.0 0.0

2.485923585416494e6 8.736885411505004e6 0.0
8.736885411505004e6 -3.2792932756541137e7 0.0
0.0 0.0 0.0

-3.489182280780602e6 1.9504215393133e7 0.0
1.9504215393133e7 1.875837860536529e6 0.0
0.0 0.0 0.0

-2.819940613521983e6 6.687642677547543e6 0.0
6.687642677547543e6 2.713713033119795e6 0.0
0.0 0.0 0.0

-1.084721458144954e6 1.1359254748397905e7 0.0
1.1359254748397905e7 -5.593549453629686e6 0.0
0.0 0.0 0.0

408293.80898684124 1.0017646344002476e7 0.0
1.0017646344002476e7 -8.416605089873645e6 0.0
0.0 0.0 0.0

-2.894330449573039e6 2.854317662636057e7 0.0
2.854317662636057e7 1.823974456936888e6 0.0
0.0 0.0 0.0

3.044573891458216e6 9.004351842995534e6 0.0
9.004351842995534e6 -2.1094760924283694e7 0.0
0.0 0.0 0.0

-1.1571714048782699e7 1.1250194857374667e6 0.0
1.1250194857374667e6 1.6505814530886205e7 0.0
0.0 0.0 0.0

-3.087996042119682e6 1.753931926493387e7 0.0
1.753931926493387e7 -6.87706571281316e6 0.0
0.0 0.0 0.0

-3.9747748082475094e6 5.915923816412291e6 0.0
5.915923816412291e6 5.155369308657154e6 0.0
0.0 0.0 0.0

-1.7082498488113543e6 1.5135868274499295e7 0.0
1.5135868274499295e7 -6.167859766982371e6 0.0
0.0 0.0 0.0

-3.628633037788171e6 1.6330182044400718e7 0.0
1.6330182044400718e7 -1.1167772211349027e6 0.0
0.0 0.0 0.0

1.0259213014365146e6 1.3036201884921513e7 0.0
1.3036201884921513e7 -1.5121143891949743e7 0.0
0.0 0.0 0.0

-2.7867698145284937e6 2.755964959373502e7 0.0
2.755964959373502e7 1.8176873857839212e6 0.0
0.0 0.0 0.0

-5.379817930420503e6 1.806364777536365e7 0.0
1.806364777536365e7 1.0044892142616002e7 0.0
0.0 0.0 0.0

-2.42558983420138e6 1.6610798510426018e7 0.0
1.6610798510426018e7 -2.0686057470070668e6 0.0
0.0 0.0 0.0

4.0045956170007847e6 6.4769797253707275e6 0.0
6.4769797253707275e6 -2.3027845580878388e7 0.0
0.0 0.0 0.0

-2.3981042284457963e6 8.339553276449597e6 0.0
8.339553276449597e6 1.2890280960645755e6 0.0
0.0 0.0 0.0

-2.434472507676967e6 2.6788917005795494e7 0.0
2.6788917005795494e7 1.9842893793638512e6 0.0
0.0 0.0 0.0

3.3642630234001465e6 7.91448933803933e6 0.0
7.91448933803933e6 -3.40669037897682e7 0.0
0.0 0.0 0.0

-2.1746310226597018e6 2.6119814452475876e7 0.0
2.6119814452475876e7 1.944188430922883e6 0.0
0.0 0.0 0.0

-2.1308016741424287e6 2.5516993431748454e7 0.0
2.5516993431748454e7 1.7757242861396782e6 0.0
0.0 0.0 0.0

-3.2932870345167806e6 2.1084310461475242e7 0.0
2.1084310461475242e7 342070.17275195476 0.0
0.0 0.0 0.0

-3.217451411255606e6 2.1515280117859792e7 0.0
2.1515280117859792e7 545233.3566561753 0.0
0.0 0.0 0.0

-3.1508943293577805e6 2.1930373109286454e7 0.0
2.1930373109286454e7 723912.2972794466 0.0
0.0 0.0 0.0

-3.0759954910268304e6 2.2319586532558843e7 0.0
2.2319586532558843e7 833847.5052587346 0.0
0.0 0.0 0.0

-3.0364952836994412e6 2.2703073885179475e7 0.0
2.2703073885179475e7 992442.2061682339 0.0
0.0 0.0 0.0

-2.9813766316992333e6 2.3099817478958838e7 0.0
2.3099817478958838e7 1.065942957904291e6 0.0
0.0 0.0 0.0

-6.174873640639225e6 1.1052698335222958e7 0.0
1.1052698335222958e7 5.246075826527957e6 0.0
0.0 0.0 0.0

-2.9094743451548405e6 2.349483739630825e7 0.0
2.349483739630825e7 1.1962120673802183e6 0.0
0.0 0.0 0.0

-2.986522849422438e6 2.3924551006419796e7 0.0
2.3924551006419796e7 1.2541349551964956e6 0.0
0.0 0.0 0.0

-9.48624776389382e6 1.263253751746897e7 0.0
1.263253751746897e7 1.5651981840396225e7 0.0
0.0 0.0 0.0

-2.165648636486702e6 2.5006128940647114e7 0.0
2.5006128940647114e7 1.7670287464817439e6 0.0
0.0 0.0 0.0

-3.064855723660511e6 2.4305094767593518e7 0.0
2.4305094767593518e7 1.3135843108270976e6 0.0
0.0 0.0 0.0

-3.019447038999328e6 2.4781235918160368e7 0.0
2.4781235918160368e7 1.4192265466421845e6 0.0
0.0 0.0 0.0

-2.1969106079777526e6 2.4568024819076467e7 0.0
2.4568024819076467e7 1.7251103144239828e6 0.0
0.0 0.0 0.0

-1.3422258038475048e6 1.301935156012736e7 0.0
1.301935156012736e7 -3.6178826886383574e6 0.0
0.0 0.0 0.0

-3.1659420263074827e6 2.526930879825997e7 0.0
2.526930879825997e7 1.3875655800602697e6 0.0
0.0 0.0 0.0

-2.362603476055203e6 2.4121753072120897e7 0.0
2.4121753072120897e7 1.564654008343824e6 0.0
0.0 0.0 0.0

-2.213314593334335e6 2.3711693913971264e7 0.0
2.3711693913971264e7 1.5332378405065425e6 0.0
0.0 0.0 0.0

-2.362697808670059e6 2.3340209756216835e7 0.0
2.3340209756216835e7 1.438037657857799e6 0.0
0.0 0.0 0.0

-2.4870187179174856e6 2.2924678218754146e7 0.0
2.2924678218754146e7 1.3390405649524701e6 0.0
0.0 0.0 0.0

-2.545485518510152e6 2.2557930210963383e7 0.0
2.2557930210963383e7 1.2121873700040195e6 0.0
0.0 0.0 0.0

-2.6825587488617627e6 2.2157757976747952e7 0.0
2.2157757976747952e7 1.091753967201793e6 0.0
0.0 0.0 0.0

-2.7171893576595164e6 2.1776687414728165e7 0.0
2.1776687414728165e7 961263.2747114184 0.0
0.0 0.0 0.0

-2.7711553567679897e6 2.1360662297276497e7 0.0
2.1360662297276497e7 785382.4657084466 0.0
0.0 0.0 0.0

-3.0595328844256657e6 1.8264016354754195e7 0.0
1.8264016354754195e7 -2.3696629436400267e6 0.0
0.0 0.0 0.0

-1.0085475002231188e7 1.4590532061107466e7 0.0
1.4590532061107466e7 2.0222275686243586e7 0.0
0.0 0.0 0.0

-3.4689305159711777e6 2.5780946276789386e7 0.0
2.5780946276789386e7 1.4134825158231922e6 0.0
0.0 0.0 0.0

3.3048848921239935e6 7.584515988478423e6 0.0
7.584515988478423e6 -1.6519299635605115e7 0.0
0.0 0.0 0.0

-3.699076423653996e6 1.811036587202979e7 0.0
1.811036587202979e7 2.128214154770624e6 0.0
0.0 0.0 0.0

-3.9535127372096484e6 2.6464275197938304e7 0.0
2.6464275197938304e7 1.4759872572255926e6 0.0
0.0 0.0 0.0

-1.068106703109765e7 7.688639596111202e6 0.0
7.688639596111202e6 1.5963390647818863e7 0.0
0.0 0.0 0.0

-4.579394898793077e6 2.7251523826414574e7 0.0
2.7251523826414574e7 1.3549290310166555e6 0.0
0.0 0.0 0.0

-1.1909408824744036e7 6.070599634127721e6 0.0
6.070599634127721e6 1.7949964502835687e7 0.0
0.0 0.0 0.0

-5.360477389562276e6 2.807957162033036e7 0.0
2.807957162033036e7 1.122401571872434e6 0.0
0.0 0.0 0.0

-100174.2094124225 1.508391939905362e7 0.0
1.508391939905362e7 -1.1859966047833718e7 0.0
0.0 0.0 0.0

2.7637062774121864e6 9.597643851605289e6 0.0
9.597643851605289e6 -1.344942936438175e7 0.0
0.0 0.0 0.0

957773.4585522581 1.1695771230576364e7 0.0
1.1695771230576364e7 -2.386936158416103e7 0.0
0.0 0.0 0.0

-2.6413444497396536e6 1.6369520515588483e7 0.0
1.6369520515588483e7 -1.401736778444108e6 0.0
0.0 0.0 0.0

-922342.5284571759 1.3126119248139063e7 0.0
1.3126119248139063e7 -7.171321237219177e6 0.0
0.0 0.0 0.0

-2.503296757531401e6 1.739903963876083e7 0.0
1.739903963876083e7 -4.1833241108313785e6 0.0
0.0 0.0 0.0

-141809.56213726057 1.5219518252141764e7 0.0
1.5219518252141764e7 -1.193067643109581e7 0.0
0.0 0.0 0.0

5.197117484432455e6 3.3675268402003185e6 0.0
3.3675268402003185e6 -1.955486882288255e7 0.0
0.0 0.0 0.0

-3.2761230724509563e6 1.0471413476369606e7 0.0
1.0471413476369606e7 2.2817285194692067e6 0.0
0.0 0.0 0.0

-6.325794318968541e6 2.91163806756555e7 0.0
2.91163806756555e7 1.0748569185749278e6 0.0
0.0 0.0 0.0

2.2602774896423174e6 1.0201927099416614e7 0.0
1.0201927099416614e7 -1.1507533790142287e7 0.0
0.0 0.0 0.0

-1.2285189090784147e7 6.650311476889825e6 0.0
6.650311476889825e6 1.9887676093177702e7 0.0
0.0 0.0 0.0

-1.869929909495811e6 1.4534993618424792e7 0.0
1.4534993618424792e7 -2.995053527628484e6 0.0
0.0 0.0 0.0

-2.2411147106968146e6 2.2738207167298917e7 0.0
2.2738207167298917e7 207622.1270402918 0.0
0.0 0.0 0.0

3.56992857463204e6 7.054386593368223e6 0.0
7.054386593368223e6 -1.7292738052143082e7 0.0
0.0 0.0 0.0

-9.882735626083257e6 2.6814419996403445e7 0.0
2.6814419996403445e7 5.750699650814222e6 0.0
0.0 0.0 0.0

-6.694345934768871e6 1.2601544206163611e7 0.0
1.2601544206163611e7 6.750862163173837e6 0.0
0.0 0.0 0.0

-1.2797693393582467e7 2.0726357779003695e7 0.0
2.0726357779003695e7 4.699511859385685e6 0.0
0.0 0.0 0.0

376363.3599953749 1.5269613846231904e7 0.0
1.5269613846231904e7 7.792729382345003e6 0.0
0.0 0.0 0.0

-8.157403903351331e6 3.0648557706399262e7 0.0
3.0648557706399262e7 862238.5463224128 0.0
0.0 0.0 0.0

2.613175969984278e6 9.92176719904989e6 0.0
9.92176719904989e6 -2.044965444554079e7 0.0
0.0 0.0 0.0

-5.309943407048759e6 1.2398761338118853e7 0.0
1.2398761338118853e7 3.299183503347763e6 0.0
0.0 0.0 0.0

778089.9840477057 1.273465719968098e7 0.0
1.273465719968098e7 2.5936336276938296e6 0.0
0.0 0.0 0.0

2.805800435193536e6 8.234058800554161e6 0.0
8.234058800554161e6 -1.4581464921944348e7 0.0
0.0 0.0 0.0

2921.5735015362734 1.5213778283973357e7 0.0
1.5213778283973357e7 2.464213285640862e6 0.0
0.0 0.0 0.0

3.0520228095777864e6 8.11876288237446e6 0.0
8.11876288237446e6 -1.5764707220362667e7 0.0
0.0 0.0 0.0

-281758.4754745349 1.3326359232199812e7 0.0
1.3326359232199812e7 -2.515738427148034e6 0.0
0.0 0.0 0.0

-2.989783541754027e6 1.6767132422899766e7 0.0
1.6767132422899766e7 -445466.7279538157 0.0
0.0 0.0 0.0

-3.17058894961812e6 1.6838425255299244e7 0.0
1.6838425255299244e7 -2.412540950653633e6 0.0
0.0 0.0 0.0

2.222880537514627e6 8.456197925820665e6 0.0
8.456197925820665e6 -1.209224167556707e7 0.0
0.0 0.0 0.0

1.4072227188900819e7 1.785717664816104e7 0.0
1.785717664816104e7 6.811560466106806e6 0.0
0.0 0.0 0.0

1.8619714073912809e6 1.0968994206743997e7 0.0
1.0968994206743997e7 -1.1233395279289633e7 0.0
0.0 0.0 0.0

-515851.57086870703 1.3291292629509643e7 0.0
1.3291292629509643e7 -5.861294823264323e6 0.0
0.0 0.0 0.0

-4.7209751537717e6 1.7951369229240824e7 0.0
1.7951369229240824e7 4.966466752543762e6 0.0
0.0 0.0 0.0

834025.9081429373 1.0140600475856233e7 0.0
1.0140600475856233e7 -7.064344736782878e6 0.0
0.0 0.0 0.0

-5.243379162101844e6 1.8583051162502155e7 0.0
1.8583051162502155e7 9.103629485449055e6 0.0
0.0 0.0 0.0

1.28663276958923e6 1.5316767145217536e7 0.0
1.5316767145217536e7 1.294161661465207e7 0.0
0.0 0.0 0.0

-8.026839548445947e6 9.617199696786577e6 0.0
9.617199696786577e6 1.2457872659951415e7 0.0
0.0 0.0 0.0

-1.0931140884474728e7 3.2331917556931235e7 0.0
3.2331917556931235e7 184144.91208140133 0.0
0.0 0.0 0.0

-4.066986856398497e6 1.5328647027381008e7 0.0
1.5328647027381008e7 2.5980839776340507e7 0.0
0.0 0.0 0.0

-3.243471971061898e6 1.2959022438607583e7 0.0
1.2959022438607583e7 -1.6441673041009023e6 0.0
0.0 0.0 0.0

5.72544654371091e6 1.5375588154948052e7 0.0
1.5375588154948052e7 441998.11592539214 0.0
0.0 0.0 0.0

3.937450190923144e6 6.660228509221573e6 0.0
6.660228509221573e6 -1.9220475886160612e7 0.0
0.0 0.0 0.0

2.361009525740616e6 1.0094325870938428e7 0.0
1.0094325870938428e7 -2.2991349260273427e7 0.0
0.0 0.0 0.0

-6.545649326127189e6 1.5285367466021985e7 0.0
1.5285367466021985e7 8.549900686434776e6 0.0
0.0 0.0 0.0

-7.757082189146143e6 2.092828818257481e7 0.0
2.092828818257481e7 -3.293104830589354e6 0.0
0.0 0.0 0.0

-3.1920546395371184e6 1.4710295684469873e7 0.0
1.4710295684469873e7 500928.8859004078 0.0
0.0 0.0 0.0

-184447.0606373977 1.3520119541016947e7 0.0
1.3520119541016947e7 -9.5441241722259e6 0.0
0.0 0.0 0.0

-1.2790722657249335e7 2.6007926823582258e7 0.0
2.6007926823582258e7 7.414479420896095e6 0.0
0.0 0.0 0.0

2.0720803982804082e6 1.024863748745648e7 0.0
1.024863748745648e7 -1.4396258455026902e7 0.0
0.0 0.0 0.0

-3.3476393661822355e6 1.5482579340527095e7 0.0
1.5482579340527095e7 755237.6501582768 0.0
0.0 0.0 0.0

-2.63669003548552e6 7.5444994562181905e6 0.0
7.5444994562181905e6 2.0249554040081538e6 0.0
0.0 0.0 0.0

-5.322984614442756e6 1.5102987981644155e7 0.0
1.5102987981644155e7 7.414683704024564e6 0.0
0.0 0.0 0.0

-1.4317784494483396e7 4.663336922051045e7 0.0
4.663336922051045e7 -1.6445936304650554e6 0.0
0.0 0.0 0.0

-7.338866055702777e6 1.071020662136136e7 0.0
1.071020662136136e7 1.1235391089935858e7 0.0
0.0 0.0 0.0

-1.7205831949894896e6 6.26784909590587e6 0.0
6.26784909590587e6 -1.3760833890295704e6 0.0
0.0 0.0 0.0

-2.84400966766372e6 1.7670357210312556e7 0.0
1.7670357210312556e7 -841867.5096294306 0.0
0.0 0.0 0.0

-4.593851586905731e6 1.779425382714993e7 0.0
1.779425382714993e7 3.180373971740038e6 0.0
0.0 0.0 0.0

-1.0358897662129756e6 1.5751438101787366e7 0.0
1.5751438101787366e7 -6.032184192357399e6 0.0
0.0 0.0 0.0

-3.4627229223138704e6 1.7264084947527386e7 0.0
1.7264084947527386e7 -1.4703930544243834e6 0.0
0.0 0.0 0.0

-5.827698020019353e6 1.8780998377147806e6 0.0
1.8780998377147806e6 7.360927203905745e6 0.0
0.0 0.0 0.0

419656.6537073166 1.37110143662152e7 0.0
1.37110143662152e7 -4.0769802009255877e6 0.0
0.0 0.0 0.0

-4.600986420944682e6 1.8407717321815394e7 0.0
1.8407717321815394e7 3.339358807187975e6 0.0
0.0 0.0 0.0

1.4150351587296096e6 9.4560037632549e6 0.0
9.4560037632549e6 -1.0600698288376587e7 0.0
0.0 0.0 0.0

707696.6598560852 1.4064052199192822e7 0.0
1.4064052199192822e7 -3.4472570708615365e6 0.0
0.0 0.0 0.0

-1.4252165309486805e7 1.970714802768768e7 0.0
1.970714802768768e7 2.51580326709144e6 0.0
0.0 0.0 0.0

-6.563185965755202e6 1.1579219559576258e7 0.0
1.1579219559576258e7 1.0014086483547343e7 0.0
0.0 0.0 0.0

121396.05057094898 1.4693792198566612e7 0.0
1.4693792198566612e7 -1.272040181211334e7 0.0
0.0 0.0 0.0

-4.724893644661828e6 1.8818794599194307e7 0.0
1.8818794599194307e7 4.971274038682273e6 0.0
0.0 0.0 0.0

3.8147889434953285e6 3.5037726490064603e6 0.0
3.5037726490064603e6 -1.176485094388514e7 0.0
0.0 0.0 0.0

-1.0754287005319877e6 948553.7943275176 0.0
948553.7943275176 455230.69777118764 0.0
0.0 0.0 0.0

-156989.89907280804 1.5376927658216439e6 0.0
1.5376927658216439e6 -638699.5049046606 0.0
0.0 0.0 0.0

-6.728779561776921e6 -8.518595958851939e6 0.0
-8.518595958851939e6 1.5866357016494729e7 0.0
0.0 0.0 0.0

337308.3986440938 2.2435961290882635e6 0.0
2.2435961290882635e6 -2.013561037682314e6 0.0
0.0 0.0 0.0

-5.782810625145059e6 -7.932374326032668e6 0.0
-7.932374326032668e6 1.3180980190158853e7 0.0
0.0 0.0 0.0

3.566982124301476e6 3.6800182953635175e6 0.0
3.6800182953635175e6 -9.731862543881942e6 0.0
0.0 0.0 0.0

-3.358125984483405e6 -1.3150286068315103e6 0.0
-1.3150286068315103e6 3.250514654855678e6 0.0
0.0 0.0 0.0

-4.932236245912407e6 -4.250575499069453e6 0.0
-4.250575499069453e6 6.984429890048258e6 0.0
0.0 0.0 0.0

976681.8565091202 2.8499460960127776e6 0.0
2.8499460960127776e6 -3.484670213322977e6 0.0
0.0 0.0 0.0

-4.655204373055192e6 -7.154677437092667e6 0.0
-7.154677437092667e6 9.997864674584366e6 0.0
0.0 0.0 0.0

2.862819065411321e6 3.7545289155304073e6 0.0
3.7545289155304073e6 -7.618538845458777e6 0.0
0.0 0.0 0.0

2.0223595975621876e6 3.572700560701894e6 0.0
3.572700560701894e6 -5.665011512529267e6 0.0
0.0 0.0 0.0

-1.5401890233641018e6 410708.66936948133 0.0
410708.66936948133 1.2759718701653373e6 0.0
0.0 0.0 0.0

5.042217382382406e6 3.458303048110831e6 0.0
3.458303048110831e6 -1.7937561312450733e7 0.0
0.0 0.0 0.0

5.21542229821917e6 3.349743912369986e6 0.0
3.349743912369986e6 -1.919733693250436e7 0.0
0.0 0.0 0.0

4.906961622496334e6 3.4846220185135985e6 0.0
3.4846220185135985e6 -1.6746199019772869e7 0.0
0.0 0.0 0.0

4.70134417780544e6 3.5333380892098146e6 0.0
3.5333380892098146e6 -1.4829701855555829e7 0.0
0.0 0.0 0.0

-3.3907481130088298e6 -416594.8089500355 0.0
-416594.8089500355 3.0139998342481027e6 0.0
0.0 0.0 0.0

-4.924060211196583e6 -7.636077160336648e6 0.0
-7.636077160336648e6 1.1345218354942702e7 0.0
0.0 0.0 0.0

5.1413227998578735e6 3.451560793794683e6 0.0
3.451560793794683e6 -1.8624450617635213e7 0.0
0.0 0.0 0.0

4.090911219567366e6 3.48778865192962e6 0.0
3.48778865192962e6 -1.3234844271416837e7 0.0
0.0 0.0 0.0

4.351119710242658e6 3.4808544514539847e6 0.0
3.4808544514539847e6 -1.4027500562242279e7 0.0
0.0 0.0 0.0

4.129120093810049e6 3.511303037114211e6 0.0
3.511303037114211e6 -1.2635916751846602e7 0.0
0.0 0.0 0.0

898088.610712477 1.3612119101082547e7 0.0
1.3612119101082547e7 -1.137918794847364e7 0.0
0.0 0.0 0.0

-9.640762425990652e6 8.77449285253081e6 0.0
8.77449285253081e6 1.4933757562650602e7 0.0
0.0 0.0 0.0

-1.2536609756337635e7 4.011852480279288e6 0.0
4.011852480279288e6 1.885332802771746e7 0.0
0.0 0.0 0.0

-5.019769445339552e6 1.9155401575202644e7 0.0
1.9155401575202644e7 8.322488763637755e6 0.0
0.0 0.0 0.0

204235.57891092915 1.3448194541970879e7 0.0
1.3448194541970879e7 -1.7350049000079736e7 0.0
0.0 0.0 0.0

-4.962339756506997e6 1.5653161308247963e7 0.0
1.5653161308247963e7 2.8198581164887794e6 0.0
0.0 0.0 0.0

-1.5163561258708537e7 3.4816309839700185e7 0.0
3.4816309839700185e7 -484063.0649046432 0.0
0.0 0.0 0.0

-3.478533975273755e6 1.3788048519958105e7 0.0
1.3788048519958105e7 -1.3217097702869896e6 0.0
0.0 0.0 0.0

-2.9722694675630545e6 1.6234700901711922e7 0.0
1.6234700901711922e7 -8.523407479595289e6 0.0
0.0 0.0 0.0

3.4905793115132824e6 1.7414886665739477e7 0.0
1.7414886665739477e7 6.895707313546746e6 0.0
0.0 0.0 0.0

-3.0500754740381395e6 1.6407766897999998e7 0.0
1.6407766897999998e7 5.705424777559445e6 0.0
0.0 0.0 0.0

-5.160754918563493e6 1.5925450890379285e7 0.0
1.5925450890379285e7 7.273686621194258e6 0.0
0.0 0.0 0.0

41182.45511558978 1.6204137451913664e7 0.0
1.6204137451913664e7 -9.892638544670125e6 0.0
0.0 0.0 0.0

-5.713515520417502e6 1.4528815545998018e7 0.0
1.4528815545998018e7 8.476494665365066e6 0.0
0.0 0.0 0.0

-3.6635027463983498e6 1.7691895661392774e7 0.0
1.7691895661392774e7 -614700.0228635179 0.0
0.0 0.0 0.0

-2.825304580810753e6 1.641978439222734e7 0.0
1.641978439222734e7 -3.3553038124351604e6 0.0
0.0 0.0 0.0

-6.781682432058897e6 1.1379928552974558e7 0.0
1.1379928552974558e7 6.678773933217363e6 0.0
0.0 0.0 0.0

-479864.98122590315 1.2716658844565932e7 0.0
1.2716658844565932e7 -8.055306769366446e6 0.0
0.0 0.0 0.0

-3.451442975906668e6 1.4341485529390944e7 0.0
1.4341485529390944e7 1.3234297253551062e6 0.0
0.0 0.0 0.0

1.8354077519978746e6 8.966470712837506e6 0.0
8.966470712837506e6 -1.1338204570531895e7 0.0
0.0 0.0 0.0

-892328.1884589432 804975.5649606279 0.0
804975.5649606279 1.5388769950587903e6 0.0
0.0 0.0 0.0

-211697.370427163 1.4571331424749906e6 0.0
1.4571331424749906e6 429751.7772333502 0.0
0.0 0.0 0.0

-4.393630380623952e6 -7.304229559704756e6 0.0
-7.304229559704756e6 1.2068076851112433e7 0.0
0.0 0.0 0.0

-1.7474672769709069e6 494813.3399898311 0.0
494813.3399898311 3.084972088058248e6 0.0
0.0 0.0 0.0

-2.7001818543461775e6 -880621.261425562 0.0
-880621.261425562 4.660313047121578e6 0.0
0.0 0.0 0.0

5.04254472103264e6 3.4597755548601104e6 0.0
3.4597755548601104e6 -1.8021544696086094e7 0.0
0.0 0.0 0.0

5.064244352592517e6 3.3911361752158925e6 0.0
3.3911361752158925e6 -1.8516119276575867e7 0.0
0.0 0.0 0.0

-5.138346393925943e6 -7.564425003973889e6 0.0
-7.564425003973889e6 1.3680223311939647e7 0.0
0.0 0.0 0.0

4.48199227462548e6 3.5817416672677617e6 0.0
3.5817416672677617e6 -1.4248004179893762e7 0.0
0.0 0.0 0.0

4.064316306170239e6 3.6243014493327914e6 0.0
3.6243014493327914e6 -1.1886291156735212e7 0.0
0.0 0.0 0.0

4.2659763937419355e6 3.567303696082965e6 0.0
3.567303696082965e6 -1.3258956371579979e7 0.0
0.0 0.0 0.0

4.1326807269760687e6 3.518500981894755e6 0.0
3.518500981894755e6 -1.2583412374790698e7 0.0
0.0 0.0 0.0

-4.0528878378671426e6 1.2955316227508279e7 0.0
1.2955316227508279e7 241582.61243384122 0.0
0.0 0.0 0.0

-9.917941794169791e6 1.501669418163596e7 0.0
1.501669418163596e7 1.9243679365089476e7 0.0
0.0 0.0 0.0

-6.45563299259544e6 1.417077732914314e7 0.0
1.417077732914314e7 1.0499602975977823e7 0.0
0.0 0.0 0.0

4.426347801902365e6 5.876197196551567e6 0.0
5.876197196551567e6 -1.6123247948013563e7 0.0
0.0 0.0 0.0

-2.4320421352982884e6 1.9277462328713678e7 0.0
1.9277462328713678e7 -3.2067633978926037e6 0.0
0.0 0.0 0.0

-3.6198654144243365e6 1.677695988437604e7 0.0
1.677695988437604e7 1.382482178941109e7 0.0
0.0 0.0 0.0

-1.241424120385997e7 1.0406272568017766e7 0.0
1.0406272568017766e7 1.6444837752092823e7 0.0
0.0 0.0 0.0

2.521867481093296e6 8.731044772611436e6 0.0
8.731044772611436e6 -1.380237593855455e7 0.0
0.0 0.0 0.0

2.0272402557217032e6 1.0560015906930156e7 0.0
1.0560015906930156e7 -1.4748994561454246e7 0.0
0.0 0.0 0.0

-2.6865338062116e6 1.57664463803388e7 0.0
1.57664463803388e7 -3.6783255438287067e6 0.0
0.0 0.0 0.0

-4.833472807926128e6 1.6649993978699818e7 0.0
1.6649993978699818e7 1.552938629983156e7 0.0
0.0 0.0 0.0

-2.8761527733468907e6 9.414263956374709e6 0.0
9.414263956374709e6 1.8023015326172656e6 0.0
0.0 0.0 0.0

-1.3504341735368746e6 1.6196351438531492e7 0.0
1.6196351438531492e7 -5.135474259462112e6 0.0
0.0 0.0 0.0

-3.1281598467969256e6 1.92635919001679e7 0.0
1.92635919001679e7 519727.852808923 0.0
0.0 0.0 0.0

1.4384646504887608e6 1.1677071678802986e7 0.0
1.1677071678802986e7 -1.1081406102641663e7 0.0
0.0 0.0 0.0

-2.7655955312679955e6 1.703069758625853e7 0.0
1.703069758625853e7 -1.1119934156025865e6 0.0
0.0 0.0 0.0

782814.3302303759 2.6203558794134646e6 0.0
2.6203558794134646e6 2.6335329179563774e6 0.0
0.0 0.0 0.0

-5.147375759316693e6 1.6718641845561577e7 0.0
1.6718641845561577e7 1.5126595626077471e7 0.0
0.0 0.0 0.0

2.8603508708637804e6 9.18166464244638e6 0.0
9.18166464244638e6 -2.6546507802036364e7 0.0
0.0 0.0 0.0

2.536359219396827e6 9.959720842609417e6 0.0
9.959720842609417e6 -2.1732574235874236e7 0.0
0.0 0.0 0.0

-1.1407041321642853e6 1.5563886166160839e7 0.0
1.5563886166160839e7 -5.48458563870236e6 0.0
0.0 0.0 0.0

-7.889720867548101e6 1.914064629230702e7 0.0
1.914064629230702e7 4.536065212488787e6 0.0
0.0 0.0 0.0

2.94771896774503e6 6.211891801684806e6 0.0
6.211891801684806e6 -9.41736539112803e6 0.0
0.0 0.0 0.0

-3.000765588147325e6 1.390791125674501e7 0.0
1.390791125674501e7 243050.3966951999 0.0
0.0 0.0 0.0

-3.4056255378810368e6 1.6611259599139236e7 0.0
1.6611259599139236e7 -1.759594763244079e6 0.0
0.0 0.0 0.0

-2.5386840663453867e6 1.725828012058361e7 0.0
1.725828012058361e7 -1.7626500730554913e6 0.0
0.0 0.0 0.0

254236.96438137442 1.3427004436867623e7 0.0
1.3427004436867623e7 -1.8694309890697114e7 0.0
0.0 0.0 0.0

2.356005378506597e6 1.0361243296421802e7 0.0
1.0361243296421802e7 -1.836832781084673e7 0.0
0.0 0.0 0.0

-4.1403027373718824e6 9.786402247218315e6 0.0
9.786402247218315e6 1.262739033599394e6 0.0
0.0 0.0 0.0

-6.38860183523955e6 1.4996544775288207e7 0.0
1.4996544775288207e7 7.675720922614111e6 0.0
0.0 0.0 0.0

1.312031023735134e6 1.2413103117930073e7 0.0
1.2413103117930073e7 -1.935549033296512e7 0.0
0.0 0.0 0.0

-1.9585287933114814e6 1.781608826477809e7 0.0
1.781608826477809e7 -3.535748118465742e6 0.0
0.0 0.0 0.0

2.379516664460436e6 3.6433551696761437e6 0.0
3.6433551696761437e6 -6.373518605392941e6 0.0
0.0 0.0 0.0

306792.29875743657 2.3989422654186055e7 0.0
2.3989422654186055e7 -1.9413332334449352e6 0.0
0.0 0.0 0.0

2.5370175876473137e6 6.78709670495049e6 0.0
6.78709670495049e6 -8.74410766129812e6 0.0
0.0 0.0 0.0

-1.0187952117540454e6 1.221913698655746e7 0.0
1.221913698655746e7 -3.9300754358828086e6 0.0
0.0 0.0 0.0

-6.029241865472315e6 1.717811008908452e7 0.0
1.717811008908452e7 9.529888007531721e6 0.0
0.0 0.0 0.0

-2.681663290809553e6 1.1648069698899116e7 0.0
1.1648069698899116e7 489197.9359913146 0.0
0.0 0.0 0.0

-2.9874778313281783e6 1.3348406313324563e7 0.0
1.3348406313324563e7 -2.3649694066628935e6 0.0
0.0 0.0 0.0

-3.696146354832443e6 1.7012725660378482e7 0.0
1.7012725660378482e7 -818094.5359057607 0.0
0.0 0.0 0.0

-3.674899326945288e6 8.70806341389049e6 0.0
8.70806341389049e6 754058.197130797 0.0
0.0 0.0 0.0

-5.318050264851559e6 1.1892519076960227e6 0.0
1.1892519076960227e6 7.202018241932693e6 0.0
0.0 0.0 0.0

-5.460111216120534e6 1.4191382690354303e7 0.0
1.4191382690354303e7 7.5306970757186925e6 0.0
0.0 0.0 0.0

-4.475315602928529e6 1.5713215474600233e7 0.0
1.5713215474600233e7 4.437473969759762e6 0.0
0.0 0.0 0.0

838936.0243673911 6.613130717634497e6 0.0
6.613130717634497e6 -6.540095782312862e6 0.0
0.0 0.0 0.0

-6.103432123981598e6 1.2494412893915819e7 0.0
1.2494412893915819e7 8.768767535679612e6 0.0
0.0 0.0 0.0

-3.237603304509993e6 1.748421120597075e7 0.0
1.748421120597075e7 -2.1048261442142557e6 0.0
0.0 0.0 0.0

3.8391636339284834e6 8.246313128483026e6 0.0
8.246313128483026e6 -1.9004168686554626e7 0.0
0.0 0.0 0.0

-6.438485199924162e6 1.931448206102769e7 0.0
1.931448206102769e7 3.86871780874628e6 0.0
0.0 0.0 0.0

-2.5136367300446094e6 1.5082319385544315e7 0.0
1.5082319385544315e7 -4.007882520768776e6 0.0
0.0 0.0 0.0

2.2169457195172515e6 3.6882077191275107e6 0.0
3.6882077191275107e6 -5.601325992915465e6 0.0
0.0 0.0 0.0

-4.802576842396897e6 2.058348144516822e7 0.0
2.058348144516822e7 6.184019547525482e6 0.0
0.0 0.0 0.0

-1.1442063244335204e7 6.045409738562452e6 0.0
6.045409738562452e6 1.3626579860194765e7 0.0
0.0 0.0 0.0

-2.9651119534758567e6 1.4485266456794908e7 0.0
1.4485266456794908e7 -2.736776334293818e6 0.0
0.0 0.0 0.0

-2.7009064262251197e6 1.8460069989382803e7 0.0
1.8460069989382803e7 -1.2317435744558289e6 0.0
0.0 0.0 0.0

-3.701616958476427e6 1.8925266695150036e7 0.0
1.8925266695150036e7 -55827.67331081885 0.0
0.0 0.0 0.0

-2.9362694799139258e6 1.705619625714762e7 0.0
1.705619625714762e7 -3.0346711028526165e6 0.0
0.0 0.0 0.0

-3.299896447705517e6 1.7162540804861017e7 0.0
1.7162540804861017e7 462739.1797439819 0.0
0.0 0.0 0.0

3.0543657968896567e6 3.7038288608261943e6 0.0
3.7038288608261943e6 -8.282908594751848e6 0.0
0.0 0.0 0.0

-2.408570789859982e6 2.0581573605128158e7 0.0
2.0581573605128158e7 -2.3255567535072924e6 0.0
0.0 0.0 0.0

-8.785986529478183e6 1.649541177369708e7 0.0
1.649541177369708e7 -4.1413554434897974e7 0.0
0.0 0.0 0.0

8.76964963657178e6 1.6265518772313384e7 0.0
1.6265518772313384e7 4.35904910301965e7 0.0
0.0 0.0 0.0

1.1589095240344591e6 1.2537134300194127e7 0.0
1.2537134300194127e7 -1.4093831046814006e7 0.0
0.0 0.0 0.0

-1.7437043234216976e6 1.660592827550981e7 0.0
1.660592827550981e7 -4.2343938521811655e6 0.0
0.0 0.0 0.0

-1.8006416109649963e6 1.3193153070231814e7 0.0
1.3193153070231814e7 -1.4558374062091006e7 0.0
0.0 0.0 0.0

-2.290211004437944e6 1.4378706397912506e7 0.0
1.4378706397912506e7 -4.355442075470291e6 0.0
0.0 0.0 0.0

-198812.76920844754 1.6462945903445354e7 0.0
1.6462945903445354e7 -9.58027862920414e6 0.0
0.0 0.0 0.0

-1.3926030263983565e6 1.3547292909701139e7 0.0
1.3547292909701139e7 -6.246461295802864e6 0.0
0.0 0.0 0.0

-3.8856143681843914e6 1.6785762402947396e7 0.0
1.6785762402947396e7 -157375.55724776955 0.0
0.0 0.0 0.0

3.2409039604481477e6 8.2854073360761795e6 0.0
8.2854073360761795e6 -3.2108444686173305e7 0.0
0.0 0.0 0.0

-6.968537411064645e6 1.8184947215256166e7 0.0
1.8184947215256166e7 2.8851209783888264e6 0.0
0.0 0.0 0.0

-5.07628442870505e6 1.715666788536721e7 0.0
1.715666788536721e7 4.802160769890578e6 0.0
0.0 0.0 0.0

-986691.6705600605 1.3704084252063058e7 0.0
1.3704084252063058e7 -4.932070884016343e6 0.0
0.0 0.0 0.0

2.1310373924268326e6 1.0831709144714313e7 0.0
1.0831709144714313e7 -1.7450028234160807e7 0.0
0.0 0.0 0.0

8.79020416357227e6 1.6595344765770543e7 0.0
1.6595344765770543e7 2.9300680132288825e7 0.0
0.0 0.0 0.0

-1.2331208052027132e6 1.6894573675671272e7 0.0
1.6894573675671272e7 -6.420913754442283e6 0.0
0.0 0.0 0.0

-2.3417538853651058e7 3.870831084155029e7 0.0
3.870831084155029e7 -845619.261910392 0.0
0.0 0.0 0.0

1.39197793932023e6 1.2093546331619447e7 0.0
1.2093546331619447e7 -1.49095787679585e7 0.0
0.0 0.0 0.0

-2.2179568591601434e6 1.6838303388623174e7 0.0
1.6838303388623174e7 -2.7059738866933174e6 0.0
0.0 0.0 0.0

2.8848957384233065e6 3.764758338611842e6 0.0
3.764758338611842e6 -7.677067184843603e6 0.0
0.0 0.0 0.0

3.595841152891131e6 7.524112065786277e6 0.0
7.524112065786277e6 -1.8773085541964244e7 0.0
0.0 0.0 0.0

-3.1048562434904547e6 1.869514339761756e7 0.0
1.869514339761756e7 306187.4457375007 0.0
0.0 0.0 0.0

-3.343228393612406e6 1.4193110427323703e7 0.0
1.4193110427323703e7 -2.5294171633258615e7 0.0
0.0 0.0 0.0

-1.429579259748157e6 1.4122694713713998e7 0.0
1.4122694713713998e7 -3.9713333450595303e6 0.0
0.0 0.0 0.0

1.4406517141603245e6 1.0443373314018391e7 0.0
1.0443373314018391e7 -9.032961478637256e6 0.0
0.0 0.0 0.0

-3.8216990518129263e6 1.2520495739713274e7 0.0
1.2520495739713274e7 2.961229552278497e6 0.0
0.0 0.0 0.0

1.6873415241147978e6 1.1681669350079e7 0.0
1.1681669350079e7 -1.5776648376705855e7 0.0
0.0 0.0 0.0

-4.778128767751071e6 1.192003666285928e7 0.0
1.192003666285928e7 2.0476814754516224e6 0.0
0.0 0.0 0.0

345504.0158646237 1.4311109167776072e7 0.0
1.4311109167776072e7 -1.357867199556718e7 0.0
0.0 0.0 0.0

-1.4680000676776148e7 2.3199804942381702e7 0.0
2.3199804942381702e7 -2.7758287986971727e6 0.0
0.0 0.0 0.0

-4.07892481824269e6 -2.4628456128257057e6 0.0
-2.4628456128257057e6 4.332080223739603e6 0.0
0.0 0.0 0.0

-4.728502255214432e6 1.2397069287492272e7 0.0
1.2397069287492272e7 5.243859754023178e6 0.0
0.0 0.0 0.0

-3.0616671156295305e6 1.7419961959848404e7 0.0
1.7419961959848404e7 -172894.15481103805 0.0
0.0 0.0 0.0

-1.0223860530341083e7 -1.1605410836736427e6 0.0
-1.1605410836736427e6 3.3433206457035463e7 0.0
0.0 0.0 0.0

-959030.1386152091 1.5913260295207541e7 0.0
1.5913260295207541e7 8.330056998475181e6 0.0
0.0 0.0 0.0

-1.8450600333541837e6 1.396003606152085e7 0.0
1.396003606152085e7 -5.316705188582486e6 0.0
0.0 0.0 0.0

-471702.0261162012 1.642888151563308e7 0.0
1.642888151563308e7 -8.648485738611905e6 0.0
0.0 0.0 0.0

-1.1299082831491067e6 1.491884439491495e7 0.0
1.491884439491495e7 -7.506600338153503e6 0.0
0.0 0.0 0.0

-960578.4604004029 1.169776149066381e7 0.0
1.169776149066381e7 -6.272143804232571e6 0.0
0.0 0.0 0.0

-2.278523705232038e6 1.6196791849364629e7 0.0
1.6196791849364629e7 -4.875376986665772e6 0.0
0.0 0.0 0.0

-6.082039746711643e6 1.505964367848387e7 0.0
1.505964367848387e7 1.0208840666575221e7 0.0
0.0 0.0 0.0

-3.5739776373883216e6 1.5134469284824656e7 0.0
1.5134469284824656e7 1.542048207738454e6 0.0
0.0 0.0 0.0

-3.2151241669248194e6 1.414420362381051e7 0.0
1.414420362381051e7 -2.0550700568848322e6 0.0
0.0 0.0 0.0

4.0546129466936933e6 7.305430196769418e6 0.0
7.305430196769418e6 -2.3394551747698117e7 0.0
0.0 0.0 0.0

-5.192850918999409e6 2.1043571687987916e7 0.0
2.1043571687987916e7 6.539262297586689e6 0.0
0.0 0.0 0.0

-1.6716341271224949e6 3.4621840650775656e6 0.0
3.4621840650775656e6 1.5699846251503294e6 0.0
0.0 0.0 0.0

-5.908630431678474e6 1.4811230593878385e7 0.0
1.4811230593878385e7 9.363167188362919e6 0.0
0.0 0.0 0.0

931837.7764263251 1.0537123403153714e7 0.0
1.0537123403153714e7 -7.650986539806912e6 0.0
0.0 0.0 0.0

4.392139329149991e6 4.355744504024426e6 0.0
4.355744504024426e6 -1.5390806348406076e7 0.0
0.0 0.0 0.0

1.905257936159851e6 1.1228544588385284e7 0.0
1.1228544588385284e7 -1.6667977640486289e7 0.0
0.0 0.0 0.0

-2.533649635661961e6 6.505468070848506e6 0.0
6.505468070848506e6 -311287.13333088264 0.0
0.0 0.0 0.0

-1.2969104934918135e7 1.0405744303680845e7 0.0
1.0405744303680845e7 1.935482575501681e7 0.0
0.0 0.0 0.0

-2.3044365185846984e6 1.5345237622402465e7 0.0
1.5345237622402465e7 -4.624717836429561e6 0.0
0.0 0.0 0.0

-2.8582893365288894e6 -1.7256103966666688e6 0.0
-1.7256103966666688e6 5.904524975614367e6 0.0
0.0 0.0 0.0

-4.521775477918825e6 1.0866001295775052e7 0.0
1.0866001295775052e7 1.6932025250328148e6 0.0
0.0 0.0 0.0

-701842.3865873504 1.6861994496061247e7 0.0
1.6861994496061247e7 -7.728615694022486e6 0.0
0.0 0.0 0.0

-679995.4545548558 1.4441704913935918e7 0.0
1.4441704913935918e7 -1.4112543905167734e7 0.0
0.0 0.0 0.0

1.4685887289662436e6 1.0531746444190834e7 0.0
1.0531746444190834e7 -1.2035022982964378e7 0.0
0.0 0.0 0.0

64788.57325369259 8.440013344283927e6 0.0
8.440013344283927e6 -6.147513886090902e6 0.0
0.0 0.0 0.0

-1.6820421973753613e6 1.4838532912140654e7 0.0
1.4838532912140654e7 -3.642437885131996e6 0.0
0.0 0.0 0.0

-6.555792568607849e6 1.6176529026872212e7 0.0
1.6176529026872212e7 1.704795275521725e7 0.0
0.0 0.0 0.0

-3.5131950201328397e6 1.905287501929644e7 0.0
1.905287501929644e7 -666120.3524929807 0.0
0.0 0.0 0.0

-9.004964196778266e6 1.5221263271461613e7 0.0
1.5221263271461613e7 1.4597834766127307e7 0.0
0.0 0.0 0.0

-5.154368037697656e6 1.716753124681519e7 0.0
1.716753124681519e7 8.586524151052024e6 0.0
0.0 0.0 0.0

485093.18855844997 9.5314109876284e6 0.0
9.5314109876284e6 -7.81655129159491e6 0.0
0.0 0.0 0.0

-3.594759806710921e6 1.1512873190652376e7 0.0
1.1512873190652376e7 2.671538066286578e6 0.0
0.0 0.0 0.0

-2.0929796153266258e6 1.5879812914972642e7 0.0
1.5879812914972642e7 8.692976603848003e6 0.0
0.0 0.0 0.0

-1.4419437223864621e6 1.2129705887095315e7 0.0
1.2129705887095315e7 -5.332521595260864e6 0.0
0.0 0.0 0.0

1.1280376147248764e6 1.2631002748096716e7 0.0
1.2631002748096716e7 -1.8098354003283255e7 0.0
0.0 0.0 0.0

-1.900681633092381e6 1.5527230415265547e7 0.0
1.5527230415265547e7 -3.3166089211535915e6 0.0
0.0 0.0 0.0

873287.7841318455 1.2943939924004916e7 0.0
1.2943939924004916e7 -1.328492445442484e7 0.0
0.0 0.0 0.0

-3.52568626894714e6 1.3026992118513929e7 0.0
1.3026992118513929e7 1.982795050339677e6 0.0
0.0 0.0 0.0

-4.374080980518967e6 1.3606152483078396e7 0.0
1.3606152483078396e7 -1.8890950284319747e7 0.0
0.0 0.0 0.0

-2.0775443234753888e6 1.6193845721985213e7 0.0
1.6193845721985213e7 -3.013991738744745e6 0.0
0.0 0.0 0.0

3.1805990142543903e6 1.5495928887769906e7 0.0
1.5495928887769906e7 -2.179683995075795e6 0.0
0.0 0.0 0.0

-1.0592349550227547e7 776722.0130958203 0.0
776722.0130958203 3.262745859741777e7 0.0
0.0 0.0 0.0

-7.105959210628466e6 2.6296830665819753e7 0.0
2.6296830665819753e7 5.19961807439967e6 0.0
0.0 0.0 0.0

-3.8046316707543004e6 1.6908332420701314e7 0.0
1.6908332420701314e7 7.213464836085523e6 0.0
0.0 0.0 0.0

-1.17803508042445e7 1.177891555142949e7 0.0
1.177891555142949e7 2.080398894127921e7 0.0
0.0 0.0 0.0

-4.782474594094496e6 1.9151867554380067e7 0.0
1.9151867554380067e7 7.617403025344142e6 0.0
0.0 0.0 0.0

-2.7603472303457055e6 1.3061203055953836e7 0.0
1.3061203055953836e7 -55831.99339854845 0.0
0.0 0.0 0.0

-832204.1950753583 1.3999107211380914e7 0.0
1.3999107211380914e7 -5.537538448956656e6 0.0
0.0 0.0 0.0

-1.4901035219257416e6 1.5109304764969867e7 0.0
1.5109304764969867e7 -4.2659892890677005e6 0.0
0.0 0.0 0.0

-707446.5237152508 8.969933590181088e6 0.0
8.969933590181088e6 -2.36295778950008e6 0.0
0.0 0.0 0.0

-947477.1594358878 1.7309329867938794e7 0.0
1.7309329867938794e7 -6.869480859578762e6 0.0
0.0 0.0 0.0

3.5056791862270636e6 6.438364134230417e6 0.0
6.438364134230417e6 -1.5159136794806095e7 0.0
0.0 0.0 0.0

1.7843946706118025e6 6.27175710650863e6 0.0
6.27175710650863e6 -8.429241890077611e6 0.0
0.0 0.0 0.0

-5.595781628973569e6 1.6778346777765036e7 0.0
1.6778346777765036e7 1.0274990561273098e7 0.0
0.0 0.0 0.0

-3.27406853732467e6 1.8666612947676703e7 0.0
1.8666612947676703e7 -1.5527770252628499e6 0.0
0.0 0.0 0.0

2.4447918216294833e6 1.5894843749136819e7 0.0
1.5894843749136819e7 -3.7060895586135043e6 0.0
0.0 0.0 0.0

-9.89805643088279e6 2.0653671965414617e7 0.0
2.0653671965414617e7 5.12308927931448e6 0.0
0.0 0.0 0.0

2.4892523797146906e6 6.100636551485202e6 0.0
6.100636551485202e6 -1.0913961989047473e7 0.0
0.0 0.0 0.0

-1.9732206642642417e6 1.2520339605947768e7 0.0
1.2520339605947768e7 -4.388062196008249e6 0.0
0.0 0.0 0.0

2.7185395593728762e7 1.2661399415377073e7 0.0
1.2661399415377073e7 460439.9256513603 0.0
0.0 0.0 0.0

226773.81484958064 8.751343258012109e6 0.0
8.751343258012109e6 -6.910823639119272e6 0.0
0.0 0.0 0.0

3.7993039434974464e6 6.575885182477647e6 0.0
6.575885182477647e6 -1.799719426618147e7 0.0
0.0 0.0 0.0

-9.583454858135039e6 1.526069140335322e7 0.0
1.526069140335322e7 1.8438304426588148e7 0.0
0.0 0.0 0.0

770059.7241829522 1.3621614026442474e7 0.0
1.3621614026442474e7 -1.416304576156128e7 0.0
0.0 0.0 0.0

-7.905952249948955e6 7.831037318494792e6 0.0
7.831037318494792e6 1.2649580719645359e7 0.0
0.0 0.0 0.0

-1.0283621273604143e7 2.581272598243408e7 0.0
2.581272598243408e7 6.292640455295998e6 0.0
0.0 0.0 0.0

-9.246116985232431e6 1.5402008542709105e7 0.0
1.5402008542709105e7 1.7810555836748354e7 0.0
0.0 0.0 0.0

-4.89013441320537e6 1.964797152184165e7 0.0
1.964797152184165e7 7.550444297080133e6 0.0
0.0 0.0 0.0

-1.0999609381044187e7 2.1400679036128953e7 0.0
2.1400679036128953e7 -2.1086627387680374e6 0.0
0.0 0.0 0.0

-3.931219244997425e6 1.4228196094410283e7 0.0
1.4228196094410283e7 -250788.34115627455 0.0
0.0 0.0 0.0

2.651057725036865e7 5.8468762663369905e6 0.0
5.8468762663369905e6 -2.9486903801043592e6 0.0
0.0 0.0 0.0

-765009.6954597638 1.5383727818365494e7 0.0
1.5383727818365494e7 -6.921933027819069e6 0.0
0.0 0.0 0.0

-1.05549364485749e6 1.169690372243995e7 0.0
1.169690372243995e7 -616408.729734081 0.0
0.0 0.0 0.0

-1.2116912699450683e6 1.7744897475803502e7 0.0
1.7744897475803502e7 -5.971091704375587e6 0.0
0.0 0.0 0.0

-7.472020483173319e6 1.8261833645748906e7 0.0
1.8261833645748906e7 -3.040180467621511e6 0.0
0.0 0.0 0.0

408854.0046361531 8.164699381745366e6 0.0
8.164699381745366e6 -4.0483647862480734e6 0.0
0.0 0.0 0.0

-5.077054959775686e6 1.698622606128856e7 0.0
1.698622606128856e7 1.1212409984995522e7 0.0
0.0 0.0 0.0

-1.2920132372537483e6 1.3399208963357944e7 0.0
1.3399208963357944e7 -1.400993695895877e7 0.0
0.0 0.0 0.0

-1.2090592706718985e7 1.666368752309464e6 0.0
1.666368752309464e6 1.893603135540208e7 0.0
0.0 0.0 0.0

-3.5035114281459227e6 1.8491227094747405e7 0.0
1.8491227094747405e7 -962813.2746302768 0.0
0.0 0.0 0.0

-2.523854999341982e6 1.3475606727129646e7 0.0
1.3475606727129646e7 -843363.8597533423 0.0
0.0 0.0 0.0

-2.9059361170220254e6 1.8863650626502965e7 0.0
1.8863650626502965e7 -378355.4475949559 0.0
0.0 0.0 0.0

165439.94673960237 1.3981412221380644e7 0.0
1.3981412221380644e7 -8.870101805268155e6 0.0
0.0 0.0 0.0

-3.630719798805088e6 6.976864027517152e6 0.0
6.976864027517152e6 4.1045201344192424e6 0.0
0.0 0.0 0.0

-4.651953674944058e6 1.934709903310392e7 0.0
1.934709903310392e7 5.015508995035774e6 0.0
0.0 0.0 0.0

-6.127672292427193e6 1.652854150930137e7 0.0
1.652854150930137e7 1.2912700296950627e7 0.0
0.0 0.0 0.0

-5.411112229089502e6 1.6429392437092867e7 0.0
1.6429392437092867e7 8.866899784141667e6 0.0
0.0 0.0 0.0

-544913.0885037322 1.183122098286416e7 0.0
1.183122098286416e7 -4.872804404028107e6 0.0
0.0 0.0 0.0

2.406813891991811e6 1.035013877329025e7 0.0
1.035013877329025e7 -1.9522196483140413e7 0.0
0.0 0.0 0.0

-4.356053263265643e6 1.5460129925437521e7 0.0
1.5460129925437521e7 1.0225457558217545e6 0.0
0.0 0.0 0.0

-310218.7333249231 1.5016258172491305e7 0.0
1.5016258172491305e7 -1.0559720812689714e7 0.0
0.0 0.0 0.0

-171689.08873094385 1.3806002018470949e7 0.0
1.3806002018470949e7 -9.962366641153306e6 0.0
0.0 0.0 0.0

-2.346396211201274e6 1.8755796596387986e7 0.0
1.8755796596387986e7 -4.063720369126307e6 0.0
0.0 0.0 0.0

-1.37021946815969e6 1.5564710199267412e7 0.0
1.5564710199267412e7 -7.059404341056424e6 0.0
0.0 0.0 0.0

2.1861236660081744e6 1.060178760396993e7 0.0
1.060178760396993e7 -1.5988401343791358e7 0.0
0.0 0.0 0.0

1.751274420576401e6 6.261427810397077e6 0.0
6.261427810397077e6 -5.986289935004812e6 0.0
0.0 0.0 0.0

-549356.2345148486 5.822300388421213e6 0.0
5.822300388421213e6 -676402.9507946712 0.0
0.0 0.0 0.0

-1.9831665484719295e6 2.3876200089323945e7 0.0
2.3876200089323945e7 808734.2459819432 0.0
0.0 0.0 0.0

-4.320947363650262e6 1.466809653717035e7 0.0
1.466809653717035e7 811502.5337440905 0.0
0.0 0.0 0.0

-2.119463092623258e6 1.6402323166919403e7 0.0
1.6402323166919403e7 -5.441728602656778e6 0.0
0.0 0.0 0.0

3.4812968637861577e6 4.59184292810976e6 0.0
4.59184292810976e6 -1.045732363854428e7 0.0
0.0 0.0 0.0

-1.1344556259843785e7 3.0447638736348753e6 0.0
3.0447638736348753e6 3.2431610316847067e7 0.0
0.0 0.0 0.0

2.2300424042959204e6 8.831939280499676e6 0.0
8.831939280499676e6 -1.2575003366077662e7 0.0
0.0 0.0 0.0

974228.2619696681 1.9214763538167823e7 0.0
1.9214763538167823e7 -5.276259291163481e6 0.0
0.0 0.0 0.0

-1.6327224493947069e6 1.985615619705501e7 0.0
1.985615619705501e7 -3.534354810897511e6 0.0
0.0 0.0 0.0

-4.5232375666940175e6 1.9672258948907748e7 0.0
1.9672258948907748e7 4.340747620818279e6 0.0
0.0 0.0 0.0

4.8327717524069175e6 4.305610386226593e6 0.0
4.305610386226593e6 -2.0486589359610856e7 0.0
0.0 0.0 0.0

-2.0256488386048232e6 1.7043187821430456e7 0.0
1.7043187821430456e7 -3.319911179842073e6 0.0
0.0 0.0 0.0

-1.8716299325478706e6 1.7920979411042478e7 0.0
1.7920979411042478e7 -4.1034304642722546e6 0.0
0.0 0.0 0.0

3.724086474505486e6 7.105494431605005e6 0.0
7.105494431605005e6 -1.9582534705116823e7 0.0
0.0 0.0 0.0

-2.8437279910733476e6 2.005294733464486e7 0.0
2.005294733464486e7 -1.7064320819463385e6 0.0
0.0 0.0 0.0

458631.06211543176 1.658910583349526e7 0.0
1.658910583349526e7 -7.100415503459927e6 0.0
0.0 0.0 0.0

-2.609387239865617e6 1.6628136453427585e7 0.0
1.6628136453427585e7 -3.9645402752857e6 0.0
0.0 0.0 0.0

829789.2448869413 1.3033575412618728e7 0.0
1.3033575412618728e7 -1.908799603034624e7 0.0
0.0 0.0 0.0

2.0927730496482896e6 6.6762274530245615e6 0.0
6.6762274530245615e6 -1.017635242415425e7 0.0
0.0 0.0 0.0

1.0442841597558423e6 1.0306183433333684e7 0.0
1.0306183433333684e7 -1.0357542908535441e7 0.0
0.0 0.0 0.0

-1.6489595178288005e6 1.7051797746891413e7 0.0
1.7051797746891413e7 -5.846941823078651e6 0.0
0.0 0.0 0.0

-2963.833439035341 1.6601560022284323e7 0.0
1.6601560022284323e7 -8.052502213074187e6 0.0
0.0 0.0 0.0

-1.7118690556210799e6 1.5922926329727078e7 0.0
1.5922926329727078e7 -6.270109132644013e6 0.0
0.0 0.0 0.0

3.024095444433957e6 7.229673082192301e6 0.0
7.229673082192301e6 -1.0460579008647215e7 0.0
0.0 0.0 0.0

4.741339022952086e6 5.191862908515751e6 0.0
5.191862908515751e6 -1.7610513963025354e7 0.0
0.0 0.0 0.0

248434.96690342855 1.3786184621777674e7 0.0
1.3786184621777674e7 -1.1640645690221017e7 0.0
0.0 0.0 0.0

610540.7048914414 1.076263008301384e7 0.0
1.076263008301384e7 -9.535544694528166e6 0.0
0.0 0.0 0.0

-3.7487072831477905e6 1.3389392172998538e7 0.0
1.3389392172998538e7 -555548.5323987725 0.0
0.0 0.0 0.0

-8.3381492063534055e6 2.10452937341894e7 0.0
2.10452937341894e7 5.91625134526293e6 0.0
0.0 0.0 0.0

-4.887820005842775e6 1.2233812701467402e7 0.0
1.2233812701467402e7 5.370311203251826e7 0.0
0.0 0.0 0.0

-1.2089944804838564e7 2.0632444696529193e6 0.0
2.0632444696529193e6 1.7398967440696314e7 0.0
0.0 0.0 0.0

-1.5037115214099637e6 1.868585093913622e7 0.0
1.868585093913622e7 -5.857296539780392e6 0.0
0.0 0.0 0.0

-4.210770093144343e6 1.3838448102836344e7 0.0
1.3838448102836344e7 545969.15642089 0.0
0.0 0.0 0.0

-1.1859910505488863e7 4.686429253163736e6 0.0
4.686429253163736e6 2.5650872255850144e7 0.0
0.0 0.0 0.0

4.487507305357655e6 5.23507537110716e6 0.0
5.23507537110716e6 -1.5946821265514508e7 0.0
0.0 0.0 0.0

-3.8263910855710097e6 1.4783728991987819e7 0.0
1.4783728991987819e7 2.44251527793521e6 0.0
0.0 0.0 0.0

818629.5508370427 1.3350720160546962e7 0.0
1.3350720160546962e7 -1.5328218877127664e7 0.0
0.0 0.0 0.0

-1.423834956995869e6 1.8241645084296715e7 0.0
1.8241645084296715e7 -5.144039002761138e6 0.0
0.0 0.0 0.0

-1.8263028781115818e6 1.7210965723060623e7 0.0
1.7210965723060623e7 -3.903778256172651e6 0.0
0.0 0.0 0.0

-5.795657468693787e6 1.2847869398125865e7 0.0
1.2847869398125865e7 4.521112842941536e6 0.0
0.0 0.0 0.0

-2.0884441632140994e6 1.4200790082710262e7 0.0
1.4200790082710262e7 -2.307309368640046e6 0.0
0.0 0.0 0.0

-5.8413914033412e6 7.7163349718962675e6 0.0
7.7163349718962675e6 5.118385436602224e6 0.0
0.0 0.0 0.0

-3.3865226909551725e7 1.8304228389717497e7 0.0
1.8304228389717497e7 8.86626042117811e6 0.0
0.0 0.0 0.0

369974.6264044442 1.6489812792485366e7 0.0
1.6489812792485366e7 8.333363848373917e6 0.0
0.0 0.0 0.0

-5.045827566059841e6 1.795169894670349e7 0.0
1.795169894670349e7 9.010151138379816e6 0.0
0.0 0.0 0.0

-3.271227835610386e6 2.0160889882893838e7 0.0
2.0160889882893838e7 1.4708442341092853e6 0.0
0.0 0.0 0.0

2.7332940341838067e6 8.615767955778174e6 0.0
8.615767955778174e6 -1.5034504935613833e7 0.0
0.0 0.0 0.0

3.517975467778094e6 7.439158189288501e6 0.0
7.439158189288501e6 -1.7742456613828182e7 0.0
0.0 0.0 0.0

3.665664068025928e6 8.64628034024198e6 0.0
8.64628034024198e6 -2.0547643574225817e7 0.0
0.0 0.0 0.0

-4.908731613804587e6 1.2929971487937303e7 0.0
1.2929971487937303e7 2.319473690698461e6 0.0
0.0 0.0 0.0

-1.3079100033731427e7 9.429699385204298e6 0.0
9.429699385204298e6 1.8169247134347595e7 0.0
0.0 0.0 0.0

-5.005516674970374e6 8.607045380001258e6 0.0
8.607045380001258e6 6.431356831448518e6 0.0
0.0 0.0 0.0

1.585405420324015e6 1.6266441320928141e7 0.0
1.6266441320928141e7 -4.95696931848117e6 0.0
0.0 0.0 0.0

-871547.4264689861 1.3592350128075132e7 0.0
1.3592350128075132e7 -1.3233605032677269e7 0.0
0.0 0.0 0.0

-4.798756890150317e6 1.961432888162065e7 0.0
1.961432888162065e7 6.350468404215241e6 0.0
0.0 0.0 0.0

597563.8175193504 2.321275358238853e7 0.0
2.321275358238853e7 -2.5805497722753882e6 0.0
0.0 0.0 0.0

-7.0852474066959545e6 2.119698253075344e7 0.0
2.119698253075344e7 6.366616678516658e6 0.0
0.0 0.0 0.0

-7.516629299131247e6 1.5646056482073728e7 0.0
1.5646056482073728e7 1.5145207022547638e7 0.0
0.0 0.0 0.0

3.574174164605703e6 6.669898776982471e6 0.0
6.669898776982471e6 -3.1933283870615438e7 0.0
0.0 0.0 0.0

76611.79094489478 1.3415192076783925e7 0.0
1.3415192076783925e7 -7.926579142638436e6 0.0
0.0 0.0 0.0

3.332592447354213e6 3.822808011811052e6 0.0
3.822808011811052e6 -9.08961667473407e6 0.0
0.0 0.0 0.0

4.087723493926093e6 7.637196538328088e6 0.0
7.637196538328088e6 -2.1063069183757007e7 0.0
0.0 0.0 0.0

-4.381987288474451e6 1.997752605015911e7 0.0
1.997752605015911e7 3.676550009740091e6 0.0
0.0 0.0 0.0

-1.1777333411243359e7 9.649275622651234e6 0.0
9.649275622651234e6 1.7791901483877983e7 0.0
0.0 0.0 0.0

-8.456118894534515e6 1.531292318973149e7 0.0
1.531292318973149e7 1.6362360577044815e7 0.0
0.0 0.0 0.0

-4.814815949462544e6 1.846357223439403e7 0.0
1.846357223439403e7 8.648706064598557e6 0.0
0.0 0.0 0.0

2.6297255273475694e6 8.974253891732492e6 0.0
8.974253891732492e6 -1.1264149895945046e7 0.0
0.0 0.0 0.0

-2.8858973810414756e6 1.830809849466775e7 0.0
1.830809849466775e7 -5.797462777329275e6 0.0
0.0 0.0 0.0

-1.8727298989239335e6 2.3636820891059678e7 0.0
2.3636820891059678e7 -413830.68655895337 0.0
0.0 0.0 0.0

-4.497131470904745e6 2.0794538172354963e7 0.0
2.0794538172354963e7 5.088589715637453e6 0.0
0.0 0.0 0.0

-8.60055249588062e6 1.5521496238409782e7 0.0
1.5521496238409782e7 1.7067947734484717e7 0.0
0.0 0.0 0.0

-1.2921917989712387e7 4.20935585348507e7 0.0
4.20935585348507e7 -1.2114539740916487e7 0.0
0.0 0.0 0.0

-3.7872120616653506e6 1.782445429624904e7 0.0
1.782445429624904e7 -7.204110569558421e6 0.0
0.0 0.0 0.0

-6.214897178483424e6 1.4659940465884589e7 0.0
1.4659940465884589e7 6.738092057373772e6 0.0
0.0 0.0 0.0

-6.977814403032541e6 2.1747691702139853e6 0.0
2.1747691702139853e6 7.737392315598536e6 0.0
0.0 0.0 0.0

-1.2523030288150406e6 1.4422922132631384e7 0.0
1.4422922132631384e7 -4.598806899727774e6 0.0
0.0 0.0 0.0

-5.314313403879863e6 1.85760308762765e7 0.0
1.85760308762765e7 -3.4499795451591103e6 0.0
0.0 0.0 0.0

-6.98097065538992e6 2.537930481605613e7 0.0
2.537930481605613e7 4.874433200181384e6 0.0
0.0 0.0 0.0

-1.2786550340887776e6 1.6336421499755813e7 0.0
1.6336421499755813e7 -5.600925065904809e6 0.0
0.0 0.0 0.0

-2.3377649469920024e6 1.7518896673373125e7 0.0
1.7518896673373125e7 -4.685139329260344e6 0.0
0.0 0.0 0.0

-9.81696998805554e6 642057.9736434643 0.0
642057.9736434643 1.5226550950797113e7 0.0
0.0 0.0 0.0

4.15400194061944e6 5.960778735325122e6 0.0
5.960778735325122e6 -1.4404357104429848e7 0.0
0.0 0.0 0.0

-1.6561962463019097e6 2.306895580652329e7 0.0
2.306895580652329e7 -78919.5149647767 0.0
0.0 0.0 0.0

-6.788511891258083e6 1.6072647723357443e7 0.0
1.6072647723357443e7 1.4045868904516144e7 0.0
0.0 0.0 0.0

-8.625195602859799e6 1.947691754762309e7 0.0
1.947691754762309e7 -1.4139712492368172e6 0.0
0.0 0.0 0.0

-363462.89365223807 5.542272305366363e6 0.0
5.542272305366363e6 -3.2331193145296564e6 0.0
0.0 0.0 0.0

-5.875397230769777e6 1.961809444137762e7 0.0
1.961809444137762e7 -5.301039431177434e6 0.0
0.0 0.0 0.0

-2.4066962804024327e6 1.6805085876177374e7 0.0
1.6805085876177374e7 -4.536744479436367e6 0.0
0.0 0.0 0.0

564678.4460749389 1.3372571011351326e7 0.0
1.3372571011351326e7 -1.245888776982516e7 0.0
0.0 0.0 0.0

-1.7185781727686212e6 1.577231248741028e7 0.0
1.577231248741028e7 -3.9485776682550567e6 0.0
0.0 0.0 0.0

2.2129996684231563e6 9.209256961289192e6 0.0
9.209256961289192e6 -1.3053339903668547e7 0.0
0.0 0.0 0.0

-3.180479172147032e6 1.650610883256769e7 0.0
1.650610883256769e7 284449.8573427892 0.0
0.0 0.0 0.0

-6.355837598973071e6 3.777492160133107e6 0.0
3.777492160133107e6 6.678457343730712e6 0.0
0.0 0.0 0.0

-8.6049432356181e6 9.892886831170859e6 0.0
9.892886831170859e6 1.366002340573167e7 0.0
0.0 0.0 0.0

-5.205313930392908e6 1.2815166753030343e7 0.0
1.2815166753030343e7 6.498504795776046e6 0.0
0.0 0.0 0.0

-3.1521589423040194e6 1.324589962872317e7 0.0
1.324589962872317e7 -1.2310103398457285e7 0.0
0.0 0.0 0.0

-4.344458499562104e6 1.2969480263525624e7 0.0
1.2969480263525624e7 4.195747037235312e6 0.0
0.0 0.0 0.0

-2.4459442544667218e7 2.2181577549142316e7 0.0
2.2181577549142316e7 3.423615884692142e6 0.0
0.0 0.0 0.0

-4.6410042404673975e6 1.4293970884786585e7 0.0
1.4293970884786585e7 1.6398051405444695e6 0.0
0.0 0.0 0.0

-657578.3301886134 1.608977565462958e7 0.0
1.608977565462958e7 -2.3451499829898514e6 0.0
0.0 0.0 0.0

-3.8580343134616144e7 1.7340881102100972e7 0.0
1.7340881102100972e7 7.113639946470125e6 0.0
0.0 0.0 0.0

996618.3437528578 1.6522685509863835e7 0.0
1.6522685509863835e7 -6.15363725908171e6 0.0
0.0 0.0 0.0

-3.250872452440416e6 1.3494698026691047e7 0.0
1.3494698026691047e7 1.0791912649430726e6 0.0
0.0 0.0 0.0

1.851699626782124e6 9.954669637938201e6 0.0
9.954669637938201e6 -9.798555983364243e6 0.0
0.0 0.0 0.0

-3.405351501898825e6 2.0493492866822176e7 0.0
2.0493492866822176e7 2.18460057307511e6 0.0
0.0 0.0 0.0

1.8494512193327527e6 1.0365764813580683e7 0.0
1.0365764813580683e7 -1.3225153071419535e7 0.0
0.0 0.0 0.0

1.7313363405472422e6 1.1026718913264107e7 0.0
1.1026718913264107e7 -1.408689793911567e7 0.0
0.0 0.0 0.0

-4.1973385438869465e6 7.06769673994621e6 0.0
7.06769673994621e6 2.167601092750338e6 0.0
0.0 0.0 0.0

-5.834623032368282e6 1.6625020212670159e7 0.0
1.6625020212670159e7 7.4121037521802075e6 0.0
0.0 0.0 0.0

4.1221084710170245e6 7.227440753005749e6 0.0
7.227440753005749e6 -1.829850956476299e7 0.0
0.0 0.0 0.0

-9.363295335638303e6 4.233611116928217e6 0.0
4.233611116928217e6 1.3037702537002463e7 0.0
0.0 0.0 0.0

1.811640428557788e6 1.0679974888553647e7 0.0
1.0679974888553647e7 -1.3671825643873379e7 0.0
0.0 0.0 0.0

-6.4284491374513835e7 6.207242956588201e6 0.0
6.207242956588201e6 7.670046124522246e6 0.0
0.0 0.0 0.0

3.7259643393435106e6 6.557908251512645e6 0.0
6.557908251512645e6 -2.9911639504197765e7 0.0
0.0 0.0 0.0

-5.970560388149224e6 1.5538514345855072e7 0.0
1.5538514345855072e7 6.675081758506635e6 0.0
0.0 0.0 0.0

-5.450726060869988e6 1.6815864496632285e7 0.0
1.6815864496632285e7 5.604087627339964e6 0.0
0.0 0.0 0.0

-4.934734648518638e6 2.060663117395138e7 0.0
2.060663117395138e7 7.29130975713486e6 0.0
0.0 0.0 0.0

-2.0903028268799158e6 1.4666268852498874e7 0.0
1.4666268852498874e7 -4.96625010325616e6 0.0
0.0 0.0 0.0

-6.223287633506623e6 1.6736131494726665e7 0.0
1.6736131494726665e7 1.300618842919402e7 0.0
0.0 0.0 0.0

913143.1531036333 1.2034187158821803e7 0.0
1.2034187158821803e7 -1.156575447242916e7 0.0
0.0 0.0 0.0

3.04097544782658e6 8.756638494026469e6 0.0
8.756638494026469e6 -1.7672114182802007e7 0.0
0.0 0.0 0.0

-3.5939761077147555e6 2.0276188373905845e7 0.0
2.0276188373905845e7 2.7504328401670544e6 0.0
0.0 0.0 0.0

-1.7324836551502787e6 2.079689820376471e7 0.0
2.079689820376471e7 -3.2787478369204444e6 0.0
0.0 0.0 0.0

3.731266260193892e6 8.131500943593544e6 0.0
8.131500943593544e6 -2.4453983599262297e7 0.0
0.0 0.0 0.0

-4.973169509009619e6 1.0613171453534724e7 0.0
1.0613171453534724e7 5.923545051508065e6 0.0
0.0 0.0 0.0

-6.121724274906479e6 2.1110152735534154e7 0.0
2.1110152735534154e7 6.70830934790535e6 0.0
0.0 0.0 0.0

-3.932769414562221e7 4.546057444116968e7 0.0
4.546057444116968e7 -2.7075978075043615e6 0.0
0.0 0.0 0.0

-1.2179090597367266e7 6.213874763590728e6 0.0
6.213874763590728e6 2.26276679367837e7 0.0
0.0 0.0 0.0

-2.1080592907847734e6 1.2475130793413011e7 0.0
1.2475130793413011e7 -1.1041959343257692e7 0.0
0.0 0.0 0.0

130512.87105149822 5.445915059917018e6 0.0
5.445915059917018e6 -1.6029901239512786e6 0.0
0.0 0.0 0.0

-7.844071245326433e6 -7.807488240896462e6 0.0
-7.807488240896462e6 2.0233053493263766e7 0.0
0.0 0.0 0.0

5.344986394345419e6 3.233968225335232e6 0.0
3.233968225335232e6 -2.109682207141077e7 0.0
0.0 0.0 0.0

-4.763189088282406e6 1.8396669558629945e7 0.0
1.8396669558629945e7 1.786758621818673e6 0.0
0.0 0.0 0.0

-183941.24442733824 1.4094183497040914e7 0.0
1.4094183497040914e7 -1.4291455781492691e7 0.0
0.0 0.0 0.0

-1.0858267738672998e7 1.2484327478756825e7 0.0
1.2484327478756825e7 2.2551953476836517e7 0.0
0.0 0.0 0.0

-1.3068254155034884e6 1.8168857378106974e7 0.0
1.8168857378106974e7 -6.651452561181552e6 0.0
0.0 0.0 0.0

1.8750106709430553e6 1.0042978106770827e7 0.0
1.0042978106770827e7 -1.2759826294155816e7 0.0
0.0 0.0 0.0

-7.434548697738575e6 1.3478403945415571e7 0.0
1.3478403945415571e7 2.9475557001019742e7 0.0
0.0 0.0 0.0

-2.525831195570746e6 1.4617577741008434e7 0.0
1.4617577741008434e7 -1.297614782998268e6 0.0
0.0 0.0 0.0

-5.734710843585874e6 1.5611986081288915e7 0.0
1.5611986081288915e7 1.974988905397508e7 0.0
0.0 0.0 0.0

-115415.39876205195 1.4331462117919391e7 0.0
1.4331462117919391e7 -1.3455306742916778e7 0.0
0.0 0.0 0.0

4.7312369937097e7 7.421854700341594e6 0.0
7.421854700341594e6 -760322.5906853564 0.0
0.0 0.0 0.0

-1.6445402881182814e6 1.8710029240654476e7 0.0
1.8710029240654476e7 -4.353963789525113e6 0.0
0.0 0.0 0.0

-1.1557220713728566e6 2.2927246346394382e7 0.0
2.2927246346394382e7 -704465.0360743755 0.0
0.0 0.0 0.0

1.5656938077928051e6 1.0807045611080581e7 0.0
1.0807045611080581e7 -1.2448487036054099e7 0.0
0.0 0.0 0.0

2.489647820867452e6 1.0056467250350865e7 0.0
1.0056467250350865e7 -1.2732750073237399e7 0.0
0.0 0.0 0.0

-1.6591058672621858e6 1.4243883887783265e7 0.0
1.4243883887783265e7 -5.915680099298397e6 0.0
0.0 0.0 0.0

-1.2158421492834207e7 6.959129059735145e6 0.0
6.959129059735145e6 1.860500220231413e7 0.0
0.0 0.0 0.0

-476644.4870214211 1.3356111680649929e7 0.0
1.3356111680649929e7 -1.8530329013098918e7 0.0
0.0 0.0 0.0

3.1574599259506403e6 3.7562229299924998e6 0.0
3.7562229299924998e6 -8.458091436897842e6 0.0
0.0 0.0 0.0

940299.1422014264 1.259805011494773e7 0.0
1.259805011494773e7 -1.2422718090682775e7 0.0
0.0 0.0 0.0

-2.0624849372122336e7 2.468429251558545e7 0.0
2.468429251558545e7 9.627434570356831e6 0.0
0.0 0.0 0.0

-2.4407618718066136e6 9.715072381380687e6 0.0
9.715072381380687e6 -1.9058250939877927e6 0.0
0.0 0.0 0.0

-5.804928364533301e6 1.3598211596920623e7 0.0
1.3598211596920623e7 3.568317912619036e7 0.0
0.0 0.0 0.0

-4.632346841990497e6 1.683530245540197e7 0.0
1.683530245540197e7 1.036743345703238e7 0.0
0.0 0.0 0.0

3.38992303181006e6 1.6221028168619202e7 0.0
1.6221028168619202e7 1.029268364581967e6 0.0
0.0 0.0 0.0

-5.3554645154652e6 2.0913647248776283e7 0.0
2.0913647248776283e7 6.971791642716033e6 0.0
0.0 0.0 0.0

-1.7733370779275217e6 1.9163589643399402e7 0.0
1.9163589643399402e7 -3.4647091884124875e6 0.0
0.0 0.0 0.0

-4.657861205206816e6 2.0524338241788607e7 0.0
2.0524338241788607e7 5.616983425204965e6 0.0
0.0 0.0 0.0

-1.172547674184138e7 7.201411074394291e6 0.0
7.201411074394291e6 1.734115692974191e7 0.0
0.0 0.0 0.0

-8.682033120246619e6 1.177193234100878e7 0.0
1.177193234100878e7 1.4168748004534466e7 0.0
0.0 0.0 0.0

-6.144766505572874e6 4.959375651449209e6 0.0
4.959375651449209e6 5.554897591643479e6 0.0
0.0 0.0 0.0

1.0051504310092812e7 1.0693574723963954e7 0.0
1.0693574723963954e7 1.0245736117162528e6 0.0
0.0 0.0 0.0

-74207.48130595265 1.4588008767515566e7 0.0
1.4588008767515566e7 -1.2675635848365013e7 0.0
0.0 0.0 0.0

-1.9995058125325725e6 1.9097482445572644e7 0.0
1.9097482445572644e7 -2.949312910833564e6 0.0
0.0 0.0 0.0

-4.201584611018522e6 2.0229814878108848e7 0.0
2.0229814878108848e7 3.0325461515093306e6 0.0
0.0 0.0 0.0

-7.3951650726416e6 -4.390683981082459e6 0.0
-4.390683981082459e6 1.1385208809006425e7 0.0
0.0 0.0 0.0

-4.278761871793667e6 2.1344713217745207e7 0.0
2.1344713217745207e7 4.020986561218653e6 0.0
0.0 0.0 0.0

-3.7023859487525932e6 1.3927754370584812e7 0.0
1.3927754370584812e7 2.2174058347954517e6 0.0
0.0 0.0 0.0

-4.648792745425038e6 2.1820970209914528e7 0.0
2.1820970209914528e7 4.880775628816806e6 0.0
0.0 0.0 0.0

3.5430591779988455e6 1.5246608939789126e7 0.0
1.5246608939789126e7 -184902.16397250444 0.0
0.0 0.0 0.0

-1.5450323203848226e6 2.1649271952113792e7 0.0
2.1649271952113792e7 -1.5419588444301626e6 0.0
0.0 0.0 0.0

4.322746258113997e6 5.262159932813455e6 0.0
5.262159932813455e6 -1.7740137301602826e7 0.0
0.0 0.0 0.0

-1.2258035186261535e7 6.307074307252926e6 0.0
6.307074307252926e6 2.1240320508669235e7 0.0
0.0 0.0 0.0

421546.9802212361 1.5531973388640441e7 0.0
1.5531973388640441e7 -8.44622613707552e6 0.0
0.0 0.0 0.0

-63531.692980934866 1.4911006385497129e7 0.0
1.4911006385497129e7 -1.185561975561943e7 0.0
0.0 0.0 0.0

-2.307995671625418e6 1.3842900937054647e7 0.0
1.3842900937054647e7 -1.5937714827563097e6 0.0
0.0 0.0 0.0

-3.8827767706537805e6 1.722895029159462e7 0.0
1.722895029159462e7 4.141815777420855e6 0.0
0.0 0.0 0.0

-731935.4355034481 1.872986177542844e7 0.0
1.872986177542844e7 -5.976380173800855e6 0.0
0.0 0.0 0.0

237282.8026875737 1.4263911882851548e7 0.0
1.4263911882851548e7 -7.408216300158638e6 0.0
0.0 0.0 0.0

-1.0844390381132644e7 9.628434466202637e6 0.0
9.628434466202637e6 1.3420432901016444e7 0.0
0.0 0.0 0.0

3.3532008910090905e6 8.616040819604626e6 0.0
8.616040819604626e6 -1.4930632519179143e7 0.0
0.0 0.0 0.0

-111260.15981227439 1.4655628318389924e7 0.0
1.4655628318389924e7 -1.225435249650804e7 0.0
0.0 0.0 0.0

-602926.9944055681 1.6531709446540985e7 0.0
1.6531709446540985e7 9.817490051303208e6 0.0
0.0 0.0 0.0

-2.4736121266319547e6 1.5997716535750303e7 0.0
1.5997716535750303e7 -4.2927527859779885e6 0.0
0.0 0.0 0.0

4.361390714968067e6 6.864309686127092e6 0.0
6.864309686127092e6 -2.361210382297039e7 0.0
0.0 0.0 0.0

4.806077584904542e6 5.406242830041465e6 0.0
5.406242830041465e6 -3.0346752174213544e7 0.0
0.0 0.0 0.0

-6.129511234887088e6 1.330773283236283e7 0.0
1.330773283236283e7 5.672830524048828e6 0.0
0.0 0.0 0.0

-4.006971144937365e6 2.0466078397583462e7 0.0
2.0466078397583462e7 2.4446833943644008e6 0.0
0.0 0.0 0.0

-1.0431949530564543e7 104280.09924671754 0.0
104280.09924671754 1.829203596583882e7 0.0
0.0 0.0 0.0

-7.661424160737898e6 1.2225400136229094e7 0.0
1.2225400136229094e7 8.913059311693765e6 0.0
0.0 0.0 0.0

-5.731971407462803e6 1.6324916108032368e7 0.0
1.6324916108032368e7 6.598692734014156e6 0.0
0.0 0.0 0.0

3.126239544363767e6 8.766627921181291e6 0.0
8.766627921181291e6 -1.3712035328248942e7 0.0
0.0 0.0 0.0

5.315820427179752e6 3.115471534987187e6 0.0
3.115471534987187e6 -2.1683440600324254e7 0.0
0.0 0.0 0.0

-5.496870611665677e6 1.5406102654518692e7 0.0
1.5406102654518692e7 8.3047092203823505e6 0.0
0.0 0.0 0.0

-3.3191657054503113e6 1.4969865912063032e7 0.0
1.4969865912063032e7 4.517534527991834e7 0.0
0.0 0.0 0.0

-4.695819678017876e6 1.712067344065915e7 0.0
1.712067344065915e7 6.076065737849154e6 0.0
0.0 0.0 0.0

-2.0187887035873951e6 1.954807845790161e7 0.0
1.954807845790161e7 -2.76893917067225e6 0.0
0.0 0.0 0.0

1.557005165445421e6 1.1366405605949568e7 0.0
1.1366405605949568e7 -1.3134451768174764e7 0.0
0.0 0.0 0.0

-2.624996456562259e6 2.1037399226175945e7 0.0
2.1037399226175945e7 121093.43834204739 0.0
0.0 0.0 0.0

-3.7707727420846066e6 2.003412682319441e7 0.0
2.003412682319441e7 3.349066860956675e6 0.0
0.0 0.0 0.0

2.9200191089157006e6 1.4927334822270518e7 0.0
1.4927334822270518e7 2.0219273401169997e7 0.0
0.0 0.0 0.0

3.19773427260134e6 3.7563362823811397e6 0.0
3.7563362823811397e6 -8.903611868669027e6 0.0
0.0 0.0 0.0

805596.1770185465 1.7061840626343545e7 0.0
1.7061840626343545e7 -6.577743801844432e6 0.0
0.0 0.0 0.0

3.991986662149949e6 4.45042252824836e6 0.0
4.45042252824836e6 -1.3565265511169912e7 0.0
0.0 0.0 0.0

-8.854220135093847e6 8.248995510976367e6 0.0
8.248995510976367e6 1.3863959481541518e7 0.0
0.0 0.0 0.0

-4.594771470809404e6 1.916801581697216e7 0.0
1.916801581697216e7 4.317401880456157e6 0.0
0.0 0.0 0.0

-1.8948390719923563e6 1.6414587665088719e7 0.0
1.6414587665088719e7 -3.640552352493004e6 0.0
0.0 0.0 0.0

2.6083816846935735e6 9.341869985452484e6 0.0
9.341869985452484e6 -1.1755194394106418e7 0.0
0.0 0.0 0.0

98341.42732464056 1.4700787103441155e7 0.0
1.4700787103441155e7 -8.461119003863567e6 0.0
0.0 0.0 0.0

-2.219762685598185e6 1.997155744760494e7 0.0
1.997155744760494e7 -2.036108708499761e6 0.0
0.0 0.0 0.0

-1.1292702468856044e7 1.611725096057836e6 0.0
1.611725096057836e6 2.1854687378334876e7 0.0
0.0 0.0 0.0

-8.407850241240133e6 1.3358789656919353e7 0.0
1.3358789656919353e7 1.4437767397871437e7 0.0
0.0 0.0 0.0

-1.0258192720639125e7 5.315246236369796e6 0.0
5.315246236369796e6 1.493018404178086e7 0.0
0.0 0.0 0.0

-4.53870997018752e6 1.3403434723503027e7 0.0
1.3403434723503027e7 1.3939561521022462e6 0.0
0.0 0.0 0.0

-4.221713600122782e6 2.0251030336531673e7 0.0
2.0251030336531673e7 6.048582520269838e6 0.0
0.0 0.0 0.0

-3.2848161649310635e6 1.5927178478260864e7 0.0
1.5927178478260864e7 -2.0864605230821958e6 0.0
0.0 0.0 0.0

-3.5120695307214158e6 2.0975453718518086e7 0.0
2.0975453718518086e7 826937.7018814944 0.0
0.0 0.0 0.0

-5.099653640582742e6 7.317359535595346e6 0.0
7.317359535595346e6 3.655212718150249e6 0.0
0.0 0.0 0.0

-8.243485659026795e6 1.1346770390918478e7 0.0
1.1346770390918478e7 1.3316082230317552e7 0.0
0.0 0.0 0.0

-3.8464181843418567e6 2.066935134949377e7 0.0
2.066935134949377e7 1.9093396696971992e6 0.0
0.0 0.0 0.0

-464853.10394817987 1.794928775055293e7 0.0
1.794928775055293e7 -7.13680740584346e6 0.0
0.0 0.0 0.0

5.531514181884747e6 1.817348169782055e7 0.0
1.817348169782055e7 9.248411677502092e6 0.0
0.0 0.0 0.0

-3.995548365443959e6 1.348192460848848e7 0.0
1.348192460848848e7 3.19449207822609e6 0.0
0.0 0.0 0.0

1.1361871704089171e6 1.9889079766484447e7 0.0
1.9889079766484447e7 -4.90267748808916e6 0.0
0.0 0.0 0.0

-4.811435698170311e6 1.4392424878571386e7 0.0
1.4392424878571386e7 5.414404084816387e6 0.0
0.0 0.0 0.0

-8.147577425714641e6 1.298623463772587e7 0.0
1.298623463772587e7 1.3688330808299562e7 0.0
0.0 0.0 0.0

-4.250162694567381e6 8.204148989142908e6 0.0
8.204148989142908e6 4.978808605165517e6 0.0
0.0 0.0 0.0

-3.69158868418828e6 2.0832497920385286e7 0.0
2.0832497920385286e7 1.3295915913132303e6 0.0
0.0 0.0 0.0

4.485442623283993e6 6.166595373189341e6 0.0
6.166595373189341e6 -1.7357897165092286e7 0.0
0.0 0.0 0.0

3.9124166731574144e6 7.577046248152274e6 0.0
7.577046248152274e6 -1.6409501649671784e7 0.0
0.0 0.0 0.0

-4.661538403076429e6 2.0241270667960167e7 0.0
2.0241270667960167e7 7.530981691607801e6 0.0
0.0 0.0 0.0

106799.63146289787 1.0318095038169587e7 0.0
1.0318095038169587e7 -5.796201849201571e6 0.0
0.0 0.0 0.0

2.5612909993331535e6 9.715811038950259e6 0.0
9.715811038950259e6 -1.2235573727835536e7 0.0
0.0 0.0 0.0

-2.7656938041563323e6 2.238669078802124e7 0.0
2.238669078802124e7 421085.94698658644 0.0
0.0 0.0 0.0

-2.4641087024131264e6 2.0705002029044267e7 0.0
2.0705002029044267e7 -570359.7780129262 0.0
0.0 0.0 0.0

-2.183228403298221e6 1.695745765665643e7 0.0
1.695745765665643e7 -5.0373263681825735e6 0.0
0.0 0.0 0.0

-125612.92202579044 1.3894910198607462e7 0.0
1.3894910198607462e7 -1.715243786917796e7 0.0
0.0 0.0 0.0

-3.7983464907483915e6 2.2679823302977685e7 0.0
2.2679823302977685e7 2.587180596271059e6 0.0
0.0 0.0 0.0

-8.563581540185094e6 1.3725454708032666e7 0.0
1.3725454708032666e7 1.4882629949944653e7 0.0
0.0 0.0 0.0

2.5716776616448765e6 6.658895867335107e6 0.0
6.658895867335107e6 -1.1320148970026474e7 0.0
0.0 0.0 0.0

-1.8373766081844247e6 2.3922672813572023e7 0.0
2.3922672813572023e7 422201.8406002552 0.0
0.0 0.0 0.0

-3.7435172107737684e6 1.719696482121448e7 0.0
1.719696482121448e7 8.669073387148364e6 0.0
0.0 0.0 0.0

-2.343183117494924e6 2.034501101552637e7 0.0
2.034501101552637e7 -1.244083157478399e6 0.0
0.0 0.0 0.0

-65207.707343854476 1.5234693954230005e7 0.0
1.5234693954230005e7 -1.1088829835899873e7 0.0
0.0 0.0 0.0

-2.995389931341136e6 2.1247294858084008e7 0.0
2.1247294858084008e7 1.2631058457086263e6 0.0
0.0 0.0 0.0

-5.149205408927432e6 1.7602912514219344e7 0.0
1.7602912514219344e7 1.1072762544308202e7 0.0
0.0 0.0 0.0

-3.0654848334400104e6 2.119064112969006e7 0.0
2.119064112969006e7 -109092.36589591391 0.0
0.0 0.0 0.0

896439.7867492057 2.5198696021285124e7 0.0
2.5198696021285124e7 -1.5926109180504784e6 0.0
0.0 0.0 0.0

-1.208782486446701e7 1.1173943760932922e7 0.0
1.1173943760932922e7 1.872866409653797e7 0.0
0.0 0.0 0.0

2.21342484918604e6 1.0519594007855156e7 0.0
1.0519594007855156e7 -1.199815440722301e7 0.0
0.0 0.0 0.0

-1.2357370633311775e7 7.794892687091785e6 0.0
7.794892687091785e6 1.9170025913249552e7 0.0
0.0 0.0 0.0

-9.241698749989405e6 1.0327785112435946e7 0.0
1.0327785112435946e7 1.126553045814778e7 0.0
0.0 0.0 0.0

-600849.6848314259 -1.25971365713629e6 0.0
-1.25971365713629e6 1.0470695637423422e6 0.0
0.0 0.0 0.0

-128508.1743368642 -2.590171691621988e6 0.0
-2.590171691621988e6 1.475946797193393e6 0.0
0.0 0.0 0.0

-1.2071484211043656e7 1.1975308266484793e7 0.0
1.1975308266484793e7 1.9066607937731866e7 0.0
0.0 0.0 0.0

5.306723298378115e6 1.70570749792275e7 0.0
1.70570749792275e7 5.818677548370171e6 0.0
0.0 0.0 0.0

-1.9456197870122478e6 2.1319993951708477e7 0.0
2.1319993951708477e7 -1.1480801488933545e6 0.0
0.0 0.0 0.0

-1.7214078761319849e6 1.7391966885367792e7 0.0
1.7391966885367792e7 -4.5101266407045815e6 0.0
0.0 0.0 0.0

2.153991694054641e6 1.082603720044075e7 0.0
1.082603720044075e7 -1.2511664666749287e7 0.0
0.0 0.0 0.0

2.783902716991124e6 1.5020886707390008e7 0.0
1.5020886707390008e7 1.7246414088751692e7 0.0
0.0 0.0 0.0

-3.569962043303922e6 2.3063935496429767e7 0.0
2.3063935496429767e7 3.4556581965230713e6 0.0
0.0 0.0 0.0

-2.7268382797853057e6 2.2737618014037617e7 0.0
2.2737618014037617e7 521853.6208834809 0.0
0.0 0.0 0.0

-2.504194394958644e6 2.3120669599958953e7 0.0
2.3120669599958953e7 558136.3404365133 0.0
0.0 0.0 0.0

-6.689288965951169e6 1.554704735178906e7 0.0
1.554704735178906e7 9.344400928962732e6 0.0
0.0 0.0 0.0

-6.455831477681885e6 1.3684889581389772e7 0.0
1.3684889581389772e7 6.756910446699515e6 0.0
0.0 0.0 0.0

-6.268168540737176e6 9.104170489513695e6 0.0
9.104170489513695e6 5.647317543139728e6 0.0
0.0 0.0 0.0

-4.706561836871602e6 1.8402123740503848e7 0.0
1.8402123740503848e7 7.60213598215583e6 0.0
0.0 0.0 0.0

-5.560326637595932e6 1.3170803510655696e7 0.0
1.3170803510655696e7 7.621083960140082e6 0.0
0.0 0.0 0.0

-1.242297851852021e7 1.117486219392711e7 0.0
1.117486219392711e7 2.048839668118795e7 0.0
0.0 0.0 0.0

2.1091897541174106e6 1.118695202616964e7 0.0
1.118695202616964e7 -1.289618560534718e7 0.0
0.0 0.0 0.0

-5.896487064979636e6 1.686671920933845e7 0.0
1.686671920933845e7 8.116046325221775e6 0.0
0.0 0.0 0.0

-1.2372505456640711e7 9.486619741279185e6 0.0
9.486619741279185e6 2.1263176451364957e7 0.0
0.0 0.0 0.0

418677.0220449162 1.6005632808215167e7 0.0
1.6005632808215167e7 9.320184780373821e6 0.0
0.0 0.0 0.0

-5.342285689919112e6 1.4380278002244357e7 0.0
1.4380278002244357e7 3.6454140376716754e6 0.0
0.0 0.0 0.0

-2.94467570365043e6 2.1657588407481372e7 0.0
2.1657588407481372e7 1.422570781285127e6 0.0
0.0 0.0 0.0

-3.026638561558679e6 2.0802583388425495e7 0.0
2.0802583388425495e7 1.0958818663603633e6 0.0
0.0 0.0 0.0

-4.914574664151197e6 1.8134886526420962e7 0.0
1.8134886526420962e7 1.014506833887503e7 0.0
0.0 0.0 0.0

-270809.44892036077 1.439400472668748e7 0.0
1.439400472668748e7 -1.4788737658203034e7 0.0
0.0 0.0 0.0

-4.905377240557081e6 1.8480480002677232e7 0.0
1.8480480002677232e7 5.8055650148587525e6 0.0
0.0 0.0 0.0

-7.7308891186274495e6 1.4371546617070653e7 0.0
1.4371546617070653e7 1.3769638778292526e7 0.0
0.0 0.0 0.0

-1.6358108058191268e6 1.680887726246613e7 0.0
1.680887726246613e7 -4.806755378808619e6 0.0
0.0 0.0 0.0

-777662.5761313785 2.3335267511644773e7 0.0
2.3335267511644773e7 -732507.3734226795 0.0
0.0 0.0 0.0

-4.7763874763301e6 1.8693833305932984e7 0.0
1.8693833305932984e7 9.276471069865491e6 0.0
0.0 0.0 0.0

-1.82614412312976e6 1.6534200478374625e7 0.0
1.6534200478374625e7 -5.909540882900843e6 0.0
0.0 0.0 0.0

3.701870513826006e6 7.9864125351280775e6 0.0
7.9864125351280775e6 -1.687854547618474e7 0.0
0.0 0.0 0.0

-5.655789288575409e6 1.5655935732372431e7 0.0
1.5655935732372431e7 9.123275286101416e6 0.0
0.0 0.0 0.0

-111713.95791077986 1.9749521019384213e7 0.0
1.9749521019384213e7 -4.925671476521567e6 0.0
0.0 0.0 0.0

2.725426491685157e6 3.8121806467144066e6 0.0
3.8121806467144066e6 -7.0502448015341e6 0.0
0.0 0.0 0.0

3.420331159395477e6 8.037116411149551e6 0.0
8.037116411149551e6 -2.1686644972966738e7 0.0
0.0 0.0 0.0

-728916.3373771098 1.5708786547516048e7 0.0
1.5708786547516048e7 -7.33429729685769e6 0.0
0.0 0.0 0.0

4.884181892711731e6 1.7872144957852934e7 0.0
1.7872144957852934e7 7.545792227566617e6 0.0
0.0 0.0 0.0

3.1272751939821746e6 8.313932311681358e6 0.0
8.313932311681358e6 -1.7399238733800214e7 0.0
0.0 0.0 0.0

2.82328491128611e6 9.152701681031238e6 0.0
9.152701681031238e6 -1.697365643054477e7 0.0
0.0 0.0 0.0

118797.09615841066 1.4651755914157664e7 0.0
1.4651755914157664e7 3.6506918840437834e6 0.0
0.0 0.0 0.0

-1.162220827940483e7 3.081759186638632e6 0.0
3.081759186638632e6 2.0732651902106322e7 0.0
0.0 0.0 0.0

-7.544433654578319e6 9.302863751520121e6 0.0
9.302863751520121e6 8.242341142236402e6 0.0
0.0 0.0 0.0

-4.930946750834404e6 1.5050054540370092e7 0.0
1.5050054540370092e7 -2.8190205637211964e7 0.0
0.0 0.0 0.0

-7.278990111640623e6 1.3383252113307219e7 0.0
1.3383252113307219e7 8.84401279757101e6 0.0
0.0 0.0 0.0

-1.2315237290746346e7 7.364691317654385e6 0.0
7.364691317654385e6 1.5226037260840297e7 0.0
0.0 0.0 0.0

-299411.3174901176 1.6769155067766156e7 0.0
1.6769155067766156e7 7.905629749393946e6 0.0
0.0 0.0 0.0

-7.574425361892025e6 -8.173176682757108e6 0.0
-8.173176682757108e6 1.924884850329485e7 0.0
0.0 0.0 0.0

-6.103916334632097e6 1.5841991528064793e7 0.0
1.5841991528064793e7 7.56226128827736e6 0.0
0.0 0.0 0.0

-4.350417884978944e6 2.031862345333884e7 0.0
2.031862345333884e7 6.598534451648289e6 0.0
0.0 0.0 0.0

-29990.625188140664 1.4424024372684686e7 0.0
1.4424024372684686e7 -1.113922925648709e7 0.0
0.0 0.0 0.0

-4.209189774220783e6 269666.8746596509 0.0
269666.8746596509 4.203199849124651e6 0.0
0.0 0.0 0.0

-5.645622633723833e6 8.684708760860354e6 0.0
8.684708760860354e6 4.241217642738776e6 0.0
0.0 0.0 0.0

3.0611442862236127e6 7.158624768567206e6 0.0
7.158624768567206e6 -3.453187596767458e7 0.0
0.0 0.0 0.0

326101.52848398767 2.3467497466199283e7 0.0
2.3467497466199283e7 -1.6139455073691441e6 0.0
0.0 0.0 0.0

-1.1484446977310035e7 9.157631460123995e6 0.0
9.157631460123995e6 2.647026572672531e7 0.0
0.0 0.0 0.0

-3.328179920927834e6 1.5228721814490799e7 0.0
1.5228721814490799e7 -9.535744042705428e6 0.0
0.0 0.0 0.0

-1.2810217439399313e7 6.876442026014026e6 0.0
6.876442026014026e6 1.6449695393601108e7 0.0
0.0 0.0 0.0

-7.427857612589277e6 2.080233768404798e7 0.0
2.080233768404798e7 -1.6389816730830916e6 0.0
0.0 0.0 0.0

-620591.6457821871 1.574103628324838e7 0.0
1.574103628324838e7 -3.545640546208832e6 0.0
0.0 0.0 0.0

470390.7327610161 1.5209490876023458e7 0.0
1.5209490876023458e7 9.094399648820832e6 0.0
0.0 0.0 0.0

3.63300186875102e6 7.515784806309088e6 0.0
7.515784806309088e6 -2.262193497423531e7 0.0
0.0 0.0 0.0

-4.588649077828523e6 1.426597633441494e7 0.0
1.426597633441494e7 -5.842769380571467e6 0.0
0.0 0.0 0.0

347243.38617461314 2.6356391263630215e7 0.0
2.6356391263630215e7 -3.3646124989946904e6 0.0
0.0 0.0 0.0

-5.777537457600911e6 1.5884296232723244e7 0.0
1.5884296232723244e7 9.869406166047696e6 0.0
0.0 0.0 0.0

-8.821274630685784e6 -7.09784135949494e6 0.0
-7.09784135949494e6 2.2701546785906855e7 0.0
0.0 0.0 0.0

-3.3279438015798815e6 1.60303398840885e7 0.0
1.60303398840885e7 1.066727690483333e7 0.0
0.0 0.0 0.0

-5.568483198204318e6 1.9871598789593793e7 0.0
1.9871598789593793e7 -4.0661146141915084e6 0.0
0.0 0.0 0.0

-3.9748127782254703e6 7.929883311075461e6 0.0
7.929883311075461e6 1.4663025131721452e6 0.0
0.0 0.0 0.0

-1.0108328234031247e6 1.596237966077368e7 0.0
1.596237966077368e7 2.0757065197878305e7 0.0
0.0 0.0 0.0

-9.6267522926298e6 1.2491621738769066e7 0.0
1.2491621738769066e7 1.2913132202817474e7 0.0
0.0 0.0 0.0

-9.784071023858692e6 1.0680963425095402e7 0.0
1.0680963425095402e7 1.2291731717988733e7 0.0
0.0 0.0 0.0

-1.1799698504165266e7 7.330079671021486e6 0.0
7.330079671021486e6 2.6375271098391846e7 0.0
0.0 0.0 0.0

-3.9772728228723137e6 1.6305705243878566e7 0.0
1.6305705243878566e7 1.320406490081588e7 0.0
0.0 0.0 0.0

-7.206705315787222e6 2.3211892998883516e7 0.0
2.3211892998883516e7 5.6503578884036e6 0.0
0.0 0.0 0.0

-2.5418524089095383e6 2.4396699468381964e7 0.0
2.4396699468381964e7 590838.3677768097 0.0
0.0 0.0 0.0

-5.553757054830849e6 1.7512779480705116e7 0.0
1.7512779480705116e7 7.968176022665542e6 0.0
0.0 0.0 0.0

2.458999167736736e6 3.690051725258795e6 0.0
3.690051725258795e6 -6.320784469377756e6 0.0
0.0 0.0 0.0

2.724862325193378e6 9.939872131444193e6 0.0
9.939872131444193e6 -1.391917546069264e7 0.0
0.0 0.0 0.0

2.252185156135217e6 9.837987597516706e6 0.0
9.837987597516706e6 -1.1033023357929714e7 0.0
0.0 0.0 0.0

-6.67710951446012e6 1.4067832714283697e7 0.0
1.4067832714283697e7 7.777068810890175e6 0.0
0.0 0.0 0.0

-5.3213265870965775e6 3.1238685526259094e7 0.0
3.1238685526259094e7 -2.5395114409183166e6 0.0
0.0 0.0 0.0

-5.85717891707283e6 6.378284537975705e6 0.0
6.378284537975705e6 4.53388405611315e6 0.0
0.0 0.0 0.0

-1.3060025099442652e6 2.2018947684248902e7 0.0
2.2018947684248902e7 -1.4715648289505655e6 0.0
0.0 0.0 0.0

-70387.40077426215 2.0372229302306246e7 0.0
2.0372229302306246e7 -4.303062979680061e6 0.0
0.0 0.0 0.0

-3.149055185093346e6 8.655709924449395e6 0.0
8.655709924449395e6 2.558391286452147e6 0.0
0.0 0.0 0.0

-407075.9019535655 1.3189362901930863e7 0.0
1.3189362901930863e7 551338.4178251954 0.0
0.0 0.0 0.0

9.882973143808715e6 1.75102116645555e7 0.0
1.75102116645555e7 7.771196092644038e6 0.0
0.0 0.0 0.0

3.422851940800447e6 1.642702324195585e7 0.0
1.642702324195585e7 1.883224894513093e7 0.0
0.0 0.0 0.0

-521648.2117078663 1.5392147003827002e7 0.0
1.5392147003827002e7 8.136702531389845e6 0.0
0.0 0.0 0.0

-9.241617224131867e6 1.2078995258807028e7 0.0
1.2078995258807028e7 1.2066424737195272e7 0.0
0.0 0.0 0.0

-4.303392281196384e6 2.94391110803839e7 0.0
2.94391110803839e7 -1.4572052664897447e6 0.0
0.0 0.0 0.0

-1.1153590658993602e7 2.1483945891934983e7 0.0
2.1483945891934983e7 -623120.903163516 0.0
0.0 0.0 0.0

-1.0204606156997152e7 1.113224241833624e7 0.0
1.113224241833624e7 1.3195651040322188e7 0.0
0.0 0.0 0.0

1.9728906669737892e6 1.0668482802715277e7 0.0
1.0668482802715277e7 -2.3084067343897194e7 0.0
0.0 0.0 0.0

5.390412105628142e6 2.917770963073814e6 0.0
2.917770963073814e6 -2.491159006127962e7 0.0
0.0 0.0 0.0

872097.9460179973 1.3832322806439677e7 0.0
1.3832322806439677e7 -1.1719530669270964e7 0.0
0.0 0.0 0.0

2.419436674723671e6 1.0391405727700321e7 0.0
1.0391405727700321e7 -1.3212822046722071e7 0.0
0.0 0.0 0.0

307658.3247967339 1.4866030822042165e7 0.0
1.4866030822042165e7 -1.0372402225112194e7 0.0
0.0 0.0 0.0

-6.660268883950827e6 3.345700723187798e7 0.0
3.345700723187798e7 -4.636862923152528e6 0.0
0.0 0.0 0.0

-4.035591176316698e6 1.8746951072649527e7 0.0
1.8746951072649527e7 3.772832467930614e6 0.0
0.0 0.0 0.0

-1.0168008366834102e6 1.7026726268880818e7 0.0
1.7026726268880818e7 -8.4581918160021e6 0.0
0.0 0.0 0.0

-1.0219923621958001e6 1.6500894641282618e7 0.0
1.6500894641282618e7 -8.702113106955757e6 0.0
0.0 0.0 0.0

2.8347670895472337e6 9.24073190000358e6 0.0
9.24073190000358e6 -1.2972462086163387e7 0.0
0.0 0.0 0.0

-5.415620701794565e6 1.8296364839060314e7 0.0
1.8296364839060314e7 8.399237831322778e6 0.0
0.0 0.0 0.0

-1.8403493565076096e6 1.6538375004214082e7 0.0
1.6538375004214082e7 1.1254963324228164e7 0.0
0.0 0.0 0.0

-5.576706345552091e6 1.874834903883795e7 0.0
1.874834903883795e7 6.350353303627931e6 0.0
0.0 0.0 0.0

-7.471104944873873e6 6.21205730507638e6 0.0
6.21205730507638e6 5.202367271134276e7 0.0
0.0 0.0 0.0

-7.122655326359754e6 -2.159106892399554e6 0.0
-2.159106892399554e6 1.1791506178213466e7 0.0
0.0 0.0 0.0

-1.9196209441223722e7 4.864258190628376e7 0.0
4.864258190628376e7 -1.805277617353708e7 0.0
0.0 0.0 0.0

1.20162980355025e6 1.5409261499046924e7 0.0
1.5409261499046924e7 1.1258515560300527e7 0.0
0.0 0.0 0.0

-3.6012893286316735e6 2.8235220167778492e7 0.0
2.8235220167778492e7 -541956.686568532 0.0
0.0 0.0 0.0

-103784.9653849504 1.4647772159471089e7 0.0
1.4647772159471089e7 -8.40405823061175e6 0.0
0.0 0.0 0.0

-284807.42154565547 1.6491512093226885e7 0.0
1.6491512093226885e7 -8.819434109751847e6 0.0
0.0 0.0 0.0

-4.203753638929553e6 1.9601393604148973e7 0.0
1.9601393604148973e7 5.40982113863696e6 0.0
0.0 0.0 0.0

4.782830142304536e6 3.440631839005982e6 0.0
3.440631839005982e6 -1.5464596708270729e7 0.0
0.0 0.0 0.0

4.565454887016406e6 1.5383627186284902e7 0.0
1.5383627186284902e7 214027.6333350793 0.0
0.0 0.0 0.0

2.632017268715799e6 1.0323996049440559e7 0.0
1.0323996049440559e7 -1.4383595753224803e7 0.0
0.0 0.0 0.0

736933.8764314654 1.8697585545506258e7 0.0
1.8697585545506258e7 -5.759629349681252e6 0.0
0.0 0.0 0.0

4.2487486285194e6 7.062493163835077e6 0.0
7.062493163835077e6 -2.1929408815502495e7 0.0
0.0 0.0 0.0

-4.990897253688757e6 1.6694893322370194e7 0.0
1.6694893322370194e7 7.175481706623346e6 0.0
0.0 0.0 0.0

2.9924936518962285e6 6.743538805129279e6 0.0
6.743538805129279e6 -9.937180241850067e6 0.0
0.0 0.0 0.0

-1.2762943751262608e6 9.327467634299152e6 0.0
9.327467634299152e6 -1.3100851692898306e6 0.0
0.0 0.0 0.0

-1.0111101714356376e7 1.865091924273935e7 0.0
1.865091924273935e7 -2.9638487416949696e6 0.0
0.0 0.0 0.0

3.3917731095503373e6 8.855390811883543e6 0.0
8.855390811883543e6 -1.64958827061015e7 0.0
0.0 0.0 0.0

-2.7522773653363525e6 1.3720608590844303e7 0.0
1.3720608590844303e7 -3.0522744374615494e6 0.0
0.0 0.0 0.0

-1.5363292666756057e6 1.7415625134605195e7 0.0
1.7415625134605195e7 -6.995805110831569e6 0.0
0.0 0.0 0.0

-4.415018896095599e6 1.6317016458663158e7 0.0
1.6317016458663158e7 1.5980248983304102e7 0.0
0.0 0.0 0.0

451404.95869131316 1.4735482650778513e7 0.0
1.4735482650778513e7 -2.4403584714632295e6 0.0
0.0 0.0 0.0

-6.977206448948879e6 1.3037115009757925e7 0.0
1.3037115009757925e7 7.843451292468134e6 0.0
0.0 0.0 0.0

-1.276302271506637e7 4.59925842743493e6 0.0
4.59925842743493e6 2.2573396197318047e7 0.0
0.0 0.0 0.0

-3.8338005806633066e6 1.652441123875005e7 0.0
1.652441123875005e7 1.629865035332079e7 0.0
0.0 0.0 0.0

-8.900950202844432e6 1.3623045218167085e7 0.0
1.3623045218167085e7 1.2597742726135926e7 0.0
0.0 0.0 0.0

-1.157285156122691e7 -82680.23002248988 0.0
-82680.23002248988 1.983021795860845e7 0.0
0.0 0.0 0.0

-6.279756566970457e6 1.5304998057882505e7 0.0
1.5304998057882505e7 1.0911065878316257e7 0.0
0.0 0.0 0.0

-6.231015924083942e6 1.7028768802956786e7 0.0
1.7028768802956786e7 1.1965171249384012e7 0.0
0.0 0.0 0.0

-5.397424247258073e6 4.873106760767484e6 0.0
4.873106760767484e6 8.060511241715053e6 0.0
0.0 0.0 0.0

-1.2713079485607878e6 1.6965617009664044e7 0.0
1.6965617009664044e7 -7.866465939390453e6 0.0
0.0 0.0 0.0

-4.429440186021201e6 1.9471220803206585e7 0.0
1.9471220803206585e7 3.614556668426807e6 0.0
0.0 0.0 0.0

-9.008910877561169e6 1.4033630846368166e7 0.0
1.4033630846368166e7 1.3244350840272523e7 0.0
0.0 0.0 0.0

-1.1547196837983578e7 655178.3541520067 0.0
655178.3541520067 2.9473606496257357e7 0.0
0.0 0.0 0.0

-3.2922211919851364e6 1.6585829260792162e7 0.0
1.6585829260792162e7 8.771653373896517e6 0.0
0.0 0.0 0.0

-9.169690164169764e6 1.037288819808287e7 0.0
1.037288819808287e7 1.4551930981408203e7 0.0
0.0 0.0 0.0

2.2676713858893113e6 1.0451333175785601e7 0.0
1.0451333175785601e7 -2.191056361383682e7 0.0
0.0 0.0 0.0

-5.660648544960465e6 1.5807681183751125e7 0.0
1.5807681183751125e7 1.999555585310038e7 0.0
0.0 0.0 0.0

-1.1530151772263642e7 1.188865426867846e7 0.0
1.188865426867846e7 1.776375743668245e7 0.0
0.0 0.0 0.0

2.248936152156448e6 9.465656153046727e6 0.0
9.465656153046727e6 -1.0542852920149557e7 0.0
0.0 0.0 0.0

4.713355372000856e6 4.286392163252973e6 0.0
4.286392163252973e6 -2.050650119774112e7 0.0
0.0 0.0 0.0

-593286.4419531282 1.5898930758217994e7 0.0
1.5898930758217994e7 1.5193291686466383e7 0.0
0.0 0.0 0.0

-2.8671975281452388e6 1.6205930833249593e7 0.0
1.6205930833249593e7 1.749036235259074e7 0.0
0.0 0.0 0.0

-692805.4064223694 1.4250227066558905e7 0.0
1.4250227066558905e7 -6.135598605893252e6 0.0
0.0 0.0 0.0

-4.651315198064082e6 1.9284832514836468e7 0.0
1.9284832514836468e7 8.524587578859583e6 0.0
0.0 0.0 0.0

-2.68364327926366e6 2.591000209791277e7 0.0
2.591000209791277e7 292690.7250169072 0.0
0.0 0.0 0.0

-108168.54473297345 1.5622710363547323e7 0.0
1.5622710363547323e7 -1.0308193899072297e7 0.0
0.0 0.0 0.0

-8.206714998525984e6 -1.539866611031788e6 0.0
-1.539866611031788e6 1.2712453944534667e7 0.0
0.0 0.0 0.0

1.6205706621198421e6 1.1925345450776527e7 0.0
1.1925345450776527e7 -1.9069133049395252e7 0.0
0.0 0.0 0.0

-5.291024349978904e6 1.7405317340612773e7 0.0
1.7405317340612773e7 9.880378562208671e6 0.0
0.0 0.0 0.0

-1.1856158694680657e7 1.0519296254262807e7 0.0
1.0519296254262807e7 1.8261830398260385e7 0.0
0.0 0.0 0.0

1.3697772047994777e6 1.3418638357534451e7 0.0
1.3418638357534451e7 5.8929959982830165e6 0.0
0.0 0.0 0.0

3.0209245385644846e6 8.630706722933134e6 0.0
8.630706722933134e6 -2.519943232978448e7 0.0
0.0 0.0 0.0

2.3757863937835917e6 1.0370331245657437e7 0.0
1.0370331245657437e7 -2.065997910841536e7 0.0
0.0 0.0 0.0

909600.6314467534 2.7339771896819722e7 0.0
2.7339771896819722e7 -4.572768957495827e6 0.0
0.0 0.0 0.0

-3.828218446127088e6 1.9028899923243556e7 0.0
1.9028899923243556e7 3.067341026075037e6 0.0
0.0 0.0 0.0

-4.061853759194447e6 1.993302303051822e7 0.0
1.993302303051822e7 4.746408418270794e6 0.0
0.0 0.0 0.0

-3.2683412979192417e6 1.9745734601761196e7 0.0
1.9745734601761196e7 -963098.2853233961 0.0
0.0 0.0 0.0

4.354355023177332e6 4.712724347488839e6 0.0
4.712724347488839e6 -1.3021638435578752e7 0.0
0.0 0.0 0.0

-599397.4379792607 1.254839587801584e7 0.0
1.254839587801584e7 -6.072868179179142e6 0.0
0.0 0.0 0.0

-5.211670837189876e6 1.7313446926239844e7 0.0
1.7313446926239844e7 9.27903041846388e6 0.0
0.0 0.0 0.0

-686595.9721306055 1.7376183194084004e7 0.0
1.7376183194084004e7 -7.883238999682779e6 0.0
0.0 0.0 0.0

-2.526012514263333e6 2.532286454190791e7 0.0
2.532286454190791e7 495146.9981122927 0.0
0.0 0.0 0.0

-4.460053371238805e6 7.230368005242362e6 0.0
7.230368005242362e6 5.854487129846073e6 0.0
0.0 0.0 0.0

-1.298145624231501e7 6.213626554134134e6 0.0
6.213626554134134e6 1.881298835119092e7 0.0
0.0 0.0 0.0

-2.5132761392440945e6 2.4848208124418598e7 0.0
2.4848208124418598e7 643100.5089023821 0.0
0.0 0.0 0.0

-1.755815559325304e6 1.7885717596632957e7 0.0
1.7885717596632957e7 -6.1718022321056845e6 0.0
0.0 0.0 0.0

2.17873383395758e6 9.573001750754623e6 0.0
9.573001750754623e6 -1.3504280004846457e7 0.0
0.0 0.0 0.0

-6.181273405739641e6 1.3882199079465035e7 0.0
1.3882199079465035e7 9.60085717605321e6 0.0
0.0 0.0 0.0

3.206092227416346e6 8.09673256781334e6 0.0
8.09673256781334e6 -2.6259115734806202e7 0.0
0.0 0.0 0.0

-2.8237012856756644e6 2.2425292656838596e7 0.0
2.2425292656838596e7 1.6568253131279685e6 0.0
0.0 0.0 0.0

-3.6082934483482065e6 1.734534813461069e7 0.0
1.734534813461069e7 7.098962813103946e6 0.0
0.0 0.0 0.0

1.516974615462603e6 1.1250818572611278e7 0.0
1.1250818572611278e7 -2.3221676963026952e7 0.0
0.0 0.0 0.0

-4.522719240827666e6 2.0324381783194784e7 0.0
2.0324381783194784e7 5.060529681593113e6 0.0
0.0 0.0 0.0

-1.2939528587448906e7 6.14069265754093e6 0.0
6.14069265754093e6 2.0047880521808997e7 0.0
0.0 0.0 0.0

1.857016110845876e6 9.326379544890113e6 0.0
9.326379544890113e6 -1.1829732650142234e7 0.0
0.0 0.0 0.0

-801951.9772592289 1.5984048297159052e7 0.0
1.5984048297159052e7 7.731803560583545e6 0.0
0.0 0.0 0.0

-4.37780943854079e6 1.870384165934237e7 0.0
1.870384165934237e7 6.148301740317674e6 0.0
0.0 0.0 0.0

966906.478591729 1.1901817931008039e7 0.0
1.1901817931008039e7 -2.285663893517099e7 0.0
0.0 0.0 0.0

-8.259010321051275e6 3.648295626594978e7 0.0
3.648295626594978e7 -7.766493091176709e6 0.0
0.0 0.0 0.0

-1.0954196159595756e7 1.3268703014766634e7 0.0
1.3268703014766634e7 1.5970994457852049e7 0.0
0.0 0.0 0.0

-5.504946141604539e6 1.526470029829195e7 0.0
1.526470029829195e7 -3.329721564414521e7 0.0
0.0 0.0 0.0

-3.4141662260064445e6 7.874842653605408e6 0.0
7.874842653605408e6 3.377241634653179e6 0.0
0.0 0.0 0.0

-6.207542735345004e6 1.6102866628412137e7 0.0
1.6102866628412137e7 8.356916721946885e6 0.0
0.0 0.0 0.0

-8.435022856645025e6 1.525584001401382e7 0.0
1.525584001401382e7 1.9993993033078413e7 0.0
0.0 0.0 0.0

-6.418697569574747e6 1.2816719072234811e7 0.0
1.2816719072234811e7 9.816799055555891e6 0.0
0.0 0.0 0.0

-5.419793129538184e6 1.3976439906558242e7 0.0
1.3976439906558242e7 3.912027248475302e7 0.0
0.0 0.0 0.0

-5.286916356771259e6 1.6198707803675432e7 0.0
1.6198707803675432e7 8.119081783511195e6 0.0
0.0 0.0 0.0

32464.09836181067 1.4088294468185278e7 0.0
1.4088294468185278e7 -1.6240904316116028e7 0.0
0.0 0.0 0.0

-35613.58685655566 1.6060022174302623e7 0.0
1.6060022174302623e7 -1.0529700722413138e7 0.0
0.0 0.0 0.0

9.588480297896463e7 1.747606629862295e7 0.0
1.747606629862295e7 7.409125694950245e6 0.0
0.0 0.0 0.0

-9.07850524467654e6 -6.80336930012207e6 0.0
-6.80336930012207e6 2.389088754825567e7 0.0
0.0 0.0 0.0

5.362555034681943e6 3.016114421308015e6 0.0
3.016114421308015e6 -2.2978617023763776e7 0.0
0.0 0.0 0.0

-4.2703536374093965e6 2.5044089353190283e6 0.0
2.5044089353190283e6 4.309561154374607e6 0.0
0.0 0.0 0.0

-3.063508534114093e6 1.9320053709450904e7 0.0
1.9320053709450904e7 -1.7250192442470898e6 0.0
0.0 0.0 0.0

-9.470000968059173e6 -4.668208444150368e6 0.0
-4.668208444150368e6 3.2182963174263895e7 0.0
0.0 0.0 0.0

-3.7665572445764216e6 1.3789029758379033e7 0.0
1.3789029758379033e7 -2.0780092562959373e7 0.0
0.0 0.0 0.0

-1.2144564784394015e7 8.861243180947298e6 0.0
8.861243180947298e6 1.850967403448184e7 0.0
0.0 0.0 0.0

-9.246230420689244e6 1.4345347818616064e7 0.0
1.4345347818616064e7 1.3813852782739807e7 0.0
0.0 0.0 0.0

5.356021777970646e6 2.8633193423524257e6 0.0
2.8633193423524257e6 -2.5584268824397847e7 0.0
0.0 0.0 0.0

598789.7910358054 1.4256660283941388e7 0.0
1.4256660283941388e7 -1.0888144506563473e7 0.0
0.0 0.0 0.0

-2.9539219107238334e6 2.6626612320266552e7 0.0
2.6626612320266552e7 307183.17265349184 0.0
0.0 0.0 0.0

1.4537462380939373e6 9.825213557689326e6 0.0
9.825213557689326e6 -1.111619758865199e7 0.0
0.0 0.0 0.0

-1.4155028131214662e6 1.70202038989761e7 0.0
1.70202038989761e7 -2.6319000258236635e6 0.0
0.0 0.0 0.0

-3.4689724922326505e6 6.942958816133659e6 0.0
6.942958816133659e6 7.623088963607948e7 0.0
0.0 0.0 0.0

660146.9279737733 7.606558782766089e6 0.0
7.606558782766089e6 -5.9531825965082295e7 0.0
0.0 0.0 0.0

-1.7856317311834097e6 1.4474827103675477e7 0.0
1.4474827103675477e7 -4.8631933035995096e7 0.0
0.0 0.0 0.0

1.3903525088212593e6 1.3009182976909455e7 0.0
1.3009182976909455e7 -1.3325685748408346e7 0.0
0.0 0.0 0.0

4.351264199943401e6 6.483839356307084e6 0.0
6.483839356307084e6 -2.784248896524271e7 0.0
0.0 0.0 0.0

-1.6723964613395408e7 2.124088503991358e7 0.0
2.124088503991358e7 5.23320495469734e6 0.0
0.0 0.0 0.0

-824967.8157833626 1.6963578642395932e7 0.0
1.6963578642395932e7 -8.761552579844158e6 0.0
0.0 0.0 0.0

-9.118985339606747e6 -6.592077637344512e6 0.0
-6.592077637344512e6 2.4889851747172993e7 0.0
0.0 0.0 0.0

-6.340516052094729e6 8.920385361630294e6 0.0
8.920385361630294e6 7.810731703284876e6 0.0
0.0 0.0 0.0

-3.891882985356573e6 2.0227399257858142e7 0.0
2.0227399257858142e7 4.066914935115027e6 0.0
0.0 0.0 0.0

-5.652509797271464e6 1.769283275658255e7 0.0
1.769283275658255e7 8.603068689854238e6 0.0
0.0 0.0 0.0

-8.432560271016933e6 1.1357129379759876e7 0.0
1.1357129379759876e7 1.0135462221675627e7 0.0
0.0 0.0 0.0

-5.070277080668277e6 5.978501105502545e6 0.0
5.978501105502545e6 7.262339221022343e6 0.0
0.0 0.0 0.0

3.5007981981980377e6 1.53800949902608e7 0.0
1.53800949902608e7 2.099080453009384e6 0.0
0.0 0.0 0.0

-2.0147974210716751e6 1.837953155435074e7 0.0
1.837953155435074e7 -5.3497949597814325e6 0.0
0.0 0.0 0.0

-1.0439876813550857e6 5.9058568411419345e6 0.0
5.9058568411419345e6 -2.32871531811649e6 0.0
0.0 0.0 0.0

-2.253409761648685e6 2.081113526901973e7 0.0
2.081113526901973e7 -1.0279764223017764e6 0.0
0.0 0.0 0.0

-1.2609848893408403e7 1.1950219535217082e7 0.0
1.1950219535217082e7 1.724572654181825e7 0.0
0.0 0.0 0.0

-5.909637877743628e6 1.356428973875312e7 0.0
1.356428973875312e7 8.647695201105759e6 0.0
0.0 0.0 0.0

-9.151572961628458e6 -6.170149709299031e6 0.0
-6.170149709299031e6 2.5943157865119554e7 0.0
0.0 0.0 0.0

5.330192306098845e6 2.958398751292756e6 0.0
2.958398751292756e6 -2.4258040247954894e7 0.0
0.0 0.0 0.0

4.266547925838735e6 6.702257432170172e6 0.0
6.702257432170172e6 -2.952491712928895e7 0.0
0.0 0.0 0.0

-1.2990058548130948e7 7.796475571225914e6 0.0
7.796475571225914e6 1.701616322307858e7 0.0
0.0 0.0 0.0

2.6153284830611236e6 5.179877365730385e6 0.0
5.179877365730385e6 -5.100338680719586e7 0.0
0.0 0.0 0.0

-8.699796008915925e6 -2.2577864880938022e6 0.0
-2.2577864880938022e6 4.374673827082605e7 0.0
0.0 0.0 0.0

2.4537642802821845e6 9.11125415661157e6 0.0
9.11125415661157e6 -1.4259993897138834e7 0.0
0.0 0.0 0.0

3.631685097871692e6 8.100357098809424e6 0.0
8.100357098809424e6 -1.5657522207299061e7 0.0
0.0 0.0 0.0

120036.63980683772 2.4701498886152975e7 0.0
2.4701498886152975e7 -1.2467649101542733e6 0.0
0.0 0.0 0.0

-5.994955390405429e6 2.313513318040115e7 0.0
2.313513318040115e7 6.021271397736166e6 0.0
0.0 0.0 0.0

-4.6254969637042135e6 1.834335151952155e7 0.0
1.834335151952155e7 6.845551939960537e6 0.0
0.0 0.0 0.0

-1.9989194543976043e6 2.0003701947793636e7 0.0
2.0003701947793636e7 -2.4820916019081343e6 0.0
0.0 0.0 0.0

-2.8455266277662814e6 2.5340403200196818e7 0.0
2.5340403200196818e7 2.431681848455744e6 0.0
0.0 0.0 0.0

-4.436514556188904e6 1.936104650629153e7 0.0
1.936104650629153e7 6.781445285123594e6 0.0
0.0 0.0 0.0

-1.1470569644162972e6 1.5579340524050137e7 0.0
1.5579340524050137e7 6.965499787445208e6 0.0
0.0 0.0 0.0

4.091664428400032e6 3.315422616442921e6 0.0
3.315422616442921e6 -4.215419330049544e7 0.0
0.0 0.0 0.0

5.337662011388421e6 2.6631030540976115e6 0.0
2.6631030540976115e6 -2.8347128630578313e7 0.0
0.0 0.0 0.0

4.87511644754996e6 2.7311576772454996e6 0.0
2.7311576772454996e6 -3.622218895089848e7 0.0
0.0 0.0 0.0

-3.9038754820842342e6 2.020074147143313e7 0.0
2.020074147143313e7 1.733778906954459e6 0.0
0.0 0.0 0.0

-4.878059311815808e6 8.266817806703062e6 0.0
8.266817806703062e6 2.828845868604848e6 0.0
0.0 0.0 0.0

-9.273598070976762e6 -4.390064101236621e6 0.0
-4.390064101236621e6 3.315339824199112e7 0.0
0.0 0.0 0.0

-1.2585006521383861e7 7.993261465356787e6 0.0
7.993261465356787e6 1.589349620037521e7 0.0
0.0 0.0 0.0

4.75815571505544e6 4.401658872544028e6 0.0
4.401658872544028e6 -1.6620110437270083e7 0.0
0.0 0.0 0.0

-1.0827643423504565e7 2.1450792300965335e7 0.0
2.1450792300965335e7 5.834001276810208e6 0.0
0.0 0.0 0.0

-3.8228572424363536e6 1.4046969498080362e7 0.0
1.4046969498080362e7 -1.8302097867351554e7 0.0
0.0 0.0 0.0

-8.066420862788022e6 -7.932622612302817e6 0.0
-7.932622612302817e6 1.9031513311028242e7 0.0
0.0 0.0 0.0

-1.1008898151138023e7 1.218394654057243e6 0.0
1.218394654057243e6 1.4248244301513366e7 0.0
0.0 0.0 0.0

-1.2839188635387134e7 5.87157460761547e6 0.0
5.87157460761547e6 2.3056712168725893e7 0.0
0.0 0.0 0.0

-6.050544305979514e6 1.6396543014273355e7 0.0
1.6396543014273355e7 1.3725714564195476e7 0.0
0.0 0.0 0.0

2.1937093233041335e6 1.077413164180575e7 0.0
1.077413164180575e7 -1.861061841119605e7 0.0
0.0 0.0 0.0

4.692742823028823e6 3.0141158860887373e6 0.0
3.0141158860887373e6 -3.992507667190643e7 0.0
0.0 0.0 0.0

5.2187078214665605e6 3.1542004975729752e6 0.0
3.1542004975729752e6 -2.113841286844312e7 0.0
0.0 0.0 0.0

3.684091043542671e6 2.618906398547001e7 0.0
2.618906398547001e7 -6.824178251683631e6 0.0
0.0 0.0 0.0

-8.969927606610699e6 -2.568943351156707e6 0.0
-2.568943351156707e6 4.189063337609016e7 0.0
0.0 0.0 0.0

3.9469099299702067e6 7.604130584256779e6 0.0
7.604130584256779e6 -2.5547051812704034e7 0.0
0.0 0.0 0.0

-7.801612918202445e6 823672.3585745047 0.0
823672.3585745047 5.734001290107964e7 0.0
0.0 0.0 0.0

3.820149479771491e6 3.89357978209285e6 0.0
3.89357978209285e6 -4.562132611592348e7 0.0
0.0 0.0 0.0

-4.486717309643942e6 2.031626138907017e7 0.0
2.031626138907017e7 7.122293331466561e6 0.0
0.0 0.0 0.0

-705858.9526521084 1.050862619398744e7 0.0
1.050862619398744e7 -5.748105355753989e6 0.0
0.0 0.0 0.0

-791879.1037629042 1.49124681153421e7 0.0
1.49124681153421e7 -8.736031898911247e6 0.0
0.0 0.0 0.0

520171.9701839313 1.3937657325621108e7 0.0
1.3937657325621108e7 -1.4448861900882887e7 0.0
0.0 0.0 0.0

-8.440295821109066e6 -1.848220206987601e6 0.0
-1.848220206987601e6 4.615319347753756e7 0.0
0.0 0.0 0.0

4.7016606598247625e6 2.8939224751217365e6 0.0
2.8939224751217365e6 -3.789004175641484e7 0.0
0.0 0.0 0.0

-1.2074504871079234e7 1.2866421213181853e7 0.0
1.2866421213181853e7 1.779909657273548e7 0.0
0.0 0.0 0.0

-1.2591853789702399e7 1.1280536820558088e7 0.0
1.1280536820558088e7 1.687121988341313e7 0.0
0.0 0.0 0.0

-1.3024426738246378e7 7.20768460142709e6 0.0
7.20768460142709e6 2.0502992795616746e7 0.0
0.0 0.0 0.0

-7.052411079850381e6 1.1980050051541014e7 0.0
1.1980050051541014e7 1.1091045092465466e7 0.0
0.0 0.0 0.0

-120221.86151401233 1.6252615587201793e7 0.0
1.6252615587201793e7 2.1204493763926607e7 0.0
0.0 0.0 0.0

-1.404043915051169e6 1.8776481269203972e7 0.0
1.8776481269203972e7 -4.722946532861993e6 0.0
0.0 0.0 0.0

-3.6647099254888087e6 2.1286815417107e7 0.0
2.1286815417107e7 1.5168898974317934e6 0.0
0.0 0.0 0.0

-2.003106957036787e6 1.9699950686913747e7 0.0
1.9699950686913747e7 -3.7296352144539985e6 0.0
0.0 0.0 0.0

3.074312169969202e6 9.129849447895052e6 0.0
9.129849447895052e6 -1.4179039211760059e7 0.0
0.0 0.0 0.0

-4.267215639916112e6 2.2072636145734765e7 0.0
2.2072636145734765e7 5.257761323669836e6 0.0
0.0 0.0 0.0

-819322.7185866412 1.6313217820190474e7 0.0
1.6313217820190474e7 -3.770050304798923e6 0.0
0.0 0.0 0.0

1.9135297113962965e6 1.2208781342860902e7 0.0
1.2208781342860902e7 -1.490664923314924e7 0.0
0.0 0.0 0.0

-1.2080176726514503e7 1.146552031374031e7 0.0
1.146552031374031e7 2.163842116149225e7 0.0
0.0 0.0 0.0

-1.3038356453566674e7 8.596074316014351e6 0.0
8.596074316014351e6 1.7595109140709996e7 0.0
0.0 0.0 0.0

2.969621942345077e6 8.483044383185662e6 0.0
8.483044383185662e6 -1.6258303335625267e7 0.0
0.0 0.0 0.0

-9.445785299311578e6 -5.457425400391306e6 0.0
-5.457425400391306e6 2.9003111789148383e7 0.0
0.0 0.0 0.0

5.324681933773657e6 2.8417924975866065e6 0.0
2.8417924975866065e6 -2.624687775217878e7 0.0
0.0 0.0 0.0

-3.0898950471901214e6 1.6315143325354975e7 0.0
1.6315143325354975e7 1.388819527260033e7 0.0
0.0 0.0 0.0

-9.031963499007288e6 -2.9053379463293357e6 0.0
-2.9053379463293357e6 4.011299159652666e7 0.0
0.0 0.0 0.0

5.009924888100447e6 2.7105311904789414e6 0.0
2.7105311904789414e6 -3.367378279855352e7 0.0
0.0 0.0 0.0

5.274704876090443e6 2.8369474784237943e6 0.0
2.8369474784237943e6 -2.689847941368423e7 0.0
0.0 0.0 0.0

-9.414150032740258e6 -5.18075026649209e6 0.0
-5.18075026649209e6 3.0002337981075186e7 0.0
0.0 0.0 0.0

-7.971857595850255e6 1.4137939683840958e7 0.0
1.4137939683840958e7 2.558742521877681e7 0.0
0.0 0.0 0.0

5.163183944818782e6 2.6659080418190393e6 0.0
2.6659080418190393e6 -3.2708927448913362e7 0.0
0.0 0.0 0.0

-9.072269032871723e6 -3.3042839271392254e6 0.0
-3.3042839271392254e6 3.837174506577826e7 0.0
0.0 0.0 0.0

-6.53159974202872e6 1.6433014484789161e7 0.0
1.6433014484789161e7 1.503216211815547e7 0.0
0.0 0.0 0.0

-1.0032521244570915e7 -3.383560772508522e6 0.0
-3.383560772508522e6 2.598625980277618e7 0.0
0.0 0.0 0.0

-9.474647531250656e6 -4.870159485165159e6 0.0
-4.870159485165159e6 3.1171436095361605e7 0.0
0.0 0.0 0.0

5.420382285393808e6 2.781267809302856e6 0.0
2.781267809302856e6 -2.7694246056111444e7 0.0
0.0 0.0 0.0

5.197431797239646e6 2.7052769347878504e6 0.0
2.7052769347878504e6 -3.1719442901308008e7 0.0
0.0 0.0 0.0

-9.182985190970287e6 -3.6371757932626703e6 0.0
-3.6371757932626703e6 3.6886026920336604e7 0.0
0.0 0.0 0.0

-1.9866780442349774e8 4.605512744608437e7 0.0
4.605512744608437e7 -1.9969407301690258e7 0.0
0.0 0.0 0.0

1.6036946982245657e8 2.969615352178382e7 0.0
2.969615352178382e7 9.855827321471326e6 0.0
0.0 0.0 0.0

-8.82229650577797e6 1.1723061881000666e7 0.0
1.1723061881000666e7 1.1134600619029328e7 0.0
0.0 0.0 0.0

5.127624396439148e6 2.6734016017647423e6 0.0
2.6734016017647423e6 -3.076863635364358e7 0.0
0.0 0.0 0.0

-9.33671685688022e6 -3.8417256854600613e6 0.0
-3.8417256854600613e6 3.570171968163731e7 0.0
0.0 0.0 0.0

433300.56545641134 1.3702740342064697e7 0.0
1.3702740342064697e7 -1.8884914645372634e6 0.0
0.0 0.0 0.0

-1.2889743985418145e7 9.648215781774048e6 0.0
9.648215781774048e6 1.701208317965979e7 0.0
0.0 0.0 0.0

-3.7015524092304846e6 2.0503043431588028e7 0.0
2.0503043431588028e7 3.456489881775296e6 0.0
0.0 0.0 0.0

-2.3677671254290324e6 1.6722680663482506e7 0.0
1.6722680663482506e7 1.449046010410345e7 0.0
0.0 0.0 0.0

-9.346589317120014e6 -4.0545413029812677e6 0.0
-4.0545413029812677e6 3.4461664846172184e7 0.0
0.0 0.0 0.0

5.273719281073984e6 2.6115951833055047e6 0.0
2.6115951833055047e6 -3.0047048923350513e7 0.0
0.0 0.0 0.0

-2.1722729701406816e6 1.884084462010496e7 0.0
1.884084462010496e7 -4.520422537392069e6 0.0
0.0 0.0 0.0

-3.6977707524771e6 1.4683943697979014e7 0.0
1.4683943697979014e7 -3.5094613109477e7 0.0
0.0 0.0 0.0

-2.934011431876651e6 2.085601102447679e7 0.0
2.085601102447679e7 -789515.3905396409 0.0
0.0 0.0 0.0

1.1711113799570901e6 1.3427596866718259e7 0.0
1.3427596866718259e7 -1.2508537138068797e7 0.0
0.0 0.0 0.0

1.1993423142007487e6 1.2640281472890561e7 0.0
1.2640281472890561e7 -1.7176210091464367e7 0.0
0.0 0.0 0.0

-829368.5718447834 1.5429805055252459e7 0.0
1.5429805055252459e7 3.829497802792031e6 0.0
0.0 0.0 0.0

-1.0420053615695502e6 1.877772509875935e7 0.0
1.877772509875935e7 -6.050160731736016e6 0.0
0.0 0.0 0.0

-721712.8264836483 1.7359760739932697e7 0.0
1.7359760739932697e7 -7.670464841726405e6 0.0
0.0 0.0 0.0

-2.182383418561466e6 1.3582556464616904e7 0.0
1.3582556464616904e7 -2.7557046976674236e7 0.0
0.0 0.0 0.0

-3.20869074172503e6 2.1110220059038498e7 0.0
2.1110220059038498e7 1.7902547976965175e6 0.0
0.0 0.0 0.0

-5.150601471940016e6 1.8054637121114668e7 0.0
1.8054637121114668e7 7.3576458133521695e6 0.0
0.0 0.0 0.0

-3.8590319635326443e6 1.9085886834770832e7 0.0
1.9085886834770832e7 -6.2738765493861595e6 0.0
0.0 0.0 0.0

969625.1521734884 1.294815630879137e7 0.0
1.294815630879137e7 -1.719306627066975e7 0.0
0.0 0.0 0.0

-1.1755544120579459e7 8.538550245031537e6 0.0
8.538550245031537e6 1.4426855811442098e7 0.0
0.0 0.0 0.0

706534.2753026919 1.480698271361463e7 0.0
1.480698271361463e7 6.346157663418409e6 0.0
0.0 0.0 0.0

-1.1239375605225347e7 1.0143096878351012e7 0.0
1.0143096878351012e7 1.4244327873309888e7 0.0
0.0 0.0 0.0

-2.3017989115673834e6 1.4944656164002046e7 0.0
1.4944656164002046e7 -2.0116596957559495e6 0.0
0.0 0.0 0.0

-3.357874103456995e6 2.095587473692604e7 0.0
2.095587473692604e7 2.385567958077763e6 0.0
0.0 0.0 0.0

-69882.16433294397 1.3067379427712008e7 0.0
1.3067379427712008e7 -2.0562358962536596e7 0.0
0.0 0.0 0.0

-5.361705495158365e6 1.6608399141833687e7 0.0
1.6608399141833687e7 1.4289624300631585e7 0.0
0.0 0.0 0.0

-3.0576202166353576e6 2.5876657330931935e7 0.0
2.5876657330931935e7 2.7658997100287257e6 0.0
0.0 0.0 0.0

-3.12647507503453e6 1.5214626673747923e7 0.0
1.5214626673747923e7 -2.4161336767755887e6 0.0
0.0 0.0 0.0

-2.5305214317171928e6 1.968636996529724e7 0.0
1.968636996529724e7 -2.972570506884554e6 0.0
0.0 0.0 0.0

7.138137093445759e6 1.7835063920792937e7 0.0
1.7835063920792937e7 7.563424791418075e6 0.0
0.0 0.0 0.0

-3.545881946965304e6 2.0746603101294238e7 0.0
2.0746603101294238e7 2.8861401852486013e6 0.0
0.0 0.0 0.0

-9.504189544405604e6 1.1109362330491062e7 0.0
1.1109362330491062e7 4.514182420654932e6 0.0
0.0 0.0 0.0

-3.0554303130649524e6 2.2282151179907873e7 0.0
2.2282151179907873e7 2.100871802103518e6 0.0
0.0 0.0 0.0

4.976883867574369e6 3.448161124290772e6 0.0
3.448161124290772e6 -1.730317467835261e7 0.0
0.0 0.0 0.0

4.967428004474383e6 3.50864753459341e6 0.0
3.50864753459341e6 -1.6783346790896907e7 0.0
0.0 0.0 0.0

-2.303888102020908e6 1.9292093852996767e7 0.0
1.9292093852996767e7 -3.6081702175614205e6 0.0
0.0 0.0 0.0

-2.029490454406471e6 1.6552367167218577e7 0.0
1.6552367167218577e7 1.8010212318299703e7 0.0
0.0 0.0 0.0

-2.7794562485720147e6 2.279746404450743e7 0.0
2.279746404450743e7 1.8360843665306142e6 0.0
0.0 0.0 0.0

-1.3019481420570904e7 7.286030780152376e6 0.0
7.286030780152376e6 1.9274976881714396e7 0.0
0.0 0.0 0.0

-2.758813165603065e6 2.4473679841630656e7 0.0
2.4473679841630656e7 2.299501193305807e6 0.0
0.0 0.0 0.0

-3.9790316865588888e6 1.6728624595272979e7 0.0
1.6728624595272979e7 8.855890598219354e6 0.0
0.0 0.0 0.0

-755002.706063881 1.3012844111419622e7 0.0
1.3012844111419622e7 3.071162523848355e6 0.0
0.0 0.0 0.0

2.746158644676999e6 1.0543745568084294e7 0.0
1.0543745568084294e7 -1.937297499906107e7 0.0
0.0 0.0 0.0

-4.32289910461814e6 2.044720758544719e7 0.0
2.044720758544719e7 3.7139170763110034e6 0.0
0.0 0.0 0.0

-7.578107677509552e6 -5.327610041281329e6 0.0
-5.327610041281329e6 1.5775015535578279e7 0.0
0.0 0.0 0.0

-8.33341974788161e6 1.3172728224871559e7 0.0
1.3172728224871559e7 2.667871999561373e7 0.0
0.0 0.0 0.0

-1.608348468854474e6 1.3279411136023413e7 0.0
1.3279411136023413e7 -3.115166599376608e7 0.0
0.0 0.0 0.0

-1.2358928354484783e7 8.447915073496446e6 0.0
8.447915073496446e6 2.2067380324813865e7 0.0
0.0 0.0 0.0

1.7494442896961954e6 1.916932835168352e7 0.0
1.916932835168352e7 -5.2424422305203695e6 0.0
0.0 0.0 0.0

2.5666807285351604e6 1.0962837323126543e7 0.0
1.0962837323126543e7 -1.7385678080142487e7 0.0
0.0 0.0 0.0

-3.398970309655323e6 1.4919529768250091e7 0.0
1.4919529768250091e7 -1.7606033372662533e6 0.0
0.0 0.0 0.0

-2.770899172759202e6 2.050243531095712e7 0.0
2.050243531095712e7 -1.4889855230230275e6 0.0
0.0 0.0 0.0

118856.8146985902 1.3358426311784461e7 0.0
1.3358426311784461e7 -4.755669721248893e6 0.0
0.0 0.0 0.0

-1.1983184754944824e7 7.954136100523e6 0.0
7.954136100523e6 1.7961653657867745e7 0.0
0.0 0.0 0.0

-1.233347072758965e7 1.0454884272859883e7 0.0
1.0454884272859883e7 2.1501866845030054e7 0.0
0.0 0.0 0.0

-2.649856128684169e6 2.0098689468023717e7 0.0
2.0098689468023717e7 -2.229099641181726e6 0.0
0.0 0.0 0.0

-7.825831788178757e6 1.1024958369224828e7 0.0
1.1024958369224828e7 1.233662132947467e7 0.0
0.0 0.0 0.0

4.9799396286563445e6 4.692805484771415e6 0.0
4.692805484771415e6 -2.6110523591906033e7 0.0
0.0 0.0 0.0

-7.530718679705508e6 1.3707810927660447e7 0.0
1.3707810927660447e7 9.80565236624551e6 0.0
0.0 0.0 0.0

-316800.01751857856 1.3620690794954378e7 0.0
1.3620690794954378e7 -8.797425912043381e6 0.0
0.0 0.0 0.0

245917.08247917116 1.3879172524127023e7 0.0
1.3879172524127023e7 408959.64976701286 0.0
0.0 0.0 0.0

-2.0200482662596381e6 1.6423021912732331e7 0.0
1.6423021912732331e7 -8.108149174839206e6 0.0
0.0 0.0 0.0

-1.8905414467094508e6 1.4913179469275791e7 0.0
1.4913179469275791e7 -5.576757665069556e6 0.0
0.0 0.0 0.0

1.0183388892489634e6 1.2995417337033475e7 0.0
1.2995417337033475e7 -1.623901534026969e7 0.0
0.0 0.0 0.0

3.5669208413129197e6 7.566994533523627e6 0.0
7.566994533523627e6 -1.9997207142020706e7 0.0
0.0 0.0 0.0

-114119.55063096201 1.3473501245563108e7 0.0
1.3473501245563108e7 -6.836357388110091e6 0.0
0.0 0.0 0.0

2.402742399324584e6 9.465506379107082e6 0.0
9.465506379107082e6 -1.4710254096317071e7 0.0
0.0 0.0 0.0

4.331535593984722e6 4.520286504724036e6 0.0
4.520286504724036e6 -1.401266353896706e7 0.0
0.0 0.0 0.0

-3.984245169138102e6 2.094203905601165e7 0.0
2.094203905601165e7 2.568814599292026e6 0.0
0.0 0.0 0.0

-640195.183352341 1.0883097902106887e7 0.0
1.0883097902106887e7 -6.617819757093184e6 0.0
0.0 0.0 0.0

-5.487192160419439e6 1.647161816084977e7 0.0
1.647161816084977e7 1.3161538262818322e7 0.0
0.0 0.0 0.0

-3.5073730533649726e6 -3.5079003935044957e6 0.0
-3.5079003935044957e6 7.727722910883392e6 0.0
0.0 0.0 0.0

1.9401749118988093e6 1.5288434867272628e7 0.0
1.5288434867272628e7 360056.989191122 0.0
0.0 0.0 0.0

-2.893226180938882e6 1.6853687879972532e7 0.0
1.6853687879972532e7 -7.572887154915686e6 0.0
0.0 0.0 0.0

3.238422549849808e6 7.9399827483763425e6 0.0
7.9399827483763425e6 -1.6987952111242466e7 0.0
0.0 0.0 0.0

-7.612640950667293e7 1.2213968359085059e7 0.0
1.2213968359085059e7 8.156918306629911e6 0.0
0.0 0.0 0.0

-7.918605630412153e6 1.5723979205431689e7 0.0
1.5723979205431689e7 1.6101273533197306e7 0.0
0.0 0.0 0.0

242956.3831938319 1.5246948276172537e7 0.0
1.5246948276172537e7 -1.0833672162214886e7 0.0
0.0 0.0 0.0

-1.2245227116579975e6 1.382171812394479e7 0.0
1.382171812394479e7 -6.823748618079317e6 0.0
0.0 0.0 0.0

2.1167842478082925e6 1.1773738679412687e7 0.0
1.1773738679412687e7 -1.7799177474919632e7 0.0
0.0 0.0 0.0

-496247.65270247776 1.5334064873113953e7 0.0
1.5334064873113953e7 6.870896837318912e6 0.0
0.0 0.0 0.0

2.3887394214777583e6 1.081405896248038e7 0.0
1.081405896248038e7 -2.1634984083117988e7 0.0
0.0 0.0 0.0

-307419.6709190244 1.5588281789583493e7 0.0
1.5588281789583493e7 8.071695299244507e6 0.0
0.0 0.0 0.0

250485.47099982668 1.399077093742179e7 0.0
1.399077093742179e7 -1.1960161142512985e7 0.0
0.0 0.0 0.0

3.9373981990834093e6 7.756168538880023e6 0.0
7.756168538880023e6 -1.7887307345676877e7 0.0
0.0 0.0 0.0

4.964946692629239e6 3.3655659078542297e6 0.0
3.3655659078542297e6 -2.9607279024253458e7 0.0
0.0 0.0 0.0

-311843.68756475137 2.045653950397971e7 0.0
2.045653950397971e7 -4.434231051643903e6 0.0
0.0 0.0 0.0

2.6572129879951226e6 1.0637414233756427e7 0.0
1.0637414233756427e7 -2.052243041682543e7 0.0
0.0 0.0 0.0

-4.396211519593051e6 2.1629165442940503e7 0.0
2.1629165442940503e7 5.713596281085385e6 0.0
0.0 0.0 0.0

-5.183634035643445e6 1.7459321791213986e7 0.0
1.7459321791213986e7 1.3598498587010188e6 0.0
0.0 0.0 0.0

2.5898821971695735e6 7.282828635276862e6 0.0
7.282828635276862e6 -9.249854450032e6 0.0
0.0 0.0 0.0

-3.4915332061426267e6 2.6469126473129362e7 0.0
2.6469126473129362e7 3.018438586822995e6 0.0
0.0 0.0 0.0

3.5172105278531536e6 8.490388860243704e6 0.0
8.490388860243704e6 -1.6083121617754783e7 0.0
0.0 0.0 0.0

-4.2907887853836585e6 1.5264449632823905e7 0.0
1.5264449632823905e7 2.587793479927322e7 0.0
0.0 0.0 0.0

-516237.37571641593 1.5565789895875841e7 0.0
1.5565789895875841e7 738006.8518902464 0.0
0.0 0.0 0.0

-6.241753245170623e6 2.2495208271683466e7 0.0
2.2495208271683466e7 6.365671102459603e6 0.0
0.0 0.0 0.0

-1.0236092855629317e7 9.376140135669937e6 0.0
9.376140135669937e6 1.5658485355598446e7 0.0
0.0 0.0 0.0

1.8191083632908612e6 1.1573042385621954e7 0.0
1.1573042385621954e7 -1.790221780230706e7 0.0
0.0 0.0 0.0

-1.7617206620220372e6 9.33659202942683e6 0.0
9.33659202942683e6 -2.927904551080292e6 0.0
0.0 0.0 0.0

-1.3162806479236414e6 1.5348581845130267e7 0.0
1.5348581845130267e7 -4.888103598074331e6 0.0
0.0 0.0 0.0

7.024827155904485e6 1.586042615505257e7 0.0
1.586042615505257e7 -200638.03250978934 0.0
0.0 0.0 0.0

377904.7726346669 1.5192211388437413e7 0.0
1.5192211388437413e7 -1.1973914691143423e7 0.0
0.0 0.0 0.0

1.0247101014917023e6 8.029000257944115e6 0.0
8.029000257944115e6 -5.5548491326219225e6 0.0
0.0 0.0 0.0

1.3893167658425337e6 1.2293280511966279e7 0.0
1.2293280511966279e7 -1.7110450178920653e7 0.0
0.0 0.0 0.0

-9.135880544737767e6 -5.475491434300549e6 0.0
-5.475491434300549e6 2.197224386905812e7 0.0
0.0 0.0 0.0

-5.510243497602371e6 1.7055558012190737e7 0.0
1.7055558012190737e7 1.2025013530811688e7 0.0
0.0 0.0 0.0

-1.2914435664058797e7 1.03061495782727e7 0.0
1.03061495782727e7 1.7573747265932493e7 0.0
0.0 0.0 0.0

-1.1245294182416052e7 2.148098238122985e7 0.0
2.148098238122985e7 688466.8397168 0.0
0.0 0.0 0.0

-1.9591303665038012e6 1.3654611743353043e7 0.0
1.3654611743353043e7 -2.6742287447993897e7 0.0
0.0 0.0 0.0

-4.377912546085738e6 1.9846466684079915e7 0.0
1.9846466684079915e7 6.72031529912065e6 0.0
0.0 0.0 0.0

-4.914487259768213e6 2.0584241011720903e7 0.0
2.0584241011720903e7 6.7201155328888055e6 0.0
0.0 0.0 0.0

-467796.65082068974 1.745795261358447e7 0.0
1.745795261358447e7 -7.837227070926589e6 0.0
0.0 0.0 0.0

-447847.05634955876 1.2583114141164683e7 0.0
1.2583114141164683e7 -2.790924509367057e7 0.0
0.0 0.0 0.0

-5.1283215755703645e6 1.6268723256669803e7 0.0
1.6268723256669803e7 1.311977925356508e7 0.0
0.0 0.0 0.0

-1.1430924469499944e7 2.869913516925895e6 0.0
2.869913516925895e6 3.0927665270285957e7 0.0
0.0 0.0 0.0

2.505726614965905e6 3.6990594514494757e6 0.0
3.6990594514494757e6 -6.9215603269425165e6 0.0
0.0 0.0 0.0

-29982.43388203159 1.384696116271117e7 0.0
1.384696116271117e7 -1.5856908161807451e7 0.0
0.0 0.0 0.0

-918843.8738524828 1.8236290522755627e7 0.0
1.8236290522755627e7 -6.792732495595545e6 0.0
0.0 0.0 0.0

-2.487633142615495e6 1.5665627151990905e7 0.0
1.5665627151990905e7 -1.6942026086665073e6 0.0
0.0 0.0 0.0

-369411.95848574117 1.2982078800556147e7 0.0
1.2982078800556147e7 -8.57483941507394e6 0.0
0.0 0.0 0.0

-4.575943146150867e6 1.420631836510408e7 0.0
1.420631836510408e7 -2.1302584807706837e7 0.0
0.0 0.0 0.0

-1.2975556815408885e7 9.34975156749478e6 0.0
9.34975156749478e6 2.0088231594065852e7 0.0
0.0 0.0 0.0

-2.2883262272296096e6 2.25897068353821e7 0.0
2.25897068353821e7 744325.6625631228 0.0
0.0 0.0 0.0

-1.6979277643704973e7 2.037106119167245e7 0.0
2.037106119167245e7 5.120643788693503e6 0.0
0.0 0.0 0.0

2.125862782861619e6 1.5689701140788961e7 0.0
1.5689701140788961e7 522300.05157757713 0.0
0.0 0.0 0.0

2.1644647992846197e6 7.152085304532655e6 0.0
7.152085304532655e6 -1.0600759555395566e7 0.0
0.0 0.0 0.0

-2.7069872350647636e6 1.5362261022971367e7 0.0
1.5362261022971367e7 -1.0511704029066483e6 0.0
0.0 0.0 0.0

-1.2160585711736524e7 7.117304763472398e6 0.0
7.117304763472398e6 2.45308637209189e7 0.0
0.0 0.0 0.0

-4.9633586317234095e6 2.2842244986096792e7 0.0
2.2842244986096792e7 5.42360827305197e6 0.0
0.0 0.0 0.0

-5.876576700280185e6 1.624500025289753e7 0.0
1.624500025289753e7 1.3993027097503772e7 0.0
0.0 0.0 0.0

-3.43138691522998e6 2.1402575870088886e7 0.0
2.1402575870088886e7 1.0212711197693658e6 0.0
0.0 0.0 0.0

545285.3894888777 1.3594194390961112e7 0.0
1.3594194390961112e7 -1.2763428465073073e7 0.0
0.0 0.0 0.0

-1.2376561466316253e7 9.031025473451229e6 0.0
9.031025473451229e6 2.350321155114877e7 0.0
0.0 0.0 0.0

346524.00745944865 1.4162744078367352e7 0.0
1.4162744078367352e7 -1.4418482985292792e7 0.0
0.0 0.0 0.0

-3.245393089374609e6 1.736213409015591e7 0.0
1.736213409015591e7 -2.5838359091376024e6 0.0
0.0 0.0 0.0

-2.3322572525881166e6 2.2889186757078245e7 0.0
2.2889186757078245e7 748441.7041515573 0.0
0.0 0.0 0.0

3.9400737252976466e6 5.259223291054829e6 0.0
5.259223291054829e6 -1.4653542362852246e7 0.0
0.0 0.0 0.0

420274.6423248518 1.68921749880344e7 0.0
1.68921749880344e7 -7.603211306893482e6 0.0
0.0 0.0 0.0

-4.283052641149681e6 1.9754344070881993e7 0.0
1.9754344070881993e7 6.07192822898651e6 0.0
0.0 0.0 0.0

-1.1144275166640047e7 8.352540142019385e6 0.0
8.352540142019385e6 1.663617045849219e7 0.0
0.0 0.0 0.0

-2.589487672650219e6 1.8393119215028368e7 0.0
1.8393119215028368e7 -5.860379496457221e6 0.0
0.0 0.0 0.0

-1.2723321718483824e7 1.1370583681369126e7 0.0
1.1370583681369126e7 1.9485319933590412e7 0.0
0.0 0.0 0.0

-1.9325942737950713e6 4.558687541288502e6 0.0
4.558687541288502e6 5.2071152047334965e6 0.0
0.0 0.0 0.0

-4.342353474646339e6 1.925760392539202e7 0.0
1.925760392539202e7 6.071202934943871e6 0.0
0.0 0.0 0.0

-1.3119158034684768e7 7.530986019388183e6 0.0
7.530986019388183e6 1.814937988841162e7 0.0
0.0 0.0 0.0

-6.262930997866856e6 1.6324475928742582e7 0.0
1.6324475928742582e7 9.102969738819996e6 0.0
0.0 0.0 0.0

761378.2043120945 1.5963251268160239e7 0.0
1.5963251268160239e7 1.7156662740126204e7 0.0
0.0 0.0 0.0

159918.39878442697 1.2385902999025354e7 0.0
1.2385902999025354e7 -2.503348021038211e7 0.0
0.0 0.0 0.0

-3.4356296344848955e6 -2.9188339541418455e6 0.0
-2.9188339541418455e6 7.099466307353264e6 0.0
0.0 0.0 0.0

2.204071078838481e6 2.0440223422028247e7 0.0
2.0440223422028247e7 -4.76820010762283e6 0.0
0.0 0.0 0.0

-1.2286231452605981e7 7.41678576154658e6 0.0
7.41678576154658e6 2.1683174078003358e7 0.0
0.0 0.0 0.0

757362.1997891506 1.1422467730343753e7 0.0
1.1422467730343753e7 -1.05275291524397e7 0.0
0.0 0.0 0.0

-4.221403435999472e6 1.6239283328356992e7 0.0
1.6239283328356992e7 1.1213421878332045e7 0.0
0.0 0.0 0.0

-1.087868944743107e6 1.468150681045481e7 0.0
1.468150681045481e7 -5.218156927255702e6 0.0
0.0 0.0 0.0

-6.800656866458888e6 1.6602779987986634e7 0.0
1.6602779987986634e7 1.3011780973352624e7 0.0
0.0 0.0 0.0

332357.2674969458 9.660301720455121e6 0.0
9.660301720455121e6 -6.267580754791098e6 0.0
0.0 0.0 0.0

-5.457057091028836e6 1.8731345119101763e7 0.0
1.8731345119101763e7 5.658416425694015e6 0.0
0.0 0.0 0.0

-6.252881920896059e6 1.6461390509313786e7 0.0
1.6461390509313786e7 9.785570734233504e6 0.0
0.0 0.0 0.0

138537.0301090032 1.6803806561093844e7 0.0
1.6803806561093844e7 -8.406678672050033e6 0.0
0.0 0.0 0.0

-4.594768078416781e6 1.9841228046801537e7 0.0
1.9841228046801537e7 5.021724149876987e6 0.0
0.0 0.0 0.0

-2.694547085962961e6 2.3193927937570676e7 0.0
2.3193927937570676e7 1.998913097993827e6 0.0
0.0 0.0 0.0

356133.73340731394 1.2424589241136348e7 0.0
1.2424589241136348e7 -2.208081837954174e7 0.0
0.0 0.0 0.0

1.672262937278969e6 3.4983017853016257e6 0.0
3.4983017853016257e6 -3.6568895079044756e6 0.0
0.0 0.0 0.0

-3.3063545972399693e6 2.671833112706857e6 0.0
2.671833112706857e6 2.476185851374694e6 0.0
0.0 0.0 0.0

4.573232869274119e6 4.434013118877971e6 0.0
4.434013118877971e6 -3.655285904193713e7 0.0
0.0 0.0 0.0

-1.568077726402292e6 1.8174362969546054e7 0.0
1.8174362969546054e7 -4.712432528960566e6 0.0
0.0 0.0 0.0

-6.532892391722598e6 1.612993321793623e7 0.0
1.612993321793623e7 1.4635063697109502e7 0.0
0.0 0.0 0.0

-1.2773497743458979e7 8.773443145558823e6 0.0
8.773443145558823e6 1.6436055558181662e7 0.0
0.0 0.0 0.0

-4.0264160412120223e6 2.7141562975388553e7 0.0
2.7141562975388553e7 3.2227857703052326e6 0.0
0.0 0.0 0.0

-1.2849895915263792e7 5.913144038824422e6 0.0
5.913144038824422e6 2.1425200359132595e7 0.0
0.0 0.0 0.0

1.846283174115812e7 4.392262387304162e7 0.0
4.392262387304162e7 -9.360231139330195e6 0.0
0.0 0.0 0.0

-872109.4042089807 1.6591306334424602e7 0.0
1.6591306334424602e7 -8.94227107671502e6 0.0
0.0 0.0 0.0

1.6433064059161125e6 1.2602359842657954e7 0.0
1.2602359842657954e7 -1.408873464636616e7 0.0
0.0 0.0 0.0

-5.297417131354341e6 1.670037699024321e7 0.0
1.670037699024321e7 1.2208469069057759e7 0.0
0.0 0.0 0.0

-1.2823867451752605e7 8.271824471851233e6 0.0
8.271824471851233e6 2.2252111486267984e7 0.0
0.0 0.0 0.0

-1.065123740449932e6 1.7788842962935515e7 0.0
1.7788842962935515e7 -6.420950710638748e6 0.0
0.0 0.0 0.0

-93834.65479945508 1.4208736777635358e7 0.0
1.4208736777635358e7 2.6829856804089057e6 0.0
0.0 0.0 0.0

4.985382154373288e6 3.595715452077991e6 0.0
3.595715452077991e6 -2.3986668774671853e7 0.0
0.0 0.0 0.0

-5.815392828800947e6 6.4642103018993875e6 0.0
6.4642103018993875e6 8.660010263475131e6 0.0
0.0 0.0 0.0

-5.4513667336622095e6 2.9016140867965024e7 0.0
2.9016140867965024e7 4.015502743459077e6 0.0
0.0 0.0 0.0

-7.75654151901448e6 1.6118968589502469e7 0.0
1.6118968589502469e7 1.5688912306591049e7 0.0
0.0 0.0 0.0

-442916.4360130504 1.4024393826937575e7 0.0
1.4024393826937575e7 -1.3449822325545415e7 0.0
0.0 0.0 0.0

3.077763317366941e6 1.5817063729846187e7 0.0
1.5817063729846187e7 4.299105563488806e6 0.0
0.0 0.0 0.0

-6.45322912180076e6 2.8434876868911074e6 0.0
2.8434876868911074e6 8.389486563835217e6 0.0
0.0 0.0 0.0

-4.470016135358072e6 9.031979905927258e6 0.0
9.031979905927258e6 2.0268961604133726e6 0.0
0.0 0.0 0.0

-502526.68788151676 1.3718301909953471e7 0.0
1.3718301909953471e7 -1.0648490063834542e7 0.0
0.0 0.0 0.0

140972.81129410025 1.3715266646955332e7 0.0
1.3715266646955332e7 -8.449662729914084e6 0.0
0.0 0.0 0.0

-8.328222706833002e6 1.497425515180206e7 0.0
1.497425515180206e7 1.2753836612582022e7 0.0
0.0 0.0 0.0

-128614.60746522807 1.3655733443989357e7 0.0
1.3655733443989357e7 -1.6778366744604524e7 0.0
0.0 0.0 0.0

2.5549766545526786e6 1.0964879557193497e7 0.0
1.0964879557193497e7 -1.8484010728406508e7 0.0
0.0 0.0 0.0

-4.46891453051614e6 1.9890217171694994e7 0.0
1.9890217171694994e7 7.245487213733441e6 0.0
0.0 0.0 0.0

973131.0568487123 1.3926415534345139e7 0.0
1.3926415534345139e7 -1.4466621735427141e7 0.0
0.0 0.0 0.0

-1.2329766080536928e7 9.606415392491914e6 0.0
9.606415392491914e6 1.8963786169913486e7 0.0
0.0 0.0 0.0

3.6448287775980723e6 5.32020068028799e6 0.0
5.32020068028799e6 -1.1108096894657344e7 0.0
0.0 0.0 0.0

-2.0836427748351634e7 2.4942047795896225e7 0.0
2.4942047795896225e7 -3.3995127311082077e6 0.0
0.0 0.0 0.0

1.759118829027363e6 6.719141333684054e6 0.0
6.719141333684054e6 -8.877696059556765e6 0.0
0.0 0.0 0.0

3.8624563141657165e6 3.6035821571327895e6 0.0
3.6035821571327895e6 -1.1105214423610048e7 0.0
0.0 0.0 0.0

-5.0497722190533355e6 2.050140833229642e7 0.0
2.050140833229642e7 7.105487999303232e6 0.0
0.0 0.0 0.0

1.1951014180174684e6 1.329717662003809e7 0.0
1.329717662003809e7 3.9836718416018966e6 0.0
0.0 0.0 0.0

2.307183364682187e6 1.6179238162567437e7 0.0
1.6179238162567437e7 -3.2869994872782305e6 0.0
0.0 0.0 0.0

-8.882708339912957e6 1.5165253396917708e7 0.0
1.5165253396917708e7 1.8536566604936615e7 0.0
0.0 0.0 0.0

-5.9430967978822775e6 1.5837920187727546e7 0.0
1.5837920187727546e7 1.8971996368617482e7 0.0
0.0 0.0 0.0

4.775582427290805e6 1.476628459547358e7 0.0
1.476628459547358e7 3.232070640522987e7 0.0
0.0 0.0 0.0

165244.9401687543 1.4755854287458524e7 0.0
1.4755854287458524e7 -2.9087670540081523e6 0.0
0.0 0.0 0.0

-5.9632623306427365e6 1.663067988114402e7 0.0
1.663067988114402e7 1.3037662570601987e7 0.0
0.0 0.0 0.0

-6.919084906758465e6 1.4387876842551878e7 0.0
1.4387876842551878e7 8.71436970554594e6 0.0
0.0 0.0 0.0

-636284.6342585427 1.3805093493464487e7 0.0
1.3805093493464487e7 -1.2453219072707877e7 0.0
0.0 0.0 0.0

-4.691281154321973e6 2.0010091696569733e7 0.0
2.0010091696569733e7 5.6579097951185405e6 0.0
0.0 0.0 0.0

-1.2996529394700192e7 8.226478229118098e6 0.0
8.226478229118098e6 2.0869951771551203e7 0.0
0.0 0.0 0.0

5.208951258221399e6 1.9304908272333447e7 0.0
1.9304908272333447e7 -4.818364217810977e6 0.0
0.0 0.0 0.0

-607428.1457840775 1.6914102028637927e7 0.0
1.6914102028637927e7 -8.104182268745118e6 0.0
0.0 0.0 0.0

3.6218084946126267e6 6.678228262637036e6 0.0
6.678228262637036e6 -1.685635576518597e7 0.0
0.0 0.0 0.0

796201.9507159104 1.799082629784563e7 0.0
1.799082629784563e7 -5.9252774215384275e6 0.0
0.0 0.0 0.0

-2.6858721471563303e6 2.059026113782472e7 0.0
2.059026113782472e7 -115053.49357809348 0.0
0.0 0.0 0.0

-3.2020924439772777e6 1.392402314399029e7 0.0
1.392402314399029e7 -1.0673643896959292e7 0.0
0.0 0.0 0.0

5.933968283915396e6 1.716074854510354e7 0.0
1.716074854510354e7 1.977990292674054e7 0.0
0.0 0.0 0.0

-1.0336488790333316e7 -3.0306288072263934e6 0.0
-3.0306288072263934e6 3.0156573341680516e7 0.0
0.0 0.0 0.0

-210372.65135062812 1.5686032467874825e7 0.0
1.5686032467874825e7 4.668376060153428e6 0.0
0.0 0.0 0.0

-9.576700309088353e6 -5.206111215154994e6 0.0
-5.206111215154994e6 2.377985009003059e7 0.0
0.0 0.0 0.0

-2.0364976917934439e6 2.0876172778600186e7 0.0
2.0876172778600186e7 -1.4433848471627142e6 0.0
0.0 0.0 0.0

-295077.43785680505 1.9797453323955245e7 0.0
1.9797453323955245e7 -4.997407237427488e6 0.0
0.0 0.0 0.0

-4.709278331738254e6 2.7959549858928096e7 0.0
2.7959549858928096e7 3.316351721606933e6 0.0
0.0 0.0 0.0

2.3351734800625527e6 1.608531158888934e7 0.0
1.608531158888934e7 7.725265647853996e6 0.0
0.0 0.0 0.0

-1.2280077132347517e7 7.267850226616312e6 0.0
7.267850226616312e6 2.304167043971405e7 0.0
0.0 0.0 0.0

-2.2011194478156925e6 2.1261229623323943e7 0.0
2.1261229623323943e7 -678822.1921645473 0.0
0.0 0.0 0.0

-5.953828572810572e6 1.7055572563796517e7 0.0
1.7055572563796517e7 8.8758316474577e6 0.0
0.0 0.0 0.0

-4.81318801438358e6 1.899341730594621e7 0.0
1.899341730594621e7 5.662280664104375e6 0.0
0.0 0.0 0.0

3.7135541804650407e6 7.914993621879778e6 0.0
7.914993621879778e6 -2.7201890152446907e7 0.0
0.0 0.0 0.0

-4.592671669441843e6 1.982639586575554e7 0.0
1.982639586575554e7 7.81733217463514e6 0.0
0.0 0.0 0.0

8.075849559580752e6 1.3863352094777487e7 0.0
1.3863352094777487e7 3.5924416399831735e6 0.0
0.0 0.0 0.0

2.3497169333976554e6 1.1404138766067829e7 0.0
1.1404138766067829e7 -1.6547508789052382e7 0.0
0.0 0.0 0.0

-9.546841428701514e6 894025.8295107541 0.0
894025.8295107541 4.402208206679805e7 0.0
0.0 0.0 0.0

-2.892862338243899e6 2.2041263687067926e7 0.0
2.2041263687067926e7 1.5649704606225397e6 0.0
0.0 0.0 0.0

794195.0570125033 1.5982680473417502e7 0.0
1.5982680473417502e7 4.152528852226008e6 0.0
0.0 0.0 0.0

-6.605695169247129e7 5.482076119370752e7 0.0
5.482076119370752e7 -1.2911452769943371e7 0.0
0.0 0.0 0.0

4.0147348897162313e6 4.63095752184279e6 0.0
4.63095752184279e6 -1.4162374457113115e7 0.0
0.0 0.0 0.0

-2.862994681385545e6 1.6079576644767232e7 0.0
1.6079576644767232e7 -744770.0173735032 0.0
0.0 0.0 0.0

-1.1716908246415427e7 2.089712525973403e7 0.0
2.089712525973403e7 4.442492281002041e6 0.0
0.0 0.0 0.0

9443.2320945994 1.5365512158578124e7 0.0
1.5365512158578124e7 -1.111485593877181e7 0.0
0.0 0.0 0.0

-810001.8024918153 1.6521469040067311e7 0.0
1.6521469040067311e7 -9.375668600778861e6 0.0
0.0 0.0 0.0

5.476650358604405e6 1.6531691868111312e7 0.0
1.6531691868111312e7 -1.9608959240535654e6 0.0
0.0 0.0 0.0

-3.716381228507341e6 2.4654115527748447e7 0.0
2.4654115527748447e7 3.7751271108548865e6 0.0
0.0 0.0 0.0

-1.888506749504685e6 1.6942425116307564e7 0.0
1.6942425116307564e7 -7.252368647633459e6 0.0
0.0 0.0 0.0

4.795770812864469e6 5.090522770513372e6 0.0
5.090522770513372e6 -2.851316862043095e7 0.0
0.0 0.0 0.0

-1.792448669576689e7 2.25337067442229e7 0.0
2.25337067442229e7 -2.4513560059676394e6 0.0
0.0 0.0 0.0

-5.474014014090383e6 1.6639059596591733e7 0.0
1.6639059596591733e7 9.5914722034151e6 0.0
0.0 0.0 0.0

-287886.3781752221 1.9174488705568742e7 0.0
1.9174488705568742e7 -5.552429854855412e6 0.0
0.0 0.0 0.0

-4.766270306894086e6 1.5283561617240977e7 0.0
1.5283561617240977e7 2.4113003095969267e7 0.0
0.0 0.0 0.0

6.903614520166598e6 1.781743179476871e7 0.0
1.781743179476871e7 -4.98549434096258e6 0.0
0.0 0.0 0.0

-5.086475668092199e6 1.8564788374339797e7 0.0
1.8564788374339797e7 9.506251874858987e6 0.0
0.0 0.0 0.0

-488979.0299537964 1.4216863258588266e7 0.0
1.4216863258588266e7 -9.21889362459953e6 0.0
0.0 0.0 0.0

2.0448506638796371e6 9.763140029761646e6 0.0
9.763140029761646e6 3.704761926200352e6 0.0
0.0 0.0 0.0

862018.8577304957 1.6811621678112775e7 0.0
1.6811621678112775e7 -6.749414186294923e6 0.0
0.0 0.0 0.0

-8.502843858518906e6 1.5843569257649459e7 0.0
1.5843569257649459e7 1.6965318769588117e7 0.0
0.0 0.0 0.0

-9.050236685789602e6 4.217241049612698e6 0.0
4.217241049612698e6 4.624569827037288e7 0.0
0.0 0.0 0.0

-8.803667027851712e6 -604120.9224557449 0.0
-604120.9224557449 4.8888586681368e7 0.0
0.0 0.0 0.0

-1.035025655640912e6 1.5536166445781358e7 0.0
1.5536166445781358e7 -8.179964005236713e6 0.0
0.0 0.0 0.0

144973.3273980599 1.6009012804370023e7 0.0
1.6009012804370023e7 -9.714852940480093e6 0.0
0.0 0.0 0.0

-697667.8576531243 1.6488950938407144e7 0.0
1.6488950938407144e7 -9.547576371665165e6 0.0
0.0 0.0 0.0

-6.816427071450798e6 1.86856019849222e7 0.0
1.86856019849222e7 -1.8728750774153103e6 0.0
0.0 0.0 0.0

9.433407330306288e6 1.622458824082295e7 0.0
1.622458824082295e7 4.8404087147057485e6 0.0
0.0 0.0 0.0

-8.194810473793016e6 1.5926842716640167e7 0.0
1.5926842716640167e7 1.509325984180798e7 0.0
0.0 0.0 0.0

-504472.65799021255 1.6413039828636093e7 0.0
1.6413039828636093e7 -9.648774049991913e6 0.0
0.0 0.0 0.0

-644957.5250000367 1.3643185370946305e7 0.0
1.3643185370946305e7 -8.282290951278398e6 0.0
0.0 0.0 0.0

-7.22361225467772e6 -4.321930973479902e6 0.0
-4.321930973479902e6 1.3933428889560286e7 0.0
0.0 0.0 0.0

1.4729538401507866e6 1.1555387354781028e7 0.0
1.1555387354781028e7 -2.18950607318329e7 0.0
0.0 0.0 0.0

-1.1048516483669065e7 -2.5458221162411673e6 0.0
-2.5458221162411673e6 2.2770545412175328e7 0.0
0.0 0.0 0.0

-5.830646480689414e6 -8.100442840497646e6 0.0
-8.100442840497646e6 1.5078125796722384e7 0.0
0.0 0.0 0.0

-5.732381914192706e6 -8.042040115420372e6 0.0
-8.042040115420372e6 1.4614579447315738e7 0.0
0.0 0.0 0.0

-3.8922122580435863e6 9.035292417108541e6 0.0
9.035292417108541e6 3.970472049857598e6 0.0
0.0 0.0 0.0

833061.3397718389 1.3179062048380103e7 0.0
1.3179062048380103e7 -1.3587635503156137e7 0.0
0.0 0.0 0.0

1.9691004642991768e6 1.1398866186871748e7 0.0
1.1398866186871748e7 -2.1649089108762223e7 0.0
0.0 0.0 0.0

-251743.98451989377 1.586142999586533e7 0.0
1.586142999586533e7 -3.430517754519678e6 0.0
0.0 0.0 0.0

69875.7411134271 1.7120686295054447e7 0.0
1.7120686295054447e7 -7.322662918983564e6 0.0
0.0 0.0 0.0

2.576196087518049e6 1.6007019462720605e7 0.0
1.6007019462720605e7 -1.3896433104724432e6 0.0
0.0 0.0 0.0

-2.2454223527182294e6 1.9537216335623987e7 0.0
1.9537216335623987e7 -2.2615555376000744e6 0.0
0.0 0.0 0.0

3.2095681605196416e7 1.8065675576630563e7 0.0
1.8065675576630563e7 3.8688128427744647e6 0.0
0.0 0.0 0.0

1.7485606812648037e6 1.307982595963247e7 0.0
1.307982595963247e7 9.11815687160706e6 0.0
0.0 0.0 0.0

1.8336510420569568e6 1.6452379181009056e7 0.0
1.6452379181009056e7 -4.682429715596449e6 0.0
0.0 0.0 0.0

435498.0631819442 1.98634202729599e7 0.0
1.98634202729599e7 -4.893804403127772e6 0.0
0.0 0.0 0.0

-2.5173325412184848e6 2.186154718532178e7 0.0
2.186154718532178e7 526725.8220935354 0.0
0.0 0.0 0.0

661684.897692116 1.4492131685797846e7 0.0
1.4492131685797846e7 -1.3678665414091429e7 0.0
0.0 0.0 0.0

-1.1591834769205216e7 2.0251072166098192e7 0.0
2.0251072166098192e7 2.14077236738291e6 0.0
0.0 0.0 0.0

-5.471723797257976e6 2.0860903540476896e7 0.0
2.0860903540476896e7 6.886318146258817e6 0.0
0.0 0.0 0.0

4.772120186981871e6 3.442410369114092e6 0.0
3.442410369114092e6 -1.5735355142624604e7 0.0
0.0 0.0 0.0

-3.0026891298377234e6 2.040807296560852e7 0.0
2.040807296560852e7 -1.0280578360958091e6 0.0
0.0 0.0 0.0

-7.218284668939808e6 3.005141465922945e7 0.0
3.005141465922945e7 4.119924509141691e6 0.0
0.0 0.0 0.0

-1.1860984129227898e6 1.1270014740701085e7 0.0
1.1270014740701085e7 -5.0543529484882625e6 0.0
0.0 0.0 0.0

2.3594186050494798e6 1.138403524851978e7 0.0
1.138403524851978e7 -1.760746491880583e7 0.0
0.0 0.0 0.0

2.2242937920462694e6 1.113868608280613e7 0.0
1.113868608280613e7 -2.070330244194701e7 0.0
0.0 0.0 0.0

1.3332644198981645e6 1.2053788890091974e7 0.0
1.2053788890091974e7 -2.156567209684154e7 0.0
0.0 0.0 0.0

3.086398420122369e6 2.642263380452479e7 0.0
2.642263380452479e7 -3.673677160104431e6 0.0
0.0 0.0 0.0

-351562.9680659175 1.6246854772408912e7 0.0
1.6246854772408912e7 -9.711747103673363e6 0.0
0.0 0.0 0.0

1.9930970094783655e6 1.6389264386545708e7 0.0
1.6389264386545708e7 1.7802388605210155e7 0.0
0.0 0.0 0.0

-1.9379856503956527e7 1.4962637784211969e7 0.0
1.4962637784211969e7 9.424507461724479e6 0.0
0.0 0.0 0.0

-4.6805894666901074e7 2.461151433462267e7 0.0
2.461151433462267e7 1.4788970429571718e6 0.0
0.0 0.0 0.0

4.197279979722917e6 6.078500463551516e6 0.0
6.078500463551516e6 -3.544354522269401e7 0.0
0.0 0.0 0.0

1.2156266889333723e6 1.6711782905068131e7 0.0
1.6711782905068131e7 -5.844780435365849e6 0.0
0.0 0.0 0.0

242251.07886717073 1.8640029660773624e7 0.0
1.8640029660773624e7 -5.832898693341071e6 0.0
0.0 0.0 0.0

4.577943749419253e6 3.447493746277676e6 0.0
3.447493746277676e6 -1.4972358922918385e7 0.0
0.0 0.0 0.0

-9.05376384408144e6 1.942188468056448e7 0.0
1.942188468056448e7 -2.6818898210032093e6 0.0
0.0 0.0 0.0

-3.8317155473338887e6 1.6240048894918393e7 0.0
1.6240048894918393e7 1.34649196299312e7 0.0
0.0 0.0 0.0

1.4764745290472494e6 1.5892469886969175e7 0.0
1.5892469886969175e7 1.1633020322351744e7 0.0
0.0 0.0 0.0

-5.086673991100448e6 -5.112845508136486e6 0.0
-5.112845508136486e6 1.1332424133060616e7 0.0
0.0 0.0 0.0

1.2662265117231505e6 1.323471778776683e7 0.0
1.323471778776683e7 -1.6220922169981143e7 0.0
0.0 0.0 0.0

2.700913272411491e6 8.988932879658641e6 0.0
8.988932879658641e6 -1.5506370877298234e7 0.0
0.0 0.0 0.0

955183.2176729853 7.667817001499303e6 0.0
7.667817001499303e6 -4.905411042862587e6 0.0
0.0 0.0 0.0

-5.652227497857751e6 -4.4776161202467615e6 0.0
-4.4776161202467615e6 8.874950670683958e6 0.0
0.0 0.0 0.0

85903.7579478696 1.5830489445435634e7 0.0
1.5830489445435634e7 5.6556235564372376e7 0.0
0.0 0.0 0.0

-1.1527358706633171e7 1.8796297781257862e6 0.0
1.8796297781257862e6 3.0162131601526357e7 0.0
0.0 0.0 0.0

-1.0235401228158716e6 2.2395863184472054e7 0.0
2.2395863184472054e7 -1.4335338982666505e6 0.0
0.0 0.0 0.0

-3.0647708499215357e6 1.5785080357500432e7 0.0
1.5785080357500432e7 -75220.36639610224 0.0
0.0 0.0 0.0

-624461.0392721076 1.3339110719056042e7 0.0
1.3339110719056042e7 -9.4992897592077e6 0.0
0.0 0.0 0.0

-435529.93325995887 1.846442619045037e7 0.0
1.846442619045037e7 -6.426053111728302e6 0.0
0.0 0.0 0.0

-4.741071415367978e6 2.0120772853725802e7 0.0
2.0120772853725802e7 6.278920458023752e6 0.0
0.0 0.0 0.0

-31073.800021768722 3.0129701344506506e7 0.0
3.0129701344506506e7 -981245.8574072188 0.0
0.0 0.0 0.0

3.071680186141003e6 4.685175211844497e6 0.0
4.685175211844497e6 -9.082817932513557e6 0.0
0.0 0.0 0.0

-7.70263375156548e6 -4.788810722739837e6 0.0
-4.788810722739837e6 1.240800494212402e7 0.0
0.0 0.0 0.0

-269587.8403550968 1.49735599484794e7 0.0
1.49735599484794e7 940815.903656444 0.0
0.0 0.0 0.0

-7.6415323475762475e6 2.1272041217039328e7 0.0
2.1272041217039328e7 6.269497158045068e6 0.0
0.0 0.0 0.0

-4.859684029998978e6 1.6326313843716173e7 0.0
1.6326313843716173e7 1.5536666759621242e7 0.0
0.0 0.0 0.0

-1.2416205574567266e7 8.702856234336158e6 0.0
8.702856234336158e6 1.964147686401548e7 0.0
0.0 0.0 0.0

1.9418236640428444e6 1.2176611222343331e7 0.0
1.2176611222343331e7 -1.6940502786071308e7 0.0
0.0 0.0 0.0

-1.2157497970932755e8 1.9244067610690273e7 0.0
1.9244067610690273e7 -3.267796898811646e6 0.0
0.0 0.0 0.0

-1.2461585512157092e7 7.523187858357273e6 0.0
7.523187858357273e6 2.0449443019516148e7 0.0
0.0 0.0 0.0

-6.726410622639469e6 2.1268527510906786e7 0.0
2.1268527510906786e7 6.472589546918148e6 0.0
0.0 0.0 0.0

826885.0622527655 1.4181950921871088e7 0.0
1.4181950921871088e7 -1.4471998777429428e7 0.0
0.0 0.0 0.0

453449.6173048271 1.2583798666814495e7 0.0
1.2583798666814495e7 -2.1093555276261035e7 0.0
0.0 0.0 0.0

-654250.1182959288 2.8734557568113416e7 0.0
2.8734557568113416e7 -206155.9174578993 0.0
0.0 0.0 0.0

52149.835698689334 1.3111261585968008e7 0.0
1.3111261585968008e7 -1.9398101427087888e7 0.0
0.0 0.0 0.0

-169620.41511754505 1.6028202909123193e7 0.0
1.6028202909123193e7 -9.554426391395556e6 0.0
0.0 0.0 0.0

52971.15296881017 1.5217917467062987e7 0.0
1.5217917467062987e7 2.324403275127026e6 0.0
0.0 0.0 0.0

-1.6216614889256372e6 2.4631647676909618e7 0.0
2.4631647676909618e7 957178.3556145633 0.0
0.0 0.0 0.0

-8.652505076992212e6 2.1104775110640958e7 0.0
2.1104775110640958e7 5.829457062543379e6 0.0
0.0 0.0 0.0

1.524315600606313e6 1.2917403806885742e7 0.0
1.2917403806885742e7 -1.6138629900578432e7 0.0
0.0 0.0 0.0

-319785.6001485493 1.6088325788467323e7 0.0
1.6088325788467323e7 -9.655532183853514e6 0.0
0.0 0.0 0.0

-4.077780351603522e6 1.9994763220014505e7 0.0
1.9994763220014505e7 2.3338246515203863e6 0.0
0.0 0.0 0.0

-5.985771538672085e6 2.110220786764718e7 0.0
2.110220786764718e7 6.685242923919136e6 0.0
0.0 0.0 0.0

-8.984410320348477e6 -6.87952244451123e6 0.0
-6.87952244451123e6 2.3129760011771746e7 0.0
0.0 0.0 0.0

-7.87832020250634e6 1.4674363695880746e7 0.0
1.4674363695880746e7 1.4342498734812856e7 0.0
0.0 0.0 0.0

-279596.32765250374 1.3481777873893403e7 0.0
1.3481777873893403e7 -1.7748325282414075e7 0.0
0.0 0.0 0.0

1.0373491062495608e7 1.5464248989878416e7 0.0
1.5464248989878416e7 -1.1126886190708173e6 0.0
0.0 0.0 0.0

964588.3612406394 1.3470596932230627e7 0.0
1.3470596932230627e7 -1.6253418002076138e7 0.0
0.0 0.0 0.0

36743.97908677894 1.436627699624032e7 0.0
1.436627699624032e7 -3.118935419790119e6 0.0
0.0 0.0 0.0

-1.205042719695315e7 5.980098837323857e6 0.0
5.980098837323857e6 2.4173549266284987e7 0.0
0.0 0.0 0.0

-4.717351573388357e6 1.7946100027945515e7 0.0
1.7946100027945515e7 -5.709585609261848e6 0.0
0.0 0.0 0.0

-231507.8443513338 1.301772526393055e7 0.0
1.301772526393055e7 -5.478173673166513e6 0.0
0.0 0.0 0.0

149533.3540096744 1.5515632535107892e7 0.0
1.5515632535107892e7 -9.868935196318204e6 0.0
0.0 0.0 0.0

-1.3432850909920637e7 3.275484338603751e7 0.0
3.275484338603751e7 5.658868146989838e6 0.0
0.0 0.0 0.0

-3.860728951418328e7 1.0893340319411207e7 0.0
1.0893340319411207e7 8.71028243558757e6 0.0
0.0 0.0 0.0

-1.1812512726783627e6 2.29398277056763e7 0.0
2.29398277056763e7 -1.7999922655228593e6 0.0
0.0 0.0 0.0

-9.573501883824557e6 3.1316002111925732e7 0.0
3.1316002111925732e7 4.916555095850158e6 0.0
0.0 0.0 0.0

1.0254781295500308e7 3.773505130504856e7 0.0
3.773505130504856e7 -5.234383917743551e6 0.0
0.0 0.0 0.0

955361.6439753594 1.2316935586814648e7 0.0
1.2316935586814648e7 -2.040694919231434e7 0.0
0.0 0.0 0.0

-5.081013029564731e6 1.4096092289875427e7 0.0
1.4096092289875427e7 -2.0467895292842556e7 0.0
0.0 0.0 0.0

-4.733487226204963e6 1.95991802830598e7 0.0
1.95991802830598e7 7.996823821922657e6 0.0
0.0 0.0 0.0

-1.3064319082941968e7 8.390917389832582e6 0.0
8.390917389832582e6 1.969433417936208e7 0.0
0.0 0.0 0.0

-8.355380726962044e6 1.858372146071692e7 0.0
1.858372146071692e7 2.730218177197195e6 0.0
0.0 0.0 0.0

-942165.5239769546 1.452650713749457e7 0.0
1.452650713749457e7 5.668188078543795e6 0.0
0.0 0.0 0.0

-479951.881147156 1.473937629412766e7 0.0
1.473937629412766e7 -7.320541188351164e6 0.0
0.0 0.0 0.0

580861.8748580483 3.1759464512658767e7 0.0
3.1759464512658767e7 -2.1708144317594385e6 0.0
0.0 0.0 0.0

-610901.9160796006 1.7924928593385704e7 0.0
1.7924928593385704e7 -7.105206421204164e6 0.0
0.0 0.0 0.0

1.374261819380543e6 1.5254859705688417e7 0.0
1.5254859705688417e7 -4.191445831367636e6 0.0
0.0 0.0 0.0

5.313192195380727e6 2.869255781701203e6 0.0
2.869255781701203e6 -2.4976450115590964e7 0.0
0.0 0.0 0.0

-4.861597360946288e6 2.0141151546170205e7 0.0
2.0141151546170205e7 6.841433393932135e6 0.0
0.0 0.0 0.0

-4.180951160615592e6 1.5260408110568555e7 0.0
1.5260408110568555e7 3.4671060427363636e6 0.0
0.0 0.0 0.0

1.8373274813515148e6 1.0637005192483367e7 0.0
1.0637005192483367e7 -1.0762785580369093e7 0.0
0.0 0.0 0.0

619933.9171237564 1.2651007788175829e7 0.0
1.2651007788175829e7 -2.120949404304614e7 0.0
0.0 0.0 0.0

-5.109696120127417e6 1.6778318681787502e7 0.0
1.6778318681787502e7 1.2885478727396738e7 0.0
0.0 0.0 0.0

-6.429698579149484e6 1.6117056983468479e7 0.0
1.6117056983468479e7 1.7627045957397047e7 0.0
0.0 0.0 0.0

-803587.4073401907 1.409519331990348e7 0.0
1.409519331990348e7 -3.348437452129066e6 0.0
0.0 0.0 0.0

954314.6831607104 1.9249380715960857e7 0.0
1.9249380715960857e7 -5.339558940462667e6 0.0
0.0 0.0 0.0

-4.653904227399599e6 1.946740315752797e7 0.0
1.946740315752797e7 7.8873193137826715e6 0.0
0.0 0.0 0.0

-9.978359711264536e6 627071.0939382678 0.0
627071.0939382678 3.901174859420525e7 0.0
0.0 0.0 0.0

-3.586137284841653e6 9.776680865815451e6 0.0
9.776680865815451e6 3.1471723086350225e6 0.0
0.0 0.0 0.0

-14207.41827453929 1.4936647241806207e7 0.0
1.4936647241806207e7 -4.187230104770309e6 0.0
0.0 0.0 0.0

-5.328255057489782e6 2.031105831948935e7 0.0
2.031105831948935e7 7.412381800669858e6 0.0
0.0 0.0 0.0

-5.692191406386174e6 1.693827908982256e7 0.0
1.693827908982256e7 1.0881107494536731e7 0.0
0.0 0.0 0.0

2.54249354294945e6 1.0741771524112768e7 0.0
1.0741771524112768e7 -1.4685880548146736e7 0.0
0.0 0.0 0.0

-3.172849903431979e6 2.1512198225427363e7 0.0
2.1512198225427363e7 1.877114526748612e6 0.0
0.0 0.0 0.0

-1.3680158886354198e6 2.5556353667188577e7 0.0
2.5556353667188577e7 820209.7025709758 0.0
0.0 0.0 0.0

-4.240224956378904e6 1.7826862506163877e7 0.0
1.7826862506163877e7 4.357493255547004e6 0.0
0.0 0.0 0.0

1.956874281810698e6 1.2186049260243354e7 0.0
1.2186049260243354e7 -1.5877432462262096e7 0.0
0.0 0.0 0.0

-2.99487308617026e6 2.160749474798938e7 0.0
2.160749474798938e7 126837.13823082554 0.0
0.0 0.0 0.0

-725408.4488321817 1.9020335315224037e7 0.0
1.9020335315224037e7 -5.775441441649961e6 0.0
0.0 0.0 0.0

-2.767965279130133e6 1.6488183061302895e7 0.0
1.6488183061302895e7 1.7424072274354514e7 0.0
0.0 0.0 0.0

-4.525742820543148e6 1.7394978103231058e7 0.0
1.7394978103231058e7 5.181085951822442e6 0.0
0.0 0.0 0.0

-4.776996051550955e6 2.142388564510838e7 0.0
2.142388564510838e7 5.400464563812808e6 0.0
0.0 0.0 0.0

-1.039323230233254e7 -2.53258295027546e6 0.0
-2.53258295027546e6 3.0020720660746995e7 0.0
0.0 0.0 0.0

-1.5022898866703855e6 2.5040808256066654e7 0.0
2.5040808256066654e7 943789.9800300393 0.0
0.0 0.0 0.0

5.299844085975327e6 2.9372984857288534e6 0.0
2.9372984857288534e6 -2.4371383247036207e7 0.0
0.0 0.0 0.0

-2.4804531597700254e6 2.012885944383054e7 0.0
2.012885944383054e7 -2.662024923014571e6 0.0
0.0 0.0 0.0

-9.845059923917582e6 -4.773745960363042e6 0.0
-4.773745960363042e6 2.5871487695613213e7 0.0
0.0 0.0 0.0

-427030.23194163654 1.2452965162628511e7 0.0
1.2452965162628511e7 -3.8919382062493735e6 0.0
0.0 0.0 0.0

-7.7155984780649375e6 1.9961448504525483e7 0.0
1.9961448504525483e7 4.269860333800398e6 0.0
0.0 0.0 0.0

-873421.0127228784 1.6566476121659903e7 0.0
1.6566476121659903e7 -2.573587544501685e6 0.0
0.0 0.0 0.0

-1.5014533671710747e6 1.685455449823496e7 0.0
1.685455449823496e7 -3.674873063489055e6 0.0
0.0 0.0 0.0

-373503.605480989 1.4611509012955414e7 0.0
1.4611509012955414e7 -1.340711963293312e7 0.0
0.0 0.0 0.0

-1.2781190158292238e7 1.0277760067949994e7 0.0
1.0277760067949994e7 2.0305408258696765e7 0.0
0.0 0.0 0.0

-1.10885400384299e6 1.5172148350222463e7 0.0
1.5172148350222463e7 7.569448130151683e6 0.0
0.0 0.0 0.0

3.964456663611494e6 7.724766802882593e6 0.0
7.724766802882593e6 -1.869648824620363e7 0.0
0.0 0.0 0.0

-96161.64077485632 1.6639030354691032e7 0.0
1.6639030354691032e7 1.5769357859249119e7 0.0
0.0 0.0 0.0

-5.592154665104945e6 1.6054309017601e7 0.0
1.6054309017601e7 -4.033314862147278e7 0.0
0.0 0.0 0.0

-5.865106511827853e6 1.6077440335523944e7 0.0
1.6077440335523944e7 1.0538120535952618e7 0.0
0.0 0.0 0.0

-3.331293811293794e6 2.180139076449072e7 0.0
2.180139076449072e7 1.1976151431544775e6 0.0
0.0 0.0 0.0

-4.331935973850763e6 1.719242126056303e7 0.0
1.719242126056303e7 1.5938665994468275e6 0.0
0.0 0.0 0.0

-476777.275734514 1.6948515772070136e7 0.0
1.6948515772070136e7 -8.388274338588652e6 0.0
0.0 0.0 0.0

694566.4407410831 1.6007254753080783e7 0.0
1.6007254753080783e7 -6.594289367391929e6 0.0
0.0 0.0 0.0

-4.96815624332262e6 2.011603292916351e7 0.0
2.011603292916351e7 7.332392079799658e6 0.0
0.0 0.0 0.0

-5.949634373480336e6 1.6701187496563923e7 0.0
1.6701187496563923e7 1.351383091533752e7 0.0
0.0 0.0 0.0

-6.349391826504275e6 1.6098858701552352e7 0.0
1.6098858701552352e7 1.7608240663356915e7 0.0
0.0 0.0 0.0

-2.059634771313116e6 1.3948385330232106e7 0.0
1.3948385330232106e7 -1.3027317558479305e7 0.0
0.0 0.0 0.0

1.0698745437135529e6 1.2786840342451215e7 0.0
1.2786840342451215e7 -1.4371690943682272e7 0.0
0.0 0.0 0.0

-4.179056635392868e6 1.6740111498635774e7 0.0
1.6740111498635774e7 1.192899064564331e7 0.0
0.0 0.0 0.0

2.910207750582833e6 9.013609776476197e6 0.0
9.013609776476197e6 -2.5531399952930756e7 0.0
0.0 0.0 0.0

-1.439364850006558e6 1.5940447640082732e7 0.0
1.5940447640082732e7 -7.539948498916746e6 0.0
0.0 0.0 0.0

-1.1887740576760361e6 2.6212737291913167e7 0.0
2.6212737291913167e7 769507.7928845873 0.0
0.0 0.0 0.0

-586299.9267943194 1.5968973764288438e7 0.0
1.5968973764288438e7 1.3008253203125276e7 0.0
0.0 0.0 0.0

1.5544893111200206e7 2.09154212400803e7 0.0
2.09154212400803e7 5.1816285909306176e7 0.0
0.0 0.0 0.0

-1.4066106997764632e7 1.9636712944202974e7 0.0
1.9636712944202974e7 -4.688700306457454e7 0.0
0.0 0.0 0.0

-4.675841805739891e6 1.5164497299415926e7 0.0
1.5164497299415926e7 1.8311529859104797e6 0.0
0.0 0.0 0.0

-2.269858148390492e7 2.6669465963645738e7 0.0
2.6669465963645738e7 9.429685389535157e6 0.0
0.0 0.0 0.0

-2.8445975111545688e6 1.8921880546415832e7 0.0
1.8921880546415832e7 -2.6226810299671097e6 0.0
0.0 0.0 0.0

-3.3343114317695685e6 1.6776742903510474e7 0.0
1.6776742903510474e7 1.001000225474864e7 0.0
0.0 0.0 0.0

-1.4131525163624212e6 1.6184396555416457e7 0.0
1.6184396555416457e7 1.5064299582661986e7 0.0
0.0 0.0 0.0

2.5808739163634926e6 1.7112942944678217e7 0.0
1.7112942944678217e7 2.8220032345171098e7 0.0
0.0 0.0 0.0

2.628065462652641e6 1.6455018612964023e7 0.0
1.6455018612964023e7 6.3429335814216165e6 0.0
0.0 0.0 0.0

3.2709169432578804e6 1.515373112942475e7 0.0
1.515373112942475e7 1.5219627531149216e7 0.0
0.0 0.0 0.0

267865.2951974799 1.9234264519638415e7 0.0
1.9234264519638415e7 -5.368360854071372e6 0.0
0.0 0.0 0.0

-1.2926066192038725e6 1.5858058135106975e7 0.0
1.5858058135106975e7 9.709232104074208e6 0.0
0.0 0.0 0.0

-4.173914708175854e6 1.6287647512268275e7 0.0
1.6287647512268275e7 1.2109506931006223e7 0.0
0.0 0.0 0.0

-475218.21141387185 2.3772840760003045e7 0.0
2.3772840760003045e7 -777068.2302964121 0.0
0.0 0.0 0.0

388704.2839178294 1.63391511082416e7 0.0
1.63391511082416e7 9.515033434108142e6 0.0
0.0 0.0 0.0

5.147376808776136e6 3.343291556125265e6 0.0
3.343291556125265e6 -1.9533465777801648e7 0.0
0.0 0.0 0.0

-1.0762433823086862e7 1.2058322151113497e7 0.0
1.2058322151113497e7 1.481128084603472e7 0.0
0.0 0.0 0.0

-9.163172805792063e6 -6.727684317803986e6 0.0
-6.727684317803986e6 2.3856396252064113e7 0.0
0.0 0.0 0.0

-7.268731939946257e6 1.6293798723092362e7 0.0
1.6293798723092362e7 1.4872465043580636e7 0.0
0.0 0.0 0.0

-1.9669549674888668e6 2.20889267211389e7 0.0
2.20889267211389e7 -328347.69365963346 0.0
0.0 0.0 0.0

3.189725616155859e6 1.7568034049183354e7 0.0
1.7568034049183354e7 1.1206114935968103e7 0.0
0.0 0.0 0.0

1.3949388360111658e6 1.5221899667065296e7 0.0
1.5221899667065296e7 1.1451587194351636e7 0.0
0.0 0.0 0.0

-4.2163479198931735e6 2.1195723648527212e7 0.0
2.1195723648527212e7 5.7627789494129075e6 0.0
0.0 0.0 0.0

3.8297988203721903e6 4.574391851551851e6 0.0
4.574391851551851e6 -1.1688044670545962e7 0.0
0.0 0.0 0.0

-2.605852554027031e6 2.0557892999758516e7 0.0
2.0557892999758516e7 -1.9109731570740687e6 0.0
0.0 0.0 0.0

3.2269166931879846e6 9.361959267922372e6 0.0
9.361959267922372e6 -1.5663485980333738e7 0.0
0.0 0.0 0.0

-6.809549375805907e6 2.0501286449965604e7 0.0
2.0501286449965604e7 6.499688891734151e6 0.0
0.0 0.0 0.0

315563.16751506156 2.0597020341311436e7 0.0
2.0597020341311436e7 -4.472318722819548e6 0.0
0.0 0.0 0.0

-6.59510408483025e6 1.7708109357847657e7 0.0
1.7708109357847657e7 711070.4433847964 0.0
0.0 0.0 0.0

5.103476506787637e6 2.7108592628594013e6 0.0
2.7108592628594013e6 -3.4931555103096515e7 0.0
0.0 0.0 0.0

2.6251216732948394e6 1.6096718831606416e7 0.0
1.6096718831606416e7 762481.8445350616 0.0
0.0 0.0 0.0

-1.3391265785200947e6 2.1161578517533734e7 0.0
2.1161578517533734e7 -2.2462184021965396e6 0.0
0.0 0.0 0.0

-1.252429180241502e6 1.8718249716004685e7 0.0
1.8718249716004685e7 -5.219769394571236e6 0.0
0.0 0.0 0.0

-729799.2278572829 1.4253891437190223e7 0.0
1.4253891437190223e7 -9.836619955053367e6 0.0
0.0 0.0 0.0

4.452339367778927e6 4.8780023352647545e6 0.0
4.8780023352647545e6 -1.835217310067663e7 0.0
0.0 0.0 0.0

-4.850430685400162e6 1.8340849379003398e7 0.0
1.8340849379003398e7 5.098666032072994e6 0.0
0.0 0.0 0.0

1.8561619970441852e6 1.1030038401232028e7 0.0
1.1030038401232028e7 -2.197024193335686e7 0.0
0.0 0.0 0.0

-9.411829235752728e6 -5.882154717232337e6 0.0
-5.882154717232337e6 2.7032074085779082e7 0.0
0.0 0.0 0.0

-7.069324365536497e6 1.5272211709588896e7 0.0
1.5272211709588896e7 1.3143885371813718e7 0.0
0.0 0.0 0.0

-1.130858439513032e7 1.9940163686898377e7 0.0
1.9940163686898377e7 3.9794716606885837e6 0.0
0.0 0.0 0.0

3.429432925335359e6 5.659108412420389e6 0.0
5.659108412420389e6 -5.140284119137655e7 0.0
0.0 0.0 0.0

-8.643720508419959e6 1.3389886889632383e7 0.0
1.3389886889632383e7 2.460028518620125e7 0.0
0.0 0.0 0.0

-2.881334804901354e6 1.6761241930255095e7 0.0
1.6761241930255095e7 1.4233168433490187e7 0.0
0.0 0.0 0.0

-5.567707975100472e6 1.5424418042787746e7 0.0
1.5424418042787746e7 2.071977425293967e7 0.0
0.0 0.0 0.0

-3.4598059549521096e6 1.6161571637415e7 0.0
1.6161571637415e7 827080.8053274925 0.0
0.0 0.0 0.0

-6.779286068866668e6 1.5766767356124012e7 0.0
1.5766767356124012e7 1.0052259077000588e7 0.0
0.0 0.0 0.0

-557361.6939356208 1.4159055356172958e7 0.0
1.4159055356172958e7 -7.971950694011287e6 0.0
0.0 0.0 0.0

1.309236439171427e6 1.2382454319934122e7 0.0
1.2382454319934122e7 -1.5130018040044257e7 0.0
0.0 0.0 0.0

3.0242386836951952e6 8.672944513556508e6 0.0
8.672944513556508e6 -3.0842350946318794e7 0.0
0.0 0.0 0.0

-9.40744700472777e6 -6.345750523121764e6 0.0
-6.345750523121764e6 2.4943869212855376e7 0.0
0.0 0.0 0.0

-9.587719006568214e6 -4.596109249602294e6 0.0
-4.596109249602294e6 3.2067336309832375e7 0.0
0.0 0.0 0.0

-5.895082654898814e6 1.889383494107027e7 0.0
1.889383494107027e7 1.849589753881482e6 0.0
0.0 0.0 0.0

-415153.7443561326 1.692557499765539e7 0.0
1.692557499765539e7 -8.722123527347967e6 0.0
0.0 0.0 0.0

-4.405158463744462e6 1.5526929593708247e7 0.0
1.5526929593708247e7 2.4443310813397598e7 0.0
0.0 0.0 0.0

-376125.0611969214 1.4060618559198283e7 0.0
1.4060618559198283e7 -5.934104098775646e6 0.0
0.0 0.0 0.0

924230.8892260632 1.854800657312023e7 0.0
1.854800657312023e7 -5.516847313008963e6 0.0
0.0 0.0 0.0

-4.745700077486789e6 1.949767313105196e7 0.0
1.949767313105196e7 5.674686146078978e6 0.0
0.0 0.0 0.0

-7.0429392802957045e6 -5.116623074804079e6 0.0
-5.116623074804079e6 1.4570198331662105e7 0.0
0.0 0.0 0.0

3.3041474716283595e6 3.405471645514445e7 0.0
3.405471645514445e7 -3.748478745328635e6 0.0
0.0 0.0 0.0

299193.90279953275 1.5070362402704481e7 0.0
1.5070362402704481e7 -7.800981783843014e6 0.0
0.0 0.0 0.0

-2.525685947022794e6 1.3963318234968834e7 0.0
1.3963318234968834e7 -3.3115149530502476e7 0.0
0.0 0.0 0.0

5.360387211601242e6 3.7325100292460145e6 0.0
3.7325100292460145e6 -2.27436457135571e7 0.0
0.0 0.0 0.0

-68691.38818164752 1.5167147709494967e7 0.0
1.5167147709494967e7 -4.245445608940658e6 0.0
0.0 0.0 0.0

-8.820242407550901e6 1.4207997631454531e7 0.0
1.4207997631454531e7 1.5372092434228271e7 0.0
0.0 0.0 0.0

-2.0148256035417553e7 1.5287747792566229e7 0.0
1.5287747792566229e7 9.329219357977463e6 0.0
0.0 0.0 0.0

-2.227146391311749e6 1.761072612810346e7 0.0
1.761072612810346e7 -5.471938893382118e6 0.0
0.0 0.0 0.0

2.4957099624120807e6 1.4861605630580435e7 0.0
1.4861605630580435e7 1.2946855468089774e7 0.0
0.0 0.0 0.0

-1.163102564019152e6 1.3982024093130166e7 0.0
1.3982024093130166e7 -1.0486737342333525e7 0.0
0.0 0.0 0.0

-8.248434623152877e6 -2.6735079158443105e6 0.0
-2.6735079158443105e6 1.510660692437784e7 0.0
0.0 0.0 0.0

-1.309155353595811e6 1.5852876971572377e7 0.0
1.5852876971572377e7 -7.304668880149382e6 0.0
0.0 0.0 0.0

-621404.5422641685 1.5548930990161542e7 0.0
1.5548930990161542e7 2.0502690978332958e6 0.0
0.0 0.0 0.0

-2.4428815204210198e6 1.652810799589057e7 0.0
1.652810799589057e7 1.0202738937226862e7 0.0
0.0 0.0 0.0

174109.85574403265 1.437846673897306e7 0.0
1.437846673897306e7 -1.2420850919232057e7 0.0
0.0 0.0 0.0

-4.313173240159153e6 1.6652889694103124e7 0.0
1.6652889694103124e7 1.6017893656100973e7 0.0
0.0 0.0 0.0

-2870.921163288731 1.3445780569040176e7 0.0
1.3445780569040176e7 -544803.3392804074 0.0
0.0 0.0 0.0

-300263.59285679366 1.6863185936098054e7 0.0
1.6863185936098054e7 -8.9899720009821e6 0.0
0.0 0.0 0.0

2.3774741938458188e6 1.5397503358207673e7 0.0
1.5397503358207673e7 -2.6492786415073774e6 0.0
0.0 0.0 0.0

2.1921665544370813e6 1.0787265733476505e7 0.0
1.0787265733476505e7 -1.9753810445015725e7 0.0
0.0 0.0 0.0

-7.433814351448861e6 1.6216340921829615e7 0.0
1.6216340921829615e7 1.403212834405594e7 0.0
0.0 0.0 0.0

-380015.63307818654 1.3585667054771613e7 0.0
1.3585667054771613e7 -6.461101835065771e6 0.0
0.0 0.0 0.0

-3.527385165501712e7 2.125408339966958e7 0.0
2.125408339966958e7 7.188555531224141e6 0.0
0.0 0.0 0.0

-1.4079219664527457e6 1.5893594126877233e7 0.0
1.5893594126877233e7 3.1563531639187813e7 0.0
0.0 0.0 0.0

5.310692586223725e6 2.835860771573053e6 0.0
2.835860771573053e6 -2.5602040046642702e7 0.0
0.0 0.0 0.0

-9.64655855055069e6 -4.761091612632305e6 0.0
-4.761091612632305e6 3.0901345100343563e7 0.0
0.0 0.0 0.0

-953639.1267382652 1.2891514489584683e7 0.0
1.2891514489584683e7 -2.9389796336318728e7 0.0
0.0 0.0 0.0

128417.66038127895 1.3273788984101804e7 0.0
1.3273788984101804e7 -1.9643001359507956e7 0.0
0.0 0.0 0.0

-832236.5386324399 1.6420227209223019e7 0.0
1.6420227209223019e7 -3.5841624341021213e6 0.0
0.0 0.0 0.0

-1.0187334296703763e7 2.2279231713201158e7 0.0
2.2279231713201158e7 -4.700094214154368e6 0.0
0.0 0.0 0.0

-8.750776381143093e6 1.5471180894672045e7 0.0
1.5471180894672045e7 1.808307849985697e7 0.0
0.0 0.0 0.0

-197867.67673740117 1.6741845406153223e7 0.0
1.6741845406153223e7 -9.168448178916067e6 0.0
0.0 0.0 0.0

-9.094676540384931e6 -2.507391781163484e6 0.0
-2.507391781163484e6 4.2293463908202365e7 0.0
0.0 0.0 0.0

-1.079967778520608e7 1.321460887938245e7 0.0
1.321460887938245e7 1.7421750544852257e7 0.0
0.0 0.0 0.0

4.133076561663121e6 4.201274869424748e6 0.0
4.201274869424748e6 -4.791286458502785e7 0.0
0.0 0.0 0.0

-3.3000242440364407e6 2.220057869706222e7 0.0
2.220057869706222e7 1.3140653337292108e6 0.0
0.0 0.0 0.0

4.608769481109707e6 2.9879571506700553e6 0.0
2.9879571506700553e6 -4.136577545062888e7 0.0
0.0 0.0 0.0

-2.126080241291222e7 3.3304355546973564e7 0.0
3.3304355546973564e7 7.044936249220136e6 0.0
0.0 0.0 0.0

-8.969874359048108e6 -2.1243837323081978e6 0.0
-2.1243837323081978e6 4.443599305281795e7 0.0
0.0 0.0 0.0

2.433231752078931e6 1.0984349494205968e7 0.0
1.0984349494205968e7 -1.9605302502975896e7 0.0
0.0 0.0 0.0

-9.046639616164833e6 1.975465797902853e7 0.0
1.975465797902853e7 4.618952818280086e6 0.0
0.0 0.0 0.0

-3.467322511719064e7 1.9940498520083193e7 0.0
1.9940498520083193e7 2.3478034409069046e6 0.0
0.0 0.0 0.0

4.382456015003234e6 3.5244313089059163e6 0.0
3.5244313089059163e6 -4.4454235398314446e7 0.0
0.0 0.0 0.0

-4.386388968711594e6 1.868816244756209e7 0.0
1.868816244756209e7 2.603042938880076e6 0.0
0.0 0.0 0.0

-5.268827151287947e6 1.7518501157314386e7 0.0
1.7518501157314386e7 1.0493202619668148e7 0.0
0.0 0.0 0.0

8.862352743027864e6 1.4425655325468754e7 0.0
1.4425655325468754e7 6.195450458129935e6 0.0
0.0 0.0 0.0

569761.7886127131 1.3168986692598036e7 0.0
1.3168986692598036e7 -1.7723922644682005e7 0.0
0.0 0.0 0.0

-422251.32690859307 1.374639723922659e7 0.0
1.374639723922659e7 -1.8133291444122475e7 0.0
0.0 0.0 0.0

-1.8034033226307142e6 1.837743776541324e7 0.0
1.837743776541324e7 -5.771857970653813e6 0.0
0.0 0.0 0.0

-3.2851509421154624e6 2.2558343001136553e7 0.0
2.2558343001136553e7 1.4621984190678573e6 0.0
0.0 0.0 0.0

-1.2237409747040136e7 8.337739796230373e6 0.0
8.337739796230373e6 2.34052829505236e7 0.0
0.0 0.0 0.0

4.962539004936866e6 2.7204929965597005e6 0.0
2.7204929965597005e6 -3.726675563239966e7 0.0
0.0 0.0 0.0

-9.137341569406964e6 2.521448317782437e7 0.0
2.521448317782437e7 5.643944075570336e6 0.0
0.0 0.0 0.0

4.470279122044807e6 5.616580778197657e6 0.0
5.616580778197657e6 -1.5129197357885912e7 0.0
0.0 0.0 0.0

-593507.4124952042 1.4568402525806615e7 0.0
1.4568402525806615e7 -1.2595968925161071e7 0.0
0.0 0.0 0.0

4.818098757646358e6 2.922818881728739e6 0.0
2.922818881728739e6 -3.8824318139504075e7 0.0
0.0 0.0 0.0

-643111.1540654739 1.4070861068745205e7 0.0
1.4070861068745205e7 -1.6544610296980517e7 0.0
0.0 0.0 0.0

-1.2244311773511613e7 5.597630750106338e6 0.0
5.597630750106338e6 2.6560653253521606e7 0.0
0.0 0.0 0.0

-631629.2598376913 3.2375378570345696e6 0.0
3.2375378570345696e6 -1.4544345391924575e6 0.0
0.0 0.0 0.0

-4.990742203080034e6 1.3896532063136358e7 0.0
1.3896532063136358e7 2.5347899685291094e6 0.0
0.0 0.0 0.0

464630.89552637795 1.6460841011602832e7 0.0
1.6460841011602832e7 1.376488787039094e7 0.0
0.0 0.0 0.0

5.229465742075922e6 2.6582032716130507e6 0.0
2.6582032716130507e6 -2.8057703582309823e7 0.0
0.0 0.0 0.0

-4.881191266729457e6 1.957511297568447e7 0.0
1.957511297568447e7 7.974603197580932e6 0.0
0.0 0.0 0.0

-9.854320706537085e6 -4.828765280263295e6 0.0
-4.828765280263295e6 2.3843927444528993e7 0.0
0.0 0.0 0.0

20442.196346771787 1.4490620947682232e7 0.0
1.4490620947682232e7 -762946.228518459 0.0
0.0 0.0 0.0

2.005631345554703e6 1.118268032208226e7 0.0
1.118268032208226e7 -1.8824899813647754e7 0.0
0.0 0.0 0.0

-6.24729696244326e6 1.6539093592994442e7 0.0
1.6539093592994442e7 1.4358467024186105e7 0.0
0.0 0.0 0.0

-1.2911034510114342e6 1.6114398892841332e7 0.0
1.6114398892841332e7 1.9279970761773586e7 0.0
0.0 0.0 0.0

-558930.5338068852 1.5045900441869827e7 0.0
1.5045900441869827e7 -3.2162645455864104e6 0.0
0.0 0.0 0.0

-1.25758987099462e6 1.8251515665582996e7 0.0
1.8251515665582996e7 -5.598396770466335e6 0.0
0.0 0.0 0.0

-4.486273463332491e6 2.017124340865266e7 0.0
2.017124340865266e7 4.362673770666615e6 0.0
0.0 0.0 0.0

-239202.28302643844 1.5746269105429154e7 0.0
1.5746269105429154e7 -4.51982439784262e6 0.0
0.0 0.0 0.0

1.2187800678285843e7 5.683327990376328e6 0.0
5.683327990376328e6 -2.7877568462383235e6 0.0
0.0 0.0 0.0

-9.310500503680922e6 -2.7408214520546226e6 0.0
-2.7408214520546226e6 4.022476662699696e7 0.0
0.0 0.0 0.0

2.2695507036999753e6 1.701540749439151e7 0.0
1.701540749439151e7 8.25095606012533e6 0.0
0.0 0.0 0.0

-9.575872393436845e6 -4.225201970806328e6 0.0
-4.225201970806328e6 3.3408914580295652e7 0.0
0.0 0.0 0.0

-569576.3155657598 1.58842127462922e7 0.0
1.58842127462922e7 -959265.1767685936 0.0
0.0 0.0 0.0

-9.77345980273794e6 7.645673048301575e6 0.0
7.645673048301575e6 2.235277649384351e7 0.0
0.0 0.0 0.0

-4.444373081759117e6 1.3947623427990252e7 0.0
1.3947623427990252e7 4.34931293653073e6 0.0
0.0 0.0 0.0

939792.4347682118 2.6285133511820547e6 0.0
2.6285133511820547e6 -2.234016456556581e6 0.0
0.0 0.0 0.0

966283.4928154419 2.9573106987546645e6 0.0
2.9573106987546645e6 -2.192131064429561e6 0.0
0.0 0.0 0.0

-169474.64795747353 1.6454009389391823e7 0.0
1.6454009389391823e7 -9.737167717323784e6 0.0
0.0 0.0 0.0

-4.592282091291508e6 1.786487528690377e7 0.0
1.786487528690377e7 -2.437974318157453e6 0.0
0.0 0.0 0.0

11907.0921405158 1.6615312768278362e7 0.0
1.6615312768278362e7 -9.164512079778234e6 0.0
0.0 0.0 0.0

-1.2945928326412998e7 7.015200095119599e6 0.0
7.015200095119599e6 2.1831546816826787e7 0.0
0.0 0.0 0.0

-921958.5966167115 1.4329785981537215e7 0.0
1.4329785981537215e7 -1.1627916267103752e7 0.0
0.0 0.0 0.0

2.122420466192278e6 1.0829793063484468e7 0.0
1.0829793063484468e7 -2.0821146018933304e7 0.0
0.0 0.0 0.0

-4.706061371115288e6 1.912465170078979e7 0.0
1.912465170078979e7 8.550572788405364e6 0.0
0.0 0.0 0.0

1.9900476175095811e6 1.1181883700122358e7 0.0
1.1181883700122358e7 -1.7729958104264747e7 0.0
0.0 0.0 0.0

-7.396546019035496e7 2.58317988710886e7 0.0
2.58317988710886e7 1.3644729870057665e6 0.0
0.0 0.0 0.0

482616.828983536 1.3971632259023823e7 0.0
1.3971632259023823e7 -1.3232817587619647e7 0.0
0.0 0.0 0.0

-4.029743802098927e6 2.5568425338445805e7 0.0
2.5568425338445805e7 2.285777396170572e6 0.0
0.0 0.0 0.0

-687155.2353595796 1.4065235652046015e7 0.0
1.4065235652046015e7 3.731195966874211e6 0.0
0.0 0.0 0.0

-8.14365972297791e6 1.5981823058652196e7 0.0
1.5981823058652196e7 1.6402658926562842e7 0.0
0.0 0.0 0.0

-2.762012642233032e6 1.7418362713619504e7 0.0
1.7418362713619504e7 -7.748468935138651e6 0.0
0.0 0.0 0.0

4.376488219295595e6 2.739484614199357e7 0.0
2.739484614199357e7 -5.226072136077834e6 0.0
0.0 0.0 0.0

-9.636792636799816e6 -5.352642841021201e6 0.0
-5.352642841021201e6 2.891542728084056e7 0.0
0.0 0.0 0.0

5.269168969578501e6 2.8076562806601943e6 0.0
2.8076562806601943e6 -2.628529493336782e7 0.0
0.0 0.0 0.0

-1.7649093420869159e6 1.8656524005768437e7 0.0
1.8656524005768437e7 -3.937783158245374e6 0.0
0.0 0.0 0.0

-6.900404034452327e6 -3.2203887746667988e6 0.0
-3.2203887746667988e6 7.97158569596312e6 0.0
0.0 0.0 0.0

5.153731724797357e6 2.6380213697284553e6 0.0
2.6380213697284553e6 -3.3088236001074694e7 0.0
0.0 0.0 0.0

-9.383617642700378e6 -3.1461336996553247e6 0.0
-3.1461336996553247e6 3.876382102213097e7 0.0
0.0 0.0 0.0

-8.563204093163624e6 -7.488503563251933e6 0.0
-7.488503563251933e6 2.072156679312269e7 0.0
0.0 0.0 0.0

-625207.5937604005 1.3651468152992956e7 0.0
1.3651468152992956e7 -4.440395846303862e6 0.0
0.0 0.0 0.0

-9.688622453860747e6 -5.024401638403199e6 0.0
-5.024401638403199e6 3.0002722607801147e7 0.0
0.0 0.0 0.0

5.243139493530581e6 2.8281728575048773e6 0.0
2.8281728575048773e6 -2.713049056615314e7 0.0
0.0 0.0 0.0

5.21075276850152e6 2.70480461402774e6 0.0
2.70480461402774e6 -3.188129120770803e7 0.0
0.0 0.0 0.0

-9.384589632707128e6 -3.5259965599805866e6 0.0
-3.5259965599805866e6 3.73225767457902e7 0.0
0.0 0.0 0.0

-3.311099410324272e6 1.634806499707933e7 0.0
1.634806499707933e7 -8.676007706996504e6 0.0
0.0 0.0 0.0

-19826.150272191036 1.60592291926579e7 0.0
1.60592291926579e7 -1.0426664749985615e7 0.0
0.0 0.0 0.0

-4.0218557617802797e6 2.040242282118701e7 0.0
2.040242282118701e7 4.727496949257659e6 0.0
0.0 0.0 0.0

5.234469392222699e6 2.6814466683056117e6 0.0
2.6814466683056117e6 -3.107937117486866e7 0.0
0.0 0.0 0.0

-9.40938955466093e6 -3.798479752149968e6 0.0
-3.798479752149968e6 3.5734891781231195e7 0.0
0.0 0.0 0.0

-284559.021678747 1.4007957674384894e7 0.0
1.4007957674384894e7 -3.780216021919678e6 0.0
0.0 0.0 0.0

2.1715139317603726e6 1.1790232397276273e7 0.0
1.1790232397276273e7 -1.6798568422966957e7 0.0
0.0 0.0 0.0

-2.357288623246642e6 1.992047762280208e7 0.0
1.992047762280208e7 -1.5559037004183945e6 0.0
0.0 0.0 0.0

-3.858720029210518e6 1.6039747158596087e7 0.0
1.6039747158596087e7 -465066.15791396156 0.0
0.0 0.0 0.0

-6.146957233361185e6 1.5951458291151047e7 0.0
1.5951458291151047e7 1.8255596090142194e7 0.0
0.0 0.0 0.0

-9.50128499880032e6 -3.965561326584044e6 0.0
-3.965561326584044e6 3.445728687473471e7 0.0
0.0 0.0 0.0

5.277726200138513e6 2.6284335864277575e6 0.0
2.6284335864277575e6 -2.99706722451787e7 0.0
0.0 0.0 0.0

-814986.1735578453 2.1637343484721933e7 0.0
2.1637343484721933e7 -3.116575837255215e6 0.0
0.0 0.0 0.0

-3.0482067938158214e6 1.5798643424978988e7 0.0
1.5798643424978988e7 2.890364629748469e7 0.0
0.0 0.0 0.0

4.216470525156153e7 5.098282491854763e7 0.0
5.098282491854763e7 -2.128069512669854e7 0.0
0.0 0.0 0.0

93876.5514373011 9.507355133926485e6 0.0
9.507355133926485e6 -6.674624852451539e6 0.0
0.0 0.0 0.0

-3.285723189790468e6 2.2092076554495245e7 0.0
2.2092076554495245e7 2.412950835850016e6 0.0
0.0 0.0 0.0

-5.727742300132643e6 1.3680562934372483e6 0.0
1.3680562934372483e6 5.529749034545656e6 0.0
0.0 0.0 0.0

-3.8419734675981877e6 2.0712399964384917e7 0.0
2.0712399964384917e7 4.126909018169642e6 0.0
0.0 0.0 0.0

3.559659540494097e6 3.6337188804232865e6 0.0
3.6337188804232865e6 -1.0341307550127748e7 0.0
0.0 0.0 0.0

3.5286784184163464e6 2.003271073110907e7 0.0
2.003271073110907e7 -4.8474305349281e6 0.0
0.0 0.0 0.0

-491622.0893575037 1.8985674127220333e7 0.0
1.8985674127220333e7 -5.723637145960759e6 0.0
0.0 0.0 0.0

-8.671508831384119e6 1.3278946847523311e7 0.0
1.3278946847523311e7 1.1787428026487269e7 0.0
0.0 0.0 0.0

-583315.9513350005 1.634374726708721e7 0.0
1.634374726708721e7 -1.1618658438912553e6 0.0
0.0 0.0 0.0

-7.884688919518497e6 -1.0513719194253886e6 0.0
-1.0513719194253886e6 4.929547791832021e7 0.0
0.0 0.0 0.0

1.2167866364197389e6 4.116105959995107e6 0.0
4.116105959995107e6 -3.1651027656537686e6 0.0
0.0 0.0 0.0

-3.069840944628816e6 -1.719553140921083e6 0.0
-1.719553140921083e6 1.15462884730684e6 0.0
0.0 0.0 0.0

1.1626597621945874e6 -1.655068550365942e6 0.0
-1.655068550365942e6 -2.420950551671393e6 0.0
0.0 0.0 0.0

-169777.00871293503 1.9171304661560286e7 0.0
1.9171304661560286e7 -5.550443329478934e6 0.0
0.0 0.0 0.0

-2.0452102386879455e6 1.3532074263288338e7 0.0
1.3532074263288338e7 -3.248659048537793e7 0.0
0.0 0.0 0.0

594251.7824539086 1.5959997587823197e7 0.0
1.5959997587823197e7 1.6099385734670976e7 0.0
0.0 0.0 0.0

-1.8493319909205479e6 1.5605808582300507e7 0.0
1.5605808582300507e7 -7.945654682778113e6 0.0
0.0 0.0 0.0

5.066290607195302e6 3.491731474261134e6 0.0
3.491731474261134e6 -1.7372821016952958e7 0.0
0.0 0.0 0.0

-1.0658116411054658e6 1.2758861470992984e7 0.0
1.2758861470992984e7 -3.5859494717166685e6 0.0
0.0 0.0 0.0

108059.43555161776 1.5663393308407279e7 0.0
1.5663393308407279e7 -1.0410197286706012e7 0.0
0.0 0.0 0.0

-645225.8392891455 1.2719892388866322e7 0.0
1.2719892388866322e7 -2.415587248887857e7 0.0
0.0 0.0 0.0

-2.1158550841816934e6 2.0422743619288117e7 0.0
2.0422743619288117e7 -1.7358711588838645e6 0.0
0.0 0.0 0.0

-7.107009863886087e6 1.6028005206464728e7 0.0
1.6028005206464728e7 1.5597880762238324e7 0.0
0.0 0.0 0.0

-678287.7381159301 1.3135427786260605e7 0.0
1.3135427786260605e7 -3.0675156135546616e6 0.0
0.0 0.0 0.0

-271744.36751266243 1.4755268193851225e7 0.0
1.4755268193851225e7 1.6268856323849058e6 0.0
0.0 0.0 0.0

-2.720595543973237e6 1.3314430450893275e7 0.0
1.3314430450893275e7 -1.701571369674705e7 0.0
0.0 0.0 0.0

-1.4316857874538891e7 2.1922698058826093e7 0.0
2.1922698058826093e7 2.2194460453053163e6 0.0
0.0 0.0 0.0

3.179749219395638e6 2.942167162893632e7 0.0
2.942167162893632e7 -4.160353575026286e6 0.0
0.0 0.0 0.0

193456.86275670273 2.28493884280835e6 0.0
2.28493884280835e6 -631702.4954389782 0.0
0.0 0.0 0.0

360530.74235398526 2.0178707632270057e6 0.0
2.0178707632270057e6 -877480.0275332273 0.0
0.0 0.0 0.0

-6.712856719559975e6 1.647296666241439e7 0.0
1.647296666241439e7 1.3993667150215551e7 0.0
0.0 0.0 0.0

-2.46721116611615e6 1.802897482372554e7 0.0
1.802897482372554e7 -4.1399705849524643e6 0.0
0.0 0.0 0.0

-3.0249224222279508e6 2.266663118817155e7 0.0
2.266663118817155e7 2.315714925139348e6 0.0
0.0 0.0 0.0

-3.676257172274404e6 2.098348700093416e7 0.0
2.098348700093416e7 3.5849797170220627e6 0.0
0.0 0.0 0.0

5.277412414708998e6 1.6384716678349657e7 0.0
1.6384716678349657e7 5.444735587504533e6 0.0
0.0 0.0 0.0

1.6257988331646791e6 1.6119353839340584e7 0.0
1.6119353839340584e7 -5.035313853804578e6 0.0
0.0 0.0 0.0

-1.436257710796047e6 1.5144897616772898e7 0.0
1.5144897616772898e7 3.1914184627435338e7 0.0
0.0 0.0 0.0

-2.9181082965966243e7 2.1279595920418363e7 0.0
2.1279595920418363e7 -4.643204474796919e6 0.0
0.0 0.0 0.0

-8.533980243058138e7 2.846714184788243e7 0.0
2.846714184788243e7 9.025586803709872e6 0.0
0.0 0.0 0.0

-8.013676232245186e6 1.2625909174545294e7 0.0
1.2625909174545294e7 9.955995331596669e6 0.0
0.0 0.0 0.0

-4.3412002506998945e6 1.6950096872658882e7 0.0
1.6950096872658882e7 1.1346619592794519e7 0.0
0.0 0.0 0.0

4.083497565864943e6 5.411353012161474e6 0.0
5.411353012161474e6 -1.6211370341802694e7 0.0
0.0 0.0 0.0

-9.5946466141311e6 1.3265263390651187e7 0.0
1.3265263390651187e7 1.5710756829558771e7 0.0
0.0 0.0 0.0

-3.778968578427296e6 -3.2534722474414087e6 0.0
-3.2534722474414087e6 5.13676731578549e6 0.0
0.0 0.0 0.0

2.7830094349173126e6 1.7699961979982577e7 0.0
1.7699961979982577e7 9.372231407923374e6 0.0
0.0 0.0 0.0

-24070.40547158476 1.2812008382776877e7 0.0
1.2812008382776877e7 -2.3750331153650835e7 0.0
0.0 0.0 0.0

4.976312283023988e6 4.926622812568928e6 0.0
4.926622812568928e6 -1.9690220344855227e7 0.0
0.0 0.0 0.0

2.3226707352595683e6 1.5533898147055091e7 0.0
1.5533898147055091e7 3.666147085679557e6 0.0
0.0 0.0 0.0

-5.057563893660553e6 2.976040838947762e6 0.0
2.976040838947762e6 6.532004256827251e7 0.0
0.0 0.0 0.0

-4.586569202718887e6 2.2017115695842307e7 0.0
2.2017115695842307e7 5.762876592679323e6 0.0
0.0 0.0 0.0

-1.2355454875013663e7 1.9045931980704933e7 0.0
1.9045931980704933e7 1.634023253090484e6 0.0
0.0 0.0 0.0

-715397.8330697797 1.8200454927766196e7 0.0
1.8200454927766196e7 -6.734161573100779e6 0.0
0.0 0.0 0.0

-7.030714683734353e6 -8.054794576304185e6 0.0
-8.054794576304185e6 1.7842390311650272e7 0.0
0.0 0.0 0.0

-839947.5976386224 1.3736942709566724e7 0.0
1.3736942709566724e7 4.40382373842361e6 0.0
0.0 0.0 0.0

-9.429408454561131e6 -6.006052093177168e6 0.0
-6.006052093177168e6 2.605485555155327e7 0.0
0.0 0.0 0.0

2.2912822907506404e6 1.633704352707357e7 0.0
1.633704352707357e7 3.3894690702958293e6 0.0
0.0 0.0 0.0

-3.6117470079181814e6 1.763794957050366e7 0.0
1.763794957050366e7 1.187965734204394e6 0.0
0.0 0.0 0.0

5.336714247689703e6 3.882136615010227e6 0.0
3.882136615010227e6 -2.1420345305995584e7 0.0
0.0 0.0 0.0

-3.2244913225336308e6 1.6929614829240665e7 0.0
1.6929614829240665e7 -7.705681976320812e6 0.0
0.0 0.0 0.0

4.911329641255641e6 3.594646376134434e6 0.0
3.594646376134434e6 -1.5855741763515405e7 0.0
0.0 0.0 0.0

681478.694700567 1.3626367872800354e7 0.0
1.3626367872800354e7 -1.537747032105238e7 0.0
0.0 0.0 0.0

-5.487199667261949e6 2.548687344598065e7 0.0
2.548687344598065e7 3.98025451893917e6 0.0
0.0 0.0 0.0

-391481.14773869485 1.1743400487497197e7 0.0
1.1743400487497197e7 -429501.5345418451 0.0
0.0 0.0 0.0

-1.5978665220183851e6 1.789830578053594e7 0.0
1.789830578053594e7 -6.576116320195254e6 0.0
0.0 0.0 0.0

-4.350257842339326e6 2.4335826862403393e7 0.0
2.4335826862403393e7 3.2385412836716194e6 0.0
0.0 0.0 0.0

-4.1687016128263976e6 2.0086653730942465e7 0.0
2.0086653730942465e7 5.417462123240755e6 0.0
0.0 0.0 0.0

-4.1359077527895295e6 2.0703316503630184e7 0.0
2.0703316503630184e7 3.1360992552401675e6 0.0
0.0 0.0 0.0

-2.608263361944234e6 2.4043298347712487e7 0.0
2.4043298347712487e7 781440.2554313772 0.0
0.0 0.0 0.0

-819381.7916301761 1.7360825890315358e7 0.0
1.7360825890315358e7 -7.2693369460086115e6 0.0
0.0 0.0 0.0

-4.514151824933745e6 2.6131642404962707e7 0.0
2.6131642404962707e7 2.4901781208141865e6 0.0
0.0 0.0 0.0

-9.54914465751122e6 8.753266197382078e6 0.0
8.753266197382078e6 1.1159088146255888e7 0.0
0.0 0.0 0.0

1.3104517737272093e6 1.1533820431750184e7 0.0
1.1533820431750184e7 -1.2197945878904717e7 0.0
0.0 0.0 0.0

-8.83815786624818e6 -3.584996907300953e6 0.0
-3.584996907300953e6 1.3065752396314729e7 0.0
0.0 0.0 0.0

-9.186734682814948e6 2.0659444665803503e7 0.0
2.0659444665803503e7 5.099410415456227e6 0.0
0.0 0.0 0.0

-1.0002836708316999e7 -1.7625679498464118e6 0.0
-1.7625679498464118e6 3.552881201360724e7 0.0
0.0 0.0 0.0

-1.0034403594189778e6 2.2332094246688083e7 0.0
2.2332094246688083e7 -2.4985308135429816e6 0.0
0.0 0.0 0.0

1.1358772341521345e6 1.3581152657981882e7 0.0
1.3581152657981882e7 -1.5330838959320903e7 0.0
0.0 0.0 0.0

-698248.7587339538 1.5532640472184177e7 0.0
1.5532640472184177e7 5.860733169315e6 0.0
0.0 0.0 0.0

-775468.9115493139 1.339559720379194e7 0.0
1.339559720379194e7 -7.725121244424299e6 0.0
0.0 0.0 0.0

1.8769838618765315e6 1.1744157892037483e7 0.0
1.1744157892037483e7 -2.058132475344401e7 0.0
0.0 0.0 0.0

3.6212751784597123e6 4.436260700527028e6 0.0
4.436260700527028e6 -1.2031676803755712e7 0.0
0.0 0.0 0.0

311072.8338302991 1.9264580346479412e7 0.0
1.9264580346479412e7 -5.419261710207629e6 0.0
0.0 0.0 0.0

-472509.1887679803 1.5874868802892365e7 0.0
1.5874868802892365e7 3.611876693441402e6 0.0
0.0 0.0 0.0

-3.4962141897751545e6 1.5621922114935542e7 0.0
1.5621922114935542e7 -1.4415291470567246e6 0.0
0.0 0.0 0.0

5.0285314870987665e6 2.6262650971213016e6 0.0
2.6262650971213016e6 -3.5729281934080616e7 0.0
0.0 0.0 0.0

-1.0504666097338751e7 1.3528109899422727e6 0.0
1.3528109899422727e6 1.5975878496964863e7 0.0
0.0 0.0 0.0

4.477312221251793e6 4.404144239384078e6 0.0
4.404144239384078e6 -3.568644592631939e7 0.0
0.0 0.0 0.0

-4.1407728036069977e6 -5.8914134513991745e6 0.0
-5.8914134513991745e6 8.211224094465964e6 0.0
0.0 0.0 0.0

-3.8700825057437685e6 1.74457165779495e7 0.0
1.74457165779495e7 13673.991388428025 0.0
0.0 0.0 0.0

-452755.33438195323 1.5902842773682034e7 0.0
1.5902842773682034e7 1.9300919887378598e6 0.0
0.0 0.0 0.0

-556493.637637713 1.5098719874446116e7 0.0
1.5098719874446116e7 3.951738267188181e6 0.0
0.0 0.0 0.0

-7.4769654965247605e6 1.2307665646923728e7 0.0
1.2307665646923728e7 1.2032649486374166e7 0.0
0.0 0.0 0.0

-8.716042337258294e6 -7.055815318946105e6 0.0
-7.055815318946105e6 2.1233985044763446e7 0.0
0.0 0.0 0.0

503906.82729076105 2.0515235891446594e7 0.0
2.0515235891446594e7 -4.341766001472254e6 0.0
0.0 0.0 0.0

392656.77252421435 1.7234414831111263e7 0.0
1.7234414831111263e7 1.1858655430971272e7 0.0
0.0 0.0 0.0

3.373534615351665e6 7.868496606906189e6 0.0
7.868496606906189e6 -1.79151900941346e7 0.0
0.0 0.0 0.0

-9.395731190501323e6 -5.187562870306968e6 0.0
-5.187562870306968e6 2.3615852267722916e7 0.0
0.0 0.0 0.0

-353924.03448965354 1.6312726201988548e7 0.0
1.6312726201988548e7 9.062807714910002e6 0.0
0.0 0.0 0.0

-7.63635387222562e6 1.3859925152879398e7 0.0
1.3859925152879398e7 2.7543478587570626e7 0.0
0.0 0.0 0.0

1.251037247601596e6 1.715138935209559e7 0.0
1.715138935209559e7 9.062228769543892e6 0.0
0.0 0.0 0.0

-1.3993365730404574e6 1.3039738793994727e7 0.0
1.3039738793994727e7 -3.080714551056953e7 0.0
0.0 0.0 0.0

-6.630149207684853e6 1.6316880403660158e7 0.0
1.6316880403660158e7 1.6828709820154198e7 0.0
0.0 0.0 0.0

-1.4468557826383458e6 1.5792066724851655e7 0.0
1.5792066724851655e7 1.1315445162081791e7 0.0
0.0 0.0 0.0

-18581.681295110844 1.693042114247186e7 0.0
1.693042114247186e7 -8.715719925171945e6 0.0
0.0 0.0 0.0

-1.2061902640581292e6 1.6869370820126027e7 0.0
1.6869370820126027e7 -3.8096783305947734e6 0.0
0.0 0.0 0.0

3.418347858486673e6 7.577628731265799e6 0.0
7.577628731265799e6 -2.7372636310244054e7 0.0
0.0 0.0 0.0

3.626265205631947e6 6.977869530560093e6 0.0
6.977869530560093e6 -2.8643707517214037e7 0.0
0.0 0.0 0.0

-1315.5560321900994 1.3162336172606468e7 0.0
1.3162336172606468e7 -7.362120308356291e6 0.0
0.0 0.0 0.0

-1.1079690231154311e7 1.384701277749987e7 0.0
1.384701277749987e7 2.0371486008115593e7 0.0
0.0 0.0 0.0

-483357.364667309 1.6067463775067044e7 0.0
1.6067463775067044e7 -1.0366572443120845e7 0.0
0.0 0.0 0.0

-8.68812124266956e6 1.578006398802304e6 0.0
1.578006398802304e6 4.674923425239485e7 0.0
0.0 0.0 0.0

437356.18757109717 1.22547009433984e7 0.0
1.22547009433984e7 -2.0723265322822478e7 0.0
0.0 0.0 0.0

-2.0294201456559077e6 1.259244396103901e7 0.0
1.259244396103901e7 4.45337771243856e7 0.0
0.0 0.0 0.0

5.09851556396687e6 2.724477195039048e6 0.0
2.724477195039048e6 -3.432350365051553e7 0.0
0.0 0.0 0.0

-1.1029197729648575e6 1.8093560645818505e7 0.0
1.8093560645818505e7 -6.543340385682909e6 0.0
0.0 0.0 0.0

311698.84669150645 1.6979447738907263e7 0.0
1.6979447738907263e7 9.789113999697367e6 0.0
0.0 0.0 0.0

-2.683844181239698e6 1.3933084748701744e7 0.0
1.3933084748701744e7 -2.8065193669230558e7 0.0
0.0 0.0 0.0

4.168932750427079e6 9.597590428955104e6 0.0
9.597590428955104e6 1.7587026111165597e6 0.0
0.0 0.0 0.0

-974137.0768145685 1.622639753858376e7 0.0
1.622639753858376e7 -4.865103537917461e6 0.0
0.0 0.0 0.0

-318491.4662317969 1.6711960942967534e7 0.0
1.6711960942967534e7 1.0119584921886431e7 0.0
0.0 0.0 0.0

-5.105336261327947e6 1.7821189902836975e7 0.0
1.7821189902836975e7 8.423936097960861e6 0.0
0.0 0.0 0.0

-4.989311928694472e6 1.6892915041552067e7 0.0
1.6892915041552067e7 1.18640537672707e7 0.0
0.0 0.0 0.0

1.09989330740623e6 1.064767903856374e7 0.0
1.064767903856374e7 -1.0892023480408665e7 0.0
0.0 0.0 0.0

-1.2550247205527056e7 1.2229494534581507e7 0.0
1.2229494534581507e7 1.8923043371092785e7 0.0
0.0 0.0 0.0

-772582.7137283795 1.2628353279022135e7 0.0
1.2628353279022135e7 -2.8998006372564644e7 0.0
0.0 0.0 0.0

-1.3121143345667082e6 1.6095121385696791e7 0.0
1.6095121385696791e7 -7.245383943933226e6 0.0
0.0 0.0 0.0

-5.144191530368527e6 1.810409084882925e7 0.0
1.810409084882925e7 4.839582863611423e6 0.0
0.0 0.0 0.0

710182.0694976579 9.504525713215003e6 0.0
9.504525713215003e6 -6.892457720994611e6 0.0
0.0 0.0 0.0

-7.68261035497896e6 4.534227822886039e6 0.0
4.534227822886039e6 6.213070010295275e7 0.0
0.0 0.0 0.0

-2.9207180048302244e6 1.4123081700457877e7 0.0
1.4123081700457877e7 -3.435267780055997e7 0.0
0.0 0.0 0.0

-6.147813020952909e6 1.6041034474582134e7 0.0
1.6041034474582134e7 1.8364734971295964e7 0.0
0.0 0.0 0.0

-3.226505275163808e6 2.294737191903749e7 0.0
2.294737191903749e7 1.6046933155745103e6 0.0
0.0 0.0 0.0

9.29031571704063e6 1.7383665650009226e7 0.0
1.7383665650009226e7 5.501402655125797e6 0.0
0.0 0.0 0.0

-4.817337626581447e6 1.5744365037368882e7 0.0
1.5744365037368882e7 2.293766515193228e7 0.0
0.0 0.0 0.0

-6.500886282404498e6 1.624061223293692e7 0.0
1.624061223293692e7 1.4109315385135632e7 0.0
0.0 0.0 0.0

881870.7751070801 1.2290035372070927e7 0.0
1.2290035372070927e7 -1.190049257622455e7 0.0
0.0 0.0 0.0

-1.6348955446103746e6 1.5547244841368504e7 0.0
1.5547244841368504e7 -8.210843729329342e6 0.0
0.0 0.0 0.0

-7.285155302002884e6 1.4949755383678095e7 0.0
1.4949755383678095e7 1.0356680493427042e7 0.0
0.0 0.0 0.0

-7.361695306620062e6 1.370916503581818e7 0.0
1.370916503581818e7 1.2449378305407958e7 0.0
0.0 0.0 0.0

4.7915009038280435e6 4.002387494741968e6 0.0
4.002387494741968e6 -2.0181867073995568e7 0.0
0.0 0.0 0.0

-4.709242162896264e6 1.9676456082257684e7 0.0
1.9676456082257684e7 8.131038070971847e6 0.0
0.0 0.0 0.0

-802182.9568156169 1.2107951892137196e7 0.0
1.2107951892137196e7 -2.361284105560728e6 0.0
0.0 0.0 0.0

4.926673552299989e6 4.220092589441614e6 0.0
4.220092589441614e6 -1.5314116711696912e7 0.0
0.0 0.0 0.0

-1.626076247783354e6 2.169691064301666e7 0.0
2.169691064301666e7 -2.41878533354923e6 0.0
0.0 0.0 0.0

609336.5625626189 1.729139592173459e7 0.0
1.729139592173459e7 1.0962027685111819e7 0.0
0.0 0.0 0.0

-9.416728090102334e6 -294316.7207557338 0.0
-294316.7207557338 4.059544718053327e7 0.0
0.0 0.0 0.0

2.789803786522842e6 1.7948617870408583e7 0.0
1.7948617870408583e7 7.6290919572974e6 0.0
0.0 0.0 0.0

1.9133269358538105e6 1.683340202896988e7 0.0
1.683340202896988e7 5.714545980821104e6 0.0
0.0 0.0 0.0

-26222.833382246085 1.5068818101615941e7 0.0
1.5068818101615941e7 -1.0625058431992142e7 0.0
0.0 0.0 0.0

4.98133018633954e6 3.781826173259089e6 0.0
3.781826173259089e6 -2.5728654744834233e7 0.0
0.0 0.0 0.0

725365.1119730333 1.4548989859035661e7 0.0
1.4548989859035661e7 6.62756655289485e6 0.0
0.0 0.0 0.0

-8703.19223715784 1.5410761269308966e7 0.0
1.5410761269308966e7 -9.813232117057147e6 0.0
0.0 0.0 0.0

-538110.1366977422 1.5329188525497328e7 0.0
1.5329188525497328e7 6.8329342623544e6 0.0
0.0 0.0 0.0

-8.207236056304762e6 4.026261339307956e6 0.0
4.026261339307956e6 1.1445890326426994e7 0.0
0.0 0.0 0.0

-4.0485270282871122e6 -4.748893302290911e6 0.0
-4.748893302290911e6 7.804687994705727e6 0.0
0.0 0.0 0.0

-3.956505132739423e6 1.7511615779465713e7 0.0
1.7511615779465713e7 2.7363554495021594e6 0.0
0.0 0.0 0.0

1.8317890284113735e6 1.217691162821842e7 0.0
1.217691162821842e7 -1.7947906646565754e7 0.0
0.0 0.0 0.0

-1.4216054730737074e6 1.4102877365066897e7 0.0
1.4102877365066897e7 -1.2324745492556453e7 0.0
0.0 0.0 0.0

-7.948623582341578e6 1.1161148871465286e6 0.0
1.1161148871465286e6 6.0460072884945445e7 0.0
0.0 0.0 0.0

-5.325547515656877e6 2.676885330152085e7 0.0
2.676885330152085e7 2.639899706045709e6 0.0
0.0 0.0 0.0

1.2396434753976092e6 5.517903163935621e6 0.0
5.517903163935621e6 -3.9581838405537684e6 0.0
0.0 0.0 0.0

-711262.5268149339 1.6050546263219446e7 0.0
1.6050546263219446e7 400469.90424409497 0.0
0.0 0.0 0.0

-609728.2471240759 1.6311898723794643e7 0.0
1.6311898723794643e7 8.78743332059246e6 0.0
0.0 0.0 0.0

-1.1261842443257334e7 1.3885050969454024e7 0.0
1.3885050969454024e7 1.8933910729740683e7 0.0
0.0 0.0 0.0

-9.535070417859253e6 2.02356094945387e7 0.0
2.02356094945387e7 3.544494223283461e6 0.0
0.0 0.0 0.0

778754.3525242945 1.6947401767647658e7 0.0
1.6947401767647658e7 6.97800718029894e6 0.0
0.0 0.0 0.0

-862499.8197524855 1.669068748066256e7 0.0
1.669068748066256e7 8.397858605804283e6 0.0
0.0 0.0 0.0

431843.02018877305 1.4945161048934853e7 0.0
1.4945161048934853e7 -1.2912643215598442e7 0.0
0.0 0.0 0.0

2.539075317654344e6 5.383368219259867e6 0.0
5.383368219259867e6 -9.72833369568111e6 0.0
0.0 0.0 0.0

-59638.032568831 1.5076253319777666e7 0.0
1.5076253319777666e7 -1.1852126251377681e7 0.0
0.0 0.0 0.0

-1.1353292033422308e6 1.6990313902866486e7 0.0
1.6990313902866486e7 -8.1697963979626745e6 0.0
0.0 0.0 0.0

-4.1130630630759234e6 1.944574950936097e7 0.0
1.944574950936097e7 4.711579918447761e6 0.0
0.0 0.0 0.0

-194161.72100208513 1.7659965156091765e7 0.0
1.7659965156091765e7 -7.441971153240332e6 0.0
0.0 0.0 0.0

-416022.9145847601 1.7120138025509134e7 0.0
1.7120138025509134e7 -8.11484554147191e6 0.0
0.0 0.0 0.0

5.044996643803666e6 4.49792929552362e6 0.0
4.49792929552362e6 -2.3452182313628465e7 0.0
0.0 0.0 0.0

561495.778755887 1.6010271305815648e7 0.0
1.6010271305815648e7 4.833757109752462e6 0.0
0.0 0.0 0.0

-1.3917650674215434e6 1.7427129358994216e7 0.0
1.7427129358994216e7 -7.3300801852671765e6 0.0
0.0 0.0 0.0

-1.2362978602600759e7 9.700082382533526e6 0.0
9.700082382533526e6 1.5803566915202007e7 0.0
0.0 0.0 0.0

-6.266085920628651e7 2.3685878318856265e7 0.0
2.3685878318856265e7 -250992.49916759878 0.0
0.0 0.0 0.0

2.1983187359697785e7 2.5285798373179957e7 0.0
2.5285798373179957e7 7.32774559557749e7 0.0
0.0 0.0 0.0

-1.8458489280652735e7 2.2645838986492246e7 0.0
2.2645838986492246e7 -6.15284352573031e7 0.0
0.0 0.0 0.0

-7.584859411910792e6 1.5939151440454397e7 0.0
1.5939151440454397e7 1.6408927917864403e7 0.0
0.0 0.0 0.0

1.5559130332755512e6 1.1991758157104796e7 0.0
1.1991758157104796e7 -1.5938482909678599e7 0.0
0.0 0.0 0.0

-2.0615174833611948e6 1.6464594765681973e7 0.0
1.6464594765681973e7 -7.936004379810686e6 0.0
0.0 0.0 0.0

-1.7489599707912134e6 2.6768095720653288e7 0.0
2.6768095720653288e7 -1.1314586483040857e6 0.0
0.0 0.0 0.0

-291892.50002596155 1.390043789568439e7 0.0
1.390043789568439e7 -1.5132915152899431e7 0.0
0.0 0.0 0.0

-1.8309887265126961e6 1.7201253022078324e7 0.0
1.7201253022078324e7 -4.712154294396569e6 0.0
0.0 0.0 0.0

-1.191802796735466e7 1.1782184625435377e7 0.0
1.1782184625435377e7 1.648262139808372e7 0.0
0.0 0.0 0.0

-2.695536845562289e6 1.955959066171791e7 0.0
1.955959066171791e7 -681039.515037334 0.0
0.0 0.0 0.0

-347677.3860428361 1.3245525536351085e7 0.0
1.3245525536351085e7 -2.2025533861383103e7 0.0
0.0 0.0 0.0

-524382.2096425536 1.6303785758412292e7 0.0
1.6303785758412292e7 -4.598337071402536e6 0.0
0.0 0.0 0.0

-5.655034309984434e6 1.779541093241263e7 0.0
1.779541093241263e7 9.228417293452712e6 0.0
0.0 0.0 0.0

9.0876872406818e6 1.671574108043481e7 0.0
1.671574108043481e7 -3.1806210739643364e6 0.0
0.0 0.0 0.0

-641720.4392933806 1.4661256180130875e7 0.0
1.4661256180130875e7 4.8997544336459115e6 0.0
0.0 0.0 0.0

-7.170642294593263e6 1.5882787772101874e7 0.0
1.5882787772101874e7 1.5047959239619084e7 0.0
0.0 0.0 0.0

-1.4181275484296402e7 1.9007512452638254e7 0.0
1.9007512452638254e7 28773.055839545093 0.0
0.0 0.0 0.0

-622525.8384170614 1.4866971054139655e7 0.0
1.4866971054139655e7 4.947723479607433e6 0.0
0.0 0.0 0.0

-1.321784545012509e6 2.201860326013774e7 0.0
2.201860326013774e7 -2.316645671831029e6 0.0
0.0 0.0 0.0

3.0310445093623195e6 2.0208688623993322e7 0.0
2.0208688623993322e7 -5.121713035374881e6 0.0
0.0 0.0 0.0

1.8429314797842083e6 1.1536326411318671e7 0.0
1.1536326411318671e7 -1.2375157357923418e7 0.0
0.0 0.0 0.0

-8.458373508921864e6 1.5515395425640814e7 0.0
1.5515395425640814e7 1.9045220995438073e7 0.0
0.0 0.0 0.0

-264.3006837144494 1.4628378235973377e7 0.0
1.4628378235973377e7 -1.33602329657413e7 0.0
0.0 0.0 0.0

-4.129681284076793e6 1.4388236463418484e7 0.0
1.4388236463418484e7 3.333402546136107e6 0.0
0.0 0.0 0.0

-8.141745728109109e6 1.4625591074989114e7 0.0
1.4625591074989114e7 1.2222468891835984e7 0.0
0.0 0.0 0.0

2.146486795570975e6 6.804552837170017e6 0.0
6.804552837170017e6 -7.61460001791794e6 0.0
0.0 0.0 0.0

-398488.0912447416 1.5250804426968852e7 0.0
1.5250804426968852e7 5.619413038096897e6 0.0
0.0 0.0 0.0

279016.8885829088 1.990606996898809e7 0.0
1.990606996898809e7 -4.955492484081276e6 0.0
0.0 0.0 0.0

1.9224108735501338e6 9.930828091964848e6 0.0
9.930828091964848e6 -3.987758253086843e7 0.0
0.0 0.0 0.0

-1.216783086179407e7 9.160563197777854e6 0.0
9.160563197777854e6 1.516421422136543e7 0.0
0.0 0.0 0.0

7.493857778622579e6 2.8043473198251713e7 0.0
2.8043473198251713e7 -6.8496319353687465e6 0.0
0.0 0.0 0.0

4.2150500629609525e6 7.051188922953225e6 0.0
7.051188922953225e6 -2.6641575721138213e7 0.0
0.0 0.0 0.0

-399777.6794188372 1.5064526874210788e7 0.0
1.5064526874210788e7 4.3970243747374965e6 0.0
0.0 0.0 0.0

-692700.0669484099 1.8459757561064776e7 0.0
1.8459757561064776e7 -6.416807080999155e6 0.0
0.0 0.0 0.0

8.064671724827994e6 1.9482644954441216e7 0.0
1.9482644954441216e7 1.0978376222722389e8 0.0
0.0 0.0 0.0

-8.133127013397802e6 1.8502062236401387e7 0.0
1.8502062236401387e7 -8.799894821223675e7 0.0
0.0 0.0 0.0

1.667190252701947e7 1.6090982867037678e7 0.0
1.6090982867037678e7 3.667901136741301e6 0.0
0.0 0.0 0.0

4.209829570440675e6 1.9707031123720873e7 0.0
1.9707031123720873e7 -5.45472299705464e6 0.0
0.0 0.0 0.0

786688.819158026 9.088493264368897e6 0.0
9.088493264368897e6 -6.256724866378769e6 0.0
0.0 0.0 0.0

8.50681844525389e6 2.548425525903349e7 0.0
2.548425525903349e7 -7.215559841788341e6 0.0
0.0 0.0 0.0

-3.9385565813108385e6 1.6700274315259978e7 0.0
1.6700274315259978e7 1.3334430191918373e7 0.0
0.0 0.0 0.0

7.401211856298286e6 1.6529444504502485e7 0.0
1.6529444504502485e7 -2.673610995210781e6 0.0
0.0 0.0 0.0

-4.90026578937918e6 1.9090784371513505e7 0.0
1.9090784371513505e7 6.366868656552189e6 0.0
0.0 0.0 0.0

-6.757498797927695e6 1.3163495309518356e7 0.0
1.3163495309518356e7 1.0772017955538549e7 0.0
0.0 0.0 0.0

887727.0773357153 4.168682297353138e6 0.0
4.168682297353138e6 -4.428396940421888e6 0.0
0.0 0.0 0.0

924828.0927883531 1.744386458407049e7 0.0
1.744386458407049e7 1.192044832708421e7 0.0
0.0 0.0 0.0

-2.144005366415414e6 1.9372660869017236e7 0.0
1.9372660869017236e7 -3.787482412979281e6 0.0
0.0 0.0 0.0

-7.897682383826693e6 1.6004215884191416e7 0.0
1.6004215884191416e7 1.722932860881762e7 0.0
0.0 0.0 0.0

-5.373592305858432e6 1.9849357069096312e7 0.0
1.9849357069096312e7 7.7815282592493e6 0.0
0.0 0.0 0.0

-4.477449391094137e6 1.8836668659446094e7 0.0
1.8836668659446094e7 6.825070869930922e6 0.0
0.0 0.0 0.0

-1.0608024646778335e6 1.3189442203627223e7 0.0
1.3189442203627223e7 -5.163248325981158e6 0.0
0.0 0.0 0.0

-5.8983075419760095e6 1.5954344576006731e7 0.0
1.5954344576006731e7 1.9117282484391145e7 0.0
0.0 0.0 0.0

-4.531493756587507e6 1.943584944645115e7 0.0
1.943584944645115e7 7.407359352782266e6 0.0
0.0 0.0 0.0

-4.317491724105763e6 1.0187967908844862e7 0.0
1.0187967908844862e7 4.550227337386553e6 0.0
0.0 0.0 0.0

-2.8284550147203997e7 2.3831216618861567e7 0.0
2.3831216618861567e7 3.012606921746107e6 0.0
0.0 0.0 0.0

-9.822055487933375e6 2.269510151085894e6 0.0
2.269510151085894e6 4.0468365728809945e7 0.0
0.0 0.0 0.0

-6.501409970483755e6 2.002567447035447e7 0.0
2.002567447035447e7 6.841221625041471e6 0.0
0.0 0.0 0.0

-6.346934629595993e6 2.356681494034061e7 0.0
2.356681494034061e7 6.113838303099798e6 0.0
0.0 0.0 0.0

730487.1240183515 1.2834692436043495e7 0.0
1.2834692436043495e7 -2.0149405605116673e7 0.0
0.0 0.0 0.0

-3.396475296003297e6 2.5048824457210705e7 0.0
2.5048824457210705e7 2.8539137811100753e6 0.0
0.0 0.0 0.0

-6.570610555710094e6 2.7560082712985154e7 0.0
2.7560082712985154e7 2.691157145112836e6 0.0
0.0 0.0 0.0

-7.844107179158915e6 2.829387697803681e7 0.0
2.829387697803681e7 2.97591402987934e6 0.0
0.0 0.0 0.0

-2.751594345636383e6 2.0944098353497658e7 0.0
2.0944098353497658e7 -1.1774107822731088e6 0.0
0.0 0.0 0.0

-1.2292642395231564e7 9.43218365337128e6 0.0
9.43218365337128e6 2.2402264548761483e7 0.0
0.0 0.0 0.0

5.273421576798069e6 3.1060464300276064e6 0.0
3.1060464300276064e6 -2.2025465920566645e7 0.0
0.0 0.0 0.0

-6.541545344499585e6 1.6259854713167801e7 0.0
1.6259854713167801e7 1.7189183488974944e7 0.0
0.0 0.0 0.0

-1.4945956252001005e6 2.257294655486075e7 0.0
2.257294655486075e7 -1.71152830590175e6 0.0
0.0 0.0 0.0

845095.6422225293 1.327389644754848e7 0.0
1.327389644754848e7 -1.6264522969556505e7 0.0
0.0 0.0 0.0

-9.942912924718471e6 -3.3166104605230466e6 0.0
-3.3166104605230466e6 3.0931172114495117e7 0.0
0.0 0.0 0.0

72566.78972078131 1.5743293441659546e7 0.0
1.5743293441659546e7 442879.5598107023 0.0
0.0 0.0 0.0

-97728.32434515562 1.5801101759124147e7 0.0
1.5801101759124147e7 -9.158114461379817e6 0.0
0.0 0.0 0.0

-7068.947563239839 1.4734536978500314e7 0.0
1.4734536978500314e7 -1.136430830677093e7 0.0
0.0 0.0 0.0

-1.6229626980686705e6 1.282208656065239e7 0.0
1.282208656065239e7 -1.0587651643179052e7 0.0
0.0 0.0 0.0

-6.433874273658669e6 -4.009884180723092e6 0.0
-4.009884180723092e6 9.358699747785475e6 0.0
0.0 0.0 0.0

140132.93961519876 1.3330642973147921e7 0.0
1.3330642973147921e7 -2.5687211834328347e6 0.0
0.0 0.0 0.0

725330.9809822491 1.5104253280957546e7 0.0
1.5104253280957546e7 4.2244298818444405e6 0.0
0.0 0.0 0.0

1.0324010545241421e7 1.5273749188036004e7 0.0
1.5273749188036004e7 1.7717360146191793e6 0.0
0.0 0.0 0.0

-8.872501809441706e6 2.9650791879740722e7 0.0
2.9650791879740722e7 3.458831470453694e6 0.0
0.0 0.0 0.0

-7.087070488616548e6 1.343077587309778e7 0.0
1.343077587309778e7 1.1669393798480053e7 0.0
0.0 0.0 0.0

-4.982566292414632e6 1.5477389286506128e7 0.0
1.5477389286506128e7 -3.831624287866606e7 0.0
0.0 0.0 0.0

4.47449662650878e6 6.544064384889768e6 0.0
6.544064384889768e6 -2.2671354483847044e7 0.0
0.0 0.0 0.0

-7.53382217368937e6 -8.10507053998248e6 0.0
-8.10507053998248e6 1.760662287610134e7 0.0
0.0 0.0 0.0

-1.3216536927695049e7 2.278230375321098e7 0.0
2.278230375321098e7 -955391.9960342101 0.0
0.0 0.0 0.0

-1.282658108867244e7 1.9593032507241096e7 0.0
1.9593032507241096e7 -1.5987379155753935e6 0.0
0.0 0.0 0.0

-779182.9973933315 1.3738530053983416e7 0.0
1.3738530053983416e7 -6.61482085360756e6 0.0
0.0 0.0 0.0

-2.3750145310940356e6 2.229744686801206e7 0.0
2.229744686801206e7 -681373.9000512029 0.0
0.0 0.0 0.0

3.3190152497677114e6 6.367385311116842e6 0.0
6.367385311116842e6 -3.834076142489619e7 0.0
0.0 0.0 0.0

3.4764732175862086e6 1.764925136835277e7 0.0
1.764925136835277e7 -4.358240589693164e6 0.0
0.0 0.0 0.0

1.3853656479743673e6 1.7390424063520934e7 0.0
1.7390424063520934e7 7.648234306981507e6 0.0
0.0 0.0 0.0

2.1175505989935324e6 1.1814245068719773e7 0.0
1.1814245068719773e7 -1.5714500405941365e7 0.0
0.0 0.0 0.0

-3.324668404541332e6 1.8472530403730564e7 0.0
1.8472530403730564e7 913469.1211912488 0.0
0.0 0.0 0.0

1.8644211070246156e6 1.118738375271838e7 0.0
1.118738375271838e7 -1.1750994260538721e7 0.0
0.0 0.0 0.0

1.7305487776993895e6 1.1616312542574503e7 0.0
1.1616312542574503e7 -1.687719047255889e7 0.0
0.0 0.0 0.0

-797025.8625133685 1.3476020423975607e7 0.0
1.3476020423975607e7 -1.1333452881527498e7 0.0
0.0 0.0 0.0

-6.607535400949702e6 2.282573036040846e7 0.0
2.282573036040846e7 5.793690003299358e6 0.0
0.0 0.0 0.0

-9.02823069774266e6 1.81611894704768e7 0.0
1.81611894704768e7 -4.442994005495222e7 0.0
0.0 0.0 0.0

6.33773686941183e6 2.5191969992752146e7 0.0
2.5191969992752146e7 -5.390177250798975e6 0.0
0.0 0.0 0.0

1.0307077940739754e6 1.9912358956659604e7 0.0
1.9912358956659604e7 -4.926477363305799e6 0.0
0.0 0.0 0.0

-3.382287193625038e6 2.3638721951337356e7 0.0
2.3638721951337356e7 3.136117061691446e6 0.0
0.0 0.0 0.0

-5.030987973492613e6 1.899750316432167e7 0.0
1.899750316432167e7 8.422533751043033e6 0.0
0.0 0.0 0.0

3.487028722120274e6 5.495966813082893e6 0.0
5.495966813082893e6 -3.981343784189088e7 0.0
0.0 0.0 0.0

-5.219572254349993e6 1.7514251818934284e7 0.0
1.7514251818934284e7 1.1269765410809636e7 0.0
0.0 0.0 0.0

4.140810419740569e6 5.3291844606069755e6 0.0
5.3291844606069755e6 -3.255867415838183e7 0.0
0.0 0.0 0.0

-1.24175943270044e6 1.656063831509122e7 0.0
1.656063831509122e7 -6.191102902624036e6 0.0
0.0 0.0 0.0

-1.0314394090932793e6 1.6007333678483855e7 0.0
1.6007333678483855e7 -6.498471334653117e6 0.0
0.0 0.0 0.0

-182693.69374794012 1.296736301275051e7 0.0
1.296736301275051e7 -3.2963648474447397e6 0.0
0.0 0.0 0.0

-4.915612889509378e6 1.6394553391136905e7 0.0
1.6394553391136905e7 1.2295858275255501e7 0.0
0.0 0.0 0.0

-3.2221731572550014e6 2.0251502158802364e7 0.0
2.0251502158802364e7 -613274.3047059218 0.0
0.0 0.0 0.0

-6.226800569881245e6 1.6551464289736997e7 0.0
1.6551464289736997e7 1.0430798977802092e7 0.0
0.0 0.0 0.0

-8.30736701306154e6 -7.310292931655183e6 0.0
-7.310292931655183e6 2.1829275456761986e7 0.0
0.0 0.0 0.0

4.058859030036548e6 6.324145636595458e6 0.0
6.324145636595458e6 -2.3978981010887347e7 0.0
0.0 0.0 0.0

3.4063222230433077e6 8.047019252405434e6 0.0
8.047019252405434e6 -1.9223574259178825e7 0.0
0.0 0.0 0.0

-1.7983866700903298e6 2.404585375139815e7 0.0
2.404585375139815e7 45006.69262552587 0.0
0.0 0.0 0.0

-1.2712471833442086e6 1.6417096700963516e7 0.0
1.6417096700963516e7 -6.876625587223856e6 0.0
0.0 0.0 0.0

1.3487185728371106e6 1.2305393306834348e7 0.0
1.2305393306834348e7 -2.0385814174859956e7 0.0
0.0 0.0 0.0

-1.3064943049121527e6 1.659481369596871e7 0.0
1.659481369596871e7 1.2453388461023575e7 0.0
0.0 0.0 0.0

-9.182986651509117e6 77068.30953434751 0.0
77068.30953434751 1.4310511207668275e7 0.0
0.0 0.0 0.0

1.37731972449982e6 1.8006038590988357e7 0.0
1.8006038590988357e7 9.006747487229062e6 0.0
0.0 0.0 0.0

-1.185468952291562e7 2.486759649739121e7 0.0
2.486759649739121e7 7.759572558398094e6 0.0
0.0 0.0 0.0

1.2535012469811728e6 1.5694204690966891e7 0.0
1.5694204690966891e7 4.4967165286804e6 0.0
0.0 0.0 0.0

220751.45175283635 1.5027711360309588e7 0.0
1.5027711360309588e7 8.012905563551834e6 0.0
0.0 0.0 0.0

-5.006005869891032e6 2.2355255777716525e7 0.0
2.2355255777716525e7 5.663392938118249e6 0.0
0.0 0.0 0.0

-5.550223909961304e6 1.6853658891888864e7 0.0
1.6853658891888864e7 1.2572391236411128e7 0.0
0.0 0.0 0.0

-5.288655409599732e6 1.5052709986582253e7 0.0
1.5052709986582253e7 2.205800000139642e7 0.0
0.0 0.0 0.0

-1.1815827504320882e7 2.021894771767757e7 0.0
2.021894771767757e7 -141969.595851894 0.0
0.0 0.0 0.0

-9.909521488667987e6 1.8976861513390217e7 0.0
1.8976861513390217e7 2.6844457152921916e6 0.0
0.0 0.0 0.0

-1.095586318458164e7 1.131451423470885e7 0.0
1.131451423470885e7 6.444287713669494e6 0.0
0.0 0.0 0.0

-5.577584607845823e7 2.6166042274404872e7 0.0
2.6166042274404872e7 4.612802992623791e6 0.0
0.0 0.0 0.0

5.920981300037157e6 1.5634089930683106e7 0.0
1.5634089930683106e7 3.0821203319277344e6 0.0
0.0 0.0 0.0

30065.34886343032 1.303625296747001e7 0.0
1.303625296747001e7 -2.0514029986326754e7 0.0
0.0 0.0 0.0

-5.0481195951751135e6 1.858180875967837e7 0.0
1.858180875967837e7 6.454815708063665e6 0.0
0.0 0.0 0.0

-297447.3597845533 1.5655019311095227e7 0.0
1.5655019311095227e7 -1.1229755498397313e7 0.0
0.0 0.0 0.0

2.6633532111948527e7 1.292382575065364e7 0.0
1.292382575065364e7 86336.16854660399 0.0
0.0 0.0 0.0

-2.589838440635997e6 1.2470850160607246e6 0.0
1.2470850160607246e6 3.718763165442935e6 0.0
0.0 0.0 0.0

3.7757206281323624e6 3.5487851695827823e6 0.0
3.5487851695827823e6 -1.1130556171462663e7 0.0
0.0 0.0 0.0

-785567.8413550276 1.6149610287422584e7 0.0
1.6149610287422584e7 -9.402878812574849e6 0.0
0.0 0.0 0.0

-290784.74719313683 1.4033907989525076e7 0.0
1.4033907989525076e7 -1.4686520314959327e6 0.0
0.0 0.0 0.0

-1.094305084624244e7 1.8281465771588564e6 0.0
1.8281465771588564e6 3.0780973879614998e7 0.0
0.0 0.0 0.0

2.0027952801389312e6 2.0470661404343016e7 0.0
2.0470661404343016e7 -4.803370318217428e6 0.0
0.0 0.0 0.0

-1.263585325556159e7 3.0602914382848717e7 0.0
3.0602914382848717e7 3.786534904764436e6 0.0
0.0 0.0 0.0

5.4799510065466985e6 1.6172842474977862e7 0.0
1.6172842474977862e7 2.239650623631377e6 0.0
0.0 0.0 0.0

-5.783049361822827e6 -8.077514785022533e6 0.0
-8.077514785022533e6 1.4491045888454536e7 0.0
0.0 0.0 0.0

-1.667363738865405e7 2.0652559225635886e7 0.0
2.0652559225635886e7 5.233705426550812e6 0.0
0.0 0.0 0.0

62585.63745327247 1.3741819581531145e7 0.0
1.3741819581531145e7 4.279730513824496e6 0.0
0.0 0.0 0.0

-1.7021594523805168e7 3.1933363652080685e7 0.0
3.1933363652080685e7 4.41348216597345e6 0.0
0.0 0.0 0.0

-9.712784978583757e6 1.3741429201736724e7 0.0
1.3741429201736724e7 1.6626848294737704e7 0.0
0.0 0.0 0.0

1.1350260964523603e6 1.5097579246489288e7 0.0
1.5097579246489288e7 -2.6061915799139002e6 0.0
0.0 0.0 0.0

-3.6398341600816865e6 1.3761835311447695e7 0.0
1.3761835311447695e7 -1.6408039400958614e7 0.0
0.0 0.0 0.0

-1.0278515755393268e6 1.389212594658238e7 0.0
1.389212594658238e7 -8.586128975177623e6 0.0
0.0 0.0 0.0

3.1726452377391076e6 1.7243330117048167e7 0.0
1.7243330117048167e7 -4.515694887763957e6 0.0
0.0 0.0 0.0

1.482851355222718e7 2.997758902777121e7 0.0
2.997758902777121e7 -1.4505135667763915e7 0.0
0.0 0.0 0.0

-6.581231515306286e6 -3.736810370379952e6 0.0
-3.736810370379952e6 1.130061764882059e7 0.0
0.0 0.0 0.0

-1.7667373707122996e6 2.592388955748304e7 0.0
2.592388955748304e7 -1.0051533649438778e6 0.0
0.0 0.0 0.0

-642028.9445484716 2.2731659026470274e7 0.0
2.2731659026470274e7 -1.4721124215072484e6 0.0
0.0 0.0 0.0

-1.063647332345751e7 -3.503330944473801e6 0.0
-3.503330944473801e6 2.398595896847816e7 0.0
0.0 0.0 0.0

5.2623060413218085e6 3.0896864198387605e6 0.0
3.0896864198387605e6 -2.219111370380794e7 0.0
0.0 0.0 0.0

-4.546067273969469e6 2.0745559539836638e7 0.0
2.0745559539836638e7 6.980660677907161e6 0.0
0.0 0.0 0.0

435528.6217135377 1.7836992042955235e7 0.0
1.7836992042955235e7 1.0021560497247586e7 0.0
0.0 0.0 0.0

-3.6076400533308764e6 2.8055143521494023e6 0.0
2.8055143521494023e6 6.070932337568036e6 0.0
0.0 0.0 0.0

-1.0675628179235943e7 1.1760105845510589e7 0.0
1.1760105845510589e7 1.6464208136984807e7 0.0
0.0 0.0 0.0

-243724.2596091153 1.7512379305087257e7 0.0
1.7512379305087257e7 1.064795932714041e7 0.0
0.0 0.0 0.0

-557922.988201953 1.3934938553589048e7 0.0
1.3934938553589048e7 -8.761062181511005e6 0.0
0.0 0.0 0.0

-1.180032550931687e6 1.3270677030765451e7 0.0
1.3270677030765451e7 -1.1998230831015345e7 0.0
0.0 0.0 0.0

-1.8420155717040263e6 2.1298281709892582e7 0.0
2.1298281709892582e7 -2.4419554896624438e6 0.0
0.0 0.0 0.0

-4.1268744946521507e6 172594.83768332255 0.0
172594.83768332255 6.383998106031767e6 0.0
0.0 0.0 0.0

-3.877702488339292e6 1.5613367070043623e7 0.0
1.5613367070043623e7 2.60136739073913e6 0.0
0.0 0.0 0.0

-1.0902892050760224e7 1.4266964049818698e7 0.0
1.4266964049818698e7 1.952231450350608e7 0.0
0.0 0.0 0.0

1.1312937555320878e6 1.188104249011964e7 0.0
1.188104249011964e7 -9.86802248196856e6 0.0
0.0 0.0 0.0

-1.089032165960501e6 1.7945767625650723e7 0.0
1.7945767625650723e7 -7.226461754224011e6 0.0
0.0 0.0 0.0

-1.4444372071225338e6 2.7811607715048004e7 0.0
2.7811607715048004e7 206226.63770939055 0.0
0.0 0.0 0.0

972430.4000752075 1.2083993367388768e7 0.0
1.2083993367388768e7 -2.161829103829447e7 0.0
0.0 0.0 0.0

-3.653026913244791e7 3.2006348828628395e7 0.0
3.2006348828628395e7 7.472287483954888e6 0.0
0.0 0.0 0.0

1.508732951984854e6 3.137436357265637e6 0.0
3.137436357265637e6 -3.593626212335377e6 0.0
0.0 0.0 0.0

1.3395239572240892e6 3.2555420803834703e6 0.0
3.2555420803834703e6 -4.364682164448198e6 0.0
0.0 0.0 0.0

1.622028091595502e6 1.6390107472370554e7 0.0
1.6390107472370554e7 1.410209121519724e7 0.0
0.0 0.0 0.0

846551.019754773 1.753812285644261e7 0.0
1.753812285644261e7 1.2312035922414372e7 0.0
0.0 0.0 0.0

-705349.1639407952 1.577935852012233e7 0.0
1.577935852012233e7 5.283986383185215e6 0.0
0.0 0.0 0.0

-1.0648197798843663e7 9.970743280562803e6 0.0
9.970743280562803e6 1.6391467129979078e7 0.0
0.0 0.0 0.0

2.3244418080045218e6 4.680550132671684e6 0.0
4.680550132671684e6 -1.1890509488711476e6 0.0
0.0 0.0 0.0

-2.812171979406781e6 1.6965277432139155e7 0.0
1.6965277432139155e7 6.869602598004453e6 0.0
0.0 0.0 0.0

-2.523021558068541e6 2.223177661047434e7 0.0
2.223177661047434e7 662859.6251545871 0.0
0.0 0.0 0.0

379484.83721169364 1.2671011559259472e7 0.0
1.2671011559259472e7 -2.2486513199901965e7 0.0
0.0 0.0 0.0

3.2326436770172836e6 1.8254869510668576e7 0.0
1.8254869510668576e7 9.25188387212478e6 0.0
0.0 0.0 0.0

7.6530460543290535e6 1.6514585662727507e7 0.0
1.6514585662727507e7 4.358005563890072e6 0.0
0.0 0.0 0.0

-2.2718140910205904e7 3.2893483234024428e7 0.0
3.2893483234024428e7 6.413718257874276e6 0.0
0.0 0.0 0.0

-798058.2938204622 1.511381979314388e7 0.0
1.511381979314388e7 6.847031334910333e6 0.0
0.0 0.0 0.0

-6.585146159212547e6 6.7420931737184925e6 0.0
6.7420931737184925e6 6.009839781000258e6 0.0
0.0 0.0 0.0

-1.311983015373119e7 8.38984723234912e6 0.0
8.38984723234912e6 1.864954976450831e7 0.0
0.0 0.0 0.0

-2.7593896039354806e6 2.173565529107183e7 0.0
2.173565529107183e7 -131841.73352991603 0.0
0.0 0.0 0.0

505386.39889133116 1.739272813308793e7 0.0
1.739272813308793e7 1.2471456263241407e7 0.0
0.0 0.0 0.0

-1.015740014158393e7 2.47069035024346e6 0.0
2.47069035024346e6 4.487387374809426e7 0.0
0.0 0.0 0.0

-2.174280145855366e6 1.6020724517007522e7 0.0
1.6020724517007522e7 1.0027906117122829e7 0.0
0.0 0.0 0.0

-5.798720225039564e6 1.4529287696091259e7 0.0
1.4529287696091259e7 -2.262425720325296e7 0.0
0.0 0.0 0.0

60278.0558384005 1.7716180817707796e7 0.0
1.7716180817707796e7 1.152735777652816e7 0.0
0.0 0.0 0.0

-8.297054912556479e6 1.5697927586078873e7 0.0
1.5697927586078873e7 1.763318894170629e7 0.0
0.0 0.0 0.0

-265114.8252527653 1.324530307570636e7 0.0
1.324530307570636e7 -9.090933714393789e6 0.0
0.0 0.0 0.0

-803924.9231424443 1.5919258255436722e7 0.0
1.5919258255436722e7 5.319232349891009e7 0.0
0.0 0.0 0.0

1.9989191829580201e6 1.9733307178046696e7 0.0
1.9733307178046696e7 -4.93548224711183e6 0.0
0.0 0.0 0.0

244689.9003729131 1.4462129836226914e7 0.0
1.4462129836226914e7 -1.354385931729268e7 0.0
0.0 0.0 0.0

-186325.77517673816 1.1014484110766994e7 0.0
1.1014484110766994e7 -5.050955666662788e6 0.0
0.0 0.0 0.0

5.122094802244214e6 3.766106794301266e6 0.0
3.766106794301266e6 -2.7134606540980738e7 0.0
0.0 0.0 0.0

-1.257528060776199e6 2.6818028956270173e7 0.0
2.6818028956270173e7 677738.9087643935 0.0
0.0 0.0 0.0

-1.3043754163166493e7 9.323856596994909e6 0.0
9.323856596994909e6 1.90989554510727e7 0.0
0.0 0.0 0.0

678745.1600096892 1.5192299292826708e7 0.0
1.5192299292826708e7 1.0312954112330936e7 0.0
0.0 0.0 0.0

-7.47261955285849e6 2.031999509833047e7 0.0
2.031999509833047e7 5.501864645177122e6 0.0
0.0 0.0 0.0

-3.8982622865660256e6 1.7034261004181582e7 0.0
1.7034261004181582e7 1.4605194237886204e6 0.0
0.0 0.0 0.0

-1.1831459162397828e7 1.2578574723136738e7 0.0
1.2578574723136738e7 1.6563665986022312e7 0.0
0.0 0.0 0.0

2.613817004357755e6 9.348803836414734e6 0.0
9.348803836414734e6 -1.5949819264314346e7 0.0
0.0 0.0 0.0

-1.177273535258149e7 2.923150442974946e7 0.0
2.923150442974946e7 6.782139840743246e6 0.0
0.0 0.0 0.0

1.3683055185294153e7 1.0723008651349043e7 0.0
1.0723008651349043e7 -3617.651901844889 0.0
0.0 0.0 0.0

-8.703198178078149e6 -1.6599738221409903e6 0.0
-1.6599738221409903e6 1.1091900182676692e7 0.0
0.0 0.0 0.0

-5.728312701404553e6 2.310762985228335e7 0.0
2.310762985228335e7 5.544055503932015e6 0.0
0.0 0.0 0.0

-2.1839412386095315e7 1.6080827464423615e7 0.0
1.6080827464423615e7 9.197799448960539e6 0.0
0.0 0.0 0.0

-1.8781571756078482e6 1.7218893710625604e7 0.0
1.7218893710625604e7 -6.581951203454684e6 0.0
0.0 0.0 0.0

-3.585162105503488e7 2.460942804271701e7 0.0
2.460942804271701e7 4.334263295585705e6 0.0
0.0 0.0 0.0

-1.7384142369683862e6 1.7348770382083677e7 0.0
1.7348770382083677e7 -3.8652630876417086e6 0.0
0.0 0.0 0.0

-7.049645256907555e6 1.4940598857106676e7 0.0
1.4940598857106676e7 1.2676038690098299e7 0.0
0.0 0.0 0.0

-1.1593410301225338e7 8.920589172540417e6 0.0
8.920589172540417e6 1.7250252831241854e7 0.0
0.0 0.0 0.0

-8.336682136084717e6 1.294165621422694e7 0.0
1.294165621422694e7 1.091061322493026e7 0.0
0.0 0.0 0.0

-5.157067042112125e6 1.8899770553892966e7 0.0
1.8899770553892966e7 9.080365824726582e6 0.0
0.0 0.0 0.0

-1.0431114894676547e7 -1.552223168550163e6 0.0
-1.552223168550163e6 3.0770856101361163e7 0.0
0.0 0.0 0.0

-200803.0812417703 1.3138482374388658e7 0.0
1.3138482374388658e7 -1.313581798749739e6 0.0
0.0 0.0 0.0

1.8501779929523878e6 1.0301796827988993e7 0.0
1.0301796827988993e7 -1.0328997646232415e7 0.0
0.0 0.0 0.0

1.079571235812488e6 1.335157514678115e7 0.0
1.335157514678115e7 -1.386829270851503e7 0.0
0.0 0.0 0.0

-7.5912512211908065e6 -6.416572267006225e6 0.0
-6.416572267006225e6 1.8365210232601896e7 0.0
0.0 0.0 0.0

-819530.5529879364 1.3477991905530509e7 0.0
1.3477991905530509e7 -10458.340345964505 0.0
0.0 0.0 0.0

-6.714199131302227e6 2.05686799088539e7 0.0
2.05686799088539e7 6.265600621602459e6 0.0
0.0 0.0 0.0

-1.166800570050627e6 1.6674444402705515e7 0.0
1.6674444402705515e7 1.5377664760847233e7 0.0
0.0 0.0 0.0

-412946.0635361811 1.567307115925347e7 0.0
1.567307115925347e7 -9.729169261681074e6 0.0
0.0 0.0 0.0

-195810.14842897654 1.5183608417496882e7 0.0
1.5183608417496882e7 2.3676519282459137e6 0.0
0.0 0.0 0.0

-1.8117250383809507e6 2.52484683557918e7 0.0
2.52484683557918e7 -564144.6522173157 0.0
0.0 0.0 0.0

22115.50555386534 1.6151064783865944e7 0.0
1.6151064783865944e7 -8.719798463498453e6 0.0
0.0 0.0 0.0

5.7812717516126215e7 2.214725587471752e7 0.0
2.214725587471752e7 1.077601919784788e6 0.0
0.0 0.0 0.0

1.8989247294420837e6 1.5627723326872252e7 0.0
1.5627723326872252e7 -4.0318114319390133e6 0.0
0.0 0.0 0.0

-451264.30230319034 1.4219502309438199e7 0.0
1.4219502309438199e7 -1.563281095641381e7 0.0
0.0 0.0 0.0

-283658.91266549286 1.7559034143525135e7 0.0
1.7559034143525135e7 -7.281435892260095e6 0.0
0.0 0.0 0.0

-1.9459616966610324e7 2.2072484011264145e7 0.0
2.2072484011264145e7 3.945494511394495e6 0.0
0.0 0.0 0.0

-5.465522605483757e6 1.993500436366585e7 0.0
1.993500436366585e7 7.1545945614444e6 0.0
0.0 0.0 0.0

8.305452210898272e6 1.6246650999282e7 0.0
1.6246650999282e7 228062.1620110413 0.0
0.0 0.0 0.0

-275815.708074918 1.2515584512273487e7 0.0
1.2515584512273487e7 -2.6421667987544145e7 0.0
0.0 0.0 0.0

1.7169829573661597e6 1.571179541395984e7 0.0
1.571179541395984e7 1.780095515931982e7 0.0
0.0 0.0 0.0

4.738370123931429e6 5.467493166919146e6 0.0
5.467493166919146e6 -1.7934978593738127e7 0.0
0.0 0.0 0.0

-115706.55486403732 1.8132343595113028e7 0.0
1.8132343595113028e7 -6.780682544272821e6 0.0
0.0 0.0 0.0

4.430312920743618e6 4.676029464050089e6 0.0
4.676029464050089e6 -3.1649677360123966e7 0.0
0.0 0.0 0.0

-1.0264255593787744e6 1.7769210933648296e7 0.0
1.7769210933648296e7 -7.369556184192291e6 0.0
0.0 0.0 0.0

1.1791146138946651e6 2.055883014102588e7 0.0
2.055883014102588e7 -4.528223469495514e6 0.0
0.0 0.0 0.0

-3.5144971894413284e6 1.684331244212008e7 0.0
1.684331244212008e7 1.0689511336641188e6 0.0
0.0 0.0 0.0

-1.0463594455023026e7 2.468456550211223e7 0.0
2.468456550211223e7 6.298411009042814e6 0.0
0.0 0.0 0.0

-8.618702222377785e6 1.5694394378309114e7 0.0
1.5694394378309114e7 1.7591242566639565e7 0.0
0.0 0.0 0.0

-557004.5184903564 1.4271769523900673e7 0.0
1.4271769523900673e7 6.259158010080669e6 0.0
0.0 0.0 0.0

-2.9707331028449383e7 2.53704715631603e7 0.0
2.53704715631603e7 9.70290480089445e6 0.0
0.0 0.0 0.0

6.926189793883907e6 1.6827503160031676e7 0.0
1.6827503160031676e7 6.191094850205632e6 0.0
0.0 0.0 0.0

-5.145860449963134e6 9.411899601027118e6 0.0
9.411899601027118e6 3.4267288242750056e6 0.0
0.0 0.0 0.0

-5.096597268297985e6 2.2647793410233583e7 0.0
2.2647793410233583e7 5.155836211465383e6 0.0
0.0 0.0 0.0

-2.0782378669048497e6 1.774524391556206e7 0.0
1.774524391556206e7 -4.957774727048778e6 0.0
0.0 0.0 0.0

1.2080835999905742e6 1.2191100065708328e7 0.0
1.2191100065708328e7 -1.0422948024143688e7 0.0
0.0 0.0 0.0

5.31164114479408e6 2.979191966540963e6 0.0
2.979191966540963e6 -2.3267906029369935e7 0.0
0.0 0.0 0.0

-417128.6161220069 1.3163432754080137e7 0.0
1.3163432754080137e7 -7.5394453574445555e6 0.0
0.0 0.0 0.0

2.962678401921077e7 5.713011740392384e6 0.0
5.713011740392384e6 -2.845599250413431e6 0.0
0.0 0.0 0.0

-8.424654651732545e6 1.5597812906965373e7 0.0
1.5597812906965373e7 1.827762598197586e7 0.0
0.0 0.0 0.0

-6.385329368975726e6 2.2355979854527187e7 0.0
2.2355979854527187e7 6.073844804399317e6 0.0
0.0 0.0 0.0

-9.604317701670257e6 -5.400403386461476e6 0.0
-5.400403386461476e6 2.748077637797033e7 0.0
0.0 0.0 0.0

-3.532499750202026e6 2.514172080169373e7 0.0
2.514172080169373e7 2.1154058298139814e6 0.0
0.0 0.0 0.0

-1.5676259174742883e7 2.0009194599538125e7 0.0
2.0009194599538125e7 5.515385545435332e6 0.0
0.0 0.0 0.0

67176.75392189343 1.4839121028751187e7 0.0
1.4839121028751187e7 -1.2746753302093064e7 0.0
0.0 0.0 0.0

1.5215711457867683e6 1.6077761660826048e7 0.0
1.6077761660826048e7 1.2443778377776429e7 0.0
0.0 0.0 0.0

-605641.8395689179 1.4499075871767676e7 0.0
1.4499075871767676e7 3.0039943494933294e6 0.0
0.0 0.0 0.0

-4.805808208319238e6 1.7898546997244406e7 0.0
1.7898546997244406e7 6.851316010699367e6 0.0
0.0 0.0 0.0

821093.7971984157 1.1724334422663521e7 0.0
1.1724334422663521e7 -1.1068336260944016e7 0.0
0.0 0.0 0.0

3.2602227496718327e6 8.996538281003034e6 0.0
8.996538281003034e6 -1.536347265371068e7 0.0
0.0 0.0 0.0

-48169.87766401842 8.100366812779337e6 0.0
8.100366812779337e6 -5.566695998840183e6 0.0
0.0 0.0 0.0

-4.8385247215295555e6 2.226213626098452e7 0.0
2.226213626098452e7 4.978648298387354e6 0.0
0.0 0.0 0.0

-874312.7972740126 1.4275098670566933e7 0.0
1.4275098670566933e7 -7.923171426733663e6 0.0
0.0 0.0 0.0

1.139895073258578e7 1.0663046646250712e7 0.0
1.0663046646250712e7 -206099.33151835622 0.0
0.0 0.0 0.0

5.307688834370126e6 3.014415317554287e6 0.0
3.014415317554287e6 -2.344391529244756e7 0.0
0.0 0.0 0.0

120792.90652424004 1.5718989055862619e7 0.0
1.5718989055862619e7 1.302996765665454e7 0.0
0.0 0.0 0.0

616555.7465671701 7.976433408449704e6 0.0
7.976433408449704e6 -6.914005754260085e6 0.0
0.0 0.0 0.0

-1.1578295021824075e6 2.150639720213209e7 0.0
2.150639720213209e7 -2.1182808724744315e6 0.0
0.0 0.0 0.0

-939218.1472511492 1.5781876061745618e7 0.0
1.5781876061745618e7 6.91151847657121e6 0.0
0.0 0.0 0.0

-1.2020141542700086e7 4.591465923546108e6 0.0
4.591465923546108e6 2.745212672717621e7 0.0
0.0 0.0 0.0

-2.8850593650124236e6 2.3719669396639653e6 0.0
2.3719669396639653e6 4.280025648030605e6 0.0
0.0 0.0 0.0

1.1610512891773598e6 2.0606242988310765e7 0.0
2.0606242988310765e7 -4.6164649495337745e6 0.0
0.0 0.0 0.0

-3.9790109295966e7 1.1148177997288603e7 0.0
1.1148177997288603e7 1.0168415323350409e7 0.0
0.0 0.0 0.0

547167.1744004693 1.3814836821511136e7 0.0
1.3814836821511136e7 -1.5334602318293486e7 0.0
0.0 0.0 0.0

-683098.6287593911 1.1315643612437507e7 0.0
1.1315643612437507e7 3.8441164505951386e6 0.0
0.0 0.0 0.0

-6.9130441838959055e6 1.4694649423175951e7 0.0
1.4694649423175951e7 1.2116744463616777e7 0.0
0.0 0.0 0.0

-4.200441618877614e7 1.0726597331508206e7 0.0
1.0726597331508206e7 9.39676780215703e6 0.0
0.0 0.0 0.0

-435897.02740415465 1.3769986764424209e7 0.0
1.3769986764424209e7 -1.608829809849587e7 0.0
0.0 0.0 0.0

-527260.4437062046 1.7244221645592898e7 0.0
1.7244221645592898e7 -8.230056729617319e6 0.0
0.0 0.0 0.0

1.6670296228378091e6 5.331857580849528e6 0.0
5.331857580849528e6 -4.917415807740347e6 0.0
0.0 0.0 0.0

-5.112241198231414e6 1.8967862019171797e7 0.0
1.8967862019171797e7 -4.35048918471859e6 0.0
0.0 0.0 0.0

889355.0704791197 2.3227825065759566e7 0.0
2.3227825065759566e7 -3.3056821363306274e6 0.0
0.0 0.0 0.0

-3.2313383343363013e6 2.3368839406589482e7 0.0
2.3368839406589482e7 1.7321757172795322e6 0.0
0.0 0.0 0.0

-4.928720206064416e6 1.749267769561967e7 0.0
1.749267769561967e7 3.8835130258808285e6 0.0
0.0 0.0 0.0

-1.2067429378970006e7 1.2207781635213006e7 0.0
1.2207781635213006e7 2.0530654674662456e7 0.0
0.0 0.0 0.0

-4.867023741455312e6 1.755138433251386e7 0.0
1.755138433251386e7 1.09743317016645e7 0.0
0.0 0.0 0.0

-3.3863791192149473e6 2.4629656877488002e7 0.0
2.4629656877488002e7 2.044509264063138e6 0.0
0.0 0.0 0.0

1.4820297335771923e6 1.0181173846197585e7 0.0
1.0181173846197585e7 -1.158519251238278e7 0.0
0.0 0.0 0.0

-3.4412875130270068e6 2.4219120644969445e7 0.0
2.4219120644969445e7 1.907962498285272e6 0.0
0.0 0.0 0.0

542004.8415825334 1.762358791053404e7 0.0
1.762358791053404e7 1.2011804803610122e7 0.0
0.0 0.0 0.0

-1.2586333646947898e7 9.375097398995154e6 0.0
9.375097398995154e6 2.001305561810386e7 0.0
0.0 0.0 0.0

4.829865810587972e6 3.930155960527291e6 0.0
3.930155960527291e6 -2.4372676062706035e7 0.0
0.0 0.0 0.0

-7.86369616341842e6 2.024152101172632e7 0.0
2.024152101172632e7 5.738569931236196e6 0.0
0.0 0.0 0.0

-2.7158491439412534e6 1.9678513114116438e7 0.0
1.9678513114116438e7 -2.4861052947098166e6 0.0
0.0 0.0 0.0

-1.8568010094010138e6 1.9577757546494473e7 0.0
1.9577757546494473e7 -3.187631777040182e6 0.0
0.0 0.0 0.0

-5.177993778318851e7 3.3753136772180535e7 0.0
3.3753136772180535e7 -1.4918004989051808e7 0.0
0.0 0.0 0.0

322165.5580141698 1.5286678543633046e7 0.0
1.5286678543633046e7 -1.2018028333245106e7 0.0
0.0 0.0 0.0

-2.568922946360017e6 2.1473054355759226e7 0.0
2.1473054355759226e7 321407.4049671568 0.0
0.0 0.0 0.0

-7.485045117430653e6 1.5480376583492896e7 0.0
1.5480376583492896e7 1.1744318157017402e7 0.0
0.0 0.0 0.0

-2.3343833280172672e7 1.716828885120367e7 0.0
1.716828885120367e7 9.718157679535909e6 0.0
0.0 0.0 0.0

411700.84675563674 1.5068359592315884e7 0.0
1.5068359592315884e7 -260531.54436536442 0.0
0.0 0.0 0.0

-1.8542182501799027e6 1.6941663059318017e7 0.0
1.6941663059318017e7 1.3093377529152552e7 0.0
0.0 0.0 0.0

5.232846442890452e6 2.6245613048183457e6 0.0
2.6245613048183457e6 -2.8908022552948326e7 0.0
0.0 0.0 0.0

-1.6356784163380293e7 2.7697178736081626e7 0.0
2.7697178736081626e7 9.172331685567744e6 0.0
0.0 0.0 0.0

-9.775667887856575e6 -3.785267267280162e6 0.0
-3.785267267280162e6 2.831253154272895e7 0.0
0.0 0.0 0.0

-1.0358265407573964e7 -1.822551841881634e6 0.0
-1.822551841881634e6 3.3538419988197688e7 0.0
0.0 0.0 0.0

-2.0642156840972952e6 1.9322120275153653e6 0.0
1.9322120275153653e6 3.338905945483556e6 0.0
0.0 0.0 0.0

-1.2117348185299614e7 1.043805970965272e7 0.0
1.043805970965272e7 2.2481688939200148e7 0.0
0.0 0.0 0.0

-2.6728597656772505e6 1.4679349822086634e7 0.0
1.4679349822086634e7 9.70423946428442e6 0.0
0.0 0.0 0.0

797686.7048576344 1.3247508468868256e7 0.0
1.3247508468868256e7 -1.7306219228157204e7 0.0
0.0 0.0 0.0

-3.1988168442309268e7 3.289849635464791e7 0.0
3.289849635464791e7 8.758261082713066e6 0.0
0.0 0.0 0.0

-1.2398897955338456e7 1.0211587707311057e7 0.0
1.0211587707311057e7 2.0398113374413125e7 0.0
0.0 0.0 0.0

-300358.8713449333 1.2289846006322252e7 0.0
1.2289846006322252e7 -2.7421196958235197e7 0.0
0.0 0.0 0.0

-1.5484170733580837e7 1.9372322632586233e7 0.0
1.9372322632586233e7 5.660621457670197e6 0.0
0.0 0.0 0.0

-9.776142842553964e6 -2.2011926445330237e6 0.0
-2.2011926445330237e6 3.453683686486851e7 0.0
0.0 0.0 0.0

-38576.36130858725 1.4604761702151865e7 0.0
1.4604761702151865e7 -1.1379014569622882e7 0.0
0.0 0.0 0.0

-3.695268150072203e6 1.4502062968229504e7 0.0
1.4502062968229504e7 -2.9764289244948585e7 0.0
0.0 0.0 0.0

-1.0955124435864612e6 1.68066798564069e7 0.0
1.68066798564069e7 -4.6323721251673475e6 0.0
0.0 0.0 0.0

-1.4619951179304548e7 1.7706887619965997e7 0.0
1.7706887619965997e7 6.122197140961595e6 0.0
0.0 0.0 0.0

2.782055859829418e7 1.9341713309926126e7 0.0
1.9341713309926126e7 4.832875981562156e6 0.0
0.0 0.0 0.0

-837210.8870005829 1.124459435539024e7 0.0
1.124459435539024e7 -2.6976679192039985e6 0.0
0.0 0.0 0.0

1.093590359674924e6 1.3670783145810068e7 0.0
1.3670783145810068e7 -1.281691941027141e7 0.0
0.0 0.0 0.0

-918511.1020012544 1.3084332826075047e7 0.0
1.3084332826075047e7 -1.0305415159749448e7 0.0
0.0 0.0 0.0

5.337628063155727e6 2.6784772318069055e6 0.0
2.6784772318069055e6 -2.909673165187486e7 0.0
0.0 0.0 0.0

-1.7476262340993995e6 2.0869080421642985e7 0.0
2.0869080421642985e7 -1.8711358620254905e6 0.0
0.0 0.0 0.0

-1.0103707791546481e6 1.3508907501437929e7 0.0
1.3508907501437929e7 -1.7170987358387906e7 0.0
0.0 0.0 0.0

164036.4099783362 1.636021303325008e7 0.0
1.636021303325008e7 -9.050644661992138e6 0.0
0.0 0.0 0.0

-474868.569619446 1.4291266503019186e7 0.0
1.4291266503019186e7 845714.4865906567 0.0
0.0 0.0 0.0

-4.576606158379255e6 9.413993503970915e6 0.0
9.413993503970915e6 5.389144780270351e6 0.0
0.0 0.0 0.0

-5.2017637188683e6 1.7637930008718774e7 0.0
1.7637930008718774e7 6.448206889116855e6 0.0
0.0 0.0 0.0

-3.790147602472917e6 1.6440563881081028e7 0.0
1.6440563881081028e7 1.6607026679265618e7 0.0
0.0 0.0 0.0

5.2057908369626505e6 3.353104529978299e6 0.0
3.353104529978299e6 -1.9841799839686234e7 0.0
0.0 0.0 0.0

-1.4845693430217e7 8.842465845254757e6 0.0
8.842465845254757e6 5.629507175430561e6 0.0
0.0 0.0 0.0

699515.7396730683 1.8075991498845693e7 0.0
1.8075991498845693e7 1.0968837859704472e7 0.0
0.0 0.0 0.0

-345673.1224907073 1.424860651835446e7 0.0
1.424860651835446e7 -1.2656153402284818e7 0.0
0.0 0.0 0.0

4.554248493069913e7 7.939622893257082e6 0.0
7.939622893257082e6 -1.5268035620308146e6 0.0
0.0 0.0 0.0

895297.7939545652 1.3860238360977711e7 0.0
1.3860238360977711e7 -1.5360312151625616e7 0.0
0.0 0.0 0.0

-2.254274588319923e6 2.0118585349960867e7 0.0
2.0118585349960867e7 -3.0669361869055093e6 0.0
0.0 0.0 0.0

-3.9507249829431926e6 1.8094379573340323e7 0.0
1.8094379573340323e7 214684.02671349794 0.0
0.0 0.0 0.0

1.182119501185868e6 1.5948301111127155e7 0.0
1.5948301111127155e7 3.95696135106422e7 0.0
0.0 0.0 0.0

-1.2132616435743434e7 9.358584079358505e6 0.0
9.358584079358505e6 2.35879335012312e7 0.0
0.0 0.0 0.0

-9.404749920349874e6 -5.890454536761977e6 0.0
-5.890454536761977e6 2.712050903874227e7 0.0
0.0 0.0 0.0

-1.2107045221327228e7 3.140082372219122e6 0.0
3.140082372219122e6 2.816513602910876e7 0.0
0.0 0.0 0.0

-3.503388409105195e6 2.2818583007685833e7 0.0
2.2818583007685833e7 2.0825671780684388e6 0.0
0.0 0.0 0.0

2.6095554206289556e6 9.997215254507031e6 0.0
9.997215254507031e6 -1.6646814279413104e7 0.0
0.0 0.0 0.0

-4.790340975482792e6 1.860790898961416e7 0.0
1.860790898961416e7 8.692600039344992e6 0.0
0.0 0.0 0.0

107381.8942602477 1.5648936565850899e7 0.0
1.5648936565850899e7 -1.124748949260322e7 0.0
0.0 0.0 0.0

-7.831486331245251e6 1.3981045015475972e7 0.0
1.3981045015475972e7 1.0661308354730323e7 0.0
0.0 0.0 0.0

-5.161689349661615e6 2.0257825231595885e7 0.0
2.0257825231595885e7 7.342389546500247e6 0.0
0.0 0.0 0.0

3.11790473435614e6 1.9363228087947506e7 0.0
1.9363228087947506e7 -4.919446342908272e6 0.0
0.0 0.0 0.0

-5.840162398839309e6 1.7120556901093226e7 0.0
1.7120556901093226e7 1.2132682133926807e7 0.0
0.0 0.0 0.0

-5.056031350320459e6 1.802587912235828e7 0.0
1.802587912235828e7 9.577120700814553e6 0.0
0.0 0.0 0.0

-1.7439466810747222e6 1.3725772959118491e7 0.0
1.3725772959118491e7 -1.124823819705913e7 0.0
0.0 0.0 0.0

-1.2997854054443223e7 1.0046831337761384e7 0.0
1.0046831337761384e7 1.8487609465692848e7 0.0
0.0 0.0 0.0

-3.266182879856948e6 2.28813758745448e7 0.0
2.28813758745448e7 2.903765454280112e6 0.0
0.0 0.0 0.0

4.426733344789359e6 5.094557483954525e6 0.0
5.094557483954525e6 -1.9012773388119582e7 0.0
0.0 0.0 0.0

-9.728943288316162e6 993595.5709802341 0.0
993595.5709802341 4.4075627066072136e7 0.0
0.0 0.0 0.0

-538158.1032237841 1.624740062786917e7 0.0
1.624740062786917e7 -5.6333485117762135e6 0.0
0.0 0.0 0.0

-3.5089228756239302e6 2.322685954323172e7 0.0
2.322685954323172e7 2.2219562586900927e6 0.0
0.0 0.0 0.0

2.2830400940800523e6 1.139029805951725e7 0.0
1.139029805951725e7 -1.8691848613946464e7 0.0
0.0 0.0 0.0

-2.32687397929826e6 2.099823006515393e7 0.0
2.099823006515393e7 -2.0946977089017942e6 0.0
0.0 0.0 0.0

2.88986544149739e6 8.849939865899993e6 0.0
8.849939865899993e6 -1.6668444616454829e7 0.0
0.0 0.0 0.0

-1.2450421600614235e7 8.487673855147427e6 0.0
8.487673855147427e6 2.0870712132055823e7 0.0
0.0 0.0 0.0

-4.514473158713797e7 3.058413949846129e7 0.0
3.058413949846129e7 1.0648601757225452e7 0.0
0.0 0.0 0.0

-9.010199954948913e6 1.934722871198093e7 0.0
1.934722871198093e7 596049.9240037291 0.0
0.0 0.0 0.0

-4.732532976019591e6 1.8547516314189687e7 0.0
1.8547516314189687e7 9.457149256014638e6 0.0
0.0 0.0 0.0

-4.0876097305797026e6 -4.810235229726046e6 0.0
-4.810235229726046e6 9.16888088277815e6 0.0
0.0 0.0 0.0

-1.093012291232233e7 1.8420635690796237e7 0.0
1.8420635690796237e7 -839118.4805930695 0.0
0.0 0.0 0.0

-6.117768424788703e6 2.0613799973889202e7 0.0
2.0613799973889202e7 6.729242964607077e6 0.0
0.0 0.0 0.0

5.083553763230575e6 3.7469213900137497e6 0.0
3.7469213900137497e6 -2.4860173343695134e7 0.0
0.0 0.0 0.0

-7.8233640928102825e6 1.2619683432172671e7 0.0
1.2619683432172671e7 1.2909981874182228e7 0.0
0.0 0.0 0.0

-1.1161695944377575e7 1.0440084730000107e7 0.0
1.0440084730000107e7 1.694307700528966e7 0.0
0.0 0.0 0.0

-380714.72956827405 2.5471863715487953e7 0.0
2.5471863715487953e7 -306307.76147410297 0.0
0.0 0.0 0.0

-1.0450639335476443e7 -593163.6338615232 0.0
-593163.6338615232 1.3222105738010595e7 0.0
0.0 0.0 0.0

-1.282786652188575e7 1.111612690018946e7 0.0
1.111612690018946e7 1.9095127802493293e7 0.0
0.0 0.0 0.0

-2.644002813110452e6 2.360275163606479e7 0.0
2.360275163606479e7 2.1024030753328297e6 0.0
0.0 0.0 0.0

-1.0113074541875115e7 -1.6528027285841482e6 0.0
-1.6528027285841482e6 3.6013000203622505e7 0.0
0.0 0.0 0.0

-6.196564649847597e6 -2.792331085949914e6 0.0
-2.792331085949914e6 1.1780328523443151e7 0.0
0.0 0.0 0.0

3.9153547801063396e6 6.926235166973215e6 0.0
6.926235166973215e6 -1.81787029894595e7 0.0
0.0 0.0 0.0

-4.936580506671873e6 1.7926158500172496e7 0.0
1.7926158500172496e7 7.264760672523212e6 0.0
0.0 0.0 0.0

-1.2348992280125488e7 1.1146306355794037e7 0.0
1.1146306355794037e7 2.0561065809659142e7 0.0
0.0 0.0 0.0

-326243.6632269197 1.5296340334601492e7 0.0
1.5296340334601492e7 -1.083440587507561e7 0.0
0.0 0.0 0.0

553508.1288682576 1.4681801544193294e7 0.0
1.4681801544193294e7 -1.140306296443076e7 0.0
0.0 0.0 0.0

2.7374768662043614e6 9.790633370373448e6 0.0
9.790633370373448e6 -1.7697297394093204e7 0.0
0.0 0.0 0.0

712758.0222402196 1.353229663484899e7 0.0
1.353229663484899e7 -1.6357731542136323e7 0.0
0.0 0.0 0.0

-278432.91794619896 1.4474409087656602e7 0.0
1.4474409087656602e7 5.537839796090734e6 0.0
0.0 0.0 0.0

-1.2391585077337742e7 1.2257112794628365e7 0.0
1.2257112794628365e7 1.9573996678239584e7 0.0
0.0 0.0 0.0

-2.2021729341697725e6 2.047737429609944e7 0.0
2.047737429609944e7 -2.896745984271636e6 0.0
0.0 0.0 0.0

-5.070622609946456e6 2.218563572453353e7 0.0
2.218563572453353e7 5.536557726411305e6 0.0
0.0 0.0 0.0

-2.9727741503160633e6 2.3063112573430795e7 0.0
2.3063112573430795e7 2.474502823024355e6 0.0
0.0 0.0 0.0

8.509433124952786e6 2.0438645741337832e7 0.0
2.0438645741337832e7 4.961580237925187e7 0.0
0.0 0.0 0.0

-4.4816180428021755e6 1.819279370111252e7 0.0
1.819279370111252e7 6.270476081785815e6 0.0
0.0 0.0 0.0

852085.9835486398 1.4070159022083336e7 0.0
1.4070159022083336e7 -1.1996399577383267e7 0.0
0.0 0.0 0.0

125241.4502920527 1.3993745626139779e7 0.0
1.3993745626139779e7 -1.5375160320351502e7 0.0
0.0 0.0 0.0

1.0383973573653558e6 1.3874853653718216e7 0.0
1.3874853653718216e7 -1.3079168009941824e7 0.0
0.0 0.0 0.0

-1.798595407799576e6 2.2537244754309323e7 0.0
2.2537244754309323e7 -297932.1506569597 0.0
0.0 0.0 0.0

-5.144087270877662e6 1.735497445215973e7 0.0
1.735497445215973e7 5.686343258721324e6 0.0
0.0 0.0 0.0

-315838.1980911235 1.3671577880039824e7 0.0
1.3671577880039824e7 1.6958598423774827e6 0.0
0.0 0.0 0.0

-96310.56830143323 1.449468782543871e7 0.0
1.449468782543871e7 -1.2274213830298368e7 0.0
0.0 0.0 0.0

-5.698683438394428e6 9.800827940923866e6 0.0
9.800827940923866e6 4.804501127288936e6 0.0
0.0 0.0 0.0

-1.1129224793158597e6 2.8965505115187977e7 0.0
2.8965505115187977e7 -4.043575655709672e6 0.0
0.0 0.0 0.0

4.596089779615311e6 4.229953754371611e6 0.0
4.229953754371611e6 -3.430137846156425e7 0.0
0.0 0.0 0.0

5.949210119419718e7 2.385436935110509e7 0.0
2.385436935110509e7 1.0475731448468596e7 0.0
0.0 0.0 0.0

2.3343512391397074e7 2.702745254802841e7 0.0
2.702745254802841e7 -2.0365650781354673e7 0.0
0.0 0.0 0.0

-3.1227344816136416e6 1.6331513246598037e7 0.0
1.6331513246598037e7 1.1670189128721792e7 0.0
0.0 0.0 0.0

9360.549676328432 1.5019830920090204e7 0.0
1.5019830920090204e7 7.205231303939162e6 0.0
0.0 0.0 0.0

-1.773163161800611e7 1.9745763908435006e7 0.0
1.9745763908435006e7 2.4195882544584293e6 0.0
0.0 0.0 0.0

-4.486455083532813e7 2.1645653164516453e7 0.0
2.1645653164516453e7 5.619544512424039e6 0.0
0.0 0.0 0.0

-6.697199579482987e6 9.993088388410447e6 0.0
9.993088388410447e6 9.237425650076814e6 0.0
0.0 0.0 0.0

-2.522962803568103e6 2.023521358979248e7 0.0
2.023521358979248e7 -776741.4870516551 0.0
0.0 0.0 0.0

1.257319486614788e6 1.3242677072894894e7 0.0
1.3242677072894894e7 -1.360639126311029e7 0.0
0.0 0.0 0.0

3.9208412554955166e6 6.9807597215559445e6 0.0
6.9807597215559445e6 -3.1594151531649195e7 0.0
0.0 0.0 0.0

769277.8762344113 1.3410809729274508e7 0.0
1.3410809729274508e7 -1.3869528049465142e7 0.0
0.0 0.0 0.0

30203.19354883954 1.2203639361498533e7 0.0
1.2203639361498533e7 -2.480468355624104e7 0.0
0.0 0.0 0.0

-1.1594874115403984e7 1.0726998888820248e7 0.0
1.0726998888820248e7 1.498178869714493e7 0.0
0.0 0.0 0.0

-2.140316265234964e6 1.6210178253718352e7 0.0
1.6210178253718352e7 1.4656824437030839e7 0.0
0.0 0.0 0.0

-703892.0501853407 1.3555054483399134e7 0.0
1.3555054483399134e7 4.676233749298444e6 0.0
0.0 0.0 0.0

-8.336080976844896e6 3.5699368376973034e6 0.0
3.5699368376973034e6 5.172800375285535e6 0.0
0.0 0.0 0.0

-1.1889424607618347e7 1.6984987238595162e6 0.0
1.6984987238595162e6 2.765550534540753e7 0.0
0.0 0.0 0.0

-4.159080559926649e6 2.050175352409711e7 0.0
2.050175352409711e7 5.361164014648762e6 0.0
0.0 0.0 0.0

-3.431314638172405e6 1.659947091535174e7 0.0
1.659947091535174e7 1.6844917632124953e7 0.0
0.0 0.0 0.0

-6.654636468145965e6 1.4428763009925898e7 0.0
1.4428763009925898e7 1.1364412770857565e7 0.0
0.0 0.0 0.0

-1.9783046197260094e6 3.62859871268164e6 0.0
3.62859871268164e6 171496.92653141078 0.0
0.0 0.0 0.0

-8.41076601498914e6 1.0128592649062978e7 0.0
1.0128592649062978e7 4.5373253914965004e7 0.0
0.0 0.0 0.0

-3.7196010356881316e6 1.6575844444684159e7 0.0
1.6575844444684159e7 1.7110727820563028e6 0.0
0.0 0.0 0.0

-2.052451668758515e6 1.9966327951125924e7 0.0
1.9966327951125924e7 -3.7160535034973156e6 0.0
0.0 0.0 0.0

-3.4809358215963393e6 1.6265487816077946e7 0.0
1.6265487816077946e7 1.7072279880268414e7 0.0
0.0 0.0 0.0

-5.2212191244296655e6 9.829978970785707e6 0.0
9.829978970785707e6 6.660230284141366e6 0.0
0.0 0.0 0.0

1.8110049215682107e6 1.9775637494384892e7 0.0
1.9775637494384892e7 -4.988863175494878e6 0.0
0.0 0.0 0.0

-8.292801940999966e6 2.9260711425427618e6 0.0
2.9260711425427618e6 5.0904891105954245e7 0.0
0.0 0.0 0.0

2.5547978348591384e6 1.823684624006455e7 0.0
1.823684624006455e7 -5.189150231152773e6 0.0
0.0 0.0 0.0

-3.2553256661557793e6 2.325886374322821e7 0.0
2.325886374322821e7 3.068860647350663e6 0.0
0.0 0.0 0.0

-2.5305709757331978e6 1.3092937562092666e7 0.0
1.3092937562092666e7 -1.525696891216676e7 0.0
0.0 0.0 0.0

-5.686575217911168e6 1.6655903977518942e7 0.0
1.6655903977518942e7 1.2778077443029888e7 0.0
0.0 0.0 0.0

-1.2816467675506363e7 9.248483646323739e6 0.0
9.248483646323739e6 2.1260350316716947e7 0.0
0.0 0.0 0.0

-579780.1619870494 2.213426524350302e7 0.0
2.213426524350302e7 -2.186251654039448e6 0.0
0.0 0.0 0.0

2.9026536621317733e6 5.461029125920299e6 0.0
5.461029125920299e6 -8.49222872972977e6 0.0
0.0 0.0 0.0

-3.3607885623920527e6 2.740644869829418e7 0.0
2.740644869829418e7 -74793.2149652621 0.0
0.0 0.0 0.0

1.1721770618285423e6 1.6421842322557727e7 0.0
1.6421842322557727e7 5.025470403021727e6 0.0
0.0 0.0 0.0

-2.39478455674724e6 1.8748131460195784e7 0.0
1.8748131460195784e7 -2.364106462335167e6 0.0
0.0 0.0 0.0

4.424042774279963e6 5.459257934580204e6 0.0
5.459257934580204e6 -2.4859820266601536e7 0.0
0.0 0.0 0.0

-854706.3611622315 1.686102482024164e7 0.0
1.686102482024164e7 -6.29078847347136e6 0.0
0.0 0.0 0.0

1.3361851297052484e6 1.8068746637419447e7 0.0
1.8068746637419447e7 1.1405335749803519e7 0.0
0.0 0.0 0.0

-3.074704337895807e6 2.18888719810246e7 0.0
2.18888719810246e7 2.0333981164531468e6 0.0
0.0 0.0 0.0

756958.4148126878 1.6549513782609522e7 0.0
1.6549513782609522e7 1.6049259586165272e7 0.0
0.0 0.0 0.0

-656394.4061289756 3.088982518335036e6 0.0
3.088982518335036e6 998113.9913877231 0.0
0.0 0.0 0.0

-5.36056254788563e6 1.5657972234225402e7 0.0
1.5657972234225402e7 2.104251212538985e7 0.0
0.0 0.0 0.0

-5.544958649962616e6 1.881851242203126e7 0.0
1.881851242203126e7 3.843472691088576e6 0.0
0.0 0.0 0.0

2.506942168836082e6 1.888627222420923e7 0.0
1.888627222420923e7 -5.151123300294719e6 0.0
0.0 0.0 0.0

-290641.5294577775 1.8072721279184934e7 0.0
1.8072721279184934e7 -6.670445577740202e6 0.0
0.0 0.0 0.0

1.2968903996529817e6 2.30789129346381e7 0.0
2.30789129346381e7 -3.291104041957397e6 0.0
0.0 0.0 0.0

-354309.03347870347 1.2605146166044526e7 0.0
1.2605146166044526e7 2.872270811665523e6 0.0
0.0 0.0 0.0

-4.815386735641068e6 1.9115500524257828e7 0.0
1.9115500524257828e7 8.792375245202754e6 0.0
0.0 0.0 0.0

-837760.9783713033 2.378264631640461e7 0.0
2.378264631640461e7 -2.0929808572446448e6 0.0
0.0 0.0 0.0

-3.5737232634354252e6 1.4246403933417082e7 0.0
1.4246403933417082e7 -2.9259532336584292e7 0.0
0.0 0.0 0.0

-6.438248308475141e6 7.833834123055708e6 0.0
7.833834123055708e6 6.260563489338215e6 0.0
0.0 0.0 0.0

-902606.7852371582 1.43352307908556e7 0.0
1.43352307908556e7 6.150187582965753e6 0.0
0.0 0.0 0.0

-674114.1707575063 2.2693657188658837e7 0.0
2.2693657188658837e7 -2.7693610631262534e6 0.0
0.0 0.0 0.0

-189142.8416687739 1.4813186529639512e7 0.0
1.4813186529639512e7 -1.268499705972357e7 0.0
0.0 0.0 0.0

4.924929411627709e6 4.272646983967145e6 0.0
4.272646983967145e6 -1.8107114316040475e7 0.0
0.0 0.0 0.0

-8.955576749665491e6 -1.6976401006733438e6 0.0
-1.6976401006733438e6 4.676419619365389e7 0.0
0.0 0.0 0.0

2.1681466477734316e6 1.1436640734523015e7 0.0
1.1436640734523015e7 -1.97694787538006e7 0.0
0.0 0.0 0.0

-938851.7841734882 1.5814006012476102e7 0.0
1.5814006012476102e7 8.719547862996865e6 0.0
0.0 0.0 0.0

-1.0059408787982386e7 1.1433442651986443e7 0.0
1.1433442651986443e7 1.6048086192974653e7 0.0
0.0 0.0 0.0

2.7337156128665498e6 1.875877918344739e7 0.0
1.875877918344739e7 -4.93132133083733e6 0.0
0.0 0.0 0.0

3.792955504111074e6 5.927574301606393e6 0.0
5.927574301606393e6 -1.5639569328078736e7 0.0
0.0 0.0 0.0

1.8636012936482893e6 1.5961005764847632e7 0.0
1.5961005764847632e7 -3.556564873476883e6 0.0
0.0 0.0 0.0

1.4774077495411753e6 1.8283164312243246e7 0.0
1.8283164312243246e7 1.0106797836200142e7 0.0
0.0 0.0 0.0

2.0569598137199874e6 2.845548078302238e7 0.0
2.845548078302238e7 -6.792784114104725e6 0.0
0.0 0.0 0.0

234867.081057325 1.776032147858962e7 0.0
1.776032147858962e7 -6.968737946433232e6 0.0
0.0 0.0 0.0

-3.1185326125978827e6 1.5225127384069491e7 0.0
1.5225127384069491e7 2.8426418993917856e7 0.0
0.0 0.0 0.0

5.366622672143844e6 3.1122916336084483e6 0.0
3.1122916336084483e6 -2.2375214497186344e7 0.0
0.0 0.0 0.0

-2.1294772018806404e6 2.3264129999663346e7 0.0
2.3264129999663346e7 -372582.3154414738 0.0
0.0 0.0 0.0

2.5431862461324437e6 1.51705887337092e7 0.0
1.51705887337092e7 1.8549146625456538e6 0.0
0.0 0.0 0.0

-4.989559436366775e7 1.337042918368418e7 0.0
1.337042918368418e7 7.527713107462525e6 0.0
0.0 0.0 0.0

-5.833089666272301e6 2.0522285759191662e7 0.0
2.0522285759191662e7 7.079924713984573e6 0.0
0.0 0.0 0.0

-5.38762580019148e6 7.353704997782915e6 0.0
7.353704997782915e6 7.032619751916647e6 0.0
0.0 0.0 0.0

877655.1323048184 1.3473395888933871e7 0.0
1.3473395888933871e7 -1.735668656914262e7 0.0
0.0 0.0 0.0

-3.4215758840293144e6 1.6219457205562146e7 0.0
1.6219457205562146e7 1.0440107379103802e7 0.0
0.0 0.0 0.0

-713622.570914763 1.3349827741832681e7 0.0
1.3349827741832681e7 -2.2024201299256336e7 0.0
0.0 0.0 0.0

5.346671146687165e6 3.4387260711002504e6 0.0
3.4387260711002504e6 -2.835870114830414e7 0.0
0.0 0.0 0.0

3.332010304775171e7 1.4162920600302942e7 0.0
1.4162920600302942e7 1.4338587903923932e6 0.0
0.0 0.0 0.0

-8.862295310217758e7 3.51729388509585e7 0.0
3.51729388509585e7 -7.462942212697115e6 0.0
0.0 0.0 0.0

5.99209995760449e6 1.7059999847422726e7 0.0
1.7059999847422726e7 6.733163787716672e6 0.0
0.0 0.0 0.0

-1.567545250510973e6 1.8311527810116414e7 0.0
1.8311527810116414e7 -6.23061999841118e6 0.0
0.0 0.0 0.0

-4.878742510768389e6 1.742535493006784e7 0.0
1.742535493006784e7 1.0639774780518241e7 0.0
0.0 0.0 0.0

4.740989951369245e6 4.296911336768391e6 0.0
4.296911336768391e6 -1.7784891646370683e7 0.0
0.0 0.0 0.0

-5.932532916928585e6 1.894185089786974e7 0.0
1.894185089786974e7 5.4441447480929885e6 0.0
0.0 0.0 0.0

-1.1219767996699805e6 2.3794150258891124e7 0.0
2.3794150258891124e7 -163128.70237027216 0.0
0.0 0.0 0.0

-1.0748815856854971e6 1.3972252225030623e7 0.0
1.3972252225030623e7 -1.753222744717971e7 0.0
0.0 0.0 0.0

-2.6623078789835656e6 1.8472535582990497e7 0.0
1.8472535582990497e7 -3.404269087511918e6 0.0
0.0 0.0 0.0

2.185405946094015e6 5.426557470527954e6 0.0
5.426557470527954e6 -6.373740260305334e6 0.0
0.0 0.0 0.0

3.510049103454332e6 1.7925256677537296e7 0.0
1.7925256677537296e7 1.0308499327346988e7 0.0
0.0 0.0 0.0

-6.482920648281182e6 1.823861814791228e7 0.0
1.823861814791228e7 -1.2183032161046937e6 0.0
0.0 0.0 0.0

1894.7673827712424 1.5434119115247346e7 0.0
1.5434119115247346e7 -9.810566980015093e6 0.0
0.0 0.0 0.0

-4.009814393408886e6 1.916167543697389e7 0.0
1.916167543697389e7 1.2931799510521474e6 0.0
0.0 0.0 0.0

1.7986942504506353e6 1.1582964603863763e7 0.0
1.1582964603863763e7 -1.8989029515826035e7 0.0
0.0 0.0 0.0

-9.942833002053106e6 -1.4751632292974468e6 0.0
-1.4751632292974468e6 3.692671336912706e7 0.0
0.0 0.0 0.0

515257.8830312565 1.3795785410125297e7 0.0
1.3795785410125297e7 -1.3004112643650293e7 0.0
0.0 0.0 0.0

2.075924128834065e6 1.5015075621659124e7 0.0
1.5015075621659124e7 -1.4357669551478978e6 0.0
0.0 0.0 0.0

-8.453621055574277e6 1.699059920495779e7 0.0
1.699059920495779e7 -3.685042944101969e7 0.0
0.0 0.0 0.0

4.365741806704246e6 6.391027475612419e6 0.0
6.391027475612419e6 -1.7656470904410318e7 0.0
0.0 0.0 0.0

584971.9235481415 1.4840855059332855e7 0.0
1.4840855059332855e7 -1.2829974595009856e7 0.0
0.0 0.0 0.0

-5.093624028601795e6 1.999551067196927e7 0.0
1.999551067196927e7 7.668609294089831e6 0.0
0.0 0.0 0.0

-2.875387782149242e6 2.1299209418195788e7 0.0
2.1299209418195788e7 -556283.7730832326 0.0
0.0 0.0 0.0

-4.7131559881593045e6 1.8396940454709683e7 0.0
1.8396940454709683e7 8.210110921399209e6 0.0
0.0 0.0 0.0

1.796154387473962e6 1.606630949887112e7 0.0
1.606630949887112e7 5.526005286165268e6 0.0
0.0 0.0 0.0

-6.1338528630561866e7 1.8271480102731735e7 0.0
1.8271480102731735e7 5.455411248047475e6 0.0
0.0 0.0 0.0

771032.5277582554 2.7824811932682423e6 0.0
2.7824811932682423e6 -2.845757992510738e6 0.0
0.0 0.0 0.0

-606879.071004773 1.2580850754436411e7 0.0
1.2580850754436411e7 -1.8205242052505037e6 0.0
0.0 0.0 0.0

6.650196292159784e6 1.573160821370409e7 0.0
1.573160821370409e7 -321398.873571408 0.0
0.0 0.0 0.0

-2.7073631630158536e6 2.4889690876667466e7 0.0
2.4889690876667466e7 2.4339769085751493e6 0.0
0.0 0.0 0.0

47297.99698609486 1.241068321773082e7 0.0
1.241068321773082e7 -2.626167375768327e7 0.0
0.0 0.0 0.0

-1.2340038569808914e6 1.6704497760840768e7 0.0
1.6704497760840768e7 -4.852833879416141e6 0.0
0.0 0.0 0.0

202132.12855294952 1.871693020727327e7 0.0
1.871693020727327e7 -5.9509884272645945e6 0.0
0.0 0.0 0.0

1.1755206032767664e6 1.2783921637287373e7 0.0
1.2783921637287373e7 -1.1294158456825448e7 0.0
0.0 0.0 0.0

402397.4254280308 1.8193848111823305e7 0.0
1.8193848111823305e7 -6.1844650985007165e6 0.0
0.0 0.0 0.0

-527797.7675269921 1.5552382138894852e7 0.0
1.5552382138894852e7 5.32751149010734e6 0.0
0.0 0.0 0.0

-2.4404735928725293e6 2.1144300503470313e7 0.0
2.1144300503470313e7 -337578.7427970928 0.0
0.0 0.0 0.0

3.5544761204822613e6 8.492697540075814e6 0.0
8.492697540075814e6 -1.7259911312913477e7 0.0
0.0 0.0 0.0

5.0898834447123185e6 3.7515280422318894e6 0.0
3.7515280422318894e6 -2.5071475423676454e7 0.0
0.0 0.0 0.0

-1.572780935777597e6 468008.66599393357 0.0
468008.66599393357 -631722.0282920322 0.0
0.0 0.0 0.0

-6.9780998559225295e6 -373708.0356928027 0.0
-373708.0356928027 1.6752224980507554e6 0.0
0.0 0.0 0.0

-226834.00860446086 1.6503797836040227e7 0.0
1.6503797836040227e7 1.0627157806123434e7 0.0
0.0 0.0 0.0

136744.97997139697 1.4956000931842474e7 0.0
1.4956000931842474e7 6.500555432622074e6 0.0
0.0 0.0 0.0

-1.0272982630525935e6 1.5498250807865402e7 0.0
1.5498250807865402e7 5.411115922897755e6 0.0
0.0 0.0 0.0

3.2709148177635577e6 5.216894377103488e6 0.0
5.216894377103488e6 -1.2305891341415703e7 0.0
0.0 0.0 0.0

1.0560386791042592e6 1.719927698740863e7 0.0
1.719927698740863e7 -6.33130456918485e6 0.0
0.0 0.0 0.0

2.437058363673263e6 4.616641132691829e6 0.0
4.616641132691829e6 -7.121570195497051e6 0.0
0.0 0.0 0.0

116561.46757329628 1.8211682183594216e7 0.0
1.8211682183594216e7 -6.452846873399532e6 0.0
0.0 0.0 0.0

-1.1664573424106497e7 1.3076758787076194e7 0.0
1.3076758787076194e7 2.0536401597788114e7 0.0
0.0 0.0 0.0

-1.6314528173971046e6 2.0360201733651333e7 0.0
2.0360201733651333e7 -2.686774683374024e6 0.0
0.0 0.0 0.0

-192124.76113261288 2.3097765691248354e7 0.0
2.3097765691248354e7 -1.522186649250907e6 0.0
0.0 0.0 0.0

3.8163257970482865e6 6.8601489030433e6 0.0
6.8601489030433e6 -1.8371527276347727e7 0.0
0.0 0.0 0.0

4.073363333732253e6 5.977827051785722e6 0.0
5.977827051785722e6 -1.872930043198335e7 0.0
0.0 0.0 0.0

8.042817590911195e6 1.6791448405302715e7 0.0
1.6791448405302715e7 -3.198788795044446e6 0.0
0.0 0.0 0.0

-1.9465111515647592e6 1.6681203625382408e7 0.0
1.6681203625382408e7 1.4807132424015842e7 0.0
0.0 0.0 0.0

200387.07119845273 1.4215035993153283e7 0.0
1.4215035993153283e7 -1.2199502632243821e7 0.0
0.0 0.0 0.0

-9.144231082348047e6 -5.678821068350275e6 0.0
-5.678821068350275e6 2.807561741213596e7 0.0
0.0 0.0 0.0

-2.7043994013486453e6 2.4010120740047555e7 0.0
2.4010120740047555e7 2.171776488454407e6 0.0
0.0 0.0 0.0

-1.2351286754452419e7 1.1181631608777363e7 0.0
1.1181631608777363e7 1.9498391801063836e7 0.0
0.0 0.0 0.0

-5.799330771327519e6 -1.8863155563450314e6 0.0
-1.8863155563450314e6 6.979723688324938e6 0.0
0.0 0.0 0.0

-226130.04532837262 1.4081266584656015e7 0.0
1.4081266584656015e7 -7.641509057588117e6 0.0
0.0 0.0 0.0

5.14754666331473e6 3.8112207902453267e6 0.0
3.8112207902453267e6 -2.4229047065493394e7 0.0
0.0 0.0 0.0

-4.519666262682525e6 2.2490975469638966e7 0.0
2.2490975469638966e7 5.324267317822109e6 0.0
0.0 0.0 0.0

-2.0538830496572254e6 1.8337982484296057e7 0.0
1.8337982484296057e7 -3.1681419539062697e6 0.0
0.0 0.0 0.0

1.9812703706011968e6 1.1225875074711367e7 0.0
1.1225875074711367e7 -1.9957254352283012e7 0.0
0.0 0.0 0.0

8.693197038806183e6 1.5220862183513235e7 0.0
1.5220862183513235e7 1.4390835004680834e6 0.0
0.0 0.0 0.0

-4.998348305500872e6 2.1888011880932756e7 0.0
2.1888011880932756e7 6.030866548137255e6 0.0
0.0 0.0 0.0

-1.003874397555381e7 -4.683177600161057e6 0.0
-4.683177600161057e6 2.6549401901454907e7 0.0
0.0 0.0 0.0

-7.451334389508137e6 -8.185438129876292e6 0.0
-8.185438129876292e6 1.796669863460143e7 0.0
0.0 0.0 0.0

2.8465726418859228e6 1.529837746810888e7 0.0
1.529837746810888e7 -1.237835127910203e6 0.0
0.0 0.0 0.0

-1.1437975778131846e6 1.8214457979907174e7 0.0
1.8214457979907174e7 -6.072214623971406e6 0.0
0.0 0.0 0.0

-1.0874278061921406e6 1.8614171578781027e7 0.0
1.8614171578781027e7 -5.729557131066332e6 0.0
0.0 0.0 0.0

-9.435170449773757e6 4.42045687173933e6 0.0
4.42045687173933e6 4.108721478387507e7 0.0
0.0 0.0 0.0

3.5639543860763134e6 3.6705503240815327e6 0.0
3.6705503240815327e6 -9.833337343073e6 0.0
0.0 0.0 0.0

-4.263899499802146e6 1.8155865130692713e7 0.0
1.8155865130692713e7 -1.4581898882695716e6 0.0
0.0 0.0 0.0

-7.388666671075933e6 1.8621206858969618e7 0.0
1.8621206858969618e7 -4.35347569914803e6 0.0
0.0 0.0 0.0

-2.1482204013914686e7 2.2037834721428286e7 0.0
2.2037834721428286e7 3.414543530182381e6 0.0
0.0 0.0 0.0

-1.913287871761573e6 2.4142101621344317e7 0.0
2.4142101621344317e7 991992.6479031107 0.0
0.0 0.0 0.0

152700.81438994932 1.4298258354622345e7 0.0
1.4298258354622345e7 -88648.83419247332 0.0
0.0 0.0 0.0

-9.999005172126126e6 -3.818122084088682e6 0.0
-3.818122084088682e6 2.8380321457824506e7 0.0
0.0 0.0 0.0

6.681929293586155e6 1.661679498426136e7 0.0
1.661679498426136e7 -2.710686597589307e6 0.0
0.0 0.0 0.0

-429010.54100421304 1.5344955627866836e7 0.0
1.5344955627866836e7 -7.997714525702822e6 0.0
0.0 0.0 0.0

-9.456291185985375e6 -4.014947799589447e6 0.0
-4.014947799589447e6 2.1044189434418757e7 0.0
0.0 0.0 0.0

-5.139347286904278e6 1.8707187938911244e7 0.0
1.8707187938911244e7 7.508118448741748e6 0.0
0.0 0.0 0.0

-4.822075912876129e6 1.970532780737146e7 0.0
1.970532780737146e7 6.958223653724261e6 0.0
0.0 0.0 0.0

-1.3099654674698017e6 2.6209290401637624e6 0.0
2.6209290401637624e6 -43199.45841988182 0.0
0.0 0.0 0.0

4.330221987569297e6 5.400734807753329e6 0.0
5.400734807753329e6 -1.9387041252909288e7 0.0
0.0 0.0 0.0

2.8876313817132097e6 7.719439734670666e6 0.0
7.719439734670666e6 -3.2610182704746515e7 0.0
0.0 0.0 0.0

1.4632199016994492e6 1.75964298619911e7 0.0
1.75964298619911e7 1.0322454962463101e7 0.0
0.0 0.0 0.0

2.883667144823473e6 4.72652810468782e6 0.0
4.72652810468782e6 -8.988973825765077e6 0.0
0.0 0.0 0.0

9.36325754842526e6 2.2044390327146847e7 0.0
2.2044390327146847e7 -9.006109838681415e6 0.0
0.0 0.0 0.0

4.928366105376645e6 4.893182281614286e6 0.0
4.893182281614286e6 -1.8487802544685006e7 0.0
0.0 0.0 0.0

4.267328347788893e6 5.294178737603081e6 0.0
5.294178737603081e6 -1.340775986796537e7 0.0
0.0 0.0 0.0

4.299049367805249e6 5.189018500849885e6 0.0
5.189018500849885e6 -1.6691281504769128e7 0.0
0.0 0.0 0.0

259964.38540103234 1.5017183388290979e7 0.0
1.5017183388290979e7 1.0999676075874425e6 0.0
0.0 0.0 0.0

46851.76881286572 1.4753902896728564e7 0.0
1.4753902896728564e7 4.943193833882187e6 0.0
0.0 0.0 0.0

1.2690210049670488e6 1.2797619848465778e7 0.0
1.2797619848465778e7 -1.8178190288783338e7 0.0
0.0 0.0 0.0

7.899254015618287e6 2.322003152446741e7 0.0
2.322003152446741e7 -7.521090202640662e6 0.0
0.0 0.0 0.0

-9.165751477621734e6 -5.808053099421402e6 0.0
-5.808053099421402e6 2.043812905358003e7 0.0
0.0 0.0 0.0

-4.887145064642364e6 1.8914355943387963e7 0.0
1.8914355943387963e7 8.799089555560607e6 0.0
0.0 0.0 0.0

-3.25971071563782e6 2.378825666212893e7 0.0
2.378825666212893e7 1.8202859422387658e6 0.0
0.0 0.0 0.0

-1.8755508281724802e6 2.045915608277509e7 0.0
2.045915608277509e7 -2.1527955387455653e6 0.0
0.0 0.0 0.0

-6.043914617600091e6 -3.8871346535510905e6 0.0
-3.8871346535510905e6 1.066341467835515e7 0.0
0.0 0.0 0.0

-6.859273767529545e6 -344819.61802650546 0.0
-344819.61802650546 8.131704441013852e6 0.0
0.0 0.0 0.0

-462377.83298866544 1.659736918864694e7 0.0
1.659736918864694e7 1.3579939659421504e7 0.0
0.0 0.0 0.0

196743.35973509063 2.164332774332808e6 0.0
2.164332774332808e6 -1.3888160843092792e6 0.0
0.0 0.0 0.0

1.859158012485906e6 1.9063428735428423e7 0.0
1.9063428735428423e7 -5.0542304716179855e6 0.0
0.0 0.0 0.0

-1.2437896819832153e6 1.7432526433518488e7 0.0
1.7432526433518488e7 -7.504200152850967e6 0.0
0.0 0.0 0.0

594739.9948428199 1.4711235202564055e7 0.0
1.4711235202564055e7 -1.361275728532712e7 0.0
0.0 0.0 0.0

-3.283382087144942e6 1.7809899016149227e7 0.0
1.7809899016149227e7 672843.6437755888 0.0
0.0 0.0 0.0

-5.410724740034943e6 1.811728478554229e7 0.0
1.811728478554229e7 7.78520101676905e6 0.0
0.0 0.0 0.0

-1.1400200209517706e7 1.1053861357488858e7 0.0
1.1053861357488858e7 1.7452210524209023e7 0.0
0.0 0.0 0.0

-1.7285402262322217e7 2.9314520060001507e7 0.0
2.9314520060001507e7 7.106378942811148e6 0.0
0.0 0.0 0.0

3.061036571386189e6 4.669406807859848e6 0.0
4.669406807859848e6 -9.192677098738797e6 0.0
0.0 0.0 0.0

550291.9457699703 1.4460203642113348e7 0.0
1.4460203642113348e7 -1.121395470970737e7 0.0
0.0 0.0 0.0

4.727120607932968e6 4.285138683331317e6 0.0
4.285138683331317e6 -3.435604112482545e7 0.0
0.0 0.0 0.0

-274949.1156331524 1.8602630007669006e7 0.0
1.8602630007669006e7 -6.121280895249784e6 0.0
0.0 0.0 0.0

-6.78524639672967e6 9.591713339064132e6 0.0
9.591713339064132e6 7.297729228066223e6 0.0
0.0 0.0 0.0

-4.519847046800227e6 1.377639316755346e7 0.0
1.377639316755346e7 -2.1276799646957554e7 0.0
0.0 0.0 0.0

1.8395407785196047e7 1.64127868225185e7 0.0
1.64127868225185e7 3.832970324376691e6 0.0
0.0 0.0 0.0

-6.674958633526452e6 1.8909206697090578e6 0.0
1.8909206697090578e6 9.611434845431937e6 0.0
0.0 0.0 0.0

3.6269663845124906e6 1.745728328389486e7 0.0
1.745728328389486e7 8.667433977642981e6 0.0
0.0 0.0 0.0

2.5876477247894076e6 1.4138154514073564e7 0.0
1.4138154514073564e7 1.5611708369935386e7 0.0
0.0 0.0 0.0

-4.504009045372913e6 1.3766737297773574e7 0.0
1.3766737297773574e7 -1.0620289034894899e7 0.0
0.0 0.0 0.0

-894855.2951321639 2.5079296112268418e7 0.0
2.5079296112268418e7 -1.8288887939885915e6 0.0
0.0 0.0 0.0

-2.1767374072556365e6 1.832705202142567e7 0.0
1.832705202142567e7 -4.9480669867898775e6 0.0
0.0 0.0 0.0

-7.598093734816527e6 1.4013369631611329e7 0.0
1.4013369631611329e7 1.321316314529933e7 0.0
0.0 0.0 0.0

2.1733223018864e6 7.8491795789010385e6 0.0
7.8491795789010385e6 -4.509494535736089e7 0.0
0.0 0.0 0.0

-7.008632648437804e6 897537.0622007718 0.0
897537.0622007718 8.303939010633204e6 0.0
0.0 0.0 0.0

-504001.07085466874 1.5313639893614095e7 0.0
1.5313639893614095e7 -5.409010493664954e6 0.0
0.0 0.0 0.0

3.5544039952451335e6 1.6802841735290233e7 0.0
1.6802841735290233e7 6.987248167658574e6 0.0
0.0 0.0 0.0

-3.430619076860587e6 1.1037312702721655e7 0.0
1.1037312702721655e7 6.239381784956092e6 0.0
0.0 0.0 0.0

-5.467078636124579e6 1.7451482728319313e7 0.0
1.7451482728319313e7 1.116488601815945e7 0.0
0.0 0.0 0.0

-3.9978998043352123e6 2.0854615596856248e7 0.0
2.0854615596856248e7 4.72143609926868e6 0.0
0.0 0.0 0.0

-1.5856051867639389e7 2.987185594145816e7 0.0
2.987185594145816e7 7.984625572356675e6 0.0
0.0 0.0 0.0

1.325454019730946e6 7.065254613958198e6 0.0
7.065254613958198e6 -5.7603827859498495e6 0.0
0.0 0.0 0.0

-4.466780015980311e6 2.062410789209997e7 0.0
2.062410789209997e7 4.37511019770194e6 0.0
0.0 0.0 0.0

-1.7622088714862557e6 1.764859854762449e7 0.0
1.764859854762449e7 -5.093761036318068e6 0.0
0.0 0.0 0.0

6.94125843343218e6 1.7733978607844744e7 0.0
1.7733978607844744e7 9.40858575154024e6 0.0
0.0 0.0 0.0

-2.3319324140078877e6 1.9727561795219816e7 0.0
1.9727561795219816e7 -3.389027956865322e6 0.0
0.0 0.0 0.0

2.4313726268656407e6 4.663383820125358e6 0.0
4.663383820125358e6 -7.782408391382689e6 0.0
0.0 0.0 0.0

-511082.4565759362 1.5580236895008631e7 0.0
1.5580236895008631e7 -1.0027461971123641e7 0.0
0.0 0.0 0.0

-9.68607979982896e6 -486760.0367475431 0.0
-486760.0367475431 1.5768755722211026e7 0.0
0.0 0.0 0.0

4.628149691570265e6 5.852157712240269e6 0.0
5.852157712240269e6 -1.819990205033037e7 0.0
0.0 0.0 0.0

4.564158974738169e6 4.888095105168533e6 0.0
4.888095105168533e6 -3.70425003168337e7 0.0
0.0 0.0 0.0

-691274.5780016361 1.695501458952869e7 0.0
1.695501458952869e7 9.772419145294596e6 0.0
0.0 0.0 0.0

264573.6754336287 1.538365458269396e7 0.0
1.538365458269396e7 -1.2110730461886935e7 0.0
0.0 0.0 0.0

-8.008373448198149e6 1.4281254516656484e7 0.0
1.4281254516656484e7 1.147149380017646e7 0.0
0.0 0.0 0.0

4.827288636178568e6 3.5028179823879325e6 0.0
3.5028179823879325e6 -1.6202856622968832e7 0.0
0.0 0.0 0.0

1.562738542004263e6 1.2892826907999096e7 0.0
1.2892826907999096e7 -1.4319539742158093e7 0.0
0.0 0.0 0.0

265377.31728489697 1.424902023859165e7 0.0
1.424902023859165e7 -1.435716787363952e7 0.0
0.0 0.0 0.0

-7.469372729131646e6 1.5207806802193817e7 0.0
1.5207806802193817e7 1.10903120931997e7 0.0
0.0 0.0 0.0

-4.1404401826083334e6 5.116097640563141e6 0.0
5.116097640563141e6 4.287086245716982e6 0.0
0.0 0.0 0.0

-8.052113612101773e6 -3.779340616320634e6 0.0
-3.779340616320634e6 1.559897613429224e7 0.0
0.0 0.0 0.0

28843.008954231627 1.496552513268246e7 0.0
1.496552513268246e7 -1.2554495648353934e7 0.0
0.0 0.0 0.0

-5.767321916680856e6 8.639402643293362e6 0.0
8.639402643293362e6 7.748877067559229e6 0.0
0.0 0.0 0.0

6.326003544897417e6 1.6790642850695584e7 0.0
1.6790642850695584e7 9.082929848125292e6 0.0
0.0 0.0 0.0

-1.3916143881403534e6 1.7850021374963176e7 0.0
1.7850021374963176e7 -6.989420411554563e6 0.0
0.0 0.0 0.0

2.548357391038456e6 4.650902224550552e6 0.0
4.650902224550552e6 -7.174206748919803e6 0.0
0.0 0.0 0.0

-1.0999665728249833e7 2.8684689725900833e6 0.0
2.8684689725900833e6 2.897016350636044e7 0.0
0.0 0.0 0.0

-3.4699985956100924e6 2.2052896902239945e7 0.0
2.2052896902239945e7 1.7713703249117895e6 0.0
0.0 0.0 0.0

-7.61710878838948e6 2.3549073784965362e7 0.0
2.3549073784965362e7 5.991690699995111e6 0.0
0.0 0.0 0.0

-8.429897129359134e6 2.327850215595461e6 0.0
2.327850215595461e6 9.209544783864414e6 0.0
0.0 0.0 0.0

-1.0296576413042177e7 -2.201366735469469e6 0.0
-2.201366735469469e6 2.2631798660839945e7 0.0
0.0 0.0 0.0

1.6754998681580257e6 1.1658065889679724e7 0.0
1.1658065889679724e7 -2.008840956051845e7 0.0
0.0 0.0 0.0

-6.49858429723746e6 1.5698184099201182e7 0.0
1.5698184099201182e7 1.1861670924475748e7 0.0
0.0 0.0 0.0

-1.1442245073763892e7 4.11766325648105e6 0.0
4.11766325648105e6 2.9336944589383308e7 0.0
0.0 0.0 0.0

-4.7376199499976866e7 1.4292859199594168e7 0.0
1.4292859199594168e7 8.97048390432487e6 0.0
0.0 0.0 0.0

1.5616726234330637e6 1.1063810749764858e7 0.0
1.1063810749764858e7 -1.2887431536834333e7 0.0
0.0 0.0 0.0

338113.2063248035 1.4861413490196636e7 0.0
1.4861413490196636e7 -382769.90479202487 0.0
0.0 0.0 0.0

5.3833773254146585e6 3.009738894597348e6 0.0
3.009738894597348e6 -2.366458209563102e7 0.0
0.0 0.0 0.0

-2.2931206430223305e6 1.664199069030588e7 0.0
1.664199069030588e7 1.2470508764963347e7 0.0
0.0 0.0 0.0

-1.2238547312845808e7 4.1399838989265e6 0.0
4.1399838989265e6 2.668375383082304e7 0.0
0.0 0.0 0.0

1.4931440277838614e6 6.269393136563353e6 0.0
6.269393136563353e6 -7.077286891127482e6 0.0
0.0 0.0 0.0

-1.6781896841527398e6 1.7697560833179053e7 0.0
1.7697560833179053e7 -5.0510720361349005e6 0.0
0.0 0.0 0.0

-3.788074474785566e6 1.9876820343543697e7 0.0
1.9876820343543697e7 994355.8896455092 0.0
0.0 0.0 0.0

-4.968478876024484e6 1.752089354463602e7 0.0
1.752089354463602e7 7.4974440475674e6 0.0
0.0 0.0 0.0

-5.680433950948085e6 2.2976414599961206e7 0.0
2.2976414599961206e7 5.406925123849442e6 0.0
0.0 0.0 0.0

-4.0016749855625303e6 1.6429487270775774e7 0.0
1.6429487270775774e7 399969.8208030206 0.0
0.0 0.0 0.0

-1.0293218538780147e7 -2.433748964313514e6 0.0
-2.433748964313514e6 3.2673005537793174e7 0.0
0.0 0.0 0.0

279844.87720147986 1.6017140891940856e7 0.0
1.6017140891940856e7 1.1723892159148144e7 0.0
0.0 0.0 0.0

812818.999854241 1.4265318603497634e7 0.0
1.4265318603497634e7 -1.2272841891410386e7 0.0
0.0 0.0 0.0

-1.1645068650237888e7 2.194073189747966e7 0.0
2.194073189747966e7 868745.4042686541 0.0
0.0 0.0 0.0

-2.850188495699737e6 1.5122065817508919e6 0.0
1.5122065817508919e6 2.6107791315392987e6 0.0
0.0 0.0 0.0

-2.9676168750285944e6 2.3478844939108383e7 0.0
2.3478844939108383e7 2.618432139771349e6 0.0
0.0 0.0 0.0

68173.07736631192 1.4441844226458333e7 0.0
1.4441844226458333e7 -1.6051069785549375e6 0.0
0.0 0.0 0.0

-1.1514252839590993e7 1.3813318921386434e7 0.0
1.3813318921386434e7 1.892060125031467e7 0.0
0.0 0.0 0.0

3.0773357676781304e6 9.918343136065688e6 0.0
9.918343136065688e6 -1.6610016402958585e7 0.0
0.0 0.0 0.0

-1.1389657446634343e7 1.2604022563283034e7 0.0
1.2604022563283034e7 1.8247941820040394e7 0.0
0.0 0.0 0.0

2.219811796051874e6 4.717281510907369e6 0.0
4.717281510907369e6 -6.892306734089313e6 0.0
0.0 0.0 0.0

4.29216490510207e6 6.7841871257391125e6 0.0
6.7841871257391125e6 -1.808145055332547e7 0.0
0.0 0.0 0.0

-867682.2534886398 1.6834332213817246e7 0.0
1.6834332213817246e7 -5.490693900151185e6 0.0
0.0 0.0 0.0

-3.918571680780758e6 1.7567655887926083e7 0.0
1.7567655887926083e7 2.0769478484898664e6 0.0
0.0 0.0 0.0

-3.459249967301021e6 2.0012026872604378e7 0.0
2.0012026872604378e7 2.0325735558734755e6 0.0
0.0 0.0 0.0

183675.23231061688 1.8112709949944336e7 0.0
1.8112709949944336e7 -6.309811624016048e6 0.0
0.0 0.0 0.0

4.637170467513705e6 5.361656960521975e6 0.0
5.361656960521975e6 -1.6607313087468617e7 0.0
0.0 0.0 0.0

1.7665017658578637e6 4.636048498340529e6 0.0
4.636048498340529e6 -5.609830135643555e6 0.0
0.0 0.0 0.0

3.9179537689434057e6 6.324617969810733e6 0.0
6.324617969810733e6 -1.9157086008626994e7 0.0
0.0 0.0 0.0

2.118705325386483e6 6.238486602194993e6 0.0
6.238486602194993e6 -7.312235248251607e6 0.0
0.0 0.0 0.0

1.0273909768891629e7 1.6541706481768794e7 0.0
1.6541706481768794e7 7.366170621825432e6 0.0
0.0 0.0 0.0

-3.6618785592749678e6 2.5620289801665004e7 0.0
2.5620289801665004e7 3.498257998966305e6 0.0
0.0 0.0 0.0

-9.93340984153492e6 -4.783104168114496e6 0.0
-4.783104168114496e6 2.5473441806643456e7 0.0
0.0 0.0 0.0

3.7176652429613434e6 7.511370845432246e6 0.0
7.511370845432246e6 -2.993571281367741e7 0.0
0.0 0.0 0.0

-193916.33867457556 1.862534954982746e7 0.0
1.862534954982746e7 -6.158208947385012e6 0.0
0.0 0.0 0.0

-920401.6371644079 1.6595858510840133e7 0.0
1.6595858510840133e7 -6.584071147694146e6 0.0
0.0 0.0 0.0

3.8185120546515733e6 7.009612927089019e6 0.0
7.009612927089019e6 -2.3425435501134314e7 0.0
0.0 0.0 0.0

-6.065461083687996e6 2.582047063984719e7 0.0
2.582047063984719e7 5.620271903188088e6 0.0
0.0 0.0 0.0

1.7745037848573085e6 1.8029060485736094e7 0.0
1.8029060485736094e7 1.0318560152966833e7 0.0
0.0 0.0 0.0

-3.2001970661502384e7 2.709311258778765e7 0.0
2.709311258778765e7 9.547712214203214e6 0.0
0.0 0.0 0.0

-5.3261093523595715e6 1.6327619523399603e7 0.0
1.6327619523399603e7 1.4607494355360296e7 0.0
0.0 0.0 0.0

3.0952787430978063e6 9.188484637413852e6 0.0
9.188484637413852e6 -1.697328536506284e7 0.0
0.0 0.0 0.0

4.512989217096354e7 1.721318747091569e7 0.0
1.721318747091569e7 4.468084342890892e6 0.0
0.0 0.0 0.0

-28093.176977365278 1.7192364046898242e7 0.0
1.7192364046898242e7 1.3201137511828095e7 0.0
0.0 0.0 0.0

-1.0480586587746892e7 195540.46893080382 0.0
195540.46893080382 1.687484907931304e7 0.0
0.0 0.0 0.0

42314.66540702223 1.5135915537384674e7 0.0
1.5135915537384674e7 5.260306381622603e6 0.0
0.0 0.0 0.0

-696223.2162056267 1.3633476859751262e7 0.0
1.3633476859751262e7 -1.701422736253189e7 0.0
0.0 0.0 0.0

3.5064206111944644e6 1.8522017088436417e7 0.0
1.8522017088436417e7 -5.016448770066927e6 0.0
0.0 0.0 0.0

-4.8464465924158925e6 1.776317007125619e7 0.0
1.776317007125619e7 6.098069579538823e6 0.0
0.0 0.0 0.0

-1.1924799780132622e7 2.5978699396251603e6 0.0
2.5978699396251603e6 2.600342112881974e7 0.0
0.0 0.0 0.0

-5.712163409197766e6 2.615914316420774e7 0.0
2.615914316420774e7 4.629857581172474e6 0.0
0.0 0.0 0.0

-5.867479209929299e6 1.826133929836296e7 0.0
1.826133929836296e7 3.850486850629291e6 0.0
0.0 0.0 0.0

-3.9690292918967716e6 1.9713850137754925e7 0.0
1.9713850137754925e7 1.5441152322494767e6 0.0
0.0 0.0 0.0

-1.0670853263115687e6 2.189317412051387e7 0.0
2.189317412051387e7 -2.123576769822068e6 0.0
0.0 0.0 0.0

-3.4904219611182115e6 2.1661048709096994e7 0.0
2.1661048709096994e7 1.6474834207495172e6 0.0
0.0 0.0 0.0

-32664.82381122015 1.509234620132649e7 0.0
1.509234620132649e7 -388307.9019756534 0.0
0.0 0.0 0.0

-2.749413554882558e6 1.6718942427309103e7 0.0
1.6718942427309103e7 1.2127858297583967e7 0.0
0.0 0.0 0.0

1.2304111798697782e6 1.5329165938981896e7 0.0
1.5329165938981896e7 -1.0152525534099222e6 0.0
0.0 0.0 0.0

-3.9899880906690042e6 1.4441384155661644e7 0.0
1.4441384155661644e7 -2.629543397875968e7 0.0
0.0 0.0 0.0

-112565.23190361599 1.5187486597048417e7 0.0
1.5187486597048417e7 970895.7931045434 0.0
0.0 0.0 0.0

-4.1093403813539348e6 1.7411281364869464e7 0.0
1.7411281364869464e7 995823.0554623362 0.0
0.0 0.0 0.0

-1.448155989274039e6 1.288478396590164e7 0.0
1.288478396590164e7 1.2639663061827743e7 0.0
0.0 0.0 0.0

-464040.549140987 1.6555622192902863e7 0.0
1.6555622192902863e7 -8.881266714783337e6 0.0
0.0 0.0 0.0

1.2405781343090693e6 1.2641155257153088e7 0.0
1.2641155257153088e7 -1.5139351742720934e7 0.0
0.0 0.0 0.0

4.752258480708772e6 4.941635206178682e6 0.0
4.941635206178682e6 -1.720101715889202e7 0.0
0.0 0.0 0.0

-423393.16040435387 1.7064388511255488e7 0.0
1.7064388511255488e7 1.1960547757032724e7 0.0
0.0 0.0 0.0

-2.7162634561070795e6 1.670494270845283e7 0.0
1.670494270845283e7 8.65104006343024e6 0.0
0.0 0.0 0.0

-1.1478621414069923e7 1.3154796224488314e7 0.0
1.3154796224488314e7 1.8274225054873105e7 0.0
0.0 0.0 0.0

-4.821173078143131e6 1.7314107002727836e7 0.0
1.7314107002727836e7 6.85317634474431e6 0.0
0.0 0.0 0.0

-1.7635388607507353e6 1.6934961340340633e7 0.0
1.6934961340340633e7 -5.6944507836371735e6 0.0
0.0 0.0 0.0

-1.1799918502502078e7 1.3225976472069323e7 0.0
1.3225976472069323e7 1.687920619872777e7 0.0
0.0 0.0 0.0

-1.2114612324999629e7 1.307732416531541e7 0.0
1.307732416531541e7 1.9035281727380358e7 0.0
0.0 0.0 0.0

-1.1879212590290746e7 1.1085855012341263e7 0.0
1.1085855012341263e7 1.5616851331306487e7 0.0
0.0 0.0 0.0

-7.4373195671964e6 -5.376910777863429e6 0.0
-5.376910777863429e6 1.3931655640792197e7 0.0
0.0 0.0 0.0

-4.571863452327898e6 1.8913201503154114e7 0.0
1.8913201503154114e7 7.547326998883567e6 0.0
0.0 0.0 0.0

-829024.5867265994 1.3219156525306983e7 0.0
1.3219156525306983e7 -2.382042751266986e7 0.0
0.0 0.0 0.0

835101.9698250834 1.278157899122616e7 0.0
1.278157899122616e7 -1.818771280436214e7 0.0
0.0 0.0 0.0

-1.91635215656324e7 2.4004528056678224e7 0.0
2.4004528056678224e7 -962938.6614215281 0.0
0.0 0.0 0.0

-1.0570515644384049e7 2.003609003056472e6 0.0
2.003609003056472e6 3.335927887482163e7 0.0
0.0 0.0 0.0

1.209237075732951e6 1.3160445405966874e7 0.0
1.3160445405966874e7 -1.7147870328033313e7 0.0
0.0 0.0 0.0

-2.923349749103239e6 2.2022644780837707e7 0.0
2.2022644780837707e7 293699.08355809725 0.0
0.0 0.0 0.0

550225.4459112594 1.5399545139552897e7 0.0
1.5399545139552897e7 8.981907191259485e6 0.0
0.0 0.0 0.0

-3.236663697919369e6 -6.4264549552605115e6 0.0
-6.4264549552605115e6 1.0384142758449709e7 0.0
0.0 0.0 0.0

-357598.8935096237 1.4887795161678642e7 0.0
1.4887795161678642e7 -1.8065864116763629e6 0.0
0.0 0.0 0.0

-1.5997919735382781e6 1.617283125526807e7 0.0
1.617283125526807e7 -6.574965119918186e6 0.0
0.0 0.0 0.0

-9.982274853770327e6 4.501202983138015e6 0.0
4.501202983138015e6 1.1107951091438383e7 0.0
0.0 0.0 0.0

5.304089578625739e6 2.647161445317637e6 0.0
2.647161445317637e6 -2.9195326152557652e7 0.0
0.0 0.0 0.0

523231.67311605765 8.919265193623865e6 0.0
8.919265193623865e6 -7.408200852759251e6 0.0
0.0 0.0 0.0

-1.1731201543698952e7 -1.1211569912691044e6 0.0
-1.1211569912691044e6 2.0179656565620072e7 0.0
0.0 0.0 0.0

-593780.8770578722 1.6845049727619164e7 0.0
1.6845049727619164e7 -8.90739457451652e6 0.0
0.0 0.0 0.0

2.348301486619026e6 1.5645119180138275e7 0.0
1.5645119180138275e7 1.557819796615523e7 0.0
0.0 0.0 0.0

452080.3753182292 8.530391323842036e6 0.0
8.530391323842036e6 -4.74316698167674e6 0.0
0.0 0.0 0.0

1.9858119401750017e6 1.7723738290575814e7 0.0
1.7723738290575814e7 1.1344496837170316e7 0.0
0.0 0.0 0.0

-4.141365760401343e6 2.618476613043354e7 0.0
2.618476613043354e7 3.7189881752272006e6 0.0
0.0 0.0 0.0

-1.1131859827986274e7 339744.6954760664 0.0
339744.6954760664 1.4508124914669778e7 0.0
0.0 0.0 0.0

-2.2506331806131853e6 1.6449116935630893e7 0.0
1.6449116935630893e7 1.2293366946847796e7 0.0
0.0 0.0 0.0

2.6212369266596995e6 9.44719556292473e6 0.0
9.44719556292473e6 -1.7375277121711235e7 0.0
0.0 0.0 0.0

-1.4605650809299566e7 2.084242522944322e7 0.0
2.084242522944322e7 4.131334585203481e6 0.0
0.0 0.0 0.0

-5.173666509400493e6 -439678.03391271766 0.0
-439678.03391271766 5.127121136164001e6 0.0
0.0 0.0 0.0

-5.717369744315521e6 1.82870107423182e7 0.0
1.82870107423182e7 -4.361619103070243e6 0.0
0.0 0.0 0.0

1.8645147202241063e7 1.741829982118125e7 0.0
1.741829982118125e7 4.211435148920599e6 0.0
0.0 0.0 0.0

-2.1461525862268526e6 1.77836546292581e7 0.0
1.77836546292581e7 -4.870231821040764e6 0.0
0.0 0.0 0.0

3.003512571028148e6 9.609081225283142e6 0.0
9.609081225283142e6 -1.6156466691913653e7 0.0
0.0 0.0 0.0

-5.042181810594313e6 1.903512127669066e7 0.0
1.903512127669066e7 8.672040867120905e6 0.0
0.0 0.0 0.0

-9.95010425457329e6 -1.3692680244952224e6 0.0
-1.3692680244952224e6 3.779940275727692e7 0.0
0.0 0.0 0.0

-2.775896333703006e6 1.68162869732764e7 0.0
1.68162869732764e7 -8.340151495670086e6 0.0
0.0 0.0 0.0

-3.0040241523201317e6 2.3882585774465032e7 0.0
2.3882585774465032e7 2.747346491937179e6 0.0
0.0 0.0 0.0

424154.0077218963 1.2151397053799937e7 0.0
1.2151397053799937e7 -2.343109615084579e7 0.0
0.0 0.0 0.0

456268.50852701627 1.479918239546979e7 0.0
1.479918239546979e7 -1.3572811202274835e7 0.0
0.0 0.0 0.0

628302.4584795972 1.437607527735605e7 0.0
1.437607527735605e7 -1.4480490162802069e7 0.0
0.0 0.0 0.0

-1.2051365928799825e7 1.024046625166018e7 0.0
1.024046625166018e7 2.343865474275953e7 0.0
0.0 0.0 0.0

-4.948009071228752e6 1.80963722592104e7 0.0
1.80963722592104e7 6.531745098876191e6 0.0
0.0 0.0 0.0

-8.145654936286237e6 9.845824524766617e6 0.0
9.845824524766617e6 7.131818046703759e7 0.0
0.0 0.0 0.0

4.857692972951118e6 1.0426405089442685e7 0.0
1.0426405089442685e7 -5.927685718019479e7 0.0
0.0 0.0 0.0

-1.023029552214154e7 2.2057765600703966e7 0.0
2.2057765600703966e7 -3.463203098768303e6 0.0
0.0 0.0 0.0

-3.4776247624175325e6 1.6142260191082994e7 0.0
1.6142260191082994e7 9.279277183132552e6 0.0
0.0 0.0 0.0

-1.5076476218589604e7 2.1384662132173233e7 0.0
2.1384662132173233e7 381744.9543440584 0.0
0.0 0.0 0.0

-5.275748209285816e6 -1.1591690057613512e6 0.0
-1.1591690057613512e6 9.125959202561926e6 0.0
0.0 0.0 0.0

-1.0127981727704806e7 1.3894287809717838e7 0.0
1.3894287809717838e7 1.489521338291385e7 0.0
0.0 0.0 0.0

-6.6200425462537715e6 1.9087326866392422e7 0.0
1.9087326866392422e7 -3.388122876027181e6 0.0
0.0 0.0 0.0

-1.0784123457859783e7 78454.20255755323 0.0
78454.20255755323 2.24046621350186e7 0.0
0.0 0.0 0.0

1.7941222215796564e7 1.5957109438328061e7 0.0
1.5957109438328061e7 3.950560259974258e6 0.0
0.0 0.0 0.0

-2.4666395308182957e6 1.6536389777654551e7 0.0
1.6536389777654551e7 1.4572931451330282e7 0.0
0.0 0.0 0.0

-6.35402000844714e6 1.5514922359051974e7 0.0
1.5514922359051974e7 1.1516069542934678e7 0.0
0.0 0.0 0.0

-2.110784190766543e7 2.7506615343489096e7 0.0
2.7506615343489096e7 1.0949508249999972e7 0.0
0.0 0.0 0.0

1.7336156002810942e6 1.6078651485851109e7 0.0
1.6078651485851109e7 2.802274021989317e6 0.0
0.0 0.0 0.0

1.877093526204159e6 1.4863232108580828e7 0.0
1.4863232108580828e7 -2.317599924551615e6 0.0
0.0 0.0 0.0

-4.87996496766843e6 2.0050965318407293e7 0.0
2.0050965318407293e7 7.740487292606838e6 0.0
0.0 0.0 0.0

-4.409588452481826e6 1.7651040621936575e7 0.0
1.7651040621936575e7 -362941.0353752638 0.0
0.0 0.0 0.0

-419352.8344271738 1.362011315914997e7 0.0
1.362011315914997e7 -2.3008635529782535e6 0.0
0.0 0.0 0.0

1.8282025305609573e6 1.5558110412249073e7 0.0
1.5558110412249073e7 -3.8883344476454747e6 0.0
0.0 0.0 0.0

-218632.44952427968 1.6493268053157698e7 0.0
1.6493268053157698e7 9.912106167131415e6 0.0
0.0 0.0 0.0

-320104.2667703764 2.4249369203659922e7 0.0
2.4249369203659922e7 -866220.5372178715 0.0
0.0 0.0 0.0

-4.952672858422534e6 1.869048713095259e7 0.0
1.869048713095259e7 8.218332048049588e6 0.0
0.0 0.0 0.0

-5.177083436640937e6 2.586518106698037e7 0.0
2.586518106698037e7 3.214955767902392e6 0.0
0.0 0.0 0.0

-2.987244140916791e6 1.4040189418084025e7 0.0
1.4040189418084025e7 -2.900623158604067e7 0.0
0.0 0.0 0.0

-8.94047285201451e6 1.682765489812719e7 0.0
1.682765489812719e7 -5.373056577133132e7 0.0
0.0 0.0 0.0

8.351592055855738e6 1.6904129107142188e7 0.0
1.6904129107142188e7 6.205534827797829e7 0.0
0.0 0.0 0.0

2.590891046334739e6 1.5909484217294313e7 0.0
1.5909484217294313e7 1.5169288076525241e7 0.0
0.0 0.0 0.0

2.792573784762455e6 8.79096175915733e6 0.0
8.79096175915733e6 -2.6635462640576668e7 0.0
0.0 0.0 0.0

-1.4945692881662133e6 2.4037527109907527e7 0.0
2.4037527109907527e7 -1.1459010952420365e6 0.0
0.0 0.0 0.0

-934692.2242326087 1.776007554797147e7 0.0
1.776007554797147e7 -6.852760220437368e6 0.0
0.0 0.0 0.0

-531336.7608115735 1.566496265989324e7 0.0
1.566496265989324e7 -4.763121147936255e6 0.0
0.0 0.0 0.0

-387633.8162590936 1.709835924552425e7 0.0
1.709835924552425e7 -8.50997744346364e6 0.0
0.0 0.0 0.0

-2.6896498034491725e7 2.834936010205197e7 0.0
2.834936010205197e7 1.1602408723534489e7 0.0
0.0 0.0 0.0

-3.610036539535107e6 2.3646028149201483e7 0.0
2.3646028149201483e7 2.3743773491568193e6 0.0
0.0 0.0 0.0

-5.912372244908532e6 2.04767238298145e7 0.0
2.04767238298145e7 7.001310078747122e6 0.0
0.0 0.0 0.0

4.9165754962149e6 3.790144595950374e6 0.0
3.790144595950374e6 -3.1178780661937527e7 0.0
0.0 0.0 0.0

3.6767944257122376e6 1.907010610656908e7 0.0
1.907010610656908e7 -5.265798801155617e6 0.0
0.0 0.0 0.0

337533.28116713464 1.2549682954350777e7 0.0
1.2549682954350777e7 -2.2227230795495808e7 0.0
0.0 0.0 0.0

2.7369122340433556e6 1.9490207647113856e7 0.0
1.9490207647113856e7 -5.109902347399734e6 0.0
0.0 0.0 0.0

-158158.03604134894 1.3051860535835499e7 0.0
1.3051860535835499e7 -1.5282156313991002e6 0.0
0.0 0.0 0.0

-1.7477912791319005e6 1.693608920242067e7 0.0
1.693608920242067e7 1.2900830782905508e7 0.0
0.0 0.0 0.0

-4.909642651029849e6 2.180006620913897e7 0.0
2.180006620913897e7 5.4462793137678625e6 0.0
0.0 0.0 0.0

-9.663834830664203e6 -5.523501284435235e6 0.0
-5.523501284435235e6 1.9900033627744965e7 0.0
0.0 0.0 0.0

8.66985935811719e6 1.5579871075390844e7 0.0
1.5579871075390844e7 -998323.4571389598 0.0
0.0 0.0 0.0

-5.233876779755222e7 1.9424142144730005e7 0.0
1.9424142144730005e7 7.4343850825940445e6 0.0
0.0 0.0 0.0

-1.2643014775339648e7 1.0354781924073111e7 0.0
1.0354781924073111e7 2.1365012929934997e7 0.0
0.0 0.0 0.0

-5.135339360247484e6 1.8094961458507374e7 0.0
1.8094961458507374e7 4.028799905707623e6 0.0
0.0 0.0 0.0

2.0677840327202305e6 1.582010689733172e7 0.0
1.582010689733172e7 -1.873079937803746e6 0.0
0.0 0.0 0.0

5.218593048124349e6 4.028242839536211e6 0.0
4.028242839536211e6 -2.1336345750548966e7 0.0
0.0 0.0 0.0

-3.489069161473289e6 1.6478651245943716e7 0.0
1.6478651245943716e7 7.367101050047013e6 0.0
0.0 0.0 0.0

-1.0010465305033928e7 -2.617613652732625e6 0.0
-2.617613652732625e6 3.316488747918044e7 0.0
0.0 0.0 0.0

-9.717823501253482e6 1.924736492022457e7 0.0
1.924736492022457e7 -5.878839865033727e7 0.0
0.0 0.0 0.0

8.881632740232466e6 2.142678585487303e7 0.0
2.142678585487303e7 6.807379419985774e7 0.0
0.0 0.0 0.0

1.891676669779133e6 1.1197598637572521e7 0.0
1.1197598637572521e7 -2.0782094902741984e7 0.0
0.0 0.0 0.0

1.418213806687801e6 4.714255830426101e6 0.0
4.714255830426101e6 -5.51277655306148e6 0.0
0.0 0.0 0.0

4.927706361508721e6 1.5617098791374007e7 0.0
1.5617098791374007e7 5.6591203404564485e6 0.0
0.0 0.0 0.0

-1.0222372312967096e7 -664247.8941689805 0.0
-664247.8941689805 3.792813675127366e7 0.0
0.0 0.0 0.0

1.2247127520805602e6 7.329988515068908e6 0.0
7.329988515068908e6 -6.44133502700694e6 0.0
0.0 0.0 0.0

162418.53179655364 2.3306816025587827e7 0.0
2.3306816025587827e7 -2.580612605351091e6 0.0
0.0 0.0 0.0

-319887.22710531764 1.5200511085460147e7 0.0
1.5200511085460147e7 -1.070592431115564e7 0.0
0.0 0.0 0.0

1.4834252220904822e6 1.5736558867631828e7 0.0
1.5736558867631828e7 1.1130009540905228e7 0.0
0.0 0.0 0.0

-3.5725241942533823e6 1.8064267190543722e7 0.0
1.8064267190543722e7 202204.6754231716 0.0
0.0 0.0 0.0

-1.793236528259031e7 2.0067613765330307e7 0.0
2.0067613765330307e7 -1.786421336936566e6 0.0
0.0 0.0 0.0

-3.7996172378291674e6 2.3425039258875124e7 0.0
2.3425039258875124e7 2.8318951273902934e6 0.0
0.0 0.0 0.0

-404797.8006477142 1.5563868831118884e7 0.0
1.5563868831118884e7 6.792281705960594e6 0.0
0.0 0.0 0.0

-3.236851998594994e6 1.6654636663847603e7 0.0
1.6654636663847603e7 1.081037255191922e7 0.0
0.0 0.0 0.0

1.2602019684141865e6 1.3199073803101514e7 0.0
1.3199073803101514e7 -1.466797840036281e7 0.0
0.0 0.0 0.0

-386362.57649866445 1.6664405955314737e7 0.0
1.6664405955314737e7 -8.993908051566826e6 0.0
0.0 0.0 0.0

-1.075792817837429e7 601962.2313297851 0.0
601962.2313297851 3.628131646823129e7 0.0
0.0 0.0 0.0

-2.273620827966802e7 2.9427103753059167e7 0.0
2.9427103753059167e7 8.282033487787562e6 0.0
0.0 0.0 0.0

-9.964203768791163e6 2.4988790818405777e7 0.0
2.4988790818405777e7 6.909280254019693e6 0.0
0.0 0.0 0.0

-2.02924941613955e7 2.075038771695156e7 0.0
2.075038771695156e7 5.754223557542563e6 0.0
0.0 0.0 0.0

-213772.53237435676 1.5551589013024585e7 0.0
1.5551589013024585e7 2.119614478925983e6 0.0
0.0 0.0 0.0

-5.167801422427851e6 1.8528129271194268e7 0.0
1.8528129271194268e7 -705077.2069704848 0.0
0.0 0.0 0.0

-1.0632987299329543e7 2.1238099935599737e7 0.0
2.1238099935599737e7 1.1609316405034726e6 0.0
0.0 0.0 0.0

1.8694180258362647e6 6.76177072415186e6 0.0
6.76177072415186e6 -6.366234001076433e6 0.0
0.0 0.0 0.0

606924.811855814 1.6159711814134976e7 0.0
1.6159711814134976e7 1.187080404189629e7 0.0
0.0 0.0 0.0

3.632849044128308e6 8.141857968440938e6 0.0
8.141857968440938e6 -2.5977619820129033e7 0.0
0.0 0.0 0.0

-1.1689161020102601e7 1.1398954029391346e7 0.0
1.1398954029391346e7 2.2592656703905486e7 0.0
0.0 0.0 0.0

-9.587600781032622e6 -1.0722608578292597e6 0.0
-1.0722608578292597e6 3.8934875106881626e7 0.0
0.0 0.0 0.0

5.0764873218756635e6 3.9079584473367627e6 0.0
3.9079584473367627e6 -3.0841740081002116e7 0.0
0.0 0.0 0.0

-2.3644741123764496e7 2.1130808839271948e7 0.0
2.1130808839271948e7 4.731301280374356e6 0.0
0.0 0.0 0.0

-1.006061545411272e7 -3.675180828269284e6 0.0
-3.675180828269284e6 3.0024298984907076e7 0.0
0.0 0.0 0.0

-9.880022623198489e6 -4.747146659380211e6 0.0
-4.747146659380211e6 2.554795567551724e7 0.0
0.0 0.0 0.0

1.3836220523057324e6 6.522775441818654e6 0.0
6.522775441818654e6 -7.750594973683581e6 0.0
0.0 0.0 0.0

-1.0085663632832192e7 -3.4600353090735083e6 0.0
-3.4600353090735083e6 2.4533328042051326e7 0.0
0.0 0.0 0.0

-158091.33649999066 3.0211008277340155e7 0.0
3.0211008277340155e7 -5.081746422706876e6 0.0
0.0 0.0 0.0

-5.928761184680434e6 1.6300271941235896e7 0.0
1.6300271941235896e7 1.1090243349868847e7 0.0
0.0 0.0 0.0

4.233719118035972e6 4.681358628166262e6 0.0
4.681358628166262e6 -3.7518722655581184e7 0.0
0.0 0.0 0.0

4.663186231502602e6 4.50795318503429e6 0.0
4.50795318503429e6 -2.485480392403069e7 0.0
0.0 0.0 0.0

-5.07540333961758e6 1.7896401764081556e7 0.0
1.7896401764081556e7 5.84179597258329e6 0.0
0.0 0.0 0.0

-4.8540274592237575e6 2.577185874052589e7 0.0
2.577185874052589e7 4.411890534387421e6 0.0
0.0 0.0 0.0

1.7693790931103867e6 9.39299753600418e6 0.0
9.39299753600418e6 2.4558774331275513e6 0.0
0.0 0.0 0.0

4.224675444952233e6 1.777421098987599e7 0.0
1.777421098987599e7 1.0486782196319733e7 0.0
0.0 0.0 0.0

3.7012602949134656e6 1.8385022323110074e7 0.0
1.8385022323110074e7 -4.724603050387293e6 0.0
0.0 0.0 0.0

-1.0356645451083817e7 -3.4367746278208457e6 0.0
-3.4367746278208457e6 2.934782437874712e7 0.0
0.0 0.0 0.0

-1.3569133588387508e7 1.8211965261559397e7 0.0
1.8211965261559397e7 6.483806335471524e6 0.0
0.0 0.0 0.0

-3.7384187253518933e6 2.30178615070918e7 0.0
2.30178615070918e7 2.685381275566875e6 0.0
0.0 0.0 0.0

-2.2242703730948362e6 1.55925996712183e7 0.0
1.55925996712183e7 3.1106312712085664e7 0.0
0.0 0.0 0.0

4.699925830550518e6 1.864977187896685e7 0.0
1.864977187896685e7 -4.5956785360606e6 0.0
0.0 0.0 0.0

-1.5398481306532458e6 1.7119397916660625e7 0.0
1.7119397916660625e7 -5.467514051654516e6 0.0
0.0 0.0 0.0

-5.315881044377891e6 1.70454848003597e7 0.0
1.70454848003597e7 1.1914732706129078e7 0.0
0.0 0.0 0.0

-1.516955024363688e6 1.6445225583145093e7 0.0
1.6445225583145093e7 -5.883842397420555e6 0.0
0.0 0.0 0.0

-4.980260195859321e7 2.708839212365409e7 0.0
2.708839212365409e7 1.514079768759828e6 0.0
0.0 0.0 0.0

-6.893593703767243e6 1.6006454418559171e7 0.0
1.6006454418559171e7 1.0636846189903036e7 0.0
0.0 0.0 0.0

-1.5333126272409724e6 1.726103758734569e7 0.0
1.726103758734569e7 -4.83258174764327e6 0.0
0.0 0.0 0.0

-5.213730035740204e6 1.7540983707437538e7 0.0
1.7540983707437538e7 1.1377466441559466e7 0.0
0.0 0.0 0.0

2.543753523790499e6 1.8100732594136655e7 0.0
1.8100732594136655e7 -4.904528864208508e6 0.0
0.0 0.0 0.0

4.911479025213264e6 4.0519793234434943e6 0.0
4.0519793234434943e6 -2.0762965530701824e7 0.0
0.0 0.0 0.0

62639.63787736185 1.7696018523330577e7 0.0
1.7696018523330577e7 -6.682083508190288e6 0.0
0.0 0.0 0.0

-2.2473855538803823e7 2.9303954705264118e7 0.0
2.9303954705264118e7 7.976789415195795e6 0.0
0.0 0.0 0.0

-5.525833902636209e6 2.2680684745205864e7 0.0
2.2680684745205864e7 6.054316148293256e6 0.0
0.0 0.0 0.0

-7.8625785281716855e6 -5.237967993834744e6 0.0
-5.237967993834744e6 1.4166151488199979e7 0.0
0.0 0.0 0.0

-120356.90960003622 1.5283282596533263e7 0.0
1.5283282596533263e7 -1.1975355349048866e7 0.0
0.0 0.0 0.0

6.918458031201082e6 1.617995611160243e7 0.0
1.617995611160243e7 -58526.692296157125 0.0
0.0 0.0 0.0

-4.6772528456222534e7 2.2069113475501526e7 0.0
2.2069113475501526e7 7.597525175421352e6 0.0
0.0 0.0 0.0

1.1061230381941968e6 1.4659937365383962e7 0.0
1.4659937365383962e7 7.76420248117327e6 0.0
0.0 0.0 0.0

3.210468032467393e6 8.061259148731233e6 0.0
8.061259148731233e6 -2.740426256145146e7 0.0
0.0 0.0 0.0

974583.9910365362 1.3063879371653743e7 0.0
1.3063879371653743e7 -1.4573066027534433e7 0.0
0.0 0.0 0.0

-3.1896049832563247e6 1.673535043902111e7 0.0
1.673535043902111e7 8.749176881820042e6 0.0
0.0 0.0 0.0

-6.452078518793648e6 2.5946296852798067e7 0.0
2.5946296852798067e7 4.288716547769796e6 0.0
0.0 0.0 0.0

-1.8692980849856678e6 2.001211139347258e7 0.0
2.001211139347258e7 -2.8954574826308494e6 0.0
0.0 0.0 0.0

5.098363901265128e6 3.779318223971041e6 0.0
3.779318223971041e6 -2.4320825984167986e7 0.0
0.0 0.0 0.0

702957.7767714914 1.5791648963454606e7 0.0
1.5791648963454606e7 2.462611327864112e7 0.0
0.0 0.0 0.0

-374264.500585163 1.275734488156062e7 0.0
1.275734488156062e7 -1.6412396598991868e6 0.0
0.0 0.0 0.0

-3.6055764358675905e7 2.5295111731125917e7 0.0
2.5295111731125917e7 1.226031686289204e7 0.0
0.0 0.0 0.0

-1.0714785175217953e7 -3.189113128471464e6 0.0
-3.189113128471464e6 2.0860439063241016e7 0.0
0.0 0.0 0.0

-9.991391715561872e6 -3.2753720332698086e6 0.0
-3.2753720332698086e6 2.328066485980784e7 0.0
0.0 0.0 0.0

6.406104616203238e6 1.6099867111315964e7 0.0
1.6099867111315964e7 2.522312888179095e6 0.0
0.0 0.0 0.0

-1.001124097818938e7 -3.736971411145877e6 0.0
-3.736971411145877e6 2.928919887578503e7 0.0
0.0 0.0 0.0

983100.7521611489 1.4868428238046931e7 0.0
1.4868428238046931e7 7.62765205525825e6 0.0
0.0 0.0 0.0

3.3451736979241557e6 1.597552841965399e7 0.0
1.597552841965399e7 1.6014367881621445e7 0.0
0.0 0.0 0.0

-2.0555696946682862e6 2.4032019822576493e7 0.0
2.4032019822576493e7 290345.0468308255 0.0
0.0 0.0 0.0

-1.0609269823586592e7 3.7025362113135243e6 0.0
3.7025362113135243e6 3.983609106374863e7 0.0
0.0 0.0 0.0

-21427.3476310689 1.2624470478111789e7 0.0
1.2624470478111789e7 -2.2473823098504126e7 0.0
0.0 0.0 0.0

976085.2306322618 7.121534284762956e6 0.0
7.121534284762956e6 -6.9325389873060165e6 0.0
0.0 0.0 0.0

-2.9886326834397274e6 1.6455557133897798e7 0.0
1.6455557133897798e7 7.194682879713926e6 0.0
0.0 0.0 0.0

639325.131800062 1.6435409355480876e7 0.0
1.6435409355480876e7 1.6314995994770072e7 0.0
0.0 0.0 0.0

-1.0943137898673851e7 -2.318341684138333e6 0.0
-2.318341684138333e6 2.827651172382817e7 0.0
0.0 0.0 0.0

-9.027441087841809e6 5.6202056846793415e6 0.0
5.6202056846793415e6 7.919855298458255e6 0.0
0.0 0.0 0.0

-3.9847794481706824e6 1.7018121241203297e7 0.0
1.7018121241203297e7 1.0513846004084551e6 0.0
0.0 0.0 0.0

-2.3715670311973514e6 8.288148194343607e6 0.0
8.288148194343607e6 1.178715655263988e7 0.0
0.0 0.0 0.0

1.9265232195144421e6 1.5130484335755646e7 0.0
1.5130484335755646e7 -3.050378525254956e6 0.0
0.0 0.0 0.0

-1.0673370145751886e7 -3.6646684016624545e6 0.0
-3.6646684016624545e6 2.258758281868995e7 0.0
0.0 0.0 0.0

-9.837937086917311e6 3.716091777827354e6 0.0
3.716091777827354e6 4.269118702360644e7 0.0
0.0 0.0 0.0

1.6352162845469802e6 1.5578511478993323e7 0.0
1.5578511478993323e7 -2.271966539810379e6 0.0
0.0 0.0 0.0

41230.69056846667 1.5596351940879816e7 0.0
1.5596351940879816e7 -1.023430406658465e7 0.0
0.0 0.0 0.0

-9.884490129496496e6 3.5733860094509367e6 0.0
3.5733860094509367e6 4.2294874951271094e7 0.0
0.0 0.0 0.0

2.8490571439870326e6 1.802455540958724e7 0.0
1.802455540958724e7 -4.9947707793523995e6 0.0
0.0 0.0 0.0

327952.7138236901 1.5530407698788969e7 0.0
1.5530407698788969e7 1.1566189930598652e7 0.0
0.0 0.0 0.0

-6.409296675362898e6 8.966748143265763e6 0.0
8.966748143265763e6 7.185040243766904e6 0.0
0.0 0.0 0.0

-6.6034721545379795e6 6.522950573468488e6 0.0
6.522950573468488e6 9.24114482342985e6 0.0
0.0 0.0 0.0

-1.0397287695923576e7 4.239745001225565e6 0.0
4.239745001225565e6 4.668578793673594e6 0.0
0.0 0.0 0.0

