# vtk DataFile Version 2.0
phase field modeling fracture
ASCII
DATASET UNSTRUCTURED_GRID
POINTS 2538 float
0.0 0.0 0.0
10.0 0.0 0.0
0.0 10.0 0.0
10.0 10.0 0.0
0.0 4.9995 0.0
0.0 5.0005 0.0
5.0 5.0 0.0
0.9416964895726688 0.0 0.0
1.803581725054446 0.0 0.0
2.592419885431098 0.0 0.0
3.314401822861676 0.0 0.0
3.975193910351406 0.0 0.0
4.579982132660152 0.0 0.0
5.133512780936812 0.0 0.0
5.640130319506143 0.0 0.0
6.103810708661955 0.0 0.0
6.528192895506818 0.0 0.0
6.916607540127679 0.0 0.0
7.272102969376355 0.0 0.0
7.597469242948583 0.0 0.0
7.895259826292669 0.0 0.0
8.167811885738017 0.0 0.0
8.417264413845215 0.0 0.0
8.645575169389538 0.0 0.0
8.854535961159101 0.0 0.0
9.045786767735546 0.0 0.0
9.220828555767493 0.0 0.0
9.38103509633881 0.0 0.0
9.527663687265145 0.0 0.0
9.661865124984566 0.0 0.0
9.784692609918062 0.0 0.0
9.897110148790482 0.0 0.0
10.0 0.09999999999992584 0.0
10.0 0.199999999999856 0.0
10.0 0.2999999999997771 0.0
10.0 0.3999999999996677 0.0
10.0 0.4999999999995511 0.0
10.0 0.5999999999994683 0.0
10.0 0.6999999999993983 0.0
10.0 0.7999999999993286 0.0
10.0 0.8999999999992587 0.0
10.0 0.9999999999991888 0.0
10.0 1.099999999999119 0.0
10.0 1.199999999999033 0.0
10.0 1.299999999998852 0.0
10.0 1.399999999998576 0.0
10.0 1.499999999998284 0.0
10.0 1.599999999997992 0.0
10.0 1.6999999999977 0.0
10.0 1.799999999997408 0.0
10.0 1.899999999997116 0.0
10.0 1.999999999996825 0.0
10.0 2.099999999996533 0.0
10.0 2.199999999996241 0.0
10.0 2.299999999995949 0.0
10.0 2.399999999995657 0.0
10.0 2.499999999995365 0.0
10.0 2.599999999995073 0.0
10.0 2.699999999994782 0.0
10.0 2.79999999999449 0.0
10.0 2.899999999994198 0.0
10.0 2.999999999993906 0.0
10.0 3.099999999993614 0.0
10.0 3.199999999993322 0.0
10.0 3.299999999993029 0.0
10.0 3.399999999992738 0.0
10.0 3.499999999992446 0.0
10.0 3.599999999992154 0.0
10.0 3.699999999991863 0.0
10.0 3.799999999991571 0.0
10.0 3.899999999991278 0.0
10.0 3.999999999991022 0.0
10.0 4.099999999991035 0.0
10.0 4.199999999991187 0.0
10.0 4.299999999991338 0.0
10.0 4.399999999991491 0.0
10.0 4.499999999991642 0.0
10.0 4.599999999991795 0.0
10.0 4.699999999991947 0.0
10.0 4.799999999992099 0.0
10.0 4.89999999999225 0.0
10.0 4.999999999992403 0.0
10.0 5.099999999992555 0.0
10.0 5.199999999992706 0.0
10.0 5.299999999992858 0.0
10.0 5.39999999999301 0.0
10.0 5.499999999993161 0.0
10.0 5.599999999993313 0.0
10.0 5.699999999993466 0.0
10.0 5.799999999993618 0.0
10.0 5.899999999993771 0.0
10.0 5.999999999993922 0.0
10.0 6.099999999994074 0.0
10.0 6.199999999994227 0.0
10.0 6.299999999994378 0.0
10.0 6.39999999999453 0.0
10.0 6.499999999994682 0.0
10.0 6.599999999994833 0.0
10.0 6.699999999994986 0.0
10.0 6.799999999995138 0.0
10.0 6.899999999995289 0.0
10.0 6.999999999995442 0.0
10.0 7.099999999995594 0.0
10.0 7.199999999995747 0.0
10.0 7.299999999995897 0.0
10.0 7.39999999999605 0.0
10.0 7.499999999996202 0.0
10.0 7.599999999996353 0.0
10.0 7.699999999996505 0.0
10.0 7.799999999996658 0.0
10.0 7.899999999996808 0.0
10.0 7.999999999996962 0.0
10.0 8.099999999997113 0.0
10.0 8.199999999997265 0.0
10.0 8.299999999997418 0.0
10.0 8.399999999997569 0.0
10.0 8.499999999997721 0.0
10.0 8.599999999997873 0.0
10.0 8.699999999998024 0.0
10.0 8.799999999998176 0.0
10.0 8.899999999998329 0.0
10.0 8.99999999999848 0.0
10.0 9.099999999998634 0.0
10.0 9.199999999998786 0.0
10.0 9.299999999998937 0.0
10.0 9.399999999999089 0.0
10.0 9.499999999999241 0.0
10.0 9.599999999999392 0.0
10.0 9.699999999999545 0.0
10.0 9.799999999999697 0.0
10.0 9.899999999999848 0.0
9.897110148790565 10.0 0.0
9.784692609918244 10.0 0.0
9.66186512498486 10.0 0.0
9.527663687265571 10.0 0.0
9.381035096339392 10.0 0.0
9.220828555768257 10.0 0.0
9.045786767736512 10.0 0.0
8.854535961160305 10.0 0.0
8.645575169391027 10.0 0.0
8.417264413847017 10.0 0.0
8.167811885740178 10.0 0.0
7.895259826295246 10.0 0.0
7.597469242951631 10.0 0.0
7.272102969379938 10.0 0.0
6.916607540131873 10.0 0.0
6.528192895511704 10.0 0.0
6.103810708667616 10.0 0.0
5.640130319512691 10.0 0.0
5.13351278094435 10.0 0.0
4.579982132668816 10.0 0.0
3.975193910361222 10.0 0.0
3.314401822869852 10.0 0.0
2.592419885437257 10.0 0.0
1.803581725058137 10.0 0.0
0.9416964895740705 10.0 0.0
0.0 9.00010000000243 0.0
0.0 8.000200000005481 0.0
0.0 7.000300000005135 0.0
0.0 6.000400000002569 0.0
0.901790731451151 5.000409820926855 0.0
1.657200899774397 5.000334279910023 0.0
2.289991063707192 5.000271000893629 0.0
2.820065163538221 5.000217993483646 0.0
3.264096435579811 5.000173590356442 0.0
3.636051481595835 5.00013639485184 0.0
3.947629914072366 5.000105237008593 0.0
4.208632181002628 5.0000791367819 0.0
4.427267949625672 5.000057273205037 0.0
4.610414277633563 5.000038958572237 0.0
4.763831845154243 5.000023616815485 0.0
4.892346298799659 5.00001076537012 0.0
4.892346298799748 4.99998923462988 0.0
4.763831845154455 4.999976383184515 0.0
4.610414277633943 4.999961041427763 0.0
4.427267949626277 4.999942726794963 0.0
4.208632181003523 4.9999208632181 0.0
3.94762991407365 4.999894762991407 0.0
3.636051481597624 4.99986360514816 0.0
3.264096435582253 4.999826409643559 0.0
2.820065163541503 4.999782006516354 0.0
2.289991063711534 4.999728999106371 0.0
1.657200899778495 4.999665720089978 0.0
0.9017907314530094 4.999590179073145 0.0
0.0 3.999600000002013 0.0
0.0 2.999700000005187 0.0
0.0 1.99980000000512 0.0
0.0 0.9999000000025537 0.0
9.897889398521345 2.93573355845387 0.0
9.906568249974548 7.060009441434234 0.0
9.913122631074113 3.64016132281653 0.0
9.922462129543863 6.354535290629151 0.0
9.917693659967533 4.354211663134567 0.0
9.909873057440208 5.637584487339942 0.0
9.914183254994697 4.950672966925282 0.0
9.913885043715895 7.666887930262611 0.0
9.91009668007573 2.351889069770817 0.0
9.905135696074536 8.138152454502785 0.0
9.913397459621809 1.849999999997262 0.0
7.099302372137626 0.297750452375005 0.0
7.095143729410097 9.700359990366296 0.0
4.942912558701401 5.095838627899509 0.0
4.315009232304429 5.165022115481685 0.0
4.946182472483878 4.906763777264103 0.0
4.317967462990024 4.825955043772673 0.0
9.916390871492647 8.64999999999792 0.0
9.921504649680616 1.368376469890358 0.0
8.292538149791614 0.206877570318844 0.0
8.292538149793597 9.793122429681448 0.0
5.884594439766573 9.587645267048616 0.0
5.794826292691579 0.3794853783929359 0.0
9.913397459621425 9.049999999998557 0.0
9.908526577714177 0.9568239351922434 0.0
3.456851160380649 5.315740054130451 0.0
3.457889657868442 4.707121019609468 0.0
8.945214200703926 0.1503383337970344 0.0
8.950161364448409 9.8413906539257 0.0
9.913862335499305 4.055887885208452 0.0
9.916697353372683 4.650158482607802 0.0
9.919076340414442 6.049999999994006 0.0
9.906994308667635 5.25749687748192 0.0
9.917490342358025 6.655979201891897 0.0
9.915757520293784 7.343848891656911 0.0
9.910049507471042 3.363474386285078 0.0
9.914471988502868 2.647400064832979 0.0
9.91474124160965 9.337490423485129 0.0
9.916971008170838 0.6499999999994355 0.0
4.307157269264427 9.509674045029644 0.0
4.331527375865619 0.4401616696422582 0.0
9.45434939180249 9.878397030523757 0.0
9.457696120412969 0.1270877537061785 0.0
2.555070293622606 5.422044496190925 0.0
2.566232917480916 4.608001224030952 0.0
3.026511860837692 9.332320638257093 0.0
2.945561971800619 0.5895662714727601 0.0
7.7395404387124 0.2511088946967771 0.0
7.736379255744154 9.745848826372828 0.0
4.687135269408529 5.122111433928926 0.0
4.688420821504113 4.871895064967488 0.0
9.910554884115975 0.3448356354522978 0.0
9.911230082250466 9.65764729394159 0.0
9.921953841410854 6.851023993342036 0.0
9.912065178606017 5.448170483544033 0.0
9.911660025326261 3.861846960030188 0.0
9.914847467973438 3.14501593945607 0.0
9.913397459621425 5.849999999993703 0.0
9.913397459621425 7.849999999996735 0.0
9.906916878988277 2.15455769998631 0.0
9.913397459621425 8.349999999997479 0.0
9.909472363117661 1.640528221515488 0.0
9.913987325695956 1.152857110636247 0.0
9.913397459621425 8.849999999998241 0.0
0.9100099990995943 2.614215977520411 0.0
0.8395284981715456 7.451196254860987 0.0
9.723278867451556 9.898135916635193 0.0
9.723316350887044 0.09841820909386662 0.0
1.385819164827588 4.454539963646463 0.0
1.338343629665047 5.523111536005823 0.0
1.377179700550677 0.6809168304959698 0.0
1.418060461092743 9.285896715136046 0.0
9.91268220142518 0.1457914080939694 0.0
9.906737126737994 9.845745933882352 0.0
0.7108351382691361 6.537941170074089 0.0
1.527735020267026 6.915620208855231 0.0
1.630993885659103 7.838271825205868 0.0
2.232760943566823 7.370850737296832 0.0
2.243414218068206 6.688299277952821 0.0
2.779655053105118 7.021588754814074 0.0
2.80227799359795 7.632420170547022 0.0
3.282022065908813 7.305859666021318 0.0
3.327597298795347 7.857554136825748 0.0
3.743210251018715 7.549183328204379 0.0
3.716353232200752 7.062036086888612 0.0
4.111978858674101 7.27497101169417 0.0
4.104192177581432 6.879858986267289 0.0
4.436230765617037 7.045693351607117 0.0
4.430360014817357 6.703971783962796 0.0
4.732390145036301 6.849841042423394 0.0
5.056161327708878 5.095276573498806 0.0
5.111586796021131 4.999081142133581 0.0
5.169267363407189 5.09444870412406 0.0
5.223795108752053 4.996986220359468 0.0
5.281480803887719 5.092780870372803 0.0
5.335670761900611 4.994887492556936 0.0
5.393485214772442 5.090486192743301 0.0
5.447323082877892 4.992601527033996 0.0
5.505243219343024 5.087953380710069 0.0
5.558739102026105 4.990287787962959 0.0
5.616491581184779 5.085335255235766 0.0
5.669852346908056 4.9879269227514 0.0
5.727502713908907 5.082679981817038 0.0
5.780766004135139 4.988313988715834 0.0
5.838244881129535 5.080480568766611 0.0
5.891357695677371 4.986433849408193 0.0
5.948696036767613 5.077969900389505 0.0
6.001601341641615 4.981313698556656 0.0
6.058851024265095 5.074871552128682 0.0
6.111614020704875 4.978360695880202 0.0
6.168801161530775 5.072044953270978 0.0
6.221368818778567 4.975825765213497 0.0
6.278268309066882 5.066182320461055 0.0
6.330814273567539 4.972837984645718 0.0
6.387565032421376 5.062889771971895 0.0
6.437476667631405 4.971693683589553 0.0
6.496181111585419 5.060210690175857 0.0
6.539454812256072 4.964658165361536 0.0
6.604198202576491 5.056387520850258 0.0
6.648506025747331 4.939374587506267 0.0
6.714026758992516 5.05873885840664 0.0
6.764418045981209 4.959246676066148 0.0
6.8219334571197 5.055299567406268 0.0
6.873708540948134 4.960426349093742 0.0
6.930181428849307 5.053461390218819 0.0
6.981893615341967 4.96435459462232 0.0
7.037791764774784 5.051219747103022 0.0
7.090993561518408 4.96392420322464 0.0
5.504417457283294 4.900897920552702 0.0
7.145434864123609 5.048960634292441 0.0
6.054532384032612 4.883956083938546 0.0
6.738027949040956 4.850032323068674 0.0
7.198432914526514 4.956325226333323 0.0
7.252637187936749 5.046012229327236 0.0
7.30926729605109 4.948903216650376 0.0
7.248106275544042 4.860306312845646 0.0
7.363100274863074 4.849952416808486 0.0
7.365733472701664 5.039519554615095 0.0
7.308483293090149 5.137557220352172 0.0
6.768399513646964 5.145609705119954 0.0
7.422800035311104 5.132251445551834 0.0
7.358273518796229 5.235980394389298 0.0
7.480824155801127 5.227946127939927 0.0
7.302193400058628 4.761917474298247 0.0
7.413570879789824 4.754555110721153 0.0
7.414392998903179 5.334729114426734 0.0
7.352769630272076 4.660405502266205 0.0
7.467556835255426 4.658352623795039 0.0
7.536246869015014 5.328986926716081 0.0
7.478865844607288 5.432598185493195 0.0
7.406396991826072 4.556956233957538 0.0
7.523581002009154 4.552005631348623 0.0
7.597792398573263 5.429506106314967 0.0
7.540511043402902 5.53619421580439 0.0
7.46214474876342 4.452580994318881 0.0
7.5852185078634 4.446021810672608 0.0
7.663329342323453 5.533453399066901 0.0
7.603478967594521 5.643227430483237 0.0
7.513450346818673 4.347641323140766 0.0
7.640744971722214 4.333388343316237 0.0
7.727671715775243 5.642390483050116 0.0
7.667774597993788 5.753188858425915 0.0
7.570065256728661 4.230515669344811 0.0
7.702881065467917 4.218307808529532 0.0
7.638288257073729 4.107994211855027 0.0
7.493362356301017 4.120843902105771 0.0
7.779018500630071 5.521233457321821 0.0
7.794641287388929 5.752364621610818 0.0
7.73369774483611 5.865894287356292 0.0
7.600834531784728 5.867752110500446 0.0
6.233038857278689 5.15645045634683 0.0
7.669727996028819 5.985665563643058 0.0
7.528582452554481 5.987393423295551 0.0
7.598722674572824 6.11001923494443 0.0
7.778305000222867 4.104318908265786 0.0
7.704329019832056 3.987744174608892 0.0
7.838453459801382 4.213322728668484 0.0
7.864495721576461 5.862306066517277 0.0
7.846552353360407 3.98481756181946 0.0
7.769730409703277 3.86544808681145 0.0
5.785249360396857 5.177248808588045 0.0
7.908837087876153 3.861484036275285 0.0
7.834824606222196 3.740586825753288 0.0
7.97685993406276 3.736209527152902 0.0
7.89665098770825 3.615501862931453 0.0
7.753228010315262 3.617800245018972 0.0
7.826063013090472 3.483173292579822 0.0
7.66789744383048 3.48859328808356 0.0
8.042515855796823 3.595394268381807 0.0
7.75200750488492 3.341279823834038 0.0
7.582870318332553 3.346584916806707 0.0
8.120807847415062 3.732493963388337 0.0
8.189783970303546 3.61159165475499 0.0
7.657801000286734 3.200439907646711 0.0
7.486781956172036 3.201402473247712 0.0
7.452595103886905 6.11418616185016 0.0
7.527098033550077 6.243191052852112 0.0
8.260502906807751 3.728437634721859 0.0
8.327629317451398 3.608173631356984 0.0
7.372763970891452 6.247552889754036 0.0
7.456170570815929 6.384992468962936 0.0
7.621837793616884 6.376077080857113 0.0
7.548039512904141 6.520750676893614 0.0
7.717475944451644 6.514856553988943 0.0
7.636658166268699 6.661648164052906 0.0
7.807468267259438 6.664076174524672 0.0
7.718022764310774 6.817938967122142 0.0
7.887785766941087 6.807440365887151 0.0
7.545993589083432 6.815070675854734 0.0
7.809874785067209 6.967537287475282 0.0
7.975643812145337 6.948729406725126 0.0
8.396477808021062 3.725446935061211 0.0
7.565651643157136 3.044354774611752 0.0
7.384328725505071 3.043048915147076 0.0
8.056405351948353 6.802790889114673 0.0
8.14128318237188 6.940027831915737 0.0
8.064621760266059 7.086348792208953 0.0
8.225003598857908 6.805225152373254 0.0
8.463085452993242 3.606998510553562 0.0
8.230426869720718 7.079551841000411 0.0
8.155262284174286 7.224761758176069 0.0
8.530696760758996 3.721683301125054 0.0
8.596669886994064 3.604516769862316 0.0
8.528531058025589 3.490411531312337 0.0
8.320451770844851 7.218191678954744 0.0
8.245273958732774 7.363444652121271 0.0
8.66324687389452 3.717094013035765 0.0
8.600103125209296 3.831913857228569 0.0
8.662131102573216 3.488322280861316 0.0
8.594166125380536 3.374071873435548 0.0
8.411074336066186 7.353871649576861 0.0
8.339644223432472 7.505172120620427 0.0
8.165883718619623 7.513159193685373 0.0
8.483453820080417 7.2082285366806 0.0
8.261200365730348 7.657400951288149 0.0
8.081570576666843 7.670933304838066 0.0
7.471613195794025 2.872548423100142 0.0
7.268733678357991 2.881209199257603 0.0
7.184255506995786 3.084448584600423 0.0
7.065899603697895 2.883902449336828 0.0
6.960163891183182 3.081014635802978 0.0
6.847612128388715 2.885646860602812 0.0
6.739800729737967 3.078895733381448 0.0
8.729373804596847 3.827689165637365 0.0
8.668550856907444 3.938702277545298 0.0
8.72770789162863 3.371798381178293 0.0
8.659764090070603 3.257493349874974 0.0
8.436453928793245 7.648724489148887 0.0
6.619080287792762 2.90880017416788 0.0
6.511740956842646 3.09340654756684 0.0
8.793527829963288 3.935174834810256 0.0
8.736430500996828 4.042719556852617 0.0
7.631260330584174 4.565300771328012 0.0
8.359058396840432 7.801678182761817 0.0
5.339436215072359 5.184870243702279 0.0
4.994031736761993 5.193306795607908 0.0
6.383387675268097 4.87760645722207 0.0
7.29117392392962 6.382172868329505 0.0
6.378196825372041 2.907113079755629 0.0
6.269817199014261 3.12412150658573 0.0
8.793149127377946 3.255386294257182 0.0
8.725774239201558 3.141596687892195 0.0
8.857434600673502 4.041295940541356 0.0
8.802868937128341 4.1471119953668 0.0
8.532045262478793 7.7905977476835 0.0
7.364542641624493 2.699128473342751 0.0
7.571677611088925 2.695732556686516 0.0
6.723058333614999 2.672341359410618 0.0
8.456744924757372 7.94483904450548 0.0
6.140831279784704 2.921247401137864 0.0
6.02419219050745 3.14358702955763 0.0
8.916255604212301 3.934279868822481 0.0
8.859287250884009 3.140226640574265 0.0
8.791092798057303 3.025929352146465 0.0
7.210445465986021 6.245773134960393 0.0
7.120884161792869 6.385155584680196 0.0
7.036931702064287 6.240721609143972 0.0
6.943722280007011 6.3869279517155 0.0
8.920094519678617 4.144837222494242 0.0
8.864374107136287 4.250930406527029 0.0
7.347569838739255 4.463467417508182 0.0
5.90383431757064 2.935113219563906 0.0
5.783476009580765 3.156456199832474 0.0
8.626013191558314 7.935092223505354 0.0
8.687240186957197 7.796697889991163 0.0
5.642059327424706 2.903018174330269 0.0
5.52647853955939 3.162549070310043 0.0
8.555300051897738 8.086169516016518 0.0
8.405624441178524 8.083972416481254 0.0
5.374124307190728 2.945480555950917 0.0
8.935805220807357 3.249260758206028 0.0
8.981625171409894 4.247375537584228 0.0
8.924725364486765 4.352101286657735 0.0
8.807208588134106 4.356163101450244 0.0
8.868277832430604 4.45657124153171 0.0
8.75099635287701 4.460644845248524 0.0
8.812385950597063 4.560891222623518 0.0
8.693833206943118 4.564602972998703 0.0
8.756474732548273 4.665720853686476 0.0
8.63721608225855 4.669394550615355 0.0
8.700108119351134 4.770682016274914 0.0
8.81920502916846 4.767536120893284 0.0
8.76355311338807 4.871451945248518 0.0
8.881442328033694 4.868382238751069 0.0
8.826433523510634 4.97132552240372 0.0
8.943387824985514 4.967694248194483 0.0
8.888718468126953 5.071044784833541 0.0
8.580377663835254 4.774669738817985 0.0
8.770572242937233 5.073880380431421 0.0
8.832915096600454 5.174518948293615 0.0
8.952224483821848 5.170970838320107 0.0
8.897282771771884 5.275476392171722 0.0
7.463928467290875 2.513944501591933 0.0
7.675935950092034 2.509420347143072 0.0
8.924252417741767 3.024418701372628 0.0
8.857265893102921 2.911213535286156 0.0
8.776981063213334 5.27944309004916 0.0
8.840710910770163 5.380165700477552 0.0
8.960876896785969 5.375521424256389 0.0
8.904555918255223 5.482125846038813 0.0
7.567193097677677 2.32750151280277 0.0
7.780880844888839 2.323064027160363 0.0
6.851602118390116 6.234522818184622 0.0
6.758680682687229 6.389359516748128 0.0
6.66345977321418 6.231254850996584 0.0
8.715764716958308 8.079994249772627 0.0
8.65189989696114 8.227534663647639 0.0
9.042229096541828 4.348551764001607 0.0
6.436774206993324 3.316782326998922 0.0
7.590527613340588 5.22651784724799 0.0
9.024366884701616 5.476726561488805 0.0
8.968734351641839 5.583879050892151 0.0
8.845941080047659 5.586406316932274 0.0
8.909881305857882 5.690482454668167 0.0
7.348726871578975 5.44047403999932 0.0
6.567070253986433 6.398115757512583 0.0
6.697077150072261 6.553426749743366 0.0
5.252377383990728 3.187782967482479 0.0
8.988440431820699 2.908621158637298 0.0
8.922541972760119 2.796420836075996 0.0
6.466806010659505 6.229115583261771 0.0
9.033851153821296 5.686506775615425 0.0
8.978340519963718 5.795772485582058 0.0
8.85111463793018 5.798672910287243 0.0
8.922171984280597 5.907237880910408 0.0
8.795190680908043 5.911854068712683 0.0
8.864373398892472 6.019728357749566 0.0
8.991346995940626 6.014539153309398 0.0
8.93374019140187 6.12698887312768 0.0
5.095192648098848 2.952353430985476 0.0
7.672651464908932 2.141715359830917 0.0
7.886266921042761 2.136211284120189 0.0
9.098474286589756 4.245971410451114 0.0
8.813172564986438 8.216887361735234 0.0
8.74802978243154 8.366104673219047 0.0
9.059985162956899 6.120982589539211 0.0
9.00342813739303 6.233245043891739 0.0
4.961413514304496 3.214209167276753 0.0
9.05248113004685 2.794651022570942 0.0
8.986028039118027 2.681341972594222 0.0
5.671890458441996 3.377122473800023 0.0
4.755829262593116 7.184480462344647 0.0
9.158258644940048 4.34465968221255 0.0
4.799687186662534 2.961354824469195 0.0
6.030554747591715 2.726787502996874 0.0
8.938327180212585 8.34758372042188 0.0
8.847392320655468 8.503370672816716 0.0
8.67342124373679 8.518117686968314 0.0
5.234423106934083 2.694925204361751 0.0
8.964923046453565 8.185313058214797 0.0
7.456650986668838 2.134076476407834 0.0
9.111732084821366 2.897226832609386 0.0
6.368055837513985 6.402805870976705 0.0
6.265629899005033 6.226581076317183 0.0
8.736327196352686 6.026404178766982 0.0
9.117473097358854 2.67987006607594 0.0
9.052137415465204 2.565428515518978 0.0
7.781001557847192 1.955874236406257 0.0
7.992134447300669 1.949184538864554 0.0
8.593074792993455 3.143159483125708 0.0
9.1291360203536 6.226877897052981 0.0
9.072154326613617 6.338696745620542 0.0
8.916532550320525 2.566986282201109 0.0
8.984021113721658 2.449252898983242 0.0
9.178032243215632 6.120533546076094 0.0
9.213703592343162 4.244823670856978 0.0
9.11972142641474 2.449071238668887 0.0
9.052853896812186 2.33190758581705 0.0
8.635035926402708 4.462329956179506 0.0
8.773614475966344 8.657865377672689 0.0
8.596400917257634 8.67759750279447 0.0
8.942023339420883 8.644678093589654 0.0
9.19471670675691 6.33096438039349 0.0
9.138460613363325 6.443043552768813 0.0
8.66620319432524 5.916297234509582 0.0
8.606669825267202 6.032658196729024 0.0
9.27222540210304 4.341341907533128 0.0
9.013782808177437 6.451040569407859 0.0
9.08360982569773 6.55729980456602 0.0
7.885622149776354 1.768093045890686 0.0
8.095672144455353 1.768790621151345 0.0
9.208772072925791 6.549717411809656 0.0
9.154272208194383 6.662613503537815 0.0
9.187669783927937 2.334640996932141 0.0
9.122379015831417 2.215832190697178 0.0
6.164077036161143 6.404611236428829 0.0
6.062367614988677 6.224307160647549 0.0
8.987075041759633 2.211477580983978 0.0
9.056972755801603 2.093573581203428 0.0
9.194557288902232 2.096029761809264 0.0
9.131223008370409 1.972713028695079 0.0
8.87381302587057 8.795793668920256 0.0
9.039169086943392 8.781606667490083 0.0
4.662813350519927 3.228118291851354 0.0
4.474181267994617 2.945703616023359 0.0
6.562627723301209 6.075544382232434 0.0
9.326886053211574 4.243083624343211 0.0
9.280374192897945 6.656072830232892 0.0
9.224718905178564 6.766740750539347 0.0
4.703284910421452 6.528907865005451 0.0
8.955136474970331 6.565989985649191 0.0
8.998148826814893 4.865480736169776 0.0
8.99429836796776 1.965972383552685 0.0
9.065669391141741 1.847195105148808 0.0
9.207236162050343 1.853010386995843 0.0
9.143218073349985 1.725630086781897 0.0
8.998867447699345 1.719378449325465 0.0
9.082595782768397 1.592017827427701 0.0
8.92804562738841 1.585238202229766 0.0
9.01637794607019 1.453847302675876 0.0
8.854253119154375 1.446306868730686 0.0
8.941620273019874 1.320083886766936 0.0
8.775393064215876 1.308487027359826 0.0
9.102170347200483 1.324733726345249 0.0
9.013857060361985 1.178821526410403 0.0
7.991031819452564 1.587689878441685 0.0
7.767218744640202 1.595993197647291 0.0
9.191539171305216 1.194087248761656 0.0
9.123965901037613 1.057102462689568 0.0
4.853921953226772 3.470213116851758 0.0
7.496563223334782 3.470157221608763 0.0
8.536691379028115 5.921845852206257 0.0
8.475496498707471 6.037633662010236 0.0
7.978668526342969 2.307231488316941 0.0
9.384721922092124 4.337357165846226 0.0
9.331039180200886 4.435926256444196 0.0
8.546261775564837 6.150267290476958 0.0
8.411727261785726 6.155319300628062 0.0
8.972203609044218 8.930944433074036 0.0
9.133480321468399 8.90955269607895 0.0
9.197778815538276 8.768743880012563 0.0
6.162231825784922 6.05277753404107 0.0
5.962111081146334 6.046949845237622 0.0
9.268727788642101 4.146883230687689 0.0
9.380694211527906 4.144811697563401 0.0
9.323823335199954 4.049557759546529 0.0
9.283324894520613 1.736313094621396 0.0
5.858151623803662 6.22041808248046 0.0
5.759668475561988 6.038806123495502 0.0
7.836860473863919 3.191674397465999 0.0
9.348591928839294 6.75855034547469 0.0
9.293979592221298 6.870213350675044 0.0
9.170543172728557 6.879819332293818 0.0
9.240028263813034 6.983394994050525 0.0
4.347372565145963 3.312731475520695 0.0
4.114183445909965 2.96879678229065 0.0
8.616264880152233 4.042035981070631 0.0
9.403174760076901 6.650407069150438 0.0
4.173860112179449 7.723461240865885 0.0
9.365302975518428 6.973476802087294 0.0
9.312420275675276 7.088420778208979 0.0
9.184876614539778 7.0978133687822 0.0
9.25921281729617 7.204979813006656 0.0
9.12816413817609 7.21569648263899 0.0
9.203944409919862 7.322703303071253 0.0
9.334311975087337 7.311477957762272 0.0
9.280415785210538 7.428795599957155 0.0
9.274060219641907 1.066603180421249 0.0
9.211820491509728 0.9316562593680151 0.0
9.050684011148748 0.9017681241401576 0.0
9.441953732403995 4.432092590771756 0.0
9.394725873909666 4.526051349391942 0.0
9.43453556160865 4.048003950509361 0.0
9.378043599351757 3.952631412328806 0.0
9.289691247910705 8.890746792319852 0.0
9.228148443138926 9.030109127390128 0.0
4.440757888677695 6.389562448928118 0.0
4.689874463978985 6.239329075084555 0.0
4.291519540095677 2.622920583112654 0.0
3.886073352912894 2.632778677714434 0.0
9.344015622314338 1.202401041544343 0.0
8.193292196814806 3.849649660906171 0.0
6.960946604527747 6.07044529864598 0.0
9.347708267319902 8.756364147482309 0.0
6.826423138602714 3.261415861395883 0.0
6.06309517882478 5.884563187328262 0.0
9.4085057714426 7.414123963607981 0.0
9.356416821537886 7.532359471354527 0.0
5.042074134251055 6.938947182785697 0.0
5.063988238156824 7.311205832605263 0.0
3.946666851334923 3.30681624613374 0.0
8.189857914071878 1.939951128540477 0.0
7.880690277686857 1.38928908049477 0.0
7.63766396748483 1.399736360041063 0.0
9.345004233592562 1.857695941115052 0.0
9.440465164139875 7.085860901905448 0.0
7.918332480761888 5.744468010879592 0.0
9.08007135068879 5.372457017512481 0.0
8.78639561093144 3.718391405525285 0.0
9.356843485085705 0.9414458825132457 0.0
9.29705128845331 0.8103081541678832 0.0
9.251825423225316 2.451701826351773 0.0
8.483895366325516 6.270717564685176 0.0
8.346386886249478 6.275973306650227 0.0
9.493299170161215 4.138582531223591 0.0
5.321115649032961 7.117073603021904 0.0
5.354076009109965 7.436189411362466 0.0
5.597984079819928 7.254284331170681 0.0
5.644042313435943 7.564172740776336 0.0
5.383963016128051 7.753854027984002 0.0
5.681168258142109 7.880444993178456 0.0
5.935548099874979 7.687258900444162 0.0
5.979508404301389 7.994332725561488 0.0
6.21936843555201 7.802335560754011 0.0
6.267092590637372 8.104873033518185 0.0
6.498845418385807 7.917606504106031 0.0
6.544600005636809 8.209910620392591 0.0
6.77336078689533 8.027284686082275 0.0
6.814840179123049 8.311778392637773 0.0
6.721304148677048 7.737863326704131 0.0
7.031320924898797 8.1335673274533 0.0
7.077388928622946 8.403901803728003 0.0
5.417471987089176 8.090112295667405 0.0
8.845427688507666 2.446352368201366 0.0
9.318512319918124 2.339233739859646 0.0
9.380241452597096 2.451895615249572 0.0
7.283805558009199 8.237518806365102 0.0
7.329200330160381 8.497045124353782 0.0
7.233272584416691 7.991590926766813 0.0
9.142592248414191 5.471315142785471 0.0
9.196303265878848 5.36738298742727 0.0
9.25795832955665 5.465260877691205 0.0
9.310581303233182 5.36341558704714 0.0
9.371094700882272 5.459458038195667 0.0
9.422767107822985 5.360687090455724 0.0
9.36402660964156 5.264821436196721 0.0
9.474220736978928 5.262802348886269 0.0
9.41680330511366 5.169477108906666 0.0
5.168675939028436 4.895496152382537 0.0
9.482591449057548 5.454699312257291 0.0
9.431567605310825 5.552723344040521 0.0
7.531449703396948 4.741663470323411 0.0
8.517293123442691 4.672601123164268 0.0
8.459978676626639 4.778466809901586 0.0
8.396595115309985 4.67568709170855 0.0
8.338966609235166 4.782101664607259 0.0
8.275355646032752 4.678829956447008 0.0
8.217675280223542 4.785699596769931 0.0
8.28149024865807 4.888803783902183 0.0
8.16019781596952 4.892696417098926 0.0
8.22433278506531 4.995725219088695 0.0
8.102825704443651 4.999629142625341 0.0
8.166887930010795 5.098242831115916 0.0
8.034904900788316 4.896825406879729 0.0
8.15353539905931 4.682103688185489 0.0
8.211891449058882 4.574219757233394 0.0
8.290305306104333 5.094007100958221 0.0
8.225684228618732 5.201525567655179 0.0
9.444618942559746 2.343141375196729 0.0
6.929446520625337 4.868116916840016 0.0
5.737810725167649 4.893891407574175 0.0
8.720389971487277 5.38508368411851 0.0
8.805734920311323 8.951818172412821 0.0
8.905272694453211 9.083303226359831 0.0
6.006155038818204 5.171375272745409 0.0
6.431496448228514 5.152985998213245 0.0
9.052675024457304 7.106590131831544 0.0
7.740007013494393 6.09727525827826 0.0
9.375852260355511 9.013078430361404 0.0
9.32035844773103 9.14584923943073 0.0
6.989707597683965 5.146377438798643 0.0
9.488190206836386 3.951168069367155 0.0
9.432429152094464 3.855725756072153 0.0
5.568386402814275 5.185723849666124 0.0
9.525561551078322 5.166162126187324 0.0
9.465026391994275 5.072601962964018 0.0
9.320357339516937 3.857795423728873 0.0
9.375955927831914 3.759314274140895 0.0
9.261783786753899 3.761412578759438 0.0
9.31820665563318 3.661845422072752 0.0
9.431798673168924 3.660830894813109 0.0
9.374584413615914 3.563138564686839 0.0
9.48759661134647 3.562294297118573 0.0
9.431339678707085 3.464016717943268 0.0
9.417896212887529 1.746970678437863 0.0
8.731705369070733 9.110902182838881 0.0
5.652297951447118 6.21188565774667 0.0
5.569122518069258 6.024400786163834 0.0
8.257007204149394 3.505875091031567 0.0
8.717428603143034 2.925525757227976 0.0
6.882852832747376 8.57686572931064 0.0
6.337330066435714 8.416819098143066 0.0
9.50188906539997 4.521022403818629 0.0
9.453500859905136 4.617181635748691 0.0
9.46806769570129 6.749352117850711 0.0
8.836822104875719 1.72282859852854 0.0
7.481071063421426 5.64593758994851 0.0
5.668814988976305 5.86611128457842 0.0
5.487644760735084 5.847591822776978 0.0
8.993992818065195 7.228173913870249 0.0
7.98322414937693 7.229980191466666 0.0
9.22810751684646 7.54864871395298 0.0
9.304103360459063 7.654622011545798 0.0
9.432787371848761 7.633691049023619 0.0
9.382619818023882 7.759136995934441 0.0
7.239096822516492 4.679179578301165 0.0
9.47692479956498 1.861231395362419 0.0
8.041243110813022 5.095895152648969 0.0
6.190208781188077 7.509864122823853 0.0
9.283062812782122 4.549418667685757 0.0
9.503847665760087 2.450295046295932 0.0
9.443345385250678 2.557904120404248 0.0
9.52009568463353 6.644015937008899 0.0
9.203119005973903 3.662458522935253 0.0
8.406198651282708 5.92630414760378 0.0
8.467263597743843 5.811987729136874 0.0
9.461423029059445 9.128120577356565 0.0
9.408445330070542 9.26024300250086 0.0
9.266505293379728 9.277952925446408 0.0
4.14874709022218 3.631681332690154 0.0
9.437448107949258 0.8198473430736303 0.0
9.376993771693973 0.6910550697058979 0.0
9.22882356848217 0.6931820370818127 0.0
4.451823867195988 6.103664366188579 0.0
4.200031743909027 6.232039028149317 0.0
4.687154754667774 5.975132870483986 0.0
6.268889397098538 6.592235545990395 0.0
7.509366161722768 8.340075462391164 0.0
7.564775703413765 8.59800936579159 0.0
9.542148732924264 3.854614593058991 0.0
7.036231103929761 6.550562550831048 0.0
4.089373665437328 2.268193930262139 0.0
3.642558884866483 2.250386188148396 0.0
3.442182385618804 2.651948803899947 0.0
3.146832503011753 2.222630466765926 0.0
2.948870467975985 2.805088883766417 0.0
9.352005315330274 5.067356449300542 0.0
9.31729677031493 3.462944187594675 0.0
9.37428383619102 3.365546369736205 0.0
9.4883538239391 3.365384871181599 0.0
9.432147665178338 3.267287636377487 0.0
9.25034519267688 7.775848812012313 0.0
9.332091350002502 7.881724023243533 0.0
9.462101000264603 7.86490055671988 0.0
9.413353271651825 7.98561007219363 0.0
8.273592814723814 6.158623919352561 0.0
8.207135014732339 6.280394934566054 0.0
9.541483811580331 5.548224291759592 0.0
9.491365919893726 5.644847811894615 0.0
8.088095771120983 4.577581369371366 0.0
8.14760102783746 4.468303741922308 0.0
9.556217963323956 4.414867468889523 0.0
9.543667331547693 3.266908751519594 0.0
9.489307652535885 3.169908976697059 0.0
9.26285575842982 8.635341362685686 0.0
9.403220742003983 8.621447866627538 0.0
9.326013417886902 8.506778946171965 0.0
9.455477927154853 8.503896705359047 0.0
9.566646674069602 4.611465258087684 0.0
9.499341049870914 0.9352184973273918 0.0
8.683891958597638 1.444705608998412 0.0
8.599973456173778 1.287265568270043 0.0
7.760988189317371 1.175381292562583 0.0
7.50927661322749 1.171223823957793 0.0
7.380927152434357 1.411062577009695 0.0
7.242417847270241 1.170759311509981 0.0
7.107236746116019 1.421234419770886 0.0
6.960799033544566 1.169618322344823 0.0
6.817786081200392 1.434174581170586 0.0
9.48095050141868 8.738557748483624 0.0
9.319762046171894 3.263060331456388 0.0
8.920653400180534 7.117307656029475 0.0
9.452431221190624 6.544166520883111 0.0
9.571407933653493 6.540336592280795 0.0
9.507586285214174 6.443281357841339 0.0
9.575252974749443 5.070210512157044 0.0
5.755172844377253 6.370710487467459 0.0
9.541351959064952 7.969072511059531 0.0
9.354607289792183 9.3921968735401 0.0
9.495213435762107 9.37218405175897 0.0
3.77688136092967 3.643094492921176 0.0
5.460967180339239 6.159077196937325 0.0
8.656589552918996 5.283032675040985 0.0
8.599307076390474 5.387421722684671 0.0
9.584017606465821 5.263931993965828 0.0
9.51536593891754 4.977534386249715 0.0
7.788544970111893 2.70578432810479 0.0
7.381746833264364 8.755477463411431 0.0
7.615969996822885 8.852710176548548 0.0
7.783643411970649 8.691528137204457 0.0
7.845017394185501 8.938777577473743 0.0
8.570520580943368 7.342304222498308 0.0
9.103648004226827 5.781084627507008 0.0
8.338082930126799 5.815990105349368 0.0
8.930848895071895 4.561111316304916 0.0
7.381089602119859 5.983657236035151 0.0
8.42066837692862 6.393608568217351 0.0
8.888256157021065 6.459558428285236 0.0
8.826495664731354 6.575679897210801 0.0
4.22522220414496 5.921354747981145 0.0
3.943296448343383 6.075578573904587 0.0
9.563175937841836 2.554860696349795 0.0
9.505342423182917 2.656889632284623 0.0
6.660863480070611 1.168750929063519 0.0
6.518316961679488 1.436478598119306 0.0
6.683474168246802 1.694104067636375 0.0
6.376799057174731 1.707382100972048 0.0
6.205091481342603 1.443621641108414 0.0
6.058670988071357 1.728841803855816 0.0
5.877457486049096 1.454297236926778 0.0
5.724979192982589 1.756666409586195 0.0
5.529885788012015 1.462283739157555 0.0
9.514953777019835 0.7018468683209754 0.0
8.398665270372675 5.702731562702358 0.0
9.456442249775696 0.5772068858285652 0.0
9.565795671866349 2.345573662774494 0.0
8.830758563027459 9.247271599108435 0.0
8.523580738257648 4.88015211128435 0.0
5.580123316488715 5.701889892660689 0.0
5.398591029446707 5.685938459654249 0.0
5.367686360823392 1.778740548277203 0.0
9.546603444041448 1.754984055696778 0.0
9.489649223089446 1.641312329051244 0.0
9.617973952467912 3.363804764345866 0.0
9.584322830999731 6.729956156156573 0.0
9.597221861144487 3.948534024289882 0.0
9.49401963819799 8.089507968561776 0.0
9.207321074262563 9.416906871900888 0.0
8.27185428346661 4.464932191097996 0.0
8.207416067213774 4.35878753684812 0.0
8.332747746635944 4.354903699457511 0.0
3.990181919126853 3.930792395858886 0.0
8.267392138262498 4.254008221702929 0.0
7.997788712685495 1.196805377512679 0.0
9.600316638269724 5.639973985281733 0.0
9.550939606739425 5.737313319038155 0.0
9.44084303195315 5.74233753256161 0.0
9.50112296154558 5.834555019909565 0.0
8.897429225733994 6.685415510921676 0.0
8.762930941408914 6.695907295903629 0.0
8.654628175336732 9.278157371342388 0.0
8.544676900803436 9.133790942553834 0.0
5.294904777716057 5.855935872688884 0.0
5.216749389964556 5.66865685845661 0.0
9.508453581298625 2.239460033375932 0.0
9.599691370793206 3.169496930704394 0.0
9.546615051106684 3.073514534194011 0.0
7.484714626923596 5.028675123117963 0.0
9.588496050271255 7.850836295555126 0.0
5.153197381012662 1.471340286561097 0.0
9.433168304679345 3.071871997104804 0.0
9.610464706874994 5.829217654498672 0.0
9.561407772947403 5.926179534044419 0.0
8.273381980676042 5.705233340662362 0.0
8.330794188929296 5.594351887246082 0.0
8.207319603076424 5.596747949305344 0.0
7.251338559467102 5.233758892662348 0.0
8.708518799790543 1.130513882092466 0.0
9.590155250193266 0.5878623138195824 0.0
9.389919385420015 5.841079912164009 0.0
7.991397852194216 5.859910582924319 0.0
9.624951589233206 4.975554514425905 0.0
7.240016788025947 2.531866266726309 0.0
7.635666783493215 3.873554782053258 0.0
9.608476620993713 1.863530872936442 0.0
9.365330459496413 8.10677840682376 0.0
8.775076110585598 2.572737931759856 0.0
8.699389445914996 2.444602334375113 0.0
8.625078713232146 2.580891022578613 0.0
8.54447196848446 2.447624719286678 0.0
8.468898498943965 2.586757328881282 0.0
8.62282309213608 2.307826916202421 0.0
9.622102662978762 6.439307895185218 0.0
9.561995355724862 6.35103962032292 0.0
3.898245450818314 1.856155797593496 0.0
9.681759177700954 5.07069253017652 0.0
9.059254996454502 4.963357716933865 0.0
9.113144532326562 4.861710138088372 0.0
9.62140874877204 2.656009146517733 0.0
7.884510615470827 0.9666888912541309 0.0
8.14902661050739 1.005010215149227 0.0
8.491263206618079 8.527197931363634 0.0
8.408859203395778 8.697060715788105 0.0
6.54422152733529 1.954566069381189 0.0
9.563546573097593 2.755667904356369 0.0
9.453065492925557 2.761122255953964 0.0
9.676889098520615 2.755084315170127 0.0
9.678287124781653 2.556838324720633 0.0
2.60254317790297 2.278874965850319 0.0
9.211706272534968 4.050470567310489 0.0
8.526711683538949 5.698821878547752 0.0
8.296604023060945 8.533761944401608 0.0
9.649704314258118 5.543946557831669 0.0
9.651176136337964 3.85122804518279 0.0
9.44590154800397 9.498503704959054 0.0
9.580491248736612 9.476376347552954 0.0
4.3239388803087 3.921156392977062 0.0
9.65737873521736 3.075324100817917 0.0
8.128000846282253 6.160273991836929 0.0
8.06242981852327 6.292371360998262 0.0
8.500465019503922 1.442700595221201 0.0
9.615253212967009 1.649819368149096 0.0
9.561768620580791 1.538553925606111 0.0
9.435477757657937 1.527391516499924 0.0
9.627993450010088 2.242685831452484 0.0
9.5338252733548 0.4673994795805215 0.0
9.398055066504014 0.4589059948533885 0.0
9.669486082509058 5.920177035588319 0.0
9.621072177439727 6.016493814615133 0.0
9.506185962103057 6.018397021409126 0.0
9.196884440497488 7.898824858961557 0.0
9.112591143666748 7.789491461180181 0.0
9.664357762385308 7.950712034233033 0.0
8.46233617997115 2.308903464128035 0.0
8.547917980328803 2.169381684694277 0.0
8.139931430059324 6.410762600521521 0.0
7.672499127532963 9.099143622036436 0.0
7.91372855627271 9.178704612763656 0.0
8.463425076318451 9.290653726808348 0.0
9.643938029094286 9.335632419679458 0.0
9.647017668702574 0.7068996148634754 0.0
6.241662276606473 5.884018212993202 0.0
6.157742245066693 5.73500474100449 0.0
6.318815619949124 5.730068085823802 0.0
6.247706374231452 5.593094310939028 0.0
6.406948541886973 5.593272398468375 0.0
6.092564106310554 5.587409338401505 0.0
8.535507922245372 5.286142900439676 0.0
8.022959839404006 4.471630490587016 0.0
7.963561162854596 4.581393556789843 0.0
9.683487139413305 1.546750704925431 0.0
9.630761777960082 1.435922217091829 0.0
5.121714348989337 7.950140247572198 0.0
5.136464096196084 8.310254432483559 0.0
5.47349124035624 8.455234262268478 0.0
5.176273618280354 8.687190323573228 0.0
4.796664658962938 8.592678692862421 0.0
9.568705729418735 4.887269869750176 0.0
9.462711651199594 4.88832222094458 0.0
9.674903475028225 4.882285174433025 0.0
5.4996067353406 5.546583260717527 0.0
5.663632234555963 5.557613452957074 0.0
6.829408195405585 1.947174574944512 0.0
5.336529198289861 1.127585641139875 0.0
9.672387559812332 6.34138351957329 0.0
4.463988917379896 2.271060678869338 0.0
8.618048281355405 6.263841736419089 0.0
6.480949808711781 5.74815588680617 0.0
6.562207427719153 5.592185077216444 0.0
6.643040463857446 5.721233693378952 0.0
6.712825900331884 5.588664360236 0.0
6.79240375630333 5.711383948285569 0.0
6.86115931532141 5.584697050428064 0.0
6.939210100691576 5.704407337029545 0.0
7.007668476576536 5.580801046893123 0.0
7.084627386867475 5.702817970154801 0.0
6.633257976075473 5.460881327825488 0.0
6.931430743764456 5.461960451448691 0.0
9.682652370938209 6.533133024505995 0.0
8.761108695241376 9.450742747770144 0.0
9.146031326900015 3.764292700000154 0.0
9.089378801805193 3.661317181076136 0.0
9.514354521818781 8.994988681611192 0.0
8.157650730500988 4.262987189670279 0.0
6.329633198899328 5.4647789391701 0.0
2.340685767996258 2.811285337457589 0.0
7.379572471323651 0.9290892725587991 0.0
4.171878172186605 4.222320767259098 0.0
4.4876601621649 4.16473354200826 0.0
5.336389369563535 6.806464508860387 0.0
9.595468321212476 9.108133206829102 0.0
9.645038675267227 8.982113951305912 0.0
8.393140678816192 4.246338342095281 0.0
8.309440721624494 4.155300532283633 0.0
9.418269339704423 1.9925512363779 0.0
9.662781807969623 0.477809346089035 0.0
8.011297869803792 0.7518828483803571 0.0
8.250149975885678 0.7646904662196189 0.0
9.608674873602773 0.3618049194050078 0.0
8.692696069692623 6.582927327365709 0.0
8.628225948401226 6.705702462696891 0.0
8.701883181418305 6.822086652299242 0.0
8.559276855155542 6.829564723911442 0.0
7.069268463354993 5.459534423493629 0.0
2.654575201159115 3.323490466195074 0.0
3.610801136544596 4.044075244426243 0.0
8.263757217166944 5.48730323490738 0.0
8.138838162809126 5.491254533497952 0.0
7.90196833683664 4.477386962763833 0.0
7.987943097943191 3.978756490171551 0.0
9.704623491880403 3.945605151832784 0.0
9.461009573830147 7.301728818091931 0.0
9.532468631193666 7.399916015174975 0.0
9.582688928417856 7.292330983701011 0.0
9.652579613269625 7.387768793572397 0.0
9.699264016151023 7.282867433965265 0.0
9.633305589700536 7.188543855060478 0.0
9.505576100168666 6.961225778216469 0.0
9.43876966151099 6.342441564206569 0.0
4.908483672172518 6.098703904450545 0.0
9.135448256237908 5.269827196966999 0.0
5.905650502271389 2.025036080946255 0.0
9.709890722072377 9.452748507541063 0.0
9.663337613522643 9.572126259365891 0.0
9.603900123387826 7.495180532331903 0.0
9.720147629525837 7.483400774981126 0.0
9.674588415444239 7.588303295299578 0.0
9.653186673863587 4.039274180923234 0.0
9.053164539680804 4.764545162185531 0.0
9.164908495749003 4.763017269285045 0.0
9.226019227262443 4.858029410614327 0.0
8.809947621994619 3.4964384919072 0.0
9.10538997155458 4.665865142902959 0.0
9.331074106432244 5.748993480915537 0.0
9.055854333858068 7.918554535314415 0.0
9.446431573964945 8.209836764658437 0.0
9.573844810886287 8.191100251691205 0.0
9.309704769895653 8.244395007943949 0.0
7.240329561730736 1.676197957122907 0.0
9.543389817573933 3.660019800390455 0.0
9.598599341122098 3.563130123982772 0.0
9.652615161407017 3.658119804270645 0.0
9.706336063693934 3.564815526226687 0.0
8.632284427755456 6.946688912416058 0.0
9.682863230715835 2.349655023034811 0.0
9.571538455120994 2.142369886250143 0.0
8.090821900439733 9.017409120951333 0.0
6.812258669899192 0.9007667548831626 0.0
6.50135254578461 0.8974046495177885 0.0
9.598335906230732 6.246437748035812 0.0
9.719677442549804 6.253968775436637 0.0
8.593026822691716 5.180101360605356 0.0
5.537586126848265 8.836083861509138 0.0
9.688689404995035 2.143487155934306 0.0
2.821389253975936 6.507820864074362 0.0
9.176571289960709 8.507736431357309 0.0
2.918303740542162 8.256728920338826 0.0
3.428955230180972 8.401446814887457 0.0
8.490587404589881 6.715350139132777 0.0
8.86049054904785 7.243279881821806 0.0
8.93696309213556 7.356650230611625 0.0
3.951931175165697 5.78308550088855 0.0
3.65055612573298 5.91672400098539 0.0
3.668142216548471 6.247526235973777 0.0
9.717269848920886 5.821831227352286 0.0
9.708364917734201 3.164198601626433 0.0
8.45581975650687 4.569560863828342 0.0
8.204448312099833 6.040774355519757 0.0
8.65969449127868 5.485991799508151 0.0
9.707534571012967 5.634423933296901 0.0
9.62102991883279 2.849662850313935 0.0
9.144093558002634 3.560383427867003 0.0
8.29763273805118 1.77155302934031 0.0
5.280452715709455 9.01633391004168 0.0
8.984558945859158 6.99932633710603 0.0
8.4157550875812 1.275784953143711 0.0
2.068078118650995 3.355462780535101 0.0
9.205703884756806 5.568274778556933 0.0
9.745857863753141 7.178456670302003 0.0
9.681628895748586 7.081494416756802 0.0
8.875818787971069 6.240744812097083 0.0
7.993733797566922 6.414830952863579 0.0
8.462810157069566 3.377071044664789 0.0
9.29428363519789 4.759591981903337 0.0
7.933956818298286 5.97437536746848 0.0
9.028281726378319 3.558713145763133 0.0
9.083461773461467 3.455531762175701 0.0
9.73231939683535 2.849247643393067 0.0
6.70072305037728 2.192432536215492 0.0
6.423245125077639 2.212870246546939 0.0
4.931537051605536 1.135086496804522 0.0
4.746426561586179 1.500381091957315 0.0
9.707706579932626 7.836419656220658 0.0
8.590593344701457 1.595639668013959 0.0
8.708946574109854 2.1688179918246 0.0
8.634728854549891 2.028564483452208 0.0
9.230357659411311 8.129337203173913 0.0
9.102841374461482 4.452881308250647 0.0
8.472081531214734 5.388993924853032 0.0
4.925996806199801 5.844046944846857 0.0
4.702806345752284 5.745688656289065 0.0
4.884357002239844 5.633237011762874 0.0
4.709628434300812 5.536404116679045 0.0
4.530800966746534 5.627044171217377 0.0
6.040296145349247 6.603808099703576 0.0
6.162203578696918 6.795213950202512 0.0
5.923135943221574 6.824060069869489 0.0
6.046693245732212 7.010423490915212 0.0
6.297337598588478 6.979895528204233 0.0
7.760448385794147 0.7294020304851334 0.0
8.492228348169641 6.958778476405878 0.0
2.89219822877093 1.704113597264478 0.0
2.26178643438086 1.7814602252425 0.0
9.726968895980871 6.009547057102511 0.0
6.63195110828313 0.6072886418835157 0.0
7.984023036954866 7.515675826210831 0.0
7.893857204140559 7.681876703427663 0.0
7.778465117872411 7.537836322197895 0.0
7.998204230811618 7.844922503023499 0.0
7.798554315988981 7.858161805718108 0.0
7.917846202023782 8.03040048103727 0.0
8.547520504556728 2.721261126162116 0.0
8.39253850806587 2.732073315877738 0.0
8.306047241032278 2.59069854402512 0.0
8.233011054235162 2.739783364361515 0.0
8.318836035587811 2.879838477099622 0.0
8.159530874574331 2.888511553151382 0.0
8.245490421394788 3.024568439743106 0.0
9.759103003747676 3.077839427881478 0.0
8.083610090773394 3.033523757291178 0.0
8.174562583800352 3.166768504406541 0.0
6.046769434852523 1.155662270344939 0.0
6.968371001421964 2.176347877216873 0.0
8.324858098380334 3.152966249334499 0.0
8.145556596142626 2.609897633546475 0.0
8.970652052821418 7.804556541250797 0.0
9.033737629244714 7.681328986528639 0.0
9.62347010002576 4.796939565664328 0.0
9.72520380348743 4.790261082613535 0.0
4.882631186210167 5.455006233451049 0.0
4.618356368594037 3.933076284395493 0.0
4.748083507220199 4.151025177732873 0.0
4.641724290430313 4.358202249373887 0.0
4.87055838101999 4.337900676660481 0.0
4.974114446887331 4.149149057174687 0.0
5.081577844806959 4.3240148266423 0.0
5.179521650033781 4.148725180298481 0.0
5.276261408871418 4.316673822529601 0.0
5.369189110897883 4.148362797753505 0.0
5.463892033849439 4.338819369807593 0.0
5.550828466075906 4.146274465971151 0.0
5.646554822352869 4.303571429647391 0.0
5.728109623160046 4.138582010823754 0.0
5.821689108984419 4.291959598724587 0.0
5.906082534948073 4.141649907302701 0.0
5.99655838673762 4.288752711512514 0.0
6.077312859438928 4.141011188943332 0.0
6.164215275138099 4.281164574562373 0.0
6.241782344986693 4.140701084167517 0.0
6.324316420613108 4.277393447415522 0.0
6.40284165425941 4.140026953305852 0.0
6.483655157361099 4.273418937894759 0.0
6.561170698911611 4.136221843106807 0.0
6.63512300179586 4.269917278694155 0.0
6.720306110251473 4.133393659385058 0.0
6.63777078218551 3.99617001426095 0.0
6.802492763973074 3.994355399489989 0.0
6.798834760478153 4.276914787769972 0.0
6.15377608509923 4.000134206628027 0.0
6.548727135071258 4.400510710520637 0.0
6.251479300130713 4.421887359316258 0.0
5.275876048175579 3.979624500657822 0.0
5.910905077162284 4.431174408784691 0.0
6.717070288412452 3.851239795555301 0.0
6.883499045994213 3.852555480300214 0.0
6.96664848901999 3.994033961856844 0.0
7.048208567116626 3.854750001965969 0.0
5.810004974283072 3.982497501655442 0.0
5.586615391658107 4.471070246359201 0.0
6.547331954052155 3.853872077215347 0.0
5.179081233207816 4.485638492900557 0.0
7.126615227065496 3.995337770596979 0.0
7.209459742762513 3.856893463870469 0.0
7.130226097876905 3.713620439679428 0.0
6.63075064074106 3.699684148676045 0.0
6.446985573861992 3.697358756862005 0.0
7.043151422977365 4.131713936060725 0.0
7.198322215260019 4.129850614748363 0.0
7.119378405252723 4.26005098890218 0.0
4.797146270976422 4.525762781577414 0.0
4.608329098388589 4.573584257851931 0.0
7.294442092743627 3.720853338661503 0.0
7.215753312764997 3.571378507508807 0.0
7.049631633956289 3.568047985538775 0.0
7.133765707749521 3.414282375958479 0.0
9.755079417839903 5.539705890434435 0.0
9.698955703441971 5.450920012703194 0.0
9.717604099406742 9.09084770432896 0.0
9.276716006673976 5.847248422342224 0.0
9.339081208926798 5.941174203394446 0.0
9.031261921742963 3.750271483819014 0.0
9.08721978689863 3.853416037308712 0.0
4.801461566647803 7.510704110489921 0.0
8.206553504932042 5.818005960412773 0.0
7.362361315389098 3.863102442315545 0.0
9.492826845316191 2.963845037486267 0.0
9.376710375304633 2.97229517374228 0.0
9.3192743723601 3.070687802230453 0.0
7.915389082113898 6.293241865913004 0.0
6.735006382384437 5.832450056405368 0.0
8.456481836836168 4.35369289249905 0.0
8.517718268476031 4.246675068616396 0.0
5.583512022030555 5.411069060406398 0.0
5.73625200174779 5.422617752052123 0.0
5.81006929286229 5.548584937688919 0.0
5.903438861894402 5.420604003204523 0.0
5.43801870974416 5.402925156167655 0.0
7.022641548594327 5.825217331839047 0.0
7.165095795605366 5.826005223633447 0.0
7.223078558430726 5.690146755650336 0.0
7.841396000338385 4.586693006493787 0.0
7.904793170875705 4.690826189066096 0.0
7.785999820520073 4.696719777099973 0.0
7.846448506395101 4.798518978096564 0.0
7.728149182067156 4.803800941124008 0.0
7.788983823826226 4.904802634695232 0.0
7.672018889153144 4.910077510508749 0.0
7.731996012352178 5.014717724244488 0.0
7.852072803124419 5.00743796185411 0.0
7.779278698005006 5.118909346425974 0.0
8.088113864063853 5.605434545811022 0.0
8.016457362785575 5.494849890158723 0.0
8.072290383394757 5.385594956317259 0.0
7.95068657972964 5.38825563681957 0.0
8.309366678475389 1.438342408757099 0.0
9.748160780780179 1.447794693754379 0.0
9.696454228162398 1.337889922375316 0.0
9.568813761940916 1.329560834053294 0.0
9.638326779791626 1.226729570935787 0.0
8.472132467407484 5.182856496818138 0.0
8.066211547412054 6.53691730655352 0.0
8.217035586462373 6.522976700918602 0.0
3.544839338670893 3.324491119989469 0.0
6.999740002965287 5.347729916247808 0.0
6.874544698914502 5.347027470386579 0.0
4.880451234715014 5.193043717957879 0.0
9.104510033763066 9.313204713465637 0.0
9.0466357104558 9.45359399494339 0.0
9.146803165140184 9.569652364413551 0.0
8.134107047896672 0.5527712356100052 0.0
8.369770412730738 0.5571215815175228 0.0
8.47386979744655 0.7564607169846485 0.0
8.585193608569258 0.5749174254532757 0.0
8.683868132726584 0.75505070091701 0.0
8.787381435061018 0.5813987798627239 0.0
8.697570280442534 0.3771156480326233 0.0
8.530048434259976 5.077280516000916 0.0
7.995091351438729 2.90367515012593 0.0
9.731083608815164 1.662638626153251 0.0
7.260488865351954 4.255073962371814 0.0
9.760728358076392 8.990038509880067 0.0
9.716710396257366 8.884160310398862 0.0
8.794627466210242 7.369659405098349 0.0
8.868068657550866 7.515048014893154 0.0
8.702594597629135 7.510501129643432 0.0
5.132320689147051 0.7610757801158905 0.0
9.755852887652699 3.853180024615871 0.0
9.787424819067885 2.757921105725315 0.0
9.731193479931608 0.3736343090103709 0.0
9.796526908308536 0.489684029254899 0.0
8.226019692057042 2.453349105940535 0.0
4.560989821496479 5.428206018250252 0.0
4.348810639659689 5.517048281386008 0.0
8.785190163106925 7.119142251269924 0.0
9.015515413043023 7.464769766852701 0.0
9.754861440190705 3.659036930324926 0.0
9.7543610723378 4.033687839160082 0.0
9.707881226943384 4.127219992296752 0.0
9.52841017383273 8.309020665649431 0.0
9.65186044414544 8.289498614805698 0.0
9.714051275521857 8.173576484362068 0.0
8.209758892476394 8.715513071423135 0.0
8.097084883671858 8.548851201381087 0.0
8.177989947800599 8.367872862579052 0.0
7.974142434808908 8.36779470623567 0.0
8.409012054919861 2.142624252464372 0.0
7.707002321497132 8.039129945341395 0.0
7.574653123518228 7.83895791570255 0.0
9.229858094382692 5.951357214361815 0.0
9.75307989876696 1.229893222503321 0.0
9.715811155868643 1.128779429890018 0.0
9.597960915003707 1.117058287635912 0.0
9.672063923518955 1.020806103150243 0.0
8.99090422125785 9.593878510105375 0.0
8.133165456134304 9.257620998029804 0.0
7.976779931497633 9.420725324095141 0.0
9.77231778617502 7.927819487779705 0.0
7.957213679655531 4.364530256281665 0.0
9.609903116082736 8.403725680286847 0.0
9.724891358972584 8.388392708395173 0.0
9.687487059868507 8.495935345161797 0.0
9.810055520269009 8.494090598382963 0.0
9.755967487162335 8.599790818513082 0.0
9.645698986824481 8.606121319182705 0.0
9.721376049217765 8.699989876681524 0.0
9.773009257015609 4.884557953188837 0.0
9.830105798750992 4.796546393900876 0.0
9.775335108731761 4.686093304257503 0.0
7.455611517737074 3.730099283949135 0.0
8.906943567829634 0.4197477661467797 0.0
8.980613334153533 0.5814185917581446 0.0
9.081059111759728 0.4263421860552371 0.0
9.821654809259165 3.576985724143072 0.0
9.761309244784803 3.4792267780002 0.0
9.763329553045937 9.353068233045157 0.0
4.463051839136694 1.164440352584939 0.0
8.0213168204867 5.283436382300235 0.0
7.89385412333227 5.290429544753158 0.0
5.806940001023414 8.583716119232427 0.0
5.88977793877374 8.96065112858812 0.0
9.177759062826041 8.25539130897928 0.0
9.626582559276994 2.05283181283147 0.0
9.747673294325121 2.064954301745188 0.0
8.775905508647185 6.951821187702613 0.0
2.3581644273991 6.029034686663493 0.0
9.777798009058461 9.548066962498762 0.0
9.737129197219856 9.662299853506903 0.0
9.615080366030512 9.683349544763068 0.0
3.315839678697904 6.042943273456425 0.0
8.915083018115329 7.937748428923896 0.0
9.489832173860055 4.712364754630572 0.0
8.118313727862493 8.013944064029838 0.0
8.902248750797776 7.67372145952523 0.0
8.954075939212636 3.463080912810881 0.0
9.45247551997678 2.133243108303608 0.0
8.311151553157742 8.899233004613622 0.0
3.28672004268868 6.826745674539142 0.0
9.86008383798735 3.468233656255824 0.0
8.389990589860254 1.947086063498656 0.0
7.144231739553659 5.329544660076687 0.0
9.654500729007207 7.743301971143119 0.0
9.761920842881946 7.740144345898896 0.0
9.692820773976567 0.2651585113981998 0.0
9.690951720399688 6.100517071814821 0.0
9.775704281989471 6.077882312279847 0.0
9.823117117198079 4.115168542267924 0.0
9.764391943581737 4.214465954230587 0.0
9.659455011849253 4.218716850797838 0.0
9.713462125022623 4.30742830316693 0.0
9.849638067150842 4.208845651573708 0.0
6.376241713254513 3.858766051594979 0.0
6.274931849158213 3.701528298009006 0.0
7.097780104117746 1.926449727602711 0.0
2.457742027508782 3.810157622192786 0.0
2.963634206580268 3.740748099915693 0.0
5.065585416063965 5.544355730437482 0.0
9.783560252464587 7.566507987677117 0.0
9.825819294611026 7.470942204664841 0.0
9.799976114123012 1.01659516618323 0.0
9.745559590633832 0.9150866860898854 0.0
8.20473400632469 9.495828670767946 0.0
8.784586030320169 2.054461500762216 0.0
8.758471587067168 1.888286802854785 0.0
0.9188935087347281 8.510730800272478 0.0
9.674192026048217 9.20389587377276 0.0
9.796314981283475 9.185916994648775 0.0
7.206882433199502 5.452024361489832 0.0
9.773927048949279 6.334665846819535 0.0
9.830288393591173 6.225300227041885 0.0
8.25177349297509 3.282767705830209 0.0
8.099233469407428 3.304040153764131 0.0
9.607860512870598 4.315652630490023 0.0
9.403674738018715 8.367349042046314 0.0
7.611756786273919 5.018691202305147 0.0
7.549513964643336 4.923310232561835 0.0
9.80986724662116 0.2915868356190958 0.0
0.7757562810577034 3.504187313079081 0.0
7.659562100664981 4.698467529240196 0.0
6.539424975891206 3.541729955691742 0.0
6.717348880400739 3.55221857686142 0.0
6.836337579501807 2.417476958454302 0.0
7.096480496160066 5.959124656438389 0.0
7.189742782777612 4.377051328076039 0.0
7.051723187622053 4.38470822973091 0.0
7.125489805519186 4.497018383456762 0.0
6.994915621927777 4.501504591168814 0.0
7.056755276274058 4.607929817497045 0.0
6.932937068803914 4.613249390039674 0.0
6.86629288290367 4.50541343988659 0.0
6.80427099775847 4.617607827251794 0.0
6.739195362053689 4.511124964201849 0.0
6.677260697693361 4.624288827143181 0.0
6.996760608675822 4.711715831373894 0.0
6.316045249462968 0.6456945497683586 0.0
7.321834163850416 5.816449323512759 0.0
7.833101485370825 4.390058096386987 0.0
4.996572652976738 4.498711166259074 0.0
5.112334577457371 4.663858846723513 0.0
5.271923064784868 4.629759173373871 0.0
4.93773508827367 4.668006487116195 0.0
5.348137647919096 4.485934621930562 0.0
5.413454827497575 4.62999925573761 0.0
5.356581113747675 4.770594395332836 0.0
5.013422223730484 4.793321773780133 0.0
8.58674425943957 0.9312335381466886 0.0
8.776450596582496 0.9362399987293505 0.0
4.783496233934828 9.486061758876032 0.0
4.544176394620909 9.034071856445296 0.0
4.082330493623582 9.015765881393772 0.0
9.820867469965414 7.285959215547852 0.0
9.852697883440127 7.166089674802766 0.0
9.260999083164238 2.971390964911171 0.0
9.197701900169713 3.073162109379564 0.0
9.31960210441945 2.867465579641856 0.0
6.660951583415121 3.383363199709994 0.0
5.210469976037585 4.761678854423166 0.0
6.740780285297665 4.733615686805694 0.0
6.611362405615225 4.731958642073806 0.0
6.549091884465382 4.629620704100811 0.0
6.491761716522486 4.733409494449344 0.0
6.425259228542098 4.640546096196947 0.0
9.715556659367534 2.986725573570596 0.0
3.710524324925069 9.463213827486557 0.0
4.768537031214573 4.727001037865238 0.0
5.039413681704655 5.378508462165627 0.0
5.188746429211535 5.440476671296013 0.0
5.172214816037712 5.298914527247826 0.0
4.469063601436893 3.667917323494335 0.0
3.799121596584382 4.741629285988305 0.0
3.661085664896249 4.442847704416992 0.0
3.316563386321876 4.380147387454913 0.0
3.802087298647255 5.26743535640985 0.0
9.738116341343215 8.047178982429934 0.0
9.85106076399546 8.021725551312715 0.0
9.837581050304836 2.844176011307251 0.0
9.664579962075123 4.402853107737106 0.0
9.76433159763034 4.39807801415352 0.0
9.718924973226878 4.487825491046641 0.0
9.826405563645343 4.494594135148365 0.0
4.931068003413168 6.359330991212394 0.0
5.130175746947236 6.201075257041828 0.0
5.143884286052002 6.445382329515047 0.0
4.953395875296406 6.628748468717369 0.0
7.833019185167153 5.400347121613631 0.0
7.766636138801143 5.313240048256084 0.0
9.767038723422333 4.578090619166644 0.0
7.315369355237483 3.441501197259575 0.0
9.556068971301514 0.2347811136726856 0.0
5.733871280791703 4.444861510772459 0.0
5.828809543126846 4.569791247698539 0.0
5.986701526182213 4.562881783985375 0.0
5.912543327921148 4.692966271273211 0.0
6.052130330528581 4.682477327897978 0.0
5.773525984744635 4.697697018456535 0.0
6.121646311546238 4.572302645403103 0.0
6.182349700936326 4.67713231096357 0.0
5.846371383601797 4.808939734754761 0.0
5.117807918383606 5.974361363083184 0.0
6.256132501905665 4.575863546153224 0.0
6.324770064521816 9.645040261272253 0.0
7.345522892050965 4.12581088034536 0.0
9.338523512844539 4.854480276600515 0.0
9.286984287289403 4.959628690044808 0.0
5.676298026114105 4.589279806918992 0.0
5.631257891894775 4.722749088404111 0.0
7.970415275563177 5.621040275419208 0.0
9.565118337557308 7.081391220827488 0.0
9.626201005045262 6.980441083020495 0.0
9.733729506193331 6.979928568877979 0.0
9.684556253529976 6.887102896543928 0.0
9.780785815410074 6.890287441101827 0.0
9.740054813822885 6.794211367612523 0.0
6.462628988057306 7.629921412015864 0.0
6.692564520952154 7.473594130811262 0.0
6.927983108788191 7.570982428592125 0.0
6.899878641134941 7.329306734748538 0.0
7.117542472438434 7.416951094809493 0.0
7.089537168123128 7.186691566729968 0.0
7.296585396514727 7.275888419524222 0.0
6.879678873774065 7.097443005287856 0.0
7.063454637059129 6.967740076426161 0.0
7.329105042924355 7.496317641003757 0.0
6.867084781778411 6.878842928865059 0.0
7.494278796275744 7.351949197351029 0.0
7.462564159480594 7.150140034494138 0.0
7.644835001206406 7.21506678718646 0.0
6.682478929414216 7.008358327294905 0.0
6.449199855715812 7.365660640952548 0.0
7.548139855358765 7.57299228324251 0.0
7.008502809092701 7.844601794812628 0.0
7.371739019901781 7.707688433423657 0.0
5.665345294602155 5.290628720253272 0.0
3.987583013016546 4.486920698115711 0.0
8.893480480320447 0.7785000884179994 0.0
9.715485963651112 0.5955299613117169 0.0
9.761785841543585 0.7048670948649375 0.0
9.670304314877074 4.578896619304786 0.0
8.058509626083154 5.744161686650483 0.0
6.181795443628869 5.462040811515966 0.0
6.256771804808641 5.338464817889848 0.0
6.124070400983443 5.352376180901929 0.0
6.399679261813415 5.349186390888865 0.0
6.477776305607503 5.46505688468465 0.0
6.541624525938461 5.346017118512589 0.0
6.673064575428321 5.339051516933525 0.0
6.599301548842115 5.241958624987057 0.0
9.573774011620444 0.815274945835158 0.0
5.86493292693426 5.877588788523632 0.0
5.552663040119136 6.957487930464628 0.0
5.535080960199246 6.663033131707637 0.0
3.708603689392072 0.5979254716153909 0.0
3.31896983256719 1.188583855309964 0.0
3.895664898001925 1.128137111173669 0.0
6.363360407965353 6.032416442205533 0.0
9.445959758065749 1.070139246426051 0.0
9.50632172780449 1.214052376665338 0.0
9.441030033980638 1.325047485624912 0.0
9.295799464644857 1.341410624832976 0.0
9.184164107767781 1.461677744200096 0.0
6.407191016756832 4.407273313799791 0.0
5.544591888593027 0.7652641669375747 0.0
7.883090151006535 2.497506182548758 0.0
8.073420508370992 2.120510489750234 0.0
5.494822040671399 4.732314720081375 0.0
0.8986976806403217 1.464611451578306 0.0
9.536325549598013 6.83286654168725 0.0
5.972289519322897 5.727532110854501 0.0
9.82203607053145 9.443411729566549 0.0
7.263199949874008 7.064207941227515 0.0
7.233659553805083 6.853135694774254 0.0
9.793310082768443 7.072747972018893 0.0
6.734168931095253 9.67499220075154 0.0
6.941134861034159 9.382328333169653 0.0
7.285822522704258 9.443989747444657 0.0
6.576263515512108 9.333035011158342 0.0
7.160560566479093 9.127732577621245 0.0
6.218711947378506 9.298064908857533 0.0
6.432383355119106 8.980985203293491 0.0
6.795390278360442 9.046043538032663 0.0
8.54677014121837 0.1957422484480979 0.0
8.528696320820908 9.804850950580938 0.0
8.42644965647489 9.604735484095604 0.0
8.010239224104339 9.715048083583248 0.0
8.644359648763341 9.628432815860457 0.0
5.344212921686536 5.526744195650314 0.0
9.760936589662048 7.38409687515441 0.0
9.128187788393989 0.1445485608215519 0.0
9.133307661752394 9.854833215426817 0.0
4.867351616228264 3.944459575003425 0.0
5.905323253270366 7.385600364255367 0.0
5.909045412185362 3.361969954191194 0.0
5.80580919758911 3.569999290452344 0.0
5.578230704221431 3.587842862412673 0.0
6.013352753603037 3.550699073477782 0.0
5.936624955014758 3.721630401607248 0.0
5.735413275357409 3.78528948606432 0.0
5.512538847486775 3.794760621907932 0.0
5.360571639388366 3.618649018042938 0.0
5.134141179590394 3.459385929220745 0.0
6.167399567008798 3.367365990358096 0.0
9.766756262206602 8.291756450136036 0.0
5.486063578307141 9.64505925252771 0.0
9.497624614180321 4.328873442170357 0.0
9.811387324954623 1.570516917365688 0.0
9.389210081887331 4.69150887571586 0.0
9.704395728912932 3.754226393630331 0.0
9.808172776193384 3.748784464356272 0.0
6.549660911932182 4.839747932361234 0.0
6.757415124099031 6.077939876843736 0.0
3.805578542126494 8.040840085419626 0.0
4.232580149691158 8.198659880701744 0.0
4.559765382564095 7.87091698350757 0.0
8.3829075948167 0.9495097054886067 0.0
9.8571301061408 1.456307792614791 0.0
2.005900212453279 4.535525273813588 0.0
1.85904408608185 3.956445706785572 0.0
1.979307922430775 5.474327285927505 0.0
4.387923194305381 4.427191306527721 0.0
9.429258370703248 8.873693567695483 0.0
8.99196583083892 4.664567567015693 0.0
3.050357122593155 5.368999067452741 0.0
2.861107385476722 5.785089447130829 0.0
5.005058958272409 3.711196438448062 0.0
9.8972295764837 2.755337284632969 0.0
9.581048890980513 8.853909321617065 0.0
9.668838904423916 1.762418716497425 0.0
9.716576458425756 1.852218615166234 0.0
9.799043132681442 1.780583141193779 0.0
7.661868217848455 2.880323287492419 0.0
6.780136552904057 5.443858690999834 0.0
6.489544866845868 5.913957888434588 0.0
6.880149522020364 4.134257616716107 0.0
6.970134365280068 4.264072319341612 0.0
2.225481516813409 9.348422240784 0.0
1.843418032490818 8.641605249943353 0.0
2.198000805242772 0.6459947140825729 0.0
8.740020306282506 0.1903932731609072 0.0
6.86957996016679 4.720776242956433 0.0
7.430920333506809 0.2702852342693345 0.0
7.302066064947383 0.6134316505458445 0.0
9.305398039877746 4.64854361125207 0.0
4.078151380865065 5.203425462519088 0.0
4.080704120371218 4.778853303303787 0.0
8.052525541571825 5.965483159581719 0.0
6.367194027835946 4.754896037842673 0.0
8.604191121620719 7.648182513679963 0.0
9.546446695207845 9.234701521982952 0.0
9.018652854946867 3.351011585453845 0.0
9.143853648154607 3.350173119015413 0.0
9.067079866763024 3.245174561579149 0.0
8.991492136849105 3.135578770028028 0.0
9.29603967712795 0.1426516429033488 0.0
9.392428271030795 0.2506306237151588 0.0
9.223973843394301 0.2912279164401488 0.0
8.39375191941536 3.018777714002827 0.0
8.4836475746111 2.88135207267795 0.0
8.741089053946197 9.821127577434911 0.0
9.803966507713174 5.448064463539533 0.0
9.748132240148552 5.359371181503531 0.0
9.850258990973547 5.355211921626304 0.0
9.7965346514158 5.266762244994661 0.0
9.84142096963129 5.171050273734619 0.0
9.738843612428232 5.167483913244169 0.0
9.64168976006725 5.359875132194057 0.0
3.335917453809221 5.671837672982919 0.0
6.962669142802881 1.683222554707996 0.0
7.365210844496719 1.887492842536114 0.0
7.517378971174123 1.677983072937792 0.0
8.00383870208024 6.089394601875145 0.0
1.725435941000569 2.759295503019395 0.0
7.907977929549089 5.102827208603365 0.0
8.052861051278896 0.2683271125209605 0.0
9.80169732768395 3.385443381464333 0.0
9.831597648680848 3.28491948963525 0.0
9.736335895866404 3.316207814499244 0.0
9.597256128490281 3.756160701977744 0.0
8.865819925321706 3.366235906378775 0.0
8.489614436807788 1.757152185195495 0.0
8.88089641144391 1.078983279100314 0.0
7.430923851187758 9.724389499796425 0.0
7.584252919312249 9.509430586267927 0.0
9.744026095940516 2.247117754488748 0.0
9.729961521243718 2.659836747108116 0.0
9.790866569780063 2.558993767350471 0.0
9.736606445116795 2.455104424879619 0.0
9.846806182714698 2.452157456754448 0.0
4.518102112052724 5.141350889745285 0.0
4.519880229178207 4.85678334497067 0.0
9.7302407894617 6.434012603549242 0.0
9.787537474544765 6.523591663056312 0.0
9.744262337067932 6.617499601377625 0.0
9.8406238811518 6.41591236129004 0.0
8.914967252734657 3.579360039684312 0.0
9.154797282599406 5.670753066089419 0.0
4.228839454580575 4.612979739018002 0.0
6.095037541675208 4.42126627187728 0.0
9.304166983880842 9.864854494751789 0.0
9.406445527105628 9.759007358529582 0.0
9.256225114941945 9.700832989525724 0.0
9.796206564635622 2.351215649506205 0.0
9.849373673349081 2.25090453834006 0.0
6.332048155295931 3.511675163099286 0.0
9.069679774213784 3.022879178706259 0.0
9.070599961450037 9.055284879641471 0.0
1.808685691036764 6.331557276533421 0.0
7.120156826652838 4.698481230214924 0.0
7.052894345811342 4.799848851879358 0.0
4.739957520484086 5.369107149361242 0.0
9.389197839958292 7.197139943834638 0.0
9.046688232613976 4.560364044038737 0.0
9.162685461967492 4.562194096410666 0.0
4.227377821420887 1.564128177298305 0.0
9.201090975245227 2.794301402811909 0.0
9.251941624303948 2.677556975242327 0.0
9.186758273070138 2.563916005021366 0.0
9.317609833868786 2.560335260954038 0.0
6.57599191748324 2.437689779955877 0.0
6.305556560534859 2.459112595979303 0.0
6.981058048792093 2.642476994448363 0.0
9.886113463139504 6.510498309609482 0.0
9.250462794607717 6.221362629571698 0.0
9.305373999084068 6.108271307139882 0.0
9.390477915810829 6.228015172491477 0.0
9.44452571968143 6.114582165110393 0.0
9.502105740270528 6.197677857389309 0.0
9.31559697209813 6.331647407124485 0.0
9.370938253597153 6.437386206819511 0.0
9.594764406124872 0.1099001288712305 0.0
9.602872681151728 9.894988341116305 0.0
9.622661196143387 8.076680696281343 0.0
9.769069277144705 5.9102532189237 0.0
2.615076109785583 8.807551523115547 0.0
9.658920005405456 5.730890135691177 0.0
9.76063135061807 5.720703211793342 0.0
8.63963723169499 7.177334225227945 0.0
7.841904391869763 6.41346852896409 0.0
7.764520718520185 6.297267738834625 0.0
9.546492996136271 3.465225175657335 0.0
9.25600964352143 2.219157062786616 0.0
7.625057159226293 7.012987957636062 0.0
9.529121062829038 7.730283486008674 0.0
8.329887090625894 3.845190321147069 0.0
8.265841850823831 3.95687001944245 0.0
8.402006523775544 3.947660780406651 0.0
8.128436391670505 3.968543393650448 0.0
8.46705122470662 3.835767362024195 0.0
8.218867047074696 4.063481375518748 0.0
8.089763413611255 4.08062363292928 0.0
7.939578083855268 4.111915744184436 0.0
3.74991304509639 6.615676756107112 0.0
2.627714335615619 1.170993030860914 0.0
7.046129971268607 6.759930788612616 0.0
8.534603732661887 7.486325780553722 0.0
1.569381386467569 2.042794535871475 0.0
6.228703743210918 1.986421863690014 0.0
6.467030855792859 2.67190498312861 0.0
9.272246093269825 1.975478263632296 0.0
8.05269609263041 3.854522845257449 0.0
8.008595521536957 3.177870309354594 0.0
7.929796740504207 3.350600835935766 0.0
8.048703574664067 3.449582532910417 0.0
9.72947480375618 4.973926800124758 0.0
9.784850360535604 5.072865219810449 0.0
9.896036387646596 5.069261557893528 0.0
9.633140953203334 5.168645132864771 0.0
9.558102991128836 7.602453108835212 0.0
7.278758746505716 3.994295887299482 0.0
8.306681733482405 6.936428510427854 0.0
9.487163072013963 3.757777670075558 0.0
9.532950522284125 5.359403698944497 0.0
9.816036650072329 3.927268437107025 0.0
6.173882586235392 8.734645960664665 0.0
7.972518459433741 5.003005338485466 0.0
8.398453459336153 1.601072016988848 0.0
8.97460527296194 4.040886705742754 0.0
9.037941657530773 4.143578781749325 0.0
8.849604200183613 3.828506169652706 0.0
9.545296177100065 4.042698359132156 0.0
8.595941796785514 5.806754902023664 0.0
8.65588412428292 5.694192853853139 0.0
8.723710665131787 5.801528918332044 0.0
6.861288985046249 6.673713222735126 0.0
8.87477249219366 4.664500928777609 0.0
8.72385765226959 3.608276264790996 0.0
7.145228858696953 5.573648565429618 0.0
7.282945121585866 5.558559688509987 0.0
9.224761401603633 1.602363370249125 0.0
9.609115686587552 2.986868833620756 0.0
9.633989947851914 6.628120633848649 0.0
6.046214325132457 5.45615093027661 0.0
9.017014346798927 5.271996636983457 0.0
9.070824864071271 5.168510834798647 0.0
9.189021391555556 5.166867900487267 0.0
9.123328759137758 5.064718588163964 0.0
9.240587446378079 5.06459430516883 0.0
9.250848280531756 5.267364371053135 0.0
5.773050603406019 5.7192906317521 0.0
8.576466432793914 4.3559007860436 0.0
8.634627802680399 4.253467736542067 0.0
8.461790117175607 5.591735227444779 0.0
8.907610717370224 3.713397213891439 0.0
9.80665594564509 5.628066492225966 0.0
8.985935132601089 4.455263493464225 0.0
9.00640209566022 5.067597672073404 0.0
9.833659276096986 6.976519563917422 0.0
8.0283368553477 4.687271895436317 0.0
8.326580191759327 9.127498457128247 0.0
8.650637373791266 5.07513089931925 0.0
8.701067313435203 2.700069743477523 0.0
4.825307249916392 4.884175191874744 0.0
9.418335984190309 6.858444798015129 0.0
3.91434687300816 8.542956908935874 0.0
5.569239724399552 2.064135034637056 0.0
5.234271567762738 2.128974435011933 0.0
5.757920427527626 2.312422707096966 0.0
5.43365689737979 2.427455772745759 0.0
5.673210219624612 2.602111218343444 0.0
7.214258468265766 6.652783071431555 0.0
9.823626269633962 4.30685540664529 0.0
7.96996639420014 4.794005510174826 0.0
7.616003332725032 0.502676560965646 0.0
3.050634530589821 4.659174799474146 0.0
2.870894249800723 4.246924313393336 0.0
5.285393339952368 6.079037173753393 0.0
9.439954241218905 4.23581687956071 0.0
9.67709722097145 4.710772408106511 0.0
7.40767785509217 4.259947873553335 0.0
8.396202587439676 5.486075637998701 0.0
8.323689688705493 5.372061002264632 0.0
8.191312386254125 5.384662546230823 0.0
5.304380054816289 5.369675374029755 0.0
9.093848379546637 4.047647920840374 0.0
7.916313220758624 3.045043876114836 0.0
8.435854831444637 4.144861908356168 0.0
9.060262453079693 0.7340576053322918 0.0
7.053195520344596 5.238809779682351 0.0
9.621762679347093 2.45205452967588 0.0
8.410730269104743 5.287995309529392 0.0
9.655094569234972 3.472720279371932 0.0
7.982140513923982 6.667914768024983 0.0
8.402690325256646 4.883576657130221 0.0
9.17488654147479 4.962006474835693 0.0
9.013188196102961 8.49700148123058 0.0
9.795977244531603 2.156818021002043 0.0
9.893813711206834 9.545820400859157 0.0
7.965349232662289 4.250048884270795 0.0
8.644264557989125 4.874751532150782 0.0
8.215430976121077 1.26077208565765 0.0
8.379717637669398 8.37324652769609 0.0
9.320026533461409 5.559861899725609 0.0
7.885778178744864 0.4977439426642278 0.0
7.547066983926719 5.125166613071239 0.0
7.657542898944819 5.122996245335209 0.0
7.423918840193691 9.000935553397358 0.0
9.854133000712425 5.541931969512857 0.0
9.328508174398952 2.101486405523264 0.0
9.300749600926641 9.530012105354274 0.0
8.130307182491519 5.277079344947874 0.0
8.346752967392757 4.987627363826086 0.0
9.118404185029991 6.007087846617186 0.0
9.048232213728614 5.89431792713258 0.0
9.088340967655858 5.576242562571367 0.0
8.094762487139027 4.789727191449318 0.0
9.915265904493378 5.749591413470928 0.0
9.92169805280126 6.154216704502091 0.0
9.918022441582268 4.549125436287157 0.0
9.919332362905616 4.849536560132457 0.0
9.914800786693318 6.750595509794719 0.0
9.811792900437824 6.703950687575952 0.0
9.900643083988882 3.749855087409844 0.0
9.912423171222734 3.043228996968949 0.0
9.91892875832665 5.949999999993851 0.0
9.913300070218703 3.960831593817277 0.0
7.709347001661226 4.444236534782706 0.0
7.479443107717332 8.071637285053104 0.0
8.839057072155848 6.807845119358974 0.0
8.972330068019902 6.78765448182788 0.0
8.542093772125282 3.941452413628317 0.0
8.279144752968262 5.930387616620717 0.0
9.393455876855919 4.973162505621418 0.0
9.507123333872533 2.855087674515822 0.0
8.77504684283825 2.317347145885344 0.0
8.394133129040345 4.464046960801843 0.0
5.725509852450801 8.210843960481027 0.0
5.62632390239664 3.967637659758752 0.0
7.910815814627989 4.900765971697654 0.0
8.595808444085467 5.590040244353608 0.0
9.705160502006024 0.8106158419444889 0.0
9.82021247904746 0.808810893177099 0.0
9.218352146075844 4.447736986422823 0.0
9.20781892622228 3.858281726888132 0.0
8.713609974387523 5.178241668554946 0.0
3.55755059259364 8.921522400238844 0.0
9.59122926011489 5.452844834281716 0.0
9.70565100407009 9.77887811062354 0.0
9.826938454219809 9.74303055702321 0.0
7.238962096855633 3.278078153406256 0.0
8.575609105166194 4.567807831727537 0.0
8.936449841121737 4.765835458965493 0.0
5.59323463391086 9.248527978398117 0.0
5.280809113285124 4.886132326418428 0.0
9.328132730893216 6.544753806716806 0.0
9.026944889277736 6.67247283515637 0.0
9.81946239021469 3.007926663525007 0.0
8.677633568960493 6.144049349297466 0.0
8.33427489656924 4.571212803519522 0.0
8.55734024448315 6.382535186588269 0.0
8.692399379422756 6.372347713955898 0.0
8.495817478252626 6.503308565233578 0.0
9.905494734661673 2.544078755559835 0.0
6.177101405266569 7.228490244483556 0.0
9.825373011845263 5.807482724503027 0.0
9.808678508609606 8.118683092442964 0.0
8.397717712407108 7.08010313863416 0.0
7.428555529689225 4.935946611338556 0.0
9.575504958128711 6.125633853639113 0.0
9.154066996197898 4.146562596982661 0.0
8.074381802159323 4.337569667261167 0.0
7.018337246891919 8.843475095716133 0.0
7.970627172560641 2.658650028065857 0.0
7.382546388883145 6.723381543491632 0.0
6.822972334933889 4.884555620881615 0.0
8.343732976791593 6.041576709398377 0.0
7.743680217306919 8.423336160305476 0.0
8.505717922983454 1.115022897794028 0.0
9.113973198216474 6.992972408167606 0.0
5.818882632841168 5.300437503812764 0.0
5.951991891717714 5.279516346785062 0.0
9.450183479138845 5.92934813870612 0.0
8.783346541536119 5.48419035750989 0.0
9.38074895894124 5.65076274999803 0.0
9.513658728876734 7.193620441323493 0.0
6.396040948797887 6.776064256962667 0.0
5.389661780244388 4.89715084345563 0.0
4.473247649068957 5.85935163892416 0.0
9.249586607512612 8.37680799459232 0.0
9.103796366487646 8.379197231055114 0.0
6.274057301184156 4.87985402946409 0.0
9.259628836118232 3.561431822636308 0.0
4.037922477011971 5.489409780163391 0.0
5.62712958624254 4.893925433488392 0.0
8.806426003347967 6.133410188141932 0.0
9.53304466499349 9.59279975429444 0.0
9.542890959420024 1.966631379116419 0.0
7.459736176874619 5.863847835420528 0.0
5.937613117200432 4.89232797168023 0.0
6.171611131472617 4.879541833448487 0.0
6.100695199816815 2.291172318314745 0.0
2.315194906726768 8.081958163666464 0.0
6.878489987598286 5.148099521847569 0.0
9.105264414399338 8.639184652727645 0.0
9.20047261316883 3.457820810661327 0.0
9.895329010385955 7.55944047105717 0.0
9.912742873006831 7.76210330502246 0.0
9.37761459375249 3.168397068877758 0.0
8.946121261512507 6.345629828835438 0.0
9.918632496443566 4.449809517365367 0.0
6.848211525651934 5.945010613369067 0.0
9.915721525903255 2.047407395915179 0.0
6.117255841708726 5.163321965161054 0.0
7.276595248786602 5.347247322210079 0.0
6.32682869954104 5.23674259421017 0.0
8.785886448438022 5.692775375342819 0.0
9.099994401883361 6.776698531382792 0.0
9.913397459621638 0.2499999999998165 0.0
9.910352525643928 0.4481571029410266 0.0
9.907850422008579 0.5479735220323012 0.0
9.911983631350465 9.24778487019403 0.0
9.917634740384067 0.7514684821956668 0.0
9.195214232985496 3.254172408378337 0.0
5.000896927376288 1.846006038077654 0.0
9.917172478547403 8.250155740683276 0.0
9.908120476950126 1.742986232208194 0.0
9.914524635720774 1.949567899316728 0.0
9.907358878377153 9.145625165175748 0.0
9.917695944922635 8.949999999998397 0.0
7.648387553139914 5.325741673607362 0.0
9.605343588986079 4.130627398479715 0.0
6.648113233057817 6.774798386229164 0.0
9.910347203087213 8.446729917003672 0.0
9.913623694530468 8.548470085896316 0.0
9.9201245863254 1.536225488581779 0.0
9.906538426683255 1.059019360781604 0.0
9.912867352010919 8.74999999999809 0.0
9.799662981388353 8.79550485462418 0.0
9.831828680383174 5.99966894118311 0.0
9.91414179906643 1.263025320602998 0.0
9.920690092699912 7.240982963665807 0.0
9.385889285950551 2.235126904097426 0.0
9.28133998925606 8.00415195851526 0.0
9.817074723108401 3.172398890123306 0.0
9.482030285089927 7.512954023388035 0.0
6.682432918504054 7.233889573028878 0.0
8.528699633246763 3.260502457553277 0.0
8.91699963742029 2.327016692708648 0.0
9.267676068834481 3.954520684561369 0.0
8.70811637467455 4.974101624783084 0.0
8.18184214270768 7.816666208279135 0.0
9.690393137288163 5.264344933127836 0.0
6.937111790104696 5.245184991960528 0.0
5.895846026722989 5.174232967273284 0.0
8.281683356622615 6.400073017261236 0.0
9.150883172924027 7.444273543454419 0.0
5.430406600793122 3.390815886517273 0.0
5.049583827974758 5.697634876048387 0.0
8.3966710383105 3.495813899905868 0.0
9.007538428392454 8.046563579784266 0.0
4.645155158868719 2.637132843684674 0.0
4.887444326771336 2.30020425915506 0.0
6.483736782775559 4.522536327482678 0.0
7.843169154548308 8.2116075844056 0.0
5.06295551628385 4.901632590583318 0.0
7.201400991012747 5.138239336380897 0.0
8.519791031104612 8.848807089071627 0.0
8.658623737989732 3.031313729049854 0.0
7.585566208322493 3.629882964874684 0.0
8.411818469596405 6.834326722716643 0.0
9.172363528634236 7.669230647622864 0.0
8.85455683341768 2.682483055215344 0.0
9.359398739738925 1.631421337140716 0.0
9.071793864444992 7.337030604117359 0.0
6.968394563521436 3.712808894519514 0.0
7.899236117684646 7.094583340182754 0.0
9.54362864504834 9.781852543872333 0.0
7.151298729743687 7.644795130415299 0.0
5.452218361466201 5.186873761308322 0.0
5.517642289161902 5.293540933999446 0.0
7.802500357665464 5.978295671754199 0.0
6.594850839687122 8.491429270558893 0.0
6.029132431949566 8.294997405201931 0.0
9.31286590869111 0.5672913838331921 0.0
9.25238720319541 0.4415953739444106 0.0
9.550589523211062 4.228044955453704 0.0
8.748611832783206 6.250900951984038 0.0
7.566980108995873 3.995148257893202 0.0
7.426142759241261 3.996743578498081 0.0
6.478912513785404 4.000296412419969 0.0
9.30435638148753 5.168210982711592 0.0
7.542154188520517 5.752525075248498 0.0
7.219033852073297 2.139582470800704 0.0
7.370913620388047 6.545121498197235 0.0
5.226731036024996 5.187572666585561 0.0
8.515591031124366 4.462223215179979 0.0
6.762864307079274 0.3078036604979366 0.0
8.587432696997471 4.977010533175154 0.0
8.703948448756302 8.815629076400704 0.0
8.081003990931544 7.370949680119862 0.0
7.424404567669909 6.949730915714445 0.0
8.578903262311433 8.377992954045473 0.0
7.301258690263783 6.106184350645308 0.0
5.991600556904204 3.99820087171043 0.0
8.203048538477193 1.601044215405025 0.0
7.289972483120081 4.572350254111052 0.0
7.714697186439165 5.420586967696794 0.0
8.918853780709807 1.841796898567452 0.0
9.919941345877513 4.749808449067644 0.0
7.245589454939737 5.94251251443003 0.0
9.258480524497795 3.358952871140391 0.0
3.705877615124628 5.574038727593425 0.0
8.287096858129765 7.962370605242409 0.0
6.799629860952143 3.705385600481528 0.0
4.146753450763018 6.544154457143895 0.0
7.413973555029582 5.545687501585183 0.0
8.466524978378082 4.980481756569235 0.0
7.336312153537934 2.337983522449311 0.0
7.695505222753409 3.747498713679684 0.0
4.898236813123799 4.795853653580084 0.0
4.59779105899602 1.896916774247134 0.0
8.560170375862322 7.072369101894893 0.0
8.386150468360862 2.449771437140704 0.0
8.41200018115259 5.084601315536367 0.0
5.102189912301071 7.621598618277815 0.0
8.336320418935243 6.71651223072348 0.0
5.081745734883095 3.977838926197614 0.0
7.63590698378166 0.9500570055008507 0.0
7.743369677149255 3.051233984704873 0.0
5.357527459690566 0.3809996753407537 0.0
5.967373112873382 0.7731113464301924 0.0
8.169449265206127 6.666271947462212 0.0
5.95122726745053 5.55758205410881 0.0
9.922289489207834 3.53923011719877 0.0
9.39154684476555 2.659037023454942 0.0
7.701415639167884 7.690060291860976 0.0
9.819179654793023 1.329863870021845 0.0
8.358229579054417 6.506108206863729 0.0
9.269720555169467 5.657096143475924 0.0
4.473187658045934 7.435037860084884 0.0
9.65807158077373 3.255496360750368 0.0
9.605155446454205 8.713645566904637 0.0
7.097383547728313 5.141197376985936 0.0
9.812212483832656 1.89920712759492 0.0
9.83875570675407 6.81603549325055 0.0
8.926246869879279 2.079976511571457 0.0
9.166785856141402 9.169070814302419 0.0
8.763479010228052 1.587152667342957 0.0
5.957377924852992 6.404530806530254 0.0
7.14506854375872 6.10342416684208 0.0
5.672595070581394 5.164323323112049 0.0
4.899782787268781 0.3801727265981219 0.0
4.447133848117348 4.673614099606824 0.0
7.044865074789195 3.253639989243549 0.0
9.818461337102992 7.819456450952447 0.0
9.925334577033155 7.954012377173311 0.0
6.352907898232792 1.173665225954276 0.0
7.351721385581032 5.660361289755705 0.0
9.337367583861807 2.76534436379692 0.0
8.693118347802024 4.360254099729149 0.0
9.476812970101324 0.3524826622168163 0.0
7.109868985890334 0.9024224571333925 0.0
7.899106846231403 5.511805431542581 0.0
8.352799544476607 5.187887629361129 0.0
6.957483547582747 0.6176251309213842 0.0
8.099559500483094 1.412323841044818 0.0
9.913030944540278 0.8542404645334569 0.0
9.143075088381442 8.022165366829135 0.0
8.819861450593166 6.356592599428041 0.0
9.319444417409162 1.49938505915629 0.0
6.490262520326714 7.118204362551877 0.0
6.490874470087819 6.582907761235813 0.0
9.82506653058937 0.6146757679104559 0.0
6.803129818897624 4.419048038171804 0.0
9.840901379354312 0.08198751964190581 0.0
9.839740374244226 9.918356239418472 0.0
8.551927134544655 9.449788917425456 0.0
9.92097857388158 3.249999999993177 0.0
5.797087413057367 7.077351493358238 0.0
9.255412859987286 6.433984412022419 0.0
8.668174522249984 1.740767926084485 0.0
9.920991430240607 6.25262219124529 0.0
7.57275248448898 1.94367954756322 0.0
8.052865444445507 8.19900054463639 0.0
8.748697149245206 4.25201068974208 0.0
9.158270227735827 0.5542256343091421 0.0
5.997487767477439 4.787924707603557 0.0
6.119759900601896 4.78043793682227 0.0
4.353034750397793 8.619182743639561 0.0
8.721093521611476 5.588932824583312 0.0
5.717101151444983 1.123034066822819 0.0
9.825602081347064 8.68753399402474 0.0
8.005502510832988 8.7824052910506 0.0
5.548184234622668 6.408009287230429 0.0
5.77830300433981 6.598697187164234 0.0
9.613093825495433 4.50282172481406 0.0
9.928981132641653 9.74928475696928 0.0
6.613628176297015 4.515513362596662 0.0
1.822126723816303 1.297795131355289 0.0
9.514164594137375 1.43081427463862 0.0
4.735494753432723 3.698541604583975 0.0
9.52844959749262 8.615213629960298 0.0
4.660704511759056 0.7947595073298008 0.0
6.82340845160293 5.239926830264399 0.0
7.885938077030673 7.380147032865134 0.0
7.884599891021201 6.09005968568029 0.0
8.846834820720167 9.653276456345532 0.0
8.457777199486827 0.3851010632068662 0.0
6.66485224572131 8.771510767670392 0.0
9.091499342133352 9.708315832477556 0.0
9.824286725109655 4.976315293637262 0.0
7.848197684391786 5.632217046637356 0.0
3.88430598115417 4.225391362015386 0.0
8.776890759183289 2.809688928468134 0.0
7.393884285023409 3.59397875231041 0.0
6.927568893329758 4.396788356869783 0.0
4.96854327720728 2.662368428358774 0.0
9.1480130720193 3.951479613991279 0.0
7.071049729490975 2.38092990636632 0.0
3.40193058782919 1.686321186206593 0.0
7.612042194200681 4.815904436723407 0.0
9.043395868401339 6.888481825015849 0.0
9.098933057562759 8.152197681006806 0.0
6.058682303253315 3.857501492181965 0.0
3.707092669281355 2.986685502034343 0.0
5.113272509841263 5.189455016444592 0.0
6.960565857079232 3.416349532571279 0.0
8.755151527375476 7.649255597361291 0.0
3.393680865444538 3.679982303262531 0.0
3.117424600120088 3.35605258976247 0.0
8.530814041264104 5.488376426140491 0.0
4.820719767306654 5.106646490188182 0.0
9.918899263509473 4.144927088739744 0.0
9.918194630017027 7.447268230913605 0.0
8.461970084137805 3.144844565847669 0.0
9.924415919486059 6.949999999995354 0.0
7.184050152099684 2.72771667662237 0.0
8.834356715215904 7.801565642745232 0.0
8.689015446783005 4.145232831954543 0.0
8.490778532265319 8.234414357968106 0.0
8.63666290918932 2.83060276219705 0.0
4.61028976098935 4.741894230894578 0.0
6.314735925012879 4.003132559161639 0.0
9.20786580425652 4.67001723737971 0.0
7.141401229301469 4.873205425098625 0.0
6.235177809922153 4.774126344778935 0.0
9.12491895896937 3.145675090615719 0.0
9.255747684068178 3.162525801823036 0.0
8.312852272796098 2.290855459722148 0.0
1.449266720542303 3.363629101350872 0.0
9.525687840398492 4.800807314407045 0.0
4.829905263804087 8.14474456977717 0.0
9.09338914689732 7.563794106183232 0.0
5.389401689694107 5.283808684471545 0.0
8.530979415204587 3.029374286908943 0.0
7.901489077080633 6.535344047486632 0.0
9.218572924671975 5.760893551533255 0.0
8.562382833959296 4.143913974026883 0.0
8.62959127904665 8.974877485888243 0.0
9.408442441596518 9.62276529745719 0.0
7.5034765601713 3.869833107932387 0.0
9.842813436634783 6.600620949014236 0.0
9.826116984327193 8.911617279149695 0.0
7.529907780698261 0.7369111006685982 0.0
7.832164962480427 2.905293639437395 0.0
8.39517908433056 3.267417602291069 0.0
9.823014010107707 9.085319632577246 0.0
9.022314123618541 3.944559746338292 0.0
4.243701230676532 5.332574856090426 0.0
9.816740542566388 1.127839952679595 0.0
8.166775715766304 5.693916696568397 0.0
8.865374421689054 8.068986769641638 0.0
8.761145809863661 6.470583506581853 0.0
8.998345275919851 9.209303502026401 0.0
9.698477487436316 6.706902829754045 0.0
6.439032098063426 0.3109134377713525 0.0
7.562681994382136 4.643158005207056 0.0
9.03999088074715 0.2799354672273258 0.0
5.180741540467516 3.805018725608906 0.0
6.243990330956698 2.718077286244967 0.0
9.79416634023361 0.1815240178579244 0.0
9.926540005061975 2.847049370876555 0.0
9.826476210374608 2.670192168078066 0.0
6.365816673179121 4.536333049275508 0.0
5.546353765219417 4.618331215552614 0.0
9.820703096450293 2.000649418331399 0.0
6.884388790679166 3.561583980715254 0.0
7.431303395649604 5.747824222777201 0.0
8.849816832721245 2.19318290395604 0.0
4.185147517585975 5.697469360586313 0.0
9.165905238119013 5.873664931582344 0.0
7.70479478158537 1.788324620089049 0.0
9.627376046933474 0.9196091445437269 0.0
6.657687963328663 5.144792385996769 0.0
9.83245016645186 0.3925568446109945 0.0
7.483092985762584 9.253837199159435 0.0
5.445348362202234 3.977855663863651 0.0
7.476680532833337 4.837183287808616 0.0
9.572749890969304 8.505160319814301 0.0
9.915853314998252 9.437014513917465 0.0
7.679469018350979 7.390484878021194 0.0
9.418139053434402 4.790576000488359 0.0
8.096967733471567 5.865447162201908 0.0
9.829153508938724 8.378494945652118 0.0
9.926595955569645 5.157718300415699 0.0
8.774484245600224 7.939747459426853 0.0
8.629764448155779 6.481031318922794 0.0
8.961169458302376 3.839036702328818 0.0
4.617199205561317 5.256318959792646 0.0
8.480815774219478 4.031210317621497 0.0
9.708341592512763 3.401018043990571 0.0
7.183974816647467 4.77882314543966 0.0
9.821437962294304 7.659391965474772 0.0
8.150320284869602 2.286501016204562 0.0
9.828114434347311 1.684891358832554 0.0
5.349187766238684 6.538177907133678 0.0
8.076053471314525 2.76180604769483 0.0
4.907713691134565 5.29818629967416 0.0
0.6874399366049438 4.328593906714074 0.0
0.6980011780697519 5.702671170050627 0.0
8.263861466707834 8.182284285231713 0.0
5.838783785156478 4.913981390426639 0.0
7.807619472656604 7.235706382002089 0.0
9.388504256318683 6.022122644748753 0.0
9.929839894767033 6.436189192303577 0.0
8.3205848711706 3.39107920408397 0.0
3.240770542267401 4.019899919523968 0.0
8.059047070496568 2.468855909103855 0.0
9.932479519490421 2.449625056415224 0.0
7.737639000139152 4.580708137963557 0.0
8.26141077223695 0.3940397126348397 0.0
9.69568953371801 1.959951226402445 0.0
6.469120930453264 4.892267070266994 0.0
9.167223997255698 0.8102256463122337 0.0
6.236889648241256 0.9291076084031108 0.0
8.306379082772498 5.268830342852036 0.0
6.716089118890225 5.239344620507032 0.0
9.82511981852641 9.282822358664017 0.0
6.68375719572285 4.404998642130821 0.0
8.913754712375674 6.908138360584365 0.0
6.173250048857013 5.251634416326969 0.0
4.235907497612446 1.924052997345291 0.0
5.151007663981651 2.438629730660893 0.0
8.924254300637541 9.3764975797567 0.0
4.438612423541503 5.287968640901957 0.0
8.571203234299599 1.897009944569934 0.0
6.878800676380218 5.821332862798138 0.0
5.710626178601224 4.792560699857408 0.0
7.149510071621283 5.216310009157644 0.0
2.099966541549645 2.334742113488256 0.0
9.93396330620579 5.350566393301629 0.0
7.143046479323961 8.646955109387985 0.0
7.965747313080266 5.193641450105844 0.0
6.3314394693073 5.135050228240639 0.0
7.665821333021348 6.222698255001823 0.0
6.305321657053551 4.659816230868476 0.0
7.833020917089713 5.208837056143474 0.0
9.41455902676429 2.869725681199307 0.0
8.567151507735133 6.598605357295113 0.0
7.405527786978573 4.377085529441429 0.0
6.552969697053132 5.137148974085434 0.0
9.93630620742063 8.042778076596578 0.0
7.166743296019233 4.593171678848165 0.0
6.595561806063966 5.839366735225723 0.0
6.066152182102007 5.262519562574559 0.0
9.834694151277489 0.9093455747994099 0.0
8.98259191950674 7.579732466796592 0.0
6.465071238839505 5.25485771955322 0.0
9.759759896588413 3.236659507608532 0.0
4.775529448101694 5.224235675150505 0.0
9.935991245222917 7.153416415978829 0.0
0.6530736820718381 9.352299998916202 0.0
0.6449439415299687 0.6468300344151556 0.0
7.804690364869245 4.495816547678174 0.0
9.84503784553893 5.70620404704573 0.0
9.83525329400959 3.826992990746767 0.0
9.922964894244684 4.265000406933376 0.0
8.333767638401964 1.121219971446645 0.0
8.876012546033895 7.019147158538482 0.0
8.172413577824324 3.413096916572049 0.0
7.232233017296214 4.478957103028363 0.0
6.214597295185415 3.852860083673202 0.0
9.85013791746415 4.400709747289421 0.0
3.941627380932058 6.342995010255737 0.0
3.097271569675528 8.77391871286929 0.0
9.292917152323044 6.010976049411984 0.0
8.104342196673183 5.184165973282902 0.0
8.994300084006271 3.652611812846807 0.0
9.937157897030163 5.549999999993244 0.0
8.721368888525245 7.274540720770752 0.0
8.920003648712827 0.9516585309368178 0.0
7.910527456030004 8.536826514867816 0.0
9.846441288756814 4.60515911863952 0.0
9.584942233925151 4.712073182517884 0.0
9.642357858573972 6.805672051759494 0.0
9.797024725252207 9.838837222258014 0.0
9.842451438022124 4.018973836958878 0.0
6.112723137676118 3.704473949316424 0.0
7.574641969193845 3.765362276156904 0.0
7.826594968121701 6.200366572362263 0.0
7.762805366733504 9.34009502796868 0.0
9.56854033867856 1.012566255816665 0.0
7.71256563655353 5.219373702836014 0.0
9.68039392238282 8.786964504862018 0.0
5.910362452777086 9.277662068919813 0.0
7.418090653922814 3.326443419100716 0.0
9.857704179097952 4.697553149694669 0.0
8.452469674653342 8.996585816905599 0.0
9.522351366699843 2.057525484575908 0.0
7.802315574700843 9.548878971475935 0.0
9.938875656926385 3.449999999992592 0.0
8.425189037911712 6.608575180629274 0.0
5.925965231566842 2.523669697740033 0.0
6.654918072256329 5.95749128982984 0.0
9.826748589235729 9.631118448471485 0.0
8.6684585637523 7.39633999085442 0.0
9.844673843931567 3.090088625379724 0.0
9.93613850661301 2.250382721159617 0.0
9.218291993658738 2.892108990205171 0.0
9.83502846611296 8.212781989607324 0.0
7.754136409732265 7.104288507262783 0.0
8.510570542791681 2.036933285735889 0.0
7.757745059307245 4.315798612475442 0.0
7.989231770559189 6.201656630465583 0.0
8.068934521422738 4.198631572122605 0.0
4.957478134450373 9.038766150325067 0.0
7.208661142641733 6.501402463831379 0.0
7.299506095906239 4.363561999234681 0.0
8.250303873550486 2.105322217421675 0.0
8.678637541413377 7.053471135702286 0.0
9.761528395137384 6.163503990672834 0.0
9.84494857233395 8.59999999999775 0.0
9.83825138794677 3.672838954969637 0.0
5.121008544047756 5.808127183024784 0.0
8.343911550360986 4.043535893276861 0.0
9.85324441775315 5.899999999993774 0.0
9.51114465213134 8.41035540646284 0.0
6.505812179224195 6.93390566262983 0.0
6.15572847138365 9.023097246950844 0.0
3.352081892333425 3.024853379890529 0.0
6.433163283162099 8.675072413910678 0.0
8.825744236698243 3.624446391299867 0.0
4.883007294861279 7.819620905924936 0.0
5.876659170760434 5.638247433601083 0.0
6.859400040348503 6.510797998354633 0.0
7.946400945409184 3.500317276373196 0.0
7.496830255505493 6.653194511698024 0.0
9.852183479755313 4.891525833556942 0.0
9.77998778436291 2.922486526124376 0.0
6.774672660492365 5.324728659740495 0.0
5.717254072187427 6.824125962512845 0.0
9.713440940838062 4.63793103997539 0.0
8.859858662536796 0.2721395536350836 0.0
8.37556017530946 9.436653414116012 0.0
7.395237381047616 7.885576562773319 0.0
5.4709157802033 4.511152089197594 0.0
9.489749416979361 9.691840729914848 0.0
4.599216022837964 3.46438688931078 0.0
5.572287492757569 4.807021644849729 0.0
9.926499336309957 9.92730688390086 0.0
9.926499336310107 0.07269311609890093 0.0
9.338127766332573 0.3585313952168247 0.0
6.810761948165162 3.414693294319008 0.0
8.166274345037138 5.943611545564389 0.0
5.2892644736731 6.301081312912763 0.0
9.731911074791544 7.649313380659622 0.0
8.90251102352767 9.50983415326544 0.0
8.997881406541017 1.033666784655452 0.0
5.835124768755703 2.738139962594905 0.0
9.665357480775825 6.185331297099201 0.0
7.656532192558493 8.217157287499347 0.0
9.170463887605525 2.975444721032631 0.0
4.208158615905443 0.8648302238584886 0.0
6.97015686031129 5.933674629077266 0.0
6.181941366523793 3.565885175921835 0.0
3.30313590337911 6.393402837735046 0.0
6.447482061767014 4.816169316820496 0.0
8.185341428749446 4.169172087371246 0.0
4.552595724340015 8.298301336212145 0.0
9.84850676569699 8.999999999998423 0.0
9.846941514449377 7.393642828194986 0.0
7.924592433490734 2.788309934035703 0.0
8.154308714226714 8.853640122009672 0.0
8.876629743004642 1.96110242719995 0.0
7.228849192966834 8.90811350348676 0.0
9.852301635085423 8.296637825215246 0.0
5.219795195341889 5.547413133147649 0.0
9.861497117995457 6.901363010201344 0.0
2.953911258021604 6.136007283255669 0.0
6.93158841067062 4.77708273647784 0.0
9.67540418457871 2.912802891506324 0.0
4.194055958522277 4.437353127730132 0.0
6.133959559341536 0.406856611599261 0.0
8.29952795189331 9.309744645643846 0.0
9.843692337952948 1.209647690818311 0.0
5.164986286280336 6.671544079402435 0.0
9.838533350075606 2.081705440779448 0.0
8.301244777513975 6.604088853319459 0.0
5.471494771710784 2.714598185146428 0.0
8.86534684892311 1.208599471795828 0.0
9.940610684232212 1.451558535868664 0.0
9.40896208432968 1.428353940655538 0.0
2.329177605337097 4.238803555614174 0.0
5.980761651517799 7.182207186682233 0.0
9.66541573964336 0.1719254072074424 0.0
7.220979380229172 7.806128737674462 0.0
1.251721227904697 6.151932667911503 0.0
8.104967286191181 6.057912607875576 0.0
6.650768762224724 4.817922869198292 0.0
6.634976350437587 3.213339182992986 0.0
7.034320437500567 4.898219100342838 0.0
9.502772020064167 6.283064492634301 0.0
8.13187938667684 3.518506862055515 0.0
9.855471943454193 2.599999999994991 0.0
9.056747742708522 8.263936599935574 0.0
4.352645795441222 5.724453640019 0.0
3.744263984699181 1.488951698361357 0.0
5.175860134287045 3.6375726667098 0.0
7.736434712114619 6.400417475661193 0.0
9.857658576695343 6.316607183405179 0.0
7.876525261950537 4.304285002335559 0.0
9.856114384785611 7.914602773442983 0.0
9.848334119947063 0.7059644476295188 0.0
9.59694321995579 6.895814046141667 0.0
5.906465212962551 3.869023950643881 0.0
9.840676994268005 9.364956386459765 0.0
5.355015287544095 3.83518170601625 0.0
6.374090407153147 5.855743754257685 0.0
8.227401290513832 5.297819733684674 0.0
5.451235131977493 4.825706629991923 0.0
6.022070213762754 5.355923882747634 0.0
9.845674433677614 6.108401449483281 0.0
9.835067400944396 7.739582406783081 0.0
8.602026805792988 2.941372356914139 0.0
5.059869081004962 5.269480960018243 0.0
5.284714507903736 5.26496663762182 0.0
9.627110479149561 7.660076105040499 0.0
6.820001127809743 4.792514421153957 0.0
5.120512795059439 4.806607659110254 0.0
9.56933817216883 2.911464407429096 0.0
9.74091654291531 9.267545397628387 0.0
9.93006767325302 6.576784040838644 0.0
9.642486276936268 4.650227701598451 0.0
5.185183328569137 9.410919109238325 0.0
9.37052946854105 4.605636695802024 0.0
1.677077220416309 5.871167715901136 0.0
7.345783833404538 3.184020711886284 0.0
5.419239942654976 5.982692039856376 0.0
6.133318300188262 2.551919945731369 0.0
6.187291396343277 4.499077117404439 0.0
1.231465237822878 3.921479198315213 0.0
8.969849937139944 9.699215363213542 0.0
9.218303154263054 6.037447959776716 0.0
CELLS 4886 19544
3 1113 1356 1450
3 1402 231 1659
3 272 269 1414
3 396 394 1777
3 1451 945 1452
3 194 81 1801
3 1847 1501 2104
3 2024 2121 2479
3 1115 1113 1450
3 1124 1413 1844
3 1061 1955 2409
3 307 305 1645
3 1592 1369 1593
3 238 1501 1847
3 1955 1883 2409
3 1808 243 1910
3 1885 978 2362
3 1440 793 2092
3 189 1488 1608
3 353 350 1864
3 2007 2231 2232
3 307 1645 2493
3 1096 1760 2496
3 2178 874 2179
3 621 625 1595
3 1493 1480 1938
3 1655 1268 2137
3 1341 1410 2212
3 243 1808 2360
3 1902 1446 2516
3 1760 1096 1763
3 856 790 2180
3 2008 2046 2105
3 789 1809 2067
3 694 1543 1575
3 1127 1762 1953
3 1748 807 2228
3 1543 1308 1575
3 820 1872 2170
3 1417 954 1998
3 1369 1592 2386
3 272 1414 1787
3 329 333 1998
3 1544 1095 1545
3 2231 1490 2232
3 1342 1683 1790
3 374 377 1797
3 807 1678 2228
3 1665 198 2128
3 141 142 1620
3 325 322 1952
3 231 1402 1654
3 198 1665 2010
3 1890 1307 2387
3 208 1438 1619
3 2016 1970 2156
3 1436 212 2020
3 954 1417 2333
3 1736 1894 2244
3 1491 1750 2143
3 1677 1064 2146
3 1474 1258 1475
3 1500 233 1930
3 1446 2415 2516
3 1700 973 1800
3 2128 2270 2316
3 1316 1315 1593
3 1307 2341 2387
3 2258 1324 2328
3 1083 1507 1508
3 693 1095 1544
3 621 1595 1596
3 667 1571 1872
3 1932 1766 2061
3 393 391 2240
3 1342 1790 2400
3 252 1707 2234
3 931 978 1885
3 1430 1116 1704
3 1411 1109 1714
3 1478 1227 2440
3 1990 195 2297
3 1792 1167 1985
3 1682 444 1975
3 394 397 1777
3 1711 2028 2162
3 1574 856 2180
3 2008 1851 2046
3 736 1493 1938
3 1069 1060 1662
3 1458 455 1754
3 862 691 1705
3 1161 1642 2286
3 1699 1700 1800
3 447 516 1637
3 955 1482 1483
3 2024 206 2121
3 391 1773 2240
3 1072 1412 1893
3 212 1436 2350
3 1566 1365 1568
3 259 1441 1672
3 872 870 1764
3 330 328 1889
3 1539 1161 2286
3 1897 1898 2275
3 1434 1990 2297
3 1109 1411 1730
3 319 307 2493
3 1762 1761 1953
3 1369 1316 1593
3 1540 834 1832
3 1505 652 2442
3 1732 1655 2137
3 921 1712 2295
3 1872 1388 2170
3 1712 921 2125
3 2028 244 2162
3 1506 1570 1680
3 1569 368 1964
3 1571 667 2375
3 1587 2178 2179
3 196 1723 1737
3 524 2016 2156
3 1528 1250 1733
3 1115 1450 1973
3 1938 1480 1971
3 1809 1396 2067
3 1641 249 2299
3 1223 1258 1474
3 1365 1566 2120
3 1981 962 2316
3 1538 353 1864
3 455 1458 1756
3 152 233 1500
3 1116 1430 1703
3 817 652 1505
3 1347 2003 2004
3 1607 1958 2085
3 194 1801 2195
3 1410 1341 2351
3 223 1415 1710
3 197 1511 2346
3 2198 787 2225
3 81 82 1801
3 1438 208 1620
3 1444 522 1823
3 1511 197 1950
3 726 718 1567
3 1637 516 1739
3 1708 2337 2341
3 1280 1649 2124
3 2337 1395 2341
3 1327 1709 2315
3 1225 1227 1478
3 691 624 1705
3 476 2224 2305
3 830 832 2204
3 1750 1491 2403
3 1366 1897 2275
3 2345 1583 2352
3 2054 405 2110
3 1984 2172 2230
3 1846 2198 2225
3 1177 2042 2418
3 2121 1367 2479
3 1527 1531 1541
3 916 1039 1834
3 1413 1124 2467
3 1622 1503 1868
3 249 1641 2019
3 1805 405 2054
3 1761 1007 1953
3 1415 223 2395
3 960 1756 2203
3 368 1569 2135
3 1402 1659 2473
3 941 1433 2471
3 1267 1477 1501
3 260 2002 2265
3 1704 558 2077
3 2224 1886 2305
3 2053 1386 2199
3 1452 945 1952
3 1717 1611 1718
3 1682 1975 2230
3 1760 1762 2496
3 1481 203 2104
3 1264 1266 1670
3 142 236 1620
3 2133 1182 2179
3 1791 1602 2183
3 350 346 1864
3 1412 1072 2393
3 1281 1575 2255
3 1565 1948 2155
3 849 1449 1513
3 1958 396 2085
3 1339 1069 1662
3 834 1540 1917
3 269 267 1414
3 1268 1267 1501
3 1440 2092 2468
3 1399 1981 2316
3 1635 1636 2041
3 1454 252 2234
3 1451 1305 1890
3 1375 1883 1955
3 362 366 1786
3 1484 2410 2528
3 1449 849 1640
3 1267 1474 1477
3 200 1611 1717
3 1054 1581 1582
3 1350 1977 2253
3 190 1390 2118
3 788 1956 2193
3 1709 1327 1888
3 2233 2298 2413
3 1488 189 2355
3 478 1685 1714
3 230 1525 1690
3 1687 478 1688
3 427 429 1756
3 1570 1065 2476
3 1880 1133 1988
3 1649 656 2124
3 1537 209 1614
3 1134 1769 1986
3 1220 1268 1655
3 396 1777 2085
3 1167 1755 1985
3 2229 1744 2296
3 1575 1281 2287
3 127 240 1882
3 377 647 1797
3 954 329 1998
3 220 1697 1698
3 1342 1341 2212
3 1441 264 1672
3 1512 188 2433
3 763 2345 2352
3 1685 1411 1714
3 1805 1188 1951
3 1347 2004 2157
3 1054 1582 1667
3 1333 1617 1674
3 2217 73 2361
3 1539 1036 1917
3 1039 1292 1834
3 208 141 1620
3 1965 1964 2038
3 693 1544 1969
3 1453 239 2279
3 203 1481 2049
3 945 1451 1889
3 680 1459 2134
3 354 2147 2196
3 1405 1932 2061
3 1723 1722 1737
3 1748 1175 1927
3 1532 1528 1733
3 2057 1824 2154
3 1406 1659 1702
3 1948 1186 2155
3 210 1598 2114
3 1685 478 1687
3 1324 1325 2328
3 1526 1250 1527
3 165 166 1509
3 1493 736 2523
3 1526 1527 1541
3 1390 190 2417
3 522 1444 1998
3 1680 1570 1732
3 1017 1442 2525
3 374 1797 2430
3 1507 1083 2197
3 1756 960 2221
3 2270 1400 2316
3 2205 1452 2282
3 1074 1187 1888
3 2158 1245 2200
3 1442 1017 1684
3 864 1116 1703
3 1750 1751 2143
3 1456 516 1492
3 1677 2146 2149
3 2022 1339 2388
3 1602 258 2183
3 678 1594 1595
3 1245 1670 2200
3 972 830 2204
3 2143 983 2342
3 1268 1501 2226
3 1266 1461 1670
3 1487 222 2465
3 1382 2022 2388
3 58 59 1661
3 2147 1543 2196
3 1484 1485 2410
3 628 2053 2199
3 1906 1549 2259
3 364 362 1786
3 1339 2022 2247
3 1636 525 2041
3 625 678 1595
3 678 1593 1594
3 2212 1410 2222
3 1837 1865 2215
3 1699 1800 1801
3 866 864 1703
3 893 1472 1982
3 1735 1736 2244
3 1633 1255 1922
3 126 127 1882
3 681 867 1656
3 1351 1401 2363
3 11 228 1588
3 1127 1953 2454
3 265 266 267
3 1722 1122 1737
3 1389 1691 2069
3 1613 1610 1616
3 1227 1256 2440
3 429 455 1756
3 1535 1177 2418
3 322 324 1952
3 973 1700 1802
3 1964 368 2038
3 1176 1865 1866
3 1096 872 1764
3 1176 1866 1875
3 193 1839 1892
3 156 157 1441
3 615 617 1596
3 686 1520 2480
3 1409 2097 2305
3 2410 1151 2528
3 1427 2217 2361
3 440 1911 2314
3 1744 1743 2296
3 516 1456 1739
3 1939 589 2164
3 690 931 2150
3 1062 1579 1580
3 1054 1580 1581
3 955 1483 1716
3 1064 1677 2248
3 1956 1616 2193
3 1776 1893 2026
3 1398 1115 1973
3 2002 1453 2265
3 1541 1531 1542
3 216 2191 2536
3 1736 1326 1894
3 1065 994 1066
3 1598 2115 2175
3 2314 1911 2358
3 1433 941 2042
3 2115 1209 2175
3 717 1550 1551
3 188 1941 2433
3 267 1132 1414
3 771 1569 2064
3 1157 1545 1546
3 1231 1250 1526
3 1933 240 2181
3 222 1487 2025
3 1525 230 1765
3 1430 1704 2077
3 757 1744 2495
3 264 263 265
3 883 773 1917
3 739 2205 2282
3 1667 1582 2434
3 1744 757 2474
3 239 1453 2002
3 1441 259 2356
3 2005 1443 2012
3 254 1766 1932
3 1509 166 1679
3 1477 1475 1481
3 793 1440 2165
3 1385 1523 2377
3 1481 1475 2523
3 156 1441 2356
3 1066 1220 1655
3 945 325 1952
3 2094 2087 2134
3 1747 1175 1748
3 253 262 263
3 1327 1074 1888
3 718 715 1567
3 2046 1043 2105
3 240 1933 2399
3 1305 1307 1890
3 224 58 1661
3 1195 1566 2285
3 1590 1393 1749
3 1255 1230 1922
3 353 1538 2073
3 358 1999 2325
3 882 1802 2036
3 1024 1020 1604
3 333 522 1998
3 1401 1351 2414
3 1475 1258 1476
3 2310 786 2364
3 328 945 1889
3 807 1748 1927
3 825 724 1912
3 1742 263 2491
3 267 266 1132
3 2077 2102 2203
3 1431 1432 1860
3 1212 1957 2312
3 2097 476 2305
3 1132 1402 2473
3 717 713 1550
3 1746 693 1969
3 1372 1124 1844
3 1256 1541 2269
3 1977 1350 2274
3 2332 1978 2443
3 874 2133 2179
3 1983 1534 2171
3 1157 1544 1545
3 1230 1228 1922
3 1580 1579 1581
3 1565 806 1948
3 1416 1363 2413
3 1287 1995 2398
3 265 263 266
3 1534 1529 2171
3 1604 1834 2428
3 1255 1633 2509
3 1344 1643 1644
3 1332 1388 1571
3 1423 217 2217
3 2191 1057 2451
3 458 447 1637
3 1250 1233 1733
3 472 2212 2222
3 1175 1747 1840
3 1652 256 1653
3 1073 1347 1572
3 200 145 1609
3 683 640 1585
3 1116 862 1705
3 1221 1223 1474
3 1778 801 1803
3 1503 1622 2471
3 1475 1493 2523
3 464 680 2134
3 14 210 2114
3 579 1880 1988
3 1434 1435 1990
3 1447 2310 2364
3 275 274 276
3 2294 1871 2419
3 814 1068 1684
3 1172 1439 2273
3 273 272 274
3 1363 1416 2406
3 1220 1219 1221
3 1060 1656 1662
3 1099 1792 1985
3 2048 1198 2168
3 1241 1245 2323
3 699 723 1753
3 1640 1862 2070
3 910 1018 1584
3 1586 1067 1587
3 1656 867 1662
3 1067 686 2480
3 654 2242 2294
3 1593 1315 1594
3 1880 553 1974
3 236 1717 1718
3 617 621 1596
3 1723 196 2313
3 402 1877 2116
3 273 274 275
3 2202 1869 2252
3 1510 1358 1767
3 193 1892 2373
3 1188 1805 2054
3 1220 1221 1267
3 1066 1218 1219
3 1517 1097 1518
3 1677 1676 1858
3 686 277 1520
3 268 267 269
3 697 857 1592
3 220 1698 1699
3 1802 1700 2036
3 1612 1537 1614
3 929 817 994
3 228 12 2136
3 2110 2116 2482
3 1659 1658 1702
3 1611 1613 2280
3 1344 991 1643
3 683 1585 1604
3 1638 1358 2404
3 1485 1034 2410
3 2214 833 2424
3 271 272 273
3 1482 955 1962
3 1066 1219 1220
3 931 1885 2150
3 1613 1891 2280
3 1189 1589 2204
3 1566 1195 2120
3 726 1567 2490
3 1122 1722 1874
3 1494 319 2493
3 1671 259 1672
3 1267 1221 1474
3 603 528 1591
3 1664 2128 2316
3 1817 1924 2174
3 1626 1660 2111
3 1474 1475 1477
3 1023 1062 1580
3 1957 1599 2312
3 1764 1939 2164
3 1358 1950 2404
3 200 1609 1610
3 1431 1082 1432
3 1778 1803 2521
3 1830 1832 2075
3 1930 233 2369
3 1329 1482 1650
3 757 1959 2522
3 1239 1247 1597
3 758 1978 2332
3 1569 1290 2064
3 216 1694 2191
3 1453 1420 2265
3 1549 1906 2129
3 24 215 1674
3 19 235 1676
3 1621 1057 2191
3 1691 1389 2262
3 1617 1333 2192
3 929 994 1065
3 1769 1672 1986
3 1893 1412 2026
3 1609 1537 1612
3 271 269 272
3 1373 1438 1620
3 217 1423 2381
3 517 330 1889
3 1322 1055 1667
3 1974 553 2499
3 228 2136 2187
3 1589 1189 1788
3 1999 1577 2325
3 2110 405 2116
3 189 1608 1842
3 1055 1050 1667
3 739 1455 2205
3 1865 1176 2215
3 319 1494 2522
3 2474 757 2522
3 1484 227 1485
3 10 11 1588
3 723 809 1753
3 27 230 1689
3 1550 806 1565
3 1179 1180 1217
3 207 1617 2192
3 1433 1217 1502
3 1562 1556 1606
3 1379 2017 2018
3 1245 2158 2323
3 675 1097 1517
3 884 501 1599
3 1020 683 1604
3 1603 1095 1848
3 1001 2057 2154
3 1604 1585 1834
3 1610 1612 1616
3 1764 870 1939
3 2242 1871 2294
3 1669 1264 1670
3 1658 213 1702
3 1995 1646 2398
3 631 539 1600
3 1491 2143 2342
3 1801 1800 2195
3 1200 1199 1693
3 1535 940 1861
3 1534 758 2332
3 914 2258 2328
3 1588 228 2457
3 216 138 1694
3 151 152 1500
3 1133 1880 1974
3 1677 1858 2248
3 1294 1622 1868
3 875 1010 1767
3 1379 2018 2416
3 1279 2202 2252
3 182 256 1652
3 1592 857 2386
3 672 681 1656
3 615 1596 1824
3 1093 1487 1623
3 1823 522 2100
3 1245 1242 1669
3 1582 1581 1583
3 758 1534 2306
3 1975 1984 2230
3 1358 1510 1950
3 1663 1336 1665
3 2102 960 2203
3 366 1087 1786
3 1740 1490 2231
3 21 207 1709
3 145 146 1609
3 2339 765 2384
3 603 1591 1668
3 2081 199 2149
3 1540 1832 1879
3 1721 1723 1947
3 1754 455 1793
3 1751 1753 2119
3 882 1701 1807
3 1540 1539 1917
3 242 1695 1697
3 1521 354 2091
3 1363 2233 2413
3 1584 1018 1925
3 703 1067 1586
3 1177 1178 1179
3 795 916 1834
3 277 276 607
3 1571 1388 1872
3 22 23 1617
3 1097 823 1177
3 25 26 1624
3 419 418 1790
3 1728 1906 2259
3 440 1455 2261
3 1877 1318 2116
3 1488 1156 1608
3 1439 2130 2273
3 1889 1451 1890
3 1614 209 2389
3 1472 893 2094
3 675 821 823
3 23 24 1674
3 1788 1190 2183
3 917 941 1622
3 1763 1096 1764
3 1068 1442 1684
3 1034 1485 2173
3 2172 1533 2230
3 138 139 1694
3 1065 1570 2197
3 607 674 675
3 1536 1248 2268
3 229 135 1734
3 1437 1925 1926
3 680 510 1646
3 147 209 1537
3 26 27 1689
3 1627 705 2163
3 206 1651 2121
3 2409 1785 2462
3 1492 682 2447
3 1223 1225 1258
3 889 1772 2374
3 253 263 264
3 275 276 277
3 1455 739 2261
3 2022 1382 2176
3 150 227 1484
3 639 1019 1591
3 1449 1640 2070
3 1082 833 2214
3 1503 1502 1504
3 144 200 1717
3 1643 991 1713
3 1190 1791 2183
3 1538 1804 2073
3 1256 2269 2440
3 18 19 1676
3 521 531 2000
3 790 849 2180
3 1075 1329 1650
3 1087 1782 1785
3 1066 994 1218
3 270 269 271
3 682 1492 2494
3 185 252 1454
3 253 158 262
3 1629 1632 1633
3 200 1610 1611
3 1477 1481 2104
3 1623 1487 2465
3 1518 1097 1535
3 1414 1132 2460
3 1179 1217 1433
3 177 1506 1680
3 1392 1017 2525
3 1832 834 2075
3 675 823 1097
3 1459 2094 2134
3 1782 1087 1795
3 1838 1730 2372
3 1639 149 2528
3 1617 23 1674
3 2265 1420 2489
3 180 232 1859
3 1527 1250 1528
3 20 21 1709
3 1083 1508 2311
3 903 866 1703
3 1455 440 2314
3 1187 1858 1888
3 1659 1406 2473
3 1446 1902 2166
3 421 1951 2106
3 1598 210 2115
3 154 259 1671
3 1288 1835 2080
3 1832 1831 1879
3 1258 1225 1478
3 1024 1604 2117
3 1263 1429 1739
3 706 705 1627
3 1583 1581 2352
3 407 1805 1951
3 856 1574 2527
3 1701 882 2036
3 1624 26 1689
3 717 1551 1552
3 1385 2377 2391
3 2302 1745 2354
3 1572 1347 2157
3 1036 883 1917
3 1689 1690 1691
3 1664 1665 2128
3 1476 1479 1480
3 1751 2119 2143
3 815 814 1684
3 1790 889 2400
3 1606 1607 2085
3 265 267 268
3 418 889 1790
3 1522 1521 2091
3 135 136 1734
3 1726 1445 1729
3 647 1796 1797
3 1346 1453 2279
3 1293 1827 2117
3 1242 1244 1669
3 1853 1852 1854
3 889 2374 2400
3 1039 1038 1290
3 1524 628 2199
3 1331 1332 1571
3 1291 1290 1569
3 1475 1476 1493
3 1850 1852 1853
3 1490 1740 2456
3 1689 230 1690
3 1256 1526 1541
3 1704 1705 2167
3 1465 1470 1675
3 956 1073 1572
3 1613 1616 1956
3 916 917 1038
3 2014 1522 2091
3 1221 1222 1223
3 1999 763 2352
3 234 10 1588
3 1697 220 2335
3 1527 1528 1529
3 2298 1600 2413
3 1436 2020 2254
3 1642 1161 1678
3 1523 1385 2436
3 1730 1838 2426
3 795 796 916
3 713 711 1550
3 1456 1263 1739
3 999 1336 1663
3 1785 1784 2462
3 409 415 1783
3 607 675 1517
3 1229 1231 1526
3 1958 1855 2078
3 1589 1588 1590
3 1933 261 2380
3 762 1965 2038
3 1756 1458 2203
3 1776 597 1893
3 1794 1072 1893
3 188 1512 2266
3 1774 2339 2384
3 188 1908 1941
3 1010 1510 1767
3 2189 2285 2307
3 773 834 1917
3 1245 1669 1670
3 1248 1597 2268
3 146 1537 1609
3 818 910 1584
3 1641 1313 1651
3 1217 1745 2302
3 1065 1066 1655
3 1597 1247 2047
3 1360 2177 2376
3 1612 1615 1616
3 2126 867 2186
3 1019 683 1020
3 1747 892 1840
3 1092 1093 1623
3 261 1933 2181
3 400 424 1666
3 1516 1903 2377
3 1100 1392 1605
3 247 1738 1881
3 268 1134 1986
3 1177 823 1178
3 884 1599 1957
3 263 262 2491
3 806 1627 1948
3 1227 1229 1256
3 191 1729 2504
3 1636 1635 2502
3 1480 1479 1601
3 1721 1947 2498
3 1924 1146 2174
3 229 1734 1735
3 175 204 1725
3 1179 1178 1180
3 354 1521 2147
3 665 697 1592
3 640 646 1585
3 627 545 1636
3 1882 240 2399
3 1556 1555 1606
3 1373 1620 2394
3 1871 1071 2419
3 548 1628 1629
3 455 436 1793
3 974 1831 1841
3 1844 1413 2392
3 1612 1614 1615
3 209 1639 1937
3 1329 1330 1331
3 1823 2100 2142
3 1097 1177 1535
3 1021 1020 1022
3 825 1912 2455
3 913 1122 1874
3 400 1666 2113
3 1256 1229 1526
3 1419 1418 2450
3 1552 1551 1553
3 1850 1099 1852
3 1629 1631 1632
3 801 685 2029
3 1618 1619 1621
3 265 268 1986
3 1715 2165 2330
3 1531 1529 1534
3 1022 1024 1576
3 658 693 1746
3 703 686 1067
3 1062 1576 1577
3 1023 1022 1062
3 236 1718 2394
3 1688 502 1740
3 1501 1477 2104
3 213 165 1509
3 646 795 1585
3 196 1737 1738
3 379 679 1795
3 639 640 683
3 924 875 1767
3 1752 699 1753
3 207 2192 2315
3 627 1636 1660
3 1217 1180 1745
3 730 728 1833
3 528 561 1591
3 1444 1417 1998
3 252 186 1602
3 1729 1445 2504
3 460 502 1688
3 1418 946 1778
3 1203 1200 1693
3 548 470 1628
3 849 668 1640
3 646 785 795
3 607 276 674
3 14 15 210
3 147 148 209
3 478 460 1688
3 1709 207 2315
3 1157 1546 1608
3 1155 1731 1899
3 1524 1934 2390
3 1775 921 1876
3 1433 1502 1503
3 470 458 1628
3 1223 1224 1225
3 1291 1569 1964
3 871 1056 1826
3 1781 1783 1915
3 1587 1067 2300
3 916 1038 1039
3 1388 1387 1389
3 1611 1610 1613
3 1075 1328 1329
3 1039 1290 1291
3 1538 1265 1804
3 1184 1185 2163
3 597 598 1794
3 1450 1356 2421
3 1835 576 2080
3 1629 1628 1631
3 1331 1330 1332
3 561 639 1591
3 1476 1480 1493
3 705 703 1586
3 639 683 1019
3 1951 1188 2106
3 436 446 1793
3 1472 1297 2142
3 1332 1387 1388
3 1345 984 1720
3 1329 1328 1330
3 1050 1048 1667
3 150 151 227
3 11 12 228
3 557 541 2256
3 1831 974 1879
3 134 229 1766
3 1357 1358 1638
3 1336 1641 2299
3 1650 1482 1962
3 1591 1019 2512
3 1506 1507 1570
3 1803 801 2029
3 1178 823 1972
3 1552 1553 1554
3 1290 1038 1294
3 1028 1313 1641
3 1237 1239 1597
3 993 1017 1100
3 893 2087 2094
3 149 1484 2528
3 1768 1142 1949
3 9 234 1673
3 1554 1553 1555
3 668 632 1640
3 711 806 1550
3 1628 458 1637
3 1098 1829 1830
3 1482 1331 1483
3 531 1818 2000
3 435 419 1790
3 1156 1157 1608
3 1182 1184 2179
3 510 512 1646
3 1231 1233 1250
3 946 841 1778
3 1483 1331 1571
3 1459 680 2458
3 1166 1040 1210
3 892 1657 1820
3 1042 1445 1726
3 1019 1020 1021
3 749 805 1810
3 234 1588 1589
3 1695 242 1892
3 556 1853 2483
3 1018 1572 1573
3 1529 1528 1530
3 1606 1558 1607
3 1761 1759 2308
3 1396 1032 1921
3 1018 956 1572
3 689 1150 1416
3 1827 1293 2515
3 149 150 1484
3 1647 656 1648
3 1543 694 2196
3 399 409 1783
3 545 525 1636
3 268 269 270
3 715 713 717
3 1100 1017 1392
3 1657 892 1747
3 207 22 1617
3 1666 884 2249
3 1671 1672 1769
3 1554 1555 1556
3 146 147 1537
3 1081 1444 1822
3 711 709 806
3 1443 2005 2322
3 660 658 1746
3 1166 1458 1754
3 916 796 917
3 1056 1728 1826
3 1068 1069 1275
3 184 185 1454
3 158 159 262
3 2007 1687 2231
3 805 1708 1810
3 1672 264 1986
3 1561 1562 1563
3 978 1075 1650
3 1590 1588 2457
3 215 25 1624
3 1551 1550 1565
3 1073 1346 1347
3 857 818 1584
3 1648 656 1649
3 675 674 821
3 561 594 639
3 1731 529 1899
3 2303 1454 2535
3 981 903 1040
3 1630 1629 1633
3 993 877 1017
3 724 718 726
3 512 603 1646
3 1676 235 1858
3 814 1060 1068
3 715 717 1567
3 1796 647 1870
3 1715 1171 2165
3 678 1592 1593
3 644 613 1824
3 1690 1525 2145
3 1297 1822 1823
3 271 656 1647
3 1704 1116 1705
3 1225 1226 1227
3 1275 1069 1338
3 910 956 1018
3 1824 1596 2154
3 1403 1100 1605
3 1221 1219 1222
3 1068 1060 1069
3 1901 245 1949
3 1081 1055 1321
3 1751 563 1752
3 1021 1022 1023
3 672 638 681
3 1095 657 1848
3 1235 1237 1248
3 1561 1556 1562
3 1265 1259 1804
3 524 1819 2016
3 978 1650 2362
3 1492 516 2494
3 229 1735 2061
3 185 186 252
3 157 158 253
3 152 153 233
3 9 10 234
3 1527 1529 1531
3 1808 1344 2360
3 1062 1577 1579
3 1509 1679 1977
3 424 454 1666
3 637 638 672
3 981 1040 1166
3 1555 1558 1606
3 751 749 1810
3 1166 1210 1458
3 1651 1313 2121
3 15 16 2260
3 1633 1632 2509
3 2167 1705 2276
3 551 602 2045
3 697 818 857
3 364 1786 1883
3 832 1189 2204
3 1476 1478 1479
3 678 665 1592
3 213 1509 2096
3 1015 888 1124
3 1062 1022 1576
3 679 1782 1795
3 680 1646 1995
3 1101 1100 1403
3 1109 433 1714
3 1248 1237 1597
3 733 730 1833
3 1702 213 2096
3 499 498 1828
3 1418 1778 2521
3 637 600 638
3 1048 1046 1054
3 1577 1576 1578
3 814 766 1060
3 1279 2252 2292
3 474 470 548
3 199 18 1676
3 157 253 1441
3 1048 1054 1667
3 471 472 2290
3 625 665 678
3 795 785 796
3 1264 1265 1266
3 1437 1926 2350
3 1362 2048 2168
3 1394 2337 2371
3 454 884 1666
3 1022 1020 1024
3 751 1810 1923
3 1046 1023 1580
3 1807 1701 1931
3 1618 208 1619
3 566 588 689
3 1828 498 1829
3 501 509 1599
3 1118 780 1775
3 878 817 929
3 1510 1511 1950
3 1618 1621 1694
3 1052 1081 1822
3 1416 1150 1715
3 1239 1241 1247
3 1396 1921 2067
3 1751 1752 1753
3 1264 1259 1265
3 539 566 1600
3 1762 1127 2496
3 1673 1788 2183
3 1555 1557 1558
3 1052 1050 1055
3 725 724 825
3 1142 1770 1771
3 681 853 867
3 454 501 884
3 1346 1420 1453
3 932 1147 1770
3 1546 1545 1547
3 533 582 1818
3 1266 1337 1460
3 1872 820 2318
3 1117 1119 1713
3 1081 1321 1417
3 1253 1259 1264
3 1569 771 2135
3 1052 1055 1081
3 1181 1178 1972
3 709 706 1627
3 1073 1076 1346
3 1098 1828 1829
3 1382 1380 2176
3 1442 1275 1443
3 919 999 1663
3 1789 828 1855
3 877 815 1684
3 509 539 631
3 992 877 993
3 1266 1265 1337
3 2268 1498 2340
3 1130 1032 1396
3 1095 1603 2508
3 886 826 887
3 531 533 1818
3 1131 1400 1881
3 447 437 516
3 2460 1132 2473
3 940 1535 2418
3 768 1873 2037
3 1813 1869 1954
3 1627 2163 2488
3 1497 1495 1645
3 1198 1409 2168
3 724 726 1912
3 1869 987 1954
3 763 1999 2338
3 1010 1170 1374
3 984 976 1720
3 1470 1743 1744
3 689 588 1150
3 1901 1949 2359
3 1640 632 1862
3 274 272 1787
3 563 564 1752
3 994 817 1505
3 737 1807 1931
3 1770 1147 1771
3 1233 1235 1733
3 2450 1418 2521
3 414 410 1821
3 908 1099 1850
3 1227 1228 1229
3 1692 1203 1693
3 1625 216 2194
3 512 528 603
3 1377 1357 1638
3 1465 1464 1470
3 1360 1359 2177
3 1686 2007 2095
3 1336 1028 1641
3 1857 751 1923
3 1758 572 1759
3 553 541 557
3 1171 1715 1811
3 956 1003 1073
3 1467 1465 1675
3 719 718 724
3 1509 1977 2096
3 1734 1625 1736
3 1503 1504 1868
3 592 597 1776
3 180 181 232
3 162 163 231
3 2308 1759 2370
3 1357 1114 1358
3 875 946 1010
3 509 631 1599
3 17 18 199
3 144 145 200
3 1099 906 1792
3 1469 1467 1494
3 605 589 1939
3 1208 1205 1211
3 354 344 2091
3 692 782 804
3 1010 946 1170
3 1463 1462 1464
3 716 715 718
3 714 713 715
3 271 273 656
3 139 1618 1694
3 549 277 686
3 673 672 766
3 1378 1377 1379
3 2007 868 2095
3 999 1028 1336
3 1208 1211 1447
3 601 545 627
3 1119 1643 1713
3 1332 1333 1387
3 910 912 956
3 520 521 2000
3 828 1789 1819
3 277 607 1520
3 1338 1339 2247
3 818 819 910
3 767 766 814
3 712 711 713
3 1494 1467 1675
3 639 594 640
3 2044 557 2256
3 235 20 1709
3 1620 236 2394
3 804 919 962
3 1862 702 2070
3 681 852 853
3 1559 1556 1561
3 1622 941 2471
3 2165 1440 2330
3 612 644 692
3 697 698 818
3 1903 1516 1994
3 371 379 1795
3 428 426 2138
3 1290 1294 2064
3 1384 1904 2432
3 566 689 1600
3 471 452 472
3 1092 1091 1093
3 1002 1131 1719
3 1090 1089 1091
3 875 841 946
3 1758 1760 1763
3 1562 1606 2085
3 1833 1830 2075
3 178 179 214
3 164 165 213
3 769 923 1815
3 692 644 782
3 804 782 919
3 182 183 256
3 160 161 257
3 1329 1331 1482
3 962 1663 1664
3 1177 1179 2042
3 403 405 1805
3 1461 1460 1462
3 140 208 1618
3 1859 232 1860
3 274 1787 2099
3 1381 2126 2186
3 1558 1560 1789
3 430 428 682
3 452 435 1683
3 1487 1156 1488
3 1470 1464 1743
3 597 1794 1893
3 1244 1253 1669
3 962 919 1663
3 258 8 1673
3 1087 1785 1786
3 970 1042 1726
3 199 1677 2149
3 1664 1663 1665
3 1229 1230 1231
3 991 827 1713
3 792 1603 1848
3 1822 1444 1823
3 665 666 697
3 19 20 235
3 142 143 236
3 728 1098 1833
3 532 530 1898
3 1015 1124 1372
3 1546 1547 1548
3 1851 1850 1853
3 1877 393 2240
3 923 1105 1815
3 1090 1091 1092
3 687 686 703
3 1683 435 1790
3 887 826 1961
3 684 663 1089
3 426 1934 2138
3 464 510 680
3 853 854 855
3 568 572 1758
3 1376 1357 1377
3 1205 1203 1692
3 1607 1789 1855
3 710 709 711
3 780 781 1775
3 1434 1103 1435
3 876 815 877
3 766 672 1656
3 1393 1590 2457
3 684 1089 1090
3 530 890 1898
3 926 1920 1943
3 696 414 1821
3 1563 1562 1777
3 1054 1046 1580
3 1398 1973 1974
3 137 216 1625
3 1210 1040 1430
3 1750 563 1751
3 2010 1665 2299
3 1510 1374 1511
3 1777 1562 2085
3 1707 252 1791
3 1932 1404 1933
3 459 438 1814
3 139 140 1618
3 1093 1156 1487
3 231 163 1658
3 699 722 723
3 1545 1095 2508
3 598 612 1794
3 579 554 1880
3 1941 1908 2401
3 1231 1232 1233
3 1831 1829 1841
3 1037 1383 1799
3 177 178 1506
3 636 600 637
3 1036 1539 2286
3 1356 1114 1357
3 1523 1516 2377
3 704 703 705
3 403 402 405
3 648 792 1848
3 723 756 808
3 1388 1389 2170
3 933 932 1770
3 223 1710 1711
3 1779 399 1783
3 1223 1222 1224
3 1028 1029 1313
3 257 161 1654
3 418 412 421
3 734 882 1807
3 693 657 1095
3 1368 1370 1436
3 136 137 1625
3 688 652 817
3 1075 1327 1328
3 540 479 1813
3 398 395 402
3 548 1629 1630
3 574 591 699
3 1469 1494 1495
3 1041 1598 2175
3 167 168 202
3 175 176 204
3 2045 2046 2201
3 186 187 1602
3 886 887 888
3 1253 1254 1259
3 8 9 1673
3 792 655 810
3 843 1145 1960
3 1180 1349 1745
3 1165 1345 1512
3 708 706 709
3 136 1625 1734
3 21 22 207
3 140 141 208
3 625 626 665
3 1093 1094 1156
3 1585 795 1834
3 1117 1713 1806
3 599 579 600
3 810 871 1826
3 1047 1046 1048
3 1292 1291 1293
3 161 162 1654
3 199 1676 1677
3 1260 1282 1804
3 1005 1142 1768
3 1233 1234 1235
3 792 810 922
3 1122 1719 1737
3 976 985 1720
3 1278 1279 2292
3 2390 1934 2531
3 1436 1437 2350
3 270 271 1647
3 1199 966 1846
3 1683 1342 2212
3 656 273 2124
3 699 591 722
3 1977 1139 2096
3 1738 1719 1881
3 1722 985 1874
3 1797 1448 1798
3 162 231 1654
3 632 604 1862
3 252 1602 1791
3 1051 1050 1052
3 1045 1023 1046
3 648 655 792
3 993 1100 1101
3 1321 1055 1322
3 806 709 1627
3 904 903 981
3 1220 1267 1268
3 648 605 655
3 1737 1719 1738
3 385 399 1779
3 506 499 1828
3 1132 266 1402
3 1170 1418 1419
3 1323 2302 2354
3 24 25 215
3 137 138 216
3 721 965 1919
3 1787 1414 2460
3 778 1117 1806
3 723 722 756
3 407 403 1805
3 564 574 1752
3 1049 1048 1050
3 842 841 875
3 1608 1546 1842
3 809 808 899
3 1517 1519 1520
3 1530 1532 1533
3 889 421 1772
3 913 1002 1122
3 1314 1316 1367
3 1017 877 1684
3 841 802 1778
3 1235 1236 1237
3 751 1857 1900
3 1114 924 1767
3 1344 1644 2360
3 1895 1394 2371
3 1518 1535 1861
3 1758 1759 1760
3 1122 1002 1719
3 546 563 1750
3 1056 1726 1727
3 663 660 1746
3 621 622 625
3 1720 985 1721
3 1857 1843 1900
3 808 756 913
3 1056 970 1726
3 27 28 230
3 134 135 229
3 908 906 1099
3 163 164 1658
3 1727 1726 1729
3 7 8 258
3 154 155 259
3 1101 1403 1404
3 808 913 1874
3 1260 1269 1282
3 1389 1387 2262
3 1297 1053 1822
3 1555 1553 1557
3 1463 1464 1465
3 230 28 1765
3 1237 1238 1239
3 554 553 1880
3 775 778 1806
3 985 899 1874
3 1270 1524 2199
3 489 1820 1936
3 692 1072 1794
3 1472 2142 2272
3 1845 496 1929
3 438 431 1814
3 613 615 1824
3 1241 1242 1245
3 1783 415 1915
3 1192 2081 2149
3 178 214 1506
3 1816 988 1817
3 1760 1759 1761
3 1103 1092 1623
3 1512 1345 1661
3 1876 921 2295
3 1165 984 1345
3 978 1074 1075
3 1239 1240 1241
3 542 541 553
3 813 988 1816
3 1148 984 1165
3 871 970 1056
3 472 452 1683
3 1207 1796 1870
3 1167 1166 1754
3 1296 1053 1297
3 966 964 1846
3 976 899 985
3 982 976 984
3 702 1815 2015
3 900 899 976
3 1143 995 1206
3 1576 1024 1827
3 1235 1248 1733
3 1558 1557 1560
3 943 995 1143
3 1920 1144 1943
3 1471 2115 2477
3 29 30 255
3 132 133 254
3 1630 1633 1634
3 1225 1224 1226
3 1925 1573 1926
3 1211 1205 1692
3 725 825 826
3 1113 924 1114
3 600 579 1988
3 717 1552 1567
3 1820 1657 1936
3 674 276 2099
3 395 393 1877
3 572 543 1897
3 1575 1308 2255
3 999 1000 1028
3 1118 1775 1876
3 1797 1798 2430
3 526 546 559
3 867 853 2186
3 1142 1771 1949
3 1068 1275 1442
3 679 385 1779
3 1607 1558 1789
3 580 568 1758
3 1244 1252 1253
3 1760 1761 1762
3 398 402 403
3 1476 1258 1478
3 418 421 889
3 1771 1147 1839
3 164 213 1658
3 1720 1721 2267
3 1668 1591 2512
3 1042 1128 1445
3 1098 1830 1833
3 1102 1092 1103
3 2249 884 2466
3 1104 1103 1434
3 410 416 1821
3 514 513 541
3 580 1758 1763
3 637 673 1741
3 1913 936 1914
3 1394 1395 2337
3 919 920 999
3 577 554 579
3 2111 1660 2263
3 231 1658 1659
3 612 613 644
3 568 543 572
3 770 775 1806
3 1445 1128 1446
3 1546 1548 1842
3 448 460 478
3 810 870 871
3 1789 1560 1819
3 1154 1082 1431
3 873 973 1802
3 379 385 679
3 837 850 921
3 1461 1462 1463
3 1346 1076 1420
3 1088 1344 1808
3 2125 1143 2353
3 931 977 978
3 882 772 1802
3 29 255 1765
3 849 1513 2180
3 1713 827 1806
3 1130 1396 1397
3 681 638 852
3 1417 1321 1873
3 1654 1402 2530
3 502 526 1740
3 1124 888 2177
3 1266 1460 1461
3 515 1175 1840
3 1253 1264 1669
3 479 466 1813
3 1727 1729 1757
3 379 380 385
3 1971 1480 2514
3 1637 1739 2459
3 1207 1205 1208
3 529 519 1899
3 1129 1845 1929
3 224 1661 2267
3 192 1856 2361
3 732 734 1807
3 1184 2163 2435
3 1119 1120 1353
3 415 414 431
3 719 724 725
3 559 546 1750
3 871 872 970
3 1038 917 1622
3 574 699 1752
3 166 167 1679
3 1117 1118 1119
3 1409 1196 2035
3 617 619 621
3 1172 1173 1439
3 1191 1005 1768
3 664 663 684
3 494 493 1841
3 890 529 1731
3 840 802 841
3 493 974 1841
3 385 386 399
3 679 1779 1780
3 371 376 379
3 416 433 1109
3 670 769 1815
3 902 866 903
3 1780 1779 1781
3 480 515 1840
3 970 971 1042
3 433 448 1714
3 28 29 1765
3 1005 949 1142
3 778 780 1117
3 959 1037 1799
3 1073 1003 1076
3 535 532 1898
3 1119 1118 1120
3 658 657 693
3 1378 1379 1380
3 1397 1396 1809
3 1610 1609 1612
3 1819 1560 2016
3 1837 952 1865
3 1719 1131 1881
3 1131 1399 1400
3 1352 1138 2058
3 399 406 409
3 548 1630 2041
3 1275 1338 2251
3 582 1816 1818
3 1835 1836 2144
3 993 1101 1980
3 1699 1698 1700
3 2407 364 2505
3 1189 1190 1788
3 1117 780 1118
3 1830 1829 1831
3 637 672 673
3 692 804 1072
3 1204 1203 1205
3 1374 1170 2139
3 612 692 1794
3 1642 1408 2286
3 723 808 809
3 450 459 1812
3 409 410 414
3 802 801 1778
3 1853 1854 2483
3 1042 1127 1128
3 1199 1846 2225
3 1147 990 1273
3 1383 1384 2432
3 432 431 438
3 1353 1120 1390
3 1093 1091 1094
3 2020 250 2254
3 148 149 1639
3 606 605 648
3 1970 2016 2422
3 2201 2046 2327
3 475 471 513
3 412 407 1951
3 1991 246 2139
3 727 695 728
3 1673 234 1788
3 1554 1556 1559
3 1089 663 1746
3 1846 964 2056
3 923 991 1088
3 409 406 410
3 729 728 730
3 1424 1427 1856
3 1473 1911 2407
3 1376 1377 1378
3 1010 1374 1510
3 853 852 854
3 366 369 1087
3 772 873 1802
3 1219 1218 1626
3 1766 229 2061
3 1088 991 1344
3 922 810 1826
3 518 506 695
3 405 402 2116
3 962 1664 2316
3 913 942 1002
3 932 990 1147
3 629 813 1816
3 876 877 992
3 399 386 406
3 932 845 990
3 1002 1123 1131
3 843 996 1145
3 781 837 1775
3 262 2304 2491
3 431 696 1814
3 1273 1695 1892
3 731 730 732
3 737 732 1807
3 439 438 450
3 1829 498 1841
3 800 685 801
3 767 814 815
3 1060 766 1656
3 673 766 767
3 1403 1605 1882
3 716 718 719
3 1338 1069 1339
3 847 752 1843
3 864 862 1116
3 2302 443 2519
3 923 827 991
3 526 559 1740
3 1911 1473 2358
3 1085 1310 1867
3 809 899 900
3 1227 1226 1228
3 729 730 731
3 1436 1370 1437
3 731 732 737
3 769 827 923
3 456 452 471
3 1433 1503 2471
3 1435 1103 1623
3 385 380 386
3 1141 1787 2460
3 1354 1088 1808
3 657 649 1848
3 415 431 432
3 484 892 1820
3 727 728 729
3 855 854 1450
3 1721 1722 1723
3 1643 1353 1644
3 1145 1916 1960
3 1421 1191 1422
3 466 1812 1813
3 943 944 995
3 1356 1357 1376
3 714 715 716
3 1156 1094 1157
3 598 611 612
3 631 1600 2298
3 590 589 605
3 965 969 1919
3 416 1109 1821
3 242 1697 2335
3 1548 1547 1549
3 550 573 584
3 584 604 632
3 409 414 415
3 712 713 714
3 642 670 702
3 818 698 819
3 1006 1005 1191
3 1624 1689 1691
3 169 170 237
3 173 174 238
3 956 912 1003
3 937 936 1913
3 1317 1025 1875
3 515 540 550
3 973 1799 1800
3 973 959 1799
3 518 695 727
3 910 819 912
3 584 573 604
3 1170 946 1418
3 173 238 1847
3 550 540 573
3 982 984 1148
3 900 976 982
3 441 435 452
3 448 478 1714
3 1849 1648 2173
3 1631 1628 1637
3 1830 1831 1832
3 1383 1216 1384
3 734 772 882
3 949 933 1770
3 1332 1330 1333
3 574 575 591
3 1105 1088 1354
3 702 670 1815
3 498 494 1841
3 827 770 1806
3 873 959 973
3 1390 1391 1415
3 450 438 459
3 950 949 1005
3 351 362 364
3 1313 1029 1314
3 432 438 439
3 837 838 850
3 1273 1274 1695
3 850 851 943
3 911 952 1837
3 1259 1260 1804
3 566 587 588
3 1037 1216 1383
3 1337 1265 1538
3 1087 369 1795
3 810 655 870
3 1559 1561 1566
3 1147 1273 1839
3 732 733 734
3 1662 867 2126
3 890 1731 2241
3 1854 1852 2397
3 515 479 540
3 451 450 466
3 697 666 698
3 1367 1316 1368
3 662 660 663
3 365 355 694
3 1358 1114 1767
3 379 376 380
3 1796 1448 1797
3 179 180 1859
3 790 668 849
3 569 568 580
3 690 860 931
3 466 450 1812
3 431 414 696
3 1973 1133 1974
3 651 649 657
3 467 466 479
3 1288 1289 1835
3 264 265 1986
3 1302 1303 1304
3 592 596 597
3 1873 1321 2037
3 544 543 568
3 275 277 549
3 209 1937 2389
3 539 565 566
3 1485 227 1486
3 2384 2190 2408
3 1781 1779 1783
3 480 479 515
3 689 1416 2413
3 1108 1161 1539
3 1867 1310 1895
3 1300 1301 1302
3 1695 1696 1697
3 633 632 668
3 1304 1451 1452
3 988 911 1837
3 168 169 1724
3 969 1012 1172
3 582 629 1816
3 1843 752 1900
3 629 812 813
3 710 711 712
3 1782 1780 1784
3 536 535 543
3 1089 1746 1969
3 1108 1107 1161
3 1514 1426 1856
3 486 484 1820
3 369 371 1795
3 1817 988 1924
3 493 609 974
3 1422 1191 2023
3 1426 1424 1856
3 842 875 924
3 922 1826 2259
3 989 1361 1886
3 928 1070 1288
3 669 668 790
3 1113 1114 1356
3 1027 847 1843
3 728 695 1098
3 734 735 772
3 975 1107 1108
3 955 859 1962
3 813 911 988
3 1208 1448 1796
3 1101 1405 1980
3 602 676 2045
3 586 581 589
3 546 547 563
3 493 491 609
3 628 1524 2390
3 348 344 354
3 1298 1299 1300
3 509 538 539
3 974 609 975
3 813 891 911
3 871 870 872
3 1355 1354 1423
3 489 486 1820
3 778 779 780
3 1025 1176 1875
3 772 773 873
3 803 1743 2347
3 167 202 1679
3 873 883 959
3 1483 1571 2375
3 427 1756 2221
3 540 1813 1954
3 1202 1200 1203
3 959 1035 1037
3 837 921 1775
3 1304 1305 1451
3 1799 1383 2195
3 604 642 1862
3 1470 1744 2474
3 1854 2397 2453
3 1282 1269 1386
3 1573 1572 2157
3 472 2222 2290
3 1307 1708 2341
3 769 770 827
3 1037 1215 1216
3 791 790 856
3 1053 1052 1822
3 1056 1727 1728
3 1341 1138 1352
3 1300 1299 1301
3 1814 696 1838
3 1198 1196 1409
3 492 491 493
3 439 450 451
3 1171 858 2132
3 1259 1254 1260
3 665 626 666
3 970 872 971
3 258 1602 2357
3 1296 1297 1472
3 490 489 491
3 516 437 2494
3 1298 1027 1299
3 846 845 932
3 501 508 509
3 460 461 502
3 448 449 460
3 482 480 1840
3 1229 1228 1230
3 604 641 642
3 1424 1423 1427
3 502 503 526
3 1028 1000 1029
3 935 933 949
3 1084 1085 1867
3 2028 1711 2353
3 1513 1426 1514
3 892 482 1840
3 852 638 1988
3 402 395 1877
3 738 737 845
3 413 412 418
3 1119 1353 1643
3 526 527 546
3 280 279 281
3 1731 1155 2123
3 1042 971 1127
3 1208 1447 1448
3 433 434 448
3 262 159 2304
3 184 1454 2303
3 1051 1052 1053
3 1816 1817 1818
3 1081 1417 1444
3 781 836 837
3 911 951 952
3 1090 1092 1102
3 202 168 1724
3 1085 1309 1310
3 408 407 412
3 1337 1538 1864
3 1515 1514 1516
3 530 529 890
3 1517 1518 1519
3 549 686 687
3 923 1088 1105
3 404 403 407
3 1835 1289 1836
3 1314 1367 2121
3 1380 1379 2416
3 670 671 769
3 899 808 1874
3 1040 903 1703
3 1596 1595 2154
3 1496 1495 1497
3 636 637 1741
3 1377 1638 2288
3 1288 1070 1289
3 1072 804 1981
3 1129 1334 1845
3 1865 1084 1866
3 792 922 1603
3 1253 1252 1254
3 981 1167 1792
3 1302 1301 1303
3 1641 1651 2019
3 952 953 1084
3 1813 1812 1869
3 732 730 733
3 975 1106 1107
3 1142 949 1770
3 981 1166 1167
3 840 841 842
3 451 466 467
3 1273 990 1274
3 1049 1050 1051
3 1473 2407 2505
3 968 966 1199
3 642 643 670
3 1310 1309 1311
3 422 419 435
3 1063 833 1082
3 919 782 920
3 911 891 951
3 1084 953 1085
3 1763 1764 2164
3 1498 1497 1682
3 515 550 1175
3 1079 937 1913
3 642 702 1862
3 845 737 1931
3 1394 1311 1395
3 1395 1521 1522
3 467 479 480
3 1755 1754 1793
3 1231 1230 1232
3 1557 1553 2030
3 1624 1691 2262
3 584 632 633
3 1094 1091 1969
3 708 709 710
3 1948 1627 2488
3 952 951 953
3 1102 1103 1104
3 1047 1048 1049
3 1310 1311 1394
3 1852 1099 1985
3 143 144 1717
3 813 812 891
3 1944 1044 1945
3 1105 1354 1355
3 1300 1302 1455
3 1914 936 1940
3 1415 1391 1710
3 1299 1027 1843
3 952 1084 1865
3 1695 1274 1696
3 776 774 1928
3 282 281 283
3 2003 1347 2279
3 1206 995 1499
3 1164 1685 1686
3 1551 1565 2030
3 969 1172 1919
3 633 668 669
3 734 733 735
3 1373 1372 1438
3 599 600 636
3 1431 1860 2487
3 1579 1577 1999
3 484 482 892
3 917 940 941
3 2144 1836 2169
3 1866 1084 1867
3 1110 1747 1748
3 998 1171 1811
3 1390 1120 1391
3 644 1824 2057
3 1362 1961 2048
3 944 1283 1825
3 1086 1027 1298
3 679 1780 1782
3 974 975 1879
3 507 506 518
3 1121 1079 1401
3 775 777 778
3 1965 762 2349
3 1045 1046 1047
3 1772 421 2106
3 16 17 2081
3 416 417 433
3 921 850 2125
3 1607 1855 1958
3 649 648 1848
3 1241 1240 1242
3 2012 1443 2251
3 926 928 1920
3 1487 1488 2025
3 1006 1191 1421
3 1355 1423 1424
3 1133 852 1988
3 591 592 1776
3 1299 1843 1857
3 1085 1308 1309
3 490 491 492
3 958 694 1575
3 1384 1216 1385
3 741 915 1878
3 1233 1232 1234
3 669 790 791
3 481 480 482
3 687 703 704
3 492 493 494
3 1634 1633 1922
3 1697 1696 1698
3 1721 985 1722
3 1839 1273 1892
3 772 735 773
3 488 486 489
3 950 1005 1006
3 1513 1514 1515
3 454 500 501
3 873 773 883
3 284 283 285
3 2185 1505 2442
3 959 883 1035
3 543 535 1897
3 1904 1384 2093
3 800 801 802
3 1037 1035 1215
3 1293 1964 1965
3 1239 1238 1240
3 943 1143 2125
3 1782 1784 1785
3 913 756 942
3 488 490 1884
3 1590 1749 2501
3 1235 1234 1236
3 791 856 1408
3 702 2015 2070
3 1108 1539 1540
3 1021 1023 1045
3 695 506 1828
3 1530 1528 1532
3 488 489 490
3 1621 1619 2161
3 704 705 706
3 1304 1303 1305
3 558 1704 2167
3 625 622 626
3 542 553 554
3 604 573 641
3 664 684 685
3 564 571 574
3 1108 1540 1879
3 1856 1427 2361
3 880 1025 1129
3 1395 1311 1521
3 1466 1465 1467
3 915 495 1884
3 1515 1516 1523
3 1237 1236 1238
3 606 648 649
3 999 920 1000
3 676 829 1043
3 2100 794 2142
3 227 151 1500
3 577 579 599
3 153 154 1671
3 1175 550 1927
3 1014 888 1015
3 286 285 287
3 1649 1280 2427
3 1725 204 2137
3 975 609 1106
3 1129 1317 1334
3 1109 1730 2426
3 1468 1467 1469
3 1131 1123 1399
3 1215 2235 2378
3 1976 1149 1989
3 397 395 398
3 746 743 1878
3 1041 1343 1598
3 975 1108 1879
3 741 495 915
3 1167 1754 1755
3 288 287 289
3 743 741 1878
3 1274 990 1931
3 1506 214 1507
3 857 1584 2277
3 2341 1522 2387
3 846 932 933
3 1107 1106 1110
3 584 633 1927
3 290 289 291
3 722 591 1776
3 1544 1094 1969
3 1135 270 1647
3 935 949 950
3 1920 1288 2080
3 754 1896 2108
3 1693 1199 2225
3 292 291 293
3 394 393 395
3 745 743 746
3 1002 942 1123
3 731 737 738
3 294 293 295
3 1018 1573 1925
3 296 295 297
3 298 297 299
3 321 322 325
3 317 320 321
3 314 315 317
3 312 313 314
3 310 311 312
3 308 309 310
3 1898 890 2275
3 306 307 308
3 304 305 306
3 1401 1079 1913
3 300 299 301
3 302 303 304
3 300 301 302
3 302 301 303
3 491 489 1936
3 298 299 300
3 304 303 305
3 306 305 307
3 308 307 309
3 310 309 311
3 312 311 313
3 314 313 315
3 317 315 320
3 321 320 322
3 1301 1299 1857
3 514 541 542
3 296 297 298
3 850 838 851
3 1310 1394 1895
3 294 295 296
3 590 605 606
3 292 293 294
3 651 657 658
3 290 291 292
3 1207 1208 1796
3 835 1976 1989
3 621 619 622
3 746 1878 1896
3 481 482 483
3 1026 847 1027
3 1335 1207 1870
3 1661 59 2266
3 727 729 1155
3 288 289 290
3 1058 776 1928
3 662 663 664
3 495 488 1884
3 1959 319 2522
3 943 851 944
3 1293 1291 1964
3 534 532 535
3 640 645 646
3 2280 1014 2385
3 286 287 288
3 591 575 592
3 521 519 529
3 13 14 2114
3 780 779 781
3 918 908 1850
3 837 836 838
3 209 148 1639
3 754 748 1896
3 745 746 747
3 769 671 770
3 929 1065 2197
3 1278 1058 1279
3 483 482 484
3 1564 1557 2030
3 633 807 1927
3 392 391 393
3 1057 1621 2161
3 569 580 581
3 284 285 286
3 876 992 1894
3 497 494 498
3 1630 1635 2041
3 982 1148 1918
3 612 611 613
3 700 634 1044
3 822 674 2099
3 880 1129 1929
3 432 439 654
3 1039 1291 1292
3 1164 1686 1989
3 1129 1025 1317
3 738 845 846
3 582 583 629
3 278 6 279
3 544 568 569
3 1701 1274 1931
3 747 749 751
3 1085 953 1308
3 928 930 1070
3 747 748 749
3 1421 1422 2415
3 902 903 904
3 1309 1308 1543
3 642 641 643
3 904 981 1792
3 646 784 785
3 536 543 544
3 1204 1205 1207
3 365 694 958
3 71 72 217
3 88 89 1901
3 87 88 193
3 101 102 189
3 85 86 242
3 99 100 241
3 74 75 192
3 91 92 219
3 94 95 191
3 83 84 220
3 97 98 221
3 77 78 218
3 80 81 194
3 89 90 245
3 62 63 244
3 60 61 188
3 64 65 223
3 67 68 190
3 90 91 1909
3 98 99 1905
3 61 62 1908
3 69 70 243
3 68 69 1907
3 70 71 1910
3 410 411 416
3 586 589 590
3 685 684 2029
3 390 389 391
3 1715 1150 1811
3 1924 1837 2215
3 282 283 284
3 496 497 1929
3 233 1671 1769
3 627 2185 2442
3 1567 1552 2062
3 629 630 812
3 424 453 454
3 583 562 1942
3 749 750 805
3 744 743 745
3 1897 535 1898
3 467 480 481
3 504 759 880
3 670 643 671
3 89 245 1901
3 193 88 1901
3 221 98 1905
3 245 90 1909
3 91 219 1909
3 62 244 1908
3 188 61 1908
3 99 241 1905
3 190 68 1907
3 71 217 1910
3 69 243 1907
3 243 70 1910
3 505 499 506
3 475 513 514
3 1945 1044 2071
3 1712 2125 2353
3 339 343 440
3 989 1360 1361
3 764 869 1152
3 778 777 779
3 1686 1685 1687
3 742 741 743
3 979 989 1886
3 729 731 1887
3 926 927 928
3 1305 1306 1307
3 1838 1278 2292
3 747 746 748
3 181 182 1652
3 1886 1361 2305
3 1595 1594 2486
3 597 596 598
3 928 1288 1920
3 1970 824 2156
3 1425 1424 1426
3 497 504 1929
3 748 746 1896
3 745 747 1900
3 998 858 1171
3 563 547 564
3 1155 729 1887
3 634 583 1942
3 1439 1173 1440
3 1026 1027 1086
3 79 80 1904
3 1533 1532 1536
3 1449 1426 1513
3 1106 609 1936
3 1318 1013 1319
3 1098 695 1828
3 492 494 496
3 750 748 754
3 731 738 1887
3 2415 1422 2516
3 533 562 582
3 988 1837 1924
3 1216 1215 1863
3 534 535 536
3 747 751 1900
3 1753 809 2119
3 1183 824 1970
3 740 495 741
3 80 194 1904
3 893 383 2087
3 655 605 1939
3 1884 2034 2082
3 1301 1857 1923
3 1307 1306 1708
3 752 745 1900
3 750 754 755
3 76 77 1903
3 2090 2347 2365
3 255 30 2159
3 132 254 2160
3 448 434 449
3 753 848 926
3 1075 1074 1327
3 487 488 495
3 377 381 647
3 483 484 485
3 755 754 2148
3 1584 1925 2277
3 1186 1183 1970
3 951 891 1281
3 485 484 486
3 546 527 547
3 133 134 1766
3 1786 1785 2409
3 280 281 282
3 460 449 461
3 744 745 752
3 77 218 1903
3 983 1918 2342
3 1708 1306 1810
3 1389 2069 2170
3 487 486 488
3 641 573 1954
3 507 518 519
3 502 461 503
3 519 518 1899
3 1202 1203 1204
3 821 897 1972
3 92 93 1902
3 521 529 530
3 749 748 750
3 2176 1380 2416
3 885 826 886
3 485 486 487
3 371 372 376
3 1289 1070 1871
3 1110 1657 1747
3 753 926 1943
3 700 1044 1944
3 880 881 1025
3 496 1845 2034
3 1072 1981 2393
3 462 464 2134
3 1949 1771 2359
3 1044 634 1942
3 550 584 1927
3 1390 1415 2118
3 526 503 527
3 990 845 1931
3 1009 1213 1214
3 740 742 1144
3 219 92 1902
3 727 1155 1899
3 369 370 371
3 623 690 2150
3 1279 1058 1928
3 1408 2235 2286
3 487 495 740
3 979 1886 2086
3 1305 1303 1306
3 421 412 1951
3 843 844 996
3 633 669 807
3 518 727 1899
3 826 825 1961
3 1657 1106 1936
3 1172 1012 1173
3 740 741 742
3 433 417 434
3 505 506 507
3 1333 1674 2437
3 742 743 744
3 469 458 470
3 1381 1380 1382
3 1293 1965 2515
3 1554 1559 2062
3 553 557 2499
3 1774 389 2339
3 497 498 499
3 483 485 576
3 740 1144 1935
3 773 735 834
3 366 367 369
3 1120 1118 1876
3 1515 1523 1574
3 1319 1013 2039
3 1303 1301 1923
3 457 447 458
3 561 593 594
3 1355 1424 1425
3 609 491 1936
3 204 1732 2137
3 791 1408 1642
3 995 944 1825
3 456 471 475
3 1692 1693 2239
3 580 1763 2164
3 1292 1293 2117
3 441 452 456
3 388 384 389
3 823 821 1972
3 504 880 1929
3 176 177 1680
3 1070 1071 1871
3 15 2260 2477
3 362 363 366
3 2178 2300 2449
3 1035 883 1036
3 2285 1563 2307
3 978 977 1074
3 1090 1102 2029
3 1810 1306 1923
3 496 494 497
3 1306 1303 1923
3 432 654 1915
3 934 933 935
3 356 355 365
3 398 403 404
3 635 701 843
3 1110 1106 1657
3 574 571 575
3 1025 881 1176
3 386 380 786
3 415 432 1915
3 343 347 1911
3 1070 930 1071
3 1688 1740 2231
3 1385 1216 1863
3 1696 1274 1701
3 1645 305 2317
3 880 759 881
3 926 848 927
3 1427 1423 2217
3 1339 1662 2388
3 770 774 775
3 1263 1257 1428
3 1337 1864 2412
3 349 348 355
3 2267 1721 2498
3 753 752 847
3 1375 1086 1473
3 900 982 983
3 332 335 739
3 429 428 430
3 744 752 753
3 1171 2132 2165
3 1425 1426 1449
3 987 641 1954
3 1883 1786 2409
3 427 426 428
3 928 927 930
3 1815 1105 2015
3 1206 1499 1941
3 410 406 411
3 573 540 1954
3 497 499 504
3 528 560 561
3 1933 1404 2399
3 1091 1089 1969
3 1804 1282 2073
3 504 505 759
3 963 924 1113
3 1711 1710 1712
3 881 759 1146
3 968 1199 1200
3 351 352 362
3 848 847 1026
3 521 530 531
3 1884 490 2034
3 1277 957 1966
3 1349 1350 2329
3 676 1043 2045
3 997 1159 1286
3 517 1889 1890
3 781 835 836
3 944 948 1283
3 722 1776 2026
3 507 519 520
3 2040 1352 2058
3 1276 957 1277
3 446 437 447
3 931 860 977
3 361 359 765
3 1248 1536 2534
3 512 523 528
3 408 412 413
3 1368 1369 1370
3 451 2169 2223
3 192 75 1994
3 942 756 2026
3 345 344 348
3 764 1152 1963
3 413 418 419
3 1286 1773 1774
3 770 671 774
3 275 549 2124
3 1497 1645 2461
3 1982 1472 2272
3 422 435 441
3 281 279 736
3 1134 270 1135
3 582 562 583
3 1421 2415 2454
3 485 487 1935
3 2300 1067 2480
3 1578 1576 1827
3 930 927 1061
3 1026 1086 1375
3 922 2259 2379
3 1391 1120 1876
3 1495 1494 2493
3 404 407 408
3 879 2178 2449
3 1700 1698 2036
3 607 1517 1520
3 753 847 848
3 416 411 417
3 1144 742 1943
3 775 776 777
3 754 2108 2148
3 1006 1421 1953
3 585 581 586
3 531 530 532
3 235 1709 1888
3 520 519 521
3 1180 1181 1349
3 1146 759 1967
3 708 710 1921
3 1350 2253 2329
3 436 430 437
3 504 499 505
3 643 641 987
3 336 330 517
3 811 1059 1149
3 1164 1411 1685
3 846 933 934
3 635 843 1960
3 983 982 1918
3 971 872 1096
3 1149 1163 1164
3 169 237 1724
3 1314 1315 1316
3 629 583 630
3 891 812 1916
3 462 463 464
3 487 740 1935
3 798 2084 2189
3 1814 1838 2292
3 1284 1489 1491
3 340 336 2014
3 1670 1461 2200
3 920 782 2057
3 890 2241 2275
3 510 511 512
3 278 279 280
3 839 802 840
3 1858 235 1888
3 1698 1696 2036
3 104 105 222
3 57 58 224
3 1185 1183 1186
3 588 587 623
3 638 600 1988
3 1282 1386 2245
3 811 776 1058
3 816 815 876
3 2034 1845 2082
3 761 636 1741
3 566 565 587
3 174 175 1725
3 347 350 351
3 1469 1495 1496
3 1059 1058 1278
3 811 1149 1976
3 576 485 1935
3 659 658 660
3 859 1153 1962
3 76 1903 1994
3 1821 1109 2426
3 1294 1038 1622
3 733 1833 2075
3 992 993 1980
3 1566 1561 2285
3 525 474 2041
3 464 465 510
3 343 346 347
3 360 893 1982
3 650 649 651
3 896 608 936
3 950 1006 1007
3 1508 1859 1860
3 539 538 565
3 440 343 1911
3 341 340 344
3 221 1905 1906
3 1297 1823 2142
3 759 505 1967
3 1295 1053 1296
3 473 470 474
3 1463 1465 1466
3 1143 1206 2028
3 799 685 800
3 1210 2077 2203
3 509 508 538
3 492 496 2034
3 1553 1551 2030
3 1260 1261 1269
3 1430 1040 1703
3 586 590 1940
3 838 836 868
3 1705 624 2276
3 1749 972 2501
3 742 744 1943
3 804 962 1981
3 1367 1368 2254
3 531 532 533
3 337 336 340
3 1157 1094 1544
3 536 544 1158
3 812 630 1960
3 781 779 835
3 56 57 1947
3 630 583 634
3 1405 1404 1932
3 1281 891 1916
3 339 342 343
3 1411 1163 1730
3 322 323 324
3 344 340 2091
3 1735 1734 1736
3 75 76 1994
3 430 682 2494
3 1907 243 2360
3 589 581 2164
3 694 355 2196
3 744 753 1943
3 775 774 776
3 1210 1430 2077
3 335 338 339
3 1102 1803 2029
3 1078 937 1079
3 870 655 1939
3 505 507 1967
3 357 360 1982
3 1896 1878 2101
3 326 325 328
3 934 935 957
3 585 608 895
3 333 330 336
3 1270 1272 1524
3 688 817 878
3 507 520 1967
3 1428 1257 2074
3 1818 1817 2000
3 896 937 1077
3 934 957 1111
3 329 328 330
3 1499 995 1825
3 944 851 948
3 387 445 462
3 1678 1161 2228
3 777 776 811
3 313 311 757
3 324 331 332
3 848 1026 1955
3 1312 998 1811
3 1321 1322 2037
3 1080 1079 1121
3 1105 1355 2015
3 1645 2317 2461
3 1559 1568 2062
3 332 334 335
3 501 500 508
3 321 325 326
3 394 395 397
3 322 320 323
3 1529 1530 2171
3 1137 797 1138
3 811 1058 1059
3 661 660 662
3 569 581 585
3 183 4 2303
3 5 160 2304
3 1340 1138 1341
3 1660 1626 2185
3 1743 1464 2347
3 1026 1375 1955
3 1149 1059 1163
3 1736 1625 2194
3 1322 1667 2434
3 311 309 1959
3 309 307 319
3 894 700 1944
3 533 534 562
3 1276 1277 1366
3 2190 1706 2408
3 533 532 534
3 1214 1213 1410
3 1164 1163 1411
3 843 701 844
3 1009 1214 2055
3 234 1589 1788
3 2000 1817 2174
3 317 321 2050
3 328 325 945
3 392 393 394
3 588 623 2089
3 1162 958 1681
3 1078 1080 1136
3 927 848 1955
3 1496 1497 1498
3 390 391 392
3 1061 927 1955
3 1283 948 1284
3 635 634 700
3 1244 1251 1252
3 218 78 2093
3 756 722 2026
3 1071 1784 2419
3 1218 1505 2185
3 1284 948 1285
3 1489 1285 1490
3 918 1850 1851
3 684 1090 2029
3 1759 572 2537
3 1691 1690 2446
3 1979 1158 2071
3 606 649 650
3 2045 1043 2046
3 103 104 2025
3 630 634 635
3 360 383 893
3 406 386 2043
3 1909 219 2023
3 1111 957 1276
3 1925 1437 2277
3 1536 2268 2340
3 854 852 1133
3 233 153 1671
3 651 658 659
3 2099 1787 2368
3 1033 1032 1130
3 1015 1372 1373
3 1412 942 2026
3 253 264 1441
3 1531 1534 2332
3 701 700 894
3 106 107 1990
3 2048 1961 2455
3 276 274 2099
3 738 846 1968
3 1325 925 1326
3 896 936 937
3 585 586 608
3 1450 854 1973
3 1361 1360 1362
3 1045 1668 2512
3 303 301 444
3 996 844 997
3 79 1904 2093
3 1989 1686 2095
3 1928 774 2033
3 1942 562 1979
3 287 285 316
3 935 950 1966
3 1466 1467 1468
3 1242 1243 1244
3 1887 738 1968
3 2115 210 2477
3 878 929 1083
3 1326 1736 2194
3 886 888 1014
3 895 608 896
3 289 287 1978
3 821 822 897
3 936 608 1940
3 613 614 615
3 51 52 1996
3 417 411 1160
3 1149 1164 1989
3 386 786 2043
3 285 283 1971
3 1309 1543 2147
3 375 373 2053
3 371 370 372
3 779 777 1976
3 1286 1159 1773
3 2177 887 2376
3 1560 1557 1564
3 1403 1882 2399
3 1727 1757 2246
3 279 6 2049
3 1619 1438 2438
3 291 289 758
3 1781 1915 2294
3 425 401 426
3 349 355 356
3 66 67 2118
3 474 548 2041
3 1686 1687 2007
3 1262 1456 1457
3 1123 942 1412
3 1916 812 1960
3 1355 1425 2015
3 735 733 2075
3 1861 879 2449
3 1284 1285 1489
3 490 492 2034
3 366 363 367
3 980 578 2051
3 906 904 1792
3 534 536 1979
3 842 924 963
3 2051 578 2083
3 1077 937 1078
3 1102 1104 1803
3 894 1944 1946
3 398 404 2060
3 1007 1006 1953
3 369 367 370
3 348 354 2196
3 1078 1079 1080
3 1378 1380 1381
3 1568 1365 2439
3 608 586 1940
3 598 610 611
3 760 636 761
3 869 1137 1351
3 671 643 2033
3 1661 1345 2267
3 938 914 1057
3 783 761 914
3 576 1835 2144
3 388 389 390
3 297 295 318
3 454 453 500
3 1906 1728 2246
3 1439 1440 2468
3 1159 1013 1318
3 764 797 869
3 236 143 1717
3 782 644 2057
3 592 595 596
3 1542 2332 2443
3 1521 1311 2147
3 345 348 349
3 1304 1452 2205
3 1644 1907 2360
3 2146 1125 2149
3 997 844 1013
3 628 375 2053
3 299 297 1984
3 957 935 1966
3 664 685 799
3 301 299 1975
3 362 352 363
3 777 811 1976
3 1942 1979 2071
3 1001 920 2057
3 312 314 768
3 1552 1554 2062
3 615 616 617
3 357 1982 2076
3 800 802 839
3 774 671 2033
3 1749 1169 2105
3 365 958 1162
3 617 618 619
3 283 281 1938
3 1351 1772 2414
3 1525 1765 2489
3 846 934 1968
3 635 700 701
3 555 554 577
3 536 1158 1979
3 1101 1404 1405
3 630 635 1960
3 1811 1150 2089
3 2113 1666 2249
3 172 173 1847
3 107 108 195
3 54 55 196
3 1191 1768 2023
3 1455 1302 2205
3 115 116 2017
3 1387 1333 2437
3 659 661 764
3 1080 1121 1188
3 50 51 2011
3 411 406 2043
3 295 293 1983
3 643 987 2033
3 707 706 708
3 129 130 261
3 32 33 260
3 2159 260 2265
3 449 434 567
3 1314 1029 1315
3 917 796 940
3 378 375 628
3 108 109 1991
3 2370 1759 2537
3 341 344 345
3 997 1013 1159
3 544 569 1993
3 950 1007 1966
3 477 474 525
3 351 350 352
3 1696 1701 2036
3 334 331 803
3 1137 1138 1340
3 562 534 1979
3 109 110 246
3 52 53 247
3 1368 1316 1369
3 659 660 661
3 33 34 2002
3 123 124 2005
3 835 779 1976
3 851 838 1992
3 1530 1533 2172
3 1668 1045 2348
3 1162 1681 1706
3 342 338 468
3 298 300 358
3 765 359 2065
3 725 826 885
3 35 36 2003
3 46 47 2019
3 38 39 2006
3 336 517 2014
3 934 1111 1968
3 116 117 2018
3 650 651 1963
3 223 1711 2162
3 640 594 645
3 1333 1330 2192
3 104 222 2025
3 1603 922 2379
3 963 1113 1115
3 2084 1193 2189
3 564 570 571
3 36 37 2004
3 57 224 1947
3 1542 1601 2269
3 122 123 2012
3 1000 920 1001
3 127 128 240
3 34 35 239
3 383 387 2087
3 1161 1107 2228
3 1781 2294 2419
3 1201 1200 1202
3 124 125 225
3 37 38 226
3 1340 1341 1342
3 869 797 1137
3 839 840 1008
3 1158 544 1993
3 1326 925 1894
3 352 350 353
3 326 329 954
3 1864 2344 2412
3 836 835 2095
3 1051 1053 1295
3 1031 720 1032
3 503 461 787
3 1407 1112 2044
3 661 662 2058
3 838 868 1992
3 112 113 197
3 49 50 198
3 1359 980 1413
3 121 122 211
3 40 41 212
3 48 49 2010
3 113 114 2009
3 1741 673 2131
3 41 42 2020
3 120 121 2013
3 1409 2035 2097
3 1511 1374 2506
3 114 115 248
3 47 48 249
3 42 43 250
3 119 120 251
3 171 6 201
3 6 172 203
3 585 895 1993
3 43 44 2024
3 118 119 2021
3 905 904 906
3 764 661 797
3 337 340 341
3 1413 980 2051
3 117 118 205
3 44 45 206
3 347 346 350
3 1420 1076 1525
3 324 323 331
3 434 417 2031
3 965 967 969
3 716 719 788
3 1260 1254 1261
3 2053 373 2103
3 2069 2068 2170
3 326 328 329
3 1706 996 2408
3 273 275 2124
3 969 1011 1012
3 590 606 2001
3 1718 1611 2280
3 1914 1940 2001
3 915 1884 2082
3 329 330 333
3 620 859 955
3 2168 1409 2305
3 296 298 1997
3 915 2082 2101
3 339 338 342
3 1218 994 1505
3 333 336 337
3 266 263 1742
3 1873 768 2127
3 244 63 2162
3 64 223 2162
3 343 342 346
3 914 761 2258
3 310 312 1987
3 799 800 2055
3 302 304 763
3 1559 1566 1568
3 1598 1343 2114
3 592 575 595
3 341 345 794
3 189 1842 2220
3 767 815 816
3 1003 912 1004
3 839 1008 1009
3 1263 1428 1429
3 564 547 570
3 1845 1334 2082
3 332 331 334
3 901 866 902
3 651 659 1963
3 1009 1112 1213
3 335 334 338
3 569 585 1993
3 1665 1336 2299
3 1945 2071 2153
3 863 862 864
3 907 906 908
3 1849 1486 1930
3 1935 1144 2080
3 967 966 968
3 809 900 2119
3 865 864 866
3 835 1989 2095
3 190 1907 2417
3 333 337 522
3 1110 1748 2228
3 1193 1194 1195
3 94 191 2166
3 473 1854 2453
3 1769 1134 2369
3 948 851 1992
3 237 170 2216
3 420 419 422
3 1448 1447 2364
3 483 576 2144
3 721 1919 2032
3 885 886 1891
3 613 611 614
3 886 1014 1891
3 1160 411 2043
3 1918 1283 2342
3 1651 206 2485
3 1242 1240 1243
3 598 596 610
3 1295 1296 1459
3 1185 1186 1948
3 1425 1449 2070
3 294 296 762
3 1285 948 1992
3 925 876 1894
3 712 714 789
3 603 1668 2398
3 1940 590 2001
3 721 570 964
3 834 735 2075
3 1144 1920 2080
3 2263 1635 2511
3 1204 1207 1335
3 2235 1408 2378
3 965 964 966
3 1990 1435 2218
3 397 398 2060
3 1138 797 2058
3 1787 1141 2368
3 2068 820 2170
3 360 359 361
3 387 462 2087
3 1524 1272 1934
3 819 698 820
3 1197 1196 1198
3 1662 2126 2388
3 78 79 2093
3 1150 588 2089
3 1269 1261 1270
3 1878 915 2101
3 451 467 2169
3 2262 1387 2437
3 1009 1008 1112
3 757 311 1959
3 897 898 1139
3 1854 473 2483
3 2015 1425 2070
3 2082 1334 2101
3 963 1115 1174
3 1047 1049 1287
3 1194 423 1196
3 321 326 2050
3 417 1160 2031
3 854 1133 1973
3 1201 1212 1348
3 705 1586 2163
3 309 319 1959
3 1353 1390 2417
3 427 428 429
3 357 356 359
3 606 650 2001
3 549 1280 2124
3 1213 1112 1407
3 256 2303 2535
3 356 365 2065
3 662 664 2040
3 701 894 2039
3 1325 1371 2451
3 666 626 667
3 1902 93 2166
3 1236 1234 1246
3 800 839 2055
3 1869 1812 2252
3 1197 1364 1365
3 576 1935 2080
3 404 408 798
3 1678 807 2529
3 1560 1564 2016
3 1319 2039 2122
3 425 426 427
3 349 356 357
3 308 310 327
3 1716 622 2484
3 1801 82 2289
3 1768 1949 2420
3 2006 1926 2507
3 351 364 2407
3 420 423 1193
3 659 764 1963
3 292 294 2038
3 840 842 2027
3 736 279 2049
3 372 373 374
3 461 449 2052
3 2189 1195 2285
3 1174 1115 1398
3 367 363 961
3 909 908 918
3 1738 247 2402
3 1007 1761 2308
3 288 290 2135
3 422 441 2035
3 623 624 690
3 537 525 545
3 1953 1421 2454
3 1887 1968 2123
3 861 691 862
3 654 439 2223
3 1136 1080 2054
3 1312 1811 2089
3 575 571 2032
3 383 361 384
3 968 1200 1201
3 797 661 2058
3 1423 1354 2381
3 1180 1178 1181
3 1513 1515 2180
3 72 73 2217
3 462 445 463
3 12 13 2136
3 457 458 469
3 542 554 555
3 599 636 760
3 254 133 1766
3 1130 1397 1937
3 404 798 2060
3 1044 1942 2071
3 690 691 860
3 357 359 360
3 1008 2027 2152
3 1232 1230 1255
3 372 370 373
3 850 943 2125
3 1457 1456 1492
3 1952 324 2282
3 155 2 2356
3 0 7 2357
3 2017 1379 2288
3 918 1851 2008
3 195 1991 2517
3 2090 803 2347
3 1244 1243 1251
3 290 292 368
3 1432 1082 2214
3 1008 840 2027
3 1743 803 2296
3 1013 844 2039
3 365 1162 2065
3 1594 1315 2184
3 387 384 388
3 1508 1860 2311
3 547 527 2056
3 2005 225 2322
3 314 317 2127
3 1853 556 2327
3 201 6 278
3 1907 1644 2417
3 1896 2101 2108
3 646 645 784
3 538 508 558
3 374 375 377
3 1630 1634 1635
3 1579 1999 2352
3 1647 1648 1849
3 1313 1314 2121
3 1179 1433 2042
3 844 701 2039
3 1252 1251 2098
3 816 876 925
3 1922 1228 2281
3 392 394 396
3 1915 654 2294
3 1652 1653 2487
3 429 430 436
3 456 475 476
3 1605 1392 2510
3 126 1882 2284
3 1784 1780 2419
3 500 453 960
3 377 378 381
3 2178 1587 2300
3 1222 1219 1626
3 413 419 420
3 381 382 400
3 2169 1836 2223
3 1906 1905 2129
3 616 614 793
3 1170 1419 2139
3 101 189 2220
3 241 100 2220
3 1968 1111 2123
3 567 434 2031
3 615 614 616
3 1032 720 1921
3 682 428 2138
3 469 470 473
3 339 440 2261
3 1501 238 2226
3 1154 1431 1653
3 446 447 457
3 1251 1243 1257
3 2229 315 2495
3 1201 1202 1212
3 785 784 879
3 464 463 465
3 66 2118 2395
3 324 332 2282
3 286 288 771
3 17 199 2081
3 571 570 721
3 611 610 2092
3 617 616 618
3 1542 1531 2332
3 400 401 424
3 1325 1326 1371
3 1140 1406 1702
3 1323 443 2302
3 1926 1573 2507
3 436 437 446
3 1262 1457 2098
3 67 190 2118
3 1518 1861 2449
3 989 1359 1360
3 1063 1082 1154
3 1757 96 2526
3 969 967 1011
3 868 836 2095
3 1215 1035 2235
3 96 1757 2309
3 261 2160 2380
3 1381 1382 2126
3 1468 1469 2182
3 1334 1317 2108
3 861 863 1064
3 1270 1261 1271
3 360 361 383
3 287 316 1978
3 1856 192 2367
3 1905 241 2129
3 1615 1809 2425
3 528 523 560
3 979 980 989
3 662 2040 2058
3 721 964 965
3 170 171 2216
3 664 799 2040
3 512 511 523
3 1201 1348 2107
3 620 618 858
3 758 289 1978
3 859 858 998
3 424 425 453
3 1616 1615 2193
3 444 301 1975
3 561 560 593
3 965 966 967
3 1798 376 2430
3 340 2014 2091
3 510 465 511
3 107 195 1990
3 1080 1188 2054
3 1153 998 1312
3 1226 1224 1249
3 1012 1011 1363
3 902 904 905
3 842 963 2027
3 268 270 1134
3 865 901 1125
3 2077 558 2102
3 282 284 442
3 1977 1679 2253
3 1496 1498 2047
3 284 286 2063
3 281 736 1938
3 2132 793 2165
3 1674 215 2437
3 2078 1855 2411
3 839 1009 2055
3 1182 824 1183
3 1168 947 1169
3 1289 1871 2242
3 316 285 1971
3 1270 1271 1272
3 1755 1793 2264
3 51 1996 2011
3 383 384 387
3 1146 1924 2215
3 1279 1928 2202
3 619 618 620
3 1194 1196 1197
3 555 578 979
3 1937 1639 2528
3 1262 1257 1263
3 389 384 2339
3 2251 1338 2464
3 1155 1887 2123
3 1151 1937 2528
3 465 463 828
3 1318 1319 2116
3 1687 1688 2231
3 326 954 2050
3 297 318 1984
3 1308 953 2255
3 1846 2056 2198
3 320 315 2229
3 1254 1252 2059
3 760 761 783
3 951 1281 2255
3 1459 1296 2094
3 2288 1638 2470
3 1975 299 1984
3 52 247 1996
3 468 338 2090
3 2140 1511 2506
3 1125 1126 1192
3 593 824 1182
3 720 708 1921
3 704 706 707
3 623 587 624
3 2044 1112 2152
3 1393 1169 1749
3 900 983 2119
3 783 914 938
3 255 2265 2489
3 2039 894 2122
3 317 2050 2127
3 1866 1867 2513
3 374 373 375
3 429 436 455
3 387 388 445
3 1193 423 1194
3 555 577 578
3 1074 977 1187
3 449 567 2052
3 1197 1198 1364
3 2154 1595 2486
3 1486 1849 2173
3 318 295 1983
3 939 1016 1844
3 131 132 2160
3 30 31 2159
3 881 1146 2215
3 1294 1868 2238
3 1300 1455 2314
3 1365 1364 1912
3 783 938 939
3 2061 1735 2441
3 551 545 601
3 2194 216 2536
3 1251 1257 1262
3 888 887 2177
3 1364 1198 2048
3 1498 1682 2340
3 1589 1590 2501
3 60 188 2266
3 1401 1913 2324
3 195 108 1991
3 420 422 423
3 1675 1470 2474
3 258 1673 2183
3 2161 1619 2438
3 1296 1472 2094
3 1808 1910 2381
3 334 803 2090
3 1490 1285 2232
3 523 511 524
3 1240 1238 2074
3 1184 1183 1185
3 39 40 2151
3 473 474 477
3 1461 1463 2200
3 2072 353 2073
3 861 862 863
3 1206 1941 2401
3 958 1575 2287
3 614 611 2092
3 110 111 2140
3 1136 2054 2110
3 645 594 2133
3 260 33 2002
3 673 767 2131
3 989 980 1359
3 1741 2131 2258
3 1317 1875 2148
3 894 1946 2122
3 863 864 865
3 787 461 2052
3 857 2277 2386
3 109 246 1991
3 2017 116 2018
3 1182 1183 1184
3 377 375 378
3 816 925 1324
3 865 866 901
3 1262 1263 1456
3 359 356 2065
3 2129 241 2472
3 283 1938 1971
3 1458 1210 2203
3 1076 1003 2145
3 196 1738 2402
3 1033 1130 1151
3 1188 1121 2106
3 1140 1702 2096
3 549 687 1280
3 1694 1621 2191
3 861 1064 2112
3 1548 1549 2129
3 1784 1071 2462
3 714 716 2066
3 1961 825 2455
3 1447 1211 2250
3 979 578 980
3 905 907 1209
3 381 378 382
3 457 469 552
3 595 575 2032
3 408 413 2084
3 481 483 2144
3 1745 1349 2293
3 1980 1405 2441
3 198 50 2011
3 248 115 2017
3 912 819 2068
3 620 858 859
3 707 708 720
3 821 674 822
3 514 542 2086
3 400 382 401
3 123 2005 2012
3 1772 1351 2374
3 34 239 2002
3 768 314 2127
3 2003 36 2004
3 280 282 2079
3 124 225 2005
3 596 595 2130
3 593 560 824
3 1504 1502 2519
3 239 35 2003
3 1311 1309 2147
3 1318 1877 2240
3 1860 1432 2311
3 1416 1715 2330
3 859 998 1153
3 352 353 2072
3 312 768 1987
3 2027 1174 2152
3 226 38 2006
3 1827 1024 2117
3 1710 1391 2295
3 690 624 691
3 37 226 2004
3 1153 1312 1885
3 853 855 2186
3 1892 242 2373
3 1967 520 2174
3 939 938 1016
3 47 249 2019
3 388 390 2078
3 1991 2139 2517
3 905 906 907
3 571 721 2032
3 1196 423 2035
3 1324 925 1325
3 1151 1130 1937
3 363 352 2072
3 345 349 2076
3 1031 1032 1033
3 214 179 1859
3 211 122 2012
3 602 601 652
3 117 205 2018
3 710 712 2067
3 1602 187 2357
3 520 2000 2174
3 85 242 2335
3 220 84 2335
3 381 400 2113
3 1586 1587 2435
3 424 401 425
3 963 1174 2027
3 860 691 861
3 610 596 2130
3 1958 2078 2431
3 570 547 2056
3 237 2216 2354
3 1211 1692 2219
3 298 358 1997
3 909 947 1041
3 441 456 2097
3 1135 1647 1849
3 1601 1542 2443
3 197 113 2009
3 49 198 2010
3 1911 347 2407
3 1729 191 2309
3 212 41 2020
3 121 211 2013
3 222 105 2218
3 1125 901 1126
3 114 248 2009
3 249 48 2010
3 42 250 2020
3 251 120 2013
3 233 1769 2369
3 1870 647 2113
3 794 345 2076
3 250 43 2024
3 119 251 2021
3 901 902 2141
3 964 570 2056
3 739 335 2261
3 2108 1317 2148
3 577 599 2083
3 205 118 2021
3 44 206 2024
3 1247 1241 2323
3 1894 992 2244
3 6 203 2049
3 1642 1678 2529
3 1417 1873 2333
3 1422 2023 2516
3 341 794 2100
3 73 74 2361
3 1234 1232 2088
3 1261 1254 2059
3 896 1077 2257
3 1921 710 2067
3 125 126 2284
3 220 1699 2289
3 159 5 2304
3 4 184 2303
3 2059 1252 2098
3 1003 1004 2145
3 2328 1325 2451
3 1486 227 1500
3 63 64 2162
3 2081 1192 2260
3 508 500 2102
3 667 1872 2318
3 338 334 2090
3 423 422 2035
3 1192 1126 1471
3 907 908 909
3 1330 1328 2192
3 1972 897 2500
3 2443 316 2514
3 242 86 2373
3 87 193 2373
3 420 1193 2084
3 1473 1086 2358
3 1987 768 2037
3 522 337 2100
3 627 1660 2185
3 1793 446 2264
3 1405 2061 2441
3 1502 1217 2302
3 171 201 2216
3 1158 1993 2153
3 1197 1365 2120
3 1712 1710 2295
3 1121 1401 2414
3 93 94 2166
3 653 652 688
3 622 1716 2452
3 1345 1720 2267
3 477 537 556
3 128 129 2181
3 2331 1295 2458
3 784 645 874
3 1269 1270 2199
3 189 102 2355
3 1041 1168 1343
3 246 110 2140
3 477 525 537
3 755 1895 2371
3 1947 1723 2313
3 1134 1135 2369
3 223 65 2395
3 968 1201 2107
3 1577 1578 2325
3 210 15 2477
3 961 363 2072
3 1581 1579 2352
3 349 357 2076
3 337 341 2100
3 305 303 2317
3 370 367 2103
3 762 296 1997
3 581 580 2164
3 1278 1838 2372
3 1548 2129 2472
3 594 593 2133
3 2021 251 2022
3 2047 1247 2182
3 967 968 2107
3 1169 947 2008
3 481 2144 2169
3 793 614 2092
3 1910 217 2381
3 1251 1262 2098
3 716 788 2066
3 2101 1334 2108
3 2006 39 2151
3 1603 2379 2508
3 1926 2006 2151
3 96 97 2526
3 750 755 2371
3 789 714 2066
3 909 918 947
3 1993 895 2153
3 106 1990 2218
3 1243 1240 2074
3 832 986 1189
3 1283 1284 2342
3 2297 195 2517
3 1043 829 2326
3 767 816 2131
3 602 653 676
3 1004 912 2068
3 2086 1886 2224
3 1124 2177 2467
3 426 401 2531
3 707 720 1030
3 1000 1001 2184
3 1315 1029 2184
3 467 481 2169
3 541 513 2256
3 647 381 2113
3 225 2284 2510
3 2 156 2356
3 187 0 2357
3 40 212 2151
3 2245 1386 2383
3 676 677 829
3 1004 2068 2069
3 1860 232 2487
3 1031 1033 1034
3 829 830 972
3 996 997 2408
3 1195 1194 2120
3 987 1869 2202
3 1410 1213 2222
3 819 820 2068
3 1485 1486 2173
3 1564 2030 2155
3 807 669 2529
3 129 261 2181
3 1525 1076 2145
3 578 577 2083
3 327 310 1987
3 1083 929 2197
3 2131 1324 2258
3 798 408 2084
3 1838 696 2426
3 1486 1500 1930
3 1946 1944 2291
3 2257 1077 2291
3 1512 1661 2266
3 445 388 2078
3 1192 1471 2260
3 2118 1415 2395
3 1466 1468 2158
3 830 677 831
3 211 2012 2251
3 652 601 2442
3 537 545 551
3 558 508 2102
3 198 2011 2128
3 1718 2280 2385
3 500 960 2102
3 1168 1169 1393
3 1127 971 2496
3 95 96 2309
3 2030 1565 2155
3 1919 1172 2273
3 977 860 2112
3 240 128 2181
3 294 762 2038
3 1800 1799 2195
3 712 789 2067
3 972 1749 2326
3 472 1683 2212
3 874 645 2133
3 551 2045 2201
3 2105 1043 2326
3 1957 1212 2301
3 1514 1856 2367
3 565 538 2167
3 373 370 2103
3 355 348 2196
3 1934 1272 2138
3 1934 426 2531
3 1881 1400 2481
3 2046 1851 2327
3 367 961 2103
3 1963 1152 2206
3 201 278 443
3 3 131 2444
3 31 1 2445
3 2035 441 2097
3 503 787 2198
3 1135 1849 1930
3 1534 1983 2306
3 2089 623 2150
3 687 704 2109
3 869 1351 2363
3 1302 1304 2205
3 955 1716 2484
3 1030 720 1031
3 1159 1318 2240
3 1228 1226 2281
3 947 918 2008
3 413 420 2084
3 785 879 2532
3 1041 947 1168
3 1468 2182 2323
3 1246 1234 2088
3 1730 1163 2372
3 542 555 2086
3 1599 631 2312
3 1146 1967 2174
3 1078 1136 2343
3 1515 1574 2180
3 2336 885 2469
3 1257 1243 2074
3 1347 1346 2279
3 2001 650 2206
3 1480 1601 2514
3 1029 1000 2184
3 1956 788 2336
3 1271 1261 2059
3 130 3 2444
3 1 32 2445
3 1570 1507 2197
3 1232 1255 2088
3 791 1642 2529
3 1601 1479 2269
3 1361 1362 2168
3 1634 1922 2281
3 765 2065 2190
3 2071 1158 2153
3 1699 1801 2289
3 832 831 833
3 1864 346 2344
3 456 476 2097
3 1855 828 2411
3 2065 1162 2190
3 1125 1192 2149
3 599 760 2083
3 361 765 2339
3 1731 2123 2241
3 1349 1181 1350
3 1443 1275 2251
3 1819 524 2429
3 1021 1045 2512
3 858 618 2132
3 1999 358 2338
3 368 292 2038
3 290 368 2135
3 803 331 2296
3 1112 1008 2152
3 56 1947 2313
3 555 979 2086
3 1469 1496 2182
3 1011 967 2107
3 248 2017 2288
3 1809 789 2425
3 960 453 2221
3 538 558 2167
3 1858 1187 2248
3 2246 1757 2526
3 902 905 2141
3 1851 1853 2327
3 1224 1222 2111
3 771 288 2135
3 1945 2153 2257
3 1420 1525 2489
3 1399 1123 2393
3 103 2025 2355
3 897 822 898
3 1861 940 2532
3 865 1125 2146
3 1675 2474 2522
3 1573 2157 2507
3 1632 1631 2382
3 551 601 602
3 527 503 2198
3 1708 805 2337
3 1059 1278 2372
3 2056 527 2198
3 860 861 2112
3 1668 2348 2398
3 255 2159 2265
3 1541 1542 2269
3 1428 2074 2227
3 1582 1583 2321
3 389 1774 2503
3 2004 226 2157
3 1777 397 2405
3 1368 1436 2254
3 1061 2409 2462
3 1071 930 2462
3 1126 901 2141
3 1194 1197 2120
3 1452 1952 2282
3 2116 1319 2482
3 105 106 2218
3 1981 1399 2393
3 2119 983 2143
3 444 1682 2461
3 2173 1648 2463
3 616 793 2132
3 1791 1190 2334
3 1826 1728 2259
3 602 652 653
3 1834 1292 2428
3 556 2201 2327
3 1014 1015 2385
3 1995 1287 2331
3 1193 1195 2189
3 816 1324 2131
3 879 1861 2532
3 593 1182 2133
3 1402 266 1742
3 2216 1323 2354
3 1660 1636 2502
3 620 955 2484
3 1162 1706 2190
3 1870 2113 2249
3 204 1680 1732
3 1909 2023 2420
3 217 72 2217
3 376 372 2430
3 905 1209 2141
3 1378 1381 2283
3 1236 1246 2227
3 286 771 2063
3 1635 2263 2502
3 100 101 2220
3 1139 898 1140
3 2114 1343 2136
3 442 284 2063
3 1772 2106 2414
3 1985 1755 2533
3 2192 1328 2315
3 1064 863 2146
3 1631 1637 2459
3 736 2049 2523
3 221 1906 2246
3 318 1983 2171
3 1496 2047 2182
3 1374 2139 2506
3 196 55 2313
3 2087 462 2134
3 676 653 677
3 2304 257 2491
3 1401 2324 2363
3 829 677 830
3 654 2223 2242
3 1187 977 2112
3 1463 1466 2200
3 2023 219 2516
3 1176 881 2215
3 513 471 2290
3 1812 459 2252
3 1386 1269 2199
3 291 758 2306
3 618 616 2132
3 278 280 2210
3 83 220 2289
3 82 83 2289
3 938 1057 2161
3 1189 986 1190
3 788 719 2336
3 1914 2001 2206
3 232 181 1652
3 1567 2062 2490
3 313 757 2495
3 622 619 2484
3 688 878 1320
3 1222 1626 2111
3 282 442 2079
3 1169 2008 2105
3 1966 1007 2308
3 2040 799 2237
3 1744 2229 2495
3 986 833 1063
3 2284 1605 2510
3 887 1961 2376
3 215 1624 2262
3 830 831 832
3 476 475 2224
3 439 451 2223
3 1932 1933 2380
3 2227 1246 2366
3 1212 1202 2301
3 1107 1110 2228
3 249 2010 2299
3 1983 293 2306
3 2055 1214 2237
3 1438 1372 2478
3 824 560 2156
3 2320 1866 2513
3 1351 1137 2374
3 868 2007 2232
3 2063 771 2064
3 1507 214 1508
3 1728 1727 2246
3 1045 1047 2348
3 1139 1140 2096
3 1648 1649 2463
3 1502 2302 2519
3 704 707 2109
3 2343 1136 2396
3 650 1963 2206
3 2153 895 2257
3 396 1958 2431
3 1379 1377 2288
3 2115 1471 2319
3 2033 987 2202
3 2239 1693 2518
3 2025 1488 2355
3 1209 2115 2319
3 523 524 2156
3 783 939 2243
3 376 1798 2497
3 2066 788 2193
3 1984 318 2172
3 425 427 2221
3 203 172 1847
3 446 457 2264
3 1312 2089 2150
3 2138 1272 2211
3 897 1139 2274
3 828 1819 2429
3 1249 1224 2111
3 666 667 2318
3 1371 1326 2194
3 2433 1499 2475
3 1272 1271 2211
3 1367 2254 2479
3 1386 2053 2383
3 2074 1238 2227
3 755 2148 2320
3 2117 1604 2428
3 475 514 2224
3 228 2187 2457
3 1868 1504 2520
3 1626 1218 2185
3 2123 1111 2241
3 1287 1049 2331
3 1280 687 2109
3 459 1814 2292
3 54 196 2402
3 863 865 2146
3 204 176 1680
3 514 2086 2224
3 1646 603 2398
3 112 197 2346
3 358 300 2338
3 1140 898 1141
3 1204 1335 2301
3 1016 2161 2438
3 909 1041 2175
3 1681 2448 2492
3 2252 459 2292
3 1992 868 2232
3 1035 1036 2235
3 1051 1295 2331
3 1836 1289 2242
3 1508 214 1859
3 247 53 2402
3 1016 938 2161
3 1408 856 2378
3 1466 2158 2200
3 725 885 2336
3 855 1450 2421
3 2023 1768 2420
3 1238 1236 2227
3 1679 202 2253
3 2107 1348 2233
3 1653 1431 2487
3 1946 2291 2343
3 2253 202 2329
3 1885 1312 2150
3 378 628 2390
3 2195 1383 2432
3 1520 1519 2480
3 1532 1733 2534
3 308 327 2278
3 953 951 2255
3 1213 1407 2222
3 1561 1563 2285
3 302 763 2338
3 1928 2033 2202
3 763 304 2345
3 832 833 986
3 1352 2040 2237
3 247 1881 2481
3 560 523 2156
3 335 339 2261
3 346 342 2344
3 201 443 1323
3 2301 1335 2466
3 323 320 2229
3 1136 2110 2396
3 1139 1977 2274
3 1809 1615 2423
3 1707 1791 2334
3 46 2019 2485
3 2064 1294 2238
3 1950 197 2404
3 2021 2022 2176
3 1949 245 2420
3 2044 2152 2207
3 1063 1154 1707
3 1012 1363 2406
3 280 2079 2210
3 2237 1214 2351
3 820 698 2318
3 1140 1141 1406
3 205 2021 2176
3 2043 786 2310
3 2145 1004 2446
3 707 1030 2109
3 1406 2460 2473
3 2137 1268 2226
3 16 2081 2260
3 567 2031 2219
3 2112 1064 2248
3 206 45 2485
3 2347 1462 2365
3 1650 1962 2362
3 453 425 2221
3 1209 907 2175
3 1111 1276 2241
3 2448 1145 2492
3 2051 2083 2243
3 59 60 2266
3 1402 1742 2530
3 831 677 2209
3 624 587 2276
3 238 174 1725
3 1011 2107 2233
3 468 2365 2412
3 2337 805 2371
3 254 1932 2380
3 1174 1398 2207
3 2140 111 2346
3 1381 2186 2283
3 1987 2037 2188
3 1740 559 2456
3 1773 391 2503
3 1335 1870 2249
3 1945 2257 2291
3 828 463 2411
3 1246 2088 2208
3 2060 798 2307
3 1773 1159 2240
3 1187 2112 2248
3 1352 2237 2351
3 2037 1322 2188
3 1941 1499 2433
3 2322 225 2510
3 1031 1034 2236
3 327 2188 2321
3 595 2032 2273
3 1464 1462 2347
3 1285 1992 2232
3 799 2055 2237
3 443 278 2210
3 784 874 2178
3 392 396 2431
3 191 95 2309
3 879 784 2178
3 524 511 2429
3 2128 2011 2270
3 895 896 2257
3 2206 1152 2324
3 318 2171 2172
3 2259 1549 2379
3 1214 1410 2351
3 306 308 2278
3 2022 251 2247
3 1757 1729 2309
3 1283 1918 2524
3 996 1706 2492
3 557 2044 2207
3 1798 1448 2364
3 1447 2250 2310
3 559 1750 2403
3 1363 1011 2233
3 1343 1168 2187
3 1407 2044 2256
3 1462 1460 2365
3 1995 2331 2458
3 327 1987 2188
3 2160 254 2380
3 1681 958 2287
3 2031 1160 2250
3 1600 689 2413
3 2219 1692 2239
3 1494 1675 2522
3 1281 1916 2448
3 907 909 2175
3 565 2167 2276
3 2241 1276 2275
3 1978 316 2443
3 2151 212 2350
3 203 1847 2104
3 2049 1481 2523
3 1961 1362 2376
3 2187 1393 2457
3 940 796 2532
3 2293 1349 2329
3 572 1897 2537
3 332 739 2282
3 2052 567 2239
3 1437 1370 2277
3 567 2219 2239
3 667 626 2452
3 1914 2206 2324
3 2243 939 2392
3 2136 1343 2187
3 257 1654 2530
3 1376 1378 2283
3 2076 1982 2272
3 2083 760 2243
3 1944 1945 2291
3 1771 1839 2359
3 1404 1403 2399
3 1875 1866 2320
3 1460 1337 2412
3 760 783 2243
3 1276 1366 2275
3 1428 2227 2366
3 1882 1605 2284
3 1739 1429 2459
3 2321 2188 2434
3 1328 1327 2315
3 798 2189 2307
3 2152 1174 2207
3 2182 1247 2323
3 1516 1514 2367
3 293 291 2306
3 556 537 2201
3 1298 1300 2314
3 1400 1399 2316
3 1649 2236 2463
3 833 831 2424
3 2127 2050 2333
3 1057 914 2328
3 1839 193 2359
3 761 1741 2258
3 1186 1970 2422
3 1429 2366 2382
3 2211 1271 2271
3 1733 1248 2534
3 13 2114 2136
3 2078 390 2431
3 1533 1536 2340
3 1690 2145 2446
3 1277 2308 2370
3 1168 1393 2187
3 1597 2047 2268
3 587 565 2276
3 1908 244 2401
3 225 125 2284
3 610 2130 2468
3 1749 2105 2326
3 1913 1914 2324
3 2366 2208 2382
3 1391 1876 2295
3 457 552 2264
3 653 688 2209
3 1601 2443 2514
3 682 2138 2211
3 992 1980 2244
3 55 56 2313
3 1645 1495 2493
3 473 477 2483
3 202 1724 2329
3 465 828 2429
3 1277 1966 2308
3 1416 2330 2406
3 1912 1364 2455
3 1716 1483 2375
3 2019 1651 2485
3 1725 2137 2226
3 201 1323 2216
3 878 1083 2213
3 2072 2073 2245
3 1563 1777 2405
3 244 2028 2401
3 2016 1564 2422
3 1682 1497 2461
3 1962 1153 2362
3 1298 2314 2358
3 1384 1385 2391
3 688 1320 2209
3 1587 2179 2435
3 786 380 2497
3 1395 1522 2341
3 2032 1919 2273
3 251 2013 2247
3 2219 2031 2250
3 2397 552 2453
3 1765 255 2489
3 2475 1825 2524
3 1202 1204 2301
3 445 2078 2411
3 323 2229 2296
3 1286 2384 2408
3 537 551 2201
3 1724 237 2293
3 84 85 2335
3 1471 1126 2319
3 1635 1634 2511
3 300 302 2338
3 698 666 2318
3 1030 1031 2236
3 2098 1457 2271
3 696 1821 2426
3 1457 1492 2447
3 1956 2336 2469
3 331 323 2296
3 1284 1491 2342
3 2011 1996 2270
3 256 183 2303
3 160 257 2304
3 2204 1589 2501
3 1891 1014 2280
3 719 725 2336
3 1354 1808 2381
3 437 430 2494
3 2377 218 2391
3 2211 2271 2447
3 1407 2256 2290
3 2365 1460 2412
3 2047 1498 2268
3 1825 1283 2524
3 1499 1825 2475
3 1226 1249 2281
3 2051 2243 2392
3 2250 1160 2310
3 111 112 2346
3 304 306 2345
3 1341 1352 2351
3 2166 191 2504
3 2223 1836 2242
3 1996 247 2481
3 1049 1051 2331
3 1086 1298 2358
3 2130 595 2273
3 1249 2111 2263
3 680 1995 2458
3 1511 2140 2346
3 102 103 2355
3 469 473 2453
3 961 2072 2245
3 2073 1282 2245
3 1442 1443 2525
3 74 192 2361
3 2163 1586 2435
3 1519 1518 2449
3 897 2274 2500
3 303 444 2317
3 1615 1614 2423
3 197 2009 2404
3 1634 2281 2511
3 1780 1781 2419
3 1435 1623 2465
3 1286 1774 2384
3 384 361 2339
3 193 1901 2359
3 1165 2433 2475
3 2277 1370 2386
3 677 653 2209
3 1994 1516 2367
3 1479 1478 2440
3 1165 1512 2433
3 1644 1353 2417
3 1711 1712 2353
3 2193 1615 2425
3 1613 1956 2469
3 1440 1173 2330
3 2269 1479 2440
3 222 2218 2465
3 391 389 2503
3 306 2278 2345
3 468 2090 2365
3 221 2246 2526
3 1445 1446 2504
3 939 1844 2392
3 86 87 2373
3 1429 1428 2366
3 2053 2103 2383
3 1348 1212 2312
3 805 750 2371
3 997 1286 2408
3 1152 869 2363
3 2063 2064 2238
3 192 1994 2367
3 1160 2043 2310
3 1926 2151 2350
3 2059 2098 2271
3 1897 1366 2537
3 215 2262 2437
3 1655 1732 2476
3 2415 1128 2454
3 1320 2213 2214
3 7 258 2357
3 259 155 2356
3 2171 1530 2172
3 347 351 2407
3 1077 1078 2343
3 239 2003 2279
3 1446 1128 2415
3 1034 1033 2410
3 601 627 2442
3 1154 1653 2234
3 397 2060 2405
3 2142 794 2272
3 442 2063 2238
3 1863 1215 2378
3 794 2076 2272
3 1883 1375 2505
3 1320 878 2213
3 342 468 2344
3 1903 218 2377
3 380 376 2497
3 1549 1547 2379
3 1148 1165 2475
3 2157 226 2507
3 829 972 2326
3 884 1957 2466
3 2291 1077 2343
3 65 66 2395
3 787 2052 2518
3 2298 1348 2312
3 1946 2343 2396
3 1653 256 2535
3 1842 1548 2472
3 1957 2301 2466
3 1366 1277 2370
3 2213 1432 2214
3 961 2245 2383
3 218 2093 2391
3 1376 2283 2421
3 1873 2127 2333
3 1019 1021 2512
3 1128 1127 2454
3 1104 1434 2450
3 2130 1439 2468
3 2396 2110 2482
3 2186 855 2283
3 1724 2293 2329
3 1163 1059 2372
3 1614 2389 2423
3 53 54 2402
3 1063 1707 2334
3 2283 855 2421
3 1385 1863 2436
3 364 1883 2505
3 517 1890 2387
3 1145 996 2492
3 1047 1287 2348
3 2148 1875 2320
3 205 2176 2416
3 1372 1844 2478
3 1211 2219 2250
3 1141 898 2368
3 245 1909 2420
3 2278 327 2321
3 2389 1397 2423
3 2256 513 2290
3 559 2403 2456
3 1137 1340 2374
3 2093 1384 2391
3 1918 1148 2524
3 1030 2236 2427
3 1867 1895 2513
3 2014 517 2387
3 2271 1457 2447
3 1143 2028 2353
3 1904 194 2432
3 1148 2475 2524
3 1574 1523 2436
3 2213 1083 2311
3 1997 358 2325
3 2139 246 2506
3 1370 1369 2386
3 1271 2059 2271
3 1034 2173 2463
3 1123 1412 2393
3 1578 1827 2515
3 2209 1320 2424
3 2079 1504 2210
3 1361 2168 2305
3 1491 1489 2403
3 238 1725 2226
3 1190 986 2334
3 1547 1545 2508
3 1891 1613 2469
3 1153 1885 2362
3 2208 1632 2382
3 2287 1281 2448
3 1356 1376 2421
3 1965 2349 2515
3 2155 1186 2422
3 1522 2014 2387
3 2158 1468 2323
3 2050 954 2333
3 1397 1809 2423
3 1362 1360 2376
3 1852 1985 2397
3 2069 1691 2446
3 789 2066 2425
3 1895 755 2513
3 1707 1154 2234
3 372 374 2430
3 2225 787 2518
3 2028 1206 2401
3 986 1063 2334
3 1912 726 2439
3 1340 1342 2400
3 1916 1145 2448
3 2236 1649 2427
3 2374 1340 2400
3 2222 1407 2290
3 2324 1152 2363
3 241 2220 2472
3 765 2190 2384
3 2375 667 2452
3 2330 1173 2406
3 1181 1972 2500
3 2126 1382 2388
3 1173 1012 2406
3 315 313 2495
3 1015 1373 2385
3 97 221 2526
3 1937 1397 2389
3 930 1061 2462
3 971 1096 2496
3 45 46 2485
3 669 791 2529
3 1104 2450 2521
3 382 378 2390
3 2191 1371 2536
3 2235 1036 2286
3 831 2209 2424
3 762 1997 2349
3 2379 1547 2508
3 2177 1359 2467
3 2403 1489 2456
3 796 785 2532
3 219 1902 2516
3 1519 2300 2480
3 1065 1655 2476
3 1375 1473 2505
3 1489 1490 2456
3 390 392 2431
3 2247 2013 2464
3 1135 1930 2369
3 2278 1583 2345
3 626 622 2452
3 631 2298 2312
3 2233 1348 2298
3 1398 1974 2499
3 1706 1681 2492
3 261 130 2444
3 32 260 2445
3 822 2099 2368
3 1365 1912 2439
3 941 940 2418
3 1446 2166 2504
3 2106 1121 2414
3 2300 1519 2449
3 1803 1104 2521
3 1732 1570 2476
3 1413 2051 2392
3 2122 1946 2396
3 2238 1868 2520
3 477 556 2483
3 2397 1985 2533
3 463 445 2411
3 2163 1185 2488
3 1126 2141 2319
3 1755 2264 2533
3 972 2204 2501
3 2230 1533 2340
3 1774 1773 2503
3 1997 2325 2349
3 1004 2069 2446
3 2159 31 2445
3 131 2160 2444
3 1371 2191 2451
3 1001 2154 2486
3 1682 2230 2340
3 2103 961 2383
3 1033 1151 2410
3 382 2390 2531
3 1504 2079 2520
3 1583 2278 2321
3 511 465 2429
3 250 2024 2479
3 2208 2088 2509
3 619 620 2484
3 1246 2208 2366
3 2141 1209 2319
3 1359 1413 2467
3 1295 1459 2458
3 2218 1435 2465
3 2281 1249 2511
3 2293 237 2354
3 2207 1398 2499
3 1564 2155 2422
3 552 469 2453
3 1947 224 2498
3 2062 1568 2490
3 2018 205 2416
3 260 2159 2445
3 2160 261 2444
3 2092 610 2468
3 194 2195 2432
3 1432 2213 2311
3 211 2251 2464
3 2378 856 2527
3 1536 1532 2534
3 2364 786 2497
3 2438 1438 2478
3 1185 1948 2488
3 2042 941 2418
3 1582 2321 2434
3 885 1891 2469
3 1364 2048 2455
3 1693 2225 2518
3 401 382 2531
3 1338 2247 2464
3 442 2238 2520
3 1292 2117 2428
3 2274 1350 2500
3 2066 2193 2425
3 2179 1184 2435
3 898 822 2368
3 2436 1863 2527
3 1844 1016 2478
3 2184 1001 2486
3 557 2207 2499
3 2013 211 2464
3 2254 250 2479
3 1350 1181 2500
3 2009 248 2470
3 246 2140 2506
3 1574 2436 2527
3 2139 1419 2517
3 316 1971 2514
3 1319 2122 2482
3 226 2006 2507
3 1400 2270 2481
3 1681 2287 2448
3 2325 1578 2349
3 232 1652 2487
3 1320 2214 2424
3 1632 2208 2509
3 248 2288 2470
3 1406 1141 2460
3 2188 1322 2434
3 2244 1980 2441
3 2088 1255 2509
3 1280 2109 2427
3 2060 2307 2405
3 2236 1034 2463
3 1745 2293 2354
3 2122 2396 2482
3 2109 1030 2427
3 2307 1563 2405
3 1429 2382 2459
3 224 2267 2498
3 682 2211 2447
3 2079 442 2520
3 2348 1287 2398
3 2220 1842 2472
3 1335 2249 2466
3 1249 2263 2511
3 443 2210 2519
3 2385 1373 2394
3 1594 2184 2486
3 2052 2239 2518
3 1568 2439 2490
3 2349 1578 2515
3 2344 468 2412
3 2270 1996 2481
3 1735 2244 2441
3 2260 1471 2477
3 2210 1504 2519
3 1434 2297 2450
3 2297 1419 2450
3 2263 1660 2502
3 2404 2009 2470
3 1718 2385 2394
3 1371 2194 2536
3 2317 444 2461
3 1443 2322 2525
3 1716 2375 2452
3 1863 2378 2527
3 2439 726 2490
3 1057 2328 2451
3 1638 2404 2470
3 1454 2234 2535
3 755 2320 2513
3 2234 1653 2535
3 2264 552 2533
3 1419 2297 2517
3 1392 2322 2510
3 552 2397 2533
3 1798 2364 2497
3 2322 1392 2525
3 2382 1631 2459
3 1016 2438 2478
3 1366 2370 2537
3 1742 2491 2530
3 2491 257 2530
CELL_TYPES 4886
5
5
5
5
5
5
5
5
5
5
5
5
5
5
5
5
5
5
5
5
5
5
5
5
5
5
5
5
5
5
5
5
5
5
5
5
5
5
5
5
5
5
5
5
5
5
5
5
5
5
5
5
5
5
5
5
5
5
5
5
5
5
5
5
5
5
5
5
5
5
5
5
5
5
5
5
5
5
5
5
5
5
5
5
5
5
5
5
5
5
5
5
5
5
5
5
5
5
5
5
5
5
5
5
5
5
5
5
5
5
5
5
5
5
5
5
5
5
5
5
5
5
5
5
5
5
5
5
5
5
5
5
5
5
5
5
5
5
5
5
5
5
5
5
5
5
5
5
5
5
5
5
5
5
5
5
5
5
5
5
5
5
5
5
5
5
5
5
5
5
5
5
5
5
5
5
5
5
5
5
5
5
5
5
5
5
5
5
5
5
5
5
5
5
5
5
5
5
5
5
5
5
5
5
5
5
5
5
5
5
5
5
5
5
5
5
5
5
5
5
5
5
5
5
5
5
5
5
5
5
5
5
5
5
5
5
5
5
5
5
5
5
5
5
5
5
5
5
5
5
5
5
5
5
5
5
5
5
5
5
5
5
5
5
5
5
5
5
5
5
5
5
5
5
5
5
5
5
5
5
5
5
5
5
5
5
5
5
5
5
5
5
5
5
5
5
5
5
5
5
5
5
5
5
5
5
5
5
5
5
5
5
5
5
5
5
5
5
5
5
5
5
5
5
5
5
5
5
5
5
5
5
5
5
5
5
5
5
5
5
5
5
5
5
5
5
5
5
5
5
5
5
5
5
5
5
5
5
5
5
5
5
5
5
5
5
5
5
5
5
5
5
5
5
5
5
5
5
5
5
5
5
5
5
5
5
5
5
5
5
5
5
5
5
5
5
5
5
5
5
5
5
5
5
5
5
5
5
5
5
5
5
5
5
5
5
5
5
5
5
5
5
5
5
5
5
5
5
5
5
5
5
5
5
5
5
5
5
5
5
5
5
5
5
5
5
5
5
5
5
5
5
5
5
5
5
5
5
5
5
5
5
5
5
5
5
5
5
5
5
5
5
5
5
5
5
5
5
5
5
5
5
5
5
5
5
5
5
5
5
5
5
5
5
5
5
5
5
5
5
5
5
5
5
5
5
5
5
5
5
5
5
5
5
5
5
5
5
5
5
5
5
5
5
5
5
5
5
5
5
5
5
5
5
5
5
5
5
5
5
5
5
5
5
5
5
5
5
5
5
5
5
5
5
5
5
5
5
5
5
5
5
5
5
5
5
5
5
5
5
5
5
5
5
5
5
5
5
5
5
5
5
5
5
5
5
5
5
5
5
5
5
5
5
5
5
5
5
5
5
5
5
5
5
5
5
5
5
5
5
5
5
5
5
5
5
5
5
5
5
5
5
5
5
5
5
5
5
5
5
5
5
5
5
5
5
5
5
5
5
5
5
5
5
5
5
5
5
5
5
5
5
5
5
5
5
5
5
5
5
5
5
5
5
5
5
5
5
5
5
5
5
5
5
5
5
5
5
5
5
5
5
5
5
5
5
5
5
5
5
5
5
5
5
5
5
5
5
5
5
5
5
5
5
5
5
5
5
5
5
5
5
5
5
5
5
5
5
5
5
5
5
5
5
5
5
5
5
5
5
5
5
5
5
5
5
5
5
5
5
5
5
5
5
5
5
5
5
5
5
5
5
5
5
5
5
5
5
5
5
5
5
5
5
5
5
5
5
5
5
5
5
5
5
5
5
5
5
5
5
5
5
5
5
5
5
5
5
5
5
5
5
5
5
5
5
5
5
5
5
5
5
5
5
5
5
5
5
5
5
5
5
5
5
5
5
5
5
5
5
5
5
5
5
5
5
5
5
5
5
5
5
5
5
5
5
5
5
5
5
5
5
5
5
5
5
5
5
5
5
5
5
5
5
5
5
5
5
5
5
5
5
5
5
5
5
5
5
5
5
5
5
5
5
5
5
5
5
5
5
5
5
5
5
5
5
5
5
5
5
5
5
5
5
5
5
5
5
5
5
5
5
5
5
5
5
5
5
5
5
5
5
5
5
5
5
5
5
5
5
5
5
5
5
5
5
5
5
5
5
5
5
5
5
5
5
5
5
5
5
5
5
5
5
5
5
5
5
5
5
5
5
5
5
5
5
5
5
5
5
5
5
5
5
5
5
5
5
5
5
5
5
5
5
5
5
5
5
5
5
5
5
5
5
5
5
5
5
5
5
5
5
5
5
5
5
5
5
5
5
5
5
5
5
5
5
5
5
5
5
5
5
5
5
5
5
5
5
5
5
5
5
5
5
5
5
5
5
5
5
5
5
5
5
5
5
5
5
5
5
5
5
5
5
5
5
5
5
5
5
5
5
5
5
5
5
5
5
5
5
5
5
5
5
5
5
5
5
5
5
5
5
5
5
5
5
5
5
5
5
5
5
5
5
5
5
5
5
5
5
5
5
5
5
5
5
5
5
5
5
5
5
5
5
5
5
5
5
5
5
5
5
5
5
5
5
5
5
5
5
5
5
5
5
5
5
5
5
5
5
5
5
5
5
5
5
5
5
5
5
5
5
5
5
5
5
5
5
5
5
5
5
5
5
5
5
5
5
5
5
5
5
5
5
5
5
5
5
5
5
5
5
5
5
5
5
5
5
5
5
5
5
5
5
5
5
5
5
5
5
5
5
5
5
5
5
5
5
5
5
5
5
5
5
5
5
5
5
5
5
5
5
5
5
5
5
5
5
5
5
5
5
5
5
5
5
5
5
5
5
5
5
5
5
5
5
5
5
5
5
5
5
5
5
5
5
5
5
5
5
5
5
5
5
5
5
5
5
5
5
5
5
5
5
5
5
5
5
5
5
5
5
5
5
5
5
5
5
5
5
5
5
5
5
5
5
5
5
5
5
5
5
5
5
5
5
5
5
5
5
5
5
5
5
5
5
5
5
5
5
5
5
5
5
5
5
5
5
5
5
5
5
5
5
5
5
5
5
5
5
5
5
5
5
5
5
5
5
5
5
5
5
5
5
5
5
5
5
5
5
5
5
5
5
5
5
5
5
5
5
5
5
5
5
5
5
5
5
5
5
5
5
5
5
5
5
5
5
5
5
5
5
5
5
5
5
5
5
5
5
5
5
5
5
5
5
5
5
5
5
5
5
5
5
5
5
5
5
5
5
5
5
5
5
5
5
5
5
5
5
5
5
5
5
5
5
5
5
5
5
5
5
5
5
5
5
5
5
5
5
5
5
5
5
5
5
5
5
5
5
5
5
5
5
5
5
5
5
5
5
5
5
5
5
5
5
5
5
5
5
5
5
5
5
5
5
5
5
5
5
5
5
5
5
5
5
5
5
5
5
5
5
5
5
5
5
5
5
5
5
5
5
5
5
5
5
5
5
5
5
5
5
5
5
5
5
5
5
5
5
5
5
5
5
5
5
5
5
5
5
5
5
5
5
5
5
5
5
5
5
5
5
5
5
5
5
5
5
5
5
5
5
5
5
5
5
5
5
5
5
5
5
5
5
5
5
5
5
5
5
5
5
5
5
5
5
5
5
5
5
5
5
5
5
5
5
5
5
5
5
5
5
5
5
5
5
5
5
5
5
5
5
5
5
5
5
5
5
5
5
5
5
5
5
5
5
5
5
5
5
5
5
5
5
5
5
5
5
5
5
5
5
5
5
5
5
5
5
5
5
5
5
5
5
5
5
5
5
5
5
5
5
5
5
5
5
5
5
5
5
5
5
5
5
5
5
5
5
5
5
5
5
5
5
5
5
5
5
5
5
5
5
5
5
5
5
5
5
5
5
5
5
5
5
5
5
5
5
5
5
5
5
5
5
5
5
5
5
5
5
5
5
5
5
5
5
5
5
5
5
5
5
5
5
5
5
5
5
5
5
5
5
5
5
5
5
5
5
5
5
5
5
5
5
5
5
5
5
5
5
5
5
5
5
5
5
5
5
5
5
5
5
5
5
5
5
5
5
5
5
5
5
5
5
5
5
5
5
5
5
5
5
5
5
5
5
5
5
5
5
5
5
5
5
5
5
5
5
5
5
5
5
5
5
5
5
5
5
5
5
5
5
5
5
5
5
5
5
5
5
5
5
5
5
5
5
5
5
5
5
5
5
5
5
5
5
5
5
5
5
5
5
5
5
5
5
5
5
5
5
5
5
5
5
5
5
5
5
5
5
5
5
5
5
5
5
5
5
5
5
5
5
5
5
5
5
5
5
5
5
5
5
5
5
5
5
5
5
5
5
5
5
5
5
5
5
5
5
5
5
5
5
5
5
5
5
5
5
5
5
5
5
5
5
5
5
5
5
5
5
5
5
5
5
5
5
5
5
5
5
5
5
5
5
5
5
5
5
5
5
5
5
5
5
5
5
5
5
5
5
5
5
5
5
5
5
5
5
5
5
5
5
5
5
5
5
5
5
5
5
5
5
5
5
5
5
5
5
5
5
5
5
5
5
5
5
5
5
5
5
5
5
5
5
5
5
5
5
5
5
5
5
5
5
5
5
5
5
5
5
5
5
5
5
5
5
5
5
5
5
5
5
5
5
5
5
5
5
5
5
5
5
5
5
5
5
5
5
5
5
5
5
5
5
5
5
5
5
5
5
5
5
5
5
5
5
5
5
5
5
5
5
5
5
5
5
5
5
5
5
5
5
5
5
5
5
5
5
5
5
5
5
5
5
5
5
5
5
5
5
5
5
5
5
5
5
5
5
5
5
5
5
5
5
5
5
5
5
5
5
5
5
5
5
5
5
5
5
5
5
5
5
5
5
5
5
5
5
5
5
5
5
5
5
5
5
5
5
5
5
5
5
5
5
5
5
5
5
5
5
5
5
5
5
5
5
5
5
5
5
5
5
5
5
5
5
5
5
5
5
5
5
5
5
5
5
5
5
5
5
5
5
5
5
5
5
5
5
5
5
5
5
5
5
5
5
5
5
5
5
5
5
5
5
5
5
5
5
5
5
5
5
5
5
5
5
5
5
5
5
5
5
5
5
5
5
5
5
5
5
5
5
5
5
5
5
5
5
5
5
5
5
5
5
5
5
5
5
5
5
5
5
5
5
5
5
5
5
5
5
5
5
5
5
5
5
5
5
5
5
5
5
5
5
5
5
5
5
5
5
5
5
5
5
5
5
5
5
5
5
5
5
5
5
5
5
5
5
5
5
5
5
5
5
5
5
5
5
5
5
5
5
5
5
5
5
5
5
5
5
5
5
5
5
5
5
5
5
5
5
5
5
5
5
5
5
5
5
5
5
5
5
5
5
5
5
5
5
5
5
5
5
5
5
5
5
5
5
5
5
5
5
5
5
5
5
5
5
5
5
5
5
5
5
5
5
5
5
5
5
5
5
5
5
5
5
5
5
5
5
5
5
5
5
5
5
5
5
5
5
5
5
5
5
5
5
5
5
5
5
5
5
5
5
5
5
5
5
5
5
5
5
5
5
5
5
5
5
5
5
5
5
5
5
5
5
5
5
5
5
5
5
5
5
5
5
5
5
5
5
5
5
5
5
5
5
5
5
5
5
5
5
5
5
5
5
5
5
5
5
5
5
5
5
5
5
5
5
5
5
5
5
5
5
5
5
5
5
5
5
5
5
5
5
5
5
5
5
5
5
5
5
5
5
5
5
5
5
5
5
5
5
5
5
5
5
5
5
5
5
5
5
5
5
5
5
5
5
5
5
5
5
5
5
5
5
5
5
5
5
5
5
5
5
5
5
5
5
5
5
5
5
5
5
5
5
5
5
5
5
5
5
5
5
5
5
5
5
5
5
5
5
5
5
5
5
5
5
5
5
5
5
5
5
5
5
5
5
5
5
5
5
5
5
5
5
5
5
5
5
5
5
5
5
5
5
5
5
5
5
5
5
5
5
5
5
5
5
5
5
5
5
5
5
5
5
5
5
5
5
5
5
5
5
5
5
5
5
5
5
5
5
5
5
5
5
5
5
5
5
5
5
5
5
5
5
5
5
5
5
5
5
5
5
5
5
5
5
5
5
5
5
5
5
5
5
5
5
5
5
5
5
5
5
5
5
5
5
5
5
5
5
5
5
5
5
5
5
5
5
5
5
5
5
5
5
5
5
5
5
5
5
5
5
5
5
5
5
5
5
5
5
5
5
5
5
5
5
5
5
5
5
5
5
5
5
5
5
5
5
5
5
5
5
5
5
5
5
5
5
5
5
5
5
5
5
5
5
5
5
5
5
5
5
5
5
5
5
5
5
5
5
5
5
5
5
5
5
5
5
5
5
5
5
5
5
5
5
5
5
5
5
5
5
5
5
5
5
5
5
5
5
5
5
5
5
5
5
5
5
5
5
5
5
5
5
5
5
5
5
5
5
5
5
5
5
5
5
5
5
5
5
5
5
5
5
5
5
5
5
5
5
5
5
5
5
5
5
5
5
5
5
5
5
5
5
5
5
5
5
5
5
5
5
5
5
5
5
5
5
5
5
5
5
5
5
5
5
5
5
5
5
5
5
5
5
5
5
5
5
5
5
5
5
5
5
5
5
5
5
5
5
5
5
5
5
5
5
5
5
5
5
5
5
5
5
5
5
5
5
5
5
5
5
5
5
5
5
5
5
5
5
5
5
5
5
5
5
5
5
5
5
5
5
5
5
5
5
5
5
5
5
5
5
5
5
5
5
5
5
5
5
5
5
5
5
5
5
5
5
5
5
5
5
5
5
5
5
5
5
5
5
5
5
5
5
5
5
5
5
5
5
5
5
5
5
5
5
5
5
5
5
5
5
5
5
5
5
5
5
5
5
5
5
5
5
5
5
5
5
5
5
5
5
5
5
5
5
5
5
5
5
5
5
5
5
5
5
5
5
5
5
5
5
5
5
5
5
5
5
5
5
5
5
5
5
5
5
5
5
5
5
5
5
5
5
5
5
5
5
5
5
5
5
5
5
5
5
5
5
5
5
5
5
5
5
5
5
5
5
5
5
5
5
5
5
5
5
5
5
5
5
5
5
5
5
5
5
5
5
5
5
5
5
5
5
5
5
5
5
5
5
5
5
5
5
5
5
5
5
5
5
5
5
5
5
5
5
5
5
5
5
5
5
5
5
5
5
5
5
5
5
5
5
5
5
5
5
5
5
5
5
5
5
5
5
5
5
5
5
5
5
5
5
5
5
5
5
5
5
5
5
5
5
5
5
5
5
5
5
5
5
5
5
5
5
5
5
5
5
5
5
5
5
5
5
5
5
5
5
5
5
5
5
5
5
5
5
5
5
5
5
5
5
5
5
5
5
5
5
5
5
5
5
5
5
5
5
5
5
5
5
5
5
5
5
5
5
5
5
5
5
5
5
5
5
5
5
5
5
5
5
5
5
5
5
5
5
5
5
5
5
5
5
5
5
5
5
5
5
5
5
5
5
5
5
5
5
5
5
5
5
5
5
5
5
5
5
5
5
5
5
5
5
5
5
5
5
5
5
5
5
5
5
5
5
5
5
5
5
5
5
5
5
5
5
5
5
5
5
5
5
5
5
5
5
5
5
5
5
5
5
5
5
5
5
5
5
5
5
5
5
5
5
5
5
5
5
5
5
5
5
5
5
5
5
5
5
5
5
5
5
5
5
5
5
5
5
5
5
5
5
5
5
5
5
5
5
5
5
5
5
5
5
5
5
5
5
5
5
5
5
5
5
5
5
5
5
5
5
5
5
5
5
5
5
5
5
5
5
5
5
5
5
5
5
5
5
5
5
5
5
5
5
5
5
5
5
5
5
5
5
5
5
5
5
5
5
5
5
5
5
5
5
5
5
5
5
5
5
5
5
5
5
5
5
5
5
5
5
5
5
5
5
5
5
5
5
5
5
5
5
5
5
5
5
5
5
5
5
5
5
5
5
5
5
5
5
5
5
5
5
5
5
5
5
5
5
5
5
5
5
5
5
5
5
5
5
5
5
5
5
5
5
5
5
5
5
5
5
5
5
5
5
5
5
5
5
5
5
5
5
5
5
5
5
5
5
5
5
5
5
5
5
5
5
5
5
5
5
5
5
5
5
5
5
5
5
5
5
5
5
5
5
5
5
5
5
5
5
5
5
5
5
5
5
5
5
5
5
5
5
5
5
5
5
5
5
5
5
5
5
5
5
5
5
5
5
5
5
5
5
5
5
5
5
5
5
5
5
5
5
5
5
5
5
5
5
5
5
5
5
5
5
5
5
5
5
5
5
5
5
5
5
5
5
5
5
5
5
5
5
5
5
5
5
5
5
5
5
5
5
5
5
5
5
5
5
5
5
5
5
5
5
5
5
5
5
5
5
5
5
5
5
5
5
5
5
5
5
5
5
5
5
5
5
5
5
5
5
5
5
5
5
5
5
5
5
5
5
5
5
5
5
5
5
5
5
5
5
5
5
5
5
5
5
5
5
5
5
5
5
5
5
5
5
5
5
5
5
5
5
5
5
5
5
5
5
5
5
5
5
5
5
5
5
5
5
5
5
5
5
5
5
5
5
5
5
5
5
5
5
5
5
5
5
5
5
5
5
5
5
5
5
5
5
5
5
5
5
5
5
5
5
5
5
5
5
5
5
5
5
5
5
5
5
5
5
5
5
5
5
5
5
5
5
5
5
5
5
5
5
5
5
5
5
5
5
5
5
5
5
5
5
5
5
5
5
5
5
5
5
5
5
5
5
5
5
5
5
5
5
5
5
5
5
5
5
5
5
5
5
5
5
5
5
5
5
5
5
5
5
5
5
5
5
5
5
5
5
5
5
5
5
5
5
5
5
5
5
5
5
5
5
5
5
5
5
5
5
5
5
5
5
5
5
5
5
5
5
5
5
5
5
5
5
5
5
5
5
5
5
5
5
5
5
5
5
5
5
5
5
5
5
5
5
5
5
5
5
5
5
5
5
5
5
5
5
5
5
5
5
5
5
5
5
5
5
5
5
5
5
5
5
5
5
5
5
5
5
5
5
5
5
5
5
5
5
5
5
5
5
5
5
5
5
5
5
5
5
5
5
5
5
5
5
5
5
5
5
5
5
5
5
5
5
5
5
5
5
5
5
5
5
5
5
5
5
5
5
5
5
5
5
5
5
5
5
5
5
5
5
5
5
5
5
5
5
5
5
5
5
5
5
5
5
5
5
5
5
5
5
5
5
5
5
5
5
5
5
5
5
5
5
5
5
5
5
5
5
5
5
5
5
5
5
5
5
5
5
5
5
5
5
5
5
5
5
5
5
5
5
5
5
5
5
5
5
5
5
5
5
5
5
5
5
5
5
5
5
5
5
5
5
5
5
5
5
5
5
5
5
5
5
5
5
5
5
5
5
5
5
5
5
5
5
5
5
5
5
5
5
5
5
5
5
5
5
5
5
5
5
5
5
5
5
5
5
5
5
5
5
5
5
5
5
5
5
5
5
5
5
5
5
5
5
5
5
5
5
5
5
5
5
5
5
5
5
5
5
5
5
5
5
5
5
5
5
5
5
5
5
5
5
5
5
5
5
5
5
5
5
5
5
5
5
5
5
5
5
5
5
5
5
5
5
5
5
5
5
5
5
5
5
5
5
5
5
5
5
5
5
5
5
5
5
5
5
5
5
5
5
5
5
5
5
5
5
5
5
5
5
5
5
5
5
5
5
5
5
5
5
5
5
5
5
5
5
5
5
5
5
5
5
5
5
5
5
5
5
5
5
5
5
5
5
5
5
5
5
5
5
5
5
5
5
5
5
5
5
5
5
5
5
5
5
5
5
5
5
5
5
5
5
5
5
5
5
5
5
5
5
5
5
5
5
5
5
5
5
5
5
5
5
5
5
5
5
5
5
5
5
5
5
5
5
5
5
5
5
5
5
5
5
5
5
5
5
5
5
5
5
5
5
5
5
5
5
5
5
5
5
5
5
5
5
5
5
5
5
5
5
5
5
5
5
5
5
5
5
5
5
5
5
5
5
5
5
5
5
5
5
5
5
5
5
5
5
5
5
5
5
5
5
5
5
5
5
5
5
5
5
5
5
5
5
5
5
5
5
5
5
5
5
5
5
5
5
5
5
5
5
5
5
5
5
5
5
5
5
5
5
5
5
5
5
5
5
5
5
5
5
5
5
5
5
5
5
5
5
5
5
5
5
5
5
5
5
5
5
5
5
5
5
5
5
5
5
5
5
5
5
5
5
5
5
5
5
5
5
5
5
5
5
5
5
5
5
5
5
5
5
5
5
5
5
5
5
5
5
5
5
5
5
5
5
5
5
5
5
5
5
5
5
5
5
5
5
5
5
5
5
5
5
5
5
5
5
5
5
5
5
5
5
5
5
5
5
5
5
5
5
5
5
5
5
5
5
5
5
5
5
5
5
5
5
5
5
5
5
5
5
5
5
5
5
5
5
5
5
5
5
5
5
5
5
5
5
5
5
5
5
5
5
5
5
5
5
5
5
5
5
5
5
5
5
5
5
5
5
5
5
5
5
5
5
5
5
5
5
5
5
5
5
5
5
5
5
5
5
5
5
5
5
5
5
5
5
5
5
5
5
5
5
5
5
5
5
5
5
5
5
5
5
5
5
5
5
5
5
5
5
5
5
5
5
5
5
5
5
5
5
5
5
5
5
5
5
5
5
5
5
5
5
5
5
5
5
5
5
5
5
5
5
5
5
5
5
5
5
5
5
5
5
5
5
5
5
5
5
5
5
5
5
5
5
5
5
5
5
5
5
5
5
5
5
5
5
5
5
5
5
5
5
5
5
5
5
5
5
5
5
5
5
5
5
5
5
5
5
5
5
5
5
5
5
5
5
5
5
5
5
5
5
5
5
5
5
5
5
5
5
5
5
5
5
5
5
5
5
5
5
5
5
5
5
5
5
5
5
5
5
5
5
5
5
5
5
5
5
5
5
5
5
5
5
5
5
5
5
5
5
5
5
5
5
5
5
5
5
5
5
5
5
5
5
5
5
5
5
5
5
5
5
5
5
5
5
5
5
5
5
5
5
5
5
5
5
5
5
5
5
5
5
5
5
5
5
5
5
5
5
5
5
5
5
POINT_DATA 2538
VECTORS disp float
5.696010552421016e-12 6.0471224315375226e-12 0.0
5.663443784097654e-13 2.4777121884230608e-14 0.0
0.0006000000001903402 7.837362598699508e-13 0.0
0.0005999999822430519 -2.188466171927406e-11 0.0
0.0003255219861397071 0.00015615758053845702 0.0
0.0004492611885205993 -6.2323919658980525e-6 0.0
0.00035931645392951067 -2.3342383393577585e-5 0.0
-1.2888272028635443e-12 -1.5001250787051766e-12 0.0
4.04496003081297e-13 5.456667491463268e-13 0.0
1.7849699568834285e-13 -4.183952101846056e-13 0.0
6.187756341300117e-14 -2.3263697542971223e-13 0.0
-1.4873177383744154e-14 -5.05352155141944e-13 0.0
3.896239208899234e-14 -6.885585447455966e-13 0.0
3.2952367343181496e-14 -8.089882469459419e-13 0.0
4.584629615290562e-14 -8.462558054888358e-13 0.0
6.863540133399756e-14 -8.639432580637848e-13 0.0
4.164633406241136e-14 -8.620756636375021e-13 0.0
4.66894657975057e-14 -8.739099624290937e-13 0.0
3.508729541138366e-14 -9.055535840288208e-13 0.0
3.216726778348863e-14 -9.075613773826835e-13 0.0
2.4219900338363226e-14 -9.363909451778284e-13 0.0
6.415874798384726e-14 -9.086482410181158e-13 0.0
3.916786950779333e-14 -9.349322962746316e-13 0.0
3.224959532312578e-14 -9.317277370629716e-13 0.0
9.235684673005939e-14 -8.99730184602698e-13 0.0
7.365884633715952e-14 -9.51305598102481e-13 0.0
1.081998493901087e-13 -9.502440026492877e-13 0.0
1.3415084916659817e-13 -9.024926099478073e-13 0.0
1.050428696268928e-13 -8.652063497423359e-13 0.0
7.916281127048815e-14 -8.602700552993519e-13 0.0
4.031878953169982e-14 -8.840055369563019e-13 0.0
-8.204059018063565e-14 -5.725546672635753e-13 0.0
4.926413828168998e-6 -2.1051511310455226e-7 0.0
8.125678578499841e-6 -6.742935122755663e-7 0.0
1.1706849990897978e-5 -1.310644231064127e-6 0.0
1.5823633449944968e-5 -2.181839973725817e-6 0.0
1.9975920502454707e-5 -3.2445261382569324e-6 0.0
2.4265434953722442e-5 -4.470879315866461e-6 0.0
2.8952169753789015e-5 -5.759697993490391e-6 0.0
3.387063099668718e-5 -7.130350653944823e-6 0.0
3.915907963446326e-5 -8.533875390325682e-6 0.0
4.479975828835041e-5 -9.884679140015757e-6 0.0
5.064368459521107e-5 -1.1263902689187781e-5 0.0
5.6892621372447145e-5 -1.2629638355714565e-5 0.0
6.334121442294774e-5 -1.3935798306313403e-5 0.0
6.987216034876377e-5 -1.5249886380147939e-5 0.0
7.657417052666827e-5 -1.6572471134021034e-5 0.0
8.334890838042625e-5 -1.7851829184162734e-5 0.0
9.016263303684707e-5 -1.9098470449574092e-5 0.0
9.694475391965788e-5 -2.028386738861434e-5 0.0
0.0001035863948626841 -2.1449170265002276e-5 0.0
0.00011012513024048571 -2.259412505413255e-5 0.0
0.00011658473353918814 -2.3746169587586608e-5 0.0
0.00012299962875163468 -2.49071687654676e-5 0.0
0.00012938890736280924 -2.6073223786324384e-5 0.0
0.00013571190174579224 -2.7238397114518758e-5 0.0
0.00014203180617151237 -2.8415883021354318e-5 0.0
0.00014831886793395836 -2.9588423127717612e-5 0.0
0.0001545779286873026 -3.0757484103763516e-5 0.0
0.00016082801134274235 -3.189882253194662e-5 0.0
0.00016701680926300202 -3.3073246766325086e-5 0.0
0.00017326146450896555 -3.425137264334226e-5 0.0
0.00017965504949370064 -3.541437712313688e-5 0.0
0.0001861070774221997 -3.654114918824639e-5 0.0
0.00019257831273687337 -3.764608350387841e-5 0.0
0.0001991871858737826 -3.8720695618806896e-5 0.0
0.00020581106724010804 -3.975695001343602e-5 0.0
0.00021218253410479056 -4.0725819720541364e-5 0.0
0.00021819487824222098 -4.162756827446342e-5 0.0
0.00022366515572187185 -4.252192977230591e-5 0.0
0.00022861919523468554 -4.346748118823049e-5 0.0
0.00023306828820624195 -4.4354724736152096e-5 0.0
0.00023656073249636115 -4.5197860884891465e-5 0.0
0.0002390432862129413 -4.6128173177018776e-5 0.0
0.00024225741707185807 -4.6705498490489475e-5 0.0
0.00024533563946617224 -4.7647096198267545e-5 0.0
0.00024839793680202406 -4.894864552555028e-5 0.0
0.00025191913145330416 -5.039573047144551e-5 0.0
0.0002557925336623051 -5.2167769362817775e-5 0.0
0.0002600686669428592 -5.396617660204152e-5 0.0
0.0002649568235900343 -5.652344881339757e-5 0.0
0.000270292515057828 -5.875094681125409e-5 0.0
0.00027580332938327253 -6.0174612777527224e-5 0.0
0.0002817534007593566 -6.160982715541941e-5 0.0
0.0002876554198974851 -6.289567485216387e-5 0.0
0.00029386368728892125 -6.422563006259262e-5 0.0
0.00030035719033503464 -6.485651957811151e-5 0.0
0.00030786087085520107 -6.534084494046885e-5 0.0
0.00031532714568544603 -6.571569243289506e-5 0.0
0.00032246199091170535 -6.598728246731415e-5 0.0
0.0003292562786559978 -6.614828280381717e-5 0.0
0.0003358649864307665 -6.630024542067753e-5 0.0
0.00034235025195597377 -6.647160339364963e-5 0.0
0.0003488748699400043 -6.663027135330397e-5 0.0
0.0003553787460199369 -6.677188834412903e-5 0.0
0.0003617331442476296 -6.703423129405503e-5 0.0
0.00036797207279336004 -6.748675304113184e-5 0.0
0.00037416971907215386 -6.789499840123522e-5 0.0
0.0003803124294069111 -6.826165542338712e-5 0.0
0.0003864942839269962 -6.86147102747851e-5 0.0
0.0003928090587350075 -6.897659642856898e-5 0.0
0.0003992234217606788 -6.939321300032946e-5 0.0
0.0004056475610676615 -6.977666594507292e-5 0.0
0.00041220159783233594 -7.010705801647441e-5 0.0
0.00041872270708941903 -7.021870936857791e-5 0.0
0.0004251980772637563 -7.022715654058943e-5 0.0
0.00043178656230056253 -7.021089820399929e-5 0.0
0.0004384473255252367 -7.000513123971799e-5 0.0
0.00044537602366682104 -6.976123556072387e-5 0.0
0.00045213163787083074 -6.955796747657764e-5 0.0
0.00045858410267613804 -6.938342204904492e-5 0.0
0.00046474039528318265 -6.917977067374826e-5 0.0
0.0004706809607285398 -6.903298472795278e-5 0.0
0.00047608911185524584 -6.885953646616348e-5 0.0
0.00048123225332811234 -6.870810130109144e-5 0.0
0.0004860921406894227 -6.852528894370227e-5 0.0
0.0004906633721513117 -6.830280855718014e-5 0.0
0.0004952611805356231 -6.806061891255874e-5 0.0
0.0004999587204365782 -6.766954517144555e-5 0.0
0.0005043512318446535 -6.715924206228863e-5 0.0
0.0005088426365709286 -6.656500570859951e-5 0.0
0.0005138540863637998 -6.576589571038111e-5 0.0
0.0005190998674286542 -6.46102440840683e-5 0.0
0.0005238634425886405 -6.298048977410597e-5 0.0
0.0005286932929970617 -6.1023037521227284e-5 0.0
0.0005337165313088351 -5.875843198211899e-5 0.0
0.0005392761608045728 -5.611839908338767e-5 0.0
0.0005445407207764542 -5.229132153528255e-5 0.0
0.0005491679625373102 -4.6215865019292656e-5 0.0
0.0005587976118007689 -3.991913950496603e-5 0.0
0.00056702625124741 -2.8415762679369537e-5 0.0
0.0006000000032738231 2.758928247252025e-12 0.0
0.0005999999983487682 -2.2534812373224103e-12 0.0
0.0005999999999001181 3.8357977800944446e-13 0.0
0.0005999999995018191 -7.626670618434088e-14 0.0
0.0005999999998512344 3.1080267908603007e-13 0.0
0.0005999999998008794 5.015196219188576e-13 0.0
0.0005999999998900971 5.858431180278172e-13 0.0
0.0005999999998927807 6.300100214897985e-13 0.0
0.0005999999998627368 6.53054729102503e-13 0.0
0.0005999999998648845 6.575264842583594e-13 0.0
0.0005999999998515594 6.663773289368998e-13 0.0
0.0005999999998298 6.747861041209878e-13 0.0
0.0005999999998388504 6.708268510465839e-13 0.0
0.0005999999998320986 6.833435983392161e-13 0.0
0.000599999999831582 6.944904731038028e-13 0.0
0.0005999999998210311 6.810568816620775e-13 0.0
0.0005999999998075487 6.59019454793509e-13 0.0
0.0005999999997951223 5.284090337837709e-13 0.0
0.0005999999996496756 4.1767970290755906e-13 0.0
0.0005999999997860194 3.565845308698706e-13 0.0
0.0005999999997693701 3.789937350151337e-13 0.0
0.0005999999997322427 3.3593775815853953e-13 0.0
0.0005999999998539035 3.248002047924811e-13 0.0
0.0005999999998660191 4.132943764078591e-13 0.0
0.0005999999999484842 4.0195716947246004e-13 0.0
0.0005682057366916079 8.514538793397957e-6 0.0
0.0005335379484170183 9.111686936964906e-6 0.0
0.0004981194353509235 3.7466834668092705e-6 0.0
0.00047020691996980376 -3.4324221163354828e-6 0.0
0.00044636937812662296 -2.5244501655076777e-5 0.0
0.00044320065448790564 -3.806165090850245e-5 0.0
0.000440967395012245 -5.1777040327905555e-5 0.0
0.00043652879914853076 -6.292226390916189e-5 0.0
0.00043086694092659187 -7.108679575562504e-5 0.0
0.0004239565611138892 -7.764140291286762e-5 0.0
0.00041721358816550967 -8.226418872652486e-5 0.0
0.0004102272538888861 -8.401181486942643e-5 0.0
0.00040624267022782335 -8.175768418103299e-5 0.0
0.0004019934558155316 -7.279531462719372e-5 0.0
0.0003948725090023433 -6.136119099719919e-5 0.0
0.00038215562732376625 -4.778894648434667e-5 0.0
0.00035405803732218476 -1.0722870525942435e-5 0.0
0.0003498227165316349 -5.266797643174403e-7 0.0
0.00034551312820527396 8.260668086066238e-6 0.0
0.00034065923099834485 1.693042899667888e-5 0.0
0.00033524666310940336 2.496930660531122e-5 0.0
0.0003303643054529166 3.3432528580350376e-5 0.0
0.0003252546717864966 4.314269013290422e-5 0.0
0.0003205458113292669 5.2858979661103455e-5 0.0
0.0003173415725592954 6.595644934728249e-5 0.0
0.000315279547086487 8.023368834537049e-5 0.0
0.00031735071189697094 9.992648119693274e-5 0.0
0.0003195605442189717 0.00012561499250111026 0.0
0.00028959878196429677 0.00015618429708432453 0.0
0.00024098209326551984 0.00015730720524549557 0.0
0.0001965996680427434 0.0001502124133499011 0.0
0.0001426261410526111 0.00011991472975379398 0.0
0.00016846308049971065 -3.117357072143016e-5 0.0
0.00040278403681849183 -6.378128904081216e-5 0.0
0.00021409883400103544 -3.8975765131221495e-5 0.0
0.00035862498852266757 -6.200714291323758e-5 0.0
0.0002432903356409997 -4.63168372348591e-5 0.0
0.00031050127718845126 -5.911074950857817e-5 0.0
0.0002661150070370296 -5.317264165274268e-5 0.0
0.00044321768939468113 -6.400865818775972e-5 0.0
0.00013198492810238615 -2.4767137595040036e-5 0.0
0.00047285617635660506 -6.248002603493686e-5 0.0
9.962945774035532e-5 -1.8949970249643806e-5 0.0
1.304697712420231e-5 -2.0514726348645193e-6 0.0
0.0005793133173746244 7.074759511960571e-7 0.0
0.000358476774123849 -2.524189756866404e-5 0.0
0.00040201117739545013 -7.97775156214551e-5 0.0
0.0003360849742760215 -1.5578545319442003e-5 0.0
0.0003176175988542976 2.2858069269967028e-5 0.0
0.0004978312313211911 -6.159707794695209e-5 0.0
6.718229748189712e-5 -1.3254203237310186e-5 0.0
9.754190956022037e-6 -1.6480415660271833e-6 0.0
0.0005861180063714824 6.009509691308527e-7 0.0
0.0005713504354227893 5.309745572072675e-7 0.0
1.584832723030704e-5 -2.4445614518082167e-6 0.0
0.0005172393406744769 -5.800154927055511e-5 0.0
4.15893902550731e-5 -8.143532089014382e-6 0.0
0.00042774104665300127 -6.882629608618851e-5 0.0
0.0003016417982387556 4.864567500495286e-5 0.0
7.639741693765296e-6 -1.1158045170827303e-6 0.0
0.000589624011599226 2.2265239516012658e-7 0.0
0.00023445268729822393 -4.3798022929270756e-5 0.0
0.00025270807221426916 -4.9305302135677516e-5 0.0
0.0003390033446447268 -6.100094886126495e-5 0.0
0.00028399161145192494 -5.669241744768702e-5 0.0
0.00037732538757309387 -6.315806189401516e-5 0.0
0.0004215771478390016 -6.467618894700466e-5 0.0
0.00019615477562714352 -3.60468627584728e-5 0.0
0.00015063131611390507 -2.8284699704912356e-5 0.0
0.0005321166959459209 -5.195811798885622e-5 0.0
2.5873294784605683e-5 -4.892052016070847e-6 0.0
0.0005695113714024011 -1.5843484059352622e-6 0.0
1.770193519839407e-5 -1.2898418195596737e-6 0.0
0.0005903626924923166 -1.1535315452447961e-6 0.0
6.103207984083924e-6 -7.653523148253655e-7 0.0
0.00044423820534834034 -5.3649267585322926e-5 0.0
0.0002982398840427979 7.22308628986502e-5 0.0
0.0005662720789143944 -2.334543921296171e-6 0.0
2.8071185415046458e-5 2.303393136265214e-6 0.0
1.1348649814441036e-5 -1.9014201005383201e-6 0.0
0.0005826325121854015 6.282230628610964e-7 0.0
0.00038502984499449316 -6.155311928962214e-5 0.0
0.00032761367457192353 4.924883384139585e-6 0.0
1.2941472114264217e-5 -2.200238832322153e-6 0.0
0.0005520464784397002 -3.746273006150613e-5 0.0
0.00038946510210907556 -6.406064744832415e-5 0.0
0.0002965066246124076 -5.877205572898725e-5 0.0
0.00022608152987504027 -4.136123243006508e-5 0.0
0.00018196066895911236 -3.387998947324116e-5 0.0
0.00032577425309329705 -6.006730041668378e-5 0.0
0.0004554225656929354 -6.364382466570725e-5 0.0
0.00011937651339782885 -2.238630988174528e-5 0.0
0.0004837617664200806 -6.247174615653388e-5 0.0
8.539517513811892e-5 -1.635307128573958e-5 0.0
5.3209632015529774e-5 -1.051835106319874e-5 0.0
0.000506934782039578 -6.0182853596024336e-5 0.0
0.00021382767806180298 9.481508132283192e-5 0.0
0.0005066748023635239 -1.0485746716056998e-5 0.0
0.0005886185694745767 -2.244280863224392e-6 0.0
4.553799898112386e-6 -6.679192183038239e-7 0.0
0.00029904416229542617 0.00010690708441315608 0.0
0.00045409421431442834 -3.0400234038329265e-5 0.0
3.592626095548157e-5 5.115104238442211e-6 0.0
0.0005745771736205315 -9.78183057770258e-7 0.0
6.030356361283491e-6 -9.397772943138656e-7 0.0
0.0005711186500547531 -1.692691715586215e-5 0.0
0.00047899450932849193 -1.6170817706293277e-5 0.0
0.00048150407063842485 -2.2331638379821068e-5 0.0
0.0005129298412660606 -1.3262798970187061e-5 0.0
0.0004869523699483447 -1.9817219191738616e-5 0.0
0.0004622391623065944 -3.027115262703549e-5 0.0
0.00046341122922602987 -2.5746011727456365e-5 0.0
0.0004891215131687898 -1.7224112919534037e-5 0.0
0.00046697407861467666 -2.0770120227874246e-5 0.0
0.0004923773929687126 -1.4366043434895726e-5 0.0
0.00047187480913904564 -1.6972532420553303e-5 0.0
0.00044828953447158834 -2.3055287293607803e-5 0.0
0.0004527329058085415 -1.8654856027371795e-5 0.0
0.0004322894844182055 -2.3709433529983667e-5 0.0
0.00043568828908935596 -1.9289262644299414e-5 0.0
0.0004177486497666033 -2.347601993557365e-5 0.0
0.00042071043657674977 -1.7409388735655098e-5 0.0
0.0003538094514439607 -1.6960755902105995e-5 0.0
0.000351018793557903 -1.8254484326732892e-5 0.0
0.00034916384427139443 -1.3486839318957413e-5 0.0
0.00034432503756012535 -1.6020299011383656e-5 0.0
0.00034438209724525916 -1.1999512151733908e-5 0.0
0.00033914504472128587 -1.393433951305607e-5 0.0
0.00034028435589820495 -1.066036467973041e-5 0.0
0.00033471209410239496 -1.2492121839049358e-5 0.0
0.00033658731780256503 -9.761877637123798e-6 0.0
0.00033063380553340787 -1.1697671067793517e-5 0.0
0.00033302587841427565 -9.2330504096602e-6 0.0
0.0003270754117308453 -1.0894496510800847e-5 0.0
0.0003297901076966493 -8.740232968185529e-6 0.0
0.00032402100916457033 -1.0027275764943054e-5 0.0
0.0003267727001452855 -7.956398343671902e-6 0.0
0.00032100579132191074 -9.187938153416984e-6 0.0
0.00032401848020314724 -7.430249916588793e-6 0.0
0.0003179922659385342 -8.78472514971986e-6 0.0
0.00032136089851257123 -7.093062071736464e-6 0.0
0.0003153637825085883 -8.218203269415966e-6 0.0
0.00031886807664472066 -6.625341413314402e-6 0.0
0.00031288330905176966 -7.724702669763378e-6 0.0
0.0003163224521071881 -6.284582365413809e-6 0.0
0.00031046553429415916 -7.383606644901475e-6 0.0
0.0003140025457021072 -6.090703898990958e-6 0.0
0.0003083363510996326 -7.104637888005538e-6 0.0
0.0003117643185821949 -5.802220033289543e-6 0.0
0.00030596126444025923 -6.958808348210136e-6 0.0
0.00030952475758741586 -5.68053531403652e-6 0.0
0.00030247061768602483 -7.181848425786519e-6 0.0
0.00030762623883102855 -5.676242390529316e-6 0.0
0.0003014867760310847 -6.762461427205045e-6 0.0
0.00030557703021721156 -5.650673699584373e-6 0.0
0.00029962861636756227 -6.785804590771844e-6 0.0
0.00030362014161573454 -5.770008988321917e-6 0.0
0.0002979776940237752 -6.8801253826495095e-6 0.0
0.00030165598132284396 -5.961947834937537e-6 0.0
0.00029609828286330294 -7.072718629050903e-6 0.0
0.00032559432320924264 -1.4193982337174616e-5 0.0
0.0002997422738884694 -6.25916326870067e-6 0.0
0.00031084545229028945 -9.957333089115893e-6 0.0
0.00029566642237126913 -8.147274948791914e-6 0.0
0.0002938999176477884 -7.483905092227226e-6 0.0
0.00029783304763590147 -6.6819287354107975e-6 0.0
0.00029170339961649043 -7.994470241992387e-6 0.0
0.0002877147643592807 -8.739481492295982e-6 0.0
0.0002853340071679205 -9.333863966401866e-6 0.0
0.0002956603788507127 -7.2449102498385475e-6 0.0
0.0003016386473797172 -5.921956628336202e-6 0.0
0.0003109308979997251 -4.690124062127659e-6 0.0
0.0002995638510825571 -6.55690532783012e-6 0.0
0.000305820470804094 -5.163902138532501e-6 0.0
0.0003035525384831229 -5.9427119632175945e-6 0.0
0.0002812692263897096 -1.0020741750685124e-5 0.0
0.0002791812454661076 -1.0598216515317066e-5 0.0
0.0003099616588981881 -4.5297964485288095e-6 0.0
0.0002746533746290116 -1.1273035836067416e-5 0.0
0.00027290966948566433 -1.1852206722892416e-5 0.0
0.0003078954885842339 -5.359118607971382e-6 0.0
0.0003140476049986547 -4.056985774510875e-6 0.0
0.00026791719834512326 -1.2477935704215732e-5 0.0
0.0002660955977700268 -1.3128429772213145e-5 0.0
0.000312245604158786 -4.92664148141663e-6 0.0
0.0003186492686019573 -3.631398906391309e-6 0.0
0.00026120719355744585 -1.3599017997510176e-5 0.0
0.0002593748979997809 -1.4330258358900829e-5 0.0
0.00031692798277595263 -4.631226423794881e-6 0.0
0.0003236993821040578 -3.333350391875047e-6 0.0
0.00025459984488610665 -1.4617922165617128e-5 0.0
0.00025248301075455265 -1.5403320793786725e-5 0.0
0.00032218641576876666 -4.430721774549063e-6 0.0
0.00032921305799848 -3.152799012584601e-6 0.0
0.0002473649518958995 -1.554088739160016e-5 0.0
0.00024548941888348627 -1.6387462779454627e-5 0.0
0.0002398397572576975 -1.641784441395623e-5 0.0
0.00024168781123637162 -1.5618427064148075e-5 0.0
0.00031480942836461574 -5.809067265489914e-6 0.0
0.0003277854196775849 -4.390714333473699e-6 0.0
0.0003351653533565884 -3.093388325591494e-6 0.0
0.0003366592200053959 -1.8951758928000363e-6 0.0
0.00032125043929765715 -5.282955264436507e-6 0.0
0.00034305995280116766 -1.8180573941973486e-6 0.0
0.0003445597670275066 -7.147573318890439e-7 0.0
0.0003513854341725222 -5.865718150630921e-7 0.0
0.0002385981674148967 -1.7335865663059236e-5 0.0
0.00023265622545964168 -1.714537092849413e-5 0.0
0.00024405339892069432 -1.737876825956478e-5 0.0
0.00033364192110167147 -4.527253983463922e-6 0.0
0.00023164750104845595 -1.8077527458386755e-5 0.0
0.00022536433738597948 -1.772729600312536e-5 0.0
0.00033166950934468284 -6.752459753015005e-6 0.0
0.00022450623474051584 -1.860585897940418e-5 0.0
0.00021780882995964094 -1.8130397651319568e-5 0.0
0.00021706529265329256 -1.9011438509130925e-5 0.0
0.0002100115148529203 -1.8385107275106015e-5 0.0
0.00021057678093169767 -1.7573232954670995e-5 0.0
0.00020165302518418787 -1.7801009642909387e-5 0.0
0.00020239989272914343 -1.6967267937162334e-5 0.0
0.00020837162137749219 -1.9276029638513293e-5 0.0
0.00019240486423340044 -1.7130803407839486e-5 0.0
0.00019314757443490943 -1.6348303587309954e-5 0.0
0.00021640807586385214 -2.0024719272536324e-5 0.0
0.0002089835595601204 -2.0348435072434164e-5 0.0
0.0001831181082917798 -1.6371975733530427e-5 0.0
0.00018353600345485775 -1.5653119389102504e-5 0.0
0.00035300551503851275 3.3940879012376295e-7 0.0
0.00036032144725250525 4.999951349248242e-7 0.0
0.00021578814052987212 -2.1087291523147348e-5 0.0
0.00020848263349290358 -2.1352874474696914e-5 0.0
0.0003619682531351831 1.3060776041904703e-6 0.0
0.00036983922571254144 1.4987114146183339e-6 0.0
0.0003678376061039454 4.998560360740318e-7 0.0
0.00037766242638664666 1.6094674778880874e-6 0.0
0.0003758792148444696 4.1222974480779706e-7 0.0
0.00038597607340459556 1.6671929172399635e-6 0.0
0.00038473903290987756 3.318325416855126e-7 0.0
0.0003954678814197041 1.8142381148593726e-6 0.0
0.00039340664858612145 2.78119956563961e-7 0.0
0.00039657849768972404 2.761867570180693e-6 0.0
0.000404586061318657 1.8511204905099606e-6 0.0
0.00040205366597879726 3.735786228199409e-8 0.0
0.0002153082546076661 -2.2165422311034405e-5 0.0
0.00017275430858109243 -1.558648894296171e-5 0.0
0.00017299938474382817 -1.4878266771815459e-5 0.0
0.0003916884125267156 -2.0663223196307577e-6 0.0
0.00040008733609795245 -2.604874628469448e-6 0.0
0.00041056534089722977 -3.133910066023055e-7 0.0
0.00039044700367018453 -5.1141971911536075e-6 0.0
0.00020818057998054802 -2.2387024418576272e-5 0.0
0.00040872401709727245 -3.3885956756488367e-6 0.0
0.0004192549336668502 -8.212607060360074e-7 0.0
0.00021485606975186163 -2.3281719104670687e-5 0.0
0.00020785477458402682 -2.348444808885539e-5 0.0
0.00020080089046459532 -2.2518129979167424e-5 0.0
0.000417511112966275 -4.470234317617526e-6 0.0
0.0004281909133964566 -1.59615202555541e-6 0.0
0.00021442360239116754 -2.4479672408765082e-5 0.0
0.00022064512645008722 -2.420327464566923e-5 0.0
0.00020054689236628548 -2.3607379268693382e-5 0.0
0.0001931603667797587 -2.2580771015713006e-5 0.0
0.0004262701071259225 -5.861949863270726e-6 0.0
0.00043739085024231455 -2.7044597536057235e-6 0.0
0.0004391905097378941 9.933453555061045e-7 0.0
0.00041567323319331 -8.83726190773915e-6 0.0
0.00044835342007628584 3.6820028501308677e-7 0.0
0.00045030156889133834 2.703716460818361e-6 0.0
0.00016133679852313253 -1.4724123864865793e-5 0.0
0.00016224290129454821 -1.4051312856656195e-5 0.0
0.00017617846466480477 -1.4294341833447625e-5 0.0
0.00016277698652724512 -1.3479790747950372e-5 0.0
0.00017633206243390697 -1.3802933999218842e-5 0.0
0.00016323028376800792 -1.3124585393805057e-5 0.0
0.00017654035105235552 -1.3496693314534236e-5 0.0
0.00022017987957621523 -2.547905946759186e-5 0.0
0.00022573958151976634 -2.509671440822315e-5 0.0
0.00019291313704837416 -2.3673812134611143e-5 0.0
0.0001854067158851462 -2.2588942931719774e-5 0.0
0.0004464399577551135 -4.216764525351121e-6 0.0
0.00016512378194031402 -1.2955255723184655e-5 0.0
0.00017783241929385886 -1.3420140031738934e-5 0.0
0.00022524516680616068 -2.642920902467449e-5 0.0
0.0002302935088760888 -2.5964844222725714e-5 0.0
0.0002654739176687016 -1.3681629058520965e-5 0.0
0.00045736860380588923 -5.760199716241662e-7 0.0
0.0003442177521219841 -9.2372967211391e-6 0.0
0.00035353941130464534 -1.913087534849157e-5 0.0
0.000303799455133813 -8.491939843389651e-6 0.0
0.0003710519753206306 2.111696527960296e-6 0.0
0.00016532930294890693 -1.2922016989740197e-5 0.0
0.00018023916556033802 -1.3547848659442818e-5 0.0
0.00018519546317751905 -2.3686284596438314e-5 0.0
0.0001776932178550548 -2.255371035231241e-5 0.0
0.00022983466206320945 -2.7360497710693655e-5 0.0
0.00023463100468455833 -2.6792322210609184e-5 0.0
0.00045532756141062757 -5.995613687520558e-6 0.0
0.0001499125232862191 -1.3793172799052006e-5 0.0
0.0001493967580648913 -1.4500401091221425e-5 0.0
0.00014906261763159739 -1.2331300790797212e-5 0.0
0.000466212720464309 -1.9028738951365645e-6 0.0
0.0001665348323777752 -1.3000312208468375e-5 0.0
0.00018176906986693163 -1.3755533674378623e-5 0.0
0.0002249407246880567 -2.783475929322682e-5 0.0
0.00017757116411952535 -2.3646203575411567e-5 0.0
0.0001700322941281618 -2.244219220144126e-5 0.0
0.0003633004845577066 1.8081101226095082e-6 0.0
0.0003726577951532942 2.4562247906089254e-6 0.0
0.0003645155998140393 2.0789143022771506e-6 0.0
0.00037423626512745196 2.661744623790795e-6 0.0
0.00023406354632032807 -2.8223136223328923e-5 0.0
0.00023878258589972345 -2.7508939463921707e-5 0.0
0.0002632260200558973 -1.3002276152030525e-5 0.0
0.00016764448062894284 -1.3154425490140788e-5 0.0
0.00018273270480487208 -1.395381348178372e-5 0.0
0.0004642367514543983 -7.930259902489293e-6 0.0
0.00045467759645405646 -1.147507596783187e-5 0.0
0.00016553152420241792 -1.3024600543548614e-5 0.0
0.00018310556375129307 -1.3859232970443815e-5 0.0
0.00047472615022802454 -3.5726853846905517e-6 0.0
0.00047561401455587014 4.258582303984623e-7 0.0
0.0001682792923147692 -1.2499235141726923e-5 0.0
0.00018476559968911484 -2.4909932216334645e-5 0.0
0.00023807793576291106 -2.9020205181462827e-5 0.0
0.0002427422413049625 -2.8161571976448942e-5 0.0
0.00024363987788058932 -2.661028775050902e-5 0.0
0.00024761339081689554 -2.714138299999823e-5 0.0
0.0002486721423465851 -2.5576471516180928e-5 0.0
0.0002527231471064497 -2.598424477024505e-5 0.0
0.0002539223441002348 -2.4392056715335464e-5 0.0
0.0002581338652240986 -2.4701047609491852e-5 0.0
0.00025945474935099315 -2.309608551112439e-5 0.0
0.00026381996062241954 -2.3313070087173273e-5 0.0
0.00026247473438570563 -2.499292011735255e-5 0.0
0.00026829316934884524 -2.3546214442486864e-5 0.0
0.00026693914375590903 -2.528935713178669e-5 0.0
0.0002728741905577435 -2.3821137456159317e-5 0.0
0.0002715039208059186 -2.5639665935750635e-5 0.0
0.00027761150422243977 -2.4171814649842582e-5 0.0
0.0002652561491772344 -2.1691250620516276e-5 0.0
0.00027895017469244267 -2.23543598263533e-5 0.0
0.0002838999417269096 -2.2725954252668525e-5 0.0
0.00028256127491642493 -2.4647951402625213e-5 0.0
0.00028908946516048746 -2.3250454879410275e-5 0.0
0.00013752808390835513 -1.343335521086686e-5 0.0
0.00013698327289758414 -1.415926179980294e-5 0.0
0.00016996283179276169 -2.346419828093117e-5 0.0
0.00016253729941122518 -2.2238653992870786e-5 0.0
0.00029040895153650945 -2.1321043650602757e-5 0.0
0.00029581161782429735 -2.1885579373703115e-5 0.0
0.0002945420984741925 -2.3898261639675393e-5 0.0
0.00030163869406896865 -2.25853344858024e-5 0.0
0.00012514925980974828 -1.2988686104878928e-5 0.0
0.00012466673835754533 -1.3722844143253956e-5 0.0
0.0003657898652417482 2.184160447855773e-6 0.0
0.0003759316374507046 2.675677441527552e-6 0.0
0.0003672563426089618 2.127183951158551e-6 0.0
0.0004728665094670477 -9.755803708347313e-6 0.0
0.00048294631800233415 -5.236052081727695e-6 0.0
0.00024194762651938775 -2.975417840873476e-5 0.0
0.0001934353878160898 -1.39586900545497e-5 0.0
0.0003018448123143525 -6.716897209053601e-6 0.0
0.00030043203520368144 -2.4684218956558982e-5 0.0
0.0003077976104663388 -2.3441067709479494e-5 0.0
0.0003087325460377309 -2.130653450065826e-5 0.0
0.00031519737822729456 -2.2234757508294844e-5 0.0
0.00031626515705829853 -3.2548763274155782e-6 0.0
0.00037806369584018727 2.6259448234694525e-6 0.0
0.0003864232418914986 3.162202761388103e-6 0.0
0.00018455771164801785 -1.271136588348604e-5 0.0
0.00016244674663227828 -2.310190452454881e-5 0.0
0.0001552208935764784 -2.1897200949967184e-5 0.0
0.0003688953048028745 1.9830425098445552e-6 0.0
0.0003142953039108779 -2.4480711912859433e-5 0.0
0.00032175380230480374 -2.3398663861765214e-5 0.0
0.0003225528398982817 -2.1058436753411232e-5 0.0
0.0003291980295683442 -2.2289843681276598e-5 0.0
0.0003300931323143731 -1.9915985071196825e-5 0.0
0.0003366795533589393 -2.112750167801602e-5 0.0
0.00033576747599207063 -2.358586918118846e-5 0.0
0.000343179884457576 -2.243816318694895e-5 0.0
0.00016849273617000702 -1.0168315975093768e-5 0.0
0.00011288060989318906 -1.2467373993892771e-5 0.0
0.000112387432366216 -1.3162321033346517e-5 0.0
0.00023754868920774496 -3.054210769198658e-5 0.0
0.00048063401885940077 -1.2006504084985611e-5 0.0
0.0004910335427981007 -6.926798929672688e-6 0.0
0.00034223343974593975 -2.4930143361419412e-5 0.0
0.00034944628070137176 -2.3818693722963895e-5 0.0
0.00018591177905923317 -8.732413525470841e-6 0.0
0.0001552665551394466 -2.252236297572779e-5 0.0
0.00014789199315276165 -2.1348202653173698e-5 0.0
0.00019799492065572638 -1.4744897236815379e-5 0.0
0.0004387829324314241 -1.390879082890353e-5 0.0
0.00024125287681091043 -3.134816130367827e-5 0.0
0.00016913371576116932 -5.121422540980191e-6 0.0
0.00015354802207598296 -1.2394763427358816e-5 0.0
0.00048761582957696084 -1.5516420949960434e-5 0.0
0.0004988403382755623 -8.718009880923742e-6 0.0
0.0005015675080667157 -2.2470643347053473e-6 0.0
0.00015166391811374192 -1.0558659035899972e-5 0.0
0.00047729024403382397 -1.8866912632023764e-5 0.0
0.00011256152496072868 -1.177393005906482e-5 0.0
0.00016190073506327967 -2.3466182646798902e-5 0.0
0.00038001075826285145 2.4255540035983066e-6 0.0
0.0003706015642715298 1.6525603290266672e-6 0.0
0.0003377038188827016 -1.8694527712997426e-5 0.0
0.00014805969574595526 -2.161233149534192e-5 0.0
0.00014058272105724548 -2.0544622548462338e-5 0.0
0.00010063998468182513 -1.184900528682441e-5 0.0
0.00010013070089730006 -1.2464283271465671e-5 0.0
0.000177873585508062 -2.156563788153362e-5 0.0
0.0003484423603687183 -2.625219183537955e-5 0.0
0.000355632957521555 -2.5177013974120468e-5 0.0
0.0001404526335821479 -2.0109760352985886e-5 0.0
0.00013303051924797187 -1.936772446632647e-5 0.0
0.0003416621131564295 -2.7183385719236116e-5 0.0
0.0002371413409123137 -3.200342713659996e-5 0.0
0.0001333387260320581 -1.942330888370385e-5 0.0
0.00012568111985653945 -1.8364151737468418e-5 0.0
0.00024967223897985245 -2.410906026009097e-5 0.0
0.0005097872758365524 -3.508733516459156e-6 0.0
0.0005123211941535103 6.691636022887294e-7 0.0
0.0005069712159018872 -1.0085400814154084e-5 0.0
0.00035483952108129245 -2.7751326926006363e-5 0.0
0.0003620133251418426 -2.6679283712799266e-5 0.0
0.00033102158282128773 -1.7559886621384654e-5 0.0
0.0003387472928074966 -1.6261880157150236e-5 0.0
0.00024074483105230058 -3.2889637419104895e-5 0.0
0.0003629352336681143 -2.403356189547041e-5 0.0
0.00036938589865986887 -2.5641492053618984e-5 0.0
8.827113070012334e-5 -1.109386784801774e-5 0.0
8.829453572087165e-5 -1.1673153423726116e-5 0.0
0.00036897968474149383 -2.9004305383314823e-5 0.0
0.00037625859144632413 -2.7785745602384825e-5 0.0
0.00012626438243262892 -1.804531810007747e-5 0.0
0.00011844095443724087 -1.7105827554070172e-5 0.0
0.0003818532319912424 2.016436668651284e-6 0.0
0.0003723460963905765 1.164437654940211e-6 0.0
0.00011782881289555521 -1.7202758478202587e-5 0.0
0.00011040913772411147 -1.605493562148878e-5 0.0
0.0001109722080953164 -1.556771991095918e-5 0.0
0.00010278353749087704 -1.4639789275999477e-5 0.0
0.0005179731819933777 -4.7318395908059264e-6 0.0
0.0005149270308624239 -1.1656700601073058e-5 0.0
0.00018698347817071184 -1.3751097281405472e-6 0.0
0.00016894690993144161 2.794666032226797e-6 0.0
0.0003591518548842051 1.5012563772372882e-6 0.0
0.00023686068974482954 -3.332749377806692e-5 0.0
0.00037601735204447243 -3.174114262976734e-5 0.0
0.0003833041614418845 -3.0227869415093108e-5 0.0
0.00040385197099431614 -2.1567073193583117e-5 0.0
0.0003704446986285274 -2.2797145683136665e-5 0.0
0.00026563881661844946 -2.712171211417316e-5 0.0
0.0001020222911234054 -1.489386367398848e-5 0.0
9.446461111680471e-5 -1.3631822859517282e-5 0.0
9.523099763892877e-5 -1.305410132063135e-5 0.0
8.665219861107615e-5 -1.2167433952359585e-5 0.0
8.595547300734315e-5 -1.2566571137271081e-5 0.0
7.76649116950147e-5 -1.1160976164092787e-5 0.0
7.69625648016805e-5 -1.1435762715615854e-5 0.0
6.843024401606364e-5 -1.0132742065477609e-5 0.0
6.773575691677653e-5 -1.0309941150575053e-5 0.0
5.988873409741312e-5 -9.165859219286035e-6 0.0
5.899199605589791e-5 -9.233174416202331e-6 0.0
6.031309753776164e-5 -8.722875139550678e-6 0.0
5.1611514580675363e-5 -7.897557801676408e-6 0.0
7.644536882184056e-5 -1.026678447171617e-5 0.0
7.706555403334325e-5 -9.802624597634024e-6 0.0
5.254372794446889e-5 -7.253766377745466e-6 0.0
4.469830448579042e-5 -6.52729601580533e-6 0.0
0.00020341738422143874 -6.454415718207372e-6 0.0
0.0002016477679742993 -1.6143045395857085e-5 0.0
0.0003320803324345211 -1.5197727346132264e-5 0.0
0.0003397844162009417 -1.3775624403812173e-5 0.0
0.00012349708772372667 -1.4394466467365343e-5 0.0
0.00024042350722166771 -3.4432492712127925e-5 0.0
0.00024424768280034795 -3.388200560704604e-5 0.0
0.00034649013133087 -1.4874911173436366e-5 0.0
0.0003475817865297613 -1.22064038266153e-5 0.0
0.000526154862951206 -5.933663499894048e-6 0.0
0.0005223924224822131 -1.3275583735835508e-5 0.0
0.0005114411252800019 -2.0179878215356148e-5 0.0
0.000361839697407072 8.018152426961282e-7 0.0
0.00036359577684034187 2.1600589226260553e-7 0.0
0.00023322084929360695 -3.238130859690661e-5 0.0
0.00023309641154834165 -3.338164604624521e-5 0.0
0.0002293124022975799 -3.240017048579478e-5 0.0
8.777842218262167e-5 -1.1482893407869423e-5 0.0
0.00037403015103855414 4.084481995860653e-7 0.0
0.00036530232281399837 -7.281015793696657e-7 0.0
0.000182173748323856 -1.7204472808953003e-5 0.0
0.0003828246320354057 -3.436316855888348e-5 0.0
0.0003901707032078201 -3.262711560549236e-5 0.0
0.0003908166353147712 -2.8767757671921308e-5 0.0
0.0003977090337548824 -3.096072815764375e-5 0.0
0.00019375205264831393 8.518461281569727e-6 0.0
0.00017254758938374417 1.2066627650586242e-5 0.0
0.00023071252245419264 -2.4667202239037677e-5 0.0
0.00037578378708271934 -3.617364115887273e-5 0.0
0.00047515342772382475 -1.3793832329413913e-5 0.0
0.00039694048160208035 -3.511661851260676e-5 0.0
0.00040471008961483055 -3.327759475769376e-5 0.0
0.0004054957715319581 -2.9273482385334093e-5 0.0
0.0004126516769486634 -3.149469068595751e-5 0.0
0.0004135719951822449 -2.7546351624095702e-5 0.0
0.00042074012630371387 -2.972399860694468e-5 0.0
0.00041981472916213704 -3.3907913302305385e-5 0.0
0.00042772939166930496 -3.207097290459445e-5 0.0
4.520995002638717e-5 -5.869293762469948e-6 0.0
3.804311985144503e-5 -5.2512642109648e-6 0.0
3.6675226347999924e-5 -5.752778761963856e-6 0.0
0.00024401891401456988 -3.584503355315173e-5 0.0
0.0002476060724286616 -3.520089034668368e-5 0.0
0.000229373594915409 -3.302987836170849e-5 0.0
0.00022546936399966332 -3.197418073213607e-5 0.0
0.0005180695316025988 -2.2279177408982698e-5 0.0
0.0005291814626787991 -1.4827867522273252e-5 0.0
0.0004017328340994039 -2.7714564731414697e-5 0.0
0.0003890883441738643 -2.5719929495620665e-5 0.0
0.00014926628625776245 5.3151512928496845e-6 0.0
0.00015319709202700176 1.3753523928563307e-5 0.0
5.317947164643595e-5 -6.562767410965207e-6 0.0
0.0002227199294036046 -2.068896476864769e-5 0.0
0.0003550441876467976 1.5276717808520744e-6 0.0
0.0005080617064323681 -2.8845917088652614e-5 0.0
0.0001889992454298994 -1.3999010171154462e-5 0.0
0.00035409326786841347 -1.2330804445833388e-7 0.0
0.0004266097139529605 -3.6554069545443605e-5 0.0
0.00043444927133813187 -3.4593902337098404e-5 0.0
0.00042169991484045837 -9.971387376050008e-6 0.0
0.0004426340111363062 -7.684577864114798e-6 0.0
0.0001963328270504212 1.9735980983275186e-5 0.0
9.951989522180257e-5 -1.3029704190002193e-5 0.0
6.363683655198693e-5 -8.826759621184147e-6 0.0
6.444097761291683e-5 -8.42218706551536e-6 0.0
9.613167328007571e-5 -1.2338533322405355e-5 0.0
0.0004044160622895948 -3.796267049865652e-5 0.0
0.0003260210794705469 -5.862341363329038e-6 0.0
0.00029339073320012164 -2.6025113399670766e-5 0.0
0.00021438109467026884 -2.5703867567462814e-5 0.0
3.8434341306203594e-5 -4.7017553847681085e-6 0.0
3.212364727209361e-5 -4.142407962485625e-6 0.0
0.00013397905489480566 -1.8877662174016366e-5 0.0
0.00035436903960861077 -1.332324368046764e-5 0.0
0.00035556370162312953 -1.0475284927234652e-5 0.0
0.00023306180363982692 -3.453832981692765e-5 0.0
0.00042932903265781655 -3.6760264406291674e-6 0.0
0.00044756930972314317 -2.463324960347337e-6 0.0
0.00043547322353445285 3.944308670187938e-7 0.0
0.0004532922952652106 1.1214981468384678e-6 0.0
0.00046548579267986697 -1.557815483968672e-6 0.0
0.0004712135887266086 1.5311427184636343e-6 0.0
0.00045910761649924526 3.1752950988936758e-6 0.0
0.00047667174853400596 3.2351683316971775e-6 0.0
0.0004647881980782033 4.095549822386023e-6 0.0
0.00048227207530129824 3.917444488861341e-6 0.0
0.00047072758333928946 4.462142137718341e-6 0.0
0.000487792404863072 4.133092042653404e-6 0.0
0.0004765277782231253 4.511678590635389e-6 0.0
0.0004932705128369334 4.1069813301864545e-6 0.0
0.0004592957663860506 4.737625152895082e-6 0.0
0.0004823007131656294 4.3977176057382626e-6 0.0
0.0004982921082956732 3.9562710672774735e-6 0.0
0.00048401808869766105 -8.779947201070313e-7 0.0
0.0001326385880665609 -1.8821899536921796e-5 0.0
0.0001271357718074957 -1.7320788329913887e-5 0.0
0.00013461933493433677 -1.8210924106939737e-5 0.0
0.00048803730305534474 4.192344280157985e-6 0.0
0.0005034989256885143 3.7366959914115993e-6 0.0
0.0004732868714958686 4.521991616154129e-6 0.0
0.0002992488283319751 -2.6928753086630203e-5 0.0
0.0002921591430752472 -2.8342539739529686e-5 0.0
0.00029807944289971726 -2.9426028723479245e-5 0.0
0.00029107635230798956 -3.096407293115154e-5 0.0
0.00029705348031524643 -3.232206683337792e-5 0.0
0.0002902163915163342 -3.4133678280784905e-5 0.0
0.0002845345160109975 -3.267971158465688e-5 0.0
0.0002837924370677594 -3.600543460697682e-5 0.0
0.0002784745054383218 -3.4429107234748145e-5 0.0
0.00033426368839786005 -1.9833759477952138e-5 0.0
0.00029641612868400765 -3.6049362618396715e-5 0.0
0.00030342707125157587 -3.407364830964266e-5 0.0
0.0002767257364303617 -1.1387568013202091e-5 0.0
0.0002608087351477493 -2.1555145777557017e-5 0.0
0.00026674241974808827 -2.0119151522355537e-5 0.0
0.0002622221853738544 -2.0064810143412543e-5 0.0
0.0002682898605238054 -1.8594750753861e-5 0.0
0.0002637093324759856 -1.8625940296741974e-5 0.0
0.00026990593757718985 -1.7132036409479277e-5 0.0
0.00027455026223011895 -1.703695780757856e-5 0.0
0.00027626254274252344 -1.555467600108541e-5 0.0
0.00028091290294928524 -1.543152213845606e-5 0.0
0.00028268749341805094 -1.3925511558554712e-5 0.0
0.0002870857964735303 -1.3829896007481625e-5 0.0
0.00027811511111947864 -1.4109268737099316e-5 0.0
0.00026527453742653423 -1.7250024501514505e-5 0.0
0.0002590786076470922 -1.8659804079676986e-5 0.0
0.0002853142718303244 -1.546668024004145e-5 0.0
0.00029187145554824515 -1.3738654093934138e-5 0.0
0.00012808788442329746 -1.7126516119710936e-5 0.0
0.0002933827912462127 -7.97351538086682e-6 0.0
0.00031895404420633394 -1.214719977619554e-5 0.0
0.0002971239985104169 -1.994021061131e-5 0.0
0.0005291922558533205 -1.01938198750343e-6 0.0
0.0005374573672278021 -1.793229181655179e-6 0.0
0.00032658090328285897 -5.950245192880033e-6 0.0
0.0003172570697674745 -4.866881069263602e-6 0.0
0.0004062690311600233 -2.541555375032822e-5 0.0
0.0003492691752675689 -1.8969850389201975e-6 0.0
0.0005246128595418938 -2.387920273522258e-5 0.0
0.0005355821403943999 -1.614901036613998e-5 0.0
0.00030725766889245576 -4.823316685661402e-6 0.0
0.00022574178169253747 -3.2517235663375825e-5 0.0
0.0002216137920101427 -3.1233755328968104e-5 0.0
0.0003377359174862259 -7.4950987655897265e-6 0.0
0.0002777574620879462 -3.7895615486470494e-5 0.0
0.00027262239986180933 -3.611046606730533e-5 0.0
0.00022138611064242666 -3.1127535662043356e-5 0.0
0.00021708854301626676 -3.033234657767269e-5 0.0
0.0002168323136428444 -3.028317756705375e-5 0.0
0.00021164304284470515 -2.9560101000399706e-5 0.0
0.00021207686487077196 -2.9383335318035406e-5 0.0
0.00020604954524592022 -2.8588017822290333e-5 0.0
0.00020655594299655728 -2.8670444772046824e-5 0.0
0.0001999609856810865 -2.763932886392323e-5 0.0
8.916200021557815e-5 -1.1076674703110961e-5 0.0
0.0005401244026029266 6.240303132525274e-7 0.0
0.0003755267730542411 -9.467645361643956e-7 0.0
0.00036654590648118874 -2.2105516154987703e-6 0.0
0.00020218377050056904 -2.058549536001414e-5 0.0
0.0001634602838370524 -2.132834055128522e-5 0.0
0.0005087738236487778 3.6160986558977697e-6 0.0
0.0005001848562944177 3.546785696798179e-6 0.0
0.0002473324355180231 -3.764374081511501e-5 0.0
0.00025103192045867464 -3.674058739744753e-5 0.0
0.0003822337243680301 -3.890311301437382e-5 0.0
8.589775080063742e-5 -1.2664549615028112e-5 0.0
0.000325320816789059 -2.4235743498142748e-6 0.0
0.00035759313435237527 -1.8586788363343993e-6 0.0
0.00035878625641294957 -3.5592774983293013e-6 0.0
0.0004146873308433349 -2.3629581072168796e-5 0.0
0.0004209377634849645 1.5856537487732854e-6 0.0
0.0004357598869937281 -3.0344780987961482e-5 0.0
0.0004428184234115488 -3.26999433388156e-5 0.0
0.0004412042999928718 -3.739433561369461e-5 0.0
0.0004498576039000879 -3.53032225131503e-5 0.0
0.0002774073414052292 -1.0672400387149646e-5 0.0
9.713269220370776e-5 -1.2288599684958805e-5 0.0
0.000288610173508192 -1.2329710683621758e-5 0.0
0.0004475743576728653 4.063393435024674e-6 0.0
0.0002488713780266365 -3.3134189497897834e-5 0.0
0.00013526790097010712 -1.8610854662639156e-5 0.0
0.0001417075541807834 -1.9323978097073638e-5 0.0
0.00037547258146986863 -4.099739990423865e-5 0.0
0.0002113540041641172 -2.937263947038546e-5 0.0
0.0003331584619654271 -1.2802764289751333e-5 0.0
0.0003255407665518126 -1.4245169875504268e-5 0.0
0.000530640361881734 -2.566717866536815e-5 0.0
0.0005420949955035239 -1.7250175115337337e-5 0.0
0.000546708634331912 -9.424112007992899e-6 0.0
0.00021704678784250145 1.754333166455362e-5 0.0
3.24146627868418e-5 -3.7221462554422334e-6 0.0
2.666114686367094e-5 -3.213519754383429e-6 0.0
2.7053239900217804e-5 -3.750839050289011e-6 0.0
0.0003881232381990883 -3.248045294572544e-5 0.0
0.0003999075413109724 -3.261826166291768e-5 0.0
0.000376297322429865 -2.9988355101391832e-5 0.0
0.0003920939676014733 2.8124041989542543e-6 0.0
0.0004938162165841097 3.980293675529832e-6 0.0
0.0005092908779104785 3.5435573688055633e-6 0.0
0.0002221568005354219 -3.212934801835222e-5 0.0
0.0003835960853096593 3.100419016643684e-6 0.0
0.00012784919898432883 6.713844451153751e-6 0.0
0.00013072029532498161 1.3745069119775937e-5 0.0
0.0001593373010713229 2.139544740800104e-5 0.0
0.00013423787238870524 1.9150836999355168e-5 0.0
0.00017611655628498512 3.0184968786559866e-5 0.0
0.0002731301041268302 -3.308227850798425e-5 0.0
0.00019943489587879906 -2.7907353619718142e-5 0.0
0.00019326250793253366 -2.690137254338533e-5 0.0
0.00019375569462919194 -2.6999506936204914e-5 0.0
0.00018700546467693383 -2.5988201730153496e-5 0.0
0.00045112846030062874 -3.0914992710123925e-5 0.0
0.0004578209257467234 -3.350628016526268e-5 0.0
0.00045673824129237214 -3.836317407043661e-5 0.0
0.00046410708255760404 -3.633510747301207e-5 0.0
0.00034870212836962195 -9.502755007851521e-6 0.0
0.0003568516589530472 -7.709724000855828e-6 0.0
0.0003028630883525598 -3.812867164427537e-5 0.0
0.00030999217984583217 -3.605888148669195e-5 0.0
0.0002606019505376395 -1.7355615361220915e-5 0.0
0.00025439698317652234 -1.866508707732285e-5 0.0
0.00024355964232233995 -3.844832826233345e-5 0.0
0.0001875065853961021 -2.680581826576321e-5 0.0
0.00018092957445726792 -2.5408380848827194e-5 0.0
0.0005016060529117634 -2.654678616457561e-5 0.0
0.0004989934623292566 -3.4277157494758904e-5 0.0
0.0004929917818791188 -3.1790857569165114e-5 0.0
0.0004921922766431152 -3.788020211972457e-5 0.0
0.0002506511179297279 -3.9744771227829596e-5 0.0
3.819238071219658e-5 -4.3759130245867725e-6 0.0
6.741453831353889e-5 -1.0335390702966936e-5 0.0
5.75473921530274e-5 -9.120951094482374e-6 0.0
5.1087215908693675e-5 -7.412109136685985e-6 0.0
5.109567210621985e-5 -7.019611028852961e-6 0.0
6.541799774520837e-5 -8.009544724157715e-6 0.0
5.1398612742309255e-5 -6.628163781152468e-6 0.0
6.640988829778276e-5 -7.641290174916253e-6 0.0
5.1762187369538034e-5 -6.372277228995017e-6 0.0
6.76542923626562e-5 -7.436987873797716e-6 0.0
0.0005049931276975891 -3.668723447345523e-5 0.0
0.00018628252436607412 -2.6221809336081855e-5 0.0
0.00040731047722487884 -2.1650100296735257e-5 0.0
0.0003690686361421551 -3.790459199481873e-5 0.0
0.0003690337518866344 -4.322101421664304e-5 0.0
0.00036288436075012444 -4.000942939860723e-5 0.0
0.0002720658974442517 -3.974846072593375e-5 0.0
0.0003833767807084142 2.456165704044074e-7 0.0
0.000463144997793521 -4.2326691390596793e-5 0.0
0.0005538579077821424 -9.657122468929447e-6 0.0
0.0005482483685851794 -1.7886859416994477e-5 0.0
0.0002211267400748156 2.8435996640682354e-5 0.0
0.0003745229296632052 -3.347634590566117e-6 0.0
0.00029173647811509045 -1.944970222527297e-5 0.0
0.0002983309795367535 -1.803061409877103e-5 0.0
0.0002835715205355879 -4.000360610046752e-5 0.0
0.0002671750919623086 -3.785634775269713e-5 0.0
0.0001497906101133372 -1.5411491191900513e-5 0.0
0.0005190071562979813 3.197230148793806e-6 0.0
0.00052475949203609 3.02639389794914e-6 0.0
0.0005147423886087662 3.3720180151934554e-6 0.0
0.000529957766270986 2.888655690751189e-6 0.0
0.00042443311923783406 -1.0556679370304386e-5 0.0
0.0003202272489340333 -2.5758207803233805e-5 0.0
0.00032667871998896494 -1.1970917775354152e-5 0.0
0.00025175432984766115 -2.7637027662173523e-5 0.0
0.0003458019534112233 7.57374746370617e-8 0.0
0.00036246056669041914 -1.1600872631567104e-5 0.0
0.00036406818834097487 -2.1379456480219045e-5 0.0
0.00037168241940095333 -1.9949893227395056e-5 0.0
0.00038714836826616477 -3.872262311934201e-5 0.0
0.0004016161769796208 -3.964593059961604e-5 0.0
0.00014227116884259238 -2.036805823127182e-5 0.0
0.0001483774683963058 -2.0700742218593144e-5 0.0
5.2208128074351464e-5 -6.235518238480101e-6 0.0
6.829606068726442e-5 -7.343590789729594e-6 0.0
8.460584836117671e-5 -8.511355858485681e-6 0.0
8.591846644621187e-5 -8.42876829618318e-6 0.0
6.929391125806131e-5 -7.257908178710813e-6 0.0
8.773010809000048e-5 -8.465998561548322e-6 0.0
7.045072196456392e-5 -7.238347042091559e-6 0.0
8.990961420567284e-5 -8.489488496769505e-6 0.0
7.147147800561294e-5 -7.093250932656518e-6 0.0
2.6928291979135175e-5 -3.0080949307708534e-6 0.0
0.00031915263666279644 -1.3430204243938279e-5 0.0
2.1922168809032096e-5 -2.4898921879734647e-6 0.0
0.0001290478116635877 -1.8228420248123904e-5 0.0
0.0005490911576697751 9.255583519401433e-8 0.0
0.00027129805190556557 -2.0200136867035808e-5 0.0
0.0003515398419967977 -3.0294592703824187e-6 0.0
0.0003531846355701678 -5.2182163176209676e-6 0.0
9.16943204780177e-5 -8.08671115558992e-6 0.0
9.048254682366067e-5 -1.1771821452634062e-5 0.0
8.24297752574983e-5 -1.0267147782356e-5 0.0
0.00019432215752996967 -2.884206365498835e-5 0.0
0.0003810421690904178 -4.420326034670867e-5 0.0
0.00022640493204467712 -3.44565349957946e-5 0.0
0.000470302187570921 -3.9950647611070255e-5 0.0
0.0005585352866886401 -4.248056961206377e-6 0.0
0.00025300307152140996 -1.996991120037731e-5 0.0
0.0002483215884376729 -1.9854135594919194e-5 0.0
0.0002470639794284322 -2.1135898795357686e-5 0.0
0.00023978405986357524 2.609546684527024e-5 0.0
0.00024270306062796064 -2.0858325086720068e-5 0.0
5.218183518064245e-5 -7.866494780792674e-6 0.0
0.00030983333668223117 -4.08840309633625e-5 0.0
0.0003167282757762594 -3.8856241688544654e-5 0.0
0.00031672328681261043 -3.430156430759926e-5 0.0
0.00032305401779376226 -3.7008686975955657e-5 0.0
0.00037838598863019904 -2.1455104489320527e-5 0.0
0.0003797064614312772 -1.8345441386948544e-5 0.0
0.000551575310805755 1.2876666668256574e-6 0.0
0.0005420450335760446 1.7766493161134431e-6 0.0
0.0003613577801420695 -6.926292096358791e-6 0.0
0.00035482694126131735 -9.261294183812434e-6 0.0
0.00012189572641215293 -1.643918786136084e-5 0.0
0.00018150251682245026 -2.6835773033656916e-5 0.0
0.00017500943600809685 -2.5158285239042915e-5 0.0
0.00029320216076155094 -8.020970142552533e-6 0.0
0.00045586993864565824 -4.465158023989862e-5 0.0
7.265273995308482e-5 -6.302360988238442e-6 0.0
0.00017429344051962138 -2.4242621252859106e-5 0.0
0.00032313671043253313 -4.215415216044751e-5 0.0
0.00032959166277061927 -4.025050962317894e-5 0.0
0.0003202971122076069 -1.1329333759312017e-5 0.0
0.00031305386271617 -1.277792961712599e-5 0.0
0.0003143461355765582 -1.084342927032788e-5 0.0
0.00030735376195169066 -4.698954676381776e-6 0.0
4.868066549609118e-5 -7.903585486267674e-6 0.0
2.212383831756735e-5 -2.5334875036107256e-6 0.0
0.00032322339826120416 -3.260705972019848e-5 0.0
0.00033228176548033117 -6.165808170954181e-6 0.0
0.00026669943093094 -4.160142833994114e-5 0.0
0.0001390026247055576 -1.2828836698991725e-5 0.0
0.00022649957033574642 -1.6912807555770454e-5 0.0
9.819585680929939e-5 -1.3661297220284807e-5 0.0
0.00047134314887564753 -3.463158398302878e-5 0.0
0.00014067914076916198 -1.942488886261042e-5 0.0
0.0001323912812820686 -1.814799900901531e-5 0.0
0.00014113513568768024 -1.8694187146587236e-5 0.0
0.00013251486944810975 -1.7482070778287565e-5 0.0
0.00014150889431753066 -1.79795475670555e-5 0.0
0.00012353564524002512 -1.6875939676021924e-5 0.0
0.00036286172269284157 -4.5539294262531604e-5 0.0
0.00035723112710340946 -4.229334940621557e-5 0.0
0.0001020799302278683 6.437090452521217e-6 0.0
0.00027185991562145214 -4.378341504931968e-5 0.0
0.0002701359375025171 -2.7576484644158736e-5 0.0
0.000264354449941248 -2.9081410250502564e-5 0.0
0.00014906390972908864 -2.2332075406659126e-5 0.0
3.998465009213241e-5 -6.349873469288035e-6 0.0
4.1729595590724376e-5 -6.909451754281289e-6 0.0
0.0005032693635342013 1.4500732730679998e-6 0.0
0.0005142014816720214 2.4664370421631497e-6 0.0
0.00010183145035592574 -9.537005539438681e-6 0.0
0.00015502388906204865 -2.2385236699870492e-5 0.0
0.00015472037480308777 -2.1337855500022032e-5 0.0
0.0001557415319248581 -2.4421093483827344e-5 0.0
0.0001431897904609514 -2.23481599452633e-5 0.0
0.00014550350174200906 2.3461837866910474e-5 0.0
0.00022941507820700715 -3.149315959162615e-5 0.0
0.0003179986413563704 -1.5613038012727322e-5 0.0
0.000504290558407898 2.994824082676791e-6 0.0
0.00030267600326695077 -4.310976905579662e-5 0.0
0.00022304464025729883 -3.450591252463282e-5 0.0
0.0005600805025159632 -9.585045533828141e-6 0.0
0.0005536166046455621 -1.861027625852613e-5 0.0
0.00023674494852999033 1.4348735342292798e-5 0.0
0.0001757379804860723 -2.7126819498878074e-5 0.0
0.0003498927188063611 -6.837300218407218e-6 0.0
0.000358758341302961 -5.090720667799854e-6 0.0
6.708874562777447e-5 -1.0249750923579546e-5 0.0
8.382432987729523e-5 -1.1425011251655352e-5 0.0
7.58709112876095e-5 -9.77244814622076e-6 0.0
7.438994692336168e-5 -9.090122343375359e-6 0.0
0.00012292643764286927 -1.8087700517094447e-5 0.0
1.7528920008746048e-5 -1.9539554049497288e-6 0.0
1.7602105546858832e-5 -2.129838009988886e-6 0.0
0.00032964876811977133 -4.583406292321298e-5 0.0
0.0003359258503105468 -4.377720452125022e-5 0.0
0.00033559792340959757 -3.804419472326645e-5 0.0
0.00045906161575847717 -2.9240919318844298e-5 0.0
0.0004522579907795571 -2.6568550352811982e-5 0.0
0.00046198616397134443 -4.875514798151957e-5 0.0
0.00012353222193442855 -1.6272862421793484e-5 0.0
0.00011455669174000785 -1.564751274355919e-5 0.0
0.00036560548341443535 -5.812005713242987e-6 0.0
0.0005401144534539837 2.443819724741184e-6 0.0
0.0005451864477207022 2.3252255202699973e-6 0.0
0.0005525427685110399 1.8229051260197654e-6 0.0
0.0005401611731041981 -3.0320794345735247e-5 0.0
2.7204452700007708e-5 -3.41491828327436e-6 0.0
0.0003521034922554363 2.899586979730822e-7 0.0
0.00034594253408452543 -5.646163166483889e-7 0.0
0.00034375345204926816 -3.618953820065457e-7 0.0
0.0003386317836499606 -1.2508472122678353e-6 0.0
0.0003364809024738363 -1.008324591745708e-6 0.0
0.00034054556323627304 -1.5295298174078019e-6 0.0
0.0002930928330907313 -1.7603006361654283e-5 0.0
0.00025584133959490133 -1.7440375361331446e-5 0.0
0.00026221909489817125 -1.6138662392881082e-5 0.0
7.726835831478219e-5 -1.126068017702883e-5 0.0
6.943134560301663e-5 -9.446626666571764e-6 0.0
0.00047789616314512177 -4.58977837633495e-6 0.0
0.0004975602748029023 -3.4379160261662735e-6 0.0
0.0005041936266669238 -2.0704104907486186e-7 0.0
0.0005183953770074 -2.258440302273958e-6 0.0
0.0005151598350634015 -4.956117820118142e-6 0.0
0.000262254262689739 -3.975110221142855e-5 0.0
0.000262925367320543 -3.665611344938354e-5 0.0
0.00026170483608179703 -4.3403641453859936e-5 0.0
0.00034773511929847003 -4.269096421170364e-6 0.0
0.0003458284707617688 -2.983629338760113e-6 0.0
0.00010098115375933373 -9.721034244936086e-6 0.0
5.227363673602991e-5 -5.586264598208684e-6 0.0
0.0003569534434083535 -4.784154797079939e-5 0.0
0.00012567236184268755 2.1304740098325362e-7 0.0
0.0003531929925111602 -1.6060018951102652e-5 0.0
0.00034260226149820667 1.3667834669449493e-8 0.0
0.0003343541020793819 -8.238307655762629e-7 0.0
0.0003393490095502627 1.6621345419889275e-8 0.0
0.0003321762556802288 -7.810101553423346e-7 0.0
0.00033707678546181924 -5.800787271596337e-8 0.0
0.00033001677960080934 -8.883067555458925e-7 0.0
0.0003349684566993465 -2.1748365177176276e-7 0.0
0.0003279098334911365 -1.0829354318590965e-6 0.0
0.0003331589517308995 -4.512529268558958e-7 0.0
0.0003274458654145558 -1.719381927165424e-6 0.0
0.00032321822367491275 -1.8468372213582819e-6 0.0
0.00036880541382923205 -4.8999615487798257e-5 0.0
0.0005630616514316129 8.625799762718576e-7 0.0
0.00021677859056972156 -2.9635703827550125e-5 0.0
0.0002111081615302011 -2.859364249871145e-5 0.0
0.0005203167610470583 -3.316708124856231e-5 0.0
0.00024400344048605373 -1.9800714374804903e-5 0.0
0.00033214040165924897 -2.0309709946967275e-6 0.0
0.00018885705700264545 4.1022159468557894e-5 0.0
3.8704680706356815e-5 -5.641709403453988e-6 0.0
0.0002609640479767546 2.3346100681177814e-5 0.0
0.0002545483955079172 1.0072818687049198e-5 0.0
0.0004116104123522308 -4.159769436771566e-6 0.0
0.0005258567933349898 -3.522810620378565e-5 0.0
0.0005170499001065391 -4.1599982936273925e-5 0.0
0.00024142019275031932 -2.2130161647729212e-5 0.0
0.0002376322400425159 -2.152688973117602e-5 0.0
0.00010536464578988588 -1.3474226414502212e-5 0.0
1.7713122042205173e-5 -2.1962045917597967e-6 0.0
3.024321460989888e-5 -5.194371094916273e-6 0.0
3.065996528967405e-5 -5.512392352174717e-6 0.0
1.3433599580362263e-5 -1.590850550983168e-6 0.0
0.00037282193087012714 -1.6978513412985993e-5 0.0
0.00038104334899572 -1.517509270314197e-5 0.0
0.00038829429741637275 -1.6611043918570763e-5 0.0
0.00038959868415239517 -1.2981512691075183e-5 0.0
0.00032114884555693035 -2.096264586610586e-6 0.0
0.00021501173665272504 4.667991002316822e-5 0.0
0.00025125130039093844 3.8121979145021305e-5 0.0
0.00030735408764750175 -1.2327521475571562e-5 0.0
0.000308896666645166 -1.0467168808086584e-5 0.0
0.00025743837335805706 -1.6359720451741455e-5 0.0
0.00023052350076349334 -1.9069052763504693e-5 0.0
0.0002275846947436449 -3.725220658882475e-5 0.0
0.000419080988716407 -3.869511429112486e-5 0.0
0.0004255966158833812 -4.179953302003223e-5 0.0
0.00041842076652378175 -4.435754460177164e-5 0.0
0.00042469671082404515 -4.80487921334267e-5 0.0
0.0004177044799653418 -5.095711006574032e-5 0.0
0.0004112768626747059 -4.720981062398216e-5 0.0
0.00039602371798643513 -4.067998275132036e-5 0.0
0.0003564155339561382 -3.67185278865307e-5 0.0
0.0003778615935505601 -1.978912305939265e-5 0.0
0.00028665771495265313 -2.746566651204342e-5 0.0
0.00010715189224435773 -9.708380167440232e-6 0.0
0.000546588881102411 -2.97751513371128e-5 0.0
0.0005582016047789659 -1.9176143785570975e-5 0.0
0.00043174721555299793 -4.529433162578359e-5 0.0
0.00043093125410918726 -5.197153237920581e-5 0.0
0.0004379960145097812 -4.9204072179092644e-5 0.0
0.00023048313182897801 -3.7228410803832104e-5 0.0
0.0002601056312074058 -2.856992631020489e-5 0.0
0.00025905661634850844 -3.0487389838022826e-5 0.0
0.0002631649763121105 -3.120730388911367e-5 0.0
0.00020099553260995897 -2.4987897759293948e-5 0.0
0.000255048334071562 -2.986991202760432e-5 0.0
0.0003172960845445332 -3.095664789921623e-5 0.0
0.0004606143403084194 -2.4446634569886254e-5 0.0
0.0004769709187601669 -3.7782359723093406e-5 0.0
0.0004759997420276632 -4.416844433856937e-5 0.0
0.00047875163292732115 -3.279692577178598e-5 0.0
8.271737368060907e-5 -9.075881227139934e-6 0.0
0.00021266366216729003 -3.009736556540467e-5 0.0
0.0002072480355950525 -3.020262251090267e-5 0.0
0.00021328199187766727 -3.237586238648293e-5 0.0
0.0002080626413941156 -3.2851696945163285e-5 0.0
0.00039699261614964095 -1.4349415429160366e-5 0.0
0.00013013328923496575 -2.020084654683935e-5 0.0
0.00011605835513832298 -1.6166986009495864e-5 0.0
0.0005348206733289507 2.755692692740989e-6 0.0
3.821151033354223e-5 -5.128871983511719e-6 0.0
3.852373662788775e-5 -5.132339844848409e-6 0.0
0.0003509142084357002 -4.367472370863586e-5 0.0
0.0003516982883382861 -5.0064590894258355e-5 0.0
0.00028659073127138186 -1.9091075379270795e-5 0.0
0.0005256496575612293 2.4758407976835007e-7 0.0
0.00011697933870241729 -1.8047755340586348e-5 0.0
0.0004462692061904512 -3.506300195849199e-5 0.0
0.0004946426040486861 -2.4234070084137782e-5 0.0
0.0005158208272156138 -1.0827690075403387e-5 0.0
0.0005172671265581698 -9.25116660577771e-6 0.0
0.00038252524080711783 -1.1824539420067887e-5 0.0
0.00041612287043527225 -1.9795516588775923e-5 0.0
0.00042364101716514744 -2.1810456606830643e-5 0.0
0.0004040078415723738 -5.4113923970149145e-5 0.0
0.00041713521207472953 -5.259481358209558e-5 0.0
0.0004147633785420776 -3.891603884464684e-5 0.0
0.0003231742393843473 -4.786039806828511e-5 0.0
0.00018180127469811087 -2.9053480244223743e-5 0.0
0.00025635981534321065 -2.1434858819764513e-5 0.0
0.00034180399232518687 -8.716140056875862e-6 0.0
0.0003037332504770436 -1.854789285813531e-5 0.0
0.0003096413622747337 -4.629972160182203e-5 0.0
0.0001612178745971156 -2.434291943681006e-5 0.0
0.00020519998670508847 -2.8395279437120648e-5 0.0
8.852186030948263e-5 -1.2240356614887849e-5 0.0
0.0005366431691872771 -1.2342380952506165e-6 0.0
0.000399044283974702 -2.352574269831752e-5 0.0
5.675367156831122e-5 -8.994472365308998e-6 0.0
0.00022875831886677743 6.128895284722977e-5 0.0
0.0003053397989440095 -2.802445550298574e-5 0.0
0.0004105594852401369 -5.388270219597658e-5 0.0
0.00040407131427402584 -5.004309100000133e-5 0.0
0.0003505057216427269 -2.1235019419476775e-5 0.0
0.00036707475615727113 -3.402439052302022e-6 0.0
0.00019349804595730508 -2.161997634900317e-5 0.0
0.0002578562210776897 -3.295678509741033e-5 0.0
0.00033987835262099263 -4.7930367974814096e-6 0.0
0.0002049533248852664 -2.7483678650332932e-5 0.0
0.00019844055752614705 -2.734481024157208e-5 0.0
0.0001619304142506496 -2.6494265186916823e-5 0.0
0.00011727907831122899 -1.060396804712426e-5 0.0
0.00011896902837047987 -1.0537637135143385e-5 0.0
5.3568149633918835e-5 -4.507291689392073e-6 0.0
7.537501698243659e-5 -4.0099077320396285e-6 0.0
0.0004547891203172102 -5.1117390003564984e-5 0.0
7.719990163086139e-5 -1.1478891361937802e-5 0.0
0.00011466250027179433 -1.6156578359626642e-5 0.0
0.00010550598774255397 -1.488571288320358e-5 0.0
0.0004727489017323156 -3.019278599583436e-5 0.0
0.000245907544060011 -3.0450245105498375e-5 0.0
0.00029961438812190204 -1.6054757420947097e-5 0.0
0.0003655998093996309 -2.1123129438763765e-5 0.0
0.0003664473779863164 -3.313200786892054e-5 0.0
0.00035810335054964175 -2.4910959602548617e-5 0.0
0.0003588273301921161 -3.678640956128722e-5 0.0
0.00036823956608794943 -4.1646541590761205e-5 0.0
0.00039457674544079183 2.238762712275115e-6 0.0
0.00040498914106923634 3.0919033693421825e-6 0.0
0.00040837885488658555 2.253985461270632e-6 0.0
0.00041852228494017936 3.143524304719545e-6 0.0
0.0004151393565448821 3.7572691702093927e-6 0.0
2.9506679162823333e-5 -4.932981562227378e-6 0.0
0.0003986482204855254 -1.061167093655511e-5 0.0
0.00010182570707850338 1.3785916833252446e-5 0.0
0.000113789452824162 1.6967871754524052e-5 0.0
0.00033586952651515665 -4.9531594387798763e-5 0.0
2.5363128184948815e-5 -3.747242786942283e-6 0.0
0.00044042125672670606 2.8605183545530992e-6 0.0
0.00045185846124285204 3.707835055299322e-6 0.0
0.00044286461907917264 3.88796474319654e-6 0.0
0.0004620129885574049 3.5861087274598384e-6 0.0
0.0004635451112520644 4.1304802599445105e-6 0.0
0.00047402776718984883 3.970475779594686e-6 0.0
0.00015023591282509337 -1.9130378314878303e-5 0.0
0.00015098676718226385 -1.840169245555496e-5 0.0
0.00014181332481728236 -1.7258027472840812e-5 0.0
0.00015158871674510294 -1.7649396184696198e-5 0.0
0.00016069464737993703 -1.8730838111168762e-5 0.0
0.00016142230748742808 -1.7928954595617866e-5 0.0
0.0001703148307194417 -1.8936159504023345e-5 0.0
0.00017653527871790332 -2.9413645433982818e-5 0.0
0.00017112961505518772 -1.8064480301096836e-5 0.0
0.00017990725688020118 -1.9039071962526983e-5 0.0
5.257519365561768e-5 -6.003495679447752e-6 0.0
0.00011588260776213466 -1.0856633163810904e-5 0.0
0.00017878536852361334 -1.9898519053247037e-5 0.0
0.00014316261862835233 -1.6618448599921986e-5 0.0
0.0004536645577741022 -2.1790989056415513e-5 0.0
0.0004452136986065797 -2.4172732750612264e-5 0.0
0.0002578424409181392 -4.1629874783823766e-5 0.0
0.00025739586178522684 -4.5018103988506155e-5 0.0
0.00035304093961165725 -2.5658263564805076e-5 0.0
0.00023639904112499809 2.764941017444656e-6 0.0
0.00025287909751352716 -2.12267589047416e-6 0.0
0.0002701633004213734 4.233746275731727e-6 0.0
0.00026878351676642233 -8.158384199693976e-6 0.0
0.0002534226728777648 -1.1874947300408077e-5 0.0
0.00026887444755878924 -1.624131788322885e-5 0.0
0.0002544637950054206 -1.6650204428990207e-5 0.0
0.000269186081881432 -1.8293100174433763e-5 0.0
0.00025502275886222055 -1.7521806645689257e-5 0.0
0.0002711819500167391 -1.7840680991827316e-5 0.0
0.0002548749475995146 -1.722353702674297e-5 0.0
0.00026770994569521396 -1.697672795264929e-5 0.0
0.0002539787065497525 -1.6574739101547892e-5 0.0
0.00026604842799965927 -1.6164998327975548e-5 0.0
0.0002536888252699811 -1.595689901631339e-5 0.0
0.00026484078176334543 -1.5403627333028645e-5 0.0
0.000252923450767422 -1.5342609371429357e-5 0.0
0.0002631364995975211 -1.4680449749155844e-5 0.0
0.0002520555566168809 -1.4777796168135285e-5 0.0
0.0002616575662869572 -1.4154209808757336e-5 0.0
0.00025106973400652036 -1.4376180516119975e-5 0.0
0.00026006443217831707 -1.3745462043504358e-5 0.0
0.00024977038481570406 -1.4091371732262649e-5 0.0
0.0002585112321281717 -1.3495771176562291e-5 0.0
0.0002484744161954542 -1.3948080992122337e-5 0.0
0.00023972940583281334 -1.4305552575161097e-5 0.0
0.00023869464353358516 -1.4280131368701125e-5 0.0
0.0002575061389867352 -1.3335229822125439e-5 0.0
0.00024222011121906076 -1.5168914881796805e-5 0.0
0.0002686301129848655 -1.2926577396336306e-5 0.0
0.0002733358249440798 -1.3715108106658814e-5 0.0
0.00024146802089487047 -1.640556364121679e-5 0.0
0.0002771561259396525 -1.5327526864713926e-5 0.0
0.00022960204094858147 -1.4427692580414332e-5 0.0
0.0002289545250101184 -1.4525202331133473e-5 0.0
0.0002377008979551395 -1.4416069834738738e-5 0.0
0.00022831832150839806 -1.4760322258677723e-5 0.0
0.00024186558717062298 -1.6157636848833557e-5 0.0
0.0002828083380089576 -1.7223276824481223e-5 0.0
0.00023046677514168624 -1.450832215073667e-5 0.0
0.0002848256313032733 -1.8957183682260145e-5 0.0
0.00023678492998860818 -1.469660042150856e-5 0.0
0.0002276611422502048 -1.5143667625373338e-5 0.0
0.00021884677303657954 -1.501249798077497e-5 0.0
0.00021963941723129808 -1.4436851891990624e-5 0.0
0.00021999892495818527 -1.4576807224834326e-5 0.0
0.0002459237349537486 -1.4131151678902435e-5 0.0
0.0002445855914230447 -1.4476334429182452e-5 0.0
0.00025335429006667523 -1.3711073620474928e-5 0.0
0.00028613245446538707 -3.996357180358306e-6 0.0
0.0002910724118371427 7.791190311905724e-6 0.0
0.000218691972462917 -1.548178631538776e-5 0.0
0.0002091829018328653 -1.518017906496484e-5 0.0
0.00020944588649649156 -1.47883104076657e-5 0.0
0.00019881835037045787 -1.4793693980613448e-5 0.0
0.00030253993699049767 -4.8716903093877186e-5 0.0
0.0002960497841274532 -4.5397633402101845e-5 0.0
0.0005222023390546612 -4.373090407980841e-5 0.0
0.00032380509002891773 -2.9477643433749673e-5 0.0
0.0003299406677872787 -3.108564170341162e-5 0.0
0.00021597760725733817 -2.846851596332853e-5 0.0
0.00022105627435107275 -2.9511929638473023e-5 0.0
0.0004564839158686465 -1.0758624244259499e-5 0.0
0.0003278105477179769 -9.702650081493586e-6 0.0
0.0002272818616030276 -1.5663598667686946e-5 0.0
0.0001676081468228125 -2.3523034934872244e-5 0.0
0.00016761230219741863 -2.3380611306261846e-5 0.0
0.00017373336846511733 -2.4521066621871236e-5 0.0
0.0003600709138100451 -2.960685542925099e-6 0.0
0.0003440178412253945 5.882058468556206e-7 0.0
0.00024601655157356563 -2.246052607459524e-5 0.0
0.00024059649005375022 -2.3441879399463824e-5 0.0
0.0003433879061869378 -4.399025527498433e-6 0.0
0.00034079825578177674 -3.807731634967492e-6 0.0
0.00034340981933077296 -2.5763837328500123e-6 0.0
0.0003376144843172307 -3.4627764933092236e-6 0.0
0.0003458920172612439 -5.540619711609922e-6 0.0
0.00034044900017528616 3.2898104992481505e-7 0.0
0.0003389176743831101 5.7979410578804054e-8 0.0
0.00033083466744448733 -9.000629068805945e-7 0.0
0.00026396361746086334 -1.5038274287522092e-5 0.0
0.00026878869460346687 -1.4700721098163852e-5 0.0
0.00027067710812357507 -1.359363527499882e-5 0.0
0.00027538500088564915 -1.3155544308019523e-5 0.0
0.00027731977520740586 -1.2116170956126937e-5 0.0
0.00028195376617817943 -1.1597337161543369e-5 0.0
0.00028395627959923973 -1.057822726511081e-5 0.0
0.00028869306045612656 -9.973979815669142e-6 0.0
0.00028655304140129905 -1.1148626481642864e-5 0.0
0.0002934934017974334 -9.346889557213723e-6 0.0
0.0003160534183109353 -9.001379292173384e-6 0.0
0.00031048031605367306 -8.751334877944881e-6 0.0
0.0003037385061319954 -1.0297960245709268e-5 0.0
0.000305386520894624 -8.738160057090608e-6 0.0
6.669612249377256e-5 -9.985836932280907e-6 0.0
7.108355707731232e-5 -1.1159858333722113e-5 0.0
6.350174228302503e-5 -9.234654342248464e-6 0.0
6.21075426458519e-5 -7.835054775936898e-6 0.0
5.5973260293236056e-5 -7.49293710559351e-6 0.0
0.00028802301402395245 -1.732251323532397e-5 0.0
0.00037427069012703257 -3.85260615507601e-6 0.0
0.00037213259163616265 -6.656779299563545e-6 0.0
0.00020186108115563788 2.9415101921309116e-5 0.0
0.00031676656623389664 -2.8930051609832e-6 0.0
0.0003186204208720104 -2.7351662227167836e-6 0.0
0.00035770640353074615 -2.8963792393380028e-5 0.0
0.0005519683215643479 -3.4582991044416643e-6 0.0
0.0005624461203835765 -1.3855933110576356e-6 0.0
0.000570096708459984 -1.6270978269435867e-6 0.0
2.2387900549878637e-5 -4.097048121220062e-6 0.0
2.249953321366028e-5 -4.197760785732581e-6 0.0
3.0255553161317083e-5 -5.44145190676084e-6 0.0
2.312643426168785e-5 -4.187484462423384e-6 0.0
3.017140716327936e-5 -5.26318559341607e-6 0.0
2.3275524912088185e-5 -4.04316852243634e-6 0.0
1.596798167471992e-5 -2.7604374379852264e-6 0.0
0.000281661242224946 -1.886513278916498e-5 0.0
0.00016263039365732525 -1.7139105299392957e-5 0.0
8.554644519608814e-5 -1.3290984425497597e-5 0.0
0.00025167485430417576 -1.4083185329196905e-5 0.0
0.000515667523351966 -4.8651684579194126e-5 0.0
0.0005103218924614347 -4.777759868733915e-5 0.0
0.0004251076426164827 -1.7505630668637156e-5 0.0
0.000434638851289943 -1.935902885059173e-5 0.0
0.00043518677934245543 -1.3885571536919456e-5 0.0
3.289118205491021e-5 -3.975861414169034e-6 0.0
0.00022421004466029426 -3.7319518602910384e-5 0.0
0.00015665851171674987 -2.6731017609615188e-5 0.0
1.3680989526695585e-5 -1.9393912957282187e-6 0.0
1.8280727975368278e-5 -2.945198070378462e-6 0.0
0.00013290290109855752 -1.6179425900986864e-5 0.0
0.0003692183544720273 -5.1727542672235614e-5 0.0
0.0003838974579708917 -5.786808975344821e-5 0.0
0.0004079115869423074 -1.7962760428341543e-5 0.0
0.00043071481061539876 -2.401083699645109e-5 0.0
0.0002140537965709569 -3.509446920735535e-5 0.0
0.00023158289493153681 -3.9944185743579984e-5 0.0
0.00023440977145294562 -4.00054608720172e-5 0.0
0.00048222707365907065 -4.185318717069086e-5 0.0
0.0004811075831245115 -4.797427973564659e-5 0.0
0.00047495304427537944 -5.130542323174921e-5 0.0
0.0005157355691426426 3.1812584738003436e-6 0.0
0.0005056266288185167 3.520503180589517e-6 0.0
0.0004942760728987676 3.435745501433238e-6 0.0
0.0004946926290247606 3.8164418185309536e-6 0.0
0.00011275555416692683 -1.501461590031063e-5 0.0
0.00047511136950577023 4.243440464263561e-6 0.0
0.0004630011395711941 4.444760938958346e-6 0.0
0.0003307546173682139 -2.8327504942599186e-5 0.0
5.6929340363319475e-5 -8.937538294285158e-6 0.0
5.025395079373618e-5 -7.480846872810662e-6 0.0
4.885419666559751e-5 -6.199032297980443e-6 0.0
4.363165860514818e-5 -6.025315202477091e-6 0.0
0.0005724888634738968 -3.530408558620015e-7 0.0
0.0005503142770232951 2.1787137112176196e-6 0.0
0.0005610020126367274 1.6879238131253256e-6 0.0
0.00046050010143481473 -5.48117913776232e-5 0.0
0.00025099386435851816 -1.7500037953738648e-5 0.0
0.0004867331435308535 -4.5679892760459296e-5 0.0
0.0004858484981304713 -5.15629645497943e-5 0.0
0.0004910451584903733 -4.93223572467379e-5 0.0
0.0004907122821773621 -5.586571543787708e-5 0.0
0.0004958974184176918 -5.255825311237186e-5 0.0
0.0004965697387599457 -4.666960073332508e-5 0.0
0.0005009978908753688 -5.011308512910504e-5 0.0
0.0002617120695531781 -4.681710115423319e-5 0.0
0.00025767776152025136 -4.834336444242619e-5 0.0
0.00025358842226076846 -4.627083507329865e-5 0.0
0.0002186540160065524 -1.612571570374063e-5 0.0
1.732596393037895e-5 -2.911324322869888e-6 0.0
2.310381307355768e-5 -3.859529535397688e-6 0.0
1.7278186857265778e-5 -2.7434817650795808e-6 0.0
0.00020958766204424165 -3.599722742846188e-5 0.0
0.0002028626339123429 -3.3477428832046565e-5 0.0
0.0005371124723376147 -3.934903021379947e-5 0.0
5.695280199210908e-5 -2.0025632124467676e-6 0.0
0.0002988154888879618 -1.0461006500724689e-5 0.0
0.0003008740464952549 -8.907417546453337e-6 0.0
0.0005106225231224314 1.829422709037883e-6 0.0
0.000532299577151857 1.6051631101575184e-6 0.0
0.00047981561799628986 -2.7490613726395702e-5 0.0
0.00011061820640739927 -1.6018495416639005e-5 0.0
0.00011235563746227407 -1.8190049429889883e-5 0.0
0.0003965996933677252 -1.8136267088362942e-5 0.0
0.0004540786353117249 -4.3828571140894576e-5 0.0
0.0005506717163911204 -2.9972938800307204e-5 0.0
0.0005624948490936832 -1.8757243082591277e-5 0.0
0.000571121539555594 -8.576893441912267e-6 0.0
0.0004292061994811825 -4.952073432746461e-5 0.0
0.00046240838505346544 -1.9162465790726333e-5 0.0
0.000254865592079984 -3.776616620524803e-5 0.0
0.00047236127829890093 3.359335851683848e-6 0.0
0.00044520523837622165 -1.990101649056397e-5 0.0
0.00019883609026777468 -2.6239232049425977e-5 0.0
0.00011469349835927867 -1.4958804840314295e-5 0.0
0.0005271265531809203 2.806147039032956e-6 0.0
0.00044559746451296325 -2.789280053204641e-5 0.0
0.0002027836337265676 -3.585985089939003e-5 0.0
0.00010004810381876424 -1.3672770552502465e-5 0.0
0.00031371748296132776 -3.4038602001391995e-6 0.0
0.00044873914272913366 -4.809420530064936e-5 0.0
0.00044847295624974215 -5.438293056394413e-5 0.0
9.879109068460025e-6 -1.344140978026041e-6 0.0
0.0003418618185619148 -4.7946978402993706e-5 0.0
0.00034057011937604215 -5.2582952381167276e-5 0.0
0.00023534483603079265 -4.315620051374916e-5 0.0
0.00023827107372875948 -4.2808655429298435e-5 0.0
0.00023706991683313436 -3.9806128010648764e-5 0.0
0.00024063209413836432 -4.261795613257356e-5 0.0
0.0002388163841463091 -4.466760709834072e-5 0.0
0.0002314307117587314 -1.4723903458697277e-5 0.0
0.00022070038670373346 -1.4772881639655202e-5 0.0
9.929699769529481e-5 -9.99833515050224e-6 0.0
0.00024954187441407786 6.156788072511086e-5 0.0
0.00023753531212587257 4.8002269455092644e-5 0.0
0.00035287619461439514 -1.5008854484335395e-5 0.0
0.0004364794369944056 -5.587417926174846e-5 0.0
0.0004300162245168051 -5.8737821734137085e-5 0.0
4.4170412501599534e-5 -7.413955225205278e-6 0.0
3.812048077965764e-5 -5.854420797375315e-6 0.0
0.0005661390972350623 1.486384732672703e-6 0.0
0.00010738645307001658 -1.543199551122154e-5 0.0
9.658754292966844e-5 -1.4011478143167527e-5 0.0
0.000547727481241643 -3.6665368770907844e-6 0.0
0.0005301024299822499 -3.7618843467359926e-5 0.0
0.0005265329674800498 -4.713824354016349e-5 0.0
0.00031883303459082866 -2.564936866911572e-6 0.0
0.0003568163305897658 -5.331467771876549e-5 0.0
0.0003502601518838803 -5.601431367156763e-5 0.0
0.0001875543512763731 -1.98990951753592e-5 0.0
0.00018922369295417264 -1.8993485194066862e-5 0.0
0.00023996892159580799 -3.928308648092858e-5 0.0
0.00048509910486463977 -3.6182119205540967e-5 0.0
0.00029070975369683454 -8.979567038263945e-6 0.0
0.0002865242416407442 -9.570867740418347e-6 0.0
1.0736598869815504e-5 -1.702395860784709e-6 0.0
0.00026396071162379905 0.00011686758947902505 0.0
0.00027249100146113875 -1.2647252758837893e-5 0.0
0.0002089478051653826 -1.4331131963933532e-5 0.0
0.00020926090063744644 -1.4346045859636036e-5 0.0
0.00013196713807310745 -1.1597510454249532e-5 0.0
0.00034721351782216137 8.772061489531938e-7 0.0
0.00025990950641793537 -1.3154356249694109e-5 0.0
0.00026194744506810667 -1.2839407022072007e-5 0.0
0.00026803988469533687 -1.211493296831766e-5 0.0
0.0002699942451742007 -1.1889141629102122e-5 0.0
0.00027580169000446795 -1.1003415011553334e-5 0.0
0.0002779291647982142 -1.0786844561135158e-5 0.0
0.0002719421974812658 -1.1751315452393217e-5 0.0
0.00028009514021111833 -1.0709449431509788e-5 0.0
0.0002739916466209755 -1.1734181154338583e-5 0.0
0.00028240705339673753 -1.0768769444849076e-5 0.0
0.0002830825942295923 -9.822067811945968e-6 0.0
2.7196949112485082e-5 -3.970883925133436e-6 0.0
0.00033664297717696885 -5.23554418662877e-7 0.0
0.0002536130165035753 -1.6411157643380418e-5 0.0
0.00028474378155104936 -1.4905409928606997e-5 0.0
0.00030345975923833606 -1.981508538062458e-5 0.0
0.00029994122395750154 -1.9186359647239658e-5 0.0
0.0003023438357706785 -1.329835465589489e-5 0.0
0.00028499258102896585 -1.8552914442122984e-5 0.0
0.0002992579817595288 -1.7930781957036312e-5 0.0
0.0003158091802628008 -1.7717856976642634e-5 0.0
0.0003192930865600618 -1.8271230065805327e-5 0.0
3.81033437155088e-5 -6.557722053713551e-6 0.0
3.8385709831539324e-5 -6.409829936367931e-6 0.0
0.0005662076249944684 -1.3479616883158493e-6 0.0
0.0005408991154852998 -3.66183270647037e-6 0.0
0.0005428387350538354 -4.273471976606204e-6 0.0
0.000417817809147932 -5.85317998034775e-5 0.0
0.00040974046117561686 -6.055286671565648e-5 0.0
0.00016711227584531948 -2.3867478649213377e-5 0.0
0.0001735040138853171 -2.4981499793427886e-5 0.0
0.00016058822740122142 -2.267530833168429e-5 0.0
0.00019771084181362746 -1.4115892866687814e-5 0.0
0.0003163936654910357 -1.9850879624691663e-5 0.0
0.00028850076481965056 -9.530558777687507e-6 0.0
0.00029049315938593095 -9.707225919516481e-6 0.0
0.000284720674015124 -1.1016062176711133e-5 0.0
0.0002926229933246875 -1.0041799464762397e-5 0.0
0.0002873438315895035 -1.1286724676915826e-5 0.0
0.0001703798028514037 -2.7521029184224705e-5 0.0
0.0005696132348636372 -1.8033600786088604e-6 0.0
0.000308494096528246 -9.848674780655126e-7 0.0
0.00035068078980360573 -1.557979245533364e-5 0.0
0.00035011151507701864 -1.0055640947533932e-5 0.0
0.0003491029662235545 -1.0586659341793218e-5 0.0
0.00021788486688170504 6.968732277968577e-6 0.0
0.0003052475555091776 3.946497676251409e-5 0.0
0.0002811201694644826 4.134376146142865e-5 0.0
0.00027850556795184475 4.9740080378978546e-5 0.0
0.00041858234166735134 -7.462391972627473e-5 0.0
0.00046776369606434933 -5.2694426350162424e-5 0.0
0.0004661900954918029 -5.939823745559126e-5 0.0
0.0001623500780426312 -2.877802657021339e-5 0.0
0.00024332703829013213 -4.200945591224859e-5 0.0
0.0002436767393699809 -4.479772393170956e-5 0.0
0.00024638536556525006 -4.403357929083282e-5 0.0
0.00024691580026376997 -4.6601987345201525e-5 0.0
0.0003911053500050958 -1.6833399372594463e-5 0.0
0.00038007418819739896 -1.107339162516468e-5 0.0
0.00039307871771289144 -9.649536878278849e-6 0.0
0.0004054935326188463 -1.411551358927645e-5 0.0
0.0003075485078268376 -7.324596072501354e-6 0.0
0.00030381346614479984 -7.407128597665518e-6 0.0
0.00024944631741470136 -4.5642582015851544e-5 0.0
0.00020021640273130812 -1.5362257995300175e-5 0.0
9.261925558905571e-6 -1.1567937277222757e-6 0.0
0.0002796147237526285 -1.6298552664127115e-5 0.0
0.0002899126030117881 -1.5140896971359828e-5 0.0
0.0002875390357174884 -1.4144473536061886e-5 0.0
0.00029951555153570755 -1.349957575909425e-5 0.0
0.00029642029079520826 -1.2590303648538767e-5 0.0
0.00030213880679252246 -1.4543938484837013e-5 0.0
0.000286629767426733 -1.322623349050919e-5 0.0
0.00029387810585075293 -1.186525106624692e-5 0.0
0.0003099806997389322 -1.2594347859429645e-5 0.0
0.0003688749663028349 -1.2338456673946686e-5 0.0
0.0002850328320395739 -1.2538734046928016e-5 0.0
0.0005753245861890403 7.021590160620788e-7 0.0
0.00024316361764041523 -1.4948740626124316e-5 0.0
0.00026212914857460867 -3.362702948958278e-5 0.0
0.0002678699786807078 -3.203704812194671e-5 0.0
0.0002931708966441534 -1.613587600465802e-5 0.0
0.0003066065441159378 -1.553978616884716e-5 0.0
0.00031821468766611447 -7.2921608419443265e-6 0.0
0.0004040924800477205 -4.359765539145778e-5 0.0
0.00039728148951288745 -4.6876048126196574e-5 0.0
0.0003972957135018396 -5.309676220531591e-5 0.0
0.0003912683531005499 -5.012082261985356e-5 0.0
0.00039160451302465237 -5.576771863531234e-5 0.0
0.00038545178848070703 -5.3162483148139244e-5 0.0
0.00045367394868575124 4.5746694814956635e-6 0.0
0.00044322943904724014 4.742183032244398e-6 0.0
0.00044831575961512234 4.808273742308295e-6 0.0
0.0004333096408923694 4.701173205841962e-6 0.0
0.0004378562049017608 4.722990351577353e-6 0.0
0.00042332149370793656 4.500677372750696e-6 0.0
0.0004279648833751157 4.446312389144178e-6 0.0
0.0004188460137690764 4.4231851329191605e-6 0.0
0.00040958284666943494 4.137537944220404e-6 0.0
0.0004420401971564224 4.620028089561769e-6 0.0
0.00040526778958150007 4.022050611580999e-6 0.0
0.00043192935835036095 4.2724484913937e-6 0.0
0.00041888845967221914 3.96117709082695e-6 0.0
0.0004220862720556892 3.6186156746754697e-6 0.0
0.00041446603577775023 4.2287892663298845e-6 0.0
0.000437708168172469 4.4892802812752115e-6 0.0
0.0004461167445857137 4.422900301473534e-6 0.0
0.00046492025985205834 4.717350201181736e-6 0.0
0.0004553265382751267 4.62144559911304e-6 0.0
0.00033828337284314225 -5.505948809059612e-6 0.0
0.00028363712634940874 3.231270383259614e-5 0.0
3.1093246952362716e-5 -5.211113041358857e-6 0.0
2.2497946194197095e-5 -3.1207493278830263e-6 0.0
2.7489392095196518e-5 -4.279698493032826e-6 0.0
0.00024952326666290853 -4.2747997579366534e-5 0.0
0.00032459820846931944 -7.743372821379441e-6 0.0
0.0003343289712494262 -2.296039381982962e-6 0.0
0.00032817699064023375 -3.247109550488548e-6 0.0
0.0003310505780071844 -3.4290236857045014e-6 0.0
0.0003262290505011346 -2.8981856803448277e-6 0.0
0.00032992421315201437 -1.8177745788892182e-6 0.0
0.0003238116395490956 -2.731318703874185e-6 0.0
0.0003214251937035184 -2.7239423171805696e-6 0.0
0.00031829821931923785 -3.6728167280601774e-6 0.0
3.223809427443862e-5 -3.7597451772570746e-6 0.0
0.00035597280031648715 -8.101424666172496e-7 0.0
0.0004186107282650515 -5.158012043931299e-7 0.0
0.0004018650572361292 -1.23302159954835e-6 0.0
2.5559664169049362e-5 3.7338245967492416e-7 0.0
6.737104132804457e-5 6.241342544406238e-6 0.0
5.872345754758947e-5 2.260324282410754e-6 0.0
0.0003586831196757653 1.1239524795759246e-6 0.0
4.5529332547928285e-5 -5.306206733164676e-6 0.0
5.446550255942732e-5 -6.498276938853344e-6 0.0
6.111678366643504e-5 -7.379006943683876e-6 0.0
6.162824126004004e-5 -7.893831987131049e-6 0.0
6.920285830108971e-5 -9.525892266207417e-6 0.0
0.00027063422861602185 -1.3238326994768205e-5 0.0
3.289031329650566e-5 -4.457461826656161e-6 0.0
0.00013599189846592196 -1.4930149524636023e-5 0.0
0.00011129745645184743 -1.372865151716281e-5 0.0
0.0003096997643781212 -1.6671779563251507e-5 0.0
0.0001352806230416048 4.660782739934235e-5 0.0
0.0003876258046230741 -4.196642598452353e-5 0.0
0.0003478626915512588 -1.0701597995799672e-6 0.0
0.000541125650457321 -4.019687303735476e-5 0.0
0.0004145015769262887 4.128650561894599e-6 0.0
0.0004012028101096 3.683005713788898e-6 0.0
0.0004034927173411538 -5.677428264113464e-5 0.0
0.0005774774155724497 7.504529317923915e-7 0.0
0.0005581451342476159 1.5427964518046265e-6 0.0
0.0005622544231788284 1.395934676944543e-6 0.0
0.0005549058566927226 1.5959774974059628e-6 0.0
0.000541979818968348 2.274603862284657e-6 0.0
0.000552651232115494 1.4367567559348206e-6 0.0
0.0005331310495545576 2.4464387592233953e-6 0.0
0.0005369764704403938 2.442334227726646e-6 0.0
9.490460343286442e-6 -1.5107822918506388e-6 0.0
0.000587082019676595 5.475254333329838e-7 0.0
0.0005735544788030116 1.1329805676009965e-6 0.0
0.0005806899200982938 7.773712844578254e-7 0.0
0.0005752166339809626 9.227378310019811e-7 0.0
0.00034910801028789894 -6.412656936336841e-6 0.0
0.0004243304928380961 -5.4697971902949046e-5 0.0
7.3456145522945674e-6 -1.0142083489688195e-6 0.0
0.0005902099335293356 -1.5119497040063186e-7 0.0
0.00023722053313782437 -7.280547077772102e-6 0.0
0.0004415200702742136 2.92986583824064e-6 0.0
0.00019696506901484468 -1.4533867361784568e-5 0.0
0.0002117465612277247 -1.5270962303122676e-5 0.0
0.00021295188201494574 -1.5457699208829664e-5 0.0
0.00021030718045977667 -1.4908280920251644e-5 0.0
0.00022270109406752879 -1.5430277223891263e-5 0.0
0.00022748941241712526 -1.594555883765611e-5 0.0
0.00022817596954136806 -1.6134935414469924e-5 0.0
0.00021490338178602322 -1.5031601678685376e-5 0.0
0.0002031129235652857 -1.2565392532929012e-5 0.0
0.00019721995986475696 -1.4264371821864301e-5 0.0
0.0004811074418280681 -5.3994355308015e-5 0.0
0.0005754049108053121 -1.2689449086130098e-7 0.0
0.00024017254926119821 -3.6352768488478765e-5 0.0
7.985967797459329e-5 -1.359632232048662e-5 0.0
0.0002543792039160588 -3.520606710745858e-5 0.0
0.00021901541093123227 -3.475867254190314e-5 0.0
0.00021956443615645945 -3.751227581314345e-5 0.0
0.0002983364629907344 -8.582531601381891e-6 0.0
0.0003574257587516067 1.6292651032899965e-6 0.0
0.0004955234985176012 -1.1930893790391138e-5 0.0
0.0004989074709592834 -9.582230460176844e-6 0.0
0.0004784588334687385 -1.0514308293517015e-5 0.0
3.898812789618064e-5 -6.741332633314084e-6 0.0
7.249115236771471e-5 -1.31059676622012e-5 0.0
0.0002982647418011653 8.603148667957764e-5 0.0
0.0002708355430843 8.480888653846415e-5 0.0
0.00045061669939373426 -4.2919123415783005e-5 0.0
0.00027700735842908265 1.7099994031729145e-5 0.0
0.0005141751654677687 -3.093808786574509e-5 0.0
0.0002559399047157249 -2.8090151933591932e-5 0.0
0.00043621671148855705 -6.255836490656261e-5 0.0
0.000442853177082919 -5.259993629802265e-5 0.0
0.00022062003165493506 -1.0862526664913068e-5 0.0
0.00015728626738269316 -2.9128180337618187e-5 0.0
0.0005104169167047329 -4.0374078111938145e-5 0.0
9.187218150641912e-5 -1.3378753564296574e-5 0.0
9.825612588234139e-5 -1.5170533725944695e-5 0.0
9.408655227430016e-5 -1.58160733008018e-5 0.0
0.0001615713417930476 -1.5506081242428004e-5 0.0
0.0003245250993972699 -1.8552744347650601e-6 0.0
0.0003509554177534987 7.970254518293548e-7 0.0
0.0002473474699494347 -1.3959982496646916e-5 0.0
0.00025504190382962216 -1.3452224791927036e-5 0.0
0.0005717502511109385 -2.029638912695815e-6 0.0
0.0005443655542644871 -6.6268005251233355e-6 0.0
3.3731984071698565e-5 1.7999191073352786e-6 0.0
9.356145632563133e-6 -1.4491803224075738e-6 0.0
0.0002856412060305292 -9.618831716029383e-6 0.0
1.2002046718671434e-5 -1.979363025973802e-6 0.0
2.5064795441725806e-5 -3.992529964946308e-6 0.0
0.00025293886736101143 -3.338963590001453e-5 0.0
0.0004101946682260105 -7.800680045293027e-5 0.0
0.00031050362931043184 3.0601960436863904e-5 0.0
0.00033830033493475927 -6.526828264223649e-6 0.0
0.00029621373378109717 -1.0182517400691483e-5 0.0
0.00044519930190124924 -9.645448753975331e-6 0.0
0.0005359126512987848 -2.7474539108291325e-5 0.0
0.00019152106524946284 -2.6211006207794075e-5 0.0
0.00019160077673728077 -2.7003796112134497e-5 0.0
0.00018456407704284567 -2.590883057513292e-5 0.0
0.00017730137843384181 -2.4676662852162528e-5 0.0
7.041291915373944e-6 -9.264619338311201e-7 0.0
1.0329608746780454e-5 -1.322264440172273e-6 0.0
1.2218097105690361e-5 -1.7364231649658551e-6 0.0
0.0001697758409866408 -1.976315166803586e-5 0.0
0.00016067708771683615 -1.9635324455220968e-5 0.0
0.0005882787482239631 4.6792581680735554e-7 0.0
0.000296029238391411 -5.137017177395207e-5 0.0
0.00028976648262949844 -4.7750645051854604e-5 0.0
0.0002897054199637198 -5.3957377176445206e-5 0.0
0.0002838132758893842 -5.0125443112288444e-5 0.0
0.0002781954127168759 -5.184511991453863e-5 0.0
0.00027745072163216765 -4.629478627105204e-5 0.0
0.0002896138729904292 -4.231452568790983e-5 0.0
0.0004303747754476863 -5.9764206820553047e-5 0.0
8.351319003229144e-5 -8.692941835845102e-6 0.0
9.64598700441962e-5 -1.0376276633144487e-5 0.0
8.256219165194436e-5 -9.666554252626158e-6 0.0
0.00034643706610775914 -5.211202359315963e-6 0.0
0.00019978765722352041 5.57065974839763e-5 0.0
0.0002908068009972908 -1.0787349517632617e-5 0.0
1.2164103415791305e-5 -2.064833950347838e-6 0.0
0.00019690121614001835 -3.357823101476144e-5 0.0
0.0001904895952164659 -3.3318025023447895e-5 0.0
0.00019192944075200949 -3.124513560434958e-5 0.0
0.00021824464550206042 -3.203954520497772e-5 0.0
0.00019249641167716565 -2.4892451376030223e-5 0.0
8.769656854734815e-5 -1.2551312390733347e-5 0.0
4.59650550505677e-5 -7.3505548528886965e-6 0.0
0.0005810551067323983 6.587641539385496e-7 0.0
0.0005666828856554225 1.258335257664825e-6 0.0
0.00012405434131943302 -2.0214446287263055e-5 0.0
0.00015006495632342973 -2.4500038877483754e-5 0.0
0.00014415155436147542 -2.4652806199613274e-5 0.0
0.00013719093120272157 -2.238777202231365e-5 0.0
0.00013783329227524065 -2.4608915712948003e-5 0.0
0.0003934533021593656 -7.393373424330487e-5 0.0
0.00032349258840876056 1.3993722341583039e-5 0.0
0.00036279598538897166 -5.126712341756709e-5 0.0
0.0003685332514687731 -5.4881297913924295e-5 0.0
0.0003742884055957824 -5.279100794379257e-5 0.0
0.00036204072769352165 -5.745973012365186e-5 0.0
0.00020616507754969156 -2.641792288849545e-5 0.0
0.00031263170775332216 -2.68359796126388e-5 0.0
0.0002954032023650084 2.5209421705269624e-5 0.0
0.0002747279265061835 -1.4416874425042434e-5 0.0
0.0005902542584798127 -5.482474167226718e-7 0.0
0.0005814694617487706 -2.5104783838445083e-6 0.0
0.0005785211087914081 -1.495516423464849e-6 0.0
0.00013107251628915963 -2.2415153561064846e-5 0.0
0.00012509711315171083 -2.2338983345926708e-5 0.0
0.00020719852977618255 -1.4463977476827846e-5 0.0
0.00016998993163295215 -2.437329613906632e-5 0.0
0.0005336549822053004 -7.254848765102881e-6 0.0
0.00046671161452356764 -3.3543054036258446e-5 0.0
0.00028034918652995765 -1.0160187138383055e-5 0.0
0.0002873881793031326 -8.905384923722735e-6 0.0
0.00035820592733593916 -3.968794977029621e-5 0.0
0.0004119691335690372 -3.593014037382035e-5 0.0
0.00025082261068330096 -2.9339670570936135e-5 0.0
0.00025009331263526864 -3.112766672936862e-5 0.0
8.148580503377911e-5 1.0687098214592756e-6 0.0
0.00015556797181292357 -2.2540773010846944e-5 0.0
0.00014835667489831365 -2.113063102043249e-5 0.0
0.00014086678555511373 -2.0337537284224204e-5 0.0
0.00014116497560274214 -1.957533073598305e-5 0.0
0.0001336574152880062 -1.1434287343549715e-5 0.0
0.0001354094428434464 -1.1471874471515483e-5 0.0
0.00014669995695868894 -1.2584165464412752e-5 0.0
0.0003681048607354541 -6.060154052889895e-5 0.0
0.00034793223852612573 -2.8955600225894787e-5 0.0
0.00034081048206010373 -3.0338246462242318e-5 0.0
0.0003489044301607853 -3.416543383011863e-5 0.0
0.0003417607859258307 -3.5799814731711154e-5 0.0
0.0003474501543304052 -3.8894416955832685e-5 0.0
0.0003552901422048463 -3.175419536671957e-5 0.0
0.00036220752180380456 -3.432199870725956e-5 0.0
5.1772911329182404e-6 -6.866447834948167e-7 0.0
0.0005904721483836 -1.4543570859834392e-6 0.0
0.0004695070857582558 -4.670131888148533e-5 0.0
0.00032945316443898587 -5.146697610951306e-5 0.0
0.0005444165727964864 -5.6710939259223025e-6 0.0
0.0003166487512182968 -4.408953378788089e-5 0.0
0.00031628015873876074 -4.9910437117055295e-5 0.0
0.00041257417407970386 -1.3561401778411843e-5 0.0
0.0003683149075576258 -1.4116274934525848e-6 0.0
0.0003616390452422958 -1.1290973323706e-6 0.0
0.0002006286228848384 -2.846785164038367e-5 0.0
0.00011915652785856497 -1.6473835165182464e-5 0.0
0.0004088976459318182 3.1191870838625552e-6 0.0
0.0004478148062193932 -4.1507221253462845e-5 0.0
0.00022203324844506086 -2.1820809187907474e-5 0.0
0.00022805853742397458 -2.1333972910856107e-5 0.0
0.00022704886950106792 -2.2541037234803314e-5 0.0
0.00022927511402988203 -2.016292593759843e-5 0.0
0.00022115275491620478 -2.2991312162679726e-5 0.0
0.00023366803447085098 -2.0858446391768685e-5 0.0
0.0002352825982068217 -1.9701919832046028e-5 0.0
0.00023788522897077178 -1.8453175545202687e-5 0.0
0.0004260466767756403 -3.0053115381369906e-5 0.0
7.400860476278975e-5 7.965785490109736e-6 0.0
0.0003966126415039897 3.6690433824666236e-6 0.0
0.000434669840069202 -8.547910100355307e-6 0.0
0.00015010654973369753 3.988981708919864e-5 0.0
0.0001042953908068512 -9.583288780845909e-6 0.0
0.00014938435620801994 -1.220242460474466e-5 0.0
0.00010346681462326257 -1.3879892237991454e-5 0.0
0.0002235178787702061 -1.9604222368303947e-5 0.0
0.00018092508326328886 -1.8090947908111153e-5 0.0
0.0001926543107532729 -1.80993505856264e-5 0.0
0.0001989361985408768 -1.9045235003434327e-5 0.0
0.00026643420638995224 -4.5474579948476224e-5 0.0
0.0002719955951020303 -4.792091781703236e-5 0.0
0.00027272135908986664 -5.3792649711771846e-5 0.0
0.0002776386963939616 -4.19110703458345e-5 0.0
0.00043897249220907914 -4.291764616537073e-5 0.0
0.0002357487704616506 -1.5124561207514443e-5 0.0
0.00039852281364464537 -6.072078704369469e-6 0.0
0.00021756312883122644 -3.0466392576463737e-5 0.0
0.00028983523899089126 -3.800778977521543e-5 0.0
0.00022821133034178979 -3.9922151363164266e-5 0.0
0.0005187686013962028 2.6998852656155808e-6 0.0
0.0002846273345059518 -1.2425371795070092e-5 0.0
7.739699148182023e-5 -1.1270348593825903e-5 0.0
0.0002294870420411038 -2.8766918530061553e-5 0.0
0.0002336106132708003 -2.9696776995826178e-5 0.0
0.00022003895085151868 -2.6755839873019205e-5 0.0
0.00022957835783301415 -3.443621787407286e-5 0.0
0.0003244237097665926 -1.652381595649035e-5 0.0
0.00031688071322350295 -1.781934087837071e-5 0.0
0.00032338507528892904 -1.8779118290612258e-5 0.0
0.00039256475317703976 3.528465401764173e-6 0.0
0.0002569807378900928 -2.6359407180698876e-5 0.0
0.00020797117310170158 -2.4667629144031732e-5 0.0
0.00032576390853031984 -1.4349514822782768e-6 0.0
0.0003231898021055957 -2.0339205732505957e-6 0.0
7.864421723565353e-5 -1.0586272319663113e-5 0.0
0.00016972266668574117 -2.5424996557930625e-5 0.0
0.0003746481142568082 -4.662245843174679e-5 0.0
0.00033632608057503435 -2.6287022925838575e-6 0.0
0.00028781955079133466 -2.5276102510497635e-5 0.0
0.0002813089663561509 -2.6696638118526088e-5 0.0
0.00028014238599552096 -2.8968383416127912e-5 0.0
0.00027498775556052146 -2.8177330869763355e-5 0.0
0.0002739117694032943 -3.0529218454290294e-5 0.0
0.0002855477793810473 -2.9878572675461e-5 0.0
0.00034986868361836773 -1.7719768868842706e-6 0.0
0.00024521436395736696 -2.3801650543170712e-5 0.0
0.00024017563472555035 -2.4726448981607017e-5 0.0
0.00031179519811201986 -1.4915137384707792e-5 0.0
0.0002140487687413072 -2.6932642537846543e-5 0.0
0.0003095394852344486 -5.249439818425532e-5 0.0
0.0002467367233723269 -2.8772385192610652e-5 0.0
0.00027626613946663285 -2.6096365843406685e-5 0.0
0.0003972066345008486 -5.910848163152115e-5 0.0
0.0002670462460824817 -1.5911212070627627e-5 0.0
0.0005418118793949869 2.3800449828293126e-6 0.0
0.0002802532996979827 -2.0591336588399293e-5 0.0
0.00014887771086280347 -1.986128711716802e-5 0.0
0.0003308034375848006 -4.393464495363676e-6 0.0
0.00038932605009448824 -3.706248643784907e-5 0.0
0.0005195309187755518 -7.560777039838167e-6 0.0
0.00010996004998690272 -9.646964702587362e-6 0.0
0.00011440155713840203 -8.851615393392808e-6 0.0
0.00012613610715385924 -1.0841475927109483e-5 0.0
0.0001339068239227857 -1.0771315596338675e-5 0.0
0.00014548956203383264 -1.1901441365850364e-5 0.0
0.000388652858956221 3.1540572822295517e-6 0.0
0.00024160567675474083 -4.528562675144995e-5 0.0
0.00027347188650951143 -1.4388420003850247e-5 0.0
2.0672858759351724e-5 -3.522060495651072e-6 0.0
0.0002985863968687263 5.8583184161014256e-5 0.0
0.0002733905038162218 5.885811194976169e-5 0.0
0.0003720740296623469 -6.892604668363194e-6 0.0
0.00023655628877421503 -3.464599417784462e-5 0.0
0.00025441903637908755 -4.327491411301038e-5 0.0
0.0002505737051111752 -1.4599300565520356e-5 0.0
0.0003059911136041507 -1.4357507091051248e-5 0.0
0.0003001442921176927 -1.391285742130815e-5 0.0
0.00030229530161495714 -1.1937466330089318e-5 0.0
0.00034784081686013615 -7.613533375719847e-6 0.0
0.00022949236679714922 -3.0214571290640732e-5 0.0
0.00017217338514771376 -1.719250784954247e-5 0.0
0.00023637468736591792 -2.2776268187352222e-5 0.0
2.9039573473114212e-5 -4.623495754308205e-6 0.0
0.00031072287347015193 -4.014029351754648e-6 0.0
0.00013617455587517497 -2.0211193961885473e-5 0.0
0.00029448656542551186 -1.5744313488976454e-5 0.0
0.00020176233180865789 -3.065240828947703e-5 0.0
0.00038348661004544157 -1.7483384315761777e-6 0.0
0.00027284139787335076 -1.859865450176285e-5 0.0
0.00026897274536988064 -2.969040858011014e-5 0.0
0.0004961892076059565 -1.634631916541535e-5 0.0
0.00011865951372224593 -2.0172036049658517e-5 0.0
0.0005449480983387105 -4.189738618020221e-5 0.0
0.00024493378297886384 -1.8148689086421214e-5 0.0
0.000269709792829293 -2.1859612538163002e-5 0.0
5.581499730976252e-5 -8.64663198780739e-6 0.0
0.0004940441852938165 2.2492206753081507e-6 0.0
0.00030417639310149105 -3.074844210605714e-5 0.0
2.0379984236732272e-5 -3.6274681334217037e-6 0.0
0.0002972770045604215 -7.411468251209523e-6 0.0
0.00029549727686615975 -8.258263592954904e-6 0.0
0.0005339977892899548 2.6342335137405067e-6 0.0
0.00030316018257250206 -5.5251359792612583e-5 0.0
0.00011193445081141483 -1.4861027027970069e-5 0.0
0.000565751917772139 -4.339564951063412e-6 0.0
0.00029710913801732244 -1.1900401300100702e-5 0.0
0.0002789852848394342 -1.7055847651665413e-5 0.0
0.00033470352533682406 -2.606175408571239e-5 0.0
0.0003277925944971421 -2.4696502935636702e-5 0.0
0.0003065632704026393 -2.563897377678354e-5 0.0
0.000271632674899044 -1.572731203399105e-5 0.0
0.00031871989609385225 -5.985316501341363e-5 0.0
0.0003457993558917101 -6.139285377379606e-5 0.0
0.00024924209163608413 -4.8221114083044035e-5 0.0
0.0002607704769784589 -5.189327542547082e-5 0.0
0.0003831651672016779 -6.332941538983137e-5 0.0
0.00037995679933503136 -5.7058556381582524e-5 0.0
0.00022033540644510982 -3.9848133371017926e-5 0.0
0.00017536673474161476 -3.271128614649504e-5 0.0
0.00033248268929440226 -6.0721032297489455e-5 0.0
0.00023073140053131617 -4.260000168312507e-5 0.0
0.0002578608601330887 -1.515025851236585e-5 0.0
0.00047763566679204954 4.339480119213571e-6 0.0
0.0003867233176145855 -1.9959272627493033e-5 0.0
0.0003848358354856849 -2.3193541806309354e-5 0.0
0.00022625917657024392 -2.3843477219622372e-5 0.0
0.00033429570333341866 -1.0497791403770453e-5 0.0
0.0002677501921708773 -3.449836725527103e-5 0.0
0.00016077808020495077 -2.2607729321823297e-5 0.0
0.00012428410648765464 -1.752193766991108e-5 0.0
0.000251822856336363 -2.1296626043990165e-5 0.0
0.000489680004114442 1.7095077197496104e-6 0.0
0.00024098236055299094 -1.6581954228929372e-5 0.0
0.00028001739482302017 -1.2772638894625998e-5 0.0
0.00031066894666520673 -1.7118734522390832e-5 0.0
3.2421564784693345e-5 -4.604763819084555e-6 0.0
3.2905962141081004e-5 -5.698084826125744e-6 0.0
0.0002450990872051554 -3.216986394512981e-5 0.0
0.00022127407116913215 -3.061224376495639e-5 0.0
0.0002852711215741323 -2.088701592120396e-5 0.0
0.0005416732634851928 -5.014474386645691e-6 0.0
0.0002960305218021569 -4.022877517879409e-5 0.0
0.0005771101069466131 -7.008337770851131e-6 0.0
0.0005650855894721044 -1.9551399271922433e-5 0.0
0.00018930581687787322 -1.4845601696597914e-5 0.0
0.0002551427198005383 -2.28853605135605e-5 0.0
0.0002612556700596351 -2.6727592344415563e-5 0.0
0.0005496592139332057 2.8691864906007343e-7 0.0
0.0003305457945087438 -1.7609056175958816e-5 0.0
0.00036890623982083865 -3.307351076837182e-5 0.0
0.00037700087606048317 -2.446521936711505e-5 0.0
0.0001724424193893923 -3.011875938926861e-5 0.0
0.00034542810723768824 -1.7429911973000435e-5 0.0
0.00025764916709966113 -2.002671466614014e-5 0.0
0.00036093086334269733 -1.454088154576161e-5 0.0
0.00035956404143261563 -1.7370730053099755e-5 0.0
0.0003689318513902841 -1.2841680664251036e-5 0.0
0.0001440773647353052 -2.6890372837067645e-5 0.0
0.0004307802616865923 3.858107564134991e-6 0.0
0.0003226648050818148 -5.4426916377343694e-5 0.0
0.00047184546978711246 -5.669369109532043e-5 0.0
0.0004074849820874168 -7.3673926851455385e-6 0.0
0.00028909663919168723 -8.712056361050684e-6 0.0
0.00034309920620099815 -4.196540567074447e-5 0.0
0.00023341236577372967 -3.1124736527885165e-5 0.0
0.00024847838694590306 -1.8689980980911896e-5 0.0
0.0005245632121115664 3.0162437495443616e-6 0.0
0.00014650307005999565 -1.6036784128750754e-5 0.0
0.0003918763240180252 2.9975413588668586e-6 0.0
0.00029617568991776536 -7.686488800254954e-6 0.0
0.0003408590264617524 -1.1265568854412764e-5 0.0
0.0004984817367829524 3.838604875135209e-6 0.0
4.7749352942958164e-5 -7.893761997181001e-6 0.0
0.0003984359845425513 -2.7188774848945895e-5 0.0
0.00033521772101537995 -4.972206994806672e-6 0.0
0.00033178761472870755 -4.84743995704177e-6 0.0
0.00032944005901882343 -3.513399086184299e-5 0.0
0.0003026653110066825 -2.0560596382403456e-5 0.0
0.0003105106402791824 -3.2413907284608326e-5 0.0
0.0004116583660862992 -4.10767931258857e-5 0.0
0.00040219054658055845 3.491506110210684e-6 0.0
0.0003286944767198444 -1.5335108413195652e-5 0.0
0.0003769354184682895 -3.7469130316145634e-5 0.0
0.00048613609078163185 -2.9488030212052603e-5 0.0
0.00048760416837050123 -2.2697268240036482e-5 0.0
0.0003060754417203912 -8.872965305865033e-6 0.0
0.00020552857323639023 -2.8779042619208598e-5 0.0
0.00040600150689595275 -6.810248383099543e-5 0.0
0.0003217238027944884 -1.3099548129782395e-5 0.0
0.0003441561818462596 -1.993048884599104e-5 0.0
0.0005656109106558966 -9.43689006469528e-6 0.0
0.00010456475073130822 -1.395528731706427e-5 0.0
0.0003379297456275131 -9.583961076762723e-7 0.0
0.0003139349901857379 -1.0636750286757388e-5 0.0
0.00030812182849257377 -9.337836957356298e-6 0.0
0.00012446087792836755 -1.0811063342917861e-5 0.0
0.0005148980708741787 -1.2130004985786524e-5 0.0
0.00030921022309174893 -4.680381518680454e-6 0.0
0.0005041877791102625 -1.808206819568022e-5 0.0
0.00019877711137448242 -2.7935235610546436e-5 0.0
0.0004359251979841258 -6.3111500222531e-5 0.0
0.0004496680581445696 -6.376551382337454e-5 0.0
0.00018030867341986814 -2.516679801064063e-5 0.0
0.00035667464220604894 -2.26351466259061e-5 0.0
0.0002460322548493263 -4.7305225690571566e-5 0.0
0.00034897623273192924 1.0796597469634067e-6 0.0
0.00011255831161586643 -2.1309334662754173e-5 0.0
0.0003238954007597892 -5.658300700137044e-6 0.0
0.0003126237217838953 -3.735132630255356e-6 0.0
0.00032283109267776784 -4.1282706716905054e-6 0.0
0.00031602639949281265 -2.0051154882943996e-5 0.0
0.00038388889499827827 -2.6547969059536935e-5 0.0
9.44137529667196e-6 -1.5850844681632525e-6 0.0
1.713788212105849e-5 -3.0505015651854463e-6 0.0
2.1231671238575455e-5 -3.928345579017693e-6 0.0
0.0005275581036226078 -5.414694782233624e-5 0.0
3.073129859077885e-5 -5.9622569301910355e-6 0.0
0.00018535610636475963 -2.6419550667458852e-5 0.0
9.647726131944826e-5 -6.60690996356729e-6 0.0
0.00047876217515963477 -6.300429211233247e-5 0.0
9.240377526146069e-5 -1.755632905512817e-5 0.0
0.00010620919864569989 -2.0140928861686453e-5 0.0
0.0005225019173600185 -5.6018417543020644e-5 0.0
0.0005118157514696018 -5.955366396694763e-5 0.0
0.0003061235797515124 -6.242774159065469e-6 0.0
0.00023337788234410013 -3.700631164031068e-5 0.0
0.00040032447603839606 3.73384284323056e-6 0.0
0.0004883547183523013 -6.19939403940651e-5 0.0
0.0004929990729240197 -6.185850788167125e-5 0.0
7.839610049552202e-5 -1.5299919007777305e-5 0.0
4.744017926296723e-5 -9.296059029412094e-6 0.0
0.0005024781732356034 -6.085276505696998e-5 0.0
0.0005051449813123926 -5.3620055682429315e-5 0.0
0.0003355613257391657 -5.555392700364998e-5 0.0
6.0284467529478444e-5 -1.1850390845444803e-5 0.0
0.000414824153748783 -6.4972135061252e-5 0.0
0.00012084665157513361 -1.5987939474940965e-5 0.0
0.00046527186864598095 -3.190397942942408e-5 0.0
0.00018305918085295792 -3.180479771566259e-5 0.0
0.00043303770311223466 -3.947778595772831e-5 0.0
0.0004284411699796347 4.558109338087046e-6 0.0
0.00018571573587175685 -2.163273478761957e-5 0.0
0.00012509710943389035 -1.810465434194283e-5 0.0
0.00022543825092278231 -3.15293499842893e-5 0.0
0.00027424338482481245 -2.2077849001891924e-5 0.0
0.00045940002894009533 2.3892147181895572e-6 0.0
0.0002833740749762246 -4.4342092609918056e-5 0.0
0.00031287281855588557 -3.736872089068789e-6 0.0
0.00032903600419056597 -6.291982133386853e-6 0.0
0.0003638172072116905 -8.611168717534658e-6 0.0
0.0004290015718588895 -2.8056211113289424e-5 0.0
0.00019875780325578253 -1.4487670107811795e-5 0.0
0.0003578933902103819 -1.580999332851612e-5 0.0
0.000201314060457549 -2.1546752379054146e-5 0.0
0.00046853856821332297 -2.2022760515934584e-5 0.0
0.0001484760283154636 -2.173909113964868e-6 0.0
0.000126087529370625 -6.3373024023743796e-6 0.0
0.0002781414739263407 -1.2189238072979335e-5 0.0
0.00048540683886622694 4.025977030701043e-6 0.0
0.0003377077227869473 -2.265825925467211e-5 0.0
0.00030339755821329125 -5.494952867505329e-6 0.0
0.0005235354237835972 1.8814939230904004e-6 0.0
0.00017041973629618222 -2.1486571501898178e-5 0.0
0.0002118578761064597 -1.6697074176220463e-5 0.0
0.0003908955119456626 -9.307412653198977e-6 0.0
0.00044404833111361293 -2.854197055278835e-5 0.0
0.00014781973581642013 -2.066044156572752e-5 0.0
8.106704992255466e-5 -1.0114341875127906e-5 0.0
0.0004219533532180775 -2.5806405729976573e-5 0.0
0.00021939577742914764 -1.4691174891497654e-5 0.0
0.0004124186785147033 1.6817952434573632e-6 0.0
0.0005813566169730383 -3.4505561429227056e-6 0.0
0.00045212236253531834 4.7643539664726585e-6 0.0
0.00034101715816314474 -8.218493594089519e-6 0.0
0.0003419076403915208 -6.089490524329919e-6 0.0
0.0003413263498659329 -3.1956248535248866e-6 0.0
0.0005041286693614206 3.664007075917784e-6 0.0
0.0004937106284999218 3.0714850207944818e-6 0.0
2.1898880348433488e-5 -2.8505946834260395e-6 0.0
1.7395021359366585e-5 -2.436512586655678e-6 0.0
0.00023651090140065165 -3.667638138762629e-5 0.0
0.0003517351257266321 -1.8677857645200122e-5 0.0
0.00023393945263289645 -1.6338596329079878e-5 0.0
0.0002349295814459026 -1.5680842527504644e-5 0.0
0.00024083037341948949 -1.4487685099726287e-5 0.0
0.0002792339248689378 -3.1506788442228165e-5 0.0
0.0003305822105358694 -2.1501296201443245e-6 0.0
0.00011316895271441911 -1.1196198663498942e-5 0.0
0.00038064572655576183 2.4525929635285393e-6 0.0
0.00034785661194488665 -1.0411500018639189e-5 0.0
0.0002506661852819367 -2.2683490742383792e-5 0.0
1.3365412016307836e-5 -2.062291762281668e-6 0.0
0.0002756861811334271 -2.0363957980435723e-5 0.0
0.0005207045745044159 -2.3706066437564895e-7 0.0
0.00042991248470029294 1.2906828119945626e-6 0.0
0.00040610761258061905 3.54919587385743e-6 0.0
0.0004932678981184513 -1.1173343656492551e-6 0.0
0.00035394304330047937 9.790078478223733e-7 0.0
0.00024259675299970765 -1.5672880109910916e-5 0.0
7.73171672046681e-5 -1.086382641759072e-5 0.0
0.00027037695892653937 -1.1873875859297835e-5 0.0
0.0003101963916663074 -5.991413018808635e-6 0.0
9.381739854176963e-5 -1.3756257809848158e-5 0.0
0.00025678759316814835 -5.051842233657587e-5 0.0
0.00034474633380482877 4.0884407004410436e-7 0.0
0.00019243203256327876 -2.7189020916524545e-5 0.0
0.0004191714167100549 -6.458295196907455e-5 0.0
0.0004683291103164817 1.8351217711054138e-6 0.0
0.00021948794295214937 -1.4492401900368277e-5 0.0
0.00041487284335495336 -2.8204684628315495e-5 0.0
0.00032080599085243706 -2.7583952786119023e-6 0.0
0.0002772164101633263 -1.869706580226812e-5 0.0
0.00012607949679333805 -1.233238252773109e-5 0.0
0.000218742857769802 -1.7334880256975367e-5 0.0
0.0003184754615424321 -1.0865122360817164e-5 0.0
0.00010070030786489892 -2.4973927636266296e-6 0.0
0.0004058467586762867 -1.1815730922640448e-5 0.0
0.00013263858062633943 -1.6830870112027168e-5 0.0
0.0002833829888344279 -1.7184870503157676e-5 0.0
0.0004599494249144277 -5.830789430519268e-6 0.0
0.0003837050675634144 -8.223032569329506e-6 0.0
0.00024056700145089408 -1.3958333159156993e-5 0.0
3.939986685601425e-5 -6.086339669737088e-6 0.0
0.0001728882947088657 -1.63691598617252e-5 0.0
1.556682211715322e-5 -2.384404919847873e-6 0.0
3.3004993736630647e-5 -4.44486504447774e-6 0.0
0.0003817976418945677 -4.88733210660998e-6 0.0
0.000341416835357917 -2.1681340497504553e-6 0.0
0.00020783737455925776 -3.818243702783376e-5 0.0
0.0001478754245212308 -2.0306267515115882e-5 0.0
0.0004530885219909927 4.233330318540541e-6 0.0
6.387827390493819e-5 -1.099762181985434e-5 0.0
0.0003700366639457976 -9.784506959752447e-6 0.0
0.0003111854982219789 -2.9382958143206588e-5 0.0
0.0004562218123257436 -1.486649728329706e-5 0.0
0.00018741758882233534 -2.8742871491481855e-5 0.0
0.0005024161805910702 -4.360129455663582e-5 0.0
0.0003052248944241129 -5.1266407059847825e-6 0.0
0.00010213051853182407 -1.7474874621799226e-5 0.0
0.00038705790117692313 -5.89918754833655e-5 0.0
0.00010926605237652721 -1.5915520588700033e-5 0.0
0.0005403785080307227 -8.329281093332441e-6 0.0
7.685574969872357e-5 -1.1494594840377733e-5 0.0
0.00038360576437388274 1.3731877972697969e-6 0.0
0.0003552688018260527 1.387407244654699e-6 0.0
0.00033422506103864637 -7.567928089893464e-6 0.0
1.5161149699790976e-5 -1.9962703547666466e-6 0.0
0.0003016840054247708 1.674610113426533e-5 0.0
0.00018804766578639324 -1.4335728082146203e-5 0.0
0.00045352664842295963 -5.7751154883968494e-5 0.0
0.00046201498241373094 -6.42323746675952e-5 0.0
5.302145051122906e-5 -6.274880841725469e-6 0.0
0.0003276797002103168 -1.6269117024480016e-6 0.0
0.00015435122165355177 -2.1588419503280384e-5 0.0
0.0002445802341654524 -2.5173268164895276e-5 0.0
1.352807122349765e-5 -1.5957525684081468e-6 0.0
3.782634623132014e-5 -5.313482971696873e-6 0.0
0.0003128168284004296 -7.182427386178522e-6 0.0
0.0002896351086720848 -1.5614543581518176e-5 0.0
2.5524633060305615e-5 -3.894320148861624e-6 0.0
6.500927234735187e-5 -9.399627725678364e-6 0.0
3.593512748445225e-5 -7.036574447613928e-6 0.0
0.0004666097913750525 -2.7323825208079138e-5 0.0
0.000357953008917517 -2.000876877888515e-5 0.0
7.204408881712167e-5 -9.138036830774178e-6 0.0
0.00042236171295663465 4.2791682712342286e-6 0.0
0.00038980934272876374 3.1112168470333246e-6 0.0
2.3717538483803432e-5 -4.0547110816108e-6 0.0
0.0002670193199080545 -1.2399524951163469e-5 0.0
3.829922228302145e-6 -5.87794280872997e-7 0.0
0.0005894402297405241 -2.8211129867153797e-6 0.0
0.0005631353975132838 1.381157840293331e-6 0.0
0.000188794659668513 -3.515060976445047e-5 0.0
0.00042398933384284003 1.8960487129739196e-6 0.0
0.0003616916447089331 -3.005237436244928e-5 0.0
8.681473399140631e-5 -1.2695737372365828e-5 0.0
0.0003522031910355408 -6.156672084672332e-5 0.0
9.997022938466983e-5 -1.1176359190085066e-5 0.0
0.00048411868973079517 3.74788433885838e-6 0.0
0.000239448329777596 -2.6068178723921694e-5 0.0
2.1782856558109898e-5 -3.2681967811888523e-6 0.0
0.0003054011672906613 -1.1702843041650582e-5 0.0
0.00030252151443571585 -1.098955270047747e-5 0.0
0.0005198077904448794 -6.401657710873057e-6 0.0
0.00030971718066992264 -1.919581456130719e-5 0.0
5.133524933642796e-5 -5.8881672206911026e-6 0.0
0.0004998815918435631 -5.589181883986343e-5 0.0
0.0005201017318109031 3.2446010664617144e-6 0.0
0.0003871960119638707 -1.5167222700558855e-6 0.0
0.00039631314417910184 9.767538109493698e-7 0.0
0.00024681374642159524 -4.068505447362175e-5 0.0
0.0005572853626299904 -3.1272022361198994e-5 0.0
0.0002759658302299579 -1.1940258795591427e-5 0.0
9.470344481074045e-5 7.506647110528671e-6 0.0
6.834780325386513e-5 -8.483821162609009e-6 0.0
0.00021941942206780166 -2.6380288702483203e-6 0.0
0.000497691863669546 -4.060580797414205e-5 0.0
3.501855229936568e-5 -2.858054917078412e-6 0.0
0.00031447346426481725 -3.744008387063151e-6 0.0
0.00043176288484730483 3.029821181424865e-6 0.0
0.00034749812255977766 -3.58457350132984e-6 0.0
0.0005767849655108822 5.48811211205688e-7 0.0
1.6326849909313686e-5 -2.932021098832321e-6 0.0
0.0005204859778894682 3.0934496477899693e-6 0.0
0.0005799122056347991 -4.976656332291256e-7 0.0
0.0002666750128313515 -4.900333448353503e-5 0.0
0.0003202197783268776 -5.747853466094939e-6 0.0
0.000262967091128011 3.277072317990074e-5 0.0
0.00015599165006598375 -2.1034084763918556e-5 0.0
0.00021012412490746364 -1.5808634354163262e-5 0.0
0.00026411567590551736 -1.2656436321434544e-5 0.0
0.00014957285106488705 -7.828659063134901e-6 0.0
0.00022535638793891145 -3.0511975999744355e-5 0.0
0.00012922810742586096 -1.1847931576270878e-5 0.0
9.539525987825225e-5 1.0679023881032559e-5 0.0
0.0002796639876424805 -1.1126883418209579e-5 0.0
0.0003914544668058318 -2.5121098521702507e-5 0.0
0.0004744679563325 -2.509748638752517e-5 0.0
0.00023226343167292242 -1.5355344638077175e-5 0.0
0.0001774766451581068 2.130799401224667e-5 0.0
0.0003509718291870713 -1.3320379696391881e-5 0.0
0.00019935954922495656 -1.4472481531776328e-5 0.0
0.00044431457417251673 -1.4966752785621213e-5 0.0
0.00022780206779133362 3.798827908015747e-5 0.0
0.00020966149274194415 3.796244530849011e-5 0.0
0.00030493605064535494 -1.6473744936320535e-5 0.0
0.0003741364958472636 -4.6450015301718664e-5 0.0
0.00023703480030447008 -4.4972853156937976e-5 0.0
0.00042832810539710636 -6.477848203326988e-5 0.0
0.00017809355408766203 -2.071041279259167e-5 0.0
0.0003957454509139949 -6.452527923220109e-5 0.0
0.0001520899380772002 -1.33551915408522e-5 0.0
0.00045409801234092115 -1.6965558420295154e-5 0.0
0.0002350645114334653 -2.545933980311768e-5 0.0
0.00048461544930275145 -2.3828808626004466e-7 0.0
0.00015733360921200626 -2.02613325252683e-5 0.0
0.0003100453220233544 8.902208102963237e-6 0.0
0.00024179469948998333 -1.4761616986833741e-5 0.0
0.0002544636067711063 -3.162536717257119e-5 0.0
0.00029015282132465104 -8.2626411867999e-6 0.0
0.0002999234957618696 -1.044590344367355e-5 0.0
0.00017810762838395646 -2.547947162144803e-5 0.0
0.00017949571077762957 -2.5606092331783436e-5 0.0
0.00012234016505258713 -1.560878851099558e-5 0.0
0.00024525471146276666 8.745996103814958e-5 0.0
0.0002583904523593789 -3.8674666311526613e-5 0.0
0.0004906262381856004 -6.7919809297326286e-6 0.0
0.00043707460742249194 -2.6217677713078124e-5 0.0
0.00034483939318451625 -7.2579641190722246e-6 0.0
0.0001703662538445211 -2.0619297239372872e-5 0.0
0.00037559080996436 -1.4452225580361167e-6 0.0
0.00031838878563254314 -2.8148354805062167e-5 0.0
0.00023564223612109324 -2.4074979980532412e-5 0.0
0.0005314781625761669 1.1802012343133473e-6 0.0
0.0005710895437312038 -4.681049996939239e-6 0.0
0.00022695754491692535 -1.6230632101340486e-5 0.0
0.0003735768045129093 -5.846810380602145e-5 0.0
0.0005106229453710252 -5.3952860910641476e-5 0.0
3.0059458803276622e-5 -4.893545200594025e-6 0.0
0.0001629808225305906 -1.6324273396786955e-5 0.0
0.0001863277915990741 -2.076359153796376e-5 0.0
0.0005202572509297919 -5.1089201219161035e-5 0.0
0.00022521787303721676 -2.9110441536156034e-5 0.0
0.00039975415284381453 -7.26571567282091e-5 0.0
5.090256604273229e-5 -8.772628287870181e-6 0.0
0.00032056183551145735 -9.69323994808589e-6 0.0
0.00047091957034795076 -1.5975217887569568e-5 0.0
0.00036537449681303035 -1.8656702332363253e-5 0.0
0.0005456030881694738 -2.4723834991529735e-6 0.0
0.00037981249135719656 -5.049720156483589e-5 0.0
1.3349907968118833e-5 -2.0516378597536143e-6 0.0
0.00027073408708390884 -1.2547550105620196e-5 0.0
1.2224104798077067e-5 -1.9457175319813012e-6 0.0
0.00022820459348843705 -1.455780335679113e-5 0.0
0.0001527500866876437 -1.2334676130976395e-5 0.0
7.030868906182813e-6 -1.109025100118863e-6 0.0
0.00016318569910994633 -3.081722677199761e-5 0.0
0.00015140911939899874 -2.662162479376392e-5 0.0
0.0002806441996703988 -1.2492891917588619e-5 0.0
0.00029710858230840357 -1.7063124643180972e-5 0.0
0.00010882083222097673 -1.88172166724189e-5 0.0
0.00020947644533231166 -1.4507913754076685e-5 0.0
0.0003315671571653036 -1.4650573654891793e-6 0.0
0.00011640965983313704 -1.675924573077461e-5 0.0
0.0003905546317666088 -5.225259360701208e-5 0.0
0.0003259439962984991 -2.6964424461592662e-5 0.0
8.967275879611133e-5 -1.072016960084382e-5 0.0
3.780013019552208e-5 -4.842706329807301e-6 0.0
0.00031283524339681835 -4.6590437581781474e-6 0.0
1.4534639155173434e-5 -2.3918639987992806e-6 0.0
0.0005500140716737165 1.972989646215328e-6 0.0
0.00024169809105079073 -1.6839690706429994e-5 0.0
0.00028287743510077194 -1.0059800377713135e-5 0.0
0.000491786199242196 -4.3573850932759285e-5 0.0
0.0005375148517856856 -4.8819917599301373e-5 0.0
0.00043356790621950324 3.9181086605876514e-6 0.0
0.00025852219934735955 -3.579526141403762e-5 0.0
0.0003316896061544747 -7.720585430418299e-6 0.0
0.0004852314343405642 -5.727572201983315e-5 0.0
0.0002783050739356553 -5.6631314845302025e-5 0.0
0.0004634399467105939 -1.3591712276463551e-5 0.0
0.0003667253826203569 -1.583546498274226e-5 0.0
0.00022045888447538468 -2.804288140444721e-5 0.0
0.0003754397224960098 -5.9617806835814796e-5 0.0
0.0002307812837535942 -2.3302832519475777e-5 0.0
0.00019731639830308347 -3.135732693157231e-5 0.0
0.00028407521300868134 -9.435982706762035e-6 0.0
0.0004428809785230654 -5.8193987317785955e-5 0.0
0.00012208008386039784 -1.495652701741977e-5 0.0
8.780688358142288e-5 -1.5238712009311733e-5 0.0
0.0003962908658657684 -4.545162831065043e-6 0.0
0.00015317243168444994 -1.698078925953894e-5 0.0
0.00035336956004840937 -2.364913585725892e-5 0.0
0.00030061523928831297 0.000128147033640587 0.0
0.0004618581226323913 -1.8400167291560467e-5 0.0
0.00048243764595371966 2.8730343052441353e-6 0.0
0.0003178006458858142 -1.0851885752957873e-5 0.0
0.0004225070863901843 2.9630820288049406e-6 0.0
0.00033535582590232593 -3.305035211298561e-5 0.0
0.000363677131595522 -6.28618239710281e-5 0.0
0.00019461694380725172 -2.0688406729238924e-5 0.0
0.0002532388236725922 4.6526891253614755e-5 0.0
0.00013399053810835877 -1.5543614755452514e-5 0.0
0.00013832731666235133 -2.637153922520878e-5 0.0
0.0002649618666895104 -1.4268091357623983e-5 0.0
1.6672359329687257e-5 -3.0425780402971055e-6 0.0
0.00010524641424852326 -1.6027163750187805e-5 0.0
0.0003030270038457665 -8.106478473009206e-6 0.0
3.232414930115872e-5 -4.676081710522331e-6 0.0
4.049357175901197e-5 -5.310272337687604e-6 0.0
0.0002945963594215104 -1.4372957641126768e-5 0.0
0.00031622078715595454 -3.6786949777677743e-6 0.0
0.0005313320759503503 -4.654471653449724e-5 0.0
0.00026746279866524456 -1.2670660674822522e-5 0.0
0.00039309359550279287 -2.1677218913458517e-5 0.0
0.0003262971572118949 -4.371806003677726e-6 0.0
0.00010425050208877675 2.3644250577894007e-6 0.0
0.00013483069037493285 -9.092569014836294e-6 0.0
0.0005575534851215134 -3.153615244351618e-7 0.0
0.0003881481331681931 -7.005882345773102e-5 0.0
9.692968682713632e-5 -1.3747635917175347e-5 0.0
0.0003418276328471535 4.66479172301528e-7 0.0
0.000311353557723067 -1.3949048198899754e-5 0.0
0.0003080985072618793 -4.527250045899812e-6 0.0
0.00015997739177825394 3.437842111634579e-5 0.0
0.0002900282504960748 -5.9391875285804124e-5 0.0
0.000512672582794302 3.4524560534840075e-6 0.0
0.00029479198427878844 -1.0580194369622668e-5 0.0
0.00031840395276876653 -5.317677002173434e-6 0.0
0.0003577949149117456 -5.601636543777375e-7 0.0
0.0002905924443586877 -1.1523150038920712e-5 0.0
0.0002974278591239113 -9.005852742250503e-6 0.0
0.00016114047792557741 -2.242437127910817e-5 0.0
0.00037454361695295137 -1.4105624638956407e-5 0.0
0.000257483153670615 -1.3854554619786518e-5 0.0
0.0003143168605960046 -4.796236985590002e-6 0.0
0.00046732407388926507 -6.474532620988235e-5 0.0
0.00027332930081553047 -1.1333364682363751e-5 0.0
0.0003459206275166742 5.887828783704195e-7 0.0
0.00032883976104516725 -4.610882531265654e-6 0.0
3.8375735300733175e-5 -6.7717330720715485e-6 0.0
0.0004385013425805318 -2.2765595299072244e-5 0.0
0.0003211536511070907 -3.6854659948646315e-6 0.0
0.00018685970950390742 -3.104319150711065e-5 0.0
0.00036421844818668327 -4.255277977654028e-5 0.0
0.0004089970650192409 -6.584838192857088e-5 0.0
0.0005811418820355945 5.787447945432905e-7 0.0
4.397060470286408e-5 9.273108677363938e-6 0.0
0.0002595328052594917 -1.5471578950813673e-5 0.0
0.00031546514356791777 -5.530026993187713e-5 0.0
0.00022369863547763756 -3.913226110544514e-5 0.0
0.00024082903307973122 -4.567329161182817e-5 0.0
4.806498210573193e-5 -7.875447297001415e-6 0.0
0.0004007314120622204 -2.056538153282372e-5 0.0
0.00019631262985832506 -1.977491128815022e-5 0.0
0.00026558768622624316 -1.2518896605406249e-5 0.0
0.0002315377426585868 -1.498148477420484e-5 0.0
0.00024412821013838342 -4.6298811448730965e-5 0.0
0.00041070819157414335 -3.3576755199436174e-5 0.0
0.0005384458065842568 -6.479132979156585e-6 0.0
0.00033440687732437594 -2.983349544750746e-5 0.0
0.00029246152668291206 -1.2316113803623757e-5 0.0
0.0002105373400500119 -2.7631779603006378e-5 0.0
0.00030390538228149973 -6.070328237592267e-5 0.0
0.0004188950356065717 -1.5626138682100298e-5 0.0
3.915687219141859e-5 -6.373206694021817e-6 0.0
0.0005051582202697726 3.648082385790027e-6 0.0
0.00025062441514856615 -4.763358647533121e-5 0.0
0.00025459368126612214 -4.040937080978017e-5 0.0
0.0003860007701682794 -4.7585896868238156e-5 0.0
0.000578911457582984 -7.230868950599091e-6 0.0
0.00023226937459325323 -4.1977292528581424e-5 0.0
0.00022122103433870626 -1.502096531823276e-5 0.0
0.00022031262876783775 -1.664676990774582e-5 0.0
0.0003549642009629512 -2.303487044549395e-6 0.0
0.0005556484071691738 1.8223290153138162e-6 0.0
4.2736016006723574e-5 -5.243371660580506e-6 0.0
0.0002996926502718785 -7.777912754460669e-6 0.0
0.0005057338346048854 -4.700349838230853e-5 0.0
0.000551389649683759 1.0626977032627422e-6 0.0
0.00019217662286070606 -1.5612204534770626e-5 0.0
0.00025425952239287793 -4.8252708648624114e-5 0.0
0.0005332500183406693 2.209114790815098e-6 0.0
0.00011018118601664341 -1.4746624014228615e-5 0.0
0.0005694243367516881 1.212363623337191e-6 0.0
0.0002021046355997105 -3.768120949434331e-5 0.0
0.0003761399844271891 -1.080928384258168e-5 0.0
0.0001400921809962378 -1.1683906316962607e-5 0.0
0.0003516536754129364 1.122303135220377e-6 0.0
0.0005544765665450624 -2.8916718237441824e-5 0.0
0.00042765889759979785 -1.3403588331510696e-5 0.0
0.0001779182558205902 -3.1600293955566014e-5 0.0
0.00012573366223568133 -2.4126219320344684e-5 0.0
0.00016186857673157866 -2.3352120080778877e-5 0.0
0.0004768985037637899 -5.805069113660504e-5 0.0
0.0004140749225157201 2.7720801459298537e-6 0.0
0.00010594350529659401 -1.4607903234400975e-5 0.0
0.000250351107720717 -1.628484029036532e-5 0.0
0.0003536609210822829 -4.438848667260445e-6 0.0
0.00024143619120837808 -1.9219495890077858e-5 0.0
0.0005390005773125336 -2.608944355149318e-6 0.0
0.00037917301424280096 2.6854022010590386e-6 0.0
0.0002578775433064585 -1.3586670525518834e-5 0.0
0.00011030056394878505 -1.4263314182585483e-5 0.0
0.0004039220066543081 -1.5167330434483963e-5 0.0
0.0003461848836454451 -5.2018841654767164e-5 0.0
0.0004956452493852565 -5.744434331807814e-5 0.0
0.00021547120596328054 -3.7459505409956475e-5 0.0
0.0003614822398111198 -1.2659244719476615e-5 0.0
0.00023202443114681787 -2.2001869860747578e-5 0.0
0.0003290183929549533 -5.650518801938362e-5 0.0
0.00048712579669885623 -4.097182212746107e-5 0.0
0.00041101812701437187 3.965579705464281e-6 0.0
0.0005358253395674154 2.023798428313243e-6 0.0
0.0001843681673565435 2.8429938053712955e-5 0.0
0.0005150232521537425 3.1268103409579884e-6 0.0
0.0002088896441801803 -2.571728197981171e-5 0.0
0.00047264450431322034 -8.004612112216244e-6 0.0
0.0003455725205905032 -1.7310252368842229e-6 0.0
0.0003825270149433587 3.0545153296291754e-6 0.0
0.0002024745625958191 -1.8502462674978916e-5 0.0
0.00038652952664935047 2.3647138915019086e-6 0.0
0.00026226856696034317 -4.9631381873644285e-5 0.0
0.00016679909772933748 -2.829828895431333e-5 0.0
0.0003191747410618735 -2.9086532769669623e-6 0.0
0.000409794381571646 8.602524486417616e-7 0.0
0.0002516469871634589 -4.4196526215836525e-5 0.0
1.2157212320313999e-5 -1.954201555155068e-6 0.0
0.0005622460527533947 1.5844741163874292e-6 0.0
0.0004663609283411477 4.523555175413595e-6 0.0
0.00028706062948951515 -1.7808238431652548e-5 0.0
0.000575164053254277 -4.837165161793555e-6 0.0
0.00020327036012994295 1.3558171409881886e-6 0.0
0.00031552564903838444 -1.5051474217177837e-5 0.0
0.0005863287542626992 -5.894500790631622e-6 0.0
3.5541238172867e-6 -3.72687831933074e-7 0.0
1.4225541565769613e-5 -1.8468638688163973e-6 0.0
0.00019956291129150092 -1.4248273731152237e-5 0.0
0.00033598858629636135 -8.46876966754627e-6 0.0
0.0003837019094103789 -6.339323746761108e-6 0.0
0.0004422572792446513 -5.259654193071703e-5 0.0
0.0005668306116379464 1.4767435226008396e-7 0.0
4.3471165931771264e-5 -6.851488530249194e-6 0.0
0.00015445287562676407 -1.2443620839703265e-5 0.0
0.00034727103197038827 -4.6950081490490485e-5 0.0
0.00048611084919325135 4.123478063939173e-6 0.0
0.00016711422605729858 -2.416516523958647e-5 0.0
3.99370213876655e-5 -1.2745672739263561e-6 0.0
0.0003470736964866915 9.039016027291374e-7 0.0
0.00021121889382465616 -1.4672471383860644e-5 0.0
0.00042990047586275533 -3.789710989005621e-5 0.0
0.000298672584544853 -9.15762038296036e-6 0.0
0.00023913082419996617 -2.0351906324754787e-5 0.0
0.0005011948845580825 -7.629943216946965e-6 0.0
0.000515180306134493 -5.419655810234066e-5 0.0
0.0004248842476833172 -6.01969169947078e-5 0.0
0.00015508974125319282 -1.6362567584749705e-5 0.0
0.0005244415793175044 2.9818202698318386e-6 0.0
0.0001014929982226823 -1.478273010971785e-5 0.0
0.0005283960188868786 2.8173145203022297e-6 0.0
0.00048120973869338063 -5.886477194832721e-5 0.0
0.0003510672537347205 -9.179964041588334e-6 0.0
0.00039248542309239405 -6.05810308167338e-5 0.0
0.00043997988867343905 -4.5348251964865625e-5 0.0
0.00028802411745726354 -9.018878719106114e-6 0.0
0.0001654933627913105 -2.5965636685056876e-5 0.0
0.00027866257916843006 2.4721259135461135e-5 0.0
1.7162358229673287e-5 -2.6601799533136304e-6 0.0
0.0005537937942762745 1.9509430088243837e-6 0.0
5.630628973803788e-5 -1.0059707396023465e-5 0.0
0.00040552567856446433 -8.23947580168158e-6 0.0
0.00011415274203584205 -2.0135727297914537e-5 0.0
0.0003767756244036369 -8.06164939333377e-6 0.0
0.0001530178790652637 -1.196334712550842e-5 0.0
5.3273177196521985e-5 -8.365574762895137e-6 0.0
7.28427398325543e-5 -1.4667796381088644e-5 0.0
6.768168238688039e-5 -8.274677208349796e-6 0.0
0.00028061766277493746 7.428651569535812e-5 0.0
0.00042910008683464963 3.049484624200626e-6 0.0
6.96738308273193e-6 -9.710485195091916e-7 0.0
0.0004619256749546721 4.658423556063255e-6 0.0
0.0004686424957246586 -2.4433251936865082e-5 0.0
0.00034365848302745955 -6.925729726607e-6 0.0
0.0002952509476843831 -8.656933165986603e-6 0.0
0.00018598464585868634 -1.3757004414211244e-5 0.0
0.0002933431368412421 -7.732758057184699e-6 0.0
0.00035284872984076064 -3.9343137007685795e-5 0.0
0.00020323494647040053 -1.9769510879233316e-5 0.0
0.0001472013430872292 -2.646664943108399e-5 0.0
0.0004813359157339217 -2.2128759111660347e-5 0.0
0.00037837797668296747 -4.416751342280403e-5 0.0
8.04673488682049e-5 5.74083288668651e-6 0.0
0.00021575677755697014 -1.3736206541559365e-5 0.0
0.00036836788616956544 -3.725934675268576e-7 0.0
0.0003560172550539905 -5.797654577695536e-5 0.0
0.00024860532652683877 -1.7224172006758564e-5 0.0
0.00045959875247181655 -5.9908636440089543e-5 0.0
2.801841927701977e-5 -4.996657915670346e-6 0.0
0.00039177950694426725 -4.526122199277707e-5 0.0
0.00023339378129805558 -1.5765874273194454e-5 0.0
0.0005355108475013429 -4.5036041461968e-5 0.0
0.0002309340316317885 -1.6007618895260897e-5 0.0
0.0003491915497611313 3.6994786628111355e-7 0.0
0.0002970974499169926 -1.3044369794277692e-5 0.0
0.00031977363421028317 -1.608530193498452e-5 0.0
0.000333083822168867 -3.7168797955642036e-6 0.0
0.0003427071136418708 -5.666353771501927e-5 0.0
0.0004482555091610724 -5.892484472623626e-5 0.0
0.00016453378177211527 -2.0646728472795827e-5 0.0
0.0003512304682635433 -1.5116727894497327e-5 0.0
0.00034690985951423464 -8.572270545082395e-6 0.0
0.00044301183532329696 -4.659538115776681e-5 0.0
0.0002907760075556037 -8.825971082976154e-6 0.0
0.00032270774014113153 -2.1434495725516543e-5 0.0
0.00016476009444591 -2.411405026442588e-5 0.0
0.0005326536382462006 -4.082129568744263e-5 0.0
0.00037245522420400996 -6.35796762307182e-5 0.0
0.0002520948719542564 -4.210523113832702e-5 0.0
0.0005603612517829916 -1.1152303758604278e-6 0.0
0.00025079873385775055 -3.4804186897584093e-5 0.0
0.00045888361321492257 -3.5705976627509845e-5 0.0
0.00018264504699026443 -1.5074577533304473e-5 0.0
0.0003660372097840671 -4.364701109383214e-6 0.0
0.00014177997393856125 -1.1765617462840535e-5 0.0
0.0002799930295354983 -1.3557012191586708e-5 0.0
0.00027802612815814096 0.00010550095714510265 0.0
0.0005796633354617773 -1.0119086123097376e-7 0.0
0.00033612428235085454 -2.810010695086623e-5 0.0
SCALARS damage float 1
LOOKUP_TABLE damage
0.9808323686106648
0.9923957509537159
0.996642095006386
0.8762403610908365
0.9997694509555044
0.9999879850694591
0.9415053050890165
1.0019884430569874
0.997194527366467
0.9975108868320214
0.9972278324643431
0.9971219606213612
0.9969329591708368
0.9968486208813825
0.9966060206270803
0.9964750404907796
0.9962850177155277
0.996253851920613
0.9962393391894787
0.9961282509647508
0.9960674202587911
0.9959070966449219
0.9956450458268123
0.9954993466257744
0.9952696335426545
0.9952745609619769
0.9954005250964687
0.9955673448225884
0.9957077114705942
0.9957348970990557
0.9955785624556054
0.9950081508390681
0.9910081946810291
0.99240998055246
0.9918132653731638
0.9915060065490107
0.9920198101682985
0.9921473004697319
0.9923752992731754
0.9925645269709018
0.992647268438603
0.9928256317642639
0.9927308176287203
0.9927034298855378
0.9928425381284534
0.9926690457517555
0.9925304524485075
0.9925746863516242
0.9926892117975048
0.9929197030181481
0.9930123134307868
0.993033504987768
0.9929617004080329
0.992887877303441
0.9928650654467142
0.9929670703660758
0.9929885673559453
0.9931484849726306
0.9933692144620707
0.9934550939118246
0.9934494450587882
0.9935566406149244
0.9937090226083307
0.9940859024146029
0.9942849451365364
0.994208019700562
0.9945324791476711
0.9951474518671648
0.9955027514723138
0.9957879487533757
0.995943582659519
0.9963964926685014
0.9968861888384322
0.9982972006234563
0.9975483444671014
0.9953743732790991
0.9954591064107692
0.9948944194394886
0.9954026893333318
0.9947387550813093
0.9951345357134715
0.9977092797242951
0.9985216794237612
0.9983767806212505
0.9984936041847156
0.99912314978793
0.9996359929014044
0.9997136961214536
0.9998473732764551
0.9998762934207356
0.999890938539605
0.9998971859650215
0.9999269277968468
0.9999539349452093
0.9999495646052674
0.9998787637125478
0.9997808492306933
0.9997751478831877
0.9997747248452923
0.9997532270556603
0.9997153062216098
0.999727834339541
0.9998305561494051
0.9999281452290799
0.9999595785505675
0.9999602931531301
0.9999604262014625
0.9999416369517231
0.9999202599448647
0.9998678835778163
0.999784004384391
0.9996696326565142
0.9995284975293017
0.9992978597098288
0.9991315110616714
0.9988850041759448
0.9986618660881793
0.9985821967285258
0.9982762429822556
0.9979055660409657
0.9978127165346261
0.9974909663613526
0.9964532332705965
0.994873071170089
0.9939150682174389
0.9923119597672984
0.9886500486984462
0.978855176213307
0.9660467461963871
0.940828440577167
0.8402901659085512
0.9719860338656382
0.9777321125087323
0.982837655215834
0.9872213668757671
0.9900320896076352
0.9913761083018903
0.9924219347766086
0.9925197596505172
0.9923564609656701
0.9920682647486544
0.9916024878282422
0.9913834336407261
0.9910833781418165
0.9908136231640805
0.9905858071679603
0.9903574861723823
0.9902486835181669
0.9900389078450554
0.9903442727015066
0.9909121756184054
0.9921435010116197
0.9934645862355653
0.9947287350498728
0.9961032707392208
0.9976660802752522
0.9976740390624298
0.9992472768815155
0.9998259301607488
0.9999500840562616
0.9999509212444644
1.000011578452439
0.999711189198172
0.9992686812342224
0.9987061200415874
0.9975838898190702
0.9965531435914688
0.996660471551395
0.9962646610497767
0.992748625267792
0.975058549935542
0.929473149880502
0.930759628072521
0.9476185077798666
0.9579030846648902
0.9687405025043809
0.9780220782370481
0.9869787978592465
0.9914963976260543
0.9958003072018261
0.9989159328044791
0.9998515623722034
1.0002830590681084
0.9999304059940893
0.9998439050264089
1.0000850959862524
0.9961176940337738
0.9765681042564829
0.9939727566329178
0.9998452860510455
0.9954984590972293
0.9998391563521486
0.9974952002349247
0.9997072306279849
0.9980312668070371
0.9999383912750869
0.993107772190784
0.9996273973374137
0.9928476812476854
0.9959692544422861
0.9905476654924624
0.9719133732223323
0.9914127421490927
0.9488656495234004
0.9801075616314824
0.9989285493040149
0.9926332203485329
0.9955465817656458
0.9912141525332937
0.9904019075349411
0.9956183148956157
0.9976587254309194
0.992565557081178
0.9972782738243091
0.992793681436864
0.9953248216043228
0.9926152013100394
0.9969193586672492
0.9973354349569682
0.9999127601286766
0.9989878008710948
0.9997386251500379
0.9999694477459325
0.9946383348533638
0.9934043077081046
0.9933405893820155
0.9922175378453804
0.9929548960571791
0.9961993622098975
0.99084098828582
0.9956087620002072
0.9994630125206555
0.9979690656198328
0.9951826750900553
0.9928662466712732
0.9959303685782568
0.9907461736106997
0.9812477721928615
0.969843726001673
0.9921613158146966
0.9624571224278593
0.999756483610162
0.9995442804472033
0.996097401838112
0.9941423403062513
0.999861466794561
0.999873672641428
0.9929503891727887
0.9993071509166126
0.9925119696703857
0.9924746366686881
0.9983290461308598
0.9977905529447418
0.9987501563106167
0.9855542891776005
0.995524532824174
0.9995266080329943
0.9999007949932502
0.9899802641730663
0.9969167829119244
0.993119357519705
0.9256907963564407
0.9998501573356603
0.9988493264051007
0.9971398119543413
0.997625323211775
0.998381577427026
0.9976182937702206
0.9965772117559385
0.9963754399759241
0.9959854172722651
0.9955760120968027
0.9959051636827818
0.9949134278329737
0.9951754822555365
0.993667442529723
0.9941181239783574
0.9912368848407919
1.00369233807776
0.9774605944896163
0.9972051094443248
0.983483684505916
0.9973654412354913
0.9875646414266258
0.9974844096129949
0.9903952177653002
0.9972105168402651
0.9912454922613418
0.997055996754906
0.9920963878260819
0.9968936703575896
0.9924474221701532
0.996666049929397
0.9930985977824899
0.9966403556243172
0.9929208856573599
0.9962710984270399
0.992910084550804
0.9960186157438404
0.9930731438946048
0.99590856857375
0.9932164259297225
0.9958034692439027
0.9932520157240162
0.995618267636792
0.9932270644555824
0.9956843677715342
0.9928947218927753
0.9953959562998981
0.9934598494143851
0.9954153502299187
0.9937879049382964
0.995465293907571
0.9938365804695939
0.9954404757445033
0.9941042675729369
0.9809790111514821
0.9955187913785458
0.9885602254696912
0.9912417251566599
0.9941926198723071
0.9955298316717287
0.994301557389087
0.9929887849051658
0.9931810385140275
0.9955627218682994
0.9963357525642372
0.9964585592427961
0.9963673653532467
0.9967616569315902
0.9967888940285741
0.99205796361758
0.9923369641351283
0.9969399020137251
0.991311237762553
0.9917350866166765
0.9969920161160393
0.9970211662152418
0.991070663728998
0.9915624146710862
0.9970683726084535
0.9969821119853968
0.991166298934024
0.9916430266206518
0.9970355021308623
0.9968566624237957
0.9913521069326878
0.9918677136980973
0.9969358521211309
0.9966981749152283
0.9916355512639363
0.9922165511476866
0.9920887263809522
0.9914930556440549
0.9971099959029812
0.9968246873126557
0.99656881167485
0.9963653593223394
0.9971023501053303
0.9962828706514137
0.9959510471694452
0.9958450816114173
0.9925890296103843
0.9926299505173952
0.9926039415784811
0.9967329560728438
0.993021093909903
0.9930232424173342
0.9978193263403055
0.9934314891321699
0.9932047930859158
0.9935746766585195
0.9931551086616064
0.9928262494159618
0.9927826763749015
0.992543752211809
0.9934715626838421
0.9926652960157808
0.9924031576425362
0.9938892908552299
0.9937337406038288
0.9925556250712956
0.9923009164448324
0.9954947363443959
0.9953516740162784
0.9940975985561729
0.9938426941443379
0.9950143388804503
0.9948894885378924
0.995409218777819
0.9948126311321694
0.9955406248754892
0.994907987884351
0.9956826880275929
0.9949062166800153
0.99580306862642
0.9941719741261945
0.9948849290113801
0.9959987951214133
0.994266355240628
0.9925151967928176
0.9922567373818755
0.9966703264163999
0.9969455797214923
0.9963267217378807
0.997454965176369
0.9939835793718728
0.9973093903383206
0.9967101662079396
0.9944701576687164
0.9941607782304424
0.9937543160135083
0.9975910020199231
0.9972406468763904
0.9947193554685922
0.9949771002380802
0.9938879202447086
0.9935376959131896
0.9979061933640295
0.9979373951510732
0.9963598370658854
0.9979052770201751
0.9972372037634096
0.9951544308536567
0.9925934243401714
0.9923910711122366
0.9918773544995176
0.9921636438827378
0.991442017426188
0.9918242894700137
0.9910748709079835
0.9952798393448355
0.9952375980596834
0.9936706104312745
0.9934941332719847
0.9985531236901171
0.9915499942242546
0.9907439026999962
0.9955808028473441
0.9953573146375854
0.9920120419972517
0.99791518742287
0.9978202002318746
1.000545896522063
0.9903541622760303
0.9944386422982447
0.9913159976971034
0.9904635399508643
0.99365160136976
0.9935345426733326
0.9957187282853779
0.9953906957141035
0.9988699643334665
0.9928082022531928
0.9929917840874877
0.9921446985406643
0.998409769116879
0.9911114813819274
0.9901576906497612
0.9959523150087078
0.9936307138401884
0.9934977275322585
0.9946954799790674
0.9942589410430879
0.9946173046532351
0.994142273932799
0.9957682833944992
0.9954210337062107
0.9905760526956388
0.9909032225209661
0.9901859832621911
0.9991132076559435
0.9991055161760941
0.9913255196045402
0.9906376021985133
0.9988598144131193
0.9975771332459815
0.9922195307411525
0.9937383275901516
0.9958539777693476
0.9954341754368624
0.9950473815620849
0.9950404792864929
0.9947232789733012
0.9948220006369898
0.9946028177703969
0.9948574975070148
0.9947175434711168
0.9949989851198587
0.9950818114592623
0.9952396112067267
0.995246652343003
0.9956049771484694
0.9955881457583107
0.9959338037650383
0.9949443191839231
0.9960604406173935
0.9961879391637953
0.9960847619848443
0.9961241470245793
0.9930350508526647
0.9932195040355702
0.9934606075842859
0.9934700851225845
0.9963328631002312
0.9960821170971116
0.9958922694590467
0.99574927411762
0.9932063582550467
0.993343749444863
0.9945723836503817
0.9941366192125957
0.9946173541783996
0.9992173260214604
0.998919760726625
0.9959183548764631
0.9898630375400399
0.9968359005447079
0.9956337153810132
0.9954788953225427
0.995773382701717
0.9957900877356877
0.9969734726380565
0.9941873981464688
0.9937905682812123
0.9920869378127573
0.9931925011069792
0.9933106575623476
0.9948145701856477
0.9956824597418744
0.9959787330279111
0.9961660270572055
0.9962754621880574
0.9964678757447912
0.9966089529606547
0.9965085546930836
0.9967614123975622
0.9940383654370971
0.9933211985446921
0.9933483472610151
0.9963745636787383
0.999197743445944
0.9988432525355415
0.9966748217589463
0.9967447699923561
0.9945956160704242
0.9927842179894367
0.9928090625566199
0.9891677815667049
0.9912631038293325
0.9964947960818007
0.9960076067342357
0.9915988653412632
0.9991236867819094
0.9986453910304239
0.9981719783370704
0.9933153468038941
0.9995194626160343
0.9932033571886455
0.9924650680615658
0.9942723462016895
0.9949254827682531
0.9968273650715187
0.9920498546856501
0.9920849885150784
0.993285517744467
0.993258416715059
0.9933857088052307
0.9968711674979599
0.996574270957213
0.992861166066319
0.9922601662470943
0.9971817742269631
0.9969173984097967
0.9914067563131196
0.9915182735730648
0.9944740479304662
0.9981257282924414
0.9962361122187157
0.9982881805947789
0.9972802163590888
0.9970665906325334
0.9967273958891557
0.9970671015483926
0.9971547923759655
0.9966173601339204
0.9969490307956804
0.9932105651797916
0.9931559985796317
0.998019685008363
0.9976083585027201
0.9909201243093745
0.9908803685029938
0.9943884756143893
0.9951294661737942
0.991688648858391
0.9909721915242079
0.9904870187313837
0.9904398176794541
0.9979596619351033
0.9977666956898777
0.9963530108902972
0.9969252369725106
0.9952905446519483
0.997505521812383
0.9985721072836966
0.9982266595430701
0.9915566383893951
0.9967819317976109
0.9953945514168897
0.9911533006878612
0.9905047781460355
0.9901818930882464
0.9900464995211745
0.9906362658426436
0.99009493660078
0.9908657639234076
0.9904929242071175
0.991340171185553
0.9911643983091413
0.9918978349221315
0.9904464607816236
0.9912196543448851
0.993065749093077
0.9931358125707832
0.9905269854897306
0.9911460677136916
0.9951058802156096
0.9922446102279907
0.9969747931268069
0.9972614654193632
0.9933793005429429
0.9978571195818534
0.9973685985065023
0.997377428547821
0.9974919350480531
0.9977081367031885
0.9969224302330474
0.9979824988182427
0.9957913286702786
0.9960327590915549
0.9971660359030851
0.9976261391255611
0.9973014680724247
0.9899982454464362
0.9952313899465973
0.9960551888572047
0.9927902115381935
0.9989078112482532
0.9986106646456504
0.9978410095290939
0.9981739917057932
0.996397797644279
0.9967144686088805
0.995024616739603
0.9991114430994938
0.9946551469137916
0.9988524374593974
0.9985208755591639
0.9978192320554153
0.9981717103618439
0.9975779934755725
0.9979944917431186
0.9985711279546394
0.9985827515374045
0.9911466802199287
0.9916185226636711
0.9919487810270603
0.9981409854095422
0.9978033195646053
0.9977695648125738
0.9972482380797825
0.9971172303631217
0.9956079159100545
0.9950920638491992
0.9921441956663801
0.9967873114681837
0.9963507352727892
0.9906762162329777
0.9942043553034194
0.9951166032496184
0.9983647977212624
0.9909100935789852
0.9967963216940385
0.9991253284625771
0.9989214071181444
0.9900641535268769
0.990448338766356
0.9957913011975681
0.993223094403665
0.9932022740935396
0.99329464739835
0.9905754771836615
0.9991382461866407
0.9969780126088688
0.9960026544413296
0.9949558574690254
0.9916515993266812
0.992176510297369
0.9911728775714203
0.9975933360689533
0.9976229502047419
0.9983137753461485
0.9909018276899763
0.9911622017867936
0.9919716973274236
0.992093624844592
0.9916249607039898
0.9922903427856056
0.9926826876322924
0.9927134116841392
0.9928715849595027
0.9927859675137736
0.992806049982022
0.9926813683899597
0.9926764318666469
0.9925297154644585
0.9927131579159783
0.9925355160262533
0.9923873072001629
0.9918412958355838
0.9929306745029883
0.991271619796272
0.9919905450899089
0.9924220014435229
0.9921687562325149
0.9925036131188041
0.9959415718137722
0.9965019626466364
0.9966847423904104
0.9973498777543357
0.9975798307831834
0.9982896240889533
0.9979530559008584
0.9987248147470635
0.998252925139572
0.9557160703849771
0.9984572274182424
0.9977504950420568
0.9926157760965403
0.9945908566483316
0.9948949993547347
0.9944545036400236
0.9948102993007444
0.9942795841741793
0.9946820733217593
0.9953541758111011
0.9952929493877222
0.9960747585202795
0.9960346360555992
0.9966416223230171
0.9951903679469947
0.99405461899931
0.9938110770869741
0.9966342184418312
0.9969979081814648
0.9924851750309546
0.9921190156192914
0.9850818666618332
0.9963818746633736
0.9964617504029911
0.9964606655809612
0.9975875656491912
0.9968175984965251
0.9971970981604691
0.996296405677857
0.9959506454908373
0.9940546433591957
0.9963502314196347
0.9979334112538765
0.9971316088568173
0.9979978142714709
0.9988990172247925
0.9984244288973618
0.9967451275209848
0.9958836600878506
0.9958934902436613
0.9947857064998439
0.9951662370910076
0.9939507613273986
0.9951551259335361
0.9938786731395104
0.9909117435299921
0.9939830016277558
0.995144202724493
0.9957372489797202
0.9935369843912156
0.9934874447793253
0.9922917849896224
0.9926336688100871
0.9985084139629663
0.9981353757127946
0.9993656472828736
0.9915217130200509
0.9967493909121042
0.9970402404440099
0.996698472785243
0.9972567419145489
0.9953520252572196
0.9983939064487058
0.9985516846624105
0.9991501106370555
0.9990363550755488
0.9908972969060659
0.9916939198382081
0.9965895326900551
0.9928794346357732
0.9968175261203452
0.993241126452636
0.9927811322589112
0.9994777430722087
0.9950921168749987
0.9971356760209529
0.9969327261736026
0.994516737509818
0.9919010908399818
0.9953223182410468
0.9947697664765326
0.992102322029123
0.9925347207818866
0.9926469805421523
0.9962841371241438
0.9975905373140855
0.9921675266013593
0.9938865096257091
0.9922799797499248
0.9919395469379318
0.9978659854955958
0.9938051411413118
0.9961900125863616
0.9954750743287328
0.9953790881617794
0.9936928641602766
0.9948591710924424
0.9976273496265892
0.9932245136008916
0.9930329230204161
0.9945207070207526
0.9936089588840745
0.9985555152729652
0.999080454097146
0.9995907390926498
0.9995124372360954
0.9974516036731758
0.9974542098861956
0.9985579507183663
0.9983991294834335
0.9935065256583444
0.9935185902003655
0.9989102801589778
0.9949397627112356
0.9942813032296879
0.9988545838199151
0.9992537674468636
0.9995198745580886
0.999700939156008
0.9987628468178665
0.9917883289735621
0.9920096257460419
0.9924779678829604
0.9935737866928439
0.99368752743444
0.9933072334891434
0.9937055968897075
0.993273847702645
0.9936803592384105
0.9931835429982393
0.9989116107796092
0.9926442811102125
0.9969372346032824
0.999217684932535
0.9995375527794609
0.9992756730462913
0.9989277951193917
0.9943649971151165
0.9998979429031672
0.9939673277841614
0.9887615934091772
0.9937146231870724
0.9940825107506304
0.9965891350352046
0.9966850580090814
0.9991007843258755
0.9986308430776206
0.9931404701923633
0.9917861303381557
0.9915102409475676
0.991819288706138
0.9912968386068265
0.9981181867023754
0.9960927407067502
0.9970662970404016
0.9951160892487927
0.9957453040246343
0.9976945005974475
0.9969320007606975
0.9972036583619949
0.9963091766930322
0.9960070151675516
0.9938132216808536
0.9936366545416168
0.9935552542324345
0.9931272474461645
0.9929212169668733
0.9928437518325128
0.9931219524048595
0.9927211622960508
0.9930955638049581
0.9927624194742849
0.9933815715226826
0.9926118386692675
0.9969708354797648
0.993204788087183
0.9934496309151484
0.9941257839526192
0.9953375406500534
0.9983554101142484
0.9980670650470366
0.9932464240329839
0.9919411088919367
0.9913332155073755
0.9955899955427456
0.9996605926052028
0.9981073609929698
0.9998707616645769
0.996367499054606
0.9937700374294696
0.9936770689635944
0.9939481462435921
0.9927740249942587
0.9939230846763005
0.9934489640636304
0.9988565259314875
0.998812520786592
0.9984932652320649
0.9987076351630324
0.9968889073598861
0.9973808456816198
0.9924789594185491
0.992433393900353
0.9951254466378351
0.9962546100468246
0.9928919497738572
0.9951225048604094
0.9946945577534324
0.9956000422370784
0.9998496421925706
0.9940517623531447
0.9934622322670607
0.9988926324678125
0.99884914380006
0.997111105045621
0.9970684828808658
0.9971837270480359
0.996733421864529
0.992392160662921
0.9931192677209157
0.9982385106836895
0.9969074569338833
0.998948612456252
0.9928392588976056
0.9926803974931038
0.9923270839734445
0.9994586235042067
0.9932584683644916
0.9932504943142008
0.9933974365485703
0.993362636930528
0.9933934481848457
0.9932283378036452
0.9995439041660493
0.9993158006482427
0.9954137006856071
0.9992209638374625
0.9957717223252348
0.9957567696765873
0.9941180341091235
0.9939376845786512
0.9936968249404574
0.9960120631455786
0.9939487863442721
0.9927265860102134
0.9943615449866413
0.9933352833786413
0.9943846729525865
0.9939577773976365
0.9926974792879757
0.9969743291952712
0.9967352935625667
0.9938531952099979
0.9989648739523698
0.9978026781957583
0.9918233788080597
0.9851994704716556
0.9938829870639835
0.9949969752928274
0.9972240257092929
0.9970763045919173
0.9924909571821955
0.9919168581702373
0.9914902736559911
0.9909386116207136
0.9934506719956365
0.9937967266472459
0.9939869075824352
0.99910423450777
0.9991032176477251
0.998551993542889
0.9990082534335535
0.9986679683273877
0.9999074744008114
0.9933341126916504
0.9931715984402943
0.9972960356357264
0.990966859939224
0.9908199315149487
0.9914514685933996
0.9896016683392794
0.99255614413788
0.9966150324608278
0.9974862711791075
0.9973058126861001
0.9978174133255353
0.9974851024335837
0.9980575658767602
0.9968135393977643
0.9932110028420139
0.9931402161500595
0.9919289610293537
0.9917325698328677
0.9916548961615164
0.9919078993122896
0.9919351163361516
0.9920240161663113
0.9928680704881132
0.9989044425923251
0.9982048399793816
0.9991745977584644
0.9991840649314447
0.9990586950460709
0.9928924834993937
0.9937524851631249
0.9995771640064973
0.9961662364782065
0.9974282818275936
0.9969112140952462
0.9973028113719722
0.9968126272660388
0.9971577817998284
0.9967061558551874
0.9970152012369207
0.9965530497358984
0.9968743473862446
0.9964752267494967
0.9973518027529577
0.9970359162732864
0.9996433163262429
0.9926104004612419
0.9959269275200797
0.9952003260075744
0.9970281467550663
0.9936571868776296
0.9977861662771543
0.9962472762213348
0.9943133022782569
0.9928549580018051
0.9940244642344722
0.9910047229428508
0.9958995400610545
0.9977461481241346
0.9942254468248993
0.9941578837958527
0.9914727859352496
0.9935201983134848
0.9945210143509898
0.9941649130775179
0.9940527895356054
0.9975986007787946
0.9977907508036186
0.9976023357555265
0.9978289263450019
0.996982016666158
0.9952155638282728
0.9917945789075492
0.9971637912495763
0.9972588980008527
0.9928559219630267
0.9934490546363105
0.997533123070521
0.9991677526530984
0.9996365768325051
0.9996760306006943
0.9999253880279532
0.9999180196656513
0.9998000530950952
0.9994607236170245
0.9987994522628258
0.9900187573644441
0.9964192682560055
0.9924780362579988
0.9851473313067484
0.9799183593283239
0.9998260004669197
0.999958750299205
0.9998679981048656
0.9981556636428514
0.9955665970640508
0.9960704489004633
0.9962874815156925
0.9940754985057226
0.9957667285838633
0.9978421369454158
0.9993016471867299
0.9997809230237726
0.9999234437546797
0.9996978297485485
0.9931346778332183
0.9965358688214062
0.9963925415311581
0.9971114341683498
0.9964628825290888
0.9978359726500031
0.9936341072522797
0.9930536428344726
0.9912396667053635
0.9942466071101836
0.9940419459067737
0.9992574623385935
0.9996940978786021
0.9966154586509424
0.9919688594350483
0.9931371325258895
0.9981503130414038
0.9991755731070533
0.995974561409276
0.9954992139685052
0.9978802044714611
0.9973598449833034
0.9976406771823323
0.9910445897271603
0.9941803425940192
0.9966394821272906
0.9993022324502187
0.9951376146922576
0.9942372596682105
0.9973093064668255
0.9964442701721848
0.9992050842720074
0.9946092811349709
0.9944526353188629
0.9930336404328338
0.992030055265478
0.996878914777625
0.9929288821599208
0.996407390838183
0.9960438066523409
0.9999206281557826
0.9998830121864091
0.9969464775980671
0.9968046562651411
0.9934208541934841
0.9968839205386137
0.996763962640338
0.9945789369599075
0.9939988202682626
0.9945984449637081
0.9926602627160276
0.9923869551904043
0.9942028641163942
0.9951897872383564
0.9999301699639094
0.9923421990792315
0.9929078795827465
0.9928917554953074
0.9994969438932993
0.9959508773292809
0.9969388347127508
0.9907332018434921
0.9930945413025086
0.9906071526116078
0.9941978810770713
0.9956061591141733
0.9938919697322878
0.9936032775734873
0.9934566409617016
0.9932185405304775
0.993372374834143
0.9946864588911711
0.9978928164134605
0.9945682511791012
0.9953070124809988
0.9994908275486977
0.9950788226906785
0.9945315412538475
0.9937828859985937
0.9934090764394613
0.9940312109007287
0.9931774291752383
0.9933004322390993
0.9934007654582866
0.9933720094802434
0.9933599325178092
0.9933420800108147
0.9932714043201
0.993198751194007
0.9931580050576388
0.9947414447635767
0.993095892803637
0.9931030333419423
0.9936232160599969
0.9928872179663545
0.9931624893402895
0.9933355341522168
0.998947850799633
0.9983988883901656
0.9992149805244518
0.9995568667595669
0.9942598537911512
0.9947689676278076
0.9945872358999907
0.9935657520770645
0.9930969065516069
0.9919936452723667
0.9867280504258015
0.9862688653299098
0.9806538444586167
0.9831245800926379
0.9796879736305291
0.9828741363374073
0.9806815664478681
0.9832985873666626
0.9819251420945421
0.983988420283687
0.9830634870837256
0.9846123445025127
0.9840284688102515
0.9854951364068829
0.9850924934871547
0.9863463310891534
0.9860738418816303
0.9871344611219004
0.9869557498076166
0.9879578106791964
0.9881495664109116
0.9889320172827412
0.9879412498741041
0.9860230397246016
0.9859845333937297
0.9837531779833528
0.9865732993055268
0.9808745311071355
0.9891636610090603
0.9898208286159866
0.9896227992728429
0.9904376626356591
0.9852121107402683
0.9772831307545548
0.9884073951761728
0.9779441183796969
0.9902824084682059
0.9910604980085019
0.9909311928480908
0.9891988759470761
0.9885387276510528
0.9895171985371963
0.9902075811349105
0.9895773251519246
0.99211957679599
0.9888702823993704
0.9915327386762386
0.991390488627846
0.990875056397183
0.9913378260959019
0.9993785529411539
0.9993459367185835
0.9971108151797029
0.9974469312267903
0.9979409822230579
0.9957816884704882
0.9963759948015759
0.9916146184345443
0.9971233716919301
0.9916782179229826
0.9939764211255
0.9926817244472759
0.9924305162377008
0.9966313321754244
0.9961849317951725
0.9942055040054788
0.9944991336424018
0.9991023100982563
0.9988492377533875
0.9988614724638785
0.9985761090278367
0.9992422966325265
0.9960155625000928
0.9960666679531885
0.9965312926091446
0.9928010389326158
0.9934825773647409
0.9931364750745311
0.9940660724707935
0.9937733763663994
0.9948325831867779
0.9946794555252411
0.9957731478073499
0.9958564765507182
0.9965135385178487
0.9972277452556301
0.9972487197359509
0.9972615190456311
0.9972192603185043
0.9928338103866577
0.9920811053886459
0.9920389031429663
0.9914939406679933
0.9916956745299949
0.9967816325047977
0.9969398859706191
0.9974401371161671
0.9948280919158621
0.9969724580363875
0.997031944281773
0.9921509119812153
0.9964614721063506
0.9943506760190962
0.9946256062035502
0.9951414670935192
0.99471573530808
0.9937968998988403
0.9944050006642737
0.993379739118329
0.9940349360791347
0.995125040561781
0.9963871000392535
0.9931378706933689
0.9921589778141315
0.9902229848656688
0.9980613796789107
0.9985627808834796
0.9980989644961097
0.998394469246527
0.9987127763304458
0.9942033280197582
0.9973173601543956
0.9941885253252598
0.9934510102948021
0.9927747497773759
0.993344075755159
0.9893085271625659
0.9851358829466408
0.9973742858013976
0.9980731039362212
0.9966251486248628
0.9974753599496836
0.9982609710818886
0.999886661493123
0.9998579979825949
0.9998604540252379
0.9925426631985023
0.9927061577796268
0.993553275634946
0.9926833341997512
0.9932762634162712
0.9927361880055774
0.9926872647740719
0.9973632694135072
0.9919513040374043
0.991899960418511
0.9918386981175116
0.992198928807477
0.9936868117586792
0.9908137878300661
0.9905175599505907
0.999913112952926
0.9929906855908671
0.9998166371139791
0.9997584383886037
0.9997138645755284
0.9996111692602934
0.9995818017690149
0.9995535155220643
0.9993491435068768
0.9993466249246213
0.999321396792586
0.9994784395941297
0.9920998084066022
0.9946363102524965
0.9936494109861321
0.9944733700230728
0.9958062780088469
0.9957209183057943
0.9899477935493551
0.9952089074408734
0.9971790693829188
0.9971383928197216
0.9922236395913046
0.9920862841806075
0.9996935185951691
0.9930664447184065
0.9929601799580031
0.9973218731967002
0.9989768692963852
0.9787703725404406
0.9725727490180504
0.9855110675324932
0.9957517754805327
0.9994165824052385
0.998356147858313
0.9943749087200622
0.9986754869320156
0.9941387448655944
0.9921819563760987
0.9921796531558076
0.9975423623063516
0.9950762910022029
0.9931008470577238
0.9969141460906554
0.9998462924319074
0.9999410074555694
0.9939481867592587
0.9994297906611808
0.9997230274461228
0.9979416327237671
0.998538595150739
0.9985408567591878
0.9989402226918976
0.9986390310871838
0.9878037095008798
0.9880654976470861
0.9930650531670286
0.9938777541657632
0.9928705083073393
0.9958352630319268
0.9999549561314142
0.9999732109071318
0.9922741534633601
0.9922293186884142
0.9907520221144287
0.9924520266524652
0.9922779706085677
0.9974452258947291
0.995084585305561
0.9963261383691325
0.9969630365271276
0.9997034089073339
0.9998314865992112
0.9931712919797188
0.9931038472800892
0.9990262678599701
0.9997788189743446
0.9956620994304225
0.9945322123134226
0.993160216344062
0.9999182687261742
0.9927186505366922
0.9894763246684376
0.9899946080086691
0.9925969368864683
0.9955116804310724
0.989728577776235
0.9890428734095046
0.9894331844019474
0.9887923807919164
0.9893253834320032
0.988730591733394
0.9881362367116412
0.9879785202415325
0.9872494706588449
0.9872461503040582
0.9901519295497082
0.994774524919042
0.9961304291981954
0.9926037974535419
0.987278052144709
0.9699370938627553
0.9666295219044168
0.9860727957177657
0.9758216763310683
0.9703376563697786
0.9670569921068506
0.9715697625360161
0.9930557093821228
0.9926948898023235
0.9918002006955894
0.9935743151699734
0.9943718471370042
0.9999682178507665
0.9999434732118935
0.9921908560621536
0.9926517969812653
0.9922972632801843
0.9903043067312166
0.9559306496140343
0.9891234436449529
0.9882125766509984
0.9863226646892963
0.9876177125477554
0.985319018499893
0.9947416312788199
0.9941313379023624
0.985941374123537
0.9980388155467547
0.9993463108747486
0.9990302243373417
0.9955371318190572
0.9899277404256988
0.9908874465277012
0.9920277383576468
0.9951155612589767
0.9998806796183203
0.9998510356961462
0.994239775481204
0.9993500778189219
0.9995120237294882
0.9995599207308348
0.999143623013833
0.9896682842562796
0.9908285580094237
0.9903461536267176
0.9896177943776852
0.9971635844610998
0.9970867811876161
0.9995028936747457
0.9918593842200015
0.9948727215869558
0.9791327205702917
0.9782892517522014
0.9802902785814087
0.980083387038292
0.981963907884945
0.9778082171131706
0.9821816910091278
0.9835719059569679
0.9829271550464849
0.9919312819015136
0.98355163717206
0.990408117562172
0.9908740421600709
0.9972032460911133
0.9968927512857615
0.9755232194011797
0.9748440315432231
0.997126609045502
0.9996760325451801
0.9998302006348563
0.9998659927120273
0.9998289031940257
0.9998040505194633
0.9997365031515941
0.9928317856180585
0.9927409041433866
0.9926120453367363
0.992688532056411
0.9925848693382658
0.9927795060240043
0.9927143280938021
0.9929075170318152
0.9931047211592944
0.992571141292892
0.9932200442742646
0.9928594630968469
0.9931346448790123
0.9934953583126052
0.9931254439273194
0.9928916338383892
0.9928047066390144
0.9926155221057312
0.9925686376856225
0.9985254194377807
0.989318308433236
0.9928791608598992
0.9927515998179581
0.992306659666381
0.9993594819931478
0.9971141588250678
0.998066170300926
0.9978480464317162
0.9980492128051212
0.9976225340907958
0.9975176542090676
0.9974341852795854
0.9972855323615848
0.9970650926845037
0.9922574778415918
0.9969638763534983
0.9921356849533692
0.992493693619553
0.9946646312149467
0.9940771890397019
0.9951481006361199
0.995648435340224
0.9913915711103939
0.9910771330876988
0.9909595134363889
0.9902850761937763
0.9898657394245166
0.9849478024785215
0.9941011867802486
0.9933155260237864
0.9933397272251511
0.9719097699594467
0.9907994679581134
0.9995921935846541
0.9977906120717818
0.986306867638406
0.993031868104877
0.9934130915816546
0.99991489948181
0.9904793334119896
0.9909554274717488
0.9907512180328918
0.9911560895463457
0.9913045785122379
0.9912585030131215
0.9919258284263068
0.9916468105089099
0.99545059030137
0.9915705646834275
0.9910823939521032
0.9908725770805906
0.9915049790769668
0.9991060602500899
0.9999833941561501
0.9954563660746208
0.9925652432186254
0.9937935750647517
0.9926806268951344
0.9890606306546649
0.9875923924801588
0.9877201346588748
0.9879027497666687
0.986804661089161
0.9863259763838239
0.9863335524629571
0.988458423665323
0.9924144734977041
0.9893363998880923
0.9997718646871363
0.9902941002075056
0.9985926963359449
0.9921742697746354
0.9977279504004408
0.9974022476077222
0.9967308855854546
0.9901410738588549
0.9951500508035824
0.9952864689651356
0.9944533344893626
0.9934064303710436
0.9934723342791097
0.9923009061826813
0.9985573381162196
0.9970407107963792
0.9998762854265307
0.9907048903765727
0.9977575547713283
0.995333138249001
0.9985344456010227
0.9977324631777029
0.9931243419068642
0.9937160128997611
0.9984971249798781
0.9922645326180907
0.9925034977036865
0.9924683591049327
0.992782769551194
0.9972083952024314
0.9960171172266167
0.9887648333251018
0.9888087902592463
0.9962721522579409
0.9963256297583212
0.9887276838063387
0.9953618064133655
0.9895366645579546
0.9959956966260768
0.9952155820912716
0.9969576650316752
0.9939376631480882
0.9852107457749885
0.9969861077057046
0.9872834260713211
0.9988323707310471
0.9924013933383282
0.9938046981415984
0.9934432107289238
0.993520622607126
0.9935572814278194
0.9955673187627464
0.9950241284284361
0.9949761407861019
0.9931978826956914
0.9933467548558035
0.9920138520252851
0.999629374363425
0.9996598703303603
0.999590031172553
0.9996357475346703
0.9992738288749049
0.9994826281207111
0.9992052763486977
0.9962082142207054
0.9930306292879797
0.993160930682557
0.993160536441671
0.996880327648425
0.9966431039724469
0.9965557907319232
0.9957451120064861
0.9952360706379224
0.9949495619901184
0.995446066059393
0.9975419825993254
0.9938191513768507
0.99276600575597
0.9919945119898633
0.9906377476670852
0.9905927937967944
0.9933642615025997
0.9940035562130964
0.9936813734420384
0.9936890139354206
0.9933638741557428
0.9887131294776199
0.9750334090042944
0.9996556796383325
0.9996503041645717
0.9996403084817427
0.9997076850431547
0.994600819315476
0.996025292278125
0.985649551728265
0.9823488364431184
0.992617607632453
0.9937052596415706
0.9942101462028182
0.99341695213469
0.9931269782920721
0.9888664908972159
0.9931430368770665
0.99721322071885
0.9996160556797727
0.9905326632661317
0.9917356742519468
0.9959718994959906
0.9988124582695352
0.995521506397497
0.9960609663188085
0.9961266000522849
0.9920243060374468
0.9914459591707726
0.9913926157703612
0.9915453614245988
0.9922938540599201
0.9920586400224511
0.9924607205957099
0.9996922482555536
0.9976795452395628
0.9976723160710065
0.9981365411190504
0.9980300856066986
0.9985348686081127
0.9981615624968151
0.9988118599600901
0.9956821084245681
0.9901727448288783
0.9999054767620936
0.9995698136376592
0.9957926562567585
0.9991454199967988
0.9995586733882588
0.9979336795223894
0.9962744971936047
0.9961261531368977
0.9954179804139086
0.9907750925039186
0.9939429203040625
0.9995453407633156
0.9944506599045904
0.994246670440301
0.9945827782430261
0.9938788007221628
0.9946867966272265
0.9939776573112487
0.9935893100359499
0.9930505251997152
0.9968477736235396
0.9913686097502059
0.99343377686955
0.9984609795342811
0.9982528400970553
0.9925626015947222
0.9918423890114751
0.9904982345764093
0.9938419866692171
0.9930024707679447
0.9929326327501924
0.9931732938510937
0.9991391725859218
0.9993507602582054
0.9988576263006932
0.9992489287786027
0.9995960232614194
0.9909349920519562
0.997671876663387
0.9967117081216311
0.9988297232292246
0.9967630027984122
0.9923437747620878
0.9959567731241132
0.9927274532247543
0.9961487717486895
0.9962415172015595
0.9955660194053677
0.9984491305109117
0.9967061175144487
0.9964218616667673
0.996428220487872
0.9935097832654283
0.995045767547669
0.9943209220191321
0.9968480195483801
0.9968580192239553
0.9897877556465597
0.9949339096801413
0.9996492383771931
0.9982851427311471
0.9961063176177346
0.9962301491074345
0.9966953319104173
0.9962677074133971
0.9968578013033247
0.997057919740866
0.9982095361417999
0.9944606708274291
0.9947691453345704
0.9968564808534529
0.9952797659365437
0.9995572728066384
0.9954411729460106
0.995965264093322
0.9998263190001735
0.9937800702112553
0.9913978676845037
0.9962344567750323
0.9934043772167446
0.9717855682717254
0.9991649964488717
0.9949494802061619
0.9926737243388437
0.9935613349208351
0.9921376330606626
0.9926486706403344
0.9917581564990003
0.9937354641822351
0.9989787744334143
0.9943174212838337
0.9954818610266597
0.9956932813281845
0.9931291249590459
0.9930586669532011
0.9981534959517098
0.9993151006346056
0.9909550807671182
0.9970380546892873
0.9971360490098485
0.9972136001244097
0.999300021734369
0.9965728603226579
0.9929685891222129
0.9944696357983089
0.9925832327779777
0.9967655699751612
0.9937991280770941
0.9969976692940864
0.9960267420697643
0.9965377517841862
0.9953657777411038
0.99623398033755
0.9988427019335883
0.9930696503074846
0.9825962599751881
0.9930501863104952
0.9952853918457563
0.993232626987924
0.9956353371462425
0.996790815499156
0.9954231541589392
0.9963922012743307
0.9964430016352068
0.9912927223094969
0.9995868773798405
0.9908789313673904
0.9965805903458784
0.9971403801894547
0.9960390317735835
0.9967037443886788
0.996203537283423
0.995506068903797
0.994513212114757
0.9998178291483293
0.9999364542306344
0.9973105086810024
0.9969359222482966
0.9997660054151939
0.9996945190169335
0.9959742360829218
0.9939051155870365
0.9998841946186584
0.9962266771440874
0.9921835490163935
0.9924603643636274
0.9970095819632315
0.9967341592918231
0.9949184035351041
0.9971956901938103
0.9978249112690307
0.9940257438532953
0.9929437175833323
0.9940139493267014
0.9922944549430258
0.984827315107953
0.9950389598509813
0.9965389191769677
0.9922828183070258
0.9923207878128443
0.9965818928362751
0.9966543219796332
0.9963971288161226
0.9949937207542404
0.9988977238521465
0.9836797530269341
0.9607762364426276
0.9918256203961422
0.9944155819268443
0.9952522318656357
0.9913380870012748
0.9671476765975139
0.998817704474746
0.9967735124741887
0.9943960336265609
0.9971700797211308
0.9940413747247799
0.9975963564285829
0.997366553580021
0.997742160389759
0.9932534454433727
0.9930444835368071
0.9997225721177754
0.9998204269846643
0.9978082101148901
0.9944270115687686
0.9988937978121701
0.9967003427571831
0.993391813502313
0.9918524891586601
0.9932757412100481
0.9938432062143332
0.9921054012872035
0.9973398503379621
0.9922644450301086
0.9929138685431718
0.9973866349892504
0.9983733421737446
0.998164859662493
0.9985007521024617
0.9960760073625582
0.9976645961382735
0.9994005238149257
0.9935601770117765
0.9763463855992296
0.9972603503450025
0.9996463144986464
0.9993569662701871
0.9899481260943154
0.9940741080796246
0.9889881974962845
0.9833138370363711
0.9969386410977796
0.9887192420758241
0.992587051112767
0.9961365554584988
0.9880181673121885
0.9893051577915863
0.9921569590935966
0.9964474367108854
0.9963929943049045
0.9985314091511139
0.9936213454399042
0.9999562855078464
0.9999140205423694
0.9928665868554017
0.9967364743682123
0.996961188759524
0.9956569148855299
0.9929981743323513
0.9972733962273901
0.9969142866245579
0.9974585247071679
0.996086888322347
0.9972645759091706
0.9927422841361558
0.9919443781995307
0.9923149316023363
0.9948186835930426
0.9923305215687698
0.9929876187634177
0.9942755861677697
0.9994394362542132
0.9926030398767548
0.9930272890501407
0.9964097998350403
0.998102032437991
0.9970439169823753
0.9986399627268148
0.993443643891887
0.9991709758073195
0.9990530794298111
0.9924157755851744
0.992641148448973
0.9986369607517576
0.9989877664109759
0.9998122113712513
0.9925693673577901
0.9999596056514062
0.991603380837063
0.9991148195024729
0.9946745954149175
0.9994465607671307
0.992851169356096
0.9933437732526377
0.9923800045056754
0.9970264874465484
0.995718318572506
0.9957667353411829
0.9994753547112823
0.9968191309384523
0.9977491731507719
0.9976382780824365
0.9981546588759319
0.9901076671961945
0.9936879130138967
0.9936399689695725
0.999570349681504
0.9963575858421025
0.9950558526543982
0.9853643726331115
0.9928279593129633
0.9419689454308438
0.9963258007612866
0.9938040126106766
0.9934316207036864
0.9924706972072408
0.9978117082509266
0.9982328351324826
0.9932543889025166
0.9902950018130067
0.9976296522519452
0.9904063119522222
0.995157387228297
0.9954353675744072
0.9925801494981068
0.9979681299988987
0.998625548692609
0.9965459317835029
0.9924904392834992
0.9925598284561371
0.9933564048179153
0.9941782703479146
0.9987552091934007
0.9971889115992848
0.9921187190529053
0.9915469655451243
0.9874124265094377
0.9974181513545839
0.9965658197109071
0.9930763396484737
0.9942446502212129
0.9979801684170397
0.9942423882278355
0.9959520499874334
0.9958459780635127
0.9962949490301473
0.9956719002302133
0.9934736636573192
0.9979421460338113
0.9952840676989216
0.9854105205354874
0.9929524204569581
0.9904894480999354
0.9971158908695813
0.9913887289364492
0.9975751735172992
0.9956325541454548
0.9929319554580534
0.9937917256524236
0.9965082421837849
0.9898354963556124
0.995854763034881
0.9969057264173847
0.9959509403310388
0.9930213382575672
0.9929054805925719
0.9834257342990125
0.9953957848843594
0.9979114958649082
0.9933563738107467
0.9965164158136892
0.9910484398295247
0.9978530620888533
0.9903546981967412
0.9940730804249412
0.992732850490208
0.9956438396452025
0.9943035218845351
0.9972969504852264
0.9984640830317018
0.9950496951536771
0.9921397994950709
0.9931013202188413
0.9923226578735477
0.9977018843449023
0.9967785509855313
0.9934798028425083
0.9952961035036567
0.9993407550772119
0.9963028244034869
0.9928172311832548
0.9997560090338344
0.9918251851933215
0.9963570255969662
0.9917271691443362
0.9944326070986143
0.9950680183197148
0.9978469240256509
0.9958398165807489
0.9850723883298951
0.991304335034796
0.999933172922798
0.9997887289146861
0.9935856587246955
0.9966582719642664
0.992079792645662
0.9947218669222732
0.994331947155344
0.9942303931943676
0.9971815968757245
0.9969241031978666
0.9951870602668782
0.9930924194853848
0.9925033843858202
0.9993982352778897
0.9970664481546682
0.9900823357343962
0.9930836565517259
0.9938006689576722
0.9922796586388908
0.9877891869996607
0.9948743947189802
0.9719315068343922
0.9915947310314888
0.9944764916872083
0.9928099093392049
0.9981744890191856
0.9922929050321879
0.9999250443936754
0.9932716593132984
0.9935027217343012
0.995077538365005
0.9935377473124476
0.9843770120845806
0.9855529029813698
0.9940549300654379
0.9961628266659583
0.9934307967875666
0.9993739610584887
0.9918430747418838
0.9933764551940848
0.9936162076501373
0.9991683088749713
0.9525901105787618
0.986363848106589
0.992759096881007
0.9913241921630762
0.9951875619769105
0.9995125051961399
0.9941001828972085
0.9968688187591245
0.9942358671350936
0.9965905972207774
0.9925038006988526
0.9953105737444906
0.9921288525287955
0.9933257491702392
0.9991416352751769
0.9970456252276854
0.9915977279442801
0.9934974534427727
0.9919438045063939
0.988354600432849
0.9948918076467472
0.9967522344209545
0.9928447449258655
0.9952253079212054
0.993592375510429
0.9970255667050514
0.999645921308914
0.9866015045639646
0.9961181543168957
0.9970862389207216
0.9909738619700458
0.9988784381108284
0.9926893902333745
0.9945336150315217
0.9967680028535938
0.963859284078051
0.9980649944019265
0.9999692677252161
0.9932349323221348
0.9997387687239125
0.9926296025113603
0.9991335257835666
0.9950645728224427
0.9977769162829292
0.993477428749553
0.9816864276874305
0.9867939885409567
0.9962068672810224
0.992849983080847
0.9866235122039692
0.9931811818041729
0.9925148637519569
0.9933451096951729
0.9984836114069815
0.9986854676749707
0.9925047620832746
0.9982190791399644
0.9986706053132031
0.9933346653633367
0.9963285461723242
0.9968446800461442
0.9947518554676205
0.9940160476845613
0.9961993799686291
0.9922154787313158
0.9996623424115793
0.9985857902463714
0.9946862873617467
0.9930244932896638
0.9932388794405146
0.997806441524262
0.9963803678817427
0.9861995563478517
0.9920838467379354
0.9971888673077717
0.9994426662827919
0.9973084363265767
0.9966206063307064
0.9996764060535893
0.9958756765506837
0.9920335809078776
0.9951481273857307
0.9888829740958349
0.9917203901730911
0.9940801082702619
0.993692116730922
0.9937622427810452
0.984394585695438
0.9729323202251335
0.9930430458447747
0.9904373327060233
0.9964414381257721
0.9924512242770985
0.9893235666978221
0.9965312893162247
0.9932676601391311
0.9920620534562726
0.9966305479521325
0.9925758793527628
0.9908838112531315
0.9849321493825347
0.9934031390175067
0.9997015977891054
0.9912955476340897
0.9933163985979758
0.997982500509615
0.9970585123874384
0.9996403404161853
0.9987262238540123
0.999342411748113
0.9976020172960912
0.9959585842397153
0.9852124440865391
0.9946874349701887
0.9957639112792779
0.9918637504955213
0.9999466224225289
0.9933764081272486
0.9922759064708216
0.9915561544226033
0.9932858841950486
0.9983590242779306
0.9996419199797587
0.9999681076878228
0.9952960808655923
0.9879011418653466
0.9941938730453449
0.9980453033815864
0.9997726497940161
0.9933416472907242
0.9916554265957365
0.9933335605803503
0.9930924491801452
0.9924532550578992
0.9954556438787037
0.9928629359576837
0.9909512277968586
0.9920880609345962
0.9939428797736843
0.9971416558206694
0.9970141450207881
0.9941696448740975
0.9868124162871367
0.9968260417418855
0.9977132707856905
0.9958037189864322
0.9937062199919087
0.9943252371523393
0.9826253399766679
0.9928204296086158
0.9961259070905049
0.9798642802498825
0.9967245776320292
0.994452820597947
0.9990067329920491
0.9920765884615405
0.9969737013184888
0.9969236877057502
0.9958392419683183
0.9846261773418059
0.996943426311995
0.9929045101942766
0.9978602356530861
0.990902967908849
0.9965948233764969
0.999702073162278
0.9899257588105633
0.9962825570608825
0.9979294812869289
0.9923176057972547
0.9983388571426742
0.997249643923776
0.9951010695894336
0.9872481864081862
0.9999119536288531
0.997172920081075
0.9809097454643335
0.9925958021550273
0.9997121639084582
0.9966897113095445
0.9987695323516239
0.9931907969842707
0.9968315520425696
0.993277313552811
0.9900368164875616
0.987314750095344
0.9987474447335378
0.9975618143896624
0.9956691395082385
0.9977892912934939
0.9969627787815383
0.9951504946183425
0.9996902695501712
0.9979561715400809
0.9922456693740924
0.9921926371808882
0.9991144144969399
0.9989362586940934
0.9997531391252996
0.9723358544369495
0.9966378641890355
0.9874735987180143
0.9926336250017752
0.9963555068844436
0.9906360979130178
0.9919345484919444
0.9968828917529464
0.9989821033662561
0.9912642048949037
0.9921584341311265
0.999145729545863
0.9926206364539226
0.9928774777177701
0.9904768138382275
0.9945437232329007
0.99787123676488
0.9917335326000978
0.9957084091750577
0.9726238420393628
0.9984207293109573
0.9943024757356539
0.9929172163013451
0.992135546506849
0.9997441543046275
0.994283360763945
0.9931399118937074
0.9923096132433017
0.9967928799730901
0.9934290044270622
0.9926954480083042
0.9940001420652399
0.9902631782640617
0.9932994300150407
0.9977772188571044
0.9997174143216885
0.9994514727392485
0.9960549612452154
0.9930902170796343
0.9943344583208851
0.9998188668314448
0.9998097159099654
0.9933228556545892
0.9919416963258098
0.995268079705139
0.9923841552225936
0.9945408256793832
0.9919755558242098
0.9984596673477785
0.9938315211640465
0.9930891872482539
0.9943878967695214
0.9991120330022516
0.9945719593076277
0.9971949454385046
0.9929812292765321
0.9993212669005352
0.9952149161191276
0.9910510329919359
0.9925056872590906
0.9762296275890451
0.9962826816313979
0.9960288006157052
0.9772063273232277
0.8999469897376916
0.9929644099699318
0.9943969458213906
0.990615273178386
0.9971478958050174
0.9921422145068607
0.9998909194837222
0.9935106175567857
0.9916405473108373
0.9915524573440128
0.9994807728914169
0.9925050897676254
0.9924314376419195
0.9935682963243152
0.9956879500913918
0.9884630864302637
0.9974921312117692
0.9894099268580331
0.9938261636786803
0.9935216683574692
0.9982612327569497
0.9999773955392552
0.9932125391669021
0.991839676248781
0.9919099569202848
0.9917131876234404
0.9996388128124238
0.9982980560453757
0.9997656132341675
0.9968116130993532
0.9910475261359771
0.9947539044067172
0.9902674663306946
0.9956595925521161
0.9908285112666888
0.9921341846078653
0.9902723517773171
0.9929561946093435
0.9977527519398378
0.9923551539369317
0.9917201490248155
0.9924732588730116
0.9910032301767806
0.9951698804005407
0.9930160030999567
0.9951429246134124
0.9925832922895284
0.9999100872929438
0.9971151511530603
0.9903697857678282
0.9905126529822209
0.9927782975683678
0.9988633569703838
0.9934501765409741
0.9935478776569404
0.9995519242464129
0.9940136559156246
0.9967201153520926
0.9904815342602674
0.995841816710794
0.9997916125893164
0.992629420664456
0.9998893487529582
0.9921264993743452
0.9997986261011822
0.986220256714673
0.9923577629470429
0.9872691435412438
0.9965782762078148
0.9971179675231285
0.9749067711788872
0.9981851745377927
0.9998904092092511
0.9999447589332862
0.9934229200308271
0.9988764025731591
0.9988211018906191
0.9997600480640907
0.9909268187989563
0.952807752495312
0.9946800508199399
0.9930828820506282
0.9997263632038308
0.9991521680226855
0.9911361492359878
0.9975696879687187
0.9999680916803316
0.9921057244311232
0.9951263004087789
0.9919310900589385
0.9828162367873869
0.9988292472056268
0.9935924301416665
0.9973644763975487
CELL_DATA 4886
TENSORS stress float
113553.78015554909 408756.51942534855 0.0
408756.51942534855 -465778.3273210373 0.0
0.0 0.0 0.0

-2.947164802662596e6 -56696.16548187984 0.0
-56696.16548187984 1.6131503942128406e6 0.0
0.0 0.0 0.0

-2.98958686747922e6 3.657009578194475e6 0.0
3.657009578194475e6 2.082477721544039e6 0.0
0.0 0.0 0.0

-1.3921308044228968e6 4.59090919659958e6 0.0
4.59090919659958e6 388920.4647960908 0.0
0.0 0.0 0.0

-2.682886378106707e6 3.6311899720884743e6 0.0
3.6311899720884743e6 1.311276228448003e6 0.0
0.0 0.0 0.0

2.4455728805203903e6 82009.3898403076 0.0
82009.3898403076 -2.0559882913447672e6 0.0
0.0 0.0 0.0

912366.6208364959 4.708952716633735e6 0.0
4.708952716633735e6 1.7158691301132338e6 0.0
0.0 0.0 0.0

923298.6789028414 3.6642060156554505e6 0.0
3.6642060156554505e6 -1.9724394913877603e6 0.0
0.0 0.0 0.0

23029.352461956638 1.1705641889090566e6 0.0
1.1705641889090566e6 63088.24412306497 0.0
0.0 0.0 0.0

-207670.77378330386 4.893557623346974e6 0.0
4.893557623346974e6 -425566.4269871771 0.0
0.0 0.0 0.0

-1.495238864189575e6 3.1856181843651757e6 0.0
3.1856181843651757e6 388848.4751663861 0.0
0.0 0.0 0.0

-3.137897968262094e6 4.657102873945865e6 0.0
4.657102873945865e6 1.674588429043382e6 0.0
0.0 0.0 0.0

242646.3649976722 4.383050568829036e6 0.0
4.383050568829036e6 -1.2642268684848389e6 0.0
0.0 0.0 0.0

2.598264760749858e6 5.3578876597323315e6 0.0
5.3578876597323315e6 1.3790988530609303e6 0.0
0.0 0.0 0.0

-1.5826345398846155e6 3.2871060265943096e6 0.0
3.2871060265943096e6 352401.9415330988 0.0
0.0 0.0 0.0

1.3443984682568898e6 1.8051658759375405e6 0.0
1.8051658759375405e6 -2.0222676586669693e6 0.0
0.0 0.0 0.0

-520059.2299081645 4.1567482094180323e6 0.0
4.1567482094180323e6 -1.4550992861910611e6 0.0
0.0 0.0 0.0

-193761.39134450286 4.962728205411959e6 0.0
4.962728205411959e6 -1.7705976212880602e6 0.0
0.0 0.0 0.0

191880.70048488866 322648.70219579217 0.0
322648.70219579217 -151202.99062533956 0.0
0.0 0.0 0.0

-1.7455359917271857e6 4.090303306784282e6 0.0
4.090303306784282e6 321652.8598203107 0.0
0.0 0.0 0.0

-97394.67296836193 5.042475290135214e6 0.0
5.042475290135214e6 -1.7830716116241054e6 0.0
0.0 0.0 0.0

-3.0994641098714247e6 4.692877652487761e6 0.0
4.692877652487761e6 1.5063043724668776e6 0.0
0.0 0.0 0.0

579130.8277348869 1.5175994109059512e6 0.0
1.5175994109059512e6 -545663.2031181925 0.0
0.0 0.0 0.0

-1.6238852609149737e6 5.114632394970047e6 0.0
5.114632394970047e6 -26952.756306836032 0.0
0.0 0.0 0.0

-171161.43831491919 5.038889093550031e6 0.0
5.038889093550031e6 -1.6220268797939403e6 0.0
0.0 0.0 0.0

-1.8233807606470003e6 1.031532749552618e7 0.0
1.031532749552618e7 1.4752121279200036e6 0.0
0.0 0.0 0.0

-22068.804331392283 3.9838938630016e6 0.0
3.9838938630016e6 2.0666846635138271e6 0.0
0.0 0.0 0.0

-883961.856664784 2.57786936305045e6 0.0
2.57786936305045e6 525142.1790173934 0.0
0.0 0.0 0.0

1.3375588295367723e6 1.796807489467508e6 0.0
1.796807489467508e6 -2.075749404234354e6 0.0
0.0 0.0 0.0

192748.87172390838 314293.17802041245 0.0
314293.17802041245 -430272.19722805644 0.0
0.0 0.0 0.0

409313.67203165643 1.8720711320620142e6 0.0
1.8720711320620142e6 -978443.952886491 0.0
0.0 0.0 0.0

48540.363831042545 611596.1547960892 0.0
611596.1547960892 -638612.9744238239 0.0
0.0 0.0 0.0

-641918.4754852934 4.166509920817124e6 0.0
4.166509920817124e6 -595877.0275371915 0.0
0.0 0.0 0.0

-487086.83341426245 4.594500547888228e6 0.0
4.594500547888228e6 -457204.1670697013 0.0
0.0 0.0 0.0

-1.8117255599946151e6 3.5086044692152315e6 0.0
3.5086044692152315e6 641948.7446882196 0.0
0.0 0.0 0.0

435052.16931273014 1.3085569693616019e6 0.0
1.3085569693616019e6 -922573.5728260711 0.0
0.0 0.0 0.0

-1.081296152667734e6 2.0346733310549916e6 0.0
2.0346733310549916e6 129167.10978856822 0.0
0.0 0.0 0.0

-1.9010788396308504e6 3.511352050419444e6 0.0
3.511352050419444e6 658284.9401275767 0.0
0.0 0.0 0.0

-864372.5964359913 3.3044035561151505e6 0.0
3.3044035561151505e6 -1.34591220755299e6 0.0
0.0 0.0 0.0

-2.6636562654646034e6 3.538910243545013e6 0.0
3.538910243545013e6 1.06636169170993e6 0.0
0.0 0.0 0.0

373779.75533012534 4.1568181603792612e6 0.0
4.1568181603792612e6 -1.5288780213119148e6 0.0
0.0 0.0 0.0

-3.3916313823240567e6 3.9139622247627373e6 0.0
3.9139622247627373e6 2.156639398290504e6 0.0
0.0 0.0 0.0

-2.6331284288605666e6 3.491436148774612e6 0.0
3.491436148774612e6 1.054585392726561e6 0.0
0.0 0.0 0.0

19623.155741367438 1.2094567482367675e6 0.0
1.2094567482367675e6 260307.3812817061 0.0
0.0 0.0 0.0

15803.820825541683 5.044256086519349e6 0.0
5.044256086519349e6 -1.3835400789455378e6 0.0
0.0 0.0 0.0

-988833.3926378213 2.7004273366823443e6 0.0
2.7004273366823443e6 1.1699983393229258e6 0.0
0.0 0.0 0.0

-582538.2521211711 4.685469178709287e6 0.0
4.685469178709287e6 -561357.0105683908 0.0
0.0 0.0 0.0

-1.2875723281996776e6 1.898144199605325e6 0.0
1.898144199605325e6 -100662.62841020868 0.0
0.0 0.0 0.0

948694.4126946178 3.589012242932835e6 0.0
3.589012242932835e6 -2.0617646618573398e6 0.0
0.0 0.0 0.0

-179873.15513393618 5.21277683367224e6 0.0
5.21277683367224e6 -599577.2370037056 0.0
0.0 0.0 0.0

-2.779678649504451e6 3.7584932968271878e6 0.0
3.7584932968271878e6 1.417759376507651e6 0.0
0.0 0.0 0.0

-1.4868962558220243e6 -360556.9372325028 0.0
-360556.9372325028 1.642192620860239e6 0.0
0.0 0.0 0.0

902242.7347708629 3.6183980568755926e6 0.0
3.6183980568755926e6 -2.1356832637964385e6 0.0
0.0 0.0 0.0

-2.58185974199383e6 3.332518938798304e6 0.0
3.332518938798304e6 1.205378990253007e6 0.0
0.0 0.0 0.0

-81426.33201225285 5.146068800536091e6 0.0
5.146068800536091e6 -611039.0503120238 0.0
0.0 0.0 0.0

-1.3987839363115863e6 4.737527928210045e6 0.0
4.737527928210045e6 69735.27102936606 0.0
0.0 0.0 0.0

960723.1408134083 3.410184071906186e6 0.0
3.410184071906186e6 -2.0181758052936583e6 0.0
0.0 0.0 0.0

-2.8048728266592324e6 3.502429108305591e6 0.0
3.502429108305591e6 1.1113995737312094e6 0.0
0.0 0.0 0.0

-1.807744372606161e6 4.407486775541292e6 0.0
4.407486775541292e6 2.042064051940806e6 0.0
0.0 0.0 0.0

278608.3136278896 5.1318656471221745e6 0.0
5.1318656471221745e6 -1.8742685229258651e6 0.0
0.0 0.0 0.0

-561664.9256134353 3.288369125848721e6 0.0
3.288369125848721e6 -1.17816451175625e6 0.0
0.0 0.0 0.0

903167.715816351 6.495745001364377e6 0.0
6.495745001364377e6 -2.427061012401061e6 0.0
0.0 0.0 0.0

-760432.8480364525 4.053018686160531e6 0.0
4.053018686160531e6 978821.4777779835 0.0
0.0 0.0 0.0

112335.28119746807 640661.2134208572 0.0
640661.2134208572 -340852.74696558533 0.0
0.0 0.0 0.0

-129991.60114664861 1.3551228482779504e6 0.0
1.3551228482779504e6 -499977.9012990065 0.0
0.0 0.0 0.0

838723.5656581622 3.601886627751172e6 0.0
3.601886627751172e6 -2.0849656673568317e6 0.0
0.0 0.0 0.0

653590.3326832777 4.345544936566403e6 0.0
4.345544936566403e6 -1.3853732611125521e6 0.0
0.0 0.0 0.0

-2.508322660195128e6 3.2987290388920754e6 0.0
3.2987290388920754e6 1.1261998841355504e6 0.0
0.0 0.0 0.0

-1.1283027853123383e6 4.08479145888456e6 0.0
4.08479145888456e6 887151.0084783515 0.0
0.0 0.0 0.0

-606624.1820168742 3.787204899974721e6 0.0
3.787204899974721e6 2.1008777868963927e6 0.0
0.0 0.0 0.0

-162499.99285438686 1.6897799695125183e6 0.0
1.6897799695125183e6 -418409.41802345077 0.0
0.0 0.0 0.0

-307545.53076435707 5.32338311819002e6 0.0
5.32338311819002e6 -1.8693866305569417e6 0.0
0.0 0.0 0.0

-477852.02668601036 3.63645709612761e6 0.0
3.63645709612761e6 -1.4700060123201353e6 0.0
0.0 0.0 0.0

-3.4802502373999674e6 5.536132535202459e6 0.0
5.536132535202459e6 4.72902213354199e6 0.0
0.0 0.0 0.0

-1.5345135156781678e6 4.1465326283564446e6 0.0
4.1465326283564446e6 729295.5403458616 0.0
0.0 0.0 0.0

-1.1089550731878127e6 2.7213139317550575e6 0.0
2.7213139317550575e6 770555.9028441682 0.0
0.0 0.0 0.0

-4.352911789943282e6 715485.8639431234 0.0
715485.8639431234 4.358682271525204e6 0.0
0.0 0.0 0.0

-297743.6534588706 4.093104934711169e6 0.0
4.093104934711169e6 -1.3584745662934852e6 0.0
0.0 0.0 0.0

-552482.8497159734 4.886932397851682e6 0.0
4.886932397851682e6 -1.145244283336265e6 0.0
0.0 0.0 0.0

-295903.0747451159 4.269835109851385e6 0.0
4.269835109851385e6 -1.0788417715959374e6 0.0
0.0 0.0 0.0

-465105.43183532875 7.561739801019086e6 0.0
7.561739801019086e6 -151419.95409613452 0.0
0.0 0.0 0.0

-246801.29102398973 391718.86433650675 0.0
391718.86433650675 435604.58255507244 0.0
0.0 0.0 0.0

-505294.24316607264 5.044231669606059e6 0.0
5.044231669606059e6 -969537.1652257727 0.0
0.0 0.0 0.0

-3.408678964362044e6 5.242208108731865e6 0.0
5.242208108731865e6 1.6336011616476884e6 0.0
0.0 0.0 0.0

-1.336998748575153e6 4.576262816949353e6 0.0
4.576262816949353e6 373751.5262525628 0.0
0.0 0.0 0.0

752259.1704895579 3.1288753889035373e6 0.0
3.1288753889035373e6 -1.831039164681739e6 0.0
0.0 0.0 0.0

-229111.0749286451 392387.0830293253 0.0
392387.0830293253 -930846.6691273578 0.0
0.0 0.0 0.0

-469650.58216483414 4.371362467526858e6 0.0
4.371362467526858e6 -418586.03120432486 0.0
0.0 0.0 0.0

-4.537525798722002e6 1.1297384841630982e7 0.0
1.1297384841630982e7 -62516.42835427099 0.0
0.0 0.0 0.0

-2.74572485345525e6 -92110.27444060134 0.0
-92110.27444060134 3.493152159231413e6 0.0
0.0 0.0 0.0

-508091.6995507661 5.046497703663521e6 0.0
5.046497703663521e6 -806559.9661523205 0.0
0.0 0.0 0.0

-556213.2823499936 4.836605791353933e6 0.0
4.836605791353933e6 -1.2203520105678975e6 0.0
0.0 0.0 0.0

-1.15262044020669e6 1.5617880156887765e6 0.0
1.5617880156887765e6 -185076.39012880964 0.0
0.0 0.0 0.0

544276.8578496261 489983.5206641343 0.0
489983.5206641343 -1.6310474513267258e6 0.0
0.0 0.0 0.0

-401138.51095105987 5.3854732291855505e6 0.0
5.3854732291855505e6 -656295.4605610913 0.0
0.0 0.0 0.0

-464928.63551927696 4.1535884675939353e6 0.0
4.1535884675939353e6 -1.6091798646805298e6 0.0
0.0 0.0 0.0

927996.97908928 3.648283639289011e6 0.0
3.648283639289011e6 -2.1420325762363235e6 0.0
0.0 0.0 0.0

-1.5843192616564531e6 4.100286630963726e6 0.0
4.100286630963726e6 510217.7451845439 0.0
0.0 0.0 0.0

506801.39429070125 5.152461407840708e6 0.0
5.152461407840708e6 -2.0576263325466106e6 0.0
0.0 0.0 0.0

942551.8739644631 3.399346593476567e6 0.0
3.399346593476567e6 -1.7041571731214845e6 0.0
0.0 0.0 0.0

-750870.2125332644 4.833980834944446e6 0.0
4.833980834944446e6 -189132.25501020104 0.0
0.0 0.0 0.0

-1.663896380324034e6 2.8172847989486908e6 0.0
2.8172847989486908e6 717757.8313681029 0.0
0.0 0.0 0.0

373885.1472829434 1.6147599690184973e6 0.0
1.6147599690184973e6 -257317.67829862176 0.0
0.0 0.0 0.0

-2.7297885133333895e6 3.4446793483306444e6 0.0
3.4446793483306444e6 1.2279052883581675e6 0.0
0.0 0.0 0.0

-1.1946377699062615e6 1.8611973796486196e6 0.0
1.8611973796486196e6 461521.48632974917 0.0
0.0 0.0 0.0

-988277.604791668 3.4439492829905646e6 0.0
3.4439492829905646e6 -316983.0866145207 0.0
0.0 0.0 0.0

-36768.888747416204 345703.6989974631 0.0
345703.6989974631 267883.03522497934 0.0
0.0 0.0 0.0

-412816.92207259795 4.0834239155492424e6 0.0
4.0834239155492424e6 -1.0904533625250552e6 0.0
0.0 0.0 0.0

-2.933013113776605e6 4.653097303043122e6 0.0
4.653097303043122e6 1.5542599310019277e6 0.0
0.0 0.0 0.0

713030.3897378362 1.426165920372578e6 0.0
1.426165920372578e6 -768067.2686915714 0.0
0.0 0.0 0.0

565170.4096620639 4.330514268479761e6 0.0
4.330514268479761e6 -1.701520272983466e6 0.0
0.0 0.0 0.0

-1.559100785044159e6 2.3730936330099744e6 0.0
2.3730936330099744e6 370371.92858402955 0.0
0.0 0.0 0.0

-416991.23441018816 2.828273042094931e6 0.0
2.828273042094931e6 1.2308652532078063e6 0.0
0.0 0.0 0.0

782063.6026961949 4.52135832278841e6 0.0
4.52135832278841e6 1.9232433146705194e6 0.0
0.0 0.0 0.0

739944.6043010062 3.1939872113435147e6 0.0
3.1939872113435147e6 -1.6285289736355303e6 0.0
0.0 0.0 0.0

-713496.8878213128 3.2290104520397824e6 0.0
3.2290104520397824e6 -1.462700668610362e6 0.0
0.0 0.0 0.0

746407.2455777405 3.2169293789381036e6 0.0
3.2169293789381036e6 -1.7575164859671027e6 0.0
0.0 0.0 0.0

808042.633357902 3.1134881522108116e6 0.0
3.1134881522108116e6 -1.895313739563514e6 0.0
0.0 0.0 0.0

1.7792645315319742e6 4.44710914417639e6 0.0
4.44710914417639e6 1.4066076880096423e6 0.0
0.0 0.0 0.0

-3.9717399554821933e6 2.881608748549249e6 0.0
2.881608748549249e6 1.556880378707905e6 0.0
0.0 0.0 0.0

-714956.0386284917 3.754464694440227e6 0.0
3.754464694440227e6 -1.6199721635477892e6 0.0
0.0 0.0 0.0

-1.5903500682241837e6 5.1255949770795945e6 0.0
5.1255949770795945e6 -156900.73356189037 0.0
0.0 0.0 0.0

926047.3677708665 3.2741848732564524e6 0.0
3.2741848732564524e6 -2.0051391352469695e6 0.0
0.0 0.0 0.0

-1.5097521924979456e6 4.748646736517078e6 0.0
4.748646736517078e6 91687.53444912308 0.0
0.0 0.0 0.0

-1.5144988032868619e6 6.853258632801439e6 0.0
6.853258632801439e6 736040.7422566473 0.0
0.0 0.0 0.0

-390410.8880494491 854876.8460254613 0.0
854876.8460254613 966086.094860609 0.0
0.0 0.0 0.0

-5.260852416512219e6 9.896037583439372e6 0.0
9.896037583439372e6 1.1678164068871439e6 0.0
0.0 0.0 0.0

-440086.13339044736 4.662678745224033e6 0.0
4.662678745224033e6 -508220.11199031165 0.0
0.0 0.0 0.0

923775.5393963518 3.7253915009728787e6 0.0
3.7253915009728787e6 -2.0116616718517737e6 0.0
0.0 0.0 0.0

1.3682285661105742e6 5.531644567463723e6 0.0
5.531644567463723e6 -243411.86154368037 0.0
0.0 0.0 0.0

-699428.3690971932 4.800045972817779e6 0.0
4.800045972817779e6 -165344.55444721365 0.0
0.0 0.0 0.0

840677.986880428 4.0295551693273718e6 0.0
4.0295551693273718e6 -2.1088921538984044e6 0.0
0.0 0.0 0.0

-1.4532604444100072e6 4.198179157774699e6 0.0
4.198179157774699e6 490415.6295470351 0.0
0.0 0.0 0.0

-553225.268913572 5.00302477562714e6 0.0
5.00302477562714e6 -864878.1866799676 0.0
0.0 0.0 0.0

-918292.0449259484 4.067662324616802e6 0.0
4.067662324616802e6 413711.5556310798 0.0
0.0 0.0 0.0

-564518.3635569175 4.928464918616468e6 0.0
4.928464918616468e6 -1.0767741561822547e6 0.0
0.0 0.0 0.0

-682625.8611500533 2.76312361612802e6 0.0
2.76312361612802e6 1.24073816071474e6 0.0
0.0 0.0 0.0

505093.57485839876 2.8435315312651354e6 0.0
2.8435315312651354e6 -1.6283039632530538e6 0.0
0.0 0.0 0.0

-1.2986717077269836e6 4.768247890062123e6 0.0
4.768247890062123e6 176825.93314658967 0.0
0.0 0.0 0.0

1.370434133134325e6 553758.3523798119 0.0
553758.3523798119 -2.16643926176199e6 0.0
0.0 0.0 0.0

-747654.7999174878 2.7596480566731263e6 0.0
2.7596480566731263e6 456951.29628185875 0.0
0.0 0.0 0.0

782552.3872576597 3.1993857102382914e6 0.0
3.1993857102382914e6 -1.7759957670566961e6 0.0
0.0 0.0 0.0

-9548.536792254657 -444148.42842655274 0.0
-444148.42842655274 598858.0888372876 0.0
0.0 0.0 0.0

-372370.58847917715 4.471022348920315e6 0.0
4.471022348920315e6 -1.2745452806430142e6 0.0
0.0 0.0 0.0

1.995633680390019e6 -159159.74337824056 0.0
-159159.74337824056 -2.2486418284205114e6 0.0
0.0 0.0 0.0

-46893.19608072698 5.170191296697746e6 0.0
5.170191296697746e6 -622515.2747721502 0.0
0.0 0.0 0.0

-2.5415278883587453e6 3.588462787831209e6 0.0
3.588462787831209e6 836045.9613383076 0.0
0.0 0.0 0.0

-160242.95317468845 -191578.7751425425 0.0
-191578.7751425425 259176.49142344837 0.0
0.0 0.0 0.0

-561223.0077621631 4.628395706825774e6 0.0
4.628395706825774e6 -387164.43131948134 0.0
0.0 0.0 0.0

-338157.7755937852 5.451416682714641e6 0.0
5.451416682714641e6 -542527.3789371767 0.0
0.0 0.0 0.0

-2.4352654626824404e6 3.2204959961237055e6 0.0
3.2204959961237055e6 1.1013137282217303e6 0.0
0.0 0.0 0.0

-2.006349137341817e6 4.923084226826762e6 0.0
4.923084226826762e6 969921.0622084561 0.0
0.0 0.0 0.0

-2.431735432626917e6 3.211969240609272e6 0.0
3.211969240609272e6 1.1224167669852972e6 0.0
0.0 0.0 0.0

-475422.84267482534 2.7306935998842483e6 0.0
2.7306935998842483e6 -1.545193594363821e6 0.0
0.0 0.0 0.0

-266660.69393459155 7.406668103996787e6 0.0
7.406668103996787e6 -618785.0935460285 0.0
0.0 0.0 0.0

-522577.3279600403 4.805005504938408e6 0.0
4.805005504938408e6 -1.2539484393588472e6 0.0
0.0 0.0 0.0

-794363.2298414073 3.687486644506741e6 0.0
3.687486644506741e6 530987.2341558298 0.0
0.0 0.0 0.0

-1.7057888167802035e6 4.290462102875755e6 0.0
4.290462102875755e6 1.5551412714674335e6 0.0
0.0 0.0 0.0

40172.14533895592 5.259889296217641e6 0.0
5.259889296217641e6 -1.8042926254708758e6 0.0
0.0 0.0 0.0

-733722.7973091558 3.377611940759304e6 0.0
3.377611940759304e6 -334970.32291868783 0.0
0.0 0.0 0.0

-3.039906069536984e6 3.5798168542507053e6 0.0
3.5798168542507053e6 1.1364150773998832e6 0.0
0.0 0.0 0.0

-1.3557071538249475e6 3.28837028138571e6 0.0
3.28837028138571e6 744095.8477302217 0.0
0.0 0.0 0.0

-3.2389422455940633e6 5.527114791341842e6 0.0
5.527114791341842e6 1.7897286104899934e6 0.0
0.0 0.0 0.0

-389917.4165140587 4.4912860424785875e6 0.0
4.4912860424785875e6 -1.3655866913014418e6 0.0
0.0 0.0 0.0

-2.944746464487053e6 6.515299936228287e6 0.0
6.515299936228287e6 -801290.1681432192 0.0
0.0 0.0 0.0

943862.156746534 3.824781963610624e6 0.0
3.824781963610624e6 -1.8808532177687485e6 0.0
0.0 0.0 0.0

-1.6059685395727549e6 7.610640283705037e6 0.0
7.610640283705037e6 1.1031400280652815e6 0.0
0.0 0.0 0.0

-2.338581760087781e6 3.006077854200309e6 0.0
3.006077854200309e6 -44860.392476079636 0.0
0.0 0.0 0.0

-365138.6176499191 4.790475474892474e6 0.0
4.790475474892474e6 -435773.5058979771 0.0
0.0 0.0 0.0

-2.66532312235406e6 2.586682726468843e6 0.0
2.586682726468843e6 -403216.69891183585 0.0
0.0 0.0 0.0

952179.0634747094 3.72596699879205e6 0.0
3.72596699879205e6 -2.1316239165510694e6 0.0
0.0 0.0 0.0

-1.26214249984706e6 3.30076797490409e6 0.0
3.30076797490409e6 1.0991665766118874e6 0.0
0.0 0.0 0.0

575358.8387315094 1.5749416379432466e6 0.0
1.5749416379432466e6 -1.1256838251814027e6 0.0
0.0 0.0 0.0

803798.3820546913 3.152915132111422e6 0.0
3.152915132111422e6 -1.8361908967472082e6 0.0
0.0 0.0 0.0

-549461.8497693337 4.90804386329343e6 0.0
4.90804386329343e6 -901037.3035519671 0.0
0.0 0.0 0.0

-4.661438232416546e6 2.7659716002968377e6 0.0
2.7659716002968377e6 1.9278302108818605e6 0.0
0.0 0.0 0.0

-3.6441670466341684e6 -661470.7118101658 0.0
-661470.7118101658 3.3874249727533935e6 0.0
0.0 0.0 0.0

-2.6935078136092173e6 5.268637578733478e6 0.0
5.268637578733478e6 -752330.282083894 0.0
0.0 0.0 0.0

874228.0224622883 3.107480888845027e6 0.0
3.107480888845027e6 1.2341610098853584e6 0.0
0.0 0.0 0.0

-95141.30647257192 2.483443936187059e6 0.0
2.483443936187059e6 -1.266432347191737e6 0.0
0.0 0.0 0.0

-538924.8348691002 4.857051352822759e6 0.0
4.857051352822759e6 -1.1068470885243693e6 0.0
0.0 0.0 0.0

-727815.0076882183 3.753610572066483e6 0.0
3.753610572066483e6 955666.353605379 0.0
0.0 0.0 0.0

-663156.2716018187 4.570025312322465e6 0.0
4.570025312322465e6 -248686.6731236319 0.0
0.0 0.0 0.0

-2.711031891038215e6 3.6775514745590175e6 0.0
3.6775514745590175e6 1.3973797847836171e6 0.0
0.0 0.0 0.0

-143987.15821611928 5.161553241567079e6 0.0
5.161553241567079e6 -582470.2253830436 0.0
0.0 0.0 0.0

-3.2087537943932908e6 5.306701869326291e6 0.0
5.306701869326291e6 1.7222729789165566e6 0.0
0.0 0.0 0.0

587222.3467490491 1.4994877652787797e6 0.0
1.4994877652787797e6 -806666.3653359928 0.0
0.0 0.0 0.0

1.3449303655558848e6 6.893942110164356e6 0.0
6.893942110164356e6 -2.509327970564766e6 0.0
0.0 0.0 0.0

-1.8293305933489923e6 4.7674620575929135e6 0.0
4.7674620575929135e6 298324.12754465814 0.0
0.0 0.0 0.0

-51638.37517626282 5.249112258188644e6 0.0
5.249112258188644e6 -541004.5745571061 0.0
0.0 0.0 0.0

-1.5510185960657287e6 4.850432535730926e6 0.0
4.850432535730926e6 6375.3642271384015 0.0
0.0 0.0 0.0

-5.098622233785574e6 2.0460062065030737e6 0.0
2.0460062065030737e6 4.6708361969404435e6 0.0
0.0 0.0 0.0

-1.6960570931817805e6 4.034109065674334e6 0.0
4.034109065674334e6 604162.5781785977 0.0
0.0 0.0 0.0

676180.914736778 4.481587027952896e6 0.0
4.481587027952896e6 -1.5843496414255234e6 0.0
0.0 0.0 0.0

-1.6191097380320644e6 3.5035011888009175e6 0.0
3.5035011888009175e6 506182.41654036613 0.0
0.0 0.0 0.0

-1.101833392382996e6 4.836447639148454e6 0.0
4.836447639148454e6 -102800.47517515047 0.0
0.0 0.0 0.0

-172958.66697529756 256629.73868482062 0.0
256629.73868482062 -1.8967740565074908e6 0.0
0.0 0.0 0.0

-1.3953147179038883e6 4.698484165060336e6 0.0
4.698484165060336e6 184762.62951602763 0.0
0.0 0.0 0.0

-1.7148869341276025e6 -30654.844360516483 0.0
-30654.844360516483 3.4636406625633016e6 0.0
0.0 0.0 0.0

-1.4417311313633546e6 2.301425305633719e6 0.0
2.301425305633719e6 488166.7660156009 0.0
0.0 0.0 0.0

-2.9869264371046377e6 3.532635884435986e6 0.0
3.532635884435986e6 2.080104689588754e6 0.0
0.0 0.0 0.0

868070.8612610197 3.8910673965991093e6 0.0
3.8910673965991093e6 1.5238330415528337e6 0.0
0.0 0.0 0.0

-253564.6741617021 4.913293318170261e6 0.0
4.913293318170261e6 -1.868009855970467e6 0.0
0.0 0.0 0.0

906640.1018988107 3.784594055712298e6 0.0
3.784594055712298e6 -1.794325778237035e6 0.0
0.0 0.0 0.0

91981.10988239467 4.911435540995109e6 0.0
4.911435540995109e6 -914481.817118854 0.0
0.0 0.0 0.0

-2.3963671639197576e6 1.0840786611450242e6 0.0
1.0840786611450242e6 3.0378039046784085e6 0.0
0.0 0.0 0.0

-2.619545364238892e6 3.4287190324593056e6 0.0
3.4287190324593056e6 1.2931145129335334e6 0.0
0.0 0.0 0.0

-1.7439497905493586e6 3.3280593414594117e6 0.0
3.3280593414594117e6 482109.0475241584 0.0
0.0 0.0 0.0

-1.3880696593757824e6 3.626954212470545e6 0.0
3.626954212470545e6 21728.249324520177 0.0
0.0 0.0 0.0

-536318.3457309558 4.668226864897759e6 0.0
4.668226864897759e6 495783.2826437361 0.0
0.0 0.0 0.0

203114.8715292776 792281.7437111874 0.0
792281.7437111874 -1.0958267559345167e6 0.0
0.0 0.0 0.0

987889.52975883 3.8851667775279316e6 0.0
3.8851667775279316e6 -1.7015806679519094e6 0.0
0.0 0.0 0.0

-86082.49260588014 5.145019444099979e6 0.0
5.145019444099979e6 -556253.3452433866 0.0
0.0 0.0 0.0

-2.9204706286459784e6 3.442646744164635e6 0.0
3.442646744164635e6 805769.899279517 0.0
0.0 0.0 0.0

-1.0425782670733042e7 -1.592401645949018e6 0.0
-1.592401645949018e6 9.810018755211238e6 0.0
0.0 0.0 0.0

667248.0652820109 2.850520753833639e6 0.0
2.850520753833639e6 -1.835642911055808e6 0.0
0.0 0.0 0.0

-285396.0975852457 4.598954006730732e6 0.0
4.598954006730732e6 -562773.2105613751 0.0
0.0 0.0 0.0

-436470.5607252196 2.736734997156871e6 0.0
2.736734997156871e6 -1.5410715232029336e6 0.0
0.0 0.0 0.0

-423174.1928429024 4.698869560681351e6 0.0
4.698869560681351e6 -1.3175044283700841e6 0.0
0.0 0.0 0.0

118377.08070007007 174942.1065959818 0.0
174942.1065959818 -365935.7656798144 0.0
0.0 0.0 0.0

-304296.34197501774 4.389175688642396e6 0.0
4.389175688642396e6 -1.157275857902379e6 0.0
0.0 0.0 0.0

-1.0199294919453375e6 2.5405863173020347e6 0.0
2.5405863173020347e6 -1.1435643529643659e6 0.0
0.0 0.0 0.0

-273432.8143078416 4.47076136197164e6 0.0
4.47076136197164e6 -1.255789150824938e6 0.0
0.0 0.0 0.0

-544802.9576363498 5.0370070894182315e6 0.0
5.0370070894182315e6 -789262.614043925 0.0
0.0 0.0 0.0

-274024.91623354075 3.7201391090508597e6 0.0
3.7201391090508597e6 1.906002103311061e6 0.0
0.0 0.0 0.0

-1.7090864593266929e6 1.1978937006453958e6 0.0
1.1978937006453958e6 3.4678905670190887e6 0.0
0.0 0.0 0.0

-2.007098163719839e6 4.4948495914565e6 0.0
4.4948495914565e6 1.193526703406528e6 0.0
0.0 0.0 0.0

-37254.171248098166 5.067426061406434e6 0.0
5.067426061406434e6 -476943.839966992 0.0
0.0 0.0 0.0

-1.9615598423635224e6 3.4631791148026367e6 0.0
3.4631791148026367e6 1.231300856117854e6 0.0
0.0 0.0 0.0

463301.5385362078 3.749851912158078e6 0.0
3.749851912158078e6 1.9465144764355698e6 0.0
0.0 0.0 0.0

-1.2370078983567723e6 4.750327640815374e6 0.0
4.750327640815374e6 237893.27922897082 0.0
0.0 0.0 0.0

-456259.9073276174 5.095362460273398e6 0.0
5.095362460273398e6 -903601.5309961435 0.0
0.0 0.0 0.0

-2.787062921672206e6 4.224018605374941e6 0.0
4.224018605374941e6 1.4505071883623365e6 0.0
0.0 0.0 0.0

-1.6056693414416064e6 3.4960324037505905e6 0.0
3.4960324037505905e6 559915.9390236714 0.0
0.0 0.0 0.0

-4.716269905154277e6 -4.516099574366996e6 0.0
-4.516099574366996e6 1.0513250359564986e7 0.0
0.0 0.0 0.0

-632092.3265037858 4.759217458727979e6 0.0
4.759217458727979e6 -694108.3207312662 0.0
0.0 0.0 0.0

-2.752312109167544e6 3.485556564619798e6 0.0
3.485556564619798e6 1.0751584217379394e6 0.0
0.0 0.0 0.0

1.0536686903075732e6 186632.64062582655 0.0
186632.64062582655 -1.0564835984443277e6 0.0
0.0 0.0 0.0

-821249.2700986968 2.656471159848502e6 0.0
2.656471159848502e6 710970.8441916485 0.0
0.0 0.0 0.0

-1.4712528077988545e6 2.8546929585703085e6 0.0
2.8546929585703085e6 1.4509082524038944e6 0.0
0.0 0.0 0.0

850032.56388912 2.992471873749181e6 0.0
2.992471873749181e6 -1.9265904955428098e6 0.0
0.0 0.0 0.0

-3.3286521579868495e6 3.563845483642763e6 0.0
3.563845483642763e6 1.1885102366058773e6 0.0
0.0 0.0 0.0

-337315.813752976 4.320494317611915e6 0.0
4.320494317611915e6 -1.2094444965958116e6 0.0
0.0 0.0 0.0

-1.1639719984341022e6 3.212070864259105e6 0.0
3.212070864259105e6 1.0553509345145186e6 0.0
0.0 0.0 0.0

417957.555088806 2.9059807368215243e6 0.0
2.9059807368215243e6 -1.4329597177575242e6 0.0
0.0 0.0 0.0

-2.6898045279463707e6 3.434018114098613e6 0.0
3.434018114098613e6 844246.2202574561 0.0
0.0 0.0 0.0

-398092.85145112185 2.738491124784222e6 0.0
2.738491124784222e6 -1.5182352840646184e6 0.0
0.0 0.0 0.0

382852.98431736283 1.6121884792438585e6 0.0
1.6121884792438585e6 -980545.9678585716 0.0
0.0 0.0 0.0

-1.3356616514194217e6 1.9369351989497894e6 0.0
1.9369351989497894e6 502800.689384191 0.0
0.0 0.0 0.0

-2.8043709081088845e6 2.910145032376698e6 0.0
2.910145032376698e6 236160.48989720258 0.0
0.0 0.0 0.0

-59263.99421800826 5.200119346171627e6 0.0
5.200119346171627e6 -580309.3325216813 0.0
0.0 0.0 0.0

-3.5882830306143183e6 3.049855359960539e6 0.0
3.049855359960539e6 1.3631604948649262e6 0.0
0.0 0.0 0.0

76342.01846119575 1.7068648273680955e6 0.0
1.7068648273680955e6 375516.7991609496 0.0
0.0 0.0 0.0

71876.27479757991 2.7380657493375656e6 0.0
2.7380657493375656e6 -1.276489334841041e6 0.0
0.0 0.0 0.0

3.7777510943942945e6 7.635297510793171e6 0.0
7.635297510793171e6 -1.3718034475430767e6 0.0
0.0 0.0 0.0

-2.706978560186176e6 3.503507318645346e6 0.0
3.503507318645346e6 1.318224334689638e6 0.0
0.0 0.0 0.0

-1.787164230052425e6 4.421878983157005e6 0.0
4.421878983157005e6 270973.0252047278 0.0
0.0 0.0 0.0

-2.191964853129969e6 3.4979665066450583e6 0.0
3.4979665066450583e6 806767.7092408965 0.0
0.0 0.0 0.0

-2.9998631302585853e6 4.981053148523432e6 0.0
4.981053148523432e6 6.420366063736554e6 0.0
0.0 0.0 0.0

895975.0478717888 3.2880920646145577e6 0.0
3.2880920646145577e6 -2.0263270189003372e6 0.0
0.0 0.0 0.0

-1.0100447970147097e6 2.0245036905040287e6 0.0
2.0245036905040287e6 78280.27084612427 0.0
0.0 0.0 0.0

-2.2772599769085366e6 6.716644302418436e6 0.0
6.716644302418436e6 670339.1518343618 0.0
0.0 0.0 0.0

166952.23745186965 5.595647535334405e6 0.0
5.595647535334405e6 -1.7590450199473053e6 0.0
0.0 0.0 0.0

-4.229532337893279e6 -1.0189725476572404e6 0.0
-1.0189725476572404e6 4.1584256296464996e6 0.0
0.0 0.0 0.0

-1.1677203947095475e6 4.765816606448718e6 0.0
4.765816606448718e6 -95770.21626153821 0.0
0.0 0.0 0.0

-175203.94633048863 3.425961813508914e6 0.0
3.425961813508914e6 -1.1163483242021073e6 0.0
0.0 0.0 0.0

-309927.11171072925 4.473913834863814e6 0.0
4.473913834863814e6 -1.3786486794854673e6 0.0
0.0 0.0 0.0

-643924.0232896497 4.46192198500833e6 0.0
4.46192198500833e6 1.578501755372845e6 0.0
0.0 0.0 0.0

-1.2424643731160187e6 7.20619183791176e6 0.0
7.20619183791176e6 590325.6302090201 0.0
0.0 0.0 0.0

-3.4046052512745364e6 -1.6536224075658722e6 0.0
-1.6536224075658722e6 3.0793160452442938e6 0.0
0.0 0.0 0.0

-470185.84938938153 1.1783160135118775e7 0.0
1.1783160135118775e7 1.1921198033753727e6 0.0
0.0 0.0 0.0

-1.9108135033198553e6 7.45827204993578e6 0.0
7.45827204993578e6 212217.77111233037 0.0
0.0 0.0 0.0

1.0084635211306224e6 2.692289664074496e6 0.0
2.692289664074496e6 -1.882147655976533e6 0.0
0.0 0.0 0.0

-2.5323976433513956e6 3.518511948025136e6 0.0
3.518511948025136e6 917587.720219879 0.0
0.0 0.0 0.0

459681.13239130634 4.623916852012704e6 0.0
4.623916852012704e6 985509.497962312 0.0
0.0 0.0 0.0

-3.8379575246096114e6 -990984.4443794056 0.0
-990984.4443794056 6.128985697141065e6 0.0
0.0 0.0 0.0

-699296.56544967 4.641783977769379e6 0.0
4.641783977769379e6 -625566.1369907309 0.0
0.0 0.0 0.0

-876701.9066567923 3.7419640470358934e6 0.0
3.7419640470358934e6 2.038684706410301e6 0.0
0.0 0.0 0.0

-517915.1419229593 4.927282478715647e6 0.0
4.927282478715647e6 -829117.399768586 0.0
0.0 0.0 0.0

965784.4661203324 3.478980038559322e6 0.0
3.478980038559322e6 -1.9870922022982691e6 0.0
0.0 0.0 0.0

-2.5957092912989436e6 3.7633294657179723e6 0.0
3.7633294657179723e6 1.4002845682774314e6 0.0
0.0 0.0 0.0

-514472.9098229744 2.9675640019013067e6 0.0
2.9675640019013067e6 -1.336860157089731e6 0.0
0.0 0.0 0.0

-2.0477118405504958e6 5.106979217284121e6 0.0
5.106979217284121e6 707676.6568828811 0.0
0.0 0.0 0.0

-3.704356044841407e6 -11513.893798198034 0.0
-11513.893798198034 6.756798932581028e6 0.0
0.0 0.0 0.0

-590015.5094522026 4.85395109353137e6 0.0
4.85395109353137e6 -1.145557164647049e6 0.0
0.0 0.0 0.0

359979.3632675522 5.281320525828118e6 0.0
5.281320525828118e6 -1.8832934663837205e6 0.0
0.0 0.0 0.0

-460214.1553841768 5.343215666430119e6 0.0
5.343215666430119e6 -447082.42258211656 0.0
0.0 0.0 0.0

-493048.5421539205 3.329320993302484e6 0.0
3.329320993302484e6 -1.1077768123131464e6 0.0
0.0 0.0 0.0

-1.0135210082064619e6 -462890.67953732086 0.0
-462890.67953732086 2.318881508697507e6 0.0
0.0 0.0 0.0

-3.189609638093855e6 5.807395524122326e6 0.0
5.807395524122326e6 5.133303637817863e6 0.0
0.0 0.0 0.0

188114.00270879164 4.9650211018701885e6 0.0
4.9650211018701885e6 -1.68060658174624e6 0.0
0.0 0.0 0.0

-1.6949643457085644e6 5.0067386324589895e6 0.0
5.0067386324589895e6 675402.1203155922 0.0
0.0 0.0 0.0

-1.3477003189325957e6 4.1859180650122543e6 0.0
4.1859180650122543e6 1.7224929831049526e6 0.0
0.0 0.0 0.0

573787.0856366829 4.83540880388108e6 0.0
4.83540880388108e6 -1.6993935334893356e6 0.0
0.0 0.0 0.0

659747.3111822864 3.917458076486481e6 0.0
3.917458076486481e6 1.6620875426757396e6 0.0
0.0 0.0 0.0

-1.7029198965540698e6 4.781556326880923e6 0.0
4.781556326880923e6 717324.0417538256 0.0
0.0 0.0 0.0

-90672.64972083065 64097.09247916228 0.0
64097.09247916228 23460.77163173808 0.0
0.0 0.0 0.0

-1.265527297843905e6 -439804.3280556631 0.0
-439804.3280556631 1.4801445922390148e6 0.0
0.0 0.0 0.0

852000.0193714827 3.11549299877057e6 0.0
3.11549299877057e6 -2.0270768505598973e6 0.0
0.0 0.0 0.0

-2.0146090517872688e6 3.4405549889659784e6 0.0
3.4405549889659784e6 762803.5543695241 0.0
0.0 0.0 0.0

-906204.0101379586 4.714127333022145e6 0.0
4.714127333022145e6 486789.9518117421 0.0
0.0 0.0 0.0

-783857.4352392319 4.7150053747842135e6 0.0
4.7150053747842135e6 -432987.72529082827 0.0
0.0 0.0 0.0

449453.6369532704 401572.86081000435 0.0
401572.86081000435 -448499.95338585426 0.0
0.0 0.0 0.0

-1.2973125006541475e6 3.5994098734028675e6 0.0
3.5994098734028675e6 314974.8055589991 0.0
0.0 0.0 0.0

-1.4196945205224631e6 -748385.6915644581 0.0
-748385.6915644581 1.6939559740390154e6 0.0
0.0 0.0 0.0

104051.59306587334 4.752203971646463e6 0.0
4.752203971646463e6 -477458.44754176115 0.0
0.0 0.0 0.0

-333370.9457617012 5.079206533817986e6 0.0
5.079206533817986e6 -1.6709910059655195e6 0.0
0.0 0.0 0.0

276548.83555931284 4.838154905974046e6 0.0
4.838154905974046e6 -1.3948555606858933e6 0.0
0.0 0.0 0.0

-801768.6630278131 2.502904128896997e6 0.0
2.502904128896997e6 705407.723620001 0.0
0.0 0.0 0.0

-1.6510100468328574e6 3.433842812519246e6 0.0
3.433842812519246e6 410538.22817209805 0.0
0.0 0.0 0.0

1.2323658630474405e6 398553.61213211017 0.0
398553.61213211017 -1.5033611128907534e6 0.0
0.0 0.0 0.0

-608809.4825300561 4.891840340039832e6 0.0
4.891840340039832e6 -1.0856394242003008e6 0.0
0.0 0.0 0.0

-2.0235383092407617e6 4.124199190827325e6 0.0
4.124199190827325e6 463673.9439225282 0.0
0.0 0.0 0.0

-1.1205961156900758e6 4.860778049943477e6 0.0
4.860778049943477e6 2.8124886951554464e6 0.0
0.0 0.0 0.0

-379475.08494213904 5.83047605940646e6 0.0
5.83047605940646e6 -515980.3779707732 0.0
0.0 0.0 0.0

-4.223441257041996e6 -4.981948272351144e6 0.0
-4.981948272351144e6 6.387122719089315e6 0.0
0.0 0.0 0.0

-1.8390856648022437e6 484187.2717772601 0.0
484187.2717772601 3.670544050411566e6 0.0
0.0 0.0 0.0

-794399.9408233726 3.224417460986466e6 0.0
3.224417460986466e6 256848.14170652296 0.0
0.0 0.0 0.0

-485047.436380077 3.0013052228651997e6 0.0
3.0013052228651997e6 -273121.9214883598 0.0
0.0 0.0 0.0

590520.6633952829 865743.2911754376 0.0
865743.2911754376 -661094.9674411428 0.0
0.0 0.0 0.0

-3.4138641730511608e6 2.6786704402730856e6 0.0
2.6786704402730856e6 2.0356924399389871e6 0.0
0.0 0.0 0.0

914182.0274829442 3.366325982966004e6 0.0
3.366325982966004e6 -1.8974375622790013e6 0.0
0.0 0.0 0.0

-867680.0720252369 2.8561910146480445e6 0.0
2.8561910146480445e6 -1.27627900806693e6 0.0
0.0 0.0 0.0

-273318.2145180743 4.868085827808988e6 0.0
4.868085827808988e6 -630329.2200617768 0.0
0.0 0.0 0.0

-1.0485434135158294e6 7.491052391560068e6 0.0
7.491052391560068e6 -318074.6377458566 0.0
0.0 0.0 0.0

-496819.8198784521 5.069381961548581e6 0.0
5.069381961548581e6 -738542.5979415103 0.0
0.0 0.0 0.0

-2.667366460588974e6 6.779627517221538e6 0.0
6.779627517221538e6 -245164.70728449174 0.0
0.0 0.0 0.0

-2.7520995250380435e6 3.918902697245035e6 0.0
3.918902697245035e6 1.3559336396599908e6 0.0
0.0 0.0 0.0

-347195.1639919745 1.3033268579755393e6 0.0
1.3033268579755393e6 -399702.6572761387 0.0
0.0 0.0 0.0

-4.151938337784046e6 3.043637435507864e6 0.0
3.043637435507864e6 1.3976754781162562e6 0.0
0.0 0.0 0.0

-1.8575890006545475e6 3.281485864778058e6 0.0
3.281485864778058e6 581376.9289737295 0.0
0.0 0.0 0.0

207489.28999702743 1.6292136899325224e6 0.0
1.6292136899325224e6 -809683.5473016284 0.0
0.0 0.0 0.0

-1.8080040806333534e6 3.2116192405159613e6 0.0
3.2116192405159613e6 681254.8369057982 0.0
0.0 0.0 0.0

311882.5804327717 889070.9817673501 0.0
889070.9817673501 -539230.3417381047 0.0
0.0 0.0 0.0

-879184.987556748 1.6228431709980376e6 0.0
1.6228431709980376e6 -383197.0691380658 0.0
0.0 0.0 0.0

-284815.9574599374 5.397063751895373e6 0.0
5.397063751895373e6 -1.962449937270921e6 0.0
0.0 0.0 0.0

-2.0501539368731985e6 6.308650939288991e6 0.0
6.308650939288991e6 535601.8698780172 0.0
0.0 0.0 0.0

-716947.2084539854 4.295787852864725e6 0.0
4.295787852864725e6 563138.499258159 0.0
0.0 0.0 0.0

-609204.6242102179 4.899386064155419e6 0.0
4.899386064155419e6 87627.50447153285 0.0
0.0 0.0 0.0

369522.8460566981 1.6917250131061536e6 0.0
1.6917250131061536e6 -991535.4955317188 0.0
0.0 0.0 0.0

-2.2811430721229934e6 3.694113946038735e6 0.0
3.694113946038735e6 884153.3460983697 0.0
0.0 0.0 0.0

-2.7616368623531894e6 4.356553065479563e6 0.0
4.356553065479563e6 1.3409679636617033e6 0.0
0.0 0.0 0.0

-504446.16677265835 5.435758652320417e6 0.0
5.435758652320417e6 -568526.8504140853 0.0
0.0 0.0 0.0

133771.90617222246 2.2695592067373954e6 0.0
2.2695592067373954e6 -912460.7609961055 0.0
0.0 0.0 0.0

-406297.91148568457 4.426867103664106e6 0.0
4.426867103664106e6 -1.3589116520183524e6 0.0
0.0 0.0 0.0

-2.7536617090152316e6 3.342305013162575e6 0.0
3.342305013162575e6 846881.9832962356 0.0
0.0 0.0 0.0

-2.7108472473527486e6 3.405862596995396e6 0.0
3.405862596995396e6 812909.3696209528 0.0
0.0 0.0 0.0

-462042.8065341681 4.157083798942453e6 0.0
4.157083798942453e6 -1.6053486785300856e6 0.0
0.0 0.0 0.0

-702939.6813039405 3.2568798669887506e6 0.0
3.2568798669887506e6 -1.1921802099377401e6 0.0
0.0 0.0 0.0

-334543.5949888885 4.671220076581353e6 0.0
4.671220076581353e6 -602549.961084417 0.0
0.0 0.0 0.0

418006.63010100124 5.3500266100226315e6 0.0
5.3500266100226315e6 -1.9942525716073648e6 0.0
0.0 0.0 0.0

-319102.4308454047 1.1171924834208272e6 0.0
1.1171924834208272e6 1.3032829781786783e6 0.0
0.0 0.0 0.0

-135513.24133271578 2.5043009676685752e6 0.0
2.5043009676685752e6 -1.091033495373372e6 0.0
0.0 0.0 0.0

-2.7173095067905467e6 8.0027451542739635e6 0.0
8.0027451542739635e6 636735.0104225118 0.0
0.0 0.0 0.0

-480771.81294288347 4.912479421846785e6 0.0
4.912479421846785e6 149774.50268074835 0.0
0.0 0.0 0.0

-1.2621973133924159e6 4.457904390993997e6 0.0
4.457904390993997e6 2.206176931125378e6 0.0
0.0 0.0 0.0

-739672.7716258906 2.844635568821261e6 0.0
2.844635568821261e6 1.6840712072663056e6 0.0
0.0 0.0 0.0

-419059.02532064053 3.999527559837016e6 0.0
3.999527559837016e6 -935630.2718876016 0.0
0.0 0.0 0.0

-2.0953257072817516e6 3.59818500271154e6 0.0
3.59818500271154e6 984918.157037021 0.0
0.0 0.0 0.0

-2.9122061610742696e6 5.412275587544116e6 0.0
5.412275587544116e6 -1.1052520645466286e6 0.0
0.0 0.0 0.0

-561531.7776900443 3.9605792179794074e6 0.0
3.9605792179794074e6 -985584.9705228027 0.0
0.0 0.0 0.0

-843033.7224269217 4.759767336489801e6 0.0
4.759767336489801e6 -270876.72767599917 0.0
0.0 0.0 0.0

853128.1885622336 3.045500843408594e6 0.0
3.045500843408594e6 -1.8619535262535089e6 0.0
0.0 0.0 0.0

-3.85053553938042e6 2.639793686071434e6 0.0
2.639793686071434e6 2.517623758663671e6 0.0
0.0 0.0 0.0

-4.282758575252391e6 2.4342682898037108e6 0.0
2.4342682898037108e6 1.7223590768279943e6 0.0
0.0 0.0 0.0

124941.69631792081 699463.9635609186 0.0
699463.9635609186 115571.05903557052 0.0
0.0 0.0 0.0

-1.4593094677449467e6 6.936199619027267e6 0.0
6.936199619027267e6 38722.7219639041 0.0
0.0 0.0 0.0

-1.1788966634471405e7 -3.66065774406022e6 0.0
-3.66065774406022e6 1.4640314834458388e7 0.0
0.0 0.0 0.0

-106939.41922411679 77751.114328223 0.0
77751.114328223 -76381.89219065708 0.0
0.0 0.0 0.0

-852867.5837943465 2.458382160858534e6 0.0
2.458382160858534e6 -1.0022299034432077e6 0.0
0.0 0.0 0.0

-522130.0814581915 4.893639960411095e6 0.0
4.893639960411095e6 -1.0461729996849754e6 0.0
0.0 0.0 0.0

-2.928690435963312e6 4.3298658885707455e6 0.0
4.3298658885707455e6 1.4651699896791223e6 0.0
0.0 0.0 0.0

-2.7091098483633054e6 2.5218728570065135e6 0.0
2.5218728570065135e6 1.2201637452393582e6 0.0
0.0 0.0 0.0

-1.2161275629063337e6 2.0078775433338396e6 0.0
2.0078775433338396e6 376942.7803416983 0.0
0.0 0.0 0.0

-2.6091455183432354e6 3.8122656809723703e6 0.0
3.8122656809723703e6 1.2791830132965269e6 0.0
0.0 0.0 0.0

-2.869318756770309e6 3.4665340645917086e6 0.0
3.4665340645917086e6 912864.8786345505 0.0
0.0 0.0 0.0

-2.8091911311980444e6 4.405282797037217e6 0.0
4.405282797037217e6 1.4481684604466222e6 0.0
0.0 0.0 0.0

84252.1363152063 2.729754271113232e6 0.0
2.729754271113232e6 -1.2809652390535944e6 0.0
0.0 0.0 0.0

-861978.2336818888 2.7996019626331376e6 0.0
2.7996019626331376e6 646549.503079591 0.0
0.0 0.0 0.0

-2.543128655567252e6 -1.6790829335504083e6 0.0
-1.6790829335504083e6 3.5540084559908127e6 0.0
0.0 0.0 0.0

-1.2447780639390303e6 7.040390774742717e6 0.0
7.040390774742717e6 7.8417651894681165e6 0.0
0.0 0.0 0.0

-5.690505484359369e6 -1.5008992748408983e6 0.0
-1.5008992748408983e6 3.3075764046941707e6 0.0
0.0 0.0 0.0

966833.1637862322 7.06222139888519e6 0.0
7.06222139888519e6 -3.0895155086931246e6 0.0
0.0 0.0 0.0

-226995.52121578518 4.969669434917635e6 0.0
4.969669434917635e6 -1.7641347697668888e6 0.0
0.0 0.0 0.0

134406.57396608964 1.1153901811379336e6 0.0
1.1153901811379336e6 -758774.8210180156 0.0
0.0 0.0 0.0

2.714169324654119e6 8.125487490249142e6 0.0
8.125487490249142e6 -1.1300085867606495e6 0.0
0.0 0.0 0.0

-233367.2135223348 2.0434230575237086e6 0.0
2.0434230575237086e6 136134.43665253097 0.0
0.0 0.0 0.0

-356078.8669610355 2.7372004975806708e6 0.0
2.7372004975806708e6 1.5682250708396304e6 0.0
0.0 0.0 0.0

-2.7502289918180034e6 3.7137720785288545e6 0.0
3.7137720785288545e6 1.3362352652596505e6 0.0
0.0 0.0 0.0

-1.8062884456081786e6 4.364746670566312e6 0.0
4.364746670566312e6 337987.9642084285 0.0
0.0 0.0 0.0

-1.3786931344701822e6 2.0498027931466238e6 0.0
2.0498027931466238e6 38594.459342253394 0.0
0.0 0.0 0.0

-2.0581906723025963e6 1.6009839380594867e6 0.0
1.6009839380594867e6 941685.8498035269 0.0
0.0 0.0 0.0

-514253.888849755 2.9620304837380713e6 0.0
2.9620304837380713e6 -1.3291799912604233e6 0.0
0.0 0.0 0.0

-618709.2778192782 4.642895787186379e6 0.0
4.642895787186379e6 -407066.079341064 0.0
0.0 0.0 0.0

-664830.0541132289 3.838429717613425e6 0.0
3.838429717613425e6 134802.38362661094 0.0
0.0 0.0 0.0

-7.339349040664283e6 -2.5082886357963774e6 0.0
-2.5082886357963774e6 1.4578377176602257e7 0.0
0.0 0.0 0.0

-2.574206895303628e6 3.3945744906941955e6 0.0
3.3945744906941955e6 1.2128524809251793e6 0.0
0.0 0.0 0.0

899683.449178132 3.146354571119722e6 0.0
3.146354571119722e6 -1.99427199331229e6 0.0
0.0 0.0 0.0

-813867.5091600355 4.899461374043219e6 0.0
4.899461374043219e6 1776.5735158963944 0.0
0.0 0.0 0.0

-1.2859498101589796e6 3.8201408301014416e6 0.0
3.8201408301014416e6 241366.52998613525 0.0
0.0 0.0 0.0

-402253.6544933244 6.099210611117992e6 0.0
6.099210611117992e6 -400828.38704204885 0.0
0.0 0.0 0.0

-1.5683610715361622e6 4.1817419221323235e6 0.0
4.1817419221323235e6 110232.44595467788 0.0
0.0 0.0 0.0

-3.336614057197923e6 3.3877519385650605e6 0.0
3.3877519385650605e6 1.2498219993566866e6 0.0
0.0 0.0 0.0

-526441.5984660238 1.5694398418959456e6 0.0
1.5694398418959456e6 -359054.52450882085 0.0
0.0 0.0 0.0

-2.2884463358492507e6 3.4146703324873373e6 0.0
3.4146703324873373e6 399543.116429048 0.0
0.0 0.0 0.0

-2.6461361107430356e6 3.500734466752238e6 0.0
3.500734466752238e6 1.0025824753333342e6 0.0
0.0 0.0 0.0

-791255.3056612074 3.078668810110667e6 0.0
3.078668810110667e6 278829.9154208742 0.0
0.0 0.0 0.0

-169171.71679060167 8.295417394385115e6 0.0
8.295417394385115e6 -776474.5041471141 0.0
0.0 0.0 0.0

-575897.1666093225 4.488253317306291e6 0.0
4.488253317306291e6 -721525.5915092016 0.0
0.0 0.0 0.0

-2.706211983512098e6 3.5318147285347804e6 0.0
3.5318147285347804e6 1.2637507689609416e6 0.0
0.0 0.0 0.0

-1.2097964020559615e6 1.8651050364690053e6 0.0
1.8651050364690053e6 -152322.87561207727 0.0
0.0 0.0 0.0

-499144.99302985973 4.625916900619821e6 0.0
4.625916900619821e6 -409565.2096361106 0.0
0.0 0.0 0.0

-1.5671109041491796e6 74073.15556497838 0.0
74073.15556497838 1.4911596351006802e6 0.0
0.0 0.0 0.0

-2.7001116512404075e6 2.248792836256833e6 0.0
2.248792836256833e6 2.7730852192414445e6 0.0
0.0 0.0 0.0

-547298.3368368186 4.867682586085364e6 0.0
4.867682586085364e6 -1.0124378469502939e6 0.0
0.0 0.0 0.0

-2.041322730481475e6 3.3625540673862654e6 0.0
3.3625540673862654e6 2.779624474783038e6 0.0
0.0 0.0 0.0

-496712.01376180793 4.68358599600792e6 0.0
4.68358599600792e6 -1.1022919164939595e6 0.0
0.0 0.0 0.0

-657945.0348068419 3.741849693436952e6 0.0
3.741849693436952e6 427555.2484321705 0.0
0.0 0.0 0.0

-3.857935059150144e6 69574.86350247245 0.0
69574.86350247245 3.8714203006794006e6 0.0
0.0 0.0 0.0

-729377.7126104744 4.655001505611401e6 0.0
4.655001505611401e6 -318120.74606990017 0.0
0.0 0.0 0.0

-181108.67398590333 2.01779868474415e6 0.0
2.01779868474415e6 -213587.09466599894 0.0
0.0 0.0 0.0

-263659.16126523423 4.928840066726878e6 0.0
4.928840066726878e6 -541366.245869864 0.0
0.0 0.0 0.0

-1.7980440505758284e6 7.881943640018635e6 0.0
7.881943640018635e6 107844.91950978106 0.0
0.0 0.0 0.0

-1.1406301206492286e7 181875.9452529028 0.0
181875.9452529028 7.865185032007699e6 0.0
0.0 0.0 0.0

-3.602670994495059e6 7.264690818853608e6 0.0
7.264690818853608e6 2.1898014206991736e6 0.0
0.0 0.0 0.0

-1.6914930533486942e6 4.825487086192862e6 0.0
4.825487086192862e6 29907.219826611923 0.0
0.0 0.0 0.0

-3.5487934481467595e6 5.991618175099346e6 0.0
5.991618175099346e6 1.8899170367667412e6 0.0
0.0 0.0 0.0

-118791.72067114856 923317.4226953961 0.0
923317.4226953961 -235110.19411148192 0.0
0.0 0.0 0.0

-513684.365781532 6.201205422796594e6 0.0
6.201205422796594e6 -570721.7100776444 0.0
0.0 0.0 0.0

-2.979116570754788e6 3.39149133860571e6 0.0
3.39149133860571e6 787358.5554993055 0.0
0.0 0.0 0.0

-999622.8254176304 4.761970069986373e6 0.0
4.761970069986373e6 -172592.16605838647 0.0
0.0 0.0 0.0

-388266.5083062017 4.751823892075661e6 0.0
4.751823892075661e6 -1.426802900884085e6 0.0
0.0 0.0 0.0

-1.9876290723346015e6 4.192601196038616e6 0.0
4.192601196038616e6 265358.76048583165 0.0
0.0 0.0 0.0

-2.4020325126309753e6 2.2850268354134727e6 0.0
2.2850268354134727e6 2.323042056577822e6 0.0
0.0 0.0 0.0

-3.4386300909257326e6 6.678472706359161e6 0.0
6.678472706359161e6 1.3952937335154037e6 0.0
0.0 0.0 0.0

-2.309028103807201e6 3.1914243062175093e6 0.0
3.1914243062175093e6 66725.5126702981 0.0
0.0 0.0 0.0

-434142.40103784984 5.798140538483905e6 0.0
5.798140538483905e6 -491718.91857715335 0.0
0.0 0.0 0.0

945393.0021270451 1.6364253917605171e6 0.0
1.6364253917605171e6 -2.068505973786929e6 0.0
0.0 0.0 0.0

-620660.8812189114 3.1611576505226283e6 0.0
3.1611576505226283e6 -1.4737050418846067e6 0.0
0.0 0.0 0.0

1.117985786159337e6 1.028423259143719e6 0.0
1.028423259143719e6 -2.132294864739307e6 0.0
0.0 0.0 0.0

-396363.15958493605 4.865915427791294e6 0.0
4.865915427791294e6 24631.642937729688 0.0
0.0 0.0 0.0

-334953.84100040636 5.395346984868282e6 0.0
5.395346984868282e6 -636300.9319427791 0.0
0.0 0.0 0.0

-1.6993116038678656e6 6.639040728109986e6 0.0
6.639040728109986e6 215409.16104357142 0.0
0.0 0.0 0.0

-934685.6744047062 2.3008192908236533e6 0.0
2.3008192908236533e6 998486.265842322 0.0
0.0 0.0 0.0

-1.179710309459202e6 2.1678289034251664e6 0.0
2.1678289034251664e6 219076.50922753586 0.0
0.0 0.0 0.0

-965739.6295138719 1.0934475315875805e6 0.0
1.0934475315875805e6 1.9130471189104654e6 0.0
0.0 0.0 0.0

-221729.89896075943 2.7110487876422424e6 0.0
2.7110487876422424e6 -1.1800829930736201e6 0.0
0.0 0.0 0.0

-104499.72753428522 5.324414413903828e6 0.0
5.324414413903828e6 -498205.9688830682 0.0
0.0 0.0 0.0

-2.2089880906872437e6 4.216325148748932e6 0.0
4.216325148748932e6 168114.01731850964 0.0
0.0 0.0 0.0

-553332.016052786 4.8177085486593e6 0.0
4.8177085486593e6 -1.1929773452037463e6 0.0
0.0 0.0 0.0

706371.1691217182 4.231505410704063e6 0.0
4.231505410704063e6 -2.0590740687001876e6 0.0
0.0 0.0 0.0

-59265.077533513366 1.941219694292401e6 0.0
1.941219694292401e6 202841.0093175846 0.0
0.0 0.0 0.0

-2.8815217971089054e6 2.723412676806004e6 0.0
2.723412676806004e6 -534220.3029844989 0.0
0.0 0.0 0.0

-1.3997832178631076e6 1.1277127038976101e7 0.0
1.1277127038976101e7 -2.821814436808714e6 0.0
0.0 0.0 0.0

-1.8321340166782765e6 4.492775346328837e6 0.0
4.492775346328837e6 227972.04782293155 0.0
0.0 0.0 0.0

-247421.36249370896 3.1755476732500284e6 0.0
3.1755476732500284e6 -1.3495662465784913e6 0.0
0.0 0.0 0.0

-2.0010735940269125e6 1.347541656459152e6 0.0
1.347541656459152e6 3.2195322612311235e6 0.0
0.0 0.0 0.0

-63935.57157662565 204204.15679145843 0.0
204204.15679145843 254806.7207860534 0.0
0.0 0.0 0.0

-555446.7401749734 4.584777972292316e6 0.0
4.584777972292316e6 -782613.1134628709 0.0
0.0 0.0 0.0

-2.7436570200074604e6 4.617701368818237e6 0.0
4.617701368818237e6 1.6023647360753552e6 0.0
0.0 0.0 0.0

-999870.0334582148 2.9143780399503503e6 0.0
2.9143780399503503e6 -118739.01390276672 0.0
0.0 0.0 0.0

-3.2070079973618807e6 280556.88780570624 0.0
280556.88780570624 6.177073544229158e6 0.0
0.0 0.0 0.0

-266621.1001676073 4.738469627312194e6 0.0
4.738469627312194e6 -1.724978567431541e6 0.0
0.0 0.0 0.0

-2.8532963590381024e6 4.334968244127972e6 0.0
4.334968244127972e6 1.6856846270410158e6 0.0
0.0 0.0 0.0

-323169.7128564705 4.776110941365758e6 0.0
4.776110941365758e6 -1.4139962274773272e6 0.0
0.0 0.0 0.0

514852.9983742924 2.329187776453207e6 0.0
2.329187776453207e6 757987.5827038987 0.0
0.0 0.0 0.0

-2.1323148520820113e6 242731.60499996308 0.0
242731.60499996308 3.9846013140150113e6 0.0
0.0 0.0 0.0

-484258.8974193972 5.050660411219229e6 0.0
5.050660411219229e6 -959379.3909568604 0.0
0.0 0.0 0.0

-549815.1962440811 4.650343706517297e6 0.0
4.650343706517297e6 -214213.16949731816 0.0
0.0 0.0 0.0

-1.617269259081738e6 5.406111530861369e6 0.0
5.406111530861369e6 683846.2238431182 0.0
0.0 0.0 0.0

443540.15896661754 5.261016490102763e6 0.0
5.261016490102763e6 -1.781952094079666e6 0.0
0.0 0.0 0.0

48295.340515165415 1.4355500801936695e6 0.0
1.4355500801936695e6 -1.3209410737500153e6 0.0
0.0 0.0 0.0

-271019.6279091151 3.3668540676285913e6 0.0
3.3668540676285913e6 -1.1075092893302643e6 0.0
0.0 0.0 0.0

-1.5860175285142288e6 5.625753126651474e6 0.0
5.625753126651474e6 -177423.95347499882 0.0
0.0 0.0 0.0

-2.3765165495002754e6 150283.59291842268 0.0
150283.59291842268 3.2368294917783425e6 0.0
0.0 0.0 0.0

-1.7386797721747295e6 5.970750241628628e6 0.0
5.970750241628628e6 133955.46277684532 0.0
0.0 0.0 0.0

-891835.1725482726 2.773704934123529e6 0.0
2.773704934123529e6 -174369.25045496353 0.0
0.0 0.0 0.0

565526.259694495 4.611594325337422e6 0.0
4.611594325337422e6 -1.7963398850818742e6 0.0
0.0 0.0 0.0

-1.5011277716854045e6 1.2826332017837772e6 0.0
1.2826332017837772e6 3.130065993651258e6 0.0
0.0 0.0 0.0

-81881.54727656403 5.174528818058304e6 0.0
5.174528818058304e6 -569374.2192140666 0.0
0.0 0.0 0.0

-188474.09703318233 5.226718299065094e6 0.0
5.226718299065094e6 -1.7085760752507332e6 0.0
0.0 0.0 0.0

911048.7722783068 3.2482804872414637e6 0.0
3.2482804872414637e6 -2.0517467239800482e6 0.0
0.0 0.0 0.0

-1.4048063951370835e6 3.7507891143522514e6 0.0
3.7507891143522514e6 945919.9020477415 0.0
0.0 0.0 0.0

-2.629462534147983e6 4.541784858976373e6 0.0
4.541784858976373e6 1.7421572256969768e6 0.0
0.0 0.0 0.0

-473641.1759763317 2.4105042987001706e6 0.0
2.4105042987001706e6 -760402.7950806449 0.0
0.0 0.0 0.0

-54126.28038650117 396473.6281000442 0.0
396473.6281000442 216315.65589060218 0.0
0.0 0.0 0.0

208038.1462111305 796803.5624814354 0.0
796803.5624814354 -379001.711181965 0.0
0.0 0.0 0.0

-1.2463393216200382e6 3.2243687192433607e6 0.0
3.2243687192433607e6 781586.0262878321 0.0
0.0 0.0 0.0

560354.2926945473 3.0125369430279373e6 0.0
3.0125369430279373e6 373804.5110272505 0.0
0.0 0.0 0.0

-169464.1934893239 2.343473661052157e6 0.0
2.343473661052157e6 1.00570735402399e6 0.0
0.0 0.0 0.0

-2.5422225472226525e6 6.733099332851667e6 0.0
6.733099332851667e6 890286.4872061535 0.0
0.0 0.0 0.0

-544957.1480604515 2.858988905870935e6 0.0
2.858988905870935e6 -1.3862895934486429e6 0.0
0.0 0.0 0.0

-2.3683207174731684e6 5.993441273504493e6 0.0
5.993441273504493e6 704585.0153713273 0.0
0.0 0.0 0.0

-2.839749074923134e6 3.4443647434377847e6 0.0
3.4443647434377847e6 1.9231273545311573e6 0.0
0.0 0.0 0.0

-250179.0024132921 4.359472023211303e6 0.0
4.359472023211303e6 -1.2942136503913202e6 0.0
0.0 0.0 0.0

815306.0169472325 120783.32918489153 0.0
120783.32918489153 -1.8193708009664286e6 0.0
0.0 0.0 0.0

-283312.0688594726 1.4706126274205581e6 0.0
1.4706126274205581e6 -202614.63477792757 0.0
0.0 0.0 0.0

-172484.44556173473 5.08039191884377e6 0.0
5.08039191884377e6 -516285.2795525073 0.0
0.0 0.0 0.0

-877358.8705134843 2.87625360812263e6 0.0
2.87625360812263e6 1.754467395952112e6 0.0
0.0 0.0 0.0

-307384.7435538739 2.956198873075153e6 0.0
2.956198873075153e6 -864663.2108245381 0.0
0.0 0.0 0.0

-1.3793013377840081e6 3.2696917181247408e6 0.0
3.2696917181247408e6 646000.0602777884 0.0
0.0 0.0 0.0

-4.278524919390157e6 -464535.2174178444 0.0
-464535.2174178444 2.546007133333428e6 0.0
0.0 0.0 0.0

-228218.2292202018 4.95073349282509e6 0.0
4.95073349282509e6 -638299.2123415784 0.0
0.0 0.0 0.0

1.4611785892606769e6 1.5775851544165432e6 0.0
1.5775851544165432e6 -1.9653208527025245e6 0.0
0.0 0.0 0.0

-2.1702456908243527e6 3.8016719611847363e6 0.0
3.8016719611847363e6 170737.875110097 0.0
0.0 0.0 0.0

-41491.29358788126 -312756.8533243458 0.0
-312756.8533243458 481550.04369174986 0.0
0.0 0.0 0.0

-860140.0216236183 4.448044997645854e6 0.0
4.448044997645854e6 614193.2714769504 0.0
0.0 0.0 0.0

-2.132485098197354e6 3.9305326893807333e6 0.0
3.9305326893807333e6 3.068034710026982e6 0.0
0.0 0.0 0.0

-2.5515110439817165e6 4.138025065483956e6 0.0
4.138025065483956e6 1.6818188363496512e6 0.0
0.0 0.0 0.0

-341038.8419241981 4.094086661800944e6 0.0
4.094086661800944e6 -1.512959991014293e6 0.0
0.0 0.0 0.0

-5965.441427539801 2.7609188013479104e6 0.0
2.7609188013479104e6 1.363111613757603e6 0.0
0.0 0.0 0.0

-619141.1550643053 4.478697658136845e6 0.0
4.478697658136845e6 -1.4446761382366596e6 0.0
0.0 0.0 0.0

-137843.57059960507 4.875971622482529e6 0.0
4.875971622482529e6 -568766.7454936883 0.0
0.0 0.0 0.0

-1.6760876232326885e6 4.024429461801722e6 0.0
4.024429461801722e6 1.47200882888224e6 0.0
0.0 0.0 0.0

-843199.2913337663 4.83846617340086e6 0.0
4.83846617340086e6 -16006.38507169616 0.0
0.0 0.0 0.0

-698599.6647175165 4.696135689623747e6 0.0
4.696135689623747e6 -351328.49708242045 0.0
0.0 0.0 0.0

835195.0685078597 3.4323736897228817e6 0.0
3.4323736897228817e6 -1.9958024318410314e6 0.0
0.0 0.0 0.0

-3.111883020666598e6 4.814481445002661e6 0.0
4.814481445002661e6 1.4497549257838367e6 0.0
0.0 0.0 0.0

-995298.4559037635 3.117439155007136e6 0.0
3.117439155007136e6 1.2059793115308997e6 0.0
0.0 0.0 0.0

1.3454036029016934e6 3.081113365933441e6 0.0
3.081113365933441e6 568009.1417531429 0.0
0.0 0.0 0.0

-1.9525503059802873e6 4.481559616502166e6 0.0
4.481559616502166e6 175200.76348190475 0.0
0.0 0.0 0.0

972223.6979020488 3.6908596094343513e6 0.0
3.6908596094343513e6 -2.0133449847316449e6 0.0
0.0 0.0 0.0

-1.3598404729303317e6 3.6264786811139737e6 0.0
3.6264786811139737e6 156373.24456134392 0.0
0.0 0.0 0.0

728509.657383692 3.30000677774364e6 0.0
3.30000677774364e6 -336779.92701997247 0.0
0.0 0.0 0.0

1.732371356653289e6 5.358357746417638e6 0.0
5.358357746417638e6 -181895.95485453075 0.0
0.0 0.0 0.0

-2.8373384273362877e6 3.4042681805666997e6 0.0
3.4042681805666997e6 568964.1662040966 0.0
0.0 0.0 0.0

-453375.9529703462 4.721077086719364e6 0.0
4.721077086719364e6 -1.0498717029676496e6 0.0
0.0 0.0 0.0

368505.10906546575 2.0429457622978298e6 0.0
2.0429457622978298e6 -503529.5993335999 0.0
0.0 0.0 0.0

-232922.75115951046 -159641.38548216157 0.0
-159641.38548216157 192354.62790099322 0.0
0.0 0.0 0.0

-82423.35296141528 5.109467822459093e6 0.0
5.109467822459093e6 -556603.1286222775 0.0
0.0 0.0 0.0

-1.8789383941465109e6 3.1546952696765168e6 0.0
3.1546952696765168e6 3.617591628705856e6 0.0
0.0 0.0 0.0

84900.14952311415 1.2893835552647102e6 0.0
1.2893835552647102e6 -151018.8627249665 0.0
0.0 0.0 0.0

-1.6030701152322572e6 2.658464426959856e6 0.0
2.658464426959856e6 347118.3604689427 0.0
0.0 0.0 0.0

-1.3982725792939058e6 3.8085013611609135e6 0.0
3.8085013611609135e6 1.0844948710965083e6 0.0
0.0 0.0 0.0

-499690.71553016896 3.4926951098572947e6 0.0
3.4926951098572947e6 -1.4673641633497134e6 0.0
0.0 0.0 0.0

-2.9376871814951394e6 4.49516078711205e6 0.0
4.49516078711205e6 1.5997592835975753e6 0.0
0.0 0.0 0.0

-2.004766090207274e6 5.793498308918181e6 0.0
5.793498308918181e6 436283.4981551253 0.0
0.0 0.0 0.0

-4.474258971305429e6 6.947899902961579e6 0.0
6.947899902961579e6 1.7521673529571816e6 0.0
0.0 0.0 0.0

-4.486342753150922e6 2.326723675875362e6 0.0
2.326723675875362e6 1.061344736488936e6 0.0
0.0 0.0 0.0

-117750.98816984252 5.176490875957068e6 0.0
5.176490875957068e6 -265467.10974743427 0.0
0.0 0.0 0.0

-400277.0917172932 2.446545631561523e6 0.0
2.446545631561523e6 -1.1439763941056058e6 0.0
0.0 0.0 0.0

313739.9829876951 340657.2421614518 0.0
340657.2421614518 -548271.7743334614 0.0
0.0 0.0 0.0

-189867.62617424421 3.8565578109704996e6 0.0
3.8565578109704996e6 -1.5603324659083907e6 0.0
0.0 0.0 0.0

-344690.84038861457 3.4312240090637216e6 0.0
3.4312240090637216e6 -1.5940012974177322e6 0.0
0.0 0.0 0.0

-185078.03339648788 5.097258941415299e6 0.0
5.097258941415299e6 -217439.4691293436 0.0
0.0 0.0 0.0

-868106.5433979314 2.8179011994924266e6 0.0
2.8179011994924266e6 -1.4342531079905669e6 0.0
0.0 0.0 0.0

-545923.8599764706 2.8027174686824493e6 0.0
2.8027174686824493e6 -1.6204238374512393e6 0.0
0.0 0.0 0.0

-703119.6669199889 3.238571278068054e6 0.0
3.238571278068054e6 2.2458263186191297e6 0.0
0.0 0.0 0.0

-1.4872821528570072e6 3.3752813267140253e6 0.0
3.3752813267140253e6 1.3954348934458848e6 0.0
0.0 0.0 0.0

677778.6698104816 5.056401084741785e6 0.0
5.056401084741785e6 -1.6154708093747548e6 0.0
0.0 0.0 0.0

-74774.65936521228 5.085466922053947e6 0.0
5.085466922053947e6 -545519.1116913803 0.0
0.0 0.0 0.0

-2.559687949020761e6 3.9198415575950593e6 0.0
3.9198415575950593e6 1.7106916216979413e6 0.0
0.0 0.0 0.0

-91592.37829134759 5.151844193900729e6 0.0
5.151844193900729e6 -649414.5144779416 0.0
0.0 0.0 0.0

1.7586499887917903e6 1.3208388268623045e6 0.0
1.3208388268623045e6 -2.6212522993200086e6 0.0
0.0 0.0 0.0

-2.62625944910926e6 3.4252195808526417e6 0.0
3.4252195808526417e6 1.1770057062177667e6 0.0
0.0 0.0 0.0

-2.596363113901586e6 3.54947089103214e6 0.0
3.54947089103214e6 858347.9600819377 0.0
0.0 0.0 0.0

-1.5794449780970742e6 997610.0167081308 0.0
997610.0167081308 2.2987823799904594e6 0.0
0.0 0.0 0.0

-59336.54604640239 3.592211068046725e6 0.0
3.592211068046725e6 -613152.8742596639 0.0
0.0 0.0 0.0

-1.6212537883064703e6 4.22013246931391e6 0.0
4.22013246931391e6 1.9756486359495223e6 0.0
0.0 0.0 0.0

-3.425785756983226e6 3.250647398310022e6 0.0
3.250647398310022e6 1.0627774126879026e6 0.0
0.0 0.0 0.0

-1.3498179434339837e6 3.3386837945936294e6 0.0
3.3386837945936294e6 1.0409637691528392e6 0.0
0.0 0.0 0.0

134862.29467679287 287529.9793374493 0.0
287529.9793374493 -313138.8253389692 0.0
0.0 0.0 0.0

-2.656048916865718e6 3.5684198987271674e6 0.0
3.5684198987271674e6 670956.7436652349 0.0
0.0 0.0 0.0

-2.4865632572458964e6 3.762269170810543e6 0.0
3.762269170810543e6 1.3308985952492142e6 0.0
0.0 0.0 0.0

-1.6053626633497127e6 3.304938223129493e6 0.0
3.304938223129493e6 543717.7285211141 0.0
0.0 0.0 0.0

-2.897265822059769e6 4.708823904677088e6 0.0
4.708823904677088e6 1.507535096121644e6 0.0
0.0 0.0 0.0

-2.8858868150920626e6 4.487173703740452e6 0.0
4.487173703740452e6 1.4302088148813585e6 0.0
0.0 0.0 0.0

-578899.1891483752 4.52851688910232e6 0.0
4.52851688910232e6 772796.670865257 0.0
0.0 0.0 0.0

41173.41656380056 3.2882492653673613e6 0.0
3.2882492653673613e6 137244.79931240607 0.0
0.0 0.0 0.0

456545.59942313633 5.026144727635405e6 0.0
5.026144727635405e6 -2.174363559707245e6 0.0
0.0 0.0 0.0

-657709.6219594477 3.776143130731169e6 0.0
3.776143130731169e6 -1.4492836884396917e6 0.0
0.0 0.0 0.0

-936881.8765826153 4.800851011472763e6 0.0
4.800851011472763e6 -234470.97474550098 0.0
0.0 0.0 0.0

-4.159478038149906e6 7.276375447629486e6 0.0
7.276375447629486e6 -537070.9182740371 0.0
0.0 0.0 0.0

-366130.65721662715 2.8138025706659695e6 0.0
2.8138025706659695e6 -1.5906811870685276e6 0.0
0.0 0.0 0.0

-2.164195890268826e6 5.826449316586716e6 0.0
5.826449316586716e6 -1.8937796562487376e6 0.0
0.0 0.0 0.0

-1.1602155414904875e6 4.840168432455796e6 0.0
4.840168432455796e6 2390.2950066013145 0.0
0.0 0.0 0.0

-207935.52452526448 -1.066033992054718e6 0.0
-1.066033992054718e6 587532.5562715137 0.0
0.0 0.0 0.0

-2.125820724344301e6 5.29114243809488e6 0.0
5.29114243809488e6 669835.5806572038 0.0
0.0 0.0 0.0

-3.324680918792019e6 6.5349628867896795e6 0.0
6.5349628867896795e6 705648.562157416 0.0
0.0 0.0 0.0

-490932.34734822926 4.756861114832951e6 0.0
4.756861114832951e6 -968787.0003640046 0.0
0.0 0.0 0.0

-2.388993062258563e6 3.7920242315803585e6 0.0
3.7920242315803585e6 195222.30306726915 0.0
0.0 0.0 0.0

-48065.74584833591 1.832325440294727e6 0.0
1.832325440294727e6 -582.1416555223241 0.0
0.0 0.0 0.0

347858.19246312836 5.345574621222748e6 0.0
5.345574621222748e6 -1.5179678016236098e6 0.0
0.0 0.0 0.0

-2.3540781675586607e6 3.7576075095269247e6 0.0
3.7576075095269247e6 119912.90922051412 0.0
0.0 0.0 0.0

-95687.59438072136 4.846588352268604e6 0.0
4.846588352268604e6 -583544.4965588064 0.0
0.0 0.0 0.0

97125.87687738927 1.8573097236328323e6 0.0
1.8573097236328323e6 -745785.4622040475 0.0
0.0 0.0 0.0

-1.15691359035733e6 2.831141517297694e6 0.0
2.831141517297694e6 -232216.77293314424 0.0
0.0 0.0 0.0

-1.3953924948928133e6 4.896108675121179e6 0.0
4.896108675121179e6 499315.73926804506 0.0
0.0 0.0 0.0

-3.1783660131631894e6 -947563.0108136749 0.0
-947563.0108136749 3.277081276650147e6 0.0
0.0 0.0 0.0

-1.9663471937028193e6 4.357495983877655e6 0.0
4.357495983877655e6 243633.57613905042 0.0
0.0 0.0 0.0

-429989.7229644736 4.744728543344241e6 0.0
4.744728543344241e6 -1.1946406111512484e6 0.0
0.0 0.0 0.0

286095.72921338363 4.978021888425813e6 0.0
4.978021888425813e6 -1.9424527150232056e6 0.0
0.0 0.0 0.0

1.1594550413564872e6 415237.11956006876 0.0
415237.11956006876 -1.7518771317496079e6 0.0
0.0 0.0 0.0

-407779.33500435564 4.618199902813331e6 0.0
4.618199902813331e6 -1.1571407205707997e6 0.0
0.0 0.0 0.0

-2.2375533678078353e6 6.087780913145469e6 0.0
6.087780913145469e6 -371958.01657647005 0.0
0.0 0.0 0.0

-3.3235060806562845e6 6.8012429743912965e6 0.0
6.8012429743912965e6 2.124915321909612e6 0.0
0.0 0.0 0.0

-680237.8724175876 4.264325814923368e6 0.0
4.264325814923368e6 1.1562917217042302e6 0.0
0.0 0.0 0.0

100673.14907866137 3.8222380385651435e6 0.0
3.8222380385651435e6 -129485.217214835 0.0
0.0 0.0 0.0

-111958.15685651229 4.960946106739077e6 0.0
4.960946106739077e6 -432491.75432988437 0.0
0.0 0.0 0.0

221508.85938292005 4.354515029492828e6 0.0
4.354515029492828e6 738362.8271522109 0.0
0.0 0.0 0.0

-1.929048979105013e6 1.0086319648377574e6 0.0
1.0086319648377574e6 2.6155946412326666e6 0.0
0.0 0.0 0.0

-364515.5638235723 3.0372609611644372e6 0.0
3.0372609611644372e6 -1.3282868605770345e6 0.0
0.0 0.0 0.0

-3.6304640182017577e6 2.0833796031729265e6 0.0
2.0833796031729265e6 -296773.78628765466 0.0
0.0 0.0 0.0

-186703.13890815788 546909.8298151937 0.0
546909.8298151937 -265276.2802912381 0.0
0.0 0.0 0.0

-299849.68961888365 -998430.2768595326 0.0
-998430.2768595326 915652.3123205397 0.0
0.0 0.0 0.0

-522844.27535815444 2.5945948182618134e6 0.0
2.5945948182618134e6 -837208.5375965392 0.0
0.0 0.0 0.0

-1.0475853209415937e6 182195.84328148406 0.0
182195.84328148406 531628.9369014029 0.0
0.0 0.0 0.0

201239.14344627247 4.0284324834849928e6 0.0
4.0284324834849928e6 -1.5835778298002158e6 0.0
0.0 0.0 0.0

-2.8258472932936666e6 516113.32165354467 0.0
516113.32165354467 3.8143675989606045e6 0.0
0.0 0.0 0.0

-136107.3168808648 5.477549304257658e6 0.0
5.477549304257658e6 -1.818923686433441e6 0.0
0.0 0.0 0.0

-96827.19905743221 276364.83124104777 0.0
276364.83124104777 173092.5555432791 0.0
0.0 0.0 0.0

-2.3841884091917733e6 3.5799718117979495e6 0.0
3.5799718117979495e6 820694.0934939991 0.0
0.0 0.0 0.0

-1.3440175405251025e6 5.145190499755304e6 0.0
5.145190499755304e6 461522.2808124289 0.0
0.0 0.0 0.0

-2.85861284102887e6 3.4439260896604625e6 0.0
3.4439260896604625e6 1.0131425138885743e6 0.0
0.0 0.0 0.0

-4.54575363133358e6 6.305444918144313e6 0.0
6.305444918144313e6 2.0896301243709098e6 0.0
0.0 0.0 0.0

-3.562229401379193e6 5.392553034403692e6 0.0
5.392553034403692e6 1.5760136531974408e6 0.0
0.0 0.0 0.0

49340.85266658299 5116.133543657424 0.0
5116.133543657424 48045.903980278454 0.0
0.0 0.0 0.0

888701.0098341375 3.9210337279615e6 0.0
3.9210337279615e6 -2.043731078017179e6 0.0
0.0 0.0 0.0

-506354.88522842596 4.895008499859729e6 0.0
4.895008499859729e6 -906082.4879274208 0.0
0.0 0.0 0.0

-1.1065151810130484e6 3.5618704958718317e6 0.0
3.5618704958718317e6 90226.09363631572 0.0
0.0 0.0 0.0

-154050.31522887986 4.909492046299211e6 0.0
4.909492046299211e6 -1.715352329131774e6 0.0
0.0 0.0 0.0

-127691.69528801396 3.5249879108269983e6 0.0
3.5249879108269983e6 -1.5998680696925665e6 0.0
0.0 0.0 0.0

-152243.62579837017 5.330661251704322e6 0.0
5.330661251704322e6 -507478.77077059046 0.0
0.0 0.0 0.0

-1.650175195318469e6 4.03948100990969e6 0.0
4.03948100990969e6 429908.63469362014 0.0
0.0 0.0 0.0

-1.845644589967743e6 4.315607991011897e6 0.0
4.315607991011897e6 222674.46477688663 0.0
0.0 0.0 0.0

-335198.907254248 2.997271659275195e6 0.0
2.997271659275195e6 -1.265370662240963e6 0.0
0.0 0.0 0.0

-1.5714509928661715e6 2.5300419421168086e6 0.0
2.5300419421168086e6 560603.0627205939 0.0
0.0 0.0 0.0

909981.8171338293 3.238076095907929e6 0.0
3.238076095907929e6 -2.0087867349280098e6 0.0
0.0 0.0 0.0

-532598.0321932489 5.077896551222567e6 0.0
5.077896551222567e6 -861982.1513083081 0.0
0.0 0.0 0.0

404474.7199737298 5.282162337121251e6 0.0
5.282162337121251e6 -2.0305879069645302e6 0.0
0.0 0.0 0.0

-527184.3499692808 1.9050042564151778e6 0.0
1.9050042564151778e6 -214065.59934194872 0.0
0.0 0.0 0.0

-1.4333248982459935e6 2.1004186395627414e6 0.0
2.1004186395627414e6 283597.5627714064 0.0
0.0 0.0 0.0

541949.7426948422 138935.42749486645 0.0
138935.42749486645 -1.09169149209856e6 0.0
0.0 0.0 0.0

-2.3446929423016896e6 3.4101512997852317e6 0.0
3.4101512997852317e6 921469.5352024118 0.0
0.0 0.0 0.0

-353293.1818802562 4.732496025629192e6 0.0
4.732496025629192e6 -1.334537916381404e6 0.0
0.0 0.0 0.0

176746.72411782335 3.2191293186178254e6 0.0
3.2191293186178254e6 -1.4896347596582673e6 0.0
0.0 0.0 0.0

-1.4343925874712388e6 5.532915610839751e6 0.0
5.532915610839751e6 31024.50789819192 0.0
0.0 0.0 0.0

-4.1566828085538885e6 6.92575216839108e6 0.0
6.92575216839108e6 360999.0660038206 0.0
0.0 0.0 0.0

-2.5191845646421984e6 3.833958798895291e6 0.0
3.833958798895291e6 3031.780589953065 0.0
0.0 0.0 0.0

-2.809543969801833e6 5.26680711932323e6 0.0
5.26680711932323e6 1.4858079449216921e6 0.0
0.0 0.0 0.0

-772612.0619527438 3.2079760323982593e6 0.0
3.2079760323982593e6 -1.4334082541698287e6 0.0
0.0 0.0 0.0

-508893.50568012806 3.7295750626666746e6 0.0
3.7295750626666746e6 -1.6963116653990888e6 0.0
0.0 0.0 0.0

-3.6601321389415115e6 6.799935606372699e6 0.0
6.799935606372699e6 521295.6293379243 0.0
0.0 0.0 0.0

-462618.31188265467 3.909048026438518e6 0.0
3.909048026438518e6 -1.542061171162209e6 0.0
0.0 0.0 0.0

-1.113681106457149e6 3.139967437166461e6 0.0
3.139967437166461e6 1.0738918973894552e6 0.0
0.0 0.0 0.0

375184.35820220306 405844.07976938447 0.0
405844.07976938447 -697541.6356636063 0.0
0.0 0.0 0.0

-2.3893713196194936e6 3.7973738659750493e6 0.0
3.7973738659750493e6 1.1010007165272566e6 0.0
0.0 0.0 0.0

-1.5046249798916157e6 3.7091456007050974e6 0.0
3.7091456007050974e6 616279.8614475763 0.0
0.0 0.0 0.0

-29898.261036590397 336332.98593712045 0.0
336332.98593712045 -150513.15530481839 0.0
0.0 0.0 0.0

-200757.1617554971 4.800112860704105e6 0.0
4.800112860704105e6 -1.8001329367277443e6 0.0
0.0 0.0 0.0

-2.641818484183253e6 3.4656268933595275e6 0.0
3.4656268933595275e6 1.245870188377684e6 0.0
0.0 0.0 0.0

-142884.38756366336 5.053728031029965e6 0.0
5.053728031029965e6 -363996.4493979392 0.0
0.0 0.0 0.0

-1.8485037186721181e6 4.177923939096145e6 0.0
4.177923939096145e6 443957.94220108364 0.0
0.0 0.0 0.0

-4.1514277690562494e6 5.227994834981447e6 0.0
5.227994834981447e6 1.9460790462338857e6 0.0
0.0 0.0 0.0

-501857.42818555655 3.780088949156622e6 0.0
3.780088949156622e6 -1.6728582857175e6 0.0
0.0 0.0 0.0

-2.6465504243852003e6 4.472525888537729e6 0.0
4.472525888537729e6 2.5379795958629716e6 0.0
0.0 0.0 0.0

-2.610621535160525e6 3.9922045093788207e6 0.0
3.9922045093788207e6 -802151.3641268937 0.0
0.0 0.0 0.0

563566.6608873499 1.8108941202453168e6 0.0
1.8108941202453168e6 -499659.21152721276 0.0
0.0 0.0 0.0

-4.16302260348322e6 -237886.92794156724 0.0
-237886.92794156724 5.480241899223328e6 0.0
0.0 0.0 0.0

-1.2639364134312654e6 4.44053763832448e6 0.0
4.44053763832448e6 613997.2911960802 0.0
0.0 0.0 0.0

-3.3039983686618316e6 5.983172256202227e6 0.0
5.983172256202227e6 1.3525706893525356e6 0.0
0.0 0.0 0.0

-172481.6111891353 5.040658185616044e6 0.0
5.040658185616044e6 -574938.7998156409 0.0
0.0 0.0 0.0

-604976.3942012422 3.7529504111391823e6 0.0
3.7529504111391823e6 2.047241315494899e6 0.0
0.0 0.0 0.0

-3.382489361371542e6 5.237502774340773e6 0.0
5.237502774340773e6 1.7033862481113493e6 0.0
0.0 0.0 0.0

-2.2490960664729327e6 6.113941959342827e6 0.0
6.113941959342827e6 834304.288419845 0.0
0.0 0.0 0.0

-897913.4674020112 5.4572960336817205e6 0.0
5.4572960336817205e6 1.0690933176961814e6 0.0
0.0 0.0 0.0

563599.9733697168 3.3054614320015768e6 0.0
3.3054614320015768e6 -1.4783274293547343e6 0.0
0.0 0.0 0.0

-1.8450875079221434e6 4.521864320528912e6 0.0
4.521864320528912e6 198619.56258919032 0.0
0.0 0.0 0.0

-113133.42960195559 5.391830337167977e6 0.0
5.391830337167977e6 -355083.30492196017 0.0
0.0 0.0 0.0

-428213.3365831242 3.7969267134314743e6 0.0
3.7969267134314743e6 -1.4273778966001782e6 0.0
0.0 0.0 0.0

-1.1603709891398242e6 5.138644375209108e6 0.0
5.138644375209108e6 -240546.72978666984 0.0
0.0 0.0 0.0

900811.8074115209 3.698365929214343e6 0.0
3.698365929214343e6 -1.9969068505005557e6 0.0
0.0 0.0 0.0

-1.3565093997537785e6 3.2172943122382686e6 0.0
3.2172943122382686e6 89424.58182091702 0.0
0.0 0.0 0.0

-551997.6915296023 5.244715490238956e6 0.0
5.244715490238956e6 -501719.5984672031 0.0
0.0 0.0 0.0

470286.72974752705 6.509989120590283e6 0.0
6.509989120590283e6 -1.9015864519921937e6 0.0
0.0 0.0 0.0

-861111.2644441506 2.9450064012153856e6 0.0
2.9450064012153856e6 760119.8557138501 0.0
0.0 0.0 0.0

-1.322480075030208e6 2.0230364168489513e6 0.0
2.0230364168489513e6 1.765987383773437e6 0.0
0.0 0.0 0.0

-2.6541454680741974e6 5.15805136039135e6 0.0
5.15805136039135e6 1.6050557729849154e6 0.0
0.0 0.0 0.0

-2.448251126616762e6 3.8313544914669096e6 0.0
3.8313544914669096e6 1.2044566549019762e6 0.0
0.0 0.0 0.0

-581167.923681405 -534940.4019140771 0.0
-534940.4019140771 1.4153931331082166e6 0.0
0.0 0.0 0.0

-634558.7759240688 4.992744656158879e6 0.0
4.992744656158879e6 384786.67161250126 0.0
0.0 0.0 0.0

-2.0118535549433262e6 4.217465871925533e6 0.0
4.217465871925533e6 191719.1617338796 0.0
0.0 0.0 0.0

-168413.8597040634 751002.2139991397 0.0
751002.2139991397 -2.345943122367315e6 0.0
0.0 0.0 0.0

-2.2190185064430134e6 3.5056803132338915e6 0.0
3.5056803132338915e6 3.3973505116599733e6 0.0
0.0 0.0 0.0

-1.6027620886517714e6 3.47656920482015e6 0.0
3.47656920482015e6 -600385.6072529585 0.0
0.0 0.0 0.0

-100040.30981729302 5.300868734637478e6 0.0
5.300868734637478e6 -505175.9672234351 0.0
0.0 0.0 0.0

1.0096488046702228e6 1.5656985377412855e6 0.0
1.5656985377412855e6 -1.9834574080882259e6 0.0
0.0 0.0 0.0

-3.708114471167338e6 3.5176066367336437e6 0.0
3.5176066367336437e6 6.2816134268849045e6 0.0
0.0 0.0 0.0

-1.223201896593492e6 4.29818484325452e6 0.0
4.29818484325452e6 289163.0597591808 0.0
0.0 0.0 0.0

-575546.3186493985 7.859187839081638e6 0.0
7.859187839081638e6 372983.09430960374 0.0
0.0 0.0 0.0

-482850.62029556977 3.4157780122648375e6 0.0
3.4157780122648375e6 -1.6095020616688419e6 0.0
0.0 0.0 0.0

-1.1181766290706703e6 3.6478105712255766e6 0.0
3.6478105712255766e6 -71382.7945693169 0.0
0.0 0.0 0.0

-185339.89420362894 591470.5012870008 0.0
591470.5012870008 -1.4564245667638378e6 0.0
0.0 0.0 0.0

-473898.16843360785 3.479750693112991e6 0.0
3.479750693112991e6 -1.482198893146189e6 0.0
0.0 0.0 0.0

-1.0282812183367193e6 3.396495365492677e6 0.0
3.396495365492677e6 -15811.230910141952 0.0
0.0 0.0 0.0

-331386.8180280286 2.7871747235493525e6 0.0
2.7871747235493525e6 1.7285434299853588e6 0.0
0.0 0.0 0.0

-2.387416043807628e6 3.802508808074871e6 0.0
3.802508808074871e6 1.5689288469312927e6 0.0
0.0 0.0 0.0

-490993.8021243952 5.265729354822471e6 0.0
5.265729354822471e6 -546137.7431106609 0.0
0.0 0.0 0.0

-387798.19551775104 -521457.9386628731 0.0
-521457.9386628731 2.964451597316063e6 0.0
0.0 0.0 0.0

-833123.7369660789 713807.4308138001 0.0
713807.4308138001 1.6139316785974756e6 0.0
0.0 0.0 0.0

-331283.42208464164 5.740989240354218e6 0.0
5.740989240354218e6 -611584.9304946512 0.0
0.0 0.0 0.0

-171144.29790684313 5.123082858996997e6 0.0
5.123082858996997e6 -581293.1875907175 0.0
0.0 0.0 0.0

2.129227902573719e6 4.994927185936119e6 0.0
4.994927185936119e6 471183.0371905126 0.0
0.0 0.0 0.0

-189582.8357882312 145600.30832368977 0.0
145600.30832368977 -53069.875937071854 0.0
0.0 0.0 0.0

-2.6603332596489633e6 6.754100778365328e6 0.0
6.754100778365328e6 -93286.15580879722 0.0
0.0 0.0 0.0

-4.106312656543509e6 2.680739003804028e6 0.0
2.680739003804028e6 3.3823217979852855e6 0.0
0.0 0.0 0.0

-3.0215898639828493e6 6.536507903675596e6 0.0
6.536507903675596e6 -177174.1953590382 0.0
0.0 0.0 0.0

1.0067340956205449e6 4.839428244046491e6 0.0
4.839428244046491e6 -836161.2425916188 0.0
0.0 0.0 0.0

-5.036618425965389e6 -1.5440597870580077e6 0.0
-1.5440597870580077e6 6.190222746954414e6 0.0
0.0 0.0 0.0

-1.5374504585540942e6 2.577879304007545e6 0.0
2.577879304007545e6 486763.85517333704 0.0
0.0 0.0 0.0

-3.372900794422717e6 6.607485070833885e6 0.0
6.607485070833885e6 2.1426386579956217e6 0.0
0.0 0.0 0.0

-1.8956833482731134e6 4.348234978730022e6 0.0
4.348234978730022e6 316750.6579100364 0.0
0.0 0.0 0.0

-1.0762899801313146e6 3.54081333779064e6 0.0
3.54081333779064e6 -271005.0973710225 0.0
0.0 0.0 0.0

-125462.56331532772 3.6670113255971707e6 0.0
3.6670113255971707e6 -928473.7405554455 0.0
0.0 0.0 0.0

-351832.7824476665 5.291601697841541e6 0.0
5.291601697841541e6 302833.8413563287 0.0
0.0 0.0 0.0

-361138.2861960437 3.763253942454397e6 0.0
3.763253942454397e6 -1.641220856829661e6 0.0
0.0 0.0 0.0

-660906.1166859379 2.3839603201350546e6 0.0
2.3839603201350546e6 -952134.3683415616 0.0
0.0 0.0 0.0

-887972.5240855194 1.8009740468239111e6 0.0
1.8009740468239111e6 214275.1675279379 0.0
0.0 0.0 0.0

-2.1390685290998043e6 7.067273551409029e6 0.0
7.067273551409029e6 402117.9472764052 0.0
0.0 0.0 0.0

-507376.3408475905 3.487162562230838e6 0.0
3.487162562230838e6 -1.6912545671830242e6 0.0
0.0 0.0 0.0

-1.3023106452562911e6 3.7414602985656615e6 0.0
3.7414602985656615e6 2.387137112682796e6 0.0
0.0 0.0 0.0

-608440.2476479479 4.897260381326871e6 0.0
4.897260381326871e6 -1.094779663802392e6 0.0
0.0 0.0 0.0

-2.2140084909509914e6 3.73647496505707e6 0.0
3.73647496505707e6 1.180416013584474e6 0.0
0.0 0.0 0.0

-470444.76207912376 2.976843966828654e6 0.0
2.976843966828654e6 -1.322197495699964e6 0.0
0.0 0.0 0.0

-5.095009892047586e6 -470356.3988961501 0.0
-470356.3988961501 2.9122636868006545e6 0.0
0.0 0.0 0.0

253865.4537074503 348999.6682243097 0.0
348999.6682243097 -364170.5049947843 0.0
0.0 0.0 0.0

-1.0620935742657948e6 3.185262495374145e6 0.0
3.185262495374145e6 1.0092705257049149e6 0.0
0.0 0.0 0.0

-457831.40218546556 3.3806927597607723e6 0.0
3.3806927597607723e6 -1.1646673925640099e6 0.0
0.0 0.0 0.0

-1.29277530470851e6 2.8967095664530653e6 0.0
2.8967095664530653e6 44824.07535043353 0.0
0.0 0.0 0.0

-1.3906716990469706e6 2.746246755563717e6 0.0
2.746246755563717e6 397608.61671178706 0.0
0.0 0.0 0.0

-1.6965368769021456e6 2.6101645765128867e6 0.0
2.6101645765128867e6 424181.06797045027 0.0
0.0 0.0 0.0

12936.9592219544 7.340854954451529e6 0.0
7.340854954451529e6 -506591.79176870716 0.0
0.0 0.0 0.0

-2.7981326634602593e6 3.305437240911834e6 0.0
3.305437240911834e6 372375.5562577052 0.0
0.0 0.0 0.0

-606355.7929483962 5.5009529727853155e6 0.0
5.5009529727853155e6 -440637.65269022714 0.0
0.0 0.0 0.0

-1.0696156805567318e6 5.078218673515658e6 0.0
5.078218673515658e6 -81675.34132611234 0.0
0.0 0.0 0.0

-3.1225972833358767e6 3.425263755621369e6 0.0
3.425263755621369e6 985617.2170584961 0.0
0.0 0.0 0.0

-1.276451103274395e6 3.339061395924592e6 0.0
3.339061395924592e6 830472.4283427133 0.0
0.0 0.0 0.0

-60027.19571316862 496804.3539986746 0.0
496804.3539986746 -539468.386974255 0.0
0.0 0.0 0.0

-434356.94277272135 1.804446974441015e6 0.0
1.804446974441015e6 -44184.86769449081 0.0
0.0 0.0 0.0

-717980.0659254628 3.8818943728562035e6 0.0
3.8818943728562035e6 -1.561411520433889e6 0.0
0.0 0.0 0.0

-818997.082638761 4.730797250038506e6 0.0
4.730797250038506e6 -255704.7901951713 0.0
0.0 0.0 0.0

345046.37841184763 1.1911033755873996e6 0.0
1.1911033755873996e6 -663057.1864932936 0.0
0.0 0.0 0.0

-8.190965766089655e6 4.754002759799209e6 0.0
4.754002759799209e6 7.194779386649383e6 0.0
0.0 0.0 0.0

332070.5886238096 2.722773856100392e6 0.0
2.722773856100392e6 -1.3440949249609052e6 0.0
0.0 0.0 0.0

-1.2539347243123464e6 1.835635731802665e6 0.0
1.835635731802665e6 196661.96412054158 0.0
0.0 0.0 0.0

-1.0182134464152441e6 2.661052572689019e6 0.0
2.661052572689019e6 -1.270007611628462e6 0.0
0.0 0.0 0.0

883831.0844477826 3.749825781927503e6 0.0
3.749825781927503e6 -2.1270838910520403e6 0.0
0.0 0.0 0.0

-767878.8629501383 9.58099247741187e6 0.0
9.58099247741187e6 789557.1857062692 0.0
0.0 0.0 0.0

452205.75993118447 5.235832075119594e6 0.0
5.235832075119594e6 -1.8058758207531385e6 0.0
0.0 0.0 0.0

-4.404597105086498e6 534743.1951041339 0.0
534743.1951041339 6.02336825225797e6 0.0
0.0 0.0 0.0

-824863.3869427734 2.8756883880517627e6 0.0
2.8756883880517627e6 930192.2118856665 0.0
0.0 0.0 0.0

-1.3080901552646833e6 4.771753632485754e6 0.0
4.771753632485754e6 83184.9927440022 0.0
0.0 0.0 0.0

-2.5461599147882415e6 3.137613175661207e6 0.0
3.137613175661207e6 2.040388101832382e6 0.0
0.0 0.0 0.0

-981067.5504582654 3.1157890673748567e6 0.0
3.1157890673748567e6 1.0509810925294543e6 0.0
0.0 0.0 0.0

-2.3689106235149326e6 3.322822638371966e6 0.0
3.322822638371966e6 976261.1479951123 0.0
0.0 0.0 0.0

267476.2813439778 5.5471500704045305e6 0.0
5.5471500704045305e6 891587.3949377622 0.0
0.0 0.0 0.0

428651.2612512283 369699.3162453667 0.0
369699.3162453667 -746380.383622745 0.0
0.0 0.0 0.0

-578059.6116802815 4.744918344260247e6 0.0
4.744918344260247e6 -672408.9417877735 0.0
0.0 0.0 0.0

-79733.57823621295 2.612057410907915e6 0.0
2.612057410907915e6 -1.2405734593582628e6 0.0
0.0 0.0 0.0

-3.3000765218769517e6 2.897509468000341e6 0.0
2.897509468000341e6 633687.0277939704 0.0
0.0 0.0 0.0

-1.4738059411659315e6 5.067183818226724e6 0.0
5.067183818226724e6 25201.472437005083 0.0
0.0 0.0 0.0

-338569.87765870494 5.002460949539933e6 0.0
5.002460949539933e6 -932186.2598165605 0.0
0.0 0.0 0.0

-899941.4084532349 2.9241482382479007e6 0.0
2.9241482382479007e6 636725.9117716795 0.0
0.0 0.0 0.0

-2.539956225418358e6 2.411493985720491e6 0.0
2.411493985720491e6 353787.606190008 0.0
0.0 0.0 0.0

-619536.4241998328 4.778728070412006e6 0.0
4.778728070412006e6 -340145.2319000735 0.0
0.0 0.0 0.0

-434314.7077125146 3.1273628853530716e6 0.0
3.1273628853530716e6 -1.419814686344133e6 0.0
0.0 0.0 0.0

-3.4727733538756827e6 2.490424538098243e6 0.0
2.490424538098243e6 1.2068374349426262e6 0.0
0.0 0.0 0.0

888461.9463570243 1.002119580966407e7 0.0
1.002119580966407e7 -444664.8636248753 0.0
0.0 0.0 0.0

-388796.9694136656 4.93428362426051e6 0.0
4.93428362426051e6 -848621.5821990978 0.0
0.0 0.0 0.0

-84695.47252005537 4.86057983084082e6 0.0
4.86057983084082e6 -1.6042169186118213e6 0.0
0.0 0.0 0.0

-857619.909001736 2.5696963458526866e6 0.0
2.5696963458526866e6 -1.0962235117063667e6 0.0
0.0 0.0 0.0

-920699.1032467408 7.59270754792951e6 0.0
7.59270754792951e6 505208.85146688105 0.0
0.0 0.0 0.0

-532739.7963388351 4.865015867140723e6 0.0
4.865015867140723e6 -1.1939736382984556e6 0.0
0.0 0.0 0.0

-2.760293748236615e6 4.74084430368328e6 0.0
4.74084430368328e6 1.2430383743227455e6 0.0
0.0 0.0 0.0

-277598.2847156175 2.7763524513249267e6 0.0
2.7763524513249267e6 -1.2668802251201987e6 0.0
0.0 0.0 0.0

-177850.92748221863 4.724098050399317e6 0.0
4.724098050399317e6 -589172.5084063023 0.0
0.0 0.0 0.0

-2.4625066583069707e6 3.268210519346127e6 0.0
3.268210519346127e6 -376023.75494059315 0.0
0.0 0.0 0.0

-2.4836394785070512e6 3.3689470415180773e6 0.0
3.3689470415180773e6 1.0305367029013274e6 0.0
0.0 0.0 0.0

1.2286735841844813e6 3.559997146221788e6 0.0
3.559997146221788e6 93704.98296184762 0.0
0.0 0.0 0.0

-3.2120941607945054e6 3.53195549654536e6 0.0
3.53195549654536e6 1.2398154057587325e6 0.0
0.0 0.0 0.0

-680110.2201510178 3.28379705766894e6 0.0
3.28379705766894e6 257707.79550496937 0.0
0.0 0.0 0.0

951551.0838235967 -211269.07431951078 0.0
-211269.07431951078 -1.7205291722855328e6 0.0
0.0 0.0 0.0

-1.9018134822367826e6 7.102182536459055e6 0.0
7.102182536459055e6 1.1842669142251108e6 0.0
0.0 0.0 0.0

-392550.08168140566 4.728250363679366e6 0.0
4.728250363679366e6 -1.271262817488045e6 0.0
0.0 0.0 0.0

871150.5992907841 3.526404425476079e6 0.0
3.526404425476079e6 -1.7709272745655146e6 0.0
0.0 0.0 0.0

-1.0444966630142666e6 1.6338864503196483e6 0.0
1.6338864503196483e6 15521.9650415887 0.0
0.0 0.0 0.0

128832.08196902409 569012.8179474681 0.0
569012.8179474681 -651099.6321778635 0.0
0.0 0.0 0.0

-473867.72381275485 3.7460498099635467e6 0.0
3.7460498099635467e6 -1.0207504568483654e6 0.0
0.0 0.0 0.0

-2.26473310885006e6 3.99560658809772e6 0.0
3.99560658809772e6 -243399.31356969976 0.0
0.0 0.0 0.0

-780014.947226864 4.712089865915589e6 0.0
4.712089865915589e6 -351353.1070574116 0.0
0.0 0.0 0.0

-448323.1304924076 5.445761044954458e6 0.0
5.445761044954458e6 -355124.21419825626 0.0
0.0 0.0 0.0

940055.5926287094 4.0769346192405666e6 0.0
4.0769346192405666e6 -1.762632267334231e6 0.0
0.0 0.0 0.0

-1.1604652131855157e6 3.1638601532904115e6 0.0
3.1638601532904115e6 59238.88923104957 0.0
0.0 0.0 0.0

-665161.5564559496 3.442522291589203e6 0.0
3.442522291589203e6 -715113.1078808649 0.0
0.0 0.0 0.0

-2.972394309459847e6 6.322969269300308e6 0.0
6.322969269300308e6 1.6948325647515836e6 0.0
0.0 0.0 0.0

-700939.4904123145 7.025504440321541e6 0.0
7.025504440321541e6 161588.61270913275 0.0
0.0 0.0 0.0

-1.4325929410340816e6 4.708810924647613e6 0.0
4.708810924647613e6 211319.69660751213 0.0
0.0 0.0 0.0

-1.4074555864776736e6 4.547854476318248e6 0.0
4.547854476318248e6 733873.8025987889 0.0
0.0 0.0 0.0

-1.0737373592045e7 1.9356089276431352e6 0.0
1.9356089276431352e6 1.6590047478711873e7 0.0
0.0 0.0 0.0

-3.8932434677407756e6 3.145602533795147e6 0.0
3.145602533795147e6 1.2128164827196216e6 0.0
0.0 0.0 0.0

-516139.59036909987 4.980806929105059e6 0.0
4.980806929105059e6 -827272.328467128 0.0
0.0 0.0 0.0

331602.3294182562 5.3754947769867135e6 0.0
5.3754947769867135e6 -1.9404508623901994e6 0.0
0.0 0.0 0.0

563917.3124285082 5.282261383902477e6 0.0
5.282261383902477e6 -1.7355990032413816e6 0.0
0.0 0.0 0.0

879643.7336983876 3.0260445062157935e6 0.0
3.0260445062157935e6 -1.9972483782145772e6 0.0
0.0 0.0 0.0

-1.5649387907234882e6 4.090446899600088e6 0.0
4.090446899600088e6 666230.4374571901 0.0
0.0 0.0 0.0

905455.9748557684 3.0418406831896715e6 0.0
3.0418406831896715e6 -1.9492584129314027e6 0.0
0.0 0.0 0.0

-25792.731829880417 585193.5445308246 0.0
585193.5445308246 -199524.5040183366 0.0
0.0 0.0 0.0

-1.0046806470449052e6 4.833500243837967e6 0.0
4.833500243837967e6 242788.4205687954 0.0
0.0 0.0 0.0

-1.32889303091562e6 2.0841729587962434e6 0.0
2.0841729587962434e6 237008.23803737067 0.0
0.0 0.0 0.0

-1.8022470744262526e6 5.034843780897256e6 0.0
5.034843780897256e6 292969.7617890629 0.0
0.0 0.0 0.0

-1.8226211204105762e6 5.995997014662795e6 0.0
5.995997014662795e6 846638.6440555822 0.0
0.0 0.0 0.0

-101178.30139466703 5.360537794778122e6 0.0
5.360537794778122e6 -457406.39087958774 0.0
0.0 0.0 0.0

-360802.0472699071 3.5524925301252943e6 0.0
3.5524925301252943e6 -1.3828015551371789e6 0.0
0.0 0.0 0.0

946866.4952268654 3.891142313354334e6 0.0
3.891142313354334e6 -1.9357663668800567e6 0.0
0.0 0.0 0.0

-6.829153898855034e6 6.887648535232987e6 0.0
6.887648535232987e6 -1.5167145444086462e6 0.0
0.0 0.0 0.0

-347390.18189213134 3.363952594068247e6 0.0
3.363952594068247e6 2.216930373953232e6 0.0
0.0 0.0 0.0

-1.8652283357680799e6 5.75376566579449e6 0.0
5.75376566579449e6 921234.199185263 0.0
0.0 0.0 0.0

-411328.2218938205 4.678247186514577e6 0.0
4.678247186514577e6 -406147.78987023927 0.0
0.0 0.0 0.0

-288175.20603882533 4.809488762534826e6 0.0
4.809488762534826e6 -606789.2655670977 0.0
0.0 0.0 0.0

-1.3754679365046094e6 159226.17429668235 0.0
159226.17429668235 1.8268530849123893e6 0.0
0.0 0.0 0.0

-2.125441097139189e6 3.8358875177365625e6 0.0
3.8358875177365625e6 247148.95664369373 0.0
0.0 0.0 0.0

-1.5027005477110369e6 2.2065567066344735e6 0.0
2.2065567066344735e6 166641.9674394623 0.0
0.0 0.0 0.0

-222321.0150777122 369187.10147353413 0.0
369187.10147353413 17687.671157250632 0.0
0.0 0.0 0.0

-1.0524267169764586e7 136974.74284700738 0.0
136974.74284700738 2.094743165209163e7 0.0
0.0 0.0 0.0

-520182.35127575597 4.868591784091527e6 0.0
4.868591784091527e6 -722681.0354331372 0.0
0.0 0.0 0.0

884012.5964278566 1.4504274448282928e6 0.0
1.4504274448282928e6 -1.1085089161347097e6 0.0
0.0 0.0 0.0

-6.195874717773821e6 -1.2868688233416118e6 0.0
-1.2868688233416118e6 7.818284320392415e6 0.0
0.0 0.0 0.0

944205.3334620512 3.3706949385236874e6 0.0
3.3706949385236874e6 -2.0307919716967081e6 0.0
0.0 0.0 0.0

-1.8373307232170403e6 3.3880153827342717e6 0.0
3.3880153827342717e6 1.5297302651369548e6 0.0
0.0 0.0 0.0

-3.734927024953368e6 6.7537431731162965e6 0.0
6.7537431731162965e6 2.252429790636898e6 0.0
0.0 0.0 0.0

-514581.34364273737 4.708956276846919e6 0.0
4.708956276846919e6 -1.0314194432453274e6 0.0
0.0 0.0 0.0

-810344.3182771273 638830.3817952967 0.0
638830.3817952967 1.0722172605237002e6 0.0
0.0 0.0 0.0

-1.0363193900605084e6 4.896157276801802e6 0.0
4.896157276801802e6 -199791.5703291261 0.0
0.0 0.0 0.0

-365318.53143438406 7.253502478173553e6 0.0
7.253502478173553e6 -62202.13322633569 0.0
0.0 0.0 0.0

619232.6843252489 161890.21287602876 0.0
161890.21287602876 -807491.2675618725 0.0
0.0 0.0 0.0

251312.26388201007 4.834342413394681e6 0.0
4.834342413394681e6 -887263.2849044917 0.0
0.0 0.0 0.0

-2.530319987565154e6 9.341055890139062e6 0.0
9.341055890139062e6 271436.41470433865 0.0
0.0 0.0 0.0

909447.1917465187 3.1993508774527307e6 0.0
3.1993508774527307e6 -1.9643844547035042e6 0.0
0.0 0.0 0.0

-1.3127905147322568e6 3.5219189286256703e6 0.0
3.5219189286256703e6 321255.6497298293 0.0
0.0 0.0 0.0

-478890.07004938705 5.518449212019708e6 0.0
5.518449212019708e6 2.5503716438203035e6 0.0
0.0 0.0 0.0

1.6846041472893402e6 6.419896243102182e6 0.0
6.419896243102182e6 -930281.0299530098 0.0
0.0 0.0 0.0

-3.976182574939984e6 7.145010620698082e6 0.0
7.145010620698082e6 2.672689080925186e6 0.0
0.0 0.0 0.0

-2.1976809459417164e6 3.364130574849802e6 0.0
3.364130574849802e6 880324.1386553558 0.0
0.0 0.0 0.0

-304481.26607617806 4.464883760450745e6 0.0
4.464883760450745e6 -1.5045020782242236e6 0.0
0.0 0.0 0.0

-2.0754921690517496e6 4.273014954843404e6 0.0
4.273014954843404e6 69940.80367254559 0.0
0.0 0.0 0.0

330203.94552987715 3.632781251338202e6 0.0
3.632781251338202e6 46521.118991416246 0.0
0.0 0.0 0.0

-7.411766218658686e6 -3.6924993923736927e6 0.0
-3.6924993923736927e6 9.428586915508732e6 0.0
0.0 0.0 0.0

-1.0636221872673098e6 4.882172171123935e6 0.0
4.882172171123935e6 11811.759498870873 0.0
0.0 0.0 0.0

-32533.572869581694 5.170793541336437e6 0.0
5.170793541336437e6 -638016.8742603344 0.0
0.0 0.0 0.0

-1.2277956773130104e6 2.9658979231876656e6 0.0
2.9658979231876656e6 -121736.52586437197 0.0
0.0 0.0 0.0

-166400.63091150558 5.5262445076228455e6 0.0
5.5262445076228455e6 -690560.3904379145 0.0
0.0 0.0 0.0

-489842.621074809 5.140168136045609e6 0.0
5.140168136045609e6 -718543.0004074869 0.0
0.0 0.0 0.0

-1.7654566406471196e6 2.790026962605386e6 0.0
2.790026962605386e6 518534.17055983713 0.0
0.0 0.0 0.0

-337170.6171342827 4.717090682830079e6 0.0
4.717090682830079e6 -432823.10755846894 0.0
0.0 0.0 0.0

-119715.82683777134 4.804023562720364e6 0.0
4.804023562720364e6 -577093.8338173933 0.0
0.0 0.0 0.0

-228477.5886196283 5.096761201130063e6 0.0
5.096761201130063e6 -192871.37197407102 0.0
0.0 0.0 0.0

-453083.32328086445 3.076229680344467e6 0.0
3.076229680344467e6 -1.4185490687531326e6 0.0
0.0 0.0 0.0

-2.3784573070814824e6 3.6975993427693793e6 0.0
3.6975993427693793e6 736897.4219903109 0.0
0.0 0.0 0.0

-2.7550991777992984e6 6.728995055557867e6 0.0
6.728995055557867e6 776202.2418694383 0.0
0.0 0.0 0.0

-2.3134377913726494e6 3.4758158023350197e6 0.0
3.4758158023350197e6 454999.49532637175 0.0
0.0 0.0 0.0

-492024.8344120587 4.642277157381182e6 0.0
4.642277157381182e6 -412269.31769192993 0.0
0.0 0.0 0.0

897608.1463013561 3.593293961200019e6 0.0
3.593293961200019e6 -1.7202141067483837e6 0.0
0.0 0.0 0.0

-603248.1520380895 4.831298385917091e6 0.0
4.831298385917091e6 -782021.4369851089 0.0
0.0 0.0 0.0

-1.2702875045217497e6 7.2623211609732825e6 0.0
7.2623211609732825e6 -215489.48180332695 0.0
0.0 0.0 0.0

-122752.00526888923 771626.8270089396 0.0
771626.8270089396 -101197.05240984341 0.0
0.0 0.0 0.0

-913785.0238861401 4.822526576203244e6 0.0
4.822526576203244e6 -187883.9686965429 0.0
0.0 0.0 0.0

-439642.3197068268 5.000796232758617e6 0.0
5.000796232758617e6 -990510.8153988349 0.0
0.0 0.0 0.0

-200307.1860838778 5.68809381198506e6 0.0
5.68809381198506e6 -533747.8207266849 0.0
0.0 0.0 0.0

-86427.44078392358 2.2036045598156042e6 0.0
2.2036045598156042e6 272619.80633692857 0.0
0.0 0.0 0.0

-105490.38162409776 5.135722882964971e6 0.0
5.135722882964971e6 -546795.8351446126 0.0
0.0 0.0 0.0

-2.5897113774493476e6 3.1236586500806394e6 0.0
3.1236586500806394e6 1.3952104849975589e6 0.0
0.0 0.0 0.0

-272353.0504545934 4.9142709318726165e6 0.0
4.9142709318726165e6 -1.6159804595482326e6 0.0
0.0 0.0 0.0

-2.72805495377031e6 6.8443342829671e6 0.0
6.8443342829671e6 1.6478550874137194e6 0.0
0.0 0.0 0.0

-2.5563815977526307e6 3.1770529398746137e6 0.0
3.1770529398746137e6 674019.113855733 0.0
0.0 0.0 0.0

-114658.1812343002 2.375182185091939e6 0.0
2.375182185091939e6 249843.13416825928 0.0
0.0 0.0 0.0

-1.76313864396179e6 5.963250427478689e6 0.0
5.963250427478689e6 -11816.746348938323 0.0
0.0 0.0 0.0

-2.8451011494091665e6 3.2292173144458444e6 0.0
3.2292173144458444e6 883761.689086369 0.0
0.0 0.0 0.0

-2.5142310510748457e6 3.342345547334965e6 0.0
3.342345547334965e6 655150.3127422533 0.0
0.0 0.0 0.0

-97368.36644804699 5.192547383075532e6 0.0
5.192547383075532e6 -601778.151720949 0.0
0.0 0.0 0.0

-273544.46895647695 4.55073845297852e6 0.0
4.55073845297852e6 -1.498209262975482e6 0.0
0.0 0.0 0.0

1.6281490359795715e6 4.207837518131431e6 0.0
4.207837518131431e6 -285216.0523429272 0.0
0.0 0.0 0.0

-4.61554272371356e6 -1.3333956839518712e6 0.0
-1.3333956839518712e6 2.6119992423004024e6 0.0
0.0 0.0 0.0

-2.2119209110644693e6 4.281867923148074e6 0.0
4.281867923148074e6 106935.6729579696 0.0
0.0 0.0 0.0

908714.3606905143 3.310243982837397e6 0.0
3.310243982837397e6 -2.0610738859717366e6 0.0
0.0 0.0 0.0

-877227.76614414 3.725896401799822e6 0.0
3.725896401799822e6 -438664.3290930835 0.0
0.0 0.0 0.0

-2.00893889352029e6 4.2255704004990645e6 0.0
4.2255704004990645e6 165397.43629883125 0.0
0.0 0.0 0.0

-119758.43034220001 519522.4751888547 0.0
519522.4751888547 -222238.09225617544 0.0
0.0 0.0 0.0

238704.22881024808 5.328438191970817e6 0.0
5.328438191970817e6 -1.885873855350493e6 0.0
0.0 0.0 0.0

-505834.07754696533 2.859704864290443e6 0.0
2.859704864290443e6 -1.6344385743267126e6 0.0
0.0 0.0 0.0

61625.73871814046 3.7215118000880363e6 0.0
3.7215118000880363e6 -882675.4077244089 0.0
0.0 0.0 0.0

-5.525783230231598e6 5.898048482768889e6 0.0
5.898048482768889e6 4.684165600703612e6 0.0
0.0 0.0 0.0

-1.4171720988499336e6 3.020834191485265e6 0.0
3.020834191485265e6 155276.9242286685 0.0
0.0 0.0 0.0

-1.7886478530469644e6 4.488660484695806e6 0.0
4.488660484695806e6 168798.89860452828 0.0
0.0 0.0 0.0

-2.691935753934467e6 3.5154653424355e6 0.0
3.5154653424355e6 937759.7597785931 0.0
0.0 0.0 0.0

-3.194854887544613e6 -1.629995683340675e6 0.0
-1.629995683340675e6 7.604997413747857e6 0.0
0.0 0.0 0.0

510015.0535734205 356671.5305833448 0.0
356671.5305833448 -749659.5839535196 0.0
0.0 0.0 0.0

-339480.59066538536 4.4495556644072095e6 0.0
4.4495556644072095e6 -1.314575609687195e6 0.0
0.0 0.0 0.0

86195.86110926564 1.0830166945112215e6 0.0
1.0830166945112215e6 -17881.405526480907 0.0
0.0 0.0 0.0

-481167.88974640856 4.607918823351096e6 0.0
4.607918823351096e6 -1.132783497819923e6 0.0
0.0 0.0 0.0

-196212.8913396954 5.375931309607023e6 0.0
5.375931309607023e6 -706799.6578692653 0.0
0.0 0.0 0.0

-146550.90584766713 1.0930762226101088e6 0.0
1.0930762226101088e6 -1.648196228524029e6 0.0
0.0 0.0 0.0

-2.097754776046148e6 4.434776607280095e6 0.0
4.434776607280095e6 -118266.38612040528 0.0
0.0 0.0 0.0

-3.172696739512039e6 5.100274111609499e6 0.0
5.100274111609499e6 1.8500854687233686e6 0.0
0.0 0.0 0.0

-424732.6111500623 3.212513996129995e6 0.0
3.212513996129995e6 -1.4157754032657442e6 0.0
0.0 0.0 0.0

-84900.8556405311 5.344458247613758e6 0.0
5.344458247613758e6 -283002.87000145443 0.0
0.0 0.0 0.0

-333956.2834223473 4.445215773365945e6 0.0
4.445215773365945e6 -1.2947641352656975e6 0.0
0.0 0.0 0.0

-625914.3140231313 2.821856444568863e6 0.0
2.821856444568863e6 -1.6839179426634156e6 0.0
0.0 0.0 0.0

-48483.57050581833 491832.53030761325 0.0
491832.53030761325 -192028.36140560202 0.0
0.0 0.0 0.0

-1.1699580113262907e6 3.6968915520220934e6 0.0
3.6968915520220934e6 -40422.17049867334 0.0
0.0 0.0 0.0

-590556.8834708428 4.9162954122288e6 0.0
4.9162954122288e6 -442813.39120267483 0.0
0.0 0.0 0.0

629063.5396019636 3.606787442029165e6 0.0
3.606787442029165e6 -1.8114965372845104e6 0.0
0.0 0.0 0.0

-2.3573998006635304e6 4.0665059594215094e6 0.0
4.0665059594215094e6 -1.2197961552420063e6 0.0
0.0 0.0 0.0

-276365.716603331 5.390932925059652e6 0.0
5.390932925059652e6 -727018.6681793722 0.0
0.0 0.0 0.0

815833.1004209772 5.709040161971038e6 0.0
5.709040161971038e6 -481779.5328880668 0.0
0.0 0.0 0.0

-4.070337372654894e6 2.583637411403536e6 0.0
2.583637411403536e6 1.0568433581622143e6 0.0
0.0 0.0 0.0

330702.50765440665 806290.1674343148 0.0
806290.1674343148 -228799.2067401851 0.0
0.0 0.0 0.0

-838302.8297310375 3.1818243796595335e6 0.0
3.1818243796595335e6 -534890.9627265368 0.0
0.0 0.0 0.0

-1.6355647691891452e6 5.618778751061936e6 0.0
5.618778751061936e6 -47573.34732445801 0.0
0.0 0.0 0.0

-2.754458614515633e6 3.014696352017199e6 0.0
3.014696352017199e6 -14248.250163787161 0.0
0.0 0.0 0.0

-787041.2880087323 2.900010212739113e6 0.0
2.900010212739113e6 -1.519114052817677e6 0.0
0.0 0.0 0.0

-77920.38657011878 4.922386482338105e6 0.0
4.922386482338105e6 -585092.2677398297 0.0
0.0 0.0 0.0

-495487.87426278065 3.0144192013509334e6 0.0
3.0144192013509334e6 -1.4054359930624026e6 0.0
0.0 0.0 0.0

-3.656944710281519e6 2.3321510632306393e6 0.0
2.3321510632306393e6 476350.7254932758 0.0
0.0 0.0 0.0

-1.5656587251080037e6 4.408705766903936e6 0.0
4.408705766903936e6 115368.0906746987 0.0
0.0 0.0 0.0

-1.2821263532972236e6 4.91326858123161e6 0.0
4.91326858123161e6 -136770.4829470197 0.0
0.0 0.0 0.0

101107.61760364275 5.396745213219768e6 0.0
5.396745213219768e6 -2.0490555238186612e6 0.0
0.0 0.0 0.0

-32022.01635818278 252529.25411836017 0.0
252529.25411836017 197107.80721805486 0.0
0.0 0.0 0.0

-1.5952760944948208e6 2.657679167217334e6 0.0
2.657679167217334e6 257695.15049766516 0.0
0.0 0.0 0.0

-260477.9543150654 5.566997621904045e6 0.0
5.566997621904045e6 -639240.8623835862 0.0
0.0 0.0 0.0

-542521.6619994577 3.1014653465322177e6 0.0
3.1014653465322177e6 -1.4580395514678853e6 0.0
0.0 0.0 0.0

-1.9502904895713509e6 4.487174106612391e6 0.0
4.487174106612391e6 158532.71745914803 0.0
0.0 0.0 0.0

-2.3681373349217894e6 1.030389161513262e7 0.0
1.030389161513262e7 -367532.811431157 0.0
0.0 0.0 0.0

-1.3596258553177258e6 5.543194558248232e6 0.0
5.543194558248232e6 -230053.119066686 0.0
0.0 0.0 0.0

-2.1415887549025686e6 4.21927120649161e6 0.0
4.21927120649161e6 183181.07258057117 0.0
0.0 0.0 0.0

-1.1398069766146815e6 3.105220277934756e6 0.0
3.105220277934756e6 781708.3364992233 0.0
0.0 0.0 0.0

-495708.3178946787 5.16725539391605e6 0.0
5.16725539391605e6 -769370.9929411251 0.0
0.0 0.0 0.0

-2.1693820649833754e6 3.9211537394750393e6 0.0
3.9211537394750393e6 602121.920346104 0.0
0.0 0.0 0.0

-611396.174691593 2.853536364416092e6 0.0
2.853536364416092e6 -1.4430960336803873e6 0.0
0.0 0.0 0.0

763074.907634489 3.2839436911778776e6 0.0
3.2839436911778776e6 -1.9036548834202373e6 0.0
0.0 0.0 0.0

-501480.3188972584 3.051010015829367e6 0.0
3.051010015829367e6 -1.459723215474081e6 0.0
0.0 0.0 0.0

-2.452545218371024e6 3.547589791769288e6 0.0
3.547589791769288e6 698553.4493656716 0.0
0.0 0.0 0.0

213047.17473099547 4.78310209908954e6 0.0
4.78310209908954e6 710157.2307505221 0.0
0.0 0.0 0.0

-193211.886432972 3.0936072023436036e6 0.0
3.0936072023436036e6 -644039.6807869547 0.0
0.0 0.0 0.0

-1.2109499594571153e6 1.5175878075189965e6 0.0
1.5175878075189965e6 1.9845810967132307e6 0.0
0.0 0.0 0.0

-1.7042298178896967e6 2.7393718936765776e6 0.0
2.7393718936765776e6 606199.7064282851 0.0
0.0 0.0 0.0

-1.1556398751748053e6 6.245455899522702e6 0.0
6.245455899522702e6 1.9493831203530678e6 0.0
0.0 0.0 0.0

-186315.99696554124 9949.187607152318 0.0
9949.187607152318 68047.75069224223 0.0
0.0 0.0 0.0

894531.7123612046 3.923679169442409e6 0.0
3.923679169442409e6 -2.0957470736216502e6 0.0
0.0 0.0 0.0

-388219.43315183505 4.070067268827096e6 0.0
4.070067268827096e6 -1.547489643693184e6 0.0
0.0 0.0 0.0

-2.0545528273948487e6 4.200920106559279e6 0.0
4.200920106559279e6 255842.11067793798 0.0
0.0 0.0 0.0

-291673.3824557217 4.133098394585675e6 0.0
4.133098394585675e6 1.2970128988547472e6 0.0
0.0 0.0 0.0

-284955.82366645953 1.7641390532111053e6 0.0
1.7641390532111053e6 -245802.2540173112 0.0
0.0 0.0 0.0

-4.534434591790351e6 5.213811311846843e6 0.0
5.213811311846843e6 1.7424642567004927e6 0.0
0.0 0.0 0.0

-918721.8311541999 4.808601650702239e6 0.0
4.808601650702239e6 -185076.60200852572 0.0
0.0 0.0 0.0

-3.6667052272893204e6 2.1720742578859692e6 0.0
2.1720742578859692e6 24411.383539897623 0.0
0.0 0.0 0.0

932980.9174599481 3.95574131418514e6 0.0
3.95574131418514e6 -2.0303062582826389e6 0.0
0.0 0.0 0.0

-1.4386294571635425e6 5.923878684771871e6 0.0
5.923878684771871e6 634424.4214795652 0.0
0.0 0.0 0.0

-5.642731688384845e6 2509.3103149740687 0.0
2509.3103149740687 7.963802820649991e6 0.0
0.0 0.0 0.0

-1.9547805015970801e6 4.2911954766617175e6 0.0
4.2911954766617175e6 377016.98018702806 0.0
0.0 0.0 0.0

-309189.50170499505 5.235603574515106e6 0.0
5.235603574515106e6 302527.3254602235 0.0
0.0 0.0 0.0

642699.7092016134 543485.6360369776 0.0
543485.6360369776 -772844.9822336251 0.0
0.0 0.0 0.0

-615529.7856334939 3.9092061389112095e6 0.0
3.9092061389112095e6 485733.9506735608 0.0
0.0 0.0 0.0

-980578.6357023225 4.876846322092147e6 0.0
4.876846322092147e6 -93695.94205606656 0.0
0.0 0.0 0.0

-160112.75512933405 1.5574743177410373e6 0.0
1.5574743177410373e6 -934840.5057524424 0.0
0.0 0.0 0.0

-820949.5886332502 4.702988354574727e6 0.0
4.702988354574727e6 -262428.33457171975 0.0
0.0 0.0 0.0

-298031.1296202849 5.4189351787362015e6 0.0
5.4189351787362015e6 -685656.9198832621 0.0
0.0 0.0 0.0

-1.6851352203233836e6 3.0317608347386043e6 0.0
3.0317608347386043e6 420036.5362844474 0.0
0.0 0.0 0.0

-384531.48565811437 3.549520086171989e6 0.0
3.549520086171989e6 -1.4791049224802135e6 0.0
0.0 0.0 0.0

-1.0185379223812193e6 3.607847917762401e6 0.0
3.607847917762401e6 -8090.738012371992 0.0
0.0 0.0 0.0

-1.0233234588997657e6 2.993916358968853e6 0.0
2.993916358968853e6 1.510189931458574e6 0.0
0.0 0.0 0.0

32876.695456022 509965.9184200676 0.0
509965.9184200676 71758.70778216775 0.0
0.0 0.0 0.0

-1.5358600158896912e6 4.869104597546013e6 0.0
4.869104597546013e6 60123.21850827878 0.0
0.0 0.0 0.0

-1.7132518576420322e6 4.535561752761651e6 0.0
4.535561752761651e6 165446.70279065485 0.0
0.0 0.0 0.0

-972123.0400000699 6.7421609590354655e6 0.0
6.7421609590354655e6 345959.4273031542 0.0
0.0 0.0 0.0

19088.832564780343 1.2796765000804437e6 0.0
1.2796765000804437e6 -293636.9577238581 0.0
0.0 0.0 0.0

-608513.9668139487 3.593464815836205e6 0.0
3.593464815836205e6 -1.5519035655919486e6 0.0
0.0 0.0 0.0

-2.0100823161824478e6 4.342675359622354e6 0.0
4.342675359622354e6 294098.177752365 0.0
0.0 0.0 0.0

-556591.3545051313 4.968528646252518e6 0.0
4.968528646252518e6 -1.0127136427024559e6 0.0
0.0 0.0 0.0

-1.6711067682825087e6 2.3806692293921155e6 0.0
2.3806692293921155e6 367864.6594107109 0.0
0.0 0.0 0.0

385737.4957785761 559189.8872735428 0.0
559189.8872735428 -521249.84238867334 0.0
0.0 0.0 0.0

-2.336722024346076e6 3.813646347547329e6 0.0
3.813646347547329e6 287147.07144823566 0.0
0.0 0.0 0.0

-2.353042457594696e6 3.2005936907686163e6 0.0
3.2005936907686163e6 1.167622211770455e6 0.0
0.0 0.0 0.0

-346315.0304204379 5.038840246923428e6 0.0
5.038840246923428e6 1.5374615380118769e6 0.0
0.0 0.0 0.0

641195.8332313327 398296.40686170687 0.0
398296.40686170687 -758665.6464414584 0.0
0.0 0.0 0.0

-182883.48536422336 4.683736955190683e6 0.0
4.683736955190683e6 -736433.6767595005 0.0
0.0 0.0 0.0

233092.4103939539 2.815638630219564e6 0.0
2.815638630219564e6 -1.4008423085221471e6 0.0
0.0 0.0 0.0

-2.905779543966373e6 6.936575216604454e6 0.0
6.936575216604454e6 940083.7535667573 0.0
0.0 0.0 0.0

-1.2183086153170897e6 4.82581554359373e6 0.0
4.82581554359373e6 88721.36249857128 0.0
0.0 0.0 0.0

429564.3210549242 2.154185880906892e6 0.0
2.154185880906892e6 -1.095958323699462e6 0.0
0.0 0.0 0.0

-639491.8997857991 4.866272760953852e6 0.0
4.866272760953852e6 -412875.80481684353 0.0
0.0 0.0 0.0

-266272.0059449094 2.933602170069523e6 0.0
2.933602170069523e6 -1.1442614556480923e6 0.0
0.0 0.0 0.0

-367917.10933263774 4.809704036583063e6 0.0
4.809704036583063e6 -1.4290550519183371e6 0.0
0.0 0.0 0.0

-3.330056513229808e6 3.081893393327663e6 0.0
3.081893393327663e6 1.0115382055081641e6 0.0
0.0 0.0 0.0

172932.43602467972 5.057832319164095e6 0.0
5.057832319164095e6 576441.6176266917 0.0
0.0 0.0 0.0

-1.8643820254240716e6 4.1296031767237806e6 0.0
4.1296031767237806e6 1.1556389408264505e6 0.0
0.0 0.0 0.0

-1.9994206601210234e6 3.5802760280103837e6 0.0
3.5802760280103837e6 700839.1661263931 0.0
0.0 0.0 0.0

-546937.6396791327 3.521884654243376e6 0.0
3.521884654243376e6 -589608.0024244537 0.0
0.0 0.0 0.0

-16852.121056695585 4.21794138382085e6 0.0
4.21794138382085e6 -1.132779816849526e6 0.0
0.0 0.0 0.0

-2.321363784702968e6 3.6683188110726676e6 0.0
3.6683188110726676e6 1.6172145934691606e6 0.0
0.0 0.0 0.0

-687456.2170240826 4.660410865615198e6 0.0
4.660410865615198e6 -381456.58789205714 0.0
0.0 0.0 0.0

-4.640430834308835e6 -589727.1492511265 0.0
-589727.1492511265 8.903133744395263e6 0.0
0.0 0.0 0.0

-1.4212337569447441e6 2.3358984246172975e6 0.0
2.3358984246172975e6 430999.9646120997 0.0
0.0 0.0 0.0

-285437.44248297473 3.6909380061892713e6 0.0
3.6909380061892713e6 -1.655230822310088e6 0.0
0.0 0.0 0.0

-561944.7508649487 4.781759368198485e6 0.0
4.781759368198485e6 -896870.183428977 0.0
0.0 0.0 0.0

-1.6203084405617584e6 3.3552390716151726e6 0.0
3.3552390716151726e6 834310.2350898047 0.0
0.0 0.0 0.0

-1.036221726596636e6 4.847614636175107e6 0.0
4.847614636175107e6 -100351.51140416524 0.0
0.0 0.0 0.0

-130426.4881994046 5.347391646856836e6 0.0
5.347391646856836e6 -434754.9818443546 0.0
0.0 0.0 0.0

-2.587873132860245e6 3.6040667941067377e6 0.0
3.6040667941067377e6 779557.3332706398 0.0
0.0 0.0 0.0

-896229.8748409232 4.814532307791965e6 0.0
4.814532307791965e6 -313330.58261964214 0.0
0.0 0.0 0.0

-2.7139856414250247e6 -1.5530468085204253e6 0.0
-1.5530468085204253e6 4.925536160884109e6 0.0
0.0 0.0 0.0

-277004.68484239076 2.573660408028682e6 0.0
2.573660408028682e6 -140767.20226279277 0.0
0.0 0.0 0.0

-553510.0177830666 5.012419605483495e6 0.0
5.012419605483495e6 -937379.0624909046 0.0
0.0 0.0 0.0

-2.54506487734563e6 4.106383327275802e6 0.0
4.106383327275802e6 -2661.0879536197754 0.0
0.0 0.0 0.0

363629.7787381727 510594.9003483075 0.0
510594.9003483075 -654981.2845107306 0.0
0.0 0.0 0.0

-3.0435241659735274e6 -354014.3961166132 0.0
-354014.3961166132 3.995879263593057e6 0.0
0.0 0.0 0.0

-513272.7489536583 -213646.8703354178 0.0
-213646.8703354178 -378585.91733028623 0.0
0.0 0.0 0.0

-1.4491346794184777e6 351194.13375774724 0.0
351194.13375774724 1.0012243092710325e6 0.0
0.0 0.0 0.0

-77085.38021328812 4.789096380615546e6 0.0
4.789096380615546e6 -1.2975333173911416e6 0.0
0.0 0.0 0.0

-2.4073571913170423e6 3.2260044013948166e6 0.0
3.2260044013948166e6 1.1252142192357038e6 0.0
0.0 0.0 0.0

-2.114205462572856e6 3.1492438990793e6 0.0
3.1492438990793e6 1.092962884566669e6 0.0
0.0 0.0 0.0

-1.1460625187066537e6 4.842950632833138e6 0.0
4.842950632833138e6 45527.85400448687 0.0
0.0 0.0 0.0

-596789.9046497382 3.4583341746650245e6 0.0
3.4583341746650245e6 -1.4034744619880717e6 0.0
0.0 0.0 0.0

-872467.5238467089 4.473577696442723e6 0.0
4.473577696442723e6 902198.6119303458 0.0
0.0 0.0 0.0

-474808.89767335134 3.9342047455048887e6 0.0
3.9342047455048887e6 -1.5830376407069112e6 0.0
0.0 0.0 0.0

-905421.7073826822 4.734374908689741e6 0.0
4.734374908689741e6 -216316.87550693483 0.0
0.0 0.0 0.0

-215023.75416267087 2.6247377571566408e6 0.0
2.6247377571566408e6 -1.2253869129547582e6 0.0
0.0 0.0 0.0

-274430.395540417 3.801473481547724e6 0.0
3.801473481547724e6 -1.1665565350970426e6 0.0
0.0 0.0 0.0

-1.889500878962771e6 4.363000252369357e6 0.0
4.363000252369357e6 1.0731228941715118e6 0.0
0.0 0.0 0.0

-3.8155968853849526e6 5.016968817140109e6 0.0
5.016968817140109e6 2.3324443415829334e6 0.0
0.0 0.0 0.0

-1.7936450146528673e6 4.480984257579068e6 0.0
4.480984257579068e6 159794.32702662714 0.0
0.0 0.0 0.0

-1.0234092213557346e6 3.717770109728728e6 0.0
3.717770109728728e6 -118698.4442646069 0.0
0.0 0.0 0.0

-1.3100884372919947e6 721314.8405275652 0.0
721314.8405275652 1.6122348281917863e6 0.0
0.0 0.0 0.0

-568826.733379232 4.976137977579741e6 0.0
4.976137977579741e6 -1.0392452412813196e6 0.0
0.0 0.0 0.0

-95290.8648790736 5.681578957348477e6 0.0
5.681578957348477e6 -616690.2921219537 0.0
0.0 0.0 0.0

-4.257700100920925e6 686388.6527573221 0.0
686388.6527573221 8.96014657006112e6 0.0
0.0 0.0 0.0

-558334.294547844 4.625844022923188e6 0.0
4.625844022923188e6 -423843.4249050586 0.0
0.0 0.0 0.0

-1.866125077969155e6 4.527944001683843e6 0.0
4.527944001683843e6 164784.78979962668 0.0
0.0 0.0 0.0

-387556.0403894913 2.8466291587555315e6 0.0
2.8466291587555315e6 -1.4196661543855956e6 0.0
0.0 0.0 0.0

-3.6752112328224126e6 35133.645118368404 0.0
35133.645118368404 4.845257977322222e6 0.0
0.0 0.0 0.0

-653463.6720628027 4.635783220839684e6 0.0
4.635783220839684e6 -360639.4236898422 0.0
0.0 0.0 0.0

-609501.6042603417 4.752604410664241e6 0.0
4.752604410664241e6 -784787.0033119004 0.0
0.0 0.0 0.0

-260887.10295524134 4.935774519388365e6 0.0
4.935774519388365e6 -1.5943504960954976e6 0.0
0.0 0.0 0.0

210969.74953735666 4.739851665833008e6 0.0
4.739851665833008e6 -1.6791572197463862e6 0.0
0.0 0.0 0.0

43164.7372848934 5.576129589732091e6 0.0
5.576129589732091e6 -1.8139179836553659e6 0.0
0.0 0.0 0.0

-923656.0472210271 2.6745891989879515e6 0.0
2.6745891989879515e6 -929341.2547177734 0.0
0.0 0.0 0.0

-2.3904837906247815e6 3.7393511979193194e6 0.0
3.7393511979193194e6 680112.4419368412 0.0
0.0 0.0 0.0

-2.0982151706485897e6 4.0839288848917754e6 0.0
4.0839288848917754e6 1.3349946154521536e6 0.0
0.0 0.0 0.0

-539966.6691941852 4.886154177064003e6 0.0
4.886154177064003e6 -1.1445979053728546e6 0.0
0.0 0.0 0.0

-55736.7528829918 6.714365402883436e6 0.0
6.714365402883436e6 -627193.0315913218 0.0
0.0 0.0 0.0

-2.042973993136394e6 -342662.3627108504 0.0
-342662.3627108504 3.8052511249640365e6 0.0
0.0 0.0 0.0

-295912.2469631968 3.046819776704241e6 0.0
3.046819776704241e6 -1.2974939841668026e6 0.0
0.0 0.0 0.0

-50813.87920554774 5.5224120341284005e6 0.0
5.5224120341284005e6 -1.8344863183585827e6 0.0
0.0 0.0 0.0

-5.375688549484339e6 -1.1301487986897437e6 0.0
-1.1301487986897437e6 1.0495324969480898e7 0.0
0.0 0.0 0.0

416407.89391223254 3.0692348531681127e6 0.0
3.0692348531681127e6 -674940.6932498179 0.0
0.0 0.0 0.0

-2.4142632962978343e6 40380.31124523243 0.0
40380.31124523243 4.514734396109097e6 0.0
0.0 0.0 0.0

85440.93490989404 599723.4101507083 0.0
599723.4101507083 -633447.9259819798 0.0
0.0 0.0 0.0

-2.5757241200991003e6 3.5646807314150515e6 0.0
3.5646807314150515e6 859719.555540414 0.0
0.0 0.0 0.0

137581.26585383248 5.187566530707043e6 0.0
5.187566530707043e6 -1.7478108043245333e6 0.0
0.0 0.0 0.0

-2.6034919503131714e6 3.534313686358805e6 0.0
3.534313686358805e6 359473.47657844925 0.0
0.0 0.0 0.0

-2.100672594621404e6 875477.3301030021 0.0
875477.3301030021 4.328911369143901e6 0.0
0.0 0.0 0.0

-266799.4223028995 2.0035483927916014e6 0.0
2.0035483927916014e6 -365312.9622936215 0.0
0.0 0.0 0.0

-1.3178519462830387e6 6.190723454647019e6 0.0
6.190723454647019e6 555085.505976674 0.0
0.0 0.0 0.0

-1.0068352413105486e6 4.912041407052811e6 0.0
4.912041407052811e6 55702.88879998907 0.0
0.0 0.0 0.0

-1.19830098119292e6 4.508220799012977e6 0.0
4.508220799012977e6 265630.66823668353 0.0
0.0 0.0 0.0

-1.4517916269100986e6 4.72698973370003e6 0.0
4.72698973370003e6 93816.8942868964 0.0
0.0 0.0 0.0

-258716.76591363025 4.0156655725350194e6 0.0
4.0156655725350194e6 -1.4506821252392964e6 0.0
0.0 0.0 0.0

-463417.62975537253 5.31661153732477e6 0.0
5.31661153732477e6 -558808.2552465616 0.0
0.0 0.0 0.0

-2.1179391108381213e6 5.446522312034681e6 0.0
5.446522312034681e6 2.3898138955270695e6 0.0
0.0 0.0 0.0

-1.9579292601119538e6 -1.6368739411114997e6 0.0
-1.6368739411114997e6 831721.5111141276 0.0
0.0 0.0 0.0

-1.5877431081502775e6 1.1990331759743097e6 0.0
1.1990331759743097e6 596785.0723861544 0.0
0.0 0.0 0.0

230538.75674737722 3.885780511888565e6 0.0
3.885780511888565e6 768462.6348309378 0.0
0.0 0.0 0.0

257599.66764230948 3.6625601935049556e6 0.0
3.6625601935049556e6 858665.6664922319 0.0
0.0 0.0 0.0

-2.953972154498263e6 7.4248126914607845e6 0.0
7.4248126914607845e6 720280.7363397151 0.0
0.0 0.0 0.0

1.1087180314245285e6 1.5059759743857128e6 0.0
1.5059759743857128e6 -2.2831927132951533e6 0.0
0.0 0.0 0.0

-3.1056091697275094e6 3.2932339677027664e6 0.0
3.2932339677027664e6 786578.2294820752 0.0
0.0 0.0 0.0

-5.43215311157294e6 -1.8416073648960292e6 0.0
-1.8416073648960292e6 5.173989248245949e6 0.0
0.0 0.0 0.0

-559406.5704961218 4.824383382948154e6 0.0
4.824383382948154e6 -869839.2857892031 0.0
0.0 0.0 0.0

-2.6736208120977757e6 1.090983334321987e6 0.0
1.090983334321987e6 4.0049211178313373e6 0.0
0.0 0.0 0.0

-543837.6025763596 5.002582655667457e6 0.0
5.002582655667457e6 -961731.4546517732 0.0
0.0 0.0 0.0

-1.2079552467657288e6 4.812935922006884e6 0.0
4.812935922006884e6 -9305.472729983507 0.0
0.0 0.0 0.0

-2.3587996824023025e6 3.240391218284137e6 0.0
3.240391218284137e6 1.1394357593502633e6 0.0
0.0 0.0 0.0

-519437.7454929496 4.98873483917366e6 0.0
4.98873483917366e6 -898147.3378413164 0.0
0.0 0.0 0.0

945617.3752545458 3.755963731260986e6 0.0
3.755963731260986e6 -2.033435265327113e6 0.0
0.0 0.0 0.0

-435081.7847151643 3.3029000012804624e6 0.0
3.3029000012804624e6 -1.4502725733197904e6 0.0
0.0 0.0 0.0

-322302.14758634195 5.717543600816756e6 0.0
5.717543600816756e6 -471530.07862484804 0.0
0.0 0.0 0.0

-497876.2290526286 4.851887671674301e6 0.0
4.851887671674301e6 -1.1777031471364712e6 0.0
0.0 0.0 0.0

-391304.9407598701 3.114364917503683e6 0.0
3.114364917503683e6 394366.4602622064 0.0
0.0 0.0 0.0

-338750.49319504114 3.98573539314066e6 0.0
3.98573539314066e6 -1.4487143554291185e6 0.0
0.0 0.0 0.0

-1.5866784957218622e6 3.4987305424606423e6 0.0
3.4987305424606423e6 229335.49993333733 0.0
0.0 0.0 0.0

-1.3896868371753867e6 4.762256625135392e6 0.0
4.762256625135392e6 2.2061079150743717e6 0.0
0.0 0.0 0.0

-1.0791980871165288e6 8.473715852903424e6 0.0
8.473715852903424e6 -264461.2823174854 0.0
0.0 0.0 0.0

-308208.19380138814 4.751135665520674e6 0.0
4.751135665520674e6 -1.4658366401450275e6 0.0
0.0 0.0 0.0

-4.141422734737887e6 -1.4976202212565413e6 0.0
-1.4976202212565413e6 4.50584566984257e6 0.0
0.0 0.0 0.0

-285202.2028170357 4.912908728052421e6 0.0
4.912908728052421e6 -568488.1323247727 0.0
0.0 0.0 0.0

-2.948317355539828e6 3.255173197718221e6 0.0
3.255173197718221e6 543520.382604443 0.0
0.0 0.0 0.0

-828794.2406226465 3.4872365967817144e6 0.0
3.4872365967817144e6 -204648.2545182414 0.0
0.0 0.0 0.0

-1.8537798225124993e6 4.357656886745991e6 0.0
4.357656886745991e6 222166.91986773175 0.0
0.0 0.0 0.0

-7.119464299324315e6 -338716.9990000369 0.0
-338716.9990000369 9.192968323947176e6 0.0
0.0 0.0 0.0

-390064.51097082096 4.315215214061143e6 0.0
4.315215214061143e6 -1.0367975268099422e6 0.0
0.0 0.0 0.0

-1.9355000169631825e6 6.089889571630046e6 0.0
6.089889571630046e6 381336.30941815407 0.0
0.0 0.0 0.0

-1.3942465078325334e6 2.8920913188745696e6 0.0
2.8920913188745696e6 388514.4340990133 0.0
0.0 0.0 0.0

-5.316880934669087e6 -776301.4549165703 0.0
-776301.4549165703 3.0246567192629594e6 0.0
0.0 0.0 0.0

-1.6621986188467715e6 3.1529227069074805e6 0.0
3.1529227069074805e6 410843.72805419087 0.0
0.0 0.0 0.0

2550.6063354348807 1.252316177538675e6 0.0
1.252316177538675e6 -148128.33694934793 0.0
0.0 0.0 0.0

-1.8993799028541038e6 1.4361026327483123e6 0.0
1.4361026327483123e6 4.517564197892692e6 0.0
0.0 0.0 0.0

-2.479103664203179e6 3.523971586845467e6 0.0
3.523971586845467e6 668996.4152109621 0.0
0.0 0.0 0.0

-3.2571207168246475e6 3.1891784893621253e6 0.0
3.1891784893621253e6 844307.9127891366 0.0
0.0 0.0 0.0

-2.7791525365940183e6 447071.90407344804 0.0
447071.90407344804 5.425792504158783e6 0.0
0.0 0.0 0.0

-332894.9054956932 2.623616972670235e6 0.0
2.623616972670235e6 -820233.3358496709 0.0
0.0 0.0 0.0

-209636.64158176142 5.292493853337012e6 0.0
5.292493853337012e6 -826258.1063818582 0.0
0.0 0.0 0.0

-358088.5735249651 3.364535946720662e6 0.0
3.364535946720662e6 -1.5284717658645462e6 0.0
0.0 0.0 0.0

-880993.6295643763 1.6138840195787745e6 0.0
1.6138840195787745e6 1.296181758111745e6 0.0
0.0 0.0 0.0

-2.709798908382512e6 3.5390004411139116e6 0.0
3.5390004411139116e6 664365.4676346242 0.0
0.0 0.0 0.0

-1.064190377548737e6 2.106378977803182e6 0.0
2.106378977803182e6 1.4056264158028967e6 0.0
0.0 0.0 0.0

-285560.01817065594 4.855542491216836e6 0.0
4.855542491216836e6 -1.6169201741636721e6 0.0
0.0 0.0 0.0

-2.3251535320911678e6 4.482620065174016e6 0.0
4.482620065174016e6 -4390.438033886487 0.0
0.0 0.0 0.0

-1.4293798822379038e6 4.646523729664015e6 0.0
4.646523729664015e6 483583.1574704588 0.0
0.0 0.0 0.0

785879.7747484435 3.2784403711416814e6 0.0
3.2784403711416814e6 -1.5867177163014924e6 0.0
0.0 0.0 0.0

-551834.5715085147 4.628017725596275e6 0.0
4.628017725596275e6 -209244.4366469133 0.0
0.0 0.0 0.0

-2.325334508231827e6 3.15713042259269e6 0.0
3.15713042259269e6 1.0443966863228958e6 0.0
0.0 0.0 0.0

-508107.29801268806 4.810361429727583e6 0.0
4.810361429727583e6 -847266.5996650789 0.0
0.0 0.0 0.0

-2.6700768516429816e6 3.406675945864504e6 0.0
3.406675945864504e6 366735.4457740978 0.0
0.0 0.0 0.0

-2.3567908186763604e6 3.2966521216165936e6 0.0
3.2966521216165936e6 1.2352103244248652e6 0.0
0.0 0.0 0.0

-2.4819956951891505e6 3.459798746160753e6 0.0
3.459798746160753e6 654740.5744728706 0.0
0.0 0.0 0.0

-450274.9103112037 2.1649383770702034e6 0.0
2.1649383770702034e6 52081.16187491579 0.0
0.0 0.0 0.0

-26641.500522032846 5.164279911885913e6 0.0
5.164279911885913e6 -584624.2115044843 0.0
0.0 0.0 0.0

-414002.9257986141 4.803783963034423e6 0.0
4.803783963034423e6 -1.3627735169967434e6 0.0
0.0 0.0 0.0

-1.7397936754589418e6 3.144156319345552e6 0.0
3.144156319345552e6 437369.7103593836 0.0
0.0 0.0 0.0

-525999.3849722105 4.73332637570871e6 0.0
4.73332637570871e6 -1.0750013515813295e6 0.0
0.0 0.0 0.0

576816.2513833047 3.909718306605459e6 0.0
3.909718306605459e6 -1.9098524949454998e6 0.0
0.0 0.0 0.0

-1.0543964573130114e6 3.267430138572645e6 0.0
3.267430138572645e6 2.3396056656612097e6 0.0
0.0 0.0 0.0

-49457.570668695786 -70866.91662747807 0.0
-70866.91662747807 417510.92725675635 0.0
0.0 0.0 0.0

-48441.12865687952 5.181180118367889e6 0.0
5.181180118367889e6 -466341.2753294841 0.0
0.0 0.0 0.0

-2.389279301543712e6 3.6110901894316627e6 0.0
3.6110901894316627e6 732764.351172816 0.0
0.0 0.0 0.0

-331038.1390492951 4.861529722223139e6 0.0
4.861529722223139e6 -1.5054430518447345e6 0.0
0.0 0.0 0.0

-1.5240365057955016e6 5.659572984238354e6 0.0
5.659572984238354e6 649533.4349504216 0.0
0.0 0.0 0.0

-582362.2443094915 4.721391075140043e6 0.0
4.721391075140043e6 -314793.79983013327 0.0
0.0 0.0 0.0

213439.51507107576 5.319217844547312e6 0.0
5.319217844547312e6 -1.968089145891673e6 0.0
0.0 0.0 0.0

-1.5462096885264833e6 4.6153967173207505e6 0.0
4.6153967173207505e6 97221.02942437422 0.0
0.0 0.0 0.0

-452164.7546607464 4.756557691353683e6 0.0
4.756557691353683e6 -1.2789805257738226e6 0.0
0.0 0.0 0.0

551884.9119516099 1.2303416010142032e6 0.0
1.2303416010142032e6 -811805.0898830325 0.0
0.0 0.0 0.0

-1.9917658584956764e6 6.825473359288819e6 0.0
6.825473359288819e6 1.4006439351209553e6 0.0
0.0 0.0 0.0

-1.128530490340227e6 4.8512223522997275e6 0.0
4.8512223522997275e6 1582.9811782650067 0.0
0.0 0.0 0.0

-2.408824613295112e6 3.5960578803853216e6 0.0
3.5960578803853216e6 708963.2955787088 0.0
0.0 0.0 0.0

-464402.4678323243 4.592393235928385e6 0.0
4.592393235928385e6 -485068.61107538576 0.0
0.0 0.0 0.0

441768.31052519 917770.5924890428 0.0
917770.5924890428 -759184.8345330784 0.0
0.0 0.0 0.0

-2.147784701277365e6 347384.7877372476 0.0
347384.7877372476 2.7507492925264165e6 0.0
0.0 0.0 0.0

-541268.3261146545 4.763175431842277e6 0.0
4.763175431842277e6 -977620.1431734167 0.0
0.0 0.0 0.0

-455978.13842538814 2.5610904437316675e6 0.0
2.5610904437316675e6 -1.0941971247953041e6 0.0
0.0 0.0 0.0

272282.91214578436 1.7702953194260949e6 0.0
1.7702953194260949e6 -440690.49477294274 0.0
0.0 0.0 0.0

3904.7912349872495 526163.2052292043 0.0
526163.2052292043 -280753.8427352078 0.0
0.0 0.0 0.0

-998498.1764342334 3.524806331280466e6 0.0
3.524806331280466e6 -235.12538385990774 0.0
0.0 0.0 0.0

-1.7265008701939033e6 4.573433346919984e6 0.0
4.573433346919984e6 724528.4232175122 0.0
0.0 0.0 0.0

-609083.9936237754 3.711526602663256e6 0.0
3.711526602663256e6 -1.3703860909552586e6 0.0
0.0 0.0 0.0

896051.8664539551 2.56472053666873e6 0.0
2.56472053666873e6 -1.417460232218156e6 0.0
0.0 0.0 0.0

-2.72549718103895e6 3.544158685063076e6 0.0
3.544158685063076e6 911950.5773541069 0.0
0.0 0.0 0.0

-1.1700489008765235e6 4.724119650460901e6 0.0
4.724119650460901e6 260528.84584534395 0.0
0.0 0.0 0.0

-4.938784254965752e6 2.5571325994652486e6 0.0
2.5571325994652486e6 1.814261432895393e6 0.0
0.0 0.0 0.0

-2.6169711424016794e6 3.606422998348786e6 0.0
3.606422998348786e6 715726.2627666146 0.0
0.0 0.0 0.0

-5.099057681610951e6 4.726789005476741e6 0.0
4.726789005476741e6 3.6366294610328563e6 0.0
0.0 0.0 0.0

-1.0640008286333312e6 5.060713763423856e6 0.0
5.060713763423856e6 -296714.0938778053 0.0
0.0 0.0 0.0

-623723.8170590445 2.7071656956619485e6 0.0
2.7071656956619485e6 -1.0021188963929095e6 0.0
0.0 0.0 0.0

-1.647222220163991e6 3.0735544280656283e6 0.0
3.0735544280656283e6 336478.05427785614 0.0
0.0 0.0 0.0

-698789.0108533157 -427000.2845128241 0.0
-427000.2845128241 888101.9143028103 0.0
0.0 0.0 0.0

-2.7256661026369995e6 -923872.7566220766 0.0
-923872.7566220766 4.297984585985611e6 0.0
0.0 0.0 0.0

835799.3700093915 4.275465653652229e6 0.0
4.275465653652229e6 -2.0344118629793255e6 0.0
0.0 0.0 0.0

-1.4644663906191073e6 4.710139814657443e6 0.0
4.710139814657443e6 116070.05797458993 0.0
0.0 0.0 0.0

-3.671748349876749e6 979017.2880165817 0.0
979017.2880165817 7.948251139518976e6 0.0
0.0 0.0 0.0

-489732.6658843857 4.732535174128738e6 0.0
4.732535174128738e6 -1.1763967027213168e6 0.0
0.0 0.0 0.0

-4.87651260721843e6 1.534428780516018e6 0.0
1.534428780516018e6 6.9880803806069065e6 0.0
0.0 0.0 0.0

-1.8511445262261261e6 4.535593587872429e6 0.0
4.535593587872429e6 319090.1513209301 0.0
0.0 0.0 0.0

-2.742503273635476e6 5.888667810027213e6 0.0
5.888667810027213e6 1.0917317017690893e6 0.0
0.0 0.0 0.0

-558797.9286466476 4.831773468257029e6 0.0
4.831773468257029e6 -132160.28496542576 0.0
0.0 0.0 0.0

-55671.40523974871 1.0520640664802282e6 0.0
1.0520640664802282e6 -496959.0840797755 0.0
0.0 0.0 0.0

-385682.35004935646 4.696413158642578e6 0.0
4.696413158642578e6 -525486.2090991114 0.0
0.0 0.0 0.0

-1.0362170407889894e6 3.5570600945248115e6 0.0
3.5570600945248115e6 -57227.48724206176 0.0
0.0 0.0 0.0

889945.8936662029 3.5609977360055097e6 0.0
3.5609977360055097e6 -2.1219174566386985e6 0.0
0.0 0.0 0.0

-401769.8389043858 5.361832826013991e6 0.0
5.361832826013991e6 -587173.4995982093 0.0
0.0 0.0 0.0

-5.352131030404292e6 461518.1176272049 0.0
461518.1176272049 3.980339858303256e6 0.0
0.0 0.0 0.0

-2.661261011064113e6 5.8838629189197095e6 0.0
5.8838629189197095e6 -288181.7920225359 0.0
0.0 0.0 0.0

-2.8259631387772113e6 3.58058281990891e6 0.0
3.58058281990891e6 1.1557106296009307e6 0.0
0.0 0.0 0.0

-723422.034581069 2.2356761187411346e6 0.0
2.2356761187411346e6 -565550.7831404272 0.0
0.0 0.0 0.0

-1.1812419393058529e6 4.951547970803282e6 0.0
4.951547970803282e6 -67007.84699682484 0.0
0.0 0.0 0.0

-2.946730202431595e6 5.073339851594052e6 0.0
5.073339851594052e6 1.5399153390833496e6 0.0
0.0 0.0 0.0

-631758.3045333516 4.572594817688989e6 0.0
4.572594817688989e6 20869.42181171538 0.0
0.0 0.0 0.0

-516649.055889165 4.619678298387574e6 0.0
4.619678298387574e6 -409623.7483966339 0.0
0.0 0.0 0.0

-531708.039531652 2.2950902539588353e6 0.0
2.2950902539588353e6 -686594.6432590535 0.0
0.0 0.0 0.0

-3.421860140101918e6 3.465963115087754e6 0.0
3.465963115087754e6 1.3343334346778456e6 0.0
0.0 0.0 0.0

-142234.10755459894 504544.409985104 0.0
504544.409985104 -175231.45958356213 0.0
0.0 0.0 0.0

868753.2274945992 3.3749063766832077e6 0.0
3.3749063766832077e6 -1.7595600107934934e6 0.0
0.0 0.0 0.0

-2.729563203170758e6 4.416561205523534e6 0.0
4.416561205523534e6 1.4550672354692428e6 0.0
0.0 0.0 0.0

-373251.5152021821 4.825888497131175e6 0.0
4.825888497131175e6 -1.397684648906848e6 0.0
0.0 0.0 0.0

242886.35492488864 681940.5471313698 0.0
681940.5471313698 -635109.7722969247 0.0
0.0 0.0 0.0

-345010.2336836746 1.6061277903354547e6 0.0
1.6061277903354547e6 -1.5942161640927137e6 0.0
0.0 0.0 0.0

-3.003205726074443e6 4.178929083037573e6 0.0
4.178929083037573e6 2.3230500098225074e6 0.0
0.0 0.0 0.0

-47655.555470202584 5.011181459819104e6 0.0
5.011181459819104e6 -2.0428750528073455e6 0.0
0.0 0.0 0.0

-565863.9330050553 2.865397714942171e6 0.0
2.865397714942171e6 1.7504660500206067e6 0.0
0.0 0.0 0.0

-511058.5978865735 2.2558618327301666e6 0.0
2.2558618327301666e6 -108716.2428508854 0.0
0.0 0.0 0.0

433432.0818824324 1.2864438051659768e6 0.0
1.2864438051659768e6 -1.1189302068877656e6 0.0
0.0 0.0 0.0

-1.1728786846872154e6 6.460933984129819e6 0.0
6.460933984129819e6 468704.74581871147 0.0
0.0 0.0 0.0

25142.904405561796 898392.5815532145 0.0
898392.5815532145 169363.86749886096 0.0
0.0 0.0 0.0

-405154.37451751635 3.818047477711733e6 0.0
3.818047477711733e6 -801205.2629468468 0.0
0.0 0.0 0.0

-449634.3580180285 4.933764902025823e6 0.0
4.933764902025823e6 -954544.3176023467 0.0
0.0 0.0 0.0

-718862.3447042266 6.759808233328057e6 0.0
6.759808233328057e6 -450005.5858660536 0.0
0.0 0.0 0.0

-452362.3935818897 4.638243480397728e6 0.0
4.638243480397728e6 -1.0343262990982534e6 0.0
0.0 0.0 0.0

-241384.73888371367 5.276323759949844e6 0.0
5.276323759949844e6 529628.0640520505 0.0
0.0 0.0 0.0

-1.7346153260360092e6 4.503619488597358e6 0.0
4.503619488597358e6 193680.27036146342 0.0
0.0 0.0 0.0

-49464.05826374685 -292133.56138833857 0.0
-292133.56138833857 473241.8968928193 0.0
0.0 0.0 0.0

-2.4919638723512357e6 4.650935240404224e6 0.0
4.650935240404224e6 1.3795261672032047e6 0.0
0.0 0.0 0.0

-370593.4853729331 4.668653472492787e6 0.0
4.668653472492787e6 -410156.7783550997 0.0
0.0 0.0 0.0

38937.11462079326 5.00846777321982e6 0.0
5.00846777321982e6 -1.3236690890879203e6 0.0
0.0 0.0 0.0

947312.3389491229 4.006092602508948e6 0.0
4.006092602508948e6 -1.8852470659482814e6 0.0
0.0 0.0 0.0

-2.3787800243822634e6 3.329796341550143e6 0.0
3.329796341550143e6 1.1525353488328636e6 0.0
0.0 0.0 0.0

-130222.98263658516 2.9154514995316076e6 0.0
2.9154514995316076e6 2183.3094262980303 0.0
0.0 0.0 0.0

-1.0975593307322352e6 1.521742109811257e6 0.0
1.521742109811257e6 2.4118002485218905e6 0.0
0.0 0.0 0.0

-309614.9680981639 4.939261772653623e6 0.0
4.939261772653623e6 -1.5829118334317538e6 0.0
0.0 0.0 0.0

-646480.1593489876 2.8767234256343353e6 0.0
2.8767234256343353e6 -1.011287163706937e6 0.0
0.0 0.0 0.0

-2.523362954903498e6 4.8325653988183625e6 0.0
4.8325653988183625e6 1.3874110984808027e6 0.0
0.0 0.0 0.0

-492188.1151460471 4.561679670347441e6 0.0
4.561679670347441e6 -469077.61303320306 0.0
0.0 0.0 0.0

-7.249330763909709e6 -1.068317860198551e6 0.0
-1.068317860198551e6 4.2213408274775455e6 0.0
0.0 0.0 0.0

-447196.8757715961 5.3842900061752945e6 0.0
5.3842900061752945e6 1.179260175499619e6 0.0
0.0 0.0 0.0

-3.0540126598450122e6 2.357132083350332e6 0.0
2.357132083350332e6 -676388.0629929139 0.0
0.0 0.0 0.0

174725.23336504935 5.35186756441934e6 0.0
5.35186756441934e6 -1.9159452623349174e6 0.0
0.0 0.0 0.0

948600.3754590589 1.4849340549454077e6 0.0
1.4849340549454077e6 571703.6819990071 0.0
0.0 0.0 0.0

-1.2614843065161936e6 -616012.7266507875 0.0
-616012.7266507875 1.3765435048797738e6 0.0
0.0 0.0 0.0

443744.9133061349 2.4595251989371195e6 0.0
2.4595251989371195e6 -45361.651889753644 0.0
0.0 0.0 0.0

-94600.92199427202 146363.9092709868 0.0
146363.9092709868 277533.77634297527 0.0
0.0 0.0 0.0

-137690.45948089228 690894.1084643721 0.0
690894.1084643721 -291178.9400477927 0.0
0.0 0.0 0.0

-461051.72809692327 4.73465946250438e6 0.0
4.73465946250438e6 -1.0804007014612872e6 0.0
0.0 0.0 0.0

-454279.3279850124 3.370653551528611e6 0.0
3.370653551528611e6 -1.5142644048589591e6 0.0
0.0 0.0 0.0

-155675.87436934587 5.3106501603785325e6 0.0
5.3106501603785325e6 -518919.5821998514 0.0
0.0 0.0 0.0

-516015.49712679395 4.992023697168459e6 0.0
4.992023697168459e6 -1.0062713850535415e6 0.0
0.0 0.0 0.0

-2.5494003379377387e6 5.029150597200586e6 0.0
5.029150597200586e6 1.3804964754643333e6 0.0
0.0 0.0 0.0

278367.6416753904 2.351376584410719e6 0.0
2.351376584410719e6 -457590.1994956144 0.0
0.0 0.0 0.0

-539542.1633782081 4.671616347141088e6 0.0
4.671616347141088e6 -911391.9045641702 0.0
0.0 0.0 0.0

-2.2596924015626153e6 3.4262153905663434e6 0.0
3.4262153905663434e6 880546.8947796074 0.0
0.0 0.0 0.0

552228.8300393829 5.187319335719594e6 0.0
5.187319335719594e6 -2.0251046286605722e6 0.0
0.0 0.0 0.0

-327583.6522102393 628252.880536503 0.0
628252.880536503 -77983.95780908795 0.0
0.0 0.0 0.0

-2.218223083915246e6 4.662460861793067e6 0.0
4.662460861793067e6 1.1634818866130868e6 0.0
0.0 0.0 0.0

-532086.8185666957 4.561100506323623e6 0.0
4.561100506323623e6 -448606.78307553555 0.0
0.0 0.0 0.0

-596014.3175501153 4.57071582893806e6 0.0
4.57071582893806e6 -424992.23230792297 0.0
0.0 0.0 0.0

-2.2512980630347515e6 4.231309982524581e6 0.0
4.231309982524581e6 1.4048046550954203e6 0.0
0.0 0.0 0.0

-48999.945404168946 5.051957034084217e6 0.0
5.051957034084217e6 -555777.1499835092 0.0
0.0 0.0 0.0

-2.178087295496691e6 5.871423184763137e6 0.0
5.871423184763137e6 1.1383878450783035e6 0.0
0.0 0.0 0.0

-3.19929153166847e6 888273.7075482333 0.0
888273.7075482333 4.604666909100477e6 0.0
0.0 0.0 0.0

-289107.1426832618 -440342.8098937755 0.0
-440342.8098937755 368992.3784341491 0.0
0.0 0.0 0.0

29503.085272663273 5.237318704590529e6 0.0
5.237318704590529e6 -1.7263718775515296e6 0.0
0.0 0.0 0.0

849849.8885112774 4.1223781366912546e6 0.0
4.1223781366912546e6 -2.0295219305348285e6 0.0
0.0 0.0 0.0

-516317.8349450348 4.675218430630412e6 0.0
4.675218430630412e6 -834889.6135032406 0.0
0.0 0.0 0.0

-187860.88107468994 3.3460910285264794e6 0.0
3.3460910285264794e6 -351597.58639570506 0.0
0.0 0.0 0.0

1.0742176809520826e6 2.281952411401058e6 0.0
2.281952411401058e6 -1.8802080767967808e6 0.0
0.0 0.0 0.0

-624354.7806546954 2.828432340292212e6 0.0
2.828432340292212e6 -1.497020509813397e6 0.0
0.0 0.0 0.0

-660719.1862622313 3.153502662477228e6 0.0
3.153502662477228e6 -1.0302497791534988e6 0.0
0.0 0.0 0.0

-1.0794154376864347e6 3.6849506239268575e6 0.0
3.6849506239268575e6 51996.32275986334 0.0
0.0 0.0 0.0

-1.4148726016050407e6 4.768936992261511e6 0.0
4.768936992261511e6 123614.62018958037 0.0
0.0 0.0 0.0

-2.5835861988694514e6 6.110110524269491e6 0.0
6.110110524269491e6 1.3525635593268394e6 0.0
0.0 0.0 0.0

-1.3142610724375749e6 -431728.82741497527 0.0
-431728.82741497527 3.002131662684045e6 0.0
0.0 0.0 0.0

-673644.3382419747 3.63834976697838e6 0.0
3.63834976697838e6 -1.167155673378634e6 0.0
0.0 0.0 0.0

-3.628561255438448e6 634832.8413883431 0.0
634832.8413883431 5.248353071462044e6 0.0
0.0 0.0 0.0

-663579.828651986 4.606884063238349e6 0.0
4.606884063238349e6 -369271.9366026439 0.0
0.0 0.0 0.0

-2.7994420470378296e6 4.933316923319402e6 0.0
4.933316923319402e6 1.230535817581125e6 0.0
0.0 0.0 0.0

-2.0343653191132257e6 4.463410799452304e6 0.0
4.463410799452304e6 140620.56188473233 0.0
0.0 0.0 0.0

-899787.765419005 1.534300129714501e6 0.0
1.534300129714501e6 1.7645188474735061e6 0.0
0.0 0.0 0.0

-478131.73881726456 3.474119087514744e6 0.0
3.474119087514744e6 -1.6705035851353672e6 0.0
0.0 0.0 0.0

-88282.49266790527 5.187088887647623e6 0.0
5.187088887647623e6 -604927.2666552452 0.0
0.0 0.0 0.0

755191.1766550826 4.376115743560119e6 0.0
4.376115743560119e6 -2.0883307222132962e6 0.0
0.0 0.0 0.0

-283062.29450921883 1.382821544318561e6 0.0
1.382821544318561e6 -2.409637636503686e6 0.0
0.0 0.0 0.0

-1.5307234689172166e6 678936.33059991 0.0
678936.33059991 3.2093855482846727e6 0.0
0.0 0.0 0.0

-987548.8863318539 4.869711242084903e6 0.0
4.869711242084903e6 -101653.40923716131 0.0
0.0 0.0 0.0

-2.3459395673766662e6 4.0742624281719527e6 0.0
4.0742624281719527e6 -726285.4259634495 0.0
0.0 0.0 0.0

-247483.733827903 4.90191317107512e6 0.0
4.90191317107512e6 -1.6409233840483835e6 0.0
0.0 0.0 0.0

288636.37284329964 5.552036712564418e6 0.0
5.552036712564418e6 -1.8851601992480892e6 0.0
0.0 0.0 0.0

-654544.0289164935 4.005688524578842e6 0.0
4.005688524578842e6 -1.3583973422752083e6 0.0
0.0 0.0 0.0

734782.9005619881 1.555209280571044e6 0.0
1.555209280571044e6 -1.6388724920704463e6 0.0
0.0 0.0 0.0

-715074.528783393 3.805958882304008e6 0.0
3.805958882304008e6 -312562.1163211349 0.0
0.0 0.0 0.0

-515645.3255118325 5.119876049025834e6 0.0
5.119876049025834e6 -559828.8626287216 0.0
0.0 0.0 0.0

-3.3854132592798425e6 2.325446087270291e6 0.0
2.325446087270291e6 1.0462442192029608e6 0.0
0.0 0.0 0.0

1.1887840899869725e6 762676.8159234232 0.0
762676.8159234232 -644121.0517681336 0.0
0.0 0.0 0.0

-398293.6371347506 4.7742070032375e6 0.0
4.7742070032375e6 -1.2980022198928166e6 0.0
0.0 0.0 0.0

-843549.9724891774 2.3366948722078684e6 0.0
2.3366948722078684e6 1.7115191393452818e6 0.0
0.0 0.0 0.0

5856.366749967856 762895.8476903389 0.0
762895.8476903389 526749.2227479105 0.0
0.0 0.0 0.0

847334.4870857571 3.576836570429455e6 0.0
3.576836570429455e6 -2.0162229377791951e6 0.0
0.0 0.0 0.0

77920.66780813521 1.5534871311925794e6 0.0
1.5534871311925794e6 449534.3089925458 0.0
0.0 0.0 0.0

-17366.94457071893 903683.8785999317 0.0
903683.8785999317 -41715.565502490295 0.0
0.0 0.0 0.0

622617.3474517858 2.106266647884945e6 0.0
2.106266647884945e6 -512929.7670812735 0.0
0.0 0.0 0.0

-1.1539117878427566e6 4.848532457755075e6 0.0
4.848532457755075e6 136576.96149295697 0.0
0.0 0.0 0.0

-1.5845552718858016e6 2.8457150731675797e6 0.0
2.8457150731675797e6 427766.4966990778 0.0
0.0 0.0 0.0

2.5895289341430957e6 3.6029785466003893e6 0.0
3.6029785466003893e6 196789.228993378 0.0
0.0 0.0 0.0

-2.901220068645888e6 -1.2444486158538216e6 0.0
-1.2444486158538216e6 2.7148602263175733e6 0.0
0.0 0.0 0.0

895139.1208490042 1.5025952370155735e6 0.0
1.5025952370155735e6 -1.6758429008963797e6 0.0
0.0 0.0 0.0

516701.5213956529 5.383565773847573e6 0.0
5.383565773847573e6 -1.6335618081378657e6 0.0
0.0 0.0 0.0

811129.1921893085 4.746333472335483e6 0.0
4.746333472335483e6 -1.3719028484148665e6 0.0
0.0 0.0 0.0

-371786.573509114 79528.50243343285 0.0
79528.50243343285 713274.7633241958 0.0
0.0 0.0 0.0

-637551.677290828 101060.98620192985 0.0
101060.98620192985 670079.7735532296 0.0
0.0 0.0 0.0

-477001.71805487684 3.520702264327233e6 0.0
3.520702264327233e6 -1.5241564145469596e6 0.0
0.0 0.0 0.0

882259.0654631879 3.98922381055557e6 0.0
3.98922381055557e6 -2.1094697532354384e6 0.0
0.0 0.0 0.0

-3.096418752539272e6 6.991290897559607e6 0.0
6.991290897559607e6 606932.2349453203 0.0
0.0 0.0 0.0

-1.3866834300277713e6 3.515364392993669e6 0.0
3.515364392993669e6 718466.481988406 0.0
0.0 0.0 0.0

-1.9872184060208523e6 4.603096620031379e6 0.0
4.603096620031379e6 937827.9040646858 0.0
0.0 0.0 0.0

-18360.621072101378 5.119395848178748e6 0.0
5.119395848178748e6 -576292.1969315816 0.0
0.0 0.0 0.0

-519815.02196319087 2.637013461210348e6 0.0
2.637013461210348e6 2.2796466045120466e6 0.0
0.0 0.0 0.0

-3.2865767764712516e6 4.359797251989306e6 0.0
4.359797251989306e6 1.8756204022805982e6 0.0
0.0 0.0 0.0

-598455.5532160593 99874.18755651044 0.0
99874.18755651044 1.681953422378041e6 0.0
0.0 0.0 0.0

-1.283430588435679e6 4.808361290239688e6 0.0
4.808361290239688e6 73353.63899849867 0.0
0.0 0.0 0.0

-492210.1887893274 5.2041894328098055e6 0.0
5.2041894328098055e6 -568096.5136801137 0.0
0.0 0.0 0.0

-967914.0710125538 2.7036138540443354e6 0.0
2.7036138540443354e6 1.5592116818064754e6 0.0
0.0 0.0 0.0

49601.643798035875 386431.2030231972 0.0
386431.2030231972 73152.79967688829 0.0
0.0 0.0 0.0

-2.738528511601908e6 4.578379170401013e6 0.0
4.578379170401013e6 1.2676872635528282e6 0.0
0.0 0.0 0.0

314187.0430775181 5.45182528108889e6 0.0
5.45182528108889e6 -1.9716975273913527e6 0.0
0.0 0.0 0.0

-1.1214526232904452e6 4.94737208445303e6 0.0
4.94737208445303e6 212575.58404340822 0.0
0.0 0.0 0.0

927184.6026377428 4.182871095843455e6 0.0
4.182871095843455e6 -1.7757520725381323e6 0.0
0.0 0.0 0.0

240778.14201330993 3.7434499759546234e6 0.0
3.7434499759546234e6 1.0960866787404243e6 0.0
0.0 0.0 0.0

-1.2670753172898511e6 3.465312836913764e6 0.0
3.465312836913764e6 -32814.24382799695 0.0
0.0 0.0 0.0

279544.3501625068 647552.9023960299 0.0
647552.9023960299 -672923.919353232 0.0
0.0 0.0 0.0

-580277.2292452042 2.9436656153236204e6 0.0
2.9436656153236204e6 -1.3579742038096117e6 0.0
0.0 0.0 0.0

970586.0677647856 3.8313979088282706e6 0.0
3.8313979088282706e6 -1.8694430427131099e6 0.0
0.0 0.0 0.0

-911797.1594484441 6.601652915396721e6 0.0
6.601652915396721e6 -303605.96606172353 0.0
0.0 0.0 0.0

1.2175695783028407e6 1.758866604007079e6 0.0
1.758866604007079e6 -2.303733227407881e6 0.0
0.0 0.0 0.0

-229011.8654921361 1.7530913679038319e6 0.0
1.7530913679038319e6 -529171.807930752 0.0
0.0 0.0 0.0

-2.401953804534487e6 3.598282516678927e6 0.0
3.598282516678927e6 779965.9859603157 0.0
0.0 0.0 0.0

-631893.602216016 4.443146465402727e6 0.0
4.443146465402727e6 -1.4957133586524117e6 0.0
0.0 0.0 0.0

-499258.6947404877 3.4764720686246133e6 0.0
3.4764720686246133e6 -1.6641956313431105e6 0.0
0.0 0.0 0.0

-162978.81926852764 5.256558801578651e6 0.0
5.256558801578651e6 -543262.7106338111 0.0
0.0 0.0 0.0

-1.5612529357779184e6 3.134541396585688e6 0.0
3.134541396585688e6 331886.61557148513 0.0
0.0 0.0 0.0

-974710.9009980299 3.495549296877942e6 0.0
3.495549296877942e6 -223379.53078164614 0.0
0.0 0.0 0.0

-120444.31491106366 4.975137926506132e6 0.0
4.975137926506132e6 -523908.29777362634 0.0
0.0 0.0 0.0

235426.2854153699 427568.0307778559 0.0
427568.0307778559 -127574.90397509083 0.0
0.0 0.0 0.0

-401632.443975031 4.8080226918916395e6 0.0
4.8080226918916395e6 -978621.7790713103 0.0
0.0 0.0 0.0

-1.5573994194183983e6 4.059072528193654e6 0.0
4.059072528193654e6 537933.2694905977 0.0
0.0 0.0 0.0

1.1719428414597115e6 974929.5710065811 0.0
974929.5710065811 -2.5095619768931814e6 0.0
0.0 0.0 0.0

-207568.26279295154 1.0961743938791049e6 0.0
1.0961743938791049e6 -169390.5195886342 0.0
0.0 0.0 0.0

-1.6243278823819407e6 5.855830114960225e6 0.0
5.855830114960225e6 513295.6273724536 0.0
0.0 0.0 0.0

-1.1075127871120647e6 2.7537158483176255e6 0.0
2.7537158483176255e6 1.0924648437490487e6 0.0
0.0 0.0 0.0

-348714.83030452416 4.672803664688753e6 0.0
4.672803664688753e6 -451278.79306157335 0.0
0.0 0.0 0.0

-49541.87347113044 2.230998526555344e6 0.0
2.230998526555344e6 275325.33502210904 0.0
0.0 0.0 0.0

-611962.8626118078 5.080446817055035e6 0.0
5.080446817055035e6 -620075.4452637373 0.0
0.0 0.0 0.0

-1.7154761816969283e6 4.530377314227023e6 0.0
4.530377314227023e6 194087.11365261825 0.0
0.0 0.0 0.0

-436171.0352760557 680539.685185595 0.0
680539.685185595 1.8369421091917371e6 0.0
0.0 0.0 0.0

-393465.83338952396 3.137914842685509e6 0.0
3.137914842685509e6 -422133.82643867517 0.0
0.0 0.0 0.0

-170613.9466273219 -166700.67062559776 0.0
-166700.67062559776 220834.97536912363 0.0
0.0 0.0 0.0

-518588.5541669682 4.629652751406839e6 0.0
4.629652751406839e6 -1.0218041766362867e6 0.0
0.0 0.0 0.0

-1.3543569050979281e6 4.7704698084753705e6 0.0
4.7704698084753705e6 146893.00329152268 0.0
0.0 0.0 0.0

-760047.3674141371 4.695343034928254e6 0.0
4.695343034928254e6 -285171.0146700021 0.0
0.0 0.0 0.0

703479.27194113 4.388031384671889e6 0.0
4.388031384671889e6 -1.0713143737941359e6 0.0
0.0 0.0 0.0

-44140.24094056168 268097.04599221883 0.0
268097.04599221883 335039.8515804002 0.0
0.0 0.0 0.0

-3.991947639565007e6 1.8396312826916596e6 0.0
1.8396312826916596e6 5.949981622491399e6 0.0
0.0 0.0 0.0

-2.465273725910488e6 673003.1258066511 0.0
673003.1258066511 4.898720847695631e6 0.0
0.0 0.0 0.0

-1.293698270267321e6 4.237615303470084e6 0.0
4.237615303470084e6 449914.3802193733 0.0
0.0 0.0 0.0

-164976.00140018994 1.8721796308035557e6 0.0
1.8721796308035557e6 -201109.69747661 0.0
0.0 0.0 0.0

-1.003228029968895e6 3.5186922985078474e6 0.0
3.5186922985078474e6 -266821.62293801573 0.0
0.0 0.0 0.0

-1.659754418791715e6 2.9513195463567246e6 0.0
2.9513195463567246e6 664708.755647334 0.0
0.0 0.0 0.0

-461636.5346232361 3.758292544141512e6 0.0
3.758292544141512e6 -895984.1849627125 0.0
0.0 0.0 0.0

-1.1174344454666756e6 4.844899953066271e6 0.0
4.844899953066271e6 215032.60005033872 0.0
0.0 0.0 0.0

-2.760555027481828e6 3.497233158154e6 0.0
3.497233158154e6 625535.7773587388 0.0
0.0 0.0 0.0

-1.2810795609101546e6 850564.2779514441 0.0
850564.2779514441 1.8151965115965144e6 0.0
0.0 0.0 0.0

-380419.93790180096 4.953951253326591e6 0.0
4.953951253326591e6 -150350.46382919443 0.0
0.0 0.0 0.0

-535941.5584724052 4.953576084860895e6 0.0
4.953576084860895e6 -987788.3864940197 0.0
0.0 0.0 0.0

25581.812502858695 5.123496087825715e6 0.0
5.123496087825715e6 -2.1119165777745233e6 0.0
0.0 0.0 0.0

964221.4256105999 3.6862393283265615e6 0.0
3.6862393283265615e6 -2.1413551222224715e6 0.0
0.0 0.0 0.0

324.16719600949 123791.07830943956 0.0
123791.07830943956 156547.63417171116 0.0
0.0 0.0 0.0

-1.2769086697626268e6 4.773876629388271e6 0.0
4.773876629388271e6 141146.15675372875 0.0
0.0 0.0 0.0

-4.526700805798248e6 1.696529892605419e6 0.0
1.696529892605419e6 5.408380429971861e6 0.0
0.0 0.0 0.0

-9.60851765090641e6 2.087327411314849e6 0.0
2.087327411314849e6 1.2952612490361005e7 0.0
0.0 0.0 0.0

-664589.1522659508 2.785526502750659e6 0.0
2.785526502750659e6 -793371.325983037 0.0
0.0 0.0 0.0

-184989.55195223467 5.091958102272502e6 0.0
5.091958102272502e6 -616631.8335694678 0.0
0.0 0.0 0.0

-161051.72262431466 444569.9213710492 0.0
444569.9213710492 -4265.685332881265 0.0
0.0 0.0 0.0

-2.5998410560442135e6 -621125.736613407 0.0
-621125.736613407 1.5107510452946033e6 0.0
0.0 0.0 0.0

365581.91725864157 5.304157027942102e6 0.0
5.304157027942102e6 -2.041250472094711e6 0.0
0.0 0.0 0.0

-75926.21525823629 1.065026503257468e6 0.0
1.065026503257468e6 -302794.37260306656 0.0
0.0 0.0 0.0

143364.19025798596 5.456605009049132e6 0.0
5.456605009049132e6 -1.897850205685264e6 0.0
0.0 0.0 0.0

-1.5939841189527863e6 1.639872827904531e6 0.0
1.639872827904531e6 3.642887897349954e6 0.0
0.0 0.0 0.0

822364.7865141835 3.1304293042841554e6 0.0
3.1304293042841554e6 -1.898080265698574e6 0.0
0.0 0.0 0.0

-1.1281009256926351e6 6.426064245024053e6 0.0
6.426064245024053e6 -124202.32353453216 0.0
0.0 0.0 0.0

-1.748074941672802e6 2.954180588373406e6 0.0
2.954180588373406e6 541478.7409062225 0.0
0.0 0.0 0.0

-375634.21383476036 1.348852730978418e6 0.0
1.348852730978418e6 -493763.3753799476 0.0
0.0 0.0 0.0

3.243761824723358e6 4.358688678499073e6 0.0
4.358688678499073e6 -114398.26566506783 0.0
0.0 0.0 0.0

-1.8656745697363927e6 1.9859985340609294e6 0.0
1.9859985340609294e6 3.2486472635450605e6 0.0
0.0 0.0 0.0

-1.297375150753248e6 1.7683743424738343e6 0.0
1.7683743424738343e6 139577.91893478436 0.0
0.0 0.0 0.0

-130669.63461305798 232389.45538891185 0.0
232389.45538891185 73590.89059454517 0.0
0.0 0.0 0.0

460639.34542465815 734582.3097124827 0.0
734582.3097124827 -882116.2550539585 0.0
0.0 0.0 0.0

-1.2625536859102305e6 5.487435677090523e6 0.0
5.487435677090523e6 102192.08852227911 0.0
0.0 0.0 0.0

-1.346046198894682e6 3.704852746040871e6 0.0
3.704852746040871e6 1.0605434400205263e6 0.0
0.0 0.0 0.0

-17258.01259334229 2.077319559261666e6 0.0
2.077319559261666e6 -98509.28133498234 0.0
0.0 0.0 0.0

544563.3344454464 4.635403314935072e6 0.0
4.635403314935072e6 -2.2322857636264185e6 0.0
0.0 0.0 0.0

-780120.891216097 2.986645626223621e6 0.0
2.986645626223621e6 -1.3531534190582815e6 0.0
0.0 0.0 0.0

532843.5530004443 1.8428735426253336e6 0.0
1.8428735426253336e6 -614024.7207676448 0.0
0.0 0.0 0.0

756279.7274448975 3.14544477313189e6 0.0
3.14544477313189e6 -1.7663890362316952e6 0.0
0.0 0.0 0.0

-713262.4769629175 3.539531840936194e6 0.0
3.539531840936194e6 -602356.7972588295 0.0
0.0 0.0 0.0

449107.2150301711 4.759307687913247e6 0.0
4.759307687913247e6 -1.9991575748643212e6 0.0
0.0 0.0 0.0

945408.2412587481 4.12780449049678e6 0.0
4.12780449049678e6 -1.6967666751211393e6 0.0
0.0 0.0 0.0

-695290.7201979859 -71568.00250213766 0.0
-71568.00250213766 366611.5296747815 0.0
0.0 0.0 0.0

-1.063877452303911e6 3.301297573117781e6 0.0
3.301297573117781e6 1.1483094242598768e6 0.0
0.0 0.0 0.0

-493751.0793018868 2.1346026158975773e6 0.0
2.1346026158975773e6 135729.81905435905 0.0
0.0 0.0 0.0

-75965.19047189571 2.108851990065101e6 0.0
2.108851990065101e6 204117.32508297433 0.0
0.0 0.0 0.0

760501.8538810865 3.66846586533667e6 0.0
3.66846586533667e6 -1.5643211056391522e6 0.0
0.0 0.0 0.0

68672.17429993741 5.187702001909774e6 0.0
5.187702001909774e6 228907.58746206865 0.0
0.0 0.0 0.0

-927756.0270326765 3.0956007869418478e6 0.0
3.0956007869418478e6 1.8743054417861388e6 0.0
0.0 0.0 0.0

-484075.1885335491 2.9894949031292605e6 0.0
2.9894949031292605e6 -1.4473212892935488e6 0.0
0.0 0.0 0.0

-923970.1420207056 2.1397586282603317e6 0.0
2.1397586282603317e6 -387592.1848245772 0.0
0.0 0.0 0.0

-1.3871930289634168e6 4.05256452549234e6 0.0
4.05256452549234e6 948788.1250619742 0.0
0.0 0.0 0.0

-144917.58813573723 5.513798422452627e6 0.0
5.513798422452627e6 -668866.4624878765 0.0
0.0 0.0 0.0

160568.1505569272 5.251047244702545e6 0.0
5.251047244702545e6 -1.8473268596710274e6 0.0
0.0 0.0 0.0

-2.8672466935000666e6 5.107469048700943e6 0.0
5.107469048700943e6 1.2621425224936458e6 0.0
0.0 0.0 0.0

-641153.3966636725 3.9696551472633313e6 0.0
3.9696551472633313e6 -911488.4107375857 0.0
0.0 0.0 0.0

-2.752157071628492e6 -2.134118888730481e6 0.0
-2.134118888730481e6 2.9785178377574803e6 0.0
0.0 0.0 0.0

4.714914538549073e6 6.163127008157798e6 0.0
6.163127008157798e6 -779889.1039504097 0.0
0.0 0.0 0.0

-386842.310661535 3.6736611946167555e6 0.0
3.6736611946167555e6 -157231.31272947055 0.0
0.0 0.0 0.0

-5.933075695788583e6 -3.3276576187585066e6 0.0
-3.3276576187585066e6 4.280220024742645e6 0.0
0.0 0.0 0.0

-235213.65804538038 4.754068210756397e6 0.0
4.754068210756397e6 -468851.35300822713 0.0
0.0 0.0 0.0

-1.2777751963434995e6 4.764656825892587e6 0.0
4.764656825892587e6 -95767.09479657101 0.0
0.0 0.0 0.0

183710.38901765214 4.016701477267637e6 0.0
4.016701477267637e6 612368.1543895323 0.0
0.0 0.0 0.0

157704.11317018233 1.7947533384252025e6 0.0
1.7947533384252025e6 -54570.75959096139 0.0
0.0 0.0 0.0

-1.3016049329145474e6 3.4152867613235894e6 0.0
3.4152867613235894e6 425154.4343136961 0.0
0.0 0.0 0.0

-1.2026489346809886e7 5.364107575534208e6 0.0
5.364107575534208e6 2.67613154253339e6 0.0
0.0 0.0 0.0

819093.9540311546 3.054995209484781e6 0.0
3.054995209484781e6 -1.9168996687158681e6 0.0
0.0 0.0 0.0

-887114.5709120457 4.92252101840641e6 0.0
4.92252101840641e6 -167613.71212458063 0.0
0.0 0.0 0.0

-675152.5326826506 5.175216232228395e6 0.0
5.175216232228395e6 303877.98289828404 0.0
0.0 0.0 0.0

-525247.9758281241 3.626890892159926e6 0.0
3.626890892159926e6 -1.750826519305145e6 0.0
0.0 0.0 0.0

-191529.19616594823 5.1617275406765295e6 0.0
5.1617275406765295e6 -638430.6894980541 0.0
0.0 0.0 0.0

-557214.2336803799 4.788780729534306e6 0.0
4.788780729534306e6 -1.7084583609276607e6 0.0
0.0 0.0 0.0

52226.365547680594 706042.0210030539 0.0
706042.0210030539 341264.33769871684 0.0
0.0 0.0 0.0

-2.190205100190454e6 3.8498020092163966e6 0.0
3.8498020092163966e6 -41593.71231635497 0.0
0.0 0.0 0.0

737747.6344308105 3.051478976010672e6 0.0
3.051478976010672e6 -2.1978297176268245e6 0.0
0.0 0.0 0.0

-1.6503242722826917e6 2.052631681393457e6 0.0
2.052631681393457e6 2.9428196380062983e6 0.0
0.0 0.0 0.0

125029.83614347343 1.0019310516880938e6 0.0
1.0019310516880938e6 -606135.9951375885 0.0
0.0 0.0 0.0

-2.5244081263782405e6 3.654125656473144e6 0.0
3.654125656473144e6 491315.5614524286 0.0
0.0 0.0 0.0

-3.54064852006065e6 2.602592648002591e6 0.0
2.602592648002591e6 639007.9657080595 0.0
0.0 0.0 0.0

-479818.29865410365 -279309.72068826336 0.0
-279309.72068826336 752220.113637786 0.0
0.0 0.0 0.0

-393268.1003288494 2.9070156744525284e6 0.0
2.9070156744525284e6 -1.3121460357759926e6 0.0
0.0 0.0 0.0

-968077.1166266028 4.453194282544678e6 0.0
4.453194282544678e6 88142.76998261327 0.0
0.0 0.0 0.0

584940.5012633189 838146.0313615162 0.0
838146.0313615162 -1.2703820795095307e6 0.0
0.0 0.0 0.0

-1.3365982052842062e6 6.262767536476125e6 0.0
6.262767536476125e6 -2175.5737195214024 0.0
0.0 0.0 0.0

-79416.3733286143 1.412583289553424e6 0.0
1.412583289553424e6 -598447.1541787789 0.0
0.0 0.0 0.0

875027.4002152587 3.4096907247314462e6 0.0
3.4096907247314462e6 -2.0228500386871332e6 0.0
0.0 0.0 0.0

806874.4690738464 3.3585515277269976e6 0.0
3.3585515277269976e6 -1.971622316213612e6 0.0
0.0 0.0 0.0

-472214.69560057356 2.965591852841748e6 0.0
2.965591852841748e6 -950367.7264510719 0.0
0.0 0.0 0.0

-642836.8404579473 4.949876793677628e6 0.0
4.949876793677628e6 -564180.0613896189 0.0
0.0 0.0 0.0

796356.0278582087 3.478671969723706e6 0.0
3.478671969723706e6 -1.664690987950217e6 0.0
0.0 0.0 0.0

-2.074503008779242e6 3.9156670306251217e6 0.0
3.9156670306251217e6 1.3975244519496085e6 0.0
0.0 0.0 0.0

-385165.5938637432 4.559847228230672e6 0.0
4.559847228230672e6 -1.3577885887237748e6 0.0
0.0 0.0 0.0

-1.0270217834630557e6 2.5306130865240097e6 0.0
2.5306130865240097e6 806835.1548189438 0.0
0.0 0.0 0.0

-2.2652594900313425e6 4.452497054645093e6 0.0
4.452497054645093e6 1.3210551137008795e6 0.0
0.0 0.0 0.0

291990.849801061 5.336519327952844e6 0.0
5.336519327952844e6 -1.9812333295137826e6 0.0
0.0 0.0 0.0

-6.658353732927391e6 -1.4016621771476453e6 0.0
-1.4016621771476453e6 7.626529884125698e6 0.0
0.0 0.0 0.0

889140.2495158856 3.41312725111448e6 0.0
3.41312725111448e6 -2.0987543941298323e6 0.0
0.0 0.0 0.0

896579.7097302913 3.4154391094923588e6 0.0
3.4154391094923588e6 -1.7946550374761631e6 0.0
0.0 0.0 0.0

-623295.9418872586 4.61990650912854e6 0.0
4.61990650912854e6 -670671.8657173904 0.0
0.0 0.0 0.0

-1.7032372136521242e6 -314512.08502787567 0.0
-314512.08502787567 865248.2895132047 0.0
0.0 0.0 0.0

-345391.30790099746 2.000327150909226e6 0.0
2.000327150909226e6 -982413.3096980047 0.0
0.0 0.0 0.0

-5.361188058097168e6 1.7021958567044516e6 0.0
1.7021958567044516e6 6.870033506688921e6 0.0
0.0 0.0 0.0

-2.449847675659353e6 3.7473950425119656e6 0.0
3.7473950425119656e6 536965.2844913761 0.0
0.0 0.0 0.0

-2.5436679032288846e6 3.6264637079643672e6 0.0
3.6264637079643672e6 439018.5612578228 0.0
0.0 0.0 0.0

-151989.95665543704 2.0728834730062052e6 0.0
2.0728834730062052e6 -552833.5002304151 0.0
0.0 0.0 0.0

-4.73409466504019e6 499213.8625017852 0.0
499213.8625017852 1.045289521078929e7 0.0
0.0 0.0 0.0

-2.760682918451532e6 3.5505652569346926e6 0.0
3.5505652569346926e6 847069.0773108245 0.0
0.0 0.0 0.0

-931912.5648288374 4.81002684853834e6 0.0
4.81002684853834e6 -192794.62723947066 0.0
0.0 0.0 0.0

-594255.4651512713 4.993014903945231e6 0.0
4.993014903945231e6 -1.0139788994846009e6 0.0
0.0 0.0 0.0

108815.48423978576 2.784539705677868e6 0.0
2.784539705677868e6 1.4560043372705188e6 0.0
0.0 0.0 0.0

148260.08852008838 2.270092101533461e6 0.0
2.270092101533461e6 -257912.78085115657 0.0
0.0 0.0 0.0

932278.386593742 3.3723229636705057e6 0.0
3.3723229636705057e6 -1.9671612825015294e6 0.0
0.0 0.0 0.0

-612636.7763822528 3.6082472967244107e6 0.0
3.6082472967244107e6 -493868.2170162848 0.0
0.0 0.0 0.0

-1.6699530079189236e6 3.3335949325473323e6 0.0
3.3335949325473323e6 339293.3096091477 0.0
0.0 0.0 0.0

-4.1902129009556435e6 463626.0081064727 0.0
463626.0081064727 2.7870142021680027e6 0.0
0.0 0.0 0.0

-58977.04718721747 521212.32887909334 0.0
521212.32887909334 175924.19578525072 0.0
0.0 0.0 0.0

-1.41281962065908e7 8.526457378899997e6 0.0
8.526457378899997e6 -1.0882780597128063e6 0.0
0.0 0.0 0.0

-489359.36055634054 3.9089992126310817e6 0.0
3.9089992126310817e6 -1.6311978033431952e6 0.0
0.0 0.0 0.0

-92556.576723118 5.032193641119398e6 0.0
5.032193641119398e6 -308521.913055897 0.0
0.0 0.0 0.0

-298743.9719645637 4.594895982191777e6 0.0
4.594895982191777e6 -1.611427495851313e6 0.0
0.0 0.0 0.0

-4.211071709968792e6 3.1685548147947e6 0.0
3.1685548147947e6 3.399098082469485e6 0.0
0.0 0.0 0.0

747342.082622216 3.608685685632435e6 0.0
3.608685685632435e6 -1.273089882522042e6 0.0
0.0 0.0 0.0

641273.4003692425 5.013860913053954e6 0.0
5.013860913053954e6 -1.5868324823742863e6 0.0
0.0 0.0 0.0

-1.2527300412128181e6 3.55515652007937e6 0.0
3.55515652007937e6 1.1581035451689712e6 0.0
0.0 0.0 0.0

41276.13413379516 5.026038716319777e6 0.0
5.026038716319777e6 -1.747769834659019e6 0.0
0.0 0.0 0.0

-2.502111177801984e6 3.690404235326539e6 0.0
3.690404235326539e6 499791.0304867204 0.0
0.0 0.0 0.0

-60270.889988028066 1.0852106380925665e6 0.0
1.0852106380925665e6 -461746.3192716147 0.0
0.0 0.0 0.0

233349.49855659934 438494.1525816084 0.0
438494.1525816084 -126482.56574353794 0.0
0.0 0.0 0.0

616623.8232323313 4.183290848387776e6 0.0
4.183290848387776e6 -2.153561668011411e6 0.0
0.0 0.0 0.0

-2.3045244238246093e6 6.551338902856088e6 0.0
6.551338902856088e6 817293.266322516 0.0
0.0 0.0 0.0

-2.953244658338122e6 6.503086736131249e6 0.0
6.503086736131249e6 1.0204328286900867e6 0.0
0.0 0.0 0.0

-949113.4825941256 3.0972711301914807e6 0.0
3.0972711301914807e6 923640.6151384837 0.0
0.0 0.0 0.0

803313.7695894908 3.6386914786987877e6 0.0
3.6386914786987877e6 -2.0219196523448878e6 0.0
0.0 0.0 0.0

833727.2148193365 3.9970679836017163e6 0.0
3.9970679836017163e6 -1.5935910878322606e6 0.0
0.0 0.0 0.0

-5.020383261617338e6 253813.97404095274 0.0
253813.97404095274 6.988305834628351e6 0.0
0.0 0.0 0.0

-50394.877136047406 1.8419645967741723e6 0.0
1.8419645967741723e6 488759.827057432 0.0
0.0 0.0 0.0

-1.4756469853903542e6 6.008190761719968e6 0.0
6.008190761719968e6 65546.51977593749 0.0
0.0 0.0 0.0

-2.2248623585566767e6 3.3001785596044194e6 0.0
3.3001785596044194e6 1.1904922283713538e6 0.0
0.0 0.0 0.0

-137318.6324167964 308351.5145684335 0.0
308351.5145684335 -93852.38309754366 0.0
0.0 0.0 0.0

1.4105116633531111e6 1.755622830518849e6 0.0
1.755622830518849e6 -1.87596752082264e6 0.0
0.0 0.0 0.0

-2.2250468234949782e6 3.137352507361553e6 0.0
3.137352507361553e6 939263.100792756 0.0
0.0 0.0 0.0

-2.417144942941311e6 6.161272360793352e6 0.0
6.161272360793352e6 63171.1350115526 0.0
0.0 0.0 0.0

472432.9359665241 2.1470012469040584e6 0.0
2.1470012469040584e6 -1.0000976745501345e6 0.0
0.0 0.0 0.0

905956.3274652394 3.516015821603742e6 0.0
3.516015821603742e6 -1.840179572330394e6 0.0
0.0 0.0 0.0

-49211.15712727263 4.913764534273745e6 0.0
4.913764534273745e6 -1.6166099163937783e6 0.0
0.0 0.0 0.0

392148.7664087751 433181.0022515522 0.0
433181.0022515522 -728690.630216328 0.0
0.0 0.0 0.0

-163061.64131603332 2.6173874364112755e6 0.0
2.6173874364112755e6 220147.91407307592 0.0
0.0 0.0 0.0

-517436.80199665803 4.914765206125157e6 0.0
4.914765206125157e6 -1.811191173721615e6 0.0
0.0 0.0 0.0

905048.7563618062 3.2926198467621338e6 0.0
3.2926198467621338e6 -1.8734662407245685e6 0.0
0.0 0.0 0.0

-2.2742554329141374e6 3.2849178825749173e6 0.0
3.2849178825749173e6 1.0298113832589118e6 0.0
0.0 0.0 0.0

873183.3972324753 4.1858815040649623e6 0.0
4.1858815040649623e6 -1.5230717629517678e6 0.0
0.0 0.0 0.0

358929.675742781 668657.296677766 0.0
668657.296677766 -415394.5846723227 0.0
0.0 0.0 0.0

-397070.0232083231 3.6941209273390924e6 0.0
3.6941209273390924e6 -1.3235666116843882e6 0.0
0.0 0.0 0.0

625453.221518775 6.096325610800314e6 0.0
6.096325610800314e6 2.0848456603930572e6 0.0
0.0 0.0 0.0

-530854.7657417734 4.977291062846077e6 0.0
4.977291062846077e6 -1.0283168909885619e6 0.0
0.0 0.0 0.0

-1.980186014880164e6 -866934.100433479 0.0
-866934.100433479 1.8995954535300494e6 0.0
0.0 0.0 0.0

461730.6144155769 397289.9724709522 0.0
397289.9724709522 -669307.361073673 0.0
0.0 0.0 0.0

495302.7003957257 4.058584791738585e6 0.0
4.058584791738585e6 1.6510076915366568e6 0.0
0.0 0.0 0.0

90316.90442113699 2.738542258374038e6 0.0
2.738542258374038e6 301056.4118570339 0.0
0.0 0.0 0.0

-5.855873324681627e6 531242.2918094747 0.0
531242.2918094747 1.220839574835305e7 0.0
0.0 0.0 0.0

718630.6312066591 3.845101183598376e6 0.0
3.845101183598376e6 -2.1000573132462697e6 0.0
0.0 0.0 0.0

-1.082316702650373e6 4.5671751172004305e6 0.0
4.5671751172004305e6 -254235.74807325547 0.0
0.0 0.0 0.0

-732539.0464325466 2.7809406147853425e6 0.0
2.7809406147853425e6 -1.375916780152742e6 0.0
0.0 0.0 0.0

-2.232034840976457e6 3.763914870517961e6 0.0
3.763914870517961e6 604018.8189754981 0.0
0.0 0.0 0.0

-1.1075597936085174e6 4.823424980737871e6 0.0
4.823424980737871e6 -89937.78240476234 0.0
0.0 0.0 0.0

-2.5808852969330614e6 4.740182779146007e6 0.0
4.740182779146007e6 1.0480150912307916e6 0.0
0.0 0.0 0.0

-577229.7028144437 3.645815138004315e6 0.0
3.645815138004315e6 -1.3990143221467838e6 0.0
0.0 0.0 0.0

-1.5944077868768824e6 5.7720945244473135e6 0.0
5.7720945244473135e6 147062.07565832895 0.0
0.0 0.0 0.0

-1.8407802954428073e6 1.4464978238959878e6 0.0
1.4464978238959878e6 2.881233199333237e6 0.0
0.0 0.0 0.0

415301.16559926746 4.029252037606809e6 0.0
4.029252037606809e6 -1.955655511385333e6 0.0
0.0 0.0 0.0

775461.14586993 3.5555251441218355e6 0.0
3.5555251441218355e6 -2.0111191378205046e6 0.0
0.0 0.0 0.0

-774423.7848425184 4.863983855874665e6 0.0
4.863983855874665e6 -470014.96096793923 0.0
0.0 0.0 0.0

-1.7807906941028298e6 2.5670927076232396e6 0.0
2.5670927076232396e6 530722.48722024 0.0
0.0 0.0 0.0

472315.20028486464 5.352908794482377e6 0.0
5.352908794482377e6 -1.9792001823599963e6 0.0
0.0 0.0 0.0

-2.183438187823428e6 3.8792561718545724e6 0.0
3.8792561718545724e6 577289.0299620626 0.0
0.0 0.0 0.0

-1.8617409958868101e6 3.1010504196005976e6 0.0
3.1010504196005976e6 655747.2499951874 0.0
0.0 0.0 0.0

-494934.7228813437 2.878248301100979e6 0.0
2.878248301100979e6 -650806.3095649678 0.0
0.0 0.0 0.0

-185562.66429475945 5.467378336398891e6 0.0
5.467378336398891e6 -1.9930004173110372e6 0.0
0.0 0.0 0.0

-1.7348887123595793e6 5.284111357481477e6 0.0
5.284111357481477e6 244124.9151836288 0.0
0.0 0.0 0.0

-623332.7594868068 3.141844518076739e6 0.0
3.141844518076739e6 -499643.99047832226 0.0
0.0 0.0 0.0

-546918.0177375621 3.035169837084338e6 0.0
3.035169837084338e6 -1.3128620820033255e6 0.0
0.0 0.0 0.0

394045.3007581163 4.0349820344735244e6 0.0
4.0349820344735244e6 -398388.01722313353 0.0
0.0 0.0 0.0

-1.2388029806957336e6 3.586543007848705e6 0.0
3.586543007848705e6 120493.51357457193 0.0
0.0 0.0 0.0

577689.6370184971 1.9824125697003903e6 0.0
1.9824125697003903e6 -667087.6917202652 0.0
0.0 0.0 0.0

-100765.50758134114 362650.06133563543 0.0
362650.06133563543 426216.7418163131 0.0
0.0 0.0 0.0

858248.4678013788 3.0559897373825335e6 0.0
3.0559897373825335e6 -1.9202344572531478e6 0.0
0.0 0.0 0.0

731923.5051461522 3.2240065728923925e6 0.0
3.2240065728923925e6 -1.4404623137486929e6 0.0
0.0 0.0 0.0

824422.5040531993 3.1638807293294477e6 0.0
3.1638807293294477e6 -1.7255167853814086e6 0.0
0.0 0.0 0.0

-566813.5939911888 3.443574613434433e6 0.0
3.443574613434433e6 -1.4166359699273384e6 0.0
0.0 0.0 0.0

-1.6665923325016564e6 5.52947151391256e6 0.0
5.52947151391256e6 199688.93784088164 0.0
0.0 0.0 0.0

-1.57821502434727e6 1.6090226797881743e6 0.0
1.6090226797881743e6 2.521131852925151e6 0.0
0.0 0.0 0.0

-1.153271527164959e6 3.5268664005858465e6 0.0
3.5268664005858465e6 223156.9297144228 0.0
0.0 0.0 0.0

758027.1508287315 3.2653518942985646e6 0.0
3.2653518942985646e6 -1.895391051224982e6 0.0
0.0 0.0 0.0

219852.49996058695 763477.5223639775 0.0
763477.5223639775 -578698.3374921043 0.0
0.0 0.0 0.0

-1.0043583058973012e6 2.4649088395284065e6 0.0
2.4649088395284065e6 1.2168690881048045e6 0.0
0.0 0.0 0.0

-554734.9854550076 4.738308994440244e6 0.0
4.738308994440244e6 -766291.1122453958 0.0
0.0 0.0 0.0

-507768.15334866114 5.050288233956451e6 0.0
5.050288233956451e6 -881042.8479679711 0.0
0.0 0.0 0.0

-2.2052925247126077e6 3.9812558196461555e6 0.0
3.9812558196461555e6 518147.0332255948 0.0
0.0 0.0 0.0

-321780.3119404151 4.572359097317549e6 0.0
4.572359097317549e6 -1.3891022112065565e6 0.0
0.0 0.0 0.0

881770.4239707659 3.550013722849872e6 0.0
3.550013722849872e6 -1.6572587280336265e6 0.0
0.0 0.0 0.0

738667.2508460239 3.511674995477184e6 0.0
3.511674995477184e6 -1.977416945497884e6 0.0
0.0 0.0 0.0

342290.18024953525 1.2606221321619826e6 0.0
1.2606221321619826e6 -2.603480777396974e6 0.0
0.0 0.0 0.0

662174.5906077313 3.7948695117142135e6 0.0
3.7948695117142135e6 -2.0565738259151941e6 0.0
0.0 0.0 0.0

783959.1986854143 3.2602516311471807e6 0.0
3.2602516311471807e6 -1.5464022691437148e6 0.0
0.0 0.0 0.0

-3.0967755954134464e6 3.0809260611748155e6 0.0
3.0809260611748155e6 595899.200298547 0.0
0.0 0.0 0.0

-1.7543894626765936e6 6.358330196083478e6 0.0
6.358330196083478e6 291331.9919546923 0.0
0.0 0.0 0.0

-1.2648355705767404e6 4.786836543159426e6 0.0
4.786836543159426e6 -9577.302199265163 0.0
0.0 0.0 0.0

659352.8114472522 3.380971722025153e6 0.0
3.380971722025153e6 -1.7421675440635222e6 0.0
0.0 0.0 0.0

-1.8282652890980064e6 2.8692987116063936e6 0.0
2.8692987116063936e6 535522.6276759607 0.0
0.0 0.0 0.0

-560611.2891908207 3.252812888482542e6 0.0
3.252812888482542e6 -1.188707246419462e6 0.0
0.0 0.0 0.0

-447463.7317651239 3.5592223941324195e6 0.0
3.5592223941324195e6 -1.4915455617180045e6 0.0
0.0 0.0 0.0

1.4526633246285683e6 8.594731246768054e6 0.0
8.594731246768054e6 4.842219502305938e6 0.0
0.0 0.0 0.0

-190439.1537586246 5.716210343425873e6 0.0
5.716210343425873e6 -665988.3357551988 0.0
0.0 0.0 0.0

213834.46179855295 6.250644577101967e6 0.0
6.250644577101967e6 -1.3613071782856765e6 0.0
0.0 0.0 0.0

552602.4370321598 3.052091381547675e6 0.0
3.052091381547675e6 -1.4805358663716593e6 0.0
0.0 0.0 0.0

-487761.47491890634 4.682906629945783e6 0.0
4.682906629945783e6 -936687.8147019177 0.0
0.0 0.0 0.0

-382848.6214376105 4.627498354469623e6 0.0
4.627498354469623e6 -449040.2439434923 0.0
0.0 0.0 0.0

-3068.5321779039223 403075.2632999145 0.0
403075.2632999145 -383650.74302068684 0.0
0.0 0.0 0.0

-1.7413064900563275e6 1.5646450973488423e6 0.0
1.5646450973488423e6 4.0248494772070544e6 0.0
0.0 0.0 0.0

-755893.5088682984 4.748099873703706e6 0.0
4.748099873703706e6 -296724.0114192477 0.0
0.0 0.0 0.0

-1.6046678463175078e6 2.5259314138539797e6 0.0
2.5259314138539797e6 590043.805893431 0.0
0.0 0.0 0.0

-3.0973111658655237e6 4.557472272251586e6 0.0
4.557472272251586e6 1.8259379776899768e6 0.0
0.0 0.0 0.0

-1.4707715361825842e6 4.0946357898680945e6 0.0
4.0946357898680945e6 833900.8207325349 0.0
0.0 0.0 0.0

-1.0008086355098134e6 3.4359819521007775e6 0.0
3.4359819521007775e6 -271161.89549904724 0.0
0.0 0.0 0.0

-1.7391288153355732e6 3.40120948933881e6 0.0
3.40120948933881e6 638108.0069284517 0.0
0.0 0.0 0.0

902792.9498158745 4.351318535387043e6 0.0
4.351318535387043e6 -1.58422768422363e6 0.0
0.0 0.0 0.0

837132.9239126977 3.4467772327472107e6 0.0
3.4467772327472107e6 -1.2050002427685321e6 0.0
0.0 0.0 0.0

-560256.2382171734 4.57800483622406e6 0.0
4.57800483622406e6 -566957.1409234431 0.0
0.0 0.0 0.0

-146003.83985338686 4.63188987411927e6 0.0
4.63188987411927e6 -1.4667438798405456e6 0.0
0.0 0.0 0.0

-841290.7476715466 489113.48524032056 0.0
489113.48524032056 2.257339035954129e6 0.0
0.0 0.0 0.0

606813.0207569469 660578.7974743086 0.0
660578.7974743086 -1.0423569625557952e6 0.0
0.0 0.0 0.0

-2.7497580076445607e6 -290678.35801387107 0.0
-290678.35801387107 4.9556072461187085e6 0.0
0.0 0.0 0.0

-795204.5259197904 3.6210059348851214e6 0.0
3.6210059348851214e6 -505060.242851598 0.0
0.0 0.0 0.0

-1.345679350975336e6 4.760910607246161e6 0.0
4.760910607246161e6 65380.29982929281 0.0
0.0 0.0 0.0

-324723.76397670334 3.0789229262790126e6 0.0
3.0789229262790126e6 -168145.1647321863 0.0
0.0 0.0 0.0

-1.2195202367969414e6 4.95986759919347e6 0.0
4.95986759919347e6 -114532.31990971975 0.0
0.0 0.0 0.0

594411.8262207501 1.6189723042291056e6 0.0
1.6189723042291056e6 -1.1489254015854276e6 0.0
0.0 0.0 0.0

-1.4631542801896725e6 3.902760255019484e6 0.0
3.902760255019484e6 711962.3450943372 0.0
0.0 0.0 0.0

-29785.80921932729 8.212300834737626e6 0.0
8.212300834737626e6 -635772.7583715428 0.0
0.0 0.0 0.0

-1.0268452298225618e6 3.1179295296711465e6 0.0
3.1179295296711465e6 894539.374918144 0.0
0.0 0.0 0.0

611188.1807051081 917475.5535245625 0.0
917475.5535245625 -468673.92176314 0.0
0.0 0.0 0.0

-3.494802005003675e6 -829791.0548440341 0.0
-829791.0548440341 2.0221890505471355e6 0.0
0.0 0.0 0.0

847697.00672646 3.2441248793976163e6 0.0
3.2441248793976163e6 -1.9548038917298787e6 0.0
0.0 0.0 0.0

-2.2312845125630456e6 4.1945578221644275e6 0.0
4.1945578221644275e6 202410.71570156293 0.0
0.0 0.0 0.0

343796.15605090733 571848.1674280098 0.0
571848.1674280098 -670303.2748599746 0.0
0.0 0.0 0.0

-1.5897354706160983e6 2.930885841922398e6 0.0
2.930885841922398e6 274539.0521684444 0.0
0.0 0.0 0.0

-111499.11204009115 614201.8323416315 0.0
614201.8323416315 -114765.88634894519 0.0
0.0 0.0 0.0

-523830.5421589293 4.734146262375102e6 0.0
4.734146262375102e6 -859658.3244837826 0.0
0.0 0.0 0.0

-122267.01696685533 452266.3917263973 0.0
452266.3917263973 -80932.19481397202 0.0
0.0 0.0 0.0

-475325.64198453905 4.0914978169300514e6 0.0
4.0914978169300514e6 -965475.5323247385 0.0
0.0 0.0 0.0

-1.3775737535077408e6 1.7542656698896948e6 0.0
1.7542656698896948e6 2.1524068699123953e6 0.0
0.0 0.0 0.0

353976.8341500535 2.4346412457846464e6 0.0
2.4346412457846464e6 -1.0614558236103172e6 0.0
0.0 0.0 0.0

-2.3305850520904204e6 1.9469202905444906e6 0.0
1.9469202905444906e6 3.720222893454691e6 0.0
0.0 0.0 0.0

-864993.4173304954 3.227722066504672e6 0.0
3.227722066504672e6 -119945.32999723474 0.0
0.0 0.0 0.0

-2.3447541325217783e6 3.1757536366987797e6 0.0
3.1757536366987797e6 1.0123626606950922e6 0.0
0.0 0.0 0.0

846127.9009939011 4.535254351000249e6 0.0
4.535254351000249e6 -1.5303538687263085e6 0.0
0.0 0.0 0.0

-1.5188552844156735e6 2.114424319043235e6 0.0
2.114424319043235e6 2.6752719165801858e6 0.0
0.0 0.0 0.0

403236.43272538943 4.322174522770347e6 0.0
4.322174522770347e6 -1.1930448428801498e6 0.0
0.0 0.0 0.0

-2.255323667436744e6 -553189.4636880028 0.0
-553189.4636880028 2.6351221890675845e6 0.0
0.0 0.0 0.0

17876.263253762852 5.497169198622105e6 0.0
5.497169198622105e6 -1.9529390480202718e6 0.0
0.0 0.0 0.0

-1.0134808310259572e6 3.2732493326474614e6 0.0
3.2732493326474614e6 -308039.26472304575 0.0
0.0 0.0 0.0

506465.27620040695 3.288958871898277e6 0.0
3.288958871898277e6 -1.562891285836906e6 0.0
0.0 0.0 0.0

412163.383951811 519825.4640882493 0.0
519825.4640882493 -577128.4750164569 0.0
0.0 0.0 0.0

165428.67061877926 303731.4469585326 0.0
303731.4469585326 -313689.2652580163 0.0
0.0 0.0 0.0

-394955.7269601873 4.40739785379664e6 0.0
4.40739785379664e6 -1.2000200932068012e6 0.0
0.0 0.0 0.0

336248.8461467742 1.4042192437214234e6 0.0
1.4042192437214234e6 -34874.98812580563 0.0
0.0 0.0 0.0

-1.3965490706598547e6 4.7507857371448325e6 0.0
4.7507857371448325e6 64349.25069403346 0.0
0.0 0.0 0.0

-3.014910884122125e6 3.0071684641002496e6 0.0
3.0071684641002496e6 3.291484515337484e6 0.0
0.0 0.0 0.0

-462193.0186763623 1.5399686079693933e6 0.0
1.5399686079693933e6 -76607.18802556986 0.0
0.0 0.0 0.0

-682787.0068014779 3.691407959590015e6 0.0
3.691407959590015e6 -394174.2559049665 0.0
0.0 0.0 0.0

477630.14631579176 4.002312065921493e6 0.0
4.002312065921493e6 -1.8607081693273988e6 0.0
0.0 0.0 0.0

-2.327203713853004e6 4.706841539030572e6 0.0
4.706841539030572e6 785640.0047157187 0.0
0.0 0.0 0.0

-616457.8320927036 2.550092047589587e6 0.0
2.550092047589587e6 -1.1128437809188701e6 0.0
0.0 0.0 0.0

1.9026521818147455e6 1.3361413775209202e6 0.0
1.3361413775209202e6 -2.1921934833618e6 0.0
0.0 0.0 0.0

781120.4531663706 3.127034712508863e6 0.0
3.127034712508863e6 -1.783417427936382e6 0.0
0.0 0.0 0.0

-650090.322452802 4.0252478506682166e6 0.0
4.0252478506682166e6 -1.3901144754755348e6 0.0
0.0 0.0 0.0

-501363.91465370625 1.8173073010424962e6 0.0
1.8173073010424962e6 2899.9145763244596 0.0
0.0 0.0 0.0

-578850.5716532406 3.5583080823910898e6 0.0
3.5583080823910898e6 -1.476494285580323e6 0.0
0.0 0.0 0.0

143890.93185883656 194010.02930154337 0.0
194010.02930154337 -736802.08975276 0.0
0.0 0.0 0.0

908769.0384253708 2.2413596171764806e6 0.0
2.2413596171764806e6 -1.5241909462051834e6 0.0
0.0 0.0 0.0

-450738.8766276564 4.789542422126748e6 0.0
4.789542422126748e6 -447946.2582026662 0.0
0.0 0.0 0.0

-2.4259459786163853e6 710885.9169973341 0.0
710885.9169973341 3.34224447134119e6 0.0
0.0 0.0 0.0

-2.7059457390246084e6 3.516493178997656e6 0.0
3.516493178997656e6 1.0122864414268878e6 0.0
0.0 0.0 0.0

-1.7102455160610613e6 -44464.66263291562 0.0
-44464.66263291562 1.0327890940237403e6 0.0
0.0 0.0 0.0

-244219.2415357569 4.54405542754455e6 0.0
4.54405542754455e6 -1.399811886315423e6 0.0
0.0 0.0 0.0

-203269.94983761714 4.836718959747189e6 0.0
4.836718959747189e6 -487301.5835856756 0.0
0.0 0.0 0.0

-2.0881697487331727e6 4.681457719983346e6 0.0
4.681457719983346e6 560082.8403056471 0.0
0.0 0.0 0.0

-1.2640147089198513e6 2.097352270389074e6 0.0
2.097352270389074e6 -49829.18112752057 0.0
0.0 0.0 0.0

-1.5266699925672328e6 4.847187755509738e6 0.0
4.847187755509738e6 68022.27180905704 0.0
0.0 0.0 0.0

-765690.5703345933 2.206535675787688e6 0.0
2.206535675787688e6 -283290.6480985076 0.0
0.0 0.0 0.0

532448.2282157373 271987.70958119637 0.0
271987.70958119637 -838209.9583918215 0.0
0.0 0.0 0.0

-704693.88373355 4.016443488639516e6 0.0
4.016443488639516e6 -549411.5581254822 0.0
0.0 0.0 0.0

-3.396512997887943e6 8.814785150295073e6 0.0
8.814785150295073e6 2.358989224821955e6 0.0
0.0 0.0 0.0

-420514.6479869614 5.480049657728431e6 0.0
5.480049657728431e6 -546526.2816639215 0.0
0.0 0.0 0.0

-525339.9491637085 4.708537647806587e6 0.0
4.708537647806587e6 -858862.5262332845 0.0
0.0 0.0 0.0

-1.2290801483497934e6 3.7583860977691137e6 0.0
3.7583860977691137e6 -74769.01270443661 0.0
0.0 0.0 0.0

-1.8124890652809984e6 3.079448870600994e6 0.0
3.079448870600994e6 690322.1741353339 0.0
0.0 0.0 0.0

889665.7049159858 3.1551797319518887e6 0.0
3.1551797319518887e6 -1.993349203513955e6 0.0
0.0 0.0 0.0

354556.470015755 1.5923958408642064e6 0.0
1.5923958408642064e6 -1.4205077924038332e6 0.0
0.0 0.0 0.0

-553482.4496856674 2.2345682333399686e6 0.0
2.2345682333399686e6 -37315.329072306864 0.0
0.0 0.0 0.0

-1.3780218659432314e6 4.999113577190593e6 0.0
4.999113577190593e6 -22207.14018116455 0.0
0.0 0.0 0.0

871113.580147448 2.5752075883843694e6 0.0
2.5752075883843694e6 -1.7699687383759567e6 0.0
0.0 0.0 0.0

-611929.4902272406 3.3224383134817607e6 0.0
3.3224383134817607e6 -798664.9418362911 0.0
0.0 0.0 0.0

-432458.10768568324 4.5840453947230885e6 0.0
4.5840453947230885e6 -472551.3478984077 0.0
0.0 0.0 0.0

-122578.89697605581 4.867137279927497e6 0.0
4.867137279927497e6 -1.8602224445281082e6 0.0
0.0 0.0 0.0

343764.89060242963 1.0568617685735822e6 0.0
1.0568617685735822e6 -158199.87942919484 0.0
0.0 0.0 0.0

-2.5891604766126447e6 3.3348305295253135e6 0.0
3.3348305295253135e6 -193072.2586591097 0.0
0.0 0.0 0.0

95704.48041847744 5.215192450733521e6 0.0
5.215192450733521e6 -2.0699954858677532e6 0.0
0.0 0.0 0.0

-4.219392882542476e6 -1.8484922867828598e6 0.0
-1.8484922867828598e6 3.78140072397309e6 0.0
0.0 0.0 0.0

753233.7343617833 2.9740114651632425e6 0.0
2.9740114651632425e6 -1.955724399633921e6 0.0
0.0 0.0 0.0

-757063.4192822559 4.480257764242341e6 0.0
4.480257764242341e6 366006.05337673903 0.0
0.0 0.0 0.0

-410444.3866018931 5.109365961418131e6 0.0
5.109365961418131e6 -1.9060616108509882e6 0.0
0.0 0.0 0.0

-211261.8257495513 4.789163480776894e6 0.0
4.789163480776894e6 -1.633389440594625e6 0.0
0.0 0.0 0.0

717755.6541571629 736071.1735030345 0.0
736071.1735030345 -722695.5657523021 0.0
0.0 0.0 0.0

-264532.59307483427 2.4554879482413726e6 0.0
2.4554879482413726e6 -168260.43370123557 0.0
0.0 0.0 0.0

-1.7938218271167022e6 2.8996203701494657e6 0.0
2.8996203701494657e6 589745.1783078867 0.0
0.0 0.0 0.0

-1.06792220391177e6 3.623814329691827e6 0.0
3.623814329691827e6 -162747.34385787818 0.0
0.0 0.0 0.0

-33356.616207824 2.1181200540684876e6 0.0
2.1181200540684876e6 -166316.7100106379 0.0
0.0 0.0 0.0

-1.7672411314925165e6 2.8728148859785576e6 0.0
2.8728148859785576e6 636709.4926136356 0.0
0.0 0.0 0.0

-636012.4945394238 3.9636900403959733e6 0.0
3.9636900403959733e6 -639765.3658306494 0.0
0.0 0.0 0.0

-757837.6348434071 3.3649021706967796e6 0.0
3.3649021706967796e6 -307380.5084945194 0.0
0.0 0.0 0.0

-754799.3495597705 4.0968944649854098e6 0.0
4.0968944649854098e6 -510474.3576147406 0.0
0.0 0.0 0.0

-419510.11200165225 4.316594737644543e6 0.0
4.316594737644543e6 -1.0349351633888212e6 0.0
0.0 0.0 0.0

-12079.803259812761 2.0212191085334292e6 0.0
2.0212191085334292e6 -2.5366787716707243e6 0.0
0.0 0.0 0.0

-646439.7073013433 4.924574041863665e6 0.0
4.924574041863665e6 -1.0562519170147032e6 0.0
0.0 0.0 0.0

-910817.213781034 3.2914518071423555e6 0.0
3.2914518071423555e6 -423984.7865516024 0.0
0.0 0.0 0.0

-1.0701637969968452e6 2.191512039265767e6 0.0
2.191512039265767e6 95675.08260821598 0.0
0.0 0.0 0.0

476982.35274183983 873137.6909443096 0.0
873137.6909443096 -338084.1428420863 0.0
0.0 0.0 0.0

-405471.6514028011 4.390223574773036e6 0.0
4.390223574773036e6 -1.1147327892803035e6 0.0
0.0 0.0 0.0

-411948.8363420344 3.6237733420985234e6 0.0
3.6237733420985234e6 -1.3731626592435369e6 0.0
0.0 0.0 0.0

750036.2974143509 1.1146297724905098e6 0.0
1.1146297724905098e6 -883126.9544838016 0.0
0.0 0.0 0.0

531477.7741096958 4.0594484321469427e6 0.0
4.0594484321469427e6 -2.0211529028978671e6 0.0
0.0 0.0 0.0

-412324.5813290019 1.1974281558207336e6 0.0
1.1974281558207336e6 -229166.5623467587 0.0
0.0 0.0 0.0

-651390.760723341 2.7790584739793455e6 0.0
2.7790584739793455e6 -1.097830704087677e6 0.0
0.0 0.0 0.0

-990630.8193123841 3.4694199346698048e6 0.0
3.4694199346698048e6 -254146.59046200762 0.0
0.0 0.0 0.0

864481.7029759428 2.71586184621139e6 0.0
2.71586184621139e6 -1.5359283501516238e6 0.0
0.0 0.0 0.0

-265135.71218109847 2.349985073940201e6 0.0
2.349985073940201e6 -247985.9781881939 0.0
0.0 0.0 0.0

-173999.89716376527 -406902.6981317261 0.0
-406902.6981317261 748581.8223021278 0.0
0.0 0.0 0.0

-432345.65121996554 4.672086245339728e6 0.0
4.672086245339728e6 -375148.0170672935 0.0
0.0 0.0 0.0

-178410.2621243808 5.09440477341338e6 0.0
5.09440477341338e6 -566590.1495802471 0.0
0.0 0.0 0.0

-1.367536113188424e6 4.792172080191158e6 0.0
4.792172080191158e6 69991.03804486082 0.0
0.0 0.0 0.0

-1.5318181113251357e6 3.379314005083722e6 0.0
3.379314005083722e6 498547.9687683084 0.0
0.0 0.0 0.0

959712.5819222361 3.5186125466053328e6 0.0
3.5186125466053328e6 -1.9259994210408325e6 0.0
0.0 0.0 0.0

1.0132348493866512e6 3.687208134591749e6 0.0
3.687208134591749e6 -1.8644440054176503e6 0.0
0.0 0.0 0.0

-525222.9423574363 2.916404682538691e6 0.0
2.916404682538691e6 55995.77313673773 0.0
0.0 0.0 0.0

-563489.2860370385 3.909048075617179e6 0.0
3.909048075617179e6 -739248.5853473946 0.0
0.0 0.0 0.0

-65618.40718253586 5.391184603218422e6 0.0
5.391184603218422e6 -810854.6015579379 0.0
0.0 0.0 0.0

-2.1060960815047445e6 -811800.8937408506 0.0
-811800.8937408506 3.245336656034069e6 0.0
0.0 0.0 0.0

-1.0935869876590753e6 3.553467841314306e6 0.0
3.553467841314306e6 35115.44237255247 0.0
0.0 0.0 0.0

-1.4131783035664475e6 2.561772852178688e6 0.0
2.561772852178688e6 36690.24555361341 0.0
0.0 0.0 0.0

-6.1142080550509505e6 1.4475459477704053e6 0.0
1.4475459477704053e6 8.500099971901981e6 0.0
0.0 0.0 0.0

648027.7875888229 557579.8547346955 0.0
557579.8547346955 -1.2634874054010909e6 0.0
0.0 0.0 0.0

-1.7623608016057634e6 3.5816240897689597e6 0.0
3.5816240897689597e6 434125.41188007884 0.0
0.0 0.0 0.0

-1.7712012822394422e6 4.1972023338411655e6 0.0
4.1972023338411655e6 1.9988603616930055e6 0.0
0.0 0.0 0.0

827302.0173498956 3.4954868389498563e6 0.0
3.4954868389498563e6 -1.1017934061314105e6 0.0
0.0 0.0 0.0

-1.6955009068778171e6 2.8576354931833562e6 0.0
2.8576354931833562e6 406453.8352027007 0.0
0.0 0.0 0.0

-2.2446301992217936e6 1.3252903339283771e6 0.0
1.3252903339283771e6 5.244069685080484e6 0.0
0.0 0.0 0.0

705883.411461798 5.069777789081169e6 0.0
5.069777789081169e6 -1.53917052306417e6 0.0
0.0 0.0 0.0

-483618.8444208956 4.67072975321661e6 0.0
4.67072975321661e6 -961526.3028271848 0.0
0.0 0.0 0.0

-248406.8874586391 309189.49642057804 0.0
309189.49642057804 272087.42917288124 0.0
0.0 0.0 0.0

313448.2240028003 5.421082621346066e6 0.0
5.421082621346066e6 -1.8409117858406524e6 0.0
0.0 0.0 0.0

-792950.2549877692 1.3263183555018276e6 0.0
1.3263183555018276e6 77652.9215909976 0.0
0.0 0.0 0.0

772237.5783979204 4.608304100900574e6 0.0
4.608304100900574e6 -1.4699425209262623e6 0.0
0.0 0.0 0.0

-761199.3686233457 2.474941842993776e6 0.0
2.474941842993776e6 -662357.0315827989 0.0
0.0 0.0 0.0

-493434.29561768466 3.839476863382888e6 0.0
3.839476863382888e6 -833111.9070908268 0.0
0.0 0.0 0.0

-104488.460132858 2.032325300368475e6 0.0
2.032325300368475e6 -89097.638263864 0.0
0.0 0.0 0.0

-299718.9973007766 4.977746027717134e6 0.0
4.977746027717134e6 -870887.0397653667 0.0
0.0 0.0 0.0

385603.1671865898 697700.6204668481 0.0
697700.6204668481 -475910.61456493277 0.0
0.0 0.0 0.0

-360624.9602860479 4.559087393330636e6 0.0
4.559087393330636e6 -1.269969287259283e6 0.0
0.0 0.0 0.0

307062.0290693847 1.7383487169580138e6 0.0
1.7383487169580138e6 -150834.91182337413 0.0
0.0 0.0 0.0

265968.83791149437 969758.2236411278 0.0
969758.2236411278 -1.0020585848211007e6 0.0
0.0 0.0 0.0

-728124.2859048024 2.9181495291891186e6 0.0
2.9181495291891186e6 -705451.3236303856 0.0
0.0 0.0 0.0

833723.4992171989 2.6038654536196203e6 0.0
2.6038654536196203e6 -1.8130722033284078e6 0.0
0.0 0.0 0.0

-136144.3959845479 917436.9784708209 0.0
917436.9784708209 -67432.14047097009 0.0
0.0 0.0 0.0

993207.4458528308 3.5336599690989684e6 0.0
3.5336599690989684e6 -2.0705227921867953e6 0.0
0.0 0.0 0.0

23572.173109148633 5.330269737502588e6 0.0
5.330269737502588e6 78573.7189680291 0.0
0.0 0.0 0.0

-102749.19282345603 2.499883260165319e6 0.0
2.499883260165319e6 -675173.3377011701 0.0
0.0 0.0 0.0

-1.4064277104030773e6 4.756598523436098e6 0.0
4.756598523436098e6 43424.00021187571 0.0
0.0 0.0 0.0

-353290.0199767578 4.282739088604381e6 0.0
4.282739088604381e6 -508750.0970021707 0.0
0.0 0.0 0.0

-1.270088544713743e6 2.0824100016772791e6 0.0
2.0824100016772791e6 1.8201847707903124e6 0.0
0.0 0.0 0.0

-1.1723407388718151e6 3.4251823954880284e6 0.0
3.4251823954880284e6 1.1799781579789852e6 0.0
0.0 0.0 0.0

-118680.30401749804 216287.92769731602 0.0
216287.92769731602 334623.91401403537 0.0
0.0 0.0 0.0

-1.490399852165195e6 3.415086524470866e6 0.0
3.415086524470866e6 227961.4991828038 0.0
0.0 0.0 0.0

326329.9194383155 6.12001001426122e6 0.0
6.12001001426122e6 2.2062932981136614e6 0.0
0.0 0.0 0.0

-912000.2678971528 4.898341434897824e6 0.0
4.898341434897824e6 -91548.96153816578 0.0
0.0 0.0 0.0

-147580.07806131552 2.3493990882693236e6 0.0
2.3493990882693236e6 -138005.3658654468 0.0
0.0 0.0 0.0

-341748.0709104995 4.514651293500451e6 0.0
4.514651293500451e6 -1.4853043854497743e6 0.0
0.0 0.0 0.0

1.7291357972320337e6 1.1409258636269204e6 0.0
1.1409258636269204e6 -2.3091636003095764e6 0.0
0.0 0.0 0.0

-488063.48295792006 3.902260283985009e6 0.0
3.902260283985009e6 -731637.7479956802 0.0
0.0 0.0 0.0

-1.3681008392136446e6 3.2467533321490334e6 0.0
3.2467533321490334e6 251199.1523098611 0.0
0.0 0.0 0.0

1.0391173273341032e6 621213.0166570595 0.0
621213.0166570595 -2.149988245699499e6 0.0
0.0 0.0 0.0

-1.9026534925996256e6 3.612410247685542e6 0.0
3.612410247685542e6 625417.0313480642 0.0
0.0 0.0 0.0

-77892.92981723513 -220872.04898006376 0.0
-220872.04898006376 614171.8816240134 0.0
0.0 0.0 0.0

-84621.86602580956 374388.29213872727 0.0
374388.29213872727 328982.6736376176 0.0
0.0 0.0 0.0

-1.8158185091147437e6 551826.6335547529 0.0
551826.6335547529 2.3425939931056723e6 0.0
0.0 0.0 0.0

-1.1782089482974147e6 3.699976776177481e6 0.0
3.699976776177481e6 -201718.71605198848 0.0
0.0 0.0 0.0

-538407.7866895259 1.5943356992917766e6 0.0
1.5943356992917766e6 -165460.48396256857 0.0
0.0 0.0 0.0

72021.71649591514 2.714771922543637e6 0.0
2.714771922543637e6 348094.7439182474 0.0
0.0 0.0 0.0

-619093.3113749458 6.224841507365646e6 0.0
6.224841507365646e6 3.7876844828033317e6 0.0
0.0 0.0 0.0

1.3490091912994848e6 1.2022413401299324e6 0.0
1.2022413401299324e6 -2.400344637715942e6 0.0
0.0 0.0 0.0

335924.4167209926 1.0882687278673993e6 0.0
1.0882687278673993e6 29583.8214901818 0.0
0.0 0.0 0.0

-1.543226545472568e6 3.498544441516342e6 0.0
3.498544441516342e6 211746.00925473846 0.0
0.0 0.0 0.0

-1.4552963003856991e6 3.646916019821238e6 0.0
3.646916019821238e6 688891.2488946897 0.0
0.0 0.0 0.0

930995.9918053141 3.9415086932161e6 0.0
3.9415086932161e6 -1.8964984473880075e6 0.0
0.0 0.0 0.0

887830.4908324791 3.856655341694371e6 0.0
3.856655341694371e6 -1.643363093469839e6 0.0
0.0 0.0 0.0

277198.2501876906 1.9205247294570408e6 0.0
1.9205247294570408e6 -492175.45423982874 0.0
0.0 0.0 0.0

-1.1793988494173149e6 3.5212628737333007e6 0.0
3.5212628737333007e6 137612.40568306175 0.0
0.0 0.0 0.0

-3.1885489831863577e6 2.3553173970968784e6 0.0
2.3553173970968784e6 8.122268999011099e6 0.0
0.0 0.0 0.0

-537689.8885816982 3.965734962928129e6 0.0
3.965734962928129e6 -648144.1454885958 0.0
0.0 0.0 0.0

239871.77967836507 2.2404741801420744e6 0.0
2.2404741801420744e6 -28900.774958384194 0.0
0.0 0.0 0.0

922540.8096023169 3.725274127774837e6 0.0
3.725274127774837e6 -1.7565061707206182e6 0.0
0.0 0.0 0.0

-1.3741970710137812e6 3.434698195801397e6 0.0
3.434698195801397e6 395713.9119898995 0.0
0.0 0.0 0.0

424626.2574779587 4.521663824861185e6 0.0
4.521663824861185e6 -1.988976595388944e6 0.0
0.0 0.0 0.0

-788375.7518735641 566030.7333916674 0.0
566030.7333916674 337934.0488278637 0.0
0.0 0.0 0.0

-564528.7977665351 3.204790585331374e6 0.0
3.204790585331374e6 -863585.1159441954 0.0
0.0 0.0 0.0

606650.872894476 590320.345368887 0.0
590320.345368887 -1.0510405374920694e6 0.0
0.0 0.0 0.0

-1.0938551115184221e6 2.914337594170562e6 0.0
2.914337594170562e6 393177.9340958234 0.0
0.0 0.0 0.0

-456382.28106322006 2.5006532731290995e6 0.0
2.5006532731290995e6 259612.42106390616 0.0
0.0 0.0 0.0

-836307.0083516143 2.5888957395142284e6 0.0
2.5888957395142284e6 -614299.4448302251 0.0
0.0 0.0 0.0

-1.7350006199270193e6 2.984752642046122e6 0.0
2.984752642046122e6 482063.57309350476 0.0
0.0 0.0 0.0

-341266.10741670814 2.4079661220397847e6 0.0
2.4079661220397847e6 -127760.7978664655 0.0
0.0 0.0 0.0

-3.041374330110056e6 1.0678731610998756e6 0.0
1.0678731610998756e6 6.80674685775421e6 0.0
0.0 0.0 0.0

-3.1818694575649966e6 206831.46467164357 0.0
206831.46467164357 4.298088490999174e6 0.0
0.0 0.0 0.0

-2.683625019542325e6 1.2222072306694319e6 0.0
1.2222072306694319e6 6.046916902704832e6 0.0
0.0 0.0 0.0

-6.934805006794256e6 -2.3679118724315776e6 0.0
-2.3679118724315776e6 8.85807171865369e6 0.0
0.0 0.0 0.0

-488616.4352760015 4.572952077415966e6 0.0
4.572952077415966e6 -473139.67253837927 0.0
0.0 0.0 0.0

-2.325970015343443e6 -390497.75267243164 0.0
-390497.75267243164 2.8194431225013416e6 0.0
0.0 0.0 0.0

-2.141194121096058e6 3.2177764561734824e6 0.0
3.2177764561734824e6 859866.868138942 0.0
0.0 0.0 0.0

-587354.3874016898 4.851814674644371e6 0.0
4.851814674644371e6 -1.1423197204889779e6 0.0
0.0 0.0 0.0

-3.4974488031010907e6 3.1652737073949417e6 0.0
3.1652737073949417e6 -321899.4974536217 0.0
0.0 0.0 0.0

1.2841408526032832e6 1.3514634875365747e6 0.0
1.3514634875365747e6 -1.971151047517592e6 0.0
0.0 0.0 0.0

-213506.2979479463 4.705038583086725e6 0.0
4.705038583086725e6 -1.7580579496732226e6 0.0
0.0 0.0 0.0

-1.9864922070330726e6 3.526626826494879e6 0.0
3.526626826494879e6 797330.1243069613 0.0
0.0 0.0 0.0

-2.1040742805072824e6 3.266066445923032e6 0.0
3.266066445923032e6 776704.6411188951 0.0
0.0 0.0 0.0

839247.6030620013 4.192587397674639e6 0.0
4.192587397674639e6 -1.4120780013420195e6 0.0
0.0 0.0 0.0

-127956.09017323589 6.6444743276824355e6 0.0
6.6444743276824355e6 -533711.5535027559 0.0
0.0 0.0 0.0

-1.1240442761907938e6 3.101682638608212e6 0.0
3.101682638608212e6 48103.980180533545 0.0
0.0 0.0 0.0

715036.5481373188 3.475614116090229e6 0.0
3.475614116090229e6 -1.6611498750766432e6 0.0
0.0 0.0 0.0

-563372.1095106419 2.6424107246178268e6 0.0
2.6424107246178268e6 5422.535395986575 0.0
0.0 0.0 0.0

622021.8194329935 1.7657520705663816e6 0.0
1.7657520705663816e6 -2.643054357658293e6 0.0
0.0 0.0 0.0

-1.1000895043693013e6 2.43718079642267e6 0.0
2.43718079642267e6 1.5530401936855176e6 0.0
0.0 0.0 0.0

-2.8169559371190537e6 3.86683125718175e6 0.0
3.86683125718175e6 -1.4055002902756527e6 0.0
0.0 0.0 0.0

-109933.93519995624 171318.32565376238 0.0
171318.32565376238 209723.234213159 0.0
0.0 0.0 0.0

-598472.5033319512 4.01598924415178e6 0.0
4.01598924415178e6 -556521.1446680083 0.0
0.0 0.0 0.0

-4.403332082426322e6 3.2986891790735214e6 0.0
3.2986891790735214e6 3.2151754526625006e6 0.0
0.0 0.0 0.0

1.6059360121309198e6 930533.3977142666 0.0
930533.3977142666 -2.634602368297083e6 0.0
0.0 0.0 0.0

-88730.5665130374 2.332285313994641e6 0.0
2.332285313994641e6 72205.94632412381 0.0
0.0 0.0 0.0

-570928.6217084199 3.004026336636091e6 0.0
3.004026336636091e6 -571043.3550990266 0.0
0.0 0.0 0.0

-1.5007106449648426e6 2.4698226945878034e6 0.0
2.4698226945878034e6 506845.5922285812 0.0
0.0 0.0 0.0

-1.3173998167697086e6 3.324275285030126e6 0.0
3.324275285030126e6 101507.86646212469 0.0
0.0 0.0 0.0

-740243.3194900714 532244.5373792312 0.0
532244.5373792312 850501.5142931212 0.0
0.0 0.0 0.0

918638.934871129 3.278611605058787e6 0.0
3.278611605058787e6 -1.9484139738946764e6 0.0
0.0 0.0 0.0

1.099096752611069e6 2.2612885056999954e6 0.0
2.2612885056999954e6 -1.8384546651534191e6 0.0
0.0 0.0 0.0

-1.324494972929088e6 3.450430929300184e6 0.0
3.450430929300184e6 350601.373165594 0.0
0.0 0.0 0.0

265401.059383407 842023.6604507823 0.0
842023.6604507823 -868192.2633435803 0.0
0.0 0.0 0.0

-833483.9511636504 2.286769559771558e6 0.0
2.286769559771558e6 -516775.0674552847 0.0
0.0 0.0 0.0

704717.5735522086 3.6114418575185747e6 0.0
3.6114418575185747e6 -1.332385665083941e6 0.0
0.0 0.0 0.0

-167590.87570512554 -39944.40799774038 0.0
-39944.40799774038 347516.2679137487 0.0
0.0 0.0 0.0

-543104.2876235003 4.5854811672639605e6 0.0
4.5854811672639605e6 -460999.11404315056 0.0
0.0 0.0 0.0

-98479.41396292092 602713.8921964805 0.0
602713.8921964805 -91198.8207827596 0.0
0.0 0.0 0.0

-80282.21465316473 5.334462833661155e6 0.0
5.334462833661155e6 -2.100997032304252e6 0.0
0.0 0.0 0.0

-452491.47201817593 4.707091285471219e6 0.0
4.707091285471219e6 -1.2494918298172574e6 0.0
0.0 0.0 0.0

28537.101256646973 2.58346209346877e6 0.0
2.58346209346877e6 -883456.087470785 0.0
0.0 0.0 0.0

-275545.1067909624 4.649813816252935e6 0.0
4.649813816252935e6 -1.517854134914604e6 0.0
0.0 0.0 0.0

-355792.29274823173 4.074889631993368e6 0.0
4.074889631993368e6 -936766.6498428094 0.0
0.0 0.0 0.0

1.1296050854181848e6 207724.53209077203 0.0
207724.53209077203 -1.3250369313448435e6 0.0
0.0 0.0 0.0

156576.97968338625 372535.60731272754 0.0
372535.60731272754 -407123.7999071778 0.0
0.0 0.0 0.0

-791565.2806474796 1.9838113765324238e6 0.0
1.9838113765324238e6 -430224.78603686177 0.0
0.0 0.0 0.0

-539887.5076334191 1.9134038408077876e6 0.0
1.9134038408077876e6 -809372.3322517788 0.0
0.0 0.0 0.0

-482933.00253670337 3.406118520881279e6 0.0
3.406118520881279e6 -667421.8518106199 0.0
0.0 0.0 0.0

-602473.610504776 4.617395533725676e6 0.0
4.617395533725676e6 -445923.31652009184 0.0
0.0 0.0 0.0

-223131.0005170295 2.2072778849495146e6 0.0
2.2072778849495146e6 -1.9956089715549736e6 0.0
0.0 0.0 0.0

-583158.7016569101 3.7314350973767457e6 0.0
3.7314350973767457e6 -1.2810807605045466e6 0.0
0.0 0.0 0.0

444472.4184577724 951777.039356957 0.0
951777.039356957 -1.099062450836295e6 0.0
0.0 0.0 0.0

-658258.1076520691 2.6626333779541515e6 0.0
2.6626333779541515e6 -1.2427919572665815e6 0.0
0.0 0.0 0.0

-7.220043766133953e6 -2.7116200800031954e6 0.0
-2.7116200800031954e6 6.884145772071917e6 0.0
0.0 0.0 0.0

5.587423507785767e6 7.660904401773702e6 0.0
7.660904401773702e6 -91849.87355309003 0.0
0.0 0.0 0.0

-668638.492133061 2.9959421874698955e6 0.0
2.9959421874698955e6 -1.1683371370241991e6 0.0
0.0 0.0 0.0

-946690.1653746217 3.2957008433335684e6 0.0
3.2957008433335684e6 -35881.55488848931 0.0
0.0 0.0 0.0

-1.8542554113638357e6 3.1255541711337008e6 0.0
3.1255541711337008e6 716999.0888000239 0.0
0.0 0.0 0.0

-1.0085822029789238e6 2.0468530621461682e6 0.0
2.0468530621461682e6 -272288.9254955954 0.0
0.0 0.0 0.0

-121738.47814018388 1.23461657604837e6 0.0
1.23461657604837e6 -494473.9138097979 0.0
0.0 0.0 0.0

-421453.19146667165 1.398126288880973e6 0.0
1.398126288880973e6 -286726.57498086675 0.0
0.0 0.0 0.0

-1.374690135251882e6 3.4526235023273346e6 0.0
3.4526235023273346e6 144678.19736052305 0.0
0.0 0.0 0.0

-607456.8182179915 3.27965639328102e6 0.0
3.27965639328102e6 -1.190586934929098e6 0.0
0.0 0.0 0.0

-551398.2962454559 2.0576358823635115e6 0.0
2.0576358823635115e6 -579289.975582185 0.0
0.0 0.0 0.0

-339567.5853468506 862470.015677932 0.0
862470.015677932 -377856.3064176879 0.0
0.0 0.0 0.0

1.624642084492655e6 7.749555860858147e6 0.0
7.749555860858147e6 -36965.41101608926 0.0
0.0 0.0 0.0

-722409.0215523324 2.0577807121966837e6 0.0
2.0577807121966837e6 -313169.5743915431 0.0
0.0 0.0 0.0

814600.8080578407 3.3705884019102305e6 0.0
3.3705884019102305e6 -1.717988356981029e6 0.0
0.0 0.0 0.0

829967.1380044753 3.799693676483835e6 0.0
3.799693676483835e6 -1.4974849108217494e6 0.0
0.0 0.0 0.0

-1.0987225855437755e6 2.836199096084255e6 0.0
2.836199096084255e6 1.3136419403475458e6 0.0
0.0 0.0 0.0

-376756.71411290934 4.398801459216677e6 0.0
4.398801459216677e6 -1.1357965007054051e6 0.0
0.0 0.0 0.0

-1.3791590838190967e6 4.116260649721605e6 0.0
4.116260649721605e6 1.018861870511896e6 0.0
0.0 0.0 0.0

-279725.7079330508 5.543513523347812e6 0.0
5.543513523347812e6 -601974.7602250795 0.0
0.0 0.0 0.0

-1.6639742215619404e6 2.79021304708626e6 0.0
2.79021304708626e6 531069.7200472415 0.0
0.0 0.0 0.0

-217049.5683203127 1.0991195641608874e6 0.0
1.0991195641608874e6 -685517.0856136631 0.0
0.0 0.0 0.0

-566236.830922805 1.8945259125437466e6 0.0
1.8945259125437466e6 -127381.43660224645 0.0
0.0 0.0 0.0

436622.89278537215 1.452251893408686e6 0.0
1.452251893408686e6 -734461.4872667084 0.0
0.0 0.0 0.0

-532161.0133854636 2.8371002982418537e6 0.0
2.8371002982418537e6 -1.4970942654749502e6 0.0
0.0 0.0 0.0

-25725.11130699562 5.092567468387052e6 0.0
5.092567468387052e6 -2.1099849346756674e6 0.0
0.0 0.0 0.0

1.8659583275791197e6 799944.8106489084 0.0
799944.8106489084 -2.428021209102409e6 0.0
0.0 0.0 0.0

271628.4089166414 1.941521243887741e6 0.0
1.941521243887741e6 -1.551010616311927e6 0.0
0.0 0.0 0.0

-1.789247058280846e6 3.043842914168568e6 0.0
3.043842914168568e6 568317.0954340108 0.0
0.0 0.0 0.0

364518.83692526445 2.7756203604723597e6 0.0
2.7756203604723597e6 -2.3838871031113546e6 0.0
0.0 0.0 0.0

-501045.61665688304 1.3587484372181736e6 0.0
1.3587484372181736e6 -213232.37327005182 0.0
0.0 0.0 0.0

738367.001589076 3.044469572073923e6 0.0
3.044469572073923e6 -1.815868002466917e6 0.0
0.0 0.0 0.0

-597141.3493326514 2.5445935370594356e6 0.0
2.5445935370594356e6 -553279.4272547353 0.0
0.0 0.0 0.0

514266.17048311775 1.2875370314860104e6 0.0
1.2875370314860104e6 -1.184344763139769e6 0.0
0.0 0.0 0.0

-1.6499698821660092e6 3.6614473818494705e6 0.0
3.6614473818494705e6 218763.75757033867 0.0
0.0 0.0 0.0

900335.2667203995 4.001333318256305e6 0.0
4.001333318256305e6 -1.9665936094308374e6 0.0
0.0 0.0 0.0

-676944.540180125 2.678710484667208e6 0.0
2.678710484667208e6 -475712.63833037217 0.0
0.0 0.0 0.0

634985.0600331251 4.519690940720624e6 0.0
4.519690940720624e6 -1.02882623334155e6 0.0
0.0 0.0 0.0

294346.1594308142 1.1593435691563736e6 0.0
1.1593435691563736e6 -193402.3455964878 0.0
0.0 0.0 0.0

722798.7228063886 3.9847905660316544e6 0.0
3.9847905660316544e6 -1.212138097106382e6 0.0
0.0 0.0 0.0

-1.568248181868365e6 3.483664058231168e6 0.0
3.483664058231168e6 358878.32813446247 0.0
0.0 0.0 0.0

-1.301002949588045e6 4.559927466011301e6 0.0
4.559927466011301e6 -79827.1809525314 0.0
0.0 0.0 0.0

-416131.4764420091 4.8318327855975265e6 0.0
4.8318327855975265e6 -1.3162571683337756e6 0.0
0.0 0.0 0.0

-315416.67457905115 886058.3483299795 0.0
886058.3483299795 -385796.02748113347 0.0
0.0 0.0 0.0

-1.4498273488218142e6 4.423241284695526e6 0.0
4.423241284695526e6 498891.07471035887 0.0
0.0 0.0 0.0

-887087.9201521486 3.636196711150244e6 0.0
3.636196711150244e6 -124438.92994201338 0.0
0.0 0.0 0.0

-12894.464176932757 1.7052950468736673e6 0.0
1.7052950468736673e6 -585632.4696020577 0.0
0.0 0.0 0.0

-861767.3728587114 4.9205203597231135e6 0.0
4.9205203597231135e6 -61757.65293041154 0.0
0.0 0.0 0.0

460010.9818078647 1.0809044462705732e6 0.0
1.0809044462705732e6 -1.07108031191633e6 0.0
0.0 0.0 0.0

-1.0107353768591103e6 2.5054869779375107e6 0.0
2.5054869779375107e6 354607.64736928174 0.0
0.0 0.0 0.0

-1.2005974245315613e6 193050.2788595961 0.0
193050.2788595961 2.4239999519333215e6 0.0
0.0 0.0 0.0

-924549.703487938 3.546173051837988e6 0.0
3.546173051837988e6 -249743.49613819824 0.0
0.0 0.0 0.0

-397104.2163726852 5.100451582412261e6 0.0
5.100451582412261e6 -868609.4264325569 0.0
0.0 0.0 0.0

-852230.2542733046 2.1268744548998643e6 0.0
2.1268744548998643e6 -147011.98112469236 0.0
0.0 0.0 0.0

-940960.7171975066 2.387701912923621e6 0.0
2.387701912923621e6 -469070.01748661103 0.0
0.0 0.0 0.0

-532593.0881870249 4.0452519146856726e6 0.0
4.0452519146856726e6 -1.3964381087272272e6 0.0
0.0 0.0 0.0

795247.7567720938 3.9443961307789194e6 0.0
3.9443961307789194e6 -1.7347694284871817e6 0.0
0.0 0.0 0.0

-272575.40959110146 2.7717837665156843e6 0.0
2.7717837665156843e6 -87170.72197637515 0.0
0.0 0.0 0.0

-1.8941616191314699e6 3.7225017156161913e6 0.0
3.7225017156161913e6 646005.6745681571 0.0
0.0 0.0 0.0

-57448.698418767424 440621.90651385597 0.0
440621.90651385597 71313.64513201277 0.0
0.0 0.0 0.0

-629088.0902442691 4.0680720442388305e6 0.0
4.0680720442388305e6 -466677.52459367237 0.0
0.0 0.0 0.0

-583972.4438857513 4.694476334085797e6 0.0
4.694476334085797e6 -736802.1911446915 0.0
0.0 0.0 0.0

1.695432947488462e6 2.342148230189312e6 0.0
2.342148230189312e6 844608.9944848511 0.0
0.0 0.0 0.0

27159.557836049353 987146.5114567825 0.0
987146.5114567825 -876237.5638500326 0.0
0.0 0.0 0.0

-622920.8238842108 3.227560513982578e6 0.0
3.227560513982578e6 -411727.7402066286 0.0
0.0 0.0 0.0

-543389.6678573738 4.437031512134648e6 0.0
4.437031512134648e6 -1.3300166251505476e6 0.0
0.0 0.0 0.0

-689609.669875083 2.3493127854830753e6 0.0
2.3493127854830753e6 -419912.9845537889 0.0
0.0 0.0 0.0

-402825.11180304806 3.282909475169855e6 0.0
3.282909475169855e6 -743300.8949070093 0.0
0.0 0.0 0.0

-1.0556379748938452e6 1.0428924708966743e6 0.0
1.0428924708966743e6 2.53994019587118e6 0.0
0.0 0.0 0.0

-271546.14021395537 2.5317680523430067e6 0.0
2.5317680523430067e6 -308082.7268160877 0.0
0.0 0.0 0.0

-1.0435337759889945e6 2.2386275279398775e6 0.0
2.2386275279398775e6 -320706.5916689678 0.0
0.0 0.0 0.0

-1.4757738003285644e6 2.7003733805043856e6 0.0
2.7003733805043856e6 106319.11931786092 0.0
0.0 0.0 0.0

-1.8189656854698658e6 2.950337715182044e6 0.0
2.950337715182044e6 1.6694212678945109e6 0.0
0.0 0.0 0.0

-2.5539415261087436e6 3.573024124120324e6 0.0
3.573024124120324e6 1.2558542795759626e6 0.0
0.0 0.0 0.0

-50438.18565815361 5.21911699135182e6 0.0
5.21911699135182e6 -2.1333889325272916e6 0.0
0.0 0.0 0.0

-2.876927282705332e6 3.5238668127833777e6 0.0
3.5238668127833777e6 1.0115291651819398e6 0.0
0.0 0.0 0.0

-1.0571978701949383e6 3.265602508463285e6 0.0
3.265602508463285e6 -286814.0944054144 0.0
0.0 0.0 0.0

-2.4900013024691106e6 5.206049880306269e6 0.0
5.206049880306269e6 1.1675589981755037e6 0.0
0.0 0.0 0.0

-199075.73731324828 5.149181712832814e6 0.0
5.149181712832814e6 -359826.4657362709 0.0
0.0 0.0 0.0

-436456.4693580628 4.7887184595267e6 0.0
4.7887184595267e6 -1.226969218936963e6 0.0
0.0 0.0 0.0

-1.093955193755885e6 4.467017014839752e6 0.0
4.467017014839752e6 657954.9110306907 0.0
0.0 0.0 0.0

-1.562151501138894e6 3.8492506515971804e6 0.0
3.8492506515971804e6 469365.18546033953 0.0
0.0 0.0 0.0

-705132.7748311162 3.261422067426711e6 0.0
3.261422067426711e6 -406634.3882241788 0.0
0.0 0.0 0.0

-1.1544647524363166e6 2.1552261480005286e6 0.0
2.1552261480005286e6 -176579.62948563445 0.0
0.0 0.0 0.0

-349694.4577491645 4.775990683984431e6 0.0
4.775990683984431e6 -1.3785386219155304e6 0.0
0.0 0.0 0.0

-1.4938934713824294e6 2.0917759625538823e6 0.0
2.0917759625538823e6 136063.24836246303 0.0
0.0 0.0 0.0

-2.08041388918441e6 3.1632063777977345e6 0.0
3.1632063777977345e6 862572.3139335033 0.0
0.0 0.0 0.0

-2.4480277460153787e6 3.5493306356765e6 0.0
3.5493306356765e6 1.1205345847322124e6 0.0
0.0 0.0 0.0

324149.98586567177 641324.3440199341 0.0
641324.3440199341 -400100.51803295943 0.0
0.0 0.0 0.0

-434072.3259459897 1.5811534060802131e6 0.0
1.5811534060802131e6 -956620.8707280947 0.0
0.0 0.0 0.0

-2.61817855419395e6 3.5934634432981294e6 0.0
3.5934634432981294e6 1.3753254083328256e6 0.0
0.0 0.0 0.0

-1.3159098568782385e6 3.4852341861187005e6 0.0
3.4852341861187005e6 354901.23112823063 0.0
0.0 0.0 0.0

-3.5241647479164694e6 -2.0506118248208428e6 0.0
-2.0506118248208428e6 3.725289937759231e6 0.0
0.0 0.0 0.0

-277423.18884391047 4.707064103034708e6 0.0
4.707064103034708e6 -1.51303725264412e6 0.0
0.0 0.0 0.0

-1.0528981183648217e6 3.5060079792154874e6 0.0
3.5060079792154874e6 120235.12703646562 0.0
0.0 0.0 0.0

-2.0730671421568342e6 3.2454859922902253e6 0.0
3.2454859922902253e6 1.0781673008516028e6 0.0
0.0 0.0 0.0

-1.1509354512363216e6 3.471151977517926e6 0.0
3.471151977517926e6 227946.13628814602 0.0
0.0 0.0 0.0

-708578.9451914445 4.693639576802685e6 0.0
4.693639576802685e6 -417594.585825703 0.0
0.0 0.0 0.0

-952651.0896099033 3.2422514944106885e6 0.0
3.2422514944106885e6 -139273.65366178605 0.0
0.0 0.0 0.0

-975988.5593114053 3.376392376895595e6 0.0
3.376392376895595e6 -273488.6167988548 0.0
0.0 0.0 0.0

2733.6742891234753 2.0836562543317722e6 0.0
2.0836562543317722e6 384527.89004652656 0.0
0.0 0.0 0.0

-1.4530007894841111e6 2.263035049787536e6 0.0
2.263035049787536e6 488267.70118905045 0.0
0.0 0.0 0.0

1.287466536742275e6 328819.4884021276 0.0
328819.4884021276 -1.6991148060903288e6 0.0
0.0 0.0 0.0

-1.720720141020374e6 2.5156174588183505e6 0.0
2.5156174588183505e6 441846.2347709108 0.0
0.0 0.0 0.0

-937912.0629655264 3.8617251631235285e6 0.0
3.8617251631235285e6 -390389.6099067653 0.0
0.0 0.0 0.0

-1.201465844234898e6 3.56565312454908e6 0.0
3.56565312454908e6 251953.38411496708 0.0
0.0 0.0 0.0

-1.7932551667660782e6 2.738164884416576e6 0.0
2.738164884416576e6 593506.5238338509 0.0
0.0 0.0 0.0

501029.18164523714 666363.2785893964 0.0
666363.2785893964 -541829.8419661063 0.0
0.0 0.0 0.0

1.2354083986024149e6 465522.2074244787 0.0
465522.2074244787 -1.8788179230101984e6 0.0
0.0 0.0 0.0

129977.55908937877 989703.6511342725 0.0
989703.6511342725 319662.5231362558 0.0
0.0 0.0 0.0

235877.76339948468 614065.6380963635 0.0
614065.6380963635 -624640.5646414527 0.0
0.0 0.0 0.0

-513811.16480566276 4.342673778257273e6 0.0
4.342673778257273e6 161404.46277301916 0.0
0.0 0.0 0.0

-1.5459010568860238e6 2.8354599581875e6 0.0
2.8354599581875e6 180327.3597653967 0.0
0.0 0.0 0.0

-482275.6818582884 1.1360774499160773e6 0.0
1.1360774499160773e6 -1.087418997314443e6 0.0
0.0 0.0 0.0

55985.1725622175 215190.23505793224 0.0
215190.23505793224 85162.99493932271 0.0
0.0 0.0 0.0

-1.9744246591048483e6 3.30953404992873e6 0.0
3.30953404992873e6 1.0031279671878777e6 0.0
0.0 0.0 0.0

-1.5189757713025277e6 3.195447525453435e6 0.0
3.195447525453435e6 215783.2685743741 0.0
0.0 0.0 0.0

-871653.2368609444 2.163332107019691e6 0.0
2.163332107019691e6 272329.84830356936 0.0
0.0 0.0 0.0

-1.6719516022016294e6 2.3308900304544587e6 0.0
2.3308900304544587e6 387136.1573496135 0.0
0.0 0.0 0.0

-431763.16952453594 4.404723048396941e6 0.0
4.404723048396941e6 -1.611111163355387e6 0.0
0.0 0.0 0.0

-1.3486098597313943e6 3.536272709700922e6 0.0
3.536272709700922e6 232043.9855678369 0.0
0.0 0.0 0.0

-555262.6943781435 4.696450082471798e6 0.0
4.696450082471798e6 -748503.7075145718 0.0
0.0 0.0 0.0

-4.620409161979259e6 2.6320340596103584e6 0.0
2.6320340596103584e6 1.211647757256496e7 0.0
0.0 0.0 0.0

-771926.4278328324 3.2565833280423367e6 0.0
3.2565833280423367e6 622971.1762041828 0.0
0.0 0.0 0.0

-108886.30370484357 2.903773898759793e6 0.0
2.903773898759793e6 -818577.6562551389 0.0
0.0 0.0 0.0

-163881.30948294338 4.754154927981244e6 0.0
4.754154927981244e6 -1.8739760408383664e6 0.0
0.0 0.0 0.0

-1.7572297938609114e6 2.812194758336835e6 0.0
2.812194758336835e6 706854.1504479062 0.0
0.0 0.0 0.0

-703671.0609714895 4.871817518772238e6 0.0
4.871817518772238e6 -504608.98840785224 0.0
0.0 0.0 0.0

-2.2461605787676577e6 3.5551084466670156e6 0.0
3.5551084466670156e6 804687.2364585227 0.0
0.0 0.0 0.0

-2.33032383800439e6 3.4985616689320668e6 0.0
3.4985616689320668e6 1.0316855445452594e6 0.0
0.0 0.0 0.0

-460728.0917006255 4.768044813717595e6 0.0
4.768044813717595e6 -1.119411751810116e6 0.0
0.0 0.0 0.0

-1.6937678220929247e6 2.6930031405517804e6 0.0
2.6930031405517804e6 666407.4000249275 0.0
0.0 0.0 0.0

-1.2760805914792977e6 3.483304929634732e6 0.0
3.483304929634732e6 322359.0858925836 0.0
0.0 0.0 0.0

136540.61872670156 1.341055280854736e6 0.0
1.341055280854736e6 -684985.8936055476 0.0
0.0 0.0 0.0

1.6233719414334106e6 555464.4771683222 0.0
555464.4771683222 -2.517594247196081e6 0.0
0.0 0.0 0.0

-1.654736766518969e6 2.644153564654913e6 0.0
2.644153564654913e6 650369.9978441286 0.0
0.0 0.0 0.0

574991.7730463727 4.463739151500129e6 0.0
4.463739151500129e6 -1.3635591366431708e6 0.0
0.0 0.0 0.0

-1.878347460767436e6 3.248745923260058e6 0.0
3.248745923260058e6 620776.7116738083 0.0
0.0 0.0 0.0

-688275.0623155122 1.8762081363967871e6 0.0
1.8762081363967871e6 242104.17941761352 0.0
0.0 0.0 0.0

-2.639073054428202e6 4.410405506130274e6 0.0
4.410405506130274e6 1.198168394835183e6 0.0
0.0 0.0 0.0

-6.661392294677428e6 -2.147911476767913e6 0.0
-2.147911476767913e6 3.5227878198200827e6 0.0
0.0 0.0 0.0

-627160.9140490448 1.59934004147451e6 0.0
1.59934004147451e6 141469.22854577602 0.0
0.0 0.0 0.0

-369775.4581637344 3.654038721177413e6 0.0
3.654038721177413e6 -1.4835618740196277e6 0.0
0.0 0.0 0.0

-547347.2431954236 4.965013746851121e6 0.0
4.965013746851121e6 -721418.5584970819 0.0
0.0 0.0 0.0

-667564.1443144609 2.139048047848446e6 0.0
2.139048047848446e6 -400549.4916847606 0.0
0.0 0.0 0.0

-444111.95017800847 4.649981122924073e6 0.0
4.649981122924073e6 -1.0717853126818975e6 0.0
0.0 0.0 0.0

-538666.4486976485 1.3645035350080198e6 0.0
1.3645035350080198e6 23564.68635407975 0.0
0.0 0.0 0.0

715925.9055057636 3.964170002680533e6 0.0
3.964170002680533e6 -1.0619990705118394e6 0.0
0.0 0.0 0.0

-2.614643036165079e6 3.5331791264878563e6 0.0
3.5331791264878563e6 1.2794830034231246e6 0.0
0.0 0.0 0.0

59989.90692222581 1.2522527581141822e6 0.0
1.2522527581141822e6 -596080.8594146458 0.0
0.0 0.0 0.0

-451166.87702962407 2.009556983059424e6 0.0
2.009556983059424e6 -1.3446905226156088e6 0.0
0.0 0.0 0.0

-2.8629723806534577e6 4.471045611485991e6 0.0
4.471045611485991e6 1.368389795888042e6 0.0
0.0 0.0 0.0

-386418.9396958372 5.108023376647276e6 0.0
5.108023376647276e6 -847661.1663788644 0.0
0.0 0.0 0.0

-793352.713283262 4.474615883002588e6 0.0
4.474615883002588e6 -108555.25240106261 0.0
0.0 0.0 0.0

250680.67675818357 2.8465981293919603e6 0.0
2.8465981293919603e6 -1.4346232523261101e6 0.0
0.0 0.0 0.0

-802328.6641847802 2.10600776875931e6 0.0
2.10600776875931e6 1.385077970645183e6 0.0
0.0 0.0 0.0

-2.5079985800933167e6 3.2573650084111155e6 0.0
3.2573650084111155e6 1.1981632360215667e6 0.0
0.0 0.0 0.0

608143.8914322141 2.451722255649304e6 0.0
2.451722255649304e6 -1.5431126233380267e6 0.0
0.0 0.0 0.0

-345125.7994739306 979120.1851398622 0.0
979120.1851398622 -240559.10525437424 0.0
0.0 0.0 0.0

-589147.7759865137 844703.9370912381 0.0
844703.9370912381 -991181.1696814948 0.0
0.0 0.0 0.0

-2.410137759614483e6 3.7664041089170347e6 0.0
3.7664041089170347e6 592035.986571995 0.0
0.0 0.0 0.0

437078.1510336167 484686.9734506627 0.0
484686.9734506627 -616819.3623492327 0.0
0.0 0.0 0.0

-622238.653246139 2.8526812798158675e6 0.0
2.8526812798158675e6 225280.14489154748 0.0
0.0 0.0 0.0

-2.2738922051094444e6 3.480570656091674e6 0.0
3.480570656091674e6 1.2290066409597364e6 0.0
0.0 0.0 0.0

-374652.48923349084 3.1880213797012167e6 0.0
3.1880213797012167e6 -842028.9963158728 0.0
0.0 0.0 0.0

-631234.5230015022 4.6497815541892545e6 0.0
4.6497815541892545e6 -33524.37145531227 0.0
0.0 0.0 0.0

-1.8192231595046376e6 2.838370387389778e6 0.0
2.838370387389778e6 665045.3365907478 0.0
0.0 0.0 0.0

-758928.3121181711 2.468902200268381e6 0.0
2.468902200268381e6 -344021.49764332443 0.0
0.0 0.0 0.0

-248803.52064461244 5.008822264915747e6 0.0
5.008822264915747e6 -1.6488721222000641e6 0.0
0.0 0.0 0.0

-961478.6113792356 4.658576455861493e6 0.0
4.658576455861493e6 70033.56307320076 0.0
0.0 0.0 0.0

-437695.35909483675 4.453883328840686e6 0.0
4.453883328840686e6 -1.4913613559799555e6 0.0
0.0 0.0 0.0

182166.15417264882 1.079070785118202e6 0.0
1.079070785118202e6 -705542.893190447 0.0
0.0 0.0 0.0

-436873.48810856976 8.3717683160308385e6 0.0
8.3717683160308385e6 9.49106294389317e6 0.0
0.0 0.0 0.0

-2.0861324829456739e6 3.9506145057194154e6 0.0
3.9506145057194154e6 497035.56340515893 0.0
0.0 0.0 0.0

-1.8336293838656894e6 2.76291087478444e6 0.0
2.76291087478444e6 667518.3223584521 0.0
0.0 0.0 0.0

-468112.75939039595 5.315131476057716e6 0.0
5.315131476057716e6 -642214.5397929318 0.0
0.0 0.0 0.0

-2.0668276776700038e6 3.459607819195977e6 0.0
3.459607819195977e6 1.080115368464146e6 0.0
0.0 0.0 0.0

309947.22274722456 2.3386288876394797e6 0.0
2.3386288876394797e6 -224458.13294470625 0.0
0.0 0.0 0.0

-482251.25998767046 4.773936846337277e6 0.0
4.773936846337277e6 -1.0101171898611374e6 0.0
0.0 0.0 0.0

-340509.88181226474 4.4678445877765715e6 0.0
4.4678445877765715e6 -1.285103112508278e6 0.0
0.0 0.0 0.0

-386683.4960256533 4.44891689049282e6 0.0
4.44891689049282e6 -1.131488380724978e6 0.0
0.0 0.0 0.0

-1.3819680231834056e6 2.232449211061076e6 0.0
2.232449211061076e6 43209.76932693651 0.0
0.0 0.0 0.0

-366649.67095732526 6.625178238382324e6 0.0
6.625178238382324e6 -238234.44793544593 0.0
0.0 0.0 0.0

-378549.166665614 2.2358899798615957e6 0.0
2.2358899798615957e6 -990620.1360124322 0.0
0.0 0.0 0.0

1.2625963193229353e6 934633.2933378536 0.0
934633.2933378536 -1.5768118150958107e6 0.0
0.0 0.0 0.0

-320110.7709862658 4.50175449947377e6 0.0
4.50175449947377e6 -1.4663596432594792e6 0.0
0.0 0.0 0.0

806862.9325535952 4.301378919136618e6 0.0
4.301378919136618e6 -1.9380543286008632e6 0.0
0.0 0.0 0.0

540816.8800023841 1.523329324108317e6 0.0
1.523329324108317e6 -885629.7906199817 0.0
0.0 0.0 0.0

-1.8867441719983846e6 3.2346677445716714e6 0.0
3.2346677445716714e6 746876.1171193317 0.0
0.0 0.0 0.0

808115.9669732283 3.1064776020412724e6 0.0
3.1064776020412724e6 -1.8075791509376727e6 0.0
0.0 0.0 0.0

557641.5176129669 188509.63976500928 0.0
188509.63976500928 -1.4610267819711193e6 0.0
0.0 0.0 0.0

-1.297735818948032e6 2.304340882748025e6 0.0
2.304340882748025e6 317160.93432381045 0.0
0.0 0.0 0.0

-1.8076770299514e6 1.0263581088990966e6 0.0
1.0263581088990966e6 3.8144312445150446e6 0.0
0.0 0.0 0.0

-1.498968128733542e6 3.974421689863988e6 0.0
3.974421689863988e6 594064.4391143363 0.0
0.0 0.0 0.0

-430671.07239572983 2.5768178086976586e6 0.0
2.5768178086976586e6 65398.39812940938 0.0
0.0 0.0 0.0

-1.2230676388280515e6 3.4050965687946887e6 0.0
3.4050965687946887e6 967056.0239625897 0.0
0.0 0.0 0.0

855349.5283481582 2.258875487340217e6 0.0
2.258875487340217e6 -1.8471260412131257e6 0.0
0.0 0.0 0.0

-249612.8038629368 4.520570510007245e6 0.0
4.520570510007245e6 -1.644592368977348e6 0.0
0.0 0.0 0.0

-1.0569217812185189e7 2.8504641548203025e6 0.0
2.8504641548203025e6 4.334413415130376e6 0.0
0.0 0.0 0.0

-923044.2787749871 3.6067735024279556e6 0.0
3.6067735024279556e6 -151925.546362959 0.0
0.0 0.0 0.0

337847.9157309457 826055.0282819896 0.0
826055.0282819896 -776284.3873822906 0.0
0.0 0.0 0.0

-560894.9568513485 4.662386437914082e6 0.0
4.662386437914082e6 -801924.5413526885 0.0
0.0 0.0 0.0

-419504.8722281326 4.437921213448353e6 0.0
4.437921213448353e6 -1.0374684819873518e6 0.0
0.0 0.0 0.0

-504489.0292805787 30148.32709061595 0.0
30148.32709061595 444448.61564649193 0.0
0.0 0.0 0.0

-514138.33081961004 -84472.03488013867 0.0
-84472.03488013867 1.6174670336228097e6 0.0
0.0 0.0 0.0

-2.2080882434756523e6 3.7676446757196314e6 0.0
3.7676446757196314e6 567284.8916086749 0.0
0.0 0.0 0.0

-1.0683758306082394e6 3.578114210476204e6 0.0
3.578114210476204e6 110795.77708263451 0.0
0.0 0.0 0.0

-2.5596456975579113e6 3.5428408016340206e6 0.0
3.5428408016340206e6 903755.7218282747 0.0
0.0 0.0 0.0

509721.9346308266 4.968944032636878e6 0.0
4.968944032636878e6 -1.2450810052371165e6 0.0
0.0 0.0 0.0

-1.44707716479012e6 3.426677453813516e6 0.0
3.426677453813516e6 451378.9590906364 0.0
0.0 0.0 0.0

-54048.05065050925 1.0326267798032418e6 0.0
1.0326267798032418e6 416445.07591662626 0.0
0.0 0.0 0.0

-8.51066313287856e6 -2.0179495396266219e6 0.0
-2.0179495396266219e6 4.30783675810008e6 0.0
0.0 0.0 0.0

-2.0148938040468348e6 3.2401548768012947e6 0.0
3.2401548768012947e6 815080.7701526325 0.0
0.0 0.0 0.0

-1.3011338436814977e6 3.5870223850777233e6 0.0
3.5870223850777233e6 885113.399610361 0.0
0.0 0.0 0.0

-1.7949011472381798e6 4.305797174856579e6 0.0
4.305797174856579e6 320691.04500390135 0.0
0.0 0.0 0.0

417853.6021491637 614627.2555310961 0.0
614627.2555310961 -567710.3833611362 0.0
0.0 0.0 0.0

-953572.5769616665 3.631794619159034e6 0.0
3.631794619159034e6 -214484.82207199492 0.0
0.0 0.0 0.0

-2.4895810442002257e6 6.620167399835446e6 0.0
6.620167399835446e6 58193.987534605316 0.0
0.0 0.0 0.0

-2.0592149626172916e6 5.768216620046215e6 0.0
5.768216620046215e6 397626.1529275832 0.0
0.0 0.0 0.0

1.6993912163696708e6 855289.235463731 0.0
855289.235463731 -2.3408606047218647e6 0.0
0.0 0.0 0.0

-1.4345029551600015e6 3.764406613607535e6 0.0
3.764406613607535e6 784408.6620204055 0.0
0.0 0.0 0.0

-1.1959405128982358e6 2.6535507114502806e6 0.0
2.6535507114502806e6 181301.21277153637 0.0
0.0 0.0 0.0

901939.4878431658 3.8171251176165557e6 0.0
3.8171251176165557e6 -1.8590846304727395e6 0.0
0.0 0.0 0.0

-437201.14261016704 -567023.9740138752 0.0
-567023.9740138752 506489.511055921 0.0
0.0 0.0 0.0

124827.70126701111 2.6250594153189585e6 0.0
2.6250594153189585e6 -1.5795950641708558e6 0.0
0.0 0.0 0.0

877401.1614368093 3.823991808311915e6 0.0
3.823991808311915e6 -1.573196416294854e6 0.0
0.0 0.0 0.0

-583196.0023598445 4.974852339515765e6 0.0
4.974852339515765e6 -1.0365848649800929e6 0.0
0.0 0.0 0.0

30499.573816743796 5.446660191618692e6 0.0
5.446660191618692e6 -1.7241880492980548e6 0.0
0.0 0.0 0.0

-3.0101911611284423e6 5.360005468347473e6 0.0
5.360005468347473e6 1.2981313533207504e6 0.0
0.0 0.0 0.0

-1.5332424165339929e6 2.217092589101988e6 0.0
2.217092589101988e6 4.1373713244490772e6 0.0
0.0 0.0 0.0

-191170.14034427382 -473863.4904384733 0.0
-473863.4904384733 239466.85606326076 0.0
0.0 0.0 0.0

-1.2739303869362574e6 2.788672785197524e6 0.0
2.788672785197524e6 245857.1313222678 0.0
0.0 0.0 0.0

822235.4066641473 4.586159714973994e6 0.0
4.586159714973994e6 -2.1241230850019446e6 0.0
0.0 0.0 0.0

-1.924002829747833e6 3.099991495777121e6 0.0
3.099991495777121e6 722695.7878236368 0.0
0.0 0.0 0.0

-1.7612965363003605e6 3.2472539023188665e6 0.0
3.2472539023188665e6 634348.8516365859 0.0
0.0 0.0 0.0

134816.96679709697 1.4372065950704776e6 0.0
1.4372065950704776e6 142880.7989597771 0.0
0.0 0.0 0.0

-931062.2660063165 4.857542538506997e6 0.0
4.857542538506997e6 45288.89792264125 0.0
0.0 0.0 0.0

-519548.36391053465 5.041843568576043e6 0.0
5.041843568576043e6 -954666.3365830738 0.0
0.0 0.0 0.0

-2.392313348813482e6 3.5337746409411444e6 0.0
3.5337746409411444e6 1.3134395914122001e6 0.0
0.0 0.0 0.0

934792.8608328238 3.7071549166374397e6 0.0
3.7071549166374397e6 -2.1388179605818633e6 0.0
0.0 0.0 0.0

-1.6831827611817864e6 3.3477730413011094e6 0.0
3.3477730413011094e6 602337.7588581512 0.0
0.0 0.0 0.0

-615435.2473627846 2.271772764710932e6 0.0
2.271772764710932e6 -509416.42510395707 0.0
0.0 0.0 0.0

-1.2084706603748545e6 2.6788506665501697e6 0.0
2.6788506665501697e6 60174.1771967386 0.0
0.0 0.0 0.0

-1.5672619285493956e6 2.463169692069098e6 0.0
2.463169692069098e6 586592.4815817893 0.0
0.0 0.0 0.0

664633.8091805829 1.1221550313504061e6 0.0
1.1221550313504061e6 -1.176582343875351e6 0.0
0.0 0.0 0.0

-546174.6571344084 5.016886784390335e6 0.0
5.016886784390335e6 -989495.7236049367 0.0
0.0 0.0 0.0

19961.187416382672 1.8261322206200473e6 0.0
1.8261322206200473e6 367786.8822624634 0.0
0.0 0.0 0.0

-861792.2846097542 2.3207875758329085e6 0.0
2.3207875758329085e6 -193605.81147434376 0.0
0.0 0.0 0.0

112692.84864923335 1.44024431835273e6 0.0
1.44024431835273e6 -697395.9208466249 0.0
0.0 0.0 0.0

-2.238760651603399e6 3.723652390249259e6 0.0
3.723652390249259e6 552829.7713775076 0.0
0.0 0.0 0.0

-1.7093504636528431e6 3.5554610918578417e6 0.0
3.5554610918578417e6 638715.0463881362 0.0
0.0 0.0 0.0

-370003.10611137404 4.6204628301375145e6 0.0
4.6204628301375145e6 -1.2620191242302584e6 0.0
0.0 0.0 0.0

-209698.3262121679 2.560322500040837e6 0.0
2.560322500040837e6 -1.4330116743989666e6 0.0
0.0 0.0 0.0

-2.205283196409213e6 3.2878605464814343e6 0.0
3.2878605464814343e6 875830.8866702195 0.0
0.0 0.0 0.0

-1.2048091469407706e6 3.25416979764282e6 0.0
3.25416979764282e6 1.0142945250483091e6 0.0
0.0 0.0 0.0

-3.0225480549789444e6 3.531345679393106e6 0.0
3.531345679393106e6 3.45910675918587e6 0.0
0.0 0.0 0.0

610275.8462071356 4.853304706195839e6 0.0
4.853304706195839e6 -1.990913076335427e6 0.0
0.0 0.0 0.0

-1.4737009460811499e6 3.502986797884654e6 0.0
3.502986797884654e6 349301.52693261794 0.0
0.0 0.0 0.0

-1.913334049383574e6 3.3668545649193516e6 0.0
3.3668545649193516e6 621615.1143799273 0.0
0.0 0.0 0.0

235887.57937402604 2.0968646742384187e6 0.0
2.0968646742384187e6 -932954.0261050961 0.0
0.0 0.0 0.0

-2.9813448699050383e6 5.541192036143947e6 0.0
5.541192036143947e6 1.3480042859803385e6 0.0
0.0 0.0 0.0

-931665.9132654798 2.072910675231837e6 0.0
2.072910675231837e6 -22626.74988117948 0.0
0.0 0.0 0.0

-880607.7806947533 3.202239831233641e6 0.0
3.202239831233641e6 143530.8264654656 0.0
0.0 0.0 0.0

-77533.82980306371 2.0179250932759456e6 0.0
2.0179250932759456e6 -1.4140167981767599e6 0.0
0.0 0.0 0.0

-385968.4722016625 2.459526116871184e6 0.0
2.459526116871184e6 278459.8717472863 0.0
0.0 0.0 0.0

-2.337827747115987e6 3.2365640369676165e6 0.0
3.2365640369676165e6 1.0064556758461726e6 0.0
0.0 0.0 0.0

-2.404741292759858e6 3.3068910818451755e6 0.0
3.3068910818451755e6 1.0266717955312502e6 0.0
0.0 0.0 0.0

-961028.04518999 2.2393879181798836e6 0.0
2.2393879181798836e6 -45118.72066024522 0.0
0.0 0.0 0.0

-484648.09160480334 5.112457945483993e6 0.0
5.112457945483993e6 -812989.5631674927 0.0
0.0 0.0 0.0

-626209.8318168004 6.461194534343777e6 0.0
6.461194534343777e6 -76010.88491663687 0.0
0.0 0.0 0.0

-1.0605444589753738e6 4.843718694256401e6 0.0
4.843718694256401e6 -80765.85653061804 0.0
0.0 0.0 0.0

-863517.7399703795 2.7790584800016633e6 0.0
2.7790584800016633e6 -1.4397048385442556e6 0.0
0.0 0.0 0.0

-458835.9494330066 1.8608539191842568e6 0.0
1.8608539191842568e6 -521968.3024629611 0.0
0.0 0.0 0.0

107009.67583678366 1.3497717885027132e6 0.0
1.3497717885027132e6 539169.7760494356 0.0
0.0 0.0 0.0

-866360.2479596237 4.8998132037745165e6 0.0
4.8998132037745165e6 -391647.1101316463 0.0
0.0 0.0 0.0

-1.1227675112652192e6 4.845219756895623e6 0.0
4.845219756895623e6 -164050.96201708514 0.0
0.0 0.0 0.0

-1.712282022635835e6 3.457163674526836e6 0.0
3.457163674526836e6 486808.9227319227 0.0
0.0 0.0 0.0

54208.960600703875 766929.532588255 0.0
766929.532588255 316526.1673955195 0.0
0.0 0.0 0.0

-2.258314256915431e6 3.665291063379096e6 0.0
3.665291063379096e6 514627.5166112769 0.0
0.0 0.0 0.0

-2.1956080059570177e6 3.2080622283503474e6 0.0
3.2080622283503474e6 923284.4426641505 0.0
0.0 0.0 0.0

-445203.11858942 5.036673529447234e6 0.0
5.036673529447234e6 -938647.5319942292 0.0
0.0 0.0 0.0

-157595.42259421884 5.2875324690776635e6 0.0
5.2875324690776635e6 -525318.0891484825 0.0
0.0 0.0 0.0

-1.2917946473501495e6 3.4976646635582917e6 0.0
3.4976646635582917e6 265957.6734282621 0.0
0.0 0.0 0.0

-1.0465512121006977e6 3.202686922463048e6 0.0
3.202686922463048e6 119183.62550334359 0.0
0.0 0.0 0.0

1.8847923839060091e6 691798.7333192148 0.0
691798.7333192148 -2.312372060124712e6 0.0
0.0 0.0 0.0

-2.338892472632705e6 3.641749473691599e6 0.0
3.641749473691599e6 1.2637808169349488e6 0.0
0.0 0.0 0.0

-897660.3795509017 3.2956739615994166e6 0.0
3.2956739615994166e6 -265001.75432913133 0.0
0.0 0.0 0.0

803577.176564597 3.1689002616376476e6 0.0
3.1689002616376476e6 -1.7151713465994173e6 0.0
0.0 0.0 0.0

-2.235266363088565e6 3.362651787171954e6 0.0
3.362651787171954e6 929777.4946815673 0.0
0.0 0.0 0.0

-1.7874547918140404e6 3.3897994349982105e6 0.0
3.3897994349982105e6 535678.1514034908 0.0
0.0 0.0 0.0

48168.46700761438 964214.2650182209 0.0
964214.2650182209 -969739.6814353149 0.0
0.0 0.0 0.0

-130124.27456914866 3.2242465488043143e6 0.0
3.2242465488043143e6 -1.2314733501435977e6 0.0
0.0 0.0 0.0

-8.055512960478295e6 3.6442290122843594e6 0.0
3.6442290122843594e6 3.6636819964496037e6 0.0
0.0 0.0 0.0

563762.2136979424 2.8323211921112407e6 0.0
2.8323211921112407e6 -1.227106759451326e6 0.0
0.0 0.0 0.0

702590.9676544624 3.257348435315105e6 0.0
3.257348435315105e6 -1.8187571879768963e6 0.0
0.0 0.0 0.0

-218081.2742568313 4.550556462525798e6 0.0
4.550556462525798e6 -1.4439769174023275e6 0.0
0.0 0.0 0.0

-998286.8747393168 4.815925948942248e6 0.0
4.815925948942248e6 -151920.76555655128 0.0
0.0 0.0 0.0

-299702.1848695759 4.662244543014035e6 0.0
4.662244543014035e6 -1.5925189860843187e6 0.0
0.0 0.0 0.0

-303095.47555760737 1.5405859705052192e6 0.0
1.5405859705052192e6 -506242.10472091247 0.0
0.0 0.0 0.0

-1.1272716018182023e6 2.3303386592045194e6 0.0
2.3303386592045194e6 -6397.87445336231 0.0
0.0 0.0 0.0

-35140.29742692885 5.099865504445936e6 0.0
5.099865504445936e6 -596722.0039236117 0.0
0.0 0.0 0.0

-1.3961497299620914e6 2.266666737375146e6 0.0
2.266666737375146e6 3.6463082332793763e6 0.0
0.0 0.0 0.0

-1.7698843775255287e6 3.030278146205807e6 0.0
3.030278146205807e6 3.6760059789739973e6 0.0
0.0 0.0 0.0

-3.024058901768568e6 3.288394068527905e6 0.0
3.288394068527905e6 1.059935274846742e6 0.0
0.0 0.0 0.0

-1.577350890615366e6 2.3536097172030103e6 0.0
2.3536097172030103e6 249504.16044675512 0.0
0.0 0.0 0.0

-2.606418751121769e6 4.781196292034619e6 0.0
4.781196292034619e6 -117721.12781388196 0.0
0.0 0.0 0.0

-1.1287180935955115e6 2.514968231109823e6 0.0
2.514968231109823e6 109933.68254171935 0.0
0.0 0.0 0.0

-1.9642127991056556e6 3.27754929336413e6 0.0
3.27754929336413e6 672406.1507283296 0.0
0.0 0.0 0.0

-1.2979724852935853e6 2.18978037244955e6 0.0
2.18978037244955e6 327021.8193316402 0.0
0.0 0.0 0.0

-297403.18665379734 4.948641625963159e6 0.0
4.948641625963159e6 -1.5444114329109264e6 0.0
0.0 0.0 0.0

771828.1816953924 2.9681362716352628e6 0.0
2.9681362716352628e6 -1.680606291979312e6 0.0
0.0 0.0 0.0

196587.9782195622 5.54418738996326e6 0.0
5.54418738996326e6 -1.757683077456188e6 0.0
0.0 0.0 0.0

-455511.2498125396 4.659856293472834e6 0.0
4.659856293472834e6 -346440.8506002461 0.0
0.0 0.0 0.0

670607.2138312473 3.847938211122322e6 0.0
3.847938211122322e6 -1.3248064401192064e6 0.0
0.0 0.0 0.0

-2.1530830038474747e6 3.4128667791800112e6 0.0
3.4128667791800112e6 808629.525841294 0.0
0.0 0.0 0.0

-976522.9248056292 3.400542951810522e6 0.0
3.400542951810522e6 -340051.7474222803 0.0
0.0 0.0 0.0

-1.738431674883069e6 2.588041142917164e6 0.0
2.588041142917164e6 507479.5080423865 0.0
0.0 0.0 0.0

-1.3853359444764652e6 3.4896430528892823e6 0.0
3.4896430528892823e6 211459.6570856372 0.0
0.0 0.0 0.0

-905769.6522768931 3.112108481228267e6 0.0
3.112108481228267e6 399483.0584831562 0.0
0.0 0.0 0.0

363922.6020238007 4.215517558358021e6 0.0
4.215517558358021e6 -1.6505111180639365e6 0.0
0.0 0.0 0.0

-3.629537211146249e6 3.2255044219541717e6 0.0
3.2255044219541717e6 1.3393485751746756e6 0.0
0.0 0.0 0.0

-2.3274105425206795e6 3.649354741322288e6 0.0
3.649354741322288e6 479502.67956468684 0.0
0.0 0.0 0.0

-1.0100453730603494e6 3.0492803695643973e6 0.0
3.0492803695643973e6 787424.501588688 0.0
0.0 0.0 0.0

-441759.60292239505 3.3401442036671606e6 0.0
3.3401442036671606e6 -1.4725320183972414e6 0.0
0.0 0.0 0.0

-432022.577809619 4.372288457900277e6 0.0
4.372288457900277e6 -944656.2096967822 0.0
0.0 0.0 0.0

781867.3568453637 3.7091471395134577e6 0.0
3.7091471395134577e6 -1.257382643062122e6 0.0
0.0 0.0 0.0

-1.444232362994544e6 4.710341648653406e6 0.0
4.710341648653406e6 135880.6251062599 0.0
0.0 0.0 0.0

-261627.36776900076 2.2802032950785914e6 0.0
2.2802032950785914e6 -476224.16446797026 0.0
0.0 0.0 0.0

-1.2611918006547298e6 5.397941294757101e6 0.0
5.397941294757101e6 405306.68961134757 0.0
0.0 0.0 0.0

-2.00647394138592e6 -1.103945530072869e6 0.0
-1.103945530072869e6 3.392873219036684e6 0.0
0.0 0.0 0.0

-1.7395707645937111e6 2.924248461658818e6 0.0
2.924248461658818e6 400310.75169756217 0.0
0.0 0.0 0.0

72306.16385581419 218432.11039246095 0.0
218432.11039246095 -40018.98855818917 0.0
0.0 0.0 0.0

577787.1522786028 984297.240463994 0.0
984297.240463994 -667552.6474126569 0.0
0.0 0.0 0.0

1.7324915740732283e6 597960.1331866152 0.0
597960.1331866152 -2.1813123594232635e6 0.0
0.0 0.0 0.0

-2.0741021231801603e6 869720.3276056529 0.0
869720.3276056529 2.9579149564758614e6 0.0
0.0 0.0 0.0

125783.74514160655 5.290203594572467e6 0.0
5.290203594572467e6 -2.0927149973357813e6 0.0
0.0 0.0 0.0

-2.1657788087444743e6 3.3685241662297724e6 0.0
3.3685241662297724e6 1.16051756786208e6 0.0
0.0 0.0 0.0

-2.0300608181556412e6 3.3738421696243263e6 0.0
3.3738421696243263e6 730254.5649504042 0.0
0.0 0.0 0.0

-1.7999852055968388e6 2.894210803680114e6 0.0
2.894210803680114e6 750199.110923188 0.0
0.0 0.0 0.0

-1.815666201088602e6 3.6281937565315636e6 0.0
3.6281937565315636e6 626548.150780164 0.0
0.0 0.0 0.0

-100712.2418296452 405612.0352019961 0.0
405612.0352019961 -657932.7874209005 0.0
0.0 0.0 0.0

-1.9976832852893854e6 2.986810058984812e6 0.0
2.986810058984812e6 872524.1748677522 0.0
0.0 0.0 0.0

-815860.2586664008 6.305637761591153e6 0.0
6.305637761591153e6 65454.42359414825 0.0
0.0 0.0 0.0

-308748.83583631006 1.1685732132744314e6 0.0
1.1685732132744314e6 -518417.7258637576 0.0
0.0 0.0 0.0

-1.1728733079358141e6 2.3231619591969103e6 0.0
2.3231619591969103e6 184724.6217459679 0.0
0.0 0.0 0.0

-1.6173023343577252e6 5.777337665630061e6 0.0
5.777337665630061e6 -78879.2293695017 0.0
0.0 0.0 0.0

-1.807295696240782e6 2.955475870482974e6 0.0
2.955475870482974e6 673306.8724061889 0.0
0.0 0.0 0.0

-187288.5436210497 5.750345962903353e6 0.0
5.750345962903353e6 -668076.4840060539 0.0
0.0 0.0 0.0

41286.39328518987 333275.0402083875 0.0
333275.0402083875 -1.2384150038944683e6 0.0
0.0 0.0 0.0

871806.0334305706 3.3010560907770297e6 0.0
3.3010560907770297e6 -1.9829971259362295e6 0.0
0.0 0.0 0.0

714451.2790570203 822526.1383341046 0.0
822526.1383341046 -645851.3827940365 0.0
0.0 0.0 0.0

-960686.686823704 2.0138109982178286e6 0.0
2.0138109982178286e6 14333.297534960788 0.0
0.0 0.0 0.0

-1.821339301653029e6 2.6804790670479974e6 0.0
2.6804790670479974e6 599667.8055057881 0.0
0.0 0.0 0.0

624915.1598564849 1.1838752112176218e6 0.0
1.1838752112176218e6 -761613.8448056321 0.0
0.0 0.0 0.0

734754.2398879793 347625.4127640792 0.0
347625.4127640792 -933036.5504170889 0.0
0.0 0.0 0.0

-505393.2219589455 4.805560039184269e6 0.0
4.805560039184269e6 -910079.9444192569 0.0
0.0 0.0 0.0

-786862.9622224098 1.713508521350037e6 0.0
1.713508521350037e6 -56351.61876628641 0.0
0.0 0.0 0.0

-6.844606037932799e6 3.764680075157331e6 0.0
3.764680075157331e6 3.169020963084214e6 0.0
0.0 0.0 0.0

-232932.9801113176 2.5983321870074e6 0.0
2.5983321870074e6 772246.779433082 0.0
0.0 0.0 0.0

-692390.637043189 1.4116119644097427e6 0.0
1.4116119644097427e6 -46752.27495702435 0.0
0.0 0.0 0.0

-1.0229463654344758e6 3.4034638313509445e6 0.0
3.4034638313509445e6 -319131.0802425693 0.0
0.0 0.0 0.0

1.4747657680418706e6 655392.7515479772 0.0
655392.7515479772 -2.3532238383864006e6 0.0
0.0 0.0 0.0

-164363.9868262235 2.484326261451529e6 0.0
2.484326261451529e6 395758.28859480354 0.0
0.0 0.0 0.0

-655352.7971438258 972829.5748303297 0.0
972829.5748303297 -207498.69251427343 0.0
0.0 0.0 0.0

-3.772601699875368e6 2.8390585433333153e6 0.0
2.8390585433333153e6 1.0115009665503204e6 0.0
0.0 0.0 0.0

-1.1902592473144901e6 5.634493990226099e6 0.0
5.634493990226099e6 360180.59167912684 0.0
0.0 0.0 0.0

767081.7286068969 3.3823556703782897e6 0.0
3.3823556703782897e6 -1.381050743100003e6 0.0
0.0 0.0 0.0

-1.1706333202405039e6 3.295017196594973e6 0.0
3.295017196594973e6 -136933.29568619496 0.0
0.0 0.0 0.0

663142.0474172819 4.227747049059492e6 0.0
4.227747049059492e6 -2.216773697038442e6 0.0
0.0 0.0 0.0

-1.8731538252134942e6 2.8476678016660614e6 0.0
2.8476678016660614e6 733143.3948158174 0.0
0.0 0.0 0.0

-1.1538630602836278e6 3.6086825984926876e6 0.0
3.6086825984926876e6 702992.9810179749 0.0
0.0 0.0 0.0

-957337.9903567864 6.1148160796441715e6 0.0
6.1148160796441715e6 231228.87646799238 0.0
0.0 0.0 0.0

-328340.4282071949 1.091689278783762e6 0.0
1.091689278783762e6 -224107.36007011568 0.0
0.0 0.0 0.0

550852.4412270377 958233.857211262 0.0
958233.857211262 -1.708212084572945e6 0.0
0.0 0.0 0.0

-1.3641522322962906e6 2.2700003330507907e6 0.0
2.2700003330507907e6 520954.4105547033 0.0
0.0 0.0 0.0

-2.2894747321143076e6 3.615400219176858e6 0.0
3.615400219176858e6 473343.54961006553 0.0
0.0 0.0 0.0

-1.5379353750110436e6 3.2918324753407827e6 0.0
3.2918324753407827e6 275578.70262769656 0.0
0.0 0.0 0.0

-2.0887104183205375e6 6.705680210234622e6 0.0
6.705680210234622e6 1.3015394837000072e6 0.0
0.0 0.0 0.0

-1.7624728570410658e6 2.8250028814891875e6 0.0
2.8250028814891875e6 763143.1038570275 0.0
0.0 0.0 0.0

-80747.24777171174 5.134690309298026e6 0.0
5.134690309298026e6 -462251.7445085286 0.0
0.0 0.0 0.0

-1.2913741470182047e6 5.4247492810924165e6 0.0
5.4247492810924165e6 -278519.85499918426 0.0
0.0 0.0 0.0

-2.53847064762499e6 3.496382633113963e6 0.0
3.496382633113963e6 1.3379038829695787e6 0.0
0.0 0.0 0.0

-497313.9014869687 4.84879935650312e6 0.0
4.84879935650312e6 -1.0914964076298058e6 0.0
0.0 0.0 0.0

-413401.54152605677 4.720289798029665e6 0.0
4.720289798029665e6 -1.60490654274739e6 0.0
0.0 0.0 0.0

-1.342178678136359e6 1.6862862798238404e6 0.0
1.6862862798238404e6 3.263967197670465e6 0.0
0.0 0.0 0.0

-593801.3465719698 2.0947897473973802e6 0.0
2.0947897473973802e6 -725689.1665682653 0.0
0.0 0.0 0.0

-184912.858586457 2.3779098906463226e6 0.0
2.3779098906463226e6 188716.92760559995 0.0
0.0 0.0 0.0

-133696.53753380192 4.861716842013609e6 0.0
4.861716842013609e6 -2.0165920635403406e6 0.0
0.0 0.0 0.0

-1.635633586795818e6 2.3626481497037737e6 0.0
2.3626481497037737e6 377187.6833498719 0.0
0.0 0.0 0.0

487575.7018216755 1.717010202788922e6 0.0
1.717010202788922e6 -1.5068676589569538e6 0.0
0.0 0.0 0.0

-1.7605558884407734e6 3.1476403344324986e6 0.0
3.1476403344324986e6 640132.0853987221 0.0
0.0 0.0 0.0

-2.2857132601602487e6 3.2640896022642944e6 0.0
3.2640896022642944e6 958019.938877276 0.0
0.0 0.0 0.0

-2.617454832495692e6 4.944516743171188e6 0.0
4.944516743171188e6 1.0396833732386394e6 0.0
0.0 0.0 0.0

-1.9317421746575711e6 2.9222998428431666e6 0.0
2.9222998428431666e6 800148.2853644482 0.0
0.0 0.0 0.0

289561.03314318333 677048.2014809436 0.0
677048.2014809436 -966040.7119371204 0.0
0.0 0.0 0.0

-1.0763876229102546e6 5.866238235932821e6 0.0
5.866238235932821e6 286813.6942349786 0.0
0.0 0.0 0.0

55584.681472995406 2.5071661635024454e6 0.0
2.5071661635024454e6 -144526.42334302026 0.0
0.0 0.0 0.0

712208.8159456373 4.606275126268145e6 0.0
4.606275126268145e6 -1.940723218537911e6 0.0
0.0 0.0 0.0

-990936.2467382175 3.582130716591299e6 0.0
3.582130716591299e6 897123.6911613645 0.0
0.0 0.0 0.0

-2.244766349505534e6 3.6831720008155014e6 0.0
3.6831720008155014e6 715336.3313663789 0.0
0.0 0.0 0.0

-828587.6902490093 4.543554059610923e6 0.0
4.543554059610923e6 412518.0247231434 0.0
0.0 0.0 0.0

-1.2942331904048107e6 2.310874359282685e6 0.0
2.310874359282685e6 3.3021274190469524e6 0.0
0.0 0.0 0.0

205382.0375685211 3.335070234806904e6 0.0
3.335070234806904e6 684606.8021342757 0.0
0.0 0.0 0.0

-1.0978627944531431e6 1.9607899611076731e6 0.0
1.9607899611076731e6 -191463.7550549685 0.0
0.0 0.0 0.0

-138511.15428678377 4.904275235652665e6 0.0
4.904275235652665e6 -529114.5153150351 0.0
0.0 0.0 0.0

-6.273637577041048e6 3.7698410683133737e6 0.0
3.7698410683133737e6 2.917770747848443e6 0.0
0.0 0.0 0.0

-1.6086751480034292e6 4.890580837907434e6 0.0
4.890580837907434e6 835297.1737357902 0.0
0.0 0.0 0.0

2.7235862563818274e6 5.3963796058090525e6 0.0
5.3963796058090525e6 1.3300565237686206e6 0.0
0.0 0.0 0.0

-1.7574682533646328e6 2.518886022636e6 0.0
2.518886022636e6 503034.77510325506 0.0
0.0 0.0 0.0

-1.8913851074915947e6 3.0740165053379405e6 0.0
3.0740165053379405e6 766544.8762243027 0.0
0.0 0.0 0.0

-163971.07360088825 3.9610896392168477e6 0.0
3.9610896392168477e6 -939458.303080779 0.0
0.0 0.0 0.0

-2.637426369028756e6 5.17342406242701e6 0.0
5.17342406242701e6 1.0182064428016923e6 0.0
0.0 0.0 0.0

835476.7421621226 3.7895077580793747e6 0.0
3.7895077580793747e6 -2.0414890400170009e6 0.0
0.0 0.0 0.0

-925908.4216776424 758229.5868291906 0.0
758229.5868291906 -407652.30824072124 0.0
0.0 0.0 0.0

83616.65153163852 4.661854530272986e6 0.0
4.661854530272986e6 -1.2309286208245638e6 0.0
0.0 0.0 0.0

-1.3966244349840656e6 4.280004198668141e6 0.0
4.280004198668141e6 533743.2608592508 0.0
0.0 0.0 0.0

-2.0861650115072012e6 3.05727523987303e6 0.0
3.05727523987303e6 942310.8947855016 0.0
0.0 0.0 0.0

-367415.2424616222 4.0043205190296294e6 0.0
4.0043205190296294e6 -863090.357670851 0.0
0.0 0.0 0.0

-1.5900183351132004e6 2.5263286759523973e6 0.0
2.5263286759523973e6 605701.5011057956 0.0
0.0 0.0 0.0

-1.8794996237645776e6 2.9751592635259912e6 0.0
2.9751592635259912e6 881775.8393788374 0.0
0.0 0.0 0.0

-527198.7099568655 5.07740782610161e6 0.0
5.07740782610161e6 -933005.0690583508 0.0
0.0 0.0 0.0

-5.430702158036659e6 3.9798060901029785e6 0.0
3.9798060901029785e6 2.623544933348147e6 0.0
0.0 0.0 0.0

-1.958347743691995e6 3.041532811979367e6 0.0
3.041532811979367e6 957784.9317173627 0.0
0.0 0.0 0.0

268192.4133447918 1.8468634831973463e6 0.0
1.8468634831973463e6 -82940.49629673525 0.0
0.0 0.0 0.0

978229.1502220664 4.0025469086195407e6 0.0
4.0025469086195407e6 1.5820006324841063e6 0.0
0.0 0.0 0.0

182757.10982993885 3.6174607414742643e6 0.0
3.6174607414742643e6 -1.5462278987924303e6 0.0
0.0 0.0 0.0

-2.5139967368514324e6 3.2869077675032243e6 0.0
3.2869077675032243e6 1.1160321292684907e6 0.0
0.0 0.0 0.0

274526.85890600225 2.104600074646191e6 0.0
2.104600074646191e6 -251906.0308920534 0.0
0.0 0.0 0.0

-1.6513427709862334e6 2.2704152080156687e6 0.0
2.2704152080156687e6 329019.75465743325 0.0
0.0 0.0 0.0

-822688.2998546015 1.837104207532436e6 0.0
1.837104207532436e6 -442868.25206442375 0.0
0.0 0.0 0.0

-4.899423683382174e6 4.096773782597282e6 0.0
4.096773782597282e6 2.1334905943353614e6 0.0
0.0 0.0 0.0

301457.5851867801 5.388424791618865e6 0.0
5.388424791618865e6 -1.9337037785945344e6 0.0
0.0 0.0 0.0

-143616.16950913338 1.2274388004516156e6 0.0
1.2274388004516156e6 -255582.94272481572 0.0
0.0 0.0 0.0

-1.9951929156581953e6 3.812779408921803e6 0.0
3.812779408921803e6 1.2225333161378135e6 0.0
0.0 0.0 0.0

620403.3296992157 1.6448127725535512e6 0.0
1.6448127725535512e6 -670214.0381926598 0.0
0.0 0.0 0.0

-1.6634497656440153e6 2.790954936343569e6 0.0
2.790954936343569e6 327105.26728610124 0.0
0.0 0.0 0.0

-2.0712128878963399e6 3.0568371106104595e6 0.0
3.0568371106104595e6 931696.436874509 0.0
0.0 0.0 0.0

-419328.00255760015 4.553738822172855e6 0.0
4.553738822172855e6 -1.2290703858056841e6 0.0
0.0 0.0 0.0

-4.661811810130957e6 4.1734701644594753e6 0.0
4.1734701644594753e6 2.1113865083037536e6 0.0
0.0 0.0 0.0

-1.4857744080076392e6 4.326205827001052e6 0.0
4.326205827001052e6 461761.8008870088 0.0
0.0 0.0 0.0

-2.0441972355224495e6 3.116585843636479e6 0.0
3.116585843636479e6 1.0337491596784157e6 0.0
0.0 0.0 0.0

749641.994972297 3.9318888083298733e6 0.0
3.9318888083298733e6 -2.0873736103459627e6 0.0
0.0 0.0 0.0

-412990.9232284843 2.83040475935211e6 0.0
2.83040475935211e6 439516.6693984673 0.0
0.0 0.0 0.0

-4.427931584528061e6 4.0801193991042576e6 0.0
4.0801193991042576e6 1.958223839254037e6 0.0
0.0 0.0 0.0

260961.70489844156 3.13592748645918e6 0.0
3.13592748645918e6 -1.3570671161546884e6 0.0
0.0 0.0 0.0

-3.9887617092130156e6 4.257840526854279e6 0.0
4.257840526854279e6 1.7411833579008973e6 0.0
0.0 0.0 0.0

-3.78377256600443e6 4.254640762254113e6 0.0
4.254640762254113e6 1.6767730316625235e6 0.0
0.0 0.0 0.0

-2.820381873517604e6 3.797629508049916e6 0.0
3.797629508049916e6 1.3500606475466876e6 0.0
0.0 0.0 0.0

-2.854925075380573e6 3.8528692634270997e6 0.0
3.8528692634270997e6 1.3715595928024142e6 0.0
0.0 0.0 0.0

-2.9230272649548557e6 3.9221955544114094e6 0.0
3.9221955544114094e6 1.3600041845049353e6 0.0
0.0 0.0 0.0

-3.004788092909935e6 3.987086274325875e6 0.0
3.987086274325875e6 1.4111502957196233e6 0.0
0.0 0.0 0.0

-3.0179036084897975e6 4.03226797532037e6 0.0
4.03226797532037e6 1.3885041490576256e6 0.0
0.0 0.0 0.0

-3.063176350820603e6 4.1183669156135474e6 0.0
4.1183669156135474e6 1.3247970932833352e6 0.0
0.0 0.0 0.0

-961749.6855266156 3.4919703529451117e6 0.0
3.4919703529451117e6 -300752.18316584366 0.0
0.0 0.0 0.0

-3.209873335136521e6 4.0825943041689983e6 0.0
4.0825943041689983e6 1.5854027665592488e6 0.0
0.0 0.0 0.0

-3.305631971013789e6 4.1352698728358466e6 0.0
4.1352698728358466e6 1.5722885229037635e6 0.0
0.0 0.0 0.0

-862102.7698197013 3.2624053370198277e6 0.0
3.2624053370198277e6 151152.736033744 0.0
0.0 0.0 0.0

-3.6427389849821804e6 4.198959522884836e6 0.0
4.198959522884836e6 1.6550621435927218e6 0.0
0.0 0.0 0.0

-3.409256495366147e6 4.1938558860376324e6 0.0
4.1938558860376324e6 1.5259903481506053e6 0.0
0.0 0.0 0.0

-3.4662179294101186e6 4.1414084847496217e6 0.0
4.1414084847496217e6 1.5586873458888757e6 0.0
0.0 0.0 0.0

-3.4334439881965173e6 4.173857891163567e6 0.0
4.173857891163567e6 1.494711663590468e6 0.0
0.0 0.0 0.0

-1.7204288606262042e6 2.733108216756058e6 0.0
2.733108216756058e6 711172.327089383 0.0
0.0 0.0 0.0

-3.619227938782376e6 4.217186633384697e6 0.0
4.217186633384697e6 1.6186131983391023e6 0.0
0.0 0.0 0.0

-3.4653505347905685e6 4.164662897063207e6 0.0
4.164662897063207e6 1.5930162922288643e6 0.0
0.0 0.0 0.0

-3.473120283452303e6 4.139914776294937e6 0.0
4.139914776294937e6 1.601289320820032e6 0.0
0.0 0.0 0.0

-3.0822648716703462e6 4.18686414646281e6 0.0
4.18686414646281e6 1.4216198640200526e6 0.0
0.0 0.0 0.0

-3.0860723044082047e6 4.0589613243200374e6 0.0
4.0589613243200374e6 1.4299320705307634e6 0.0
0.0 0.0 0.0

-3.007770011878695e6 4.0034844515233207e6 0.0
4.0034844515233207e6 1.4387962287070046e6 0.0
0.0 0.0 0.0

-2.9699604622998326e6 3.967355206696074e6 0.0
3.967355206696074e6 1.4443079780936758e6 0.0
0.0 0.0 0.0

-2.9069231077911276e6 3.8856900378659186e6 0.0
3.8856900378659186e6 1.4272713129560451e6 0.0
0.0 0.0 0.0

-2.8227984292001957e6 3.8313720034232377e6 0.0
3.8313720034232377e6 1.4071420162925806e6 0.0
0.0 0.0 0.0

-2.369604852978309e6 3.406110815089478e6 0.0
3.406110815089478e6 1.113314502216618e6 0.0
0.0 0.0 0.0

-1.1365294484085639e6 1.877224406883989e6 0.0
1.877224406883989e6 2.895276167517239e6 0.0
0.0 0.0 0.0

-3.7627007143501304e6 4.2362990565301e6 0.0
4.2362990565301e6 1.707824067669786e6 0.0
0.0 0.0 0.0

358560.2770585177 4.445813548589663e6 0.0
4.445813548589663e6 -1.9480990544554656e6 0.0
0.0 0.0 0.0

-2.218837666156157e6 3.2057949618715025e6 0.0
3.2057949618715025e6 925182.0196583129 0.0
0.0 0.0 0.0

-3.943248816809647e6 4.109160651889498e6 0.0
4.109160651889498e6 2.0038487038699088e6 0.0
0.0 0.0 0.0

196788.249388027 2.703159530110243e6 0.0
2.703159530110243e6 -372294.48172081 0.0
0.0 0.0 0.0

-4.1870831228138013e6 4.075259396633732e6 0.0
4.075259396633732e6 1.9419772350056209e6 0.0
0.0 0.0 0.0

-128262.84246862397 2.623617686993976e6 0.0
2.623617686993976e6 114435.20718736398 0.0
0.0 0.0 0.0

-4.610537199939017e6 4.131316525700698e6 0.0
4.131316525700698e6 2.183603672208418e6 0.0
0.0 0.0 0.0

-578127.0499142685 4.697824634009912e6 0.0
4.697824634009912e6 -826577.2485874705 0.0
0.0 0.0 0.0

65098.735258379835 4.93453397085864e6 0.0
4.93453397085864e6 -1.6790523012349203e6 0.0
0.0 0.0 0.0

-286752.8579603135 4.772812877842846e6 0.0
4.772812877842846e6 -1.577417343209683e6 0.0
0.0 0.0 0.0

-2.0661097862356564e6 3.088641088793579e6 0.0
3.088641088793579e6 997744.2110048555 0.0
0.0 0.0 0.0

-1.4646789144655191e6 2.3757548916843752e6 0.0
2.3757548916843752e6 114125.04443006573 0.0
0.0 0.0 0.0

-2.0639680830500245e6 3.2592700442880103e6 0.0
3.2592700442880103e6 717175.6222905056 0.0
0.0 0.0 0.0

-588592.6699268948 4.702717594661001e6 0.0
4.702717594661001e6 -859217.7204419136 0.0
0.0 0.0 0.0

910496.681435443 3.0690075122642233e6 0.0
3.0690075122642233e6 -2.003168285567205e6 0.0
0.0 0.0 0.0

-1.275725770916553e6 3.509196530055448e6 0.0
3.509196530055448e6 156708.25070504926 0.0
0.0 0.0 0.0

-4.863836544618349e6 3.8946995933528626e6 0.0
3.8946995933528626e6 2.4902797208357076e6 0.0
0.0 0.0 0.0

-77764.0649148025 3.1539953566822223e6 0.0
3.1539953566822223e6 -1.3442715874260927e6 0.0
0.0 0.0 0.0

-232304.2023470384 2.6796547400960303e6 0.0
2.6796547400960303e6 120655.1757219076 0.0
0.0 0.0 0.0

-1.8128227274036205e6 2.9040658792236717e6 0.0
2.9040658792236717e6 820063.5313318745 0.0
0.0 0.0 0.0

-3.1593251812272305e6 4.58830481766081e6 0.0
4.58830481766081e6 1.525657981922764e6 0.0
0.0 0.0 0.0

514339.89549749973 3.975027113674449e6 0.0
3.975027113674449e6 -1.9067143501389122e6 0.0
0.0 0.0 0.0

-3.3714604365635607e6 2.712384579524376e6 0.0
2.712384579524376e6 1.191749919906894e6 0.0
0.0 0.0 0.0

-976478.4450312295 3.44764985384497e6 0.0
3.44764985384497e6 -214327.6843007003 0.0
0.0 0.0 0.0

-2.077010680896149e6 4.485590299534499e6 0.0
4.485590299534499e6 139367.6180182459 0.0
0.0 0.0 0.0

-112066.40186565227 4.972956981304419e6 0.0
4.972956981304419e6 -571247.3271148662 0.0
0.0 0.0 0.0

-5.310545400446881e6 3.7906305272314646e6 0.0
3.7906305272314646e6 2.9502797236532476e6 0.0
0.0 0.0 0.0

50918.64906277403 5.133866840775172e6 0.0
5.133866840775172e6 -1.8469197311023816e6 0.0
0.0 0.0 0.0

-1.0418044401581681e6 3.7308810736841126e6 0.0
3.7308810736841126e6 -45011.92419877113 0.0
0.0 0.0 0.0

-412634.09083112894 3.142910421026972e6 0.0
3.142910421026972e6 -1.3754469864044376e6 0.0
0.0 0.0 0.0

428917.39581872616 4.881636797025783e6 0.0
4.881636797025783e6 -1.8776180297595942e6 0.0
0.0 0.0 0.0

-514309.7289962844 4.869406925196315e6 0.0
4.869406925196315e6 -1.0494120678220717e6 0.0
0.0 0.0 0.0

324150.18057858397 5.031264309299433e6 0.0
5.031264309299433e6 -1.8644219630960962e6 0.0
0.0 0.0 0.0

-61754.24733299152 5.459502303886686e6 0.0
5.459502303886686e6 -86103.1399161948 0.0
0.0 0.0 0.0

-2.1504393636086057e6 3.0978763335614884e6 0.0
3.0978763335614884e6 991943.2789744912 0.0
0.0 0.0 0.0

-2.1820478822790654e6 3.137021508942325e6 0.0
3.137021508942325e6 1.0095333670349822e6 0.0
0.0 0.0 0.0

-26679.782071174588 2.801123021434144e6 0.0
2.801123021434144e6 -2.1051744909113026e6 0.0
0.0 0.0 0.0

-631203.0393784741 3.3713312477927767e6 0.0
3.3713312477927767e6 1.995117238077773e6 0.0
0.0 0.0 0.0

-97899.99161268404 3.0084814345113044e6 0.0
3.0084814345113044e6 -1.0143955142845269e6 0.0
0.0 0.0 0.0

-1.37574607513705e6 2.4444876643568967e6 0.0
2.4444876643568967e6 390883.2786811323 0.0
0.0 0.0 0.0

-1.1743484660397188e6 4.791563958032417e6 0.0
4.791563958032417e6 -60251.81312693871 0.0
0.0 0.0 0.0

-744091.8219719388 1.8547174096614262e6 0.0
1.8547174096614262e6 -188425.43284841636 0.0
0.0 0.0 0.0

-1.5148270536414015e6 4.339654245642109e6 0.0
4.339654245642109e6 387979.45182648336 0.0
0.0 0.0 0.0

-230419.74720373706 5.038233747801374e6 0.0
5.038233747801374e6 -326413.8573699951 0.0
0.0 0.0 0.0

-619367.5852174101 3.205868630215847e6 0.0
3.205868630215847e6 -387718.6718179613 0.0
0.0 0.0 0.0

-5.53047743874422e6 3.676259435396393e6 0.0
3.676259435396393e6 3.026321212805769e6 0.0
0.0 0.0 0.0

-3.1218505628136126e6 3.637202695152641e6 0.0
3.637202695152641e6 4.409373332124826e6 0.0
0.0 0.0 0.0

-1.7483012795336659e6 3.0511045801966744e6 0.0
3.0511045801966744e6 549822.9420285338 0.0
0.0 0.0 0.0

38557.4565526105 5.292854765911495e6 0.0
5.292854765911495e6 -613021.779973465 0.0
0.0 0.0 0.0

757273.3366107998 3.536266659184214e6 0.0
3.536266659184214e6 -2.0099399590507934e6 0.0
0.0 0.0 0.0

-12665.83272727381 5.419109599421582e6 0.0
5.419109599421582e6 -1.8441434207391883e6 0.0
0.0 0.0 0.0

-1.065202356520407e6 3.2503257153708716e6 0.0
3.2503257153708716e6 156955.84028693498 0.0
0.0 0.0 0.0

-3.658927727690876e6 4.176512112559706e6 0.0
4.176512112559706e6 2.0718960902608482e6 0.0
0.0 0.0 0.0

-1.8414984046942415e6 3.1852375833303127e6 0.0
3.1852375833303127e6 579403.4513984394 0.0
0.0 0.0 0.0

-910125.9913294446 2.7258664008048456e6 0.0
2.7258664008048456e6 -533794.4410646014 0.0
0.0 0.0 0.0

-2.7139874709668127e6 2.508939898365892e6 0.0
2.508939898365892e6 758088.1907932503 0.0
0.0 0.0 0.0

-50518.55351019569 4.684785013049539e6 0.0
4.684785013049539e6 -1.2273674088740307e6 0.0
0.0 0.0 0.0

-1.9183632813607375e6 3.1606959487118023e6 0.0
3.1606959487118023e6 659325.9627237588 0.0
0.0 0.0 0.0

-320051.7551289046 2.759005767642321e6 0.0
2.759005767642321e6 371021.38572669745 0.0
0.0 0.0 0.0

-1.0748530576287357e6 3.4959204809564077e6 0.0
3.4959204809564077e6 50410.5980246361 0.0
0.0 0.0 0.0

-1.3736745146237206e7 2.463392406372344e6 0.0
2.463392406372344e6 3.86088684606178e6 0.0
0.0 0.0 0.0

-1.0837675101899144e6 3.2662101566007547e6 0.0
3.2662101566007547e6 -376343.75174184656 0.0
0.0 0.0 0.0

73168.22145765336 1.6727828092745717e6 0.0
1.6727828092745717e6 -706665.6759634404 0.0
0.0 0.0 0.0

-2.2579595285457205e6 3.2197664372867853e6 0.0
3.2197664372867853e6 1.1643638946293895e6 0.0
0.0 0.0 0.0

-1.808626069484841e6 3.3229367676746957e6 0.0
3.3229367676746957e6 691915.3143323427 0.0
0.0 0.0 0.0

-1.3585142634268072e6 2.926568128812775e6 0.0
2.926568128812775e6 323633.15302985936 0.0
0.0 0.0 0.0

-2.258432858086392e6 3.1577614285376687e6 0.0
3.1577614285376687e6 1.0696872129635597e6 0.0
0.0 0.0 0.0

352325.22675995727 813875.7149907222 0.0
813875.7149907222 -410731.46537458233 0.0
0.0 0.0 0.0

-608852.1872263098 4.9088612920830045e6 0.0
4.9088612920830045e6 -1.0311368215287639e6 0.0
0.0 0.0 0.0

-1.9299992101677104e6 3.3628879125426626e6 0.0
3.3628879125426626e6 737645.6711376299 0.0
0.0 0.0 0.0

-405910.8036399812 2.378658688115665e6 0.0
2.378658688115665e6 -1.1048388386477404e6 0.0
0.0 0.0 0.0

-552194.4317290562 4.993911392189383e6 0.0
4.993911392189383e6 -1.0235529769988118e6 0.0
0.0 0.0 0.0

-2.0832889114115913e6 4.6217482219958715e6 0.0
4.6217482219958715e6 55688.90762343875 0.0
0.0 0.0 0.0

-1.0027881373951242e6 3.2474297452522963e6 0.0
3.2474297452522963e6 -309859.2732585347 0.0
0.0 0.0 0.0

-555911.2956568539 4.663511684943826e6 0.0
4.663511684943826e6 -939912.7842529652 0.0
0.0 0.0 0.0

-1.7443019963593956e6 3.6528311552095334e6 0.0
3.6528311552095334e6 572309.2734013447 0.0
0.0 0.0 0.0

891945.150141863 1.7685439367134443e6 0.0
1.7685439367134443e6 -1.4186887524350353e6 0.0
0.0 0.0 0.0

198374.62852673544 43969.051796657244 0.0
43969.051796657244 -483667.6802802763 0.0
0.0 0.0 0.0

157051.28032122087 305675.9355870897 0.0
305675.9355870897 -702579.6007572166 0.0
0.0 0.0 0.0

439869.81144164014 131855.8929138618 0.0
131855.8929138618 -634944.9460524009 0.0
0.0 0.0 0.0

796251.651169556 -41487.50994219094 0.0
-41487.50994219094 -1.0229035356842056e6 0.0
0.0 0.0 0.0

468870.52817507763 186997.3942240037 0.0
186997.3942240037 -583111.1491137695 0.0
0.0 0.0 0.0

1.0770233097361932e6 1.5275532817048635e6 0.0
1.5275532817048635e6 -1.5600884226335029e6 0.0
0.0 0.0 0.0

170215.5202798752 -130095.40270563753 0.0
-130095.40270563753 -291651.2898603277 0.0
0.0 0.0 0.0

448196.4376934621 19097.51160843721 0.0
19097.51160843721 -390226.96854240855 0.0
0.0 0.0 0.0

1.8821784677945236e6 -138550.89300311118 0.0
-138550.89300311118 -2.0070418531521522e6 0.0
0.0 0.0 0.0

511997.2956831689 117600.29890721991 0.0
117600.29890721991 -579714.8555969244 0.0
0.0 0.0 0.0

1.8759939130180008e6 1.1518614539185907e6 0.0
1.1518614539185907e6 -2.981279608842147e6 0.0
0.0 0.0 0.0

2.489587750588681e6 89071.96252655791 0.0
89071.96252655791 -3.708119670534956e6 0.0
0.0 0.0 0.0

109258.97325590263 -103440.234142355 0.0
-103440.234142355 -289222.9810277158 0.0
0.0 0.0 0.0

802642.5013050113 3.1187929069257686e6 0.0
3.1187929069257686e6 -2.0127513798331518e6 0.0
0.0 0.0 0.0

913185.3524025085 3.055354178793874e6 0.0
3.055354178793874e6 -2.082296148319784e6 0.0
0.0 0.0 0.0

802622.4788763009 3.1328256619558055e6 0.0
3.1328256619558055e6 -1.9084374862009082e6 0.0
0.0 0.0 0.0

666121.2411463178 2.754685402868653e6 0.0
2.754685402868653e6 -1.6036607355044293e6 0.0
0.0 0.0 0.0

111105.25070064233 -138027.09453190098 0.0
-138027.09453190098 -270593.65850933024 0.0
0.0 0.0 0.0

476615.4206958919 140865.76743495936 0.0
140865.76743495936 -563125.0765855777 0.0
0.0 0.0 0.0

886018.1305767399 3.1238130312325615e6 0.0
3.1238130312325615e6 -2.0602035204241476e6 0.0
0.0 0.0 0.0

987589.9907805154 2.2908917091459366e6 0.0
2.2908917091459366e6 -1.5948258346173342e6 0.0
0.0 0.0 0.0

708070.8881603776 2.485041977085198e6 0.0
2.485041977085198e6 -1.5763017292414585e6 0.0
0.0 0.0 0.0

921397.0195191908 2.1738608554914203e6 0.0
2.1738608554914203e6 -1.4980679899937084e6 0.0
0.0 0.0 0.0

-438639.52024585835 4.1663940386590487e6 0.0
4.1663940386590487e6 -844929.0768327615 0.0
0.0 0.0 0.0

1682.482609669125 2.9076410703357817e6 0.0
2.9076410703357817e6 -447916.79208754376 0.0
0.0 0.0 0.0

-273420.0949465339 2.0663911245372419e6 0.0
2.0663911245372419e6 -200122.71624455607 0.0
0.0 0.0 0.0

-1.5533632989258526e6 4.365350891894015e6 0.0
4.365350891894015e6 361755.02479016944 0.0
0.0 0.0 0.0

-321557.5036086048 4.883319793156371e6 0.0
4.883319793156371e6 -1.4877277409958264e6 0.0
0.0 0.0 0.0

-1.4040920041046932e6 3.4521282497177124e6 0.0
3.4521282497177124e6 405581.8731658432 0.0
0.0 0.0 0.0

-6.129864589431407e6 3.5484210365449907e6 0.0
3.5484210365449907e6 3.4981949518338586e6 0.0
0.0 0.0 0.0

-1.7683566320889883e6 3.0770053982378473e6 0.0
3.0770053982378473e6 618488.8320511039 0.0
0.0 0.0 0.0

-866512.9964063268 3.540883481101321e6 0.0
3.540883481101321e6 1.0507031062414853e6 0.0
0.0 0.0 0.0

-170037.9847458048 2.9904239275930775e6 0.0
2.9904239275930775e6 109107.80468193996 0.0
0.0 0.0 0.0

-753424.0793173118 4.736187709728388e6 0.0
4.736187709728388e6 -286825.6604811774 0.0
0.0 0.0 0.0

-1.1670362405114665e6 3.4653472387304627e6 0.0
3.4653472387304627e6 175811.55306908285 0.0
0.0 0.0 0.0

-519580.1601768562 4.866993403359385e6 0.0
4.866993403359385e6 -801371.5999136502 0.0
0.0 0.0 0.0

-1.0053523817933716e6 3.420681500174174e6 0.0
3.420681500174174e6 -16973.95166318002 0.0
0.0 0.0 0.0

-2.302227104143815e6 3.1556041567072957e6 0.0
3.1556041567072957e6 1.0759932878184323e6 0.0
0.0 0.0 0.0

-2.0912792329526893e6 3.0602810258456813e6 0.0
3.0602810258456813e6 890906.7038300855 0.0
0.0 0.0 0.0

-1.0123101200879535e6 3.4359777118179067e6 0.0
3.4359777118179067e6 -300019.8952905112 0.0
0.0 0.0 0.0

-1.2615705044510416e6 2.2815202802608088e6 0.0
2.2815202802608088e6 -99484.65455488715 0.0
0.0 0.0 0.0

-1.7216078569756672e6 3.3226066352467905e6 0.0
3.3226066352467905e6 447782.5506350169 0.0
0.0 0.0 0.0

-257812.02007886433 2.652266935518917e6 0.0
2.652266935518917e6 -1.6046774358823546e6 0.0
0.0 0.0 0.0

287596.1357521784 -3463.709340846234 0.0
-3463.709340846234 -602051.4348621187 0.0
0.0 0.0 0.0

409318.04340339324 167374.94640151996 0.0
167374.94640151996 -518553.3997621413 0.0
0.0 0.0 0.0

476759.6567738438 141050.12142648365 0.0
141050.12142648365 -560168.8277316147 0.0
0.0 0.0 0.0

154329.30979417628 -125740.04859467901 0.0
-125740.04859467901 -501887.36517339246 0.0
0.0 0.0 0.0

152928.66832605304 -149928.98120489833 0.0
-149928.98120489833 -494133.246770882 0.0
0.0 0.0 0.0

836663.2030451134 3.1402639065125454e6 0.0
3.1402639065125454e6 -1.9320515464640458e6 0.0
0.0 0.0 0.0

841391.787583995 3.088228189564849e6 0.0
3.088228189564849e6 -1.9838025881308005e6 0.0
0.0 0.0 0.0

421842.11237237346 171307.5247806792 0.0
171307.5247806792 -470650.55521168944 0.0
0.0 0.0 0.0

929397.9903107156 2.651629951688752e6 0.0
2.651629951688752e6 -1.8402018418308955e6 0.0
0.0 0.0 0.0

1.2170283673381847e6 1.885311434763776e6 0.0
1.885311434763776e6 -2.1382945236069327e6 0.0
0.0 0.0 0.0

1.0080446517007076e6 2.2598459865935105e6 0.0
2.2598459865935105e6 -1.9837891284328015e6 0.0
0.0 0.0 0.0

1.0629784365264385e6 2.1741873390076743e6 0.0
2.1741873390076743e6 -2.1225215868078484e6 0.0
0.0 0.0 0.0

-1.5459365560067012e6 3.319815006594622e6 0.0
3.319815006594622e6 350523.96874052484 0.0
0.0 0.0 0.0

-1.0669021907443395e6 2.0298751016171852e6 0.0
2.0298751016171852e6 2.518138948760542e6 0.0
0.0 0.0 0.0

-997837.1778722063 3.2500206149976873e6 0.0
3.2500206149976873e6 11415.578478814801 0.0
0.0 0.0 0.0

827463.1182123338 3.1750712722015413e6 0.0
3.1750712722015413e6 -1.6978655801549107e6 0.0
0.0 0.0 0.0

-2.27558459543523e6 3.840906961708106e6 0.0
3.840906961708106e6 875798.3120968518 0.0
0.0 0.0 0.0

-492719.51023308135 4.547981772660076e6 0.0
4.547981772660076e6 -294682.6019378252 0.0
0.0 0.0 0.0

-474954.24845080293 3.1025661068439465e6 0.0
3.1025661068439465e6 -48578.329580370366 0.0
0.0 0.0 0.0

361720.3256750633 4.663582669739617e6 0.0
4.663582669739617e6 -1.6925454392303382e6 0.0
0.0 0.0 0.0

-143043.74469903958 4.60434570148565e6 0.0
4.60434570148565e6 -1.196940203825366e6 0.0
0.0 0.0 0.0

-2.0055995130160595e6 2.9645328388327667e6 0.0
2.9645328388327667e6 819951.9111473107 0.0
0.0 0.0 0.0

-656010.7109737683 4.1758961887313565e6 0.0
4.1758961887313565e6 -87691.84170716541 0.0
0.0 0.0 0.0

-1.045677297338173e6 3.280686580058034e6 0.0
3.280686580058034e6 231155.61257573456 0.0
0.0 0.0 0.0

-1.538562272388471e6 3.015242069597165e6 0.0
3.015242069597165e6 543100.300797324 0.0
0.0 0.0 0.0

-2.5435442725178855e6 3.349569739994946e6 0.0
3.349569739994946e6 1.2725240458435684e6 0.0
0.0 0.0 0.0

-170775.64667196572 3.04778808303861e6 0.0
3.04778808303861e6 -862748.2832076604 0.0
0.0 0.0 0.0

-2.160700454070228e6 3.1480239285858017e6 0.0
3.1480239285858017e6 1.0778437951893334e6 0.0
0.0 0.0 0.0

-287921.6957459421 579845.1313458411 0.0
579845.1313458411 1.2248831799786591e6 0.0
0.0 0.0 0.0

-598244.3996010117 4.353578314074389e6 0.0
4.353578314074389e6 -118123.44096986999 0.0
0.0 0.0 0.0

311407.59388468374 5.18301571117771e6 0.0
5.18301571117771e6 -1.4753747496553136e6 0.0
0.0 0.0 0.0

23078.11047370045 5.277403672799985e6 0.0
5.277403672799985e6 -1.8790698315318418e6 0.0
0.0 0.0 0.0

-1.458774268871587e6 2.8797904431522074e6 0.0
2.8797904431522074e6 467073.58332203433 0.0
0.0 0.0 0.0

-1.5281052295560646e6 4.749933552888378e6 0.0
4.749933552888378e6 78587.76662394404 0.0
0.0 0.0 0.0

1.885365411872305e6 246942.42132596075 0.0
246942.42132596075 -2.2210797330808993e6 0.0
0.0 0.0 0.0

-1.7892083695900384e6 3.20035997294581e6 0.0
3.20035997294581e6 515309.8099844706 0.0
0.0 0.0 0.0

-2.149176769030308e6 3.0952221935900836e6 0.0
3.0952221935900836e6 997752.7081472224 0.0
0.0 0.0 0.0

-2.130002926056985e6 3.2038617212892096e6 0.0
3.2038617212892096e6 1.1123874577893782e6 0.0
0.0 0.0 0.0

-282040.3789130213 5.008151387794529e6 0.0
5.008151387794529e6 -1.6470079305300494e6 0.0
0.0 0.0 0.0

-97686.42360570288 4.776552598231869e6 0.0
4.776552598231869e6 -1.6554170257692018e6 0.0
0.0 0.0 0.0

-1.0351816000416235e6 3.3953049799468163e6 0.0
3.3953049799468163e6 5063.78358020552 0.0
0.0 0.0 0.0

-997209.0694183051 3.373760724237917e6 0.0
3.373760724237917e6 70537.64653553994 0.0
0.0 0.0 0.0

-242734.91803865292 4.8110552833009465e6 0.0
4.8110552833009465e6 -1.712441872532708e6 0.0
0.0 0.0 0.0

-1.8785433295327758e6 3.363075795395868e6 0.0
3.363075795395868e6 878751.6778177117 0.0
0.0 0.0 0.0

2.999002977895613e6 575461.5462234954 0.0
575461.5462234954 -4.2148435293401275e6 0.0
0.0 0.0 0.0

-2.387898248263567e6 6.3112507043647e6 0.0
6.3112507043647e6 1.3193596964285583e6 0.0
0.0 0.0 0.0

1.2680275515820407e6 30077.355452694403 0.0
30077.355452694403 -1.6610829290923206e6 0.0
0.0 0.0 0.0

-1.6636789066789143e6 2.6174629818662168e6 0.0
2.6174629818662168e6 656702.0472876206 0.0
0.0 0.0 0.0

-1.493238545466201e6 3.516586563432473e6 0.0
3.516586563432473e6 538738.348994569 0.0
0.0 0.0 0.0

-1.640390284485541e6 3.269320816424646e6 0.0
3.269320816424646e6 328160.9529418384 0.0
0.0 0.0 0.0

-1.810859782744535e6 2.9644939164018333e6 0.0
2.9644939164018333e6 657084.4320248351 0.0
0.0 0.0 0.0

-2.202784854933048e6 3.0936405364939068e6 0.0
3.0936405364939068e6 1.0096060659272542e6 0.0
0.0 0.0 0.0

-459943.13127103413 3.0784611879902994e6 0.0
3.0784611879902994e6 -32550.326546079814 0.0
0.0 0.0 0.0

208803.38948057976 677273.9389843446 0.0
677273.9389843446 -509468.37911204324 0.0
0.0 0.0 0.0

-1.0127280521264591e6 3.511557706632307e6 0.0
3.511557706632307e6 -43868.5443789821 0.0
0.0 0.0 0.0

-1.4473010762939842e6 3.5496319347502477e6 0.0
3.5496319347502477e6 250788.55498987442 0.0
0.0 0.0 0.0

-520721.2184315512 396686.14389133366 0.0
396686.14389133366 -497441.5967014511 0.0
0.0 0.0 0.0

-988366.2185132432 3.4014861628227043e6 0.0
3.4014861628227043e6 -237713.10041095823 0.0
0.0 0.0 0.0

-2.2822779892263766e6 3.2307141160076465e6 0.0
3.2307141160076465e6 1.0798962553854387e6 0.0
0.0 0.0 0.0

641021.5065607298 5.050727567093478e6 0.0
5.050727567093478e6 -1.5628702228607978e6 0.0
0.0 0.0 0.0

-1.3970361680246927e6 4.747499269372998e6 0.0
4.747499269372998e6 56393.650445263134 0.0
0.0 0.0 0.0

-1.9292803994744234e6 2.8749605995415826e6 0.0
2.8749605995415826e6 742815.4425695593 0.0
0.0 0.0 0.0

3.0173821808288796e6 447457.588530209 0.0
447457.588530209 -2.113092253934957e6 0.0
0.0 0.0 0.0

-1.768231553074615e6 4.2974005961056445e6 0.0
4.2974005961056445e6 362447.6640956354 0.0
0.0 0.0 0.0

-2174.7073367855046 2.159797853103238e6 0.0
2.159797853103238e6 -718205.4995127089 0.0
0.0 0.0 0.0

-1.8993899128942236e6 2.9588990478448556e6 0.0
2.9588990478448556e6 795158.4471081271 0.0
0.0 0.0 0.0

-2.3255167161523392e6 3.3996335771754496e6 0.0
3.3996335771754496e6 1.2629332838418018e6 0.0
0.0 0.0 0.0

-2.498053626337161e6 3.3048047180891703e6 0.0
3.3048047180891703e6 1.1787723153899123e6 0.0
0.0 0.0 0.0

-2.1797562031759955e6 3.1675076318983557e6 0.0
3.1675076318983557e6 956362.3337254631 0.0
0.0 0.0 0.0

-2.2060642769928267e6 3.1141555363083333e6 0.0
3.1141555363083333e6 992509.3475956164 0.0
0.0 0.0 0.0

1.420281299699081e6 1.3588814327883678e6 0.0
1.3588814327883678e6 -2.468085501879181e6 0.0
0.0 0.0 0.0

-2.4691081395305037e6 4.378982292492599e6 0.0
4.378982292492599e6 1.0009776161643454e6 0.0
0.0 0.0 0.0

-385019.13596141123 3.552986178631567e6 0.0
3.552986178631567e6 -1.5092780513865028e6 0.0
0.0 0.0 0.0

-1.1877128611403683e6 8.47993613734156e6 0.0
8.47993613734156e6 5.232335470389999e6 0.0
0.0 0.0 0.0

-450057.2813766365 4.45711935309416e6 0.0
4.45711935309416e6 -1.142017516621659e6 0.0
0.0 0.0 0.0

-1.7495776851668889e6 3.0657189332511513e6 0.0
3.0657189332511513e6 739132.96559076 0.0
0.0 0.0 0.0

-483004.9298207651 2.9405950105726495e6 0.0
2.9405950105726495e6 -1.3708203098036142e6 0.0
0.0 0.0 0.0

-1.8688735034494163e6 2.783093127273763e6 0.0
2.783093127273763e6 667645.0569011223 0.0
0.0 0.0 0.0

-580874.3360971443 4.808181319686879e6 0.0
4.808181319686879e6 -615420.072164581 0.0
0.0 0.0 0.0

-1.6395675413194045e6 2.4942847229801393e6 0.0
2.4942847229801393e6 323845.3118768617 0.0
0.0 0.0 0.0

-2.0883359785829694e6 3.0735507667066185e6 0.0
3.0735507667066185e6 913261.5770357712 0.0
0.0 0.0 0.0

251287.75864859612 3.459494618907912e6 0.0
3.459494618907912e6 -1.314395107566677e6 0.0
0.0 0.0 0.0

-1.4020340228357646e6 4.769710728575789e6 0.0
4.769710728575789e6 23262.62158019055 0.0
0.0 0.0 0.0

-1.4023037824625054e6 3.4545315362941697e6 0.0
3.4545315362941697e6 428009.94299300417 0.0
0.0 0.0 0.0

-1.5592223079238436e6 2.5950573622302846e6 0.0
2.5950573622302846e6 565028.0691645674 0.0
0.0 0.0 0.0

-223353.3056081874 4.573099863008891e6 0.0
4.573099863008891e6 -1.5632159709010182e6 0.0
0.0 0.0 0.0

913153.429624964 6.979336172006871e6 0.0
6.979336172006871e6 3.0438427868036716e6 0.0
0.0 0.0 0.0

-1.2956566849208123e6 3.3240883037585644e6 0.0
3.3240883037585644e6 155410.23527658515 0.0
0.0 0.0 0.0

-7.059167464258542e6 3.0598936303775464e6 0.0
3.0598936303775464e6 4.6202244489321e6 0.0
0.0 0.0 0.0

-422230.57741180394 4.450681472680313e6 0.0
4.450681472680313e6 -1.2501734969890034e6 0.0
0.0 0.0 0.0

-1.9905105049157517e6 3.132292742460489e6 0.0
3.132292742460489e6 1.0025969141300414e6 0.0
0.0 0.0 0.0

1.7532985344098662e6 1.134330192108655e6 0.0
1.134330192108655e6 -1.6719082429245478e6 0.0
0.0 0.0 0.0

517189.4172002389 4.413951418269575e6 0.0
4.413951418269575e6 -2.113394753689176e6 0.0
0.0 0.0 0.0

-2.441211339422237e6 3.275743660708683e6 0.0
3.275743660708683e6 1.2253870772805358e6 0.0
0.0 0.0 0.0

-931277.9852050166 3.0053994019375728e6 0.0
3.0053994019375728e6 -1.3752559453512952e6 0.0
0.0 0.0 0.0

-1.7002245227704518e6 2.751274301044007e6 0.0
2.751274301044007e6 709417.4143600473 0.0
0.0 0.0 0.0

-542404.8579358652 2.1597705896241283e6 0.0
2.1597705896241283e6 -621730.4342516401 0.0
0.0 0.0 0.0

-1.4001692516661417e6 3.6637819335528663e6 0.0
3.6637819335528663e6 93232.78074389347 0.0
0.0 0.0 0.0

-363016.2842332211 4.439764898699829e6 0.0
4.439764898699829e6 -1.3573917632762091e6 0.0
0.0 0.0 0.0

-1.2077105061795996e6 3.6395499775415827e6 0.0
3.6395499775415827e6 64018.41508157726 0.0
0.0 0.0 0.0

-514501.61639114213 4.642188117240615e6 0.0
4.642188117240615e6 -1.0518021750802428e6 0.0
0.0 0.0 0.0

-5.27399698454486e6 4.116441245773915e6 0.0
4.116441245773915e6 2.683798071907214e6 0.0
0.0 0.0 0.0

143307.97767585056 -54887.35683772289 0.0
-54887.35683772289 -274343.5260054171 0.0
0.0 0.0 0.0

-1.0898013617333553e6 3.656816987287035e6 0.0
3.656816987287035e6 -184846.48750613982 0.0
0.0 0.0 0.0

-2.2530656830325807e6 3.1440526058557993e6 0.0
3.1440526058557993e6 1.091464452377599e6 0.0
0.0 0.0 0.0

-278487.4201661562 -552256.8090678857 0.0
-552256.8090678857 1.0358449941762796e6 0.0
0.0 0.0 0.0

-291999.512429964 4.69226661673053e6 0.0
4.69226661673053e6 -498674.2332658816 0.0
0.0 0.0 0.0

-1.7702678737827553e6 2.63879800453847e6 0.0
2.63879800453847e6 505388.699330201 0.0
0.0 0.0 0.0

-709925.9394810862 4.1635606211942523e6 0.0
4.1635606211942523e6 -420053.41950218554 0.0
0.0 0.0 0.0

-1.3535946303136304e6 2.796147161736044e6 0.0
2.796147161736044e6 -19521.136102133547 0.0
0.0 0.0 0.0

-1.5941657218746594e6 2.2290957789443308e6 0.0
2.2290957789443308e6 267453.8905351865 0.0
0.0 0.0 0.0

-1.9061913790368966e6 2.98712877789495e6 0.0
2.98712877789495e6 616069.4058362154 0.0
0.0 0.0 0.0

-1.0643275064277295e6 3.235893742296353e6 0.0
3.235893742296353e6 166362.73973355634 0.0
0.0 0.0 0.0

-1.7860035974013833e6 3.286548816281747e6 0.0
3.286548816281747e6 524144.16070755874 0.0
0.0 0.0 0.0

-1.8438812240682615e6 2.999239190549435e6 0.0
2.999239190549435e6 724502.8973404553 0.0
0.0 0.0 0.0

820932.8826446612 4.412751883315353e6 0.0
4.412751883315353e6 -1.763883789908393e6 0.0
0.0 0.0 0.0

-1.6804822135089205e6 4.521378976878777e6 0.0
4.521378976878777e6 240253.099962533 0.0
0.0 0.0 0.0

323505.27818100713 544183.0374365281 0.0
544183.0374365281 -684061.2921015207 0.0
0.0 0.0 0.0

-1.0100718130446455e6 3.3000831011586343e6 0.0
3.3000831011586343e6 57818.29445686063 0.0
0.0 0.0 0.0

-734234.5692642976 1.9783469827931614e6 0.0
1.9783469827931614e6 -237247.16562747757 0.0
0.0 0.0 0.0

861282.185311042 3.0355485308156195e6 0.0
3.0355485308156195e6 -1.802018735870953e6 0.0
0.0 0.0 0.0

-321356.5493917349 4.411386525553472e6 0.0
4.411386525553472e6 -1.4550189744997993e6 0.0
0.0 0.0 0.0

113703.86095537993 2.008879023870477e6 0.0
2.008879023870477e6 -371709.95972114435 0.0
0.0 0.0 0.0

-465257.1704397772 2.59470303763588e6 0.0
2.59470303763588e6 303789.2340417573 0.0
0.0 0.0 0.0

-1.89352568092609e6 2.8629107856215443e6 0.0
2.8629107856215443e6 653148.5496084867 0.0
0.0 0.0 0.0

100367.32156267963 -86673.2073168186 0.0
-86673.2073168186 -388363.1048033404 0.0
0.0 0.0 0.0

-1.174683315434074e6 3.573786328152652e6 0.0
3.573786328152652e6 17166.15027407516 0.0
0.0 0.0 0.0

-769702.5655727326 3.9469262533341795e6 0.0
3.9469262533341795e6 -257480.63508996603 0.0
0.0 0.0 0.0

-528664.7943232983 4.838430518793576e6 0.0
4.838430518793576e6 -1.391245212942216e6 0.0
0.0 0.0 0.0

-325423.846322582 2.997825898377491e6 0.0
2.997825898377491e6 -999974.4312242416 0.0
0.0 0.0 0.0

-1.1068397440513438e6 1.1645786789791635e6 0.0
1.1645786789791635e6 -211004.93412579023 0.0
0.0 0.0 0.0

-1.7605564112579592e6 2.850273363014771e6 0.0
2.850273363014771e6 771995.7160668304 0.0
0.0 0.0 0.0

-717590.8307848687 3.5981667524105967e6 0.0
3.5981667524105967e6 1.2205435183984768e6 0.0
0.0 0.0 0.0

-2.540449540085658e6 3.4298349622491193e6 0.0
3.4298349622491193e6 1.2402598507995107e6 0.0
0.0 0.0 0.0

-1.147002169786678e6 3.2487050212331666e6 0.0
3.2487050212331666e6 896258.6193945764 0.0
0.0 0.0 0.0

-1.326709071713305e6 3.4305439073460246e6 0.0
3.4305439073460246e6 554477.1707921295 0.0
0.0 0.0 0.0

-765856.1215254669 1.5882316751639121e6 0.0
1.5882316751639121e6 -500698.53132863785 0.0
0.0 0.0 0.0

-1.3674146823801184e6 3.633089751872215e6 0.0
3.633089751872215e6 96992.06900635123 0.0
0.0 0.0 0.0

-446378.6577858352 4.639894060080898e6 0.0
4.639894060080898e6 -472414.49783709634 0.0
0.0 0.0 0.0

-1.7319571292657272e6 2.4343060016697594e6 0.0
2.4343060016697594e6 446579.20042057184 0.0
0.0 0.0 0.0

-291960.53182790324 4.740809077600286e6 0.0
4.740809077600286e6 -1.562520671775574e6 0.0
0.0 0.0 0.0

-1.8305598418951828e6 2.941356183584207e6 0.0
2.941356183584207e6 846031.3656815105 0.0
0.0 0.0 0.0

-461495.39304707584 4.449125822809789e6 0.0
4.449125822809789e6 -1.054333418687687e6 0.0
0.0 0.0 0.0

-1.5597125131957917e6 3.511290128256234e6 0.0
3.511290128256234e6 239938.20858238894 0.0
0.0 0.0 0.0

-604106.9525712165 2.750390980175921e6 0.0
2.750390980175921e6 -1.5630527155887424e6 0.0
0.0 0.0 0.0

-1.910755116706641e6 3.032307227637579e6 0.0
3.032307227637579e6 925285.200178428 0.0
0.0 0.0 0.0

-296070.72237374616 5.278095594842046e6 0.0
5.278095594842046e6 -740492.3124155317 0.0
0.0 0.0 0.0

-310475.8015209063 -251395.37967703913 0.0
-251395.37967703913 1.1243855434942907e6 0.0
0.0 0.0 0.0

-3.5036771417560983e6 2.9700061859780876e6 0.0
2.9700061859780876e6 1.1836100029976878e6 0.0
0.0 0.0 0.0

-846260.0971762259 4.816051890994508e6 0.0
4.816051890994508e6 -200163.18686937029 0.0
0.0 0.0 0.0

-1.152073442213046e6 1.1906955708942069e6 0.0
1.1906955708942069e6 2.254572738246864e6 0.0
0.0 0.0 0.0

-1.6155787680950295e6 4.1513161318544825e6 0.0
4.1513161318544825e6 379682.97541639453 0.0
0.0 0.0 0.0

-1.7619297151281475e6 3.1927609509058376e6 0.0
3.1927609509058376e6 467654.7450490723 0.0
0.0 0.0 0.0

-1.4533896944687297e6 2.5799911449115025e6 0.0
2.5799911449115025e6 458116.903604695 0.0
0.0 0.0 0.0

-1.6801535249045142e6 2.8300801513051875e6 0.0
2.8300801513051875e6 696801.8259062512 0.0
0.0 0.0 0.0

-1.3082781561163021e6 2.2987368045483497e6 0.0
2.2987368045483497e6 393106.14540749334 0.0
0.0 0.0 0.0

-934411.6183962085 3.7925127357409424e6 0.0
3.7925127357409424e6 -58279.652165187814 0.0
0.0 0.0 0.0

760681.70071347 3.1030876991361743e6 0.0
3.1030876991361743e6 -1.8296429230978645e6 0.0
0.0 0.0 0.0

-235346.02044058533 326485.13681011024 0.0
326485.13681011024 -444050.4883344663 0.0
0.0 0.0 0.0

-1.340874224274877e6 3.4021956244247677e6 0.0
3.4021956244247677e6 746265.6605961192 0.0
0.0 0.0 0.0

-2.464483694328602e6 3.45023966006786e6 0.0
3.45023966006786e6 1.1841150768695478e6 0.0
0.0 0.0 0.0

-386299.37361204624 5.283236709056163e6 0.0
5.283236709056163e6 -732136.4705586507 0.0
0.0 0.0 0.0

-1.8050911748344973e6 4.6383789152953755e6 0.0
4.6383789152953755e6 136892.5174961394 0.0
0.0 0.0 0.0

1.9617665437622848e6 519399.1485971774 0.0
519399.1485971774 -2.0613144658922711e6 0.0
0.0 0.0 0.0

-1.8004946123815123e6 2.658120460736572e6 0.0
2.658120460736572e6 595633.549843394 0.0
0.0 0.0 0.0

337047.48585717473 4.923082769869085e6 0.0
4.923082769869085e6 1.2743870315717855e6 0.0
0.0 0.0 0.0

-914871.4166534104 1.271544771634458e6 0.0
1.271544771634458e6 -505399.0316436945 0.0
0.0 0.0 0.0

577401.6447607444 3.6445761733343834e6 0.0
3.6445761733343834e6 -1.7524203570749052e6 0.0
0.0 0.0 0.0

-908596.3656855938 2.3731231838908973e6 0.0
2.3731231838908973e6 2.2301671683407207e6 0.0
0.0 0.0 0.0

-484012.728300669 4.602583378686389e6 0.0
4.602583378686389e6 -1.0992636873114097e6 0.0
0.0 0.0 0.0

552212.7068999452 2.4179031139646056e6 0.0
2.4179031139646056e6 -401425.3409941731 0.0
0.0 0.0 0.0

-3.0020012673950098e6 2.751514334352874e6 0.0
2.751514334352874e6 826291.3483968179 0.0
0.0 0.0 0.0

-886292.2995029737 2.7936869277410842e6 0.0
2.7936869277410842e6 2.0546047303297017e6 0.0
0.0 0.0 0.0

-1.6401704410493989e6 4.381544475258482e6 0.0
4.381544475258482e6 335685.87767659663 0.0
0.0 0.0 0.0

-4.348254353662511e6 5.100321330226969e6 0.0
5.100321330226969e6 3.1798654324242775e6 0.0
0.0 0.0 0.0

-1.7000537520015026e6 3.1716682864227244e6 0.0
3.1716682864227244e6 558942.9918754247 0.0
0.0 0.0 0.0

3.666252809972019e6 5.283148018947567e6 0.0
5.283148018947567e6 -243209.35993118095 0.0
0.0 0.0 0.0

-1.1794794369353538e6 2.882988762907629e6 0.0
2.882988762907629e6 103439.94267879648 0.0
0.0 0.0 0.0

-265573.547152858 3.23592167097084e6 0.0
3.23592167097084e6 -1.3864550045955742e6 0.0
0.0 0.0 0.0

-1.146818497759829e6 3.711843973097747e6 0.0
3.711843973097747e6 154454.47941283544 0.0
0.0 0.0 0.0

-1.8587846075952072e6 5.598703629720332e6 0.0
5.598703629720332e6 80970.33503345156 0.0
0.0 0.0 0.0

-1.032297756080806e6 1.6855003001466645e6 0.0
1.6855003001466645e6 441972.99951388646 0.0
0.0 0.0 0.0

-1.1187813161584125e6 4.789046438004477e6 0.0
4.789046438004477e6 177693.6527119213 0.0
0.0 0.0 0.0

-397164.5001405524 3.3948885284656123e6 0.0
3.3948885284656123e6 -1.340312443396021e6 0.0
0.0 0.0 0.0

-285791.9556706263 1.3469800441573327e6 0.0
1.3469800441573327e6 -247638.87552784092 0.0
0.0 0.0 0.0

-2.449037975722888e6 3.33090787559045e6 0.0
3.33090787559045e6 1.1815162381067476e6 0.0
0.0 0.0 0.0

-1.818906039207034e6 3.08724535156386e6 0.0
3.08724535156386e6 604634.4273061744 0.0
0.0 0.0 0.0

-2.4379314542225664e6 3.3984410916202865e6 0.0
3.3984410916202865e6 1.2878470946298488e6 0.0
0.0 0.0 0.0

-737714.4177765143 2.817623183993043e6 0.0
2.817623183993043e6 -394825.93476685695 0.0
0.0 0.0 0.0

530133.0594266498 1.9354130726643323e6 0.0
1.9354130726643323e6 -290271.4968397132 0.0
0.0 0.0 0.0

-1.829398724916285e6 3.755550570567086e6 0.0
3.755550570567086e6 576244.2685770276 0.0
0.0 0.0 0.0

-1.3375428939461042e6 3.975663685233652e6 0.0
3.975663685233652e6 1.1007043330747609e6 0.0
0.0 0.0 0.0

-1.203148010160629e6 3.314775892183122e6 0.0
3.314775892183122e6 398540.5404408686 0.0
0.0 0.0 0.0

-1.5261435816758764e6 2.389185363779324e6 0.0
2.389185363779324e6 510163.73132051167 0.0
0.0 0.0 0.0

-62180.365967455145 4.891667152220277e6 0.0
4.891667152220277e6 -1.778551013438918e6 0.0
0.0 0.0 0.0

-1.6967297948308168e6 3.243376357518163e6 0.0
3.243376357518163e6 594597.1600293185 0.0
0.0 0.0 0.0

-615504.1718244127 4.281278143730546e6 0.0
4.281278143730546e6 -670526.9546806638 0.0
0.0 0.0 0.0

-796727.8417489033 3.053389643315399e6 0.0
3.053389643315399e6 -636327.2110008439 0.0
0.0 0.0 0.0

-2.0886983181627044e6 3.773408480516423e6 0.0
3.773408480516423e6 636415.9068190479 0.0
0.0 0.0 0.0

-1.4281123708096026e6 2.947759703022818e6 0.0
2.947759703022818e6 77645.80434317642 0.0
0.0 0.0 0.0

-193425.96707750237 4.623040740685538e6 0.0
4.623040740685538e6 -1.3627586342237883e6 0.0
0.0 0.0 0.0

-17007.842586356157 438081.4030657193 0.0
438081.4030657193 -608119.061338882 0.0
0.0 0.0 0.0

273076.73159117275 1.423173846927768e6 0.0
1.423173846927768e6 -265181.8715627772 0.0
0.0 0.0 0.0

-3.40769742824456e6 4.781654405005491e6 0.0
4.781654405005491e6 1.6218037400770676e6 0.0
0.0 0.0 0.0

-1.614110669955175e6 3.280443448181223e6 0.0
3.280443448181223e6 514357.5970926734 0.0
0.0 0.0 0.0

-1.824068808483067e6 3.0561358491177913e6 0.0
3.0561358491177913e6 492532.45597345615 0.0
0.0 0.0 0.0

699000.5416003137 1.527406971567789e6 0.0
1.527406971567789e6 -2.15085341652885e6 0.0
0.0 0.0 0.0

-1.7978087072582075e6 -447393.37080432044 0.0
-447393.37080432044 2.171876410589464e6 0.0
0.0 0.0 0.0

56538.855812132824 3.396062890236316e6 0.0
3.396062890236316e6 -1.7231024275793852e6 0.0
0.0 0.0 0.0

-827041.0854036453 5.421065544510802e6 0.0
5.421065544510802e6 -320837.23780452844 0.0
0.0 0.0 0.0

-1.6955950305733487e6 4.375686610634672e6 0.0
4.375686610634672e6 672947.0265166087 0.0
0.0 0.0 0.0

-1.9769177665358023e6 3.678477194782685e6 0.0
3.678477194782685e6 663106.2519607405 0.0
0.0 0.0 0.0

873332.5821133942 3.216170430202015e6 0.0
3.216170430202015e6 -1.9255675041426048e6 0.0
0.0 0.0 0.0

-1.9038037536819768e6 3.1692550207320773e6 0.0
3.1692550207320773e6 924631.6552521038 0.0
0.0 0.0 0.0

-1.8610110546209984e6 3.428083937553712e6 0.0
3.428083937553712e6 733660.3320082214 0.0
0.0 0.0 0.0

561450.4947601862 4.136992644934052e6 0.0
4.136992644934052e6 -2.060170286461136e6 0.0
0.0 0.0 0.0

-2.5564741048919857e6 3.952661059405842e6 0.0
3.952661059405842e6 1.2098022680245438e6 0.0
0.0 0.0 0.0

-528533.6640384193 5.124567610700547e6 0.0
5.124567610700547e6 -695846.0104610976 0.0
0.0 0.0 0.0

-2.0557427603520027e6 3.0862499574964084e6 0.0
3.0862499574964084e6 795427.9775316432 0.0
0.0 0.0 0.0

-265386.4337828181 5.007986136145421e6 0.0
5.007986136145421e6 -1.7041972247630921e6 0.0
0.0 0.0 0.0

1.1889034412623434e6 167679.8694411457 0.0
167679.8694411457 -2.0245761802096888e6 0.0
0.0 0.0 0.0

-572331.0608295633 2.275174371941165e6 0.0
2.275174371941165e6 -718689.9052484917 0.0
0.0 0.0 0.0

-1.447635300424451e6 3.385230800340591e6 0.0
3.385230800340591e6 322234.7305447117 0.0
0.0 0.0 0.0

-563267.0231930506 5.053298817481894e6 0.0
5.053298817481894e6 -727529.8467198075 0.0
0.0 0.0 0.0

-1.6229858822337566e6 2.9718584187765494e6 0.0
2.9718584187765494e6 272554.7423818029 0.0
0.0 0.0 0.0

1.35325751703151e6 803871.5269706253 0.0
803871.5269706253 -1.856117382511789e6 0.0
0.0 0.0 0.0

832676.2812682873 3.1799664102279567e6 0.0
3.1799664102279567e6 -1.7055297182665884e6 0.0
0.0 0.0 0.0

-512845.09800543357 4.176968806458917e6 0.0
4.176968806458917e6 -858611.4570445901 0.0
0.0 0.0 0.0

-771332.2309137513 2.0892383693221344e6 0.0
2.0892383693221344e6 -479012.4869021887 0.0
0.0 0.0 0.0

-1.6712780977762935e6 3.178311066321671e6 0.0
3.178311066321671e6 483939.84592953837 0.0
0.0 0.0 0.0

-1.7988007118219263e6 4.6424731230912665e6 0.0
4.6424731230912665e6 151742.8959850564 0.0
0.0 0.0 0.0

-6.880374208125889e6 822871.1032976835 0.0
822871.1032976835 1.4701374527640324e7 0.0
0.0 0.0 0.0

-71443.40815213809 1.6931057129834993e6 0.0
1.6931057129834993e6 -152889.2537151717 0.0
0.0 0.0 0.0

-1.3307410879038514e6 4.350348035004732e6 0.0
4.350348035004732e6 -62086.20994000643 0.0
0.0 0.0 0.0

-1.5698076639362546e6 3.310024069546494e6 0.0
3.310024069546494e6 430771.1140582274 0.0
0.0 0.0 0.0

-34658.71420315781 1.08103020555547e6 0.0
1.08103020555547e6 343022.36462002876 0.0
0.0 0.0 0.0

758999.2031886913 3.126706540955571e6 0.0
3.126706540955571e6 -1.7806845667367456e6 0.0
0.0 0.0 0.0

-1.6477030405662325e6 3.424182194139351e6 0.0
3.424182194139351e6 378171.879763172 0.0
0.0 0.0 0.0

-435136.492669163 4.613136131038374e6 0.0
4.613136131038374e6 -1.2465875635801489e6 0.0
0.0 0.0 0.0

-1.361222601891308e6 3.7771380539571187e6 0.0
3.7771380539571187e6 402076.4451742368 0.0
0.0 0.0 0.0

-1.8026480294792135e6 3.197667364200549e6 0.0
3.197667364200549e6 805260.2733801159 0.0
0.0 0.0 0.0

-993879.7403634662 3.616196930004427e6 0.0
3.616196930004427e6 -119689.04296922547 0.0
0.0 0.0 0.0

-1.845496686705077e6 2.952533406167635e6 0.0
2.952533406167635e6 800345.2028057236 0.0
0.0 0.0 0.0

382283.1993608916 2.4396450841833996e6 0.0
2.4396450841833996e6 -584544.8015418488 0.0
0.0 0.0 0.0

-1.5140999931996772e7 510473.9610378917 0.0
510473.9610378917 1.0905530584226921e7 0.0
0.0 0.0 0.0

-796084.0070786176 3.334273856790327e6 0.0
3.334273856790327e6 569255.70540631 0.0
0.0 0.0 0.0

-1.5053232665212804e6 3.7431665341884615e6 0.0
3.7431665341884615e6 684221.4142976801 0.0
0.0 0.0 0.0

-2.655050952827926e6 3.390419292714898e6 0.0
3.390419292714898e6 1.2145317485519373e6 0.0
0.0 0.0 0.0

290936.12985593383 5.241879353583285e6 0.0
5.241879353583285e6 -1.6936158029187676e6 0.0
0.0 0.0 0.0

453451.9084029144 4.38005480414352e6 0.0
4.38005480414352e6 -2.0700457281225529e6 0.0
0.0 0.0 0.0

502961.00420756335 5.2832244274610635e6 0.0
5.2832244274610635e6 -1.7723604772387578e6 0.0
0.0 0.0 0.0

-1.2154110935667057e6 3.627832183808813e6 0.0
3.627832183808813e6 139654.25972745678 0.0
0.0 0.0 0.0

-471917.37086890824 2.9058980030650655e6 0.0
2.9058980030650655e6 49210.14394337853 0.0
0.0 0.0 0.0

-256292.0586892836 2.981249303181488e6 0.0
2.981249303181488e6 161568.33819446195 0.0
0.0 0.0 0.0

-471992.59303680516 5.248129722246064e6 0.0
5.248129722246064e6 -701129.2243617831 0.0
0.0 0.0 0.0

-429401.3922803223 3.9776360607269746e6 0.0
3.9776360607269746e6 -1.310673157256445e6 0.0
0.0 0.0 0.0

-1.7512140653158852e6 4.056261743429926e6 0.0
4.056261743429926e6 446091.3888225523 0.0
0.0 0.0 0.0

-2.1304805485184793e6 6.370420398202323e6 0.0
6.370420398202323e6 849632.6128599278 0.0
0.0 0.0 0.0

-1.750555693384516e6 4.636609034996116e6 0.0
4.636609034996116e6 153069.701227681 0.0
0.0 0.0 0.0

-1.150267288821418e6 3.6724601665826263e6 0.0
3.6724601665826263e6 1.3608213178406977e6 0.0
0.0 0.0 0.0

699687.8620860154 3.7659441545377425e6 0.0
3.7659441545377425e6 -1.681016033488242e6 0.0
0.0 0.0 0.0

-938905.444183784 2.4510672271216e6 0.0
2.4510672271216e6 -111703.59488611558 0.0
0.0 0.0 0.0

1.2904911768712215e6 1.3943284156043548e6 0.0
1.3943284156043548e6 -1.6600973069283161e6 0.0
0.0 0.0 0.0

812886.2646247726 4.6334122769177975e6 0.0
4.6334122769177975e6 -1.4974332746298828e6 0.0
0.0 0.0 0.0

-2.1320128143739635e6 3.57363150933473e6 0.0
3.57363150933473e6 766688.9053272814 0.0
0.0 0.0 0.0

-274222.727048629 3.07117858115693e6 0.0
3.07117858115693e6 -13204.239339362655 0.0
0.0 0.0 0.0

-1.0674553899875022e6 3.440559874664645e6 0.0
3.440559874664645e6 1.4731225876984694e6 0.0
0.0 0.0 0.0

-1.5472190986644104e6 3.9428404351768987e6 0.0
3.9428404351768987e6 646775.3162804226 0.0
0.0 0.0 0.0

69854.62232977047 3.0965656515645916e6 0.0
3.0965656515645916e6 -1.630681412701929e6 0.0
0.0 0.0 0.0

-2.358917092573399e6 5.112406632706732e6 0.0
5.112406632706732e6 1.328561224086302e6 0.0
0.0 0.0 0.0

-3.13963015267519e6 5.101051158194311e6 0.0
5.101051158194311e6 1.4961065238332804e6 0.0
0.0 0.0 0.0

-1.9141487693418374e6 4.023336504472291e6 0.0
4.023336504472291e6 548225.219658746 0.0
0.0 0.0 0.0

-949368.7536141982 3.2303497057250477e6 0.0
3.2303497057250477e6 1.8824498526989208e6 0.0
0.0 0.0 0.0

-1.0829869213294037e7 1.1586158473678885e7 0.0
1.1586158473678885e7 2.049522909442246e6 0.0
0.0 0.0 0.0

-1.7374810181315013e6 3.707866094792134e6 0.0
3.707866094792134e6 1.3429851380849727e6 0.0
0.0 0.0 0.0

-986694.0909066827 3.4744154413005062e6 0.0
3.4744154413005062e6 23024.404299458314 0.0
0.0 0.0 0.0

456746.5775366441 853123.0382763938 0.0
853123.0382763938 -754224.7163617099 0.0
0.0 0.0 0.0

-1.6164065892246282e6 2.717345399622886e6 0.0
2.717345399622886e6 627681.8686101058 0.0
0.0 0.0 0.0

-1.8378888207525339e6 6.039815907466917e6 0.0
6.039815907466917e6 -55593.989998685895 0.0
0.0 0.0 0.0

-2.9952444960105643e6 3.1216166315787905e6 0.0
3.1216166315787905e6 951702.6176376536 0.0
0.0 0.0 0.0

-1.4392532976751942e6 3.065623935540932e6 0.0
3.065623935540932e6 421679.84209033166 0.0
0.0 0.0 0.0

-1.971890049994047e6 3.3228603050820613e6 0.0
3.3228603050820613e6 582151.6660443875 0.0
0.0 0.0 0.0

329050.86325093324 638732.9478109385 0.0
638732.9478109385 -319563.3207539814 0.0
0.0 0.0 0.0

783617.1308169449 2.98740390085377e6 0.0
2.98740390085377e6 -1.6453994780763378e6 0.0
0.0 0.0 0.0

-2.7913468071876983e6 4.922116585284348e6 0.0
4.922116585284348e6 1.4946888564140145e6 0.0
0.0 0.0 0.0

-1.2818161777150752e6 3.8471150229289136e6 0.0
3.8471150229289136e6 1.266423569974373e6 0.0
0.0 0.0 0.0

-1.8709033800504883e6 5.5553608730767835e6 0.0
5.5553608730767835e6 -367370.3618091629 0.0
0.0 0.0 0.0

133997.29496449552 629491.6833003318 0.0
629491.6833003318 -1.3628312009331076e6 0.0
0.0 0.0 0.0

-2.83429049896823e6 6.255156851973533e6 0.0
6.255156851973533e6 725632.6588103743 0.0
0.0 0.0 0.0

-1.9830640949776657e6 3.1130639540905547e6 0.0
3.1130639540905547e6 673094.6694905702 0.0
0.0 0.0 0.0

-463992.4958936489 4.381506420780344e6 0.0
4.381506420780344e6 -958679.7398756121 0.0
0.0 0.0 0.0

-1.7548423367778938e6 2.9384227946989294e6 0.0
2.9384227946989294e6 772255.8549110129 0.0
0.0 0.0 0.0

211036.62589777174 4.106299928272137e6 0.0
4.106299928272137e6 -1.4537376184059712e6 0.0
0.0 0.0 0.0

-2.0830563249790973e6 3.098175887976582e6 0.0
3.098175887976582e6 863235.2250867748 0.0
0.0 0.0 0.0

500823.70269759255 1.1041780455048906e6 0.0
1.1041780455048906e6 -956611.3899493037 0.0
0.0 0.0 0.0

-813345.8401029039 3.2015839257308366e6 0.0
3.2015839257308366e6 -471871.0997465168 0.0
0.0 0.0 0.0

-1.0125892187757106e6 3.537003390458258e6 0.0
3.537003390458258e6 -166478.4177404618 0.0
0.0 0.0 0.0

-321791.28385660984 2.7780643644434134e6 0.0
2.7780643644434134e6 -1.479425927498022e6 0.0
0.0 0.0 0.0

-1.2603725783730138e6 3.739435737385509e6 0.0
3.739435737385509e6 -30345.38016605971 0.0
0.0 0.0 0.0

-9.209914139258856e6 3.3302454267785326e6 0.0
3.3302454267785326e6 9.116357423754515e6 0.0
0.0 0.0 0.0

-1.4368216138277913e6 3.432129805259234e6 0.0
3.432129805259234e6 377496.64863046893 0.0
0.0 0.0 0.0

-720130.9488485032 4.778790824563907e6 0.0
4.778790824563907e6 -263826.8343931763 0.0
0.0 0.0 0.0

-1.116881897213182e7 -1.38487518380289e6 0.0
-1.38487518380289e6 9.489701448749848e6 0.0
0.0 0.0 0.0

-479108.1579378429 5.196217898306975e6 0.0
5.196217898306975e6 -707265.4730128591 0.0
0.0 0.0 0.0

-1.687140989085754e6 3.342269469133e6 0.0
3.342269469133e6 383864.4959197239 0.0
0.0 0.0 0.0

-420529.0690887304 2.438300736002263e6 0.0
2.438300736002263e6 -1.0073865824028581e6 0.0
0.0 0.0 0.0

-2.6433466727250516e6 3.401776770103716e6 0.0
3.401776770103716e6 1.1226656659863547e6 0.0
0.0 0.0 0.0

-28271.06659558823 4.045506705281396e6 0.0
4.045506705281396e6 -1.1379333837312062e6 0.0
0.0 0.0 0.0

-182235.5207876863 4.37408063811891e6 0.0
4.37408063811891e6 -1.1257982373312877e6 0.0
0.0 0.0 0.0

488924.30864371796 2.2470269869902595e6 0.0
2.2470269869902595e6 -552612.551251124 0.0
0.0 0.0 0.0

-1.2281342548610203e6 3.3507694361015595e6 0.0
3.3507694361015595e6 307631.22611830983 0.0
0.0 0.0 0.0

750507.0720941072 3.944848735303842e6 0.0
3.944848735303842e6 -1.3423992963398541e6 0.0
0.0 0.0 0.0

372540.3358984956 1.346345161937069e6 0.0
1.346345161937069e6 -258063.06220330726 0.0
0.0 0.0 0.0

-97511.77220231586 4.305761439760656e6 0.0
4.305761439760656e6 -1.1318266892966346e6 0.0
0.0 0.0 0.0

-1.0631060345137231e7 -1.717018070450756e6 0.0
-1.717018070450756e6 5.408013235074642e6 0.0
0.0 0.0 0.0

801647.6876635012 4.1470345196950966e6 0.0
4.1470345196950966e6 -1.8166310152887602e6 0.0
0.0 0.0 0.0

-1.054854296467735e6 3.443605726322541e6 0.0
3.443605726322541e6 145735.5205004784 0.0
0.0 0.0 0.0

-1.2853980642276048e6 3.460697918168254e6 0.0
3.460697918168254e6 332382.938877481 0.0
0.0 0.0 0.0

-1.6964742314828455e6 4.601471547982212e6 0.0
4.601471547982212e6 207074.63915963378 0.0
0.0 0.0 0.0

-1.8253567580575477e6 2.754486421683525e6 0.0
2.754486421683525e6 577775.1731873184 0.0
0.0 0.0 0.0

-1.1187435255530379e6 4.560819337565166e6 0.0
4.560819337565166e6 456793.6938797352 0.0
0.0 0.0 0.0

-510057.6661665549 3.1027867500569737e6 0.0
3.1027867500569737e6 -969664.3263979749 0.0
0.0 0.0 0.0

240947.87013654225 5.323487974228602e6 0.0
5.323487974228602e6 -1.7394838350712173e6 0.0
0.0 0.0 0.0

-2.550468998320157e6 3.4160515585629004e6 0.0
3.4160515585629004e6 1.0284985408580614e6 0.0
0.0 0.0 0.0

-2.0768126572435244e6 4.913196524185583e6 0.0
4.913196524185583e6 517242.170736387 0.0
0.0 0.0 0.0

645034.3790841554 5.13741689357858e6 0.0
5.13741689357858e6 -1.4152167572872366e6 0.0
0.0 0.0 0.0

-955547.8923607442 3.39986666913608e6 0.0
3.39986666913608e6 -115533.20030621457 0.0
0.0 0.0 0.0

-1.7238699821766787e6 4.649214533761932e6 0.0
4.649214533761932e6 147146.7014168516 0.0
0.0 0.0 0.0

-6.956157111569587e6 2.793106867777948e6 0.0
2.793106867777948e6 4.168635089190931e6 0.0
0.0 0.0 0.0

-256247.4688291567 2.4082790417380505e6 0.0
2.4082790417380505e6 130784.67853272775 0.0
0.0 0.0 0.0

-531839.8347707002 2.7960890553983375e6 0.0
2.7960890553983375e6 -1.4983805629211478e6 0.0
0.0 0.0 0.0

396049.76594310184 864690.9789822162 0.0
864690.9789822162 -441442.63479514717 0.0
0.0 0.0 0.0

-44866.63725651537 -83287.0580488114 0.0
-83287.0580488114 -30354.335199982495 0.0
0.0 0.0 0.0

910666.9930630625 3.1437213970718672e6 0.0
3.1437213970718672e6 -2.0649218541810443e6 0.0
0.0 0.0 0.0

-1.2631458581655435e6 4.783248882367772e6 0.0
4.783248882367772e6 -46373.0254859362 0.0
0.0 0.0 0.0

-431050.7031090388 4.827120737599864e6 0.0
4.827120737599864e6 -1.3661252146799376e6 0.0
0.0 0.0 0.0

-2.2403081534717837e6 1.2091076689239359e6 0.0
1.2091076689239359e6 3.5210748631826704e6 0.0
0.0 0.0 0.0

-1.104832960348811e6 4.397127734606581e6 0.0
4.397127734606581e6 -204253.39395194055 0.0
0.0 0.0 0.0

16457.806929781276 3.7344845380499195e6 0.0
3.7344845380499195e6 -1.1550441529361254e6 0.0
0.0 0.0 0.0

-2.5165546471038605e6 2.26333660893845e6 0.0
2.26333660893845e6 6.630448712730878e6 0.0
0.0 0.0 0.0

-1.9010494627572275e6 3.0290996901045744e6 0.0
3.0290996901045744e6 774923.640721167 0.0
0.0 0.0 0.0

-1.5739098717346936e6 2.9629152353128674e6 0.0
2.9629152353128674e6 2.26419704960955e6 0.0
0.0 0.0 0.0

-451623.871803694 4.814445998244211e6 0.0
4.814445998244211e6 -1.2847702435659135e6 0.0
0.0 0.0 0.0

5.155226774528912e6 6.900938397931464e6 0.0
6.900938397931464e6 -475331.88636143296 0.0
0.0 0.0 0.0

-1.619359030214109e6 3.849399543753814e6 0.0
3.849399543753814e6 589600.6829506741 0.0
0.0 0.0 0.0

-2.6194594716896303e6 5.240535726099872e6 0.0
5.240535726099872e6 1.4798775444834833e6 0.0
0.0 0.0 0.0

-260496.66428577612 3.487695506398485e6 0.0
3.487695506398485e6 -1.0482528732733307e6 0.0
0.0 0.0 0.0

156.07318933610804 4.284776579823483e6 0.0
4.284776579823483e6 -1.5388628909498756e6 0.0
0.0 0.0 0.0

-1.694062027429837e6 2.626114362226517e6 0.0
2.626114362226517e6 389738.3428840771 0.0
0.0 0.0 0.0

-193999.99523407692 2.790260485651689e6 0.0
2.790260485651689e6 141561.3953940384 0.0
0.0 0.0 0.0

-286985.0155823657 4.323187198428799e6 0.0
4.323187198428799e6 -1.4835660706518611e6 0.0
0.0 0.0 0.0

1.386919064577423e6 1.3785462771142852e6 0.0
1.3785462771142852e6 -1.4460754944563936e6 0.0
0.0 0.0 0.0

-470903.9658987677 4.013892172572358e6 0.0
4.013892172572358e6 -1.044284609344553e6 0.0
0.0 0.0 0.0

-2.2301339194506463e6 2.382867875493768e6 0.0
2.382867875493768e6 -47582.24295017077 0.0
0.0 0.0 0.0

-1.4689271226117478e6 2.683728471069343e6 0.0
2.683728471069343e6 179839.27573140722 0.0
0.0 0.0 0.0

-3.686454182846778e6 2.419603525512451e6 0.0
2.419603525512451e6 9.926255212012602e6 0.0
0.0 0.0 0.0

-964007.9807339443 4.8597018426002655e6 0.0
4.8597018426002655e6 -47576.08191056264 0.0
0.0 0.0 0.0

-77726.09002159501 4.953384928663987e6 0.0
4.953384928663987e6 -962841.2943377511 0.0
0.0 0.0 0.0

-1.7241492312334648e6 4.624568512984566e6 0.0
4.624568512984566e6 192484.57362506562 0.0
0.0 0.0 0.0

-1.8220249819080897e6 3.8988576525940853e6 0.0
3.8988576525940853e6 826243.2252023796 0.0
0.0 0.0 0.0

-1.848912272994651e6 4.1312608125228537e6 0.0
4.1312608125228537e6 451263.0074219068 0.0
0.0 0.0 0.0

-23721.574640516745 2.7152808826833204e6 0.0
2.7152808826833204e6 -44649.87912878179 0.0
0.0 0.0 0.0

-1.0149565657736079e6 3.2378245589037794e6 0.0
3.2378245589037794e6 -191892.24132006057 0.0
0.0 0.0 0.0

476422.4409255767 1.3468559645240793e6 0.0
1.3468559645240793e6 -1.060419428604811e6 0.0
0.0 0.0 0.0

-1.0908855030636678e6 3.171326839348876e6 0.0
3.171326839348876e6 1.5707615996231074e6 0.0
0.0 0.0 0.0

-486168.1581912224 4.7780107814058615e6 0.0
4.7780107814058615e6 -1.2066135396032017e6 0.0
0.0 0.0 0.0

-1.9814333674891074e6 3.772345103087126e6 0.0
3.772345103087126e6 994322.88585921 0.0
0.0 0.0 0.0

-2.3010950263925567e6 3.474541656720583e6 0.0
3.474541656720583e6 882450.9427891563 0.0
0.0 0.0 0.0

463384.9291410092 193558.0990791235 0.0
193558.0990791235 -560289.7403311494 0.0
0.0 0.0 0.0

-2.274667274433937e6 3.721609051033664e6 0.0
3.721609051033664e6 669221.6411836352 0.0
0.0 0.0 0.0

-1.589219947024682e6 3.4802036480773506e6 0.0
3.4802036480773506e6 305111.6849812078 0.0
0.0 0.0 0.0

-2.0723680697576762e6 4.0024857818455673e6 0.0
4.0024857818455673e6 457484.1625488668 0.0
0.0 0.0 0.0

-190895.18524500023 5.179629922410003e6 0.0
5.179629922410003e6 -740446.3672806621 0.0
0.0 0.0 0.0

-2.2814657408001013e6 4.838291909631297e6 0.0
4.838291909631297e6 1.2013635793226836e6 0.0
0.0 0.0 0.0

791683.1400000327 3.1049170944159343e6 0.0
3.1049170944159343e6 -1.8114852153250636e6 0.0
0.0 0.0 0.0

-262133.69198925263 2.6787506593626095e6 0.0
2.6787506593626095e6 200779.2905305209 0.0
0.0 0.0 0.0

-513350.12461735186 4.915180372775168e6 0.0
4.915180372775168e6 -929996.7183788014 0.0
0.0 0.0 0.0

-514547.3655801041 4.768573432917807e6 0.0
4.768573432917807e6 -1.1169452339272022e6 0.0
0.0 0.0 0.0

-1.8475893403834102e6 3.0033356674796925e6 0.0
3.0033356674796925e6 717333.8344871192 0.0
0.0 0.0 0.0

-998828.0336619992 4.786339202403124e6 0.0
4.786339202403124e6 -148829.07443698656 0.0
0.0 0.0 0.0

-777828.622454893 4.669538943894768e6 0.0
4.669538943894768e6 -97051.29637761172 0.0
0.0 0.0 0.0

-569422.3267771302 4.936801145037364e6 0.0
4.936801145037364e6 -1.0899959379617884e6 0.0
0.0 0.0 0.0

-341656.77071684017 3.0357815207377383e6 0.0
3.0357815207377383e6 -646744.5099177469 0.0
0.0 0.0 0.0

347595.54610300605 5.260070613188869e6 0.0
5.260070613188869e6 -1.474636439009815e6 0.0
0.0 0.0 0.0

-485453.4142211571 4.846912064735713e6 0.0
4.846912064735713e6 -1.2530744463101514e6 0.0
0.0 0.0 0.0

-1.2379468225179182e6 3.9506514718551277e6 0.0
3.9506514718551277e6 901992.3726294981 0.0
0.0 0.0 0.0

-1.9732412039999797e6 2.9703152662750343e6 0.0
2.9703152662750343e6 730531.3606503198 0.0
0.0 0.0 0.0

903174.9552658682 4.300632209057374e6 0.0
4.300632209057374e6 -1.6060404943999448e6 0.0
0.0 0.0 0.0

905516.9261030825 3.8879653262752644e6 0.0
3.8879653262752644e6 -1.6595239505986609e6 0.0
0.0 0.0 0.0

-978036.0818164673 3.5100350087540634e6 0.0
3.5100350087540634e6 -118907.95479105177 0.0
0.0 0.0 0.0

-2.464744070898737e6 3.434035987510557e6 0.0
3.434035987510557e6 989008.2250880637 0.0
0.0 0.0 0.0

45503.520116752436 913820.1855962782 0.0
913820.1855962782 312469.0083382811 0.0
0.0 0.0 0.0

-1.005277708624794e6 3.215229368406718e6 0.0
3.215229368406718e6 -246443.80623723398 0.0
0.0 0.0 0.0

-1.1734896854395552e6 3.4195276020233994e6 0.0
3.4195276020233994e6 260357.12401316996 0.0
0.0 0.0 0.0

342732.8786794179 5.088490253549451e6 0.0
5.088490253549451e6 -1.53341956714911e6 0.0
0.0 0.0 0.0

914575.196958631 3.17381838255956e6 0.0
3.17381838255956e6 -2.0707076536451722e6 0.0
0.0 0.0 0.0

-1.0741254195516836e6 3.3944128199264263e6 0.0
3.3944128199264263e6 97465.8994628262 0.0
0.0 0.0 0.0

-5.897150037553642e6 3.247606476050895e6 0.0
3.247606476050895e6 1.464706033686278e7 0.0
0.0 0.0 0.0

-1.4148951925067022e6 3.4970052339924015e6 0.0
3.4970052339924015e6 380362.545533727 0.0
0.0 0.0 0.0

-2.0737105926840513e6 3.9228986864288463e6 0.0
3.9228986864288463e6 1.0051891854884056e6 0.0
0.0 0.0 0.0

-144983.682581498 4.0765378445672533e6 0.0
4.0765378445672533e6 -1.0448758641440527e6 0.0
0.0 0.0 0.0

-2.701662302464034e6 3.975979788450188e6 0.0
3.975979788450188e6 1.444759083589625e6 0.0
0.0 0.0 0.0

-2.415010458762526e6 3.4645897460706527e6 0.0
3.4645897460706527e6 913585.1674726992 0.0
0.0 0.0 0.0

-1.4251541781094386e6 4.927307428866374e6 0.0
4.927307428866374e6 1.3203247240911368e6 0.0
0.0 0.0 0.0

1.3802218316947345e6 1.419531878895285e6 0.0
1.419531878895285e6 -2.1890321050560907e6 0.0
0.0 0.0 0.0

-509265.13640013395 5.25859288264054e6 0.0
5.25859288264054e6 -641459.1948423268 0.0
0.0 0.0 0.0

1.0561037969606789e6 2.0320425566071619e6 0.0
2.0320425566071619e6 -1.9113611405494236e6 0.0
0.0 0.0 0.0

307887.94400620845 2.677765845236861e6 0.0
2.677765845236861e6 -437647.3816595528 0.0
0.0 0.0 0.0

-1.9107160415034436e6 3.5973587476650034e6 0.0
3.5973587476650034e6 660326.8488501754 0.0
0.0 0.0 0.0

-1.8325700734343682e6 3.0462315825171233e6 0.0
3.0462315825171233e6 849313.3449986877 0.0
0.0 0.0 0.0

122356.3793768892 3.4454750173247773e6 0.0
3.4454750173247773e6 -1.6442669948505743e6 0.0
0.0 0.0 0.0

-554692.5440878371 4.903592183913171e6 0.0
4.903592183913171e6 -1.0616238361510371e6 0.0
0.0 0.0 0.0

-2.273684454878776e6 3.9998501921706107e6 0.0
3.9998501921706107e6 1.1744605467538927e6 0.0
0.0 0.0 0.0

-54427.983178896626 1.5042175245844445e6 0.0
1.5042175245844445e6 363222.3123843137 0.0
0.0 0.0 0.0

-972204.2868999017 3.2467545485327146e6 0.0
3.2467545485327146e6 197262.1043245878 0.0
0.0 0.0 0.0

239428.0594739174 1.9290708379946314e6 0.0
1.9290708379946314e6 -274351.4445524261 0.0
0.0 0.0 0.0

-1.3955086982890156e6 3.473168079326863e6 0.0
3.473168079326863e6 293138.39295000484 0.0
0.0 0.0 0.0

-1.9616626719258698e6 4.0617554320237916e6 0.0
4.0617554320237916e6 563621.3573485073 0.0
0.0 0.0 0.0

-2.04530895191696e6 3.0429189891456743e6 0.0
3.0429189891456743e6 928019.2448773908 0.0
0.0 0.0 0.0

-2.7659685915565365e6 3.5937643348778435e6 0.0
3.5937643348778435e6 1.2774937391909487e6 0.0
0.0 0.0 0.0

309062.5197559019 2.0995859051816743e6 0.0
2.0995859051816743e6 -578039.2167791731 0.0
0.0 0.0 0.0

-1.0476965414403938e6 3.2119482613582835e6 0.0
3.2119482613582835e6 -320775.21537132654 0.0
0.0 0.0 0.0

-2.5876141840157397e6 3.430496725721782e6 0.0
3.430496725721782e6 1.0775895257990765e6 0.0
0.0 0.0 0.0

-581290.3446804469 4.939954367158521e6 0.0
4.939954367158521e6 -353657.2814575551 0.0
0.0 0.0 0.0

-1.201930347797536e6 3.101363243196401e6 0.0
3.101363243196401e6 1.8907283651251625e6 0.0
0.0 0.0 0.0

-1.4310637566589706e6 3.6324920497323633e6 0.0
3.6324920497323633e6 150975.6173155376 0.0
0.0 0.0 0.0

-755280.3509722915 5.411506459776548e6 0.0
5.411506459776548e6 -78663.23379125798 0.0
0.0 0.0 0.0

-1.1653447184011028e6 3.6277521929289405e6 0.0
3.6277521929289405e6 29083.802144270856 0.0
0.0 0.0 0.0

-1.0001389071026288e6 3.2272665323458673e6 0.0
3.2272665323458673e6 30184.51580144628 0.0
0.0 0.0 0.0

-179895.44625387123 2.6764711912318994e6 0.0
2.6764711912318994e6 244483.87247925287 0.0
0.0 0.0 0.0

-2.6828109285491332e6 3.4748142854198297e6 0.0
3.4748142854198297e6 1.1709356707857521e6 0.0
0.0 0.0 0.0

816266.2456682697 3.452668065515727e6 0.0
3.452668065515727e6 -1.4528753057389546e6 0.0
0.0 0.0 0.0

698208.24278629 4.357426914234404e6 0.0
4.357426914234404e6 -1.2565134801048418e6 0.0
0.0 0.0 0.0

-1.684281735449509e6 4.534779337458415e6 0.0
4.534779337458415e6 311262.7007500477 0.0
0.0 0.0 0.0

-1.1815528187598605e6 2.004606307926194e6 0.0
2.004606307926194e6 72419.23607500084 0.0
0.0 0.0 0.0

73527.42151373753 4.0023867336602737e6 0.0
4.0023867336602737e6 -1.6199475124278187e6 0.0
0.0 0.0 0.0

-3.014122495261126e6 4.298708923479717e6 0.0
4.298708923479717e6 1.5108506062386748e6 0.0
0.0 0.0 0.0

-2.580433936789305e6 4.006999702690246e6 0.0
4.006999702690246e6 1.404142377505912e6 0.0
0.0 0.0 0.0

-1.8778018863785076e6 3.1787348545214827e6 0.0
3.1787348545214827e6 558594.6578336717 0.0
0.0 0.0 0.0

-353061.4796574235 4.941136749511068e6 0.0
4.941136749511068e6 -1.551462531904243e6 0.0
0.0 0.0 0.0

-2.717219287116231e6 3.5280798250355083e6 0.0
3.5280798250355083e6 990868.1723129217 0.0
0.0 0.0 0.0

-974875.7926297131 3.1856148920937725e6 0.0
3.1856148920937725e6 518172.9744030076 0.0
0.0 0.0 0.0

1.621716553153975e6 609797.7352267406 0.0
609797.7352267406 -2.136549425701179e6 0.0
0.0 0.0 0.0

-3.0178163439891916e6 4.988697970521398e6 0.0
4.988697970521398e6 1.7087063669290654e6 0.0
0.0 0.0 0.0

-782917.990818341 4.838109589861489e6 0.0
4.838109589861489e6 -205703.2058359523 0.0
0.0 0.0 0.0

-2.4340607042411747e6 4.029231957068098e6 0.0
4.029231957068098e6 1.3311623445236725e6 0.0
0.0 0.0 0.0

-542092.3134394841 4.787081003139905e6 0.0
4.787081003139905e6 -1.0291567156272979e6 0.0
0.0 0.0 0.0

-2.850240623571909e6 3.6260007736124736e6 0.0
3.6260007736124736e6 1.3358659901676667e6 0.0
0.0 0.0 0.0

-1.4042096540207153e6 4.400056805675271e6 0.0
4.400056805675271e6 696746.1320299637 0.0
0.0 0.0 0.0

-2.799497035508328e6 4.018652266399643e6 0.0
4.018652266399643e6 1.3755461720691954e6 0.0
0.0 0.0 0.0

-2.7984318088260223e6 6.469208501983773e6 0.0
6.469208501983773e6 1.6143605973960385e6 0.0
0.0 0.0 0.0

-565536.1478100794 3.0615602679120414e6 0.0
3.0615602679120414e6 127466.43364029305 0.0
0.0 0.0 0.0

-65545.80346915731 3.645455928553045e6 0.0
3.645455928553045e6 -1.297023314820998e6 0.0
0.0 0.0 0.0

-259455.43975874296 2.9207000086497758e6 0.0
2.9207000086497758e6 108590.68597064285 0.0
0.0 0.0 0.0

-791076.9284133714 3.2299338719568374e6 0.0
3.2299338719568374e6 -412680.8173021318 0.0
0.0 0.0 0.0

-988982.5620633675 -270936.5946597697 0.0
-270936.5946597697 1.1125286786701197e6 0.0
0.0 0.0 0.0

-465087.87931109103 3332.241765671973 0.0
3332.241765671973 586126.8305606013 0.0
0.0 0.0 0.0

-746496.1627316824 2.893517330924332e6 0.0
2.893517330924332e6 259639.4630182333 0.0
0.0 0.0 0.0

67616.46901747349 3.185899933520261e6 0.0
3.185899933520261e6 -496567.2411215463 0.0
0.0 0.0 0.0

-2.474439696752755e6 4.514952396455888e6 0.0
4.514952396455888e6 1.3441587386834337e6 0.0
0.0 0.0 0.0

-1.7364453069976794e6 3.2631244735421445e6 0.0
3.2631244735421445e6 669248.9518787679 0.0
0.0 0.0 0.0

-127365.1403072509 3.9572678528206563e6 0.0
3.9572678528206563e6 -1.274990559141977e6 0.0
0.0 0.0 0.0

-873134.8043234788 5.068366300654504e6 0.0
5.068366300654504e6 546231.7949407888 0.0
0.0 0.0 0.0

-2.8754197851733183e6 3.491860623665313e6 0.0
3.491860623665313e6 908024.186073793 0.0
0.0 0.0 0.0

-3.0747263348319875e6 4.380736479150443e6 0.0
4.380736479150443e6 1.4978782383163513e6 0.0
0.0 0.0 0.0

-3.2288775201219916e6 4.557108457505281e6 0.0
4.557108457505281e6 1.4944758236264572e6 0.0
0.0 0.0 0.0

-1.140611391610568e6 3.1873839491159385e6 0.0
3.1873839491159385e6 273037.33624761703 0.0
0.0 0.0 0.0

-963282.025768372 3.4686568346869783e6 0.0
3.4686568346869783e6 -104187.59279219541 0.0
0.0 0.0 0.0

-303785.23427659296 3.145538225219705e6 0.0
3.145538225219705e6 -157572.96505511922 0.0
0.0 0.0 0.0

-1.5413796954689333e6 3.8171491361909197e6 0.0
3.8171491361909197e6 559312.6123712163 0.0
0.0 0.0 0.0

-988371.3415888915 3.4935045554151223e6 0.0
3.4935045554151223e6 -148266.37711014604 0.0
0.0 0.0 0.0

-660551.7890989878 2.6153575275522345e6 0.0
2.6153575275522345e6 325591.36108042474 0.0
0.0 0.0 0.0

-260633.62941526916 4.197227122376633e6 0.0
4.197227122376633e6 -1.29939957727638e6 0.0
0.0 0.0 0.0

-1.3326200927634728e6 3.325682222568688e6 0.0
3.325682222568688e6 391066.371435945 0.0
0.0 0.0 0.0

-511308.87078046944 2.7340661005246225e6 0.0
2.7340661005246225e6 2204.2192008358834 0.0
0.0 0.0 0.0

-1.9726116034674214e6 5.387847276717608e6 0.0
5.387847276717608e6 1.0602425774303852e6 0.0
0.0 0.0 0.0

-1.127845861636934e6 3.6368400503587388e6 0.0
3.6368400503587388e6 153265.9708592284 0.0
0.0 0.0 0.0

-2.8895062401874047e6 3.659860401457587e6 0.0
3.659860401457587e6 1.3021459479766362e6 0.0
0.0 0.0 0.0

-2.787385602561073e6 3.566293347376557e6 0.0
3.566293347376557e6 1.3289835125901112e6 0.0
0.0 0.0 0.0

-1.4618612542960807e6 4.391792196524348e6 0.0
4.391792196524348e6 571067.8044665982 0.0
0.0 0.0 0.0

-422133.09361597715 4.847643848325022e6 0.0
4.847643848325022e6 -1.4007239584932686e6 0.0
0.0 0.0 0.0

-1.5838232523541164e6 3.673977469132205e6 0.0
3.673977469132205e6 492254.79999739677 0.0
0.0 0.0 0.0

-1.0697257245379633e6 3.19995715540712e6 0.0
3.19995715540712e6 544655.7369072055 0.0
0.0 0.0 0.0

-1.6584073949445556e6 3.138077016442321e6 0.0
3.138077016442321e6 620638.3517644688 0.0
0.0 0.0 0.0

-2.6078198070122814e6 5.454384039529733e6 0.0
5.454384039529733e6 1.4450660790562755e6 0.0
0.0 0.0 0.0

-1.5088791998326997e6 4.409114331670623e6 0.0
4.409114331670623e6 497334.4275855494 0.0
0.0 0.0 0.0

-1.7184634958867356e6 3.1053477787210103e6 0.0
3.1053477787210103e6 354141.8624762675 0.0
0.0 0.0 0.0

518928.55307951255 4.821010272402942e6 0.0
4.821010272402942e6 -1.3734870671610655e6 0.0
0.0 0.0 0.0

-1.0925294539612047e6 3.2837987274667034e6 0.0
3.2837987274667034e6 205010.96299211052 0.0
0.0 0.0 0.0

-878579.4022011658 5.043912803544329e6 0.0
5.043912803544329e6 13889.497921589646 0.0
0.0 0.0 0.0

2.0658077743385145e6 992774.4371486311 0.0
992774.4371486311 -1.6352167751732161e6 0.0
0.0 0.0 0.0

460315.6062075192 5.070154798380025e6 0.0
5.070154798380025e6 -2.1766212240602e6 0.0
0.0 0.0 0.0

-1.0891844560723419e6 3.0464042371259322e6 0.0
3.0464042371259322e6 -26049.8124107967 0.0
0.0 0.0 0.0

-218941.64659967023 2.660248639719664e6 0.0
2.660248639719664e6 885360.3999999617 0.0
0.0 0.0 0.0

266850.8790633457 5.172181880604247e6 0.0
5.172181880604247e6 -1.9404295490188743e6 0.0
0.0 0.0 0.0

130791.80322476977 5.262219109452547e6 0.0
5.262219109452547e6 -1.700948954852527e6 0.0
0.0 0.0 0.0

-388205.3909862053 4.732527880429657e6 0.0
4.732527880429657e6 -783326.5266859898 0.0
0.0 0.0 0.0

-30161.074409411667 1.8014242121707255e6 0.0
1.8014242121707255e6 340501.8681909394 0.0
0.0 0.0 0.0

-129555.38330942039 3.2032205986891217e6 0.0
3.2032205986891217e6 -243343.35542127848 0.0
0.0 0.0 0.0

-899513.9566073593 2.7795530241982276e6 0.0
2.7795530241982276e6 -1.0948284314469115e6 0.0
0.0 0.0 0.0

-979929.7879371674 3.2427724168675016e6 0.0
3.2427724168675016e6 -133750.0092002153 0.0
0.0 0.0 0.0

-155904.5217488488 2.6901207791430345e6 0.0
2.6901207791430345e6 -476201.73490984173 0.0
0.0 0.0 0.0

-674918.6299980822 3.7259495186059377e6 0.0
3.7259495186059377e6 32515.73515609646 0.0
0.0 0.0 0.0

64908.11126651312 -8530.587713189529 0.0
-8530.587713189529 -203830.2708268187 0.0
0.0 0.0 0.0

-1.0881741461134613e6 3.339073235976384e6 0.0
3.339073235976384e6 201517.07223284408 0.0
0.0 0.0 0.0

-1.8572375705452906e6 4.242756630832679e6 0.0
4.242756630832679e6 447987.9247196944 0.0
0.0 0.0 0.0

-567006.4431396641 4.238779178031165e6 0.0
4.238779178031165e6 -766422.5125182179 0.0
0.0 0.0 0.0

225014.44927412397 333466.75985037745 0.0
333466.75985037745 -474362.510944302 0.0
0.0 0.0 0.0

-362802.8632716243 2.9012570870183054e6 0.0
2.9012570870183054e6 -158543.27887567334 0.0
0.0 0.0 0.0

477038.19039115636 3.371936122072019e6 0.0
3.371936122072019e6 -1.5619378768840882e6 0.0
0.0 0.0 0.0

-2.284394765389243e6 5.998310261475447e6 0.0
5.998310261475447e6 1.2718406790421146e6 0.0
0.0 0.0 0.0

-1.2859508018177878e6 869856.0645757943 0.0
869856.0645757943 2.8140213816596223e6 0.0
0.0 0.0 0.0

-1.0797788578061918e6 3.5664919964410816e6 0.0
3.5664919964410816e6 334477.17356900783 0.0
0.0 0.0 0.0

-288082.3866051324 2.7736541893182527e6 0.0
2.7736541893182527e6 -166506.69711337486 0.0
0.0 0.0 0.0

-3.311958748224322e6 3.826483002980219e6 0.0
3.826483002980219e6 2.715844328237183e6 0.0
0.0 0.0 0.0

-739308.1251144717 4.909924367282927e6 0.0
4.909924367282927e6 -216110.2120376877 0.0
0.0 0.0 0.0

-211181.02773692113 5.053417912675307e6 0.0
5.053417912675307e6 -606063.5898538588 0.0
0.0 0.0 0.0

574000.3944069248 4.711387688394616e6 0.0
4.711387688394616e6 -2.2727594717388772e6 0.0
0.0 0.0 0.0

-2.0615433453724904e6 2.515026249741247e6 0.0
2.515026249741247e6 772257.3973748843 0.0
0.0 0.0 0.0

-3.656394678466419e6 7.097837648080852e6 0.0
7.097837648080852e6 1.2897586905859348e6 0.0
0.0 0.0 0.0

-1.1575819473508925e6 3.232626672948691e6 0.0
3.232626672948691e6 338128.15814645146 0.0
0.0 0.0 0.0

-241117.9573929875 -3823.221936971626 0.0
-3823.221936971626 339198.5413449124 0.0
0.0 0.0 0.0

-507078.34307197307 4.636468491687538e6 0.0
4.636468491687538e6 -381414.9729547935 0.0
0.0 0.0 0.0

-2.9629007908445406e6 4.472325264941189e6 0.0
4.472325264941189e6 2.0052385239915084e6 0.0
0.0 0.0 0.0

-196385.15950204697 2.988739985397753e6 0.0
2.988739985397753e6 -89968.48457654263 0.0
0.0 0.0 0.0

-973005.3774065889 4.410630477889879e6 0.0
4.410630477889879e6 1.9292270118268286e6 0.0
0.0 0.0 0.0

-980016.4947835358 3.166790783777295e6 0.0
3.166790783777295e6 -60107.0738840157 0.0
0.0 0.0 0.0

-906956.7122374646 3.163936099952982e6 0.0
3.163936099952982e6 -383796.7858143245 0.0
0.0 0.0 0.0

-242548.91351092886 903858.7278260085 0.0
903858.7278260085 1.4382741161875904e6 0.0
0.0 0.0 0.0

-478484.90855212504 4.609710460971307e6 0.0
4.609710460971307e6 -216842.15610718197 0.0
0.0 0.0 0.0

-1.9781099663434841e6 4.0208816328942324e6 0.0
4.0208816328942324e6 337479.13132812735 0.0
0.0 0.0 0.0

-3.3796374163382663e6 4.775887021347497e6 0.0
4.775887021347497e6 1.6181324848722266e6 0.0
0.0 0.0 0.0

-1.4554605660021068e6 3.495063993499412e6 0.0
3.495063993499412e6 447256.80756404466 0.0
0.0 0.0 0.0

2.568303810323433e6 441790.4201955379 0.0
441790.4201955379 -2.0285908759284914e6 0.0
0.0 0.0 0.0

-44688.269755330286 4.961224671956544e6 0.0
4.961224671956544e6 -1.639466095450879e6 0.0
0.0 0.0 0.0

-180162.56973414044 2.9175413970605796e6 0.0
2.9175413970605796e6 -1.3867901185833763e6 0.0
0.0 0.0 0.0

-947427.0115463759 3.3859176414237483e6 0.0
3.3859176414237483e6 -62508.31603084417 0.0
0.0 0.0 0.0

-6.1543144663852975e6 6.558081965981102e6 0.0
6.558081965981102e6 2.8134917445604494e6 0.0
0.0 0.0 0.0

401576.53476517316 1.7703529753795573e6 0.0
1.7703529753795573e6 -883603.6179845284 0.0
0.0 0.0 0.0

-2.275411513574948e6 5.051369661521369e6 0.0
5.051369661521369e6 1.2066568388141585e6 0.0
0.0 0.0 0.0

-1.0537139612733333e6 5.1726127078832295e6 0.0
5.1726127078832295e6 183019.822377368 0.0
0.0 0.0 0.0

-375270.04854138766 3.1858421854978893e6 0.0
3.1858421854978893e6 192864.01131102696 0.0
0.0 0.0 0.0

-246991.62856896478 3.322317234224897e6 0.0
3.322317234224897e6 -1.069936542906092e6 0.0
0.0 0.0 0.0

-1.1249529074213558e6 3.346184367677633e6 0.0
3.346184367677633e6 2.1789125263404706e6 0.0
0.0 0.0 0.0

-785805.1219348903 4.836133296408749e6 0.0
4.836133296408749e6 931227.0877113879 0.0
0.0 0.0 0.0

-333329.7414207929 4.831003350117038e6 0.0
4.831003350117038e6 -587210.2178565222 0.0
0.0 0.0 0.0

-1.0350102813421778e6 3.145070295615553e6 0.0
3.145070295615553e6 -198191.52063480546 0.0
0.0 0.0 0.0

-5.390490713916629e6 6.03502688843164e6 0.0
6.03502688843164e6 2.378740059158899e6 0.0
0.0 0.0 0.0

-4.574994388896236e6 3.838528323075124e6 0.0
3.838528323075124e6 2.735832541327547e6 0.0
0.0 0.0 0.0

-934674.7167200581 3.169163652565706e6 0.0
3.169163652565706e6 -278909.1835934485 0.0
0.0 0.0 0.0

-162010.45003028074 5.348583845503607e6 0.0
5.348583845503607e6 -1.8412750293089543e6 0.0
0.0 0.0 0.0

881094.3803239836 3.2977764644411327e6 0.0
3.2977764644411327e6 -2.0397607528197593e6 0.0
0.0 0.0 0.0

-478172.12259466643 4.435740128573461e6 0.0
4.435740128573461e6 -870443.2078843267 0.0
0.0 0.0 0.0

-114505.95085862593 4.508964192587606e6 0.0
4.508964192587606e6 -1.4707539917164154e6 0.0
0.0 0.0 0.0

-547807.2959027791 4.283089140807323e6 0.0
4.283089140807323e6 -688268.5927114028 0.0
0.0 0.0 0.0

-6.907505952116222e6 7.640546600464974e6 0.0
7.640546600464974e6 2.270387617593411e6 0.0
0.0 0.0 0.0

-2.0995178214419805e6 3.437201780008857e6 0.0
3.437201780008857e6 781610.1782089971 0.0
0.0 0.0 0.0

-724180.9572681946 4.608927765154994e6 0.0
4.608927765154994e6 -453739.24099756294 0.0
0.0 0.0 0.0

-808509.4276217924 4.1875156759003326e6 0.0
4.1875156759003326e6 -451674.4432831539 0.0
0.0 0.0 0.0

222482.09035126225 4.657747757873682e6 0.0
4.657747757873682e6 -1.6981023667050097e6 0.0
0.0 0.0 0.0

-1.6005269181182638e6 3.8519644265839607e6 0.0
3.8519644265839607e6 488547.39713597915 0.0
0.0 0.0 0.0

-312069.76783593674 4.716975585789666e6 0.0
4.716975585789666e6 -431286.3765571681 0.0
0.0 0.0 0.0

-1.199518954247685e6 4.817034854042276e6 0.0
4.817034854042276e6 5292.211681116954 0.0
0.0 0.0 0.0

-5.749393205366079e6 -2.1025904641508176e6 0.0
-2.1025904641508176e6 1.2769361426632848e7 0.0
0.0 0.0 0.0

576711.566965044 307650.437597484 0.0
307650.437597484 -725894.4762702507 0.0
0.0 0.0 0.0

-1.4556642383013282e7 1.682878458536561e7 0.0
1.682878458536561e7 101910.27436976321 0.0
0.0 0.0 0.0

-67945.12213166872 5.139631294542441e6 0.0
5.139631294542441e6 -538086.7055300369 0.0
0.0 0.0 0.0

-4.855511052671106e6 5.696056554186094e6 0.0
5.696056554186094e6 2.3282435375928255e6 0.0
0.0 0.0 0.0

-793583.0110695476 2.97479381957595e6 0.0
2.97479381957595e6 -304888.95641682344 0.0
0.0 0.0 0.0

-582914.3207227914 4.948425897671383e6 0.0
4.948425897671383e6 -701991.0663242874 0.0
0.0 0.0 0.0

-1.979201458255939e6 3.8040640531078833e6 0.0
3.8040640531078833e6 648420.6531117031 0.0
0.0 0.0 0.0

699560.3385701599 2.9663324598358325e6 0.0
2.9663324598358325e6 -1.7278713126430106e6 0.0
0.0 0.0 0.0

-52074.92577275296 5.202549088180005e6 0.0
5.202549088180005e6 -671556.0243910375 0.0
0.0 0.0 0.0

-180483.03666070814 4.803884000641489e6 0.0
4.803884000641489e6 -1.6382836432304939e6 0.0
0.0 0.0 0.0

-549896.5245977434 5.30594265177033e6 0.0
5.30594265177033e6 -293519.1332034806 0.0
0.0 0.0 0.0

844841.99398459 4.223417938311785e6 0.0
4.223417938311785e6 -1.5367697607161854e6 0.0
0.0 0.0 0.0

-1.286696539595896e6 3.463362942305106e6 0.0
3.463362942305106e6 327296.1885473957 0.0
0.0 0.0 0.0

1.5747367150638942e6 408965.9260310694 0.0
408965.9260310694 -2.2356221002714722e6 0.0
0.0 0.0 0.0

-1.371771133579684e6 2.570580428287514e6 0.0
2.570580428287514e6 376081.50719225244 0.0
0.0 0.0 0.0

-2.0566059259148333e6 5.519179380650178e6 0.0
5.519179380650178e6 -185602.52376628853 0.0
0.0 0.0 0.0

239518.60290466796 5.285990811173596e6 0.0
5.285990811173596e6 -1.74678893128186e6 0.0
0.0 0.0 0.0

-1.8493555598424561e6 2.9074698741663946e6 0.0
2.9074698741663946e6 730966.5417170285 0.0
0.0 0.0 0.0

-1.2199332965464462e6 3.8403896821830026e6 0.0
3.8403896821830026e6 -112532.1197042329 0.0
0.0 0.0 0.0

-550969.2257860254 4.208133059359007e6 0.0
4.208133059359007e6 420469.16927636263 0.0
0.0 0.0 0.0

-564106.0026439818 5.000030031903622e6 0.0
5.000030031903622e6 -1.014568932483908e6 0.0
0.0 0.0 0.0

-948440.5506406891 3.3707762996402746e6 0.0
3.3707762996402746e6 -184065.338050976 0.0
0.0 0.0 0.0

-179009.52102980093 1.3866257537153594e6 0.0
1.3866257537153594e6 -544249.3652425514 0.0
0.0 0.0 0.0

-715083.854230114 4.0489737517548287e6 0.0
4.0489737517548287e6 206048.3086211387 0.0
0.0 0.0 0.0

-995423.4295850116 3.141841376406855e6 0.0
3.141841376406855e6 185904.10815801728 0.0
0.0 0.0 0.0

-108117.5483631531 1.0140784578313804e6 0.0
1.0140784578313804e6 -218987.8711322986 0.0
0.0 0.0 0.0

-1.12136531661882e6 3.2234150002713418e6 0.0
3.2234150002713418e6 312630.37978478265 0.0
0.0 0.0 0.0

-1.3949443307709172e6 4.240714721339627e6 0.0
4.240714721339627e6 599002.2185617127 0.0
0.0 0.0 0.0

591571.9554972464 1.339360991002089e6 0.0
1.339360991002089e6 -675190.8469080997 0.0
0.0 0.0 0.0

-995798.4429247493 3.987824053181595e6 0.0
3.987824053181595e6 -311774.6550654211 0.0
0.0 0.0 0.0

-2.0865384422800106e6 3.510554591038979e6 0.0
3.510554591038979e6 773109.2952669216 0.0
0.0 0.0 0.0

-1.0101780605314921e6 3.126415494075807e6 0.0
3.126415494075807e6 426661.23266917083 0.0
0.0 0.0 0.0

-465520.46655320475 -329822.698571228 0.0
-329822.698571228 641800.8663312992 0.0
0.0 0.0 0.0

-585689.6931546923 4.753866367426787e6 0.0
4.753866367426787e6 -270895.5466716165 0.0
0.0 0.0 0.0

-903231.5580665581 3.2317206626914884e6 0.0
3.2317206626914884e6 -411557.36624147376 0.0
0.0 0.0 0.0

-90908.60355532105 5.181221424314633e6 0.0
5.181221424314633e6 -1.8746827749052665e6 0.0
0.0 0.0 0.0

-1.0889789681020754e6 3.260758621913707e6 0.0
3.260758621913707e6 2.6803769020603825e6 0.0
0.0 0.0 0.0

-657748.1560900746 3.160050027942991e6 0.0
3.160050027942991e6 149338.67124043262 0.0
0.0 0.0 0.0

-229508.47440221955 2.7727877518547103e6 0.0
2.7727877518547103e6 -1.4116313779838958e6 0.0
0.0 0.0 0.0

851911.6214255466 3.1499849064530022e6 0.0
3.1499849064530022e6 -1.9605972431552615e6 0.0
0.0 0.0 0.0

-380031.6715982176 4.722810330899909e6 0.0
4.722810330899909e6 197009.50413008753 0.0
0.0 0.0 0.0

-599929.0395222004 4.300803356614088e6 0.0
4.300803356614088e6 934973.7478743205 0.0
0.0 0.0 0.0

-1.3293947070284337e6 2.6095130641385545e6 0.0
2.6095130641385545e6 332666.84580675024 0.0
0.0 0.0 0.0

-1.593030660881548e6 4.439608810161618e6 0.0
4.439608810161618e6 466867.2901113285 0.0
0.0 0.0 0.0

-3.896175861030137e6 5.143597480650746e6 0.0
5.143597480650746e6 1.8439257146070385e6 0.0
0.0 0.0 0.0

-560140.449264705 4.818851890831381e6 0.0
4.818851890831381e6 -929836.4558445807 0.0
0.0 0.0 0.0

523256.7295633557 349268.716637232 0.0
349268.716637232 -613113.3002674864 0.0
0.0 0.0 0.0

-191831.9633021236 4.871954502766656e6 0.0
4.871954502766656e6 -1.7233921268735519e6 0.0
0.0 0.0 0.0

-1.422771177167769e6 3.656773245923506e6 0.0
3.656773245923506e6 772782.8323744021 0.0
0.0 0.0 0.0

-455343.17595146096 3.050468476154972e6 0.0
3.050468476154972e6 55605.14426013123 0.0
0.0 0.0 0.0

-83525.22977035999 5.27672639398795e6 0.0
5.27672639398795e6 -511671.29204292066 0.0
0.0 0.0 0.0

406680.670267093 5.491674412214154e6 0.0
5.491674412214154e6 -1.9316372391208834e6 0.0
0.0 0.0 0.0

-63468.21172726527 5.030301218611846e6 0.0
5.030301218611846e6 -1.8462828339136424e6 0.0
0.0 0.0 0.0

-3.7190491885019997e6 7.743951260043651e6 0.0
7.743951260043651e6 1.337930556292309e6 0.0
0.0 0.0 0.0

-2.2781095910069235e6 3.355508733468337e6 0.0
3.355508733468337e6 899820.1099045885 0.0
0.0 0.0 0.0

-2.145819411145322e6 3.711538272679559e6 0.0
3.711538272679559e6 712604.836733635 0.0
0.0 0.0 0.0

-2.6156343168936004e6 3.6947000357647985e6 0.0
3.6947000357647985e6 1.2855102052890807e6 0.0
0.0 0.0 0.0

912534.8948270454 1.9272257246353556e6 0.0
1.9272257246353556e6 -2.129255636525727e6 0.0
0.0 0.0 0.0

-645843.7025433307 3.3402902297320333e6 0.0
3.3402902297320333e6 -1.126761392821882e6 0.0
0.0 0.0 0.0

-1.3891312451084685e6 3.492127209291783e6 0.0
3.492127209291783e6 675211.6374602519 0.0
0.0 0.0 0.0

-637072.1102151556 4.667493328979095e6 0.0
4.667493328979095e6 -358781.9040449748 0.0
0.0 0.0 0.0

-3.7201864056675807e6 5.018193191706152e6 0.0
5.018193191706152e6 1.7359594538346862e6 0.0
0.0 0.0 0.0

449702.34336948534 2.2341664511824613e6 0.0
2.2341664511824613e6 -173518.42984087218 0.0
0.0 0.0 0.0

-401002.98756433313 2.545421463040447e6 0.0
2.545421463040447e6 -131008.37441997284 0.0
0.0 0.0 0.0

-3.5815803315203087e6 4.861424511811421e6 0.0
4.861424511811421e6 1.7022609916612643e6 0.0
0.0 0.0 0.0

-1.4638662467148025e6 3.7830461732705603e6 0.0
3.7830461732705603e6 57867.090259924764 0.0
0.0 0.0 0.0

172518.67474346556 4.429115877514353e6 0.0
4.429115877514353e6 -1.309652001128853e6 0.0
0.0 0.0 0.0

-965574.220956304 3.296479903241366e6 0.0
3.296479903241366e6 -58758.945554707636 0.0
0.0 0.0 0.0

494986.56405497005 5.204090285863548e6 0.0
5.204090285863548e6 -1.8795565856033177e6 0.0
0.0 0.0 0.0

-3.0445575602418254e6 3.74012618562569e6 0.0
3.74012618562569e6 1.3230605091796855e6 0.0
0.0 0.0 0.0

-828878.3331526178 4.839415549695804e6 0.0
4.839415549695804e6 -204357.56403131285 0.0
0.0 0.0 0.0

-196561.55106771074 5.245805826422576e6 0.0
5.245805826422576e6 -1.7533630764208701e6 0.0
0.0 0.0 0.0

-1.9585358291121568e6 3.949863858644693e6 0.0
3.949863858644693e6 547166.8575467718 0.0
0.0 0.0 0.0

-219621.51661144788 2.687010665971293e6 0.0
2.687010665971293e6 -63237.530268425086 0.0
0.0 0.0 0.0

-200944.67077515332 2.946337045878852e6 0.0
2.946337045878852e6 -1.342106250809079e6 0.0
0.0 0.0 0.0

-895110.9415334851 4.0428363212092794e6 0.0
4.0428363212092794e6 -237765.07190573835 0.0
0.0 0.0 0.0

-1.7331969024888447e6 3.7510694156232774e6 0.0
3.7510694156232774e6 593275.675548565 0.0
0.0 0.0 0.0

-234220.9431257195 4.966834024739273e6 0.0
4.966834024739273e6 -1.6799372452617837e6 0.0
0.0 0.0 0.0

-8.165162814320685e6 9.274217950804727e6 0.0
9.274217950804727e6 2.3813816513387575e6 0.0
0.0 0.0 0.0

-772728.5766114568 3.0546016425556513e6 0.0
3.0546016425556513e6 556210.5882694499 0.0
0.0 0.0 0.0

-843406.9029468778 2.4091633469248195e6 0.0
2.4091633469248195e6 -1.0410710661646989e6 0.0
0.0 0.0 0.0

-160564.56887626898 2.739599314144402e6 0.0
2.739599314144402e6 147048.36863190154 0.0
0.0 0.0 0.0

-1.1714752423001241e6 3.243104746798587e6 0.0
3.243104746798587e6 288123.1015672464 0.0
0.0 0.0 0.0

-1.1184618487676734e6 2.327533452291106e6 0.0
2.327533452291106e6 2.990227512530593e6 0.0
0.0 0.0 0.0

-960051.5291804674 3.26316800615202e6 0.0
3.26316800615202e6 -175629.95054511074 0.0
0.0 0.0 0.0

-7.819402545051988e6 1.5397121356074489e6 0.0
1.5397121356074489e6 1.0431608213483766e7 0.0
0.0 0.0 0.0

-1.1771900565204902e6 3.3767585088571324e6 0.0
3.3767585088571324e6 259114.38967402163 0.0
0.0 0.0 0.0

-368502.23301535484 4.877878183495819e6 0.0
4.877878183495819e6 -1.494466794773645e6 0.0
0.0 0.0 0.0

-534070.318785988 4.81388168412376e6 0.0
4.81388168412376e6 -753456.3597509526 0.0
0.0 0.0 0.0

6.663700231233339e6 7.87603865107307e6 0.0
7.87603865107307e6 253790.54538561706 0.0
0.0 0.0 0.0

-186032.67659323558 119079.7306615233 0.0
119079.7306615233 431981.5550092122 0.0
0.0 0.0 0.0

906134.2601685784 3.229022601993632e6 0.0
3.229022601993632e6 -2.0585063783413512e6 0.0
0.0 0.0 0.0

386954.5989210037 623171.6422469914 0.0
623171.6422469914 -896288.4675647569 0.0
0.0 0.0 0.0

-2.5179381884604404e6 3.6733169211130613e6 0.0
3.6733169211130613e6 1.2279841568219243e6 0.0
0.0 0.0 0.0

-163284.44538153434 -1.9984333330163718e6 0.0
-1.9984333330163718e6 395975.439430373 0.0
0.0 0.0 0.0

-592407.4962389118 2.759823985045235e6 0.0
2.759823985045235e6 -1.5154770998122364e6 0.0
0.0 0.0 0.0

-253629.44186860323 2.9787553207383985e6 0.0
2.9787553207383985e6 50338.02379400299 0.0
0.0 0.0 0.0

-1.0187882983822199e6 3.1243398751738765e6 0.0
3.1243398751738765e6 634983.7722014317 0.0
0.0 0.0 0.0

834926.5260873666 3.3417064080034713e6 0.0
3.3417064080034713e6 -2.0394316204410004e6 0.0
0.0 0.0 0.0

-495273.43032572826 4.235284250866078e6 0.0
4.235284250866078e6 -764907.5323289268 0.0
0.0 0.0 0.0

-4.203094286033484e6 5.201294584915839e6 0.0
5.201294584915839e6 2.258063393075386e6 0.0
0.0 0.0 0.0

-415356.2566758201 2.5371210293429364e6 0.0
2.5371210293429364e6 -997114.7257975272 0.0
0.0 0.0 0.0

-1.1198721601525012e6 5.201899213584569e6 0.0
5.201899213584569e6 -320131.44888601854 0.0
0.0 0.0 0.0

-1.2579959386315819e7 -8.293868108998433e6 0.0
-8.293868108998433e6 1.923276583529123e7 0.0
0.0 0.0 0.0

602969.8968339026 2.916331207466912e6 0.0
2.916331207466912e6 -746665.8292924896 0.0
0.0 0.0 0.0

-29703.50505436113 2.512973841511805e6 0.0
2.512973841511805e6 -1.0727201045569521e6 0.0
0.0 0.0 0.0

-429004.8458013749 4.517322509283024e6 0.0
4.517322509283024e6 -1.0438226078927324e6 0.0
0.0 0.0 0.0

868155.5429859734 4.199568788999614e6 0.0
4.199568788999614e6 -1.5618956307451706e6 0.0
0.0 0.0 0.0

-2.5008379784942213e6 4.501528036445619e6 0.0
4.501528036445619e6 -625495.6428156189 0.0
0.0 0.0 0.0

-719867.068843336 4.78385002141756e6 0.0
4.78385002141756e6 -531981.5843160244 0.0
0.0 0.0 0.0

-109226.29351214247 22276.625233399536 0.0
22276.625233399536 373768.2802381708 0.0
0.0 0.0 0.0

-69513.16121859352 3.2148290781592885e6 0.0
3.2148290781592885e6 -444314.3915177013 0.0
0.0 0.0 0.0

-2.3189655994381295e6 3.595041785356559e6 0.0
3.595041785356559e6 799448.0814529437 0.0
0.0 0.0 0.0

-1.517724560590699e6 3.6083193312784806e6 0.0
3.6083193312784806e6 467242.2184003899 0.0
0.0 0.0 0.0

-1.0521313137933556e6 3.2064415237126616e6 0.0
3.2064415237126616e6 -264798.67660561425 0.0
0.0 0.0 0.0

476706.96043245145 1.614267160865855e6 0.0
1.614267160865855e6 -593908.5940778784 0.0
0.0 0.0 0.0

-1593.7868456551805 4.859551185938699e6 0.0
4.859551185938699e6 -625310.7932863804 0.0
0.0 0.0 0.0

-1.7125733835103672e6 3.878517299499371e6 0.0
3.878517299499371e6 246825.27786824305 0.0
0.0 0.0 0.0

65907.31831780123 1.1626540099262078e6 0.0
1.1626540099262078e6 -945103.0303298504 0.0
0.0 0.0 0.0

-2.5270821333237826e6 4.178952017143368e6 0.0
4.178952017143368e6 1.3566597258072556e6 0.0
0.0 0.0 0.0

-715166.5695986944 2.9994454203090337e6 0.0
2.9994454203090337e6 280482.89194801584 0.0
0.0 0.0 0.0

-974704.8200790096 3.416864879775946e6 0.0
3.416864879775946e6 -118964.44333888224 0.0
0.0 0.0 0.0

-49099.35694675874 -212173.25606462022 0.0
-212173.25606462022 334361.047980599 0.0
0.0 0.0 0.0

906270.5731982656 3.287310454740783e6 0.0
3.287310454740783e6 -2.050117183811368e6 0.0
0.0 0.0 0.0

703302.9210082708 4.0592007190349386e6 0.0
4.0592007190349386e6 -1.4071948944872068e6 0.0
0.0 0.0 0.0

-314169.9409527973 2.8987493549987017e6 0.0
2.8987493549987017e6 -61663.21845942782 0.0
0.0 0.0 0.0

785602.9769426291 3.281126892864994e6 0.0
3.281126892864994e6 -1.0370205444953378e6 0.0
0.0 0.0 0.0

-2.17207292238844e6 -3.187446440893191e6 0.0
-3.187446440893191e6 3.2632826290257582e6 0.0
0.0 0.0 0.0

272357.26767318405 5.057514088609124e6 0.0
5.057514088609124e6 -1.4802632768930034e6 0.0
0.0 0.0 0.0

555419.1186418922 4.85184995363768e6 0.0
4.85184995363768e6 -1.2667640786432389e6 0.0
0.0 0.0 0.0

-2.8247510475127692e6 6.133785456290733e6 0.0
6.133785456290733e6 1.5830611758097913e6 0.0
0.0 0.0 0.0

-2.24684754126291e6 4.022673843296924e6 0.0
4.022673843296924e6 257273.82158457197 0.0
0.0 0.0 0.0

-1.5676474618998612e6 3.694245059241262e6 0.0
3.694245059241262e6 533686.6181172271 0.0
0.0 0.0 0.0

-2.112506484535396e6 4.1075684526548283e6 0.0
4.1075684526548283e6 1.0431649978020177e6 0.0
0.0 0.0 0.0

-3.7340829394643856e6 3.687254008007017e6 0.0
3.687254008007017e6 1.480744202904246e6 0.0
0.0 0.0 0.0

-1.7458049772704402e6 3.9719757543201735e6 0.0
3.9719757543201735e6 602120.8286897782 0.0
0.0 0.0 0.0

-411402.6870738801 4.6417734398118025e6 0.0
4.6417734398118025e6 -544243.6818317451 0.0
0.0 0.0 0.0

979590.5794268278 3.5003115696803187e6 0.0
3.5003115696803187e6 -1.8314951552364565e6 0.0
0.0 0.0 0.0

896132.271869239 3.539496829983936e6 0.0
3.539496829983936e6 -2.289876418730249e6 0.0
0.0 0.0 0.0

1.1037567879316353e6 3.31376471898258e6 0.0
3.31376471898258e6 -2.410178284531382e6 0.0
0.0 0.0 0.0

-2.537586539216237e6 3.37342719004343e6 0.0
3.37342719004343e6 1.0822698253008528e6 0.0
0.0 0.0 0.0

-272551.9231818316 2.9254709965112666e6 0.0
2.9254709965112666e6 -200334.33946914555 0.0
0.0 0.0 0.0

-112924.63783300132 -2.097703245201722e6 0.0
-2.097703245201722e6 450501.8978926576 0.0
0.0 0.0 0.0

-217593.68475498166 2.8458434593272726e6 0.0
2.8458434593272726e6 -274297.3054007224 0.0
0.0 0.0 0.0

779948.3217449469 3.1529686110855755e6 0.0
3.1529686110855755e6 -1.8178202307462823e6 0.0
0.0 0.0 0.0

-1.8239263445986365e6 4.478897093742891e6 0.0
4.478897093742891e6 110898.41007722868 0.0
0.0 0.0 0.0

-522815.01435393625 2.8081344555719863e6 0.0
2.8081344555719863e6 -1.5447034748166448e6 0.0
0.0 0.0 0.0

45892.23645838431 -21397.673122485558 0.0
-21397.673122485558 -43222.19243024776 0.0
0.0 0.0 0.0

46737.82227501809 821621.6548139388 0.0
821621.6548139388 -663486.4990890953 0.0
0.0 0.0 0.0

39380.246210708196 1.3259905961697996e6 0.0
1.3259905961697996e6 -301574.70080911746 0.0
0.0 0.0 0.0

-1.0441160985102486e6 4.595235983728068e6 0.0
4.595235983728068e6 693073.0215979405 0.0
0.0 0.0 0.0

-167869.15835171193 4.670167639987483e6 0.0
4.670167639987483e6 -1.6893415680353947e6 0.0
0.0 0.0 0.0

1.104407557000734e6 3.379341903313331e6 0.0
3.379341903313331e6 -2.1213840881206803e6 0.0
0.0 0.0 0.0

936494.5418736289 3.1601108450083504e6 0.0
3.1601108450083504e6 -2.0413499905247232e6 0.0
0.0 0.0 0.0

-2.898809153808216e6 8.639441423056917e6 0.0
8.639441423056917e6 614264.0023871348 0.0
0.0 0.0 0.0

-1.8402909118692114e6 -2.8523792652920177e6 0.0
-2.8523792652920177e6 2.7074213463589083e6 0.0
0.0 0.0 0.0

724974.24362421 4.85866883209664e6 0.0
4.85866883209664e6 -1.4031887811324168e6 0.0
0.0 0.0 0.0

-7.973012519379783e6 -6.2552865061748745e6 0.0
-6.2552865061748745e6 9.759009276125493e6 0.0
0.0 0.0 0.0

927307.6506089178 3.5958881241710936e6 0.0
3.5958881241710936e6 -1.4641991901422965e6 0.0
0.0 0.0 0.0

-1.775206508531903e6 4.390719540199424e6 0.0
4.390719540199424e6 382163.910581538 0.0
0.0 0.0 0.0

-1.5452472814612328e6 2.0511064775960469e6 0.0
2.0511064775960469e6 228866.1109825531 0.0
0.0 0.0 0.0

-1.03410743826452e6 3.042732822864265e6 0.0
3.042732822864265e6 -338679.44214166416 0.0
0.0 0.0 0.0

-469341.97008744464 4.638923009559635e6 0.0
4.638923009559635e6 -1.1518177357978814e6 0.0
0.0 0.0 0.0

-2.4771062464525597e6 -3.548616889346007e6 0.0
-3.548616889346007e6 3.786079204254957e6 0.0
0.0 0.0 0.0

1.0971399337037993e6 3.3983606993419197e6 0.0
3.3983606993419197e6 -2.2484953751383764e6 0.0
0.0 0.0 0.0

-874646.174946768 2.691377458269663e6 0.0
2.691377458269663e6 540906.1198256991 0.0
0.0 0.0 0.0

-589094.5289466192 3.071060726305918e6 0.0
3.071060726305918e6 36020.87482342069 0.0
0.0 0.0 0.0

-243607.5041133873 2.498570259512071e6 0.0
2.498570259512071e6 -94505.41629392096 0.0
0.0 0.0 0.0

-1.0105152838210887e6 3.208199978692463e6 0.0
3.208199978692463e6 -260465.30766118926 0.0
0.0 0.0 0.0

-1.3900310885744495e6 4.395131524919631e6 0.0
4.395131524919631e6 1.8498794923014236e6 0.0
0.0 0.0 0.0

-1.4057083120730447e6 4.000385013100658e6 0.0
4.000385013100658e6 437951.21443993074 0.0
0.0 0.0 0.0

-2.7210679820844177e6 3.5164800845144093e6 0.0
3.5164800845144093e6 1.185017667891115e6 0.0
0.0 0.0 0.0

-2.050218378164833e6 4.265380689679527e6 0.0
4.265380689679527e6 644284.4269928052 0.0
0.0 0.0 0.0

191550.639943733 5.258731896328996e6 0.0
5.258731896328996e6 -1.6603552810256844e6 0.0
0.0 0.0 0.0

-2.237539243540535e6 4.0006000651153824e6 0.0
4.0006000651153824e6 447004.03866418777 0.0
0.0 0.0 0.0

-936075.8126237637 5.026613406718837e6 0.0
5.026613406718837e6 -202276.34706362523 0.0
0.0 0.0 0.0

-367226.253959946 4.482858624009879e6 0.0
4.482858624009879e6 -1.2854396044285176e6 0.0
0.0 0.0 0.0

-665879.1781034651 1.79530929188442e6 0.0
1.79530929188442e6 805377.4588866406 0.0
0.0 0.0 0.0

-352097.22771181725 2.9745357818336347e6 0.0
2.9745357818336347e6 13884.506715050695 0.0
0.0 0.0 0.0

235597.45592387812 5.22868423103191e6 0.0
5.22868423103191e6 -1.8598533367948506e6 0.0
0.0 0.0 0.0

-144824.75714512344 -1.0998536015218382e6 0.0
-1.0998536015218382e6 303449.0964346952 0.0
0.0 0.0 0.0

846007.420337384 3.406616360889379e6 0.0
3.406616360889379e6 -2.0768035266808744e6 0.0
0.0 0.0 0.0

-413351.45293106686 4.571905719733376e6 0.0
4.571905719733376e6 -135486.2041919523 0.0
0.0 0.0 0.0

-1.1727612687732496e6 -2.348075516794372e6 0.0
-2.348075516794372e6 1.9594748719920372e6 0.0
0.0 0.0 0.0

971295.2477835051 3.3652470649094325e6 0.0
3.3652470649094325e6 -2.4102189250467783e6 0.0
0.0 0.0 0.0

831224.4221636637 3.4992993716025553e6 0.0
3.4992993716025553e6 -2.1214265514377626e6 0.0
0.0 0.0 0.0

-148205.7845765022 -1.4110455927585668e6 0.0
-1.4110455927585668e6 258408.5947710121 0.0
0.0 0.0 0.0

-1.8578716170905884e6 2.271278471004539e6 0.0
2.271278471004539e6 4.938340196408529e6 0.0
0.0 0.0 0.0

992154.2865596409 3.3409011711592176e6 0.0
3.3409011711592176e6 -2.460800812377415e6 0.0
0.0 0.0 0.0

-721206.8300628725 -2.3245516438665832e6 0.0
-2.3245516438665832e6 1.3818579474161253e6 0.0
0.0 0.0 0.0

-782814.4821135366 4.306814338580053e6 0.0
4.306814338580053e6 210907.8720255331 0.0
0.0 0.0 0.0

-106944.51939821547 73684.72910401928 0.0
73684.72910401928 349795.16451992455 0.0
0.0 0.0 0.0

-132151.96842431626 -1.7197603983659789e6 0.0
-1.7197603983659789e6 325979.12424959836 0.0
0.0 0.0 0.0

914414.9489077133 3.5384897377212355e6 0.0
3.5384897377212355e6 -2.218958046158914e6 0.0
0.0 0.0 0.0

982856.1079288387 3.4945096808602302e6 0.0
3.4945096808602302e6 -2.4366145006773975e6 0.0
0.0 0.0 0.0

-465587.18054423324 -2.4778094406813183e6 0.0
-2.4778094406813183e6 1.048796553210227e6 0.0
0.0 0.0 0.0

-3.9017956861658156e7 7.073473191551982e6 0.0
7.073473191551982e6 1.138521559370832e7 0.0
0.0 0.0 0.0

9.701335725152139e6 7.981886120565499e6 0.0
7.981886120565499e6 -211258.39621167583 0.0
0.0 0.0 0.0

-1.0327684222146526e6 3.180085239721194e6 0.0
3.180085239721194e6 -251278.43468661627 0.0
0.0 0.0 0.0

860009.0022589763 3.5247625012327475e6 0.0
3.5247625012327475e6 -2.354317200525445e6 0.0
0.0 0.0 0.0

-478757.00001695426 -2.4139296365742804e6 0.0
-2.4139296365742804e6 876979.1183064365 0.0
0.0 0.0 0.0

-588989.1198882273 4.90416303304128e6 0.0
4.90416303304128e6 -1.0417661690182157e6 0.0
0.0 0.0 0.0

-389792.30744812073 3.012141716028355e6 0.0
3.012141716028355e6 8621.207205413986 0.0
0.0 0.0 0.0

-2.4801928782014563e6 3.5019700691557173e6 0.0
3.5019700691557173e6 922064.0400920127 0.0
0.0 0.0 0.0

-472601.51628682273 4.493029388400845e6 0.0
4.493029388400845e6 -246299.1778390294 0.0
0.0 0.0 0.0

-323821.91811624897 -2.1532723522910657e6 0.0
-2.1532723522910657e6 685000.9067903603 0.0
0.0 0.0 0.0

882246.7120944984 3.4753325310286065e6 0.0
3.4753325310286065e6 -2.363502134047084e6 0.0
0.0 0.0 0.0

-1.9154817596171242e6 3.939735181785821e6 0.0
3.939735181785821e6 460959.9173369063 0.0
0.0 0.0 0.0

-880340.5586795707 2.5721378832814572e6 0.0
2.5721378832814572e6 -891800.2706002421 0.0
0.0 0.0 0.0

-2.7170152926076446e6 4.057233246976139e6 0.0
4.057233246976139e6 1.3271231589887114e6 0.0
0.0 0.0 0.0

-454511.50629230385 4.511304984690541e6 0.0
4.511304984690541e6 -953945.6834765502 0.0
0.0 0.0 0.0

-348458.7647256767 4.619727299850789e6 0.0
4.619727299850789e6 -1.4684440088331122e6 0.0
0.0 0.0 0.0

-460312.6884213971 4.535399038550822e6 0.0
4.535399038550822e6 -512719.4161406159 0.0
0.0 0.0 0.0

-1.0568964771376976e6 4.758844165358898e6 0.0
4.758844165358898e6 -236638.58251095552 0.0
0.0 0.0 0.0

-737937.2090550428 4.328686601675428e6 0.0
4.328686601675428e6 -322214.19916289835 0.0
0.0 0.0 0.0

-837580.4900838502 3.083058829933352e6 0.0
3.083058829933352e6 -1.2090255196421088e6 0.0
0.0 0.0 0.0

-2.7967518414920606e6 3.492825479718806e6 0.0
3.492825479718806e6 1.2151034106070488e6 0.0
0.0 0.0 0.0

-1.5035621663980698e6 3.6479212016074685e6 0.0
3.6479212016074685e6 512530.54867109924 0.0
0.0 0.0 0.0

-2.432557064749056e6 4.599307482983732e6 0.0
4.599307482983732e6 1.4340476874302132e6 0.0
0.0 0.0 0.0

-349408.98640217585 4.677391666077273e6 0.0
4.677391666077273e6 -1.4678517329509975e6 0.0
0.0 0.0 0.0

-69604.31097111691 2.8796985955301845e6 0.0
2.8796985955301845e6 -683556.5613898572 0.0
0.0 0.0 0.0

-59134.342697553715 5.011485927478821e6 0.0
5.011485927478821e6 -590132.1318212936 0.0
0.0 0.0 0.0

-459415.25289954053 3.14150247792793e6 0.0
3.14150247792793e6 -433489.3255232256 0.0
0.0 0.0 0.0

-1.904495041992818e6 3.0002654812885933e6 0.0
3.0002654812885933e6 861086.7193219147 0.0
0.0 0.0 0.0

-2.700882591130561e6 3.4499051927194116e6 0.0
3.4499051927194116e6 1.12425849033263e6 0.0
0.0 0.0 0.0

-217120.0996975049 4.44088555381385e6 0.0
4.44088555381385e6 -1.5800687949905058e6 0.0
0.0 0.0 0.0

-620392.1595839907 4.490158393478486e6 0.0
4.490158393478486e6 -55823.23873832656 0.0
0.0 0.0 0.0

-3.8709912504900196e6 3.6530816789843854e6 0.0
3.6530816789843854e6 1.4763596864599737e6 0.0
0.0 0.0 0.0

-1.9706930144806458e6 3.005641797346606e6 0.0
3.005641797346606e6 860735.0637246014 0.0
0.0 0.0 0.0

-2.3600828386590867e6 4.0047821526348535e6 0.0
4.0047821526348535e6 883080.8944967072 0.0
0.0 0.0 0.0

-475052.1363249429 2.501758385948447e6 0.0
2.501758385948447e6 1.1465673270355389e6 0.0
0.0 0.0 0.0

-2.5993950572639527e6 3.4573650516945478e6 0.0
3.4573650516945478e6 1.0269984935041484e6 0.0
0.0 0.0 0.0

-3.817580504817424e6 670229.2760500761 0.0
670229.2760500761 2.126446116259985e6 0.0
0.0 0.0 0.0

-2.9504219677535407e6 3.578689474922542e6 0.0
3.578689474922542e6 1.184552752339102e6 0.0
0.0 0.0 0.0

817085.8649840372 3.1027851409761915e6 0.0
3.1027851409761915e6 -1.8910020463168272e6 0.0
0.0 0.0 0.0

737262.5787090025 3.109787847314118e6 0.0
3.109787847314118e6 -1.8411078650325357e6 0.0
0.0 0.0 0.0

-2.141692037038799e6 3.9696304164033425e6 0.0
3.9696304164033425e6 754822.2332556399 0.0
0.0 0.0 0.0

-826949.6850925395 4.1841222607910093e6 0.0
4.1841222607910093e6 765379.5770838256 0.0
0.0 0.0 0.0

-3.06166021747496e6 3.749152431171324e6 0.0
3.749152431171324e6 1.2842273262655446e6 0.0
0.0 0.0 0.0

-371948.2888258799 2.7986241418116544e6 0.0
2.7986241418116544e6 -35678.18171941562 0.0
0.0 0.0 0.0

-3.4810466293278458e6 3.7367330018855613e6 0.0
3.7367330018855613e6 1.3841644852047819e6 0.0
0.0 0.0 0.0

-788884.3623331338 4.8171806318882955e6 0.0
4.8171806318882955e6 -196158.1944236977 0.0
0.0 0.0 0.0

-421418.0593980893 3.399109040268172e6 0.0
3.399109040268172e6 -1.0964616791195483e6 0.0
0.0 0.0 0.0

-130821.02851854719 4.99221105815564e6 0.0
4.99221105815564e6 -2.0821612508333805e6 0.0
0.0 0.0 0.0

-2.1813430944945915e6 3.6148198459713673e6 0.0
3.6148198459713673e6 758611.3410311637 0.0
0.0 0.0 0.0

396766.63765792653 295625.2270599114 0.0
295625.2270599114 -494067.4731361318 0.0
0.0 0.0 0.0

-3.118270410879505e6 1.798401803718106e6 0.0
1.798401803718106e6 5.055103060339219e6 0.0
0.0 0.0 0.0

-890884.86609904 3.0375920055154497e6 0.0
3.0375920055154497e6 -1.0273140549918343e6 0.0
0.0 0.0 0.0

-423018.24475370644 2.4710949023945536e6 0.0
2.4710949023945536e6 -148541.13675388647 0.0
0.0 0.0 0.0

-551830.7766745463 5.454576156700059e6 0.0
5.454576156700059e6 -248803.6738685814 0.0
0.0 0.0 0.0

-209011.46317425248 4.670497424544693e6 0.0
4.670497424544693e6 -1.8265703517769678e6 0.0
0.0 0.0 0.0

-1.9066227977560489e6 3.020003429569708e6 0.0
3.020003429569708e6 793055.7378754074 0.0
0.0 0.0 0.0

-2.6164586306699454e6 4.0935491838993966e6 0.0
4.0935491838993966e6 1.232128635882603e6 0.0
0.0 0.0 0.0

-655908.6635330222 4.526691568611704e6 0.0
4.526691568611704e6 -1.0612853369794816e6 0.0
0.0 0.0 0.0

-113929.6206312974 2.912233246568307e6 0.0
2.912233246568307e6 32845.16151759839 0.0
0.0 0.0 0.0

-586576.6699783194 2.2976414577937457e6 0.0
2.2976414577937457e6 168949.18665097086 0.0
0.0 0.0 0.0

-2.510466780368002e6 4.068772582182991e6 0.0
4.068772582182991e6 1.070092865068716e6 0.0
0.0 0.0 0.0

-1.0814170549630106e6 3.2542903121985868e6 0.0
3.2542903121985868e6 -386367.5424186256 0.0
0.0 0.0 0.0

946486.1956066474 3.88412942087639e6 0.0
3.88412942087639e6 -1.9843822859178467e6 0.0
0.0 0.0 0.0

-1.0061734427190785e6 3.2022282892200355e6 0.0
3.2022282892200355e6 -50813.4901063781 0.0
0.0 0.0 0.0

-634273.3926139177 4.433498984257064e6 0.0
4.433498984257064e6 -1.1640115428310288e6 0.0
0.0 0.0 0.0

-549711.9906068619 4.881124384560228e6 0.0
4.881124384560228e6 -1.0213865107753123e6 0.0
0.0 0.0 0.0

-1.1026169080365552e6 3.9990714835802503e6 0.0
3.9990714835802503e6 1.0473545700172551e6 0.0
0.0 0.0 0.0

-1.7543075041701924e6 2.7491560369694103e6 0.0
2.7491560369694103e6 459732.18512765935 0.0
0.0 0.0 0.0

-400104.95139000023 4.604214818162924e6 0.0
4.604214818162924e6 -1.3574758402918973e6 0.0
0.0 0.0 0.0

469632.7143078067 4.629173730885214e6 0.0
4.629173730885214e6 -2.1792042247762685e6 0.0
0.0 0.0 0.0

-661140.8953571526 4.4822458403472835e6 0.0
4.4822458403472835e6 -1.1013797771336085e6 0.0
0.0 0.0 0.0

127222.85574942385 5.103343743744398e6 0.0
5.103343743744398e6 -1.4061806758680786e6 0.0
0.0 0.0 0.0

788002.4153969885 2.5129720361077e6 0.0
2.5129720361077e6 -1.9221227880166362e6 0.0
0.0 0.0 0.0

-2.5036714034104287e6 3.4844140399633343e6 0.0
3.4844140399633343e6 958990.7453491997 0.0
0.0 0.0 0.0

-1.4710475109043801e6 2.0329459177650083e6 0.0
2.0329459177650083e6 79964.49805775948 0.0
0.0 0.0 0.0

-875786.9458401587 4.73200975657762e6 0.0
4.73200975657762e6 244213.10902524134 0.0
0.0 0.0 0.0

309402.996968062 -66510.09693069544 0.0
-66510.09693069544 -587228.2177480806 0.0
0.0 0.0 0.0

-368453.0248791346 5.10403742621553e6 0.0
5.10403742621553e6 -861103.5976973979 0.0
0.0 0.0 0.0

-1.4238386100818259e6 3.5257869984479463e6 0.0
3.5257869984479463e6 1.3280691889911164e6 0.0
0.0 0.0 0.0

320502.91957268317 4.845627915825305e6 0.0
4.845627915825305e6 -2.050983943340185e6 0.0
0.0 0.0 0.0

-1.6601615065357408e7 -1.5736319671343616e6 0.0
-1.5736319671343616e6 9.999649629145857e6 0.0
0.0 0.0 0.0

-963807.0107445315 3.649793462230481e6 0.0
3.649793462230481e6 1.599249344583144e6 0.0
0.0 0.0 0.0

-569398.560986541 4.600961711377504e6 0.0
4.600961711377504e6 -752673.3109754683 0.0
0.0 0.0 0.0

-1.5362218638604486e6 2.518841499454151e6 0.0
2.518841499454151e6 189539.4224265759 0.0
0.0 0.0 0.0

-236316.77127957199 4.651126524733972e6 0.0
4.651126524733972e6 -1.6988476865001996e6 0.0
0.0 0.0 0.0

-341748.11267932586 4.727598141092088e6 0.0
4.727598141092088e6 -569499.1823872945 0.0
0.0 0.0 0.0

-222705.10846624553 5.287088973935449e6 0.0
5.287088973935449e6 -2.067975691488841e6 0.0
0.0 0.0 0.0

-161150.5682038455 4.807388761871596e6 0.0
4.807388761871596e6 -529623.3520728507 0.0
0.0 0.0 0.0

-504017.9589049327 4.432998038795932e6 0.0
4.432998038795932e6 -864803.9497878251 0.0
0.0 0.0 0.0

766089.746883943 4.632808663624839e6 0.0
4.632808663624839e6 -1.5422967196527799e6 0.0
0.0 0.0 0.0

927207.9856632083 3.59956288624637e6 0.0
3.59956288624637e6 -2.2284302086050645e6 0.0
0.0 0.0 0.0

-1.3900178635106909e6 5.2951758670676e6 0.0
5.2951758670676e6 -8680.184395590972 0.0
0.0 0.0 0.0

-152986.40795945487 5.147529454431874e6 0.0
5.147529454431874e6 -2.0976340920206998e6 0.0
0.0 0.0 0.0

-2.091229474531651e6 4.206592119752689e6 0.0
4.206592119752689e6 404391.60071398015 0.0
0.0 0.0 0.0

-1.25100138014632e6 4.813349874901599e6 0.0
4.813349874901599e6 -37402.05256028398 0.0
0.0 0.0 0.0

1.0882400422423277e6 350856.1283103452 0.0
350856.1283103452 -1.74937859135631e6 0.0
0.0 0.0 0.0

-4.1405841560550528e6 3.4617376009038747e6 0.0
3.4617376009038747e6 1.5027203754225648e6 0.0
0.0 0.0 0.0

397472.83205680805 5.176129620536992e6 0.0
5.176129620536992e6 -1.5045243494549305e6 0.0
0.0 0.0 0.0

-2.3539231158547765e6 3.592614756142671e6 0.0
3.592614756142671e6 4.480423081120258e6 0.0
0.0 0.0 0.0

-540841.131384237 4.555171693810798e6 0.0
4.555171693810798e6 -460288.5668523839 0.0
0.0 0.0 0.0

-2.0183395326024278e6 4.334074262249647e6 0.0
4.334074262249647e6 181979.9759200795 0.0
0.0 0.0 0.0

-255145.24159562966 3.104401852625028e6 0.0
3.104401852625028e6 -400010.29731790785 0.0
0.0 0.0 0.0

-282052.99409421074 4.5406421192820845e6 0.0
4.5406421192820845e6 -1.6124056186999197e6 0.0
0.0 0.0 0.0

-1.4061672803710643e6 2.384696430114322e6 0.0
2.384696430114322e6 243236.47910578613 0.0
0.0 0.0 0.0

-1.583447287114172e6 2.831154342632138e6 0.0
2.831154342632138e6 588727.4720911055 0.0
0.0 0.0 0.0

313319.4237121526 5.123111903682399e6 0.0
5.123111903682399e6 -846020.7166960586 0.0
0.0 0.0 0.0

-510023.88679379085 4.7044709093774455e6 0.0
4.7044709093774455e6 -877867.7269058616 0.0
0.0 0.0 0.0

-535235.1444348854 1.013458244799957e6 0.0
1.013458244799957e6 38102.76627422561 0.0
0.0 0.0 0.0

-351492.1973331069 4.551035080471171e6 0.0
4.551035080471171e6 -1.4788930984341868e6 0.0
0.0 0.0 0.0

-106243.37316761506 196241.33941584988 0.0
196241.33941584988 291213.51153197547 0.0
0.0 0.0 0.0

-1.2970957251438322e6 4.367197320722741e6 0.0
4.367197320722741e6 789459.5308294357 0.0
0.0 0.0 0.0

-487490.54807932494 3.0064014141508094e6 0.0
3.0064014141508094e6 68347.24505385844 0.0
0.0 0.0 0.0

-4.671035762217502e6 3.7576010053679845e6 0.0
3.7576010053679845e6 2.878063789683042e6 0.0
0.0 0.0 0.0

-897524.4937240542 3.2584464606265114e6 0.0
3.2584464606265114e6 -1.2816744888919094e6 0.0
0.0 0.0 0.0

-1.8092403165398247e6 4.120114854571151e6 0.0
4.120114854571151e6 552838.6205358384 0.0
0.0 0.0 0.0

-1.694353147529651e6 4.471040434154071e6 0.0
4.471040434154071e6 271619.7735557684 0.0
0.0 0.0 0.0

-665863.337640552 5.005084740280848e6 0.0
5.005084740280848e6 -564882.0407681075 0.0
0.0 0.0 0.0

-798046.3420265565 3.6929656158571653e6 0.0
3.6929656158571653e6 -1.3214760471043284e6 0.0
0.0 0.0 0.0

-704004.1338191188 4.661889704379869e6 0.0
4.661889704379869e6 -27730.67341297964 0.0
0.0 0.0 0.0

-1.3025563474752079e6 -199049.42875654963 0.0
-199049.42875654963 2.219400623842279e6 0.0
0.0 0.0 0.0

1.9295797065606657e6 843909.1240269656 0.0
843909.1240269656 -3.017940566471877e6 0.0
0.0 0.0 0.0

-382635.5289531692 4.835987423117989e6 0.0
4.835987423117989e6 -1.4277845602783975e6 0.0
0.0 0.0 0.0

-877188.6152694852 4.830772526957173e6 0.0
4.830772526957173e6 -368265.6713370669 0.0
0.0 0.0 0.0

-1.9793888576712878e6 3.0417737312390357e6 0.0
3.0417737312390357e6 920124.297711151 0.0
0.0 0.0 0.0

-1.1450734637653965e6 2.362232901257935e6 0.0
2.362232901257935e6 -248818.40020271472 0.0
0.0 0.0 0.0

-689496.802777593 2.747621514450118e6 0.0
2.747621514450118e6 -1.5248919944554472e6 0.0
0.0 0.0 0.0

-351996.3422329661 2.3123232825774644e6 0.0
2.3123232825774644e6 213344.79059764853 0.0
0.0 0.0 0.0

-3.0085297764037065e6 4.336074282609727e6 0.0
4.336074282609727e6 1.576309938635292e6 0.0
0.0 0.0 0.0

-9.141584750389356e6 1.6139152274368578e6 0.0
1.6139152274368578e6 7.332441624906715e6 0.0
0.0 0.0 0.0

-300704.4742591877 4.977093160500613e6 0.0
4.977093160500613e6 -875720.498779609 0.0
0.0 0.0 0.0

937250.0659627176 532432.182277115 0.0
532432.182277115 -2.402389504008049e6 0.0
0.0 0.0 0.0

-1.9726294726184113e6 3.049277965785332e6 0.0
3.049277965785332e6 843376.6723593873 0.0
0.0 0.0 0.0

-331366.25013309234 1.5646224247907337e6 0.0
1.5646224247907337e6 -91121.52094754862 0.0
0.0 0.0 0.0

-2.246428542610932e6 3.968120205569283e6 0.0
3.968120205569283e6 379157.5179774533 0.0
0.0 0.0 0.0

-817857.9956942028 4.612188647430368e6 0.0
4.612188647430368e6 270754.96903331135 0.0
0.0 0.0 0.0

-2.8331023014283506e6 3.6516910590468235e6 0.0
3.6516910590468235e6 1.2886056544210573e6 0.0
0.0 0.0 0.0

-501835.528528395 4.519608246378448e6 0.0
4.519608246378448e6 -966070.9523713326 0.0
0.0 0.0 0.0

-1.555370801765338e6 656251.7135557353 0.0
656251.7135557353 1.92770549341512e6 0.0
0.0 0.0 0.0

-473764.4104288692 4.663277719632759e6 0.0
4.663277719632759e6 -1.1762497137125195e6 0.0
0.0 0.0 0.0

-1.280116197125288e6 5.140167571322681e6 0.0
5.140167571322681e6 -46761.433575357485 0.0
0.0 0.0 0.0

-2.986339336970889e6 4.445453776709273e6 0.0
4.445453776709273e6 1.6255187845540056e6 0.0
0.0 0.0 0.0

845027.7973913432 2.5817972693693447e6 0.0
2.5817972693693447e6 -1.8764863962665205e6 0.0
0.0 0.0 0.0

-503419.11463794037 5.099865772644152e6 0.0
5.099865772644152e6 -655644.1587651755 0.0
0.0 0.0 0.0

-1.8982579171090806e6 3.955637357704672e6 0.0
3.955637357704672e6 605565.655528715 0.0
0.0 0.0 0.0

56902.399276489916 2.856687047843029e6 0.0
2.856687047843029e6 -237269.1652909323 0.0
0.0 0.0 0.0

-2.1203644986971878e6 5.121779068996627e6 0.0
5.121779068996627e6 997783.067211589 0.0
0.0 0.0 0.0

-599181.422549535 2.0786136037379745e6 0.0
2.0786136037379745e6 684176.7183450907 0.0
0.0 0.0 0.0

-1.3743955052119987e6 745990.1412733876 0.0
745990.1412733876 2.00265709237357e6 0.0
0.0 0.0 0.0

-1.8163809847431972e6 3.8548452528187092e6 0.0
3.8548452528187092e6 596068.8328574535 0.0
0.0 0.0 0.0

-381186.2375201955 2.7848172836531466e6 0.0
2.7848172836531466e6 -74095.42019036812 0.0
0.0 0.0 0.0

-1.2446888984808447e6 3.20112719586894e6 0.0
3.20112719586894e6 406639.6030713496 0.0
0.0 0.0 0.0

-402163.5439066197 4.709864364165589e6 0.0
4.709864364165589e6 621151.2892626647 0.0
0.0 0.0 0.0

-729212.7928544425 4.356840600591254e6 0.0
4.356840600591254e6 -1.6334446467360558e6 0.0
0.0 0.0 0.0

121121.88553590479 -38019.97700490725 0.0
-38019.97700490725 -411213.06895889464 0.0
0.0 0.0 0.0

-1.08779054875363e6 5.894046083878478e6 0.0
5.894046083878478e6 -200010.0572226965 0.0
0.0 0.0 0.0

-350434.58128369955 2.7894981623409754e6 0.0
2.7894981623409754e6 47968.701977053875 0.0
0.0 0.0 0.0

-684579.5012937497 2.3942341083467044e6 0.0
2.3942341083467044e6 -681338.7444500169 0.0
0.0 0.0 0.0

-648364.0449290276 4.695130284117535e6 0.0
4.695130284117535e6 -210977.2092675688 0.0
0.0 0.0 0.0

-1.5167195296926815e6 2.7086470546265463e6 0.0
2.7086470546265463e6 519945.74302740535 0.0
0.0 0.0 0.0

-1.3424847610196818e6 4.154697300307609e6 0.0
4.154697300307609e6 674375.1128381314 0.0
0.0 0.0 0.0

-982044.8552674538 1.6759715467362509e6 0.0
1.6759715467362509e6 108832.740203102 0.0
0.0 0.0 0.0

-1.3272067084296227e6 4.758486782091171e6 0.0
4.758486782091171e6 15880.735707419168 0.0
0.0 0.0 0.0

-1.2866318861227913e6 3.250200502074059e6 0.0
3.250200502074059e6 520959.3859641851 0.0
0.0 0.0 0.0

-537640.4811362985 4.999841166258423e6 0.0
4.999841166258423e6 -637313.5263943486 0.0
0.0 0.0 0.0

-1.9106422116198074e6 3.8438245665690727e6 0.0
3.8438245665690727e6 577819.1334031586 0.0
0.0 0.0 0.0

-3.106621345151908e6 3.8106021836726093e6 0.0
3.8106021836726093e6 1.2648357340263145e6 0.0
0.0 0.0 0.0

-477277.2056475579 4.462868999103378e6 0.0
4.462868999103378e6 -1.670502613116068e6 0.0
0.0 0.0 0.0

1.8887900172805046e6 84292.518020111 0.0
84292.518020111 -1.8576989189851703e6 0.0
0.0 0.0 0.0

396520.69434329745 566923.8380220624 0.0
566923.8380220624 -736114.6679174706 0.0
0.0 0.0 0.0

885659.8829589051 3.1805996290319664e6 0.0
3.1805996290319664e6 -1.5367003633140672e6 0.0
0.0 0.0 0.0

-1.552129464699508e6 3.659338608946745e6 0.0
3.659338608946745e6 546917.1787354663 0.0
0.0 0.0 0.0

-927027.2811745651 4.393280612960107e6 0.0
4.393280612960107e6 800670.8709770653 0.0
0.0 0.0 0.0

-299348.47406588 3.0029774174729926e6 0.0
3.0029774174729926e6 -118271.15997985967 0.0
0.0 0.0 0.0

-4.321918714610508e6 3.385724631222861e6 0.0
3.385724631222861e6 1.6278938747309842e6 0.0
0.0 0.0 0.0

-122098.66822756061 2.0807406797973001e6 0.0
2.0807406797973001e6 -212186.02133553426 0.0
0.0 0.0 0.0

-3.2233049038093467e6 1.3620307536196172e7 0.0
1.3620307536196172e7 5.225224837232651e6 0.0
0.0 0.0 0.0

-729445.4734099257 4.540845719637159e6 0.0
4.540845719637159e6 -495351.9745466175 0.0
0.0 0.0 0.0

-392311.2943255281 4.51341600042619e6 0.0
4.51341600042619e6 -1.1489446033399897e6 0.0
0.0 0.0 0.0

-1.015844439503773e6 4.811456996184499e6 0.0
4.811456996184499e6 214936.4094975447 0.0
0.0 0.0 0.0

-454256.6882535261 1.136987621176786e6 0.0
1.136987621176786e6 828415.9955967097 0.0
0.0 0.0 0.0

-1.0015317528948373e6 3.9197373676608014e6 0.0
3.9197373676608014e6 11496.243256841612 0.0
0.0 0.0 0.0

-490731.7745590531 4.768101046246241e6 0.0
4.768101046246241e6 -914954.838529284 0.0
0.0 0.0 0.0

915415.4665858299 3.332054631722653e6 0.0
3.332054631722653e6 -2.0961568671175335e6 0.0
0.0 0.0 0.0

656138.6841304622 1.8604708784874065e6 0.0
1.8604708784874065e6 -593077.5941356677 0.0
0.0 0.0 0.0

-5.058408873206567e6 3.0882033933238e6 0.0
3.0882033933238e6 2.0080819627036275e6 0.0
0.0 0.0 0.0

-984612.7271251426 3.8538704802827165e6 0.0
3.8538704802827165e6 613371.4367549956 0.0
0.0 0.0 0.0

-475321.07757493434 4.805225544917965e6 0.0
4.805225544917965e6 -1.338866967915409e6 0.0
0.0 0.0 0.0

215974.75766657974 4.111300418999579e6 0.0
4.111300418999579e6 -250408.50507686957 0.0
0.0 0.0 0.0

468748.76455371367 929285.2185122769 0.0
929285.2185122769 -690211.5887339169 0.0
0.0 0.0 0.0

-450757.5375096278 3.364069803918012e6 0.0
3.364069803918012e6 -151784.3688557088 0.0
0.0 0.0 0.0

-600408.2214642006 4.403231693709984e6 0.0
4.403231693709984e6 -1.201765982076755e6 0.0
0.0 0.0 0.0

-826572.0928185428 2.6162467465215754e6 0.0
2.6162467465215754e6 -260659.08076418162 0.0
0.0 0.0 0.0

-1.1508472953978146e6 3.167478584999455e6 0.0
3.167478584999455e6 607235.9368228111 0.0
0.0 0.0 0.0

-357661.115516124 4.881584992813517e6 0.0
4.881584992813517e6 -1.45832516348505e6 0.0
0.0 0.0 0.0

-184625.59333063854 4.787357282443826e6 0.0
4.787357282443826e6 -1.9499285924328899e6 0.0
0.0 0.0 0.0

-1.7293852642219055e6 4.299352720243581e6 0.0
4.299352720243581e6 446179.68024516525 0.0
0.0 0.0 0.0

-414246.99132942513 4.6545265651937025e6 0.0
4.6545265651937025e6 -1.1843871884717597e6 0.0
0.0 0.0 0.0

-380293.1522578134 3.003290612502065e6 0.0
3.003290612502065e6 48485.81314626527 0.0
0.0 0.0 0.0

1.834072583150026e6 669449.6904549289 0.0
669449.6904549289 -2.9460098543201205e6 0.0
0.0 0.0 0.0

-6.4078895499021765e6 5.531587065776442e6 0.0
5.531587065776442e6 1.80874345589996e6 0.0
0.0 0.0 0.0

-4684.72918547818 251453.14909954803 0.0
251453.14909954803 -658841.8632342331 0.0
0.0 0.0 0.0

1.12443056109541e6 1.299807403960934e6 0.0
1.299807403960934e6 -1.5232954159266471e6 0.0
0.0 0.0 0.0

-1.6113376222002923e6 4.600473258102449e6 0.0
4.600473258102449e6 194202.11633033177 0.0
0.0 0.0 0.0

-346216.76649815677 3.0676642323677214e6 0.0
3.0676642323677214e6 -1.154055881088777e6 0.0
0.0 0.0 0.0

-360529.8543657748 5.278405157265121e6 0.0
5.278405157265121e6 -738623.0526942048 0.0
0.0 0.0 0.0

-1.3858136734547722e6 2.1684203645239808e6 0.0
2.1684203645239808e6 2.1989147423117813e6 0.0
0.0 0.0 0.0

-1.3846982740898537e6 3.0440357921296e6 0.0
3.0440357921296e6 1.8935775113818669e6 0.0
0.0 0.0 0.0

-2.7894759999497104e6 7.218072856113912e6 0.0
7.218072856113912e6 2.722421647703848e6 0.0
0.0 0.0 0.0

-423573.32532569754 4.805173534823233e6 0.0
4.805173534823233e6 -216271.8336137928 0.0
0.0 0.0 0.0

-1.2880060616888544e6 4.31081855514403e6 0.0
4.31081855514403e6 927663.1648271112 0.0
0.0 0.0 0.0

-994673.9305108776 3.2646926378627145e6 0.0
3.2646926378627145e6 9254.704433916078 0.0
0.0 0.0 0.0

-534686.9468914234 4.39962169233343e6 0.0
4.39962169233343e6 -1.2700699182874905e6 0.0
0.0 0.0 0.0

-1.8319852941392302e6 4.023761673002898e6 0.0
4.023761673002898e6 487215.2110030148 0.0
0.0 0.0 0.0

-320674.2361328197 2.1103610326213124e6 0.0
2.1103610326213124e6 135223.54408492387 0.0
0.0 0.0 0.0

-701744.0511196862 6.119205342449884e6 0.0
6.119205342449884e6 -379161.2477408612 0.0
0.0 0.0 0.0

-702442.4980512657 4.2459408068806855e6 0.0
4.2459408068806855e6 -364278.8977377737 0.0
0.0 0.0 0.0

592563.3268030811 3.6140808926577806e6 0.0
3.6140808926577806e6 -1.8230879921370675e6 0.0
0.0 0.0 0.0

-599293.2776408932 5.320986303601973e6 0.0
5.320986303601973e6 -452155.1007659718 0.0
0.0 0.0 0.0

-2.6482735256897938e6 3.8716720606447915e6 0.0
3.8716720606447915e6 1.4339602828687327e6 0.0
0.0 0.0 0.0

-58914.620535695176 2.239654836982132e6 0.0
2.239654836982132e6 -196381.89723229126 0.0
0.0 0.0 0.0

945244.6764484954 5.229122890102292e6 0.0
5.229122890102292e6 3.1508205330229257e6 0.0
0.0 0.0 0.0

-115863.25968587931 -985637.8031272412 0.0
-985637.8031272412 421329.40790534357 0.0
0.0 0.0 0.0

-535491.1946458654 4.584263709216435e6 0.0
4.584263709216435e6 -960705.3590547501 0.0
0.0 0.0 0.0

-200319.7257930933 375896.0441652814 0.0
375896.0441652814 299865.3689361209 0.0
0.0 0.0 0.0

-2.4119478684002673e6 4.342829737245835e6 0.0
4.342829737245835e6 1.2682557021433194e6 0.0
0.0 0.0 0.0

-1.1572893214408911e6 5.154451253721992e6 0.0
5.154451253721992e6 -160623.87464301114 0.0
0.0 0.0 0.0

-4.743193516959042e6 3.3445763965016515e6 0.0
3.3445763965016515e6 1.8764827089514397e6 0.0
0.0 0.0 0.0

-2.3698769486717544e6 3.528856161872764e6 0.0
3.528856161872764e6 2.901180601835791e6 0.0
0.0 0.0 0.0

-342269.427106805 2.2051815116681242e6 0.0
2.2051815116681242e6 -100522.5715636999 0.0
0.0 0.0 0.0

-2.62382461168888e6 4.3050783688589325e6 0.0
4.3050783688589325e6 1.4158381660084578e6 0.0
0.0 0.0 0.0

-1.4266107335413096e6 3.3610243419421595e6 0.0
3.3610243419421595e6 482879.97510819166 0.0
0.0 0.0 0.0

-1.6847879030230532e6 3.79544503562627e6 0.0
3.79544503562627e6 507845.02186280035 0.0
0.0 0.0 0.0

663514.1709819438 4.715660525581526e6 0.0
4.715660525581526e6 -1.4364837838965284e6 0.0
0.0 0.0 0.0

-1.6595572427892962e6 4.428709815544113e6 0.0
4.428709815544113e6 400957.3301451049 0.0
0.0 0.0 0.0

-1.294974694125906e6 3.6607726694871425e6 0.0
3.6607726694871425e6 2.4337699119805614e6 0.0
0.0 0.0 0.0

-263816.60632649274 4.538378579767998e6 0.0
4.538378579767998e6 -1.6178291332507166e6 0.0
0.0 0.0 0.0

-3.2177103526515067e6 -1.9393391066497504e6 0.0
-1.9393391066497504e6 4.386437912054153e6 0.0
0.0 0.0 0.0

-2.9506726762274457e6 3.7078945195071064e6 0.0
3.7078945195071064e6 1.3067655918740428e6 0.0
0.0 0.0 0.0

-392378.16764127114 4.600600966898798e6 0.0
4.600600966898798e6 -865543.960749636 0.0
0.0 0.0 0.0

-7.524531909934313e6 3.0640327738081613e6 0.0
3.0640327738081613e6 2.5041071629233174e6 0.0
0.0 0.0 0.0

985292.1717605537 2.44620311860827e6 0.0
2.44620311860827e6 -1.8345337764838508e6 0.0
0.0 0.0 0.0

-2.048827228994065e6 3.069401996001399e6 0.0
3.069401996001399e6 902305.9598429417 0.0
0.0 0.0 0.0

-1.901152503231648e6 4.589624168321733e6 0.0
4.589624168321733e6 -20356.366485117236 0.0
0.0 0.0 0.0

-484048.56164309295 4.808381492975819e6 0.0
4.808381492975819e6 -1.0526577988973514e6 0.0
0.0 0.0 0.0

-665080.7380905838 4.70115945665291e6 0.0
4.70115945665291e6 -587024.6942988654 0.0
0.0 0.0 0.0

64259.08397215133 5.501690385391374e6 0.0
5.501690385391374e6 -796263.7348033958 0.0
0.0 0.0 0.0

-3.2265982486293986e6 3.349791864661396e6 0.0
3.349791864661396e6 969359.8181297663 0.0
0.0 0.0 0.0

-1.7901208659508524e6 4.0453678279738887e6 0.0
4.0453678279738887e6 1.0960966844770117e6 0.0
0.0 0.0 0.0

927933.9505420349 3.882927605479836e6 0.0
3.882927605479836e6 -1.809131404018643e6 0.0
0.0 0.0 0.0

-2.929434570548045e6 6.631595070269734e6 0.0
6.631595070269734e6 -778207.0821534393 0.0
0.0 0.0 0.0

-1.2822004848210353e6 3.30874186891013e6 0.0
3.30874186891013e6 564325.0041488826 0.0
0.0 0.0 0.0

-963870.4318285667 5.0965955885637505e6 0.0
5.0965955885637505e6 -266857.61134555173 0.0
0.0 0.0 0.0

-2.6025735273416173e6 3.405698759132815e6 0.0
3.405698759132815e6 3.873411320579906e6 0.0
0.0 0.0 0.0

-103750.38738805987 6.093080842260687e6 0.0
6.093080842260687e6 -643676.3473417739 0.0
0.0 0.0 0.0

-1.402503667669206e6 4.544713866783934e6 0.0
4.544713866783934e6 347633.57064538414 0.0
0.0 0.0 0.0

-998352.9558997081 2.879806029754662e6 0.0
2.879806029754662e6 -461365.3558731813 0.0
0.0 0.0 0.0

-1.3753775759363011e6 1.6733713566117648e6 0.0
1.6733713566117648e6 1.4246963308611203e6 0.0
0.0 0.0 0.0

-468032.00451902684 5.162309000378681e6 0.0
5.162309000378681e6 -636213.7623626248 0.0
0.0 0.0 0.0

-1.0596115764214357e6 2.940329545291116e6 0.0
2.940329545291116e6 1.059062767686217e6 0.0
0.0 0.0 0.0

-3.910659950167075e6 -1.2140330794576253e6 0.0
-1.2140330794576253e6 7.357463385553502e6 0.0
0.0 0.0 0.0

-3.1277107660947894e6 -4.1280807119467524e6 0.0
-4.1280807119467524e6 7.059775442709008e6 0.0
0.0 0.0 0.0

-1.0926334786038725e6 3.1764877116663335e6 0.0
3.1764877116663335e6 -235006.791893168 0.0
0.0 0.0 0.0

-516749.5104649061 4.861669473038405e6 0.0
4.861669473038405e6 -863869.9769200422 0.0
0.0 0.0 0.0

-648151.8311348993 4.827953185524784e6 0.0
4.827953185524784e6 -643681.2870150255 0.0
0.0 0.0 0.0

-1.7079079369264608e6 5.660893998937127e6 0.0
5.660893998937127e6 -120318.43227616244 0.0
0.0 0.0 0.0

673875.5918050574 2.647640621992889e6 0.0
2.647640621992889e6 213799.03540978188 0.0
0.0 0.0 0.0

-1.1661322534984625e6 3.744525939071577e6 0.0
3.744525939071577e6 882472.407740264 0.0
0.0 0.0 0.0

-621034.2192037844 4.876818628893501e6 0.0
4.876818628893501e6 -694789.5816676697 0.0
0.0 0.0 0.0

-1.219825178448693e6 2.5039704479478495e6 0.0
2.5039704479478495e6 -192688.8401013061 0.0
0.0 0.0 0.0

413575.07808797515 241314.59199386465 0.0
241314.59199386465 -460439.9584716296 0.0
0.0 0.0 0.0

-182820.2912994274 5.117715099403232e6 0.0
5.117715099403232e6 -1.7852493492737412e6 0.0
0.0 0.0 0.0

-311144.01187529025 377596.6919604879 0.0
377596.6919604879 -51684.25787254348 0.0
0.0 0.0 0.0

512875.1791701156 178457.28579228238 0.0
178457.28579228238 -511854.98789661104 0.0
0.0 0.0 0.0

466412.79039545613 183289.709878904 0.0
183289.709878904 -495502.5792778939 0.0
0.0 0.0 0.0

-413887.42077858036 3.1326918816555412e6 0.0
3.1326918816555412e6 87983.5795912497 0.0
0.0 0.0 0.0

-488723.08712383034 4.536266435847673e6 0.0
4.536266435847673e6 -1.0731424652842619e6 0.0
0.0 0.0 0.0

-271575.26741947926 5.259467268901252e6 0.0
5.259467268901252e6 -1.9996504207922304e6 0.0
0.0 0.0 0.0

-727730.44651986 4.920227288906329e6 0.0
4.920227288906329e6 -101527.35379663217 0.0
0.0 0.0 0.0

-570123.4220364155 5.167689693992454e6 0.0
5.167689693992454e6 -629053.6097467536 0.0
0.0 0.0 0.0

-298829.9964172108 5.228547284286007e6 0.0
5.228547284286007e6 -817374.6957861928 0.0
0.0 0.0 0.0

-2.2008626164699188e6 3.8532769661805686e6 0.0
3.8532769661805686e6 1.1509514012224965e6 0.0
0.0 0.0 0.0

1.0406073314616284e6 5.509423886495645e6 0.0
5.509423886495645e6 1.6287776345431954e6 0.0
0.0 0.0 0.0

-2.5866584316579383e6 2.386394564637682e6 0.0
2.386394564637682e6 4.826911849679023e6 0.0
0.0 0.0 0.0

-408478.6192727984 5.2585399403048325e6 0.0
5.2585399403048325e6 -683046.2260948679 0.0
0.0 0.0 0.0

-815726.5446132021 5.242803388237266e6 0.0
5.242803388237266e6 -22298.23807758448 0.0
0.0 0.0 0.0

-2.8726833375196573e6 4.16331933600294e6 0.0
4.16331933600294e6 1.5208619136275528e6 0.0
0.0 0.0 0.0

-452134.25054843095 4.669946816242631e6 0.0
4.669946816242631e6 -1.1081232546179423e6 0.0
0.0 0.0 0.0

-1.909004479720206e6 4.931719099469909e6 0.0
4.931719099469909e6 -305173.1285962527 0.0
0.0 0.0 0.0

-1.6081874050524493e6 4.620670042912581e6 0.0
4.620670042912581e6 171069.56665486202 0.0
0.0 0.0 0.0

859354.420003195 3.081704623110991e6 0.0
3.081704623110991e6 -1.8132177320618602e6 0.0
0.0 0.0 0.0

-2.667672680324727e6 3.938247886529967e6 0.0
3.938247886529967e6 1.2989876847552485e6 0.0
0.0 0.0 0.0

-5.564334179772503e6 2.858277798111751e6 0.0
2.858277798111751e6 2.2934093707841886e6 0.0
0.0 0.0 0.0

-369063.1190742774 3.340712558689317e6 0.0
3.340712558689317e6 -1.4677648554864032e6 0.0
0.0 0.0 0.0

-230099.63469146413 4.625763833230136e6 0.0
4.625763833230136e6 -1.7607844061539734e6 0.0
0.0 0.0 0.0

-207720.7710774825 5.081284504788385e6 0.0
5.081284504788385e6 -2.0417805902316256e6 0.0
0.0 0.0 0.0

-317827.8936303683 5.174549145433774e6 0.0
5.174549145433774e6 -1.876133632649154e6 0.0
0.0 0.0 0.0

-2.7434151126062195e6 7.352149704575992e6 0.0
7.352149704575992e6 1.6479279549750339e6 0.0
0.0 0.0 0.0

-594576.9822641506 4.890491913532184e6 0.0
4.890491913532184e6 -756958.4317599102 0.0
0.0 0.0 0.0

-699339.9203386232 4.793132234344099e6 0.0
4.793132234344099e6 667084.300228638 0.0
0.0 0.0 0.0

-6.533075960261134e6 -304317.00176291313 0.0
-304317.00176291313 3.5741203957473026e6 0.0
0.0 0.0 0.0

-6.1931898675976265e6 4.21180796770275e6 0.0
4.21180796770275e6 3.765379210283285e6 0.0
0.0 0.0 0.0

609840.3935670824 3.142691747337868e6 0.0
3.142691747337868e6 -1.6278178151215573e6 0.0
0.0 0.0 0.0

-462926.50343322655 5.226820115720024e6 0.0
5.226820115720024e6 -656465.8813482412 0.0
0.0 0.0 0.0

-757651.9866211027 5.245571219729303e6 0.0
5.245571219729303e6 -385938.7728553941 0.0
0.0 0.0 0.0

851981.3990093421 2.9111548848921107e6 0.0
2.9111548848921107e6 -1.767259407196717e6 0.0
0.0 0.0 0.0

-2.116400942695888e6 6.234550889825321e6 0.0
6.234550889825321e6 -235954.22716880962 0.0
0.0 0.0 0.0

-456961.98376107815 4.566073317982413e6 0.0
4.566073317982413e6 -185471.19915860292 0.0
0.0 0.0 0.0

-2.714083830081841e6 3.0607951140282475e6 0.0
3.0607951140282475e6 4.277781386048196e6 0.0
0.0 0.0 0.0

710849.4388450141 130863.6889034111 0.0
130863.6889034111 -698935.3275004188 0.0
0.0 0.0 0.0

-326584.52456039825 4.667945986902293e6 0.0
4.667945986902293e6 -1.391210590129605e6 0.0
0.0 0.0 0.0

205787.08371034567 5.326970330792621e6 0.0
5.326970330792621e6 -1.5783883219241872e6 0.0
0.0 0.0 0.0

-659708.1318204127 1.2644437780657634e6 0.0
1.2644437780657634e6 309471.4741071019 0.0
0.0 0.0 0.0

645887.5559736296 101370.56299396574 0.0
101370.56299396574 -896969.8646871104 0.0
0.0 0.0 0.0

-1.1029886119217109e7 6.265152467859275e6 0.0
6.265152467859275e6 1.799761742953172e7 0.0
0.0 0.0 0.0

-826029.3473871173 -233811.84182586052 0.0
-233811.84182586052 1.3027272010528427e6 0.0
0.0 0.0 0.0

-2.306623142150083e6 5.309195717547936e6 0.0
5.309195717547936e6 1.2306503657029206e6 0.0
0.0 0.0 0.0

-2.0038235439506338e6 3.100018018548113e6 0.0
3.100018018548113e6 807425.7961833049 0.0
0.0 0.0 0.0

-593026.0109820983 3.874776285294543e6 0.0
3.874776285294543e6 -1.1598006058511483e6 0.0
0.0 0.0 0.0

-655188.6296899369 4.910439293994207e6 0.0
4.910439293994207e6 -243892.0090720209 0.0
0.0 0.0 0.0

-1.7513320082117072e6 4.2156287577046435e6 0.0
4.2156287577046435e6 393590.36611184326 0.0
0.0 0.0 0.0

-4.585891713255823e6 6.398262686200723e6 0.0
6.398262686200723e6 2.9752491397681776e6 0.0
0.0 0.0 0.0

530046.9378783187 1.4608521717993082e6 0.0
1.4608521717993082e6 -1.6359757570768984e6 0.0
0.0 0.0 0.0

378330.0434274747 222645.85146403222 0.0
222645.85146403222 -493024.62420796667 0.0
0.0 0.0 0.0

-332222.6201201625 4.640519318649247e6 0.0
4.640519318649247e6 -543901.5022945777 0.0
0.0 0.0 0.0

-1.6349390614321355e6 4.639114930179315e6 0.0
4.639114930179315e6 142028.69022035203 0.0
0.0 0.0 0.0

-544234.1627333316 4.229155410288846e6 0.0
4.229155410288846e6 270562.70354083844 0.0
0.0 0.0 0.0

-364306.4323351256 2.8899468741712277e6 0.0
2.8899468741712277e6 54398.590636780136 0.0
0.0 0.0 0.0

-277454.9604095442 4.585145582831022e6 0.0
4.585145582831022e6 -1.5414463213633585e6 0.0
0.0 0.0 0.0

-1.6245620257648535e7 -2.773821896873928e6 0.0
-2.773821896873928e6 1.1825997294587059e7 0.0
0.0 0.0 0.0

-359966.11222022265 2.7140930508977645e6 0.0
2.7140930508977645e6 76755.91652858403 0.0
0.0 0.0 0.0

-1.631087833192666e6 4.640744693696614e6 0.0
4.640744693696614e6 155498.79122250783 0.0
0.0 0.0 0.0

-400502.44415153295 4.676979737459721e6 0.0
4.676979737459721e6 -1.2025818512356707e6 0.0
0.0 0.0 0.0

-238713.04004546622 4.84044408247557e6 0.0
4.84044408247557e6 -1.6598226609114073e6 0.0
0.0 0.0 0.0

-4.206679589465836e6 5.915805638813007e6 0.0
5.915805638813007e6 2.6468487237016205e6 0.0
0.0 0.0 0.0

-253865.98963384717 4.746355254512127e6 0.0
4.746355254512127e6 -1.5778701510459427e6 0.0
0.0 0.0 0.0

-567504.5028542699 4.878223131970109e6 0.0
4.878223131970109e6 -817332.4272266201 0.0
0.0 0.0 0.0

-211902.45690946683 4.662248555018343e6 0.0
4.662248555018343e6 -580927.9682259408 0.0
0.0 0.0 0.0

-3.4034225313389776e6 4.841912939235196e6 0.0
4.841912939235196e6 1.7225647120665333e6 0.0
0.0 0.0 0.0

-1.6604486539961253e6 4.644388123260873e6 0.0
4.644388123260873e6 142699.99132943118 0.0
0.0 0.0 0.0

-322441.4027455725 4.614089912872815e6 0.0
4.614089912872815e6 -1.380664811970544e6 0.0
0.0 0.0 0.0

-682113.3213851798 4.490767290952522e6 0.0
4.490767290952522e6 -574002.428984028 0.0
0.0 0.0 0.0

-2.4093585350489384e6 3.380519839577827e6 0.0
3.380519839577827e6 989452.3194373384 0.0
0.0 0.0 0.0

-1.631023814034604e6 4.649574143240245e6 0.0
4.649574143240245e6 141514.53850051237 0.0
0.0 0.0 0.0

-305359.1872539222 89404.69819098305 0.0
89404.69819098305 556610.4485735248 0.0
0.0 0.0 0.0

-1.0973670672997683e6 3.2191788128073444e6 0.0
3.2191788128073444e6 771548.9314717024 0.0
0.0 0.0 0.0

-312052.78019563475 4.643414674466567e6 0.0
4.643414674466567e6 -1.4734983614110516e6 0.0
0.0 0.0 0.0

412392.95672078966 5.693379612865739e6 0.0
5.693379612865739e6 -690210.497665472 0.0
0.0 0.0 0.0

-316155.7705439138 4.718708045630833e6 0.0
4.718708045630833e6 -1.3964336443467874e6 0.0
0.0 0.0 0.0

-655471.1560846835 4.906247735048624e6 0.0
4.906247735048624e6 -1.0363794804818605e6 0.0
0.0 0.0 0.0

-48554.39882481981 2.006387929659559e6 0.0
2.006387929659559e6 145541.99971944003 0.0
0.0 0.0 0.0

-2.2351415025576837e6 3.565862767056861e6 0.0
3.565862767056861e6 1.3361854403852345e6 0.0
0.0 0.0 0.0

-648164.2411828914 3.9124774062336734e6 0.0
3.9124774062336734e6 -1.0704405104275385e6 0.0
0.0 0.0 0.0

-506322.9050744158 4.858073485369085e6 0.0
4.858073485369085e6 -998202.3121779199 0.0
0.0 0.0 0.0

-6.483648249144936e6 2.5677230310359118e6 0.0
2.5677230310359118e6 2.4917866415779567e6 0.0
0.0 0.0 0.0

-7.8969104909191895e6 -1.2641016614313459e6 0.0
-1.2641016614313459e6 4.691685869625673e6 0.0
0.0 0.0 0.0

-2.68529089299817e6 5.658396045245842e6 0.0
5.658396045245842e6 1.0204193372116283e6 0.0
0.0 0.0 0.0

-5.805094248302102e6 2.7598813707434637e6 0.0
2.7598813707434637e6 2.2898030393517246e6 0.0
0.0 0.0 0.0

-3.5400311706955777e6 1.0310906695139978e7 0.0
1.0310906695139978e7 4.0653955896624923e6 0.0
0.0 0.0 0.0

-200590.05621778243 5.008249238399497e6 0.0
5.008249238399497e6 -1.7099374542971246e6 0.0
0.0 0.0 0.0

-725199.055395907 2.8077887975172135e6 0.0
2.8077887975172135e6 -1.5485950054680337e6 0.0
0.0 0.0 0.0

-1.521165586400173e6 4.663223407598313e6 0.0
4.663223407598313e6 179773.36337281571 0.0
0.0 0.0 0.0

-282165.646846278 2.7720659715757356e6 0.0
2.7720659715757356e6 68349.19458425896 0.0
0.0 0.0 0.0

-1.5435166342900216e6 4.773185688719592e6 0.0
4.773185688719592e6 90875.73740243987 0.0
0.0 0.0 0.0

-656438.0648280521 4.051722437016644e6 0.0
4.051722437016644e6 -507003.97918603313 0.0
0.0 0.0 0.0

-1.0843596725143057e6 2.7379323646018924e6 0.0
2.7379323646018924e6 15723.982442826906 0.0
0.0 0.0 0.0

-4.91911496781495e6 6.931765698433428e6 0.0
6.931765698433428e6 3.375512662519479e6 0.0
0.0 0.0 0.0

-727287.9715652337 5.013414961233269e6 0.0
5.013414961233269e6 -466599.9909248124 0.0
0.0 0.0 0.0

-505206.83093296725 5.119423828879233e6 0.0
5.119423828879233e6 -822748.1003939012 0.0
0.0 0.0 0.0

896156.3889920529 3.306800737326142e6 0.0
3.306800737326142e6 -2.0662002983855023e6 0.0
0.0 0.0 0.0

-1.6844349914402207e6 4.366051100603538e6 0.0
4.366051100603538e6 333218.64263899135 0.0
0.0 0.0 0.0

-1.5434969216894123e6 3.5082098111822065e6 0.0
3.5082098111822065e6 316609.07739667 0.0
0.0 0.0 0.0

-298851.4996005483 2.683930176566633e6 0.0
2.683930176566633e6 -1.0213173810731175e6 0.0
0.0 0.0 0.0

-330754.2539891561 4.911977850759049e6 0.0
4.911977850759049e6 -1.7750382908295556e6 0.0
0.0 0.0 0.0

-684058.3414144008 4.753301591688674e6 0.0
4.753301591688674e6 -13661.426135761547 0.0
0.0 0.0 0.0

-773870.6267663612 3.431290394863691e6 0.0
3.431290394863691e6 1.506459396738849e6 0.0
0.0 0.0 0.0

-104099.32206246568 5.245744877187038e6 0.0
5.245744877187038e6 -56973.579062177 0.0
0.0 0.0 0.0

-624382.1398708813 5.342720677112815e6 0.0
5.342720677112815e6 -197541.99493898885 0.0
0.0 0.0 0.0

-1.635070726857121e6 4.30806041028052e6 0.0
4.30806041028052e6 495153.38727180904 0.0
0.0 0.0 0.0

-1.4964404591098856e6 -703497.2143362784 0.0
-703497.2143362784 2.9451501077928636e6 0.0
0.0 0.0 0.0

-995514.1193052382 3.5206537530935057e6 0.0
3.5206537530935057e6 58087.28523737227 0.0
0.0 0.0 0.0

-478122.88384279073 4.879020597835921e6 0.0
4.879020597835921e6 106862.7167667528 0.0
0.0 0.0 0.0

-1.6033559289868437e6 4.673819348653338e6 0.0
4.673819348653338e6 182569.6213516785 0.0
0.0 0.0 0.0

-1.3807716119097737e6 3.594152929891433e6 0.0
3.594152929891433e6 859671.608303015 0.0
0.0 0.0 0.0

-255008.6983049754 4.62071531580779e6 0.0
4.62071531580779e6 -1.5732237804593965e6 0.0
0.0 0.0 0.0

-2.8556611896023885e6 3.5321285315477857e6 0.0
3.5321285315477857e6 1.2200016623717146e6 0.0
0.0 0.0 0.0

-3.629742920334206e6 5.107654438752827e6 0.0
5.107654438752827e6 1.8877611190135905e6 0.0
0.0 0.0 0.0

-1.8233406093471823e6 3.4433125522047128e6 0.0
3.4433125522047128e6 564669.9131920222 0.0
0.0 0.0 0.0

-323021.6079051581 4.506827331031382e6 0.0
4.506827331031382e6 -1.4121583908982594e6 0.0
0.0 0.0 0.0

-2.8662956022076705e6 4.105057617050394e6 0.0
4.105057617050394e6 1.4280387172654038e6 0.0
0.0 0.0 0.0

-1.0198282222584983e6 4.9301545931043215e6 0.0
4.9301545931043215e6 -242367.4862767739 0.0
0.0 0.0 0.0

-779445.5547522889 4.094055942013067e6 0.0
4.094055942013067e6 597606.7959459157 0.0
0.0 0.0 0.0

-1.645225658305691e6 3.4936757067659097e6 0.0
3.4936757067659097e6 509316.92346966395 0.0
0.0 0.0 0.0

-1.921967090591715e6 4.189404345947779e6 0.0
4.189404345947779e6 385674.69213683833 0.0
0.0 0.0 0.0

-132792.52168462556 -648958.7559672404 0.0
-648958.7559672404 612115.6994026253 0.0
0.0 0.0 0.0

-3.4787232946639853e6 4.951025897076083e6 0.0
4.951025897076083e6 1.8427136795514133e6 0.0
0.0 0.0 0.0

907014.112287567 3.28654984571121e6 0.0
3.28654984571121e6 -2.092061188425688e6 0.0
0.0 0.0 0.0

-2.4004309023891455e6 4.19174672356964e6 0.0
4.19174672356964e6 918232.0080806001 0.0
0.0 0.0 0.0

89908.74011497424 -149727.23745318598 0.0
-149727.23745318598 381030.7290631004 0.0
0.0 0.0 0.0

-639869.6062215501 3.44277704182162e6 0.0
3.44277704182162e6 -1.1411931998728446e6 0.0
0.0 0.0 0.0

-1.5486844781399758e6 4.7407452110439455e6 0.0
4.7407452110439455e6 87870.4463001102 0.0
0.0 0.0 0.0

-858696.6330169532 5.002587484533571e6 0.0
5.002587484533571e6 -381628.06270782114 0.0
0.0 0.0 0.0

-1.0664342314345553e6 5.268669260361769e6 0.0
5.268669260361769e6 32165.98407746735 0.0
0.0 0.0 0.0

-466819.66207649815 4.8504358819082845e6 0.0
4.8504358819082845e6 -1.325013434017099e6 0.0
0.0 0.0 0.0

-432795.84120618785 1.719053551773445e6 0.0
1.719053551773445e6 765561.9100795328 0.0
0.0 0.0 0.0

-867233.5573983254 3.781355159846967e6 0.0
3.781355159846967e6 152690.79921250744 0.0
0.0 0.0 0.0

711090.1993442313 4.619428120691686e6 0.0
4.619428120691686e6 -1.3718797830585288e6 0.0
0.0 0.0 0.0

-441426.19693250785 4.67589847436371e6 0.0
4.67589847436371e6 50529.65541412262 0.0
0.0 0.0 0.0

-715183.5645392211 2.358342947354479e6 0.0
2.358342947354479e6 -1.1530312897299475e6 0.0
0.0 0.0 0.0

-1.210772512032593e6 3.250508228484118e6 0.0
3.250508228484118e6 500391.2875727654 0.0
0.0 0.0 0.0

-2.8436859674048955e6 3.6773330536837475e6 0.0
3.6773330536837475e6 1.2650329862869442e6 0.0
0.0 0.0 0.0

-1.965199469114513e6 3.154955906814178e6 0.0
3.154955906814178e6 773315.8056259821 0.0
0.0 0.0 0.0

-626695.0985282032 4.586336863122549e6 0.0
4.586336863122549e6 -424380.05461908743 0.0
0.0 0.0 0.0

-527519.202182892 5.094023114682761e6 0.0
5.094023114682761e6 -778814.5288907412 0.0
0.0 0.0 0.0

-1.6060964084464128e6 4.507516496012658e6 0.0
4.507516496012658e6 257065.29001650936 0.0
0.0 0.0 0.0

-822339.4348581147 4.707658672782227e6 0.0
4.707658672782227e6 206871.7964947606 0.0
0.0 0.0 0.0

-1.096444210164948e6 3.1692589111974845e6 0.0
3.1692589111974845e6 1.129526029955483e6 0.0
0.0 0.0 0.0

-610839.1817274878 3.398903651090705e6 0.0
3.398903651090705e6 -1.3218865063788907e6 0.0
0.0 0.0 0.0

-463767.13838835474 4.522998594311684e6 0.0
4.522998594311684e6 -1.1603252974586154e6 0.0
0.0 0.0 0.0

-561748.0056901831 4.717615949157333e6 0.0
4.717615949157333e6 -174807.02066830147 0.0
0.0 0.0 0.0

155070.969024617 5.268366201613838e6 0.0
5.268366201613838e6 -1.6195195461226346e6 0.0
0.0 0.0 0.0

-1.4359835962492307e6 4.140732749988273e6 0.0
4.140732749988273e6 851135.1655259301 0.0
0.0 0.0 0.0

-3.797768555131955e6 5.259749061551731e6 0.0
5.259749061551731e6 2.0245656457253315e6 0.0
0.0 0.0 0.0

-260560.17891292734 4.903763700610508e6 0.0
4.903763700610508e6 -302453.2978461372 0.0
0.0 0.0 0.0

2.2782910502734478e6 9.949203131910613e6 0.0
9.949203131910613e6 7.594274293992781e6 0.0
0.0 0.0 0.0

-472701.6823334542 3.5933447254072353e6 0.0
3.5933447254072353e6 -1.5756715488203529e6 0.0
0.0 0.0 0.0

-1.5071191925249903e6 3.3720262069830648e6 0.0
3.3720262069830648e6 459857.0585912537 0.0
0.0 0.0 0.0

-3.5116165363008236e6 2.2870989175670682e6 0.0
2.2870989175670682e6 746601.3749246341 0.0
0.0 0.0 0.0

-2.400451541919724e6 3.658926254191869e6 0.0
3.658926254191869e6 1.0564058294106382e6 0.0
0.0 0.0 0.0

-535870.2458678795 4.72789265558601e6 0.0
4.72789265558601e6 -293556.90062195645 0.0
0.0 0.0 0.0

-361531.06900047883 4.73260528389385e6 0.0
4.73260528389385e6 130575.2522248454 0.0
0.0 0.0 0.0

-1.569026588868746e6 5.115416385045547e6 0.0
5.115416385045547e6 3.8625696811617743e6 0.0
0.0 0.0 0.0

-11666.973899811768 3.237819313869834e6 0.0
3.237819313869834e6 283637.17448649165 0.0
0.0 0.0 0.0

-575863.0390744039 5.094368095978803e6 0.0
5.094368095978803e6 188784.2378744107 0.0
0.0 0.0 0.0

-901515.5823956154 5.269862899767935e6 0.0
5.269862899767935e6 -312110.2349997882 0.0
0.0 0.0 0.0

-390084.59130820015 4.775462043206294e6 0.0
4.775462043206294e6 -520532.7053955039 0.0
0.0 0.0 0.0

-583051.9294006678 4.6482346416497845e6 0.0
4.6482346416497845e6 -221152.87844394395 0.0
0.0 0.0 0.0

-2.7342734539538613e6 5.639896381377235e6 0.0
5.639896381377235e6 1.5005315042227886e6 0.0
0.0 0.0 0.0

-1.529612072286659e6 3.868544485282481e6 0.0
3.868544485282481e6 953145.0727419289 0.0
0.0 0.0 0.0

905033.963619147 3.0286828707052493e6 0.0
3.0286828707052493e6 -1.9898329685201407e6 0.0
0.0 0.0 0.0

-836778.751554055 3.195414901753586e6 0.0
3.195414901753586e6 72967.48491987516 0.0
0.0 0.0 0.0

-100536.42959065783 20111.04108833146 0.0
20111.04108833146 318690.34001343884 0.0
0.0 0.0 0.0

-1.0012371713373143e6 4.2032957719848445e6 0.0
4.2032957719848445e6 510797.9306256033 0.0
0.0 0.0 0.0

-2.7264324555053753e6 4.539018270493209e6 0.0
4.539018270493209e6 1.4844321815041516e6 0.0
0.0 0.0 0.0

728742.2134741626 6.965920429750372e6 0.0
6.965920429750372e6 1.5361961400948823e6 0.0
0.0 0.0 0.0

-150513.0024518759 5.099587536609671e6 0.0
5.099587536609671e6 -523361.28877059184 0.0
0.0 0.0 0.0

-2.0647132353319614e6 4.172577997753028e6 0.0
4.172577997753028e6 450495.1939872479 0.0
0.0 0.0 0.0

1.536425599843203e6 1.4510864810382791e6 0.0
1.4510864810382791e6 -2.7546812890516343e6 0.0
0.0 0.0 0.0

-2.561713878753474e6 4.245069942709787e6 0.0
4.245069942709787e6 1.1266081413517948e6 0.0
0.0 0.0 0.0

90314.30975389457 5.273978640444139e6 0.0
5.273978640444139e6 -1.8381208134389566e6 0.0
0.0 0.0 0.0

-1.6292596141204964e6 4.708803621673949e6 0.0
4.708803621673949e6 134488.00198453385 0.0
0.0 0.0 0.0

-1.3166397412476167e6 5.5050706923695095e6 0.0
5.5050706923695095e6 -34818.22855489561 0.0
0.0 0.0 0.0

-1.399416090851502e6 4.836877255336265e6 0.0
4.836877255336265e6 33768.2291292444 0.0
0.0 0.0 0.0

1.1063502074560076e6 3.311752019383506e6 0.0
3.311752019383506e6 -2.475144410526979e6 0.0
0.0 0.0 0.0

-177511.91014544017 5.021899572603304e6 0.0
5.021899572603304e6 -933189.3601468765 0.0
0.0 0.0 0.0

-1.9689335448949584e6 4.822024692381599e6 0.0
4.822024692381599e6 966889.1170020931 0.0
0.0 0.0 0.0

-1.202215554658772e6 4.0980242100242735e6 0.0
4.0980242100242735e6 242164.77561357175 0.0
0.0 0.0 0.0

-595687.6298776276 4.430433435081693e6 0.0
4.430433435081693e6 -1.1602901402146951e6 0.0
0.0 0.0 0.0

819346.861903862 3.114909616981421e6 0.0
3.114909616981421e6 -1.8859778344226032e6 0.0
0.0 0.0 0.0

-1.613246335424622e6 3.5599637798962854e6 0.0
3.5599637798962854e6 504011.6211363665 0.0
0.0 0.0 0.0

-150724.10803940648 5.131144340062679e6 0.0
5.131144340062679e6 -1.8350487438107766e6 0.0
0.0 0.0 0.0

-176914.07230117824 -457866.67707409745 0.0
-457866.67707409745 354228.5289022659 0.0
0.0 0.0 0.0

-1.1945123950277013e6 3.254874031718072e6 0.0
3.254874031718072e6 787403.9794637633 0.0
0.0 0.0 0.0

-1.8349783328270027e6 4.66759856334352e6 0.0
4.66759856334352e6 105200.27976273175 0.0
0.0 0.0 0.0

399828.79710376315 3.0478126204588576e6 0.0
3.0478126204588576e6 -1.1280342112459606e6 0.0
0.0 0.0 0.0

-2.770442688641237e6 1.890679423309031e6 0.0
1.890679423309031e6 4.372441337993254e6 0.0
0.0 0.0 0.0

-477398.87184304436 4.490706107342307e6 0.0
4.490706107342307e6 -287560.771554899 0.0
0.0 0.0 0.0

-1.996554538979094e6 3.0901004598391955e6 0.0
3.0901004598391955e6 2.7208214847248797e6 0.0
0.0 0.0 0.0

-2.0103293842853792e6 3.147264847051877e6 0.0
3.147264847051877e6 760863.1140344782 0.0
0.0 0.0 0.0

-1.2260640402300553e6 3.1895099535030657e6 0.0
3.1895099535030657e6 403541.53158186533 0.0
0.0 0.0 0.0

-634742.0591153577 4.478070301779552e6 0.0
4.478070301779552e6 -1.0954843407757536e6 0.0
0.0 0.0 0.0

-427801.2367236278 4.477022833010599e6 0.0
4.477022833010599e6 -1.2549494084411266e6 0.0
0.0 0.0 0.0

339264.329937146 3.9167017038905313e6 0.0
3.9167017038905313e6 -1.3324481762353545e6 0.0
0.0 0.0 0.0

80113.89182470151 -133222.46277775057 0.0
-133222.46277775057 401019.74822400906 0.0
0.0 0.0 0.0

-65797.57389099366 -2.0657666784981443e6 0.0
-2.0657666784981443e6 713775.1267507214 0.0
0.0 0.0 0.0

-1.4179566229059196e6 4.819824283767334e6 0.0
4.819824283767334e6 -12159.735847528442 0.0
0.0 0.0 0.0

-609255.424514747 4.75828508626448e6 0.0
4.75828508626448e6 -494637.8457605571 0.0
0.0 0.0 0.0

-1.8113058096817778e6 3.6084436203623796e6 0.0
3.6084436203623796e6 4.210089924852615e6 0.0
0.0 0.0 0.0

-645542.0702920351 4.517764247926374e6 0.0
4.517764247926374e6 -1.0465287424504736e6 0.0
0.0 0.0 0.0

-696474.4885647944 5.392471631960162e6 0.0
5.392471631960162e6 -432507.53992783313 0.0
0.0 0.0 0.0

-1.7816678272361541e6 3.896748011696431e6 0.0
3.896748011696431e6 518014.26966061874 0.0
0.0 0.0 0.0

363191.53341427696 243006.59593786974 0.0
243006.59593786974 -428648.4442723077 0.0
0.0 0.0 0.0

-4.1772754749306682e6 8.5212056581344e6 0.0
8.5212056581344e6 3.6472123644339135e6 0.0
0.0 0.0 0.0

-571859.6926167067 4.942123815070147e6 0.0
4.942123815070147e6 -971074.5762563767 0.0
0.0 0.0 0.0

-938050.2727666073 2.824302655993104e6 0.0
2.824302655993104e6 -931310.6567143039 0.0
0.0 0.0 0.0

930502.069566771 3.299751480035711e6 0.0
3.299751480035711e6 -2.044178742536613e6 0.0
0.0 0.0 0.0

-630325.4219850184 4.8422810649427315e6 0.0
4.8422810649427315e6 21674.052745010733 0.0
0.0 0.0 0.0

-991017.2820932977 3.1336458759145318e6 0.0
3.1336458759145318e6 722560.1865089107 0.0
0.0 0.0 0.0

-5.048244639275953e6 -1.173775159245265e6 0.0
-1.173775159245265e6 5.354720126379104e6 0.0
0.0 0.0 0.0

-1.8112808876157044e6 5.610356284368921e6 0.0
5.610356284368921e6 906232.8431299366 0.0
0.0 0.0 0.0

-234570.80966855015 5.110226073907568e6 0.0
5.110226073907568e6 -375829.71530410415 0.0
0.0 0.0 0.0

-667113.4121261206 3.8978818912590994e6 0.0
3.8978818912590994e6 -1.1960703621825855e6 0.0
0.0 0.0 0.0

361119.5135850258 345977.03866707167 0.0
345977.03866707167 -350178.5811392872 0.0
0.0 0.0 0.0

-1.3128047662138816e6 3.10419614226419e6 0.0
3.10419614226419e6 -22818.559233685082 0.0
0.0 0.0 0.0

-494283.3270111807 4.531204504612505e6 0.0
4.531204504612505e6 -501880.83050199616 0.0
0.0 0.0 0.0

-451811.08684705023 4.659062517633171e6 0.0
4.659062517633171e6 -400565.46632071305 0.0
0.0 0.0 0.0

-547599.0938643309 4.642266158710378e6 0.0
4.642266158710378e6 -887611.0099921054 0.0
0.0 0.0 0.0

-681910.9295482415 4.0931803445173833e6 0.0
4.0931803445173833e6 76448.5296568519 0.0
0.0 0.0 0.0

-633922.3778048838 4.518959329239433e6 0.0
4.518959329239433e6 -1.0396363070469514e6 0.0
0.0 0.0 0.0

-585259.2359588416 4.873410113693221e6 0.0
4.873410113693221e6 -575361.8937594336 0.0
0.0 0.0 0.0

-387083.5686807192 5.204796049590142e6 0.0
5.204796049590142e6 -790310.4470212057 0.0
0.0 0.0 0.0

-140940.98980674613 4.809284809016932e6 0.0
4.809284809016932e6 -1.7968670182317402e6 0.0
0.0 0.0 0.0

-1.2360294075756266e6 3.989970984751803e6 0.0
3.989970984751803e6 759409.0997908487 0.0
0.0 0.0 0.0

-1.250431412805957e6 2.469878667293332e6 0.0
2.469878667293332e6 260782.32159858063 0.0
0.0 0.0 0.0

-1.3086680949639235e7 2.251964713374612e6 0.0
2.251964713374612e6 1.1298603146127883e7 0.0
0.0 0.0 0.0

-3.555895759922957e6 4.41254270374437e6 0.0
4.41254270374437e6 5.816852350726141e6 0.0
0.0 0.0 0.0

895388.590938141 3.3769386069137095e6 0.0
3.3769386069137095e6 -2.073607311612518e6 0.0
0.0 0.0 0.0

68117.61569196428 -1.8449793809599224e6 0.0
-1.8449793809599224e6 557726.9908072711 0.0
0.0 0.0 0.0

-858274.4430847049 3.279622067415086e6 0.0
3.279622067415086e6 -1.1357355299366615e6 0.0
0.0 0.0 0.0

-366133.7958006917 4.816447808869429e6 0.0
4.816447808869429e6 -1.6860088360365576e6 0.0
0.0 0.0 0.0

-896708.1387683685 5.038877520480536e6 0.0
5.038877520480536e6 -63071.32930274599 0.0
0.0 0.0 0.0

-3.929033799763226e6 4.303212367268839e6 0.0
4.303212367268839e6 2.226706333736933e6 0.0
0.0 0.0 0.0

-1.1778054969482888e6 2.3705184734563283e6 0.0
2.3705184734563283e6 1.8641330380340468e6 0.0
0.0 0.0 0.0

-560996.1438773383 4.910760068314966e6 0.0
4.910760068314966e6 -643739.4143896393 0.0
0.0 0.0 0.0

-1.7692787166089006e6 -2.9298127070537037e6 0.0
-2.9298127070537037e6 3.93202280689283e6 0.0
0.0 0.0 0.0

-786470.8639558146 3.0643762422288833e6 0.0
3.0643762422288833e6 390373.46670262795 0.0
0.0 0.0 0.0

633807.6397117713 3.372789581096097e6 0.0
3.372789581096097e6 -1.0664217017825171e6 0.0
0.0 0.0 0.0

-2.9021909972317363e6 3.712280888628929e6 0.0
3.712280888628929e6 1.2903281081696595e6 0.0
0.0 0.0 0.0

1.1450050243102103e6 3.3914771781945955e6 0.0
3.3914771781945955e6 -1.4009777717038193e6 0.0
0.0 0.0 0.0

-7.702547630100528e6 1.982034511736416e6 0.0
1.982034511736416e6 2.6131304226449854e6 0.0
0.0 0.0 0.0

-2.061557224161792e6 -3.304672622547984e6 0.0
-3.304672622547984e6 4.841445642653127e6 0.0
0.0 0.0 0.0

-188707.08707342268 4.931291871036314e6 0.0
4.931291871036314e6 -2.0096767505773632e6 0.0
0.0 0.0 0.0

-1.6649580983659958e6 4.720523129110133e6 0.0
4.720523129110133e6 121823.36198732897 0.0
0.0 0.0 0.0

-3.4817882746180515e6 2.4078548466902063e6 0.0
2.4078548466902063e6 -412033.0776191022 0.0
0.0 0.0 0.0

1.0328345087458071e6 3.531059870555985e6 0.0
3.531059870555985e6 -1.3339423285380122e6 0.0
0.0 0.0 0.0

-2.132587535019653e6 3.2971838933330984e6 0.0
3.2971838933330984e6 852321.2228837224 0.0
0.0 0.0 0.0

-1.459391597609373e6 3.856389979286108e6 0.0
3.856389979286108e6 890839.2591097876 0.0
0.0 0.0 0.0

-1.5855513159833804e6 3.5255672218378037e6 0.0
3.5255672218378037e6 2.980735203257876e6 0.0
0.0 0.0 0.0

-276168.5430258564 4.854361979563961e6 0.0
4.854361979563961e6 -1.5146094343296685e6 0.0
0.0 0.0 0.0

-386234.238595358 4.727477106319681e6 0.0
4.727477106319681e6 -1.5971193510606813e6 0.0
0.0 0.0 0.0

-1.5152784073837157e6 3.9892583379694885e6 0.0
3.9892583379694885e6 72553.91701898194 0.0
0.0 0.0 0.0

-2.96974519765493e6 3.7526496884390768e6 0.0
3.7526496884390768e6 1.2898500919937673e6 0.0
0.0 0.0 0.0

-427402.35762025946 1.98548941605176e6 0.0
1.98548941605176e6 -90502.71652372845 0.0
0.0 0.0 0.0

1.1268132005354143e6 3.362166407619602e6 0.0
3.362166407619602e6 -1.7660062429561184e6 0.0
0.0 0.0 0.0

-2.5920636437365077e6 3.0815021417622124e6 0.0
3.0815021417622124e6 687267.8763727867 0.0
0.0 0.0 0.0

806606.6789163974 3.152676951103102e6 0.0
3.152676951103102e6 -1.734039337620816e6 0.0
0.0 0.0 0.0

-496682.2548229309 4.827916504833211e6 0.0
4.827916504833211e6 -1.303229750255484e6 0.0
0.0 0.0 0.0

1.05566736697578e6 3.4022215615994576e6 0.0
3.4022215615994576e6 -1.5619864442274687e6 0.0
0.0 0.0 0.0

-433342.8673141297 4.615910422630918e6 0.0
4.615910422630918e6 -1.5093409258899703e6 0.0
0.0 0.0 0.0

-1.1368088480772213e6 332427.2731795843 0.0
332427.2731795843 1.3329772122605827e6 0.0
0.0 0.0 0.0

243140.3648186006 521989.9111708346 0.0
521989.9111708346 -497501.80150312907 0.0
0.0 0.0 0.0

-1.2523675208880391e6 3.581203265990274e6 0.0
3.581203265990274e6 227886.02883360314 0.0
0.0 0.0 0.0

-234879.85575627728 4.898292694831587e6 0.0
4.898292694831587e6 -309581.1180226597 0.0
0.0 0.0 0.0

898517.6009338499 3.5241151938647134e6 0.0
3.5241151938647134e6 -2.200977914343954e6 0.0
0.0 0.0 0.0

-1.548751933766553e6 4.530192308785968e6 0.0
4.530192308785968e6 274001.14824561705 0.0
0.0 0.0 0.0

-88538.87164481627 231751.83690460824 0.0
231751.83690460824 301260.26320817147 0.0
0.0 0.0 0.0

-604510.7240635416 4.899508260119064e6 0.0
4.899508260119064e6 -1.0491269593199398e6 0.0
0.0 0.0 0.0

-218435.67247704626 4.64014461276724e6 0.0
4.64014461276724e6 -1.7192406164955052e6 0.0
0.0 0.0 0.0

-779950.906700538 4.547263099823589e6 0.0
4.547263099823589e6 186755.90071580338 0.0
0.0 0.0 0.0

-1.2306001483591439e6 4.259133250639069e6 0.0
4.259133250639069e6 1.26907006705962e6 0.0
0.0 0.0 0.0

-432028.8655100769 4.9060645285270205e6 0.0
4.9060645285270205e6 -254254.74174766216 0.0
0.0 0.0 0.0

-1.1947675086805632e6 3.8889412956599505e6 0.0
3.8889412956599505e6 223640.8148859152 0.0
0.0 0.0 0.0

-2.043982954594594e6 3.7442089127796898e6 0.0
3.7442089127796898e6 652507.8652196504 0.0
0.0 0.0 0.0

-796817.5189367272 4.950816203760671e6 0.0
4.950816203760671e6 204435.41828912566 0.0
0.0 0.0 0.0

-128318.51331294903 3.1009887335560205e6 0.0
3.1009887335560205e6 -365244.513376572 0.0
0.0 0.0 0.0

-1.169264275046396e6 -2.367085998118129e6 0.0
-2.367085998118129e6 2.721161149216963e6 0.0
0.0 0.0 0.0

-460573.3442010642 2.796823582784057e6 0.0
2.796823582784057e6 910755.6166229688 0.0
0.0 0.0 0.0

-188670.3347997049 -2.0690132829059341e6 0.0
-2.0690132829059341e6 864758.1570060758 0.0
0.0 0.0 0.0

-607771.7184221676 4.602631843575759e6 0.0
4.602631843575759e6 -382205.73462307244 0.0
0.0 0.0 0.0

-1.1680991506195558e7 825955.4663488842 0.0
825955.4663488842 1.340110732487678e7 0.0
0.0 0.0 0.0

-1.2943360557771446e6 3.6922567102346183e6 0.0
3.6922567102346183e6 68313.15135277406 0.0
0.0 0.0 0.0

1.0110043414313918e6 95696.01316674208 0.0
95696.01316674208 -1.421452523080687e6 0.0
0.0 0.0 0.0

1.7349533471616898e6 345.9179182413025 0.0
345.9179182413025 -1.7104685172302115e6 0.0
0.0 0.0 0.0

-572642.2664811356 4.860622334725538e6 0.0
4.860622334725538e6 -669649.0024497614 0.0
0.0 0.0 0.0

-1.4474422135221108e6 5.165659101360967e6 0.0
5.165659101360967e6 -64796.45835246937 0.0
0.0 0.0 0.0

-522790.3622515338 4.9356145526034245e6 0.0
4.9356145526034245e6 -688819.4246947463 0.0
0.0 0.0 0.0

-82451.33322883252 2.053974915621647e6 0.0
2.053974915621647e6 34507.037798853635 0.0
0.0 0.0 0.0

-571616.1117090118 4.422710617272465e6 0.0
4.422710617272465e6 -1.2336950974253195e6 0.0
0.0 0.0 0.0

-153995.91588391789 4.9702338794306535e6 0.0
4.9702338794306535e6 -1.853616778938469e6 0.0
0.0 0.0 0.0

-1.4934958616282574e6 4.614628087326745e6 0.0
4.614628087326745e6 209285.48249036988 0.0
0.0 0.0 0.0

-258188.08683187494 4.544896825690698e6 0.0
4.544896825690698e6 -1.599553544890232e6 0.0
0.0 0.0 0.0

-1.5717581865183257e7 97687.98624027762 0.0
97687.98624027762 1.1316522176114606e7 0.0
0.0 0.0 0.0

-517556.73912136455 4.646633061124666e6 0.0
4.646633061124666e6 -990443.9404005967 0.0
0.0 0.0 0.0

-3.6038109626221457e6 3.6649729370230585e6 0.0
3.6649729370230585e6 1.490081956815367e6 0.0
0.0 0.0 0.0

-594758.7169685093 4.321702434327478e6 0.0
4.321702434327478e6 -827331.4245951646 0.0
0.0 0.0 0.0

-895340.0819024935 3.398677445851011e6 0.0
3.398677445851011e6 808751.6795980793 0.0
0.0 0.0 0.0

-1.6165016318005428e6 3.9204570869263317e6 0.0
3.9204570869263317e6 1.212018483731097e6 0.0
0.0 0.0 0.0

-2.720561185094793e6 7.981978859815639e6 0.0
7.981978859815639e6 1.6235775868763695e6 0.0
0.0 0.0 0.0

109977.50185264077 -1.2514509919182793e6 0.0
-1.2514509919182793e6 580621.0412807788 0.0
0.0 0.0 0.0

919740.9030849602 3.4501114132619486e6 0.0
3.4501114132619486e6 -2.1088809056349895e6 0.0
0.0 0.0 0.0

-1.778248680960424e6 3.701820509994618e6 0.0
3.701820509994618e6 737444.1510793213 0.0
0.0 0.0 0.0

624005.7747433763 160495.37523710856 0.0
160495.37523710856 -832970.4679841464 0.0
0.0 0.0 0.0

997203.9747704864 3.3707738572823517e6 0.0
3.3707738572823517e6 -2.0092377730541532e6 0.0
0.0 0.0 0.0

-963750.7273871083 -2.219558742958904e6 0.0
-2.219558742958904e6 2.103727384099285e6 0.0
0.0 0.0 0.0

-80125.24360006917 -75714.55296202736 0.0
-75714.55296202736 90496.14555991761 0.0
0.0 0.0 0.0

-612961.6125094974 3.9541311120809657e6 0.0
3.9541311120809657e6 -1.0035250626529189e6 0.0
0.0 0.0 0.0

109017.9632807759 -1.5698228425874123e6 0.0
-1.5698228425874123e6 566577.0471866645 0.0
0.0 0.0 0.0

889357.3780018664 3.545265299252866e6 0.0
3.545265299252866e6 -2.141131955155093e6 0.0
0.0 0.0 0.0

890552.5526328128 3.460343419840326e6 0.0
3.460343419840326e6 -2.0855690711916133e6 0.0
0.0 0.0 0.0

-746523.9472236444 -2.324190566187292e6 0.0
-2.324190566187292e6 1.7161211670092063e6 0.0
0.0 0.0 0.0

-1.4953591667131197e6 3.655760710267942e6 0.0
3.655760710267942e6 1.006227762884284e6 0.0
0.0 0.0 0.0

-558312.9315226898 4.800603529953785e6 0.0
4.800603529953785e6 -710274.0602588345 0.0
0.0 0.0 0.0

-2.193233575052969e6 3.765893236096158e6 0.0
3.765893236096158e6 689881.4500208043 0.0
0.0 0.0 0.0

880791.803562047 3.5595952366401344e6 0.0
3.5595952366401344e6 -2.148926117797473e6 0.0
0.0 0.0 0.0

-430370.73478810047 -2.451299790591059e6 0.0
-2.451299790591059e6 1.2917701000647855e6 0.0
0.0 0.0 0.0

-643566.4184901123 4.5576672415195275e6 0.0
4.5576672415195275e6 -1.0141965552832824e6 0.0
0.0 0.0 0.0

-273543.61660778767 4.552524382398229e6 0.0
4.552524382398229e6 -1.588108370339464e6 0.0
0.0 0.0 0.0

-2.3885378526856177e6 3.9010568752618097e6 0.0
3.9010568752618097e6 1.2759848067554485e6 0.0
0.0 0.0 0.0

-1.9948317187446188e6 3.0835288983326275e6 0.0
3.0835288983326275e6 836229.526804953 0.0
0.0 0.0 0.0

-1.2242849497939178e6 3.086894372735094e6 0.0
3.086894372735094e6 1.541764818312944e6 0.0
0.0 0.0 0.0

-189160.79797341384 -2.238552265783211e6 0.0
-2.238552265783211e6 899898.6068208788 0.0
0.0 0.0 0.0

887698.2252102358 3.524216546093544e6 0.0
3.524216546093544e6 -2.131365439918467e6 0.0
0.0 0.0 0.0

-2.050826483772956e6 5.533341684812695e6 0.0
5.533341684812695e6 483072.3087375052 0.0
0.0 0.0 0.0

-2.650183703884283e6 4.053405693639729e6 0.0
4.053405693639729e6 5.319291256638713e6 0.0
0.0 0.0 0.0

2.221219230906137e6 1.326805542763406e7 0.0
1.326805542763406e7 -8.749828159999903e6 0.0
0.0 0.0 0.0

-1.0337209099677486e6 1.617568080281965e6 0.0
1.617568080281965e6 -302308.0684928663 0.0
0.0 0.0 0.0

-2.8339287712554936e6 3.5261883770070584e6 0.0
3.5261883770070584e6 1.1056217033127127e6 0.0
0.0 0.0 0.0

242712.33783334517 648484.4667647434 0.0
648484.4667647434 -515619.7059505498 0.0
0.0 0.0 0.0

-2.360203271807067e6 3.647221660304496e6 0.0
3.647221660304496e6 807341.5483621506 0.0
0.0 0.0 0.0

485088.73304821295 1.6434702292954042e6 0.0
1.6434702292954042e6 -1.009124007026964e6 0.0
0.0 0.0 0.0

-910549.3012682776 6.031838122117106e6 0.0
6.031838122117106e6 -241337.19505088456 0.0
0.0 0.0 0.0

-775567.0067792094 4.8433013657387635e6 0.0
4.8433013657387635e6 -106449.89802788023 0.0
0.0 0.0 0.0

-1.0235976764941929e6 3.1583782968188836e6 0.0
3.1583782968188836e6 -16055.797300177801 0.0
0.0 0.0 0.0

-648900.2569186473 4.765405113058258e6 0.0
4.765405113058258e6 -463941.8287257594 0.0
0.0 0.0 0.0

-2.805150154246046e6 -3.9153927078904468e6 0.0
-3.9153927078904468e6 4.438520751185701e6 0.0
0.0 0.0 0.0

1.522103911966824e6 75883.20418108591 0.0
75883.20418108591 -1.9475933402293287e6 0.0
0.0 0.0 0.0

-480383.4047149618 53733.35996836439 0.0
53733.35996836439 415934.9534940779 0.0
0.0 0.0 0.0

-258564.1394840065 -372727.16819313774 0.0
-372727.16819313774 -82913.0854030682 0.0
0.0 0.0 0.0

-730618.57927774 5.007632565594538e6 0.0
5.007632565594538e6 -127212.7809547135 0.0
0.0 0.0 0.0

-872105.5114827506 2.9034214494586242e6 0.0
2.9034214494586242e6 -1.0376676833779336e6 0.0
0.0 0.0 0.0

-645468.649748739 4.545599519026467e6 0.0
4.545599519026467e6 177551.79655118985 0.0
0.0 0.0 0.0

-636348.2902910698 4.308415498445676e6 0.0
4.308415498445676e6 903381.9093330947 0.0
0.0 0.0 0.0

795708.3938517286 3.0864616844381434e6 0.0
3.0864616844381434e6 -1.9711561131130008e6 0.0
0.0 0.0 0.0

-277997.03187239054 3.0895199776738076e6 0.0
3.0895199776738076e6 -1.2162632563441235e6 0.0
0.0 0.0 0.0

-496571.2653178609 4.830088514669274e6 0.0
4.830088514669274e6 -961285.4456034676 0.0
0.0 0.0 0.0

-790237.9731208822 3.8130700815203777e6 0.0
3.8130700815203777e6 -1.5365420291092626e6 0.0
0.0 0.0 0.0

-2.3195200487919003e6 4.171713719773298e6 0.0
4.171713719773298e6 1.227499869649767e6 0.0
0.0 0.0 0.0

-857878.5819356854 4.1488100702837473e6 0.0
4.1488100702837473e6 1.033304671666486e6 0.0
0.0 0.0 0.0

-378204.21543668554 3.489235429847527e6 0.0
3.489235429847527e6 -1.0561742783195886e6 0.0
0.0 0.0 0.0

-614276.2218468855 4.853254491055882e6 0.0
4.853254491055882e6 -1.064139800267814e6 0.0
0.0 0.0 0.0

-475359.1115584217 2.806597989345204e6 0.0
2.806597989345204e6 -1.5498662845357626e6 0.0
0.0 0.0 0.0

-5.444548794412391e6 2.7403563883514297e6 0.0
2.7403563883514297e6 5.744993339581676e6 0.0
0.0 0.0 0.0

-3.4496314099077974e6 7.951521298363782e6 0.0
7.951521298363782e6 2.4114435156921456e6 0.0
0.0 0.0 0.0

100023.7461106343 346773.22958772356 0.0
346773.22958772356 -418039.44984447816 0.0
0.0 0.0 0.0

278638.44861553254 410133.28479265823 0.0
410133.28479265823 -686825.7523587752 0.0
0.0 0.0 0.0

-1.0143766606674863e6 4.500157704268478e6 0.0
4.500157704268478e6 496510.92290086305 0.0
0.0 0.0 0.0

-2.083253220809347e6 3.4643048050436825e6 0.0
3.4643048050436825e6 730303.7972108484 0.0
0.0 0.0 0.0

-3.010037301075144e6 3.5964876521825646e6 0.0
3.5964876521825646e6 1.1764180746016733e6 0.0
0.0 0.0 0.0

-2.5135119060597224e6 3.547436922407287e6 0.0
3.547436922407287e6 892356.3436962217 0.0
0.0 0.0 0.0

306961.4637362468 3.0862737297803713e6 0.0
3.0862737297803713e6 265788.3528583106 0.0
0.0 0.0 0.0

-454733.3348814645 5.178005849468899e6 0.0
5.178005849468899e6 -751606.4614617199 0.0
0.0 0.0 0.0

-3.720334153159601e6 4.384432248252387e6 0.0
4.384432248252387e6 5.277736089481304e6 0.0
0.0 0.0 0.0

-4.0132147567642047e6 4.46613601816289e6 0.0
4.46613601816289e6 -1.7527832502658018e6 0.0
0.0 0.0 0.0

-2.2447050076082498e7 1.0951154965659224e6 0.0
1.0951154965659224e6 2.0724654726373073e7 0.0
0.0 0.0 0.0

-1.0052294312797541e6 3.172453329833845e6 0.0
3.172453329833845e6 -189375.89673888276 0.0
0.0 0.0 0.0

-658090.3511324296 4.811462093315867e6 0.0
4.811462093315867e6 -155492.5526619217 0.0
0.0 0.0 0.0

790062.2663240595 3.096634623815012e6 0.0
3.096634623815012e6 -1.7050030307419416e6 0.0
0.0 0.0 0.0

-874882.3332370989 3.1243957167404406e6 0.0
3.1243957167404406e6 506662.9474438042 0.0
0.0 0.0 0.0

168556.3328973995 532.5608596362476 0.0
532.5608596362476 -232667.08178125194 0.0
0.0 0.0 0.0

-1.0548460098162522e6 2.9663977139689885e6 0.0
2.9663977139689885e6 1.4338499886580082e6 0.0
0.0 0.0 0.0

-399864.2885837561 4.419369917573137e6 0.0
4.419369917573137e6 -1.592403777122452e6 0.0
0.0 0.0 0.0

880447.8501398639 3.244115274837405e6 0.0
3.244115274837405e6 -1.841679428876797e6 0.0
0.0 0.0 0.0

-12349.247496421129 4.415750770292941e6 0.0
4.415750770292941e6 -612489.7857349062 0.0
0.0 0.0 0.0

-6.2818530843083e6 -5.417464985389675e6 0.0
-5.417464985389675e6 1.0708895103277603e7 0.0
0.0 0.0 0.0

-2.122254899459623e6 4.202312563317134e6 0.0
4.202312563317134e6 318503.17480746773 0.0
0.0 0.0 0.0

-1.8848834066588585e6 4.774881679902088e6 0.0
4.774881679902088e6 101090.53361816914 0.0
0.0 0.0 0.0

-667805.3549557513 4.744824712002768e6 0.0
4.744824712002768e6 -234736.82885904858 0.0
0.0 0.0 0.0

407266.692769888 192495.97208873995 0.0
192495.97208873995 -320971.62635006267 0.0
0.0 0.0 0.0

-672135.1800844336 3.9529945071617053e6 0.0
3.9529945071617053e6 -777593.8419581678 0.0
0.0 0.0 0.0

117102.06023067747 -314439.5188451871 0.0
-314439.5188451871 452312.2231097096 0.0
0.0 0.0 0.0

-140674.76374613348 4.550147583012792e6 0.0
4.550147583012792e6 -1.0697890494882597e6 0.0
0.0 0.0 0.0

-2.219259219897189e6 3.126245336284838e6 0.0
3.126245336284838e6 948842.0658260016 0.0
0.0 0.0 0.0

920872.3073666416 3.241851559014957e6 0.0
3.241851559014957e6 -2.0172628205031205e6 0.0
0.0 0.0 0.0

-1.7942824907092191e6 3.7074529064608114e6 0.0
3.7074529064608114e6 1.0892706814612928e6 0.0
0.0 0.0 0.0

786317.243264429 3.155964444793303e6 0.0
3.155964444793303e6 -1.8423410866005807e6 0.0
0.0 0.0 0.0

-436469.98573122476 4.643593327537697e6 0.0
4.643593327537697e6 -1.2562980259228407e6 0.0
0.0 0.0 0.0

-3.173352712016111e6 3.158965773525822e6 0.0
3.158965773525822e6 1.1616901229998786e6 0.0
0.0 0.0 0.0

-326624.05617397244 3.2337719378640302e6 0.0
3.2337719378640302e6 -1.4040497293460553e6 0.0
0.0 0.0 0.0

-1.2746733394054684e6 3.989925250046784e6 0.0
3.989925250046784e6 -92723.4370112152 0.0
0.0 0.0 0.0

-2.9201258660252513e6 3.3879152269069427e6 0.0
3.3879152269069427e6 984985.2222651204 0.0
0.0 0.0 0.0

-2.0482778315614683e6 3.879399382137573e6 0.0
3.879399382137573e6 644382.0207985579 0.0
0.0 0.0 0.0

-2.366356580867756e6 3.5323452898313166e6 0.0
3.5323452898313166e6 862594.8423310699 0.0
0.0 0.0 0.0

-3.3273875198724987e6 4.735323010230711e6 0.0
4.735323010230711e6 1.712931350955421e6 0.0
0.0 0.0 0.0

-818234.593522094 4.0640548869596478e6 0.0
4.0640548869596478e6 -193819.33717905788 0.0
0.0 0.0 0.0

-3.7226794781399313e6 3.554407276170785e6 0.0
3.554407276170785e6 1.648050537878434e6 0.0
0.0 0.0 0.0

167842.77115656016 2.7632259818341844e6 0.0
2.7632259818341844e6 -971676.2827555528 0.0
0.0 0.0 0.0

-538425.1196687678 3.462885112866029e6 0.0
3.462885112866029e6 -1.0332842286062918e6 0.0
0.0 0.0 0.0

311785.13587592193 288933.6234190907 0.0
288933.6234190907 -473193.1947431035 0.0
0.0 0.0 0.0

-1.6725039050489457e6 4.664202426203197e6 0.0
4.664202426203197e6 92352.14800865063 0.0
0.0 0.0 0.0

-774581.7911394308 -1.2670622713816524e6 0.0
-1.2670622713816524e6 1.1721933415299787e6 0.0
0.0 0.0 0.0

-2.357182872739118e6 5.644725402531791e6 0.0
5.644725402531791e6 747409.3928409003 0.0
0.0 0.0 0.0

-364839.28855055844 4.654083264228126e6 0.0
4.654083264228126e6 -1.280017895864253e6 0.0
0.0 0.0 0.0

-697996.2281736559 4.371047281645517e6 0.0
4.371047281645517e6 -848705.2254535954 0.0
0.0 0.0 0.0

-1.3438840420182701e6 2.4199166223663827e6 0.0
2.4199166223663827e6 -36353.28958823974 0.0
0.0 0.0 0.0

-239225.57021582773 5.059039430194269e6 0.0
5.059039430194269e6 -1.9626824049119642e6 0.0
0.0 0.0 0.0

1.4553319982677116e6 1.5420849540853677e6 0.0
1.5420849540853677e6 -2.0615324176663416e6 0.0
0.0 0.0 0.0

-681651.7104274143 5.169841826797703e6 0.0
5.169841826797703e6 -153967.58454619732 0.0
0.0 0.0 0.0

-419436.65994365374 4.556711271174215e6 0.0
4.556711271174215e6 -517457.7490403092 0.0
0.0 0.0 0.0

-1.9969967040008171e6 3.0414730824144897e6 0.0
3.0414730824144897e6 862325.3843439855 0.0
0.0 0.0 0.0

1.0605803172705912e6 3.3215296784260888e6 0.0
3.3215296784260888e6 -1.8425346312424033e6 0.0
0.0 0.0 0.0

212606.55882015725 883568.4444518328 0.0
883568.4444518328 -145653.618172122 0.0
0.0 0.0 0.0

972659.4519845577 3.22110761086498e6 0.0
3.22110761086498e6 -1.8804534617182428e6 0.0
0.0 0.0 0.0

597133.6296899321 124971.53388565172 0.0
124971.53388565172 -637350.6312976286 0.0
0.0 0.0 0.0

-2.207142109990292e6 3.1197787525212476e6 0.0
3.1197787525212476e6 983318.756100803 0.0
0.0 0.0 0.0

-468671.84613482805 4.561548345335416e6 0.0
4.561548345335416e6 -509165.5571616406 0.0
0.0 0.0 0.0

-637334.7104237154 4.682438966759048e6 0.0
4.682438966759048e6 -1.044812042434657e6 0.0
0.0 0.0 0.0

-1.0008776387606913e6 3.2115866948664594e6 0.0
3.2115866948664594e6 -204736.65251180698 0.0
0.0 0.0 0.0

-190936.8006112035 24402.64430602869 0.0
24402.64430602869 176825.28988207097 0.0
0.0 0.0 0.0

-985717.4278149904 5.391238959851704e6 0.0
5.391238959851704e6 141774.187908748 0.0
0.0 0.0 0.0

-2.0848707631842676e6 4.8187350286404975e6 0.0
4.8187350286404975e6 2.084277733894614e6 0.0
0.0 0.0 0.0

366620.5704746053 4.83591987728186e6 0.0
4.83591987728186e6 -1.899055055721995e6 0.0
0.0 0.0 0.0

-294017.38934728736 331082.36231560126 0.0
331082.36231560126 231442.86324070866 0.0
0.0 0.0 0.0

-1.0429215391200073e6 3.7300420629909933e6 0.0
3.7300420629909933e6 733620.2565910711 0.0
0.0 0.0 0.0

-2.213742673654191e6 2.3176492267729635e6 0.0
2.3176492267729635e6 5.761727660537183e6 0.0
0.0 0.0 0.0

-861223.0251685816 2.996992868915799e6 0.0
2.996992868915799e6 1.047507648756624e6 0.0
0.0 0.0 0.0

-829316.3653879483 3.1186043236105833e6 0.0
3.1186043236105833e6 -1.135719974803676e6 0.0
0.0 0.0 0.0

-905086.6269686883 3.5831102856022767e6 0.0
3.5831102856022767e6 591363.6558006187 0.0
0.0 0.0 0.0

-332574.201526278 4.773879120117147e6 0.0
4.773879120117147e6 -448185.3316161907 0.0
0.0 0.0 0.0

-556439.8269742792 4.963217835297115e6 0.0
4.963217835297115e6 -631316.1778663564 0.0
0.0 0.0 0.0

-1.1885357389647672e6 5.218728975989616e6 0.0
5.218728975989616e6 -194712.6392378461 0.0
0.0 0.0 0.0

613603.2753615667 4.826949079611751e6 0.0
4.826949079611751e6 -1.8084052182517515e6 0.0
0.0 0.0 0.0

715794.3971350845 4.408754474455833e6 0.0
4.408754474455833e6 -1.9079052599059986e6 0.0
0.0 0.0 0.0

-1.0585629154334748e6 2.370174215989778e6 0.0
2.370174215989778e6 38983.47641376167 0.0
0.0 0.0 0.0

-1.0227286288492082e6 1.6973467379992802e6 0.0
1.6973467379992802e6 2.190246470787572e6 0.0
0.0 0.0 0.0

-615806.3179263473 4.818895031480003e6 0.0
4.818895031480003e6 -737295.2387340348 0.0
0.0 0.0 0.0

-3.4888353449178035e6 -2.0695267945401403e6 0.0
-2.0695267945401403e6 5.441740580566959e6 0.0
0.0 0.0 0.0

23130.79836877063 1.8644850514324312e6 0.0
1.8644850514324312e6 -1.6961386702168188e6 0.0
0.0 0.0 0.0

-8.549918558906628e6 2.8262399054317614e6 0.0
2.8262399054317614e6 2.1420367707928628e7 0.0
0.0 0.0 0.0

989214.5299087042 3.398977940398288e6 0.0
3.398977940398288e6 -1.9604393962573372e6 0.0
0.0 0.0 0.0

-842774.44868745 4.322979030744575e6 0.0
4.322979030744575e6 -86191.01734223333 0.0
0.0 0.0 0.0

-1.2685375517365357e6 3.4136792071094667e6 0.0
3.4136792071094667e6 1.1812598612386887e6 0.0
0.0 0.0 0.0

-962420.4214027992 3.071314403428923e6 0.0
3.071314403428923e6 -1.2024257827184305e6 0.0
0.0 0.0 0.0

-2.2726547643464096e6 2.1670256969347736e6 0.0
2.1670256969347736e6 1.886723483780305e6 0.0
0.0 0.0 0.0

-1.0213452095057262e6 4.795491923496994e6 0.0
4.795491923496994e6 182158.2855558977 0.0
0.0 0.0 0.0

-1.4615067850468112e6 3.899671163742959e6 0.0
3.899671163742959e6 1.185802227080186e6 0.0
0.0 0.0 0.0

-1.4826405206218467e6 3.6381128906581113e6 0.0
3.6381128906581113e6 645038.4294472889 0.0
0.0 0.0 0.0

-734432.182927755 4.818646492577404e6 0.0
4.818646492577404e6 -39099.90508061569 0.0
0.0 0.0 0.0

-561892.0343010754 2.4072010558257108e6 0.0
2.4072010558257108e6 -764068.7192952982 0.0
0.0 0.0 0.0

-751414.8548795416 2.430331515163358e6 0.0
2.430331515163358e6 596931.8523902141 0.0
0.0 0.0 0.0

-771687.7428432257 3.3164185749375857e6 0.0
3.3164185749375857e6 -1.1866810264649817e6 0.0
0.0 0.0 0.0

-988734.1424839738 4.218061137467144e6 0.0
4.218061137467144e6 924401.2770630916 0.0
0.0 0.0 0.0

-1.14905009627221e6 4.810513603125548e6 0.0
4.810513603125548e6 -52652.25170875399 0.0
0.0 0.0 0.0

-734474.3006860233 1.577753739226484e6 0.0
1.577753739226484e6 -357570.45769503835 0.0
0.0 0.0 0.0

-8.47746779220102e6 -5.259826479391114e6 0.0
-5.259826479391114e6 1.8172648812302e7 0.0
0.0 0.0 0.0

-921035.4978137924 2.6480812543166624e6 0.0
2.6480812543166624e6 -983521.9690923167 0.0
0.0 0.0 0.0

-807918.3933188791 3.36708188096176e6 0.0
3.36708188096176e6 1.9298777158767062e6 0.0
0.0 0.0 0.0

-2.984998090496448e6 3.785113681481018e6 0.0
3.785113681481018e6 1.2139368200973033e6 0.0
0.0 0.0 0.0

-824421.3398368114 3.6963671721948395e6 0.0
3.6963671721948395e6 2.276738586453233e6 0.0
0.0 0.0 0.0

-1.5144778880795971e6 3.4575241355690104e6 0.0
3.4575241355690104e6 3.7319325753347436e6 0.0
0.0 0.0 0.0

-1.1983190655151466e6 4.248690780427116e6 0.0
4.248690780427116e6 1.1314871620708834e6 0.0
0.0 0.0 0.0

-349816.36466028227 3.6925136517619006e6 0.0
3.6925136517619006e6 -939980.3609698045 0.0
0.0 0.0 0.0

-1.2463501972059023e6 4.156927366844317e6 0.0
4.156927366844317e6 791010.7944978217 0.0
0.0 0.0 0.0

-1.1164797562736669e6 3.1807084243227057e6 0.0
3.1807084243227057e6 251506.8509318342 0.0
0.0 0.0 0.0

-1.0287903423872773e6 3.2126525697072386e6 0.0
3.2126525697072386e6 81114.4107893515 0.0
0.0 0.0 0.0

885708.0597040275 3.030938421015978e6 0.0
3.030938421015978e6 -1.9755950204039405e6 0.0
0.0 0.0 0.0

-1.592049219381657e6 4.555159221288434e6 0.0
4.555159221288434e6 310993.6889987234 0.0
0.0 0.0 0.0

-556345.1445863512 3.159567191027081e6 0.0
3.159567191027081e6 -1.3126273844238608e6 0.0
0.0 0.0 0.0

752326.1056478749 3.0728601581710824e6 0.0
3.0728601581710824e6 -1.846245005284783e6 0.0
0.0 0.0 0.0

-2.4007270110584805e6 5.138507289106139e6 0.0
5.138507289106139e6 752195.4486894528 0.0
0.0 0.0 0.0

-1.710879247395596e6 3.7711690632848334e6 0.0
3.7711690632848334e6 1.625013892702495e6 0.0
0.0 0.0 0.0

-1.6025439540654214e6 -1.2184553104394912e6 0.0
-1.2184553104394912e6 2.7815663629137333e6 0.0
0.0 0.0 0.0

-481354.13043783815 2.8930495459431587e6 0.0
2.8930495459431587e6 527319.4825180441 0.0
0.0 0.0 0.0

-249002.82936083685 3.789866553503331e6 0.0
3.789866553503331e6 -733315.971970629 0.0
0.0 0.0 0.0

-529393.0061358726 4.81754118909655e6 0.0
4.81754118909655e6 -1.0664088921297682e6 0.0
0.0 0.0 0.0

848107.0284853856 3.516616572564874e6 0.0
3.516616572564874e6 -2.0918976720731396e6 0.0
0.0 0.0 0.0

-185980.1328606535 5.043873520982292e6 0.0
5.043873520982292e6 -644184.288170786 0.0
0.0 0.0 0.0

-554079.2480370724 4.844815339277539e6 0.0
4.844815339277539e6 -978826.8274431416 0.0
0.0 0.0 0.0

-882654.684472945 4.033806545869167e6 0.0
4.033806545869167e6 -543170.0023246157 0.0
0.0 0.0 0.0

542601.514440998 1.1617825495182984e6 0.0
1.1617825495182984e6 -423541.0966753419 0.0
0.0 0.0 0.0

684724.5652170691 45026.18539367172 0.0
45026.18539367172 -699626.1245897096 0.0
0.0 0.0 0.0

-1.0732191226737644e6 4.770167419003685e6 0.0
4.770167419003685e6 -123773.40508313008 0.0
0.0 0.0 0.0

-235294.12951066205 4.7145409382428555e6 0.0
4.7145409382428555e6 -1.6498718276899273e6 0.0
0.0 0.0 0.0

-617764.732689258 3.9862576996433637e6 0.0
3.9862576996433637e6 -1.2852531454319353e6 0.0
0.0 0.0 0.0

-8.1621660052240705e6 -5.711330715245778e6 0.0
-5.711330715245778e6 1.6647672811565872e7 0.0
0.0 0.0 0.0

-3.756425579271489e6 3.3794615644203504e6 0.0
3.3794615644203504e6 1.6171826461053807e6 0.0
0.0 0.0 0.0

-9955.071283134428 1.419514425928504e6 0.0
1.419514425928504e6 -793084.9250997966 0.0
0.0 0.0 0.0

-519037.17919124523 4.619152672261963e6 0.0
4.619152672261963e6 -492802.60093115387 0.0
0.0 0.0 0.0

-1.131556798784716e6 3.888598921402548e6 0.0
3.888598921402548e6 441413.48763438035 0.0
0.0 0.0 0.0

-903971.6181506115 2.4663766964856996e6 0.0
2.4663766964856996e6 1.2131072398243104e6 0.0
0.0 0.0 0.0

-1.66580136668141e6 4.742850895864506e6 0.0
4.742850895864506e6 -8544.746281407191 0.0
0.0 0.0 0.0

-412564.91554054397 3.6209489968760554e6 0.0
3.6209489968760554e6 -280977.9503115533 0.0
0.0 0.0 0.0

-919937.7596541839 3.979375014005377e6 0.0
3.979375014005377e6 225427.22327663912 0.0
0.0 0.0 0.0

-479508.64897662995 4.687467160971278e6 0.0
4.687467160971278e6 -1.0393660967668076e6 0.0
0.0 0.0 0.0

594395.9346480733 638458.4143670003 0.0
638458.4143670003 -1.0026470847261725e6 0.0
0.0 0.0 0.0

-468413.727794698 4.813062023673688e6 0.0
4.813062023673688e6 -1.1482362243867447e6 0.0
0.0 0.0 0.0

-852137.6009755414 4.275905780137625e6 0.0
4.275905780137625e6 -399522.9346300619 0.0
0.0 0.0 0.0

-2.072405884232136e6 3.6545330247582323e6 0.0
3.6545330247582323e6 713372.1681227034 0.0
0.0 0.0 0.0

-561973.065224211 5.059653424716435e6 0.0
5.059653424716435e6 -468938.51184460707 0.0
0.0 0.0 0.0

-586305.4738083982 4.974913562739959e6 0.0
4.974913562739959e6 -534862.6839404639 0.0
0.0 0.0 0.0

981504.9340372783 3.4741397602229477e6 0.0
3.4741397602229477e6 -1.9900828083334237e6 0.0
0.0 0.0 0.0

-491811.606593296 4.371048210562383e6 0.0
4.371048210562383e6 -776536.3182322064 0.0
0.0 0.0 0.0

-1.042604190710481e6 4.0897984300334654e6 0.0
4.0897984300334654e6 -217171.79897880927 0.0
0.0 0.0 0.0

-344817.8783398748 3.0312750081726783e6 0.0
3.0312750081726783e6 -233138.99584519552 0.0
0.0 0.0 0.0

-7.488301683264488e6 3.4060172270153556e6 0.0
3.4060172270153556e6 2.6101727180369557e6 0.0
0.0 0.0 0.0

5.346377715137327e6 1.4466744505564675e7 0.0
1.4466744505564675e7 1.7821395317679223e7 0.0
0.0 0.0 0.0

-338033.34099906357 3.7609360967148654e6 0.0
3.7609360967148654e6 -1.126782004489419e6 0.0
0.0 0.0 0.0

-785991.4635175334 3.806583107801222e6 0.0
3.806583107801222e6 1.3256655771781693e6 0.0
0.0 0.0 0.0

-409651.25600789953 4.409962136268499e6 0.0
4.409962136268499e6 -1.364511838871823e6 0.0
0.0 0.0 0.0

-1.6181651070124123e6 3.886505566220702e6 0.0
3.886505566220702e6 1.084783346069048e6 0.0
0.0 0.0 0.0

-3.9704674252208536e6 6.0520955827750815e6 0.0
6.0520955827750815e6 2.211824289806485e6 0.0
0.0 0.0 0.0

-423471.73369077756 4.831133506910384e6 0.0
4.831133506910384e6 -1.4143741124310014e6 0.0
0.0 0.0 0.0

-1.368097548122947e6 5.614428044847169e6 0.0
5.614428044847169e6 383083.9611541523 0.0
0.0 0.0 0.0

-683952.7485474402 3.185893287002027e6 0.0
3.185893287002027e6 58906.22710714111 0.0
0.0 0.0 0.0

-2.4861544178000884e6 3.6445167041092496e6 0.0
3.6445167041092496e6 1.3645511063487513e6 0.0
0.0 0.0 0.0

-258179.5482637743 4.416871658778322e6 0.0
4.416871658778322e6 -1.622064538966677e6 0.0
0.0 0.0 0.0

-972318.6739610176 5.082654534211889e6 0.0
5.082654534211889e6 255831.8366933653 0.0
0.0 0.0 0.0

-1.5650221864471307e6 3.7999681027415614e6 0.0
3.7999681027415614e6 533968.0941752577 0.0
0.0 0.0 0.0

-197808.5887466001 6.137665224529333e6 0.0
6.137665224529333e6 -716124.9757772894 0.0
0.0 0.0 0.0

-502122.14543784177 4.497131863105718e6 0.0
4.497131863105718e6 -680724.2722356257 0.0
0.0 0.0 0.0

-1.0654369472446686e6 4.030695383181895e6 0.0
4.030695383181895e6 1.315438205114989e6 0.0
0.0 0.0 0.0

-2.1841804845296335e6 4.9467099296192285e6 0.0
4.9467099296192285e6 -148677.03072769952 0.0
0.0 0.0 0.0

-699126.0622162109 4.263373167050776e6 0.0
4.263373167050776e6 -917534.7104082905 0.0
0.0 0.0 0.0

-2.4135291131147183e6 5.415144243679001e6 0.0
5.415144243679001e6 840749.7517917549 0.0
0.0 0.0 0.0

-675203.609657809 5.949059748195425e6 0.0
5.949059748195425e6 -112402.53505943816 0.0
0.0 0.0 0.0

-318196.00663241034 3.780506716150545e6 0.0
3.780506716150545e6 -1.1619841672669284e6 0.0
0.0 0.0 0.0

-947483.4486697546 2.4400684972889917e6 0.0
2.4400684972889917e6 2.6004931954906443e6 0.0
0.0 0.0 0.0

-491122.3024495441 4.692150829251946e6 0.0
4.692150829251946e6 -1.1420158468487943e6 0.0
0.0 0.0 0.0

-1.4741063053848448e6 3.5775408366625477e6 0.0
3.5775408366625477e6 234761.45444644376 0.0
0.0 0.0 0.0

-1.12928755468491e6 3.0908239209881234e6 0.0
3.0908239209881234e6 410508.64680718444 0.0
0.0 0.0 0.0

436.71091889525997 220903.3635336615 0.0
220903.3635336615 -600447.8883660845 0.0
0.0 0.0 0.0

-376875.94211868057 4.659358529879836e6 0.0
4.659358529879836e6 -602282.3000016491 0.0
0.0 0.0 0.0

-1.087712662220712e6 5.34873601216202e6 0.0
5.34873601216202e6 -189317.50573224973 0.0
0.0 0.0 0.0

-201873.00520256342 2.7544688208859437e6 0.0
2.7544688208859437e6 -1.4354788396010832e6 0.0
0.0 0.0 0.0

-212274.85587833234 2.9741173549063136e6 0.0
2.9741173549063136e6 -427647.1308772743 0.0
0.0 0.0 0.0

-2.872728229534522e6 8.528907725146452e6 0.0
8.528907725146452e6 1.3916855494134119e6 0.0
0.0 0.0 0.0

838299.1963634962 4.548591252231488e6 0.0
4.548591252231488e6 -1.4437292921197012e6 0.0
0.0 0.0 0.0

-394215.71935704246 4.59746185125764e6 0.0
4.59746185125764e6 -565561.7512639413 0.0
0.0 0.0 0.0

-848183.7275975959 4.973740780231807e6 0.0
4.973740780231807e6 -342854.5723227777 0.0
0.0 0.0 0.0

-1.205843085176776e7 9.915245459278408e6 0.0
9.915245459278408e6 5.321395233369989e7 0.0
0.0 0.0 0.0

-57946.53831733686 4.0194344396866527e6 0.0
4.0194344396866527e6 -438414.2372588712 0.0
0.0 0.0 0.0

-48353.09535362001 3.9462816554107806e6 0.0
3.9462816554107806e6 1.9231207223838507e6 0.0
0.0 0.0 0.0

-580361.5968191826 6.039796776270981e6 0.0
6.039796776270981e6 -248005.29345477995 0.0
0.0 0.0 0.0

-650933.1061806832 1.4593249180285423e6 0.0
1.4593249180285423e6 -113401.8233661595 0.0
0.0 0.0 0.0

-1.0434572851328847e6 8.809936430816866e6 0.0
8.809936430816866e6 1.0167372066222867e6 0.0
0.0 0.0 0.0

-484954.7947108769 4.600964535751753e6 0.0
4.600964535751753e6 -238437.51434146578 0.0
0.0 0.0 0.0

-175729.9250061163 5.781994360916222e6 0.0
5.781994360916222e6 -732095.5265708446 0.0
0.0 0.0 0.0

-1.6886104346035388e6 3.8863083986303047e6 0.0
3.8863083986303047e6 476078.06857044087 0.0
0.0 0.0 0.0

-976009.635663054 3.229113218618367e6 0.0
3.229113218618367e6 -110768.13085486455 0.0
0.0 0.0 0.0

1.535539133791333e6 106791.5528848708 0.0
106791.5528848708 -1.9448423568425209e6 0.0
0.0 0.0 0.0

-1.9230982240922824e6 4.162488657981229e6 0.0
4.162488657981229e6 2.304799187437634e6 0.0
0.0 0.0 0.0

-1.933891634781874e6 4.1095522655940033e6 0.0
4.1095522655940033e6 671709.4083452288 0.0
0.0 0.0 0.0

-662492.1985876583 3.412859172538666e6 0.0
3.412859172538666e6 1.597811937068443e6 0.0
0.0 0.0 0.0

-1.4880788092055928e6 4.723043163622996e6 0.0
4.723043163622996e6 183905.0554239988 0.0
0.0 0.0 0.0

-1.6634144413707464e6 3.843302560718602e6 0.0
3.843302560718602e6 566876.7271208735 0.0
0.0 0.0 0.0

-498303.56333249307 3.387041412357802e6 0.0
3.387041412357802e6 -1.0531589754446198e6 0.0
0.0 0.0 0.0

-928339.7586824058 3.3399643138461784e6 0.0
3.3399643138461784e6 2.302686360293933e6 0.0
0.0 0.0 0.0

-1.6937709808984166e6 4.12813959776575e6 0.0
4.12813959776575e6 584669.4141941444 0.0
0.0 0.0 0.0

-944356.2895879655 3.4682952842684514e6 0.0
3.4682952842684514e6 -76494.54231981345 0.0
0.0 0.0 0.0

-1.2841799390500221e7 2.8539443158413945e6 0.0
2.8539443158413945e6 7.914178661602931e6 0.0
0.0 0.0 0.0

-1.9962584570567298e6 -800346.8833536913 0.0
-800346.8833536913 3.6092906512582097e6 0.0
0.0 0.0 0.0

-1.5222198128263955e6 4.754150947201362e6 0.0
4.754150947201362e6 124937.95445243048 0.0
0.0 0.0 0.0

-2.42358067677131e6 3.887714596709057e6 0.0
3.887714596709057e6 283402.58350669954 0.0
0.0 0.0 0.0

-265974.3398888334 5.061283064187755e6 0.0
5.061283064187755e6 -1.7327232229558288e6 0.0
0.0 0.0 0.0

-3.5416375187748885e6 3.450475322698096e6 0.0
3.450475322698096e6 1.2967975261002926e6 0.0
0.0 0.0 0.0

-4.019454335514125e6 3.284878178110658e6 0.0
3.284878178110658e6 1.7831333288581942e6 0.0
0.0 0.0 0.0

-4.723303378948599e6 3.18900126581971e6 0.0
3.18900126581971e6 2.152957403089091e6 0.0
0.0 0.0 0.0

-2.6884017375403666e6 4.227919614466951e6 0.0
4.227919614466951e6 1.2940706248347457e6 0.0
0.0 0.0 0.0

-523088.276985271 2.0132004835887596e6 0.0
2.0132004835887596e6 -5202.157521991292 0.0
0.0 0.0 0.0

942675.2918642679 3.193990138977461e6 0.0
3.193990138977461e6 -2.0488259399767935e6 0.0
0.0 0.0 0.0

-999745.9865927019 3.336571442310355e6 0.0
3.336571442310355e6 789081.1352227657 0.0
0.0 0.0 0.0

-2.723957194912252e6 5.418376734033449e6 0.0
5.418376734033449e6 1.0652223780759557e6 0.0
0.0 0.0 0.0

-389799.05612263945 4.653755561789036e6 0.0
4.653755561789036e6 -1.3632250156357612e6 0.0
0.0 0.0 0.0

-108064.47645020095 -1.0166447414154224e6 0.0
-1.0166447414154224e6 572965.3829268053 0.0
0.0 0.0 0.0

-387770.9759773721 4.542684726802659e6 0.0
4.542684726802659e6 -528624.4131383036 0.0
0.0 0.0 0.0

-574102.5926425068 4.876357482078815e6 0.0
4.876357482078815e6 -880479.9840143633 0.0
0.0 0.0 0.0

-514267.6150413776 4.814123859123799e6 0.0
4.814123859123799e6 -1.152004332995299e6 0.0
0.0 0.0 0.0

-637947.9513065806 3.023148298484902e6 0.0
3.023148298484902e6 -1.3893367788421807e6 0.0
0.0 0.0 0.0

604846.8392904652 214753.09531799462 0.0
214753.09531799462 -848484.3390554343 0.0
0.0 0.0 0.0

-656207.2550188627 4.531752760632889e6 0.0
4.531752760632889e6 -964692.7187388095 0.0
0.0 0.0 0.0

-305002.83428234444 4.596927250630973e6 0.0
4.596927250630973e6 -571639.6211537501 0.0
0.0 0.0 0.0

988100.4158035297 4.236654721782275e6 0.0
4.236654721782275e6 -193142.85876969213 0.0
0.0 0.0 0.0

-4.6224027581128e6 2.8693044753083424e6 0.0
2.8693044753083424e6 2.3793587571817874e6 0.0
0.0 0.0 0.0

-993271.7936306968 3.2339821863377583e6 0.0
3.2339821863377583e6 -41549.83551751758 0.0
0.0 0.0 0.0

-823897.0904315517 2.4214081090683504e6 0.0
2.4214081090683504e6 -1.0172563599306723e6 0.0
0.0 0.0 0.0

945026.5815362615 4.039393086533461e6 0.0
4.039393086533461e6 -1.600634318854276e6 0.0
0.0 0.0 0.0

224053.3434653981 100831.66538833945 0.0
100831.66538833945 -220072.9181467137 0.0
0.0 0.0 0.0

-5.261500703053337e6 4.099550620761078e6 0.0
4.099550620761078e6 2.5891304311610265e6 0.0
0.0 0.0 0.0

-2.321935332106204e6 5.166671358691846e6 0.0
5.166671358691846e6 -499289.362432563 0.0
0.0 0.0 0.0

-630341.6298217811 3.8983311370021487e6 0.0
3.8983311370021487e6 -1.0481739878113682e6 0.0
0.0 0.0 0.0

-2.8688134125253917e6 4.621125988151594e6 0.0
4.621125988151594e6 1.319168365342481e6 0.0
0.0 0.0 0.0

673182.320603498 2.8863985604617856e6 0.0
2.8863985604617856e6 -1.4447530180554274e6 0.0
0.0 0.0 0.0

-446733.5184758102 5.692181883812332e6 0.0
5.692181883812332e6 -554505.9323889632 0.0
0.0 0.0 0.0

-466248.2904263594 3.1689117962548425e6 0.0
3.1689117962548425e6 165696.9243137816 0.0
0.0 0.0 0.0

-321965.5794047356 4.423752155014031e6 0.0
4.423752155014031e6 -1.4347569653752411e6 0.0
0.0 0.0 0.0

-2.405558643877922e6 3.195284901748668e6 0.0
3.195284901748668e6 1.145233855169754e6 0.0
0.0 0.0 0.0

-118044.62387560282 3.514250505259632e6 0.0
3.514250505259632e6 -1.0172432242103334e6 0.0
0.0 0.0 0.0

-327285.70565995516 4.465048844534299e6 0.0
4.465048844534299e6 -1.4864806094340696e6 0.0
0.0 0.0 0.0

-531415.8364913629 3.9147805545826224e6 0.0
3.9147805545826224e6 -1.1723573028023378e6 0.0
0.0 0.0 0.0

-1.89847615418373e6 4.1833818475377485e6 0.0
4.1833818475377485e6 243672.71278690652 0.0
0.0 0.0 0.0

-737988.0045078751 2.4053274550421895e6 0.0
2.4053274550421895e6 -1.2737684517824042e6 0.0
0.0 0.0 0.0

-1.3633430976257292e6 8.20128319556944e6 0.0
8.20128319556944e6 1.0780092758452278e6 0.0
0.0 0.0 0.0

-996048.4999085248 5.498234813362162e6 0.0
5.498234813362162e6 -208223.7804090239 0.0
0.0 0.0 0.0

-3.052262423774056e6 3.470852685711177e6 0.0
3.470852685711177e6 1.0137308689609922e6 0.0
0.0 0.0 0.0

-1.5893929622702417e6 4.168370156015721e6 0.0
4.168370156015721e6 517872.8363209785 0.0
0.0 0.0 0.0

769523.811763649 3.02046989336195e6 0.0
3.02046989336195e6 -1.5568017040253421e6 0.0
0.0 0.0 0.0

-1.2417155115392823e6 4.674226284528025e6 0.0
4.674226284528025e6 502829.133570696 0.0
0.0 0.0 0.0

856897.3741059287 3.5823267779787914e6 0.0
3.5823267779787914e6 -1.7969682541054876e6 0.0
0.0 0.0 0.0

-1.367880226717457e6 3.146734190251508e6 0.0
3.146734190251508e6 238926.47716531542 0.0
0.0 0.0 0.0

-1.271873298167818e6 3.0302074447160554e6 0.0
3.0302074447160554e6 193806.09124077705 0.0
0.0 0.0 0.0

-670300.192653571 3.9664031018444165e6 0.0
3.9664031018444165e6 -1.0215361207469713e6 0.0
0.0 0.0 0.0

-741515.7643053262 4.740502716450588e6 0.0
4.740502716450588e6 -33867.5660051037 0.0
0.0 0.0 0.0

-2.6936838296359316e6 3.8039106022295104e6 0.0
3.8039106022295104e6 1.3384691616783496e6 0.0
0.0 0.0 0.0

-1.2969267864974274e6 3.332575629763978e6 0.0
3.332575629763978e6 642543.1203611398 0.0
0.0 0.0 0.0

-31642.390543928697 -48195.93197798731 0.0
-48195.93197798731 23023.95601699946 0.0
0.0 0.0 0.0

785191.0095683648 3.8968830693766144e6 0.0
3.8968830693766144e6 -2.0807229242434695e6 0.0
0.0 0.0 0.0

476222.403864578 5.037337004093496e6 0.0
5.037337004093496e6 -2.0900769848901588e6 0.0
0.0 0.0 0.0

-3.1586676780318446e6 5.134634305791047e6 0.0
5.134634305791047e6 1.7417253903096088e6 0.0
0.0 0.0 0.0

-1.5883559141903366e6 4.340924705261435e6 0.0
4.340924705261435e6 800576.7829329021 0.0
0.0 0.0 0.0

-266578.13345363503 5.087270339781608e6 0.0
5.087270339781608e6 -1.8322360984730974e6 0.0
0.0 0.0 0.0

-3.5593191255604243e6 4.0563581938789203e6 0.0
4.0563581938789203e6 3.829960472328338e6 0.0
0.0 0.0 0.0

414299.23339506076 538070.0700534395 0.0
538070.0700534395 -504845.1945001385 0.0
0.0 0.0 0.0

-822101.889581349 3.097332312768039e6 0.0
3.097332312768039e6 1.1230022701880664e6 0.0
0.0 0.0 0.0

-2.760629879035805e6 3.050102752872351e6 0.0
3.050102752872351e6 327425.4003731753 0.0
0.0 0.0 0.0

-203993.82980476198 4.2903646020964375e6 0.0
4.2903646020964375e6 -556641.8793958364 0.0
0.0 0.0 0.0

-239698.1723123612 4.9984951744787255e6 0.0
4.9984951744787255e6 -618485.1405043588 0.0
0.0 0.0 0.0

-2.0923762392340116e6 4.201084557493537e6 0.0
4.201084557493537e6 340504.5078007252 0.0
0.0 0.0 0.0

-874356.6346558183 4.806192258780271e6 0.0
4.806192258780271e6 177051.83531395963 0.0
0.0 0.0 0.0

-2.33012337569796e6 3.1337652858239426e6 0.0
3.1337652858239426e6 3.248741332876412e6 0.0
0.0 0.0 0.0

-1.893654848163883e6 5.3777795543462075e6 0.0
5.3777795543462075e6 -346237.39061198145 0.0
0.0 0.0 0.0

-1.6674089414704898e6 4.746313639549478e6 0.0
4.746313639549478e6 109612.27458227554 0.0
0.0 0.0 0.0

-2.669912974211513e6 83360.35550888398 0.0
83360.35550888398 3.027137965310525e6 0.0
0.0 0.0 0.0

-1.544986033634448e7 2.7070646278715604e6 0.0
2.7070646278715604e6 1.408734969417344e7 0.0
0.0 0.0 0.0

264305.4832388575 4.0503033632527795e6 0.0
4.0503033632527795e6 -398768.77658350754 0.0
0.0 0.0 0.0

-398204.1848682247 4.514453037169772e6 0.0
4.514453037169772e6 -1.6851501094190874e6 0.0
0.0 0.0 0.0

-1.573726565913055e6 3.7386522923280494e6 0.0
3.7386522923280494e6 455274.5020412358 0.0
0.0 0.0 0.0

-598792.6799684345 4.7653311503354255e6 0.0
4.7653311503354255e6 -834744.6342845443 0.0
0.0 0.0 0.0

2.4118466949085635e6 5.143523418733156e6 0.0
5.143523418733156e6 1.2946693468176043e6 0.0
0.0 0.0 0.0

282617.07842861343 365625.871124492 0.0
365625.871124492 -645180.1032010649 0.0
0.0 0.0 0.0

1.344287537216404e6 1.435525915067256e6 0.0
1.435525915067256e6 -2.124998770360103e6 0.0
0.0 0.0 0.0

-632898.7956765725 4.466753499456068e6 0.0
4.466753499456068e6 -534218.2740651374 0.0
0.0 0.0 0.0

-707994.0653997192 4.501508377434462e6 0.0
4.501508377434462e6 -1.0120159747290052e6 0.0
0.0 0.0 0.0

-205184.6704457751 -37812.957048708224 0.0
-37812.957048708224 985211.7052530785 0.0
0.0 0.0 0.0

-797634.0567851777 5.7675086316837175e6 0.0
5.7675086316837175e6 3174.1981993362424 0.0
0.0 0.0 0.0

-4.887533774355574e6 2.7857651878082217e6 0.0
2.7857651878082217e6 2.3419978898442565e6 0.0
0.0 0.0 0.0

347364.10612802405 5.135292819994358e6 0.0
5.135292819994358e6 -833428.3673545076 0.0
0.0 0.0 0.0

512697.62458273716 191953.15106465755 0.0
191953.15106465755 -679423.8561460711 0.0
0.0 0.0 0.0

-7.212975024851375e6 579169.8658436475 0.0
579169.8658436475 7.830052040942764e6 0.0
0.0 0.0 0.0

-132384.1498830345 3.4782808223730708e6 0.0
3.4782808223730708e6 -976637.967942451 0.0
0.0 0.0 0.0

-5.013561034184732e6 2.603433714214076e6 0.0
2.603433714214076e6 2.505221441151106e6 0.0
0.0 0.0 0.0

-899459.5682388792 3.1192785760232387e6 0.0
3.1192785760232387e6 584546.1844101617 0.0
0.0 0.0 0.0

-485786.3083931955 5.100843900462642e6 0.0
5.100843900462642e6 -871640.8716874449 0.0
0.0 0.0 0.0

-505644.1222940559 2.773144286988353e6 0.0
2.773144286988353e6 -1.5994149618982433e6 0.0
0.0 0.0 0.0

-701005.7925616864 3.9011468575705662e6 0.0
3.9011468575705662e6 -1.1140865684110268e6 0.0
0.0 0.0 0.0

-352111.58358731517 5.552370666182274e6 0.0
5.552370666182274e6 -540135.90108864 0.0
0.0 0.0 0.0

-5.107738442825596e6 1.308227304941277e7 0.0
1.308227304941277e7 -847412.0734713394 0.0
0.0 0.0 0.0

514584.6924236088 245270.10886163914 0.0
245270.10886163914 -698415.178827075 0.0
0.0 0.0 0.0

-3.7836223999689673e6 5.866030877450273e6 0.0
5.866030877450273e6 1.6896845815404758e6 0.0
0.0 0.0 0.0

-2.232290254460523e6 5.5232165284042135e6 0.0
5.5232165284042135e6 1.2249440849240646e6 0.0
0.0 0.0 0.0

-56306.90423180429 266072.8971778956 0.0
266072.8971778956 245713.88953750592 0.0
0.0 0.0 0.0

924825.9577692315 3.217027949620903e6 0.0
3.217027949620903e6 -2.02937530642408e6 0.0
0.0 0.0 0.0

-1.8254322317368276e6 4.471200965941469e6 0.0
4.471200965941469e6 290436.0271355392 0.0
0.0 0.0 0.0

-1.2026180665885457e6 3.271736825312368e6 0.0
3.271736825312368e6 1.4313558656438468e6 0.0
0.0 0.0 0.0

-814945.9923061917 430985.48735754914 0.0
430985.48735754914 1.192554281889063e6 0.0
0.0 0.0 0.0

-799672.9575862922 3.245256172867051e6 0.0
3.245256172867051e6 47530.466395919735 0.0
0.0 0.0 0.0

-1.2978529343162808e6 3.720123849841811e6 0.0
3.720123849841811e6 1.6716100951969456e6 0.0
0.0 0.0 0.0

-1.1052981388986472e6 2.676248449655564e6 0.0
2.676248449655564e6 -325383.6485855803 0.0
0.0 0.0 0.0

-507192.971985587 3.369153181094256e6 0.0
3.369153181094256e6 -1.2748236170621507e6 0.0
0.0 0.0 0.0

-2.3785015339423837e6 4.906359964936798e6 0.0
4.906359964936798e6 859018.8594120179 0.0
0.0 0.0 0.0

204693.9612427324 344591.07841278944 0.0
344591.07841278944 -425357.2120889605 0.0
0.0 0.0 0.0

-1.7318162848693896e6 3.3544550949828494e6 0.0
3.3544550949828494e6 465685.48868448555 0.0
0.0 0.0 0.0

-880405.8632293291 1.9724031239360666e6 0.0
1.9724031239360666e6 1.983548176342394e6 0.0
0.0 0.0 0.0

-503288.2722500686 2.4398027562461053e6 0.0
2.4398027562461053e6 -607293.4753728306 0.0
0.0 0.0 0.0

-899376.8063119502 4.652521203271969e6 0.0
4.652521203271969e6 -376102.60686443 0.0
0.0 0.0 0.0

-4.13591769323468e6 5.685413632128229e6 0.0
5.685413632128229e6 2.4130501805272577e6 0.0
0.0 0.0 0.0

-232917.56152193702 5.07106583436902e6 0.0
5.07106583436902e6 -1.7183535930020227e6 0.0
0.0 0.0 0.0

-7.720663654562529e6 1.9738341196674325e6 0.0
1.9738341196674325e6 1.6718454980015336e6 0.0
0.0 0.0 0.0

1.9681699104841822e6 -86402.17498162172 0.0
-86402.17498162172 -1.9134848556243547e6 0.0
0.0 0.0 0.0

1.845824274081608e6 -4282.138854910159 0.0
-4282.138854910159 -2.316681473549045e6 0.0
0.0 0.0 0.0

-206312.36560004833 4.96043233006863e6 0.0
4.96043233006863e6 -249125.65427105682 0.0
0.0 0.0 0.0

-1.2572147467367603e6 5.202203002462189e6 0.0
5.202203002462189e6 2.6694082701526163e6 0.0
0.0 0.0 0.0

-361368.1889023921 4.566744913343367e6 0.0
4.566744913343367e6 -518871.18721190514 0.0
0.0 0.0 0.0

-406898.54132981494 3.115783325032858e6 0.0
3.115783325032858e6 -234814.18704009222 0.0
0.0 0.0 0.0

-957159.8333997333 1.1416846165927802e6 0.0
1.1416846165927802e6 273922.83442567236 0.0
0.0 0.0 0.0

-662926.1498244279 4.741153511805744e6 0.0
4.741153511805744e6 -298452.8703264573 0.0
0.0 0.0 0.0

-2.8787717877532323e6 4.284517051768586e6 0.0
4.284517051768586e6 1.5333726584064825e6 0.0
0.0 0.0 0.0

-404078.8897158294 4.647635661915306e6 0.0
4.647635661915306e6 -1.7629167219441496e6 0.0
0.0 0.0 0.0

-1.4389361839326557e6 3.448457471921935e6 0.0
3.448457471921935e6 2.3725311525155487e6 0.0
0.0 0.0 0.0

340938.3849308035 3.6302364617811795e6 0.0
3.6302364617811795e6 -1.2472688324358503e6 0.0
0.0 0.0 0.0

-5.477313129686767e6 2.2485396546228053e6 0.0
2.2485396546228053e6 2.97477291086831e6 0.0
0.0 0.0 0.0

-556519.1306114935 4.0555754467687444e6 0.0
4.0555754467687444e6 -168422.12221149766 0.0
0.0 0.0 0.0

527595.5070707464 1.8393731000168344e6 0.0
1.8393731000168344e6 -1.0170537937652572e6 0.0
0.0 0.0 0.0

-458103.0859143584 2.7604367505159164e6 0.0
2.7604367505159164e6 -860.1824103169783 0.0
0.0 0.0 0.0

-2.8410582045935243e6 4.244665565905809e6 0.0
4.244665565905809e6 1.446306930500565e6 0.0
0.0 0.0 0.0

-2.839095572068164e6 4.147152769686528e6 0.0
4.147152769686528e6 4.0164131741045755e6 0.0
0.0 0.0 0.0

-4.837709910494903e6 -1.9770377477593403e6 0.0
-1.9770377477593403e6 6.648321347972546e6 0.0
0.0 0.0 0.0

-414937.87596784014 4.683081280631048e6 0.0
4.683081280631048e6 -473807.1700177459 0.0
0.0 0.0 0.0

-543707.0679792553 2.7744246634551566e6 0.0
2.7744246634551566e6 -1.494278982722387e6 0.0
0.0 0.0 0.0

-1.4972543755896566e6 4.1720492496452825e6 0.0
4.1720492496452825e6 2.198869604386607e6 0.0
0.0 0.0 0.0

-797447.7417663573 2.8343946013206057e6 0.0
2.8343946013206057e6 1.9200272144644887e6 0.0
0.0 0.0 0.0

-1.0297133215887126e6 2.518463865642793e6 0.0
2.518463865642793e6 -404997.4114766829 0.0
0.0 0.0 0.0

-6.681674858059837e6 4.0632422700540414e6 0.0
4.0632422700540414e6 1.9215366669660036e7 0.0
0.0 0.0 0.0

-886023.4140982911 5.64858874516851e6 0.0
5.64858874516851e6 -310988.40023786586 0.0
0.0 0.0 0.0

-503727.1361214349 4.659320814955504e6 0.0
4.659320814955504e6 -1.077435098278299e6 0.0
0.0 0.0 0.0

-1.3829018655276317e6 2.1992497277785246e6 0.0
2.1992497277785246e6 433974.1376598247 0.0
0.0 0.0 0.0

903052.3240586278 3.7123031998320315e6 0.0
3.7123031998320315e6 -2.1312949729689667e6 0.0
0.0 0.0 0.0

-4.3626684564842135e6 5.298356317975543e6 0.0
5.298356317975543e6 2.3817500885194195e6 0.0
0.0 0.0 0.0

-446663.4411926267 2.8156389351801667e6 0.0
2.8156389351801667e6 159490.78853236456 0.0
0.0 0.0 0.0

-157113.40931674663 5.0687109395515025e6 0.0
5.0687109395515025e6 -598001.6540516255 0.0
0.0 0.0 0.0

-1.525288934858943e6 4.705938464755882e6 0.0
4.705938464755882e6 104142.63763063849 0.0
0.0 0.0 0.0

-2.020286558224366e6 3.1787413232371197e6 0.0
3.1787413232371197e6 765099.4806011413 0.0
0.0 0.0 0.0

-781100.4751382687 3.042722153715241e6 0.0
3.042722153715241e6 366761.6278936594 0.0
0.0 0.0 0.0

110566.28755331476 5.221551492192807e6 0.0
5.221551492192807e6 -1.4618350244498185e6 0.0
0.0 0.0 0.0

-5.094570117287131e6 2.4541237337414594e6 0.0
2.4541237337414594e6 1.6801319353362569e6 0.0
0.0 0.0 0.0

-747232.2046797657 3.6499372222267347e6 0.0
3.6499372222267347e6 1.3358748981415522e6 0.0
0.0 0.0 0.0

474692.75330599194 347775.1990043813 0.0
347775.1990043813 -788500.462730373 0.0
0.0 0.0 0.0

-2.208000044927232e6 3.9881575880027846e6 0.0
3.9881575880027846e6 377131.01424943714 0.0
0.0 0.0 0.0

-8.508488947078798e6 -207291.87739057787 0.0
-207291.87739057787 4.808216342553165e6 0.0
0.0 0.0 0.0

-1.6093563793767462e6 4.386111828124521e6 0.0
4.386111828124521e6 880317.0527566662 0.0
0.0 0.0 0.0

-2.991061626620819e6 3.7956072891708207e6 0.0
3.7956072891708207e6 403474.09276823944 0.0
0.0 0.0 0.0

-1.4709391863040638e6 5.50290662095516e6 0.0
5.50290662095516e6 -143369.55814527883 0.0
0.0 0.0 0.0

-1.1865880496103875e6 3.156600462017183e6 0.0
3.156600462017183e6 547842.7183071867 0.0
0.0 0.0 0.0

-123805.66358529506 2.954384633819627e6 0.0
2.954384633819627e6 -116698.10964066617 0.0
0.0 0.0 0.0

-1.0080234364400633e6 3.174181793828157e6 0.0
3.174181793828157e6 -129118.30970941638 0.0
0.0 0.0 0.0

-1.3743388552299473e6 4.684453631401998e6 0.0
4.684453631401998e6 284723.8956638528 0.0
0.0 0.0 0.0

-105771.8514910125 -562525.2317020396 0.0
-562525.2317020396 607355.0962435643 0.0
0.0 0.0 0.0

-199907.89766256104 3.5890892365850923e6 0.0
3.5890892365850923e6 -1.0280263263058919e6 0.0
0.0 0.0 0.0

-377670.02825049806 2.5267276484526335e6 0.0
2.5267276484526335e6 -1.0163597491551115e6 0.0
0.0 0.0 0.0

-467844.3615936027 4.578114979517284e6 0.0
4.578114979517284e6 -1.0749788844357494e6 0.0
0.0 0.0 0.0

196228.71487006015 231619.95534691715 0.0
231619.95534691715 -167671.35572315325 0.0
0.0 0.0 0.0

-711114.8925982247 3.8937158128291904e6 0.0
3.8937158128291904e6 -987966.9026657182 0.0
0.0 0.0 0.0

-1.5216558992057284e6 4.693059418905151e6 0.0
4.693059418905151e6 123281.79391995247 0.0
0.0 0.0 0.0

-468774.8263744878 4.551793234665327e6 0.0
4.551793234665327e6 -42144.684076869526 0.0
0.0 0.0 0.0

-536137.2059653049 4.421940003833181e6 0.0
4.421940003833181e6 -538047.0758874163 0.0
0.0 0.0 0.0

-426060.04243709927 4.553684988101519e6 0.0
4.553684988101519e6 -558885.9931766875 0.0
0.0 0.0 0.0

-3.6560450434693755e6 5.627489675726151e6 0.0
5.627489675726151e6 1.6290366226526578e6 0.0
0.0 0.0 0.0

-577967.5237497047 4.942341812261522e6 0.0
4.942341812261522e6 -765188.1998901409 0.0
0.0 0.0 0.0

1.4403220214003203e6 8.037008944448315e6 0.0
8.037008944448315e6 188099.63698560168 0.0
0.0 0.0 0.0

-446756.1280422888 5.187957136388364e6 0.0
5.187957136388364e6 -775165.2522907144 0.0
0.0 0.0 0.0

-451747.372228951 4.867705593315266e6 0.0
4.867705593315266e6 -1.4716657810003974e6 0.0
0.0 0.0 0.0

-627032.0090414528 5.111486600333921e6 0.0
5.111486600333921e6 -550616.2549027097 0.0
0.0 0.0 0.0

-9.397772213180192e6 1.8245482007915485e6 0.0
1.8245482007915485e6 8.253830954092165e6 0.0
0.0 0.0 0.0

-1.52873282185337e6 4.716031360789294e6 0.0
4.716031360789294e6 124134.05119915435 0.0
0.0 0.0 0.0

294175.8792305308 5.119638550902119e6 0.0
5.119638550902119e6 -1.6286982099135264e6 0.0
0.0 0.0 0.0

-474175.52776152693 3.9597291284417906e6 0.0
3.9597291284417906e6 -1.4041666935158852e6 0.0
0.0 0.0 0.0

-674456.6825920304 4.736645475568804e6 0.0
4.736645475568804e6 839370.0757148947 0.0
0.0 0.0 0.0

853191.8609281481 3.155999464420926e6 0.0
3.155999464420926e6 -1.6237528634165162e6 0.0
0.0 0.0 0.0

-573798.0635532176 5.075553122003154e6 0.0
5.075553122003154e6 -369374.4266934778 0.0
0.0 0.0 0.0

897977.513321298 3.755825057435717e6 0.0
3.755825057435717e6 -1.9014033794320254e6 0.0
0.0 0.0 0.0

-976262.4716370065 4.435755963134204e6 0.0
4.435755963134204e6 -289297.9508524255 0.0
0.0 0.0 0.0

-908745.6600461343 5.572711315310268e6 0.0
5.572711315310268e6 71887.91484160209 0.0
0.0 0.0 0.0

-2.0970044586361828e6 3.1222725840626936e6 0.0
3.1222725840626936e6 836206.9733824304 0.0
0.0 0.0 0.0

-2.431148110463794e6 3.117554259948331e6 0.0
3.117554259948331e6 538138.4061003663 0.0
0.0 0.0 0.0

-1.077930908684146e6 2.519294758244327e6 0.0
2.519294758244327e6 1.5090896861229069e6 0.0
0.0 0.0 0.0

-703180.5022716556 3.681589155859821e6 0.0
3.681589155859821e6 -416296.9289222082 0.0
0.0 0.0 0.0

-3.1351564350603484e6 2.4183936603970733e6 0.0
2.4183936603970733e6 155972.87123283977 0.0
0.0 0.0 0.0

183844.49854115307 2.455289566635442e6 0.0
2.455289566635442e6 619685.4353863703 0.0
0.0 0.0 0.0

-578265.5904031958 3.3197482287012776e6 0.0
3.3197482287012776e6 -259184.69283182465 0.0
0.0 0.0 0.0

-2.1258450609746543e6 3.9667556947725457e6 0.0
3.9667556947725457e6 387081.3140608446 0.0
0.0 0.0 0.0

-1.8097520502627087e6 5.523866461702934e6 0.0
5.523866461702934e6 285814.88164250564 0.0
0.0 0.0 0.0

-348050.7704684202 2.731446492962418e6 0.0
2.731446492962418e6 -727668.4343109981 0.0
0.0 0.0 0.0

943344.4025940375 3.25099255629855e6 0.0
3.25099255629855e6 -2.0742900282788235e6 0.0
0.0 0.0 0.0

-623467.9119427318 3.879159616197846e6 0.0
3.879159616197846e6 -1.0789328748183353e6 0.0
0.0 0.0 0.0

1.4367763687866584e6 5.822258069003487e6 0.0
5.822258069003487e6 -1.0584958950066566e6 0.0
0.0 0.0 0.0

-837718.650201732 2.6491210734976823e6 0.0
2.6491210734976823e6 2.265915641853571e6 0.0
0.0 0.0 0.0

-1.8558744148374565e6 4.358512298267722e6 0.0
4.358512298267722e6 180901.76531725377 0.0
0.0 0.0 0.0

190027.55883401964 -798373.6053725716 0.0
-798373.6053725716 327726.5105069984 0.0
0.0 0.0 0.0

-3.398675071053056e6 3.6395885089924326e6 0.0
3.6395885089924326e6 1.4313429309284717e6 0.0
0.0 0.0 0.0

-8.4690627192567e6 1.3816315288491324e6 0.0
1.3816315288491324e6 5.490729392171042e6 0.0
0.0 0.0 0.0

-546613.8174438789 4.674292117002029e6 0.0
4.674292117002029e6 -978249.835472034 0.0
0.0 0.0 0.0

-127342.24145844842 5.040572489021425e6 0.0
5.040572489021425e6 -483611.9069219802 0.0
0.0 0.0 0.0

-653288.7217825121 4.426035387195227e6 0.0
4.426035387195227e6 -999284.2636479924 0.0
0.0 0.0 0.0

-1.4992194818540763e6 3.5787317391558546e6 0.0
3.5787317391558546e6 518685.64240352064 0.0
0.0 0.0 0.0

-629252.6484703985 2.6518081788036427e6 0.0
2.6518081788036427e6 -855678.9334489868 0.0
0.0 0.0 0.0

202396.03143567767 5.32960398062606e6 0.0
5.32960398062606e6 -1.676512362290619e6 0.0
0.0 0.0 0.0

-1.1513339947698733e6 1.417196897905817e6 0.0
1.417196897905817e6 68160.90628974087 0.0
0.0 0.0 0.0

-2.0726052494589721e6 3.990259231888082e6 0.0
3.990259231888082e6 434617.8091684105 0.0
0.0 0.0 0.0

-1.2830849178690633e6 2.6485785629662257e6 0.0
2.6485785629662257e6 -114720.74588865985 0.0
0.0 0.0 0.0

308422.133642072 3.5262706392304525e6 0.0
3.5262706392304525e6 1.6096752833262815e6 0.0
0.0 0.0 0.0

921001.9620742156 3.276554563183242e6 0.0
3.276554563183242e6 -2.0497003641013007e6 0.0
0.0 0.0 0.0

-228020.9087873387 4.928326397766884e6 0.0
4.928326397766884e6 -303674.9323270607 0.0
0.0 0.0 0.0

-703868.0178376663 914569.777806196 0.0
914569.777806196 -521395.4082998266 0.0
0.0 0.0 0.0

-2.027694374560082e6 4.989130722788879e6 0.0
4.989130722788879e6 986164.5397812367 0.0
0.0 0.0 0.0

-316168.98001554236 4.618710604104e6 0.0
4.618710604104e6 -506956.05130152847 0.0
0.0 0.0 0.0

-152256.07695457473 471659.6058259402 0.0
471659.6058259402 1.0088679656735397e6 0.0
0.0 0.0 0.0

414419.80639439286 461737.8264785442 0.0
461737.8264785442 -556806.6284425016 0.0
0.0 0.0 0.0

-1.199860247538231e6 5.692203997628752e6 0.0
5.692203997628752e6 -118470.08934106934 0.0
0.0 0.0 0.0

-5.887556798916703e6 -2.3762995310053146e6 0.0
-2.3762995310053146e6 6.679433581878537e6 0.0
0.0 0.0 0.0

-423525.29891449533 4.669228269969005e6 0.0
4.669228269969005e6 -1.2779376600841943e6 0.0
0.0 0.0 0.0

-2.9511690089502223e6 2.5118413049250357e6 0.0
2.5118413049250357e6 3.005503962640307e6 0.0
0.0 0.0 0.0

-1.1020909707419015e6 3.191962641483831e6 0.0
3.191962641483831e6 286033.1461299637 0.0
0.0 0.0 0.0

-1.17309208002549e7 -1.342765606797924e6 0.0
-1.342765606797924e6 7.154218048335606e6 0.0
0.0 0.0 0.0

-324191.7360611117 4.5414615457618665e6 0.0
4.5414615457618665e6 -1.3951569072366748e6 0.0
0.0 0.0 0.0

-598029.4114987266 4.835810525980076e6 0.0
4.835810525980076e6 -448254.48968496453 0.0
0.0 0.0 0.0

249649.42224438285 1.35197004717753e6 0.0
1.35197004717753e6 -758519.5173067178 0.0
0.0 0.0 0.0

-2.214614289131175e6 6.3922686985990405e6 0.0
6.3922686985990405e6 78350.882082831 0.0
0.0 0.0 0.0

-1.941205029636232e6 6.452503403713419e6 0.0
6.452503403713419e6 883702.7891745497 0.0
0.0 0.0 0.0

-3.0964223580860416e6 3.7436573170186523e6 0.0
3.7436573170186523e6 1.387226758853161e6 0.0
0.0 0.0 0.0

-1.6086611197391637e6 3.4125682384668435e6 0.0
3.4125682384668435e6 557996.4550706098 0.0
0.0 0.0 0.0

-682043.0768768446 2.1712155280498313e6 0.0
2.1712155280498313e6 779150.6200790389 0.0
0.0 0.0 0.0

-950356.5352366383 4.928434530031579e6 0.0
4.928434530031579e6 149776.23824352922 0.0
0.0 0.0 0.0

-3.497217989229904e6 3.690436234030906e6 0.0
3.690436234030906e6 1.4462825603887918e6 0.0
0.0 0.0 0.0

-376941.61178335984 2.7030219316272708e6 0.0
2.7030219316272708e6 -975014.087907341 0.0
0.0 0.0 0.0

-3.2249238771778634e6 3.742073368207531e6 0.0
3.742073368207531e6 1.3396917434260843e6 0.0
0.0 0.0 0.0

-1.9116239311485093e6 4.695877368083709e6 0.0
4.695877368083709e6 2.795252104866175e6 0.0
0.0 0.0 0.0

-504185.3012833606 2.812694088271707e6 0.0
2.812694088271707e6 65976.56918315275 0.0
0.0 0.0 0.0

922284.9762885665 3.4002345620745155e6 0.0
3.4002345620745155e6 -2.1091752236525593e6 0.0
0.0 0.0 0.0

-1.636389718538836e6 4.706984040400668e6 0.0
4.706984040400668e6 123297.3854314934 0.0
0.0 0.0 0.0

-2.4455942832541666e6 3.916709413384899e6 0.0
3.916709413384899e6 1.0460261792806012e6 0.0
0.0 0.0 0.0

-1.9433952005072248e6 4.03668521111364e6 0.0
4.03668521111364e6 859668.0046964108 0.0
0.0 0.0 0.0

-6.905602712793778e6 4.236869579710515e6 0.0
4.236869579710515e6 1.3911341746833348e6 0.0
0.0 0.0 0.0

-494783.8204792543 4.714296995374587e6 0.0
4.714296995374587e6 -913939.201287201 0.0
0.0 0.0 0.0

-2.7739689522592477e6 4.078747602882252e6 0.0
4.078747602882252e6 1.4643326363659694e6 0.0
0.0 0.0 0.0

-1.260175347834121e6 3.144551836672208e6 0.0
3.144551836672208e6 575693.6353760181 0.0
0.0 0.0 0.0

-1.1127286079546984e7 154103.1332936281 0.0
154103.1332936281 7.85941225167162e6 0.0
0.0 0.0 0.0

-313355.55487978295 4.635959415023201e6 0.0
4.635959415023201e6 -547895.8001442167 0.0
0.0 0.0 0.0

-3.0583166097080284e6 3.7364551903557405e6 0.0
3.7364551903557405e6 4.612743094178423e6 0.0
0.0 0.0 0.0

874192.2250208118 3.5213281856877883e6 0.0
3.5213281856877883e6 -2.2809955772049935e6 0.0
0.0 0.0 0.0

-4.609238707405003e6 2.078626831256264e6 0.0
2.078626831256264e6 825321.7928285275 0.0
0.0 0.0 0.0

82132.58749500962 -514692.9825358079 0.0
-514692.9825358079 528575.7176619853 0.0
0.0 0.0 0.0

-548508.7370577892 -1.051062351517222e6 0.0
-1.051062351517222e6 1.0953805713472464e6 0.0
0.0 0.0 0.0

310160.72547325795 432612.7434297765 0.0
432612.7434297765 -646545.0139344848 0.0
0.0 0.0 0.0

-514718.0707295552 1.6035208444174696e6 0.0
1.6035208444174696e6 664465.53829314 0.0
0.0 0.0 0.0

-3.4529915482614352e6 2.760781371279925e6 0.0
2.760781371279925e6 3.8160148699085643e6 0.0
0.0 0.0 0.0

-355470.13033183286 4.7446311112945285e6 0.0
4.7446311112945285e6 -1.4949276962162293e6 0.0
0.0 0.0 0.0

-4.901182897656703e6 2.215116945657574e6 0.0
2.215116945657574e6 1.9355041553760485e6 0.0
0.0 0.0 0.0

-578438.5534122045 2.8262633039965383e6 0.0
2.8262633039965383e6 168626.05011802015 0.0
0.0 0.0 0.0

-724044.3194007666 3.7169561485773367e6 0.0
3.7169561485773367e6 -1.3651684391399322e6 0.0
0.0 0.0 0.0

-5.648413090303711e6 87178.50379220332 0.0
87178.50379220332 6.508736378321249e6 0.0
0.0 0.0 0.0

-402287.0188013162 -1.0998826919397216e6 0.0
-1.0998826919397216e6 940555.7188865701 0.0
0.0 0.0 0.0

-538704.7257143047 4.458546552631181e6 0.0
4.458546552631181e6 -768913.1290868656 0.0
0.0 0.0 0.0

-1.0136141209703451e6 2.8736269674107055e6 0.0
2.8736269674107055e6 -1.0643295040960533e6 0.0
0.0 0.0 0.0

-1.1594417354909156e6 5.289815753287137e6 0.0
5.289815753287137e6 243900.47750780976 0.0
0.0 0.0 0.0

-4.3112594480070565e6 -162915.50859838075 0.0
-162915.50859838075 5.318028191114534e6 0.0
0.0 0.0 0.0

1.37380006669095e6 4.737747354972729e6 0.0
4.737747354972729e6 1.8513694973301133e6 0.0
0.0 0.0 0.0

-335482.71362484863 3.30565428525374e6 0.0
3.30565428525374e6 -1.4259294344002595e6 0.0
0.0 0.0 0.0

-456842.87369376444 4.600127976992238e6 0.0
4.600127976992238e6 -973044.7828345356 0.0
0.0 0.0 0.0

-525226.9626731208 3.303308623581642e6 0.0
3.303308623581642e6 -1.1444170130137487e6 0.0
0.0 0.0 0.0

849264.8674346537 3.5263115400780463e6 0.0
3.5263115400780463e6 -2.2035623558122413e6 0.0
0.0 0.0 0.0

-2.2005513631476243e6 4.479245685247461e6 0.0
4.479245685247461e6 1.1582343622294911e6 0.0
0.0 0.0 0.0

-426608.93882493523 4.041032456024499e6 0.0
4.041032456024499e6 -1.4688718890353818e6 0.0
0.0 0.0 0.0

-514544.0676911619 4.927633370722963e6 0.0
4.927633370722963e6 -742275.5300883645 0.0
0.0 0.0 0.0

-720675.3000581651 4.519424032286434e6 0.0
4.519424032286434e6 -1.0368201373095699e6 0.0
0.0 0.0 0.0

-544539.3000340295 3.0641207112508956e6 0.0
3.0641207112508956e6 100621.37615568575 0.0
0.0 0.0 0.0

-1.4353759944309574e6 3.5115598647620683e6 0.0
3.5115598647620683e6 417023.22468373575 0.0
0.0 0.0 0.0

-509943.3517026816 4.247669844744434e6 0.0
4.247669844744434e6 617460.1881423912 0.0
0.0 0.0 0.0

883438.530825278 3.049420789884584e6 0.0
3.049420789884584e6 -2.083816909521335e6 0.0
0.0 0.0 0.0

-2.015706486291633e6 494689.87771418004 0.0
494689.87771418004 1.1317896323352982e6 0.0
0.0 0.0 0.0

-1.5903566025662757e6 3.563590441028561e6 0.0
3.563590441028561e6 2.1072223816192644e6 0.0
0.0 0.0 0.0

-467464.69923718553 4.823883414091453e6 0.0
4.823883414091453e6 -1.2695258474751092e6 0.0
0.0 0.0 0.0

2.063441961635985e6 7.18583475265917e6 0.0
7.18583475265917e6 -656834.6891676369 0.0
0.0 0.0 0.0

-358886.7424339184 4.693040695031375e6 0.0
4.693040695031375e6 -1.3024159857992753e6 0.0
0.0 0.0 0.0

-2.255738952324937e6 4.33390212434297e6 0.0
4.33390212434297e6 800954.3068649552 0.0
0.0 0.0 0.0

-2.325822281597156e6 3.163572567242687e6 0.0
3.163572567242687e6 1.0388698171465644e6 0.0
0.0 0.0 0.0

-7.670857193812401e6 5.531771723674839e6 0.0
5.531771723674839e6 6.626158561026171e6 0.0
0.0 0.0 0.0

-414943.81394158717 1.2907645133407335e6 0.0
1.2907645133407335e6 1.0096652047326432e6 0.0
0.0 0.0 0.0

92068.25249645047 -616401.5910505027 0.0
-616401.5910505027 549613.4415021181 0.0
0.0 0.0 0.0

-808476.7951156651 14589.659223062037 0.0
14589.659223062037 1.027341215770429e6 0.0
0.0 0.0 0.0

-2.9206419399794852e6 3.6273625709271613e6 0.0
3.6273625709271613e6 1.1155104348541102e6 0.0
0.0 0.0 0.0

-50131.187811868964 4.884418001107886e6 0.0
4.884418001107886e6 -1.5647628134277475e6 0.0
0.0 0.0 0.0

-1.5197208978066943e6 4.134678430566288e6 0.0
4.134678430566288e6 568274.5169942955 0.0
0.0 0.0 0.0

-536966.727123198 4.741688393885632e6 0.0
4.741688393885632e6 -797553.6713396629 0.0
0.0 0.0 0.0

-1.040451856886054e6 3.1937250920792534e6 0.0
3.1937250920792534e6 54806.65570609644 0.0
0.0 0.0 0.0

-1.5436821080413237e6 4.656785493014867e6 0.0
4.656785493014867e6 160436.49117190845 0.0
0.0 0.0 0.0

-749702.4878538236 5.7725526307535e6 0.0
5.7725526307535e6 -379084.147312687 0.0
0.0 0.0 0.0

-1.2146189742768845e6 4.568801943827666e6 0.0
4.568801943827666e6 450253.94519283983 0.0
0.0 0.0 0.0

-1.5150658636538615e6 3.908154374216751e6 0.0
3.908154374216751e6 777858.2054036867 0.0
0.0 0.0 0.0

-567453.3184236028 3.3806816825179807e6 0.0
3.3806816825179807e6 -1.2548809884026328e6 0.0
0.0 0.0 0.0

-587068.2981501233 2.763427119299508e6 0.0
2.763427119299508e6 222063.5581889863 0.0
0.0 0.0 0.0

-2.933137502123722e6 3.5451008285430945e6 0.0
3.5451008285430945e6 1.040380340884116e6 0.0
0.0 0.0 0.0

836441.0651257049 3.07659215378817e6 0.0
3.07659215378817e6 -1.9033998563849307e6 0.0
0.0 0.0 0.0

-3.3141218065788266e6 -1.947152114794258e6 0.0
-1.947152114794258e6 5.746482517845398e6 0.0
0.0 0.0 0.0

-1.1576460378918638e6 4.82050616679796e6 0.0
4.82050616679796e6 596960.6289351315 0.0
0.0 0.0 0.0

-2.9476658795728516e6 3.5800265870304764e6 0.0
3.5800265870304764e6 1.1995272355692093e6 0.0
0.0 0.0 0.0

-198294.6792308229 4.767501245025176e6 0.0
4.767501245025176e6 -1.8665553287382012e6 0.0
0.0 0.0 0.0

-2.550499979799641e6 4.563827963316844e6 0.0
4.563827963316844e6 1.0154286558480297e6 0.0
0.0 0.0 0.0

181146.62034103042 5.325074884764239e6 0.0
5.325074884764239e6 -1.749752143539902e6 0.0
0.0 0.0 0.0

-416098.3347246286 2.861915891829645e6 0.0
2.861915891829645e6 41536.81821491927 0.0
0.0 0.0 0.0

-4.262619402143097e6 2.4825413951369864e6 0.0
2.4825413951369864e6 507030.4195553055 0.0
0.0 0.0 0.0

-1.7608991965801152e6 4.907513219852291e6 0.0
4.907513219852291e6 -171390.18091782188 0.0
0.0 0.0 0.0

-1.4599167992686874e6 4.5562363395533245e6 0.0
4.5562363395533245e6 370565.69274083606 0.0
0.0 0.0 0.0

562455.1606693368 -36209.48692073202 0.0
-36209.48692073202 -804653.7705314932 0.0
0.0 0.0 0.0

-1.9263245397041785e6 5.0745533706058925e6 0.0
5.0745533706058925e6 77168.34408486984 0.0
0.0 0.0 0.0

-1.55912135349329e6 4.697836063981505e6 0.0
4.697836063981505e6 134953.88330092712 0.0
0.0 0.0 0.0

936679.0229145514 3.45548810644018e6 0.0
3.45548810644018e6 -2.024278871508804e6 0.0
0.0 0.0 0.0

-994004.7464596578 3.205792314849928e6 0.0
3.205792314849928e6 -105668.843489564 0.0
0.0 0.0 0.0

-519615.2069973245 3.126966213469006e6 0.0
3.126966213469006e6 -92366.16630475593 0.0
0.0 0.0 0.0

-3.322348265192097e6 5.761907199257016e6 0.0
5.761907199257016e6 1.8422677688760448e6 0.0
0.0 0.0 0.0

198647.90179734322 481183.7834892541 0.0
481183.7834892541 -573971.0623156183 0.0
0.0 0.0 0.0

-680668.9376860613 2.721610202882147e6 0.0
2.721610202882147e6 311724.6343713102 0.0
0.0 0.0 0.0

-3.2572695657079536e6 3.7172038616500534e6 0.0
3.7172038616500534e6 1.3592948319052353e6 0.0
0.0 0.0 0.0

-933645.854521908 -1.099801280529773e6 0.0
-1.099801280529773e6 2.0279062724264124e6 0.0
0.0 0.0 0.0

627251.1668499529 197749.72507067843 0.0
197749.72507067843 -731460.2145327742 0.0
0.0 0.0 0.0

710289.3279793382 3.754963358594621e6 0.0
3.754963358594621e6 -1.859746452230284e6 0.0
0.0 0.0 0.0

-1.460791668210221e6 3.6232516584528983e6 0.0
3.6232516584528983e6 436282.24552599783 0.0
0.0 0.0 0.0

-697828.8471487093 1.3097222237175568e6 0.0
1.3097222237175568e6 1.6227021211683727e6 0.0
0.0 0.0 0.0

-550155.2700985724 4.573463693887056e6 0.0
4.573463693887056e6 -700549.0048431621 0.0
0.0 0.0 0.0

-537241.8197644899 4.597492194884039e6 0.0
4.597492194884039e6 -808654.1047733915 0.0
0.0 0.0 0.0

53833.76693019131 4.96906287174602e6 0.0
4.96906287174602e6 -1.6663560475973296e6 0.0
0.0 0.0 0.0

-387118.0125413898 4.699217028275812e6 0.0
4.699217028275812e6 -1.3941009227944212e6 0.0
0.0 0.0 0.0

-313167.21937293286 4.0307953872125437e6 0.0
4.0307953872125437e6 -654085.2302602471 0.0
0.0 0.0 0.0

-950666.7026113613 1.6198972409762407e6 0.0
1.6198972409762407e6 1.4533773133369838e6 0.0
0.0 0.0 0.0

-2.2994819028181382e6 4.495836680911195e6 0.0
4.495836680911195e6 769910.0989085536 0.0
0.0 0.0 0.0

-1.9903871465860356e6 4.169800018055497e6 0.0
4.169800018055497e6 344823.91183913674 0.0
0.0 0.0 0.0

-3.0034023891661926e6 3.627660194673039e6 0.0
3.627660194673039e6 1.1215792513613785e6 0.0
0.0 0.0 0.0

363921.74132934725 9.674154917990409e6 0.0
9.674154917990409e6 1.2927921873534286e7 0.0
0.0 0.0 0.0

-1.6017511355200375e6 3.6261484690793413e6 0.0
3.6261484690793413e6 573012.2508293894 0.0
0.0 0.0 0.0

-497492.42848476395 4.569683492251769e6 0.0
4.569683492251769e6 -884771.0100274733 0.0
0.0 0.0 0.0

-414388.3763304309 4.742505180110863e6 0.0
4.742505180110863e6 -1.3566014918000984e6 0.0
0.0 0.0 0.0

-466468.18887852156 4.65543383167764e6 0.0
4.65543383167764e6 -1.0036162330436319e6 0.0
0.0 0.0 0.0

-2.807217236625121e6 4.680093025511668e6 0.0
4.680093025511668e6 1.4300755516650502e6 0.0
0.0 0.0 0.0

-1.4050234698773772e6 3.4746641256783176e6 0.0
3.4746641256783176e6 421928.3961897773 0.0
0.0 0.0 0.0

-602748.8573931832 4.459270262060973e6 0.0
4.459270262060973e6 -947056.2082264137 0.0
0.0 0.0 0.0

-496150.15519582736 4.833213582213349e6 0.0
4.833213582213349e6 -1.2313185172373687e6 0.0
0.0 0.0 0.0

-830773.7516994228 3.272290023523086e6 0.0
3.272290023523086e6 -270361.3317539248 0.0
0.0 0.0 0.0

-4.760981058621407e6 7.531609008063887e6 0.0
7.531609008063887e6 1.821665012101688e6 0.0
0.0 0.0 0.0

983223.0890444409 3.3955871582328505e6 0.0
3.3955871582328505e6 -1.9626136402004333e6 0.0
0.0 0.0 0.0

3.1739120966941486e6 4.627008632249065e6 0.0
4.627008632249065e6 409135.98088390124 0.0
0.0 0.0 0.0

627792.8041619081 1.0676623723601574e7 0.0
1.0676623723601574e7 -5.535512890032332e6 0.0
0.0 0.0 0.0

-442193.32883479935 4.685856645633568e6 0.0
4.685856645633568e6 -359693.11597518926 0.0
0.0 0.0 0.0

-371052.8608234507 4.225271154305607e6 0.0
4.225271154305607e6 -14646.30143690799 0.0
0.0 0.0 0.0

-2.2815247557248627e6 5.043369825655658e6 0.0
5.043369825655658e6 -94843.87392574933 0.0
0.0 0.0 0.0

-1.3547493541414633e7 582591.2514060559 0.0
582591.2514060559 9.740284918305077e6 0.0
0.0 0.0 0.0

-1.0901959573123464e6 3.33813852782079e6 0.0
3.33813852782079e6 -127680.76112898294 0.0
0.0 0.0 0.0

-2.525216733263309e6 3.880427194215875e6 0.0
3.880427194215875e6 1.3892378636996727e6 0.0
0.0 0.0 0.0

-435741.2262767852 4.582718744615644e6 0.0
4.582718744615644e6 -1.0602298408582567e6 0.0
0.0 0.0 0.0

549821.0685782954 3.5871388667996693e6 0.0
3.5871388667996693e6 -1.389965746916773e6 0.0
0.0 0.0 0.0

-492567.3714452067 4.603373304799091e6 0.0
4.603373304799091e6 -1.0925478505093828e6 0.0
0.0 0.0 0.0

-416158.53189597896 4.262786542557698e6 0.0
4.262786542557698e6 -1.4838484382135002e6 0.0
0.0 0.0 0.0

-557706.7887260517 3.133680974786024e6 0.0
3.133680974786024e6 -238483.1756888791 0.0
0.0 0.0 0.0

-390204.4222248158 4.593116224371691e6 0.0
4.593116224371691e6 21887.309166237115 0.0
0.0 0.0 0.0

-486764.49576477916 3.4318861762463856e6 0.0
3.4318861762463856e6 -864720.106511962 0.0
0.0 0.0 0.0

-664789.7904448403 -118243.03624703326 0.0
-118243.03624703326 501497.25491981785 0.0
0.0 0.0 0.0

-391734.7113350702 -77826.38932456203 0.0
-77826.38932456203 379412.2507770441 0.0
0.0 0.0 0.0

-2.0979495318593676e6 3.937136207849684e6 0.0
3.937136207849684e6 559244.69719711 0.0
0.0 0.0 0.0

-749147.9752433725 4.118749626367794e6 0.0
4.118749626367794e6 429014.63295583316 0.0
0.0 0.0 0.0

-1.0419359855155589e6 3.230604643257337e6 0.0
3.230604643257337e6 116235.04324077518 0.0
0.0 0.0 0.0

407035.90433067817 748757.2449602142 0.0
748757.2449602142 -715767.2770980414 0.0
0.0 0.0 0.0

-9.05887993122695e6 -663258.2591700314 0.0
-663258.2591700314 1.0482147061161753e7 0.0
0.0 0.0 0.0

-2.0237103380628687e6 3.1714574577844897e6 0.0
3.1714574577844897e6 767363.4150593053 0.0
0.0 0.0 0.0

-2.0390835379833765e6 4.453590740445692e6 0.0
4.453590740445692e6 536175.2763156601 0.0
0.0 0.0 0.0

-614464.924495307 4.2222328142991625e6 0.0
4.2222328142991625e6 778188.020131293 0.0
0.0 0.0 0.0

-772361.4610560703 3.27598110281761e6 0.0
3.27598110281761e6 -43652.19029852265 0.0
0.0 0.0 0.0

-683815.9512765671 5.537674825081668e6 0.0
5.537674825081668e6 -122892.86985149622 0.0
0.0 0.0 0.0

-4.530204063067845e6 -2.1102485597951547e6 0.0
-2.1102485597951547e6 7.767987108023662e6 0.0
0.0 0.0 0.0

-360627.4425640823 5.511170548493775e6 0.0
5.511170548493775e6 -379507.44005309185 0.0
0.0 0.0 0.0

-3.008643779523655e6 3.482935598323472e6 0.0
3.482935598323472e6 991684.0603689742 0.0
0.0 0.0 0.0

-495252.2577390789 2.735105162345404e6 0.0
2.735105162345404e6 -1.5253619931415967e6 0.0
0.0 0.0 0.0

-1.17322762585691e6 4.618123066073745e6 0.0
4.618123066073745e6 574683.6599302694 0.0
0.0 0.0 0.0

-322386.7092666332 1.6513967198781853e6 0.0
1.6513967198781853e6 745042.7126020689 0.0
0.0 0.0 0.0

-1.9067193111476512e6 5.509200249073796e6 0.0
5.509200249073796e6 958065.4515218391 0.0
0.0 0.0 0.0

448266.20109388186 1.0401579871367563e6 0.0
1.0401579871367563e6 -1.3840280139513542e6 0.0
0.0 0.0 0.0

-4.6187758097435115e6 5.471109413626411e6 0.0
5.471109413626411e6 2.0635876468820588e6 0.0
0.0 0.0 0.0

-278533.3944856932 4.269045751066639e6 0.0
4.269045751066639e6 -840816.4582812563 0.0
0.0 0.0 0.0

-2.2047200046869367e6 3.587550269824222e6 0.0
3.587550269824222e6 1.1640860813217899e6 0.0
0.0 0.0 0.0

937486.3391690443 3.620224818298795e6 0.0
3.620224818298795e6 -2.1850054688980593e6 0.0
0.0 0.0 0.0

-1.4671854231626722e6 4.605680533093777e6 0.0
4.605680533093777e6 932509.6065935678 0.0
0.0 0.0 0.0

-2.0928618122424379e6 3.903928089732816e6 0.0
3.903928089732816e6 2.5200652148983614e6 0.0
0.0 0.0 0.0

-2.876954315436119e6 3.5555963696892466e6 0.0
3.5555963696892466e6 1.1839502935303424e6 0.0
0.0 0.0 0.0

-552398.1536630373 4.702176492976542e6 0.0
4.702176492976542e6 145315.26900063083 0.0
0.0 0.0 0.0

229830.90844146215 843523.8274784264 0.0
843523.8274784264 -857458.6558918126 0.0
0.0 0.0 0.0

-1.238271676852057e6 3.260221535264647e6 0.0
3.260221535264647e6 3.0078772609762354e6 0.0
0.0 0.0 0.0

-1.283971995682816e6 4.7575476959027015e6 0.0
4.7575476959027015e6 15109.92311800667 0.0
0.0 0.0 0.0

-473732.1131184408 5.566292859751708e6 0.0
5.566292859751708e6 -296978.3127183237 0.0
0.0 0.0 0.0

-699939.7623210098 5.116160393116737e6 0.0
5.116160393116737e6 -432221.2273433021 0.0
0.0 0.0 0.0

-1.6445533741111935e6 6.3883459051803e6 0.0
6.3883459051803e6 658502.6098368232 0.0
0.0 0.0 0.0

-201420.6146210935 3.041702744349664e6 0.0
3.041702744349664e6 -1.2135973542617562e6 0.0
0.0 0.0 0.0

-1.502476299077512e6 4.587285226280068e6 0.0
4.587285226280068e6 365041.76197944477 0.0
0.0 0.0 0.0

-2.8938898224100987e6 6.137012843217985e6 0.0
6.137012843217985e6 1.0657031967783547e6 0.0
0.0 0.0 0.0

-1.0425705316051838e6 2.766438364117979e6 0.0
2.766438364117979e6 -1.120636035259261e6 0.0
0.0 0.0 0.0

238874.27086019836 2.4855607563083284e6 0.0
2.4855607563083284e6 -730207.9806246122 0.0
0.0 0.0 0.0

-834634.0231297855 4.000856845826876e6 0.0
4.000856845826876e6 -363039.8414068143 0.0
0.0 0.0 0.0

-2.3220021935125026e6 5.914744886319986e6 0.0
5.914744886319986e6 675134.6854904217 0.0
0.0 0.0 0.0

-453180.6161994211 4.842913203382039e6 0.0
4.842913203382039e6 -1.2392814012595848e6 0.0
0.0 0.0 0.0

825622.3987520761 3.1283559449516432e6 0.0
3.1283559449516432e6 -1.9346205595752245e6 0.0
0.0 0.0 0.0

-2.498648929540522e6 -3.788683591096751e6 0.0
-3.788683591096751e6 5.788631103386349e6 0.0
0.0 0.0 0.0

-212154.32461151422 4.928319604927323e6 0.0
4.928319604927323e6 -1.9227861787821546e6 0.0
0.0 0.0 0.0

-853881.3565797207 3.8636077963763e6 0.0
3.8636077963763e6 526114.2987328768 0.0
0.0 0.0 0.0

-840593.6791401217 3.262742296987702e6 0.0
3.262742296987702e6 -82271.69186050474 0.0
0.0 0.0 0.0

-645861.2054594215 5.663279933142907e6 0.0
5.663279933142907e6 -464263.4817778896 0.0
0.0 0.0 0.0

753588.5165970699 3.126900079411474e6 0.0
3.126900079411474e6 -1.671651656303017e6 0.0
0.0 0.0 0.0

-428586.62198405433 5.192036834426872e6 0.0
5.192036834426872e6 -768497.1185685445 0.0
0.0 0.0 0.0

-1.2546278423599643e6 3.35474842381353e6 0.0
3.35474842381353e6 1.9623157108131943e6 0.0
0.0 0.0 0.0

-3.6385430851692692e6 8.372235394336715e6 0.0
8.372235394336715e6 1.1209443263361854e6 0.0
0.0 0.0 0.0

-531376.1265547214 5.1483048203967465e6 0.0
5.1483048203967465e6 -493391.67412091175 0.0
0.0 0.0 0.0

-3.3825625355484746e6 3.8700947383845067e6 0.0
3.8700947383845067e6 5.01413746772928e6 0.0
0.0 0.0 0.0

918981.9817976591 3.208193424983916e6 0.0
3.208193424983916e6 -2.079277219138763e6 0.0
0.0 0.0 0.0

-2.9605782776528513e6 4.986347247900365e6 0.0
4.986347247900365e6 1.3967535240159824e6 0.0
0.0 0.0 0.0

-170551.991199967 4.90034642023818e6 0.0
4.90034642023818e6 -725853.7253760245 0.0
0.0 0.0 0.0

-7.917095811623774e6 -2.2313544597941227e6 0.0
-2.2313544597941227e6 6.59758374388741e6 0.0
0.0 0.0 0.0

-1.5250171540684456e6 4.709340687840411e6 0.0
4.709340687840411e6 123121.60427602218 0.0
0.0 0.0 0.0

414315.610396793 2.212077323370897e6 0.0
2.212077323370897e6 -255783.96667297816 0.0
0.0 0.0 0.0

-325849.8808282625 4.793247641684192e6 0.0
4.793247641684192e6 -1.5353290876681705e6 0.0
0.0 0.0 0.0

-573740.673558873 4.659647768471848e6 0.0
4.659647768471848e6 -337518.4631792592 0.0
0.0 0.0 0.0

-563916.9401188141 4.185057405761413e6 0.0
4.185057405761413e6 -1.6401809611269175e6 0.0
0.0 0.0 0.0

968330.151602088 3.7029776217140346e6 0.0
3.7029776217140346e6 -2.1415408048476395e6 0.0
0.0 0.0 0.0

695975.0021862641 5.251426750953455e6 0.0
5.251426750953455e6 1.184375561996112e6 0.0
0.0 0.0 0.0

-2.490691896597133e7 6.516640610250257e6 0.0
6.516640610250257e6 8.058097111782253e6 0.0
0.0 0.0 0.0

-1.382296468922846e6 3.6301010940906066e6 0.0
3.6301010940906066e6 2.4663963914117245e6 0.0
0.0 0.0 0.0

-1.299716161064622e6 4.1758251802237225e6 0.0
4.1758251802237225e6 -90604.84254685597 0.0
0.0 0.0 0.0

-1.2357680061025764e6 4.702623046681308e6 0.0
4.702623046681308e6 216876.1106946718 0.0
0.0 0.0 0.0

819038.484845188 3.121615994098204e6 0.0
3.121615994098204e6 -1.8735653950337754e6 0.0
0.0 0.0 0.0

-1.2723610816529915e6 4.778873951645914e6 0.0
4.778873951645914e6 23396.5162204667 0.0
0.0 0.0 0.0

-3.1066086396137914e6 5.139535781068642e6 0.0
5.139535781068642e6 1.5551681661721591e6 0.0
0.0 0.0 0.0

-423690.0928658648 4.288785201246317e6 0.0
4.288785201246317e6 -1.5368249640992538e6 0.0
0.0 0.0 0.0

-2.2735191359907193e6 3.53973473534033e6 0.0
3.53973473534033e6 908243.7925995636 0.0
0.0 0.0 0.0

223478.02807428688 952884.4585376029 0.0
952884.4585376029 -1.4007692278080313e6 0.0
0.0 0.0 0.0

-1.538832310621769e6 3.343298401792027e6 0.0
3.343298401792027e6 2.0779254440895142e6 0.0
0.0 0.0 0.0

-1.5209787824049976e6 5.184432817226094e6 0.0
5.184432817226094e6 -37569.212259499414 0.0
0.0 0.0 0.0

-582173.2929071924 4.330624604834039e6 0.0
4.330624604834039e6 -581638.217448246 0.0
0.0 0.0 0.0

-2.429608527861538e6 3.2492182434535976e6 0.0
3.2492182434535976e6 1.0351052445509898e6 0.0
0.0 0.0 0.0

-248513.06251535687 4.6686402439576e6 0.0
4.6686402439576e6 -1.7295814183225455e6 0.0
0.0 0.0 0.0

-1.064468209369862e6 -1.2177412897200505e6 0.0
-1.2177412897200505e6 1.4975467406452561e6 0.0
0.0 0.0 0.0

-519955.6022188191 4.60285693130649e6 0.0
4.60285693130649e6 -975287.3438827081 0.0
0.0 0.0 0.0

-399131.0910856334 5.129440038954306e6 0.0
5.129440038954306e6 -824354.8048775595 0.0
0.0 0.0 0.0

-737637.9736692735 2.382348064934234e6 0.0
2.382348064934234e6 -1.0837844175315634e6 0.0
0.0 0.0 0.0

803109.1597550933 3.4791826570796575e6 0.0
3.4791826570796575e6 -1.405350191525753e6 0.0
0.0 0.0 0.0

-474277.6572837116 4.678905286797596e6 0.0
4.678905286797596e6 -998484.0180830131 0.0
0.0 0.0 0.0

-1.5061133053423206e6 4.646137127665136e6 0.0
4.646137127665136e6 191885.52880933153 0.0
0.0 0.0 0.0

-2.7754035578355156e6 4.1591910475426097e6 0.0
4.1591910475426097e6 1.3707336058934943e6 0.0
0.0 0.0 0.0

-1.5073918931039944e6 3.842402506150633e6 0.0
3.842402506150633e6 651461.1804481767 0.0
0.0 0.0 0.0

-79040.41774131564 3.7096542989406344e6 0.0
3.7096542989406344e6 -143933.7327774492 0.0
0.0 0.0 0.0

-9.857209748567853e6 -1.8432207568234818e6 0.0
-1.8432207568234818e6 8.223568189920144e6 0.0
0.0 0.0 0.0

1.6740235886938851e6 -89199.15148396594 0.0
-89199.15148396594 -2.157703344239915e6 0.0
0.0 0.0 0.0

-724406.52115865 3.576834721381719e6 0.0
3.576834721381719e6 -1.1563643979089297e6 0.0
0.0 0.0 0.0

28731.885733588424 5.545687844230504e6 0.0
5.545687844230504e6 -903027.647420795 0.0
0.0 0.0 0.0

-3.546979542656011e6 3.669215609379323e6 0.0
3.669215609379323e6 1.4123938357157854e6 0.0
0.0 0.0 0.0

-758028.0200181669 3.983810784415082e6 0.0
3.983810784415082e6 -1.476977785085089e6 0.0
0.0 0.0 0.0

-1.3568273737376274e6 4.947315269744301e6 0.0
4.947315269744301e6 155486.34967375617 0.0
0.0 0.0 0.0

-585486.0538654054 5.1681099076502025e6 0.0
5.1681099076502025e6 -265340.8785717073 0.0
0.0 0.0 0.0

-312023.1576740262 3.743811137668196e6 0.0
3.743811137668196e6 -876044.5104504132 0.0
0.0 0.0 0.0

-534628.5420023702 5.265842619167373e6 0.0
5.265842619167373e6 -390002.8737466297 0.0
0.0 0.0 0.0

-223907.48560202855 4.622169155269852e6 0.0
4.622169155269852e6 -539089.2956790673 0.0
0.0 0.0 0.0

-2.6897646612184164e6 4.122428687675852e6 0.0
4.122428687675852e6 1.4295309160474746e6 0.0
0.0 0.0 0.0

394272.91350895516 5.1934307166175945e6 0.0
5.1934307166175945e6 -1.536723071839224e6 0.0
0.0 0.0 0.0

865513.1738856271 3.409822753508282e6 0.0
3.409822753508282e6 -2.0786659881358114e6 0.0
0.0 0.0 0.0

-1.2964110286468486e6 -63622.87236709852 0.0
-63622.87236709852 872123.6562906154 0.0
0.0 0.0 0.0

-1.1119325316604502e6 211849.0707290595 0.0
211849.0707290595 604329.3597981811 0.0
0.0 0.0 0.0

-1.5538041336822705e6 3.8097841706669503e6 0.0
3.8097841706669503e6 1.5993762949679135e6 0.0
0.0 0.0 0.0

-277138.13781525346 4.902379169531681e6 0.0
4.902379169531681e6 -619832.903888467 0.0
0.0 0.0 0.0

-429465.85177035804 4.570110564403167e6 0.0
4.570110564403167e6 -537093.9643339389 0.0
0.0 0.0 0.0

2.192440837953268e6 1.1143238307793254e6 0.0
1.1143238307793254e6 -2.3500298651343663e6 0.0
0.0 0.0 0.0

-429023.4965124482 5.2910359713504305e6 0.0
5.2910359713504305e6 -591239.7345019442 0.0
0.0 0.0 0.0

791041.1507615014 1.3538220524509614e6 0.0
1.3538220524509614e6 -587119.9313104047 0.0
0.0 0.0 0.0

-532379.0553358098 5.158780584772725e6 0.0
5.158780584772725e6 -364324.83791832917 0.0
0.0 0.0 0.0

-802398.5175341514 1.7631546038674135e6 0.0
1.7631546038674135e6 1.625054073860507e6 0.0
0.0 0.0 0.0

-1.9445658713301453e6 4.4099076463866085e6 0.0
4.4099076463866085e6 915425.8371874022 0.0
0.0 0.0 0.0

-2.198473340832498e6 5.792151830060533e6 0.0
5.792151830060533e6 1.2350664465901805e6 0.0
0.0 0.0 0.0

619889.1779173143 3.7198390117032467e6 0.0
3.7198390117032467e6 -1.7698323000554887e6 0.0
0.0 0.0 0.0

693835.43298626 3.3074575607461724e6 0.0
3.3074575607461724e6 -1.859286430286848e6 0.0
0.0 0.0 0.0

139067.02523322887 5.885148316781194e6 0.0
5.885148316781194e6 -992039.8033770579 0.0
0.0 0.0 0.0

-483136.53914856876 4.533333553438316e6 0.0
4.533333553438316e6 -235896.76485892755 0.0
0.0 0.0 0.0

-529930.098965298 4.563048850180757e6 0.0
4.563048850180757e6 -869816.8679111945 0.0
0.0 0.0 0.0

-49587.90075348009 -709984.446288623 0.0
-709984.446288623 278695.52136443654 0.0
0.0 0.0 0.0

-3.402545880366544e6 3.7534234235461946e6 0.0
3.7534234235461946e6 1.3656316211686078e6 0.0
0.0 0.0 0.0

-725474.6866408067 2.749568924146516e6 0.0
2.749568924146516e6 180553.01049873847 0.0
0.0 0.0 0.0

517240.2758395962 214420.09951201844 0.0
214420.09951201844 -535457.6897395609 0.0
0.0 0.0 0.0

-1.0211695311775681e6 2.5962123907768494e6 0.0
2.5962123907768494e6 -52089.476415118435 0.0
0.0 0.0 0.0

964437.1666332528 3.3742908285941137e6 0.0
3.3742908285941137e6 -2.0564043838736746e6 0.0
0.0 0.0 0.0

-2.250190616014831e6 3.977245032836863e6 0.0
3.977245032836863e6 409229.4945484577 0.0
0.0 0.0 0.0

-1.9918913502091307e6 3.5174619310390493e6 0.0
3.5174619310390493e6 973364.2418695561 0.0
0.0 0.0 0.0

-193928.3131999281 4.787998210556059e6 0.0
4.787998210556059e6 -1.8259996543215031e6 0.0
0.0 0.0 0.0

624764.3274246544 4.710105587422003e6 0.0
4.710105587422003e6 -559108.7287789588 0.0
0.0 0.0 0.0

-1.9562275044750837e6 4.35095777652868e6 0.0
4.35095777652868e6 311484.1908496552 0.0
0.0 0.0 0.0

-198618.45296360957 -248565.92636856972 0.0
-248565.92636856972 347713.31910268066 0.0
0.0 0.0 0.0

302100.27870356373 108626.60809407031 0.0
108626.60809407031 -570154.0591918179 0.0
0.0 0.0 0.0

-268658.98433100875 5.15126688043319e6 0.0
5.15126688043319e6 -798425.3624118507 0.0
0.0 0.0 0.0

-1.0048927414345818e6 4.0839687248538337e6 0.0
4.0839687248538337e6 54323.374906458484 0.0
0.0 0.0 0.0

-1.0100432891208839e6 4.275051306132851e6 0.0
4.275051306132851e6 63061.20054082351 0.0
0.0 0.0 0.0

-2.647870493991076e6 -975180.5274823336 0.0
-975180.5274823336 4.646240727711666e6 0.0
0.0 0.0 0.0

771698.8048128341 1.39062587080075e6 0.0
1.39062587080075e6 -1.3277214771979963e6 0.0
0.0 0.0 0.0

-1.3494131916874421e6 5.184699461786125e6 0.0
5.184699461786125e6 -173090.0935804347 0.0
0.0 0.0 0.0

-2.1439437487578252e6 6.222921643880138e6 0.0
6.222921643880138e6 218903.2991935365 0.0
0.0 0.0 0.0

-1.2380845512172144e7 2.877758307420917e6 0.0
2.877758307420917e6 6.951816731613488e6 0.0
0.0 0.0 0.0

-3.316751309185533e6 4.72396407731272e6 0.0
4.72396407731272e6 1.7021544516743375e6 0.0
0.0 0.0 0.0

-248408.96105543926 4.803717986065455e6 0.0
4.803717986065455e6 -554753.5726683943 0.0
0.0 0.0 0.0

-176415.59331465053 -637463.6840449162 0.0
-637463.6840449162 325568.51075119525 0.0
0.0 0.0 0.0

48121.30796360067 5.5734298577396255e6 0.0
5.5734298577396255e6 -900901.689187313 0.0
0.0 0.0 0.0

-877617.5745529833 3.1216846332125952e6 0.0
3.1216846332125952e6 -210709.652724983 0.0
0.0 0.0 0.0

-108542.21307027932 158100.2499929048 0.0
158100.2499929048 240131.64075027854 0.0
0.0 0.0 0.0

-1.6218289384407676e6 3.944954986014562e6 0.0
3.944954986014562e6 397047.2039517504 0.0
0.0 0.0 0.0

-1.6916784882504344e6 4.2507225910538295e6 0.0
4.2507225910538295e6 372157.55524156394 0.0
0.0 0.0 0.0

-8783.209354478953 825274.45615996 0.0
825274.45615996 -725516.5415070604 0.0
0.0 0.0 0.0

770690.8329403901 3.1373194457914284e6 0.0
3.1373194457914284e6 -1.9215494325341494e6 0.0
0.0 0.0 0.0

355283.10132404044 3.7615909082331723e6 0.0
3.7615909082331723e6 -1.6244019136975838e6 0.0
0.0 0.0 0.0

-1.3787081490909792e6 3.2033429771787757e6 0.0
3.2033429771787757e6 1.604310882465329e6 0.0
0.0 0.0 0.0

824481.0782222347 1.5850970967557102e6 0.0
1.5850970967557102e6 -928314.3000223492 0.0
0.0 0.0 0.0

-732763.5589590834 8.190591929859762e6 0.0
8.190591929859762e6 126089.29643276765 0.0
0.0 0.0 0.0

860171.808503204 3.057877614122653e6 0.0
3.057877614122653e6 -1.7802147728807759e6 0.0
0.0 0.0 0.0

927869.6265603917 2.3377318768344023e6 0.0
2.3377318768344023e6 -1.9603725152032154e6 0.0
0.0 0.0 0.0

762510.6525906876 3.124241856017033e6 0.0
3.124241856017033e6 -1.7520438582374607e6 0.0
0.0 0.0 0.0

-379352.5042560024 4.61314677287512e6 0.0
4.61314677287512e6 -558221.6342970534 0.0
0.0 0.0 0.0

-323844.46082678623 4.727610737367673e6 0.0
4.727610737367673e6 -601952.9335009075 0.0
0.0 0.0 0.0

-253961.27360756067 4.834514001522565e6 0.0
4.834514001522565e6 -1.6352509391542696e6 0.0
0.0 0.0 0.0

-1.4976310769107968e6 8.133662559351645e6 0.0
8.133662559351645e6 -5358.412795324868 0.0
0.0 0.0 0.0

-142654.84212722658 45663.113748639786 0.0
45663.113748639786 64330.84219500056 0.0
0.0 0.0 0.0

-1.6209256441617394e6 4.260305453174727e6 0.0
4.260305453174727e6 595022.7695053281 0.0
0.0 0.0 0.0

-3.139359806823599e6 3.7401203476107563e6 0.0
3.7401203476107563e6 1.310041866886362e6 0.0
0.0 0.0 0.0

-2.1794780924840774e6 4.309602407750436e6 0.0
4.309602407750436e6 1.1000466693172446e6 0.0
0.0 0.0 0.0

632219.7733409118 187051.4443780547 0.0
187051.4443780547 -642437.4441313159 0.0
0.0 0.0 0.0

539844.2269157674 404725.34472704603 0.0
404725.34472704603 -739928.4152318905 0.0
0.0 0.0 0.0

-261823.24449047138 4.762110168139537e6 0.0
4.762110168139537e6 -342193.06365564937 0.0
0.0 0.0 0.0

392892.05220308225 391788.72432853846 0.0
391788.72432853846 -850783.1090550462 0.0
0.0 0.0 0.0

-758531.8467129638 5.534237195514263e6 0.0
5.534237195514263e6 -374052.25292719406 0.0
0.0 0.0 0.0

-843168.5574715856 4.337892697846974e6 0.0
4.337892697846974e6 -270715.76434874756 0.0
0.0 0.0 0.0

-428334.6016753265 4.694925201169766e6 0.0
4.694925201169766e6 -1.1285497210550914e6 0.0
0.0 0.0 0.0

-2.3035041103952997e6 3.1467238899937323e6 0.0
3.1467238899937323e6 1.0702923677241146e6 0.0
0.0 0.0 0.0

-1.5843144490634303e6 3.7410593252121247e6 0.0
3.7410593252121247e6 420997.6059842936 0.0
0.0 0.0 0.0

-588192.171337044 3.1820220342564085e6 0.0
3.1820220342564085e6 73299.72032100736 0.0
0.0 0.0 0.0

-4.422024243297652e6 2.4176910766121526e6 0.0
2.4176910766121526e6 1.6878593832196544e6 0.0
0.0 0.0 0.0

925137.1383091515 1.6366687564874839e6 0.0
1.6366687564874839e6 -1.7758594966575678e6 0.0
0.0 0.0 0.0

-533319.1733311124 4.47242516664743e6 0.0
4.47242516664743e6 -801515.5874681493 0.0
0.0 0.0 0.0

809974.7764354034 3.3527046794234477e6 0.0
3.3527046794234477e6 -1.6079347869192632e6 0.0
0.0 0.0 0.0

-810705.0935360827 5.107262111272295e6 0.0
5.107262111272295e6 -357518.1461542894 0.0
0.0 0.0 0.0

-1.0057104797808276e6 3.1835369857739075e6 0.0
3.1835369857739075e6 -320397.1555984211 0.0
0.0 0.0 0.0

-701559.1177405824 2.8141959972800333e6 0.0
2.8141959972800333e6 -1.5402017284809032e6 0.0
0.0 0.0 0.0

-80916.6145230683 4.403842813883433e6 0.0
4.403842813883433e6 2.0670918677129915e6 0.0
0.0 0.0 0.0

418513.16307867505 680505.0883667958 0.0
680505.0883667958 -495780.0764688325 0.0
0.0 0.0 0.0

-1.8555807777370294e6 3.732194191426258e6 0.0
3.732194191426258e6 2.667184611101196e6 0.0
0.0 0.0 0.0

-2.2876704731397084e6 4.262246148822471e6 0.0
4.262246148822471e6 1.610849880446464e6 0.0
0.0 0.0 0.0

-1.2801811030271645e6 2.282979282065513e6 0.0
2.282979282065513e6 -381476.613216613 0.0
0.0 0.0 0.0

-3.3830556550992634e6 6.301009323711447e6 0.0
6.301009323711447e6 1.3478771337462147e6 0.0
0.0 0.0 0.0

-1.851369538214168e6 3.7409118628298757e6 0.0
3.7409118628298757e6 420552.280764741 0.0
0.0 0.0 0.0

-1.0700825834419879e6 3.1869021873415844e6 0.0
3.1869021873415844e6 250997.92994460528 0.0
0.0 0.0 0.0

429136.2488848078 2.926621769153769e6 0.0
2.926621769153769e6 -1.5181276133881358e6 0.0
0.0 0.0 0.0

451924.1982612009 589075.4661270288 0.0
589075.4661270288 -610228.5823911527 0.0
0.0 0.0 0.0

-959220.7009528978 4.746635093728726e6 0.0
4.746635093728726e6 305441.29677349934 0.0
0.0 0.0 0.0

-1785.4968574408558 2.9174988723918893e6 0.0
2.9174988723918893e6 656358.8962694628 0.0
0.0 0.0 0.0

-4.064048379086012e6 1.4656378015356257e6 0.0
1.4656378015356257e6 3.6884381098037437e6 0.0
0.0 0.0 0.0

-1.2815000346359813e6 4.560619190008885e6 0.0
4.560619190008885e6 370515.62301245274 0.0
0.0 0.0 0.0

-2.2036385589340664e6 3.8471638384243627e6 0.0
3.8471638384243627e6 692486.4087138805 0.0
0.0 0.0 0.0

-5.29077462396829e6 2.27368319434243e6 0.0
2.27368319434243e6 1.529469167763394e6 0.0
0.0 0.0 0.0

-313217.88368773967 599497.526163896 0.0
599497.526163896 -146621.07371115597 0.0
0.0 0.0 0.0

-2.0602889924687794e6 3.797306985469108e6 0.0
3.797306985469108e6 633767.7383767207 0.0
0.0 0.0 0.0

-1.7311329350511038e6 3.461661622626371e6 0.0
3.461661622626371e6 510617.92991171486 0.0
0.0 0.0 0.0

-1.4529595943082238e6 3.4455695825254745e6 0.0
3.4455695825254745e6 2.3828776058496265e6 0.0
0.0 0.0 0.0

-2.204661767607864e6 4.140023026463648e6 0.0
4.140023026463648e6 699752.920671253 0.0
0.0 0.0 0.0

952943.6337076548 1.3557691138023776e6 0.0
1.3557691138023776e6 -1.9043379629279668e6 0.0
0.0 0.0 0.0

-741720.9324443795 4.341163284094432e6 0.0
4.341163284094432e6 -585224.8627047106 0.0
0.0 0.0 0.0

311644.70756111445 497996.99935988383 0.0
497996.99935988383 -198751.9194989807 0.0
0.0 0.0 0.0

863013.1126602307 3.2797472938128305e6 0.0
3.2797472938128305e6 -1.545888554440102e6 0.0
0.0 0.0 0.0

718618.6000852558 3.0690721592763048e6 0.0
3.0690721592763048e6 -1.5573229503814294e6 0.0
0.0 0.0 0.0

-1.0344140213171476e6 4.0180664461968406e6 0.0
4.0180664461968406e6 1.0718919410499474e6 0.0
0.0 0.0 0.0

-491728.77880586335 4.720768644841343e6 0.0
4.720768644841343e6 -969429.9924920843 0.0
0.0 0.0 0.0

-1.09519738396378e6 3.143439408921264e6 0.0
3.143439408921264e6 212723.505191812 0.0
0.0 0.0 0.0

735196.9162891585 3.135085635539213e6 0.0
3.135085635539213e6 -1.8519497143763173e6 0.0
0.0 0.0 0.0

-405055.5029725235 4.53909601185863e6 0.0
4.53909601185863e6 -1.1562962136131302e6 0.0
0.0 0.0 0.0

-457691.0906773337 4.674800966732685e6 0.0
4.674800966732685e6 -1.2123635902217638e6 0.0
0.0 0.0 0.0

-1.2265272370601296e6 3.153702682573416e6 0.0
3.153702682573416e6 414480.3004108031 0.0
0.0 0.0 0.0

-2.233615890269533e6 752793.0614882559 0.0
752793.0614882559 1.8068870975597575e6 0.0
0.0 0.0 0.0

323200.27566860674 332060.2054663367 0.0
332060.2054663367 -378099.2286166017 0.0
0.0 0.0 0.0

-529322.0301185487 4.692192432933537e6 0.0
4.692192432933537e6 -1.00364190570915e6 0.0
0.0 0.0 0.0

-261281.5856928236 2.9082169802132277e6 0.0
2.9082169802132277e6 185431.09200356438 0.0
0.0 0.0 0.0

-1.71398037361977e6 3.5718148531025425e6 0.0
3.5718148531025425e6 3.0446563838130813e6 0.0
0.0 0.0 0.0

-1.1029953142505258e6 4.224574873833954e6 0.0
4.224574873833954e6 -239074.6401259107 0.0
0.0 0.0 0.0

666735.5084027676 1.062343239283658e6 0.0
1.062343239283658e6 -2.0594789741908098e6 0.0
0.0 0.0 0.0

80806.49116812236 164098.363750168 0.0
164098.363750168 701116.8903392238 0.0
0.0 0.0 0.0

-2.800366345470628e6 3.5546745739866607e6 0.0
3.5546745739866607e6 1.169636664401192e6 0.0
0.0 0.0 0.0

-2.2267011215278236e6 3.852771975998469e6 0.0
3.852771975998469e6 348093.8905039751 0.0
0.0 0.0 0.0

311621.55243435304 772096.7713627369 0.0
772096.7713627369 -684897.1695880838 0.0
0.0 0.0 0.0

115443.6104464307 685768.9573547238 0.0
685768.9573547238 355347.75595501164 0.0
0.0 0.0 0.0

-223511.06078147492 4.837020636983615e6 0.0
4.837020636983615e6 -1.8197500341932105e6 0.0
0.0 0.0 0.0

-1.2704328655775343e6 3.1992629993033954e6 0.0
3.1992629993033954e6 727576.4529340207 0.0
0.0 0.0 0.0

-396781.2430015586 262445.59355317993 0.0
262445.59355317993 1.359700874818994e6 0.0
0.0 0.0 0.0

-1.4621550033477245e7 -988483.0663485179 0.0
-988483.0663485179 8.474360870658867e6 0.0
0.0 0.0 0.0

-215444.06955637588 3.847077097576218e6 0.0
3.847077097576218e6 -1.0787056566965734e6 0.0
0.0 0.0 0.0

-152064.0233142231 4.812122893793904e6 0.0
4.812122893793904e6 -535609.2735668366 0.0
0.0 0.0 0.0

900509.6281667391 3.2665032003617324e6 0.0
3.2665032003617324e6 -2.0619571532713908e6 0.0
0.0 0.0 0.0

-3.4638526876691775e6 3.5782119455179726e6 0.0
3.5782119455179726e6 4.392249898302807e6 0.0
0.0 0.0 0.0

-611217.9521761169 244236.1582959823 0.0
244236.1582959823 642958.8862806839 0.0
0.0 0.0 0.0

84448.87052592795 573344.6899715171 0.0
573344.6899715171 -560897.0202282009 0.0
0.0 0.0 0.0

-1.568849279446368e6 3.551687525682761e6 0.0
3.551687525682761e6 494003.866971676 0.0
0.0 0.0 0.0

-2.573888094894039e6 3.3642070529835904e6 0.0
3.3642070529835904e6 1.1530154046986545e6 0.0
0.0 0.0 0.0

-1.412320184177158e6 3.498994890071117e6 0.0
3.498994890071117e6 522374.42977485777 0.0
0.0 0.0 0.0

-2.115507026582542e6 3.9542783223035787e6 0.0
3.9542783223035787e6 353385.25671262504 0.0
0.0 0.0 0.0

-1.982108624630273e6 3.1129692487536995e6 0.0
3.1129692487536995e6 817132.2795236182 0.0
0.0 0.0 0.0

-343836.64506340126 -1.0246519797456759e6 0.0
-1.0246519797456759e6 743692.0615011815 0.0
0.0 0.0 0.0

-94736.43417516511 5.0144045033334065e6 0.0
5.0144045033334065e6 -517236.85331386275 0.0
0.0 0.0 0.0

-491586.8293448494 4.6486386594913695e6 0.0
4.6486386594913695e6 -903987.1312315736 0.0
0.0 0.0 0.0

-4.353411950778101e6 3.492959391258199e6 0.0
3.492959391258199e6 3.247544920381328e6 0.0
0.0 0.0 0.0

178900.62288242806 398307.91490182065 0.0
398307.91490182065 -570018.9943590894 0.0
0.0 0.0 0.0

-3.157867746568808e6 3.560322464188172e6 0.0
3.560322464188172e6 1.1706428581252748e6 0.0
0.0 0.0 0.0

-318355.8799303227 4.791050044125921e6 0.0
4.791050044125921e6 -463802.0201881477 0.0
0.0 0.0 0.0

-1.1529731305037066e6 1.7625219778580428e6 0.0
1.7625219778580428e6 1.7065159080497974e6 0.0
0.0 0.0 0.0

-4792.855356232263 5.013153850541774e6 0.0
5.013153850541774e6 -1.881650757446072e6 0.0
0.0 0.0 0.0

-796879.1975745684 3.032944653872388e6 0.0
3.032944653872388e6 327374.4289774065 0.0
0.0 0.0 0.0

1.4796841794174649e6 636967.6682463861 0.0
636967.6682463861 -1.3493397609448638e6 0.0
0.0 0.0 0.0

887951.0245628441 3.6442718415203104e6 0.0
3.6442718415203104e6 -1.616246862866329e6 0.0
0.0 0.0 0.0

-1.2954011756444143e6 5.0255699001373295e6 0.0
5.0255699001373295e6 725165.703399712 0.0
0.0 0.0 0.0

-2.129800079568206e6 3.200421494896922e6 0.0
3.200421494896922e6 803024.746401838 0.0
0.0 0.0 0.0

-2.5835330635680202e6 3.3466413025432955e6 0.0
3.3466413025432955e6 1.1295423975935127e6 0.0
0.0 0.0 0.0

-650836.6799331418 5.221545374191869e6 0.0
5.221545374191869e6 -459035.483698215 0.0
0.0 0.0 0.0

801776.6907790574 3.1179276247691954e6 0.0
3.1179276247691954e6 -1.7685780067602063e6 0.0
0.0 0.0 0.0

1.4585765891547771e6 803580.7288476222 0.0
803580.7288476222 -2.5298765635594022e6 0.0
0.0 0.0 0.0

635195.9465234203 3.470657608573307e6 0.0
3.470657608573307e6 -1.9662642754841058e6 0.0
0.0 0.0 0.0

-283413.95448894554 491475.04872321483 0.0
491475.04872321483 -616227.6073117947 0.0
0.0 0.0 0.0

-1.2361369546793601e6 3.5914210668312917e6 0.0
3.5914210668312917e6 2.524431545365319e6 0.0
0.0 0.0 0.0

-3.7016872625004635e6 3.394328492263185e6 0.0
3.394328492263185e6 1.3011604599792343e6 0.0
0.0 0.0 0.0

1175.496579765866 100572.23290676561 0.0
100572.23290676561 433044.53943124163 0.0
0.0 0.0 0.0

423895.15222561365 3.8784861346137156e6 0.0
3.8784861346137156e6 -1.3088297599928344e6 0.0
0.0 0.0 0.0

-636151.4642534376 5.036089330679785e6 0.0
5.036089330679785e6 -245886.78004036762 0.0
0.0 0.0 0.0

-1.19959199747069e6 4.392179531060855e6 0.0
4.392179531060855e6 856169.0514248468 0.0
0.0 0.0 0.0

666090.5826888096 4.327717998239806e6 0.0
4.327717998239806e6 -2.0727646942720613e6 0.0
0.0 0.0 0.0

-3.4339525669024526e6 3.078116873305313e6 0.0
3.078116873305313e6 988360.3016667163 0.0
0.0 0.0 0.0

-1.7015692243032586e6 3.6808357578582815e6 0.0
3.6808357578582815e6 2.5186767484147423e6 0.0
0.0 0.0 0.0

-5.312859700047325e6 1.8118269328630639e6 0.0
1.8118269328630639e6 620141.9029523034 0.0
0.0 0.0 0.0

-588481.5525813992 4.487267320926329e6 0.0
4.487267320926329e6 54641.39805373436 0.0
0.0 0.0 0.0

81754.8457331768 5.308090669983908e6 0.0
5.308090669983908e6 -1.7612750493704556e6 0.0
0.0 0.0 0.0

2.9868649532484096e6 5.6408906594034e6 0.0
5.6408906594034e6 1.2647797206162675e6 0.0
0.0 0.0 0.0

-2.7226149369925978e6 4.518733305722579e6 0.0
4.518733305722579e6 4.374989928953085e6 0.0
0.0 0.0 0.0

139891.50636677476 718950.5399394737 0.0
718950.5399394737 60256.85225756783 0.0
0.0 0.0 0.0

-295534.9207579427 4.758829329475625e6 0.0
4.758829329475625e6 -570032.7236090995 0.0
0.0 0.0 0.0

-325622.34645902197 4.208410421049153e6 0.0
4.208410421049153e6 -1.413761442649255e6 0.0
0.0 0.0 0.0

-406022.5405972647 5.680270409982078e6 0.0
5.680270409982078e6 -404381.7954947944 0.0
0.0 0.0 0.0

-1.5322618205572574e6 3.5661059186344594e6 0.0
3.5661059186344594e6 474711.05095742724 0.0
0.0 0.0 0.0

-124088.5028273573 44810.06277980095 0.0
44810.06277980095 79115.25001580968 0.0
0.0 0.0 0.0

-3.7567879952956135e6 3.040409997420056e6 0.0
3.040409997420056e6 1.1422727619335845e6 0.0
0.0 0.0 0.0

-1.2663635176673206e6 4.801418439320977e6 0.0
4.801418439320977e6 -15969.354027734837 0.0
0.0 0.0 0.0

-2.4876400908907983e6 3.315423431364886e6 0.0
3.315423431364886e6 1.067671599930699e6 0.0
0.0 0.0 0.0

-2.0289696084706157e6 5.302383235741783e6 0.0
5.302383235741783e6 1.0189147142874209e6 0.0
0.0 0.0 0.0

-2.8115201282693446e6 3.5594204481318397e6 0.0
3.5594204481318397e6 1.180873740662137e6 0.0
0.0 0.0 0.0

-281695.27090677316 4.706672606564215e6 0.0
4.706672606564215e6 -526927.0579350763 0.0
0.0 0.0 0.0

-398248.2547492399 4.67431871705235e6 0.0
4.67431871705235e6 -364216.0566372133 0.0
0.0 0.0 0.0

-420802.73200932785 5.116477279437739e6 0.0
5.116477279437739e6 -899786.7228533926 0.0
0.0 0.0 0.0

-1.0029512676760268e6 2.846603702702535e6 0.0
2.846603702702535e6 -1.3076563240172716e6 0.0
0.0 0.0 0.0

-460656.5652519757 4.542196458287546e6 0.0
4.542196458287546e6 -540471.937060961 0.0
0.0 0.0 0.0

-2.0930857410697194e6 3.1621280258266483e6 0.0
3.1621280258266483e6 861773.6861475937 0.0
0.0 0.0 0.0

-3.4716061450843583e6 1.6603005963830499e6 0.0
1.6603005963830499e6 5.6420124635870345e6 0.0
0.0 0.0 0.0

-609682.6497465603 4.522354028844678e6 0.0
4.522354028844678e6 -465288.5142003441 0.0
0.0 0.0 0.0

-453384.4521931078 4.47751832977009e6 0.0
4.47751832977009e6 -1.2490275926521025e6 0.0
0.0 0.0 0.0

818992.598599541 3.1326408011846086e6 0.0
3.1326408011846086e6 -1.8636274273522007e6 0.0
0.0 0.0 0.0

-3.035820849671676e6 4.004271670328204e6 0.0
4.004271670328204e6 3.8070804685599916e6 0.0
0.0 0.0 0.0

-575836.1388928109 4.706664625897107e6 0.0
4.706664625897107e6 -326071.7517226108 0.0
0.0 0.0 0.0

-956382.4519550813 2.7913523284918536e6 0.0
2.7913523284918536e6 747620.0436193646 0.0
0.0 0.0 0.0

-1.393257185538745e6 3.490854534028831e6 0.0
3.490854534028831e6 445632.86994006217 0.0
0.0 0.0 0.0

-1.7398925615276725e6 4.795487587265114e6 0.0
4.795487587265114e6 504201.7842652218 0.0
0.0 0.0 0.0

-911889.041660462 2.923625005808087e6 0.0
2.923625005808087e6 634690.0169501237 0.0
0.0 0.0 0.0

-929056.9349042189 1.946810060722359e6 0.0
1.946810060722359e6 1.1799545461775197e6 0.0
0.0 0.0 0.0

-645864.6705774374 3.1227442038797117e6 0.0
3.1227442038797117e6 -35276.33601938156 0.0
0.0 0.0 0.0

408432.721427622 243550.05964239727 0.0
243550.05964239727 -516762.08612122526 0.0
0.0 0.0 0.0

-1.631372297563182e6 3.9618058122563064e6 0.0
3.9618058122563064e6 635399.9685254705 0.0
0.0 0.0 0.0

-323892.406997331 4.130441218199755e6 0.0
4.130441218199755e6 -1.6150132250358958e6 0.0
0.0 0.0 0.0

-298164.2385360877 4.773323585474746e6 0.0
4.773323585474746e6 -1.5558240228713842e6 0.0
0.0 0.0 0.0

-7.625084492148951e6 4.210006498465608e6 0.0
4.210006498465608e6 2.683432322044616e6 0.0
0.0 0.0 0.0

-697952.1601649257 -254626.85445083838 0.0
-254626.85445083838 1.770610885639077e6 0.0
0.0 0.0 0.0

-281679.7904410714 4.775205247561141e6 0.0
4.775205247561141e6 -1.501223066456866e6 0.0
0.0 0.0 0.0

-2.976828286373219e6 4.221393271564318e6 0.0
4.221393271564318e6 1.4127282976786143e6 0.0
0.0 0.0 0.0

-84226.7757965593 5.049043358908503e6 0.0
5.049043358908503e6 -572956.6022742968 0.0
0.0 0.0 0.0

575883.6248635547 139916.48193330798 0.0
139916.48193330798 -677646.6381406456 0.0
0.0 0.0 0.0

-140763.83084890456 4.834077418961033e6 0.0
4.834077418961033e6 -418480.007435692 0.0
0.0 0.0 0.0

-1.506874120087008e6 3.0966609376396956e6 0.0
3.0966609376396956e6 169084.84311101947 0.0
0.0 0.0 0.0

216375.86857101525 1.3506990056001858e6 0.0
1.3506990056001858e6 -783749.2240946022 0.0
0.0 0.0 0.0

922342.3433732352 3.5182223738940395e6 0.0
3.5182223738940395e6 -2.3684668047429235e6 0.0
0.0 0.0 0.0

-717922.639145963 1.2501084734566284e6 0.0
1.2501084734566284e6 -620421.0204505879 0.0
0.0 0.0 0.0

-113852.54682455826 956679.8288595465 0.0
956679.8288595465 -363085.0764826226 0.0
0.0 0.0 0.0

-657437.1047818286 4.889532492686471e6 0.0
4.889532492686471e6 -595831.8517369808 0.0
0.0 0.0 0.0

-334599.4038343132 4.767943700734283e6 0.0
4.767943700734283e6 148032.88859157712 0.0
0.0 0.0 0.0

-1.0315454757870634e6 1.5817200874211295e6 0.0
1.5817200874211295e6 401701.0301494087 0.0
0.0 0.0 0.0

-1.8029775670568475e6 3.5065213586009103e6 0.0
3.5065213586009103e6 2.337251782677764e6 0.0
0.0 0.0 0.0

-3.877771691954027e6 3.2589361513056206e6 0.0
3.2589361513056206e6 1.3116187922226188e6 0.0
0.0 0.0 0.0

-24741.912055064284 669311.6850679963 0.0
669311.6850679963 -461306.5696459657 0.0
0.0 0.0 0.0

-304909.08510908345 4.752927071132163e6 0.0
4.752927071132163e6 -452626.98778033804 0.0
0.0 0.0 0.0

98384.3308289994 5.193842439431907e6 0.0
5.193842439431907e6 -1.5858283568909985e6 0.0
0.0 0.0 0.0

-2.147287079860284e6 4.8154093853279315e6 0.0
4.8154093853279315e6 -413600.42950031225 0.0
0.0 0.0 0.0

160093.53988072314 331555.7177453493 0.0
331555.7177453493 -397839.73524778686 0.0
0.0 0.0 0.0

-1.8483582216428472e6 6.073069838883811e6 0.0
6.073069838883811e6 262956.61970436934 0.0
0.0 0.0 0.0

-238014.33770816494 3.3825116094956943e6 0.0
3.3825116094956943e6 2.0072823081632983e6 0.0
0.0 0.0 0.0

-1.8604464398385584e6 3.5097399836708237e6 0.0
3.5097399836708237e6 566367.7035550612 0.0
0.0 0.0 0.0

27172.989451647736 5.189880827282843e6 0.0
5.189880827282843e6 -1.8231050826572916e6 0.0
0.0 0.0 0.0

-1.47618361541582e6 4.516448657234893e6 0.0
4.516448657234893e6 294629.88008904096 0.0
0.0 0.0 0.0

-1.1718837370610756e6 -1.0101939052196118e6 0.0
-1.0101939052196118e6 2.4981564514269843e6 0.0
0.0 0.0 0.0

-1.3914846297575452e6 3.8234823557572784e6 0.0
3.8234823557572784e6 1.1812137610075166e6 0.0
0.0 0.0 0.0

-3.1521222866571005e6 3.558575542053679e6 0.0
3.558575542053679e6 1.1498820500416306e6 0.0
0.0 0.0 0.0

-659208.4413206698 4.626966007611947e6 0.0
4.626966007611947e6 -1.7269591090568183e6 0.0
0.0 0.0 0.0

-426797.5354999673 4.709249808768891e6 0.0
4.709249808768891e6 -1.1622372342617875e6 0.0
0.0 0.0 0.0

-398305.80245999264 4.697368903363782e6 0.0
4.697368903363782e6 -1.2347781539987968e6 0.0
0.0 0.0 0.0

-1.0204145122333418e6 1.1106420576142531e6 0.0
1.1106420576142531e6 2.250994904884322e6 0.0
0.0 0.0 0.0

-1.4640912433149836e6 3.6127816495488486e6 0.0
3.6127816495488486e6 462235.25477882614 0.0
0.0 0.0 0.0

-2.6308732188382942e7 -425930.24475750444 0.0
-425930.24475750444 3.054868724043171e7 0.0
0.0 0.0 0.0

797377.1310661865 3.0542185137242866e6 0.0
3.0542185137242866e6 -1.1326188290733998e6 0.0
0.0 0.0 0.0

-3.978878989116692e6 4.199695689587348e6 0.0
4.199695689587348e6 1.9948495356250012e6 0.0
0.0 0.0 0.0

-632864.4009565236 4.706251209602202e6 0.0
4.706251209602202e6 -331336.712739132 0.0
0.0 0.0 0.0

-2.653951774729537e6 5.622880334736297e6 0.0
5.622880334736297e6 -1.0876331898240582e6 0.0
0.0 0.0 0.0

359238.9487965148 159727.34092911505 0.0
159727.34092911505 -582697.4255524502 0.0
0.0 0.0 0.0

-926809.3951709027 3.0526319709945484e6 0.0
3.0526319709945484e6 586370.5988395719 0.0
0.0 0.0 0.0

-1.977113978330765e6 6.1298009572781995e6 0.0
6.1298009572781995e6 -303328.1881403559 0.0
0.0 0.0 0.0

71769.97226468929 1.2368519678119496e6 0.0
1.2368519678119496e6 162203.90673591013 0.0
0.0 0.0 0.0

379454.32266667846 4.698974763691166e6 0.0
4.698974763691166e6 2.0347897459423717e6 0.0
0.0 0.0 0.0

-312343.44517697336 4.667812748033136e6 0.0
4.667812748033136e6 -49196.8477282267 0.0
0.0 0.0 0.0

-1.1847222203128715e6 3.217813092306028e6 0.0
3.217813092306028e6 536522.768334954 0.0
0.0 0.0 0.0

-4.398889469744815e6 1.8718937415225739e6 0.0
1.8718937415225739e6 87567.02987373387 0.0
0.0 0.0 0.0

-259065.2757844629 4.665672246469025e6 0.0
4.665672246469025e6 -1.0090990824807708e6 0.0
0.0 0.0 0.0

-445637.70766492723 5.126400302062998e6 0.0
5.126400302062998e6 -868523.5013149135 0.0
0.0 0.0 0.0

-1.6048176605858174e6 4.64458658244981e6 0.0
4.64458658244981e6 209252.2521258815 0.0
0.0 0.0 0.0

-1.220250987200256e6 4.975145818440867e6 0.0
4.975145818440867e6 -60476.06166870636 0.0
0.0 0.0 0.0

-537891.5193021517 4.000218057961479e6 0.0
4.000218057961479e6 -968180.2428411857 0.0
0.0 0.0 0.0

-449623.2301472614 5.12395683608523e6 0.0
5.12395683608523e6 -806130.8972958545 0.0
0.0 0.0 0.0

-1.2901256909556156e6 3.9528685072968635e6 0.0
3.9528685072968635e6 892601.3650901541 0.0
0.0 0.0 0.0

-2.8591400504378565e6 5.838556025309142e6 0.0
5.838556025309142e6 1.5790043177380858e6 0.0
0.0 0.0 0.0

-1.5263713442499833e6 4.0435991741554854e6 0.0
4.0435991741554854e6 442091.3801143137 0.0
0.0 0.0 0.0

-3.5164975174766537e6 3.321485585114742e6 0.0
3.321485585114742e6 1.416229195584634e6 0.0
0.0 0.0 0.0

-898666.4261423739 2.9170552467983263e6 0.0
2.9170552467983263e6 -1.1470812146209744e6 0.0
0.0 0.0 0.0

51358.82353415177 3.842923562965051e6 0.0
3.842923562965051e6 -1.1614949130939469e6 0.0
0.0 0.0 0.0

-7.434126027439211e6 9.583267669850133e6 0.0
9.583267669850133e6 1.0588253539945047e7 0.0
0.0 0.0 0.0

-287416.795028651 4.827535981619514e6 0.0
4.827535981619514e6 1107.4722747368214 0.0
0.0 0.0 0.0

320735.3668070779 5.322569490248582e6 0.0
5.322569490248582e6 -1.6879240688341784e6 0.0
0.0 0.0 0.0

-3.141393191256194e6 5.723408084687049e6 0.0
5.723408084687049e6 1.3962530793078197e6 0.0
0.0 0.0 0.0

-874449.2582910475 4.150429072947635e6 0.0
4.150429072947635e6 -123450.11249549108 0.0
0.0 0.0 0.0

-627758.4947223135 4.683425767856727e6 0.0
4.683425767856727e6 156982.09548341096 0.0
0.0 0.0 0.0

-571790.160239709 4.929985088527222e6 0.0
4.929985088527222e6 -532469.3409369269 0.0
0.0 0.0 0.0

-3.5995887456583367e6 1.7221350528814464e6 0.0
1.7221350528814464e6 608360.9993635872 0.0
0.0 0.0 0.0

-3.0061049588250862e6 3.564173955756788e6 0.0
3.564173955756788e6 1.1496903424119914e6 0.0
0.0 0.0 0.0

-1.629239053227925e6 4.708306301570214e6 0.0
4.708306301570214e6 140774.26291258913 0.0
0.0 0.0 0.0

923035.032546672 3.687171984788646e6 0.0
3.687171984788646e6 -2.1367183205266674e6 0.0
0.0 0.0 0.0

-491993.26030218526 5.780006869598791e6 0.0
5.780006869598791e6 -349064.53419103107 0.0
0.0 0.0 0.0

-226619.7650655526 4.568486823456105e6 0.0
4.568486823456105e6 -1.6338244338448734e6 0.0
0.0 0.0 0.0

-574059.3440618356 5.683075357269153e6 0.0
5.683075357269153e6 -229400.95461803372 0.0
0.0 0.0 0.0

-590517.4117876795 3.947087374254102e6 0.0
3.947087374254102e6 -902131.2592469524 0.0
0.0 0.0 0.0

-348589.1135794061 4.766872400302471e6 0.0
4.766872400302471e6 -443704.83362111496 0.0
0.0 0.0 0.0

-1.930349722994383e6 4.2290401767859515e6 0.0
4.2290401767859515e6 368258.582093267 0.0
0.0 0.0 0.0

-226336.17756283013 69672.21343826898 0.0
69672.21343826898 148716.8587627597 0.0
0.0 0.0 0.0

192570.16367202892 5.49928309154969e6 0.0
5.49928309154969e6 -778720.2516758783 0.0
0.0 0.0 0.0

-1.5769991282200858e7 199005.14226620932 0.0
199005.14226620932 1.105277690986158e7 0.0
0.0 0.0 0.0

-1.190150889382502e6 1.129237496240843e6 0.0
1.129237496240843e6 1.6649314510552054e6 0.0
0.0 0.0 0.0

-1.246745187076524e6 4.75176798586516e6 0.0
4.75176798586516e6 -21126.21092954825 0.0
0.0 0.0 0.0

-398187.1604400516 5.174156388233143e6 0.0
5.174156388233143e6 -843944.0574152877 0.0
0.0 0.0 0.0

928211.0479224281 3.1762500392529075e6 0.0
3.1762500392529075e6 -2.0474322130171459e6 0.0
0.0 0.0 0.0

-730483.0427020894 4.739873473254161e6 0.0
4.739873473254161e6 -305049.54112230113 0.0
0.0 0.0 0.0

-327880.3778149151 -1.0327528561896854e6 0.0
-1.0327528561896854e6 749640.929676254 0.0
0.0 0.0 0.0

-387879.73191084305 2.7437731460696105e6 0.0
2.7437731460696105e6 -1.6034646970830678e6 0.0
0.0 0.0 0.0

-2.693258015812788e6 1.1502760827931678e7 0.0
1.1502760827931678e7 2.869947978597628e7 0.0
0.0 0.0 0.0

-183226.88946376898 4.953538989452552e6 0.0
4.953538989452552e6 -1.8167596899656393e6 0.0
0.0 0.0 0.0

1.5131674883155844e6 479931.31020244514 0.0
479931.31020244514 -1.2791139912072746e6 0.0
0.0 0.0 0.0

-1.7991492903555776e6 3.689466379907162e6 0.0
3.689466379907162e6 2.587991625650855e6 0.0
0.0 0.0 0.0

-1.5094817523045852e6 -1.1075984692890074e6 0.0
-1.1075984692890074e6 2.6197581312490925e6 0.0
0.0 0.0 0.0

-309158.31016981794 676532.931383337 0.0
676532.931383337 -301305.6002065944 0.0
0.0 0.0 0.0

-2.478339665458274e6 6.3854723017534735e6 0.0
6.3854723017534735e6 1.0343175500616261e6 0.0
0.0 0.0 0.0

-573528.4407252476 4.475582910885087e6 0.0
4.475582910885087e6 -683184.9221164747 0.0
0.0 0.0 0.0

-125218.16766286739 5.085271012499893e6 0.0
5.085271012499893e6 -572815.8027569471 0.0
0.0 0.0 0.0

-1.1383039052583762e6 4.874959192510355e6 0.0
4.874959192510355e6 -151982.95804235296 0.0
0.0 0.0 0.0

-2.323328030945804e6 6.11870019391577e6 0.0
6.11870019391577e6 -122928.76812885038 0.0
0.0 0.0 0.0

-2.8440303599257604e6 3.4540784677487654e6 0.0
3.4540784677487654e6 1.0188965751888276e6 0.0
0.0 0.0 0.0

-235402.7887017468 4.7156059586356785e6 0.0
4.7156059586356785e6 -535072.9120429155 0.0
0.0 0.0 0.0

-483518.3479349316 4.668083496424491e6 0.0
4.668083496424491e6 -310841.8577638286 0.0
0.0 0.0 0.0

-421690.35427308996 4.542111822165083e6 0.0
4.542111822165083e6 -1.1883241850347053e6 0.0
0.0 0.0 0.0

-610269.3654599162 4.927663374168804e6 0.0
4.927663374168804e6 -669574.4333724494 0.0
0.0 0.0 0.0

-1.6810077689675894e6 -782974.4697271859 0.0
-782974.4697271859 2.2231389722942677e6 0.0
0.0 0.0 0.0

-4.0636225260275644e6 2.134392331510869e6 0.0
2.134392331510869e6 1.787259513849917e6 0.0
0.0 0.0 0.0

-3.108027277968154e6 2.9792855177404354e6 0.0
2.9792855177404354e6 596003.2872636665 0.0
0.0 0.0 0.0

-1.0770681610737614e7 953604.736082459 0.0
953604.736082459 9.840624568317436e6 0.0
0.0 0.0 0.0

-326680.31114420807 4.568589861986395e6 0.0
4.568589861986395e6 -544699.6356826517 0.0
0.0 0.0 0.0

-1.4201990197381945e6 4.978131826451598e6 0.0
4.978131826451598e6 -162739.4978797009 0.0
0.0 0.0 0.0

-4.491787271738114e6 3.639993667001905e6 0.0
3.639993667001905e6 3.208423297377345e6 0.0
0.0 0.0 0.0

-80129.54592057511 642099.4274732161 0.0
642099.4274732161 -473586.7484062312 0.0
0.0 0.0 0.0

-160130.95193421017 4.975040466868983e6 0.0
4.975040466868983e6 -550828.4615759228 0.0
0.0 0.0 0.0

539041.4187093342 4.972972378424464e6 0.0
4.972972378424464e6 -1.3882800413395357e6 0.0
0.0 0.0 0.0

-767679.0915854463 1.1525538294961432e6 0.0
1.1525538294961432e6 1.7583381915791654e6 0.0
0.0 0.0 0.0

-1.3102695366589287e6 -1.1165979775338538e6 0.0
-1.1165979775338538e6 2.123690645702581e6 0.0
0.0 0.0 0.0

909025.3334538151 3.726104230947002e6 0.0
3.726104230947002e6 -1.8729019054852463e6 0.0
0.0 0.0 0.0

-1.1253205252473028e7 1.881629458367175e6 0.0
1.881629458367175e6 9.651396506177919e6 0.0
0.0 0.0 0.0

-219998.28990118904 -896798.1004062471 0.0
-896798.1004062471 534489.4963600282 0.0
0.0 0.0 0.0

-170638.62821854296 10948.224082994087 0.0
10948.224082994087 271974.11394197587 0.0
0.0 0.0 0.0

-190779.12415464327 468424.06484666903 0.0
468424.06484666903 -589884.9682286691 0.0
0.0 0.0 0.0

-424924.30079777725 261544.1622814722 0.0
261544.1622814722 230065.45620047674 0.0
0.0 0.0 0.0

-5.423477040753921e6 8.3184294235653635e6 0.0
8.3184294235653635e6 2.08266019621698e6 0.0
0.0 0.0 0.0

-1.2322717008391055e6 3.3144423528250307e6 0.0
3.3144423528250307e6 640557.6334041529 0.0
0.0 0.0 0.0

1.00935682322607e6 3.137543898185179e6 0.0
3.137543898185179e6 -1.7974183137981293e6 0.0
0.0 0.0 0.0

958555.335181107 3.4486811904170034e6 0.0
3.4486811904170034e6 -2.121351703564249e6 0.0
0.0 0.0 0.0

-1.5168531960501962e6 3.555823055295447e6 0.0
3.555823055295447e6 495929.771101795 0.0
0.0 0.0 0.0

-3.6563178890638347e6 3.138649409268934e6 0.0
3.138649409268934e6 1.1018323348976243e6 0.0
0.0 0.0 0.0

-753637.7485477998 2.0008175742162087e6 0.0
2.0008175742162087e6 2.0087458316218008e6 0.0
0.0 0.0 0.0

-1.9079441754441191e6 3.698583529593331e6 0.0
3.698583529593331e6 2.5116075601406405e6 0.0
0.0 0.0 0.0

-547361.8601246603 5.74672840419133e6 0.0
5.74672840419133e6 -514639.6330587586 0.0
0.0 0.0 0.0

-57369.9651771888 -928403.7387480292 0.0
-928403.7387480292 418607.8509327084 0.0
0.0 0.0 0.0

-6.859675989314687e6 854027.540484085 0.0
854027.540484085 4.65243341700717e6 0.0
0.0 0.0 0.0

-2.858202894810512e6 3.530538252607785e6 0.0
3.530538252607785e6 1.0655793251802213e6 0.0
0.0 0.0 0.0

-2.909109316160592e6 4.3183222740810355e6 0.0
4.3183222740810355e6 5.777972602646883e6 0.0
0.0 0.0 0.0

-570116.9037984039 5.807661043779478e6 0.0
5.807661043779478e6 -391482.16897232266 0.0
0.0 0.0 0.0

-1.5559099047547213e6 5.3151209839010425e6 0.0
5.3151209839010425e6 550113.6603476588 0.0
0.0 0.0 0.0

-1.2344184990022122e6 4.597284062015511e6 0.0
4.597284062015511e6 508040.38187394536 0.0
0.0 0.0 0.0

-1.4865867170653488e6 4.591249767726644e6 0.0
4.591249767726644e6 455623.0527681757 0.0
0.0 0.0 0.0

-1.5128673156979576e7 4.280981123896205e6 0.0
4.280981123896205e6 5.193568469292276e6 0.0
0.0 0.0 0.0

-1.3368556738745428e6 3.238822205868185e6 0.0
3.238822205868185e6 517747.5258986464 0.0
0.0 0.0 0.0

-1.587702895050602e6 5.212306177463756e6 0.0
5.212306177463756e6 128788.77188348654 0.0
0.0 0.0 0.0

-1.0712098234381457e6 4.777248737770844e6 0.0
4.777248737770844e6 330737.668002905 0.0
0.0 0.0 0.0

-537701.2338224065 5.593191071169738e6 0.0
5.593191071169738e6 -514660.2399924215 0.0
0.0 0.0 0.0

906520.3544291803 3.171992222870836e6 0.0
3.171992222870836e6 -1.9710519366951035e6 0.0
0.0 0.0 0.0

-582470.1696433775 5.171173544832112e6 0.0
5.171173544832112e6 -530169.1884887674 0.0
0.0 0.0 0.0

-6.000368849431999e6 1.7338014729307138e6 0.0
1.7338014729307138e6 1.3353792828948488e6 0.0
0.0 0.0 0.0

-2.1191603127730475e6 4.1737048663751134e6 0.0
4.1737048663751134e6 246008.75756295212 0.0
0.0 0.0 0.0

370079.6357822311 249744.80322474625 0.0
249744.80322474625 -452814.80681868223 0.0
0.0 0.0 0.0

-568855.2597817009 4.710602792781719e6 0.0
4.710602792781719e6 -901203.4588395804 0.0
0.0 0.0 0.0

169738.2408905301 5.175879053733016e6 0.0
5.175879053733016e6 -1.2850065108972355e6 0.0
0.0 0.0 0.0

-4.134623981348277e6 2.8983680544384653e6 0.0
2.8983680544384653e6 818217.7541133452 0.0
0.0 0.0 0.0

-161952.77468470862 5.112224765915273e6 0.0
5.112224765915273e6 -652155.4798428277 0.0
0.0 0.0 0.0

449371.47580396174 4.866826312891971e6 0.0
4.866826312891971e6 -1.7092300754434096e6 0.0
0.0 0.0 0.0

-464659.4614932 4.545450608796717e6 0.0
4.545450608796717e6 -1.1616028464123155e6 0.0
0.0 0.0 0.0

-692924.2688219518 4.759302396363676e6 0.0
4.759302396363676e6 -303231.01392165414 0.0
0.0 0.0 0.0

-3.3701313513054606e6 3.0645241379484925e6 0.0
3.0645241379484925e6 1.2059954560536044e6 0.0
0.0 0.0 0.0

-1.9736538865426872e6 4.265787186229653e6 0.0
4.265787186229653e6 913292.3584332927 0.0
0.0 0.0 0.0

940213.6495719358 3.355970149475936e6 0.0
3.355970149475936e6 -2.072229026664063e6 0.0
0.0 0.0 0.0

-2.136520801000896e6 4.670058929261479e6 0.0
4.670058929261479e6 2.5006414276126614e6 0.0
0.0 0.0 0.0

-245751.2635995617 3.214661299110241e6 0.0
3.214661299110241e6 -1.2043595135222434e6 0.0
0.0 0.0 0.0

-3.450657371914245e6 2.409389749144308e6 0.0
2.409389749144308e6 -275729.04392567696 0.0
0.0 0.0 0.0

-146453.78227184917 513409.7987066165 0.0
513409.7987066165 65297.389760799204 0.0
0.0 0.0 0.0

-100482.70164472905 465074.4778743292 0.0
465074.4778743292 175446.09896603852 0.0
0.0 0.0 0.0

487471.8445433014 4.271676063388951e6 0.0
4.271676063388951e6 -726029.4788647075 0.0
0.0 0.0 0.0

26772.679828854307 -776446.0233083062 0.0
-776446.0233083062 606892.7856264324 0.0
0.0 0.0 0.0

-52111.72086446942 5.091244684640841e6 0.0
5.091244684640841e6 -612386.8130708651 0.0
0.0 0.0 0.0

-547329.1693232679 4.932454028791019e6 0.0
4.932454028791019e6 178570.81346535098 0.0
0.0 0.0 0.0

-3.4731886484634615e6 5.006312923605605e6 0.0
5.006312923605605e6 1.5930875530711946e6 0.0
0.0 0.0 0.0

-3.89841928156635e6 -1.2109821922011217e6 0.0
-1.2109821922011217e6 4.3964718641995415e6 0.0
0.0 0.0 0.0

-627311.4820249446 4.209790658461172e6 0.0
4.209790658461172e6 -1.6332717966813154e6 0.0
0.0 0.0 0.0

-396009.4568667012 618350.3878755376 0.0
618350.3878755376 -425067.6931934155 0.0
0.0 0.0 0.0

-607874.2224445873 4.690453280069832e6 0.0
4.690453280069832e6 -323493.48638883984 0.0
0.0 0.0 0.0

-334808.2960354693 4.855011294871211e6 0.0
4.855011294871211e6 395412.33920479665 0.0
0.0 0.0 0.0

-251755.94009044144 -405817.90417300526 0.0
-405817.90417300526 333172.67184150405 0.0
0.0 0.0 0.0

-2.6143538822343703e6 920225.9523596278 0.0
920225.9523596278 2.5455728609047774e6 0.0
0.0 0.0 0.0

-2.073166162746502e6 3.1073567282791836e6 0.0
3.1073567282791836e6 870283.3280283201 0.0
0.0 0.0 0.0

-1.9123782352322869e6 1.4680157033102901e6 0.0
1.4680157033102901e6 3.2368431074491357e6 0.0
0.0 0.0 0.0

-455290.6698863995 5.141349010092751e6 0.0
5.141349010092751e6 -839935.2968131831 0.0
0.0 0.0 0.0

-444693.7592414843 412076.389840849 0.0
412076.389840849 154130.96916143215 0.0
0.0 0.0 0.0

-4.264395816850606e6 -1.7073285767318923e6 0.0
-1.7073285767318923e6 5.373371176511053e6 0.0
0.0 0.0 0.0

-443157.12913806527 5.140464453443715e6 0.0
5.140464453443715e6 -842056.904722021 0.0
0.0 0.0 0.0

-620823.1693236043 4.479763578073975e6 0.0
4.479763578073975e6 -686340.0029260514 0.0
0.0 0.0 0.0

-3.379473332849148e6 -1.198962081443556e6 0.0
-1.198962081443556e6 6.341525699096059e6 0.0
0.0 0.0 0.0

-344484.8671467456 5.631090097930768e6 0.0
5.631090097930768e6 -450907.78721010574 0.0
0.0 0.0 0.0

-123495.43933487599 5.037424612213482e6 0.0
5.037424612213482e6 -489406.2383760529 0.0
0.0 0.0 0.0

-238042.27469760194 2.9875338928061016e6 0.0
2.9875338928061016e6 -171519.92160624347 0.0
0.0 0.0 0.0

-1.486076430946516e6 10398.358959691835 0.0
10398.358959691835 1.6192968689085771e6 0.0
0.0 0.0 0.0

-1.431253885637791e6 -22254.876892772383 0.0
-22254.876892772383 855103.6379925046 0.0
0.0 0.0 0.0

