# vtk DataFile Version 2.0
phase field modeling fracture
ASCII
DATASET UNSTRUCTURED_GRID
POINTS 2538 float
0.0 0.0 0.0
10.0 0.0 0.0
0.0 10.0 0.0
10.0 10.0 0.0
0.0 4.9995 0.0
0.0 5.0005 0.0
5.0 5.0 0.0
0.9416964895726688 0.0 0.0
1.803581725054446 0.0 0.0
2.592419885431098 0.0 0.0
3.314401822861676 0.0 0.0
3.975193910351406 0.0 0.0
4.579982132660152 0.0 0.0
5.133512780936812 0.0 0.0
5.640130319506143 0.0 0.0
6.103810708661955 0.0 0.0
6.528192895506818 0.0 0.0
6.916607540127679 0.0 0.0
7.272102969376355 0.0 0.0
7.597469242948583 0.0 0.0
7.895259826292669 0.0 0.0
8.167811885738017 0.0 0.0
8.417264413845215 0.0 0.0
8.645575169389538 0.0 0.0
8.854535961159101 0.0 0.0
9.045786767735546 0.0 0.0
9.220828555767493 0.0 0.0
9.38103509633881 0.0 0.0
9.527663687265145 0.0 0.0
9.661865124984566 0.0 0.0
9.784692609918062 0.0 0.0
9.897110148790482 0.0 0.0
10.0 0.09999999999992584 0.0
10.0 0.199999999999856 0.0
10.0 0.2999999999997771 0.0
10.0 0.3999999999996677 0.0
10.0 0.4999999999995511 0.0
10.0 0.5999999999994683 0.0
10.0 0.6999999999993983 0.0
10.0 0.7999999999993286 0.0
10.0 0.8999999999992587 0.0
10.0 0.9999999999991888 0.0
10.0 1.099999999999119 0.0
10.0 1.199999999999033 0.0
10.0 1.299999999998852 0.0
10.0 1.399999999998576 0.0
10.0 1.499999999998284 0.0
10.0 1.599999999997992 0.0
10.0 1.6999999999977 0.0
10.0 1.799999999997408 0.0
10.0 1.899999999997116 0.0
10.0 1.999999999996825 0.0
10.0 2.099999999996533 0.0
10.0 2.199999999996241 0.0
10.0 2.299999999995949 0.0
10.0 2.399999999995657 0.0
10.0 2.499999999995365 0.0
10.0 2.599999999995073 0.0
10.0 2.699999999994782 0.0
10.0 2.79999999999449 0.0
10.0 2.899999999994198 0.0
10.0 2.999999999993906 0.0
10.0 3.099999999993614 0.0
10.0 3.199999999993322 0.0
10.0 3.299999999993029 0.0
10.0 3.399999999992738 0.0
10.0 3.499999999992446 0.0
10.0 3.599999999992154 0.0
10.0 3.699999999991863 0.0
10.0 3.799999999991571 0.0
10.0 3.899999999991278 0.0
10.0 3.999999999991022 0.0
10.0 4.099999999991035 0.0
10.0 4.199999999991187 0.0
10.0 4.299999999991338 0.0
10.0 4.399999999991491 0.0
10.0 4.499999999991642 0.0
10.0 4.599999999991795 0.0
10.0 4.699999999991947 0.0
10.0 4.799999999992099 0.0
10.0 4.89999999999225 0.0
10.0 4.999999999992403 0.0
10.0 5.099999999992555 0.0
10.0 5.199999999992706 0.0
10.0 5.299999999992858 0.0
10.0 5.39999999999301 0.0
10.0 5.499999999993161 0.0
10.0 5.599999999993313 0.0
10.0 5.699999999993466 0.0
10.0 5.799999999993618 0.0
10.0 5.899999999993771 0.0
10.0 5.999999999993922 0.0
10.0 6.099999999994074 0.0
10.0 6.199999999994227 0.0
10.0 6.299999999994378 0.0
10.0 6.39999999999453 0.0
10.0 6.499999999994682 0.0
10.0 6.599999999994833 0.0
10.0 6.699999999994986 0.0
10.0 6.799999999995138 0.0
10.0 6.899999999995289 0.0
10.0 6.999999999995442 0.0
10.0 7.099999999995594 0.0
10.0 7.199999999995747 0.0
10.0 7.299999999995897 0.0
10.0 7.39999999999605 0.0
10.0 7.499999999996202 0.0
10.0 7.599999999996353 0.0
10.0 7.699999999996505 0.0
10.0 7.799999999996658 0.0
10.0 7.899999999996808 0.0
10.0 7.999999999996962 0.0
10.0 8.099999999997113 0.0
10.0 8.199999999997265 0.0
10.0 8.299999999997418 0.0
10.0 8.399999999997569 0.0
10.0 8.499999999997721 0.0
10.0 8.599999999997873 0.0
10.0 8.699999999998024 0.0
10.0 8.799999999998176 0.0
10.0 8.899999999998329 0.0
10.0 8.99999999999848 0.0
10.0 9.099999999998634 0.0
10.0 9.199999999998786 0.0
10.0 9.299999999998937 0.0
10.0 9.399999999999089 0.0
10.0 9.499999999999241 0.0
10.0 9.599999999999392 0.0
10.0 9.699999999999545 0.0
10.0 9.799999999999697 0.0
10.0 9.899999999999848 0.0
9.897110148790565 10.0 0.0
9.784692609918244 10.0 0.0
9.66186512498486 10.0 0.0
9.527663687265571 10.0 0.0
9.381035096339392 10.0 0.0
9.220828555768257 10.0 0.0
9.045786767736512 10.0 0.0
8.854535961160305 10.0 0.0
8.645575169391027 10.0 0.0
8.417264413847017 10.0 0.0
8.167811885740178 10.0 0.0
7.895259826295246 10.0 0.0
7.597469242951631 10.0 0.0
7.272102969379938 10.0 0.0
6.916607540131873 10.0 0.0
6.528192895511704 10.0 0.0
6.103810708667616 10.0 0.0
5.640130319512691 10.0 0.0
5.13351278094435 10.0 0.0
4.579982132668816 10.0 0.0
3.975193910361222 10.0 0.0
3.314401822869852 10.0 0.0
2.592419885437257 10.0 0.0
1.803581725058137 10.0 0.0
0.9416964895740705 10.0 0.0
0.0 9.00010000000243 0.0
0.0 8.000200000005481 0.0
0.0 7.000300000005135 0.0
0.0 6.000400000002569 0.0
0.901790731451151 5.000409820926855 0.0
1.657200899774397 5.000334279910023 0.0
2.289991063707192 5.000271000893629 0.0
2.820065163538221 5.000217993483646 0.0
3.264096435579811 5.000173590356442 0.0
3.636051481595835 5.00013639485184 0.0
3.947629914072366 5.000105237008593 0.0
4.208632181002628 5.0000791367819 0.0
4.427267949625672 5.000057273205037 0.0
4.610414277633563 5.000038958572237 0.0
4.763831845154243 5.000023616815485 0.0
4.892346298799659 5.00001076537012 0.0
4.892346298799748 4.99998923462988 0.0
4.763831845154455 4.999976383184515 0.0
4.610414277633943 4.999961041427763 0.0
4.427267949626277 4.999942726794963 0.0
4.208632181003523 4.9999208632181 0.0
3.94762991407365 4.999894762991407 0.0
3.636051481597624 4.99986360514816 0.0
3.264096435582253 4.999826409643559 0.0
2.820065163541503 4.999782006516354 0.0
2.289991063711534 4.999728999106371 0.0
1.657200899778495 4.999665720089978 0.0
0.9017907314530094 4.999590179073145 0.0
0.0 3.999600000002013 0.0
0.0 2.999700000005187 0.0
0.0 1.99980000000512 0.0
0.0 0.9999000000025537 0.0
9.897889398521345 2.93573355845387 0.0
9.906568249974548 7.060009441434234 0.0
9.913122631074113 3.64016132281653 0.0
9.922462129543863 6.354535290629151 0.0
9.917693659967533 4.354211663134567 0.0
9.909873057440208 5.637584487339942 0.0
9.914183254994697 4.950672966925282 0.0
9.913885043715895 7.666887930262611 0.0
9.91009668007573 2.351889069770817 0.0
9.905135696074536 8.138152454502785 0.0
9.913397459621809 1.849999999997262 0.0
7.099302372137626 0.297750452375005 0.0
7.095143729410097 9.700359990366296 0.0
4.942912558701401 5.095838627899509 0.0
4.315009232304429 5.165022115481685 0.0
4.946182472483878 4.906763777264103 0.0
4.317967462990024 4.825955043772673 0.0
9.916390871492647 8.64999999999792 0.0
9.921504649680616 1.368376469890358 0.0
8.292538149791614 0.206877570318844 0.0
8.292538149793597 9.793122429681448 0.0
5.884594439766573 9.587645267048616 0.0
5.794826292691579 0.3794853783929359 0.0
9.913397459621425 9.049999999998557 0.0
9.908526577714177 0.9568239351922434 0.0
3.456851160380649 5.315740054130451 0.0
3.457889657868442 4.707121019609468 0.0
8.945214200703926 0.1503383337970344 0.0
8.950161364448409 9.8413906539257 0.0
9.913862335499305 4.055887885208452 0.0
9.916697353372683 4.650158482607802 0.0
9.919076340414442 6.049999999994006 0.0
9.906994308667635 5.25749687748192 0.0
9.917490342358025 6.655979201891897 0.0
9.915757520293784 7.343848891656911 0.0
9.910049507471042 3.363474386285078 0.0
9.914471988502868 2.647400064832979 0.0
9.91474124160965 9.337490423485129 0.0
9.916971008170838 0.6499999999994355 0.0
4.307157269264427 9.509674045029644 0.0
4.331527375865619 0.4401616696422582 0.0
9.45434939180249 9.878397030523757 0.0
9.457696120412969 0.1270877537061785 0.0
2.555070293622606 5.422044496190925 0.0
2.566232917480916 4.608001224030952 0.0
3.026511860837692 9.332320638257093 0.0
2.945561971800619 0.5895662714727601 0.0
7.7395404387124 0.2511088946967771 0.0
7.736379255744154 9.745848826372828 0.0
4.687135269408529 5.122111433928926 0.0
4.688420821504113 4.871895064967488 0.0
9.910554884115975 0.3448356354522978 0.0
9.911230082250466 9.65764729394159 0.0
9.921953841410854 6.851023993342036 0.0
9.912065178606017 5.448170483544033 0.0
9.911660025326261 3.861846960030188 0.0
9.914847467973438 3.14501593945607 0.0
9.913397459621425 5.849999999993703 0.0
9.913397459621425 7.849999999996735 0.0
9.906916878988277 2.15455769998631 0.0
9.913397459621425 8.349999999997479 0.0
9.909472363117661 1.640528221515488 0.0
9.913987325695956 1.152857110636247 0.0
9.913397459621425 8.849999999998241 0.0
0.9100099990995943 2.614215977520411 0.0
0.8395284981715456 7.451196254860987 0.0
9.723278867451556 9.898135916635193 0.0
9.723316350887044 0.09841820909386662 0.0
1.385819164827588 4.454539963646463 0.0
1.338343629665047 5.523111536005823 0.0
1.377179700550677 0.6809168304959698 0.0
1.418060461092743 9.285896715136046 0.0
9.91268220142518 0.1457914080939694 0.0
9.906737126737994 9.845745933882352 0.0
0.7108351382691361 6.537941170074089 0.0
1.527735020267026 6.915620208855231 0.0
1.630993885659103 7.838271825205868 0.0
2.232760943566823 7.370850737296832 0.0
2.243414218068206 6.688299277952821 0.0
2.779655053105118 7.021588754814074 0.0
2.80227799359795 7.632420170547022 0.0
3.282022065908813 7.305859666021318 0.0
3.327597298795347 7.857554136825748 0.0
3.743210251018715 7.549183328204379 0.0
3.716353232200752 7.062036086888612 0.0
4.111978858674101 7.27497101169417 0.0
4.104192177581432 6.879858986267289 0.0
4.436230765617037 7.045693351607117 0.0
4.430360014817357 6.703971783962796 0.0
4.732390145036301 6.849841042423394 0.0
5.056161327708878 5.095276573498806 0.0
5.111586796021131 4.999081142133581 0.0
5.169267363407189 5.09444870412406 0.0
5.223795108752053 4.996986220359468 0.0
5.281480803887719 5.092780870372803 0.0
5.335670761900611 4.994887492556936 0.0
5.393485214772442 5.090486192743301 0.0
5.447323082877892 4.992601527033996 0.0
5.505243219343024 5.087953380710069 0.0
5.558739102026105 4.990287787962959 0.0
5.616491581184779 5.085335255235766 0.0
5.669852346908056 4.9879269227514 0.0
5.727502713908907 5.082679981817038 0.0
5.780766004135139 4.988313988715834 0.0
5.838244881129535 5.080480568766611 0.0
5.891357695677371 4.986433849408193 0.0
5.948696036767613 5.077969900389505 0.0
6.001601341641615 4.981313698556656 0.0
6.058851024265095 5.074871552128682 0.0
6.111614020704875 4.978360695880202 0.0
6.168801161530775 5.072044953270978 0.0
6.221368818778567 4.975825765213497 0.0
6.278268309066882 5.066182320461055 0.0
6.330814273567539 4.972837984645718 0.0
6.387565032421376 5.062889771971895 0.0
6.437476667631405 4.971693683589553 0.0
6.496181111585419 5.060210690175857 0.0
6.539454812256072 4.964658165361536 0.0
6.604198202576491 5.056387520850258 0.0
6.648506025747331 4.939374587506267 0.0
6.714026758992516 5.05873885840664 0.0
6.764418045981209 4.959246676066148 0.0
6.8219334571197 5.055299567406268 0.0
6.873708540948134 4.960426349093742 0.0
6.930181428849307 5.053461390218819 0.0
6.981893615341967 4.96435459462232 0.0
7.037791764774784 5.051219747103022 0.0
7.090993561518408 4.96392420322464 0.0
5.504417457283294 4.900897920552702 0.0
7.145434864123609 5.048960634292441 0.0
6.054532384032612 4.883956083938546 0.0
6.738027949040956 4.850032323068674 0.0
7.198432914526514 4.956325226333323 0.0
7.252637187936749 5.046012229327236 0.0
7.30926729605109 4.948903216650376 0.0
7.248106275544042 4.860306312845646 0.0
7.363100274863074 4.849952416808486 0.0
7.365733472701664 5.039519554615095 0.0
7.308483293090149 5.137557220352172 0.0
6.768399513646964 5.145609705119954 0.0
7.422800035311104 5.132251445551834 0.0
7.358273518796229 5.235980394389298 0.0
7.480824155801127 5.227946127939927 0.0
7.302193400058628 4.761917474298247 0.0
7.413570879789824 4.754555110721153 0.0
7.414392998903179 5.334729114426734 0.0
7.352769630272076 4.660405502266205 0.0
7.467556835255426 4.658352623795039 0.0
7.536246869015014 5.328986926716081 0.0
7.478865844607288 5.432598185493195 0.0
7.406396991826072 4.556956233957538 0.0
7.523581002009154 4.552005631348623 0.0
7.597792398573263 5.429506106314967 0.0
7.540511043402902 5.53619421580439 0.0
7.46214474876342 4.452580994318881 0.0
7.5852185078634 4.446021810672608 0.0
7.663329342323453 5.533453399066901 0.0
7.603478967594521 5.643227430483237 0.0
7.513450346818673 4.347641323140766 0.0
7.640744971722214 4.333388343316237 0.0
7.727671715775243 5.642390483050116 0.0
7.667774597993788 5.753188858425915 0.0
7.570065256728661 4.230515669344811 0.0
7.702881065467917 4.218307808529532 0.0
7.638288257073729 4.107994211855027 0.0
7.493362356301017 4.120843902105771 0.0
7.779018500630071 5.521233457321821 0.0
7.794641287388929 5.752364621610818 0.0
7.73369774483611 5.865894287356292 0.0
7.600834531784728 5.867752110500446 0.0
6.233038857278689 5.15645045634683 0.0
7.669727996028819 5.985665563643058 0.0
7.528582452554481 5.987393423295551 0.0
7.598722674572824 6.11001923494443 0.0
7.778305000222867 4.104318908265786 0.0
7.704329019832056 3.987744174608892 0.0
7.838453459801382 4.213322728668484 0.0
7.864495721576461 5.862306066517277 0.0
7.846552353360407 3.98481756181946 0.0
7.769730409703277 3.86544808681145 0.0
5.785249360396857 5.177248808588045 0.0
7.908837087876153 3.861484036275285 0.0
7.834824606222196 3.740586825753288 0.0
7.97685993406276 3.736209527152902 0.0
7.89665098770825 3.615501862931453 0.0
7.753228010315262 3.617800245018972 0.0
7.826063013090472 3.483173292579822 0.0
7.66789744383048 3.48859328808356 0.0
8.042515855796823 3.595394268381807 0.0
7.75200750488492 3.341279823834038 0.0
7.582870318332553 3.346584916806707 0.0
8.120807847415062 3.732493963388337 0.0
8.189783970303546 3.61159165475499 0.0
7.657801000286734 3.200439907646711 0.0
7.486781956172036 3.201402473247712 0.0
7.452595103886905 6.11418616185016 0.0
7.527098033550077 6.243191052852112 0.0
8.260502906807751 3.728437634721859 0.0
8.327629317451398 3.608173631356984 0.0
7.372763970891452 6.247552889754036 0.0
7.456170570815929 6.384992468962936 0.0
7.621837793616884 6.376077080857113 0.0
7.548039512904141 6.520750676893614 0.0
7.717475944451644 6.514856553988943 0.0
7.636658166268699 6.661648164052906 0.0
7.807468267259438 6.664076174524672 0.0
7.718022764310774 6.817938967122142 0.0
7.887785766941087 6.807440365887151 0.0
7.545993589083432 6.815070675854734 0.0
7.809874785067209 6.967537287475282 0.0
7.975643812145337 6.948729406725126 0.0
8.396477808021062 3.725446935061211 0.0
7.565651643157136 3.044354774611752 0.0
7.384328725505071 3.043048915147076 0.0
8.056405351948353 6.802790889114673 0.0
8.14128318237188 6.940027831915737 0.0
8.064621760266059 7.086348792208953 0.0
8.225003598857908 6.805225152373254 0.0
8.463085452993242 3.606998510553562 0.0
8.230426869720718 7.079551841000411 0.0
8.155262284174286 7.224761758176069 0.0
8.530696760758996 3.721683301125054 0.0
8.596669886994064 3.604516769862316 0.0
8.528531058025589 3.490411531312337 0.0
8.320451770844851 7.218191678954744 0.0
8.245273958732774 7.363444652121271 0.0
8.66324687389452 3.717094013035765 0.0
8.600103125209296 3.831913857228569 0.0
8.662131102573216 3.488322280861316 0.0
8.594166125380536 3.374071873435548 0.0
8.411074336066186 7.353871649576861 0.0
8.339644223432472 7.505172120620427 0.0
8.165883718619623 7.513159193685373 0.0
8.483453820080417 7.2082285366806 0.0
8.261200365730348 7.657400951288149 0.0
8.081570576666843 7.670933304838066 0.0
7.471613195794025 2.872548423100142 0.0
7.268733678357991 2.881209199257603 0.0
7.184255506995786 3.084448584600423 0.0
7.065899603697895 2.883902449336828 0.0
6.960163891183182 3.081014635802978 0.0
6.847612128388715 2.885646860602812 0.0
6.739800729737967 3.078895733381448 0.0
8.729373804596847 3.827689165637365 0.0
8.668550856907444 3.938702277545298 0.0
8.72770789162863 3.371798381178293 0.0
8.659764090070603 3.257493349874974 0.0
8.436453928793245 7.648724489148887 0.0
6.619080287792762 2.90880017416788 0.0
6.511740956842646 3.09340654756684 0.0
8.793527829963288 3.935174834810256 0.0
8.736430500996828 4.042719556852617 0.0
7.631260330584174 4.565300771328012 0.0
8.359058396840432 7.801678182761817 0.0
5.339436215072359 5.184870243702279 0.0
4.994031736761993 5.193306795607908 0.0
6.383387675268097 4.87760645722207 0.0
7.29117392392962 6.382172868329505 0.0
6.378196825372041 2.907113079755629 0.0
6.269817199014261 3.12412150658573 0.0
8.793149127377946 3.255386294257182 0.0
8.725774239201558 3.141596687892195 0.0
8.857434600673502 4.041295940541356 0.0
8.802868937128341 4.1471119953668 0.0
8.532045262478793 7.7905977476835 0.0
7.364542641624493 2.699128473342751 0.0
7.571677611088925 2.695732556686516 0.0
6.723058333614999 2.672341359410618 0.0
8.456744924757372 7.94483904450548 0.0
6.140831279784704 2.921247401137864 0.0
6.02419219050745 3.14358702955763 0.0
8.916255604212301 3.934279868822481 0.0
8.859287250884009 3.140226640574265 0.0
8.791092798057303 3.025929352146465 0.0
7.210445465986021 6.245773134960393 0.0
7.120884161792869 6.385155584680196 0.0
7.036931702064287 6.240721609143972 0.0
6.943722280007011 6.3869279517155 0.0
8.920094519678617 4.144837222494242 0.0
8.864374107136287 4.250930406527029 0.0
7.347569838739255 4.463467417508182 0.0
5.90383431757064 2.935113219563906 0.0
5.783476009580765 3.156456199832474 0.0
8.626013191558314 7.935092223505354 0.0
8.687240186957197 7.796697889991163 0.0
5.642059327424706 2.903018174330269 0.0
5.52647853955939 3.162549070310043 0.0
8.555300051897738 8.086169516016518 0.0
8.405624441178524 8.083972416481254 0.0
5.374124307190728 2.945480555950917 0.0
8.935805220807357 3.249260758206028 0.0
8.981625171409894 4.247375537584228 0.0
8.924725364486765 4.352101286657735 0.0
8.807208588134106 4.356163101450244 0.0
8.868277832430604 4.45657124153171 0.0
8.75099635287701 4.460644845248524 0.0
8.812385950597063 4.560891222623518 0.0
8.693833206943118 4.564602972998703 0.0
8.756474732548273 4.665720853686476 0.0
8.63721608225855 4.669394550615355 0.0
8.700108119351134 4.770682016274914 0.0
8.81920502916846 4.767536120893284 0.0
8.76355311338807 4.871451945248518 0.0
8.881442328033694 4.868382238751069 0.0
8.826433523510634 4.97132552240372 0.0
8.943387824985514 4.967694248194483 0.0
8.888718468126953 5.071044784833541 0.0
8.580377663835254 4.774669738817985 0.0
8.770572242937233 5.073880380431421 0.0
8.832915096600454 5.174518948293615 0.0
8.952224483821848 5.170970838320107 0.0
8.897282771771884 5.275476392171722 0.0
7.463928467290875 2.513944501591933 0.0
7.675935950092034 2.509420347143072 0.0
8.924252417741767 3.024418701372628 0.0
8.857265893102921 2.911213535286156 0.0
8.776981063213334 5.27944309004916 0.0
8.840710910770163 5.380165700477552 0.0
8.960876896785969 5.375521424256389 0.0
8.904555918255223 5.482125846038813 0.0
7.567193097677677 2.32750151280277 0.0
7.780880844888839 2.323064027160363 0.0
6.851602118390116 6.234522818184622 0.0
6.758680682687229 6.389359516748128 0.0
6.66345977321418 6.231254850996584 0.0
8.715764716958308 8.079994249772627 0.0
8.65189989696114 8.227534663647639 0.0
9.042229096541828 4.348551764001607 0.0
6.436774206993324 3.316782326998922 0.0
7.590527613340588 5.22651784724799 0.0
9.024366884701616 5.476726561488805 0.0
8.968734351641839 5.583879050892151 0.0
8.845941080047659 5.586406316932274 0.0
8.909881305857882 5.690482454668167 0.0
7.348726871578975 5.44047403999932 0.0
6.567070253986433 6.398115757512583 0.0
6.697077150072261 6.553426749743366 0.0
5.252377383990728 3.187782967482479 0.0
8.988440431820699 2.908621158637298 0.0
8.922541972760119 2.796420836075996 0.0
6.466806010659505 6.229115583261771 0.0
9.033851153821296 5.686506775615425 0.0
8.978340519963718 5.795772485582058 0.0
8.85111463793018 5.798672910287243 0.0
8.922171984280597 5.907237880910408 0.0
8.795190680908043 5.911854068712683 0.0
8.864373398892472 6.019728357749566 0.0
8.991346995940626 6.014539153309398 0.0
8.93374019140187 6.12698887312768 0.0
5.095192648098848 2.952353430985476 0.0
7.672651464908932 2.141715359830917 0.0
7.886266921042761 2.136211284120189 0.0
9.098474286589756 4.245971410451114 0.0
8.813172564986438 8.216887361735234 0.0
8.74802978243154 8.366104673219047 0.0
9.059985162956899 6.120982589539211 0.0
9.00342813739303 6.233245043891739 0.0
4.961413514304496 3.214209167276753 0.0
9.05248113004685 2.794651022570942 0.0
8.986028039118027 2.681341972594222 0.0
5.671890458441996 3.377122473800023 0.0
4.755829262593116 7.184480462344647 0.0
9.158258644940048 4.34465968221255 0.0
4.799687186662534 2.961354824469195 0.0
6.030554747591715 2.726787502996874 0.0
8.938327180212585 8.34758372042188 0.0
8.847392320655468 8.503370672816716 0.0
8.67342124373679 8.518117686968314 0.0
5.234423106934083 2.694925204361751 0.0
8.964923046453565 8.185313058214797 0.0
7.456650986668838 2.134076476407834 0.0
9.111732084821366 2.897226832609386 0.0
6.368055837513985 6.402805870976705 0.0
6.265629899005033 6.226581076317183 0.0
8.736327196352686 6.026404178766982 0.0
9.117473097358854 2.67987006607594 0.0
9.052137415465204 2.565428515518978 0.0
7.781001557847192 1.955874236406257 0.0
7.992134447300669 1.949184538864554 0.0
8.593074792993455 3.143159483125708 0.0
9.1291360203536 6.226877897052981 0.0
9.072154326613617 6.338696745620542 0.0
8.916532550320525 2.566986282201109 0.0
8.984021113721658 2.449252898983242 0.0
9.178032243215632 6.120533546076094 0.0
9.213703592343162 4.244823670856978 0.0
9.11972142641474 2.449071238668887 0.0
9.052853896812186 2.33190758581705 0.0
8.635035926402708 4.462329956179506 0.0
8.773614475966344 8.657865377672689 0.0
8.596400917257634 8.67759750279447 0.0
8.942023339420883 8.644678093589654 0.0
9.19471670675691 6.33096438039349 0.0
9.138460613363325 6.443043552768813 0.0
8.66620319432524 5.916297234509582 0.0
8.606669825267202 6.032658196729024 0.0
9.27222540210304 4.341341907533128 0.0
9.013782808177437 6.451040569407859 0.0
9.08360982569773 6.55729980456602 0.0
7.885622149776354 1.768093045890686 0.0
8.095672144455353 1.768790621151345 0.0
9.208772072925791 6.549717411809656 0.0
9.154272208194383 6.662613503537815 0.0
9.187669783927937 2.334640996932141 0.0
9.122379015831417 2.215832190697178 0.0
6.164077036161143 6.404611236428829 0.0
6.062367614988677 6.224307160647549 0.0
8.987075041759633 2.211477580983978 0.0
9.056972755801603 2.093573581203428 0.0
9.194557288902232 2.096029761809264 0.0
9.131223008370409 1.972713028695079 0.0
8.87381302587057 8.795793668920256 0.0
9.039169086943392 8.781606667490083 0.0
4.662813350519927 3.228118291851354 0.0
4.474181267994617 2.945703616023359 0.0
6.562627723301209 6.075544382232434 0.0
9.326886053211574 4.243083624343211 0.0
9.280374192897945 6.656072830232892 0.0
9.224718905178564 6.766740750539347 0.0
4.703284910421452 6.528907865005451 0.0
8.955136474970331 6.565989985649191 0.0
8.998148826814893 4.865480736169776 0.0
8.99429836796776 1.965972383552685 0.0
9.065669391141741 1.847195105148808 0.0
9.207236162050343 1.853010386995843 0.0
9.143218073349985 1.725630086781897 0.0
8.998867447699345 1.719378449325465 0.0
9.082595782768397 1.592017827427701 0.0
8.92804562738841 1.585238202229766 0.0
9.01637794607019 1.453847302675876 0.0
8.854253119154375 1.446306868730686 0.0
8.941620273019874 1.320083886766936 0.0
8.775393064215876 1.308487027359826 0.0
9.102170347200483 1.324733726345249 0.0
9.013857060361985 1.178821526410403 0.0
7.991031819452564 1.587689878441685 0.0
7.767218744640202 1.595993197647291 0.0
9.191539171305216 1.194087248761656 0.0
9.123965901037613 1.057102462689568 0.0
4.853921953226772 3.470213116851758 0.0
7.496563223334782 3.470157221608763 0.0
8.536691379028115 5.921845852206257 0.0
8.475496498707471 6.037633662010236 0.0
7.978668526342969 2.307231488316941 0.0
9.384721922092124 4.337357165846226 0.0
9.331039180200886 4.435926256444196 0.0
8.546261775564837 6.150267290476958 0.0
8.411727261785726 6.155319300628062 0.0
8.972203609044218 8.930944433074036 0.0
9.133480321468399 8.90955269607895 0.0
9.197778815538276 8.768743880012563 0.0
6.162231825784922 6.05277753404107 0.0
5.962111081146334 6.046949845237622 0.0
9.268727788642101 4.146883230687689 0.0
9.380694211527906 4.144811697563401 0.0
9.323823335199954 4.049557759546529 0.0
9.283324894520613 1.736313094621396 0.0
5.858151623803662 6.22041808248046 0.0
5.759668475561988 6.038806123495502 0.0
7.836860473863919 3.191674397465999 0.0
9.348591928839294 6.75855034547469 0.0
9.293979592221298 6.870213350675044 0.0
9.170543172728557 6.879819332293818 0.0
9.240028263813034 6.983394994050525 0.0
4.347372565145963 3.312731475520695 0.0
4.114183445909965 2.96879678229065 0.0
8.616264880152233 4.042035981070631 0.0
9.403174760076901 6.650407069150438 0.0
4.173860112179449 7.723461240865885 0.0
9.365302975518428 6.973476802087294 0.0
9.312420275675276 7.088420778208979 0.0
9.184876614539778 7.0978133687822 0.0
9.25921281729617 7.204979813006656 0.0
9.12816413817609 7.21569648263899 0.0
9.203944409919862 7.322703303071253 0.0
9.334311975087337 7.311477957762272 0.0
9.280415785210538 7.428795599957155 0.0
9.274060219641907 1.066603180421249 0.0
9.211820491509728 0.9316562593680151 0.0
9.050684011148748 0.9017681241401576 0.0
9.441953732403995 4.432092590771756 0.0
9.394725873909666 4.526051349391942 0.0
9.43453556160865 4.048003950509361 0.0
9.378043599351757 3.952631412328806 0.0
9.289691247910705 8.890746792319852 0.0
9.228148443138926 9.030109127390128 0.0
4.440757888677695 6.389562448928118 0.0
4.689874463978985 6.239329075084555 0.0
4.291519540095677 2.622920583112654 0.0
3.886073352912894 2.632778677714434 0.0
9.344015622314338 1.202401041544343 0.0
8.193292196814806 3.849649660906171 0.0
6.960946604527747 6.07044529864598 0.0
9.347708267319902 8.756364147482309 0.0
6.826423138602714 3.261415861395883 0.0
6.06309517882478 5.884563187328262 0.0
9.4085057714426 7.414123963607981 0.0
9.356416821537886 7.532359471354527 0.0
5.042074134251055 6.938947182785697 0.0
5.063988238156824 7.311205832605263 0.0
3.946666851334923 3.30681624613374 0.0
8.189857914071878 1.939951128540477 0.0
7.880690277686857 1.38928908049477 0.0
7.63766396748483 1.399736360041063 0.0
9.345004233592562 1.857695941115052 0.0
9.440465164139875 7.085860901905448 0.0
7.918332480761888 5.744468010879592 0.0
9.08007135068879 5.372457017512481 0.0
8.78639561093144 3.718391405525285 0.0
9.356843485085705 0.9414458825132457 0.0
9.29705128845331 0.8103081541678832 0.0
9.251825423225316 2.451701826351773 0.0
8.483895366325516 6.270717564685176 0.0
8.346386886249478 6.275973306650227 0.0
9.493299170161215 4.138582531223591 0.0
5.321115649032961 7.117073603021904 0.0
5.354076009109965 7.436189411362466 0.0
5.597984079819928 7.254284331170681 0.0
5.644042313435943 7.564172740776336 0.0
5.383963016128051 7.753854027984002 0.0
5.681168258142109 7.880444993178456 0.0
5.935548099874979 7.687258900444162 0.0
5.979508404301389 7.994332725561488 0.0
6.21936843555201 7.802335560754011 0.0
6.267092590637372 8.104873033518185 0.0
6.498845418385807 7.917606504106031 0.0
6.544600005636809 8.209910620392591 0.0
6.77336078689533 8.027284686082275 0.0
6.814840179123049 8.311778392637773 0.0
6.721304148677048 7.737863326704131 0.0
7.031320924898797 8.1335673274533 0.0
7.077388928622946 8.403901803728003 0.0
5.417471987089176 8.090112295667405 0.0
8.845427688507666 2.446352368201366 0.0
9.318512319918124 2.339233739859646 0.0
9.380241452597096 2.451895615249572 0.0
7.283805558009199 8.237518806365102 0.0
7.329200330160381 8.497045124353782 0.0
7.233272584416691 7.991590926766813 0.0
9.142592248414191 5.471315142785471 0.0
9.196303265878848 5.36738298742727 0.0
9.25795832955665 5.465260877691205 0.0
9.310581303233182 5.36341558704714 0.0
9.371094700882272 5.459458038195667 0.0
9.422767107822985 5.360687090455724 0.0
9.36402660964156 5.264821436196721 0.0
9.474220736978928 5.262802348886269 0.0
9.41680330511366 5.169477108906666 0.0
5.168675939028436 4.895496152382537 0.0
9.482591449057548 5.454699312257291 0.0
9.431567605310825 5.552723344040521 0.0
7.531449703396948 4.741663470323411 0.0
8.517293123442691 4.672601123164268 0.0
8.459978676626639 4.778466809901586 0.0
8.396595115309985 4.67568709170855 0.0
8.338966609235166 4.782101664607259 0.0
8.275355646032752 4.678829956447008 0.0
8.217675280223542 4.785699596769931 0.0
8.28149024865807 4.888803783902183 0.0
8.16019781596952 4.892696417098926 0.0
8.22433278506531 4.995725219088695 0.0
8.102825704443651 4.999629142625341 0.0
8.166887930010795 5.098242831115916 0.0
8.034904900788316 4.896825406879729 0.0
8.15353539905931 4.682103688185489 0.0
8.211891449058882 4.574219757233394 0.0
8.290305306104333 5.094007100958221 0.0
8.225684228618732 5.201525567655179 0.0
9.444618942559746 2.343141375196729 0.0
6.929446520625337 4.868116916840016 0.0
5.737810725167649 4.893891407574175 0.0
8.720389971487277 5.38508368411851 0.0
8.805734920311323 8.951818172412821 0.0
8.905272694453211 9.083303226359831 0.0
6.006155038818204 5.171375272745409 0.0
6.431496448228514 5.152985998213245 0.0
9.052675024457304 7.106590131831544 0.0
7.740007013494393 6.09727525827826 0.0
9.375852260355511 9.013078430361404 0.0
9.32035844773103 9.14584923943073 0.0
6.989707597683965 5.146377438798643 0.0
9.488190206836386 3.951168069367155 0.0
9.432429152094464 3.855725756072153 0.0
5.568386402814275 5.185723849666124 0.0
9.525561551078322 5.166162126187324 0.0
9.465026391994275 5.072601962964018 0.0
9.320357339516937 3.857795423728873 0.0
9.375955927831914 3.759314274140895 0.0
9.261783786753899 3.761412578759438 0.0
9.31820665563318 3.661845422072752 0.0
9.431798673168924 3.660830894813109 0.0
9.374584413615914 3.563138564686839 0.0
9.48759661134647 3.562294297118573 0.0
9.431339678707085 3.464016717943268 0.0
9.417896212887529 1.746970678437863 0.0
8.731705369070733 9.110902182838881 0.0
5.652297951447118 6.21188565774667 0.0
5.569122518069258 6.024400786163834 0.0
8.257007204149394 3.505875091031567 0.0
8.717428603143034 2.925525757227976 0.0
6.882852832747376 8.57686572931064 0.0
6.337330066435714 8.416819098143066 0.0
9.50188906539997 4.521022403818629 0.0
9.453500859905136 4.617181635748691 0.0
9.46806769570129 6.749352117850711 0.0
8.836822104875719 1.72282859852854 0.0
7.481071063421426 5.64593758994851 0.0
5.668814988976305 5.86611128457842 0.0
5.487644760735084 5.847591822776978 0.0
8.993992818065195 7.228173913870249 0.0
7.98322414937693 7.229980191466666 0.0
9.22810751684646 7.54864871395298 0.0
9.304103360459063 7.654622011545798 0.0
9.432787371848761 7.633691049023619 0.0
9.382619818023882 7.759136995934441 0.0
7.239096822516492 4.679179578301165 0.0
9.47692479956498 1.861231395362419 0.0
8.041243110813022 5.095895152648969 0.0
6.190208781188077 7.509864122823853 0.0
9.283062812782122 4.549418667685757 0.0
9.503847665760087 2.450295046295932 0.0
9.443345385250678 2.557904120404248 0.0
9.52009568463353 6.644015937008899 0.0
9.203119005973903 3.662458522935253 0.0
8.406198651282708 5.92630414760378 0.0
8.467263597743843 5.811987729136874 0.0
9.461423029059445 9.128120577356565 0.0
9.408445330070542 9.26024300250086 0.0
9.266505293379728 9.277952925446408 0.0
4.14874709022218 3.631681332690154 0.0
9.437448107949258 0.8198473430736303 0.0
9.376993771693973 0.6910550697058979 0.0
9.22882356848217 0.6931820370818127 0.0
4.451823867195988 6.103664366188579 0.0
4.200031743909027 6.232039028149317 0.0
4.687154754667774 5.975132870483986 0.0
6.268889397098538 6.592235545990395 0.0
7.509366161722768 8.340075462391164 0.0
7.564775703413765 8.59800936579159 0.0
9.542148732924264 3.854614593058991 0.0
7.036231103929761 6.550562550831048 0.0
4.089373665437328 2.268193930262139 0.0
3.642558884866483 2.250386188148396 0.0
3.442182385618804 2.651948803899947 0.0
3.146832503011753 2.222630466765926 0.0
2.948870467975985 2.805088883766417 0.0
9.352005315330274 5.067356449300542 0.0
9.31729677031493 3.462944187594675 0.0
9.37428383619102 3.365546369736205 0.0
9.4883538239391 3.365384871181599 0.0
9.432147665178338 3.267287636377487 0.0
9.25034519267688 7.775848812012313 0.0
9.332091350002502 7.881724023243533 0.0
9.462101000264603 7.86490055671988 0.0
9.413353271651825 7.98561007219363 0.0
8.273592814723814 6.158623919352561 0.0
8.207135014732339 6.280394934566054 0.0
9.541483811580331 5.548224291759592 0.0
9.491365919893726 5.644847811894615 0.0
8.088095771120983 4.577581369371366 0.0
8.14760102783746 4.468303741922308 0.0
9.556217963323956 4.414867468889523 0.0
9.543667331547693 3.266908751519594 0.0
9.489307652535885 3.169908976697059 0.0
9.26285575842982 8.635341362685686 0.0
9.403220742003983 8.621447866627538 0.0
9.326013417886902 8.506778946171965 0.0
9.455477927154853 8.503896705359047 0.0
9.566646674069602 4.611465258087684 0.0
9.499341049870914 0.9352184973273918 0.0
8.683891958597638 1.444705608998412 0.0
8.599973456173778 1.287265568270043 0.0
7.760988189317371 1.175381292562583 0.0
7.50927661322749 1.171223823957793 0.0
7.380927152434357 1.411062577009695 0.0
7.242417847270241 1.170759311509981 0.0
7.107236746116019 1.421234419770886 0.0
6.960799033544566 1.169618322344823 0.0
6.817786081200392 1.434174581170586 0.0
9.48095050141868 8.738557748483624 0.0
9.319762046171894 3.263060331456388 0.0
8.920653400180534 7.117307656029475 0.0
9.452431221190624 6.544166520883111 0.0
9.571407933653493 6.540336592280795 0.0
9.507586285214174 6.443281357841339 0.0
9.575252974749443 5.070210512157044 0.0
5.755172844377253 6.370710487467459 0.0
9.541351959064952 7.969072511059531 0.0
9.354607289792183 9.3921968735401 0.0
9.495213435762107 9.37218405175897 0.0
3.77688136092967 3.643094492921176 0.0
5.460967180339239 6.159077196937325 0.0
8.656589552918996 5.283032675040985 0.0
8.599307076390474 5.387421722684671 0.0
9.584017606465821 5.263931993965828 0.0
9.51536593891754 4.977534386249715 0.0
7.788544970111893 2.70578432810479 0.0
7.381746833264364 8.755477463411431 0.0
7.615969996822885 8.852710176548548 0.0
7.783643411970649 8.691528137204457 0.0
7.845017394185501 8.938777577473743 0.0
8.570520580943368 7.342304222498308 0.0
9.103648004226827 5.781084627507008 0.0
8.338082930126799 5.815990105349368 0.0
8.930848895071895 4.561111316304916 0.0
7.381089602119859 5.983657236035151 0.0
8.42066837692862 6.393608568217351 0.0
8.888256157021065 6.459558428285236 0.0
8.826495664731354 6.575679897210801 0.0
4.22522220414496 5.921354747981145 0.0
3.943296448343383 6.075578573904587 0.0
9.563175937841836 2.554860696349795 0.0
9.505342423182917 2.656889632284623 0.0
6.660863480070611 1.168750929063519 0.0
6.518316961679488 1.436478598119306 0.0
6.683474168246802 1.694104067636375 0.0
6.376799057174731 1.707382100972048 0.0
6.205091481342603 1.443621641108414 0.0
6.058670988071357 1.728841803855816 0.0
5.877457486049096 1.454297236926778 0.0
5.724979192982589 1.756666409586195 0.0
5.529885788012015 1.462283739157555 0.0
9.514953777019835 0.7018468683209754 0.0
8.398665270372675 5.702731562702358 0.0
9.456442249775696 0.5772068858285652 0.0
9.565795671866349 2.345573662774494 0.0
8.830758563027459 9.247271599108435 0.0
8.523580738257648 4.88015211128435 0.0
5.580123316488715 5.701889892660689 0.0
5.398591029446707 5.685938459654249 0.0
5.367686360823392 1.778740548277203 0.0
9.546603444041448 1.754984055696778 0.0
9.489649223089446 1.641312329051244 0.0
9.617973952467912 3.363804764345866 0.0
9.584322830999731 6.729956156156573 0.0
9.597221861144487 3.948534024289882 0.0
9.49401963819799 8.089507968561776 0.0
9.207321074262563 9.416906871900888 0.0
8.27185428346661 4.464932191097996 0.0
8.207416067213774 4.35878753684812 0.0
8.332747746635944 4.354903699457511 0.0
3.990181919126853 3.930792395858886 0.0
8.267392138262498 4.254008221702929 0.0
7.997788712685495 1.196805377512679 0.0
9.600316638269724 5.639973985281733 0.0
9.550939606739425 5.737313319038155 0.0
9.44084303195315 5.74233753256161 0.0
9.50112296154558 5.834555019909565 0.0
8.897429225733994 6.685415510921676 0.0
8.762930941408914 6.695907295903629 0.0
8.654628175336732 9.278157371342388 0.0
8.544676900803436 9.133790942553834 0.0
5.294904777716057 5.855935872688884 0.0
5.216749389964556 5.66865685845661 0.0
9.508453581298625 2.239460033375932 0.0
9.599691370793206 3.169496930704394 0.0
9.546615051106684 3.073514534194011 0.0
7.484714626923596 5.028675123117963 0.0
9.588496050271255 7.850836295555126 0.0
5.153197381012662 1.471340286561097 0.0
9.433168304679345 3.071871997104804 0.0
9.610464706874994 5.829217654498672 0.0
9.561407772947403 5.926179534044419 0.0
8.273381980676042 5.705233340662362 0.0
8.330794188929296 5.594351887246082 0.0
8.207319603076424 5.596747949305344 0.0
7.251338559467102 5.233758892662348 0.0
8.708518799790543 1.130513882092466 0.0
9.590155250193266 0.5878623138195824 0.0
9.389919385420015 5.841079912164009 0.0
7.991397852194216 5.859910582924319 0.0
9.624951589233206 4.975554514425905 0.0
7.240016788025947 2.531866266726309 0.0
7.635666783493215 3.873554782053258 0.0
9.608476620993713 1.863530872936442 0.0
9.365330459496413 8.10677840682376 0.0
8.775076110585598 2.572737931759856 0.0
8.699389445914996 2.444602334375113 0.0
8.625078713232146 2.580891022578613 0.0
8.54447196848446 2.447624719286678 0.0
8.468898498943965 2.586757328881282 0.0
8.62282309213608 2.307826916202421 0.0
9.622102662978762 6.439307895185218 0.0
9.561995355724862 6.35103962032292 0.0
3.898245450818314 1.856155797593496 0.0
9.681759177700954 5.07069253017652 0.0
9.059254996454502 4.963357716933865 0.0
9.113144532326562 4.861710138088372 0.0
9.62140874877204 2.656009146517733 0.0
7.884510615470827 0.9666888912541309 0.0
8.14902661050739 1.005010215149227 0.0
8.491263206618079 8.527197931363634 0.0
8.408859203395778 8.697060715788105 0.0
6.54422152733529 1.954566069381189 0.0
9.563546573097593 2.755667904356369 0.0
9.453065492925557 2.761122255953964 0.0
9.676889098520615 2.755084315170127 0.0
9.678287124781653 2.556838324720633 0.0
2.60254317790297 2.278874965850319 0.0
9.211706272534968 4.050470567310489 0.0
8.526711683538949 5.698821878547752 0.0
8.296604023060945 8.533761944401608 0.0
9.649704314258118 5.543946557831669 0.0
9.651176136337964 3.85122804518279 0.0
9.44590154800397 9.498503704959054 0.0
9.580491248736612 9.476376347552954 0.0
4.3239388803087 3.921156392977062 0.0
9.65737873521736 3.075324100817917 0.0
8.128000846282253 6.160273991836929 0.0
8.06242981852327 6.292371360998262 0.0
8.500465019503922 1.442700595221201 0.0
9.615253212967009 1.649819368149096 0.0
9.561768620580791 1.538553925606111 0.0
9.435477757657937 1.527391516499924 0.0
9.627993450010088 2.242685831452484 0.0
9.5338252733548 0.4673994795805215 0.0
9.398055066504014 0.4589059948533885 0.0
9.669486082509058 5.920177035588319 0.0
9.621072177439727 6.016493814615133 0.0
9.506185962103057 6.018397021409126 0.0
9.196884440497488 7.898824858961557 0.0
9.112591143666748 7.789491461180181 0.0
9.664357762385308 7.950712034233033 0.0
8.46233617997115 2.308903464128035 0.0
8.547917980328803 2.169381684694277 0.0
8.139931430059324 6.410762600521521 0.0
7.672499127532963 9.099143622036436 0.0
7.91372855627271 9.178704612763656 0.0
8.463425076318451 9.290653726808348 0.0
9.643938029094286 9.335632419679458 0.0
9.647017668702574 0.7068996148634754 0.0
6.241662276606473 5.884018212993202 0.0
6.157742245066693 5.73500474100449 0.0
6.318815619949124 5.730068085823802 0.0
6.247706374231452 5.593094310939028 0.0
6.406948541886973 5.593272398468375 0.0
6.092564106310554 5.587409338401505 0.0
8.535507922245372 5.286142900439676 0.0
8.022959839404006 4.471630490587016 0.0
7.963561162854596 4.581393556789843 0.0
9.683487139413305 1.546750704925431 0.0
9.630761777960082 1.435922217091829 0.0
5.121714348989337 7.950140247572198 0.0
5.136464096196084 8.310254432483559 0.0
5.47349124035624 8.455234262268478 0.0
5.176273618280354 8.687190323573228 0.0
4.796664658962938 8.592678692862421 0.0
9.568705729418735 4.887269869750176 0.0
9.462711651199594 4.88832222094458 0.0
9.674903475028225 4.882285174433025 0.0
5.4996067353406 5.546583260717527 0.0
5.663632234555963 5.557613452957074 0.0
6.829408195405585 1.947174574944512 0.0
5.336529198289861 1.127585641139875 0.0
9.672387559812332 6.34138351957329 0.0
4.463988917379896 2.271060678869338 0.0
8.618048281355405 6.263841736419089 0.0
6.480949808711781 5.74815588680617 0.0
6.562207427719153 5.592185077216444 0.0
6.643040463857446 5.721233693378952 0.0
6.712825900331884 5.588664360236 0.0
6.79240375630333 5.711383948285569 0.0
6.86115931532141 5.584697050428064 0.0
6.939210100691576 5.704407337029545 0.0
7.007668476576536 5.580801046893123 0.0
7.084627386867475 5.702817970154801 0.0
6.633257976075473 5.460881327825488 0.0
6.931430743764456 5.461960451448691 0.0
9.682652370938209 6.533133024505995 0.0
8.761108695241376 9.450742747770144 0.0
9.146031326900015 3.764292700000154 0.0
9.089378801805193 3.661317181076136 0.0
9.514354521818781 8.994988681611192 0.0
8.157650730500988 4.262987189670279 0.0
6.329633198899328 5.4647789391701 0.0
2.340685767996258 2.811285337457589 0.0
7.379572471323651 0.9290892725587991 0.0
4.171878172186605 4.222320767259098 0.0
4.4876601621649 4.16473354200826 0.0
5.336389369563535 6.806464508860387 0.0
9.595468321212476 9.108133206829102 0.0
9.645038675267227 8.982113951305912 0.0
8.393140678816192 4.246338342095281 0.0
8.309440721624494 4.155300532283633 0.0
9.418269339704423 1.9925512363779 0.0
9.662781807969623 0.477809346089035 0.0
8.011297869803792 0.7518828483803571 0.0
8.250149975885678 0.7646904662196189 0.0
9.608674873602773 0.3618049194050078 0.0
8.692696069692623 6.582927327365709 0.0
8.628225948401226 6.705702462696891 0.0
8.701883181418305 6.822086652299242 0.0
8.559276855155542 6.829564723911442 0.0
7.069268463354993 5.459534423493629 0.0
2.654575201159115 3.323490466195074 0.0
3.610801136544596 4.044075244426243 0.0
8.263757217166944 5.48730323490738 0.0
8.138838162809126 5.491254533497952 0.0
7.90196833683664 4.477386962763833 0.0
7.987943097943191 3.978756490171551 0.0
9.704623491880403 3.945605151832784 0.0
9.461009573830147 7.301728818091931 0.0
9.532468631193666 7.399916015174975 0.0
9.582688928417856 7.292330983701011 0.0
9.652579613269625 7.387768793572397 0.0
9.699264016151023 7.282867433965265 0.0
9.633305589700536 7.188543855060478 0.0
9.505576100168666 6.961225778216469 0.0
9.43876966151099 6.342441564206569 0.0
4.908483672172518 6.098703904450545 0.0
9.135448256237908 5.269827196966999 0.0
5.905650502271389 2.025036080946255 0.0
9.709890722072377 9.452748507541063 0.0
9.663337613522643 9.572126259365891 0.0
9.603900123387826 7.495180532331903 0.0
9.720147629525837 7.483400774981126 0.0
9.674588415444239 7.588303295299578 0.0
9.653186673863587 4.039274180923234 0.0
9.053164539680804 4.764545162185531 0.0
9.164908495749003 4.763017269285045 0.0
9.226019227262443 4.858029410614327 0.0
8.809947621994619 3.4964384919072 0.0
9.10538997155458 4.665865142902959 0.0
9.331074106432244 5.748993480915537 0.0
9.055854333858068 7.918554535314415 0.0
9.446431573964945 8.209836764658437 0.0
9.573844810886287 8.191100251691205 0.0
9.309704769895653 8.244395007943949 0.0
7.240329561730736 1.676197957122907 0.0
9.543389817573933 3.660019800390455 0.0
9.598599341122098 3.563130123982772 0.0
9.652615161407017 3.658119804270645 0.0
9.706336063693934 3.564815526226687 0.0
8.632284427755456 6.946688912416058 0.0
9.682863230715835 2.349655023034811 0.0
9.571538455120994 2.142369886250143 0.0
8.090821900439733 9.017409120951333 0.0
6.812258669899192 0.9007667548831626 0.0
6.50135254578461 0.8974046495177885 0.0
9.598335906230732 6.246437748035812 0.0
9.719677442549804 6.253968775436637 0.0
8.593026822691716 5.180101360605356 0.0
5.537586126848265 8.836083861509138 0.0
9.688689404995035 2.143487155934306 0.0
2.821389253975936 6.507820864074362 0.0
9.176571289960709 8.507736431357309 0.0
2.918303740542162 8.256728920338826 0.0
3.428955230180972 8.401446814887457 0.0
8.490587404589881 6.715350139132777 0.0
8.86049054904785 7.243279881821806 0.0
8.93696309213556 7.356650230611625 0.0
3.951931175165697 5.78308550088855 0.0
3.65055612573298 5.91672400098539 0.0
3.668142216548471 6.247526235973777 0.0
9.717269848920886 5.821831227352286 0.0
9.708364917734201 3.164198601626433 0.0
8.45581975650687 4.569560863828342 0.0
8.204448312099833 6.040774355519757 0.0
8.65969449127868 5.485991799508151 0.0
9.707534571012967 5.634423933296901 0.0
9.62102991883279 2.849662850313935 0.0
9.144093558002634 3.560383427867003 0.0
8.29763273805118 1.77155302934031 0.0
5.280452715709455 9.01633391004168 0.0
8.984558945859158 6.99932633710603 0.0
8.4157550875812 1.275784953143711 0.0
2.068078118650995 3.355462780535101 0.0
9.205703884756806 5.568274778556933 0.0
9.745857863753141 7.178456670302003 0.0
9.681628895748586 7.081494416756802 0.0
8.875818787971069 6.240744812097083 0.0
7.993733797566922 6.414830952863579 0.0
8.462810157069566 3.377071044664789 0.0
9.29428363519789 4.759591981903337 0.0
7.933956818298286 5.97437536746848 0.0
9.028281726378319 3.558713145763133 0.0
9.083461773461467 3.455531762175701 0.0
9.73231939683535 2.849247643393067 0.0
6.70072305037728 2.192432536215492 0.0
6.423245125077639 2.212870246546939 0.0
4.931537051605536 1.135086496804522 0.0
4.746426561586179 1.500381091957315 0.0
9.707706579932626 7.836419656220658 0.0
8.590593344701457 1.595639668013959 0.0
8.708946574109854 2.1688179918246 0.0
8.634728854549891 2.028564483452208 0.0
9.230357659411311 8.129337203173913 0.0
9.102841374461482 4.452881308250647 0.0
8.472081531214734 5.388993924853032 0.0
4.925996806199801 5.844046944846857 0.0
4.702806345752284 5.745688656289065 0.0
4.884357002239844 5.633237011762874 0.0
4.709628434300812 5.536404116679045 0.0
4.530800966746534 5.627044171217377 0.0
6.040296145349247 6.603808099703576 0.0
6.162203578696918 6.795213950202512 0.0
5.923135943221574 6.824060069869489 0.0
6.046693245732212 7.010423490915212 0.0
6.297337598588478 6.979895528204233 0.0
7.760448385794147 0.7294020304851334 0.0
8.492228348169641 6.958778476405878 0.0
2.89219822877093 1.704113597264478 0.0
2.26178643438086 1.7814602252425 0.0
9.726968895980871 6.009547057102511 0.0
6.63195110828313 0.6072886418835157 0.0
7.984023036954866 7.515675826210831 0.0
7.893857204140559 7.681876703427663 0.0
7.778465117872411 7.537836322197895 0.0
7.998204230811618 7.844922503023499 0.0
7.798554315988981 7.858161805718108 0.0
7.917846202023782 8.03040048103727 0.0
8.547520504556728 2.721261126162116 0.0
8.39253850806587 2.732073315877738 0.0
8.306047241032278 2.59069854402512 0.0
8.233011054235162 2.739783364361515 0.0
8.318836035587811 2.879838477099622 0.0
8.159530874574331 2.888511553151382 0.0
8.245490421394788 3.024568439743106 0.0
9.759103003747676 3.077839427881478 0.0
8.083610090773394 3.033523757291178 0.0
8.174562583800352 3.166768504406541 0.0
6.046769434852523 1.155662270344939 0.0
6.968371001421964 2.176347877216873 0.0
8.324858098380334 3.152966249334499 0.0
8.145556596142626 2.609897633546475 0.0
8.970652052821418 7.804556541250797 0.0
9.033737629244714 7.681328986528639 0.0
9.62347010002576 4.796939565664328 0.0
9.72520380348743 4.790261082613535 0.0
4.882631186210167 5.455006233451049 0.0
4.618356368594037 3.933076284395493 0.0
4.748083507220199 4.151025177732873 0.0
4.641724290430313 4.358202249373887 0.0
4.87055838101999 4.337900676660481 0.0
4.974114446887331 4.149149057174687 0.0
5.081577844806959 4.3240148266423 0.0
5.179521650033781 4.148725180298481 0.0
5.276261408871418 4.316673822529601 0.0
5.369189110897883 4.148362797753505 0.0
5.463892033849439 4.338819369807593 0.0
5.550828466075906 4.146274465971151 0.0
5.646554822352869 4.303571429647391 0.0
5.728109623160046 4.138582010823754 0.0
5.821689108984419 4.291959598724587 0.0
5.906082534948073 4.141649907302701 0.0
5.99655838673762 4.288752711512514 0.0
6.077312859438928 4.141011188943332 0.0
6.164215275138099 4.281164574562373 0.0
6.241782344986693 4.140701084167517 0.0
6.324316420613108 4.277393447415522 0.0
6.40284165425941 4.140026953305852 0.0
6.483655157361099 4.273418937894759 0.0
6.561170698911611 4.136221843106807 0.0
6.63512300179586 4.269917278694155 0.0
6.720306110251473 4.133393659385058 0.0
6.63777078218551 3.99617001426095 0.0
6.802492763973074 3.994355399489989 0.0
6.798834760478153 4.276914787769972 0.0
6.15377608509923 4.000134206628027 0.0
6.548727135071258 4.400510710520637 0.0
6.251479300130713 4.421887359316258 0.0
5.275876048175579 3.979624500657822 0.0
5.910905077162284 4.431174408784691 0.0
6.717070288412452 3.851239795555301 0.0
6.883499045994213 3.852555480300214 0.0
6.96664848901999 3.994033961856844 0.0
7.048208567116626 3.854750001965969 0.0
5.810004974283072 3.982497501655442 0.0
5.586615391658107 4.471070246359201 0.0
6.547331954052155 3.853872077215347 0.0
5.179081233207816 4.485638492900557 0.0
7.126615227065496 3.995337770596979 0.0
7.209459742762513 3.856893463870469 0.0
7.130226097876905 3.713620439679428 0.0
6.63075064074106 3.699684148676045 0.0
6.446985573861992 3.697358756862005 0.0
7.043151422977365 4.131713936060725 0.0
7.198322215260019 4.129850614748363 0.0
7.119378405252723 4.26005098890218 0.0
4.797146270976422 4.525762781577414 0.0
4.608329098388589 4.573584257851931 0.0
7.294442092743627 3.720853338661503 0.0
7.215753312764997 3.571378507508807 0.0
7.049631633956289 3.568047985538775 0.0
7.133765707749521 3.414282375958479 0.0
9.755079417839903 5.539705890434435 0.0
9.698955703441971 5.450920012703194 0.0
9.717604099406742 9.09084770432896 0.0
9.276716006673976 5.847248422342224 0.0
9.339081208926798 5.941174203394446 0.0
9.031261921742963 3.750271483819014 0.0
9.08721978689863 3.853416037308712 0.0
4.801461566647803 7.510704110489921 0.0
8.206553504932042 5.818005960412773 0.0
7.362361315389098 3.863102442315545 0.0
9.492826845316191 2.963845037486267 0.0
9.376710375304633 2.97229517374228 0.0
9.3192743723601 3.070687802230453 0.0
7.915389082113898 6.293241865913004 0.0
6.735006382384437 5.832450056405368 0.0
8.456481836836168 4.35369289249905 0.0
8.517718268476031 4.246675068616396 0.0
5.583512022030555 5.411069060406398 0.0
5.73625200174779 5.422617752052123 0.0
5.81006929286229 5.548584937688919 0.0
5.903438861894402 5.420604003204523 0.0
5.43801870974416 5.402925156167655 0.0
7.022641548594327 5.825217331839047 0.0
7.165095795605366 5.826005223633447 0.0
7.223078558430726 5.690146755650336 0.0
7.841396000338385 4.586693006493787 0.0
7.904793170875705 4.690826189066096 0.0
7.785999820520073 4.696719777099973 0.0
7.846448506395101 4.798518978096564 0.0
7.728149182067156 4.803800941124008 0.0
7.788983823826226 4.904802634695232 0.0
7.672018889153144 4.910077510508749 0.0
7.731996012352178 5.014717724244488 0.0
7.852072803124419 5.00743796185411 0.0
7.779278698005006 5.118909346425974 0.0
8.088113864063853 5.605434545811022 0.0
8.016457362785575 5.494849890158723 0.0
8.072290383394757 5.385594956317259 0.0
7.95068657972964 5.38825563681957 0.0
8.309366678475389 1.438342408757099 0.0
9.748160780780179 1.447794693754379 0.0
9.696454228162398 1.337889922375316 0.0
9.568813761940916 1.329560834053294 0.0
9.638326779791626 1.226729570935787 0.0
8.472132467407484 5.182856496818138 0.0
8.066211547412054 6.53691730655352 0.0
8.217035586462373 6.522976700918602 0.0
3.544839338670893 3.324491119989469 0.0
6.999740002965287 5.347729916247808 0.0
6.874544698914502 5.347027470386579 0.0
4.880451234715014 5.193043717957879 0.0
9.104510033763066 9.313204713465637 0.0
9.0466357104558 9.45359399494339 0.0
9.146803165140184 9.569652364413551 0.0
8.134107047896672 0.5527712356100052 0.0
8.369770412730738 0.5571215815175228 0.0
8.47386979744655 0.7564607169846485 0.0
8.585193608569258 0.5749174254532757 0.0
8.683868132726584 0.75505070091701 0.0
8.787381435061018 0.5813987798627239 0.0
8.697570280442534 0.3771156480326233 0.0
8.530048434259976 5.077280516000916 0.0
7.995091351438729 2.90367515012593 0.0
9.731083608815164 1.662638626153251 0.0
7.260488865351954 4.255073962371814 0.0
9.760728358076392 8.990038509880067 0.0
9.716710396257366 8.884160310398862 0.0
8.794627466210242 7.369659405098349 0.0
8.868068657550866 7.515048014893154 0.0
8.702594597629135 7.510501129643432 0.0
5.132320689147051 0.7610757801158905 0.0
9.755852887652699 3.853180024615871 0.0
9.787424819067885 2.757921105725315 0.0
9.731193479931608 0.3736343090103709 0.0
9.796526908308536 0.489684029254899 0.0
8.226019692057042 2.453349105940535 0.0
4.560989821496479 5.428206018250252 0.0
4.348810639659689 5.517048281386008 0.0
8.785190163106925 7.119142251269924 0.0
9.015515413043023 7.464769766852701 0.0
9.754861440190705 3.659036930324926 0.0
9.7543610723378 4.033687839160082 0.0
9.707881226943384 4.127219992296752 0.0
9.52841017383273 8.309020665649431 0.0
9.65186044414544 8.289498614805698 0.0
9.714051275521857 8.173576484362068 0.0
8.209758892476394 8.715513071423135 0.0
8.097084883671858 8.548851201381087 0.0
8.177989947800599 8.367872862579052 0.0
7.974142434808908 8.36779470623567 0.0
8.409012054919861 2.142624252464372 0.0
7.707002321497132 8.039129945341395 0.0
7.574653123518228 7.83895791570255 0.0
9.229858094382692 5.951357214361815 0.0
9.75307989876696 1.229893222503321 0.0
9.715811155868643 1.128779429890018 0.0
9.597960915003707 1.117058287635912 0.0
9.672063923518955 1.020806103150243 0.0
8.99090422125785 9.593878510105375 0.0
8.133165456134304 9.257620998029804 0.0
7.976779931497633 9.420725324095141 0.0
9.77231778617502 7.927819487779705 0.0
7.957213679655531 4.364530256281665 0.0
9.609903116082736 8.403725680286847 0.0
9.724891358972584 8.388392708395173 0.0
9.687487059868507 8.495935345161797 0.0
9.810055520269009 8.494090598382963 0.0
9.755967487162335 8.599790818513082 0.0
9.645698986824481 8.606121319182705 0.0
9.721376049217765 8.699989876681524 0.0
9.773009257015609 4.884557953188837 0.0
9.830105798750992 4.796546393900876 0.0
9.775335108731761 4.686093304257503 0.0
7.455611517737074 3.730099283949135 0.0
8.906943567829634 0.4197477661467797 0.0
8.980613334153533 0.5814185917581446 0.0
9.081059111759728 0.4263421860552371 0.0
9.821654809259165 3.576985724143072 0.0
9.761309244784803 3.4792267780002 0.0
9.763329553045937 9.353068233045157 0.0
4.463051839136694 1.164440352584939 0.0
8.0213168204867 5.283436382300235 0.0
7.89385412333227 5.290429544753158 0.0
5.806940001023414 8.583716119232427 0.0
5.88977793877374 8.96065112858812 0.0
9.177759062826041 8.25539130897928 0.0
9.626582559276994 2.05283181283147 0.0
9.747673294325121 2.064954301745188 0.0
8.775905508647185 6.951821187702613 0.0
2.3581644273991 6.029034686663493 0.0
9.777798009058461 9.548066962498762 0.0
9.737129197219856 9.662299853506903 0.0
9.615080366030512 9.683349544763068 0.0
3.315839678697904 6.042943273456425 0.0
8.915083018115329 7.937748428923896 0.0
9.489832173860055 4.712364754630572 0.0
8.118313727862493 8.013944064029838 0.0
8.902248750797776 7.67372145952523 0.0
8.954075939212636 3.463080912810881 0.0
9.45247551997678 2.133243108303608 0.0
8.311151553157742 8.899233004613622 0.0
3.28672004268868 6.826745674539142 0.0
9.86008383798735 3.468233656255824 0.0
8.389990589860254 1.947086063498656 0.0
7.144231739553659 5.329544660076687 0.0
9.654500729007207 7.743301971143119 0.0
9.761920842881946 7.740144345898896 0.0
9.692820773976567 0.2651585113981998 0.0
9.690951720399688 6.100517071814821 0.0
9.775704281989471 6.077882312279847 0.0
9.823117117198079 4.115168542267924 0.0
9.764391943581737 4.214465954230587 0.0
9.659455011849253 4.218716850797838 0.0
9.713462125022623 4.30742830316693 0.0
9.849638067150842 4.208845651573708 0.0
6.376241713254513 3.858766051594979 0.0
6.274931849158213 3.701528298009006 0.0
7.097780104117746 1.926449727602711 0.0
2.457742027508782 3.810157622192786 0.0
2.963634206580268 3.740748099915693 0.0
5.065585416063965 5.544355730437482 0.0
9.783560252464587 7.566507987677117 0.0
9.825819294611026 7.470942204664841 0.0
9.799976114123012 1.01659516618323 0.0
9.745559590633832 0.9150866860898854 0.0
8.20473400632469 9.495828670767946 0.0
8.784586030320169 2.054461500762216 0.0
8.758471587067168 1.888286802854785 0.0
0.9188935087347281 8.510730800272478 0.0
9.674192026048217 9.20389587377276 0.0
9.796314981283475 9.185916994648775 0.0
7.206882433199502 5.452024361489832 0.0
9.773927048949279 6.334665846819535 0.0
9.830288393591173 6.225300227041885 0.0
8.25177349297509 3.282767705830209 0.0
8.099233469407428 3.304040153764131 0.0
9.607860512870598 4.315652630490023 0.0
9.403674738018715 8.367349042046314 0.0
7.611756786273919 5.018691202305147 0.0
7.549513964643336 4.923310232561835 0.0
9.80986724662116 0.2915868356190958 0.0
0.7757562810577034 3.504187313079081 0.0
7.659562100664981 4.698467529240196 0.0
6.539424975891206 3.541729955691742 0.0
6.717348880400739 3.55221857686142 0.0
6.836337579501807 2.417476958454302 0.0
7.096480496160066 5.959124656438389 0.0
7.189742782777612 4.377051328076039 0.0
7.051723187622053 4.38470822973091 0.0
7.125489805519186 4.497018383456762 0.0
6.994915621927777 4.501504591168814 0.0
7.056755276274058 4.607929817497045 0.0
6.932937068803914 4.613249390039674 0.0
6.86629288290367 4.50541343988659 0.0
6.80427099775847 4.617607827251794 0.0
6.739195362053689 4.511124964201849 0.0
6.677260697693361 4.624288827143181 0.0
6.996760608675822 4.711715831373894 0.0
6.316045249462968 0.6456945497683586 0.0
7.321834163850416 5.816449323512759 0.0
7.833101485370825 4.390058096386987 0.0
4.996572652976738 4.498711166259074 0.0
5.112334577457371 4.663858846723513 0.0
5.271923064784868 4.629759173373871 0.0
4.93773508827367 4.668006487116195 0.0
5.348137647919096 4.485934621930562 0.0
5.413454827497575 4.62999925573761 0.0
5.356581113747675 4.770594395332836 0.0
5.013422223730484 4.793321773780133 0.0
8.58674425943957 0.9312335381466886 0.0
8.776450596582496 0.9362399987293505 0.0
4.783496233934828 9.486061758876032 0.0
4.544176394620909 9.034071856445296 0.0
4.082330493623582 9.015765881393772 0.0
9.820867469965414 7.285959215547852 0.0
9.852697883440127 7.166089674802766 0.0
9.260999083164238 2.971390964911171 0.0
9.197701900169713 3.073162109379564 0.0
9.31960210441945 2.867465579641856 0.0
6.660951583415121 3.383363199709994 0.0
5.210469976037585 4.761678854423166 0.0
6.740780285297665 4.733615686805694 0.0
6.611362405615225 4.731958642073806 0.0
6.549091884465382 4.629620704100811 0.0
6.491761716522486 4.733409494449344 0.0
6.425259228542098 4.640546096196947 0.0
9.715556659367534 2.986725573570596 0.0
3.710524324925069 9.463213827486557 0.0
4.768537031214573 4.727001037865238 0.0
5.039413681704655 5.378508462165627 0.0
5.188746429211535 5.440476671296013 0.0
5.172214816037712 5.298914527247826 0.0
4.469063601436893 3.667917323494335 0.0
3.799121596584382 4.741629285988305 0.0
3.661085664896249 4.442847704416992 0.0
3.316563386321876 4.380147387454913 0.0
3.802087298647255 5.26743535640985 0.0
9.738116341343215 8.047178982429934 0.0
9.85106076399546 8.021725551312715 0.0
9.837581050304836 2.844176011307251 0.0
9.664579962075123 4.402853107737106 0.0
9.76433159763034 4.39807801415352 0.0
9.718924973226878 4.487825491046641 0.0
9.826405563645343 4.494594135148365 0.0
4.931068003413168 6.359330991212394 0.0
5.130175746947236 6.201075257041828 0.0
5.143884286052002 6.445382329515047 0.0
4.953395875296406 6.628748468717369 0.0
7.833019185167153 5.400347121613631 0.0
7.766636138801143 5.313240048256084 0.0
9.767038723422333 4.578090619166644 0.0
7.315369355237483 3.441501197259575 0.0
9.556068971301514 0.2347811136726856 0.0
5.733871280791703 4.444861510772459 0.0
5.828809543126846 4.569791247698539 0.0
5.986701526182213 4.562881783985375 0.0
5.912543327921148 4.692966271273211 0.0
6.052130330528581 4.682477327897978 0.0
5.773525984744635 4.697697018456535 0.0
6.121646311546238 4.572302645403103 0.0
6.182349700936326 4.67713231096357 0.0
5.846371383601797 4.808939734754761 0.0
5.117807918383606 5.974361363083184 0.0
6.256132501905665 4.575863546153224 0.0
6.324770064521816 9.645040261272253 0.0
7.345522892050965 4.12581088034536 0.0
9.338523512844539 4.854480276600515 0.0
9.286984287289403 4.959628690044808 0.0
5.676298026114105 4.589279806918992 0.0
5.631257891894775 4.722749088404111 0.0
7.970415275563177 5.621040275419208 0.0
9.565118337557308 7.081391220827488 0.0
9.626201005045262 6.980441083020495 0.0
9.733729506193331 6.979928568877979 0.0
9.684556253529976 6.887102896543928 0.0
9.780785815410074 6.890287441101827 0.0
9.740054813822885 6.794211367612523 0.0
6.462628988057306 7.629921412015864 0.0
6.692564520952154 7.473594130811262 0.0
6.927983108788191 7.570982428592125 0.0
6.899878641134941 7.329306734748538 0.0
7.117542472438434 7.416951094809493 0.0
7.089537168123128 7.186691566729968 0.0
7.296585396514727 7.275888419524222 0.0
6.879678873774065 7.097443005287856 0.0
7.063454637059129 6.967740076426161 0.0
7.329105042924355 7.496317641003757 0.0
6.867084781778411 6.878842928865059 0.0
7.494278796275744 7.351949197351029 0.0
7.462564159480594 7.150140034494138 0.0
7.644835001206406 7.21506678718646 0.0
6.682478929414216 7.008358327294905 0.0
6.449199855715812 7.365660640952548 0.0
7.548139855358765 7.57299228324251 0.0
7.008502809092701 7.844601794812628 0.0
7.371739019901781 7.707688433423657 0.0
5.665345294602155 5.290628720253272 0.0
3.987583013016546 4.486920698115711 0.0
8.893480480320447 0.7785000884179994 0.0
9.715485963651112 0.5955299613117169 0.0
9.761785841543585 0.7048670948649375 0.0
9.670304314877074 4.578896619304786 0.0
8.058509626083154 5.744161686650483 0.0
6.181795443628869 5.462040811515966 0.0
6.256771804808641 5.338464817889848 0.0
6.124070400983443 5.352376180901929 0.0
6.399679261813415 5.349186390888865 0.0
6.477776305607503 5.46505688468465 0.0
6.541624525938461 5.346017118512589 0.0
6.673064575428321 5.339051516933525 0.0
6.599301548842115 5.241958624987057 0.0
9.573774011620444 0.815274945835158 0.0
5.86493292693426 5.877588788523632 0.0
5.552663040119136 6.957487930464628 0.0
5.535080960199246 6.663033131707637 0.0
3.708603689392072 0.5979254716153909 0.0
3.31896983256719 1.188583855309964 0.0
3.895664898001925 1.128137111173669 0.0
6.363360407965353 6.032416442205533 0.0
9.445959758065749 1.070139246426051 0.0
9.50632172780449 1.214052376665338 0.0
9.441030033980638 1.325047485624912 0.0
9.295799464644857 1.341410624832976 0.0
9.184164107767781 1.461677744200096 0.0
6.407191016756832 4.407273313799791 0.0
5.544591888593027 0.7652641669375747 0.0
7.883090151006535 2.497506182548758 0.0
8.073420508370992 2.120510489750234 0.0
5.494822040671399 4.732314720081375 0.0
0.8986976806403217 1.464611451578306 0.0
9.536325549598013 6.83286654168725 0.0
5.972289519322897 5.727532110854501 0.0
9.82203607053145 9.443411729566549 0.0
7.263199949874008 7.064207941227515 0.0
7.233659553805083 6.853135694774254 0.0
9.793310082768443 7.072747972018893 0.0
6.734168931095253 9.67499220075154 0.0
6.941134861034159 9.382328333169653 0.0
7.285822522704258 9.443989747444657 0.0
6.576263515512108 9.333035011158342 0.0
7.160560566479093 9.127732577621245 0.0
6.218711947378506 9.298064908857533 0.0
6.432383355119106 8.980985203293491 0.0
6.795390278360442 9.046043538032663 0.0
8.54677014121837 0.1957422484480979 0.0
8.528696320820908 9.804850950580938 0.0
8.42644965647489 9.604735484095604 0.0
8.010239224104339 9.715048083583248 0.0
8.644359648763341 9.628432815860457 0.0
5.344212921686536 5.526744195650314 0.0
9.760936589662048 7.38409687515441 0.0
9.128187788393989 0.1445485608215519 0.0
9.133307661752394 9.854833215426817 0.0
4.867351616228264 3.944459575003425 0.0
5.905323253270366 7.385600364255367 0.0
5.909045412185362 3.361969954191194 0.0
5.80580919758911 3.569999290452344 0.0
5.578230704221431 3.587842862412673 0.0
6.013352753603037 3.550699073477782 0.0
5.936624955014758 3.721630401607248 0.0
5.735413275357409 3.78528948606432 0.0
5.512538847486775 3.794760621907932 0.0
5.360571639388366 3.618649018042938 0.0
5.134141179590394 3.459385929220745 0.0
6.167399567008798 3.367365990358096 0.0
9.766756262206602 8.291756450136036 0.0
5.486063578307141 9.64505925252771 0.0
9.497624614180321 4.328873442170357 0.0
9.811387324954623 1.570516917365688 0.0
9.389210081887331 4.69150887571586 0.0
9.704395728912932 3.754226393630331 0.0
9.808172776193384 3.748784464356272 0.0
6.549660911932182 4.839747932361234 0.0
6.757415124099031 6.077939876843736 0.0
3.805578542126494 8.040840085419626 0.0
4.232580149691158 8.198659880701744 0.0
4.559765382564095 7.87091698350757 0.0
8.3829075948167 0.9495097054886067 0.0
9.8571301061408 1.456307792614791 0.0
2.005900212453279 4.535525273813588 0.0
1.85904408608185 3.956445706785572 0.0
1.979307922430775 5.474327285927505 0.0
4.387923194305381 4.427191306527721 0.0
9.429258370703248 8.873693567695483 0.0
8.99196583083892 4.664567567015693 0.0
3.050357122593155 5.368999067452741 0.0
2.861107385476722 5.785089447130829 0.0
5.005058958272409 3.711196438448062 0.0
9.8972295764837 2.755337284632969 0.0
9.581048890980513 8.853909321617065 0.0
9.668838904423916 1.762418716497425 0.0
9.716576458425756 1.852218615166234 0.0
9.799043132681442 1.780583141193779 0.0
7.661868217848455 2.880323287492419 0.0
6.780136552904057 5.443858690999834 0.0
6.489544866845868 5.913957888434588 0.0
6.880149522020364 4.134257616716107 0.0
6.970134365280068 4.264072319341612 0.0
2.225481516813409 9.348422240784 0.0
1.843418032490818 8.641605249943353 0.0
2.198000805242772 0.6459947140825729 0.0
8.740020306282506 0.1903932731609072 0.0
6.86957996016679 4.720776242956433 0.0
7.430920333506809 0.2702852342693345 0.0
7.302066064947383 0.6134316505458445 0.0
9.305398039877746 4.64854361125207 0.0
4.078151380865065 5.203425462519088 0.0
4.080704120371218 4.778853303303787 0.0
8.052525541571825 5.965483159581719 0.0
6.367194027835946 4.754896037842673 0.0
8.604191121620719 7.648182513679963 0.0
9.546446695207845 9.234701521982952 0.0
9.018652854946867 3.351011585453845 0.0
9.143853648154607 3.350173119015413 0.0
9.067079866763024 3.245174561579149 0.0
8.991492136849105 3.135578770028028 0.0
9.29603967712795 0.1426516429033488 0.0
9.392428271030795 0.2506306237151588 0.0
9.223973843394301 0.2912279164401488 0.0
8.39375191941536 3.018777714002827 0.0
8.4836475746111 2.88135207267795 0.0
8.741089053946197 9.821127577434911 0.0
9.803966507713174 5.448064463539533 0.0
9.748132240148552 5.359371181503531 0.0
9.850258990973547 5.355211921626304 0.0
9.7965346514158 5.266762244994661 0.0
9.84142096963129 5.171050273734619 0.0
9.738843612428232 5.167483913244169 0.0
9.64168976006725 5.359875132194057 0.0
3.335917453809221 5.671837672982919 0.0
6.962669142802881 1.683222554707996 0.0
7.365210844496719 1.887492842536114 0.0
7.517378971174123 1.677983072937792 0.0
8.00383870208024 6.089394601875145 0.0
1.725435941000569 2.759295503019395 0.0
7.907977929549089 5.102827208603365 0.0
8.052861051278896 0.2683271125209605 0.0
9.80169732768395 3.385443381464333 0.0
9.831597648680848 3.28491948963525 0.0
9.736335895866404 3.316207814499244 0.0
9.597256128490281 3.756160701977744 0.0
8.865819925321706 3.366235906378775 0.0
8.489614436807788 1.757152185195495 0.0
8.88089641144391 1.078983279100314 0.0
7.430923851187758 9.724389499796425 0.0
7.584252919312249 9.509430586267927 0.0
9.744026095940516 2.247117754488748 0.0
9.729961521243718 2.659836747108116 0.0
9.790866569780063 2.558993767350471 0.0
9.736606445116795 2.455104424879619 0.0
9.846806182714698 2.452157456754448 0.0
4.518102112052724 5.141350889745285 0.0
4.519880229178207 4.85678334497067 0.0
9.7302407894617 6.434012603549242 0.0
9.787537474544765 6.523591663056312 0.0
9.744262337067932 6.617499601377625 0.0
9.8406238811518 6.41591236129004 0.0
8.914967252734657 3.579360039684312 0.0
9.154797282599406 5.670753066089419 0.0
4.228839454580575 4.612979739018002 0.0
6.095037541675208 4.42126627187728 0.0
9.304166983880842 9.864854494751789 0.0
9.406445527105628 9.759007358529582 0.0
9.256225114941945 9.700832989525724 0.0
9.796206564635622 2.351215649506205 0.0
9.849373673349081 2.25090453834006 0.0
6.332048155295931 3.511675163099286 0.0
9.069679774213784 3.022879178706259 0.0
9.070599961450037 9.055284879641471 0.0
1.808685691036764 6.331557276533421 0.0
7.120156826652838 4.698481230214924 0.0
7.052894345811342 4.799848851879358 0.0
4.739957520484086 5.369107149361242 0.0
9.389197839958292 7.197139943834638 0.0
9.046688232613976 4.560364044038737 0.0
9.162685461967492 4.562194096410666 0.0
4.227377821420887 1.564128177298305 0.0
9.201090975245227 2.794301402811909 0.0
9.251941624303948 2.677556975242327 0.0
9.186758273070138 2.563916005021366 0.0
9.317609833868786 2.560335260954038 0.0
6.57599191748324 2.437689779955877 0.0
6.305556560534859 2.459112595979303 0.0
6.981058048792093 2.642476994448363 0.0
9.886113463139504 6.510498309609482 0.0
9.250462794607717 6.221362629571698 0.0
9.305373999084068 6.108271307139882 0.0
9.390477915810829 6.228015172491477 0.0
9.44452571968143 6.114582165110393 0.0
9.502105740270528 6.197677857389309 0.0
9.31559697209813 6.331647407124485 0.0
9.370938253597153 6.437386206819511 0.0
9.594764406124872 0.1099001288712305 0.0
9.602872681151728 9.894988341116305 0.0
9.622661196143387 8.076680696281343 0.0
9.769069277144705 5.9102532189237 0.0
2.615076109785583 8.807551523115547 0.0
9.658920005405456 5.730890135691177 0.0
9.76063135061807 5.720703211793342 0.0
8.63963723169499 7.177334225227945 0.0
7.841904391869763 6.41346852896409 0.0
7.764520718520185 6.297267738834625 0.0
9.546492996136271 3.465225175657335 0.0
9.25600964352143 2.219157062786616 0.0
7.625057159226293 7.012987957636062 0.0
9.529121062829038 7.730283486008674 0.0
8.329887090625894 3.845190321147069 0.0
8.265841850823831 3.95687001944245 0.0
8.402006523775544 3.947660780406651 0.0
8.128436391670505 3.968543393650448 0.0
8.46705122470662 3.835767362024195 0.0
8.218867047074696 4.063481375518748 0.0
8.089763413611255 4.08062363292928 0.0
7.939578083855268 4.111915744184436 0.0
3.74991304509639 6.615676756107112 0.0
2.627714335615619 1.170993030860914 0.0
7.046129971268607 6.759930788612616 0.0
8.534603732661887 7.486325780553722 0.0
1.569381386467569 2.042794535871475 0.0
6.228703743210918 1.986421863690014 0.0
6.467030855792859 2.67190498312861 0.0
9.272246093269825 1.975478263632296 0.0
8.05269609263041 3.854522845257449 0.0
8.008595521536957 3.177870309354594 0.0
7.929796740504207 3.350600835935766 0.0
8.048703574664067 3.449582532910417 0.0
9.72947480375618 4.973926800124758 0.0
9.784850360535604 5.072865219810449 0.0
9.896036387646596 5.069261557893528 0.0
9.633140953203334 5.168645132864771 0.0
9.558102991128836 7.602453108835212 0.0
7.278758746505716 3.994295887299482 0.0
8.306681733482405 6.936428510427854 0.0
9.487163072013963 3.757777670075558 0.0
9.532950522284125 5.359403698944497 0.0
9.816036650072329 3.927268437107025 0.0
6.173882586235392 8.734645960664665 0.0
7.972518459433741 5.003005338485466 0.0
8.398453459336153 1.601072016988848 0.0
8.97460527296194 4.040886705742754 0.0
9.037941657530773 4.143578781749325 0.0
8.849604200183613 3.828506169652706 0.0
9.545296177100065 4.042698359132156 0.0
8.595941796785514 5.806754902023664 0.0
8.65588412428292 5.694192853853139 0.0
8.723710665131787 5.801528918332044 0.0
6.861288985046249 6.673713222735126 0.0
8.87477249219366 4.664500928777609 0.0
8.72385765226959 3.608276264790996 0.0
7.145228858696953 5.573648565429618 0.0
7.282945121585866 5.558559688509987 0.0
9.224761401603633 1.602363370249125 0.0
9.609115686587552 2.986868833620756 0.0
9.633989947851914 6.628120633848649 0.0
6.046214325132457 5.45615093027661 0.0
9.017014346798927 5.271996636983457 0.0
9.070824864071271 5.168510834798647 0.0
9.189021391555556 5.166867900487267 0.0
9.123328759137758 5.064718588163964 0.0
9.240587446378079 5.06459430516883 0.0
9.250848280531756 5.267364371053135 0.0
5.773050603406019 5.7192906317521 0.0
8.576466432793914 4.3559007860436 0.0
8.634627802680399 4.253467736542067 0.0
8.461790117175607 5.591735227444779 0.0
8.907610717370224 3.713397213891439 0.0
9.80665594564509 5.628066492225966 0.0
8.985935132601089 4.455263493464225 0.0
9.00640209566022 5.067597672073404 0.0
9.833659276096986 6.976519563917422 0.0
8.0283368553477 4.687271895436317 0.0
8.326580191759327 9.127498457128247 0.0
8.650637373791266 5.07513089931925 0.0
8.701067313435203 2.700069743477523 0.0
4.825307249916392 4.884175191874744 0.0
9.418335984190309 6.858444798015129 0.0
3.91434687300816 8.542956908935874 0.0
5.569239724399552 2.064135034637056 0.0
5.234271567762738 2.128974435011933 0.0
5.757920427527626 2.312422707096966 0.0
5.43365689737979 2.427455772745759 0.0
5.673210219624612 2.602111218343444 0.0
7.214258468265766 6.652783071431555 0.0
9.823626269633962 4.30685540664529 0.0
7.96996639420014 4.794005510174826 0.0
7.616003332725032 0.502676560965646 0.0
3.050634530589821 4.659174799474146 0.0
2.870894249800723 4.246924313393336 0.0
5.285393339952368 6.079037173753393 0.0
9.439954241218905 4.23581687956071 0.0
9.67709722097145 4.710772408106511 0.0
7.40767785509217 4.259947873553335 0.0
8.396202587439676 5.486075637998701 0.0
8.323689688705493 5.372061002264632 0.0
8.191312386254125 5.384662546230823 0.0
5.304380054816289 5.369675374029755 0.0
9.093848379546637 4.047647920840374 0.0
7.916313220758624 3.045043876114836 0.0
8.435854831444637 4.144861908356168 0.0
9.060262453079693 0.7340576053322918 0.0
7.053195520344596 5.238809779682351 0.0
9.621762679347093 2.45205452967588 0.0
8.410730269104743 5.287995309529392 0.0
9.655094569234972 3.472720279371932 0.0
7.982140513923982 6.667914768024983 0.0
8.402690325256646 4.883576657130221 0.0
9.17488654147479 4.962006474835693 0.0
9.013188196102961 8.49700148123058 0.0
9.795977244531603 2.156818021002043 0.0
9.893813711206834 9.545820400859157 0.0
7.965349232662289 4.250048884270795 0.0
8.644264557989125 4.874751532150782 0.0
8.215430976121077 1.26077208565765 0.0
8.379717637669398 8.37324652769609 0.0
9.320026533461409 5.559861899725609 0.0
7.885778178744864 0.4977439426642278 0.0
7.547066983926719 5.125166613071239 0.0
7.657542898944819 5.122996245335209 0.0
7.423918840193691 9.000935553397358 0.0
9.854133000712425 5.541931969512857 0.0
9.328508174398952 2.101486405523264 0.0
9.300749600926641 9.530012105354274 0.0
8.130307182491519 5.277079344947874 0.0
8.346752967392757 4.987627363826086 0.0
9.118404185029991 6.007087846617186 0.0
9.048232213728614 5.89431792713258 0.0
9.088340967655858 5.576242562571367 0.0
8.094762487139027 4.789727191449318 0.0
9.915265904493378 5.749591413470928 0.0
9.92169805280126 6.154216704502091 0.0
9.918022441582268 4.549125436287157 0.0
9.919332362905616 4.849536560132457 0.0
9.914800786693318 6.750595509794719 0.0
9.811792900437824 6.703950687575952 0.0
9.900643083988882 3.749855087409844 0.0
9.912423171222734 3.043228996968949 0.0
9.91892875832665 5.949999999993851 0.0
9.913300070218703 3.960831593817277 0.0
7.709347001661226 4.444236534782706 0.0
7.479443107717332 8.071637285053104 0.0
8.839057072155848 6.807845119358974 0.0
8.972330068019902 6.78765448182788 0.0
8.542093772125282 3.941452413628317 0.0
8.279144752968262 5.930387616620717 0.0
9.393455876855919 4.973162505621418 0.0
9.507123333872533 2.855087674515822 0.0
8.77504684283825 2.317347145885344 0.0
8.394133129040345 4.464046960801843 0.0
5.725509852450801 8.210843960481027 0.0
5.62632390239664 3.967637659758752 0.0
7.910815814627989 4.900765971697654 0.0
8.595808444085467 5.590040244353608 0.0
9.705160502006024 0.8106158419444889 0.0
9.82021247904746 0.808810893177099 0.0
9.218352146075844 4.447736986422823 0.0
9.20781892622228 3.858281726888132 0.0
8.713609974387523 5.178241668554946 0.0
3.55755059259364 8.921522400238844 0.0
9.59122926011489 5.452844834281716 0.0
9.70565100407009 9.77887811062354 0.0
9.826938454219809 9.74303055702321 0.0
7.238962096855633 3.278078153406256 0.0
8.575609105166194 4.567807831727537 0.0
8.936449841121737 4.765835458965493 0.0
5.59323463391086 9.248527978398117 0.0
5.280809113285124 4.886132326418428 0.0
9.328132730893216 6.544753806716806 0.0
9.026944889277736 6.67247283515637 0.0
9.81946239021469 3.007926663525007 0.0
8.677633568960493 6.144049349297466 0.0
8.33427489656924 4.571212803519522 0.0
8.55734024448315 6.382535186588269 0.0
8.692399379422756 6.372347713955898 0.0
8.495817478252626 6.503308565233578 0.0
9.905494734661673 2.544078755559835 0.0
6.177101405266569 7.228490244483556 0.0
9.825373011845263 5.807482724503027 0.0
9.808678508609606 8.118683092442964 0.0
8.397717712407108 7.08010313863416 0.0
7.428555529689225 4.935946611338556 0.0
9.575504958128711 6.125633853639113 0.0
9.154066996197898 4.146562596982661 0.0
8.074381802159323 4.337569667261167 0.0
7.018337246891919 8.843475095716133 0.0
7.970627172560641 2.658650028065857 0.0
7.382546388883145 6.723381543491632 0.0
6.822972334933889 4.884555620881615 0.0
8.343732976791593 6.041576709398377 0.0
7.743680217306919 8.423336160305476 0.0
8.505717922983454 1.115022897794028 0.0
9.113973198216474 6.992972408167606 0.0
5.818882632841168 5.300437503812764 0.0
5.951991891717714 5.279516346785062 0.0
9.450183479138845 5.92934813870612 0.0
8.783346541536119 5.48419035750989 0.0
9.38074895894124 5.65076274999803 0.0
9.513658728876734 7.193620441323493 0.0
6.396040948797887 6.776064256962667 0.0
5.389661780244388 4.89715084345563 0.0
4.473247649068957 5.85935163892416 0.0
9.249586607512612 8.37680799459232 0.0
9.103796366487646 8.379197231055114 0.0
6.274057301184156 4.87985402946409 0.0
9.259628836118232 3.561431822636308 0.0
4.037922477011971 5.489409780163391 0.0
5.62712958624254 4.893925433488392 0.0
8.806426003347967 6.133410188141932 0.0
9.53304466499349 9.59279975429444 0.0
9.542890959420024 1.966631379116419 0.0
7.459736176874619 5.863847835420528 0.0
5.937613117200432 4.89232797168023 0.0
6.171611131472617 4.879541833448487 0.0
6.100695199816815 2.291172318314745 0.0
2.315194906726768 8.081958163666464 0.0
6.878489987598286 5.148099521847569 0.0
9.105264414399338 8.639184652727645 0.0
9.20047261316883 3.457820810661327 0.0
9.895329010385955 7.55944047105717 0.0
9.912742873006831 7.76210330502246 0.0
9.37761459375249 3.168397068877758 0.0
8.946121261512507 6.345629828835438 0.0
9.918632496443566 4.449809517365367 0.0
6.848211525651934 5.945010613369067 0.0
9.915721525903255 2.047407395915179 0.0
6.117255841708726 5.163321965161054 0.0
7.276595248786602 5.347247322210079 0.0
6.32682869954104 5.23674259421017 0.0
8.785886448438022 5.692775375342819 0.0
9.099994401883361 6.776698531382792 0.0
9.913397459621638 0.2499999999998165 0.0
9.910352525643928 0.4481571029410266 0.0
9.907850422008579 0.5479735220323012 0.0
9.911983631350465 9.24778487019403 0.0
9.917634740384067 0.7514684821956668 0.0
9.195214232985496 3.254172408378337 0.0
5.000896927376288 1.846006038077654 0.0
9.917172478547403 8.250155740683276 0.0
9.908120476950126 1.742986232208194 0.0
9.914524635720774 1.949567899316728 0.0
9.907358878377153 9.145625165175748 0.0
9.917695944922635 8.949999999998397 0.0
7.648387553139914 5.325741673607362 0.0
9.605343588986079 4.130627398479715 0.0
6.648113233057817 6.774798386229164 0.0
9.910347203087213 8.446729917003672 0.0
9.913623694530468 8.548470085896316 0.0
9.9201245863254 1.536225488581779 0.0
9.906538426683255 1.059019360781604 0.0
9.912867352010919 8.74999999999809 0.0
9.799662981388353 8.79550485462418 0.0
9.831828680383174 5.99966894118311 0.0
9.91414179906643 1.263025320602998 0.0
9.920690092699912 7.240982963665807 0.0
9.385889285950551 2.235126904097426 0.0
9.28133998925606 8.00415195851526 0.0
9.817074723108401 3.172398890123306 0.0
9.482030285089927 7.512954023388035 0.0
6.682432918504054 7.233889573028878 0.0
8.528699633246763 3.260502457553277 0.0
8.91699963742029 2.327016692708648 0.0
9.267676068834481 3.954520684561369 0.0
8.70811637467455 4.974101624783084 0.0
8.18184214270768 7.816666208279135 0.0
9.690393137288163 5.264344933127836 0.0
6.937111790104696 5.245184991960528 0.0
5.895846026722989 5.174232967273284 0.0
8.281683356622615 6.400073017261236 0.0
9.150883172924027 7.444273543454419 0.0
5.430406600793122 3.390815886517273 0.0
5.049583827974758 5.697634876048387 0.0
8.3966710383105 3.495813899905868 0.0
9.007538428392454 8.046563579784266 0.0
4.645155158868719 2.637132843684674 0.0
4.887444326771336 2.30020425915506 0.0
6.483736782775559 4.522536327482678 0.0
7.843169154548308 8.2116075844056 0.0
5.06295551628385 4.901632590583318 0.0
7.201400991012747 5.138239336380897 0.0
8.519791031104612 8.848807089071627 0.0
8.658623737989732 3.031313729049854 0.0
7.585566208322493 3.629882964874684 0.0
8.411818469596405 6.834326722716643 0.0
9.172363528634236 7.669230647622864 0.0
8.85455683341768 2.682483055215344 0.0
9.359398739738925 1.631421337140716 0.0
9.071793864444992 7.337030604117359 0.0
6.968394563521436 3.712808894519514 0.0
7.899236117684646 7.094583340182754 0.0
9.54362864504834 9.781852543872333 0.0
7.151298729743687 7.644795130415299 0.0
5.452218361466201 5.186873761308322 0.0
5.517642289161902 5.293540933999446 0.0
7.802500357665464 5.978295671754199 0.0
6.594850839687122 8.491429270558893 0.0
6.029132431949566 8.294997405201931 0.0
9.31286590869111 0.5672913838331921 0.0
9.25238720319541 0.4415953739444106 0.0
9.550589523211062 4.228044955453704 0.0
8.748611832783206 6.250900951984038 0.0
7.566980108995873 3.995148257893202 0.0
7.426142759241261 3.996743578498081 0.0
6.478912513785404 4.000296412419969 0.0
9.30435638148753 5.168210982711592 0.0
7.542154188520517 5.752525075248498 0.0
7.219033852073297 2.139582470800704 0.0
7.370913620388047 6.545121498197235 0.0
5.226731036024996 5.187572666585561 0.0
8.515591031124366 4.462223215179979 0.0
6.762864307079274 0.3078036604979366 0.0
8.587432696997471 4.977010533175154 0.0
8.703948448756302 8.815629076400704 0.0
8.081003990931544 7.370949680119862 0.0
7.424404567669909 6.949730915714445 0.0
8.578903262311433 8.377992954045473 0.0
7.301258690263783 6.106184350645308 0.0
5.991600556904204 3.99820087171043 0.0
8.203048538477193 1.601044215405025 0.0
7.289972483120081 4.572350254111052 0.0
7.714697186439165 5.420586967696794 0.0
8.918853780709807 1.841796898567452 0.0
9.919941345877513 4.749808449067644 0.0
7.245589454939737 5.94251251443003 0.0
9.258480524497795 3.358952871140391 0.0
3.705877615124628 5.574038727593425 0.0
8.287096858129765 7.962370605242409 0.0
6.799629860952143 3.705385600481528 0.0
4.146753450763018 6.544154457143895 0.0
7.413973555029582 5.545687501585183 0.0
8.466524978378082 4.980481756569235 0.0
7.336312153537934 2.337983522449311 0.0
7.695505222753409 3.747498713679684 0.0
4.898236813123799 4.795853653580084 0.0
4.59779105899602 1.896916774247134 0.0
8.560170375862322 7.072369101894893 0.0
8.386150468360862 2.449771437140704 0.0
8.41200018115259 5.084601315536367 0.0
5.102189912301071 7.621598618277815 0.0
8.336320418935243 6.71651223072348 0.0
5.081745734883095 3.977838926197614 0.0
7.63590698378166 0.9500570055008507 0.0
7.743369677149255 3.051233984704873 0.0
5.357527459690566 0.3809996753407537 0.0
5.967373112873382 0.7731113464301924 0.0
8.169449265206127 6.666271947462212 0.0
5.95122726745053 5.55758205410881 0.0
9.922289489207834 3.53923011719877 0.0
9.39154684476555 2.659037023454942 0.0
7.701415639167884 7.690060291860976 0.0
9.819179654793023 1.329863870021845 0.0
8.358229579054417 6.506108206863729 0.0
9.269720555169467 5.657096143475924 0.0
4.473187658045934 7.435037860084884 0.0
9.65807158077373 3.255496360750368 0.0
9.605155446454205 8.713645566904637 0.0
7.097383547728313 5.141197376985936 0.0
9.812212483832656 1.89920712759492 0.0
9.83875570675407 6.81603549325055 0.0
8.926246869879279 2.079976511571457 0.0
9.166785856141402 9.169070814302419 0.0
8.763479010228052 1.587152667342957 0.0
5.957377924852992 6.404530806530254 0.0
7.14506854375872 6.10342416684208 0.0
5.672595070581394 5.164323323112049 0.0
4.899782787268781 0.3801727265981219 0.0
4.447133848117348 4.673614099606824 0.0
7.044865074789195 3.253639989243549 0.0
9.818461337102992 7.819456450952447 0.0
9.925334577033155 7.954012377173311 0.0
6.352907898232792 1.173665225954276 0.0
7.351721385581032 5.660361289755705 0.0
9.337367583861807 2.76534436379692 0.0
8.693118347802024 4.360254099729149 0.0
9.476812970101324 0.3524826622168163 0.0
7.109868985890334 0.9024224571333925 0.0
7.899106846231403 5.511805431542581 0.0
8.352799544476607 5.187887629361129 0.0
6.957483547582747 0.6176251309213842 0.0
8.099559500483094 1.412323841044818 0.0
9.913030944540278 0.8542404645334569 0.0
9.143075088381442 8.022165366829135 0.0
8.819861450593166 6.356592599428041 0.0
9.319444417409162 1.49938505915629 0.0
6.490262520326714 7.118204362551877 0.0
6.490874470087819 6.582907761235813 0.0
9.82506653058937 0.6146757679104559 0.0
6.803129818897624 4.419048038171804 0.0
9.840901379354312 0.08198751964190581 0.0
9.839740374244226 9.918356239418472 0.0
8.551927134544655 9.449788917425456 0.0
9.92097857388158 3.249999999993177 0.0
5.797087413057367 7.077351493358238 0.0
9.255412859987286 6.433984412022419 0.0
8.668174522249984 1.740767926084485 0.0
9.920991430240607 6.25262219124529 0.0
7.57275248448898 1.94367954756322 0.0
8.052865444445507 8.19900054463639 0.0
8.748697149245206 4.25201068974208 0.0
9.158270227735827 0.5542256343091421 0.0
5.997487767477439 4.787924707603557 0.0
6.119759900601896 4.78043793682227 0.0
4.353034750397793 8.619182743639561 0.0
8.721093521611476 5.588932824583312 0.0
5.717101151444983 1.123034066822819 0.0
9.825602081347064 8.68753399402474 0.0
8.005502510832988 8.7824052910506 0.0
5.548184234622668 6.408009287230429 0.0
5.77830300433981 6.598697187164234 0.0
9.613093825495433 4.50282172481406 0.0
9.928981132641653 9.74928475696928 0.0
6.613628176297015 4.515513362596662 0.0
1.822126723816303 1.297795131355289 0.0
9.514164594137375 1.43081427463862 0.0
4.735494753432723 3.698541604583975 0.0
9.52844959749262 8.615213629960298 0.0
4.660704511759056 0.7947595073298008 0.0
6.82340845160293 5.239926830264399 0.0
7.885938077030673 7.380147032865134 0.0
7.884599891021201 6.09005968568029 0.0
8.846834820720167 9.653276456345532 0.0
8.457777199486827 0.3851010632068662 0.0
6.66485224572131 8.771510767670392 0.0
9.091499342133352 9.708315832477556 0.0
9.824286725109655 4.976315293637262 0.0
7.848197684391786 5.632217046637356 0.0
3.88430598115417 4.225391362015386 0.0
8.776890759183289 2.809688928468134 0.0
7.393884285023409 3.59397875231041 0.0
6.927568893329758 4.396788356869783 0.0
4.96854327720728 2.662368428358774 0.0
9.1480130720193 3.951479613991279 0.0
7.071049729490975 2.38092990636632 0.0
3.40193058782919 1.686321186206593 0.0
7.612042194200681 4.815904436723407 0.0
9.043395868401339 6.888481825015849 0.0
9.098933057562759 8.152197681006806 0.0
6.058682303253315 3.857501492181965 0.0
3.707092669281355 2.986685502034343 0.0
5.113272509841263 5.189455016444592 0.0
6.960565857079232 3.416349532571279 0.0
8.755151527375476 7.649255597361291 0.0
3.393680865444538 3.679982303262531 0.0
3.117424600120088 3.35605258976247 0.0
8.530814041264104 5.488376426140491 0.0
4.820719767306654 5.106646490188182 0.0
9.918899263509473 4.144927088739744 0.0
9.918194630017027 7.447268230913605 0.0
8.461970084137805 3.144844565847669 0.0
9.924415919486059 6.949999999995354 0.0
7.184050152099684 2.72771667662237 0.0
8.834356715215904 7.801565642745232 0.0
8.689015446783005 4.145232831954543 0.0
8.490778532265319 8.234414357968106 0.0
8.63666290918932 2.83060276219705 0.0
4.61028976098935 4.741894230894578 0.0
6.314735925012879 4.003132559161639 0.0
9.20786580425652 4.67001723737971 0.0
7.141401229301469 4.873205425098625 0.0
6.235177809922153 4.774126344778935 0.0
9.12491895896937 3.145675090615719 0.0
9.255747684068178 3.162525801823036 0.0
8.312852272796098 2.290855459722148 0.0
1.449266720542303 3.363629101350872 0.0
9.525687840398492 4.800807314407045 0.0
4.829905263804087 8.14474456977717 0.0
9.09338914689732 7.563794106183232 0.0
5.389401689694107 5.283808684471545 0.0
8.530979415204587 3.029374286908943 0.0
7.901489077080633 6.535344047486632 0.0
9.218572924671975 5.760893551533255 0.0
8.562382833959296 4.143913974026883 0.0
8.62959127904665 8.974877485888243 0.0
9.408442441596518 9.62276529745719 0.0
7.5034765601713 3.869833107932387 0.0
9.842813436634783 6.600620949014236 0.0
9.826116984327193 8.911617279149695 0.0
7.529907780698261 0.7369111006685982 0.0
7.832164962480427 2.905293639437395 0.0
8.39517908433056 3.267417602291069 0.0
9.823014010107707 9.085319632577246 0.0
9.022314123618541 3.944559746338292 0.0
4.243701230676532 5.332574856090426 0.0
9.816740542566388 1.127839952679595 0.0
8.166775715766304 5.693916696568397 0.0
8.865374421689054 8.068986769641638 0.0
8.761145809863661 6.470583506581853 0.0
8.998345275919851 9.209303502026401 0.0
9.698477487436316 6.706902829754045 0.0
6.439032098063426 0.3109134377713525 0.0
7.562681994382136 4.643158005207056 0.0
9.03999088074715 0.2799354672273258 0.0
5.180741540467516 3.805018725608906 0.0
6.243990330956698 2.718077286244967 0.0
9.79416634023361 0.1815240178579244 0.0
9.926540005061975 2.847049370876555 0.0
9.826476210374608 2.670192168078066 0.0
6.365816673179121 4.536333049275508 0.0
5.546353765219417 4.618331215552614 0.0
9.820703096450293 2.000649418331399 0.0
6.884388790679166 3.561583980715254 0.0
7.431303395649604 5.747824222777201 0.0
8.849816832721245 2.19318290395604 0.0
4.185147517585975 5.697469360586313 0.0
9.165905238119013 5.873664931582344 0.0
7.70479478158537 1.788324620089049 0.0
9.627376046933474 0.9196091445437269 0.0
6.657687963328663 5.144792385996769 0.0
9.83245016645186 0.3925568446109945 0.0
7.483092985762584 9.253837199159435 0.0
5.445348362202234 3.977855663863651 0.0
7.476680532833337 4.837183287808616 0.0
9.572749890969304 8.505160319814301 0.0
9.915853314998252 9.437014513917465 0.0
7.679469018350979 7.390484878021194 0.0
9.418139053434402 4.790576000488359 0.0
8.096967733471567 5.865447162201908 0.0
9.829153508938724 8.378494945652118 0.0
9.926595955569645 5.157718300415699 0.0
8.774484245600224 7.939747459426853 0.0
8.629764448155779 6.481031318922794 0.0
8.961169458302376 3.839036702328818 0.0
4.617199205561317 5.256318959792646 0.0
8.480815774219478 4.031210317621497 0.0
9.708341592512763 3.401018043990571 0.0
7.183974816647467 4.77882314543966 0.0
9.821437962294304 7.659391965474772 0.0
8.150320284869602 2.286501016204562 0.0
9.828114434347311 1.684891358832554 0.0
5.349187766238684 6.538177907133678 0.0
8.076053471314525 2.76180604769483 0.0
4.907713691134565 5.29818629967416 0.0
0.6874399366049438 4.328593906714074 0.0
0.6980011780697519 5.702671170050627 0.0
8.263861466707834 8.182284285231713 0.0
5.838783785156478 4.913981390426639 0.0
7.807619472656604 7.235706382002089 0.0
9.388504256318683 6.022122644748753 0.0
9.929839894767033 6.436189192303577 0.0
8.3205848711706 3.39107920408397 0.0
3.240770542267401 4.019899919523968 0.0
8.059047070496568 2.468855909103855 0.0
9.932479519490421 2.449625056415224 0.0
7.737639000139152 4.580708137963557 0.0
8.26141077223695 0.3940397126348397 0.0
9.69568953371801 1.959951226402445 0.0
6.469120930453264 4.892267070266994 0.0
9.167223997255698 0.8102256463122337 0.0
6.236889648241256 0.9291076084031108 0.0
8.306379082772498 5.268830342852036 0.0
6.716089118890225 5.239344620507032 0.0
9.82511981852641 9.282822358664017 0.0
6.68375719572285 4.404998642130821 0.0
8.913754712375674 6.908138360584365 0.0
6.173250048857013 5.251634416326969 0.0
4.235907497612446 1.924052997345291 0.0
5.151007663981651 2.438629730660893 0.0
8.924254300637541 9.3764975797567 0.0
4.438612423541503 5.287968640901957 0.0
8.571203234299599 1.897009944569934 0.0
6.878800676380218 5.821332862798138 0.0
5.710626178601224 4.792560699857408 0.0
7.149510071621283 5.216310009157644 0.0
2.099966541549645 2.334742113488256 0.0
9.93396330620579 5.350566393301629 0.0
7.143046479323961 8.646955109387985 0.0
7.965747313080266 5.193641450105844 0.0
6.3314394693073 5.135050228240639 0.0
7.665821333021348 6.222698255001823 0.0
6.305321657053551 4.659816230868476 0.0
7.833020917089713 5.208837056143474 0.0
9.41455902676429 2.869725681199307 0.0
8.567151507735133 6.598605357295113 0.0
7.405527786978573 4.377085529441429 0.0
6.552969697053132 5.137148974085434 0.0
9.93630620742063 8.042778076596578 0.0
7.166743296019233 4.593171678848165 0.0
6.595561806063966 5.839366735225723 0.0
6.066152182102007 5.262519562574559 0.0
9.834694151277489 0.9093455747994099 0.0
8.98259191950674 7.579732466796592 0.0
6.465071238839505 5.25485771955322 0.0
9.759759896588413 3.236659507608532 0.0
4.775529448101694 5.224235675150505 0.0
9.935991245222917 7.153416415978829 0.0
0.6530736820718381 9.352299998916202 0.0
0.6449439415299687 0.6468300344151556 0.0
7.804690364869245 4.495816547678174 0.0
9.84503784553893 5.70620404704573 0.0
9.83525329400959 3.826992990746767 0.0
9.922964894244684 4.265000406933376 0.0
8.333767638401964 1.121219971446645 0.0
8.876012546033895 7.019147158538482 0.0
8.172413577824324 3.413096916572049 0.0
7.232233017296214 4.478957103028363 0.0
6.214597295185415 3.852860083673202 0.0
9.85013791746415 4.400709747289421 0.0
3.941627380932058 6.342995010255737 0.0
3.097271569675528 8.77391871286929 0.0
9.292917152323044 6.010976049411984 0.0
8.104342196673183 5.184165973282902 0.0
8.994300084006271 3.652611812846807 0.0
9.937157897030163 5.549999999993244 0.0
8.721368888525245 7.274540720770752 0.0
8.920003648712827 0.9516585309368178 0.0
7.910527456030004 8.536826514867816 0.0
9.846441288756814 4.60515911863952 0.0
9.584942233925151 4.712073182517884 0.0
9.642357858573972 6.805672051759494 0.0
9.797024725252207 9.838837222258014 0.0
9.842451438022124 4.018973836958878 0.0
6.112723137676118 3.704473949316424 0.0
7.574641969193845 3.765362276156904 0.0
7.826594968121701 6.200366572362263 0.0
7.762805366733504 9.34009502796868 0.0
9.56854033867856 1.012566255816665 0.0
7.71256563655353 5.219373702836014 0.0
9.68039392238282 8.786964504862018 0.0
5.910362452777086 9.277662068919813 0.0
7.418090653922814 3.326443419100716 0.0
9.857704179097952 4.697553149694669 0.0
8.452469674653342 8.996585816905599 0.0
9.522351366699843 2.057525484575908 0.0
7.802315574700843 9.548878971475935 0.0
9.938875656926385 3.449999999992592 0.0
8.425189037911712 6.608575180629274 0.0
5.925965231566842 2.523669697740033 0.0
6.654918072256329 5.95749128982984 0.0
9.826748589235729 9.631118448471485 0.0
8.6684585637523 7.39633999085442 0.0
9.844673843931567 3.090088625379724 0.0
9.93613850661301 2.250382721159617 0.0
9.218291993658738 2.892108990205171 0.0
9.83502846611296 8.212781989607324 0.0
7.754136409732265 7.104288507262783 0.0
8.510570542791681 2.036933285735889 0.0
7.757745059307245 4.315798612475442 0.0
7.989231770559189 6.201656630465583 0.0
8.068934521422738 4.198631572122605 0.0
4.957478134450373 9.038766150325067 0.0
7.208661142641733 6.501402463831379 0.0
7.299506095906239 4.363561999234681 0.0
8.250303873550486 2.105322217421675 0.0
8.678637541413377 7.053471135702286 0.0
9.761528395137384 6.163503990672834 0.0
9.84494857233395 8.59999999999775 0.0
9.83825138794677 3.672838954969637 0.0
5.121008544047756 5.808127183024784 0.0
8.343911550360986 4.043535893276861 0.0
9.85324441775315 5.899999999993774 0.0
9.51114465213134 8.41035540646284 0.0
6.505812179224195 6.93390566262983 0.0
6.15572847138365 9.023097246950844 0.0
3.352081892333425 3.024853379890529 0.0
6.433163283162099 8.675072413910678 0.0
8.825744236698243 3.624446391299867 0.0
4.883007294861279 7.819620905924936 0.0
5.876659170760434 5.638247433601083 0.0
6.859400040348503 6.510797998354633 0.0
7.946400945409184 3.500317276373196 0.0
7.496830255505493 6.653194511698024 0.0
9.852183479755313 4.891525833556942 0.0
9.77998778436291 2.922486526124376 0.0
6.774672660492365 5.324728659740495 0.0
5.717254072187427 6.824125962512845 0.0
9.713440940838062 4.63793103997539 0.0
8.859858662536796 0.2721395536350836 0.0
8.37556017530946 9.436653414116012 0.0
7.395237381047616 7.885576562773319 0.0
5.4709157802033 4.511152089197594 0.0
9.489749416979361 9.691840729914848 0.0
4.599216022837964 3.46438688931078 0.0
5.572287492757569 4.807021644849729 0.0
9.926499336309957 9.92730688390086 0.0
9.926499336310107 0.07269311609890093 0.0
9.338127766332573 0.3585313952168247 0.0
6.810761948165162 3.414693294319008 0.0
8.166274345037138 5.943611545564389 0.0
5.2892644736731 6.301081312912763 0.0
9.731911074791544 7.649313380659622 0.0
8.90251102352767 9.50983415326544 0.0
8.997881406541017 1.033666784655452 0.0
5.835124768755703 2.738139962594905 0.0
9.665357480775825 6.185331297099201 0.0
7.656532192558493 8.217157287499347 0.0
9.170463887605525 2.975444721032631 0.0
4.208158615905443 0.8648302238584886 0.0
6.97015686031129 5.933674629077266 0.0
6.181941366523793 3.565885175921835 0.0
3.30313590337911 6.393402837735046 0.0
6.447482061767014 4.816169316820496 0.0
8.185341428749446 4.169172087371246 0.0
4.552595724340015 8.298301336212145 0.0
9.84850676569699 8.999999999998423 0.0
9.846941514449377 7.393642828194986 0.0
7.924592433490734 2.788309934035703 0.0
8.154308714226714 8.853640122009672 0.0
8.876629743004642 1.96110242719995 0.0
7.228849192966834 8.90811350348676 0.0
9.852301635085423 8.296637825215246 0.0
5.219795195341889 5.547413133147649 0.0
9.861497117995457 6.901363010201344 0.0
2.953911258021604 6.136007283255669 0.0
6.93158841067062 4.77708273647784 0.0
9.67540418457871 2.912802891506324 0.0
4.194055958522277 4.437353127730132 0.0
6.133959559341536 0.406856611599261 0.0
8.29952795189331 9.309744645643846 0.0
9.843692337952948 1.209647690818311 0.0
5.164986286280336 6.671544079402435 0.0
9.838533350075606 2.081705440779448 0.0
8.301244777513975 6.604088853319459 0.0
5.471494771710784 2.714598185146428 0.0
8.86534684892311 1.208599471795828 0.0
9.940610684232212 1.451558535868664 0.0
9.40896208432968 1.428353940655538 0.0
2.329177605337097 4.238803555614174 0.0
5.980761651517799 7.182207186682233 0.0
9.66541573964336 0.1719254072074424 0.0
7.220979380229172 7.806128737674462 0.0
1.251721227904697 6.151932667911503 0.0
8.104967286191181 6.057912607875576 0.0
6.650768762224724 4.817922869198292 0.0
6.634976350437587 3.213339182992986 0.0
7.034320437500567 4.898219100342838 0.0
9.502772020064167 6.283064492634301 0.0
8.13187938667684 3.518506862055515 0.0
9.855471943454193 2.599999999994991 0.0
9.056747742708522 8.263936599935574 0.0
4.352645795441222 5.724453640019 0.0
3.744263984699181 1.488951698361357 0.0
5.175860134287045 3.6375726667098 0.0
7.736434712114619 6.400417475661193 0.0
9.857658576695343 6.316607183405179 0.0
7.876525261950537 4.304285002335559 0.0
9.856114384785611 7.914602773442983 0.0
9.848334119947063 0.7059644476295188 0.0
9.59694321995579 6.895814046141667 0.0
5.906465212962551 3.869023950643881 0.0
9.840676994268005 9.364956386459765 0.0
5.355015287544095 3.83518170601625 0.0
6.374090407153147 5.855743754257685 0.0
8.227401290513832 5.297819733684674 0.0
5.451235131977493 4.825706629991923 0.0
6.022070213762754 5.355923882747634 0.0
9.845674433677614 6.108401449483281 0.0
9.835067400944396 7.739582406783081 0.0
8.602026805792988 2.941372356914139 0.0
5.059869081004962 5.269480960018243 0.0
5.284714507903736 5.26496663762182 0.0
9.627110479149561 7.660076105040499 0.0
6.820001127809743 4.792514421153957 0.0
5.120512795059439 4.806607659110254 0.0
9.56933817216883 2.911464407429096 0.0
9.74091654291531 9.267545397628387 0.0
9.93006767325302 6.576784040838644 0.0
9.642486276936268 4.650227701598451 0.0
5.185183328569137 9.410919109238325 0.0
9.37052946854105 4.605636695802024 0.0
1.677077220416309 5.871167715901136 0.0
7.345783833404538 3.184020711886284 0.0
5.419239942654976 5.982692039856376 0.0
6.133318300188262 2.551919945731369 0.0
6.187291396343277 4.499077117404439 0.0
1.231465237822878 3.921479198315213 0.0
8.969849937139944 9.699215363213542 0.0
9.218303154263054 6.037447959776716 0.0
CELLS 4886 19544
3 1113 1356 1450
3 1402 231 1659
3 272 269 1414
3 396 394 1777
3 1451 945 1452
3 194 81 1801
3 1847 1501 2104
3 2024 2121 2479
3 1115 1113 1450
3 1124 1413 1844
3 1061 1955 2409
3 307 305 1645
3 1592 1369 1593
3 238 1501 1847
3 1955 1883 2409
3 1808 243 1910
3 1885 978 2362
3 1440 793 2092
3 189 1488 1608
3 353 350 1864
3 2007 2231 2232
3 307 1645 2493
3 1096 1760 2496
3 2178 874 2179
3 621 625 1595
3 1493 1480 1938
3 1655 1268 2137
3 1341 1410 2212
3 243 1808 2360
3 1902 1446 2516
3 1760 1096 1763
3 856 790 2180
3 2008 2046 2105
3 789 1809 2067
3 694 1543 1575
3 1127 1762 1953
3 1748 807 2228
3 1543 1308 1575
3 820 1872 2170
3 1417 954 1998
3 1369 1592 2386
3 272 1414 1787
3 329 333 1998
3 1544 1095 1545
3 2231 1490 2232
3 1342 1683 1790
3 374 377 1797
3 807 1678 2228
3 1665 198 2128
3 141 142 1620
3 325 322 1952
3 231 1402 1654
3 198 1665 2010
3 1890 1307 2387
3 208 1438 1619
3 2016 1970 2156
3 1436 212 2020
3 954 1417 2333
3 1736 1894 2244
3 1491 1750 2143
3 1677 1064 2146
3 1474 1258 1475
3 1500 233 1930
3 1446 2415 2516
3 1700 973 1800
3 2128 2270 2316
3 1316 1315 1593
3 1307 2341 2387
3 2258 1324 2328
3 1083 1507 1508
3 693 1095 1544
3 621 1595 1596
3 667 1571 1872
3 1932 1766 2061
3 393 391 2240
3 1342 1790 2400
3 252 1707 2234
3 931 978 1885
3 1430 1116 1704
3 1411 1109 1714
3 1478 1227 2440
3 1990 195 2297
3 1792 1167 1985
3 1682 444 1975
3 394 397 1777
3 1711 2028 2162
3 1574 856 2180
3 2008 1851 2046
3 736 1493 1938
3 1069 1060 1662
3 1458 455 1754
3 862 691 1705
3 1161 1642 2286
3 1699 1700 1800
3 447 516 1637
3 955 1482 1483
3 2024 206 2121
3 391 1773 2240
3 1072 1412 1893
3 212 1436 2350
3 1566 1365 1568
3 259 1441 1672
3 872 870 1764
3 330 328 1889
3 1539 1161 2286
3 1897 1898 2275
3 1434 1990 2297
3 1109 1411 1730
3 319 307 2493
3 1762 1761 1953
3 1369 1316 1593
3 1540 834 1832
3 1505 652 2442
3 1732 1655 2137
3 921 1712 2295
3 1872 1388 2170
3 1712 921 2125
3 2028 244 2162
3 1506 1570 1680
3 1569 368 1964
3 1571 667 2375
3 1587 2178 2179
3 196 1723 1737
3 524 2016 2156
3 1528 1250 1733
3 1115 1450 1973
3 1938 1480 1971
3 1809 1396 2067
3 1641 249 2299
3 1223 1258 1474
3 1365 1566 2120
3 1981 962 2316
3 1538 353 1864
3 455 1458 1756
3 152 233 1500
3 1116 1430 1703
3 817 652 1505
3 1347 2003 2004
3 1607 1958 2085
3 194 1801 2195
3 1410 1341 2351
3 223 1415 1710
3 197 1511 2346
3 2198 787 2225
3 81 82 1801
3 1438 208 1620
3 1444 522 1823
3 1511 197 1950
3 726 718 1567
3 1637 516 1739
3 1708 2337 2341
3 1280 1649 2124
3 2337 1395 2341
3 1327 1709 2315
3 1225 1227 1478
3 691 624 1705
3 476 2224 2305
3 830 832 2204
3 1750 1491 2403
3 1366 1897 2275
3 2345 1583 2352
3 2054 405 2110
3 1984 2172 2230
3 1846 2198 2225
3 1177 2042 2418
3 2121 1367 2479
3 1527 1531 1541
3 916 1039 1834
3 1413 1124 2467
3 1622 1503 1868
3 249 1641 2019
3 1805 405 2054
3 1761 1007 1953
3 1415 223 2395
3 960 1756 2203
3 368 1569 2135
3 1402 1659 2473
3 941 1433 2471
3 1267 1477 1501
3 260 2002 2265
3 1704 558 2077
3 2224 1886 2305
3 2053 1386 2199
3 1452 945 1952
3 1717 1611 1718
3 1682 1975 2230
3 1760 1762 2496
3 1481 203 2104
3 1264 1266 1670
3 142 236 1620
3 2133 1182 2179
3 1791 1602 2183
3 350 346 1864
3 1412 1072 2393
3 1281 1575 2255
3 1565 1948 2155
3 849 1449 1513
3 1958 396 2085
3 1339 1069 1662
3 834 1540 1917
3 269 267 1414
3 1268 1267 1501
3 1440 2092 2468
3 1399 1981 2316
3 1635 1636 2041
3 1454 252 2234
3 1451 1305 1890
3 1375 1883 1955
3 362 366 1786
3 1484 2410 2528
3 1449 849 1640
3 1267 1474 1477
3 200 1611 1717
3 1054 1581 1582
3 1350 1977 2253
3 190 1390 2118
3 788 1956 2193
3 1709 1327 1888
3 2233 2298 2413
3 1488 189 2355
3 478 1685 1714
3 230 1525 1690
3 1687 478 1688
3 427 429 1756
3 1570 1065 2476
3 1880 1133 1988
3 1649 656 2124
3 1537 209 1614
3 1134 1769 1986
3 1220 1268 1655
3 396 1777 2085
3 1167 1755 1985
3 2229 1744 2296
3 1575 1281 2287
3 127 240 1882
3 377 647 1797
3 954 329 1998
3 220 1697 1698
3 1342 1341 2212
3 1441 264 1672
3 1512 188 2433
3 763 2345 2352
3 1685 1411 1714
3 1805 1188 1951
3 1347 2004 2157
3 1054 1582 1667
3 1333 1617 1674
3 2217 73 2361
3 1539 1036 1917
3 1039 1292 1834
3 208 141 1620
3 1965 1964 2038
3 693 1544 1969
3 1453 239 2279
3 203 1481 2049
3 945 1451 1889
3 680 1459 2134
3 354 2147 2196
3 1405 1932 2061
3 1723 1722 1737
3 1748 1175 1927
3 1532 1528 1733
3 2057 1824 2154
3 1406 1659 1702
3 1948 1186 2155
3 210 1598 2114
3 1685 478 1687
3 1324 1325 2328
3 1526 1250 1527
3 165 166 1509
3 1493 736 2523
3 1526 1527 1541
3 1390 190 2417
3 522 1444 1998
3 1680 1570 1732
3 1017 1442 2525
3 374 1797 2430
3 1507 1083 2197
3 1756 960 2221
3 2270 1400 2316
3 2205 1452 2282
3 1074 1187 1888
3 2158 1245 2200
3 1442 1017 1684
3 864 1116 1703
3 1750 1751 2143
3 1456 516 1492
3 1677 2146 2149
3 2022 1339 2388
3 1602 258 2183
3 678 1594 1595
3 1245 1670 2200
3 972 830 2204
3 2143 983 2342
3 1268 1501 2226
3 1266 1461 1670
3 1487 222 2465
3 1382 2022 2388
3 58 59 1661
3 2147 1543 2196
3 1484 1485 2410
3 628 2053 2199
3 1906 1549 2259
3 364 362 1786
3 1339 2022 2247
3 1636 525 2041
3 625 678 1595
3 678 1593 1594
3 2212 1410 2222
3 1837 1865 2215
3 1699 1800 1801
3 866 864 1703
3 893 1472 1982
3 1735 1736 2244
3 1633 1255 1922
3 126 127 1882
3 681 867 1656
3 1351 1401 2363
3 11 228 1588
3 1127 1953 2454
3 265 266 267
3 1722 1122 1737
3 1389 1691 2069
3 1613 1610 1616
3 1227 1256 2440
3 429 455 1756
3 1535 1177 2418
3 322 324 1952
3 973 1700 1802
3 1964 368 2038
3 1176 1865 1866
3 1096 872 1764
3 1176 1866 1875
3 193 1839 1892
3 156 157 1441
3 615 617 1596
3 686 1520 2480
3 1409 2097 2305
3 2410 1151 2528
3 1427 2217 2361
3 440 1911 2314
3 1744 1743 2296
3 516 1456 1739
3 1939 589 2164
3 690 931 2150
3 1062 1579 1580
3 1054 1580 1581
3 955 1483 1716
3 1064 1677 2248
3 1956 1616 2193
3 1776 1893 2026
3 1398 1115 1973
3 2002 1453 2265
3 1541 1531 1542
3 216 2191 2536
3 1736 1326 1894
3 1065 994 1066
3 1598 2115 2175
3 2314 1911 2358
3 1433 941 2042
3 2115 1209 2175
3 717 1550 1551
3 188 1941 2433
3 267 1132 1414
3 771 1569 2064
3 1157 1545 1546
3 1231 1250 1526
3 1933 240 2181
3 222 1487 2025
3 1525 230 1765
3 1430 1704 2077
3 757 1744 2495
3 264 263 265
3 883 773 1917
3 739 2205 2282
3 1667 1582 2434
3 1744 757 2474
3 239 1453 2002
3 1441 259 2356
3 2005 1443 2012
3 254 1766 1932
3 1509 166 1679
3 1477 1475 1481
3 793 1440 2165
3 1385 1523 2377
3 1481 1475 2523
3 156 1441 2356
3 1066 1220 1655
3 945 325 1952
3 2094 2087 2134
3 1747 1175 1748
3 253 262 263
3 1327 1074 1888
3 718 715 1567
3 2046 1043 2105
3 240 1933 2399
3 1305 1307 1890
3 224 58 1661
3 1195 1566 2285
3 1590 1393 1749
3 1255 1230 1922
3 353 1538 2073
3 358 1999 2325
3 882 1802 2036
3 1024 1020 1604
3 333 522 1998
3 1401 1351 2414
3 1475 1258 1476
3 2310 786 2364
3 328 945 1889
3 807 1748 1927
3 825 724 1912
3 1742 263 2491
3 267 266 1132
3 2077 2102 2203
3 1431 1432 1860
3 1212 1957 2312
3 2097 476 2305
3 1132 1402 2473
3 717 713 1550
3 1746 693 1969
3 1372 1124 1844
3 1256 1541 2269
3 1977 1350 2274
3 2332 1978 2443
3 874 2133 2179
3 1983 1534 2171
3 1157 1544 1545
3 1230 1228 1922
3 1580 1579 1581
3 1565 806 1948
3 1416 1363 2413
3 1287 1995 2398
3 265 263 266
3 1534 1529 2171
3 1604 1834 2428
3 1255 1633 2509
3 1344 1643 1644
3 1332 1388 1571
3 1423 217 2217
3 2191 1057 2451
3 458 447 1637
3 1250 1233 1733
3 472 2212 2222
3 1175 1747 1840
3 1652 256 1653
3 1073 1347 1572
3 200 145 1609
3 683 640 1585
3 1116 862 1705
3 1221 1223 1474
3 1778 801 1803
3 1503 1622 2471
3 1475 1493 2523
3 464 680 2134
3 14 210 2114
3 579 1880 1988
3 1434 1435 1990
3 1447 2310 2364
3 275 274 276
3 2294 1871 2419
3 814 1068 1684
3 1172 1439 2273
3 273 272 274
3 1363 1416 2406
3 1220 1219 1221
3 1060 1656 1662
3 1099 1792 1985
3 2048 1198 2168
3 1241 1245 2323
3 699 723 1753
3 1640 1862 2070
3 910 1018 1584
3 1586 1067 1587
3 1656 867 1662
3 1067 686 2480
3 654 2242 2294
3 1593 1315 1594
3 1880 553 1974
3 236 1717 1718
3 617 621 1596
3 1723 196 2313
3 402 1877 2116
3 273 274 275
3 2202 1869 2252
3 1510 1358 1767
3 193 1892 2373
3 1188 1805 2054
3 1220 1221 1267
3 1066 1218 1219
3 1517 1097 1518
3 1677 1676 1858
3 686 277 1520
3 268 267 269
3 697 857 1592
3 220 1698 1699
3 1802 1700 2036
3 1612 1537 1614
3 929 817 994
3 228 12 2136
3 2110 2116 2482
3 1659 1658 1702
3 1611 1613 2280
3 1344 991 1643
3 683 1585 1604
3 1638 1358 2404
3 1485 1034 2410
3 2214 833 2424
3 271 272 273
3 1482 955 1962
3 1066 1219 1220
3 931 1885 2150
3 1613 1891 2280
3 1189 1589 2204
3 1566 1195 2120
3 726 1567 2490
3 1122 1722 1874
3 1494 319 2493
3 1671 259 1672
3 1267 1221 1474
3 603 528 1591
3 1664 2128 2316
3 1817 1924 2174
3 1626 1660 2111
3 1474 1475 1477
3 1023 1062 1580
3 1957 1599 2312
3 1764 1939 2164
3 1358 1950 2404
3 200 1609 1610
3 1431 1082 1432
3 1778 1803 2521
3 1830 1832 2075
3 1930 233 2369
3 1329 1482 1650
3 757 1959 2522
3 1239 1247 1597
3 758 1978 2332
3 1569 1290 2064
3 216 1694 2191
3 1453 1420 2265
3 1549 1906 2129
3 24 215 1674
3 19 235 1676
3 1621 1057 2191
3 1691 1389 2262
3 1617 1333 2192
3 929 994 1065
3 1769 1672 1986
3 1893 1412 2026
3 1609 1537 1612
3 271 269 272
3 1373 1438 1620
3 217 1423 2381
3 517 330 1889
3 1322 1055 1667
3 1974 553 2499
3 228 2136 2187
3 1589 1189 1788
3 1999 1577 2325
3 2110 405 2116
3 189 1608 1842
3 1055 1050 1667
3 739 1455 2205
3 1865 1176 2215
3 319 1494 2522
3 2474 757 2522
3 1484 227 1485
3 10 11 1588
3 723 809 1753
3 27 230 1689
3 1550 806 1565
3 1179 1180 1217
3 207 1617 2192
3 1433 1217 1502
3 1562 1556 1606
3 1379 2017 2018
3 1245 2158 2323
3 675 1097 1517
3 884 501 1599
3 1020 683 1604
3 1603 1095 1848
3 1001 2057 2154
3 1604 1585 1834
3 1610 1612 1616
3 1764 870 1939
3 2242 1871 2294
3 1669 1264 1670
3 1658 213 1702
3 1995 1646 2398
3 631 539 1600
3 1491 2143 2342
3 1801 1800 2195
3 1200 1199 1693
3 1535 940 1861
3 1534 758 2332
3 914 2258 2328
3 1588 228 2457
3 216 138 1694
3 151 152 1500
3 1133 1880 1974
3 1677 1858 2248
3 1294 1622 1868
3 875 1010 1767
3 1379 2018 2416
3 1279 2202 2252
3 182 256 1652
3 1592 857 2386
3 672 681 1656
3 615 1596 1824
3 1093 1487 1623
3 1823 522 2100
3 1245 1242 1669
3 1582 1581 1583
3 758 1534 2306
3 1975 1984 2230
3 1358 1510 1950
3 1663 1336 1665
3 2102 960 2203
3 366 1087 1786
3 1740 1490 2231
3 21 207 1709
3 145 146 1609
3 2339 765 2384
3 603 1591 1668
3 2081 199 2149
3 1540 1832 1879
3 1721 1723 1947
3 1754 455 1793
3 1751 1753 2119
3 882 1701 1807
3 1540 1539 1917
3 242 1695 1697
3 1521 354 2091
3 1363 2233 2413
3 1584 1018 1925
3 703 1067 1586
3 1177 1178 1179
3 795 916 1834
3 277 276 607
3 1571 1388 1872
3 22 23 1617
3 1097 823 1177
3 25 26 1624
3 419 418 1790
3 1728 1906 2259
3 440 1455 2261
3 1877 1318 2116
3 1488 1156 1608
3 1439 2130 2273
3 1889 1451 1890
3 1614 209 2389
3 1472 893 2094
3 675 821 823
3 23 24 1674
3 1788 1190 2183
3 917 941 1622
3 1763 1096 1764
3 1068 1442 1684
3 1034 1485 2173
3 2172 1533 2230
3 138 139 1694
3 1065 1570 2197
3 607 674 675
3 1536 1248 2268
3 229 135 1734
3 1437 1925 1926
3 680 510 1646
3 147 209 1537
3 26 27 1689
3 1627 705 2163
3 206 1651 2121
3 2409 1785 2462
3 1492 682 2447
3 1223 1225 1258
3 889 1772 2374
3 253 263 264
3 275 276 277
3 1455 739 2261
3 2022 1382 2176
3 150 227 1484
3 639 1019 1591
3 1449 1640 2070
3 1082 833 2214
3 1503 1502 1504
3 144 200 1717
3 1643 991 1713
3 1190 1791 2183
3 1538 1804 2073
3 1256 2269 2440
3 18 19 1676
3 521 531 2000
3 790 849 2180
3 1075 1329 1650
3 1087 1782 1785
3 1066 994 1218
3 270 269 271
3 682 1492 2494
3 185 252 1454
3 253 158 262
3 1629 1632 1633
3 200 1610 1611
3 1477 1481 2104
3 1623 1487 2465
3 1518 1097 1535
3 1414 1132 2460
3 1179 1217 1433
3 177 1506 1680
3 1392 1017 2525
3 1832 834 2075
3 675 823 1097
3 1459 2094 2134
3 1782 1087 1795
3 1838 1730 2372
3 1639 149 2528
3 1617 23 1674
3 2265 1420 2489
3 180 232 1859
3 1527 1250 1528
3 20 21 1709
3 1083 1508 2311
3 903 866 1703
3 1455 440 2314
3 1187 1858 1888
3 1659 1406 2473
3 1446 1902 2166
3 421 1951 2106
3 1598 210 2115
3 154 259 1671
3 1288 1835 2080
3 1832 1831 1879
3 1258 1225 1478
3 1024 1604 2117
3 1263 1429 1739
3 706 705 1627
3 1583 1581 2352
3 407 1805 1951
3 856 1574 2527
3 1701 882 2036
3 1624 26 1689
3 717 1551 1552
3 1385 2377 2391
3 2302 1745 2354
3 1572 1347 2157
3 1036 883 1917
3 1689 1690 1691
3 1664 1665 2128
3 1476 1479 1480
3 1751 2119 2143
3 815 814 1684
3 1790 889 2400
3 1606 1607 2085
3 265 267 268
3 418 889 1790
3 1522 1521 2091
3 135 136 1734
3 1726 1445 1729
3 647 1796 1797
3 1346 1453 2279
3 1293 1827 2117
3 1242 1244 1669
3 1853 1852 1854
3 889 2374 2400
3 1039 1038 1290
3 1524 628 2199
3 1331 1332 1571
3 1291 1290 1569
3 1475 1476 1493
3 1850 1852 1853
3 1490 1740 2456
3 1689 230 1690
3 1256 1526 1541
3 1704 1705 2167
3 1465 1470 1675
3 956 1073 1572
3 1613 1616 1956
3 916 917 1038
3 2014 1522 2091
3 1221 1222 1223
3 1999 763 2352
3 234 10 1588
3 1697 220 2335
3 1527 1528 1529
3 2298 1600 2413
3 1436 2020 2254
3 1642 1161 1678
3 1523 1385 2436
3 1730 1838 2426
3 795 796 916
3 713 711 1550
3 1456 1263 1739
3 999 1336 1663
3 1785 1784 2462
3 409 415 1783
3 607 675 1517
3 1229 1231 1526
3 1958 1855 2078
3 1589 1588 1590
3 1933 261 2380
3 762 1965 2038
3 1756 1458 2203
3 1776 597 1893
3 1794 1072 1893
3 188 1512 2266
3 1774 2339 2384
3 188 1908 1941
3 1010 1510 1767
3 2189 2285 2307
3 773 834 1917
3 1245 1669 1670
3 1248 1597 2268
3 146 1537 1609
3 818 910 1584
3 1641 1313 1651
3 1217 1745 2302
3 1065 1066 1655
3 1597 1247 2047
3 1360 2177 2376
3 1612 1615 1616
3 2126 867 2186
3 1019 683 1020
3 1747 892 1840
3 1092 1093 1623
3 261 1933 2181
3 400 424 1666
3 1516 1903 2377
3 1100 1392 1605
3 247 1738 1881
3 268 1134 1986
3 1177 823 1178
3 884 1599 1957
3 263 262 2491
3 806 1627 1948
3 1227 1229 1256
3 191 1729 2504
3 1636 1635 2502
3 1480 1479 1601
3 1721 1947 2498
3 1924 1146 2174
3 229 1734 1735
3 175 204 1725
3 1179 1178 1180
3 354 1521 2147
3 665 697 1592
3 640 646 1585
3 627 545 1636
3 1882 240 2399
3 1556 1555 1606
3 1373 1620 2394
3 1871 1071 2419
3 548 1628 1629
3 455 436 1793
3 974 1831 1841
3 1844 1413 2392
3 1612 1614 1615
3 209 1639 1937
3 1329 1330 1331
3 1823 2100 2142
3 1097 1177 1535
3 1021 1020 1022
3 825 1912 2455
3 913 1122 1874
3 400 1666 2113
3 1256 1229 1526
3 1419 1418 2450
3 1552 1551 1553
3 1850 1099 1852
3 1629 1631 1632
3 801 685 2029
3 1618 1619 1621
3 265 268 1986
3 1715 2165 2330
3 1531 1529 1534
3 1022 1024 1576
3 658 693 1746
3 703 686 1067
3 1062 1576 1577
3 1023 1022 1062
3 236 1718 2394
3 1688 502 1740
3 1501 1477 2104
3 213 165 1509
3 646 795 1585
3 196 1737 1738
3 379 679 1795
3 639 640 683
3 924 875 1767
3 1752 699 1753
3 207 2192 2315
3 627 1636 1660
3 1217 1180 1745
3 730 728 1833
3 528 561 1591
3 1444 1417 1998
3 252 186 1602
3 1729 1445 2504
3 460 502 1688
3 1418 946 1778
3 1203 1200 1693
3 548 470 1628
3 849 668 1640
3 646 785 795
3 607 276 674
3 14 15 210
3 147 148 209
3 478 460 1688
3 1709 207 2315
3 1157 1546 1608
3 1155 1731 1899
3 1524 1934 2390
3 1775 921 1876
3 1433 1502 1503
3 470 458 1628
3 1223 1224 1225
3 1291 1569 1964
3 871 1056 1826
3 1781 1783 1915
3 1587 1067 2300
3 916 1038 1039
3 1388 1387 1389
3 1611 1610 1613
3 1075 1328 1329
3 1039 1290 1291
3 1538 1265 1804
3 1184 1185 2163
3 597 598 1794
3 1450 1356 2421
3 1835 576 2080
3 1629 1628 1631
3 1331 1330 1332
3 561 639 1591
3 1476 1480 1493
3 705 703 1586
3 639 683 1019
3 1951 1188 2106
3 436 446 1793
3 1472 1297 2142
3 1332 1387 1388
3 1345 984 1720
3 1329 1328 1330
3 1050 1048 1667
3 150 151 227
3 11 12 228
3 557 541 2256
3 1831 974 1879
3 134 229 1766
3 1357 1358 1638
3 1336 1641 2299
3 1650 1482 1962
3 1591 1019 2512
3 1506 1507 1570
3 1803 801 2029
3 1178 823 1972
3 1552 1553 1554
3 1290 1038 1294
3 1028 1313 1641
3 1237 1239 1597
3 993 1017 1100
3 893 2087 2094
3 149 1484 2528
3 1768 1142 1949
3 9 234 1673
3 1554 1553 1555
3 668 632 1640
3 711 806 1550
3 1628 458 1637
3 1098 1829 1830
3 1482 1331 1483
3 531 1818 2000
3 435 419 1790
3 1156 1157 1608
3 1182 1184 2179
3 510 512 1646
3 1231 1233 1250
3 946 841 1778
3 1483 1331 1571
3 1459 680 2458
3 1166 1040 1210
3 892 1657 1820
3 1042 1445 1726
3 1019 1020 1021
3 749 805 1810
3 234 1588 1589
3 1695 242 1892
3 556 1853 2483
3 1018 1572 1573
3 1529 1528 1530
3 1606 1558 1607
3 1761 1759 2308
3 1396 1032 1921
3 1018 956 1572
3 689 1150 1416
3 1827 1293 2515
3 149 150 1484
3 1647 656 1648
3 1543 694 2196
3 399 409 1783
3 545 525 1636
3 268 269 270
3 715 713 717
3 1100 1017 1392
3 1657 892 1747
3 207 22 1617
3 1666 884 2249
3 1671 1672 1769
3 1554 1555 1556
3 146 147 1537
3 1081 1444 1822
3 711 709 806
3 1443 2005 2322
3 660 658 1746
3 1166 1458 1754
3 916 796 917
3 1056 1728 1826
3 1068 1069 1275
3 184 185 1454
3 158 159 262
3 2007 1687 2231
3 805 1708 1810
3 1672 264 1986
3 1561 1562 1563
3 978 1075 1650
3 1590 1588 2457
3 215 25 1624
3 1551 1550 1565
3 1073 1346 1347
3 857 818 1584
3 1648 656 1649
3 675 674 821
3 561 594 639
3 1731 529 1899
3 2303 1454 2535
3 981 903 1040
3 1630 1629 1633
3 993 877 1017
3 724 718 726
3 512 603 1646
3 1676 235 1858
3 814 1060 1068
3 715 717 1567
3 1796 647 1870
3 1715 1171 2165
3 678 1592 1593
3 644 613 1824
3 1690 1525 2145
3 1297 1822 1823
3 271 656 1647
3 1704 1116 1705
3 1225 1226 1227
3 1275 1069 1338
3 910 956 1018
3 1824 1596 2154
3 1403 1100 1605
3 1221 1219 1222
3 1068 1060 1069
3 1901 245 1949
3 1081 1055 1321
3 1751 563 1752
3 1021 1022 1023
3 672 638 681
3 1095 657 1848
3 1235 1237 1248
3 1561 1556 1562
3 1265 1259 1804
3 524 1819 2016
3 978 1650 2362
3 1492 516 2494
3 229 1735 2061
3 185 186 252
3 157 158 253
3 152 153 233
3 9 10 234
3 1527 1529 1531
3 1808 1344 2360
3 1062 1577 1579
3 1509 1679 1977
3 424 454 1666
3 637 638 672
3 981 1040 1166
3 1555 1558 1606
3 751 749 1810
3 1166 1210 1458
3 1651 1313 2121
3 15 16 2260
3 1633 1632 2509
3 2167 1705 2276
3 551 602 2045
3 697 818 857
3 364 1786 1883
3 832 1189 2204
3 1476 1478 1479
3 678 665 1592
3 213 1509 2096
3 1015 888 1124
3 1062 1022 1576
3 679 1782 1795
3 680 1646 1995
3 1101 1100 1403
3 1109 433 1714
3 1248 1237 1597
3 733 730 1833
3 1702 213 2096
3 499 498 1828
3 1418 1778 2521
3 637 600 638
3 1048 1046 1054
3 1577 1576 1578
3 814 766 1060
3 1279 2252 2292
3 474 470 548
3 199 18 1676
3 157 253 1441
3 1048 1054 1667
3 471 472 2290
3 625 665 678
3 795 785 796
3 1264 1265 1266
3 1437 1926 2350
3 1362 2048 2168
3 1394 2337 2371
3 454 884 1666
3 1022 1020 1024
3 751 1810 1923
3 1046 1023 1580
3 1807 1701 1931
3 1618 208 1619
3 566 588 689
3 1828 498 1829
3 501 509 1599
3 1118 780 1775
3 878 817 929
3 1510 1511 1950
3 1618 1621 1694
3 1052 1081 1822
3 1416 1150 1715
3 1239 1241 1247
3 1396 1921 2067
3 1751 1752 1753
3 1264 1259 1265
3 539 566 1600
3 1762 1127 2496
3 1673 1788 2183
3 1555 1557 1558
3 1052 1050 1055
3 725 724 825
3 1142 1770 1771
3 681 853 867
3 454 501 884
3 1346 1420 1453
3 932 1147 1770
3 1546 1545 1547
3 533 582 1818
3 1266 1337 1460
3 1872 820 2318
3 1117 1119 1713
3 1081 1321 1417
3 1253 1259 1264
3 1569 771 2135
3 1052 1055 1081
3 1181 1178 1972
3 709 706 1627
3 1073 1076 1346
3 1098 1828 1829
3 1382 1380 2176
3 1442 1275 1443
3 919 999 1663
3 1789 828 1855
3 877 815 1684
3 509 539 631
3 992 877 993
3 1266 1265 1337
3 2268 1498 2340
3 1130 1032 1396
3 1095 1603 2508
3 886 826 887
3 531 533 1818
3 1131 1400 1881
3 447 437 516
3 2460 1132 2473
3 940 1535 2418
3 768 1873 2037
3 1813 1869 1954
3 1627 2163 2488
3 1497 1495 1645
3 1198 1409 2168
3 724 726 1912
3 1869 987 1954
3 763 1999 2338
3 1010 1170 1374
3 984 976 1720
3 1470 1743 1744
3 689 588 1150
3 1901 1949 2359
3 1640 632 1862
3 274 272 1787
3 563 564 1752
3 994 817 1505
3 737 1807 1931
3 1770 1147 1771
3 1233 1235 1733
3 2450 1418 2521
3 414 410 1821
3 908 1099 1850
3 1227 1228 1229
3 1692 1203 1693
3 1625 216 2194
3 512 528 603
3 1377 1357 1638
3 1465 1464 1470
3 1360 1359 2177
3 1686 2007 2095
3 1336 1028 1641
3 1857 751 1923
3 1758 572 1759
3 553 541 557
3 1171 1715 1811
3 956 1003 1073
3 1467 1465 1675
3 719 718 724
3 1509 1977 2096
3 1734 1625 1736
3 1503 1504 1868
3 592 597 1776
3 180 181 232
3 162 163 231
3 2308 1759 2370
3 1357 1114 1358
3 875 946 1010
3 509 631 1599
3 17 18 199
3 144 145 200
3 1099 906 1792
3 1469 1467 1494
3 605 589 1939
3 1208 1205 1211
3 354 344 2091
3 692 782 804
3 1010 946 1170
3 1463 1462 1464
3 716 715 718
3 714 713 715
3 271 273 656
3 139 1618 1694
3 549 277 686
3 673 672 766
3 1378 1377 1379
3 2007 868 2095
3 999 1028 1336
3 1208 1211 1447
3 601 545 627
3 1119 1643 1713
3 1332 1333 1387
3 910 912 956
3 520 521 2000
3 828 1789 1819
3 277 607 1520
3 1338 1339 2247
3 818 819 910
3 767 766 814
3 712 711 713
3 1494 1467 1675
3 639 594 640
3 2044 557 2256
3 235 20 1709
3 1620 236 2394
3 804 919 962
3 1862 702 2070
3 681 852 853
3 1559 1556 1561
3 1622 941 2471
3 2165 1440 2330
3 612 644 692
3 697 698 818
3 1903 1516 1994
3 371 379 1795
3 428 426 2138
3 1290 1294 2064
3 1384 1904 2432
3 566 689 1600
3 471 452 472
3 1092 1091 1093
3 1002 1131 1719
3 1090 1089 1091
3 875 841 946
3 1758 1760 1763
3 1562 1606 2085
3 1833 1830 2075
3 178 179 214
3 164 165 213
3 769 923 1815
3 692 644 782
3 804 782 919
3 182 183 256
3 160 161 257
3 1329 1331 1482
3 962 1663 1664
3 1177 1179 2042
3 403 405 1805
3 1461 1460 1462
3 140 208 1618
3 1859 232 1860
3 274 1787 2099
3 1381 2126 2186
3 1558 1560 1789
3 430 428 682
3 452 435 1683
3 1487 1156 1488
3 1470 1464 1743
3 597 1794 1893
3 1244 1253 1669
3 962 919 1663
3 258 8 1673
3 1087 1785 1786
3 970 1042 1726
3 199 1677 2149
3 1664 1663 1665
3 1229 1230 1231
3 991 827 1713
3 792 1603 1848
3 1822 1444 1823
3 665 666 697
3 19 20 235
3 142 143 236
3 728 1098 1833
3 532 530 1898
3 1015 1124 1372
3 1546 1547 1548
3 1851 1850 1853
3 1877 393 2240
3 923 1105 1815
3 1090 1091 1092
3 687 686 703
3 1683 435 1790
3 887 826 1961
3 684 663 1089
3 426 1934 2138
3 464 510 680
3 853 854 855
3 568 572 1758
3 1376 1357 1377
3 1205 1203 1692
3 1607 1789 1855
3 710 709 711
3 780 781 1775
3 1434 1103 1435
3 876 815 877
3 766 672 1656
3 1393 1590 2457
3 684 1089 1090
3 530 890 1898
3 926 1920 1943
3 696 414 1821
3 1563 1562 1777
3 1054 1046 1580
3 1398 1973 1974
3 137 216 1625
3 1210 1040 1430
3 1750 563 1751
3 2010 1665 2299
3 1510 1374 1511
3 1777 1562 2085
3 1707 252 1791
3 1932 1404 1933
3 459 438 1814
3 139 140 1618
3 1093 1156 1487
3 231 163 1658
3 699 722 723
3 1545 1095 2508
3 598 612 1794
3 579 554 1880
3 1941 1908 2401
3 1231 1232 1233
3 1831 1829 1841
3 1037 1383 1799
3 177 178 1506
3 636 600 637
3 1036 1539 2286
3 1356 1114 1357
3 1523 1516 2377
3 704 703 705
3 403 402 405
3 648 792 1848
3 723 756 808
3 1388 1389 2170
3 933 932 1770
3 223 1710 1711
3 1779 399 1783
3 1223 1222 1224
3 1028 1029 1313
3 257 161 1654
3 418 412 421
3 734 882 1807
3 693 657 1095
3 1368 1370 1436
3 136 137 1625
3 688 652 817
3 1075 1327 1328
3 540 479 1813
3 398 395 402
3 548 1629 1630
3 574 591 699
3 1469 1494 1495
3 1041 1598 2175
3 167 168 202
3 175 176 204
3 2045 2046 2201
3 186 187 1602
3 886 887 888
3 1253 1254 1259
3 8 9 1673
3 792 655 810
3 843 1145 1960
3 1180 1349 1745
3 1165 1345 1512
3 708 706 709
3 136 1625 1734
3 21 22 207
3 140 141 208
3 625 626 665
3 1093 1094 1156
3 1585 795 1834
3 1117 1713 1806
3 599 579 600
3 810 871 1826
3 1047 1046 1048
3 1292 1291 1293
3 161 162 1654
3 199 1676 1677
3 1260 1282 1804
3 1005 1142 1768
3 1233 1234 1235
3 792 810 922
3 1122 1719 1737
3 976 985 1720
3 1278 1279 2292
3 2390 1934 2531
3 1436 1437 2350
3 270 271 1647
3 1199 966 1846
3 1683 1342 2212
3 656 273 2124
3 699 591 722
3 1977 1139 2096
3 1738 1719 1881
3 1722 985 1874
3 1797 1448 1798
3 162 231 1654
3 632 604 1862
3 252 1602 1791
3 1051 1050 1052
3 1045 1023 1046
3 648 655 792
3 993 1100 1101
3 1321 1055 1322
3 806 709 1627
3 904 903 981
3 1220 1267 1268
3 648 605 655
3 1737 1719 1738
3 385 399 1779
3 506 499 1828
3 1132 266 1402
3 1170 1418 1419
3 1323 2302 2354
3 24 25 215
3 137 138 216
3 721 965 1919
3 1787 1414 2460
3 778 1117 1806
3 723 722 756
3 407 403 1805
3 564 574 1752
3 1049 1048 1050
3 842 841 875
3 1608 1546 1842
3 809 808 899
3 1517 1519 1520
3 1530 1532 1533
3 889 421 1772
3 913 1002 1122
3 1314 1316 1367
3 1017 877 1684
3 841 802 1778
3 1235 1236 1237
3 751 1857 1900
3 1114 924 1767
3 1344 1644 2360
3 1895 1394 2371
3 1518 1535 1861
3 1758 1759 1760
3 1122 1002 1719
3 546 563 1750
3 1056 1726 1727
3 663 660 1746
3 621 622 625
3 1720 985 1721
3 1857 1843 1900
3 808 756 913
3 1056 970 1726
3 27 28 230
3 134 135 229
3 908 906 1099
3 163 164 1658
3 1727 1726 1729
3 7 8 258
3 154 155 259
3 1101 1403 1404
3 808 913 1874
3 1260 1269 1282
3 1389 1387 2262
3 1297 1053 1822
3 1555 1553 1557
3 1463 1464 1465
3 230 28 1765
3 1237 1238 1239
3 554 553 1880
3 775 778 1806
3 985 899 1874
3 1270 1524 2199
3 489 1820 1936
3 692 1072 1794
3 1472 2142 2272
3 1845 496 1929
3 438 431 1814
3 613 615 1824
3 1241 1242 1245
3 1783 415 1915
3 1192 2081 2149
3 178 214 1506
3 1816 988 1817
3 1760 1759 1761
3 1103 1092 1623
3 1512 1345 1661
3 1876 921 2295
3 1165 984 1345
3 978 1074 1075
3 1239 1240 1241
3 542 541 553
3 813 988 1816
3 1148 984 1165
3 871 970 1056
3 472 452 1683
3 1207 1796 1870
3 1167 1166 1754
3 1296 1053 1297
3 966 964 1846
3 976 899 985
3 982 976 984
3 702 1815 2015
3 900 899 976
3 1143 995 1206
3 1576 1024 1827
3 1235 1248 1733
3 1558 1557 1560
3 943 995 1143
3 1920 1144 1943
3 1471 2115 2477
3 29 30 255
3 132 133 254
3 1630 1633 1634
3 1225 1224 1226
3 1925 1573 1926
3 1211 1205 1692
3 725 825 826
3 1113 924 1114
3 600 579 1988
3 717 1552 1567
3 1820 1657 1936
3 674 276 2099
3 395 393 1877
3 572 543 1897
3 1575 1308 2255
3 999 1000 1028
3 1118 1775 1876
3 1797 1798 2430
3 526 546 559
3 867 853 2186
3 1142 1771 1949
3 1068 1275 1442
3 679 385 1779
3 1607 1558 1789
3 580 568 1758
3 1244 1252 1253
3 1760 1761 1762
3 398 402 403
3 1476 1258 1478
3 418 421 889
3 1771 1147 1839
3 164 213 1658
3 1720 1721 2267
3 1668 1591 2512
3 1042 1128 1445
3 1098 1830 1833
3 1102 1092 1103
3 2249 884 2466
3 1104 1103 1434
3 410 416 1821
3 514 513 541
3 580 1758 1763
3 637 673 1741
3 1913 936 1914
3 1394 1395 2337
3 919 920 999
3 577 554 579
3 2111 1660 2263
3 231 1658 1659
3 612 613 644
3 568 543 572
3 770 775 1806
3 1445 1128 1446
3 1546 1548 1842
3 448 460 478
3 810 870 871
3 1789 1560 1819
3 1154 1082 1431
3 873 973 1802
3 379 385 679
3 837 850 921
3 1461 1462 1463
3 1346 1076 1420
3 1088 1344 1808
3 2125 1143 2353
3 931 977 978
3 882 772 1802
3 29 255 1765
3 849 1513 2180
3 1713 827 1806
3 1130 1396 1397
3 681 638 852
3 1417 1321 1873
3 1654 1402 2530
3 502 526 1740
3 1124 888 2177
3 1266 1460 1461
3 515 1175 1840
3 1253 1264 1669
3 479 466 1813
3 1727 1729 1757
3 379 380 385
3 1971 1480 2514
3 1637 1739 2459
3 1207 1205 1208
3 529 519 1899
3 1129 1845 1929
3 224 1661 2267
3 192 1856 2361
3 732 734 1807
3 1184 2163 2435
3 1119 1120 1353
3 415 414 431
3 719 724 725
3 559 546 1750
3 871 872 970
3 1038 917 1622
3 574 699 1752
3 166 167 1679
3 1117 1118 1119
3 1409 1196 2035
3 617 619 621
3 1172 1173 1439
3 1191 1005 1768
3 664 663 684
3 494 493 1841
3 890 529 1731
3 840 802 841
3 493 974 1841
3 385 386 399
3 679 1779 1780
3 371 376 379
3 416 433 1109
3 670 769 1815
3 902 866 903
3 1780 1779 1781
3 480 515 1840
3 970 971 1042
3 433 448 1714
3 28 29 1765
3 1005 949 1142
3 778 780 1117
3 959 1037 1799
3 1073 1003 1076
3 535 532 1898
3 1119 1118 1120
3 658 657 693
3 1378 1379 1380
3 1397 1396 1809
3 1610 1609 1612
3 1819 1560 2016
3 1837 952 1865
3 1719 1131 1881
3 1131 1399 1400
3 1352 1138 2058
3 399 406 409
3 548 1630 2041
3 1275 1338 2251
3 582 1816 1818
3 1835 1836 2144
3 993 1101 1980
3 1699 1698 1700
3 2407 364 2505
3 1189 1190 1788
3 1117 780 1118
3 1830 1829 1831
3 637 672 673
3 692 804 1072
3 1204 1203 1205
3 1374 1170 2139
3 612 692 1794
3 1642 1408 2286
3 723 808 809
3 450 459 1812
3 409 410 414
3 802 801 1778
3 1853 1854 2483
3 1042 1127 1128
3 1199 1846 2225
3 1147 990 1273
3 1383 1384 2432
3 432 431 438
3 1353 1120 1390
3 1093 1091 1094
3 2020 250 2254
3 148 149 1639
3 606 605 648
3 1970 2016 2422
3 2201 2046 2327
3 475 471 513
3 412 407 1951
3 1991 246 2139
3 727 695 728
3 1673 234 1788
3 1554 1556 1559
3 1089 663 1746
3 1846 964 2056
3 923 991 1088
3 409 406 410
3 729 728 730
3 1424 1427 1856
3 1473 1911 2407
3 1376 1377 1378
3 1010 1374 1510
3 853 852 854
3 366 369 1087
3 772 873 1802
3 1219 1218 1626
3 1766 229 2061
3 1088 991 1344
3 922 810 1826
3 518 506 695
3 405 402 2116
3 962 1664 2316
3 913 942 1002
3 932 990 1147
3 629 813 1816
3 876 877 992
3 399 386 406
3 932 845 990
3 1002 1123 1131
3 843 996 1145
3 781 837 1775
3 262 2304 2491
3 431 696 1814
3 1273 1695 1892
3 731 730 732
3 737 732 1807
3 439 438 450
3 1829 498 1841
3 800 685 801
3 767 814 815
3 1060 766 1656
3 673 766 767
3 1403 1605 1882
3 716 718 719
3 1338 1069 1339
3 847 752 1843
3 864 862 1116
3 2302 443 2519
3 923 827 991
3 526 559 1740
3 1911 1473 2358
3 1085 1310 1867
3 809 899 900
3 1227 1226 1228
3 729 730 731
3 1436 1370 1437
3 731 732 737
3 769 827 923
3 456 452 471
3 1433 1503 2471
3 1435 1103 1623
3 385 380 386
3 1141 1787 2460
3 1354 1088 1808
3 657 649 1848
3 415 431 432
3 484 892 1820
3 727 728 729
3 855 854 1450
3 1721 1722 1723
3 1643 1353 1644
3 1145 1916 1960
3 1421 1191 1422
3 466 1812 1813
3 943 944 995
3 1356 1357 1376
3 714 715 716
3 1156 1094 1157
3 598 611 612
3 631 1600 2298
3 590 589 605
3 965 969 1919
3 416 1109 1821
3 242 1697 2335
3 1548 1547 1549
3 550 573 584
3 584 604 632
3 409 414 415
3 712 713 714
3 642 670 702
3 818 698 819
3 1006 1005 1191
3 1624 1689 1691
3 169 170 237
3 173 174 238
3 956 912 1003
3 937 936 1913
3 1317 1025 1875
3 515 540 550
3 973 1799 1800
3 973 959 1799
3 518 695 727
3 910 819 912
3 584 573 604
3 1170 946 1418
3 173 238 1847
3 550 540 573
3 982 984 1148
3 900 976 982
3 441 435 452
3 448 478 1714
3 1849 1648 2173
3 1631 1628 1637
3 1830 1831 1832
3 1383 1216 1384
3 734 772 882
3 949 933 1770
3 1332 1330 1333
3 574 575 591
3 1105 1088 1354
3 702 670 1815
3 498 494 1841
3 827 770 1806
3 873 959 973
3 1390 1391 1415
3 450 438 459
3 950 949 1005
3 351 362 364
3 1313 1029 1314
3 432 438 439
3 837 838 850
3 1273 1274 1695
3 850 851 943
3 911 952 1837
3 1259 1260 1804
3 566 587 588
3 1037 1216 1383
3 1337 1265 1538
3 1087 369 1795
3 810 655 870
3 1559 1561 1566
3 1147 1273 1839
3 732 733 734
3 1662 867 2126
3 890 1731 2241
3 1854 1852 2397
3 515 479 540
3 451 450 466
3 697 666 698
3 1367 1316 1368
3 662 660 663
3 365 355 694
3 1358 1114 1767
3 379 376 380
3 1796 1448 1797
3 179 180 1859
3 790 668 849
3 569 568 580
3 690 860 931
3 466 450 1812
3 431 414 696
3 1973 1133 1974
3 651 649 657
3 467 466 479
3 1288 1289 1835
3 264 265 1986
3 1302 1303 1304
3 592 596 597
3 1873 1321 2037
3 544 543 568
3 275 277 549
3 209 1937 2389
3 539 565 566
3 1485 227 1486
3 2384 2190 2408
3 1781 1779 1783
3 480 479 515
3 689 1416 2413
3 1108 1161 1539
3 1867 1310 1895
3 1300 1301 1302
3 1695 1696 1697
3 633 632 668
3 1304 1451 1452
3 988 911 1837
3 168 169 1724
3 969 1012 1172
3 582 629 1816
3 1843 752 1900
3 629 812 813
3 710 711 712
3 1782 1780 1784
3 536 535 543
3 1089 1746 1969
3 1108 1107 1161
3 1514 1426 1856
3 486 484 1820
3 369 371 1795
3 1817 988 1924
3 493 609 974
3 1422 1191 2023
3 1426 1424 1856
3 842 875 924
3 922 1826 2259
3 989 1361 1886
3 928 1070 1288
3 669 668 790
3 1113 1114 1356
3 1027 847 1843
3 728 695 1098
3 734 735 772
3 975 1107 1108
3 955 859 1962
3 813 911 988
3 1208 1448 1796
3 1101 1405 1980
3 602 676 2045
3 586 581 589
3 546 547 563
3 493 491 609
3 628 1524 2390
3 348 344 354
3 1298 1299 1300
3 509 538 539
3 974 609 975
3 813 891 911
3 871 870 872
3 1355 1354 1423
3 489 486 1820
3 778 779 780
3 1025 1176 1875
3 772 773 873
3 803 1743 2347
3 167 202 1679
3 873 883 959
3 1483 1571 2375
3 427 1756 2221
3 540 1813 1954
3 1202 1200 1203
3 959 1035 1037
3 837 921 1775
3 1304 1305 1451
3 1799 1383 2195
3 604 642 1862
3 1470 1744 2474
3 1854 2397 2453
3 1282 1269 1386
3 1573 1572 2157
3 472 2222 2290
3 1307 1708 2341
3 769 770 827
3 1037 1215 1216
3 791 790 856
3 1053 1052 1822
3 1056 1727 1728
3 1341 1138 1352
3 1300 1299 1301
3 1814 696 1838
3 1198 1196 1409
3 492 491 493
3 439 450 451
3 1171 858 2132
3 1259 1254 1260
3 665 626 666
3 970 872 971
3 258 1602 2357
3 1296 1297 1472
3 490 489 491
3 516 437 2494
3 1298 1027 1299
3 846 845 932
3 501 508 509
3 460 461 502
3 448 449 460
3 482 480 1840
3 1229 1228 1230
3 604 641 642
3 1424 1423 1427
3 502 503 526
3 1028 1000 1029
3 935 933 949
3 1084 1085 1867
3 2028 1711 2353
3 1513 1426 1514
3 892 482 1840
3 852 638 1988
3 402 395 1877
3 738 737 845
3 413 412 418
3 1119 1353 1643
3 526 527 546
3 280 279 281
3 1731 1155 2123
3 1042 971 1127
3 1208 1447 1448
3 433 434 448
3 262 159 2304
3 184 1454 2303
3 1051 1052 1053
3 1816 1817 1818
3 1081 1417 1444
3 781 836 837
3 911 951 952
3 1090 1092 1102
3 202 168 1724
3 1085 1309 1310
3 408 407 412
3 1337 1538 1864
3 1515 1514 1516
3 530 529 890
3 1517 1518 1519
3 549 686 687
3 923 1088 1105
3 404 403 407
3 1835 1289 1836
3 1314 1367 2121
3 1380 1379 2416
3 670 671 769
3 899 808 1874
3 1040 903 1703
3 1596 1595 2154
3 1496 1495 1497
3 636 637 1741
3 1377 1638 2288
3 1288 1070 1289
3 1072 804 1981
3 1129 1334 1845
3 1865 1084 1866
3 792 922 1603
3 1253 1252 1254
3 981 1167 1792
3 1302 1301 1303
3 1641 1651 2019
3 952 953 1084
3 1813 1812 1869
3 732 730 733
3 975 1106 1107
3 1142 949 1770
3 981 1166 1167
3 840 841 842
3 451 466 467
3 1273 990 1274
3 1049 1050 1051
3 1473 2407 2505
3 968 966 1199
3 642 643 670
3 1310 1309 1311
3 422 419 435
3 1063 833 1082
3 919 782 920
3 911 891 951
3 1084 953 1085
3 1763 1764 2164
3 1498 1497 1682
3 515 550 1175
3 1079 937 1913
3 642 702 1862
3 845 737 1931
3 1394 1311 1395
3 1395 1521 1522
3 467 479 480
3 1755 1754 1793
3 1231 1230 1232
3 1557 1553 2030
3 1624 1691 2262
3 584 632 633
3 1094 1091 1969
3 708 709 710
3 1948 1627 2488
3 952 951 953
3 1102 1103 1104
3 1047 1048 1049
3 1310 1311 1394
3 1852 1099 1985
3 143 144 1717
3 813 812 891
3 1944 1044 1945
3 1105 1354 1355
3 1300 1302 1455
3 1914 936 1940
3 1415 1391 1710
3 1299 1027 1843
3 952 1084 1865
3 1695 1274 1696
3 776 774 1928
3 282 281 283
3 2003 1347 2279
3 1206 995 1499
3 1164 1685 1686
3 1551 1565 2030
3 969 1172 1919
3 633 668 669
3 734 733 735
3 1373 1372 1438
3 599 600 636
3 1431 1860 2487
3 1579 1577 1999
3 484 482 892
3 917 940 941
3 2144 1836 2169
3 1866 1084 1867
3 1110 1747 1748
3 998 1171 1811
3 1390 1120 1391
3 644 1824 2057
3 1362 1961 2048
3 944 1283 1825
3 1086 1027 1298
3 679 1780 1782
3 974 975 1879
3 507 506 518
3 1121 1079 1401
3 775 777 778
3 1965 762 2349
3 1045 1046 1047
3 1772 421 2106
3 16 17 2081
3 416 417 433
3 921 850 2125
3 1607 1855 1958
3 649 648 1848
3 1241 1240 1242
3 2012 1443 2251
3 926 928 1920
3 1487 1488 2025
3 1006 1191 1421
3 1355 1423 1424
3 1133 852 1988
3 591 592 1776
3 1299 1843 1857
3 1085 1308 1309
3 490 491 492
3 958 694 1575
3 1384 1216 1385
3 741 915 1878
3 1233 1232 1234
3 669 790 791
3 481 480 482
3 687 703 704
3 492 493 494
3 1634 1633 1922
3 1697 1696 1698
3 1721 985 1722
3 1839 1273 1892
3 772 735 773
3 488 486 489
3 950 1005 1006
3 1513 1514 1515
3 454 500 501
3 873 773 883
3 284 283 285
3 2185 1505 2442
3 959 883 1035
3 543 535 1897
3 1904 1384 2093
3 800 801 802
3 1037 1035 1215
3 1293 1964 1965
3 1239 1238 1240
3 943 1143 2125
3 1782 1784 1785
3 913 756 942
3 488 490 1884
3 1590 1749 2501
3 1235 1234 1236
3 791 856 1408
3 702 2015 2070
3 1108 1539 1540
3 1021 1023 1045
3 695 506 1828
3 1530 1528 1532
3 488 489 490
3 1621 1619 2161
3 704 705 706
3 1304 1303 1305
3 558 1704 2167
3 625 622 626
3 542 553 554
3 604 573 641
3 664 684 685
3 564 571 574
3 1108 1540 1879
3 1856 1427 2361
3 880 1025 1129
3 1395 1311 1521
3 1466 1465 1467
3 915 495 1884
3 1515 1516 1523
3 1237 1236 1238
3 606 648 649
3 999 920 1000
3 676 829 1043
3 2100 794 2142
3 227 151 1500
3 577 579 599
3 153 154 1671
3 1175 550 1927
3 1014 888 1015
3 286 285 287
3 1649 1280 2427
3 1725 204 2137
3 975 609 1106
3 1129 1317 1334
3 1109 1730 2426
3 1468 1467 1469
3 1131 1123 1399
3 1215 2235 2378
3 1976 1149 1989
3 397 395 398
3 746 743 1878
3 1041 1343 1598
3 975 1108 1879
3 741 495 915
3 1167 1754 1755
3 288 287 289
3 743 741 1878
3 1274 990 1931
3 1506 214 1507
3 857 1584 2277
3 2341 1522 2387
3 846 932 933
3 1107 1106 1110
3 584 633 1927
3 290 289 291
3 722 591 1776
3 1544 1094 1969
3 1135 270 1647
3 935 949 950
3 1920 1288 2080
3 754 1896 2108
3 1693 1199 2225
3 292 291 293
3 394 393 395
3 745 743 746
3 1002 942 1123
3 731 737 738
3 294 293 295
3 1018 1573 1925
3 296 295 297
3 298 297 299
3 321 322 325
3 317 320 321
3 314 315 317
3 312 313 314
3 310 311 312
3 308 309 310
3 1898 890 2275
3 306 307 308
3 304 305 306
3 1401 1079 1913
3 300 299 301
3 302 303 304
3 300 301 302
3 302 301 303
3 491 489 1936
3 298 299 300
3 304 303 305
3 306 305 307
3 308 307 309
3 310 309 311
3 312 311 313
3 314 313 315
3 317 315 320
3 321 320 322
3 1301 1299 1857
3 514 541 542
3 296 297 298
3 850 838 851
3 1310 1394 1895
3 294 295 296
3 590 605 606
3 292 293 294
3 651 657 658
3 290 291 292
3 1207 1208 1796
3 835 1976 1989
3 621 619 622
3 746 1878 1896
3 481 482 483
3 1026 847 1027
3 1335 1207 1870
3 1661 59 2266
3 727 729 1155
3 288 289 290
3 1058 776 1928
3 662 663 664
3 495 488 1884
3 1959 319 2522
3 943 851 944
3 1293 1291 1964
3 534 532 535
3 640 645 646
3 2280 1014 2385
3 286 287 288
3 591 575 592
3 521 519 529
3 13 14 2114
3 780 779 781
3 918 908 1850
3 837 836 838
3 209 148 1639
3 754 748 1896
3 745 746 747
3 769 671 770
3 929 1065 2197
3 1278 1058 1279
3 483 482 484
3 1564 1557 2030
3 633 807 1927
3 392 391 393
3 1057 1621 2161
3 569 580 581
3 284 285 286
3 876 992 1894
3 497 494 498
3 1630 1635 2041
3 982 1148 1918
3 612 611 613
3 700 634 1044
3 822 674 2099
3 880 1129 1929
3 432 439 654
3 1039 1291 1292
3 1164 1686 1989
3 1129 1025 1317
3 738 845 846
3 582 583 629
3 278 6 279
3 544 568 569
3 1701 1274 1931
3 747 749 751
3 1085 953 1308
3 928 930 1070
3 747 748 749
3 1421 1422 2415
3 902 903 904
3 1309 1308 1543
3 642 641 643
3 904 981 1792
3 646 784 785
3 536 543 544
3 1204 1205 1207
3 365 694 958
3 71 72 217
3 88 89 1901
3 87 88 193
3 101 102 189
3 85 86 242
3 99 100 241
3 74 75 192
3 91 92 219
3 94 95 191
3 83 84 220
3 97 98 221
3 77 78 218
3 80 81 194
3 89 90 245
3 62 63 244
3 60 61 188
3 64 65 223
3 67 68 190
3 90 91 1909
3 98 99 1905
3 61 62 1908
3 69 70 243
3 68 69 1907
3 70 71 1910
3 410 411 416
3 586 589 590
3 685 684 2029
3 390 389 391
3 1715 1150 1811
3 1924 1837 2215
3 282 283 284
3 496 497 1929
3 233 1671 1769
3 627 2185 2442
3 1567 1552 2062
3 629 630 812
3 424 453 454
3 583 562 1942
3 749 750 805
3 744 743 745
3 1897 535 1898
3 467 480 481
3 504 759 880
3 670 643 671
3 89 245 1901
3 193 88 1901
3 221 98 1905
3 245 90 1909
3 91 219 1909
3 62 244 1908
3 188 61 1908
3 99 241 1905
3 190 68 1907
3 71 217 1910
3 69 243 1907
3 243 70 1910
3 505 499 506
3 475 513 514
3 1945 1044 2071
3 1712 2125 2353
3 339 343 440
3 989 1360 1361
3 764 869 1152
3 778 777 779
3 1686 1685 1687
3 742 741 743
3 979 989 1886
3 729 731 1887
3 926 927 928
3 1305 1306 1307
3 1838 1278 2292
3 747 746 748
3 181 182 1652
3 1886 1361 2305
3 1595 1594 2486
3 597 596 598
3 928 1288 1920
3 1970 824 2156
3 1425 1424 1426
3 497 504 1929
3 748 746 1896
3 745 747 1900
3 998 858 1171
3 563 547 564
3 1155 729 1887
3 634 583 1942
3 1439 1173 1440
3 1026 1027 1086
3 79 80 1904
3 1533 1532 1536
3 1449 1426 1513
3 1106 609 1936
3 1318 1013 1319
3 1098 695 1828
3 492 494 496
3 750 748 754
3 731 738 1887
3 2415 1422 2516
3 533 562 582
3 988 1837 1924
3 1216 1215 1863
3 534 535 536
3 747 751 1900
3 1753 809 2119
3 1183 824 1970
3 740 495 741
3 80 194 1904
3 893 383 2087
3 655 605 1939
3 1884 2034 2082
3 1301 1857 1923
3 1307 1306 1708
3 752 745 1900
3 750 754 755
3 76 77 1903
3 2090 2347 2365
3 255 30 2159
3 132 254 2160
3 448 434 449
3 753 848 926
3 1075 1074 1327
3 487 488 495
3 377 381 647
3 483 484 485
3 755 754 2148
3 1584 1925 2277
3 1186 1183 1970
3 951 891 1281
3 485 484 486
3 546 527 547
3 133 134 1766
3 1786 1785 2409
3 280 281 282
3 460 449 461
3 744 745 752
3 77 218 1903
3 983 1918 2342
3 1708 1306 1810
3 1389 2069 2170
3 487 486 488
3 641 573 1954
3 507 518 519
3 502 461 503
3 519 518 1899
3 1202 1203 1204
3 821 897 1972
3 92 93 1902
3 521 529 530
3 749 748 750
3 2176 1380 2416
3 885 826 886
3 485 486 487
3 371 372 376
3 1289 1070 1871
3 1110 1657 1747
3 753 926 1943
3 700 1044 1944
3 880 881 1025
3 496 1845 2034
3 1072 1981 2393
3 462 464 2134
3 1949 1771 2359
3 1044 634 1942
3 550 584 1927
3 1390 1415 2118
3 526 503 527
3 990 845 1931
3 1009 1213 1214
3 740 742 1144
3 219 92 1902
3 727 1155 1899
3 369 370 371
3 623 690 2150
3 1279 1058 1928
3 1408 2235 2286
3 487 495 740
3 979 1886 2086
3 1305 1303 1306
3 421 412 1951
3 843 844 996
3 633 669 807
3 518 727 1899
3 826 825 1961
3 1657 1106 1936
3 1172 1012 1173
3 740 741 742
3 433 417 434
3 505 506 507
3 1333 1674 2437
3 742 743 744
3 469 458 470
3 1381 1380 1382
3 1293 1965 2515
3 1554 1559 2062
3 553 557 2499
3 1774 389 2339
3 497 498 499
3 483 485 576
3 740 1144 1935
3 773 735 834
3 366 367 369
3 1120 1118 1876
3 1515 1523 1574
3 1319 1013 2039
3 1303 1301 1923
3 457 447 458
3 561 593 594
3 1355 1424 1425
3 609 491 1936
3 204 1732 2137
3 791 1408 1642
3 995 944 1825
3 456 471 475
3 1692 1693 2239
3 580 1763 2164
3 1292 1293 2117
3 441 452 456
3 388 384 389
3 823 821 1972
3 504 880 1929
3 176 177 1680
3 1070 1071 1871
3 15 2260 2477
3 362 363 366
3 2178 2300 2449
3 1035 883 1036
3 2285 1563 2307
3 978 977 1074
3 1090 1102 2029
3 1810 1306 1923
3 496 494 497
3 1306 1303 1923
3 432 654 1915
3 934 933 935
3 356 355 365
3 398 403 404
3 635 701 843
3 1110 1106 1657
3 574 571 575
3 1025 881 1176
3 386 380 786
3 415 432 1915
3 343 347 1911
3 1070 930 1071
3 1688 1740 2231
3 1385 1216 1863
3 1696 1274 1701
3 1645 305 2317
3 880 759 881
3 926 848 927
3 1427 1423 2217
3 1339 1662 2388
3 770 774 775
3 1263 1257 1428
3 1337 1864 2412
3 349 348 355
3 2267 1721 2498
3 753 752 847
3 1375 1086 1473
3 900 982 983
3 332 335 739
3 429 428 430
3 744 752 753
3 1171 2132 2165
3 1425 1426 1449
3 987 641 1954
3 1883 1786 2409
3 427 426 428
3 928 927 930
3 1815 1105 2015
3 1206 1499 1941
3 410 406 411
3 573 540 1954
3 497 499 504
3 528 560 561
3 1933 1404 2399
3 1091 1089 1969
3 1804 1282 2073
3 504 505 759
3 963 924 1113
3 1711 1710 1712
3 881 759 1146
3 968 1199 1200
3 351 352 362
3 848 847 1026
3 521 530 531
3 1884 490 2034
3 1277 957 1966
3 1349 1350 2329
3 676 1043 2045
3 997 1159 1286
3 517 1889 1890
3 781 835 836
3 944 948 1283
3 722 1776 2026
3 507 519 520
3 2040 1352 2058
3 1276 957 1277
3 446 437 447
3 931 860 977
3 361 359 765
3 1248 1536 2534
3 512 523 528
3 408 412 413
3 1368 1369 1370
3 451 2169 2223
3 192 75 1994
3 942 756 2026
3 345 344 348
3 764 1152 1963
3 413 418 419
3 1286 1773 1774
3 770 671 774
3 275 549 2124
3 1497 1645 2461
3 1982 1472 2272
3 422 435 441
3 281 279 736
3 1134 270 1135
3 582 562 583
3 1421 2415 2454
3 485 487 1935
3 2300 1067 2480
3 1578 1576 1827
3 930 927 1061
3 1026 1086 1375
3 922 2259 2379
3 1391 1120 1876
3 1495 1494 2493
3 404 407 408
3 879 2178 2449
3 1700 1698 2036
3 607 1517 1520
3 753 847 848
3 416 411 417
3 1144 742 1943
3 775 776 777
3 754 2108 2148
3 1006 1421 1953
3 585 581 586
3 531 530 532
3 235 1709 1888
3 520 519 521
3 1180 1181 1349
3 1146 759 1967
3 708 710 1921
3 1350 2253 2329
3 436 430 437
3 504 499 505
3 643 641 987
3 336 330 517
3 811 1059 1149
3 1164 1411 1685
3 846 933 934
3 635 843 1960
3 983 982 1918
3 971 872 1096
3 1149 1163 1164
3 169 237 1724
3 1314 1315 1316
3 629 583 630
3 891 812 1916
3 462 463 464
3 487 740 1935
3 798 2084 2189
3 1814 1838 2292
3 1284 1489 1491
3 340 336 2014
3 1670 1461 2200
3 920 782 2057
3 890 2241 2275
3 510 511 512
3 278 279 280
3 839 802 840
3 1858 235 1888
3 1698 1696 2036
3 104 105 222
3 57 58 224
3 1185 1183 1186
3 588 587 623
3 638 600 1988
3 1282 1386 2245
3 811 776 1058
3 816 815 876
3 2034 1845 2082
3 761 636 1741
3 566 565 587
3 174 175 1725
3 347 350 351
3 1469 1495 1496
3 1059 1058 1278
3 811 1149 1976
3 576 485 1935
3 659 658 660
3 859 1153 1962
3 76 1903 1994
3 1821 1109 2426
3 1294 1038 1622
3 733 1833 2075
3 992 993 1980
3 1566 1561 2285
3 525 474 2041
3 464 465 510
3 343 346 347
3 360 893 1982
3 650 649 651
3 896 608 936
3 950 1006 1007
3 1508 1859 1860
3 539 538 565
3 440 343 1911
3 341 340 344
3 221 1905 1906
3 1297 1823 2142
3 759 505 1967
3 1295 1053 1296
3 473 470 474
3 1463 1465 1466
3 1143 1206 2028
3 799 685 800
3 1210 2077 2203
3 509 508 538
3 492 496 2034
3 1553 1551 2030
3 1260 1261 1269
3 1430 1040 1703
3 586 590 1940
3 838 836 868
3 1705 624 2276
3 1749 972 2501
3 742 744 1943
3 804 962 1981
3 1367 1368 2254
3 531 532 533
3 337 336 340
3 1157 1094 1544
3 536 544 1158
3 812 630 1960
3 781 779 835
3 56 57 1947
3 630 583 634
3 1405 1404 1932
3 1281 891 1916
3 339 342 343
3 1411 1163 1730
3 322 323 324
3 344 340 2091
3 1735 1734 1736
3 75 76 1994
3 430 682 2494
3 1907 243 2360
3 589 581 2164
3 694 355 2196
3 744 753 1943
3 775 774 776
3 1210 1430 2077
3 335 338 339
3 1102 1803 2029
3 1078 937 1079
3 870 655 1939
3 505 507 1967
3 357 360 1982
3 1896 1878 2101
3 326 325 328
3 934 935 957
3 585 608 895
3 333 330 336
3 1270 1272 1524
3 688 817 878
3 507 520 1967
3 1428 1257 2074
3 1818 1817 2000
3 896 937 1077
3 934 957 1111
3 329 328 330
3 1499 995 1825
3 944 851 948
3 387 445 462
3 1678 1161 2228
3 777 776 811
3 313 311 757
3 324 331 332
3 848 1026 1955
3 1312 998 1811
3 1321 1322 2037
3 1080 1079 1121
3 1105 1355 2015
3 1645 2317 2461
3 1559 1568 2062
3 332 334 335
3 501 500 508
3 321 325 326
3 394 395 397
3 322 320 323
3 1529 1530 2171
3 1137 797 1138
3 811 1058 1059
3 661 660 662
3 569 581 585
3 183 4 2303
3 5 160 2304
3 1340 1138 1341
3 1660 1626 2185
3 1743 1464 2347
3 1026 1375 1955
3 1149 1059 1163
3 1736 1625 2194
3 1322 1667 2434
3 311 309 1959
3 309 307 319
3 894 700 1944
3 533 534 562
3 1276 1277 1366
3 2190 1706 2408
3 533 532 534
3 1214 1213 1410
3 1164 1163 1411
3 843 701 844
3 1009 1214 2055
3 234 1589 1788
3 2000 1817 2174
3 317 321 2050
3 328 325 945
3 392 393 394
3 588 623 2089
3 1162 958 1681
3 1078 1080 1136
3 927 848 1955
3 1496 1497 1498
3 390 391 392
3 1061 927 1955
3 1283 948 1284
3 635 634 700
3 1244 1251 1252
3 218 78 2093
3 756 722 2026
3 1071 1784 2419
3 1218 1505 2185
3 1284 948 1285
3 1489 1285 1490
3 918 1850 1851
3 684 1090 2029
3 1759 572 2537
3 1691 1690 2446
3 1979 1158 2071
3 606 649 650
3 2045 1043 2046
3 103 104 2025
3 630 634 635
3 360 383 893
3 406 386 2043
3 1909 219 2023
3 1111 957 1276
3 1925 1437 2277
3 1536 2268 2340
3 854 852 1133
3 233 153 1671
3 651 658 659
3 2099 1787 2368
3 1033 1032 1130
3 1015 1372 1373
3 1412 942 2026
3 253 264 1441
3 1531 1534 2332
3 701 700 894
3 106 107 1990
3 2048 1961 2455
3 276 274 2099
3 738 846 1968
3 1325 925 1326
3 896 936 937
3 585 586 608
3 1450 854 1973
3 1361 1360 1362
3 1045 1668 2512
3 303 301 444
3 996 844 997
3 79 1904 2093
3 1989 1686 2095
3 1928 774 2033
3 1942 562 1979
3 287 285 316
3 935 950 1966
3 1466 1467 1468
3 1242 1243 1244
3 1887 738 1968
3 2115 210 2477
3 878 929 1083
3 1326 1736 2194
3 886 888 1014
3 895 608 896
3 289 287 1978
3 821 822 897
3 936 608 1940
3 613 614 615
3 51 52 1996
3 417 411 1160
3 1149 1164 1989
3 386 786 2043
3 285 283 1971
3 1309 1543 2147
3 375 373 2053
3 371 370 372
3 779 777 1976
3 1286 1159 1773
3 2177 887 2376
3 1560 1557 1564
3 1403 1882 2399
3 1727 1757 2246
3 279 6 2049
3 1619 1438 2438
3 291 289 758
3 1781 1915 2294
3 425 401 426
3 349 355 356
3 66 67 2118
3 474 548 2041
3 1686 1687 2007
3 1262 1456 1457
3 1123 942 1412
3 1916 812 1960
3 1355 1425 2015
3 735 733 2075
3 1861 879 2449
3 1284 1285 1489
3 490 492 2034
3 366 363 367
3 980 578 2051
3 906 904 1792
3 534 536 1979
3 842 924 963
3 2051 578 2083
3 1077 937 1078
3 1102 1104 1803
3 894 1944 1946
3 398 404 2060
3 1007 1006 1953
3 369 367 370
3 348 354 2196
3 1078 1079 1080
3 1378 1380 1381
3 1568 1365 2439
3 608 586 1940
3 598 610 611
3 760 636 761
3 869 1137 1351
3 671 643 2033
3 1661 1345 2267
3 938 914 1057
3 783 761 914
3 576 1835 2144
3 388 389 390
3 297 295 318
3 454 453 500
3 1906 1728 2246
3 1439 1440 2468
3 1159 1013 1318
3 764 797 869
3 236 143 1717
3 782 644 2057
3 592 595 596
3 1542 2332 2443
3 1521 1311 2147
3 345 348 349
3 1304 1452 2205
3 1644 1907 2360
3 2146 1125 2149
3 997 844 1013
3 628 375 2053
3 299 297 1984
3 957 935 1966
3 664 685 799
3 301 299 1975
3 362 352 363
3 777 811 1976
3 1942 1979 2071
3 1001 920 2057
3 312 314 768
3 1552 1554 2062
3 615 616 617
3 357 1982 2076
3 800 802 839
3 774 671 2033
3 1749 1169 2105
3 365 958 1162
3 617 618 619
3 283 281 1938
3 1351 1772 2414
3 1525 1765 2489
3 846 934 1968
3 635 700 701
3 555 554 577
3 536 1158 1979
3 1101 1404 1405
3 630 635 1960
3 1811 1150 2089
3 2113 1666 2249
3 172 173 1847
3 107 108 195
3 54 55 196
3 1191 1768 2023
3 1455 1302 2205
3 115 116 2017
3 1387 1333 2437
3 659 661 764
3 1080 1121 1188
3 50 51 2011
3 411 406 2043
3 295 293 1983
3 643 987 2033
3 707 706 708
3 129 130 261
3 32 33 260
3 2159 260 2265
3 449 434 567
3 1314 1029 1315
3 917 796 940
3 378 375 628
3 108 109 1991
3 2370 1759 2537
3 341 344 345
3 997 1013 1159
3 544 569 1993
3 950 1007 1966
3 477 474 525
3 351 350 352
3 1696 1701 2036
3 334 331 803
3 1137 1138 1340
3 562 534 1979
3 109 110 246
3 52 53 247
3 1368 1316 1369
3 659 660 661
3 33 34 2002
3 123 124 2005
3 835 779 1976
3 851 838 1992
3 1530 1533 2172
3 1668 1045 2348
3 1162 1681 1706
3 342 338 468
3 298 300 358
3 765 359 2065
3 725 826 885
3 35 36 2003
3 46 47 2019
3 38 39 2006
3 336 517 2014
3 934 1111 1968
3 116 117 2018
3 650 651 1963
3 223 1711 2162
3 640 594 645
3 1333 1330 2192
3 104 222 2025
3 1603 922 2379
3 963 1113 1115
3 2084 1193 2189
3 564 570 571
3 36 37 2004
3 57 224 1947
3 1542 1601 2269
3 122 123 2012
3 1000 920 1001
3 127 128 240
3 34 35 239
3 383 387 2087
3 1161 1107 2228
3 1781 2294 2419
3 1201 1200 1202
3 124 125 225
3 37 38 226
3 1340 1341 1342
3 869 797 1137
3 839 840 1008
3 1158 544 1993
3 1326 925 1894
3 352 350 353
3 326 329 954
3 1864 2344 2412
3 836 835 2095
3 1051 1053 1295
3 1031 720 1032
3 503 461 787
3 1407 1112 2044
3 661 662 2058
3 838 868 1992
3 112 113 197
3 49 50 198
3 1359 980 1413
3 121 122 211
3 40 41 212
3 48 49 2010
3 113 114 2009
3 1741 673 2131
3 41 42 2020
3 120 121 2013
3 1409 2035 2097
3 1511 1374 2506
3 114 115 248
3 47 48 249
3 42 43 250
3 119 120 251
3 171 6 201
3 6 172 203
3 585 895 1993
3 43 44 2024
3 118 119 2021
3 905 904 906
3 764 661 797
3 337 340 341
3 1413 980 2051
3 117 118 205
3 44 45 206
3 347 346 350
3 1420 1076 1525
3 324 323 331
3 434 417 2031
3 965 967 969
3 716 719 788
3 1260 1254 1261
3 2053 373 2103
3 2069 2068 2170
3 326 328 329
3 1706 996 2408
3 273 275 2124
3 969 1011 1012
3 590 606 2001
3 1718 1611 2280
3 1914 1940 2001
3 915 1884 2082
3 329 330 333
3 620 859 955
3 2168 1409 2305
3 296 298 1997
3 915 2082 2101
3 339 338 342
3 1218 994 1505
3 333 336 337
3 266 263 1742
3 1873 768 2127
3 244 63 2162
3 64 223 2162
3 343 342 346
3 914 761 2258
3 310 312 1987
3 799 800 2055
3 302 304 763
3 1559 1566 1568
3 1598 1343 2114
3 592 575 595
3 341 345 794
3 189 1842 2220
3 767 815 816
3 1003 912 1004
3 839 1008 1009
3 1263 1428 1429
3 564 547 570
3 1845 1334 2082
3 332 331 334
3 901 866 902
3 651 659 1963
3 1009 1112 1213
3 335 334 338
3 569 585 1993
3 1665 1336 2299
3 1945 2071 2153
3 863 862 864
3 907 906 908
3 1849 1486 1930
3 1935 1144 2080
3 967 966 968
3 809 900 2119
3 865 864 866
3 835 1989 2095
3 190 1907 2417
3 333 337 522
3 1110 1748 2228
3 1193 1194 1195
3 94 191 2166
3 473 1854 2453
3 1769 1134 2369
3 948 851 1992
3 237 170 2216
3 420 419 422
3 1448 1447 2364
3 483 576 2144
3 721 1919 2032
3 885 886 1891
3 613 611 614
3 886 1014 1891
3 1160 411 2043
3 1918 1283 2342
3 1651 206 2485
3 1242 1240 1243
3 598 596 610
3 1295 1296 1459
3 1185 1186 1948
3 1425 1449 2070
3 294 296 762
3 1285 948 1992
3 925 876 1894
3 712 714 789
3 603 1668 2398
3 1940 590 2001
3 721 570 964
3 834 735 2075
3 1144 1920 2080
3 2263 1635 2511
3 1204 1207 1335
3 2235 1408 2378
3 965 964 966
3 1990 1435 2218
3 397 398 2060
3 1138 797 2058
3 1787 1141 2368
3 2068 820 2170
3 360 359 361
3 387 462 2087
3 1524 1272 1934
3 819 698 820
3 1197 1196 1198
3 1662 2126 2388
3 78 79 2093
3 1150 588 2089
3 1269 1261 1270
3 1878 915 2101
3 451 467 2169
3 2262 1387 2437
3 1009 1008 1112
3 757 311 1959
3 897 898 1139
3 1854 473 2483
3 2015 1425 2070
3 2082 1334 2101
3 963 1115 1174
3 1047 1049 1287
3 1194 423 1196
3 321 326 2050
3 417 1160 2031
3 854 1133 1973
3 1201 1212 1348
3 705 1586 2163
3 309 319 1959
3 1353 1390 2417
3 427 428 429
3 357 356 359
3 606 650 2001
3 549 1280 2124
3 1213 1112 1407
3 256 2303 2535
3 356 365 2065
3 662 664 2040
3 701 894 2039
3 1325 1371 2451
3 666 626 667
3 1902 93 2166
3 1236 1234 1246
3 800 839 2055
3 1869 1812 2252
3 1197 1364 1365
3 576 1935 2080
3 404 408 798
3 1678 807 2529
3 1560 1564 2016
3 1319 2039 2122
3 425 426 427
3 349 356 357
3 308 310 327
3 1716 622 2484
3 1801 82 2289
3 1768 1949 2420
3 2006 1926 2507
3 351 364 2407
3 420 423 1193
3 659 764 1963
3 292 294 2038
3 840 842 2027
3 736 279 2049
3 372 373 374
3 461 449 2052
3 2189 1195 2285
3 1174 1115 1398
3 367 363 961
3 909 908 918
3 1738 247 2402
3 1007 1761 2308
3 288 290 2135
3 422 441 2035
3 623 624 690
3 537 525 545
3 1953 1421 2454
3 1887 1968 2123
3 861 691 862
3 654 439 2223
3 1136 1080 2054
3 1312 1811 2089
3 575 571 2032
3 383 361 384
3 968 1200 1201
3 797 661 2058
3 1423 1354 2381
3 1180 1178 1181
3 1513 1515 2180
3 72 73 2217
3 462 445 463
3 12 13 2136
3 457 458 469
3 542 554 555
3 599 636 760
3 254 133 1766
3 1130 1397 1937
3 404 798 2060
3 1044 1942 2071
3 690 691 860
3 357 359 360
3 1008 2027 2152
3 1232 1230 1255
3 372 370 373
3 850 943 2125
3 1457 1456 1492
3 1952 324 2282
3 155 2 2356
3 0 7 2357
3 2017 1379 2288
3 918 1851 2008
3 195 1991 2517
3 2090 803 2347
3 1244 1243 1251
3 290 292 368
3 1432 1082 2214
3 1008 840 2027
3 1743 803 2296
3 1013 844 2039
3 365 1162 2065
3 1594 1315 2184
3 387 384 388
3 1508 1860 2311
3 547 527 2056
3 2005 225 2322
3 314 317 2127
3 1853 556 2327
3 201 6 278
3 1907 1644 2417
3 1896 2101 2108
3 646 645 784
3 538 508 558
3 374 375 377
3 1630 1634 1635
3 1579 1999 2352
3 1647 1648 1849
3 1313 1314 2121
3 1179 1433 2042
3 844 701 2039
3 1252 1251 2098
3 816 876 925
3 1922 1228 2281
3 392 394 396
3 1915 654 2294
3 1652 1653 2487
3 429 430 436
3 456 475 476
3 1605 1392 2510
3 126 1882 2284
3 1784 1780 2419
3 500 453 960
3 377 378 381
3 2178 1587 2300
3 1222 1219 1626
3 413 419 420
3 381 382 400
3 2169 1836 2223
3 1906 1905 2129
3 616 614 793
3 1170 1419 2139
3 101 189 2220
3 241 100 2220
3 1968 1111 2123
3 567 434 2031
3 615 614 616
3 1032 720 1921
3 682 428 2138
3 469 470 473
3 339 440 2261
3 1501 238 2226
3 1154 1431 1653
3 446 447 457
3 1251 1243 1257
3 2229 315 2495
3 1201 1202 1212
3 785 784 879
3 464 463 465
3 66 2118 2395
3 324 332 2282
3 286 288 771
3 17 199 2081
3 571 570 721
3 611 610 2092
3 617 616 618
3 1542 1531 2332
3 400 401 424
3 1325 1326 1371
3 1140 1406 1702
3 1323 443 2302
3 1926 1573 2507
3 436 437 446
3 1262 1457 2098
3 67 190 2118
3 1518 1861 2449
3 989 1359 1360
3 1063 1082 1154
3 1757 96 2526
3 969 967 1011
3 868 836 2095
3 1215 1035 2235
3 96 1757 2309
3 261 2160 2380
3 1381 1382 2126
3 1468 1469 2182
3 1334 1317 2108
3 861 863 1064
3 1270 1261 1271
3 360 361 383
3 287 316 1978
3 1856 192 2367
3 1905 241 2129
3 1615 1809 2425
3 528 523 560
3 979 980 989
3 662 2040 2058
3 721 964 965
3 170 171 2216
3 664 799 2040
3 512 511 523
3 1201 1348 2107
3 620 618 858
3 758 289 1978
3 859 858 998
3 424 425 453
3 1616 1615 2193
3 444 301 1975
3 561 560 593
3 965 966 967
3 1798 376 2430
3 340 2014 2091
3 510 465 511
3 107 195 1990
3 1080 1188 2054
3 1153 998 1312
3 1226 1224 1249
3 1012 1011 1363
3 902 904 905
3 842 963 2027
3 268 270 1134
3 865 901 1125
3 2077 558 2102
3 282 284 442
3 1977 1679 2253
3 1496 1498 2047
3 284 286 2063
3 281 736 1938
3 2132 793 2165
3 1674 215 2437
3 2078 1855 2411
3 839 1009 2055
3 1182 824 1183
3 1168 947 1169
3 1289 1871 2242
3 316 285 1971
3 1270 1271 1272
3 1755 1793 2264
3 51 1996 2011
3 383 384 387
3 1146 1924 2215
3 1279 1928 2202
3 619 618 620
3 1194 1196 1197
3 555 578 979
3 1937 1639 2528
3 1262 1257 1263
3 389 384 2339
3 2251 1338 2464
3 1155 1887 2123
3 1151 1937 2528
3 465 463 828
3 1318 1319 2116
3 1687 1688 2231
3 326 954 2050
3 297 318 1984
3 1308 953 2255
3 1846 2056 2198
3 320 315 2229
3 1254 1252 2059
3 760 761 783
3 951 1281 2255
3 1459 1296 2094
3 2288 1638 2470
3 1975 299 1984
3 52 247 1996
3 468 338 2090
3 2140 1511 2506
3 1125 1126 1192
3 593 824 1182
3 720 708 1921
3 704 706 707
3 623 587 624
3 2044 1112 2152
3 1393 1169 1749
3 900 983 2119
3 783 914 938
3 255 2265 2489
3 2039 894 2122
3 317 2050 2127
3 1866 1867 2513
3 374 373 375
3 429 436 455
3 387 388 445
3 1193 423 1194
3 555 577 578
3 1074 977 1187
3 449 567 2052
3 1197 1198 1364
3 2154 1595 2486
3 1486 1849 2173
3 318 295 1983
3 939 1016 1844
3 131 132 2160
3 30 31 2159
3 881 1146 2215
3 1294 1868 2238
3 1300 1455 2314
3 1365 1364 1912
3 783 938 939
3 2061 1735 2441
3 551 545 601
3 2194 216 2536
3 1251 1257 1262
3 888 887 2177
3 1364 1198 2048
3 1498 1682 2340
3 1589 1590 2501
3 60 188 2266
3 1401 1913 2324
3 195 108 1991
3 420 422 423
3 1675 1470 2474
3 258 1673 2183
3 2161 1619 2438
3 1296 1472 2094
3 1808 1910 2381
3 334 803 2090
3 1490 1285 2232
3 523 511 524
3 1240 1238 2074
3 1184 1183 1185
3 39 40 2151
3 473 474 477
3 1461 1463 2200
3 2072 353 2073
3 861 862 863
3 1206 1941 2401
3 958 1575 2287
3 614 611 2092
3 110 111 2140
3 1136 2054 2110
3 645 594 2133
3 260 33 2002
3 673 767 2131
3 989 980 1359
3 1741 2131 2258
3 1317 1875 2148
3 894 1946 2122
3 863 864 865
3 787 461 2052
3 857 2277 2386
3 109 246 1991
3 2017 116 2018
3 1182 1183 1184
3 377 375 378
3 816 925 1324
3 865 866 901
3 1262 1263 1456
3 359 356 2065
3 2129 241 2472
3 283 1938 1971
3 1458 1210 2203
3 1076 1003 2145
3 196 1738 2402
3 1033 1130 1151
3 1188 1121 2106
3 1140 1702 2096
3 549 687 1280
3 1694 1621 2191
3 861 1064 2112
3 1548 1549 2129
3 1784 1071 2462
3 714 716 2066
3 1961 825 2455
3 1447 1211 2250
3 979 578 980
3 905 907 1209
3 381 378 382
3 457 469 552
3 595 575 2032
3 408 413 2084
3 481 483 2144
3 1745 1349 2293
3 1980 1405 2441
3 198 50 2011
3 248 115 2017
3 912 819 2068
3 620 858 859
3 707 708 720
3 821 674 822
3 514 542 2086
3 400 382 401
3 123 2005 2012
3 1772 1351 2374
3 34 239 2002
3 768 314 2127
3 2003 36 2004
3 280 282 2079
3 124 225 2005
3 596 595 2130
3 593 560 824
3 1504 1502 2519
3 239 35 2003
3 1311 1309 2147
3 1318 1877 2240
3 1860 1432 2311
3 1416 1715 2330
3 859 998 1153
3 352 353 2072
3 312 768 1987
3 2027 1174 2152
3 226 38 2006
3 1827 1024 2117
3 1710 1391 2295
3 690 624 691
3 37 226 2004
3 1153 1312 1885
3 853 855 2186
3 1892 242 2373
3 1967 520 2174
3 939 938 1016
3 47 249 2019
3 388 390 2078
3 1991 2139 2517
3 905 906 907
3 571 721 2032
3 1196 423 2035
3 1324 925 1325
3 1151 1130 1937
3 363 352 2072
3 345 349 2076
3 1031 1032 1033
3 214 179 1859
3 211 122 2012
3 602 601 652
3 117 205 2018
3 710 712 2067
3 1602 187 2357
3 520 2000 2174
3 85 242 2335
3 220 84 2335
3 381 400 2113
3 1586 1587 2435
3 424 401 425
3 963 1174 2027
3 860 691 861
3 610 596 2130
3 1958 2078 2431
3 570 547 2056
3 237 2216 2354
3 1211 1692 2219
3 298 358 1997
3 909 947 1041
3 441 456 2097
3 1135 1647 1849
3 1601 1542 2443
3 197 113 2009
3 49 198 2010
3 1911 347 2407
3 1729 191 2309
3 212 41 2020
3 121 211 2013
3 222 105 2218
3 1125 901 1126
3 114 248 2009
3 249 48 2010
3 42 250 2020
3 251 120 2013
3 233 1769 2369
3 1870 647 2113
3 794 345 2076
3 250 43 2024
3 119 251 2021
3 901 902 2141
3 964 570 2056
3 739 335 2261
3 2108 1317 2148
3 577 599 2083
3 205 118 2021
3 44 206 2024
3 1247 1241 2323
3 1894 992 2244
3 6 203 2049
3 1642 1678 2529
3 1417 1873 2333
3 1422 2023 2516
3 341 794 2100
3 73 74 2361
3 1234 1232 2088
3 1261 1254 2059
3 896 1077 2257
3 1921 710 2067
3 125 126 2284
3 220 1699 2289
3 159 5 2304
3 4 184 2303
3 2059 1252 2098
3 1003 1004 2145
3 2328 1325 2451
3 1486 227 1500
3 63 64 2162
3 2081 1192 2260
3 508 500 2102
3 667 1872 2318
3 338 334 2090
3 423 422 2035
3 1192 1126 1471
3 907 908 909
3 1330 1328 2192
3 1972 897 2500
3 2443 316 2514
3 242 86 2373
3 87 193 2373
3 420 1193 2084
3 1473 1086 2358
3 1987 768 2037
3 522 337 2100
3 627 1660 2185
3 1793 446 2264
3 1405 2061 2441
3 1502 1217 2302
3 171 201 2216
3 1158 1993 2153
3 1197 1365 2120
3 1712 1710 2295
3 1121 1401 2414
3 93 94 2166
3 653 652 688
3 622 1716 2452
3 1345 1720 2267
3 477 537 556
3 128 129 2181
3 2331 1295 2458
3 784 645 874
3 1269 1270 2199
3 189 102 2355
3 1041 1168 1343
3 246 110 2140
3 477 525 537
3 755 1895 2371
3 1947 1723 2313
3 1134 1135 2369
3 223 65 2395
3 968 1201 2107
3 1577 1578 2325
3 210 15 2477
3 961 363 2072
3 1581 1579 2352
3 349 357 2076
3 337 341 2100
3 305 303 2317
3 370 367 2103
3 762 296 1997
3 581 580 2164
3 1278 1838 2372
3 1548 2129 2472
3 594 593 2133
3 2021 251 2022
3 2047 1247 2182
3 967 968 2107
3 1169 947 2008
3 481 2144 2169
3 793 614 2092
3 1910 217 2381
3 1251 1262 2098
3 716 788 2066
3 2101 1334 2108
3 2006 39 2151
3 1603 2379 2508
3 1926 2006 2151
3 96 97 2526
3 750 755 2371
3 789 714 2066
3 909 918 947
3 1993 895 2153
3 106 1990 2218
3 1243 1240 2074
3 832 986 1189
3 1283 1284 2342
3 2297 195 2517
3 1043 829 2326
3 767 816 2131
3 602 653 676
3 1004 912 2068
3 2086 1886 2224
3 1124 2177 2467
3 426 401 2531
3 707 720 1030
3 1000 1001 2184
3 1315 1029 2184
3 467 481 2169
3 541 513 2256
3 647 381 2113
3 225 2284 2510
3 2 156 2356
3 187 0 2357
3 40 212 2151
3 2245 1386 2383
3 676 677 829
3 1004 2068 2069
3 1860 232 2487
3 1031 1033 1034
3 829 830 972
3 996 997 2408
3 1195 1194 2120
3 987 1869 2202
3 1410 1213 2222
3 819 820 2068
3 1485 1486 2173
3 1564 2030 2155
3 807 669 2529
3 129 261 2181
3 1525 1076 2145
3 578 577 2083
3 327 310 1987
3 1083 929 2197
3 2131 1324 2258
3 798 408 2084
3 1838 696 2426
3 1486 1500 1930
3 1946 1944 2291
3 2257 1077 2291
3 1512 1661 2266
3 445 388 2078
3 1192 1471 2260
3 2118 1415 2395
3 1466 1468 2158
3 830 677 831
3 211 2012 2251
3 652 601 2442
3 537 545 551
3 558 508 2102
3 198 2011 2128
3 1718 2280 2385
3 500 960 2102
3 1168 1169 1393
3 1127 971 2496
3 95 96 2309
3 2030 1565 2155
3 1919 1172 2273
3 977 860 2112
3 240 128 2181
3 294 762 2038
3 1800 1799 2195
3 712 789 2067
3 972 1749 2326
3 472 1683 2212
3 874 645 2133
3 551 2045 2201
3 2105 1043 2326
3 1957 1212 2301
3 1514 1856 2367
3 565 538 2167
3 373 370 2103
3 355 348 2196
3 1934 1272 2138
3 1934 426 2531
3 1881 1400 2481
3 2046 1851 2327
3 367 961 2103
3 1963 1152 2206
3 201 278 443
3 3 131 2444
3 31 1 2445
3 2035 441 2097
3 503 787 2198
3 1135 1849 1930
3 1534 1983 2306
3 2089 623 2150
3 687 704 2109
3 869 1351 2363
3 1302 1304 2205
3 955 1716 2484
3 1030 720 1031
3 1159 1318 2240
3 1228 1226 2281
3 947 918 2008
3 413 420 2084
3 785 879 2532
3 1041 947 1168
3 1468 2182 2323
3 1246 1234 2088
3 1730 1163 2372
3 542 555 2086
3 1599 631 2312
3 1146 1967 2174
3 1078 1136 2343
3 1515 1574 2180
3 2336 885 2469
3 1257 1243 2074
3 1347 1346 2279
3 2001 650 2206
3 1480 1601 2514
3 1029 1000 2184
3 1956 788 2336
3 1271 1261 2059
3 130 3 2444
3 1 32 2445
3 1570 1507 2197
3 1232 1255 2088
3 791 1642 2529
3 1601 1479 2269
3 1361 1362 2168
3 1634 1922 2281
3 765 2065 2190
3 2071 1158 2153
3 1699 1801 2289
3 832 831 833
3 1864 346 2344
3 456 476 2097
3 1855 828 2411
3 2065 1162 2190
3 1125 1192 2149
3 599 760 2083
3 361 765 2339
3 1731 2123 2241
3 1349 1181 1350
3 1443 1275 2251
3 1819 524 2429
3 1021 1045 2512
3 858 618 2132
3 1999 358 2338
3 368 292 2038
3 290 368 2135
3 803 331 2296
3 1112 1008 2152
3 56 1947 2313
3 555 979 2086
3 1469 1496 2182
3 1011 967 2107
3 248 2017 2288
3 1809 789 2425
3 960 453 2221
3 538 558 2167
3 1858 1187 2248
3 2246 1757 2526
3 902 905 2141
3 1851 1853 2327
3 1224 1222 2111
3 771 288 2135
3 1945 2153 2257
3 1420 1525 2489
3 1399 1123 2393
3 103 2025 2355
3 897 822 898
3 1861 940 2532
3 865 1125 2146
3 1675 2474 2522
3 1573 2157 2507
3 1632 1631 2382
3 551 601 602
3 527 503 2198
3 1708 805 2337
3 1059 1278 2372
3 2056 527 2198
3 860 861 2112
3 1668 2348 2398
3 255 2159 2265
3 1541 1542 2269
3 1428 2074 2227
3 1582 1583 2321
3 389 1774 2503
3 2004 226 2157
3 1777 397 2405
3 1368 1436 2254
3 1061 2409 2462
3 1071 930 2462
3 1126 901 2141
3 1194 1197 2120
3 1452 1952 2282
3 2116 1319 2482
3 105 106 2218
3 1981 1399 2393
3 2119 983 2143
3 444 1682 2461
3 2173 1648 2463
3 616 793 2132
3 1791 1190 2334
3 1826 1728 2259
3 602 652 653
3 1834 1292 2428
3 556 2201 2327
3 1014 1015 2385
3 1995 1287 2331
3 1193 1195 2189
3 816 1324 2131
3 879 1861 2532
3 593 1182 2133
3 1402 266 1742
3 2216 1323 2354
3 1660 1636 2502
3 620 955 2484
3 1162 1706 2190
3 1870 2113 2249
3 204 1680 1732
3 1909 2023 2420
3 217 72 2217
3 376 372 2430
3 905 1209 2141
3 1378 1381 2283
3 1236 1246 2227
3 286 771 2063
3 1635 2263 2502
3 100 101 2220
3 1139 898 1140
3 2114 1343 2136
3 442 284 2063
3 1772 2106 2414
3 1985 1755 2533
3 2192 1328 2315
3 1064 863 2146
3 1631 1637 2459
3 736 2049 2523
3 221 1906 2246
3 318 1983 2171
3 1496 2047 2182
3 1374 2139 2506
3 196 55 2313
3 2087 462 2134
3 676 653 677
3 2304 257 2491
3 1401 2324 2363
3 829 677 830
3 654 2223 2242
3 1187 977 2112
3 1463 1466 2200
3 2023 219 2516
3 1176 881 2215
3 513 471 2290
3 1812 459 2252
3 1386 1269 2199
3 291 758 2306
3 618 616 2132
3 278 280 2210
3 83 220 2289
3 82 83 2289
3 938 1057 2161
3 1189 986 1190
3 788 719 2336
3 1914 2001 2206
3 232 181 1652
3 1567 2062 2490
3 313 757 2495
3 622 619 2484
3 688 878 1320
3 1222 1626 2111
3 282 442 2079
3 1169 2008 2105
3 1966 1007 2308
3 2040 799 2237
3 1744 2229 2495
3 986 833 1063
3 2284 1605 2510
3 887 1961 2376
3 215 1624 2262
3 830 831 832
3 476 475 2224
3 439 451 2223
3 1932 1933 2380
3 2227 1246 2366
3 1212 1202 2301
3 1107 1110 2228
3 249 2010 2299
3 1983 293 2306
3 2055 1214 2237
3 1438 1372 2478
3 824 560 2156
3 2320 1866 2513
3 1351 1137 2374
3 868 2007 2232
3 2063 771 2064
3 1507 214 1508
3 1728 1727 2246
3 1045 1047 2348
3 1139 1140 2096
3 1648 1649 2463
3 1502 2302 2519
3 704 707 2109
3 2343 1136 2396
3 650 1963 2206
3 2153 895 2257
3 396 1958 2431
3 1379 1377 2288
3 2115 1471 2319
3 2033 987 2202
3 2239 1693 2518
3 2025 1488 2355
3 1209 2115 2319
3 523 524 2156
3 783 939 2243
3 376 1798 2497
3 2066 788 2193
3 1984 318 2172
3 425 427 2221
3 203 172 1847
3 446 457 2264
3 1312 2089 2150
3 2138 1272 2211
3 897 1139 2274
3 828 1819 2429
3 1249 1224 2111
3 666 667 2318
3 1371 1326 2194
3 2433 1499 2475
3 1272 1271 2211
3 1367 2254 2479
3 1386 2053 2383
3 2074 1238 2227
3 755 2148 2320
3 2117 1604 2428
3 475 514 2224
3 228 2187 2457
3 1868 1504 2520
3 1626 1218 2185
3 2123 1111 2241
3 1287 1049 2331
3 1280 687 2109
3 459 1814 2292
3 54 196 2402
3 863 865 2146
3 204 176 1680
3 514 2086 2224
3 1646 603 2398
3 112 197 2346
3 358 300 2338
3 1140 898 1141
3 1204 1335 2301
3 1016 2161 2438
3 909 1041 2175
3 1681 2448 2492
3 2252 459 2292
3 1992 868 2232
3 1035 1036 2235
3 1051 1295 2331
3 1836 1289 2242
3 1508 214 1859
3 247 53 2402
3 1016 938 2161
3 1408 856 2378
3 1466 2158 2200
3 725 885 2336
3 855 1450 2421
3 2023 1768 2420
3 1238 1236 2227
3 1679 202 2253
3 2107 1348 2233
3 1653 1431 2487
3 1946 2291 2343
3 2253 202 2329
3 1885 1312 2150
3 378 628 2390
3 2195 1383 2432
3 1520 1519 2480
3 1532 1733 2534
3 308 327 2278
3 953 951 2255
3 1213 1407 2222
3 1561 1563 2285
3 302 763 2338
3 1928 2033 2202
3 763 304 2345
3 832 833 986
3 1352 2040 2237
3 247 1881 2481
3 560 523 2156
3 335 339 2261
3 346 342 2344
3 201 443 1323
3 2301 1335 2466
3 323 320 2229
3 1136 2110 2396
3 1139 1977 2274
3 1809 1615 2423
3 1707 1791 2334
3 46 2019 2485
3 2064 1294 2238
3 1950 197 2404
3 2021 2022 2176
3 1949 245 2420
3 2044 2152 2207
3 1063 1154 1707
3 1012 1363 2406
3 280 2079 2210
3 2237 1214 2351
3 820 698 2318
3 1140 1141 1406
3 205 2021 2176
3 2043 786 2310
3 2145 1004 2446
3 707 1030 2109
3 1406 2460 2473
3 2137 1268 2226
3 16 2081 2260
3 567 2031 2219
3 2112 1064 2248
3 206 45 2485
3 2347 1462 2365
3 1650 1962 2362
3 453 425 2221
3 1209 907 2175
3 1111 1276 2241
3 2448 1145 2492
3 2051 2083 2243
3 59 60 2266
3 1402 1742 2530
3 831 677 2209
3 624 587 2276
3 238 174 1725
3 1011 2107 2233
3 468 2365 2412
3 2337 805 2371
3 254 1932 2380
3 1174 1398 2207
3 2140 111 2346
3 1381 2186 2283
3 1987 2037 2188
3 1740 559 2456
3 1773 391 2503
3 1335 1870 2249
3 1945 2257 2291
3 828 463 2411
3 1246 2088 2208
3 2060 798 2307
3 1773 1159 2240
3 1187 2112 2248
3 1352 2237 2351
3 2037 1322 2188
3 1941 1499 2433
3 2322 225 2510
3 1031 1034 2236
3 327 2188 2321
3 595 2032 2273
3 1464 1462 2347
3 1285 1992 2232
3 799 2055 2237
3 443 278 2210
3 784 874 2178
3 392 396 2431
3 191 95 2309
3 879 784 2178
3 524 511 2429
3 2128 2011 2270
3 895 896 2257
3 2206 1152 2324
3 318 2171 2172
3 2259 1549 2379
3 1214 1410 2351
3 306 308 2278
3 2022 251 2247
3 1757 1729 2309
3 1283 1918 2524
3 996 1706 2492
3 557 2044 2207
3 1798 1448 2364
3 1447 2250 2310
3 559 1750 2403
3 1363 1011 2233
3 1343 1168 2187
3 1407 2044 2256
3 1462 1460 2365
3 1995 2331 2458
3 327 1987 2188
3 2160 254 2380
3 1681 958 2287
3 2031 1160 2250
3 1600 689 2413
3 2219 1692 2239
3 1494 1675 2522
3 1281 1916 2448
3 907 909 2175
3 565 2167 2276
3 2241 1276 2275
3 1978 316 2443
3 2151 212 2350
3 203 1847 2104
3 2049 1481 2523
3 1961 1362 2376
3 2187 1393 2457
3 940 796 2532
3 2293 1349 2329
3 572 1897 2537
3 332 739 2282
3 2052 567 2239
3 1437 1370 2277
3 567 2219 2239
3 667 626 2452
3 1914 2206 2324
3 2243 939 2392
3 2136 1343 2187
3 257 1654 2530
3 1376 1378 2283
3 2076 1982 2272
3 2083 760 2243
3 1944 1945 2291
3 1771 1839 2359
3 1404 1403 2399
3 1875 1866 2320
3 1460 1337 2412
3 760 783 2243
3 1276 1366 2275
3 1428 2227 2366
3 1882 1605 2284
3 1739 1429 2459
3 2321 2188 2434
3 1328 1327 2315
3 798 2189 2307
3 2152 1174 2207
3 2182 1247 2323
3 1516 1514 2367
3 293 291 2306
3 556 537 2201
3 1298 1300 2314
3 1400 1399 2316
3 1649 2236 2463
3 833 831 2424
3 2127 2050 2333
3 1057 914 2328
3 1839 193 2359
3 761 1741 2258
3 1186 1970 2422
3 1429 2366 2382
3 2211 1271 2271
3 1733 1248 2534
3 13 2114 2136
3 2078 390 2431
3 1533 1536 2340
3 1690 2145 2446
3 1277 2308 2370
3 1168 1393 2187
3 1597 2047 2268
3 587 565 2276
3 1908 244 2401
3 225 125 2284
3 610 2130 2468
3 1749 2105 2326
3 1913 1914 2324
3 2366 2208 2382
3 1391 1876 2295
3 457 552 2264
3 653 688 2209
3 1601 2443 2514
3 682 2138 2211
3 992 1980 2244
3 55 56 2313
3 1645 1495 2493
3 473 477 2483
3 202 1724 2329
3 465 828 2429
3 1277 1966 2308
3 1416 2330 2406
3 1912 1364 2455
3 1716 1483 2375
3 2019 1651 2485
3 1725 2137 2226
3 201 1323 2216
3 878 1083 2213
3 2072 2073 2245
3 1563 1777 2405
3 244 2028 2401
3 2016 1564 2422
3 1682 1497 2461
3 1962 1153 2362
3 1298 2314 2358
3 1384 1385 2391
3 688 1320 2209
3 1587 2179 2435
3 786 380 2497
3 1395 1522 2341
3 2032 1919 2273
3 251 2013 2247
3 2219 2031 2250
3 2397 552 2453
3 1765 255 2489
3 2475 1825 2524
3 1202 1204 2301
3 445 2078 2411
3 323 2229 2296
3 1286 2384 2408
3 537 551 2201
3 1724 237 2293
3 84 85 2335
3 1471 1126 2319
3 1635 1634 2511
3 300 302 2338
3 698 666 2318
3 1030 1031 2236
3 2098 1457 2271
3 696 1821 2426
3 1457 1492 2447
3 1956 2336 2469
3 331 323 2296
3 1284 1491 2342
3 2011 1996 2270
3 256 183 2303
3 160 257 2304
3 2204 1589 2501
3 1891 1014 2280
3 719 725 2336
3 1354 1808 2381
3 437 430 2494
3 2377 218 2391
3 2211 2271 2447
3 1407 2256 2290
3 2365 1460 2412
3 2047 1498 2268
3 1825 1283 2524
3 1499 1825 2475
3 1226 1249 2281
3 2051 2243 2392
3 2250 1160 2310
3 111 112 2346
3 304 306 2345
3 1341 1352 2351
3 2166 191 2504
3 2223 1836 2242
3 1996 247 2481
3 1049 1051 2331
3 1086 1298 2358
3 2130 595 2273
3 1249 2111 2263
3 680 1995 2458
3 1511 2140 2346
3 102 103 2355
3 469 473 2453
3 961 2072 2245
3 2073 1282 2245
3 1442 1443 2525
3 74 192 2361
3 2163 1586 2435
3 1519 1518 2449
3 897 2274 2500
3 303 444 2317
3 1615 1614 2423
3 197 2009 2404
3 1634 2281 2511
3 1780 1781 2419
3 1435 1623 2465
3 1286 1774 2384
3 384 361 2339
3 193 1901 2359
3 1165 2433 2475
3 2277 1370 2386
3 677 653 2209
3 1994 1516 2367
3 1479 1478 2440
3 1165 1512 2433
3 1644 1353 2417
3 1711 1712 2353
3 2193 1615 2425
3 1613 1956 2469
3 1440 1173 2330
3 2269 1479 2440
3 222 2218 2465
3 391 389 2503
3 306 2278 2345
3 468 2090 2365
3 221 2246 2526
3 1445 1446 2504
3 939 1844 2392
3 86 87 2373
3 1429 1428 2366
3 2053 2103 2383
3 1348 1212 2312
3 805 750 2371
3 997 1286 2408
3 1152 869 2363
3 2063 2064 2238
3 192 1994 2367
3 1160 2043 2310
3 1926 2151 2350
3 2059 2098 2271
3 1897 1366 2537
3 215 2262 2437
3 1655 1732 2476
3 2415 1128 2454
3 1320 2213 2214
3 7 258 2357
3 259 155 2356
3 2171 1530 2172
3 347 351 2407
3 1077 1078 2343
3 239 2003 2279
3 1446 1128 2415
3 1034 1033 2410
3 601 627 2442
3 1154 1653 2234
3 397 2060 2405
3 2142 794 2272
3 442 2063 2238
3 1863 1215 2378
3 794 2076 2272
3 1883 1375 2505
3 1320 878 2213
3 342 468 2344
3 1903 218 2377
3 380 376 2497
3 1549 1547 2379
3 1148 1165 2475
3 2157 226 2507
3 829 972 2326
3 884 1957 2466
3 2291 1077 2343
3 65 66 2395
3 787 2052 2518
3 2298 1348 2312
3 1946 2343 2396
3 1653 256 2535
3 1842 1548 2472
3 1957 2301 2466
3 1366 1277 2370
3 2213 1432 2214
3 961 2245 2383
3 218 2093 2391
3 1376 2283 2421
3 1873 2127 2333
3 1019 1021 2512
3 1128 1127 2454
3 1104 1434 2450
3 2130 1439 2468
3 2396 2110 2482
3 2186 855 2283
3 1724 2293 2329
3 1163 1059 2372
3 1614 2389 2423
3 53 54 2402
3 1063 1707 2334
3 2283 855 2421
3 1385 1863 2436
3 364 1883 2505
3 517 1890 2387
3 1145 996 2492
3 1047 1287 2348
3 2148 1875 2320
3 205 2176 2416
3 1372 1844 2478
3 1211 2219 2250
3 1141 898 2368
3 245 1909 2420
3 2278 327 2321
3 2389 1397 2423
3 2256 513 2290
3 559 2403 2456
3 1137 1340 2374
3 2093 1384 2391
3 1918 1148 2524
3 1030 2236 2427
3 1867 1895 2513
3 2014 517 2387
3 2271 1457 2447
3 1143 2028 2353
3 1904 194 2432
3 1148 2475 2524
3 1574 1523 2436
3 2213 1083 2311
3 1997 358 2325
3 2139 246 2506
3 1370 1369 2386
3 1271 2059 2271
3 1034 2173 2463
3 1123 1412 2393
3 1578 1827 2515
3 2209 1320 2424
3 2079 1504 2210
3 1361 2168 2305
3 1491 1489 2403
3 238 1725 2226
3 1190 986 2334
3 1547 1545 2508
3 1891 1613 2469
3 1153 1885 2362
3 2208 1632 2382
3 2287 1281 2448
3 1356 1376 2421
3 1965 2349 2515
3 2155 1186 2422
3 1522 2014 2387
3 2158 1468 2323
3 2050 954 2333
3 1397 1809 2423
3 1362 1360 2376
3 1852 1985 2397
3 2069 1691 2446
3 789 2066 2425
3 1895 755 2513
3 1707 1154 2234
3 372 374 2430
3 2225 787 2518
3 2028 1206 2401
3 986 1063 2334
3 1912 726 2439
3 1340 1342 2400
3 1916 1145 2448
3 2236 1649 2427
3 2374 1340 2400
3 2222 1407 2290
3 2324 1152 2363
3 241 2220 2472
3 765 2190 2384
3 2375 667 2452
3 2330 1173 2406
3 1181 1972 2500
3 2126 1382 2388
3 1173 1012 2406
3 315 313 2495
3 1015 1373 2385
3 97 221 2526
3 1937 1397 2389
3 930 1061 2462
3 971 1096 2496
3 45 46 2485
3 669 791 2529
3 1104 2450 2521
3 382 378 2390
3 2191 1371 2536
3 2235 1036 2286
3 831 2209 2424
3 762 1997 2349
3 2379 1547 2508
3 2177 1359 2467
3 2403 1489 2456
3 796 785 2532
3 219 1902 2516
3 1519 2300 2480
3 1065 1655 2476
3 1375 1473 2505
3 1489 1490 2456
3 390 392 2431
3 2247 2013 2464
3 1135 1930 2369
3 2278 1583 2345
3 626 622 2452
3 631 2298 2312
3 2233 1348 2298
3 1398 1974 2499
3 1706 1681 2492
3 261 130 2444
3 32 260 2445
3 822 2099 2368
3 1365 1912 2439
3 941 940 2418
3 1446 2166 2504
3 2106 1121 2414
3 2300 1519 2449
3 1803 1104 2521
3 1732 1570 2476
3 1413 2051 2392
3 2122 1946 2396
3 2238 1868 2520
3 477 556 2483
3 2397 1985 2533
3 463 445 2411
3 2163 1185 2488
3 1126 2141 2319
3 1755 2264 2533
3 972 2204 2501
3 2230 1533 2340
3 1774 1773 2503
3 1997 2325 2349
3 1004 2069 2446
3 2159 31 2445
3 131 2160 2444
3 1371 2191 2451
3 1001 2154 2486
3 1682 2230 2340
3 2103 961 2383
3 1033 1151 2410
3 382 2390 2531
3 1504 2079 2520
3 1583 2278 2321
3 511 465 2429
3 250 2024 2479
3 2208 2088 2509
3 619 620 2484
3 1246 2208 2366
3 2141 1209 2319
3 1359 1413 2467
3 1295 1459 2458
3 2218 1435 2465
3 2281 1249 2511
3 2293 237 2354
3 2207 1398 2499
3 1564 2155 2422
3 552 469 2453
3 1947 224 2498
3 2062 1568 2490
3 2018 205 2416
3 260 2159 2445
3 2160 261 2444
3 2092 610 2468
3 194 2195 2432
3 1432 2213 2311
3 211 2251 2464
3 2378 856 2527
3 1536 1532 2534
3 2364 786 2497
3 2438 1438 2478
3 1185 1948 2488
3 2042 941 2418
3 1582 2321 2434
3 885 1891 2469
3 1364 2048 2455
3 1693 2225 2518
3 401 382 2531
3 1338 2247 2464
3 442 2238 2520
3 1292 2117 2428
3 2274 1350 2500
3 2066 2193 2425
3 2179 1184 2435
3 898 822 2368
3 2436 1863 2527
3 1844 1016 2478
3 2184 1001 2486
3 557 2207 2499
3 2013 211 2464
3 2254 250 2479
3 1350 1181 2500
3 2009 248 2470
3 246 2140 2506
3 1574 2436 2527
3 2139 1419 2517
3 316 1971 2514
3 1319 2122 2482
3 226 2006 2507
3 1400 2270 2481
3 1681 2287 2448
3 2325 1578 2349
3 232 1652 2487
3 1320 2214 2424
3 1632 2208 2509
3 248 2288 2470
3 1406 1141 2460
3 2188 1322 2434
3 2244 1980 2441
3 2088 1255 2509
3 1280 2109 2427
3 2060 2307 2405
3 2236 1034 2463
3 1745 2293 2354
3 2122 2396 2482
3 2109 1030 2427
3 2307 1563 2405
3 1429 2382 2459
3 224 2267 2498
3 682 2211 2447
3 2079 442 2520
3 2348 1287 2398
3 2220 1842 2472
3 1335 2249 2466
3 1249 2263 2511
3 443 2210 2519
3 2385 1373 2394
3 1594 2184 2486
3 2052 2239 2518
3 1568 2439 2490
3 2349 1578 2515
3 2344 468 2412
3 2270 1996 2481
3 1735 2244 2441
3 2260 1471 2477
3 2210 1504 2519
3 1434 2297 2450
3 2297 1419 2450
3 2263 1660 2502
3 2404 2009 2470
3 1718 2385 2394
3 1371 2194 2536
3 2317 444 2461
3 1443 2322 2525
3 1716 2375 2452
3 1863 2378 2527
3 2439 726 2490
3 1057 2328 2451
3 1638 2404 2470
3 1454 2234 2535
3 755 2320 2513
3 2234 1653 2535
3 2264 552 2533
3 1419 2297 2517
3 1392 2322 2510
3 552 2397 2533
3 1798 2364 2497
3 2322 1392 2525
3 2382 1631 2459
3 1016 2438 2478
3 1366 2370 2537
3 1742 2491 2530
3 2491 257 2530
CELL_TYPES 4886
5
5
5
5
5
5
5
5
5
5
5
5
5
5
5
5
5
5
5
5
5
5
5
5
5
5
5
5
5
5
5
5
5
5
5
5
5
5
5
5
5
5
5
5
5
5
5
5
5
5
5
5
5
5
5
5
5
5
5
5
5
5
5
5
5
5
5
5
5
5
5
5
5
5
5
5
5
5
5
5
5
5
5
5
5
5
5
5
5
5
5
5
5
5
5
5
5
5
5
5
5
5
5
5
5
5
5
5
5
5
5
5
5
5
5
5
5
5
5
5
5
5
5
5
5
5
5
5
5
5
5
5
5
5
5
5
5
5
5
5
5
5
5
5
5
5
5
5
5
5
5
5
5
5
5
5
5
5
5
5
5
5
5
5
5
5
5
5
5
5
5
5
5
5
5
5
5
5
5
5
5
5
5
5
5
5
5
5
5
5
5
5
5
5
5
5
5
5
5
5
5
5
5
5
5
5
5
5
5
5
5
5
5
5
5
5
5
5
5
5
5
5
5
5
5
5
5
5
5
5
5
5
5
5
5
5
5
5
5
5
5
5
5
5
5
5
5
5
5
5
5
5
5
5
5
5
5
5
5
5
5
5
5
5
5
5
5
5
5
5
5
5
5
5
5
5
5
5
5
5
5
5
5
5
5
5
5
5
5
5
5
5
5
5
5
5
5
5
5
5
5
5
5
5
5
5
5
5
5
5
5
5
5
5
5
5
5
5
5
5
5
5
5
5
5
5
5
5
5
5
5
5
5
5
5
5
5
5
5
5
5
5
5
5
5
5
5
5
5
5
5
5
5
5
5
5
5
5
5
5
5
5
5
5
5
5
5
5
5
5
5
5
5
5
5
5
5
5
5
5
5
5
5
5
5
5
5
5
5
5
5
5
5
5
5
5
5
5
5
5
5
5
5
5
5
5
5
5
5
5
5
5
5
5
5
5
5
5
5
5
5
5
5
5
5
5
5
5
5
5
5
5
5
5
5
5
5
5
5
5
5
5
5
5
5
5
5
5
5
5
5
5
5
5
5
5
5
5
5
5
5
5
5
5
5
5
5
5
5
5
5
5
5
5
5
5
5
5
5
5
5
5
5
5
5
5
5
5
5
5
5
5
5
5
5
5
5
5
5
5
5
5
5
5
5
5
5
5
5
5
5
5
5
5
5
5
5
5
5
5
5
5
5
5
5
5
5
5
5
5
5
5
5
5
5
5
5
5
5
5
5
5
5
5
5
5
5
5
5
5
5
5
5
5
5
5
5
5
5
5
5
5
5
5
5
5
5
5
5
5
5
5
5
5
5
5
5
5
5
5
5
5
5
5
5
5
5
5
5
5
5
5
5
5
5
5
5
5
5
5
5
5
5
5
5
5
5
5
5
5
5
5
5
5
5
5
5
5
5
5
5
5
5
5
5
5
5
5
5
5
5
5
5
5
5
5
5
5
5
5
5
5
5
5
5
5
5
5
5
5
5
5
5
5
5
5
5
5
5
5
5
5
5
5
5
5
5
5
5
5
5
5
5
5
5
5
5
5
5
5
5
5
5
5
5
5
5
5
5
5
5
5
5
5
5
5
5
5
5
5
5
5
5
5
5
5
5
5
5
5
5
5
5
5
5
5
5
5
5
5
5
5
5
5
5
5
5
5
5
5
5
5
5
5
5
5
5
5
5
5
5
5
5
5
5
5
5
5
5
5
5
5
5
5
5
5
5
5
5
5
5
5
5
5
5
5
5
5
5
5
5
5
5
5
5
5
5
5
5
5
5
5
5
5
5
5
5
5
5
5
5
5
5
5
5
5
5
5
5
5
5
5
5
5
5
5
5
5
5
5
5
5
5
5
5
5
5
5
5
5
5
5
5
5
5
5
5
5
5
5
5
5
5
5
5
5
5
5
5
5
5
5
5
5
5
5
5
5
5
5
5
5
5
5
5
5
5
5
5
5
5
5
5
5
5
5
5
5
5
5
5
5
5
5
5
5
5
5
5
5
5
5
5
5
5
5
5
5
5
5
5
5
5
5
5
5
5
5
5
5
5
5
5
5
5
5
5
5
5
5
5
5
5
5
5
5
5
5
5
5
5
5
5
5
5
5
5
5
5
5
5
5
5
5
5
5
5
5
5
5
5
5
5
5
5
5
5
5
5
5
5
5
5
5
5
5
5
5
5
5
5
5
5
5
5
5
5
5
5
5
5
5
5
5
5
5
5
5
5
5
5
5
5
5
5
5
5
5
5
5
5
5
5
5
5
5
5
5
5
5
5
5
5
5
5
5
5
5
5
5
5
5
5
5
5
5
5
5
5
5
5
5
5
5
5
5
5
5
5
5
5
5
5
5
5
5
5
5
5
5
5
5
5
5
5
5
5
5
5
5
5
5
5
5
5
5
5
5
5
5
5
5
5
5
5
5
5
5
5
5
5
5
5
5
5
5
5
5
5
5
5
5
5
5
5
5
5
5
5
5
5
5
5
5
5
5
5
5
5
5
5
5
5
5
5
5
5
5
5
5
5
5
5
5
5
5
5
5
5
5
5
5
5
5
5
5
5
5
5
5
5
5
5
5
5
5
5
5
5
5
5
5
5
5
5
5
5
5
5
5
5
5
5
5
5
5
5
5
5
5
5
5
5
5
5
5
5
5
5
5
5
5
5
5
5
5
5
5
5
5
5
5
5
5
5
5
5
5
5
5
5
5
5
5
5
5
5
5
5
5
5
5
5
5
5
5
5
5
5
5
5
5
5
5
5
5
5
5
5
5
5
5
5
5
5
5
5
5
5
5
5
5
5
5
5
5
5
5
5
5
5
5
5
5
5
5
5
5
5
5
5
5
5
5
5
5
5
5
5
5
5
5
5
5
5
5
5
5
5
5
5
5
5
5
5
5
5
5
5
5
5
5
5
5
5
5
5
5
5
5
5
5
5
5
5
5
5
5
5
5
5
5
5
5
5
5
5
5
5
5
5
5
5
5
5
5
5
5
5
5
5
5
5
5
5
5
5
5
5
5
5
5
5
5
5
5
5
5
5
5
5
5
5
5
5
5
5
5
5
5
5
5
5
5
5
5
5
5
5
5
5
5
5
5
5
5
5
5
5
5
5
5
5
5
5
5
5
5
5
5
5
5
5
5
5
5
5
5
5
5
5
5
5
5
5
5
5
5
5
5
5
5
5
5
5
5
5
5
5
5
5
5
5
5
5
5
5
5
5
5
5
5
5
5
5
5
5
5
5
5
5
5
5
5
5
5
5
5
5
5
5
5
5
5
5
5
5
5
5
5
5
5
5
5
5
5
5
5
5
5
5
5
5
5
5
5
5
5
5
5
5
5
5
5
5
5
5
5
5
5
5
5
5
5
5
5
5
5
5
5
5
5
5
5
5
5
5
5
5
5
5
5
5
5
5
5
5
5
5
5
5
5
5
5
5
5
5
5
5
5
5
5
5
5
5
5
5
5
5
5
5
5
5
5
5
5
5
5
5
5
5
5
5
5
5
5
5
5
5
5
5
5
5
5
5
5
5
5
5
5
5
5
5
5
5
5
5
5
5
5
5
5
5
5
5
5
5
5
5
5
5
5
5
5
5
5
5
5
5
5
5
5
5
5
5
5
5
5
5
5
5
5
5
5
5
5
5
5
5
5
5
5
5
5
5
5
5
5
5
5
5
5
5
5
5
5
5
5
5
5
5
5
5
5
5
5
5
5
5
5
5
5
5
5
5
5
5
5
5
5
5
5
5
5
5
5
5
5
5
5
5
5
5
5
5
5
5
5
5
5
5
5
5
5
5
5
5
5
5
5
5
5
5
5
5
5
5
5
5
5
5
5
5
5
5
5
5
5
5
5
5
5
5
5
5
5
5
5
5
5
5
5
5
5
5
5
5
5
5
5
5
5
5
5
5
5
5
5
5
5
5
5
5
5
5
5
5
5
5
5
5
5
5
5
5
5
5
5
5
5
5
5
5
5
5
5
5
5
5
5
5
5
5
5
5
5
5
5
5
5
5
5
5
5
5
5
5
5
5
5
5
5
5
5
5
5
5
5
5
5
5
5
5
5
5
5
5
5
5
5
5
5
5
5
5
5
5
5
5
5
5
5
5
5
5
5
5
5
5
5
5
5
5
5
5
5
5
5
5
5
5
5
5
5
5
5
5
5
5
5
5
5
5
5
5
5
5
5
5
5
5
5
5
5
5
5
5
5
5
5
5
5
5
5
5
5
5
5
5
5
5
5
5
5
5
5
5
5
5
5
5
5
5
5
5
5
5
5
5
5
5
5
5
5
5
5
5
5
5
5
5
5
5
5
5
5
5
5
5
5
5
5
5
5
5
5
5
5
5
5
5
5
5
5
5
5
5
5
5
5
5
5
5
5
5
5
5
5
5
5
5
5
5
5
5
5
5
5
5
5
5
5
5
5
5
5
5
5
5
5
5
5
5
5
5
5
5
5
5
5
5
5
5
5
5
5
5
5
5
5
5
5
5
5
5
5
5
5
5
5
5
5
5
5
5
5
5
5
5
5
5
5
5
5
5
5
5
5
5
5
5
5
5
5
5
5
5
5
5
5
5
5
5
5
5
5
5
5
5
5
5
5
5
5
5
5
5
5
5
5
5
5
5
5
5
5
5
5
5
5
5
5
5
5
5
5
5
5
5
5
5
5
5
5
5
5
5
5
5
5
5
5
5
5
5
5
5
5
5
5
5
5
5
5
5
5
5
5
5
5
5
5
5
5
5
5
5
5
5
5
5
5
5
5
5
5
5
5
5
5
5
5
5
5
5
5
5
5
5
5
5
5
5
5
5
5
5
5
5
5
5
5
5
5
5
5
5
5
5
5
5
5
5
5
5
5
5
5
5
5
5
5
5
5
5
5
5
5
5
5
5
5
5
5
5
5
5
5
5
5
5
5
5
5
5
5
5
5
5
5
5
5
5
5
5
5
5
5
5
5
5
5
5
5
5
5
5
5
5
5
5
5
5
5
5
5
5
5
5
5
5
5
5
5
5
5
5
5
5
5
5
5
5
5
5
5
5
5
5
5
5
5
5
5
5
5
5
5
5
5
5
5
5
5
5
5
5
5
5
5
5
5
5
5
5
5
5
5
5
5
5
5
5
5
5
5
5
5
5
5
5
5
5
5
5
5
5
5
5
5
5
5
5
5
5
5
5
5
5
5
5
5
5
5
5
5
5
5
5
5
5
5
5
5
5
5
5
5
5
5
5
5
5
5
5
5
5
5
5
5
5
5
5
5
5
5
5
5
5
5
5
5
5
5
5
5
5
5
5
5
5
5
5
5
5
5
5
5
5
5
5
5
5
5
5
5
5
5
5
5
5
5
5
5
5
5
5
5
5
5
5
5
5
5
5
5
5
5
5
5
5
5
5
5
5
5
5
5
5
5
5
5
5
5
5
5
5
5
5
5
5
5
5
5
5
5
5
5
5
5
5
5
5
5
5
5
5
5
5
5
5
5
5
5
5
5
5
5
5
5
5
5
5
5
5
5
5
5
5
5
5
5
5
5
5
5
5
5
5
5
5
5
5
5
5
5
5
5
5
5
5
5
5
5
5
5
5
5
5
5
5
5
5
5
5
5
5
5
5
5
5
5
5
5
5
5
5
5
5
5
5
5
5
5
5
5
5
5
5
5
5
5
5
5
5
5
5
5
5
5
5
5
5
5
5
5
5
5
5
5
5
5
5
5
5
5
5
5
5
5
5
5
5
5
5
5
5
5
5
5
5
5
5
5
5
5
5
5
5
5
5
5
5
5
5
5
5
5
5
5
5
5
5
5
5
5
5
5
5
5
5
5
5
5
5
5
5
5
5
5
5
5
5
5
5
5
5
5
5
5
5
5
5
5
5
5
5
5
5
5
5
5
5
5
5
5
5
5
5
5
5
5
5
5
5
5
5
5
5
5
5
5
5
5
5
5
5
5
5
5
5
5
5
5
5
5
5
5
5
5
5
5
5
5
5
5
5
5
5
5
5
5
5
5
5
5
5
5
5
5
5
5
5
5
5
5
5
5
5
5
5
5
5
5
5
5
5
5
5
5
5
5
5
5
5
5
5
5
5
5
5
5
5
5
5
5
5
5
5
5
5
5
5
5
5
5
5
5
5
5
5
5
5
5
5
5
5
5
5
5
5
5
5
5
5
5
5
5
5
5
5
5
5
5
5
5
5
5
5
5
5
5
5
5
5
5
5
5
5
5
5
5
5
5
5
5
5
5
5
5
5
5
5
5
5
5
5
5
5
5
5
5
5
5
5
5
5
5
5
5
5
5
5
5
5
5
5
5
5
5
5
5
5
5
5
5
5
5
5
5
5
5
5
5
5
5
5
5
5
5
5
5
5
5
5
5
5
5
5
5
5
5
5
5
5
5
5
5
5
5
5
5
5
5
5
5
5
5
5
5
5
5
5
5
5
5
5
5
5
5
5
5
5
5
5
5
5
5
5
5
5
5
5
5
5
5
5
5
5
5
5
5
5
5
5
5
5
5
5
5
5
5
5
5
5
5
5
5
5
5
5
5
5
5
5
5
5
5
5
5
5
5
5
5
5
5
5
5
5
5
5
5
5
5
5
5
5
5
5
5
5
5
5
5
5
5
5
5
5
5
5
5
5
5
5
5
5
5
5
5
5
5
5
5
5
5
5
5
5
5
5
5
5
5
5
5
5
5
5
5
5
5
5
5
5
5
5
5
5
5
5
5
5
5
5
5
5
5
5
5
5
5
5
5
5
5
5
5
5
5
5
5
5
5
5
5
5
5
5
5
5
5
5
5
5
5
5
5
5
5
5
5
5
5
5
5
5
5
5
5
5
5
5
5
5
5
5
5
5
5
5
5
5
5
5
5
5
5
5
5
5
5
5
5
5
5
5
5
5
5
5
5
5
5
5
5
5
5
5
5
5
5
5
5
5
5
5
5
5
5
5
5
5
5
5
5
5
5
5
5
5
5
5
5
5
5
5
5
5
5
5
5
5
5
5
5
5
5
5
5
5
5
5
5
5
5
5
5
5
5
5
5
5
5
5
5
5
5
5
5
5
5
5
5
5
5
5
5
5
5
5
5
5
5
5
5
5
5
5
5
5
5
5
5
5
5
5
5
5
5
5
5
5
5
5
5
5
5
5
5
5
5
5
5
5
5
5
5
5
5
5
5
5
5
5
5
5
5
5
5
5
5
5
5
5
5
5
5
5
5
5
5
5
5
5
5
5
5
5
5
5
5
5
5
5
5
5
5
5
5
5
5
5
5
5
5
5
5
5
5
5
5
5
5
5
5
5
5
5
5
5
5
5
5
5
5
5
5
5
5
5
5
5
5
5
5
5
5
5
5
5
5
5
5
5
5
5
5
5
5
5
5
5
5
5
5
5
5
5
5
5
5
5
5
5
5
5
5
5
5
5
5
5
5
5
5
5
5
5
5
5
5
5
5
5
5
5
5
5
5
5
5
5
5
5
5
5
5
5
5
5
5
5
5
5
5
5
5
5
5
5
5
5
5
5
5
5
5
5
5
5
5
5
5
5
5
5
5
5
5
5
5
5
5
5
5
5
5
5
5
5
5
5
5
5
5
5
5
5
5
5
5
5
5
5
5
5
5
5
5
5
5
5
5
5
5
5
5
5
5
5
5
5
5
5
5
5
5
5
5
5
5
5
5
5
5
5
5
5
5
5
5
5
5
5
5
5
5
5
5
5
5
5
5
5
5
5
5
5
5
5
5
5
5
5
5
5
5
5
5
5
5
5
5
5
5
5
5
5
5
5
5
5
5
5
5
5
5
5
5
5
5
5
5
5
5
5
5
5
5
5
5
5
5
5
5
5
5
5
5
5
5
5
5
5
5
5
5
5
5
5
5
5
5
5
5
5
5
5
5
5
5
5
5
5
5
5
5
5
5
5
5
5
5
5
5
5
5
5
5
5
5
5
5
5
5
5
5
5
5
5
5
5
5
5
5
5
5
5
5
5
5
5
5
5
5
5
5
5
5
5
5
5
5
5
5
5
5
5
5
5
5
5
5
5
5
5
5
5
5
5
5
5
5
5
5
5
5
5
5
5
5
5
5
5
5
5
5
5
5
5
5
5
5
5
5
5
5
5
5
5
5
5
5
5
5
5
5
5
5
5
5
5
5
5
5
5
5
5
5
5
5
5
5
5
5
5
5
5
5
5
5
5
5
5
5
5
5
5
5
5
5
5
5
5
5
5
5
5
5
5
5
5
5
5
5
5
5
5
5
5
5
5
5
5
5
5
5
5
5
5
5
5
5
5
5
5
5
5
5
5
5
5
5
5
5
5
5
5
5
5
5
5
5
5
5
5
5
5
5
5
5
5
5
5
5
5
5
5
5
5
5
5
5
5
5
5
5
5
5
5
5
5
5
5
5
5
5
5
5
5
5
5
5
5
5
5
5
5
5
5
5
5
5
5
5
5
5
5
5
5
5
5
5
5
5
5
5
5
5
5
5
5
5
5
5
5
5
5
5
5
5
5
5
5
5
5
5
5
5
5
5
5
5
5
5
5
5
5
5
5
5
5
5
5
5
5
5
5
5
5
5
5
5
5
5
5
5
5
5
5
5
5
5
5
5
5
5
5
5
5
5
5
5
5
5
5
5
5
5
5
5
5
5
5
5
5
5
5
5
5
5
5
5
5
5
5
5
5
5
5
5
5
5
5
5
5
5
5
5
5
5
5
5
5
5
5
5
5
5
5
5
5
5
5
5
5
5
5
5
5
5
5
5
5
5
5
5
5
5
5
5
5
5
5
5
5
5
5
5
5
5
5
5
5
5
5
5
5
5
5
5
5
5
5
5
5
5
5
5
5
5
5
5
5
5
5
5
5
5
5
5
5
5
5
5
5
5
5
5
5
5
5
5
5
5
5
5
5
5
5
5
5
5
5
5
5
5
5
5
5
5
5
5
5
5
5
5
5
5
5
5
5
5
5
5
5
5
5
5
5
5
5
5
5
5
5
5
5
5
5
5
5
5
5
5
5
5
5
5
5
5
5
5
5
5
5
5
5
5
5
5
5
5
5
5
5
5
5
5
5
5
5
5
5
5
5
5
5
5
5
5
5
5
5
5
5
5
5
5
5
5
5
5
5
5
5
5
5
5
5
5
5
5
5
5
5
5
5
5
5
5
5
5
5
5
5
5
5
5
5
5
5
5
5
5
5
5
5
5
5
5
5
5
5
5
5
5
5
5
5
5
5
5
5
5
5
5
5
5
5
5
5
5
5
5
5
5
5
5
5
5
5
5
5
5
5
5
5
5
5
5
5
5
5
5
5
5
5
5
5
5
5
5
5
5
5
5
5
5
5
5
5
5
5
5
5
5
5
5
5
5
5
5
5
5
5
5
5
5
5
5
5
5
5
5
5
5
5
5
5
5
5
5
5
5
5
5
5
5
5
5
5
5
5
5
5
5
5
5
5
5
5
5
5
5
5
5
5
5
5
5
5
5
5
5
5
5
5
5
5
5
5
5
5
5
5
5
5
5
5
5
5
5
5
5
5
5
5
5
5
5
5
5
5
5
5
5
5
5
5
5
5
5
5
5
5
5
5
5
5
5
5
5
5
5
5
5
5
5
5
5
5
5
5
5
5
5
5
5
5
5
5
5
5
5
5
5
5
5
5
5
5
5
5
5
5
5
5
5
5
5
5
5
5
5
5
5
5
5
5
5
5
5
5
5
5
5
5
5
5
5
5
5
5
5
5
5
5
5
5
5
5
5
5
5
5
5
5
5
5
5
5
5
5
5
5
5
5
5
5
5
5
5
5
5
5
5
5
5
5
5
5
5
5
5
5
5
5
5
5
5
5
5
5
5
5
5
5
5
5
5
5
5
5
5
5
5
5
5
5
5
5
5
5
5
5
5
5
5
5
5
5
5
5
5
5
5
5
5
5
5
5
5
5
5
5
5
5
5
5
5
5
5
5
5
5
5
5
5
5
5
5
5
5
5
5
5
5
5
5
5
5
5
5
5
5
5
5
5
5
5
5
5
5
5
5
5
5
5
5
5
5
5
5
5
5
5
5
5
5
5
5
5
5
5
5
5
5
5
5
5
5
5
5
5
5
5
5
5
5
5
5
5
5
5
5
5
5
5
5
5
5
5
5
5
5
5
5
5
5
5
5
5
5
5
5
5
5
5
5
5
5
5
5
5
5
5
5
5
5
5
5
5
5
5
5
5
5
5
5
5
5
5
5
5
5
5
5
5
5
5
5
5
5
5
5
5
5
5
5
5
5
5
5
5
5
5
5
5
5
5
5
5
5
5
5
5
5
5
5
5
5
5
5
5
5
5
5
5
5
5
5
5
5
5
5
5
5
5
5
5
5
5
5
5
5
5
5
5
5
5
5
5
5
5
5
5
5
5
5
5
5
5
5
5
5
5
5
5
5
5
5
5
5
5
5
5
5
5
5
5
5
5
5
5
5
5
5
5
5
5
5
5
5
5
5
5
5
5
5
5
5
5
5
5
5
5
5
5
5
5
5
5
5
5
5
5
5
5
5
5
5
5
5
5
5
5
5
5
5
5
5
5
5
5
5
5
5
5
5
5
5
5
5
5
5
5
5
5
5
5
5
5
5
5
5
5
5
5
5
5
5
5
5
5
5
5
5
5
5
5
5
5
5
5
5
5
5
5
5
5
5
5
5
5
5
5
5
5
5
5
5
5
5
5
5
5
5
5
5
5
5
5
5
5
5
5
5
5
5
5
5
5
5
5
5
5
5
5
5
5
5
5
5
5
5
5
5
5
5
5
5
5
5
5
5
5
5
5
5
5
5
5
5
5
5
5
5
5
5
5
5
5
5
5
5
5
5
5
5
5
5
5
5
5
5
5
5
5
5
5
5
5
5
5
5
5
5
5
5
5
5
5
5
5
5
5
5
5
5
5
5
5
5
5
5
5
5
5
5
5
5
5
5
5
5
5
5
5
5
5
5
5
5
5
5
5
5
5
5
5
5
5
5
5
5
5
5
5
5
5
5
5
5
5
5
5
5
5
5
5
5
5
5
5
POINT_DATA 2538
VECTORS disp float
1.580077699480631e-11 3.765050917900413e-11 0.0
3.054287510419792e-11 -8.232944394252557e-11 0.0
0.00349999999033344 2.449389847302442e-11 0.0
0.003499999966695277 -9.104715172467594e-11 0.0
0.0011848199932068641 0.00048236163705493723 0.0
0.0025333378491599126 0.00022330999295202538 0.0
0.0017246634014636173 9.066760228588728e-5 0.0
3.4400599482897727e-12 1.4087604105369491e-12 0.0
6.929573707502481e-12 7.611387690213587e-12 0.0
6.025008858883605e-12 4.125807562460174e-12 0.0
5.672278425037449e-12 3.7848714450376416e-12 0.0
5.038367851050319e-12 2.6363845663023618e-12 0.0
4.5803658674953714e-12 1.6961199714385155e-12 0.0
4.146871149615984e-12 8.15489433932739e-13 0.0
3.819363675832448e-12 -1.4185546469577622e-13 0.0
3.2495103701000742e-12 -1.1948430805441112e-12 0.0
3.4867030819186213e-12 -2.192385672249311e-12 0.0
3.373690975988207e-12 -3.3839889944227184e-12 0.0
3.462059759837018e-12 -4.675042055969648e-12 0.0
3.663089000361142e-12 -5.976545882384467e-12 0.0
3.696628958343284e-12 -7.1620048473466655e-12 0.0
4.022949194345089e-12 -8.595951700636799e-12 0.0
4.079506708436062e-12 -9.737364130800537e-12 0.0
4.369116036805591e-12 -1.1133420405586602e-11 0.0
4.544954588794276e-12 -1.2664023194642912e-11 0.0
4.779755227579925e-12 -1.411786433936863e-11 0.0
5.085013860527258e-12 -1.588756075990978e-11 0.0
5.480378594915035e-12 -1.789117880995912e-11 0.0
6.1309767872245524e-12 -2.040609830311271e-11 0.0
6.251613021152751e-12 -2.309278079432103e-11 0.0
8.715973355930667e-12 -2.97079298069369e-11 0.0
4.062960015667676e-12 -2.6643290366045225e-11 0.0
4.472037671079463e-5 -5.5914486572867644e-5 0.0
7.774246005042e-5 -9.576710549146895e-5 0.0
0.00010969095481987613 -0.00013034347488909798 0.0
0.0001401511690420542 -0.00016164610474779002 0.0
0.00016955005289423373 -0.00019069472548429684 0.0
0.00019847683998979232 -0.00021828676396778694 0.0
0.00022741359486876898 -0.00024451096904967376 0.0
0.00025608928257693926 -0.0002696017709322363 0.0
0.00028476415234112367 -0.0002938017717807738 0.0
0.0003135189677679028 -0.00031710163194322385 0.0
0.00034236536034858156 -0.00033971533499776475 0.0
0.0003715385645626519 -0.00036163544607211443 0.0
0.00040082009618098063 -0.0003828644986001847 0.0
0.00043035103966568923 -0.00040357327755137853 0.0
0.00046031630686134504 -0.000423700057568716 0.0
0.0004903938113095237 -0.00044323295848114347 0.0
0.0005208005717377265 -0.00046229399671335574 0.0
0.000551533125699006 -0.0004807761926971251 0.0
0.0005825624751831912 -0.0004987930810167324 0.0
0.000613906992105715 -0.000516335717254485 0.0
0.0006456061726896678 -0.0005334036848008183 0.0
0.0006775870061771093 -0.0005499883747074917 0.0
0.0007100481528007309 -0.0005661590364480986 0.0
0.0007426662328996058 -0.0005818303101069812 0.0
0.0007758148103411578 -0.0005970745840286266 0.0
0.0008090926390606567 -0.0006118167974465478 0.0
0.0008427757758613794 -0.0006261433881008463 0.0
0.0008767143534695689 -0.0006399585696498205 0.0
0.0009111171723710106 -0.0006533714733831432 0.0
0.0009456256025974062 -0.0006663132156274482 0.0
0.0009806033158516994 -0.0006788349616030069 0.0
0.0010158198158123676 -0.0006908483174284378 0.0
0.0010513717975831882 -0.0007024348847455694 0.0
0.0010871219966216445 -0.0007135343820504402 0.0
0.0011232946687649973 -0.0007242020490815816 0.0
0.0011595527947063347 -0.0007343469532441738 0.0
0.00119614183452938 -0.0007440306862660272 0.0
0.001232897231301011 -0.0007531508917709224 0.0
0.0012698995732252697 -0.0007617311553075952 0.0
0.001307099408482748 -0.0007698811777167435 0.0
0.001344452476932526 -0.0007774284795530388 0.0
0.00138208135441529 -0.000784535795078463 0.0
0.0014199065566832987 -0.000791076273210109 0.0
0.0014578431214006937 -0.0007971736944413062 0.0
0.001495987318152658 -0.0008026518476183314 0.0
0.0015341112821562932 -0.0008076632287014057 0.0
0.001572446589624036 -0.0008121691692237865 0.0
0.0016108000901428074 -0.0008161028436437843 0.0
0.0016492248021895688 -0.000819590025421036 0.0
0.0016878054344875478 -0.0008225010519608096 0.0
0.0017260819704118763 -0.0008247624524808404 0.0
0.001764729187518204 -0.0008265949152481773 0.0
0.0018027081410523142 -0.0008277666490247642 0.0
0.0018411425773563299 -0.0008284294931379262 0.0
0.0018782147320138447 -0.0008283970341057767 0.0
0.001916095890815206 -0.0008278231002262165 0.0
0.001952577389481363 -0.0008265460198297159 0.0
0.0019889022041175122 -0.0008242493699978913 0.0
0.0020250494161614375 -0.0008215020101619245 0.0
0.002061084594276931 -0.0008175496074660333 0.0
0.0020966958970954895 -0.0008131470223983545 0.0
0.0021322238653830737 -0.000807647635154728 0.0
0.002168133314364248 -0.000801484417414055 0.0
0.002203574862782644 -0.0007938170947619631 0.0
0.002239640021077734 -0.0007852576614061819 0.0
0.0022760349819510475 -0.0007757589808694024 0.0
0.0023119720005226846 -0.0007652468911713965 0.0
0.0023482097125846267 -0.0007540624355795142 0.0
0.0023847634247264127 -0.0007420602617111484 0.0
0.002421435226468677 -0.0007293459627375438 0.0
0.002457877776306254 -0.000716031428143097 0.0
0.0024946063193988567 -0.0007019480090600657 0.0
0.002531006748781288 -0.0006872795036899891 0.0
0.002567329582809308 -0.000672196966340744 0.0
0.0026037562518708723 -0.0006564159053114957 0.0
0.002639813515403331 -0.0006401886238219586 0.0
0.0026758163259821936 -0.0006234170154339253 0.0
0.0027115909376227145 -0.0006061340970971025 0.0
0.0027473377951918437 -0.0005883231788211431 0.0
0.00278290074201988 -0.0005699256019597682 0.0
0.0028182696335286445 -0.0005509771230123345 0.0
0.0028532629097948875 -0.0005315197147580144 0.0
0.0028881451206009532 -0.0005115311245005729 0.0
0.0029229146073412424 -0.0004909184725727317 0.0
0.0029573909778118305 -0.00046972861792245256 0.0
0.0029917635163347043 -0.00044799298600115423 0.0
0.0030261592416040103 -0.00042551608665264824 0.0
0.0030603080560678846 -0.00040233277083813755 0.0
0.003094278460765659 -0.0003784942389885723 0.0
0.003128383772784865 -0.00035383682147736265 0.0
0.0031626143677924274 -0.00032821704147901435 0.0
0.0031967697828711914 -0.00030158778731302594 0.0
0.003230941586888684 -0.000273919219656576 0.0
0.0032654077467929557 -0.00024493755872303315 0.0
0.0033005992242904508 -0.00021428773216333394 0.0
0.0033360631281954016 -0.00018174838755517775 0.0
0.0033722004895660415 -0.0001465566385626199 0.0
0.0034105821344329 -0.00010739663449674137 0.0
0.003450026147102895 -6.228906964764636e-5 0.0
0.0034999999952976947 -2.5825131907296923e-11 0.0
0.0034999999901393275 -2.865828110410168e-11 0.0
0.00349999999334195 -1.870347481765725e-11 0.0
0.0034999999933709018 -1.636612815676529e-11 0.0
0.0034999999938897827 -1.3590252415950784e-11 0.0
0.0034999999941796403 -1.1613940403519512e-11 0.0
0.0034999999943006394 -1.0146307848050296e-11 0.0
0.003499999994521599 -8.838007713399322e-12 0.0
0.003499999994602417 -7.646500373497072e-12 0.0
0.003499999994774123 -6.508919415079646e-12 0.0
0.0034999999949980563 -5.595030264233919e-12 0.0
0.003499999995086841 -4.4215552967240325e-12 0.0
0.0034999999952234537 -3.542967252412186e-12 0.0
0.003499999995358225 -2.5036507427072984e-12 0.0
0.003499999995432369 -1.5043285312509e-12 0.0
0.003499999995455786 -4.1519080601490454e-13 0.0
0.0034999999955104976 6.81192306341507e-13 0.0
0.003499999995101994 1.9538826968107475e-12 0.0
0.0034999999954449497 2.9954791378884493e-12 0.0
0.0034999999947388197 4.353215764352314e-12 0.0
0.0034999999947550563 5.2602026186568095e-12 0.0
0.003499999994514424 6.244868818154256e-12 0.0
0.0034999999947102085 6.501257769774165e-12 0.0
0.0034999999947285393 8.599118512408313e-12 0.0
0.0034999999972700384 3.761079594327176e-12 0.0
0.0032370567030892052 0.00016027451714836595 0.0
0.0030136437785274186 0.00023248480666837083 0.0
0.0028152505860784723 0.0002508327422120115 0.0
0.002646553538946413 0.00024035928755961972 0.0
0.002529384927524304 0.00011939992310988253 0.0
0.0025138334122164854 6.466521851971956e-5 0.0
0.0024719411594921747 4.0926849048201585e-5 0.0
0.00242031750771338 3.945088720105351e-5 0.0
0.002360495676907774 4.877798751092947e-5 0.0
0.002297548816558615 5.9395767496386916e-5 0.0
0.0022324187711945166 6.933687672080849e-5 0.0
0.002166001786236849 7.965368709032937e-5 0.0
0.0020969202560466756 8.795817419610913e-5 0.0
0.0020245428800549758 9.373504705491976e-5 0.0
0.001945185149839574 9.6766953618866e-5 0.0
0.0018512397061148152 9.794249482763235e-5 0.0
0.0016109108329942765 0.0001291567510892358 0.0
0.0015306517698620264 0.0001431044586724716 0.0
0.0014645428496336934 0.000150293760549172 0.0
0.0014070718105112655 0.00015573736776753323 0.0
0.001355117849644442 0.00016085848231230492 0.0
0.0013082697679327288 0.00016656409619389471 0.0
0.0012662758496357048 0.0001741044224398926 0.0
0.0012306395978137117 0.0001848566227610543 0.0
0.0012029908183544553 0.00020330749553821933 0.0
0.0011841713486302591 0.0002324097771763443 0.0
0.001180583480582476 0.0002848961535158259 0.0
0.0011806815927340884 0.00036141771212751586 0.0
0.0010539969219989457 0.0004957244593993608 0.0
0.0008659283147350104 0.0004725962313406312 0.0
0.0006073407190588138 0.0003870126497350527 0.0
0.0003230436564353527 0.0002515179253770779 0.0
0.0009174123801277404 -0.0006260114834431133 0.0
0.0024507815348289476 -0.0006803268000062605 0.0
0.0011699932461265805 -0.0007095641685240756 0.0
0.002191495072281852 -0.0007628120062373246 0.0
0.0014376259977990392 -0.0007664288707754035 0.0
0.0019309734680249219 -0.000793845024443917 0.0
0.0016673086145582304 -0.0007912479363048725 0.0
0.002671767730283282 -0.0005933021626095732 0.0
0.0007209980424247045 -0.0005474376302753956 0.0
0.0028409295560322006 -0.0005061959772063527 0.0
0.0005607980113557131 -0.000465149228142191 0.0
5.752388554795496e-5 -1.032775879648113e-5 0.0
0.003439287431427694 -8.74067439343645e-6 0.0
0.001866587021879486 0.00011631075249063629 0.0
0.0021365740326588075 0.00010338104231516022 0.0
0.0015828792208924176 0.00013158703455046884 0.0
0.001361705418086977 0.00017180856923116168 0.0
0.003017749316276087 -0.00040531724485371384 0.0
0.00041482143959570815 -0.0003756529563557394 0.0
4.102569606099802e-5 -1.8383175382547356e-5 0.0
0.0034566968207217236 -1.4705865248144795e-5 0.0
0.0034142872387257976 2.748466006512973e-6 0.0
7.660724589681877e-5 2.67393743703482e-6 0.0
0.003155183360768359 -0.00030956504972126994 0.0
0.0002933727128446199 -0.000283077708567263 0.0
0.0023267047471405393 8.121446182479513e-5 0.0
0.0012183939529393304 0.00019134845365484263 0.0
3.1231392558783805e-5 -1.96338700971434e-5 0.0
0.00346547475507454 -1.67709166453193e-5 0.0
0.0013245639488080718 -0.0007451645130411953 0.0
0.0015511322761133965 -0.0007813879218643467 0.0
0.002081554001351175 -0.000781200929532666 0.0
0.0017860830345074986 -0.0007944512377799938 0.0
0.0023016814080024767 -0.0007329193370282958 0.0
0.0025541136982238388 -0.0006446707147284205 0.0
0.0010692893054941835 -0.0006803320670532855 0.0
0.0008196638996394708 -0.0005923967772380407 0.0
0.0032539588494526544 -0.00023282794919519392 0.0
0.0002053681392259966 -0.00020980527230703966 0.0
0.003390612786528264 2.09532214740887e-5 0.0
9.765450541584548e-5 1.593565560588845e-5 0.0
0.0034713008277496 -1.951555045733791e-5 0.0
2.9263947024303064e-5 -2.3838524095875173e-5 0.0
0.00244714633576243 6.598786890189243e-5 0.0
0.0011445054464280903 0.00022373687632806875 0.0
0.003345674413869194 3.882164689631114e-5 0.0
0.0001392755577444954 3.209104327199134e-5 0.0
4.897174482849634e-5 -1.55923986843115e-5 0.0
0.003447787864572218 -1.2776142099089613e-5 0.0
0.002001693849399311 0.00011470466364063273 0.0
0.0014704329890183542 0.00016102746507613155 0.0
0.00011422673498023421 -0.00012121180823683788 0.0
0.0033687318408476942 -0.00013141465521489856 0.0
0.00237264396325079 -0.0007131285651696452 0.0
0.001859292544036188 -0.0007968664351100823 0.0
0.001251943625953092 -0.0007290195782295532 0.0
0.0009916918304207056 -0.0006570723035670541 0.0
0.00200906786711854 -0.0007884552830225174 0.0
0.0027375714856129048 -0.0005619925035338618 0.0
0.0006566739104209459 -0.0005151948158341913 0.0
0.0029142649017355605 -0.00046775699185498074 0.0
0.0004958844753086793 -0.0004257397923271411 0.0
0.0003507554589110375 -0.00032836917728733343 0.0
0.0030866290979830583 -0.00035851429610452967 0.0
0.0007187621655700415 0.0002546746795065914 0.0
0.0028970788229605612 0.00016180067189177277 0.0
0.0034718243460702147 -2.422298322803463e-5 0.0
2.5479154671206362e-5 -2.4474469748063493e-5 0.0
0.0011126019747575721 0.0003086287820668346 0.0
0.002550027132294085 9.968624302244353e-5 0.0
0.00016209366792911776 5.096453461603346e-5 0.0
0.0033410455177564275 4.763448852555237e-5 0.0
5.004157188093123e-5 -5.430795379055543e-5 0.0
0.0034418141373496313 -5.9675520944700565e-5 0.0
0.002718910730961875 0.00016702000637248092 0.0
0.002767349176820832 0.00014253162416366666 0.0
0.002985458232635286 0.00012143987755879096 0.0
0.002858271787857324 0.00012968656028572795 0.0
0.0026885629244674746 0.0001324272411891852 0.0
0.002748681780892525 0.0001369247611241526 0.0
0.002911961638532746 0.0001230847477337898 0.0
0.00280997545178462 0.0001332262112511256 0.0
0.0029642777823025664 0.00011280929021938204 0.0
0.0028708684191521 0.00012103631305388927 0.0
0.002726329039759144 0.00013833191939474938 0.0
0.002782776429252864 0.000124244111311792 0.0
0.002658750345310781 0.00013816200923230442 0.0
0.0027048374910491686 0.0001221274709544697 0.0
0.0025923931610427457 0.00013415932561934417 0.0
0.0026341490393624314 0.00011469012902145724 0.0
0.001823267079239678 7.621321622031498e-5 0.0
0.0017187616767692401 5.934580294613156e-5 0.0
0.0017989962588358334 5.106448819955176e-5 0.0
0.0017141798632073877 3.892022869864016e-5 0.0
0.0017845992596102523 3.188941330605108e-5 0.0
0.0017114770843202393 2.251559279077018e-5 0.0
0.0017752075737815399 1.5718372698031197e-5 0.0
0.0017089002577354994 7.483573863928771e-6 0.0
0.0017682919735886743 1.0512585702527829e-6 0.0
0.001706663771882691 -6.511007610222196e-6 0.0
0.0017629752657890177 -1.256848821732076e-5 0.0
0.0017048058085532365 -1.971983132145792e-5 0.0
0.0017587716870935298 -2.5887937559351567e-5 0.0
0.0017046974912144981 -3.262835913292442e-5 0.0
0.0017554016451881902 -3.876811512183178e-5 0.0
0.0017032642286504034 -4.5350537280378483e-5 0.0
0.0017523007735791897 -5.139486466601271e-5 0.0
0.0017002323474495959 -5.789934361634851e-5 0.0
0.0017492364519266306 -6.393709793901255e-5 0.0
0.0016984736618497218 -7.032053825872258e-5 0.0
0.0017465998004107042 -7.646692022636704e-5 0.0
0.0016969462767539043 -8.276801451303572e-5 0.0
0.0017425934611538906 -8.895423788632428e-5 0.0
0.0016951434455874806 -9.531303800996085e-5 0.0
0.0017399996145421042 -0.00010156364638722501 0.0
0.001694245619979399 -0.00010766005953981582 0.0
0.0017376970097349822 -0.00011428279015630192 0.0
0.001690348880443217 -0.00011964879181101959 0.0
0.0017349017077852129 -0.00012711082175753766 0.0
0.001677630737354734 -0.00013271408104570018 0.0
0.0017351526037525042 -0.00014037106510034824 0.0
0.0016867283133334312 -0.00014678423389187387 0.0
0.0017325615879522542 -0.00015371951117785108 0.0
0.001686694322799568 -0.00016046638320479218 0.0
0.001730716022564516 -0.00016745659809809957 0.0
0.0016879320100362642 -0.0001742955463384123 0.0
0.001728678564690202 -0.00018143216951553286 0.0
0.0016869852926316405 -0.0001886402414477897 0.0
0.0016508760236638093 1.4122208247114185e-6 0.0
0.0017266020724960801 -0.00019580287209420687 0.0
0.0016493213657495069 -6.348891473501137e-5 0.0
0.0016343797824665061 -0.00014334277002287014 0.0
0.0016826613302332557 -0.00020315062461435428 0.0
0.001724193601251792 -0.00021054278623175538 0.0
0.0016783853628830677 -0.0002185670891701353 0.0
0.0016375896870724264 -0.00020974578047699372 0.0
0.0016321786162702848 -0.00022589955765525436 0.0
0.001720054006350922 -0.0002265747267953433 0.0
0.0017664596124615523 -0.00021797657105329578 0.0
0.0017766471180335546 -0.00014645833566522793 0.0
0.0017625893659330815 -0.00023448042852498076 0.0
0.0018118585453675193 -0.00022427383407172717 0.0
0.001806356791121506 -0.00024232010096015435 0.0
0.001591834243239279 -0.0002166420730767831 0.0
0.0015880783416785877 -0.00023246145842947209 0.0
0.0018571627244886968 -0.00023120563123960432 0.0
0.001545162994510469 -0.00022268300854060835 0.0
0.0015440374274337551 -0.0002392532493285413 0.0
0.0018524909856801833 -0.0002494781309740716 0.0
0.0019016893002328332 -0.0002391960375991165 0.0
0.0014981661713891362 -0.00022879114728837832 0.0
0.0014959394046651724 -0.0002458318804482914 0.0
0.0018980739068379076 -0.0002573627705755332 0.0
0.0019486601368946534 -0.0002464500725938612 0.0
0.0014513665593094839 -0.00023483988130660582 0.0
0.001448697034268039 -0.0002528704112151114 0.0
0.0019448853882044622 -0.00026556936118135626 0.0
0.0019968419749088013 -0.0002535670782026648 0.0
0.0014049502108347011 -0.00023989854181243595 0.0
0.001399203740813516 -0.0002584503952742625 0.0
0.001993669632671491 -0.0002731809713908759 0.0
0.0020459228881820187 -0.0002604808025109952 0.0
0.001353957023199567 -0.000244901357777608 0.0
0.0013494318163605355 -0.0002644675283518151 0.0
0.0013015352282893964 -0.00025099853462460104 0.0
0.0013058785612438772 -0.00023029204554050046 0.0
0.0019368884146253773 -0.0002844260871005693 0.0
0.0020424642373757826 -0.00028087846834480877 0.0
0.00209577311957207 -0.00026724042352909387 0.0
0.0021000937737189786 -0.00024627892226856295 0.0
0.0017891577661579866 -8.301036854249446e-5 0.0
0.0021519757538199192 -0.0002526205191505324 0.0
0.002156743336400279 -0.00023084586482298046 0.0
0.002210320126317027 -0.0002364504716544714 0.0
0.001301067267801017 -0.00027209606174896135 0.0
0.001251063313269691 -0.00025633887143178296 0.0
0.0013480838281257589 -0.00028546581157816767 0.0
0.002090728799329613 -0.0002887236782145694 0.0
0.0012512447727546978 -0.0002779487244092506 0.0
0.0012006701351704387 -0.00026097334946964936 0.0
0.0018104986971501317 -3.100166133129244e-5 0.0
0.001200740043263977 -0.0002820909769482339 0.0
0.0011502411429381648 -0.00026481541050372634 0.0
0.0011505194948946945 -0.00028640660553526376 0.0
0.0011007110007044086 -0.0002675369469686104 0.0
0.0010993499823016904 -0.000246486291413734 0.0
0.0010468584912927243 -0.00024974717411559865 0.0
0.0010462979719391716 -0.0002275219121556002 0.0
0.0010950984652387675 -0.00028879507650563565 0.0
0.0009899300445975424 -0.00023097103348377403 0.0
0.0009889685029117203 -0.00020821210929696844 0.0
0.001151274837358176 -0.00030921893686933037 0.0
0.001104170520502959 -0.0003133977946752839 0.0
0.0009339287250153611 -0.0002098636385054318 0.0
0.000931098948171276 -0.0001876560950270755 0.0
0.0022166101802164723 -0.00021437656753933663 0.0
0.0022723712222979617 -0.0002196307080762738 0.0
0.0011519795350020169 -0.00033230046151364815 0.0
0.0011055064361914443 -0.00033629995429948245 0.0
0.0022793261919265913 -0.00019684504127071405 0.0
0.002337804415063432 -0.0002022184493101352 0.0
0.0023282865674629505 -0.000227205419805933 0.0
0.0023941788354055788 -0.00020837815909809833 0.0
0.0023856045507926415 -0.00023392170490126632 0.0
0.002451581722664883 -0.0002130802050972456 0.0
0.002446159080672324 -0.00023833923385587302 0.0
0.0025143658145057716 -0.00021481433675868945 0.0
0.0025031414004062914 -0.00024063391499311524 0.0
0.0025197758858320524 -0.00019059293451012841 0.0
0.0025723242793763 -0.00021742210578424426 0.0
0.002557416927238254 -0.000243115436730995 0.0
0.0011532764643140043 -0.00035580472098868914 0.0
0.0008731128961981558 -0.0001886954168023223 0.0
0.0008691813884674883 -0.00016610913482993287 0.0
0.0024939040957611693 -0.0002670305140282106 0.0
0.0025459083200104838 -0.000269035776220382 0.0
0.0026083863582163974 -0.00024469766403781057 0.0
0.0024868363952740913 -0.0002938549896755572 0.0
0.0011079330196529234 -0.0003599233361692178 0.0
0.002596816482490207 -0.0002701000227061496 0.0
0.0026579438791877754 -0.00024509235995571875 0.0
0.0011545088583271778 -0.00037996119359660175 0.0
0.001110055629206529 -0.00038422091682688823 0.0
0.001064196283671839 -0.0003633841734574679 0.0
0.002645660593330244 -0.00027002733102532954 0.0
0.0027060992255817044 -0.00024407380403074878 0.0
0.0011556481370900236 -0.0004048528237582146 0.0
0.0011996346111382893 -0.0004002072326070566 0.0
0.0010668580480613465 -0.00038786163766592926 0.0
0.0010213888229657344 -0.00036633568306408416 0.0
0.0026917111958342467 -0.0002689916277385874 0.0
0.0027535725878021955 -0.00024194431000570032 0.0
0.0027672679466386476 -0.00021794678894615263 0.0
0.002631059273222251 -0.00029610211729059793 0.0
0.0028149739808697827 -0.00021493395354226197 0.0
0.0028301782446927275 -0.0001916405026019334 0.0
0.0008076840500665887 -0.0001669769671562108 0.0
0.0008069953444423942 -0.00014365077454127362 0.0
0.0008809186657849034 -0.00014410909058348327 0.0
0.0008041521543755669 -0.0001205304505780516 0.0
0.0008754011577846397 -0.00011741319870962281 0.0
0.0008006678676611222 -9.606994468216453e-5 0.0
0.0008702290081458316 -9.154200001406134e-5 0.0
0.0012006601642020212 -0.00042536364924672864 0.0
0.0012435871712336167 -0.0004201966833384218 0.0
0.0010243614864560943 -0.0003909958172319325 0.0
0.0009792868428472126 -0.0003687190052736919 0.0
0.002800274236653817 -0.00023885807994566933 0.0
0.00080471037358605 -7.13793968221522e-5 0.0
0.0008707885844106797 -6.556679136349644e-5 0.0
0.0012446456925977313 -0.00044540878030339883 0.0
0.0012865694080614698 -0.00044006610209020643 0.0
0.001501875371096061 -0.00026231002019949266 0.0
0.0028612650840193123 -0.00021107534482217084 0.0
0.001842146575953007 2.7727903009381233e-5 0.0
0.0019182936069241324 0.00010698345062868782 0.0
0.0016476028485003817 -0.00010115099518869413 0.0
0.0023422299098305598 -0.00017887904826866254 0.0
0.0007992672574420217 -4.456649746065209e-5 0.0
0.0008766690022056887 -3.8168920139128774e-5 0.0
0.0009826845456168288 -0.0003935486008878095 0.0
0.0009382269257309505 -0.0003706936420469756 0.0
0.0012882370811170651 -0.00046543378376304976 0.0
0.0013298286854787934 -0.0004597910103462394 0.0
0.002845245562038803 -0.0002347277100938204 0.0
0.0007430508140708105 -0.00014454786483488442 0.0
0.0007458611033004542 -0.0001679224246682532 0.0
0.0007219549075738385 -7.407957513169057e-5 0.0
0.002906085538533578 -0.00020631609146906546 0.0
0.000799382557788069 -1.842536888358923e-5 0.0
0.0008776731050532781 -9.521785132985511e-6 0.0
0.0012469543192945396 -0.00047142812232997024 0.0
0.0009422360172710845 -0.0003958637951466497 0.0
0.0008979880880429679 -0.00037204627058848305 0.0
0.002283905100771199 -0.0001739842064298614 0.0
0.0023495685036191297 -0.00015526205606813018 0.0
0.002287706740208758 -0.00015050724173581455 0.0
0.002357094452435547 -0.00013148740684280577 0.0
0.0013309044404600976 -0.0004850784132491222 0.0
0.00137288400075124 -0.0004784575929082567 0.0
0.0014559663234758693 -0.00021867397094257294 0.0
0.0007993315719073104 7.569733652549633e-6 0.0
0.0008760448545586306 1.8782904128347067e-5 0.0
0.0028903845466241064 -0.00022930088822732659 0.0
0.002835408030914106 -0.00025579935581188963 0.0
0.0007826783634630542 3.563801160634694e-5 0.0
0.0008718391858585328 4.825191585912416e-5 0.0
0.0029493961800045516 -0.00020110534427532286 0.0
0.002958382192671885 -0.00018405566736367325 0.0
0.0007929282143464337 6.2292386396405e-5 0.0
0.0009852110183838265 -0.00042123484207663383 0.0
0.001373251565128438 -0.0005044545551528327 0.0
0.001414934216676207 -0.0004967289521198501 0.0
0.0014152231530733552 -0.00047094947192523914 0.0
0.0014572159446390716 -0.0004885843400111755 0.0
0.0014579767437414388 -0.0004630912502354204 0.0
0.001500171546170331 -0.00048001345747492155 0.0
0.0015012592095211437 -0.0004544576843801067 0.0
0.0015440872106940408 -0.00047089490498962043 0.0
0.00154562513293058 -0.0004454256906337133 0.0
0.0015887983970354004 -0.00046111415876219316 0.0
0.0015871937415459594 -0.00048726249109106107 0.0
0.0016316967449380158 -0.0004767799201557394 0.0
0.0016298164933230437 -0.0005033610357753335 0.0
0.0016741209332657592 -0.0004921489835671938 0.0
0.0016716843128708246 -0.0005192146559377766 0.0
0.0017163522639567408 -0.0005071963480989624 0.0
0.0015909289882961096 -0.0004358051443179231 0.0
0.0017189391325199066 -0.0004801787704267167 0.0
0.0017617668116416232 -0.0004943399110715631 0.0
0.001758491512289653 -0.000522309128722983 0.0
0.0018044943165854055 -0.000508702538683421 0.0
0.0006799228202411258 -0.00014450752001449332 0.0
0.0006825756425481199 -0.00016752152688974346 0.0
0.000902321017207498 -0.00039729272549240697 0.0
0.0008589305996600079 -0.0003730554955444686 0.0
0.0018084186420045402 -0.00048091079809541796 0.0
0.0018511807031720584 -0.0004941741504302327 0.0
0.0018465657081523713 -0.0005225931943439191 0.0
0.0018941273967921705 -0.000507083821380533 0.0
0.0006183149939399544 -0.00014354977637117425 0.0
0.0006211572959254264 -0.00016583975534101633 0.0
0.0022918695870297115 -0.00012607039720049728 0.0
0.0023658256569284806 -0.00010697706781597078 0.0
0.0022983183104618816 -0.00010151686623945695 0.0
0.002935173655467703 -0.00022254608321927525 0.0
0.002992026475926534 -0.00019478471937559144 0.0
0.0014150985114466997 -0.0005235330465835726 0.0
0.0009542776183537272 -6.407564837760634e-5 0.0
0.0018041252707719408 -0.0002589602773778031 0.0
0.0018887619914249735 -0.0005360763262512551 0.0
0.001936524142452492 -0.0005196499023268132 0.0
0.0019411367489961873 -0.0004906240693955932 0.0
0.001984469118979281 -0.0005020125268993891 0.0
0.0019077846899174513 -0.00021993734222103462 0.0
0.002378608161838596 -8.162555579783613e-5 0.0
0.002441317230306509 -9.154701126312838e-5 0.0
0.0008746526344269828 7.769558549248239e-5 0.0
0.0008631326762673572 -0.0003980918733345962 0.0
0.0008205504177880059 -0.00037334299982767966 0.0
0.002306747609085713 -7.59667010461838e-5 0.0
0.0019786579925232793 -0.0005319166063828511 0.0
0.0020274451350657885 -0.0005138527592509467 0.0
0.0020333091900034315 -0.00048394601024064787 0.0
0.0020773506776850786 -0.0004950926473331249 0.0
0.002084274412794282 -0.0004659779958059645 0.0
0.002127659010975334 -0.0004755603486052648 0.0
0.002119729124047382 -0.0005051080781737858 0.0
0.0021695639744393996 -0.00048440264561111393 0.0
0.0007916637457392958 8.714141099614341e-5 0.0
0.0005587274964876409 -0.0001415520394733246 0.0
0.0005613853019466162 -0.00016271967856376678 0.0
0.0013747227001904728 -0.0005315124718878991 0.0
0.002975764128951611 -0.00021731835029505865 0.0
0.003032950356043884 -0.00018801827265622927 0.0
0.002160495042276738 -0.0005142705839230389 0.0
0.0022095324459652723 -0.0004924903177470051 0.0
0.0008784504020091688 0.00010551025376996226 0.0
0.0008253051566347726 -0.00039847042075911597 0.0
0.0007826666399241416 -0.0003727565492927323 0.0
0.0009546710972680635 2.9971594954520083e-5 0.0
0.0027451803611622774 0.000102408518739153 0.0
0.0014153500779076928 -0.0005510446561812498 0.0
0.0007919473268534952 0.00010968402048484893 0.0
0.0007286580723080282 -3.279109584521895e-6 0.0
0.0030111413791099858 -0.00021640393256402735 0.0
0.0030726171163580496 -0.00018132376411296656 0.0
0.003089790407446726 -0.00015949024269455993 0.0
0.0007078922869399979 6.967411329580768e-5 0.0
0.002951435505005796 -0.0002446330650612362 0.0
0.0005522287278875673 -0.00012029314980516004 0.0
0.0008642261141045155 -0.0004220162302044063 0.0
0.0023910797543299027 -5.5395682351986574e-5 0.0
0.002316654749159833 -4.945010460613178e-5 0.0
0.0021358559774301263 -0.0004469444662609377 0.0
0.000787929591824059 -0.000398521668754921 0.0
0.0007453518433113825 -0.0003720205268037772 0.0
0.0005010451539784081 -0.00013837780435957934 0.0
0.000503412956717703 -0.00015809570058937395 0.0
0.0009346234950444653 -0.0003469644829275835 0.0
0.0021992302905587124 -0.0005225546441289788 0.0
0.0022476285559022745 -0.000499416276943358 0.0
0.0007399890018228926 -0.000346830706478315 0.0
0.0007024876844358893 -0.00034531471132701877 0.0
0.002153627291259739 -0.0005429784741417144 0.0
0.0013765130926557372 -0.0005592965202805992 0.0
0.0007086637880690733 -0.00037096019484703037 0.0
0.0006659151522924905 -0.0003434913674390251 0.0
0.0014579727297628292 -0.0004387039379867702 0.0
0.003129941427045323 -0.00015147656103467228 0.0
0.0031465392655798214 -0.0001324609443944235 0.0
0.003113424239625221 -0.00017269343391314873 0.0
0.0022359494917126676 -0.0005293420098191132 0.0
0.002283939880596888 -0.0005050736705252607 0.0
0.002090909292115256 -0.0004376828212394488 0.0
0.0021435991013977924 -0.00041921179343688565 0.0
0.0014160702093243636 -0.0005791646006375106 0.0
0.002296276963068224 -0.000475726041558859 0.0
0.002332630266294169 -0.0004807473499162196 0.0
0.00044439291193791754 -0.00013320149886405586 0.0
0.0004491649590330811 -0.000152253405568994 0.0
0.002319498458606869 -0.0005109489334373024 0.0
0.0023674419872611193 -0.0004856253810361013 0.0
0.0006733659716165084 -0.0003696610240441884 0.0
0.0006305182790871684 -0.0003413581424909037 0.0
0.0024038633054707507 -2.8264519691384076e-5 0.0
0.0023286183458840672 -2.1927129873020397e-5 0.0
0.000622645092320153 -0.00031641774522365047 0.0
0.0005870706933833103 -0.00031320405393154145 0.0
0.0005947638523622934 -0.00033856730219874857 0.0
0.0005515052124781696 -0.0003096101906929123 0.0
0.003168974457586477 -0.00014288560100804044 0.0
0.003152111490843441 -0.00016435808684211323 0.0
0.0008786771683580827 0.00012913039295455825 0.0
0.0007848674157175119 0.00012874260239630322 0.0
0.002230609199027128 -9.498997395617032e-5 0.0
0.001378290888722738 -0.0005876749823804122 0.0
0.0023539502186015384 -0.0005171404561596997 0.0
0.0024010586320946476 -0.0004906010040178034 0.0
0.0025239189927002614 0.00012642126819375533 0.0
0.0023458428521117196 -0.00045165587023839694 0.0
0.001628199084219654 -0.0005306801354348312 0.0
0.000542643219678514 -0.0002855008132586924 0.0
0.0005080855173889948 -0.00028068367566833194 0.0
0.0005171708298182809 -0.00030577297350225824 0.0
0.00047358083969089264 -0.0002757525143331642 0.0
0.00046452728775416783 -0.00025214242231324537 0.0
0.0004289349404499803 -0.000246220207751444 0.0
0.00041960804225932546 -0.0002231830027835875 0.0
0.00038346064754628495 -0.00021605588820365984 0.0
0.000374196748495444 -0.00019456789566762035 0.0
0.0003400410103651387 -0.00018698481878224387 0.0
0.00033023331631013133 -0.00016725234600451468 0.0
0.00034862382720295923 -0.00020785259217719691 0.0
0.0003013890379500533 -0.0001742391041678772 0.0
0.00039180219031614605 -0.00012711521487366768 0.0
0.00039020243325413366 -0.00011016906324280183 0.0
0.00031419222674917865 -0.00019869657725249062 0.0
0.000270976629889858 -0.00016769112502240045 0.0
0.0009649128137307298 0.00012237539429082173 0.0
0.0010361697793968294 -0.00020311774170621305 0.0
0.002097787275607508 -0.00041040705789389243 0.0
0.002150546912402571 -0.000392390329311189 0.0
0.0006203511542406958 -0.00018657474093172917 0.0
0.0014167806368499593 -0.000608038588601607 0.0
0.0014548534165483012 -0.0005990093102109301 0.0
0.002196717680020414 -0.00040020866748401043 0.0
0.0022040950495062304 -0.00037350871217317014 0.0
0.0032067823059927737 -0.0001336600829625171 0.0
0.003187557307555128 -0.00015636149108437509 0.0
0.0031339183249146354 -0.00019013728986033216 0.0
0.0022413425929244855 -4.339509619533783e-5 0.0
0.0022524267397425407 -1.601508953121679e-5 0.0
0.0013390398946809313 -0.0005671586499942685 0.0
0.0013410666542618484 -0.0005956268746605776 0.0
0.0013024022635136235 -0.0005747467808174057 0.0
0.00048447941512081815 -0.0003016829621130743 0.0
0.002341680725721606 6.436891674956308e-6 0.0
0.0022650394584470017 1.3032014987990758e-5 0.0
0.0009340979657691393 -0.00023354259690366454 0.0
0.002386752082468901 -0.0005234202499746354 0.0
0.0024340494308109023 -0.0004957591403996798 0.0
0.0024489936420242072 -0.0004643663142871173 0.0
0.0024818439089736638 -0.00046839398647403836 0.0
0.0009019708443253926 0.00015191065420330562 0.0
0.0007897911749351525 0.00014655686884547253 0.0
0.0012842969680580344 -0.0004157574806863247 0.0
0.002340971500651967 -0.0005507772872585722 0.0
0.0029179503419148496 0.00010438494973631575 0.0
0.002466412840801897 -0.0005020951829939557 0.0
0.0025146111189606295 -0.0004735272819425562 0.0
0.0025302017440189113 -0.00044083521420429296 0.0
0.002563509950873228 -0.0004449152214331461 0.0
0.002579994309794839 -0.0004128108970057051 0.0
0.0026129309055362877 -0.00041598313437110927 0.0
0.0025961512499358343 -0.00045000796217696456 0.0
0.0026451201774497736 -0.0004200604304677871 0.0
0.0002811720550068996 -0.00018766306027700335 0.0
0.0002390119598592819 -0.00015631088335933487 0.0
0.00022364310563871535 -0.00013494802743084522 0.0
0.0014554277969748956 -0.0006283245339197203 0.0
0.0014919538358412145 -0.0006200082861053554 0.0
0.0013049818610278117 -0.0006033664321167744 0.0
0.0012664563711239523 -0.0005818391713163985 0.0
0.0031671846053444148 -0.00018407065395824936 0.0
0.0032201950006320893 -0.00014893994453403747 0.0
0.0024851303386974675 0.00014322131552528658 0.0
0.0024202010431165957 0.00013549445725739433 0.0
0.0006835174789721335 0.00012207710862054854 0.0
0.0006864300593775569 0.0001370443235598165 0.0
0.0003250301383528613 -0.00022214394667649696 0.0
0.0011997614543135333 -0.00032773199096309646 0.0
0.002212396231223227 -0.00014743671483135213 0.0
0.0031151628345276816 -0.00022007976480346685 0.0
0.000941761124357973 -0.0001091685968609338 0.0
0.002166141587783686 -3.78206128683755e-5 0.0
0.0026271680864024503 -0.0004561432538382586 0.0
0.0026760308053378383 -0.00042511208437887607 0.0
0.0026583537409573844 9.217881975970764e-5 0.0
0.0027830415903239898 8.034553599151834e-5 0.0
0.0008929256288949741 0.00016880657931782317 0.0
0.0005053211009430655 -0.00017749530558623094 0.0
0.0003317588286349349 -0.00010249303676949043 0.0
0.0003311570393885539 -8.707886000099045e-5 0.0
0.0005262990814233758 -0.0003323517499409282 0.0
0.0025015812580167197 -0.0005093372519481933 0.0
0.0020358469894052227 -0.0003017292953531136 0.0
0.0018426880499490728 -0.0005519299886761833 0.0
0.0011591217204740987 -0.000429351120491378 0.0
0.0002492256480857709 -0.00017594565037139755 0.0
0.0002084403118567641 -0.00014412307761847208 0.0
0.000716036684605816 -0.00039805357393574473 0.0
0.002250936047612532 -0.0003803956882299272 0.0
0.0022587788612384294 -0.0003539699166707558 0.0
0.0013417712468145218 -0.0006252670648071048 0.0
0.002714323872314752 6.720435081218963e-5 0.0
0.0028209229635316633 5.837295375045541e-5 0.0
0.0027566222665980976 4.3188289587790156e-5 0.0
0.0028598482919685686 3.61480522243719e-5 0.0
0.0029222863460394875 4.982640164893793e-5 0.0
0.0029602574889750193 2.9720900835467897e-5 0.0
0.0028969169476805467 1.4118965941468041e-5 0.0
0.002993911682192432 1.0112675571205308e-5 0.0
0.002931080648482093 -6.823037809434294e-6 0.0
0.003026041843265235 -8.057421152719359e-6 0.0
0.002964748660908876 -2.6538971850552496e-5 0.0
0.003055614467188573 -2.4533332224522998e-5 0.0
0.0029958715212786958 -4.458048784576563e-5 0.0
0.0030835801456538478 -3.927612596719209e-5 0.0
0.0029013451215295083 -4.8925461296068e-5 0.0
0.003025188014040269 -6.0263961317279675e-5 0.0
0.0031076416229222016 -5.2582516787768956e-5 0.0
0.003024433005673481 4.078800560221949e-5 0.0
0.0006955643590822508 -0.0003205266194437899 0.0
0.0006816671744273034 -0.0003971686569187835 0.0
0.0007227920047670949 -0.0004258807875549762 0.0
0.0030528808331729586 -7.381936854326361e-5 0.0
0.0031311952797158076 -6.360257604250445e-5 0.0
0.0029746510606304334 -8.26190167961526e-5 0.0
0.00188341526538586 -0.0005658877101361795 0.0
0.0018380753007652846 -0.0005817430460080526 0.0
0.0018779176508777592 -0.000596237472633741 0.0
0.0018340889025115535 -0.0006122436349496338 0.0
0.0018727090455700468 -0.0006272883439698495 0.0
0.0018308434074488908 -0.0006434204053509061 0.0
0.0017922757045711036 -0.0006277639700314662 0.0
0.0017900412701301464 -0.0006587754026893011 0.0
0.0017524880444960045 -0.000642439280727846 0.0
0.0016268733100640736 5.377172399133175e-5 0.0
0.001868181125954194 -0.0006592383154033143 0.0
0.0019096132654265888 -0.0006421650059437632 0.0
0.0015817247898353667 -0.0002497076258152852 0.0
0.001547133625364008 -0.00042074516932342614 0.0
0.001593124204598514 -0.0004112879868292942 0.0
0.001548730934657007 -0.00039681253939729947 0.0
0.0015953559485787651 -0.0003875650766962713 0.0
0.0015504583476773318 -0.00037366576168824955 0.0
0.0015976520484194848 -0.00036467210186903856 0.0
0.0016427663713742956 -0.00037784601038102047 0.0
0.0016455438213146263 -0.0003552280626093058 0.0
0.0016908922468142577 -0.0003676994028210361 0.0
0.0016939866394195251 -0.0003453468706466134 0.0
0.0017375549469208472 -0.00035705271643763373 0.0
0.0016484880992187255 -0.00033277208079505094 0.0
0.0015523228945715836 -0.0003512792931630948 0.0
0.001505009971396658 -0.00035962735234595526 0.0
0.0017340046436733125 -0.0003803276423594 0.0
0.0017831746017140115 -0.0003675852182289628 0.0
0.0006898509732205509 -0.000425503379050212 0.0
0.0016425906229194042 -0.00016740559021685133 0.0
0.0016513826754628053 -2.705570906867854e-5 0.0
0.0018559123169609234 -0.0004668371199339275 0.0
0.003223111467696641 -0.0001155956848827616 0.0
0.0032592204969029634 -0.00010609007418601654 0.0
0.001801144173090319 -5.669430541659796e-5 0.0
0.001784564887728595 -0.00010596315344882078 0.0
0.002545771166840744 -0.00041040261461455915 0.0
0.0022003440244104445 -0.00025904008228070795 0.0
0.003200850741404056 -0.0001762685673889554 0.0
0.003251225306638417 -0.00014124035422477389 0.0
0.0017744020318528784 -0.00017461244003093995 0.0
0.0012694198209040417 -0.000610776942973511 0.0
0.0012310813550784412 -0.000588681568701149 0.0
0.0018248314134029742 -4.098879809225927e-6 0.0
0.0017504231495347417 -0.0006734285563863453 0.0
0.0017127380506561688 -0.0006552192098096517 0.0
0.0012281780854879602 -0.0005601233662357248 0.0
0.0011924455790100006 -0.0005664195414715153 0.0
0.0011893862601505471 -0.000538183808211974 0.0
0.001153474233971504 -0.0005438581638136638 0.0
0.0011572551953133658 -0.0005724986549801303 0.0
0.0011184241042090759 -0.0005492981768328933 0.0
0.0011225647964976915 -0.0005783029128306321 0.0
0.0010837653338525617 -0.000554509823126899 0.0
0.0004956668292381074 -0.0003291335118043529 0.0
0.003274803894207316 -9.081901684089211e-5 0.0
0.002354109592239842 3.531281886775122e-5 0.0
0.0022755945397990715 4.149478128226478e-5 0.0
0.0010639647281088234 -0.0003176992564001032 0.0
0.0008589912373421641 -0.0003489905288104522 0.0
0.0031604860122638094 -3.552784791388057e-5 0.0
0.0031180888037013496 -9.744420672373684e-6 0.0
0.0014917819055808655 -0.0006491675771240039 0.0
0.0015291948737408431 -0.0006399162467570551 0.0
0.0023725387804449057 -0.0005583908479046816 0.0
0.00045839952898654447 -0.0002296023197492315 0.0
0.0020008504012087084 -0.00023484384169538845 0.0
0.0021889628399954005 1.84645096158983e-5 0.0
0.002198689449265707 4.672988031642997e-5 0.0
0.0025971370078738563 -0.00038295831108122434 0.0
0.002668989971998708 -0.00022046765957918163 0.0
0.002694668314398401 -0.00039051988945677644 0.0
0.002726272444491396 -0.0003937527558679315 0.0
0.0027057796144484008 -0.0004313871159649503 0.0
0.0027567929132658524 -0.0003984751664748776 0.0
0.0015538796692708106 -0.00020702498607820562 0.0
0.0005352502324625802 -0.00035991524996404484 0.0
0.0017381237757663395 -0.00033435260769912133 0.0
0.002833884734433493 -6.754359752082181e-6 0.0
0.0014996101187163627 -0.000591702163761445 0.0
0.0007290248879102405 -0.00045427391909059795 0.0
0.0007621018130795625 -0.0004544507012993394 0.0
0.002328317566796387 -0.0005861442574946781 0.0
0.0011497344192135895 -0.0005161520250910837 0.0
0.0021039964851987183 -0.0003841092957072448 0.0
0.002051550000627622 -0.0004010472161182975 0.0
0.0032319311721478667 -0.00016906913597476364 0.0
0.0032821592402520272 -0.00013230115499316563 0.0
0.0032994777496991702 -0.00010984516540073823 0.0
0.0010005839233805753 0.0001744775293163857 0.0
0.0002187284150600295 -0.0001629248520151541 0.0
0.00017865319406732436 -0.00013000106058391986 0.0
0.00017264314538149907 -0.00011619318103377067 0.0
0.0023838246150274713 0.00014955573166458108 0.0
0.002443779751267819 0.00015204372452194082 0.0
0.002321414506790231 0.0001421715642980629 0.0
0.002479627767972086 -3.486942896521811e-5 0.0
0.003079634463787945 -8.404460991658838e-5 0.0
0.0031563840555803462 -7.154866425673405e-5 0.0
0.0012345121002288392 -0.0006180259651913855 0.0
0.0024258240212063666 -0.00013594720552159874 0.0
0.0005783092560707139 0.00011083181490977804 0.0
0.0005752769517431915 0.00012187486229002564 0.0
0.0006909157041917272 0.00014982755828371329 0.0
0.0005692040896447863 0.0001301255044099014 0.0
0.0007321188221212165 0.0001691055288527112 0.0
0.0017109852181222815 -0.0006238300499206879 0.0
0.001078814535534814 -0.0005260093515235711 0.0
0.0010450523999272002 -0.0005306776187957272 0.0
0.0010498689563824702 -0.0005595539770909821 0.0
0.001011550714683564 -0.0005352204843272958 0.0
0.002776072944137454 -0.0003627457338425295 0.0
0.0028065288191241387 -0.00036651101243116984 0.0
0.002787337916100016 -0.0004041727676730269 0.0
0.002835983504130958 -0.0003712018824569384 0.0
0.0022105529212201654 -0.0003473251980283144 0.0
0.0022659922000452964 -0.00032838688745894337 0.0
0.0019047328879058104 -0.0006746402265176577 0.0
0.0019453573599980593 -0.0006566752607006055 0.0
0.0015066263267072527 -0.0003375043058793504 0.0
0.0014590837648123503 -0.00034529033174277523 0.0
0.0014511037775305324 -0.0006591453914923122 0.0
0.001016456646692166 -0.0005639774019937026 0.0
0.00097885941008446 -0.0005394417908913012 0.0
0.0030815318400129925 -0.00022519331256467905 0.0
0.0030624581559950655 -0.0002575135676150949 0.0
0.003030205377876822 -0.0002610812373501291 0.0
0.0030158401771100043 -0.00029210699640914794 0.0
0.0015286651678159053 -0.00067148332989866 0.0
0.00025603161493468823 -0.0001953522368117857 0.0
0.0003673887222830504 -0.00017538992206233612 0.0
0.000318273389942184 -0.0001478154372113316 0.0
0.00027045801046511185 -7.883645200828412e-5 0.0
0.0002665944793774865 -6.486642901721373e-5 0.0
0.00033123868332224 -7.140918397538517e-5 0.0
0.00026416421420504 -5.105350372174679e-5 0.0
0.00033143220721820374 -5.5163127518922295e-5 0.0
0.0002620805501590418 -3.7124232584977684e-5 0.0
0.00033285971260444563 -3.849719902924492e-5 0.0
0.0030952263974639346 -0.00025345062598792497 0.0
0.00100515366539689 -0.000507225124070455 0.0
0.0025616227158125958 -0.00038240214658365906 0.0
0.002296543434015625 -0.0005765442205216623 0.0
0.002285102598920492 -0.0006135030883506981 0.0
0.0022539593691332104 -0.0006033735440188513 0.0
0.0017117217914011057 -0.0006869678178233348 0.0
0.002415387639805887 2.5206299579740046e-5 0.0
0.0028170089937602826 -0.00041056087860447555 0.0
0.0033304659245773855 -9.909245164231039e-5 0.0
0.0033122726627306106 -0.00012220930681184456 0.0
0.0009904466850910905 0.0001869673972265532 0.0
0.002345524562086602 6.070802743102993e-5 0.0
0.0018122113347891458 -0.00045418787546780095 0.0
0.001859499934931024 -0.0004404458465594594 0.0
0.0017894155965838042 -0.0006909661854282118 0.0
0.001674339834556384 -0.000668000687673392 0.0
0.0007539400507241609 -0.00019443300554334623 0.0
0.0032047597249130855 -5.33250313687384e-5 0.0
0.0032282495892840524 -5.881666868321969e-5 0.0
0.003178985824903122 -7.769767093492979e-5 0.0
0.003248141652958283 -6.353024763748244e-5 0.0
0.0026757870450496504 -0.00029443329671963056 0.0
0.002016430420250974 -0.000545198284026947 0.0
0.0020570874961791047 -0.00037541739508037034 0.0
0.0015009411356193831 -0.000506655791620108 0.0
0.00215924335143679 -0.00020916648959931955 0.0
0.00230597680909472 -0.00036006325903186013 0.0
0.0023082128119742353 -0.0004476831074838335 0.0
0.002358753830339111 -0.00042397606414231153 0.0
0.0023384089761030657 0.00015328680122724878 0.0
0.0024117453939175118 0.00015065485109655972 0.0
0.0007676530848443231 -0.00048309014259712165 0.0
0.0007992660538598007 -0.00048231073930237166 0.0
0.00026062050545596743 -2.301232555877644e-5 0.0
0.00033191160016672545 -2.1575548194442906e-5 0.0
0.0004061473157638451 -3.7907632879549055e-5 0.0
0.00040797466626554135 -1.787083841178093e-5 0.0
0.00033309601495118277 -4.995702406965414e-6 0.0
0.00041292488225446654 1.8405467880000522e-6 0.0
0.00033614591077635856 1.0836142911265928e-5 0.0
0.00042073830365811025 2.113479450622537e-5 0.0
0.0003397465209627692 2.5736508794412294e-5 0.0
0.0001893700176119032 -0.00014866606380522832 0.0
0.0020048767050016092 -0.000391283518361724 0.0
0.00015043635115041272 -0.00011526915426542464 0.0
0.0006976107438626454 -0.00045444562392216544 0.0
0.0033115800696455733 -8.029566781688685e-5 0.0
0.0016370269204036276 -0.0004256470481964936 0.0
0.0021141680879664905 2.3190515573676586e-5 0.0
0.002127761141723673 5.336102141038809e-5 0.0
0.00042818761898142857 3.970625485689367e-5 0.0
0.0005061607918455496 -0.0003575285261215796 0.0
0.00046717411609210576 -0.00032605208804640357 0.0
0.0010551243400012357 -0.0005940866171529964 0.0
0.0023549898674726025 -0.0005971192226906101 0.0
0.0012721567324656944 -0.0006406692053624331 0.0
0.002865084520169303 -0.0003762950837982129 0.0
0.0033471219140279577 -8.097670459264113e-5 0.0
0.0014578066443934976 -0.0003677304569842857 0.0
0.0014121237432903173 -0.0003526163574618346 0.0
0.0014110542272687875 -0.00037544095178373255 0.0
0.0010857514845730497 0.0001889062495288615 0.0
0.0013680328075229373 -0.0003596558552641051 0.0
0.0002795529928367129 -9.435709921071922e-5 0.0
0.0019398696735985702 -0.0006900051298329066 0.0
0.0019804639647504146 -0.0006709973554474418 0.0
0.001986802542306572 -0.0006378853737534981 0.0
0.0020213501305377515 -0.0006511697043832486 0.0
0.0023970434016689253 -0.00042733097528792417 0.0
0.002410927256300305 -0.000399520869218214 0.0
0.0033251096851455294 -6.827912854894296e-5 0.0
0.003287207461103245 -7.828680399441659e-5 0.0
0.0022248243657264333 7.906558361921773e-5 0.0
0.002143352676821377 8.604134290509199e-5 0.0
0.0006592059563864554 -0.000425310692599284 0.0
0.0009839872394393455 -0.0005684020095097614 0.0
0.0009470898382901257 -0.0005435402490507146 0.0
0.0017138357536393186 -0.00024399319827707935 0.0
0.0027696150950615693 -0.0004446640759709592 0.0
0.00034498838088291197 3.9687235657393286e-5 0.0
0.0009410175641102709 -0.000514510093923938 0.0
0.0020141908822412504 -0.0006851085630199008 0.0
0.0020542169589178112 -0.0006640921100133343 0.0
0.002009278667343269 -0.00036688705761439805 0.0
0.0019580531417848074 -0.0003811763306153786 0.0
0.0019620427683449057 -0.0003575263855336621 0.0
0.0018123679170428879 -0.0002091199266178427 0.0
0.0002764461311844557 -0.00013768270922246624 0.0
0.0001611176941971163 -0.00013334067048330562 0.0
0.0020291130617231634 -0.0006182265688356398 0.0
0.00208631755484889 -0.00031037667036105417 0.0
0.0016740571534554132 -0.0007000572958031526 0.0
0.000682023590573142 -0.00012179104957871441 0.0
0.0012024683090076523 -0.00024148901468837522 0.0
0.0005442510156115528 -0.0003897881812810564 0.0
0.00288443535098354 -0.00033892900975603476 0.0
0.0007362366658101569 -0.0003227222574891526 0.0
0.000689179776667233 -0.0002963274908561174 0.0
0.0007334868551031454 -0.00029896146169117914 0.0
0.0006846145621884654 -0.00027288628753774927 0.0
0.0007302249515271339 -0.00027553871996524647 0.0
0.0006398866785089137 -0.00026968386972195466 0.0
0.002243237547891256 -0.0006405580325528144 0.0
0.0022148364676734225 -0.0006294512406639093 0.0
0.000462549919571966 9.304302067988545e-5 0.0
0.0017121446884892917 -0.0007190301803954693 0.0
0.0016691338371707181 -0.000547028074371217 0.0
0.0016264391641765946 -0.0005585770141512688 0.0
0.0008053502132387284 -0.0005115301629938298 0.0
0.0002165489633043898 -6.964315965451533e-5 0.0
0.00022983417502534908 -8.624657990226193e-5 0.0
0.0031032098538157004 -0.00014111809132775861 0.0
0.0031612541947779035 -0.00011569138240776301 0.0
0.0004831065614416398 -3.483305898224542e-5 0.0
0.0008364252727099203 -0.0005095970004506082 0.0
0.0008325083034268389 -0.0004827877383217084 0.0
0.000842459769059506 -0.0005392728273628699 0.0
0.0007749149508015175 -0.0005129824364936689 0.0
0.0005855922529426046 0.00014442108677776175 0.0
0.0012997855388495075 -0.0005469513327630966 0.0
0.001999644528694634 -0.0004173168090900165 0.0
0.003114447394020557 -0.0001243906691309237 0.0
0.001900301005412231 -0.0007082211783714151 0.0
0.0012372976641024079 -0.0006483997686676517 0.0
0.0033586078775188232 -8.859711959483948e-5 0.0
0.0033401244797499822 -0.00011240140030965729 0.0
0.0011019934218633278 0.0001760948428744965 0.0
0.0009532787197662132 -0.0005734132918344976 0.0
0.0022162739045472513 -0.00032101976356606213 0.0
0.002276403992543558 -0.00030243430635683847 0.0
0.00036097414641280036 -0.0001569292363217818 0.0
0.0004779831050455369 -0.000354550309363228 0.0
0.000440189539126384 -0.0003230536384024779 0.0
0.00042865943685933936 -0.0002956402726170375 0.0
0.0006674046602353437 -0.00045461025699703274 0.0
0.00012322245924180852 -9.94098642724119e-5 0.0
0.00011485032078511642 -8.60165138647392e-5 0.0
0.0020461191334874905 -0.0006989467764401466 0.0
0.0020850938079091017 -0.0006768445010391437 0.0
0.002092980230295515 -0.0006406856249911475 0.0
0.002826233928276385 -0.000332094947642681 0.0
0.0027945695693106483 -0.0003303735366112011 0.0
0.0027980481532853037 -0.00045295881137342466 0.0
0.0006346772895644406 -0.00024692338351005376 0.0
0.0005909785573975519 -0.00024398842872484016 0.0
0.0023248711225083746 -0.0003086296893782867 0.0
0.003293983207404374 -4.659320507891548e-5 0.0
0.003311589002414404 -4.9769989717499454e-5 0.0
0.0033323940245225257 -5.9619740076682174e-5 0.0
0.003284822412097289 -0.000158891417189016 0.0
0.0001996663876300908 -0.00016950061157817317 0.0
0.0021551434331052947 -6.144206958293724e-5 0.0
0.002086220496215156 -5.6920705296940084e-5 0.0
0.0020757133020230163 -7.756940139686074e-5 0.0
0.0020107456669414743 -7.375854619330538e-5 0.0
0.002004526782958062 -9.338738341822635e-5 0.0
0.00201516568138227 -5.4655558703678846e-5 0.0
0.001815798719666879 -0.00042835258241801487 0.0
0.0014603814188790616 -0.0003236265777287204 0.0
0.001508492081349609 -0.00031608099593418055 0.0
0.0004509889158710861 -0.00035142888361477085 0.0
0.0004136489334430635 -0.0003189600607163137 0.0
0.0029829272905075887 5.8878242294530333e-5 0.0
0.003087645733794645 4.7794356202006046e-5 0.0
0.0031292090951458833 3.0423831990345887e-5 0.0
0.0031911399003746142 3.547418176517085e-5 0.0
0.0031645361169152873 5.003548589937191e-5 0.0
0.0016384050269243602 -0.0006814039982990329 0.0
0.0016381317803693088 -0.0006512133786461342 0.0
0.0016374205043538114 -0.0007128278350970156 0.0
0.002039524240167355 2.643294358481401e-5 0.0
0.0020286836594067426 1.4293878343704235e-6 0.0
0.00048383660320208986 -5.698494398545965e-5 0.0
0.0002539800157773275 2.4485405477119132e-5 0.0
0.0022028866026398016 -0.0006670779676580309 0.0
0.0005770410748102957 9.791543059723858e-5 0.0
0.002242159741885862 -0.00040738591211450406 0.0
0.002077716494153442 -9.740668796187158e-5 0.0
0.001998673004980721 -0.00011260446363386979 0.0
0.0020587042939622115 -0.00011876733513751069 0.0
0.0019924985745116757 -0.0001315022290472876 0.0
0.002049176347544212 -0.00013807514242912745 0.0
0.0019866473462843326 -0.00015050400459604632 0.0
0.0020415989550122207 -0.0001573611745998054 0.0
0.0019811570834635797 -0.00016978432604386403 0.0
0.0020369349208709596 -0.00017684407687367483 0.0
0.0019325798039845036 -0.00012479515098373701 0.0
0.001926191260238509 -0.00016245730683893698 0.0
0.0022733994995963944 -0.0006521199019984853 0.0
0.003370044625378986 -5.407180951788354e-5 0.0
0.001186818443915423 -0.0005109173067830263 0.0
0.0011456065656088319 -0.0004898622695162815 0.0
0.003180558488758312 -0.00020850643658922832 0.0
0.0013711574563552132 -0.00034046450212987285 0.0
0.0019431867101723144 -8.784260284785111e-5 0.0
0.0007324111531425876 0.0001838886561140416 0.0
0.00020263547794211525 -4.5118694996358584e-5 0.0
0.0011873276333011736 0.0001883950770526484 0.0
0.001193997043923385 0.00017385064350976042 0.0
0.0026044864134443196 7.14704122783928e-5 0.0
0.0032110474637168517 -0.000202276943427211 0.0
0.003161982180295988 -0.00024354709729537436 0.0
0.0013657558165460913 -0.00038255762686268503 0.0
0.0013270160128101827 -0.0003631785099817577 0.0
0.0005735937078239761 -0.00036813615470606363 0.0
0.00013388757325508044 -0.00011666978878020348 0.0
0.00016339281334122553 -5.804829917147586e-5 0.0
0.0001692224679246643 -6.886720421812909e-5 0.0
9.674762982917293e-5 -8.223515637798397e-5 0.0
0.0023703062946042585 -0.0003967507449600365 0.0
0.0024237489999930865 -0.0003729904428163338 0.0
0.0024651017671800724 -0.000374996223123562 0.0
0.0024776070605784495 -0.00034846948418465435 0.0
0.0019221796841572684 -0.00018073575636689602 0.0
0.000868812956584606 0.00020174821958281026 0.0
0.001093515159635192 0.00019884209399344233 0.0
0.001911357936861907 -0.0003707667705236484 0.0
0.0019157898897138956 -0.0003472968124645715 0.0
0.0014628264549088094 -0.0003034742123010308 0.0
0.001250180694240248 -0.00030011789424207186 0.0
0.0012749813051252435 -0.000671492959182117 0.0
0.0025803023443824336 -0.00048686084090361197 0.0
0.0026099282616456553 -0.000495137478291541 0.0
0.002565253526076883 -0.0005263689415218422 0.0
0.0025940486427511057 -0.000536810430801195 0.0
0.0025509885549946697 -0.0005681787446901529 0.0
0.0025220913789917873 -0.0005574980914804014 0.0
0.0024487845777467856 -0.0005445083666958197 0.0
0.0022217840117317216 -0.0005932359247910865 0.0
0.0023558346781760884 0.0001230706431179903 0.0
0.00179789150234297 -0.0005671026026689632 0.0
0.0004999931388712176 1.1573139407733955e-5 0.0
0.003318705776149532 -0.0001430404198612948 0.0
0.0033655393807529585 -0.00010221993807950125 0.0
0.002638263073860067 -0.0005046077782169347 0.0
0.002623006866799065 -0.0005471090030656294 0.0
0.0026656522009354906 -0.0005150081082780421 0.0
0.0013086717271917838 -0.0006634321449820934 0.0
0.001585965653417846 -0.0005416578927694588 0.0
0.0015856586801814526 -0.0005690835540722904 0.0
0.001624971956607767 -0.0005870244971890328 0.0
0.001074115071719342 -0.00041719461011948934 0.0
0.0015453136749028814 -0.0005514912745901136 0.0
0.001993996788418259 -0.0006064722019188242 0.0
0.002847093125246442 -0.00030017546498274536 0.0
0.0029129266645765333 -0.0003424592482776717 0.0
0.0028931162141989223 -0.00038213875849337604 0.0
0.002939269618097444 -0.0003026620311517627 0.0
0.0004064298621353209 -7.629090401985975e-5 0.0
0.001161274243522333 -0.0006020207424978948 0.0
0.001127471606588321 -0.0006083398875224192 0.0
0.0011650307046652789 -0.0006322455826818803 0.0
0.0011327956008832449 -0.0006390159967716861 0.0
0.0025188875590410084 -0.00034932430094320496 0.0
0.0007059556693263607 -0.00048450852943419205 0.0
0.0006312136401005164 -0.0004256156977583788 0.0
0.003265195292513221 -6.828104888647678e-5 0.0
0.00019323965917930402 -2.2342715361175834e-5 0.0
0.00019218863046205104 -1.1705649068493523e-5 0.0
0.0021732915505252386 -0.0006506749420225791 0.0
0.002167140236104507 -0.0006915535336546692 0.0
0.0017678850480220068 -0.0004412955425807727 0.0
0.00323184268097024 2.047253986367033e-5 0.0
0.0006388475543133858 -0.00045467561018047546 0.0
0.0026109078089281645 0.00013479110615575795 0.0
0.0030453048573535783 -0.00023071586599242094 0.0
0.0030757574007171046 9.68667322347876e-5 0.0
0.0031108159162313363 8.61666453567877e-5 0.0
0.002435905269305662 -0.00034709005946917263 0.0
0.002614766143690595 -0.0003554735820143393 0.0
0.0026506658988131575 -0.0003552599516148494 0.0
0.0023270012701089 0.00014113491892212758 0.0
0.002395511947690463 0.00013573740273808738 0.0
0.0024840739363998893 0.00014692658895216736 0.0
0.0020065678276446064 -0.0007202618111986127 0.0
0.0009875089032410987 -0.0005978141217239606 0.0
0.0015029250564168434 -0.00040586175997089154 0.0
0.002161051219030797 -0.000340702404896357 0.0
0.0019018153778340523 -0.0004515183749921978 0.0
0.0019344793973615163 -0.0007245300842179718 0.0
0.0008721210142545018 -0.000536428093958919 0.0
0.0011090528144173093 -0.0004938929889996657 0.0
0.0004551582518042581 -0.0001723125754315608 0.0
0.003276418552228816 2.3590993867954704e-5 0.0
0.002511151099825345 -0.00040949888032191167 0.0
0.00031004819024558117 -0.00013097869469122974 0.0
0.000871679431765967 0.00022126533322178044 0.0
0.0019227812367971395 -0.0005796562577453225 0.0
0.0025082749594277395 -0.0005998042998577937 0.0
0.0024779029993771983 -0.000588657084988631 0.0
0.0022197799438354797 -0.00046325157421837145 0.0
0.0023321512525172456 -0.0002837337283910699 0.0
0.001019045507589785 -0.00034327143488466146 0.0
0.00158487883931431 -0.0006020958224907782 0.0
0.002139463743448278 -0.0002960976409985559 0.0
0.0011045769922230165 -0.0004679074483130491 0.0
0.0010674462026071627 -0.0004711556952730526 0.0
0.0008780777515041768 -0.0005666178368723452 0.0
0.0005597806634496413 -5.4786983731621296e-5 0.0
0.0005629066386939773 -3.1113260970288665e-5 0.0
0.0002594912069527851 3.460339910468559e-5 0.0
0.00035664066285968996 5.354570614211548e-5 0.0
0.0027525710947362576 -0.0004870639187006843 0.0
0.0004098331921631063 -0.00018385373274154308 0.0
0.0005967124451023332 -0.00026676837464287956 0.0
0.0005478786529080504 -0.00024014878483811394 0.0
0.002906156440373485 -0.000303612471617738 0.0
0.001458243340410244 -0.000542723416094975 0.0
0.0018628106529052241 -0.0004138297798475413 0.0
0.0022524600474688287 0.00012648035667990392 0.0
0.002230833815000119 0.00014526112845902946 0.0
0.0021657044558950713 0.00013307798385107003 0.0
0.0021448323579775354 0.00014539912762249197 0.0
0.002203866338438771 0.00014984188745786528 0.0
0.0024970394566156003 -5.4468381429599515e-6 0.0
0.0025693947361803034 -1.5306738790069867e-5 0.0
0.002591273760297715 1.2768625824923512e-5 0.0
0.0026576618303048244 1.6392780433205632e-6 0.0
0.0026369257097330397 -2.631499174580812e-5 0.0
0.00015603218294078718 -4.739998015441984e-5 0.0
0.002533138891927044 -0.0003239562038360067 0.0
0.0004270832852289875 0.00010181137592094448 0.0
0.00045096559049609246 0.0001170388944451374 0.0
0.002076487243124723 -0.000712653020399031 0.0
0.00012446634649792754 -1.0442621967345268e-5 0.0
0.002777948053256005 -0.00019468817829241072 0.0
0.002843448057644046 -0.00016899250112717927 0.0
0.0027957790597046414 -0.00016800304047073187 0.0
0.0028968801702122745 -0.00016546919921067612 0.0
0.002910499443726308 -0.0001436263008928035 0.0
0.0029649311570311603 -0.0001404130169017332 0.0
0.0007800992008448507 -0.00030064662098151307 0.0
0.0007789998955995849 -0.00027779368330687563 0.0
0.0007265656731705771 -0.00025244249502504165 0.0
0.0007771165209585398 -0.00025528504142104325 0.0
0.0008298770155632853 -0.0002797167563453325 0.0
0.0008287060944813272 -0.0002571179332859772 0.0
0.0008808259312737045 -0.0002805655225952158 0.0
0.0009594989661369365 -0.0006023673779243022 0.0
0.0008800946826854661 -0.00025739457567126845 0.0
0.0009320712410402008 -0.0002807037582986815 0.0
0.0002570729873455236 2.656718763005957e-6 0.0
0.0005582691422106844 -7.797153190985778e-5 0.0
0.0009306744522762115 -0.00030304594813685174 0.0
0.0007288063789143808 -0.00023231947094795146 0.0
0.002813551619549725 -0.00030073340207574 0.0
0.0027623480973254645 -0.00033000860363754556 0.0
0.0016030264637157778 -0.0006948813542936071 0.0
0.001601754861305631 -0.0007254191023491383 0.0
0.002084213214460939 0.000133681809310536 0.0
0.001120327196532423 0.00015743814003684858 0.0
0.0012063370825533986 0.00015217921660870423 0.0
0.0012752600525795647 0.0001676818815737107 0.0
0.0012874807957861476 0.00014179253893589316 0.0
0.001220084686666782 0.00012432453472588538 0.0
0.0013002022386109458 0.00010739986004716454 0.0
0.0012344293706132209 9.218688069009563e-5 0.0
0.0013151277130345929 7.088939997078809e-5 0.0
0.0012484713136694382 5.989922086837316e-5 0.0
0.0013417937275976204 3.622657335633165e-5 0.0
0.0012606644803996613 2.9883949240308683e-5 0.0
0.00133894523992412 8.298414290070587e-6 0.0
0.0012684773424979352 2.9114423329838593e-6 0.0
0.0013442612498809972 -1.6980100688045246e-5 0.0
0.001279521315087206 -2.2898147083931074e-5 0.0
0.001351411906005599 -4.0841788313501456e-5 0.0
0.0012869917685388503 -4.616966723247217e-5 0.0
0.0013545158412853057 -6.237381550167593e-5 0.0
0.0012929896292185742 -6.759084401683066e-5 0.0
0.0013578597641374698 -8.249521880068508e-5 0.0
0.0012976290452710053 -8.805551699721474e-5 0.0
0.0013601009905264464 -0.00010221274232580689 0.0
0.0012999025479362239 -0.00010784082640673827 0.0
0.0013616254102186611 -0.00012096804475503054 0.0
0.0013019223146722696 -0.00012777634735801184 0.0
0.0012398565402891866 -0.00011303722405306098 0.0
0.0012424236621530584 -0.0001338270240400803 0.0
0.001367466638625596 -0.00014171763643855144 0.0
0.0012273752025691884 -5.125557142397551e-5 0.0
0.0014200141861394635 -0.00011360746842533053 0.0
0.0014233815250746119 -7.772039584207469e-5 0.0
0.0011716695528099666 7.852991783936876e-5 0.0
0.0014154982640123936 -3.477037752465207e-5 0.0
0.001179172120618726 -0.00011814062329240573 0.0
0.001183050838547789 -0.00013929857453099113 0.0
0.0012450784331637873 -0.00015482825246306833 0.0
0.0011867995748533313 -0.000160536645781363 0.0
0.0012042651023630724 -3.3492371929694295e-6 0.0
0.0014160316418842921 9.552195577738897e-6 0.0
0.0011763104690776839 -9.677220953550992e-5 0.0
0.0013835340798985564 8.350773072312537e-5 0.0
0.001247938024042764 -0.00017573636387129856 0.0
0.0011901104206263338 -0.00018176541167462727 0.0
0.0011290363505280128 -0.00016578669917629917 0.0
0.0011134214227859986 -0.00010184967117355818 0.0
0.0011076779875166434 -7.854064791462862e-5 0.0
0.0013061196574659583 -0.00016908568543168436 0.0
0.0013070875207717128 -0.00018961258463248332 0.0
0.0013636393473352617 -0.0001827578616320242 0.0
0.0013566651981352764 0.000155294835754377 0.0
0.0013500500301424148 0.00017335804915465797 0.0
0.001134583685725105 -0.0001876500903389624 0.0
0.0010721713853367697 -0.0001709120506131644 0.0
0.0010679374869790063 -0.0001495092416384758 0.0
0.0010077406409481034 -0.00015349067216332998 0.0
0.0018964177661618808 -0.000742334781220062 0.0
0.0018625849712022471 -0.0007254145798017795 0.0
0.003191544629357285 -0.0002378469381787182 0.0
0.0020368820017502777 -0.0005866991464717568 0.0
0.0020721962702850245 -0.0005980379718695895 0.0
0.001178017367802369 -0.0004837318609905952 0.0
0.0012195936205245594 -0.0005039610127363397 0.0
0.0028492577640245936 8.88064545149556e-5 0.0
0.0020616339102600247 -0.0003504294805149498 0.0
0.0011947808679982214 -0.0002026106099038201 0.0
0.0009054661506502499 -0.0005170674121712888 0.0
0.0009028852179771629 -0.0004895794399058833 0.0
0.0009353640196959382 -0.00048694810764756503 0.0
0.0022819135426616344 -0.0002778444138326581 0.0
0.0021087185014306534 -0.00012673676746603854 0.0
0.0014112516868609343 -0.0003989370143464652 0.0
0.001367001779678731 -0.00040649075255919093 0.0
0.0019546069088392706 4.732800813962023e-6 0.0
0.0019491216292218442 -1.5878919569488318e-5 0.0
0.002012023776876097 -1.9702802455664595e-5 0.0
0.0019380928339724703 -3.743080599311051e-5 0.0
0.001964819623920546 2.686518641075894e-5 0.0
0.0020961874508032526 -0.00016467462719531778 0.0
0.002092490197493353 -0.0001841028722525959 0.0
0.002027486566029337 -0.00019632347776341033 0.0
0.0015110526307795782 -0.00029588474505329234 0.0
0.0015571835455388135 -0.0003081461441630364 0.0
0.0015603317773359704 -0.00028867422177278383 0.0
0.001605743727386218 -0.0002997848781263222 0.0
0.0016088668912510606 -0.0002806668549487091 0.0
0.0016542024265903284 -0.00029117187226633165 0.0
0.0016575943043489023 -0.0002724742526899931 0.0
0.001704850671924653 -0.00028221866170406815 0.0
0.0017002347078963293 -0.000301875369816161 0.0
0.0017519995539206834 -0.00028964573861727406 0.0
0.0019686725260178394 -0.00033540525199907833 0.0
0.0019199745029790008 -0.0003252749706083177 0.0
0.0018691610234295736 -0.0003372093644943429 0.0
0.001872623863481712 -0.00031577777174345505 0.0
0.00035458588092624106 -0.0001394621503036545 0.0
0.0004255975944782163 -0.0003479050947373117 0.0
0.0003888830259041528 -0.0003144783326680432 0.0
0.0003773999107843617 -0.00028582251756155896 0.0
0.00035153100763869684 -0.0002799182847935244 0.0
0.0017710020419440182 -0.0004161109855687108 0.0
0.0023817881581928136 -0.00028793540677054397 0.0
0.002369566956744984 -0.0003143440697332779 0.0
0.0008891292626705035 0.00018101311394011266 0.0
0.0018703216147365961 -0.0001734954916776254 0.0
0.0018722531144371043 -0.00015732896434251067 0.0
0.0019514336510134153 0.00012498461456199168 0.0
0.003320250699157852 -8.881966613287795e-5 0.0
0.0033640015971955653 -6.568795376470079e-5 0.0
0.003394017320786287 -5.4722066276449256e-5 0.0
0.00011675521394900214 -4.556030584723756e-5 0.0
0.00011981384208385879 -5.3156895641480296e-5 0.0
0.00017023173527328875 -7.794257157746902e-5 0.0
0.0001263854938842018 -6.246728167342953e-5 0.0
0.00017359446149892087 -8.839341016979896e-5 0.0
0.00013095995942145764 -7.153593853186125e-5 0.0
8.038823282163913e-5 -4.308691169269048e-5 0.0
0.0017234379373710041 -0.0004282655235223333 0.0
0.0008301760332998875 -0.000235389117744155 0.0
0.0004898773138859557 -0.0003840255240264653 0.0
0.0013626152137628 -0.0002016482795208389 0.0
0.0031517788176355474 -0.00027472610740495514 0.0
0.0031200286192655407 -0.0002860944223932343 0.0
0.0026681418815285092 -0.0003278866379542484 0.0
0.0027161316276355352 -0.00032186444885332885 0.0
0.0027285492241907123 -0.00029478507788539235 0.0
0.00016648118882585565 1.874702376859062e-5 0.0
0.001242149290991684 -0.0006794743639901587 0.0
0.0008497116937394288 -0.0005702946015443345 0.0
0.00010776110799416194 -9.905877097752152e-5 0.0
0.0001475656957762154 -0.00014068840065903704 0.0
0.0006765912638449701 -0.00022925917521301597 0.0
0.0021290228727335755 0.00014170310990853534 0.0
0.0021963512094221723 0.00014020842535602553 0.0
0.0025738949364752382 -0.0003569005714043171 0.0
0.002683975322838155 -0.00035616106354803236 0.0
0.0011697864035722168 -0.0006622295784293527 0.0
0.001310133633437015 -0.000693151091614416 0.0
0.0013441017838169403 -0.000685752988023736 0.0
0.002939725813041044 -0.00034758468171655285 0.0
0.0029199462037208654 -0.000388549257742506 0.0
0.002872488706017193 -0.00043028189663997355 0.0
0.0031741212108613256 -0.00010058796752504716 0.0
0.0031269194742885548 -0.00010839053578318755 0.0
0.0030660832006686152 -0.0001316302142676638 0.0
0.003074094267171869 -0.00011548571050138167 0.0
0.0005775076395462494 -0.00022286369393500214 0.0
0.0029761397989914356 -0.0001204350813329117 0.0
0.0029125565826683794 -0.00012296853451490393 0.0
0.002081952646957227 -0.0005682249354890251 0.0
0.00036085619621123194 -0.0003056378892715885 0.0
0.0003281045218510385 -0.0002763384687198545 0.0
0.00031600723883658325 -0.00024969663601203556 0.0
0.0002931511154007151 -0.0002442501314030659 0.0
0.003403704736048713 -4.5737456121269585e-5 0.0
0.003329067002923459 -5.113006944348006e-5 0.0
0.0033720398401011326 -3.542392206364361e-5 0.0
0.002779096923658941 -0.0004946908653015326 0.0
0.0014138219029476236 -0.0003095441929919278 0.0
0.002964439927537278 -0.0003540155531822296 0.0
0.002947103502216669 -0.0003933626594855844 0.0
0.002988522010310972 -0.0003598884120936299 0.0
0.0029749727643628068 -0.00040082608744062604 0.0
0.0030174401351485136 -0.00036070901813327485 0.0
0.0030314340619993644 -0.00032473140730053795 0.0
0.003056022821834437 -0.0003282651155949461 0.0
0.0016395112681839997 -0.0007433663330656846 0.0
0.0016059876784476144 -0.0007587273971238449 0.0
0.001561881317087727 -0.0007372187979566271 0.0
0.0011407317925428186 -0.0002098815164951918 0.0
9.302016398244847e-5 -5.489946698568181e-5 0.0
0.00013499054784516646 -8.107536694059226e-5 0.0
9.760338234851366e-5 -6.26612305358831e-5 0.0
0.0011425386112731916 -0.0006746484869580968 0.0
0.0011039111783321658 -0.0006468286588872201 0.0
0.0032773744111455312 -0.00018326591280155258 0.0
0.0002716836023554782 4.543969687415449e-5 0.0
0.001823596280095506 -0.00032954240403208307 0.0
0.0018288837974626973 -0.0003073826639193301 0.0
0.0031654094884273776 1.4690270764057949e-5 0.0
0.003265127129925419 7.898418672131709e-6 0.0
0.002956365109981594 -0.00027242483051403515 0.0
0.0006056428804345486 -0.00042495615320413193 0.0
0.0006173957253452301 -0.00045722768426375193 0.0
0.0025103074884405964 -0.00037460325573810375 0.0
0.002538181634755978 0.00010693814662296106 0.0
0.0033448375080322944 -0.0001313977831737638 0.0
0.0033904359663467216 -9.003512812491599e-5 0.0
0.0034081047036879724 -6.750376221920428e-5 0.0
0.0024600930990583657 0.00012992157367126633 0.0
0.0028671176937817826 -0.0002722516813259919 0.0
0.0015677337276863985 -0.0006536409659572981 0.0
0.002950023836268026 -0.00016145183555185073 0.0
0.002771762416136198 -0.0003066725455540975 0.0
0.0010659262167488945 -0.00044395466625963035 0.0
0.0006211623335744653 -0.00039683328288247534 0.0
0.003226047883726995 -8.906917726839175e-5 0.0
0.0026725752656421155 0.00014245751365420654 0.0
0.0011046415522979287 -0.0006757652782128306 0.0
0.0005132609130583921 -0.0002004087885679626 0.0
0.001859185637077752 -0.00019312275741557457 0.0
0.0027239542141486344 -0.0004838479909547615 0.0
0.0027124468101162045 -0.0005224796782329773 0.0
7.282744662993781e-5 -6.568984267301343e-5 0.0
0.0021124999105819695 -0.0006940672423483818 0.0
0.0020989947462550897 -0.0007252786834275786 0.0
0.0013434831868159869 -0.0007202340808886716 0.0
0.0013792975234472823 -0.0007087866103732791 0.0
0.0013776496619107767 -0.0006774566428091963 0.0
0.0014134374967881978 -0.0006990219085844615 0.0
0.001380005801016262 -0.0007350955481643682 0.0
0.0011736474531325203 -7.519789846640924e-5 0.0
0.0011042557940584867 -5.6798991374713496e-5 0.0
0.0004806998632772159 -7.769484906170097e-5 0.0
0.0009826748704233376 0.00022253495942086972 0.0
0.0009829346971867295 0.00020661391137314294 0.0
0.002101983771817867 0.00010903539428372315 0.0
0.0026474245268976178 -0.000558050669910172 0.0
0.002608687680342176 -0.0005890693951151605 0.0
0.00030176792840725015 -0.0002705755242525904 0.0
0.00026791785807895165 -0.00023604452523986254 0.0
0.003388455706707547 -3.5188442597467366e-5 0.0
0.0005621994332331032 -0.00026427267229053923 0.0
0.0005074749818472164 -0.0002401220276480658 0.0
0.0031510530930471906 0.00010686159923673968 0.0
0.0032355202448330644 -0.00019857881005203552 0.0
0.0032154919786484665 -0.00023659457076319562 0.0
0.0019159308067016952 -0.00019964200155193475 0.0
0.0021930067305343214 -0.0007045291239070537 0.0
0.00214940362039076 -0.0007346847486785526 0.0
0.00097786690854573 -0.00030124576190601723 0.0
0.0009825373547015207 -0.0002789919860662842 0.0
0.0014136723848379082 -0.0006683840241840962 0.0
0.0029731521456738247 -0.00030387545243492156 0.0
0.0017079231697684702 -0.00026326779271125495 0.0
0.0016646600327436553 -0.000253652483932519 0.0
8.880591592257178e-5 -8.660036021915845e-5 0.0
0.0009473332869509342 0.0003442640863410981 0.0
0.0015616130690864355 -0.0002687332382450201 0.0
0.0010462955158313753 -8.467671092646855e-5 0.0
0.0010548390496731995 -0.00010723115619842167 0.0
0.0006360159152179347 -7.568788891186939e-5 0.0
0.002156441431099812 -0.0001700605800930017 0.0
0.0014164431129924672 -0.00019506071518675828 0.0
0.00141893552987468 -0.0001768323293924322 0.0
0.0014703196588049302 -0.0001888922811824387 0.0
0.0014716701102142778 -0.00017175546648737653 0.0
0.0015209141687572037 -0.00018158202026869055 0.0
0.001522965902215118 -0.0001655336793213912 0.0
0.0014725840646244192 -0.00015529583494103407 0.0
0.0015243481060612809 -0.0001492891408853743 0.0
0.0014741026535353596 -0.0001394241412697837 0.0
0.0015266144328693588 -0.00013367018010322643 0.0
0.0015690282834662419 -0.00017495334125370457 0.0
0.00013367572534613275 -4.0929438840467035e-6 0.0
0.00208384975228678 -0.0002065122461302082 0.0
0.0014246231663811234 -0.00029001949072152497 0.0
0.001367745212084811 0.00012219558652987517 0.0
0.0014642875558503183 8.99462934831377e-5 0.0
0.001468460138170288 5.5471600252909475e-5 0.0
0.0014393967992284962 0.00013399855021139692 0.0
0.001402267291234089 4.956174752305221e-5 0.0
0.001484202005490186 2.865839513986319e-5 0.0
0.0015608378447437585 2.9062173563546026e-5 0.0
0.0015213704872587342 0.00011063555395875643 0.0
0.0002181327578575129 -0.00010403201824359183 0.0
0.00022430784740843415 -0.00011772246428664865 0.0
0.003387160172325753 1.7127649422982222e-5 0.0
0.0032771145313968317 3.8328106187498345e-5 0.0
0.0032703063053621303 4.65343632636989e-5 0.0
0.0025412798404560086 -0.0006141813594375885 0.0
0.002494437051682762 -0.0006437099781761363 0.0
0.0008972346069399879 -0.00046265296410935314 0.0
0.0009309220233345518 -0.0004594497572353429 0.0
0.0008630369394824276 -0.00046421616659129565 0.0
0.0009859735789508376 -9.389647302930604e-5 0.0
0.0015385241978042481 5.761196499911258e-5 0.0
0.0015787665994632407 -0.00014281127554773647 0.0
0.0015774203425898657 -0.00012701987123973349 0.0
0.0015279652976973933 -0.00011820809209684735 0.0
0.0015773871018609194 -0.00011274263720236173 0.0
0.0015317135793783854 -0.00010356295252351146 0.0
0.0009250268028554679 -0.0005790467374372035 0.0
0.003377658654710788 2.781662585517378e-5 0.0
0.0014376941260830036 0.00016187743483201054 0.0
0.0020183114534744117 0.00010794053591747786 0.0
0.002025144411612259 7.810823057668161e-5 0.0
0.0019429150324731268 6.956816148715616e-5 0.0
0.0010227241914057366 0.0001588574083833469 0.0
0.0012620968337729633 0.0001835833039406482 0.0
0.0011925758576329043 0.0001948977469075512 0.0
0.0011487755887258447 0.00020291705931368474 0.0
0.00226365520198716 9.051253077526811e-5 0.0
0.002825194028406969 -0.00046140597401341877 0.0
0.0028050098647754975 -0.0005072300930365112 0.0
0.0008822892399962779 -0.0005962209370762445 0.0
0.0014490371445144245 -0.0006898711920790474 0.0
0.001449868224553865 -0.0007198660335667139 0.0
0.0014834618603341736 -0.0007106479881941167 0.0
0.0014888510010388504 -0.0007444762503720864 0.0
0.0024539620963824533 0.00011527092838119352 0.0
0.0023838552365473592 0.00010002984731247425 0.0
0.0024775577487854443 9.474402355078625e-5 0.0
0.0025515319583110925 0.00010672339323963031 0.0
0.0018803162229728985 -0.0002956413142359184 0.0
0.001841436117645946 -0.00028594640977427 0.0
0.001519723149711416 -0.0007298835149445074 0.0
0.0010217489260776218 -0.0001778613287964501 0.0
5.884545087859375e-5 -4.9205927042765646e-5 0.0
0.001412844371098648 -1.1042122262605342e-5 0.0
0.0014807077308905882 -2.917631561986126e-5 0.0
0.0014836008439627296 -4.906599074300325e-5 0.0
0.0015473537011625195 -4.3716286881678616e-5 0.0
0.0015457935121220819 -6.0130140806543226e-5 0.0
0.001545009159263521 -2.6630767007952588e-5 0.0
0.0014924857653966796 -6.586143665683425e-5 0.0
0.0015458502893105897 -7.540572034381685e-5 0.0
0.0016067478937858107 -3.8505712658173486e-5 0.0
0.0022923294386724686 0.00010386214438006602 0.0
0.00149741337806523 -8.210875997494996e-5 0.0
0.0034273271437006386 -2.0621024883270494e-6 0.0
0.001306772656933454 -0.0002095758351997056 0.0
0.001623871634558585 -0.0006164111937707744 0.0
0.0016668201989827522 -0.0006049458161977495 0.0
0.0014826697132243906 -9.434694757471583e-6 0.0
0.0015519905276729223 -9.140593572644364e-6 0.0
0.001978442187992874 -0.0003142715235063681 0.0
0.002488395336349955 -0.0005484496313577576 0.0
0.0024450084428103173 -0.0005817936100186359 0.0
0.0024355227197912356 -0.0006208472150685029 0.0
0.0024052257582985455 -0.0006139358108610475 0.0
0.0023983346863092705 -0.000649974945064093 0.0
0.0023659625176015494 -0.0006453918270083614 0.0
0.002869805982229196 -2.8891736911550503e-5 0.0
0.002809528224814931 -5.433370437359274e-5 0.0
0.002838038174388861 -7.4113129937374e-5 0.0
0.0027499308916564434 -8.147105352894386e-5 0.0
0.002775637012771832 -0.00010121710632252361 0.0
0.002688284007161299 -0.00011001592391576816 0.0
0.0027155195166349714 -0.00012959616039860667 0.0
0.002660782105080202 -8.950521343047897e-5 0.0
0.002601418607049176 -0.00011824987924641095 0.0
0.00279796254140163 -0.0001200160149840826 0.0
0.0025725475882630087 -9.812445818151158e-5 0.0
0.002737404096098237 -0.00014830905561431722 0.0
0.0026598374127673454 -0.00015788236014215924 0.0
0.0026782383831886183 -0.00017670265870013002 0.0
0.002632837360549607 -7.000409705533407e-5 0.0
0.0027771096472215383 -3.317429333418284e-5 0.0
0.0028183165411757227 -0.00013907322375584065 0.0
0.002931206873008695 -7.025424759079843e-5 0.0
0.002873131107393889 -0.00011151745762765689 0.0
0.0018800027935666514 -1.2576143381678658e-5 0.0
0.0012392092927046897 0.00019032217823650592 0.0
0.0001846265658787507 -0.00010415264306735127 0.0
0.0001722000475913825 -0.00015418000006735798 0.0
0.00020794586527484306 -0.00018981185962620205 0.0
0.0015178637950884525 -0.0007004235941655006 0.0
0.0020322371198897944 -0.00032609556082897906 0.0
0.0019470679369301223 -7.010718429823252e-5 0.0
0.0018815766462143256 -8.245231308891135e-5 0.0
0.0018928533746427252 -6.645423718603921e-5 0.0
0.0018832227618656508 -9.905548650107184e-5 0.0
0.0019387746610053398 -0.00010571528851497648 0.0
0.0018783327222071163 -0.00011609305774697001 0.0
0.00187218452518515 -0.00013218563303797176 0.0
0.0018260287950658536 -0.00012473619977052962 0.0
0.0002260725812407683 -0.00018189586967323822 0.0
0.0021772148369075773 -1.0474210531988026e-5 0.0
0.0026532351179551243 5.009856896511971e-5 0.0
0.0025446873356050627 5.37074491681391e-5 0.0
0.00013762955111664403 2.7272887669365817e-5 0.0
0.00028792493088583446 6.353944389505265e-5 0.0
0.00026831669969836164 5.32492272595702e-5 0.0
0.0022200575249156163 -7.09718345217226e-5 0.0
0.00029208457183601226 -0.00021356114123591107 0.0
0.0003386984910429414 -0.0002517004808916293 0.0
0.0003676204357735536 -0.000260737196812 0.0
0.000363811147392764 -0.00023887703916710735 0.0
0.0003941190692747246 -0.0002415473884756767 0.0
0.0014203524046758358 -9.63893336765093e-5 0.0
0.00016435694677642836 1.17351595092621e-5 0.0
0.0006830086120179912 -0.00019050630049457612 0.0
0.0005606856471048925 -0.0001813697870067826 0.0
0.0015493754122193576 9.643736614739094e-6 0.0
0.00039541318395748396 0.0001420666457616014 0.0
0.0023977879200179435 -0.0005696231665914446 0.0
0.0020935799372755804 -3.300852675301705e-5 0.0
0.003302415569792228 -0.00017353236777025585 0.0
0.002633026520505359 -0.0001380038471177 0.0
0.002547476307250625 -0.00014621334970051734 0.0
0.0024649513545978072 -0.0006320862452119671 0.0
0.003434042178762092 -5.857036260636519e-6 0.0
0.003368508581694143 -1.5404668102006868e-5 0.0
0.003381767512527416 -2.013292157574419e-5 0.0
0.003357370333067221 -8.917515982855543e-6 0.0
0.0033060126887965425 -2.8870986308928427e-5 0.0
0.0033486708596846804 -1.7063390853838786e-6 0.0
0.0032713729424848985 -9.200187717696967e-6 0.0
0.003287111029966277 -1.9831396795886188e-5 0.0
3.936792459145427e-5 -2.0160921257719725e-5 0.0
0.003458587162394998 -1.594381933530851e-5 0.0
0.0034126575789125285 -3.106842846292477e-5 0.0
0.003440609705691433 -1.7075195531067234e-5 0.0
0.0034167175133176723 -3.3210420525880315e-5 0.0
0.0020488191477728195 5.328199441890315e-5 0.0
0.002582727876266137 -0.0005769896438513975 0.0
3.076251125565727e-5 -2.1261504436668863e-5 0.0
0.0034678376460424835 -1.7415024470257623e-5 0.0
0.001135937453275723 0.0001339070362797974 0.0
0.0027964330454274037 1.708053704991061e-5 0.0
0.0009567051753281713 6.022875467694829e-8 0.0
0.0010338819424555602 9.071970310761366e-6 0.0
0.0010316432447959806 3.9661673485020837e-5 0.0
0.0010339005767526618 -1.792221267288617e-5 0.0
0.0011001929601133018 -1.2574905323502336e-5 0.0
0.0011173910986785106 1.362221502751937e-5 0.0
0.001110445485242301 4.5653236230354835e-5 0.0
0.0010346124036441718 6.86657080742545e-5 0.0
0.0009681741911202696 9.448953172943365e-5 0.0
0.0009666504311053137 -3.252004216659691e-5 0.0
0.0029089325184567505 -0.00042629055504763504 0.0
0.003425080611066046 6.222848959586361e-6 0.0
0.0014160198341812448 -0.0006380664372315032 0.0
0.00046738057264096263 -0.0003867874244406392 0.0
0.0015582205093571065 -0.0006251784470343439 0.0
0.0012030386591939549 -0.0006557448274490418 0.0
0.0012054002252598081 -0.0006864015337683431 0.0
0.0016292807180839281 -0.00012057322167064037 0.0
0.0022234407094032273 -0.00012027624826790717 0.0
0.0030112667211452003 9.852941232050382e-5 0.0
0.00305457587640189 8.195655675358449e-5 0.0
0.002960159956267623 8.58135084115142e-5 0.0
0.0002189914927428005 -9.384115215747779e-5 0.0
0.00043624136489281646 -0.0003764651654617449 0.0
0.0011222122889102922 0.00025284212366829325 0.0
0.0010087645936418801 0.0002520080141327252 0.0
0.002502940019594677 7.706775573419134e-5 0.0
0.0012722276514589587 0.00018310145783561558 0.0
0.003147461113906417 -0.00021454288075769873 0.0
0.0015441906085896767 -0.0005242551712601346 0.0
0.0023870096720642066 7.282682614780622e-5 0.0
0.0024537904742387416 0.00010091276499896616 0.0
0.0010554949937672574 0.00011335479852904253 0.0
0.0008552796531787053 -0.0006020896560062147 0.0
0.00312450121403591 -0.00025473770936130483 0.0
0.0005165324222799694 -0.00038666951138668275 0.0
0.0005478622222531579 -0.00041382495499366127 0.0
0.0005311265661696981 -0.00042207462975508444 0.0
0.0008143111913520496 -0.00019061826679932768 0.0
0.0019208302095182657 -0.0001434867514585103 0.0
0.0021573927528218957 -9.221972411951201e-5 0.0
0.0013049906715335965 -0.00014810866577548822 0.0
0.0013639009249303876 -0.00016325536062971758 0.0
0.0033510116369585034 4.0130072996102724e-5 0.0
0.0031809134613922144 8.046484503676565e-5 0.0
0.00015427049399108006 3.9888624082435986e-5 0.0
3.9042385322720085e-5 -2.2099710791600965e-5 0.0
0.0015730829076211082 -0.00015876113122230493 0.0
5.235172903046677e-5 -1.3154605398077067e-5 0.0
0.00012637930890998836 -2.7072266376601384e-5 0.0
0.001539979731958197 -0.0006012792783998937 0.0
0.00220068975824969 9.582992807546086e-5 0.0
0.0013095110226698336 0.00017748007494035016 0.0
0.0021320858718101897 -0.0003168267930897776 0.0
0.0015867622491117547 -9.833037488672236e-5 0.0
0.0027876060653609434 -0.0002624842743066923 0.0
0.003260032874626548 -0.00016258681026149407 0.0
0.0010260097940820358 -0.00044773111809174075 0.0
0.0010302423650260112 -0.0004750188178387911 0.0
0.0009884842723083952 -0.00044823665793948444 0.0
0.0009453650874054073 -0.0004218056022207852 0.0
3.153560230807504e-5 -2.365863895125277e-5 0.0
5.9229547620476755e-5 -4.5467900867315265e-5 0.0
6.637979079946325e-5 -4.6664412357419104e-5 0.0
0.0008827583111199823 -0.0003031103111712793 0.0
0.0008352958539056323 -0.0003054405860841789 0.0
0.0034615564611689153 -1.6570688532721993e-5 0.0
0.0018601004059044573 -0.0007598400482840655 0.0
0.0018259957147535185 -0.0007418988544134966 0.0
0.0018238333991273943 -0.0007757630178114795 0.0
0.0017895329764155744 -0.0007574908083743798 0.0
0.001752245080084213 -0.000771441400555918 0.0
0.0017505280139512977 -0.0007380823598697597 0.0
0.0018272199980691939 -0.0007082079682920952 0.0
0.002381555195853076 0.00010644252249291361 0.0
0.00040545687624997384 -5.6837762121509345e-5 0.0
0.00047231067207303403 -9.752558611739295e-5 0.0
0.0004105578064973615 -9.679754068558124e-5 0.0
0.002188829130047476 -0.00030294696548482475 0.0
0.0007263470947206749 0.00020241986104511218 0.0
0.0017430063409982332 -0.00031115344665654345 0.0
5.299523335807513e-5 -2.0553719957896687e-5 0.0
0.0010717504061847417 -0.0006492585237115462 0.0
0.0010370655645670279 -0.0006474753749004325 0.0
0.001043558080871591 -0.0006226062212560698 0.0
0.0011994413817868717 -0.000625198755152424 0.0
0.0010265395940250775 -0.00041751385449862415 0.0
0.0004563780728313818 -0.00019128992264197959 0.0
0.0002675022478262406 -0.0001460345863237074 0.0
0.003443876449707146 -1.1013103997234884e-5 0.0
0.0033955769477310048 -2.259581042957861e-5 0.0
0.0006760442345142875 -0.0004850797806548439 0.0
0.0008128590063668661 -0.0005410954651853986 0.0
0.0007823258685082113 -0.0005439893544899355 0.0
0.0007442499349812453 -0.0005141633464417271 0.0
0.0007500777033802255 -0.0005443733940841145 0.0
0.0020699354700655322 0.00010969841032310327 0.0
0.0014158298364517344 0.00016588058780585865 0.0
0.0022330203670972255 -0.0006790385606083591 0.0
0.002261986937601087 -0.0006922459716663605 0.0
0.0022999858629583246 -0.0006661654640911334 0.0
0.002218570075402602 -0.0007232679458758119 0.0
0.0011088873371356417 -0.00044535957291805234 0.0
0.001967826679254498 -0.0005628621451513314 0.0
0.001301397607819803 0.00018314180254298788 0.0
0.001418131999434221 -5.820509328010907e-5 0.0
0.0034691611044399043 -1.8644631210582453e-5 0.0
0.0034400798014256463 -3.7851467694941905e-5 0.0
0.003427775549903611 -4.0518082257836916e-5 0.0
0.0007134924632162472 -0.0005150481583116003 0.0
0.0006840379236330352 -0.0005144115730946668 0.0
0.0010285652977498133 -5.762651276477338e-5 0.0
0.0009074661828770296 -0.0004265915310399507 0.0
0.0032406912845245016 -0.00012518491816948735 0.0
0.002638275319058389 0.00012695410715554199 0.0
0.0015628649494639215 -0.00019109491419042057 0.0
0.0016101365601590334 -0.00018304721805502836 0.0
0.0020703419920097424 0.0001398740960611064 0.0
0.0025481455620225643 -0.00048019507139063905 0.0
0.0015015137109970697 -0.0005336659331411868 0.0
0.0015033826168820456 -0.0005618381343172327 0.0
0.0003793083975585889 7.001827817586488e-5 0.0
0.0008317438812603446 -0.00042929666633671396 0.0
0.0007934333599555872 -0.00042642927107148517 0.0
0.0007511056911379283 -0.00039872637310784813 0.0
0.0007563361474801247 -0.00042619406593778216 0.0
0.000638815962643949 -5.11570347181068e-5 0.0
0.0006420162004853429 -2.5761249329462414e-5 0.0
0.0007159251953511339 -0.00010003660290716834 0.0
0.002250480906350054 -0.0007333860255975018 0.0
0.0021889692727980045 -0.0005531269802565774 0.0
0.002140666898481678 -0.0005770745365461363 0.0
0.002181646437775112 -0.0005901913238530661 0.0
0.002133762037084476 -0.0006151009964724868 0.0
0.002162060827445874 -0.0006254473370805778 0.0
0.0022272586868733076 -0.0005602339471543726 0.0
0.0022631074626453837 -0.0005646577636099154 0.0
2.674245411332664e-5 -2.3519085446276485e-5 0.0
0.003473946861946493 -2.00052764838725e-5 0.0
0.0028473558500465264 -0.00041762672517209104 0.0
0.0020373966088122566 -0.000733365362668068 0.0
0.0032173208592079683 6.968153927159609e-5 0.0
0.00197382962033611 -0.0007052521570439921 0.0
0.001966267132861471 -0.0007393991509448072 0.0
0.0026077418409591858 -0.0003248432200412221 0.0
0.0023370690952923493 -0.00025925424255298404 0.0
0.0022887266535436537 -0.000253288136273119 0.0
0.001089076764747713 -0.000584829138675704 0.0
0.0006384427119958272 -0.0003677360564821754 0.0
0.0025984317356304177 -0.0001884021970014119 0.0
0.0027316132255424293 -0.000445086060397686 0.0
0.001200073404580422 -0.0003511352941528549 0.0
0.0012445402806800366 -0.0003458867945213836 0.0
0.0012427140551514117 -0.0003698187381203078 0.0
0.001247581815342632 -0.00032282913389679877 0.0
0.0011986367532076238 -0.00037536775426210794 0.0
0.0012879255092990431 -0.00034287767141578425 0.0
0.0012937603946252389 -0.00032143123887937104 0.0
0.0013055773465463396 -0.0002979016740051133 0.0
0.002588912208140997 0.0001482774703215145 0.0
0.00028728085746682346 7.024525051877032e-5 0.0
0.002515514119863689 -0.0001267644270713357 0.0
0.0027328649054806143 -0.0002719444917882092 0.0
0.0005316450797481035 0.00015683250184343002 0.0
0.0004901765612647387 -1.154534380942449e-5 0.0
0.0007172753303368328 -4.724649024278184e-5 0.0
0.0005598317519643601 -0.0003360277823893036 0.0
0.001199760891728934 -0.00030465571718813893 0.0
0.0009324494621363762 -0.0002568986966474474 0.0
0.000996903930128233 -0.0002568387346907408 0.0
0.0010377261574449985 -0.0002808984334277014 0.0
0.0016742188029063403 -0.0007319368892462291 0.0
0.0017135400987393884 -0.000751402116721286 0.0
0.0017130680426695613 -0.0007879159403584101 0.0
0.0017510400325674936 -0.0007053593075680598 0.0
0.0026819899214019388 -0.00047365601488306357 0.0
0.0012493863826008296 -0.00019606076925822127 0.0
0.0025355910991196376 -0.00029552751391172146 0.0
0.0011958596144908487 -0.000595268832712557 0.0
0.0018284992114598253 -0.0006753539925545954 0.0
0.0012723548232529663 -0.0007038759302700816 0.0
0.003206970637342628 -1.0541235940497158e-6 0.0
0.001696919697104494 -0.00032233793276375416 0.0
0.000405572015490657 -0.00016466988915792073 0.0
0.0012904674571063554 -0.0004910467435203272 0.0
0.0013326445731258229 -0.0005116027691971583 0.0
0.001203729112170105 -0.00045012763721007207 0.0
0.0013063756050207443 -0.0006330503649652896 0.0
0.0020453044349498396 -0.0004277053241789552 0.0
0.001993906091147207 -0.00044470997977153116 0.0
0.0020389040849515105 -0.00045532033894166455 0.0
0.0024861716960534147 -0.00010712926777070311 0.0
0.0015437741459355528 -0.0004971832676061755 0.0
0.001114722749125881 -0.000408914985942049 0.0
0.0019745652848173587 -0.0001885346774468147 0.0
0.0019644475698566773 -0.00020808615863307197 0.0
0.00043951514252907597 -0.00027037034526150865 0.0
0.0009194746096275388 -0.0005499772263967655 0.0
0.0023127302107293717 -0.0006251064772009637 0.0
0.0019497717747565973 -5.3806950758282277e-5 0.0
0.001800853479606079 -0.0005374806292944951 0.0
0.001755816658839579 -0.0005512185218496326 0.0
0.0017536515409024864 -0.0005811878850002755 0.0
0.0017113600737923903 -0.0005639973162700066 0.0
0.001710440876616518 -0.0005940947951901933 0.0
0.0017949948761756644 -0.0005971314423462396 0.0
0.002104561619865643 -5.46988582781274e-6 0.0
0.0014130091473603717 -0.00042273080215218865 0.0
0.001371021173929756 -0.00043011742660625704 0.0
0.001953668832442562 -0.0004072816486900468 0.0
0.0011603145765414168 -0.00045409466352936903 0.0
0.0019295426562848299 -0.0007577699278220149 0.0
0.0014578305913516328 -0.0005152462471429837 0.0
0.0017136419649136133 -0.0005351422027528632 0.0
0.0024259316618131708 -0.0006605998646647779 0.0
0.001555091343863348 -0.0003291683107275466 0.0
0.0032906917666512326 -6.909079093782819e-5 0.0
0.0017209551544491977 -0.00045378573325894435 0.0
0.000777996881666054 -0.0003236323753688844 0.0
0.0015220752923307541 0.00015208472002386413 0.0
0.002418120966539429 -0.0005310883300394248 0.0
0.0031480726903911674 7.238261706391509e-5 0.0
0.000511018564157807 3.4224287657663744e-5 0.0
0.0005309043688701387 5.566659232950525e-5 0.0
0.0005884060541504394 2.3261552806387668e-5 0.0
0.0006228559909489839 4.936730126965222e-5 0.0
0.0006813686302735684 3.1709126422090174e-5 0.0
0.0024633065886663003 -0.00015452161662055452 0.0
0.0014165413274308998 -0.0007330200895818749 0.0
0.0016029167685660723 -0.00032054879518661044 0.0
0.00010271730963949369 -2.8864544030275277e-5 0.0
0.0011776872045454175 0.000203589600577009 0.0
0.0010933918427757656 0.00021463296736694073 0.0
0.0023242227800468747 8.271267860970745e-5 0.0
0.0013781607640664367 -0.0006169490876651997 0.0
0.001569790073525182 -0.0007079559289082518 0.0
0.0013658027337971842 -0.00022228408948938284 0.0
0.0019079290962214814 -0.0003966758106366478 0.0
0.0018582014853691492 -0.00038445128373355484 0.0
0.0018664911350129293 -0.00035896195136713333 0.0
0.0019632258598471725 4.8141999439536704e-5 0.0
0.0012957961236231897 -0.0005187100879635243 0.0
0.000880566255551075 -0.00023473048343657498 0.0
0.001323984510563951 -0.0003861234025833863 0.0
0.0001777927689780908 -0.00010955162762724042 0.0
0.0018175615627337336 -0.00018209100196238008 0.0
0.0007363816181687595 -0.0004836129191151218 0.0
0.0018188849900240456 -0.0004028517101322472 0.0
0.0010966581964612224 -0.0006153878113452487 0.0
0.002440772185390089 -0.000265194996871812 0.0
0.0016394586576155786 -0.0004013064802203658 0.0
0.0016680657575215473 -0.000575896074719137 0.0
0.003056672666826882 -0.00020511089239408858 0.0
0.000650069225181746 -0.0004847636346284397 0.0
0.003330131435324519 -0.00016296004585444852 0.0
0.0013645515682434634 -0.00030723483006762665 0.0
0.0016338389720146956 -0.0004508699304932982 0.0
0.0003012818344983025 -0.00011444804052404823 0.0
0.0030583052943551664 -0.00014855848904701864 0.0
0.0019158236269192018 -0.0006106082183659518 0.0
0.00010262206656202773 -3.471804763521658e-5 0.0
0.0017577849687775023 -0.0002530464119156209 0.0
0.0017554110051577366 -0.0002701435667948418 0.0
0.0032710551464726844 -4.284815182346548e-5 0.0
0.0018955765513071232 -0.0007760144868668678 0.0
0.0006037541371699282 -0.00036577729494981524 0.0
0.003377097656873803 -6.96013958273524e-5 0.0
0.001818876004718624 -0.0003492099895475541 0.0
0.001685941960432572 -0.0003910952244185589 0.0
0.0021104556555047323 -0.0005363132908339752 0.0
0.0020665852935687332 -0.0005258070710106928 0.0
0.001929701971147877 -0.0005492816571993146 0.0
0.0016002039362780292 -0.00034235750758979247 0.0
0.001972559117689858 -0.0007928444693736459 0.0
0.0021190655660478755 -0.0007762570107617829 0.0
0.0015123360993206235 -0.0007771569021336962 0.0
0.001628159539770469 -0.0007899865776203826 0.0
0.0023362305403013314 -0.0007215573316155804 0.0
0.0023268527092538977 -0.0006833356828925689 0.0
0.0012098934934573625 -0.0007156610394642075 0.0
0.0009556930415861496 -0.0006439945999113993 0.0
0.0020457556644759246 -0.0007862299438774519 0.0
0.0012888343564380412 -0.0007376563067559117 0.0
0.0014481021401623316 -0.00027184601840359875 0.0
0.002994578045578942 -9.850864524592537e-5 0.0
0.0024493654856008094 -0.0004025828024679952 0.0
0.0024309118039525924 -0.0004316327012507286 0.0
0.0012424486282493158 -0.00039567964199103777 0.0
0.0021097496786295074 -0.0003595851294118867 0.0
0.001672371984649468 -0.0006338143811865895 0.0
0.0008679788857815192 -0.000507672424003521 0.0
0.0006489404058272336 -0.0002940616320822475 0.0
0.0014577166942337412 -0.00039074296743375764 0.0
0.0030598473595320206 2.2927668313291544e-5 0.0
0.0011879806031705618 2.4343480175693055e-5 0.0
0.0016513360365939258 -0.00031137285985836585 0.0
0.0019494998818904868 -0.0004351528933903637 0.0
0.0002342818210423497 -0.00020393149608777296 0.0
0.000242995864552728 -0.00022717506162074955 0.0
0.0014577538800457392 -0.0005708485345968713 0.0
0.0012249024785326767 -0.0005325921465863687 0.0
0.0017652002859180093 -0.00046743877059590315 0.0
0.0032450186879021676 5.7677454844248234e-5 0.0
0.0018651729851076558 -0.0006917345272587388 0.0
0.003434426195745661 -5.280650878202528e-5 0.0
0.003411073908629711 -8.09345139213074e-5 0.0
0.0009561861029017233 -0.00016027676147215388 0.0
0.0015023232606155715 -0.0004298924379741971 0.0
0.0015863876553153698 -0.0005140081650440038 0.0
0.003335191440765284 1.1661242725008664e-5 0.0
0.0016310059315954545 3.429320356774812e-5 0.0
0.0023074686848595575 -0.0005417918004123746 0.0
0.0023818658333322655 -0.00045593246544829686 0.0
0.0009381299558964399 -0.0006115627367083089 0.0
0.0021886291229620144 -0.0004274682942871247 0.0
0.0015036229473400931 -0.00038236818188558245 0.0
0.002295025898267507 -0.00038691352266581716 0.0
0.0022840382412211246 -0.00041450524138736514 0.0
0.002348554251357638 -0.00036600324009474525 0.0
0.0007844410742738064 -0.0005748422045208361 0.0
0.002734789094854571 -8.511735931960386e-6 0.0
0.0019967375655693827 -0.0007581866120315149 0.0
0.002843576636287961 -0.0004738308949701039 0.0
0.0025870371250025963 -0.00029611839812188713 0.0
0.0016714581826511798 -0.0002356742831786837 0.0
0.0021295271272442954 -0.0006537702847154224 0.0
0.0013362610825943134 -0.0005390754440216806 0.0
0.0014025368953175723 -0.00032854880972527176 0.0
0.0032330233371971415 -3.3602129177007146e-5 0.0
0.0007415174701563435 -0.0002136054113567905 0.0
0.002487279263443326 -0.00017348456958964645 0.0
0.001650713800772125 -0.00015397628372444032 0.0
0.0021568083266569255 -0.00036658254010547804 0.0
0.0030992623947114985 -9.435971353931027e-5 0.0
0.00026673802486098944 -0.000119919961886146 0.0
0.002497119212851227 -0.00043777254039142254 0.0
0.0018773085997415959 -3.1292330909286834e-5 0.0
0.0018605017039436283 -4.795385172326148e-5 0.0
0.0020616366273666902 -0.0006304133960498491 0.0
0.001898032108915049 -0.00047901076832988353 0.0
0.0019515563996760064 -0.0006244780555133028 0.0
0.0025350111285144146 -0.0005174488768097359 0.0
0.002550599597944894 -4.42337173503407e-5 0.0
0.0016447632228656865 1.723444923600704e-5 0.0
0.002294755757762114 0.00015134737883044762 0.0
0.0029921359338683728 -0.0002670489049727454 0.0
0.0030071540204088636 -0.00023855311065880722 0.0
0.0016483687366044798 -8.858004764650665e-5 0.0
0.00111350794600437 -0.0005209837083481738 0.0
0.0022454417098744534 0.00012263071698606024 0.0
0.0016495399842159336 -1.3771831753229213e-5 0.0
0.00217839070952755 -0.0004556223053738875 0.0
0.003383521558004197 -7.88984626206052e-5 0.0
0.0005728963747542498 -0.0003914155152425293 0.0
0.002102006038585926 -0.00022504521122033056 0.0
0.0016527742652462484 -5.0316154186347186e-5 0.0
0.0016477598129182314 -7.680864856021107e-5 0.0
0.000584445347923584 -4.738735393418347e-6 0.0
0.003037526202901862 0.00010586477748770775 0.0
0.0017765492411319285 -0.00016026755046564913 0.0
0.0030977009242035163 -0.0001968245422473648 0.0
0.0010724878015582538 -0.0004978267489709127 0.0
0.0026345978232430473 -0.0006031026149824541 0.0
0.0027060977643534622 -0.000576896054670094 0.0
0.0009732074784261135 -0.0005113642463087396 0.0
0.002258626294501879 -0.00047028791951597406 0.0
0.001474321059396423 -0.0007721863171045748 0.0
0.0021579152416309954 -0.00013738102553986672 0.0
0.0006230274073242895 -0.0004999552047995055 0.0
0.0017946860793743738 -6.959760071297518e-5 0.0
0.0018653049401127426 -0.00021119132344721658 0.0
0.0018283134798105106 -9.26626753542142e-5 0.0
0.001989382048941868 -0.00047340414437224 0.0
0.002415893330248544 -0.0004603693046099094 0.0
8.455438281318857e-5 -9.098074985309882e-5 0.0
0.00014565710752954188 -0.000152547292786687 0.0
0.0001746505680854009 -0.00018017617554655894 0.0
0.003223315548176238 -0.00025700789598351163 0.0
0.00023485195037613608 -0.00023599385861316417 0.0
0.0009967877189525666 -0.0004773288539810687 0.0
0.00044966266423681787 5.790649704286828e-5 0.0
0.002878971955515477 -0.0004891847926296994 0.0
0.0005272902138742394 -0.0004444021582675053 0.0
0.0005920204501887459 -0.0004829120747988756 0.0
0.003188792609043889 -0.00028277910616696496 0.0
0.0031203402019968894 -0.00033602734051013357 0.0
0.0018491468841522424 -0.0002668685555404661 0.0
0.0013420835038101355 -0.0006560348186525468 0.0
0.0025384911311566315 -7.549508352816874e-5 0.0
0.0029481961042463487 -0.00044675058639594915 0.0
0.0029829340872726717 -0.00042648174079552343 0.0
0.0004651181169991895 -0.00040866193025623456 0.0
0.0003227451984714628 -0.0003057982618190079 0.0
0.0030525476150659856 -0.0003815123422701961 0.0
0.0030804367075202782 -0.0003320932596797382 0.0
0.0020674053101321917 -0.0007504966216531739 0.0
0.000383171295014944 -0.0003519559109530668 0.0
0.002516224473283454 -0.0006616219071078201 0.0
0.0006507705435879153 -0.0003971248420691848 0.0
0.0028559825764245417 -0.00033502172333163365 0.0
0.0009960915610908924 -0.0006303327594356843 0.0
0.0026565833714645203 -0.00046345805788392273 0.0
0.002720972452772962 -6.136236892945534e-5 0.0
0.000976592583078843 -0.00034556921065330654 0.0
0.0006581362600424879 -0.0003186863778409077 0.0
0.001263898134030924 -0.0005541178243102515 0.0
0.001676349633880804 -0.0004657674453589948 0.0
0.002877308382912766 -0.00018843374290877332 0.0
0.0017888645213187707 -0.0007234961146853905 0.0
0.0018223305388054022 -0.00016680615654929198 0.0
0.0018053828273526652 -4.3925301854286e-5 0.0
0.0023146233720873163 -0.0003341752345553724 0.0
0.0026634615829360347 -0.0003874207605043994 0.0
0.0009520633389958229 5.9738984843260765e-5 0.0
0.002176875156232012 0.00011267922954004064 0.0
0.0010631274987614396 -0.00034053917559045526 0.0
0.0028979101154509492 -0.00027241350977342426 0.0
0.0006876302290201342 0.00010616913167160878 0.0
0.0005833575866872096 7.997736987719885e-5 0.0
0.001476166774341799 -0.00010840392922277758 0.0
0.0030284675052542043 -0.00011835052293997918 0.0
0.001615200171813769 7.93720746159259e-5 0.0
0.001768067086384295 -0.00020299261305432344 0.0
0.0032036456950123465 -0.00010704119062081097 0.0
0.0008954647398929702 -0.00034853405074900857 0.0
0.0011016565158135179 -0.00022319560341388828 0.0
0.002488523782414378 -0.00032249357398336564 0.0
0.0027445812504027075 -0.00036058088178106705 0.0
0.0007776544116647871 -0.0003485247645052767 0.0
0.00045614757121966397 -0.00029879772204132355 0.0
0.002630852913482087 -0.00038476359560222893 0.0
0.001125927389085979 -0.00014494984194338676 0.0
0.00261958837523464 -0.0002202671756386151 0.0
0.003442671248300085 -4.0181794813357844e-5 0.0
0.0028578265982353397 -9.297862505433867e-5 0.0
0.0018331808409831267 1.1379920787264584e-5 0.0
0.0018924144789303542 7.679656105019368e-6 0.0
0.0021449150840447215 -0.0002741364016176856 0.0
0.003138233180505976 -2.2613282457565592e-5 0.0
0.0030840316382580186 6.191156074445167e-6 0.0
0.00014127605399332635 -0.00010029303199885472 0.0
0.00010551822822957778 -7.343720723790787e-5 0.0
0.0013780853068548397 -0.0006468336255031864 0.0
0.0022305345632088205 -0.0004351807345154389 0.0
0.0012528343988192638 -0.00023641864341514848 0.0
0.0012520570320921245 -0.00021645730273380347 0.0
0.001237786509635503 -9.310425286134416e-5 0.0
0.0017529621762363689 -0.0006116008484112538 0.0
0.0020486857035929146 -0.0002410681485212021 0.0
0.0005500698402994024 -9.882253880814533e-5 0.0
0.0024110613452037466 -0.00018172877834879729 0.0
0.0018584341330095586 4.743212660490282e-5 0.0
0.0014573648542334327 -0.0004144392845406742 0.0
5.9517428426924985e-5 -6.671505149136512e-6 0.0
0.0016787658367602538 -0.0004398654723826178 0.0
0.0031851693904897433 -0.00012460988375221401 0.0
0.0027183141580452747 -0.00022078452026433876 0.0
0.0025802990542576555 -0.0001656630318636489 0.0
0.003048582221434447 -0.00016739663614892045 0.0
0.0022176497729462616 -0.00019280640064717883 0.0
0.0012198972873826357 -2.943381162978913e-5 0.0
0.00040044930737350326 -0.00014641461374732373 0.0
0.0015050504657533963 -0.00021258147760806504 0.0
0.001891799367002986 -0.0002759521112927683 0.0
0.0004995142999855622 -0.00025705711771016355 0.0
0.0015897195793448727 -0.0007866253058269922 0.0
0.0021442360235169326 -0.00019132897071739096 0.0
0.0010379173977836977 -0.0005021531488479923 0.0
0.0023151541994280286 0.00011459070163822445 0.0
0.002922925020552259 -0.0001846207167954077 0.0
0.001119563890882538 -0.00012330204449391256 0.0
0.0025495257199343083 0.0001464360683073684 0.0
0.001955669781877838 -0.00022730284193347674 0.0
0.001681511072833372 -0.00041488294403268757 0.0
0.0006175863901280332 -0.00012085614973287663 0.0
0.0011511320077313978 -0.00024455820565075063 0.0
0.0014988216033352624 0.0001430201256154429 0.0
0.00046742855805492463 7.559681640680499e-5 0.0
0.002573087277373976 -0.00032342249915180964 0.0
0.0006801468275035734 -0.00025040418318308987 0.0
0.0017282022734749177 -0.0004041939810825936 0.0
0.0028822735670456707 6.92791325758423e-5 0.0
0.002444774365359765 -0.0003200414950305486 0.0
0.001159519901760873 0.00010739993579160582 0.0
0.00020991838398778337 -5.7222393482204754e-5 0.0
0.0008792135405077826 -0.0002119593733762289 0.0
7.867463839173802e-5 6.628573717987695e-6 0.0
0.0001636966210293357 3.3772244489202816e-6 0.0
0.0024320397237840652 -0.0002958280373912903 0.0
0.0020077683032349415 -3.7781574683914466e-5 0.0
0.0011336037634922713 -0.000702643709954532 0.0
0.0007940320015855684 -0.00045543095435635566 0.0
0.002854671815871379 -0.00014715176033711942 0.0
0.0003955475908166276 -0.0003416792121552869 0.0
0.002356265884611921 -0.00034050413450722143 0.0
0.001958060187938568 -0.0005936110538334351 0.0
0.0028280990831892464 0.00010607022828408779 0.0
0.0010177453309304523 -0.0005937953400880658 0.0
0.003073252585180313 -0.00029075126916948586 0.0
0.0017706786458483836 -0.0001888415189774339 0.0
0.0005691579452478464 -0.00044635793548487076 0.0
0.0023661646176205693 -0.0006819065042430015 0.0
0.0005765728173720909 -0.0002894172751843915 0.0
0.0032710230153303946 -0.00011723975437042418 0.0
0.00041342734387175796 -0.00020253625092850802 0.0
0.002416944341923594 -4.014781804399446e-7 0.0
0.002221320524808444 -0.00017104261418468398 0.0
0.0018074684230443142 -1.7518069763788083e-5 0.0
8.084709302219527e-5 1.0020899011183017e-5 0.0
0.0013544242218435068 0.00017735145773025755 0.0
0.0009430866770929837 -0.00013526743004280286 0.0
0.0027356874390319368 -0.0005302504652837742 0.0
0.0027737040657479207 -0.0005482802102197184 0.0
0.00026143628725481573 -9.651703347106225e-6 0.0
0.002010500556618437 -0.0002154052166952783 0.0
0.0008281415479686219 -0.000456150417203611 0.0
0.001415780452938145 -0.00044684275397414904 0.0
8.848901766032993e-5 -6.988740360792356e-5 0.0
0.00019452687170040884 -3.339668342235043e-5 0.0
0.0019301146421069125 -0.00030464301167386533 0.0
0.0017751043877160019 -0.0003921158768089177 0.0
0.0001268017726397179 -1.845661339718372e-5 0.0
0.0003423132249242159 -0.00012019391785451936 0.0
0.00026402809544835823 -0.0002600387180411556 0.0
0.002876190588528564 -0.0003019153376447845 0.0
0.0022706090901409223 -0.0004421234144041983 0.0
0.00041317063653206304 -0.0002696862914649785 0.0
0.0026832557642804183 -4.388830268248175e-5 0.0
0.002464006116262193 -6.376078442841911e-5 0.0
0.00018690419526365824 -0.0001797000689686962 0.0
0.0014322053143769773 -0.00014556783846032446 0.0
2.3463594801530758e-5 -2.4530797085468888e-5 0.0
0.0034751916832450056 -2.4665949201993934e-5 0.0
0.0033729064795721417 -4.762456416862364e-5 0.0
0.0010292431759102456 -0.0006711886974159866 0.0
0.0026902085278931293 2.698703436356268e-5 0.0
0.002271289479437888 -0.0005345861797753163 0.0
0.000457387538187469 -0.00021026261284511975 0.0
0.002154324189121935 -0.0007694429465690042 0.0
0.0004932728380331527 -0.00011865227274124147 0.0
0.0030158925361171286 -0.00013722805106612424 0.0
0.001371771190345182 -0.0004536456277521125 0.0
0.00013249370034127002 -8.715908187881213e-5 0.0
0.001598721735841425 -5.577571600287335e-5 0.0
0.001596797416187796 -6.9836995435732e-5 0.0
0.003169417775601432 6.007754067680394e-5 0.0
0.0019456928159988143 -0.000462342268453079 0.0
0.0002500766762046324 1.3378515276316459e-5 0.0
0.003040354775428486 -0.00036496396985001057 0.0
0.0032002533239987156 -8.282427820643161e-5 0.0
0.002443997489172623 5.2003994866873165e-5 0.0
0.002508817711075229 2.666176831096764e-5 0.0
0.0014868324108233252 -0.0006799305775210282 0.0
0.0034004631030478305 -0.00010364014027341158 0.0
0.0014747284034429934 -0.00012405750031090827 0.0
0.0003262191799853588 8.830725650768702e-5 0.0
0.00040422416584903314 -0.00029387737992024577 0.0
0.0010418478436196275 0.00013998255922991203 0.0
0.0030471669528415934 -0.00028983999150904995 0.0
0.0001783383714824281 2.6711723772007563e-5 0.0
0.0018215063667622814 -0.00015233795100327098 0.0
0.002731563354099699 -0.00019444572723578547 0.0
0.0021927713313974295 -0.00028285360502333407 0.0
0.003420891089436874 -3.5102780428345e-5 0.0
8.046854241130412e-5 -3.818047228428257e-5 0.0
0.0032157310366329904 -2.07307504117549e-5 0.0
0.00343198786704346 -3.4680226323002175e-5 0.0
0.001676107130566751 -0.0007621824062389698 0.0
0.0019863078205190374 -0.0002931873131136346 0.0
0.0011620008922010566 0.00019441758086994183 0.0
0.0008196268099376794 -0.00034802908774293474 0.0
0.0010842000555527636 -0.00019534040586316367 0.0
0.0014233262395920239 -0.00016098574952808943 0.0
0.0006960740755532015 8.792529174104398e-5 0.0
0.0012594172110456843 -0.0005250094335683741 0.0
0.000627487181761491 -9.70136567848973e-5 0.0
0.00041954539839711956 9.263739343635836e-5 0.0
0.0016150706628792067 -0.00026259569339610937 0.0
0.002463685727421666 -0.0004349965536746629 0.0
0.002927203654636561 -0.0002732811926944468 0.0
0.001162091161776483 -3.357654581445696e-5 0.0
0.0007916893864286481 0.0001610696068414298 0.0
0.0018814588534148136 7.201776121324227e-5 0.0
0.0010053117607635538 -0.0001319886039095579 0.0
0.0027756717408341913 -0.00028540324716287826 0.0
0.000984123804653424 0.00019621675258257645 0.0
0.0008867794399259365 0.000191333351171832 0.0
0.0019058939364465601 -0.00042404575053219933 0.0
0.0019359054378374823 0.0001166088082814213 0.0
0.0013582168950255786 -0.0007532489424434294 0.0
0.0025917235376437496 -0.0006300671460302303 0.0
0.0009313899262563055 -0.0003247245307094082 0.0
0.002408876875510953 -0.0007021303973909733 0.0
0.0007499722942406879 -0.00012603751726112544 0.0
0.0028247564139167705 -0.000277858157057794 0.0
0.001327345723965252 -0.0004359103310515379 0.0
0.0030051663886245636 -0.00017558623115221083 0.0
0.0008220989156922405 -0.0003258116878934013 0.0
0.0014081819585165171 0.0001699999925856955 0.0
0.0012342552752594709 -7.226771776169828e-5 0.0
0.0015477408973011788 -0.0005771424543932605 0.0
0.0016441290696117485 -0.0001952286437328922 0.0
0.0015950491664983185 -8.309534238845358e-5 0.0
0.0009542763425886556 -0.0004509035381169287 0.0
0.0009657722796180665 -0.00048190696422674407 0.0
0.0006238665019591603 -0.0002253761365151186 0.0
0.0008809878383369974 0.00025537094288456593 0.0
0.001603450732311653 -0.0006666246821740658 0.0
0.003039855756831272 6.500723999124672e-5 0.0
0.00271332545608855 -0.0003585617978427397 0.0
0.0018992645806764719 2.63520241002529e-5 0.0
0.0008907425355535204 -0.00032638159139919003 0.0
0.0023875576486945883 -0.00026126749872268753 0.0
0.002003419207995186 -0.0005755713986053563 0.0
0.001325110538440506 -0.0004104378446983966 0.0
0.003237869756592112 -0.00010023970140801683 0.0
0.0034002647611678176 -6.120931648932451e-5 0.0
0.0011993578130593987 -0.00022240911690715463 0.0
0.002286377094723652 -0.0007067724724660775 0.0
0.0031173790676459327 -0.000313985998382251 0.0
0.00015662216153845832 -4.014613821247298e-5 0.0
0.000827084659056052 -0.00021382797712019512 0.0
0.0009755964356192575 -0.00032340571926756383 0.0
0.00317759831347124 -0.0002705833959320261 0.0
0.0012535055215461889 -0.00049557332738163 0.0
0.00217704122058627 0.00011870386967060767 0.0
0.000335656775687561 -0.00029887767118576367 0.0
0.002006891461713343 -0.00034726726143646715 0.0
0.0029187828949600713 -0.0002457385994794075 0.0
0.0023205892709870506 -0.00042037272765255916 0.0
0.003293631446731609 -9.586253720289032e-5 0.0
0.002336863577022819 -0.0006394976872441808 0.0
6.064009312533921e-5 -3.1713665082892193e-6 0.0
0.0015369630331905895 -0.00025318699866319974 0.0
6.131214313686377e-5 -3.9357157322250024e-5 0.0
0.0010982469746684217 9.261918393407948e-5 0.0
0.0007294349388546998 -2.527189420173025e-5 0.0
5.273326947294355e-5 -5.12557857222152e-5 0.0
0.0008884819073717743 -0.0006233300770051239 0.0
0.0008220905891760829 -0.000569648280307657 0.0
0.0014806460059975282 -9.449989322000502e-5 0.0
0.0014892577415377174 7.926912732049266e-6 0.0
0.0006017026940111961 -0.00046583020547953473 0.0
0.0010621871099314813 -0.00012842018906844118 0.0
0.0020492537385956447 -0.00022460434618603746 0.0
0.0006105150425436688 -0.0002912847579600095 0.0
0.0022727719146463377 0.00014497662097931192 0.0
0.0020527308619384442 -0.0005562166326753374 0.0
0.0004473288243133009 -0.00011925969150154812 0.0
0.00026033251017273094 -0.0002138601640848404 0.0
0.0017775708461791112 -0.00013292825796861192 0.0
0.00012159688375655519 -0.00012018817821599212 0.0
0.0033351103737096393 -3.271724440432005e-5 0.0
0.00118154259855096 5.195282347602517e-5 0.0
0.0016256446619736817 -0.00024233535152585106 0.0
0.003003901947461037 -0.0003235628737749335 0.0
0.003288566754448904 -0.0002039811024335734 0.0
0.0027446588916982782 -0.00016789155671889376 0.0
0.001598410908297126 -0.000636262775077616 0.0
0.0020859760069553888 -0.00032871305934135557 0.0
0.002932793728951668 -0.00043108810588981004 0.0
0.001747688845867368 -0.0007999522643270897 0.0
0.0028801024766774356 -0.00024980306517901024 0.0
0.0023323464165374863 -0.0003933419016172354 0.0
0.0012106511383108874 -0.000474715697234163 0.0
0.002061446747957478 0.00012817679678791568 0.0
0.0012778871977172296 -0.0003889584963648446 0.0
0.0010728721633021857 -0.000623446766868283 0.0
0.0016000170899174969 -0.00020041824630458933 0.0
0.002677605607369177 -0.0005579763445566943 0.0
0.0006177711768111392 -0.00020488357180352323 0.0
0.0005035890933733026 -0.00041238192044462316 0.0
0.0025045243647825923 7.363162939358143e-5 0.0
0.0007808184500999744 -0.00023548955868323723 0.0
0.0020014547675120814 0.00012846369550585098 0.0
0.0011028868449644783 0.00038563424587649894 0.0
0.002594748274911164 0.00015028276764475832 0.0
0.003000283902604851 -0.00015840119298853346 0.0
0.0016636101327471835 -3.897094525690682e-5 0.0
0.0026794177585788507 -0.00019632743108244407 0.0
0.0021016514018777563 -0.0006064922097090898 0.0
0.002220372038193303 -0.000759318464075009 0.0
0.0010209466222672505 -0.0003202363428687642 0.0
0.001063110173544942 0.00020474703263079251 0.0
0.0006774075822675624 -0.00020946519645225316 0.0
0.000754700830903155 -0.000568947362198854 0.0
0.0015086187537931015 -0.0002791321712333739 0.0
8.154883949251882e-5 -3.482391626664887e-5 0.0
0.0005804944120683598 -0.0004267075799241218 0.0
0.0016549326339133897 -0.00011128041523703377 0.0
0.0002026557521391347 -0.00013096308208812067 0.0
0.00020035083709919396 -3.6291005914939196e-6 0.0
0.001812087940480902 -0.00038243334238350713 0.0
0.0018228566528441083 -0.00013897832609497798 0.0
0.0032457800449512894 -0.00021968196215729633 0.0
0.0014242503303517897 -0.0001304021930156618 0.0
0.0024823313290903036 -0.00040601216775723353 0.0
0.0018393195223041332 -7.45637396858108e-5 0.0
0.0004787592921029548 8.812875003747568e-5 0.0
0.0006259582177210801 6.908132598889066e-5 0.0
0.0033456374742371585 -6.92613828711199e-5 0.0
0.0021200389439406126 0.00012313203742088548 0.0
0.0005033004904728892 -0.00021665549525205262 0.0
0.002098719536576427 -0.00014573045898137372 0.0
0.0015940574448398076 -2.1722205236562316e-5 0.0
0.001805557286906299 -0.0001952115555321357 0.0
0.0006039566106550673 0.00016055016228828692 0.0
0.001821996884285464 -0.0008043830335856866 0.0
0.0031774608424417856 -4.656651292227042e-5 0.0
0.0017835738586824074 -0.00032060548440086774 0.0
0.0017768949827996455 -9.447190324576346e-5 0.0
0.002258793744801409 -0.00024158698238116493 0.0
0.001539323568288042 -8.968545406692408e-5 0.0
0.0017924515074502186 -0.00029795962959835824 0.0
0.0008684002085454665 -0.00048678155586871037 0.0
0.002384056180821013 -0.0003714194583681184 0.0
0.0014175689417302495 -0.00022497976795096924 0.0
0.0017750951023664207 -0.00012043182086418072 0.0
0.002804136934098428 -0.0005363463969080266 0.0
0.0015143714539870565 -0.00019601917548464366 0.0
0.0021171725473562316 -0.00010864404387250808 0.0
0.0018478484551221282 -6.189032058496675e-5 0.0
0.00027344399975927987 -0.00025424976415693956 0.0
0.002729645677879723 -0.0003343173059789907 0.0
0.0018347036406662174 -0.00010853958690758138 0.0
0.0010160628464381976 -0.0006207722214954881 0.0
0.0020009929723717227 0.00012950717591513 0.0
0.0024828235975788214 -0.0006804591353764296 0.0
0.0033579348447499583 5.369079896121708e-5 0.0
0.00015948954639367284 7.423209763892776e-5 0.0
0.0014709237458754463 -0.0002880924088532121 0.0
0.0019582361244434455 -0.0007689058481159878 0.0
0.0012356838583079076 -0.0007016344333491175 0.0
0.001403919462951038 -0.0007626611871669093 0.0
0.00026480430197853495 -0.00010864190299914978 0.0
0.002528057972206601 -0.0003857536930557332 0.0
0.001026132606920157 -0.00029780336536795553 0.0
0.0014625660052993699 -0.0002029959763764802 0.0
0.0011659145787221645 -5.411371829453432e-5 0.0
0.0014533716794792064 -0.0007470192779669682 0.0
0.0024950391560020885 0.00015116441961784583 0.0
0.003207496888916815 6.916062662594801e-5 0.0
0.002102588084251028 -0.000580862665702409 0.0
0.0017771799570443253 -0.0003452545863097873 0.0
0.0011393722427308149 -0.00046813777131948813 0.0
0.0018975887799303204 -0.0008049098086438367 0.0
0.0026383032873611542 -0.00032706978666641846 0.0
0.00023320414216877451 -0.00013129761099891265 0.0
0.0031291374038709204 -9.69825864082959e-5 0.0
0.0015321121701541269 -0.0007563239145292088 0.0
0.0015688987265429265 -0.0006806672207151114 0.0
0.0023783965026957852 -0.0006084019686591595 0.0
0.003448792809148958 -4.5808898666893274e-5 0.0
0.0013079079359761756 -0.0007193208906627421 0.0
0.0010999269598161523 -3.569816026424903e-5 0.0
0.0011568822941396494 -0.00022799125699657052 0.0
0.002243754314089019 -0.0002680978366454662 0.0
0.0033540986535133726 -3.531066266649059e-5 0.0
0.00028338725804978436 -0.00022307637820480485 0.0
0.0017990569647723493 -0.0002782121601764168 0.0
0.0030906086603239634 -0.0002969840976352462 0.0
0.0033427019262174044 4.718361636825191e-6 0.0
0.000978228950925379 -0.00018545598005924796 0.0
0.0015680358071743109 -0.0007639253182717323 0.0
0.003250219322923984 -8.750280599158718e-5 0.0
0.0006007240231035506 -0.00040109990801898756 0.0
0.0034034324573676347 -2.4212530127639386e-5 0.0
0.0011020476187703018 -0.0006988386729664285 0.0
0.002395788285333941 -0.00034462102273574697 0.0
0.0006583703509842329 8.799092470988826e-6 0.0
0.002170988817723229 -0.00011172814402858054 0.0
0.003369190315234607 -0.00011767822007260335 0.0
0.002688620781958059 -0.00030357516979213515 0.0
0.0009684171084542812 -0.0006290199502448494 0.0
0.0006896140561015855 -0.0005391600614071045 0.0
0.0008671845999032629 -0.0004442603041768991 0.0
0.0028740571128090158 -0.00046571931065005534 0.0
0.002629741642110525 -0.00019941907814797919 0.0
0.0005462266760125767 -0.00022467677913781068 0.0
0.0013919710748957204 -0.00027598721711948634 0.0
0.0022391367374543975 -0.00029493694345621255 0.0
0.001343252018953835 -0.00032272145064359616 0.0
0.0032805673507673456 3.017118579429434e-5 0.0
0.0023977312052266713 -0.0001615638111530449 0.0
0.0014110520649915214 -0.00020981577813706812 0.0
0.0005604600423466612 -0.00019999146530252812 0.0
0.002557045171494592 -0.00034577551417044303 0.0
0.002131115904267618 -0.0007139795383098444 0.0
0.00300802318622836 -0.0003907301431522789 0.0
0.0011786215456687863 -0.0006888716138370003 0.0
0.0022200059451353503 0.0001032224414192409 0.0
0.0012811371864771613 -0.0003642089168063902 0.0
0.0020298501089926944 -0.0007636983620272107 0.0
0.0029770009780114683 -0.0003243633233297228 0.0
0.002609954952898427 -5.183033394064449e-5 0.0
0.0032813209101592907 -3.661793401826844e-7 0.0
0.0007987066664176799 0.00017196107202744067 0.0
0.0031901528815937216 -1.2294435751759863e-5 0.0
0.0011237182900214818 -0.0004304240819381333 0.0
0.0029438700320254052 7.403331576404507e-5 0.0
0.0020541561855499527 -2.431311688246925e-5 0.0
0.0024154541743969284 -0.00011459603788594988 0.0
0.0010557729733361425 -0.00026845444913308055 0.0
0.002453086030606449 -0.00019350773629990008 0.0
0.0016433798201239197 -0.0007689914346166569 0.0
0.000906128125733845 -0.0005894083374390866 0.0
0.0018633058427053148 -0.00014497772380810307 0.0
0.002598806655858322 3.454154154632578e-5 0.0
0.0015418134357693103 -0.0007161543425284307 0.0
5.7890821290415657e-5 -3.412092206616036e-5 0.0
0.0033716593135368665 -4.404252922794209e-5 0.0
0.0029342914895546476 -0.00010277724393918912 0.0
0.0014268291607719675 2.603354416958213e-5 0.0
0.0034176051466942576 -5.4465396418957835e-5 0.0
0.0009574600625275725 0.0001423741206167521 0.0
0.0015972114626533157 -4.457292391654864e-6 0.0
0.0034735790910459118 -2.949450821711458e-5 0.0
2.4283184677608442e-5 -2.7836263847690027e-5 0.0
8.601333523359122e-5 -6.314743811579883e-5 0.0
0.001001687521788269 -0.00011345733305790632 0.0
0.0021189688798948975 -0.00033804848726858044 0.0
0.0024149551803691435 8.186834757433089e-5 0.0
0.0026823928917234646 -0.0005260537059779773 0.0
0.0033829295719842124 -5.253815347448441e-5 0.0
0.00025908004387353167 -0.00015052128518637303 0.0
0.0007294047804543719 1.635347534363412e-5 0.0
0.0021455840147525055 -0.0006786910254411795 0.0
0.003036428512204809 -0.00010303428289362429 0.0
0.0008947421869991424 -0.00044309459792099266 0.0
0.0001992964533134605 3.543807791221354e-5 0.0
0.0021485467349759823 -0.0001538594125916291 0.0
0.0010457768296136824 -4.0311981955941365e-5 0.0
0.0025503464734698547 0.00014117625018755106 0.0
0.0016174315980829182 -0.00010834260197851378 0.0
0.0013317308011381976 -0.0003416331346051336 0.0
0.003082711385269249 6.853495746755058e-5 0.0
0.0031452722770003248 -0.00030008632367912487 0.0
0.0025784440841123283 -0.0006090804389039034 0.0
0.0007867061256894113 -0.0002175210999856279 0.0
0.0032168845543533594 -8.516442637992267e-5 0.0
0.0005357845320575313 -0.00026643406537605577 0.0
0.003248320191305019 -3.975434538947413e-5 0.0
0.0029018194730546856 -0.00045575765616520967 0.0
0.00207881160731001 7.847608461220202e-5 0.0
0.0023958909935698743 -0.0006813631965860536 0.0
0.002513839791140495 0.00012292687637708368 0.0
0.0015996148330773138 -0.00016713626195945935 0.0
0.0008970119575137656 -0.0005588959459564457 0.0
0.0012506439884358957 0.0001858519415058764 0.0
8.164489410332461e-5 -3.385035896934357e-7 0.0
0.0033401154409727586 -5.248780911284492e-5 0.0
0.0003618829882405121 -0.0003228680617670753 0.0
0.0025604988817817397 8.852249512631215e-5 0.0
0.0006287610113196998 -0.00048418566688023006 0.0
0.002399972999239844 -0.0003230264103231391 0.0
0.0007166056417261255 5.042513372601851e-5 0.0
0.0003043050285421996 -0.0001628119260337272 0.0
0.00044119257027559836 -0.00039755829845409803 0.0
0.00039682368892559163 -0.00027343005432537614 0.0
0.0010712415509388695 0.00023427556373113747 0.0
0.0027228830025271184 9.529879677507723e-6 0.0
4.492495775769679e-5 -4.0391087139250995e-5 0.0
0.0029121189890262108 -9.125792729720121e-5 0.0
0.0026347483099777302 0.0001324134760056594 0.0
0.0021717623893312533 -0.00032197759910725836 0.0
0.0016189068275253408 -0.00013249412395858042 0.0
0.0009191440553212693 -8.434022625846865e-5 0.0
0.001656372122497972 -0.0001810535321561358 0.0
0.0021942073473084694 -0.0006180248652934203 0.0
0.0010664076313814301 -0.0002982871623491354 0.0
0.0008000417233726598 -0.0005683574913621569 0.0
0.002971014212520851 -0.0002484424453623866 0.0
0.0022597374549616087 0.00014990215566949817 0.0
0.00036398441697116206 7.520150349594074e-5 0.0
0.001035033236692887 9.163527513338047e-5 0.0
0.002334925815875805 -0.00024334439433703435 0.0
0.0021811474884363795 -0.0007384415888888438 0.0
0.0013875039352814855 -0.0002945336320555505 0.0
0.0027662311064769575 -0.000528273613115011 0.0
0.00021556082052236775 -0.00020820299661398312 0.0
0.00241617629094124 -0.0005822976011675595 0.0
0.001160577979754595 -1.3103808849426442e-5 0.0
0.0032723891451231237 -0.00020162025786090096 0.0
0.0011186707190646553 6.803069844873384e-5 0.0
0.0021346787050621962 -7.972695074579256e-5 0.0
0.0018265101758309524 -0.0003670049981907313 0.0
0.0016023632763638258 1.1220895157201911e-5 0.0
0.0018984683225233144 -5.421581776227625e-5 0.0
0.0021062212390847513 -0.0007488566651544967 0.0
0.002705229538047497 -0.0005501110485078435 0.0
0.0008608295666744869 -0.00033047395005977 0.0
0.001949186792829839 9.600198833646358e-5 0.0
0.001901152689518442 4.284653400322584e-5 0.0
0.0026964716433041727 -0.0004877371668129746 0.0
0.0016069297612146892 -0.0001531829659853424 0.0
0.0015537368069020157 7.493340862752095e-5 0.0
0.0008909679005021238 -0.0005305188064368388 0.0
0.003250313618227046 -0.00020006465640445535 0.0
0.002271957799828 -0.0007463997736723778 0.0
0.0015452792442738545 -0.0006952771921201165 0.0
0.0033715048323431918 1.5239313960128394e-5 0.0
0.0015233834378967407 -0.0006169339805663916 0.0
0.0025693816282730043 0.00010550674987743202 0.0
0.0009218882482028024 -0.00016891222737437149 0.0
0.002270450804821734 6.316848054031461e-5 0.0
0.000670755890357622 -1.1020549728299265e-5 0.0
0.0014587239085463238 -7.197583114361562e-5 0.0
0.001014197481413098 0.00030925477957828974 0.0
0.003430777681837686 -3.306820741255333e-5 0.0
0.0021173209392030753 -0.0005595890244947029 0.0
SCALARS damage float 1
LOOKUP_TABLE damage
0.39797300811756064
0.14922905692580155
0.5292789831684487
0.16061218431713403
0.9710903581894078
0.9856417369220093
0.04665588510549118
0.5819166855209412
0.5769361052476811
0.5848700826019314
0.6118824011037992
0.6339478934905727
0.6631395000006501
0.6917388799191847
0.7088666095604702
0.7209996029476736
0.7163925896989322
0.7088738120346604
0.6937117277304594
0.6732262822480203
0.6534052347222112
0.6412853897405727
0.6203548049594955
0.5983877552408592
0.5834366735836297
0.563619989294586
0.5363250987596668
0.5110648003484516
0.47534116084506056
0.4383436878927616
0.38928433796109896
0.33078004354383045
0.12974678245046914
0.23105166388267423
0.2516847563482219
0.2833037845606081
0.3044139604838541
0.3199215721780311
0.33732299768525525
0.3494677753387487
0.3620142102984054
0.37443872823682
0.38411490203057946
0.39508035956935866
0.4064871507846412
0.4140590169538566
0.4212218425062675
0.430850842516011
0.44150546785319295
0.4540062380422964
0.46117869671195644
0.47064424247904524
0.47961268722146305
0.49250938348343914
0.4966225414071566
0.5114247816950005
0.517434188145316
0.5305876036207682
0.539177925597911
0.5545704168089615
0.5582435956001054
0.5743632631079056
0.5842346169443318
0.5980868516803004
0.6075827785210645
0.6204321394077869
0.6268054756644764
0.6369035273314049
0.6511465228647216
0.6644059546819379
0.6847952255622932
0.697878930905236
0.7110037606549283
0.7350595100492632
0.7480564105000403
0.7653483018676706
0.7861148688350941
0.7968066561202298
0.819136811543565
0.8321882964116717
0.8485076124457864
0.866486275787396
0.8795491288298659
0.8841721842735635
0.9068831677274156
0.9159947839447725
0.9421859308772826
0.9431920842171491
0.9605161343300453
0.9640877020629897
0.9624191488196829
0.9565979424689878
0.9457098694006968
0.9317404000349915
0.9174412850145206
0.8981353126683037
0.8854420400475774
0.8682815522090994
0.8405775834984441
0.8211271164718636
0.803114260211358
0.7926721384134101
0.7703532262784116
0.7642442011445909
0.7464768114422915
0.7322750075670356
0.7216421174979919
0.701863567844877
0.6952783165931087
0.6825951093651995
0.670158140958867
0.6535734168345916
0.6546835674629264
0.6329450435349145
0.6265903655406008
0.6107029426276362
0.6000606302032412
0.5902959014128373
0.5739945355977861
0.5623803043644379
0.5533096156080007
0.538866268185891
0.5210234525239742
0.5019865888748484
0.48917894700001274
0.4714600945805161
0.45510203129168375
0.4134387616123671
0.37930082668085496
0.36382700948991825
0.2380205995085275
0.3139356413850573
0.3970031677966547
0.48594856153770793
0.530719298259455
0.5548045157406549
0.5707942374620606
0.5817943406946632
0.5890619836231228
0.5946680576121518
0.6036091399800928
0.6098017287486466
0.6158619152403584
0.6217787524782271
0.6271938231525773
0.6292320552783892
0.6275616015053457
0.6223007646211538
0.6178551057332134
0.6039214218628617
0.5989093193674022
0.5916511801541269
0.5864628518000322
0.5973944346186829
0.6178274909943376
0.6973550634421403
0.596831611004823
0.902713896596346
1.0065597346047497
0.9917932407754204
0.9879473074916006
0.9591017308605994
0.8486931417913075
0.757798139167218
0.6575418883762487
0.5733258895992623
0.486195646451281
0.42481103238300727
0.3506190060805866
0.27638422801746265
0.2029337030889863
0.16706103119204116
0.023303162631310832
0.0900610854814101
0.1606218623244136
0.24223962937476873
0.33151979903481893
0.437633727028097
0.5470535137778814
0.6728688095081801
0.801846537949756
0.92350811098252
1.0067759854640081
0.995023157684292
1.0021579387585284
0.9603632605302024
0.8515948566925146
0.6192721718845993
0.5668071726796439
0.7973804203083376
0.6509725385746914
0.909384795485663
0.7546882162408879
0.9457529496380292
0.8539036826786967
0.7149817120741383
0.5056150146051904
0.6579041978338326
0.4573251731354766
0.6690826933324456
0.6236398281993908
0.4514759751436268
0.46704926387266715
0.06300332938638932
0.29052333613342374
0.5966768802297816
0.4123893522527232
0.6065994512821422
0.6032243375249033
0.6081046953228902
0.7016743351734835
0.5452132847968493
0.36545105353800317
0.6871570041614551
0.5472580992650874
0.5535008420102274
0.5750319098532719
0.7011479283293359
0.807930158595579
0.9493833476587394
0.8891231204243636
0.8648151708031686
0.7508960910452744
0.6176237629176677
0.5346993278531533
0.4913811070765034
0.3247010441232239
0.5820068765236855
0.6699639289433004
0.5311360698517337
0.4607039288230313
0.8281445653896061
0.793925941243897
0.5879406406095818
0.5973187951969016
0.6411275460021192
0.6192694375265388
0.387669428678508
0.16123463722317985
0.2660537944650648
0.420215362463051
0.8220339833340446
0.9214536175214612
0.6722150993168632
0.5897757384938365
0.9579280318382951
0.6891982827171892
0.4863175118857227
0.6325375978283239
0.43686983055603595
0.38910055654854486
0.5688363883891753
0.8076046141200194
0.8419047699680726
0.45089401775076743
0.3764278676759152
0.9853781454351993
0.9695958958353452
0.5321555403419623
0.6474383835782429
0.21449758443112132
0.35520700030130364
0.9725559061596991
0.8158483092729903
0.6795613733879182
0.6872602817437917
0.7741638578022312
0.6590161891948851
0.6186904210456614
0.5955144534211605
0.5733551392660623
0.5543738465244837
0.5656209856390505
0.5392182468663278
0.5470834124581123
0.5302414148300517
0.5389003961529925
0.5358722528075508
0.40750651226875934
0.17887137134272066
0.35321267033691345
0.21606370109892445
0.3432834670892966
0.2650631805419876
0.34699689076142004
0.30007697250932824
0.3570909901525809
0.3230034580310756
0.3625460741794661
0.344988330066327
0.3784035785444102
0.3606260513028456
0.3876938422206789
0.37611733678086007
0.39752472786602694
0.3860843852360106
0.4044089837224809
0.39703469381701667
0.4121186604579396
0.4080053988616484
0.4197118248108244
0.4176955280544243
0.42976137073564136
0.42919022842368143
0.43906198710560657
0.4375168468098485
0.44716352331133924
0.4445590069910512
0.45465967942639074
0.45574515457461406
0.4640893353093727
0.46589872144898087
0.4729314600187634
0.47456985320138556
0.48176355931515413
0.48467398207524703
0.2854519961298462
0.49162066386546527
0.3828721078434146
0.4514567643794383
0.4944994612768908
0.5017687335591142
0.5047788861800767
0.4975881253677249
0.5079226915593069
0.512126883212626
0.5090927439226733
0.46246969759364936
0.519907100375646
0.5166183387164597
0.5270188006680989
0.5005427764795628
0.5111434083977686
0.523620914236554
0.5039609726684101
0.5144703515571724
0.5357169479976891
0.5326523519519074
0.5082320964234139
0.5185958415805444
0.5450784218548348
0.5423912238682753
0.5116885899086634
0.5213957925742492
0.555399775562294
0.552855005572152
0.513923654340842
0.5243504374758337
0.5662342740748192
0.5637823741206911
0.5160615494720296
0.5282983818992737
0.5188989050479218
0.5077502580547294
0.5688541744880778
0.5775027116250225
0.5744449755415068
0.5600697570800197
0.4247282896876436
0.5717678663965734
0.5565524106336804
0.56853234174932
0.5313481547027235
0.5228933654133173
0.5375320206486548
0.589051009681585
0.5325092831584022
0.5233213974257187
0.4080815051503062
0.5324884917167385
0.5236804152973572
0.5324390046242715
0.5233303758724714
0.5149661279678975
0.5138936509759277
0.5077609350692286
0.5319410802735387
0.5096497381056995
0.5017759566649613
0.5418187896058846
0.540415663005454
0.5031293920465001
0.49694565953491565
0.5556643392752306
0.5671761376746955
0.5499814461168868
0.5469897576411472
0.5555555778716337
0.5683085687492737
0.581199205581505
0.5807603755192171
0.5981784578834132
0.5950054837191852
0.6128727827524816
0.6077315756743624
0.6272503924248969
0.5929278348621521
0.6198656269695322
0.6419481869580609
0.5576015307023848
0.4990849185971121
0.4937888787070973
0.6489711144772381
0.6647748224828789
0.6553546285838441
0.6762523927508659
0.5544111281767444
0.6795004084383834
0.6676653592830284
0.5653478727912872
0.56255147088328
0.5520404645345071
0.6925953277257291
0.6797408632147489
0.5746745330436175
0.5783352311451272
0.5589192817753375
0.547831210546328
0.7018560379905996
0.6894381713645941
0.6623239885798846
0.7150043709936867
0.670124311257754
0.6474206915985904
0.4963091903331711
0.4933812584623515
0.4884345648902622
0.4929411692282586
0.48335660624303817
0.48983197314148463
0.47883206789283506
0.5879946187681417
0.5914031421185292
0.5538978781562061
0.5431457567474519
0.6954178801030819
0.4909451517163815
0.4780362071862938
0.6012480300081607
0.6048510877645936
0.527422222640741
0.676161397802465
0.42919427204137744
0.7357850813816322
0.41993318958377174
0.5574748746998783
0.4936128748652609
0.4799728768990839
0.5500361607628443
0.5398210684271287
0.6148621445421191
0.619443589015539
0.7009545453131882
0.49863113945175924
0.49980357644305856
0.5027166606002099
0.6782375186676104
0.5027050698550528
0.4850557640878019
0.6104149363251458
0.5446364717730483
0.5342464064029819
0.5452483377649996
0.5508329778592278
0.5381939212940114
0.5483455035590825
0.6296031914270436
0.6339022592472389
0.5005022478107212
0.5106869769529077
0.5013123330137825
0.7038672779771847
0.7209762579869703
0.5353050246404988
0.519379428686735
0.6839826468880309
0.6587455523588416
0.5528635419012191
0.5561945129712175
0.6453835545849772
0.6492210694104464
0.637260872661389
0.6529448985583962
0.6401784857137158
0.6560853047895541
0.6424684162413551
0.6580236378549409
0.643427075425936
0.6588673014165614
0.674352641416891
0.6754284260935671
0.6917892617557161
0.6926365344908268
0.7097780880141471
0.7103437100225901
0.6437087108076788
0.6918989101576501
0.7095511295832813
0.7293518079537064
0.7284416420126093
0.501098184527696
0.5010080954492993
0.5392596317971515
0.5293485089886644
0.7074120962941647
0.7259036036684576
0.7485207272471871
0.7455299475050204
0.5042711585188585
0.5021608696619727
0.5362765213495607
0.5505410347924243
0.5396659803542383
0.707202597550844
0.6870169048636597
0.6618666916943223
0.46247571933920006
0.5392460048919784
0.7696937294512802
0.7659259557967635
0.7410052317405351
0.7614734612447119
0.520418568071832
0.5591346558190284
0.5688917227675496
0.5402140003520435
0.5336733374674582
0.5238988898115136
0.5474710406474514
0.7865182349281535
0.7822245224381226
0.7550423469168286
0.7771448952477588
0.7488224819715324
0.7695783351882914
0.7986366852544012
0.790198446553485
0.5676155023496452
0.5061417960573239
0.5022151905908621
0.6580522388610683
0.7107730055393366
0.692160252436678
0.8163729643087296
0.8105817355876175
0.5496759981404877
0.529203612396916
0.5185722243820748
0.4831908769694173
0.5313661450095652
0.6748703769504829
0.5717468984478207
0.5252940080990316
0.7144811702666919
0.6915619706794529
0.6610760268121554
0.5753210249876137
0.7247507534482267
0.5125388266640519
0.5353124068056105
0.5760583085444515
0.5653910369205504
0.741843528170559
0.5216982804889139
0.5116731327818561
0.507848741784748
0.5022918599551829
0.5341208203924603
0.8365142635362969
0.8262538753131892
0.5088801139649572
0.5028272841123727
0.8432609527665089
0.6695515445374386
0.5043629209381636
0.49588948942932487
0.6276947349156082
0.6618123904354924
0.6327182273244839
0.6916660369940532
0.8511120981519705
0.8401346556546452
0.7222702533685056
0.7154451103240175
0.6869996147562275
0.8161640134845363
0.8275651445226041
0.5102760493816553
0.5019793419918931
0.8482352774103715
0.8340728196584202
0.49663231636239585
0.4881256015583052
0.5978881270030476
0.5915527007585694
0.48833800499638846
0.4810481934731944
0.47908640028047
0.4722276492108969
0.6614142877103933
0.6891252758470525
0.5560202270729924
0.5736033375283491
0.5271564235529937
0.6815672800042857
0.8511332076043345
0.8369086093524363
0.5447527283608745
0.8043039310794093
0.7079239914801905
0.4751343546696229
0.4671276934690504
0.46406588246761404
0.45807355288175755
0.4624163696321318
0.4537988659745118
0.4607371006492816
0.4523859307660955
0.46367251376920654
0.4550029401390661
0.46950403928623047
0.44290608941458826
0.44962197899611206
0.5112323924956609
0.5218291015188481
0.427998268880739
0.43649314708779263
0.5390013610930778
0.4996941153023908
0.6971041687637393
0.6908033703254551
0.499998234028738
0.6991760464005802
0.7036088366889645
0.7084271713041993
0.6842166570296349
0.6609691223201184
0.6815817288563922
0.694687764416074
0.5550562591930019
0.5854734805704
0.6638439586220644
0.6745818680165033
0.6580797240597128
0.4534476739659326
0.6193519433619107
0.6212323564172554
0.5087424984966743
0.8509001627025716
0.8367000598676271
0.823752839470561
0.8246947395626952
0.5450387961112965
0.5648149600419539
0.5946466985440713
0.863052566159966
0.5384329641612547
0.8340361317700882
0.8225313298359044
0.8106845572696869
0.8099960974434419
0.7978201027725297
0.7979525577278576
0.8063275454480217
0.7947189851197329
0.4188304310085312
0.4231226227421158
0.4484964645153407
0.7149049667929189
0.7221695203183847
0.6673915911339626
0.6511214107313344
0.6794004970440971
0.669200080111551
0.5498645713457337
0.5530942168039857
0.5896392383199835
0.5829374107719977
0.41514980971416093
0.5516061501689983
0.5254570473200311
0.6859766170680345
0.4745039756031788
0.5404293394285855
0.7997154217830094
0.789305863596152
0.5436724789964509
0.536380213098797
0.539038904957825
0.4977737742386048
0.5245873496006586
0.5374394009522335
0.4605855162474233
0.8293694003995932
0.5933004307802631
0.7715738859708732
0.5829114240772213
0.40449029758454996
0.4117149617643115
0.506521239487017
0.701595095494544
0.677387288109806
0.6835455113657526
0.5487819447903854
0.5438611950469328
0.5544029281752798
0.5517629013959612
0.544498342146351
0.5513917904230597
0.5599385637274222
0.55778285402067
0.568889912080514
0.5703636795694046
0.578248800076188
0.578904630238784
0.5885321200553224
0.5867652733565599
0.587911097115161
0.5942268393138095
0.59484396797547
0.5479098110696888
0.500862842770501
0.4984597399366783
0.5083408470983815
0.6021732177487413
0.6002118982848363
0.6015582987764515
0.7939151461941021
0.7946605874241451
0.8172756887154333
0.8171793741641961
0.8394196168441245
0.8383224261287915
0.8153387809944703
0.8350456645937698
0.8112461213710854
0.1491135731962633
0.8607142146689664
0.8614931655906135
0.5227892191953822
0.6291430484229718
0.6286725985281559
0.6148986730146203
0.6135988288191777
0.6006593985559167
0.5988076859788523
0.6114181106856441
0.596174047820167
0.6091384700721967
0.5922313147825
0.604853981405244
0.5811656621649754
0.5865226461229432
0.5886684197860287
0.6215772005102269
0.6175680972873009
0.5002060059781296
0.4674550538469989
0.3364656585837776
0.7041550874649057
0.6259613667591676
0.6211250530795015
0.41390880512755546
0.43961248434600114
0.7956841676848349
0.5845500489955054
0.6632834811284369
0.6548478519082496
0.4806369641854738
0.6599694451743616
0.6438845132518846
0.4074208030784626
0.8284173139309345
0.8040553448772445
0.635123462098501
0.6291208859920178
0.6199880488244894
0.6150889317299773
0.6234654886240029
0.6096201956247199
0.6186686486195991
0.6043592103714126
0.4516876970488644
0.5988372434471323
0.6486363773666063
0.656127872149608
0.5389965444864692
0.5263879181511345
0.5894122549551923
0.5737574929128724
0.733560646689668
0.7392878588393567
0.8588611835377017
0.46918304989758597
0.5400066630135132
0.6162423179886429
0.6684293400813752
0.7821919698325244
0.6447311521471099
0.7831013245344013
0.7774238094595949
0.7796925727801214
0.768053256993076
0.49317244791001985
0.46066445809815015
0.588515822534156
0.5732466991193271
0.7101742288577121
0.5107332990263611
0.5187546442297079
0.871092122364781
0.6062917238860346
0.6730398379868224
0.6792214237072451
0.6418950601327406
0.6345387961735064
0.6392644777571912
0.512734129223432
0.3874838201133123
0.3975753348281543
0.42807102510574724
0.5731191052330845
0.5793401786113028
0.5709644845138074
0.596253207868686
0.6044250121003474
0.6034779346312565
0.6526442295437626
0.5607718400864966
0.6022314082967135
0.5964297859873944
0.5724218163149816
0.5783031226753514
0.5783720598345194
0.7859346599923207
0.5966033061194007
0.5905023731096696
0.5984684124075539
0.5853588144520617
0.7682248320856584
0.7605372784473312
0.7577610850601271
0.7479677772126992
0.6603220129113098
0.6537940244628759
0.8819987899231976
0.8815606125216827
0.5748867769464717
0.5773467379138746
0.7233682359179207
0.5912932959920559
0.5785144849087468
0.7013050025365496
0.6944919929800613
0.7099684682269405
0.6983547878753631
0.7533200093861223
0.3841010303890315
0.4755436528018107
0.4835063861872936
0.5444167558622593
0.5588740283452021
0.5483184544358933
0.5746826260361199
0.56296599391086
0.5906300045305874
0.5792612391938818
0.6750626980356819
0.5775812500428471
0.7776612503068743
0.8754097752416451
0.8838498973073909
0.8867995458647591
0.8213950773649852
0.6312546923892208
0.7404195704862403
0.6217566323016324
0.6081019792255823
0.5082069044880368
0.6349355486270529
0.6873197742588566
0.682710732086415
0.8523031850949365
0.7976217665493893
0.5009022462539839
0.5989355165102618
0.6018960643511183
0.6012650481300869
0.5990583125654172
0.7242405641591927
0.808082269341206
0.6563177612052451
0.6700040621447421
0.544042197734969
0.6946271614826248
0.7907116983438184
0.7792163858633637
0.6259978922168639
0.637064538014384
0.5213643559386134
0.5301858282953816
0.6081848410493117
0.5972480025762625
0.5672209750874289
0.5848862516995577
0.6147112820316396
0.6024018273870122
0.6299957822182596
0.6178837742970043
0.641777674472157
0.37204545628088714
0.6626807033138026
0.38422897813167517
0.5022115656346983
0.593691050256203
0.6429299681649328
0.6090564899874331
0.6823313653104804
0.6285221850558761
0.45014988662123284
0.44176207065790046
0.6053337407285224
0.8657593224348797
0.6681669059985348
0.7306343010541657
0.6048041897213765
0.5894834436430142
0.577866605605364
0.589359531243166
0.4618335043357722
0.5786396722864032
0.5285136549624375
0.900945474632313
0.8998624014860694
0.8808969210930108
0.8988769080875051
0.7918481813394324
0.7673524421820818
0.5849917045405667
0.5922491440252522
0.6859078033266552
0.7129954686905543
0.4918991976741372
0.5845499782628839
0.5719687969478119
0.5240234877911569
0.749115384603405
0.6453610030538166
0.566276528092957
0.9167945734544771
0.9150840672264519
0.64382064066561
0.647628111730278
0.6280462834777544
0.5067175751822783
0.4798275040623798
0.3536785064804277
0.8770545242598344
0.604015434706582
0.8143224343819686
0.502742202005269
0.5148061833654561
0.45775251258548477
0.7402267633121585
0.507373885499357
0.500502612127232
0.5065681996347741
0.5004259257960271
0.5050221653504681
0.4949342353075175
0.8966163288431386
0.8977048244419007
0.6065994868589035
0.8379476263849961
0.7266669059205049
0.7234372425620895
0.5315154949461752
0.5523164705784281
0.5317326551766197
0.633494834866236
0.6162808988092321
0.5567447034141076
0.5405527068139585
0.5379954204495149
0.5428942400720247
0.5235407956611343
0.5769472702282556
0.6474308457579289
0.6850794075187333
0.6208096432914338
0.8988952941982337
0.6624051399444899
0.5971711733139958
0.5798789631940025
0.47613204384105035
0.5758581418489345
0.6377731852744949
0.6337807115483608
0.48762555294784404
0.43923797842241624
0.43077160230746414
0.43512975295964146
0.4945592458190887
0.36758351131397465
0.40702283061922384
0.9303856628683091
0.9237625354525343
0.906335694272864
0.757261482579511
0.7595160138893619
0.7268705931748533
0.4957760028740738
0.4916325193506449
0.6489202131562983
0.6011259173291513
0.5989836292202607
0.5874791165282559
0.5783171652932159
0.3502864211569522
0.5219688567825972
0.5058233845866128
0.4965098151061061
0.4800484260361192
0.47865023967780157
0.4862057273547451
0.667177526291702
0.564742407937877
0.5615746867369487
0.42865364673984907
0.4194287427630308
0.5402829593771358
0.5451009549967931
0.5552313548171018
0.5581431330910686
0.5523476244773515
0.7925311119588888
0.7770160496030721
0.8084128068607416
0.5831393134217157
0.5371028013246255
0.5427068217785966
0.6646128647435159
0.9079127927681273
0.6112018278531522
0.7272178818565248
0.494964654708961
0.4788504106385409
0.4928142510609715
0.48305775076272356
0.4952170677987562
0.4899496540638551
0.5016308796430111
0.4985256925666744
0.5100312083071381
0.4711345851615721
0.48812832568342407
0.8887434839767745
0.5756129709702383
0.6113761349462516
0.5984314770288471
0.6470194743118677
0.570295552611299
0.4628916164245934
0.6258226034034944
0.5872555117463779
0.4158904755562897
0.4415164424214384
0.558680144166118
0.6170077063204175
0.6186402978228629
0.589260938213562
0.5769419423714673
0.4701300380990652
0.3323307934889138
0.5623188958997284
0.5426307418152845
0.35087140369132347
0.7546949081359753
0.7424264313859356
0.7545042399216478
0.7305241438354788
0.4976597338062948
0.6158783249514918
0.4750025343449299
0.6336898466656062
0.6146702193589376
0.5543002060514785
0.5420226290586372
0.6783014326678215
0.8085375604365169
0.7969355930468166
0.8060865887103624
0.7913355808569862
0.7973647643870015
0.8149280737960113
0.8407071406911029
0.8857714884722184
0.5727770893885596
0.771928229888004
0.5879196468736465
0.5405875611809673
0.539718528145906
0.7850007831655563
0.775909071732917
0.770753505782242
0.6870212310997275
0.703951569879903
0.720247353376552
0.7372973292723702
0.567424200660165
0.701435048209438
0.8587176265383482
0.7484791454117985
0.7262151554910804
0.7123580971870153
0.7305994283878665
0.5419839565886275
0.6325438756285449
0.6257560067765382
0.6394681280255581
0.6341463124538466
0.7428192403985364
0.5039375727242789
0.48472092502765757
0.5981107859217598
0.625178602244988
0.6421033073377177
0.9086403415930341
0.9166358263957376
0.6710425926364457
0.5689162919786577
0.4849442591815589
0.7324775102538522
0.7140968379317542
0.5908352212318875
0.5672264797232593
0.7165933723693939
0.7655399528264805
0.7693727096538083
0.6994579495730616
0.7225399196979863
0.6511397570490872
0.9335739308007328
0.5878780495632968
0.6152344069747939
0.6470970336806545
0.6989995127814588
0.9162541703009927
0.5493528414142644
0.5930900264049919
0.49328310494750754
0.5668604388839052
0.7948445945073095
0.49797858233406556
0.7049752899611101
0.8158453561379887
0.8060078328995803
0.8251281906310406
0.7819460775134182
0.6276304101927304
0.5418809313119094
0.7333140604363997
0.6022467224139141
0.5842962099004724
0.5798235246114025
0.5541661598201136
0.5326398290677484
0.5457190256851489
0.6595912990972069
0.6441475710098477
0.7324922400134174
0.48088581349790716
0.48824941459249677
0.4845221054294296
0.7412092011369655
0.6791310808139148
0.6606498728038477
0.6040431738976295
0.5955773010199132
0.6280051744283579
0.6324779445401514
0.6421072969682863
0.6072898778903074
0.5997072366721444
0.5962981655349664
0.5843106743679284
0.5961346777094603
0.5818616763307424
0.718931474630069
0.5868389924786502
0.5974811648601698
0.9361814017643211
0.6583764925645652
0.6404639984521973
0.6321969934352953
0.624253460468542
0.6365326140553377
0.6254700906323636
0.6253942613746182
0.5105224155826162
0.5092774166562207
0.5037542470747143
0.5072606037103122
0.5133130691926381
0.5092182079106782
0.5162878704640197
0.5797281883162516
0.5129487855548734
0.5192945602427089
0.6455183644667709
0.5236716112508291
0.524110870666146
0.5032805207915486
0.7488999870746111
0.7607477170322744
0.7922962132116184
0.8073611845008619
0.6642868831758723
0.49300320491255906
0.46875861260945206
0.40606534728157784
0.437257133078527
0.46309443912867443
0.40612900987082984
0.42159080058052
0.35492759363293397
0.3819604996285219
0.33193190632617525
0.36861159607918675
0.33977904453373314
0.3689639220462131
0.3537632883781233
0.37561472532504786
0.3715224997956448
0.3870951479729237
0.3867481267967246
0.40081429114000194
0.4031604497652632
0.4152084657452037
0.4191272332961719
0.42970559203265524
0.43408280426578555
0.4436698253518957
0.4390215783003666
0.45215524651355576
0.45039255610152373
0.4030589502548193
0.42531343842624414
0.39339370589225586
0.44023838470954585
0.35292380352022984
0.44881273052842235
0.46045180141236924
0.46525612503260344
0.4724055894736896
0.393465566052967
0.30950797460394674
0.43664915466862436
0.32183852320417505
0.4778293711497996
0.48385867546941663
0.4783988495679621
0.4476344153957099
0.43874185121631104
0.47132631435452294
0.4841675761289357
0.4786188534206812
0.37991842005901777
0.31104441841051644
0.4889393922559208
0.48441348428941994
0.47514350343350603
0.48095268764205595
0.9131109569207975
0.8942047718997952
0.5870221013981233
0.8525777367563029
0.874433562979247
0.6038772501943726
0.6168472607205021
0.5317040701323977
0.6359036941816435
0.49476435778103256
0.558943764752786
0.5557515816080583
0.5603560973925672
0.6137626364598052
0.5033301920432018
0.6011779880517356
0.6004579787410723
0.5025429664933537
0.474892427593659
0.5082994373448777
0.46340996831647646
0.5412305117093562
0.5127793892058855
0.5212507885992962
0.5184363174413628
0.5507549400199311
0.5604105684999093
0.5477055795452775
0.5569581679792698
0.5438785067495379
0.5534210675950629
0.5404393669606932
0.5495158905521852
0.5630036149991835
0.5574238010170198
0.61010392191614
0.5977025215478429
0.6011310638669745
0.5858524668373868
0.49820529859476753
0.41771062078245785
0.4094319821995541
0.41084765016804714
0.4004030851313376
0.6528301567173955
0.6423585979113419
0.663737382449452
0.5337372269856177
0.48846634416278983
0.4797845580167961
0.6931883019956568
0.6089540403170122
0.5795837479081929
0.5680315832678775
0.573495127065591
0.5532651456721157
0.5250113481695479
0.5323376143338472
0.5031394618743641
0.506928804901251
0.5438608426929737
0.655287567679684
0.5071049977690714
0.4397193066910242
0.49038177788802123
0.5878848737597809
0.6110812014311827
0.7536894365086633
0.7545946771952977
0.7378554159725899
0.6788789114602024
0.6676590143292561
0.5460833007338487
0.3055496188069477
0.3056098808932552
0.4992253899318265
0.6624216185836402
0.6905941625508061
0.7604976789570961
0.774937747285273
0.645515509433113
0.6883937548437339
0.7004816397838304
0.7102824891675283
0.6927342415084519
0.6947123867668175
0.603768126298798
0.6153682716649178
0.6222492481788112
0.6130996902865801
0.493147439941449
0.6156631541214388
0.6147044886109573
0.8534309607192168
0.3970433784900801
0.3860605044649645
0.39423977565370494
0.3798507701994738
0.5657712884509981
0.5951450923404825
0.601042302045039
0.7120575545618758
0.5548608891466111
0.685904878521876
0.6690042596136964
0.6621294340126798
0.6421463736206094
0.6415829963257437
0.6581762519852709
0.6349109209984699
0.8223579412459054
0.8177950020851649
0.7926030646568291
0.49874649644913976
0.5090915244316263
0.47912806431877064
0.4808553996866196
0.6405616369910175
0.6264673495578637
0.5342787744600163
0.652111676717601
0.5912527818316599
0.5756150408799573
0.5633160527996868
0.5769530588241124
0.7316270227104723
0.47620609588555735
0.4756688469949678
0.7649610535241396
0.8748747639695124
0.5033411806905776
0.4935009334145097
0.5294649718467436
0.7612092988397487
0.7362799641721007
0.7546603821876903
0.636878431524887
0.7485616364711584
0.5726364034471756
0.48303936447405477
0.5982575107975887
0.6273210950871081
0.6254520959749741
0.4901366562516127
0.49887708324757685
0.7471427147633928
0.7391317228752734
0.32499993740946603
0.9295704691415131
0.9373960653642769
0.7024297370658439
0.7124130316422809
0.7071023325136921
0.7234168820754671
0.7169191160115983
0.4254431516634213
0.43057577778149025
0.5325789732089795
0.6605871804704512
0.5772561952032437
0.7110453648609089
0.7526961805369241
0.7592957770450626
0.37269448354665635
0.3631284755691881
0.5935709460557612
0.4823941766256213
0.47777574415709584
0.7002044953232804
0.5876700657893305
0.5581135146939846
0.5081480697538131
0.9142683856088498
0.9287647778467382
0.5274753809006104
0.5224704008946499
0.7154765555813968
0.7162428399324172
0.536304654003525
0.5279660518930199
0.2755424297175535
0.9448588462838095
0.5343527548042916
0.4533350591856382
0.45925886181200926
0.5139898779979489
0.5245141734701798
0.4847387232137731
0.47320736889383863
0.47969383197460536
0.4692323655640924
0.47544109069477125
0.46407971013360194
0.45774518277551474
0.45200037410701877
0.4445122865883387
0.44042022245956175
0.4723945687261212
0.6684257258710554
0.5322495362680695
0.5443640434341122
0.37537814968509514
0.2576159958263362
0.24850421935589503
0.32878762722868826
0.3004558953915383
0.2652602478026296
0.23500216402621651
0.2247540073459549
0.49815894412706674
0.4797296465986407
0.5876206632074488
0.5614557794074697
0.5605092767117383
0.7850998230276174
0.7995563911431359
0.5516791748320123
0.5560992079162862
0.5456726385323272
0.4627520176480727
0.19346427674690572
0.4477053307531948
0.435346502399341
0.4272528214704927
0.42340070772514155
0.4136583236005944
0.5675025490641621
0.580107197323189
0.24612437999457246
0.7512699246640928
0.7195734088643612
0.634166335815758
0.516975367870785
0.4549014712609612
0.44111671831875393
0.5225860248350997
0.615341937110125
0.7069823633442184
0.6867540512934278
0.555098777678611
0.7315529168353738
0.7419662839996506
0.7540503001413431
0.7661163369696208
0.5609865493300468
0.5887268374901062
0.5664026758334616
0.5482170619824194
0.5716552066434053
0.5608950581409597
0.772529010550332
0.49049324875882794
0.3933484839628193
0.3304792910329199
0.33507709916452155
0.3573503437699876
0.3499902403957051
0.3695760594619964
0.3266116803052095
0.3796986057396579
0.3874796108567544
0.34681826765833196
0.6300799746686666
0.39513420988380143
0.6183145956643132
0.4965409461525173
0.7541668595897364
0.759643435066973
0.31036298058451195
0.3000937167598564
0.5956053699233416
0.8303335860859672
0.8362600431572677
0.8333361395541806
0.8453008269700906
0.8411245264235028
0.8574758250307757
0.5816019921157862
0.590158773615085
0.5957777068905639
0.5950819166771077
0.5986061018537888
0.59274746610067
0.5987757551365024
0.5894594395395112
0.5840526716721094
0.6042456435593077
0.581695557575654
0.6081015942255369
0.6014178242964769
0.6115196692234098
0.5904794466855617
0.5862058064048498
0.615558917044877
0.5969253944191605
0.6086234249904694
0.4426324419943615
0.3897265143942187
0.47483958284779926
0.3288301203510898
0.33628048946861183
0.7635673941766132
0.6112107880896616
0.4635879188055994
0.44897270625434393
0.44768468938692696
0.4521835736269807
0.4663577593941555
0.4585774351593547
0.4657225032147599
0.45622905511117984
0.36854885719675146
0.5728825625479111
0.5628799639747296
0.5827596130991395
0.6326353344468293
0.6082582979448791
0.6397236794806614
0.5338376165138699
0.4011287518133449
0.4038975824091421
0.4179632733902613
0.4283929392525334
0.44163953102216474
0.40999167968658823
0.6808957182905353
0.499830853465156
0.4982855201948514
0.2692185962445217
0.6641547166326074
0.8550484564683475
0.5222009454380842
0.5012451515073394
0.5905303079518643
0.5806397182635181
0.8139653886188579
0.6212946193988245
0.6062302659031232
0.6077625639552622
0.599945651004844
0.6017172297125327
0.5919378257919892
0.5892173996646145
0.5967064281353086
0.5871365620811289
0.5942307176611574
0.5883357463042194
0.6102421098759381
0.5807272626102497
0.6446557939377742
0.7815024131296647
0.5248759369397983
0.5641771974976094
0.497650260548822
0.5643416130370053
0.4674037431598911
0.4477987418130113
0.4626002560634592
0.44273323940404347
0.4232934000423345
0.4215276611825877
0.43777508540850585
0.4822966695040405
0.5258690490070491
0.45987134013343955
0.6706423397722631
0.6012017248630148
0.7088446519311329
0.42932985106706273
0.7411414050666696
0.6539188381864391
0.6619599213791758
0.43169934415526445
0.5242331110911184
0.5515225901366185
0.5436686358938111
0.536179065725692
0.5179299179421607
0.41825158884758173
0.9027835909765198
0.8257197579494288
0.9108419290767571
0.35803838922693576
0.6675809888166198
0.6873348787457224
0.7464260812163473
0.8266669693625874
0.510832100680939
0.5478104528003814
0.6469428405721075
0.4490309609441725
0.4558422946091707
0.44918452151115673
0.4987993138123207
0.4785378256784996
0.5127621819035704
0.4573120151442666
0.464649772573926
0.6218588690825222
0.6369828839426908
0.5475246009122209
0.5727888637334357
0.45959085058441546
0.6553373298757751
0.6205308328388468
0.7242470808433765
0.5443223181055135
0.35822464627330036
0.6172525592542112
0.41197904415453507
0.7167565678458094
0.6119880610698087
0.5673877202715039
0.5752318850422469
0.5618770618007785
0.5492649001586619
0.4968884919339249
0.44355268359435
0.4767602752139974
0.5192682575091154
0.5169244959630095
0.5858446324480174
0.9095556040515571
0.8884876302494366
0.8967188346786935
0.8807303640583815
0.8684197693572888
0.8603057267241314
0.8733408317189728
0.7878163964411604
0.5526278991830993
0.5224470844133714
0.527636584739024
0.6153720077123517
0.7142184768084017
0.5725432567764164
0.6164365550732038
0.6169469648223301
0.6062839692474522
0.6057978284322618
0.646352678734071
0.5609027230630197
0.4859870279460868
0.46330123220590447
0.6224509650068846
0.6086770423853578
0.4950806045440126
0.5339891007111099
0.5253036444263819
0.5140944029243624
0.5138537091271254
0.42147260066599646
0.21914363197416997
0.9009481857328364
0.8925494557333007
0.8785683588155206
0.9046114217978304
0.5811956293973316
0.8124339339138029
0.3326157147745096
0.3738300229366475
0.5558085903969157
0.5440635252486048
0.5580375138345458
0.5050061058233107
0.4940492971468239
0.4438436373227877
0.5462079006786731
0.6575395215803879
0.9208781391265021
0.48309079713179676
0.4792112148403511
0.6523446132105603
0.8166528436270954
0.6834038968787716
0.6975048759049831
0.6354484142227438
0.5325968170696428
0.5238712925820278
0.5143527031375542
0.516572963249652
0.5212468598672891
0.5285594529475445
0.5000033947132093
0.8867975372841824
0.8638859777276219
0.8715094729038376
0.8855397576591019
0.8944135192336596
0.9034069232661336
0.8731593477446515
0.8762928692829963
0.42865922662294365
0.5076399363381998
0.7215683783069133
0.9411502735434101
0.593025967518021
0.9182593879040296
0.933237900159067
0.7377444404627276
0.609084574473381
0.5960224066950599
0.6112583932159256
0.4883285075975576
0.6049994069149806
0.7656568232871285
0.5607042991645022
0.5617134827681005
0.5719694635584063
0.5515752582561215
0.5690763217362554
0.5633483262830513
0.5540533344531969
0.5430152041635492
0.5869857966907234
0.5795140838515104
0.5726691556033087
0.7135198109195566
0.6550331793959137
0.572457671879803
0.5074265916825649
0.4712147032042062
0.5417455760666845
0.5146745255965528
0.5166765763284926
0.5252504015077589
0.8314995006083333
0.8538126175050991
0.8646798220608625
0.8456145338475444
0.7779838141255578
0.48998239534981375
0.6920036002192402
0.6376196441916516
0.8575757986329112
0.6774647074898793
0.5713627447150049
0.5773804697214946
0.4907458291621243
0.626198966300348
0.6417893576615407
0.5953586471229443
0.6766082959227735
0.7029657446632498
0.7094190733373362
0.728314005982966
0.5698348903501756
0.6727136758623796
0.5686703297999064
0.5080066681610667
0.5185639044946776
0.44715784344161713
0.5664619500497386
0.8764369511659472
0.4673411816720419
0.7500049070542908
0.7497336869564621
0.770425468010527
0.7475176965588111
0.7666633293395858
0.793848141837686
0.5581627106503257
0.6135958830286671
0.611420498563944
0.6692814297653301
0.5918391908307722
0.9311774403452387
0.6658307304367046
0.7287591671395508
0.8248194565625852
0.572894281234226
0.5912001707962415
0.6734387746000615
0.5127265896359535
0.12659640753679033
0.8470098814616495
0.5546754824263826
0.6044327368273871
0.6134506800442094
0.5791335553422663
0.5871398861399239
0.5581489739195278
0.5697861710345755
0.7335501530591905
0.5705422583661364
0.6137018092464802
0.661328998288171
0.6191551812906719
0.6275014424582046
0.6920827465950695
0.7883134898131469
0.5035824290763941
0.6535871786282204
0.6386672491610815
0.6189266168227596
0.5898024624539175
0.6368028115325038
0.5087671611831269
0.5870907358890352
0.4541560800430712
0.48840493729542384
0.5127348280362274
0.6490483754212593
0.6211085121729912
0.6353456606978372
0.6269556144879512
0.744127748462639
0.7098692055280658
0.4860740846660966
0.4593566052129824
0.5507565876562912
0.6590339144182507
0.5119797905390675
0.6358115121016927
0.8395386367421431
0.5950213374506267
0.5317185409970336
0.5441149534168893
0.5985892583546768
0.9276995762515831
0.47923723200712276
0.5939831890111343
0.6062755937582167
0.6247955465395524
0.8262699520873915
0.8043443388845892
0.7908805764871951
0.5842538389699115
0.9565244333859843
0.9377036818097398
0.7894409712042586
0.841815374790817
0.8411891146836092
0.866116866196668
0.6611543926347005
0.5783411460725918
0.9554949508664541
0.689172140572285
0.533846041821091
0.6093023242288798
0.7783080890637586
0.800486778680663
0.5818865482765849
0.6518096390394986
0.7792140292142649
0.547149244074289
0.49412252985032074
0.6018619532959376
0.5555480249138034
0.396925427908925
0.5669172764862026
0.6922449701090388
0.35419713823466636
0.34706450053938037
0.6927294192055615
0.6263852593534077
0.6900092058130609
0.5641975477955662
0.8790019371833601
0.4858945899698286
0.43280897793561257
0.48892163779387043
0.6286444156448976
0.6897154452305294
0.582063808776853
0.20219884659151932
0.8635413873024179
0.8145274961932718
0.5721870521840323
0.7342952370650718
0.6020827053433124
0.7193618695169234
0.7463308339942429
0.7116364489070934
0.5227004423405239
0.582141696411151
0.9454330820726046
0.6829285890548115
0.7034567931481084
0.516167165600231
0.9132983877298466
0.6528447120619719
0.5659996056010771
0.5947545494382187
0.5022212425807534
0.579845597468396
0.46064206309007627
0.6671149162411624
0.6101229861304057
0.4988179506036758
0.8105258750487171
0.43787085095917244
0.4322589563304547
0.8956766683480498
0.7221080181574199
0.860825472424006
0.819689652408808
0.5943130634964148
0.25269646027441883
0.5928328936874453
0.7234108397472533
0.7216846563674555
0.40700178431820627
0.6017797655057021
0.711427889072223
0.314893942061766
0.7615505059728487
0.5700881818524698
0.4687759416611077
0.5470410240902759
0.36841363998337096
0.39636907217402617
0.5574757686307862
0.6339375218227489
0.4716867515221724
0.7048728429593645
0.588474044447744
0.7290533812135049
0.7011951686324778
0.5721101828018686
0.800565928429124
0.7707157388338525
0.5129486930972028
0.4752836229264819
0.41874966545900005
0.5115537445526356
0.44026623968699174
0.7352220907669846
0.8202406715539504
0.2444927020721994
0.2832528034287075
0.3089517899936799
0.5095677452903239
0.3378888335263888
0.5701080107269701
0.6295797459011994
0.6443284624631193
0.44510463707097114
0.4675489432781297
0.5323677577692691
0.5555339320135351
0.5477754804171476
0.6924991479551428
0.5838454559933819
0.6232532402365633
0.6071387981163843
0.42514708711598675
0.37895528946172136
0.5863588733593095
0.6039493480198951
0.9446955818015508
0.3995271760754942
0.7721534486912828
0.49004969915113095
0.7512252616468263
0.5907627447912049
0.7892196346862601
0.5913766140715537
0.5373899084034846
0.4949437786786963
0.6418719221926659
0.675305637011483
0.6522936148871427
0.8670318417826512
0.4793642683932455
0.40852382775176704
0.6712820830149601
0.7856157412700987
0.5077780868846936
0.6722757072547871
0.5452185089316692
0.7371211360919573
0.5903842660451936
0.609912892259673
0.4184456273942732
0.6191587337077616
0.10557776688299553
0.4991415854434532
0.6073569690234809
0.5306259310444009
0.5061679894695029
0.7059940476914097
0.7722961661763167
0.5149616936920874
0.4440644486374946
0.7847834129949607
0.4684914499360972
0.6340010451589745
0.534930249425124
0.6032802857141851
0.41341132279528675
0.46255627234949576
0.5866919467036034
0.5813497660988055
0.5660299496660548
0.4174031707822091
0.4436739365801375
0.7004207783829517
0.753777531300119
0.5115194502509698
0.5010104491889656
0.42600021499338026
0.791044900434726
0.5509961026926486
0.5169144873608388
0.5693487989665986
0.47377132312293296
0.6145227850723864
0.6884595215349345
0.6578048504893362
0.6276054461670697
0.6540252621262734
0.5899496386434332
0.6580793772584378
0.5433495652944703
0.3949304459561886
0.5007422577656887
0.4967749849271072
0.5578604884301225
0.47102036623521804
0.8222681822577387
0.5323988339162599
0.5828714462735419
0.7520575147110573
0.654484976338306
0.45786526808384964
0.5583656074372558
0.5301677684579597
0.6410280688048439
0.5063151341268733
0.5162771884052757
0.2288895572691235
0.6252786616565226
0.72701897032469
0.49950162518984076
0.6382872934974779
0.5388220419913422
0.6941849012674917
0.478632848261852
0.5674374433932734
0.5031532720669272
0.7017922261297573
0.6721662907656585
0.6613055892998438
0.49220530912137667
0.6349093659783321
0.5257582262160175
0.6208433355348094
0.40705031658892904
0.6870348290361203
0.8377539078609658
0.5321549254374937
0.5942445900177507
0.6575656412931059
0.48875558720765633
0.46102463740055244
0.8475632610908879
0.48213673020927117
0.6487909484019451
0.4712507377613926
0.6128123600839549
0.5339899369006837
0.39657965468014517
0.6892387618020595
0.2756365757788956
0.4799930417701598
0.716138312685665
0.6711779340575758
0.6256149918540529
0.5279816077410756
0.533300579696177
0.6251918913759338
0.3983893017375133
0.6038770534607943
0.582898146764004
0.635233652968274
0.6412420839906326
0.5126587191932077
0.3540765774149335
0.7473000924096497
0.7732290050420313
0.4357706152058304
0.5902090781747076
0.5804587901229682
0.3178546409763567
0.4527676699517576
0.29526258224792495
0.3787978242056089
0.5806566217993584
0.6038060575784662
0.5712947111863595
0.8611860359634601
0.4770186055467635
0.9278079878806765
0.5155724230740792
0.6270114899343913
0.6228491654437972
0.45184346983439655
0.3671256460169274
0.3838299121020864
0.5511588233524968
0.7165587725609833
0.655885365186374
0.6160022233048901
0.6022416533907272
0.6067118038351319
0.6048825044743179
0.7417230547706609
0.3729238601381675
0.43241260164000855
0.5829754705981933
0.42297055693349767
0.5216480681296454
0.6790185542762691
0.6661453257909548
0.47079788639457587
0.6343640501138121
0.6002207139787386
0.5713376993277867
0.5667338497939247
0.5836909592770613
0.557071716901869
0.8435584122026643
0.5806766572003083
0.41973855338568383
0.5213430681391541
0.49511796330566554
0.46148807945654235
0.5867412062261715
0.6314704013913148
0.5094093317486341
0.6049148398301547
0.5326630683981018
0.8072205322658703
0.737979070188073
0.41071434774650045
0.562579575513771
0.5452007498261174
0.47352023535393123
0.7342896001931439
0.5191887407986429
0.5576057487358963
0.6756176044316768
0.3783089341626451
0.7190564147118934
0.7422375975578293
0.5281596700141756
0.8136231835317367
0.49580311077787076
0.735501251641822
0.6086176116337926
0.6599434511220732
0.5189370933732907
0.22623432154142384
0.4142565584589514
0.7118108494311648
0.4876131286049784
0.39854397830558125
0.5584220771482312
0.5653238492086602
0.4961850649427826
0.8393011490518226
0.7749393495228524
0.5442071080558257
0.7753816100139954
0.486669408993423
0.5259276353542951
0.6207311326412692
0.834478936506316
0.5974748556611091
0.6056157163799919
0.567702501847825
0.50500715480239
0.8833933724602624
0.5849921813621219
0.5903513048475363
0.5046608417556989
0.5325021189651514
0.5639942925235847
0.621101581711575
0.6542479452348752
0.38385764080859375
0.6264591259175304
0.7235261765855736
0.7647804100402087
0.6204486936773854
0.8688958110225425
0.7030539053413701
0.5236459405573595
0.5135874809665493
0.4792752997307131
0.5126452243382207
0.28020498446243447
0.5572556823855248
0.5381899163245065
0.40563482895610614
0.2860096853782084
0.4727793619204388
0.46680090115432965
0.5402672570729171
0.48794245799161085
0.6828903937078231
0.8275550163230464
0.514446867316323
0.3703875839442825
0.45436726767868885
0.2825259041713733
0.6043798409601929
0.40949352578218606
0.5200151042834976
0.6807568913214049
0.47165418776657025
0.6198355408500323
0.7573095153266447
0.6210582037964387
0.6519473744648373
0.8743096791308318
0.7221364945580366
0.7377880604110465
0.605721694196663
0.6226559248222834
0.5836586292430858
0.6170267115322188
0.49023083645691234
0.7369047916738904
0.49796679700665836
0.4407095983268045
0.5823146998777593
0.5052563000507679
0.698425048910325
0.9823345935724843
0.9881140493661733
0.6393771413061866
0.36017784965022454
0.6256920783420441
0.8895716878504539
0.8939237717320531
0.5362055638482595
0.5226091105600875
0.4994953547746149
0.51524863920888
0.5414907683029258
0.5790835873115987
0.46698177556845955
0.4265199280060264
0.43548900557406445
0.6511482819874118
0.6313207665518384
0.46295159624209764
0.5289526391208528
0.437698095395562
0.7890056343099708
0.4342809445400277
0.6166715258305325
0.5954929454144956
0.5816511258970436
0.6274700761857205
0.48454354716835374
0.5060413319018924
0.3205875549761072
0.4954324396072433
0.5959914589104499
0.9018952642789713
0.5978370152041576
0.5823932452936115
0.4293571608431953
0.5802496149326349
0.40317014442712434
0.5659977615973062
0.5458458641876254
0.7289096748038243
0.5058890089583005
0.4468125000719581
0.660545064199774
0.4859244686405312
0.5040994381815522
0.43233347235942315
0.3595844842290451
0.7641220499976988
0.4486816837909191
0.5946855623234889
0.6272950774698951
0.7825202771882334
0.5936725867818478
0.5071489303471356
0.5457296305119251
0.9426409715669005
0.6671992854318282
0.7377711946689912
0.5094264148475814
0.7809489081180001
0.5306412272412522
0.49072500406567293
0.4180213842461156
0.7545527455458939
0.5929496728665234
0.5811018050796977
0.8693109396945461
0.5990763859191518
0.5926207377965402
0.9395160902840677
0.7468082468328207
0.4618587281496785
0.609101057248785
0.7926098422600676
0.7725304762403731
0.8592070467791487
0.43122014961948396
0.684770010853809
0.42661976542304025
0.5100079678602273
0.5974143708214661
0.6036861597546578
0.3839446501064069
0.5519978096680013
0.6336111534605968
0.5920201481823429
0.49524853725939605
0.8036831830141826
0.5989620950480435
0.47901988208611146
0.6032922025817478
0.6247610562472713
0.7046153935764637
0.549452379693915
0.5128138829179956
0.4678449617208105
0.7383590855185665
0.5821577285295988
0.49453609607239396
0.541976612761327
0.6654093343576547
0.61968794353728
0.4894600509716167
0.5338860569100135
0.6166886712402415
0.5578314477611996
0.5615455910167043
0.560140031231105
0.4939452816380961
0.49403712143540573
0.7453497834212619
0.9290079108704205
0.6209311268393256
0.6548543763825513
0.6466180270449251
0.5732332823141213
0.9487648794845378
0.6982704954654774
0.5935281935399448
0.5829839895819401
0.5529855516942331
0.5795577151569304
0.578109320315163
0.5356820929191889
0.5155659245935954
0.5599100997687287
0.5234853307739741
0.5845830313283761
0.8381524467031622
0.5628351537598565
0.4710571875115171
0.5790635956301173
0.7744554725591859
0.5360740419076718
0.5867917142331855
0.6077812891473121
0.29814385143342487
0.560657010535685
0.5348522289128631
0.2923918084321105
0.2575981547931232
0.18483885618229745
0.4361637094042577
0.4690854532715143
0.6351645110128964
0.5988871419270563
0.7499255403036859
0.5817415361188543
0.45140557877492843
0.5379360511308765
0.9196200306577935
0.6124092504975082
0.5456712385766503
0.648960479365489
0.5159124067760952
0.442145352855926
0.680342417359229
0.4229037613928739
0.5672145916738955
0.5391552637188435
0.5670302448533036
0.7662589479771472
0.5039244480512077
0.6034739277245988
0.4793473360584089
0.5984819355395545
0.6518409818320906
0.7296178730079462
0.8334586294860626
0.7866794080996621
0.4667560947003703
0.5599461587368316
0.36131989698116257
0.7023445787770082
0.590307570988844
0.39278436291600416
0.5599433075693112
0.47909694710744377
0.6832687280241524
0.56577347325286
0.46245711798572325
0.4178724342504975
0.43119468972873654
0.7210832121920044
0.577896617471788
0.36868869538401733
0.6036491400542043
0.9533932959823382
0.6285254664237657
0.43917577231814015
0.4717628884536529
0.478818711743091
0.896118053418483
0.534124640503125
0.5311084386784181
0.732864643316115
0.6504610953107839
0.6200793477190175
0.5087500212854464
0.5957568621659776
0.9227034588668585
0.5423892283445454
0.7012909847271415
0.3310290584774311
0.848921504106827
0.4037807511006266
0.5123443568877099
0.453076749013702
0.5114988731936871
0.6221956445534507
0.26199640298296867
0.4502909019749106
0.940576839073186
0.7264381003746241
0.524345162517541
0.7156668700530385
0.5174773918739215
0.7619311350210519
0.45775260662689315
0.15842795427463846
0.5573005039107162
0.5658260184578501
0.8794656132684178
0.7724241244754437
0.5885673462039722
0.7287019469026565
0.9424180693030734
0.49177604139720704
0.6693449310385976
0.5344911378460327
0.38451468241065984
0.9357562071568531
0.5781071743861674
0.8534228971990422
CELL_DATA 4886
TENSORS stress float
-1.113459414819086e7 6.4971876231999025e6 0.0
6.4971876231999025e6 3.0983940265006542e7 0.0
0.0 0.0 0.0

-1.981607287464888e7 1.061556794871014e7 0.0
1.061556794871014e7 9.14511601428731e6 0.0
0.0 0.0 0.0

-8.252190448867716e6 2.2108649803976767e7 0.0
2.2108649803976767e7 -6.327294364709582e6 0.0
0.0 0.0 0.0

-3.9561106185272457e6 2.083090205898773e7 0.0
2.083090205898773e7 1.2366384810630573e7 0.0
0.0 0.0 0.0

-2.390641064237941e6 2.373016938939739e7 0.0
2.373016938939739e7 -1.06015071789084e6 0.0
0.0 0.0 0.0

1.7696455765329786e6 2.97533019377578e6 0.0
2.97533019377578e6 -4.54866991866211e6 0.0
0.0 0.0 0.0

4.9859648751595326e7 2.4203776522334967e7 0.0
2.4203776522334967e7 1.253532573728244e7 0.0
0.0 0.0 0.0

3.3893418279053047e6 3.152821890525278e6 0.0
3.152821890525278e6 -4.067559427623252e7 0.0
0.0 0.0 0.0

-1.0912022235639734e7 8.333044260651559e6 0.0
8.333044260651559e6 3.2360436289419517e7 0.0
0.0 0.0 0.0

506599.8301657308 1.8394596405714314e7 0.0
1.8394596405714314e7 1.8274928215038948e7 0.0
0.0 0.0 0.0

-1.1797983361424142e6 1.9381614132518616e7 0.0
1.9381614132518616e7 -7.373769903624888e6 0.0
0.0 0.0 0.0

-894102.5654759114 2.8326957911958613e7 0.0
2.8326957911958613e7 -755158.3877074022 0.0
0.0 0.0 0.0

1.972432883784471e6 9.009806045939423e6 0.0
9.009806045939423e6 -3.7385953774533294e7 0.0
0.0 0.0 0.0

7.211454139183624e7 2.709795236941066e7 0.0
2.709795236941066e7 1.3633462819933534e7 0.0
0.0 0.0 0.0

-1.0010889974005253e6 1.9952971083198924e7 0.0
1.9952971083198924e7 -7.378676470496455e6 0.0
0.0 0.0 0.0

3.619792758140782e6 4.075995406881005e6 0.0
4.075995406881005e6 -1.5307548296153447e7 0.0
0.0 0.0 0.0

-2.644819975131264e6 1.6396402205699235e7 0.0
1.6396402205699235e7 -1.9627489980870422e7 0.0
0.0 0.0 0.0

577326.7466909122 1.32919885911001e7 0.0
1.32919885911001e7 -2.615720658792457e7 0.0
0.0 0.0 0.0

-9.361143516239738e6 -3.1909026779681672e6 0.0
-3.1909026779681672e6 2.4529001786377322e7 0.0
0.0 0.0 0.0

-825289.4127319485 2.2254373185367953e7 0.0
2.2254373185367953e7 -6.601929596509955e6 0.0
0.0 0.0 0.0

2.4932998813794674e6 1.0850175734325478e7 0.0
1.0850175734325478e7 -1.8895239601928577e7 0.0
0.0 0.0 0.0

125111.91950254154 2.8059859375739254e7 0.0
2.8059859375739254e7 -767239.759884526 0.0
0.0 0.0 0.0

-1.0170050799345588e7 6.667555644522912e6 0.0
6.667555644522912e6 1.6618132049279623e7 0.0
0.0 0.0 0.0

-1.2630210780248066e7 2.232370125103998e7 0.0
2.232370125103998e7 44592.093269877136 0.0
0.0 0.0 0.0

379962.34456156567 1.1841672961428117e7 0.0
1.1841672961428117e7 -3.382358447396379e7 0.0
0.0 0.0 0.0

1.9187783508224588e7 3.767028339904668e7 0.0
3.767028339904668e7 -1.0179973962969922e7 0.0
0.0 0.0 0.0

3.3401975002462167e7 2.0137773562932324e7 0.0
2.0137773562932324e7 6.995419407065498e6 0.0
0.0 0.0 0.0

-1.0673077624524474e7 1.5621713986835383e7 0.0
1.5621713986835383e7 2.3119175287602328e7 0.0
0.0 0.0 0.0

3.774158896554036e6 4.121839871219272e6 0.0
4.121839871219272e6 -1.5611830012129508e7 0.0
0.0 0.0 0.0

-6.419747778783159e6 -2.9820786137161623e6 0.0
-2.9820786137161623e6 1.1748360346056484e7 0.0
0.0 0.0 0.0

-1.1238995931469526e7 8.301593957934473e6 0.0
8.301593957934473e6 1.4586262145258285e7 0.0
0.0 0.0 0.0

1.5023921906223632e6 8.445535660028705e6 0.0
8.445535660028705e6 -8.261745133347788e6 0.0
0.0 0.0 0.0

996847.3191243969 1.9507484107714515e7 0.0
1.9507484107714515e7 8.07044858184781e6 0.0
0.0 0.0 0.0

34788.067355151885 1.7514380711074367e7 0.0
1.7514380711074367e7 135493.35443510796 0.0
0.0 0.0 0.0

-3.5759833554803925e6 2.1605995728869442e7 0.0
2.1605995728869442e7 4.585846429712742e6 0.0
0.0 0.0 0.0

-1.076938329435435e7 5.536138696939512e6 0.0
5.536138696939512e6 1.3395074254391205e7 0.0
0.0 0.0 0.0

194957.35264081275 1.188528498571779e7 0.0
1.188528498571779e7 -7.2150794452434005e6 0.0
0.0 0.0 0.0

-3.0796191800321587e6 2.1360162206683364e7 0.0
2.1360162206683364e7 5.001864804983028e6 0.0
0.0 0.0 0.0

-3.3591486456251396e6 1.4682760129599065e7 0.0
1.4682760129599065e7 -3.465286842378257e7 0.0
0.0 0.0 0.0

-2.8350314161263695e6 2.553687974739434e7 0.0
2.553687974739434e7 1.6493822145346156e6 0.0
0.0 0.0 0.0

1.1256090731269605e6 9.163295207924912e6 0.0
9.163295207924912e6 -4.080250502604645e7 0.0
0.0 0.0 0.0

-1.0636146649008961e7 2.3632181190778185e7 0.0
2.3632181190778185e7 -7.609592266475553e6 0.0
0.0 0.0 0.0

-2.8644539942095224e6 2.4924114812912803e7 0.0
2.4924114812912803e7 1.4887848125134981e6 0.0
0.0 0.0 0.0

-1.1383487125908682e7 3.446738558139757e6 0.0
3.446738558139757e6 2.272015398333194e7 0.0
0.0 0.0 0.0

2.0215108701637313e6 1.0770032559028214e7 0.0
1.0770032559028214e7 -2.0646335986568566e7 0.0
0.0 0.0 0.0

-9.204681739878772e6 1.6799229288780972e7 0.0
1.6799229288780972e7 2.2161190571986713e7 0.0
0.0 0.0 0.0

287999.8956446666 1.9152865717683747e7 0.0
1.9152865717683747e7 -1.1508808108848523e7 0.0
0.0 0.0 0.0

-453441.2076164861 1.1465271629084775e7 0.0
1.1465271629084775e7 -7.920730554963968e6 0.0
0.0 0.0 0.0

3.7669857033129577e6 3.2486923047329383e6 0.0
3.2486923047329383e6 -3.380213287517253e7 0.0
0.0 0.0 0.0

3.95097087806227e6 1.6032472284592535e7 0.0
1.6032472284592535e7 1.3169903144041954e7 0.0
0.0 0.0 0.0

-1.6111262447036041e6 2.4712988333590765e7 0.0
2.4712988333590765e7 -296857.966584844 0.0
0.0 0.0 0.0

-1.4700852050707014e7 8.3557658533411855e6 0.0
8.3557658533411855e6 8.205743164247344e6 0.0
0.0 0.0 0.0

3.807969766713284e6 3.2775398686753195e6 0.0
3.2775398686753195e6 -3.49991561810086e7 0.0
0.0 0.0 0.0

-2.2637486950205215e6 2.3084643679502197e7 0.0
2.3084643679502197e7 840031.2443028003 0.0
0.0 0.0 0.0

3.9664557687717187e6 1.6379482723365879e7 0.0
1.6379482723365879e7 1.602361822306922e7 0.0
0.0 0.0 0.0

-7.429868620604721e6 2.3227548851203665e7 0.0
2.3227548851203665e7 5.832118604333608e6 0.0
0.0 0.0 0.0

3.010410965318272e6 3.7569834474580763e6 0.0
3.7569834474580763e6 -4.449624403080635e7 0.0
0.0 0.0 0.0

-2.321538239957986e6 2.5715688259544715e7 0.0
2.5715688259544715e7 1.7003513139276477e6 0.0
0.0 0.0 0.0

3.010972848483829e6 1.7843066252950534e7 0.0
1.7843066252950534e7 3.2029294229015373e7 0.0
0.0 0.0 0.0

2.7831826611463996e6 9.84636318747454e6 0.0
9.84636318747454e6 -2.2687023536223736e7 0.0
0.0 0.0 0.0

-1.7503705578823972e6 1.5482554506807426e7 0.0
1.5482554506807426e7 -1.00563290433319e7 0.0
0.0 0.0 0.0

2.393589126941028e7 2.1825432990201943e7 0.0
2.1825432990201943e7 -1.7102653707647715e6 0.0
0.0 0.0 0.0

-3.548200634372933e6 1.8387311202992447e7 0.0
1.8387311202992447e7 -1.175871128099683e7 0.0
0.0 0.0 0.0

-8.1647777970808325e6 -390135.7896278917 0.0
-390135.7896278917 1.2144121754611382e7 0.0
0.0 0.0 0.0

375029.1376034389 6.13082841343563e6 0.0
6.13082841343563e6 -2.2454039849002887e6 0.0
0.0 0.0 0.0

3.4967020720370784e6 4.441377224050234e6 0.0
4.441377224050234e6 -3.3031795360044334e7 0.0
0.0 0.0 0.0

2.5751038130356595e6 7.875799086582513e6 0.0
7.875799086582513e6 -3.714933610577652e7 0.0
0.0 0.0 0.0

-2.889122792331935e6 2.2703319123740237e7 0.0
2.2703319123740237e7 182885.45772218145 0.0
0.0 0.0 0.0

439310.55425582454 1.785549812100983e7 0.0
1.785549812100983e7 2.6427643497891404e7 0.0
0.0 0.0 0.0

1.7958754988882054e7 1.660461919930621e7 0.0
1.660461919930621e7 3.9637335614157068e6 0.0
0.0 0.0 0.0

-1.2343050948954532e7 5.071747729820357e6 0.0
5.071747729820357e6 2.0403752214712754e7 0.0
0.0 0.0 0.0

1.1094195090228766e6 1.1859344197311426e7 0.0
1.1859344197311426e7 -3.1322435749547325e7 0.0
0.0 0.0 0.0

-3.148523932569054e6 1.549164599791447e7 0.0
1.549164599791447e7 -3.2074076423275344e7 0.0
0.0 0.0 0.0

4.338334388801003e6 1.74054014939297e7 0.0
1.74054014939297e7 4.471254692084449e7 0.0
0.0 0.0 0.0

-3.901969581769583e6 2.0952670880602635e7 0.0
2.0952670880602635e7 1.1697263967354272e7 0.0
0.0 0.0 0.0

-9.35348980708316e6 1.6911809666179784e7 0.0
1.6911809666179784e7 2.1782515876568828e7 0.0
0.0 0.0 0.0

-3.8059177407239806e6 1.2838130350935817e7 0.0
1.2838130350935817e7 9.647828047391372e6 0.0
0.0 0.0 0.0

-1.9404969540895885e6 1.6116510747265166e7 0.0
1.6116510747265166e7 -1.9267450195569582e7 0.0
0.0 0.0 0.0

-597252.8539101803 1.7107395052467354e7 0.0
1.7107395052467354e7 -1.061498626817531e7 0.0
0.0 0.0 0.0

1.1189512738751257e6 1.3315876162204875e7 0.0
1.3315876162204875e7 -1.6811681537349503e7 0.0
0.0 0.0 0.0

1.8462756620189074e7 2.372169389189238e7 0.0
2.372169389189238e7 -4.815260340085717e6 0.0
0.0 0.0 0.0

-9.81595459089574e6 -2.5490675268659703e6 0.0
-2.5490675268659703e6 2.8942347684921898e7 0.0
0.0 0.0 0.0

1.1535070800594604e6 1.7554255450107384e7 0.0
1.7554255450107384e7 -2.3290161269028867e6 0.0
0.0 0.0 0.0

184912.81086286728 2.9249643166944537e7 0.0
2.9249643166944537e7 -1.5027640183285119e6 0.0
0.0 0.0 0.0

-4.256407978470713e6 2.0908620398096316e7 0.0
2.0908620398096316e7 1.2446270391675236e7 0.0
0.0 0.0 0.0

4.041396771240202e6 3.706593023527675e6 0.0
3.706593023527675e6 -2.127525767510259e7 0.0
0.0 0.0 0.0

1.0903405729817213e6 7.618402855091535e6 0.0
7.618402855091535e6 -9.285586457947165e6 0.0
0.0 0.0 0.0

855233.6642620214 1.8467622927861497e7 0.0
1.8467622927861497e7 7.347943750275977e6 0.0
0.0 0.0 0.0

1.5142640560619084e7 3.9146128638217986e7 0.0
3.9146128638217986e7 -1.249161156588804e7 0.0
0.0 0.0 0.0

-9.847474675044823e6 7.608055562876709e6 0.0
7.608055562876709e6 3.919668796506515e7 0.0
0.0 0.0 0.0

1.082041422671706e6 1.9016241352080844e7 0.0
1.9016241352080844e7 -7.043489895118386e6 0.0
0.0 0.0 0.0

-1.3718593176653492e6 1.7459798518931568e7 0.0
1.7459798518931568e7 -1.2912578125470556e7 0.0
0.0 0.0 0.0

-386640.00802783854 1.0448869157293653e7 0.0
1.0448869157293653e7 -6.876157830881626e6 0.0
0.0 0.0 0.0

-444831.6741671817 5.215805921685344e6 0.0
5.215805921685344e6 -3.5465950160714868e6 0.0
0.0 0.0 0.0

3.747485414387089e6 1.9862699814526536e7 0.0
1.9862699814526536e7 -4.54394886258414e6 0.0
0.0 0.0 0.0

-2.8146818569371793e6 1.6029168902253965e7 0.0
1.6029168902253965e7 -2.6205828490550846e7 0.0
0.0 0.0 0.0

3.3333127552604135e6 3.1523512857076763e6 0.0
3.1523512857076763e6 -4.043587214691144e7 0.0
0.0 0.0 0.0

-4.339146123652285e6 2.1338874976104677e7 0.0
2.1338874976104677e7 1.0571571332989445e7 0.0
0.0 0.0 0.0

2.5533732084456515e6 8.670593336151263e6 0.0
8.670593336151263e6 -2.974712679661564e7 0.0
0.0 0.0 0.0

3.0027352022102624e6 3.750491735468447e6 0.0
3.750491735468447e6 -4.522134972289397e7 0.0
0.0 0.0 0.0

-3.5416144101517973e6 1.9681357172537263e7 0.0
1.9681357172537263e7 1.3085386699370215e7 0.0
0.0 0.0 0.0

-4.789029639242941e6 1.7483328474954795e7 0.0
1.7483328474954795e7 -1.4204559466114817e7 0.0
0.0 0.0 0.0

-1.1131683120298538e7 6.816627096979079e6 0.0
6.816627096979079e6 1.8357228880870283e7 0.0
0.0 0.0 0.0

-2.1214110684297616e6 2.4293492907553464e7 0.0
2.4293492907553464e7 1.0390143900839926e6 0.0
0.0 0.0 0.0

-54341.00170109165 1.0612725488044227e7 0.0
1.0612725488044227e7 -5.053906723553725e6 0.0
0.0 0.0 0.0

-5.778916239002214e6 1.30038194048404e7 0.0
1.30038194048404e7 1.046261099851329e7 0.0
0.0 0.0 0.0

-9.569046025554549e6 -2.34708619800523e6 0.0
-2.34708619800523e6 2.9333906608115666e7 0.0
0.0 0.0 0.0

1.5099200603221375e6 1.3504409675656298e7 0.0
1.3504409675656298e7 -1.5711040156309381e7 0.0
0.0 0.0 0.0

-401602.27411523403 2.7745162633049615e7 0.0
2.7745162633049615e7 -940333.1110495549 0.0
0.0 0.0 0.0

-8.648096111558795e6 6.3917824805956315e6 0.0
6.3917824805956315e6 1.4413163417965114e7 0.0
0.0 0.0 0.0

1.6037168824166898e6 8.04053281315293e6 0.0
8.04053281315293e6 -4.033929249795834e7 0.0
0.0 0.0 0.0

-2.1291112608402856e6 1.1283079002896791e7 0.0
1.1283079002896791e7 -3.524995098226632e6 0.0
0.0 0.0 0.0

7.024335369039415e6 2.08219865030726e7 0.0
2.08219865030726e7 1.030494559507657e7 0.0
0.0 0.0 0.0

3.4188240303972326e7 2.103033605924554e7 0.0
2.103033605924554e7 6.621822706729807e6 0.0
0.0 0.0 0.0

3.659561065503075e6 6.071249375080402e6 0.0
6.071249375080402e6 -1.952904384209207e7 0.0
0.0 0.0 0.0

-4.424608275163754e6 1.6023892859587738e7 0.0
1.6023892859587738e7 -3.25700802941227e7 0.0
0.0 0.0 0.0

3.48452249526726e6 6.046759681859022e6 0.0
6.046759681859022e6 -2.0548213529332e7 0.0
0.0 0.0 0.0

4.244744426217034e6 3.721362391352436e6 0.0
3.721362391352436e6 -2.204331536231818e7 0.0
0.0 0.0 0.0

2.8780002242368925e7 1.3752521386368562e7 0.0
1.3752521386368562e7 892326.4764923062 0.0
0.0 0.0 0.0

-9.600052761872208e6 3.3302373615867954e7 0.0
3.3302373615867954e7 3.4141390905574877e6 0.0
0.0 0.0 0.0

-2.4515242890549814e6 1.4822645025594039e7 0.0
1.4822645025594039e7 -2.9547603775543444e7 0.0
0.0 0.0 0.0

-9.524993385266583e6 2.166499702958073e7 0.0
2.166499702958073e7 -2.661596282519217e6 0.0
0.0 0.0 0.0

4.270158690581333e6 3.605256277690316e6 0.0
3.605256277690316e6 -2.839841504950748e7 0.0
0.0 0.0 0.0

-7.821207607542548e6 2.3055259379717212e7 0.0
2.3055259379717212e7 6.473796928977359e6 0.0
0.0 0.0 0.0

6.723225444072735e6 2.8034310309508353e7 0.0
2.8034310309508353e7 -4.830464858366225e6 0.0
0.0 0.0 0.0

-1.143029394508585e7 9.561183315951973e6 0.0
9.561183315951973e6 2.95800296632809e7 0.0
0.0 0.0 0.0

9.822488484818704e6 3.8152251749937564e7 0.0
3.8152251749937564e7 -7.837490805133317e6 0.0
0.0 0.0 0.0

-625160.0262396575 1.8346947884552915e7 0.0
1.8346947884552915e7 -731857.9983824126 0.0
0.0 0.0 0.0

3.662864351430107e6 3.1502802640609983e6 0.0
3.1502802640609983e6 -3.5903522951905824e7 0.0
0.0 0.0 0.0

2.474556120694108e7 1.7758460009119935e7 0.0
1.7758460009119935e7 3.59996401823249e6 0.0
0.0 0.0 0.0

-3.258845984174261e6 1.92947044650587e7 0.0
1.92947044650587e7 1.3268167003472213e7 0.0
0.0 0.0 0.0

2.9521871346598566e6 6.156622224959641e6 0.0
6.156622224959641e6 -3.258774934068553e7 0.0
0.0 0.0 0.0

-44525.40076810657 2.2690298181733467e7 0.0
2.2690298181733467e7 -5.88408218909702e6 0.0
0.0 0.0 0.0

958870.4325994053 1.8402882890563335e7 0.0
1.8402882890563335e7 -7.810366396590248e6 0.0
0.0 0.0 0.0

-3.074075412483448e6 1.727230802439932e7 0.0
1.727230802439932e7 -1.2084626861636065e7 0.0
0.0 0.0 0.0

-589370.1719355872 1.7839733489954293e7 0.0
1.7839733489954293e7 -9.413627097666904e6 0.0
0.0 0.0 0.0

9.497797555992736e6 2.1231653006717738e7 0.0
2.1231653006717738e7 1.0394880834559541e7 0.0
0.0 0.0 0.0

1.1935465761410706e6 6.589425789463604e6 0.0
6.589425789463604e6 -5.6039417832596675e7 0.0
0.0 0.0 0.0

-4.852840146111019e6 2.2038418822530873e7 0.0
2.2038418822530873e7 1.033022810869673e7 0.0
0.0 0.0 0.0

1.3279142632763733e6 4.470716238870705e6 0.0
4.470716238870705e6 -4.072544099743231e6 0.0
0.0 0.0 0.0

-1.1077721360655267e7 1.421981657357386e7 0.0
1.421981657357386e7 2.3811354824100174e7 0.0
0.0 0.0 0.0

4.3190712810754655e6 4.1458615552056534e6 0.0
4.1458615552056534e6 -1.933762043153217e7 0.0
0.0 0.0 0.0

-8.981064436775738e6 -2.648292771703108e6 0.0
-2.648292771703108e6 3.515068028413421e7 0.0
0.0 0.0 0.0

1.4670449873605939e6 1.4252808658064643e7 0.0
1.4252808658064643e7 -1.8972132311563212e7 0.0
0.0 0.0 0.0

1.1479223647053621e6 2.694934473269932e6 0.0
2.694934473269932e6 -4.1784243306360855e6 0.0
0.0 0.0 0.0

3.213757782453864e6 1.6924674266267642e7 0.0
1.6924674266267642e7 1.5429261534110805e7 0.0
0.0 0.0 0.0

-2.7995061112099243e6 2.521647019269292e7 0.0
2.521647019269292e7 3.487372987866775e6 0.0
0.0 0.0 0.0

-9.77296285649136e6 -1.3638564626112536e6 0.0
-1.3638564626112536e6 3.3420936426081665e7 0.0
0.0 0.0 0.0

-1.791293907381216e6 1.884635070263518e7 0.0
1.884635070263518e7 7.669723641689387e6 0.0
0.0 0.0 0.0

4.0794355905912365e6 2.1009191054260805e7 0.0
2.1009191054260805e7 -5.417703266904475e6 0.0
0.0 0.0 0.0

-2.9514967076109843e6 2.199222423349708e7 0.0
2.199222423349708e7 -54871.7665859448 0.0
0.0 0.0 0.0

-3.7287428421343e6 2.0016084567956507e7 0.0
2.0016084567956507e7 -8.669842649336481e6 0.0
0.0 0.0 0.0

-2.4805168270420935e6 2.2150876253665406e7 0.0
2.2150876253665406e7 1.4157212074930924e6 0.0
0.0 0.0 0.0

-4.968926783901169e6 1.5761202072056314e7 0.0
1.5761202072056314e7 -1.800853567633555e7 0.0
0.0 0.0 0.0

1.5523019503055114e7 2.3047915602913063e7 0.0
2.3047915602913063e7 -5.3560129993235115e6 0.0
0.0 0.0 0.0

-1.3436564320770344e6 1.6597512836726783e7 0.0
1.6597512836726783e7 -1.3935945207284834e7 0.0
0.0 0.0 0.0

-5.097058213786398e6 1.8580177945182506e7 0.0
1.8580177945182506e7 2.1268039685087316e7 0.0
0.0 0.0 0.0

3.258566128150712e6 1.9805067271983974e7 0.0
1.9805067271983974e7 1.3052704312464723e7 0.0
0.0 0.0 0.0

2.465117938542432e6 9.985071283105634e6 0.0
9.985071283105634e6 -2.195920780146817e7 0.0
0.0 0.0 0.0

-6.745835241299643e6 1.2153468318757495e7 0.0
1.2153468318757495e7 9.470230230473781e6 0.0
0.0 0.0 0.0

-3.003328821998817e6 2.8771841603227098e7 0.0
2.8771841603227098e7 1.4532596814854888e6 0.0
0.0 0.0 0.0

-6.247133256965286e6 1.841492192283453e7 0.0
1.841492192283453e7 1.5327951360001968e7 0.0
0.0 0.0 0.0

2.1152673497840185e6 3.0170451141418062e7 0.0
3.0170451141418062e7 -1.3575279194333556e6 0.0
0.0 0.0 0.0

1.0200281663450105e6 1.3969090629954357e7 0.0
1.3969090629954357e7 -2.017468437446679e7 0.0
0.0 0.0 0.0

-1.906401231561788e7 2.494529182724123e7 0.0
2.494529182724123e7 -7.237022198240066e6 0.0
0.0 0.0 0.0

3.5287708034111895e6 4.612465082540647e6 0.0
4.612465082540647e6 -3.985549914959983e7 0.0
0.0 0.0 0.0

9.43585141119111e6 3.0146917632526714e7 0.0
3.0146917632526714e7 -4.799985514553148e6 0.0
0.0 0.0 0.0

-1.749961774770222e7 2.9354056166941956e7 0.0
2.9354056166941956e7 7.075418680067591e6 0.0
0.0 0.0 0.0

139066.90809391811 1.8166488177861933e7 0.0
1.8166488177861933e7 1.6837319682241954e7 0.0
0.0 0.0 0.0

-3.2773891769175224e7 2.9405287261757623e7 0.0
2.9405287261757623e7 7.210452372146511e6 0.0
0.0 0.0 0.0

3.845212150995426e6 3.182757896246774e6 0.0
3.182757896246774e6 -3.692865867987896e7 0.0
0.0 0.0 0.0

-5.852916009969786e6 1.828557828562968e7 0.0
1.828557828562968e7 1.655725630831908e7 0.0
0.0 0.0 0.0

-9.401008596906047e6 6.245967645886437e6 0.0
6.245967645886437e6 1.1738715874080572e7 0.0
0.0 0.0 0.0

4.0389632062623575e6 3.372886365870074e6 0.0
3.372886365870074e6 -2.038818643226485e7 0.0
0.0 0.0 0.0

354403.96341454424 1.8409008567856405e7 0.0
1.8409008567856405e7 -9.380469965419754e6 0.0
0.0 0.0 0.0

-6.400558813528022e6 3.451442152155168e7 0.0
3.451442152155168e7 4.488972271861397e6 0.0
0.0 0.0 0.0

-1.2666385347050723e7 1.5949720749406349e7 0.0
1.5949720749406349e7 7.881879342005159e6 0.0
0.0 0.0 0.0

-3.1543027499519046e7 2.5306316172943108e7 0.0
2.5306316172943108e7 2.0151523846723363e6 0.0
0.0 0.0 0.0

3.543612437032687e7 2.0291758920940652e7 0.0
2.0291758920940652e7 1.2584831496927556e7 0.0
0.0 0.0 0.0

-6.224466640085049e6 1.5313622176237877e7 0.0
1.5313622176237877e7 -7.207014900971171e7 0.0
0.0 0.0 0.0

-229210.13294860162 1.7406929664791923e7 0.0
1.7406929664791923e7 -1.1733476521111045e7 0.0
0.0 0.0 0.0

-4.861695488549746e6 1.816299464361932e7 0.0
1.816299464361932e7 2.1197057242326353e7 0.0
0.0 0.0 0.0

240275.0664744242 2.090644842018075e7 0.0
2.090644842018075e7 -8.872989371676635e6 0.0
0.0 0.0 0.0

-1.7298019009506835e6 2.4094142258761607e7 0.0
2.4094142258761607e7 -461979.48411395313 0.0
0.0 0.0 0.0

2.1668678290895955e6 1.580682200352296e7 0.0
1.580682200352296e7 8.951010875082614e6 0.0
0.0 0.0 0.0

1.6391218808346982e6 2.9528602983816274e7 0.0
2.9528602983816274e7 -1.2999784593042238e6 0.0
0.0 0.0 0.0

-1.0158599158572763e7 6.57376249766954e6 0.0
6.57376249766954e6 1.4793043480910752e7 0.0
0.0 0.0 0.0

4.74518304298216e7 2.970584971786691e7 0.0
2.970584971786691e7 1.7891923249124605e7 0.0
0.0 0.0 0.0

356586.7192288842 2.3901151442724463e7 0.0
2.3901151442724463e7 -5.585438200898726e6 0.0
0.0 0.0 0.0

3.0635611252711792e6 1.5220530092355644e7 0.0
1.5220530092355644e7 1.2146351318498207e7 0.0
0.0 0.0 0.0

-9.991919644930568e6 2.315509157884246e7 0.0
2.315509157884246e7 2.1796992283373945e6 0.0
0.0 0.0 0.0

-807890.8210618095 1.710340976019118e7 0.0
1.710340976019118e7 1.5146725115264576e7 0.0
0.0 0.0 0.0

-342191.3948335252 2.264322590571148e7 0.0
2.264322590571148e7 -5.497329805424383e6 0.0
0.0 0.0 0.0

2.981341241985986e6 7.740360822767768e6 0.0
7.740360822767768e6 -2.904352562970375e7 0.0
0.0 0.0 0.0

-3.4839702778948606e6 2.0678962910267748e7 0.0
2.0678962910267748e7 5.431745713315135e6 0.0
0.0 0.0 0.0

-5.514370918479533e6 2.077152604460874e7 0.0
2.077152604460874e7 3.5606648517807587e6 0.0
0.0 0.0 0.0

1.4965119918626468e6 7.683869221501048e6 0.0
7.683869221501048e6 -1.1112812975947391e7 0.0
0.0 0.0 0.0

-3.8109232368190154e6 2.1468059196213283e7 0.0
2.1468059196213283e7 1.0887120165986545e7 0.0
0.0 0.0 0.0

-9.240292655083973e6 5.038010414663734e6 0.0
5.038010414663734e6 4.283466416092905e7 0.0
0.0 0.0 0.0

-824147.0789647466 1.0800988369082803e7 0.0
1.0800988369082803e7 -2.7698328521011327e6 0.0
0.0 0.0 0.0

-1.006944605668914e7 2.2300616747839633e7 0.0
2.2300616747839633e7 -6.867417811301932e6 0.0
0.0 0.0 0.0

3.2544756220220573e7 2.555489658272301e7 0.0
2.555489658272301e7 1.3728213845558755e7 0.0
0.0 0.0 0.0

905631.7355405036 1.3549219880687762e7 0.0
1.3549219880687762e7 -2.557304728688351e7 0.0
0.0 0.0 0.0

3.558518527646143e6 6.170930862474829e6 0.0
6.170930862474829e6 -3.056030808138707e7 0.0
0.0 0.0 0.0

7.202713188620288e6 1.9658239652354673e7 0.0
1.9658239652354673e7 2.8556779549315386e6 0.0
0.0 0.0 0.0

-4.693079110679743e6 1.0403951661764694e7 0.0
1.0403951661764694e7 1.5268144218134532e7 0.0
0.0 0.0 0.0

-2.0642015641554962e6 2.325551486335528e7 0.0
2.325551486335528e7 24413.170811927645 0.0
0.0 0.0 0.0

-1.5178956092417643e6 2.007385012892538e7 0.0
2.007385012892538e7 -6.900562459763279e6 0.0
0.0 0.0 0.0

-940820.1903970346 2.026799311695669e7 0.0
2.026799311695669e7 -8.541509711490972e6 0.0
0.0 0.0 0.0

-875014.2421282965 1.7669489295601003e7 0.0
1.7669489295601003e7 -6.946749240348086e6 0.0
0.0 0.0 0.0

2.0960859890684723e6 8.396063566140657e6 0.0
8.396063566140657e6 -1.004473655491687e7 0.0
0.0 0.0 0.0

2.688978304024632e7 2.30907638244642e7 0.0
2.30907638244642e7 1.0593135157116149e7 0.0
0.0 0.0 0.0

1.9681185972355618e6 1.6402341664596884e7 0.0
1.6402341664596884e7 8.072816869077011e6 0.0
0.0 0.0 0.0

-3.1997640698031047e6 2.827680214744651e7 0.0
2.827680214744651e7 3.244618315991846e6 0.0
0.0 0.0 0.0

-3.2851512666806944e7 1.9513341505461577e7 0.0
1.9513341505461577e7 7.916174400370177e6 0.0
0.0 0.0 0.0

4.170708342424187e6 3.867383926936129e6 0.0
3.867383926936129e6 -1.817715706847796e7 0.0
0.0 0.0 0.0

305807.24524046737 1.7960480745921195e7 0.0
1.7960480745921195e7 5.830920697342844e6 0.0
0.0 0.0 0.0

-3.6111503946927143e6 1.5087249319201443e7 0.0
1.5087249319201443e7 -1.7191474613492835e7 0.0
0.0 0.0 0.0

11564.650490188971 1.6044282879299859e7 0.0
1.6044282879299859e7 -1.9031234600168873e7 0.0
0.0 0.0 0.0

-9.640436257759174e6 -3.997655827829251e6 0.0
-3.997655827829251e6 2.3361737277107783e7 0.0
0.0 0.0 0.0

1.3517631709516067e6 1.2817037217293385e7 0.0
1.2817037217293385e7 -1.7986792061751045e7 0.0
0.0 0.0 0.0

-8.106633116954942e6 1.6336883608659606e7 0.0
1.6336883608659606e7 -4.1879222945964076e7 0.0
0.0 0.0 0.0

1.5899034892979357e6 1.2278315506525468e7 0.0
1.2278315506525468e7 -1.8966687810917012e7 0.0
0.0 0.0 0.0

1.1462021775258463e6 1.895428984086266e7 0.0
1.895428984086266e7 -8.732267239323663e6 0.0
0.0 0.0 0.0

2.6420788436442602e7 1.983570230366124e7 0.0
1.983570230366124e7 6.053838274768507e6 0.0
0.0 0.0 0.0

-9.32118768111263e6 1.390473322993825e7 0.0
1.390473322993825e7 3.057723009471094e7 0.0
0.0 0.0 0.0

-4.153545595214159e6 2.088373834459832e7 0.0
2.088373834459832e7 -9.235300922272287e6 0.0
0.0 0.0 0.0

174047.84135401974 1.6571320387631835e7 0.0
1.6571320387631835e7 534476.3493119437 0.0
0.0 0.0 0.0

-5.374538625959633e6 1.932371821739829e7 0.0
1.932371821739829e7 -1.1541760042585319e7 0.0
0.0 0.0 0.0

2.5564706918820962e7 2.373134438729251e7 0.0
2.373134438729251e7 1.1205213332521828e7 0.0
0.0 0.0 0.0

-4.530561284529054e6 2.151774477514201e7 0.0
2.151774477514201e7 1.1532411672240816e7 0.0
0.0 0.0 0.0

1.4943933600931996e6 1.8522920753642783e7 0.0
1.8522920753642783e7 -3.476152335813369e6 0.0
0.0 0.0 0.0

-869439.0334315394 2.561075269351038e7 0.0
2.561075269351038e7 -1.2940955927357965e6 0.0
0.0 0.0 0.0

-3.4663971842149748e6 2.0697354662330296e7 0.0
2.0697354662330296e7 6.215229728621739e6 0.0
0.0 0.0 0.0

-6.533726506246097e6 1.3044688567715648e6 0.0
1.3044688567715648e6 6.531563291810407e7 0.0
0.0 0.0 0.0

12783.997452743351 1.8604165071083542e7 0.0
1.8604165071083542e7 -1.2685532353442397e7 0.0
0.0 0.0 0.0

-2.311331594747694e6 2.5207376149821606e7 0.0
2.5207376149821606e7 1.976067890713723e6 0.0
0.0 0.0 0.0

61208.09008891953 4.013420416672522e6 0.0
4.013420416672522e6 -617937.936615655 0.0
0.0 0.0 0.0

-1.0103899229532138e7 1.5743086710328775e7 0.0
1.5743086710328775e7 2.316151199423605e7 0.0
0.0 0.0 0.0

-3.4661849436862124e6 1.705640972144554e7 0.0
1.705640972144554e7 -1.0069115301014408e7 0.0
0.0 0.0 0.0

3.8789142377957683e6 3.8776163552530473e6 0.0
3.8776163552530473e6 -2.494465747894983e7 0.0
0.0 0.0 0.0

-2.02319163469436e6 2.9166847303733394e7 0.0
2.9166847303733394e7 2.071009293807501e6 0.0
0.0 0.0 0.0

1.8523996821638476e6 1.3042570438680166e7 0.0
1.3042570438680166e7 -1.646742389376074e7 0.0
0.0 0.0 0.0

-6.771088374244941e6 1.7798994026326753e7 0.0
1.7798994026326753e7 1.809885760875334e7 0.0
0.0 0.0 0.0

2.28874931106773e6 5.9312948358506635e6 0.0
5.9312948358506635e6 -5.181456634248125e7 0.0
0.0 0.0 0.0

-3.8415271425557733e6 2.7932260679476745e7 0.0
2.7932260679476745e7 2.814119598725183e6 0.0
0.0 0.0 0.0

-6.626137839802902e6 1.6093807599355288e7 0.0
1.6093807599355288e7 -2.5068824873272385e7 0.0
0.0 0.0 0.0

3.6422316566020167e6 3.00064953609538e6 0.0
3.00064953609538e6 -1.2279846859598283e7 0.0
0.0 0.0 0.0

-405627.20234083687 1.0143297567250071e7 0.0
1.0143297567250071e7 -3.995988763149937e6 0.0
0.0 0.0 0.0

-1.4417183777886057e7 2.949045424926074e7 0.0
2.949045424926074e7 6.232510187542585e6 0.0
0.0 0.0 0.0

4.132733914851547e6 1.532262554942313e7 0.0
1.532262554942313e7 1.4292405640258865e7 0.0
0.0 0.0 0.0

-7.185220667421237e6 3.2625229115060326e7 0.0
3.2625229115060326e7 3.101431673695761e6 0.0
0.0 0.0 0.0

-1.1436431840960404e7 4.9267307327674795e6 0.0
4.9267307327674795e6 2.3482912208646905e7 0.0
0.0 0.0 0.0

995088.2948109619 8.764724316125454e6 0.0
8.764724316125454e6 -5.771740815260719e7 0.0
0.0 0.0 0.0

6.2395557809317045e7 2.110564382458849e7 0.0
2.110564382458849e7 2.2195661267430857e6 0.0
0.0 0.0 0.0

-1.983080865430401e6 2.3898307410342935e7 0.0
2.3898307410342935e7 207444.35310002964 0.0
0.0 0.0 0.0

-4.947523047552132e6 2.5074133603660915e7 0.0
2.5074133603660915e7 6.255372108043437e6 0.0
0.0 0.0 0.0

-2.859793883659658e6 2.2432781413697217e7 0.0
2.2432781413697217e7 4.0986819580231565e6 0.0
0.0 0.0 0.0

4.857908566988768e6 1.880253625073658e7 0.0
1.880253625073658e7 4.6223693506416924e7 0.0
0.0 0.0 0.0

3.610262417840747e6 4.1005416113607986e6 0.0
4.1005416113607986e6 -2.91313296327964e7 0.0
0.0 0.0 0.0

361182.1488805474 1.2313940877437165e7 0.0
1.2313940877437165e7 -8.006798396199791e6 0.0
0.0 0.0 0.0

5.083068687135731e6 2.801909442479449e7 0.0
2.801909442479449e7 -4.299733517592508e6 0.0
0.0 0.0 0.0

1.4834741929974742e6 1.0250702525633397e7 0.0
1.0250702525633397e7 -3.3061040116083294e7 0.0
0.0 0.0 0.0

-1.8366054087530237e7 1.7934375784405828e7 0.0
1.7934375784405828e7 7.436841937673959e6 0.0
0.0 0.0 0.0

-5.517285726219753e6 2.098431298147914e7 0.0
2.098431298147914e7 2.4375435507436977e6 0.0
0.0 0.0 0.0

296639.8296901637 1.660904680832565e7 0.0
1.660904680832565e7 3.6213660307268607e6 0.0
0.0 0.0 0.0

2.044293618039824e6 1.2518894685154045e7 0.0
1.2518894685154045e7 -1.7512699002655584e7 0.0
0.0 0.0 0.0

1.182011522706016e6 1.8252200227422766e7 0.0
1.8252200227422766e7 2.8425662336265586e7 0.0
0.0 0.0 0.0

9.13342048609384e6 2.8085675774198025e7 0.0
2.8085675774198025e7 -5.439312484290395e6 0.0
0.0 0.0 0.0

-3.957276841476017e7 2.6890539306527087e6 0.0
2.6890539306527087e6 7.445626204166807e6 0.0
0.0 0.0 0.0

3.488970834654741e7 3.6503338362913035e7 0.0
3.6503338362913035e7 -1.0583931258133726e7 0.0
0.0 0.0 0.0

8.516585167392652e6 2.839609427695888e7 0.0
2.839609427695888e7 -5.974131901141968e6 0.0
0.0 0.0 0.0

3.8612134917337894e6 3.951774564579844e6 0.0
3.951774564579844e6 -1.7535216782547075e7 0.0
0.0 0.0 0.0

-3.154735201449489e6 2.5282097762892466e7 0.0
2.5282097762892466e7 2.231559956344336e6 0.0
0.0 0.0 0.0

3.206820537068206e7 1.4013707350208424e7 0.0
1.4013707350208424e7 1.3413052134424709e6 0.0
0.0 0.0 0.0

-8.373876898444332e6 7.28906833009065e6 0.0
7.28906833009065e6 4.607387280835704e7 0.0
0.0 0.0 0.0

-9455.75694051478 1.880362903845927e7 0.0
1.880362903845927e7 -1.2265384398621041e7 0.0
0.0 0.0 0.0

1.9992716385243148e7 1.739398788229873e7 0.0
1.739398788229873e7 4.2843107118005315e6 0.0
0.0 0.0 0.0

893685.678246852 1.8948420629519664e7 0.0
1.8948420629519664e7 -1.013996379479297e7 0.0
0.0 0.0 0.0

3.8045777081405055e6 4.504487701256943e6 0.0
4.504487701256943e6 -3.1220071152347755e7 0.0
0.0 0.0 0.0

-1.6204952866135824e6 2.367748531469814e7 0.0
2.367748531469814e7 -1.3382866619732294e6 0.0
0.0 0.0 0.0

-3.06715595268997e6 1.5325241952036884e7 0.0
1.5325241952036884e7 -1.5743369194608904e7 0.0
0.0 0.0 0.0

682013.7981325311 2.5163213300611787e7 0.0
2.5163213300611787e7 -4.439218649756501e6 0.0
0.0 0.0 0.0

-7.135763271430047e6 9.8600354381505e6 0.0
9.8600354381505e6 4.79447428619415e7 0.0
0.0 0.0 0.0

-638177.9483460346 1.6714942428460129e7 0.0
1.6714942428460129e7 -9.329487154795349e6 0.0
0.0 0.0 0.0

2.4649650557795465e6 9.695086478877047e6 0.0
9.695086478877047e6 -2.3590820492467053e7 0.0
0.0 0.0 0.0

2.7030426547307405e6 2.124205847794535e7 0.0
2.124205847794535e7 -6.333080263421489e6 0.0
0.0 0.0 0.0

-2.195836767723476e6 1.6264512031480528e7 0.0
1.6264512031480528e7 -8.42423607334172e6 0.0
0.0 0.0 0.0

-9.11230554254211e6 2.5420039040385596e6 0.0
2.5420039040385596e6 4.289251926357652e7 0.0
0.0 0.0 0.0

756269.0780763412 1.856715522634018e7 0.0
1.856715522634018e7 1.8368318270492576e7 0.0
0.0 0.0 0.0

1.3465397118209824e6 9.926042502816316e6 0.0
9.926042502816316e6 -3.551628516321351e7 0.0
0.0 0.0 0.0

1.3030405116436651e6 2.4956822428927034e7 0.0
2.4956822428927034e7 -4.368330708551104e6 0.0
0.0 0.0 0.0

1.9605300442073697e6 2.0014307585872594e7 0.0
2.0014307585872594e7 1.2645188591005415e7 0.0
0.0 0.0 0.0

3.179912918355614e6 8.751259536937032e6 0.0
8.751259536937032e6 -2.30375142359721e7 0.0
0.0 0.0 0.0

4.6804372642246e7 2.2283850017787803e7 0.0
2.2283850017787803e7 1.0174812643651398e7 0.0
0.0 0.0 0.0

710066.6124278358 2.445298742981839e7 0.0
2.445298742981839e7 -4.53374835017165e6 0.0
0.0 0.0 0.0

-9.734569610036135e6 -3.4148772233876074e6 0.0
-3.4148772233876074e6 2.645277439946053e7 0.0
0.0 0.0 0.0

-1.0093462709386334e7 2.7789377187995333e6 0.0
2.7789377187995333e6 3.971983810037556e7 0.0
0.0 0.0 0.0

4.314393467650456e6 2.3803178167889887e6 0.0
2.3803178167889887e6 -2.6336045057715394e7 0.0
0.0 0.0 0.0

-3.4338996716441624e6 2.205684451242567e7 0.0
2.205684451242567e7 3.5884596720939213e6 0.0
0.0 0.0 0.0

-1.1823996305674769e6 1.7013284232870094e7 0.0
1.7013284232870094e7 -7.689809988373311e6 0.0
0.0 0.0 0.0

209883.27619674988 2.039606359218692e7 0.0
2.039606359218692e7 -9.924778985739699e6 0.0
0.0 0.0 0.0

-9.69202425501043e6 -1.0079730305986535e6 0.0
-1.0079730305986535e6 2.0150560270347852e7 0.0
0.0 0.0 0.0

-600268.2019500856 2.0665133915191475e7 0.0
2.0665133915191475e7 -7.235299298303671e6 0.0
0.0 0.0 0.0

-9.29064353292694e6 2.415502242933676e6 0.0
2.415502242933676e6 4.261434062862585e7 0.0
0.0 0.0 0.0

6.9768928707426805e6 1.8620300588470753e7 0.0
1.8620300588470753e7 4.488599977269763e6 0.0
0.0 0.0 0.0

809784.692479644 1.1809079697254382e7 0.0
1.1809079697254382e7 -3.385459516760143e7 0.0
0.0 0.0 0.0

1.8867740183808636e6 9.878845126027577e6 0.0
9.878845126027577e6 -3.56133984924533e7 0.0
0.0 0.0 0.0

-1.0287250031874327e7 1.5431298168461386e7 0.0
1.5431298168461386e7 2.422178847124484e7 0.0
0.0 0.0 0.0

-3.2803421694295937e6 1.8711775024704717e7 0.0
1.8711775024704717e7 4.23842678572019e6 0.0
0.0 0.0 0.0

877231.7775545607 4.654058364482621e6 0.0
4.654058364482621e6 -2.6589412729119216e6 0.0
0.0 0.0 0.0

-844870.679372015 1.7506071893086784e7 0.0
1.7506071893086784e7 -8.079320135693815e6 0.0
0.0 0.0 0.0

-3.45167318749351e6 2.4114404334466442e7 0.0
2.4114404334466442e7 6.195754609835399e6 0.0
0.0 0.0 0.0

4.4248278617357295e6 1.872418632134685e7 0.0
1.872418632134685e7 3.547441146968723e7 0.0
0.0 0.0 0.0

1.0045457439108187e7 2.088390910930528e7 0.0
2.088390910930528e7 -2.976332478087173e6 0.0
0.0 0.0 0.0

-6.037101888960224e6 898113.3785038289 0.0
898113.3785038289 6.3267558649553485e7 0.0
0.0 0.0 0.0

-9.342512721522136e6 9.511170749149568e6 0.0
9.511170749149568e6 3.768976678776308e7 0.0
0.0 0.0 0.0

-1.0199891669315461e7 1.4994426012647245e7 0.0
1.4994426012647245e7 2.020453886905516e7 0.0
0.0 0.0 0.0

1.330920594770267e6 1.6902309474401828e7 0.0
1.6902309474401828e7 8.853499242957199e6 0.0
0.0 0.0 0.0

-9.696572384416575e6 3.0022000115485354e6 0.0
3.0022000115485354e6 1.494028001179082e7 0.0
0.0 0.0 0.0

-9.488193777004747e6 1.9904719191185825e7 0.0
1.9904719191185825e7 -3.6158821737839906e6 0.0
0.0 0.0 0.0

4.056005505130885e6 4.933988050538389e6 0.0
4.933988050538389e6 -2.776637208658415e7 0.0
0.0 0.0 0.0

-5.99653062955629e6 1.6000775750837859e7 0.0
1.6000775750837859e7 -3.560043686375454e7 0.0
0.0 0.0 0.0

1.1638460009390363e6 1.6347798984597722e7 0.0
1.6347798984597722e7 5.640588544482566e6 0.0
0.0 0.0 0.0

1.3353322184172994e7 2.5357445439483397e7 0.0
2.5357445439483397e7 -6.513786899625227e6 0.0
0.0 0.0 0.0

1.2434469984011748e6 1.9462929579152707e7 0.0
1.9462929579152707e7 -7.934573786694758e6 0.0
0.0 0.0 0.0

-1.8928433526990093e7 2.4186570154745422e7 0.0
2.4186570154745422e7 -5.3670404147659205e6 0.0
0.0 0.0 0.0

-1.9916384894830477e6 2.452720287734995e7 0.0
2.452720287734995e7 -1.4304336743631046e6 0.0
0.0 0.0 0.0

-1.0405757920949977e6 6.700833514049957e6 0.0
6.700833514049957e6 -3.1456874929371923e6 0.0
0.0 0.0 0.0

-4.931380871360892e6 3.3447062853041165e7 0.0
3.3447062853041165e7 4.385750818813574e6 0.0
0.0 0.0 0.0

-3.1043408281717002e6 1.913085636763207e7 0.0
1.913085636763207e7 3.1003096752283163e6 0.0
0.0 0.0 0.0

-1.1971336747711873e7 6.798050797676595e6 0.0
6.798050797676595e6 1.5535495058375604e7 0.0
0.0 0.0 0.0

-3.5651480734137045e6 1.9048817502300236e7 0.0
1.9048817502300236e7 1.416051071328248e6 0.0
0.0 0.0 0.0

-3.503414100835111e6 2.411254727863775e6 0.0
2.411254727863775e6 2.597086676207288e6 0.0
0.0 0.0 0.0

820544.3517640419 9.757494099210383e6 0.0
9.757494099210383e6 -1.4197338948741267e7 0.0
0.0 0.0 0.0

1.014769053533785e6 1.2347983785575064e7 0.0
1.2347983785575064e7 -2.9461506590514235e7 0.0
0.0 0.0 0.0

-7.92194886277667e6 2.087749209878634e7 0.0
2.087749209878634e7 -7.109662083142813e6 0.0
0.0 0.0 0.0

-4.91706992713772e6 1.8597840932708755e7 0.0
1.8597840932708755e7 2.0168204812717807e7 0.0
0.0 0.0 0.0

-879334.9200407465 1.6901314667620208e7 0.0
1.6901314667620208e7 -5.569735256375705e6 0.0
0.0 0.0 0.0

3.3710804298917325e6 4.239278664178437e6 0.0
4.239278664178437e6 -1.2469989322716616e7 0.0
0.0 0.0 0.0

-1.5899155337576757e6 2.2196782276480872e7 0.0
2.2196782276480872e7 -4.725860056434324e6 0.0
0.0 0.0 0.0

-1.2203143574589468e6 2.5423218821453188e7 0.0
2.5423218821453188e7 -2.2783649196783504e6 0.0
0.0 0.0 0.0

3.9056237521887408e6 2.0830010943441525e7 0.0
2.0830010943441525e7 -5.693921567181608e6 0.0
0.0 0.0 0.0

-1.1943408210866928e7 9.859807461588126e6 0.0
9.859807461588126e6 1.6778850540531393e7 0.0
0.0 0.0 0.0

-1.603438103712961e6 1.6203529999913188e7 0.0
1.6203529999913188e7 -1.767392760150517e7 0.0
0.0 0.0 0.0

-5.178033581054014e6 2.918825060485568e7 0.0
2.918825060485568e7 3.2203547378265318e6 0.0
0.0 0.0 0.0

-4.415077650683852e6 2.8565486301536858e7 0.0
2.8565486301536858e7 3.0098677165290127e6 0.0
0.0 0.0 0.0

-1.8561548584544212e6 1.4695115263351029e7 0.0
1.4695115263351029e7 -2.728800908194075e7 0.0
0.0 0.0 0.0

-2.8171879304343015e6 1.620124265799395e7 0.0
1.620124265799395e7 -1.0784030490074204e7 0.0
0.0 0.0 0.0

526383.6270549056 1.7004966199632272e7 0.0
1.7004966199632272e7 4.717258380565214e6 0.0
0.0 0.0 0.0

2.421458601180114e6 9.22737812931576e6 0.0
9.22737812931576e6 -2.828729839375492e7 0.0
0.0 0.0 0.0

-1.0694326480891855e7 1.0687384111004898e7 0.0
1.0687384111004898e7 3.107072306408401e7 0.0
0.0 0.0 0.0

-819540.4282975383 1.1807952415135603e7 0.0
1.1807952415135603e7 -5.984947110397256e7 0.0
0.0 0.0 0.0

7.150287046815809e6 3.1099303712721214e7 0.0
3.1099303712721214e7 -6.207831653252799e6 0.0
0.0 0.0 0.0

5.07978147297075e6 1.6742349897458108e7 0.0
1.6742349897458108e7 2.3757823628577273e7 0.0
0.0 0.0 0.0

2.356939372669383e6 1.774586838569852e7 0.0
1.774586838569852e7 3.1807119921642378e7 0.0
0.0 0.0 0.0

1.8898045288255353e7 2.163867144080904e7 0.0
2.163867144080904e7 9.543512314061403e6 0.0
0.0 0.0 0.0

-392809.93458657665 1.711420372174751e7 0.0
1.711420372174751e7 2.732769964018454e6 0.0
0.0 0.0 0.0

-1.4736464918100953e6 2.1859253470659666e7 0.0
2.1859253470659666e7 -4.5112791548168855e6 0.0
0.0 0.0 0.0

-2.5448659070407275e7 2.4476057043294936e7 0.0
2.4476057043294936e7 -6.180858727195668e6 0.0
0.0 0.0 0.0

-331179.6146340785 1.6284314226707168e7 0.0
1.6284314226707168e7 894366.544269853 0.0
0.0 0.0 0.0

-3.312807431493439e6 1.999912985310234e7 0.0
1.999912985310234e7 5.058289392688086e6 0.0
0.0 0.0 0.0

4.37359073655565e6 3.976614482982412e6 0.0
3.976614482982412e6 -2.3129185229849294e7 0.0
0.0 0.0 0.0

-1.0330522416853854e7 2.1317613973845754e7 0.0
2.1317613973845754e7 -2.058823997627187e6 0.0
0.0 0.0 0.0

-1.2924768069976646e7 3.5117932570496626e7 0.0
3.5117932570496626e7 5.146550201604012e6 0.0
0.0 0.0 0.0

-1.0363371803409347e7 796881.6384070679 0.0
796881.6384070679 2.30810295673183e7 0.0
0.0 0.0 0.0

8.79166595794831e6 2.62521123252828e7 0.0
2.62521123252828e7 -5.3460127280795155e6 0.0
0.0 0.0 0.0

-4.748405072274551e6 9.756189877829993e6 0.0
9.756189877829993e6 6.864614733417368e7 0.0
0.0 0.0 0.0

-9.533598207559194e6 -3.514431392678391e6 0.0
-3.514431392678391e6 2.6167120472477786e7 0.0
0.0 0.0 0.0

-1.0896199877359822e7 1.82399863218191e7 0.0
1.82399863218191e7 -4.5919731514072716e7 0.0
0.0 0.0 0.0

-211034.6934589087 1.809510219153327e7 0.0
1.809510219153327e7 -1.058029610185714e7 0.0
0.0 0.0 0.0

-998805.8456842941 2.618648818833233e7 0.0
2.618648818833233e7 -1.1163326969512333e6 0.0
0.0 0.0 0.0

-7.088173720040504e6 1.8117033785840273e7 0.0
1.8117033785840273e7 -6.614988800202319e6 0.0
0.0 0.0 0.0

-551106.6456962335 9.602875986038296e6 0.0
9.602875986038296e6 -2.921226192548355e6 0.0
0.0 0.0 0.0

-2.0359178924972152e6 2.3457855472273648e7 0.0
2.3457855472273648e7 -2.51006151525971e6 0.0
0.0 0.0 0.0

-3.019698505526867e6 2.7724293992272902e7 0.0
2.7724293992272902e7 2.728539920322207e6 0.0
0.0 0.0 0.0

-804086.089337178 2.6308159370161824e7 0.0
2.6308159370161824e7 -1.4448346576426793e6 0.0
0.0 0.0 0.0

-2.535399336332161e6 1.1001178033308446e7 0.0
1.1001178033308446e7 -6.554895400821598e7 0.0
0.0 0.0 0.0

-4.61976018423983e6 1.783150366698349e7 0.0
1.783150366698349e7 -1.489248620995609e7 0.0
0.0 0.0 0.0

-7.891296283226624e6 1.8493369977366887e6 0.0
1.8493369977366887e6 5.0974858815731265e7 0.0
0.0 0.0 0.0

1.050900671533322e7 2.1228330227467973e7 0.0
2.1228330227467973e7 5.231389981120432e7 0.0
0.0 0.0 0.0

-4.378692480467206e7 2.6673884523157203e6 0.0
2.6673884523157203e6 7.395333573061336e6 0.0
0.0 0.0 0.0

3.2042217711304482e7 2.3607765502679147e7 0.0
2.3607765502679147e7 2.8993087709318902e6 0.0
0.0 0.0 0.0

505961.3331954703 1.4419114003544342e7 0.0
1.4419114003544342e7 -2.467520630212876e7 0.0
0.0 0.0 0.0

2.3150144270811253e6 5.412480257963384e6 0.0
5.412480257963384e6 -8.000869828869346e6 0.0
0.0 0.0 0.0

4.397681153424047e7 2.2387553188630633e7 0.0
2.2387553188630633e7 -4.144208977020018e6 0.0
0.0 0.0 0.0

3.3985886471587475e6 1.1512839561705127e7 0.0
1.1512839561705127e7 -1.858668211242768e7 0.0
0.0 0.0 0.0

2.3680855232222106e7 2.1569249894021835e7 0.0
2.1569249894021835e7 9.816284978914864e6 0.0
0.0 0.0 0.0

-2.2753091080981633e6 2.4354485453800492e7 0.0
2.4354485453800492e7 -881674.1210519724 0.0
0.0 0.0 0.0

-4.404121490614889e6 2.45594552962829e7 0.0
2.45594552962829e7 6.398581750537065e6 0.0
0.0 0.0 0.0

-659252.2437207974 1.2725724011467187e7 0.0
1.2725724011467187e7 -8.651158687070059e6 0.0
0.0 0.0 0.0

-7.369992263008801e6 1.3116103993838746e7 0.0
1.3116103993838746e7 -2.529933329757847e6 0.0
0.0 0.0 0.0

-4.2313808160927035e6 1.6212520317961894e7 0.0
1.6212520317961894e7 -1.7043151021280188e7 0.0
0.0 0.0 0.0

-1.940144604219778e6 1.9179099507932387e7 0.0
1.9179099507932387e7 7.557470416040886e6 0.0
0.0 0.0 0.0

1.7384174034768727e6 1.890671123248814e7 0.0
1.890671123248814e7 9.208358498569757e6 0.0
0.0 0.0 0.0

-5.358774049794432e6 8.35565428228322e6 0.0
8.35565428228322e6 6.4147861535833e7 0.0
0.0 0.0 0.0

-2.6857434678247697e6 2.2930961938706238e7 0.0
2.2930961938706238e7 -526561.8757773389 0.0
0.0 0.0 0.0

4.291715595887624e6 2.367026405534324e6 0.0
2.367026405534324e6 -2.654443146530656e7 0.0
0.0 0.0 0.0

-3.9485859564877795e6 2.0019864170653433e7 0.0
2.0019864170653433e7 1.3985560804450091e7 0.0
0.0 0.0 0.0

999377.0652483385 1.8907624608420238e7 0.0
1.8907624608420238e7 1.0587399609704606e7 0.0
0.0 0.0 0.0

9.20834801861609e6 2.2425088442018226e7 0.0
2.2425088442018226e7 -4.718653878918974e6 0.0
0.0 0.0 0.0

-464282.1669320662 2.2143016721028384e7 0.0
2.2143016721028384e7 -7.128123735912903e6 0.0
0.0 0.0 0.0

-3.7793736593089257e6 3.05319258564814e7 0.0
3.05319258564814e7 2.0000786589068202e6 0.0
0.0 0.0 0.0

-1.9135283523691269e6 7.1915620414046105e6 0.0
7.1915620414046105e6 -1.891503463782847e6 0.0
0.0 0.0 0.0

-1.042820007469648e7 2.9025661538781784e7 0.0
2.9025661538781784e7 5.34077688067765e6 0.0
0.0 0.0 0.0

-2.489730585272099e6 2.4983330862941068e7 0.0
2.4983330862941068e7 2.7220751601039954e6 0.0
0.0 0.0 0.0

-9.696425620144513e6 1.606008928743685e7 0.0
1.606008928743685e7 2.0200276854998186e7 0.0
0.0 0.0 0.0

2.6166460750121962e7 2.1288124185829535e7 0.0
2.1288124185829535e7 -1.8844953995720353e6 0.0
0.0 0.0 0.0

517244.8610123778 1.7370860011282932e7 0.0
1.7370860011282932e7 -1.3302078849524617e7 0.0
0.0 0.0 0.0

-2.5177860259982534e6 2.4163797209895507e7 0.0
2.4163797209895507e7 -230619.1706977212 0.0
0.0 0.0 0.0

-373355.29298987146 1.1653806214422902e7 0.0
1.1653806214422902e7 -8.955486737577092e6 0.0
0.0 0.0 0.0

-1.8003689192479318e6 1.8945094223021124e7 0.0
1.8945094223021124e7 1.1876278648675308e7 0.0
0.0 0.0 0.0

-1.1102335141402174e7 1.369375123087023e7 0.0
1.369375123087023e7 470746.61263447814 0.0
0.0 0.0 0.0

-1.1111484287053576e7 2.072859618333831e7 0.0
2.072859618333831e7 -2.4130624311590577e6 0.0
0.0 0.0 0.0

78969.18299383344 1.7867266239076328e7 0.0
1.7867266239076328e7 -1.0549380468950003e7 0.0
0.0 0.0 0.0

7.547215590267555e6 1.491455256087498e7 0.0
1.491455256087498e7 4.331403144913309e6 0.0
0.0 0.0 0.0

-5036.249859377742 1.68734236891721e7 0.0
1.68734236891721e7 -1.6470526919412674e7 0.0
0.0 0.0 0.0

-5.121151755835931e6 1.844830708827625e7 0.0
1.844830708827625e7 2.00678442740279e7 0.0
0.0 0.0 0.0

-1.5552802045925418e7 1.934731011386243e7 0.0
1.934731011386243e7 3.1301704461479047e6 0.0
0.0 0.0 0.0

-2.4148514779107114e6 1.898287782928621e7 0.0
1.898287782928621e7 3.0599583153501395e6 0.0
0.0 0.0 0.0

-1.2582098825398225e7 6.072302010842545e6 0.0
6.072302010842545e6 2.13494009592865e7 0.0
0.0 0.0 0.0

1.3375906366996127e6 1.760770290244099e7 0.0
1.760770290244099e7 1.6093961855700275e7 0.0
0.0 0.0 0.0

1.081527739668421e7 2.8456059116205875e7 0.0
2.8456059116205875e7 -6.88788534409494e6 0.0
0.0 0.0 0.0

-3.5030990478202954e7 2.3812136957558732e7 0.0
2.3812136957558732e7 3.874129704237791e6 0.0
0.0 0.0 0.0

6.518836821753124e6 3.467599450455794e7 0.0
3.467599450455794e7 -3.377336644930325e6 0.0
0.0 0.0 0.0

-1.2313250688968044e7 2.2013036954128005e7 0.0
2.2013036954128005e7 218903.07171544293 0.0
0.0 0.0 0.0

3.5612306194301955e6 3.1785617392689306e7 0.0
3.1785617392689306e7 -1.8107463336206225e6 0.0
0.0 0.0 0.0

-1.1859183070389733e7 2.299197963631543e6 0.0
2.299197963631543e6 2.0727420346670277e7 0.0
0.0 0.0 0.0

1.1583903801110033e7 2.152599122262028e7 0.0
2.152599122262028e7 -3.306055173207944e6 0.0
0.0 0.0 0.0

-3.619941204593174e6 2.889880100151561e7 0.0
2.889880100151561e7 3.529312036177124e6 0.0
0.0 0.0 0.0

-4.246824365984465e6 1.9784038417188622e7 0.0
1.9784038417188622e7 869889.9251988316 0.0
0.0 0.0 0.0

-12259.760002486408 1.5822542977749923e7 0.0
1.5822542977749923e7 -2.0638929792400636e7 0.0
0.0 0.0 0.0

-5.725346842405708e6 2.645669410922685e7 0.0
2.645669410922685e7 5.589855887440932e6 0.0
0.0 0.0 0.0

-7.152294719685375e6 1.78984805366909e7 0.0
1.78984805366909e7 -2.9970511354504838e6 0.0
0.0 0.0 0.0

2.870488561859972e6 3.123174176729584e7 0.0
3.123174176729584e7 -3.5440482660556715e6 0.0
0.0 0.0 0.0

-1.3381185745257717e7 2.9490893299145997e7 0.0
2.9490893299145997e7 6.585890322540093e6 0.0
0.0 0.0 0.0

7.752842001375665e6 2.179804332670216e7 0.0
2.179804332670216e7 -4.291551984801663e6 0.0
0.0 0.0 0.0

3.7709553326215623e6 5.647849418896649e6 0.0
5.647849418896649e6 -1.5648736719956897e7 0.0
0.0 0.0 0.0

-4.580763300935003e6 1.6285533993364438e7 0.0
1.6285533993364438e7 -2.9157243088899646e7 0.0
0.0 0.0 0.0

3.3576288888812196e6 4.1324090376263265e6 0.0
4.1324090376263265e6 -1.3507299372367878e7 0.0
0.0 0.0 0.0

3.4522937443252215e6 1.721307207871909e7 0.0
1.721307207871909e7 2.2677260423975784e7 0.0
0.0 0.0 0.0

3.9704805064928476e6 2.016607789439981e7 0.0
2.016607789439981e7 -4.164274889247577e6 0.0
0.0 0.0 0.0

6.4375821917505395e6 2.65198576483542e7 0.0
2.65198576483542e7 -5.0779022989382185e6 0.0
0.0 0.0 0.0

-1.0021316809201837e7 1.6306676938063815e7 0.0
1.6306676938063815e7 2.2942277218043797e7 0.0
0.0 0.0 0.0

39345.08595818048 1.3303583260465933e7 0.0
1.3303583260465933e7 -7.775636381753828e6 0.0
0.0 0.0 0.0

-639059.7437312861 8.101016920284609e6 0.0
8.101016920284609e6 4.8257087208949905e6 0.0
0.0 0.0 0.0

435681.8274443392 1.0283477517016567e7 0.0
1.0283477517016567e7 -4.948895515957974e7 0.0
0.0 0.0 0.0

1.606334725312119e6 1.4857701279581612e7 0.0
1.4857701279581612e7 5.167839377547795e6 0.0
0.0 0.0 0.0

-1.2913441258762844e7 2.6638487995961115e7 0.0
2.6638487995961115e7 5.610928989666685e6 0.0
0.0 0.0 0.0

-925735.5895905052 1.6681246822284518e7 0.0
1.6681246822284518e7 -1.1771026063907638e7 0.0
0.0 0.0 0.0

1.9831425263217237e7 2.054671761347975e7 0.0
2.054671761347975e7 7.062700938791269e6 0.0
0.0 0.0 0.0

-1.140573305550878e7 5.182836817308232e6 0.0
5.182836817308232e6 2.774484612804685e7 0.0
0.0 0.0 0.0

-2.9148041222098224e7 2.714661110143314e7 0.0
2.714661110143314e7 3.12968956210207e6 0.0
0.0 0.0 0.0

2.4702441997818336e7 2.925741284337762e7 0.0
2.925741284337762e7 -1.0893212387546215e7 0.0
0.0 0.0 0.0

-4.537640643941304e6 2.47202290891849e7 0.0
2.47202290891849e7 7.155367915490359e6 0.0
0.0 0.0 0.0

-177503.8677079539 1.4961931366098857e7 0.0
1.4961931366098857e7 2.0902636026392262e6 0.0
0.0 0.0 0.0

-8.691071379942138e6 1.5438242125707e7 0.0
1.5438242125707e7 2.7537573074048817e7 0.0
0.0 0.0 0.0

-1.0226299105558837e7 -2.2128292127741333e6 0.0
-2.2128292127741333e6 2.7041562311585393e7 0.0
0.0 0.0 0.0

71958.13071970735 1.704629344478009e7 0.0
1.704629344478009e7 -1.4442484638682526e7 0.0
0.0 0.0 0.0

-7.948724152258298e6 2.296333158058568e7 0.0
2.296333158058568e7 -9.320103998677662e6 0.0
0.0 0.0 0.0

-272123.8893378414 1.7362731425154682e7 0.0
1.7362731425154682e7 -9.73998858308989e6 0.0
0.0 0.0 0.0

-7.649705090948753e6 1.026256503868858e7 0.0
1.026256503868858e7 4.389998187540077e7 0.0
0.0 0.0 0.0

926961.238671653 1.3553284895366928e7 0.0
1.3553284895366928e7 -2.4297778286628094e7 0.0
0.0 0.0 0.0

-8.136211087633523e6 2.289199323083376e7 0.0
2.289199323083376e7 -9.419572915311212e6 0.0
0.0 0.0 0.0

-1245.5417738910764 1.5448668693184862e7 0.0
1.5448668693184862e7 -2.054089059332193e7 0.0
0.0 0.0 0.0

2.0250381875372592e7 2.043822536873298e7 0.0
2.043822536873298e7 9.58437194174067e6 0.0
0.0 0.0 0.0

-9.067987699641254e6 8.50443375880624e6 0.0
8.50443375880624e6 4.04415613645971e7 0.0
0.0 0.0 0.0

988034.301250324 1.843920666438526e7 0.0
1.843920666438526e7 -1.330122451783507e6 0.0
0.0 0.0 0.0

-3.040501212348371e6 1.9183908541102666e7 0.0
1.9183908541102666e7 1.6448699130593548e7 0.0
0.0 0.0 0.0

1.9200182132820557e6 2.5547247960502386e7 0.0
2.5547247960502386e7 -4.341227387627623e6 0.0
0.0 0.0 0.0

3.013699943657914e6 9.455324323333975e6 0.0
9.455324323333975e6 -2.4682832700042173e7 0.0
0.0 0.0 0.0

2.1143194077344784e6 8.93434721019246e6 0.0
8.93434721019246e6 -1.077481102467409e7 0.0
0.0 0.0 0.0

502343.4593794253 1.0719829527955119e7 0.0
1.0719829527955119e7 -4.293397339715129e7 0.0
0.0 0.0 0.0

-7.780280317624486e6 2.1265196799735706e7 0.0
2.1265196799735706e7 -3.660516330860999e6 0.0
0.0 0.0 0.0

-1.0384315774178682e7 8.209044805030219e6 0.0
8.209044805030219e6 3.616782476993796e7 0.0
0.0 0.0 0.0

-6.623215675787213e6 2.1106322042922147e7 0.0
2.1106322042922147e7 -6.694659970064647e6 0.0
0.0 0.0 0.0

-89434.90727877058 1.6503486372623475e7 0.0
1.6503486372623475e7 -1.0086827651894985e7 0.0
0.0 0.0 0.0

1.7784642214884683e6 8.451573864682235e6 0.0
8.451573864682235e6 -3.804358620882393e7 0.0
0.0 0.0 0.0

-9.6057614807898e6 1.4333669843815485e7 0.0
1.4333669843815485e7 2.8667178427853476e7 0.0
0.0 0.0 0.0

2.5009787940252256e6 1.6428169896626236e7 0.0
1.6428169896626236e7 1.0228588329941424e7 0.0
0.0 0.0 0.0

337969.3931010328 1.216594482311414e7 0.0
1.216594482311414e7 -3.180668607842493e7 0.0
0.0 0.0 0.0

3.894030795072131e6 2.9903950644836547e6 0.0
2.9903950644836547e6 -2.9502433574186638e7 0.0
0.0 0.0 0.0

-4.425559320515516e6 1.9592984501458354e7 0.0
1.9592984501458354e7 1.3886929229022412e7 0.0
0.0 0.0 0.0

-6.272104312188799e6 2.178888134411739e7 0.0
2.178888134411739e7 -8.804470227252387e6 0.0
0.0 0.0 0.0

1.3403461701703016e6 1.2458871051179716e7 0.0
1.2458871051179716e7 -1.247717355372273e7 0.0
0.0 0.0 0.0

-1.0194244873136831e7 1.7271139241600146e6 0.0
1.7271139241600146e6 3.353083427327829e7 0.0
0.0 0.0 0.0

-1.5851459898154882e6 2.1213950096334033e6 0.0
2.1213950096334033e6 3.0015339778494183e6 0.0
0.0 0.0 0.0

-7.203645885171994e6 1.795359511673531e7 0.0
1.795359511673531e7 1.6759912397070333e7 0.0
0.0 0.0 0.0

2.148674855396625e7 2.250180088087226e7 0.0
2.250180088087226e7 1.2177238292520376e7 0.0
0.0 0.0 0.0

1.614861544978287e7 2.1029040482592706e7 0.0
2.1029040482592706e7 9.770760297190294e6 0.0
0.0 0.0 0.0

-1.2303737251616364e7 2.207087169388054e7 0.0
2.207087169388054e7 -8.049657272941796e6 0.0
0.0 0.0 0.0

-3.058793647589974e6 1.4844302633496203e7 0.0
1.4844302633496203e7 -1.0762389286342911e7 0.0
0.0 0.0 0.0

-6.886930008386182e6 2.2029074541381814e7 0.0
2.2029074541381814e7 -7.755522471746168e6 0.0
0.0 0.0 0.0

-8.073646567719521e6 2.1076138141331322e7 0.0
2.1076138141331322e7 -6.994927878782515e6 0.0
0.0 0.0 0.0

623273.5202311315 1.1273847987985898e7 0.0
1.1273847987985898e7 -3.824615478005053e7 0.0
0.0 0.0 0.0

-435531.5987167021 4.208438404867633e6 0.0
4.208438404867633e6 -2.455099123287249e6 0.0
0.0 0.0 0.0

-392201.10633011174 6.608911408437063e6 0.0
6.608911408437063e6 -974891.6449182343 0.0
0.0 0.0 0.0

838496.1415020202 1.5794196580512816e7 0.0
1.5794196580512816e7 1.3111012834922178e6 0.0
0.0 0.0 0.0

1.4563910711328223e7 2.13686430328551e7 0.0
2.13686430328551e7 1.003381839238616e7 0.0
0.0 0.0 0.0

687693.0122960724 1.6243186938909989e7 0.0
1.6243186938909989e7 6.656423907527754e6 0.0
0.0 0.0 0.0

-5.365105075997241e6 1.8813327216575153e7 0.0
1.8813327216575153e7 1.4244076430972228e7 0.0
0.0 0.0 0.0

-2.2683864185055997e7 1.0271789255886905e7 0.0
1.0271789255886905e7 9.52585458369491e6 0.0
0.0 0.0 0.0

1.6299821446270945e6 1.6481099400520882e7 0.0
1.6481099400520882e7 8.145208096468687e6 0.0
0.0 0.0 0.0

2.9624876186541747e6 6.116968553175483e6 0.0
6.116968553175483e6 -1.6365029869023897e7 0.0
0.0 0.0 0.0

-1.2876574931545053e7 2.80694653121356e7 0.0
2.80694653121356e7 6.172576526857784e6 0.0
0.0 0.0 0.0

-9.672372764368225e6 -114891.67365509483 0.0
-114891.67365509483 3.553565038950673e7 0.0
0.0 0.0 0.0

-1.2854109648946603e6 1.8372674673205595e7 0.0
1.8372674673205595e7 -7.89944464019054e6 0.0
0.0 0.0 0.0

6.2248193988025915e6 1.9873838988106113e7 0.0
1.9873838988106113e7 1.1030729307003723e7 0.0
0.0 0.0 0.0

-6.133049842771426e6 2.158984440184437e7 0.0
2.158984440184437e7 -8.753190668999393e6 0.0
0.0 0.0 0.0

-2.0940971832369529e6 1.5224401057347484e7 0.0
1.5224401057347484e7 -2.4825492969227985e7 0.0
0.0 0.0 0.0

1.68347918032644e7 2.1956832269967142e7 0.0
2.1956832269967142e7 1.1650211299089566e7 0.0
0.0 0.0 0.0

-2.204292179452641e6 1.6701289073427096e7 0.0
1.6701289073427096e7 -1.837845860011182e7 0.0
0.0 0.0 0.0

977904.1865162132 1.732195142177833e7 0.0
1.732195142177833e7 9.726089782980094e6 0.0
0.0 0.0 0.0

2.814490753721026e6 1.9191831372105014e7 0.0
1.9191831372105014e7 1.3065291977343759e7 0.0
0.0 0.0 0.0

-3.9961768756284993e6 1.9395195297819357e7 0.0
1.9395195297819357e7 1.4710687088827346e7 0.0
0.0 0.0 0.0

-2.7894603753978033e6 1.920838729611611e7 0.0
1.920838729611611e7 9.663683104744054e6 0.0
0.0 0.0 0.0

3.3810288185372334e6 5.433991283402451e6 0.0
5.433991283402451e6 -2.8514388878258456e7 0.0
0.0 0.0 0.0

-155945.51348009618 2.739656113005681e7 0.0
2.739656113005681e7 -1.5347978579154094e6 0.0
0.0 0.0 0.0

-5.024645516632431e6 1.8393509583734144e7 0.0
1.8393509583734144e7 -1.2370388177471004e7 0.0
0.0 0.0 0.0

2.497649745374942e7 1.898811175576463e7 0.0
1.898811175576463e7 8.974560190094281e6 0.0
0.0 0.0 0.0

-7.697251632968918e6 2.5853500711411327e7 0.0
2.5853500711411327e7 6.265960128580214e6 0.0
0.0 0.0 0.0

3.6505901450109724e6 4.540494590299464e6 0.0
4.540494590299464e6 -3.2783968203769885e7 0.0
0.0 0.0 0.0

-3.628370604017509e6 1.7300522778090455e7 0.0
1.7300522778090455e7 5.561127040573884e6 0.0
0.0 0.0 0.0

1.2245845532894194e7 1.9192749426275216e7 0.0
1.9192749426275216e7 6.442845352396354e6 0.0
0.0 0.0 0.0

3.262596054148879e7 1.722927742973625e7 0.0
1.722927742973625e7 6.164121205457395e6 0.0
0.0 0.0 0.0

-4.806714205744639e6 2.885837942332495e7 0.0
2.885837942332495e7 4.4527353160178e6 0.0
0.0 0.0 0.0

372233.52877275646 1.761776769038167e7 0.0
1.761776769038167e7 -1.5472654096717348e7 0.0
0.0 0.0 0.0

-1.0912222463518724e7 8.999049741495697e6 0.0
8.999049741495697e6 1.8311115694685806e7 0.0
0.0 0.0 0.0

-1.0040988387365812e7 -48494.21116326785 0.0
-48494.21116326785 3.3991587718854286e7 0.0
0.0 0.0 0.0

1.4419110011937518e6 1.6408815570811814e7 0.0
1.6408815570811814e7 5.57194157927344e6 0.0
0.0 0.0 0.0

9.68209780207806e6 1.6985583627446845e7 0.0
1.6985583627446845e7 9.253722037326448e6 0.0
0.0 0.0 0.0

-1.1295764952534629e7 2.9167262828074424e6 0.0
2.9167262828074424e6 2.6415870909971256e7 0.0
0.0 0.0 0.0

-2.82365197693219e6 1.1801863222503679e7 0.0
1.1801863222503679e7 -2.189839894936707e6 0.0
0.0 0.0 0.0

-3.185257016586544e6 1.849879624140668e7 0.0
1.849879624140668e7 -1.2005200088253014e7 0.0
0.0 0.0 0.0

-3.061255360364844e6 1.5518116498427955e7 0.0
1.5518116498427955e7 -2.3035203647422843e7 0.0
0.0 0.0 0.0

-921268.5043452701 2.6843535463478263e7 0.0
2.6843535463478263e7 -1.1813915605529123e6 0.0
0.0 0.0 0.0

2.5579645361418286e6 2.6032724845117573e7 0.0
2.6032724845117573e7 -4.576041184767773e6 0.0
0.0 0.0 0.0

2.3496196175034856e6 3.393737220727746e7 0.0
3.393737220727746e7 -3.382052316150753e6 0.0
0.0 0.0 0.0

-1.2621355587335927e7 3.3372276104232553e7 0.0
3.3372276104232553e7 6.45780053146839e6 0.0
0.0 0.0 0.0

5.84158284628916e6 1.7574547781621512e7 0.0
1.7574547781621512e7 2.2449645434228096e7 0.0
0.0 0.0 0.0

-5.945954756596692e6 1.606591684616785e7 0.0
1.606591684616785e7 -6.288085998491586e7 0.0
0.0 0.0 0.0

-1.0441247698596485e7 -1.8305367978142058e6 0.0
-1.8305367978142058e6 1.8359951291679204e7 0.0
0.0 0.0 0.0

-7.642605159521768e6 1.4949433806583505e7 0.0
1.4949433806583505e7 -2.6957917002380155e7 0.0
0.0 0.0 0.0

-3.4228816437929617e6 1.4078977113803536e7 0.0
1.4078977113803536e7 -1.2160480343881113e7 0.0
0.0 0.0 0.0

4.426171693605227e6 1.7970942466274258e7 0.0
1.7970942466274258e7 2.192022448185946e7 0.0
0.0 0.0 0.0

-7.1740513169142455e6 1.645295740881551e7 0.0
1.645295740881551e7 -3.227739584870764e7 0.0
0.0 0.0 0.0

-5.479140605726055e6 1.5102829878745394e7 0.0
1.5102829878745394e7 -2.293232047902209e7 0.0
0.0 0.0 0.0

1.4114079182987997e7 2.1132070102684237e7 0.0
2.1132070102684237e7 8.589937910626965e6 0.0
0.0 0.0 0.0

-4.663825098313941e6 1.8999437308189437e7 0.0
1.8999437308189437e7 -1.1077704879080225e7 0.0
0.0 0.0 0.0

3.013022104292888e6 8.737118586420644e6 0.0
8.737118586420644e6 -2.7635535365711804e7 0.0
0.0 0.0 0.0

902475.6004230853 1.6457244560574286e7 0.0
1.6457244560574286e7 3.0093163846172183e6 0.0
0.0 0.0 0.0

-7.859710826512033e6 2.232054282272642e7 0.0
2.232054282272642e7 -9.371243582161238e6 0.0
0.0 0.0 0.0

3.1792417493614526e6 1.640535380514749e7 0.0
1.640535380514749e7 1.3882982259292524e7 0.0
0.0 0.0 0.0

3.4643314413428856e6 4.1609271993561364e6 0.0
4.1609271993561364e6 -1.3859191342299256e7 0.0
0.0 0.0 0.0

-2.7058917144884733e6 2.3981845421771158e7 0.0
2.3981845421771158e7 519479.24038545846 0.0
0.0 0.0 0.0

-3.6170991180873252e6 2.712251844614287e7 0.0
2.712251844614287e7 2.6225819020800986e6 0.0
0.0 0.0 0.0

-9.98058742817234e6 1.444462649062828e7 0.0
1.444462649062828e7 2.7469430062799376e7 0.0
0.0 0.0 0.0

1.2927958132567506e6 1.735973614086037e7 0.0
1.735973614086037e7 7.683290469073312e6 0.0
0.0 0.0 0.0

2.9972539063550634e6 1.9520615738106195e7 0.0
1.9520615738106195e7 1.3867452450776204e7 0.0
0.0 0.0 0.0

-3.5627125462413374e6 3.0180337537375562e7 0.0
3.0180337537375562e7 3.0485692783907615e6 0.0
0.0 0.0 0.0

-5.18474600502739e6 1.875481823620712e7 0.0
1.875481823620712e7 1.4863378982339762e7 0.0
0.0 0.0 0.0

-1.0192668070650678e7 -3.195037637000795e6 0.0
-3.195037637000795e6 2.165042017888816e7 0.0
0.0 0.0 0.0

-3.253844021840998e6 2.7055458448942523e7 0.0
2.7055458448942523e7 3.8156241974672847e6 0.0
0.0 0.0 0.0

-1.4894041983133159e6 2.3230529032983437e7 0.0
2.3230529032983437e7 -2.2601771503114933e6 0.0
0.0 0.0 0.0

-3.8451346315640653e6 1.871799599040803e7 0.0
1.871799599040803e7 2.3550377258552127e6 0.0
0.0 0.0 0.0

-423439.1898833777 2.71070758199322e7 0.0
2.71070758199322e7 -1.6327073850878205e6 0.0
0.0 0.0 0.0

-449355.4370279305 2.6631948445762098e7 0.0
2.6631948445762098e7 -1.3187834675476716e6 0.0
0.0 0.0 0.0

-1.707937566286109e6 1.7760821816215783e7 0.0
1.7760821816215783e7 -8.82468241859069e6 0.0
0.0 0.0 0.0

3.007418363532996e6 1.7706032880071804e7 0.0
1.7706032880071804e7 1.0024728517989488e7 0.0
0.0 0.0 0.0

2.6739281813230067e6 8.637455650634319e6 0.0
8.637455650634319e6 -2.603491308079047e7 0.0
0.0 0.0 0.0

-9.96088176844056e6 1.5962949471840382e7 0.0
1.5962949471840382e7 -3.83172856494758e7 0.0
0.0 0.0 0.0

-3.7384210406602276e6 2.011757091960131e7 0.0
2.011757091960131e7 3.038713346889763e6 0.0
0.0 0.0 0.0

-2.9774238665996432e7 2.9962951156721722e7 0.0
2.9962951156721722e7 -9.4762058802481e6 0.0
0.0 0.0 0.0

-5.957363939011331e6 1.5929937461534483e7 0.0
1.5929937461534483e7 -2.1890465901718173e7 0.0
0.0 0.0 0.0

-3.355307466312025e7 2.927532872657008e7 0.0
2.927532872657008e7 -4.0285880697114486e6 0.0
0.0 0.0 0.0

-3.9756711181095415e6 2.0770920525248256e7 0.0
2.0770920525248256e7 1.070502763612219e7 0.0
0.0 0.0 0.0

-8.997269578262378e6 -1.0452259283977839e6 0.0
-1.0452259283977839e6 3.945344664101165e7 0.0
0.0 0.0 0.0

1.3362072282555075e6 2.5445001383001994e7 0.0
2.5445001383001994e7 -4.265650034021562e6 0.0
0.0 0.0 0.0

-1.2436693758600298e7 2.374829026683766e7 0.0
2.374829026683766e7 -8.467409191877106e6 0.0
0.0 0.0 0.0

205593.84652359132 1.812478344422403e7 0.0
1.812478344422403e7 -1.4153387037643258e7 0.0
0.0 0.0 0.0

-1.0154801278665362e7 2.8142478350217037e7 0.0
2.8142478350217037e7 5.946520161829997e6 0.0
0.0 0.0 0.0

-1.1817010216998387e7 5.828397376542117e6 0.0
5.828397376542117e6 2.1225662696112216e7 0.0
0.0 0.0 0.0

2.153831146154169e6 9.513282667337408e6 0.0
9.513282667337408e6 -3.232080696862201e7 0.0
0.0 0.0 0.0

-1.3402854487370476e7 2.7904248302838497e7 0.0
2.7904248302838497e7 5.941217096250168e6 0.0
0.0 0.0 0.0

954079.5098595642 1.7098168075660475e7 0.0
1.7098168075660475e7 4.7196248277946515e6 0.0
0.0 0.0 0.0

-1.2219172345151406e7 7.671909072901317e6 0.0
7.671909072901317e6 1.6672975241350828e7 0.0
0.0 0.0 0.0

-746101.5318717998 1.6752964132009223e7 0.0
1.6752964132009223e7 -1.046943903008464e7 0.0
0.0 0.0 0.0

1.2537032900736546e6 2.4236965469506953e7 0.0
2.4236965469506953e7 -5.059654761168184e6 0.0
0.0 0.0 0.0

-2.4109332337390378e7 1.0752777362821773e7 0.0
1.0752777362821773e7 9.062975133606315e6 0.0
0.0 0.0 0.0

-5.610064892048489e6 2.593861521626207e7 0.0
2.593861521626207e7 6.273056723881904e6 0.0
0.0 0.0 0.0

-106563.90940162074 1.732659322437864e7 0.0
1.732659322437864e7 -1.6418334252778638e7 0.0
0.0 0.0 0.0

2.68146873816159e6 8.868894507082338e6 0.0
8.868894507082338e6 -2.3160878594204754e7 0.0
0.0 0.0 0.0

350895.07457925775 4.76987970496094e6 0.0
4.76987970496094e6 -4.451655187315867e6 0.0
0.0 0.0 0.0

1.0203922396892579e6 1.567227237233892e7 0.0
1.567227237233892e7 -1.795762049557297e7 0.0
0.0 0.0 0.0

-1.8128778506417e7 2.3769512418712303e7 0.0
2.3769512418712303e7 -3.302136074107457e6 0.0
0.0 0.0 0.0

4.4035062940915795e6 3.3655188885514155e7 0.0
3.3655188885514155e7 -2.702201641682243e6 0.0
0.0 0.0 0.0

-304674.8673778977 1.767863649145156e7 0.0
1.767863649145156e7 2.6129190977337215e7 0.0
0.0 0.0 0.0

2.0484891234824713e6 1.7779857993015338e7 0.0
1.7779857993015338e7 9.38732999668216e6 0.0
0.0 0.0 0.0

6.061725385405238e6 1.5826611896595927e7 0.0
1.5826611896595927e7 2.1689377117055047e7 0.0
0.0 0.0 0.0

-3.4167475268945433e6 1.7531882757130265e7 0.0
1.7531882757130265e7 -1.1389158665752893e7 0.0
0.0 0.0 0.0

-1.008249052694638e7 1.4019389558231022e7 0.0
1.4019389558231022e7 2.8072080553295158e7 0.0
0.0 0.0 0.0

-2.33871174300271e6 1.5885047194567434e7 0.0
1.5885047194567434e7 -1.225177870223342e7 0.0
0.0 0.0 0.0

-2.3863336664936975e7 3.0752987418543506e7 0.0
3.0752987418543506e7 8.44575834825942e6 0.0
0.0 0.0 0.0

-1.058960501110893e7 3.041732584387218e6 0.0
3.041732584387218e6 3.1830920610441774e7 0.0
0.0 0.0 0.0

-9.008877018405592e6 -1.0261369262685257e6 0.0
-1.0261369262685257e6 4.008736866119121e7 0.0
0.0 0.0 0.0

872663.2753487127 1.2310959869187357e7 0.0
1.2310959869187357e7 -1.4121884028547816e7 0.0
0.0 0.0 0.0

-97131.6809387367 2.691256715327793e6 0.0
2.691256715327793e6 238751.4722572238 0.0
0.0 0.0 0.0

1.3095130312698763e6 9.271519905175667e6 0.0
9.271519905175667e6 -4.030412183733407e7 0.0
0.0 0.0 0.0

-9.723734180345125e6 1.1410561557390625e7 0.0
1.1410561557390625e7 3.375715891361223e7 0.0
0.0 0.0 0.0

939190.5125153642 1.1490323320279805e7 0.0
1.1490323320279805e7 -3.1557859799024317e7 0.0
0.0 0.0 0.0

-9.9966872888898e6 -1.0866768996424098e6 0.0
-1.0866768996424098e6 2.61393530369779e7 0.0
0.0 0.0 0.0

-3.313950773773275e6 2.48788967469332e7 0.0
2.48788967469332e7 2.9541050243251836e6 0.0
0.0 0.0 0.0

1.866204468526481e6 2.4650434859255366e7 0.0
2.4650434859255366e7 -4.964136328282899e6 0.0
0.0 0.0 0.0

-3.527536911169072e6 2.842589330800922e7 0.0
2.842589330800922e7 2.0735241748963143e6 0.0
0.0 0.0 0.0

2.0594568234316693e6 3.283234694208457e7 0.0
3.283234694208457e7 -1.9360505962975975e6 0.0
0.0 0.0 0.0

334519.9515093274 2.983185167368169e7 0.0
2.983185167368169e7 -1.8262277935339527e6 0.0
0.0 0.0 0.0

-1.010312014151085e7 -118459.85921481652 0.0
-118459.85921481652 3.2631494248295546e7 0.0
0.0 0.0 0.0

3.231060927329233e6 4.871228900305536e6 0.0
4.871228900305536e6 -3.511568491479547e7 0.0
0.0 0.0 0.0

393038.28077970585 1.8666384473268192e7 0.0
1.8666384473268192e7 -1.0639905167803269e7 0.0
0.0 0.0 0.0

-398269.61136802426 2.0097877808068257e7 0.0
2.0097877808068257e7 -8.308162966463499e6 0.0
0.0 0.0 0.0

2.331529404746012e6 1.1201046951336995e7 0.0
1.1201046951336995e7 -1.934863888346476e7 0.0
0.0 0.0 0.0

-5.214400679068764e6 1.4303757225252194e7 0.0
1.4303757225252194e7 -1.7902821688228194e7 0.0
0.0 0.0 0.0

1.188211932504253e6 1.5610942715473162e7 0.0
1.5610942715473162e7 3.9607064818732305e6 0.0
0.0 0.0 0.0

-3.9095388639630717e6 2.221968100943935e7 0.0
2.221968100943935e7 7.896423434302824e6 0.0
0.0 0.0 0.0

-8.260038696512379e6 2.6633145164313525e7 0.0
2.6633145164313525e7 5.8071417439316455e6 0.0
0.0 0.0 0.0

-1.8983465398092018e6 1.577235585521986e7 0.0
1.577235585521986e7 -6.696845031526477e6 0.0
0.0 0.0 0.0

-1.2529906646604405e6 1.1935441243012324e7 0.0
1.1935441243012324e7 -2.631220749684921e6 0.0
0.0 0.0 0.0

3.8979244456749503e6 3.5346733669130923e6 0.0
3.5346733669130923e6 -2.8305885337051313e7 0.0
0.0 0.0 0.0

1.7762574159684884e6 1.8343723939255673e7 0.0
1.8343723939255673e7 -5.874241739478708e6 0.0
0.0 0.0 0.0

2.5536780156982876e6 9.21280507032844e6 0.0
9.21280507032844e6 -2.481151573891905e7 0.0
0.0 0.0 0.0

-2.842588123884443e6 7.692692785774643e6 0.0
7.692692785774643e6 -470266.6773354259 0.0
0.0 0.0 0.0

-1.434687964824361e6 1.0790476853101047e7 0.0
1.0790476853101047e7 -4.922629990755649e6 0.0
0.0 0.0 0.0

-1.6785198666917037e6 3.3959572828897634e6 0.0
3.3959572828897634e6 -359991.995370003 0.0
0.0 0.0 0.0

-2.7285799376253374e6 2.282835613063364e7 0.0
2.282835613063364e7 3.1748662237845417e6 0.0
0.0 0.0 0.0

148067.75125880633 1.6172425031041874e7 0.0
1.6172425031041874e7 -1.9121185669221286e7 0.0
0.0 0.0 0.0

631714.6535191666 8.993245262801262e6 0.0
8.993245262801262e6 -4.647309776232816e7 0.0
0.0 0.0 0.0

-5.759810128605605e6 2.04869613495576e7 0.0
2.04869613495576e7 -5.323238832680071e6 0.0
0.0 0.0 0.0

-2.1393421424798705e7 2.713432637106436e7 0.0
2.713432637106436e7 -9.633006947929926e6 0.0
0.0 0.0 0.0

-1.7428288390146263e7 2.720057351116977e7 0.0
2.720057351116977e7 5.588973183628622e6 0.0
0.0 0.0 0.0

-8.468345638359528e6 2.2856661487402298e7 0.0
2.2856661487402298e7 -8.963273458158739e6 0.0
0.0 0.0 0.0

-3.309582082156609e6 1.4837733861120576e7 0.0
1.4837733861120576e7 -3.0784003074043933e7 0.0
0.0 0.0 0.0

-6.791026327886383e6 1.5470862816509062e7 0.0
1.5470862816509062e7 -2.2636755271946248e7 0.0
0.0 0.0 0.0

-1.628073427363306e7 2.502426659856503e7 0.0
2.502426659856503e7 -8.606208388097662e6 0.0
0.0 0.0 0.0

-9.698169156703426e6 1.6370599022732921e7 0.0
1.6370599022732921e7 -3.2327231684957165e7 0.0
0.0 0.0 0.0

-8.026937871647789e6 1.790332124419591e7 0.0
1.790332124419591e7 1.9830457045943968e7 0.0
0.0 0.0 0.0

-1.0591679951304363e7 -923975.3111554517 0.0
-923975.3111554517 1.7126511214070328e7 0.0
0.0 0.0 0.0

-1.4771196262241267e6 2.290064115103442e7 0.0
2.290064115103442e7 -3.6594083834095187e6 0.0
0.0 0.0 0.0

-4.880360136349193e6 1.9983865498548757e7 0.0
1.9983865498548757e7 1.2340853275478236e7 0.0
0.0 0.0 0.0

-1.0619037862219125e7 -1.939235283877531e6 0.0
-1.939235283877531e6 2.2322308853737846e7 0.0
0.0 0.0 0.0

1.2856286095204009e6 1.3291466912439479e7 0.0
1.3291466912439479e7 -2.39246352483281e7 0.0
0.0 0.0 0.0

-2.6017753845615676e6 2.353984122145885e7 0.0
2.353984122145885e7 -381226.2526752108 0.0
0.0 0.0 0.0

360934.38220446906 1.6228180914977785e7 0.0
1.6228180914977785e7 -1.5002451573949624e6 0.0
0.0 0.0 0.0

-4.168807170756351e6 2.455163676930608e7 0.0
2.455163676930608e7 5.64714458319413e6 0.0
0.0 0.0 0.0

-1.4963108847435476e7 2.5354536063903604e7 0.0
2.5354536063903604e7 -9.451088548693087e6 0.0
0.0 0.0 0.0

-7.65322718271318e6 1.5773981454826677e7 0.0
1.5773981454826677e7 -2.5510757836704366e7 0.0
0.0 0.0 0.0

3.114285288258371e6 1.9433696638433278e7 0.0
1.9433696638433278e7 1.4893907487059932e7 0.0
0.0 0.0 0.0

-2.596463655967234e7 2.746124647777835e7 0.0
2.746124647777835e7 5.002943543047916e6 0.0
0.0 0.0 0.0

-1.0282646766770657e7 7.903084318978158e6 0.0
7.903084318978158e6 1.753968650327378e7 0.0
0.0 0.0 0.0

-9.022218597763762e6 9.043099380611356e6 0.0
9.043099380611356e6 4.23985298358037e7 0.0
0.0 0.0 0.0

-1.7312045751909807e6 1.7883251987098508e7 0.0
1.7883251987098508e7 -8.69312625230909e6 0.0
0.0 0.0 0.0

1.6170736842490968e6 2.960128486076314e7 0.0
2.960128486076314e7 -2.7609255854338906e6 0.0
0.0 0.0 0.0

6.108109340407507e6 1.6532424371495133e7 0.0
1.6532424371495133e7 2.0360364725867383e7 0.0
0.0 0.0 0.0

1.947969897510075e7 1.833271508280501e7 0.0
1.833271508280501e7 4.372257812433053e6 0.0
0.0 0.0 0.0

-1.1461950042629862e7 2.3971002360759724e7 0.0
2.3971002360759724e7 -9.255327427875388e6 0.0
0.0 0.0 0.0

2.8016877782344623e6 2.7559666592305023e7 0.0
2.7559666592305023e7 -4.122689799921127e6 0.0
0.0 0.0 0.0

8.350969425242944e6 1.636610704062319e7 0.0
1.636610704062319e7 3.2284224008377343e7 0.0
0.0 0.0 0.0

2.6240998670411706e6 6.56233996687712e6 0.0
6.56233996687712e6 -4.47889481041222e7 0.0
0.0 0.0 0.0

-5.416807688160226e6 2.5199218899181552e7 0.0
2.5199218899181552e7 6.8406643142492315e6 0.0
0.0 0.0 0.0

534737.2449956291 1.5047134814521262e7 0.0
1.5047134814521262e7 -23389.520722771384 0.0
0.0 0.0 0.0

-1.0935093643866638e7 1.700516706375826e7 0.0
1.700516706375826e7 -3.64503137914514e7 0.0
0.0 0.0 0.0

-4.7573445786848115e6 2.062570804302653e7 0.0
2.062570804302653e7 -1.9707942691096044e6 0.0
0.0 0.0 0.0

3.615356315534232e6 3.193484987443927e6 0.0
3.193484987443927e6 -3.847612323562395e7 0.0
0.0 0.0 0.0

-1.0856784678721232e6 1.905856972354383e7 0.0
1.905856972354383e7 -8.61779029028236e6 0.0
0.0 0.0 0.0

2.309391432951644e6 2.0859277916512128e7 0.0
2.0859277916512128e7 -7.398555114616289e6 0.0
0.0 0.0 0.0

1.8416268635625727e7 2.0775859033071693e7 0.0
2.0775859033071693e7 -1.258644091951985e6 0.0
0.0 0.0 0.0

-9.500223932275388e6 1.6565091687623141e7 0.0
1.6565091687623141e7 2.0232567291294277e7 0.0
0.0 0.0 0.0

-2.113821651493909e6 1.498002819041392e7 0.0
1.498002819041392e7 -4.2633453305066405e6 0.0
0.0 0.0 0.0

-6.848021182865424e6 2.1658252091119908e7 0.0
2.1658252091119908e7 -8.931888570503172e6 0.0
0.0 0.0 0.0

-1.7964952938497313e6 2.3086272703933038e7 0.0
2.3086272703933038e7 -3.173446061882726e6 0.0
0.0 0.0 0.0

-9.052824560264664e6 1.535554665946344e6 0.0
1.535554665946344e6 4.255377875848044e7 0.0
0.0 0.0 0.0

-1.6402343118257155e6 1.6242341324070249e7 0.0
1.6242341324070249e7 -7.9395676649854835e6 0.0
0.0 0.0 0.0

-9.55368732692195e6 2.7033244946276292e7 0.0
2.7033244946276292e7 6.039248640823083e6 0.0
0.0 0.0 0.0

1.541414083966332e6 8.246106072760432e6 0.0
8.246106072760432e6 -1.1814657195711667e7 0.0
0.0 0.0 0.0

7.465518050716575e6 1.9142313216755185e7 0.0
1.9142313216755185e7 1.1892889256430477e7 0.0
0.0 0.0 0.0

-3.930909266193366e7 2.835267637770536e7 0.0
2.835267637770536e7 5.790671226528026e6 0.0
0.0 0.0 0.0

2.092138519299401e6 1.4914328154568575e7 0.0
1.4914328154568575e7 7.553834152165026e6 0.0
0.0 0.0 0.0

3.4943142675842317e6 6.826267782765487e6 0.0
6.826267782765487e6 -1.5253380975099688e7 0.0
0.0 0.0 0.0

2.343234733516614e6 1.8830714310930856e7 0.0
1.8830714310930856e7 1.7328306894101504e7 0.0
0.0 0.0 0.0

248396.84299186524 2.2533451524890054e7 0.0
2.2533451524890054e7 -6.482759054496784e6 0.0
0.0 0.0 0.0

1.5524275372439785e7 2.7655214732330568e7 0.0
2.7655214732330568e7 -6.385186459632711e6 0.0
0.0 0.0 0.0

-3.2089663912413535e6 1.4899281246811166e7 0.0
1.4899281246811166e7 -1.0696555049374638e7 0.0
0.0 0.0 0.0

-4.168195378503462e6 1.571714755768885e7 0.0
1.571714755768885e7 7.1670515643237075e6 0.0
0.0 0.0 0.0

943533.8586744973 8.325611108907e6 0.0
8.325611108907e6 -1.0104027083637474e7 0.0
0.0 0.0 0.0

-3.721242614516168e6 1.6525475756107708e7 0.0
1.6525475756107708e7 -2.1768178432211008e7 0.0
0.0 0.0 0.0

-346911.29606141336 1.9321876026943587e7 0.0
1.9321876026943587e7 -8.988079861338055e6 0.0
0.0 0.0 0.0

1.2876292805723522e7 2.157698519341014e7 0.0
2.157698519341014e7 1.0725573861226335e7 0.0
0.0 0.0 0.0

-5.969211082245271e6 2.106218329390149e7 0.0
2.106218329390149e7 -9.072991697425822e6 0.0
0.0 0.0 0.0

1.9457986311502517e6 2.0752901117189698e7 0.0
2.0752901117189698e7 -6.985102910482397e6 0.0
0.0 0.0 0.0

-7.879999233554327e6 2.9257969669273742e6 0.0
2.9257969669273742e6 1.1425315267268138e7 0.0
0.0 0.0 0.0

-1.0800061158543127e6 6.522542429522964e6 0.0
6.522542429522964e6 1.672976495980877e6 0.0
0.0 0.0 0.0

7.55439162498506e6 2.0285714512009516e7 0.0
2.0285714512009516e7 -2.5156926019589896e6 0.0
0.0 0.0 0.0

1.6682250245926771e6 1.5703386326311143e7 0.0
1.5703386326311143e7 6.543281645168425e6 0.0
0.0 0.0 0.0

4.449772753208792e7 1.902853589882084e7 0.0
1.902853589882084e7 1.0067780878710039e7 0.0
0.0 0.0 0.0

-1.0569785784926303e7 -1.6758252863538065e6 0.0
-1.6758252863538065e6 2.513314217384659e7 0.0
0.0 0.0 0.0

-1.4293388904233143e7 2.372734188785586e7 0.0
2.372734188785586e7 -6.592865414883809e6 0.0
0.0 0.0 0.0

-1.2792721057283033e7 2.2607592428088497e7 0.0
2.2607592428088497e7 -3.139777951237515e6 0.0
0.0 0.0 0.0

-2.799796017662402e7 2.498149166263394e7 0.0
2.498149166263394e7 -8.81805760103676e6 0.0
0.0 0.0 0.0

3.0617567928832423e7 5.74374488671884e6 0.0
5.74374488671884e6 -2.3808670234706607e6 0.0
0.0 0.0 0.0

-7.68165718324649e6 7.992282418199338e6 0.0
7.992282418199338e6 4.967016947375053e7 0.0
0.0 0.0 0.0

-1.4951054390852782e6 1.1301066245393405e7 0.0
1.1301066245393405e7 -1.4038218971985788e6 0.0
0.0 0.0 0.0

-1.338698505060039e7 2.3219759995009944e7 0.0
2.3219759995009944e7 -8.921264044445636e6 0.0
0.0 0.0 0.0

-4.1090660404019933e6 2.4747148394432466e7 0.0
2.4747148394432466e7 6.713699375213721e6 0.0
0.0 0.0 0.0

-757159.6472866395 1.8965258295064617e7 0.0
1.8965258295064617e7 -1.0149183137054307e7 0.0
0.0 0.0 0.0

1.196227829209934e6 1.3018775794321535e7 0.0
1.3018775794321535e7 -1.5045985604684953e7 0.0
0.0 0.0 0.0

-47285.42734491383 1.6123397732588282e7 0.0
1.6123397732588282e7 -5.349632863431997e6 0.0
0.0 0.0 0.0

-6.360541613177463e6 1.4618669652930103e7 0.0
1.4618669652930103e7 -2.382667220096782e7 0.0
0.0 0.0 0.0

-8.005855334496036e6 1.708942392371894e7 0.0
1.708942392371894e7 -5.281553797158098e7 0.0
0.0 0.0 0.0

1.0657063388510013e7 5.682516224318493e6 0.0
5.682516224318493e6 -2.212693531411089e6 0.0
0.0 0.0 0.0

6.460835888793657e6 2.8198319284356944e7 0.0
2.8198319284356944e7 -5.093853289030002e6 0.0
0.0 0.0 0.0

-5.050513593891261e6 1.5192486388704333e7 0.0
1.5192486388704333e7 -1.683504611115535e7 0.0
0.0 0.0 0.0

1.4733539399853664e7 1.5979831286122736e7 0.0
1.5979831286122736e7 4.0707904231372043e6 0.0
0.0 0.0 0.0

-294753.5578860552 1.6718219646369869e7 0.0
1.6718219646369869e7 -6.7765291041527465e6 0.0
0.0 0.0 0.0

-1.3536562646953615e6 2.253777253971445e7 0.0
2.253777253971445e7 -3.424247397393391e6 0.0
0.0 0.0 0.0

-3.569905112517495e6 1.6133912349445337e7 0.0
1.6133912349445337e7 -1.450039841998566e7 0.0
0.0 0.0 0.0

-1.79473297550719e7 1.7707425451146085e7 0.0
1.7707425451146085e7 5.406409237578681e6 0.0
0.0 0.0 0.0

-7.3974862152998885e6 -3.4830856371951564e6 0.0
-3.4830856371951564e6 1.1050659769712089e7 0.0
0.0 0.0 0.0

-7.611202878736382e6 1.736816137389673e7 0.0
1.736816137389673e7 1.9540438921207104e7 0.0
0.0 0.0 0.0

-561203.1436398223 1.5676129056935877e7 0.0
1.5676129056935877e7 1.9392763554850258e6 0.0
0.0 0.0 0.0

-5.367340819809964e6 1.700320833040085e7 0.0
1.700320833040085e7 -1.4486019095076257e7 0.0
0.0 0.0 0.0

-803936.4076490817 1.7190077481845453e7 0.0
1.7190077481845453e7 -7.2784287690889565e6 0.0
0.0 0.0 0.0

-2.48290222488501e6 1.2392998304883162e7 0.0
1.2392998304883162e7 -3.3455225299191005e6 0.0
0.0 0.0 0.0

2.1485782428273067e7 2.056859711064637e7 0.0
2.056859711064637e7 -1.707680606123819e6 0.0
0.0 0.0 0.0

-9.33296242508189e6 2.9472429790401123e7 0.0
2.9472429790401123e7 6.006649851488608e6 0.0
0.0 0.0 0.0

4.30712443348649e6 2.157291153051748e7 0.0
2.157291153051748e7 -5.4888296790696215e6 0.0
0.0 0.0 0.0

-3.71269968985813e6 1.9599571132470947e7 0.0
1.9599571132470947e7 -3.2692871238948987e6 0.0
0.0 0.0 0.0

-2.662831592052535e6 2.877398357478422e7 0.0
2.877398357478422e7 2.6192124730222374e6 0.0
0.0 0.0 0.0

-6.895076689552618e6 1.8469251320773277e7 0.0
1.8469251320773277e7 1.685775585903541e7 0.0
0.0 0.0 0.0

1.386529682511116e6 7.64271468913721e6 0.0
7.64271468913721e6 -7.956322281932646e6 0.0
0.0 0.0 0.0

-1.2064297715836577e6 7.096414593322518e6 0.0
7.096414593322518e6 462398.32957524346 0.0
0.0 0.0 0.0

-8.824715406148737e6 1.5483383770489542e7 0.0
1.5483383770489542e7 -3.412373556818767e7 0.0
0.0 0.0 0.0

-3.1630517367853057e6 1.9474818002867293e7 0.0
1.9474818002867293e7 5.250377496746827e6 0.0
0.0 0.0 0.0

1.7438387335897177e6 5.236280375955702e6 0.0
5.236280375955702e6 -8.173899266625621e6 0.0
0.0 0.0 0.0

-4.703854044804399e7 2.919175275185443e7 0.0
2.919175275185443e7 -1.869073770386912e6 0.0
0.0 0.0 0.0

346851.66027994826 8.471299405140566e6 0.0
8.471299405140566e6 -5.383540877245824e7 0.0
0.0 0.0 0.0

-1.170306295358496e6 9.639665288313743e6 0.0
9.639665288313743e6 -4.98182804237995e6 0.0
0.0 0.0 0.0

-7.801120011943232e6 1.6002849614465147e7 0.0
1.6002849614465147e7 -3.6627593100587286e7 0.0
0.0 0.0 0.0

3.5032620316674523e6 4.579587486471111e6 0.0
4.579587486471111e6 -3.4263864121939525e7 0.0
0.0 0.0 0.0

1.9364943285568915e7 3.079576126207447e7 0.0
3.079576126207447e7 -8.93333123934162e6 0.0
0.0 0.0 0.0

3.0785227911166158e6 9.438502098515043e6 0.0
9.438502098515043e6 -2.323847990258668e7 0.0
0.0 0.0 0.0

-7.80716633603715e6 1.2290562698675051e7 0.0
1.2290562698675051e7 3.876659778924004e7 0.0
0.0 0.0 0.0

-9.227098691827204e6 1.6870807195924975e7 0.0
1.6870807195924975e7 2.0591758206193537e7 0.0
0.0 0.0 0.0

-4.075274799597391e6 2.1489701175764553e7 0.0
2.1489701175764553e7 1.0221496943345949e7 0.0
0.0 0.0 0.0

-7.862465953409005e6 2.0551928426587474e7 0.0
2.0551928426587474e7 -6.881338165057885e6 0.0
0.0 0.0 0.0

-8.105562499367764e6 1.7483527398218073e7 0.0
1.7483527398218073e7 2.1268380470142245e7 0.0
0.0 0.0 0.0

-3.1195455647035493e6 2.278829273045774e7 0.0
2.278829273045774e7 1.809289155731281e6 0.0
0.0 0.0 0.0

9.096236341853691e6 1.7553096889715813e7 0.0
1.7553096889715813e7 3.0320789012362275e7 0.0
0.0 0.0 0.0

-9.652168580585541e6 -1.1121080137559536e6 0.0
-1.1121080137559536e6 1.4430541927164443e7 0.0
0.0 0.0 0.0

430297.2668354921 1.858922377219089e7 0.0
1.858922377219089e7 -1.2679741028399695e7 0.0
0.0 0.0 0.0

-2.2577573628816903e6 1.1856457007941365e7 0.0
1.1856457007941365e7 -6.036821296166611e7 0.0
0.0 0.0 0.0

-8.088521541166184e6 3.0837185608084895e7 0.0
3.0837185608084895e7 5.776975363138197e6 0.0
0.0 0.0 0.0

1.6171443618607451e6 2.391131976522017e7 0.0
2.391131976522017e7 -5.829036395100581e6 0.0
0.0 0.0 0.0

2.2773042957586558e6 1.8853961467821322e7 0.0
1.8853961467821322e7 1.9370474268871183e6 0.0
0.0 0.0 0.0

-9.07503191761683e6 1.6770594385766119e7 0.0
1.6770594385766119e7 2.1856032920131523e7 0.0
0.0 0.0 0.0

-1.867415009026405e7 3.120120718467533e7 0.0
3.120120718467533e7 7.021854043972221e6 0.0
0.0 0.0 0.0

467882.84815090103 2.071247277379179e7 0.0
2.071247277379179e7 -9.191282452713178e6 0.0
0.0 0.0 0.0

-3.5856754078568155e6 1.5329106437016904e7 0.0
1.5329106437016904e7 -2.768005714974831e7 0.0
0.0 0.0 0.0

-1.4035071848467793e7 3.2866497735581767e7 0.0
3.2866497735581767e7 5.685938806625706e6 0.0
0.0 0.0 0.0

2.78996418790362e7 2.8253450486768067e7 0.0
2.8253450486768067e7 -1.037745860947132e7 0.0
0.0 0.0 0.0

1.6338652436212485e6 1.7949442814902686e7 0.0
1.7949442814902686e7 3.17241514987662e6 0.0
0.0 0.0 0.0

2.232575515799566e6 1.1078853398401594e7 0.0
1.1078853398401594e7 -2.0852462894227475e7 0.0
0.0 0.0 0.0

-1.0049424311236568e7 1.75997815350687e7 0.0
1.75997815350687e7 -4.003031763789352e7 0.0
0.0 0.0 0.0

1.2069850908761336e7 2.7902220233988818e7 0.0
2.7902220233988818e7 -5.985297174968857e6 0.0
0.0 0.0 0.0

-370373.0702250842 1.717990471060247e7 0.0
1.717990471060247e7 -1.3048993501432512e7 0.0
0.0 0.0 0.0

-524512.3284804197 2.6053145085495673e7 0.0
2.6053145085495673e7 -2.669388894539789e6 0.0
0.0 0.0 0.0

-1.0721644513299055e6 1.1000029557322903e7 0.0
1.1000029557322903e7 -5.053613624902281e7 0.0
0.0 0.0 0.0

749816.3162539788 1.7531128383713767e7 0.0
1.7531128383713767e7 6.762529335037177e6 0.0
0.0 0.0 0.0

-2.2457461514529403e7 2.8617379452583548e7 0.0
2.8617379452583548e7 6.943191021874236e6 0.0
0.0 0.0 0.0

-2.569747520765191e6 2.319571493777207e7 0.0
2.319571493777207e7 2.399503194107717e6 0.0
0.0 0.0 0.0

1.9317063560997974e7 1.8613823115445618e7 0.0
1.8613823115445618e7 6.443782245522718e6 0.0
0.0 0.0 0.0

-3.3310175291838525e6 2.937692607744993e7 0.0
2.937692607744993e7 1.6262084016048608e6 0.0
0.0 0.0 0.0

2.2699894765097634e6 1.7417065163745597e7 0.0
1.7417065163745597e7 1.070851917353084e7 0.0
0.0 0.0 0.0

-608869.606348682 3.3612640731264157e6 0.0
3.3612640731264157e6 -1.6855410656914983e6 0.0
0.0 0.0 0.0

6.88913975463503e6 2.9691744766428776e7 0.0
2.9691744766428776e7 -4.227861680929644e6 0.0
0.0 0.0 0.0

82242.08179811668 1.6797867391504996e7 0.0
1.6797867391504996e7 -1.7841618792701945e7 0.0
0.0 0.0 0.0

3.318786544416517e6 3.7411416159140547e6 0.0
3.7411416159140547e6 -4.253646985491943e7 0.0
0.0 0.0 0.0

-83372.61393082421 1.0589037673480205e7 0.0
1.0589037673480205e7 -6.853232138896402e6 0.0
0.0 0.0 0.0

1.8594827516098362e6 6.37790025529711e6 0.0
6.37790025529711e6 -8.3282372727459e6 0.0
0.0 0.0 0.0

1.2096008613118948e6 1.378456730508124e7 0.0
1.378456730508124e7 -1.4932633739935879e7 0.0
0.0 0.0 0.0

-1.9447244053105276e7 2.697963964676707e7 0.0
2.697963964676707e7 5.910547454066223e6 0.0
0.0 0.0 0.0

-2.4417391088311663e6 1.9548755638699688e7 0.0
1.9548755638699688e7 2.8661783597749327e6 0.0
0.0 0.0 0.0

3.424025790353014e6 2.1888467841310885e7 0.0
2.1888467841310885e7 -5.979668027012335e6 0.0
0.0 0.0 0.0

3.607905387390461e6 5.731970948061206e6 0.0
5.731970948061206e6 -3.3573132781060204e7 0.0
0.0 0.0 0.0

-559454.3326406893 1.8918036250234496e7 0.0
1.8918036250234496e7 -8.711305774664992e6 0.0
0.0 0.0 0.0

-103608.39016888198 1.6064296254686575e7 0.0
1.6064296254686575e7 -1.3018444149641316e7 0.0
0.0 0.0 0.0

-1.0451959624277301e7 2.231628244713921e7 0.0
2.231628244713921e7 -8.754935425342798e6 0.0
0.0 0.0 0.0

1.0709863595868781e7 2.5926815159176636e7 0.0
2.5926815159176636e7 -5.948709395965975e6 0.0
0.0 0.0 0.0

-4.708545091377143e6 2.2633998743403953e7 0.0
2.2633998743403953e7 9.60947911460367e6 0.0
0.0 0.0 0.0

1.7846345520092333e6 1.823109823385288e7 0.0
1.823109823385288e7 1.1198599059798613e7 0.0
0.0 0.0 0.0

2.1014904149437584e6 1.692565819013931e7 0.0
1.692565819013931e7 6.480217820569892e7 0.0
0.0 0.0 0.0

-3.8636410627255496e6 3.2419221667760413e7 0.0
3.2419221667760413e7 3.470393753065843e6 0.0
0.0 0.0 0.0

805305.4112660419 1.8935455200762987e7 0.0
1.8935455200762987e7 -8.807266700945094e6 0.0
0.0 0.0 0.0

2.694472559627723e6 1.0031987285147822e7 0.0
1.0031987285147822e7 -2.6857280018219598e7 0.0
0.0 0.0 0.0

2.8096014952593297e6 9.268977888185333e6 0.0
9.268977888185333e6 -2.8259195468468238e7 0.0
0.0 0.0 0.0

4.452509247164439e6 3.4217814567832104e6 0.0
3.4217814567832104e6 -2.413545642871716e7 0.0
0.0 0.0 0.0

-3.599067393201731e6 2.199685578623977e7 0.0
2.199685578623977e7 9.282734347747518e6 0.0
0.0 0.0 0.0

4.090712176825731e6 3.6670010829635127e6 0.0
3.6670010829635127e6 -2.4097566857132908e7 0.0
0.0 0.0 0.0

-1.0909854147590375e7 1.7119504016479994e6 0.0
1.7119504016479994e6 3.0584529336185172e7 0.0
0.0 0.0 0.0

-4.390953008128521e6 2.0029287775873844e7 0.0
2.0029287775873844e7 1.4797792662115276e7 0.0
0.0 0.0 0.0

-1.8053995303847026e6 1.0109687671275023e7 0.0
1.0109687671275023e7 -3.72035837024981e6 0.0
0.0 0.0 0.0

908560.110371914 2.4405004538142078e7 0.0
2.4405004538142078e7 -5.340724358721388e6 0.0
0.0 0.0 0.0

3.909672034479336e6 2.715703824115144e7 0.0
2.715703824115144e7 -3.733933216680188e6 0.0
0.0 0.0 0.0

1.0919517944892766e6 1.490501071491862e7 0.0
1.490501071491862e7 2.649255942814575e6 0.0
0.0 0.0 0.0

-327009.4076658357 1.1088224065938672e7 0.0
1.1088224065938672e7 -4.350230296562921e7 0.0
0.0 0.0 0.0

3.787063173712587e6 4.232202409063382e6 0.0
4.232202409063382e6 -3.674908113371664e7 0.0
0.0 0.0 0.0

-4.262198550862515e7 3.3668871728509404e7 0.0
3.3668871728509404e7 -7.982665344655451e6 0.0
0.0 0.0 0.0

1.9080673944147646e7 2.2023511953523397e7 0.0
2.2023511953523397e7 9.53727396917444e6 0.0
0.0 0.0 0.0

2.9211163914724523e6 2.6780210946238194e7 0.0
2.6780210946238194e7 -3.6689909573350195e6 0.0
0.0 0.0 0.0

-1.3892590889310623e6 1.8090723098376367e7 0.0
1.8090723098376367e7 1.6259290172074003e7 0.0
0.0 0.0 0.0

807991.4934950358 1.6362074583669635e7 0.0
1.6362074583669635e7 2.9987098025455363e6 0.0
0.0 0.0 0.0

-1.0706758538133938e7 6.699490405371727e6 0.0
6.699490405371727e6 3.5665550959005445e7 0.0
0.0 0.0 0.0

-1.02971837438439e7 2.801635434100175e7 0.0
2.801635434100175e7 5.726920462341052e6 0.0
0.0 0.0 0.0

-989376.9743789681 1.3677836634869155e7 0.0
1.3677836634869155e7 -8.361743478579972e6 0.0
0.0 0.0 0.0

-1.1238566640694905e7 258935.97119548908 0.0
258935.97119548908 2.3840262994218837e7 0.0
0.0 0.0 0.0

-1.9328193398341276e6 1.1700496554968255e7 0.0
1.1700496554968255e7 7.918560444421133e7 0.0
0.0 0.0 0.0

393596.57858721726 1.9093854028355688e7 0.0
1.9093854028355688e7 -1.1828722081243128e7 0.0
0.0 0.0 0.0

2.6348697528591766e6 4.474276790192567e6 0.0
4.474276790192567e6 -8.740651790539872e6 0.0
0.0 0.0 0.0

-7.684599953817651e6 7.928183979730217e6 0.0
7.928183979730217e6 5.1659414367493205e7 0.0
0.0 0.0 0.0

4.140724622012917e6 3.537982815304205e6 0.0
3.537982815304205e6 -3.028113588551659e7 0.0
0.0 0.0 0.0

-5.669051145997543e6 2.0149186410790153e7 0.0
2.0149186410790153e7 -9.991738979795625e6 0.0
0.0 0.0 0.0

-1.7676010278803736e7 2.4134480048907317e7 0.0
2.4134480048907317e7 -9.031806629378928e6 0.0
0.0 0.0 0.0

-15372.228577842936 1.7382189003433242e7 0.0
1.7382189003433242e7 -1.5109698870002005e7 0.0
0.0 0.0 0.0

-3.629649407765723e6 1.072236723628592e7 0.0
1.072236723628592e7 4.694133952013487e6 0.0
0.0 0.0 0.0

-4.287965115770909e6 2.0389045385366067e7 0.0
2.0389045385366067e7 784304.5936448686 0.0
0.0 0.0 0.0

1.3939459292598588e7 2.505224615202521e7 0.0
2.505224615202521e7 -5.964395065958885e6 0.0
0.0 0.0 0.0

-6.869863524216997e6 -4.282404240151719e6 0.0
-4.282404240151719e6 1.3985629576831693e7 0.0
0.0 0.0 0.0

8.60497285696409e6 1.876208307298728e7 0.0
1.876208307298728e7 5.139467205571517e6 0.0
0.0 0.0 0.0

1.2829297967135623e7 3.2213564917745814e7 0.0
3.2213564917745814e7 -8.302393096166215e6 0.0
0.0 0.0 0.0

4.3057045893639475e6 3.605352405818343e6 0.0
3.605352405818343e6 -2.6957107747344553e7 0.0
0.0 0.0 0.0

-4.226331126607115e6 1.7325086404118292e7 0.0
1.7325086404118292e7 3.565570568258007e6 0.0
0.0 0.0 0.0

8.537176359436534e6 1.8846552694627758e7 0.0
1.8846552694627758e7 3.491314134415751e7 0.0
0.0 0.0 0.0

5.009493817842518e7 6.559323725733718e6 0.0
6.559323725733718e6 -1.32532972593824e6 0.0
0.0 0.0 0.0

-2.3566982215120666e7 2.6042930405209765e7 0.0
2.6042930405209765e7 -7.651198212290401e6 0.0
0.0 0.0 0.0

-3.278606193382038e6 2.2457954590580624e7 0.0
2.2457954590580624e7 2.658504934566248e6 0.0
0.0 0.0 0.0

54150.827906653285 1.1270253679278845e7 0.0
1.1270253679278845e7 -3.811926394897042e7 0.0
0.0 0.0 0.0

-1.4686996192332648e7 2.6588633397434726e7 0.0
2.6588633397434726e7 5.750995180127401e6 0.0
0.0 0.0 0.0

7.13029863719121e6 1.9208274818760306e7 0.0
1.9208274818760306e7 7.037370797212453e6 0.0
0.0 0.0 0.0

-4.990386646690715e6 7.671012360731789e6 0.0
7.671012360731789e6 6.31473883180885e7 0.0
0.0 0.0 0.0

-4.705171113088852e6 2.1233430460112307e7 0.0
2.1233430460112307e7 1.0311730772127906e7 0.0
0.0 0.0 0.0

2.452382180277696e6 1.6681085831050893e7 0.0
1.6681085831050893e7 1.3591689486491293e7 0.0
0.0 0.0 0.0

-927473.4408642817 1.7551169974425424e7 0.0
1.7551169974425424e7 -9.874888563889164e6 0.0
0.0 0.0 0.0

6.014711825475084e6 2.0010496234295834e7 0.0
2.0010496234295834e7 -2.1760728607628057e6 0.0
0.0 0.0 0.0

1.5990351047967947e6 1.9461615827365126e7 0.0
1.9461615827365126e7 -6.448474804276995e6 0.0
0.0 0.0 0.0

-2.7446718709430853e6 1.3484552917422622e7 0.0
1.3484552917422622e7 -3.071626779511114e6 0.0
0.0 0.0 0.0

457217.83309609536 1.7945242831779037e7 0.0
1.7945242831779037e7 1.8339395178791147e7 0.0
0.0 0.0 0.0

721834.0693471108 1.7153800217632394e7 0.0
1.7153800217632394e7 2.1009809006500295e6 0.0
0.0 0.0 0.0

172304.91809541197 1.6702263776794326e7 0.0
1.6702263776794326e7 -3.29275677698687e6 0.0
0.0 0.0 0.0

-3.772289677434994e6 1.5525477296714975e7 0.0
1.5525477296714975e7 -2.437941860636025e7 0.0
0.0 0.0 0.0

-2.9665594685451747e6 2.480848491034274e7 0.0
2.480848491034274e7 4.209044230643578e6 0.0
0.0 0.0 0.0

-1.5617817105464067e7 2.2885272266786523e7 0.0
2.2885272266786523e7 -8.79319847853969e6 0.0
0.0 0.0 0.0

-8.453767323706396e6 2.8706717205832385e7 0.0
2.8706717205832385e7 5.088487017433027e6 0.0
0.0 0.0 0.0

-1.700371875446512e6 1.8687183746977504e7 0.0
1.8687183746977504e7 1.1980171260783428e7 0.0
0.0 0.0 0.0

3.784818625876548e6 6.22127332982008e6 0.0
6.22127332982008e6 -2.7172283897490826e7 0.0
0.0 0.0 0.0

200460.6964765191 1.859745639000255e7 0.0
1.859745639000255e7 -1.2663420996001383e7 0.0
0.0 0.0 0.0

1.1149128991460502e7 2.5793031905042894e7 0.0
2.5793031905042894e7 -5.746571790436347e6 0.0
0.0 0.0 0.0

-1.0872177914127843e7 593890.7654172111 0.0
593890.7654172111 2.806755336389199e7 0.0
0.0 0.0 0.0

-4.074498972210748e6 2.0515583460359816e7 0.0
2.0515583460359816e7 7.227320719743093e6 0.0
0.0 0.0 0.0

1.1219397965586062e6 1.866861288558833e7 0.0
1.866861288558833e7 1.6255313273934617e6 0.0
0.0 0.0 0.0

6.4277451941745095e6 2.0928609318562537e7 0.0
2.0928609318562537e7 -3.727859935246866e6 0.0
0.0 0.0 0.0

-1.1619046671963286e7 6.574902846913526e6 0.0
6.574902846913526e6 2.6636481561180167e7 0.0
0.0 0.0 0.0

4.1544356417942448e6 1.644832553297261e7 0.0
1.644832553297261e7 1.8315090764378108e7 0.0
0.0 0.0 0.0

-7.230959181553852e6 1.990136991735835e7 0.0
1.990136991735835e7 -8.96210385082086e6 0.0
0.0 0.0 0.0

130103.77967262547 1.5282514417533118e7 0.0
1.5282514417533118e7 -2.2624170266630426e7 0.0
0.0 0.0 0.0

5.991987505226612e6 3.1408761355195366e7 0.0
3.1408761355195366e7 -3.3414345446271035e6 0.0
0.0 0.0 0.0

-8.07749104148569e6 2.963135592326887e7 0.0
2.963135592326887e7 4.517745338060017e6 0.0
0.0 0.0 0.0

-1.186377572543614e7 7.541206255379293e6 0.0
7.541206255379293e6 2.3295896025184512e7 0.0
0.0 0.0 0.0

-6.519343105006615e6 2.1087996982571714e7 0.0
2.1087996982571714e7 -5.472527461217934e6 0.0
0.0 0.0 0.0

-6.071314621346652e6 2.9835776167962257e7 0.0
2.9835776167962257e7 3.541015282868045e6 0.0
0.0 0.0 0.0

-6.659845953381034e6 2.907045296095363e7 0.0
2.907045296095363e7 4.2095321460368205e6 0.0
0.0 0.0 0.0

2.478579662202497e6 1.590819825272364e7 0.0
1.590819825272364e7 1.1224799765903555e7 0.0
0.0 0.0 0.0

2.158250004863778e6 1.2384067529043421e7 0.0
1.2384067529043421e7 -1.8957622606018014e7 0.0
0.0 0.0 0.0

4.3850593924310274e7 2.8255562163076237e7 0.0
2.8255562163076237e7 1.756177226529456e7 0.0
0.0 0.0 0.0

-3.446891571608591e7 2.113343807396916e6 0.0
2.113343807396916e6 8.001647552122517e6 0.0
0.0 0.0 0.0

-1.6288836782422757e7 2.589924734836992e7 0.0
2.589924734836992e7 4.641066303312639e6 0.0
0.0 0.0 0.0

3.7337110224950053e6 3.389882560237241e6 0.0
3.389882560237241e6 -3.019780173517097e7 0.0
0.0 0.0 0.0

-557890.2261146056 1.8394269771169182e7 0.0
1.8394269771169182e7 -1.1224747110858511e7 0.0
0.0 0.0 0.0

-1.2110653923000224e7 2.6911446751092773e7 0.0
2.6911446751092773e7 6.031430710155437e6 0.0
0.0 0.0 0.0

-1.1560167337704051e7 4.170778061004302e6 0.0
4.170778061004302e6 2.94717015409885e7 0.0
0.0 0.0 0.0

2.2801754370671697e6 9.818679142499529e6 0.0
9.818679142499529e6 -2.5270658778767183e7 0.0
0.0 0.0 0.0

-5.060553610518403e6 1.5076187988387762e7 0.0
1.5076187988387762e7 -1.9793534619241472e7 0.0
0.0 0.0 0.0

7.221956294024514e6 2.0099512387956366e7 0.0
2.0099512387956366e7 7.044349897492813e6 0.0
0.0 0.0 0.0

-3.235920618731689e7 2.7713485699766986e7 0.0
2.7713485699766986e7 -5.171480522893409e6 0.0
0.0 0.0 0.0

-3.90671225455688e6 1.1772410078041406e7 0.0
1.1772410078041406e7 520596.35860704724 0.0
0.0 0.0 0.0

-9.208471729498183e6 2.5951577048331544e7 0.0
2.5951577048331544e7 6.0811235358651355e6 0.0
0.0 0.0 0.0

-2.536771157021503e6 2.5619295523486253e7 0.0
2.5619295523486253e7 2.802531617188352e6 0.0
0.0 0.0 0.0

-8.330307391577188e6 5.304804583427914e6 0.0
5.304804583427914e6 1.751079451317665e7 0.0
0.0 0.0 0.0

-8.070472340453437e6 -1.558528165882085e6 0.0
-1.558528165882085e6 1.4883553562972581e7 0.0
0.0 0.0 0.0

1.4492993367547626e6 1.2724200647893881e7 0.0
1.2724200647893881e7 -1.9506039178902738e7 0.0
0.0 0.0 0.0

-1.0906688018573988e7 2.9019985095641594e6 0.0
2.9019985095641594e6 2.9560430469723206e7 0.0
0.0 0.0 0.0

537676.7683638986 1.5678131751983527e7 0.0
1.5678131751983527e7 -1.7928688020628553e7 0.0
0.0 0.0 0.0

6.227689919944822e6 1.890017764014606e7 0.0
1.890017764014606e7 -833925.6202455852 0.0
0.0 0.0 0.0

1.0483296793961357e6 8.864893880438272e6 0.0
8.864893880438272e6 -1.08097371931499e7 0.0
0.0 0.0 0.0

-1.7065439191921648e7 2.5849008528328612e7 0.0
2.5849008528328612e7 4.696336440147343e6 0.0
0.0 0.0 0.0

-9.203567917094192e6 2.2478326105445452e7 0.0
2.2478326105445452e7 -8.84204855362298e6 0.0
0.0 0.0 0.0

464585.7451443801 1.5528568580105687e7 0.0
1.5528568580105687e7 1.5486199698003768e6 0.0
0.0 0.0 0.0

-439469.61191623064 1.5989361476051189e7 0.0
1.5989361476051189e7 -1.4648992937225928e6 0.0
0.0 0.0 0.0

1.9368745722543905e6 1.2996870317516534e7 0.0
1.2996870317516534e7 -1.7958093372527298e7 0.0
0.0 0.0 0.0

-4.667212403194327e6 1.5647404524466872e7 0.0
1.5647404524466872e7 -1.943644795051715e7 0.0
0.0 0.0 0.0

-1.1003125414982442e7 -502200.9417640772 0.0
-502200.9417640772 2.1174299752357747e7 0.0
0.0 0.0 0.0

-4.215196425760966e6 1.2942999454530649e7 0.0
1.2942999454530649e7 6.04494417194297e6 0.0
0.0 0.0 0.0

545956.2692906298 2.0436687017980844e7 0.0
2.0436687017980844e7 -9.42265341106424e6 0.0
0.0 0.0 0.0

3.0585916654318096e6 7.063202752581612e6 0.0
7.063202752581612e6 -1.9497465302919134e7 0.0
0.0 0.0 0.0

-3.578567914000999e7 2.426460682509038e7 0.0
2.426460682509038e7 -2.5760392040439434e6 0.0
0.0 0.0 0.0

4.675826062696572e6 1.9806298285947442e7 0.0
1.9806298285947442e7 -2.3268039620362525e6 0.0
0.0 0.0 0.0

1.9176361953934632e7 1.837138072447845e7 0.0
1.837138072447845e7 2.0754983638144839e6 0.0
0.0 0.0 0.0

-8.844949106969148e6 3.2882103793988395e7 0.0
3.2882103793988395e7 5.726840480780171e6 0.0
0.0 0.0 0.0

-1.055319212867321e7 2.5020038260280155e6 0.0
2.5020038260280155e6 1.8875397981548976e7 0.0
0.0 0.0 0.0

-395520.0232634414 1.6613613840016501e7 0.0
1.6613613840016501e7 -1.1968137859082364e7 0.0
0.0 0.0 0.0

-8.12422827386806e6 2.0954060377517466e7 0.0
2.0954060377517466e7 -4.989222858272873e6 0.0
0.0 0.0 0.0

-1.8437463389048092e7 2.899973336749317e7 0.0
2.899973336749317e7 6.519129896215921e6 0.0
0.0 0.0 0.0

-5.811937042744563e6 1.63720193903077e7 0.0
1.63720193903077e7 -3.0559964832726054e7 0.0
0.0 0.0 0.0

1.3091721775404913e6 1.7024710302610096e7 0.0
1.7024710302610096e7 7.509567972787036e6 0.0
0.0 0.0 0.0

-3.6941037759567113e6 1.550442962303383e7 0.0
1.550442962303383e7 -2.1350346211127598e7 0.0
0.0 0.0 0.0

-1.3471517101581689e7 3.1444684355617844e7 0.0
3.1444684355617844e7 6.64786653469659e6 0.0
0.0 0.0 0.0

-73487.59035884915 2.2683523137917705e7 0.0
2.2683523137917705e7 -6.712188378462595e6 0.0
0.0 0.0 0.0

-6.081944643681673e6 2.1234004316899717e7 0.0
2.1234004316899717e7 -532483.7819212822 0.0
0.0 0.0 0.0

2.349506846560009e6 1.0703553754263924e7 0.0
1.0703553754263924e7 -2.729898122602298e7 0.0
0.0 0.0 0.0

-1.0778197713170573e7 6.596715862659754e6 0.0
6.596715862659754e6 3.359058238889206e7 0.0
0.0 0.0 0.0

-1.4897339069814738e6 1.667454979324356e7 0.0
1.667454979324356e7 -8.108412161146714e6 0.0
0.0 0.0 0.0

6.502630709371667e6 1.97577727010059e7 0.0
1.97577727010059e7 -2.4998617467485443e6 0.0
0.0 0.0 0.0

-4.828461097076177e6 1.639916317466264e7 0.0
1.639916317466264e7 -2.574677789422698e7 0.0
0.0 0.0 0.0

-9.93827065812261e6 2.5802891492716502e7 0.0
2.5802891492716502e7 5.83369014307371e6 0.0
0.0 0.0 0.0

2.0915260438656826e7 3.0357472343799975e7 0.0
3.0357472343799975e7 -8.27170315227929e6 0.0
0.0 0.0 0.0

-5.437736352688873e6 2.078954512150131e7 0.0
2.078954512150131e7 -3.8031466359760836e6 0.0
0.0 0.0 0.0

-1.026292145981955e7 2.694912161872958e7 0.0
2.694912161872958e7 5.869360551319327e6 0.0
0.0 0.0 0.0

-8.026062036265683e6 1.7591263319634553e7 0.0
1.7591263319634553e7 1.805524226496298e7 0.0
0.0 0.0 0.0

2.402701033560754e6 1.8852972877101887e7 0.0
1.8852972877101887e7 -5.392215436669053e6 0.0
0.0 0.0 0.0

-3.372487045831067e6 2.491212322962395e7 0.0
2.491212322962395e7 4.967770486130578e6 0.0
0.0 0.0 0.0

-4.613765383708075e6 1.5442865926409308e7 0.0
1.5442865926409308e7 -2.9267998817767642e7 0.0
0.0 0.0 0.0

3.5662022637854517e6 5.020003310872621e6 0.0
5.020003310872621e6 -2.599183624065891e7 0.0
0.0 0.0 0.0

-4.804829572442718e6 1.6403565392762342e7 0.0
1.6403565392762342e7 -2.27129602518918e7 0.0
0.0 0.0 0.0

-4.282731788897582e6 2.73168139806577e7 0.0
2.73168139806577e7 3.416971951345882e6 0.0
0.0 0.0 0.0

-2.81757626960239e6 1.716083044408513e7 0.0
1.716083044408513e7 -9.391920880776912e6 0.0
0.0 0.0 0.0

2.387082813719114e6 1.7066194379543062e7 0.0
1.7066194379543062e7 7.956943217259154e6 0.0
0.0 0.0 0.0

-9.86045582053702e6 1.5663029095079072e7 0.0
1.5663029095079072e7 2.4806265487877287e7 0.0
0.0 0.0 0.0

-1.5813383265751777e6 1.3043695203547616e7 0.0
1.3043695203547616e7 -2.380006072936826e6 0.0
0.0 0.0 0.0

9.471689517813586e6 1.682888274869877e7 0.0
1.682888274869877e7 3.76827487323839e7 0.0
0.0 0.0 0.0

-1.0606728319937881e7 1.7056486852619718e6 0.0
1.7056486852619718e6 3.3190268800489936e7 0.0
0.0 0.0 0.0

3.274447658833906e6 4.376899932597772e6 0.0
4.376899932597772e6 -3.648186913132921e7 0.0
0.0 0.0 0.0

-2.985548782400842e6 1.6406874264277702e7 0.0
1.6406874264277702e7 -2.3486159906615645e7 0.0
0.0 0.0 0.0

-8.68488845585689e6 2.6994730027137034e7 0.0
2.6994730027137034e7 5.736670700346468e6 0.0
0.0 0.0 0.0

2.3909111545439098e7 1.2945203727136439e7 0.0
1.2945203727136439e7 476289.8214212693 0.0
0.0 0.0 0.0

-1.2195995769799689e7 5.048182689188047e6 0.0
5.048182689188047e6 2.485132401324036e7 0.0
0.0 0.0 0.0

-1.9918091539029665e7 2.7275730151803415e7 0.0
2.7275730151803415e7 -9.137013858769339e6 0.0
0.0 0.0 0.0

-3.781040025813615e6 2.0002557295474526e7 0.0
2.0002557295474526e7 7.467479698182965e6 0.0
0.0 0.0 0.0

-1.8158680059109777e7 3.138061153363602e7 0.0
3.138061153363602e7 7.299640325386442e6 0.0
0.0 0.0 0.0

3.056022443896601e6 4.83681483197101e6 0.0
4.83681483197101e6 -3.765650055737307e7 0.0
0.0 0.0 0.0

3.8211300284951557e6 2.6180814802723136e7 0.0
2.6180814802723136e7 -4.369083364460386e6 0.0
0.0 0.0 0.0

-6.395374003564587e6 1.1889874024686463e7 0.0
1.1889874024686463e7 4.680773402109333e7 0.0
0.0 0.0 0.0

-3.60794109281629e6 2.4188188802857734e7 0.0
2.4188188802857734e7 6.890731399217286e6 0.0
0.0 0.0 0.0

-1.3527094220090706e6 1.6045533791923176e7 0.0
1.6045533791923176e7 -5.7498976930863215e6 0.0
0.0 0.0 0.0

-5.599717161424102e6 2.2436991911897846e6 0.0
2.2436991911897846e6 8.95783997721592e6 0.0
0.0 0.0 0.0

3.3595522617247924e6 1.780472882515496e7 0.0
1.780472882515496e7 1.261878485970974e7 0.0
0.0 0.0 0.0

-4.594669583088137e6 2.0940845225368336e7 0.0
2.0940845225368336e7 8.978028200383665e6 0.0
0.0 0.0 0.0

1.6561997834454589e6 9.563315131725827e6 0.0
9.563315131725827e6 -9.730634042520862e6 0.0
0.0 0.0 0.0

-2.8133750054221787e6 1.9150790178858988e7 0.0
1.9150790178858988e7 801710.4554142348 0.0
0.0 0.0 0.0

5.25018466710874e6 1.9414684154705893e7 0.0
1.9414684154705893e7 -2.898742652318116e6 0.0
0.0 0.0 0.0

-2.409514431093035e6 1.3055872944404459e7 0.0
1.3055872944404459e7 258466.43147254782 0.0
0.0 0.0 0.0

-2.7478522408652147e6 1.5233462189721337e7 0.0
1.5233462189721337e7 -2.6165007626417074e7 0.0
0.0 0.0 0.0

-4.977760794351563e6 1.6308777631143106e7 0.0
1.6308777631143106e7 6.1704071424995065e6 0.0
0.0 0.0 0.0

-7.672275629759143e6 1.7704121257283125e7 0.0
1.7704121257283125e7 2.1219505329807628e7 0.0
0.0 0.0 0.0

-1.0165112125005601e7 -571592.4816446333 0.0
-571592.4816446333 2.4068813948134482e7 0.0
0.0 0.0 0.0

-1.0451839902790193e7 2.12993838743858e7 0.0
2.12993838743858e7 330721.0530643957 0.0
0.0 0.0 0.0

-6.533632168239785e6 2.5479184143971298e7 0.0
2.5479184143971298e7 6.426951252607208e6 0.0
0.0 0.0 0.0

8.2921184648139365e6 2.635962972284542e7 0.0
2.635962972284542e7 -5.487268291408061e6 0.0
0.0 0.0 0.0

-1.182586133621682e7 4.690974439285974e6 0.0
4.690974439285974e6 2.703281786202516e7 0.0
0.0 0.0 0.0

-3.663623818401401e6 1.5984846717766033e7 0.0
1.5984846717766033e7 -2.7286733678663027e7 0.0
0.0 0.0 0.0

-4.349628036349402e6 2.5297756797360867e7 0.0
2.5297756797360867e7 6.25713021473486e6 0.0
0.0 0.0 0.0

457218.13858091505 1.7521873962329715e7 0.0
1.7521873962329715e7 -7.39820293140436e6 0.0
0.0 0.0 0.0

-1.4903669428515104e6 1.4238733429619137e7 0.0
1.4238733429619137e7 -7.179252046901013e6 0.0
0.0 0.0 0.0

-9.583550520348318e6 643523.2411640295 0.0
643523.2411640295 1.656915305817242e7 0.0
0.0 0.0 0.0

-8.318088269205436e6 2.798927234638826e7 0.0
2.798927234638826e7 5.733209635207889e6 0.0
0.0 0.0 0.0

-2.2917110215334883e6 2.1156567809476525e7 0.0
2.1156567809476525e7 -433269.8831576452 0.0
0.0 0.0 0.0

2.6676937759267827e6 1.8790663260806184e7 0.0
1.8790663260806184e7 1.216515036402879e7 0.0
0.0 0.0 0.0

-1.0159093191394244e6 3.0460270642374745e6 0.0
3.0460270642374745e6 1.8457418536525227e6 0.0
0.0 0.0 0.0

3.1055513041647584e6 1.8677167264605474e7 0.0
1.8677167264605474e7 3.840139770193975e6 0.0
0.0 0.0 0.0

577327.6326007359 8.676132456929868e6 0.0
8.676132456929868e6 -4.964270870491846e7 0.0
0.0 0.0 0.0

4.104718101362345e6 2.9672449049297962e7 0.0
2.9672449049297962e7 -4.1824579918441456e6 0.0
0.0 0.0 0.0

-5.11160990884096e6 2.1902419698119e7 0.0
2.1902419698119e7 9.778109683177726e6 0.0
0.0 0.0 0.0

-9.860224634291712e6 8.566860798557617e6 0.0
8.566860798557617e6 1.1945125960153665e7 0.0
0.0 0.0 0.0

-973468.3175604332 1.853878874744406e7 0.0
1.853878874744406e7 -2.8661073303283737e6 0.0
0.0 0.0 0.0

296560.57594086044 1.06106681137169e7 0.0
1.06106681137169e7 -4.613032147730307e7 0.0
0.0 0.0 0.0

-464659.5651546791 1.5784378842887122e7 0.0
1.5784378842887122e7 -2.0485413462265637e7 0.0
0.0 0.0 0.0

-8.447066424779452e6 3.080551002603336e7 0.0
3.080551002603336e7 4.2124349435640415e6 0.0
0.0 0.0 0.0

-2.197336329120588e6 1.688916209753735e7 0.0
1.688916209753735e7 -7.324455280858239e6 0.0
0.0 0.0 0.0

-4.04380171215822e6 2.0442196610725686e7 0.0
2.0442196610725686e7 -1.0099372846307172e7 0.0
0.0 0.0 0.0

-3.0128066080011744e6 2.1979747906546086e7 0.0
2.1979747906546086e7 5.0915881593424035e6 0.0
0.0 0.0 0.0

443276.31304141646 1.6650861564269578e7 0.0
1.6650861564269578e7 -1.2086788553365715e7 0.0
0.0 0.0 0.0

5.557341696687562e6 1.9915948781765915e7 0.0
1.9915948781765915e7 5.877179467626841e6 0.0
0.0 0.0 0.0

-7.038887115030434e6 2.135295792796637e7 0.0
2.135295792796637e7 -9.449820139436707e6 0.0
0.0 0.0 0.0

-2.146744415694855e6 1.9434564979258955e7 0.0
1.9434564979258955e7 5.138211236706792e6 0.0
0.0 0.0 0.0

-7.074171773301177e6 8.425461000063917e6 0.0
8.425461000063917e6 5.2426367918430544e7 0.0
0.0 0.0 0.0

-453471.40040687076 1.3859462444298945e7 0.0
1.3859462444298945e7 -6.585321807624638e6 0.0
0.0 0.0 0.0

-5.81455207835437e6 1.4497687981136307e7 0.0
1.4497687981136307e7 -2.086445929827214e7 0.0
0.0 0.0 0.0

232776.01452369802 1.813425261398086e7 0.0
1.813425261398086e7 -1.3859819697135013e7 0.0
0.0 0.0 0.0

-4.830968150096254e6 1.857878699201769e7 0.0
1.857878699201769e7 -1.2654136583312418e7 0.0
0.0 0.0 0.0

-3.9373406025883663e6 2.04839178812074e7 0.0
2.04839178812074e7 9.311474830100834e6 0.0
0.0 0.0 0.0

383037.24003679026 1.5748882724823782e7 0.0
1.5748882724823782e7 1.2767908860689306e6 0.0
0.0 0.0 0.0

-2.846830465421926e6 2.5843776832677532e7 0.0
2.5843776832677532e7 3.6055998269044743e6 0.0
0.0 0.0 0.0

-2.8025797172030057e6 1.9771092482038744e7 0.0
1.9771092482038744e7 643574.0059209716 0.0
0.0 0.0 0.0

-8.216775336657211e6 2.068690581766286e6 0.0
2.068690581766286e6 5.1514177934923746e7 0.0
0.0 0.0 0.0

-1.2752349154100286e7 8.618312727361934e6 0.0
8.618312727361934e6 2.1177886008559015e7 0.0
0.0 0.0 0.0

990413.382477128 1.79158544421427e7 0.0
1.79158544421427e7 -6.599020817890347e6 0.0
0.0 0.0 0.0

-2.2697262261159573e7 2.565933255411618e7 0.0
2.565933255411618e7 3.8124300690651787e6 0.0
0.0 0.0 0.0

-1.1004407249630494e7 801362.5181555119 0.0
801362.5181555119 1.6398176798574027e7 0.0
0.0 0.0 0.0

-9.472063253590876e6 6.65115430963039e6 0.0
6.65115430963039e6 4.225549499192618e7 0.0
0.0 0.0 0.0

-2.2947175719878124e6 585908.126383157 0.0
585908.126383157 3.9376929509865055e6 0.0
0.0 0.0 0.0

-4.977829054689441e6 4.4322756207386535e6 0.0
4.4322756207386535e6 601551.7041081991 0.0
0.0 0.0 0.0

1.9230197275061738e6 1.1273900889111519e7 0.0
1.1273900889111519e7 -1.9633713512826126e7 0.0
0.0 0.0 0.0

-2.9054694447905514e6 2.147181931029716e7 0.0
2.147181931029716e7 -977177.6217924942 0.0
0.0 0.0 0.0

-5.835690867378276e6 1.8562401439538907e7 0.0
1.8562401439538907e7 -1.1683540989923168e7 0.0
0.0 0.0 0.0

-3.9248923268988524e6 2.0235798944889538e7 0.0
2.0235798944889538e7 1.2310375971296983e7 0.0
0.0 0.0 0.0

-3.004051440427251e6 1.5644639637986585e7 0.0
1.5644639637986585e7 -2.000510634437518e7 0.0
0.0 0.0 0.0

1.2783943606637628e6 1.8304014767090894e7 0.0
1.8304014767090894e7 1.1036812209470108e7 0.0
0.0 0.0 0.0

-8.297328189720717e6 1.5167095264933748e7 0.0
1.5167095264933748e7 -3.0389525152123358e7 0.0
0.0 0.0 0.0

-3.6366537460916536e6 1.9664263120287742e7 0.0
1.9664263120287742e7 3.1289444220568193e6 0.0
0.0 0.0 0.0

-1.2652492694946826e6 1.1148376881587181e7 0.0
1.1148376881587181e7 -5.461447667428814e7 0.0
0.0 0.0 0.0

602794.869928956 1.1020550330445383e7 0.0
1.1020550330445383e7 -4.037259400611031e7 0.0
0.0 0.0 0.0

-2.9656781168107935e6 1.9691838310069766e7 0.0
1.9691838310069766e7 -9.54880045004088e6 0.0
0.0 0.0 0.0

-1.2141446785487222e7 2.361863162326166e7 0.0
2.361863162326166e7 -8.425429810795425e6 0.0
0.0 0.0 0.0

-1.1060528816841697e7 2.5811526241418414e7 0.0
2.5811526241418414e7 5.886450531063752e6 0.0
0.0 0.0 0.0

-5.264137054798273e6 1.3514810682921695e7 0.0
1.3514810682921695e7 5.0569484401850505e6 0.0
0.0 0.0 0.0

-2.695527319240206e6 5.718192469338044e6 0.0
5.718192469338044e6 6.832170535104349e6 0.0
0.0 0.0 0.0

289918.9069846561 1.7119652131375384e7 0.0
1.7119652131375384e7 -5.941285627077241e6 0.0
0.0 0.0 0.0

7.535042887205289e6 2.039605107335019e7 0.0
2.039605107335019e7 -2.4226410266722078e6 0.0
0.0 0.0 0.0

-5.50272552360817e6 1.2479487802365877e7 0.0
1.2479487802365877e7 4.7635670692783214e7 0.0
0.0 0.0 0.0

-1.738570966818092e6 1.908734057575019e7 0.0
1.908734057575019e7 9.706329141418079e6 0.0
0.0 0.0 0.0

-6.5367663578191735e6 2.553968802520215e7 0.0
2.553968802520215e7 6.535862361448389e6 0.0
0.0 0.0 0.0

-3.325220269160256e6 1.5637712166177688e7 0.0
1.5637712166177688e7 -1.2681417749396635e7 0.0
0.0 0.0 0.0

-9.097285546639584e6 9.842758658869456e6 0.0
9.842758658869456e6 3.930917253119363e7 0.0
0.0 0.0 0.0

-2.095433438918893e6 1.879969209488467e7 0.0
1.879969209488467e7 5.451885786586884e6 0.0
0.0 0.0 0.0

15733.20286009647 1.8057884475443214e7 0.0
1.8057884475443214e7 -1.3711006881805409e7 0.0
0.0 0.0 0.0

-383610.10224576667 1.478979087084989e7 0.0
1.478979087084989e7 -2.3978400894407038e7 0.0
0.0 0.0 0.0

990445.2184784468 9.953710317909388e6 0.0
9.953710317909388e6 -3.860128955496089e7 0.0
0.0 0.0 0.0

1.4410105581233874e6 1.0696513371920904e7 0.0
1.0696513371920904e7 -3.119145603990848e7 0.0
0.0 0.0 0.0

-8.295201892415751e6 1.731476499380699e7 0.0
1.731476499380699e7 -4.337359360150769e7 0.0
0.0 0.0 0.0

-3.131630896777532e6 2.537785581814876e7 0.0
2.537785581814876e7 4.280897220612526e6 0.0
0.0 0.0 0.0

-4.285256699081502e6 2.0397340677543256e7 0.0
2.0397340677543256e7 -9.902493218302473e6 0.0
0.0 0.0 0.0

-912191.3480501431 1.7730521668388262e7 0.0
1.7730521668388262e7 -1.1667271149894621e7 0.0
0.0 0.0 0.0

1.740777326792363e7 2.0368930318720173e7 0.0
2.0368930318720173e7 -1.6688890378548354e6 0.0
0.0 0.0 0.0

-8.552393553652534e6 4.646400347717027e6 0.0
4.646400347717027e6 4.6116199965983056e7 0.0
0.0 0.0 0.0

-659923.9188113865 1.1005395471904878e7 0.0
1.1005395471904878e7 -4.673033103310034e7 0.0
0.0 0.0 0.0

1.7766220848357715e6 1.097002902283879e7 0.0
1.097002902283879e7 -3.0971348381986722e7 0.0
0.0 0.0 0.0

-5.742831646589875e6 8.41700243830638e6 0.0
8.41700243830638e6 5.7910234400563285e7 0.0
0.0 0.0 0.0

1.5734460619952852e7 2.070704200665675e7 0.0
2.070704200665675e7 9.73000432938303e6 0.0
0.0 0.0 0.0

-8.50155441885914e6 7.807535428048219e6 0.0
7.807535428048219e6 4.364357363705032e7 0.0
0.0 0.0 0.0

-5.304690143572166e6 93591.71041519538 0.0
93591.71041519538 5.805001367839998e6 0.0
0.0 0.0 0.0

-3.3974630159815964e6 2.649299607231733e7 0.0
2.649299607231733e7 2.4839530296411105e6 0.0
0.0 0.0 0.0

2.1582830126488786e6 1.0455154551627064e7 0.0
1.0455154551627064e7 -2.4055315668659993e7 0.0
0.0 0.0 0.0

-6.318480761681197e6 2.858184972147255e7 0.0
2.858184972147255e7 5.342684718950996e6 0.0
0.0 0.0 0.0

-8.799280977403468e6 1.2405651636036051e7 0.0
1.2405651636036051e7 3.505155075081651e7 0.0
0.0 0.0 0.0

-1.2643542146334063e7 6.534330500809759e6 0.0
6.534330500809759e6 1.968153751954535e7 0.0
0.0 0.0 0.0

4.998912077540972e6 2.639683967907211e7 0.0
2.639683967907211e7 -4.634729397501845e6 0.0
0.0 0.0 0.0

-4.323931966540996e6 2.080014902224784e7 0.0
2.080014902224784e7 1.1967387642874602e7 0.0
0.0 0.0 0.0

645401.0545761068 2.3020799285875462e7 0.0
2.3020799285875462e7 -6.17226273981495e6 0.0
0.0 0.0 0.0

-6.229558040947154e6 2.326010706464158e7 0.0
2.326010706464158e7 6.998935300271005e6 0.0
0.0 0.0 0.0

-2.757251804389376e6 1.6555803467759583e7 0.0
1.6555803467759583e7 -2.1316396676990964e7 0.0
0.0 0.0 0.0

3.1964827888128185e6 2.0558079482739415e7 0.0
2.0558079482739415e7 -6.558717408874134e6 0.0
0.0 0.0 0.0

5.525393198532137e6 1.742285224606683e7 0.0
1.742285224606683e7 3.603384792274636e7 0.0
0.0 0.0 0.0

-5.822392800722969e6 4.261464814309804e6 0.0
4.261464814309804e6 1.5371710323714055e7 0.0
0.0 0.0 0.0

-3.2087617480348498e6 7.862945498170761e6 0.0
7.862945498170761e6 -4.632582628547723e6 0.0
0.0 0.0 0.0

-3.8336794486974096e6 1.77797894904965e7 0.0
1.77797894904965e7 -1.2778931314873824e7 0.0
0.0 0.0 0.0

3.5888970265579927e6 1.817184002659274e7 0.0
1.817184002659274e7 1.196299041423233e7 0.0
0.0 0.0 0.0

5.355040417611195e6 3.027527357874861e7 0.0
3.027527357874861e7 -5.136488157562388e6 0.0
0.0 0.0 0.0

3.8552088308619345e6 5.225056395793745e6 0.0
5.225056395793745e6 -1.5034441178187886e7 0.0
0.0 0.0 0.0

-4.082580539913791e6 2.9598506059572387e7 0.0
2.9598506059572387e7 3.864012328068259e6 0.0
0.0 0.0 0.0

-3.7003005487615034e7 1.3151295035554988e7 0.0
1.3151295035554988e7 8.834033111612683e6 0.0
0.0 0.0 0.0

225962.57513783686 1.8411066165514402e7 0.0
1.8411066165514402e7 -1.2633523490732122e7 0.0
0.0 0.0 0.0

-8.580927812862555e6 1.4071697364647314e7 0.0
1.4071697364647314e7 3.1048124536726262e7 0.0
0.0 0.0 0.0

233346.32850826392 1.8213073378421523e7 0.0
1.8213073378421523e7 -6.376405260612286e6 0.0
0.0 0.0 0.0

-4.325079633862425e6 2.1288228201649934e7 0.0
2.1288228201649934e7 9.18287832314362e6 0.0
0.0 0.0 0.0

-2.752740017643843e6 2.1002343425337646e7 0.0
2.1002343425337646e7 -1.9384609068028764e6 0.0
0.0 0.0 0.0

532008.5807924788 1.855532650566798e7 0.0
1.855532650566798e7 -7.690953960550488e6 0.0
0.0 0.0 0.0

3.060811474630967e6 4.089432492705066e6 0.0
4.089432492705066e6 -3.931434201155327e7 0.0
0.0 0.0 0.0

-672537.4143716594 1.5002961148760116e7 0.0
1.5002961148760116e7 -2.2417917538475166e6 0.0
0.0 0.0 0.0

8.2421807478618305e6 2.1455436578890245e7 0.0
2.1455436578890245e7 -3.991694901109668e6 0.0
0.0 0.0 0.0

-1.0696229376146086e6 1.744864254481343e7 0.0
1.744864254481343e7 -1.337830723712466e7 0.0
0.0 0.0 0.0

4.027319913479886e6 1.986346465929432e7 0.0
1.986346465929432e7 9.139489912554322e6 0.0
0.0 0.0 0.0

-109646.84039736167 1.1216811227327608e7 0.0
1.1216811227327608e7 -4.068172548203721e7 0.0
0.0 0.0 0.0

-1.0358544449705931e6 2.0387840789380275e7 0.0
2.0387840789380275e7 -7.828837030387327e6 0.0
0.0 0.0 0.0

2.9845803359111566e6 2.0060857699649304e7 0.0
2.0060857699649304e7 1.337039698140185e7 0.0
0.0 0.0 0.0

2.0345192692652185e7 2.5335159125678707e7 0.0
2.5335159125678707e7 -5.746083914106948e6 0.0
0.0 0.0 0.0

876886.0246508643 1.1259974623636378e7 0.0
1.1259974623636378e7 -3.537512337737818e7 0.0
0.0 0.0 0.0

-3.0580182530555755e7 1.1954052476832358e7 0.0
1.1954052476832358e7 9.021457708488831e6 0.0
0.0 0.0 0.0

883252.0081508253 1.7520588927948043e7 0.0
1.7520588927948043e7 1.4110816622164235e7 0.0
0.0 0.0 0.0

-5.659469600195096e6 2.9478070773777578e7 0.0
2.9478070773777578e7 4.857778674107032e6 0.0
0.0 0.0 0.0

-121790.71879491396 1.8778965609101634e7 0.0
1.8778965609101634e7 -9.881788436007759e6 0.0
0.0 0.0 0.0

-5.603600416812668e6 2.581562651718223e7 0.0
2.581562651718223e7 6.017842054514343e6 0.0
0.0 0.0 0.0

-6.138515270233732e6 1.1625444497193476e7 0.0
1.1625444497193476e7 5.099664439144411e7 0.0
0.0 0.0 0.0

1.4547698366207536e6 1.4109871628514286e7 0.0
1.4109871628514286e7 -1.5832833562163923e7 0.0
0.0 0.0 0.0

3.4344628140400257e6 2.6391495635113955e7 0.0
2.6391495635113955e7 -4.720043525138968e6 0.0
0.0 0.0 0.0

-2.5111944909889987e6 1.120961951895704e7 0.0
1.120961951895704e7 1.4130715851084893e6 0.0
0.0 0.0 0.0

-2.783166113246269e7 1.131007852453078e7 0.0
1.131007852453078e7 8.860673812283218e6 0.0
0.0 0.0 0.0

-3.674521888517506e6 1.4657586500635436e7 0.0
1.4657586500635436e7 -322887.2167531152 0.0
0.0 0.0 0.0

-1.1566905330145387e7 2.8920719040463506e6 0.0
2.8920719040463506e6 2.7275787352695193e7 0.0
0.0 0.0 0.0

-7.786311682538103e6 1.4816149651491413e7 0.0
1.4816149651491413e7 3.206850351016236e7 0.0
0.0 0.0 0.0

-4.839789832150986e6 2.7881986212150436e7 0.0
2.7881986212150436e7 3.602149014148553e6 0.0
0.0 0.0 0.0

-5.021418257177752e6 3.025718692916967e7 0.0
3.025718692916967e7 4.207919658291748e6 0.0
0.0 0.0 0.0

-8.115306858377324e6 1.0836284530740226e7 0.0
1.0836284530740226e7 4.053364035891102e7 0.0
0.0 0.0 0.0

1.3295378538412834e6 1.281156891246604e7 0.0
1.281156891246604e7 -1.3140286300954469e7 0.0
0.0 0.0 0.0

5.033548661373847e6 1.9551598400802996e7 0.0
1.9551598400802996e7 36408.33653467824 0.0
0.0 0.0 0.0

-2.6518367353154332e6 1.395912525137794e7 0.0
1.395912525137794e7 -9.122412022917718e6 0.0
0.0 0.0 0.0

889009.584820603 9.679740096311843e6 0.0
9.679740096311843e6 -8.417015740330113e6 0.0
0.0 0.0 0.0

-3.612779827238225e6 2.7649251601519447e7 0.0
2.7649251601519447e7 3.906720410497861e6 0.0
0.0 0.0 0.0

-9.233406140558008e6 1.6882356469901387e7 0.0
1.6882356469901387e7 2.2949009490585987e7 0.0
0.0 0.0 0.0

239852.2257949561 1.158838786866895e7 0.0
1.158838786866895e7 -3.587700575172382e7 0.0
0.0 0.0 0.0

-1.9711834329377655e7 2.4759648054017697e7 0.0
2.4759648054017697e7 2.9619106813369216e6 0.0
0.0 0.0 0.0

705103.7863632259 2.3747737733421337e7 0.0
2.3747737733421337e7 -5.341055099588102e6 0.0
0.0 0.0 0.0

2.0772144025800824e6 5.513543059977154e6 0.0
5.513543059977154e6 -4.691307337487202e7 0.0
0.0 0.0 0.0

-2.9825633208352476e6 1.8563736013070088e7 0.0
1.8563736013070088e7 1.6971046613985226e7 0.0
0.0 0.0 0.0

-2.635843077958199e6 2.1372990711978536e7 0.0
2.1372990711978536e7 1.2309938222749485e6 0.0
0.0 0.0 0.0

246937.10546128545 1.8580367517037313e7 0.0
1.8580367517037313e7 -1.2863803233334856e7 0.0
0.0 0.0 0.0

-7.689811042081103e6 2.904130295747596e7 0.0
2.904130295747596e7 5.627068799850918e6 0.0
0.0 0.0 0.0

-2.101319722670055e6 2.1423804887945402e7 0.0
2.1423804887945402e7 -1.2530959470844455e6 0.0
0.0 0.0 0.0

-5.687774723204668e6 2.848683561566905e7 0.0
2.848683561566905e7 3.870324735900628e6 0.0
0.0 0.0 0.0

-2.0989770145337824e6 7.59297234942044e6 0.0
7.59297234942044e6 2.0048312340300763e6 0.0
0.0 0.0 0.0

4.528826283514333e6 1.7081914514611196e7 0.0
1.7081914514611196e7 1.7417704593634143e7 0.0
0.0 0.0 0.0

-658560.7889400283 1.6332480300631002e7 0.0
1.6332480300631002e7 -1.8426075409841225e7 0.0
0.0 0.0 0.0

-2.6051167524434873e6 1.4189157691882843e7 0.0
1.4189157691882843e7 432358.2033041257 0.0
0.0 0.0 0.0

-92499.324682381 1.743212466919981e7 0.0
1.743212466919981e7 -1.4808006712582955e7 0.0
0.0 0.0 0.0

2.739443388558612e6 7.711654082792458e6 0.0
7.711654082792458e6 -1.8480170790681757e7 0.0
0.0 0.0 0.0

1.0082621713208133e7 2.088444399420978e7 0.0
2.088444399420978e7 9.212149599139523e6 0.0
0.0 0.0 0.0

-9.490965931593519e6 -720125.1542496716 0.0
-720125.1542496716 3.422962006835994e7 0.0
0.0 0.0 0.0

5.142469242305584e6 1.7288719566687137e7 0.0
1.7288719566687137e7 1.9812438056345046e7 0.0
0.0 0.0 0.0

-3.6820904932470713e6 2.6104276482545275e7 0.0
2.6104276482545275e7 3.2234796887686225e6 0.0
0.0 0.0 0.0

-260563.16538094636 1.6044274157383507e7 0.0
1.6044274157383507e7 -2.08679999889782e7 0.0
0.0 0.0 0.0

2.8421754436224303e6 2.5875824631184373e7 0.0
2.5875824631184373e7 -4.33766867355302e6 0.0
0.0 0.0 0.0

-428224.18723209185 1.7744086365768194e7 0.0
1.7744086365768194e7 -2.2687560440577087e6 0.0
0.0 0.0 0.0

2.846284306214624e6 1.0069241131764833e7 0.0
1.0069241131764833e7 -2.3438904809481964e7 0.0
0.0 0.0 0.0

376928.5729721929 2.315038507354746e7 0.0
2.315038507354746e7 -6.373254179728646e6 0.0
0.0 0.0 0.0

-478530.44491291884 1.6646392572473444e7 0.0
1.6646392572473444e7 -1.7178894737835504e7 0.0
0.0 0.0 0.0

-1.045114592174862e7 5.35701237300637e6 0.0
5.35701237300637e6 1.4729981587742781e7 0.0
0.0 0.0 0.0

2.8027726406211862e6 1.9052794731811002e7 0.0
1.9052794731811002e7 1.4336857123973774e7 0.0
0.0 0.0 0.0

-5.301156982274327e6 2.1666342860885963e7 0.0
2.1666342860885963e7 8.785101646036625e6 0.0
0.0 0.0 0.0

-3.964069543259667e6 2.672256387707763e7 0.0
2.672256387707763e7 3.2879281264571655e6 0.0
0.0 0.0 0.0

-1.0514894205479631e6 1.8199789538637318e7 0.0
1.8199789538637318e7 9.96111171360428e6 0.0
0.0 0.0 0.0

-4.788774428774523e6 4.007457438617749e6 0.0
4.007457438617749e6 8.027258733510124e6 0.0
0.0 0.0 0.0

-1.0488163148595009e7 9.41863219455614e6 0.0
9.41863219455614e6 3.3764919336637154e7 0.0
0.0 0.0 0.0

73210.53194273543 1.7873122420780074e7 0.0
1.7873122420780074e7 -1.3732841290277163e7 0.0
0.0 0.0 0.0

-2.275531503830554e6 1.3756997805661047e7 0.0
1.3756997805661047e7 -5.380998873011025e7 0.0
0.0 0.0 0.0

-4.037009552319277e6 5.601410315925043e6 0.0
5.601410315925043e6 6.502988970481407e6 0.0
0.0 0.0 0.0

-1.1241474275727188e7 734217.7585233836 0.0
734217.7585233836 2.0156408326399975e7 0.0
0.0 0.0 0.0

-5.0768187699520225e6 1.6694907437434278e7 0.0
1.6694907437434278e7 7.383030320561893e6 0.0
0.0 0.0 0.0

272794.6834453682 2.3960918445068214e7 0.0
2.3960918445068214e7 -4.744312923155134e6 0.0
0.0 0.0 0.0

-3.1358852557775974e6 1.5020125831048025e7 0.0
1.5020125831048025e7 -3.462542906886254e7 0.0
0.0 0.0 0.0

3.370466182219767e6 7.374946253835733e6 0.0
7.374946253835733e6 -1.6031099808185194e7 0.0
0.0 0.0 0.0

-2.6048234836182473e6 2.6236478805371013e7 0.0
2.6236478805371013e7 2.8753773718762137e6 0.0
0.0 0.0 0.0

1.1003547130493487e6 2.345731228883338e7 0.0
2.345731228883338e7 -5.883801080221899e6 0.0
0.0 0.0 0.0

-8.70968548159747e6 3.4559440485106565e7 0.0
3.4559440485106565e7 3.8098892581902076e6 0.0
0.0 0.0 0.0

-3.0291569474045876e6 2.643186079898308e7 0.0
2.643186079898308e7 3.722129868262018e6 0.0
0.0 0.0 0.0

-2.1233635306406926e7 2.621197919046583e7 0.0
2.621197919046583e7 -6.390118856289432e6 0.0
0.0 0.0 0.0

-3.2500508202033616e6 1.9995089846868407e7 0.0
1.9995089846868407e7 -1.444027849552787e6 0.0
0.0 0.0 0.0

-2.498776624774324e6 1.3659572281116609e7 0.0
1.3659572281116609e7 -4.95036977072998e7 0.0
0.0 0.0 0.0

-3.6010046432579025e6 1.3553041671305044e7 0.0
1.3553041671305044e7 -535655.5406508247 0.0
0.0 0.0 0.0

-1.000360331686003e7 1.5846902190928718e6 0.0
1.5846902190928718e6 3.918691596789216e7 0.0
0.0 0.0 0.0

-8.94233425209087e6 5.370317750352606e6 0.0
5.370317750352606e6 4.561104539800708e7 0.0
0.0 0.0 0.0

2.826226307580501e6 6.41078491665554e6 0.0
6.41078491665554e6 -3.453593805023644e7 0.0
0.0 0.0 0.0

-4.696750240920933e6 2.2844156738409173e7 0.0
2.2844156738409173e7 8.621757336172301e6 0.0
0.0 0.0 0.0

-6.240370729482388e6 1.2816484865866903e7 0.0
1.2816484865866903e7 4.364953106170781e7 0.0
0.0 0.0 0.0

-280106.47408164106 1.7031891966928486e7 0.0
1.7031891966928486e7 -1.5966148052289898e7 0.0
0.0 0.0 0.0

-4.206781052942241e6 1.4802285555920312e7 0.0
1.4802285555920312e7 4.084961572874788e7 0.0
0.0 0.0 0.0

-111055.05837557698 2.3418603336533453e7 0.0
2.3418603336533453e7 -5.862196770366697e6 0.0
0.0 0.0 0.0

1.8103734849293223e6 2.794253966904825e7 0.0
2.794253966904825e7 -3.2985363404053366e6 0.0
0.0 0.0 0.0

-171351.06679076003 1.761114682582414e7 0.0
1.761114682582414e7 -3.9413154023839445e6 0.0
0.0 0.0 0.0

-1.1535779030935546e7 3.554136415122084e6 0.0
3.554136415122084e6 1.9853749653159443e7 0.0
0.0 0.0 0.0

-145184.50927986158 1.783533570018283e7 0.0
1.783533570018283e7 1.212885051453468e7 0.0
0.0 0.0 0.0

-4.33362707633166e6 1.6138263349525489e7 0.0
1.6138263349525489e7 8.353981023490548e6 0.0
0.0 0.0 0.0

3.4601047007559277e6 4.730476158721692e6 0.0
4.730476158721692e6 -3.1548033726892255e7 0.0
0.0 0.0 0.0

3.1556857707566423e6 2.034378505930955e7 0.0
2.034378505930955e7 -5.598615359593204e6 0.0
0.0 0.0 0.0

-1.265766899744594e7 1.992456619403285e7 0.0
1.992456619403285e7 4.206899672185044e6 0.0
0.0 0.0 0.0

-2.0015283642201096e7 2.262103519729718e7 0.0
2.262103519729718e7 -5.771107634427609e6 0.0
0.0 0.0 0.0

-2.6642395885150786e6 2.6614105545642994e7 0.0
2.6614105545642994e7 1.0375853271492454e6 0.0
0.0 0.0 0.0

462925.6076483629 1.2412806190756086e7 0.0
1.2412806190756086e7 -1.2429951678890383e7 0.0
0.0 0.0 0.0

-5.075480697666955e6 1.9765537920024674e7 0.0
1.9765537920024674e7 -1.2137235762693975e6 0.0
0.0 0.0 0.0

787193.4980872201 2.809027289619814e7 0.0
2.809027289619814e7 -1.4807864286009585e6 0.0
0.0 0.0 0.0

-3.8500085539306104e6 1.8651938785427738e7 0.0
1.8651938785427738e7 1.8162338635170035e7 0.0
0.0 0.0 0.0

-1.8309748466258077e6 1.8570411370065954e7 0.0
1.8570411370065954e7 9.961913589302132e6 0.0
0.0 0.0 0.0

1.3492010885409662e6 1.2005196377463197e7 0.0
1.2005196377463197e7 -1.1774476855583519e7 0.0
0.0 0.0 0.0

-2.225003539115424e6 2.9839574302614264e7 0.0
2.9839574302614264e7 1.8290042112508775e6 0.0
0.0 0.0 0.0

-1.0905283292980995e7 673109.9518961919 0.0
673109.9518961919 2.9741756524325732e7 0.0
0.0 0.0 0.0

3.971761405864384e6 5.755116993355224e6 0.0
5.755116993355224e6 -2.482215399510683e7 0.0
0.0 0.0 0.0

-509653.44526152266 2.5747770431589894e7 0.0
2.5747770431589894e7 -1.748101166116131e6 0.0
0.0 0.0 0.0

-588634.8658884745 1.662169856478406e7 0.0
1.662169856478406e7 -1.888142721191407e7 0.0
0.0 0.0 0.0

-3.7315983240856626e6 926936.7763994255 0.0
926936.7763994255 5.961837481500655e6 0.0
0.0 0.0 0.0

1.092179381964224e6 9.408134380637906e6 0.0
9.408134380637906e6 -1.1540523034298819e7 0.0
0.0 0.0 0.0

-8.276645374124692e6 2.263448967102042e7 0.0
2.263448967102042e7 -7.109262774123982e6 0.0
0.0 0.0 0.0

2.495466747718313e6 1.1210149670342105e7 0.0
1.1210149670342105e7 -2.276322075409657e7 0.0
0.0 0.0 0.0

9.441925225433687e6 2.1395074047217432e7 0.0
2.1395074047217432e7 1.0368448745174736e7 0.0
0.0 0.0 0.0

-3.8300336101383264e6 8.192244772997558e6 0.0
8.192244772997558e6 1.0790676056805768e6 0.0
0.0 0.0 0.0

-5.625009823664358e6 4.434402995066612e6 0.0
4.434402995066612e6 4.76864386853187e6 0.0
0.0 0.0 0.0

6.511918939860428e6 2.6447216902578518e7 0.0
2.6447216902578518e7 -4.932149206520766e6 0.0
0.0 0.0 0.0

-1.0695472239581015e7 1.0129790683264335e6 0.0
1.0129790683264335e6 2.9110342844896857e7 0.0
0.0 0.0 0.0

937131.3778645452 1.5231685715506043e7 0.0
1.5231685715506043e7 -1.3652025518758168e7 0.0
0.0 0.0 0.0

909003.8638755239 1.75435368261694e7 0.0
1.75435368261694e7 2.071982489924696e6 0.0
0.0 0.0 0.0

1.3213959154108163e7 2.2563868472161558e7 0.0
2.2563868472161558e7 -3.943337060026761e6 0.0
0.0 0.0 0.0

909846.9443147061 1.6106300032005755e7 0.0
1.6106300032005755e7 -1.6653714555461675e7 0.0
0.0 0.0 0.0

6.86800228044787e6 1.7979011427697428e7 0.0
1.7979011427697428e7 2.6336999948400956e7 0.0
0.0 0.0 0.0

-7.731121558069035e6 2.5807027049278833e7 0.0
2.5807027049278833e7 6.184021743226637e6 0.0
0.0 0.0 0.0

-9.608249472322702e6 1.3950485714288522e6 0.0
1.3950485714288522e6 3.6469468813262634e7 0.0
0.0 0.0 0.0

6772.730087893899 2.580570687811254e7 0.0
2.580570687811254e7 -2.2652828496913444e6 0.0
0.0 0.0 0.0

-630228.6137812398 1.877265081331146e7 0.0
1.877265081331146e7 1.710452077596978e7 0.0
0.0 0.0 0.0

2.0036446179841273e6 1.0769713416247835e7 0.0
1.0769713416247835e7 -1.9107744447710138e7 0.0
0.0 0.0 0.0

3.6843711544596218e6 4.892184383677327e6 0.0
4.892184383677327e6 -3.52133362773005e7 0.0
0.0 0.0 0.0

-2.5565421539309127e6 2.1226928193374313e7 0.0
2.1226928193374313e7 -2.720794575256488e6 0.0
0.0 0.0 0.0

-8.328779983075536e6 1.0517146927512975e7 0.0
1.0517146927512975e7 1.4652814876314888e7 0.0
0.0 0.0 0.0

-9.198305443866456e6 1.5757546238657195e7 0.0
1.5757546238657195e7 2.715297531063146e7 0.0
0.0 0.0 0.0

-495329.33949873224 1.57320848736961e7 0.0
1.57320848736961e7 -2.2231680019970454e7 0.0
0.0 0.0 0.0

-1.922241335565718e6 1.3174359460115414e7 0.0
1.3174359460115414e7 -4.611225364679491e7 0.0
0.0 0.0 0.0

364138.740781844 2.6344164616161905e7 0.0
2.6344164616161905e7 -2.2185224603281342e6 0.0
0.0 0.0 0.0

-1.0931641660521738e6 1.827679342341407e7 0.0
1.827679342341407e7 7.751647737708776e6 0.0
0.0 0.0 0.0

-3.3754552160746306e7 1.2233396450156672e7 0.0
1.2233396450156672e7 8.59708189056884e6 0.0
0.0 0.0 0.0

7.510090707882394e6 1.8395008587584544e7 0.0
1.8395008587584544e7 2.9817723800964516e7 0.0
0.0 0.0 0.0

-3.130717121579516e7 3.0237417865242638e7 0.0
3.0237417865242638e7 7.516923845250752e6 0.0
0.0 0.0 0.0

1.9940888914683629e6 1.0409940353426922e7 0.0
1.0409940353426922e7 -2.742587286588623e7 0.0
0.0 0.0 0.0

6.707316988129361e6 5.491226170365385e6 0.0
5.491226170365385e6 -1.3028373789510191e6 0.0
0.0 0.0 0.0

-1.73714190706463e7 -27499.122045176588 0.0
-27499.122045176588 7.02144200197421e6 0.0
0.0 0.0 0.0

-7.465117198525933e6 9.367593591693135e6 0.0
9.367593591693135e6 1.2635167645503901e7 0.0
0.0 0.0 0.0

-1.0180991780054003e7 2.645389994231458e6 0.0
2.645389994231458e6 3.463064041549628e7 0.0
0.0 0.0 0.0

-1.1454211885862095e7 3.0875336603496596e6 0.0
3.0875336603496596e6 2.8674493354793426e7 0.0
0.0 0.0 0.0

65769.55720218644 1.769329423812333e7 0.0
1.769329423812333e7 -1.5259192611682689e7 0.0
0.0 0.0 0.0

-2.286985093969901e6 1.4861149299476033e7 0.0
1.4861149299476033e7 -7.623283812285831e6 0.0
0.0 0.0 0.0

1.9233347924969872e6 1.558602660966625e7 0.0
1.558602660966625e7 6.411116114033827e6 0.0
0.0 0.0 0.0

823576.3104929177 1.726811096167545e7 0.0
1.726811096167545e7 -629438.0974230308 0.0
0.0 0.0 0.0

767728.5170504613 2.6872928160370708e7 0.0
2.6872928160370708e7 -2.130313039863992e6 0.0
0.0 0.0 0.0

-1.1243427621199336e7 9.799566398557568e6 0.0
9.799566398557568e6 1.9146266364233546e7 0.0
0.0 0.0 0.0

291410.7959337812 1.6687043765204305e7 0.0
1.6687043765204305e7 -1.565772541076596e7 0.0
0.0 0.0 0.0

-3.255565566903243e6 2.3079163014261913e7 0.0
2.3079163014261913e7 2.765046855404946e6 0.0
0.0 0.0 0.0

2.2578341217329707e6 8.553560119452575e6 0.0
8.553560119452575e6 -3.206759287947184e7 0.0
0.0 0.0 0.0

-1.0550563102325687e7 1.9420793571762482e6 0.0
1.9420793571762482e6 3.110744911925461e7 0.0
0.0 0.0 0.0

157993.21470168908 2.521248155431914e7 0.0
2.521248155431914e7 -3.1043234088210207e6 0.0
0.0 0.0 0.0

-1.1976488288875143e6 1.8270409549385175e7 0.0
1.8270409549385175e7 5.494197980742258e6 0.0
0.0 0.0 0.0

-1.3318165908478792e6 1.8433699674602065e7 0.0
1.8433699674602065e7 3.2590391139423726e6 0.0
0.0 0.0 0.0

-5.6628540138530955e6 2.163633190303419e7 0.0
2.163633190303419e7 -9.948507463564685e6 0.0
0.0 0.0 0.0

5.242377487035107e6 1.5691411548349854e7 0.0
1.5691411548349854e7 1.9069455843866087e7 0.0
0.0 0.0 0.0

-6.009325460091485e6 2.0740162558626596e7 0.0
2.0740162558626596e7 -8.254731832012329e6 0.0
0.0 0.0 0.0

-8.335475570643658e6 1.350176722393559e7 0.0
1.350176722393559e7 3.3402491380130246e7 0.0
0.0 0.0 0.0

-1.0211380668377845e7 1.3434719146460532e6 0.0
1.3434719146460532e6 3.6161363345528685e7 0.0
0.0 0.0 0.0

2.6560217806604896e6 1.035725280783553e7 0.0
1.035725280783553e7 -1.842801483435729e7 0.0
0.0 0.0 0.0

2.8824180784664173e6 5.645501017930237e6 0.0
5.645501017930237e6 -3.6171565629248425e7 0.0
0.0 0.0 0.0

729011.6493654465 1.7112528986879624e7 0.0
1.7112528986879624e7 -1.450909840329433e7 0.0
0.0 0.0 0.0

5.553040393578418e6 2.050767831190331e7 0.0
2.050767831190331e7 8.329139487181423e6 0.0
0.0 0.0 0.0

2.926444256898729e6 6.693913350398841e6 0.0
6.693913350398841e6 -1.7127422721056692e7 0.0
0.0 0.0 0.0

-5.892920642591858e6 1.6303321949037654e7 0.0
1.6303321949037654e7 -2.6910358508204248e7 0.0
0.0 0.0 0.0

-1.452118390781235e6 1.2871469327184707e7 0.0
1.2871469327184707e7 -4.292532945877061e7 0.0
0.0 0.0 0.0

-4.829992772418225e6 1.5816389307902781e7 0.0
1.5816389307902781e7 4.942846352850284e6 0.0
0.0 0.0 0.0

-5.9347766859759595e6 2.314062479707232e7 0.0
2.314062479707232e7 8.216401019622611e6 0.0
0.0 0.0 0.0

-8.101522722751855e6 2.1492680985577665e7 0.0
2.1492680985577665e7 -8.533567037086733e6 0.0
0.0 0.0 0.0

-8.703030932632811e6 2.410038983992282e6 0.0
2.410038983992282e6 4.50316493649431e7 0.0
0.0 0.0 0.0

-980722.1525017302 1.2729141227082698e7 0.0
1.2729141227082698e7 -4.018474709444389e7 0.0
0.0 0.0 0.0

-8.044786432246538e6 1.2837609744674942e7 0.0
1.2837609744674942e7 3.58715252694573e7 0.0
0.0 0.0 0.0

-1.6171153468479107e6 1.8595743870192748e7 0.0
1.8595743870192748e7 1.022611462661825e6 0.0
0.0 0.0 0.0

-220081.58812970237 2.6578826910185616e7 0.0
2.6578826910185616e7 -2.590636031745908e6 0.0
0.0 0.0 0.0

-1.2222208865247808e7 2.5422837120313276e7 0.0
2.5422837120313276e7 5.281860146881754e6 0.0
0.0 0.0 0.0

-9.977456403549915e6 1.4924611817422139e7 0.0
1.4924611817422139e7 2.6976677110484935e7 0.0
0.0 0.0 0.0

-4.133824797271802e6 1.4175604124924853e7 0.0
1.4175604124924853e7 -1.5148885920818046e7 0.0
0.0 0.0 0.0

3.416015283595889e6 1.6565743549685132e7 0.0
1.6565743549685132e7 1.199931964055387e7 0.0
0.0 0.0 0.0

2.654878710867543e6 6.994611892675968e6 0.0
6.994611892675968e6 -3.3092479307008356e7 0.0
0.0 0.0 0.0

1.557602783978654e6 8.781764694469778e6 0.0
8.781764694469778e6 -1.2564327306033518e7 0.0
0.0 0.0 0.0

-9.715305319315486e6 1.0580145787539776e7 0.0
1.0580145787539776e7 3.51804035137017e7 0.0
0.0 0.0 0.0

-3.7211449805874154e6 2.0086456924329124e7 0.0
2.0086456924329124e7 1.1059952517423747e7 0.0
0.0 0.0 0.0

-2.9891089576256707e7 2.5810713135694236e7 0.0
2.5810713135694236e7 2.5427360755191073e6 0.0
0.0 0.0 0.0

84365.55836297292 1.4296192243329542e7 0.0
1.4296192243329542e7 -2.441933780324714e7 0.0
0.0 0.0 0.0

1.8231032766864095e6 9.90406536853305e6 0.0
9.90406536853305e6 -3.0922813840579294e7 0.0
0.0 0.0 0.0

-529429.3158314414 1.2714580769306885e7 0.0
1.2714580769306885e7 -3.76410081528835e7 0.0
0.0 0.0 0.0

2.811824225562705e6 4.401040072920973e6 0.0
4.401040072920973e6 -9.566260446480166e6 0.0
0.0 0.0 0.0

41258.25257701753 1.894606704616835e7 0.0
1.894606704616835e7 -1.0349038667267893e7 0.0
0.0 0.0 0.0

1.13396362812331e6 2.034291399095882e7 0.0
2.034291399095882e7 -8.72296476733802e6 0.0
0.0 0.0 0.0

-1.8550925974785976e7 3.317896213963228e7 0.0
3.317896213963228e7 6.861204834879141e6 0.0
0.0 0.0 0.0

1.7073485601091397e6 4.441581957106496e6 0.0
4.441581957106496e6 -5.667154806332502e6 0.0
0.0 0.0 0.0

-328396.0141469948 1.695159848594332e7 0.0
1.695159848594332e7 -1.7570597821938194e7 0.0
0.0 0.0 0.0

-8.550597010048738e6 1.707994916979895e7 0.0
1.707994916979895e7 2.326611210692135e7 0.0
0.0 0.0 0.0

-1.0766936177575283e7 1.7276552558474233e6 0.0
1.7276552558474233e6 2.5698161263710678e7 0.0
0.0 0.0 0.0

3.3199148585517295e6 5.323019762991743e6 0.0
5.323019762991743e6 -3.027576736700855e7 0.0
0.0 0.0 0.0

-1.1396585897493515e7 4.408916931210263e6 0.0
4.408916931210263e6 2.5365047426545337e7 0.0
0.0 0.0 0.0

-1.090256994933545e7 4.561735539430526e6 0.0
4.561735539430526e6 3.0361017311752252e7 0.0
0.0 0.0 0.0

-9.322320336887944e6 9.213972661048295e6 0.0
9.213972661048295e6 1.6113899440541593e7 0.0
0.0 0.0 0.0

-4.607274323337482e6 2.1354913925478436e7 0.0
2.1354913925478436e7 1.1213462055616818e7 0.0
0.0 0.0 0.0

-2.1458989735366134e6 1.1871444219800737e7 0.0
1.1871444219800737e7 77292.05249983724 0.0
0.0 0.0 0.0

1.8330327795573603e7 5.873702314836551e6 0.0
5.873702314836551e6 -2.763859055147378e6 0.0
0.0 0.0 0.0

-3.1566785974217184e7 1.9111679039516996e6 0.0
1.9111679039516996e6 7.599254646185618e6 0.0
0.0 0.0 0.0

2.8510148497195207e6 8.188374412371485e6 0.0
8.188374412371485e6 -1.3388978902231675e7 0.0
0.0 0.0 0.0

2.552320135041656e6 9.482230369805923e6 0.0
9.482230369805923e6 -3.0285670221802294e7 0.0
0.0 0.0 0.0

3.028626330830885e6 7.984913721239772e6 0.0
7.984913721239772e6 -3.1209569645220518e7 0.0
0.0 0.0 0.0

423249.51875339245 1.8061605550982258e6 0.0
1.8061605550982258e6 1.5057365228233777e6 0.0
0.0 0.0 0.0

-3.020164717097166e6 -1.213398739107279e6 0.0
-1.213398739107279e6 3.6535717896639872e6 0.0
0.0 0.0 0.0

-3.782998406107335e6 1.6311229214555828e7 0.0
1.6311229214555828e7 -2.446085028497109e7 0.0
0.0 0.0 0.0

3.051633324176235e6 5.619953071376236e6 0.0
5.619953071376236e6 -3.398208010230841e7 0.0
0.0 0.0 0.0

-2.258778513919795e7 2.3911559875021033e7 0.0
2.3911559875021033e7 -8.273724663559893e6 0.0
0.0 0.0 0.0

-6.115536559221965e6 1.897237298836373e7 0.0
1.897237298836373e7 1.5325394647944108e7 0.0
0.0 0.0 0.0

240227.4821733511 2.459256953928215e7 0.0
2.459256953928215e7 -3.909840934467782e6 0.0
0.0 0.0 0.0

4.504684677319771e6 1.5520054831139531e7 0.0
1.5520054831139531e7 1.6658797121931719e7 0.0
0.0 0.0 0.0

1.020703522097912e7 1.0954396914147401e7 0.0
1.0954396914147401e7 1.2477522627894392e6 0.0
0.0 0.0 0.0

-1.0836944385114549e7 2.390735806687579e7 0.0
2.390735806687579e7 -8.416131372292155e6 0.0
0.0 0.0 0.0

-9.707804201235717e6 5.1703969994083615e6 0.0
5.1703969994083615e6 3.907850989447946e7 0.0
0.0 0.0 0.0

-5.769396651530032e6 2.239029422238504e7 0.0
2.239029422238504e7 8.561018237946242e6 0.0
0.0 0.0 0.0

1.6439873698471892e6 2.042400999517068e7 0.0
2.042400999517068e7 -7.71531171984884e6 0.0
0.0 0.0 0.0

-8.178839431030659e6 1.7432088620442633e7 0.0
1.7432088620442633e7 2.2295793232880503e7 0.0
0.0 0.0 0.0

-9.777744843519997e6 -2.0669968006431824e6 0.0
-2.0669968006431824e6 2.5380082169089112e7 0.0
0.0 0.0 0.0

-878789.3698187578 2.548430594454957e7 0.0
2.548430594454957e7 -2.7685387678417386e6 0.0
0.0 0.0 0.0

2.0815781402270012e6 9.800102372062562e6 0.0
9.800102372062562e6 -2.89929237517662e7 0.0
0.0 0.0 0.0

1.6964515539992112e6 2.3828562029848985e7 0.0
2.3828562029848985e7 -5.698144580995629e6 0.0
0.0 0.0 0.0

3.4413056715678666e6 6.551831853142064e6 0.0
6.551831853142064e6 -3.2387101314059332e7 0.0
0.0 0.0 0.0

4.632470516255855e6 1.752651711525064e7 0.0
1.752651711525064e7 1.5032609317290008e7 0.0
0.0 0.0 0.0

-970278.1633726691 1.949346523700487e7 0.0
1.949346523700487e7 -9.002564204412747e6 0.0
0.0 0.0 0.0

-1.0793966369464183e7 1.6539095831407423e6 0.0
1.6539095831407423e6 1.4834444078880899e7 0.0
0.0 0.0 0.0

-2.108012050170227e6 1.4750527436026087e7 0.0
1.4750527436026087e7 -7.9715949458987005e6 0.0
0.0 0.0 0.0

3.8125302097953986e6 4.9490688394520525e6 0.0
4.9490688394520525e6 -3.295444893932443e7 0.0
0.0 0.0 0.0

1.0694033831879642e7 2.3853811041102093e7 0.0
2.3853811041102093e7 -4.793282739272425e6 0.0
0.0 0.0 0.0

2.6146612221812624e6 7.3735428998542335e6 0.0
7.3735428998542335e6 -1.6125513126328297e7 0.0
0.0 0.0 0.0

-1.2519617924722211e7 5.71303767446278e6 0.0
5.71303767446278e6 1.8744756947022412e7 0.0
0.0 0.0 0.0

-3.453254537779254e6 2.5483845856942534e7 0.0
2.5483845856942534e7 3.0633135936622913e6 0.0
0.0 0.0 0.0

-369094.0958697293 1.2721430796152448e7 0.0
1.2721430796152448e7 -3.5179616300549805e7 0.0
0.0 0.0 0.0

-4.0941194321264555e6 1.5001686575647945e7 0.0
1.5001686575647945e7 -1.364706484884108e7 0.0
0.0 0.0 0.0

3.3144946658033403e6 1.5802868908687912e7 0.0
1.5802868908687912e7 1.1048315858514175e7 0.0
0.0 0.0 0.0

-2.740508065098671e6 1.246069760579931e7 0.0
1.246069760579931e7 1.595449906235142e6 0.0
0.0 0.0 0.0

-5.99149083241035e6 1.4461474436559817e7 0.0
1.4461474436559817e7 7.803876603397399e6 0.0
0.0 0.0 0.0

1.3544055528730773e6 1.8067010048478156e7 0.0
1.8067010048478156e7 1.5886037189491607e7 0.0
0.0 0.0 0.0

-1.0118188175039757e7 -605038.1774344475 0.0
-605038.1774344475 2.2194321488673203e7 0.0
0.0 0.0 0.0

1.3160604482816416e6 1.904668136421554e7 0.0
1.904668136421554e7 4.230126797499094e6 0.0
0.0 0.0 0.0

-4.563925751909105e6 2.082211002882306e7 0.0
2.082211002882306e7 1.158605906091278e7 0.0
0.0 0.0 0.0

2.3495033081038715e6 7.524026527601368e6 0.0
7.524026527601368e6 -1.4434839152884772e7 0.0
0.0 0.0 0.0

-1.1928066186789824e7 2.901689125704816e6 0.0
2.901689125704816e6 2.336113969127028e7 0.0
0.0 0.0 0.0

-4.839238530460047e6 2.0295970116868988e7 0.0
2.0295970116868988e7 -6.962675721408118e6 0.0
0.0 0.0 0.0

-8.500197045085378e6 1.7668843573972758e7 0.0
1.7668843573972758e7 2.121793721636205e7 0.0
0.0 0.0 0.0

-904808.9826073833 1.866814060587149e7 0.0
1.866814060587149e7 1.3893143124758076e7 0.0
0.0 0.0 0.0

-1.1804594104858773e7 7.077081996909894e6 0.0
7.077081996909894e6 2.496796737386321e7 0.0
0.0 0.0 0.0

1.0069273453891585e6 2.004491565922457e7 0.0
2.004491565922457e7 -9.464085377774276e6 0.0
0.0 0.0 0.0

-5.5806168378648e6 2.5070709722025707e7 0.0
2.5070709722025707e7 6.611006649959808e6 0.0
0.0 0.0 0.0

-1.016763705169696e7 8.86887912144633e6 0.0
8.86887912144633e6 3.487493070763902e7 0.0
0.0 0.0 0.0

-9.477602172024356e6 1.1524311706146339e7 0.0
1.1524311706146339e7 1.2720809960857738e7 0.0
0.0 0.0 0.0

-1.059269304765581e7 2.610186859699834e6 0.0
2.610186859699834e6 3.3968761940158434e7 0.0
0.0 0.0 0.0

427208.7322428357 1.619301455772927e7 0.0
1.619301455772927e7 -1.6791796121172853e7 0.0
0.0 0.0 0.0

-5.289347483206113e6 2.256946258081693e7 0.0
2.256946258081693e7 9.23630627292981e6 0.0
0.0 0.0 0.0

-1.970343537921155e6 1.8793914098481342e7 0.0
1.8793914098481342e7 -1.118418588453539e6 0.0
0.0 0.0 0.0

3.2208485314059462e6 8.329803531583313e6 0.0
8.329803531583313e6 -1.7420820658056907e7 0.0
0.0 0.0 0.0

-9.974957186247962e6 -1.0869463218187522e6 0.0
-1.0869463218187522e6 2.8444565972127307e7 0.0
0.0 0.0 0.0

-5.111965864810158e6 1.5084220730832394e7 0.0
1.5084220730832394e7 3.766035714405992e7 0.0
0.0 0.0 0.0

-8.585555829972852e6 1.1629707312415015e7 0.0
1.1629707312415015e7 3.748767986552543e7 0.0
0.0 0.0 0.0

930421.0753618358 1.795067258542709e7 0.0
1.795067258542709e7 9.816660777893517e6 0.0
0.0 0.0 0.0

-1.239426489043352e7 5.589059986986153e6 0.0
5.589059986986153e6 2.2982480296857852e7 0.0
0.0 0.0 0.0

-4.974276203146897e6 1.3859627508298408e7 0.0
1.3859627508298408e7 8.86771684636286e6 0.0
0.0 0.0 0.0

-1.263512707020077e6 1.8561543879584134e7 0.0
1.8561543879584134e7 -5.795123791954257e6 0.0
0.0 0.0 0.0

481125.1188952336 1.4719474607428787e7 0.0
1.4719474607428787e7 -1.4464775364604823e7 0.0
0.0 0.0 0.0

-4.400226915244311e6 2.0815700223917194e7 0.0
2.0815700223917194e7 1.2771534438613072e7 0.0
0.0 0.0 0.0

-4.1019716405220367e6 2.822401672977205e7 0.0
2.822401672977205e7 4.135511341213363e6 0.0
0.0 0.0 0.0

-1.0929619564763945e7 1.225196504544071e7 0.0
1.225196504544071e7 2.839507432565239e7 0.0
0.0 0.0 0.0

6.733585241094772e6 1.5985739132735796e7 0.0
1.5985739132735796e7 2.459035036763286e7 0.0
0.0 0.0 0.0

-8688.573462837376 1.8196675866511364e7 0.0
1.8196675866511364e7 -8.558517057376929e6 0.0
0.0 0.0 0.0

2.6764610457626376e6 1.0697267976281406e7 0.0
1.0697267976281406e7 -2.2362634006009243e7 0.0
0.0 0.0 0.0

3.676314696731681e6 3.220294739913324e6 0.0
3.220294739913324e6 -3.541672456151761e7 0.0
0.0 0.0 0.0

-1.0077370253733315e7 -648093.2652115207 0.0
-648093.2652115207 3.1743075680513255e7 0.0
0.0 0.0 0.0

-3.8883074884244986e6 2.079499934299817e7 0.0
2.079499934299817e7 1.1685411331061387e7 0.0
0.0 0.0 0.0

-3.6059201793495994e6 1.5549574229330987e7 0.0
1.5549574229330987e7 1.5060195446111182e7 0.0
0.0 0.0 0.0

-953426.3983428665 1.5701525547185073e7 0.0
1.5701525547185073e7 5.551180260767203e7 0.0
0.0 0.0 0.0

318461.5472671557 1.4037568365459261e7 0.0
1.4037568365459261e7 -1.3399346995479621e7 0.0
0.0 0.0 0.0

5.386858610897639e6 1.6323945307154914e7 0.0
1.6323945307154914e7 1.7956195871040143e7 0.0
0.0 0.0 0.0

-1.0869468282093128e7 -953651.7516063282 0.0
-953651.7516063282 2.325374159820266e7 0.0
0.0 0.0 0.0

-2.1944802112048928e7 649186.5411990229 0.0
649186.5411990229 8.76610846612021e6 0.0
0.0 0.0 0.0

2.4674687135593053e6 9.230290268017484e6 0.0
9.230290268017484e6 -2.650655920073132e7 0.0
0.0 0.0 0.0

-1.203214034738403e7 3.3759385582550587e6 0.0
3.3759385582550587e6 2.02693908007945e7 0.0
0.0 0.0 0.0

1.7617356421826351e6 1.0456327882098641e7 0.0
1.0456327882098641e7 -2.9302573845958993e7 0.0
0.0 0.0 0.0

-8.126883339494571e6 1.5903116131239578e7 0.0
1.5903116131239578e7 2.8204746595437534e7 0.0
0.0 0.0 0.0

4.307648947452382e6 3.6973929188672025e6 0.0
3.6973929188672025e6 -2.257266154645354e7 0.0
0.0 0.0 0.0

8.353613476482058e6 2.471113037714769e7 0.0
2.471113037714769e7 -5.019775642725231e6 0.0
0.0 0.0 0.0

-2.1106304549273066e6 1.3608168291040113e7 0.0
1.3608168291040113e7 -980693.5155731265 0.0
0.0 0.0 0.0

1.1281304813471322e6 6.427472503809137e6 0.0
6.427472503809137e6 -4.357466502440577e6 0.0
0.0 0.0 0.0

2.6191708096479353e7 5.930092441047416e6 0.0
5.930092441047416e6 -2.5395546123191547e6 0.0
0.0 0.0 0.0

-6.523064157885181e6 1.6287176847743692e7 0.0
1.6287176847743692e7 2.833296966553441e7 0.0
0.0 0.0 0.0

-868232.5651609476 1.0140815179532679e7 0.0
1.0140815179532679e7 -6.007403602212481e6 0.0
0.0 0.0 0.0

-1.1272587097354554e7 3.9349390696985135e6 0.0
3.9349390696985135e6 3.1796592356580645e7 0.0
0.0 0.0 0.0

2.014068855320834e6 5.455259874942241e6 0.0
5.455259874942241e6 -9.374946847781718e6 0.0
0.0 0.0 0.0

-4.259034299536034e6 1.9882235123251285e7 0.0
1.9882235123251285e7 -5.222707588600463e6 0.0
0.0 0.0 0.0

-4.935198518373992e6 1.9091427173204053e7 0.0
1.9091427173204053e7 1.5428383227630312e7 0.0
0.0 0.0 0.0

-1.1786155489062855e7 7.188097712563854e6 0.0
7.188097712563854e6 2.0681431965288904e7 0.0
0.0 0.0 0.0

2.7715140294796657e6 7.983689322617318e6 0.0
7.983689322617318e6 -2.7273140565593764e7 0.0
0.0 0.0 0.0

-4.740072900686574e6 1.5332916321933206e7 0.0
1.5332916321933206e7 -3.270842099567324e7 0.0
0.0 0.0 0.0

-5.966220962643435e6 6.365651939334078e6 0.0
6.365651939334078e6 5.294328951284111e6 0.0
0.0 0.0 0.0

3.820006071720374e6 3.9215193460738375e6 0.0
3.9215193460738375e6 -2.0784739935514033e7 0.0
0.0 0.0 0.0

-320237.8169065546 1.6875227374957133e7 0.0
1.6875227374957133e7 -1.241711980815689e7 0.0
0.0 0.0 0.0

1.5494668576054864e7 1.9866409691878874e7 0.0
1.9866409691878874e7 4.521448989003204e6 0.0
0.0 0.0 0.0

3.464492529422261e6 5.783778075132159e6 0.0
5.783778075132159e6 -3.587043119467119e7 0.0
0.0 0.0 0.0

-1.2573446823963063e7 -464905.04957921756 0.0
-464905.04957921756 5.764054291398824e6 0.0
0.0 0.0 0.0

-7.282682262261159e6 1.7717953965624735e7 0.0
1.7717953965624735e7 1.9812553271188743e7 0.0
0.0 0.0 0.0

-1.7265291038182992e6 8.526798370488195e6 0.0
8.526798370488195e6 815613.9010667077 0.0
0.0 0.0 0.0

-1.1837599906053754e7 6.467571576456422e6 0.0
6.467571576456422e6 2.248364101963759e7 0.0
0.0 0.0 0.0

3.0108118622307386e6 6.136352015879322e6 0.0
6.136352015879322e6 -4.1294092497962564e7 0.0
0.0 0.0 0.0

7.909816530121858e6 1.704264992908621e7 0.0
1.704264992908621e7 2.6366055561245896e7 0.0
0.0 0.0 0.0

6.829012210919399e6 2.134439951377279e7 0.0
2.134439951377279e7 1.0866686383643927e7 0.0
0.0 0.0 0.0

-4.282900161240393e6 1.6339763382331036e7 0.0
1.6339763382331036e7 -1.9939209226748932e7 0.0
0.0 0.0 0.0

57512.551490994636 1.2954613719475597e7 0.0
1.2954613719475597e7 -1.1411357294620138e7 0.0
0.0 0.0 0.0

-4.376640896002389e6 1.9752165088994976e7 0.0
1.9752165088994976e7 1.4374312811660323e7 0.0
0.0 0.0 0.0

7.82203163890977e6 1.9036088610363357e7 0.0
1.9036088610363357e7 -504344.18756684894 0.0
0.0 0.0 0.0

2.1130407027643584e6 1.0395632203791536e7 0.0
1.0395632203791536e7 -2.5682123648363233e7 0.0
0.0 0.0 0.0

106047.37038798328 2.7127786996603757e7 0.0
2.7127786996603757e7 -2.5310294729735637e6 0.0
0.0 0.0 0.0

-391438.75764410733 1.64750123976987e7 0.0
1.64750123976987e7 3.594285061849252e6 0.0
0.0 0.0 0.0

-6.157350991256494e7 4.873744466563639e6 0.0
4.873744466563639e6 5.397461817775063e6 0.0
0.0 0.0 0.0

4.71030184422722e7 6.773598466690449e6 0.0
6.773598466690449e6 -1.4011140811652616e6 0.0
0.0 0.0 0.0

2.7283931932489774e6 1.9357978180612676e7 0.0
1.9357978180612676e7 7.857214128976679e6 0.0
0.0 0.0 0.0

-5.679890296923278e6 7.112782621327785e6 0.0
7.112782621327785e6 2.539768794795213e7 0.0
0.0 0.0 0.0

113550.53073668294 1.832736635383416e7 0.0
1.832736635383416e7 1.3799728611356663e7 0.0
0.0 0.0 0.0

831289.8108569472 2.2802583811813314e7 0.0
2.2802583811813314e7 -6.827123584724005e6 0.0
0.0 0.0 0.0

4.071269567986304e6 1.837005798920051e7 0.0
1.837005798920051e7 1.3570899324424503e7 0.0
0.0 0.0 0.0

-1.1532883228552923e7 6.187878357251162e6 0.0
6.187878357251162e6 1.998710170639266e7 0.0
0.0 0.0 0.0

-3.7568259985762723e6 1.9483566676833287e7 0.0
1.9483566676833287e7 9.47270951272088e6 0.0
0.0 0.0 0.0

-4.009244921302794e7 3.1624127818561416e7 0.0
3.1624127818561416e7 -5.396225316697598e6 0.0
0.0 0.0 0.0

3.65453547934616e6 4.392949066273384e6 0.0
4.392949066273384e6 -2.556547656517768e7 0.0
0.0 0.0 0.0

-2.3875471420509145e6 1.90650133883793e7 0.0
1.90650133883793e7 -3.125839346975599e6 0.0
0.0 0.0 0.0

7.30047222397038e6 1.6160026376756653e7 0.0
1.6160026376756653e7 2.796235668742563e7 0.0
0.0 0.0 0.0

-5.858909117980058e6 1.5254541053486537e7 0.0
1.5254541053486537e7 -1.952969721108457e7 0.0
0.0 0.0 0.0

4.686912397260666e6 1.6101375000823064e7 0.0
1.6101375000823064e7 1.5623041922667941e7 0.0
0.0 0.0 0.0

-57520.056354233995 1.296118579145694e7 0.0
1.296118579145694e7 -3.3193945355293248e7 0.0
0.0 0.0 0.0

-1.0426858965657678e7 446888.76843181386 0.0
446888.76843181386 2.502946489154288e7 0.0
0.0 0.0 0.0

-1.6051288381511863e7 2.7712657249917798e7 0.0
2.7712657249917798e7 6.371605493516866e6 0.0
0.0 0.0 0.0

2.5581483454794195e6 7.88605009047899e6 0.0
7.88605009047899e6 -1.6840571517162766e7 0.0
0.0 0.0 0.0

-6.595990051638471e6 1.6695559460332159e7 0.0
1.6695559460332159e7 2.6865794102778606e7 0.0
0.0 0.0 0.0

-1.1878629036702726e7 3.6206311519119693e6 0.0
3.6206311519119693e6 1.6754597499237515e7 0.0
0.0 0.0 0.0

-4.520620689720346e6 2.7616952814254783e7 0.0
2.7616952814254783e7 4.721602142135055e6 0.0
0.0 0.0 0.0

-1.0125609811049e7 3.1220839329159465e7 0.0
3.1220839329159465e7 5.935979317202114e6 0.0
0.0 0.0 0.0

-1.1143647525965828e7 -1.1925955584679462e6 0.0
-1.1925955584679462e6 6.988001110031484e6 0.0
0.0 0.0 0.0

-2.4628385109091317e6 1.5718978782432668e7 0.0
1.5718978782432668e7 -9.77176614989007e6 0.0
0.0 0.0 0.0

548076.4134912314 2.2294481505777717e7 0.0
2.2294481505777717e7 -7.0394202979183905e6 0.0
0.0 0.0 0.0

-7.592179129534651e6 2.876162427602298e6 0.0
2.876162427602298e6 7.979872688644726e6 0.0
0.0 0.0 0.0

6.3116442848823005e6 2.5188925317694902e7 0.0
2.5188925317694902e7 -5.1069465165743865e6 0.0
0.0 0.0 0.0

-1.227072637174492e7 4.701018277268505e6 0.0
4.701018277268505e6 1.788227882970424e7 0.0
0.0 0.0 0.0

3.47335572588099e6 4.719437386535194e6 0.0
4.719437386535194e6 -2.973527446025344e7 0.0
0.0 0.0 0.0

3.421193838581957e6 5.556474126535686e6 0.0
5.556474126535686e6 -2.6725284916856375e7 0.0
0.0 0.0 0.0

910234.4538805317 1.270629707481882e7 0.0
1.270629707481882e7 -1.4704435270766601e7 0.0
0.0 0.0 0.0

715004.7709986148 1.9960075269946214e7 0.0
1.9960075269946214e7 -1.0167854687530123e7 0.0
0.0 0.0 0.0

3.0316261641622726e6 5.508234784004092e6 0.0
5.508234784004092e6 -4.3688100244934954e7 0.0
0.0 0.0 0.0

-5.495979263672324e6 2.108481960621677e7 0.0
2.108481960621677e7 -1.0475738038346032e7 0.0
0.0 0.0 0.0

885662.4903867934 1.4418482334626447e7 0.0
1.4418482334626447e7 -2.024162074473702e7 0.0
0.0 0.0 0.0

-9.68185063524415e6 1.6756936268688895e7 0.0
1.6756936268688895e7 2.21871796912813e7 0.0
0.0 0.0 0.0

-4.515295834606061e6 2.0761203775697604e7 0.0
2.0761203775697604e7 -9.308488216617852e6 0.0
0.0 0.0 0.0

2.7902883533934094e6 1.0041291468403796e7 0.0
1.0041291468403796e7 -2.512747656820514e7 0.0
0.0 0.0 0.0

-2.8057967617642187e7 2.132346040644735e7 0.0
2.132346040644735e7 6.7330693639463335e6 0.0
0.0 0.0 0.0

3.538557963868495e6 3.9947023459308324e6 0.0
3.9947023459308324e6 -3.1012416734529976e7 0.0
0.0 0.0 0.0

3.9491283608174454e6 5.635260789516346e6 0.0
5.635260789516346e6 -2.6570229719755378e7 0.0
0.0 0.0 0.0

452768.4258715082 1.831761278455847e7 0.0
1.831761278455847e7 -1.2796344602741838e7 0.0
0.0 0.0 0.0

-1.6797080283724375e7 -853770.6399976074 0.0
-853770.6399976074 8.491233328933343e6 0.0
0.0 0.0 0.0

1.678421994573011e6 1.0079085138904383e7 0.0
1.0079085138904383e7 -1.0496542107115041e7 0.0
0.0 0.0 0.0

-2.223705589600728e6 1.6822952031471897e7 0.0
1.6822952031471897e7 1.9047542644237168e7 0.0
0.0 0.0 0.0

-3.6101422615334755e6 2.6490693033289015e7 0.0
2.6490693033289015e7 4.523786882730936e6 0.0
0.0 0.0 0.0

-5.353028520625605e6 2.8106329185943957e7 0.0
2.8106329185943957e7 5.009410087212609e6 0.0
0.0 0.0 0.0

-1.2531178109621411e7 7.208074263541964e6 0.0
7.208074263541964e6 1.8138876122683674e7 0.0
0.0 0.0 0.0

-4.4974444299278855e6 1.2706712392148092e7 0.0
1.2706712392148092e7 5.239972115237337e7 0.0
0.0 0.0 0.0

-2.7049198195073754e6 2.6848157214674093e7 0.0
2.6848157214674093e7 3.057828814856262e6 0.0
0.0 0.0 0.0

-3.2783629565402847e6 1.9349528934426006e7 0.0
1.9349528934426006e7 -1.2835799523384694e6 0.0
0.0 0.0 0.0

-23300.43695537187 1.7911689632679798e7 0.0
1.7911689632679798e7 -4.741896144436762e6 0.0
0.0 0.0 0.0

2.8924180303315815e7 2.1112549256363094e7 0.0
2.1112549256363094e7 1.107563477270588e7 0.0
0.0 0.0 0.0

-1.1643045569082828e7 8.485730640551649e6 0.0
8.485730640551649e6 1.999778758226101e7 0.0
0.0 0.0 0.0

4.129794807572635e6 4.200654467035197e6 0.0
4.200654467035197e6 -2.89694321399751e7 0.0
0.0 0.0 0.0

221135.34030591883 1.7453073338056188e7 0.0
1.7453073338056188e7 -1.1501700029208714e7 0.0
0.0 0.0 0.0

-3.0221846296091527e6 1.4762920586126054e7 0.0
1.4762920586126054e7 1.8305509100229554e6 0.0
0.0 0.0 0.0

-1.1926659588530306e7 1.7967434850679647e7 0.0
1.7967434850679647e7 4.749576922147754e6 0.0
0.0 0.0 0.0

-1.0117140867196238e7 596295.7139673455 0.0
596295.7139673455 3.0590344679978013e7 0.0
0.0 0.0 0.0

-6.4813259733803816e7 4.034776586923862e7 0.0
4.034776586923862e7 -1.1224440535450991e7 0.0
0.0 0.0 0.0

-8.610844166123291e6 1.5980051830105389e7 0.0
1.5980051830105389e7 -2.870281470555136e7 0.0
0.0 0.0 0.0

6.9716828491202565e6 1.6744205959773434e7 0.0
1.6744205959773434e7 2.3238943600627333e7 0.0
0.0 0.0 0.0

1.0982530269018402e6 1.3497032822609348e7 0.0
1.3497032822609348e7 -2.277037695958003e7 0.0
0.0 0.0 0.0

-1.1419709846751742e7 2.26314445332041e7 0.0
2.26314445332041e7 -2.727318079943696e6 0.0
0.0 0.0 0.0

3.0145297701077983e6 8.531607575908577e6 0.0
8.531607575908577e6 -1.5784436367439825e7 0.0
0.0 0.0 0.0

3.1439761671972647e6 8.817381016074633e6 0.0
8.817381016074633e6 -2.586027338128909e7 0.0
0.0 0.0 0.0

-5.641537671015109e6 1.8541378657789674e7 0.0
1.8541378657789674e7 1.698907807844457e7 0.0
0.0 0.0 0.0

1.9871563981544897e6 1.0967728337956099e7 0.0
1.0967728337956099e7 -2.4434622436096575e7 0.0
0.0 0.0 0.0

-3.9408106559519675e6 2.7060876323655557e7 0.0
2.7060876323655557e7 4.618655629156395e6 0.0
0.0 0.0 0.0

-1.193794086003204e7 5.75621975909079e6 0.0
5.75621975909079e6 2.7851166245428056e7 0.0
0.0 0.0 0.0

-9.652866896033771e6 -1.7520860451743545e6 0.0
-1.7520860451743545e6 2.3381881604798757e7 0.0
0.0 0.0 0.0

2.971510774026014e6 7.365611737451489e6 0.0
7.365611737451489e6 -2.6706280360625155e7 0.0
0.0 0.0 0.0

-9.705596658614703e6 2.143658889547266e7 0.0
2.143658889547266e7 -7.822733840378572e6 0.0
0.0 0.0 0.0

3.0904552274094587e6 2.9135440052366987e7 0.0
2.9135440052366987e7 -3.5889861724914173e6 0.0
0.0 0.0 0.0

-8.515396919953771e6 1.6972963575747885e7 0.0
1.6972963575747885e7 2.083095644708763e7 0.0
0.0 0.0 0.0

3.2190995312532503e6 6.013211372400343e6 0.0
6.013211372400343e6 -2.912811626970693e7 0.0
0.0 0.0 0.0

3.0971238831468504e6 6.085187984623085e6 0.0
6.085187984623085e6 -3.837786648613211e7 0.0
0.0 0.0 0.0

-7.415927643364485e6 1.1577943705137333e7 0.0
1.1577943705137333e7 4.219969258492693e7 0.0
0.0 0.0 0.0

-1.137670327503965e7 5.976706765947267e6 0.0
5.976706765947267e6 2.885610130697407e7 0.0
0.0 0.0 0.0

4.793197961365091e6 2.5310160109496515e7 0.0
2.5310160109496515e7 -5.099353126699743e6 0.0
0.0 0.0 0.0

-1.9568683648193458e6 2.0939997864439983e7 0.0
2.0939997864439983e7 -2.2529414409861485e6 0.0
0.0 0.0 0.0

-1.0561856776772596e7 4.0789726607764815e6 0.0
4.0789726607764815e6 3.2985262078119233e7 0.0
0.0 0.0 0.0

3.3216284617237113e6 4.976404142352348e6 0.0
4.976404142352348e6 -1.6618684546204435e7 0.0
0.0 0.0 0.0

-3.1956342886567144e6 2.1036344891926635e7 0.0
2.1036344891926635e7 587557.1763091548 0.0
0.0 0.0 0.0

-1.4756520876093805e7 2.211360600156684e7 0.0
2.211360600156684e7 -6.501458125816459e6 0.0
0.0 0.0 0.0

-1.0231455896564297e7 9.544230005345518e6 0.0
9.544230005345518e6 1.3199562910370987e7 0.0
0.0 0.0 0.0

3.867183283367995e6 5.51432221632687e6 0.0
5.51432221632687e6 -2.837979121345011e7 0.0
0.0 0.0 0.0

1.9785867066549016e6 1.0993721447238961e7 0.0
1.0993721447238961e7 -2.2838875532929644e7 0.0
0.0 0.0 0.0

-1.0429450313118454e7 -219797.7686490383 0.0
-219797.7686490383 1.5254024767142236e7 0.0
0.0 0.0 0.0

-1.194121465777153e7 8.525793551910494e6 0.0
8.525793551910494e6 2.3960823720018983e7 0.0
0.0 0.0 0.0

29416.003668027 1.3165640282780098e7 0.0
1.3165640282780098e7 -3.10158586305552e7 0.0
0.0 0.0 0.0

4.0709995323565993e6 5.06182674814682e6 0.0
5.06182674814682e6 -2.599340784465252e7 0.0
0.0 0.0 0.0

-2.423576925145749e6 2.071199151331821e7 0.0
2.071199151331821e7 -3.746194077050431e6 0.0
0.0 0.0 0.0

3.5015212714915257e6 7.524742398570308e6 0.0
7.524742398570308e6 -2.655145721013142e7 0.0
0.0 0.0 0.0

-9.974073388840565e6 1.5333627956606438e6 0.0
1.5333627956606438e6 1.7639029905889027e7 0.0
0.0 0.0 0.0

-1.2367591553131947e7 1.7712739166204803e7 0.0
1.7712739166204803e7 -4.122530813513893e7 0.0
0.0 0.0 0.0

1.058147275500789e7 1.8154391928828526e7 0.0
1.8154391928828526e7 3.527157820918777e7 0.0
0.0 0.0 0.0

457617.9037620978 1.822985914985871e7 0.0
1.822985914985871e7 761670.1535021855 0.0
0.0 0.0 0.0

-2.4507822706196077e7 1.1404578060987548e6 0.0
1.1404578060987548e6 8.123912924325677e6 0.0
0.0 0.0 0.0

-8.997227248228563e6 -1.2371701272174213e6 0.0
-1.2371701272174213e6 1.700449673453012e7 0.0
0.0 0.0 0.0

4.934962893484359e6 1.8311698441160705e7 0.0
1.8311698441160705e7 1.6449873612481963e7 0.0
0.0 0.0 0.0

-4.398153057487179e6 1.712254811643281e7 0.0
1.712254811643281e7 -1.4660508225778619e7 0.0
0.0 0.0 0.0

-3.6962402996990904e6 1.2968491526522428e7 0.0
1.2968491526522428e7 5.754784853948693e7 0.0
0.0 0.0 0.0

3.104435894017944e6 6.713506896423077e6 0.0
6.713506896423077e6 -2.7923357469812527e7 0.0
0.0 0.0 0.0

299809.18744296394 2.169266803161604e7 0.0
2.169266803161604e7 -8.084108745813214e6 0.0
0.0 0.0 0.0

-6.012443535946749e6 1.5701123266585788e7 0.0
1.5701123266585788e7 -3.145251461616544e7 0.0
0.0 0.0 0.0

-3.8356811227438534e6 2.559294912666244e7 0.0
2.559294912666244e7 3.9685185492508085e6 0.0
0.0 0.0 0.0

-4.454184206506392e6 2.0817344164918683e7 0.0
2.0817344164918683e7 7.62891004756129e6 0.0
0.0 0.0 0.0

-385388.0621153979 2.5423773853098568e7 0.0
2.5423773853098568e7 -3.4367588825357e6 0.0
0.0 0.0 0.0

-1.0720169776429053e7 1.643848771522829e7 0.0
1.643848771522829e7 -4.3237357305560745e7 0.0
0.0 0.0 0.0

3.5505066464727717e6 2.526578309517732e7 0.0
2.526578309517732e7 -5.074645254723087e6 0.0
0.0 0.0 0.0

-8.673526190410573e6 1.6025279086693833e7 0.0
1.6025279086693833e7 2.6333532866773047e7 0.0
0.0 0.0 0.0

2.220902963288255e6 9.006270411502589e6 0.0
9.006270411502589e6 -1.6542665304406364e7 0.0
0.0 0.0 0.0

3.2624363709963914e6 6.121651053014809e6 0.0
6.121651053014809e6 -2.732443715216181e7 0.0
0.0 0.0 0.0

554236.303946862 2.0756946111842662e7 0.0
2.0756946111842662e7 -9.252700009196099e6 0.0
0.0 0.0 0.0

-1.9459243161611478e6 1.4806294115320459e7 0.0
1.4806294115320459e7 -5.97396546082515e6 0.0
0.0 0.0 0.0

2.2230885639052726e6 9.088392385991264e6 0.0
9.088392385991264e6 -3.0490901381606597e7 0.0
0.0 0.0 0.0

-3.458298950541718e6 2.4463739152233083e7 0.0
2.4463739152233083e7 4.719215943798868e6 0.0
0.0 0.0 0.0

-2.5637468634187034e6 1.6657527358469442e7 0.0
1.6657527358469442e7 -374390.4293024055 0.0
0.0 0.0 0.0

811699.1897923648 1.4619541167973451e7 0.0
1.4619541167973451e7 -1.2519260942375617e7 0.0
0.0 0.0 0.0

1.5725720810526367e6 1.166118509368085e7 0.0
1.166118509368085e7 -2.9302368383213185e7 0.0
0.0 0.0 0.0

1.7605912315275532e6 2.477734264896242e7 0.0
2.477734264896242e7 -5.162563488922967e6 0.0
0.0 0.0 0.0

348147.9751357846 1.6353650094787763e7 0.0
1.6353650094787763e7 -1.1581580988682851e7 0.0
0.0 0.0 0.0

-1.45625810967029e6 1.4854319532245884e7 0.0
1.4854319532245884e7 -5.043589225596612e6 0.0
0.0 0.0 0.0

2.295480802151754e7 5.640928039509105e6 0.0
5.640928039509105e6 -2.7156865162972305e6 0.0
0.0 0.0 0.0

-3.7237489407480224e6 1.774730202148873e7 0.0
1.774730202148873e7 6.6588583806759175e6 0.0
0.0 0.0 0.0

-9.02451978543618e6 8.678793964299697e6 0.0
8.678793964299697e6 1.4792608309945574e7 0.0
0.0 0.0 0.0

-1.028678273815771e7 163220.52563154922 0.0
163220.52563154922 2.7052188294725142e7 0.0
0.0 0.0 0.0

4.322076332135571e6 3.9134045682592555e6 0.0
3.9134045682592555e6 -2.4786947221806265e7 0.0
0.0 0.0 0.0

3.5555463717785776e6 6.267791336363396e6 0.0
6.267791336363396e6 -1.8672516867462926e7 0.0
0.0 0.0 0.0

4.092985930741326e6 5.189214467360131e6 0.0
5.189214467360131e6 -2.419465579046313e7 0.0
0.0 0.0 0.0

-3.552869099281579e6 1.6629797966929846e7 0.0
1.6629797966929846e7 -1.8938090890934613e7 0.0
0.0 0.0 0.0

2.5668523765828493e6 2.506464820096151e7 0.0
2.506464820096151e7 -5.094087391484841e6 0.0
0.0 0.0 0.0

-8.70701886284543e6 1.6320775602666715e7 0.0
1.6320775602666715e7 2.4800346233491845e7 0.0
0.0 0.0 0.0

-4.357418054251297e6 1.822376182707115e7 0.0
1.822376182707115e7 5.832934994758167e6 0.0
0.0 0.0 0.0

3.447864598144768e6 5.710066588109008e6 0.0
5.710066588109008e6 -2.5050821682226304e7 0.0
0.0 0.0 0.0

-1.142303186870213e7 2.5287155396395307e6 0.0
2.5287155396395307e6 1.5923327371383276e7 0.0
0.0 0.0 0.0

-8.934537379849449e6 1.7285095448030517e7 0.0
1.7285095448030517e7 2.2050527919978898e7 0.0
0.0 0.0 0.0

471094.1696044076 1.8029931715528365e7 0.0
1.8029931715528365e7 -1.374923982843579e7 0.0
0.0 0.0 0.0

888950.3132842837 1.85644791542621e7 0.0
1.85644791542621e7 -5.673752259341499e6 0.0
0.0 0.0 0.0

-3.541007912983118e6 2.536601088344354e7 0.0
2.536601088344354e7 5.161609649876796e6 0.0
0.0 0.0 0.0

1.4509342003678242e6 1.4283757869095955e7 0.0
1.4283757869095955e7 -2.005584366113618e7 0.0
0.0 0.0 0.0

3.814071797389636e6 6.333436527099917e6 0.0
6.333436527099917e6 -2.5452439699669495e7 0.0
0.0 0.0 0.0

3.3200995004894026e6 6.249624784302257e6 0.0
6.249624784302257e6 -2.5607130933849584e7 0.0
0.0 0.0 0.0

1.9827882267529834e6 8.1460637745647635e6 0.0
8.1460637745647635e6 -1.349579087000487e7 0.0
0.0 0.0 0.0

3.1458588038893845e6 6.788170803708809e6 0.0
6.788170803708809e6 -2.618493503535311e7 0.0
0.0 0.0 0.0

4.0676958883349067e6 5.635937314310931e6 0.0
5.635937314310931e6 -2.1352578170561824e7 0.0
0.0 0.0 0.0

-6.872242075460859e6 3.0100621200647864e7 0.0
3.0100621200647864e7 5.248159446401008e6 0.0
0.0 0.0 0.0

4.869809481210907e6 2.6546198871588223e7 0.0
2.6546198871588223e7 -4.894605812849712e6 0.0
0.0 0.0 0.0

-4.987787413662925e6 2.1706674442884628e7 0.0
2.1706674442884628e7 7.813236484416131e6 0.0
0.0 0.0 0.0

3.292013332020485e6 6.175640055627913e6 0.0
6.175640055627913e6 -2.2220722557955313e7 0.0
0.0 0.0 0.0

-1.9631978888294748e6 1.805475629550671e7 0.0
1.805475629550671e7 -6.597850624329229e6 0.0
0.0 0.0 0.0

-1.084039131273094e6 1.5420850281469129e7 0.0
1.5420850281469129e7 -229149.52774199573 0.0
0.0 0.0 0.0

-1.6396347201686863e7 1.9914343181873407e7 0.0
1.9914343181873407e7 -5.4654504048016414e7 0.0
0.0 0.0 0.0

1.5678908359043105e7 2.1276947208508838e7 0.0
2.1276947208508838e7 5.226304524624586e7 0.0
0.0 0.0 0.0

9.434175635321373e6 1.9356919843674608e7 0.0
1.9356919843674608e7 -549545.4128198824 0.0
0.0 0.0 0.0

1.4561206795184443e7 2.054465139504672e7 0.0
2.054465139504672e7 -1.3761000676416848e6 0.0
0.0 0.0 0.0

1.5818804392715823e6 6.630930621575568e6 0.0
6.630930621575568e6 -4.827494206716354e7 0.0
0.0 0.0 0.0

830556.967794233 1.6620206387749614e7 0.0
1.6620206387749614e7 -1.558639164601677e7 0.0
0.0 0.0 0.0

-943033.8191389837 1.8646939168163743e7 0.0
1.8646939168163743e7 1.1985056483260266e7 0.0
0.0 0.0 0.0

-1.157532598611268e7 5.392979422447021e6 0.0
5.392979422447021e6 3.008540656359974e7 0.0
0.0 0.0 0.0

-7.96083597436039e6 1.5408636717100259e7 0.0
1.5408636717100259e7 2.9988751660434894e7 0.0
0.0 0.0 0.0

-2.9085901880562026e6 1.989952075609093e7 0.0
1.989952075609093e7 7.20203707922967e6 0.0
0.0 0.0 0.0

-948803.1845024166 1.44244154161604e7 0.0
1.44244154161604e7 -5.373122702621067e6 0.0
0.0 0.0 0.0

-1.0825261258869627e7 2.409777658787201e7 0.0
2.409777658787201e7 -9.1876479303646e6 0.0
0.0 0.0 0.0

-4.124581681080414e6 2.035408676621381e7 0.0
2.035408676621381e7 1.2963405388809802e7 0.0
0.0 0.0 0.0

-7.898333960218972e6 1.287534461915913e7 0.0
1.287534461915913e7 1.1417076555696614e7 0.0
0.0 0.0 0.0

-3.37796066453591e6 2.081807379546213e7 0.0
2.081807379546213e7 4.619960118506707e6 0.0
0.0 0.0 0.0

3.3036641133908313e6 6.595207355583089e6 0.0
6.595207355583089e6 -3.435646570016259e7 0.0
0.0 0.0 0.0

3.5660927439895775e6 7.203081055757422e6 0.0
7.203081055757422e6 -1.769594494943852e7 0.0
0.0 0.0 0.0

-132040.22842759406 1.8421601492425747e7 0.0
1.8421601492425747e7 -1.219021646802792e7 0.0
0.0 0.0 0.0

1.8147495235318951e6 1.1614756873954438e7 0.0
1.1614756873954438e7 -2.1756667121047296e7 0.0
0.0 0.0 0.0

-9.86477689521082e6 7.7770206707652565e6 0.0
7.7770206707652565e6 3.692833343923626e7 0.0
0.0 0.0 0.0

-6.151259760640223e6 2.75838916726386e6 0.0
2.75838916726386e6 6.385991872449642e6 0.0
0.0 0.0 0.0

-7.895432116849776e6 6.963548983395657e6 0.0
6.963548983395657e6 4.744249604892452e7 0.0
0.0 0.0 0.0

-456789.8847553432 1.7655309297129974e7 0.0
1.7655309297129974e7 -1.1810894862168334e7 0.0
0.0 0.0 0.0

-4.616026006486974e6 2.2076024970489897e7 0.0
2.2076024970489897e7 8.9679818570292e6 0.0
0.0 0.0 0.0

-8.646897926610913e6 1.1300529482005928e7 0.0
1.1300529482005928e7 1.5596075857494496e7 0.0
0.0 0.0 0.0

1.461507895476929e6 2.310954097599339e7 0.0
2.310954097599339e7 -6.46909696737928e6 0.0
0.0 0.0 0.0

-1.0097917039942436e7 7.279923121639018e6 0.0
7.279923121639018e6 1.2848935211510722e7 0.0
0.0 0.0 0.0

-5.304915286144058e6 1.9717446113104347e7 0.0
1.9717446113104347e7 1.432568824362357e7 0.0
0.0 0.0 0.0

1.9851896804817114e7 2.44453462881408e7 0.0
2.44453462881408e7 -7.095163035277181e6 0.0
0.0 0.0 0.0

-8.57415621371914e6 1.7615963763360187e7 0.0
1.7615963763360187e7 1.95962637059519e7 0.0
0.0 0.0 0.0

-3.375290605412465e6 3.898471522279597e6 0.0
3.898471522279597e6 5.536271844734957e6 0.0
0.0 0.0 0.0

-2.753854288072668e7 1.2562932517327862e6 0.0
1.2562932517327862e6 8.438777342882348e6 0.0
0.0 0.0 0.0

3.750356835256679e6 4.4522112625267785e6 0.0
4.4522112625267785e6 -2.704499119139582e7 0.0
0.0 0.0 0.0

-7.258348750401493e6 2.70199824918705e7 0.0
2.70199824918705e7 6.163830937307051e6 0.0
0.0 0.0 0.0

-1.050989314068998e7 477134.3656009734 0.0
477134.3656009734 1.3536556769220553e7 0.0
0.0 0.0 0.0

-3.446813317842497e6 1.2393603377396356e7 0.0
1.2393603377396356e7 -749729.9264477902 0.0
0.0 0.0 0.0

-1.1355271850207478e7 1.364788757979563e6 0.0
1.364788757979563e6 2.470644072290144e7 0.0
0.0 0.0 0.0

106176.43193579186 1.80232622016449e7 0.0
1.80232622016449e7 -1.382820144514921e7 0.0
0.0 0.0 0.0

-1.0980718488863582e7 7940.899466697788 0.0
7940.899466697788 2.6156693109310016e7 0.0
0.0 0.0 0.0

495274.1224079095 1.4933015234305363e7 0.0
1.4933015234305363e7 -1.5205533200682985e7 0.0
0.0 0.0 0.0

-8.392248865936656e6 1.6976463812334035e7 0.0
1.6976463812334035e7 2.3769513316880792e7 0.0
0.0 0.0 0.0

-1.0565045617252272e7 1.0377283176236914e7 0.0
1.0377283176236914e7 1.4186538044804657e7 0.0
0.0 0.0 0.0

-6.413963150569979e6 1.585248629553158e7 0.0
1.585248629553158e7 3.0055277553997003e7 0.0
0.0 0.0 0.0

-1.0483680306609273e7 1.4426533944107685e7 0.0
1.4426533944107685e7 1.802756165853733e7 0.0
0.0 0.0 0.0

-3.1056503971264698e6 2.172897852194026e7 0.0
2.172897852194026e7 627897.5382714279 0.0
0.0 0.0 0.0

3.1529293176611178e6 7.303499795322353e6 0.0
7.303499795322353e6 -3.284595076674814e7 0.0
0.0 0.0 0.0

-6.647340051426191e6 1.7049161872424267e7 0.0
1.7049161872424267e7 2.564524911218801e7 0.0
0.0 0.0 0.0

9.993245723812774e6 1.9452282913560532e7 0.0
1.9452282913560532e7 5.741925683458675e6 0.0
0.0 0.0 0.0

-1.896670317908862e7 1.021359914267301e7 0.0
1.021359914267301e7 9.821577676489552e6 0.0
0.0 0.0 0.0

2.0332021401266754e6 1.0878668305695727e7 0.0
1.0878668305695727e7 -2.9059232673898615e7 0.0
0.0 0.0 0.0

-7.150034517155046e6 1.229955104320606e7 0.0
1.229955104320606e7 1.3930500875027508e7 0.0
0.0 0.0 0.0

2.736468225770262e6 9.167792551941372e6 0.0
9.167792551941372e6 -1.4842473380219499e7 0.0
0.0 0.0 0.0

-8.772460222733036e6 -214537.974422205 0.0
-214537.974422205 1.4629755713199317e7 0.0
0.0 0.0 0.0

-1.051621016217112e7 -1.7426816631144658e6 0.0
-1.7426816631144658e6 2.0491080949616764e7 0.0
0.0 0.0 0.0

1.2134244191677645e6 1.3265319121956676e7 0.0
1.3265319121956676e7 -1.836942565860923e7 0.0
0.0 0.0 0.0

-1.11001139473046e7 5.243350743138187e6 0.0
5.243350743138187e6 1.9054539794182945e7 0.0
0.0 0.0 0.0

-5.254979455250936e6 2.2597112042704843e7 0.0
2.2597112042704843e7 7.92867544474382e6 0.0
0.0 0.0 0.0

3.7402221850962425e6 1.5813024082151659e7 0.0
1.5813024082151659e7 7.104639430395443e6 0.0
0.0 0.0 0.0

-171500.58678398922 7.474361184949039e6 0.0
7.474361184949039e6 -2.0174493773786903e6 0.0
0.0 0.0 0.0

69879.82861217484 1.8205800391793076e7 0.0
1.8205800391793076e7 -1.0940954731809955e7 0.0
0.0 0.0 0.0

2.935084352877184e6 7.451061179437183e6 0.0
7.451061179437183e6 -2.0208809271135855e7 0.0
0.0 0.0 0.0

-209987.5502664186 2.4777895885144245e7 0.0
2.4777895885144245e7 -4.205419622917224e6 0.0
0.0 0.0 0.0

-4.303910962312125e6 1.454511433653236e7 0.0
1.454511433653236e7 -5.4931647468288645e7 0.0
0.0 0.0 0.0

3.0146491834201487e6 5.562645523706158e6 0.0
5.562645523706158e6 -1.55462744747104e7 0.0
0.0 0.0 0.0

3.4674225498871794e6 5.562587296470424e6 0.0
5.562587296470424e6 -2.1705263239882667e7 0.0
0.0 0.0 0.0

-2.932216495206315e6 1.671994568868e7 0.0
1.671994568868e7 -1.7354280149084385e7 0.0
0.0 0.0 0.0

-901516.3838052977 8.012051385037334e6 0.0
8.012051385037334e6 -658811.7247104105 0.0
0.0 0.0 0.0

-1.2472633082922697e7 1.7149685947632115e7 0.0
1.7149685947632115e7 -4.997116377808073e7 0.0
0.0 0.0 0.0

2.0668687281732569e6 7.809484979602732e6 0.0
7.809484979602732e6 -9.263564382479355e6 0.0
0.0 0.0 0.0

3.0961756135198576e6 8.0379755972087225e6 0.0
8.0379755972087225e6 -1.5065325420876052e7 0.0
0.0 0.0 0.0

-503711.47607363854 1.7886443576406583e7 0.0
1.7886443576406583e7 -2.3570604801892987e6 0.0
0.0 0.0 0.0

-9.861478826451402e6 1.2315934114510024e7 0.0
1.2315934114510024e7 3.150166031482048e7 0.0
0.0 0.0 0.0

-2.9119367113847034e6 2.629030172750315e7 0.0
2.629030172750315e7 1.7377574574038193e6 0.0
0.0 0.0 0.0

-1.170087533197292e7 7.716950889549218e6 0.0
7.716950889549218e6 8.944043653253902e6 0.0
0.0 0.0 0.0

1.6646932460778141e6 1.2120249742562147e7 0.0
1.2120249742562147e7 -2.0579157727061212e7 0.0
0.0 0.0 0.0

409896.9776518326 1.845328226823003e7 0.0
1.845328226823003e7 1.5714126949820306e7 0.0
0.0 0.0 0.0

-157022.3273092385 2.4138400404765703e7 0.0
2.4138400404765703e7 -5.02586914824705e6 0.0
0.0 0.0 0.0

-490899.9150151289 1.312983316737091e7 0.0
1.312983316737091e7 -9.514622197885092e6 0.0
0.0 0.0 0.0

921897.002748779 2.3580102009680357e7 0.0
2.3580102009680357e7 -6.0775835522782365e6 0.0
0.0 0.0 0.0

656253.8035600395 1.3531404031146e7 0.0
1.3531404031146e7 -1.0515186691220628e7 0.0
0.0 0.0 0.0

-9.045901862132568e6 -2.750633597913666e6 0.0
-2.750633597913666e6 1.4908949619754877e7 0.0
0.0 0.0 0.0

-346975.5778223458 1.7854242245030563e7 0.0
1.7854242245030563e7 -1.2245316099933026e7 0.0
0.0 0.0 0.0

1.0196913113129798e7 3.7599180049514234e7 0.0
3.7599180049514234e7 -7.365188840978382e6 0.0
0.0 0.0 0.0

4.291592776489524e6 2.079295498218452e7 0.0
2.079295498218452e7 -4.713940833974391e6 0.0
0.0 0.0 0.0

620028.6238442464 1.7358819463547938e7 0.0
1.7358819463547938e7 -1.469807836487849e7 0.0
0.0 0.0 0.0

-4.1244293933893214e6 1.4147358912532717e7 0.0
1.4147358912532717e7 6.0025435065158075e6 0.0
0.0 0.0 0.0

-3.4069103351853928e6 1.7058702181184877e7 0.0
1.7058702181184877e7 -1.0223793221341809e6 0.0
0.0 0.0 0.0

4.255018489303311e6 3.513386919025392e6 0.0
3.513386919025392e6 -2.6074783336150557e7 0.0
0.0 0.0 0.0

3.194860877570633e6 4.27109149969631e6 0.0
4.27109149969631e6 -1.1320010149256615e7 0.0
0.0 0.0 0.0

-3.331091063056982e6 9.106536617189763e6 0.0
9.106536617189763e6 -89429.17971339473 0.0
0.0 0.0 0.0

-7.7839673414794095e6 2.051497495386796e7 0.0
2.051497495386796e7 -1.633735627839039e6 0.0
0.0 0.0 0.0

3.1768084952609204e6 5.9967214042442e6 0.0
5.9967214042442e6 -1.8204126080660537e7 0.0
0.0 0.0 0.0

108617.12335209083 1.5209796362410946e7 0.0
1.5209796362410946e7 -1.352293829210115e7 0.0
0.0 0.0 0.0

-934107.9139526142 1.867548679330617e7 0.0
1.867548679330617e7 9.77468799047938e6 0.0
0.0 0.0 0.0

2.4803460474377843e6 1.1249223680568626e7 0.0
1.1249223680568626e7 -2.1171525902640063e7 0.0
0.0 0.0 0.0

-1.0689521634292994e7 4.0700968541403413e6 0.0
4.0700968541403413e6 1.8136843380666666e7 0.0
0.0 0.0 0.0

-2.419122465039276e7 2.7625710165861484e7 0.0
2.7625710165861484e7 5.188478347453192e6 0.0
0.0 0.0 0.0

2.6317876170153217e6 1.0639357528232368e7 0.0
1.0639357528232368e7 -2.3908767047716584e7 0.0
0.0 0.0 0.0

-4.900925203838575e7 3.603056581761571e6 0.0
3.603056581761571e6 6.281337453233406e6 0.0
0.0 0.0 0.0

2.824166686869312e6 7.2168561936238045e6 0.0
7.2168561936238045e6 -1.7829913783043034e7 0.0
0.0 0.0 0.0

-4.835760869070077e6 1.86360920374079e7 0.0
1.86360920374079e7 1.8855600363930397e7 0.0
0.0 0.0 0.0

145337.29879080504 1.3373451532281166e7 0.0
1.3373451532281166e7 -2.937062859709706e7 0.0
0.0 0.0 0.0

969942.8700913396 1.4345134390716912e7 0.0
1.4345134390716912e7 -2.2737078227289364e7 0.0
0.0 0.0 0.0

-6.825225642100495e6 2.546778718782204e6 0.0
2.546778718782204e6 1.0910248145681242e7 0.0
0.0 0.0 0.0

-1.2663144001407165e7 8.164877787523898e6 0.0
8.164877787523898e6 2.2770174582942758e7 0.0
0.0 0.0 0.0

-2.9396967597979363e6 1.452946166252889e7 0.0
1.452946166252889e7 -2.7763771178008984e6 0.0
0.0 0.0 0.0

-4.615039694709282e6 1.3425985622388728e7 0.0
1.3425985622388728e7 7.444913469674438e6 0.0
0.0 0.0 0.0

-1.2236777815770755e7 7.226422226046727e6 0.0
7.226422226046727e6 2.6190345445707627e7 0.0
0.0 0.0 0.0

-1.867892999475848e6 1.4117018908629125e7 0.0
1.4117018908629125e7 -2.127405824155638e6 0.0
0.0 0.0 0.0

-207053.1277564373 1.7104093003902778e7 0.0
1.7104093003902778e7 -1.2864462998939425e7 0.0
0.0 0.0 0.0

-21350.01904707402 1.8004354168069087e7 0.0
1.8004354168069087e7 -1.0453828922777355e7 0.0
0.0 0.0 0.0

-372048.88200856466 1.8529208257696077e7 0.0
1.8529208257696077e7 -1.1636059535477903e7 0.0
0.0 0.0 0.0

775106.0239022514 1.435736956695803e7 0.0
1.435736956695803e7 -1.6215388516810099e7 0.0
0.0 0.0 0.0

1.9381798196696062e6 8.682555434704548e6 0.0
8.682555434704548e6 -1.420435501247195e7 0.0
0.0 0.0 0.0

-605407.9681893683 1.7538938276413314e7 0.0
1.7538938276413314e7 -5.589037979772953e6 0.0
0.0 0.0 0.0

-599425.7032995429 1.743741020057395e7 0.0
1.743741020057395e7 -1.1373172693468396e7 0.0
0.0 0.0 0.0

154194.51512042293 1.3711952625633944e7 0.0
1.3711952625633944e7 -8.628184763217136e6 0.0
0.0 0.0 0.0

-1.0002611709521826e7 3.166748018496195e6 0.0
3.166748018496195e6 1.7058973980868623e7 0.0
0.0 0.0 0.0

986655.1003204454 1.3832955196331132e7 0.0
1.3832955196331132e7 -1.730375196768676e7 0.0
0.0 0.0 0.0

-1.4110151559506606e7 1.8718005433677442e7 0.0
1.8718005433677442e7 -4.703383913096809e7 0.0
0.0 0.0 0.0

-6.030164735077674e6 4.2458733040641565e6 0.0
4.2458733040641565e6 9.949543353054225e6 0.0
0.0 0.0 0.0

2.4945332443872886e6 8.3669642105108155e6 0.0
8.3669642105108155e6 -1.750766269533723e7 0.0
0.0 0.0 0.0

-58595.81623136508 7.040662228632598e6 0.0
7.040662228632598e6 -5.347351499185339e6 0.0
0.0 0.0 0.0

-3.0750946866551526e6 1.3724771729845107e7 0.0
1.3724771729845107e7 -4.96391212497179e7 0.0
0.0 0.0 0.0

-5.318788280966302e6 1.4199332576057902e7 0.0
1.4199332576057902e7 1.0361554672067545e7 0.0
0.0 0.0 0.0

3.6157057942520604e6 6.714029481554296e6 0.0
6.714029481554296e6 -1.702710277546807e7 0.0
0.0 0.0 0.0

-1.2736054066374913e7 7.593229434132132e6 0.0
7.593229434132132e6 2.037574600613977e7 0.0
0.0 0.0 0.0

-9.282418642223528e6 1.311553157526295e6 0.0
1.311553157526295e6 3.926419937535769e7 0.0
0.0 0.0 0.0

452604.05319246603 1.7265419594219994e7 0.0
1.7265419594219994e7 -1.7527477495116903e6 0.0
0.0 0.0 0.0

1.261917798565358e6 1.5680533795401396e7 0.0
1.5680533795401396e7 4.038885192676676e6 0.0
0.0 0.0 0.0

-6.794898241565762e6 2.2804839818958316e7 0.0
2.2804839818958316e7 7.452555178988769e6 0.0
0.0 0.0 0.0

-3.8693675625559436e6 1.9176406607527852e7 0.0
1.9176406607527852e7 3.4473539727472253e6 0.0
0.0 0.0 0.0

3.9790289114386383e6 4.868950474230057e6 0.0
4.868950474230057e6 -2.957567704845888e7 0.0
0.0 0.0 0.0

3.967890876459267e6 5.45841173657364e6 0.0
5.45841173657364e6 -2.9998389435019948e7 0.0
0.0 0.0 0.0

-1.1314574496205175e7 1.3552521365482312e7 0.0
1.3552521365482312e7 2.385398094857913e7 0.0
0.0 0.0 0.0

-3253.0783302066848 1.6332301935331883e7 0.0
1.6332301935331883e7 -1.3501158802954448e7 0.0
0.0 0.0 0.0

6.50933270438822e6 1.9682206617264695e7 0.0
1.9682206617264695e7 146423.50841133436 0.0
0.0 0.0 0.0

-9.380747586856822e6 3.6582589326498937e6 0.0
3.6582589326498937e6 4.485076764334373e7 0.0
0.0 0.0 0.0

-4.02647835102435e6 1.7134623296676137e7 0.0
1.7134623296676137e7 8.058126650177378e6 0.0
0.0 0.0 0.0

-1.1010370079198931e6 1.612030942984567e7 0.0
1.612030942984567e7 -9.192975073154692e6 0.0
0.0 0.0 0.0

-3.3888932026704755e6 1.5064443616637543e7 0.0
1.5064443616637543e7 4.491809337688879e7 0.0
0.0 0.0 0.0

252354.2222164701 5.083158136742093e6 0.0
5.083158136742093e6 -1.2542174022628614e6 0.0
0.0 0.0 0.0

-1.2465651812322012e6 2.0943019207136646e7 0.0
2.0943019207136646e7 -6.973394872642897e6 0.0
0.0 0.0 0.0

3.241896786097707e6 1.9152540744933132e7 0.0
1.9152540744933132e7 1.4394304635058424e7 0.0
0.0 0.0 0.0

3.2577008480538744e6 7.887562528866928e6 0.0
7.887562528866928e6 -1.6740867134947008e7 0.0
0.0 0.0 0.0

-3.07819034496885e6 1.2953585863074776e7 0.0
1.2953585863074776e7 -1.959430286991726e6 0.0
0.0 0.0 0.0

-7.543986040358366e6 1.4278308648382273e7 0.0
1.4278308648382273e7 3.443775391082956e7 0.0
0.0 0.0 0.0

2.8774542824508194e6 8.743801932783691e6 0.0
8.743801932783691e6 -2.9953389117868856e7 0.0
0.0 0.0 0.0

720801.1255144766 1.6894933817059606e7 0.0
1.6894933817059606e7 -1.5775994918671105e7 0.0
0.0 0.0 0.0

-9.981435959676437e6 -328327.1544552627 0.0
-328327.1544552627 3.1689905402708374e7 0.0
0.0 0.0 0.0

2.4667417294548284e6 1.0078085715017118e7 0.0
1.0078085715017118e7 -2.8718303141672272e7 0.0
0.0 0.0 0.0

390981.7764074721 9.694916484234918e6 0.0
9.694916484234918e6 -6.117340956072446e6 0.0
0.0 0.0 0.0

3.357985740447931e6 8.213957515417886e6 0.0
8.213957515417886e6 -2.534309610891441e7 0.0
0.0 0.0 0.0

251382.5695816977 1.3705175787551856e7 0.0
1.3705175787551856e7 -1.2776596346838841e7 0.0
0.0 0.0 0.0

205358.6621735245 1.5510863348955324e7 0.0
1.5510863348955324e7 -1.409094567264699e7 0.0
0.0 0.0 0.0

-1.2225704800315574e7 5.9646006685176585e6 0.0
5.9646006685176585e6 2.5667398089171104e7 0.0
0.0 0.0 0.0

2.4885927042828063e6 1.8543587358004853e7 0.0
1.8543587358004853e7 3.7108579084052956e6 0.0
0.0 0.0 0.0

-9.94126243662554e6 2.0271089885567597e6 0.0
2.0271089885567597e6 1.5931091709770132e7 0.0
0.0 0.0 0.0

1.3609151671781475e6 1.4783843855163613e7 0.0
1.4783843855163613e7 -1.9026350166831244e7 0.0
0.0 0.0 0.0

-2.9245975171912094e6 5.27370057021437e6 0.0
5.27370057021437e6 4.322291980910583e6 0.0
0.0 0.0 0.0

979171.265097253 5.354536693786517e6 0.0
5.354536693786517e6 -6.410060750568115e6 0.0
0.0 0.0 0.0

42085.02245786879 1.4915604984467164e7 0.0
1.4915604984467164e7 -1.2985216816812448e7 0.0
0.0 0.0 0.0

3.923994165662881e6 5.376194546188766e6 0.0
5.376194546188766e6 -1.7273166888813075e7 0.0
0.0 0.0 0.0

-1.1693954847940136e7 1.7533374880510313e6 0.0
1.7533374880510313e6 2.2526465904052548e7 0.0
0.0 0.0 0.0

3.036637690856423e6 3.5168241596671105e6 0.0
3.5168241596671105e6 -4.328308897322897e7 0.0
0.0 0.0 0.0

-1.155960930427672e6 1.623659592243453e7 0.0
1.623659592243453e7 -3.8532026501245396e6 0.0
0.0 0.0 0.0

-1.2589408344964761e7 9.42930867743541e6 0.0
9.42930867743541e6 1.827049148519254e7 0.0
0.0 0.0 0.0

-7.6022880793301985e6 2.1861469194096923e7 0.0
2.1861469194096923e7 5.316803651440453e6 0.0
0.0 0.0 0.0

1.876457813460768e6 1.936772218132801e7 0.0
1.936772218132801e7 7.635342248156551e6 0.0
0.0 0.0 0.0

-8.141062311651975e6 1.7443865822642148e7 0.0
1.7443865822642148e7 2.283080453871058e7 0.0
0.0 0.0 0.0

-6.423336982947268e6 1.8095541652409647e7 0.0
1.8095541652409647e7 1.84195996221366e7 0.0
0.0 0.0 0.0

-9.636991823545428e6 -2.388366047585608e6 0.0
-2.388366047585608e6 3.1601059753432043e7 0.0
0.0 0.0 0.0

-3.2922205571968257e6 1.3056084333230108e7 0.0
1.3056084333230108e7 3.1046865751866e6 0.0
0.0 0.0 0.0

3.9273550587071646e6 1.910470397129285e7 0.0
1.910470397129285e7 1.3677911274262015e7 0.0
0.0 0.0 0.0

-4.1436985253230194e6 2.062464449336286e7 0.0
2.062464449336286e7 1.0733818597743483e7 0.0
0.0 0.0 0.0

-1.2658488501717333e7 7.128871997759999e6 0.0
7.128871997759999e6 2.2034269212244518e7 0.0
0.0 0.0 0.0

1.1593699514010437e6 1.3488390969300905e7 0.0
1.3488390969300905e7 -2.1381076857417546e7 0.0
0.0 0.0 0.0

2.714074107841569e6 6.87280456327249e6 0.0
6.87280456327249e6 -1.5367935059920663e7 0.0
0.0 0.0 0.0

692973.511399176 1.6101917984620279e7 0.0
1.6101917984620279e7 -1.3143884083510786e7 0.0
0.0 0.0 0.0

-3.170271979281272e6 1.1818181195944577e7 0.0
1.1818181195944577e7 2.9705810098623545e6 0.0
0.0 0.0 0.0

3.2806945376699585e6 5.304538637513377e6 0.0
5.304538637513377e6 -1.1378636146217234e7 0.0
0.0 0.0 0.0

-1.4011773856055888e6 2.144571090137664e7 0.0
2.144571090137664e7 -5.951565074013275e6 0.0
0.0 0.0 0.0

-9.618939991024116e6 2.582793774996759e6 0.0
2.582793774996759e6 3.743434871395324e7 0.0
0.0 0.0 0.0

-1.0112511214733228e7 694953.4340281107 0.0
694953.4340281107 3.2761074103602536e7 0.0
0.0 0.0 0.0

-1.075608554414143e7 1.0498972818094587e7 0.0
1.0498972818094587e7 3.1676538271633748e7 0.0
0.0 0.0 0.0

-820098.9318115138 1.96832411648756e7 0.0
1.96832411648756e7 -9.567152156396532e6 0.0
0.0 0.0 0.0

-1.597917542167881e6 8.07610146005032e6 0.0
8.07610146005032e6 -2.9710717717141085e6 0.0
0.0 0.0 0.0

1.2265188185967589e7 2.0869123250043634e7 0.0
2.0869123250043634e7 1.0283556183652416e7 0.0
0.0 0.0 0.0

9.560172489961797e6 1.9926774326569982e7 0.0
1.9926774326569982e7 4.111870276694575e7 0.0
0.0 0.0 0.0

3.53872241875103e6 6.2770887215828765e6 0.0
6.2770887215828765e6 -1.4416311230576873e7 0.0
0.0 0.0 0.0

-1.0977464088390118e7 3.6727296845920994e6 0.0
3.6727296845920994e6 1.9880887838603567e7 0.0
0.0 0.0 0.0

-3.3437544330108003e6 1.4216574189900875e7 0.0
1.4216574189900875e7 3.1653426446880056e6 0.0
0.0 0.0 0.0

-5.365308455681849e6 1.9482113486172266e7 0.0
1.9482113486172266e7 1.4042697374593304e7 0.0
0.0 0.0 0.0

3.6558627620995883e6 5.84990158615884e6 0.0
5.84990158615884e6 -3.2114993188025065e7 0.0
0.0 0.0 0.0

3.6097505046388432e6 6.804229465730483e6 0.0
6.804229465730483e6 -2.7760456279156357e7 0.0
0.0 0.0 0.0

-4.903885093753205e6 5.848928096344973e6 0.0
5.848928096344973e6 3.4776628944094023e6 0.0
0.0 0.0 0.0

-3.7932368440028764e6 1.806811318323998e7 0.0
1.806811318323998e7 7.778185644897778e6 0.0
0.0 0.0 0.0

-3.865439630794093e6 1.5455893922955912e7 0.0
1.5455893922955912e7 4.159759026180308e7 0.0
0.0 0.0 0.0

495923.4684554422 1.691237968880784e7 0.0
1.691237968880784e7 -1.2573100036463892e7 0.0
0.0 0.0 0.0

-3.507086578907797e6 6.924690461633413e6 0.0
6.924690461633413e6 5.094004696307462e6 0.0
0.0 0.0 0.0

3.732611355638748e6 6.0942197996830195e6 0.0
6.0942197996830195e6 -2.892826208547749e7 0.0
0.0 0.0 0.0

-4.277238902958455e6 2.000392565906623e7 0.0
2.000392565906623e7 8.613175539146403e6 0.0
0.0 0.0 0.0

2.665445306340066e6 8.142622893109333e6 0.0
8.142622893109333e6 -1.9289813940045897e7 0.0
0.0 0.0 0.0

-9.393595724277247e6 7.712317082409672e6 0.0
7.712317082409672e6 1.3405584281829745e6 0.0
0.0 0.0 0.0

361488.49503691215 1.434501953233586e7 0.0
1.434501953233586e7 -1.4036343320903728e7 0.0
0.0 0.0 0.0

-3.1508780203758357e6 3.607534416558438e6 0.0
3.607534416558438e6 958815.7838954146 0.0
0.0 0.0 0.0

-2.946971530471093e6 1.0502914014843086e7 0.0
1.0502914014843086e7 2.7505481026046122e6 0.0
0.0 0.0 0.0

-2.573746147422551e6 9.079990253892485e6 0.0
9.079990253892485e6 2.438774251896591e6 0.0
0.0 0.0 0.0

-26334.556084912736 1.4558959178821623e7 0.0
1.4558959178821623e7 -1.2410262073881349e7 0.0
0.0 0.0 0.0

-3.252229285183062e6 1.4065264872495001e7 0.0
1.4065264872495001e7 -1.7051992090109517e6 0.0
0.0 0.0 0.0

-1.2520272247303108e7 7.610997929352443e6 0.0
7.610997929352443e6 2.4480336159170136e7 0.0
0.0 0.0 0.0

-6.76785119639869e6 1.3205253639357755e7 0.0
1.3205253639357755e7 3.992054620441612e7 0.0
0.0 0.0 0.0

-9.45338138669069e6 1.0527180296339583e7 0.0
1.0527180296339583e7 3.619966602158954e7 0.0
0.0 0.0 0.0

-7.220990197719164e6 1.3744453853280641e7 0.0
1.3744453853280641e7 3.702044378478637e7 0.0
0.0 0.0 0.0

-7.230173488378607e6 6.787278184486616e6 0.0
6.787278184486616e6 5.582700729893944e7 0.0
0.0 0.0 0.0

-995732.7360435687 1.8714123544139463e7 0.0
1.8714123544139463e7 7.58280945300122e6 0.0
0.0 0.0 0.0

-9.707664718760313e6 4.725426357158474e6 0.0
4.725426357158474e6 4.225727670246388e7 0.0
0.0 0.0 0.0

-2.234722344150327e6 2.0170314684370086e7 0.0
2.0170314684370086e7 -4.807317193463628e6 0.0
0.0 0.0 0.0

-1.1510345947342808e6 1.7512599211200383e7 0.0
1.7512599211200383e7 -1.0523823868029218e7 0.0
0.0 0.0 0.0

-4.8174526709741905e7 3.0550688811133444e7 0.0
3.0550688811133444e7 -7.534001387394757e6 0.0
0.0 0.0 0.0

3.1686129947276786e6 7.5365187730395105e6 0.0
7.5365187730395105e6 -1.431760031475303e7 0.0
0.0 0.0 0.0

2.328181337714821e6 1.1881390793821026e7 0.0
1.1881390793821026e7 -2.021940834590504e7 0.0
0.0 0.0 0.0

-1.1030089622787875e6 2.161559824783569e7 0.0
2.161559824783569e7 -5.14254358750017e6 0.0
0.0 0.0 0.0

-2.861358208423334e6 2.0815112827507634e7 0.0
2.0815112827507634e7 3.0498176225100174e6 0.0
0.0 0.0 0.0

3.533305228571065e6 7.593695949322259e6 0.0
7.593695949322259e6 -2.488027282427969e7 0.0
0.0 0.0 0.0

1.3138936793367067e7 2.2176186754999503e7 0.0
2.2176186754999503e7 -4.435778899929423e6 0.0
0.0 0.0 0.0

-4.37077696675554e6 1.1075380753490115e7 0.0
1.1075380753490115e7 1.8427161875835124e6 0.0
0.0 0.0 0.0

2.0275964054890238e6 6.073599812062134e6 0.0
6.073599812062134e6 -4.4564321698594004e7 0.0
0.0 0.0 0.0

-4.1576470646672505e6 9.680471233596306e6 0.0
9.680471233596306e6 1.4970908234594548e6 0.0
0.0 0.0 0.0

2.315962404155154e6 8.04853048604333e6 0.0
8.04853048604333e6 -1.514631390680668e7 0.0
0.0 0.0 0.0

-7.840598868827336e6 1.7727580703767356e7 0.0
1.7727580703767356e7 2.1911996479669206e7 0.0
0.0 0.0 0.0

-3.1371962556543063e7 2.6866507419745497e7 0.0
2.6866507419745497e7 2.8544852258234303e6 0.0
0.0 0.0 0.0

-1.0704106255571613e7 -941965.9452610401 0.0
-941965.9452610401 2.5751274342444707e7 0.0
0.0 0.0 0.0

318614.7348520085 1.766882894122502e7 0.0
1.766882894122502e7 -1.1967108968639292e7 0.0
0.0 0.0 0.0

-1.3666937176584652e7 2.418531298723764e7 0.0
2.418531298723764e7 -4.068817489765212e6 0.0
0.0 0.0 0.0

3.5352541866348563e6 5.71995317228354e6 0.0
5.71995317228354e6 -1.3900838278922938e7 0.0
0.0 0.0 0.0

-1.1958595827025764e7 8.084796032738472e6 0.0
8.084796032738472e6 2.1730596578979105e7 0.0
0.0 0.0 0.0

570092.2008508216 1.550447634153998e7 0.0
1.550447634153998e7 -1.2063448616669454e7 0.0
0.0 0.0 0.0

-742485.4353139838 1.481127011068114e7 0.0
1.481127011068114e7 -6.288940047664022e6 0.0
0.0 0.0 0.0

-4.468369106225374e6 1.2378102331280123e7 0.0
1.2378102331280123e7 2.0722665785956392e6 0.0
0.0 0.0 0.0

-1.1086144450039558e7 8.923923327847296e6 0.0
8.923923327847296e6 3.1797990733383313e7 0.0
0.0 0.0 0.0

4.228935307959201e6 4.329355642249522e6 0.0
4.329355642249522e6 -2.7117760146081783e7 0.0
0.0 0.0 0.0

3.284153760830909e6 5.5033466700686375e6 0.0
5.5033466700686375e6 -1.721878925155759e7 0.0
0.0 0.0 0.0

-4.278030252574386e6 1.9718350400251713e7 0.0
1.9718350400251713e7 7.746909887596225e6 0.0
0.0 0.0 0.0

-8.865339902079178e6 1.6414756606899314e6 0.0
1.6414756606899314e6 1.0424193885094399e7 0.0
0.0 0.0 0.0

162767.35241766088 1.332726562507463e7 0.0
1.332726562507463e7 -1.214181099836291e7 0.0
0.0 0.0 0.0

3.687995914050143e6 6.834971262452576e6 0.0
6.834971262452576e6 -2.1070984657771777e7 0.0
0.0 0.0 0.0

-1.0381992322480964e7 3.8094053308227756e6 0.0
3.8094053308227756e6 3.519860020589996e7 0.0
0.0 0.0 0.0

-1.1044955096528772e6 1.8853613846140616e7 0.0
1.8853613846140616e7 5.2978292200669125e6 0.0
0.0 0.0 0.0

-1.1301748808564015e7 607457.107700207 0.0
607457.107700207 2.1912008895995826e7 0.0
0.0 0.0 0.0

1.930982558215933e6 1.1370693095006198e7 0.0
1.1370693095006198e7 -2.76050338449078e7 0.0
0.0 0.0 0.0

-243348.33096239995 1.6543674695011538e7 0.0
1.6543674695011538e7 -1.754407643304531e7 0.0
0.0 0.0 0.0

-1.2142581485774875e7 1.063059732800342e7 0.0
1.063059732800342e7 1.762217693846223e7 0.0
0.0 0.0 0.0

1.2280393334563272e6 1.4279812609756514e7 0.0
1.4279812609756514e7 -2.1424599533768162e7 0.0
0.0 0.0 0.0

1.1684833370659454e6 1.4641153346567748e7 0.0
1.4641153346567748e7 -1.4755604474306237e7 0.0
0.0 0.0 0.0

-143263.69201565406 3.0802904119294034e6 0.0
3.0802904119294034e6 17678.400706806475 0.0
0.0 0.0 0.0

-1.102063724800941e7 -439341.5850949267 0.0
-439341.5850949267 1.9223825412040453e7 0.0
0.0 0.0 0.0

297376.25589946983 1.1586170710982203e7 0.0
1.1586170710982203e7 -1.0964366658379562e7 0.0
0.0 0.0 0.0

691259.5289094751 1.054668593262717e7 0.0
1.054668593262717e7 -1.1252349323520906e7 0.0
0.0 0.0 0.0

675481.6768378578 1.5795248334448429e7 0.0
1.5795248334448429e7 -1.2603824574260548e7 0.0
0.0 0.0 0.0

-1.4601884561371405e6 1.89873869695796e7 0.0
1.89873869695796e7 2.9964027301032734e6 0.0
0.0 0.0 0.0

1.5742833283637743e6 9.319564626792323e6 0.0
9.319564626792323e6 -1.3239235007549152e7 0.0
0.0 0.0 0.0

-1.2929297458094265e6 1.2730252064125074e7 0.0
1.2730252064125074e7 -4.021283252945426e7 0.0
0.0 0.0 0.0

-8.381166273118362e6 3.2380342949372414e6 0.0
3.2380342949372414e6 9.792433695738887e6 0.0
0.0 0.0 0.0

-9.121298149335755e6 1.707230677405841e7 0.0
1.707230677405841e7 -3.5268418390549466e7 0.0
0.0 0.0 0.0

-1.0317529295408705e8 1.2129923501227291e7 0.0
1.2129923501227291e7 917331.0955368578 0.0
0.0 0.0 0.0

8.729265379423992e7 1.3047352966151504e7 0.0
1.3047352966151504e7 3.717669721267462e6 0.0
0.0 0.0 0.0

-2.448934520129904e6 1.314527022605929e7 0.0
1.314527022605929e7 -4.612025208529399e7 0.0
0.0 0.0 0.0

-8.86193267232138e6 1.4952033984432222e7 0.0
1.4952033984432222e7 1.8853158458067253e7 0.0
0.0 0.0 0.0

-3.535221189950003e6 1.850526355029656e7 0.0
1.850526355029656e7 302756.53005230404 0.0
0.0 0.0 0.0

-66069.69807498064 1.2561120615547607e7 0.0
1.2561120615547607e7 -1.0659607326095123e7 0.0
0.0 0.0 0.0

-252874.0551257697 6.226513805300457e6 0.0
6.226513805300457e6 -4.323735577771776e6 0.0
0.0 0.0 0.0

563726.2297203948 6.959184645996434e6 0.0
6.959184645996434e6 -3.2604120525070494e6 0.0
0.0 0.0 0.0

-4.460568215908479e6 1.360300964115598e7 0.0
1.360300964115598e7 2.2154665389014604e6 0.0
0.0 0.0 0.0

-1.844547298453059e6 1.2902201937416289e7 0.0
1.2902201937416289e7 -4.29989538622151e7 0.0
0.0 0.0 0.0

1.276367177359186e6 1.1159086489241285e7 0.0
1.1159086489241285e7 -1.028204810973371e7 0.0
0.0 0.0 0.0

-1.1348127617687866e7 2.098372388169236e6 0.0
2.098372388169236e6 2.815271043461451e7 0.0
0.0 0.0 0.0

7.068856062047823e7 1.5857671183438485e7 0.0
1.5857671183438485e7 -219148.04716728255 0.0
0.0 0.0 0.0

891996.7354721576 1.2170431199290399e7 0.0
1.2170431199290399e7 -1.0040233534750627e7 0.0
0.0 0.0 0.0

3.855344014703165e6 6.434215903759487e6 0.0
6.434215903759487e6 -2.3831076947464596e7 0.0
0.0 0.0 0.0

3.6986720431921836e6 7.003861698801873e6 0.0
7.003861698801873e6 -2.4356086003976263e7 0.0
0.0 0.0 0.0

-7.569997553450495e6 1.8030574487092122e7 0.0
1.8030574487092122e7 2.0973514119453855e7 0.0
0.0 0.0 0.0

1.7120590940784113e6 1.351613199768776e7 0.0
1.351613199768776e7 -1.6791871334859665e7 0.0
0.0 0.0 0.0

-2.7740500158621394e6 1.9440384674425967e7 0.0
1.9440384674425967e7 -1.0091789139257174e7 0.0
0.0 0.0 0.0

4.953056587797078e6 2.0516463733179163e7 0.0
2.0516463733179163e7 -3.6907544184841597e6 0.0
0.0 0.0 0.0

-1.8374372471400443e6 1.246867246083193e7 0.0
1.246867246083193e7 -1.1946604055103415e6 0.0
0.0 0.0 0.0

1.7120542785434187e6 5.857027756319416e6 0.0
5.857027756319416e6 -5.541400218209181e6 0.0
0.0 0.0 0.0

-2.438432455249001e6 8.582515054435566e6 0.0
8.582515054435566e6 -1.5531896419720221e6 0.0
0.0 0.0 0.0

-5.086123673718926e6 5.95572633242082e6 0.0
5.95572633242082e6 8.473703080274926e6 0.0
0.0 0.0 0.0

-4.720146117973374e6 1.538777220468732e7 0.0
1.538777220468732e7 -2.5666548677899256e7 0.0
0.0 0.0 0.0

2.3947101426499086e6 1.1203511367873887e7 0.0
1.1203511367873887e7 -2.430388769586858e7 0.0
0.0 0.0 0.0

2.6597668275068924e6 6.23692079421986e6 0.0
6.23692079421986e6 -1.4721849114511792e7 0.0
0.0 0.0 0.0

2.486156929126978e6 8.8342040739362e6 0.0
8.8342040739362e6 -1.2428394874508146e7 0.0
0.0 0.0 0.0

-2.324844180002912e6 1.468394697839378e7 0.0
1.468394697839378e7 -760849.1482675212 0.0
0.0 0.0 0.0

2.2656195587418247e6 8.532978326336807e6 0.0
8.532978326336807e6 -1.5853752623554846e7 0.0
0.0 0.0 0.0

-824900.7863049237 7.546080073782575e6 0.0
7.546080073782575e6 -4.1927721496557686e6 0.0
0.0 0.0 0.0

4.164275575606453e6 4.7460172543071415e6 0.0
4.7460172543071415e6 -1.816438864519772e7 0.0
0.0 0.0 0.0

765518.1845725304 1.4249538930404142e7 0.0
1.4249538930404142e7 -1.1922316661410887e7 0.0
0.0 0.0 0.0

-8.123464872046545e6 5.100054310695968e6 0.0
5.100054310695968e6 8.59013760040846e6 0.0
0.0 0.0 0.0

-1.128522969478995e6 2.091560628956138e7 0.0
2.091560628956138e7 -7.628165323092026e6 0.0
0.0 0.0 0.0

2.665439768704556e6 5.684280833253411e6 0.0
5.684280833253411e6 -3.870976732315564e7 0.0
0.0 0.0 0.0

500883.2271128907 1.5149385024023306e7 0.0
1.5149385024023306e7 -1.1509522294992846e7 0.0
0.0 0.0 0.0

3.339941908314692e6 8.191933301945416e6 0.0
8.191933301945416e6 -1.90206513347873e7 0.0
0.0 0.0 0.0

-1.7936712166417632e6 4.764755351942102e6 0.0
4.764755351942102e6 2.736581287917351e6 0.0
0.0 0.0 0.0

3.536914486116261e6 7.542984391137853e6 0.0
7.542984391137853e6 -2.0077912680691406e7 0.0
0.0 0.0 0.0

-3.3377790948153725e6 1.9133420223803375e7 0.0
1.9133420223803375e7 5.228914639117924e6 0.0
0.0 0.0 0.0

322917.647544899 2.2407475122508273e7 0.0
2.2407475122508273e7 -7.210954136829213e6 0.0
0.0 0.0 0.0

-792672.7881060112 1.7133870020179536e7 0.0
1.7133870020179536e7 -1.7094652450180557e7 0.0
0.0 0.0 0.0

507101.7988432399 6.438940282124834e6 0.0
6.438940282124834e6 -6.428631598956496e6 0.0
0.0 0.0 0.0

302362.32528379536 2.3239844260316722e7 0.0
2.3239844260316722e7 -5.589137476278861e6 0.0
0.0 0.0 0.0

-166021.07066245144 1.9508437499934062e7 0.0
1.9508437499934062e7 -9.329533307214972e6 0.0
0.0 0.0 0.0

-1.2330095332160164e7 6.217389545771309e6 0.0
6.217389545771309e6 1.729127969145127e7 0.0
0.0 0.0 0.0

-3.92053306979701e6 2.0332250323066536e7 0.0
2.0332250323066536e7 1.259517102305035e7 0.0
0.0 0.0 0.0

-4.1190060622507683e6 4.256475163509792e6 0.0
4.256475163509792e6 2.8240889074525815e6 0.0
0.0 0.0 0.0

-2.210057792547667e6 9.913061469537275e6 0.0
9.913061469537275e6 1.1414360972836707e6 0.0
0.0 0.0 0.0

-9.580603386311714e6 6.8635668425996825e6 0.0
6.8635668425996825e6 3.961904013078541e7 0.0
0.0 0.0 0.0

-5.87326134670883e6 1.271896875231018e7 0.0
1.271896875231018e7 6.419551343082921e6 0.0
0.0 0.0 0.0

2.271650966395601e6 1.7995130242217917e7 0.0
1.7995130242217917e7 1.2656532710391618e6 0.0
0.0 0.0 0.0

567668.7475265306 1.3154116960770393e7 0.0
1.3154116960770393e7 -9.73087845619564e6 0.0
0.0 0.0 0.0

-126359.75634568697 1.4227516206401411e7 0.0
1.4227516206401411e7 -1.173714903653501e7 0.0
0.0 0.0 0.0

-1.0990162712836526e6 1.2689799094705243e7 0.0
1.2689799094705243e7 -3.766563049349802e7 0.0
0.0 0.0 0.0

2.261703739120513e6 6.047272460493346e6 0.0
6.047272460493346e6 -4.117811914190843e7 0.0
0.0 0.0 0.0

-1.2732907999312157e7 9.583476274290547e6 0.0
9.583476274290547e6 2.1865172175259754e7 0.0
0.0 0.0 0.0

-3.1147570446014754e6 2.2167485581717215e7 0.0
2.2167485581717215e7 5.936605369726044e6 0.0
0.0 0.0 0.0

-1.1152687361505972e7 2.6455209421925326e6 0.0
2.6455209421925326e6 3.1229596029928546e7 0.0
0.0 0.0 0.0

109055.94007020071 1.8376811435129926e7 0.0
1.8376811435129926e7 -1.1399173538380183e7 0.0
0.0 0.0 0.0

-9864.912114055827 1.792550373151847e7 0.0
1.792550373151847e7 -1.3562545791962361e7 0.0
0.0 0.0 0.0

1.177351073309886e7 5.760220236606182e6 0.0
5.760220236606182e6 -2.258962113670269e6 0.0
0.0 0.0 0.0

1.5974752490851423e6 9.024282488716818e6 0.0
9.024282488716818e6 -9.06803606929944e6 0.0
0.0 0.0 0.0

-9.817469080397038e6 1.2172557380484112e7 0.0
1.2172557380484112e7 1.41032964272356e7 0.0
0.0 0.0 0.0

-2.244181536462824e6 1.697848345680628e7 0.0
1.697848345680628e7 -1.6244550299497489e7 0.0
0.0 0.0 0.0

711105.4359767083 1.391698034525733e7 0.0
1.391698034525733e7 -1.125054157320387e7 0.0
0.0 0.0 0.0

876883.9203338735 1.4952209642120404e7 0.0
1.4952209642120404e7 -1.312387737761508e7 0.0
0.0 0.0 0.0

-1.0160115241963979e7 1.224536947426789e7 0.0
1.224536947426789e7 3.0963117860817723e7 0.0
0.0 0.0 0.0

-1.271766328189062e7 9.08826961123696e6 0.0
9.08826961123696e6 1.9784423529776238e7 0.0
0.0 0.0 0.0

-241497.0636940929 1.3875070795576597e7 0.0
1.3875070795576597e7 -1.1055832328342019e7 0.0
0.0 0.0 0.0

-1.267523163005256e6 1.691855929076389e7 0.0
1.691855929076389e7 -8.86865746215299e6 0.0
0.0 0.0 0.0

-5.258500621840336e6 1.8648676559384085e7 0.0
1.8648676559384085e7 -8.015493693413804e6 0.0
0.0 0.0 0.0

-2.36945381451662e6 2.2599850471690685e7 0.0
2.2599850471690685e7 -2.2148995510085267e6 0.0
0.0 0.0 0.0

2.23529073797803e6 1.1278859100278078e7 0.0
1.1278859100278078e7 -2.5915480813967023e7 0.0
0.0 0.0 0.0

-2.3019210822626543e6 2.663267647653757e7 0.0
2.663267647653757e7 2.247546338224787e6 0.0
0.0 0.0 0.0

-8.51871590454885e6 1.31185576969303e7 0.0
1.31185576969303e7 1.2534402036744747e7 0.0
0.0 0.0 0.0

-6.248747720368754e6 2.199126985660526e7 0.0
2.199126985660526e7 -8.553664970428955e6 0.0
0.0 0.0 0.0

3255.9079078434734 1.6152979565994604e7 0.0
1.6152979565994604e7 -1.621581941848061e6 0.0
0.0 0.0 0.0

-501387.8012619186 1.7399926825242527e7 0.0
1.7399926825242527e7 -1.5951427038491564e7 0.0
0.0 0.0 0.0

-1.7961220006542297e6 1.73244963026438e7 0.0
1.73244963026438e7 -9.44047558864932e6 0.0
0.0 0.0 0.0

-3.930986520703494e6 2.1539110828485183e7 0.0
2.1539110828485183e7 8.180021685976196e6 0.0
0.0 0.0 0.0

150150.76846291916 1.7192175672852874e7 0.0
1.7192175672852874e7 -1.1018075342061251e7 0.0
0.0 0.0 0.0

-364047.7145469785 1.3521351267627276e7 0.0
1.3521351267627276e7 -1.0310403232691476e7 0.0
0.0 0.0 0.0

-104653.43314487394 1.631122622746607e7 0.0
1.631122622746607e7 -1.9117271287513725e7 0.0
0.0 0.0 0.0

-1.2003125863795837e6 1.1335515570857378e7 0.0
1.1335515570857378e7 -6.092491081962746e6 0.0
0.0 0.0 0.0

-3.296988251813572e6 2.081811798134095e7 0.0
2.081811798134095e7 1.5972430299871634e6 0.0
0.0 0.0 0.0

-2.23456530991418e6 2.2127923460547604e7 0.0
2.2127923460547604e7 -3.238286349762856e6 0.0
0.0 0.0 0.0

-766048.1153819773 4.351877136312495e6 0.0
4.351877136312495e6 1.0296850942488017e6 0.0
0.0 0.0 0.0

633128.8554487927 1.0030097384044753e7 0.0
1.0030097384044753e7 -1.0479328798280912e7 0.0
0.0 0.0 0.0

-1.8162520219703277e6 2.3475297982561667e7 0.0
2.3475297982561667e7 -647250.6781491564 0.0
0.0 0.0 0.0

-4.0758516596895577e6 1.872503548459885e7 0.0
1.872503548459885e7 4.57932198697282e6 0.0
0.0 0.0 0.0

-7.80458697709775e7 7.278846827105752e6 0.0
7.278846827105752e6 3.3020903286852576e6 0.0
0.0 0.0 0.0

905149.2088482343 1.4732598669351278e7 0.0
1.4732598669351278e7 -2.1499417742866963e7 0.0
0.0 0.0 0.0

-4.720972702642353e6 1.7659221178385966e7 0.0
1.7659221178385966e7 7.148359838325522e6 0.0
0.0 0.0 0.0

-1.7563444320266582e6 2.0432379049454197e7 0.0
2.0432379049454197e7 -3.298726659392145e6 0.0
0.0 0.0 0.0

-4.422124223306951e6 1.8561945514455196e7 0.0
1.8561945514455196e7 6.927307353448978e6 0.0
0.0 0.0 0.0

-1.674816159711442e6 1.9214655656007886e7 0.0
1.9214655656007886e7 750867.7756854607 0.0
0.0 0.0 0.0

-291591.2302512084 1.852296087143662e7 0.0
1.852296087143662e7 -9.58576562898468e6 0.0
0.0 0.0 0.0

-7.17993787180513e6 1.4077479850734027e7 0.0
1.4077479850734027e7 1.0746333264064476e7 0.0
0.0 0.0 0.0

-1.1707010435098616e7 5.945609171711994e6 0.0
5.945609171711994e6 2.4304588848783974e7 0.0
0.0 0.0 0.0

-537033.5656708016 1.1911144754166318e7 0.0
1.1911144754166318e7 -5.019845359197663e6 0.0
0.0 0.0 0.0

2.900796306560422e6 5.849422812771652e6 0.0
5.849422812771652e6 -1.0448340944157954e7 0.0
0.0 0.0 0.0

-1.721075731758653e6 1.5174825656304153e7 0.0
1.5174825656304153e7 -6.858869057752236e6 0.0
0.0 0.0 0.0

-592280.7787750056 1.911785938361727e7 0.0
1.911785938361727e7 -1.0595484428735932e7 0.0
0.0 0.0 0.0

-4.3017443214196805e6 1.7833412017542098e7 0.0
1.7833412017542098e7 4.697810731678925e6 0.0
0.0 0.0 0.0

-2.4713740895072035e6 1.3956363977319703e7 0.0
1.3956363977319703e7 -4.095241493046366e6 0.0
0.0 0.0 0.0

-6.959964070977323e6 925180.4765815069 0.0
925180.4765815069 1.1522469881962053e7 0.0
0.0 0.0 0.0

2.3966279951804355e6 5.755870692524806e6 0.0
5.755870692524806e6 -1.2124823078435436e7 0.0
0.0 0.0 0.0

-1.101309769656895e7 5.687692156905455e6 0.0
5.687692156905455e6 3.1180527405849263e7 0.0
0.0 0.0 0.0

-1.1422205761283271e7 1.8601151433277277e6 0.0
1.8601151433277277e6 1.737598262917336e7 0.0
0.0 0.0 0.0

-3.4122122999934806e6 1.8352248520526465e7 0.0
1.8352248520526465e7 2.0107388907154646e7 0.0
0.0 0.0 0.0

-1.402260730283529e6 1.7702761539264355e7 0.0
1.7702761539264355e7 -8.480802495444413e6 0.0
0.0 0.0 0.0

486275.80810128525 9.453043204016497e6 0.0
9.453043204016497e6 -9.739474693665542e6 0.0
0.0 0.0 0.0

-1.0588035457440652e7 5.465289228356446e6 0.0
5.465289228356446e6 3.350969930646901e7 0.0
0.0 0.0 0.0

-1.513998288271573e6 2.064987560024254e7 0.0
2.064987560024254e7 -4.059108533124748e6 0.0
0.0 0.0 0.0

-4.0063983988363603e6 1.3000892811169203e7 0.0
1.3000892811169203e7 731258.9905912399 0.0
0.0 0.0 0.0

-1.4331635648473094e6 9.34772174615092e6 0.0
9.34772174615092e6 -378951.09363514517 0.0
0.0 0.0 0.0

-1.6196518536022778e6 1.2352236122539785e7 0.0
1.2352236122539785e7 -5.721470555091636e6 0.0
0.0 0.0 0.0

-2.1083146426278222e6 1.5878337938022168e7 0.0
1.5878337938022168e7 -2.4432243751000635e7 0.0
0.0 0.0 0.0

-3.5218883772019837e6 1.862804184883299e7 0.0
1.862804184883299e7 6.4568511225416055e6 0.0
0.0 0.0 0.0

556914.2026403081 1.787043530690845e7 0.0
1.787043530690845e7 -1.35857456313738e7 0.0
0.0 0.0 0.0

-1.6402944103440568e6 1.5972980161716528e7 0.0
1.5972980161716528e7 4.986883960192866e7 0.0
0.0 0.0 0.0

2.8883205929499697e6 2.0590791402919453e7 0.0
2.0590791402919453e7 1.0302375775686892e7 0.0
0.0 0.0 0.0

-1.1313840032115206e7 1.1676631253523272e7 0.0
1.1676631253523272e7 1.6601374097127933e7 0.0
0.0 0.0 0.0

2.327483455411273e6 1.1789133917492576e7 0.0
1.1789133917492576e7 -2.1551219089137588e7 0.0
0.0 0.0 0.0

-1.6156829171742257e6 1.4556607034605911e7 0.0
1.4556607034605911e7 -3.1682063880170374e6 0.0
0.0 0.0 0.0

430867.5580404699 2.0186078295915987e7 0.0
2.0186078295915987e7 -1.0112003064029997e7 0.0
0.0 0.0 0.0

-2.876124103842368e6 2.3044821131699603e7 0.0
2.3044821131699603e7 4.1069625667812712e6 0.0
0.0 0.0 0.0

-2.1141857027923046e6 2.160719643579579e7 0.0
2.160719643579579e7 -4.119950635725541e6 0.0
0.0 0.0 0.0

-243464.95757699478 1.774894067725036e7 0.0
1.774894067725036e7 -1.4804458894998629e7 0.0
0.0 0.0 0.0

-1.348790715583662e6 1.354684168621935e7 0.0
1.354684168621935e7 -3.456593007997113e6 0.0
0.0 0.0 0.0

-4.11103444287399e6 1.9085198526111297e7 0.0
1.9085198526111297e7 5.673418735038485e6 0.0
0.0 0.0 0.0

-1.2022524768303134e7 5.281693853788403e6 0.0
5.281693853788403e6 1.595940480159536e7 0.0
0.0 0.0 0.0

2.7200595191413257e6 5.643559637836227e6 0.0
5.643559637836227e6 -1.386671132102247e7 0.0
0.0 0.0 0.0

-1.1865592812528196e6 1.5373902477212368e7 0.0
1.5373902477212368e7 -5.094371107652237e6 0.0
0.0 0.0 0.0

2.9445194095317377e6 9.006738273385905e6 0.0
9.006738273385905e6 -1.6475757631217206e7 0.0
0.0 0.0 0.0

-2.971641109828336e6 1.859797911874275e7 0.0
1.859797911874275e7 2.170675827101737e6 0.0
0.0 0.0 0.0

-641701.0720001138 8.837659676194066e6 0.0
8.837659676194066e6 -1.8228488610881777e6 0.0
0.0 0.0 0.0

-1.0805627134487452e6 2.4921443131861463e7 0.0
2.4921443131861463e7 -3.015203706856914e6 0.0
0.0 0.0 0.0

-5.2257068574491896e7 3.5775170590512245e6 0.0
3.5775170590512245e6 6.646771105183445e6 0.0
0.0 0.0 0.0

4035.966131811845 8.273026273485672e6 0.0
8.273026273485672e6 -3.088952247852868e6 0.0
0.0 0.0 0.0

-2.422969727871374e6 1.511935044207491e7 0.0
1.511935044207491e7 -2.9658651711417317e7 0.0
0.0 0.0 0.0

595326.402896049 1.9316345939209193e7 0.0
1.9316345939209193e7 -9.176774762231156e6 0.0
0.0 0.0 0.0

939241.5270215739 1.2572203599785758e7 0.0
1.2572203599785758e7 -1.080347105433421e7 0.0
0.0 0.0 0.0

772377.2522254679 1.643263331444761e7 0.0
1.643263331444761e7 -1.685831961346556e7 0.0
0.0 0.0 0.0

608937.318432638 7.761835141221762e6 0.0
7.761835141221762e6 -4.2389727451663595e6 0.0
0.0 0.0 0.0

3.475667714715274e6 7.607157162604932e6 0.0
7.607157162604932e6 -1.842255166376222e7 0.0
0.0 0.0 0.0

-2.4728735686770794e6 2.30682446838225e7 0.0
2.30682446838225e7 -1.2885252967539988e6 0.0
0.0 0.0 0.0

408354.866981477 5.762936769405871e6 0.0
5.762936769405871e6 -5.312230774623703e6 0.0
0.0 0.0 0.0

1.1252537284388728e6 9.92237819479981e6 0.0
9.92237819479981e6 -1.2275357563263364e7 0.0
0.0 0.0 0.0

-821214.6793084738 2.597064624112928e7 0.0
2.597064624112928e7 -2.1308394541745167e6 0.0
0.0 0.0 0.0

2.745114811429534e6 1.8860712882107463e7 0.0
1.8860712882107463e7 93968.39291778824 0.0
0.0 0.0 0.0

469279.71382121975 2.1596383517410867e7 0.0
2.1596383517410867e7 -7.942702537675302e6 0.0
0.0 0.0 0.0

2.108345008152604e6 7.821811311389468e6 0.0
7.821811311389468e6 -4.8453357385347724e7 0.0
0.0 0.0 0.0

-9.58487934832922e6 1.6115176487280758e7 0.0
1.6115176487280758e7 2.4346801772542726e7 0.0
0.0 0.0 0.0

-2.3399023689568117e6 2.2398052376113992e7 0.0
2.2398052376113992e7 678977.203264066 0.0
0.0 0.0 0.0

2.7881298517631283e6 8.689421100860536e6 0.0
8.689421100860536e6 -1.4125245275624102e7 0.0
0.0 0.0 0.0

1.08705437773921e6 7.14445402171585e6 0.0
7.14445402171585e6 -5.326484911316629e6 0.0
0.0 0.0 0.0

387869.8710968825 8.886161151410675e6 0.0
8.886161151410675e6 -8.951009438714141e6 0.0
0.0 0.0 0.0

-3.3445580418461184e6 2.5922280706455745e7 0.0
2.5922280706455745e7 4.440656017137382e6 0.0
0.0 0.0 0.0

-9.536594562708102e6 -225568.32346500983 0.0
-225568.32346500983 1.8311717548703056e7 0.0
0.0 0.0 0.0

-1.1420521014409272e7 1.4246157086293768e7 0.0
1.4246157086293768e7 2.2325870815033484e7 0.0
0.0 0.0 0.0

-1.689382849265094e6 2.185620875677694e7 0.0
2.185620875677694e7 -2.8012354887443343e6 0.0
0.0 0.0 0.0

1.0906285262546698e6 1.4093391549119795e7 0.0
1.4093391549119795e7 -1.3643474797167886e7 0.0
0.0 0.0 0.0

-3.955627940616588e6 1.9207625662322283e7 0.0
1.9207625662322283e7 1.739848509088431e7 0.0
0.0 0.0 0.0

-2.658505603497877e6 1.495622420391638e7 0.0
1.495622420391638e7 -3.7967734646159317e6 0.0
0.0 0.0 0.0

436147.61125933845 1.4793349245722342e7 0.0
1.4793349245722342e7 -1.0891917565424414e7 0.0
0.0 0.0 0.0

-514141.129196316 1.4537047162252631e7 0.0
1.4537047162252631e7 -2.5498167607575867e7 0.0
0.0 0.0 0.0

961753.5083883768 2.272332957821875e7 0.0
2.272332957821875e7 -6.701963080512373e6 0.0
0.0 0.0 0.0

-710088.5482203327 1.2894475135551853e7 0.0
1.2894475135551853e7 -3.543306022255496e7 0.0
0.0 0.0 0.0

-1.15678528051009e7 4.241331260530671e6 0.0
4.241331260530671e6 1.5146637639061913e7 0.0
0.0 0.0 0.0

4.0072093520151963e6 1.9649312004033033e7 0.0
1.9649312004033033e7 2.0036103936195504e7 0.0
0.0 0.0 0.0

-3.8984236583606545e6 2.507154781249506e7 0.0
2.507154781249506e7 4.7714149439557195e6 0.0
0.0 0.0 0.0

-2.398518681443549e6 1.5357999981096288e7 0.0
1.5357999981096288e7 -4.751237717891056e6 0.0
0.0 0.0 0.0

2.535469803446478e6 2.0098181304841742e7 0.0
2.0098181304841742e7 -5.940691407492773e6 0.0
0.0 0.0 0.0

-1.4715882389345719e6 2.138391865716925e7 0.0
2.138391865716925e7 -3.773385819364584e6 0.0
0.0 0.0 0.0

-5.261698927632244e6 7.616374509150273e6 0.0
7.616374509150273e6 4.0010866511654146e6 0.0
0.0 0.0 0.0

-41067.79920592904 1.8101442218829263e7 0.0
1.8101442218829263e7 -1.372595003380365e7 0.0
0.0 0.0 0.0

1.8234109030485833e6 1.3428827727044182e7 0.0
1.3428827727044182e7 -1.8377249000044227e7 0.0
0.0 0.0 0.0

1.5877768378541982e6 1.3941263896386666e7 0.0
1.3941263896386666e7 -1.7261642197487317e7 0.0
0.0 0.0 0.0

-800699.0101539372 1.4069799502072819e7 0.0
1.4069799502072819e7 -9.18984512616753e6 0.0
0.0 0.0 0.0

1.1193142036646124e7 2.3438181855524253e7 0.0
2.3438181855524253e7 -5.339715949432888e6 0.0
0.0 0.0 0.0

1.691812172281397e6 1.0563916836450534e7 0.0
1.0563916836450534e7 -1.1271670833708093e7 0.0
0.0 0.0 0.0

2.7253920898093116e6 5.168345056845649e6 0.0
5.168345056845649e6 -1.3175444639527999e7 0.0
0.0 0.0 0.0

2.0118042750612367e6 1.2868000829122841e7 0.0
1.2868000829122841e7 -1.939484184257758e7 0.0
0.0 0.0 0.0

2.592422499735918e6 6.461972428179987e6 0.0
6.461972428179987e6 -3.683933811946048e7 0.0
0.0 0.0 0.0

-7.0973766642541485e6 6.822667916601845e6 0.0
6.822667916601845e6 7.078547668844314e6 0.0
0.0 0.0 0.0

-3.5198202854387993e6 2.036434504147057e7 0.0
2.036434504147057e7 2.386681306948551e6 0.0
0.0 0.0 0.0

3.9515108472124273e6 4.804670033105333e6 0.0
4.804670033105333e6 -2.1671196956617326e7 0.0
0.0 0.0 0.0

1.971036899157201e6 6.405380505715203e6 0.0
6.405380505715203e6 -1.1328820989514096e7 0.0
0.0 0.0 0.0

-283216.93504095776 1.4259583860314302e7 0.0
1.4259583860314302e7 -7.482547484158217e6 0.0
0.0 0.0 0.0

-9.015817153933667e6 1.3159433291095877e7 0.0
1.3159433291095877e7 3.2710243246377867e7 0.0
0.0 0.0 0.0

-4.793933979117177e6 2.0244515439113855e7 0.0
2.0244515439113855e7 1.2862162528152121e7 0.0
0.0 0.0 0.0

-4.71250566392079e6 8.742928228090495e6 0.0
8.742928228090495e6 2.7517393558199788e6 0.0
0.0 0.0 0.0

-7.359839288613553e6 1.8332986356397178e7 0.0
1.8332986356397178e7 1.859249148151731e7 0.0
0.0 0.0 0.0

3.75683767434239e6 6.134080069903886e6 0.0
6.134080069903886e6 -1.6259542640063198e7 0.0
0.0 0.0 0.0

2.1064348159455704e6 1.2335603181256682e7 0.0
1.2335603181256682e7 -2.0598418998247083e7 0.0
0.0 0.0 0.0

-3.943851670426387e6 5.1903322388967864e7 0.0
5.1903322388967864e7 3.4172761885769414e6 0.0
0.0 0.0 0.0

-5.478833822979604e6 1.2201803486850582e7 0.0
1.2201803486850582e7 4.938461260392409e6 0.0
0.0 0.0 0.0

-1.0917041324458659e7 2.8929992164841923e6 0.0
2.8929992164841923e6 1.4151236955346413e7 0.0
0.0 0.0 0.0

89163.45161618292 1.7216439618091114e7 0.0
1.7216439618091114e7 -1.461093495355532e7 0.0
0.0 0.0 0.0

1.4000537157915896e6 1.4476895599032814e7 0.0
1.4476895599032814e7 -1.6271313180752026e7 0.0
0.0 0.0 0.0

-918700.6655928302 2.238237774350716e6 0.0
2.238237774350716e6 4.099906204396716e6 0.0
0.0 0.0 0.0

-1.9388853611698372e6 888533.3039345043 0.0
888533.3039345043 5.701378501192676e6 0.0
0.0 0.0 0.0

-4.165486749470652e6 2.6184860635949466e7 0.0
2.6184860635949466e7 4.0428809689024277e6 0.0
0.0 0.0 0.0

-4.633824309834018e6 1.729932402865487e7 0.0
1.729932402865487e7 5.964597975969113e6 0.0
0.0 0.0 0.0

-3.209356386555925e6 2.5910485208418164e7 0.0
2.5910485208418164e7 2.3542863216636977e6 0.0
0.0 0.0 0.0

3.113357607471275e6 8.85339894525054e6 0.0
8.85339894525054e6 -1.8119549423566848e7 0.0
0.0 0.0 0.0

-3.885896754142384e6 1.9558758457718287e7 0.0
1.9558758457718287e7 4.501288855254708e6 0.0
0.0 0.0 0.0

-1.1012083298228793e7 2.8284392771164095e6 0.0
2.8284392771164095e6 2.6578955528022733e7 0.0
0.0 0.0 0.0

-6.3427204915311426e7 4.937354838869822e6 0.0
4.937354838869822e6 5.879242053596105e6 0.0
0.0 0.0 0.0

-3.4243521734027457e6 2.115459025058611e7 0.0
2.115459025058611e7 2.4805957510795044e6 0.0
0.0 0.0 0.0

-6.595378529535329e6 1.872163529844171e7 0.0
1.872163529844171e7 1.7233458169048697e7 0.0
0.0 0.0 0.0

-412778.63008836913 2.2887807528945502e7 0.0
2.2887807528945502e7 -6.171986359677904e6 0.0
0.0 0.0 0.0

2.046858162446931e6 5.85008920029187e6 0.0
5.85008920029187e6 -1.0342265570086975e7 0.0
0.0 0.0 0.0

-5.6307526990486765e6 1.3992648108339295e7 0.0
1.3992648108339295e7 6.442271854137996e6 0.0
0.0 0.0 0.0

-1.1036815001730904e7 2.2795463776082307e7 0.0
2.2795463776082307e7 -6.6311295087573435e6 0.0
0.0 0.0 0.0

-5.214546532613232e6 2.122087448295748e7 0.0
2.122087448295748e7 -7.215793449702769e6 0.0
0.0 0.0 0.0

3.267588122855655e6 6.986817969983104e6 0.0
6.986817969983104e6 -1.3545729123445645e7 0.0
0.0 0.0 0.0

-5.942236558776995e6 1.918481427232873e7 0.0
1.918481427232873e7 1.5808136932293927e7 0.0
0.0 0.0 0.0

-473822.80742149334 1.6616746429369314e7 0.0
1.6616746429369314e7 -8.397174563599456e6 0.0
0.0 0.0 0.0

2.698109095218191e6 4.858564220636337e6 0.0
4.858564220636337e6 -4.021128428764739e7 0.0
0.0 0.0 0.0

-9.814148491025165e6 717365.7238132516 0.0
717365.7238132516 3.8384252505128756e7 0.0
0.0 0.0 0.0

2.4512697608112385e6 9.33361049494732e6 0.0
9.33361049494732e6 -1.3175255082274977e7 0.0
0.0 0.0 0.0

3.669615077186018e6 6.928989951008049e6 0.0
6.928989951008049e6 -2.601026640932718e7 0.0
0.0 0.0 0.0

-299579.1272842132 1.78806124565084e7 0.0
1.78806124565084e7 -7.187319908416738e6 0.0
0.0 0.0 0.0

1.0483314947572704e6 1.1055849258963667e7 0.0
1.1055849258963667e7 -3.38912786490217e7 0.0
0.0 0.0 0.0

458106.6760271038 2.7692858467137486e7 0.0
2.7692858467137486e7 -2.5364302713506697e6 0.0
0.0 0.0 0.0

-5.801450863730652e6 1.6382258095246445e7 0.0
1.6382258095246445e7 3.0758601450979725e7 0.0
0.0 0.0 0.0

-1.0212148233286548e7 485514.50457888714 0.0
485514.50457888714 3.531199129351547e7 0.0
0.0 0.0 0.0

-640704.0490203027 1.7426861936196167e7 0.0
1.7426861936196167e7 -8.0491236864477545e6 0.0
0.0 0.0 0.0

2.7432945441972073e6 7.603709819916176e6 0.0
7.603709819916176e6 -3.1376029340570115e7 0.0
0.0 0.0 0.0

-2.6117751761592072e6 1.7577253933825012e7 0.0
1.7577253933825012e7 -209984.58783093118 0.0
0.0 0.0 0.0

-3.6461205252656695e6 1.9577048958021987e7 0.0
1.9577048958021987e7 2.3250219369403888e6 0.0
0.0 0.0 0.0

-1.1445195488671076e7 4.747711154839802e6 0.0
4.747711154839802e6 2.0815734404877737e7 0.0
0.0 0.0 0.0

1.4891862931833714e6 2.307048954229769e7 0.0
2.307048954229769e7 -6.40392762601721e6 0.0
0.0 0.0 0.0

630657.5673959039 1.8254721969752792e7 0.0
1.8254721969752792e7 -4.0443926263381075e6 0.0
0.0 0.0 0.0

-1.789331483571065e6 2.2360918707879517e7 0.0
2.2360918707879517e7 -1.8359017868993054e6 0.0
0.0 0.0 0.0

3.494346704150375e6 3.0504074502252364e6 0.0
3.0504074502252364e6 -3.808488228407053e7 0.0
0.0 0.0 0.0

-3.6990567899433114e6 1.998907283393323e7 0.0
1.998907283393323e7 3.376683327699025e6 0.0
0.0 0.0 0.0

973126.4003102714 1.2953918698848408e7 0.0
1.2953918698848408e7 -1.1539537764201557e7 0.0
0.0 0.0 0.0

-3.6933998500568224e6 1.0471725361560758e7 0.0
1.0471725361560758e7 264567.59285841533 0.0
0.0 0.0 0.0

-836495.9818431123 1.2999973800490482e7 0.0
1.2999973800490482e7 -4.737443796836528e6 0.0
0.0 0.0 0.0

-6.868302574716398e6 4.805205992203617e6 0.0
4.805205992203617e6 6.773883740881076e6 0.0
0.0 0.0 0.0

870017.0008938154 1.7480340812053565e7 0.0
1.7480340812053565e7 -5.033120640574172e6 0.0
0.0 0.0 0.0

-1.1274054756840032e7 7.227384106046789e6 0.0
7.227384106046789e6 2.957091264534058e7 0.0
0.0 0.0 0.0

352712.458966949 1.4455064085637327e7 0.0
1.4455064085637327e7 -1.0176731847343143e7 0.0
0.0 0.0 0.0

-3.707031206747648e6 5.472407058109931e6 0.0
5.472407058109931e6 1.6316169991519633e6 0.0
0.0 0.0 0.0

-4.538210036224607e6 2.675548242868491e7 0.0
2.675548242868491e7 4.142378409805704e6 0.0
0.0 0.0 0.0

-828775.9361777884 2.124905017365105e7 0.0
2.124905017365105e7 -5.805191942965052e6 0.0
0.0 0.0 0.0

1.0992230526367873e6 1.5175233317985341e7 0.0
1.5175233317985341e7 -1.9046135161722813e7 0.0
0.0 0.0 0.0

2.0786622614791105e6 9.948642758904602e6 0.0
9.948642758904602e6 -1.2241699250448946e7 0.0
0.0 0.0 0.0

-2.7893277832454615e6 2.1524318894948702e7 0.0
2.1524318894948702e7 3.0403738968611495e6 0.0
0.0 0.0 0.0

-7.167828681204667e6 1.834494282548328e7 0.0
1.834494282548328e7 1.9827935619629852e7 0.0
0.0 0.0 0.0

3.748395394039684e6 1.854925515601015e7 0.0
1.854925515601015e7 1.1015518853438947e7 0.0
0.0 0.0 0.0

2.3296542746997494e6 7.840554102838342e6 0.0
7.840554102838342e6 -3.364614575464884e7 0.0
0.0 0.0 0.0

-3.366261201023838e6 1.9458640220704816e7 0.0
1.9458640220704816e7 6.252855237318878e6 0.0
0.0 0.0 0.0

-3.039080254859302e6 2.0390982679892525e7 0.0
2.0390982679892525e7 3.9867009308289643e6 0.0
0.0 0.0 0.0

-1.1716350129194511e7 9.14309753289167e6 0.0
9.14309753289167e6 1.5660487501258899e7 0.0
0.0 0.0 0.0

934233.8140055182 2.827527817306419e7 0.0
2.827527817306419e7 -2.5672369951065024e6 0.0
0.0 0.0 0.0

470796.91217380995 1.2751907101404088e7 0.0
1.2751907101404088e7 -8.919594111325089e6 0.0
0.0 0.0 0.0

-9.492954979236916e6 1.5624454044933802e7 0.0
1.5624454044933802e7 1.7591703187802553e7 0.0
0.0 0.0 0.0

2.1080974025607933e6 9.45525412434866e6 0.0
9.45525412434866e6 -1.1508891374247983e7 0.0
0.0 0.0 0.0

-3.0258460515517737e6 8.091796714508603e6 0.0
8.091796714508603e6 3.7769394790362483e6 0.0
0.0 0.0 0.0

-2.64039572489742e6 2.1816866806239787e7 0.0
2.1816866806239787e7 2.150836530529927e6 0.0
0.0 0.0 0.0

-2.6108406262790686e6 2.2541762320738774e7 0.0
2.2541762320738774e7 2.2278688319260203e6 0.0
0.0 0.0 0.0

266673.6732467986 1.4096558756993964e7 0.0
1.4096558756993964e7 -9.41556930749673e6 0.0
0.0 0.0 0.0

1.5073163702458364e6 1.892023997932807e7 0.0
1.892023997932807e7 -5.152523678506546e6 0.0
0.0 0.0 0.0

9.1454112249253e6 2.4368232555398587e7 0.0
2.4368232555398587e7 -5.585952599279562e6 0.0
0.0 0.0 0.0

-5.193994569901431e6 2.1211185090361353e7 0.0
2.1211185090361353e7 7.322675828591149e6 0.0
0.0 0.0 0.0

-7.220150671421119e6 1.5686405024028946e7 0.0
1.5686405024028946e7 -3.2845784035643175e7 0.0
0.0 0.0 0.0

1.2420051186263515e6 1.0688748292143943e7 0.0
1.0688748292143943e7 -9.453308415887142e6 0.0
0.0 0.0 0.0

-1.1071077055839315e7 3.236728961660276e6 0.0
3.236728961660276e6 2.4593639015430093e7 0.0
0.0 0.0 0.0

-2.0610339522900016e6 1.9445350127800696e7 0.0
1.9445350127800696e7 -1.3878966974861594e6 0.0
0.0 0.0 0.0

-4.788090619393416e6 2.005187714682135e7 0.0
2.005187714682135e7 -877018.0593483599 0.0
0.0 0.0 0.0

-3.205310031898754e6 1.990913839069605e7 0.0
1.990913839069605e7 5.037848373141592e6 0.0
0.0 0.0 0.0

-1.0547223704267928e7 1.2009475190923794e6 0.0
1.2009475190923794e6 2.7635792736841027e7 0.0
0.0 0.0 0.0

-5.112140656291184e6 2.7324870474974465e7 0.0
2.7324870474974465e7 4.270824229589567e6 0.0
0.0 0.0 0.0

-3.2287000943489145e6 2.1484317125708472e7 0.0
2.1484317125708472e7 1.5812668419794757e6 0.0
0.0 0.0 0.0

1.616746814364802e6 1.7681884087749973e7 0.0
1.7681884087749973e7 212418.35700340552 0.0
0.0 0.0 0.0

2.634654706333115e6 1.5664119267376726e7 0.0
1.5664119267376726e7 8.782182630585097e6 0.0
0.0 0.0 0.0

-3.574845686340222e6 1.8934376072666094e7 0.0
1.8934376072666094e7 7.506563995584139e6 0.0
0.0 0.0 0.0

-6.254612977653988e6 1.700266317806208e7 0.0
1.700266317806208e7 1.2267554339059599e7 0.0
0.0 0.0 0.0

3.263075549317724e6 6.404882480383825e6 0.0
6.404882480383825e6 -1.2773231554770134e7 0.0
0.0 0.0 0.0

-1.5492324283737848e6 2.256081945088241e7 0.0
2.256081945088241e7 -2.5657599651077837e6 0.0
0.0 0.0 0.0

-9.864705092425197e6 1.3767475151791843e7 0.0
1.3767475151791843e7 1.9349203804275986e7 0.0
0.0 0.0 0.0

3.5744903834575396e6 4.5276185804547835e6 0.0
4.5276185804547835e6 -1.99876560881286e7 0.0
0.0 0.0 0.0

-2.1866068938899185e6 2.0921423508511513e7 0.0
2.0921423508511513e7 -4.489396756894782e6 0.0
0.0 0.0 0.0

-3.117529153820265e6 1.9570699634826973e7 0.0
1.9570699634826973e7 4.0879626385399885e6 0.0
0.0 0.0 0.0

-2.5878964421139485e6 4.998276998944263e6 0.0
4.998276998944263e6 28040.539373240666 0.0
0.0 0.0 0.0

1.5691309255151926e6 1.067702436371544e7 0.0
1.067702436371544e7 -1.5279540571598725e7 0.0
0.0 0.0 0.0

-1.2815911579531557e6 4.576350267558179e7 0.0
4.576350267558179e7 2.563178459003396e6 0.0
0.0 0.0 0.0

1.498119995383706e6 7.111940030649174e6 0.0
7.111940030649174e6 -5.725705102432552e7 0.0
0.0 0.0 0.0

3.5181488261412727e6 5.512277541229299e6 0.0
5.512277541229299e6 -2.3214360422305867e7 0.0
0.0 0.0 0.0

2.1382893242881717e6 1.1952655999049189e7 0.0
1.1952655999049189e7 -1.7079341201246716e7 0.0
0.0 0.0 0.0

-4.644936498265468e6 2.0684430928647712e7 0.0
2.0684430928647712e7 5.332016548052298e6 0.0
0.0 0.0 0.0

845196.1615741253 1.3966696306005197e7 0.0
1.3966696306005197e7 -2.288804226194329e7 0.0
0.0 0.0 0.0

1.1882762348045236e6 1.018487799938996e7 0.0
1.018487799938996e7 -8.668655614629975e6 0.0
0.0 0.0 0.0

-2.9284149673244804e6 9.906284059709478e6 0.0
9.906284059709478e6 -1.2544516519234122e6 0.0
0.0 0.0 0.0

2.404319975099715e6 1.764360742447638e7 0.0
1.764360742447638e7 1.550751314567973e7 0.0
0.0 0.0 0.0

-6.027765172659196e6 1.6651341025640424e7 0.0
1.6651341025640424e7 2.8836939651672438e7 0.0
0.0 0.0 0.0

9.35268036735325e6 1.3953652481800668e7 0.0
1.3953652481800668e7 6.093918550700696e6 0.0
0.0 0.0 0.0

-4.5259610757409455e6 2.983057899809378e7 0.0
2.983057899809378e7 2.514143076239488e6 0.0
0.0 0.0 0.0

-1.2667322529380254e6 1.461587879005996e7 0.0
1.461587879005996e7 -8.039593945008329e6 0.0
0.0 0.0 0.0

-2.64925328676008e7 2.3599975562744383e7 0.0
2.3599975562744383e7 -85473.23624643683 0.0
0.0 0.0 0.0

-254303.4024107512 1.5834111768806376e7 0.0
1.5834111768806376e7 -8.745098638208658e6 0.0
0.0 0.0 0.0

-3.0359581042958163e6 2.0025629301964343e7 0.0
2.0025629301964343e7 3.004744482615102e6 0.0
0.0 0.0 0.0

-129807.46745438548 1.2881737912984164e7 0.0
1.2881737912984164e7 -6.863659508859783e6 0.0
0.0 0.0 0.0

-854532.0426788647 1.5251846440803144e7 0.0
1.5251846440803144e7 -2.331394532358519e7 0.0
0.0 0.0 0.0

3.440848257247503e6 5.267587033527463e6 0.0
5.267587033527463e6 -1.9043327181455128e7 0.0
0.0 0.0 0.0

2.0995395255345274e6 1.0275902674714716e7 0.0
1.0275902674714716e7 -3.060820573015738e7 0.0
0.0 0.0 0.0

-1.8722806659027925e6 1.8970656214746367e7 0.0
1.8970656214746367e7 1.5279303743588267e7 0.0
0.0 0.0 0.0

3.5398791762736747e6 7.262697988838736e6 0.0
7.262697988838736e6 -2.1662198089313626e7 0.0
0.0 0.0 0.0

-1.9083646136114136e6 2.1066492613233462e7 0.0
2.1066492613233462e7 -5.117578895219274e6 0.0
0.0 0.0 0.0

-704185.2691645399 1.821587234794152e7 0.0
1.821587234794152e7 -1.0760253374557033e7 0.0
0.0 0.0 0.0

-2.2005643050032924e6 1.2910914760164909e7 0.0
1.2910914760164909e7 -4.431494378213815e6 0.0
0.0 0.0 0.0

-4.364212470673644e6 1.4740397155484246e7 0.0
1.4740397155484246e7 2.304813169481766e6 0.0
0.0 0.0 0.0

-9.23356475176163e6 1.6208513311434284e7 0.0
1.6208513311434284e7 1.8351674504266568e7 0.0
0.0 0.0 0.0

2.6739468875358114e6 9.634438980909e6 0.0
9.634438980909e6 -1.5528502291071242e7 0.0
0.0 0.0 0.0

-5.512538948766588e6 3.1863079213594712e7 0.0
3.1863079213594712e7 2.5996056430051336e6 0.0
0.0 0.0 0.0

-5.891064354726472e6 2.7795848716907445e7 0.0
2.7795848716907445e7 4.5348293088425435e6 0.0
0.0 0.0 0.0

-8.841478688818987e6 1.715965790389512e7 0.0
1.715965790389512e7 1.9227599153919436e7 0.0
0.0 0.0 0.0

-1.4290905031232566e6 1.4873973175457582e7 0.0
1.4873973175457582e7 -4.763634816439271e6 0.0
0.0 0.0 0.0

1.1896952637302196e6 1.4991759222315881e7 0.0
1.4991759222315881e7 -1.5197339943147246e7 0.0
0.0 0.0 0.0

3.636938480814362e6 7.059303939308382e6 0.0
7.059303939308382e6 -1.950588087311173e7 0.0
0.0 0.0 0.0

-4.140784390535041e6 2.214865665192065e7 0.0
2.214865665192065e7 9.677292101813968e6 0.0
0.0 0.0 0.0

-1.2759858439740222e7 8.087716025194169e6 0.0
8.087716025194169e6 1.8982462154871605e7 0.0
0.0 0.0 0.0

2.6615142002031216e6 2.4956831660148256e7 0.0
2.4956831660148256e7 -4.923980047066291e6 0.0
0.0 0.0 0.0

-8.637317137932133e6 1.6645191888265922e6 0.0
1.6645191888265922e6 4.7754061167012915e7 0.0
0.0 0.0 0.0

-1.739425040546835e6 1.828982779617111e7 0.0
1.828982779617111e7 -7.364699538461406e6 0.0
0.0 0.0 0.0

-9.70770133947797e6 -3.5061494717320753e6 0.0
-3.5061494717320753e6 2.4381426172392786e7 0.0
0.0 0.0 0.0

-7.711511533461698e6 3.076263770999794e6 0.0
3.076263770999794e6 1.2147486983349407e7 0.0
0.0 0.0 0.0

3.244321253676424e6 5.767277558296864e6 0.0
5.767277558296864e6 -1.2175378807812948e7 0.0
0.0 0.0 0.0

-9.984184881656062e6 1.3191516025186528e7 0.0
1.3191516025186528e7 2.9469721318116374e7 0.0
0.0 0.0 0.0

2.5411821001050044e6 1.065246176631444e7 0.0
1.065246176631444e7 -2.5546392790573783e7 0.0
0.0 0.0 0.0

-1.726885693652791e6 2.1178154094911546e7 0.0
2.1178154094911546e7 -3.017324038585987e6 0.0
0.0 0.0 0.0

-2.9672076362541644e6 2.1127708457909048e7 0.0
2.1127708457909048e7 4.0152760112404143e6 0.0
0.0 0.0 0.0

-1.8307104176613565e6 1.55404743840644e7 0.0
1.55404743840644e7 -2.895914406959913e6 0.0
0.0 0.0 0.0

-3.130568988538556e6 2.1470491405807134e7 0.0
2.1470491405807134e7 6.073148845544047e6 0.0
0.0 0.0 0.0

1.1868722968824664e6 5.8240212761204485e6 0.0
5.8240212761204485e6 -7.328647790970214e6 0.0
0.0 0.0 0.0

-2.6922928115444276e6 1.8063653827989932e7 0.0
1.8063653827989932e7 -3.8093466081315363e6 0.0
0.0 0.0 0.0

7.440966161735997e6 2.498219288707949e7 0.0
2.498219288707949e7 -5.428134349910565e6 0.0
0.0 0.0 0.0

999272.1065480374 9.507504694890792e6 0.0
9.507504694890792e6 -8.0402934354483755e6 0.0
0.0 0.0 0.0

-143431.16912753647 1.4636721252518343e7 0.0
1.4636721252518343e7 -8.311159673819052e6 0.0
0.0 0.0 0.0

-4.43746204622192e6 2.066872097971783e7 0.0
2.066872097971783e7 -5.486383100749056e6 0.0
0.0 0.0 0.0

-2.0676169896080699e6 1.5122807085313803e7 0.0
1.5122807085313803e7 -1.8663366361169927e6 0.0
0.0 0.0 0.0

8.89861685562061e6 2.0879923232103035e7 0.0
2.0879923232103035e7 -2.9088884038660224e6 0.0
0.0 0.0 0.0

-1.4867367318629255e6 4.553014006199601e6 0.0
4.553014006199601e6 -1.456152440587351e6 0.0
0.0 0.0 0.0

3.516035930055201e6 4.832750937599116e6 0.0
4.832750937599116e6 -2.7883403407969e7 0.0
0.0 0.0 0.0

-2.1784632731888336e6 3.4101875488075786e6 0.0
3.4101875488075786e6 4.1666703649335187e6 0.0
0.0 0.0 0.0

-2.1098591646979535e6 9.369439591131382e6 0.0
9.369439591131382e6 -2.6467343823885084e6 0.0
0.0 0.0 0.0

-2.1487285914111603e6 1.5734671345189797e7 0.0
1.5734671345189797e7 -5.660127771407689e6 0.0
0.0 0.0 0.0

-7.289263051407599e6 4.529486775736617e6 0.0
4.529486775736617e6 1.1674583600963289e7 0.0
0.0 0.0 0.0

2.572895894936708e6 6.523344123312109e6 0.0
6.523344123312109e6 -9.357888518831749e6 0.0
0.0 0.0 0.0

198492.79949042667 1.8534995708565217e7 0.0
1.8534995708565217e7 -1.2671833296395615e7 0.0
0.0 0.0 0.0

-1.306797504985596e6 8.864060665794224e6 0.0
8.864060665794224e6 -4.0479793626545426e6 0.0
0.0 0.0 0.0

-1.3751607111065392e6 4.137350126702735e7 0.0
4.137350126702735e7 1.626000155136342e6 0.0
0.0 0.0 0.0

9.340870171896718e6 2.052287951648006e7 0.0
2.052287951648006e7 9.450483674624644e6 0.0
0.0 0.0 0.0

-599515.1180303681 8.2992503298637485e6 0.0
8.2992503298637485e6 -5.106893948143354e6 0.0
0.0 0.0 0.0

-6.1072597398727415e6 1.3297018996530298e7 0.0
1.3297018996530298e7 1.2099383379418567e7 0.0
0.0 0.0 0.0

1.932657652327409e6 4.341679488576102e6 0.0
4.341679488576102e6 -6.56302974684829e6 0.0
0.0 0.0 0.0

-1.1632326776130904e7 7.667019923218187e6 0.0
7.667019923218187e6 2.7614044774103716e7 0.0
0.0 0.0 0.0

12417.937743534567 7.691264277114456e6 0.0
7.691264277114456e6 -6.211837062000144e6 0.0
0.0 0.0 0.0

-7.057313494565427e6 3.196339992689072e7 0.0
3.196339992689072e7 4.545020696487309e6 0.0
0.0 0.0 0.0

3.5715477621209947e6 2.518107726630272e7 0.0
2.518107726630272e7 -4.92629465292546e6 0.0
0.0 0.0 0.0

3.846324369536007e6 6.366043963455375e6 0.0
6.366043963455375e6 -2.044068599185969e7 0.0
0.0 0.0 0.0

-908081.7932001357 1.8699577897803288e7 0.0
1.8699577897803288e7 -9.67233707023387e6 0.0
0.0 0.0 0.0

2.915867522377588e6 7.3088721977381185e6 0.0
7.3088721977381185e6 -2.854362850787875e7 0.0
0.0 0.0 0.0

-2.5480638300774186e6 1.6293781868359609e7 0.0
1.6293781868359609e7 -4.4420339101329725e6 0.0
0.0 0.0 0.0

1.518921720589274e6 1.8648307740748294e7 0.0
1.8648307740748294e7 1.1032842537112594e7 0.0
0.0 0.0 0.0

5.909265387590547e6 2.5256077990859974e7 0.0
2.5256077990859974e7 -5.190902327694863e6 0.0
0.0 0.0 0.0

962575.8755501607 9.086241114507662e6 0.0
9.086241114507662e6 -7.108721786272651e6 0.0
0.0 0.0 0.0

2.531432083171759e6 8.270901328919745e6 0.0
8.270901328919745e6 -1.1716665135124281e7 0.0
0.0 0.0 0.0

-578683.4804228712 1.1399144247769255e7 0.0
1.1399144247769255e7 -4.0315723633153187e6 0.0
0.0 0.0 0.0

-7.106332056288779e6 2.8210430835183434e7 0.0
2.8210430835183434e7 4.735591342336345e6 0.0
0.0 0.0 0.0

-4.0292864577328824e6 1.4158071625997826e7 0.0
1.4158071625997826e7 888708.2553299952 0.0
0.0 0.0 0.0

5.075196487993419e6 2.9271940844467755e7 0.0
2.9271940844467755e7 -3.5558236309517496e6 0.0
0.0 0.0 0.0

-1.599154759783953e6 1.5929489087604947e7 0.0
1.5929489087604947e7 -3.8690317046030955e6 0.0
0.0 0.0 0.0

4.1204916248031277e6 1.7687382180129893e7 0.0
1.7687382180129893e7 1.9413435040612962e7 0.0
0.0 0.0 0.0

-3.8060938908226104e6 2.029571626189505e7 0.0
2.029571626189505e7 -3.5662242305575227e6 0.0
0.0 0.0 0.0

-1.9456787181062624e6 2.2808377842595983e7 0.0
2.2808377842595983e7 -875600.772866773 0.0
0.0 0.0 0.0

-761053.0983733358 1.79435853858488e7 0.0
1.79435853858488e7 -1.2363294641942946e7 0.0
0.0 0.0 0.0

-592236.7673747521 1.2991484462651009e7 0.0
1.2991484462651009e7 -3.326855084471687e7 0.0
0.0 0.0 0.0

-8.100884485918047e6 1.6349533039030554e7 0.0
1.6349533039030554e7 2.6855692862792145e7 0.0
0.0 0.0 0.0

756556.9893207005 1.1013498512805976e7 0.0
1.1013498512805976e7 -1.1996578559829151e7 0.0
0.0 0.0 0.0

-1.1876520955226367e7 8.091731006622889e6 0.0
8.091731006622889e6 2.557730670203146e7 0.0
0.0 0.0 0.0

2.2589737422431055e6 1.1758536948844228e7 0.0
1.1758536948844228e7 -2.3117192678299174e7 0.0
0.0 0.0 0.0

-1.8753480377744315e6 1.1824448803125963e7 0.0
1.1824448803125963e7 -4.688145984096703e6 0.0
0.0 0.0 0.0

3.11786940072076e6 4.294945585810746e6 0.0
4.294945585810746e6 -1.2128520484469824e7 0.0
0.0 0.0 0.0

-3.5941795574698476e6 1.7593781720699698e7 0.0
1.7593781720699698e7 203452.88444662676 0.0
0.0 0.0 0.0

-3.182958764370005e6 2.2150778484864473e7 0.0
2.2150778484864473e7 1.6122907259951076e6 0.0
0.0 0.0 0.0

2126.522704384988 2.594740032610919e7 0.0
2.594740032610919e7 -3.3125187974596117e6 0.0
0.0 0.0 0.0

-2.6415514305799017e6 1.7191664155483782e7 0.0
1.7191664155483782e7 -4.1195149464635625e6 0.0
0.0 0.0 0.0

2.556406982230491e6 5.864175324158425e6 0.0
5.864175324158425e6 -8.615271938328996e6 0.0
0.0 0.0 0.0

4.625058875689594e6 2.5294403185876735e7 0.0
2.5294403185876735e7 -5.059389732926744e6 0.0
0.0 0.0 0.0

-1.1820730293187372e7 9.42181965133783e6 0.0
9.42181965133783e6 2.0871587284414764e7 0.0
0.0 0.0 0.0

2.4641346858810745e6 7.202709246582961e6 0.0
7.202709246582961e6 -3.523445782847276e7 0.0
0.0 0.0 0.0

2.1522326086606737e6 2.0380960342312638e7 0.0
2.0380960342312638e7 1.0960585027454348e7 0.0
0.0 0.0 0.0

-3.424033710188069e6 2.4476672701966017e7 0.0
2.4476672701966017e7 3.692629081663101e6 0.0
0.0 0.0 0.0

-2.258221485302086e6 1.6778106460974663e7 0.0
1.6778106460974663e7 -1.0275731112690598e7 0.0
0.0 0.0 0.0

-6.191878395511709e6 1.696838024657403e7 0.0
1.696838024657403e7 2.7248247587359328e7 0.0
0.0 0.0 0.0

-4.0608175337036722e6 1.758906379052716e7 0.0
1.758906379052716e7 -1.3536058430187251e7 0.0
0.0 0.0 0.0

-207637.6833505286 1.2131762613930032e7 0.0
1.2131762613930032e7 -9.843563776946463e6 0.0
0.0 0.0 0.0

995812.0223182039 1.7962669581919663e7 0.0
1.7962669581919663e7 1.3798496360098593e7 0.0
0.0 0.0 0.0

-973786.4674601667 3.859429525818472e7 0.0
3.859429525818472e7 1.4536794338954696e6 0.0
0.0 0.0 0.0

-2.7956755990127455e6 2.0343280817529477e7 0.0
2.0343280817529477e7 -8.171945155598632e6 0.0
0.0 0.0 0.0

4.71641784310923e7 1.7113232504974365e7 0.0
1.7113232504974365e7 3.298412110764254e6 0.0
0.0 0.0 0.0

-1.9299645582042292e6 1.3397400325796211e7 0.0
1.3397400325796211e7 -5.357559886575239e6 0.0
0.0 0.0 0.0

-3.396556316992182e6 1.796937034936805e7 0.0
1.796937034936805e7 -847162.9738180828 0.0
0.0 0.0 0.0

989291.407763089 1.3641220781662984e7 0.0
1.3641220781662984e7 -1.527079146423902e7 0.0
0.0 0.0 0.0

368453.4255258553 2.6451351265758384e7 0.0
2.6451351265758384e7 -3.2785251924000173e6 0.0
0.0 0.0 0.0

3.1642027834987473e6 5.939002704724809e6 0.0
5.939002704724809e6 -3.0836313439186152e7 0.0
0.0 0.0 0.0

146350.9493352212 8.199251082981463e6 0.0
8.199251082981463e6 -7.087739797266862e6 0.0
0.0 0.0 0.0

1.7853230726503795e6 1.093644329184659e7 0.0
1.093644329184659e7 -1.74824971897542e7 0.0
0.0 0.0 0.0

-4.659971749967285e6 2.0340206946696658e7 0.0
2.0340206946696658e7 1.3326609942874746e7 0.0
0.0 0.0 0.0

-2.718765063339315e6 1.8899405043562364e7 0.0
1.8899405043562364e7 -3.5146892464549164e6 0.0
0.0 0.0 0.0

-8395.065958124353 1.736283137636069e7 0.0
1.736283137636069e7 5.052721445231675e6 0.0
0.0 0.0 0.0

-1.0178684516046394e6 1.2471184423699878e7 0.0
1.2471184423699878e7 -3.7427684155092933e6 0.0
0.0 0.0 0.0

-1.8900543973188656e6 1.7732449409992665e7 0.0
1.7732449409992665e7 -3.2820193892154284e6 0.0
0.0 0.0 0.0

1.5240184450851523e6 1.786291362272895e7 0.0
1.786291362272895e7 -4.3543638581015635e6 0.0
0.0 0.0 0.0

-343476.67597087193 3.663362476388058e7 0.0
3.663362476388058e7 1.5754241374449823e6 0.0
0.0 0.0 0.0

-1.958811896347404e6 1.8579750525156584e7 0.0
1.8579750525156584e7 -3.004072840640311e6 0.0
0.0 0.0 0.0

-2.4385310275334455e6 6.474481693039591e6 0.0
6.474481693039591e6 3.1649257891329713e6 0.0
0.0 0.0 0.0

2.2210554775727272e7 1.2473977797936928e7 0.0
1.2473977797936928e7 923960.5981671019 0.0
0.0 0.0 0.0

826162.8454411365 9.353058388291236e6 0.0
9.353058388291236e6 -4.3435971415577635e7 0.0
0.0 0.0 0.0

-2.454927749528649e6 2.2843180490494367e7 0.0
2.2843180490494367e7 1.555869016415644e6 0.0
0.0 0.0 0.0

-4.426845629888497e6 7.422833550332107e6 0.0
7.422833550332107e6 6.876475791185039e6 0.0
0.0 0.0 0.0

-1.3698054213086758e6 1.2895867139667977e7 0.0
1.2895867139667977e7 -6.5038062791542215e6 0.0
0.0 0.0 0.0

188158.14645359898 1.1132221939944755e7 0.0
1.1132221939944755e7 -1.0161056610307962e7 0.0
0.0 0.0 0.0

-275283.64427697234 3.499585400022564e7 0.0
3.499585400022564e7 1.0627111307295216e6 0.0
0.0 0.0 0.0

2.261932001794925e6 9.819323141217364e6 0.0
9.819323141217364e6 -2.6963077501865473e7 0.0
0.0 0.0 0.0

-1.1999303161790404e7 3.3609066975608435e6 0.0
3.3609066975608435e6 2.1436614741316885e7 0.0
0.0 0.0 0.0

-4.267931980582919e6 1.9883399723621693e7 0.0
1.9883399723621693e7 -1.0632187627520988e7 0.0
0.0 0.0 0.0

-6.177321999966402e6 6.298878839335374e6 0.0
6.298878839335374e6 1.0391104104470514e7 0.0
0.0 0.0 0.0

-1.6330548233281565e6 1.74893816831499e7 0.0
1.74893816831499e7 -7.746728226528779e6 0.0
0.0 0.0 0.0

-3.119942645052276e6 1.9107475869875334e7 0.0
1.9107475869875334e7 -1.5294527306561342e6 0.0
0.0 0.0 0.0

807242.4465596667 1.4832760899992464e7 0.0
1.4832760899992464e7 -1.890367800218434e7 0.0
0.0 0.0 0.0

-450037.0310588059 3.364699076438682e7 0.0
3.364699076438682e7 879470.7131965971 0.0
0.0 0.0 0.0

-4.413563547515057e6 2.092319291494085e7 0.0
2.092319291494085e7 1.2052695211572604e7 0.0
0.0 0.0 0.0

-1.9934148132868363e6 1.9393430371422555e7 0.0
1.9393430371422555e7 -2.749006180071341e6 0.0
0.0 0.0 0.0

3.0175767856924217e6 6.629062180200742e6 0.0
6.629062180200742e6 -2.977980562954931e7 0.0
0.0 0.0 0.0

-3.386371593985037e6 9.630357467556678e6 0.0
9.630357467556678e6 4.1009518013450243e6 0.0
0.0 0.0 0.0

-222179.341852359 3.259330019462433e7 0.0
3.259330019462433e7 957512.2650012323 0.0
0.0 0.0 0.0

1.789612276759738e6 8.412942585783506e6 0.0
8.412942585783506e6 -4.5557473524935246e7 0.0
0.0 0.0 0.0

-121125.68807307805 3.170439922781352e7 0.0
3.170439922781352e7 859890.099042686 0.0
0.0 0.0 0.0

-209158.27575969562 3.0893190656051096e7 0.0
3.0893190656051096e7 651546.7406759991 0.0
0.0 0.0 0.0

-2.1674824142322266e6 2.49398393277995e7 0.0
2.49398393277995e7 -657247.6007856224 0.0
0.0 0.0 0.0

-2.0596776640110551e6 2.5491298838127002e7 0.0
2.5491298838127002e7 -484710.77395771013 0.0
0.0 0.0 0.0

-1.9823799341404948e6 2.6031704631540693e7 0.0
2.6031704631540693e7 -349968.33572914876 0.0
0.0 0.0 0.0

-1.8949295629742567e6 2.6542561780573975e7 0.0
2.6542561780573975e7 -289067.63692054665 0.0
0.0 0.0 0.0

-1.8372218049090987e6 2.7055176059336234e7 0.0
2.7055176059336234e7 -175795.12982900842 0.0
0.0 0.0 0.0

-1.777520754806763e6 2.7591872122749303e7 0.0
2.7591872122749303e7 -166328.3805990165 0.0
0.0 0.0 0.0

-6.386595162096007e6 1.3207228156794727e7 0.0
1.3207228156794727e7 7.881273486817375e6 0.0
0.0 0.0 0.0

-1.6446046095903143e6 2.8121667233819284e7 0.0
2.8121667233819284e7 -63212.473286510445 0.0
0.0 0.0 0.0

-1.7037134540946702e6 2.869284944418583e7 0.0
2.869284944418583e7 -28565.4021668043 0.0
0.0 0.0 0.0

-8.965476569005791e6 1.5476304108160906e7 0.0
1.5476304108160906e7 1.9547865261656888e7 0.0
0.0 0.0 0.0

-338404.26874401845 3.017888883560884e7 0.0
3.017888883560884e7 629187.1977415512 0.0
0.0 0.0 0.0

-1.7815461263859316e6 2.9213958878122356e7 0.0
2.9213958878122356e7 25016.81953904999 0.0
0.0 0.0 0.0

-1.6690278660953674e6 2.986469599518994e7 0.0
2.986469599518994e7 145852.1264416778 0.0
0.0 0.0 0.0

-439157.80611782137 2.956299649227685e7 0.0
2.956299649227685e7 571411.06874515 0.0
0.0 0.0 0.0

-1.3941115757310074e6 1.4978279332970642e7 0.0
1.4978279332970642e7 -4.1550506786452523e6 0.0
0.0 0.0 0.0

-1.8138917076856813e6 3.054642915147332e7 0.0
3.054642915147332e7 107860.01583881513 0.0
0.0 0.0 0.0

-714747.8037968238 2.8944883718382556e7 0.0
2.8944883718382556e7 387665.3652422762 0.0
0.0 0.0 0.0

-576403.9724184367 2.838201024433036e7 0.0
2.838201024433036e7 379438.0419874457 0.0
0.0 0.0 0.0

-821503.0769977029 2.7888353810540777e7 0.0
2.7888353810540777e7 301674.30647019664 0.0
0.0 0.0 0.0

-1.0249733102491165e6 2.732599768644486e7 0.0
2.732599768644486e7 248117.9676049514 0.0
0.0 0.0 0.0

-1.1244264085688468e6 2.6832036729450412e7 0.0
2.6832036729450412e7 165271.9013784175 0.0
0.0 0.0 0.0

-1.3353949045929122e6 2.6306759565476734e7 0.0
2.6306759565476734e7 88521.71776506118 0.0
0.0 0.0 0.0

-1.3928514720752914e6 2.5803284661924496e7 0.0
2.5803284661924496e7 9701.618204087776 0.0
0.0 0.0 0.0

-1.4948366472532633e6 2.526832675021973e7 0.0
2.526832675021973e7 -132622.71071359457 0.0
0.0 0.0 0.0

-2.3409290452840086e6 2.1443510448665835e7 0.0
2.1443510448665835e7 -3.443327316306861e6 0.0
0.0 0.0 0.0

-7.9042482244245e6 1.6828029928244427e7 0.0
1.6828029928244427e7 2.550418875714735e7 0.0
0.0 0.0 0.0

-2.0745390411170316e6 3.125552764537764e7 0.0
3.125552764537764e7 156614.15882017068 0.0
0.0 0.0 0.0

2.8029925580205917e6 8.0020292673165435e6 0.0
8.0020292673165435e6 -2.0804953280448753e7 0.0
0.0 0.0 0.0

-2.733057658931114e6 2.113861880366323e7 0.0
2.113861880366323e7 2.0932812896155424e6 0.0
0.0 0.0 0.0

-2.4942900279587414e6 3.214908122210691e7 0.0
3.214908122210691e7 261898.84888085013 0.0
0.0 0.0 0.0

-1.1435398977884024e7 1.061446825833422e7 0.0
1.061446825833422e7 2.0006178781414088e7 0.0
0.0 0.0 0.0

-3.082276613498262e6 3.3179313368851468e7 0.0
3.3179313368851468e7 175233.46936197707 0.0
0.0 0.0 0.0

-1.1985775650783774e7 9.04544811684464e6 0.0
9.04544811684464e6 2.2301433350231208e7 0.0
0.0 0.0 0.0

-3.848989405893139e6 3.430460260437034e7 0.0
3.430460260437034e7 14516.383632958168 0.0
0.0 0.0 0.0

148360.16794674937 1.7398270329000168e7 0.0
1.7398270329000168e7 -1.4688484708776299e7 0.0
0.0 0.0 0.0

2.494121188085148e6 1.053669517416085e7 0.0
1.053669517416085e7 -1.684517556068507e7 0.0
0.0 0.0 0.0

-319138.03372832574 1.3158337962878563e7 0.0
1.3158337962878563e7 -3.0976975647713494e7 0.0
0.0 0.0 0.0

-2.205362154072243e6 1.911469465502644e7 0.0
1.911469465502644e7 -1.8746026945411135e6 0.0
0.0 0.0 0.0

-1.0737589561539008e6 1.4968356824134162e7 0.0
1.4968356824134162e7 -8.827886466555953e6 0.0
0.0 0.0 0.0

-1.9820666038736333e6 2.035908177194456e7 0.0
2.035908177194456e7 -5.546395814518027e6 0.0
0.0 0.0 0.0

108826.89898659196 1.7576220589581706e7 0.0
1.7576220589581706e7 -1.4699326440691806e7 0.0
0.0 0.0 0.0

4.360786772975557e6 2.46010414833866e6 0.0
2.46010414833866e6 -2.5131036002090152e7 0.0
0.0 0.0 0.0

-3.7354966187959556e6 1.2384358385372026e7 0.0
1.2384358385372026e7 4.532899927632729e6 0.0
0.0 0.0 0.0

-4.738104192895738e6 3.571418879783339e7 0.0
3.571418879783339e7 136755.57161302073 0.0
0.0 0.0 0.0

2.062717294640121e6 1.1301035513583947e7 0.0
1.1301035513583947e7 -1.4288542849768309e7 0.0
0.0 0.0 0.0

-1.193568143294704e7 9.551930497427776e6 0.0
9.551930497427776e6 2.460801011713197e7 0.0
0.0 0.0 0.0

-1.7628983618529944e6 1.6850353989027604e7 0.0
1.6850353989027604e7 -3.581745152345757e6 0.0
0.0 0.0 0.0

-538493.5233275591 2.7110610267420527e7 0.0
2.7110610267420527e7 -1.0893451110097775e6 0.0
0.0 0.0 0.0

3.006136471511962e6 7.323618471403683e6 0.0
7.323618471403683e6 -2.1840150395004727e7 0.0
0.0 0.0 0.0

-1.0457892783918053e7 3.2244203670211352e7 0.0
3.2244203670211352e7 4.7210019457720015e6 0.0
0.0 0.0 0.0

-6.27582425648811e6 1.4891361748067848e7 0.0
1.4891361748067848e7 9.162773989148244e6 0.0
0.0 0.0 0.0

-1.5015700972471504e7 2.4674272936374992e7 0.0
2.4674272936374992e7 3.9788691257073153e6 0.0
0.0 0.0 0.0

1.500090184537164e6 1.7424479408120163e7 0.0
1.7424479408120163e7 1.1824670454453362e7 0.0
0.0 0.0 0.0

-6.6415611932635335e6 3.773494301736065e7 0.0
3.773494301736065e7 108949.37063678913 0.0
0.0 0.0 0.0

1.887003957543213e6 1.096747255053364e7 0.0
1.096747255053364e7 -2.603988797130844e7 0.0
0.0 0.0 0.0

-5.094351961271385e6 1.4718866521563606e7 0.0
1.4718866521563606e7 5.043391369309805e6 0.0
0.0 0.0 0.0

1.1471105223124651e6 1.5884252111915383e7 0.0
1.5884252111915383e7 3.823702172014226e6 0.0
0.0 0.0 0.0

2.4144712709877733e6 8.83615332551299e6 0.0
8.83615332551299e6 -1.8231837326512296e7 0.0
0.0 0.0 0.0

491053.21744259924 1.8558897431240715e7 0.0
1.8558897431240715e7 3.5010042018336207e6 0.0
0.0 0.0 0.0

2.607596834175043e6 8.679465802981874e6 0.0
8.679465802981874e6 -1.9803294720897224e7 0.0
0.0 0.0 0.0

-165237.01788429718 1.5318093404332153e7 0.0
1.5318093404332153e7 -2.637334494978694e6 0.0
0.0 0.0 0.0

-2.4162074758532722e6 1.960591615423327e7 0.0
1.960591615423327e7 -764175.7802398333 0.0
0.0 0.0 0.0

-2.7073721245489344e6 1.9697832681276236e7 0.0
1.9697832681276236e7 -3.2354479199865423e6 0.0
0.0 0.0 0.0

1.927272279889496e6 9.173238243268603e6 0.0
9.173238243268603e6 -1.4904372877446257e7 0.0
0.0 0.0 0.0

2.0780610521520823e7 2.0828652111099806e7 0.0
2.0828652111099806e7 8.479069005388279e6 0.0
0.0 0.0 0.0

1.684135784218846e6 1.2240049982415676e7 0.0
1.2240049982415676e7 -1.397826053555298e7 0.0
0.0 0.0 0.0

-554208.5678704008 1.5188742341526637e7 0.0
1.5188742341526637e7 -7.156297884209615e6 0.0
0.0 0.0 0.0

-5.129480787344888e6 2.1122510974689662e7 0.0
2.1122510974689662e7 6.11985700692616e6 0.0
0.0 0.0 0.0

739753.5863007442 1.1294533058130456e7 0.0
1.1294533058130456e7 -8.411849415162567e6 0.0
0.0 0.0 0.0

-4.354111469346109e6 2.153049855771485e7 0.0
2.153049855771485e7 1.0712580651892861e7 0.0
0.0 0.0 0.0

3.1262047348810686e6 1.7050371212070588e7 0.0
1.7050371212070588e7 2.0310320411778744e7 0.0
0.0 0.0 0.0

-9.09801181699377e6 1.1903616950797146e7 0.0
1.1903616950797146e7 1.6679857646079851e7 0.0
0.0 0.0 0.0

-9.55754496082776e6 4.00402042324153e7 0.0
4.00402042324153e7 -448340.5586957373 0.0
0.0 0.0 0.0

-1.2196790297815315e6 1.7160925436032332e7 0.0
1.7160925436032332e7 3.5222520744498886e7 0.0
0.0 0.0 0.0

-3.3623132538789664e6 1.5116406061851658e7 0.0
1.5116406061851658e7 -1.4513059949039547e6 0.0
0.0 0.0 0.0

8.532915704421848e6 1.8529407894030217e7 0.0
1.8529407894030217e7 2.2120001693403847e6 0.0
0.0 0.0 0.0

3.231382969869362e6 6.837708276345882e6 0.0
6.837708276345882e6 -2.450172215774439e7 0.0
0.0 0.0 0.0

1.377412478144953e6 1.1185152117221624e7 0.0
1.1185152117221624e7 -2.952619359618535e7 0.0
0.0 0.0 0.0

-5.475757837025616e6 1.7660869272593413e7 0.0
1.7660869272593413e7 1.0750020538047567e7 0.0
0.0 0.0 0.0

-1.130726053142829e7 2.3749721734581612e7 0.0
2.3749721734581612e7 -7.749940400786707e6 0.0
0.0 0.0 0.0

-2.837531739049666e6 1.719395878383973e7 0.0
1.719395878383973e7 858826.7981859728 0.0
0.0 0.0 0.0

-251968.8614551397 1.5416862017347127e7 0.0
1.5416862017347127e7 -1.1921192358243532e7 0.0
0.0 0.0 0.0

-1.4151973898012e7 3.1169352769708503e7 0.0
3.1169352769708503e7 6.218252204438963e6 0.0
0.0 0.0 0.0

1.734927566142763e6 1.134658180703606e7 0.0
1.134658180703606e7 -1.806857700670815e7 0.0
0.0 0.0 0.0

-2.841203354833375e6 1.8094172807334565e7 0.0
1.8094172807334565e7 982242.5058808465 0.0
0.0 0.0 0.0

-3.9044998114133263e6 8.611003407263502e6 0.0
8.611003407263502e6 5.505918786697736e6 0.0
0.0 0.0 0.0

-4.13702143104424e6 1.7446953357264813e7 0.0
1.7446953357264813e7 9.185068911776565e6 0.0
0.0 0.0 0.0

-8.801871619926842e6 6.0028057587844245e7 0.0
6.0028057587844245e7 95604.56013906375 0.0
0.0 0.0 0.0

-7.786505519355591e6 1.2822158237444188e7 0.0
1.2822158237444188e7 1.5125492992283756e7 0.0
0.0 0.0 0.0

-3.213556038134266e6 6.657803874045244e6 0.0
6.657803874045244e6 550586.3587315183 0.0
0.0 0.0 0.0

-2.1694240925965025e6 2.0691296500388842e7 0.0
2.0691296500388842e7 -1.4152623723203305e6 0.0
0.0 0.0 0.0

-3.4873144550340855e6 2.07058666445558e7 0.0
2.07058666445558e7 3.440620147760197e6 0.0
0.0 0.0 0.0

-770339.311088758 1.8237833490016196e7 0.0
1.8237833490016196e7 -7.634296512142535e6 0.0
0.0 0.0 0.0

-2.8624706352496846e6 2.0222917742485665e7 0.0
2.0222917742485665e7 -2.139601012191316e6 0.0
0.0 0.0 0.0

-8.70546487202308e6 1.2674527995228113e6 0.0
1.2674527995228113e6 1.2244108068087548e7 0.0
0.0 0.0 0.0

13818.52724322537 1.6757425510774316e7 0.0
1.6757425510774316e7 -4.181610531110396e6 0.0
0.0 0.0 0.0

-3.4799289369422155e6 2.142469851663648e7 0.0
2.142469851663648e7 3.5131357345385393e6 0.0
0.0 0.0 0.0

1.171851852491241e6 1.0407254296499394e7 0.0
1.0407254296499394e7 -1.2981524767393917e7 0.0
0.0 0.0 0.0

553634.2987257235 1.7164101807399176e7 0.0
1.7164101807399176e7 -3.3214762659351993e6 0.0
0.0 0.0 0.0

-1.752520535083373e7 2.3597084243712965e7 0.0
2.3597084243712965e7 1.6325742341061542e6 0.0
0.0 0.0 0.0

-6.441826999245138e6 1.3655232337152692e7 0.0
1.3655232337152692e7 1.3399152651798012e7 0.0
0.0 0.0 0.0

241614.2887102198 1.6912719493917104e7 0.0
1.6912719493917104e7 -1.575520488389931e7 0.0
0.0 0.0 0.0

-3.6014451081069196e6 2.1827775981656373e7 0.0
2.1827775981656373e7 5.45873298276693e6 0.0
0.0 0.0 0.0

3.727686967647312e6 2.893729864712677e6 0.0
2.893729864712677e6 -1.3976297582286179e7 0.0
0.0 0.0 0.0

-3.589575830808635e6 -1.6187346516932175e6 0.0
-1.6187346516932175e6 3.5164269144078596e6 0.0
0.0 0.0 0.0

-2.0018038727431218e6 -527830.1377011341 0.0
-527830.1377011341 1.9536196311821137e6 0.0
0.0 0.0 0.0

-8.810184743834326e6 -5.746912192375704e6 0.0
-5.746912192375704e6 2.398601376567232e7 0.0
0.0 0.0 0.0

-708735.9280797897 920183.8476764063 0.0
920183.8476764063 -147702.7141250819 0.0
0.0 0.0 0.0

-8.371817574332923e6 -6.190728842625744e6 0.0
-6.190728842625744e6 2.1492802464383535e7 0.0
0.0 0.0 0.0

3.58091939727086e6 3.057323183514625e6 0.0
3.057323183514625e6 -1.1120566643201679e7 0.0
0.0 0.0 0.0

-4.331679237506183e6 -5.065948251059415e6 0.0
-5.065948251059415e6 7.505666364108037e6 0.0
0.0 0.0 0.0

-6.377834533081553e6 -6.954807564949595e6 0.0
-6.954807564949595e6 1.342129494421362e7 0.0
0.0 0.0 0.0

368479.5557929118 2.0719993310694085e6 0.0
2.0719993310694085e6 -2.232923686437606e6 0.0
0.0 0.0 0.0

-7.796951015575232e6 -6.809038755202687e6 0.0
-6.809038755202687e6 1.868509409128407e7 0.0
0.0 0.0 0.0

2.852947524660418e6 3.1386088237003405e6 0.0
3.1386088237003405e6 -8.15599678737105e6 0.0
0.0 0.0 0.0

1.8354834046764993e6 2.9503388593804203e6 0.0
2.9503388593804203e6 -5.271408058142442e6 0.0
0.0 0.0 0.0

-3.497783229109973e6 -2.7677311665073545e6 0.0
-2.7677311665073545e6 4.445384703174131e6 0.0
0.0 0.0 0.0

4.376427673219697e6 2.5448977977684443e6 0.0
2.5448977977684443e6 -2.2713783348956045e7 0.0
0.0 0.0 0.0

4.45846028130126e6 2.450006054829109e6 0.0
2.450006054829109e6 -2.4545946404287603e7 0.0
0.0 0.0 0.0

4.347924756706433e6 2.5734879629447283e6 0.0
2.5734879629447283e6 -2.08946171828003e7 0.0
0.0 0.0 0.0

4.377268240332101e6 2.7587029604988457e6 0.0
2.7587029604988457e6 -1.805428557165239e7 0.0
0.0 0.0 0.0

-4.682845561548678e6 -3.872850703120644e6 0.0
-3.872850703120644e6 6.4999517232865e6 0.0
0.0 0.0 0.0

-7.906909329115482e6 -6.4613106840214515e6 0.0
-6.4613106840214515e6 1.9996838384978082e7 0.0
0.0 0.0 0.0

4.424952894493423e6 2.547856183882518e6 0.0
2.547856183882518e6 -2.371600608285478e7 0.0
0.0 0.0 0.0

3.892275919906636e6 2.8299008326851553e6 0.0
2.8299008326851553e6 -1.5992844297394823e7 0.0
0.0 0.0 0.0

4.1017840402075676e6 2.7890865312647624e6 0.0
2.7890865312647624e6 -1.7009875797775105e7 0.0
0.0 0.0 0.0

3.991664166197112e6 2.8565314295852324e6 0.0
2.8565314295852324e6 -1.5102545568494923e7 0.0
0.0 0.0 0.0

924948.5044436231 1.5542273867182337e7 0.0
1.5542273867182337e7 -1.4227446326394022e7 0.0
0.0 0.0 0.0

-1.0605715778906044e7 1.1593682078179907e7 0.0
1.1593682078179907e7 1.9032480880244657e7 0.0
0.0 0.0 0.0

-1.2401532948755132e7 6.630929662980736e6 0.0
6.630929662980736e6 2.374155737264023e7 0.0
0.0 0.0 0.0

-4.204368749329489e6 2.219477835141599e7 0.0
2.219477835141599e7 9.57807814192616e6 0.0
0.0 0.0 0.0

-647379.1910278508 1.5487487746117191e7 0.0
1.5487487746117191e7 -2.181092870331383e7 0.0
0.0 0.0 0.0

-4.04911191983117e6 1.8272440767048392e7 0.0
1.8272440767048392e7 3.4873369112302894e6 0.0
0.0 0.0 0.0

-1.4182363250188347e7 4.342508700826716e7 0.0
4.342508700826716e7 -1.0517760439717383e6 0.0
0.0 0.0 0.0

-3.40882330377517e6 1.6112739212672394e7 0.0
1.6112739212672394e7 -1.2253264999634526e6 0.0
0.0 0.0 0.0

-4.1119412044425537e6 1.8705130552025724e7 0.0
1.8705130552025724e7 -1.25602645960227e7 0.0
0.0 0.0 0.0

7.052462508576734e6 2.0665926372240707e7 0.0
2.0665926372240707e7 9.308188394481746e6 0.0
0.0 0.0 0.0

-2.981528973395452e6 1.9197081236041106e7 0.0
1.9197081236041106e7 7.737841220900389e6 0.0
0.0 0.0 0.0

-3.8692981903513884e6 1.835445713783287e7 0.0
1.835445713783287e7 8.83828760776438e6 0.0
0.0 0.0 0.0

387119.0850482094 1.898885304014783e7 0.0
1.898885304014783e7 -1.169661318808939e7 0.0
0.0 0.0 0.0

-4.601081050365306e6 1.6778992919559218e7 0.0
1.6778992919559218e7 1.06775609078164e7 0.0
0.0 0.0 0.0

-2.933057157523594e6 2.0736168986418705e7 0.0
2.0736168986418705e7 -1.1504976170812831e6 0.0
0.0 0.0 0.0

-2.4893872515162705e6 1.9163426611568645e7 0.0
1.9163426611568645e7 -4.347369039257061e6 0.0
0.0 0.0 0.0

-6.843383456705152e6 1.360939192539321e7 0.0
1.360939192539321e7 9.459134518408393e6 0.0
0.0 0.0 0.0

-649174.0173881175 1.4432546460446324e7 0.0
1.4432546460446324e7 -9.941697067583574e6 0.0
0.0 0.0 0.0

-3.0830140977452574e6 1.6784017771350354e7 0.0
1.6784017771350354e7 1.9847348158928044e6 0.0
0.0 0.0 0.0

1.5671970455924636e6 9.801088713511016e6 0.0
9.801088713511016e6 -1.392964326304931e7 0.0
0.0 0.0 0.0

-2.692830751957949e6 -2.240051885288708e6 0.0
-2.240051885288708e6 6.474818274703889e6 0.0
0.0 0.0 0.0

-2.1586092476874664e6 -738683.6046284271 0.0
-738683.6046284271 4.815048058092579e6 0.0
0.0 0.0 0.0

-8.099511166354058e6 -6.605686048694422e6 0.0
-6.605686048694422e6 1.903416496468515e7 0.0
0.0 0.0 0.0

-3.2397172995065027e6 -3.001083291071494e6 0.0
-3.001083291071494e6 7.986225733770356e6 0.0
0.0 0.0 0.0

-3.6176600845480347e6 -4.591443002132677e6 0.0
-4.591443002132677e6 9.096026336360127e6 0.0
0.0 0.0 0.0

4.347279185075236e6 2.5278059659251734e6 0.0
2.5278059659251734e6 -2.2870251414713282e7 0.0
0.0 0.0 0.0

4.32171632786267e6 2.46857672001322e6 0.0
2.46857672001322e6 -2.3608525044281956e7 0.0
0.0 0.0 0.0

-8.325677051233453e6 -6.227994247096454e6 0.0
-6.227994247096454e6 2.0679939896835517e7 0.0
0.0 0.0 0.0

4.123651154218546e6 2.820562202216204e6 0.0
2.820562202216204e6 -1.744224496741732e7 0.0
0.0 0.0 0.0

3.927593272004525e6 2.9797514879066674e6 0.0
2.9797514879066674e6 -1.4220554615879856e7 0.0
0.0 0.0 0.0

4.0186964403368123e6 2.879468966960186e6 0.0
2.879468966960186e6 -1.60854286759089e7 0.0
0.0 0.0 0.0

3.976353915316784e6 2.8446271767690964e6 0.0
2.8446271767690964e6 -1.5147619075873539e7 0.0
0.0 0.0 0.0

-4.012673357433486e6 1.5246404540961636e7 0.0
1.5246404540961636e7 1.0385602063159598e6 0.0
0.0 0.0 0.0

-7.757170519327726e6 1.7256358643829327e7 0.0
1.7256358643829327e7 2.4179069530325845e7 0.0
0.0 0.0 0.0

-5.4962249902166575e6 1.6392855872539328e7 0.0
1.6392855872539328e7 1.3382451036277225e7 0.0
0.0 0.0 0.0

3.981961277903269e6 5.793663043205339e6 0.0
5.793663043205339e6 -2.020744236982941e7 0.0
0.0 0.0 0.0

-1.371097628998084e6 2.2720892730814397e7 0.0
2.2720892730814397e7 -4.626053335011088e6 0.0
0.0 0.0 0.0

-2.1199584050213955e6 1.8926447138322398e7 0.0
1.8926447138322398e7 1.852408858257366e7 0.0
0.0 0.0 0.0

-1.170196656550508e7 1.3623042284044588e7 0.0
1.3623042284044588e7 2.0503223268084902e7 0.0
0.0 0.0 0.0

2.16217262231711e6 9.468463076353895e6 0.0
9.468463076353895e6 -1.72219786373689e7 0.0
0.0 0.0 0.0

1.6965860028255228e6 1.1736614789214099e7 0.0
1.1736614789214099e7 -1.8539344937007524e7 0.0
0.0 0.0 0.0

-2.471114999966722e6 1.8354744619730264e7 0.0
1.8354744619730264e7 -4.657686833113402e6 0.0
0.0 0.0 0.0

-3.157203990846565e6 1.8712485053815275e7 0.0
1.8712485053815275e7 2.0643624093442563e7 0.0
0.0 0.0 0.0

-3.622647692231741e6 1.1062514427384222e7 0.0
1.1062514427384222e7 4.362326367023365e6 0.0
0.0 0.0 0.0

-1.0239922698249317e6 1.8803031393201668e7 0.0
1.8803031393201668e7 -6.556470597409404e6 0.0
0.0 0.0 0.0

-2.1615468416920057e6 2.260449688622079e7 0.0
2.260449688622079e7 -63449.688653229736 0.0
0.0 0.0 0.0

1.285246590370913e6 1.3119635430334022e7 0.0
1.3119635430334022e7 -1.3809805500036353e7 0.0
0.0 0.0 0.0

-2.2114794193442897e6 1.991355800857432e7 0.0
1.991355800857432e7 -1.6374985390730794e6 0.0
0.0 0.0 0.0

1.6880782203180692e6 3.6205235266946037e6 0.0
3.6205235266946037e6 1.8556498324868625e6 0.0
0.0 0.0 0.0

-3.5549879183149515e6 1.8916452807762403e7 0.0
1.8916452807762403e7 1.976100693638204e7 0.0
0.0 0.0 0.0

1.640331370723268e6 1.008055846348768e7 0.0
1.008055846348768e7 -3.465515097660317e7 0.0
0.0 0.0 0.0

1.688305600068694e6 1.1017979416470252e7 0.0
1.1017979416470252e7 -2.778093497674783e7 0.0
0.0 0.0 0.0

-926915.2587322772 1.8006515513493303e7 0.0
1.8006515513493303e7 -6.921626249017497e6 0.0
0.0 0.0 0.0

-9.060810990029132e6 2.2609107797747113e7 0.0
2.2609107797747113e7 4.877489811435277e6 0.0
0.0 0.0 0.0

2.9268678856777e6 6.414935159571167e6 0.0
6.414935159571167e6 -1.1093225871216131e7 0.0
0.0 0.0 0.0

-2.8091854640384186e6 1.6254568259024572e7 0.0
1.6254568259024572e7 740909.1765327367 0.0
0.0 0.0 0.0

-2.9260696356695243e6 1.9429748896183208e7 0.0
1.9429748896183208e7 -2.3841188928090804e6 0.0
0.0 0.0 0.0

-1.9850835319570228e6 2.01853943410292e7 0.0
2.01853943410292e7 -2.4808982120321556e6 0.0
0.0 0.0 0.0

-783616.7639245503 1.5495192127832158e7 0.0
1.5495192127832158e7 -2.373390734951797e7 0.0
0.0 0.0 0.0

1.813996915849167e6 1.1509636302244693e7 0.0
1.1509636302244693e7 -2.323635606968147e7 0.0
0.0 0.0 0.0

-4.959440962838377e6 1.164559496907624e7 0.0
1.164559496907624e7 3.420444891579955e6 0.0
0.0 0.0 0.0

-5.3369759070175495e6 1.735869875581733e7 0.0
1.735869875581733e7 9.672927325740524e6 0.0
0.0 0.0 0.0

596953.0963243572 1.4109090030421082e7 0.0
1.4109090030421082e7 -2.449806025238582e7 0.0
0.0 0.0 0.0

-1.3019988076441768e6 2.085135109689643e7 0.0
2.085135109689643e7 -4.781729725552682e6 0.0
0.0 0.0 0.0

2.2638620267528845e6 3.006268360726378e6 0.0
3.006268360726378e6 -6.295204946473356e6 0.0
0.0 0.0 0.0

3.757612709581497e6 2.886116862172771e7 0.0
2.886116862172771e7 -3.156063108319862e6 0.0
0.0 0.0 0.0

2.5209285944977496e6 7.15200647912705e6 0.0
7.15200647912705e6 -1.022700153223922e7 0.0
0.0 0.0 0.0

-1.1275071801729605e6 1.3988223748325257e7 0.0
1.3988223748325257e7 -4.43578298404977e6 0.0
0.0 0.0 0.0

-4.835292147623071e6 1.9831469953696217e7 0.0
1.9831469953696217e7 1.1598154825963605e7 0.0
0.0 0.0 0.0

-2.918848219766213e6 1.3641456718903415e7 0.0
1.3641456718903415e7 1.7264642029766813e6 0.0
0.0 0.0 0.0

-3.064002024575576e6 1.5527037670380525e7 0.0
1.5527037670380525e7 -2.508102406186272e6 0.0
0.0 0.0 0.0

-3.0680980728799845e6 1.9923587529887937e7 0.0
1.9923587529887937e7 -1.2917470153105108e6 0.0
0.0 0.0 0.0

-4.89025232738984e6 1.0241713708750796e7 0.0
1.0241713708750796e7 3.128788395215739e6 0.0
0.0 0.0 0.0

-7.686506158145726e6 -163606.92131329264 0.0
-163606.92131329264 1.1903035725358566e7 0.0
0.0 0.0 0.0

-4.45164023692164e6 1.6462513894152598e7 0.0
1.6462513894152598e7 9.544142476417236e6 0.0
0.0 0.0 0.0

-3.4824449805232272e6 1.8247738847924028e7 0.0
1.8247738847924028e7 5.379852731856568e6 0.0
0.0 0.0 0.0

526458.9628515523 7.035790704386102e6 0.0
7.035790704386102e6 -7.15719581059016e6 0.0
0.0 0.0 0.0

-5.581953198138176e6 1.4613487907087186e7 0.0
1.4613487907087186e7 1.158643295887529e7 0.0
0.0 0.0 0.0

-2.651655573053915e6 2.0487180716255516e7 0.0
2.0487180716255516e7 -2.9695063872156725e6 0.0
0.0 0.0 0.0

3.2234318937843135e6 8.879733214027986e6 0.0
8.879733214027986e6 -2.4241804108310122e7 0.0
0.0 0.0 0.0

-7.981411079607639e6 2.2844031440995935e7 0.0
2.2844031440995935e7 4.159337067038163e6 0.0
0.0 0.0 0.0

-2.416192733174163e6 1.750953487320204e7 0.0
1.750953487320204e7 -4.979992005671006e6 0.0
0.0 0.0 0.0

2.0523977399253421e6 3.0720413862294434e6 0.0
3.0720413862294434e6 -5.423097937320011e6 0.0
0.0 0.0 0.0

-4.22293447522362e6 2.3990074657549813e7 0.0
2.3990074657549813e7 6.593891038133252e6 0.0
0.0 0.0 0.0

-1.2386910696634956e7 8.515639208118131e6 0.0
8.515639208118131e6 1.74900673314971e7 0.0
0.0 0.0 0.0

-2.880721796344492e6 1.68553178292767e7 0.0
1.68553178292767e7 -3.2295698852321124e6 0.0
0.0 0.0 0.0

-1.9003089907797505e6 2.166063901374203e7 0.0
2.166063901374203e7 -2.0376880615126838e6 0.0
0.0 0.0 0.0

-2.794102864903668e6 2.2224231449911762e7 0.0
2.2224231449911762e7 -712091.9427480213 0.0
0.0 0.0 0.0

-2.4743867197971884e6 1.995118332696274e7 0.0
1.995118332696274e7 -4.05048796765487e6 0.0
0.0 0.0 0.0

-2.5853700991953555e6 2.0068365848134328e7 0.0
2.0068365848134328e7 279884.9897943216 0.0
0.0 0.0 0.0

3.07594266284744e6 3.093047770718957e6 0.0
3.093047770718957e6 -9.099979367289316e6 0.0
0.0 0.0 0.0

-923385.811816447 2.4370964927410062e7 0.0
2.4370964927410062e7 -3.8159253596265884e6 0.0
0.0 0.0 0.0

-1.3400477942699768e7 1.79460759187798e7 0.0
1.79460759187798e7 -5.856899330632697e7 0.0
0.0 0.0 0.0

1.2989773525354315e7 1.839283529933086e7 0.0
1.839283529933086e7 5.7528949382185355e7 0.0
0.0 0.0 0.0

969979.0087057119 1.4197594752235956e7 0.0
1.4197594752235956e7 -1.7667711906158783e7 0.0
0.0 0.0 0.0

-1.3479730166482567e6 1.9341110033287145e7 0.0
1.9341110033287145e7 -5.468787869415735e6 0.0
0.0 0.0 0.0

-3.265529083846291e6 1.543936921839029e7 0.0
1.543936921839029e7 -1.8530425931258246e7 0.0
0.0 0.0 0.0

-2.301759755631802e6 1.6636878641958496e7 0.0
1.6636878641958496e7 -5.322167651762882e6 0.0
0.0 0.0 0.0

422656.7586852615 1.91732974268373e7 0.0
1.91732974268373e7 -1.1766445422114374e7 0.0
0.0 0.0 0.0

-1.5171583368335576e6 1.5523868979458027e7 0.0
1.5523868979458027e7 -7.676134571888124e6 0.0
0.0 0.0 0.0

-3.210122889807495e6 1.964314523229028e7 0.0
1.964314523229028e7 -422448.31162656436 0.0
0.0 0.0 0.0

1.7410106102209948e6 8.890869149788078e6 0.0
8.890869149788078e6 -4.272968536304401e7 0.0
0.0 0.0 0.0

-8.53445228638786e6 2.1473826607754752e7 0.0
2.1473826607754752e7 3.272234963795764e6 0.0
0.0 0.0 0.0

-3.868979356591733e6 1.987500427526483e7 0.0
1.987500427526483e7 5.571441675125887e6 0.0
0.0 0.0 0.0

-995691.5612507305 1.5738950307961512e7 0.0
1.5738950307961512e7 -5.9912788141299775e6 0.0
0.0 0.0 0.0

1.670228738884654e6 1.2086008339907318e7 0.0
1.2086008339907318e7 -2.202377686499539e7 0.0
0.0 0.0 0.0

1.2560777177607644e7 1.9084422739517946e7 0.0
1.9084422739517946e7 4.18692574025146e7 0.0
0.0 0.0 0.0

-656026.5670055174 1.9689987067151655e7 0.0
1.9689987067151655e7 -8.208692248300541e6 0.0
0.0 0.0 0.0

-2.363948107068461e7 4.8824276122118555e7 0.0
4.8824276122118555e7 -1.2429496341718454e6 0.0
0.0 0.0 0.0

1.1423692854253724e6 1.3651342337242495e7 0.0
1.3651342337242495e7 -1.8721015712045327e7 0.0
0.0 0.0 0.0

-1.772261765260435e6 1.965702518058209e7 0.0
1.965702518058209e7 -3.5815457218094994e6 0.0
0.0 0.0 0.0

2.8978013594525517e6 3.1541223418384534e6 0.0
3.1541223418384534e6 -8.406801666541746e6 0.0
0.0 0.0 0.0

2.9505858145992e6 7.934609091128001e6 0.0
7.934609091128001e6 -2.386138932347704e7 0.0
0.0 0.0 0.0

-2.2224848576689316e6 2.191584270744738e7 0.0
2.191584270744738e7 -215896.793801422 0.0
0.0 0.0 0.0

-5.6137278381846715e6 1.6184988076921063e7 0.0
1.6184988076921063e7 -3.41469234278103e7 0.0
0.0 0.0 0.0

-1.391102033543249e6 1.6297353612987101e7 0.0
1.6297353612987101e7 -4.790439642582323e6 0.0
0.0 0.0 0.0

1.3093828535740501e6 1.1603230357995085e7 0.0
1.1603230357995085e7 -1.105459560235035e7 0.0
0.0 0.0 0.0

-3.689862536974232e6 1.4761733980878366e7 0.0
1.4761733980878366e7 4.558197724238684e6 0.0
0.0 0.0 0.0

1.3784943949463218e6 1.3143411622735145e7 0.0
1.3143411622735145e7 -1.983280898266326e7 0.0
0.0 0.0 0.0

-4.8139323507044185e6 1.4175309956226435e7 0.0
1.4175309956226435e7 3.659710196288785e6 0.0
0.0 0.0 0.0

341481.57618051115 1.6440152402499452e7 0.0
1.6440152402499452e7 -1.6835149358005036e7 0.0
0.0 0.0 0.0

-1.961037703838775e7 2.6699334279690687e7 0.0
2.6699334279690687e7 -7.522879955195963e6 0.0
0.0 0.0 0.0

-5.096464783468077e6 -5.982103062377538e6 0.0
-5.982103062377538e6 9.469835052194942e6 0.0
0.0 0.0 0.0

-4.406856926022826e6 1.460463743918643e7 0.0
1.460463743918643e7 7.374073080427395e6 0.0
0.0 0.0 0.0

-2.3748795040148934e6 2.0388092726293713e7 0.0
2.0388092726293713e7 -555342.6828892211 0.0
0.0 0.0 0.0

-8.95422132701223e6 606627.7165146687 0.0
606627.7165146687 4.1248468213406056e7 0.0
0.0 0.0 0.0

-103753.02592403069 1.827915674965484e7 0.0
1.827915674965484e7 1.1904954193160197e7 0.0
0.0 0.0 0.0

-1.9248293018210754e6 1.6075068447332347e7 0.0
1.6075068447332347e7 -6.515135479405527e6 0.0
0.0 0.0 0.0

112687.42676835367 1.909104269888455e7 0.0
1.909104269888455e7 -1.0864612979370736e7 0.0
0.0 0.0 0.0

-1.0601668026806302e6 1.7183237764392786e7 0.0
1.7183237764392786e7 -9.453071017389549e6 0.0
0.0 0.0 0.0

-1.2061694420489748e6 1.3273620061679028e7 0.0
1.3273620061679028e7 -7.477245951549038e6 0.0
0.0 0.0 0.0

-2.0191595170371148e6 1.8846819929110464e7 0.0
1.8846819929110464e7 -6.243150384490454e6 0.0
0.0 0.0 0.0

-4.901710355872612e6 1.73463199852315e7 0.0
1.73463199852315e7 1.2819850834191248e7 0.0
0.0 0.0 0.0

-3.037171238261261e6 1.7692157794322986e7 0.0
1.7692157794322986e7 2.0419227437818884e6 0.0
0.0 0.0 0.0

-3.136635291054503e6 1.649187773968611e7 0.0
1.649187773968611e7 -2.2696742476146086e6 0.0
0.0 0.0 0.0

3.1026858584758304e6 7.743116242455457e6 0.0
7.743116242455457e6 -3.028800434239495e7 0.0
0.0 0.0 0.0

-4.960074734039241e6 2.45604667428659e7 0.0
2.45604667428659e7 6.919662402846158e6 0.0
0.0 0.0 0.0

-4.196220658295341e6 2.4097200314953895e6 0.0
2.4097200314953895e6 6.595690343474387e6 0.0
0.0 0.0 0.0

-4.746934579971175e6 1.7068866707704026e7 0.0
1.7068866707704026e7 1.1772981169818489e7 0.0
0.0 0.0 0.0

823582.3345321501 1.1751594964711193e7 0.0
1.1751594964711193e7 -9.247679617903065e6 0.0
0.0 0.0 0.0

3.938244803111271e6 3.79236465081094e6 0.0
3.79236465081094e6 -1.9115777188736092e7 0.0
0.0 0.0 0.0

1.518887443425496e6 1.2583401412001967e7 0.0
1.2583401412001967e7 -2.0991037995521143e7 0.0
0.0 0.0 0.0

-4.340453247051139e6 7.083548420801436e6 0.0
7.083548420801436e6 2.248175424441159e6 0.0
0.0 0.0 0.0

-1.172083704386725e7 1.3295356479101019e7 0.0
1.3295356479101019e7 2.411824453067933e7 0.0
0.0 0.0 0.0

-2.1882265938772056e6 1.780220214939857e7 0.0
1.780220214939857e7 -5.807215682407114e6 0.0
0.0 0.0 0.0

-4.0339897406660975e6 -5.379623915865887e6 0.0
-5.379623915865887e6 1.0444914113656547e7 0.0
0.0 0.0 0.0

-4.939466239511611e6 1.296087314949731e7 0.0
1.296087314949731e7 3.5857511476454893e6 0.0
0.0 0.0 0.0

-25326.288600852713 1.9636049603220996e7 0.0
1.9636049603220996e7 -9.789718972214157e6 0.0
0.0 0.0 0.0

-1.7195083603764744e6 1.699510829021584e7 0.0
1.699510829021584e7 -1.732463350405981e7 0.0
0.0 0.0 0.0

1.1989308462698162e6 1.1707007617233656e7 0.0
1.1707007617233656e7 -1.495463474459545e7 0.0
0.0 0.0 0.0

-288822.97976270854 9.321320486938171e6 0.0
9.321320486938171e6 -6.816776711347364e6 0.0
0.0 0.0 0.0

-1.5589752027142926e6 1.7185513422821473e7 0.0
1.7185513422821473e7 -4.471298006378146e6 0.0
0.0 0.0 0.0

-4.63122911433526e6 1.8106532897436753e7 0.0
1.8106532897436753e7 2.2392127659404468e7 0.0
0.0 0.0 0.0

-2.6165970563209206e6 2.2404268162570048e7 0.0
2.2404268162570048e7 -1.4908947209908785e6 0.0
0.0 0.0 0.0

-7.691074835299477e6 1.799991914295737e7 0.0
1.799991914295737e7 1.8284373848851886e7 0.0
0.0 0.0 0.0

-3.7727494627324985e6 1.9730723597731132e7 0.0
1.9730723597731132e7 1.032230899876816e7 0.0
0.0 0.0 0.0

271839.7876744829 1.0578196971946903e7 0.0
1.0578196971946903e7 -9.303740920512097e6 0.0
0.0 0.0 0.0

-3.7518796811636286e6 1.3617226762960395e7 0.0
1.3617226762960395e7 4.587200340634607e6 0.0
0.0 0.0 0.0

-1.0931371861952385e6 1.8181969272543695e7 0.0
1.8181969272543695e7 1.2209764792525006e7 0.0
0.0 0.0 0.0

-1.683665402983996e6 1.3847281955196694e7 0.0
1.3847281955196694e7 -6.276821971717053e6 0.0
0.0 0.0 0.0

514546.9808493899 1.4374153114048406e7 0.0
1.4374153114048406e7 -2.2790598485031992e7 0.0
0.0 0.0 0.0

-1.6786070841829344e6 1.8038766742031313e7 0.0
1.8038766742031313e7 -4.1576422115417654e6 0.0
0.0 0.0 0.0

747656.1043980783 1.4706912525429431e7 0.0
1.4706912525429431e7 -1.6630031752959808e7 0.0
0.0 0.0 0.0

-3.365467849249281e6 1.5311540986747343e7 0.0
1.5311540986747343e7 3.183808691723891e6 0.0
0.0 0.0 0.0

-6.530969062433019e6 1.555307847245293e7 0.0
1.555307847245293e7 -2.536947530452748e7 0.0
0.0 0.0 0.0

-1.746987293821293e6 1.8862018421144616e7 0.0
1.8862018421144616e7 -3.869189317945353e6 0.0
0.0 0.0 0.0

4.82361703727989e6 1.864844840491014e7 0.0
1.864844840491014e7 -1.2882197521298695e6 0.0
0.0 0.0 0.0

-9.29512599724028e6 2.6340974505134937e6 0.0
2.6340974505134937e6 4.029663726316936e7 0.0
0.0 0.0 0.0

-7.142909101700611e6 3.1643422333293203e7 0.0
3.1643422333293203e7 4.232060697788628e6 0.0
0.0 0.0 0.0

-3.4909833858597046e6 1.9765559890019074e7 0.0
1.9765559890019074e7 9.39786410241567e6 0.0
0.0 0.0 0.0

-9.959620076574486e6 1.4330959679854812e7 0.0
1.4330959679854812e7 2.633048470087463e7 0.0
0.0 0.0 0.0

-3.812892495026388e6 2.2170010002571996e7 0.0
2.2170010002571996e7 8.681109321317077e6 0.0
0.0 0.0 0.0

-2.740615935884349e6 1.5254529956346236e7 0.0
1.5254529956346236e7 590889.4570498312 0.0
0.0 0.0 0.0

-818163.8617715887 1.6071796430848835e7 0.0
1.6071796430848835e7 -6.8164547932961015e6 0.0
0.0 0.0 0.0

-1.345035064556817e6 1.748711339553167e7 0.0
1.748711339553167e7 -5.312833744950226e6 0.0
0.0 0.0 0.0

-1.1671399767775617e6 1.0089283700636085e7 0.0
1.0089283700636085e7 -1.5870913170276287e6 0.0
0.0 0.0 0.0

-167691.00130422646 2.0206107263602156e7 0.0
2.0206107263602156e7 -8.791969764446583e6 0.0
0.0 0.0 0.0

3.067738038343248e6 6.532069137574203e6 0.0
6.532069137574203e6 -1.8879709099724278e7 0.0
0.0 0.0 0.0

1.6054895770103228e6 6.521376350297331e6 0.0
6.521376350297331e6 -9.627442638382005e6 0.0
0.0 0.0 0.0

-4.25969302871105e6 1.930210710094165e7 0.0
1.930210710094165e7 1.2584488804598045e7 0.0
0.0 0.0 0.0

-2.4626116969737825e6 2.193852085230832e7 0.0
2.193852085230832e7 -2.492429550208352e6 0.0
0.0 0.0 0.0

4.007411959674672e6 1.898311450610498e7 0.0
1.898311450610498e7 -3.2089139629769856e6 0.0
0.0 0.0 0.0

-1.1314543152814534e7 2.442423165356344e7 0.0
2.442423165356344e7 4.904853402425055e6 0.0
0.0 0.0 0.0

2.325233299275183e6 6.294999846023054e6 0.0
6.294999846023054e6 -1.3066373518973261e7 0.0
0.0 0.0 0.0

-2.194423370339531e6 1.4389294253657298e7 0.0
1.4389294253657298e7 -5.0648408672860535e6 0.0
0.0 0.0 0.0

3.770743035375504e7 1.4776646526409864e7 0.0
1.4776646526409864e7 1.7817457150085904e6 0.0
0.0 0.0 0.0

-58376.48060419923 9.675099550982697e6 0.0
9.675099550982697e6 -7.884564951080512e6 0.0
0.0 0.0 0.0

3.1695851252070973e6 6.698319324998428e6 0.0
6.698319324998428e6 -2.281978652703949e7 0.0
0.0 0.0 0.0

-7.5314225467461385e6 1.7561522142905105e7 0.0
1.7561522142905105e7 2.3036862126708023e7 0.0
0.0 0.0 0.0

694857.6534692654 1.5562856780614385e7 0.0
1.5562856780614385e7 -1.76825593899399e7 0.0
0.0 0.0 0.0

-9.68842366232114e6 1.0043302719367646e7 0.0
1.0043302719367646e7 1.7092537326003667e7 0.0
0.0 0.0 0.0

-1.1223523964766027e7 3.0781993752177257e7 0.0
3.0781993752177257e7 5.2488289816793855e6 0.0
0.0 0.0 0.0

-7.283646266202737e6 1.781132206004802e7 0.0
1.781132206004802e7 2.206346384485674e7 0.0
0.0 0.0 0.0

-4.1588836311447e6 2.280522155995682e7 0.0
2.280522155995682e7 8.484639537791125e6 0.0
0.0 0.0 0.0

-1.5952846003388166e7 2.4716897409968533e7 0.0
2.4716897409968533e7 -6.904302072357025e6 0.0
0.0 0.0 0.0

-3.6696014267856064e6 1.6676616971874688e7 0.0
1.6676616971874688e7 51990.76575530809 0.0
0.0 0.0 0.0

3.53231644049261e7 6.198836837217571e6 0.0
6.198836837217571e6 -1.9112940145253055e6 0.0
0.0 0.0 0.0

-539294.6339059933 1.7766544895751238e7 0.0
1.7766544895751238e7 -8.71129177920214e6 0.0
0.0 0.0 0.0

-1.2424587039617936e6 1.4750622438672148e7 0.0
1.4750622438672148e7 -400860.99036700453 0.0
0.0 0.0 0.0

-330180.6344582634 2.076038219758028e7 0.0
2.076038219758028e7 -7.748786019016974e6 0.0
0.0 0.0 0.0

-1.1170757227328515e7 2.1337128853257135e7 0.0
2.1337128853257135e7 -4.599205671566393e6 0.0
0.0 0.0 0.0

128789.13234907086 8.996639662848495e6 0.0
8.996639662848495e6 -3.9500574663106026e6 0.0
0.0 0.0 0.0

-4.1824580847920077e6 1.9747050419647604e7 0.0
1.9747050419647604e7 1.3931732570837129e7 0.0
0.0 0.0 0.0

-2.618723713973999e6 1.5742807620155452e7 0.0
1.5742807620155452e7 -1.7556925645799533e7 0.0
0.0 0.0 0.0

-1.2049055874183927e7 4.0217688167508e6 0.0
4.0217688167508e6 2.4107598356061235e7 0.0
0.0 0.0 0.0

-2.694041371415461e6 2.171954970236793e7 0.0
2.171954970236793e7 -1.7313472739813337e6 0.0
0.0 0.0 0.0

-2.4682377680989914e6 1.5694852550643187e7 0.0
1.5694852550643187e7 -553718.6435237293 0.0
0.0 0.0 0.0

-2.0196436585103539e6 2.2141350393546537e7 0.0
2.2141350393546537e7 -1.069391447804779e6 0.0
0.0 0.0 0.0

228712.09152340703 1.5989636255445037e7 0.0
1.5989636255445037e7 -1.1082075339063494e7 0.0
0.0 0.0 0.0

-5.274475528448849e6 7.838302567811479e6 0.0
7.838302567811479e6 8.621263020530183e6 0.0
0.0 0.0 0.0

-3.5906114182274616e6 2.2477518730937257e7 0.0
2.2477518730937257e7 5.41000716904128e6 0.0
0.0 0.0 0.0

-4.914310786822004e6 1.9208865015830323e7 0.0
1.9208865015830323e7 1.5872404702825442e7 0.0
0.0 0.0 0.0

-4.0349622715614173e6 1.8877932687381595e7 0.0
1.8877932687381595e7 1.0802971089623649e7 0.0
0.0 0.0 0.0

-664527.4501130795 1.3451760166253189e7 0.0
1.3451760166253189e7 -5.653385828935269e6 0.0
0.0 0.0 0.0

1.7622027105150511e6 1.1497949426401349e7 0.0
1.1497949426401349e7 -2.4770081775255855e7 0.0
0.0 0.0 0.0

-3.70225894008229e6 1.810576422851417e7 0.0
1.810576422851417e7 1.3460579140229148e6 0.0
0.0 0.0 0.0

-81726.98421484698 1.7299264302601706e7 0.0
1.7299264302601706e7 -1.3224493021727908e7 0.0
0.0 0.0 0.0

-199722.8517897632 1.5769969884835517e7 0.0
1.5769969884835517e7 -1.2470775994703708e7 0.0
0.0 0.0 0.0

-1.3766024793641223e6 2.2071746473862465e7 0.0
2.2071746473862465e7 -5.614193007191098e6 0.0
0.0 0.0 0.0

-1.202865387927687e6 1.7996644190934125e7 0.0
1.7996644190934125e7 -8.963427542532591e6 0.0
0.0 0.0 0.0

1.8149638530298928e6 1.179047837007873e7 0.0
1.179047837007873e7 -2.0136290790374115e7 0.0
0.0 0.0 0.0

1.6579518654504656e6 6.5291587482087985e6 0.0
6.5291587482087985e6 -6.345827643375095e6 0.0
0.0 0.0 0.0

-1.4537914574369136e6 6.001890168116105e6 0.0
6.001890168116105e6 1.5767629615999619e6 0.0
0.0 0.0 0.0

-70530.55291104247 2.8626566142022595e7 0.0
2.8626566142022595e7 -449323.90418706444 0.0
0.0 0.0 0.0

-3.83637934912956e6 1.720741629720983e7 0.0
1.720741629720983e7 1.2826314877669353e6 0.0
0.0 0.0 0.0

-1.821867270572127e6 1.9082549211065374e7 0.0
1.9082549211065374e7 -6.991017784882099e6 0.0
0.0 0.0 0.0

3.4642211363625815e6 4.295590912634042e6 0.0
4.295590912634042e6 -1.2350761587550092e7 0.0
0.0 0.0 0.0

-9.816603293415152e6 4.941180605250066e6 0.0
4.941180605250066e6 4.034200509057741e7 0.0
0.0 0.0 0.0

1.9161065088435523e6 9.625065586433604e6 0.0
9.625065586433604e6 -1.5579367430854205e7 0.0
0.0 0.0 0.0

3.75890102497196e6 2.2593233823774148e7 0.0
2.2593233823774148e7 -5.871768227844964e6 0.0
0.0 0.0 0.0

-130564.15873120888 2.3431108441775095e7 0.0
2.3431108441775095e7 -5.071641695706999e6 0.0
0.0 0.0 0.0

-3.503737820384036e6 2.291380942178955e7 0.0
2.291380942178955e7 4.509811538495089e6 0.0
0.0 0.0 0.0

3.9313092377676144e6 3.7715341305102897e6 0.0
3.7715341305102897e6 -2.6423399263092928e7 0.0
0.0 0.0 0.0

-1.5465332896960485e6 1.9898934889404435e7 0.0
1.9898934889404435e7 -4.378425355587304e6 0.0
0.0 0.0 0.0

-1.144591580323712e6 2.0987367123567812e7 0.0
2.0987367123567812e7 -5.508108721076092e6 0.0
0.0 0.0 0.0

3.0006199218637943e6 7.400150513269938e6 0.0
7.400150513269938e6 -2.4997019857913665e7 0.0
0.0 0.0 0.0

-1.7055169403675883e6 2.368137397788874e7 0.0
2.368137397788874e7 -2.962598583468156e6 0.0
0.0 0.0 0.0

1.615462348757214e6 1.954305781157514e7 0.0
1.954305781157514e7 -7.8838580091451835e6 0.0
0.0 0.0 0.0

-2.2585152525228853e6 1.9404211719730932e7 0.0
1.9404211719730932e7 -5.146926722192323e6 0.0
0.0 0.0 0.0

-82664.14796311129 1.4958392669373725e7 0.0
1.4958392669373725e7 -2.423002496663102e7 0.0
0.0 0.0 0.0

1.9418362967967996e6 7.029267995729384e6 0.0
7.029267995729384e6 -1.2109002774377814e7 0.0
0.0 0.0 0.0

809193.2709588902 1.1440294181841662e7 0.0
1.1440294181841662e7 -1.2725882651057864e7 0.0
0.0 0.0 0.0

-1.127162728173318e6 1.9871710431562968e7 0.0
1.9871710431562968e7 -7.600302768778594e6 0.0
0.0 0.0 0.0

1.0149233005280709e6 1.9478360687452316e7 0.0
1.9478360687452316e7 -9.234957215446783e6 0.0
0.0 0.0 0.0

-1.4792322167539801e6 1.847242346722791e7 0.0
1.847242346722791e7 -7.989296029585113e6 0.0
0.0 0.0 0.0

2.8918093699976616e6 7.654935294927478e6 0.0
7.654935294927478e6 -1.2657739377060074e7 0.0
0.0 0.0 0.0

4.138174138988532e6 4.888941450150111e6 0.0
4.888941450150111e6 -2.2335156803059023e7 0.0
0.0 0.0 0.0

251771.20161249675 1.5758518193664191e7 0.0
1.5758518193664191e7 -1.4560745470811713e7 0.0
0.0 0.0 0.0

389556.73843888147 1.2007717925669277e7 0.0
1.2007717925669277e7 -1.1701486968937289e7 0.0
0.0 0.0 0.0

-3.6933534941571583e6 1.5694153207011437e7 0.0
1.5694153207011437e7 -123526.34269117261 0.0
0.0 0.0 0.0

-9.233646148180153e6 2.476364626658081e7 0.0
2.476364626658081e7 5.867393653351836e6 0.0
0.0 0.0 0.0

-1.8001566594610736e6 1.3871946260951508e7 0.0
1.3871946260951508e7 6.519110481834446e7 0.0
0.0 0.0 0.0

-1.2303483721213905e7 4.466012880847543e6 0.0
4.466012880847543e6 2.2247252668754447e7 0.0
0.0 0.0 0.0

-58981.284234098624 2.1963629454427727e7 0.0
2.1963629454427727e7 -7.5903020932862405e6 0.0
0.0 0.0 0.0

-3.931212410010131e6 1.6260350623975946e7 0.0
1.6260350623975946e7 1.174567168470405e6 0.0
0.0 0.0 0.0

-1.0932233940096293e7 6.945946636755016e6 0.0
6.945946636755016e6 3.1857762645715524e7 0.0
0.0 0.0 0.0

4.032585599186049e6 4.934466523042894e6 0.0
4.934466523042894e6 -1.993381896588016e7 0.0
0.0 0.0 0.0

-3.253925484425489e6 1.728138104396681e7 0.0
1.728138104396681e7 3.213949661870914e6 0.0
0.0 0.0 0.0

595163.3483441407 1.5238377013832496e7 0.0
1.5238377013832496e7 -1.9129651922057174e7 0.0
0.0 0.0 0.0

-455850.58492959477 2.138358081458301e7 0.0
2.138358081458301e7 -6.808069943366826e6 0.0
0.0 0.0 0.0

-1.2974199698335552e6 2.0098707512944743e7 0.0
2.0098707512944743e7 -5.137177750804413e6 0.0
0.0 0.0 0.0

-5.342870150960342e6 1.5198168742751664e7 0.0
1.5198168742751664e7 6.356554159290953e6 0.0
0.0 0.0 0.0

-1.9928837780959033e6 1.6482163256388463e7 0.0
1.6482163256388463e7 -2.632402992666191e6 0.0
0.0 0.0 0.0

-7.695351214455292e6 9.12566989144892e6 0.0
9.12566989144892e6 9.043495789675986e6 0.0
0.0 0.0 0.0

-4.066162158570344e7 2.273016294988027e7 0.0
2.273016294988027e7 6.298627266272403e6 0.0
0.0 0.0 0.0

2.8997904460620848e6 1.965639848774467e7 0.0
1.965639848774467e7 1.0013581887579357e7 0.0
0.0 0.0 0.0

-3.7720053507694122e6 2.067503191152168e7 0.0
2.067503191152168e7 1.0686906827171288e7 0.0
0.0 0.0 0.0

-2.201746988825144e6 2.368767423798095e7 0.0
2.368767423798095e7 928562.0364474019 0.0
0.0 0.0 0.0

2.3309631305209715e6 9.308837433410082e6 0.0
9.308837433410082e6 -1.8851424887662493e7 0.0
0.0 0.0 0.0

2.936291466119957e6 7.816133058013424e6 0.0
7.816133058013424e6 -2.2461497740177922e7 0.0
0.0 0.0 0.0

2.924688317600351e6 9.404133219869947e6 0.0
9.404133219869947e6 -2.633050136360472e7 0.0
0.0 0.0 0.0

-4.623477413889974e6 1.5296335926488528e7 0.0
1.5296335926488528e7 3.6664011075742026e6 0.0
0.0 0.0 0.0

-1.2226963331333885e7 1.2534641801960343e7 0.0
1.2534641801960343e7 2.2513323740372784e7 0.0
0.0 0.0 0.0

-6.125787980729208e6 1.0130984938621335e7 0.0
1.0130984938621335e7 1.0553929978565587e7 0.0
0.0 0.0 0.0

3.0161748237068513e6 1.9303172202161912e7 0.0
1.9303172202161912e7 -4.877645916062614e6 0.0
0.0 0.0 0.0

-2.0478934681359068e6 1.6025941112043837e7 0.0
1.6025941112043837e7 -1.6341394700693972e7 0.0
0.0 0.0 0.0

-3.862271997083491e6 2.276515014427286e7 0.0
2.276515014427286e7 7.009563488612232e6 0.0
0.0 0.0 0.0

4.208470116342045e6 2.773594163465652e7 0.0
2.773594163465652e7 -3.7156787563174902e6 0.0
0.0 0.0 0.0

-7.611777446290277e6 2.485887268349951e7 0.0
2.485887268349951e7 6.492551982580757e6 0.0
0.0 0.0 0.0

-6.203223065981798e6 1.8359911619414415e7 0.0
1.8359911619414415e7 1.867229551274363e7 0.0
0.0 0.0 0.0

2.0095036840576064e6 6.863091523695588e6 0.0
6.863091523695588e6 -4.2242383727993526e7 0.0
0.0 0.0 0.0

62893.892804224975 1.5283907127859958e7 0.0
1.5283907127859958e7 -9.84400849086146e6 0.0
0.0 0.0 0.0

3.3423419939559386e6 3.2020346260666633e6 0.0
3.2020346260666633e6 -1.0370886588290542e7 0.0
0.0 0.0 0.0

3.2998781252930723e6 8.133796480286984e6 0.0
8.133796480286984e6 -2.708793498982454e7 0.0
0.0 0.0 0.0

-3.3938001577483495e6 2.3330635625597853e7 0.0
2.3330635625597853e7 3.6449911311632916e6 0.0
0.0 0.0 0.0

-1.1399669337336473e7 1.2884641687362432e7 0.0
1.2884641687362432e7 2.185466703175068e7 0.0
0.0 0.0 0.0

-6.9652787600591e6 1.8024306077242907e7 0.0
1.8024306077242907e7 2.007734070007796e7 0.0
0.0 0.0 0.0

-3.6586291538960673e6 2.131071832814711e7 0.0
2.131071832814711e7 1.0113339237618776e7 0.0
0.0 0.0 0.0

2.4265285401280057e6 9.799100805627706e6 0.0
9.799100805627706e6 -1.3904084637747288e7 0.0
0.0 0.0 0.0

-5.0121535623114575e6 2.092529814782864e7 0.0
2.092529814782864e7 -8.88494202278913e6 0.0
0.0 0.0 0.0

204599.89601566573 2.8342457789824188e7 0.0
2.8342457789824188e7 -1.8749069080360678e6 0.0
0.0 0.0 0.0

-3.8096218822062677e6 2.430217185016399e7 0.0
2.430217185016399e7 5.219939310334496e6 0.0
0.0 0.0 0.0

-6.845274606127887e6 1.8051649496641263e7 0.0
1.8051649496641263e7 2.1038055443145998e7 0.0
0.0 0.0 0.0

-8.488469493597548e6 5.312738524382939e7 0.0
5.312738524382939e7 -1.1945776764215183e7 0.0
0.0 0.0 0.0

-4.924742363674004e6 2.0267224535298035e7 0.0
2.0267224535298035e7 -1.0996186347321386e7 0.0
0.0 0.0 0.0

-5.202361459062291e6 1.7037687998535473e7 0.0
1.7037687998535473e7 8.550048238512341e6 0.0
0.0 0.0 0.0

-9.612005607442908e6 1.5599409961563316e6 0.0
1.5599409961563316e6 1.2266742024530932e7 0.0
0.0 0.0 0.0

-1.1922355656875786e6 1.663294121861056e7 0.0
1.663294121861056e7 -5.649759168185188e6 0.0
0.0 0.0 0.0

-8.57831977238838e6 2.1625818777737457e7 0.0
2.1625818777737457e7 -5.041133570320725e6 0.0
0.0 0.0 0.0

-7.293519605569589e6 3.0393960053240385e7 0.0
3.0393960053240385e7 3.946951300368305e6 0.0
0.0 0.0 0.0

-903511.1855804061 1.897474424074955e7 0.0
1.897474424074955e7 -7.177876136980893e6 0.0
0.0 0.0 0.0

-1.771826953431994e6 2.050255664339067e7 0.0
2.050255664339067e7 -6.21374384412223e6 0.0
0.0 0.0 0.0

-1.0600351043057062e7 1.9660605800219153e6 0.0
1.9660605800219153e6 2.029311895867123e7 0.0
0.0 0.0 0.0

3.7976280802681306e6 5.9012700737854475e6 0.0
5.9012700737854475e6 -1.7881454607759845e7 0.0
0.0 0.0 0.0

419879.78336653725 2.7595030590764612e7 0.0
2.7595030590764612e7 -1.4325241841654847e6 0.0
0.0 0.0 0.0

-5.534862312718646e6 1.875901753971314e7 0.0
1.875901753971314e7 1.7325140351136815e7 0.0
0.0 0.0 0.0

-1.2736260666988898e7 2.2967892785892062e7 0.0
2.2967892785892062e7 -2.5473400339852097e6 0.0
0.0 0.0 0.0

-1.2170429676908706e6 5.721918546620107e6 0.0
5.721918546620107e6 -2.2664786709732465e6 0.0
0.0 0.0 0.0

-9.483464938614326e6 2.2825076115033567e7 0.0
2.2825076115033567e7 -8.057286178799689e6 0.0
0.0 0.0 0.0

-2.0213512484325538e6 1.961160540224934e7 0.0
1.961160540224934e7 -5.896914169846044e6 0.0
0.0 0.0 0.0

505399.4725954775 1.5240211234865969e7 0.0
1.5240211234865969e7 -1.5586009353094079e7 0.0
0.0 0.0 0.0

-1.4739228230845786e6 1.8314304108779266e7 0.0
1.8314304108779266e7 -4.996610403589658e6 0.0
0.0 0.0 0.0

1.8828979789062487e6 1.0074540111959705e7 0.0
1.0074540111959705e7 -1.6241137809815178e7 0.0
0.0 0.0 0.0

-2.581027681317825e6 1.9292462122011412e7 0.0
1.9292462122011412e7 173713.04865306977 0.0
0.0 0.0 0.0

-9.478590434910666e6 3.594812737092029e6 0.0
3.594812737092029e6 1.1605957395000048e7 0.0
0.0 0.0 0.0

-9.443620086147174e6 1.2453929592977257e7 0.0
1.2453929592977257e7 1.7783346210667744e7 0.0
0.0 0.0 0.0

-4.653327039185759e6 1.5039309502188912e7 0.0
1.5039309502188912e7 8.690102556924557e6 0.0
0.0 0.0 0.0

-4.443671970292823e6 1.5770951210153878e7 0.0
1.5770951210153878e7 -1.542372817405653e7 0.0
0.0 0.0 0.0

-3.9620924773772825e6 1.5253181052832242e7 0.0
1.5253181052832242e7 5.88156284062944e6 0.0
0.0 0.0 0.0

-3.0521474545885526e7 2.684975911815495e7 0.0
2.684975911815495e7 -1.1048967899829354e6 0.0
0.0 0.0 0.0

-4.112151450735068e6 1.6791076550504692e7 0.0
1.6791076550504692e7 2.4133041064506704e6 0.0
0.0 0.0 0.0

-1.3393528019691021e6 1.8518612583436254e7 0.0
1.8518612583436254e7 -2.8766086036817045e6 0.0
0.0 0.0 0.0

-4.6158769101828426e7 2.182400244195457e7 0.0
2.182400244195457e7 4.487147221646503e6 0.0
0.0 0.0 0.0

2.259318868171557e6 1.953992687072661e7 0.0
1.953992687072661e7 -6.536838437131947e6 0.0
0.0 0.0 0.0

-3.0733287700366406e6 1.5811193536788814e7 0.0
1.5811193536788814e7 1.916495707896983e6 0.0
0.0 0.0 0.0

1.698158914305938e6 1.100278063908303e7 0.0
1.100278063908303e7 -1.2023684220171353e7 0.0
0.0 0.0 0.0

-2.3326635903159464e6 2.4069784739558283e7 0.0
2.4069784739558283e7 1.754284747679159e6 0.0
0.0 0.0 0.0

1.5408587618909618e6 1.1498212275206637e7 0.0
1.1498212275206637e7 -1.651791031087626e7 0.0
0.0 0.0 0.0

1.431938666763329e6 1.231238265522378e7 0.0
1.231238265522378e7 -1.766744133929201e7 0.0
0.0 0.0 0.0

-6.102577419991903e6 8.140887411632655e6 0.0
8.140887411632655e6 5.722855702149911e6 0.0
0.0 0.0 0.0

-4.567513103125169e6 1.916241267697691e7 0.0
1.916241267697691e7 8.965618762898166e6 0.0
0.0 0.0 0.0

3.5308488781956155e6 7.581254933357237e6 0.0
7.581254933357237e6 -2.32945391083178e7 0.0
0.0 0.0 0.0

-1.122330797117132e7 5.70799312834855e6 0.0
5.70799312834855e6 1.763963808746912e7 0.0
0.0 0.0 0.0

1.5056219836368524e6 1.1884963872975225e7 0.0
1.1884963872975225e7 -1.71154328646194e7 0.0
0.0 0.0 0.0

-7.775064971604477e7 8.307592232312735e6 0.0
8.307592232312735e6 5.2629864912977405e6 0.0
0.0 0.0 0.0

2.2722690535879377e6 6.750258435684823e6 0.0
6.750258435684823e6 -3.938675161678771e7 0.0
0.0 0.0 0.0

-4.804614848017484e6 1.7983051344807673e7 0.0
1.7983051344807673e7 8.260143035517223e6 0.0
0.0 0.0 0.0

-4.201634204125336e6 1.943260480153449e7 0.0
1.943260480153449e7 6.660907583419717e6 0.0
0.0 0.0 0.0

-4.619168253695397e6 2.3998024767909847e7 0.0
2.3998024767909847e7 7.916633295224657e6 0.0
0.0 0.0 0.0

-2.0785277853619766e6 1.6955216861453995e7 0.0
1.6955216861453995e7 -6.15340958687368e6 0.0
0.0 0.0 0.0

-5.108006526087083e6 1.9506189554420833e7 0.0
1.9506189554420833e7 1.6170426246885799e7 0.0
0.0 0.0 0.0

727047.1443484332 1.3568581832399761e7 0.0
1.3568581832399761e7 -1.440591647343419e7 0.0
0.0 0.0 0.0

2.496384338156714e6 9.479413752837952e6 0.0
9.479413752837952e6 -2.2384955955577508e7 0.0
0.0 0.0 0.0

-2.5362044835400647e6 2.3762534214231834e7 0.0
2.3762534214231834e7 2.4837983379626265e6 0.0
0.0 0.0 0.0

238561.6919287024 2.4649863151804823e7 0.0
2.4649863151804823e7 -4.84897865858417e6 0.0
0.0 0.0 0.0

2.6750609232854694e6 8.787429993387435e6 0.0
8.787429993387435e6 -3.177043503189557e7 0.0
0.0 0.0 0.0

-5.25097238947098e6 1.2591872988942984e7 0.0
1.2591872988942984e7 8.926052573569905e6 0.0
0.0 0.0 0.0

-6.32401526308739e6 2.469811848293408e7 0.0
2.469811848293408e7 7.008616724838985e6 0.0
0.0 0.0 0.0

-4.2478608493274905e7 5.729430424808859e7 0.0
5.729430424808859e7 -3.256646960421944e6 0.0
0.0 0.0 0.0

-1.151748687976938e7 8.802054024454042e6 0.0
8.802054024454042e6 2.806821319592959e7 0.0
0.0 0.0 0.0

-3.430940926074823e6 1.4810429035804935e7 0.0
1.4810429035804935e7 -1.3826756964550652e7 0.0
0.0 0.0 0.0

-516565.59683398076 5.542349853730994e6 0.0
5.542349853730994e6 36621.471414489526 0.0
0.0 0.0 0.0

-8.786823421759333e6 -4.927175635115882e6 0.0
-4.927175635115882e6 2.7529027671956114e7 0.0
0.0 0.0 0.0

4.416247831431784e6 2.3363318703383864e6 0.0
2.3363318703383864e6 -2.7328306959267527e7 0.0
0.0 0.0 0.0

-6.375559507706793e6 2.1711764327791072e7 0.0
2.1711764327791072e7 2.127483852961654e6 0.0
0.0 0.0 0.0

-936593.5212896671 1.6445204338420164e7 0.0
1.6445204338420164e7 -1.759422615990324e7 0.0
0.0 0.0 0.0

-8.669675660400175e6 1.476813532682634e7 0.0
1.476813532682634e7 2.9098401076030493e7 0.0
0.0 0.0 0.0

-12371.285308276303 2.13034973198225e7 0.0
2.13034973198225e7 -8.460730550235355e6 0.0
0.0 0.0 0.0

1.5713828455384448e6 1.1102342552499468e7 0.0
1.1102342552499468e7 -1.5886471278374884e7 0.0
0.0 0.0 0.0

-4.677720676317215e6 1.5358706779295117e7 0.0
1.5358706779295117e7 3.8027875830193765e7 0.0
0.0 0.0 0.0

-2.3247635359881422e6 1.7029833073705375e7 0.0
1.7029833073705375e7 -1.4096300039866765e6 0.0
0.0 0.0 0.0

-3.486553234488331e6 1.7462392031047188e7 0.0
1.7462392031047188e7 2.7092245268604144e7 0.0
0.0 0.0 0.0

-694779.1340696486 1.673203850861774e7 0.0
1.673203850861774e7 -1.6414015637630662e7 0.0
0.0 0.0 0.0

6.302457382302046e7 8.623232502626996e6 0.0
8.623232502626996e6 892381.27439956 0.0
0.0 0.0 0.0

-576958.5007021001 2.1982336855994336e7 0.0
2.1982336855994336e7 -5.908954300839741e6 0.0
0.0 0.0 0.0

1.233428280627499e6 2.741714879096706e7 0.0
2.741714879096706e7 -2.1070115960306167e6 0.0
0.0 0.0 0.0

1.3068217603103705e6 1.2050808546960248e7 0.0
1.2050808546960248e7 -1.5506753618742267e7 0.0
0.0 0.0 0.0

2.2539125532591147e6 1.1115756206089977e7 0.0
1.1115756206089977e7 -1.5906036364677731e7 0.0
0.0 0.0 0.0

-1.709754773387656e6 1.6395071526855996e7 0.0
1.6395071526855996e7 -7.322655868021453e6 0.0
0.0 0.0 0.0

-1.2008827720270162e7 9.987817375660775e6 0.0
9.987817375660775e6 2.298434881989306e7 0.0
0.0 0.0 0.0

-1.7246306146877725e6 1.5407484294626987e7 0.0
1.5407484294626987e7 -2.3695966361332987e7 0.0
0.0 0.0 0.0

3.1673736069358583e6 3.1309960382763897e6 0.0
3.1309960382763897e6 -9.479891535018854e6 0.0
0.0 0.0 0.0

807311.5985485511 1.4271817217921667e7 0.0
1.4271817217921667e7 -1.5526106753004221e7 0.0
0.0 0.0 0.0

-2.4386674985746734e7 3.0375129004602958e7 0.0
3.0375129004602958e7 7.719845536055068e6 0.0
0.0 0.0 0.0

-3.234829238317462e6 1.1179565045029512e7 0.0
1.1179565045029512e7 -996881.9167239699 0.0
0.0 0.0 0.0

-2.6717532037110385e6 1.5436584478025354e7 0.0
1.5436584478025354e7 4.543415953949926e7 0.0
0.0 0.0 0.0

-3.873400197484972e6 1.9614985804379027e7 0.0
1.9614985804379027e7 1.3069371870566469e7 0.0
0.0 0.0 0.0

5.401415261186773e6 1.955321145101116e7 0.0
1.955321145101116e7 2.684234221719547e6 0.0
0.0 0.0 0.0

-5.278035715790552e6 2.440727814917883e7 0.0
2.440727814917883e7 7.430012223165245e6 0.0
0.0 0.0 0.0

-612684.4518111955 2.255026831721332e7 0.0
2.255026831721332e7 -4.905667288797162e6 0.0
0.0 0.0 0.0

-3.942711455589281e6 2.393028724762579e7 0.0
2.393028724762579e7 5.9086864513998935e6 0.0
0.0 0.0 0.0

-1.187812926327452e7 1.0310346808976589e7 0.0
1.0310346808976589e7 2.1475390942070417e7 0.0
0.0 0.0 0.0

-8.703085014221106e6 1.4400930497700142e7 0.0
1.4400930497700142e7 1.8084393855468597e7 0.0
0.0 0.0 0.0

-9.340534535035193e6 5.338197421693874e6 0.0
5.338197421693874e6 1.0398262397220887e7 0.0
0.0 0.0 0.0

1.4796457723042028e7 1.1676740874151018e7 0.0
1.1676740874151018e7 914295.90252432 0.0
0.0 0.0 0.0

-449972.90355634876 1.703333459475838e7 0.0
1.703333459475838e7 -1.5334053215462686e7 0.0
0.0 0.0 0.0

-965977.6607732229 2.246548713513047e7 0.0
2.246548713513047e7 -4.293697102025723e6 0.0
0.0 0.0 0.0

-3.2347281628388017e6 2.3688472855796125e7 0.0
2.3688472855796125e7 2.816008644287494e6 0.0
0.0 0.0 0.0

-8.993855803072885e6 -4.381724235036808e6 0.0
-4.381724235036808e6 1.8930926429209687e7 0.0
0.0 0.0 0.0

-3.573546848721899e6 2.505119588825543e7 0.0
2.505119588825543e7 3.825086226496241e6 0.0
0.0 0.0 0.0

-3.3216088089478966e6 1.6326372165130978e7 0.0
1.6326372165130978e7 3.1934160278283916e6 0.0
0.0 0.0 0.0

-4.279071783987392e6 2.5621764636346404e7 0.0
2.5621764636346404e7 4.770716935426981e6 0.0
0.0 0.0 0.0

5.279999492285485e6 1.845016290454679e7 0.0
1.845016290454679e7 1.0860494068390364e6 0.0
0.0 0.0 0.0

504142.5209772802 2.5728029045931425e7 0.0
2.5728029045931425e7 -2.9608678325572778e6 0.0
0.0 0.0 0.0

3.69918756233616e6 4.980633098754159e6 0.0
4.980633098754159e6 -2.2450657338091794e7 0.0
0.0 0.0 0.0

-1.1793306512239547e7 9.089392502022922e6 0.0
9.089392502022922e6 2.6310544249076687e7 0.0
0.0 0.0 0.0

310332.5944576496 1.8479671968684085e7 0.0
1.8479671968684085e7 -9.468770874325898e6 0.0
0.0 0.0 0.0

-228495.49274789914 1.7416650898062278e7 0.0
1.7416650898062278e7 -1.4228105473299121e7 0.0
0.0 0.0 0.0

-2.2268358575501125e6 1.6091978134811388e7 0.0
1.6091978134811388e7 -1.6268184857905265e6 0.0
0.0 0.0 0.0

-4.247489144108953e6 2.0257612230350837e7 0.0
2.0257612230350837e7 5.497534368156514e6 0.0
0.0 0.0 0.0

819080.5973947183 2.2026529673354764e7 0.0
2.2026529673354764e7 -7.523025495797064e6 0.0
0.0 0.0 0.0

-139913.44080992276 1.711611097961423e7 0.0
1.711611097961423e7 -8.266140633041041e6 0.0
0.0 0.0 0.0

-1.141574689250135e7 1.2414479191294538e7 0.0
1.2414479191294538e7 1.7517656187557314e7 0.0
0.0 0.0 0.0

3.001173532911204e6 9.304203159485938e6 0.0
9.304203159485938e6 -1.8756228783226054e7 0.0
0.0 0.0 0.0

-834215.5042089382 1.735167626077673e7 0.0
1.735167626077673e7 -1.4718568234276347e7 0.0
0.0 0.0 0.0

1.3817010747581455e6 1.9489514618216377e7 0.0
1.9489514618216377e7 1.1772955141162973e7 0.0
0.0 0.0 0.0

-2.2438253252832345e6 1.8616651081617985e7 0.0
1.8616651081617985e7 -5.473450472438756e6 0.0
0.0 0.0 0.0

3.367433676517036e6 7.193721878334375e6 0.0
7.193721878334375e6 -3.0684898576904353e7 0.0
0.0 0.0 0.0

3.417997576516174e6 5.390379778715035e6 0.0
5.390379778715035e6 -4.032399706081051e7 0.0
0.0 0.0 0.0

-5.4868646017248295e6 1.5653826067232868e7 0.0
1.5653826067232868e7 7.612940407567695e6 0.0
0.0 0.0 0.0

-3.0466665959010883e6 2.402469315532743e7 0.0
2.402469315532743e7 2.05664788374432e6 0.0
0.0 0.0 0.0

-1.0947998205074241e7 2.0590346274341017e6 0.0
2.0590346274341017e6 2.376286689897962e7 0.0
0.0 0.0 0.0

-7.607726380263699e6 1.4459481124067321e7 0.0
1.4459481124067321e7 1.1998761594065852e7 0.0
0.0 0.0 0.0

-4.4764358885694165e6 1.885046929947576e7 0.0
1.885046929947576e7 7.990047215381632e6 0.0
0.0 0.0 0.0

2.834987578772518e6 9.495819902283343e6 0.0
9.495819902283343e6 -1.715564769166168e7 0.0
0.0 0.0 0.0

4.331495325823139e6 2.212930509921219e6 0.0
2.212930509921219e6 -2.8184978238172904e7 0.0
0.0 0.0 0.0

-4.229424463450596e6 1.773815725003996e7 0.0
1.773815725003996e7 1.026674411076083e7 0.0
0.0 0.0 0.0

267790.1212309599 1.6839836601817798e7 0.0
1.6839836601817798e7 5.6612348042554274e7 0.0
0.0 0.0 0.0

-3.4015551502820156e6 1.9746442804227818e7 0.0
1.9746442804227818e7 7.147723284355908e6 0.0
0.0 0.0 0.0

-810027.9557620406 2.3035022604491238e7 0.0
2.3035022604491238e7 -4.121290984915952e6 0.0
0.0 0.0 0.0

1.3061456587904673e6 1.274122666885223e7 0.0
1.274122666885223e7 -1.6441283562242094e7 0.0
0.0 0.0 0.0

-1.3188143672729162e6 2.487738397817251e7 0.0
2.487738397817251e7 -883864.8508132559 0.0
0.0 0.0 0.0

-2.709769638258227e6 2.342270368928083e7 0.0
2.342270368928083e7 3.252541840090543e6 0.0
0.0 0.0 0.0

5.612415069224131e6 1.686987715579513e7 0.0
1.686987715579513e7 3.0589353436321806e7 0.0
0.0 0.0 0.0

3.1988129192304867e6 3.1395652756141373e6 0.0
3.1395652756141373e6 -9.996662478276964e6 0.0
0.0 0.0 0.0

2.2984966920261495e6 2.012201961827811e7 0.0
2.012201961827811e7 -7.263191181769179e6 0.0
0.0 0.0 0.0

3.755441097899801e6 4.070319925183282e6 0.0
4.070319925183282e6 -1.6467549804651715e7 0.0
0.0 0.0 0.0

-1.0240115547982886e7 1.0833211131038023e7 0.0
1.0833211131038023e7 1.8097388319772664e7 0.0
0.0 0.0 0.0

-3.4989514828637727e6 2.2289461222897604e7 0.0
2.2289461222897604e7 4.57148892791153e6 0.0
0.0 0.0 0.0

-1.5373468249809144e6 1.9116344805594176e7 0.0
1.9116344805594176e7 -4.691669418510032e6 0.0
0.0 0.0 0.0

2.389113087767021e6 1.024711636690925e7 0.0
1.024711636690925e7 -1.457954222182985e7 0.0
0.0 0.0 0.0

-104127.64789874014 1.7491527782989983e7 0.0
1.7491527782989983e7 -9.594297182183841e6 0.0
0.0 0.0 0.0

-970952.7603482053 2.355961603965524e7 0.0
2.355961603965524e7 -3.3078686854568175e6 0.0
0.0 0.0 0.0

-1.1147792201075144e7 3.9270046413738807e6 0.0
3.9270046413738807e6 2.7449339748260684e7 0.0
0.0 0.0 0.0

-7.799988665894481e6 1.598345985149355e7 0.0
1.598345985149355e7 1.8197444712912746e7 0.0
0.0 0.0 0.0

-1.1464031060106399e7 7.631346485068465e6 0.0
7.631346485068465e6 1.919194441206448e7 0.0
0.0 0.0 0.0

-4.24408595369296e6 1.5802087192999737e7 0.0
1.5802087192999737e7 2.370409436524208e6 0.0
0.0 0.0 0.0

-3.2902022703623003e6 2.354897589932226e7 0.0
2.354897589932226e7 6.510330010976477e6 0.0
0.0 0.0 0.0

-2.9364156680017645e6 1.8604035836177163e7 0.0
1.8604035836177163e7 -2.6649354986343514e6 0.0
0.0 0.0 0.0

-2.4549417283290615e6 2.4769439859090462e7 0.0
2.4769439859090462e7 -38284.0536543153 0.0
0.0 0.0 0.0

-6.974179397134704e6 8.561565916829301e6 0.0
8.561565916829301e6 7.459467129840143e6 0.0
0.0 0.0 0.0

-8.469132985486642e6 1.3824133214034243e7 0.0
1.3824133214034243e7 1.7227601194351874e7 0.0
0.0 0.0 0.0

-2.870814325853985e6 2.4319595846155345e7 0.0
2.4319595846155345e7 1.3631854220197329e6 0.0
0.0 0.0 0.0

812426.6619423446 2.1054858578977328e7 0.0
2.1054858578977328e7 -8.621666665511064e6 0.0
0.0 0.0 0.0

1.0553715747933172e7 2.123953403677342e7 0.0
2.123953403677342e7 1.0692214748798795e7 0.0
0.0 0.0 0.0

-3.6035628340775194e6 1.5826158207748618e7 0.0
1.5826158207748618e7 4.503810482493166e6 0.0
0.0 0.0 0.0

3.8788848160378314e6 2.3525136035575632e7 0.0
2.3525136035575632e7 -5.702483674234095e6 0.0
0.0 0.0 0.0

-3.938076437298041e6 1.6762757775057338e7 0.0
1.6762757775057338e7 6.887635102914024e6 0.0
0.0 0.0 0.0

-7.712596966068165e6 1.5509275975004489e7 0.0
1.5509275975004489e7 1.7416865359387837e7 0.0
0.0 0.0 0.0

-5.469116754228452e6 9.575620075063992e6 0.0
9.575620075063992e6 8.992749999359455e6 0.0
0.0 0.0 0.0

-2.684538952995936e6 2.4559127752556447e7 0.0
2.4559127752556447e7 611147.5103609897 0.0
0.0 0.0 0.0

3.930198487214649e6 6.167671705762824e6 0.0
6.167671705762824e6 -2.1991257960351527e7 0.0
0.0 0.0 0.0

3.4580753280967316e6 7.9997747452869415e6 0.0
7.9997747452869415e6 -2.069805196590827e7 0.0
0.0 0.0 0.0

-4.1271940033275248e6 2.352589862436202e7 0.0
2.352589862436202e7 8.317865635579221e6 0.0
0.0 0.0 0.0

-43363.34004385024 1.1583059618077006e7 0.0
1.1583059618077006e7 -6.582147107000929e6 0.0
0.0 0.0 0.0

2.3338787223978695e6 1.0698459326781161e7 0.0
1.0698459326781161e7 -1.5234414966065362e7 0.0
0.0 0.0 0.0

-1.4003984453927292e6 2.6656385391231917e7 0.0
2.6656385391231917e7 -813849.8736920082 0.0
0.0 0.0 0.0

-1.1551194485310167e6 2.4467368194445524e7 0.0
2.4467368194445524e7 -1.6644426858939403e6 0.0
0.0 0.0 0.0

-1.749828371551109e6 1.9791646834487185e7 0.0
1.9791646834487185e7 -6.577274321782654e6 0.0
0.0 0.0 0.0

-1.1520250447302097e6 1.6135791866524529e7 0.0
1.6135791866524529e7 -2.1584070813294165e7 0.0
0.0 0.0 0.0

-3.079608225931371e6 2.6912103009811614e7 0.0
2.6912103009811614e7 1.8118579954863987e6 0.0
0.0 0.0 0.0

-7.792299105413818e6 1.644068723585881e7 0.0
1.644068723585881e7 1.870459659956207e7 0.0
0.0 0.0 0.0

2.3695189569516983e6 6.960766476382663e6 0.0
6.960766476382663e6 -1.3702349769992765e7 0.0
0.0 0.0 0.0

206042.2317688971 2.8734408343369078e7 0.0
2.8734408343369078e7 -916131.3299633655 0.0
0.0 0.0 0.0

-3.471032419755154e6 2.0082635070862643e7 0.0
2.0082635070862643e7 1.1090831629079731e7 0.0
0.0 0.0 0.0

-1.0525936753849876e6 2.4025561790931784e7 0.0
2.4025561790931784e7 -2.4187732265785527e6 0.0
0.0 0.0 0.0

-3100.7633947851136 1.780318460223794e7 0.0
1.780318460223794e7 -1.3209192235337347e7 0.0
0.0 0.0 0.0

-1.8081908658945246e6 2.5091191377250373e7 0.0
2.5091191377250373e7 476356.65707834926 0.0
0.0 0.0 0.0

-4.1020909169733487e6 2.0369124780723996e7 0.0
2.0369124780723996e7 1.3403936134861281e7 0.0
0.0 0.0 0.0

-1.8504167959911434e6 2.509635617319386e7 0.0
2.509635617319386e7 -1.2329372383874478e6 0.0
0.0 0.0 0.0

4.721909230866065e6 3.0548120512175325e7 0.0
3.0548120512175325e7 -2.6704504028380075e6 0.0
0.0 0.0 0.0

-1.1025397509925622e7 1.4298742899133964e7 0.0
1.4298742899133964e7 2.284703013255553e7 0.0
0.0 0.0 0.0

2.007719531366364e6 1.169203563653023e7 0.0
1.169203563653023e7 -1.4944370391841974e7 0.0
0.0 0.0 0.0

-1.1938050994626408e7 1.0868677209490024e7 0.0
1.0868677209490024e7 2.3612757020747866e7 0.0
0.0 0.0 0.0

-1.014137028058542e7 1.2712597953220785e7 0.0
1.2712597953220785e7 1.5282292170439888e7 0.0
0.0 0.0 0.0

-565910.23172494 -1.2851581733232387e6 0.0
-1.2851581733232387e6 1.18085437089233e6 0.0
0.0 0.0 0.0

-266491.0113643074 -1.8014725924931434e6 0.0
-1.8014725924931434e6 2.0278518613782863e6 0.0
0.0 0.0 0.0

-1.0722853195158403e7 1.496820859163657e7 0.0
1.496820859163657e7 2.327350778425314e7 0.0
0.0 0.0 0.0

9.275858457974903e6 2.034594744156631e7 0.0
2.034594744156631e7 8.58049783809063e6 0.0
0.0 0.0 0.0

-254703.56713541097 2.5284137905711304e7 0.0
2.5284137905711304e7 -2.480508768877129e6 0.0
0.0 0.0 0.0

-1.1281566797249056e6 2.0314935462515052e7 0.0
2.0314935462515052e7 -5.931882405115819e6 0.0
0.0 0.0 0.0

1.9441389527476346e6 1.2071229541028662e7 0.0
1.2071229541028662e7 -1.5629488486858875e7 0.0
0.0 0.0 0.0

5.191626035186574e6 1.6849987336201448e7 0.0
1.6849987336201448e7 2.6820006965730928e7 0.0
0.0 0.0 0.0

-2.83533532789526e6 2.7380111225445844e7 0.0
2.7380111225445844e7 2.824565049960319e6 0.0
0.0 0.0 0.0

-1.3232014324622292e6 2.7132399396266017e7 0.0
2.7132399396266017e7 -764444.8695352685 0.0
0.0 0.0 0.0

-995537.1465087773 2.7634785475377787e7 0.0
2.7634785475377787e7 -753456.6731021691 0.0
0.0 0.0 0.0

-5.624606984778363e6 1.794863172302819e7 0.0
1.794863172302819e7 1.174746106742891e7 0.0
0.0 0.0 0.0

-5.678082065244208e6 1.6012321772046985e7 0.0
1.6012321772046985e7 8.843042680887733e6 0.0
0.0 0.0 0.0

-7.4750647435297575e6 1.0944107428097045e7 0.0
1.0944107428097045e7 9.155279373599984e6 0.0
0.0 0.0 0.0

-3.46060931254034e6 2.1223808499522906e7 0.0
2.1223808499522906e7 8.854004894652942e6 0.0
0.0 0.0 0.0

-4.819546933694588e6 1.538244069062897e7 0.0
1.538244069062897e7 9.932170588974763e6 0.0
0.0 0.0 0.0

-1.101968424433742e7 1.4019027636853006e7 0.0
1.4019027636853006e7 2.5192540470656168e7 0.0
0.0 0.0 0.0

1.9191291621447979e6 1.252518866334417e7 0.0
1.252518866334417e7 -1.6135354830485884e7 0.0
0.0 0.0 0.0

-4.644664864619557e6 1.943093601215697e7 0.0
1.943093601215697e7 9.853121674265817e6 0.0
0.0 0.0 0.0

-1.1353259087349243e7 1.2330949511751575e7 0.0
1.2330949511751575e7 2.619177896240665e7 0.0
0.0 0.0 0.0

2.720280786054097e6 1.848848286138176e7 0.0
1.848848286138176e7 1.2714265758702662e7 0.0
0.0 0.0 0.0

-4.552365947765791e6 1.685129696604779e7 0.0
1.685129696604779e7 4.830894695848134e6 0.0
0.0 0.0 0.0

-1.7272853459471413e6 2.5621127845022473e7 0.0
2.5621127845022473e7 594787.8959068614 0.0
0.0 0.0 0.0

-1.873790193916202e6 2.4523459148596797e7 0.0
2.4523459148596797e7 354132.2847865096 0.0
0.0 0.0 0.0

-3.916908920071816e6 2.0964398434772007e7 0.0
2.0964398434772007e7 1.210102923061163e7 0.0
0.0 0.0 0.0

-1.1470990881186351e6 1.6835384265099943e7 0.0
1.6835384265099943e7 -1.823770983921362e7 0.0
0.0 0.0 0.0

-3.7224152231554645e6 2.1389876110424723e7 0.0
2.1389876110424723e7 6.575427310797756e6 0.0
0.0 0.0 0.0

-6.832743788791007e6 1.6918412210457254e7 0.0
1.6918412210457254e7 1.7351005625432882e7 0.0
0.0 0.0 0.0

-1.1929862482873704e6 1.9570065893939648e7 0.0
1.9570065893939648e7 -6.229502872151148e6 0.0
0.0 0.0 0.0

1.8350423411077182e6 2.7965766143798362e7 0.0
2.7965766143798362e7 -2.112751772564109e6 0.0
0.0 0.0 0.0

-3.870958198365898e6 2.1628348908513222e7 0.0
2.1628348908513222e7 1.086500375183677e7 0.0
0.0 0.0 0.0

-1.437629286480539e6 1.924906825868319e7 0.0
1.924906825868319e7 -7.598543110844388e6 0.0
0.0 0.0 0.0

3.2190681655047378e6 8.52474292763695e6 0.0
8.52474292763695e6 -2.1343111365971696e7 0.0
0.0 0.0 0.0

-4.351298944487405e6 1.8000210921373703e7 0.0
1.8000210921373703e7 1.1285820444001844e7 0.0
0.0 0.0 0.0

2.1406302068792456e6 2.33245128374058e7 0.0
2.33245128374058e7 -6.134982015355015e6 0.0
0.0 0.0 0.0

2.694544490295047e6 3.2034969314761697e6 0.0
3.2034969314761697e6 -7.458412217890568e6 0.0
0.0 0.0 0.0

2.5744178508667275e6 8.604559941922953e6 0.0
8.604559941922953e6 -2.782168541761061e7 0.0
0.0 0.0 0.0

-422703.1442379267 1.81735114776134e7 0.0
1.81735114776134e7 -9.254719514515406e6 0.0
0.0 0.0 0.0

9.35907582692582e6 2.1174295398795124e7 0.0
2.1174295398795124e7 1.019252805098775e7 0.0
0.0 0.0 0.0

2.588755418791773e6 8.930035219539165e6 0.0
8.930035219539165e6 -2.198936561015637e7 0.0
0.0 0.0 0.0

2.340232368684858e6 9.987038323409379e6 0.0
9.987038323409379e6 -2.141894441076653e7 0.0
0.0 0.0 0.0

892041.5163454374 1.7894396470340718e7 0.0
1.7894396470340718e7 4.842123321070513e6 0.0
0.0 0.0 0.0

-1.1534620968909735e7 5.532205483866967e6 0.0
5.532205483866967e6 2.6026431929723646e7 0.0
0.0 0.0 0.0

-8.911605438396353e6 1.1227389769881573e7 0.0
1.1227389769881573e7 1.2042041419371756e7 0.0
0.0 0.0 0.0

-7.6801739139462495e6 1.702483699611013e7 0.0
1.702483699611013e7 -3.8783412406734414e7 0.0
0.0 0.0 0.0

-6.746605786625477e6 1.56478735438771e7 0.0
1.56478735438771e7 1.159052501248166e7 0.0
0.0 0.0 0.0

-1.2563257005464714e7 1.0358222956270542e7 0.0
1.0358222956270542e7 1.9115858615866907e7 0.0
0.0 0.0 0.0

1.633341087292308e6 1.9972702771761436e7 0.0
1.9972702771761436e7 9.49902111436373e6 0.0
0.0 0.0 0.0

-8.895707576076053e6 -5.281488695980326e6 0.0
-5.281488695980326e6 2.666829846729963e7 0.0
0.0 0.0 0.0

-4.908465976643173e6 1.8284310158505403e7 0.0
1.8284310158505403e7 9.327718981484938e6 0.0
0.0 0.0 0.0

-3.543978770056587e6 2.362053080033648e7 0.0
2.362053080033648e7 7.172238861162173e6 0.0
0.0 0.0 0.0

78679.3991779508 1.655812880743145e7 0.0
1.655812880743145e7 -1.3937589864259202e7 0.0
0.0 0.0 0.0

-6.401508955735378e6 -1.785243047798775e6 0.0
-1.785243047798775e6 8.250109419577035e6 0.0
0.0 0.0 0.0

-6.955906750735676e6 1.0387334354219047e7 0.0
1.0387334354219047e7 7.639424933784312e6 0.0
0.0 0.0 0.0

1.3132009292062987e6 7.403709540462753e6 0.0
7.403709540462753e6 -4.5881118681686126e7 0.0
0.0 0.0 0.0

3.598471727925119e6 2.8153643292106993e7 0.0
2.8153643292106993e7 -2.8931825054670135e6 0.0
0.0 0.0 0.0

-9.851380597794328e6 1.1435558100908246e7 0.0
1.1435558100908246e7 3.3023405141923174e7 0.0
0.0 0.0 0.0

-4.404520762991329e6 1.745918157563809e7 0.0
1.745918157563809e7 -1.3319377639429802e7 0.0
0.0 0.0 0.0

-1.2742605961061593e7 9.98016083881073e6 0.0
9.98016083881073e6 2.0502421032362387e7 0.0
0.0 0.0 0.0

-1.0408972934964884e7 2.3600559371795766e7 0.0
2.3600559371795766e7 -6.294528155045634e6 0.0
0.0 0.0 0.0

-978299.3833401566 1.816558523639808e7 0.0
1.816558523639808e7 -4.407105658383581e6 0.0
0.0 0.0 0.0

1.961709767977951e6 1.710315332423153e7 0.0
1.710315332423153e7 1.402563884741299e7 0.0
0.0 0.0 0.0

2.7073478936669063e6 7.94873787970126e6 0.0
7.94873787970126e6 -2.9127494732097548e7 0.0
0.0 0.0 0.0

-4.556834318202024e6 1.6425021536633153e7 0.0
1.6425021536633153e7 -1.1338804578752331e7 0.0
0.0 0.0 0.0

4.483135024696089e6 3.1990165294206508e7 0.0
3.1990165294206508e7 -4.254410280824569e6 0.0
0.0 0.0 0.0

-4.471070318882844e6 1.82580027159222e7 0.0
1.82580027159222e7 1.22412269405768e7 0.0
0.0 0.0 0.0

-9.056923977838723e6 -4.355202191933692e6 0.0
-4.355202191933692e6 2.9737485785738632e7 0.0
0.0 0.0 0.0

-2.293167201274803e6 1.8382074209919874e7 0.0
1.8382074209919874e7 1.4473515973362166e7 0.0
0.0 0.0 0.0

-8.458380994274462e6 2.2623937772305116e7 0.0
2.2623937772305116e7 -8.162629924596123e6 0.0
0.0 0.0 0.0

-5.494001673898356e6 9.284095842174102e6 0.0
9.284095842174102e6 4.426368434663565e6 0.0
0.0 0.0 0.0

1.2819341481643673e6 1.7717607468679685e7 0.0
1.7717607468679685e7 2.989122483525915e7 0.0
0.0 0.0 0.0

-9.432773473719012e6 1.512194740809817e7 0.0
1.512194740809817e7 1.679725686866743e7 0.0
0.0 0.0 0.0

-1.0360849995342981e7 1.3261660295575416e7 0.0
1.3261660295575416e7 1.6336811815074928e7 0.0
0.0 0.0 0.0

-1.0454379312555578e7 9.590357578457788e6 0.0
9.590357578457788e6 3.285501698987809e7 0.0
0.0 0.0 0.0

-2.532834143864367e6 1.840727627671111e7 0.0
1.840727627671111e7 1.783817649795751e7 0.0
0.0 0.0 0.0

-7.785462981778392e6 2.7359183903938822e7 0.0
2.7359183903938822e7 5.241076426659569e6 0.0
0.0 0.0 0.0

-849541.6287540296 2.9363406592679862e7 0.0
2.9363406592679862e7 -778448.1420492486 0.0
0.0 0.0 0.0

-4.303602929320201e6 2.019714751719982e7 0.0
2.019714751719982e7 9.48558980071792e6 0.0
0.0 0.0 0.0

2.3814377079088935e6 3.0641664734195895e6 0.0
3.0641664734195895e6 -6.448693907479836e6 0.0
0.0 0.0 0.0

2.447378025614582e6 1.095954958457712e7 0.0
1.095954958457712e7 -1.747325665944853e7 0.0
0.0 0.0 0.0

2.0611982708703484e6 1.0854517756704543e7 0.0
1.0854517756704543e7 -1.364587081893546e7 0.0
0.0 0.0 0.0

-5.843633860580135e6 1.6366357669628385e7 0.0
1.6366357669628385e7 1.003050637517799e7 0.0
0.0 0.0 0.0

-2.3451008079930865e6 3.86541880843215e7 0.0
3.86541880843215e7 -3.134151432506694e6 0.0
0.0 0.0 0.0

-8.420679035396961e6 7.23257395110824e6 0.0
7.23257395110824e6 8.898102343919463e6 0.0
0.0 0.0 0.0

932320.9222052536 2.6212792675429184e7 0.0
2.6212792675429184e7 -2.8983009622547794e6 0.0
0.0 0.0 0.0

2.4274074644448142e6 2.4111640269258756e7 0.0
2.4111640269258756e7 -5.529839102597637e6 0.0
0.0 0.0 0.0

-4.130548173380969e6 1.015123369580407e7 0.0
1.015123369580407e7 5.743914078471806e6 0.0
0.0 0.0 0.0

-295795.2320781739 1.6404260660505863e7 0.0
1.6404260660505863e7 1.0890232790633729e6 0.0
0.0 0.0 0.0

1.5528948418709671e7 2.0296146217202116e7 0.0
2.0296146217202116e7 8.941749517501086e6 0.0
0.0 0.0 0.0

5.816991047497092e6 1.839162060428786e7 0.0
1.839162060428786e7 2.8306562210027616e7 0.0
0.0 0.0 0.0

700550.2454972612 1.747560662757733e7 0.0
1.747560662757733e7 1.209938337734933e7 0.0
0.0 0.0 0.0

-9.31034738618074e6 1.4589863002216512e7 0.0
1.4589863002216512e7 1.5898959509641245e7 0.0
0.0 0.0 0.0

-1.5245332433504234e6 3.621208715994533e7 0.0
3.621208715994533e7 -2.289089761900762e6 0.0
0.0 0.0 0.0

-1.5277058826310113e7 2.4708296443991438e7 0.0
2.4708296443991438e7 -5.584985581423697e6 0.0
0.0 0.0 0.0

-1.0450107982057832e7 1.3871197184311181e7 0.0
1.3871197184311181e7 1.72437920369693e7 0.0
0.0 0.0 0.0

942013.3341538627 1.190314296420058e7 0.0
1.190314296420058e7 -2.9669854020327106e7 0.0
0.0 0.0 0.0

4.1514753664265964e6 2.047784777734063e6 0.0
2.047784777734063e6 -3.2890492482869383e7 0.0
0.0 0.0 0.0

920347.3114268444 1.5819956692900829e7 0.0
1.5819956692900829e7 -1.465423428687773e7 0.0
0.0 0.0 0.0

2.1808013334702915e6 1.1530768926889287e7 0.0
1.1530768926889287e7 -1.6549335991319258e7 0.0
0.0 0.0 0.0

540136.8133111624 1.71170357221277e7 0.0
1.71170357221277e7 -1.2970973731245825e7 0.0
0.0 0.0 0.0

-3.3800372672176277e6 4.172675834243526e7 0.0
4.172675834243526e7 -5.128201073862139e6 0.0
0.0 0.0 0.0

-2.911640249849328e6 2.1810227066975474e7 0.0
2.1810227066975474e7 3.992856384944143e6 0.0
0.0 0.0 0.0

-142031.58227183297 1.9839633520413205e7 0.0
1.9839633520413205e7 -1.0549257281579271e7 0.0
0.0 0.0 0.0

-413026.9563023569 1.9184410293272994e7 0.0
1.9184410293272994e7 -1.0964776902815795e7 0.0
0.0 0.0 0.0

2.576585412620169e6 1.009845744942381e7 0.0
1.009845744942381e7 -1.6196974830149915e7 0.0
0.0 0.0 0.0

-4.3024393993715495e6 2.114155588487822e7 0.0
2.114155588487822e7 9.86393605830487e6 0.0
0.0 0.0 0.0

-726410.2521285359 1.8809645159311496e7 0.0
1.8809645159311496e7 1.5606835546458973e7 0.0
0.0 0.0 0.0

-6.114160972833158e6 2.2016716236708265e7 0.0
2.2016716236708265e7 7.432241776726259e6 0.0
0.0 0.0 0.0

-5.088947178663414e6 7.535885484228963e6 0.0
7.535885484228963e6 6.284676539913937e7 0.0
0.0 0.0 0.0

-8.306180718964148e6 -2.9494671503074397e6 0.0
-2.9494671503074397e6 1.775807556398203e7 0.0
0.0 0.0 0.0

-1.3957171167689614e7 6.1802752823334076e7 0.0
6.1802752823334076e7 -1.7218942975270428e7 0.0
0.0 0.0 0.0

2.791773857605103e6 1.7307499982774526e7 0.0
1.7307499982774526e7 1.7650530505122706e7 0.0
0.0 0.0 0.0

-1.0497452673868963e6 3.45862312759553e7 0.0
3.45862312759553e7 -1.5313124823820079e6 0.0
0.0 0.0 0.0

58474.48989034025 1.6835787887124434e7 0.0
1.6835787887124434e7 -1.053164430981752e7 0.0
0.0 0.0 0.0

531381.5397588233 1.9265822730769776e7 0.0
1.9265822730769776e7 -1.0335405021309968e7 0.0
0.0 0.0 0.0

-3.102149660887375e6 2.2765913757101413e7 0.0
2.2765913757101413e7 5.856938772120141e6 0.0
0.0 0.0 0.0

4.383452525020541e6 2.61144552375863e6 0.0
2.61144552375863e6 -1.8974772567713343e7 0.0
0.0 0.0 0.0

6.813281661142251e6 1.8564516611146383e7 0.0
1.8564516611146383e7 1.7248111184958646e6 0.0
0.0 0.0 0.0

2.3532395855617467e6 1.144826279986978e7 0.0
1.144826279986978e7 -1.8069950105257846e7 0.0
0.0 0.0 0.0

2.8071675886356304e6 2.2047805239244007e7 0.0
2.2047805239244007e7 -6.493607430624774e6 0.0
0.0 0.0 0.0

3.378980910984006e6 7.414042973804927e6 0.0
7.414042973804927e6 -2.831193067878396e7 0.0
0.0 0.0 0.0

-3.6508889653870924e6 1.921736206484184e7 0.0
1.921736206484184e7 8.56265875594102e6 0.0
0.0 0.0 0.0

2.919690646440563e6 7.067377323394909e6 0.0
7.067377323394909e6 -1.1893095849519407e7 0.0
0.0 0.0 0.0

-1.8088696022956467e6 1.0625244077391662e7 0.0
1.0625244077391662e7 -122879.76207243727 0.0
0.0 0.0 0.0

-1.4497742399466988e7 2.1936782426383074e7 0.0
2.1936782426383074e7 -4.675419741802819e6 0.0
0.0 0.0 0.0

2.9591175202333387e6 9.624347255657732e6 0.0
9.624347255657732e6 -2.083240872246949e7 0.0
0.0 0.0 0.0

-2.7983055589286042e6 1.5922838435396375e7 0.0
1.5922838435396375e7 -3.500446918428425e6 0.0
0.0 0.0 0.0

-722917.4986635433 2.0345258710025363e7 0.0
2.0345258710025363e7 -8.985455367561903e6 0.0
0.0 0.0 0.0

-2.6063743224291056e6 1.8104485425491024e7 0.0
1.8104485425491024e7 2.196657122543988e7 0.0
0.0 0.0 0.0

284166.54489140655 1.80220286253027e7 0.0
1.80220286253027e7 -2.0337406498400106e6 0.0
0.0 0.0 0.0

-6.491222750590505e6 1.5293860000277145e7 0.0
1.5293860000277145e7 1.0401217957452595e7 0.0
0.0 0.0 0.0

-1.1913699874816965e7 6.959536962794499e6 0.0
6.959536962794499e6 2.837924820074557e7 0.0
0.0 0.0 0.0

-2.0323280587362517e6 1.840711987225695e7 0.0
1.840711987225695e7 2.2402094202428013e7 0.0
0.0 0.0 0.0

-8.340379175025137e6 1.6189555813028935e7 0.0
1.6189555813028935e7 1.6234521147191778e7 0.0
0.0 0.0 0.0

-1.1508285786472162e7 2.2551380051726126e6 0.0
2.2551380051726126e6 2.5441328699526176e7 0.0
0.0 0.0 0.0

-5.111592141868399e6 1.764893328360443e7 0.0
1.764893328360443e7 1.3707475870034017e7 0.0
0.0 0.0 0.0

-5.1291987032877235e6 1.9813483593276337e7 0.0
1.9813483593276337e7 1.4739280702344283e7 0.0
0.0 0.0 0.0

-8.387109529687957e6 5.207380817049764e6 0.0
5.207380817049764e6 1.3597792570109215e7 0.0
0.0 0.0 0.0

-557725.0390368737 1.977143401856924e7 0.0
1.977143401856924e7 -9.987651979029195e6 0.0
0.0 0.0 0.0

-3.36931861409338e6 2.270564401627954e7 0.0
2.270564401627954e7 3.649184587484444e6 0.0
0.0 0.0 0.0

-8.277351835176288e6 1.6669327004937422e7 0.0
1.6669327004937422e7 1.6969272601255897e7 0.0
0.0 0.0 0.0

-1.0323725557725953e7 2.623763323723882e6 0.0
2.623763323723882e6 3.68385119403857e7 0.0
0.0 0.0 0.0

-2.678991261218073e6 1.933956137401314e7 0.0
1.933956137401314e7 1.1571388946596336e7 0.0
0.0 0.0 0.0

-9.71036690293853e6 1.3131450637566619e7 0.0
1.3131450637566619e7 1.8613162918199793e7 0.0
0.0 0.0 0.0

1.3856959142853469e6 1.1636869253259948e7 0.0
1.1636869253259948e7 -2.8014860081073865e7 0.0
0.0 0.0 0.0

-3.4771727203148287e6 1.752367147010687e7 0.0
1.752367147010687e7 2.7167603849712368e7 0.0
0.0 0.0 0.0

-1.0557024496912848e7 1.496137459843844e7 0.0
1.496137459843844e7 2.176570209875383e7 0.0
0.0 0.0 0.0

2.069908887801134e6 1.0399874832272941e7 0.0
1.0399874832272941e7 -1.2975693142689886e7 0.0
0.0 0.0 0.0

3.8287092471605055e6 3.7068784628486256e6 0.0
3.7068784628486256e6 -2.6392075518707052e7 0.0
0.0 0.0 0.0

1.2226390282693421e6 1.7628674503215067e7 0.0
1.7628674503215067e7 2.2820264990535792e7 0.0
0.0 0.0 0.0

-902058.6741516301 1.787281384400338e7 0.0
1.787281384400338e7 2.5023110661266044e7 0.0
0.0 0.0 0.0

-652723.1956307995 1.6359144599690638e7 0.0
1.6359144599690638e7 -7.614646521831126e6 0.0
0.0 0.0 0.0

-3.8375399639868997e6 2.2330341364620224e7 0.0
2.2330341364620224e7 9.788928153769622e6 0.0
0.0 0.0 0.0

-700598.8269099563 3.144898478370853e7 0.0
3.144898478370853e7 -1.0163576345314417e6 0.0
0.0 0.0 0.0

204405.8422098728 1.826255765144541e7 0.0
1.826255765144541e7 -1.2202864345088314e7 0.0
0.0 0.0 0.0

-9.282854912140485e6 -1.8599536206783054e6 0.0
-1.8599536206783054e6 1.8956460149835244e7 0.0
0.0 0.0 0.0

862525.9421203947 1.3503459021397192e7 0.0
1.3503459021397192e7 -2.4175098655130245e7 0.0
0.0 0.0 0.0

-3.99530278696141e6 2.0044763809382774e7 0.0
2.0044763809382774e7 1.1920390429732852e7 0.0
0.0 0.0 0.0

-1.1154385584853897e7 1.3670754765826976e7 0.0
1.3670754765826976e7 2.2331477808755144e7 0.0
0.0 0.0 0.0

2.6471541626529517e6 1.504778542138425e7 0.0
1.504778542138425e7 9.868731225821817e6 0.0
0.0 0.0 0.0

1.892929681660464e6 9.354425049289448e6 0.0
9.354425049289448e6 -3.2615943356543057e7 0.0
0.0 0.0 0.0

1.6214162200867422e6 1.1531404509841476e7 0.0
1.1531404509841476e7 -2.630901744479774e7 0.0
0.0 0.0 0.0

5.635552610601787e6 3.3335065194231946e7 0.0
3.3335065194231946e7 -5.162158096066851e6 0.0
0.0 0.0 0.0

-2.744799645616663e6 2.2195519901091956e7 0.0
2.2195519901091956e7 3.080009993001566e6 0.0
0.0 0.0 0.0

-2.998022153385083e6 2.3210657762478035e7 0.0
2.3210657762478035e7 4.971441347602169e6 0.0
0.0 0.0 0.0

-2.26528587998874e6 2.32691597001766e7 0.0
2.32691597001766e7 -1.9983621756509272e6 0.0
0.0 0.0 0.0

4.0923582891894532e6 4.342466352506419e6 0.0
4.342466352506419e6 -1.588268030512688e7 0.0
0.0 0.0 0.0

-1.4930790186299635e6 1.5325328037871717e7 0.0
1.5325328037871717e7 -6.984370400229672e6 0.0
0.0 0.0 0.0

-3.8667546536572888e6 1.9906356189853076e7 0.0
1.9906356189853076e7 1.1186169785245484e7 0.0
0.0 0.0 0.0

256476.90321126068 2.0305593874477148e7 0.0
2.0305593874477148e7 -9.78078421345222e6 0.0
0.0 0.0 0.0

-673943.2475442183 3.0649453551997352e7 0.0
3.0649453551997352e7 -851372.582031711 0.0
0.0 0.0 0.0

-6.113711576009192e6 8.2673457267568875e6 0.0
8.2673457267568875e6 1.0509347399486437e7 0.0
0.0 0.0 0.0

-1.2594157613349825e7 9.096566248024268e6 0.0
9.096566248024268e6 2.3494782400775436e7 0.0
0.0 0.0 0.0

-750818.3547086719 2.9999724650894146e7 0.0
2.9999724650894146e7 -706147.1571401097 0.0
0.0 0.0 0.0

-853473.5929701142 2.0946293316239536e7 0.0
2.0946293316239536e7 -8.036548228725847e6 0.0
0.0 0.0 0.0

1.8419040282621244e6 1.051401708957341e7 0.0
1.051401708957341e7 -1.686595538434517e7 0.0
0.0 0.0 0.0

-5.248119346509899e6 1.607393706803881e7 0.0
1.607393706803881e7 1.2271824946946025e7 0.0
0.0 0.0 0.0

1.9942994597635996e6 8.687038261443904e6 0.0
8.687038261443904e6 -3.4147476789990105e7 0.0
0.0 0.0 0.0

-1.5796327151809915e6 2.663074973391515e7 0.0
2.663074973391515e7 747363.0552018612 0.0
0.0 0.0 0.0

-3.7015483503558864e6 2.0315504343489163e7 0.0
2.0315504343489163e7 9.125683793146688e6 0.0
0.0 0.0 0.0

415013.8837118391 1.2627952935801879e7 0.0
1.2627952935801879e7 -2.988147328480394e7 0.0
0.0 0.0 0.0

-3.672202349894066e6 2.3704050673584644e7 0.0
2.3704050673584644e7 5.271315436358466e6 0.0
0.0 0.0 0.0

-1.2353124032053253e7 8.830737309245177e6 0.0
8.830737309245177e6 2.5107136002869073e7 0.0
0.0 0.0 0.0

1.572268092077692e6 1.0234515494680319e7 0.0
1.0234515494680319e7 -1.4611415610827172e7 0.0
0.0 0.0 0.0

865254.6983152553 1.9200309753921412e7 0.0
1.9200309753921412e7 9.42419374657019e6 0.0
0.0 0.0 0.0

-3.164074072877665e6 2.1634560132188037e7 0.0
2.1634560132188037e7 6.949861292788679e6 0.0
0.0 0.0 0.0

-210773.6179327611 1.3444380024537388e7 0.0
1.3444380024537388e7 -2.947949869067838e7 0.0
0.0 0.0 0.0

-4.479760548564329e6 4.598423118218329e7 0.0
4.598423118218329e7 -8.144708161059832e6 0.0
0.0 0.0 0.0

-9.808231170232588e6 1.6139010151621213e7 0.0
1.6139010151621213e7 1.9857140175233174e7 0.0
0.0 0.0 0.0

-9.024791637164412e6 1.684670986243802e7 0.0
1.684670986243802e7 -4.668242383101365e7 0.0
0.0 0.0 0.0

-4.6881807168333465e6 9.123438075376425e6 0.0
9.123438075376425e6 7.211128619896273e6 0.0
0.0 0.0 0.0

-5.016331741322238e6 1.856542297064839e7 0.0
1.856542297064839e7 1.0313263989031322e7 0.0
0.0 0.0 0.0

-6.249251658664741e6 1.7218496287770696e7 0.0
1.7218496287770696e7 2.5901684018709667e7 0.0
0.0 0.0 0.0

-5.823463860849501e6 1.4957604434705682e7 0.0
1.4957604434705682e7 1.2792644018251231e7 0.0
0.0 0.0 0.0

-2.1745148782579713e6 1.5723824938210495e7 0.0
1.5723824938210495e7 4.95076763196967e7 0.0
0.0 0.0 0.0

-3.9343178721796237e6 1.862488976818775e7 0.0
1.862488976818775e7 9.86071023401167e6 0.0
0.0 0.0 0.0

-845939.3821914885 1.6379246695069188e7 0.0
1.6379246695069188e7 -2.026798157770803e7 0.0
0.0 0.0 0.0

322147.6859748773 1.8691167614002172e7 0.0
1.8691167614002172e7 -1.2778634485788977e7 0.0
0.0 0.0 0.0

1.2833542118728346e8 2.2850741747805543e7 0.0
2.2850741747805543e7 1.1469173227682892e7 0.0
0.0 0.0 0.0

-9.034233863446837e6 -4.1665905307245725e6 0.0
-4.1665905307245725e6 3.083294661695975e7 0.0
0.0 0.0 0.0

4.274751082999239e6 2.114795358815109e6 0.0
2.114795358815109e6 -3.006012199290832e7 0.0
0.0 0.0 0.0

-7.520319564034627e6 1.2593052183068742e6 0.0
1.2593052183068742e6 9.321702225071969e6 0.0
0.0 0.0 0.0

-2.1097146106965677e6 2.2759074968747288e7 0.0
2.2759074968747288e7 -2.870694932842868e6 0.0
0.0 0.0 0.0

-8.510311992242306e6 -2.8802175638959617e6 0.0
-2.8802175638959617e6 3.98266157029395e7 0.0
0.0 0.0 0.0

-5.866395367618382e6 1.57120239305203e7 0.0
1.57120239305203e7 -2.8019825778816257e7 0.0
0.0 0.0 0.0

-1.1722359959064107e7 1.2023668851663986e7 0.0
1.2023668851663986e7 2.2717876647146743e7 0.0
0.0 0.0 0.0

-8.269263341345272e6 1.708967691938971e7 0.0
1.708967691938971e7 1.7561825927454077e7 0.0
0.0 0.0 0.0

4.0637733692420498e6 1.993662648730572e6 0.0
1.993662648730572e6 -3.386614046483472e7 0.0
0.0 0.0 0.0

720827.8236395177 1.6349618801540026e7 0.0
1.6349618801540026e7 -1.3615792817658696e7 0.0
0.0 0.0 0.0

-795816.3509113294 3.2403405042224944e7 0.0
3.2403405042224944e7 -890223.7048095007 0.0
0.0 0.0 0.0

1.1940305721132103e6 1.0846146446195701e7 0.0
1.0846146446195701e7 -1.369339539646023e7 0.0
0.0 0.0 0.0

-2.586235932504429e6 1.9715526505220708e7 0.0
1.9715526505220708e7 -3.3823073536130213e6 0.0
0.0 0.0 0.0

-1.337087072800301e6 8.000861061946657e6 0.0
8.000861061946657e6 8.981400357632244e7 0.0
0.0 0.0 0.0

-1.6094979755712524e6 7.909699453969032e6 0.0
7.909699453969032e6 -8.018808722992831e7 0.0
0.0 0.0 0.0

-4.666892381614216e6 1.5833016324770655e7 0.0
1.5833016324770655e7 -6.6771449680860005e7 0.0
0.0 0.0 0.0

1.3019436956289792e6 1.4801480280161912e7 0.0
1.4801480280161912e7 -1.668600384542191e7 0.0
0.0 0.0 0.0

3.0809935533816814e6 6.7358659426055495e6 0.0
6.7358659426055495e6 -3.666393952941072e7 0.0
0.0 0.0 0.0

-2.1719630259294562e7 2.5839357196799573e7 0.0
2.5839357196799573e7 3.525002592126664e6 0.0
0.0 0.0 0.0

109431.4375158851 1.9774481591402955e7 0.0
1.9774481591402955e7 -1.0804018018208405e7 0.0
0.0 0.0 0.0

-8.916551875386897e6 -4.030350932882999e6 0.0
-4.030350932882999e6 3.189087111097453e7 0.0
0.0 0.0 0.0

-7.561873604937111e6 1.0695076608488452e7 0.0
1.0695076608488452e7 1.2163512664812166e7 0.0
0.0 0.0 0.0

-2.855294766445154e6 2.3619429566915788e7 0.0
2.3619429566915788e7 4.0960759639652e6 0.0
0.0 0.0 0.0

-4.459550906834706e6 2.041525460265105e7 0.0
2.041525460265105e7 1.027966832877302e7 0.0
0.0 0.0 0.0

-8.890778593393844e6 1.3619912256688429e7 0.0
1.3619912256688429e7 1.3734168635531727e7 0.0
0.0 0.0 0.0

-7.37538369409056e6 6.63865931917963e6 0.0
6.63865931917963e6 1.2538056287699368e7 0.0
0.0 0.0 0.0

5.453380316874628e6 1.8595444676172424e7 0.0
1.8595444676172424e7 3.648410905454127e6 0.0
0.0 0.0 0.0

-1.0248207335771355e6 2.1576810501645144e7 0.0
2.1576810501645144e7 -7.108790558260214e6 0.0
0.0 0.0 0.0

-2.2032838097021724e6 6.159295227240863e6 0.0
6.159295227240863e6 -928173.9238955688 0.0
0.0 0.0 0.0

-834475.3434636849 2.4612844638928086e7 0.0
2.4612844638928086e7 -2.237827796233794e6 0.0
0.0 0.0 0.0

-1.1252565699865282e7 1.5022740737187885e7 0.0
1.5022740737187885e7 2.1417343351451643e7 0.0
0.0 0.0 0.0

-5.036879933579189e6 1.574871549472062e7 0.0
1.574871549472062e7 1.1118365248177389e7 0.0
0.0 0.0 0.0

-8.830811931083439e6 -3.800250632393229e6 0.0
-3.800250632393229e6 3.29725929725105e7 0.0
0.0 0.0 0.0

4.1296078088859636e6 2.0756168319006814e6 0.0
2.0756168319006814e6 -3.193049747080767e7 0.0
0.0 0.0 0.0

2.9032380340966787e6 6.984279185522433e6 0.0
6.984279185522433e6 -3.9062810065873e7 0.0
0.0 0.0 0.0

-1.2648159719990665e7 1.0916739930361075e7 0.0
1.0916739930361075e7 2.1161778091055132e7 0.0
0.0 0.0 0.0

454572.2076818533 4.968470121258104e6 0.0
4.968470121258104e6 -6.901636713300814e7 0.0
0.0 0.0 0.0

-7.268759244289726e6 -1.1201772959448397e6 0.0
-1.1201772959448397e6 5.315650753939967e7 0.0
0.0 0.0 0.0

2.0868252484287992e6 9.931879151025366e6 0.0
9.931879151025366e6 -1.7852051113690488e7 0.0
0.0 0.0 0.0

3.226150724312108e6 8.657981778285861e6 0.0
8.657981778285861e6 -1.970947945360966e7 0.0
0.0 0.0 0.0

3.4999164109492283e6 2.9845228959172163e7 0.0
2.9845228959172163e7 -2.471023128085425e6 0.0
0.0 0.0 0.0

-6.2502817663782975e6 2.726007621613163e7 0.0
2.726007621613163e7 5.711242272792919e6 0.0
0.0 0.0 0.0

-3.3706963739678026e6 2.1166601349550895e7 0.0
2.1166601349550895e7 7.916101685896126e6 0.0
0.0 0.0 0.0

-640356.758126029 2.3609508829852875e7 0.0
2.3609508829852875e7 -3.85986782223675e6 0.0
0.0 0.0 0.0

-1.437500496270415e6 3.0586881083514288e7 0.0
3.0586881083514288e7 1.3545614492951082e6 0.0
0.0 0.0 0.0

-3.3481271606262242e6 2.2417388224603374e7 0.0
2.2417388224603374e7 7.599465809073994e6 0.0
0.0 0.0 0.0

-261725.30918820528 1.787633377951698e7 0.0
1.787633377951698e7 1.0137143230123248e7 0.0
0.0 0.0 0.0

2.0576465766730532e6 2.803777740456929e6 0.0
2.803777740456929e6 -5.747994750007388e7 0.0
0.0 0.0 0.0

3.8887956408450343e6 1.839898980558071e6 0.0
1.839898980558071e6 -3.789916313271777e7 0.0
0.0 0.0 0.0

2.990577187343279e6 2.043280515036463e6 0.0
2.043280515036463e6 -4.9284430608958855e7 0.0
0.0 0.0 0.0

-2.91162537675591e6 2.3733624906981003e7 0.0
2.3733624906981003e7 1.236478396805041e6 0.0
0.0 0.0 0.0

-6.295699666947687e6 9.827811810608499e6 0.0
9.827811810608499e6 6.072189307478009e6 0.0
0.0 0.0 0.0

-8.270429899469914e6 -2.6911482758372994e6 0.0
-2.6911482758372994e6 4.099013487273594e7 0.0
0.0 0.0 0.0

-1.2517592692646304e7 1.1167789132942446e7 0.0
1.1167789132942446e7 1.985728646761439e7 0.0
0.0 0.0 0.0

4.229235911033017e6 3.8122015541567174e6 0.0
3.8122015541567174e6 -2.078692975557325e7 0.0
0.0 0.0 0.0

-1.3017282027185434e7 2.5465966505630024e7 0.0
2.5465966505630024e7 5.228935013266825e6 0.0
0.0 0.0 0.0

-5.706187374941374e6 1.6357784840050537e7 0.0
1.6357784840050537e7 -2.4055236066409636e7 0.0
0.0 0.0 0.0

-9.108279338571621e6 -5.11457819710315e6 0.0
-5.11457819710315e6 2.609419145674985e7 0.0
0.0 0.0 0.0

-1.1792510137759909e7 2.916601595363312e6 0.0
2.916601595363312e6 1.8409599157465883e7 0.0
0.0 0.0 0.0

-1.1796888734823482e7 8.234978379634646e6 0.0
8.234978379634646e6 2.8957597670258217e7 0.0
0.0 0.0 0.0

-4.889233049212196e6 1.906457593828517e7 0.0
1.906457593828517e7 1.7086430713736024e7 0.0
0.0 0.0 0.0

1.636888534605315e6 1.2024606866785292e7 0.0
1.2024606866785292e7 -2.3539078668015394e7 0.0
0.0 0.0 0.0

2.7401681311913095e6 2.421222020317242e6 0.0
2.421222020317242e6 -5.436202652766435e7 0.0
0.0 0.0 0.0

4.25226628848155e6 2.2327626999326395e6 0.0
2.2327626999326395e6 -2.7379331511805337e7 0.0
0.0 0.0 0.0

9.530853262968093e6 3.1734106100506328e7 0.0
3.1734106100506328e7 -6.886103207296076e6 0.0
0.0 0.0 0.0

-7.577117885583989e6 -1.3670075703092113e6 0.0
-1.3670075703092113e6 5.098537296621991e7 0.0
0.0 0.0 0.0

2.8207244160782397e6 8.126071477374926e6 0.0
8.126071477374926e6 -3.3337954170457263e7 0.0
0.0 0.0 0.0

-6.101947650968783e6 1.7612208677078004e6 0.0
1.7612208677078004e6 6.855291368959124e7 0.0
0.0 0.0 0.0

1.7731995556106418e6 3.5077584956779405e6 0.0
3.5077584956779405e6 -6.207329985075807e7 0.0
0.0 0.0 0.0

-3.81181683073916e6 2.361107277848193e7 0.0
2.361107277848193e7 7.800704697271843e6 0.0
0.0 0.0 0.0

-1.0225491503813753e6 1.184181064048384e7 0.0
1.184181064048384e7 -6.625733432176002e6 0.0
0.0 0.0 0.0

-689842.3536432851 1.7156348423390176e7 0.0
1.7156348423390176e7 -1.1002063312107252e7 0.0
0.0 0.0 0.0

390996.5091332365 1.5981539834494928e7 0.0
1.5981539834494928e7 -1.794823702124574e7 0.0
0.0 0.0 0.0

-6.9160680986333825e6 -758327.7260677132 0.0
-758327.7260677132 5.588850143716478e7 0.0
0.0 0.0 0.0

2.7660675098539256e6 2.2534312680156943e6 0.0
2.2534312680156943e6 -5.161858991085116e7 0.0
0.0 0.0 0.0

-1.0449827820614494e7 1.5850820453082021e7 0.0
1.5850820453082021e7 2.203148979040678e7 0.0
0.0 0.0 0.0

-1.1543286074847728e7 1.4402411927948246e7 0.0
1.4402411927948246e7 2.0944508203733597e7 0.0
0.0 0.0 0.0

-1.222723192220587e7 9.891200948323805e6 0.0
9.891200948323805e6 2.566157226175028e7 0.0
0.0 0.0 0.0

-6.890854913820111e6 1.4144875726586187e7 0.0
1.4144875726586187e7 1.4575772256840346e7 0.0
0.0 0.0 0.0

2.258061707185478e6 1.808145388650202e7 0.0
1.808145388650202e7 3.0431064072083578e7 0.0
0.0 0.0 0.0

-224646.64383592177 2.2066853512105916e7 0.0
2.2066853512105916e7 -6.335444586076509e6 0.0
0.0 0.0 0.0

-2.6728356099246414e6 2.5132592092871618e7 0.0
2.5132592092871618e7 755990.9165267042 0.0
0.0 0.0 0.0

-568710.8270479802 2.325038541092266e7 0.0
2.325038541092266e7 -5.286272909918113e6 0.0
0.0 0.0 0.0

2.769153183219948e6 9.948869825252831e6 0.0
9.948869825252831e6 -1.7787011226677645e7 0.0
0.0 0.0 0.0

-3.8256336784126814e6 2.5909293396391023e7 0.0
2.5909293396391023e7 5.202248436687524e6 0.0
0.0 0.0 0.0

-1.4737521300220634e6 1.8836354072527144e7 0.0
1.8836354072527144e7 -4.827105408392686e6 0.0
0.0 0.0 0.0

1.6983960406020107e6 1.3818069144482683e7 0.0
1.3818069144482683e7 -1.872039169627543e7 0.0
0.0 0.0 0.0

-1.0547219119831989e7 1.4151093777263906e7 0.0
1.4151093777263906e7 2.6777673304613553e7 0.0
0.0 0.0 0.0

-1.2440536310825473e7 1.1743364673431365e7 0.0
1.1743364673431365e7 2.1836183827181634e7 0.0
0.0 0.0 0.0

2.507949454644476e6 9.137091613667114e6 0.0
9.137091613667114e6 -2.0462133229814604e7 0.0
0.0 0.0 0.0

-8.7381916359195e6 -3.3744872744490537e6 0.0
-3.3744872744490537e6 3.6293359017824255e7 0.0
0.0 0.0 0.0

3.981468847855104e6 1.9867921369935141e6 0.0
1.9867921369935141e6 -3.4839335984954044e7 0.0
0.0 0.0 0.0

-1.4766106910811383e6 1.816760170401436e7 0.0
1.816760170401436e7 1.945198179524549e7 0.0
0.0 0.0 0.0

-7.684662486239526e6 -1.6141975350582981e6 0.0
-1.6141975350582981e6 4.8934161250789054e7 0.0
0.0 0.0 0.0

3.2126147432086505e6 1.9669884029427723e6 0.0
1.9669884029427723e6 -4.563593590196649e7 0.0
0.0 0.0 0.0

3.8911893252354246e6 2.0095595690628255e6 0.0
2.0095595690628255e6 -3.5797035170067325e7 0.0
0.0 0.0 0.0

-8.615277195502028e6 -3.1738112884362154e6 0.0
-3.1738112884362154e6 3.73925973562171e7 0.0
0.0 0.0 0.0

-5.482211440587886e6 1.605576565159834e7 0.0
1.605576565159834e7 3.311635011041589e7 0.0
0.0 0.0 0.0

3.42901461388145e6 1.9016118297470214e6 0.0
1.9016118297470214e6 -4.419870172493802e7 0.0
0.0 0.0 0.0

-7.799727518585576e6 -1.932921804250014e6 0.0
-1.932921804250014e6 4.69749167667883e7 0.0
0.0 0.0 0.0

-4.913416887165249e6 1.8890598909439176e7 0.0
1.8890598909439176e7 1.9059798863928083e7 0.0
0.0 0.0 0.0

-9.560998935456615e6 -1.164171732673834e6 0.0
-1.164171732673834e6 3.290518721606676e7 0.0
0.0 0.0 0.0

-8.577048859398535e6 -2.981390502613409e6 0.0
-2.981390502613409e6 3.8652189197698735e7 0.0
0.0 0.0 0.0

4.0203932360653654e6 1.961369346499742e6 0.0
1.961369346499742e6 -3.69159584937352e7 0.0
0.0 0.0 0.0

3.510323813169148e6 1.9318781253957031e6 0.0
1.9318781253957031e6 -4.278712500478844e7 0.0
0.0 0.0 0.0

-7.974811908867549e6 -2.202791452031076e6 0.0
-2.202791452031076e6 4.528462012628044e7 0.0
0.0 0.0 0.0

-2.4340591046229732e8 5.48453344342799e7 0.0
5.48453344342799e7 -2.755646989384442e7 0.0
0.0 0.0 0.0

2.1688023363673773e8 4.256377454400692e7 0.0
4.256377454400692e7 1.855973549019289e7 0.0
0.0 0.0 0.0

-9.120625156238157e6 1.4102070850867452e7 0.0
1.4102070850867452e7 1.4859154818644464e7 0.0
0.0 0.0 0.0

3.4659343896454647e6 1.8647765865772883e6 0.0
1.8647765865772883e6 -4.141832473933561e7 0.0
0.0 0.0 0.0

-8.20750666838973e6 -2.3459546912033134e6 0.0
-2.3459546912033134e6 4.390437962839955e7 0.0
0.0 0.0 0.0

220290.98605355946 1.6857075047137488e7 0.0
1.6857075047137488e7 -1.5580987089623406e6 0.0
0.0 0.0 0.0

-1.2190694420637887e7 1.28298268754746e7 0.0
1.28298268754746e7 2.1122215280920774e7 0.0
0.0 0.0 0.0

-2.672731173557911e6 2.4006821903866038e7 0.0
2.4006821903866038e7 3.3096970039218017e6 0.0
0.0 0.0 0.0

-721440.8738147225 1.866321499712156e7 0.0
1.866321499712156e7 2.0175618193569575e7 0.0
0.0 0.0 0.0

-8.280591715013957e6 -2.4650651463360144e6 0.0
-2.4650651463360144e6 4.2469621182441905e7 0.0
0.0 0.0 0.0

3.6797719321314096e6 1.7727098922209733e6 0.0
1.7727098922209733e6 -4.031362632284851e7 0.0
0.0 0.0 0.0

-1.0955580463814712e6 2.2168572365505178e7 0.0
2.2168572365505178e7 -6.192576714194874e6 0.0
0.0 0.0 0.0

-6.552143929731144e6 1.6372726207008168e7 0.0
1.6372726207008168e7 -4.824376261181095e7 0.0
0.0 0.0 0.0

-1.693103008477047e6 2.4684538808878634e7 0.0
2.4684538808878634e7 -2.0083630968230702e6 0.0
0.0 0.0 0.0

1.1500430199958999e6 1.5317453936306147e7 0.0
1.5317453936306147e7 -1.565044943207425e7 0.0
0.0 0.0 0.0

754806.7253945721 1.4364914046174636e7 0.0
1.4364914046174636e7 -2.1554330372896694e7 0.0
0.0 0.0 0.0

-484811.229320636 1.7833020279513195e7 0.0
1.7833020279513195e7 5.82021401865697e6 0.0
0.0 0.0 0.0

719520.5802073623 2.2066434823412657e7 0.0
2.2066434823412657e7 -7.585560251532612e6 0.0
0.0 0.0 0.0

210640.2775526573 2.0287876816691477e7 0.0
2.0287876816691477e7 -9.639730881097665e6 0.0
0.0 0.0 0.0

-4.368486359387772e6 1.5254611333794335e7 0.0
1.5254611333794335e7 -3.733130888684565e7 0.0
0.0 0.0 0.0

-2.0896841263145832e6 2.4881212244391765e7 0.0
2.4881212244391765e7 1.141969386266997e6 0.0
0.0 0.0 0.0

-3.8983323780213543e6 2.080808400602899e7 0.0
2.080808400602899e7 8.58810930374358e6 0.0
0.0 0.0 0.0

-5.90969758271037e6 2.1893144282318458e7 0.0
2.1893144282318458e7 -9.386332344114404e6 0.0
0.0 0.0 0.0

475010.8033857886 1.4764736944886768e7 0.0
1.4764736944886768e7 -2.1552407952012118e7 0.0
0.0 0.0 0.0

-1.2157393607930448e7 1.1465848259009007e7 0.0
1.1465848259009007e7 1.840220877504877e7 0.0
0.0 0.0 0.0

1.746469768799288e6 1.6958131173454586e7 0.0
1.6958131173454586e7 9.911932101161039e6 0.0
0.0 0.0 0.0

-1.1415369784195649e7 1.3073805918043636e7 0.0
1.3073805918043636e7 1.830718633871515e7 0.0
0.0 0.0 0.0

-2.1000121885510692e6 1.739247639809394e7 0.0
1.739247639809394e7 -2.3817501155646304e6 0.0
0.0 0.0 0.0

-2.2819156466792063e6 2.4653640676181458e7 0.0
2.4653640676181458e7 1.9164958563076565e6 0.0
0.0 0.0 0.0

-1.32068370634876e6 1.4980952415020738e7 0.0
1.4980952415020738e7 -2.648452369575293e7 0.0
0.0 0.0 0.0

-3.8787299262779923e6 1.8977710819461e7 0.0
1.8977710819461e7 1.846835581194067e7 0.0
0.0 0.0 0.0

-1.5981234925001706e6 3.1320118160217464e7 0.0
3.1320118160217464e7 1.733433923459604e6 0.0
0.0 0.0 0.0

-2.9137026149179237e6 1.774536190353902e7 0.0
1.774536190353902e7 -2.951346567576822e6 0.0
0.0 0.0 0.0

-1.3435473178238121e6 2.3236532740805592e7 0.0
2.3236532740805592e7 -4.437614373908082e6 0.0
0.0 0.0 0.0

1.2699677869112963e7 2.1244282724322107e7 0.0
2.1244282724322107e7 1.0016533610286636e7 0.0
0.0 0.0 0.0

-2.5062028121862207e6 2.4352883980811812e7 0.0
2.4352883980811812e7 2.573108423935271e6 0.0
0.0 0.0 0.0

-8.801516908268487e6 1.4744439288748834e7 0.0
1.4744439288748834e7 2.0524754428497804e6 0.0
0.0 0.0 0.0

-1.9486026034525281e6 2.640761616611672e7 0.0
2.640761616611672e7 1.3239411060988226e6 0.0
0.0 0.0 0.0

4.339112233661174e6 2.502787704614389e6 0.0
2.502787704614389e6 -2.1830079201785013e7 0.0
0.0 0.0 0.0

4.378368536511628e6 2.5702636019828725e6 0.0
2.5702636019828725e6 -2.1055318868121106e7 0.0
0.0 0.0 0.0

-1.1606720279088318e6 2.272894204313798e7 0.0
2.272894204313798e7 -5.157544766482366e6 0.0
0.0 0.0 0.0

-54912.101669797674 1.8300171070729904e7 0.0
1.8300171070729904e7 2.5645828285898652e7 0.0
0.0 0.0 0.0

-1.515349784315359e6 2.7126475700924877e7 0.0
2.7126475700924877e7 887547.6979000705 0.0
0.0 0.0 0.0

-1.2396086760815209e7 1.0169005465974137e7 0.0
1.0169005465974137e7 2.4083089884762548e7 0.0
0.0 0.0 0.0

-1.4155844708410744e6 2.9390481638570502e7 0.0
2.9390481638570502e7 1.209333093282573e6 0.0
0.0 0.0 0.0

-3.366491938934382e6 1.9516527885705102e7 0.0
1.9516527885705102e7 1.1418825205956394e7 0.0
0.0 0.0 0.0

-209202.57396282675 1.610602743556866e7 0.0
1.610602743556866e7 4.272457217962009e6 0.0
0.0 0.0 0.0

2.099997432434231e6 1.177782036609731e7 0.0
1.177782036609731e7 -2.463974692833105e7 0.0
0.0 0.0 0.0

-3.413166729112422e6 2.3918662256427623e7 0.0
2.3918662256427623e7 3.614041864268223e6 0.0
0.0 0.0 0.0

-9.09586699172904e6 -3.977600051256373e6 0.0
-3.977600051256373e6 2.3296417856991105e7 0.0
0.0 0.0 0.0

-5.671009466526438e6 1.5152819139227448e7 0.0
1.5152819139227448e7 3.4786826487132594e7 0.0
0.0 0.0 0.0

-3.7940126473609116e6 1.4858529636130638e7 0.0
1.4858529636130638e7 -4.2120764906009935e7 0.0
0.0 0.0 0.0

-1.1426503386213668e7 1.1189806518748544e7 0.0
1.1189806518748544e7 2.7311820696392875e7 0.0
0.0 0.0 0.0

4.307833794953873e6 2.2669123501619723e7 0.0
2.2669123501619723e7 -5.717147236129407e6 0.0
0.0 0.0 0.0

2.114358802593491e6 1.228377635932507e7 0.0
1.228377635932507e7 -2.1972687673278533e7 0.0
0.0 0.0 0.0

-3.1697930724594486e6 1.7421400122926347e7 0.0
1.7421400122926347e7 -2.047735356753334e6 0.0
0.0 0.0 0.0

-1.5243903420355185e6 2.4249359230047777e7 0.0
2.4249359230047777e7 -2.7851602938160263e6 0.0
0.0 0.0 0.0

-485715.00038367044 1.6336426700359348e7 0.0
1.6336426700359348e7 -5.109792297204673e6 0.0
0.0 0.0 0.0

-1.1848882902163211e7 1.1147373032955833e7 0.0
1.1147373032955833e7 2.213982341103945e7 0.0
0.0 0.0 0.0

-1.103950749372373e7 1.3247444730666174e7 0.0
1.3247444730666174e7 2.6515768405975178e7 0.0
0.0 0.0 0.0

-1.4236265627205637e6 2.3752120239850674e7 0.0
2.3752120239850674e7 -3.614323000380847e6 0.0
0.0 0.0 0.0

-8.190797702824794e6 1.331724086208969e7 0.0
1.331724086208969e7 1.6234844087218722e7 0.0
0.0 0.0 0.0

3.7588890950942487e6 4.436475457704614e6 0.0
4.436475457704614e6 -3.441108740039481e7 0.0
0.0 0.0 0.0

-6.974212125542629e6 1.600428489232496e7 0.0
1.600428489232496e7 1.27472516281588e7 0.0
0.0 0.0 0.0

-1.1794578754766143e6 1.6344058143668024e7 0.0
1.6344058143668024e7 -1.0240837618326869e7 0.0
0.0 0.0 0.0

317426.7570178377 1.710196647036472e7 0.0
1.710196647036472e7 1.11870163351703e6 0.0
0.0 0.0 0.0

-2.905949395234666e6 1.889729692011399e7 0.0
1.889729692011399e7 -1.0939220536260024e7 0.0
0.0 0.0 0.0

-1.8505491024551133e6 1.7234369008851036e7 0.0
1.7234369008851036e7 -6.966897369304493e6 0.0
0.0 0.0 0.0

682301.2080679592 1.48000674960195e7 0.0
1.48000674960195e7 -2.03191454697938e7 0.0
0.0 0.0 0.0

2.8296190915690083e6 7.991774921589164e6 0.0
7.991774921589164e6 -2.5541387188470975e7 0.0
0.0 0.0 0.0

-870635.9122608826 1.6322415361149484e7 0.0
1.6322415361149484e7 -7.704043249586427e6 0.0
0.0 0.0 0.0

2.03278328068477e6 1.0369965391785532e7 0.0
1.0369965391785532e7 -1.8455777631954852e7 0.0
0.0 0.0 0.0

4.0255623978195405e6 4.046939520255535e6 0.0
4.046939520255535e6 -1.7106341981583476e7 0.0
0.0 0.0 0.0

-3.075336343172903e6 2.4625102106286906e7 0.0
2.4625102106286906e7 2.1247283871835982e6 0.0
0.0 0.0 0.0

-916362.301724161 1.227848229036361e7 0.0
1.227848229036361e7 -7.813229096990293e6 0.0
0.0 0.0 0.0

-4.436203915400499e6 1.910924968897495e7 0.0
1.910924968897495e7 1.6550636713239651e7 0.0
0.0 0.0 0.0

-5.023097584506643e6 -6.390035193650425e6 0.0
-6.390035193650425e6 1.2800284313466549e7 0.0
0.0 0.0 0.0

2.990998835020996e6 1.8512018736278694e7 0.0
1.8512018736278694e7 1.493241952027067e6 0.0
0.0 0.0 0.0

-3.9842204278336847e6 1.9299942001730792e7 0.0
1.9299942001730792e7 -1.158385852646929e7 0.0
0.0 0.0 0.0

2.717670019858963e6 8.456324520364275e6 0.0
8.456324520364275e6 -2.1429029508406278e7 0.0
0.0 0.0 0.0

-9.294359513814203e7 1.5324760292820474e7 0.0
1.5324760292820474e7 5.737934118477039e6 0.0
0.0 0.0 0.0

-6.392593616920974e6 1.834085016902249e7 0.0
1.834085016902249e7 1.985100766799179e7 0.0
0.0 0.0 0.0

552676.6236525383 1.7609855963338163e7 0.0
1.7609855963338163e7 -1.3476875764931994e7 0.0
0.0 0.0 0.0

-1.31617940272147e6 1.5839708257632427e7 0.0
1.5839708257632427e7 -8.448320451036721e6 0.0
0.0 0.0 0.0

1.600230329034687e6 1.3307773598831357e7 0.0
1.3307773598831357e7 -2.2474296809910953e7 0.0
0.0 0.0 0.0

515989.338158072 1.7534702461860586e7 0.0
1.7534702461860586e7 1.0214535379228786e7 0.0
0.0 0.0 0.0

1.487645678016102e6 1.2129736876025472e7 0.0
1.2129736876025472e7 -2.7755081297004983e7 0.0
0.0 0.0 0.0

669652.6560314186 1.7841504580249656e7 0.0
1.7841504580249656e7 1.1869891452297729e7 0.0
0.0 0.0 0.0

285224.3413173286 1.6015055824830567e7 0.0
1.6015055824830567e7 -1.4955774999834301e7 0.0
0.0 0.0 0.0

3.3983294139887104e6 8.227783721791331e6 0.0
8.227783721791331e6 -2.2683746367383692e7 0.0
0.0 0.0 0.0

3.417703139791876e6 2.714788530565511e6 0.0
2.714788530565511e6 -3.950630730018927e7 0.0
0.0 0.0 0.0

2.4163618677836824e6 2.416323147763539e7 0.0
2.416323147763539e7 -5.6195746671807645e6 0.0
0.0 0.0 0.0

1.8906576704319362e6 1.1902816250633523e7 0.0
1.1902816250633523e7 -2.62047894116801e7 0.0
0.0 0.0 0.0

-3.9566830990434038e6 2.531716419015332e7 0.0
2.531716419015332e7 5.830843417335149e6 0.0
0.0 0.0 0.0

-6.885081869568445e6 2.0503647095573813e7 0.0
2.0503647095573813e7 1.6902822251326009e6 0.0
0.0 0.0 0.0

2.5336818633551365e6 7.754557733895967e6 0.0
7.754557733895967e6 -1.1001270894221231e7 0.0
0.0 0.0 0.0

-1.9699394882617164e6 3.2104162796030343e7 0.0
3.2104162796030343e7 2.024918163554756e6 0.0
0.0 0.0 0.0

3.094702387531221e6 9.154499488760848e6 0.0
9.154499488760848e6 -2.0282088639141742e7 0.0
0.0 0.0 0.0

-1.5387010979995206e6 1.7046425905699592e7 0.0
1.7046425905699592e7 3.5051353875692084e7 0.0
0.0 0.0 0.0

-656665.7047693429 1.7974553731448974e7 0.0
1.7974553731448974e7 1.5433046744613089e6 0.0
0.0 0.0 0.0

-6.536668018929537e6 2.6411731283375956e7 0.0
2.6411731283375956e7 6.259765322032666e6 0.0
0.0 0.0 0.0

-1.0785748078023685e7 1.235836310550664e7 0.0
1.235836310550664e7 1.9695051435004614e7 0.0
0.0 0.0 0.0

1.33549934228459e6 1.3020897712262103e7 0.0
1.3020897712262103e7 -2.256743807932392e7 0.0
0.0 0.0 0.0

-2.4915858875878947e6 1.060563602795193e7 0.0
1.060563602795193e7 -2.4013905178874433e6 0.0
0.0 0.0 0.0

-1.1397146446437705e6 1.7759623540957853e7 0.0
1.7759623540957853e7 -6.136329543340735e6 0.0
0.0 0.0 0.0

1.0511191409251615e7 1.919361477642209e7 0.0
1.919361477642209e7 1.848531227688284e6 0.0
0.0 0.0 0.0

557126.4557734961 1.7569748142484374e7 0.0
1.7569748142484374e7 -1.4771805294914143e7 0.0
0.0 0.0 0.0

879364.648016023 8.779125744971484e6 0.0
8.779125744971484e6 -6.048950947651161e6 0.0
0.0 0.0 0.0

972498.0775150415 1.3922966687770976e7 0.0
1.3922966687770976e7 -2.1493414737215072e7 0.0
0.0 0.0 0.0

-9.441342020473517e6 -3.037727350322137e6 0.0
-3.037727350322137e6 2.880342731145509e7 0.0
0.0 0.0 0.0

-4.423177781395231e6 1.978574307544652e7 0.0
1.978574307544652e7 1.4717776487651221e7 0.0
0.0 0.0 0.0

-1.1931650297652505e7 1.34837756033033e7 0.0
1.34837756033033e7 2.174819733987254e7 0.0
0.0 0.0 0.0

-1.4115433961770153e7 2.4189332249935277e7 0.0
2.4189332249935277e7 -4.1852852422717377e6 0.0
0.0 0.0 0.0

-3.984958297949494e6 1.5495234949078424e7 0.0
1.5495234949078424e7 -3.584395899577184e7 0.0
0.0 0.0 0.0

-3.4196765753609096e6 2.3023617594382904e7 0.0
2.3023617594382904e7 7.422109128376835e6 0.0
0.0 0.0 0.0

-4.462598519335272e6 2.3980958280257065e7 0.0
2.3980958280257065e7 7.242702720457016e6 0.0
0.0 0.0 0.0

838840.4168413598 2.0435938010890517e7 0.0
2.0435938010890517e7 -9.396163878828678e6 0.0
0.0 0.0 0.0

-2.245768251464788e6 1.4142434871113626e7 0.0
1.4142434871113626e7 -3.720344123545186e7 0.0
0.0 0.0 0.0

-3.9778098801466683e6 1.8761556219289795e7 0.0
1.8761556219289795e7 1.686338922262966e7 0.0
0.0 0.0 0.0

-9.904904193664404e6 4.742164055578537e6 0.0
4.742164055578537e6 3.857411797135726e7 0.0
0.0 0.0 0.0

2.4309649656049404e6 3.076716057706812e6 0.0
3.076716057706812e6 -7.138059350297586e6 0.0
0.0 0.0 0.0

-830542.074421348 1.6056499381158322e7 0.0
1.6056499381158322e7 -1.97552842770312e7 0.0
0.0 0.0 0.0

635132.6440669242 2.1384660296933807e7 0.0
2.1384660296933807e7 -8.386428429631452e6 0.0
0.0 0.0 0.0

-2.171098758607383e6 1.8266251386904836e7 0.0
1.8266251386904836e7 -2.1176653677916005e6 0.0
0.0 0.0 0.0

-508265.0542391329 1.4752661351488885e7 0.0
1.4752661351488885e7 -1.0640019902795285e7 0.0
0.0 0.0 0.0

-6.854019770365404e6 1.6298487284217177e7 0.0
1.6298487284217177e7 -2.872349111881736e7 0.0
0.0 0.0 0.0

-1.185632740769925e7 1.2158682232532313e7 0.0
1.2158682232532313e7 2.510219511939883e7 0.0
0.0 0.0 0.0

-684102.8172952204 2.6907945766526952e7 0.0
2.6907945766526952e7 -422368.5972134044 0.0
0.0 0.0 0.0

-2.0503985016893897e7 2.4174353351153694e7 0.0
2.4174353351153694e7 521186.8890267927 0.0
0.0 0.0 0.0

3.288668158104451e6 1.9028846713135052e7 0.0
1.9028846713135052e7 1.7191888175783576e6 0.0
0.0 0.0 0.0

1.9785554166062018e6 7.605779669632547e6 0.0
7.605779669632547e6 -1.2780681346898174e7 0.0
0.0 0.0 0.0

-2.387275364167485e6 1.7926903594904e7 0.0
1.7926903594904e7 -1.2374848757218486e6 0.0
0.0 0.0 0.0

-1.107834991487038e7 9.552873427891321e6 0.0
9.552873427891321e6 3.0517236243403208e7 0.0
0.0 0.0 0.0

-4.911143594439786e6 2.6877289720832195e7 0.0
2.6877289720832195e7 5.209347356812537e6 0.0
0.0 0.0 0.0

-4.648392432713788e6 1.8803206939525004e7 0.0
1.8803206939525004e7 1.7659549891703483e7 0.0
0.0 0.0 0.0

-2.369450477285373e6 2.531758853269493e7 0.0
2.531758853269493e7 117721.76885138731 0.0
0.0 0.0 0.0

510701.83542656247 1.5518447645004686e7 0.0
1.5518447645004686e7 -1.5962115556274243e7 0.0
0.0 0.0 0.0

-1.084767464268654e7 1.1451007340745194e7 0.0
1.1451007340745194e7 2.970115342733189e7 0.0
0.0 0.0 0.0

173464.0127247488 1.628110633918005e7 0.0
1.628110633918005e7 -1.7847294912336804e7 0.0
0.0 0.0 0.0

-5.27659583211089e6 2.013116259789587e7 0.0
2.013116259789587e7 -3.4950140591659416e6 0.0
0.0 0.0 0.0

-705327.9278152548 2.733693072069389e7 0.0
2.733693072069389e7 -491624.08615718724 0.0
0.0 0.0 0.0

3.5579121759645855e6 5.002330661166995e6 0.0
5.002330661166995e6 -1.809508797620971e7 0.0
0.0 0.0 0.0

1.2276726122766552e6 1.9939056253032498e7 0.0
1.9939056253032498e7 -8.528864327079883e6 0.0
0.0 0.0 0.0

-3.2368234293996342e6 2.292663181649499e7 0.0
2.292663181649499e7 6.646175829741963e6 0.0
0.0 0.0 0.0

-1.1502078677293759e7 1.144228802837505e7 0.0
1.144228802837505e7 2.064639948060097e7 0.0
0.0 0.0 0.0

-4.402289007100842e6 2.122608255996352e7 0.0
2.122608255996352e7 -8.417352083705176e6 0.0
0.0 0.0 0.0

-1.1206572712897016e7 1.4160808150930498e7 0.0
1.4160808150930498e7 2.4435461358590927e7 0.0
0.0 0.0 0.0

-2.354675602589173e6 5.72376732399759e6 0.0
5.72376732399759e6 5.783205825429583e6 0.0
0.0 0.0 0.0

-3.202430243647059e6 2.2308216227624744e7 0.0
2.2308216227624744e7 6.747259506536826e6 0.0
0.0 0.0 0.0

-1.262343276131508e7 1.0545475017132359e7 0.0
1.0545475017132359e7 2.2581098534795746e7 0.0
0.0 0.0 0.0

-5.082537546696529e6 1.8819046620930053e7 0.0
1.8819046620930053e7 1.1263534884500613e7 0.0
0.0 0.0 0.0

2.8348349831823027e6 1.7761097601871114e7 0.0
1.7761097601871114e7 2.5932245986328643e7 0.0
0.0 0.0 0.0

-1.3527501513990816e6 1.4014501668629833e7 0.0
1.4014501668629833e7 -3.2898246097950764e7 0.0
0.0 0.0 0.0

-4.714900585965412e6 -6.271628975257829e6 0.0
-6.271628975257829e6 1.1803247008244503e7 0.0
0.0 0.0 0.0

5.915665879345923e6 2.4086131677359406e7 0.0
2.4086131677359406e7 -5.150448956223584e6 0.0
0.0 0.0 0.0

-1.1600762127806017e7 1.0172504033691185e7 0.0
1.0172504033691185e7 2.6833776932283267e7 0.0
0.0 0.0 0.0

546801.6471367525 1.2808789135066157e7 0.0
1.2808789135066157e7 -1.3046719723134e7 0.0
0.0 0.0 0.0

-3.3397739866427127e6 1.8786039475686878e7 0.0
1.8786039475686878e7 1.461540738202382e7 0.0
0.0 0.0 0.0

-1.0018827975365822e6 1.6923771523507692e7 0.0
1.6923771523507692e7 -6.480307654779786e6 0.0
0.0 0.0 0.0

-5.620744721348365e6 1.937407237620107e7 0.0
1.937407237620107e7 1.6136015554625954e7 0.0
0.0 0.0 0.0

142071.79048486566 1.0761852075392505e7 0.0
1.0761852075392505e7 -7.3515490598419225e6 0.0
0.0 0.0 0.0

-5.858534752972061e6 2.2045056249309614e7 0.0
2.2045056249309614e7 6.567650727943173e6 0.0
0.0 0.0 0.0

-5.071655608625551e6 1.9001293314022034e7 0.0
1.9001293314022034e7 1.2115205563791946e7 0.0
0.0 0.0 0.0

874399.7159090438 1.9765663415475212e7 0.0
1.9765663415475212e7 -9.719664868083512e6 0.0
0.0 0.0 0.0

-3.6282197967077415e6 2.3097284756009337e7 0.0
2.3097284756009337e7 5.320052792755222e6 0.0
0.0 0.0 0.0

-1.4181236474398163e6 2.7659707134071507e7 0.0
2.7659707134071507e7 1.0165643100064793e6 0.0
0.0 0.0 0.0

-969102.2399375159 1.4083525713039977e7 0.0
1.4083525713039977e7 -2.8708191464117758e7 0.0
0.0 0.0 0.0

1.314440014032621e6 2.9090641207121364e6 0.0
2.9090641207121364e6 -2.641330034391775e6 0.0
0.0 0.0 0.0

-6.6485966030003e6 1.2838407773135828e6 0.0
1.2838407773135828e6 7.455461001902479e6 0.0
0.0 0.0 0.0

2.7901699429517165e6 4.1071954261505613e6 0.0
4.1071954261505613e6 -4.903348183283029e7 0.0
0.0 0.0 0.0

-688564.1539397002 2.1305714221760433e7 0.0
2.1305714221760433e7 -6.280475922812662e6 0.0
0.0 0.0 0.0

-5.245888385784969e6 1.873610919426264e7 0.0
1.873610919426264e7 1.825067897652525e7 0.0
0.0 0.0 0.0

-1.2384683657052105e7 1.2004057233790377e7 0.0
1.2004057233790377e7 2.049162664885156e7 0.0
0.0 0.0 0.0

-2.468282380877199e6 3.2985311836638574e7 0.0
3.2985311836638574e7 2.2633788788589523e6 0.0
0.0 0.0 0.0

-1.2060127189798608e7 8.42950646079181e6 0.0
8.42950646079181e6 2.687665661182556e7 0.0
0.0 0.0 0.0

3.1334509842688978e7 5.633344332788458e7 0.0
5.633344332788458e7 -7.055278183031525e6 0.0
0.0 0.0 0.0

-181260.8808976817 1.9294369208377775e7 0.0
1.9294369208377775e7 -1.1187842097576287e7 0.0
0.0 0.0 0.0

1.4908174696023567e6 1.429931701717073e7 0.0
1.429931701717073e7 -1.767626271998434e7 0.0
0.0 0.0 0.0

-4.329301714829682e6 1.941535904252867e7 0.0
1.941535904252867e7 1.527352458162076e7 0.0
0.0 0.0 0.0

-1.1574395540172819e7 1.081473992131734e7 0.0
1.081473992131734e7 2.797972429951471e7 0.0
0.0 0.0 0.0

-100901.61279485608 2.0814705937235024e7 0.0
2.0814705937235024e7 -8.261932874999341e6 0.0
0.0 0.0 0.0

378542.4016150627 1.743960073418974e7 0.0
1.743960073418974e7 3.728610742792219e6 0.0
0.0 0.0 0.0

3.817415416190358e6 2.8727649986428088e6 0.0
2.8727649986428088e6 -3.141737818700153e7 0.0
0.0 0.0 0.0

-8.152635556310586e6 7.429240472692609e6 0.0
7.429240472692609e6 1.3830285307485139e7 0.0
0.0 0.0 0.0

-3.8089803455457464e6 3.545180944619962e7 0.0
3.545180944619962e7 3.293714679073983e6 0.0
0.0 0.0 0.0

-6.105476933250278e6 1.8678562860625166e7 0.0
1.8678562860625166e7 1.9618137373200648e7 0.0
0.0 0.0 0.0

-1.339983041811218e6 1.6455975875929382e7 0.0
1.6455975875929382e7 -1.6469201874988541e7 0.0
0.0 0.0 0.0

5.402807665260071e6 1.899984368225019e7 0.0
1.899984368225019e7 6.090296555464612e6 0.0
0.0 0.0 0.0

-9.37034248130682e6 2.9604925055102343e6 0.0
2.9604925055102343e6 1.3448384807164785e7 0.0
0.0 0.0 0.0

-5.550079908506017e6 1.0782423872861803e7 0.0
1.0782423872861803e7 4.717879019928206e6 0.0
0.0 0.0 0.0

-1.4428430495537757e6 1.631787987427647e7 0.0
1.631787987427647e7 -1.2711145380512986e7 0.0
0.0 0.0 0.0

162240.53066686774 1.5650339348206118e7 0.0
1.5650339348206118e7 -1.0528846859206302e7 0.0
0.0 0.0 0.0

-7.347846869853968e6 1.7588706065656666e7 0.0
1.7588706065656666e7 1.621097008346771e7 0.0
0.0 0.0 0.0

-1.0895454297355227e6 1.581395544122072e7 0.0
1.581395544122072e7 -2.1080698827217717e7 0.0
0.0 0.0 0.0

1.9902530471507246e6 1.229627222993509e7 0.0
1.229627222993509e7 -2.3423611162315123e7 0.0
0.0 0.0 0.0

-3.625112956263155e6 2.307223409773297e7 0.0
2.307223409773297e7 8.064048825826481e6 0.0
0.0 0.0 0.0

797028.4770635227 1.599224937773115e7 0.0
1.599224937773115e7 -1.8001403383522373e7 0.0
0.0 0.0 0.0

-1.1588627062799674e7 1.2767248926862895e7 0.0
1.2767248926862895e7 2.3235249284192093e7 0.0
0.0 0.0 0.0

3.58086572361245e6 5.259854810040305e6 0.0
5.259854810040305e6 -1.3247247075823858e7 0.0
0.0 0.0 0.0

-2.7324952509546816e7 2.9330122024062514e7 0.0
2.9330122024062514e7 -8.496267181274278e6 0.0
0.0 0.0 0.0

1.5907923737438596e6 7.095484110223561e6 0.0
7.095484110223561e6 -1.0320286782057978e7 0.0
0.0 0.0 0.0

3.8262427233842853e6 2.9826625733672297e6 0.0
2.9826625733672297e6 -1.3066758233838195e7 0.0
0.0 0.0 0.0

-4.730346192942884e6 2.38901959747711e7 0.0
2.38901959747711e7 7.725345132600309e6 0.0
0.0 0.0 0.0

1.737942851169105e6 1.635837171068763e7 0.0
1.635837171068763e7 5.793143359326966e6 0.0
0.0 0.0 0.0

3.529812099243422e6 1.9434314263145734e7 0.0
1.9434314263145734e7 -2.551023463883907e6 0.0
0.0 0.0 0.0

-6.69528403411098e6 1.7326543702207252e7 0.0
1.7326543702207252e7 2.4300384043959405e7 0.0
0.0 0.0 0.0

-3.7934015510448534e6 1.7706776341246575e7 0.0
1.7706776341246575e7 2.5850463804565713e7 0.0
0.0 0.0 0.0

8.686119774105825e6 1.701848826430751e7 0.0
1.701848826430751e7 4.526903477300845e7 0.0
0.0 0.0 0.0

211382.3154882018 1.6937420326190773e7 0.0
1.6937420326190773e7 -3.4117241685835384e6 0.0
0.0 0.0 0.0

-4.801366124678554e6 1.933278130715143e7 0.0
1.933278130715143e7 1.604949957907218e7 0.0
0.0 0.0 0.0

-6.061851481754066e6 1.669263600316257e7 0.0
1.669263600316257e7 1.1172716683191232e7 0.0
0.0 0.0 0.0

-1.6598966169037768e6 1.630094599655949e7 0.0
1.630094599655949e7 -1.5165034027319241e7 0.0
0.0 0.0 0.0

-3.8155958954744604e6 2.3280150594312917e7 0.0
2.3280150594312917e7 6.074547473585216e6 0.0
0.0 0.0 0.0

-1.1958538565356936e7 1.0904764112260526e7 0.0
1.0904764112260526e7 2.6147481020221073e7 0.0
0.0 0.0 0.0

9.620443219855644e6 2.2736044094965756e7 0.0
2.2736044094965756e7 -4.245168112343339e6 0.0
0.0 0.0 0.0

132570.20430362504 1.9712901872368574e7 0.0
1.9712901872368574e7 -1.0199100630005077e7 0.0
0.0 0.0 0.0

3.071044112374562e6 6.829823838055196e6 0.0
6.829823838055196e6 -2.124588502206195e7 0.0
0.0 0.0 0.0

2.9114585821758597e6 2.116204157361706e7 0.0
2.116204157361706e7 -6.600103787438233e6 0.0
0.0 0.0 0.0

-1.4641924636415588e6 2.43098958236854e7 0.0
2.43098958236854e7 -1.0882553849572702e6 0.0
0.0 0.0 0.0

-5.465571958172397e6 1.6872143548923254e7 0.0
1.6872143548923254e7 -1.8218578104618717e7 0.0
0.0 0.0 0.0

7.566781144720242e6 1.896699830522815e7 0.0
1.896699830522815e7 2.5222612566407125e7 0.0
0.0 0.0 0.0

-9.257901690507261e6 -1.1271085641083631e6 0.0
-1.1271085641083631e6 3.760069737218334e7 0.0
0.0 0.0 0.0

764755.3167627493 1.899746507676047e7 0.0
1.899746507676047e7 5.963734821676904e6 0.0
0.0 0.0 0.0

-9.397755402692556e6 -2.6143095629622783e6 0.0
-2.6143095629622783e6 3.069785190065898e7 0.0
0.0 0.0 0.0

-479861.96935794246 2.471493696011506e7 0.0
2.471493696011506e7 -2.7526936192313535e6 0.0
0.0 0.0 0.0

2.2208254247862357e6 2.3326635108789872e7 0.0
2.3326635108789872e7 -6.143721603370706e6 0.0
0.0 0.0 0.0

-3.1451490975216785e6 3.4062141931833304e7 0.0
3.4062141931833304e7 2.405250230251593e6 0.0
0.0 0.0 0.0

6.509317385678142e6 1.7969501744129673e7 0.0
1.7969501744129673e7 7.929826800175331e6 0.0
0.0 0.0 0.0

-1.1398474033042029e7 9.86443096264503e6 0.0
9.86443096264503e6 2.8596694853175554e7 0.0
0.0 0.0 0.0

-661816.6672260754 2.518896489503804e7 0.0
2.518896489503804e7 -1.909609630882045e6 0.0
0.0 0.0 0.0

-4.719725376657728e6 1.9655308596515693e7 0.0
1.9655308596515693e7 1.078878721520464e7 0.0
0.0 0.0 0.0

-3.706468853510787e6 2.2019436898263685e7 0.0
2.2019436898263685e7 6.3004377267951695e6 0.0
0.0 0.0 0.0

2.485082182071667e6 8.509095517728236e6 0.0
8.509095517728236e6 -3.566156126568013e7 0.0
0.0 0.0 0.0

-3.865440563570616e6 2.2996908040575445e7 0.0
2.2996908040575445e7 8.769957795630228e6 0.0
0.0 0.0 0.0

1.2505710135561178e7 1.5340208197004579e7 0.0
1.5340208197004579e7 3.847980935817315e6 0.0
0.0 0.0 0.0

1.9761450017378293e6 1.2820912079116117e7 0.0
1.2820912079116117e7 -2.0865213424855806e7 0.0
0.0 0.0 0.0

-7.815739487018749e6 2.1705920507398206e6 0.0
2.1705920507398206e6 5.351413182829815e7 0.0
0.0 0.0 0.0

-1.6631469151255458e6 2.612367248871371e7 0.0
2.612367248871371e7 698813.0886814418 0.0
0.0 0.0 0.0

1.9890402461800296e6 1.926005446638921e7 0.0
1.926005446638921e7 5.535818367360521e6 0.0
0.0 0.0 0.0

-7.895253112651351e7 6.945683061891118e7 0.0
6.945683061891118e7 -1.2319714194377696e7 0.0
0.0 0.0 0.0

3.647084720111371e6 4.215411814170092e6 0.0
4.215411814170092e6 -1.738028404114405e7 0.0
0.0 0.0 0.0

-2.4148303480664473e6 1.8785498773573786e7 0.0
1.8785498773573786e7 -1.0022738846877179e6 0.0
0.0 0.0 0.0

-1.4826251273275996e7 2.48648514149867e7 0.0
2.48648514149867e7 3.685407928737632e6 0.0
0.0 0.0 0.0

-267548.8912304421 1.8080854851930533e7 0.0
1.8080854851930533e7 -1.3141989039418139e7 0.0
0.0 0.0 0.0

-87211.62312998669 1.921802083660995e7 0.0
1.921802083660995e7 -1.161637081400362e7 0.0
0.0 0.0 0.0

8.34313705922524e6 1.992222234350541e7 0.0
1.992222234350541e7 -292490.8909052764 0.0
0.0 0.0 0.0

-3.0018657138131484e6 2.9503245021600533e7 0.0
2.9503245021600533e7 2.936163821774223e6 0.0
0.0 0.0 0.0

-2.9562757100459556e6 1.9309140715479072e7 0.0
1.9309140715479072e7 -1.0380062812071044e7 0.0
0.0 0.0 0.0

3.4522367212658618e6 4.99842822771789e6 0.0
4.99842822771789e6 -3.774486132689004e7 0.0
0.0 0.0 0.0

-2.524922389892647e7 2.682604172965308e7 0.0
2.682604172965308e7 -5.483070508990029e6 0.0
0.0 0.0 0.0

-4.111214684798956e6 1.9111489323966302e7 0.0
1.9111489323966302e7 1.1724950570761058e7 0.0
0.0 0.0 0.0

1.9917254950894872e6 2.255037525519376e7 0.0
2.255037525519376e7 -6.684475020676325e6 0.0
0.0 0.0 0.0

-2.118749972217981e6 1.7112754073380075e7 0.0
1.7112754073380075e7 3.2829264467184488e7 0.0
0.0 0.0 0.0

1.0921927658618415e7 2.136421829016937e7 0.0
2.136421829016937e7 -3.5787855850695935e6 0.0
0.0 0.0 0.0

-4.319992730555767e6 2.1530897830294725e7 0.0
2.1530897830294725e7 1.1253665125794569e7 0.0
0.0 0.0 0.0

-477632.43731411034 1.6287691000979837e7 0.0
1.6287691000979837e7 -1.1559166461117046e7 0.0
0.0 0.0 0.0

4.804717110217006e6 1.1218345718837226e7 0.0
1.1218345718837226e7 4.038068442954481e6 0.0
0.0 0.0 0.0

1.7998041277429909e6 1.992803431884229e7 0.0
1.992803431884229e7 -7.270220774967473e6 0.0
0.0 0.0 0.0

-6.58252179082535e6 1.817552371015919e7 0.0
1.817552371015919e7 2.152653410185818e7 0.0
0.0 0.0 0.0

-6.952130164875492e6 5.5721280873304345e6 0.0
5.5721280873304345e6 5.611486833183618e7 0.0
0.0 0.0 0.0

-7.115843544803325e6 419988.97227736906 0.0
419988.97227736906 5.9031482275881246e7 0.0
0.0 0.0 0.0

-817467.0042385152 1.7949232385231394e7 0.0
1.7949232385231394e7 -1.0342790571628755e7 0.0
0.0 0.0 0.0

345132.7359868339 1.883909087939867e7 0.0
1.883909087939867e7 -1.1320443946101323e7 0.0
0.0 0.0 0.0

42595.46491990611 1.917927892375493e7 0.0
1.917927892375493e7 -1.1713748033587318e7 0.0
0.0 0.0 0.0

-1.036297023577752e7 2.1880230458625752e7 0.0
2.1880230458625752e7 -2.8821988924890263e6 0.0
0.0 0.0 0.0

1.520289035286418e7 1.958833532795691e7 0.0
1.958833532795691e7 8.038226581810705e6 0.0
0.0 0.0 0.0

-6.680188643135723e6 1.8661692037979882e7 0.0
1.8661692037979882e7 1.875744902056033e7 0.0
0.0 0.0 0.0

230576.57008357858 1.910928253785415e7 0.0
1.910928253785415e7 -1.1683083530194266e7 0.0
0.0 0.0 0.0

-731703.4871420674 1.5580773874040918e7 0.0
1.5580773874040918e7 -1.0309159906561593e7 0.0
0.0 0.0 0.0

-9.170036661959149e6 -4.1433555743085006e6 0.0
-4.1433555743085006e6 2.0145296142966144e7 0.0
0.0 0.0 0.0

480279.51067422144 1.3023489422267497e7 0.0
1.3023489422267497e7 -2.802922126780918e7 0.0
0.0 0.0 0.0

-1.0613132608500576e7 -224319.2185773769 0.0
-224319.2185773769 2.9271940694633942e7 0.0
0.0 0.0 0.0

-8.71293445800619e6 -5.787072907032594e6 0.0
-5.787072907032594e6 2.2632709723991416e7 0.0
0.0 0.0 0.0

-8.558940812960723e6 -6.111970270230764e6 0.0
-6.111970270230764e6 2.188215631501379e7 0.0
0.0 0.0 0.0

-4.779275941892933e6 1.0682902611833472e7 0.0
1.0682902611833472e7 7.362603647225991e6 0.0
0.0 0.0 0.0

726845.6607289957 1.500306217353069e7 0.0
1.500306217353069e7 -1.700069966134463e7 0.0
0.0 0.0 0.0

1.0129123998862356e6 1.2868516190779086e7 0.0
1.2868516190779086e7 -2.778472237468651e7 0.0
0.0 0.0 0.0

-783504.8029086404 1.8207760723038115e7 0.0
1.8207760723038115e7 -4.382387913329814e6 0.0
0.0 0.0 0.0

1.4222567519820812e6 2.010715181953035e7 0.0
2.010715181953035e7 -8.380371443651179e6 0.0
0.0 0.0 0.0

3.879903488909224e6 1.9308092920103e7 0.0
1.9308092920103e7 -269321.1644198557 0.0
0.0 0.0 0.0

-1.1500989299695226e6 2.3014430397716016e7 0.0
2.3014430397716016e7 -3.5225798492941363e6 0.0
0.0 0.0 0.0

4.578587469026783e7 2.2492637627181582e7 0.0
2.2492637627181582e7 6.510351881552168e6 0.0
0.0 0.0 0.0

5.372447563107353e6 1.4814012286912227e7 0.0
1.4814012286912227e7 9.050169847141642e6 0.0
0.0 0.0 0.0

2.9666394072240167e6 1.9666308634042315e7 0.0
1.9666308634042315e7 -4.370680671057554e6 0.0
0.0 0.0 0.0

2.937430662071716e6 2.3475744602569338e7 0.0
2.3475744602569338e7 -5.910177746730675e6 0.0
0.0 0.0 0.0

-1.0762625950850374e6 2.5941316439376783e7 0.0
2.5941316439376783e7 -536828.837819934 0.0
0.0 0.0 0.0

572775.5612803092 1.6715732965709323e7 0.0
1.6715732965709323e7 -1.6928763103736058e7 0.0
0.0 0.0 0.0

-1.576379651529532e7 2.4127057520221412e7 0.0
2.4127057520221412e7 1.176069035607824e6 0.0
0.0 0.0 0.0

-5.39088495044497e6 2.435606709289489e7 0.0
2.435606709289489e7 7.347018610730507e6 0.0
0.0 0.0 0.0

4.270462369705877e6 2.5504225769219734e6 0.0
2.5504225769219734e6 -1.9511978608943656e7 0.0
0.0 0.0 0.0

-1.84321156228801e6 2.4116865209936988e7 0.0
2.4116865209936988e7 -2.2058700237162663e6 0.0
0.0 0.0 0.0

-5.686014352899505e6 3.67860001337012e7 0.0
3.67860001337012e7 3.4933726431017034e6 0.0
0.0 0.0 0.0

-1.8469846335262505e6 1.3969013139918705e7 0.0
1.3969013139918705e7 -6.056765453240967e6 0.0
0.0 0.0 0.0

1.882344908804278e6 1.2813781435078911e7 0.0
1.2813781435078911e7 -2.2242049636151925e7 0.0
0.0 0.0 0.0

1.3991975936057586e6 1.253759836266195e7 0.0
1.253759836266195e7 -2.643764353609769e7 0.0
0.0 0.0 0.0

285683.59901858494 1.368824541180721e7 0.0
1.368824541180721e7 -2.771469088441868e7 0.0
0.0 0.0 0.0

8.222072699697014e6 3.228277521984578e7 0.0
3.228277521984578e7 -4.274762862357599e6 0.0
0.0 0.0 0.0

324362.0302390964 1.8944501777960766e7 0.0
1.8944501777960766e7 -1.159521811006606e7 0.0
0.0 0.0 0.0

4.1312630129440753e6 1.8266208517558675e7 0.0
1.8266208517558675e7 2.6673390900163427e7 0.0
0.0 0.0 0.0

-2.106165922196839e7 1.903659250888062e7 0.0
1.903659250888062e7 6.79052836631478e6 0.0
0.0 0.0 0.0

-5.951325114749513e7 3.0236268323070217e7 0.0
3.0236268323070217e7 -3.008335501004953e6 0.0
0.0 0.0 0.0

2.5912045453108195e6 6.183070859207874e6 0.0
6.183070859207874e6 -4.756966779125146e7 0.0
0.0 0.0 0.0

2.2149376149891564e6 1.988430366915772e7 0.0
1.988430366915772e7 -5.955575228761523e6 0.0
0.0 0.0 0.0

2.4846415245925155e6 2.190122687792432e7 0.0
2.190122687792432e7 -6.727097304703268e6 0.0
0.0 0.0 0.0

4.1640445030156374e6 2.62279067973396e6 0.0
2.62279067973396e6 -1.8473732631703153e7 0.0
0.0 0.0 0.0

-1.3760392912652006e7 2.2822885140548263e7 0.0
2.2822885140548263e7 -4.494588308243536e6 0.0
0.0 0.0 0.0

-2.254323822978341e6 1.8209494504804224e7 0.0
1.8209494504804224e7 1.854733770536887e7 0.0
0.0 0.0 0.0

5.573819905365053e6 1.771001623059199e7 0.0
1.771001623059199e7 1.236706889379159e7 0.0
0.0 0.0 0.0

-6.962268409968387e6 -6.26620174458094e6 0.0
-6.26620174458094e6 1.78323319084343e7 0.0
0.0 0.0 0.0

857789.4359103823 1.5146509473612621e7 0.0
1.5146509473612621e7 -2.0298503089239277e7 0.0
0.0 0.0 0.0

2.2909393243344817e6 9.776298623595605e6 0.0
9.776298623595605e6 -1.948299005783467e7 0.0
0.0 0.0 0.0

755316.6262502163 8.350509237270925e6 0.0
8.350509237270925e6 -5.100294380998042e6 0.0
0.0 0.0 0.0

-7.796510680350963e6 -6.029162885819493e6 0.0
-6.029162885819493e6 1.4782863355798583e7 0.0
0.0 0.0 0.0

3.5531052185351253e6 1.775578585084077e7 0.0
1.775578585084077e7 7.015898546715987e7 0.0
0.0 0.0 0.0

-1.0178155258822918e7 3.8129724895279477e6 0.0
3.8129724895279477e6 3.7610905877967365e7 0.0
0.0 0.0 0.0

1.4328043363871658e6 2.6719134141177434e7 0.0
2.6719134141177434e7 -2.859312303163658e6 0.0
0.0 0.0 0.0

-2.602946478136808e6 1.8443366951381337e7 0.0
1.8443366951381337e7 -104829.69062884187 0.0
0.0 0.0 0.0

-1.6502962731649664e6 1.5987907632500991e7 0.0
1.5987907632500991e7 -1.1271129568768447e7 0.0
0.0 0.0 0.0

1.0947569614340984e6 2.1703025788083825e7 0.0
2.1703025788083825e7 -7.85989442611771e6 0.0
0.0 0.0 0.0

-3.973966073468525e6 2.3400742629948396e7 0.0
2.3400742629948396e7 6.816922211183644e6 0.0
0.0 0.0 0.0

4.363751884876294e6 3.732189257947455e7 0.0
3.732189257947455e7 -1.2896373304800333e6 0.0
0.0 0.0 0.0

3.0587178135961457e6 4.397482350509162e6 0.0
4.397482350509162e6 -1.0468553357361162e7 0.0
0.0 0.0 0.0

-9.381129584035449e6 -4.245261793934364e6 0.0
-4.245261793934364e6 2.0000450220278203e7 0.0
0.0 0.0 0.0

-188935.93184288742 1.726453291324746e7 0.0
1.726453291324746e7 1.945347635413819e6 0.0
0.0 0.0 0.0

-8.503791270204322e6 2.5019482057054587e7 0.0
2.5019482057054587e7 6.2674000722835455e6 0.0
0.0 0.0 0.0

-3.084714373842461e6 1.8207321344779562e7 0.0
1.8207321344779562e7 2.103428584177923e7 0.0
0.0 0.0 0.0

-1.1766607992523193e7 1.1763346096472898e7 0.0
1.1763346096472898e7 2.414643196582113e7 0.0
0.0 0.0 0.0

1.5236902159348764e6 1.3804156378508238e7 0.0
1.3804156378508238e7 -2.1319723052093953e7 0.0
0.0 0.0 0.0

-1.487075405450819e8 2.4010920377901085e7 0.0
2.4010920377901085e7 -8.3715180065264255e6 0.0
0.0 0.0 0.0

-1.188314914245508e7 1.0475534860767363e7 0.0
1.0475534860767363e7 2.523697199154862e7 0.0
0.0 0.0 0.0

-7.19838947100747e6 2.494953678132719e7 0.0
2.494953678132719e7 6.628392200283037e6 0.0
0.0 0.0 0.0

602640.7080874415 1.6332901532489197e7 0.0
1.6332901532489197e7 -1.7953526775324963e7 0.0
0.0 0.0 0.0

-700721.7353471788 1.4339906090252573e7 0.0
1.4339906090252573e7 -2.7111683684777547e7 0.0
0.0 0.0 0.0

3.122860039030503e6 3.540424913113422e7 0.0
3.540424913113422e7 -808491.7532840888 0.0
0.0 0.0 0.0

-1.080731625782405e6 1.5056437736548051e7 0.0
1.5056437736548051e7 -2.4766230877192087e7 0.0
0.0 0.0 0.0

385579.97844470246 1.8744809292449653e7 0.0
1.8744809292449653e7 -1.1254134960851043e7 0.0
0.0 0.0 0.0

460540.33823788154 1.7618058246626366e7 0.0
1.7618058246626366e7 3.8989347080789283e6 0.0
0.0 0.0 0.0

579149.388167208 2.9692544733150713e7 0.0
2.9692544733150713e7 -265976.434949919 0.0
0.0 0.0 0.0

-1.002800058768838e7 2.49062930190761e7 0.0
2.49062930190761e7 5.660949145547863e6 0.0
0.0 0.0 0.0

1.1689870381842898e6 1.4731610271264361e7 0.0
1.4731610271264361e7 -2.023421438817326e7 0.0
0.0 0.0 0.0

208862.89798132842 1.8660856014028862e7 0.0
1.8660856014028862e7 -1.2056052839467686e7 0.0
0.0 0.0 0.0

-3.076070500665634e6 2.3435379787208293e7 0.0
2.3435379787208293e7 2.0010064530034973e6 0.0
0.0 0.0 0.0

-6.150108633755184e6 2.4693507317045387e7 0.0
2.4693507317045387e7 6.988822570228428e6 0.0
0.0 0.0 0.0

-9.068144510699395e6 -4.3136027431509765e6 0.0
-4.3136027431509765e6 2.994567007855203e7 0.0
0.0 0.0 0.0

-6.853893517691772e6 1.7314833573322657e7 0.0
1.7314833573322657e7 1.7939626901531316e7 0.0
0.0 0.0 0.0

-1.3905905395329995e6 1.558629005396693e7 0.0
1.558629005396693e7 -2.248934460565917e7 0.0
0.0 0.0 0.0

1.5373321446971344e7 1.8731571412362132e7 0.0
1.8731571412362132e7 1.3610013807217781e6 0.0
0.0 0.0 0.0

461946.1045468813 1.5455535668259455e7 0.0
1.5455535668259455e7 -2.0309404617055148e7 0.0
0.0 0.0 0.0

-349478.4257230796 1.7608182072346784e7 0.0
1.7608182072346784e7 -2.9337866032454176e6 0.0
0.0 0.0 0.0

-1.1173842446026241e7 8.404464574381085e6 0.0
8.404464574381085e6 3.0052795581190303e7 0.0
0.0 0.0 0.0

-5.816882973865624e6 2.0250804613476373e7 0.0
2.0250804613476373e7 -1.008100962981407e7 0.0
0.0 0.0 0.0

-1.0056069565589667e6 1.590811732403922e7 0.0
1.590811732403922e7 -6.108004402003067e6 0.0
0.0 0.0 0.0

-69842.8578796722 1.836395637680188e7 0.0
1.836395637680188e7 -1.1393921612117497e7 0.0
0.0 0.0 0.0

-1.2443163222740555e7 4.0430518110228285e7 0.0
4.0430518110228285e7 5.285401500489965e6 0.0
0.0 0.0 0.0

-4.5744900883987665e7 1.3963823715893287e7 0.0
1.3963823715893287e7 6.668763644358156e6 0.0
0.0 0.0 0.0

1.3754099500588113e6 2.743410164368378e7 0.0
2.743410164368378e7 -3.2646406280329498e6 0.0
0.0 0.0 0.0

-8.186096950469206e6 3.846164056112236e7 0.0
3.846164056112236e7 4.440874028698594e6 0.0
0.0 0.0 0.0

1.957227470498123e7 4.814740239956905e7 0.0
4.814740239956905e7 -4.0758476138582593e6 0.0
0.0 0.0 0.0

1958.4232876077294 1.3990042731384985e7 0.0
1.3990042731384985e7 -2.6004077933414523e7 0.0
0.0 0.0 0.0

-7.255401469781062e6 1.612950849246841e7 0.0
1.612950849246841e7 -2.7783249899324305e7 0.0
0.0 0.0 0.0

-4.26888484197047e6 2.2790774125588648e7 0.0
2.2790774125588648e7 9.045235556215057e6 0.0
0.0 0.0 0.0

-1.220340582408145e7 1.123012048589706e7 0.0
1.123012048589706e7 2.460672352872169e7 0.0
0.0 0.0 0.0

-1.0197005089110142e7 2.199937146165842e7 0.0
2.199937146165842e7 2.8433881477905447e6 0.0
0.0 0.0 0.0

163791.77530518733 1.7643286386271354e7 0.0
1.7643286386271354e7 7.226897227036332e6 0.0
0.0 0.0 0.0

-348514.1064806902 1.6951043779918484e7 0.0
1.6951043779918484e7 -9.156785598229818e6 0.0
0.0 0.0 0.0

5.754805115115432e6 3.964494782845488e7 0.0
3.964494782845488e7 -2.1224811089582816e6 0.0
0.0 0.0 0.0

925537.5254371674 2.1005912399950486e7 0.0
2.1005912399950486e7 -8.545937530961681e6 0.0
0.0 0.0 0.0

2.0582167354990577e6 1.8323117508829266e7 0.0
1.8323117508829266e7 -3.9120896687806128e6 0.0
0.0 0.0 0.0

4.0393810715371147e6 1.9781209391749096e6 0.0
1.9781209391749096e6 -3.2916760808390014e7 0.0
0.0 0.0 0.0

-4.214177740271205e6 2.34235002512181e7 0.0
2.34235002512181e7 7.49990805558737e6 0.0
0.0 0.0 0.0

-3.389107823100475e6 1.7787243342628375e7 0.0
1.7787243342628375e7 4.324759761712348e6 0.0
0.0 0.0 0.0

1.667503515482639e6 1.1839362104221474e7 0.0
1.1839362104221474e7 -1.3338439381514713e7 0.0
0.0 0.0 0.0

-534470.1772364676 1.4449978000292458e7 0.0
1.4449978000292458e7 -2.7298328466114536e7 0.0
0.0 0.0 0.0

-4.0049876113833087e6 1.943639771648936e7 0.0
1.943639771648936e7 1.6377963438769374e7 0.0
0.0 0.0 0.0

-4.436237255878022e6 1.795920055921562e7 0.0
1.795920055921562e7 2.3419960762832247e7 0.0
0.0 0.0 0.0

-887291.5033625183 1.6239811042823503e7 0.0
1.6239811042823503e7 -3.8708727138856384e6 0.0
0.0 0.0 0.0

3.3583136214557025e6 2.273082099565109e7 0.0
2.273082099565109e7 -6.082635713776672e6 0.0
0.0 0.0 0.0

-3.770806162560776e6 2.2538645800049752e7 0.0
2.2538645800049752e7 8.972308133688329e6 0.0
0.0 0.0 0.0

-8.350096449663794e6 2.1263500826909323e6 0.0
2.1263500826909323e6 4.768678902405876e7 0.0
0.0 0.0 0.0

-4.22093790325703e6 1.1596458768310668e7 0.0
1.1596458768310668e7 5.955215517381439e6 0.0
0.0 0.0 0.0

-18418.180608863942 1.721567986418863e7 0.0
1.721567986418863e7 -5.1570877907522125e6 0.0
0.0 0.0 0.0

-5.178407561976213e6 2.367873167751465e7 0.0
2.367873167751465e7 8.114238457388399e6 0.0
0.0 0.0 0.0

-4.401486316655284e6 1.9515253139228992e7 0.0
1.9515253139228992e7 1.3343478036038397e7 0.0
0.0 0.0 0.0

2.2698403134849183e6 1.1974365170563323e7 0.0
1.1974365170563323e7 -1.8470248973891716e7 0.0
0.0 0.0 0.0

-2.049198707903844e6 2.539988407125177e7 0.0
2.539988407125177e7 1.1808151886291853e6 0.0
0.0 0.0 0.0

1.121673032965084e6 3.100280119599302e7 0.0
3.100280119599302e7 -362774.60801044904 0.0
0.0 0.0 0.0

-3.06849756996731e6 2.0664580220356368e7 0.0
2.0664580220356368e7 4.88611254246831e6 0.0
0.0 0.0 0.0

1.6633088426644746e6 1.3801191262305189e7 0.0
1.3801191262305189e7 -1.995615674815411e7 0.0
0.0 0.0 0.0

-1.7292696305383758e6 2.563235763320436e7 0.0
2.563235763320436e7 -1.0224459898262953e6 0.0
0.0 0.0 0.0

1.2962448870656034e6 2.2365861048649065e7 0.0
2.2365861048649065e7 -7.128824556119531e6 0.0
0.0 0.0 0.0

-871939.8130202154 1.827031255778199e7 0.0
1.827031255778199e7 2.453371033579883e7 0.0
0.0 0.0 0.0

-3.2726273015187094e6 2.0118521837762963e7 0.0
2.0118521837762963e7 5.956714750273118e6 0.0
0.0 0.0 0.0

-4.370612979724573e6 2.5080948036822297e7 0.0
2.5080948036822297e7 5.471425667991922e6 0.0
0.0 0.0 0.0

-9.419874494270667e6 -513103.29514200037 0.0
-513103.29514200037 3.7319050462290965e7 0.0
0.0 0.0 0.0

799701.8046657399 3.0283213961138807e7 0.0
3.0283213961138807e7 -263656.6671422021 0.0
0.0 0.0 0.0

4.076865955605708e6 2.0414729202072704e6 0.0
2.0414729202072704e6 -3.2039052659356065e7 0.0
0.0 0.0 0.0

-1.1422404517405045e6 2.3794092793213073e7 0.0
2.3794092793213073e7 -4.1479142766858665e6 0.0
0.0 0.0 0.0

-9.267567260246538e6 -2.5300881628739564e6 0.0
-2.5300881628739564e6 3.2824970187658403e7 0.0
0.0 0.0 0.0

-1.1089400254279424e6 1.5370368476374006e7 0.0
1.5370368476374006e7 -4.264520335056286e6 0.0
0.0 0.0 0.0

-9.557452976927537e6 2.3629126336934406e7 0.0
2.3629126336934406e7 4.270726959043145e6 0.0
0.0 0.0 0.0

-1.6251143783611078e6 1.916754869378227e7 0.0
1.916754869378227e7 -3.1852953636399894e6 0.0
0.0 0.0 0.0

-2.8673134590748325e6 1.9396841399104152e7 0.0
1.9396841399104152e7 -4.969465883245732e6 0.0
0.0 0.0 0.0

-1.2199596039490611e6 1.7197947736749586e7 0.0
1.7197947736749586e7 -1.6307109781265875e7 0.0
0.0 0.0 0.0

-1.1406126951668777e7 1.302898090842126e7 0.0
1.302898090842126e7 2.5485974628741365e7 0.0
0.0 0.0 0.0

529191.7728154352 1.818935771110719e7 0.0
1.818935771110719e7 9.383039776831275e6 0.0
0.0 0.0 0.0

3.3503329028633926e6 8.208040226362638e6 0.0
8.208040226362638e6 -2.3839208584069937e7 0.0
0.0 0.0 0.0

1.6554638105265899e6 1.847612636364248e7 0.0
1.847612636364248e7 2.2977939382142223e7 0.0
0.0 0.0 0.0

-9.128892930006677e6 1.7733307829003382e7 0.0
1.7733307829003382e7 -5.6199422465942256e7 0.0
0.0 0.0 0.0

-4.574505355067286e6 1.85013381102992e7 0.0
1.85013381102992e7 1.3097168245941006e7 0.0
0.0 0.0 0.0

-2.261593743000313e6 2.583542518417202e7 0.0
2.583542518417202e7 255144.87356518302 0.0
0.0 0.0 0.0

-3.436152996373426e6 2.007297046388552e7 0.0
2.007297046388552e7 1.5926773447459578e6 0.0
0.0 0.0 0.0

305603.1691449769 1.976109916241394e7 0.0
1.976109916241394e7 -1.0464227438477019e7 0.0
0.0 0.0 0.0

1.5967838125344622e6 1.8945332894382846e7 0.0
1.8945332894382846e7 -7.0753440912710745e6 0.0
0.0 0.0 0.0

-4.456966395219019e6 2.3394497659251846e7 0.0
2.3394497659251846e7 8.110113264191646e6 0.0
0.0 0.0 0.0

-4.759558881908022e6 1.9391105208260383e7 0.0
1.9391105208260383e7 1.6984689874427594e7 0.0
0.0 0.0 0.0

-4.3527836854292285e6 1.8061433403201453e7 0.0
1.8061433403201453e7 2.3563979444158465e7 0.0
0.0 0.0 0.0

-3.4534495292444434e6 1.6596625211525338e7 0.0
1.6596625211525338e7 -1.6048605520288808e7 0.0
0.0 0.0 0.0

895905.46850741 1.4513625704180026e7 0.0
1.4513625704180026e7 -1.8010640261652436e7 0.0
0.0 0.0 0.0

-3.1604321398286484e6 1.9357539497603804e7 0.0
1.9357539497603804e7 1.543820342437332e7 0.0
0.0 0.0 0.0

1.7062354824409876e6 9.846848009808127e6 0.0
9.846848009808127e6 -3.3233735672275826e7 0.0
0.0 0.0 0.0

-2.266445335665676e6 1.8256998193415258e7 0.0
1.8256998193415258e7 -1.020896368525611e7 0.0
0.0 0.0 0.0

1.5456981313268184e6 3.188087979750944e7 0.0
3.188087979750944e7 -335559.2378484629 0.0
0.0 0.0 0.0

1.0527163437607903e6 1.774941442715992e7 0.0
1.774941442715992e7 1.9462070016485006e7 0.0
0.0 0.0 0.0

1.9919775065548416e7 2.33738823218434e7 0.0
2.33738823218434e7 6.639921962797155e7 0.0
0.0 0.0 0.0

-1.9727564483041544e7 2.2014223580918152e7 0.0
2.2014223580918152e7 -6.575852068316696e7 0.0
0.0 0.0 0.0

-3.9606143877729876e6 1.775553457266529e7 0.0
1.775553457266529e7 2.422847846945159e6 0.0
0.0 0.0 0.0

-2.549312789917879e7 3.297923207061488e7 0.0
3.297923207061488e7 7.776323410691595e6 0.0
0.0 0.0 0.0

-1.9500461103225974e6 2.226636771390735e7 0.0
2.226636771390735e7 -3.867282758822069e6 0.0
0.0 0.0 0.0

-2.558552327731436e6 1.9445557787890673e7 0.0
1.9445557787890673e7 1.3187202172356907e7 0.0
0.0 0.0 0.0

385485.7747701155 1.790975757889436e7 0.0
1.790975757889436e7 2.2134293428206827e7 0.0
0.0 0.0 0.0

5.656577738621522e6 1.9117619986391403e7 0.0
1.9117619986391403e7 3.920680341254803e7 0.0
0.0 0.0 0.0

5.421466619374171e6 1.9624569890241403e7 0.0
1.9624569890241403e7 8.246763343401067e6 0.0
0.0 0.0 0.0

5.5533173477588855e6 1.7023290435993724e7 0.0
1.7023290435993724e7 2.399331097404702e7 0.0
0.0 0.0 0.0

2.799487842699196e6 2.262165937034036e7 0.0
2.262165937034036e7 -6.255440307249989e6 0.0
0.0 0.0 0.0

49221.779946873896 1.7924608558791056e7 0.0
1.7924608558791056e7 1.404893622192372e7 0.0
0.0 0.0 0.0

-3.092896477538977e6 1.870444166859432e7 0.0
1.870444166859432e7 1.5900191949235475e7 0.0
0.0 0.0 0.0

2.3926857862764914e6 2.8546886186232787e7 0.0
2.8546886186232787e7 -2.1119508267644723e6 0.0
0.0 0.0 0.0

2.252081564719291e6 1.9263407505769063e7 0.0
1.9263407505769063e7 1.1837255268698625e7 0.0
0.0 0.0 0.0

4.328921787539639e6 2.4089967534381514e6 0.0
2.4089967534381514e6 -2.5038615941002972e7 0.0
0.0 0.0 0.0

-1.033732571099341e7 1.500870871814725e7 0.0
1.500870871814725e7 1.8825279732538253e7 0.0
0.0 0.0 0.0

-9.010899615760569e6 -4.199325031064432e6 0.0
-4.199325031064432e6 3.0764421270049386e7 0.0
0.0 0.0 0.0

-5.810285109231485e6 1.8946642838830564e7 0.0
1.8946642838830564e7 1.8561702432936393e7 0.0
0.0 0.0 0.0

-177627.86985273572 2.627703070397358e7 0.0
2.627703070397358e7 -1.6356099835105103e6 0.0
0.0 0.0 0.0

4.87650079342198e6 1.9554871597052857e7 0.0
1.9554871597052857e7 1.5098089263145955e7 0.0
0.0 0.0 0.0

3.1268419918308533e6 1.6976512625027638e7 0.0
1.6976512625027638e7 1.7990228148432855e7 0.0
0.0 0.0 0.0

-3.5898145788232586e6 2.4762669282493494e7 0.0
2.4762669282493494e7 5.977109319624554e6 0.0
0.0 0.0 0.0

3.693794435311122e6 4.244527015126454e6 0.0
4.244527015126454e6 -1.4077393514218109e7 0.0
0.0 0.0 0.0

-1.2566018303880552e6 2.4329137986955613e7 0.0
2.4329137986955613e7 -3.3262774812535485e6 0.0
0.0 0.0 0.0

2.8547016171162166e6 1.0245001645507254e7 0.0
1.0245001645507254e7 -1.9747453892615356e7 0.0
0.0 0.0 0.0

-7.239251020980946e6 2.4032957439379867e7 0.0
2.4032957439379867e7 6.856874620264759e6 0.0
0.0 0.0 0.0

3.358698044635016e6 2.431766681058731e7 0.0
2.431766681058731e7 -5.456856493130229e6 0.0
0.0 0.0 0.0

-8.769431966291394e6 2.0816450996194072e7 0.0
2.0816450996194072e7 728645.0020999368 0.0
0.0 0.0 0.0

3.2867975719931126e6 1.9892288635538267e6 0.0
1.9892288635538267e6 -4.7413962425512664e7 0.0
0.0 0.0 0.0

4.1335129683340234e6 1.9427402782678265e7 0.0
1.9427402782678265e7 2.1652434130586023e6 0.0
0.0 0.0 0.0

688145.2741631325 2.5103480873764496e7 0.0
2.5103480873764496e7 -3.700911208729275e6 0.0
0.0 0.0 0.0

4217.915916118305 2.1996417778423857e7 0.0
2.1996417778423857e7 -6.898347034406637e6 0.0
0.0 0.0 0.0

-1.7250209646042595e6 1.711419684123857e7 0.0
1.711419684123857e7 -1.150322303194615e7 0.0
0.0 0.0 0.0

3.7658159896749174e6 4.472979901988901e6 0.0
4.472979901988901e6 -2.3324195020628244e7 0.0
0.0 0.0 0.0

-3.670779615696275e6 2.1241371785130695e7 0.0
2.1241371785130695e7 5.710744908493046e6 0.0
0.0 0.0 0.0

917191.079769114 1.2357340132398274e7 0.0
1.2357340132398274e7 -2.8108651896011245e7 0.0
0.0 0.0 0.0

-8.939186396848174e6 -3.6602003835443077e6 0.0
-3.6602003835443077e6 3.411339780363244e7 0.0
0.0 0.0 0.0

-5.956025146059436e6 1.781329727914608e7 0.0
1.781329727914608e7 1.6434442852801487e7 0.0
0.0 0.0 0.0

-1.3420094605179824e7 2.371095573899686e7 0.0
2.371095573899686e7 3.594736731173167e6 0.0
0.0 0.0 0.0

1.5529206168697886e6 5.614826888797607e6 0.0
5.614826888797607e6 -6.956418239002064e7 0.0
0.0 0.0 0.0

-6.0932882166774925e6 1.541845683309694e7 0.0
1.541845683309694e7 3.2271035350235328e7 0.0
0.0 0.0 0.0

-1.329654733967782e6 1.881203402777605e7 0.0
1.881203402777605e7 1.9422099259461746e7 0.0
0.0 0.0 0.0

-3.1851933691839315e6 1.726708148026941e7 0.0
1.726708148026941e7 2.8515503235251613e7 0.0
0.0 0.0 0.0

-2.832840438405885e6 1.8895178153435055e7 0.0
1.8895178153435055e7 930164.770679325 0.0
0.0 0.0 0.0

-5.702460859449499e6 1.82146094338371e7 0.0
1.82146094338371e7 1.2651271141242165e7 0.0
0.0 0.0 0.0

-1.4517011501365376e6 1.7128684218755934e7 0.0
1.7128684218755934e7 -9.037020086880682e6 0.0
0.0 0.0 0.0

1.0699035091590593e6 1.4012852457126334e7 0.0
1.4012852457126334e7 -1.898490838563835e7 0.0
0.0 0.0 0.0

1.580630561625911e6 9.388721676514586e6 0.0
9.388721676514586e6 -4.084143050643759e7 0.0
0.0 0.0 0.0

-9.028445686506016e6 -3.9444767342918497e6 0.0
-3.9444767342918497e6 3.1813724025912717e7 0.0
0.0 0.0 0.0

-8.530898799096461e6 -2.8655134193966063e6 0.0
-2.8655134193966063e6 3.974538079370799e7 0.0
0.0 0.0 0.0

-7.943587845502067e6 2.2334101454739295e7 0.0
2.2334101454739295e7 1.9412328704293272e6 0.0
0.0 0.0 0.0

372029.7090026834 1.974284617847342e7 0.0
1.974284617847342e7 -1.0766047674762242e7 0.0
0.0 0.0 0.0

-1.9078242543221097e6 1.7268115954792544e7 0.0
1.7268115954792544e7 3.3037668870971914e7 0.0
0.0 0.0 0.0

-1.1175847000958933e6 1.7137503778629582e7 0.0
1.7137503778629582e7 -6.4504595378653e6 0.0
0.0 0.0 0.0

3.3788577057524906e6 2.18083696998655e7 0.0
2.18083696998655e7 -6.115340814541975e6 0.0
0.0 0.0 0.0

-3.732094776429584e6 2.2638192480658185e7 0.0
2.2638192480658185e7 6.200163836297293e6 0.0
0.0 0.0 0.0

-9.087855324712768e6 -4.360049311093397e6 0.0
-4.360049311093397e6 2.1236445264253456e7 0.0
0.0 0.0 0.0

9.89279075298221e6 4.2997289498386145e7 0.0
4.2997289498386145e7 -3.1948696904029306e6 0.0
0.0 0.0 0.0

428667.5188660687 1.7924127689513583e7 0.0
1.7924127689513583e7 -8.678406319316683e6 0.0
0.0 0.0 0.0

-4.981540817354351e6 1.5600803280320002e7 0.0
1.5600803280320002e7 -4.51134839275427e7 0.0
0.0 0.0 0.0

4.338329574325653e6 3.077336502847456e6 0.0
3.077336502847456e6 -2.9691471228944525e7 0.0
0.0 0.0 0.0

-254156.65613355115 1.7408690559743874e7 0.0
1.7408690559743874e7 -5.357421834576168e6 0.0
0.0 0.0 0.0

-7.834196016079223e6 1.6957351447768193e7 0.0
1.6957351447768193e7 1.9147176656098858e7 0.0
0.0 0.0 0.0

-2.2478767053292714e7 1.959442069591198e7 0.0
1.959442069591198e7 6.8911056054260675e6 0.0
0.0 0.0 0.0

-4.160258268365794e6 2.019241510402174e7 0.0
2.019241510402174e7 -7.970924448038651e6 0.0
0.0 0.0 0.0

4.53764025368711e6 1.659156609657209e7 0.0
1.659156609657209e7 2.076532556126656e7 0.0
0.0 0.0 0.0

-2.3155340738976495e6 1.67637724404659e7 0.0
1.67637724404659e7 -1.246299391201647e7 0.0
0.0 0.0 0.0

-9.631209257519541e6 -1.9802478157900413e6 0.0
-1.9802478157900413e6 2.1195731361696146e7 0.0
0.0 0.0 0.0

-1.0601455115776376e6 1.835206485159851e7 0.0
1.835206485159851e7 -9.295544990949629e6 0.0
0.0 0.0 0.0

-512325.62737677107 1.796888376046667e7 0.0
1.796888376046667e7 3.3968524651160627e6 0.0
0.0 0.0 0.0

-1.6342422618274624e6 1.9042780688989513e7 0.0
1.9042780688989513e7 1.3790778668179298e7 0.0
0.0 0.0 0.0

267367.7136565754 1.6503712974284455e7 0.0
1.6503712974284455e7 -1.5485350679683387e7 0.0
0.0 0.0 0.0

-2.570180738308234e6 1.8611365614294555e7 0.0
1.8611365614294555e7 2.161842295993123e7 0.0
0.0 0.0 0.0

-152997.3271005832 1.6620440443845617e7 0.0
1.6620440443845617e7 -47280.294405584056 0.0
0.0 0.0 0.0

459131.57552275946 1.9695589173246775e7 0.0
1.9695589173246775e7 -1.0949763101014318e7 0.0
0.0 0.0 0.0

3.5710857927539833e6 1.856352584027619e7 0.0
1.856352584027619e7 -1.9653660633746355e6 0.0
0.0 0.0 0.0

1.5245038062881064e6 1.2046844164582852e7 0.0
1.2046844164582852e7 -2.50604000990973e7 0.0
0.0 0.0 0.0

-6.1230391860180395e6 1.8980028922222428e7 0.0
1.8980028922222428e7 1.746332293192133e7 0.0
0.0 0.0 0.0

-392670.38141091214 1.552805863649179e7 0.0
1.552805863649179e7 -7.962644102809568e6 0.0
0.0 0.0 0.0

-4.323005489338381e7 2.601599309553445e7 0.0
2.601599309553445e7 3.9255778096762393e6 0.0
0.0 0.0 0.0

1.7843479268768672e6 1.7731424576927032e7 0.0
1.7731424576927032e7 4.20075135146077e7 0.0
0.0 0.0 0.0

3.997296933501361e6 1.9548901909323775e6 0.0
1.9548901909323775e6 -3.383004371997031e7 0.0
0.0 0.0 0.0

-8.639806835638708e6 -2.938341359337037e6 0.0
-2.938341359337037e6 3.8408008666981965e7 0.0
0.0 0.0 0.0

-2.9297222570453584e6 1.4456965092571344e7 0.0
1.4456965092571344e7 -3.945771426976629e7 0.0
0.0 0.0 0.0

-1.0303267373760818e6 1.5294455851085592e7 0.0
1.5294455851085592e7 -2.5125946582051855e7 0.0
0.0 0.0 0.0

-1.7603785814939612e6 1.8865622108004253e7 0.0
1.8865622108004253e7 -4.734242407963612e6 0.0
0.0 0.0 0.0

-1.4397549913136942e7 2.5420754953763124e7 0.0
2.5420754953763124e7 -8.917744140134485e6 0.0
0.0 0.0 0.0

-6.63105502260157e6 1.7672925416517682e7 0.0
1.7672925416517682e7 2.3453390863161556e7 0.0
0.0 0.0 0.0

490914.58466429776 1.9583259435436275e7 0.0
1.9583259435436275e7 -1.1000079985566199e7 0.0
0.0 0.0 0.0

-7.631484230009321e6 -1.347996442011802e6 0.0
-1.347996442011802e6 5.142888028720757e7 0.0
0.0 0.0 0.0

-9.566756951390907e6 1.6149407201590579e7 0.0
1.6149407201590579e7 2.142026001491928e7 0.0
0.0 0.0 0.0

2.1367861510058977e6 3.8642060466873273e6 0.0
3.8642060466873273e6 -6.470746506737104e7 0.0
0.0 0.0 0.0

-2.2516427761504776e6 2.6358387901047517e7 0.0
2.6358387901047517e7 327345.2294674717 0.0
0.0 0.0 0.0

2.665801524668038e6 2.403055058561957e6 0.0
2.403055058561957e6 -5.587147875081794e7 0.0
0.0 0.0 0.0

-2.153477655642809e7 4.161644986069376e7 0.0
4.161644986069376e7 6.70658322524915e6 0.0
0.0 0.0 0.0

-7.470623065028768e6 -1.0272487109568765e6 0.0
-1.0272487109568765e6 5.387303230052515e7 0.0
0.0 0.0 0.0

1.7354046960164197e6 1.2332378357448518e7 0.0
1.2332378357448518e7 -2.4935460309846498e7 0.0
0.0 0.0 0.0

-1.0359088141821548e7 2.338422366457533e7 0.0
2.338422366457533e7 4.673844767002e6 0.0
0.0 0.0 0.0

-4.238348863935354e7 2.636258546550446e7 0.0
2.636258546550446e7 -256253.51359692216 0.0
0.0 0.0 0.0

2.408963939192239e6 3.0544768935939563e6 0.0
3.0544768935939563e6 -6.0037282389559984e7 0.0
0.0 0.0 0.0

-3.3115463210181803e6 2.181246138555949e7 0.0
2.181246138555949e7 2.566102427449912e6 0.0
0.0 0.0 0.0

-4.023257690359788e6 2.0202012133769095e7 0.0
2.0202012133769095e7 1.2646766543762112e7 0.0
0.0 0.0 0.0

1.3706974394652855e7 1.6139172378652852e7 0.0
1.6139172378652852e7 6.578551852883248e6 0.0
0.0 0.0 0.0

-184114.1784971943 1.508985219135424e7 0.0
1.508985219135424e7 -2.2284610495331507e7 0.0
0.0 0.0 0.0

-1.6093939989249744e6 1.594538959281282e7 0.0
1.594538959281282e7 -2.301291955787424e7 0.0
0.0 0.0 0.0

-703421.8579247629 2.1573964533484757e7 0.0
2.1573964533484757e7 -7.581504445504709e6 0.0
0.0 0.0 0.0

-2.250512060059064e6 2.6838549076346938e7 0.0
2.6838549076346938e7 437119.2994120484 0.0
0.0 0.0 0.0

-1.112226709132572e7 1.0927574699345456e7 0.0
1.0927574699345456e7 2.9059879957574468e7 0.0
0.0 0.0 0.0

3.072534320242841e6 2.028335537640413e6 0.0
2.028335537640413e6 -5.0352527988064185e7 0.0
0.0 0.0 0.0

-9.996262095152505e6 3.0063566688021872e7 0.0
3.0063566688021872e7 4.714555085208644e6 0.0
0.0 0.0 0.0

4.0838614590607956e6 5.435579805524787e6 0.0
5.435579805524787e6 -1.8849337537625674e7 0.0
0.0 0.0 0.0

-1.5655773186536296e6 1.7259406868517943e7 0.0
1.7259406868517943e7 -1.520816529879655e7 0.0
0.0 0.0 0.0

2.904283870156467e6 2.296443557174235e6 0.0
2.296443557174235e6 -5.250988438823636e7 0.0
0.0 0.0 0.0

-1.8080646990549332e6 1.642609144758161e7 0.0
1.642609144758161e7 -2.0788155502172336e7 0.0
0.0 0.0 0.0

-1.0901651911744503e7 7.77243419681436e6 0.0
7.77243419681436e6 3.3447879645800225e7 0.0
0.0 0.0 0.0

-2.3142715045656036e6 2.3448694101192285e6 0.0
2.3448694101192285e6 693560.5739706601 0.0
0.0 0.0 0.0

-4.434546758150649e6 1.6352675145261472e7 0.0
1.6352675145261472e7 3.629464803459795e6 0.0
0.0 0.0 0.0

2.1366358799165394e6 1.837746168158223e7 0.0
1.837746168158223e7 2.0419296390061192e7 0.0
0.0 0.0 0.0

3.7686323225674517e6 1.7927462600734942e6 0.0
1.7927462600734942e6 -3.732115549151318e7 0.0
0.0 0.0 0.0

-4.27170696096315e6 2.2733922063149597e7 0.0
2.2733922063149597e7 9.04525378779444e6 0.0
0.0 0.0 0.0

-9.596228964102821e6 -2.414199135211254e6 0.0
-2.414199135211254e6 3.0500486950483758e7 0.0
0.0 0.0 0.0

-98467.29671688395 1.780283339250919e7 0.0
1.780283339250919e7 -200012.46175728546 0.0
0.0 0.0 0.0

1.4289826777733024e6 1.2539932533814637e7 0.0
1.2539932533814637e7 -2.3805010835534252e7 0.0
0.0 0.0 0.0

-4.8497181078633545e6 1.9133166185615987e7 0.0
1.9133166185615987e7 1.8085786758399926e7 0.0
0.0 0.0 0.0

914154.0489374958 1.7900763681438245e7 0.0
1.7900763681438245e7 2.799203850757734e7 0.0
0.0 0.0 0.0

-727173.3005959783 1.7348589888065506e7 0.0
1.7348589888065506e7 -3.822688405984507e6 0.0
0.0 0.0 0.0

-190501.54006266082 2.1403132125143323e7 0.0
2.1403132125143323e7 -7.320504556251896e6 0.0
0.0 0.0 0.0

-3.5509169499389613e6 2.35345890011434e7 0.0
2.35345890011434e7 4.448509423482105e6 0.0
0.0 0.0 0.0

-681564.3242875403 1.805586769643286e7 0.0
1.805586769643286e7 -5.912119480456593e6 0.0
0.0 0.0 0.0

1.6801341663506676e7 5.749293774446548e6 0.0
5.749293774446548e6 -2.7668866930512125e6 0.0
0.0 0.0 0.0

-7.879880664429769e6 -1.5000302891023215e6 0.0
-1.5000302891023215e6 4.906372182762982e7 0.0
0.0 0.0 0.0

5.617409631765693e6 2.019973913778719e7 0.0
2.019973913778719e7 1.0099476880231582e7 0.0
0.0 0.0 0.0

-8.439553004515164e6 -2.602339384522141e6 0.0
-2.602339384522141e6 4.1228319237454236e7 0.0
0.0 0.0 0.0

-1.0023010778951044e6 1.8326271542033248e7 0.0
1.8326271542033248e7 -859077.4650780552 0.0
0.0 0.0 0.0

-8.489293011573024e6 9.054655415578553e6 0.0
9.054655415578553e6 2.6216298732513696e7 0.0
0.0 0.0 0.0

-3.805395931611789e6 1.631775110834973e7 0.0
1.631775110834973e7 5.735376476682244e6 0.0
0.0 0.0 0.0

466499.7594874759 1.6710178684279886e6 0.0
1.6710178684279886e6 -662422.7829962489 0.0
0.0 0.0 0.0

388383.3371048613 2.184992667350189e6 0.0
2.184992667350189e6 -555421.2142584816 0.0
0.0 0.0 0.0

392367.3089062241 1.9185518016754445e7 0.0
1.9185518016754445e7 -1.182254052369945e7 0.0
0.0 0.0 0.0

-7.123001889765013e6 2.083325640136565e7 0.0
2.083325640136565e7 -3.398338087583026e6 0.0
0.0 0.0 0.0

597952.5849236157 1.947693106693558e7 0.0
1.947693106693558e7 -1.0814810292632699e7 0.0
0.0 0.0 0.0

-1.194244345291206e7 9.536479352039792e6 0.0
9.536479352039792e6 2.7393989292471528e7 0.0
0.0 0.0 0.0

-2.02410152669262e6 1.708280825622955e7 0.0
1.708280825622955e7 -1.3935367519602565e7 0.0
0.0 0.0 0.0

1.336369212322943e6 1.2107274496378934e7 0.0
1.2107274496378934e7 -2.652136935147681e7 0.0
0.0 0.0 0.0

-4.0789520752532864e6 2.220901297017748e7 0.0
2.220901297017748e7 9.868113205447476e6 0.0
0.0 0.0 0.0

1.5199709454973005e6 1.2530221688112091e7 0.0
1.2530221688112091e7 -2.236426967212694e7 0.0
0.0 0.0 0.0

-9.05920333311676e7 3.1493785367886066e7 0.0
3.1493785367886066e7 -3.071492742557328e6 0.0
0.0 0.0 0.0

489836.56823748257 1.6000411207455628e7 0.0
1.6000411207455628e7 -1.6498248698936613e7 0.0
0.0 0.0 0.0

-3.0766910188193894e6 3.0919004430218056e7 0.0
3.0919004430218056e7 1.1130953162055945e6 0.0
0.0 0.0 0.0

-46542.2664203078 1.7248440282635625e7 0.0
1.7248440282635625e7 4.943855922312531e6 0.0
0.0 0.0 0.0

-6.314215309619671e6 1.842102895753659e7 0.0
1.842102895753659e7 2.061953082418301e7 0.0
0.0 0.0 0.0

-3.859651086849121e6 1.9920753464553162e7 0.0
1.9920753464553162e7 -1.0961335053823939e7 0.0
0.0 0.0 0.0

1.0298316078344794e7 3.3669807682039365e7 0.0
3.3669807682039365e7 -5.484892362211039e6 0.0
0.0 0.0 0.0

-8.805778195553258e6 -3.3323032852666797e6 0.0
-3.3323032852666797e6 3.619309916980515e7 0.0
0.0 0.0 0.0

3.9114629134520255e6 1.9457494354762754e6 0.0
1.9457494354762754e6 -3.479746490806886e7 0.0
0.0 0.0 0.0

-788931.636819251 2.1910050865646213e7 0.0
2.1910050865646213e7 -5.375351336121807e6 0.0
0.0 0.0 0.0

-8.165646119190008e6 -4.867608781643164e6 0.0
-4.867608781643164e6 1.3741838171156295e7 0.0
0.0 0.0 0.0

3.421694818918716e6 1.88149398698585e6 0.0
1.88149398698585e6 -4.446787628795867e7 0.0
0.0 0.0 0.0

-7.999241199114488e6 -1.8376493025932547e6 0.0
-1.8376493025932547e6 4.73650113237916e7 0.0
0.0 0.0 0.0

-9.120292883374315e6 -4.759700240084946e6 0.0
-4.759700240084946e6 2.7520622908927098e7 0.0
0.0 0.0 0.0

-1.2859001491260754e6 1.675606639903833e7 0.0
1.675606639903833e7 -4.724677925708496e6 0.0
0.0 0.0 0.0

-8.734201340741068e6 -3.1044714401863357e6 0.0
-3.1044714401863357e6 3.735256282354467e7 0.0
0.0 0.0 0.0

3.8393655292011034e6 1.9846769778011544e6 0.0
1.9846769778011544e6 -3.6020835993520685e7 0.0
0.0 0.0 0.0

3.535528534770755e6 1.9446958346576395e6 0.0
1.9446958346576395e6 -4.2811202359336294e7 0.0
0.0 0.0 0.0

-8.083683093345052e6 -2.1473451681097923e6 0.0
-2.1473451681097923e6 4.57272118046563e7 0.0
0.0 0.0 0.0

-4.313827469803095e6 1.8626177752485424e7 0.0
1.8626177752485424e7 -1.2285029139827697e7 0.0
0.0 0.0 0.0

429356.4172279136 1.8665016794346653e7 0.0
1.8665016794346653e7 -1.2770144889832651e7 0.0
0.0 0.0 0.0

-3.045288646482826e6 2.3798408913631674e7 0.0
2.3798408913631674e7 4.865240878215856e6 0.0
0.0 0.0 0.0

3.583293377903728e6 1.8849695685291693e6 0.0
1.8849695685291693e6 -4.16688928885607e7 0.0
0.0 0.0 0.0

-8.186128520767039e6 -2.359463383169564e6 0.0
-2.359463383169564e6 4.393471128127542e7 0.0
0.0 0.0 0.0

-824503.2786328676 1.7190088937635113e7 0.0
1.7190088937635113e7 -3.824323343405824e6 0.0
0.0 0.0 0.0

1.7862744252938153e6 1.3315451154131135e7 0.0
1.3315451154131135e7 -2.116164989492344e7 0.0
0.0 0.0 0.0

-1.185665355339526e6 2.349718588269558e7 0.0
2.349718588269558e7 -2.698539827254299e6 0.0
0.0 0.0 0.0

-3.316699705945297e6 1.878053752047647e7 0.0
1.878053752047647e7 -649309.1749257807 0.0
0.0 0.0 0.0

-4.0844909772468116e6 1.786446790082564e7 0.0
1.786446790082564e7 2.4667170775393795e7 0.0
0.0 0.0 0.0

-8.320039341336956e6 -2.4422064849764886e6 0.0
-2.4422064849764886e6 4.246395490295033e7 0.0
0.0 0.0 0.0

3.6817275910232775e6 1.8186385893647661e6 0.0
1.8186385893647661e6 -4.0090193348646276e7 0.0
0.0 0.0 0.0

1.8785460149044932e6 2.571210019200398e7 0.0
2.571210019200398e7 -4.509140178474827e6 0.0
0.0 0.0 0.0

-76647.16340046562 1.759862550083443e7 0.0
1.759862550083443e7 3.870180899390026e7 0.0
0.0 0.0 0.0

6.2025274323635235e7 6.710561873826668e7 0.0
6.710561873826668e7 -1.6653483170172561e7 0.0
0.0 0.0 0.0

-129541.24183092685 1.0597670306235474e7 0.0
1.0597670306235474e7 -7.687130113345161e6 0.0
0.0 0.0 0.0

-2.304203922345466e6 2.6121142496898837e7 0.0
2.6121142496898837e7 1.7546890707644066e6 0.0
0.0 0.0 0.0

-8.151771413266795e6 23091.99315471731 0.0
23091.99315471731 9.834888488643315e6 0.0
0.0 0.0 0.0

-2.8812367624172624e6 2.4229179988394123e7 0.0
2.4229179988394123e7 4.0973932059268877e6 0.0
0.0 0.0 0.0

3.528825254745541e6 3.0083579594222433e6 0.0
3.0083579594222433e6 -1.2022308686868537e7 0.0
0.0 0.0 0.0

7.608156247441298e6 2.3584559849938814e7 0.0
2.3584559849938814e7 -4.825625559440922e6 0.0
0.0 0.0 0.0

1.286492500169361e6 2.2358968428735573e7 0.0
2.2358968428735573e7 -7.117517206150122e6 0.0
0.0 0.0 0.0

-8.292159721340457e6 1.5738456040226597e7 0.0
1.5738456040226597e7 1.5358977271955725e7 0.0
0.0 0.0 0.0

-1.0611128698358703e6 1.895007605332051e7 0.0
1.895007605332051e7 -1.1451463186372097e6 0.0
0.0 0.0 0.0

-6.257543243678421e6 813.3650581313092 0.0
813.3650581313092 5.9422390146258615e7 0.0
0.0 0.0 0.0

804773.6305161492 3.823885478448064e6 0.0
3.823885478448064e6 -1.9512745787365392e6 0.0
0.0 0.0 0.0

-4.573131462102199e6 -657631.4244326727 0.0
-657631.4244326727 2.0382605028736023e6 0.0
0.0 0.0 0.0

987741.2999495309 -1.7625583208777658e6 0.0
-1.7625583208777658e6 -2.376509362080447e6 0.0
0.0 0.0 0.0

1.8153964401715896e6 2.25977092162929e7 0.0
2.25977092162929e7 -6.75734206420427e6 0.0
0.0 0.0 0.0

-4.453070998220487e6 1.5010480927048247e7 0.0
1.5010480927048247e7 -4.426057750176149e7 0.0
0.0 0.0 0.0

2.574880587226416e6 1.7742096074229844e7 0.0
1.7742096074229844e7 2.4383460521960314e7 0.0
0.0 0.0 0.0

-2.5571938880494367e6 1.8041589219058752e7 0.0
1.8041589219058752e7 -1.042072525760162e7 0.0
0.0 0.0 0.0

4.466362908163303e6 2.570655607105012e6 0.0
2.570655607105012e6 -2.183322576186108e7 0.0
0.0 0.0 0.0

-1.4520775590253521e6 1.5791198689681444e7 0.0
1.5791198689681444e7 -3.9135627077244557e6 0.0
0.0 0.0 0.0

64130.68226482021 1.843755156202297e7 0.0
1.843755156202297e7 -1.2203577010413911e7 0.0
0.0 0.0 0.0

-2.3428809369265204e6 1.4363583281039078e7 0.0
1.4363583281039078e7 -3.200245151591155e7 0.0
0.0 0.0 0.0

-708183.3592512844 2.4132865149647992e7 0.0
2.4132865149647992e7 -3.0318142991377143e6 0.0
0.0 0.0 0.0

-5.622995322893652e6 1.8547956019529466e7 0.0
1.8547956019529466e7 1.9462278498714108e7 0.0
0.0 0.0 0.0

-1.1145319696432622e6 1.6249234399702461e7 0.0
1.6249234399702461e7 -3.1698798283518143e6 0.0
0.0 0.0 0.0

-44124.266767727444 1.8090699684757e7 0.0
1.8090699684757e7 2.504230431278556e6 0.0
0.0 0.0 0.0

-4.457915984938633e6 1.5373677103022896e7 0.0
1.5373677103022896e7 -2.2286591188349023e7 0.0
0.0 0.0 0.0

-1.900472984597678e7 2.5890568105362266e7 0.0
2.5890568105362266e7 -2.8073766918310183e6 0.0
0.0 0.0 0.0

8.99123679663282e6 3.6454098084281616e7 0.0
3.6454098084281616e7 -4.306747843899413e6 0.0
0.0 0.0 0.0

-943848.2077332233 993994.1567098269 0.0
993994.1567098269 1.9091066949832742e6 0.0
0.0 0.0 0.0

-872112.9010444494 479794.6327669833 0.0
479794.6327669833 1.7810690696162092e6 0.0
0.0 0.0 0.0

-5.466176806002886e6 1.9200848282513075e7 0.0
1.9200848282513075e7 1.7460185003626466e7 0.0
0.0 0.0 0.0

-1.75389960547868e6 2.113441351609247e7 0.0
2.113441351609247e7 -5.637648593469431e6 0.0
0.0 0.0 0.0

-1.9260339509956997e6 2.691687619145215e7 0.0
2.691687619145215e7 1.5089807855482413e6 0.0
0.0 0.0 0.0

-2.703853417004305e6 2.4610720197502825e7 0.0
2.4610720197502825e7 3.3845681491479883e6 0.0
0.0 0.0 0.0

9.13409033158525e6 1.9585159216149326e7 0.0
1.9585159216149326e7 7.792928917738897e6 0.0
0.0 0.0 0.0

2.360602004614024e6 1.9346342606833823e7 0.0
1.9346342606833823e7 -4.893000150440338e6 0.0
0.0 0.0 0.0

1.9750684715629779e6 1.7044858722926613e7 0.0
1.7044858722926613e7 4.306163072309558e7 0.0
0.0 0.0 0.0

-3.831863116002185e7 2.6077322488858152e7 0.0
2.6077322488858152e7 -9.974023124809893e6 0.0
0.0 0.0 0.0

-1.0398868010280009e8 3.48367502425003e7 0.0
3.48367502425003e7 5.675827517545506e6 0.0
0.0 0.0 0.0

-7.89607606947576e6 1.4908623872086644e7 0.0
1.4908623872086644e7 1.3210852615270505e7 0.0
0.0 0.0 0.0

-3.5579294189283624e6 1.9695721337715916e7 0.0
1.9695721337715916e7 1.4564784974396141e7 0.0
0.0 0.0 0.0

3.5576275116695305e6 5.172156555560051e6 0.0
5.172156555560051e6 -2.034686177513152e7 0.0
0.0 0.0 0.0

-8.84465310162479e6 1.610165017204461e7 0.0
1.610165017204461e7 1.961985244301653e7 0.0
0.0 0.0 0.0

-4.848948922575385e6 -6.415980064554485e6 0.0
-6.415980064554485e6 1.087175080458843e7 0.0
0.0 0.0 0.0

6.883117587029709e6 2.0859987066176914e7 0.0
2.0859987066176914e7 1.0985137329888139e7 0.0
0.0 0.0 0.0

-1.441370695496643e6 1.458959882050001e7 0.0
1.458959882050001e7 -3.0965799322333016e7 0.0
0.0 0.0 0.0

4.227051722011063e6 4.579329582988987e6 0.0
4.579329582988987e6 -2.527538594058223e7 0.0
0.0 0.0 0.0

4.1103120985618383e6 1.8746289295823082e7 0.0
1.8746289295823082e7 5.22033914869203e6 0.0
0.0 0.0 0.0

-3.1040062426113933e6 3.9443732861322393e6 0.0
3.9443732861322393e6 7.738880625845648e7 0.0
0.0 0.0 0.0

-4.305276737838004e6 2.580509283028273e7 0.0
2.580509283028273e7 5.812625235810687e6 0.0
0.0 0.0 0.0

-1.5402828402062336e7 2.2709140041438676e7 0.0
2.2709140041438676e7 974566.1620776383 0.0
0.0 0.0 0.0

616082.0054130638 2.1354394800896905e7 0.0
2.1354394800896905e7 -8.341721809848159e6 0.0
0.0 0.0 0.0

-8.938736444490671e6 -5.550455414499914e6 0.0
-5.550455414499914e6 2.481769580492098e7 0.0
0.0 0.0 0.0

-68200.16820105608 1.6873881128717132e7 0.0
1.6873881128717132e7 5.834465510955343e6 0.0
0.0 0.0 0.0

-8.891214863902558e6 -3.765627542950955e6 0.0
-3.765627542950955e6 3.30442794570585e7 0.0
0.0 0.0 0.0

4.113848948589119e6 1.9630767193819806e7 0.0
1.9630767193819806e7 5.04289010822337e6 0.0
0.0 0.0 0.0

-2.7795798318553786e6 2.0593845075150855e7 0.0
2.0593845075150855e7 1.0113214356119061e6 0.0
0.0 0.0 0.0

4.42471923335756e6 3.227595502726735e6 0.0
3.227595502726735e6 -2.7789712753123447e7 0.0
0.0 0.0 0.0

-4.247089109864043e6 1.9205981286215916e7 0.0
1.9205981286215916e7 -1.154532150859143e7 0.0
0.0 0.0 0.0

4.3821972508539725e6 2.6938912032003724e6 0.0
2.6938912032003724e6 -1.9712677649024278e7 0.0
0.0 0.0 0.0

427540.6723971069 1.559763072133988e7 0.0
1.559763072133988e7 -1.915229072384132e7 0.0
0.0 0.0 0.0

-5.276004956481295e6 3.0628565154166743e7 0.0
3.0628565154166743e7 2.979688246569587e6 0.0
0.0 0.0 0.0

-308171.18701524514 1.4761827500656467e7 0.0
1.4761827500656467e7 -127413.35944746979 0.0
0.0 0.0 0.0

-597100.4164359197 2.0957182460768715e7 0.0
2.0957182460768715e7 -8.477514613728376e6 0.0
0.0 0.0 0.0

-3.9658655959947444e6 2.9119642888607994e7 0.0
2.9119642888607994e7 2.3316791896800203e6 0.0
0.0 0.0 0.0

-3.1530992561893114e6 2.3374509561475564e7 0.0
2.3374509561475564e7 5.7673492008024845e6 0.0
0.0 0.0 0.0

-3.2345219202993577e6 2.42848743291962e7 0.0
2.42848743291962e7 2.862380822765679e6 0.0
0.0 0.0 0.0

-1.0036220109008641e6 2.8895696177667532e7 0.0
2.8895696177667532e7 -559490.839117341 0.0
0.0 0.0 0.0

30078.95085601043 2.0268221454696428e7 0.0
2.0268221454696428e7 -9.236440124868963e6 0.0
0.0 0.0 0.0

-3.581080733100718e6 3.1672239665587805e7 0.0
3.1672239665587805e7 1.3482261762164163e6 0.0
0.0 0.0 0.0

-1.0985301255129477e7 1.1070097607817905e7 0.0
1.1070097607817905e7 1.540503234186557e7 0.0
0.0 0.0 0.0

1.1079118945998764e6 1.295970238354264e7 0.0
1.295970238354264e7 -1.5215066171299731e7 0.0
0.0 0.0 0.0

-1.0283479121042017e7 -2.6603760312683047e6 0.0
-2.6603760312683047e6 1.975329267223549e7 0.0
0.0 0.0 0.0

-1.1250845799527729e7 2.4485027865414873e7 0.0
2.4485027865414873e7 4.804993439278411e6 0.0
0.0 0.0 0.0

-8.701141055628242e6 -152078.77916524053 0.0
-152078.77916524053 4.374979649862398e7 0.0
0.0 0.0 0.0

1.6620053836713019e6 2.661769100381561e7 0.0
2.661769100381561e7 -3.937462432682008e6 0.0
0.0 0.0 0.0

842554.7414317895 1.5567446477793222e7 0.0
1.5567446477793222e7 -1.9129298433276117e7 0.0
0.0 0.0 0.0

392446.8165069206 1.8786615229191862e7 0.0
1.8786615229191862e7 7.281413681108457e6 0.0
0.0 0.0 0.0

-895400.9675617977 1.5283476268578678e7 0.0
1.5283476268578678e7 -9.568641669533499e6 0.0
0.0 0.0 0.0

1.0211382321216427e6 1.3305350486467486e7 0.0
1.3305350486467486e7 -2.627596496782797e7 0.0
0.0 0.0 0.0

3.502423846683057e6 4.122500525497484e6 0.0
4.122500525497484e6 -1.4365666656942794e7 0.0
0.0 0.0 0.0

2.505938762411356e6 2.2723384258239344e7 0.0
2.2723384258239344e7 -6.414386665391791e6 0.0
0.0 0.0 0.0

-262550.55522627477 1.8421689475356016e7 0.0
1.8421689475356016e7 5.472713132834498e6 0.0
0.0 0.0 0.0

-3.1316444152327576e6 1.826684671295678e7 0.0
1.826684671295678e7 -1.7918765661036186e6 0.0
0.0 0.0 0.0

3.1894614701101556e6 1.8934003259891118e6 0.0
1.8934003259891118e6 -4.8194143412225e7 0.0
0.0 0.0 0.0

-1.1052329827151477e7 3.137949400362825e6 0.0
3.137949400362825e6 2.087723233378717e7 0.0
0.0 0.0 0.0

2.731005644240942e6 4.101688651619714e6 0.0
4.101688651619714e6 -4.807348784645857e7 0.0
0.0 0.0 0.0

-7.478069803673315e6 -6.723614449111261e6 0.0
-6.723614449111261e6 1.6753940132407056e7 0.0
0.0 0.0 0.0

-3.0989241928406884e6 2.0444404660501894e7 0.0
2.0444404660501894e7 -322940.5181616839 0.0
0.0 0.0 0.0

-482227.0660509905 1.845957012612291e7 0.0
1.845957012612291e7 3.1750767416001265e6 0.0
0.0 0.0 0.0

78366.70151405386 1.840889824401403e7 0.0
1.840889824401403e7 5.118680671888807e6 0.0
0.0 0.0 0.0

-7.261032567746251e6 1.4581379334526885e7 0.0
1.4581379334526885e7 1.5629919365855876e7 0.0
0.0 0.0 0.0

-9.104729015182422e6 -4.40853579263737e6 0.0
-4.40853579263737e6 2.815583122096281e7 0.0
0.0 0.0 0.0

3.279544900569128e6 2.429560317421847e7 0.0
2.429560317421847e7 -5.411965941019978e6 0.0
0.0 0.0 0.0

3.8623137388968784e6 1.963843721730551e7 0.0
1.963843721730551e7 1.4007485898477348e7 0.0
0.0 0.0 0.0

2.778954247911347e6 8.35516587129742e6 0.0
8.35516587129742e6 -2.2725274239833917e7 0.0
0.0 0.0 0.0

-9.397932745977761e6 -2.719031041567672e6 0.0
-2.719031041567672e6 3.024205100818808e7 0.0
0.0 0.0 0.0

2.144183006912607e6 1.938649017520991e7 0.0
1.938649017520991e7 1.0867780334262628e7 0.0
0.0 0.0 0.0

-5.035583800053533e6 1.5769177695387796e7 0.0
1.5769177695387796e7 3.556388181544135e7 0.0
0.0 0.0 0.0

4.4665302243626565e6 2.0306539074326694e7 0.0
2.0306539074326694e7 1.0729719668651601e7 0.0
0.0 0.0 0.0

-3.5748068393480536e6 1.4501181714573156e7 0.0
1.4501181714573156e7 -4.161271488455801e7 0.0
0.0 0.0 0.0

-4.793962797209985e6 1.8455269475866586e7 0.0
1.8455269475866586e7 2.192090340657992e7 0.0
0.0 0.0 0.0

-65362.02266560029 1.7728624355865728e7 0.0
1.7728624355865728e7 1.6343100439108765e7 0.0
0.0 0.0 0.0

865425.0240870495 1.987587433953206e7 0.0
1.987587433953206e7 -1.0329395036651846e7 0.0
0.0 0.0 0.0

-2.2291774756669714e6 1.948388814454388e7 0.0
1.948388814454388e7 -5.031302147003435e6 0.0
0.0 0.0 0.0

2.132666072716713e6 8.032787874653103e6 0.0
8.032787874653103e6 -3.576065199475844e7 0.0
0.0 0.0 0.0

2.260484814035099e6 7.282539212169521e6 0.0
7.282539212169521e6 -3.7549737535775445e7 0.0
0.0 0.0 0.0

-38459.72647267813 1.4978832533405889e7 0.0
1.4978832533405889e7 -9.091898500257399e6 0.0
0.0 0.0 0.0

-9.02062247504195e6 1.6246241168323768e7 0.0
1.6246241168323768e7 2.5515290826894935e7 0.0
0.0 0.0 0.0

81113.6061920328 1.8654329213516116e7 0.0
1.8654329213516116e7 -1.269131458130645e7 0.0
0.0 0.0 0.0

-6.899239067240741e6 2.8069730406409455e6 0.0
2.8069730406409455e6 5.659834699759088e7 0.0
0.0 0.0 0.0

-1.0581247105646618e6 1.4323877682141941e7 0.0
1.4323877682141941e7 -3.237554175457492e7 0.0
0.0 0.0 0.0

-278190.2301648725 1.429967345865878e7 0.0
1.429967345865878e7 5.022515133697641e7 0.0
0.0 0.0 0.0

3.314447051346021e6 1.9905477854992603e6 0.0
1.9905477854992603e6 -4.624120553648628e7 0.0
0.0 0.0 0.0

31467.070278211962 2.1188115314554956e7 0.0
2.1188115314554956e7 -8.345920457163132e6 0.0
0.0 0.0 0.0

3.435715861547488e6 2.0071026148907952e7 0.0
2.0071026148907952e7 1.143417725760581e7 0.0
0.0 0.0 0.0

-4.98251342857027e6 1.5721069698265148e7 0.0
1.5721069698265148e7 -3.800359287538668e7 0.0
0.0 0.0 0.0

8.063413598862976e6 1.0590761547677975e7 0.0
1.0590761547677975e7 1.3561962057040185e6 0.0
0.0 0.0 0.0

-1.5500592910468522e6 1.871869102490479e7 0.0
1.871869102490479e7 -6.346442003707491e6 0.0
0.0 0.0 0.0

2.6827035352867004e6 1.969954032105557e7 0.0
1.969954032105557e7 1.1938036539550684e7 0.0
0.0 0.0 0.0

-3.81559959863427e6 2.053265315264974e7 0.0
2.053265315264974e7 9.981401217085639e6 0.0
0.0 0.0 0.0

-4.045556239833314e6 1.9629730439986315e7 0.0
1.9629730439986315e7 1.5042692905087763e7 0.0
0.0 0.0 0.0

857059.7753908988 1.1852336822680686e7 0.0
1.1852336822680686e7 -1.3449596330172231e7 0.0
0.0 0.0 0.0

-1.0955600391404007e7 1.5061458848192187e7 0.0
1.5061458848192187e7 2.3650810934155338e7 0.0
0.0 0.0 0.0

-2.755052129212264e6 1.4076229467851656e7 0.0
1.4076229467851656e7 -3.8893873782431684e7 0.0
0.0 0.0 0.0

-1.9741571118780621e6 1.857752066847187e7 0.0
1.857752066847187e7 -9.604068160494654e6 0.0
0.0 0.0 0.0

-6.042245648270344e6 2.129216377732719e7 0.0
2.129216377732719e7 5.846117572032241e6 0.0
0.0 0.0 0.0

597208.91534553 1.056927600516831e7 0.0
1.056927600516831e7 -8.031536883669272e6 0.0
0.0 0.0 0.0

-5.768307881057534e6 5.49309734057001e6 0.0
5.49309734057001e6 7.44415158039439e7 0.0
0.0 0.0 0.0

-5.623370510046886e6 1.5625951616335649e7 0.0
1.5625951616335649e7 -4.7270231738151625e7 0.0
0.0 0.0 0.0

-4.116059592616953e6 1.78279147523966e7 0.0
1.78279147523966e7 2.4619075013524123e7 0.0
0.0 0.0 0.0

-2.1936806491140234e6 2.735454399309416e7 0.0
2.735454399309416e7 535366.6630515897 0.0
0.0 0.0 0.0

1.4675893717945153e7 1.9893831116731185e7 0.0
1.9893831116731185e7 6.485384614038466e6 0.0
0.0 0.0 0.0

-2.4361401395379175e6 1.7475191081804194e7 0.0
1.7475191081804194e7 3.1013941677703314e7 0.0
0.0 0.0 0.0

-5.2701426009119665e6 1.892678729640279e7 0.0
1.892678729640279e7 1.742590776239734e7 0.0
0.0 0.0 0.0

703168.7282612612 1.3879192997577082e7 0.0
1.3879192997577082e7 -1.48647752294721e7 0.0
0.0 0.0 0.0

-2.436903899262583e6 1.7820742631573677e7 0.0
1.7820742631573677e7 -1.108175432416843e7 0.0
0.0 0.0 0.0

-6.372758844144694e6 1.7335486673845854e7 0.0
1.7335486673845854e7 1.3201886447630618e7 0.0
0.0 0.0 0.0

-6.657502044385784e6 1.6086885976245318e7 0.0
1.6086885976245318e7 1.5849085579154316e7 0.0
0.0 0.0 0.0

3.921144109624438e6 3.3050708057532758e6 0.0
3.3050708057532758e6 -2.5945083380979564e7 0.0
0.0 0.0 0.0

-4.10476128207656e6 2.283575473797634e7 0.0
2.283575473797634e7 9.202339017160702e6 0.0
0.0 0.0 0.0

-1.3046041677834988e6 1.5058323655862851e7 0.0
1.5058323655862851e7 -2.5135153876296454e6 0.0
0.0 0.0 0.0

4.546254218776752e6 3.6027724715068843e6 0.0
3.6027724715068843e6 -1.892408599215405e7 0.0
0.0 0.0 0.0

567999.7294015172 2.579324647581003e7 0.0
2.579324647581003e7 -3.9556889326452264e6 0.0
0.0 0.0 0.0

4.246042332707508e6 2.02154469359239e7 0.0
2.02154469359239e7 1.2565090252850322e7 0.0
0.0 0.0 0.0

-7.839506884895578e6 1.1024078269504495e6 0.0
1.1024078269504495e6 4.95034829021761e7 0.0
0.0 0.0 0.0

6.2969690885409685e6 2.125693855572e7 0.0
2.125693855572e7 9.781913967938479e6 0.0
0.0 0.0 0.0

4.1276874161562687e6 2.00654064081852e7 0.0
2.00654064081852e7 7.57199454416231e6 0.0
0.0 0.0 0.0

-118129.43446428794 1.770296702132948e7 0.0
1.770296702132948e7 -1.2523900928655058e7 0.0
0.0 0.0 0.0

3.7129574269048497e6 3.2165432293856824e6 0.0
3.2165432293856824e6 -3.395244903316076e7 0.0
0.0 0.0 0.0

1.9804530824994668e6 1.6491426727515256e7 0.0
1.6491426727515256e7 1.0451068195008395e7 0.0
0.0 0.0 0.0

150138.3930552937 1.8092526723812535e7 0.0
1.8092526723812535e7 -1.145415828860326e7 0.0
0.0 0.0 0.0

607976.2586419554 1.8501180523226753e7 0.0
1.8501180523226753e7 8.472338475517325e6 0.0
0.0 0.0 0.0

-1.0492157139632735e7 5.079584703967182e6 0.0
5.079584703967182e6 1.6279599063528804e7 0.0
0.0 0.0 0.0

-6.089349205411751e6 -6.6854647960139075e6 0.0
-6.6854647960139075e6 1.5292061949961957e7 0.0
0.0 0.0 0.0

-4.714018724649284e6 2.0620772126788426e7 0.0
2.0620772126788426e7 3.7149653183569284e6 0.0
0.0 0.0 0.0

1.2549640893236008e6 1.3815503488448337e7 0.0
1.3815503488448337e7 -2.265763528207253e7 0.0
0.0 0.0 0.0

-2.684398795078013e6 1.680306378642232e7 0.0
1.680306378642232e7 -1.4969224912550122e7 0.0
0.0 0.0 0.0

-6.124932561954241e6 1.9932963100751142e6 0.0
1.9932963100751142e6 7.223498153476132e7 0.0
0.0 0.0 0.0

-4.442741401979533e6 3.2507306002758514e7 0.0
3.2507306002758514e7 1.5162996294376687e6 0.0
0.0 0.0 0.0

991156.0609143437 5.636054327904724e6 0.0
5.636054327904724e6 -3.3935734161384436e6 0.0
0.0 0.0 0.0

-1.027613622492292e6 1.8629057372974634e7 0.0
1.8629057372974634e7 1.0603252038635982e6 0.0
0.0 0.0 0.0

1.6877918279560392e6 1.9361563616373364e7 0.0
1.9361563616373364e7 1.0687308481307933e7 0.0
0.0 0.0 0.0

-9.3495078056347e6 1.6521990135786638e7 0.0
1.6521990135786638e7 2.3280682430450004e7 0.0
0.0 0.0 0.0

-1.240176236734941e7 2.4028402856899537e7 0.0
2.4028402856899537e7 3.1180947398840543e6 0.0
0.0 0.0 0.0

2.812749481132015e6 2.013666743103868e7 0.0
2.013666743103868e7 8.681244382677982e6 0.0
0.0 0.0 0.0

1.0927269995828136e6 1.9888333417172648e7 0.0
1.9888333417172648e7 1.0041943633899717e7 0.0
0.0 0.0 0.0

457130.816350217 1.731109933418019e7 0.0
1.731109933418019e7 -1.5866679074999157e7 0.0
0.0 0.0 0.0

2.4083754151728954e6 5.355133546164801e6 0.0
5.355133546164801e6 -1.1335861187818807e7 0.0
0.0 0.0 0.0

-540852.9747941224 1.7734852528306324e7 0.0
1.7734852528306324e7 -1.4145850566504018e7 0.0
0.0 0.0 0.0

-346227.6100548338 1.9801822388668295e7 0.0
1.9801822388668295e7 -1.0298041778646685e7 0.0
0.0 0.0 0.0

-2.98979164314467e6 2.2606251882236823e7 0.0
2.2606251882236823e7 5.016759013699945e6 0.0
0.0 0.0 0.0

986321.0654663458 2.0717031069602843e7 0.0
2.0717031069602843e7 -8.761935383198954e6 0.0
0.0 0.0 0.0

527477.8982009343 2.0024121156632934e7 0.0
2.0024121156632934e7 -9.556588319179868e6 0.0
0.0 0.0 0.0

3.9892863868548144e6 4.12828797470032e6 0.0
4.12828797470032e6 -3.0636728666658055e7 0.0
0.0 0.0 0.0

1.940021472670027e6 1.9300093499548852e7 0.0
1.9300093499548852e7 6.225973184273422e6 0.0
0.0 0.0 0.0

-493221.11501929443 2.03549328587257e7 0.0
2.03549328587257e7 -9.340424169899657e6 0.0
0.0 0.0 0.0

-1.2001266984949393e7 1.2912079575346652e7 0.0
1.2912079575346652e7 1.982278993597512e7 0.0
0.0 0.0 0.0

-7.73562197421105e7 2.8892240504587043e7 0.0
2.8892240504587043e7 -5.25334183031987e6 0.0
0.0 0.0 0.0

2.6751989478847425e7 2.7958260508200414e7 0.0
2.7958260508200414e7 8.917348358993028e7 0.0
0.0 0.0 0.0

-2.524793594211867e7 2.5696152020895887e7 0.0
2.5696152020895887e7 -8.415995804824784e7 0.0
0.0 0.0 0.0

-5.905589456154358e6 1.8335513093494974e7 0.0
1.8335513093494974e7 2.0556829509681527e7 0.0
0.0 0.0 0.0

1.2422769051100947e6 1.3531040671069596e7 0.0
1.3531040671069596e7 -2.002703429077518e7 0.0
0.0 0.0 0.0

-3.031947540249029e6 1.8788074942367967e7 0.0
1.8788074942367967e7 -1.120305140262402e7 0.0
0.0 0.0 0.0

1.1492692132344702e6 3.2643092917140797e7 0.0
3.2643092917140797e7 -2.2403776831000326e6 0.0
0.0 0.0 0.0

-1.212218579893859e6 1.6206897936441176e7 0.0
1.6206897936441176e7 -1.880510377720957e7 0.0
0.0 0.0 0.0

-3.493927685629828e6 1.9758703083370965e7 0.0
1.9758703083370965e7 -6.609182788574972e6 0.0
0.0 0.0 0.0

-1.0929720347221248e7 1.4934573378221339e7 0.0
1.4934573378221339e7 2.0525838678685308e7 0.0
0.0 0.0 0.0

-1.6677529626480339e6 2.3010739558579296e7 0.0
2.3010739558579296e7 -1.583015242011664e6 0.0
0.0 0.0 0.0

-1.728053890692031e6 1.5204237619644178e7 0.0
1.5204237619644178e7 -2.85748147114128e7 0.0
0.0 0.0 0.0

-1.292591115248275e6 1.8704508585009307e7 0.0
1.8704508585009307e7 -6.154266799020731e6 0.0
0.0 0.0 0.0

-4.509089365475285e6 2.0562594573698778e7 0.0
2.0562594573698778e7 1.1056735696221285e7 0.0
0.0 0.0 0.0

1.4023635358643917e7 1.993316803664979e7 0.0
1.993316803664979e7 -1.262003755706707e6 0.0
0.0 0.0 0.0

290706.23296172265 1.786053896523951e7 0.0
1.786053896523951e7 6.237175764825717e6 0.0
0.0 0.0 0.0

-5.832018417135401e6 1.8552285608095605e7 0.0
1.8552285608095605e7 1.861013114363237e7 0.0
0.0 0.0 0.0

-1.836144113571796e7 2.279135530651495e7 0.0
2.279135530651495e7 -1.1709687590272743e6 0.0
0.0 0.0 0.0

125392.96504721232 1.8127237421487916e7 0.0
1.8127237421487916e7 6.279035079830327e6 0.0
0.0 0.0 0.0

1.1025988623876758e6 2.621369928045094e7 0.0
2.621369928045094e7 -3.810375892041385e6 0.0
0.0 0.0 0.0

6.547935983981673e6 2.393909352675715e7 0.0
2.393909352675715e7 -5.374315384761641e6 0.0
0.0 0.0 0.0

1.680326517465569e6 1.2959456707487954e7 0.0
1.2959456707487954e7 -1.544027481918679e7 0.0
0.0 0.0 0.0

-6.327373664506527e6 1.7512925159895115e7 0.0
1.7512925159895115e7 2.4580192029033035e7 0.0
0.0 0.0 0.0

-155385.65277029853 1.6939193789031215e7 0.0
1.6939193789031215e7 -1.633613278655783e7 0.0
0.0 0.0 0.0

-3.51813379999694e6 1.682449772592533e7 0.0
1.682449772592533e7 4.390415831083924e6 0.0
0.0 0.0 0.0

-7.301255792762156e6 1.7144389830339935e7 0.0
1.7144389830339935e7 1.562607323353865e7 0.0
0.0 0.0 0.0

2.1094082848855397e6 7.190418629038086e6 0.0
7.190418629038086e6 -8.603674224666271e6 0.0
0.0 0.0 0.0

419850.8103430448 1.7505591499203306e7 0.0
1.7505591499203306e7 8.446102853235416e6 0.0
0.0 0.0 0.0

3.0840465423281924e6 2.344701640479755e7 0.0
2.344701640479755e7 -5.8734996922888e6 0.0
0.0 0.0 0.0

41546.936753388494 1.0697413052141951e7 0.0
1.0697413052141951e7 -5.390949201822543e7 0.0
0.0 0.0 0.0

-1.2159096952345874e7 1.2230565891255422e7 0.0
1.2230565891255422e7 1.9143646601401493e7 0.0
0.0 0.0 0.0

1.5040633956402345e7 3.470698056407251e7 0.0
3.470698056407251e7 -6.6665443108307915e6 0.0
0.0 0.0 0.0

3.0215539393957425e6 7.439649452440154e6 0.0
7.439649452440154e6 -3.493794216339328e7 0.0
0.0 0.0 0.0

148812.8877039845 1.7338888823899984e7 0.0
1.7338888823899984e7 6.7140674985375935e6 0.0
0.0 0.0 0.0

1.0901955590176224e6 2.1666517373139635e7 0.0
2.1666517373139635e7 -7.80198753145446e6 0.0
0.0 0.0 0.0

1.1446985690579765e7 2.192100217353963e7 0.0
2.192100217353963e7 1.2801205290775676e8 0.0
0.0 0.0 0.0

-1.2271036508188631e7 2.0994064706716154e7 0.0
2.0994064706716154e7 -1.1551011943938945e8 0.0
0.0 0.0 0.0

2.3201865125690386e7 1.843790955775919e7 0.0
1.843790955775919e7 4.821469899132358e6 0.0
0.0 0.0 0.0

7.966910628883401e6 2.336353827943398e7 0.0
2.336353827943398e7 -5.231344026211288e6 0.0
0.0 0.0 0.0

649840.941050943 1.005966209317085e7 0.0
1.005966209317085e7 -7.178680840233824e6 0.0
0.0 0.0 0.0

1.5496198255806066e7 3.123607442298359e7 0.0
3.123607442298359e7 -6.902171696065748e6 0.0
0.0 0.0 0.0

-2.6082640390176633e6 1.901444645320122e7 0.0
1.901444645320122e7 1.7588760939222787e7 0.0
0.0 0.0 0.0

1.1451438733003499e7 1.969623948386937e7 0.0
1.969623948386937e7 -971546.6636712397 0.0
0.0 0.0 0.0

-3.839363979331056e6 2.2118132104491666e7 0.0
2.2118132104491666e7 7.140998476932041e6 0.0
0.0 0.0 0.0

-6.121174062462519e6 1.534655760658959e7 0.0
1.534655760658959e7 1.3929502129535366e7 0.0
0.0 0.0 0.0

342045.97234379384 3.9287830151273604e6 0.0
3.9287830151273604e6 -3.773474124723831e6 0.0
0.0 0.0 0.0

4.766056808632452e6 2.003809886049156e7 0.0
2.003809886049156e7 1.3423544258513464e7 0.0
0.0 0.0 0.0

-887856.6568387878 2.2827055968362927e7 0.0
2.2827055968362927e7 -5.40212345685216e6 0.0
0.0 0.0 0.0

-6.057778570595716e6 1.823489878810469e7 0.0
1.823489878810469e7 2.1675887146646798e7 0.0
0.0 0.0 0.0

-5.180151591142761e6 2.313358335060924e7 0.0
2.313358335060924e7 8.740020071081905e6 0.0
0.0 0.0 0.0

-3.2867618123692693e6 2.1774176285888977e7 0.0
2.1774176285888977e7 7.7668246229010355e6 0.0
0.0 0.0 0.0

-1.7694096771040799e6 1.6208549261190606e7 0.0
1.6208549261190606e7 -5.716705279177992e6 0.0
0.0 0.0 0.0

-3.805790815905351e6 1.76867130110852e7 0.0
1.76867130110852e7 2.5824883747132532e7 0.0
0.0 0.0 0.0

-3.5288693370786e6 2.250209879212362e7 0.0
2.250209879212362e7 8.360468623635272e6 0.0
0.0 0.0 0.0

-4.777908214808108e6 1.2110068345306182e7 0.0
1.2110068345306182e7 7.479052374152582e6 0.0
0.0 0.0 0.0

-3.452739718594326e7 2.8948766430873286e7 0.0
2.8948766430873286e7 -1.3877083772914615e6 0.0
0.0 0.0 0.0

-8.005334377072517e6 3.801189720519601e6 0.0
3.801189720519601e6 4.940851624399694e7 0.0
0.0 0.0 0.0

-6.812597682658522e6 2.3464273526780836e7 0.0
2.3464273526780836e7 7.423119237910141e6 0.0
0.0 0.0 0.0

-6.701155485384824e6 2.7771684046187367e7 0.0
2.7771684046187367e7 5.696807754947487e6 0.0
0.0 0.0 0.0

-304496.56398494914 1.4699456378314074e7 0.0
1.4699456378314074e7 -2.576128155589549e7 0.0
0.0 0.0 0.0

-2.420288281668699e6 3.009432545943505e7 0.0
3.009432545943505e7 1.8008342040128869e6 0.0
0.0 0.0 0.0

-5.767909232864301e6 3.352942845564765e7 0.0
3.352942845564765e7 1.5715040558837214e6 0.0
0.0 0.0 0.0

-7.1268647173523e6 3.449907489414223e7 0.0
3.449907489414223e7 1.9508793943655738e6 0.0
0.0 0.0 0.0

-1.405233720741989e6 2.4807028420533907e7 0.0
2.4807028420533907e7 -2.509550507641088e6 0.0
0.0 0.0 0.0

-1.1108783198422527e7 1.2157683251686085e7 0.0
1.2157683251686085e7 2.775355738331252e7 0.0
0.0 0.0 0.0

4.233208202283815e6 2.16806632105566e6 0.0
2.16806632105566e6 -2.8639360330923244e7 0.0
0.0 0.0 0.0

-4.608365968276813e6 1.8287295752331655e7 0.0
1.8287295752331655e7 2.2698910939451456e7 0.0
0.0 0.0 0.0

850482.4510063322 2.694820072376593e7 0.0
2.694820072376593e7 -3.220183337137851e6 0.0
0.0 0.0 0.0

474535.21229077876 1.516546150525069e7 0.0
1.516546150525069e7 -2.0309447184774306e7 0.0
0.0 0.0 0.0

-8.943885174009057e6 -1.3970684716755152e6 0.0
-1.3970684716755152e6 3.8443463586617894e7 0.0
0.0 0.0 0.0

225859.18296516905 1.8251047078555908e7 0.0
1.8251047078555908e7 1.212741998378325e6 0.0
0.0 0.0 0.0

301063.27537110634 1.8530623124961592e7 0.0
1.8530623124961592e7 -1.0590817851457639e7 0.0
0.0 0.0 0.0

-312816.53882633895 1.730964007212582e7 0.0
1.730964007212582e7 -1.3530821192563782e7 0.0
0.0 0.0 0.0

-2.8877564888405614e6 1.5271918398986353e7 0.0
1.5271918398986353e7 -1.2956833911823932e7 0.0
0.0 0.0 0.0

-8.427937481135162e6 -4.832783107199299e6 0.0
-4.832783107199299e6 1.5221369102682918e7 0.0
0.0 0.0 0.0

-277919.8595977509 1.6423497667307155e7 0.0
1.6423497667307155e7 -2.460331642310263e6 0.0
0.0 0.0 0.0

1.8948367748509767e6 1.8347398373543777e7 0.0
1.8347398373543777e7 5.534641113539242e6 0.0
0.0 0.0 0.0

1.5561583315294323e7 1.8574915987165757e7 0.0
1.8574915987165757e7 4.767599013265133e6 0.0
0.0 0.0 0.0

-8.112995466510553e6 3.625033756175094e7 0.0
3.625033756175094e7 2.5931785318873636e6 0.0
0.0 0.0 0.0

-6.431753208869955e6 1.5699280783859199e7 0.0
1.5699280783859199e7 1.4988015590924123e7 0.0
0.0 0.0 0.0

-8.232422412795555e6 1.71967320448119e7 0.0
1.71967320448119e7 -5.294941235008941e7 0.0
0.0 0.0 0.0

3.533188424880475e6 6.755230494056081e6 0.0
6.755230494056081e6 -2.9397281492850047e7 0.0
0.0 0.0 0.0

-9.082205595179543e6 -5.369125929456493e6 0.0
-5.369125929456493e6 2.5036326409197625e7 0.0
0.0 0.0 0.0

-1.7379297421323977e7 2.6177440149364963e7 0.0
2.6177440149364963e7 -5.892734421090121e6 0.0
0.0 0.0 0.0

-1.7686966897482604e7 2.3343327734698877e7 0.0
2.3343327734698877e7 -3.217590092790231e6 0.0
0.0 0.0 0.0

-1.6395607412302224e6 1.673059334669917e7 0.0
1.673059334669917e7 -7.404926144297861e6 0.0
0.0 0.0 0.0

-705678.0183881547 2.655455789047295e7 0.0
2.655455789047295e7 -2.1270619150333446e6 0.0
0.0 0.0 0.0

1.4518593242922835e6 6.401429500246128e6 0.0
6.401429500246128e6 -5.134533085291883e7 0.0
0.0 0.0 0.0

6.429864735042551e6 2.0825470035717003e7 0.0
2.0825470035717003e7 -3.855755021210538e6 0.0
0.0 0.0 0.0

4.069831119612853e6 2.0586206848468363e7 0.0
2.0586206848468363e7 9.585713326902265e6 0.0
0.0 0.0 0.0

1.8313156263949703e6 1.3335339069182321e7 0.0
1.3335339069182321e7 -1.9767970372372787e7 0.0
0.0 0.0 0.0

-2.4261402386442227e6 2.1631792761339e7 0.0
2.1631792761339e7 561044.7443199551 0.0
0.0 0.0 0.0

1.6799409994751178e6 1.2512516450663397e7 0.0
1.2512516450663397e7 -1.4661563700032609e7 0.0
0.0 0.0 0.0

1.3343556602789387e6 1.3063894959428404e7 0.0
1.3063894959428404e7 -2.124698842577417e7 0.0
0.0 0.0 0.0

-1.9127498550198711e6 1.6011536726547616e7 0.0
1.6011536726547616e7 -1.3717375190220086e7 0.0
0.0 0.0 0.0

-7.032699461475102e6 2.68770874108592e7 0.0
2.68770874108592e7 5.534961358391261e6 0.0
0.0 0.0 0.0

-1.3328723416831315e7 2.041761602730341e7 0.0
2.041761602730341e7 -6.151614618996965e7 0.0
0.0 0.0 0.0

1.2492414611793635e7 3.071350671684909e7 0.0
3.071350671684909e7 -5.5288368702950785e6 0.0
0.0 0.0 0.0

4.1246180229553464e6 2.343539933108236e7 0.0
2.343539933108236e7 -5.567519210254965e6 0.0
0.0 0.0 0.0

-2.538147955081981e6 2.8163093977643896e7 0.0
2.8163093977643896e7 2.369672452700018e6 0.0
0.0 0.0 0.0

-4.1093011006052853e6 2.198625591449607e7 0.0
2.198625591449607e7 9.74334879607255e6 0.0
0.0 0.0 0.0

1.5582223149656914e6 5.350307714662397e6 0.0
5.350307714662397e6 -5.3615391333774015e7 0.0
0.0 0.0 0.0

-4.326297544193205e6 2.0317005499479007e7 0.0
2.0317005499479007e7 1.3739071474927314e7 0.0
0.0 0.0 0.0

2.5096184759237412e6 5.1982540282624625e6 0.0
5.1982540282624625e6 -4.333721985408193e7 0.0
0.0 0.0 0.0

-775758.500565452 1.9264927015515905e7 0.0
1.9264927015515905e7 -7.905006768801766e6 0.0
0.0 0.0 0.0

-698118.2528666791 1.8554966708919097e7 0.0
1.8554966708919097e7 -8.246166040400574e6 0.0
0.0 0.0 0.0

-756433.6024431643 1.5980953582656445e7 0.0
1.5980953582656445e7 -3.4298822791964957e6 0.0
0.0 0.0 0.0

-3.9112774082643185e6 1.9010385848598525e7 0.0
1.9010385848598525e7 1.5722403185057327e7 0.0
0.0 0.0 0.0

-2.138799417000956e6 2.3901345444227226e7 0.0
2.3901345444227226e7 -1.6909937963383864e6 0.0
0.0 0.0 0.0

-5.056731773214631e6 1.9134307879179128e7 0.0
1.9134307879179128e7 1.2874740715193972e7 0.0
0.0 0.0 0.0

-8.873342572561909e6 -4.580685317944776e6 0.0
-4.580685317944776e6 2.8900119286623895e7 0.0
0.0 0.0 0.0

2.9972064063675534e6 6.461332585143526e6 0.0
6.461332585143526e6 -3.1079471911494203e7 0.0
0.0 0.0 0.0

2.736661337325978e6 8.591692960053623e6 0.0
8.591692960053623e6 -2.447032360699214e7 0.0
0.0 0.0 0.0

403033.4919053502 2.893184541820019e7 0.0
2.893184541820019e7 -1.3311896234373753e6 0.0
0.0 0.0 0.0

-2.1998697360495953e6 1.8763358922220502e7 0.0
1.8763358922220502e7 -9.446552248278601e6 0.0
0.0 0.0 0.0

417756.59398630075 1.4018223012372531e7 0.0
1.4018223012372531e7 -2.6043946240440883e7 0.0
0.0 0.0 0.0

1.5797774945633332e6 1.8560095197485223e7 0.0
1.8560095197485223e7 1.437510781552724e7 0.0
0.0 0.0 0.0

-1.007056261722812e7 784042.4853372979 0.0
784042.4853372979 1.9616300217034444e7 0.0
0.0 0.0 0.0

4.62958563627718e6 2.1153293070802934e7 0.0
2.1153293070802934e7 1.0802816529253889e7 0.0
0.0 0.0 0.0

-1.3046356737723023e7 2.9637998800652254e7 0.0
2.9637998800652254e7 6.668635173469269e6 0.0
0.0 0.0 0.0

2.9071676919425586e6 1.8930717550286118e7 0.0
1.8930717550286118e7 6.0076849632301405e6 0.0
0.0 0.0 0.0

1.561276772579237e6 1.698629351483832e7 0.0
1.698629351483832e7 1.2280638622815948e7 0.0
0.0 0.0 0.0

-4.947415510394978e6 2.6237099533324827e7 0.0
2.6237099533324827e7 5.619614167400989e6 0.0
0.0 0.0 0.0

-4.525736891913537e6 1.9624088634000916e7 0.0
1.9624088634000916e7 1.5740835414839154e7 0.0
0.0 0.0 0.0

-2.808963422091827e6 1.6917848860027783e7 0.0
1.6917848860027783e7 3.030593568876763e7 0.0
0.0 0.0 0.0

-1.6750547354409255e7 2.3965442585830286e7 0.0
2.3965442585830286e7 -1.5056292987299324e6 0.0
0.0 0.0 0.0

-1.191630651733737e7 2.2578310881089494e7 0.0
2.2578310881089494e7 2.5803599317595237e6 0.0
0.0 0.0 0.0

-1.1394939700916395e7 1.5420616886405386e7 0.0
1.5420616886405386e7 3.731163786881429e6 0.0
0.0 0.0 0.0

-6.943993324239317e7 3.1394174335198812e7 0.0
3.1394174335198812e7 195363.02241990343 0.0
0.0 0.0 0.0

9.196204566146411e6 1.8809425316951968e7 0.0
1.8809425316951968e7 5.257549906269299e6 0.0
0.0 0.0 0.0

-1.2488226714546867e6 1.4947539335465373e7 0.0
1.4947539335465373e7 -2.6438519621922266e7 0.0
0.0 0.0 0.0

-3.9026638257398903e6 2.149896715545762e7 0.0
2.149896715545762e7 7.36704810237411e6 0.0
0.0 0.0 0.0

93092.35410354752 1.8144566162797652e7 0.0
1.8144566162797652e7 -1.373326183097065e7 0.0
0.0 0.0 0.0

3.614753871207766e7 1.4913354207635723e7 0.0
1.4913354207635723e7 1.41917013588739e6 0.0
0.0 0.0 0.0

-5.1092762827645745e6 -993344.4741670204 0.0
-993344.4741670204 8.565501490996e6 0.0
0.0 0.0 0.0

3.724188743707833e6 2.917600619887943e6 0.0
2.917600619887943e6 -1.3219552457892831e7 0.0
0.0 0.0 0.0

-278321.7320302585 1.872076261647756e7 0.0
1.872076261647756e7 -1.1775893334766326e7 0.0
0.0 0.0 0.0

-593571.1942853607 1.7291950391645506e7 0.0
1.7291950391645506e7 -1.1018274677037161e6 0.0
0.0 0.0 0.0

-9.755205404775945e6 3.7822678800554615e6 0.0
3.7822678800554615e6 3.812515971836603e7 0.0
0.0 0.0 0.0

5.271348810023843e6 2.4255586783783425e7 0.0
2.4255586783783425e7 -5.395889253335367e6 0.0
0.0 0.0 0.0

-1.225922293956008e7 3.752467979621737e7 0.0
3.752467979621737e7 2.955401298849621e6 0.0
0.0 0.0 0.0

8.600367908241985e6 1.946737298444612e7 0.0
1.946737298444612e7 4.474681766183095e6 0.0
0.0 0.0 0.0

-8.416663094509598e6 -5.958388061480337e6 0.0
-5.958388061480337e6 2.2903599018853884e7 0.0
0.0 0.0 0.0

-1.9804123252808057e7 2.4580352752361108e7 0.0
2.4580352752361108e7 761760.8502142811 0.0
0.0 0.0 0.0

677200.0974088889 1.696206572425435e7 0.0
1.696206572425435e7 5.695891072191074e6 0.0
0.0 0.0 0.0

-1.7149635234905235e7 3.932943119172676e7 0.0
3.932943119172676e7 3.6129089410222135e6 0.0
0.0 0.0 0.0

-8.619143842060886e6 1.6597636664412301e7 0.0
1.6597636664412301e7 2.0490265557514742e7 0.0
0.0 0.0 0.0

1.540999817327646e6 1.8255734177352432e7 0.0
1.8255734177352432e7 -2.0454253258891888e6 0.0
0.0 0.0 0.0

-5.362670515698616e6 1.6133688740451505e7 0.0
1.6133688740451505e7 -2.122705969612395e7 0.0
0.0 0.0 0.0

-2.055120206757693e6 1.6797887234937873e7 0.0
1.6797887234937873e7 -9.938207041071672e6 0.0
0.0 0.0 0.0

5.682560391457476e6 2.0454301404995058e7 0.0
2.0454301404995058e7 -4.23885161723804e6 0.0
0.0 0.0 0.0

2.6872262088082206e7 3.781025471486248e7 0.0
3.781025471486248e7 -1.2659282562167844e7 0.0
0.0 0.0 0.0

-8.795773990190517e6 -4.091980516036023e6 0.0
-4.091980516036023e6 1.727091794991893e7 0.0
0.0 0.0 0.0

880807.5775204998 3.14347495830135e7 0.0
3.14347495830135e7 -2.305261027920831e6 0.0
0.0 0.0 0.0

2.0591916056808094e6 2.7180941901766296e7 0.0
2.7180941901766296e7 -2.868183144667722e6 0.0
0.0 0.0 0.0

-1.015548649235992e7 -1.1374634728166286e6 0.0
-1.1374634728166286e6 3.0720698922217526e7 0.0
0.0 0.0 0.0

4.193031816000724e6 2.179483515197154e6 0.0
2.179483515197154e6 -2.8936668432878923e7 0.0
0.0 0.0 0.0

-4.0486997118880996e6 2.4155535870860033e7 0.0
2.4155535870860033e7 7.52251699107395e6 0.0
0.0 0.0 0.0

3.5256683504951117e6 2.090535240585131e7 0.0
2.090535240585131e7 1.15583988033848e7 0.0
0.0 0.0 0.0

-4.506203947220456e6 4.855950440080394e6 0.0
4.855950440080394e6 7.211065883105214e6 0.0
0.0 0.0 0.0

-1.0076154328896936e7 1.4905877564881759e7 0.0
1.4905877564881759e7 2.051895768014458e7 0.0
0.0 0.0 0.0

2.666402545880967e6 2.0525577539965123e7 0.0
2.0525577539965123e7 1.2170275978096897e7 0.0
0.0 0.0 0.0

-606069.3093501432 1.5931562457356209e7 0.0
1.5931562457356209e7 -1.0956763476888815e7 0.0
0.0 0.0 0.0

-2.4314739421335184e6 1.5735065676531974e7 0.0
1.5735065676531974e7 -1.4743137630146846e7 0.0
0.0 0.0 0.0

163962.31353984098 2.5285912835618816e7 0.0
2.5285912835618816e7 -3.981184062114456e6 0.0
0.0 0.0 0.0

-6.120043979524415e6 -2.0163043313015958e6 0.0
-2.0163043313015958e6 1.1092781015080426e7 0.0
0.0 0.0 0.0

-3.1448150286779944e6 1.8206594934454042e7 0.0
1.8206594934454042e7 3.194261070088667e6 0.0
0.0 0.0 0.0

-8.808508649954319e6 1.666549263052369e7 0.0
1.666549263052369e7 2.4310447829470575e7 0.0
0.0 0.0 0.0

1.0168408950647684e6 1.3365501177627668e7 0.0
1.3365501177627668e7 -1.224512567495222e7 0.0
0.0 0.0 0.0

234561.39151926665 2.1023692591745928e7 0.0
2.1023692591745928e7 -9.020887550559713e6 0.0
0.0 0.0 0.0

1.7284713440975274e6 3.410962866295407e7 0.0
3.410962866295407e7 -654662.6164009735 0.0
0.0 0.0 0.0

-95763.61846387014 1.3688923561803304e7 0.0
1.3688923561803304e7 -2.7723167491129406e7 0.0
0.0 0.0 0.0

-4.003684630981286e7 4.023244020687638e7 0.0
4.023244020687638e7 5.966393861417368e6 0.0
0.0 0.0 0.0

1.1148627384248998e6 2.4658294405247825e6 0.0
2.4658294405247825e6 -2.5710503331120815e6 0.0
0.0 0.0 0.0

886590.3187188953 2.6206540653388016e6 0.0
2.6206540653388016e6 -3.398948439044106e6 0.0
0.0 0.0 0.0

3.4233717483038963e6 1.8329089398712814e7 0.0
1.8329089398712814e7 2.1351476055607155e7 0.0
0.0 0.0 0.0

3.4064866425160877e6 1.9812037205840923e7 0.0
1.9812037205840923e7 1.4231001523460142e7 0.0
0.0 0.0 0.0

-302719.7281712983 1.8296228005841415e7 0.0
1.8296228005841415e7 7.7200149719782695e6 0.0
0.0 0.0 0.0

-1.0809446200409897e7 1.3056980740984488e7 0.0
1.3056980740984488e7 2.0386016902282536e7 0.0
0.0 0.0 0.0

4.499784258609763e6 5.252356825513759e6 0.0
5.252356825513759e6 -1.305704131997776e6 0.0
0.0 0.0 0.0

-2.6281472342594448e6 1.9862231223999247e7 0.0
1.9862231223999247e7 9.109479432539232e6 0.0
0.0 0.0 0.0

-1.0482936922667223e6 2.6438522051477388e7 0.0
2.6438522051477388e7 -473796.1190222827 0.0
0.0 0.0 0.0

-892328.5051072668 1.4445872437525367e7 0.0
1.4445872437525367e7 -2.9143357406112075e7 0.0
0.0 0.0 0.0

7.598229036896586e6 2.0986788628300563e7 0.0
2.0986788628300563e7 1.018868681297015e7 0.0
0.0 0.0 0.0

1.2269595443960086e7 1.987357800805406e7 0.0
1.987357800805406e7 7.527756521169361e6 0.0
0.0 0.0 0.0

-2.383367240917885e7 4.091660804359272e7 0.0
4.091660804359272e7 5.624577951695049e6 0.0
0.0 0.0 0.0

683159.1241621308 1.8249130019784857e7 0.0
1.8249130019784857e7 8.426086629260946e6 0.0
0.0 0.0 0.0

-9.121085100061484e6 7.852177241207253e6 0.0
7.852177241207253e6 1.047584143965119e7 0.0
0.0 0.0 0.0

-1.240360631496505e7 1.1425885661496334e7 0.0
1.1425885661496334e7 2.320366125638791e7 0.0
0.0 0.0 0.0

-1.3701410860440885e6 2.581428199159054e7 0.0
2.581428199159054e7 -1.400255636253873e6 0.0
0.0 0.0 0.0

4.6345262653170815e6 1.9480273960648775e7 0.0
1.9480273960648775e7 1.3887981562106438e7 0.0
0.0 0.0 0.0

-8.321331562471006e6 3.7144225695346664e6 0.0
3.7144225695346664e6 5.460827616535903e7 0.0
0.0 0.0 0.0

-929982.1102842214 1.819854910657006e7 0.0
1.819854910657006e7 1.4069254774184233e7 0.0
0.0 0.0 0.0

-8.3610537929785745e6 1.6560815216170765e7 0.0
1.6560815216170765e7 -3.098607989467037e7 0.0
0.0 0.0 0.0

3.1041167702833507e6 2.0469928926009104e7 0.0
2.0469928926009104e7 1.2858954608767686e7 0.0
0.0 0.0 0.0

-6.287269613092e6 1.785787275284208e7 0.0
1.785787275284208e7 2.2470911581715986e7 0.0
0.0 0.0 0.0

-370678.04261774477 1.5072233633450115e7 0.0
1.5072233633450115e7 -1.1320749802599404e7 0.0
0.0 0.0 0.0

2.927337765734941e6 1.7798749687485125e7 0.0
1.7798749687485125e7 6.5704588916201375e7 0.0
0.0 0.0 0.0

5.369425987008677e6 2.3211388051705364e7 0.0
2.3211388051705364e7 -5.237393849995812e6 0.0
0.0 0.0 0.0

207502.00646353047 1.6649763876979355e7 0.0
1.6649763876979355e7 -1.6730260435683902e7 0.0
0.0 0.0 0.0

-328820.6396992125 1.244652611678311e7 0.0
1.244652611678311e7 -5.785616442689195e6 0.0
0.0 0.0 0.0

3.796063809722999e6 3.2360161463416195e6 0.0
3.2360161463416195e6 -3.599088921524494e7 0.0
0.0 0.0 0.0

1.677790567794845e6 3.270657699494541e7 0.0
3.270657699494541e7 -316749.68259280454 0.0
0.0 0.0 0.0

-1.2064337133261934e7 1.2291165479038602e7 0.0
1.2291165479038602e7 2.3796205580428366e7 0.0
0.0 0.0 0.0

2.2104192602655673e6 1.7003051646259125e7 0.0
1.7003051646259125e7 1.5980017866518758e7 0.0
0.0 0.0 0.0

-8.688519356604544e6 2.3989907612066932e7 0.0
2.3989907612066932e7 5.6193217184829125e6 0.0
0.0 0.0 0.0

-3.0397539171124604e6 1.9912814985964533e7 0.0
1.9912814985964533e7 1.5769126774279284e6 0.0
0.0 0.0 0.0

-1.0560801193950769e7 1.558929978600426e7 0.0
1.558929978600426e7 2.0652791727791872e7 0.0
0.0 0.0 0.0

2.1916333568333806e6 1.0224808504016323e7 0.0
1.0224808504016323e7 -2.0083627599785186e7 0.0
0.0 0.0 0.0

-1.1417754698305866e7 3.561514599959255e7 0.0
3.561514599959255e7 5.924999247651962e6 0.0
0.0 0.0 0.0

1.9271543216426857e7 1.1782986553221306e7 0.0
1.1782986553221306e7 285087.36880124826 0.0
0.0 0.0 0.0

-1.0125000297334353e7 -1.9600250536456923e6 0.0
-1.9600250536456923e6 1.6037107613890324e7 0.0
0.0 0.0 0.0

-5.950911845238694e6 2.72205897965741e7 0.0
2.72205897965741e7 5.228883298413634e6 0.0
0.0 0.0 0.0

-2.4611326936509095e7 2.0139275818281356e7 0.0
2.0139275818281356e7 6.532806662823735e6 0.0
0.0 0.0 0.0

-2.9960985137224514e6 1.980960859473888e7 0.0
1.980960859473888e7 -9.082519106417028e6 0.0
0.0 0.0 0.0

-4.6267056229378805e7 3.005408418796974e7 0.0
3.005408418796974e7 524348.71336722 0.0
0.0 0.0 0.0

-3.1937024727489045e6 2.0064530547409225e7 0.0
2.0064530547409225e7 -5.228509607700066e6 0.0
0.0 0.0 0.0

-6.006984524533887e6 1.740056564968876e7 0.0
1.740056564968876e7 1.5934263912346536e7 0.0
0.0 0.0 0.0

-1.1538571809805403e7 1.214973912045784e7 0.0
1.214973912045784e7 2.129011867329652e7 0.0
0.0 0.0 0.0

-8.120026281846783e6 1.529880469492367e7 0.0
1.529880469492367e7 1.4341686752409652e7 0.0
0.0 0.0 0.0

-4.596266032683027e6 2.1958309786025163e7 0.0
2.1958309786025163e7 1.0625609376640055e7 0.0
0.0 0.0 0.0

-9.379038023425287e6 408617.06659181963 0.0
408617.06659181963 3.823251640285393e7 0.0
0.0 0.0 0.0

-350869.7880607876 1.6309515665818531e7 0.0
1.6309515665818531e7 -1.073511607646864e6 0.0
0.0 0.0 0.0

1.6847729703690633e6 1.1424062343896935e7 0.0
1.1424062343896935e7 -1.273926787393243e7 0.0
0.0 0.0 0.0

949059.6870135767 1.5228441614501186e7 0.0
1.5228441614501186e7 -1.7343875173659354e7 0.0
0.0 0.0 0.0

-9.027921656361151e6 -4.0618255933057074e6 0.0
-4.0618255933057074e6 2.5650509158324517e7 0.0
0.0 0.0 0.0

-1.0553949671818144e6 1.669444469100421e7 0.0
1.669444469100421e7 481651.2341946977 0.0
0.0 0.0 0.0

-7.386438032551169e6 2.4181711061528422e7 0.0
2.4181711061528422e7 6.521634932592304e6 0.0
0.0 0.0 0.0

559232.2611622326 1.8513018839060303e7 0.0
1.8513018839060303e7 2.206767952433369e7 0.0
0.0 0.0 0.0

-27558.373380804434 1.812560445347473e7 0.0
1.812560445347473e7 -1.2185680223028325e7 0.0
0.0 0.0 0.0

133390.30193774472 1.7493177412031215e7 0.0
1.7493177412031215e7 3.9129300839965995e6 0.0
0.0 0.0 0.0

604226.4901706595 3.0535390530983955e7 0.0
3.0535390530983955e7 -1.9416102348731572e6 0.0
0.0 0.0 0.0

739956.7618651642 1.8958058297747646e7 0.0
1.8958058297747646e7 -1.007505657568202e7 0.0
0.0 0.0 0.0

8.126139367107461e7 2.961013124889072e7 0.0
2.961013124889072e7 1.9946275473371148e6 0.0
0.0 0.0 0.0

3.025333165501517e6 1.871275641949824e7 0.0
1.871275641949824e7 -3.674918925876684e6 0.0
0.0 0.0 0.0

-1.481128043900867e6 1.662020478597326e7 0.0
1.662020478597326e7 -1.9452605497921966e7 0.0
0.0 0.0 0.0

1.1803668393423208e6 2.05726361103783e7 0.0
2.05726361103783e7 -8.534488796931095e6 0.0
0.0 0.0 0.0

-2.364423039507471e7 2.6338014596162234e7 0.0
2.6338014596162234e7 -680753.4431055943 0.0
0.0 0.0 0.0

-5.464707258223861e6 2.331817483476953e7 0.0
2.331817483476953e7 7.831725943441132e6 0.0
0.0 0.0 0.0

1.2676105621424554e7 1.9692374274158914e7 0.0
1.9692374274158914e7 3.011775646180219e6 0.0
0.0 0.0 0.0

-1.9272534201962966e6 1.4075180633134296e7 0.0
1.4075180633134296e7 -3.492881510953765e7 0.0
0.0 0.0 0.0

3.954705300051338e6 1.753923172464179e7 0.0
1.753923172464179e7 2.710276029077661e7 0.0
0.0 0.0 0.0

4.1283647789138556e6 5.274319132729814e6 0.0
5.274319132729814e6 -2.2794746883282606e7 0.0
0.0 0.0 0.0

1.346283982049081e6 2.1317720514957055e7 0.0
2.1317720514957055e7 -8.058298842054934e6 0.0
0.0 0.0 0.0

2.82041794686885e6 4.383221395077249e6 0.0
4.383221395077249e6 -4.2113075658547044e7 0.0
0.0 0.0 0.0

133553.64779664436 2.080427072719113e7 0.0
2.080427072719113e7 -9.270648292942243e6 0.0
0.0 0.0 0.0

4.219566585398076e6 2.4359041432761773e7 0.0
2.4359041432761773e7 -5.389159343686352e6 0.0
0.0 0.0 0.0

-2.7591725170520744e6 1.9701022851854928e7 0.0
1.9701022851854928e7 1.079334469930702e6 0.0
0.0 0.0 0.0

-1.1770834417273933e7 2.928748403864814e7 0.0
2.928748403864814e7 5.369389361284619e6 0.0
0.0 0.0 0.0

-6.585052835211737e6 1.7941377761517264e7 0.0
1.7941377761517264e7 2.253619107367e7 0.0
0.0 0.0 0.0

654584.1877257242 1.721418077433184e7 0.0
1.721418077433184e7 8.64062538134851e6 0.0
0.0 0.0 0.0

-3.406464068231234e7 3.205064579918237e7 0.0
3.205064579918237e7 7.796293969950099e6 0.0
0.0 0.0 0.0

1.1939086191195823e7 2.0156868412363593e7 0.0
2.0156868412363593e7 8.905425244629351e6 0.0
0.0 0.0 0.0

-6.027373180505199e6 1.1315783189154545e7 0.0
1.1315783189154545e7 6.304409258239913e6 0.0
0.0 0.0 0.0

-5.0655669780080635e6 2.6669816621111806e7 0.0
2.6669816621111806e7 4.9226546397004165e6 0.0
0.0 0.0 0.0

-3.7761887752879504e6 2.0499576877304684e7 0.0
2.0499576877304684e7 -6.928111271384467e6 0.0
0.0 0.0 0.0

1.1032627056830619e6 1.3754812486285018e7 0.0
1.3754812486285018e7 -1.29599303382949e7 0.0
0.0 0.0 0.0

4.16936240818833e6 2.0432999561848738e6 0.0
2.0432999561848738e6 -3.043547430484271e7 0.0
0.0 0.0 0.0

-1.3352394264647632e6 1.5929188221994752e7 0.0
1.5929188221994752e7 -8.690915607446078e6 0.0
0.0 0.0 0.0

3.98836547802152e7 6.085536576072294e6 0.0
6.085536576072294e6 -1.898592234387964e6 0.0
0.0 0.0 0.0

-6.337083737902912e6 1.7669152176936988e7 0.0
1.7669152176936988e7 2.346870868946402e7 0.0
0.0 0.0 0.0

-6.731438611066384e6 2.6262997962173823e7 0.0
2.6262997962173823e7 5.963788164724534e6 0.0
0.0 0.0 0.0

-8.897688921406323e6 -3.295607566704059e6 0.0
-3.295607566704059e6 3.459906271996019e7 0.0
0.0 0.0 0.0

-2.513322422074091e6 3.0323100722487874e7 0.0
3.0323100722487874e7 925990.3456938035 0.0
0.0 0.0 0.0

-1.821530940889627e7 2.3554431219133466e7 0.0
2.3554431219133466e7 943338.8150552306 0.0
0.0 0.0 0.0

169959.8202986885 1.711080502741766e7 0.0
1.711080502741766e7 -1.5719139224130038e7 0.0
0.0 0.0 0.0

3.235700206888867e6 1.8033259234597426e7 0.0
1.8033259234597426e7 1.9054266032234844e7 0.0
0.0 0.0 0.0

-220968.34011394274 1.7802808104531385e7 0.0
1.7802808104531385e7 4.025072351014035e6 0.0
0.0 0.0 0.0

-3.515236911741521e6 2.062722037726674e7 0.0
2.062722037726674e7 7.984397887059295e6 0.0
0.0 0.0 0.0

624846.6412900602 1.3188486273340486e7 0.0
1.3188486273340486e7 -1.3743717834729766e7 0.0
0.0 0.0 0.0

2.8934284235388683e6 9.783827787556836e6 0.0
9.783827787556836e6 -1.9336722024732113e7 0.0
0.0 0.0 0.0

-475490.01927574305 8.91428272778892e6 0.0
8.91428272778892e6 -5.957834955554081e6 0.0
0.0 0.0 0.0

-4.63160915513754e6 2.6176151186749235e7 0.0
2.6176151186749235e7 4.809494702843743e6 0.0
0.0 0.0 0.0

-886152.8516214592 1.6376773344608007e7 0.0
1.6376773344608007e7 -9.908056129986925e6 0.0
0.0 0.0 0.0

1.5785774729531327e7 1.165641390845293e7 0.0
1.165641390845293e7 17825.214661948383 0.0
0.0 0.0 0.0

4.1372383865661733e6 2.127795751658882e6 0.0
2.127795751658882e6 -3.0741662080553576e7 0.0
0.0 0.0 0.0

1.8472122875997154e6 1.7472896521139856e7 0.0
1.7472896521139856e7 1.9961637200973667e7 0.0
0.0 0.0 0.0

349684.7472648341 8.705874773317162e6 0.0
8.705874773317162e6 -7.812654701253732e6 0.0
0.0 0.0 0.0

1.1024643425993957e6 2.555452909690132e7 0.0
2.555452909690132e7 -3.5645307269486906e6 0.0
0.0 0.0 0.0

-337433.5953032165 1.822374891593381e7 0.0
1.822374891593381e7 9.931346375021659e6 0.0
0.0 0.0 0.0

-1.0814828059127375e7 6.7029849266725285e6 0.0
6.7029849266725285e6 3.4131801573439665e7 0.0
0.0 0.0 0.0

-6.14931697241803e6 1.051708584708847e6 0.0
1.051708584708847e6 9.456331576382905e6 0.0
0.0 0.0 0.0

4.532467090881358e6 2.4307904033453587e7 0.0
2.4307904033453587e7 -5.332257820311481e6 0.0
0.0 0.0 0.0

-4.722059634133311e7 1.4296011453331253e7 0.0
1.4296011453331253e7 8.394278194119042e6 0.0
0.0 0.0 0.0

248142.5044150371 1.586291382790414e7 0.0
1.586291382790414e7 -1.9045823260439657e7 0.0
0.0 0.0 0.0

2.5367232947646366e6 1.253506514487959e7 0.0
1.253506514487959e7 3.4856509187065205e6 0.0
0.0 0.0 0.0

-5.914290052309187e6 1.7071820645017665e7 0.0
1.7071820645017665e7 1.5290006109979644e7 0.0
0.0 0.0 0.0

-5.036569580795551e7 1.3695716477120621e7 0.0
1.3695716477120621e7 7.296509027662907e6 0.0
0.0 0.0 0.0

-1.5094494171904968e6 1.6042676500962952e7 0.0
1.6042676500962952e7 -2.020590024889191e7 0.0
0.0 0.0 0.0

388201.85677694064 2.0152901340510484e7 0.0
2.0152901340510484e7 -1.0060361884841807e7 0.0
0.0 0.0 0.0

1.5032238841276378e6 5.333054321790649e6 0.0
5.333054321790649e6 -4.6379104568326995e6 0.0
0.0 0.0 0.0

-8.43179452309767e6 2.213495094824594e7 0.0
2.213495094824594e7 -6.501120000329128e6 0.0
0.0 0.0 0.0

4.508413431534475e6 2.7850649207922198e7 0.0
2.7850649207922198e7 -4.377864750083767e6 0.0
0.0 0.0 0.0

-2.1956605391826658e6 2.7912584831067517e7 0.0
2.7912584831067517e7 631082.7144624899 0.0
0.0 0.0 0.0

-3.781127188948729e6 2.030454409471076e7 0.0
2.030454409471076e7 4.379335874242073e6 0.0
0.0 0.0 0.0

-1.0429778350738283e7 1.4890217868229909e7 0.0
1.4890217868229909e7 2.5373495852353506e7 0.0
0.0 0.0 0.0

-4.1905105157240126e6 2.0432683239866376e7 0.0
2.0432683239866376e7 1.3573481096231246e7 0.0
0.0 0.0 0.0

-2.3748492017143727e6 2.960027731367411e7 0.0
2.960027731367411e7 858639.8997468876 0.0
0.0 0.0 0.0

1.2139888709047027e6 1.12811726490816e7 0.0
1.12811726490816e7 -1.4343168750415785e7 0.0
0.0 0.0 0.0

-2.443377200325912e6 2.9056960896323174e7 0.0
2.9056960896323174e7 725458.1150730606 0.0
0.0 0.0 0.0

3.6884157627763697e6 1.9940281331761297e7 0.0
1.9940281331761297e7 1.3128056032701155e7 0.0
0.0 0.0 0.0

-1.1676935884346692e7 1.2439660561595846e7 0.0
1.2439660561595846e7 2.4619745006381355e7 0.0
0.0 0.0 0.0

3.642543219990067e6 3.342648330433205e6 0.0
3.342648330433205e6 -3.1909294974815227e7 0.0
0.0 0.0 0.0

-8.672600242983319e6 2.3829250960075688e7 0.0
2.3829250960075688e7 5.94730311068337e6 0.0
0.0 0.0 0.0

-1.6121023944046816e6 2.3223378683444276e7 0.0
2.3223378683444276e7 -3.825955989230455e6 0.0
0.0 0.0 0.0

-522983.75015324436 2.3084173045985732e7 0.0
2.3084173045985732e7 -4.629225505019986e6 0.0
0.0 0.0 0.0

-6.5304963532217436e7 4.045363938707719e7 0.0
4.045363938707719e7 -2.2109251234627906e7 0.0
0.0 0.0 0.0

466142.66061466374 1.770799308041006e7 0.0
1.770799308041006e7 -1.4745528116554875e7 0.0
0.0 0.0 0.0

-1.1837699980011918e6 2.543309757026829e7 0.0
2.543309757026829e7 -716997.4206669717 0.0
0.0 0.0 0.0

-6.427785430140155e6 1.8025916086415898e7 0.0
1.8025916086415898e7 1.4847754203707643e7 0.0
0.0 0.0 0.0

-2.7142873545179307e7 2.1481175291073132e7 0.0
2.1481175291073132e7 7.057554984270729e6 0.0
0.0 0.0 0.0

752249.9731138838 1.7391631041124016e7 0.0
1.7391631041124016e7 301461.15223017725 0.0
0.0 0.0 0.0

1.3470667614711649e6 1.8707715427746892e7 0.0
1.8707715427746892e7 1.4514976865593119e7 0.0
0.0 0.0 0.0

3.7112348674569763e6 1.753258177952512e6 0.0
1.753258177952512e6 -3.8582409825281925e7 0.0
0.0 0.0 0.0

-1.725107676204735e7 3.383371441546089e7 0.0
3.383371441546089e7 7.979329734424792e6 0.0
0.0 0.0 0.0

-9.032742432491107e6 -1.7393541457069514e6 0.0
-1.7393541457069514e6 3.548109251542755e7 0.0
0.0 0.0 0.0

-9.06634414841266e6 -181203.69244406093 0.0
-181203.69244406093 4.1459215077374935e7 0.0
0.0 0.0 0.0

-5.039125384611832e6 55493.15188752226 0.0
55493.15188752226 8.79071181298273e6 0.0
0.0 0.0 0.0

-1.0705346502154818e7 1.3099286081020374e7 0.0
1.3099286081020374e7 2.7956354136354268e7 0.0
0.0 0.0 0.0

908563.9813181395 1.6600218292292707e7 0.0
1.6600218292292707e7 1.0556455760931842e7 0.0
0.0 0.0 0.0

236115.66962356586 1.5173638022265831e7 0.0
1.5173638022265831e7 -2.169590207326948e7 0.0
0.0 0.0 0.0

-3.566421411546547e7 4.1585862707913354e7 0.0
4.1585862707913354e7 8.050412591047179e6 0.0
0.0 0.0 0.0

-1.131757649535558e7 1.3149309483374117e7 0.0
1.3149309483374117e7 2.505773705814898e7 0.0
0.0 0.0 0.0

-2.0804126932711639e6 1.3732850159934228e7 0.0
1.3732850159934228e7 -3.652004371671069e7 0.0
0.0 0.0 0.0

-1.7693157715901107e7 2.3234705387449473e7 0.0
2.3234705387449473e7 1.1428706402171785e6 0.0
0.0 0.0 0.0

-8.56647826276193e6 -534707.374857125 0.0
-534707.374857125 4.256511573040887e7 0.0
0.0 0.0 0.0

105256.25579546392 1.6782880735680476e7 0.0
1.6782880735680476e7 -1.4231499430667972e7 0.0
0.0 0.0 0.0

-6.268679414804552e6 1.6351129240804445e7 0.0
1.6351129240804445e7 -4.0635809496485956e7 0.0
0.0 0.0 0.0

-2.2746888185487464e6 1.9287895372603294e7 0.0
1.9287895372603294e7 -6.351550629237132e6 0.0
0.0 0.0 0.0

-1.6070050662563916e7 2.1720098268694185e7 0.0
2.1720098268694185e7 1.8036530715242503e6 0.0
0.0 0.0 0.0

3.955903094659602e7 2.356408139204317e7 0.0
2.356408139204317e7 7.963328041186244e6 0.0
0.0 0.0 0.0

-1.230588433299703e6 1.4126430940865945e7 0.0
1.4126430940865945e7 -3.0364637323481953e6 0.0
0.0 0.0 0.0

1.0866307783388374e6 1.5626365108165978e7 0.0
1.5626365108165978e7 -1.6023775699327761e7 0.0
0.0 0.0 0.0

-2.0691304208513834e6 1.565620682534186e7 0.0
1.565620682534186e7 -1.2427683621755337e7 0.0
0.0 0.0 0.0

3.7845291736252867e6 1.8636980288934186e6 0.0
1.8636980288934186e6 -3.889771521997257e7 0.0
0.0 0.0 0.0

-71546.92958294507 2.4716289799579848e7 0.0
2.4716289799579848e7 -3.2719708109006225e6 0.0
0.0 0.0 0.0

-2.3602808569411784e6 1.5647986079610586e7 0.0
1.5647986079610586e7 -2.1920126878959846e7 0.0
0.0 0.0 0.0

615229.9592489484 1.9236736548651777e7 0.0
1.9236736548651777e7 -1.051437601222476e7 0.0
0.0 0.0 0.0

-478378.19583284075 1.7595687995625548e7 0.0
1.7595687995625548e7 1.5514516163929412e6 0.0
0.0 0.0 0.0

-5.322472542666767e6 1.1173000416217012e7 0.0
1.1173000416217012e7 8.872879182733607e6 0.0
0.0 0.0 0.0

-3.9243617116866894e6 2.0351966115982004e7 0.0
2.0351966115982004e7 7.558770790255455e6 0.0
0.0 0.0 0.0

-1.9584940397465257e6 1.816296404037369e7 0.0
1.816296404037369e7 2.3102852683018174e7 0.0
0.0 0.0 0.0

4.376518091324192e6 2.4431189303720375e6 0.0
2.4431189303720375e6 -2.551285203938484e7 0.0
0.0 0.0 0.0

-1.5699309376055762e7 1.2690156525261264e7 0.0
1.2690156525261264e7 5.1397207387046395e6 0.0
0.0 0.0 0.0

4.209715904524215e6 2.0953335176901028e7 0.0
2.0953335176901028e7 1.216540565764723e7 0.0
0.0 0.0 0.0

-1.0698730728011453e6 1.671167596577072e7 0.0
1.671167596577072e7 -1.5323638317801489e7 0.0
0.0 0.0 0.0

6.203906009610769e7 9.486868413216593e6 0.0
9.486868413216593e6 -609192.1586583517 0.0
0.0 0.0 0.0

525969.245042162 1.593874697077566e7 0.0
1.593874697077566e7 -1.9117068085775256e7 0.0
0.0 0.0 0.0

-789666.0147835116 2.37903056776244e7 0.0
2.37903056776244e7 -4.60841519513997e6 0.0
0.0 0.0 0.0

-3.100232468549947e6 2.1205397180435278e7 0.0
2.1205397180435278e7 -238390.9860788011 0.0
0.0 0.0 0.0

4.857907688037002e6 1.7859709735972993e7 0.0
1.7859709735972993e7 5.203481805717926e7 0.0
0.0 0.0 0.0

-1.0789493577527162e7 1.192174748439203e7 0.0
1.192174748439203e7 2.935116309828026e7 0.0
0.0 0.0 0.0

-8.780460960323898e6 -3.7536567901143185e6 0.0
-3.7536567901143185e6 3.4226787889412016e7 0.0
0.0 0.0 0.0

-1.08228171991323e7 5.18441123046577e6 0.0
5.18441123046577e6 3.528300556850258e7 0.0
0.0 0.0 0.0

-2.6483132775628576e6 2.7146417035515424e7 0.0
2.7146417035515424e7 1.1567478839592908e6 0.0
0.0 0.0 0.0

2.178150804687039e6 1.1046800022410763e7 0.0
1.1046800022410763e7 -2.100006108990648e7 0.0
0.0 0.0 0.0

-3.7200091046740813e6 2.14958680974418e7 0.0
2.14958680974418e7 1.012311255895364e7 0.0
0.0 0.0 0.0

395403.7709770389 1.8156528615845583e7 0.0
1.8156528615845583e7 -1.3775497480787283e7 0.0
0.0 0.0 0.0

-7.208612580702463e6 1.6337464295004502e7 0.0
1.6337464295004502e7 1.3799636125276603e7 0.0
0.0 0.0 0.0

-4.957218420903448e6 2.3629794913658973e7 0.0
2.3629794913658973e7 8.052707734719558e6 0.0
0.0 0.0 0.0

6.730855385188675e6 2.2787793575824384e7 0.0
2.2787793575824384e7 -4.883326878483016e6 0.0
0.0 0.0 0.0

-4.813978615955822e6 1.991887057865395e7 0.0
1.991887057865395e7 1.498210546421113e7 0.0
0.0 0.0 0.0

-3.8445763952134997e6 2.078480028021808e7 0.0
2.078480028021808e7 1.1362766848229751e7 0.0
0.0 0.0 0.0

-2.9749028714101403e6 1.644473574036666e7 0.0
1.644473574036666e7 -1.358050597765384e7 0.0
0.0 0.0 0.0

-1.1907912670553707e7 1.3124761375954045e7 0.0
1.3124761375954045e7 2.299015324692459e7 0.0
0.0 0.0 0.0

-2.341210890700586e6 2.715905497552696e7 0.0
2.715905497552696e7 2.192212204498422e6 0.0
0.0 0.0 0.0

3.70466175845439e6 4.778100617916263e6 0.0
4.778100617916263e6 -2.4219684470654782e7 0.0
0.0 0.0 0.0

-7.96486076521774e6 2.24932974762568e6 0.0
2.24932974762568e6 5.361955797434139e7 0.0
0.0 0.0 0.0

-1.1966741028207853e6 1.862388072123412e7 0.0
1.862388072123412e7 -7.587537448950345e6 0.0
0.0 0.0 0.0

-2.6639711938770814e6 2.7688613931849472e7 0.0
2.7688613931849472e7 1.260315755340129e6 0.0
0.0 0.0 0.0

1.6722351533373976e6 1.2831059313786695e7 0.0
1.2831059313786695e7 -2.3681622825817432e7 0.0
0.0 0.0 0.0

-696960.5549540079 2.490884273146057e7 0.0
2.490884273146057e7 -3.5760576630657935e6 0.0
0.0 0.0 0.0

2.4174174541550726e6 9.599248683365125e6 0.0
9.599248683365125e6 -2.1012353868702166e7 0.0
0.0 0.0 0.0

-1.1676701528353717e7 1.1408518702232618e7 0.0
1.1408518702232618e7 2.5741321430870082e7 0.0
0.0 0.0 0.0

-5.36671809622117e7 3.851789977778386e7 0.0
3.851789977778386e7 1.0042674286946803e7 0.0
0.0 0.0 0.0

-1.2325770935485952e7 2.3035813980418634e7 0.0
2.3035813980418634e7 -75619.06173402816 0.0
0.0 0.0 0.0

-3.9203692691526185e6 2.148559012422183e7 0.0
2.148559012422183e7 1.1153934378962135e7 0.0
0.0 0.0 0.0

-6.474516897167294e6 -6.935354563356887e6 0.0
-6.935354563356887e6 1.4723531343008501e7 0.0
0.0 0.0 0.0

-1.4805673038509421e7 2.1867062818669535e7 0.0
2.1867062818669535e7 -1.88701484152029e6 0.0
0.0 0.0 0.0

-6.406363396050277e6 2.4151000883373868e7 0.0
2.4151000883373868e7 7.115494907809671e6 0.0
0.0 0.0 0.0

3.8800694124125596e6 3.154703620304786e6 0.0
3.154703620304786e6 -3.263864219385315e7 0.0
0.0 0.0 0.0

-7.523173493239195e6 1.502454341517834e7 0.0
1.502454341517834e7 1.658923433300041e7 0.0
0.0 0.0 0.0

-1.0872996823802892e7 1.365069625482336e7 0.0
1.365069625482336e7 2.0958755988057498e7 0.0
0.0 0.0 0.0

2.740444988953916e6 3.0902035070302416e7 0.0
3.0902035070302416e7 -1.4950411492656688e6 0.0
0.0 0.0 0.0

-1.1310036546673892e7 536108.0480531094 0.0
536108.0480531094 1.7972071905507106e7 0.0
0.0 0.0 0.0

-1.1475941526367024e7 1.4103059965788564e7 0.0
1.4103059965788564e7 2.3698677537914716e7 0.0
0.0 0.0 0.0

-1.308074817608031e6 2.8207450172072873e7 0.0
2.8207450172072873e7 1.076056561182768e6 0.0
0.0 0.0 0.0

-8.718019590655185e6 -109600.13206824553 0.0
-109600.13206824553 4.4278083363533854e7 0.0
0.0 0.0 0.0

-7.469340227003953e6 -4.500263617986111e6 0.0
-4.500263617986111e6 1.7376254160908703e7 0.0
0.0 0.0 0.0

3.2935460082054287e6 7.170585382020754e6 0.0
7.170585382020754e6 -2.3076735081875127e7 0.0
0.0 0.0 0.0

-3.6726903168359925e6 2.067138072047266e7 0.0
2.067138072047266e7 8.561770669416841e6 0.0
0.0 0.0 0.0

-1.0732059926307289e7 1.3812437183084203e7 0.0
1.3812437183084203e7 2.5902954573413923e7 0.0
0.0 0.0 0.0

-10481.542976384051 1.766619791871842e7 0.0
1.766619791871842e7 -1.3492678276468152e7 0.0
0.0 0.0 0.0

739416.800561252 1.6890147505423382e7 0.0
1.6890147505423382e7 -1.422771794099545e7 0.0
0.0 0.0 0.0

2.2410336148929987e6 1.0783824900890302e7 0.0
1.0783824900890302e7 -2.2388718858187146e7 0.0
0.0 0.0 0.0

290174.3221632475 1.5520160014711387e7 0.0
1.5520160014711387e7 -2.0399947688841626e7 0.0
0.0 0.0 0.0

598462.3337008089 1.770385164572608e7 0.0
1.770385164572608e7 7.111175472424713e6 0.0
0.0 0.0 0.0

-1.0621971552784832e7 1.4913518657143086e7 0.0
1.4913518657143086e7 2.4668044348937936e7 0.0
0.0 0.0 0.0

-593243.9437517525 2.425692900078423e7 0.0
2.425692900078423e7 -4.433227236821155e6 0.0
0.0 0.0 0.0

-4.97277695350818e6 2.6042902647667374e7 0.0
2.6042902647667374e7 5.486229743049664e6 0.0
0.0 0.0 0.0

-1.8708286886716997e6 2.744779566781838e7 0.0
2.744779566781838e7 1.6315215323276743e6 0.0
0.0 0.0 0.0

1.2519953180453975e7 2.2607159862700876e7 0.0
2.2607159862700876e7 6.285347414308253e7 0.0
0.0 0.0 0.0

-3.202717196206153e6 2.1016062643054776e7 0.0
2.1016062643054776e7 7.180735034710852e6 0.0
0.0 0.0 0.0

925536.0828504832 1.612063054861937e7 0.0
1.612063054861937e7 -1.4992258036691952e7 0.0
0.0 0.0 0.0

-407373.645367031 1.6179460090188766e7 0.0
1.6179460090188766e7 -1.90392945108564e7 0.0
0.0 0.0 0.0

1.0295665148910163e6 1.588964125598124e7 0.0
1.588964125598124e7 -1.6323144889945392e7 0.0
0.0 0.0 0.0

131415.93697017 2.68687917494183e7 0.0
2.68687917494183e7 -1.641545099501365e6 0.0
0.0 0.0 0.0

-3.8786879413871397e6 2.006264170400061e7 0.0
2.006264170400061e7 6.6046477278424855e6 0.0
0.0 0.0 0.0

-101271.71230177535 1.687307030683151e7 0.0
1.687307030683151e7 2.556342788940473e6 0.0
0.0 0.0 0.0

-622779.5911912364 1.7037241298201066e7 0.0
1.7037241298201066e7 -1.477994691739222e7 0.0
0.0 0.0 0.0

-6.39004415754508e6 1.1798370040603224e7 0.0
1.1798370040603224e7 7.795254087202154e6 0.0
0.0 0.0 0.0

3.097158087646424e6 3.558455501399479e7 0.0
3.558455501399479e7 -4.688573110234041e6 0.0
0.0 0.0 0.0

2.8745655041209348e6 3.881130632084293e6 0.0
3.881130632084293e6 -4.615643610112299e7 0.0
0.0 0.0 0.0

8.427317935399711e7 3.2646548509788293e7 0.0
3.2646548509788293e7 1.8803110695467737e7 0.0
0.0 0.0 0.0

3.585952381127339e7 3.5107961383891664e7 0.0
3.5107961383891664e7 -1.811670396463293e7 0.0
0.0 0.0 0.0

-1.9912770231894646e6 1.8547742384828724e7 0.0
1.8547742384828724e7 1.5891389781423394e7 0.0
0.0 0.0 0.0

1.1717617527439892e6 1.8140409331935298e7 0.0
1.8140409331935298e7 9.149929561207974e6 0.0
0.0 0.0 0.0

-2.2826054802525103e7 2.3595211924196593e7 0.0
2.3595211924196593e7 663107.7753731515 0.0
0.0 0.0 0.0

-5.413400475271098e7 2.6786860645850524e7 0.0
2.6786860645850524e7 2.4278054374320395e6 0.0
0.0 0.0 0.0

-7.275690032477702e6 1.1836072430434892e7 0.0
1.1836072430434892e7 1.298178926162459e7 0.0
0.0 0.0 0.0

-1.3192164721227435e6 2.3884691351132516e7 0.0
2.3884691351132516e7 -1.8269837149166986e6 0.0
0.0 0.0 0.0

1.1702686216627173e6 1.5098922484015103e7 0.0
1.5098922484015103e7 -1.7029623918207146e7 0.0
0.0 0.0 0.0

2.4571086000250727e6 7.31931040946458e6 0.0
7.31931040946458e6 -4.202294588769627e7 0.0
0.0 0.0 0.0

682066.313491093 1.5294838577497603e7 0.0
1.5294838577497603e7 -1.7336050210343577e7 0.0
0.0 0.0 0.0

-1.5054672498196773e6 1.3761337996281993e7 0.0
1.3761337996281993e7 -3.2578169974088553e7 0.0
0.0 0.0 0.0

-1.1372406523990622e7 1.3745578843418146e7 0.0
1.3745578843418146e7 1.9033306494632266e7 0.0
0.0 0.0 0.0

-413070.84771008976 1.796361602061604e7 0.0
1.796361602061604e7 2.1217497992394477e7 0.0
0.0 0.0 0.0

185558.1411257584 1.657833206679146e7 0.0
1.657833206679146e7 6.421899447202489e6 0.0
0.0 0.0 0.0

-1.1031413996582024e7 6.666735236937162e6 0.0
6.666735236937162e6 6.199420957879068e6 0.0
0.0 0.0 0.0

-1.0753772960745389e7 3.763236487459533e6 0.0
3.763236487459533e6 3.474344940790179e7 0.0
0.0 0.0 0.0

-3.248336687470057e6 2.3907170947356258e7 0.0
2.3907170947356258e7 5.613383067640489e6 0.0
0.0 0.0 0.0

-1.5835294627465634e6 1.840709655897936e7 0.0
1.840709655897936e7 2.345286373720048e7 0.0
0.0 0.0 0.0

-5.6822703612288395e6 1.672664615104749e7 0.0
1.672664615104749e7 1.4392852953123588e7 0.0
0.0 0.0 0.0

-4.723864898624212e6 2.8300233490882944e6 0.0
2.8300233490882944e6 3.9682956146794735e6 0.0
0.0 0.0 0.0

-5.643696335106287e6 1.1616165142582117e7 0.0
1.1616165142582117e7 5.589585994312944e7 0.0
0.0 0.0 0.0

-2.9310399338733456e6 1.9341971948606044e7 0.0
1.9341971948606044e7 1.8577208240101875e6 0.0
0.0 0.0 0.0

-489969.6384166002 2.3607182137431145e7 0.0
2.3607182137431145e7 -5.306741447558907e6 0.0
0.0 0.0 0.0

-1.56666774504901e6 1.7951988417641163e7 0.0
1.7951988417641163e7 2.4059805206956208e7 0.0
0.0 0.0 0.0

-5.842242096039728e6 1.1698393587955719e7 0.0
1.1698393587955719e7 1.0264444193905657e7 0.0
0.0 0.0 0.0

4.743265022223698e6 2.3406664418825034e7 0.0
2.3406664418825034e7 -5.523656618875419e6 0.0
0.0 0.0 0.0

-6.281356855385326e6 4.154373871873701e6 0.0
4.154373871873701e6 6.124151841112725e7 0.0
0.0 0.0 0.0

4.984487372659476e6 2.1610197241833072e7 0.0
2.1610197241833072e7 -5.312987999976207e6 0.0
0.0 0.0 0.0

-2.340068158165858e6 2.7661541851034798e7 0.0
2.7661541851034798e7 2.338815968064076e6 0.0
0.0 0.0 0.0

-4.1502003461012403e6 1.5252723315622069e7 0.0
1.5252723315622069e7 -1.967052845851446e7 0.0
0.0 0.0 0.0

-4.608656771261044e6 1.936312557849012e7 0.0
1.936312557849012e7 1.5826342603217773e7 0.0
0.0 0.0 0.0

-1.152634042829189e7 1.1891488899225576e7 0.0
1.1891488899225576e7 2.6695033348423127e7 0.0
0.0 0.0 0.0

2.095635796230812e6 2.6395305571089502e7 0.0
2.6395305571089502e7 -3.585549215724232e6 0.0
0.0 0.0 0.0

2.91530839170986e6 5.4154456494314205e6 0.0
5.4154456494314205e6 -9.625165684012316e6 0.0
0.0 0.0 0.0

-1.091675059447886e6 3.3447518649820756e7 0.0
3.3447518649820756e7 -1.2317811283184723e6 0.0
0.0 0.0 0.0

2.848785523863726e6 1.965985803101836e7 0.0
1.965985803101836e7 6.618252076775362e6 0.0
0.0 0.0 0.0

-1.517328010658771e6 2.2011056496465024e7 0.0
2.2011056496465024e7 -3.5177223709308384e6 0.0
0.0 0.0 0.0

3.2975452708783336e6 5.33935037242789e6 0.0
5.33935037242789e6 -3.2410023318291415e7 0.0
0.0 0.0 0.0

-1.7637247188007713e6 1.9337088921617746e7 0.0
1.9337088921617746e7 -8.733734106327796e6 0.0
0.0 0.0 0.0

5.033156236583505e6 2.064245231810458e7 0.0
2.064245231810458e7 1.2301856398868755e7 0.0
0.0 0.0 0.0

-1.9440363796288848e6 2.589795406950731e7 0.0
2.589795406950731e7 1.3008204552321774e6 0.0
0.0 0.0 0.0

2.671675394459743e6 1.8375935410005026e7 0.0
1.8375935410005026e7 2.3784130804144263e7 0.0
0.0 0.0 0.0

-2.5900495443516443e6 1.9372239469237046e6 0.0
1.9372239469237046e6 5.332566937329582e6 0.0
0.0 0.0 0.0

-3.095418592918493e6 1.7374816561384503e7 0.0
1.7374816561384503e7 2.8663882989580147e7 0.0
0.0 0.0 0.0

-6.729974073625512e6 2.2208804914807137e7 0.0
2.2208804914807137e7 4.394771336118411e6 0.0
0.0 0.0 0.0

5.279996708079706e6 2.2340100251077704e7 0.0
2.2340100251077704e7 -5.289599438890489e6 0.0
0.0 0.0 0.0

1.4578466899487474e6 2.1201723407620937e7 0.0
2.1201723407620937e7 -7.866366630320261e6 0.0
0.0 0.0 0.0

5.026172275631117e6 2.7656923462861836e7 0.0
2.7656923462861836e7 -4.335152398544123e6 0.0
0.0 0.0 0.0

309674.85739424033 1.554292323656586e7 0.0
1.554292323656586e7 4.448575114439783e6 0.0
0.0 0.0 0.0

-4.1518964869568236e6 2.2172808794922385e7 0.0
2.2172808794922385e7 1.0183266272814851e7 0.0
0.0 0.0 0.0

2.143419729236638e6 2.852922260928213e7 0.0
2.852922260928213e7 -3.4607909178086407e6 0.0
0.0 0.0 0.0

-6.250312184175823e6 1.5845032140016884e7 0.0
1.5845032140016884e7 -4.0381706790816694e7 0.0
0.0 0.0 0.0

-8.152242803010065e6 9.43393589837769e6 0.0
9.43393589837769e6 1.0316018786821712e7 0.0
0.0 0.0 0.0

291923.97073238995 1.740072136566342e7 0.0
1.740072136566342e7 8.011621500885002e6 0.0
0.0 0.0 0.0

2.221003368291712e6 2.7077217794614825e7 0.0
2.7077217794614825e7 -4.1462270411655214e6 0.0
0.0 0.0 0.0

-852704.4429325596 1.7429780328175593e7 0.0
1.7429780328175593e7 -1.5297692842175614e7 0.0
0.0 0.0 0.0

4.290356117753386e6 3.651043104038716e6 0.0
3.651043104038716e6 -2.2956867411506463e7 0.0
0.0 0.0 0.0

-7.364769800459851e6 -644457.921058409 0.0
-644457.921058409 5.655901598837371e7 0.0
0.0 0.0 0.0

1.425751827177493e6 1.2896386766141538e7 0.0
1.2896386766141538e7 -2.5155724250392284e7 0.0
0.0 0.0 0.0

1.042188731548524e6 1.8904525559094768e7 0.0
1.8904525559094768e7 1.052212319928744e7 0.0
0.0 0.0 0.0

-9.918880886307899e6 1.4423961493213626e7 0.0
1.4423961493213626e7 2.0055813961327184e7 0.0
0.0 0.0 0.0

5.9570855903548e6 2.2045699535661817e7 0.0
2.2045699535661817e7 -4.81266401221671e6 0.0
0.0 0.0 0.0

3.308057447774008e6 5.852698861840961e6 0.0
5.852698861840961e6 -1.9558280705337133e7 0.0
0.0 0.0 0.0

2.716413054987871e6 1.9202712289859254e7 0.0
1.9202712289859254e7 -2.9880148514644587e6 0.0
0.0 0.0 0.0

5.2105231729512075e6 2.1235192405926384e7 0.0
2.1235192405926384e7 1.1408827338995563e7 0.0
0.0 0.0 0.0

7.567135316408743e6 3.486546989443824e7 0.0
3.486546989443824e7 -7.117908351408979e6 0.0
0.0 0.0 0.0

1.6024754854993233e6 2.09098241772161e7 0.0
2.09098241772161e7 -8.026004047697121e6 0.0
0.0 0.0 0.0

-111375.89241716266 1.7065507550476674e7 0.0
1.7065507550476674e7 3.826478518770467e7 0.0
0.0 0.0 0.0

4.321033755924882e6 2.203492485168999e6 0.0
2.203492485168999e6 -2.919223771660331e7 0.0
0.0 0.0 0.0

-263631.89278924366 2.78577705603192e7 0.0
2.78577705603192e7 -1.8322970361092587e6 0.0
0.0 0.0 0.0

3.9961548289870014e6 1.8390767626613054e7 0.0
1.8390767626613054e7 3.223219217624741e6 0.0
0.0 0.0 0.0

-5.999849244793254e7 1.6883975563479748e7 0.0
1.6883975563479748e7 5.161541814194169e6 0.0
0.0 0.0 0.0

-5.918670486336439e6 2.3992552868256174e7 0.0
2.3992552868256174e7 7.62009414456715e6 0.0
0.0 0.0 0.0

-7.072183762686468e6 8.623104420871325e6 0.0
8.623104420871325e6 1.1676729493281301e7 0.0
0.0 0.0 0.0

239175.26163237542 1.5508502057954887e7 0.0
1.5508502057954887e7 -2.1780220327731837e7 0.0
0.0 0.0 0.0

-2.639106453499593e6 1.8702478806319892e7 0.0
1.8702478806319892e7 1.3887971218182918e7 0.0
0.0 0.0 0.0

-2.2120839513773695e6 1.536062349135622e7 0.0
1.536062349135622e7 -2.869654463829969e7 0.0
0.0 0.0 0.0

3.944769717425568e6 2.8704997279160013e6 0.0
2.8704997279160013e6 -3.780959330082312e7 0.0
0.0 0.0 0.0

4.6331779779519245e7 1.7116683032477044e7 0.0
1.7116683032477044e7 3.1703656824371684e6 0.0
0.0 0.0 0.0

-1.080728123673028e8 4.190409024377552e7 0.0
4.190409024377552e7 -1.3832261133567374e7 0.0
0.0 0.0 0.0

1.0788069126649734e7 1.94355740636249e7 0.0
1.94355740636249e7 7.322723280165168e6 0.0
0.0 0.0 0.0

-357911.98632326117 2.1487435859477572e7 0.0
2.1487435859477572e7 -8.055928190925587e6 0.0
0.0 0.0 0.0

-3.9912761318550203e6 2.0238541908360146e7 0.0
2.0238541908360146e7 1.30379356528945e7 0.0
0.0 0.0 0.0

4.0918709602432055e6 3.665693593969837e6 0.0
3.665693593969837e6 -2.2534100691993907e7 0.0
0.0 0.0 0.0

-6.822910560449688e6 2.2315501949023858e7 0.0
2.2315501949023858e7 6.193323437550297e6 0.0
0.0 0.0 0.0

1.3507461049842553e6 2.85645181430257e7 0.0
2.85645181430257e7 -1.519757352122781e6 0.0
0.0 0.0 0.0

-2.398437960597869e6 1.6300310801361125e7 0.0
1.6300310801361125e7 -2.2252457489030614e7 0.0
0.0 0.0 0.0

-1.8390843296564939e6 2.170474617499685e7 0.0
2.170474617499685e7 -4.756033150848358e6 0.0
0.0 0.0 0.0

2.1187974186071223e6 5.381564221489323e6 0.0
5.381564221489323e6 -6.658327357807117e6 0.0
0.0 0.0 0.0

7.963822192443731e6 2.0840831008148514e7 0.0
2.0840831008148514e7 1.1470531385958599e7 0.0
0.0 0.0 0.0

-9.571987312939543e6 2.1319518551299535e7 0.0
2.1319518551299535e7 -1.8287033089328315e6 0.0
0.0 0.0 0.0

348015.14584633894 1.7826800974736787e7 0.0
1.7826800974736787e7 -1.2282949585112162e7 0.0
0.0 0.0 0.0

-3.0173786602569865e6 2.245042488776731e7 0.0
2.245042488776731e7 883698.7817175861 0.0
0.0 0.0 0.0

1.1933491951514026e6 1.3044486194737164e7 0.0
1.3044486194737164e7 -2.4007831722083073e7 0.0
0.0 0.0 0.0

-8.59254671822769e6 62055.062796261744 0.0
62055.062796261744 4.5328347914561056e7 0.0
0.0 0.0 0.0

504743.9768415531 1.5774714250501074e7 0.0
1.5774714250501074e7 -1.6249746912813995e7 0.0
0.0 0.0 0.0

2.9790150880065295e6 1.8231505386992816e7 0.0
1.8231505386992816e7 -608547.2418942334 0.0
0.0 0.0 0.0

-1.2509668089875909e7 1.903373285683024e7 0.0
1.903373285683024e7 -5.159593429028334e7 0.0
0.0 0.0 0.0

3.791677789139922e6 6.481982156138023e6 0.0
6.481982156138023e6 -2.240312351478255e7 0.0
0.0 0.0 0.0

636111.0029224139 1.713966417812204e7 0.0
1.713966417812204e7 -1.5847821237380497e7 0.0
0.0 0.0 0.0

-4.724906278796137e6 2.327150527367018e7 0.0
2.327150527367018e7 8.564567477091094e6 0.0
0.0 0.0 0.0

-1.5576207791158855e6 2.5248236184708424e7 0.0
2.5248236184708424e7 -1.8176423509663516e6 0.0
0.0 0.0 0.0

-3.499467193111817e6 2.1223812466502562e7 0.0
2.1223812466502562e7 9.597014222329484e6 0.0
0.0 0.0 0.0

3.9617053351667947e6 1.9258290993189573e7 0.0
1.9258290993189573e7 7.230894701618522e6 0.0
0.0 0.0 0.0

-7.436607451413527e7 2.2560547442128215e7 0.0
2.2560547442128215e7 2.3139459839108214e6 0.0
0.0 0.0 0.0

49419.38799512398 1.936032270865392e6 0.0
1.936032270865392e6 -1.3108624099207371e6 0.0
0.0 0.0 0.0

-1.0754014576938674e6 1.5622639225828819e7 0.0
1.5622639225828819e7 -1.7489455092694885e6 0.0
0.0 0.0 0.0

1.0049593059694612e7 1.8897603610981066e7 0.0
1.8897603610981066e7 1.6905753482105304e6 0.0
0.0 0.0 0.0

-1.2976365112259542e6 2.9965942688047934e7 0.0
2.9965942688047934e7 1.3607275952183772e6 0.0
0.0 0.0 0.0

-1.5584263523222767e6 1.398809283227612e7 0.0
1.398809283227612e7 -3.47786812772734e7 0.0
0.0 0.0 0.0

-2.168751139950691e6 1.9262565697323445e7 0.0
1.9262565697323445e7 -6.475235212082927e6 0.0
0.0 0.0 0.0

2.099087209805547e6 2.2046975502925355e7 0.0
2.2046975502925355e7 -6.954780495098521e6 0.0
0.0 0.0 0.0

1.108768941548597e6 1.449144602700088e7 0.0
1.449144602700088e7 -1.4107658321069572e7 0.0
0.0 0.0 0.0

2.1247605466985395e6 2.139833880904882e7 0.0
2.139833880904882e7 -6.965790823045495e6 0.0
0.0 0.0 0.0

14415.596169981174 1.7985041243698504e7 0.0
1.7985041243698504e7 7.942367576546244e6 0.0
0.0 0.0 0.0

-1.0303709024566105e6 2.5027790799979966e7 0.0
2.5027790799979966e7 -1.4704463246594376e6 0.0
0.0 0.0 0.0

3.0476333069340084e6 9.15528709141088e6 0.0
9.15528709141088e6 -2.1879040353753157e7 0.0
0.0 0.0 0.0

3.8769780317990184e6 3.153632447793185e6 0.0
3.153632447793185e6 -3.3002849978397954e7 0.0
0.0 0.0 0.0

-1.6925797131661878e6 631842.1273270256 0.0
631842.1273270256 -691709.4280596632 0.0
0.0 0.0 0.0

-8.954080041926645e6 512929.23695773503 0.0
512929.23695773503 1.8960365347671658e6 0.0
0.0 0.0 0.0

2.0539278676077155e6 1.9247453432190023e7 0.0
1.9247453432190023e7 1.283220535680398e7 0.0
0.0 0.0 0.0

1.270378349499304e6 1.7020088125091027e7 0.0
1.7020088125091027e7 9.985722788611054e6 0.0
0.0 0.0 0.0

-426351.6259459858 1.7867887520022552e7 0.0
1.7867887520022552e7 7.9988996039026845e6 0.0
0.0 0.0 0.0

3.06905638866793e6 5.119486513960005e6 0.0
5.119486513960005e6 -1.4888428897281386e7 0.0
0.0 0.0 0.0

2.3414447478625556e6 2.03505347633152e7 0.0
2.03505347633152e7 -6.712790867266225e6 0.0
0.0 0.0 0.0

2.397360677479663e6 4.317952841674094e6 0.0
4.317952841674094e6 -7.694359885747745e6 0.0
0.0 0.0 0.0

1.697717361044677e6 2.1439138834324844e7 0.0
2.1439138834324844e7 -7.506963671146087e6 0.0
0.0 0.0 0.0

-9.787236701038536e6 1.5615032518493913e7 0.0
1.5615032518493913e7 2.552650263934966e7 0.0
0.0 0.0 0.0

-8007.271272723796 2.4080416273600366e7 0.0
2.4080416273600366e7 -4.1534543202442536e6 0.0
0.0 0.0 0.0

2.768067186061059e6 2.7662468298526105e7 0.0
2.7662468298526105e7 -2.8651611709043365e6 0.0
0.0 0.0 0.0

3.18632828124086e6 7.0944379544110745e6 0.0
7.0944379544110745e6 -2.333400401204761e7 0.0
0.0 0.0 0.0

3.3814706716089128e6 5.931870781074669e6 0.0
5.931870781074669e6 -2.3817610199034654e7 0.0
0.0 0.0 0.0

1.221558295825211e7 2.026467817752576e7 0.0
2.026467817752576e7 -1.0457655245343111e6 0.0
0.0 0.0 0.0

-293527.8352365345 1.8550249710075457e7 0.0
1.8550249710075457e7 2.0979119802262414e7 0.0
0.0 0.0 0.0

264673.86490736157 1.6293191554513527e7 0.0
1.6293191554513527e7 -1.5244642663501881e7 0.0
0.0 0.0 0.0

-8.575918468855668e6 -3.5574313369429787e6 0.0
-3.5574313369429787e6 3.532418235415029e7 0.0
0.0 0.0 0.0

-1.360801400324489e6 2.8755843818423487e7 0.0
2.8755843818423487e7 1.0994320396075281e6 0.0
0.0 0.0 0.0

-1.1108058268603494e7 1.423583371760483e7 0.0
1.423583371760483e7 2.401707915953639e7 0.0
0.0 0.0 0.0

-7.23595750104867e6 -4.0123582261524866e6 0.0
-4.0123582261524866e6 1.204762880438172e7 0.0
0.0 0.0 0.0

-179010.56797168357 1.6122095073430989e7 0.0
1.6122095073430989e7 -9.515561738043219e6 0.0
0.0 0.0 0.0

4.0019757234229576e6 3.2263530409451723e6 0.0
3.2263530409451723e6 -3.1807401608643718e7 0.0
0.0 0.0 0.0

-4.262795734495507e6 2.6434481794820778e7 0.0
2.6434481794820778e7 5.199973622609522e6 0.0
0.0 0.0 0.0

-1.25450506992251e6 2.1495865982556745e7 0.0
2.1495865982556745e7 -4.44126545350257e6 0.0
0.0 0.0 0.0

1.2855102736283373e6 1.2602981781125594e7 0.0
1.2602981781125594e7 -2.5324592188228197e7 0.0
0.0 0.0 0.0

1.2992149813207485e7 1.8433360638692643e7 0.0
1.8433360638692643e7 3.9651368969109063e6 0.0
0.0 0.0 0.0

-4.881240199911846e6 2.5614092251476947e7 0.0
2.5614092251476947e7 6.155304781068629e6 0.0
0.0 0.0 0.0

-9.501623497013533e6 -2.4319331856231806e6 0.0
-2.4319331856231806e6 3.359379908632385e7 0.0
0.0 0.0 0.0

-9.004137641523786e6 -5.455926698126451e6 0.0
-5.455926698126451e6 2.54655968736016e7 0.0
0.0 0.0 0.0

4.117493574090059e6 1.856795286500323e7 0.0
1.856795286500323e7 -267282.07528621703 0.0
0.0 0.0 0.0

-17692.737169193104 2.135259910378033e7 0.0
2.135259910378033e7 -7.847519457512714e6 0.0
0.0 0.0 0.0

224208.07074424298 2.1862588105278715e7 0.0
2.1862588105278715e7 -7.4337734994593365e6 0.0
0.0 0.0 0.0

-7.404221113332078e6 5.971857739829398e6 0.0
5.971857739829398e6 5.02741324982647e7 0.0
0.0 0.0 0.0

3.566174922389212e6 3.0279200191530064e6 0.0
3.0279200191530064e6 -1.1400981135588305e7 0.0
0.0 0.0 0.0

-6.693421463170797e6 2.123136941467756e7 0.0
2.123136941467756e7 -2.0135100534068092e6 0.0
0.0 0.0 0.0

-1.143265871811702e7 2.168935560334327e7 0.0
2.168935560334327e7 -6.587223597992176e6 0.0
0.0 0.0 0.0

-2.613673019661538e7 2.6180221551130585e7 0.0
2.6180221551130585e7 -1.2809782671593651e6 0.0
0.0 0.0 0.0

84051.56189703218 2.9028258886438712e7 0.0
2.9028258886438712e7 -253969.35664315606 0.0
0.0 0.0 0.0

437098.1525103446 1.6390125454362517e7 0.0
1.6390125454362517e7 602741.5917055876 0.0
0.0 0.0 0.0

-9.226781093203692e6 -1.7421908234524815e6 0.0
-1.7421908234524815e6 3.562538898960648e7 0.0
0.0 0.0 0.0

1.0216450128700567e7 2.0033919678113975e7 0.0
2.0033919678113975e7 -848573.8767208732 0.0
0.0 0.0 0.0

-161179.86993988045 1.7713262904487707e7 0.0
1.7713262904487707e7 -1.0055965876838563e7 0.0
0.0 0.0 0.0

-9.846262043488346e6 -1.808125580265782e6 0.0
-1.808125580265782e6 2.7506157189015716e7 0.0
0.0 0.0 0.0

-4.070681928771675e6 2.1638233700493358e7 0.0
2.1638233700493358e7 8.660932454836784e6 0.0
0.0 0.0 0.0

-3.984728180017384e6 2.287023186910193e7 0.0
2.287023186910193e7 7.750505218183653e6 0.0
0.0 0.0 0.0

-4.0375743067800812e6 1.194708243408533e6 0.0
1.194708243408533e6 4.013128144849417e6 0.0
0.0 0.0 0.0

3.582126134845767e6 5.183690486913056e6 0.0
5.183690486913056e6 -2.473915250890676e7 0.0
0.0 0.0 0.0

1.254399632638203e6 8.134132292475571e6 0.0
8.134132292475571e6 -4.315073327889147e7 0.0
0.0 0.0 0.0

5.251580001135716e6 2.0643067953898378e7 0.0
2.0643067953898378e7 1.1773454498858092e7 0.0
0.0 0.0 0.0

2.8316984299171474e6 4.452498279392782e6 0.0
4.452498279392782e6 -1.0290544058389025e7 0.0
0.0 0.0 0.0

1.5940167546461325e7 2.6821069380519412e7 0.0
2.6821069380519412e7 -8.056153433374661e6 0.0
0.0 0.0 0.0

4.266675327559404e6 4.529577757075133e6 0.0
4.529577757075133e6 -2.3568027085415006e7 0.0
0.0 0.0 0.0

3.9986570672274195e6 5.031358475175184e6 0.0
5.031358475175184e6 -1.6445767760143317e7 0.0
0.0 0.0 0.0

3.745009603460556e6 4.848916425566447e6 0.0
4.848916425566447e6 -2.1001949915674035e7 0.0
0.0 0.0 0.0

635171.0812486367 1.7301618718088664e7 0.0
1.7301618718088664e7 2.192820696955052e6 0.0
0.0 0.0 0.0

831512.0394584467 1.691199339776248e7 0.0
1.691199339776248e7 7.63772507995208e6 0.0
0.0 0.0 0.0

570498.9807373798 1.4629737734823078e7 0.0
1.4629737734823078e7 -2.292378398944617e7 0.0
0.0 0.0 0.0

1.4786940625719065e7 2.78821840559021e7 0.0
2.78821840559021e7 -6.703819682644407e6 0.0
0.0 0.0 0.0

-9.594361858891254e6 -3.2530015575426263e6 0.0
-3.2530015575426263e6 2.728631127115071e7 0.0
0.0 0.0 0.0

-3.9112840944705675e6 2.18556835588584e7 0.0
2.18556835588584e7 1.0226818315657364e7 0.0
0.0 0.0 0.0

-2.2229009993028236e6 2.8474485086326495e7 0.0
2.8474485086326495e7 672065.2622579386 0.0
0.0 0.0 0.0

-346470.4935444918 2.418850241583654e7 0.0
2.418850241583654e7 -3.538222056763848e6 0.0
0.0 0.0 0.0

-7.649510793250443e6 -4.710638571789647e6 0.0
-4.710638571789647e6 1.821310080275166e7 0.0
0.0 0.0 0.0

-8.788793651552288e6 -1.7174971728780915e6 0.0
-1.7174971728780915e6 1.2440980915634824e7 0.0
0.0 0.0 0.0

1.0977386671399819e6 1.852977984729575e7 0.0
1.852977984729575e7 1.9808196995818067e7 0.0
0.0 0.0 0.0

-1.137568970133822e6 740633.1709892058 0.0
740633.1709892058 806597.0680816574 0.0
0.0 0.0 0.0

4.911848283748841e6 2.2399104905676294e7 0.0
2.2399104905676294e7 -5.279898693860257e6 0.0
0.0 0.0 0.0

-281129.1366955829 2.0357432046051804e7 0.0
2.0357432046051804e7 -9.486456889746321e6 0.0
0.0 0.0 0.0

448493.72756138444 1.701729199102592e7 0.0
1.701729199102592e7 -1.6768110071865143e7 0.0
0.0 0.0 0.0

-2.473009669631335e6 2.084251572593613e7 0.0
2.084251572593613e7 401861.4533019756 0.0
0.0 0.0 0.0

-4.232474240721973e6 2.0925524285587862e7 0.0
2.0925524285587862e7 9.138993547368303e6 0.0
0.0 0.0 0.0

-1.0801903735245887e7 1.4222768259505056e7 0.0
1.4222768259505056e7 2.143585911237979e7 0.0
0.0 0.0 0.0

-1.8250430725275327e7 3.59102673648682e7 0.0
3.59102673648682e7 5.981334611380497e6 0.0
0.0 0.0 0.0

3.0347746612346806e6 4.383601847191372e6 0.0
4.383601847191372e6 -1.0493300547120422e7 0.0
0.0 0.0 0.0

706172.7996432036 1.6611140066241434e7 0.0
1.6611140066241434e7 -1.4008698951372229e7 0.0
0.0 0.0 0.0

3.042951297641294e6 3.969812082344647e6 0.0
3.969812082344647e6 -4.605992040277271e7 0.0
0.0 0.0 0.0

1.7463197149903341e6 2.184792623955639e7 0.0
2.184792623955639e7 -7.276639892259714e6 0.0
0.0 0.0 0.0

-7.479327965654278e6 1.1571920640673222e7 0.0
1.1571920640673222e7 1.1023022272959577e7 0.0
0.0 0.0 0.0

-6.884093374646016e6 1.55488387704108e7 0.0
1.55488387704108e7 -2.910725681676679e7 0.0
0.0 0.0 0.0

2.6688515970117908e7 1.9180868383529797e7 0.0
1.9180868383529797e7 5.508215494449386e6 0.0
0.0 0.0 0.0

-8.99204506100214e6 1.5422997980579832e6 0.0
1.5422997980579832e6 1.4765016781513732e7 0.0
0.0 0.0 0.0

7.937204864829483e6 1.9740646708764542e7 0.0
1.9740646708764542e7 9.092069080251813e6 0.0
0.0 0.0 0.0

4.762789932138308e6 1.5897716643445602e7 0.0
1.5897716643445602e7 2.104679638592722e7 0.0
0.0 0.0 0.0

-5.681069243069374e6 1.5853226414276583e7 0.0
1.5853226414276583e7 -1.6986533846010376e7 0.0
0.0 0.0 0.0

2.157828177106102e6 3.0292939876388393e7 0.0
3.0292939876388393e7 -3.1321475858358834e6 0.0
0.0 0.0 0.0

-1.2890990363934257e6 2.15234747797579e7 0.0
2.15234747797579e7 -6.621467185252767e6 0.0
0.0 0.0 0.0

-6.795112964918048e6 1.6478670434966883e7 0.0
1.6478670434966883e7 1.6705712571931954e7 0.0
0.0 0.0 0.0

111901.95046580955 8.1333623577044e6 0.0
8.1333623577044e6 -6.070053031383563e7 0.0
0.0 0.0 0.0

-9.212133574289955e6 -144504.91936086136 0.0
-144504.91936086136 1.2576673984632174e7 0.0
0.0 0.0 0.0

-938764.8038387285 1.754151047655291e7 0.0
1.754151047655291e7 -7.027458715540391e6 0.0
0.0 0.0 0.0

7.013641036177082e6 1.9994069209626283e7 0.0
1.9994069209626283e7 9.045153253211413e6 0.0
0.0 0.0 0.0

-538072.5623742319 1.3015890607019465e7 0.0
1.3015890607019465e7 6.264873390225312e6 0.0
0.0 0.0 0.0

-4.511017002948452e6 2.0281429359120436e7 0.0
2.0281429359120436e7 1.3673367114476481e7 0.0
0.0 0.0 0.0

-3.1385146593160997e6 2.4370140163252052e7 0.0
2.4370140163252052e7 4.78921464597773e6 0.0
0.0 0.0 0.0

-1.59591468891339e7 3.669461995198108e7 0.0
3.669461995198108e7 7.178926180143432e6 0.0
0.0 0.0 0.0

1.186152210468202e6 7.586939898130276e6 0.0
7.586939898130276e6 -6.21329097231095e6 0.0
0.0 0.0 0.0

-3.635716487221732e6 2.4099525388282206e7 0.0
2.4099525388282206e7 4.386152616586938e6 0.0
0.0 0.0 0.0

-1.0827905661074687e6 2.0642261152593944e7 0.0
2.0642261152593944e7 -6.6668503207569495e6 0.0
0.0 0.0 0.0

1.1910569926269468e7 2.0389694580894265e7 0.0
2.0389694580894265e7 1.0351547586761275e7 0.0
0.0 0.0 0.0

-1.0356208552667234e6 2.3285427562060833e7 0.0
2.3285427562060833e7 -4.939463797258485e6 0.0
0.0 0.0 0.0

2.3555579890097342e6 4.395092373153717e6 0.0
4.395092373153717e6 -8.527070502484184e6 0.0
0.0 0.0 0.0

-127370.55874144519 1.8013662964197643e7 0.0
1.8013662964197643e7 -1.2578095885052433e7 0.0
0.0 0.0 0.0

-1.038971090671718e7 640728.1802185159 0.0
640728.1802185159 2.1062558187345415e7 0.0
0.0 0.0 0.0

4.014882233103629e6 5.790962459576955e6 0.0
5.790962459576955e6 -2.3163298920216415e7 0.0
0.0 0.0 0.0

2.833078392702529e6 4.7024397535499055e6 0.0
4.7024397535499055e6 -4.986596570531498e7 0.0
0.0 0.0 0.0

1.5730154570862937e6 1.9973854612067718e7 0.0
1.9973854612067718e7 1.1483739777775293e7 0.0
0.0 0.0 0.0

415725.3665029546 1.7888810255946297e7 0.0
1.7888810255946297e7 -1.4760099071576068e7 0.0
0.0 0.0 0.0

-7.274405261308109e6 1.6727399603663761e7 0.0
1.6727399603663761e7 1.4744391394908633e7 0.0
0.0 0.0 0.0

4.331115577652558e6 2.618578553470394e6 0.0
2.618578553470394e6 -2.003599938903682e7 0.0
0.0 0.0 0.0

1.416023085504978e6 1.4662570309789833e7 0.0
1.4662570309789833e7 -1.7953380077878762e7 0.0
0.0 0.0 0.0

33388.084727077745 1.6433769218071776e7 0.0
1.6433769218071776e7 -1.7705501378778625e7 0.0
0.0 0.0 0.0

-6.501867301632663e6 1.765931444582808e7 0.0
1.765931444582808e7 1.4099443802120138e7 0.0
0.0 0.0 0.0

-2.540016482007172e6 7.502303736510044e6 0.0
7.502303736510044e6 4.368571033174129e6 0.0
0.0 0.0 0.0

-9.507980091966227e6 -2.80458037294623e6 0.0
-2.80458037294623e6 2.2312846645148553e7 0.0
0.0 0.0 0.0

97910.79868990649 1.728927597897097e7 0.0
1.728927597897097e7 -1.539274158442639e7 0.0
0.0 0.0 0.0

-6.809117505668239e6 1.0354630702601068e7 0.0
1.0354630702601068e7 1.1925889320605174e7 0.0
0.0 0.0 0.0

1.0971432123305285e7 1.895477772297154e7 0.0
1.895477772297154e7 9.662513811930222e6 0.0
0.0 0.0 0.0

-298267.4893747391 2.088904899602735e7 0.0
2.088904899602735e7 -8.898429450886784e6 0.0
0.0 0.0 0.0

2.5029493671426503e6 4.371899483439463e6 0.0
4.371899483439463e6 -7.614631055296503e6 0.0
0.0 0.0 0.0

-9.914030178219913e6 4.91754224183715e6 0.0
4.91754224183715e6 3.603392180201509e7 0.0
0.0 0.0 0.0

-2.5041329629092407e6 2.6133212926095188e7 0.0
2.6133212926095188e7 923539.2212967834 0.0
0.0 0.0 0.0

-8.295985686388078e6 2.7805476297830906e7 0.0
2.7805476297830906e7 5.475373496605879e6 0.0
0.0 0.0 0.0

-1.0729434405296471e7 2.3395890310127744e6 0.0
2.3395890310127744e6 1.3443022015740702e7 0.0
0.0 0.0 0.0

-1.024376100495838e7 22888.893430178952 0.0
22888.893430178952 2.8927268112681255e7 0.0
0.0 0.0 0.0

923555.8348376732 1.3149838027358871e7 0.0
1.3149838027358871e7 -2.5512594460991867e7 0.0
0.0 0.0 0.0

-5.315978452889961e6 1.819394377812411e7 0.0
1.819394377812411e7 1.4771882967502952e7 0.0
0.0 0.0 0.0

-1.0175678254044913e7 6.174600168836187e6 0.0
6.174600168836187e6 3.646612267167775e7 0.0
0.0 0.0 0.0

-5.7246401461953945e7 1.7729635203348637e7 0.0
1.7729635203348637e7 6.487179634583455e6 0.0
0.0 0.0 0.0

1.2974202837002957e6 1.236165049125354e7 0.0
1.236165049125354e7 -1.6093144533439083e7 0.0
0.0 0.0 0.0

696331.3351308391 1.7182765201459553e7 0.0
1.7182765201459553e7 188330.5777747619 0.0
0.0 0.0 0.0

4.232068382474134e6 2.1135166555626513e6 0.0
2.1135166555626513e6 -3.1071702966580357e7 0.0
0.0 0.0 0.0

1.45440668971927e6 1.8506717771968562e7 0.0
1.8506717771968562e7 1.3846570982117398e7 0.0
0.0 0.0 0.0

-1.1074105029966649e7 6.319638555138076e6 0.0
6.319638555138076e6 3.3483861168338314e7 0.0
0.0 0.0 0.0

1.2962988012000802e6 6.534920217660432e6 0.0
6.534920217660432e6 -7.859482109582547e6 0.0
0.0 0.0 0.0

-1.0046176946209371e6 2.0686889612247642e7 0.0
2.0686889612247642e7 -6.647334642799928e6 0.0
0.0 0.0 0.0

-2.7895191252809693e6 2.3366815132463753e7 0.0
2.3366815132463753e7 390907.45008176693 0.0
0.0 0.0 0.0

-3.6482275074651265e6 2.0176464822646137e7 0.0
2.0176464822646137e7 8.861985309454508e6 0.0
0.0 0.0 0.0

-5.833401813246572e6 2.7083878695517916e7 0.0
2.7083878695517916e7 5.095850344471595e6 0.0
0.0 0.0 0.0

-3.2922077482240787e6 1.9251264897817533e7 0.0
1.9251264897817533e7 352378.95247325767 0.0
0.0 0.0 0.0

-9.05900841004748e6 -715507.2048614011 0.0
-715507.2048614011 4.045070311596444e7 0.0
0.0 0.0 0.0

1.7663923807605873e6 1.7960472408498093e7 0.0
1.7960472408498093e7 1.770905519583567e7 0.0
0.0 0.0 0.0

899947.6165205734 1.6376793693093723e7 0.0
1.6376793693093723e7 -1.5311996992631936e7 0.0
0.0 0.0 0.0

-1.4920367713355863e7 2.506512437038698e7 0.0
2.506512437038698e7 -4.0765329635095797e6 0.0
0.0 0.0 0.0

-5.679566886040541e6 -520693.3117915055 0.0
-520693.3117915055 6.904028113741698e6 0.0
0.0 0.0 0.0

-1.8612372087228352e6 2.800197906500667e7 0.0
2.800197906500667e7 1.7517320381166846e6 0.0
0.0 0.0 0.0

229448.42311729095 1.6562748695822917e7 0.0
1.6562748695822917e7 -1.558686941835314e6 0.0
0.0 0.0 0.0

-9.486161968669213e6 1.6356349267555805e7 0.0
1.6356349267555805e7 2.3866043326598935e7 0.0
0.0 0.0 0.0

2.689664089047921e6 1.0959025029346272e7 0.0
1.0959025029346272e7 -2.0956230036017556e7 0.0
0.0 0.0 0.0

-1.0135682780938298e7 1.5600602629688099e7 0.0
1.5600602629688099e7 2.2304336295928527e7 0.0
0.0 0.0 0.0

2.0947414870276358e6 4.468648780900257e6 0.0
4.468648780900257e6 -7.341331896318458e6 0.0
0.0 0.0 0.0

3.7144022021512156e6 7.008240357947474e6 0.0
7.008240357947474e6 -2.2951419919954456e7 0.0
0.0 0.0 0.0

-1.8649323042887338e6 1.932381129423069e7 0.0
1.932381129423069e7 -7.560538938329012e6 0.0
0.0 0.0 0.0

-2.983623491809869e6 2.0488747846706167e7 0.0
2.0488747846706167e7 2.1272157150170347e6 0.0
0.0 0.0 0.0

-2.3977205740550878e6 2.347083382219311e7 0.0
2.347083382219311e7 1.6572518609937266e6 0.0
0.0 0.0 0.0

2.128626561583207e6 2.1265296320608288e7 0.0
2.1265296320608288e7 -7.239217195707059e6 0.0
0.0 0.0 0.0

4.139107780204936e6 5.1062364746021e6 0.0
5.1062364746021e6 -2.0874756268695883e7 0.0
0.0 0.0 0.0

1.5601985511403775e6 4.376829760775026e6 0.0
4.376829760775026e6 -5.396743259380689e6 0.0
0.0 0.0 0.0

3.1943675846502716e6 6.384263230562117e6 0.0
6.384263230562117e6 -2.440581278373337e7 0.0
0.0 0.0 0.0

2.0579543953227182e6 6.489704759021721e6 0.0
6.489704759021721e6 -8.116621313662071e6 0.0
0.0 0.0 0.0

1.5449747653571572e7 1.8811359081824742e7 0.0
1.8811359081824742e7 8.115922356914436e6 0.0
0.0 0.0 0.0

-2.6661314558376186e6 3.087631723665701e7 0.0
3.087631723665701e7 2.518639349255503e6 0.0
0.0 0.0 0.0

-9.445956001800295e6 -2.456781667172268e6 0.0
-2.456781667172268e6 3.22518492872184e7 0.0
0.0 0.0 0.0

2.3193372991192658e6 7.976291360218687e6 0.0
7.976291360218687e6 -3.964248374195029e7 0.0
0.0 0.0 0.0

1.5251614422357157e6 2.1923576305475976e7 0.0
2.1923576305475976e7 -7.39495674088311e6 0.0
0.0 0.0 0.0

-1.59572004561806e6 1.910676215453677e7 0.0
1.910676215453677e7 -8.877697257236067e6 0.0
0.0 0.0 0.0

2.8133768226281367e6 7.31156775994092e6 0.0
7.31156775994092e6 -3.0300992022606418e7 0.0
0.0 0.0 0.0

-5.961028912123126e6 3.0917170091721654e7 0.0
3.0917170091721654e7 4.753464753668381e6 0.0
0.0 0.0 0.0

5.686199033564203e6 2.065293456401803e7 0.0
2.065293456401803e7 1.1048866449498396e7 0.0
0.0 0.0 0.0

-3.601414052717657e7 3.458828618540222e7 0.0
3.458828618540222e7 7.89009096486517e6 0.0
0.0 0.0 0.0

-3.7738709315932635e6 1.847693446702477e7 0.0
1.847693446702477e7 1.917587393769584e7 0.0
0.0 0.0 0.0

2.6217364974050196e6 1.004334662707184e7 0.0
1.004334662707184e7 -2.147346158676613e7 0.0
0.0 0.0 0.0

6.168155053707163e7 2.12637955556522e7 0.0
2.12637955556522e7 7.572765951654028e6 0.0
0.0 0.0 0.0

3.4016285911252405e6 1.927891592590157e7 0.0
1.927891592590157e7 1.5337120975038199e7 0.0
0.0 0.0 0.0

-1.1021648129372882e7 1.73923220252864e6 0.0
1.73923220252864e6 2.1984473106510848e7 0.0
0.0 0.0 0.0

944802.7012864959 1.7388222129273966e7 0.0
1.7388222129273966e7 8.057953490782367e6 0.0
0.0 0.0 0.0

-1.9223335908181574e6 1.5846544686008e7 0.0
1.5846544686008e7 -2.155926485032116e7 0.0
0.0 0.0 0.0

6.444698700440526e6 2.1966316106648467e7 0.0
2.1966316106648467e7 -4.799589591923432e6 0.0
0.0 0.0 0.0

-3.5755534436719916e6 2.0521245228158668e7 0.0
2.0521245228158668e7 7.060858052250179e6 0.0
0.0 0.0 0.0

-1.0915332520096064e7 4.770295308236025e6 0.0
4.770295308236025e6 3.2736900816067226e7 0.0
0.0 0.0 0.0

-5.386206786381624e6 3.1422469108289037e7 0.0
3.1422469108289037e7 3.665183752441967e6 0.0
0.0 0.0 0.0

-7.122070408475187e6 2.147107361300278e7 0.0
2.147107361300278e7 4.541049065703409e6 0.0
0.0 0.0 0.0

-2.965315428214346e6 2.3129713348006938e7 0.0
2.3129713348006938e7 1.097323442452383e6 0.0
0.0 0.0 0.0

1.348895290910931e6 2.6055325338597797e7 0.0
2.6055325338597797e7 -3.568820419344469e6 0.0
0.0 0.0 0.0

-2.5133667895627166e6 2.5620362090933062e7 0.0
2.5620362090933062e7 840865.3498945971 0.0
0.0 0.0 0.0

107586.05902558514 1.743112299655916e7 0.0
1.743112299655916e7 116858.39256357017 0.0
0.0 0.0 0.0

-1.4896720308306068e6 1.899746775103932e7 0.0
1.899746775103932e7 1.6433938140341872e7 0.0
0.0 0.0 0.0

1.661667506168272e6 1.8653676105429772e7 0.0
1.8653676105429772e7 -164989.52938206086 0.0
0.0 0.0 0.0

-6.603345305733811e6 1.630651581583113e7 0.0
1.630651581583113e7 -3.5914385933355205e7 0.0
0.0 0.0 0.0

-5133.545607005712 1.7488284601632122e7 0.0
1.7488284601632122e7 1.9412721331020372e6 0.0
0.0 0.0 0.0

-3.2469950970357163e6 2.0390606401793566e7 0.0
2.0390606401793566e7 891721.3351036774 0.0
0.0 0.0 0.0

1.562002351197267e6 1.5095178573518056e7 0.0
1.5095178573518056e7 1.3030872538667247e7 0.0
0.0 0.0 0.0

154019.06541217817 1.9242417787454046e7 0.0
1.9242417787454046e7 -1.1103400466184245e7 0.0
0.0 0.0 0.0

1.0114989277018523e6 1.4341696226519125e7 0.0
1.4341696226519125e7 -1.8976614229169004e7 0.0
0.0 0.0 0.0

4.1889253159613283e6 4.549461252603746e6 0.0
4.549461252603746e6 -2.171790200808884e7 0.0
0.0 0.0 0.0

2.700958531527821e6 1.9036023208978362e7 0.0
1.9036023208978362e7 1.315430565192598e7 0.0
0.0 0.0 0.0

-2.2587178430549e6 1.9425939431833602e7 0.0
1.9425939431833602e7 1.15531066675317e7 0.0
0.0 0.0 0.0

-9.915287574486881e6 1.6052792347036112e7 0.0
1.6052792347036112e7 2.234718997958718e7 0.0
0.0 0.0 0.0

-3.4963036376739573e6 1.9943058592068393e7 0.0
1.9943058592068393e7 8.062123618482434e6 0.0
0.0 0.0 0.0

-3.0819055510731903e6 1.943826929391178e7 0.0
1.943826929391178e7 -7.846852817811451e6 0.0
0.0 0.0 0.0

-1.0211759618977847e7 1.6153914981982594e7 0.0
1.6153914981982594e7 2.098362359210787e7 0.0
0.0 0.0 0.0

-1.0283973671001606e7 1.5769254567937521e7 0.0
1.5769254567937521e7 2.3850680300031707e7 0.0
0.0 0.0 0.0

-1.1272135577592732e7 1.42320852854723e7 0.0
1.42320852854723e7 1.9673473218750842e7 0.0
0.0 0.0 0.0

-9.141128938574068e6 -4.315019951557161e6 0.0
-4.315019951557161e6 2.1591586071427695e7 0.0
0.0 0.0 0.0

-3.421228990813452e6 2.185298807938496e7 0.0
2.185298807938496e7 8.661030290496444e6 0.0
0.0 0.0 0.0

-2.4305467490905123e6 1.510635862085791e7 0.0
1.510635862085791e7 -3.1243294880173225e7 0.0
0.0 0.0 0.0

132731.191799392 1.4585240325463308e7 0.0
1.4585240325463308e7 -2.2895168648141332e7 0.0
0.0 0.0 0.0

-2.485459923206665e7 2.8183564032286555e7 0.0
2.8183564032286555e7 -5.976567289458775e6 0.0
0.0 0.0 0.0

-9.133796560896672e6 3.849823105889216e6 0.0
3.849823105889216e6 4.120558218247707e7 0.0
0.0 0.0 0.0

621192.0167796854 1.5074017684017498e7 0.0
1.5074017684017498e7 -2.153410182102803e7 0.0
0.0 0.0 0.0

-1.6333084133996535e6 2.6177445430651322e7 0.0
2.6177445430651322e7 -900148.7932257118 0.0
0.0 0.0 0.0

1.840129482430481e6 1.7491409824809927e7 0.0
1.7491409824809927e7 1.3728376999646578e7 0.0
0.0 0.0 0.0

-7.355727220702826e6 -6.7043330747037735e6 0.0
-6.7043330747037735e6 1.7464933821272526e7 0.0
0.0 0.0 0.0

-305337.131058253 1.7194707492381476e7 0.0
1.7194707492381476e7 -1.8238944148701027e6 0.0
0.0 0.0 0.0

-1.3143138161735286e6 1.876047191816628e7 0.0
1.876047191816628e7 -8.420250662861867e6 0.0
0.0 0.0 0.0

-1.1973669879190125e7 5.768913502831084e6 0.0
5.768913502831084e6 1.513833209056224e7 0.0
0.0 0.0 0.0

3.7827329530394226e6 1.8186578166408208e6 0.0
1.8186578166408208e6 -3.9118740148895584e7 0.0
0.0 0.0 0.0

298556.61686778674 9.878004275421387e6 0.0
9.878004275421387e6 -8.657316586493187e6 0.0
0.0 0.0 0.0

-1.1508837624109564e7 1.150852757688691e6 0.0
1.150852757688691e6 2.618204343354951e7 0.0
0.0 0.0 0.0

334159.2048485903 1.9640370065598678e7 0.0
1.9640370065598678e7 -1.082050494536767e7 0.0
0.0 0.0 0.0

4.3896061192254685e6 1.751574112473263e7 0.0
1.751574112473263e7 2.4316069467930313e7 0.0
0.0 0.0 0.0

215136.65207494865 9.427520620305233e6 0.0
9.427520620305233e6 -4.999078380740504e6 0.0
0.0 0.0 0.0

6.068242272281196e6 2.0532120114758804e7 0.0
2.0532120114758804e7 1.2485865842687951e7 0.0
0.0 0.0 0.0

-3.178415018954286e6 3.160080208222057e7 0.0
3.160080208222057e7 2.7578971611781092e6 0.0
0.0 0.0 0.0

-1.180414840540601e7 1.9292814893322506e6 0.0
1.9292814893322506e6 1.9125910384473268e7 0.0
0.0 0.0 0.0

-891615.5034518158 1.8407322555707768e7 0.0
1.8407322555707768e7 1.740590794315032e7 0.0
0.0 0.0 0.0

2.106295300865789e6 1.0348806509531336e7 0.0
1.0348806509531336e7 -2.1947616480917078e7 0.0
0.0 0.0 0.0

-1.906264425293549e7 2.4952211325902782e7 0.0
2.4952211325902782e7 2.776261374662569e6 0.0
0.0 0.0 0.0

-6.920615830755098e6 -2.6025103625684986e6 0.0
-2.6025103625684986e6 9.398913139797933e6 0.0
0.0 0.0 0.0

-9.128955399183003e6 2.1208021697716128e7 0.0
2.1208021697716128e7 -6.479275549564469e6 0.0
0.0 0.0 0.0

2.7031264767925806e7 2.0516816676625766e7 0.0
2.0516816676625766e7 6.04782320829085e6 0.0
0.0 0.0 0.0

-1.50154524390299e6 2.0797278457199354e7 0.0
2.0797278457199354e7 -6.481231668233201e6 0.0
0.0 0.0 0.0

2.5964773296345808e6 1.0564400569695901e7 0.0
1.0564400569695901e7 -2.038789797820972e7 0.0
0.0 0.0 0.0

-4.338429991490431e6 2.208738495648225e7 0.0
2.208738495648225e7 1.00639665080292e7 0.0
0.0 0.0 0.0

-8.475082187866628e6 69652.79891265949 0.0
69652.79891265949 4.628987649826234e7 0.0
0.0 0.0 0.0

-3.774917126294942e6 1.925830687789535e7 0.0
1.925830687789535e7 -1.169178643586182e7 0.0
0.0 0.0 0.0

-1.8903361232497205e6 2.8550148605886593e7 0.0
2.8550148605886593e7 1.8475819894901775e6 0.0
0.0 0.0 0.0

-975107.5464420691 1.3765000460031053e7 0.0
1.3765000460031053e7 -3.0594255470409058e7 0.0
0.0 0.0 0.0

213390.6897125598 1.7177989217706244e7 0.0
1.7177989217706244e7 -1.6648664257193314e7 0.0
0.0 0.0 0.0

309321.6335392259 1.6613687959664654e7 0.0
1.6613687959664654e7 -1.790401719323472e7 0.0
0.0 0.0 0.0

-1.044725172401027e7 1.2773237278016657e7 0.0
1.2773237278016657e7 2.9271096216864042e7 0.0
0.0 0.0 0.0

-3.70172992108312e6 2.0886515425702594e7 0.0
2.0886515425702594e7 7.565530024712273e6 0.0
0.0 0.0 0.0

-6.514046473540574e6 1.1178627457205893e7 0.0
1.1178627457205893e7 8.577855537663834e7 0.0
0.0 0.0 0.0

3.457128994100783e6 1.1317994258027527e7 0.0
1.1317994258027527e7 -8.0132133551313e7 0.0
0.0 0.0 0.0

-1.3780619666895129e7 2.4954512983370468e7 0.0
2.4954512983370468e7 -7.886357833351374e6 0.0
0.0 0.0 0.0

-2.9084583768253643e6 1.87396489478036e7 0.0
1.87396489478036e7 1.2347633293064665e7 0.0
0.0 0.0 0.0

-2.1270026586931642e7 2.5615040622933302e7 0.0
2.5615040622933302e7 -1.6989679112180118e6 0.0
0.0 0.0 0.0

-6.85093218610477e6 -3.332913010800364e6 0.0
-3.332913010800364e6 1.4153388518275432e7 0.0
0.0 0.0 0.0

-9.017060307669379e6 1.6743534572401188e7 0.0
1.6743534572401188e7 1.883160501288841e7 0.0
0.0 0.0 0.0

-1.0427762984693391e7 2.2357487521667223e7 0.0
2.2357487521667223e7 -5.103935904907584e6 0.0
0.0 0.0 0.0

-1.06481099663301e7 2.323668912358318e6 0.0
2.323668912358318e6 2.8367675899751127e7 0.0
0.0 0.0 0.0

2.5473319952070523e7 1.8553427012497555e7 0.0
1.8553427012497555e7 5.514491301204342e6 0.0
0.0 0.0 0.0

-817641.1272205291 1.8330485941732526e7 0.0
1.8330485941732526e7 2.0649858008859087e7 0.0
0.0 0.0 0.0

-5.188435760994613e6 1.7929893180712745e7 0.0
1.7929893180712745e7 1.4417122005788999e7 0.0
0.0 0.0 0.0

-2.2902546231839888e7 3.419771806759253e7 0.0
3.419771806759253e7 9.72314936574422e6 0.0
0.0 0.0 0.0

3.0725872797693126e6 1.9369023611477975e7 0.0
1.9369023611477975e7 4.237175256205762e6 0.0
0.0 0.0 0.0

2.45817564593974e6 1.8095905778915368e7 0.0
1.8095905778915368e7 -1.7311622650983823e6 0.0
0.0 0.0 0.0

-4.486688104359946e6 2.3323661991878554e7 0.0
2.3323661991878554e7 8.624384006181072e6 0.0
0.0 0.0 0.0

-6.492881544495235e6 2.0612854661362495e7 0.0
2.0612854661362495e7 -396750.4652830346 0.0
0.0 0.0 0.0

-823948.0639365241 1.6807937353499405e7 0.0
1.6807937353499405e7 -2.1657928240259727e6 0.0
0.0 0.0 0.0

2.3937073319841945e6 1.882151616079876e7 0.0
1.882151616079876e7 -3.5156097687222664e6 0.0
0.0 0.0 0.0

2.3785757763698623e6 1.9423990769350924e7 0.0
1.9423990769350924e7 1.1979035387288269e7 0.0
0.0 0.0 0.0

2.764002224137014e6 2.921035063305424e7 0.0
2.921035063305424e7 -2.1490230161978845e6 0.0
0.0 0.0 0.0

-3.9339653004134363e6 2.1628287039785136e7 0.0
2.1628287039785136e7 9.524666816092884e6 0.0
0.0 0.0 0.0

-4.672529731496582e6 3.120786183955629e7 0.0
3.120786183955629e7 2.1298774775904203e6 0.0
0.0 0.0 0.0

-5.431654426475785e6 1.5712009395222204e7 0.0
1.5712009395222204e7 -3.957782258658875e7 0.0
0.0 0.0 0.0

-1.3547688583965594e7 1.842090395535306e7 0.0
1.842090395535306e7 -7.443816432281695e7 0.0
0.0 0.0 0.0

1.242417347970409e7 1.908326468872887e7 0.0
1.908326468872887e7 7.730610298527728e7 0.0
0.0 0.0 0.0

4.628010228043616e6 1.7824844143113732e7 0.0
1.7824844143113732e7 2.3507767404614326e7 0.0
0.0 0.0 0.0

1.5474949340167418e6 9.553060857824206e6 0.0
9.553060857824206e6 -3.468189771911252e7 0.0
0.0 0.0 0.0

1.0355627737791542e6 2.8887605233027834e7 0.0
2.8887605233027834e7 -2.5803746751815e6 0.0
0.0 0.0 0.0

94237.08555658301 2.0780413150926586e7 0.0
2.0780413150926586e7 -8.730176483530939e6 0.0
0.0 0.0 0.0

-805739.505772016 1.808527412115928e7 0.0
1.808527412115928e7 -6.045093817251807e6 0.0
0.0 0.0 0.0

458994.6130256979 2.00064168260516e7 0.0
2.00064168260516e7 -1.0245874590723429e7 0.0
0.0 0.0 0.0

-3.0303083912423477e7 3.605466068937818e7 0.0
3.605466068937818e7 1.0272338974202674e7 0.0
0.0 0.0 0.0

-2.8269737702183668e6 2.825140197392567e7 0.0
2.825140197392567e7 1.3882954244923312e6 0.0
0.0 0.0 0.0

-6.017691906824883e6 2.3933294537858866e7 0.0
2.3933294537858866e7 7.51707009632244e6 0.0
0.0 0.0 0.0

3.341057490607444e6 3.322142296921288e6 0.0
3.322142296921288e6 -4.174680260139756e7 0.0
0.0 0.0 0.0

6.985505383673608e6 2.2609842253775828e7 0.0
2.2609842253775828e7 -5.100196824530392e6 0.0
0.0 0.0 0.0

-933545.9028833676 1.4265459975527402e7 0.0
1.4265459975527402e7 -2.8761949466740977e7 0.0
0.0 0.0 0.0

5.885180553087072e6 2.3076465185785737e7 0.0
2.3076465185785737e7 -5.319715602140484e6 0.0
0.0 0.0 0.0

-475210.3439903065 1.616328146384177e7 0.0
1.616328146384177e7 -1.2850466907256234e6 0.0
0.0 0.0 0.0

-211079.02474080678 1.899097325572532e7 0.0
1.899097325572532e7 1.8145331708886955e7 0.0
0.0 0.0 0.0

-4.699736594956336e6 2.555933277656904e7 0.0
2.555933277656904e7 5.452121182166511e6 0.0
0.0 0.0 0.0

-9.947686393826053e6 -3.010863553190899e6 0.0
-3.010863553190899e6 2.660870815625735e7 0.0
0.0 0.0 0.0

1.2846413377378227e7 1.878234297617521e7 0.0
1.878234297617521e7 1.1918336083143423e6 0.0
0.0 0.0 0.0

-6.393181317718615e7 2.3651537313052025e7 0.0
2.3651537313052025e7 4.246383565676041e6 0.0
0.0 0.0 0.0

-1.109291224481457e7 1.295233158986491e7 0.0
1.295233158986491e7 2.697433142998399e7 0.0
0.0 0.0 0.0

-5.8931969222248625e6 2.1365340419947926e7 0.0
2.1365340419947926e7 4.878489427700948e6 0.0
0.0 0.0 0.0

3.002039571182425e6 1.909691967604175e7 0.0
1.909691967604175e7 -971648.1614385559 0.0
0.0 0.0 0.0

4.335210368338637e6 3.3956453655772717e6 0.0
3.3956453655772717e6 -2.7618317391429823e7 0.0
0.0 0.0 0.0

-3.1306006991234e6 1.924840736123184e7 0.0
1.924840736123184e7 9.779247394145958e6 0.0
0.0 0.0 0.0

-8.882017168583954e6 -852846.0351570332 0.0
-852846.0351570332 4.097187810062407e7 0.0
0.0 0.0 0.0

-1.4134996073792744e7 2.169544549268944e7 0.0
2.169544549268944e7 -7.967628039815433e7 0.0
0.0 0.0 0.0

1.268897373970052e7 2.3679259405183505e7 0.0
2.3679259405183505e7 8.247880429842427e7 0.0
0.0 0.0 0.0

1.0663430671269782e6 1.2573945986528259e7 0.0
1.2573945986528259e7 -2.6476333548172362e7 0.0
0.0 0.0 0.0

1.0680508078399806e6 4.530229421874045e6 0.0
4.530229421874045e6 -5.433968680265837e6 0.0
0.0 0.0 0.0

9.356190311364371e6 1.749530187219249e7 0.0
1.749530187219249e7 5.843755327541427e6 0.0
0.0 0.0 0.0

-8.675053585270187e6 750495.3067808491 0.0
750495.3067808491 4.6518171310948305e7 0.0
0.0 0.0 0.0

1.067084631580704e6 7.885522208030634e6 0.0
7.885522208030634e6 -7.227482275928183e6 0.0
0.0 0.0 0.0

3.647776899650884e6 2.7868695096886903e7 0.0
2.7868695096886903e7 -3.751243639898242e6 0.0
0.0 0.0 0.0

-51633.653911703266 1.7524207040921465e7 0.0
1.7524207040921465e7 -1.3383689981619874e7 0.0
0.0 0.0 0.0

3.1043633799591293e6 1.775285762080412e7 0.0
1.775285762080412e7 1.709621871376319e7 0.0
0.0 0.0 0.0

-5.171569507086018e6 2.117827820536263e7 0.0
2.117827820536263e7 404653.92335628765 0.0
0.0 0.0 0.0

-2.522631552017964e7 2.3919242918050975e7 0.0
2.3919242918050975e7 -4.434981412057923e6 0.0
0.0 0.0 0.0

-3.160011946946147e6 2.7907480500749458e7 0.0
2.7907480500749458e7 1.990971065998875e6 0.0
0.0 0.0 0.0

395200.66515321704 1.7918293009273108e7 0.0
1.7918293009273108e7 1.000868980046003e7 0.0
0.0 0.0 0.0

-2.2701321955844164e6 1.9192413144764133e7 0.0
1.9192413144764133e7 1.4341059530756285e7 0.0
0.0 0.0 0.0

1.1290496715830015e6 1.5069919383939872e7 0.0
1.5069919383939872e7 -1.8342200243771575e7 0.0
0.0 0.0 0.0

502713.6910780459 1.9441453990557604e7 0.0
1.9441453990557604e7 -1.0728880831527399e7 0.0
0.0 0.0 0.0

-9.233129386447454e6 2.1870599772228897e6 0.0
2.1870599772228897e6 4.468558955528717e7 0.0
0.0 0.0 0.0

-2.4717706946189728e7 3.649910592931573e7 0.0
3.649910592931573e7 7.030512038524967e6 0.0
0.0 0.0 0.0

-1.0840079892199373e7 2.9673227869573727e7 0.0
2.9673227869573727e7 5.922057711433429e6 0.0
0.0 0.0 0.0

-2.4952431214643177e7 2.5377993047465075e7 0.0
2.5377993047465075e7 1.7807412995503321e6 0.0
0.0 0.0 0.0

-6739.862020166591 1.8020507042983256e7 0.0
1.8020507042983256e7 3.5297930919902236e6 0.0
0.0 0.0 0.0

-7.597620876301913e6 2.1812530063256767e7 0.0
2.1812530063256767e7 -1.0161796754719119e6 0.0
0.0 0.0 0.0

-1.4114009807563879e7 2.4254138035389602e7 0.0
2.4254138035389602e7 -3.8478148394313995e6 0.0
0.0 0.0 0.0

1.7899646209726888e6 7.155529720566165e6 0.0
7.155529720566165e6 -6.962176531397378e6 0.0
0.0 0.0 0.0

2.207436867984794e6 1.8105014693182666e7 0.0
1.8105014693182666e7 1.7888622050065022e7 0.0
0.0 0.0 0.0

2.468283012299612e6 8.785827037689837e6 0.0
8.785827037689837e6 -3.3921229983480915e7 0.0
0.0 0.0 0.0

-1.0049276062505353e7 1.3995565387910454e7 0.0
1.3995565387910454e7 2.8215782383533254e7 0.0
0.0 0.0 0.0

-8.13442924852979e6 374200.09049538843 0.0
374200.09049538843 4.7572017095690645e7 0.0
0.0 0.0 0.0

3.550939681618536e6 3.497019043742753e6 0.0
3.497019043742753e6 -4.11838512041921e7 0.0
0.0 0.0 0.0

-2.88262417960511e7 2.5635496383351438e7 0.0
2.5635496383351438e7 607422.3483486697 0.0
0.0 0.0 0.0

-9.12212203326843e6 -1.6878182122773945e6 0.0
-1.6878182122773945e6 3.737601331453593e7 0.0
0.0 0.0 0.0

-9.481023181718664e6 -2.394015222756129e6 0.0
-2.394015222756129e6 3.2463532023599073e7 0.0
0.0 0.0 0.0

1.1744665510654487e6 6.893858559237396e6 0.0
6.893858559237396e6 -8.784799945397092e6 0.0
0.0 0.0 0.0

-9.841077350765157e6 -1.1582112613796857e6 0.0
-1.1582112613796857e6 3.1124630945239402e7 0.0
0.0 0.0 0.0

5.021881503408717e6 3.731541196961798e7 0.0
3.731541196961798e7 -5.235075011086462e6 0.0
0.0 0.0 0.0

-4.658642723420758e6 1.879221475451343e7 0.0
1.879221475451343e7 1.3781793737115134e7 0.0
0.0 0.0 0.0

2.4131733518361636e6 4.419105327288087e6 0.0
4.419105327288087e6 -5.059097163818972e7 0.0
0.0 0.0 0.0

3.4784383660399355e6 4.117639970591474e6 0.0
4.117639970591474e6 -3.255673828225565e7 0.0
0.0 0.0 0.0

-3.8224914179808595e6 2.068907268691673e7 0.0
2.068907268691673e7 6.711652181179958e6 0.0
0.0 0.0 0.0

-4.349459165610037e6 3.09483882709435e7 0.0
3.09483882709435e7 3.478437285203566e6 0.0
0.0 0.0 0.0

3.729601475248379e6 1.0456448220183492e7 0.0
1.0456448220183492e7 2.1672941901161447e6 0.0
0.0 0.0 0.0

8.70817673194741e6 2.029157865220385e7 0.0
2.029157865220385e7 1.1346161299603239e7 0.0
0.0 0.0 0.0

7.058869792517383e6 2.1639109161973845e7 0.0
2.1639109161973845e7 -4.202069722044244e6 0.0
0.0 0.0 0.0

-9.348693662439901e6 -1.4575293944957694e6 0.0
-1.4575293944957694e6 3.66236437071071e7 0.0
0.0 0.0 0.0

-1.5351476339615583e7 2.181883776893806e7 0.0
2.181883776893806e7 2.0276753990566088e6 0.0
0.0 0.0 0.0

-3.067917100937656e6 2.7361706289669164e7 0.0
2.7361706289669164e7 1.8659847624427455e6 0.0
0.0 0.0 0.0

928161.3834424391 1.742912674379591e7 0.0
1.742912674379591e7 4.154412070994313e7 0.0
0.0 0.0 0.0

8.587946425548466e6 2.200544057351973e7 0.0
2.200544057351973e7 -4.156906517310955e6 0.0
0.0 0.0 0.0

-3.0086370764184394e6 1.959950061777795e7 0.0
1.959950061777795e7 -7.700663395068266e6 0.0
0.0 0.0 0.0

-4.2987221633805735e6 1.9797334909654178e7 0.0
1.9797334909654178e7 1.4675633193678122e7 0.0
0.0 0.0 0.0

-2.4572063355134847e6 1.8903531008515704e7 0.0
1.8903531008515704e7 -7.905324012311618e6 0.0
0.0 0.0 0.0

-6.076719272415762e7 3.301527497496843e7 0.0
3.301527497496843e7 -2.7346530819296986e6 0.0
0.0 0.0 0.0

-5.7674797208928475e6 1.8514679149428524e7 0.0
1.8514679149428524e7 1.3361927837718453e7 0.0
0.0 0.0 0.0

-2.784684020698821e6 1.9913459835801862e7 0.0
1.9913459835801862e7 -6.5996679967417e6 0.0
0.0 0.0 0.0

-4.381153560535623e6 2.0399794539937586e7 0.0
2.0399794539937586e7 1.3993171819293585e7 0.0
0.0 0.0 0.0

5.384764077641834e6 2.1314401472495914e7 0.0
2.1314401472495914e7 -4.77841942854766e6 0.0
0.0 0.0 0.0

3.994459347104473e6 3.398069954613092e6 0.0
3.398069954613092e6 -2.6837545813020196e7 0.0
0.0 0.0 0.0

1.6870546047603441e6 2.074922578755885e7 0.0
2.074922578755885e7 -7.60865311956921e6 0.0
0.0 0.0 0.0

-2.3697414360587753e7 3.657240064471579e7 0.0
3.657240064471579e7 6.984058011390904e6 0.0
0.0 0.0 0.0

-5.640108804824531e6 2.6644357188796513e7 0.0
2.6644357188796513e7 5.935512811980989e6 0.0
0.0 0.0 0.0

-9.633741286968317e6 -4.0345817734744623e6 0.0
-4.0345817734744623e6 2.105611251804596e7 0.0
0.0 0.0 0.0

112182.15690081008 1.768742441846165e7 0.0
1.768742441846165e7 -1.4679452090353051e7 0.0
0.0 0.0 0.0

1.0499556152116092e7 1.9494231314542014e7 0.0
1.9494231314542014e7 2.306781525372614e6 0.0
0.0 0.0 0.0

-5.623773884061057e7 2.8037125523476213e7 0.0
2.8037125523476213e7 4.391322141408462e6 0.0
0.0 0.0 0.0

2.5522107701376835e6 1.6554682806348942e7 0.0
1.6554682806348942e7 1.2234767112433435e7 0.0
0.0 0.0 0.0

1.914519827488061e6 8.632235167369088e6 0.0
8.632235167369088e6 -3.580136275367087e7 0.0
0.0 0.0 0.0

813659.6702693403 1.4858143071689183e7 0.0
1.4858143071689183e7 -1.8250884288378455e7 0.0
0.0 0.0 0.0

-2.8420809391883165e6 1.952187278098541e7 0.0
1.952187278098541e7 1.1462120950484183e7 0.0
0.0 0.0 0.0

-6.376648950208418e6 3.1191785915991597e7 0.0
3.1191785915991597e7 3.2798454044660055e6 0.0
0.0 0.0 0.0

-429402.2763028452 2.362505145562289e7 0.0
2.362505145562289e7 -4.35974610954772e6 0.0
0.0 0.0 0.0

3.9235114369520843e6 3.1700730562457372e6 0.0
3.1700730562457372e6 -3.1893174872971952e7 0.0
0.0 0.0 0.0

3.645619086647883e6 1.7676431618244916e7 0.0
1.7676431618244916e7 3.520087026799544e7 0.0
0.0 0.0 0.0

-519705.0578897424 1.5890853289377827e7 0.0
1.5890853289377827e7 -1.5497640397019591e6 0.0
0.0 0.0 0.0

-4.3915103379957855e7 3.2427558751585267e7 0.0
3.2427558751585267e7 1.111664090472178e7 0.0
0.0 0.0 0.0

-1.0640205231487354e7 -799893.7615378479 0.0
-799893.7615378479 2.745659120627109e7 0.0
0.0 0.0 0.0

-9.946947628890768e6 -995131.7712577964 0.0
-995131.7712577964 2.966131584457804e7 0.0
0.0 0.0 0.0

9.942050068685127e6 1.947676529774829e7 0.0
1.947676529774829e7 4.875436470527399e6 0.0
0.0 0.0 0.0

-9.095866755410941e6 -1.7793759112031702e6 0.0
-1.7793759112031702e6 3.647271160738513e7 0.0
0.0 0.0 0.0

2.1951093370482633e6 1.6921114261965543e7 0.0
1.6921114261965543e7 1.1957149723824201e7 0.0
0.0 0.0 0.0

5.631999079755609e6 1.794343450943107e7 0.0
1.794343450943107e7 2.4868031081683796e7 0.0
0.0 0.0 0.0

-64150.938842308766 2.8860353455284216e7 0.0
2.8860353455284216e7 -1.0722432844286398e6 0.0
0.0 0.0 0.0

-8.691510271385062e6 5.196972632965667e6 0.0
5.196972632965667e6 4.892746870421176e7 0.0
0.0 0.0 0.0

-1.4725607565576844e6 1.4325527582785547e7 0.0
1.4325527582785547e7 -2.9390704336372536e7 0.0
0.0 0.0 0.0

729660.1906914604 7.648734988963977e6 0.0
7.648734988963977e6 -7.74341570459893e6 0.0
0.0 0.0 0.0

-2.5369084585045036e6 1.914732615918227e7 0.0
1.914732615918227e7 9.748974694344008e6 0.0
0.0 0.0 0.0

2.551584178008822e6 1.821821908982921e7 0.0
1.821821908982921e7 2.458053160405148e7 0.0
0.0 0.0 0.0

-1.0033572166092103e7 -236641.45611353265 0.0
-236641.45611353265 3.5391185979180664e7 0.0
0.0 0.0 0.0

-8.411557256639073e6 7.41197029965226e6 0.0
7.41197029965226e6 7.288221070215529e6 0.0
0.0 0.0 0.0

-3.181494010791003e6 1.9881467747607913e7 0.0
1.9881467747607913e7 934959.4905770549 0.0
0.0 0.0 0.0

-789044.175082813 1.0450435326538837e7 0.0
1.0450435326538837e7 1.1699148350500157e7 0.0
0.0 0.0 0.0

2.762418147105271e6 1.8286559864907008e7 0.0
1.8286559864907008e7 -2.5080491060083862e6 0.0
0.0 0.0 0.0

-1.0389980435828999e7 -1.2100251247357784e6 0.0
-1.2100251247357784e6 2.9298076849344335e7 0.0
0.0 0.0 0.0

-7.875661861960705e6 5.156538113479007e6 0.0
5.156538113479007e6 5.219607957436738e7 0.0
0.0 0.0 0.0

2.2482888659374733e6 1.8845513718278043e7 0.0
1.8845513718278043e7 -1.5292865968683034e6 0.0
0.0 0.0 0.0

453577.9983420586 1.8050119150868483e7 0.0
1.8050119150868483e7 -1.275304915612904e7 0.0
0.0 0.0 0.0

-7.846485491412789e6 5.000320218318938e6 0.0
5.000320218318938e6 5.1712801389135e7 0.0
0.0 0.0 0.0

5.328984478051236e6 2.1354882916358616e7 0.0
2.1354882916358616e7 -4.724646927583879e6 0.0
0.0 0.0 0.0

1.9774944451318574e6 1.7330373292684652e7 0.0
1.7330373292684652e7 1.790815322715573e7 0.0
0.0 0.0 0.0

-7.635318462882952e6 1.0887435107244328e7 0.0
1.0887435107244328e7 1.0738635304984698e7 0.0
0.0 0.0 0.0

-6.563773852887126e6 1.0422906837207004e7 0.0
1.0422906837207004e7 8.911431100273274e6 0.0
0.0 0.0 0.0

-1.250987612011164e7 7.163469615609822e6 0.0
7.163469615609822e6 5.780156383566258e6 0.0
0.0 0.0 0.0

